    1C
    1UUSER                                                              
    1UDATE              27.october.2022                                 
    1UTIME              00:33:12                                        
    1UHOST                                                              
    1UPGM               CalculiX                                        
    1UVERSION           Version 2.17                             
    1UCOMPILETIME       Thu Jul 23 21:43:50 CEST 2020                    
    1UDIR                                                               
    1UDBN                                                               
    1UMAT    1SOLIDMATERIAL                                             
    2C                          4325                                     1
 -1         1 1.25455E+02 3.45176E+01 0.00000E+00
 -1         2 1.28989E+02 2.84358E+01 0.00000E+00
 -1         3 1.50000E+02 0.00000E+00 0.00000E+00
 -1         4 1.50000E+02 5.00000E+01 0.00000E+00
 -1         5 0.00000E+00 0.00000E+00 0.00000E+00
 -1         6 0.00000E+00 5.00000E+01 0.00000E+00
 -1         7 0.00000E+00 4.70500E+01 0.00000E+00
 -1         8 0.00000E+00 4.41000E+01 0.00000E+00
 -1         9 0.00000E+00 4.11500E+01 0.00000E+00
 -1        10 0.00000E+00 3.82000E+01 0.00000E+00
 -1        11 0.00000E+00 3.52500E+01 0.00000E+00
 -1        12 0.00000E+00 3.23500E+01 0.00000E+00
 -1        13 0.00000E+00 2.94000E+01 0.00000E+00
 -1        14 0.00000E+00 2.64500E+01 0.00000E+00
 -1        15 0.00000E+00 2.35000E+01 0.00000E+00
 -1        16 0.00000E+00 2.05500E+01 0.00000E+00
 -1        17 0.00000E+00 1.76000E+01 0.00000E+00
 -1        18 0.00000E+00 1.47000E+01 0.00000E+00
 -1        19 0.00000E+00 1.17500E+01 0.00000E+00
 -1        20 0.00000E+00 8.80000E+00 0.00000E+00
 -1        21 0.00000E+00 5.85000E+00 0.00000E+00
 -1        22 0.00000E+00 2.90000E+00 0.00000E+00
 -1        23 3.15000E+00 5.00000E+01 0.00000E+00
 -1        24 6.15000E+00 5.00000E+01 0.00000E+00
 -1        25 9.15000E+00 5.00000E+01 0.00000E+00
 -1        26 1.21500E+01 5.00000E+01 0.00000E+00
 -1        27 1.51500E+01 5.00000E+01 0.00000E+00
 -1        28 1.81500E+01 5.00000E+01 0.00000E+00
 -1        29 2.11500E+01 5.00000E+01 0.00000E+00
 -1        30 2.41500E+01 5.00000E+01 0.00000E+00
 -1        31 2.71500E+01 5.00000E+01 0.00000E+00
 -1        32 3.01500E+01 5.00000E+01 0.00000E+00
 -1        33 3.31500E+01 5.00000E+01 0.00000E+00
 -1        34 3.61500E+01 5.00000E+01 0.00000E+00
 -1        35 3.91500E+01 5.00000E+01 0.00000E+00
 -1        36 4.21500E+01 5.00000E+01 0.00000E+00
 -1        37 4.51500E+01 5.00000E+01 0.00000E+00
 -1        38 4.81500E+01 5.00000E+01 0.00000E+00
 -1        39 5.11500E+01 5.00000E+01 0.00000E+00
 -1        40 5.41500E+01 5.00000E+01 0.00000E+00
 -1        41 5.71500E+01 5.00000E+01 0.00000E+00
 -1        42 6.01500E+01 5.00000E+01 0.00000E+00
 -1        43 6.31500E+01 5.00000E+01 0.00000E+00
 -1        44 6.61500E+01 5.00000E+01 0.00000E+00
 -1        45 6.91500E+01 5.00000E+01 0.00000E+00
 -1        46 7.21500E+01 5.00000E+01 0.00000E+00
 -1        47 7.51500E+01 5.00000E+01 0.00000E+00
 -1        48 7.81500E+01 5.00000E+01 0.00000E+00
 -1        49 8.11500E+01 5.00000E+01 0.00000E+00
 -1        50 8.41500E+01 5.00000E+01 0.00000E+00
 -1        51 8.71500E+01 5.00000E+01 0.00000E+00
 -1        52 9.01500E+01 5.00000E+01 0.00000E+00
 -1        53 9.31500E+01 5.00000E+01 0.00000E+00
 -1        54 9.61500E+01 5.00000E+01 0.00000E+00
 -1        55 9.91500E+01 5.00000E+01 0.00000E+00
 -1        56 1.02150E+02 5.00000E+01 0.00000E+00
 -1        57 1.05150E+02 5.00000E+01 0.00000E+00
 -1        58 1.08150E+02 5.00000E+01 0.00000E+00
 -1        59 1.11150E+02 5.00000E+01 0.00000E+00
 -1        60 1.14150E+02 5.00000E+01 0.00000E+00
 -1        61 1.17150E+02 5.00000E+01 0.00000E+00
 -1        62 1.20150E+02 5.00000E+01 0.00000E+00
 -1        63 1.23150E+02 5.00000E+01 0.00000E+00
 -1        64 1.26150E+02 5.00000E+01 0.00000E+00
 -1        65 1.29150E+02 5.00000E+01 0.00000E+00
 -1        66 1.32150E+02 5.00000E+01 0.00000E+00
 -1        67 1.35150E+02 5.00000E+01 0.00000E+00
 -1        68 1.38150E+02 5.00000E+01 0.00000E+00
 -1        69 1.41150E+02 5.00000E+01 0.00000E+00
 -1        70 1.44150E+02 5.00000E+01 0.00000E+00
 -1        71 1.47150E+02 5.00000E+01 0.00000E+00
 -1        72 3.15000E+00 0.00000E+00 0.00000E+00
 -1        73 6.15000E+00 0.00000E+00 0.00000E+00
 -1        74 9.15000E+00 0.00000E+00 0.00000E+00
 -1        75 1.21500E+01 0.00000E+00 0.00000E+00
 -1        76 1.51500E+01 0.00000E+00 0.00000E+00
 -1        77 1.81500E+01 0.00000E+00 0.00000E+00
 -1        78 2.11500E+01 0.00000E+00 0.00000E+00
 -1        79 2.41500E+01 0.00000E+00 0.00000E+00
 -1        80 2.71500E+01 0.00000E+00 0.00000E+00
 -1        81 3.01500E+01 0.00000E+00 0.00000E+00
 -1        82 3.31500E+01 0.00000E+00 0.00000E+00
 -1        83 3.61500E+01 0.00000E+00 0.00000E+00
 -1        84 3.91500E+01 0.00000E+00 0.00000E+00
 -1        85 4.21500E+01 0.00000E+00 0.00000E+00
 -1        86 4.51500E+01 0.00000E+00 0.00000E+00
 -1        87 4.81500E+01 0.00000E+00 0.00000E+00
 -1        88 5.11500E+01 0.00000E+00 0.00000E+00
 -1        89 5.41500E+01 0.00000E+00 0.00000E+00
 -1        90 5.71500E+01 0.00000E+00 0.00000E+00
 -1        91 6.01500E+01 0.00000E+00 0.00000E+00
 -1        92 6.31500E+01 0.00000E+00 0.00000E+00
 -1        93 6.61500E+01 0.00000E+00 0.00000E+00
 -1        94 6.91500E+01 0.00000E+00 0.00000E+00
 -1        95 7.21500E+01 0.00000E+00 0.00000E+00
 -1        96 7.51500E+01 0.00000E+00 0.00000E+00
 -1        97 7.81500E+01 0.00000E+00 0.00000E+00
 -1        98 8.11500E+01 0.00000E+00 0.00000E+00
 -1        99 8.41500E+01 0.00000E+00 0.00000E+00
 -1       100 8.71500E+01 0.00000E+00 0.00000E+00
 -1       101 9.01500E+01 0.00000E+00 0.00000E+00
 -1       102 9.31500E+01 0.00000E+00 0.00000E+00
 -1       103 9.61500E+01 0.00000E+00 0.00000E+00
 -1       104 9.91500E+01 0.00000E+00 0.00000E+00
 -1       105 1.02150E+02 0.00000E+00 0.00000E+00
 -1       106 1.05150E+02 0.00000E+00 0.00000E+00
 -1       107 1.08150E+02 0.00000E+00 0.00000E+00
 -1       108 1.11150E+02 0.00000E+00 0.00000E+00
 -1       109 1.14150E+02 0.00000E+00 0.00000E+00
 -1       110 1.17150E+02 0.00000E+00 0.00000E+00
 -1       111 1.20150E+02 0.00000E+00 0.00000E+00
 -1       112 1.23150E+02 0.00000E+00 0.00000E+00
 -1       113 1.26150E+02 0.00000E+00 0.00000E+00
 -1       114 1.29150E+02 0.00000E+00 0.00000E+00
 -1       115 1.32150E+02 0.00000E+00 0.00000E+00
 -1       116 1.35150E+02 0.00000E+00 0.00000E+00
 -1       117 1.38150E+02 0.00000E+00 0.00000E+00
 -1       118 1.41150E+02 0.00000E+00 0.00000E+00
 -1       119 1.44150E+02 0.00000E+00 0.00000E+00
 -1       120 1.47150E+02 0.00000E+00 0.00000E+00
 -1       121 1.50000E+02 2.95000E+00 0.00000E+00
 -1       122 1.50000E+02 5.90000E+00 0.00000E+00
 -1       123 1.50000E+02 8.85000E+00 0.00000E+00
 -1       124 1.50000E+02 1.18000E+01 0.00000E+00
 -1       125 1.50000E+02 1.47500E+01 0.00000E+00
 -1       126 1.50000E+02 1.76500E+01 0.00000E+00
 -1       127 1.50000E+02 2.06000E+01 0.00000E+00
 -1       128 1.50000E+02 2.35500E+01 0.00000E+00
 -1       129 1.50000E+02 2.65000E+01 0.00000E+00
 -1       130 1.50000E+02 2.94500E+01 0.00000E+00
 -1       131 1.50000E+02 3.24000E+01 0.00000E+00
 -1       132 1.50000E+02 3.53000E+01 0.00000E+00
 -1       133 1.50000E+02 3.82500E+01 0.00000E+00
 -1       134 1.50000E+02 4.12000E+01 0.00000E+00
 -1       135 1.50000E+02 4.41500E+01 0.00000E+00
 -1       136 1.50000E+02 4.71000E+01 0.00000E+00
 -1       137 1.28815E+02 2.68879E+01 0.00000E+00
 -1       138 1.28357E+02 2.55289E+01 0.00000E+00
 -1       139 1.27510E+02 2.41323E+01 0.00000E+00
 -1       140 1.26526E+02 2.31058E+01 0.00000E+00
 -1       141 1.25263E+02 2.22491E+01 0.00000E+00
 -1       142 1.23895E+02 2.17005E+01 0.00000E+00
 -1       143 1.22411E+02 2.14485E+01 0.00000E+00
 -1       144 1.20717E+02 2.15522E+01 0.00000E+00
 -1       145 1.19270E+02 2.19852E+01 0.00000E+00
 -1       146 1.17870E+02 2.27761E+01 0.00000E+00
 -1       147 1.16695E+02 2.38562E+01 0.00000E+00
 -1       148 1.15845E+02 2.50817E+01 0.00000E+00
 -1       149 1.15241E+02 2.65739E+01 0.00000E+00
 -1       150 1.14996E+02 2.81170E+01 0.00000E+00
 -1       151 1.15072E+02 2.95140E+01 0.00000E+00
 -1       152 1.15490E+02 3.10381E+01 0.00000E+00
 -1       153 1.16145E+02 3.22900E+01 0.00000E+00
 -1       154 1.17070E+02 3.34163E+01 0.00000E+00
 -1       155 1.18265E+02 3.43634E+01 0.00000E+00
 -1       156 1.19557E+02 3.49998E+01 0.00000E+00
 -1       157 1.21124E+02 3.53821E+01 0.00000E+00
 -1       158 1.22650E+02 3.54045E+01 0.00000E+00
 -1       159 1.24117E+02 3.51042E+01 0.00000E+00
 -1       160 1.26648E+02 3.36596E+01 0.00000E+00
 -1       161 1.27628E+02 3.25833E+01 0.00000E+00
 -1       162 1.28365E+02 3.13245E+01 0.00000E+00
 -1       163 1.28844E+02 2.98504E+01 0.00000E+00
 -1       164 2.59800E+00 4.55750E+01 0.00000E+00
 -1       165 2.59800E+00 4.26250E+01 0.00000E+00
 -1       166 2.59800E+00 3.96750E+01 0.00000E+00
 -1       167 2.59800E+00 3.67250E+01 0.00000E+00
 -1       168 2.59800E+00 3.38250E+01 0.00000E+00
 -1       169 2.59800E+00 3.08750E+01 0.00000E+00
 -1       170 2.59800E+00 2.79250E+01 0.00000E+00
 -1       171 2.59800E+00 2.49750E+01 0.00000E+00
 -1       172 2.59800E+00 2.20250E+01 0.00000E+00
 -1       173 2.59800E+00 1.90750E+01 0.00000E+00
 -1       174 2.59800E+00 1.61750E+01 0.00000E+00
 -1       175 2.59800E+00 1.32250E+01 0.00000E+00
 -1       176 2.59800E+00 1.02750E+01 0.00000E+00
 -1       177 2.59800E+00 7.32500E+00 0.00000E+00
 -1       178 2.59800E+00 4.37500E+00 0.00000E+00
 -1       179 2.87400E+00 2.18750E+00 0.00000E+00
 -1       180 4.65000E+00 4.74020E+01 0.00000E+00
 -1       181 7.65000E+00 4.74020E+01 0.00000E+00
 -1       182 1.06500E+01 4.74020E+01 0.00000E+00
 -1       183 1.36500E+01 4.74020E+01 0.00000E+00
 -1       184 1.66500E+01 4.74020E+01 0.00000E+00
 -1       185 1.96500E+01 4.74020E+01 0.00000E+00
 -1       186 2.26500E+01 4.74020E+01 0.00000E+00
 -1       187 2.56500E+01 4.74020E+01 0.00000E+00
 -1       188 2.86500E+01 4.74020E+01 0.00000E+00
 -1       189 3.16500E+01 4.74020E+01 0.00000E+00
 -1       190 3.46500E+01 4.74020E+01 0.00000E+00
 -1       191 3.76500E+01 4.74020E+01 0.00000E+00
 -1       192 4.06500E+01 4.74020E+01 0.00000E+00
 -1       193 4.36500E+01 4.74020E+01 0.00000E+00
 -1       194 4.66500E+01 4.74020E+01 0.00000E+00
 -1       195 4.96500E+01 4.74020E+01 0.00000E+00
 -1       196 5.26500E+01 4.74020E+01 0.00000E+00
 -1       197 5.56500E+01 4.74020E+01 0.00000E+00
 -1       198 5.86500E+01 4.74020E+01 0.00000E+00
 -1       199 6.16500E+01 4.74020E+01 0.00000E+00
 -1       200 6.46500E+01 4.74020E+01 0.00000E+00
 -1       201 6.76500E+01 4.74020E+01 0.00000E+00
 -1       202 7.06500E+01 4.74020E+01 0.00000E+00
 -1       203 7.36500E+01 4.74020E+01 0.00000E+00
 -1       204 7.66500E+01 4.74020E+01 0.00000E+00
 -1       205 7.96500E+01 4.74020E+01 0.00000E+00
 -1       206 8.26500E+01 4.74020E+01 0.00000E+00
 -1       207 8.56500E+01 4.74020E+01 0.00000E+00
 -1       208 8.86500E+01 4.74020E+01 0.00000E+00
 -1       209 9.16500E+01 4.74020E+01 0.00000E+00
 -1       210 9.46500E+01 4.74020E+01 0.00000E+00
 -1       211 9.76500E+01 4.74020E+01 0.00000E+00
 -1       212 1.00650E+02 4.74020E+01 0.00000E+00
 -1       213 1.03650E+02 4.74020E+01 0.00000E+00
 -1       214 1.06650E+02 4.74020E+01 0.00000E+00
 -1       215 1.09650E+02 4.74020E+01 0.00000E+00
 -1       216 1.12650E+02 4.74020E+01 0.00000E+00
 -1       217 1.15650E+02 4.74020E+01 0.00000E+00
 -1       218 1.18650E+02 4.74020E+01 0.00000E+00
 -1       219 1.21650E+02 4.74020E+01 0.00000E+00
 -1       220 1.24650E+02 4.74020E+01 0.00000E+00
 -1       221 1.27650E+02 4.74020E+01 0.00000E+00
 -1       222 1.30650E+02 4.74020E+01 0.00000E+00
 -1       223 1.33650E+02 4.74020E+01 0.00000E+00
 -1       224 1.36650E+02 4.74020E+01 0.00000E+00
 -1       225 1.39650E+02 4.74020E+01 0.00000E+00
 -1       226 1.42650E+02 4.74020E+01 0.00000E+00
 -1       227 1.45650E+02 4.74020E+01 0.00000E+00
 -1       228 5.87400E+00 2.18750E+00 0.00000E+00
 -1       229 8.87400E+00 2.18750E+00 0.00000E+00
 -1       230 1.18740E+01 2.18750E+00 0.00000E+00
 -1       231 1.48740E+01 2.18750E+00 0.00000E+00
 -1       232 1.78740E+01 2.18750E+00 0.00000E+00
 -1       233 2.08740E+01 2.18750E+00 0.00000E+00
 -1       234 2.38740E+01 2.18750E+00 0.00000E+00
 -1       235 2.68740E+01 2.18750E+00 0.00000E+00
 -1       236 2.98740E+01 2.18750E+00 0.00000E+00
 -1       237 3.28740E+01 2.18750E+00 0.00000E+00
 -1       238 3.58740E+01 2.18750E+00 0.00000E+00
 -1       239 3.88740E+01 2.18750E+00 0.00000E+00
 -1       240 4.18740E+01 2.18750E+00 0.00000E+00
 -1       241 4.48740E+01 2.18750E+00 0.00000E+00
 -1       242 4.78740E+01 2.18750E+00 0.00000E+00
 -1       243 5.08740E+01 2.18750E+00 0.00000E+00
 -1       244 5.38740E+01 2.18750E+00 0.00000E+00
 -1       245 5.68740E+01 2.18750E+00 0.00000E+00
 -1       246 5.98740E+01 2.18750E+00 0.00000E+00
 -1       247 6.28740E+01 2.18750E+00 0.00000E+00
 -1       248 6.58740E+01 2.18750E+00 0.00000E+00
 -1       249 6.88740E+01 2.18750E+00 0.00000E+00
 -1       250 7.18740E+01 2.18750E+00 0.00000E+00
 -1       251 7.48740E+01 2.18750E+00 0.00000E+00
 -1       252 7.78740E+01 2.18750E+00 0.00000E+00
 -1       253 8.08740E+01 2.18750E+00 0.00000E+00
 -1       254 8.38740E+01 2.18750E+00 0.00000E+00
 -1       255 8.68740E+01 2.18750E+00 0.00000E+00
 -1       256 8.98740E+01 2.18750E+00 0.00000E+00
 -1       257 9.28740E+01 2.18750E+00 0.00000E+00
 -1       258 9.58740E+01 2.18750E+00 0.00000E+00
 -1       259 9.88740E+01 2.18750E+00 0.00000E+00
 -1       260 1.01874E+02 2.18750E+00 0.00000E+00
 -1       261 1.04874E+02 2.18750E+00 0.00000E+00
 -1       262 1.07874E+02 2.18750E+00 0.00000E+00
 -1       263 1.10874E+02 2.18750E+00 0.00000E+00
 -1       264 1.13874E+02 2.18750E+00 0.00000E+00
 -1       265 1.16874E+02 2.18750E+00 0.00000E+00
 -1       266 1.19874E+02 2.18750E+00 0.00000E+00
 -1       267 1.22874E+02 2.18750E+00 0.00000E+00
 -1       268 1.25874E+02 2.18750E+00 0.00000E+00
 -1       269 1.28874E+02 2.18750E+00 0.00000E+00
 -1       270 1.31874E+02 2.18750E+00 0.00000E+00
 -1       271 1.34874E+02 2.18750E+00 0.00000E+00
 -1       272 1.37874E+02 2.18750E+00 0.00000E+00
 -1       273 1.40874E+02 2.18750E+00 0.00000E+00
 -1       274 1.43874E+02 2.18750E+00 0.00000E+00
 -1       275 1.46874E+02 2.18750E+00 0.00000E+00
 -1       276 1.47402E+02 4.42500E+00 0.00000E+00
 -1       277 1.47402E+02 7.37500E+00 0.00000E+00
 -1       278 1.47402E+02 1.03250E+01 0.00000E+00
 -1       279 1.47402E+02 1.32750E+01 0.00000E+00
 -1       280 1.47402E+02 1.61750E+01 0.00000E+00
 -1       281 1.47402E+02 1.91250E+01 0.00000E+00
 -1       282 1.47402E+02 2.20750E+01 0.00000E+00
 -1       283 1.47402E+02 2.50250E+01 0.00000E+00
 -1       284 1.47402E+02 2.79750E+01 0.00000E+00
 -1       285 1.47402E+02 3.09250E+01 0.00000E+00
 -1       286 1.47402E+02 3.38250E+01 0.00000E+00
 -1       287 1.47402E+02 3.67750E+01 0.00000E+00
 -1       288 1.47402E+02 3.97250E+01 0.00000E+00
 -1       289 1.47402E+02 4.26750E+01 0.00000E+00
 -1       290 1.46526E+02 4.50385E+01 0.00000E+00
 -1       291 1.30273E+02 2.75083E+01 0.00000E+00
 -1       292 1.29735E+02 2.58206E+01 0.00000E+00
 -1       293 1.29256E+02 2.40281E+01 0.00000E+00
 -1       294 1.27894E+02 2.27804E+01 0.00000E+00
 -1       295 1.26717E+02 2.14661E+01 0.00000E+00
 -1       296 1.25031E+02 2.08495E+01 0.00000E+00
 -1       297 1.23370E+02 2.02966E+01 0.00000E+00
 -1       298 1.21475E+02 2.00393E+01 0.00000E+00
 -1       299 1.19646E+02 2.06072E+01 0.00000E+00
 -1       300 1.17891E+02 2.11790E+01 0.00000E+00
 -1       301 1.16405E+02 2.23619E+01 0.00000E+00
 -1       302 1.15205E+02 2.37302E+01 0.00000E+00
 -1       303 1.14263E+02 2.53102E+01 0.00000E+00
 -1       304 1.13673E+02 2.71160E+01 0.00000E+00
 -1       305 1.13823E+02 2.88816E+01 0.00000E+00
 -1       306 1.13951E+02 3.06411E+01 0.00000E+00
 -1       307 1.14744E+02 3.22260E+01 0.00000E+00
 -1       308 1.15671E+02 3.36224E+01 0.00000E+00
 -1       309 1.16915E+02 3.48402E+01 0.00000E+00
 -1       310 1.18338E+02 3.58442E+01 0.00000E+00
 -1       311 1.19973E+02 3.66944E+01 0.00000E+00
 -1       312 1.21869E+02 3.66056E+01 0.00000E+00
 -1       313 1.23627E+02 3.64422E+01 0.00000E+00
 -1       314 1.25340E+02 3.60746E+01 0.00000E+00
 -1       315 1.26808E+02 3.51411E+01 0.00000E+00
 -1       316 1.28035E+02 3.39374E+01 0.00000E+00
 -1       317 1.29042E+02 3.25666E+01 0.00000E+00
 -1       318 1.29917E+02 3.10142E+01 0.00000E+00
 -1       319 1.30123E+02 2.92662E+01 0.00000E+00
 -1       320 5.19600E+00 4.11500E+01 0.00000E+00
 -1       321 5.19600E+00 4.41000E+01 0.00000E+00
 -1       322 5.19600E+00 3.52750E+01 0.00000E+00
 -1       323 5.19600E+00 3.23250E+01 0.00000E+00
 -1       324 5.19600E+00 2.93750E+01 0.00000E+00
 -1       325 5.19600E+00 2.64250E+01 0.00000E+00
 -1       326 5.19600E+00 2.34750E+01 0.00000E+00
 -1       327 5.19600E+00 2.05250E+01 0.00000E+00
 -1       328 5.19600E+00 1.76250E+01 0.00000E+00
 -1       329 5.19600E+00 1.46750E+01 0.00000E+00
 -1       330 5.19600E+00 1.17250E+01 0.00000E+00
 -1       331 5.19600E+00 8.77500E+00 0.00000E+00
 -1       332 5.19600E+00 5.82500E+00 0.00000E+00
 -1       333 5.53500E+00 4.00625E+00 0.00000E+00
 -1       334 8.53500E+00 4.00625E+00 0.00000E+00
 -1       335 9.15000E+00 4.48040E+01 0.00000E+00
 -1       336 1.21500E+01 4.48040E+01 0.00000E+00
 -1       337 1.51500E+01 4.48040E+01 0.00000E+00
 -1       338 1.81500E+01 4.48040E+01 0.00000E+00
 -1       339 2.11500E+01 4.48040E+01 0.00000E+00
 -1       340 2.41500E+01 4.48040E+01 0.00000E+00
 -1       341 2.71500E+01 4.48040E+01 0.00000E+00
 -1       342 3.01500E+01 4.48040E+01 0.00000E+00
 -1       343 3.31500E+01 4.48040E+01 0.00000E+00
 -1       344 3.61500E+01 4.48040E+01 0.00000E+00
 -1       345 3.91500E+01 4.48040E+01 0.00000E+00
 -1       346 4.21500E+01 4.48040E+01 0.00000E+00
 -1       347 4.51500E+01 4.48040E+01 0.00000E+00
 -1       348 4.81500E+01 4.48040E+01 0.00000E+00
 -1       349 5.11500E+01 4.48040E+01 0.00000E+00
 -1       350 5.41500E+01 4.48040E+01 0.00000E+00
 -1       351 5.71500E+01 4.48040E+01 0.00000E+00
 -1       352 6.01500E+01 4.48040E+01 0.00000E+00
 -1       353 6.31500E+01 4.48040E+01 0.00000E+00
 -1       354 6.61500E+01 4.48040E+01 0.00000E+00
 -1       355 6.91500E+01 4.48040E+01 0.00000E+00
 -1       356 7.21500E+01 4.48040E+01 0.00000E+00
 -1       357 7.51500E+01 4.48040E+01 0.00000E+00
 -1       358 7.81500E+01 4.48040E+01 0.00000E+00
 -1       359 8.11500E+01 4.48040E+01 0.00000E+00
 -1       360 8.41500E+01 4.48040E+01 0.00000E+00
 -1       361 8.71500E+01 4.48040E+01 0.00000E+00
 -1       362 9.01500E+01 4.48040E+01 0.00000E+00
 -1       363 9.31500E+01 4.48040E+01 0.00000E+00
 -1       364 9.61500E+01 4.48040E+01 0.00000E+00
 -1       365 9.91500E+01 4.48040E+01 0.00000E+00
 -1       366 1.02150E+02 4.48040E+01 0.00000E+00
 -1       367 1.05150E+02 4.48040E+01 0.00000E+00
 -1       368 1.08150E+02 4.48040E+01 0.00000E+00
 -1       369 1.11150E+02 4.48040E+01 0.00000E+00
 -1       370 1.14150E+02 4.48040E+01 0.00000E+00
 -1       371 1.17150E+02 4.48040E+01 0.00000E+00
 -1       372 1.20150E+02 4.48040E+01 0.00000E+00
 -1       373 1.23150E+02 4.48040E+01 0.00000E+00
 -1       374 1.26150E+02 4.48040E+01 0.00000E+00
 -1       375 1.29150E+02 4.48040E+01 0.00000E+00
 -1       376 1.32150E+02 4.48040E+01 0.00000E+00
 -1       377 1.35150E+02 4.48040E+01 0.00000E+00
 -1       378 1.38150E+02 4.48040E+01 0.00000E+00
 -1       379 1.41150E+02 4.48040E+01 0.00000E+00
 -1       380 1.43838E+02 4.49212E+01 0.00000E+00
 -1       381 1.15350E+01 4.00625E+00 0.00000E+00
 -1       382 1.45350E+01 4.00625E+00 0.00000E+00
 -1       383 1.75350E+01 4.00625E+00 0.00000E+00
 -1       384 2.05350E+01 4.00625E+00 0.00000E+00
 -1       385 2.35350E+01 4.00625E+00 0.00000E+00
 -1       386 2.65350E+01 4.00625E+00 0.00000E+00
 -1       387 2.95350E+01 4.00625E+00 0.00000E+00
 -1       388 3.25350E+01 4.00625E+00 0.00000E+00
 -1       389 3.55350E+01 4.00625E+00 0.00000E+00
 -1       390 3.85350E+01 4.00625E+00 0.00000E+00
 -1       391 4.15350E+01 4.00625E+00 0.00000E+00
 -1       392 4.45350E+01 4.00625E+00 0.00000E+00
 -1       393 4.75350E+01 4.00625E+00 0.00000E+00
 -1       394 5.05350E+01 4.00625E+00 0.00000E+00
 -1       395 5.35350E+01 4.00625E+00 0.00000E+00
 -1       396 5.65350E+01 4.00625E+00 0.00000E+00
 -1       397 5.95350E+01 4.00625E+00 0.00000E+00
 -1       398 6.25350E+01 4.00625E+00 0.00000E+00
 -1       399 6.55350E+01 4.00625E+00 0.00000E+00
 -1       400 6.85350E+01 4.00625E+00 0.00000E+00
 -1       401 7.15350E+01 4.00625E+00 0.00000E+00
 -1       402 7.45350E+01 4.00625E+00 0.00000E+00
 -1       403 7.75350E+01 4.00625E+00 0.00000E+00
 -1       404 8.05350E+01 4.00625E+00 0.00000E+00
 -1       405 8.35350E+01 4.00625E+00 0.00000E+00
 -1       406 8.65350E+01 4.00625E+00 0.00000E+00
 -1       407 8.95350E+01 4.00625E+00 0.00000E+00
 -1       408 9.25350E+01 4.00625E+00 0.00000E+00
 -1       409 9.55350E+01 4.00625E+00 0.00000E+00
 -1       410 9.85350E+01 4.00625E+00 0.00000E+00
 -1       411 1.01535E+02 4.00625E+00 0.00000E+00
 -1       412 1.04535E+02 4.00625E+00 0.00000E+00
 -1       413 1.07535E+02 4.00625E+00 0.00000E+00
 -1       414 1.10535E+02 4.00625E+00 0.00000E+00
 -1       415 1.13535E+02 4.00625E+00 0.00000E+00
 -1       416 1.16535E+02 4.00625E+00 0.00000E+00
 -1       417 1.19535E+02 4.00625E+00 0.00000E+00
 -1       418 1.22535E+02 4.00625E+00 0.00000E+00
 -1       419 1.25535E+02 4.00625E+00 0.00000E+00
 -1       420 1.28535E+02 4.00625E+00 0.00000E+00
 -1       421 1.31535E+02 4.00625E+00 0.00000E+00
 -1       422 1.34535E+02 4.00625E+00 0.00000E+00
 -1       423 1.37535E+02 4.00625E+00 0.00000E+00
 -1       424 1.40535E+02 4.00625E+00 0.00000E+00
 -1       425 1.43535E+02 4.00625E+00 0.00000E+00
 -1       426 1.45469E+02 4.21562E+00 0.00000E+00
 -1       427 1.44804E+02 1.18000E+01 0.00000E+00
 -1       428 1.44804E+02 8.85000E+00 0.00000E+00
 -1       429 1.45136E+02 6.53281E+00 0.00000E+00
 -1       430 1.44804E+02 1.47000E+01 0.00000E+00
 -1       431 1.44804E+02 1.76500E+01 0.00000E+00
 -1       432 1.44804E+02 2.06000E+01 0.00000E+00
 -1       433 1.44804E+02 2.35500E+01 0.00000E+00
 -1       434 1.44804E+02 2.65000E+01 0.00000E+00
 -1       435 1.44804E+02 2.94500E+01 0.00000E+00
 -1       436 1.44804E+02 3.23500E+01 0.00000E+00
 -1       437 1.44804E+02 3.53000E+01 0.00000E+00
 -1       438 1.44804E+02 3.82500E+01 0.00000E+00
 -1       439 1.44804E+02 4.12000E+01 0.00000E+00
 -1       440 1.30910E+02 2.45469E+01 0.00000E+00
 -1       441 1.31573E+02 2.85053E+01 0.00000E+00
 -1       442 1.31448E+02 2.62346E+01 0.00000E+00
 -1       443 1.29450E+02 2.24483E+01 0.00000E+00
 -1       444 1.28273E+02 2.11339E+01 0.00000E+00
 -1       445 5.19600E+00 3.82125E+01 0.00000E+00
 -1       446 1.24610E+02 1.93432E+01 0.00000E+00
 -1       447 1.22630E+02 1.86345E+01 0.00000E+00
 -1       448 1.20077E+02 1.87654E+01 0.00000E+00
 -1       449 1.18322E+02 1.93372E+01 0.00000E+00
 -1       450 1.16237E+02 2.06251E+01 0.00000E+00
 -1       451 1.14578E+02 2.19703E+01 0.00000E+00
 -1       452 1.13476E+02 2.37712E+01 0.00000E+00
 -1       453 1.12736E+02 2.58101E+01 0.00000E+00
 -1       454 1.12373E+02 2.81162E+01 0.00000E+00
 -1       455 1.12500E+02 2.98758E+01 0.00000E+00
 -1       456 1.13188E+02 3.20136E+01 0.00000E+00
 -1       457 1.13778E+02 3.38728E+01 0.00000E+00
 -1       458 1.15327E+02 3.52175E+01 0.00000E+00
 -1       459 1.16879E+02 3.64014E+01 0.00000E+00
 -1       460 1.18442E+02 3.76424E+01 0.00000E+00
 -1       461 1.20997E+02 3.82795E+01 0.00000E+00
 -1       462 1.22755E+02 3.81161E+01 0.00000E+00
 -1       463 1.24791E+02 3.76896E+01 0.00000E+00
 -1       464 1.26905E+02 3.69136E+01 0.00000E+00
 -1       465 1.28388E+02 3.55243E+01 0.00000E+00
 -1       466 1.29785E+02 3.41686E+01 0.00000E+00
 -1       467 1.30828E+02 3.25499E+01 0.00000E+00
 -1       468 1.31367E+02 3.02533E+01 0.00000E+00
 -1       469 1.26296E+02 1.99598E+01 0.00000E+00
 -1       470 1.27852E+02 1.96276E+01 0.00000E+00
 -1       471 1.31104E+02 2.29670E+01 0.00000E+00
 -1       472 1.19466E+02 3.92275E+01 0.00000E+00
 -1       473 1.11437E+02 2.68103E+01 0.00000E+00
 -1       474 1.00350E+01 6.60425E+00 0.00000E+00
 -1       475 7.79400E+00 3.08500E+01 0.00000E+00
 -1       476 7.79400E+00 3.38000E+01 0.00000E+00
 -1       477 7.79400E+00 2.49500E+01 0.00000E+00
 -1       478 7.79400E+00 2.20000E+01 0.00000E+00
 -1       479 7.79400E+00 1.91000E+01 0.00000E+00
 -1       480 7.79400E+00 1.61500E+01 0.00000E+00
 -1       481 7.79400E+00 1.32000E+01 0.00000E+00
 -1       482 7.79400E+00 1.02500E+01 0.00000E+00
 -1       483 1.30350E+01 6.60425E+00 0.00000E+00
 -1       484 1.06500E+01 4.22060E+01 0.00000E+00
 -1       485 1.16378E+02 1.85220E+01 0.00000E+00
 -1       486 1.36500E+01 4.22060E+01 0.00000E+00
 -1       487 1.66500E+01 4.22060E+01 0.00000E+00
 -1       488 1.96500E+01 4.22060E+01 0.00000E+00
 -1       489 2.26500E+01 4.22060E+01 0.00000E+00
 -1       490 2.56500E+01 4.22060E+01 0.00000E+00
 -1       491 2.86500E+01 4.22060E+01 0.00000E+00
 -1       492 3.16500E+01 4.22060E+01 0.00000E+00
 -1       493 3.46500E+01 4.22060E+01 0.00000E+00
 -1       494 3.76500E+01 4.22060E+01 0.00000E+00
 -1       495 4.06500E+01 4.22060E+01 0.00000E+00
 -1       496 4.36500E+01 4.22060E+01 0.00000E+00
 -1       497 4.66500E+01 4.22060E+01 0.00000E+00
 -1       498 4.96500E+01 4.22060E+01 0.00000E+00
 -1       499 5.26500E+01 4.22060E+01 0.00000E+00
 -1       500 5.56500E+01 4.22060E+01 0.00000E+00
 -1       501 5.86500E+01 4.22060E+01 0.00000E+00
 -1       502 6.16500E+01 4.22060E+01 0.00000E+00
 -1       503 6.46500E+01 4.22060E+01 0.00000E+00
 -1       504 6.76500E+01 4.22060E+01 0.00000E+00
 -1       505 7.06500E+01 4.22060E+01 0.00000E+00
 -1       506 7.36500E+01 4.22060E+01 0.00000E+00
 -1       507 7.66500E+01 4.22060E+01 0.00000E+00
 -1       508 7.96500E+01 4.22060E+01 0.00000E+00
 -1       509 8.26500E+01 4.22060E+01 0.00000E+00
 -1       510 8.56500E+01 4.22060E+01 0.00000E+00
 -1       511 8.86500E+01 4.22060E+01 0.00000E+00
 -1       512 9.16500E+01 4.22060E+01 0.00000E+00
 -1       513 9.46500E+01 4.22060E+01 0.00000E+00
 -1       514 9.76500E+01 4.22060E+01 0.00000E+00
 -1       515 1.00650E+02 4.22060E+01 0.00000E+00
 -1       516 1.03650E+02 4.22060E+01 0.00000E+00
 -1       517 1.06650E+02 4.22060E+01 0.00000E+00
 -1       518 1.09650E+02 4.22060E+01 0.00000E+00
 -1       519 1.12650E+02 4.22060E+01 0.00000E+00
 -1       520 1.15650E+02 4.22060E+01 0.00000E+00
 -1       521 1.18650E+02 4.22060E+01 0.00000E+00
 -1       522 1.21650E+02 4.22060E+01 0.00000E+00
 -1       523 1.24650E+02 4.22060E+01 0.00000E+00
 -1       524 1.27650E+02 4.22060E+01 0.00000E+00
 -1       525 1.30650E+02 4.22060E+01 0.00000E+00
 -1       526 1.33650E+02 4.22060E+01 0.00000E+00
 -1       527 1.36650E+02 4.22060E+01 0.00000E+00
 -1       528 1.39650E+02 4.22060E+01 0.00000E+00
 -1       529 1.32653E+02 2.49201E+01 0.00000E+00
 -1       530 1.90350E+01 6.60425E+00 0.00000E+00
 -1       531 2.20350E+01 6.60425E+00 0.00000E+00
 -1       532 2.50350E+01 6.60425E+00 0.00000E+00
 -1       533 2.80350E+01 6.60425E+00 0.00000E+00
 -1       534 3.10350E+01 6.60425E+00 0.00000E+00
 -1       535 3.40350E+01 6.60425E+00 0.00000E+00
 -1       536 3.70350E+01 6.60425E+00 0.00000E+00
 -1       537 4.00350E+01 6.60425E+00 0.00000E+00
 -1       538 4.30350E+01 6.60425E+00 0.00000E+00
 -1       539 4.60350E+01 6.60425E+00 0.00000E+00
 -1       540 4.90350E+01 6.60425E+00 0.00000E+00
 -1       541 5.20350E+01 6.60425E+00 0.00000E+00
 -1       542 5.50350E+01 6.60425E+00 0.00000E+00
 -1       543 5.80350E+01 6.60425E+00 0.00000E+00
 -1       544 6.10350E+01 6.60425E+00 0.00000E+00
 -1       545 6.40350E+01 6.60425E+00 0.00000E+00
 -1       546 6.70350E+01 6.60425E+00 0.00000E+00
 -1       547 7.00350E+01 6.60425E+00 0.00000E+00
 -1       548 7.30350E+01 6.60425E+00 0.00000E+00
 -1       549 7.60350E+01 6.60425E+00 0.00000E+00
 -1       550 7.90350E+01 6.60425E+00 0.00000E+00
 -1       551 8.20350E+01 6.60425E+00 0.00000E+00
 -1       552 8.50350E+01 6.60425E+00 0.00000E+00
 -1       553 8.80350E+01 6.60425E+00 0.00000E+00
 -1       554 9.10350E+01 6.60425E+00 0.00000E+00
 -1       555 9.40350E+01 6.60425E+00 0.00000E+00
 -1       556 9.70350E+01 6.60425E+00 0.00000E+00
 -1       557 1.00035E+02 6.60425E+00 0.00000E+00
 -1       558 1.03035E+02 6.60425E+00 0.00000E+00
 -1       559 1.06035E+02 6.60425E+00 0.00000E+00
 -1       560 1.09035E+02 6.60425E+00 0.00000E+00
 -1       561 1.12035E+02 6.60425E+00 0.00000E+00
 -1       562 1.15035E+02 6.60425E+00 0.00000E+00
 -1       563 1.18035E+02 6.60425E+00 0.00000E+00
 -1       564 1.21035E+02 6.60425E+00 0.00000E+00
 -1       565 1.24035E+02 6.60425E+00 0.00000E+00
 -1       566 1.27035E+02 6.60425E+00 0.00000E+00
 -1       567 1.30035E+02 6.60425E+00 0.00000E+00
 -1       568 1.33035E+02 6.60425E+00 0.00000E+00
 -1       569 1.36035E+02 6.60425E+00 0.00000E+00
 -1       570 1.39035E+02 6.60425E+00 0.00000E+00
 -1       571 1.42035E+02 6.60425E+00 0.00000E+00
 -1       572 1.42206E+02 1.61750E+01 0.00000E+00
 -1       573 1.42206E+02 1.91250E+01 0.00000E+00
 -1       574 1.42206E+02 1.03250E+01 0.00000E+00
 -1       575 1.42206E+02 1.32500E+01 0.00000E+00
 -1       576 1.42206E+02 2.20750E+01 0.00000E+00
 -1       577 1.42206E+02 2.50250E+01 0.00000E+00
 -1       578 1.42206E+02 2.79750E+01 0.00000E+00
 -1       579 1.42206E+02 3.08750E+01 0.00000E+00
 -1       580 1.42206E+02 3.38250E+01 0.00000E+00
 -1       581 1.42206E+02 3.67750E+01 0.00000E+00
 -1       582 1.42206E+02 3.97250E+01 0.00000E+00
 -1       583 1.32604E+02 3.17553E+01 0.00000E+00
 -1       584 1.60350E+01 6.60425E+00 0.00000E+00
 -1       585 1.33223E+02 2.72761E+01 0.00000E+00
 -1       586 1.30015E+02 2.07588E+01 0.00000E+00
 -1       587 1.32841E+02 2.95406E+01 0.00000E+00
 -1       588 7.92300E+00 4.16780E+01 0.00000E+00
 -1       589 7.79400E+00 2.79000E+01 0.00000E+00
 -1       590 1.21249E+02 1.66524E+01 0.00000E+00
 -1       591 1.14433E+02 2.00959E+01 0.00000E+00
 -1       592 1.18668E+02 1.74205E+01 0.00000E+00
 -1       593 1.11848E+02 3.34622E+01 0.00000E+00
 -1       594 1.24142E+02 1.75319E+01 0.00000E+00
 -1       595 1.12564E+02 2.19756E+01 0.00000E+00
 -1       596 1.11573E+02 2.42340E+01 0.00000E+00
 -1       597 1.11060E+02 2.90954E+01 0.00000E+00
 -1       598 1.26410E+02 3.88330E+01 0.00000E+00
 -1       599 1.11161E+02 3.13243E+01 0.00000E+00
 -1       600 1.13319E+02 3.59669E+01 0.00000E+00
 -1       601 1.14870E+02 3.71508E+01 0.00000E+00
 -1       602 1.16433E+02 3.83918E+01 0.00000E+00
 -1       603 1.22027E+02 3.98221E+01 0.00000E+00
 -1       604 1.24063E+02 3.93956E+01 0.00000E+00
 -1       605 1.28704E+02 3.73483E+01 0.00000E+00
 -1       606 1.30102E+02 3.59926E+01 0.00000E+00
 -1       607 1.31537E+02 3.41518E+01 0.00000E+00
 -1       608 1.25828E+02 1.81485E+01 0.00000E+00
 -1       609 7.61550E+00 6.21462E+00 0.00000E+00
 -1       610 7.79400E+00 3.67375E+01 0.00000E+00
 -1       611 1.29594E+02 1.92525E+01 0.00000E+00
 -1       612 1.33314E+02 3.33572E+01 0.00000E+00
 -1       613 1.32847E+02 2.33403E+01 0.00000E+00
 -1       614 1.41678E+02 4.22645E+01 0.00000E+00
 -1       615 1.28209E+02 3.92677E+01 0.00000E+00
 -1       616 7.85850E+00 3.92077E+01 0.00000E+00
 -1       617 1.10273E+02 2.52341E+01 0.00000E+00
 -1       618 1.10124E+02 2.77894E+01 0.00000E+00
 -1       619 1.27384E+02 1.78163E+01 0.00000E+00
 -1       620 1.23346E+02 1.66626E+01 0.00000E+00
 -1       621 1.03920E+01 2.05500E+01 0.00000E+00
 -1       622 1.03920E+01 2.35000E+01 0.00000E+00
 -1       623 1.03920E+01 1.46750E+01 0.00000E+00
 -1       624 1.03920E+01 1.17250E+01 0.00000E+00
 -1       625 1.15350E+01 9.20225E+00 0.00000E+00
 -1       626 1.34931E+02 2.56160E+01 0.00000E+00
 -1       627 1.25631E+02 1.60721E+01 0.00000E+00
 -1       628 1.51500E+01 3.96080E+01 0.00000E+00
 -1       629 1.81500E+01 3.96080E+01 0.00000E+00
 -1       630 2.11500E+01 3.96080E+01 0.00000E+00
 -1       631 2.41500E+01 3.96080E+01 0.00000E+00
 -1       632 2.71500E+01 3.96080E+01 0.00000E+00
 -1       633 3.01500E+01 3.96080E+01 0.00000E+00
 -1       634 3.31500E+01 3.96080E+01 0.00000E+00
 -1       635 3.61500E+01 3.96080E+01 0.00000E+00
 -1       636 3.91500E+01 3.96080E+01 0.00000E+00
 -1       637 4.21500E+01 3.96080E+01 0.00000E+00
 -1       638 4.51500E+01 3.96080E+01 0.00000E+00
 -1       639 4.81500E+01 3.96080E+01 0.00000E+00
 -1       640 5.11500E+01 3.96080E+01 0.00000E+00
 -1       641 5.41500E+01 3.96080E+01 0.00000E+00
 -1       642 5.71500E+01 3.96080E+01 0.00000E+00
 -1       643 6.01500E+01 3.96080E+01 0.00000E+00
 -1       644 6.31500E+01 3.96080E+01 0.00000E+00
 -1       645 6.61500E+01 3.96080E+01 0.00000E+00
 -1       646 6.91500E+01 3.96080E+01 0.00000E+00
 -1       647 7.21500E+01 3.96080E+01 0.00000E+00
 -1       648 7.51500E+01 3.96080E+01 0.00000E+00
 -1       649 7.81500E+01 3.96080E+01 0.00000E+00
 -1       650 8.11500E+01 3.96080E+01 0.00000E+00
 -1       651 8.41500E+01 3.96080E+01 0.00000E+00
 -1       652 8.71500E+01 3.96080E+01 0.00000E+00
 -1       653 9.01500E+01 3.96080E+01 0.00000E+00
 -1       654 9.31500E+01 3.96080E+01 0.00000E+00
 -1       655 9.61500E+01 3.96080E+01 0.00000E+00
 -1       656 9.91500E+01 3.96080E+01 0.00000E+00
 -1       657 1.02150E+02 3.96080E+01 0.00000E+00
 -1       658 1.05150E+02 3.96080E+01 0.00000E+00
 -1       659 1.08150E+02 3.96080E+01 0.00000E+00
 -1       660 1.11150E+02 3.96080E+01 0.00000E+00
 -1       661 1.32150E+02 3.96080E+01 0.00000E+00
 -1       662 1.35150E+02 3.96080E+01 0.00000E+00
 -1       663 1.38150E+02 3.96080E+01 0.00000E+00
 -1       664 2.05350E+01 9.20225E+00 0.00000E+00
 -1       665 2.95350E+01 9.20225E+00 0.00000E+00
 -1       666 3.25350E+01 9.20225E+00 0.00000E+00
 -1       667 3.55350E+01 9.20225E+00 0.00000E+00
 -1       668 3.85350E+01 9.20225E+00 0.00000E+00
 -1       669 4.15350E+01 9.20225E+00 0.00000E+00
 -1       670 4.45350E+01 9.20225E+00 0.00000E+00
 -1       671 4.75350E+01 9.20225E+00 0.00000E+00
 -1       672 5.05350E+01 9.20225E+00 0.00000E+00
 -1       673 5.35350E+01 9.20225E+00 0.00000E+00
 -1       674 5.65350E+01 9.20225E+00 0.00000E+00
 -1       675 5.95350E+01 9.20225E+00 0.00000E+00
 -1       676 6.25350E+01 9.20225E+00 0.00000E+00
 -1       677 6.55350E+01 9.20225E+00 0.00000E+00
 -1       678 6.85350E+01 9.20225E+00 0.00000E+00
 -1       679 7.15350E+01 9.20225E+00 0.00000E+00
 -1       680 7.45350E+01 9.20225E+00 0.00000E+00
 -1       681 7.75350E+01 9.20225E+00 0.00000E+00
 -1       682 8.05350E+01 9.20225E+00 0.00000E+00
 -1       683 8.35350E+01 9.20225E+00 0.00000E+00
 -1       684 8.65350E+01 9.20225E+00 0.00000E+00
 -1       685 8.95350E+01 9.20225E+00 0.00000E+00
 -1       686 9.25350E+01 9.20225E+00 0.00000E+00
 -1       687 9.55350E+01 9.20225E+00 0.00000E+00
 -1       688 9.85350E+01 9.20225E+00 0.00000E+00
 -1       689 1.01535E+02 9.20225E+00 0.00000E+00
 -1       690 1.04535E+02 9.20225E+00 0.00000E+00
 -1       691 1.07535E+02 9.20225E+00 0.00000E+00
 -1       692 1.10535E+02 9.20225E+00 0.00000E+00
 -1       693 1.13535E+02 9.20225E+00 0.00000E+00
 -1       694 1.16535E+02 9.20225E+00 0.00000E+00
 -1       695 1.19535E+02 9.20225E+00 0.00000E+00
 -1       696 1.22535E+02 9.20225E+00 0.00000E+00
 -1       697 1.25535E+02 9.20225E+00 0.00000E+00
 -1       698 1.28535E+02 9.20225E+00 0.00000E+00
 -1       699 1.31535E+02 9.20225E+00 0.00000E+00
 -1       700 1.34535E+02 9.20225E+00 0.00000E+00
 -1       701 1.37535E+02 9.20225E+00 0.00000E+00
 -1       702 1.39870E+02 9.76363E+00 0.00000E+00
 -1       703 1.39608E+02 2.35500E+01 0.00000E+00
 -1       704 1.40178E+02 3.96665E+01 0.00000E+00
 -1       705 1.39608E+02 1.76500E+01 0.00000E+00
 -1       706 1.39608E+02 2.65000E+01 0.00000E+00
 -1       707 1.39608E+02 2.06000E+01 0.00000E+00
 -1       708 1.22306E+02 1.49424E+01 0.00000E+00
 -1       709 1.39608E+02 2.94000E+01 0.00000E+00
 -1       710 1.39608E+02 3.23500E+01 0.00000E+00
 -1       711 1.39608E+02 3.53000E+01 0.00000E+00
 -1       712 1.75350E+01 9.20225E+00 0.00000E+00
 -1       713 1.09712E+02 3.29698E+01 0.00000E+00
 -1       714 1.34888E+02 2.87220E+01 0.00000E+00
 -1       715 1.05855E+01 3.97357E+01 0.00000E+00
 -1       716 1.17373E+02 3.94567E+01 0.00000E+00
 -1       717 1.32248E+02 2.10302E+01 0.00000E+00
 -1       718 1.10345E+02 2.23480E+01 0.00000E+00
 -1       719 2.65350E+01 9.20225E+00 0.00000E+00
 -1       720 2.35350E+01 9.20225E+00 0.00000E+00
 -1       721 1.28678E+01 3.96719E+01 0.00000E+00
 -1       722 1.45350E+01 9.20225E+00 0.00000E+00
 -1       723 1.03920E+01 1.76125E+01 0.00000E+00
 -1       724 1.19421E+02 1.52320E+01 0.00000E+00
 -1       725 1.03920E+01 3.23250E+01 0.00000E+00
 -1       726 1.32172E+02 3.61269E+01 0.00000E+00
 -1       727 1.14116E+02 1.77150E+01 0.00000E+00
 -1       728 1.10815E+02 3.57525E+01 0.00000E+00
 -1       729 1.12044E+02 1.95905E+01 0.00000E+00
 -1       730 1.16707E+02 1.62746E+01 0.00000E+00
 -1       731 1.14377E+02 3.93768E+01 0.00000E+00
 -1       732 1.12825E+02 3.81930E+01 0.00000E+00
 -1       733 1.34652E+02 3.09367E+01 0.00000E+00
 -1       734 1.09062E+02 3.03020E+01 0.00000E+00
 -1       735 1.30714E+02 3.80219E+01 0.00000E+00
 -1       736 1.03920E+01 2.64500E+01 0.00000E+00
 -1       737 1.03920E+01 3.52625E+01 0.00000E+00
 -1       738 1.29126E+02 1.74412E+01 0.00000E+00
 -1       739 1.39608E+02 1.47250E+01 0.00000E+00
 -1       740 1.39739E+02 1.22443E+01 0.00000E+00
 -1       741 1.09045E+02 2.33481E+01 0.00000E+00
 -1       742 1.31827E+02 1.95239E+01 0.00000E+00
 -1       743 1.08960E+02 2.62133E+01 0.00000E+00
 -1       744 1.33948E+02 3.53322E+01 0.00000E+00
 -1       745 1.35125E+02 2.40362E+01 0.00000E+00
 -1       746 1.03920E+01 2.93875E+01 0.00000E+00
 -1       747 1.24591E+02 1.43519E+01 0.00000E+00
 -1       748 1.38879E+02 3.74540E+01 0.00000E+00
 -1       749 1.29900E+01 1.32000E+01 0.00000E+00
 -1       750 1.36960E+02 2.71973E+01 0.00000E+00
 -1       751 1.96500E+01 3.70100E+01 0.00000E+00
 -1       752 2.26500E+01 3.70100E+01 0.00000E+00
 -1       753 2.56500E+01 3.70100E+01 0.00000E+00
 -1       754 2.86500E+01 3.70100E+01 0.00000E+00
 -1       755 3.16500E+01 3.70100E+01 0.00000E+00
 -1       756 3.46500E+01 3.70100E+01 0.00000E+00
 -1       757 3.76500E+01 3.70100E+01 0.00000E+00
 -1       758 4.06500E+01 3.70100E+01 0.00000E+00
 -1       759 4.36500E+01 3.70100E+01 0.00000E+00
 -1       760 4.66500E+01 3.70100E+01 0.00000E+00
 -1       761 4.96500E+01 3.70100E+01 0.00000E+00
 -1       762 5.26500E+01 3.70100E+01 0.00000E+00
 -1       763 5.56500E+01 3.70100E+01 0.00000E+00
 -1       764 5.86500E+01 3.70100E+01 0.00000E+00
 -1       765 6.16500E+01 3.70100E+01 0.00000E+00
 -1       766 6.46500E+01 3.70100E+01 0.00000E+00
 -1       767 6.76500E+01 3.70100E+01 0.00000E+00
 -1       768 7.06500E+01 3.70100E+01 0.00000E+00
 -1       769 7.36500E+01 3.70100E+01 0.00000E+00
 -1       770 7.66500E+01 3.70100E+01 0.00000E+00
 -1       771 7.96500E+01 3.70100E+01 0.00000E+00
 -1       772 8.26500E+01 3.70100E+01 0.00000E+00
 -1       773 8.56500E+01 3.70100E+01 0.00000E+00
 -1       774 8.86500E+01 3.70100E+01 0.00000E+00
 -1       775 9.16500E+01 3.70100E+01 0.00000E+00
 -1       776 9.46500E+01 3.70100E+01 0.00000E+00
 -1       777 9.76500E+01 3.70100E+01 0.00000E+00
 -1       778 1.00650E+02 3.70100E+01 0.00000E+00
 -1       779 1.03650E+02 3.70100E+01 0.00000E+00
 -1       780 1.06650E+02 3.70100E+01 0.00000E+00
 -1       781 1.07395E+02 3.21212E+01 0.00000E+00
 -1       782 1.14334E+02 1.50564E+01 0.00000E+00
 -1       783 3.10350E+01 1.18003E+01 0.00000E+00
 -1       784 4.00350E+01 1.18003E+01 0.00000E+00
 -1       785 4.30350E+01 1.18003E+01 0.00000E+00
 -1       786 4.60350E+01 1.18003E+01 0.00000E+00
 -1       787 4.90350E+01 1.18003E+01 0.00000E+00
 -1       788 5.20350E+01 1.18003E+01 0.00000E+00
 -1       789 5.50350E+01 1.18003E+01 0.00000E+00
 -1       790 5.80350E+01 1.18003E+01 0.00000E+00
 -1       791 6.10350E+01 1.18003E+01 0.00000E+00
 -1       792 6.40350E+01 1.18003E+01 0.00000E+00
 -1       793 6.70350E+01 1.18003E+01 0.00000E+00
 -1       794 7.00350E+01 1.18003E+01 0.00000E+00
 -1       795 7.30350E+01 1.18003E+01 0.00000E+00
 -1       796 7.60350E+01 1.18003E+01 0.00000E+00
 -1       797 7.90350E+01 1.18003E+01 0.00000E+00
 -1       798 8.20350E+01 1.18003E+01 0.00000E+00
 -1       799 8.50350E+01 1.18003E+01 0.00000E+00
 -1       800 8.80350E+01 1.18003E+01 0.00000E+00
 -1       801 9.10350E+01 1.18003E+01 0.00000E+00
 -1       802 9.40350E+01 1.18003E+01 0.00000E+00
 -1       803 9.70350E+01 1.18003E+01 0.00000E+00
 -1       804 1.00035E+02 1.18003E+01 0.00000E+00
 -1       805 1.03035E+02 1.18003E+01 0.00000E+00
 -1       806 1.06035E+02 1.18003E+01 0.00000E+00
 -1       807 1.09035E+02 1.18003E+01 0.00000E+00
 -1       808 1.12035E+02 1.18003E+01 0.00000E+00
 -1       809 1.15035E+02 1.18003E+01 0.00000E+00
 -1       810 1.18035E+02 1.18003E+01 0.00000E+00
 -1       811 1.21035E+02 1.18003E+01 0.00000E+00
 -1       812 1.27035E+02 1.18003E+01 0.00000E+00
 -1       813 1.30035E+02 1.18003E+01 0.00000E+00
 -1       814 1.33035E+02 1.18003E+01 0.00000E+00
 -1       815 1.36035E+02 1.18003E+01 0.00000E+00
 -1       816 1.37887E+02 1.20223E+01 0.00000E+00
 -1       817 1.37625E+01 1.12011E+01 0.00000E+00
 -1       818 1.37223E+02 3.38250E+01 0.00000E+00
 -1       819 2.80350E+01 1.18003E+01 0.00000E+00
 -1       820 1.90350E+01 1.18003E+01 0.00000E+00
 -1       821 1.37223E+02 3.08750E+01 0.00000E+00
 -1       822 3.70350E+01 1.18003E+01 0.00000E+00
 -1       823 3.40350E+01 1.18003E+01 0.00000E+00
 -1       824 1.04888E+01 3.74991E+01 0.00000E+00
 -1       825 1.27836E+02 1.56096E+01 0.00000E+00
 -1       826 1.66500E+01 3.70100E+01 0.00000E+00
 -1       827 2.50350E+01 1.18003E+01 0.00000E+00
 -1       828 1.11479E+02 1.68845E+01 0.00000E+00
 -1       829 1.09164E+02 1.97177E+01 0.00000E+00
 -1       830 1.07859E+02 2.83131E+01 0.00000E+00
 -1       831 1.35777E+02 3.31391E+01 0.00000E+00
 -1       832 1.17269E+02 1.36830E+01 0.00000E+00
 -1       833 2.20350E+01 1.18003E+01 0.00000E+00
 -1       834 1.08202E+02 3.51785E+01 0.00000E+00
 -1       835 1.34525E+02 2.17261E+01 0.00000E+00
 -1       836 1.29900E+01 2.20250E+01 0.00000E+00
 -1       837 1.29900E+01 2.49750E+01 0.00000E+00
 -1       838 1.34104E+02 2.02199E+01 0.00000E+00
 -1       839 1.29900E+01 1.61375E+01 0.00000E+00
 -1       840 1.29900E+01 3.37938E+01 0.00000E+00
 -1       841 1.63988E+01 1.15007E+01 0.00000E+00
 -1       842 1.09650E+02 3.70550E+01 0.00000E+00
 -1       843 1.37010E+02 1.61875E+01 0.00000E+00
 -1       844 1.36650E+02 3.70100E+01 0.00000E+00
 -1       845 1.23920E+02 1.20723E+01 0.00000E+00
 -1       846 1.37010E+02 1.91375E+01 0.00000E+00
 -1       847 1.27710E+01 3.74352E+01 0.00000E+00
 -1       848 1.29900E+01 1.90812E+01 0.00000E+00
 -1       849 1.07732E+02 2.43273E+01 0.00000E+00
 -1       850 1.07864E+02 2.07178E+01 0.00000E+00
 -1       851 1.06192E+02 3.01323E+01 0.00000E+00
 -1       852 1.31359E+02 1.77126E+01 0.00000E+00
 -1       853 1.33650E+02 3.70550E+01 0.00000E+00
 -1       854 1.29900E+01 3.08563E+01 0.00000E+00
 -1       855 1.25878E+02 1.38410E+01 0.00000E+00
 -1       856 1.29883E+02 1.55378E+01 0.00000E+00
 -1       857 1.44274E+01 3.46401E+01 0.00000E+00
 -1       858 2.41500E+01 3.44120E+01 0.00000E+00
 -1       859 2.71500E+01 3.44120E+01 0.00000E+00
 -1       860 3.01500E+01 3.44120E+01 0.00000E+00
 -1       861 3.31500E+01 3.44120E+01 0.00000E+00
 -1       862 3.61500E+01 3.44120E+01 0.00000E+00
 -1       863 3.91500E+01 3.44120E+01 0.00000E+00
 -1       864 4.21500E+01 3.44120E+01 0.00000E+00
 -1       865 4.51500E+01 3.44120E+01 0.00000E+00
 -1       866 4.81500E+01 3.44120E+01 0.00000E+00
 -1       867 5.11500E+01 3.44120E+01 0.00000E+00
 -1       868 5.41500E+01 3.44120E+01 0.00000E+00
 -1       869 5.71500E+01 3.44120E+01 0.00000E+00
 -1       870 6.01500E+01 3.44120E+01 0.00000E+00
 -1       871 6.31500E+01 3.44120E+01 0.00000E+00
 -1       872 6.61500E+01 3.44120E+01 0.00000E+00
 -1       873 6.91500E+01 3.44120E+01 0.00000E+00
 -1       874 7.21500E+01 3.44120E+01 0.00000E+00
 -1       875 7.51500E+01 3.44120E+01 0.00000E+00
 -1       876 7.81500E+01 3.44120E+01 0.00000E+00
 -1       877 8.11500E+01 3.44120E+01 0.00000E+00
 -1       878 8.41500E+01 3.44120E+01 0.00000E+00
 -1       879 8.71500E+01 3.44120E+01 0.00000E+00
 -1       880 9.01500E+01 3.44120E+01 0.00000E+00
 -1       881 9.31500E+01 3.44120E+01 0.00000E+00
 -1       882 9.61500E+01 3.44120E+01 0.00000E+00
 -1       883 9.91500E+01 3.44120E+01 0.00000E+00
 -1       884 1.02150E+02 3.44120E+01 0.00000E+00
 -1       885 4.15350E+01 1.43982E+01 0.00000E+00
 -1       886 5.05350E+01 1.43982E+01 0.00000E+00
 -1       887 5.35350E+01 1.43982E+01 0.00000E+00
 -1       888 5.65350E+01 1.43982E+01 0.00000E+00
 -1       889 5.95350E+01 1.43982E+01 0.00000E+00
 -1       890 6.25350E+01 1.43982E+01 0.00000E+00
 -1       891 6.55350E+01 1.43982E+01 0.00000E+00
 -1       892 6.85350E+01 1.43982E+01 0.00000E+00
 -1       893 7.15350E+01 1.43982E+01 0.00000E+00
 -1       894 7.45350E+01 1.43982E+01 0.00000E+00
 -1       895 7.75350E+01 1.43982E+01 0.00000E+00
 -1       896 8.05350E+01 1.43982E+01 0.00000E+00
 -1       897 8.35350E+01 1.43982E+01 0.00000E+00
 -1       898 8.65350E+01 1.43982E+01 0.00000E+00
 -1       899 8.95350E+01 1.43982E+01 0.00000E+00
 -1       900 9.25350E+01 1.43982E+01 0.00000E+00
 -1       901 9.55350E+01 1.43982E+01 0.00000E+00
 -1       902 9.85350E+01 1.43982E+01 0.00000E+00
 -1       903 1.01535E+02 1.43982E+01 0.00000E+00
 -1       904 1.04535E+02 1.43982E+01 0.00000E+00
 -1       905 1.07535E+02 1.43982E+01 0.00000E+00
 -1       906 1.31535E+02 1.43982E+01 0.00000E+00
 -1       907 2.95350E+01 1.43982E+01 0.00000E+00
 -1       908 1.37449E+02 1.41049E+01 0.00000E+00
 -1       909 1.08310E+02 1.66572E+01 0.00000E+00
 -1       910 1.11505E+02 1.37826E+01 0.00000E+00
 -1       911 2.35350E+01 1.43982E+01 0.00000E+00
 -1       912 3.85350E+01 1.43982E+01 0.00000E+00
 -1       913 1.81500E+01 3.44120E+01 0.00000E+00
 -1       914 1.06631E+02 2.64271E+01 0.00000E+00
 -1       915 4.75350E+01 1.43982E+01 0.00000E+00
 -1       916 4.45350E+01 1.43982E+01 0.00000E+00
 -1       917 2.65350E+01 1.43982E+01 0.00000E+00
 -1       918 1.29900E+01 2.79188E+01 0.00000E+00
 -1       919 2.05350E+01 1.43982E+01 0.00000E+00
 -1       920 2.11500E+01 3.44120E+01 0.00000E+00
 -1       921 1.05654E+02 3.42158E+01 0.00000E+00
 -1       922 1.33636E+02 1.84085E+01 0.00000E+00
 -1       923 1.55880E+01 1.46687E+01 0.00000E+00
 -1       924 1.78988E+01 1.40987E+01 0.00000E+00
 -1       925 3.25350E+01 1.43982E+01 0.00000E+00
 -1       926 1.35023E+02 1.39939E+01 0.00000E+00
 -1       927 1.55880E+01 2.35000E+01 0.00000E+00
 -1       928 1.06551E+02 2.16970E+01 0.00000E+00
 -1       929 1.55880E+01 2.05562E+01 0.00000E+00
 -1       930 3.55350E+01 1.43982E+01 0.00000E+00
 -1       931 1.04451E+02 3.22268E+01 0.00000E+00
 -1       932 1.04964E+02 2.82463E+01 0.00000E+00
 -1       933 1.44274E+01 3.17026E+01 0.00000E+00
 -1       934 2.86500E+01 3.18140E+01 0.00000E+00
 -1       935 3.16500E+01 3.18140E+01 0.00000E+00
 -1       936 3.46500E+01 3.18140E+01 0.00000E+00
 -1       937 3.76500E+01 3.18140E+01 0.00000E+00
 -1       938 4.06500E+01 3.18140E+01 0.00000E+00
 -1       939 4.36500E+01 3.18140E+01 0.00000E+00
 -1       940 4.66500E+01 3.18140E+01 0.00000E+00
 -1       941 4.96500E+01 3.18140E+01 0.00000E+00
 -1       942 5.26500E+01 3.18140E+01 0.00000E+00
 -1       943 5.56500E+01 3.18140E+01 0.00000E+00
 -1       944 5.86500E+01 3.18140E+01 0.00000E+00
 -1       945 6.16500E+01 3.18140E+01 0.00000E+00
 -1       946 6.46500E+01 3.18140E+01 0.00000E+00
 -1       947 6.76500E+01 3.18140E+01 0.00000E+00
 -1       948 7.06500E+01 3.18140E+01 0.00000E+00
 -1       949 7.36500E+01 3.18140E+01 0.00000E+00
 -1       950 7.66500E+01 3.18140E+01 0.00000E+00
 -1       951 7.96500E+01 3.18140E+01 0.00000E+00
 -1       952 8.26500E+01 3.18140E+01 0.00000E+00
 -1       953 8.56500E+01 3.18140E+01 0.00000E+00
 -1       954 8.86500E+01 3.18140E+01 0.00000E+00
 -1       955 9.16500E+01 3.18140E+01 0.00000E+00
 -1       956 9.46500E+01 3.18140E+01 0.00000E+00
 -1       957 9.76500E+01 3.18140E+01 0.00000E+00
 -1       958 1.00650E+02 3.18140E+01 0.00000E+00
 -1       959 5.80350E+01 1.69963E+01 0.00000E+00
 -1       960 5.50350E+01 1.69963E+01 0.00000E+00
 -1       961 5.20350E+01 1.69963E+01 0.00000E+00
 -1       962 6.10350E+01 1.69963E+01 0.00000E+00
 -1       963 6.40350E+01 1.69963E+01 0.00000E+00
 -1       964 6.70350E+01 1.69963E+01 0.00000E+00
 -1       965 7.00350E+01 1.69963E+01 0.00000E+00
 -1       966 7.30350E+01 1.69963E+01 0.00000E+00
 -1       967 7.60350E+01 1.69963E+01 0.00000E+00
 -1       968 7.90350E+01 1.69963E+01 0.00000E+00
 -1       969 8.20350E+01 1.69963E+01 0.00000E+00
 -1       970 8.50350E+01 1.69963E+01 0.00000E+00
 -1       971 8.80350E+01 1.69963E+01 0.00000E+00
 -1       972 9.10350E+01 1.69963E+01 0.00000E+00
 -1       973 9.40350E+01 1.69963E+01 0.00000E+00
 -1       974 9.70350E+01 1.69963E+01 0.00000E+00
 -1       975 1.00035E+02 1.69963E+01 0.00000E+00
 -1       976 1.03035E+02 1.69963E+01 0.00000E+00
 -1       977 1.06234E+02 1.88859E+01 0.00000E+00
 -1       978 2.50350E+01 1.69963E+01 0.00000E+00
 -1       979 1.55880E+01 1.76125E+01 0.00000E+00
 -1       980 1.44274E+01 2.87651E+01 0.00000E+00
 -1       981 1.05450E+02 2.37968E+01 0.00000E+00
 -1       982 4.90350E+01 1.69963E+01 0.00000E+00
 -1       983 1.55880E+01 2.64438E+01 0.00000E+00
 -1       984 2.20350E+01 1.69963E+01 0.00000E+00
 -1       985 4.00350E+01 1.69963E+01 0.00000E+00
 -1       986 2.56500E+01 3.18140E+01 0.00000E+00
 -1       987 1.05385E+02 1.66421E+01 0.00000E+00
 -1       988 1.96500E+01 3.18140E+01 0.00000E+00
 -1       989 2.26500E+01 3.18140E+01 0.00000E+00
 -1       990 2.80350E+01 1.69963E+01 0.00000E+00
 -1       991 1.70387E+01 3.02895E+01 0.00000E+00
 -1       992 1.93988E+01 1.66967E+01 0.00000E+00
 -1       993 1.81860E+01 2.49719E+01 0.00000E+00
 -1       994 4.30350E+01 1.69963E+01 0.00000E+00
 -1       995 1.74934E+01 1.71546E+01 0.00000E+00
 -1       996 3.10350E+01 1.69963E+01 0.00000E+00
 -1       997 1.03811E+02 2.05826E+01 0.00000E+00
 -1       998 3.70350E+01 1.69963E+01 0.00000E+00
 -1       999 1.03783E+02 2.56160E+01 0.00000E+00
 -1      1000 1.81860E+01 2.20281E+01 0.00000E+00
 -1      1001 1.02391E+02 2.97195E+01 0.00000E+00
 -1      1002 4.60350E+01 1.69963E+01 0.00000E+00
 -1      1003 1.03423E+02 1.87894E+01 0.00000E+00
 -1      1004 3.01500E+01 2.92160E+01 0.00000E+00
 -1      1005 1.01210E+02 2.70892E+01 0.00000E+00
 -1      1006 3.31500E+01 2.92160E+01 0.00000E+00
 -1      1007 3.61500E+01 2.92160E+01 0.00000E+00
 -1      1008 3.91500E+01 2.92160E+01 0.00000E+00
 -1      1009 4.21500E+01 2.92160E+01 0.00000E+00
 -1      1010 4.51500E+01 2.92160E+01 0.00000E+00
 -1      1011 4.81500E+01 2.92160E+01 0.00000E+00
 -1      1012 5.11500E+01 2.92160E+01 0.00000E+00
 -1      1013 5.41500E+01 2.92160E+01 0.00000E+00
 -1      1014 5.71500E+01 2.92160E+01 0.00000E+00
 -1      1015 6.01500E+01 2.92160E+01 0.00000E+00
 -1      1016 6.31500E+01 2.92160E+01 0.00000E+00
 -1      1017 6.61500E+01 2.92160E+01 0.00000E+00
 -1      1018 6.91500E+01 2.92160E+01 0.00000E+00
 -1      1019 7.21500E+01 2.92160E+01 0.00000E+00
 -1      1020 7.51500E+01 2.92160E+01 0.00000E+00
 -1      1021 7.81500E+01 2.92160E+01 0.00000E+00
 -1      1022 8.11500E+01 2.92160E+01 0.00000E+00
 -1      1023 8.41500E+01 2.92160E+01 0.00000E+00
 -1      1024 8.71500E+01 2.92160E+01 0.00000E+00
 -1      1025 9.01500E+01 2.92160E+01 0.00000E+00
 -1      1026 9.31500E+01 2.92160E+01 0.00000E+00
 -1      1027 9.61500E+01 2.92160E+01 0.00000E+00
 -1      1028 9.91500E+01 2.92160E+01 0.00000E+00
 -1      1029 6.25350E+01 1.95942E+01 0.00000E+00
 -1      1030 5.95350E+01 1.95942E+01 0.00000E+00
 -1      1031 6.55350E+01 1.95942E+01 0.00000E+00
 -1      1032 6.85350E+01 1.95942E+01 0.00000E+00
 -1      1033 7.15350E+01 1.95942E+01 0.00000E+00
 -1      1034 7.45350E+01 1.95942E+01 0.00000E+00
 -1      1035 7.75350E+01 1.95942E+01 0.00000E+00
 -1      1036 8.05350E+01 1.95942E+01 0.00000E+00
 -1      1037 8.35350E+01 1.95942E+01 0.00000E+00
 -1      1038 8.65350E+01 1.95942E+01 0.00000E+00
 -1      1039 8.95350E+01 1.95942E+01 0.00000E+00
 -1      1040 9.25350E+01 1.95942E+01 0.00000E+00
 -1      1041 9.55350E+01 1.95942E+01 0.00000E+00
 -1      1042 9.85350E+01 1.95942E+01 0.00000E+00
 -1      1043 1.00979E+02 1.91918E+01 0.00000E+00
 -1      1044 1.81676E+01 2.79683E+01 0.00000E+00
 -1      1045 3.40350E+01 1.69963E+01 0.00000E+00
 -1      1046 2.11500E+01 2.92160E+01 0.00000E+00
 -1      1047 5.65350E+01 1.95942E+01 0.00000E+00
 -1      1048 1.78397E+01 1.95914E+01 0.00000E+00
 -1      1049 5.05350E+01 1.95942E+01 0.00000E+00
 -1      1050 2.35350E+01 1.95942E+01 0.00000E+00
 -1      1051 2.65350E+01 1.95942E+01 0.00000E+00
 -1      1052 2.71500E+01 2.92160E+01 0.00000E+00
 -1      1053 5.35350E+01 1.95942E+01 0.00000E+00
 -1      1054 2.41500E+01 2.92160E+01 0.00000E+00
 -1      1055 1.01367E+02 2.09850E+01 0.00000E+00
 -1      1056 2.07748E+01 2.64860E+01 0.00000E+00
 -1      1057 2.08988E+01 1.92947E+01 0.00000E+00
 -1      1058 2.95350E+01 1.95942E+01 0.00000E+00
 -1      1059 3.85350E+01 1.95942E+01 0.00000E+00
 -1      1060 4.75350E+01 1.95942E+01 0.00000E+00
 -1      1061 4.15350E+01 1.95942E+01 0.00000E+00
 -1      1062 2.07748E+01 2.35422E+01 0.00000E+00
 -1      1063 1.02511E+02 2.38359E+01 0.00000E+00
 -1      1064 9.95276E+01 2.33776E+01 0.00000E+00
 -1      1065 3.16500E+01 2.66180E+01 0.00000E+00
 -1      1066 3.46500E+01 2.66180E+01 0.00000E+00
 -1      1067 3.76500E+01 2.66180E+01 0.00000E+00
 -1      1068 4.06500E+01 2.66180E+01 0.00000E+00
 -1      1069 4.36500E+01 2.66180E+01 0.00000E+00
 -1      1070 4.66500E+01 2.66180E+01 0.00000E+00
 -1      1071 4.96500E+01 2.66180E+01 0.00000E+00
 -1      1072 5.26500E+01 2.66180E+01 0.00000E+00
 -1      1073 5.56500E+01 2.66180E+01 0.00000E+00
 -1      1074 5.86500E+01 2.66180E+01 0.00000E+00
 -1      1075 6.16500E+01 2.66180E+01 0.00000E+00
 -1      1076 6.46500E+01 2.66180E+01 0.00000E+00
 -1      1077 6.76500E+01 2.66180E+01 0.00000E+00
 -1      1078 7.06500E+01 2.66180E+01 0.00000E+00
 -1      1079 7.36500E+01 2.66180E+01 0.00000E+00
 -1      1080 7.66500E+01 2.66180E+01 0.00000E+00
 -1      1081 7.96500E+01 2.66180E+01 0.00000E+00
 -1      1082 8.26500E+01 2.66180E+01 0.00000E+00
 -1      1083 8.56500E+01 2.66180E+01 0.00000E+00
 -1      1084 8.86500E+01 2.66180E+01 0.00000E+00
 -1      1085 9.16500E+01 2.66180E+01 0.00000E+00
 -1      1086 9.46500E+01 2.66180E+01 0.00000E+00
 -1      1087 9.76500E+01 2.66180E+01 0.00000E+00
 -1      1088 6.70350E+01 2.21922E+01 0.00000E+00
 -1      1089 7.00350E+01 2.21922E+01 0.00000E+00
 -1      1090 7.30350E+01 2.21922E+01 0.00000E+00
 -1      1091 7.60350E+01 2.21922E+01 0.00000E+00
 -1      1092 7.90350E+01 2.21922E+01 0.00000E+00
 -1      1093 8.20350E+01 2.21922E+01 0.00000E+00
 -1      1094 8.50350E+01 2.21922E+01 0.00000E+00
 -1      1095 8.80350E+01 2.21922E+01 0.00000E+00
 -1      1096 9.10350E+01 2.21922E+01 0.00000E+00
 -1      1097 9.40350E+01 2.21922E+01 0.00000E+00
 -1      1098 9.70350E+01 2.21922E+01 0.00000E+00
 -1      1099 3.25350E+01 1.95942E+01 0.00000E+00
 -1      1100 4.45350E+01 1.95942E+01 0.00000E+00
 -1      1101 3.55350E+01 1.95942E+01 0.00000E+00
 -1      1102 5.80350E+01 2.21922E+01 0.00000E+00
 -1      1103 2.86500E+01 2.66180E+01 0.00000E+00
 -1      1104 2.56500E+01 2.66180E+01 0.00000E+00
 -1      1105 5.20350E+01 2.21922E+01 0.00000E+00
 -1      1106 6.10350E+01 2.21922E+01 0.00000E+00
 -1      1107 2.50350E+01 2.21922E+01 0.00000E+00
 -1      1108 5.50350E+01 2.21922E+01 0.00000E+00
 -1      1109 2.32124E+01 2.65520E+01 0.00000E+00
 -1      1110 6.40350E+01 2.21922E+01 0.00000E+00
 -1      1111 4.90350E+01 2.21922E+01 0.00000E+00
 -1      1112 3.70350E+01 2.21922E+01 0.00000E+00
 -1      1113 2.20351E+01 2.21923E+01 0.00000E+00
 -1      1114 4.00350E+01 2.21922E+01 0.00000E+00
 -1      1115 2.80350E+01 2.21922E+01 0.00000E+00
 -1      1116 3.61500E+01 2.40200E+01 0.00000E+00
 -1      1117 4.51500E+01 2.40200E+01 0.00000E+00
 -1      1118 3.10350E+01 2.21922E+01 0.00000E+00
 -1      1119 3.40350E+01 2.21922E+01 0.00000E+00
 -1      1120 4.30350E+01 2.21922E+01 0.00000E+00
 -1      1121 4.60350E+01 2.21922E+01 0.00000E+00
 -1      1122 2.37747E+01 2.35422E+01 0.00000E+00
 -1      1123 0.00000E+00 4.85250E+01 0.00000E+00
 -1      1124 0.00000E+00 4.55750E+01 0.00000E+00
 -1      1125 0.00000E+00 4.26250E+01 0.00000E+00
 -1      1126 0.00000E+00 3.96750E+01 0.00000E+00
 -1      1127 0.00000E+00 3.67250E+01 0.00000E+00
 -1      1128 0.00000E+00 3.38000E+01 0.00000E+00
 -1      1129 0.00000E+00 3.08750E+01 0.00000E+00
 -1      1130 0.00000E+00 2.79250E+01 0.00000E+00
 -1      1131 0.00000E+00 2.49750E+01 0.00000E+00
 -1      1132 0.00000E+00 2.20250E+01 0.00000E+00
 -1      1133 0.00000E+00 1.90750E+01 0.00000E+00
 -1      1134 0.00000E+00 1.61500E+01 0.00000E+00
 -1      1135 0.00000E+00 1.32250E+01 0.00000E+00
 -1      1136 0.00000E+00 1.02750E+01 0.00000E+00
 -1      1137 0.00000E+00 7.32500E+00 0.00000E+00
 -1      1138 0.00000E+00 4.37500E+00 0.00000E+00
 -1      1139 0.00000E+00 1.45000E+00 0.00000E+00
 -1      1140 1.57500E+00 5.00000E+01 0.00000E+00
 -1      1141 4.65000E+00 5.00000E+01 0.00000E+00
 -1      1142 7.65000E+00 5.00000E+01 0.00000E+00
 -1      1143 1.06500E+01 5.00000E+01 0.00000E+00
 -1      1144 1.36500E+01 5.00000E+01 0.00000E+00
 -1      1145 1.66500E+01 5.00000E+01 0.00000E+00
 -1      1146 1.96500E+01 5.00000E+01 0.00000E+00
 -1      1147 2.26500E+01 5.00000E+01 0.00000E+00
 -1      1148 2.56500E+01 5.00000E+01 0.00000E+00
 -1      1149 2.86500E+01 5.00000E+01 0.00000E+00
 -1      1150 3.16500E+01 5.00000E+01 0.00000E+00
 -1      1151 3.46500E+01 5.00000E+01 0.00000E+00
 -1      1152 3.76500E+01 5.00000E+01 0.00000E+00
 -1      1153 4.06500E+01 5.00000E+01 0.00000E+00
 -1      1154 4.36500E+01 5.00000E+01 0.00000E+00
 -1      1155 4.66500E+01 5.00000E+01 0.00000E+00
 -1      1156 4.96500E+01 5.00000E+01 0.00000E+00
 -1      1157 5.26500E+01 5.00000E+01 0.00000E+00
 -1      1158 5.56500E+01 5.00000E+01 0.00000E+00
 -1      1159 5.86500E+01 5.00000E+01 0.00000E+00
 -1      1160 6.16500E+01 5.00000E+01 0.00000E+00
 -1      1161 6.46500E+01 5.00000E+01 0.00000E+00
 -1      1162 6.76500E+01 5.00000E+01 0.00000E+00
 -1      1163 7.06500E+01 5.00000E+01 0.00000E+00
 -1      1164 7.36500E+01 5.00000E+01 0.00000E+00
 -1      1165 7.66500E+01 5.00000E+01 0.00000E+00
 -1      1166 7.96500E+01 5.00000E+01 0.00000E+00
 -1      1167 8.26500E+01 5.00000E+01 0.00000E+00
 -1      1168 8.56500E+01 5.00000E+01 0.00000E+00
 -1      1169 8.86500E+01 5.00000E+01 0.00000E+00
 -1      1170 9.16500E+01 5.00000E+01 0.00000E+00
 -1      1171 9.46500E+01 5.00000E+01 0.00000E+00
 -1      1172 9.76500E+01 5.00000E+01 0.00000E+00
 -1      1173 1.00650E+02 5.00000E+01 0.00000E+00
 -1      1174 1.03650E+02 5.00000E+01 0.00000E+00
 -1      1175 1.06650E+02 5.00000E+01 0.00000E+00
 -1      1176 1.09650E+02 5.00000E+01 0.00000E+00
 -1      1177 1.12650E+02 5.00000E+01 0.00000E+00
 -1      1178 1.15650E+02 5.00000E+01 0.00000E+00
 -1      1179 1.18650E+02 5.00000E+01 0.00000E+00
 -1      1180 1.21650E+02 5.00000E+01 0.00000E+00
 -1      1181 1.24650E+02 5.00000E+01 0.00000E+00
 -1      1182 1.27650E+02 5.00000E+01 0.00000E+00
 -1      1183 1.30650E+02 5.00000E+01 0.00000E+00
 -1      1184 1.33650E+02 5.00000E+01 0.00000E+00
 -1      1185 1.36650E+02 5.00000E+01 0.00000E+00
 -1      1186 1.39650E+02 5.00000E+01 0.00000E+00
 -1      1187 1.42650E+02 5.00000E+01 0.00000E+00
 -1      1188 1.45650E+02 5.00000E+01 0.00000E+00
 -1      1189 1.48575E+02 5.00000E+01 0.00000E+00
 -1      1190 1.57500E+00 0.00000E+00 0.00000E+00
 -1      1191 4.65000E+00 0.00000E+00 0.00000E+00
 -1      1192 7.65000E+00 0.00000E+00 0.00000E+00
 -1      1193 1.06500E+01 0.00000E+00 0.00000E+00
 -1      1194 1.36500E+01 0.00000E+00 0.00000E+00
 -1      1195 1.66500E+01 0.00000E+00 0.00000E+00
 -1      1196 1.96500E+01 0.00000E+00 0.00000E+00
 -1      1197 2.26500E+01 0.00000E+00 0.00000E+00
 -1      1198 2.56500E+01 0.00000E+00 0.00000E+00
 -1      1199 2.86500E+01 0.00000E+00 0.00000E+00
 -1      1200 3.16500E+01 0.00000E+00 0.00000E+00
 -1      1201 3.46500E+01 0.00000E+00 0.00000E+00
 -1      1202 3.76500E+01 0.00000E+00 0.00000E+00
 -1      1203 4.06500E+01 0.00000E+00 0.00000E+00
 -1      1204 4.36500E+01 0.00000E+00 0.00000E+00
 -1      1205 4.66500E+01 0.00000E+00 0.00000E+00
 -1      1206 4.96500E+01 0.00000E+00 0.00000E+00
 -1      1207 5.26500E+01 0.00000E+00 0.00000E+00
 -1      1208 5.56500E+01 0.00000E+00 0.00000E+00
 -1      1209 5.86500E+01 0.00000E+00 0.00000E+00
 -1      1210 6.16500E+01 0.00000E+00 0.00000E+00
 -1      1211 6.46500E+01 0.00000E+00 0.00000E+00
 -1      1212 6.76500E+01 0.00000E+00 0.00000E+00
 -1      1213 7.06500E+01 0.00000E+00 0.00000E+00
 -1      1214 7.36500E+01 0.00000E+00 0.00000E+00
 -1      1215 7.66500E+01 0.00000E+00 0.00000E+00
 -1      1216 7.96500E+01 0.00000E+00 0.00000E+00
 -1      1217 8.26500E+01 0.00000E+00 0.00000E+00
 -1      1218 8.56500E+01 0.00000E+00 0.00000E+00
 -1      1219 8.86500E+01 0.00000E+00 0.00000E+00
 -1      1220 9.16500E+01 0.00000E+00 0.00000E+00
 -1      1221 9.46500E+01 0.00000E+00 0.00000E+00
 -1      1222 9.76500E+01 0.00000E+00 0.00000E+00
 -1      1223 1.00650E+02 0.00000E+00 0.00000E+00
 -1      1224 1.03650E+02 0.00000E+00 0.00000E+00
 -1      1225 1.06650E+02 0.00000E+00 0.00000E+00
 -1      1226 1.09650E+02 0.00000E+00 0.00000E+00
 -1      1227 1.12650E+02 0.00000E+00 0.00000E+00
 -1      1228 1.15650E+02 0.00000E+00 0.00000E+00
 -1      1229 1.18650E+02 0.00000E+00 0.00000E+00
 -1      1230 1.21650E+02 0.00000E+00 0.00000E+00
 -1      1231 1.24650E+02 0.00000E+00 0.00000E+00
 -1      1232 1.27650E+02 0.00000E+00 0.00000E+00
 -1      1233 1.30650E+02 0.00000E+00 0.00000E+00
 -1      1234 1.33650E+02 0.00000E+00 0.00000E+00
 -1      1235 1.36650E+02 0.00000E+00 0.00000E+00
 -1      1236 1.39650E+02 0.00000E+00 0.00000E+00
 -1      1237 1.42650E+02 0.00000E+00 0.00000E+00
 -1      1238 1.45650E+02 0.00000E+00 0.00000E+00
 -1      1239 1.48575E+02 0.00000E+00 0.00000E+00
 -1      1240 1.50000E+02 1.47500E+00 0.00000E+00
 -1      1241 1.50000E+02 4.42500E+00 0.00000E+00
 -1      1242 1.50000E+02 7.37500E+00 0.00000E+00
 -1      1243 1.50000E+02 1.03250E+01 0.00000E+00
 -1      1244 1.50000E+02 1.32750E+01 0.00000E+00
 -1      1245 1.50000E+02 1.62000E+01 0.00000E+00
 -1      1246 1.50000E+02 1.91250E+01 0.00000E+00
 -1      1247 1.50000E+02 2.20750E+01 0.00000E+00
 -1      1248 1.50000E+02 2.50250E+01 0.00000E+00
 -1      1249 1.50000E+02 2.79750E+01 0.00000E+00
 -1      1250 1.50000E+02 3.09250E+01 0.00000E+00
 -1      1251 1.50000E+02 3.38500E+01 0.00000E+00
 -1      1252 1.50000E+02 3.67750E+01 0.00000E+00
 -1      1253 1.50000E+02 3.97250E+01 0.00000E+00
 -1      1254 1.50000E+02 4.26750E+01 0.00000E+00
 -1      1255 1.50000E+02 4.56250E+01 0.00000E+00
 -1      1256 1.50000E+02 4.85500E+01 0.00000E+00
 -1      1257 1.28945E+02 2.76570E+01 0.00000E+00
 -1      1258 1.28621E+02 2.61966E+01 0.00000E+00
 -1      1259 1.27974E+02 2.48058E+01 0.00000E+00
 -1      1260 1.27044E+02 2.35940E+01 0.00000E+00
 -1      1261 1.25918E+02 2.26429E+01 0.00000E+00
 -1      1262 1.24594E+02 2.19387E+01 0.00000E+00
 -1      1263 1.23160E+02 2.15345E+01 0.00000E+00
 -1      1264 1.21561E+02 2.14489E+01 0.00000E+00
 -1      1265 1.19982E+02 2.17296E+01 0.00000E+00
 -1      1266 1.18547E+02 2.23403E+01 0.00000E+00
 -1      1267 1.17251E+02 2.32826E+01 0.00000E+00
 -1      1268 1.16237E+02 2.44463E+01 0.00000E+00
 -1      1269 1.15500E+02 2.58104E+01 0.00000E+00
 -1      1270 1.15075E+02 2.73386E+01 0.00000E+00
 -1      1271 1.14999E+02 2.88174E+01 0.00000E+00
 -1      1272 1.15238E+02 3.02879E+01 0.00000E+00
 -1      1273 1.15786E+02 3.16806E+01 0.00000E+00
 -1      1274 1.16578E+02 3.28773E+01 0.00000E+00
 -1      1275 1.17642E+02 3.39225E+01 0.00000E+00
 -1      1276 1.18895E+02 3.47148E+01 0.00000E+00
 -1      1277 1.20329E+02 3.52362E+01 0.00000E+00
 -1      1278 1.21886E+02 3.54350E+01 0.00000E+00
 -1      1279 1.23392E+02 3.52937E+01 0.00000E+00
 -1      1280 1.24801E+02 3.48459E+01 0.00000E+00
 -1      1281 1.26074E+02 3.41200E+01 0.00000E+00
 -1      1282 1.27166E+02 3.31470E+01 0.00000E+00
 -1      1283 1.28029E+02 3.19731E+01 0.00000E+00
 -1      1284 1.28645E+02 3.06007E+01 0.00000E+00
 -1      1285 1.28952E+02 2.91468E+01 0.00000E+00
 -1      1286 1.57500E+00 4.85250E+01 0.00000E+00
 -1      1287 1.29900E+00 4.48375E+01 0.00000E+00
 -1      1288 1.29900E+00 4.63125E+01 0.00000E+00
 -1      1289 1.29900E+00 4.18875E+01 0.00000E+00
 -1      1290 1.29900E+00 4.33625E+01 0.00000E+00
 -1      1291 2.59800E+00 4.41000E+01 0.00000E+00
 -1      1292 1.29900E+00 3.89375E+01 0.00000E+00
 -1      1293 1.29900E+00 4.04125E+01 0.00000E+00
 -1      1294 2.59800E+00 4.11500E+01 0.00000E+00
 -1      1295 1.29900E+00 3.59875E+01 0.00000E+00
 -1      1296 1.29900E+00 3.74625E+01 0.00000E+00
 -1      1297 2.59800E+00 3.82000E+01 0.00000E+00
 -1      1298 1.29900E+00 3.30875E+01 0.00000E+00
 -1      1299 1.29900E+00 3.45375E+01 0.00000E+00
 -1      1300 2.59800E+00 3.52750E+01 0.00000E+00
 -1      1301 1.29900E+00 3.01375E+01 0.00000E+00
 -1      1302 1.29900E+00 3.16125E+01 0.00000E+00
 -1      1303 2.59800E+00 3.23500E+01 0.00000E+00
 -1      1304 1.29900E+00 2.71875E+01 0.00000E+00
 -1      1305 1.29900E+00 2.86625E+01 0.00000E+00
 -1      1306 2.59800E+00 2.94000E+01 0.00000E+00
 -1      1307 1.29900E+00 2.42375E+01 0.00000E+00
 -1      1308 1.29900E+00 2.57125E+01 0.00000E+00
 -1      1309 2.59800E+00 2.64500E+01 0.00000E+00
 -1      1310 1.29900E+00 2.12875E+01 0.00000E+00
 -1      1311 1.29900E+00 2.27625E+01 0.00000E+00
 -1      1312 2.59800E+00 2.35000E+01 0.00000E+00
 -1      1313 1.29900E+00 1.83375E+01 0.00000E+00
 -1      1314 1.29900E+00 1.98125E+01 0.00000E+00
 -1      1315 2.59800E+00 2.05500E+01 0.00000E+00
 -1      1316 1.29900E+00 1.54375E+01 0.00000E+00
 -1      1317 1.29900E+00 1.68875E+01 0.00000E+00
 -1      1318 2.59800E+00 1.76250E+01 0.00000E+00
 -1      1319 1.29900E+00 1.24875E+01 0.00000E+00
 -1      1320 1.29900E+00 1.39625E+01 0.00000E+00
 -1      1321 2.59800E+00 1.47000E+01 0.00000E+00
 -1      1322 1.29900E+00 9.53750E+00 0.00000E+00
 -1      1323 1.29900E+00 1.10125E+01 0.00000E+00
 -1      1324 2.59800E+00 1.17500E+01 0.00000E+00
 -1      1325 1.29900E+00 6.58750E+00 0.00000E+00
 -1      1326 1.29900E+00 8.06250E+00 0.00000E+00
 -1      1327 2.59800E+00 8.80000E+00 0.00000E+00
 -1      1328 1.29900E+00 3.63750E+00 0.00000E+00
 -1      1329 1.29900E+00 5.11250E+00 0.00000E+00
 -1      1330 2.59800E+00 5.85000E+00 0.00000E+00
 -1      1331 1.43700E+00 1.09375E+00 0.00000E+00
 -1      1332 1.43700E+00 2.54375E+00 0.00000E+00
 -1      1333 2.73600E+00 3.28125E+00 0.00000E+00
 -1      1334 3.01200E+00 1.09375E+00 0.00000E+00
 -1      1335 3.90000E+00 4.87010E+01 0.00000E+00
 -1      1336 5.40000E+00 4.87010E+01 0.00000E+00
 -1      1337 6.90000E+00 4.87010E+01 0.00000E+00
 -1      1338 8.40000E+00 4.87010E+01 0.00000E+00
 -1      1339 6.15000E+00 4.74020E+01 0.00000E+00
 -1      1340 9.90000E+00 4.87010E+01 0.00000E+00
 -1      1341 1.14000E+01 4.87010E+01 0.00000E+00
 -1      1342 9.15000E+00 4.74020E+01 0.00000E+00
 -1      1343 1.29000E+01 4.87010E+01 0.00000E+00
 -1      1344 1.44000E+01 4.87010E+01 0.00000E+00
 -1      1345 1.21500E+01 4.74020E+01 0.00000E+00
 -1      1346 1.59000E+01 4.87010E+01 0.00000E+00
 -1      1347 1.74000E+01 4.87010E+01 0.00000E+00
 -1      1348 1.51500E+01 4.74020E+01 0.00000E+00
 -1      1349 1.89000E+01 4.87010E+01 0.00000E+00
 -1      1350 2.04000E+01 4.87010E+01 0.00000E+00
 -1      1351 1.81500E+01 4.74020E+01 0.00000E+00
 -1      1352 2.19000E+01 4.87010E+01 0.00000E+00
 -1      1353 2.34000E+01 4.87010E+01 0.00000E+00
 -1      1354 2.11500E+01 4.74020E+01 0.00000E+00
 -1      1355 2.49000E+01 4.87010E+01 0.00000E+00
 -1      1356 2.64000E+01 4.87010E+01 0.00000E+00
 -1      1357 2.41500E+01 4.74020E+01 0.00000E+00
 -1      1358 2.79000E+01 4.87010E+01 0.00000E+00
 -1      1359 2.94000E+01 4.87010E+01 0.00000E+00
 -1      1360 2.71500E+01 4.74020E+01 0.00000E+00
 -1      1361 3.09000E+01 4.87010E+01 0.00000E+00
 -1      1362 3.24000E+01 4.87010E+01 0.00000E+00
 -1      1363 3.01500E+01 4.74020E+01 0.00000E+00
 -1      1364 3.39000E+01 4.87010E+01 0.00000E+00
 -1      1365 3.54000E+01 4.87010E+01 0.00000E+00
 -1      1366 3.31500E+01 4.74020E+01 0.00000E+00
 -1      1367 3.69000E+01 4.87010E+01 0.00000E+00
 -1      1368 3.84000E+01 4.87010E+01 0.00000E+00
 -1      1369 3.61500E+01 4.74020E+01 0.00000E+00
 -1      1370 3.99000E+01 4.87010E+01 0.00000E+00
 -1      1371 4.14000E+01 4.87010E+01 0.00000E+00
 -1      1372 3.91500E+01 4.74020E+01 0.00000E+00
 -1      1373 4.29000E+01 4.87010E+01 0.00000E+00
 -1      1374 4.44000E+01 4.87010E+01 0.00000E+00
 -1      1375 4.21500E+01 4.74020E+01 0.00000E+00
 -1      1376 4.59000E+01 4.87010E+01 0.00000E+00
 -1      1377 4.74000E+01 4.87010E+01 0.00000E+00
 -1      1378 4.51500E+01 4.74020E+01 0.00000E+00
 -1      1379 4.89000E+01 4.87010E+01 0.00000E+00
 -1      1380 5.04000E+01 4.87010E+01 0.00000E+00
 -1      1381 4.81500E+01 4.74020E+01 0.00000E+00
 -1      1382 5.19000E+01 4.87010E+01 0.00000E+00
 -1      1383 5.34000E+01 4.87010E+01 0.00000E+00
 -1      1384 5.11500E+01 4.74020E+01 0.00000E+00
 -1      1385 5.49000E+01 4.87010E+01 0.00000E+00
 -1      1386 5.64000E+01 4.87010E+01 0.00000E+00
 -1      1387 5.41500E+01 4.74020E+01 0.00000E+00
 -1      1388 5.79000E+01 4.87010E+01 0.00000E+00
 -1      1389 5.94000E+01 4.87010E+01 0.00000E+00
 -1      1390 5.71500E+01 4.74020E+01 0.00000E+00
 -1      1391 6.09000E+01 4.87010E+01 0.00000E+00
 -1      1392 6.24000E+01 4.87010E+01 0.00000E+00
 -1      1393 6.01500E+01 4.74020E+01 0.00000E+00
 -1      1394 6.39000E+01 4.87010E+01 0.00000E+00
 -1      1395 6.54000E+01 4.87010E+01 0.00000E+00
 -1      1396 6.31500E+01 4.74020E+01 0.00000E+00
 -1      1397 6.69000E+01 4.87010E+01 0.00000E+00
 -1      1398 6.84000E+01 4.87010E+01 0.00000E+00
 -1      1399 6.61500E+01 4.74020E+01 0.00000E+00
 -1      1400 6.99000E+01 4.87010E+01 0.00000E+00
 -1      1401 7.14000E+01 4.87010E+01 0.00000E+00
 -1      1402 6.91500E+01 4.74020E+01 0.00000E+00
 -1      1403 7.29000E+01 4.87010E+01 0.00000E+00
 -1      1404 7.44000E+01 4.87010E+01 0.00000E+00
 -1      1405 7.21500E+01 4.74020E+01 0.00000E+00
 -1      1406 7.59000E+01 4.87010E+01 0.00000E+00
 -1      1407 7.74000E+01 4.87010E+01 0.00000E+00
 -1      1408 7.51500E+01 4.74020E+01 0.00000E+00
 -1      1409 7.89000E+01 4.87010E+01 0.00000E+00
 -1      1410 8.04000E+01 4.87010E+01 0.00000E+00
 -1      1411 7.81500E+01 4.74020E+01 0.00000E+00
 -1      1412 8.19000E+01 4.87010E+01 0.00000E+00
 -1      1413 8.34000E+01 4.87010E+01 0.00000E+00
 -1      1414 8.11500E+01 4.74020E+01 0.00000E+00
 -1      1415 8.49000E+01 4.87010E+01 0.00000E+00
 -1      1416 8.64000E+01 4.87010E+01 0.00000E+00
 -1      1417 8.41500E+01 4.74020E+01 0.00000E+00
 -1      1418 8.79000E+01 4.87010E+01 0.00000E+00
 -1      1419 8.94000E+01 4.87010E+01 0.00000E+00
 -1      1420 8.71500E+01 4.74020E+01 0.00000E+00
 -1      1421 9.09000E+01 4.87010E+01 0.00000E+00
 -1      1422 9.24000E+01 4.87010E+01 0.00000E+00
 -1      1423 9.01500E+01 4.74020E+01 0.00000E+00
 -1      1424 9.39000E+01 4.87010E+01 0.00000E+00
 -1      1425 9.54000E+01 4.87010E+01 0.00000E+00
 -1      1426 9.31500E+01 4.74020E+01 0.00000E+00
 -1      1427 9.69000E+01 4.87010E+01 0.00000E+00
 -1      1428 9.84000E+01 4.87010E+01 0.00000E+00
 -1      1429 9.61500E+01 4.74020E+01 0.00000E+00
 -1      1430 9.99000E+01 4.87010E+01 0.00000E+00
 -1      1431 1.01400E+02 4.87010E+01 0.00000E+00
 -1      1432 9.91500E+01 4.74020E+01 0.00000E+00
 -1      1433 1.02900E+02 4.87010E+01 0.00000E+00
 -1      1434 1.04400E+02 4.87010E+01 0.00000E+00
 -1      1435 1.02150E+02 4.74020E+01 0.00000E+00
 -1      1436 1.05900E+02 4.87010E+01 0.00000E+00
 -1      1437 1.07400E+02 4.87010E+01 0.00000E+00
 -1      1438 1.05150E+02 4.74020E+01 0.00000E+00
 -1      1439 1.08900E+02 4.87010E+01 0.00000E+00
 -1      1440 1.10400E+02 4.87010E+01 0.00000E+00
 -1      1441 1.08150E+02 4.74020E+01 0.00000E+00
 -1      1442 1.11900E+02 4.87010E+01 0.00000E+00
 -1      1443 1.13400E+02 4.87010E+01 0.00000E+00
 -1      1444 1.11150E+02 4.74020E+01 0.00000E+00
 -1      1445 1.14900E+02 4.87010E+01 0.00000E+00
 -1      1446 1.16400E+02 4.87010E+01 0.00000E+00
 -1      1447 1.14150E+02 4.74020E+01 0.00000E+00
 -1      1448 1.17900E+02 4.87010E+01 0.00000E+00
 -1      1449 1.19400E+02 4.87010E+01 0.00000E+00
 -1      1450 1.17150E+02 4.74020E+01 0.00000E+00
 -1      1451 1.20900E+02 4.87010E+01 0.00000E+00
 -1      1452 1.22400E+02 4.87010E+01 0.00000E+00
 -1      1453 1.20150E+02 4.74020E+01 0.00000E+00
 -1      1454 1.23900E+02 4.87010E+01 0.00000E+00
 -1      1455 1.25400E+02 4.87010E+01 0.00000E+00
 -1      1456 1.23150E+02 4.74020E+01 0.00000E+00
 -1      1457 1.26900E+02 4.87010E+01 0.00000E+00
 -1      1458 1.28400E+02 4.87010E+01 0.00000E+00
 -1      1459 1.26150E+02 4.74020E+01 0.00000E+00
 -1      1460 1.29900E+02 4.87010E+01 0.00000E+00
 -1      1461 1.31400E+02 4.87010E+01 0.00000E+00
 -1      1462 1.29150E+02 4.74020E+01 0.00000E+00
 -1      1463 1.32900E+02 4.87010E+01 0.00000E+00
 -1      1464 1.34400E+02 4.87010E+01 0.00000E+00
 -1      1465 1.32150E+02 4.74020E+01 0.00000E+00
 -1      1466 1.35900E+02 4.87010E+01 0.00000E+00
 -1      1467 1.37400E+02 4.87010E+01 0.00000E+00
 -1      1468 1.35150E+02 4.74020E+01 0.00000E+00
 -1      1469 1.38900E+02 4.87010E+01 0.00000E+00
 -1      1470 1.40400E+02 4.87010E+01 0.00000E+00
 -1      1471 1.38150E+02 4.74020E+01 0.00000E+00
 -1      1472 1.41900E+02 4.87010E+01 0.00000E+00
 -1      1473 1.43400E+02 4.87010E+01 0.00000E+00
 -1      1474 1.41150E+02 4.74020E+01 0.00000E+00
 -1      1475 1.44900E+02 4.87010E+01 0.00000E+00
 -1      1476 1.46400E+02 4.87010E+01 0.00000E+00
 -1      1477 1.44150E+02 4.74020E+01 0.00000E+00
 -1      1478 1.48575E+02 4.85500E+01 0.00000E+00
 -1      1479 1.47825E+02 4.72510E+01 0.00000E+00
 -1      1480 6.01200E+00 1.09375E+00 0.00000E+00
 -1      1481 4.51200E+00 1.09375E+00 0.00000E+00
 -1      1482 4.37400E+00 2.18750E+00 0.00000E+00
 -1      1483 9.01200E+00 1.09375E+00 0.00000E+00
 -1      1484 7.51200E+00 1.09375E+00 0.00000E+00
 -1      1485 7.37400E+00 2.18750E+00 0.00000E+00
 -1      1486 1.20120E+01 1.09375E+00 0.00000E+00
 -1      1487 1.05120E+01 1.09375E+00 0.00000E+00
 -1      1488 1.03740E+01 2.18750E+00 0.00000E+00
 -1      1489 1.50120E+01 1.09375E+00 0.00000E+00
 -1      1490 1.35120E+01 1.09375E+00 0.00000E+00
 -1      1491 1.33740E+01 2.18750E+00 0.00000E+00
 -1      1492 1.80120E+01 1.09375E+00 0.00000E+00
 -1      1493 1.65120E+01 1.09375E+00 0.00000E+00
 -1      1494 1.63740E+01 2.18750E+00 0.00000E+00
 -1      1495 2.10120E+01 1.09375E+00 0.00000E+00
 -1      1496 1.95120E+01 1.09375E+00 0.00000E+00
 -1      1497 1.93740E+01 2.18750E+00 0.00000E+00
 -1      1498 2.40120E+01 1.09375E+00 0.00000E+00
 -1      1499 2.25120E+01 1.09375E+00 0.00000E+00
 -1      1500 2.23740E+01 2.18750E+00 0.00000E+00
 -1      1501 2.70120E+01 1.09375E+00 0.00000E+00
 -1      1502 2.55120E+01 1.09375E+00 0.00000E+00
 -1      1503 2.53740E+01 2.18750E+00 0.00000E+00
 -1      1504 3.00120E+01 1.09375E+00 0.00000E+00
 -1      1505 2.85120E+01 1.09375E+00 0.00000E+00
 -1      1506 2.83740E+01 2.18750E+00 0.00000E+00
 -1      1507 3.30120E+01 1.09375E+00 0.00000E+00
 -1      1508 3.15120E+01 1.09375E+00 0.00000E+00
 -1      1509 3.13740E+01 2.18750E+00 0.00000E+00
 -1      1510 3.60120E+01 1.09375E+00 0.00000E+00
 -1      1511 3.45120E+01 1.09375E+00 0.00000E+00
 -1      1512 3.43740E+01 2.18750E+00 0.00000E+00
 -1      1513 3.90120E+01 1.09375E+00 0.00000E+00
 -1      1514 3.75120E+01 1.09375E+00 0.00000E+00
 -1      1515 3.73740E+01 2.18750E+00 0.00000E+00
 -1      1516 4.20120E+01 1.09375E+00 0.00000E+00
 -1      1517 4.05120E+01 1.09375E+00 0.00000E+00
 -1      1518 4.03740E+01 2.18750E+00 0.00000E+00
 -1      1519 4.50120E+01 1.09375E+00 0.00000E+00
 -1      1520 4.35120E+01 1.09375E+00 0.00000E+00
 -1      1521 4.33740E+01 2.18750E+00 0.00000E+00
 -1      1522 4.80120E+01 1.09375E+00 0.00000E+00
 -1      1523 4.65120E+01 1.09375E+00 0.00000E+00
 -1      1524 4.63740E+01 2.18750E+00 0.00000E+00
 -1      1525 5.10120E+01 1.09375E+00 0.00000E+00
 -1      1526 4.95120E+01 1.09375E+00 0.00000E+00
 -1      1527 4.93740E+01 2.18750E+00 0.00000E+00
 -1      1528 5.40120E+01 1.09375E+00 0.00000E+00
 -1      1529 5.25120E+01 1.09375E+00 0.00000E+00
 -1      1530 5.23740E+01 2.18750E+00 0.00000E+00
 -1      1531 5.70120E+01 1.09375E+00 0.00000E+00
 -1      1532 5.55120E+01 1.09375E+00 0.00000E+00
 -1      1533 5.53740E+01 2.18750E+00 0.00000E+00
 -1      1534 6.00120E+01 1.09375E+00 0.00000E+00
 -1      1535 5.85120E+01 1.09375E+00 0.00000E+00
 -1      1536 5.83740E+01 2.18750E+00 0.00000E+00
 -1      1537 6.30120E+01 1.09375E+00 0.00000E+00
 -1      1538 6.15120E+01 1.09375E+00 0.00000E+00
 -1      1539 6.13740E+01 2.18750E+00 0.00000E+00
 -1      1540 6.60120E+01 1.09375E+00 0.00000E+00
 -1      1541 6.45120E+01 1.09375E+00 0.00000E+00
 -1      1542 6.43740E+01 2.18750E+00 0.00000E+00
 -1      1543 6.90120E+01 1.09375E+00 0.00000E+00
 -1      1544 6.75120E+01 1.09375E+00 0.00000E+00
 -1      1545 6.73740E+01 2.18750E+00 0.00000E+00
 -1      1546 7.20120E+01 1.09375E+00 0.00000E+00
 -1      1547 7.05120E+01 1.09375E+00 0.00000E+00
 -1      1548 7.03740E+01 2.18750E+00 0.00000E+00
 -1      1549 7.50120E+01 1.09375E+00 0.00000E+00
 -1      1550 7.35120E+01 1.09375E+00 0.00000E+00
 -1      1551 7.33740E+01 2.18750E+00 0.00000E+00
 -1      1552 7.80120E+01 1.09375E+00 0.00000E+00
 -1      1553 7.65120E+01 1.09375E+00 0.00000E+00
 -1      1554 7.63740E+01 2.18750E+00 0.00000E+00
 -1      1555 8.10120E+01 1.09375E+00 0.00000E+00
 -1      1556 7.95120E+01 1.09375E+00 0.00000E+00
 -1      1557 7.93740E+01 2.18750E+00 0.00000E+00
 -1      1558 8.40120E+01 1.09375E+00 0.00000E+00
 -1      1559 8.25120E+01 1.09375E+00 0.00000E+00
 -1      1560 8.23740E+01 2.18750E+00 0.00000E+00
 -1      1561 8.70120E+01 1.09375E+00 0.00000E+00
 -1      1562 8.55120E+01 1.09375E+00 0.00000E+00
 -1      1563 8.53740E+01 2.18750E+00 0.00000E+00
 -1      1564 9.00120E+01 1.09375E+00 0.00000E+00
 -1      1565 8.85120E+01 1.09375E+00 0.00000E+00
 -1      1566 8.83740E+01 2.18750E+00 0.00000E+00
 -1      1567 9.30120E+01 1.09375E+00 0.00000E+00
 -1      1568 9.15120E+01 1.09375E+00 0.00000E+00
 -1      1569 9.13740E+01 2.18750E+00 0.00000E+00
 -1      1570 9.60120E+01 1.09375E+00 0.00000E+00
 -1      1571 9.45120E+01 1.09375E+00 0.00000E+00
 -1      1572 9.43740E+01 2.18750E+00 0.00000E+00
 -1      1573 9.90120E+01 1.09375E+00 0.00000E+00
 -1      1574 9.75120E+01 1.09375E+00 0.00000E+00
 -1      1575 9.73740E+01 2.18750E+00 0.00000E+00
 -1      1576 1.02012E+02 1.09375E+00 0.00000E+00
 -1      1577 1.00512E+02 1.09375E+00 0.00000E+00
 -1      1578 1.00374E+02 2.18750E+00 0.00000E+00
 -1      1579 1.05012E+02 1.09375E+00 0.00000E+00
 -1      1580 1.03512E+02 1.09375E+00 0.00000E+00
 -1      1581 1.03374E+02 2.18750E+00 0.00000E+00
 -1      1582 1.08012E+02 1.09375E+00 0.00000E+00
 -1      1583 1.06512E+02 1.09375E+00 0.00000E+00
 -1      1584 1.06374E+02 2.18750E+00 0.00000E+00
 -1      1585 1.11012E+02 1.09375E+00 0.00000E+00
 -1      1586 1.09512E+02 1.09375E+00 0.00000E+00
 -1      1587 1.09374E+02 2.18750E+00 0.00000E+00
 -1      1588 1.14012E+02 1.09375E+00 0.00000E+00
 -1      1589 1.12512E+02 1.09375E+00 0.00000E+00
 -1      1590 1.12374E+02 2.18750E+00 0.00000E+00
 -1      1591 1.17012E+02 1.09375E+00 0.00000E+00
 -1      1592 1.15512E+02 1.09375E+00 0.00000E+00
 -1      1593 1.15374E+02 2.18750E+00 0.00000E+00
 -1      1594 1.20012E+02 1.09375E+00 0.00000E+00
 -1      1595 1.18512E+02 1.09375E+00 0.00000E+00
 -1      1596 1.18374E+02 2.18750E+00 0.00000E+00
 -1      1597 1.23012E+02 1.09375E+00 0.00000E+00
 -1      1598 1.21512E+02 1.09375E+00 0.00000E+00
 -1      1599 1.21374E+02 2.18750E+00 0.00000E+00
 -1      1600 1.26012E+02 1.09375E+00 0.00000E+00
 -1      1601 1.24512E+02 1.09375E+00 0.00000E+00
 -1      1602 1.24374E+02 2.18750E+00 0.00000E+00
 -1      1603 1.29012E+02 1.09375E+00 0.00000E+00
 -1      1604 1.27512E+02 1.09375E+00 0.00000E+00
 -1      1605 1.27374E+02 2.18750E+00 0.00000E+00
 -1      1606 1.32012E+02 1.09375E+00 0.00000E+00
 -1      1607 1.30512E+02 1.09375E+00 0.00000E+00
 -1      1608 1.30374E+02 2.18750E+00 0.00000E+00
 -1      1609 1.35012E+02 1.09375E+00 0.00000E+00
 -1      1610 1.33512E+02 1.09375E+00 0.00000E+00
 -1      1611 1.33374E+02 2.18750E+00 0.00000E+00
 -1      1612 1.38012E+02 1.09375E+00 0.00000E+00
 -1      1613 1.36512E+02 1.09375E+00 0.00000E+00
 -1      1614 1.36374E+02 2.18750E+00 0.00000E+00
 -1      1615 1.41012E+02 1.09375E+00 0.00000E+00
 -1      1616 1.39512E+02 1.09375E+00 0.00000E+00
 -1      1617 1.39374E+02 2.18750E+00 0.00000E+00
 -1      1618 1.44012E+02 1.09375E+00 0.00000E+00
 -1      1619 1.42512E+02 1.09375E+00 0.00000E+00
 -1      1620 1.42374E+02 2.18750E+00 0.00000E+00
 -1      1621 1.47012E+02 1.09375E+00 0.00000E+00
 -1      1622 1.45512E+02 1.09375E+00 0.00000E+00
 -1      1623 1.45374E+02 2.18750E+00 0.00000E+00
 -1      1624 1.48575E+02 1.47500E+00 0.00000E+00
 -1      1625 1.48701E+02 5.16250E+00 0.00000E+00
 -1      1626 1.48701E+02 3.68750E+00 0.00000E+00
 -1      1627 1.48701E+02 8.11250E+00 0.00000E+00
 -1      1628 1.48701E+02 6.63750E+00 0.00000E+00
 -1      1629 1.47402E+02 5.90000E+00 0.00000E+00
 -1      1630 1.48701E+02 1.10625E+01 0.00000E+00
 -1      1631 1.48701E+02 9.58750E+00 0.00000E+00
 -1      1632 1.47402E+02 8.85000E+00 0.00000E+00
 -1      1633 1.48701E+02 1.40125E+01 0.00000E+00
 -1      1634 1.48701E+02 1.25375E+01 0.00000E+00
 -1      1635 1.47402E+02 1.18000E+01 0.00000E+00
 -1      1636 1.48701E+02 1.69125E+01 0.00000E+00
 -1      1637 1.48701E+02 1.54625E+01 0.00000E+00
 -1      1638 1.47402E+02 1.47250E+01 0.00000E+00
 -1      1639 1.48701E+02 1.98625E+01 0.00000E+00
 -1      1640 1.48701E+02 1.83875E+01 0.00000E+00
 -1      1641 1.47402E+02 1.76500E+01 0.00000E+00
 -1      1642 1.48701E+02 2.28125E+01 0.00000E+00
 -1      1643 1.48701E+02 2.13375E+01 0.00000E+00
 -1      1644 1.47402E+02 2.06000E+01 0.00000E+00
 -1      1645 1.48701E+02 2.57625E+01 0.00000E+00
 -1      1646 1.48701E+02 2.42875E+01 0.00000E+00
 -1      1647 1.47402E+02 2.35500E+01 0.00000E+00
 -1      1648 1.48701E+02 2.87125E+01 0.00000E+00
 -1      1649 1.48701E+02 2.72375E+01 0.00000E+00
 -1      1650 1.47402E+02 2.65000E+01 0.00000E+00
 -1      1651 1.48701E+02 3.16625E+01 0.00000E+00
 -1      1652 1.48701E+02 3.01875E+01 0.00000E+00
 -1      1653 1.47402E+02 2.94500E+01 0.00000E+00
 -1      1654 1.48701E+02 3.45625E+01 0.00000E+00
 -1      1655 1.48701E+02 3.31125E+01 0.00000E+00
 -1      1656 1.47402E+02 3.23750E+01 0.00000E+00
 -1      1657 1.48701E+02 3.75125E+01 0.00000E+00
 -1      1658 1.48701E+02 3.60375E+01 0.00000E+00
 -1      1659 1.47402E+02 3.53000E+01 0.00000E+00
 -1      1660 1.48701E+02 4.04625E+01 0.00000E+00
 -1      1661 1.48701E+02 3.89875E+01 0.00000E+00
 -1      1662 1.47402E+02 3.82500E+01 0.00000E+00
 -1      1663 1.48701E+02 4.34125E+01 0.00000E+00
 -1      1664 1.48701E+02 4.19375E+01 0.00000E+00
 -1      1665 1.47402E+02 4.12000E+01 0.00000E+00
 -1      1666 1.48263E+02 4.60692E+01 0.00000E+00
 -1      1667 1.48263E+02 4.45942E+01 0.00000E+00
 -1      1668 1.46964E+02 4.38568E+01 0.00000E+00
 -1      1669 1.46088E+02 4.62202E+01 0.00000E+00
 -1      1670 1.29544E+02 2.71981E+01 0.00000E+00
 -1      1671 1.29631E+02 2.79721E+01 0.00000E+00
 -1      1672 1.29046E+02 2.56748E+01 0.00000E+00
 -1      1673 1.29275E+02 2.63543E+01 0.00000E+00
 -1      1674 1.28383E+02 2.40802E+01 0.00000E+00
 -1      1675 1.28806E+02 2.47785E+01 0.00000E+00
 -1      1676 1.27210E+02 2.29431E+01 0.00000E+00
 -1      1677 1.27702E+02 2.34564E+01 0.00000E+00
 -1      1678 1.25990E+02 2.18576E+01 0.00000E+00
 -1      1679 1.26622E+02 2.22859E+01 0.00000E+00
 -1      1680 1.24463E+02 2.12750E+01 0.00000E+00
 -1      1681 1.25147E+02 2.15493E+01 0.00000E+00
 -1      1682 1.22890E+02 2.08726E+01 0.00000E+00
 -1      1683 1.23633E+02 2.09985E+01 0.00000E+00
 -1      1684 1.21096E+02 2.07958E+01 0.00000E+00
 -1      1685 1.21943E+02 2.07439E+01 0.00000E+00
 -1      1686 1.19458E+02 2.12962E+01 0.00000E+00
 -1      1687 1.20182E+02 2.10797E+01 0.00000E+00
 -1      1688 1.17880E+02 2.19775E+01 0.00000E+00
 -1      1689 1.18581E+02 2.15821E+01 0.00000E+00
 -1      1690 1.16550E+02 2.31091E+01 0.00000E+00
 -1      1691 1.17137E+02 2.25690E+01 0.00000E+00
 -1      1692 1.15525E+02 2.44060E+01 0.00000E+00
 -1      1693 1.15950E+02 2.37932E+01 0.00000E+00
 -1      1694 1.14752E+02 2.59421E+01 0.00000E+00
 -1      1695 1.15054E+02 2.51960E+01 0.00000E+00
 -1      1696 1.14334E+02 2.76165E+01 0.00000E+00
 -1      1697 1.14457E+02 2.68450E+01 0.00000E+00
 -1      1698 1.14448E+02 2.91978E+01 0.00000E+00
 -1      1699 1.14410E+02 2.84993E+01 0.00000E+00
 -1      1700 1.14720E+02 3.08396E+01 0.00000E+00
 -1      1701 1.14511E+02 3.00776E+01 0.00000E+00
 -1      1702 1.15444E+02 3.22580E+01 0.00000E+00
 -1      1703 1.15117E+02 3.16321E+01 0.00000E+00
 -1      1704 1.16370E+02 3.35194E+01 0.00000E+00
 -1      1705 1.15908E+02 3.29562E+01 0.00000E+00
 -1      1706 1.17590E+02 3.46018E+01 0.00000E+00
 -1      1707 1.16992E+02 3.41283E+01 0.00000E+00
 -1      1708 1.18947E+02 3.54220E+01 0.00000E+00
 -1      1709 1.18302E+02 3.51038E+01 0.00000E+00
 -1      1710 1.20548E+02 3.60382E+01 0.00000E+00
 -1      1711 1.19765E+02 3.58471E+01 0.00000E+00
 -1      1712 1.22260E+02 3.60050E+01 0.00000E+00
 -1      1713 1.21496E+02 3.59939E+01 0.00000E+00
 -1      1714 1.23872E+02 3.57732E+01 0.00000E+00
 -1      1715 1.23138E+02 3.59233E+01 0.00000E+00
 -1      1716 1.25398E+02 3.52961E+01 0.00000E+00
 -1      1717 1.24729E+02 3.55894E+01 0.00000E+00
 -1      1718 1.26728E+02 3.44004E+01 0.00000E+00
 -1      1719 1.26131E+02 3.48293E+01 0.00000E+00
 -1      1720 1.27831E+02 3.32604E+01 0.00000E+00
 -1      1721 1.27341E+02 3.37985E+01 0.00000E+00
 -1      1722 1.28704E+02 3.19455E+01 0.00000E+00
 -1      1723 1.28335E+02 3.25749E+01 0.00000E+00
 -1      1724 1.29381E+02 3.04323E+01 0.00000E+00
 -1      1725 1.29141E+02 3.11693E+01 0.00000E+00
 -1      1726 1.29556E+02 2.88510E+01 0.00000E+00
 -1      1727 1.29483E+02 2.95583E+01 0.00000E+00
 -1      1728 1.27305E+02 2.21233E+01 0.00000E+00
 -1      1729 1.28575E+02 2.34043E+01 0.00000E+00
 -1      1730 1.48437E+02 2.56875E+00 0.00000E+00
 -1      1731 1.47138E+02 3.30625E+00 0.00000E+00
 -1      1732 1.30004E+02 2.66645E+01 0.00000E+00
 -1      1733 1.29495E+02 2.49243E+01 0.00000E+00
 -1      1734 1.30198E+02 2.83873E+01 0.00000E+00
 -1      1735 1.25874E+02 2.11578E+01 0.00000E+00
 -1      1736 1.24200E+02 2.05730E+01 0.00000E+00
 -1      1737 1.22422E+02 2.01680E+01 0.00000E+00
 -1      1738 1.20560E+02 2.03233E+01 0.00000E+00
 -1      1739 1.18769E+02 2.08931E+01 0.00000E+00
 -1      1740 1.17148E+02 2.17705E+01 0.00000E+00
 -1      1741 1.15805E+02 2.30461E+01 0.00000E+00
 -1      1742 1.14734E+02 2.45202E+01 0.00000E+00
 -1      1743 1.13968E+02 2.62131E+01 0.00000E+00
 -1      1744 1.13748E+02 2.79988E+01 0.00000E+00
 -1      1745 1.13887E+02 2.97614E+01 0.00000E+00
 -1      1746 1.14347E+02 3.14336E+01 0.00000E+00
 -1      1747 1.15207E+02 3.29242E+01 0.00000E+00
 -1      1748 1.16293E+02 3.42313E+01 0.00000E+00
 -1      1749 1.17626E+02 3.53422E+01 0.00000E+00
 -1      1750 1.19156E+02 3.62693E+01 0.00000E+00
 -1      1751 1.20921E+02 3.66500E+01 0.00000E+00
 -1      1752 1.22748E+02 3.65239E+01 0.00000E+00
 -1      1753 1.24484E+02 3.62584E+01 0.00000E+00
 -1      1754 1.26074E+02 3.56078E+01 0.00000E+00
 -1      1755 1.27421E+02 3.45393E+01 0.00000E+00
 -1      1756 1.28539E+02 3.32520E+01 0.00000E+00
 -1      1757 1.29480E+02 3.17904E+01 0.00000E+00
 -1      1758 1.30020E+02 3.01402E+01 0.00000E+00
 -1      1759 2.87400E+00 4.77875E+01 0.00000E+00
 -1      1760 3.89700E+00 4.04125E+01 0.00000E+00
 -1      1761 3.89700E+00 4.18875E+01 0.00000E+00
 -1      1762 3.89700E+00 4.33625E+01 0.00000E+00
 -1      1763 3.89700E+00 4.48375E+01 0.00000E+00
 -1      1764 5.19600E+00 4.26250E+01 0.00000E+00
 -1      1765 3.89700E+00 3.45500E+01 0.00000E+00
 -1      1766 3.89700E+00 3.60000E+01 0.00000E+00
 -1      1767 3.89700E+00 3.16000E+01 0.00000E+00
 -1      1768 3.89700E+00 3.30750E+01 0.00000E+00
 -1      1769 5.19600E+00 3.38000E+01 0.00000E+00
 -1      1770 3.89700E+00 2.86500E+01 0.00000E+00
 -1      1771 3.89700E+00 3.01250E+01 0.00000E+00
 -1      1772 5.19600E+00 3.08500E+01 0.00000E+00
 -1      1773 3.89700E+00 2.57000E+01 0.00000E+00
 -1      1774 3.89700E+00 2.71750E+01 0.00000E+00
 -1      1775 5.19600E+00 2.79000E+01 0.00000E+00
 -1      1776 3.89700E+00 2.27500E+01 0.00000E+00
 -1      1777 3.89700E+00 2.42250E+01 0.00000E+00
 -1      1778 5.19600E+00 2.49500E+01 0.00000E+00
 -1      1779 3.89700E+00 1.98000E+01 0.00000E+00
 -1      1780 3.89700E+00 2.12750E+01 0.00000E+00
 -1      1781 5.19600E+00 2.20000E+01 0.00000E+00
 -1      1782 3.89700E+00 1.69000E+01 0.00000E+00
 -1      1783 3.89700E+00 1.83500E+01 0.00000E+00
 -1      1784 5.19600E+00 1.90750E+01 0.00000E+00
 -1      1785 3.89700E+00 1.39500E+01 0.00000E+00
 -1      1786 3.89700E+00 1.54250E+01 0.00000E+00
 -1      1787 5.19600E+00 1.61500E+01 0.00000E+00
 -1      1788 3.89700E+00 1.10000E+01 0.00000E+00
 -1      1789 3.89700E+00 1.24750E+01 0.00000E+00
 -1      1790 5.19600E+00 1.32000E+01 0.00000E+00
 -1      1791 3.89700E+00 8.05000E+00 0.00000E+00
 -1      1792 3.89700E+00 9.52500E+00 0.00000E+00
 -1      1793 5.19600E+00 1.02500E+01 0.00000E+00
 -1      1794 3.89700E+00 5.10000E+00 0.00000E+00
 -1      1795 3.89700E+00 6.57500E+00 0.00000E+00
 -1      1796 5.19600E+00 7.30000E+00 0.00000E+00
 -1      1797 4.20450E+00 3.09687E+00 0.00000E+00
 -1      1798 4.06650E+00 4.19063E+00 0.00000E+00
 -1      1799 5.36550E+00 4.91563E+00 0.00000E+00
 -1      1800 5.70450E+00 3.09687E+00 0.00000E+00
 -1      1801 3.62400E+00 4.64885E+01 0.00000E+00
 -1      1802 8.70450E+00 3.09687E+00 0.00000E+00
 -1      1803 7.20450E+00 3.09687E+00 0.00000E+00
 -1      1804 7.03500E+00 4.00625E+00 0.00000E+00
 -1      1805 4.92300E+00 4.57510E+01 0.00000E+00
 -1      1806 8.40000E+00 4.61030E+01 0.00000E+00
 -1      1807 9.90000E+00 4.61030E+01 0.00000E+00
 -1      1808 1.14000E+01 4.61030E+01 0.00000E+00
 -1      1809 1.29000E+01 4.61030E+01 0.00000E+00
 -1      1810 1.06500E+01 4.48040E+01 0.00000E+00
 -1      1811 1.44000E+01 4.61030E+01 0.00000E+00
 -1      1812 1.59000E+01 4.61030E+01 0.00000E+00
 -1      1813 1.36500E+01 4.48040E+01 0.00000E+00
 -1      1814 1.74000E+01 4.61030E+01 0.00000E+00
 -1      1815 1.89000E+01 4.61030E+01 0.00000E+00
 -1      1816 1.66500E+01 4.48040E+01 0.00000E+00
 -1      1817 2.04000E+01 4.61030E+01 0.00000E+00
 -1      1818 2.19000E+01 4.61030E+01 0.00000E+00
 -1      1819 1.96500E+01 4.48040E+01 0.00000E+00
 -1      1820 2.34000E+01 4.61030E+01 0.00000E+00
 -1      1821 2.49000E+01 4.61030E+01 0.00000E+00
 -1      1822 2.26500E+01 4.48040E+01 0.00000E+00
 -1      1823 2.64000E+01 4.61030E+01 0.00000E+00
 -1      1824 2.79000E+01 4.61030E+01 0.00000E+00
 -1      1825 2.56500E+01 4.48040E+01 0.00000E+00
 -1      1826 2.94000E+01 4.61030E+01 0.00000E+00
 -1      1827 3.09000E+01 4.61030E+01 0.00000E+00
 -1      1828 2.86500E+01 4.48040E+01 0.00000E+00
 -1      1829 3.24000E+01 4.61030E+01 0.00000E+00
 -1      1830 3.39000E+01 4.61030E+01 0.00000E+00
 -1      1831 3.16500E+01 4.48040E+01 0.00000E+00
 -1      1832 3.54000E+01 4.61030E+01 0.00000E+00
 -1      1833 3.69000E+01 4.61030E+01 0.00000E+00
 -1      1834 3.46500E+01 4.48040E+01 0.00000E+00
 -1      1835 3.84000E+01 4.61030E+01 0.00000E+00
 -1      1836 3.99000E+01 4.61030E+01 0.00000E+00
 -1      1837 3.76500E+01 4.48040E+01 0.00000E+00
 -1      1838 4.14000E+01 4.61030E+01 0.00000E+00
 -1      1839 4.29000E+01 4.61030E+01 0.00000E+00
 -1      1840 4.06500E+01 4.48040E+01 0.00000E+00
 -1      1841 4.44000E+01 4.61030E+01 0.00000E+00
 -1      1842 4.59000E+01 4.61030E+01 0.00000E+00
 -1      1843 4.36500E+01 4.48040E+01 0.00000E+00
 -1      1844 4.74000E+01 4.61030E+01 0.00000E+00
 -1      1845 4.89000E+01 4.61030E+01 0.00000E+00
 -1      1846 4.66500E+01 4.48040E+01 0.00000E+00
 -1      1847 5.04000E+01 4.61030E+01 0.00000E+00
 -1      1848 5.19000E+01 4.61030E+01 0.00000E+00
 -1      1849 4.96500E+01 4.48040E+01 0.00000E+00
 -1      1850 5.34000E+01 4.61030E+01 0.00000E+00
 -1      1851 5.49000E+01 4.61030E+01 0.00000E+00
 -1      1852 5.26500E+01 4.48040E+01 0.00000E+00
 -1      1853 5.64000E+01 4.61030E+01 0.00000E+00
 -1      1854 5.79000E+01 4.61030E+01 0.00000E+00
 -1      1855 5.56500E+01 4.48040E+01 0.00000E+00
 -1      1856 5.94000E+01 4.61030E+01 0.00000E+00
 -1      1857 6.09000E+01 4.61030E+01 0.00000E+00
 -1      1858 5.86500E+01 4.48040E+01 0.00000E+00
 -1      1859 6.24000E+01 4.61030E+01 0.00000E+00
 -1      1860 6.39000E+01 4.61030E+01 0.00000E+00
 -1      1861 6.16500E+01 4.48040E+01 0.00000E+00
 -1      1862 6.54000E+01 4.61030E+01 0.00000E+00
 -1      1863 6.69000E+01 4.61030E+01 0.00000E+00
 -1      1864 6.46500E+01 4.48040E+01 0.00000E+00
 -1      1865 6.84000E+01 4.61030E+01 0.00000E+00
 -1      1866 6.99000E+01 4.61030E+01 0.00000E+00
 -1      1867 6.76500E+01 4.48040E+01 0.00000E+00
 -1      1868 7.14000E+01 4.61030E+01 0.00000E+00
 -1      1869 7.29000E+01 4.61030E+01 0.00000E+00
 -1      1870 7.06500E+01 4.48040E+01 0.00000E+00
 -1      1871 7.44000E+01 4.61030E+01 0.00000E+00
 -1      1872 7.59000E+01 4.61030E+01 0.00000E+00
 -1      1873 7.36500E+01 4.48040E+01 0.00000E+00
 -1      1874 7.74000E+01 4.61030E+01 0.00000E+00
 -1      1875 7.89000E+01 4.61030E+01 0.00000E+00
 -1      1876 7.66500E+01 4.48040E+01 0.00000E+00
 -1      1877 8.04000E+01 4.61030E+01 0.00000E+00
 -1      1878 8.19000E+01 4.61030E+01 0.00000E+00
 -1      1879 7.96500E+01 4.48040E+01 0.00000E+00
 -1      1880 8.34000E+01 4.61030E+01 0.00000E+00
 -1      1881 8.49000E+01 4.61030E+01 0.00000E+00
 -1      1882 8.26500E+01 4.48040E+01 0.00000E+00
 -1      1883 8.64000E+01 4.61030E+01 0.00000E+00
 -1      1884 8.79000E+01 4.61030E+01 0.00000E+00
 -1      1885 8.56500E+01 4.48040E+01 0.00000E+00
 -1      1886 8.94000E+01 4.61030E+01 0.00000E+00
 -1      1887 9.09000E+01 4.61030E+01 0.00000E+00
 -1      1888 8.86500E+01 4.48040E+01 0.00000E+00
 -1      1889 9.24000E+01 4.61030E+01 0.00000E+00
 -1      1890 9.39000E+01 4.61030E+01 0.00000E+00
 -1      1891 9.16500E+01 4.48040E+01 0.00000E+00
 -1      1892 9.54000E+01 4.61030E+01 0.00000E+00
 -1      1893 9.69000E+01 4.61030E+01 0.00000E+00
 -1      1894 9.46500E+01 4.48040E+01 0.00000E+00
 -1      1895 9.84000E+01 4.61030E+01 0.00000E+00
 -1      1896 9.99000E+01 4.61030E+01 0.00000E+00
 -1      1897 9.76500E+01 4.48040E+01 0.00000E+00
 -1      1898 1.01400E+02 4.61030E+01 0.00000E+00
 -1      1899 1.02900E+02 4.61030E+01 0.00000E+00
 -1      1900 1.00650E+02 4.48040E+01 0.00000E+00
 -1      1901 1.04400E+02 4.61030E+01 0.00000E+00
 -1      1902 1.05900E+02 4.61030E+01 0.00000E+00
 -1      1903 1.03650E+02 4.48040E+01 0.00000E+00
 -1      1904 1.07400E+02 4.61030E+01 0.00000E+00
 -1      1905 1.08900E+02 4.61030E+01 0.00000E+00
 -1      1906 1.06650E+02 4.48040E+01 0.00000E+00
 -1      1907 1.10400E+02 4.61030E+01 0.00000E+00
 -1      1908 1.11900E+02 4.61030E+01 0.00000E+00
 -1      1909 1.09650E+02 4.48040E+01 0.00000E+00
 -1      1910 1.13400E+02 4.61030E+01 0.00000E+00
 -1      1911 1.14900E+02 4.61030E+01 0.00000E+00
 -1      1912 1.12650E+02 4.48040E+01 0.00000E+00
 -1      1913 1.16400E+02 4.61030E+01 0.00000E+00
 -1      1914 1.17900E+02 4.61030E+01 0.00000E+00
 -1      1915 1.15650E+02 4.48040E+01 0.00000E+00
 -1      1916 1.19400E+02 4.61030E+01 0.00000E+00
 -1      1917 1.20900E+02 4.61030E+01 0.00000E+00
 -1      1918 1.18650E+02 4.48040E+01 0.00000E+00
 -1      1919 1.22400E+02 4.61030E+01 0.00000E+00
 -1      1920 1.23900E+02 4.61030E+01 0.00000E+00
 -1      1921 1.21650E+02 4.48040E+01 0.00000E+00
 -1      1922 1.25400E+02 4.61030E+01 0.00000E+00
 -1      1923 1.26900E+02 4.61030E+01 0.00000E+00
 -1      1924 1.24650E+02 4.48040E+01 0.00000E+00
 -1      1925 1.28400E+02 4.61030E+01 0.00000E+00
 -1      1926 1.29900E+02 4.61030E+01 0.00000E+00
 -1      1927 1.27650E+02 4.48040E+01 0.00000E+00
 -1      1928 1.31400E+02 4.61030E+01 0.00000E+00
 -1      1929 1.32900E+02 4.61030E+01 0.00000E+00
 -1      1930 1.30650E+02 4.48040E+01 0.00000E+00
 -1      1931 1.34400E+02 4.61030E+01 0.00000E+00
 -1      1932 1.35900E+02 4.61030E+01 0.00000E+00
 -1      1933 1.33650E+02 4.48040E+01 0.00000E+00
 -1      1934 1.37400E+02 4.61030E+01 0.00000E+00
 -1      1935 1.38900E+02 4.61030E+01 0.00000E+00
 -1      1936 1.36650E+02 4.48040E+01 0.00000E+00
 -1      1937 1.40400E+02 4.61030E+01 0.00000E+00
 -1      1938 1.41900E+02 4.61030E+01 0.00000E+00
 -1      1939 1.39650E+02 4.48040E+01 0.00000E+00
 -1      1940 1.43244E+02 4.61616E+01 0.00000E+00
 -1      1941 1.44744E+02 4.61616E+01 0.00000E+00
 -1      1942 1.45182E+02 4.49799E+01 0.00000E+00
 -1      1943 1.42494E+02 4.48626E+01 0.00000E+00
 -1      1944 1.17045E+01 3.09687E+00 0.00000E+00
 -1      1945 1.02045E+01 3.09687E+00 0.00000E+00
 -1      1946 1.00350E+01 4.00625E+00 0.00000E+00
 -1      1947 1.47045E+01 3.09687E+00 0.00000E+00
 -1      1948 1.32045E+01 3.09687E+00 0.00000E+00
 -1      1949 1.30350E+01 4.00625E+00 0.00000E+00
 -1      1950 1.77045E+01 3.09687E+00 0.00000E+00
 -1      1951 1.62045E+01 3.09687E+00 0.00000E+00
 -1      1952 1.60350E+01 4.00625E+00 0.00000E+00
 -1      1953 2.07045E+01 3.09687E+00 0.00000E+00
 -1      1954 1.92045E+01 3.09687E+00 0.00000E+00
 -1      1955 1.90350E+01 4.00625E+00 0.00000E+00
 -1      1956 2.37045E+01 3.09687E+00 0.00000E+00
 -1      1957 2.22045E+01 3.09687E+00 0.00000E+00
 -1      1958 2.20350E+01 4.00625E+00 0.00000E+00
 -1      1959 2.67045E+01 3.09687E+00 0.00000E+00
 -1      1960 2.52045E+01 3.09687E+00 0.00000E+00
 -1      1961 2.50350E+01 4.00625E+00 0.00000E+00
 -1      1962 2.97045E+01 3.09687E+00 0.00000E+00
 -1      1963 2.82045E+01 3.09687E+00 0.00000E+00
 -1      1964 2.80350E+01 4.00625E+00 0.00000E+00
 -1      1965 3.27045E+01 3.09687E+00 0.00000E+00
 -1      1966 3.12045E+01 3.09687E+00 0.00000E+00
 -1      1967 3.10350E+01 4.00625E+00 0.00000E+00
 -1      1968 3.57045E+01 3.09687E+00 0.00000E+00
 -1      1969 3.42045E+01 3.09687E+00 0.00000E+00
 -1      1970 3.40350E+01 4.00625E+00 0.00000E+00
 -1      1971 3.87045E+01 3.09687E+00 0.00000E+00
 -1      1972 3.72045E+01 3.09687E+00 0.00000E+00
 -1      1973 3.70350E+01 4.00625E+00 0.00000E+00
 -1      1974 4.17045E+01 3.09687E+00 0.00000E+00
 -1      1975 4.02045E+01 3.09687E+00 0.00000E+00
 -1      1976 4.00350E+01 4.00625E+00 0.00000E+00
 -1      1977 4.47045E+01 3.09687E+00 0.00000E+00
 -1      1978 4.32045E+01 3.09687E+00 0.00000E+00
 -1      1979 4.30350E+01 4.00625E+00 0.00000E+00
 -1      1980 4.77045E+01 3.09687E+00 0.00000E+00
 -1      1981 4.62045E+01 3.09687E+00 0.00000E+00
 -1      1982 4.60350E+01 4.00625E+00 0.00000E+00
 -1      1983 5.07045E+01 3.09687E+00 0.00000E+00
 -1      1984 4.92045E+01 3.09687E+00 0.00000E+00
 -1      1985 4.90350E+01 4.00625E+00 0.00000E+00
 -1      1986 5.37045E+01 3.09687E+00 0.00000E+00
 -1      1987 5.22045E+01 3.09687E+00 0.00000E+00
 -1      1988 5.20350E+01 4.00625E+00 0.00000E+00
 -1      1989 5.67045E+01 3.09687E+00 0.00000E+00
 -1      1990 5.52045E+01 3.09687E+00 0.00000E+00
 -1      1991 5.50350E+01 4.00625E+00 0.00000E+00
 -1      1992 5.97045E+01 3.09687E+00 0.00000E+00
 -1      1993 5.82045E+01 3.09687E+00 0.00000E+00
 -1      1994 5.80350E+01 4.00625E+00 0.00000E+00
 -1      1995 6.27045E+01 3.09687E+00 0.00000E+00
 -1      1996 6.12045E+01 3.09687E+00 0.00000E+00
 -1      1997 6.10350E+01 4.00625E+00 0.00000E+00
 -1      1998 6.57045E+01 3.09687E+00 0.00000E+00
 -1      1999 6.42045E+01 3.09687E+00 0.00000E+00
 -1      2000 6.40350E+01 4.00625E+00 0.00000E+00
 -1      2001 6.87045E+01 3.09687E+00 0.00000E+00
 -1      2002 6.72045E+01 3.09687E+00 0.00000E+00
 -1      2003 6.70350E+01 4.00625E+00 0.00000E+00
 -1      2004 7.17045E+01 3.09687E+00 0.00000E+00
 -1      2005 7.02045E+01 3.09687E+00 0.00000E+00
 -1      2006 7.00350E+01 4.00625E+00 0.00000E+00
 -1      2007 7.47045E+01 3.09687E+00 0.00000E+00
 -1      2008 7.32045E+01 3.09687E+00 0.00000E+00
 -1      2009 7.30350E+01 4.00625E+00 0.00000E+00
 -1      2010 7.77045E+01 3.09687E+00 0.00000E+00
 -1      2011 7.62045E+01 3.09687E+00 0.00000E+00
 -1      2012 7.60350E+01 4.00625E+00 0.00000E+00
 -1      2013 8.07045E+01 3.09687E+00 0.00000E+00
 -1      2014 7.92045E+01 3.09687E+00 0.00000E+00
 -1      2015 7.90350E+01 4.00625E+00 0.00000E+00
 -1      2016 8.37045E+01 3.09687E+00 0.00000E+00
 -1      2017 8.22045E+01 3.09687E+00 0.00000E+00
 -1      2018 8.20350E+01 4.00625E+00 0.00000E+00
 -1      2019 8.67045E+01 3.09687E+00 0.00000E+00
 -1      2020 8.52045E+01 3.09687E+00 0.00000E+00
 -1      2021 8.50350E+01 4.00625E+00 0.00000E+00
 -1      2022 8.97045E+01 3.09687E+00 0.00000E+00
 -1      2023 8.82045E+01 3.09687E+00 0.00000E+00
 -1      2024 8.80350E+01 4.00625E+00 0.00000E+00
 -1      2025 9.27045E+01 3.09687E+00 0.00000E+00
 -1      2026 9.12045E+01 3.09687E+00 0.00000E+00
 -1      2027 9.10350E+01 4.00625E+00 0.00000E+00
 -1      2028 9.57045E+01 3.09687E+00 0.00000E+00
 -1      2029 9.42045E+01 3.09687E+00 0.00000E+00
 -1      2030 9.40350E+01 4.00625E+00 0.00000E+00
 -1      2031 9.87045E+01 3.09687E+00 0.00000E+00
 -1      2032 9.72045E+01 3.09687E+00 0.00000E+00
 -1      2033 9.70350E+01 4.00625E+00 0.00000E+00
 -1      2034 1.01704E+02 3.09687E+00 0.00000E+00
 -1      2035 1.00204E+02 3.09687E+00 0.00000E+00
 -1      2036 1.00035E+02 4.00625E+00 0.00000E+00
 -1      2037 1.04704E+02 3.09687E+00 0.00000E+00
 -1      2038 1.03204E+02 3.09687E+00 0.00000E+00
 -1      2039 1.03035E+02 4.00625E+00 0.00000E+00
 -1      2040 1.07704E+02 3.09687E+00 0.00000E+00
 -1      2041 1.06204E+02 3.09687E+00 0.00000E+00
 -1      2042 1.06035E+02 4.00625E+00 0.00000E+00
 -1      2043 1.10704E+02 3.09687E+00 0.00000E+00
 -1      2044 1.09204E+02 3.09687E+00 0.00000E+00
 -1      2045 1.09035E+02 4.00625E+00 0.00000E+00
 -1      2046 1.13704E+02 3.09687E+00 0.00000E+00
 -1      2047 1.12204E+02 3.09687E+00 0.00000E+00
 -1      2048 1.12035E+02 4.00625E+00 0.00000E+00
 -1      2049 1.16704E+02 3.09687E+00 0.00000E+00
 -1      2050 1.15204E+02 3.09687E+00 0.00000E+00
 -1      2051 1.15035E+02 4.00625E+00 0.00000E+00
 -1      2052 1.19704E+02 3.09687E+00 0.00000E+00
 -1      2053 1.18204E+02 3.09687E+00 0.00000E+00
 -1      2054 1.18035E+02 4.00625E+00 0.00000E+00
 -1      2055 1.22704E+02 3.09687E+00 0.00000E+00
 -1      2056 1.21204E+02 3.09687E+00 0.00000E+00
 -1      2057 1.21035E+02 4.00625E+00 0.00000E+00
 -1      2058 1.25704E+02 3.09687E+00 0.00000E+00
 -1      2059 1.24204E+02 3.09687E+00 0.00000E+00
 -1      2060 1.24035E+02 4.00625E+00 0.00000E+00
 -1      2061 1.28704E+02 3.09687E+00 0.00000E+00
 -1      2062 1.27204E+02 3.09687E+00 0.00000E+00
 -1      2063 1.27035E+02 4.00625E+00 0.00000E+00
 -1      2064 1.31704E+02 3.09687E+00 0.00000E+00
 -1      2065 1.30204E+02 3.09687E+00 0.00000E+00
 -1      2066 1.30035E+02 4.00625E+00 0.00000E+00
 -1      2067 1.34704E+02 3.09687E+00 0.00000E+00
 -1      2068 1.33204E+02 3.09687E+00 0.00000E+00
 -1      2069 1.33035E+02 4.00625E+00 0.00000E+00
 -1      2070 1.37704E+02 3.09687E+00 0.00000E+00
 -1      2071 1.36204E+02 3.09687E+00 0.00000E+00
 -1      2072 1.36035E+02 4.00625E+00 0.00000E+00
 -1      2073 1.40704E+02 3.09687E+00 0.00000E+00
 -1      2074 1.39204E+02 3.09687E+00 0.00000E+00
 -1      2075 1.39035E+02 4.00625E+00 0.00000E+00
 -1      2076 1.43704E+02 3.09687E+00 0.00000E+00
 -1      2077 1.42204E+02 3.09687E+00 0.00000E+00
 -1      2078 1.42035E+02 4.00625E+00 0.00000E+00
 -1      2079 1.46171E+02 3.20156E+00 0.00000E+00
 -1      2080 1.44671E+02 3.20156E+00 0.00000E+00
 -1      2081 1.44502E+02 4.11094E+00 0.00000E+00
 -1      2082 1.46435E+02 4.32031E+00 0.00000E+00
 -1      2083 1.46103E+02 1.25375E+01 0.00000E+00
 -1      2084 1.46103E+02 1.10625E+01 0.00000E+00
 -1      2085 1.46103E+02 9.58750E+00 0.00000E+00
 -1      2086 1.46103E+02 8.11250E+00 0.00000E+00
 -1      2087 1.44804E+02 1.03250E+01 0.00000E+00
 -1      2088 1.46269E+02 6.95391E+00 0.00000E+00
 -1      2089 1.46269E+02 5.47891E+00 0.00000E+00
 -1      2090 1.45302E+02 5.37422E+00 0.00000E+00
 -1      2091 1.44970E+02 7.69141E+00 0.00000E+00
 -1      2092 1.46103E+02 1.54375E+01 0.00000E+00
 -1      2093 1.46103E+02 1.39875E+01 0.00000E+00
 -1      2094 1.44804E+02 1.32500E+01 0.00000E+00
 -1      2095 1.46103E+02 1.83875E+01 0.00000E+00
 -1      2096 1.46103E+02 1.69125E+01 0.00000E+00
 -1      2097 1.44804E+02 1.61750E+01 0.00000E+00
 -1      2098 1.46103E+02 2.13375E+01 0.00000E+00
 -1      2099 1.46103E+02 1.98625E+01 0.00000E+00
 -1      2100 1.44804E+02 1.91250E+01 0.00000E+00
 -1      2101 1.46103E+02 2.42875E+01 0.00000E+00
 -1      2102 1.46103E+02 2.28125E+01 0.00000E+00
 -1      2103 1.44804E+02 2.20750E+01 0.00000E+00
 -1      2104 1.46103E+02 2.72375E+01 0.00000E+00
 -1      2105 1.46103E+02 2.57625E+01 0.00000E+00
 -1      2106 1.44804E+02 2.50250E+01 0.00000E+00
 -1      2107 1.46103E+02 3.01875E+01 0.00000E+00
 -1      2108 1.46103E+02 2.87125E+01 0.00000E+00
 -1      2109 1.44804E+02 2.79750E+01 0.00000E+00
 -1      2110 1.46103E+02 3.30875E+01 0.00000E+00
 -1      2111 1.46103E+02 3.16375E+01 0.00000E+00
 -1      2112 1.44804E+02 3.09000E+01 0.00000E+00
 -1      2113 1.46103E+02 3.60375E+01 0.00000E+00
 -1      2114 1.46103E+02 3.45625E+01 0.00000E+00
 -1      2115 1.44804E+02 3.38250E+01 0.00000E+00
 -1      2116 1.46103E+02 3.89875E+01 0.00000E+00
 -1      2117 1.46103E+02 3.75125E+01 0.00000E+00
 -1      2118 1.44804E+02 3.67750E+01 0.00000E+00
 -1      2119 1.46103E+02 4.19375E+01 0.00000E+00
 -1      2120 1.46103E+02 4.04625E+01 0.00000E+00
 -1      2121 1.44804E+02 3.97250E+01 0.00000E+00
 -1      2122 1.30083E+02 2.42875E+01 0.00000E+00
 -1      2123 1.30322E+02 2.51837E+01 0.00000E+00
 -1      2124 1.30923E+02 2.80068E+01 0.00000E+00
 -1      2125 1.30848E+02 2.88858E+01 0.00000E+00
 -1      2126 1.30592E+02 2.60276E+01 0.00000E+00
 -1      2127 1.30861E+02 2.68715E+01 0.00000E+00
 -1      2128 1.31179E+02 2.53907E+01 0.00000E+00
 -1      2129 1.28672E+02 2.26144E+01 0.00000E+00
 -1      2130 1.29353E+02 2.32382E+01 0.00000E+00
 -1      2131 1.27495E+02 2.13000E+01 0.00000E+00
 -1      2132 1.28083E+02 2.19572E+01 0.00000E+00
 -1      2133 1.28862E+02 2.17911E+01 0.00000E+00
 -1      2134 3.89700E+00 3.74688E+01 0.00000E+00
 -1      2135 3.89700E+00 3.89437E+01 0.00000E+00
 -1      2136 5.19600E+00 3.96813E+01 0.00000E+00
 -1      2137 5.19600E+00 3.67438E+01 0.00000E+00
 -1      2138 1.23990E+02 1.98199E+01 0.00000E+00
 -1      2139 1.24820E+02 2.00963E+01 0.00000E+00
 -1      2140 1.22052E+02 1.93369E+01 0.00000E+00
 -1      2141 1.23000E+02 1.94655E+01 0.00000E+00
 -1      2142 1.19861E+02 1.96863E+01 0.00000E+00
 -1      2143 1.20776E+02 1.94024E+01 0.00000E+00
 -1      2144 1.18107E+02 2.02581E+01 0.00000E+00
 -1      2145 1.18984E+02 1.99722E+01 0.00000E+00
 -1      2146 1.19199E+02 1.90513E+01 0.00000E+00
 -1      2147 1.16321E+02 2.14935E+01 0.00000E+00
 -1      2148 1.17064E+02 2.09020E+01 0.00000E+00
 -1      2149 1.14891E+02 2.28503E+01 0.00000E+00
 -1      2150 1.15492E+02 2.21661E+01 0.00000E+00
 -1      2151 1.13870E+02 2.45407E+01 0.00000E+00
 -1      2152 1.14340E+02 2.37507E+01 0.00000E+00
 -1      2153 1.13204E+02 2.64631E+01 0.00000E+00
 -1      2154 1.13500E+02 2.55602E+01 0.00000E+00
 -1      2155 1.13098E+02 2.84989E+01 0.00000E+00
 -1      2156 1.13023E+02 2.76161E+01 0.00000E+00
 -1      2157 1.13225E+02 3.02585E+01 0.00000E+00
 -1      2158 1.13162E+02 2.93787E+01 0.00000E+00
 -1      2159 1.12437E+02 2.89960E+01 0.00000E+00
 -1      2160 1.13966E+02 3.21198E+01 0.00000E+00
 -1      2161 1.13569E+02 3.13274E+01 0.00000E+00
 -1      2162 1.14724E+02 3.37476E+01 0.00000E+00
 -1      2163 1.14261E+02 3.30494E+01 0.00000E+00
 -1      2164 1.16121E+02 3.50288E+01 0.00000E+00
 -1      2165 1.15499E+02 3.44200E+01 0.00000E+00
 -1      2166 1.17609E+02 3.61228E+01 0.00000E+00
 -1      2167 1.16897E+02 3.56208E+01 0.00000E+00
 -1      2168 1.19208E+02 3.71684E+01 0.00000E+00
 -1      2169 1.18390E+02 3.67433E+01 0.00000E+00
 -1      2170 1.21433E+02 3.74425E+01 0.00000E+00
 -1      2171 1.20485E+02 3.74869E+01 0.00000E+00
 -1      2172 1.23191E+02 3.72791E+01 0.00000E+00
 -1      2173 1.22312E+02 3.73608E+01 0.00000E+00
 -1      2174 1.21876E+02 3.81978E+01 0.00000E+00
 -1      2175 1.25066E+02 3.68821E+01 0.00000E+00
 -1      2176 1.24209E+02 3.70659E+01 0.00000E+00
 -1      2177 1.26856E+02 3.60274E+01 0.00000E+00
 -1      2178 1.26123E+02 3.64941E+01 0.00000E+00
 -1      2179 1.28211E+02 3.47309E+01 0.00000E+00
 -1      2180 1.27598E+02 3.53327E+01 0.00000E+00
 -1      2181 1.29414E+02 3.33676E+01 0.00000E+00
 -1      2182 1.28910E+02 3.40530E+01 0.00000E+00
 -1      2183 1.30372E+02 3.17821E+01 0.00000E+00
 -1      2184 1.29935E+02 3.25582E+01 0.00000E+00
 -1      2185 1.30745E+02 2.97598E+01 0.00000E+00
 -1      2186 1.30642E+02 3.06337E+01 0.00000E+00
 -1      2187 1.31470E+02 2.93793E+01 0.00000E+00
 -1      2188 1.25663E+02 2.04046E+01 0.00000E+00
 -1      2189 1.26506E+02 2.07130E+01 0.00000E+00
 -1      2190 1.25453E+02 1.96515E+01 0.00000E+00
 -1      2191 1.27285E+02 2.05469E+01 0.00000E+00
 -1      2192 1.28063E+02 2.03808E+01 0.00000E+00
 -1      2193 1.27074E+02 1.97937E+01 0.00000E+00
 -1      2194 6.42300E+00 4.57510E+01 0.00000E+00
 -1      2195 1.17279E+02 1.99811E+01 0.00000E+00
 -1      2196 7.17300E+00 4.44520E+01 0.00000E+00
 -1      2197 1.31511E+02 2.73699E+01 0.00000E+00
 -1      2198 1.30277E+02 2.27077E+01 0.00000E+00
 -1      2199 1.30180E+02 2.34976E+01 0.00000E+00
 -1      2200 1.31007E+02 2.37570E+01 0.00000E+00
 -1      2201 1.45665E+02 4.31193E+01 0.00000E+00
 -1      2202 1.31098E+02 3.14016E+01 0.00000E+00
 -1      2203 1.30307E+02 3.33593E+01 0.00000E+00
 -1      2204 1.29087E+02 3.48465E+01 0.00000E+00
 -1      2205 1.27646E+02 3.62189E+01 0.00000E+00
 -1      2206 1.23773E+02 3.79028E+01 0.00000E+00
 -1      2207 1.19720E+02 3.79609E+01 0.00000E+00
 -1      2208 1.18954E+02 3.84349E+01 0.00000E+00
 -1      2209 1.20232E+02 3.87535E+01 0.00000E+00
 -1      2210 1.17661E+02 3.70219E+01 0.00000E+00
 -1      2211 1.16103E+02 3.58094E+01 0.00000E+00
 -1      2212 1.14553E+02 3.45451E+01 0.00000E+00
 -1      2213 1.12844E+02 3.09447E+01 0.00000E+00
 -1      2214 1.12555E+02 2.69632E+01 0.00000E+00
 -1      2215 1.12086E+02 2.63102E+01 0.00000E+00
 -1      2216 1.11905E+02 2.74633E+01 0.00000E+00
 -1      2217 1.13106E+02 2.47907E+01 0.00000E+00
 -1      2218 1.14027E+02 2.28708E+01 0.00000E+00
 -1      2219 1.23620E+02 1.89888E+01 0.00000E+00
 -1      2220 1.21353E+02 1.86999E+01 0.00000E+00
 -1      2221 1.15407E+02 2.12977E+01 0.00000E+00
 -1      2222 1.13483E+02 3.29432E+01 0.00000E+00
 -1      2223 1.25848E+02 3.73016E+01 0.00000E+00
 -1      2224 1.07850E+01 5.30525E+00 0.00000E+00
 -1      2225 9.28500E+00 5.30525E+00 0.00000E+00
 -1      2226 6.49500E+00 3.01125E+01 0.00000E+00
 -1      2227 6.49500E+00 3.15875E+01 0.00000E+00
 -1      2228 6.49500E+00 3.30625E+01 0.00000E+00
 -1      2229 6.49500E+00 3.45375E+01 0.00000E+00
 -1      2230 7.79400E+00 3.23250E+01 0.00000E+00
 -1      2231 6.49500E+00 2.42125E+01 0.00000E+00
 -1      2232 6.49500E+00 2.56875E+01 0.00000E+00
 -1      2233 6.49500E+00 2.12625E+01 0.00000E+00
 -1      2234 6.49500E+00 2.27375E+01 0.00000E+00
 -1      2235 7.79400E+00 2.34750E+01 0.00000E+00
 -1      2236 6.49500E+00 1.83625E+01 0.00000E+00
 -1      2237 6.49500E+00 1.98125E+01 0.00000E+00
 -1      2238 7.79400E+00 2.05500E+01 0.00000E+00
 -1      2239 6.49500E+00 1.54125E+01 0.00000E+00
 -1      2240 6.49500E+00 1.68875E+01 0.00000E+00
 -1      2241 7.79400E+00 1.76250E+01 0.00000E+00
 -1      2242 6.49500E+00 1.24625E+01 0.00000E+00
 -1      2243 6.49500E+00 1.39375E+01 0.00000E+00
 -1      2244 7.79400E+00 1.46750E+01 0.00000E+00
 -1      2245 6.49500E+00 9.51250E+00 0.00000E+00
 -1      2246 6.49500E+00 1.09875E+01 0.00000E+00
 -1      2247 7.79400E+00 1.17250E+01 0.00000E+00
 -1      2248 1.37850E+01 5.30525E+00 0.00000E+00
 -1      2249 1.22850E+01 5.30525E+00 0.00000E+00
 -1      2250 1.15350E+01 6.60425E+00 0.00000E+00
 -1      2251 9.90000E+00 4.35050E+01 0.00000E+00
 -1      2252 1.14000E+01 4.35050E+01 0.00000E+00
 -1      2253 1.16307E+02 1.95735E+01 0.00000E+00
 -1      2254 1.17350E+02 1.89296E+01 0.00000E+00
 -1      2255 1.29000E+01 4.35050E+01 0.00000E+00
 -1      2256 1.44000E+01 4.35050E+01 0.00000E+00
 -1      2257 1.21500E+01 4.22060E+01 0.00000E+00
 -1      2258 1.59000E+01 4.35050E+01 0.00000E+00
 -1      2259 1.74000E+01 4.35050E+01 0.00000E+00
 -1      2260 1.51500E+01 4.22060E+01 0.00000E+00
 -1      2261 1.89000E+01 4.35050E+01 0.00000E+00
 -1      2262 2.04000E+01 4.35050E+01 0.00000E+00
 -1      2263 1.81500E+01 4.22060E+01 0.00000E+00
 -1      2264 2.19000E+01 4.35050E+01 0.00000E+00
 -1      2265 2.34000E+01 4.35050E+01 0.00000E+00
 -1      2266 2.11500E+01 4.22060E+01 0.00000E+00
 -1      2267 2.49000E+01 4.35050E+01 0.00000E+00
 -1      2268 2.64000E+01 4.35050E+01 0.00000E+00
 -1      2269 2.41500E+01 4.22060E+01 0.00000E+00
 -1      2270 2.79000E+01 4.35050E+01 0.00000E+00
 -1      2271 2.94000E+01 4.35050E+01 0.00000E+00
 -1      2272 2.71500E+01 4.22060E+01 0.00000E+00
 -1      2273 3.09000E+01 4.35050E+01 0.00000E+00
 -1      2274 3.24000E+01 4.35050E+01 0.00000E+00
 -1      2275 3.01500E+01 4.22060E+01 0.00000E+00
 -1      2276 3.39000E+01 4.35050E+01 0.00000E+00
 -1      2277 3.54000E+01 4.35050E+01 0.00000E+00
 -1      2278 3.31500E+01 4.22060E+01 0.00000E+00
 -1      2279 3.69000E+01 4.35050E+01 0.00000E+00
 -1      2280 3.84000E+01 4.35050E+01 0.00000E+00
 -1      2281 3.61500E+01 4.22060E+01 0.00000E+00
 -1      2282 3.99000E+01 4.35050E+01 0.00000E+00
 -1      2283 4.14000E+01 4.35050E+01 0.00000E+00
 -1      2284 3.91500E+01 4.22060E+01 0.00000E+00
 -1      2285 4.29000E+01 4.35050E+01 0.00000E+00
 -1      2286 4.44000E+01 4.35050E+01 0.00000E+00
 -1      2287 4.21500E+01 4.22060E+01 0.00000E+00
 -1      2288 4.59000E+01 4.35050E+01 0.00000E+00
 -1      2289 4.74000E+01 4.35050E+01 0.00000E+00
 -1      2290 4.51500E+01 4.22060E+01 0.00000E+00
 -1      2291 4.89000E+01 4.35050E+01 0.00000E+00
 -1      2292 5.04000E+01 4.35050E+01 0.00000E+00
 -1      2293 4.81500E+01 4.22060E+01 0.00000E+00
 -1      2294 5.19000E+01 4.35050E+01 0.00000E+00
 -1      2295 5.34000E+01 4.35050E+01 0.00000E+00
 -1      2296 5.11500E+01 4.22060E+01 0.00000E+00
 -1      2297 5.49000E+01 4.35050E+01 0.00000E+00
 -1      2298 5.64000E+01 4.35050E+01 0.00000E+00
 -1      2299 5.41500E+01 4.22060E+01 0.00000E+00
 -1      2300 5.79000E+01 4.35050E+01 0.00000E+00
 -1      2301 5.94000E+01 4.35050E+01 0.00000E+00
 -1      2302 5.71500E+01 4.22060E+01 0.00000E+00
 -1      2303 6.09000E+01 4.35050E+01 0.00000E+00
 -1      2304 6.24000E+01 4.35050E+01 0.00000E+00
 -1      2305 6.01500E+01 4.22060E+01 0.00000E+00
 -1      2306 6.39000E+01 4.35050E+01 0.00000E+00
 -1      2307 6.54000E+01 4.35050E+01 0.00000E+00
 -1      2308 6.31500E+01 4.22060E+01 0.00000E+00
 -1      2309 6.69000E+01 4.35050E+01 0.00000E+00
 -1      2310 6.84000E+01 4.35050E+01 0.00000E+00
 -1      2311 6.61500E+01 4.22060E+01 0.00000E+00
 -1      2312 6.99000E+01 4.35050E+01 0.00000E+00
 -1      2313 7.14000E+01 4.35050E+01 0.00000E+00
 -1      2314 6.91500E+01 4.22060E+01 0.00000E+00
 -1      2315 7.29000E+01 4.35050E+01 0.00000E+00
 -1      2316 7.44000E+01 4.35050E+01 0.00000E+00
 -1      2317 7.21500E+01 4.22060E+01 0.00000E+00
 -1      2318 7.59000E+01 4.35050E+01 0.00000E+00
 -1      2319 7.74000E+01 4.35050E+01 0.00000E+00
 -1      2320 7.51500E+01 4.22060E+01 0.00000E+00
 -1      2321 7.89000E+01 4.35050E+01 0.00000E+00
 -1      2322 8.04000E+01 4.35050E+01 0.00000E+00
 -1      2323 7.81500E+01 4.22060E+01 0.00000E+00
 -1      2324 8.19000E+01 4.35050E+01 0.00000E+00
 -1      2325 8.34000E+01 4.35050E+01 0.00000E+00
 -1      2326 8.11500E+01 4.22060E+01 0.00000E+00
 -1      2327 8.49000E+01 4.35050E+01 0.00000E+00
 -1      2328 8.64000E+01 4.35050E+01 0.00000E+00
 -1      2329 8.41500E+01 4.22060E+01 0.00000E+00
 -1      2330 8.79000E+01 4.35050E+01 0.00000E+00
 -1      2331 8.94000E+01 4.35050E+01 0.00000E+00
 -1      2332 8.71500E+01 4.22060E+01 0.00000E+00
 -1      2333 9.09000E+01 4.35050E+01 0.00000E+00
 -1      2334 9.24000E+01 4.35050E+01 0.00000E+00
 -1      2335 9.01500E+01 4.22060E+01 0.00000E+00
 -1      2336 9.39000E+01 4.35050E+01 0.00000E+00
 -1      2337 9.54000E+01 4.35050E+01 0.00000E+00
 -1      2338 9.31500E+01 4.22060E+01 0.00000E+00
 -1      2339 9.69000E+01 4.35050E+01 0.00000E+00
 -1      2340 9.84000E+01 4.35050E+01 0.00000E+00
 -1      2341 9.61500E+01 4.22060E+01 0.00000E+00
 -1      2342 9.99000E+01 4.35050E+01 0.00000E+00
 -1      2343 1.01400E+02 4.35050E+01 0.00000E+00
 -1      2344 9.91500E+01 4.22060E+01 0.00000E+00
 -1      2345 1.02900E+02 4.35050E+01 0.00000E+00
 -1      2346 1.04400E+02 4.35050E+01 0.00000E+00
 -1      2347 1.02150E+02 4.22060E+01 0.00000E+00
 -1      2348 1.05900E+02 4.35050E+01 0.00000E+00
 -1      2349 1.07400E+02 4.35050E+01 0.00000E+00
 -1      2350 1.05150E+02 4.22060E+01 0.00000E+00
 -1      2351 1.08900E+02 4.35050E+01 0.00000E+00
 -1      2352 1.10400E+02 4.35050E+01 0.00000E+00
 -1      2353 1.08150E+02 4.22060E+01 0.00000E+00
 -1      2354 1.11900E+02 4.35050E+01 0.00000E+00
 -1      2355 1.13400E+02 4.35050E+01 0.00000E+00
 -1      2356 1.11150E+02 4.22060E+01 0.00000E+00
 -1      2357 1.14900E+02 4.35050E+01 0.00000E+00
 -1      2358 1.16400E+02 4.35050E+01 0.00000E+00
 -1      2359 1.14150E+02 4.22060E+01 0.00000E+00
 -1      2360 1.17900E+02 4.35050E+01 0.00000E+00
 -1      2361 1.19400E+02 4.35050E+01 0.00000E+00
 -1      2362 1.17150E+02 4.22060E+01 0.00000E+00
 -1      2363 1.20900E+02 4.35050E+01 0.00000E+00
 -1      2364 1.22400E+02 4.35050E+01 0.00000E+00
 -1      2365 1.20150E+02 4.22060E+01 0.00000E+00
 -1      2366 1.23900E+02 4.35050E+01 0.00000E+00
 -1      2367 1.25400E+02 4.35050E+01 0.00000E+00
 -1      2368 1.23150E+02 4.22060E+01 0.00000E+00
 -1      2369 1.26900E+02 4.35050E+01 0.00000E+00
 -1      2370 1.28400E+02 4.35050E+01 0.00000E+00
 -1      2371 1.26150E+02 4.22060E+01 0.00000E+00
 -1      2372 1.29900E+02 4.35050E+01 0.00000E+00
 -1      2373 1.31400E+02 4.35050E+01 0.00000E+00
 -1      2374 1.29150E+02 4.22060E+01 0.00000E+00
 -1      2375 1.32900E+02 4.35050E+01 0.00000E+00
 -1      2376 1.34400E+02 4.35050E+01 0.00000E+00
 -1      2377 1.32150E+02 4.22060E+01 0.00000E+00
 -1      2378 1.35900E+02 4.35050E+01 0.00000E+00
 -1      2379 1.37400E+02 4.35050E+01 0.00000E+00
 -1      2380 1.35150E+02 4.22060E+01 0.00000E+00
 -1      2381 1.38900E+02 4.35050E+01 0.00000E+00
 -1      2382 1.40400E+02 4.35050E+01 0.00000E+00
 -1      2383 1.38150E+02 4.22060E+01 0.00000E+00
 -1      2384 1.31782E+02 2.47335E+01 0.00000E+00
 -1      2385 1.32051E+02 2.55774E+01 0.00000E+00
 -1      2386 1.97850E+01 5.30525E+00 0.00000E+00
 -1      2387 1.82850E+01 5.30525E+00 0.00000E+00
 -1      2388 2.27850E+01 5.30525E+00 0.00000E+00
 -1      2389 2.12850E+01 5.30525E+00 0.00000E+00
 -1      2390 2.05350E+01 6.60425E+00 0.00000E+00
 -1      2391 2.57850E+01 5.30525E+00 0.00000E+00
 -1      2392 2.42850E+01 5.30525E+00 0.00000E+00
 -1      2393 2.35350E+01 6.60425E+00 0.00000E+00
 -1      2394 2.87850E+01 5.30525E+00 0.00000E+00
 -1      2395 2.72850E+01 5.30525E+00 0.00000E+00
 -1      2396 2.65350E+01 6.60425E+00 0.00000E+00
 -1      2397 3.17850E+01 5.30525E+00 0.00000E+00
 -1      2398 3.02850E+01 5.30525E+00 0.00000E+00
 -1      2399 2.95350E+01 6.60425E+00 0.00000E+00
 -1      2400 3.47850E+01 5.30525E+00 0.00000E+00
 -1      2401 3.32850E+01 5.30525E+00 0.00000E+00
 -1      2402 3.25350E+01 6.60425E+00 0.00000E+00
 -1      2403 3.77850E+01 5.30525E+00 0.00000E+00
 -1      2404 3.62850E+01 5.30525E+00 0.00000E+00
 -1      2405 3.55350E+01 6.60425E+00 0.00000E+00
 -1      2406 4.07850E+01 5.30525E+00 0.00000E+00
 -1      2407 3.92850E+01 5.30525E+00 0.00000E+00
 -1      2408 3.85350E+01 6.60425E+00 0.00000E+00
 -1      2409 4.37850E+01 5.30525E+00 0.00000E+00
 -1      2410 4.22850E+01 5.30525E+00 0.00000E+00
 -1      2411 4.15350E+01 6.60425E+00 0.00000E+00
 -1      2412 4.67850E+01 5.30525E+00 0.00000E+00
 -1      2413 4.52850E+01 5.30525E+00 0.00000E+00
 -1      2414 4.45350E+01 6.60425E+00 0.00000E+00
 -1      2415 4.97850E+01 5.30525E+00 0.00000E+00
 -1      2416 4.82850E+01 5.30525E+00 0.00000E+00
 -1      2417 4.75350E+01 6.60425E+00 0.00000E+00
 -1      2418 5.27850E+01 5.30525E+00 0.00000E+00
 -1      2419 5.12850E+01 5.30525E+00 0.00000E+00
 -1      2420 5.05350E+01 6.60425E+00 0.00000E+00
 -1      2421 5.57850E+01 5.30525E+00 0.00000E+00
 -1      2422 5.42850E+01 5.30525E+00 0.00000E+00
 -1      2423 5.35350E+01 6.60425E+00 0.00000E+00
 -1      2424 5.87850E+01 5.30525E+00 0.00000E+00
 -1      2425 5.72850E+01 5.30525E+00 0.00000E+00
 -1      2426 5.65350E+01 6.60425E+00 0.00000E+00
 -1      2427 6.17850E+01 5.30525E+00 0.00000E+00
 -1      2428 6.02850E+01 5.30525E+00 0.00000E+00
 -1      2429 5.95350E+01 6.60425E+00 0.00000E+00
 -1      2430 6.47850E+01 5.30525E+00 0.00000E+00
 -1      2431 6.32850E+01 5.30525E+00 0.00000E+00
 -1      2432 6.25350E+01 6.60425E+00 0.00000E+00
 -1      2433 6.77850E+01 5.30525E+00 0.00000E+00
 -1      2434 6.62850E+01 5.30525E+00 0.00000E+00
 -1      2435 6.55350E+01 6.60425E+00 0.00000E+00
 -1      2436 7.07850E+01 5.30525E+00 0.00000E+00
 -1      2437 6.92850E+01 5.30525E+00 0.00000E+00
 -1      2438 6.85350E+01 6.60425E+00 0.00000E+00
 -1      2439 7.37850E+01 5.30525E+00 0.00000E+00
 -1      2440 7.22850E+01 5.30525E+00 0.00000E+00
 -1      2441 7.15350E+01 6.60425E+00 0.00000E+00
 -1      2442 7.67850E+01 5.30525E+00 0.00000E+00
 -1      2443 7.52850E+01 5.30525E+00 0.00000E+00
 -1      2444 7.45350E+01 6.60425E+00 0.00000E+00
 -1      2445 7.97850E+01 5.30525E+00 0.00000E+00
 -1      2446 7.82850E+01 5.30525E+00 0.00000E+00
 -1      2447 7.75350E+01 6.60425E+00 0.00000E+00
 -1      2448 8.27850E+01 5.30525E+00 0.00000E+00
 -1      2449 8.12850E+01 5.30525E+00 0.00000E+00
 -1      2450 8.05350E+01 6.60425E+00 0.00000E+00
 -1      2451 8.57850E+01 5.30525E+00 0.00000E+00
 -1      2452 8.42850E+01 5.30525E+00 0.00000E+00
 -1      2453 8.35350E+01 6.60425E+00 0.00000E+00
 -1      2454 8.87850E+01 5.30525E+00 0.00000E+00
 -1      2455 8.72850E+01 5.30525E+00 0.00000E+00
 -1      2456 8.65350E+01 6.60425E+00 0.00000E+00
 -1      2457 9.17850E+01 5.30525E+00 0.00000E+00
 -1      2458 9.02850E+01 5.30525E+00 0.00000E+00
 -1      2459 8.95350E+01 6.60425E+00 0.00000E+00
 -1      2460 9.47850E+01 5.30525E+00 0.00000E+00
 -1      2461 9.32850E+01 5.30525E+00 0.00000E+00
 -1      2462 9.25350E+01 6.60425E+00 0.00000E+00
 -1      2463 9.77850E+01 5.30525E+00 0.00000E+00
 -1      2464 9.62850E+01 5.30525E+00 0.00000E+00
 -1      2465 9.55350E+01 6.60425E+00 0.00000E+00
 -1      2466 1.00785E+02 5.30525E+00 0.00000E+00
 -1      2467 9.92850E+01 5.30525E+00 0.00000E+00
 -1      2468 9.85350E+01 6.60425E+00 0.00000E+00
 -1      2469 1.03785E+02 5.30525E+00 0.00000E+00
 -1      2470 1.02285E+02 5.30525E+00 0.00000E+00
 -1      2471 1.01535E+02 6.60425E+00 0.00000E+00
 -1      2472 1.06785E+02 5.30525E+00 0.00000E+00
 -1      2473 1.05285E+02 5.30525E+00 0.00000E+00
 -1      2474 1.04535E+02 6.60425E+00 0.00000E+00
 -1      2475 1.09785E+02 5.30525E+00 0.00000E+00
 -1      2476 1.08285E+02 5.30525E+00 0.00000E+00
 -1      2477 1.07535E+02 6.60425E+00 0.00000E+00
 -1      2478 1.12785E+02 5.30525E+00 0.00000E+00
 -1      2479 1.11285E+02 5.30525E+00 0.00000E+00
 -1      2480 1.10535E+02 6.60425E+00 0.00000E+00
 -1      2481 1.15785E+02 5.30525E+00 0.00000E+00
 -1      2482 1.14285E+02 5.30525E+00 0.00000E+00
 -1      2483 1.13535E+02 6.60425E+00 0.00000E+00
 -1      2484 1.18785E+02 5.30525E+00 0.00000E+00
 -1      2485 1.17285E+02 5.30525E+00 0.00000E+00
 -1      2486 1.16535E+02 6.60425E+00 0.00000E+00
 -1      2487 1.21785E+02 5.30525E+00 0.00000E+00
 -1      2488 1.20285E+02 5.30525E+00 0.00000E+00
 -1      2489 1.19535E+02 6.60425E+00 0.00000E+00
 -1      2490 1.24785E+02 5.30525E+00 0.00000E+00
 -1      2491 1.23285E+02 5.30525E+00 0.00000E+00
 -1      2492 1.22535E+02 6.60425E+00 0.00000E+00
 -1      2493 1.27785E+02 5.30525E+00 0.00000E+00
 -1      2494 1.26285E+02 5.30525E+00 0.00000E+00
 -1      2495 1.25535E+02 6.60425E+00 0.00000E+00
 -1      2496 1.30785E+02 5.30525E+00 0.00000E+00
 -1      2497 1.29285E+02 5.30525E+00 0.00000E+00
 -1      2498 1.28535E+02 6.60425E+00 0.00000E+00
 -1      2499 1.33785E+02 5.30525E+00 0.00000E+00
 -1      2500 1.32285E+02 5.30525E+00 0.00000E+00
 -1      2501 1.31535E+02 6.60425E+00 0.00000E+00
 -1      2502 1.36785E+02 5.30525E+00 0.00000E+00
 -1      2503 1.35285E+02 5.30525E+00 0.00000E+00
 -1      2504 1.34535E+02 6.60425E+00 0.00000E+00
 -1      2505 1.39785E+02 5.30525E+00 0.00000E+00
 -1      2506 1.38285E+02 5.30525E+00 0.00000E+00
 -1      2507 1.37535E+02 6.60425E+00 0.00000E+00
 -1      2508 1.42785E+02 5.30525E+00 0.00000E+00
 -1      2509 1.41285E+02 5.30525E+00 0.00000E+00
 -1      2510 1.40535E+02 6.60425E+00 0.00000E+00
 -1      2511 1.44336E+02 5.26953E+00 0.00000E+00
 -1      2512 1.43505E+02 1.69125E+01 0.00000E+00
 -1      2513 1.43505E+02 1.54375E+01 0.00000E+00
 -1      2514 1.43505E+02 1.98625E+01 0.00000E+00
 -1      2515 1.43505E+02 1.83875E+01 0.00000E+00
 -1      2516 1.42206E+02 1.76500E+01 0.00000E+00
 -1      2517 1.43505E+02 1.10625E+01 0.00000E+00
 -1      2518 1.43505E+02 9.58750E+00 0.00000E+00
 -1      2519 1.43505E+02 1.39750E+01 0.00000E+00
 -1      2520 1.43505E+02 1.25250E+01 0.00000E+00
 -1      2521 1.42206E+02 1.17875E+01 0.00000E+00
 -1      2522 1.42206E+02 1.47125E+01 0.00000E+00
 -1      2523 1.43505E+02 2.28125E+01 0.00000E+00
 -1      2524 1.43505E+02 2.13375E+01 0.00000E+00
 -1      2525 1.42206E+02 2.06000E+01 0.00000E+00
 -1      2526 1.43505E+02 2.57625E+01 0.00000E+00
 -1      2527 1.43505E+02 2.42875E+01 0.00000E+00
 -1      2528 1.42206E+02 2.35500E+01 0.00000E+00
 -1      2529 1.43505E+02 2.87125E+01 0.00000E+00
 -1      2530 1.43505E+02 2.72375E+01 0.00000E+00
 -1      2531 1.42206E+02 2.65000E+01 0.00000E+00
 -1      2532 1.43505E+02 3.16125E+01 0.00000E+00
 -1      2533 1.43505E+02 3.01625E+01 0.00000E+00
 -1      2534 1.42206E+02 2.94250E+01 0.00000E+00
 -1      2535 1.43505E+02 3.45625E+01 0.00000E+00
 -1      2536 1.43505E+02 3.30875E+01 0.00000E+00
 -1      2537 1.42206E+02 3.23500E+01 0.00000E+00
 -1      2538 1.43505E+02 3.75125E+01 0.00000E+00
 -1      2539 1.43505E+02 3.60375E+01 0.00000E+00
 -1      2540 1.42206E+02 3.53000E+01 0.00000E+00
 -1      2541 1.43505E+02 4.04625E+01 0.00000E+00
 -1      2542 1.43505E+02 3.89875E+01 0.00000E+00
 -1      2543 1.42206E+02 3.82500E+01 0.00000E+00
 -1      2544 1.44321E+02 4.30606E+01 0.00000E+00
 -1      2545 1.31986E+02 3.10043E+01 0.00000E+00
 -1      2546 1.31716E+02 3.21526E+01 0.00000E+00
 -1      2547 1.67850E+01 5.30525E+00 0.00000E+00
 -1      2548 1.52850E+01 5.30525E+00 0.00000E+00
 -1      2549 1.75350E+01 6.60425E+00 0.00000E+00
 -1      2550 1.32336E+02 2.67553E+01 0.00000E+00
 -1      2551 1.32398E+02 2.78907E+01 0.00000E+00
 -1      2552 1.29144E+02 2.09463E+01 0.00000E+00
 -1      2553 1.29732E+02 2.16035E+01 0.00000E+00
 -1      2554 1.32207E+02 2.90229E+01 0.00000E+00
 -1      2555 1.32104E+02 2.98969E+01 0.00000E+00
 -1      2556 6.55950E+00 4.28890E+01 0.00000E+00
 -1      2557 8.53650E+00 4.32410E+01 0.00000E+00
 -1      2558 9.28650E+00 4.19420E+01 0.00000E+00
 -1      2559 6.55950E+00 4.14140E+01 0.00000E+00
 -1      2560 6.49500E+00 2.71625E+01 0.00000E+00
 -1      2561 6.49500E+00 2.86375E+01 0.00000E+00
 -1      2562 7.79400E+00 2.93750E+01 0.00000E+00
 -1      2563 7.79400E+00 2.64250E+01 0.00000E+00
 -1      2564 1.20663E+02 1.77089E+01 0.00000E+00
 -1      2565 1.21939E+02 1.76434E+01 0.00000E+00
 -1      2566 1.14505E+02 2.10331E+01 0.00000E+00
 -1      2567 1.15335E+02 2.03605E+01 0.00000E+00
 -1      2568 1.18495E+02 1.83788E+01 0.00000E+00
 -1      2569 1.19372E+02 1.80929E+01 0.00000E+00
 -1      2570 1.12813E+02 3.36675E+01 0.00000E+00
 -1      2571 1.12518E+02 3.27379E+01 0.00000E+00
 -1      2572 1.23386E+02 1.80832E+01 0.00000E+00
 -1      2573 1.24376E+02 1.84375E+01 0.00000E+00
 -1      2574 1.13020E+02 2.28734E+01 0.00000E+00
 -1      2575 1.13571E+02 2.19730E+01 0.00000E+00
 -1      2576 1.12155E+02 2.50220E+01 0.00000E+00
 -1      2577 1.12525E+02 2.40026E+01 0.00000E+00
 -1      2578 1.11780E+02 2.94856E+01 0.00000E+00
 -1      2579 1.11717E+02 2.86058E+01 0.00000E+00
 -1      2580 1.26657E+02 3.78733E+01 0.00000E+00
 -1      2581 1.25600E+02 3.82613E+01 0.00000E+00
 -1      2582 1.12174E+02 3.16690E+01 0.00000E+00
 -1      2583 1.11830E+02 3.06000E+01 0.00000E+00
 -1      2584 1.11504E+02 3.23933E+01 0.00000E+00
 -1      2585 1.14323E+02 3.55922E+01 0.00000E+00
 -1      2586 1.13548E+02 3.49199E+01 0.00000E+00
 -1      2587 1.15875E+02 3.67761E+01 0.00000E+00
 -1      2588 1.15099E+02 3.61842E+01 0.00000E+00
 -1      2589 1.14095E+02 3.65589E+01 0.00000E+00
 -1      2590 1.17437E+02 3.80171E+01 0.00000E+00
 -1      2591 1.16656E+02 3.73966E+01 0.00000E+00
 -1      2592 1.15652E+02 3.77713E+01 0.00000E+00
 -1      2593 1.22391E+02 3.89691E+01 0.00000E+00
 -1      2594 1.21512E+02 3.90508E+01 0.00000E+00
 -1      2595 1.24427E+02 3.85426E+01 0.00000E+00
 -1      2596 1.23409E+02 3.87558E+01 0.00000E+00
 -1      2597 1.23045E+02 3.96089E+01 0.00000E+00
 -1      2598 1.28546E+02 3.64363E+01 0.00000E+00
 -1      2599 1.27805E+02 3.71309E+01 0.00000E+00
 -1      2600 1.29944E+02 3.50806E+01 0.00000E+00
 -1      2601 1.29245E+02 3.57585E+01 0.00000E+00
 -1      2602 1.29403E+02 3.66705E+01 0.00000E+00
 -1      2603 1.31183E+02 3.33509E+01 0.00000E+00
 -1      2604 1.30661E+02 3.41602E+01 0.00000E+00
 -1      2605 1.25219E+02 1.87459E+01 0.00000E+00
 -1      2606 1.26062E+02 1.90542E+01 0.00000E+00
 -1      2607 1.24985E+02 1.78402E+01 0.00000E+00
 -1      2608 8.07525E+00 5.11044E+00 0.00000E+00
 -1      2609 6.57525E+00 5.11044E+00 0.00000E+00
 -1      2610 6.40575E+00 6.01981E+00 0.00000E+00
 -1      2611 8.82525E+00 6.40944E+00 0.00000E+00
 -1      2612 7.79400E+00 3.52687E+01 0.00000E+00
 -1      2613 6.49500E+00 3.60062E+01 0.00000E+00
 -1      2614 6.49500E+00 3.74750E+01 0.00000E+00
 -1      2615 1.45350E+01 6.60425E+00 0.00000E+00
 -1      2616 6.40575E+00 7.49481E+00 0.00000E+00
 -1      2617 1.30820E+02 3.50722E+01 0.00000E+00
 -1      2618 1.25236E+02 3.91143E+01 0.00000E+00
 -1      2619 1.17523E+02 1.79712E+01 0.00000E+00
 -1      2620 1.28723E+02 1.94401E+01 0.00000E+00
 -1      2621 1.28934E+02 2.01932E+01 0.00000E+00
 -1      2622 1.29804E+02 2.00056E+01 0.00000E+00
 -1      2623 1.20747E+02 3.95248E+01 0.00000E+00
 -1      2624 1.32959E+02 3.25563E+01 0.00000E+00
 -1      2625 1.32071E+02 3.29536E+01 0.00000E+00
 -1      2626 1.32425E+02 3.37545E+01 0.00000E+00
 -1      2627 1.31879E+02 2.39436E+01 0.00000E+00
 -1      2628 1.32750E+02 2.41302E+01 0.00000E+00
 -1      2629 1.31976E+02 2.31537E+01 0.00000E+00
 -1      2630 1.33032E+02 2.84083E+01 0.00000E+00
 -1      2631 1.43586E+02 6.56853E+00 0.00000E+00
 -1      2632 1.43419E+02 7.72713E+00 0.00000E+00
 -1      2633 1.30559E+02 2.18629E+01 0.00000E+00
 -1      2634 1.42758E+02 4.35929E+01 0.00000E+00
 -1      2635 1.43241E+02 4.17323E+01 0.00000E+00
 -1      2636 1.41942E+02 4.09948E+01 0.00000E+00
 -1      2637 1.41414E+02 4.35342E+01 0.00000E+00
 -1      2638 1.27557E+02 3.80907E+01 0.00000E+00
 -1      2639 1.27310E+02 3.90504E+01 0.00000E+00
 -1      2640 1.28457E+02 3.83080E+01 0.00000E+00
 -1      2641 1.32722E+02 3.06479E+01 0.00000E+00
 -1      2642 7.70475E+00 8.23231E+00 0.00000E+00
 -1      2643 1.32938E+02 2.60981E+01 0.00000E+00
 -1      2644 6.52725E+00 3.87101E+01 0.00000E+00
 -1      2645 6.52725E+00 4.01789E+01 0.00000E+00
 -1      2646 7.89075E+00 4.04429E+01 0.00000E+00
 -1      2647 7.82625E+00 3.79726E+01 0.00000E+00
 -1      2648 1.11110E+02 3.02098E+01 0.00000E+00
 -1      2649 1.11505E+02 2.55221E+01 0.00000E+00
 -1      2650 1.10923E+02 2.47341E+01 0.00000E+00
 -1      2651 1.10855E+02 2.60222E+01 0.00000E+00
 -1      2652 1.12069E+02 2.31048E+01 0.00000E+00
 -1      2653 1.12583E+02 3.47146E+01 0.00000E+00
 -1      2654 1.11248E+02 2.79528E+01 0.00000E+00
 -1      2655 1.10780E+02 2.72999E+01 0.00000E+00
 -1      2656 1.10592E+02 2.84424E+01 0.00000E+00
 -1      2657 1.13498E+02 2.10357E+01 0.00000E+00
 -1      2658 1.15405E+02 1.93089E+01 0.00000E+00
 -1      2659 1.19958E+02 1.70364E+01 0.00000E+00
 -1      2660 1.26606E+02 1.79824E+01 0.00000E+00
 -1      2661 1.26840E+02 1.88881E+01 0.00000E+00
 -1      2662 1.27618E+02 1.87220E+01 0.00000E+00
 -1      2663 1.42120E+02 8.46463E+00 0.00000E+00
 -1      2664 1.40664E+02 4.22352E+01 0.00000E+00
 -1      2665 1.22297E+02 1.66575E+01 0.00000E+00
 -1      2666 1.22988E+02 1.76485E+01 0.00000E+00
 -1      2667 9.09300E+00 1.98250E+01 0.00000E+00
 -1      2668 9.09300E+00 2.12750E+01 0.00000E+00
 -1      2669 9.09300E+00 2.27500E+01 0.00000E+00
 -1      2670 9.09300E+00 2.42250E+01 0.00000E+00
 -1      2671 1.03920E+01 2.20250E+01 0.00000E+00
 -1      2672 9.09300E+00 1.39375E+01 0.00000E+00
 -1      2673 9.09300E+00 1.54125E+01 0.00000E+00
 -1      2674 9.09300E+00 1.09875E+01 0.00000E+00
 -1      2675 9.09300E+00 1.24625E+01 0.00000E+00
 -1      2676 1.03920E+01 1.32000E+01 0.00000E+00
 -1      2677 1.22850E+01 7.90325E+00 0.00000E+00
 -1      2678 1.07850E+01 7.90325E+00 0.00000E+00
 -1      2679 1.33792E+02 2.52681E+01 0.00000E+00
 -1      2680 1.34077E+02 2.64460E+01 0.00000E+00
 -1      2681 1.24887E+02 1.68020E+01 0.00000E+00
 -1      2682 1.25730E+02 1.71103E+01 0.00000E+00
 -1      2683 1.23744E+02 1.70972E+01 0.00000E+00
 -1      2684 1.44000E+01 4.09070E+01 0.00000E+00
 -1      2685 1.59000E+01 4.09070E+01 0.00000E+00
 -1      2686 1.74000E+01 4.09070E+01 0.00000E+00
 -1      2687 1.89000E+01 4.09070E+01 0.00000E+00
 -1      2688 1.66500E+01 3.96080E+01 0.00000E+00
 -1      2689 2.04000E+01 4.09070E+01 0.00000E+00
 -1      2690 2.19000E+01 4.09070E+01 0.00000E+00
 -1      2691 1.96500E+01 3.96080E+01 0.00000E+00
 -1      2692 2.34000E+01 4.09070E+01 0.00000E+00
 -1      2693 2.49000E+01 4.09070E+01 0.00000E+00
 -1      2694 2.26500E+01 3.96080E+01 0.00000E+00
 -1      2695 2.64000E+01 4.09070E+01 0.00000E+00
 -1      2696 2.79000E+01 4.09070E+01 0.00000E+00
 -1      2697 2.56500E+01 3.96080E+01 0.00000E+00
 -1      2698 2.94000E+01 4.09070E+01 0.00000E+00
 -1      2699 3.09000E+01 4.09070E+01 0.00000E+00
 -1      2700 2.86500E+01 3.96080E+01 0.00000E+00
 -1      2701 3.24000E+01 4.09070E+01 0.00000E+00
 -1      2702 3.39000E+01 4.09070E+01 0.00000E+00
 -1      2703 3.16500E+01 3.96080E+01 0.00000E+00
 -1      2704 3.54000E+01 4.09070E+01 0.00000E+00
 -1      2705 3.69000E+01 4.09070E+01 0.00000E+00
 -1      2706 3.46500E+01 3.96080E+01 0.00000E+00
 -1      2707 3.84000E+01 4.09070E+01 0.00000E+00
 -1      2708 3.99000E+01 4.09070E+01 0.00000E+00
 -1      2709 3.76500E+01 3.96080E+01 0.00000E+00
 -1      2710 4.14000E+01 4.09070E+01 0.00000E+00
 -1      2711 4.29000E+01 4.09070E+01 0.00000E+00
 -1      2712 4.06500E+01 3.96080E+01 0.00000E+00
 -1      2713 4.44000E+01 4.09070E+01 0.00000E+00
 -1      2714 4.59000E+01 4.09070E+01 0.00000E+00
 -1      2715 4.36500E+01 3.96080E+01 0.00000E+00
 -1      2716 4.74000E+01 4.09070E+01 0.00000E+00
 -1      2717 4.89000E+01 4.09070E+01 0.00000E+00
 -1      2718 4.66500E+01 3.96080E+01 0.00000E+00
 -1      2719 5.04000E+01 4.09070E+01 0.00000E+00
 -1      2720 5.19000E+01 4.09070E+01 0.00000E+00
 -1      2721 4.96500E+01 3.96080E+01 0.00000E+00
 -1      2722 5.34000E+01 4.09070E+01 0.00000E+00
 -1      2723 5.49000E+01 4.09070E+01 0.00000E+00
 -1      2724 5.26500E+01 3.96080E+01 0.00000E+00
 -1      2725 5.64000E+01 4.09070E+01 0.00000E+00
 -1      2726 5.79000E+01 4.09070E+01 0.00000E+00
 -1      2727 5.56500E+01 3.96080E+01 0.00000E+00
 -1      2728 5.94000E+01 4.09070E+01 0.00000E+00
 -1      2729 6.09000E+01 4.09070E+01 0.00000E+00
 -1      2730 5.86500E+01 3.96080E+01 0.00000E+00
 -1      2731 6.24000E+01 4.09070E+01 0.00000E+00
 -1      2732 6.39000E+01 4.09070E+01 0.00000E+00
 -1      2733 6.16500E+01 3.96080E+01 0.00000E+00
 -1      2734 6.54000E+01 4.09070E+01 0.00000E+00
 -1      2735 6.69000E+01 4.09070E+01 0.00000E+00
 -1      2736 6.46500E+01 3.96080E+01 0.00000E+00
 -1      2737 6.84000E+01 4.09070E+01 0.00000E+00
 -1      2738 6.99000E+01 4.09070E+01 0.00000E+00
 -1      2739 6.76500E+01 3.96080E+01 0.00000E+00
 -1      2740 7.14000E+01 4.09070E+01 0.00000E+00
 -1      2741 7.29000E+01 4.09070E+01 0.00000E+00
 -1      2742 7.06500E+01 3.96080E+01 0.00000E+00
 -1      2743 7.44000E+01 4.09070E+01 0.00000E+00
 -1      2744 7.59000E+01 4.09070E+01 0.00000E+00
 -1      2745 7.36500E+01 3.96080E+01 0.00000E+00
 -1      2746 7.74000E+01 4.09070E+01 0.00000E+00
 -1      2747 7.89000E+01 4.09070E+01 0.00000E+00
 -1      2748 7.66500E+01 3.96080E+01 0.00000E+00
 -1      2749 8.04000E+01 4.09070E+01 0.00000E+00
 -1      2750 8.19000E+01 4.09070E+01 0.00000E+00
 -1      2751 7.96500E+01 3.96080E+01 0.00000E+00
 -1      2752 8.34000E+01 4.09070E+01 0.00000E+00
 -1      2753 8.49000E+01 4.09070E+01 0.00000E+00
 -1      2754 8.26500E+01 3.96080E+01 0.00000E+00
 -1      2755 8.64000E+01 4.09070E+01 0.00000E+00
 -1      2756 8.79000E+01 4.09070E+01 0.00000E+00
 -1      2757 8.56500E+01 3.96080E+01 0.00000E+00
 -1      2758 8.94000E+01 4.09070E+01 0.00000E+00
 -1      2759 9.09000E+01 4.09070E+01 0.00000E+00
 -1      2760 8.86500E+01 3.96080E+01 0.00000E+00
 -1      2761 9.24000E+01 4.09070E+01 0.00000E+00
 -1      2762 9.39000E+01 4.09070E+01 0.00000E+00
 -1      2763 9.16500E+01 3.96080E+01 0.00000E+00
 -1      2764 9.54000E+01 4.09070E+01 0.00000E+00
 -1      2765 9.69000E+01 4.09070E+01 0.00000E+00
 -1      2766 9.46500E+01 3.96080E+01 0.00000E+00
 -1      2767 9.84000E+01 4.09070E+01 0.00000E+00
 -1      2768 9.99000E+01 4.09070E+01 0.00000E+00
 -1      2769 9.76500E+01 3.96080E+01 0.00000E+00
 -1      2770 1.01400E+02 4.09070E+01 0.00000E+00
 -1      2771 1.02900E+02 4.09070E+01 0.00000E+00
 -1      2772 1.00650E+02 3.96080E+01 0.00000E+00
 -1      2773 1.04400E+02 4.09070E+01 0.00000E+00
 -1      2774 1.05900E+02 4.09070E+01 0.00000E+00
 -1      2775 1.03650E+02 3.96080E+01 0.00000E+00
 -1      2776 1.07400E+02 4.09070E+01 0.00000E+00
 -1      2777 1.08900E+02 4.09070E+01 0.00000E+00
 -1      2778 1.06650E+02 3.96080E+01 0.00000E+00
 -1      2779 1.10400E+02 4.09070E+01 0.00000E+00
 -1      2780 1.11900E+02 4.09070E+01 0.00000E+00
 -1      2781 1.09650E+02 3.96080E+01 0.00000E+00
 -1      2782 1.19058E+02 4.07168E+01 0.00000E+00
 -1      2783 1.20558E+02 4.07168E+01 0.00000E+00
 -1      2784 1.25530E+02 4.05195E+01 0.00000E+00
 -1      2785 1.27030E+02 4.05195E+01 0.00000E+00
 -1      2786 1.31400E+02 4.09070E+01 0.00000E+00
 -1      2787 1.32900E+02 4.09070E+01 0.00000E+00
 -1      2788 1.34400E+02 4.09070E+01 0.00000E+00
 -1      2789 1.35900E+02 4.09070E+01 0.00000E+00
 -1      2790 1.33650E+02 3.96080E+01 0.00000E+00
 -1      2791 1.37400E+02 4.09070E+01 0.00000E+00
 -1      2792 1.38900E+02 4.09070E+01 0.00000E+00
 -1      2793 1.36650E+02 3.96080E+01 0.00000E+00
 -1      2794 2.12850E+01 7.90325E+00 0.00000E+00
 -1      2795 1.97850E+01 7.90325E+00 0.00000E+00
 -1      2796 3.02850E+01 7.90325E+00 0.00000E+00
 -1      2797 2.87850E+01 7.90325E+00 0.00000E+00
 -1      2798 3.32850E+01 7.90325E+00 0.00000E+00
 -1      2799 3.17850E+01 7.90325E+00 0.00000E+00
 -1      2800 3.10350E+01 9.20225E+00 0.00000E+00
 -1      2801 3.62850E+01 7.90325E+00 0.00000E+00
 -1      2802 3.47850E+01 7.90325E+00 0.00000E+00
 -1      2803 3.40350E+01 9.20225E+00 0.00000E+00
 -1      2804 3.92850E+01 7.90325E+00 0.00000E+00
 -1      2805 3.77850E+01 7.90325E+00 0.00000E+00
 -1      2806 3.70350E+01 9.20225E+00 0.00000E+00
 -1      2807 4.22850E+01 7.90325E+00 0.00000E+00
 -1      2808 4.07850E+01 7.90325E+00 0.00000E+00
 -1      2809 4.00350E+01 9.20225E+00 0.00000E+00
 -1      2810 4.52850E+01 7.90325E+00 0.00000E+00
 -1      2811 4.37850E+01 7.90325E+00 0.00000E+00
 -1      2812 4.30350E+01 9.20225E+00 0.00000E+00
 -1      2813 4.82850E+01 7.90325E+00 0.00000E+00
 -1      2814 4.67850E+01 7.90325E+00 0.00000E+00
 -1      2815 4.60350E+01 9.20225E+00 0.00000E+00
 -1      2816 5.12850E+01 7.90325E+00 0.00000E+00
 -1      2817 4.97850E+01 7.90325E+00 0.00000E+00
 -1      2818 4.90350E+01 9.20225E+00 0.00000E+00
 -1      2819 5.42850E+01 7.90325E+00 0.00000E+00
 -1      2820 5.27850E+01 7.90325E+00 0.00000E+00
 -1      2821 5.20350E+01 9.20225E+00 0.00000E+00
 -1      2822 5.72850E+01 7.90325E+00 0.00000E+00
 -1      2823 5.57850E+01 7.90325E+00 0.00000E+00
 -1      2824 5.50350E+01 9.20225E+00 0.00000E+00
 -1      2825 6.02850E+01 7.90325E+00 0.00000E+00
 -1      2826 5.87850E+01 7.90325E+00 0.00000E+00
 -1      2827 5.80350E+01 9.20225E+00 0.00000E+00
 -1      2828 6.32850E+01 7.90325E+00 0.00000E+00
 -1      2829 6.17850E+01 7.90325E+00 0.00000E+00
 -1      2830 6.10350E+01 9.20225E+00 0.00000E+00
 -1      2831 6.62850E+01 7.90325E+00 0.00000E+00
 -1      2832 6.47850E+01 7.90325E+00 0.00000E+00
 -1      2833 6.40350E+01 9.20225E+00 0.00000E+00
 -1      2834 6.92850E+01 7.90325E+00 0.00000E+00
 -1      2835 6.77850E+01 7.90325E+00 0.00000E+00
 -1      2836 6.70350E+01 9.20225E+00 0.00000E+00
 -1      2837 7.22850E+01 7.90325E+00 0.00000E+00
 -1      2838 7.07850E+01 7.90325E+00 0.00000E+00
 -1      2839 7.00350E+01 9.20225E+00 0.00000E+00
 -1      2840 7.52850E+01 7.90325E+00 0.00000E+00
 -1      2841 7.37850E+01 7.90325E+00 0.00000E+00
 -1      2842 7.30350E+01 9.20225E+00 0.00000E+00
 -1      2843 7.82850E+01 7.90325E+00 0.00000E+00
 -1      2844 7.67850E+01 7.90325E+00 0.00000E+00
 -1      2845 7.60350E+01 9.20225E+00 0.00000E+00
 -1      2846 8.12850E+01 7.90325E+00 0.00000E+00
 -1      2847 7.97850E+01 7.90325E+00 0.00000E+00
 -1      2848 7.90350E+01 9.20225E+00 0.00000E+00
 -1      2849 8.42850E+01 7.90325E+00 0.00000E+00
 -1      2850 8.27850E+01 7.90325E+00 0.00000E+00
 -1      2851 8.20350E+01 9.20225E+00 0.00000E+00
 -1      2852 8.72850E+01 7.90325E+00 0.00000E+00
 -1      2853 8.57850E+01 7.90325E+00 0.00000E+00
 -1      2854 8.50350E+01 9.20225E+00 0.00000E+00
 -1      2855 9.02850E+01 7.90325E+00 0.00000E+00
 -1      2856 8.87850E+01 7.90325E+00 0.00000E+00
 -1      2857 8.80350E+01 9.20225E+00 0.00000E+00
 -1      2858 9.32850E+01 7.90325E+00 0.00000E+00
 -1      2859 9.17850E+01 7.90325E+00 0.00000E+00
 -1      2860 9.10350E+01 9.20225E+00 0.00000E+00
 -1      2861 9.62850E+01 7.90325E+00 0.00000E+00
 -1      2862 9.47850E+01 7.90325E+00 0.00000E+00
 -1      2863 9.40350E+01 9.20225E+00 0.00000E+00
 -1      2864 9.92850E+01 7.90325E+00 0.00000E+00
 -1      2865 9.77850E+01 7.90325E+00 0.00000E+00
 -1      2866 9.70350E+01 9.20225E+00 0.00000E+00
 -1      2867 1.02285E+02 7.90325E+00 0.00000E+00
 -1      2868 1.00785E+02 7.90325E+00 0.00000E+00
 -1      2869 1.00035E+02 9.20225E+00 0.00000E+00
 -1      2870 1.05285E+02 7.90325E+00 0.00000E+00
 -1      2871 1.03785E+02 7.90325E+00 0.00000E+00
 -1      2872 1.03035E+02 9.20225E+00 0.00000E+00
 -1      2873 1.08285E+02 7.90325E+00 0.00000E+00
 -1      2874 1.06785E+02 7.90325E+00 0.00000E+00
 -1      2875 1.06035E+02 9.20225E+00 0.00000E+00
 -1      2876 1.11285E+02 7.90325E+00 0.00000E+00
 -1      2877 1.09785E+02 7.90325E+00 0.00000E+00
 -1      2878 1.09035E+02 9.20225E+00 0.00000E+00
 -1      2879 1.14285E+02 7.90325E+00 0.00000E+00
 -1      2880 1.12785E+02 7.90325E+00 0.00000E+00
 -1      2881 1.12035E+02 9.20225E+00 0.00000E+00
 -1      2882 1.17285E+02 7.90325E+00 0.00000E+00
 -1      2883 1.15785E+02 7.90325E+00 0.00000E+00
 -1      2884 1.15035E+02 9.20225E+00 0.00000E+00
 -1      2885 1.20285E+02 7.90325E+00 0.00000E+00
 -1      2886 1.18785E+02 7.90325E+00 0.00000E+00
 -1      2887 1.18035E+02 9.20225E+00 0.00000E+00
 -1      2888 1.23285E+02 7.90325E+00 0.00000E+00
 -1      2889 1.21785E+02 7.90325E+00 0.00000E+00
 -1      2890 1.21035E+02 9.20225E+00 0.00000E+00
 -1      2891 1.26285E+02 7.90325E+00 0.00000E+00
 -1      2892 1.24785E+02 7.90325E+00 0.00000E+00
 -1      2893 1.24035E+02 9.20225E+00 0.00000E+00
 -1      2894 1.29285E+02 7.90325E+00 0.00000E+00
 -1      2895 1.27785E+02 7.90325E+00 0.00000E+00
 -1      2896 1.27035E+02 9.20225E+00 0.00000E+00
 -1      2897 1.32285E+02 7.90325E+00 0.00000E+00
 -1      2898 1.30785E+02 7.90325E+00 0.00000E+00
 -1      2899 1.30035E+02 9.20225E+00 0.00000E+00
 -1      2900 1.35285E+02 7.90325E+00 0.00000E+00
 -1      2901 1.33785E+02 7.90325E+00 0.00000E+00
 -1      2902 1.33035E+02 9.20225E+00 0.00000E+00
 -1      2903 1.38285E+02 7.90325E+00 0.00000E+00
 -1      2904 1.36785E+02 7.90325E+00 0.00000E+00
 -1      2905 1.36035E+02 9.20225E+00 0.00000E+00
 -1      2906 1.40953E+02 8.18394E+00 0.00000E+00
 -1      2907 1.39453E+02 8.18394E+00 0.00000E+00
 -1      2908 1.38703E+02 9.48294E+00 0.00000E+00
 -1      2909 1.41038E+02 1.00443E+01 0.00000E+00
 -1      2910 1.40907E+02 2.42875E+01 0.00000E+00
 -1      2911 1.40907E+02 2.28125E+01 0.00000E+00
 -1      2912 1.39914E+02 4.09362E+01 0.00000E+00
 -1      2913 1.40928E+02 4.09655E+01 0.00000E+00
 -1      2914 1.39164E+02 3.96372E+01 0.00000E+00
 -1      2915 1.40907E+02 1.83875E+01 0.00000E+00
 -1      2916 1.40907E+02 1.69125E+01 0.00000E+00
 -1      2917 1.40907E+02 2.72375E+01 0.00000E+00
 -1      2918 1.40907E+02 2.57625E+01 0.00000E+00
 -1      2919 1.39608E+02 2.50250E+01 0.00000E+00
 -1      2920 1.40907E+02 2.13375E+01 0.00000E+00
 -1      2921 1.40907E+02 1.98625E+01 0.00000E+00
 -1      2922 1.39608E+02 1.91250E+01 0.00000E+00
 -1      2923 1.39608E+02 2.20750E+01 0.00000E+00
 -1      2924 1.21777E+02 1.57974E+01 0.00000E+00
 -1      2925 1.22826E+02 1.58025E+01 0.00000E+00
 -1      2926 1.40907E+02 3.01375E+01 0.00000E+00
 -1      2927 1.40907E+02 2.86875E+01 0.00000E+00
 -1      2928 1.39608E+02 2.79500E+01 0.00000E+00
 -1      2929 1.40907E+02 3.30875E+01 0.00000E+00
 -1      2930 1.40907E+02 3.16125E+01 0.00000E+00
 -1      2931 1.39608E+02 3.08750E+01 0.00000E+00
 -1      2932 1.40907E+02 3.60375E+01 0.00000E+00
 -1      2933 1.40907E+02 3.45625E+01 0.00000E+00
 -1      2934 1.39608E+02 3.38250E+01 0.00000E+00
 -1      2935 1.82850E+01 7.90325E+00 0.00000E+00
 -1      2936 1.67850E+01 7.90325E+00 0.00000E+00
 -1      2937 1.90350E+01 9.20225E+00 0.00000E+00
 -1      2938 1.10780E+02 3.32160E+01 0.00000E+00
 -1      2939 1.10436E+02 3.21471E+01 0.00000E+00
 -1      2940 1.41192E+02 3.96958E+01 0.00000E+00
 -1      2941 1.34056E+02 2.79990E+01 0.00000E+00
 -1      2942 1.33864E+02 2.91313E+01 0.00000E+00
 -1      2943 8.91450E+00 8.42712E+00 0.00000E+00
 -1      2944 9.25425E+00 4.07069E+01 0.00000E+00
 -1      2945 1.06178E+01 4.09709E+01 0.00000E+00
 -1      2946 9.22200E+00 3.94717E+01 0.00000E+00
 -1      2947 1.24356E+02 4.08008E+01 0.00000E+00
 -1      2948 1.18419E+02 3.93421E+01 0.00000E+00
 -1      2949 1.17907E+02 3.85495E+01 0.00000E+00
 -1      2950 1.31131E+02 2.08945E+01 0.00000E+00
 -1      2951 1.31676E+02 2.19986E+01 0.00000E+00
 -1      2952 1.10959E+02 2.32910E+01 0.00000E+00
 -1      2953 1.11455E+02 2.21618E+01 0.00000E+00
 -1      2954 2.72850E+01 7.90325E+00 0.00000E+00
 -1      2955 2.57850E+01 7.90325E+00 0.00000E+00
 -1      2956 2.80350E+01 9.20225E+00 0.00000E+00
 -1      2957 2.42850E+01 7.90325E+00 0.00000E+00
 -1      2958 2.27850E+01 7.90325E+00 0.00000E+00
 -1      2959 2.50350E+01 9.20225E+00 0.00000E+00
 -1      2960 1.17589E+01 4.09389E+01 0.00000E+00
 -1      2961 1.32589E+01 4.09389E+01 0.00000E+00
 -1      2962 1.40089E+01 3.96399E+01 0.00000E+00
 -1      2963 1.17266E+01 3.97038E+01 0.00000E+00
 -1      2964 1.52850E+01 7.90325E+00 0.00000E+00
 -1      2965 1.37850E+01 7.90325E+00 0.00000E+00
 -1      2966 1.30350E+01 9.20225E+00 0.00000E+00
 -1      2967 1.60350E+01 9.20225E+00 0.00000E+00
 -1      2968 9.09300E+00 1.68813E+01 0.00000E+00
 -1      2969 9.09300E+00 1.83563E+01 0.00000E+00
 -1      2970 1.03920E+01 1.90812E+01 0.00000E+00
 -1      2971 1.03920E+01 1.61437E+01 0.00000E+00
 -1      2972 1.19044E+02 1.63263E+01 0.00000E+00
 -1      2973 1.20335E+02 1.59422E+01 0.00000E+00
 -1      2974 9.09300E+00 3.15875E+01 0.00000E+00
 -1      2975 9.09300E+00 3.30625E+01 0.00000E+00
 -1      2976 1.31855E+02 3.51393E+01 0.00000E+00
 -1      2977 1.31137E+02 3.60597E+01 0.00000E+00
 -1      2978 1.14274E+02 1.89054E+01 0.00000E+00
 -1      2979 1.15247E+02 1.81185E+01 0.00000E+00
 -1      2980 1.12067E+02 3.58597E+01 0.00000E+00
 -1      2981 1.11332E+02 3.46073E+01 0.00000E+00
 -1      2982 1.12304E+02 2.07830E+01 0.00000E+00
 -1      2983 1.13238E+02 1.98432E+01 0.00000E+00
 -1      2984 1.16542E+02 1.73983E+01 0.00000E+00
 -1      2985 1.17687E+02 1.68476E+01 0.00000E+00
 -1      2986 1.15405E+02 3.88843E+01 0.00000E+00
 -1      2987 1.14624E+02 3.82638E+01 0.00000E+00
 -1      2988 1.13848E+02 3.76719E+01 0.00000E+00
 -1      2989 1.13072E+02 3.70800E+01 0.00000E+00
 -1      2990 1.13601E+02 3.87849E+01 0.00000E+00
 -1      2991 1.16903E+02 3.89242E+01 0.00000E+00
 -1      2992 1.33746E+02 3.02386E+01 0.00000E+00
 -1      2993 1.33628E+02 3.13460E+01 0.00000E+00
 -1      2994 1.34770E+02 2.98294E+01 0.00000E+00
 -1      2995 1.10111E+02 3.08132E+01 0.00000E+00
 -1      2996 1.10061E+02 2.96987E+01 0.00000E+00
 -1      2997 1.30408E+02 3.70072E+01 0.00000E+00
 -1      2998 1.29709E+02 3.76851E+01 0.00000E+00
 -1      2999 1.21839E+02 4.10141E+01 0.00000E+00
 -1      3000 1.18011E+02 4.08313E+01 0.00000E+00
 -1      3001 1.16511E+02 4.08313E+01 0.00000E+00
 -1      3002 1.23339E+02 4.10141E+01 0.00000E+00
 -1      3003 1.20863E+02 1.50872E+01 0.00000E+00
 -1      3004 1.03920E+01 2.49750E+01 0.00000E+00
 -1      3005 9.09300E+00 2.57000E+01 0.00000E+00
 -1      3006 9.09300E+00 2.71750E+01 0.00000E+00
 -1      3007 1.34910E+02 2.71690E+01 0.00000E+00
 -1      3008 1.26508E+02 1.69442E+01 0.00000E+00
 -1      3009 9.09300E+00 3.45313E+01 0.00000E+00
 -1      3010 9.09300E+00 3.60000E+01 0.00000E+00
 -1      3011 1.03920E+01 3.37938E+01 0.00000E+00
 -1      3012 1.24489E+02 1.63673E+01 0.00000E+00
 -1      3013 1.28489E+02 1.85344E+01 0.00000E+00
 -1      3014 1.29360E+02 1.83468E+01 0.00000E+00
 -1      3015 1.28255E+02 1.76288E+01 0.00000E+00
 -1      3016 1.33983E+02 3.21470E+01 0.00000E+00
 -1      3017 1.32548E+02 2.21853E+01 0.00000E+00
 -1      3018 1.13513E+02 4.07914E+01 0.00000E+00
 -1      3019 1.15013E+02 4.07914E+01 0.00000E+00
 -1      3020 1.27930E+02 4.07369E+01 0.00000E+00
 -1      3021 1.39608E+02 1.61875E+01 0.00000E+00
 -1      3022 1.40907E+02 1.54500E+01 0.00000E+00
 -1      3023 1.40907E+02 1.39875E+01 0.00000E+00
 -1      3024 1.29430E+02 4.07369E+01 0.00000E+00
 -1      3025 1.09387E+02 3.16359E+01 0.00000E+00
 -1      3026 2.20350E+01 9.20225E+00 0.00000E+00
 -1      3027 1.15411E+02 1.69948E+01 0.00000E+00
 -1      3028 1.11195E+02 2.09692E+01 0.00000E+00
 -1      3029 1.11820E+02 3.69727E+01 0.00000E+00
 -1      3030 1.18064E+02 1.57533E+01 0.00000E+00
 -1      3031 1.09593E+02 2.90457E+01 0.00000E+00
 -1      3032 1.40973E+02 1.27472E+01 0.00000E+00
 -1      3033 1.40973E+02 1.12847E+01 0.00000E+00
 -1      3034 1.39805E+02 1.10040E+01 0.00000E+00
 -1      3035 1.39674E+02 1.34847E+01 0.00000E+00
 -1      3036 1.41192E+02 3.82207E+01 0.00000E+00
 -1      3037 1.10309E+02 2.37911E+01 0.00000E+00
 -1      3038 1.09695E+02 2.28481E+01 0.00000E+00
 -1      3039 1.09659E+02 2.42911E+01 0.00000E+00
 -1      3040 1.29462E+02 3.86448E+01 0.00000E+00
 -1      3041 1.10264E+02 3.43611E+01 0.00000E+00
 -1      3042 9.66450E+00 9.72612E+00 0.00000E+00
 -1      3043 1.30921E+02 2.01414E+01 0.00000E+00
 -1      3044 1.32037E+02 2.02771E+01 0.00000E+00
 -1      3045 1.30710E+02 1.93882E+01 0.00000E+00
 -1      3046 1.10198E+02 2.65118E+01 0.00000E+00
 -1      3047 1.09617E+02 2.57237E+01 0.00000E+00
 -1      3048 1.09542E+02 2.70014E+01 0.00000E+00
 -1      3049 1.15875E+02 3.94168E+01 0.00000E+00
 -1      3050 1.33631E+02 3.43447E+01 0.00000E+00
 -1      3051 1.32743E+02 3.47420E+01 0.00000E+00
 -1      3052 1.33060E+02 3.57295E+01 0.00000E+00
 -1      3053 1.13080E+02 1.86528E+01 0.00000E+00
 -1      3054 1.33889E+02 2.44782E+01 0.00000E+00
 -1      3055 1.35028E+02 2.48261E+01 0.00000E+00
 -1      3056 1.33986E+02 2.36883E+01 0.00000E+00
 -1      3057 9.09300E+00 2.86437E+01 0.00000E+00
 -1      3058 9.09300E+00 3.01187E+01 0.00000E+00
 -1      3059 1.03920E+01 3.08563E+01 0.00000E+00
 -1      3060 1.03920E+01 2.79188E+01 0.00000E+00
 -1      3061 1.09635E+01 1.04636E+01 0.00000E+00
 -1      3062 1.23969E+02 1.55072E+01 0.00000E+00
 -1      3063 1.25111E+02 1.52120E+01 0.00000E+00
 -1      3064 1.23448E+02 1.46471E+01 0.00000E+00
 -1      3065 1.31443E+02 3.70744E+01 0.00000E+00
 -1      3066 1.39529E+02 3.85602E+01 0.00000E+00
 -1      3067 1.40542E+02 3.71145E+01 0.00000E+00
 -1      3068 1.39243E+02 3.63770E+01 0.00000E+00
 -1      3069 1.38514E+02 3.85310E+01 0.00000E+00
 -1      3070 1.16910E+01 1.24625E+01 0.00000E+00
 -1      3071 1.16910E+01 1.39375E+01 0.00000E+00
 -1      3072 1.35945E+02 2.64067E+01 0.00000E+00
 -1      3073 1.35924E+02 2.79596E+01 0.00000E+00
 -1      3074 1.12763E+02 3.94924E+01 0.00000E+00
 -1      3075 1.89000E+01 3.83090E+01 0.00000E+00
 -1      3076 2.04000E+01 3.83090E+01 0.00000E+00
 -1      3077 2.19000E+01 3.83090E+01 0.00000E+00
 -1      3078 2.34000E+01 3.83090E+01 0.00000E+00
 -1      3079 2.11500E+01 3.70100E+01 0.00000E+00
 -1      3080 2.49000E+01 3.83090E+01 0.00000E+00
 -1      3081 2.64000E+01 3.83090E+01 0.00000E+00
 -1      3082 2.41500E+01 3.70100E+01 0.00000E+00
 -1      3083 2.79000E+01 3.83090E+01 0.00000E+00
 -1      3084 2.94000E+01 3.83090E+01 0.00000E+00
 -1      3085 2.71500E+01 3.70100E+01 0.00000E+00
 -1      3086 3.09000E+01 3.83090E+01 0.00000E+00
 -1      3087 3.24000E+01 3.83090E+01 0.00000E+00
 -1      3088 3.01500E+01 3.70100E+01 0.00000E+00
 -1      3089 3.39000E+01 3.83090E+01 0.00000E+00
 -1      3090 3.54000E+01 3.83090E+01 0.00000E+00
 -1      3091 3.31500E+01 3.70100E+01 0.00000E+00
 -1      3092 3.69000E+01 3.83090E+01 0.00000E+00
 -1      3093 3.84000E+01 3.83090E+01 0.00000E+00
 -1      3094 3.61500E+01 3.70100E+01 0.00000E+00
 -1      3095 3.99000E+01 3.83090E+01 0.00000E+00
 -1      3096 4.14000E+01 3.83090E+01 0.00000E+00
 -1      3097 3.91500E+01 3.70100E+01 0.00000E+00
 -1      3098 4.29000E+01 3.83090E+01 0.00000E+00
 -1      3099 4.44000E+01 3.83090E+01 0.00000E+00
 -1      3100 4.21500E+01 3.70100E+01 0.00000E+00
 -1      3101 4.59000E+01 3.83090E+01 0.00000E+00
 -1      3102 4.74000E+01 3.83090E+01 0.00000E+00
 -1      3103 4.51500E+01 3.70100E+01 0.00000E+00
 -1      3104 4.89000E+01 3.83090E+01 0.00000E+00
 -1      3105 5.04000E+01 3.83090E+01 0.00000E+00
 -1      3106 4.81500E+01 3.70100E+01 0.00000E+00
 -1      3107 5.19000E+01 3.83090E+01 0.00000E+00
 -1      3108 5.34000E+01 3.83090E+01 0.00000E+00
 -1      3109 5.11500E+01 3.70100E+01 0.00000E+00
 -1      3110 5.49000E+01 3.83090E+01 0.00000E+00
 -1      3111 5.64000E+01 3.83090E+01 0.00000E+00
 -1      3112 5.41500E+01 3.70100E+01 0.00000E+00
 -1      3113 5.79000E+01 3.83090E+01 0.00000E+00
 -1      3114 5.94000E+01 3.83090E+01 0.00000E+00
 -1      3115 5.71500E+01 3.70100E+01 0.00000E+00
 -1      3116 6.09000E+01 3.83090E+01 0.00000E+00
 -1      3117 6.24000E+01 3.83090E+01 0.00000E+00
 -1      3118 6.01500E+01 3.70100E+01 0.00000E+00
 -1      3119 6.39000E+01 3.83090E+01 0.00000E+00
 -1      3120 6.54000E+01 3.83090E+01 0.00000E+00
 -1      3121 6.31500E+01 3.70100E+01 0.00000E+00
 -1      3122 6.69000E+01 3.83090E+01 0.00000E+00
 -1      3123 6.84000E+01 3.83090E+01 0.00000E+00
 -1      3124 6.61500E+01 3.70100E+01 0.00000E+00
 -1      3125 6.99000E+01 3.83090E+01 0.00000E+00
 -1      3126 7.14000E+01 3.83090E+01 0.00000E+00
 -1      3127 6.91500E+01 3.70100E+01 0.00000E+00
 -1      3128 7.29000E+01 3.83090E+01 0.00000E+00
 -1      3129 7.44000E+01 3.83090E+01 0.00000E+00
 -1      3130 7.21500E+01 3.70100E+01 0.00000E+00
 -1      3131 7.59000E+01 3.83090E+01 0.00000E+00
 -1      3132 7.74000E+01 3.83090E+01 0.00000E+00
 -1      3133 7.51500E+01 3.70100E+01 0.00000E+00
 -1      3134 7.89000E+01 3.83090E+01 0.00000E+00
 -1      3135 8.04000E+01 3.83090E+01 0.00000E+00
 -1      3136 7.81500E+01 3.70100E+01 0.00000E+00
 -1      3137 8.19000E+01 3.83090E+01 0.00000E+00
 -1      3138 8.34000E+01 3.83090E+01 0.00000E+00
 -1      3139 8.11500E+01 3.70100E+01 0.00000E+00
 -1      3140 8.49000E+01 3.83090E+01 0.00000E+00
 -1      3141 8.64000E+01 3.83090E+01 0.00000E+00
 -1      3142 8.41500E+01 3.70100E+01 0.00000E+00
 -1      3143 8.79000E+01 3.83090E+01 0.00000E+00
 -1      3144 8.94000E+01 3.83090E+01 0.00000E+00
 -1      3145 8.71500E+01 3.70100E+01 0.00000E+00
 -1      3146 9.09000E+01 3.83090E+01 0.00000E+00
 -1      3147 9.24000E+01 3.83090E+01 0.00000E+00
 -1      3148 9.01500E+01 3.70100E+01 0.00000E+00
 -1      3149 9.39000E+01 3.83090E+01 0.00000E+00
 -1      3150 9.54000E+01 3.83090E+01 0.00000E+00
 -1      3151 9.31500E+01 3.70100E+01 0.00000E+00
 -1      3152 9.69000E+01 3.83090E+01 0.00000E+00
 -1      3153 9.84000E+01 3.83090E+01 0.00000E+00
 -1      3154 9.61500E+01 3.70100E+01 0.00000E+00
 -1      3155 9.99000E+01 3.83090E+01 0.00000E+00
 -1      3156 1.01400E+02 3.83090E+01 0.00000E+00
 -1      3157 9.91500E+01 3.70100E+01 0.00000E+00
 -1      3158 1.02900E+02 3.83090E+01 0.00000E+00
 -1      3159 1.04400E+02 3.83090E+01 0.00000E+00
 -1      3160 1.02150E+02 3.70100E+01 0.00000E+00
 -1      3161 1.05900E+02 3.83090E+01 0.00000E+00
 -1      3162 1.07400E+02 3.83090E+01 0.00000E+00
 -1      3163 1.05150E+02 3.70100E+01 0.00000E+00
 -1      3164 1.08554E+02 3.25455E+01 0.00000E+00
 -1      3165 1.08229E+02 3.12116E+01 0.00000E+00
 -1      3166 1.14225E+02 1.63857E+01 0.00000E+00
 -1      3167 1.15520E+02 1.56655E+01 0.00000E+00
 -1      3168 3.17850E+01 1.05013E+01 0.00000E+00
 -1      3169 3.02850E+01 1.05013E+01 0.00000E+00
 -1      3170 4.07850E+01 1.05013E+01 0.00000E+00
 -1      3171 3.92850E+01 1.05013E+01 0.00000E+00
 -1      3172 4.37850E+01 1.05013E+01 0.00000E+00
 -1      3173 4.22850E+01 1.05013E+01 0.00000E+00
 -1      3174 4.15350E+01 1.18003E+01 0.00000E+00
 -1      3175 4.67850E+01 1.05013E+01 0.00000E+00
 -1      3176 4.52850E+01 1.05013E+01 0.00000E+00
 -1      3177 4.45350E+01 1.18003E+01 0.00000E+00
 -1      3178 4.97850E+01 1.05013E+01 0.00000E+00
 -1      3179 4.82850E+01 1.05013E+01 0.00000E+00
 -1      3180 4.75350E+01 1.18003E+01 0.00000E+00
 -1      3181 5.27850E+01 1.05013E+01 0.00000E+00
 -1      3182 5.12850E+01 1.05013E+01 0.00000E+00
 -1      3183 5.05350E+01 1.18003E+01 0.00000E+00
 -1      3184 5.57850E+01 1.05013E+01 0.00000E+00
 -1      3185 5.42850E+01 1.05013E+01 0.00000E+00
 -1      3186 5.35350E+01 1.18003E+01 0.00000E+00
 -1      3187 5.87850E+01 1.05013E+01 0.00000E+00
 -1      3188 5.72850E+01 1.05013E+01 0.00000E+00
 -1      3189 5.65350E+01 1.18003E+01 0.00000E+00
 -1      3190 6.17850E+01 1.05013E+01 0.00000E+00
 -1      3191 6.02850E+01 1.05013E+01 0.00000E+00
 -1      3192 5.95350E+01 1.18003E+01 0.00000E+00
 -1      3193 6.47850E+01 1.05013E+01 0.00000E+00
 -1      3194 6.32850E+01 1.05013E+01 0.00000E+00
 -1      3195 6.25350E+01 1.18003E+01 0.00000E+00
 -1      3196 6.77850E+01 1.05013E+01 0.00000E+00
 -1      3197 6.62850E+01 1.05013E+01 0.00000E+00
 -1      3198 6.55350E+01 1.18003E+01 0.00000E+00
 -1      3199 7.07850E+01 1.05013E+01 0.00000E+00
 -1      3200 6.92850E+01 1.05013E+01 0.00000E+00
 -1      3201 6.85350E+01 1.18003E+01 0.00000E+00
 -1      3202 7.37850E+01 1.05013E+01 0.00000E+00
 -1      3203 7.22850E+01 1.05013E+01 0.00000E+00
 -1      3204 7.15350E+01 1.18003E+01 0.00000E+00
 -1      3205 7.67850E+01 1.05013E+01 0.00000E+00
 -1      3206 7.52850E+01 1.05013E+01 0.00000E+00
 -1      3207 7.45350E+01 1.18003E+01 0.00000E+00
 -1      3208 7.97850E+01 1.05013E+01 0.00000E+00
 -1      3209 7.82850E+01 1.05013E+01 0.00000E+00
 -1      3210 7.75350E+01 1.18003E+01 0.00000E+00
 -1      3211 8.27850E+01 1.05013E+01 0.00000E+00
 -1      3212 8.12850E+01 1.05013E+01 0.00000E+00
 -1      3213 8.05350E+01 1.18003E+01 0.00000E+00
 -1      3214 8.57850E+01 1.05013E+01 0.00000E+00
 -1      3215 8.42850E+01 1.05013E+01 0.00000E+00
 -1      3216 8.35350E+01 1.18003E+01 0.00000E+00
 -1      3217 8.87850E+01 1.05013E+01 0.00000E+00
 -1      3218 8.72850E+01 1.05013E+01 0.00000E+00
 -1      3219 8.65350E+01 1.18003E+01 0.00000E+00
 -1      3220 9.17850E+01 1.05013E+01 0.00000E+00
 -1      3221 9.02850E+01 1.05013E+01 0.00000E+00
 -1      3222 8.95350E+01 1.18003E+01 0.00000E+00
 -1      3223 9.47850E+01 1.05013E+01 0.00000E+00
 -1      3224 9.32850E+01 1.05013E+01 0.00000E+00
 -1      3225 9.25350E+01 1.18003E+01 0.00000E+00
 -1      3226 9.77850E+01 1.05013E+01 0.00000E+00
 -1      3227 9.62850E+01 1.05013E+01 0.00000E+00
 -1      3228 9.55350E+01 1.18003E+01 0.00000E+00
 -1      3229 1.00785E+02 1.05013E+01 0.00000E+00
 -1      3230 9.92850E+01 1.05013E+01 0.00000E+00
 -1      3231 9.85350E+01 1.18003E+01 0.00000E+00
 -1      3232 1.03785E+02 1.05013E+01 0.00000E+00
 -1      3233 1.02285E+02 1.05013E+01 0.00000E+00
 -1      3234 1.01535E+02 1.18003E+01 0.00000E+00
 -1      3235 1.06785E+02 1.05013E+01 0.00000E+00
 -1      3236 1.05285E+02 1.05013E+01 0.00000E+00
 -1      3237 1.04535E+02 1.18003E+01 0.00000E+00
 -1      3238 1.09785E+02 1.05013E+01 0.00000E+00
 -1      3239 1.08285E+02 1.05013E+01 0.00000E+00
 -1      3240 1.07535E+02 1.18003E+01 0.00000E+00
 -1      3241 1.12785E+02 1.05013E+01 0.00000E+00
 -1      3242 1.11285E+02 1.05013E+01 0.00000E+00
 -1      3243 1.10535E+02 1.18003E+01 0.00000E+00
 -1      3244 1.15785E+02 1.05013E+01 0.00000E+00
 -1      3245 1.14285E+02 1.05013E+01 0.00000E+00
 -1      3246 1.13535E+02 1.18003E+01 0.00000E+00
 -1      3247 1.18785E+02 1.05013E+01 0.00000E+00
 -1      3248 1.17285E+02 1.05013E+01 0.00000E+00
 -1      3249 1.16535E+02 1.18003E+01 0.00000E+00
 -1      3250 1.21785E+02 1.05013E+01 0.00000E+00
 -1      3251 1.20285E+02 1.05013E+01 0.00000E+00
 -1      3252 1.19535E+02 1.18003E+01 0.00000E+00
 -1      3253 1.27785E+02 1.05013E+01 0.00000E+00
 -1      3254 1.26285E+02 1.05013E+01 0.00000E+00
 -1      3255 1.30785E+02 1.05013E+01 0.00000E+00
 -1      3256 1.29285E+02 1.05013E+01 0.00000E+00
 -1      3257 1.28535E+02 1.18003E+01 0.00000E+00
 -1      3258 1.33785E+02 1.05013E+01 0.00000E+00
 -1      3259 1.32285E+02 1.05013E+01 0.00000E+00
 -1      3260 1.31535E+02 1.18003E+01 0.00000E+00
 -1      3261 1.36785E+02 1.05013E+01 0.00000E+00
 -1      3262 1.35285E+02 1.05013E+01 0.00000E+00
 -1      3263 1.34535E+02 1.18003E+01 0.00000E+00
 -1      3264 1.38879E+02 1.08930E+01 0.00000E+00
 -1      3265 1.37711E+02 1.06123E+01 0.00000E+00
 -1      3266 1.36961E+02 1.19113E+01 0.00000E+00
 -1      3267 1.38813E+02 1.21333E+01 0.00000E+00
 -1      3268 1.26488E+01 1.02017E+01 0.00000E+00
 -1      3269 1.20772E+01 1.14631E+01 0.00000E+00
 -1      3270 1.33763E+01 1.22006E+01 0.00000E+00
 -1      3271 1.41488E+01 1.02017E+01 0.00000E+00
 -1      3272 1.37367E+02 2.52681E+01 0.00000E+00
 -1      3273 1.37367E+02 2.37931E+01 0.00000E+00
 -1      3274 1.38415E+02 3.45625E+01 0.00000E+00
 -1      3275 1.38415E+02 3.30875E+01 0.00000E+00
 -1      3276 2.87850E+01 1.05013E+01 0.00000E+00
 -1      3277 2.72850E+01 1.05013E+01 0.00000E+00
 -1      3278 2.95350E+01 1.18003E+01 0.00000E+00
 -1      3279 1.97850E+01 1.05013E+01 0.00000E+00
 -1      3280 1.82850E+01 1.05013E+01 0.00000E+00
 -1      3281 1.38415E+02 3.16125E+01 0.00000E+00
 -1      3282 1.38415E+02 3.01375E+01 0.00000E+00
 -1      3283 1.37223E+02 3.23500E+01 0.00000E+00
 -1      3284 3.77850E+01 1.05013E+01 0.00000E+00
 -1      3285 3.62850E+01 1.05013E+01 0.00000E+00
 -1      3286 3.85350E+01 1.18003E+01 0.00000E+00
 -1      3287 3.47850E+01 1.05013E+01 0.00000E+00
 -1      3288 3.32850E+01 1.05013E+01 0.00000E+00
 -1      3289 3.25350E+01 1.18003E+01 0.00000E+00
 -1      3290 3.55350E+01 1.18003E+01 0.00000E+00
 -1      3291 9.14137E+00 3.71183E+01 0.00000E+00
 -1      3292 9.17362E+00 3.83534E+01 0.00000E+00
 -1      3293 1.05371E+01 3.86174E+01 0.00000E+00
 -1      3294 1.04404E+01 3.63808E+01 0.00000E+00
 -1      3295 1.26734E+02 1.58408E+01 0.00000E+00
 -1      3296 1.27610E+02 1.67130E+01 0.00000E+00
 -1      3297 1.59000E+01 3.83090E+01 0.00000E+00
 -1      3298 1.74000E+01 3.83090E+01 0.00000E+00
 -1      3299 1.81500E+01 3.70100E+01 0.00000E+00
 -1      3300 1.30180E+02 3.94379E+01 0.00000E+00
 -1      3301 2.57850E+01 1.05013E+01 0.00000E+00
 -1      3302 2.42850E+01 1.05013E+01 0.00000E+00
 -1      3303 2.65350E+01 1.18003E+01 0.00000E+00
 -1      3304 1.11762E+02 1.82375E+01 0.00000E+00
 -1      3305 1.12797E+02 1.72998E+01 0.00000E+00
 -1      3306 1.09754E+02 2.10328E+01 0.00000E+00
 -1      3307 1.10604E+02 1.96541E+01 0.00000E+00
 -1      3308 1.08460E+02 2.93075E+01 0.00000E+00
 -1      3309 1.08991E+02 2.80513E+01 0.00000E+00
 -1      3310 1.35214E+02 3.20379E+01 0.00000E+00
 -1      3311 1.34545E+02 3.32481E+01 0.00000E+00
 -1      3312 1.16988E+02 1.49788E+01 0.00000E+00
 -1      3313 1.18345E+02 1.44575E+01 0.00000E+00
 -1      3314 1.36055E+02 2.97985E+01 0.00000E+00
 -1      3315 1.35937E+02 3.09059E+01 0.00000E+00
 -1      3316 2.27850E+01 1.05013E+01 0.00000E+00
 -1      3317 2.12850E+01 1.05013E+01 0.00000E+00
 -1      3318 2.35350E+01 1.18003E+01 0.00000E+00
 -1      3319 1.20228E+02 1.35161E+01 0.00000E+00
 -1      3320 1.21670E+02 1.33713E+01 0.00000E+00
 -1      3321 1.09509E+02 3.54655E+01 0.00000E+00
 -1      3322 1.08957E+02 3.40741E+01 0.00000E+00
 -1      3323 1.33387E+02 2.13782E+01 0.00000E+00
 -1      3324 1.33686E+02 2.25332E+01 0.00000E+00
 -1      3325 1.34825E+02 2.28812E+01 0.00000E+00
 -1      3326 1.16910E+01 2.12875E+01 0.00000E+00
 -1      3327 1.16910E+01 2.27625E+01 0.00000E+00
 -1      3328 1.16910E+01 2.42375E+01 0.00000E+00
 -1      3329 1.16910E+01 2.57125E+01 0.00000E+00
 -1      3330 1.29900E+01 2.35000E+01 0.00000E+00
 -1      3331 1.32966E+02 1.98719E+01 0.00000E+00
 -1      3332 1.33176E+02 2.06250E+01 0.00000E+00
 -1      3333 1.34315E+02 2.09730E+01 0.00000E+00
 -1      3334 1.37091E+02 2.90361E+01 0.00000E+00
 -1      3335 1.16910E+01 1.54063E+01 0.00000E+00
 -1      3336 1.16910E+01 1.68750E+01 0.00000E+00
 -1      3337 1.29900E+01 1.46687E+01 0.00000E+00
 -1      3338 1.16910E+01 3.30594E+01 0.00000E+00
 -1      3339 1.16910E+01 3.45281E+01 0.00000E+00
 -1      3340 1.28481E+02 1.65254E+01 0.00000E+00
 -1      3341 1.11987E+02 3.89005E+01 0.00000E+00
 -1      3342 1.69669E+01 1.03515E+01 0.00000E+00
 -1      3343 1.54669E+01 1.03515E+01 0.00000E+00
 -1      3344 1.50806E+01 1.13509E+01 0.00000E+00
 -1      3345 1.77169E+01 1.16505E+01 0.00000E+00
 -1      3346 1.34863E+02 3.42356E+01 0.00000E+00
 -1      3347 1.31432E+02 3.88149E+01 0.00000E+00
 -1      3348 1.07799E+02 3.36498E+01 0.00000E+00
 -1      3349 1.08900E+02 3.83315E+01 0.00000E+00
 -1      3350 1.10400E+02 3.83315E+01 0.00000E+00
 -1      3351 1.15801E+02 1.43697E+01 0.00000E+00
 -1      3352 1.38309E+02 1.69188E+01 0.00000E+00
 -1      3353 1.38309E+02 1.54563E+01 0.00000E+00
 -1      3354 1.35900E+02 3.83090E+01 0.00000E+00
 -1      3355 1.37400E+02 3.83090E+01 0.00000E+00
 -1      3356 1.23228E+02 1.06373E+01 0.00000E+00
 -1      3357 1.22478E+02 1.19363E+01 0.00000E+00
 -1      3358 1.23113E+02 1.35073E+01 0.00000E+00
 -1      3359 1.24728E+02 1.06373E+01 0.00000E+00
 -1      3360 1.38309E+02 1.98687E+01 0.00000E+00
 -1      3361 1.38309E+02 1.83937E+01 0.00000E+00
 -1      3362 1.37010E+02 1.76625E+01 0.00000E+00
 -1      3363 1.10233E+02 3.64038E+01 0.00000E+00
 -1      3364 1.08926E+02 3.61168E+01 0.00000E+00
 -1      3365 1.38129E+02 3.61550E+01 0.00000E+00
 -1      3366 1.36936E+02 3.54175E+01 0.00000E+00
 -1      3367 1.16299E+01 3.74672E+01 0.00000E+00
 -1      3368 1.16783E+01 3.85855E+01 0.00000E+00
 -1      3369 1.28194E+01 3.85536E+01 0.00000E+00
 -1      3370 1.37067E+02 2.26381E+01 0.00000E+00
 -1      3371 1.37067E+02 2.11631E+01 0.00000E+00
 -1      3372 1.12906E+02 1.59704E+01 0.00000E+00
 -1      3373 2.05350E+01 1.18003E+01 0.00000E+00
 -1      3374 1.38284E+02 2.82986E+01 0.00000E+00
 -1      3375 1.38284E+02 2.68486E+01 0.00000E+00
 -1      3376 1.16910E+01 1.83469E+01 0.00000E+00
 -1      3377 1.16910E+01 1.98156E+01 0.00000E+00
 -1      3378 1.29900E+01 2.05531E+01 0.00000E+00
 -1      3379 1.29900E+01 1.76094E+01 0.00000E+00
 -1      3380 1.09003E+02 2.47807E+01 0.00000E+00
 -1      3381 1.08389E+02 2.38377E+01 0.00000E+00
 -1      3382 1.08346E+02 2.52703E+01 0.00000E+00
 -1      3383 1.08455E+02 2.20330E+01 0.00000E+00
 -1      3384 1.09104E+02 2.15329E+01 0.00000E+00
 -1      3385 1.08514E+02 2.02178E+01 0.00000E+00
 -1      3386 1.07627E+02 3.02171E+01 0.00000E+00
 -1      3387 1.07025E+02 2.92227E+01 0.00000E+00
 -1      3388 1.06793E+02 3.11267E+01 0.00000E+00
 -1      3389 1.30476E+02 1.84826E+01 0.00000E+00
 -1      3390 1.31593E+02 1.86183E+01 0.00000E+00
 -1      3391 1.30242E+02 1.75769E+01 0.00000E+00
 -1      3392 1.32900E+02 3.83315E+01 0.00000E+00
 -1      3393 1.34400E+02 3.83315E+01 0.00000E+00
 -1      3394 1.08410E+02 2.72632E+01 0.00000E+00
 -1      3395 1.32182E+02 3.75385E+01 0.00000E+00
 -1      3396 1.11237E+02 3.76240E+01 0.00000E+00
 -1      3397 1.16910E+01 3.15906E+01 0.00000E+00
 -1      3398 1.29900E+01 3.23250E+01 0.00000E+00
 -1      3399 1.16910E+01 3.01219E+01 0.00000E+00
 -1      3400 1.25478E+02 1.19363E+01 0.00000E+00
 -1      3401 1.35150E+02 3.70325E+01 0.00000E+00
 -1      3402 1.08150E+02 3.70325E+01 0.00000E+00
 -1      3403 1.24256E+02 1.32121E+01 0.00000E+00
 -1      3404 1.33799E+02 3.61936E+01 0.00000E+00
 -1      3405 1.32911E+02 3.65909E+01 0.00000E+00
 -1      3406 1.39605E+01 3.85216E+01 0.00000E+00
 -1      3407 1.10321E+02 1.83011E+01 0.00000E+00
 -1      3408 1.25234E+02 1.40964E+01 0.00000E+00
 -1      3409 1.25755E+02 1.49565E+01 0.00000E+00
 -1      3410 1.26857E+02 1.47253E+01 0.00000E+00
 -1      3411 1.24899E+02 1.29566E+01 0.00000E+00
 -1      3412 1.47105E+01 3.72226E+01 0.00000E+00
 -1      3413 1.28859E+02 1.55737E+01 0.00000E+00
 -1      3414 1.29504E+02 1.64895E+01 0.00000E+00
 -1      3415 1.35992E+01 3.60377E+01 0.00000E+00
 -1      3416 1.55387E+01 3.58251E+01 0.00000E+00
 -1      3417 2.34000E+01 3.57110E+01 0.00000E+00
 -1      3418 2.49000E+01 3.57110E+01 0.00000E+00
 -1      3419 2.64000E+01 3.57110E+01 0.00000E+00
 -1      3420 2.79000E+01 3.57110E+01 0.00000E+00
 -1      3421 2.56500E+01 3.44120E+01 0.00000E+00
 -1      3422 2.94000E+01 3.57110E+01 0.00000E+00
 -1      3423 3.09000E+01 3.57110E+01 0.00000E+00
 -1      3424 2.86500E+01 3.44120E+01 0.00000E+00
 -1      3425 3.24000E+01 3.57110E+01 0.00000E+00
 -1      3426 3.39000E+01 3.57110E+01 0.00000E+00
 -1      3427 3.16500E+01 3.44120E+01 0.00000E+00
 -1      3428 3.54000E+01 3.57110E+01 0.00000E+00
 -1      3429 3.69000E+01 3.57110E+01 0.00000E+00
 -1      3430 3.46500E+01 3.44120E+01 0.00000E+00
 -1      3431 3.84000E+01 3.57110E+01 0.00000E+00
 -1      3432 3.99000E+01 3.57110E+01 0.00000E+00
 -1      3433 3.76500E+01 3.44120E+01 0.00000E+00
 -1      3434 4.14000E+01 3.57110E+01 0.00000E+00
 -1      3435 4.29000E+01 3.57110E+01 0.00000E+00
 -1      3436 4.06500E+01 3.44120E+01 0.00000E+00
 -1      3437 4.44000E+01 3.57110E+01 0.00000E+00
 -1      3438 4.59000E+01 3.57110E+01 0.00000E+00
 -1      3439 4.36500E+01 3.44120E+01 0.00000E+00
 -1      3440 4.74000E+01 3.57110E+01 0.00000E+00
 -1      3441 4.89000E+01 3.57110E+01 0.00000E+00
 -1      3442 4.66500E+01 3.44120E+01 0.00000E+00
 -1      3443 5.04000E+01 3.57110E+01 0.00000E+00
 -1      3444 5.19000E+01 3.57110E+01 0.00000E+00
 -1      3445 4.96500E+01 3.44120E+01 0.00000E+00
 -1      3446 5.34000E+01 3.57110E+01 0.00000E+00
 -1      3447 5.49000E+01 3.57110E+01 0.00000E+00
 -1      3448 5.26500E+01 3.44120E+01 0.00000E+00
 -1      3449 5.64000E+01 3.57110E+01 0.00000E+00
 -1      3450 5.79000E+01 3.57110E+01 0.00000E+00
 -1      3451 5.56500E+01 3.44120E+01 0.00000E+00
 -1      3452 5.94000E+01 3.57110E+01 0.00000E+00
 -1      3453 6.09000E+01 3.57110E+01 0.00000E+00
 -1      3454 5.86500E+01 3.44120E+01 0.00000E+00
 -1      3455 6.24000E+01 3.57110E+01 0.00000E+00
 -1      3456 6.39000E+01 3.57110E+01 0.00000E+00
 -1      3457 6.16500E+01 3.44120E+01 0.00000E+00
 -1      3458 6.54000E+01 3.57110E+01 0.00000E+00
 -1      3459 6.69000E+01 3.57110E+01 0.00000E+00
 -1      3460 6.46500E+01 3.44120E+01 0.00000E+00
 -1      3461 6.84000E+01 3.57110E+01 0.00000E+00
 -1      3462 6.99000E+01 3.57110E+01 0.00000E+00
 -1      3463 6.76500E+01 3.44120E+01 0.00000E+00
 -1      3464 7.14000E+01 3.57110E+01 0.00000E+00
 -1      3465 7.29000E+01 3.57110E+01 0.00000E+00
 -1      3466 7.06500E+01 3.44120E+01 0.00000E+00
 -1      3467 7.44000E+01 3.57110E+01 0.00000E+00
 -1      3468 7.59000E+01 3.57110E+01 0.00000E+00
 -1      3469 7.36500E+01 3.44120E+01 0.00000E+00
 -1      3470 7.74000E+01 3.57110E+01 0.00000E+00
 -1      3471 7.89000E+01 3.57110E+01 0.00000E+00
 -1      3472 7.66500E+01 3.44120E+01 0.00000E+00
 -1      3473 8.04000E+01 3.57110E+01 0.00000E+00
 -1      3474 8.19000E+01 3.57110E+01 0.00000E+00
 -1      3475 7.96500E+01 3.44120E+01 0.00000E+00
 -1      3476 8.34000E+01 3.57110E+01 0.00000E+00
 -1      3477 8.49000E+01 3.57110E+01 0.00000E+00
 -1      3478 8.26500E+01 3.44120E+01 0.00000E+00
 -1      3479 8.64000E+01 3.57110E+01 0.00000E+00
 -1      3480 8.79000E+01 3.57110E+01 0.00000E+00
 -1      3481 8.56500E+01 3.44120E+01 0.00000E+00
 -1      3482 8.94000E+01 3.57110E+01 0.00000E+00
 -1      3483 9.09000E+01 3.57110E+01 0.00000E+00
 -1      3484 8.86500E+01 3.44120E+01 0.00000E+00
 -1      3485 9.24000E+01 3.57110E+01 0.00000E+00
 -1      3486 9.39000E+01 3.57110E+01 0.00000E+00
 -1      3487 9.16500E+01 3.44120E+01 0.00000E+00
 -1      3488 9.54000E+01 3.57110E+01 0.00000E+00
 -1      3489 9.69000E+01 3.57110E+01 0.00000E+00
 -1      3490 9.46500E+01 3.44120E+01 0.00000E+00
 -1      3491 9.84000E+01 3.57110E+01 0.00000E+00
 -1      3492 9.99000E+01 3.57110E+01 0.00000E+00
 -1      3493 9.76500E+01 3.44120E+01 0.00000E+00
 -1      3494 1.01400E+02 3.57110E+01 0.00000E+00
 -1      3495 1.02900E+02 3.57110E+01 0.00000E+00
 -1      3496 1.00650E+02 3.44120E+01 0.00000E+00
 -1      3497 1.07426E+02 3.60942E+01 0.00000E+00
 -1      3498 1.37764E+02 3.72320E+01 0.00000E+00
 -1      3499 4.22850E+01 1.30992E+01 0.00000E+00
 -1      3500 4.07850E+01 1.30992E+01 0.00000E+00
 -1      3501 5.12850E+01 1.30992E+01 0.00000E+00
 -1      3502 4.97850E+01 1.30992E+01 0.00000E+00
 -1      3503 5.42850E+01 1.30992E+01 0.00000E+00
 -1      3504 5.27850E+01 1.30992E+01 0.00000E+00
 -1      3505 5.20350E+01 1.43982E+01 0.00000E+00
 -1      3506 5.72850E+01 1.30992E+01 0.00000E+00
 -1      3507 5.57850E+01 1.30992E+01 0.00000E+00
 -1      3508 5.50350E+01 1.43982E+01 0.00000E+00
 -1      3509 6.02850E+01 1.30992E+01 0.00000E+00
 -1      3510 5.87850E+01 1.30992E+01 0.00000E+00
 -1      3511 5.80350E+01 1.43982E+01 0.00000E+00
 -1      3512 6.32850E+01 1.30992E+01 0.00000E+00
 -1      3513 6.17850E+01 1.30992E+01 0.00000E+00
 -1      3514 6.10350E+01 1.43982E+01 0.00000E+00
 -1      3515 6.62850E+01 1.30992E+01 0.00000E+00
 -1      3516 6.47850E+01 1.30992E+01 0.00000E+00
 -1      3517 6.40350E+01 1.43982E+01 0.00000E+00
 -1      3518 6.92850E+01 1.30992E+01 0.00000E+00
 -1      3519 6.77850E+01 1.30992E+01 0.00000E+00
 -1      3520 6.70350E+01 1.43982E+01 0.00000E+00
 -1      3521 7.22850E+01 1.30992E+01 0.00000E+00
 -1      3522 7.07850E+01 1.30992E+01 0.00000E+00
 -1      3523 7.00350E+01 1.43982E+01 0.00000E+00
 -1      3524 7.52850E+01 1.30992E+01 0.00000E+00
 -1      3525 7.37850E+01 1.30992E+01 0.00000E+00
 -1      3526 7.30350E+01 1.43982E+01 0.00000E+00
 -1      3527 7.82850E+01 1.30992E+01 0.00000E+00
 -1      3528 7.67850E+01 1.30992E+01 0.00000E+00
 -1      3529 7.60350E+01 1.43982E+01 0.00000E+00
 -1      3530 8.12850E+01 1.30992E+01 0.00000E+00
 -1      3531 7.97850E+01 1.30992E+01 0.00000E+00
 -1      3532 7.90350E+01 1.43982E+01 0.00000E+00
 -1      3533 8.42850E+01 1.30992E+01 0.00000E+00
 -1      3534 8.27850E+01 1.30992E+01 0.00000E+00
 -1      3535 8.20350E+01 1.43982E+01 0.00000E+00
 -1      3536 8.72850E+01 1.30992E+01 0.00000E+00
 -1      3537 8.57850E+01 1.30992E+01 0.00000E+00
 -1      3538 8.50350E+01 1.43982E+01 0.00000E+00
 -1      3539 9.02850E+01 1.30992E+01 0.00000E+00
 -1      3540 8.87850E+01 1.30992E+01 0.00000E+00
 -1      3541 8.80350E+01 1.43982E+01 0.00000E+00
 -1      3542 9.32850E+01 1.30992E+01 0.00000E+00
 -1      3543 9.17850E+01 1.30992E+01 0.00000E+00
 -1      3544 9.10350E+01 1.43982E+01 0.00000E+00
 -1      3545 9.62850E+01 1.30992E+01 0.00000E+00
 -1      3546 9.47850E+01 1.30992E+01 0.00000E+00
 -1      3547 9.40350E+01 1.43982E+01 0.00000E+00
 -1      3548 9.92850E+01 1.30992E+01 0.00000E+00
 -1      3549 9.77850E+01 1.30992E+01 0.00000E+00
 -1      3550 9.70350E+01 1.43982E+01 0.00000E+00
 -1      3551 1.02285E+02 1.30992E+01 0.00000E+00
 -1      3552 1.00785E+02 1.30992E+01 0.00000E+00
 -1      3553 1.00035E+02 1.43982E+01 0.00000E+00
 -1      3554 1.05285E+02 1.30992E+01 0.00000E+00
 -1      3555 1.03785E+02 1.30992E+01 0.00000E+00
 -1      3556 1.03035E+02 1.43982E+01 0.00000E+00
 -1      3557 1.08285E+02 1.30992E+01 0.00000E+00
 -1      3558 1.06785E+02 1.30992E+01 0.00000E+00
 -1      3559 1.06035E+02 1.43982E+01 0.00000E+00
 -1      3560 1.17652E+02 1.27416E+01 0.00000E+00
 -1      3561 1.16152E+02 1.27416E+01 0.00000E+00
 -1      3562 1.35299E+02 3.61711E+01 0.00000E+00
 -1      3563 1.32285E+02 1.30992E+01 0.00000E+00
 -1      3564 1.30785E+02 1.30992E+01 0.00000E+00
 -1      3565 1.29959E+02 1.36690E+01 0.00000E+00
 -1      3566 1.28459E+02 1.36690E+01 0.00000E+00
 -1      3567 1.15815E+01 3.63489E+01 0.00000E+00
 -1      3568 3.02850E+01 1.30992E+01 0.00000E+00
 -1      3569 2.87850E+01 1.30992E+01 0.00000E+00
 -1      3570 1.38528E+02 1.44149E+01 0.00000E+00
 -1      3571 1.38594E+02 1.31746E+01 0.00000E+00
 -1      3572 1.37668E+02 1.30636E+01 0.00000E+00
 -1      3573 1.37229E+02 1.51462E+01 0.00000E+00
 -1      3574 1.08737E+02 1.81874E+01 0.00000E+00
 -1      3575 1.09894E+02 1.67708E+01 0.00000E+00
 -1      3576 1.11492E+02 1.53335E+01 0.00000E+00
 -1      3577 1.12919E+02 1.44195E+01 0.00000E+00
 -1      3578 1.36042E+02 2.56167E+01 0.00000E+00
 -1      3579 2.42850E+01 1.30992E+01 0.00000E+00
 -1      3580 2.27850E+01 1.30992E+01 0.00000E+00
 -1      3581 1.36500E+02 3.34820E+01 0.00000E+00
 -1      3582 1.36500E+02 3.20070E+01 0.00000E+00
 -1      3583 3.92850E+01 1.30992E+01 0.00000E+00
 -1      3584 3.77850E+01 1.30992E+01 0.00000E+00
 -1      3585 4.00350E+01 1.43982E+01 0.00000E+00
 -1      3586 1.74000E+01 3.57110E+01 0.00000E+00
 -1      3587 1.89000E+01 3.57110E+01 0.00000E+00
 -1      3588 1.07245E+02 2.73701E+01 0.00000E+00
 -1      3589 1.07795E+02 2.63202E+01 0.00000E+00
 -1      3590 1.07181E+02 2.53772E+01 0.00000E+00
 -1      3591 4.82850E+01 1.30992E+01 0.00000E+00
 -1      3592 4.67850E+01 1.30992E+01 0.00000E+00
 -1      3593 4.90350E+01 1.43982E+01 0.00000E+00
 -1      3594 4.52850E+01 1.30992E+01 0.00000E+00
 -1      3595 4.37850E+01 1.30992E+01 0.00000E+00
 -1      3596 4.30350E+01 1.43982E+01 0.00000E+00
 -1      3597 4.60350E+01 1.43982E+01 0.00000E+00
 -1      3598 2.72850E+01 1.30992E+01 0.00000E+00
 -1      3599 2.57850E+01 1.30992E+01 0.00000E+00
 -1      3600 2.50350E+01 1.43982E+01 0.00000E+00
 -1      3601 1.16910E+01 2.71844E+01 0.00000E+00
 -1      3602 1.16910E+01 2.86531E+01 0.00000E+00
 -1      3603 1.29900E+01 2.93875E+01 0.00000E+00
 -1      3604 2.12850E+01 1.30992E+01 0.00000E+00
 -1      3605 1.97850E+01 1.30992E+01 0.00000E+00
 -1      3606 2.20350E+01 1.43982E+01 0.00000E+00
 -1      3607 2.04000E+01 3.57110E+01 0.00000E+00
 -1      3608 2.19000E+01 3.57110E+01 0.00000E+00
 -1      3609 2.26500E+01 3.44120E+01 0.00000E+00
 -1      3610 1.19152E+02 1.27416E+01 0.00000E+00
 -1      3611 1.06928E+02 3.46971E+01 0.00000E+00
 -1      3612 1.06525E+02 3.31685E+01 0.00000E+00
 -1      3613 1.26457E+02 1.28206E+01 0.00000E+00
 -1      3614 1.06152E+02 3.56129E+01 0.00000E+00
 -1      3615 1.14684E+02 1.34283E+01 0.00000E+00
 -1      3616 1.32732E+02 1.89662E+01 0.00000E+00
 -1      3617 1.33870E+02 1.93142E+01 0.00000E+00
 -1      3618 1.32498E+02 1.80606E+01 0.00000E+00
 -1      3619 1.42890E+01 1.39344E+01 0.00000E+00
 -1      3620 1.42890E+01 1.54031E+01 0.00000E+00
 -1      3621 1.62887E+01 3.45261E+01 0.00000E+00
 -1      3622 1.84669E+01 1.29495E+01 0.00000E+00
 -1      3623 1.71488E+01 1.27997E+01 0.00000E+00
 -1      3624 1.92169E+01 1.42485E+01 0.00000E+00
 -1      3625 1.03902E+02 3.43139E+01 0.00000E+00
 -1      3626 1.04652E+02 3.56129E+01 0.00000E+00
 -1      3627 2.80350E+01 1.43982E+01 0.00000E+00
 -1      3628 1.36213E+02 3.50745E+01 0.00000E+00
 -1      3629 3.32850E+01 1.30992E+01 0.00000E+00
 -1      3630 3.17850E+01 1.30992E+01 0.00000E+00
 -1      3631 3.10350E+01 1.43982E+01 0.00000E+00
 -1      3632 1.10270E+02 1.27914E+01 0.00000E+00
 -1      3633 1.09520E+02 1.40904E+01 0.00000E+00
 -1      3634 1.11770E+02 1.27914E+01 0.00000E+00
 -1      3635 1.13184E+02 1.34283E+01 0.00000E+00
 -1      3636 1.35323E+02 1.87730E+01 0.00000E+00
 -1      3637 1.35323E+02 1.72980E+01 0.00000E+00
 -1      3638 1.28805E+01 3.56145E+01 0.00000E+00
 -1      3639 1.36742E+02 1.29526E+01 0.00000E+00
 -1      3640 1.36236E+02 1.40494E+01 0.00000E+00
 -1      3641 1.35529E+02 1.28971E+01 0.00000E+00
 -1      3642 1.34029E+02 1.28971E+01 0.00000E+00
 -1      3643 1.36016E+02 1.50907E+01 0.00000E+00
 -1      3644 1.42890E+01 2.27625E+01 0.00000E+00
 -1      3645 1.42890E+01 2.42375E+01 0.00000E+00
 -1      3646 1.09907E+02 1.52199E+01 0.00000E+00
 -1      3647 1.07142E+02 2.30121E+01 0.00000E+00
 -1      3648 1.07798E+02 2.25226E+01 0.00000E+00
 -1      3649 1.07208E+02 2.12074E+01 0.00000E+00
 -1      3650 1.42890E+01 1.98188E+01 0.00000E+00
 -1      3651 1.42890E+01 2.12906E+01 0.00000E+00
 -1      3652 1.55880E+01 2.20281E+01 0.00000E+00
 -1      3653 3.70350E+01 1.43982E+01 0.00000E+00
 -1      3654 3.62850E+01 1.30992E+01 0.00000E+00
 -1      3655 3.47850E+01 1.30992E+01 0.00000E+00
 -1      3656 1.05923E+02 3.21740E+01 0.00000E+00
 -1      3657 1.05321E+02 3.11795E+01 0.00000E+00
 -1      3658 1.05052E+02 3.32213E+01 0.00000E+00
 -1      3659 1.30621E+02 1.66252E+01 0.00000E+00
 -1      3660 1.05578E+02 2.91893E+01 0.00000E+00
 -1      3661 1.06411E+02 2.82797E+01 0.00000E+00
 -1      3662 1.05797E+02 2.73367E+01 0.00000E+00
 -1      3663 1.29900E+01 2.64469E+01 0.00000E+00
 -1      3664 1.35768E+02 2.04318E+01 0.00000E+00
 -1      3665 1.37087E+01 3.42169E+01 0.00000E+00
 -1      3666 1.34329E+02 1.62012E+01 0.00000E+00
 -1      3667 1.33279E+02 1.41961E+01 0.00000E+00
 -1      3668 1.96500E+01 3.44120E+01 0.00000E+00
 -1      3669 1.37087E+01 3.12794E+01 0.00000E+00
 -1      3670 1.37087E+01 3.27482E+01 0.00000E+00
 -1      3671 1.44274E+01 3.31713E+01 0.00000E+00
 -1      3672 1.46944E+01 1.23503E+01 0.00000E+00
 -1      3673 1.59934E+01 1.30847E+01 0.00000E+00
 -1      3674 1.62887E+01 3.30573E+01 0.00000E+00
 -1      3675 1.03300E+02 3.33194E+01 0.00000E+00
 -1      3676 2.79000E+01 3.31130E+01 0.00000E+00
 -1      3677 2.94000E+01 3.31130E+01 0.00000E+00
 -1      3678 3.09000E+01 3.31130E+01 0.00000E+00
 -1      3679 3.24000E+01 3.31130E+01 0.00000E+00
 -1      3680 3.01500E+01 3.18140E+01 0.00000E+00
 -1      3681 3.39000E+01 3.31130E+01 0.00000E+00
 -1      3682 3.54000E+01 3.31130E+01 0.00000E+00
 -1      3683 3.31500E+01 3.18140E+01 0.00000E+00
 -1      3684 3.69000E+01 3.31130E+01 0.00000E+00
 -1      3685 3.84000E+01 3.31130E+01 0.00000E+00
 -1      3686 3.61500E+01 3.18140E+01 0.00000E+00
 -1      3687 3.99000E+01 3.31130E+01 0.00000E+00
 -1      3688 4.14000E+01 3.31130E+01 0.00000E+00
 -1      3689 3.91500E+01 3.18140E+01 0.00000E+00
 -1      3690 4.29000E+01 3.31130E+01 0.00000E+00
 -1      3691 4.44000E+01 3.31130E+01 0.00000E+00
 -1      3692 4.21500E+01 3.18140E+01 0.00000E+00
 -1      3693 4.59000E+01 3.31130E+01 0.00000E+00
 -1      3694 4.74000E+01 3.31130E+01 0.00000E+00
 -1      3695 4.51500E+01 3.18140E+01 0.00000E+00
 -1      3696 4.89000E+01 3.31130E+01 0.00000E+00
 -1      3697 5.04000E+01 3.31130E+01 0.00000E+00
 -1      3698 4.81500E+01 3.18140E+01 0.00000E+00
 -1      3699 5.19000E+01 3.31130E+01 0.00000E+00
 -1      3700 5.34000E+01 3.31130E+01 0.00000E+00
 -1      3701 5.11500E+01 3.18140E+01 0.00000E+00
 -1      3702 5.49000E+01 3.31130E+01 0.00000E+00
 -1      3703 5.64000E+01 3.31130E+01 0.00000E+00
 -1      3704 5.41500E+01 3.18140E+01 0.00000E+00
 -1      3705 5.79000E+01 3.31130E+01 0.00000E+00
 -1      3706 5.94000E+01 3.31130E+01 0.00000E+00
 -1      3707 5.71500E+01 3.18140E+01 0.00000E+00
 -1      3708 6.09000E+01 3.31130E+01 0.00000E+00
 -1      3709 6.24000E+01 3.31130E+01 0.00000E+00
 -1      3710 6.01500E+01 3.18140E+01 0.00000E+00
 -1      3711 6.39000E+01 3.31130E+01 0.00000E+00
 -1      3712 6.54000E+01 3.31130E+01 0.00000E+00
 -1      3713 6.31500E+01 3.18140E+01 0.00000E+00
 -1      3714 6.69000E+01 3.31130E+01 0.00000E+00
 -1      3715 6.84000E+01 3.31130E+01 0.00000E+00
 -1      3716 6.61500E+01 3.18140E+01 0.00000E+00
 -1      3717 6.99000E+01 3.31130E+01 0.00000E+00
 -1      3718 7.14000E+01 3.31130E+01 0.00000E+00
 -1      3719 6.91500E+01 3.18140E+01 0.00000E+00
 -1      3720 7.29000E+01 3.31130E+01 0.00000E+00
 -1      3721 7.44000E+01 3.31130E+01 0.00000E+00
 -1      3722 7.21500E+01 3.18140E+01 0.00000E+00
 -1      3723 7.59000E+01 3.31130E+01 0.00000E+00
 -1      3724 7.74000E+01 3.31130E+01 0.00000E+00
 -1      3725 7.51500E+01 3.18140E+01 0.00000E+00
 -1      3726 7.89000E+01 3.31130E+01 0.00000E+00
 -1      3727 8.04000E+01 3.31130E+01 0.00000E+00
 -1      3728 7.81500E+01 3.18140E+01 0.00000E+00
 -1      3729 8.19000E+01 3.31130E+01 0.00000E+00
 -1      3730 8.34000E+01 3.31130E+01 0.00000E+00
 -1      3731 8.11500E+01 3.18140E+01 0.00000E+00
 -1      3732 8.49000E+01 3.31130E+01 0.00000E+00
 -1      3733 8.64000E+01 3.31130E+01 0.00000E+00
 -1      3734 8.41500E+01 3.18140E+01 0.00000E+00
 -1      3735 8.79000E+01 3.31130E+01 0.00000E+00
 -1      3736 8.94000E+01 3.31130E+01 0.00000E+00
 -1      3737 8.71500E+01 3.18140E+01 0.00000E+00
 -1      3738 9.09000E+01 3.31130E+01 0.00000E+00
 -1      3739 9.24000E+01 3.31130E+01 0.00000E+00
 -1      3740 9.01500E+01 3.18140E+01 0.00000E+00
 -1      3741 9.39000E+01 3.31130E+01 0.00000E+00
 -1      3742 9.54000E+01 3.31130E+01 0.00000E+00
 -1      3743 9.31500E+01 3.18140E+01 0.00000E+00
 -1      3744 9.69000E+01 3.31130E+01 0.00000E+00
 -1      3745 9.84000E+01 3.31130E+01 0.00000E+00
 -1      3746 9.61500E+01 3.18140E+01 0.00000E+00
 -1      3747 9.99000E+01 3.31130E+01 0.00000E+00
 -1      3748 1.01400E+02 3.31130E+01 0.00000E+00
 -1      3749 9.91500E+01 3.18140E+01 0.00000E+00
 -1      3750 5.87850E+01 1.56973E+01 0.00000E+00
 -1      3751 5.72850E+01 1.56973E+01 0.00000E+00
 -1      3752 5.57850E+01 1.56973E+01 0.00000E+00
 -1      3753 5.42850E+01 1.56973E+01 0.00000E+00
 -1      3754 5.65350E+01 1.69963E+01 0.00000E+00
 -1      3755 5.27850E+01 1.56973E+01 0.00000E+00
 -1      3756 5.12850E+01 1.56973E+01 0.00000E+00
 -1      3757 5.35350E+01 1.69963E+01 0.00000E+00
 -1      3758 6.17850E+01 1.56973E+01 0.00000E+00
 -1      3759 6.02850E+01 1.56973E+01 0.00000E+00
 -1      3760 5.95350E+01 1.69963E+01 0.00000E+00
 -1      3761 6.47850E+01 1.56973E+01 0.00000E+00
 -1      3762 6.32850E+01 1.56973E+01 0.00000E+00
 -1      3763 6.25350E+01 1.69963E+01 0.00000E+00
 -1      3764 6.77850E+01 1.56973E+01 0.00000E+00
 -1      3765 6.62850E+01 1.56973E+01 0.00000E+00
 -1      3766 6.55350E+01 1.69963E+01 0.00000E+00
 -1      3767 7.07850E+01 1.56973E+01 0.00000E+00
 -1      3768 6.92850E+01 1.56973E+01 0.00000E+00
 -1      3769 6.85350E+01 1.69963E+01 0.00000E+00
 -1      3770 7.37850E+01 1.56973E+01 0.00000E+00
 -1      3771 7.22850E+01 1.56973E+01 0.00000E+00
 -1      3772 7.15350E+01 1.69963E+01 0.00000E+00
 -1      3773 7.67850E+01 1.56973E+01 0.00000E+00
 -1      3774 7.52850E+01 1.56973E+01 0.00000E+00
 -1      3775 7.45350E+01 1.69963E+01 0.00000E+00
 -1      3776 7.97850E+01 1.56973E+01 0.00000E+00
 -1      3777 7.82850E+01 1.56973E+01 0.00000E+00
 -1      3778 7.75350E+01 1.69963E+01 0.00000E+00
 -1      3779 8.27850E+01 1.56973E+01 0.00000E+00
 -1      3780 8.12850E+01 1.56973E+01 0.00000E+00
 -1      3781 8.05350E+01 1.69963E+01 0.00000E+00
 -1      3782 8.57850E+01 1.56973E+01 0.00000E+00
 -1      3783 8.42850E+01 1.56973E+01 0.00000E+00
 -1      3784 8.35350E+01 1.69963E+01 0.00000E+00
 -1      3785 8.87850E+01 1.56973E+01 0.00000E+00
 -1      3786 8.72850E+01 1.56973E+01 0.00000E+00
 -1      3787 8.65350E+01 1.69963E+01 0.00000E+00
 -1      3788 9.17850E+01 1.56973E+01 0.00000E+00
 -1      3789 9.02850E+01 1.56973E+01 0.00000E+00
 -1      3790 8.95350E+01 1.69963E+01 0.00000E+00
 -1      3791 9.47850E+01 1.56973E+01 0.00000E+00
 -1      3792 9.32850E+01 1.56973E+01 0.00000E+00
 -1      3793 9.25350E+01 1.69963E+01 0.00000E+00
 -1      3794 9.77850E+01 1.56973E+01 0.00000E+00
 -1      3795 9.62850E+01 1.56973E+01 0.00000E+00
 -1      3796 9.55350E+01 1.69963E+01 0.00000E+00
 -1      3797 1.00785E+02 1.56973E+01 0.00000E+00
 -1      3798 9.92850E+01 1.56973E+01 0.00000E+00
 -1      3799 9.85350E+01 1.69963E+01 0.00000E+00
 -1      3800 1.03785E+02 1.56973E+01 0.00000E+00
 -1      3801 1.02285E+02 1.56973E+01 0.00000E+00
 -1      3802 1.01535E+02 1.69963E+01 0.00000E+00
 -1      3803 1.67434E+01 1.43837E+01 0.00000E+00
 -1      3804 1.30709E+02 1.49680E+01 0.00000E+00
 -1      3805 1.27881E+02 1.46894E+01 0.00000E+00
 -1      3806 1.07922E+02 1.55277E+01 0.00000E+00
 -1      3807 1.07699E+02 1.93018E+01 0.00000E+00
 -1      3808 1.07272E+02 1.77716E+01 0.00000E+00
 -1      3809 2.57850E+01 1.56973E+01 0.00000E+00
 -1      3810 2.42850E+01 1.56973E+01 0.00000E+00
 -1      3811 1.42890E+01 1.68750E+01 0.00000E+00
 -1      3812 1.42890E+01 1.83469E+01 0.00000E+00
 -1      3813 1.55880E+01 1.90844E+01 0.00000E+00
 -1      3814 1.37087E+01 2.83419E+01 0.00000E+00
 -1      3815 1.37087E+01 2.98107E+01 0.00000E+00
 -1      3816 1.44274E+01 3.02338E+01 0.00000E+00
 -1      3817 1.06040E+02 2.51119E+01 0.00000E+00
 -1      3818 1.06591E+02 2.40620E+01 0.00000E+00
 -1      3819 1.06000E+02 2.27469E+01 0.00000E+00
 -1      3820 4.97850E+01 1.56973E+01 0.00000E+00
 -1      3821 4.82850E+01 1.56973E+01 0.00000E+00
 -1      3822 5.05350E+01 1.69963E+01 0.00000E+00
 -1      3823 1.32586E+02 1.64034E+01 0.00000E+00
 -1      3824 1.55880E+01 1.61406E+01 0.00000E+00
 -1      3825 1.55880E+01 2.49719E+01 0.00000E+00
 -1      3826 1.42890E+01 2.57094E+01 0.00000E+00
 -1      3827 1.42890E+01 2.71812E+01 0.00000E+00
 -1      3828 1.07049E+02 1.98019E+01 0.00000E+00
 -1      3829 2.27850E+01 1.56973E+01 0.00000E+00
 -1      3830 2.12850E+01 1.56973E+01 0.00000E+00
 -1      3831 2.35350E+01 1.69963E+01 0.00000E+00
 -1      3832 1.31447E+02 1.60554E+01 0.00000E+00
 -1      3833 4.07850E+01 1.56973E+01 0.00000E+00
 -1      3834 3.92850E+01 1.56973E+01 0.00000E+00
 -1      3835 2.49000E+01 3.31130E+01 0.00000E+00
 -1      3836 2.64000E+01 3.31130E+01 0.00000E+00
 -1      3837 2.71500E+01 3.18140E+01 0.00000E+00
 -1      3838 1.06847E+02 1.66496E+01 0.00000E+00
 -1      3839 1.06460E+02 1.55202E+01 0.00000E+00
 -1      3840 1.04960E+02 1.55202E+01 0.00000E+00
 -1      3841 1.05810E+02 1.77640E+01 0.00000E+00
 -1      3842 1.89000E+01 3.31130E+01 0.00000E+00
 -1      3843 2.04000E+01 3.31130E+01 0.00000E+00
 -1      3844 2.19000E+01 3.31130E+01 0.00000E+00
 -1      3845 2.34000E+01 3.31130E+01 0.00000E+00
 -1      3846 2.41500E+01 3.18140E+01 0.00000E+00
 -1      3847 2.87850E+01 1.56973E+01 0.00000E+00
 -1      3848 2.72850E+01 1.56973E+01 0.00000E+00
 -1      3849 2.65350E+01 1.69963E+01 0.00000E+00
 -1      3850 1.06393E+02 2.02914E+01 0.00000E+00
 -1      3851 1.57330E+01 3.09961E+01 0.00000E+00
 -1      3852 1.75943E+01 3.23508E+01 0.00000E+00
 -1      3853 1.83443E+01 3.10518E+01 0.00000E+00
 -1      3854 1.57330E+01 2.95273E+01 0.00000E+00
 -1      3855 1.99669E+01 1.55475E+01 0.00000E+00
 -1      3856 1.86488E+01 1.53977E+01 0.00000E+00
 -1      3857 2.07169E+01 1.68465E+01 0.00000E+00
 -1      3858 1.04210E+02 1.68192E+01 0.00000E+00
 -1      3859 1.68870E+01 2.42359E+01 0.00000E+00
 -1      3860 1.68870E+01 2.57078E+01 0.00000E+00
 -1      3861 1.35557E+02 1.96787E+01 0.00000E+00
 -1      3862 3.40350E+01 1.43982E+01 0.00000E+00
 -1      3863 4.37850E+01 1.56973E+01 0.00000E+00
 -1      3864 4.22850E+01 1.56973E+01 0.00000E+00
 -1      3865 4.15350E+01 1.69963E+01 0.00000E+00
 -1      3866 1.76961E+01 1.56266E+01 0.00000E+00
 -1      3867 1.65407E+01 1.59117E+01 0.00000E+00
 -1      3868 1.65407E+01 1.73835E+01 0.00000E+00
 -1      3869 1.84461E+01 1.69256E+01 0.00000E+00
 -1      3870 3.17850E+01 1.56973E+01 0.00000E+00
 -1      3871 3.02850E+01 1.56973E+01 0.00000E+00
 -1      3872 2.95350E+01 1.69963E+01 0.00000E+00
 -1      3873 1.05181E+02 2.11398E+01 0.00000E+00
 -1      3874 1.05023E+02 1.97342E+01 0.00000E+00
 -1      3875 2.11500E+01 3.18140E+01 0.00000E+00
 -1      3876 1.50077E+01 2.76044E+01 0.00000E+00
 -1      3877 3.77850E+01 1.56973E+01 0.00000E+00
 -1      3878 3.62850E+01 1.56973E+01 0.00000E+00
 -1      3879 3.85350E+01 1.69963E+01 0.00000E+00
 -1      3880 1.05207E+02 2.60215E+01 0.00000E+00
 -1      3881 1.04616E+02 2.47064E+01 0.00000E+00
 -1      3882 1.04373E+02 2.69311E+01 0.00000E+00
 -1      3883 1.68870E+01 2.12922E+01 0.00000E+00
 -1      3884 1.68870E+01 2.27641E+01 0.00000E+00
 -1      3885 1.81860E+01 2.35000E+01 0.00000E+00
 -1      3886 1.02550E+02 3.20204E+01 0.00000E+00
 -1      3887 1.03421E+02 3.09731E+01 0.00000E+00
 -1      3888 1.04291E+02 2.99259E+01 0.00000E+00
 -1      3889 1.01521E+02 3.07667E+01 0.00000E+00
 -1      3890 1.03677E+02 2.89829E+01 0.00000E+00
 -1      3891 4.67850E+01 1.56973E+01 0.00000E+00
 -1      3892 4.52850E+01 1.56973E+01 0.00000E+00
 -1      3893 4.75350E+01 1.69963E+01 0.00000E+00
 -1      3894 1.04829E+02 1.88377E+01 0.00000E+00
 -1      3895 1.04404E+02 1.77157E+01 0.00000E+00
 -1      3896 1.03229E+02 1.78928E+01 0.00000E+00
 -1      3897 1.03617E+02 1.96860E+01 0.00000E+00
 -1      3898 2.94000E+01 3.05150E+01 0.00000E+00
 -1      3899 3.09000E+01 3.05150E+01 0.00000E+00
 -1      3900 1.01801E+02 2.84043E+01 0.00000E+00
 -1      3901 1.03087E+02 2.76677E+01 0.00000E+00
 -1      3902 1.02496E+02 2.63526E+01 0.00000E+00
 -1      3903 3.24000E+01 3.05150E+01 0.00000E+00
 -1      3904 3.39000E+01 3.05150E+01 0.00000E+00
 -1      3905 3.16500E+01 2.92160E+01 0.00000E+00
 -1      3906 3.54000E+01 3.05150E+01 0.00000E+00
 -1      3907 3.69000E+01 3.05150E+01 0.00000E+00
 -1      3908 3.46500E+01 2.92160E+01 0.00000E+00
 -1      3909 3.84000E+01 3.05150E+01 0.00000E+00
 -1      3910 3.99000E+01 3.05150E+01 0.00000E+00
 -1      3911 3.76500E+01 2.92160E+01 0.00000E+00
 -1      3912 4.14000E+01 3.05150E+01 0.00000E+00
 -1      3913 4.29000E+01 3.05150E+01 0.00000E+00
 -1      3914 4.06500E+01 2.92160E+01 0.00000E+00
 -1      3915 4.44000E+01 3.05150E+01 0.00000E+00
 -1      3916 4.59000E+01 3.05150E+01 0.00000E+00
 -1      3917 4.36500E+01 2.92160E+01 0.00000E+00
 -1      3918 4.74000E+01 3.05150E+01 0.00000E+00
 -1      3919 4.89000E+01 3.05150E+01 0.00000E+00
 -1      3920 4.66500E+01 2.92160E+01 0.00000E+00
 -1      3921 5.04000E+01 3.05150E+01 0.00000E+00
 -1      3922 5.19000E+01 3.05150E+01 0.00000E+00
 -1      3923 4.96500E+01 2.92160E+01 0.00000E+00
 -1      3924 5.34000E+01 3.05150E+01 0.00000E+00
 -1      3925 5.49000E+01 3.05150E+01 0.00000E+00
 -1      3926 5.26500E+01 2.92160E+01 0.00000E+00
 -1      3927 5.64000E+01 3.05150E+01 0.00000E+00
 -1      3928 5.79000E+01 3.05150E+01 0.00000E+00
 -1      3929 5.56500E+01 2.92160E+01 0.00000E+00
 -1      3930 5.94000E+01 3.05150E+01 0.00000E+00
 -1      3931 6.09000E+01 3.05150E+01 0.00000E+00
 -1      3932 5.86500E+01 2.92160E+01 0.00000E+00
 -1      3933 6.24000E+01 3.05150E+01 0.00000E+00
 -1      3934 6.39000E+01 3.05150E+01 0.00000E+00
 -1      3935 6.16500E+01 2.92160E+01 0.00000E+00
 -1      3936 6.54000E+01 3.05150E+01 0.00000E+00
 -1      3937 6.69000E+01 3.05150E+01 0.00000E+00
 -1      3938 6.46500E+01 2.92160E+01 0.00000E+00
 -1      3939 6.84000E+01 3.05150E+01 0.00000E+00
 -1      3940 6.99000E+01 3.05150E+01 0.00000E+00
 -1      3941 6.76500E+01 2.92160E+01 0.00000E+00
 -1      3942 7.14000E+01 3.05150E+01 0.00000E+00
 -1      3943 7.29000E+01 3.05150E+01 0.00000E+00
 -1      3944 7.06500E+01 2.92160E+01 0.00000E+00
 -1      3945 7.44000E+01 3.05150E+01 0.00000E+00
 -1      3946 7.59000E+01 3.05150E+01 0.00000E+00
 -1      3947 7.36500E+01 2.92160E+01 0.00000E+00
 -1      3948 7.74000E+01 3.05150E+01 0.00000E+00
 -1      3949 7.89000E+01 3.05150E+01 0.00000E+00
 -1      3950 7.66500E+01 2.92160E+01 0.00000E+00
 -1      3951 8.04000E+01 3.05150E+01 0.00000E+00
 -1      3952 8.19000E+01 3.05150E+01 0.00000E+00
 -1      3953 7.96500E+01 2.92160E+01 0.00000E+00
 -1      3954 8.34000E+01 3.05150E+01 0.00000E+00
 -1      3955 8.49000E+01 3.05150E+01 0.00000E+00
 -1      3956 8.26500E+01 2.92160E+01 0.00000E+00
 -1      3957 8.64000E+01 3.05150E+01 0.00000E+00
 -1      3958 8.79000E+01 3.05150E+01 0.00000E+00
 -1      3959 8.56500E+01 2.92160E+01 0.00000E+00
 -1      3960 8.94000E+01 3.05150E+01 0.00000E+00
 -1      3961 9.09000E+01 3.05150E+01 0.00000E+00
 -1      3962 8.86500E+01 2.92160E+01 0.00000E+00
 -1      3963 9.24000E+01 3.05150E+01 0.00000E+00
 -1      3964 9.39000E+01 3.05150E+01 0.00000E+00
 -1      3965 9.16500E+01 2.92160E+01 0.00000E+00
 -1      3966 9.54000E+01 3.05150E+01 0.00000E+00
 -1      3967 9.69000E+01 3.05150E+01 0.00000E+00
 -1      3968 9.46500E+01 2.92160E+01 0.00000E+00
 -1      3969 9.84000E+01 3.05150E+01 0.00000E+00
 -1      3970 9.99000E+01 3.05150E+01 0.00000E+00
 -1      3971 9.76500E+01 2.92160E+01 0.00000E+00
 -1      3972 6.32850E+01 1.82952E+01 0.00000E+00
 -1      3973 6.17850E+01 1.82952E+01 0.00000E+00
 -1      3974 6.02850E+01 1.82952E+01 0.00000E+00
 -1      3975 5.87850E+01 1.82952E+01 0.00000E+00
 -1      3976 6.10350E+01 1.95942E+01 0.00000E+00
 -1      3977 6.62850E+01 1.82952E+01 0.00000E+00
 -1      3978 6.47850E+01 1.82952E+01 0.00000E+00
 -1      3979 6.40350E+01 1.95942E+01 0.00000E+00
 -1      3980 6.92850E+01 1.82952E+01 0.00000E+00
 -1      3981 6.77850E+01 1.82952E+01 0.00000E+00
 -1      3982 6.70350E+01 1.95942E+01 0.00000E+00
 -1      3983 7.22850E+01 1.82952E+01 0.00000E+00
 -1      3984 7.07850E+01 1.82952E+01 0.00000E+00
 -1      3985 7.00350E+01 1.95942E+01 0.00000E+00
 -1      3986 7.52850E+01 1.82952E+01 0.00000E+00
 -1      3987 7.37850E+01 1.82952E+01 0.00000E+00
 -1      3988 7.30350E+01 1.95942E+01 0.00000E+00
 -1      3989 7.82850E+01 1.82952E+01 0.00000E+00
 -1      3990 7.67850E+01 1.82952E+01 0.00000E+00
 -1      3991 7.60350E+01 1.95942E+01 0.00000E+00
 -1      3992 8.12850E+01 1.82952E+01 0.00000E+00
 -1      3993 7.97850E+01 1.82952E+01 0.00000E+00
 -1      3994 7.90350E+01 1.95942E+01 0.00000E+00
 -1      3995 8.42850E+01 1.82952E+01 0.00000E+00
 -1      3996 8.27850E+01 1.82952E+01 0.00000E+00
 -1      3997 8.20350E+01 1.95942E+01 0.00000E+00
 -1      3998 8.72850E+01 1.82952E+01 0.00000E+00
 -1      3999 8.57850E+01 1.82952E+01 0.00000E+00
 -1      4000 8.50350E+01 1.95942E+01 0.00000E+00
 -1      4001 9.02850E+01 1.82952E+01 0.00000E+00
 -1      4002 8.87850E+01 1.82952E+01 0.00000E+00
 -1      4003 8.80350E+01 1.95942E+01 0.00000E+00
 -1      4004 9.32850E+01 1.82952E+01 0.00000E+00
 -1      4005 9.17850E+01 1.82952E+01 0.00000E+00
 -1      4006 9.10350E+01 1.95942E+01 0.00000E+00
 -1      4007 9.62850E+01 1.82952E+01 0.00000E+00
 -1      4008 9.47850E+01 1.82952E+01 0.00000E+00
 -1      4009 9.40350E+01 1.95942E+01 0.00000E+00
 -1      4010 9.92850E+01 1.82952E+01 0.00000E+00
 -1      4011 9.77850E+01 1.82952E+01 0.00000E+00
 -1      4012 9.70350E+01 1.95942E+01 0.00000E+00
 -1      4013 1.02007E+02 1.80940E+01 0.00000E+00
 -1      4014 1.00507E+02 1.80940E+01 0.00000E+00
 -1      4015 9.97570E+01 1.93930E+01 0.00000E+00
 -1      4016 1.02201E+02 1.89906E+01 0.00000E+00
 -1      4017 1.81768E+01 2.64701E+01 0.00000E+00
 -1      4018 1.68778E+01 2.72060E+01 0.00000E+00
 -1      4019 3.47850E+01 1.56973E+01 0.00000E+00
 -1      4020 3.32850E+01 1.56973E+01 0.00000E+00
 -1      4021 3.55350E+01 1.69963E+01 0.00000E+00
 -1      4022 1.04630E+02 2.21897E+01 0.00000E+00
 -1      4023 2.04000E+01 3.05150E+01 0.00000E+00
 -1      4024 2.19000E+01 3.05150E+01 0.00000E+00
 -1      4025 5.72850E+01 1.82952E+01 0.00000E+00
 -1      4026 5.57850E+01 1.82952E+01 0.00000E+00
 -1      4027 5.80350E+01 1.95942E+01 0.00000E+00
 -1      4028 1.67138E+01 1.86019E+01 0.00000E+00
 -1      4029 1.67138E+01 2.00738E+01 0.00000E+00
 -1      4030 1.80128E+01 2.08097E+01 0.00000E+00
 -1      4031 1.76665E+01 1.83730E+01 0.00000E+00
 -1      4032 1.00771E+02 2.94677E+01 0.00000E+00
 -1      4033 5.12850E+01 1.82952E+01 0.00000E+00
 -1      4034 4.97850E+01 1.82952E+01 0.00000E+00
 -1      4035 2.42850E+01 1.82952E+01 0.00000E+00
 -1      4036 2.27850E+01 1.82952E+01 0.00000E+00
 -1      4037 2.72850E+01 1.82952E+01 0.00000E+00
 -1      4038 2.57850E+01 1.82952E+01 0.00000E+00
 -1      4039 2.50350E+01 1.95942E+01 0.00000E+00
 -1      4040 2.64000E+01 3.05150E+01 0.00000E+00
 -1      4041 2.79000E+01 3.05150E+01 0.00000E+00
 -1      4042 2.86500E+01 2.92160E+01 0.00000E+00
 -1      4043 5.42850E+01 1.82952E+01 0.00000E+00
 -1      4044 5.27850E+01 1.82952E+01 0.00000E+00
 -1      4045 5.50350E+01 1.95942E+01 0.00000E+00
 -1      4046 1.62975E+01 2.83667E+01 0.00000E+00
 -1      4047 2.34000E+01 3.05150E+01 0.00000E+00
 -1      4048 2.49000E+01 3.05150E+01 0.00000E+00
 -1      4049 2.26500E+01 2.92160E+01 0.00000E+00
 -1      4050 1.02589E+02 2.07838E+01 0.00000E+00
 -1      4051 1.02395E+02 1.98872E+01 0.00000E+00
 -1      4052 1.01173E+02 2.00884E+01 0.00000E+00
 -1      4053 4.45350E+01 1.69963E+01 0.00000E+00
 -1      4054 1.94804E+01 2.57289E+01 0.00000E+00
 -1      4055 1.94712E+01 2.72271E+01 0.00000E+00
 -1      4056 3.25350E+01 1.69963E+01 0.00000E+00
 -1      4057 2.14669E+01 1.81455E+01 0.00000E+00
 -1      4058 2.01488E+01 1.79957E+01 0.00000E+00
 -1      4059 2.22169E+01 1.94445E+01 0.00000E+00
 -1      4060 1.90943E+01 2.97528E+01 0.00000E+00
 -1      4061 1.76032E+01 2.91289E+01 0.00000E+00
 -1      4062 5.20350E+01 1.95942E+01 0.00000E+00
 -1      4063 3.02850E+01 1.82952E+01 0.00000E+00
 -1      4064 2.87850E+01 1.82952E+01 0.00000E+00
 -1      4065 2.80350E+01 1.95942E+01 0.00000E+00
 -1      4066 3.92850E+01 1.82952E+01 0.00000E+00
 -1      4067 3.77850E+01 1.82952E+01 0.00000E+00
 -1      4068 4.90350E+01 1.95942E+01 0.00000E+00
 -1      4069 4.82850E+01 1.82952E+01 0.00000E+00
 -1      4070 4.67850E+01 1.82952E+01 0.00000E+00
 -1      4071 4.22850E+01 1.82952E+01 0.00000E+00
 -1      4072 4.07850E+01 1.82952E+01 0.00000E+00
 -1      4073 4.00350E+01 1.95942E+01 0.00000E+00
 -1      4074 1.94804E+01 2.27852E+01 0.00000E+00
 -1      4075 1.94804E+01 2.42571E+01 0.00000E+00
 -1      4076 2.07748E+01 2.50141E+01 0.00000E+00
 -1      4077 2.56500E+01 2.92160E+01 0.00000E+00
 -1      4078 1.00180E+02 2.81526E+01 0.00000E+00
 -1      4079 1.03147E+02 2.47259E+01 0.00000E+00
 -1      4080 1.03980E+02 2.38163E+01 0.00000E+00
 -1      4081 1.03161E+02 2.22092E+01 0.00000E+00
 -1      4082 1.01860E+02 2.54625E+01 0.00000E+00
 -1      4083 1.01939E+02 2.24104E+01 0.00000E+00
 -1      4084 1.01019E+02 2.36067E+01 0.00000E+00
 -1      4085 1.00447E+02 2.21813E+01 0.00000E+00
 -1      4086 3.09000E+01 2.79170E+01 0.00000E+00
 -1      4087 3.24000E+01 2.79170E+01 0.00000E+00
 -1      4088 3.39000E+01 2.79170E+01 0.00000E+00
 -1      4089 3.54000E+01 2.79170E+01 0.00000E+00
 -1      4090 3.31500E+01 2.66180E+01 0.00000E+00
 -1      4091 3.69000E+01 2.79170E+01 0.00000E+00
 -1      4092 3.84000E+01 2.79170E+01 0.00000E+00
 -1      4093 3.61500E+01 2.66180E+01 0.00000E+00
 -1      4094 3.99000E+01 2.79170E+01 0.00000E+00
 -1      4095 4.14000E+01 2.79170E+01 0.00000E+00
 -1      4096 3.91500E+01 2.66180E+01 0.00000E+00
 -1      4097 4.29000E+01 2.79170E+01 0.00000E+00
 -1      4098 4.44000E+01 2.79170E+01 0.00000E+00
 -1      4099 4.21500E+01 2.66180E+01 0.00000E+00
 -1      4100 4.59000E+01 2.79170E+01 0.00000E+00
 -1      4101 4.74000E+01 2.79170E+01 0.00000E+00
 -1      4102 4.51500E+01 2.66180E+01 0.00000E+00
 -1      4103 4.89000E+01 2.79170E+01 0.00000E+00
 -1      4104 5.04000E+01 2.79170E+01 0.00000E+00
 -1      4105 4.81500E+01 2.66180E+01 0.00000E+00
 -1      4106 5.19000E+01 2.79170E+01 0.00000E+00
 -1      4107 5.34000E+01 2.79170E+01 0.00000E+00
 -1      4108 5.11500E+01 2.66180E+01 0.00000E+00
 -1      4109 5.49000E+01 2.79170E+01 0.00000E+00
 -1      4110 5.64000E+01 2.79170E+01 0.00000E+00
 -1      4111 5.41500E+01 2.66180E+01 0.00000E+00
 -1      4112 5.79000E+01 2.79170E+01 0.00000E+00
 -1      4113 5.94000E+01 2.79170E+01 0.00000E+00
 -1      4114 5.71500E+01 2.66180E+01 0.00000E+00
 -1      4115 6.09000E+01 2.79170E+01 0.00000E+00
 -1      4116 6.24000E+01 2.79170E+01 0.00000E+00
 -1      4117 6.01500E+01 2.66180E+01 0.00000E+00
 -1      4118 6.39000E+01 2.79170E+01 0.00000E+00
 -1      4119 6.54000E+01 2.79170E+01 0.00000E+00
 -1      4120 6.31500E+01 2.66180E+01 0.00000E+00
 -1      4121 6.69000E+01 2.79170E+01 0.00000E+00
 -1      4122 6.84000E+01 2.79170E+01 0.00000E+00
 -1      4123 6.61500E+01 2.66180E+01 0.00000E+00
 -1      4124 6.99000E+01 2.79170E+01 0.00000E+00
 -1      4125 7.14000E+01 2.79170E+01 0.00000E+00
 -1      4126 6.91500E+01 2.66180E+01 0.00000E+00
 -1      4127 7.29000E+01 2.79170E+01 0.00000E+00
 -1      4128 7.44000E+01 2.79170E+01 0.00000E+00
 -1      4129 7.21500E+01 2.66180E+01 0.00000E+00
 -1      4130 7.59000E+01 2.79170E+01 0.00000E+00
 -1      4131 7.74000E+01 2.79170E+01 0.00000E+00
 -1      4132 7.51500E+01 2.66180E+01 0.00000E+00
 -1      4133 7.89000E+01 2.79170E+01 0.00000E+00
 -1      4134 8.04000E+01 2.79170E+01 0.00000E+00
 -1      4135 7.81500E+01 2.66180E+01 0.00000E+00
 -1      4136 8.19000E+01 2.79170E+01 0.00000E+00
 -1      4137 8.34000E+01 2.79170E+01 0.00000E+00
 -1      4138 8.11500E+01 2.66180E+01 0.00000E+00
 -1      4139 8.49000E+01 2.79170E+01 0.00000E+00
 -1      4140 8.64000E+01 2.79170E+01 0.00000E+00
 -1      4141 8.41500E+01 2.66180E+01 0.00000E+00
 -1      4142 8.79000E+01 2.79170E+01 0.00000E+00
 -1      4143 8.94000E+01 2.79170E+01 0.00000E+00
 -1      4144 8.71500E+01 2.66180E+01 0.00000E+00
 -1      4145 9.09000E+01 2.79170E+01 0.00000E+00
 -1      4146 9.24000E+01 2.79170E+01 0.00000E+00
 -1      4147 9.01500E+01 2.66180E+01 0.00000E+00
 -1      4148 9.39000E+01 2.79170E+01 0.00000E+00
 -1      4149 9.54000E+01 2.79170E+01 0.00000E+00
 -1      4150 9.31500E+01 2.66180E+01 0.00000E+00
 -1      4151 9.69000E+01 2.79170E+01 0.00000E+00
 -1      4152 9.84000E+01 2.79170E+01 0.00000E+00
 -1      4153 9.61500E+01 2.66180E+01 0.00000E+00
 -1      4154 6.77850E+01 2.08932E+01 0.00000E+00
 -1      4155 6.62850E+01 2.08932E+01 0.00000E+00
 -1      4156 7.07850E+01 2.08932E+01 0.00000E+00
 -1      4157 6.92850E+01 2.08932E+01 0.00000E+00
 -1      4158 6.85350E+01 2.21922E+01 0.00000E+00
 -1      4159 1.86192E+01 1.81440E+01 0.00000E+00
 -1      4160 7.37850E+01 2.08932E+01 0.00000E+00
 -1      4161 7.22850E+01 2.08932E+01 0.00000E+00
 -1      4162 7.15350E+01 2.21922E+01 0.00000E+00
 -1      4163 7.67850E+01 2.08932E+01 0.00000E+00
 -1      4164 7.52850E+01 2.08932E+01 0.00000E+00
 -1      4165 7.45350E+01 2.21922E+01 0.00000E+00
 -1      4166 7.97850E+01 2.08932E+01 0.00000E+00
 -1      4167 7.82850E+01 2.08932E+01 0.00000E+00
 -1      4168 7.75350E+01 2.21922E+01 0.00000E+00
 -1      4169 8.27850E+01 2.08932E+01 0.00000E+00
 -1      4170 8.12850E+01 2.08932E+01 0.00000E+00
 -1      4171 8.05350E+01 2.21922E+01 0.00000E+00
 -1      4172 8.57850E+01 2.08932E+01 0.00000E+00
 -1      4173 8.42850E+01 2.08932E+01 0.00000E+00
 -1      4174 8.35350E+01 2.21922E+01 0.00000E+00
 -1      4175 8.87850E+01 2.08932E+01 0.00000E+00
 -1      4176 8.72850E+01 2.08932E+01 0.00000E+00
 -1      4177 8.65350E+01 2.21922E+01 0.00000E+00
 -1      4178 9.17850E+01 2.08932E+01 0.00000E+00
 -1      4179 9.02850E+01 2.08932E+01 0.00000E+00
 -1      4180 8.95350E+01 2.21922E+01 0.00000E+00
 -1      4181 9.47850E+01 2.08932E+01 0.00000E+00
 -1      4182 9.32850E+01 2.08932E+01 0.00000E+00
 -1      4183 9.25350E+01 2.21922E+01 0.00000E+00
 -1      4184 9.77850E+01 2.08932E+01 0.00000E+00
 -1      4185 9.62850E+01 2.08932E+01 0.00000E+00
 -1      4186 9.55350E+01 2.21922E+01 0.00000E+00
 -1      4187 3.32850E+01 1.82952E+01 0.00000E+00
 -1      4188 3.17850E+01 1.82952E+01 0.00000E+00
 -1      4189 3.10350E+01 1.95942E+01 0.00000E+00
 -1      4190 4.52850E+01 1.82952E+01 0.00000E+00
 -1      4191 4.37850E+01 1.82952E+01 0.00000E+00
 -1      4192 4.30350E+01 1.95942E+01 0.00000E+00
 -1      4193 3.62850E+01 1.82952E+01 0.00000E+00
 -1      4194 3.47850E+01 1.82952E+01 0.00000E+00
 -1      4195 3.70350E+01 1.95942E+01 0.00000E+00
 -1      4196 5.87850E+01 2.08932E+01 0.00000E+00
 -1      4197 5.72850E+01 2.08932E+01 0.00000E+00
 -1      4198 2.79000E+01 2.79170E+01 0.00000E+00
 -1      4199 2.94000E+01 2.79170E+01 0.00000E+00
 -1      4200 3.01500E+01 2.66180E+01 0.00000E+00
 -1      4201 1.96588E+01 2.85921E+01 0.00000E+00
 -1      4202 2.49000E+01 2.79170E+01 0.00000E+00
 -1      4203 2.64000E+01 2.79170E+01 0.00000E+00
 -1      4204 2.71500E+01 2.66180E+01 0.00000E+00
 -1      4205 5.27850E+01 2.08932E+01 0.00000E+00
 -1      4206 5.12850E+01 2.08932E+01 0.00000E+00
 -1      4207 6.17850E+01 2.08932E+01 0.00000E+00
 -1      4208 6.02850E+01 2.08932E+01 0.00000E+00
 -1      4209 5.95350E+01 2.21922E+01 0.00000E+00
 -1      4210 2.57850E+01 2.08932E+01 0.00000E+00
 -1      4211 2.42850E+01 2.08932E+01 0.00000E+00
 -1      4212 1.00369E+02 2.52334E+01 0.00000E+00
 -1      4213 5.57850E+01 2.08932E+01 0.00000E+00
 -1      4214 5.42850E+01 2.08932E+01 0.00000E+00
 -1      4215 5.65350E+01 2.21922E+01 0.00000E+00
 -1      4216 2.09624E+01 2.78510E+01 0.00000E+00
 -1      4217 2.21812E+01 2.78840E+01 0.00000E+00
 -1      4218 2.36812E+01 2.78840E+01 0.00000E+00
 -1      4219 2.44312E+01 2.65850E+01 0.00000E+00
 -1      4220 2.19936E+01 2.65190E+01 0.00000E+00
 -1      4221 6.47850E+01 2.08932E+01 0.00000E+00
 -1      4222 6.32850E+01 2.08932E+01 0.00000E+00
 -1      4223 6.55350E+01 2.21922E+01 0.00000E+00
 -1      4224 9.94300E+01 2.68536E+01 0.00000E+00
 -1      4225 9.85888E+01 2.49978E+01 0.00000E+00
 -1      4226 1.93692E+01 1.94430E+01 0.00000E+00
 -1      4227 1.95424E+01 2.06614E+01 0.00000E+00
 -1      4228 5.05350E+01 2.21922E+01 0.00000E+00
 -1      4229 4.97850E+01 2.08932E+01 0.00000E+00
 -1      4230 4.82850E+01 2.08932E+01 0.00000E+00
 -1      4231 9.90313E+01 2.14859E+01 0.00000E+00
 -1      4232 9.82813E+01 2.27849E+01 0.00000E+00
 -1      4233 3.40350E+01 1.95942E+01 0.00000E+00
 -1      4234 9.99511E+01 2.02896E+01 0.00000E+00
 -1      4235 4.60350E+01 1.95942E+01 0.00000E+00
 -1      4236 3.77850E+01 2.08932E+01 0.00000E+00
 -1      4237 3.62850E+01 2.08932E+01 0.00000E+00
 -1      4238 2.35350E+01 2.21923E+01 0.00000E+00
 -1      4239 2.27850E+01 2.08933E+01 0.00000E+00
 -1      4240 2.14669E+01 2.07435E+01 0.00000E+00
 -1      4241 2.19936E+01 2.50471E+01 0.00000E+00
 -1      4242 6.25350E+01 2.21922E+01 0.00000E+00
 -1      4243 3.92850E+01 2.08932E+01 0.00000E+00
 -1      4244 3.85350E+01 2.21922E+01 0.00000E+00
 -1      4245 4.07850E+01 2.08932E+01 0.00000E+00
 -1      4246 2.87850E+01 2.08932E+01 0.00000E+00
 -1      4247 2.72850E+01 2.08932E+01 0.00000E+00
 -1      4248 2.65350E+01 2.21922E+01 0.00000E+00
 -1      4249 5.35350E+01 2.21922E+01 0.00000E+00
 -1      4250 9.73425E+01 2.44051E+01 0.00000E+00
 -1      4251 3.54000E+01 2.53190E+01 0.00000E+00
 -1      4252 3.69000E+01 2.53190E+01 0.00000E+00
 -1      4253 3.88425E+01 2.44051E+01 0.00000E+00
 -1      4254 4.03425E+01 2.44051E+01 0.00000E+00
 -1      4255 4.44000E+01 2.53190E+01 0.00000E+00
 -1      4256 4.59000E+01 2.53190E+01 0.00000E+00
 -1      4257 4.78425E+01 2.44051E+01 0.00000E+00
 -1      4258 4.93425E+01 2.44051E+01 0.00000E+00
 -1      4259 5.08425E+01 2.44051E+01 0.00000E+00
 -1      4260 5.23425E+01 2.44051E+01 0.00000E+00
 -1      4261 5.38425E+01 2.44051E+01 0.00000E+00
 -1      4262 5.53425E+01 2.44051E+01 0.00000E+00
 -1      4263 5.68425E+01 2.44051E+01 0.00000E+00
 -1      4264 5.83425E+01 2.44051E+01 0.00000E+00
 -1      4265 5.98425E+01 2.44051E+01 0.00000E+00
 -1      4266 6.13425E+01 2.44051E+01 0.00000E+00
 -1      4267 6.28425E+01 2.44051E+01 0.00000E+00
 -1      4268 6.43425E+01 2.44051E+01 0.00000E+00
 -1      4269 6.58425E+01 2.44051E+01 0.00000E+00
 -1      4270 6.73425E+01 2.44051E+01 0.00000E+00
 -1      4271 6.88425E+01 2.44051E+01 0.00000E+00
 -1      4272 7.03425E+01 2.44051E+01 0.00000E+00
 -1      4273 7.18425E+01 2.44051E+01 0.00000E+00
 -1      4274 7.33425E+01 2.44051E+01 0.00000E+00
 -1      4275 7.48425E+01 2.44051E+01 0.00000E+00
 -1      4276 7.63425E+01 2.44051E+01 0.00000E+00
 -1      4277 7.78425E+01 2.44051E+01 0.00000E+00
 -1      4278 7.93425E+01 2.44051E+01 0.00000E+00
 -1      4279 8.08425E+01 2.44051E+01 0.00000E+00
 -1      4280 8.23425E+01 2.44051E+01 0.00000E+00
 -1      4281 8.38425E+01 2.44051E+01 0.00000E+00
 -1      4282 8.53425E+01 2.44051E+01 0.00000E+00
 -1      4283 8.68425E+01 2.44051E+01 0.00000E+00
 -1      4284 8.83425E+01 2.44051E+01 0.00000E+00
 -1      4285 8.98425E+01 2.44051E+01 0.00000E+00
 -1      4286 9.13425E+01 2.44051E+01 0.00000E+00
 -1      4287 9.28425E+01 2.44051E+01 0.00000E+00
 -1      4288 9.43425E+01 2.44051E+01 0.00000E+00
 -1      4289 9.58425E+01 2.44051E+01 0.00000E+00
 -1      4290 3.17850E+01 2.08932E+01 0.00000E+00
 -1      4291 3.02850E+01 2.08932E+01 0.00000E+00
 -1      4292 2.95350E+01 2.21922E+01 0.00000E+00
 -1      4293 3.47850E+01 2.08932E+01 0.00000E+00
 -1      4294 3.32850E+01 2.08932E+01 0.00000E+00
 -1      4295 3.55350E+01 2.21922E+01 0.00000E+00
 -1      4296 2.98425E+01 2.44051E+01 0.00000E+00
 -1      4297 3.13425E+01 2.44051E+01 0.00000E+00
 -1      4298 4.37850E+01 2.08932E+01 0.00000E+00
 -1      4299 4.22850E+01 2.08932E+01 0.00000E+00
 -1      4300 4.15350E+01 2.21922E+01 0.00000E+00
 -1      4301 2.01105E+01 2.21102E+01 0.00000E+00
 -1      4302 2.14049E+01 2.28673E+01 0.00000E+00
 -1      4303 4.67850E+01 2.08932E+01 0.00000E+00
 -1      4304 4.52850E+01 2.08932E+01 0.00000E+00
 -1      4305 4.45350E+01 2.21922E+01 0.00000E+00
 -1      4306 4.75350E+01 2.21922E+01 0.00000E+00
 -1      4307 3.28425E+01 2.44051E+01 0.00000E+00
 -1      4308 3.43425E+01 2.44051E+01 0.00000E+00
 -1      4309 2.68425E+01 2.44051E+01 0.00000E+00
 -1      4310 2.83425E+01 2.44051E+01 0.00000E+00
 -1      4311 2.29049E+01 2.28672E+01 0.00000E+00
 -1      4312 2.22747E+01 2.35422E+01 0.00000E+00
 -1      4313 2.44048E+01 2.28672E+01 0.00000E+00
 -1      4314 4.18425E+01 2.44051E+01 0.00000E+00
 -1      4315 4.33425E+01 2.44051E+01 0.00000E+00
 -1      4316 3.25350E+01 2.21922E+01 0.00000E+00
 -1      4317 2.34935E+01 2.50471E+01 0.00000E+00
 -1      4318 2.53425E+01 2.44051E+01 0.00000E+00
 -1      4319 2.47123E+01 2.50801E+01 0.00000E+00
 -1      4320 3.50925E+01 2.31061E+01 0.00000E+00
 -1      4321 4.70925E+01 2.31061E+01 0.00000E+00
 -1      4322 3.65925E+01 2.31061E+01 0.00000E+00
 -1      4323 4.40925E+01 2.31061E+01 0.00000E+00
 -1      4324 3.80925E+01 2.31061E+01 0.00000E+00
 -1      4325 4.55925E+01 2.31061E+01 0.00000E+00
 -3
    3C                          2081                                     1
 -1       164    8    0    1
 -2         6         7        23      1123      1286      1140
 -1       165    8    0    1
 -2         7         8       164      1124      1287      1288
 -1       166    8    0    1
 -2         8         9       165      1125      1289      1290
 -1       167    8    0    1
 -2         8       165       164      1290      1291      1287
 -1       168    8    0    1
 -2         9        10       166      1126      1292      1293
 -1       169    8    0    1
 -2         9       166       165      1293      1294      1289
 -1       170    8    0    1
 -2        10        11       167      1127      1295      1296
 -1       171    8    0    1
 -2        10       167       166      1296      1297      1292
 -1       172    8    0    1
 -2        11        12       168      1128      1298      1299
 -1       173    8    0    1
 -2        11       168       167      1299      1300      1295
 -1       174    8    0    1
 -2        12        13       169      1129      1301      1302
 -1       175    8    0    1
 -2        12       169       168      1302      1303      1298
 -1       176    8    0    1
 -2        13        14       170      1130      1304      1305
 -1       177    8    0    1
 -2        13       170       169      1305      1306      1301
 -1       178    8    0    1
 -2        14        15       171      1131      1307      1308
 -1       179    8    0    1
 -2        14       171       170      1308      1309      1304
 -1       180    8    0    1
 -2        15        16       172      1132      1310      1311
 -1       181    8    0    1
 -2        15       172       171      1311      1312      1307
 -1       182    8    0    1
 -2        16        17       173      1133      1313      1314
 -1       183    8    0    1
 -2        16       173       172      1314      1315      1310
 -1       184    8    0    1
 -2        17        18       174      1134      1316      1317
 -1       185    8    0    1
 -2        17       174       173      1317      1318      1313
 -1       186    8    0    1
 -2        18        19       175      1135      1319      1320
 -1       187    8    0    1
 -2        18       175       174      1320      1321      1316
 -1       188    8    0    1
 -2        19        20       176      1136      1322      1323
 -1       189    8    0    1
 -2        19       176       175      1323      1324      1319
 -1       190    8    0    1
 -2        20        21       177      1137      1325      1326
 -1       191    8    0    1
 -2        20       177       176      1326      1327      1322
 -1       192    8    0    1
 -2        21        22       178      1138      1328      1329
 -1       193    8    0    1
 -2        21       178       177      1329      1330      1325
 -1       194    8    0    1
 -2        22         5       179      1139      1331      1332
 -1       195    8    0    1
 -2       178        22       179      1328      1332      1333
 -1       196    8    0    1
 -2         5        72       179      1190      1334      1331
 -1       197    8    0    1
 -2        24        23       180      1141      1335      1336
 -1       198    8    0    1
 -2        25        24       181      1142      1337      1338
 -1       199    8    0    1
 -2        24       180       181      1336      1339      1337
 -1       200    8    0    1
 -2        26        25       182      1143      1340      1341
 -1       201    8    0    1
 -2        25       181       182      1338      1342      1340
 -1       202    8    0    1
 -2        27        26       183      1144      1343      1344
 -1       203    8    0    1
 -2        26       182       183      1341      1345      1343
 -1       204    8    0    1
 -2        28        27       184      1145      1346      1347
 -1       205    8    0    1
 -2        27       183       184      1344      1348      1346
 -1       206    8    0    1
 -2        29        28       185      1146      1349      1350
 -1       207    8    0    1
 -2        28       184       185      1347      1351      1349
 -1       208    8    0    1
 -2        30        29       186      1147      1352      1353
 -1       209    8    0    1
 -2        29       185       186      1350      1354      1352
 -1       210    8    0    1
 -2        31        30       187      1148      1355      1356
 -1       211    8    0    1
 -2        30       186       187      1353      1357      1355
 -1       212    8    0    1
 -2        32        31       188      1149      1358      1359
 -1       213    8    0    1
 -2        31       187       188      1356      1360      1358
 -1       214    8    0    1
 -2        33        32       189      1150      1361      1362
 -1       215    8    0    1
 -2        32       188       189      1359      1363      1361
 -1       216    8    0    1
 -2        34        33       190      1151      1364      1365
 -1       217    8    0    1
 -2        33       189       190      1362      1366      1364
 -1       218    8    0    1
 -2        35        34       191      1152      1367      1368
 -1       219    8    0    1
 -2        34       190       191      1365      1369      1367
 -1       220    8    0    1
 -2        36        35       192      1153      1370      1371
 -1       221    8    0    1
 -2        35       191       192      1368      1372      1370
 -1       222    8    0    1
 -2        37        36       193      1154      1373      1374
 -1       223    8    0    1
 -2        36       192       193      1371      1375      1373
 -1       224    8    0    1
 -2        38        37       194      1155      1376      1377
 -1       225    8    0    1
 -2        37       193       194      1374      1378      1376
 -1       226    8    0    1
 -2        39        38       195      1156      1379      1380
 -1       227    8    0    1
 -2        38       194       195      1377      1381      1379
 -1       228    8    0    1
 -2        40        39       196      1157      1382      1383
 -1       229    8    0    1
 -2        39       195       196      1380      1384      1382
 -1       230    8    0    1
 -2        41        40       197      1158      1385      1386
 -1       231    8    0    1
 -2        40       196       197      1383      1387      1385
 -1       232    8    0    1
 -2        42        41       198      1159      1388      1389
 -1       233    8    0    1
 -2        41       197       198      1386      1390      1388
 -1       234    8    0    1
 -2        43        42       199      1160      1391      1392
 -1       235    8    0    1
 -2        42       198       199      1389      1393      1391
 -1       236    8    0    1
 -2        44        43       200      1161      1394      1395
 -1       237    8    0    1
 -2        43       199       200      1392      1396      1394
 -1       238    8    0    1
 -2        45        44       201      1162      1397      1398
 -1       239    8    0    1
 -2        44       200       201      1395      1399      1397
 -1       240    8    0    1
 -2        46        45       202      1163      1400      1401
 -1       241    8    0    1
 -2        45       201       202      1398      1402      1400
 -1       242    8    0    1
 -2        47        46       203      1164      1403      1404
 -1       243    8    0    1
 -2        46       202       203      1401      1405      1403
 -1       244    8    0    1
 -2        48        47       204      1165      1406      1407
 -1       245    8    0    1
 -2        47       203       204      1404      1408      1406
 -1       246    8    0    1
 -2        49        48       205      1166      1409      1410
 -1       247    8    0    1
 -2        48       204       205      1407      1411      1409
 -1       248    8    0    1
 -2        50        49       206      1167      1412      1413
 -1       249    8    0    1
 -2        49       205       206      1410      1414      1412
 -1       250    8    0    1
 -2        51        50       207      1168      1415      1416
 -1       251    8    0    1
 -2        50       206       207      1413      1417      1415
 -1       252    8    0    1
 -2        52        51       208      1169      1418      1419
 -1       253    8    0    1
 -2        51       207       208      1416      1420      1418
 -1       254    8    0    1
 -2        53        52       209      1170      1421      1422
 -1       255    8    0    1
 -2        52       208       209      1419      1423      1421
 -1       256    8    0    1
 -2        54        53       210      1171      1424      1425
 -1       257    8    0    1
 -2        53       209       210      1422      1426      1424
 -1       258    8    0    1
 -2        55        54       211      1172      1427      1428
 -1       259    8    0    1
 -2        54       210       211      1425      1429      1427
 -1       260    8    0    1
 -2        56        55       212      1173      1430      1431
 -1       261    8    0    1
 -2        55       211       212      1428      1432      1430
 -1       262    8    0    1
 -2        57        56       213      1174      1433      1434
 -1       263    8    0    1
 -2        56       212       213      1431      1435      1433
 -1       264    8    0    1
 -2        58        57       214      1175      1436      1437
 -1       265    8    0    1
 -2        57       213       214      1434      1438      1436
 -1       266    8    0    1
 -2        59        58       215      1176      1439      1440
 -1       267    8    0    1
 -2        58       214       215      1437      1441      1439
 -1       268    8    0    1
 -2        60        59       216      1177      1442      1443
 -1       269    8    0    1
 -2        59       215       216      1440      1444      1442
 -1       270    8    0    1
 -2        61        60       217      1178      1445      1446
 -1       271    8    0    1
 -2        60       216       217      1443      1447      1445
 -1       272    8    0    1
 -2        62        61       218      1179      1448      1449
 -1       273    8    0    1
 -2        61       217       218      1446      1450      1448
 -1       274    8    0    1
 -2        63        62       219      1180      1451      1452
 -1       275    8    0    1
 -2        62       218       219      1449      1453      1451
 -1       276    8    0    1
 -2        64        63       220      1181      1454      1455
 -1       277    8    0    1
 -2        63       219       220      1452      1456      1454
 -1       278    8    0    1
 -2        65        64       221      1182      1457      1458
 -1       279    8    0    1
 -2        64       220       221      1455      1459      1457
 -1       280    8    0    1
 -2        66        65       222      1183      1460      1461
 -1       281    8    0    1
 -2        65       221       222      1458      1462      1460
 -1       282    8    0    1
 -2        67        66       223      1184      1463      1464
 -1       283    8    0    1
 -2        66       222       223      1461      1465      1463
 -1       284    8    0    1
 -2        68        67       224      1185      1466      1467
 -1       285    8    0    1
 -2        67       223       224      1464      1468      1466
 -1       286    8    0    1
 -2        69        68       225      1186      1469      1470
 -1       287    8    0    1
 -2        68       224       225      1467      1471      1469
 -1       288    8    0    1
 -2        70        69       226      1187      1472      1473
 -1       289    8    0    1
 -2        69       225       226      1470      1474      1472
 -1       290    8    0    1
 -2        71        70       227      1188      1475      1476
 -1       291    8    0    1
 -2        70       226       227      1473      1477      1475
 -1       292    8    0    1
 -2         4        71       136      1189      1478      1256
 -1       293    8    0    1
 -2       136        71       227      1478      1476      1479
 -1       294    8    0    1
 -2        72        73       228      1191      1480      1481
 -1       295    8    0    1
 -2        72       228       179      1481      1482      1334
 -1       296    8    0    1
 -2        73        74       229      1192      1483      1484
 -1       297    8    0    1
 -2        73       229       228      1484      1485      1480
 -1       298    8    0    1
 -2        74        75       230      1193      1486      1487
 -1       299    8    0    1
 -2        74       230       229      1487      1488      1483
 -1       300    8    0    1
 -2        75        76       231      1194      1489      1490
 -1       301    8    0    1
 -2        75       231       230      1490      1491      1486
 -1       302    8    0    1
 -2        76        77       232      1195      1492      1493
 -1       303    8    0    1
 -2        76       232       231      1493      1494      1489
 -1       304    8    0    1
 -2        77        78       233      1196      1495      1496
 -1       305    8    0    1
 -2        77       233       232      1496      1497      1492
 -1       306    8    0    1
 -2        78        79       234      1197      1498      1499
 -1       307    8    0    1
 -2        78       234       233      1499      1500      1495
 -1       308    8    0    1
 -2        79        80       235      1198      1501      1502
 -1       309    8    0    1
 -2        79       235       234      1502      1503      1498
 -1       310    8    0    1
 -2        80        81       236      1199      1504      1505
 -1       311    8    0    1
 -2        80       236       235      1505      1506      1501
 -1       312    8    0    1
 -2        81        82       237      1200      1507      1508
 -1       313    8    0    1
 -2        81       237       236      1508      1509      1504
 -1       314    8    0    1
 -2        82        83       238      1201      1510      1511
 -1       315    8    0    1
 -2        82       238       237      1511      1512      1507
 -1       316    8    0    1
 -2        83        84       239      1202      1513      1514
 -1       317    8    0    1
 -2        83       239       238      1514      1515      1510
 -1       318    8    0    1
 -2        84        85       240      1203      1516      1517
 -1       319    8    0    1
 -2        84       240       239      1517      1518      1513
 -1       320    8    0    1
 -2        85        86       241      1204      1519      1520
 -1       321    8    0    1
 -2        85       241       240      1520      1521      1516
 -1       322    8    0    1
 -2        86        87       242      1205      1522      1523
 -1       323    8    0    1
 -2        86       242       241      1523      1524      1519
 -1       324    8    0    1
 -2        87        88       243      1206      1525      1526
 -1       325    8    0    1
 -2        87       243       242      1526      1527      1522
 -1       326    8    0    1
 -2        88        89       244      1207      1528      1529
 -1       327    8    0    1
 -2        88       244       243      1529      1530      1525
 -1       328    8    0    1
 -2        89        90       245      1208      1531      1532
 -1       329    8    0    1
 -2        89       245       244      1532      1533      1528
 -1       330    8    0    1
 -2        90        91       246      1209      1534      1535
 -1       331    8    0    1
 -2        90       246       245      1535      1536      1531
 -1       332    8    0    1
 -2        91        92       247      1210      1537      1538
 -1       333    8    0    1
 -2        91       247       246      1538      1539      1534
 -1       334    8    0    1
 -2        92        93       248      1211      1540      1541
 -1       335    8    0    1
 -2        92       248       247      1541      1542      1537
 -1       336    8    0    1
 -2        93        94       249      1212      1543      1544
 -1       337    8    0    1
 -2        93       249       248      1544      1545      1540
 -1       338    8    0    1
 -2        94        95       250      1213      1546      1547
 -1       339    8    0    1
 -2        94       250       249      1547      1548      1543
 -1       340    8    0    1
 -2        95        96       251      1214      1549      1550
 -1       341    8    0    1
 -2        95       251       250      1550      1551      1546
 -1       342    8    0    1
 -2        96        97       252      1215      1552      1553
 -1       343    8    0    1
 -2        96       252       251      1553      1554      1549
 -1       344    8    0    1
 -2        97        98       253      1216      1555      1556
 -1       345    8    0    1
 -2        97       253       252      1556      1557      1552
 -1       346    8    0    1
 -2        98        99       254      1217      1558      1559
 -1       347    8    0    1
 -2        98       254       253      1559      1560      1555
 -1       348    8    0    1
 -2        99       100       255      1218      1561      1562
 -1       349    8    0    1
 -2        99       255       254      1562      1563      1558
 -1       350    8    0    1
 -2       100       101       256      1219      1564      1565
 -1       351    8    0    1
 -2       100       256       255      1565      1566      1561
 -1       352    8    0    1
 -2       101       102       257      1220      1567      1568
 -1       353    8    0    1
 -2       101       257       256      1568      1569      1564
 -1       354    8    0    1
 -2       102       103       258      1221      1570      1571
 -1       355    8    0    1
 -2       102       258       257      1571      1572      1567
 -1       356    8    0    1
 -2       103       104       259      1222      1573      1574
 -1       357    8    0    1
 -2       103       259       258      1574      1575      1570
 -1       358    8    0    1
 -2       104       105       260      1223      1576      1577
 -1       359    8    0    1
 -2       104       260       259      1577      1578      1573
 -1       360    8    0    1
 -2       105       106       261      1224      1579      1580
 -1       361    8    0    1
 -2       105       261       260      1580      1581      1576
 -1       362    8    0    1
 -2       106       107       262      1225      1582      1583
 -1       363    8    0    1
 -2       106       262       261      1583      1584      1579
 -1       364    8    0    1
 -2       107       108       263      1226      1585      1586
 -1       365    8    0    1
 -2       107       263       262      1586      1587      1582
 -1       366    8    0    1
 -2       108       109       264      1227      1588      1589
 -1       367    8    0    1
 -2       108       264       263      1589      1590      1585
 -1       368    8    0    1
 -2       109       110       265      1228      1591      1592
 -1       369    8    0    1
 -2       109       265       264      1592      1593      1588
 -1       370    8    0    1
 -2       110       111       266      1229      1594      1595
 -1       371    8    0    1
 -2       110       266       265      1595      1596      1591
 -1       372    8    0    1
 -2       111       112       267      1230      1597      1598
 -1       373    8    0    1
 -2       111       267       266      1598      1599      1594
 -1       374    8    0    1
 -2       112       113       268      1231      1600      1601
 -1       375    8    0    1
 -2       112       268       267      1601      1602      1597
 -1       376    8    0    1
 -2       113       114       269      1232      1603      1604
 -1       377    8    0    1
 -2       113       269       268      1604      1605      1600
 -1       378    8    0    1
 -2       114       115       270      1233      1606      1607
 -1       379    8    0    1
 -2       114       270       269      1607      1608      1603
 -1       380    8    0    1
 -2       115       116       271      1234      1609      1610
 -1       381    8    0    1
 -2       115       271       270      1610      1611      1606
 -1       382    8    0    1
 -2       116       117       272      1235      1612      1613
 -1       383    8    0    1
 -2       116       272       271      1613      1614      1609
 -1       384    8    0    1
 -2       117       118       273      1236      1615      1616
 -1       385    8    0    1
 -2       117       273       272      1616      1617      1612
 -1       386    8    0    1
 -2       118       119       274      1237      1618      1619
 -1       387    8    0    1
 -2       118       274       273      1619      1620      1615
 -1       388    8    0    1
 -2       119       120       275      1238      1621      1622
 -1       389    8    0    1
 -2       119       275       274      1622      1623      1618
 -1       390    8    0    1
 -2       120         3       121      1239      1240      1624
 -1       391    8    0    1
 -2       121       122       276      1241      1625      1626
 -1       392    8    0    1
 -2       122       123       277      1242      1627      1628
 -1       393    8    0    1
 -2       122       277       276      1628      1629      1625
 -1       394    8    0    1
 -2       123       124       278      1243      1630      1631
 -1       395    8    0    1
 -2       123       278       277      1631      1632      1627
 -1       396    8    0    1
 -2       124       125       279      1244      1633      1634
 -1       397    8    0    1
 -2       124       279       278      1634      1635      1630
 -1       398    8    0    1
 -2       125       126       280      1245      1636      1637
 -1       399    8    0    1
 -2       125       280       279      1637      1638      1633
 -1       400    8    0    1
 -2       126       127       281      1246      1639      1640
 -1       401    8    0    1
 -2       126       281       280      1640      1641      1636
 -1       402    8    0    1
 -2       127       128       282      1247      1642      1643
 -1       403    8    0    1
 -2       127       282       281      1643      1644      1639
 -1       404    8    0    1
 -2       128       129       283      1248      1645      1646
 -1       405    8    0    1
 -2       128       283       282      1646      1647      1642
 -1       406    8    0    1
 -2       129       130       284      1249      1648      1649
 -1       407    8    0    1
 -2       129       284       283      1649      1650      1645
 -1       408    8    0    1
 -2       130       131       285      1250      1651      1652
 -1       409    8    0    1
 -2       130       285       284      1652      1653      1648
 -1       410    8    0    1
 -2       131       132       286      1251      1654      1655
 -1       411    8    0    1
 -2       131       286       285      1655      1656      1651
 -1       412    8    0    1
 -2       132       133       287      1252      1657      1658
 -1       413    8    0    1
 -2       132       287       286      1658      1659      1654
 -1       414    8    0    1
 -2       133       134       288      1253      1660      1661
 -1       415    8    0    1
 -2       133       288       287      1661      1662      1657
 -1       416    8    0    1
 -2       134       135       289      1254      1663      1664
 -1       417    8    0    1
 -2       134       289       288      1664      1665      1660
 -1       418    8    0    1
 -2       135       136       290      1255      1666      1667
 -1       419    8    0    1
 -2       289       135       290      1663      1667      1668
 -1       420    8    0    1
 -2       136       227       290      1479      1669      1666
 -1       421    8    0    1
 -2         2       137       291      1257      1670      1671
 -1       422    8    0    1
 -2       137       138       292      1258      1672      1673
 -1       423    8    0    1
 -2       138       139       293      1259      1674      1675
 -1       424    8    0    1
 -2       139       140       294      1260      1676      1677
 -1       425    8    0    1
 -2       140       141       295      1261      1678      1679
 -1       426    8    0    1
 -2       141       142       296      1262      1680      1681
 -1       427    8    0    1
 -2       142       143       297      1263      1682      1683
 -1       428    8    0    1
 -2       143       144       298      1264      1684      1685
 -1       429    8    0    1
 -2       144       145       299      1265      1686      1687
 -1       430    8    0    1
 -2       145       146       300      1266      1688      1689
 -1       431    8    0    1
 -2       146       147       301      1267      1690      1691
 -1       432    8    0    1
 -2       147       148       302      1268      1692      1693
 -1       433    8    0    1
 -2       148       149       303      1269      1694      1695
 -1       434    8    0    1
 -2       149       150       304      1270      1696      1697
 -1       435    8    0    1
 -2       150       151       305      1271      1698      1699
 -1       436    8    0    1
 -2       151       152       306      1272      1700      1701
 -1       437    8    0    1
 -2       152       153       307      1273      1702      1703
 -1       438    8    0    1
 -2       153       154       308      1274      1704      1705
 -1       439    8    0    1
 -2       154       155       309      1275      1706      1707
 -1       440    8    0    1
 -2       155       156       310      1276      1708      1709
 -1       441    8    0    1
 -2       156       157       311      1277      1710      1711
 -1       442    8    0    1
 -2       157       158       312      1278      1712      1713
 -1       443    8    0    1
 -2       158       159       313      1279      1714      1715
 -1       444    8    0    1
 -2       159         1       314      1280      1716      1717
 -1       445    8    0    1
 -2         1       160       315      1281      1718      1719
 -1       446    8    0    1
 -2       160       161       316      1282      1720      1721
 -1       447    8    0    1
 -2       161       162       317      1283      1722      1723
 -1       448    8    0    1
 -2       162       163       318      1284      1724      1725
 -1       449    8    0    1
 -2       163         2       319      1285      1726      1727
 -1       450    8    0    1
 -2       294       140       295      1676      1679      1728
 -1       451    8    0    1
 -2       293       139       294      1674      1677      1729
 -1       452    8    0    1
 -2       120       121       275      1624      1730      1621
 -1       453    8    0    1
 -2       121       276       275      1626      1731      1730
 -1       454    8    0    1
 -2       291       137       292      1670      1673      1732
 -1       455    8    0    1
 -2       292       138       293      1672      1675      1733
 -1       456    8    0    1
 -2         2       291       319      1671      1734      1726
 -1       457    8    0    1
 -2       141       296       295      1681      1735      1678
 -1       458    8    0    1
 -2       142       297       296      1683      1736      1680
 -1       459    8    0    1
 -2       143       298       297      1685      1737      1682
 -1       460    8    0    1
 -2       144       299       298      1687      1738      1684
 -1       461    8    0    1
 -2       145       300       299      1689      1739      1686
 -1       462    8    0    1
 -2       146       301       300      1691      1740      1688
 -1       463    8    0    1
 -2       147       302       301      1693      1741      1690
 -1       464    8    0    1
 -2       148       303       302      1695      1742      1692
 -1       465    8    0    1
 -2       149       304       303      1697      1743      1694
 -1       466    8    0    1
 -2       150       305       304      1699      1744      1696
 -1       467    8    0    1
 -2       151       306       305      1701      1745      1698
 -1       468    8    0    1
 -2       152       307       306      1703      1746      1700
 -1       469    8    0    1
 -2       153       308       307      1705      1747      1702
 -1       470    8    0    1
 -2       154       309       308      1707      1748      1704
 -1       471    8    0    1
 -2       155       310       309      1709      1749      1706
 -1       472    8    0    1
 -2       156       311       310      1711      1750      1708
 -1       473    8    0    1
 -2       157       312       311      1713      1751      1710
 -1       474    8    0    1
 -2       158       313       312      1715      1752      1712
 -1       475    8    0    1
 -2       159       314       313      1717      1753      1714
 -1       476    8    0    1
 -2         1       315       314      1719      1754      1716
 -1       477    8    0    1
 -2       160       316       315      1721      1755      1718
 -1       478    8    0    1
 -2       161       317       316      1723      1756      1720
 -1       479    8    0    1
 -2       162       318       317      1725      1757      1722
 -1       480    8    0    1
 -2       163       319       318      1727      1758      1724
 -1       481    8    0    1
 -2        23         7       164      1286      1288      1759
 -1       482    8    0    1
 -2       165       166       320      1294      1760      1761
 -1       483    8    0    1
 -2       164       165       321      1291      1762      1763
 -1       484    8    0    1
 -2       165       320       321      1761      1764      1762
 -1       485    8    0    1
 -2       167       168       322      1300      1765      1766
 -1       486    8    0    1
 -2       168       169       323      1303      1767      1768
 -1       487    8    0    1
 -2       168       323       322      1768      1769      1765
 -1       488    8    0    1
 -2       169       170       324      1306      1770      1771
 -1       489    8    0    1
 -2       169       324       323      1771      1772      1767
 -1       490    8    0    1
 -2       170       171       325      1309      1773      1774
 -1       491    8    0    1
 -2       170       325       324      1774      1775      1770
 -1       492    8    0    1
 -2       171       172       326      1312      1776      1777
 -1       493    8    0    1
 -2       171       326       325      1777      1778      1773
 -1       494    8    0    1
 -2       172       173       327      1315      1779      1780
 -1       495    8    0    1
 -2       172       327       326      1780      1781      1776
 -1       496    8    0    1
 -2       173       174       328      1318      1782      1783
 -1       497    8    0    1
 -2       173       328       327      1783      1784      1779
 -1       498    8    0    1
 -2       174       175       329      1321      1785      1786
 -1       499    8    0    1
 -2       174       329       328      1786      1787      1782
 -1       500    8    0    1
 -2       175       176       330      1324      1788      1789
 -1       501    8    0    1
 -2       175       330       329      1789      1790      1785
 -1       502    8    0    1
 -2       176       177       331      1327      1791      1792
 -1       503    8    0    1
 -2       176       331       330      1792      1793      1788
 -1       504    8    0    1
 -2       177       178       332      1330      1794      1795
 -1       505    8    0    1
 -2       177       332       331      1795      1796      1791
 -1       506    8    0    1
 -2       178       179       333      1333      1797      1798
 -1       507    8    0    1
 -2       332       178       333      1794      1798      1799
 -1       508    8    0    1
 -2       179       228       333      1482      1800      1797
 -1       509    8    0    1
 -2       180        23       164      1335      1759      1801
 -1       510    8    0    1
 -2       228       229       334      1485      1802      1803
 -1       511    8    0    1
 -2       228       334       333      1803      1804      1800
 -1       512    8    0    1
 -2       180       164       321      1801      1763      1805
 -1       513    8    0    1
 -2       182       181       335      1342      1806      1807
 -1       514    8    0    1
 -2       183       182       336      1345      1808      1809
 -1       515    8    0    1
 -2       182       335       336      1807      1810      1808
 -1       516    8    0    1
 -2       184       183       337      1348      1811      1812
 -1       517    8    0    1
 -2       183       336       337      1809      1813      1811
 -1       518    8    0    1
 -2       185       184       338      1351      1814      1815
 -1       519    8    0    1
 -2       184       337       338      1812      1816      1814
 -1       520    8    0    1
 -2       186       185       339      1354      1817      1818
 -1       521    8    0    1
 -2       185       338       339      1815      1819      1817
 -1       522    8    0    1
 -2       187       186       340      1357      1820      1821
 -1       523    8    0    1
 -2       186       339       340      1818      1822      1820
 -1       524    8    0    1
 -2       188       187       341      1360      1823      1824
 -1       525    8    0    1
 -2       187       340       341      1821      1825      1823
 -1       526    8    0    1
 -2       189       188       342      1363      1826      1827
 -1       527    8    0    1
 -2       188       341       342      1824      1828      1826
 -1       528    8    0    1
 -2       190       189       343      1366      1829      1830
 -1       529    8    0    1
 -2       189       342       343      1827      1831      1829
 -1       530    8    0    1
 -2       191       190       344      1369      1832      1833
 -1       531    8    0    1
 -2       190       343       344      1830      1834      1832
 -1       532    8    0    1
 -2       192       191       345      1372      1835      1836
 -1       533    8    0    1
 -2       191       344       345      1833      1837      1835
 -1       534    8    0    1
 -2       193       192       346      1375      1838      1839
 -1       535    8    0    1
 -2       192       345       346      1836      1840      1838
 -1       536    8    0    1
 -2       194       193       347      1378      1841      1842
 -1       537    8    0    1
 -2       193       346       347      1839      1843      1841
 -1       538    8    0    1
 -2       195       194       348      1381      1844      1845
 -1       539    8    0    1
 -2       194       347       348      1842      1846      1844
 -1       540    8    0    1
 -2       196       195       349      1384      1847      1848
 -1       541    8    0    1
 -2       195       348       349      1845      1849      1847
 -1       542    8    0    1
 -2       197       196       350      1387      1850      1851
 -1       543    8    0    1
 -2       196       349       350      1848      1852      1850
 -1       544    8    0    1
 -2       198       197       351      1390      1853      1854
 -1       545    8    0    1
 -2       197       350       351      1851      1855      1853
 -1       546    8    0    1
 -2       199       198       352      1393      1856      1857
 -1       547    8    0    1
 -2       198       351       352      1854      1858      1856
 -1       548    8    0    1
 -2       200       199       353      1396      1859      1860
 -1       549    8    0    1
 -2       199       352       353      1857      1861      1859
 -1       550    8    0    1
 -2       201       200       354      1399      1862      1863
 -1       551    8    0    1
 -2       200       353       354      1860      1864      1862
 -1       552    8    0    1
 -2       202       201       355      1402      1865      1866
 -1       553    8    0    1
 -2       201       354       355      1863      1867      1865
 -1       554    8    0    1
 -2       203       202       356      1405      1868      1869
 -1       555    8    0    1
 -2       202       355       356      1866      1870      1868
 -1       556    8    0    1
 -2       204       203       357      1408      1871      1872
 -1       557    8    0    1
 -2       203       356       357      1869      1873      1871
 -1       558    8    0    1
 -2       205       204       358      1411      1874      1875
 -1       559    8    0    1
 -2       204       357       358      1872      1876      1874
 -1       560    8    0    1
 -2       206       205       359      1414      1877      1878
 -1       561    8    0    1
 -2       205       358       359      1875      1879      1877
 -1       562    8    0    1
 -2       207       206       360      1417      1880      1881
 -1       563    8    0    1
 -2       206       359       360      1878      1882      1880
 -1       564    8    0    1
 -2       208       207       361      1420      1883      1884
 -1       565    8    0    1
 -2       207       360       361      1881      1885      1883
 -1       566    8    0    1
 -2       209       208       362      1423      1886      1887
 -1       567    8    0    1
 -2       208       361       362      1884      1888      1886
 -1       568    8    0    1
 -2       210       209       363      1426      1889      1890
 -1       569    8    0    1
 -2       209       362       363      1887      1891      1889
 -1       570    8    0    1
 -2       211       210       364      1429      1892      1893
 -1       571    8    0    1
 -2       210       363       364      1890      1894      1892
 -1       572    8    0    1
 -2       212       211       365      1432      1895      1896
 -1       573    8    0    1
 -2       211       364       365      1893      1897      1895
 -1       574    8    0    1
 -2       213       212       366      1435      1898      1899
 -1       575    8    0    1
 -2       212       365       366      1896      1900      1898
 -1       576    8    0    1
 -2       214       213       367      1438      1901      1902
 -1       577    8    0    1
 -2       213       366       367      1899      1903      1901
 -1       578    8    0    1
 -2       215       214       368      1441      1904      1905
 -1       579    8    0    1
 -2       214       367       368      1902      1906      1904
 -1       580    8    0    1
 -2       216       215       369      1444      1907      1908
 -1       581    8    0    1
 -2       215       368       369      1905      1909      1907
 -1       582    8    0    1
 -2       217       216       370      1447      1910      1911
 -1       583    8    0    1
 -2       216       369       370      1908      1912      1910
 -1       584    8    0    1
 -2       218       217       371      1450      1913      1914
 -1       585    8    0    1
 -2       217       370       371      1911      1915      1913
 -1       586    8    0    1
 -2       219       218       372      1453      1916      1917
 -1       587    8    0    1
 -2       218       371       372      1914      1918      1916
 -1       588    8    0    1
 -2       220       219       373      1456      1919      1920
 -1       589    8    0    1
 -2       219       372       373      1917      1921      1919
 -1       590    8    0    1
 -2       221       220       374      1459      1922      1923
 -1       591    8    0    1
 -2       220       373       374      1920      1924      1922
 -1       592    8    0    1
 -2       222       221       375      1462      1925      1926
 -1       593    8    0    1
 -2       221       374       375      1923      1927      1925
 -1       594    8    0    1
 -2       223       222       376      1465      1928      1929
 -1       595    8    0    1
 -2       222       375       376      1926      1930      1928
 -1       596    8    0    1
 -2       224       223       377      1468      1931      1932
 -1       597    8    0    1
 -2       223       376       377      1929      1933      1931
 -1       598    8    0    1
 -2       225       224       378      1471      1934      1935
 -1       599    8    0    1
 -2       224       377       378      1932      1936      1934
 -1       600    8    0    1
 -2       226       225       379      1474      1937      1938
 -1       601    8    0    1
 -2       225       378       379      1935      1939      1937
 -1       602    8    0    1
 -2       227       226       380      1477      1940      1941
 -1       603    8    0    1
 -2       290       227       380      1669      1941      1942
 -1       604    8    0    1
 -2       226       379       380      1938      1943      1940
 -1       605    8    0    1
 -2       229       230       381      1488      1944      1945
 -1       606    8    0    1
 -2       229       381       334      1945      1946      1802
 -1       607    8    0    1
 -2       230       231       382      1491      1947      1948
 -1       608    8    0    1
 -2       230       382       381      1948      1949      1944
 -1       609    8    0    1
 -2       231       232       383      1494      1950      1951
 -1       610    8    0    1
 -2       231       383       382      1951      1952      1947
 -1       611    8    0    1
 -2       232       233       384      1497      1953      1954
 -1       612    8    0    1
 -2       232       384       383      1954      1955      1950
 -1       613    8    0    1
 -2       233       234       385      1500      1956      1957
 -1       614    8    0    1
 -2       233       385       384      1957      1958      1953
 -1       615    8    0    1
 -2       234       235       386      1503      1959      1960
 -1       616    8    0    1
 -2       234       386       385      1960      1961      1956
 -1       617    8    0    1
 -2       235       236       387      1506      1962      1963
 -1       618    8    0    1
 -2       235       387       386      1963      1964      1959
 -1       619    8    0    1
 -2       236       237       388      1509      1965      1966
 -1       620    8    0    1
 -2       236       388       387      1966      1967      1962
 -1       621    8    0    1
 -2       237       238       389      1512      1968      1969
 -1       622    8    0    1
 -2       237       389       388      1969      1970      1965
 -1       623    8    0    1
 -2       238       239       390      1515      1971      1972
 -1       624    8    0    1
 -2       238       390       389      1972      1973      1968
 -1       625    8    0    1
 -2       239       240       391      1518      1974      1975
 -1       626    8    0    1
 -2       239       391       390      1975      1976      1971
 -1       627    8    0    1
 -2       240       241       392      1521      1977      1978
 -1       628    8    0    1
 -2       240       392       391      1978      1979      1974
 -1       629    8    0    1
 -2       241       242       393      1524      1980      1981
 -1       630    8    0    1
 -2       241       393       392      1981      1982      1977
 -1       631    8    0    1
 -2       242       243       394      1527      1983      1984
 -1       632    8    0    1
 -2       242       394       393      1984      1985      1980
 -1       633    8    0    1
 -2       243       244       395      1530      1986      1987
 -1       634    8    0    1
 -2       243       395       394      1987      1988      1983
 -1       635    8    0    1
 -2       244       245       396      1533      1989      1990
 -1       636    8    0    1
 -2       244       396       395      1990      1991      1986
 -1       637    8    0    1
 -2       245       246       397      1536      1992      1993
 -1       638    8    0    1
 -2       245       397       396      1993      1994      1989
 -1       639    8    0    1
 -2       246       247       398      1539      1995      1996
 -1       640    8    0    1
 -2       246       398       397      1996      1997      1992
 -1       641    8    0    1
 -2       247       248       399      1542      1998      1999
 -1       642    8    0    1
 -2       247       399       398      1999      2000      1995
 -1       643    8    0    1
 -2       248       249       400      1545      2001      2002
 -1       644    8    0    1
 -2       248       400       399      2002      2003      1998
 -1       645    8    0    1
 -2       249       250       401      1548      2004      2005
 -1       646    8    0    1
 -2       249       401       400      2005      2006      2001
 -1       647    8    0    1
 -2       250       251       402      1551      2007      2008
 -1       648    8    0    1
 -2       250       402       401      2008      2009      2004
 -1       649    8    0    1
 -2       251       252       403      1554      2010      2011
 -1       650    8    0    1
 -2       251       403       402      2011      2012      2007
 -1       651    8    0    1
 -2       252       253       404      1557      2013      2014
 -1       652    8    0    1
 -2       252       404       403      2014      2015      2010
 -1       653    8    0    1
 -2       253       254       405      1560      2016      2017
 -1       654    8    0    1
 -2       253       405       404      2017      2018      2013
 -1       655    8    0    1
 -2       254       255       406      1563      2019      2020
 -1       656    8    0    1
 -2       254       406       405      2020      2021      2016
 -1       657    8    0    1
 -2       255       256       407      1566      2022      2023
 -1       658    8    0    1
 -2       255       407       406      2023      2024      2019
 -1       659    8    0    1
 -2       256       257       408      1569      2025      2026
 -1       660    8    0    1
 -2       256       408       407      2026      2027      2022
 -1       661    8    0    1
 -2       257       258       409      1572      2028      2029
 -1       662    8    0    1
 -2       257       409       408      2029      2030      2025
 -1       663    8    0    1
 -2       258       259       410      1575      2031      2032
 -1       664    8    0    1
 -2       258       410       409      2032      2033      2028
 -1       665    8    0    1
 -2       259       260       411      1578      2034      2035
 -1       666    8    0    1
 -2       259       411       410      2035      2036      2031
 -1       667    8    0    1
 -2       260       261       412      1581      2037      2038
 -1       668    8    0    1
 -2       260       412       411      2038      2039      2034
 -1       669    8    0    1
 -2       261       262       413      1584      2040      2041
 -1       670    8    0    1
 -2       261       413       412      2041      2042      2037
 -1       671    8    0    1
 -2       262       263       414      1587      2043      2044
 -1       672    8    0    1
 -2       262       414       413      2044      2045      2040
 -1       673    8    0    1
 -2       263       264       415      1590      2046      2047
 -1       674    8    0    1
 -2       263       415       414      2047      2048      2043
 -1       675    8    0    1
 -2       264       265       416      1593      2049      2050
 -1       676    8    0    1
 -2       264       416       415      2050      2051      2046
 -1       677    8    0    1
 -2       265       266       417      1596      2052      2053
 -1       678    8    0    1
 -2       265       417       416      2053      2054      2049
 -1       679    8    0    1
 -2       266       267       418      1599      2055      2056
 -1       680    8    0    1
 -2       266       418       417      2056      2057      2052
 -1       681    8    0    1
 -2       267       268       419      1602      2058      2059
 -1       682    8    0    1
 -2       267       419       418      2059      2060      2055
 -1       683    8    0    1
 -2       268       269       420      1605      2061      2062
 -1       684    8    0    1
 -2       268       420       419      2062      2063      2058
 -1       685    8    0    1
 -2       269       270       421      1608      2064      2065
 -1       686    8    0    1
 -2       269       421       420      2065      2066      2061
 -1       687    8    0    1
 -2       270       271       422      1611      2067      2068
 -1       688    8    0    1
 -2       270       422       421      2068      2069      2064
 -1       689    8    0    1
 -2       271       272       423      1614      2070      2071
 -1       690    8    0    1
 -2       271       423       422      2071      2072      2067
 -1       691    8    0    1
 -2       272       273       424      1617      2073      2074
 -1       692    8    0    1
 -2       272       424       423      2074      2075      2070
 -1       693    8    0    1
 -2       273       274       425      1620      2076      2077
 -1       694    8    0    1
 -2       273       425       424      2077      2078      2073
 -1       695    8    0    1
 -2       274       275       426      1623      2079      2080
 -1       696    8    0    1
 -2       425       274       426      2076      2080      2081
 -1       697    8    0    1
 -2       275       276       426      1731      2082      2079
 -1       698    8    0    1
 -2       278       279       427      1635      2083      2084
 -1       699    8    0    1
 -2       277       278       428      1632      2085      2086
 -1       700    8    0    1
 -2       278       427       428      2084      2087      2085
 -1       701    8    0    1
 -2       276       277       429      1629      2088      2089
 -1       702    8    0    1
 -2       426       276       429      2082      2089      2090
 -1       703    8    0    1
 -2       277       428       429      2086      2091      2088
 -1       704    8    0    1
 -2       279       280       430      1638      2092      2093
 -1       705    8    0    1
 -2       279       430       427      2093      2094      2083
 -1       706    8    0    1
 -2       280       281       431      1641      2095      2096
 -1       707    8    0    1
 -2       280       431       430      2096      2097      2092
 -1       708    8    0    1
 -2       281       282       432      1644      2098      2099
 -1       709    8    0    1
 -2       281       432       431      2099      2100      2095
 -1       710    8    0    1
 -2       282       283       433      1647      2101      2102
 -1       711    8    0    1
 -2       282       433       432      2102      2103      2098
 -1       712    8    0    1
 -2       283       284       434      1650      2104      2105
 -1       713    8    0    1
 -2       283       434       433      2105      2106      2101
 -1       714    8    0    1
 -2       284       285       435      1653      2107      2108
 -1       715    8    0    1
 -2       284       435       434      2108      2109      2104
 -1       716    8    0    1
 -2       285       286       436      1656      2110      2111
 -1       717    8    0    1
 -2       285       436       435      2111      2112      2107
 -1       718    8    0    1
 -2       286       287       437      1659      2113      2114
 -1       719    8    0    1
 -2       286       437       436      2114      2115      2110
 -1       720    8    0    1
 -2       287       288       438      1662      2116      2117
 -1       721    8    0    1
 -2       287       438       437      2117      2118      2113
 -1       722    8    0    1
 -2       288       289       439      1665      2119      2120
 -1       723    8    0    1
 -2       288       439       438      2120      2121      2116
 -1       724    8    0    1
 -2       292       293       440      1733      2122      2123
 -1       725    8    0    1
 -2       319       291       441      1734      2124      2125
 -1       726    8    0    1
 -2       291       292       442      1732      2126      2127
 -1       727    8    0    1
 -2       292       440       442      2123      2128      2126
 -1       728    8    0    1
 -2       293       294       443      1729      2129      2130
 -1       729    8    0    1
 -2       294       295       444      1728      2131      2132
 -1       730    8    0    1
 -2       294       444       443      2132      2133      2129
 -1       731    8    0    1
 -2       166       167       445      1297      2134      2135
 -1       732    8    0    1
 -2       320       166       445      1760      2135      2136
 -1       733    8    0    1
 -2       167       322       445      1766      2137      2134
 -1       734    8    0    1
 -2       296       297       446      1736      2138      2139
 -1       735    8    0    1
 -2       297       298       447      1737      2140      2141
 -1       736    8    0    1
 -2       298       299       448      1738      2142      2143
 -1       737    8    0    1
 -2       299       300       449      1739      2144      2145
 -1       738    8    0    1
 -2       299       449       448      2145      2146      2142
 -1       739    8    0    1
 -2       300       301       450      1740      2147      2148
 -1       740    8    0    1
 -2       301       302       451      1741      2149      2150
 -1       741    8    0    1
 -2       302       303       452      1742      2151      2152
 -1       742    8    0    1
 -2       303       304       453      1743      2153      2154
 -1       743    8    0    1
 -2       304       305       454      1744      2155      2156
 -1       744    8    0    1
 -2       305       306       455      1745      2157      2158
 -1       745    8    0    1
 -2       305       455       454      2158      2159      2155
 -1       746    8    0    1
 -2       306       307       456      1746      2160      2161
 -1       747    8    0    1
 -2       307       308       457      1747      2162      2163
 -1       748    8    0    1
 -2       308       309       458      1748      2164      2165
 -1       749    8    0    1
 -2       309       310       459      1749      2166      2167
 -1       750    8    0    1
 -2       310       311       460      1750      2168      2169
 -1       751    8    0    1
 -2       311       312       461      1751      2170      2171
 -1       752    8    0    1
 -2       312       313       462      1752      2172      2173
 -1       753    8    0    1
 -2       312       462       461      2173      2174      2170
 -1       754    8    0    1
 -2       313       314       463      1753      2175      2176
 -1       755    8    0    1
 -2       314       315       464      1754      2177      2178
 -1       756    8    0    1
 -2       315       316       465      1755      2179      2180
 -1       757    8    0    1
 -2       316       317       466      1756      2181      2182
 -1       758    8    0    1
 -2       317       318       467      1757      2183      2184
 -1       759    8    0    1
 -2       318       319       468      1758      2185      2186
 -1       760    8    0    1
 -2       319       441       468      2125      2187      2185
 -1       761    8    0    1
 -2       295       296       469      1735      2188      2189
 -1       762    8    0    1
 -2       296       446       469      2139      2190      2188
 -1       763    8    0    1
 -2       444       295       470      2131      2191      2192
 -1       764    8    0    1
 -2       295       469       470      2189      2193      2191
 -1       765    8    0    1
 -2       180       321       181      1805      2194      1339
 -1       766    8    0    1
 -2       300       450       449      2148      2195      2144
 -1       767    8    0    1
 -2       335       181       321      1806      2194      2196
 -1       768    8    0    1
 -2       441       291       442      2124      2127      2197
 -1       769    8    0    1
 -2       293       443       471      2130      2198      2199
 -1       770    8    0    1
 -2       293       471       440      2199      2200      2122
 -1       771    8    0    1
 -2       439       289       290      2119      1668      2201
 -1       772    8    0    1
 -2       467       318       468      2183      2186      2202
 -1       773    8    0    1
 -2       466       317       467      2181      2184      2203
 -1       774    8    0    1
 -2       465       316       466      2179      2182      2204
 -1       775    8    0    1
 -2       464       315       465      2177      2180      2205
 -1       776    8    0    1
 -2       462       313       463      2172      2176      2206
 -1       777    8    0    1
 -2       460       311       472      2168      2207      2208
 -1       778    8    0    1
 -2       311       461       472      2171      2209      2207
 -1       779    8    0    1
 -2       459       310       460      2166      2169      2210
 -1       780    8    0    1
 -2       458       309       459      2164      2167      2211
 -1       781    8    0    1
 -2       457       308       458      2162      2165      2212
 -1       782    8    0    1
 -2       455       306       456      2157      2161      2213
 -1       783    8    0    1
 -2       453       304       473      2153      2214      2215
 -1       784    8    0    1
 -2       304       454       473      2156      2216      2214
 -1       785    8    0    1
 -2       452       303       453      2151      2154      2217
 -1       786    8    0    1
 -2       451       302       452      2149      2152      2218
 -1       787    8    0    1
 -2       446       297       447      2138      2141      2219
 -1       788    8    0    1
 -2       447       298       448      2140      2143      2220
 -1       789    8    0    1
 -2       450       301       451      2147      2150      2221
 -1       790    8    0    1
 -2       456       307       457      2160      2163      2222
 -1       791    8    0    1
 -2       463       314       464      2175      2178      2223
 -1       792    8    0    1
 -2       334       381       474      1946      2224      2225
 -1       793    8    0    1
 -2       323       324       475      1772      2226      2227
 -1       794    8    0    1
 -2       322       323       476      1769      2228      2229
 -1       795    8    0    1
 -2       323       475       476      2227      2230      2228
 -1       796    8    0    1
 -2       325       326       477      1778      2231      2232
 -1       797    8    0    1
 -2       326       327       478      1781      2233      2234
 -1       798    8    0    1
 -2       326       478       477      2234      2235      2231
 -1       799    8    0    1
 -2       327       328       479      1784      2236      2237
 -1       800    8    0    1
 -2       327       479       478      2237      2238      2233
 -1       801    8    0    1
 -2       328       329       480      1787      2239      2240
 -1       802    8    0    1
 -2       328       480       479      2240      2241      2236
 -1       803    8    0    1
 -2       329       330       481      1790      2242      2243
 -1       804    8    0    1
 -2       329       481       480      2243      2244      2239
 -1       805    8    0    1
 -2       330       331       482      1793      2245      2246
 -1       806    8    0    1
 -2       330       482       481      2246      2247      2242
 -1       807    8    0    1
 -2       381       382       483      1949      2248      2249
 -1       808    8    0    1
 -2       381       483       474      2249      2250      2224
 -1       809    8    0    1
 -2       336       335       484      1810      2251      2252
 -1       810    8    0    1
 -2       449       450       485      2195      2253      2254
 -1       811    8    0    1
 -2       337       336       486      1813      2255      2256
 -1       812    8    0    1
 -2       336       484       486      2252      2257      2255
 -1       813    8    0    1
 -2       338       337       487      1816      2258      2259
 -1       814    8    0    1
 -2       337       486       487      2256      2260      2258
 -1       815    8    0    1
 -2       339       338       488      1819      2261      2262
 -1       816    8    0    1
 -2       338       487       488      2259      2263      2261
 -1       817    8    0    1
 -2       340       339       489      1822      2264      2265
 -1       818    8    0    1
 -2       339       488       489      2262      2266      2264
 -1       819    8    0    1
 -2       341       340       490      1825      2267      2268
 -1       820    8    0    1
 -2       340       489       490      2265      2269      2267
 -1       821    8    0    1
 -2       342       341       491      1828      2270      2271
 -1       822    8    0    1
 -2       341       490       491      2268      2272      2270
 -1       823    8    0    1
 -2       343       342       492      1831      2273      2274
 -1       824    8    0    1
 -2       342       491       492      2271      2275      2273
 -1       825    8    0    1
 -2       344       343       493      1834      2276      2277
 -1       826    8    0    1
 -2       343       492       493      2274      2278      2276
 -1       827    8    0    1
 -2       345       344       494      1837      2279      2280
 -1       828    8    0    1
 -2       344       493       494      2277      2281      2279
 -1       829    8    0    1
 -2       346       345       495      1840      2282      2283
 -1       830    8    0    1
 -2       345       494       495      2280      2284      2282
 -1       831    8    0    1
 -2       347       346       496      1843      2285      2286
 -1       832    8    0    1
 -2       346       495       496      2283      2287      2285
 -1       833    8    0    1
 -2       348       347       497      1846      2288      2289
 -1       834    8    0    1
 -2       347       496       497      2286      2290      2288
 -1       835    8    0    1
 -2       349       348       498      1849      2291      2292
 -1       836    8    0    1
 -2       348       497       498      2289      2293      2291
 -1       837    8    0    1
 -2       350       349       499      1852      2294      2295
 -1       838    8    0    1
 -2       349       498       499      2292      2296      2294
 -1       839    8    0    1
 -2       351       350       500      1855      2297      2298
 -1       840    8    0    1
 -2       350       499       500      2295      2299      2297
 -1       841    8    0    1
 -2       352       351       501      1858      2300      2301
 -1       842    8    0    1
 -2       351       500       501      2298      2302      2300
 -1       843    8    0    1
 -2       353       352       502      1861      2303      2304
 -1       844    8    0    1
 -2       352       501       502      2301      2305      2303
 -1       845    8    0    1
 -2       354       353       503      1864      2306      2307
 -1       846    8    0    1
 -2       353       502       503      2304      2308      2306
 -1       847    8    0    1
 -2       355       354       504      1867      2309      2310
 -1       848    8    0    1
 -2       354       503       504      2307      2311      2309
 -1       849    8    0    1
 -2       356       355       505      1870      2312      2313
 -1       850    8    0    1
 -2       355       504       505      2310      2314      2312
 -1       851    8    0    1
 -2       357       356       506      1873      2315      2316
 -1       852    8    0    1
 -2       356       505       506      2313      2317      2315
 -1       853    8    0    1
 -2       358       357       507      1876      2318      2319
 -1       854    8    0    1
 -2       357       506       507      2316      2320      2318
 -1       855    8    0    1
 -2       359       358       508      1879      2321      2322
 -1       856    8    0    1
 -2       358       507       508      2319      2323      2321
 -1       857    8    0    1
 -2       360       359       509      1882      2324      2325
 -1       858    8    0    1
 -2       359       508       509      2322      2326      2324
 -1       859    8    0    1
 -2       361       360       510      1885      2327      2328
 -1       860    8    0    1
 -2       360       509       510      2325      2329      2327
 -1       861    8    0    1
 -2       362       361       511      1888      2330      2331
 -1       862    8    0    1
 -2       361       510       511      2328      2332      2330
 -1       863    8    0    1
 -2       363       362       512      1891      2333      2334
 -1       864    8    0    1
 -2       362       511       512      2331      2335      2333
 -1       865    8    0    1
 -2       364       363       513      1894      2336      2337
 -1       866    8    0    1
 -2       363       512       513      2334      2338      2336
 -1       867    8    0    1
 -2       365       364       514      1897      2339      2340
 -1       868    8    0    1
 -2       364       513       514      2337      2341      2339
 -1       869    8    0    1
 -2       366       365       515      1900      2342      2343
 -1       870    8    0    1
 -2       365       514       515      2340      2344      2342
 -1       871    8    0    1
 -2       367       366       516      1903      2345      2346
 -1       872    8    0    1
 -2       366       515       516      2343      2347      2345
 -1       873    8    0    1
 -2       368       367       517      1906      2348      2349
 -1       874    8    0    1
 -2       367       516       517      2346      2350      2348
 -1       875    8    0    1
 -2       369       368       518      1909      2351      2352
 -1       876    8    0    1
 -2       368       517       518      2349      2353      2351
 -1       877    8    0    1
 -2       370       369       519      1912      2354      2355
 -1       878    8    0    1
 -2       369       518       519      2352      2356      2354
 -1       879    8    0    1
 -2       371       370       520      1915      2357      2358
 -1       880    8    0    1
 -2       370       519       520      2355      2359      2357
 -1       881    8    0    1
 -2       372       371       521      1918      2360      2361
 -1       882    8    0    1
 -2       371       520       521      2358      2362      2360
 -1       883    8    0    1
 -2       373       372       522      1921      2363      2364
 -1       884    8    0    1
 -2       372       521       522      2361      2365      2363
 -1       885    8    0    1
 -2       374       373       523      1924      2366      2367
 -1       886    8    0    1
 -2       373       522       523      2364      2368      2366
 -1       887    8    0    1
 -2       375       374       524      1927      2369      2370
 -1       888    8    0    1
 -2       374       523       524      2367      2371      2369
 -1       889    8    0    1
 -2       376       375       525      1930      2372      2373
 -1       890    8    0    1
 -2       375       524       525      2370      2374      2372
 -1       891    8    0    1
 -2       377       376       526      1933      2375      2376
 -1       892    8    0    1
 -2       376       525       526      2373      2377      2375
 -1       893    8    0    1
 -2       378       377       527      1936      2378      2379
 -1       894    8    0    1
 -2       377       526       527      2376      2380      2378
 -1       895    8    0    1
 -2       379       378       528      1939      2381      2382
 -1       896    8    0    1
 -2       378       527       528      2379      2383      2381
 -1       897    8    0    1
 -2       442       440       529      2128      2384      2385
 -1       898    8    0    1
 -2       383       384       530      1955      2386      2387
 -1       899    8    0    1
 -2       384       385       531      1958      2388      2389
 -1       900    8    0    1
 -2       384       531       530      2389      2390      2386
 -1       901    8    0    1
 -2       385       386       532      1961      2391      2392
 -1       902    8    0    1
 -2       385       532       531      2392      2393      2388
 -1       903    8    0    1
 -2       386       387       533      1964      2394      2395
 -1       904    8    0    1
 -2       386       533       532      2395      2396      2391
 -1       905    8    0    1
 -2       387       388       534      1967      2397      2398
 -1       906    8    0    1
 -2       387       534       533      2398      2399      2394
 -1       907    8    0    1
 -2       388       389       535      1970      2400      2401
 -1       908    8    0    1
 -2       388       535       534      2401      2402      2397
 -1       909    8    0    1
 -2       389       390       536      1973      2403      2404
 -1       910    8    0    1
 -2       389       536       535      2404      2405      2400
 -1       911    8    0    1
 -2       390       391       537      1976      2406      2407
 -1       912    8    0    1
 -2       390       537       536      2407      2408      2403
 -1       913    8    0    1
 -2       391       392       538      1979      2409      2410
 -1       914    8    0    1
 -2       391       538       537      2410      2411      2406
 -1       915    8    0    1
 -2       392       393       539      1982      2412      2413
 -1       916    8    0    1
 -2       392       539       538      2413      2414      2409
 -1       917    8    0    1
 -2       393       394       540      1985      2415      2416
 -1       918    8    0    1
 -2       393       540       539      2416      2417      2412
 -1       919    8    0    1
 -2       394       395       541      1988      2418      2419
 -1       920    8    0    1
 -2       394       541       540      2419      2420      2415
 -1       921    8    0    1
 -2       395       396       542      1991      2421      2422
 -1       922    8    0    1
 -2       395       542       541      2422      2423      2418
 -1       923    8    0    1
 -2       396       397       543      1994      2424      2425
 -1       924    8    0    1
 -2       396       543       542      2425      2426      2421
 -1       925    8    0    1
 -2       397       398       544      1997      2427      2428
 -1       926    8    0    1
 -2       397       544       543      2428      2429      2424
 -1       927    8    0    1
 -2       398       399       545      2000      2430      2431
 -1       928    8    0    1
 -2       398       545       544      2431      2432      2427
 -1       929    8    0    1
 -2       399       400       546      2003      2433      2434
 -1       930    8    0    1
 -2       399       546       545      2434      2435      2430
 -1       931    8    0    1
 -2       400       401       547      2006      2436      2437
 -1       932    8    0    1
 -2       400       547       546      2437      2438      2433
 -1       933    8    0    1
 -2       401       402       548      2009      2439      2440
 -1       934    8    0    1
 -2       401       548       547      2440      2441      2436
 -1       935    8    0    1
 -2       402       403       549      2012      2442      2443
 -1       936    8    0    1
 -2       402       549       548      2443      2444      2439
 -1       937    8    0    1
 -2       403       404       550      2015      2445      2446
 -1       938    8    0    1
 -2       403       550       549      2446      2447      2442
 -1       939    8    0    1
 -2       404       405       551      2018      2448      2449
 -1       940    8    0    1
 -2       404       551       550      2449      2450      2445
 -1       941    8    0    1
 -2       405       406       552      2021      2451      2452
 -1       942    8    0    1
 -2       405       552       551      2452      2453      2448
 -1       943    8    0    1
 -2       406       407       553      2024      2454      2455
 -1       944    8    0    1
 -2       406       553       552      2455      2456      2451
 -1       945    8    0    1
 -2       407       408       554      2027      2457      2458
 -1       946    8    0    1
 -2       407       554       553      2458      2459      2454
 -1       947    8    0    1
 -2       408       409       555      2030      2460      2461
 -1       948    8    0    1
 -2       408       555       554      2461      2462      2457
 -1       949    8    0    1
 -2       409       410       556      2033      2463      2464
 -1       950    8    0    1
 -2       409       556       555      2464      2465      2460
 -1       951    8    0    1
 -2       410       411       557      2036      2466      2467
 -1       952    8    0    1
 -2       410       557       556      2467      2468      2463
 -1       953    8    0    1
 -2       411       412       558      2039      2469      2470
 -1       954    8    0    1
 -2       411       558       557      2470      2471      2466
 -1       955    8    0    1
 -2       412       413       559      2042      2472      2473
 -1       956    8    0    1
 -2       412       559       558      2473      2474      2469
 -1       957    8    0    1
 -2       413       414       560      2045      2475      2476
 -1       958    8    0    1
 -2       413       560       559      2476      2477      2472
 -1       959    8    0    1
 -2       414       415       561      2048      2478      2479
 -1       960    8    0    1
 -2       414       561       560      2479      2480      2475
 -1       961    8    0    1
 -2       415       416       562      2051      2481      2482
 -1       962    8    0    1
 -2       415       562       561      2482      2483      2478
 -1       963    8    0    1
 -2       416       417       563      2054      2484      2485
 -1       964    8    0    1
 -2       416       563       562      2485      2486      2481
 -1       965    8    0    1
 -2       417       418       564      2057      2487      2488
 -1       966    8    0    1
 -2       417       564       563      2488      2489      2484
 -1       967    8    0    1
 -2       418       419       565      2060      2490      2491
 -1       968    8    0    1
 -2       418       565       564      2491      2492      2487
 -1       969    8    0    1
 -2       419       420       566      2063      2493      2494
 -1       970    8    0    1
 -2       419       566       565      2494      2495      2490
 -1       971    8    0    1
 -2       420       421       567      2066      2496      2497
 -1       972    8    0    1
 -2       420       567       566      2497      2498      2493
 -1       973    8    0    1
 -2       421       422       568      2069      2499      2500
 -1       974    8    0    1
 -2       421       568       567      2500      2501      2496
 -1       975    8    0    1
 -2       422       423       569      2072      2502      2503
 -1       976    8    0    1
 -2       422       569       568      2503      2504      2499
 -1       977    8    0    1
 -2       423       424       570      2075      2505      2506
 -1       978    8    0    1
 -2       423       570       569      2506      2507      2502
 -1       979    8    0    1
 -2       424       425       571      2078      2508      2509
 -1       980    8    0    1
 -2       424       571       570      2509      2510      2505
 -1       981    8    0    1
 -2       425       426       429      2081      2090      2511
 -1       982    8    0    1
 -2       430       431       572      2097      2512      2513
 -1       983    8    0    1
 -2       431       432       573      2100      2514      2515
 -1       984    8    0    1
 -2       431       573       572      2515      2516      2512
 -1       985    8    0    1
 -2       428       427       574      2087      2517      2518
 -1       986    8    0    1
 -2       427       430       575      2094      2519      2520
 -1       987    8    0    1
 -2       574       427       575      2517      2520      2521
 -1       988    8    0    1
 -2       430       572       575      2513      2522      2519
 -1       989    8    0    1
 -2       432       433       576      2103      2523      2524
 -1       990    8    0    1
 -2       432       576       573      2524      2525      2514
 -1       991    8    0    1
 -2       433       434       577      2106      2526      2527
 -1       992    8    0    1
 -2       433       577       576      2527      2528      2523
 -1       993    8    0    1
 -2       434       435       578      2109      2529      2530
 -1       994    8    0    1
 -2       434       578       577      2530      2531      2526
 -1       995    8    0    1
 -2       435       436       579      2112      2532      2533
 -1       996    8    0    1
 -2       435       579       578      2533      2534      2529
 -1       997    8    0    1
 -2       436       437       580      2115      2535      2536
 -1       998    8    0    1
 -2       436       580       579      2536      2537      2532
 -1       999    8    0    1
 -2       437       438       581      2118      2538      2539
 -1      1000    8    0    1
 -2       437       581       580      2539      2540      2535
 -1      1001    8    0    1
 -2       438       439       582      2121      2541      2542
 -1      1002    8    0    1
 -2       438       582       581      2542      2543      2538
 -1      1003    8    0    1
 -2       439       290       380      2201      1942      2544
 -1      1004    8    0    1
 -2       467       468       583      2202      2545      2546
 -1      1005    8    0    1
 -2       382       383       584      1952      2547      2548
 -1      1006    8    0    1
 -2       383       530       584      2387      2549      2547
 -1      1007    8    0    1
 -2       441       442       585      2197      2550      2551
 -1      1008    8    0    1
 -2       443       444       586      2133      2552      2553
 -1      1009    8    0    1
 -2       468       441       587      2187      2554      2555
 -1      1010    8    0    1
 -2       335       321       588      2196      2556      2557
 -1      1011    8    0    1
 -2       484       335       588      2251      2557      2558
 -1      1012    8    0    1
 -2       321       320       588      1764      2559      2556
 -1      1013    8    0    1
 -2       324       325       589      1775      2560      2561
 -1      1014    8    0    1
 -2       475       324       589      2226      2561      2562
 -1      1015    8    0    1
 -2       325       477       589      2232      2563      2560
 -1      1016    8    0    1
 -2       447       448       590      2220      2564      2565
 -1      1017    8    0    1
 -2       450       451       591      2221      2566      2567
 -1      1018    8    0    1
 -2       448       449       592      2146      2568      2569
 -1      1019    8    0    1
 -2       456       457       593      2222      2570      2571
 -1      1020    8    0    1
 -2       446       447       594      2219      2572      2573
 -1      1021    8    0    1
 -2       451       452       595      2218      2574      2575
 -1      1022    8    0    1
 -2       452       453       596      2217      2576      2577
 -1      1023    8    0    1
 -2       454       455       597      2159      2578      2579
 -1      1024    8    0    1
 -2       463       464       598      2223      2580      2581
 -1      1025    8    0    1
 -2       455       456       599      2213      2582      2583
 -1      1026    8    0    1
 -2       456       593       599      2571      2584      2582
 -1      1027    8    0    1
 -2       457       458       600      2212      2585      2586
 -1      1028    8    0    1
 -2       458       459       601      2211      2587      2588
 -1      1029    8    0    1
 -2       458       601       600      2588      2589      2585
 -1      1030    8    0    1
 -2       459       460       602      2210      2590      2591
 -1      1031    8    0    1
 -2       459       602       601      2591      2592      2587
 -1      1032    8    0    1
 -2       461       462       603      2174      2593      2594
 -1      1033    8    0    1
 -2       462       463       604      2206      2595      2596
 -1      1034    8    0    1
 -2       462       604       603      2596      2597      2593
 -1      1035    8    0    1
 -2       464       465       605      2205      2598      2599
 -1      1036    8    0    1
 -2       465       466       606      2204      2600      2601
 -1      1037    8    0    1
 -2       465       606       605      2601      2602      2598
 -1      1038    8    0    1
 -2       466       467       607      2203      2603      2604
 -1      1039    8    0    1
 -2       469       446       608      2190      2605      2606
 -1      1040    8    0    1
 -2       446       594       608      2573      2607      2605
 -1      1041    8    0    1
 -2       333       334       609      1804      2608      2609
 -1      1042    8    0    1
 -2       332       333       609      1799      2609      2610
 -1      1043    8    0    1
 -2       334       474       609      2225      2611      2608
 -1      1044    8    0    1
 -2       322       476       610      2229      2612      2613
 -1      1045    8    0    1
 -2       322       610       445      2613      2614      2137
 -1      1046    8    0    1
 -2       483       382       584      2248      2548      2615
 -1      1047    8    0    1
 -2       331       332       609      1796      2610      2616
 -1      1048    8    0    1
 -2       606       466       607      2600      2604      2617
 -1      1049    8    0    1
 -2       604       463       598      2595      2581      2618
 -1      1050    8    0    1
 -2       449       485       592      2254      2619      2568
 -1      1051    8    0    1
 -2       444       470       611      2192      2620      2621
 -1      1052    8    0    1
 -2       444       611       586      2621      2622      2552
 -1      1053    8    0    1
 -2       461       603       472      2594      2623      2209
 -1      1054    8    0    1
 -2       467       583       612      2546      2624      2625
 -1      1055    8    0    1
 -2       467       612       607      2625      2626      2603
 -1      1056    8    0    1
 -2       529       440       613      2384      2627      2628
 -1      1057    8    0    1
 -2       440       471       613      2200      2629      2627
 -1      1058    8    0    1
 -2       441       585       587      2551      2630      2554
 -1      1059    8    0    1
 -2       425       429       571      2511      2631      2508
 -1      1060    8    0    1
 -2       429       428       571      2091      2632      2631
 -1      1061    8    0    1
 -2       471       443       586      2198      2553      2633
 -1      1062    8    0    1
 -2       439       380       614      2544      2634      2635
 -1      1063    8    0    1
 -2       582       439       614      2541      2635      2636
 -1      1064    8    0    1
 -2       380       379       614      1943      2637      2634
 -1      1065    8    0    1
 -2       598       464       615      2580      2638      2639
 -1      1066    8    0    1
 -2       464       605       615      2599      2640      2638
 -1      1067    8    0    1
 -2       583       468       587      2545      2555      2641
 -1      1068    8    0    1
 -2       331       609       482      2616      2642      2245
 -1      1069    8    0    1
 -2       585       442       529      2550      2385      2643
 -1      1070    8    0    1
 -2       320       445       616      2136      2644      2645
 -1      1071    8    0    1
 -2       588       320       616      2559      2645      2646
 -1      1072    8    0    1
 -2       445       610       616      2614      2647      2644
 -1      1073    8    0    1
 -2       597       455       599      2578      2583      2648
 -1      1074    8    0    1
 -2       596       453       617      2576      2649      2650
 -1      1075    8    0    1
 -2       453       473       617      2215      2651      2649
 -1      1076    8    0    1
 -2       595       452       596      2574      2577      2652
 -1      1077    8    0    1
 -2       593       457       600      2570      2586      2653
 -1      1078    8    0    1
 -2       473       454       618      2216      2654      2655
 -1      1079    8    0    1
 -2       454       597       618      2579      2656      2654
 -1      1080    8    0    1
 -2       591       451       595      2566      2575      2657
 -1      1081    8    0    1
 -2       485       450       591      2253      2567      2658
 -1      1082    8    0    1
 -2       448       592       590      2569      2659      2564
 -1      1083    8    0    1
 -2       469       608       619      2606      2660      2661
 -1      1084    8    0    1
 -2       469       619       470      2661      2662      2193
 -1      1085    8    0    1
 -2       571       428       574      2632      2518      2663
 -1      1086    8    0    1
 -2       614       379       528      2637      2382      2664
 -1      1087    8    0    1
 -2       447       590       620      2565      2665      2666
 -1      1088    8    0    1
 -2       478       479       621      2238      2667      2668
 -1      1089    8    0    1
 -2       477       478       622      2235      2669      2670
 -1      1090    8    0    1
 -2       478       621       622      2668      2671      2669
 -1      1091    8    0    1
 -2       480       481       623      2244      2672      2673
 -1      1092    8    0    1
 -2       481       482       624      2247      2674      2675
 -1      1093    8    0    1
 -2       481       624       623      2675      2676      2672
 -1      1094    8    0    1
 -2       474       483       625      2250      2677      2678
 -1      1095    8    0    1
 -2       585       529       626      2643      2679      2680
 -1      1096    8    0    1
 -2       608       594       627      2607      2681      2682
 -1      1097    8    0    1
 -2       447       620       594      2666      2683      2572
 -1      1098    8    0    1
 -2       487       486       628      2260      2684      2685
 -1      1099    8    0    1
 -2       488       487       629      2263      2686      2687
 -1      1100    8    0    1
 -2       487       628       629      2685      2688      2686
 -1      1101    8    0    1
 -2       489       488       630      2266      2689      2690
 -1      1102    8    0    1
 -2       488       629       630      2687      2691      2689
 -1      1103    8    0    1
 -2       490       489       631      2269      2692      2693
 -1      1104    8    0    1
 -2       489       630       631      2690      2694      2692
 -1      1105    8    0    1
 -2       491       490       632      2272      2695      2696
 -1      1106    8    0    1
 -2       490       631       632      2693      2697      2695
 -1      1107    8    0    1
 -2       492       491       633      2275      2698      2699
 -1      1108    8    0    1
 -2       491       632       633      2696      2700      2698
 -1      1109    8    0    1
 -2       493       492       634      2278      2701      2702
 -1      1110    8    0    1
 -2       492       633       634      2699      2703      2701
 -1      1111    8    0    1
 -2       494       493       635      2281      2704      2705
 -1      1112    8    0    1
 -2       493       634       635      2702      2706      2704
 -1      1113    8    0    1
 -2       495       494       636      2284      2707      2708
 -1      1114    8    0    1
 -2       494       635       636      2705      2709      2707
 -1      1115    8    0    1
 -2       496       495       637      2287      2710      2711
 -1      1116    8    0    1
 -2       495       636       637      2708      2712      2710
 -1      1117    8    0    1
 -2       497       496       638      2290      2713      2714
 -1      1118    8    0    1
 -2       496       637       638      2711      2715      2713
 -1      1119    8    0    1
 -2       498       497       639      2293      2716      2717
 -1      1120    8    0    1
 -2       497       638       639      2714      2718      2716
 -1      1121    8    0    1
 -2       499       498       640      2296      2719      2720
 -1      1122    8    0    1
 -2       498       639       640      2717      2721      2719
 -1      1123    8    0    1
 -2       500       499       641      2299      2722      2723
 -1      1124    8    0    1
 -2       499       640       641      2720      2724      2722
 -1      1125    8    0    1
 -2       501       500       642      2302      2725      2726
 -1      1126    8    0    1
 -2       500       641       642      2723      2727      2725
 -1      1127    8    0    1
 -2       502       501       643      2305      2728      2729
 -1      1128    8    0    1
 -2       501       642       643      2726      2730      2728
 -1      1129    8    0    1
 -2       503       502       644      2308      2731      2732
 -1      1130    8    0    1
 -2       502       643       644      2729      2733      2731
 -1      1131    8    0    1
 -2       504       503       645      2311      2734      2735
 -1      1132    8    0    1
 -2       503       644       645      2732      2736      2734
 -1      1133    8    0    1
 -2       505       504       646      2314      2737      2738
 -1      1134    8    0    1
 -2       504       645       646      2735      2739      2737
 -1      1135    8    0    1
 -2       506       505       647      2317      2740      2741
 -1      1136    8    0    1
 -2       505       646       647      2738      2742      2740
 -1      1137    8    0    1
 -2       507       506       648      2320      2743      2744
 -1      1138    8    0    1
 -2       506       647       648      2741      2745      2743
 -1      1139    8    0    1
 -2       508       507       649      2323      2746      2747
 -1      1140    8    0    1
 -2       507       648       649      2744      2748      2746
 -1      1141    8    0    1
 -2       509       508       650      2326      2749      2750
 -1      1142    8    0    1
 -2       508       649       650      2747      2751      2749
 -1      1143    8    0    1
 -2       510       509       651      2329      2752      2753
 -1      1144    8    0    1
 -2       509       650       651      2750      2754      2752
 -1      1145    8    0    1
 -2       511       510       652      2332      2755      2756
 -1      1146    8    0    1
 -2       510       651       652      2753      2757      2755
 -1      1147    8    0    1
 -2       512       511       653      2335      2758      2759
 -1      1148    8    0    1
 -2       511       652       653      2756      2760      2758
 -1      1149    8    0    1
 -2       513       512       654      2338      2761      2762
 -1      1150    8    0    1
 -2       512       653       654      2759      2763      2761
 -1      1151    8    0    1
 -2       514       513       655      2341      2764      2765
 -1      1152    8    0    1
 -2       513       654       655      2762      2766      2764
 -1      1153    8    0    1
 -2       515       514       656      2344      2767      2768
 -1      1154    8    0    1
 -2       514       655       656      2765      2769      2767
 -1      1155    8    0    1
 -2       516       515       657      2347      2770      2771
 -1      1156    8    0    1
 -2       515       656       657      2768      2772      2770
 -1      1157    8    0    1
 -2       517       516       658      2350      2773      2774
 -1      1158    8    0    1
 -2       516       657       658      2771      2775      2773
 -1      1159    8    0    1
 -2       518       517       659      2353      2776      2777
 -1      1160    8    0    1
 -2       517       658       659      2774      2778      2776
 -1      1161    8    0    1
 -2       519       518       660      2356      2779      2780
 -1      1162    8    0    1
 -2       518       659       660      2777      2781      2779
 -1      1163    8    0    1
 -2       522       521       472      2365      2782      2783
 -1      1164    8    0    1
 -2       524       523       598      2371      2784      2785
 -1      1165    8    0    1
 -2       526       525       661      2377      2786      2787
 -1      1166    8    0    1
 -2       527       526       662      2380      2788      2789
 -1      1167    8    0    1
 -2       526       661       662      2787      2790      2788
 -1      1168    8    0    1
 -2       528       527       663      2383      2791      2792
 -1      1169    8    0    1
 -2       527       662       663      2789      2793      2791
 -1      1170    8    0    1
 -2       530       531       664      2390      2794      2795
 -1      1171    8    0    1
 -2       533       534       665      2399      2796      2797
 -1      1172    8    0    1
 -2       534       535       666      2402      2798      2799
 -1      1173    8    0    1
 -2       534       666       665      2799      2800      2796
 -1      1174    8    0    1
 -2       535       536       667      2405      2801      2802
 -1      1175    8    0    1
 -2       535       667       666      2802      2803      2798
 -1      1176    8    0    1
 -2       536       537       668      2408      2804      2805
 -1      1177    8    0    1
 -2       536       668       667      2805      2806      2801
 -1      1178    8    0    1
 -2       537       538       669      2411      2807      2808
 -1      1179    8    0    1
 -2       537       669       668      2808      2809      2804
 -1      1180    8    0    1
 -2       538       539       670      2414      2810      2811
 -1      1181    8    0    1
 -2       538       670       669      2811      2812      2807
 -1      1182    8    0    1
 -2       539       540       671      2417      2813      2814
 -1      1183    8    0    1
 -2       539       671       670      2814      2815      2810
 -1      1184    8    0    1
 -2       540       541       672      2420      2816      2817
 -1      1185    8    0    1
 -2       540       672       671      2817      2818      2813
 -1      1186    8    0    1
 -2       541       542       673      2423      2819      2820
 -1      1187    8    0    1
 -2       541       673       672      2820      2821      2816
 -1      1188    8    0    1
 -2       542       543       674      2426      2822      2823
 -1      1189    8    0    1
 -2       542       674       673      2823      2824      2819
 -1      1190    8    0    1
 -2       543       544       675      2429      2825      2826
 -1      1191    8    0    1
 -2       543       675       674      2826      2827      2822
 -1      1192    8    0    1
 -2       544       545       676      2432      2828      2829
 -1      1193    8    0    1
 -2       544       676       675      2829      2830      2825
 -1      1194    8    0    1
 -2       545       546       677      2435      2831      2832
 -1      1195    8    0    1
 -2       545       677       676      2832      2833      2828
 -1      1196    8    0    1
 -2       546       547       678      2438      2834      2835
 -1      1197    8    0    1
 -2       546       678       677      2835      2836      2831
 -1      1198    8    0    1
 -2       547       548       679      2441      2837      2838
 -1      1199    8    0    1
 -2       547       679       678      2838      2839      2834
 -1      1200    8    0    1
 -2       548       549       680      2444      2840      2841
 -1      1201    8    0    1
 -2       548       680       679      2841      2842      2837
 -1      1202    8    0    1
 -2       549       550       681      2447      2843      2844
 -1      1203    8    0    1
 -2       549       681       680      2844      2845      2840
 -1      1204    8    0    1
 -2       550       551       682      2450      2846      2847
 -1      1205    8    0    1
 -2       550       682       681      2847      2848      2843
 -1      1206    8    0    1
 -2       551       552       683      2453      2849      2850
 -1      1207    8    0    1
 -2       551       683       682      2850      2851      2846
 -1      1208    8    0    1
 -2       552       553       684      2456      2852      2853
 -1      1209    8    0    1
 -2       552       684       683      2853      2854      2849
 -1      1210    8    0    1
 -2       553       554       685      2459      2855      2856
 -1      1211    8    0    1
 -2       553       685       684      2856      2857      2852
 -1      1212    8    0    1
 -2       554       555       686      2462      2858      2859
 -1      1213    8    0    1
 -2       554       686       685      2859      2860      2855
 -1      1214    8    0    1
 -2       555       556       687      2465      2861      2862
 -1      1215    8    0    1
 -2       555       687       686      2862      2863      2858
 -1      1216    8    0    1
 -2       556       557       688      2468      2864      2865
 -1      1217    8    0    1
 -2       556       688       687      2865      2866      2861
 -1      1218    8    0    1
 -2       557       558       689      2471      2867      2868
 -1      1219    8    0    1
 -2       557       689       688      2868      2869      2864
 -1      1220    8    0    1
 -2       558       559       690      2474      2870      2871
 -1      1221    8    0    1
 -2       558       690       689      2871      2872      2867
 -1      1222    8    0    1
 -2       559       560       691      2477      2873      2874
 -1      1223    8    0    1
 -2       559       691       690      2874      2875      2870
 -1      1224    8    0    1
 -2       560       561       692      2480      2876      2877
 -1      1225    8    0    1
 -2       560       692       691      2877      2878      2873
 -1      1226    8    0    1
 -2       561       562       693      2483      2879      2880
 -1      1227    8    0    1
 -2       561       693       692      2880      2881      2876
 -1      1228    8    0    1
 -2       562       563       694      2486      2882      2883
 -1      1229    8    0    1
 -2       562       694       693      2883      2884      2879
 -1      1230    8    0    1
 -2       563       564       695      2489      2885      2886
 -1      1231    8    0    1
 -2       563       695       694      2886      2887      2882
 -1      1232    8    0    1
 -2       564       565       696      2492      2888      2889
 -1      1233    8    0    1
 -2       564       696       695      2889      2890      2885
 -1      1234    8    0    1
 -2       565       566       697      2495      2891      2892
 -1      1235    8    0    1
 -2       565       697       696      2892      2893      2888
 -1      1236    8    0    1
 -2       566       567       698      2498      2894      2895
 -1      1237    8    0    1
 -2       566       698       697      2895      2896      2891
 -1      1238    8    0    1
 -2       567       568       699      2501      2897      2898
 -1      1239    8    0    1
 -2       567       699       698      2898      2899      2894
 -1      1240    8    0    1
 -2       568       569       700      2504      2900      2901
 -1      1241    8    0    1
 -2       568       700       699      2901      2902      2897
 -1      1242    8    0    1
 -2       569       570       701      2507      2903      2904
 -1      1243    8    0    1
 -2       569       701       700      2904      2905      2900
 -1      1244    8    0    1
 -2       570       571       702      2510      2906      2907
 -1      1245    8    0    1
 -2       701       570       702      2903      2907      2908
 -1      1246    8    0    1
 -2       571       574       702      2663      2909      2906
 -1      1247    8    0    1
 -2       576       577       703      2528      2910      2911
 -1      1248    8    0    1
 -2       614       528       704      2664      2912      2913
 -1      1249    8    0    1
 -2       528       663       704      2792      2914      2912
 -1      1250    8    0    1
 -2       572       573       705      2516      2915      2916
 -1      1251    8    0    1
 -2       577       578       706      2531      2917      2918
 -1      1252    8    0    1
 -2       577       706       703      2918      2919      2910
 -1      1253    8    0    1
 -2       573       576       707      2525      2920      2921
 -1      1254    8    0    1
 -2       705       573       707      2915      2921      2922
 -1      1255    8    0    1
 -2       576       703       707      2911      2923      2920
 -1      1256    8    0    1
 -2       620       590       708      2665      2924      2925
 -1      1257    8    0    1
 -2       578       579       709      2534      2926      2927
 -1      1258    8    0    1
 -2       578       709       706      2927      2928      2917
 -1      1259    8    0    1
 -2       579       580       710      2537      2929      2930
 -1      1260    8    0    1
 -2       579       710       709      2930      2931      2926
 -1      1261    8    0    1
 -2       580       581       711      2540      2932      2933
 -1      1262    8    0    1
 -2       580       711       710      2933      2934      2929
 -1      1263    8    0    1
 -2       584       530       712      2549      2935      2936
 -1      1264    8    0    1
 -2       530       664       712      2795      2937      2935
 -1      1265    8    0    1
 -2       599       593       713      2584      2938      2939
 -1      1266    8    0    1
 -2       582       614       704      2636      2913      2940
 -1      1267    8    0    1
 -2       587       585       714      2630      2941      2942
 -1      1268    8    0    1
 -2       482       609       474      2642      2611      2943
 -1      1269    8    0    1
 -2       484       588       715      2558      2944      2945
 -1      1270    8    0    1
 -2       588       616       715      2646      2946      2944
 -1      1271    8    0    1
 -2       598       523       604      2784      2947      2618
 -1      1272    8    0    1
 -2       460       472       716      2208      2948      2949
 -1      1273    8    0    1
 -2       471       586       717      2633      2950      2951
 -1      1274    8    0    1
 -2       595       596       718      2652      2952      2953
 -1      1275    8    0    1
 -2       532       533       719      2396      2954      2955
 -1      1276    8    0    1
 -2       533       665       719      2797      2956      2954
 -1      1277    8    0    1
 -2       531       532       720      2393      2957      2958
 -1      1278    8    0    1
 -2       532       719       720      2955      2959      2957
 -1      1279    8    0    1
 -2       486       484       721      2257      2960      2961
 -1      1280    8    0    1
 -2       628       486       721      2684      2961      2962
 -1      1281    8    0    1
 -2       484       715       721      2945      2963      2960
 -1      1282    8    0    1
 -2       483       584       722      2615      2964      2965
 -1      1283    8    0    1
 -2       625       483       722      2677      2965      2966
 -1      1284    8    0    1
 -2       584       712       722      2936      2967      2964
 -1      1285    8    0    1
 -2       479       480       723      2241      2968      2969
 -1      1286    8    0    1
 -2       621       479       723      2667      2969      2970
 -1      1287    8    0    1
 -2       480       623       723      2673      2971      2968
 -1      1288    8    0    1
 -2       590       592       724      2659      2972      2973
 -1      1289    8    0    1
 -2       476       475       725      2230      2974      2975
 -1      1290    8    0    1
 -2       606       607       726      2617      2976      2977
 -1      1291    8    0    1
 -2       485       591       727      2658      2978      2979
 -1      1292    8    0    1
 -2       593       600       728      2653      2980      2981
 -1      1293    8    0    1
 -2       591       595       729      2657      2982      2983
 -1      1294    8    0    1
 -2       592       485       730      2619      2984      2985
 -1      1295    8    0    1
 -2       601       602       731      2592      2986      2987
 -1      1296    8    0    1
 -2       600       601       732      2589      2988      2989
 -1      1297    8    0    1
 -2       601       731       732      2987      2990      2988
 -1      1298    8    0    1
 -2       602       460       716      2590      2949      2991
 -1      1299    8    0    1
 -2       583       587       733      2641      2992      2993
 -1      1300    8    0    1
 -2       587       714       733      2942      2994      2992
 -1      1301    8    0    1
 -2       597       599       734      2648      2995      2996
 -1      1302    8    0    1
 -2       605       606       735      2602      2997      2998
 -1      1303    8    0    1
 -2       522       472       603      2783      2623      2999
 -1      1304    8    0    1
 -2       472       521       716      2782      3000      2948
 -1      1305    8    0    1
 -2       716       521       520      3000      2362      3001
 -1      1306    8    0    1
 -2       522       603       523      2999      3002      2368
 -1      1307    8    0    1
 -2       523       603       604      3002      2597      2947
 -1      1308    8    0    1
 -2       590       724       708      2973      3003      2924
 -1      1309    8    0    1
 -2       477       622       736      2670      3004      3005
 -1      1310    8    0    1
 -2       477       736       589      3005      3006      2563
 -1      1311    8    0    1
 -2       585       626       714      2680      3007      2941
 -1      1312    8    0    1
 -2       608       627       619      2682      3008      2660
 -1      1313    8    0    1
 -2       610       476       737      2612      3009      3010
 -1      1314    8    0    1
 -2       476       725       737      2975      3011      3009
 -1      1315    8    0    1
 -2       594       620       627      2683      3012      2681
 -1      1316    8    0    1
 -2       611       470       738      2620      3013      3014
 -1      1317    8    0    1
 -2       470       619       738      2662      3015      3013
 -1      1318    8    0    1
 -2       612       583       733      2624      2993      3016
 -1      1319    8    0    1
 -2       613       471       717      2629      2951      3017
 -1      1320    8    0    1
 -2       520       519       731      2359      3018      3019
 -1      1321    8    0    1
 -2       524       598       615      2785      2639      3020
 -1      1322    8    0    1
 -2       572       705       739      2916      3021      3022
 -1      1323    8    0    1
 -2       572       739       575      3022      3023      2522
 -1      1324    8    0    1
 -2       525       524       615      2374      3020      3024
 -1      1325    8    0    1
 -2       599       713       734      2939      3025      2995
 -1      1326    8    0    1
 -2       664       531       720      2794      2958      3026
 -1      1327    8    0    1
 -2       730       485       727      2984      2979      3027
 -1      1328    8    0    1
 -2       729       595       718      2982      2953      3028
 -1      1329    8    0    1
 -2       728       600       732      2980      2989      3029
 -1      1330    8    0    1
 -2       724       592       730      2972      2985      3030
 -1      1331    8    0    1
 -2       597       734       618      2996      3031      2656
 -1      1332    8    0    1
 -2       574       575       740      2521      3032      3033
 -1      1333    8    0    1
 -2       702       574       740      2909      3033      3034
 -1      1334    8    0    1
 -2       575       739       740      3023      3035      3032
 -1      1335    8    0    1
 -2       581       582       704      2543      2940      3036
 -1      1336    8    0    1
 -2       718       596       741      2952      3037      3038
 -1      1337    8    0    1
 -2       596       617       741      2650      3039      3037
 -1      1338    8    0    1
 -2       615       605       735      2640      2998      3040
 -1      1339    8    0    1
 -2       713       593       728      2938      2981      3041
 -1      1340    8    0    1
 -2       482       474       625      2943      2678      3042
 -1      1341    8    0    1
 -2       717       586       742      2950      3043      3044
 -1      1342    8    0    1
 -2       586       611       742      2622      3045      3043
 -1      1343    8    0    1
 -2       617       473       743      2651      3046      3047
 -1      1344    8    0    1
 -2       473       618       743      2655      3048      3046
 -1      1345    8    0    1
 -2       716       520       731      3001      3019      3049
 -1      1346    8    0    1
 -2       607       612       744      2626      3050      3051
 -1      1347    8    0    1
 -2       607       744       726      3051      3052      2976
 -1      1348    8    0    1
 -2       727       591       729      2978      2983      3053
 -1      1349    8    0    1
 -2       626       529       745      2679      3054      3055
 -1      1350    8    0    1
 -2       529       613       745      2628      3056      3054
 -1      1351    8    0    1
 -2       475       589       746      2562      3057      3058
 -1      1352    8    0    1
 -2       725       475       746      2974      3058      3059
 -1      1353    8    0    1
 -2       589       736       746      3006      3060      3057
 -1      1354    8    0    1
 -2       624       482       625      2674      3042      3061
 -1      1355    8    0    1
 -2       627       620       747      3012      3062      3063
 -1      1356    8    0    1
 -2       620       708       747      2925      3064      3062
 -1      1357    8    0    1
 -2       606       726       735      2977      3065      2997
 -1      1358    8    0    1
 -2       581       704       748      3036      3066      3067
 -1      1359    8    0    1
 -2       711       581       748      2932      3067      3068
 -1      1360    8    0    1
 -2       704       663       748      2914      3069      3066
 -1      1361    8    0    1
 -2       623       624       749      2676      3070      3071
 -1      1362    8    0    1
 -2       714       626       750      3007      3072      3073
 -1      1363    8    0    1
 -2       731       519       660      3018      2780      3074
 -1      1364    8    0    1
 -2       630       629       751      2691      3075      3076
 -1      1365    8    0    1
 -2       631       630       752      2694      3077      3078
 -1      1366    8    0    1
 -2       630       751       752      3076      3079      3077
 -1      1367    8    0    1
 -2       632       631       753      2697      3080      3081
 -1      1368    8    0    1
 -2       631       752       753      3078      3082      3080
 -1      1369    8    0    1
 -2       633       632       754      2700      3083      3084
 -1      1370    8    0    1
 -2       632       753       754      3081      3085      3083
 -1      1371    8    0    1
 -2       634       633       755      2703      3086      3087
 -1      1372    8    0    1
 -2       633       754       755      3084      3088      3086
 -1      1373    8    0    1
 -2       635       634       756      2706      3089      3090
 -1      1374    8    0    1
 -2       634       755       756      3087      3091      3089
 -1      1375    8    0    1
 -2       636       635       757      2709      3092      3093
 -1      1376    8    0    1
 -2       635       756       757      3090      3094      3092
 -1      1377    8    0    1
 -2       637       636       758      2712      3095      3096
 -1      1378    8    0    1
 -2       636       757       758      3093      3097      3095
 -1      1379    8    0    1
 -2       638       637       759      2715      3098      3099
 -1      1380    8    0    1
 -2       637       758       759      3096      3100      3098
 -1      1381    8    0    1
 -2       639       638       760      2718      3101      3102
 -1      1382    8    0    1
 -2       638       759       760      3099      3103      3101
 -1      1383    8    0    1
 -2       640       639       761      2721      3104      3105
 -1      1384    8    0    1
 -2       639       760       761      3102      3106      3104
 -1      1385    8    0    1
 -2       641       640       762      2724      3107      3108
 -1      1386    8    0    1
 -2       640       761       762      3105      3109      3107
 -1      1387    8    0    1
 -2       642       641       763      2727      3110      3111
 -1      1388    8    0    1
 -2       641       762       763      3108      3112      3110
 -1      1389    8    0    1
 -2       643       642       764      2730      3113      3114
 -1      1390    8    0    1
 -2       642       763       764      3111      3115      3113
 -1      1391    8    0    1
 -2       644       643       765      2733      3116      3117
 -1      1392    8    0    1
 -2       643       764       765      3114      3118      3116
 -1      1393    8    0    1
 -2       645       644       766      2736      3119      3120
 -1      1394    8    0    1
 -2       644       765       766      3117      3121      3119
 -1      1395    8    0    1
 -2       646       645       767      2739      3122      3123
 -1      1396    8    0    1
 -2       645       766       767      3120      3124      3122
 -1      1397    8    0    1
 -2       647       646       768      2742      3125      3126
 -1      1398    8    0    1
 -2       646       767       768      3123      3127      3125
 -1      1399    8    0    1
 -2       648       647       769      2745      3128      3129
 -1      1400    8    0    1
 -2       647       768       769      3126      3130      3128
 -1      1401    8    0    1
 -2       649       648       770      2748      3131      3132
 -1      1402    8    0    1
 -2       648       769       770      3129      3133      3131
 -1      1403    8    0    1
 -2       650       649       771      2751      3134      3135
 -1      1404    8    0    1
 -2       649       770       771      3132      3136      3134
 -1      1405    8    0    1
 -2       651       650       772      2754      3137      3138
 -1      1406    8    0    1
 -2       650       771       772      3135      3139      3137
 -1      1407    8    0    1
 -2       652       651       773      2757      3140      3141
 -1      1408    8    0    1
 -2       651       772       773      3138      3142      3140
 -1      1409    8    0    1
 -2       653       652       774      2760      3143      3144
 -1      1410    8    0    1
 -2       652       773       774      3141      3145      3143
 -1      1411    8    0    1
 -2       654       653       775      2763      3146      3147
 -1      1412    8    0    1
 -2       653       774       775      3144      3148      3146
 -1      1413    8    0    1
 -2       655       654       776      2766      3149      3150
 -1      1414    8    0    1
 -2       654       775       776      3147      3151      3149
 -1      1415    8    0    1
 -2       656       655       777      2769      3152      3153
 -1      1416    8    0    1
 -2       655       776       777      3150      3154      3152
 -1      1417    8    0    1
 -2       657       656       778      2772      3155      3156
 -1      1418    8    0    1
 -2       656       777       778      3153      3157      3155
 -1      1419    8    0    1
 -2       658       657       779      2775      3158      3159
 -1      1420    8    0    1
 -2       657       778       779      3156      3160      3158
 -1      1421    8    0    1
 -2       659       658       780      2778      3161      3162
 -1      1422    8    0    1
 -2       658       779       780      3159      3163      3161
 -1      1423    8    0    1
 -2       734       713       781      3025      3164      3165
 -1      1424    8    0    1
 -2       730       727       782      3027      3166      3167
 -1      1425    8    0    1
 -2       665       666       783      2800      3168      3169
 -1      1426    8    0    1
 -2       668       669       784      2809      3170      3171
 -1      1427    8    0    1
 -2       669       670       785      2812      3172      3173
 -1      1428    8    0    1
 -2       669       785       784      3173      3174      3170
 -1      1429    8    0    1
 -2       670       671       786      2815      3175      3176
 -1      1430    8    0    1
 -2       670       786       785      3176      3177      3172
 -1      1431    8    0    1
 -2       671       672       787      2818      3178      3179
 -1      1432    8    0    1
 -2       671       787       786      3179      3180      3175
 -1      1433    8    0    1
 -2       672       673       788      2821      3181      3182
 -1      1434    8    0    1
 -2       672       788       787      3182      3183      3178
 -1      1435    8    0    1
 -2       673       674       789      2824      3184      3185
 -1      1436    8    0    1
 -2       673       789       788      3185      3186      3181
 -1      1437    8    0    1
 -2       674       675       790      2827      3187      3188
 -1      1438    8    0    1
 -2       674       790       789      3188      3189      3184
 -1      1439    8    0    1
 -2       675       676       791      2830      3190      3191
 -1      1440    8    0    1
 -2       675       791       790      3191      3192      3187
 -1      1441    8    0    1
 -2       676       677       792      2833      3193      3194
 -1      1442    8    0    1
 -2       676       792       791      3194      3195      3190
 -1      1443    8    0    1
 -2       677       678       793      2836      3196      3197
 -1      1444    8    0    1
 -2       677       793       792      3197      3198      3193
 -1      1445    8    0    1
 -2       678       679       794      2839      3199      3200
 -1      1446    8    0    1
 -2       678       794       793      3200      3201      3196
 -1      1447    8    0    1
 -2       679       680       795      2842      3202      3203
 -1      1448    8    0    1
 -2       679       795       794      3203      3204      3199
 -1      1449    8    0    1
 -2       680       681       796      2845      3205      3206
 -1      1450    8    0    1
 -2       680       796       795      3206      3207      3202
 -1      1451    8    0    1
 -2       681       682       797      2848      3208      3209
 -1      1452    8    0    1
 -2       681       797       796      3209      3210      3205
 -1      1453    8    0    1
 -2       682       683       798      2851      3211      3212
 -1      1454    8    0    1
 -2       682       798       797      3212      3213      3208
 -1      1455    8    0    1
 -2       683       684       799      2854      3214      3215
 -1      1456    8    0    1
 -2       683       799       798      3215      3216      3211
 -1      1457    8    0    1
 -2       684       685       800      2857      3217      3218
 -1      1458    8    0    1
 -2       684       800       799      3218      3219      3214
 -1      1459    8    0    1
 -2       685       686       801      2860      3220      3221
 -1      1460    8    0    1
 -2       685       801       800      3221      3222      3217
 -1      1461    8    0    1
 -2       686       687       802      2863      3223      3224
 -1      1462    8    0    1
 -2       686       802       801      3224      3225      3220
 -1      1463    8    0    1
 -2       687       688       803      2866      3226      3227
 -1      1464    8    0    1
 -2       687       803       802      3227      3228      3223
 -1      1465    8    0    1
 -2       688       689       804      2869      3229      3230
 -1      1466    8    0    1
 -2       688       804       803      3230      3231      3226
 -1      1467    8    0    1
 -2       689       690       805      2872      3232      3233
 -1      1468    8    0    1
 -2       689       805       804      3233      3234      3229
 -1      1469    8    0    1
 -2       690       691       806      2875      3235      3236
 -1      1470    8    0    1
 -2       690       806       805      3236      3237      3232
 -1      1471    8    0    1
 -2       691       692       807      2878      3238      3239
 -1      1472    8    0    1
 -2       691       807       806      3239      3240      3235
 -1      1473    8    0    1
 -2       692       693       808      2881      3241      3242
 -1      1474    8    0    1
 -2       692       808       807      3242      3243      3238
 -1      1475    8    0    1
 -2       693       694       809      2884      3244      3245
 -1      1476    8    0    1
 -2       693       809       808      3245      3246      3241
 -1      1477    8    0    1
 -2       694       695       810      2887      3247      3248
 -1      1478    8    0    1
 -2       694       810       809      3248      3249      3244
 -1      1479    8    0    1
 -2       695       696       811      2890      3250      3251
 -1      1480    8    0    1
 -2       695       811       810      3251      3252      3247
 -1      1481    8    0    1
 -2       697       698       812      2896      3253      3254
 -1      1482    8    0    1
 -2       698       699       813      2899      3255      3256
 -1      1483    8    0    1
 -2       698       813       812      3256      3257      3253
 -1      1484    8    0    1
 -2       699       700       814      2902      3258      3259
 -1      1485    8    0    1
 -2       699       814       813      3259      3260      3255
 -1      1486    8    0    1
 -2       700       701       815      2905      3261      3262
 -1      1487    8    0    1
 -2       700       815       814      3262      3263      3258
 -1      1488    8    0    1
 -2       701       702       816      2908      3264      3265
 -1      1489    8    0    1
 -2       815       701       816      3261      3265      3266
 -1      1490    8    0    1
 -2       702       740       816      3034      3267      3264
 -1      1491    8    0    1
 -2       624       625       817      3061      3268      3269
 -1      1492    8    0    1
 -2       749       624       817      3070      3269      3270
 -1      1493    8    0    1
 -2       625       722       817      2966      3271      3268
 -1      1494    8    0    1
 -2       703       706       745      2919      3272      3273
 -1      1495    8    0    1
 -2       710       711       818      2934      3274      3275
 -1      1496    8    0    1
 -2       719       665       819      2956      3276      3277
 -1      1497    8    0    1
 -2       665       783       819      3169      3278      3276
 -1      1498    8    0    1
 -2       712       664       820      2937      3279      3280
 -1      1499    8    0    1
 -2       709       710       821      2931      3281      3282
 -1      1500    8    0    1
 -2       710       818       821      3275      3283      3281
 -1      1501    8    0    1
 -2       667       668       822      2806      3284      3285
 -1      1502    8    0    1
 -2       668       784       822      3171      3286      3284
 -1      1503    8    0    1
 -2       666       667       823      2803      3287      3288
 -1      1504    8    0    1
 -2       783       666       823      3168      3288      3289
 -1      1505    8    0    1
 -2       667       822       823      3285      3290      3287
 -1      1506    8    0    1
 -2       616       610       824      2647      3291      3292
 -1      1507    8    0    1
 -2       715       616       824      2946      3292      3293
 -1      1508    8    0    1
 -2       610       737       824      3010      3294      3291
 -1      1509    8    0    1
 -2       619       627       825      3008      3295      3296
 -1      1510    8    0    1
 -2       629       628       826      2688      3297      3298
 -1      1511    8    0    1
 -2       629       826       751      3298      3299      3075
 -1      1512    8    0    1
 -2       661       525       615      2786      3024      3300
 -1      1513    8    0    1
 -2       720       719       827      2959      3301      3302
 -1      1514    8    0    1
 -2       719       819       827      3277      3303      3301
 -1      1515    8    0    1
 -2       727       729       828      3053      3304      3305
 -1      1516    8    0    1
 -2       729       718       829      3028      3306      3307
 -1      1517    8    0    1
 -2       618       734       830      3031      3308      3309
 -1      1518    8    0    1
 -2       602       716       731      2991      3049      2986
 -1      1519    8    0    1
 -2       612       733       831      3016      3310      3311
 -1      1520    8    0    1
 -2       724       730       832      3030      3312      3313
 -1      1521    8    0    1
 -2       733       714       821      2994      3314      3315
 -1      1522    8    0    1
 -2       664       720       833      3026      3316      3317
 -1      1523    8    0    1
 -2       720       827       833      3302      3318      3316
 -1      1524    8    0    1
 -2       708       724       811      3003      3319      3320
 -1      1525    8    0    1
 -2       713       728       834      3041      3321      3322
 -1      1526    8    0    1
 -2       613       717       835      3017      3323      3324
 -1      1527    8    0    1
 -2       613       835       745      3324      3325      3056
 -1      1528    8    0    1
 -2       622       621       836      2671      3326      3327
 -1      1529    8    0    1
 -2       736       622       837      3004      3328      3329
 -1      1530    8    0    1
 -2       622       836       837      3327      3330      3328
 -1      1531    8    0    1
 -2       717       742       838      3044      3331      3332
 -1      1532    8    0    1
 -2       717       838       835      3332      3333      3323
 -1      1533    8    0    1
 -2       714       750       821      3073      3334      3314
 -1      1534    8    0    1
 -2       723       623       839      2971      3335      3336
 -1      1535    8    0    1
 -2       623       749       839      3071      3337      3335
 -1      1536    8    0    1
 -2       737       725       840      3011      3338      3339
 -1      1537    8    0    1
 -2       738       619       825      3015      3296      3340
 -1      1538    8    0    1
 -2       732       731       660      2990      3074      3341
 -1      1539    8    0    1
 -2       722       712       841      2967      3342      3343
 -1      1540    8    0    1
 -2       817       722       841      3271      3343      3344
 -1      1541    8    0    1
 -2       712       820       841      3280      3345      3342
 -1      1542    8    0    1
 -2       612       831       744      3311      3346      3050
 -1      1543    8    0    1
 -2       661       615       735      3300      3040      3347
 -1      1544    8    0    1
 -2       781       713       834      3164      3322      3348
 -1      1545    8    0    1
 -2       660       659       842      2781      3349      3350
 -1      1546    8    0    1
 -2       730       782       832      3167      3351      3312
 -1      1547    8    0    1
 -2       739       705       843      3021      3352      3353
 -1      1548    8    0    1
 -2       663       662       844      2793      3354      3355
 -1      1549    8    0    1
 -2       811       696       845      3250      3356      3357
 -1      1550    8    0    1
 -2       708       811       845      3320      3357      3358
 -1      1551    8    0    1
 -2       696       697       845      2893      3359      3356
 -1      1552    8    0    1
 -2       705       707       846      2922      3360      3361
 -1      1553    8    0    1
 -2       705       846       843      3361      3362      3352
 -1      1554    8    0    1
 -2       834       728       842      3321      3363      3364
 -1      1555    8    0    1
 -2       818       711       844      3274      3365      3366
 -1      1556    8    0    1
 -2       715       824       847      3293      3367      3368
 -1      1557    8    0    1
 -2       715       847       721      3368      3369      2963
 -1      1558    8    0    1
 -2       707       703       835      2923      3370      3371
 -1      1559    8    0    1
 -2       727       828       782      3305      3372      3166
 -1      1560    8    0    1
 -2       820       664       833      3279      3317      3373
 -1      1561    8    0    1
 -2       706       709       750      2928      3374      3375
 -1      1562    8    0    1
 -2       621       723       848      2970      3376      3377
 -1      1563    8    0    1
 -2       836       621       848      3326      3377      3378
 -1      1564    8    0    1
 -2       723       839       848      3336      3379      3376
 -1      1565    8    0    1
 -2       709       821       750      3282      3334      3374
 -1      1566    8    0    1
 -2       741       617       849      3039      3380      3381
 -1      1567    8    0    1
 -2       617       743       849      3047      3382      3380
 -1      1568    8    0    1
 -2       718       741       850      3038      3383      3384
 -1      1569    8    0    1
 -2       718       850       829      3384      3385      3306
 -1      1570    8    0    1
 -2       830       734       851      3308      3386      3387
 -1      1571    8    0    1
 -2       734       781       851      3165      3388      3386
 -1      1572    8    0    1
 -2       742       611       852      3045      3389      3390
 -1      1573    8    0    1
 -2       611       738       852      3014      3391      3389
 -1      1574    8    0    1
 -2       662       661       853      2790      3392      3393
 -1      1575    8    0    1
 -2       743       618       830      3048      3309      3394
 -1      1576    8    0    1
 -2       661       735       853      3347      3395      3392
 -1      1577    8    0    1
 -2       732       660       842      3341      3350      3396
 -1      1578    8    0    1
 -2       840       725       854      3338      3397      3398
 -1      1579    8    0    1
 -2       725       746       854      3059      3399      3397
 -1      1580    8    0    1
 -2       845       697       812      3359      3254      3400
 -1      1581    8    0    1
 -2       844       662       853      3354      3393      3401
 -1      1582    8    0    1
 -2       842       659       780      3349      3162      3402
 -1      1583    8    0    1
 -2       708       845       747      3358      3403      3064
 -1      1584    8    0    1
 -2       842       728       732      3363      3029      3396
 -1      1585    8    0    1
 -2       726       744       853      3052      3404      3405
 -1      1586    8    0    1
 -2       628       721       847      2962      3369      3406
 -1      1587    8    0    1
 -2       828       729       829      3304      3307      3407
 -1      1588    8    0    1
 -2       853       735       726      3395      3065      3405
 -1      1589    8    0    1
 -2       627       747       855      3063      3408      3409
 -1      1590    8    0    1
 -2       825       627       855      3295      3409      3410
 -1      1591    8    0    1
 -2       747       845       855      3403      3411      3408
 -1      1592    8    0    1
 -2       628       847       826      3406      3412      3297
 -1      1593    8    0    1
 -2       738       825       856      3340      3413      3414
 -1      1594    8    0    1
 -2       826       847       857      3412      3415      3416
 -1      1595    8    0    1
 -2       753       752       858      3082      3417      3418
 -1      1596    8    0    1
 -2       754       753       859      3085      3419      3420
 -1      1597    8    0    1
 -2       753       858       859      3418      3421      3419
 -1      1598    8    0    1
 -2       755       754       860      3088      3422      3423
 -1      1599    8    0    1
 -2       754       859       860      3420      3424      3422
 -1      1600    8    0    1
 -2       756       755       861      3091      3425      3426
 -1      1601    8    0    1
 -2       755       860       861      3423      3427      3425
 -1      1602    8    0    1
 -2       757       756       862      3094      3428      3429
 -1      1603    8    0    1
 -2       756       861       862      3426      3430      3428
 -1      1604    8    0    1
 -2       758       757       863      3097      3431      3432
 -1      1605    8    0    1
 -2       757       862       863      3429      3433      3431
 -1      1606    8    0    1
 -2       759       758       864      3100      3434      3435
 -1      1607    8    0    1
 -2       758       863       864      3432      3436      3434
 -1      1608    8    0    1
 -2       760       759       865      3103      3437      3438
 -1      1609    8    0    1
 -2       759       864       865      3435      3439      3437
 -1      1610    8    0    1
 -2       761       760       866      3106      3440      3441
 -1      1611    8    0    1
 -2       760       865       866      3438      3442      3440
 -1      1612    8    0    1
 -2       762       761       867      3109      3443      3444
 -1      1613    8    0    1
 -2       761       866       867      3441      3445      3443
 -1      1614    8    0    1
 -2       763       762       868      3112      3446      3447
 -1      1615    8    0    1
 -2       762       867       868      3444      3448      3446
 -1      1616    8    0    1
 -2       764       763       869      3115      3449      3450
 -1      1617    8    0    1
 -2       763       868       869      3447      3451      3449
 -1      1618    8    0    1
 -2       765       764       870      3118      3452      3453
 -1      1619    8    0    1
 -2       764       869       870      3450      3454      3452
 -1      1620    8    0    1
 -2       766       765       871      3121      3455      3456
 -1      1621    8    0    1
 -2       765       870       871      3453      3457      3455
 -1      1622    8    0    1
 -2       767       766       872      3124      3458      3459
 -1      1623    8    0    1
 -2       766       871       872      3456      3460      3458
 -1      1624    8    0    1
 -2       768       767       873      3127      3461      3462
 -1      1625    8    0    1
 -2       767       872       873      3459      3463      3461
 -1      1626    8    0    1
 -2       769       768       874      3130      3464      3465
 -1      1627    8    0    1
 -2       768       873       874      3462      3466      3464
 -1      1628    8    0    1
 -2       770       769       875      3133      3467      3468
 -1      1629    8    0    1
 -2       769       874       875      3465      3469      3467
 -1      1630    8    0    1
 -2       771       770       876      3136      3470      3471
 -1      1631    8    0    1
 -2       770       875       876      3468      3472      3470
 -1      1632    8    0    1
 -2       772       771       877      3139      3473      3474
 -1      1633    8    0    1
 -2       771       876       877      3471      3475      3473
 -1      1634    8    0    1
 -2       773       772       878      3142      3476      3477
 -1      1635    8    0    1
 -2       772       877       878      3474      3478      3476
 -1      1636    8    0    1
 -2       774       773       879      3145      3479      3480
 -1      1637    8    0    1
 -2       773       878       879      3477      3481      3479
 -1      1638    8    0    1
 -2       775       774       880      3148      3482      3483
 -1      1639    8    0    1
 -2       774       879       880      3480      3484      3482
 -1      1640    8    0    1
 -2       776       775       881      3151      3485      3486
 -1      1641    8    0    1
 -2       775       880       881      3483      3487      3485
 -1      1642    8    0    1
 -2       777       776       882      3154      3488      3489
 -1      1643    8    0    1
 -2       776       881       882      3486      3490      3488
 -1      1644    8    0    1
 -2       778       777       883      3157      3491      3492
 -1      1645    8    0    1
 -2       777       882       883      3489      3493      3491
 -1      1646    8    0    1
 -2       779       778       884      3160      3494      3495
 -1      1647    8    0    1
 -2       778       883       884      3492      3496      3494
 -1      1648    8    0    1
 -2       834       842       780      3364      3402      3497
 -1      1649    8    0    1
 -2       663       844       748      3355      3498      3069
 -1      1650    8    0    1
 -2       784       785       885      3174      3499      3500
 -1      1651    8    0    1
 -2       787       788       886      3183      3501      3502
 -1      1652    8    0    1
 -2       788       789       887      3186      3503      3504
 -1      1653    8    0    1
 -2       788       887       886      3504      3505      3501
 -1      1654    8    0    1
 -2       789       790       888      3189      3506      3507
 -1      1655    8    0    1
 -2       789       888       887      3507      3508      3503
 -1      1656    8    0    1
 -2       790       791       889      3192      3509      3510
 -1      1657    8    0    1
 -2       790       889       888      3510      3511      3506
 -1      1658    8    0    1
 -2       791       792       890      3195      3512      3513
 -1      1659    8    0    1
 -2       791       890       889      3513      3514      3509
 -1      1660    8    0    1
 -2       792       793       891      3198      3515      3516
 -1      1661    8    0    1
 -2       792       891       890      3516      3517      3512
 -1      1662    8    0    1
 -2       793       794       892      3201      3518      3519
 -1      1663    8    0    1
 -2       793       892       891      3519      3520      3515
 -1      1664    8    0    1
 -2       794       795       893      3204      3521      3522
 -1      1665    8    0    1
 -2       794       893       892      3522      3523      3518
 -1      1666    8    0    1
 -2       795       796       894      3207      3524      3525
 -1      1667    8    0    1
 -2       795       894       893      3525      3526      3521
 -1      1668    8    0    1
 -2       796       797       895      3210      3527      3528
 -1      1669    8    0    1
 -2       796       895       894      3528      3529      3524
 -1      1670    8    0    1
 -2       797       798       896      3213      3530      3531
 -1      1671    8    0    1
 -2       797       896       895      3531      3532      3527
 -1      1672    8    0    1
 -2       798       799       897      3216      3533      3534
 -1      1673    8    0    1
 -2       798       897       896      3534      3535      3530
 -1      1674    8    0    1
 -2       799       800       898      3219      3536      3537
 -1      1675    8    0    1
 -2       799       898       897      3537      3538      3533
 -1      1676    8    0    1
 -2       800       801       899      3222      3539      3540
 -1      1677    8    0    1
 -2       800       899       898      3540      3541      3536
 -1      1678    8    0    1
 -2       801       802       900      3225      3542      3543
 -1      1679    8    0    1
 -2       801       900       899      3543      3544      3539
 -1      1680    8    0    1
 -2       802       803       901      3228      3545      3546
 -1      1681    8    0    1
 -2       802       901       900      3546      3547      3542
 -1      1682    8    0    1
 -2       803       804       902      3231      3548      3549
 -1      1683    8    0    1
 -2       803       902       901      3549      3550      3545
 -1      1684    8    0    1
 -2       804       805       903      3234      3551      3552
 -1      1685    8    0    1
 -2       804       903       902      3552      3553      3548
 -1      1686    8    0    1
 -2       805       806       904      3237      3554      3555
 -1      1687    8    0    1
 -2       805       904       903      3555      3556      3551
 -1      1688    8    0    1
 -2       806       807       905      3240      3557      3558
 -1      1689    8    0    1
 -2       806       905       904      3558      3559      3554
 -1      1690    8    0    1
 -2       809       810       832      3249      3560      3561
 -1      1691    8    0    1
 -2       844       853       744      3401      3404      3562
 -1      1692    8    0    1
 -2       844       711       748      3365      3068      3498
 -1      1693    8    0    1
 -2       813       814       906      3260      3563      3564
 -1      1694    8    0    1
 -2       812       813       856      3257      3565      3566
 -1      1695    8    0    1
 -2       847       824       737      3367      3294      3567
 -1      1696    8    0    1
 -2       819       783       907      3278      3568      3569
 -1      1697    8    0    1
 -2       740       739       908      3035      3570      3571
 -1      1698    8    0    1
 -2       816       740       908      3267      3571      3572
 -1      1699    8    0    1
 -2       739       843       908      3353      3573      3570
 -1      1700    8    0    1
 -2       828       829       909      3407      3574      3575
 -1      1701    8    0    1
 -2       782       828       910      3372      3576      3577
 -1      1702    8    0    1
 -2       745       706       750      3272      3375      3578
 -1      1703    8    0    1
 -2       833       827       911      3318      3579      3580
 -1      1704    8    0    1
 -2       821       818       831      3283      3581      3582
 -1      1705    8    0    1
 -2       822       784       912      3286      3583      3584
 -1      1706    8    0    1
 -2       784       885       912      3500      3585      3583
 -1      1707    8    0    1
 -2       751       826       913      3299      3586      3587
 -1      1708    8    0    1
 -2       743       830       914      3394      3588      3589
 -1      1709    8    0    1
 -2       743       914       849      3589      3590      3382
 -1      1710    8    0    1
 -2       786       787       915      3180      3591      3592
 -1      1711    8    0    1
 -2       787       886       915      3502      3593      3591
 -1      1712    8    0    1
 -2       785       786       916      3177      3594      3595
 -1      1713    8    0    1
 -2       885       785       916      3499      3595      3596
 -1      1714    8    0    1
 -2       786       915       916      3592      3597      3594
 -1      1715    8    0    1
 -2       827       819       917      3303      3598      3599
 -1      1716    8    0    1
 -2       827       917       911      3599      3600      3579
 -1      1717    8    0    1
 -2       746       736       918      3060      3601      3602
 -1      1718    8    0    1
 -2       746       918       854      3602      3603      3399
 -1      1719    8    0    1
 -2       820       833       919      3373      3604      3605
 -1      1720    8    0    1
 -2       833       911       919      3580      3606      3604
 -1      1721    8    0    1
 -2       752       751       920      3079      3607      3608
 -1      1722    8    0    1
 -2       752       920       858      3608      3609      3417
 -1      1723    8    0    1
 -2       831       733       821      3310      3315      3582
 -1      1724    8    0    1
 -2       724       832       811      3313      3610      3319
 -1      1725    8    0    1
 -2       781       834       921      3348      3611      3612
 -1      1726    8    0    1
 -2       845       812       855      3400      3613      3411
 -1      1727    8    0    1
 -2       834       780       921      3497      3614      3611
 -1      1728    8    0    1
 -2       809       832       782      3561      3351      3615
 -1      1729    8    0    1
 -2       838       742       922      3331      3616      3617
 -1      1730    8    0    1
 -2       742       852       922      3390      3618      3616
 -1      1731    8    0    1
 -2       839       749       923      3337      3619      3620
 -1      1732    8    0    1
 -2       826       857       913      3416      3621      3586
 -1      1733    8    0    1
 -2       841       820       924      3345      3622      3623
 -1      1734    8    0    1
 -2       820       919       924      3605      3624      3622
 -1      1735    8    0    1
 -2       779       884       921      3495      3625      3626
 -1      1736    8    0    1
 -2       780       779       921      3163      3626      3614
 -1      1737    8    0    1
 -2       917       819       907      3598      3569      3627
 -1      1738    8    0    1
 -2       744       831       844      3346      3628      3562
 -1      1739    8    0    1
 -2       783       823       925      3289      3629      3630
 -1      1740    8    0    1
 -2       783       925       907      3630      3631      3568
 -1      1741    8    0    1
 -2       905       807       910      3557      3632      3633
 -1      1742    8    0    1
 -2       807       808       910      3243      3634      3632
 -1      1743    8    0    1
 -2       808       809       782      3246      3615      3635
 -1      1744    8    0    1
 -2       843       846       922      3362      3636      3637
 -1      1745    8    0    1
 -2       847       737       840      3567      3339      3638
 -1      1746    8    0    1
 -2       815       816       908      3266      3572      3639
 -1      1747    8    0    1
 -2       815       908       926      3639      3640      3641
 -1      1748    8    0    1
 -2       814       815       926      3263      3641      3642
 -1      1749    8    0    1
 -2       908       843       926      3573      3643      3640
 -1      1750    8    0    1
 -2       837       836       927      3330      3644      3645
 -1      1751    8    0    1
 -2       910       828       909      3576      3575      3646
 -1      1752    8    0    1
 -2       835       703       745      3370      3273      3325
 -1      1753    8    0    1
 -2       741       849       928      3381      3647      3648
 -1      1754    8    0    1
 -2       741       928       850      3648      3649      3383
 -1      1755    8    0    1
 -2       836       848       929      3378      3650      3651
 -1      1756    8    0    1
 -2       836       929       927      3651      3652      3644
 -1      1757    8    0    1
 -2       822       912       930      3584      3653      3654
 -1      1758    8    0    1
 -2       822       930       823      3654      3655      3290
 -1      1759    8    0    1
 -2       851       781       931      3388      3656      3657
 -1      1760    8    0    1
 -2       781       921       931      3612      3658      3656
 -1      1761    8    0    1
 -2       852       738       856      3391      3414      3659
 -1      1762    8    0    1
 -2       830       851       932      3387      3660      3661
 -1      1763    8    0    1
 -2       830       932       914      3661      3662      3588
 -1      1764    8    0    1
 -2       918       736       837      3601      3329      3663
 -1      1765    8    0    1
 -2       707       835       846      3371      3664      3360
 -1      1766    8    0    1
 -2       808       782       910      3635      3577      3634
 -1      1767    8    0    1
 -2       847       840       857      3638      3665      3415
 -1      1768    8    0    1
 -2       926       843       922      3643      3637      3666
 -1      1769    8    0    1
 -2       814       926       906      3642      3667      3563
 -1      1770    8    0    1
 -2       920       751       913      3607      3587      3668
 -1      1771    8    0    1
 -2       840       854       933      3398      3669      3670
 -1      1772    8    0    1
 -2       840       933       857      3670      3671      3665
 -1      1773    8    0    1
 -2       923       749       841      3619      3672      3673
 -1      1774    8    0    1
 -2       913       857       933      3621      3671      3674
 -1      1775    8    0    1
 -2       921       884       931      3625      3675      3658
 -1      1776    8    0    1
 -2       860       859       934      3424      3676      3677
 -1      1777    8    0    1
 -2       861       860       935      3427      3678      3679
 -1      1778    8    0    1
 -2       860       934       935      3677      3680      3678
 -1      1779    8    0    1
 -2       862       861       936      3430      3681      3682
 -1      1780    8    0    1
 -2       861       935       936      3679      3683      3681
 -1      1781    8    0    1
 -2       863       862       937      3433      3684      3685
 -1      1782    8    0    1
 -2       862       936       937      3682      3686      3684
 -1      1783    8    0    1
 -2       864       863       938      3436      3687      3688
 -1      1784    8    0    1
 -2       863       937       938      3685      3689      3687
 -1      1785    8    0    1
 -2       865       864       939      3439      3690      3691
 -1      1786    8    0    1
 -2       864       938       939      3688      3692      3690
 -1      1787    8    0    1
 -2       866       865       940      3442      3693      3694
 -1      1788    8    0    1
 -2       865       939       940      3691      3695      3693
 -1      1789    8    0    1
 -2       867       866       941      3445      3696      3697
 -1      1790    8    0    1
 -2       866       940       941      3694      3698      3696
 -1      1791    8    0    1
 -2       868       867       942      3448      3699      3700
 -1      1792    8    0    1
 -2       867       941       942      3697      3701      3699
 -1      1793    8    0    1
 -2       869       868       943      3451      3702      3703
 -1      1794    8    0    1
 -2       868       942       943      3700      3704      3702
 -1      1795    8    0    1
 -2       870       869       944      3454      3705      3706
 -1      1796    8    0    1
 -2       869       943       944      3703      3707      3705
 -1      1797    8    0    1
 -2       871       870       945      3457      3708      3709
 -1      1798    8    0    1
 -2       870       944       945      3706      3710      3708
 -1      1799    8    0    1
 -2       872       871       946      3460      3711      3712
 -1      1800    8    0    1
 -2       871       945       946      3709      3713      3711
 -1      1801    8    0    1
 -2       873       872       947      3463      3714      3715
 -1      1802    8    0    1
 -2       872       946       947      3712      3716      3714
 -1      1803    8    0    1
 -2       874       873       948      3466      3717      3718
 -1      1804    8    0    1
 -2       873       947       948      3715      3719      3717
 -1      1805    8    0    1
 -2       875       874       949      3469      3720      3721
 -1      1806    8    0    1
 -2       874       948       949      3718      3722      3720
 -1      1807    8    0    1
 -2       876       875       950      3472      3723      3724
 -1      1808    8    0    1
 -2       875       949       950      3721      3725      3723
 -1      1809    8    0    1
 -2       877       876       951      3475      3726      3727
 -1      1810    8    0    1
 -2       876       950       951      3724      3728      3726
 -1      1811    8    0    1
 -2       878       877       952      3478      3729      3730
 -1      1812    8    0    1
 -2       877       951       952      3727      3731      3729
 -1      1813    8    0    1
 -2       879       878       953      3481      3732      3733
 -1      1814    8    0    1
 -2       878       952       953      3730      3734      3732
 -1      1815    8    0    1
 -2       880       879       954      3484      3735      3736
 -1      1816    8    0    1
 -2       879       953       954      3733      3737      3735
 -1      1817    8    0    1
 -2       881       880       955      3487      3738      3739
 -1      1818    8    0    1
 -2       880       954       955      3736      3740      3738
 -1      1819    8    0    1
 -2       882       881       956      3490      3741      3742
 -1      1820    8    0    1
 -2       881       955       956      3739      3743      3741
 -1      1821    8    0    1
 -2       883       882       957      3493      3744      3745
 -1      1822    8    0    1
 -2       882       956       957      3742      3746      3744
 -1      1823    8    0    1
 -2       884       883       958      3496      3747      3748
 -1      1824    8    0    1
 -2       883       957       958      3745      3749      3747
 -1      1825    8    0    1
 -2       888       889       959      3511      3750      3751
 -1      1826    8    0    1
 -2       887       888       960      3508      3752      3753
 -1      1827    8    0    1
 -2       888       959       960      3751      3754      3752
 -1      1828    8    0    1
 -2       750       626       745      3072      3055      3578
 -1      1829    8    0    1
 -2       886       887       961      3505      3755      3756
 -1      1830    8    0    1
 -2       887       960       961      3753      3757      3755
 -1      1831    8    0    1
 -2       889       890       962      3514      3758      3759
 -1      1832    8    0    1
 -2       889       962       959      3759      3760      3750
 -1      1833    8    0    1
 -2       890       891       963      3517      3761      3762
 -1      1834    8    0    1
 -2       890       963       962      3762      3763      3758
 -1      1835    8    0    1
 -2       891       892       964      3520      3764      3765
 -1      1836    8    0    1
 -2       891       964       963      3765      3766      3761
 -1      1837    8    0    1
 -2       892       893       965      3523      3767      3768
 -1      1838    8    0    1
 -2       892       965       964      3768      3769      3764
 -1      1839    8    0    1
 -2       893       894       966      3526      3770      3771
 -1      1840    8    0    1
 -2       893       966       965      3771      3772      3767
 -1      1841    8    0    1
 -2       894       895       967      3529      3773      3774
 -1      1842    8    0    1
 -2       894       967       966      3774      3775      3770
 -1      1843    8    0    1
 -2       895       896       968      3532      3776      3777
 -1      1844    8    0    1
 -2       895       968       967      3777      3778      3773
 -1      1845    8    0    1
 -2       896       897       969      3535      3779      3780
 -1      1846    8    0    1
 -2       896       969       968      3780      3781      3776
 -1      1847    8    0    1
 -2       897       898       970      3538      3782      3783
 -1      1848    8    0    1
 -2       897       970       969      3783      3784      3779
 -1      1849    8    0    1
 -2       898       899       971      3541      3785      3786
 -1      1850    8    0    1
 -2       898       971       970      3786      3787      3782
 -1      1851    8    0    1
 -2       899       900       972      3544      3788      3789
 -1      1852    8    0    1
 -2       899       972       971      3789      3790      3785
 -1      1853    8    0    1
 -2       900       901       973      3547      3791      3792
 -1      1854    8    0    1
 -2       900       973       972      3792      3793      3788
 -1      1855    8    0    1
 -2       901       902       974      3550      3794      3795
 -1      1856    8    0    1
 -2       901       974       973      3795      3796      3791
 -1      1857    8    0    1
 -2       902       903       975      3553      3797      3798
 -1      1858    8    0    1
 -2       902       975       974      3798      3799      3794
 -1      1859    8    0    1
 -2       903       904       976      3556      3800      3801
 -1      1860    8    0    1
 -2       903       976       975      3801      3802      3797
 -1      1861    8    0    1
 -2       923       841       924      3673      3623      3803
 -1      1862    8    0    1
 -2       832       810       811      3560      3252      3610
 -1      1863    8    0    1
 -2       831       818       844      3581      3366      3628
 -1      1864    8    0    1
 -2       856       813       906      3565      3564      3804
 -1      1865    8    0    1
 -2       812       856       855      3566      3805      3613
 -1      1866    8    0    1
 -2       905       910       909      3633      3646      3806
 -1      1867    8    0    1
 -2       909       829       977      3574      3807      3808
 -1      1868    8    0    1
 -2       911       917       978      3600      3809      3810
 -1      1869    8    0    1
 -2       848       839       979      3379      3811      3812
 -1      1870    8    0    1
 -2       848       979       929      3812      3813      3650
 -1      1871    8    0    1
 -2       854       918       980      3603      3814      3815
 -1      1872    8    0    1
 -2       854       980       933      3815      3816      3669
 -1      1873    8    0    1
 -2       849       914       981      3590      3817      3818
 -1      1874    8    0    1
 -2       849       981       928      3818      3819      3647
 -1      1875    8    0    1
 -2       915       886       982      3593      3820      3821
 -1      1876    8    0    1
 -2       886       961       982      3756      3822      3820
 -1      1877    8    0    1
 -2       926       922       906      3666      3823      3667
 -1      1878    8    0    1
 -2       839       923       979      3620      3824      3811
 -1      1879    8    0    1
 -2       749       817       841      3270      3344      3672
 -1      1880    8    0    1
 -2       837       927       983      3645      3825      3826
 -1      1881    8    0    1
 -2       837       983       918      3826      3827      3663
 -1      1882    8    0    1
 -2       829       850       977      3385      3828      3807
 -1      1883    8    0    1
 -2       919       911       984      3606      3829      3830
 -1      1884    8    0    1
 -2       911       978       984      3810      3831      3829
 -1      1885    8    0    1
 -2       856       906       852      3804      3832      3659
 -1      1886    8    0    1
 -2       912       885       985      3585      3833      3834
 -1      1887    8    0    1
 -2       859       858       986      3421      3835      3836
 -1      1888    8    0    1
 -2       859       986       934      3836      3837      3676
 -1      1889    8    0    1
 -2       905       909       987      3806      3838      3839
 -1      1890    8    0    1
 -2       904       905       987      3559      3839      3840
 -1      1891    8    0    1
 -2       909       977       987      3808      3841      3838
 -1      1892    8    0    1
 -2       920       913       988      3668      3842      3843
 -1      1893    8    0    1
 -2       858       920       989      3609      3844      3845
 -1      1894    8    0    1
 -2       858       989       986      3845      3846      3835
 -1      1895    8    0    1
 -2       917       907       990      3627      3847      3848
 -1      1896    8    0    1
 -2       917       990       978      3848      3849      3809
 -1      1897    8    0    1
 -2       977       850       928      3828      3649      3850
 -1      1898    8    0    1
 -2       913       933       991      3674      3851      3852
 -1      1899    8    0    1
 -2       988       913       991      3842      3852      3853
 -1      1900    8    0    1
 -2       933       980       991      3816      3854      3851
 -1      1901    8    0    1
 -2       924       919       992      3624      3855      3856
 -1      1902    8    0    1
 -2       919       984       992      3830      3857      3855
 -1      1903    8    0    1
 -2       904       987       976      3840      3858      3800
 -1      1904    8    0    1
 -2       983       927       993      3825      3859      3860
 -1      1905    8    0    1
 -2       838       922       846      3617      3636      3861
 -1      1906    8    0    1
 -2       925       823       930      3629      3655      3862
 -1      1907    8    0    1
 -2       885       916       994      3596      3863      3864
 -1      1908    8    0    1
 -2       885       994       985      3864      3865      3833
 -1      1909    8    0    1
 -2       923       924       995      3803      3866      3867
 -1      1910    8    0    1
 -2       979       923       995      3824      3867      3868
 -1      1911    8    0    1
 -2       924       992       995      3856      3869      3866
 -1      1912    8    0    1
 -2       922       852       906      3618      3832      3823
 -1      1913    8    0    1
 -2       907       925       996      3631      3870      3871
 -1      1914    8    0    1
 -2       907       996       990      3871      3872      3847
 -1      1915    8    0    1
 -2       977       928       997      3850      3873      3874
 -1      1916    8    0    1
 -2       920       988       989      3843      3875      3844
 -1      1917    8    0    1
 -2       980       918       983      3814      3827      3876
 -1      1918    8    0    1
 -2       930       912       998      3653      3877      3878
 -1      1919    8    0    1
 -2       912       985       998      3834      3879      3877
 -1      1920    8    0    1
 -2       981       914       999      3817      3880      3881
 -1      1921    8    0    1
 -2       914       932       999      3662      3882      3880
 -1      1922    8    0    1
 -2       927       929      1000      3652      3883      3884
 -1      1923    8    0    1
 -2       927      1000       993      3884      3885      3859
 -1      1924    8    0    1
 -2       884       958       931      3748      3886      3675
 -1      1925    8    0    1
 -2       851       931      1001      3657      3887      3888
 -1      1926    8    0    1
 -2       931       958      1001      3886      3889      3887
 -1      1927    8    0    1
 -2       932       851      1001      3660      3888      3890
 -1      1928    8    0    1
 -2       916       915      1002      3597      3891      3892
 -1      1929    8    0    1
 -2       915       982      1002      3821      3893      3891
 -1      1930    8    0    1
 -2       835       838       846      3333      3861      3664
 -1      1931    8    0    1
 -2       987       977      1003      3841      3894      3895
 -1      1932    8    0    1
 -2       976       987      1003      3858      3895      3896
 -1      1933    8    0    1
 -2       977       997      1003      3874      3897      3894
 -1      1934    8    0    1
 -2       935       934      1004      3680      3898      3899
 -1      1935    8    0    1
 -2       932      1001      1005      3890      3900      3901
 -1      1936    8    0    1
 -2       932      1005       999      3901      3902      3882
 -1      1937    8    0    1
 -2       936       935      1006      3683      3903      3904
 -1      1938    8    0    1
 -2       935      1004      1006      3899      3905      3903
 -1      1939    8    0    1
 -2       937       936      1007      3686      3906      3907
 -1      1940    8    0    1
 -2       936      1006      1007      3904      3908      3906
 -1      1941    8    0    1
 -2       938       937      1008      3689      3909      3910
 -1      1942    8    0    1
 -2       937      1007      1008      3907      3911      3909
 -1      1943    8    0    1
 -2       939       938      1009      3692      3912      3913
 -1      1944    8    0    1
 -2       938      1008      1009      3910      3914      3912
 -1      1945    8    0    1
 -2       940       939      1010      3695      3915      3916
 -1      1946    8    0    1
 -2       939      1009      1010      3913      3917      3915
 -1      1947    8    0    1
 -2       941       940      1011      3698      3918      3919
 -1      1948    8    0    1
 -2       940      1010      1011      3916      3920      3918
 -1      1949    8    0    1
 -2       942       941      1012      3701      3921      3922
 -1      1950    8    0    1
 -2       941      1011      1012      3919      3923      3921
 -1      1951    8    0    1
 -2       943       942      1013      3704      3924      3925
 -1      1952    8    0    1
 -2       942      1012      1013      3922      3926      3924
 -1      1953    8    0    1
 -2       944       943      1014      3707      3927      3928
 -1      1954    8    0    1
 -2       943      1013      1014      3925      3929      3927
 -1      1955    8    0    1
 -2       945       944      1015      3710      3930      3931
 -1      1956    8    0    1
 -2       944      1014      1015      3928      3932      3930
 -1      1957    8    0    1
 -2       946       945      1016      3713      3933      3934
 -1      1958    8    0    1
 -2       945      1015      1016      3931      3935      3933
 -1      1959    8    0    1
 -2       947       946      1017      3716      3936      3937
 -1      1960    8    0    1
 -2       946      1016      1017      3934      3938      3936
 -1      1961    8    0    1
 -2       948       947      1018      3719      3939      3940
 -1      1962    8    0    1
 -2       947      1017      1018      3937      3941      3939
 -1      1963    8    0    1
 -2       949       948      1019      3722      3942      3943
 -1      1964    8    0    1
 -2       948      1018      1019      3940      3944      3942
 -1      1965    8    0    1
 -2       950       949      1020      3725      3945      3946
 -1      1966    8    0    1
 -2       949      1019      1020      3943      3947      3945
 -1      1967    8    0    1
 -2       951       950      1021      3728      3948      3949
 -1      1968    8    0    1
 -2       950      1020      1021      3946      3950      3948
 -1      1969    8    0    1
 -2       952       951      1022      3731      3951      3952
 -1      1970    8    0    1
 -2       951      1021      1022      3949      3953      3951
 -1      1971    8    0    1
 -2       953       952      1023      3734      3954      3955
 -1      1972    8    0    1
 -2       952      1022      1023      3952      3956      3954
 -1      1973    8    0    1
 -2       954       953      1024      3737      3957      3958
 -1      1974    8    0    1
 -2       953      1023      1024      3955      3959      3957
 -1      1975    8    0    1
 -2       955       954      1025      3740      3960      3961
 -1      1976    8    0    1
 -2       954      1024      1025      3958      3962      3960
 -1      1977    8    0    1
 -2       956       955      1026      3743      3963      3964
 -1      1978    8    0    1
 -2       955      1025      1026      3961      3965      3963
 -1      1979    8    0    1
 -2       957       956      1027      3746      3966      3967
 -1      1980    8    0    1
 -2       956      1026      1027      3964      3968      3966
 -1      1981    8    0    1
 -2       958       957      1028      3749      3969      3970
 -1      1982    8    0    1
 -2       957      1027      1028      3967      3971      3969
 -1      1983    8    0    1
 -2       962       963      1029      3763      3972      3973
 -1      1984    8    0    1
 -2       959       962      1030      3760      3974      3975
 -1      1985    8    0    1
 -2       962      1029      1030      3973      3976      3974
 -1      1986    8    0    1
 -2       963       964      1031      3766      3977      3978
 -1      1987    8    0    1
 -2       963      1031      1029      3978      3979      3972
 -1      1988    8    0    1
 -2       964       965      1032      3769      3980      3981
 -1      1989    8    0    1
 -2       964      1032      1031      3981      3982      3977
 -1      1990    8    0    1
 -2       965       966      1033      3772      3983      3984
 -1      1991    8    0    1
 -2       965      1033      1032      3984      3985      3980
 -1      1992    8    0    1
 -2       966       967      1034      3775      3986      3987
 -1      1993    8    0    1
 -2       966      1034      1033      3987      3988      3983
 -1      1994    8    0    1
 -2       967       968      1035      3778      3989      3990
 -1      1995    8    0    1
 -2       967      1035      1034      3990      3991      3986
 -1      1996    8    0    1
 -2       968       969      1036      3781      3992      3993
 -1      1997    8    0    1
 -2       968      1036      1035      3993      3994      3989
 -1      1998    8    0    1
 -2       969       970      1037      3784      3995      3996
 -1      1999    8    0    1
 -2       969      1037      1036      3996      3997      3992
 -1      2000    8    0    1
 -2       970       971      1038      3787      3998      3999
 -1      2001    8    0    1
 -2       970      1038      1037      3999      4000      3995
 -1      2002    8    0    1
 -2       971       972      1039      3790      4001      4002
 -1      2003    8    0    1
 -2       971      1039      1038      4002      4003      3998
 -1      2004    8    0    1
 -2       972       973      1040      3793      4004      4005
 -1      2005    8    0    1
 -2       972      1040      1039      4005      4006      4001
 -1      2006    8    0    1
 -2       973       974      1041      3796      4007      4008
 -1      2007    8    0    1
 -2       973      1041      1040      4008      4009      4004
 -1      2008    8    0    1
 -2       974       975      1042      3799      4010      4011
 -1      2009    8    0    1
 -2       974      1042      1041      4011      4012      4007
 -1      2010    8    0    1
 -2       975       976      1043      3802      4013      4014
 -1      2011    8    0    1
 -2      1042       975      1043      4010      4014      4015
 -1      2012    8    0    1
 -2       976      1003      1043      3896      4016      4013
 -1      2013    8    0    1
 -2       983       993      1044      3860      4017      4018
 -1      2014    8    0    1
 -2       925       930      1045      3862      4019      4020
 -1      2015    8    0    1
 -2       930       998      1045      3878      4021      4019
 -1      2016    8    0    1
 -2       997       928       981      3873      3819      4022
 -1      2017    8    0    1
 -2       989       988      1046      3875      4023      4024
 -1      2018    8    0    1
 -2       960       959      1047      3754      4025      4026
 -1      2019    8    0    1
 -2       959      1030      1047      3975      4027      4025
 -1      2020    8    0    1
 -2       929       979      1048      3813      4028      4029
 -1      2021    8    0    1
 -2      1000       929      1048      3883      4029      4030
 -1      2022    8    0    1
 -2       979       995      1048      3868      4031      4028
 -1      2023    8    0    1
 -2      1001       958      1028      3889      3970      4032
 -1      2024    8    0    1
 -2       982       961      1049      3822      4033      4034
 -1      2025    8    0    1
 -2       984       978      1050      3831      4035      4036
 -1      2026    8    0    1
 -2       978       990      1051      3849      4037      4038
 -1      2027    8    0    1
 -2       978      1051      1050      4038      4039      4035
 -1      2028    8    0    1
 -2       934       986      1052      3837      4040      4041
 -1      2029    8    0    1
 -2       934      1052      1004      4041      4042      3898
 -1      2030    8    0    1
 -2       961       960      1053      3757      4043      4044
 -1      2031    8    0    1
 -2       960      1047      1053      4026      4045      4043
 -1      2032    8    0    1
 -2       980       983      1044      3876      4018      4046
 -1      2033    8    0    1
 -2       986       989      1054      3846      4047      4048
 -1      2034    8    0    1
 -2       989      1046      1054      4024      4049      4047
 -1      2035    8    0    1
 -2      1003       997      1055      3897      4050      4051
 -1      2036    8    0    1
 -2      1003      1055      1043      4051      4052      4016
 -1      2037    8    0    1
 -2       994       916      1002      3863      3892      4053
 -1      2038    8    0    1
 -2      1044       993      1056      4017      4054      4055
 -1      2039    8    0    1
 -2       925      1045       996      4020      4056      3870
 -1      2040    8    0    1
 -2       992       984      1057      3857      4057      4058
 -1      2041    8    0    1
 -2       984      1050      1057      4036      4059      4057
 -1      2042    8    0    1
 -2      1046       988       991      4023      3853      4060
 -1      2043    8    0    1
 -2       980      1044       991      4046      4061      3854
 -1      2044    8    0    1
 -2       961      1053      1049      4044      4062      4033
 -1      2045    8    0    1
 -2       990       996      1058      3872      4063      4064
 -1      2046    8    0    1
 -2       990      1058      1051      4064      4065      4037
 -1      2047    8    0    1
 -2       998       985      1059      3879      4066      4067
 -1      2048    8    0    1
 -2       982      1049      1060      4034      4068      4069
 -1      2049    8    0    1
 -2       982      1060      1002      4069      4070      3893
 -1      2050    8    0    1
 -2       985       994      1061      3865      4071      4072
 -1      2051    8    0    1
 -2       985      1061      1059      4072      4073      4066
 -1      2052    8    0    1
 -2       993      1000      1062      3885      4074      4075
 -1      2053    8    0    1
 -2       993      1062      1056      4075      4076      4054
 -1      2054    8    0    1
 -2       825       855       856      3410      3805      3413
 -1      2055    8    0    1
 -2      1052       986      1054      4040      4048      4077
 -1      2056    8    0    1
 -2      1001      1028      1005      4032      4078      3900
 -1      2057    8    0    1
 -2       981       999      1063      3881      4079      4080
 -1      2058    8    0    1
 -2       997       981      1063      4022      4080      4081
 -1      2059    8    0    1
 -2       999      1005      1063      3902      4082      4079
 -1      2060    8    0    1
 -2       997      1063      1055      4081      4083      4050
 -1      2061    8    0    1
 -2      1055      1063      1064      4083      4084      4085
 -1      2062    8    0    1
 -2      1006      1004      1065      3905      4086      4087
 -1      2063    8    0    1
 -2      1007      1006      1066      3908      4088      4089
 -1      2064    8    0    1
 -2      1006      1065      1066      4087      4090      4088
 -1      2065    8    0    1
 -2      1008      1007      1067      3911      4091      4092
 -1      2066    8    0    1
 -2      1007      1066      1067      4089      4093      4091
 -1      2067    8    0    1
 -2      1009      1008      1068      3914      4094      4095
 -1      2068    8    0    1
 -2      1008      1067      1068      4092      4096      4094
 -1      2069    8    0    1
 -2      1010      1009      1069      3917      4097      4098
 -1      2070    8    0    1
 -2      1009      1068      1069      4095      4099      4097
 -1      2071    8    0    1
 -2      1011      1010      1070      3920      4100      4101
 -1      2072    8    0    1
 -2      1010      1069      1070      4098      4102      4100
 -1      2073    8    0    1
 -2      1012      1011      1071      3923      4103      4104
 -1      2074    8    0    1
 -2      1011      1070      1071      4101      4105      4103
 -1      2075    8    0    1
 -2      1013      1012      1072      3926      4106      4107
 -1      2076    8    0    1
 -2      1012      1071      1072      4104      4108      4106
 -1      2077    8    0    1
 -2      1014      1013      1073      3929      4109      4110
 -1      2078    8    0    1
 -2      1013      1072      1073      4107      4111      4109
 -1      2079    8    0    1
 -2      1015      1014      1074      3932      4112      4113
 -1      2080    8    0    1
 -2      1014      1073      1074      4110      4114      4112
 -1      2081    8    0    1
 -2      1016      1015      1075      3935      4115      4116
 -1      2082    8    0    1
 -2      1015      1074      1075      4113      4117      4115
 -1      2083    8    0    1
 -2      1017      1016      1076      3938      4118      4119
 -1      2084    8    0    1
 -2      1016      1075      1076      4116      4120      4118
 -1      2085    8    0    1
 -2      1018      1017      1077      3941      4121      4122
 -1      2086    8    0    1
 -2      1017      1076      1077      4119      4123      4121
 -1      2087    8    0    1
 -2      1019      1018      1078      3944      4124      4125
 -1      2088    8    0    1
 -2      1018      1077      1078      4122      4126      4124
 -1      2089    8    0    1
 -2      1020      1019      1079      3947      4127      4128
 -1      2090    8    0    1
 -2      1019      1078      1079      4125      4129      4127
 -1      2091    8    0    1
 -2      1021      1020      1080      3950      4130      4131
 -1      2092    8    0    1
 -2      1020      1079      1080      4128      4132      4130
 -1      2093    8    0    1
 -2      1022      1021      1081      3953      4133      4134
 -1      2094    8    0    1
 -2      1021      1080      1081      4131      4135      4133
 -1      2095    8    0    1
 -2      1023      1022      1082      3956      4136      4137
 -1      2096    8    0    1
 -2      1022      1081      1082      4134      4138      4136
 -1      2097    8    0    1
 -2      1024      1023      1083      3959      4139      4140
 -1      2098    8    0    1
 -2      1023      1082      1083      4137      4141      4139
 -1      2099    8    0    1
 -2      1025      1024      1084      3962      4142      4143
 -1      2100    8    0    1
 -2      1024      1083      1084      4140      4144      4142
 -1      2101    8    0    1
 -2      1026      1025      1085      3965      4145      4146
 -1      2102    8    0    1
 -2      1025      1084      1085      4143      4147      4145
 -1      2103    8    0    1
 -2      1027      1026      1086      3968      4148      4149
 -1      2104    8    0    1
 -2      1026      1085      1086      4146      4150      4148
 -1      2105    8    0    1
 -2      1028      1027      1087      3971      4151      4152
 -1      2106    8    0    1
 -2      1027      1086      1087      4149      4153      4151
 -1      2107    8    0    1
 -2      1031      1032      1088      3982      4154      4155
 -1      2108    8    0    1
 -2      1032      1033      1089      3985      4156      4157
 -1      2109    8    0    1
 -2      1032      1089      1088      4157      4158      4154
 -1      2110    8    0    1
 -2       995       992      1048      3869      4159      4031
 -1      2111    8    0    1
 -2      1033      1034      1090      3988      4160      4161
 -1      2112    8    0    1
 -2      1033      1090      1089      4161      4162      4156
 -1      2113    8    0    1
 -2      1034      1035      1091      3991      4163      4164
 -1      2114    8    0    1
 -2      1034      1091      1090      4164      4165      4160
 -1      2115    8    0    1
 -2      1035      1036      1092      3994      4166      4167
 -1      2116    8    0    1
 -2      1035      1092      1091      4167      4168      4163
 -1      2117    8    0    1
 -2      1036      1037      1093      3997      4169      4170
 -1      2118    8    0    1
 -2      1036      1093      1092      4170      4171      4166
 -1      2119    8    0    1
 -2      1037      1038      1094      4000      4172      4173
 -1      2120    8    0    1
 -2      1037      1094      1093      4173      4174      4169
 -1      2121    8    0    1
 -2      1038      1039      1095      4003      4175      4176
 -1      2122    8    0    1
 -2      1038      1095      1094      4176      4177      4172
 -1      2123    8    0    1
 -2      1039      1040      1096      4006      4178      4179
 -1      2124    8    0    1
 -2      1039      1096      1095      4179      4180      4175
 -1      2125    8    0    1
 -2      1040      1041      1097      4009      4181      4182
 -1      2126    8    0    1
 -2      1040      1097      1096      4182      4183      4178
 -1      2127    8    0    1
 -2      1041      1042      1098      4012      4184      4185
 -1      2128    8    0    1
 -2      1041      1098      1097      4185      4186      4181
 -1      2129    8    0    1
 -2       996      1045      1099      4056      4187      4188
 -1      2130    8    0    1
 -2       996      1099      1058      4188      4189      4063
 -1      2131    8    0    1
 -2       994      1002      1100      4053      4190      4191
 -1      2132    8    0    1
 -2       994      1100      1061      4191      4192      4071
 -1      2133    8    0    1
 -2      1045       998      1101      4021      4193      4194
 -1      2134    8    0    1
 -2       998      1059      1101      4067      4195      4193
 -1      2135    8    0    1
 -2      1047      1030      1102      4027      4196      4197
 -1      2136    8    0    1
 -2      1004      1052      1103      4042      4198      4199
 -1      2137    8    0    1
 -2      1004      1103      1065      4199      4200      4086
 -1      2138    8    0    1
 -2      1046       991      1044      4060      4061      4201
 -1      2139    8    0    1
 -2      1052      1054      1104      4077      4202      4203
 -1      2140    8    0    1
 -2      1052      1104      1103      4203      4204      4198
 -1      2141    8    0    1
 -2      1049      1053      1105      4062      4205      4206
 -1      2142    8    0    1
 -2      1030      1029      1106      3976      4207      4208
 -1      2143    8    0    1
 -2      1030      1106      1102      4208      4209      4196
 -1      2144    8    0    1
 -2      1050      1051      1107      4039      4210      4211
 -1      2145    8    0    1
 -2      1063      1005      1064      4082      4212      4084
 -1      2146    8    0    1
 -2      1053      1047      1108      4045      4213      4214
 -1      2147    8    0    1
 -2      1047      1102      1108      4197      4215      4213
 -1      2148    8    0    1
 -2      1044      1056      1046      4055      4216      4201
 -1      2149    8    0    1
 -2      1054      1046      1109      4049      4217      4218
 -1      2150    8    0    1
 -2      1104      1054      1109      4202      4218      4219
 -1      2151    8    0    1
 -2      1046      1056      1109      4216      4220      4217
 -1      2152    8    0    1
 -2      1029      1031      1110      3979      4221      4222
 -1      2153    8    0    1
 -2      1031      1088      1110      4155      4223      4221
 -1      2154    8    0    1
 -2      1005      1028      1087      4078      4152      4224
 -1      2155    8    0    1
 -2      1005      1087      1064      4224      4225      4212
 -1      2156    8    0    1
 -2      1048       992      1057      4159      4058      4226
 -1      2157    8    0    1
 -2      1000      1048      1057      4030      4226      4227
 -1      2158    8    0    1
 -2      1049      1105      1111      4206      4228      4229
 -1      2159    8    0    1
 -2      1049      1111      1060      4229      4230      4068
 -1      2160    8    0    1
 -2      1098      1042      1064      4184      4231      4232
 -1      2161    8    0    1
 -2      1099      1045      1101      4187      4194      4233
 -1      2162    8    0    1
 -2      1042      1043      1055      4015      4052      4234
 -1      2163    8    0    1
 -2      1100      1002      1060      4190      4070      4235
 -1      2164    8    0    1
 -2      1101      1059      1112      4195      4236      4237
 -1      2165    8    0    1
 -2      1050      1107      1113      4211      4238      4239
 -1      2166    8    0    1
 -2      1057      1050      1113      4059      4239      4240
 -1      2167    8    0    1
 -2      1056      1062      1109      4076      4241      4220
 -1      2168    8    0    1
 -2      1029      1110      1106      4222      4242      4207
 -1      2169    8    0    1
 -2      1042      1055      1064      4234      4085      4231
 -1      2170    8    0    1
 -2      1112      1059      1114      4236      4243      4244
 -1      2171    8    0    1
 -2      1059      1061      1114      4073      4245      4243
 -1      2172    8    0    1
 -2      1051      1058      1115      4065      4246      4247
 -1      2173    8    0    1
 -2      1051      1115      1107      4247      4248      4210
 -1      2174    8    0    1
 -2      1105      1053      1108      4205      4214      4249
 -1      2175    8    0    1
 -2      1064      1087      1098      4225      4250      4232
 -1      2176    8    0    1
 -2      1067      1066      1116      4093      4251      4252
 -1      2177    8    0    1
 -2      1068      1067      1114      4096      4253      4254
 -1      2178    8    0    1
 -2      1070      1069      1117      4102      4255      4256
 -1      2179    8    0    1
 -2      1071      1070      1111      4105      4257      4258
 -1      2180    8    0    1
 -2      1072      1071      1105      4108      4259      4260
 -1      2181    8    0    1
 -2      1073      1072      1108      4111      4261      4262
 -1      2182    8    0    1
 -2      1074      1073      1102      4114      4263      4264
 -1      2183    8    0    1
 -2      1075      1074      1106      4117      4265      4266
 -1      2184    8    0    1
 -2      1076      1075      1110      4120      4267      4268
 -1      2185    8    0    1
 -2      1077      1076      1088      4123      4269      4270
 -1      2186    8    0    1
 -2      1078      1077      1089      4126      4271      4272
 -1      2187    8    0    1
 -2      1079      1078      1090      4129      4273      4274
 -1      2188    8    0    1
 -2      1080      1079      1091      4132      4275      4276
 -1      2189    8    0    1
 -2      1081      1080      1092      4135      4277      4278
 -1      2190    8    0    1
 -2      1082      1081      1093      4138      4279      4280
 -1      2191    8    0    1
 -2      1083      1082      1094      4141      4281      4282
 -1      2192    8    0    1
 -2      1084      1083      1095      4144      4283      4284
 -1      2193    8    0    1
 -2      1085      1084      1096      4147      4285      4286
 -1      2194    8    0    1
 -2      1086      1085      1097      4150      4287      4288
 -1      2195    8    0    1
 -2      1087      1086      1098      4153      4289      4250
 -1      2196    8    0    1
 -2      1088      1076      1110      4269      4268      4223
 -1      2197    8    0    1
 -2      1088      1089      1077      4158      4271      4270
 -1      2198    8    0    1
 -2      1096      1084      1095      4285      4284      4180
 -1      2199    8    0    1
 -2      1091      1092      1080      4168      4277      4276
 -1      2200    8    0    1
 -2      1092      1093      1081      4171      4279      4278
 -1      2201    8    0    1
 -2      1093      1094      1082      4174      4281      4280
 -1      2202    8    0    1
 -2      1094      1095      1083      4177      4283      4282
 -1      2203    8    0    1
 -2      1096      1097      1085      4183      4287      4286
 -1      2204    8    0    1
 -2      1097      1098      1086      4186      4289      4288
 -1      2205    8    0    1
 -2      1058      1099      1118      4189      4290      4291
 -1      2206    8    0    1
 -2      1058      1118      1115      4291      4292      4246
 -1      2207    8    0    1
 -2      1099      1101      1119      4233      4293      4294
 -1      2208    8    0    1
 -2      1101      1112      1119      4237      4295      4293
 -1      2209    8    0    1
 -2      1110      1075      1106      4267      4266      4242
 -1      2210    8    0    1
 -2      1106      1074      1102      4265      4264      4209
 -1      2211    8    0    1
 -2      1065      1103      1118      4200      4296      4297
 -1      2212    8    0    1
 -2      1061      1100      1120      4192      4298      4299
 -1      2213    8    0    1
 -2      1061      1120      1114      4299      4300      4245
 -1      2214    8    0    1
 -2      1000      1057      1113      4227      4240      4301
 -1      2215    8    0    1
 -2      1089      1090      1078      4162      4273      4272
 -1      2216    8    0    1
 -2      1102      1073      1108      4263      4262      4215
 -1      2217    8    0    1
 -2      1108      1072      1105      4261      4260      4249
 -1      2218    8    0    1
 -2      1105      1071      1111      4259      4258      4228
 -1      2219    8    0    1
 -2      1062      1000      1113      4074      4301      4302
 -1      2220    8    0    1
 -2      1090      1091      1079      4165      4275      4274
 -1      2221    8    0    1
 -2      1100      1060      1121      4235      4303      4304
 -1      2222    8    0    1
 -2      1120      1100      1121      4298      4304      4305
 -1      2223    8    0    1
 -2      1060      1111      1121      4230      4306      4303
 -1      2224    8    0    1
 -2      1066      1065      1119      4090      4307      4308
 -1      2225    8    0    1
 -2      1103      1104      1115      4204      4309      4310
 -1      2226    8    0    1
 -2      1062      1113      1122      4302      4311      4312
 -1      2227    8    0    1
 -2      1113      1107      1122      4238      4313      4311
 -1      2228    8    0    1
 -2      1068      1114      1120      4254      4300      4314
 -1      2229    8    0    1
 -2      1069      1068      1120      4099      4314      4315
 -1      2230    8    0    1
 -2      1118      1103      1115      4296      4310      4292
 -1      2231    8    0    1
 -2      1118      1099      1119      4290      4294      4316
 -1      2232    8    0    1
 -2      1109      1062      1122      4241      4312      4317
 -1      2233    8    0    1
 -2      1119      1065      1118      4307      4297      4316
 -1      2234    8    0    1
 -2      1107      1115      1104      4248      4309      4318
 -1      2235    8    0    1
 -2      1104      1109      1122      4219      4317      4319
 -1      2236    8    0    1
 -2      1116      1066      1119      4251      4308      4320
 -1      2237    8    0    1
 -2      1070      1117      1111      4256      4321      4257
 -1      2238    8    0    1
 -2      1107      1104      1122      4318      4319      4313
 -1      2239    8    0    1
 -2      1119      1112      1116      4295      4322      4320
 -1      2240    8    0    1
 -2      1069      1120      1117      4315      4323      4255
 -1      2241    8    0    1
 -2      1067      1116      1114      4252      4324      4253
 -1      2242    8    0    1
 -2      1112      1114      1116      4244      4324      4322
 -1      2243    8    0    1
 -2      1117      1120      1121      4323      4305      4325
 -1      2244    8    0    1
 -2      1111      1117      1121      4321      4325      4306
 -3
    1PSTEP                         1           1           1          
  100CL  101 1.000000000        4325                     0    1           1
 -4  DISP        4    1
 -5  D1          1    2    1    0
 -5  D2          1    2    2    0
 -5  D3          1    2    3    0
 -5  ALL         1    2    0    0    1ALL
 -1         1 1.33052E-02-1.18241E-03-1.22544E-13
 -1         2 1.44772E-02-3.77061E-04-1.28721E-13
 -1         3 1.43143E-02-1.43802E-04-1.65682E-13
 -1         4 1.50002E-02-7.03313E-04-1.66216E-13
 -1         5 0.00000E+00 0.00000E+00 0.00000E+00
 -1         6 0.00000E+00 0.00000E+00 0.00000E+00
 -1         7 0.00000E+00 0.00000E+00 0.00000E+00
 -1         8 0.00000E+00 0.00000E+00 0.00000E+00
 -1         9 0.00000E+00 0.00000E+00 0.00000E+00
 -1        10 0.00000E+00 0.00000E+00 0.00000E+00
 -1        11 0.00000E+00 0.00000E+00 0.00000E+00
 -1        12 0.00000E+00 0.00000E+00 0.00000E+00
 -1        13 0.00000E+00 0.00000E+00 0.00000E+00
 -1        14 0.00000E+00 0.00000E+00 0.00000E+00
 -1        15 0.00000E+00 0.00000E+00 0.00000E+00
 -1        16 0.00000E+00 0.00000E+00 0.00000E+00
 -1        17 0.00000E+00 0.00000E+00 0.00000E+00
 -1        18 0.00000E+00 0.00000E+00 0.00000E+00
 -1        19 0.00000E+00 0.00000E+00 0.00000E+00
 -1        20 0.00000E+00 0.00000E+00 0.00000E+00
 -1        21 0.00000E+00 0.00000E+00 0.00000E+00
 -1        22 0.00000E+00 0.00000E+00 0.00000E+00
 -1        23 4.11413E-04-2.60747E-04 6.06476E-17
 -1        24 7.03428E-04-4.01006E-04-5.94448E-17
 -1        25 9.73527E-04-4.98400E-04-3.57414E-16
 -1        26 1.23805E-03-5.67166E-04-8.31136E-16
 -1        27 1.50162E-03-6.16451E-04-1.47955E-15
 -1        28 1.76632E-03-6.51641E-04-2.30047E-15
 -1        29 2.03311E-03-6.76447E-04-3.29302E-15
 -1        30 2.30235E-03-6.93567E-04-4.45590E-15
 -1        31 2.57409E-03-7.05020E-04-5.78664E-15
 -1        32 2.84819E-03-7.12333E-04-7.28028E-15
 -1        33 3.12442E-03-7.16659E-04-8.93228E-15
 -1        34 3.40249E-03-7.18857E-04-1.07330E-14
 -1        35 3.68212E-03-7.19555E-04-1.26825E-14
 -1        36 3.96303E-03-7.19199E-04-1.47752E-14
 -1        37 4.24499E-03-7.18092E-04-1.70133E-14
 -1        38 4.52778E-03-7.16422E-04-1.93987E-14
 -1        39 4.81127E-03-7.14292E-04-2.19277E-14
 -1        40 5.09533E-03-7.11734E-04-2.45948E-14
 -1        41 5.37993E-03-7.08730E-04-2.73969E-14
 -1        42 5.66507E-03-7.05227E-04-3.03311E-14
 -1        43 5.95085E-03-7.01148E-04-3.33975E-14
 -1        44 6.23744E-03-6.96411E-04-3.65978E-14
 -1        45 6.52512E-03-6.90945E-04-3.99283E-14
 -1        46 6.81432E-03-6.84722E-04-4.33910E-14
 -1        47 7.10559E-03-6.77785E-04-4.69772E-14
 -1        48 7.39970E-03-6.70309E-04-5.06869E-14
 -1        49 7.69767E-03-6.62667E-04-5.45098E-14
 -1        50 8.00078E-03-6.55544E-04-5.84436E-14
 -1        51 8.31063E-03-6.50088E-04-6.24857E-14
 -1        52 8.62916E-03-6.48116E-04-6.66365E-14
 -1        53 8.95853E-03-6.52392E-04-7.08841E-14
 -1        54 9.30092E-03-6.66942E-04-7.52302E-14
 -1        55 9.65800E-03-6.97323E-04-7.96688E-14
 -1        56 1.00299E-02-7.50601E-04-8.41888E-14
 -1        57 1.04138E-02-8.34535E-04-8.88039E-14
 -1        58 1.08016E-02-9.55155E-04-9.35078E-14
 -1        59 1.11793E-02-1.11204E-03-9.82892E-14
 -1        60 1.15286E-02-1.29198E-03-1.03152E-13
 -1        61 1.18346E-02-1.46515E-03-1.08088E-13
 -1        62 1.20962E-02-1.59087E-03-1.13100E-13
 -1        63 1.23325E-02-1.63557E-03-1.18179E-13
 -1        64 1.25740E-02-1.59250E-03-1.23328E-13
 -1        65 1.28448E-02-1.48498E-03-1.28542E-13
 -1        66 1.31502E-02-1.35023E-03-1.33839E-13
 -1        67 1.34784E-02-1.21878E-03-1.39204E-13
 -1        68 1.38113E-02-1.10437E-03-1.44603E-13
 -1        69 1.41340E-02-1.00533E-03-1.50026E-13
 -1        70 1.44393E-02-9.11134E-04-1.55486E-13
 -1        71 1.47297E-02-8.10040E-04-1.60981E-13
 -1        72 4.13856E-04 2.61452E-04 6.56112E-17
 -1        73 7.03248E-04 4.03710E-04-5.16216E-17
 -1        74 9.74062E-04 5.00170E-04-3.44797E-16
 -1        75 1.23888E-03 5.68876E-04-8.14466E-16
 -1        76 1.50257E-03 6.18211E-04-1.46124E-15
 -1        77 1.76734E-03 6.53492E-04-2.28176E-15
 -1        78 2.03417E-03 6.78408E-04-3.27182E-15
 -1        79 2.30344E-03 6.95648E-04-4.42970E-15
 -1        80 2.57519E-03 7.07228E-04-5.75238E-15
 -1        81 2.84930E-03 7.14672E-04-7.24063E-15
 -1        82 3.12554E-03 7.19131E-04-8.89148E-15
 -1        83 3.40361E-03 7.21462E-04-1.06979E-14
 -1        84 3.68325E-03 7.22293E-04-1.26581E-14
 -1        85 3.96417E-03 7.22072E-04-1.47696E-14
 -1        86 4.24614E-03 7.21101E-04-1.70326E-14
 -1        87 4.52895E-03 7.19571E-04-1.94430E-14
 -1        88 4.81246E-03 7.17589E-04-2.19879E-14
 -1        89 5.09656E-03 7.15192E-04-2.46662E-14
 -1        90 5.38120E-03 7.12374E-04-2.74826E-14
 -1        91 5.66640E-03 7.09094E-04-3.04336E-14
 -1        92 5.95225E-03 7.05300E-04-3.35143E-14
 -1        93 6.23892E-03 7.00945E-04-3.67135E-14
 -1        94 6.52667E-03 6.96010E-04-4.00433E-14
 -1        95 6.81585E-03 6.90537E-04-4.35009E-14
 -1        96 7.10695E-03 6.84665E-04-4.70777E-14
 -1        97 7.40057E-03 6.78680E-04-5.07740E-14
 -1        98 7.69741E-03 6.73081E-04-5.45848E-14
 -1        99 7.99827E-03 6.68652E-04-5.84937E-14
 -1       100 8.30397E-03 6.66537E-04-6.25022E-14
 -1       101 8.61522E-03 6.68317E-04-6.66124E-14
 -1       102 8.93245E-03 6.76025E-04-7.08195E-14
 -1       103 9.25552E-03 6.92086E-04-7.51292E-14
 -1       104 9.58331E-03 7.19058E-04-7.95321E-14
 -1       105 9.91332E-03 7.59089E-04-8.40374E-14
 -1       106 1.02414E-02 8.12991E-04-8.86695E-14
 -1       107 1.05616E-02 8.78970E-04-9.34226E-14
 -1       108 1.08675E-02 9.51316E-04-9.82815E-14
 -1       109 1.11535E-02 1.01980E-03-1.03230E-13
 -1       110 1.14175E-02 1.07070E-03-1.08253E-13
 -1       111 1.16625E-02 1.09002E-03-1.13337E-13
 -1       112 1.18971E-02 1.06794E-03-1.18499E-13
 -1       113 1.21319E-02 1.00240E-03-1.23702E-13
 -1       114 1.23765E-02 8.99416E-04-1.28926E-13
 -1       115 1.26351E-02 7.70070E-04-1.34171E-13
 -1       116 1.29072E-02 6.25880E-04-1.39425E-13
 -1       117 1.31882E-02 4.75210E-04-1.44687E-13
 -1       118 1.34731E-02 3.21957E-04-1.49981E-13
 -1       119 1.37584E-02 1.66524E-04-1.55296E-13
 -1       120 1.40433E-02 8.23708E-06-1.60622E-13
 -1       121 1.44718E-02-2.28520E-04-1.65738E-13
 -1       122 1.46317E-02-3.13740E-04-1.65800E-13
 -1       123 1.47972E-02-3.97078E-04-1.65847E-13
 -1       124 1.49697E-02-4.73662E-04-1.65893E-13
 -1       125 1.51477E-02-5.36579E-04-1.65948E-13
 -1       126 1.53214E-02-5.77651E-04-1.66032E-13
 -1       127 1.54846E-02-5.92368E-04-1.66137E-13
 -1       128 1.56180E-02-5.78510E-04-1.66235E-13
 -1       129 1.57047E-02-5.41807E-04-1.66319E-13
 -1       130 1.57333E-02-4.94825E-04-1.66378E-13
 -1       131 1.57020E-02-4.53619E-04-1.66406E-13
 -1       132 1.56216E-02-4.32734E-04-1.66452E-13
 -1       133 1.55051E-02-4.39905E-04-1.66472E-13
 -1       134 1.53717E-02-4.77192E-04-1.66442E-13
 -1       135 1.52373E-02-5.40389E-04-1.66376E-13
 -1       136 1.51122E-02-6.19551E-04-1.66295E-13
 -1       137 1.44061E-02-1.70500E-04-1.28455E-13
 -1       138 1.42380E-02 1.53781E-05-1.27687E-13
 -1       139 1.39377E-02 2.07467E-04-1.26238E-13
 -1       140 1.35965E-02 3.53143E-04-1.24554E-13
 -1       141 1.31680E-02 4.78945E-04-1.22391E-13
 -1       142 1.27090E-02 5.63473E-04-1.20051E-13
 -1       143 1.22186E-02 6.08766E-04-1.17528E-13
 -1       144 1.16702E-02 6.07238E-04-1.14668E-13
 -1       145 1.12036E-02 5.60565E-04-1.12233E-13
 -1       146 1.07594E-02 4.67866E-04-1.09883E-13
 -1       147 1.03892E-02 3.39170E-04-1.07921E-13
 -1       148 1.01235E-02 1.92089E-04-1.06510E-13
 -1       149 9.93602E-03 1.17762E-05-1.05498E-13
 -1       150 9.86088E-03-1.76248E-04-1.05071E-13
 -1       151 9.88620E-03-3.53608E-04-1.05175E-13
 -1       152 1.00195E-02-5.52524E-04-1.05839E-13
 -1       153 1.02284E-02-7.26798E-04-1.06905E-13
 -1       154 1.05255E-02-8.94574E-04-1.08424E-13
 -1       155 1.09138E-02-1.04879E-03-1.10400E-13
 -1       156 1.13385E-02-1.16429E-03-1.12557E-13
 -1       157 1.18542E-02-1.24935E-03-1.15188E-13
 -1       158 1.23650E-02-1.27709E-03-1.17762E-13
 -1       159 1.28574E-02-1.25290E-03-1.20252E-13
 -1       160 1.37065E-02-1.07155E-03-1.24606E-13
 -1       161 1.40353E-02-9.29266E-04-1.26313E-13
 -1       162 1.42809E-02-7.61602E-04-1.27605E-13
 -1       163 1.44370E-02-5.66789E-04-1.28444E-13
 -1       164 2.40419E-04-1.25516E-04-2.73998E-17
 -1       165 2.25276E-04-9.46141E-05-5.46743E-17
 -1       166 2.19528E-04-7.27792E-05-7.01343E-17
 -1       167 2.16711E-04-5.51020E-05-7.88588E-17
 -1       168 2.15213E-04-3.99637E-05-8.37343E-17
 -1       169 2.14375E-04-2.59132E-05-8.62686E-17
 -1       170 2.13955E-04-1.26432E-05-8.73155E-17
 -1       171 2.13833E-04 2.72729E-07-8.76273E-17
 -1       172 2.13975E-04 1.32011E-05-8.68277E-17
 -1       173 2.14417E-04 2.65111E-05-8.51505E-17
 -1       174 2.15263E-04 4.03903E-05-8.22333E-17
 -1       175 2.16815E-04 5.59102E-05-7.69275E-17
 -1       176 2.19675E-04 7.38131E-05-6.80405E-17
 -1       177 2.25453E-04 9.60160E-05-5.23432E-17
 -1       178 2.39350E-04 1.27597E-04-2.43539E-17
 -1       179 2.97730E-04 1.85506E-04 5.07542E-18
 -1       180 4.68661E-04-2.63561E-04-7.63719E-17
 -1       181 7.66827E-04-3.82168E-04-3.24434E-16
 -1       182 1.05070E-03-4.65065E-04-7.39321E-16
 -1       183 1.32811E-03-5.23862E-04-1.32348E-15
 -1       184 1.60274E-03-5.65581E-04-2.07691E-15
 -1       185 1.87665E-03-5.94911E-04-2.99946E-15
 -1       186 2.15097E-03-6.15155E-04-4.08963E-15
 -1       187 2.42631E-03-6.28740E-04-5.34609E-15
 -1       188 2.70291E-03-6.37476E-04-6.76456E-15
 -1       189 2.98084E-03-6.42724E-04-8.34200E-15
 -1       190 3.26006E-03-6.45495E-04-1.00712E-14
 -1       191 3.54043E-03-6.46534E-04-1.19485E-14
 -1       192 3.82183E-03-6.46371E-04-1.39732E-14
 -1       193 4.10410E-03-6.45371E-04-1.61401E-14
 -1       194 4.38712E-03-6.43768E-04-1.84525E-14
 -1       195 4.67077E-03-6.41697E-04-2.09072E-14
 -1       196 4.95498E-03-6.39211E-04-2.35027E-14
 -1       197 5.23970E-03-6.36303E-04-2.62340E-14
 -1       198 5.52495E-03-6.32920E-04-2.90992E-14
 -1       199 5.81078E-03-6.28978E-04-3.20963E-14
 -1       200 6.09732E-03-6.24376E-04-3.52261E-14
 -1       201 6.38476E-03-6.19011E-04-3.84888E-14
 -1       202 6.67341E-03-6.12800E-04-4.18816E-14
 -1       203 6.96364E-03-6.05710E-04-4.54014E-14
 -1       204 7.25600E-03-5.97797E-04-4.90422E-14
 -1       205 7.55115E-03-5.89274E-04-5.28021E-14
 -1       206 7.84996E-03-5.80595E-04-5.66743E-14
 -1       207 8.15344E-03-5.72584E-04-6.06551E-14
 -1       208 8.46283E-03-5.66628E-04-6.47443E-14
 -1       209 8.77948E-03-5.64928E-04-6.89371E-14
 -1       210 9.10481E-03-5.70829E-04-7.32279E-14
 -1       211 9.44002E-03-5.89184E-04-7.76129E-14
 -1       212 9.78575E-03-6.26609E-04-8.20861E-14
 -1       213 1.01414E-02-6.91270E-04-8.66493E-14
 -1       214 1.05045E-02-7.91491E-04-9.12997E-14
 -1       215 1.08693E-02-9.32190E-04-9.60340E-14
 -1       216 1.12272E-02-1.10858E-03-1.00848E-13
 -1       217 1.15683E-02-1.29906E-03-1.05741E-13
 -1       218 1.18863E-02-1.46388E-03-1.10707E-13
 -1       219 1.21845E-02-1.55801E-03-1.15747E-13
 -1       220 1.24761E-02-1.55620E-03-1.20858E-13
 -1       221 1.27761E-02-1.46963E-03-1.26036E-13
 -1       222 1.30915E-02-1.33632E-03-1.31286E-13
 -1       223 1.34185E-02-1.19615E-03-1.36611E-13
 -1       224 1.37480E-02-1.07257E-03-1.41983E-13
 -1       225 1.40714E-02-9.69857E-04-1.47389E-13
 -1       226 1.43832E-02-8.79238E-04-1.52832E-13
 -1       227 1.46824E-02-7.86686E-04-1.58308E-13
 -1       228 6.04610E-04 3.31051E-04-1.35691E-16
 -1       229 8.93728E-04 4.32680E-04-4.41894E-16
 -1       230 1.17264E-03 5.04445E-04-9.18357E-16
 -1       231 1.44701E-03 5.55556E-04-1.56578E-15
 -1       232 1.71985E-03 5.91836E-04-2.38388E-15
 -1       233 1.99277E-03 6.17264E-04-3.36999E-15
 -1       234 2.26662E-03 6.34716E-04-4.52254E-15
 -1       235 2.54179E-03 6.46323E-04-5.83954E-15
 -1       236 2.81842E-03 6.53687E-04-7.31845E-15
 -1       237 3.09649E-03 6.58010E-04-8.95711E-15
 -1       238 3.37589E-03 6.60183E-04-1.07524E-14
 -1       239 3.65648E-03 6.60857E-04-1.27001E-14
 -1       240 3.93808E-03 6.60488E-04-1.47974E-14
 -1       241 4.22055E-03 6.59388E-04-1.70430E-14
 -1       242 4.50375E-03 6.57749E-04-1.94338E-14
 -1       243 4.78757E-03 6.55675E-04-2.19645E-14
 -1       244 5.07194E-03 6.53199E-04-2.46299E-14
 -1       245 5.35684E-03 6.50306E-04-2.74288E-14
 -1       246 5.64229E-03 6.46946E-04-3.03622E-14
 -1       247 5.92837E-03 6.43052E-04-3.34260E-14
 -1       248 6.21522E-03 6.38559E-04-3.66139E-14
 -1       249 6.50307E-03 6.33426E-04-3.99286E-14
 -1       250 6.79220E-03 6.27665E-04-4.33674E-14
 -1       251 7.08300E-03 6.21382E-04-4.69277E-14
 -1       252 7.37593E-03 6.14827E-04-5.06080E-14
 -1       253 7.67153E-03 6.08454E-04-5.44011E-14
 -1       254 7.97039E-03 6.03005E-04-5.82979E-14
 -1       255 8.27311E-03 5.99594E-04-6.22939E-14
 -1       256 8.58019E-03 5.99787E-04-6.63940E-14
 -1       257 8.89193E-03 6.05651E-04-7.05931E-14
 -1       258 9.20821E-03 6.19716E-04-7.48904E-14
 -1       259 9.52826E-03 6.44756E-04-7.92857E-14
 -1       260 9.85041E-03 6.83278E-04-8.37860E-14
 -1       261 1.01719E-02 7.36603E-04-8.84022E-14
 -1       262 1.04890E-02 8.03519E-04-9.31308E-14
 -1       263 1.07974E-02 8.78787E-04-9.79614E-14
 -1       264 1.10934E-02 9.52231E-04-1.02879E-13
 -1       265 1.13751E-02 1.00951E-03-1.07878E-13
 -1       266 1.16441E-02 1.03534E-03-1.12948E-13
 -1       267 1.19053E-02 1.01843E-03-1.18089E-13
 -1       268 1.21655E-02 9.55763E-04-1.23278E-13
 -1       269 1.24306E-02 8.53398E-04-1.28497E-13
 -1       270 1.27038E-02 7.23242E-04-1.33733E-13
 -1       271 1.29847E-02 5.77891E-04-1.38982E-13
 -1       272 1.32708E-02 4.26510E-04-1.44241E-13
 -1       273 1.35590E-02 2.73279E-04-1.49531E-13
 -1       274 1.38467E-02 1.18352E-04-1.54844E-13
 -1       275 1.41332E-02-3.94997E-05-1.60169E-13
 -1       276 1.43037E-02-1.31247E-04-1.61148E-13
 -1       277 1.44664E-02-2.13837E-04-1.61204E-13
 -1       278 1.46369E-02-2.92725E-04-1.61257E-13
 -1       279 1.48156E-02-3.64239E-04-1.61314E-13
 -1       280 1.49958E-02-4.22891E-04-1.61374E-13
 -1       281 1.51739E-02-4.66403E-04-1.61446E-13
 -1       282 1.53310E-02-4.91239E-04-1.61523E-13
 -1       283 1.54484E-02-4.98816E-04-1.61591E-13
 -1       284 1.55095E-02-4.95198E-04-1.61643E-13
 -1       285 1.55063E-02-4.89994E-04-1.61678E-13
 -1       286 1.54446E-02-4.93261E-04-1.61700E-13
 -1       287 1.53368E-02-5.12569E-04-1.61698E-13
 -1       288 1.52027E-02-5.51133E-04-1.61676E-13
 -1       289 1.50613E-02-6.07913E-04-1.61630E-13
 -1       290 1.48685E-02-6.93716E-04-1.59972E-13
 -1       291 1.44819E-02-3.32945E-04-1.31014E-13
 -1       292 1.43110E-02-2.03786E-04-1.30095E-13
 -1       293 1.39913E-02-6.86479E-05-1.29284E-13
 -1       294 1.36180E-02 1.51221E-04-1.26927E-13
 -1       295 1.31831E-02 3.40828E-04-1.24904E-13
 -1       296 1.27858E-02 5.31055E-04-1.22005E-13
 -1       297 1.23764E-02 6.55199E-04-1.19165E-13
 -1       298 1.19602E-02 6.99424E-04-1.15948E-13
 -1       299 1.15401E-02 6.26752E-04-1.12868E-13
 -1       300 1.11411E-02 4.87313E-04-1.09935E-13
 -1       301 1.07176E-02 3.05411E-04-1.07472E-13
 -1       302 1.03484E-02 1.30631E-04-1.05499E-13
 -1       303 1.00521E-02-2.24529E-05-1.03958E-13
 -1       304 9.86591E-03-1.43002E-04-1.02987E-13
 -1       305 9.83556E-03-2.39158E-04-1.03203E-13
 -1       306 9.94393E-03-3.43036E-04-1.03388E-13
 -1       307 1.01794E-02-4.95750E-04-1.04648E-13
 -1       308 1.04972E-02-6.69355E-04-1.06141E-13
 -1       309 1.08850E-02-8.77978E-04-1.08170E-13
 -1       310 1.13017E-02-1.08377E-03-1.10513E-13
 -1       311 1.17310E-02-1.26381E-03-1.13231E-13
 -1       312 1.21315E-02-1.34785E-03-1.16421E-13
 -1       313 1.25345E-02-1.33220E-03-1.19402E-13
 -1       314 1.29249E-02-1.22609E-03-1.22338E-13
 -1       315 1.33360E-02-1.05824E-03-1.24882E-13
 -1       316 1.37388E-02-8.76641E-04-1.27025E-13
 -1       317 1.40882E-02-7.04145E-04-1.28796E-13
 -1       318 1.43576E-02-5.47086E-04-1.30344E-13
 -1       319 1.44959E-02-4.37364E-04-1.30723E-13
 -1       320 4.55305E-04-1.64742E-04-2.40025E-16
 -1       321 4.74283E-04-2.12982E-04-1.94194E-16
 -1       322 4.40437E-04-9.40116E-05-2.86270E-16
 -1       323 4.37466E-04-6.49092E-05-2.96865E-16
 -1       324 4.35841E-04-3.79048E-05-3.02652E-16
 -1       325 4.35130E-04-1.20172E-05-3.04895E-16
 -1       326 4.35161E-04 1.35357E-05-3.04363E-16
 -1       327 4.35940E-04 3.94809E-05-3.00873E-16
 -1       328 4.37610E-04 6.61371E-05-2.93914E-16
 -1       329 4.40672E-04 9.54121E-05-2.82472E-16
 -1       330 4.46068E-04 1.28325E-04-2.64068E-16
 -1       331 4.55911E-04 1.67306E-04-2.34682E-16
 -1       332 4.75915E-04 2.17050E-04-1.87997E-16
 -1       333 5.32050E-04 2.69981E-04-1.71016E-16
 -1       334 8.24549E-04 3.73526E-04-4.82612E-16
 -1       335 8.63324E-04-3.57426E-04-6.24216E-16
 -1       336 1.14969E-03-4.26198E-04-1.14964E-15
 -1       337 1.43249E-03-4.75390E-04-1.83988E-15
 -1       338 1.71322E-03-5.10155E-04-2.69572E-15
 -1       339 1.99302E-03-5.34289E-04-3.71638E-15
 -1       340 2.27262E-03-5.50616E-04-4.90144E-15
 -1       341 2.55252E-03-5.61251E-04-6.24718E-15
 -1       342 2.83295E-03-5.67785E-04-7.75175E-15
 -1       343 3.11405E-03-5.71404E-04-9.40909E-15
 -1       344 3.39583E-03-5.72985E-04-1.12153E-14
 -1       345 3.67826E-03-5.73160E-04-1.31695E-14
 -1       346 3.96130E-03-5.72369E-04-1.52684E-14
 -1       347 4.24488E-03-5.70905E-04-1.75102E-14
 -1       348 4.52893E-03-5.68943E-04-1.98930E-14
 -1       349 4.81342E-03-5.66566E-04-2.24168E-14
 -1       350 5.09832E-03-5.63788E-04-2.50779E-14
 -1       351 5.38363E-03-5.60568E-04-2.78736E-14
 -1       352 5.66939E-03-5.56828E-04-3.08010E-14
 -1       353 5.95566E-03-5.52459E-04-3.38620E-14
 -1       354 6.24257E-03-5.47345E-04-3.70560E-14
 -1       355 6.53029E-03-5.41373E-04-4.03812E-14
 -1       356 6.81906E-03-5.34461E-04-4.38352E-14
 -1       357 7.10919E-03-5.26590E-04-4.74109E-14
 -1       358 7.40107E-03-5.17857E-04-5.11043E-14
 -1       359 7.69519E-03-5.08541E-04-5.49142E-14
 -1       360 7.99212E-03-4.99213E-04-5.88346E-14
 -1       361 8.29257E-03-4.90887E-04-6.28653E-14
 -1       362 8.59735E-03-4.85224E-04-6.70001E-14
 -1       363 8.90740E-03-4.84822E-04-7.12337E-14
 -1       364 9.22378E-03-4.93557E-04-7.55653E-14
 -1       365 9.54773E-03-5.16947E-04-7.99881E-14
 -1       366 9.88063E-03-5.62352E-04-8.45001E-14
 -1       367 1.02238E-02-6.38612E-04-8.91004E-14
 -1       368 1.05777E-02-7.54328E-04-9.37869E-14
 -1       369 1.09402E-02-9.13488E-04-9.85552E-14
 -1       370 1.13049E-02-1.10736E-03-1.03406E-13
 -1       371 1.16607E-02-1.30515E-03-1.08328E-13
 -1       372 1.19997E-02-1.45425E-03-1.13321E-13
 -1       373 1.23268E-02-1.50466E-03-1.18392E-13
 -1       374 1.26564E-02-1.44650E-03-1.23537E-13
 -1       375 1.29978E-02-1.31714E-03-1.28748E-13
 -1       376 1.33464E-02-1.16866E-03-1.34031E-13
 -1       377 1.36915E-02-1.03588E-03-1.39370E-13
 -1       378 1.40248E-02-9.29125E-04-1.44752E-13
 -1       379 1.43434E-02-8.41815E-04-1.50171E-13
 -1       380 1.46108E-02-7.71728E-04-1.55059E-13
 -1       381 1.11005E-03 4.47862E-04-9.59255E-16
 -1       382 1.39082E-03 5.00946E-04-1.60311E-15
 -1       383 1.66915E-03 5.38586E-04-2.41444E-15
 -1       384 1.94657E-03 5.64904E-04-3.39206E-15
 -1       385 2.22401E-03 5.82909E-04-4.53450E-15
 -1       386 2.50200E-03 5.94838E-04-5.84049E-15
 -1       387 2.78083E-03 6.02369E-04-7.30644E-15
 -1       388 3.06058E-03 6.06759E-04-8.93099E-15
 -1       389 3.34127E-03 6.08936E-04-1.07107E-14
 -1       390 3.62282E-03 6.09579E-04-1.26426E-14
 -1       391 3.90515E-03 6.09164E-04-1.47228E-14
 -1       392 4.18817E-03 6.08014E-04-1.69504E-14
 -1       393 4.47178E-03 6.06329E-04-1.93233E-14
 -1       394 4.75591E-03 6.04216E-04-2.18358E-14
 -1       395 5.04053E-03 6.01710E-04-2.44843E-14
 -1       396 5.32561E-03 5.98793E-04-2.72652E-14
 -1       397 5.61118E-03 5.95409E-04-3.01796E-14
 -1       398 5.89730E-03 5.91484E-04-3.32266E-14
 -1       399 6.18409E-03 5.86941E-04-3.63987E-14
 -1       400 6.47173E-03 5.81723E-04-3.96948E-14
 -1       401 6.76045E-03 5.75820E-04-4.31154E-14
 -1       402 7.05054E-03 5.69310E-04-4.66583E-14
 -1       403 7.34237E-03 5.62404E-04-5.03208E-14
 -1       404 7.63638E-03 5.55515E-04-5.40961E-14
 -1       405 7.93302E-03 5.49331E-04-5.79788E-14
 -1       406 8.23280E-03 5.44906E-04-6.19621E-14
 -1       407 8.53617E-03 5.43751E-04-6.60507E-14
 -1       408 8.84348E-03 5.47895E-04-7.02399E-14
 -1       409 9.15484E-03 5.59872E-04-7.45250E-14
 -1       410 9.46999E-03 5.82558E-04-7.89085E-14
 -1       411 9.78806E-03 6.18720E-04-8.33974E-14
 -1       412 1.01074E-02 6.70165E-04-8.79962E-14
 -1       413 1.04254E-02 7.36411E-04-9.27032E-14
 -1       414 1.07388E-02 8.13054E-04-9.75091E-14
 -1       415 1.10440E-02 8.90466E-04-1.02403E-13
 -1       416 1.13386E-02 9.54062E-04-1.07378E-13
 -1       417 1.16227E-02 9.87224E-04-1.12433E-13
 -1       418 1.19000E-02 9.76742E-04-1.17559E-13
 -1       419 1.21759E-02 9.18139E-04-1.22734E-13
 -1       420 1.24555E-02 8.17279E-04-1.27945E-13
 -1       421 1.27411E-02 6.86983E-04-1.33174E-13
 -1       422 1.30321E-02 5.41073E-04-1.38419E-13
 -1       423 1.33258E-02 3.89610E-04-1.43677E-13
 -1       424 1.36192E-02 2.37101E-04-1.48962E-13
 -1       425 1.39102E-02 8.34820E-05-1.54273E-13
 -1       426 1.41074E-02-2.30566E-05-1.57709E-13
 -1       427 1.44759E-02-2.03122E-04-1.56667E-13
 -1       428 1.43006E-02-1.20937E-04-1.56612E-13
 -1       429 1.42019E-02-7.18159E-05-1.57162E-13
 -1       430 1.46572E-02-2.78992E-04-1.56719E-13
 -1       431 1.48449E-02-3.47003E-04-1.56773E-13
 -1       432 1.50228E-02-4.01493E-04-1.56827E-13
 -1       433 1.51710E-02-4.40154E-04-1.56879E-13
 -1       434 1.52681E-02-4.65028E-04-1.56926E-13
 -1       435 1.52983E-02-4.83249E-04-1.56958E-13
 -1       436 1.52604E-02-5.04371E-04-1.56970E-13
 -1       437 1.51650E-02-5.37455E-04-1.56964E-13
 -1       438 1.50330E-02-5.85974E-04-1.56935E-13
 -1       439 1.48864E-02-6.49017E-04-1.56896E-13
 -1       440 1.41841E-02-2.29130E-04-1.32175E-13
 -1       441 1.45296E-02-3.96498E-04-1.33297E-13
 -1       442 1.44121E-02-3.20967E-04-1.33105E-13
 -1       443 1.37134E-02-8.90484E-06-1.29641E-13
 -1       444 1.33412E-02 1.81158E-04-1.27604E-13
 -1       445 4.45680E-04-1.26485E-04-2.68628E-16
 -1       446 1.25251E-02 6.10139E-04-1.21291E-13
 -1       447 1.21561E-02 7.20030E-04-1.17911E-13
 -1       448 1.17405E-02 6.97358E-04-1.13592E-13
 -1       449 1.14286E-02 5.85351E-04-1.10656E-13
 -1       450 1.09775E-02 3.63674E-04-1.07208E-13
 -1       451 1.05794E-02 1.59266E-04-1.04500E-13
 -1       452 1.02189E-02-2.67821E-06-1.02712E-13
 -1       453 9.94169E-03-1.16525E-04-1.01510E-13
 -1       454 9.81263E-03-1.94393E-04-1.00909E-13
 -1       455 9.85455E-03-2.47877E-04-1.01091E-13
 -1       456 1.00757E-02-3.55340E-04-1.02162E-13
 -1       457 1.03822E-02-4.85476E-04-1.03086E-13
 -1       458 1.07627E-02-7.04346E-04-1.05574E-13
 -1       459 1.11615E-02-9.41568E-04-1.08098E-13
 -1       460 1.15526E-02-1.16282E-03-1.10661E-13
 -1       461 1.20100E-02-1.36427E-03-1.14923E-13
 -1       462 1.22980E-02-1.39374E-03-1.17894E-13
 -1       463 1.26567E-02-1.31556E-03-1.21372E-13
 -1       464 1.30734E-02-1.12364E-03-1.25031E-13
 -1       465 1.34848E-02-9.12876E-04-1.27632E-13
 -1       466 1.38704E-02-7.16006E-04-1.30093E-13
 -1       467 1.42020E-02-5.66450E-04-1.31942E-13
 -1       468 1.44690E-02-4.54242E-04-1.32917E-13
 -1       469 1.28687E-02 4.44043E-04-1.24189E-13
 -1       470 1.30680E-02 3.05499E-04-1.26881E-13
 -1       471 1.39654E-02-1.59904E-04-1.32530E-13
 -1       472 1.18079E-02-1.29593E-03-1.12337E-13
 -1       473 9.83272E-03-1.60499E-04-9.94364E-14
 -1       474 9.31294E-04 3.46054E-04-8.04959E-16
 -1       475 6.65815E-04-7.51395E-05-6.39113E-16
 -1       476 6.69779E-04-1.15900E-04-6.23731E-16
 -1       477 6.63143E-04 1.10483E-06-6.49176E-16
 -1       478 6.63864E-04 3.87696E-05-6.45466E-16
 -1       479 6.66005E-04 7.68259E-05-6.35990E-16
 -1       480 6.70101E-04 1.17740E-04-6.18849E-16
 -1       481 6.77114E-04 1.62359E-04-5.92289E-16
 -1       482 6.89037E-04 2.12725E-04-5.52164E-16
 -1       483 1.21719E-03 4.06559E-04-1.38931E-15
 -1       484 9.76334E-04-3.28664E-04-9.61758E-16
 -1       485 1.11913E-02 4.78606E-04-1.07441E-13
 -1       486 1.26224E-03-3.83547E-04-1.59183E-15
 -1       487 1.54728E-03-4.23327E-04-2.38365E-15
 -1       488 1.83142E-03-4.51415E-04-3.33737E-15
 -1       489 2.11496E-03-4.70718E-04-4.45295E-15
 -1       490 2.39824E-03-4.83529E-04-5.72850E-15
 -1       491 2.68149E-03-4.91614E-04-7.16118E-15
 -1       492 2.96488E-03-4.96316E-04-8.74703E-15
 -1       493 3.24850E-03-4.98639E-04-1.04831E-14
 -1       494 3.53239E-03-4.99316E-04-1.23670E-14
 -1       495 3.81656E-03-4.98868E-04-1.43967E-14
 -1       496 4.10101E-03-4.97650E-04-1.65688E-14
 -1       497 4.38572E-03-4.95883E-04-1.88825E-14
 -1       498 4.67068E-03-4.93690E-04-2.13360E-14
 -1       499 4.95588E-03-4.91113E-04-2.39279E-14
 -1       500 5.24132E-03-4.88132E-04-2.66547E-14
 -1       501 5.52701E-03-4.84683E-04-2.95142E-14
 -1       502 5.81300E-03-4.80666E-04-3.25071E-14
 -1       503 6.09932E-03-4.75966E-04-3.56331E-14
 -1       504 6.38607E-03-4.70460E-04-3.88911E-14
 -1       505 6.67334E-03-4.64043E-04-4.22775E-14
 -1       506 6.96126E-03-4.56652E-04-4.57886E-14
 -1       507 7.25000E-03-4.48308E-04-4.94176E-14
 -1       508 7.53974E-03-4.39167E-04-5.31639E-14
 -1       509 7.83071E-03-4.29603E-04-5.70242E-14
 -1       510 8.12318E-03-4.20319E-04-6.09940E-14
 -1       511 8.41751E-03-4.12497E-04-6.50716E-14
 -1       512 8.71417E-03-4.08004E-04-6.92510E-14
 -1       513 9.01393E-03-4.09651E-04-7.35273E-14
 -1       514 9.31804E-03-4.21517E-04-7.78991E-14
 -1       515 9.62864E-03-4.49287E-04-8.23601E-14
 -1       516 9.94913E-03-5.00570E-04-8.69092E-14
 -1       517 1.02843E-02-5.84905E-04-9.15492E-14
 -1       518 1.06389E-02-7.12666E-04-9.62691E-14
 -1       519 1.10140E-02-8.90295E-04-1.01073E-13
 -1       520 1.14010E-02-1.10731E-03-1.05954E-13
 -1       521 1.17827E-02-1.31757E-03-1.10904E-13
 -1       522 1.21476E-02-1.44132E-03-1.15929E-13
 -1       523 1.25091E-02-1.42519E-03-1.21037E-13
 -1       524 1.28818E-02-1.29680E-03-1.26213E-13
 -1       525 1.32637E-02-1.13119E-03-1.31459E-13
 -1       526 1.36361E-02-9.85676E-04-1.36768E-13
 -1       527 1.39875E-02-8.75848E-04-1.42123E-13
 -1       528 1.43158E-02-7.94263E-04-1.47513E-13
 -1       529 1.43334E-02-3.09826E-04-1.35240E-13
 -1       530 1.78406E-03 4.81173E-04-3.04848E-15
 -1       531 2.06607E-03 5.02558E-04-4.12239E-15
 -1       532 2.34782E-03 5.16912E-04-5.35735E-15
 -1       533 2.62966E-03 5.26147E-04-6.75217E-15
 -1       534 2.91180E-03 5.31706E-04-8.30421E-15
 -1       535 3.19435E-03 5.34668E-04-1.00111E-14
 -1       536 3.47734E-03 5.35826E-04-1.18696E-14
 -1       537 3.76077E-03 5.35746E-04-1.38772E-14
 -1       538 4.04462E-03 5.34819E-04-1.60314E-14
 -1       539 4.32884E-03 5.33298E-04-1.83315E-14
 -1       540 4.61342E-03 5.31326E-04-2.07728E-14
 -1       541 4.89832E-03 5.28967E-04-2.33513E-14
 -1       542 5.18354E-03 5.26220E-04-2.60630E-14
 -1       543 5.46909E-03 5.23041E-04-2.89071E-14
 -1       544 5.75500E-03 5.19353E-04-3.18849E-14
 -1       545 6.04135E-03 5.15071E-04-3.49919E-14
 -1       546 6.32822E-03 5.10111E-04-3.82220E-14
 -1       547 6.61575E-03 5.04421E-04-4.15760E-14
 -1       548 6.90412E-03 4.98011E-04-4.50514E-14
 -1       549 7.19355E-03 4.90993E-04-4.86486E-14
 -1       550 7.48433E-03 4.83635E-04-5.23634E-14
 -1       551 7.77678E-03 4.76433E-04-5.61887E-14
 -1       552 8.07129E-03 4.70191E-04-6.01176E-14
 -1       553 8.36832E-03 4.66112E-04-6.41521E-14
 -1       554 8.66839E-03 4.65891E-04-6.82933E-14
 -1       555 8.97203E-03 4.71765E-04-7.25321E-14
 -1       556 9.27980E-03 4.86488E-04-7.68668E-14
 -1       557 9.59210E-03 5.13126E-04-8.13020E-14
 -1       558 9.90898E-03 5.54552E-04-8.58405E-14
 -1       559 1.02297E-02 6.12450E-04-9.04836E-14
 -1       560 1.05522E-02 6.85721E-04-9.52287E-14
 -1       561 1.08730E-02 7.68390E-04-1.00062E-13
 -1       562 1.11877E-02 8.47932E-04-1.04980E-13
 -1       563 1.14932E-02 9.06033E-04-1.09984E-13
 -1       564 1.17901E-02 9.23440E-04-1.15063E-13
 -1       565 1.20833E-02 8.88295E-04-1.20204E-13
 -1       566 1.23793E-02 8.02036E-04-1.25386E-13
 -1       567 1.26814E-02 6.78045E-04-1.30603E-13
 -1       568 1.29889E-02 5.33675E-04-1.35837E-13
 -1       569 1.32975E-02 3.82809E-04-1.41087E-13
 -1       570 1.36032E-02 2.32373E-04-1.46357E-13
 -1       571 1.39030E-02 8.29662E-05-1.51659E-13
 -1       572 1.44970E-02-2.21903E-04-1.52117E-13
 -1       573 1.46917E-02-3.04113E-04-1.52153E-13
 -1       574 1.41292E-02-4.03511E-05-1.52025E-13
 -1       575 1.43075E-02-1.32266E-04-1.52071E-13
 -1       576 1.48719E-02-3.71392E-04-1.52189E-13
 -1       577 1.50114E-02-4.20372E-04-1.52223E-13
 -1       578 1.50836E-02-4.55241E-04-1.52251E-13
 -1       579 1.50756E-02-4.87023E-04-1.52261E-13
 -1       580 1.49943E-02-5.29556E-04-1.52249E-13
 -1       581 1.48631E-02-5.89056E-04-1.52224E-13
 -1       582 1.47098E-02-6.64144E-04-1.52180E-13
 -1       583 1.43970E-02-4.85812E-04-1.35090E-13
 -1       584 1.50131E-03 4.50255E-04-2.13684E-15
 -1       585 1.45372E-02-3.82537E-04-1.36225E-13
 -1       586 1.35189E-02 4.63439E-05-1.30639E-13
 -1       587 1.45435E-02-4.24523E-04-1.35529E-13
 -1       588 7.12697E-04-2.51886E-04-5.40231E-16
 -1       589 6.63752E-04-3.65244E-05-6.47367E-16
 -1       590 1.19286E-02 7.50362E-04-1.15568E-13
 -1       591 1.07870E-02 2.59899E-04-1.04267E-13
 -1       592 1.15698E-02 6.61456E-04-1.11230E-13
 -1       593 1.01680E-02-3.56413E-04-1.00007E-13
 -1       594 1.23444E-02 6.76083E-04-1.20494E-13
 -1       595 1.03600E-02 5.36590E-05-1.01256E-13
 -1       596 1.00342E-02-8.02658E-05-9.96686E-14
 -1       597 9.79494E-03-2.04832E-04-9.88184E-14
 -1       598 1.28389E-02-1.24535E-03-1.24142E-13
 -1       599 9.91411E-03-2.57291E-04-9.89474E-14
 -1       600 1.06222E-02-5.76266E-04-1.02315E-13
 -1       601 1.09629E-02-7.77343E-04-1.04804E-13
 -1       602 1.13079E-02-9.97444E-04-1.07335E-13
 -1       603 1.21841E-02-1.41493E-03-1.16628E-13
 -1       604 1.24743E-02-1.38757E-03-1.20095E-13
 -1       605 1.33000E-02-9.93751E-04-1.28159E-13
 -1       606 1.36486E-02-8.06925E-04-1.30631E-13
 -1       607 1.40489E-02-6.19715E-04-1.33179E-13
 -1       608 1.26234E-02 5.49497E-04-1.23390E-13
 -1       609 7.03846E-04 2.90908E-04-4.41145E-16
 -1       610 6.76583E-04-1.60073E-04-5.98751E-16
 -1       611 1.32777E-02 1.73248E-04-1.29909E-13
 -1       612 1.42934E-02-5.37864E-04-1.36328E-13
 -1       613 1.41684E-02-2.51854E-04-1.35589E-13
 -1       614 1.45233E-02-7.48910E-04-1.51180E-13
 -1       615 1.30770E-02-1.13625E-03-1.27258E-13
 -1       616 6.91817E-04-2.02904E-04-5.76287E-16
 -1       617 9.87844E-03-1.21413E-04-9.76062E-14
 -1       618 9.76550E-03-1.74596E-04-9.73535E-14
 -1       619 1.28266E-02 4.33992E-04-1.26076E-13
 -1       620 1.22056E-02 7.21767E-04-1.19134E-13
 -1       621 8.99758E-04 7.41252E-05-1.10432E-15
 -1       622 8.97668E-04 2.51836E-05-1.11440E-15
 -1       623 9.11832E-04 1.78254E-04-1.05158E-15
 -1       624 9.24211E-04 2.36822E-04-1.00354E-15
 -1       625 1.04891E-03 3.13958E-04-1.16551E-15
 -1       626 1.45205E-02-3.64676E-04-1.39256E-13
 -1       627 1.24863E-02 6.19784E-04-1.23052E-13
 -1       628 1.38332E-03-3.37129E-04-2.06687E-15
 -1       629 1.66951E-03-3.68057E-04-2.95532E-15
 -1       630 1.95573E-03-3.89865E-04-4.00272E-15
 -1       631 2.24177E-03-4.04696E-04-5.20899E-15
 -1       632 2.52763E-03-4.14337E-04-6.57138E-15
 -1       633 2.81334E-03-4.20203E-04-8.08733E-15
 -1       634 3.09896E-03-4.23382E-04-9.75279E-15
 -1       635 3.38453E-03-4.24684E-04-1.15663E-14
 -1       636 3.67009E-03-4.24699E-04-1.35267E-14
 -1       637 3.95565E-03-4.23836E-04-1.56302E-14
 -1       638 4.24123E-03-4.22366E-04-1.78751E-14
 -1       639 4.52685E-03-4.20449E-04-2.02600E-14
 -1       640 4.81249E-03-4.18159E-04-2.27826E-14
 -1       641 5.09819E-03-4.15504E-04-2.54417E-14
 -1       642 5.38393E-03-4.12441E-04-2.82350E-14
 -1       643 5.66972E-03-4.08892E-04-3.11587E-14
 -1       644 5.95558E-03-4.04751E-04-3.42182E-14
 -1       645 6.24149E-03-3.99905E-04-3.74099E-14
 -1       646 6.52747E-03-3.94244E-04-4.07284E-14
 -1       647 6.81351E-03-3.87689E-04-4.41750E-14
 -1       648 7.09959E-03-3.80215E-04-4.77407E-14
 -1       649 7.38568E-03-3.71902E-04-5.14234E-14
 -1       650 7.67172E-03-3.62983E-04-5.52230E-14
 -1       651 7.95767E-03-3.53929E-04-5.91329E-14
 -1       652 8.24346E-03-3.45541E-04-6.31530E-14
 -1       653 8.52911E-03-3.39083E-04-6.72749E-14
 -1       654 8.81486E-03-3.36435E-04-7.14989E-14
 -1       655 9.10138E-03-3.40284E-04-7.58180E-14
 -1       656 9.39031E-03-3.54379E-04-8.02320E-14
 -1       657 9.68491E-03-3.83948E-04-8.47289E-14
 -1       658 9.99105E-03-4.36475E-04-8.93199E-14
 -1       659 1.03177E-02-5.23121E-04-9.39939E-14
 -1       660 1.06757E-02-6.59668E-04-9.87477E-14
 -1       661 1.35954E-02-9.18081E-04-1.34170E-13
 -1       662 1.39658E-02-8.03905E-04-1.39496E-13
 -1       663 1.43014E-02-7.31237E-04-1.44862E-13
 -1       664 1.90571E-03 4.20800E-04-3.70660E-15
 -1       665 2.76015E-03 4.55530E-04-7.67746E-15
 -1       666 3.04483E-03 4.59443E-04-9.31237E-15
 -1       667 3.32957E-03 4.61274E-04-1.10992E-14
 -1       668 3.61441E-03 4.61670E-04-1.30345E-14
 -1       669 3.89938E-03 4.61090E-04-1.51171E-14
 -1       670 4.18448E-03 4.59837E-04-1.73450E-14
 -1       671 4.46971E-03 4.58100E-04-1.97149E-14
 -1       672 4.75507E-03 4.55973E-04-2.22229E-14
 -1       673 5.04056E-03 4.53482E-04-2.48665E-14
 -1       674 5.32618E-03 4.50600E-04-2.76427E-14
 -1       675 5.61196E-03 4.47261E-04-3.05502E-14
 -1       676 5.89791E-03 4.43379E-04-3.35899E-14
 -1       677 6.18407E-03 4.38862E-04-3.67560E-14
 -1       678 6.47051E-03 4.33629E-04-4.00454E-14
 -1       679 6.75729E-03 4.27640E-04-4.34570E-14
 -1       680 7.04453E-03 4.20922E-04-4.69879E-14
 -1       681 7.33236E-03 4.13619E-04-5.06398E-14
 -1       682 7.62100E-03 4.06039E-04-5.44059E-14
 -1       683 7.91071E-03 3.98731E-04-5.82792E-14
 -1       684 8.20190E-03 3.92558E-04-6.22605E-14
 -1       685 8.49513E-03 3.88793E-04-6.63477E-14
 -1       686 8.79117E-03 3.89208E-04-7.05397E-14
 -1       687 9.09108E-03 3.96138E-04-7.48261E-14
 -1       688 9.39618E-03 4.12497E-04-7.92129E-14
 -1       689 9.70793E-03 4.41633E-04-8.36983E-14
 -1       690 1.00275E-02 4.86887E-04-8.82826E-14
 -1       691 1.03551E-02 5.50528E-04-9.29641E-14
 -1       692 1.06883E-02 6.31678E-04-9.77412E-14
 -1       693 1.10221E-02 7.22802E-04-1.02603E-13
 -1       694 1.13497E-02 8.06882E-04-1.07552E-13
 -1       695 1.16666E-02 8.58643E-04-1.12583E-13
 -1       696 1.19758E-02 8.54277E-04-1.17682E-13
 -1       697 1.22859E-02 7.85889E-04-1.22831E-13
 -1       698 1.26042E-02 6.66351E-04-1.28028E-13
 -1       699 1.29305E-02 5.19720E-04-1.33250E-13
 -1       700 1.32587E-02 3.66558E-04-1.38492E-13
 -1       701 1.35818E-02 2.17633E-04-1.43759E-13
 -1       702 1.38578E-02 8.63984E-05-1.47882E-13
 -1       703 1.47314E-02-3.64621E-04-1.47558E-13
 -1       704 1.45098E-02-6.96649E-04-1.48511E-13
 -1       705 1.43330E-02-1.88673E-04-1.47513E-13
 -1       706 1.48609E-02-4.16943E-04-1.47576E-13
 -1       707 1.45425E-02-2.87562E-04-1.47539E-13
 -1       708 1.20404E-02 7.63655E-04-1.17357E-13
 -1       709 1.48976E-02-4.55866E-04-1.47579E-13
 -1       710 1.48351E-02-5.01511E-04-1.47568E-13
 -1       711 1.46998E-02-5.68889E-04-1.47542E-13
 -1       712 1.62036E-03 3.96294E-04-2.69857E-15
 -1       713 9.96760E-03-2.78102E-04-9.66302E-14
 -1       714 1.46273E-02-4.18560E-04-1.39160E-13
 -1       715 9.50411E-04-2.70062E-04-1.01696E-15
 -1       716 1.15158E-02-1.13370E-03-1.08859E-13
 -1       717 1.38282E-02-1.06927E-04-1.34545E-13
 -1       718 1.01103E-02-1.50073E-05-9.77202E-14
 -1       719 2.47548E-03 4.48642E-04-6.19676E-15
 -1       720 2.19070E-03 4.37586E-04-4.87328E-15
 -1       721 1.16640E-03-3.07562E-04-1.49527E-15
 -1       722 1.33465E-03 3.61605E-04-1.85171E-15
 -1       723 9.04210E-04 1.24637E-04-1.08426E-15
 -1       724 1.16937E-02 7.35919E-04-1.12482E-13
 -1       725 9.03833E-04-1.22224E-04-1.08883E-15
 -1       726 1.38914E-02-7.10624E-04-1.34272E-13
 -1       727 1.09219E-02 3.79567E-04-1.03740E-13
 -1       728 1.03182E-02-4.29562E-04-9.83163E-14
 -1       729 1.05254E-02 1.74208E-04-1.00413E-13
 -1       730 1.13314E-02 5.92291E-04-1.07969E-13
 -1       731 1.10862E-02-8.67516E-04-1.03955E-13
 -1       732 1.07850E-02-6.80956E-04-1.01472E-13
 -1       733 1.45611E-02-4.56486E-04-1.38725E-13
 -1       734 9.76661E-03-2.04068E-04-9.56546E-14
 -1       735 1.35227E-02-8.98983E-04-1.31672E-13
 -1       736 8.97605E-04-2.31615E-05-1.11548E-15
 -1       737 9.11224E-04-1.75651E-04-1.05857E-15
 -1       738 1.30458E-02 3.12364E-04-1.29096E-13
 -1       739 1.41320E-02-8.10681E-05-1.47484E-13
 -1       740 1.39888E-02 4.90983E-06-1.47684E-13
 -1       741 9.92835E-03-6.20213E-05-9.56728E-14
 -1       742 1.36069E-02 5.41018E-06-1.33810E-13
 -1       743 9.76355E-03-1.39098E-04-9.55341E-14
 -1       744 1.41642E-02-6.17865E-04-1.37428E-13
 -1       745 1.44147E-02-3.24678E-04-1.39600E-13
 -1       746 8.99549E-04-7.18385E-05-1.10717E-15
 -1       747 1.23000E-02 7.08477E-04-1.21258E-13
 -1       748 1.45070E-02-6.40229E-04-1.46205E-13
 -1       749 1.16154E-03 2.43666E-04-1.58582E-15
 -1       750 1.47091E-02-4.10348E-04-1.42849E-13
 -1       751 1.79731E-03-3.09579E-04-3.55415E-15
 -1       752 2.08497E-03-3.25684E-04-4.69163E-15
 -1       753 2.37277E-03-3.36487E-04-5.98494E-15
 -1       754 2.66047E-03-3.43335E-04-7.43022E-15
 -1       755 2.94798E-03-3.47313E-04-9.02554E-15
 -1       756 3.23525E-03-3.49257E-04-1.07699E-14
 -1       757 3.52227E-03-3.49791E-04-1.26605E-14
 -1       758 3.80907E-03-3.49361E-04-1.46956E-14
 -1       759 4.09567E-03-3.48271E-04-1.68715E-14
 -1       760 4.38208E-03-3.46714E-04-1.91881E-14
 -1       761 4.66832E-03-3.44794E-04-2.16436E-14
 -1       762 4.95440E-03-3.42547E-04-2.42334E-14
 -1       763 5.24033E-03-3.39958E-04-2.69602E-14
 -1       764 5.52610E-03-3.36970E-04-2.98190E-14
 -1       765 5.81167E-03-3.33502E-04-3.28088E-14
 -1       766 6.09702E-03-3.29457E-04-3.59336E-14
 -1       767 6.38205E-03-3.24739E-04-3.91887E-14
 -1       768 6.66669E-03-3.19268E-04-4.25692E-14
 -1       769 6.95078E-03-3.13004E-04-4.60721E-14
 -1       770 7.23414E-03-3.05984E-04-4.96953E-14
 -1       771 7.51653E-03-2.98353E-04-5.34337E-14
 -1       772 7.79764E-03-2.90424E-04-5.72846E-14
 -1       773 8.07712E-03-2.82739E-04-6.12421E-14
 -1       774 8.35456E-03-2.76137E-04-6.53067E-14
 -1       775 8.62965E-03-2.71829E-04-6.94756E-14
 -1       776 8.90223E-03-2.71465E-04-7.37461E-14
 -1       777 9.17273E-03-2.77220E-04-7.81116E-14
 -1       778 9.44262E-03-2.91968E-04-8.25615E-14
 -1       779 9.71550E-03-3.19881E-04-8.71009E-14
 -1       780 9.99891E-03-3.67998E-04-9.17294E-14
 -1       781 9.76278E-03-2.23835E-04-9.30116E-14
 -1       782 1.10515E-02 5.23468E-04-1.04060E-13
 -1       783 2.89346E-03 3.83315E-04-8.61737E-15
 -1       784 3.75271E-03 3.86696E-04-1.42073E-14
 -1       785 4.03887E-03 3.85809E-04-1.63638E-14
 -1       786 4.32493E-03 3.84400E-04-1.86628E-14
 -1       787 4.61090E-03 3.82596E-04-2.11016E-14
 -1       788 4.89680E-03 3.80449E-04-2.36761E-14
 -1       789 5.18264E-03 3.77956E-04-2.63826E-14
 -1       790 5.46842E-03 3.75070E-04-2.92222E-14
 -1       791 5.75413E-03 3.71715E-04-3.21947E-14
 -1       792 6.03976E-03 3.67800E-04-3.52953E-14
 -1       793 6.32533E-03 3.63233E-04-3.85205E-14
 -1       794 6.61081E-03 3.57942E-04-4.18695E-14
 -1       795 6.89622E-03 3.51892E-04-4.53388E-14
 -1       796 7.18157E-03 3.45123E-04-4.89258E-14
 -1       797 7.46695E-03 3.37786E-04-5.26326E-14
 -1       798 7.75249E-03 3.30195E-04-5.64515E-14
 -1       799 8.03846E-03 3.22884E-04-6.03757E-14
 -1       800 8.32532E-03 3.16688E-04-6.44098E-14
 -1       801 8.61381E-03 3.12825E-04-6.85476E-14
 -1       802 8.90513E-03 3.13006E-04-7.27871E-14
 -1       803 9.20100E-03 3.19561E-04-7.71244E-14
 -1       804 9.50379E-03 3.35576E-04-8.15609E-14
 -1       805 9.81633E-03 3.64994E-04-8.60943E-14
 -1       806 1.01413E-02 4.12433E-04-9.07191E-14
 -1       807 1.04797E-02 4.81928E-04-9.54387E-14
 -1       808 1.08289E-02 5.74815E-04-1.00246E-13
 -1       809 1.11805E-02 6.80632E-04-1.05139E-13
 -1       810 1.15240E-02 7.73521E-04-1.10116E-13
 -1       811 1.18538E-02 8.13856E-04-1.15169E-13
 -1       812 1.25142E-02 6.58434E-04-1.25452E-13
 -1       813 1.28610E-02 5.03175E-04-1.30658E-13
 -1       814 1.32127E-02 3.40380E-04-1.35892E-13
 -1       815 1.35572E-02 1.89609E-04-1.41153E-13
 -1       816 1.37758E-02 9.46884E-05-1.44413E-13
 -1       817 1.24622E-03 3.00897E-04-1.72300E-15
 -1       818 1.45751E-02-5.32782E-04-1.43275E-13
 -1       819 2.60672E-03 3.78448E-04-7.05394E-15
 -1       820 1.74570E-03 3.39168E-04-3.28932E-15
 -1       821 1.47139E-02-4.64967E-04-1.43300E-13
 -1       822 3.46644E-03 3.86834E-04-1.21963E-14
 -1       823 3.18003E-03 3.85876E-04-1.03325E-14
 -1       824 9.28909E-04-2.20917E-04-1.04365E-15
 -1       825 1.27546E-02 4.89325E-04-1.26856E-13
 -1       826 1.51023E-03-2.86566E-04-2.57359E-15
 -1       827 2.31980E-03 3.70334E-04-5.64425E-15
 -1       828 1.06202E-02 3.09096E-04-9.94745E-14
 -1       829 1.01867E-02 9.74566E-05-9.58358E-14
 -1       830 9.67705E-03-1.64146E-04-9.37941E-14
 -1       831 1.45033E-02-5.14241E-04-1.40703E-13
 -1       832 1.14359E-02 7.00684E-04-1.08870E-13
 -1       833 2.03274E-03 3.57749E-04-4.38855E-15
 -1       834 1.00209E-02-3.28576E-04-9.42062E-14
 -1       835 1.41463E-02-2.24890E-04-1.38545E-13
 -1       836 1.13826E-03 5.90696E-05-1.69447E-15
 -1       837 1.13689E-03 1.19981E-06-1.70213E-15
 -1       838 1.39513E-02-1.36876E-04-1.37804E-13
 -1       839 1.14981E-03 1.79147E-04-1.63841E-15
 -1       840 1.14924E-03-1.76150E-04-1.64535E-15
 -1       841 1.49561E-03 3.24207E-04-2.44376E-15
 -1       842 1.03092E-02-4.52994E-04-9.64366E-14
 -1       843 1.39468E-02-4.40401E-05-1.42903E-13
 -1       844 1.43096E-02-6.51168E-04-1.42215E-13
 -1       845 1.21723E-02 7.71961E-04-1.20090E-13
 -1       846 1.41719E-02-1.73453E-04-1.42922E-13
 -1       847 1.14348E-03-2.53631E-04-1.52915E-15
 -1       848 1.14238E-03 1.17962E-04-1.67388E-15
 -1       849 9.77842E-03-8.81903E-05-9.36155E-14
 -1       850 9.99466E-03 3.86548E-05-9.38013E-14
 -1       851 9.61855E-03-1.77183E-04-9.11760E-14
 -1       852 1.33730E-02 1.41356E-04-1.32991E-13
 -1       853 1.39780E-02-7.14791E-04-1.36873E-13
 -1       854 1.14203E-03-1.15221E-04-1.67844E-15
 -1       855 1.24389E-02 6.61656E-04-1.23469E-13
 -1       856 1.30201E-02 3.53642E-04-1.30412E-13
 -1       857 1.28774E-03-2.08576E-04-1.99692E-15
 -1       858 2.21835E-03-2.58962E-04-5.40355E-15
 -1       859 2.50743E-03-2.66274E-04-6.77937E-15
 -1       860 2.79645E-03-2.70759E-04-8.30432E-15
 -1       861 3.08522E-03-2.73200E-04-9.97872E-15
 -1       862 3.37364E-03-2.74202E-04-1.18003E-14
 -1       863 3.66168E-03-2.74210E-04-1.37657E-14
 -1       864 3.94933E-03-2.73539E-04-1.58745E-14
 -1       865 4.23662E-03-2.72397E-04-1.81225E-14
 -1       866 4.52355E-03-2.70910E-04-2.05086E-14
 -1       867 4.81014E-03-2.69136E-04-2.30322E-14
 -1       868 5.09640E-03-2.67083E-04-2.56912E-14
 -1       869 5.38231E-03-2.64723E-04-2.84851E-14
 -1       870 5.66782E-03-2.62000E-04-3.14100E-14
 -1       871 5.95288E-03-2.58841E-04-3.44653E-14
 -1       872 6.23736E-03-2.55171E-04-3.76536E-14
 -1       873 6.52112E-03-2.50925E-04-4.09715E-14
 -1       874 6.80394E-03-2.46068E-04-4.44141E-14
 -1       875 7.08554E-03-2.40614E-04-4.79744E-14
 -1       876 7.36558E-03-2.34666E-04-5.16544E-14
 -1       877 7.64358E-03-2.28440E-04-5.54456E-14
 -1       878 7.91901E-03-2.22317E-04-5.93429E-14
 -1       879 8.19119E-03-2.16877E-04-6.33491E-14
 -1       880 8.45938E-03-2.12925E-04-6.74617E-14
 -1       881 8.72276E-03-2.11505E-04-7.16812E-14
 -1       882 8.98057E-03-2.13861E-04-7.59967E-14
 -1       883 9.23225E-03-2.21403E-04-8.04035E-14
 -1       884 9.47796E-03-2.35872E-04-8.48955E-14
 -1       885 3.89230E-03 3.11134E-04-1.53898E-14
 -1       886 4.75245E-03 3.06989E-04-2.24901E-14
 -1       887 5.03864E-03 3.04965E-04-2.51300E-14
 -1       888 5.32457E-03 3.02617E-04-2.79021E-14
 -1       889 5.61022E-03 2.99887E-04-3.08068E-14
 -1       890 5.89557E-03 2.96697E-04-3.38420E-14
 -1       891 6.18055E-03 2.92956E-04-3.70044E-14
 -1       892 6.46511E-03 2.88578E-04-4.02893E-14
 -1       893 6.74916E-03 2.83492E-04-4.36966E-14
 -1       894 7.03264E-03 2.77666E-04-4.72230E-14
 -1       895 7.31547E-03 2.71131E-04-5.08688E-14
 -1       896 7.59766E-03 2.64010E-04-5.46296E-14
 -1       897 7.87928E-03 2.56563E-04-5.84993E-14
 -1       898 8.16057E-03 2.49228E-04-6.24763E-14
 -1       899 8.44207E-03 2.42695E-04-6.65601E-14
 -1       900 8.72472E-03 2.37987E-04-7.07494E-14
 -1       901 9.01008E-03 2.36602E-04-7.50393E-14
 -1       902 9.30062E-03 2.40757E-04-7.94268E-14
 -1       903 9.59985E-03 2.53785E-04-8.39115E-14
 -1       904 9.91238E-03 2.80680E-04-8.84892E-14
 -1       905 1.02434E-02 3.28914E-04-9.31556E-14
 -1       906 1.31668E-02 3.06479E-04-1.33288E-13
 -1       907 2.74122E-03 3.06584E-04-7.92830E-15
 -1       908 1.38551E-02 2.91262E-05-1.43661E-13
 -1       909 1.02504E-02 2.36038E-04-9.44345E-14
 -1       910 1.07291E-02 4.68562E-04-9.94488E-14
 -1       911 2.16422E-03 2.92133E-04-5.09435E-15
 -1       912 3.60500E-03 3.11599E-04-1.33038E-14
 -1       913 1.64162E-03-2.31821E-04-3.11197E-15
 -1       914 9.63711E-03-1.25393E-04-9.18922E-14
 -1       915 4.46600E-03 3.08714E-04-1.99842E-14
 -1       916 4.17929E-03 3.10122E-04-1.76174E-14
 -1       917 2.45276E-03 3.01010E-04-6.43513E-15
 -1       918 1.13810E-03-5.65390E-05-1.69702E-15
 -1       919 1.87591E-03 2.78826E-04-3.90739E-15
 -1       920 1.92956E-03-2.47849E-04-4.18075E-15
 -1       921 9.74899E-03-2.59521E-04-9.02611E-14
 -1       922 1.37257E-02-2.01178E-05-1.36982E-13
 -1       923 1.40130E-03 2.37113E-04-2.29514E-15
 -1       924 1.62453E-03 2.70147E-04-2.98452E-15
 -1       925 3.02945E-03 3.09769E-04-9.57132E-15
 -1       926 1.35691E-02 1.42183E-04-1.39394E-13
 -1       927 1.38104E-03 3.41177E-05-2.40174E-15
 -1       928 9.82174E-03-1.73616E-06-9.17604E-14
 -1       929 1.38420E-03 1.00010E-04-2.38396E-15
 -1       930 3.31739E-03 3.11267E-04-1.13640E-14
 -1       931 9.57318E-03-2.02358E-04-8.84537E-14
 -1       932 9.52586E-03-1.40317E-04-8.93020E-14
 -1       933 1.27876E-03-1.42528E-04-2.04002E-15
 -1       934 2.64531E-03-1.94254E-04-7.59102E-15
 -1       935 2.93523E-03-1.96848E-04-9.19468E-15
 -1       936 3.22482E-03-1.98122E-04-1.09472E-14
 -1       937 3.51397E-03-1.98474E-04-1.28434E-14
 -1       938 3.80262E-03-1.98191E-04-1.48836E-14
 -1       939 4.09077E-03-1.97471E-04-1.70640E-14
 -1       940 4.37842E-03-1.96443E-04-1.93823E-14
 -1       941 4.66559E-03-1.95175E-04-2.18378E-14
 -1       942 4.95227E-03-1.93695E-04-2.44304E-14
 -1       943 5.23847E-03-1.91996E-04-2.71583E-14
 -1       944 5.52412E-03-1.90046E-04-3.00182E-14
 -1       945 5.80916E-03-1.87802E-04-3.30095E-14
 -1       946 6.09345E-03-1.85213E-04-3.61289E-14
 -1       947 6.37683E-03-1.82237E-04-3.93806E-14
 -1       948 6.65905E-03-1.78850E-04-4.27609E-14
 -1       949 6.93979E-03-1.75070E-04-4.62624E-14
 -1       950 7.21865E-03-1.70973E-04-4.98817E-14
 -1       951 7.49511E-03-1.66726E-04-5.36142E-14
 -1       952 7.76855E-03-1.62614E-04-5.74525E-14
 -1       953 8.03819E-03-1.59065E-04-6.13998E-14
 -1       954 8.30309E-03-1.56671E-04-6.54586E-14
 -1       955 8.56210E-03-1.56175E-04-6.96231E-14
 -1       956 8.81381E-03-1.58428E-04-7.38878E-14
 -1       957 9.05646E-03-1.64285E-04-7.82468E-14
 -1       958 9.28759E-03-1.74410E-04-8.26973E-14
 -1       959 5.46634E-03 2.27705E-04-2.94262E-14
 -1       960 5.18056E-03 2.29746E-04-2.65889E-14
 -1       961 4.89433E-03 2.31499E-04-2.38828E-14
 -1       962 5.75163E-03 2.25315E-04-3.23933E-14
 -1       963 6.03634E-03 2.22501E-04-3.54912E-14
 -1       964 6.32037E-03 2.19178E-04-3.87151E-14
 -1       965 6.60359E-03 2.15263E-04-4.20603E-14
 -1       966 6.88584E-03 2.10685E-04-4.55271E-14
 -1       967 7.16695E-03 2.05397E-04-4.91128E-14
 -1       968 7.44675E-03 1.99392E-04-5.28161E-14
 -1       969 7.72515E-03 1.92725E-04-5.66291E-14
 -1       970 8.00212E-03 1.85535E-04-6.05525E-14
 -1       971 8.27783E-03 1.78080E-04-6.45801E-14
 -1       972 8.55279E-03 1.70784E-04-6.87166E-14
 -1       973 8.82796E-03 1.64329E-04-7.29570E-14
 -1       974 9.10512E-03 1.59842E-04-7.72973E-14
 -1       975 9.38722E-03 1.59267E-04-8.17331E-14
 -1       976 9.67882E-03 1.66191E-04-8.62632E-14
 -1       977 9.92829E-03 1.07368E-04-9.12320E-14
 -1       978 2.29950E-03 2.24054E-04-5.82276E-15
 -1       979 1.39074E-03 1.67367E-04-2.34933E-15
 -1       980 1.27354E-03-7.89691E-05-2.06592E-15
 -1       981 9.64227E-03-6.07312E-05-9.00644E-14
 -1       982 4.60767E-03 2.33000E-04-2.13102E-14
 -1       983 1.38094E-03-3.12716E-05-2.40350E-15
 -1       984 2.01017E-03 2.15271E-04-4.55180E-15
 -1       985 3.74516E-03 2.35816E-04-1.44218E-14
 -1       986 2.35530E-03-1.89822E-04-6.13643E-15
 -1       987 9.93112E-03 1.96004E-04-8.98652E-14
 -1       988 1.77679E-03-1.72749E-04-3.67951E-15
 -1       989 2.06559E-03-1.82907E-04-4.83247E-15
 -1       990 2.58912E-03 2.29797E-04-7.24489E-15
 -1       991 1.52332E-03-1.24017E-04-2.82005E-15
 -1       992 1.75764E-03 2.12089E-04-3.55504E-15
 -1       993 1.62755E-03 1.55829E-06-3.22214E-15
 -1       994 4.03310E-03 2.35223E-04-1.65790E-14
 -1       995 1.57361E-03 1.90194E-04-2.92264E-15
 -1       996 2.87866E-03 2.33284E-04-8.81758E-15
 -1       997 9.62942E-03 4.07195E-05-8.75183E-14
 -1       998 3.45676E-03 2.35873E-04-1.24078E-14
 -1       999 9.47658E-03-8.80853E-05-8.75029E-14
 -1      1000 1.62929E-03 7.32776E-05-3.21090E-15
 -1      1001 9.37522E-03-1.46629E-04-8.53544E-14
 -1      1002 4.32060E-03 2.34253E-04-1.88757E-14
 -1      1003 9.65746E-03 1.01899E-04-8.68962E-14
 -1      1004 2.78602E-03-1.20673E-04-8.42076E-15
 -1      1005 9.28397E-03-9.66446E-05-8.35948E-14
 -1      1006 3.07646E-03-1.21868E-04-1.01016E-14
 -1      1007 3.36648E-03-1.22350E-04-1.19296E-14
 -1      1008 3.65597E-03-1.22336E-04-1.39001E-14
 -1      1009 3.94489E-03-1.21981E-04-1.60118E-14
 -1      1010 4.23321E-03-1.21390E-04-1.82637E-14
 -1      1011 4.52095E-03-1.20626E-04-2.06520E-14
 -1      1012 4.80811E-03-1.19719E-04-2.31780E-14
 -1      1013 5.09468E-03-1.18678E-04-2.58382E-14
 -1      1014 5.38061E-03-1.17492E-04-2.86335E-14
 -1      1015 5.66584E-03-1.16142E-04-3.15593E-14
 -1      1016 5.95025E-03-1.14604E-04-3.46143E-14
 -1      1017 6.23366E-03-1.12859E-04-3.77997E-14
 -1      1018 6.51584E-03-1.10904E-04-4.11144E-14
 -1      1019 6.79646E-03-1.08764E-04-4.45561E-14
 -1      1020 7.07512E-03-1.06509E-04-4.81159E-14
 -1      1021 7.35133E-03-1.04274E-04-5.17896E-14
 -1      1022 7.62447E-03-1.02282E-04-5.55699E-14
 -1      1023 7.89378E-03-1.00869E-04-5.94600E-14
 -1      1024 8.15835E-03-1.00497E-04-6.34611E-14
 -1      1025 8.41703E-03-1.01760E-04-6.75710E-14
 -1      1026 8.66835E-03-1.05359E-04-7.17856E-14
 -1      1027 8.91036E-03-1.12045E-04-7.60947E-14
 -1      1028 9.14014E-03-1.22429E-04-8.04998E-14
 -1      1029 5.89272E-03 1.51597E-04-3.39837E-14
 -1      1030 5.60799E-03 1.53446E-04-3.09543E-14
 -1      1031 6.17661E-03 1.49392E-04-3.71434E-14
 -1      1032 6.45949E-03 1.46756E-04-4.04298E-14
 -1      1033 6.74116E-03 1.43605E-04-4.38389E-14
 -1      1034 7.02136E-03 1.39859E-04-4.73667E-14
 -1      1035 7.29983E-03 1.35438E-04-5.10124E-14
 -1      1036 7.57627E-03 1.30271E-04-5.47686E-14
 -1      1037 7.85044E-03 1.24303E-04-5.86349E-14
 -1      1038 8.12216E-03 1.17499E-04-6.26084E-14
 -1      1039 8.39140E-03 1.09862E-04-6.66904E-14
 -1      1040 8.65840E-03 1.01464E-04-7.08807E-14
 -1      1041 8.92384E-03 9.25160E-05-7.51706E-14
 -1      1042 9.18930E-03 8.36362E-05-7.95592E-14
 -1      1043 9.41816E-03 8.96101E-05-8.31978E-14
 -1      1044 1.62739E-03-7.13775E-05-3.20776E-15
 -1      1045 3.16791E-03 2.35148E-04-1.05391E-14
 -1      1046 1.91538E-03-1.09535E-04-4.27388E-15
 -1      1047 5.32256E-03 1.55007E-04-2.80539E-14
 -1      1048 1.60022E-03 1.31867E-04-3.07212E-15
 -1      1049 4.74988E-03 1.57469E-04-2.26434E-14
 -1      1050 2.14797E-03 1.48603E-04-5.22072E-15
 -1      1051 2.43810E-03 1.53679E-04-6.57203E-15
 -1      1052 2.49541E-03-1.18475E-04-6.88886E-15
 -1      1053 5.03650E-03 1.56336E-04-2.52822E-14
 -1      1054 2.20499E-03-1.14914E-04-5.50639E-15
 -1      1055 9.40345E-03 3.59039E-05-8.38089E-14
 -1      1056 1.87627E-03-3.76265E-05-4.14911E-15
 -1      1057 1.89436E-03 1.50053E-04-4.15354E-15
 -1      1058 2.72847E-03 1.56917E-04-8.07246E-15
 -1      1059 3.59792E-03 1.59955E-04-1.34623E-14
 -1      1060 4.46271E-03 1.58426E-04-2.01398E-14
 -1      1061 3.88674E-03 1.59736E-04-1.55487E-14
 -1      1062 1.87632E-03 3.88097E-05-4.14768E-15
 -1      1063 9.42261E-03-4.23324E-05-8.55637E-14
 -1      1064 9.19956E-03-1.47046E-05-8.10753E-14
 -1      1065 2.92918E-03-4.58525E-05-9.26818E-15
 -1      1066 3.21978E-03-4.61249E-05-1.10248E-14
 -1      1067 3.50986E-03-4.61692E-05-1.29247E-14
 -1      1068 3.79937E-03-4.60489E-05-1.49678E-14
 -1      1069 4.08824E-03-4.58167E-05-1.71507E-14
 -1      1070 4.37647E-03-4.55100E-05-1.94735E-14
 -1      1071 4.66407E-03-4.51400E-05-2.19319E-14
 -1      1072 4.95103E-03-4.47207E-05-2.45265E-14
 -1      1073 5.23732E-03-4.42524E-05-2.72548E-14
 -1      1074 5.52288E-03-4.37342E-05-3.01162E-14
 -1      1075 5.80761E-03-4.31657E-05-3.31063E-14
 -1      1076 6.09135E-03-4.25518E-05-3.62275E-14
 -1      1077 6.37390E-03-4.19095E-05-3.94763E-14
 -1      1078 6.65495E-03-4.12760E-05-4.28533E-14
 -1      1079 6.93416E-03-4.07197E-05-4.63547E-14
 -1      1080 7.21108E-03-4.03547E-05-4.99723E-14
 -1      1081 7.48516E-03-4.03573E-05-5.36951E-14
 -1      1082 7.75575E-03-4.09847E-05-5.75252E-14
 -1      1083 8.02209E-03-4.25935E-05-6.14702E-14
 -1      1084 8.28325E-03-4.56530E-05-6.55260E-14
 -1      1085 8.53809E-03-5.07483E-05-6.96854E-14
 -1      1086 8.78511E-03-5.85623E-05-7.39462E-14
 -1      1087 9.02208E-03-6.98389E-05-7.83037E-14
 -1      1088 6.31665E-03 7.75744E-05-3.88029E-14
 -1      1089 6.59831E-03 7.59014E-05-4.21521E-14
 -1      1090 6.87837E-03 7.38244E-05-4.56235E-14
 -1      1091 7.15648E-03 7.12406E-05-4.92138E-14
 -1      1092 7.43224E-03 6.80233E-05-5.29165E-14
 -1      1093 7.70523E-03 6.40156E-05-5.67222E-14
 -1      1094 7.97499E-03 5.90232E-05-6.06426E-14
 -1      1095 8.24108E-03 5.28080E-05-6.46739E-14
 -1      1096 8.50311E-03 4.50889E-05-6.88090E-14
 -1      1097 8.76078E-03 3.55654E-05-7.30482E-14
 -1      1098 9.01398E-03 2.40195E-05-7.73857E-14
 -1      1099 3.01870E-03 1.58799E-04-9.72264E-15
 -1      1100 4.17500E-03 1.59197E-04-1.77749E-14
 -1      1101 3.30856E-03 1.59714E-04-1.15197E-14
 -1      1102 5.46465E-03 8.09339E-05-2.95216E-14
 -1      1103 2.63829E-03-4.52457E-05-7.65961E-15
 -1      1104 2.34744E-03-4.41760E-05-6.20028E-15
 -1      1105 4.89252E-03 8.23178E-05-2.39831E-14
 -1      1106 5.74961E-03 8.00286E-05-3.24855E-14
 -1      1107 2.28895E-03 7.90617E-05-5.91052E-15
 -1      1108 5.17893E-03 8.16864E-05-2.66862E-14
 -1      1109 2.11147E-03-4.10730E-05-5.12542E-15
 -1      1110 6.03367E-03 7.89273E-05-3.55797E-14
 -1      1111 4.60546E-03 8.28469E-05-2.14115E-14
 -1      1112 3.45108E-03 8.37439E-05-1.25132E-14
 -1      1113 1.99892E-03 7.56932E-05-4.63196E-15
 -1      1114 3.74060E-03 8.37765E-05-1.45279E-14
 -1      1115 2.57965E-03 8.12861E-05-7.33884E-15
 -1      1116 3.36476E-03 3.00698E-05-1.19596E-14
 -1      1117 4.23239E-03 3.00976E-05-1.83001E-14
 -1      1118 2.87045E-03 8.26595E-05-8.91711E-15
 -1      1119 3.16100E-03 8.34204E-05-1.06417E-14
 -1      1120 4.02952E-03 8.36013E-05-1.66847E-14
 -1      1121 4.31780E-03 8.32768E-05-1.89789E-14
 -1      1122 2.16586E-03 4.08848E-05-5.36398E-15
 -1      1123 0.00000E+00 0.00000E+00 0.00000E+00
 -1      1124 0.00000E+00 0.00000E+00 0.00000E+00
 -1      1125 0.00000E+00 0.00000E+00 0.00000E+00
 -1      1126 0.00000E+00 0.00000E+00 0.00000E+00
 -1      1127 0.00000E+00 0.00000E+00 0.00000E+00
 -1      1128 0.00000E+00 0.00000E+00 0.00000E+00
 -1      1129 0.00000E+00 0.00000E+00 0.00000E+00
 -1      1130 0.00000E+00 0.00000E+00 0.00000E+00
 -1      1131 0.00000E+00 0.00000E+00 0.00000E+00
 -1      1132 0.00000E+00 0.00000E+00 0.00000E+00
 -1      1133 0.00000E+00 0.00000E+00 0.00000E+00
 -1      1134 0.00000E+00 0.00000E+00 0.00000E+00
 -1      1135 0.00000E+00 0.00000E+00 0.00000E+00
 -1      1136 0.00000E+00 0.00000E+00 0.00000E+00
 -1      1137 0.00000E+00 0.00000E+00 0.00000E+00
 -1      1138 0.00000E+00 0.00000E+00 0.00000E+00
 -1      1139 0.00000E+00 0.00000E+00 0.00000E+00
 -1      1140 2.11678E-04-1.48334E-04 2.70508E-17
 -1      1141 5.51673E-04-3.37521E-04-2.33917E-17
 -1      1142 8.33519E-04-4.59022E-04-2.29200E-16
 -1      1143 1.10312E-03-5.40714E-04-6.16721E-16
 -1      1144 1.36857E-03-5.97979E-04-1.17923E-15
 -1      1145 1.63342E-03-6.38713E-04-1.91428E-15
 -1      1146 1.89951E-03-6.67567E-04-2.82122E-15
 -1      1147 2.16771E-03-6.87660E-04-3.89822E-15
 -1      1148 2.43829E-03-7.01279E-04-5.14474E-15
 -1      1149 2.71126E-03-7.10150E-04-6.55617E-15
 -1      1150 2.98644E-03-7.15578E-04-8.12853E-15
 -1      1151 3.26359E-03-7.18545E-04-9.85464E-15
 -1      1152 3.54243E-03-7.19776E-04-1.17293E-14
 -1      1153 3.82269E-03-7.19791E-04-1.37502E-14
 -1      1154 4.10412E-03-7.18952E-04-1.59146E-14
 -1      1155 4.38648E-03-7.17495E-04-1.82273E-14
 -1      1156 4.66962E-03-7.15557E-04-2.06844E-14
 -1      1157 4.95339E-03-7.13197E-04-2.32810E-14
 -1      1158 5.23772E-03-7.10417E-04-2.60145E-14
 -1      1159 5.52261E-03-7.07174E-04-2.88843E-14
 -1      1160 5.80809E-03-7.03396E-04-3.18854E-14
 -1      1161 6.09431E-03-6.98995E-04-3.50179E-14
 -1      1162 6.38149E-03-6.93885E-04-3.82817E-14
 -1      1163 6.66999E-03-6.88002E-04-4.16771E-14
 -1      1164 6.96030E-03-6.81336E-04-4.52038E-14
 -1      1165 7.25309E-03-6.73968E-04-4.88504E-14
 -1      1166 7.54925E-03-6.66137E-04-5.26145E-14
 -1      1167 7.84992E-03-6.58321E-04-5.64915E-14
 -1      1168 8.15654E-03-6.51373E-04-6.04805E-14
 -1      1169 8.47085E-03-6.46695E-04-6.45787E-14
 -1      1170 8.79488E-03-6.46495E-04-6.87769E-14
 -1      1171 9.13074E-03-6.54112E-04-7.30722E-14
 -1      1172 9.48030E-03-6.74377E-04-7.74621E-14
 -1      1173 9.84446E-03-7.13870E-04-8.19389E-14
 -1      1174 1.02219E-02-7.80680E-04-8.65061E-14
 -1      1175 1.06073E-02-8.82933E-04-9.11686E-14
 -1      1176 1.09902E-02-1.02505E-03-9.59102E-14
 -1      1177 1.13543E-02-1.20136E-03-1.00733E-13
 -1      1178 1.16827E-02-1.38952E-03-1.05633E-13
 -1      1179 1.19664E-02-1.55048E-03-1.10603E-13
 -1      1180 1.22141E-02-1.64184E-03-1.15648E-13
 -1      1181 1.24515E-02-1.64041E-03-1.20764E-13
 -1      1182 1.27072E-02-1.55616E-03-1.25949E-13
 -1      1183 1.29959E-02-1.42442E-03-1.31203E-13
 -1      1184 1.33137E-02-1.28367E-03-1.36532E-13
 -1      1185 1.36447E-02-1.15784E-03-1.41913E-13
 -1      1186 1.39726E-02-1.05214E-03-1.47321E-13
 -1      1187 1.42864E-02-9.58473E-04-1.52759E-13
 -1      1188 1.45837E-02-8.63226E-04-1.58235E-13
 -1      1189 1.48629E-02-7.59544E-04-1.63603E-13
 -1      1190 2.28437E-04 1.60713E-04 3.40711E-17
 -1      1191 5.53842E-04 3.42152E-04-1.36881E-17
 -1      1192 8.34446E-04 4.61186E-04-2.19253E-16
 -1      1193 1.10402E-03 5.42398E-04-6.02261E-16
 -1      1194 1.36947E-03 5.99659E-04-1.16132E-15
 -1      1195 1.63437E-03 6.40483E-04-1.89570E-15
 -1      1196 1.90052E-03 6.69441E-04-2.80186E-15
 -1      1197 2.16876E-03 6.89652E-04-3.87467E-15
 -1      1198 2.43937E-03 7.03398E-04-5.11485E-15
 -1      1199 2.71235E-03 7.12401E-04-6.51978E-15
 -1      1200 2.98755E-03 7.17964E-04-8.08907E-15
 -1      1201 3.26471E-03 7.21066E-04-9.81699E-15
 -1      1202 3.54356E-03 7.22433E-04-1.17000E-14
 -1      1203 3.82383E-03 7.22584E-04-1.37357E-14
 -1      1204 4.10526E-03 7.21883E-04-1.59226E-14
 -1      1205 4.38764E-03 7.20566E-04-1.82603E-14
 -1      1206 4.67080E-03 7.18772E-04-2.07372E-14
 -1      1207 4.95460E-03 7.16566E-04-2.33468E-14
 -1      1208 5.23897E-03 7.13956E-04-2.60943E-14
 -1      1209 5.52390E-03 7.10911E-04-2.89801E-14
 -1      1210 5.80945E-03 7.07378E-04-3.19956E-14
 -1      1211 6.09574E-03 7.03298E-04-3.51342E-14
 -1      1212 6.38298E-03 6.98628E-04-3.83952E-14
 -1      1213 6.67149E-03 6.93364E-04-4.17895E-14
 -1      1214 6.96168E-03 6.87581E-04-4.53076E-14
 -1      1215 7.25410E-03 6.81470E-04-4.89427E-14
 -1      1216 7.54939E-03 6.75403E-04-5.26940E-14
 -1      1217 7.84829E-03 6.69995E-04-5.65548E-14
 -1      1218 8.15160E-03 6.66195E-04-6.05145E-14
 -1      1219 8.46007E-03 6.65358E-04-6.45724E-14
 -1      1220 8.77425E-03 6.69321E-04-6.87301E-14
 -1      1221 9.09429E-03 6.80394E-04-7.29918E-14
 -1      1222 9.41953E-03 7.01235E-04-7.73473E-14
 -1      1223 9.74819E-03 7.34463E-04-8.17999E-14
 -1      1224 1.00770E-02 7.81924E-04-8.63656E-14
 -1      1225 1.04009E-02 8.43505E-04-9.10573E-14
 -1      1226 1.07140E-02 9.15679E-04-9.58617E-14
 -1      1227 1.10100E-02 9.90307E-04-1.00770E-13
 -1      1228 1.12851E-02 1.05468E-03-1.05755E-13
 -1      1229 1.15397E-02 1.09372E-03-1.10808E-13
 -1      1230 1.17794E-02 1.09431E-03-1.15930E-13
 -1      1231 1.20141E-02 1.04990E-03-1.21108E-13
 -1      1232 1.22539E-02 9.62898E-04-1.26317E-13
 -1      1233 1.25056E-02 8.43016E-04-1.31549E-13
 -1      1234 1.27712E-02 7.02838E-04-1.36798E-13
 -1      1235 1.30478E-02 5.53113E-04-1.42060E-13
 -1      1236 1.33308E-02 4.00083E-04-1.47341E-13
 -1      1237 1.36158E-02 2.45445E-04-1.52645E-13
 -1      1238 1.39007E-02 8.84113E-05-1.57961E-13
 -1      1239 1.41784E-02-6.71580E-05-1.63154E-13
 -1      1240 1.43926E-02-1.85496E-04-1.65709E-13
 -1      1241 1.45506E-02-2.70319E-04-1.65769E-13
 -1      1242 1.47128E-02-3.54369E-04-1.65825E-13
 -1      1243 1.48823E-02-4.34080E-04-1.65867E-13
 -1      1244 1.50595E-02-5.03675E-04-1.65916E-13
 -1      1245 1.52387E-02-5.55610E-04-1.65984E-13
 -1      1246 1.54121E-02-5.83860E-04-1.66083E-13
 -1      1247 1.55658E-02-5.84676E-04-1.66189E-13
 -1      1248 1.56803E-02-5.59793E-04-1.66277E-13
 -1      1249 1.57400E-02-5.18295E-04-1.66348E-13
 -1      1250 1.57375E-02-4.74532E-04-1.66386E-13
 -1      1251 1.56776E-02-4.43963E-04-1.66424E-13
 -1      1252 1.55737E-02-4.37364E-04-1.66464E-13
 -1      1253 1.54430E-02-4.59834E-04-1.66458E-13
 -1      1254 1.53044E-02-5.10116E-04-1.66407E-13
 -1      1255 1.51721E-02-5.81590E-04-1.66333E-13
 -1      1256 1.50535E-02-6.63944E-04-1.66261E-13
 -1      1257 1.45000E-02-2.88510E-04-1.28663E-13
 -1      1258 1.43604E-02-1.14502E-04-1.28134E-13
 -1      1259 1.40988E-02 6.84462E-05-1.27040E-13
 -1      1260 1.37467E-02 2.49595E-04-1.25448E-13
 -1      1261 1.33459E-02 4.10532E-04-1.23522E-13
 -1      1262 1.29025E-02 5.44784E-04-1.21258E-13
 -1      1263 1.24451E-02 6.29732E-04-1.18820E-13
 -1      1264 1.19513E-02 6.55722E-04-1.16119E-13
 -1      1265 1.14667E-02 6.16335E-04-1.13461E-13
 -1      1266 1.10181E-02 5.19241E-04-1.11048E-13
 -1      1267 1.05995E-02 3.80385E-04-1.08872E-13
 -1      1268 1.02579E-02 2.25951E-04-1.07176E-13
 -1      1269 1.00002E-02 6.42831E-05-1.05941E-13
 -1      1270 9.84738E-03-1.01888E-04-1.05214E-13
 -1      1271 9.81915E-03-2.58881E-04-1.05066E-13
 -1      1272 9.90869E-03-4.22669E-04-1.05440E-13
 -1      1273 1.01064E-02-5.96662E-04-1.06330E-13
 -1      1274 1.03863E-02-7.72162E-04-1.07635E-13
 -1      1275 1.07499E-02-9.54016E-04-1.09392E-13
 -1      1276 1.11642E-02-1.11775E-03-1.11477E-13
 -1      1277 1.16235E-02-1.24547E-03-1.13883E-13
 -1      1278 1.21137E-02-1.31570E-03-1.16501E-13
 -1      1279 1.25891E-02-1.31018E-03-1.19045E-13
 -1      1280 1.30439E-02-1.23911E-03-1.21446E-13
 -1      1281 1.34704E-02-1.11942E-03-1.23628E-13
 -1      1282 1.38537E-02-9.68209E-04-1.25516E-13
 -1      1283 1.41695E-02-8.02647E-04-1.27025E-13
 -1      1284 1.44004E-02-6.29102E-04-1.28096E-13
 -1      1285 1.45146E-02-4.58842E-04-1.28640E-13
 -1      1286 1.66710E-04-1.10341E-04 6.91179E-19
 -1      1287 1.12546E-04-5.69704E-05-3.21059E-17
 -1      1288 1.17629E-04-6.75794E-05-2.31342E-17
 -1      1289 1.08418E-04-4.34884E-05-4.69866E-17
 -1      1290 1.10281E-04-4.96003E-05-4.24465E-17
 -1      1291 2.26332E-04-1.07615E-04-9.94891E-17
 -1      1292 1.06847E-04-3.36175E-05-5.55247E-17
 -1      1293 1.07692E-04-3.83426E-05-5.29768E-17
 -1      1294 2.19101E-04-8.24657E-05-1.26608E-16
 -1      1295 1.06066E-04-2.53472E-05-6.07424E-17
 -1      1296 1.06499E-04-2.93793E-05-5.94007E-17
 -1      1297 2.15881E-04-6.32791E-05-1.43047E-16
 -1      1298 1.05656E-04-1.80901E-05-6.37646E-17
 -1      1299 1.05887E-04-2.16578E-05-6.31683E-17
 -1      1300 2.14209E-04-4.71839E-05-1.53198E-16
 -1      1301 1.05435E-04-1.12388E-05-6.56349E-17
 -1      1302 1.05559E-04-1.46238E-05-6.53774E-17
 -1      1303 2.13287E-04-3.27517E-05-1.59432E-16
 -1      1304 1.05335E-04-4.68905E-06-6.64480E-17
 -1      1305 1.05388E-04-7.94228E-06-6.63938E-17
 -1      1306 2.12789E-04-1.91897E-05-1.62779E-16
 -1      1307 1.05323E-04 1.74286E-06-6.66784E-17
 -1      1308 1.05321E-04-1.47051E-06-6.67733E-17
 -1      1309 2.12574E-04-6.16034E-06-1.64297E-16
 -1      1310 1.05396E-04 8.22445E-06-6.61363E-17
 -1      1311 1.05339E-04 4.96468E-06-6.63261E-17
 -1      1312 2.12582E-04 6.70827E-06-1.64121E-16
 -1      1313 1.05575E-04 1.49315E-05-6.47675E-17
 -1      1314 1.05447E-04 1.15316E-05-6.51606E-17
 -1      1315 2.12814E-04 1.97638E-05-1.62007E-16
 -1      1316 1.05909E-04 2.19502E-05-6.24365E-17
 -1      1317 1.05674E-04 1.83590E-05-6.31548E-17
 -1      1318 2.13328E-04 3.32658E-05-1.58144E-16
 -1      1319 1.06535E-04 2.98168E-05-5.83843E-17
 -1      1320 1.06095E-04 2.57399E-05-5.97395E-17
 -1      1321 2.14271E-04 4.77934E-05-1.51422E-16
 -1      1322 1.07727E-04 3.89158E-05-5.19468E-17
 -1      1323 1.06875E-04 3.41220E-05-5.44269E-17
 -1      1324 2.15979E-04 6.42062E-05-1.40879E-16
 -1      1325 1.10269E-04 5.03433E-05-4.10642E-17
 -1      1326 1.08430E-04 4.41592E-05-4.57398E-17
 -1      1327 2.19210E-04 8.37046E-05-1.24073E-16
 -1      1328 1.16944E-04 6.76175E-05-2.25785E-17
 -1      1329 1.12193E-04 5.77722E-05-3.15909E-17
 -1      1330 2.26328E-04 1.09442E-04-9.74020E-17
 -1      1331 1.57588E-04 1.09860E-04 7.22350E-18
 -1      1332 1.35670E-04 8.60898E-05-1.16823E-17
 -1      1333 2.56054E-04 1.52091E-04-6.46998E-17
 -1      1334 3.35105E-04 2.20738E-04-1.60868E-17
 -1      1335 4.21568E-04-2.61740E-04-4.93448E-17
 -1      1336 5.74677E-04-3.36803E-04-1.16863E-16
 -1      1337 7.21876E-04-3.97409E-04-2.31342E-16
 -1      1338 8.65055E-04-4.46708E-04-3.89730E-16
 -1      1339 6.12114E-04-3.30897E-04-2.24972E-16
 -1      1340 1.00509E-03-4.87786E-04-5.90172E-16
 -1      1341 1.14295E-03-5.21780E-04-8.33955E-16
 -1      1342 9.05367E-04-4.31602E-04-5.56521E-16
 -1      1343 1.27946E-03-5.50560E-04-1.12047E-15
 -1      1344 1.41511E-03-5.74606E-04-1.45015E-15
 -1      1345 1.18782E-03-5.01034E-04-1.05666E-15
 -1      1346 1.55037E-03-5.94983E-04-1.82231E-15
 -1      1347 1.68548E-03-6.12024E-04-2.23690E-15
 -1      1348 1.46477E-03-5.49825E-04-1.72594E-15
 -1      1349 1.82068E-03-6.26357E-04-2.69401E-15
 -1      1350 1.95608E-03-6.38275E-04-3.19357E-15
 -1      1351 1.73948E-03-5.84157E-04-2.56387E-15
 -1      1352 2.09181E-03-6.48181E-04-3.73520E-15
 -1      1353 2.22790E-03-6.56323E-04-4.31912E-15
 -1      1354 2.01381E-03-6.08009E-04-3.56983E-15
 -1      1355 2.36442E-03-6.62978E-04-4.94449E-15
 -1      1356 2.50137E-03-6.68350E-04-5.61066E-15
 -1      1357 2.28875E-03-6.24196E-04-4.74267E-15
 -1      1358 2.63877E-03-6.72635E-04-6.31845E-15
 -1      1359 2.77661E-03-6.75996E-04-7.06633E-15
 -1      1360 2.56477E-03-6.34791E-04-6.07964E-15
 -1      1361 2.91487E-03-6.78572E-04-7.85263E-15
 -1      1362 3.05355E-03-6.80493E-04-8.67801E-15
 -1      1363 2.84205E-03-6.41346E-04-7.57695E-15
 -1      1364 3.19262E-03-6.81856E-04-9.54139E-15
 -1      1365 3.33205E-03-6.82759E-04-1.04426E-14
 -1      1366 3.12062E-03-6.45023E-04-9.22888E-15
 -1      1367 3.47183E-03-6.83272E-04-1.13807E-14
 -1      1368 3.61192E-03-6.83467E-04-1.23554E-14
 -1      1369 3.40040E-03-6.46679E-04-1.10315E-14
 -1      1370 3.75231E-03-6.83390E-04-1.33664E-14
 -1      1371 3.89296E-03-6.83094E-04-1.44132E-14
 -1      1372 3.68128E-03-6.46934E-04-1.29825E-14
 -1      1373 4.03386E-03-6.82605E-04-1.54966E-14
 -1      1374 4.17498E-03-6.81962E-04-1.66165E-14
 -1      1375 3.96309E-03-6.46224E-04-1.50782E-14
 -1      1376 4.31631E-03-6.81177E-04-1.77720E-14
 -1      1377 4.45782E-03-6.80276E-04-1.89640E-14
 -1      1378 4.24572E-03-6.44837E-04-1.73176E-14
 -1      1379 4.59950E-03-6.79261E-04-2.01920E-14
 -1      1380 4.74134E-03-6.78147E-04-2.14555E-14
 -1      1381 4.52905E-03-6.42948E-04-1.97007E-14
 -1      1382 4.88333E-03-6.76928E-04-2.27532E-14
 -1      1383 5.02546E-03-6.75611E-04-2.40841E-14
 -1      1384 4.81297E-03-6.40643E-04-2.22258E-14
 -1      1385 5.16772E-03-6.74185E-04-2.54505E-14
 -1      1386 5.31013E-03-6.72651E-04-2.68508E-14
 -1      1387 5.09743E-03-6.37937E-04-2.48886E-14
 -1      1388 5.45267E-03-6.70992E-04-2.82847E-14
 -1      1389 5.59536E-03-6.69208E-04-2.97517E-14
 -1      1390 5.38242E-03-6.34796E-04-2.76869E-14
 -1      1391 5.73821E-03-6.67275E-04-3.12509E-14
 -1      1392 5.88123E-03-6.65194E-04-3.27834E-14
 -1      1393 5.66798E-03-6.31144E-04-3.06184E-14
 -1      1394 6.02446E-03-6.62937E-04-3.43496E-14
 -1      1395 6.16791E-03-6.60509E-04-3.59478E-14
 -1      1396 5.95419E-03-6.26880E-04-3.36817E-14
 -1      1397 6.31161E-03-6.57879E-04-3.75795E-14
 -1      1398 6.45562E-03-6.55057E-04-3.92438E-14
 -1      1399 6.24123E-03-6.21894E-04-3.68784E-14
 -1      1400 6.59998E-03-6.52014E-04-4.09403E-14
 -1      1401 6.74474E-03-6.48768E-04-4.26693E-14
 -1      1402 6.52933E-03-6.16082E-04-4.02053E-14
 -1      1403 6.88997E-03-6.45295E-04-4.44299E-14
 -1      1404 7.03574E-03-6.41630E-04-4.62231E-14
 -1      1405 6.81884E-03-6.09368E-04-4.36610E-14
 -1      1406 7.18215E-03-6.37755E-04-4.80456E-14
 -1      1407 7.32928E-03-6.33733E-04-4.98958E-14
 -1      1408 7.11024E-03-6.01744E-04-4.72410E-14
 -1      1409 7.47727E-03-6.29559E-04-5.17762E-14
 -1      1410 7.62621E-03-6.25336E-04-5.36853E-14
 -1      1411 7.40411E-03-5.93313E-04-5.09407E-14
 -1      1412 7.77626E-03-6.21086E-04-5.56213E-14
 -1      1413 7.92757E-03-6.16965E-04-5.75869E-14
 -1      1414 7.70123E-03-5.84367E-04-5.47547E-14
 -1      1415 8.08032E-03-6.13044E-04-5.95801E-14
 -1      1416 8.23467E-03-6.09553E-04-6.15996E-14
 -1      1417 8.00254E-03-5.75491E-04-5.86810E-14
 -1      1418 8.39084E-03-6.06644E-04-6.36456E-14
 -1      1419 8.54902E-03-6.04644E-04-6.57178E-14
 -1      1420 8.30914E-03-5.67720E-04-6.27158E-14
 -1      1421 8.70943E-03-6.03834E-04-6.78164E-14
 -1      1422 8.87227E-03-6.04670E-04-6.99380E-14
 -1      1423 8.62231E-03-5.62767E-04-6.68570E-14
 -1      1424 9.03776E-03-6.07626E-04-7.20849E-14
 -1      1425 9.20605E-03-6.13315E-04-7.42545E-14
 -1      1426 8.94339E-03-5.63330E-04-7.10982E-14
 -1      1427 9.37730E-03-6.22480E-04-7.64470E-14
 -1      1428 9.55156E-03-6.35901E-04-7.86621E-14
 -1      1429 9.27361E-03-5.73481E-04-7.54345E-14
 -1      1430 9.72883E-03-6.54646E-04-8.09011E-14
 -1      1431 9.90893E-03-6.79619E-04-8.31606E-14
 -1      1432 9.61383E-03-5.99061E-04-7.98630E-14
 -1      1433 1.00916E-02-7.12164E-04-8.54434E-14
 -1      1434 1.02763E-02-7.53147E-04-8.77495E-14
 -1      1435 9.96403E-03-6.47858E-04-8.43813E-14
 -1      1436 1.04623E-02-8.03874E-04-9.00759E-14
 -1      1437 1.06486E-02-8.64766E-04-9.24244E-14
 -1      1438 1.03227E-02-7.28999E-04-8.89878E-14
 -1      1439 1.08341E-02-9.36355E-04-9.47943E-14
 -1      1440 1.10171E-02-1.01788E-03-9.71833E-14
 -1      1441 1.06860E-02-8.50586E-04-9.36798E-14
 -1      1442 1.11963E-02-1.10797E-03-9.95924E-14
 -1      1443 1.13699E-02-1.20378E-03-1.02023E-13
 -1      1444 1.10473E-02-1.01443E-03-9.84555E-14
 -1      1445 1.15367E-02-1.30118E-03-1.04470E-13
 -1      1446 1.16957E-02-1.39503E-03-1.06934E-13
 -1      1447 1.13973E-02-1.20812E-03-1.03308E-13
 -1      1448 1.18468E-02-1.47915E-03-1.09419E-13
 -1      1449 1.19909E-02-1.54776E-03-1.11922E-13
 -1      1450 1.17275E-02-1.39885E-03-1.08236E-13
 -1      1451 1.21291E-02-1.59555E-03-1.14442E-13
 -1      1452 1.22642E-02-1.61930E-03-1.16981E-13
 -1      1453 1.20354E-02-1.53879E-03-1.13237E-13
 -1      1454 1.23984E-02-1.61800E-03-1.19538E-13
 -1      1455 1.25347E-02-1.59303E-03-1.22112E-13
 -1      1456 1.23293E-02-1.58718E-03-1.18312E-13
 -1      1457 1.26747E-02-1.54828E-03-1.24703E-13
 -1      1458 1.28200E-02-1.48858E-03-1.27312E-13
 -1      1459 1.26247E-02-1.53603E-03-1.23459E-13
 -1      1460 1.29709E-02-1.41984E-03-1.29939E-13
 -1      1461 1.31268E-02-1.34719E-03-1.32582E-13
 -1      1462 1.29328E-02-1.41457E-03-1.28673E-13
 -1      1463 1.32869E-02-1.27514E-03-1.35242E-13
 -1      1464 1.34495E-02-1.20674E-03-1.37919E-13
 -1      1465 1.32547E-02-1.26783E-03-1.33959E-13
 -1      1466 1.36133E-02-1.14361E-03-1.40607E-13
 -1      1467 1.37767E-02-1.08645E-03-1.43300E-13
 -1      1468 1.35833E-02-1.13078E-03-1.39303E-13
 -1      1469 1.39385E-02-1.03445E-03-1.46004E-13
 -1      1470 1.40978E-02-9.86736E-04-1.48717E-13
 -1      1471 1.39096E-02-1.01723E-03-1.44690E-13
 -1      1472 1.42540E-02-9.41233E-04-1.51438E-13
 -1      1473 1.44068E-02-8.96378E-04-1.54165E-13
 -1      1474 1.42269E-02-9.23155E-04-1.50113E-13
 -1      1475 1.45563E-02-8.50023E-04-1.56903E-13
 -1      1476 1.47029E-02-8.00708E-04-1.59649E-13
 -1      1477 1.45322E-02-8.35073E-04-1.55571E-13
 -1      1478 1.49176E-02-7.18405E-04-1.63641E-13
 -1      1479 1.48970E-02-7.09872E-04-1.62300E-13
 -1      1480 6.43121E-04 3.72016E-04-1.41231E-16
 -1      1481 4.92983E-04 3.03691E-04-5.61888E-17
 -1      1482 4.44910E-04 2.65893E-04-9.21436E-17
 -1      1483 9.28730E-04 4.71987E-04-4.42707E-16
 -1      1484 7.87855E-04 4.26492E-04-2.70332E-16
 -1      1485 7.44792E-04 3.90718E-04-3.12413E-16
 -1      1486 1.20365E-03 5.41420E-04-9.16435E-16
 -1      1487 1.06697E-03 5.09733E-04-6.57718E-16
 -1      1488 1.03086E-03 4.76168E-04-7.04623E-16
 -1      1489 1.47422E-03 5.90636E-04-1.56335E-15
 -1      1490 1.33915E-03 5.68167E-04-1.21833E-15
 -1      1491 1.30880E-03 5.36008E-04-1.26712E-15
 -1      1492 1.74378E-03 6.25557E-04-2.38264E-15
 -1      1493 1.60895E-03 6.09642E-04-1.95148E-15
 -1      1494 1.58305E-03 5.78317E-04-2.00019E-15
 -1      1495 2.01401E-03 6.50052E-04-3.37057E-15
 -1      1496 1.87872E-03 6.38935E-04-2.85573E-15
 -1      1497 1.85623E-03 6.08074E-04-2.90244E-15
 -1      1498 2.28571E-03 6.66867E-04-4.52435E-15
 -1      1499 2.14964E-03 6.59288E-04-3.92676E-15
 -1      1500 2.12977E-03 6.28661E-04-3.97134E-15
 -1      1501 2.55921E-03 6.78047E-04-5.84374E-15
 -1      1502 2.42223E-03 6.73061E-04-5.16335E-15
 -1      1503 2.40435E-03 6.42527E-04-5.20563E-15
 -1      1504 2.83455E-03 6.85129E-04-7.32643E-15
 -1      1505 2.69665E-03 6.82023E-04-6.56479E-15
 -1      1506 2.68028E-03 6.51500E-04-6.60262E-15
 -1      1507 3.11164E-03 6.89272E-04-8.97013E-15
 -1      1508 2.97289E-03 6.87510E-04-8.12870E-15
 -1      1509 2.95763E-03 6.56950E-04-8.16139E-15
 -1      1510 3.39031E-03 6.91337E-04-1.07697E-14
 -1      1511 3.25079E-03 6.90521E-04-9.84995E-15
 -1      1512 3.23636E-03 6.59900E-04-9.87750E-15
 -1      1513 3.67034E-03 6.91951E-04-1.27225E-14
 -1      1514 3.53017E-03 6.91795E-04-1.17271E-14
 -1      1515 3.51634E-03 6.61102E-04-1.17479E-14
 -1      1516 3.95153E-03 6.91557E-04-1.48271E-14
 -1      1517 3.81080E-03 6.91859E-04-1.37560E-14
 -1      1518 3.79742E-03 6.61094E-04-1.37702E-14
 -1      1519 4.23368E-03 6.90453E-04-1.70808E-14
 -1      1520 4.09249E-03 6.91080E-04-1.59353E-14
 -1      1521 4.07944E-03 6.60250E-04-1.59417E-14
 -1      1522 4.51664E-03 6.88826E-04-1.94808E-14
 -1      1523 4.37507E-03 6.89697E-04-1.82628E-14
 -1      1524 4.36226E-03 6.58808E-04-1.82609E-14
 -1      1525 4.80027E-03 6.86771E-04-2.20157E-14
 -1      1526 4.65838E-03 6.87848E-04-2.07314E-14
 -1      1527 4.64575E-03 6.56909E-04-2.07207E-14
 -1      1528 5.08449E-03 6.84322E-04-2.46874E-14
 -1      1529 4.94231E-03 6.85595E-04-2.33347E-14
 -1      1530 4.92984E-03 6.54613E-04-2.33175E-14
 -1      1531 5.36927E-03 6.81460E-04-2.74959E-14
 -1      1532 5.22682E-03 6.82943E-04-2.60744E-14
 -1      1533 5.21448E-03 6.51922E-04-2.60498E-14
 -1      1534 5.65464E-03 6.78135E-04-3.04384E-14
 -1      1535 5.51188E-03 6.79857E-04-2.89502E-14
 -1      1536 5.49966E-03 6.48797E-04-2.89165E-14
 -1      1537 5.94067E-03 6.74283E-04-3.35078E-14
 -1      1538 5.79756E-03 6.76276E-04-3.19571E-14
 -1      1539 5.78545E-03 6.45171E-04-3.19144E-14
 -1      1540 6.22753E-03 6.69838E-04-3.67007E-14
 -1      1541 6.08399E-03 6.72133E-04-3.50891E-14
 -1      1542 6.07194E-03 6.40971E-04-3.50397E-14
 -1      1543 6.51546E-03 6.64764E-04-4.00214E-14
 -1      1544 6.37134E-03 6.67373E-04-3.83451E-14
 -1      1545 6.35934E-03 6.36132E-04-3.82891E-14
 -1      1546 6.80478E-03 6.59075E-04-4.34697E-14
 -1      1547 6.65992E-03 6.61983E-04-4.17301E-14
 -1      1548 6.64788E-03 6.30628E-04-4.16659E-14
 -1      1549 7.09593E-03 6.52882E-04-4.70387E-14
 -1      1550 6.95010E-03 6.56018E-04-4.52395E-14
 -1      1551 6.93790E-03 6.24501E-04-4.51663E-14
 -1      1552 7.38943E-03 6.46439E-04-5.07229E-14
 -1      1553 7.24235E-03 6.49654E-04-4.88656E-14
 -1      1554 7.22983E-03 6.17910E-04-4.87848E-14
 -1      1555 7.68589E-03 6.40207E-04-5.45223E-14
 -1      1556 7.53725E-03 6.43241E-04-5.26097E-14
 -1      1557 7.52416E-03 6.11186E-04-5.25199E-14
 -1      1558 7.98598E-03 6.34938E-04-5.84261E-14
 -1      1559 7.83544E-03 6.37375E-04-5.64609E-14
 -1      1560 7.82146E-03 6.04904E-04-5.63652E-14
 -1      1561 8.29036E-03 6.31756E-04-6.24298E-14
 -1      1562 8.13759E-03 6.32983E-04-6.04159E-14
 -1      1563 8.12230E-03 5.99973E-04-6.03123E-14
 -1      1564 8.59958E-03 6.32247E-04-6.65313E-14
 -1      1565 8.44433E-03 6.31415E-04-6.44679E-14
 -1      1566 8.42722E-03 5.97729E-04-6.43603E-14
 -1      1567 8.91392E-03 6.38506E-04-7.07361E-14
 -1      1568 8.75610E-03 6.34509E-04-6.86209E-14
 -1      1569 8.73659E-03 6.00010E-04-6.85089E-14
 -1      1570 9.23314E-03 6.53098E-04-7.50411E-14
 -1      1571 9.07295E-03 6.44611E-04-7.28766E-14
 -1      1572 9.05048E-03 6.09184E-04-7.27578E-14
 -1      1573 9.55622E-03 6.78841E-04-7.94397E-14
 -1      1574 9.39429E-03 6.64457E-04-7.72285E-14
 -1      1575 9.36842E-03 6.28049E-04-7.71054E-14
 -1      1576 9.88105E-03 7.18273E-04-8.39465E-14
 -1      1577 9.71859E-03 6.96811E-04-8.16781E-14
 -1      1578 9.68921E-03 6.59492E-04-8.15531E-14
 -1      1579 1.02043E-02 7.72701E-04-8.85655E-14
 -1      1580 1.00431E-02 7.43736E-04-8.62408E-14
 -1      1581 1.00107E-02 7.05768E-04-8.61092E-14
 -1      1582 1.05213E-02 8.40803E-04-9.33029E-14
 -1      1583 1.03639E-02 8.05404E-04-9.09212E-14
 -1      1584 1.03296E-02 7.67316E-04-9.07807E-14
 -1      1585 1.08273E-02 9.17104E-04-9.81473E-14
 -1      1586 1.06760E-02 8.78574E-04-9.57116E-14
 -1      1587 1.06422E-02 8.41187E-04-9.55582E-14
 -1      1588 1.11180E-02 9.91084E-04-1.03079E-13
 -1      1589 1.09748E-02 9.55270E-04-1.00604E-13
 -1      1590 1.09443E-02 9.19601E-04-1.00434E-13
 -1      1591 1.13918E-02 1.04809E-03-1.08087E-13
 -1      1592 1.12570E-02 1.02266E-03-1.05573E-13
 -1      1593 1.12333E-02 9.89667E-04-1.05391E-13
 -1      1594 1.16509E-02 1.07268E-03-1.13167E-13
 -1      1595 1.15229E-02 1.06516E-03-1.10619E-13
 -1      1596 1.15088E-02 1.03538E-03-1.10427E-13
 -1      1597 1.19013E-02 1.05375E-03-1.18311E-13
 -1      1598 1.17767E-02 1.06889E-03-1.15730E-13
 -1      1599 1.17742E-02 1.04215E-03-1.15531E-13
 -1      1600 1.21510E-02 9.88664E-04-1.23497E-13
 -1      1601 1.20257E-02 1.02664E-03-1.20901E-13
 -1      1602 1.20352E-02 1.00209E-03-1.20692E-13
 -1      1603 1.24070E-02 8.83930E-04-1.28717E-13
 -1      1604 1.22779E-02 9.40505E-04-1.26103E-13
 -1      1605 1.22981E-02 9.17000E-04-1.25891E-13
 -1      1606 1.26728E-02 7.51798E-04-1.33952E-13
 -1      1607 1.25385E-02 8.20453E-04-1.31333E-13
 -1      1608 1.25675E-02 7.97023E-04-1.31115E-13
 -1      1609 1.29483E-02 6.05016E-04-1.39206E-13
 -1      1610 1.28095E-02 6.79596E-04-1.36577E-13
 -1      1611 1.28447E-02 6.55746E-04-1.36357E-13
 -1      1612 1.32307E-02 4.52698E-04-1.44478E-13
 -1      1613 1.30889E-02 5.29224E-04-1.41840E-13
 -1      1614 1.31282E-02 5.04944E-04-1.41617E-13
 -1      1615 1.35163E-02 2.98822E-04-1.49766E-13
 -1      1616 1.33733E-02 3.75902E-04-1.47117E-13
 -1      1617 1.34152E-02 3.51478E-04-1.46894E-13
 -1      1618 1.38024E-02 1.43345E-04-1.55075E-13
 -1      1619 1.36594E-02 2.21352E-04-1.52418E-13
 -1      1620 1.37030E-02 1.97115E-04-1.52193E-13
 -1      1621 1.40880E-02-1.49778E-05-1.60397E-13
 -1      1622 1.39452E-02 6.45566E-05-1.57736E-13
 -1      1623 1.39899E-02 4.06475E-05-1.57510E-13
 -1      1624 1.42569E-02-1.09287E-04-1.63179E-13
 -1      1625 1.44668E-02-2.20885E-04-1.63472E-13
 -1      1626 1.43871E-02-1.79136E-04-1.63444E-13
 -1      1627 1.46310E-02-3.02453E-04-1.63526E-13
 -1      1628 1.45481E-02-2.62112E-04-1.63500E-13
 -1      1629 1.43836E-02-1.71661E-04-1.61176E-13
 -1      1630 1.48035E-02-3.78501E-04-1.63573E-13
 -1      1631 1.47162E-02-3.41439E-04-1.63548E-13
 -1      1632 1.45501E-02-2.52033E-04-1.61226E-13
 -1      1633 1.49840E-02-4.44239E-04-1.63629E-13
 -1      1634 1.48930E-02-4.13002E-04-1.63602E-13
 -1      1635 1.47257E-02-3.26867E-04-1.61280E-13
 -1      1636 1.51641E-02-4.93506E-04-1.63700E-13
 -1      1637 1.50742E-02-4.71094E-04-1.63663E-13
 -1      1638 1.49078E-02-3.91672E-04-1.61339E-13
 -1      1639 1.53388E-02-5.23516E-04-1.63787E-13
 -1      1640 1.52535E-02-5.11239E-04-1.63739E-13
 -1      1641 1.50911E-02-4.42858E-04-1.61406E-13
 -1      1642 1.54880E-02-5.31712E-04-1.63872E-13
 -1      1643 1.54177E-02-5.30267E-04-1.63831E-13
 -1      1644 1.52642E-02-4.77355E-04-1.61478E-13
 -1      1645 1.55925E-02-5.21330E-04-1.63947E-13
 -1      1646 1.55468E-02-5.28435E-04-1.63914E-13
 -1      1647 1.54068E-02-4.94080E-04-1.61552E-13
 -1      1648 1.56378E-02-5.00693E-04-1.64004E-13
 -1      1649 1.56231E-02-5.11616E-04-1.63978E-13
 -1      1650 1.54996E-02-4.96651E-04-1.61616E-13
 -1      1651 1.56187E-02-4.81342E-04-1.64035E-13
 -1      1652 1.56361E-02-4.90102E-04-1.64023E-13
 -1      1653 1.55290E-02-4.92837E-04-1.61658E-13
 -1      1654 1.55440E-02-4.74530E-04-1.64063E-13
 -1      1655 1.55875E-02-4.75852E-04-1.64049E-13
 -1      1656 1.54936E-02-4.92518E-04-1.61683E-13
 -1      1657 1.54275E-02-4.87654E-04-1.64079E-13
 -1      1658 1.54897E-02-4.78280E-04-1.64077E-13
 -1      1659 1.54039E-02-5.04296E-04-1.61699E-13
 -1      1660 1.52896E-02-5.23644E-04-1.64058E-13
 -1      1661 1.53600E-02-5.02818E-04-1.64075E-13
 -1      1662 1.52770E-02-5.33599E-04-1.61694E-13
 -1      1663 1.51485E-02-5.80455E-04-1.64002E-13
 -1      1664 1.52186E-02-5.49728E-04-1.64033E-13
 -1      1665 1.51339E-02-5.81309E-04-1.61660E-13
 -1      1666 1.49882E-02-6.62045E-04-1.63135E-13
 -1      1667 1.50529E-02-6.24609E-04-1.63170E-13
 -1      1668 1.49641E-02-6.52846E-04-1.60805E-13
 -1      1669 1.47728E-02-7.41626E-04-1.59144E-13
 -1      1670 1.44885E-02-2.96628E-04-1.29733E-13
 -1      1671 1.45343E-02-3.50861E-04-1.29868E-13
 -1      1672 1.42918E-02-1.57723E-04-1.28893E-13
 -1      1673 1.43974E-02-2.21190E-04-1.29280E-13
 -1      1674 1.39402E-02 9.38179E-07-1.27766E-13
 -1      1675 1.41170E-02-8.76186E-05-1.28492E-13
 -1      1676 1.35618E-02 2.15952E-04-1.25748E-13
 -1      1677 1.37421E-02 1.26760E-04-1.26592E-13
 -1      1678 1.31197E-02 4.09697E-04-1.23656E-13
 -1      1679 1.33190E-02 3.14694E-04-1.24738E-13
 -1      1680 1.27139E-02 5.82965E-04-1.21041E-13
 -1      1681 1.29058E-02 5.12205E-04-1.22210E-13
 -1      1682 1.22998E-02 6.86461E-04-1.18369E-13
 -1      1683 1.24871E-02 6.48689E-04-1.19627E-13
 -1      1684 1.18635E-02 7.01934E-04-1.15336E-13
 -1      1685 1.20658E-02 7.10016E-04-1.16765E-13
 -1      1686 1.14395E-02 6.14006E-04-1.12583E-13
 -1      1687 1.16267E-02 6.61755E-04-1.13798E-13
 -1      1688 1.10238E-02 4.58185E-04-1.09939E-13
 -1      1689 1.12214E-02 5.37984E-04-1.11111E-13
 -1      1690 1.06003E-02 2.74516E-04-1.07722E-13
 -1      1691 1.07890E-02 3.61190E-04-1.08701E-13
 -1      1692 1.02461E-02 1.04815E-04-1.06021E-13
 -1      1693 1.03990E-02 1.78825E-04-1.06726E-13
 -1      1694 9.96611E-03-4.60030E-05-1.04737E-13
 -1      1695 1.00851E-02 1.84606E-05-1.05242E-13
 -1      1696 9.81338E-03-1.66238E-04-1.04032E-13
 -1      1697 9.86470E-03-1.16402E-04-1.04243E-13
 -1      1698 9.81387E-03-2.68204E-04-1.04192E-13
 -1      1699 9.79734E-03-2.21285E-04-1.04137E-13
 -1      1700 9.95801E-03-3.87923E-04-1.04619E-13
 -1      1701 9.87161E-03-3.26926E-04-1.04288E-13
 -1      1702 1.02111E-02-5.47178E-04-1.05788E-13
 -1      1703 1.00840E-02-4.74843E-04-1.05254E-13
 -1      1704 1.05485E-02-7.32320E-04-1.07301E-13
 -1      1705 1.03827E-02-6.42235E-04-1.06545E-13
 -1      1706 1.09516E-02-9.47029E-04-1.09307E-13
 -1      1707 1.07583E-02-8.45104E-04-1.08322E-13
 -1      1708 1.13668E-02-1.14529E-03-1.11561E-13
 -1      1709 1.11815E-02-1.05671E-03-1.10486E-13
 -1      1710 1.18088E-02-1.31028E-03-1.14236E-13
 -1      1711 1.16108E-02-1.24174E-03-1.12925E-13
 -1      1712 1.22222E-02-1.36902E-03-1.17119E-13
 -1      1713 1.20301E-02-1.35304E-03-1.15832E-13
 -1      1714 1.26361E-02-1.32960E-03-1.19858E-13
 -1      1715 1.24455E-02-1.36017E-03-1.18609E-13
 -1      1716 1.30369E-02-1.20593E-03-1.22465E-13
 -1      1717 1.28500E-02-1.27261E-03-1.21319E-13
 -1      1718 1.34564E-02-1.03134E-03-1.24760E-13
 -1      1719 1.32662E-02-1.11662E-03-1.23729E-13
 -1      1720 1.38548E-02-8.48228E-04-1.26677E-13
 -1      1721 1.36781E-02-9.33938E-04-1.25824E-13
 -1      1722 1.41914E-02-6.77987E-04-1.28208E-13
 -1      1723 1.40450E-02-7.53677E-04-1.27560E-13
 -1      1724 1.44379E-02-5.24128E-04-1.29397E-13
 -1      1725 1.43360E-02-5.87337E-04-1.28977E-13
 -1      1726 1.45414E-02-4.11511E-04-1.29717E-13
 -1      1727 1.45133E-02-4.62708E-04-1.29580E-13
 -1      1728 1.33625E-02 2.21831E-04-1.25925E-13
 -1      1729 1.37954E-02-4.60007E-06-1.28112E-13
 -1      1730 1.43021E-02-1.33120E-04-1.62956E-13
 -1      1731 1.42177E-02-8.46363E-05-1.60659E-13
 -1      1732 1.44460E-02-3.00532E-04-1.30555E-13
 -1      1733 1.41747E-02-1.81040E-04-1.29697E-13
 -1      1734 1.45494E-02-3.83440E-04-1.30864E-13
 -1      1735 1.29449E-02 4.44179E-04-1.23462E-13
 -1      1736 1.25476E-02 6.27604E-04-1.20600E-13
 -1      1737 1.21583E-02 7.26230E-04-1.17578E-13
 -1      1738 1.17790E-02 7.05193E-04-1.14434E-13
 -1      1739 1.13786E-02 5.75442E-04-1.11429E-13
 -1      1740 1.09693E-02 3.81915E-04-1.08729E-13
 -1      1741 1.05523E-02 1.78933E-04-1.06506E-13
 -1      1742 1.01889E-02 6.66636E-06-1.04742E-13
 -1      1743 9.91751E-03-1.18409E-04-1.03477E-13
 -1      1744 9.79562E-03-1.95711E-04-1.03097E-13
 -1      1745 9.83884E-03-2.72220E-04-1.03298E-13
 -1      1746 1.00316E-02-3.74996E-04-1.04024E-13
 -1      1747 1.03378E-02-5.34409E-04-1.05408E-13
 -1      1748 1.07169E-02-7.38815E-04-1.07175E-13
 -1      1749 1.11363E-02-9.72917E-04-1.09365E-13
 -1      1750 1.15609E-02-1.19749E-03-1.11897E-13
 -1      1751 1.19420E-02-1.35569E-03-1.14851E-13
 -1      1752 1.23218E-02-1.39150E-03-1.17938E-13
 -1      1753 1.26977E-02-1.31318E-03-1.20894E-13
 -1      1754 1.30848E-02-1.14513E-03-1.23628E-13
 -1      1755 1.35030E-02-9.40807E-04-1.25964E-13
 -1      1756 1.39056E-02-7.44659E-04-1.27916E-13
 -1      1757 1.42475E-02-5.77070E-04-1.29573E-13
 -1      1758 1.44779E-02-4.65651E-04-1.30530E-13
 -1      1759 2.85260E-04-1.76227E-04-4.96971E-17
 -1      1760 3.32152E-04-1.16781E-04-2.03234E-16
 -1      1761 3.36257E-04-1.32985E-04-1.87906E-16
 -1      1762 3.42214E-04-1.51988E-04-1.69515E-16
 -1      1763 3.51782E-04-1.73999E-04-1.44497E-16
 -1      1764 4.58311E-04-1.88054E-04-2.72216E-16
 -1      1765 3.24552E-04-6.53723E-05-2.37305E-16
 -1      1766 3.25701E-04-7.66650E-05-2.31437E-16
 -1      1767 3.23061E-04-4.38815E-05-2.45518E-16
 -1      1768 3.23714E-04-5.43689E-05-2.41926E-16
 -1      1769 4.36492E-04-7.92781E-05-3.54209E-16
 -1      1770 3.22278E-04-2.37671E-05-2.49475E-16
 -1      1771 3.22609E-04-3.36785E-05-2.47822E-16
 -1      1772 4.34497E-04-5.13091E-05-3.63980E-16
 -1      1773 3.21985E-04-4.33635E-06-2.51088E-16
 -1      1774 3.22081E-04-1.39868E-05-2.50505E-16
 -1      1775 4.33478E-04-2.49196E-05-3.68886E-16
 -1      1776 3.22107E-04 1.49779E-05-2.50003E-16
 -1      1777 3.21993E-04 5.31729E-06-2.50844E-16
 -1      1778 4.33182E-04 7.57205E-07-3.70092E-16
 -1      1779 3.22673E-04 3.47232E-05-2.46304E-16
 -1      1780 3.22322E-04 2.47791E-05-2.48580E-16
 -1      1781 4.33537E-04 2.64628E-05-3.67829E-16
 -1      1782 3.23802E-04 5.51570E-05-2.39649E-16
 -1      1783 3.23139E-04 4.47961E-05-2.43458E-16
 -1      1784 4.34614E-04 5.27138E-05-3.61622E-16
 -1      1785 3.25861E-04 7.78050E-05-2.28577E-16
 -1      1786 3.24662E-04 6.62256E-05-2.34947E-16
 -1      1787 4.36669E-04 8.05893E-05-3.50943E-16
 -1      1788 3.29551E-04 1.03641E-04-2.11325E-16
 -1      1789 3.27402E-04 9.02914E-05-2.21191E-16
 -1      1790 4.40319E-04 1.11555E-04-3.33867E-16
 -1      1791 3.36588E-04 1.35098E-04-1.83745E-16
 -1      1792 3.32405E-04 1.18600E-04-1.99453E-16
 -1      1793 4.46792E-04 1.47322E-04-3.07222E-16
 -1      1794 3.52318E-04 1.77594E-04-1.40214E-16
 -1      1795 3.42821E-04 1.54747E-04-1.64745E-16
 -1      1796 4.59331E-04 1.91443E-04-2.65914E-16
 -1      1797 4.07722E-04 2.33679E-04-1.11022E-16
 -1      1798 3.78109E-04 2.02653E-04-1.30782E-16
 -1      1799 4.95879E-04 2.43984E-04-2.29322E-16
 -1      1800 5.58579E-04 3.02496E-04-2.00984E-16
 -1      1801 3.40044E-04-1.90901E-04-9.84727E-17
 -1      1802 8.53621E-04 4.07110E-04-5.11418E-16
 -1      1803 7.07206E-04 3.59368E-04-3.35425E-16
 -1      1804 6.73437E-04 3.28799E-04-3.53274E-16
 -1      1805 4.58984E-04-2.36711E-04-1.85724E-16
 -1      1806 8.07280E-04-3.74113E-04-5.16609E-16
 -1      1807 9.52556E-04-4.15299E-04-7.31782E-16
 -1      1808 1.09540E-03-4.49985E-04-9.87911E-16
 -1      1809 1.23708E-03-4.78883E-04-1.28607E-15
 -1      1810 1.00398E-03-3.97913E-04-9.14890E-16
 -1      1811 1.37750E-03-5.03373E-04-1.62573E-15
 -1      1812 1.51720E-03-5.23752E-04-2.00758E-15
 -1      1813 1.28968E-03-4.55880E-04-1.52227E-15
 -1      1814 1.65637E-03-5.40938E-04-2.43086E-15
 -1      1815 1.79522E-03-5.55171E-04-2.89569E-15
 -1      1816 1.57210E-03-4.96838E-04-2.29501E-15
 -1      1817 1.93395E-03-5.67060E-04-3.40196E-15
 -1      1818 2.07262E-03-5.76807E-04-3.95003E-15
 -1      1819 1.85274E-03-5.25401E-04-3.23247E-15
 -1      1820 2.21138E-03-5.84830E-04-4.53980E-15
 -1      1821 2.35023E-03-5.91300E-04-5.16960E-15
 -1      1822 2.13265E-03-5.44904E-04-4.33486E-15
 -1      1823 2.48928E-03-5.96514E-04-5.83969E-15
 -1      1824 2.62850E-03-6.00611E-04-6.55075E-15
 -1      1825 2.41253E-03-5.57802E-04-5.59982E-15
 -1      1826 2.76797E-03-6.03803E-04-7.30110E-15
 -1      1827 2.90764E-03-6.06202E-04-8.08942E-15
 -1      1828 2.69277E-03-5.65925E-04-7.02419E-15
 -1      1829 3.04758E-03-6.07960E-04-8.91649E-15
 -1      1830 3.18773E-03-6.09163E-04-9.78089E-15
 -1      1831 2.97357E-03-5.70643E-04-8.60409E-15
 -1      1832 3.32812E-03-6.09919E-04-1.06827E-14
 -1      1833 3.46872E-03-6.10293E-04-1.16223E-14
 -1      1834 3.25503E-03-5.72968E-04-1.03348E-14
 -1      1835 3.60954E-03-6.10359E-04-1.25987E-14
 -1      1836 3.75055E-03-6.10164E-04-1.36109E-14
 -1      1837 3.53714E-03-5.73640E-04-1.22146E-14
 -1      1838 3.89176E-03-6.09757E-04-1.46590E-14
 -1      1839 4.03313E-03-6.09171E-04-1.57439E-14
 -1      1840 3.81988E-03-5.73182E-04-1.42407E-14
 -1      1841 4.17468E-03-6.08433E-04-1.68642E-14
 -1      1842 4.31637E-03-6.07568E-04-1.80198E-14
 -1      1843 4.10318E-03-5.71950E-04-1.64101E-14
 -1      1844 4.45821E-03-6.06587E-04-1.92116E-14
 -1      1845 4.60018E-03-6.05505E-04-2.04384E-14
 -1      1846 4.38699E-03-5.70167E-04-1.87233E-14
 -1      1847 4.74228E-03-6.04321E-04-2.17005E-14
 -1      1848 4.88450E-03-6.03043E-04-2.29969E-14
 -1      1849 4.67127E-03-5.67955E-04-2.11761E-14
 -1      1850 5.02684E-03-6.01662E-04-2.43273E-14
 -1      1851 5.16930E-03-6.00180E-04-2.56917E-14
 -1      1852 4.95596E-03-5.65356E-04-2.37677E-14
 -1      1853 5.31189E-03-5.98581E-04-2.70906E-14
 -1      1854 5.45459E-03-5.96864E-04-2.85229E-14
 -1      1855 5.24108E-03-5.62350E-04-2.64961E-14
 -1      1856 5.59744E-03-5.95006E-04-2.99873E-14
 -1      1857 5.74043E-03-5.93006E-04-3.14849E-14
 -1      1858 5.52662E-03-5.58871E-04-2.93584E-14
 -1      1859 5.88357E-03-5.90836E-04-3.30166E-14
 -1      1860 6.02689E-03-5.88495E-04-3.45812E-14
 -1      1861 5.81266E-03-5.54818E-04-3.23526E-14
 -1      1862 6.17041E-03-5.85953E-04-3.61784E-14
 -1      1863 6.31416E-03-5.83211E-04-3.78086E-14
 -1      1864 6.09928E-03-5.50071E-04-3.54809E-14
 -1      1865 6.45816E-03-5.80239E-04-3.94722E-14
 -1      1866 6.60247E-03-5.77045E-04-4.11668E-14
 -1      1867 6.38664E-03-5.44504E-04-3.87402E-14
 -1      1868 6.74709E-03-5.73600E-04-4.28932E-14
 -1      1869 6.89212E-03-5.69922E-04-4.46512E-14
 -1      1870 6.67494E-03-5.38007E-04-4.21284E-14
 -1      1871 7.03757E-03-5.65992E-04-4.64398E-14
 -1      1872 7.18355E-03-5.61843E-04-4.82588E-14
 -1      1873 6.96446E-03-5.30512E-04-4.56415E-14
 -1      1874 7.33006E-03-5.57471E-04-5.01078E-14
 -1      1875 7.47727E-03-5.52932E-04-5.19841E-14
 -1      1876 7.25555E-03-5.22032E-04-4.92762E-14
 -1      1877 7.62517E-03-5.48253E-04-5.38907E-14
 -1      1878 7.77395E-03-5.43522E-04-5.58241E-14
 -1      1879 7.54864E-03-5.12722E-04-5.30278E-14
 -1      1880 7.92361E-03-5.38816E-04-5.77848E-14
 -1      1881 8.07439E-03-5.34270E-04-5.97749E-14
 -1      1882 7.84427E-03-5.02965E-04-5.68929E-14
 -1      1883 8.22625E-03-5.30037E-04-6.17909E-14
 -1      1884 8.37949E-03-5.26324E-04-6.38330E-14
 -1      1885 8.14305E-03-4.93495E-04-6.08673E-14
 -1      1886 8.53406E-03-5.23404E-04-6.59004E-14
 -1      1887 8.69030E-03-5.21576E-04-6.79946E-14
 -1      1888 8.44573E-03-4.85583E-04-6.49482E-14
 -1      1889 8.84813E-03-5.21290E-04-7.01137E-14
 -1      1890 9.00790E-03-5.22979E-04-7.22567E-14
 -1      1891 8.75314E-03-4.81290E-04-6.91313E-14
 -1      1892 9.16957E-03-5.27331E-04-7.44247E-14
 -1      1893 9.33337E-03-5.34959E-04-7.66133E-14
 -1      1894 9.06624E-03-4.83800E-04-7.34151E-14
 -1      1895 9.49937E-03-5.46833E-04-7.88259E-14
 -1      1896 9.66758E-03-5.63795E-04-8.10619E-14
 -1      1897 9.38613E-03-4.97825E-04-7.77921E-14
 -1      1898 9.83827E-03-5.87070E-04-8.33189E-14
 -1      1899 1.00110E-02-6.17729E-04-8.55987E-14
 -1      1900 9.71412E-03-5.29974E-04-8.22596E-14
 -1      1901 1.01864E-02-6.57049E-04-8.78999E-14
 -1      1902 1.03633E-02-7.06191E-04-9.02218E-14
 -1      1903 1.00517E-02-5.88822E-04-8.68132E-14
 -1      1904 1.05427E-02-7.65976E-04-9.25674E-14
 -1      1905 1.07223E-02-8.37092E-04-9.49338E-14
 -1      1906 1.04001E-02-6.84096E-04-9.14576E-14
 -1      1907 1.09036E-02-9.19035E-04-9.73187E-14
 -1      1908 1.10834E-02-1.01090E-03-9.97255E-14
 -1      1909 1.07591E-02-8.23771E-04-9.61843E-14
 -1      1910 1.12626E-02-1.10987E-03-1.02149E-13
 -1      1911 1.14380E-02-1.21190E-03-1.04592E-13
 -1      1912 1.11249E-02-1.00751E-03-1.00992E-13
 -1      1913 1.16096E-02-1.31155E-03-1.07056E-13
 -1      1914 1.17765E-02-1.40170E-03-1.09536E-13
 -1      1915 1.14876E-02-1.21612E-03-1.05877E-13
 -1      1916 1.19373E-02-1.47600E-03-1.12037E-13
 -1      1917 1.20956E-02-1.52752E-03-1.14553E-13
 -1      1918 1.18349E-02-1.40425E-03-1.10835E-13
 -1      1919 1.22491E-02-1.55263E-03-1.17088E-13
 -1      1920 1.24045E-02-1.55008E-03-1.19643E-13
 -1      1921 1.21637E-02-1.51239E-03-1.15867E-13
 -1      1922 1.25595E-02-1.52147E-03-1.22216E-13
 -1      1923 1.27190E-02-1.47201E-03-1.24806E-13
 -1      1924 1.24870E-02-1.50490E-03-1.20974E-13
 -1      1925 1.28813E-02-1.40715E-03-1.27413E-13
 -1      1926 1.30467E-02-1.33405E-03-1.30037E-13
 -1      1927 1.28212E-02-1.39896E-03-1.26153E-13
 -1      1928 1.32149E-02-1.25832E-03-1.32680E-13
 -1      1929 1.33830E-02-1.18461E-03-1.35336E-13
 -1      1930 1.31682E-02-1.24741E-03-1.31400E-13
 -1      1931 1.35520E-02-1.11599E-03-1.38003E-13
 -1      1932 1.37185E-02-1.05378E-03-1.40685E-13
 -1      1933 1.35177E-02-1.09926E-03-1.36709E-13
 -1      1934 1.38837E-02-9.98380E-04-1.43378E-13
 -1      1935 1.40454E-02-9.48796E-04-1.46079E-13
 -1      1936 1.38585E-02-9.77550E-04-1.42065E-13
 -1      1937 1.42045E-02-9.03640E-04-1.48791E-13
 -1      1938 1.43600E-02-8.61023E-04-1.51511E-13
 -1      1939 1.41850E-02-8.82330E-04-1.47467E-13
 -1      1940 1.44942E-02-8.25097E-04-1.53952E-13
 -1      1941 1.46438E-02-7.81532E-04-1.56687E-13
 -1      1942 1.47399E-02-7.35988E-04-1.57516E-13
 -1      1943 1.44776E-02-8.07072E-04-1.52619E-13
 -1      1944 1.13869E-03 4.80079E-04-9.88210E-16
 -1      1945 9.96913E-04 4.46825E-04-7.28448E-16
 -1      1946 9.64524E-04 4.17368E-04-7.47435E-16
 -1      1947 1.41783E-03 5.31571E-04-1.63378E-15
 -1      1948 1.27866E-03 5.08117E-04-1.28975E-15
 -1      1949 1.24902E-03 4.79978E-04-1.30749E-15
 -1      1950 1.69423E-03 5.67881E-04-2.44825E-15
 -1      1951 1.55619E-03 5.51379E-04-2.02010E-15
 -1      1952 1.52931E-03 5.24205E-04-2.03506E-15
 -1      1953 1.96982E-03 5.93189E-04-3.42993E-15
 -1      1954 1.83203E-03 5.81740E-04-2.91825E-15
 -1      1955 1.80757E-03 5.55204E-04-2.92968E-15
 -1      1956 2.24567E-03 6.10449E-04-4.57662E-15
 -1      1957 2.10767E-03 6.02700E-04-3.98278E-15
 -1      1958 2.08520E-03 5.76568E-04-3.98954E-15
 -1      1959 2.52235E-03 6.21839E-04-5.88673E-15
 -1      1960 2.38389E-03 6.16784E-04-5.21134E-15
 -1      1961 2.36304E-03 5.90899E-04-5.21299E-15
 -1      1962 2.80010E-03 6.28985E-04-7.35801E-15
 -1      1963 2.66109E-03 6.25872E-04-6.60192E-15
 -1      1964 2.64151E-03 6.00129E-04-6.59755E-15
 -1      1965 3.07899E-03 6.33104E-04-8.98901E-15
 -1      1966 2.93941E-03 6.31371E-04-8.15373E-15
 -1      1967 2.92083E-03 6.05699E-04-8.14206E-15
 -1      1968 3.35900E-03 6.35097E-04-1.07749E-14
 -1      1969 3.21887E-03 6.34329E-04-9.86295E-15
 -1      1970 3.20105E-03 6.08684E-04-9.84378E-15
 -1      1971 3.64002E-03 6.35617E-04-1.27134E-14
 -1      1972 3.49939E-03 6.35515E-04-1.17253E-14
 -1      1973 3.48217E-03 6.09870E-04-1.16987E-14
 -1      1974 3.92194E-03 6.35124E-04-1.48023E-14
 -1      1975 3.78088E-03 6.35480E-04-1.37391E-14
 -1      1976 3.76410E-03 6.09819E-04-1.37040E-14
 -1      1977 4.20464E-03 6.33927E-04-1.70385E-14
 -1      1978 4.06320E-03 6.34603E-04-1.59018E-14
 -1      1979 4.04677E-03 6.08921E-04-1.58583E-14
 -1      1980 4.48800E-03 6.32216E-04-1.94197E-14
 -1      1981 4.34625E-03 6.33130E-04-1.82114E-14
 -1      1982 4.33007E-03 6.07426E-04-1.81588E-14
 -1      1983 4.77196E-03 6.30090E-04-2.19396E-14
 -1      1984 4.62992E-03 6.31203E-04-2.06628E-14
 -1      1985 4.61394E-03 6.05479E-04-2.06011E-14
 -1      1986 5.05645E-03 6.27579E-04-2.45962E-14
 -1      1987 4.91414E-03 6.28883E-04-2.32515E-14
 -1      1988 4.89831E-03 6.03143E-04-2.31820E-14
 -1      1989 5.34144E-03 6.24660E-04-2.73860E-14
 -1      1990 5.19888E-03 6.26172E-04-2.59738E-14
 -1      1991 5.18316E-03 6.00419E-04-2.58958E-14
 -1      1992 5.62698E-03 6.21276E-04-3.03099E-14
 -1      1993 5.48414E-03 6.23029E-04-2.88313E-14
 -1      1994 5.46850E-03 5.97265E-04-2.87431E-14
 -1      1995 5.91313E-03 6.17350E-04-3.33635E-14
 -1      1996 5.76998E-03 6.19383E-04-3.18207E-14
 -1      1997 5.75436E-03 5.93609E-04-3.17238E-14
 -1      1998 6.20003E-03 6.12804E-04-3.65418E-14
 -1      1999 6.05648E-03 6.15155E-04-3.49372E-14
 -1      2000 6.04084E-03 5.89364E-04-3.48324E-14
 -1      2001 6.48787E-03 6.07580E-04-3.98466E-14
 -1      2002 6.34382E-03 6.10274E-04-3.81789E-14
 -1      2003 6.32809E-03 5.84456E-04-3.80651E-14
 -1      2004 6.77692E-03 6.01672E-04-4.32770E-14
 -1      2005 6.63223E-03 6.04703E-04-4.15468E-14
 -1      2006 6.61631E-03 5.78838E-04-4.14243E-14
 -1      2007 7.06751E-03 5.95158E-04-4.68287E-14
 -1      2008 6.92200E-03 5.98474E-04-4.50371E-14
 -1      2009 6.90577E-03 5.72528E-04-4.49063E-14
 -1      2010 7.36006E-03 5.88258E-04-5.04957E-14
 -1      2011 7.21351E-03 5.91729E-04-4.86478E-14
 -1      2012 7.19679E-03 5.65655E-04-4.85072E-14
 -1      2013 7.65502E-03 5.81393E-04-5.42796E-14
 -1      2014 7.50720E-03 5.84779E-04-5.23740E-14
 -1      2015 7.48976E-03 5.58510E-04-5.22257E-14
 -1      2016 7.95293E-03 5.75270E-04-5.81672E-14
 -1      2017 7.80357E-03 5.78177E-04-5.62103E-14
 -1      2018 7.78513E-03 5.51621E-04-5.60542E-14
 -1      2019 8.25430E-03 5.70971E-04-6.21602E-14
 -1      2020 8.10314E-03 5.72807E-04-6.01504E-14
 -1      2021 8.08337E-03 5.45842E-04-5.99866E-14
 -1      2022 8.55955E-03 5.70051E-04-6.62512E-14
 -1      2023 8.40640E-03 5.69978E-04-6.41931E-14
 -1      2024 8.38493E-03 5.42450E-04-6.40229E-14
 -1      2025 8.86897E-03 5.74599E-04-7.04445E-14
 -1      2026 8.71372E-03 5.71507E-04-6.83351E-14
 -1      2027 8.69021E-03 5.43230E-04-6.81602E-14
 -1      2028 9.18249E-03 5.87231E-04-7.47375E-14
 -1      2029 9.02523E-03 5.79755E-04-7.25784E-14
 -1      2030 8.99942E-03 5.50526E-04-7.23974E-14
 -1      2031 9.49955E-03 6.10904E-04-7.91295E-14
 -1      2032 9.34065E-03 5.97547E-04-7.69218E-14
 -1      2033 9.31248E-03 5.67173E-04-7.67344E-14
 -1      2034 9.81889E-03 6.48438E-04-8.36241E-14
 -1      2035 9.65908E-03 6.27851E-04-8.13624E-14
 -1      2036 9.62884E-03 5.96214E-04-8.11706E-14
 -1      2037 1.01384E-02 7.01603E-04-8.82299E-14
 -1      2038 9.97886E-03 6.73104E-04-8.59135E-14
 -1      2039 9.94732E-03 6.40262E-04-8.57140E-14
 -1      2040 1.04550E-02 7.69704E-04-9.29442E-14
 -1      2041 1.02974E-02 7.34036E-04-9.05750E-14
 -1      2042 1.02659E-02 7.00368E-04-9.03665E-14
 -1      2043 1.07653E-02 8.47914E-04-9.77599E-14
 -1      2044 1.06113E-02 8.08086E-04-9.53390E-14
 -1      2045 1.05817E-02 7.74404E-04-9.51198E-14
 -1      2046 1.10656E-02 9.26056E-04-1.02664E-13
 -1      2047 1.09169E-02 8.87820E-04-1.00203E-13
 -1      2048 1.08912E-02 8.55362E-04-9.99697E-14
 -1      2049 1.13542E-02 9.89122E-04-1.07651E-13
 -1      2050 1.12114E-02 9.60436E-04-1.05148E-13
 -1      2051 1.11913E-02 9.30575E-04-1.04905E-13
 -1      2052 1.16319E-02 1.02048E-03-1.12715E-13
 -1      2053 1.14942E-02 1.00956E-03-1.10173E-13
 -1      2054 1.14807E-02 9.83265E-04-1.09921E-13
 -1      2055 1.19024E-02 1.00740E-03-1.17840E-13
 -1      2056 1.17675E-02 1.01980E-03-1.15270E-13
 -1      2057 1.17612E-02 9.97138E-04-1.15008E-13
 -1      2058 1.21716E-02 9.46037E-04-1.23015E-13
 -1      2059 1.20366E-02 9.82448E-04-1.20423E-13
 -1      2060 1.20373E-02 9.62517E-04-1.20154E-13
 -1      2061 1.24447E-02 8.42722E-04-1.28226E-13
 -1      2062 1.23073E-02 8.98875E-04-1.25617E-13
 -1      2063 1.23149E-02 8.80331E-04-1.25343E-13
 -1      2064 1.27242E-02 7.10426E-04-1.33454E-13
 -1      2065 1.25836E-02 7.79349E-04-1.30839E-13
 -1      2066 1.25977E-02 7.61084E-04-1.30562E-13
 -1      2067 1.30098E-02 5.62944E-04-1.38702E-13
 -1      2068 1.28664E-02 6.37942E-04-1.36077E-13
 -1      2069 1.28864E-02 6.19456E-04-1.35797E-13
 -1      2070 1.32991E-02 4.10232E-04-1.43971E-13
 -1      2071 1.31542E-02 4.86941E-04-1.41334E-13
 -1      2072 1.31791E-02 4.68299E-04-1.41052E-13
 -1      2073 1.35892E-02 2.56638E-04-1.49257E-13
 -1      2074 1.34443E-02 3.33542E-04-1.46612E-13
 -1      2075 1.34728E-02 3.15122E-04-1.46326E-13
 -1      2076 1.38782E-02 1.01977E-04-1.54565E-13
 -1      2077 1.37340E-02 1.79575E-04-1.51909E-13
 -1      2078 1.37650E-02 1.61765E-04-1.51625E-13
 -1      2079 1.41199E-02-3.03156E-05-1.58944E-13
 -1      2080 1.39765E-02 4.85955E-05-1.56281E-13
 -1      2081 1.40086E-02 3.13718E-05-1.55997E-13
 -1      2082 1.42052E-02-7.59986E-05-1.59431E-13
 -1      2083 1.46475E-02-2.80721E-04-1.58988E-13
 -1      2084 1.45570E-02-2.43560E-04-1.58959E-13
 -1      2085 1.44689E-02-2.04479E-04-1.58933E-13
 -1      2086 1.43834E-02-1.64561E-04-1.58908E-13
 -1      2087 1.43871E-02-1.60792E-04-1.56639E-13
 -1      2088 1.43338E-02-1.41078E-04-1.59183E-13
 -1      2089 1.42522E-02-9.99275E-05-1.59155E-13
 -1      2090 1.41538E-02-4.63718E-05-1.57439E-13
 -1      2091 1.42502E-02-9.50072E-05-1.56889E-13
 -1      2092 1.48308E-02-3.47700E-04-1.59045E-13
 -1      2093 1.47385E-02-3.15628E-04-1.59014E-13
 -1      2094 1.45670E-02-2.40044E-04-1.56691E-13
 -1      2095 1.50171E-02-4.03756E-04-1.59105E-13
 -1      2096 1.49247E-02-3.77620E-04-1.59075E-13
 -1      2097 1.47547E-02-3.12592E-04-1.56745E-13
 -1      2098 1.51881E-02-4.44475E-04-1.59168E-13
 -1      2099 1.51057E-02-4.26159E-04-1.59138E-13
 -1      2100 1.49423E-02-3.74613E-04-1.56799E-13
 -1      2101 1.53236E-02-4.69380E-04-1.59233E-13
 -1      2102 1.52616E-02-4.58594E-04-1.59201E-13
 -1      2103 1.51111E-02-4.21743E-04-1.56854E-13
 -1      2104 1.54035E-02-4.82325E-04-1.59282E-13
 -1      2105 1.53715E-02-4.76589E-04-1.59259E-13
 -1      2106 1.52387E-02-4.53442E-04-1.56905E-13
 -1      2107 1.54161E-02-4.91273E-04-1.59313E-13
 -1      2108 1.54185E-02-4.86300E-04-1.59299E-13
 -1      2109 1.53046E-02-4.74297E-04-1.56943E-13
 -1      2110 1.53638E-02-5.05421E-04-1.59328E-13
 -1      2111 1.53974E-02-4.96837E-04-1.59323E-13
 -1      2112 1.52992E-02-4.93200E-04-1.56965E-13
 -1      2113 1.52589E-02-5.32613E-04-1.59330E-13
 -1      2114 1.53167E-02-5.16935E-04-1.59329E-13
 -1      2115 1.52285E-02-5.19960E-04-1.56969E-13
 -1      2116 1.51224E-02-5.75905E-04-1.59308E-13
 -1      2117 1.51932E-02-5.52226E-04-1.59321E-13
 -1      2118 1.51089E-02-5.61080E-04-1.56955E-13
 -1      2119 1.49752E-02-6.34507E-04-1.59264E-13
 -1      2120 1.50490E-02-6.03592E-04-1.59289E-13
 -1      2121 1.49639E-02-6.17458E-04-1.56922E-13
 -1      2122 1.40930E-02-2.04626E-04-1.30735E-13
 -1      2123 1.42611E-02-2.61094E-04-1.31141E-13
 -1      2124 1.45499E-02-3.80661E-04-1.32152E-13
 -1      2125 1.45562E-02-4.01129E-04-1.32007E-13
 -1      2126 1.43887E-02-3.09877E-04-1.31602E-13
 -1      2127 1.44845E-02-3.45821E-04-1.32061E-13
 -1      2128 1.43293E-02-3.11397E-04-1.32644E-13
 -1      2129 1.36338E-02 2.27807E-05-1.28293E-13
 -1      2130 1.38347E-02-8.61304E-05-1.29472E-13
 -1      2131 1.32195E-02 2.39008E-04-1.26264E-13
 -1      2132 1.34289E-02 1.28288E-04-1.27279E-13
 -1      2133 1.35010E-02 5.26999E-05-1.28633E-13
 -1      2134 3.27203E-04-8.89676E-05-2.24267E-16
 -1      2135 3.29313E-04-1.02144E-04-2.14645E-16
 -1      2136 4.46341E-04-1.45118E-04-3.12210E-16
 -1      2137 4.40033E-04-1.09943E-04-3.37824E-16
 -1      2138 1.24312E-02 6.68046E-04-1.20244E-13
 -1      2139 1.26009E-02 5.91941E-04-1.21661E-13
 -1      2140 1.20737E-02 7.53327E-04-1.16952E-13
 -1      2141 1.22358E-02 7.29122E-04-1.18560E-13
 -1      2142 1.16921E-02 6.93074E-04-1.13259E-13
 -1      2143 1.18558E-02 7.38740E-04-1.14795E-13
 -1      2144 1.13496E-02 5.40030E-04-1.10326E-13
 -1      2145 1.15220E-02 6.28061E-04-1.11790E-13
 -1      2146 1.16169E-02 6.68499E-04-1.12147E-13
 -1      2147 1.09048E-02 3.05546E-04-1.07370E-13
 -1      2148 1.11042E-02 4.13605E-04-1.08597E-13
 -1      2149 1.04973E-02 9.64512E-05-1.05022E-13
 -1      2150 1.06859E-02 1.89401E-04-1.06007E-13
 -1      2151 1.01336E-02-5.88544E-05-1.03351E-13
 -1      2152 1.02949E-02 7.68026E-06-1.04121E-13
 -1      2153 9.87302E-03-1.54771E-04-1.02257E-13
 -1      2154 9.97853E-03-1.17636E-04-1.02744E-13
 -1      2155 9.78436E-03-2.09832E-04-1.02061E-13
 -1      2156 9.79939E-03-1.89977E-04-1.01952E-13
 -1      2157 9.86655E-03-2.60093E-04-1.02246E-13
 -1      2158 9.80636E-03-2.35479E-04-1.02152E-13
 -1      2159 9.78758E-03-2.13866E-04-1.01008E-13
 -1      2160 1.01198E-02-3.70498E-04-1.03415E-13
 -1      2161 9.98789E-03-3.13497E-04-1.02786E-13
 -1      2162 1.04618E-02-5.19425E-04-1.04628E-13
 -1      2163 1.02924E-02-4.38102E-04-1.03882E-13
 -1      2164 1.08652E-02-7.55314E-04-1.06892E-13
 -1      2165 1.06688E-02-6.42004E-04-1.05881E-13
 -1      2166 1.12773E-02-1.00836E-03-1.09329E-13
 -1      2167 1.10827E-02-8.87335E-04-1.08160E-13
 -1      2168 1.16728E-02-1.23866E-03-1.11970E-13
 -1      2169 1.14919E-02-1.13085E-03-1.10615E-13
 -1      2170 1.20692E-02-1.40184E-03-1.15698E-13
 -1      2171 1.19118E-02-1.35230E-03-1.14103E-13
 -1      2172 1.23785E-02-1.40651E-03-1.18678E-13
 -1      2173 1.22244E-02-1.41872E-03-1.17185E-13
 -1      2174 1.21541E-02-1.42402E-03-1.16432E-13
 -1      2175 1.27330E-02-1.29093E-03-1.21882E-13
 -1      2176 1.25709E-02-1.35962E-03-1.20415E-13
 -1      2177 1.31396E-02-1.07826E-03-1.24976E-13
 -1      2178 1.29553E-02-1.18112E-03-1.23703E-13
 -1      2179 1.35638E-02-8.54701E-04-1.27339E-13
 -1      2180 1.33665E-02-9.59736E-04-1.26269E-13
 -1      2181 1.39599E-02-6.57298E-04-1.29450E-13
 -1      2182 1.37760E-02-7.43680E-04-1.28563E-13
 -1      2183 1.42950E-02-5.13825E-04-1.31150E-13
 -1      2184 1.41445E-02-5.74876E-04-1.30375E-13
 -1      2185 1.45215E-02-4.29086E-04-1.31817E-13
 -1      2186 1.44451E-02-4.57639E-04-1.31631E-13
 -1      2187 1.45490E-02-4.11899E-04-1.33106E-13
 -1      2188 1.27844E-02 4.98561E-04-1.23108E-13
 -1      2189 1.29684E-02 3.86677E-04-1.24557E-13
 -1      2190 1.26596E-02 5.46413E-04-1.22751E-13
 -1      2191 1.30641E-02 3.04683E-04-1.25905E-13
 -1      2192 1.31606E-02 2.27358E-04-1.27256E-13
 -1      2193 1.29318E-02 3.69924E-04-1.25546E-13
 -1      2194 6.07918E-04-2.98125E-04-3.08401E-16
 -1      2195 1.12454E-02 4.78385E-04-1.08955E-13
 -1      2196 6.63639E-04-2.92414E-04-4.26837E-16
 -1      2197 1.45285E-02-3.73165E-04-1.33200E-13
 -1      2198 1.38315E-02-1.29687E-04-1.31092E-13
 -1      2199 1.39608E-02-1.70955E-04-1.30914E-13
 -1      2200 1.40773E-02-2.33687E-04-1.32359E-13
 -1      2201 1.48753E-02-6.74219E-04-1.58440E-13
 -1      2202 1.43769E-02-4.73390E-04-1.32432E-13
 -1      2203 1.40419E-02-5.95697E-04-1.31023E-13
 -1      2204 1.36566E-02-7.77636E-04-1.28869E-13
 -1      2205 1.32374E-02-1.00654E-03-1.26344E-13
 -1      2206 1.24547E-02-1.39842E-03-1.19656E-13
 -1      2207 1.18128E-02-1.30867E-03-1.12810E-13
 -1      2208 1.17214E-02-1.25263E-03-1.11523E-13
 -1      2209 1.19210E-02-1.36157E-03-1.13650E-13
 -1      2210 1.14037E-02-1.05796E-03-1.09403E-13
 -1      2211 1.09970E-02-8.00346E-04-1.06856E-13
 -1      2212 1.05841E-02-5.51705E-04-1.04345E-13
 -1      2213 9.92246E-03-2.68138E-04-1.01636E-13
 -1      2214 9.82352E-03-1.77756E-04-1.01219E-13
 -1      2215 9.85847E-03-1.66853E-04-1.00487E-13
 -1      2216 9.78966E-03-1.86534E-04-1.00184E-13
 -1      2217 1.00566E-02-1.00367E-04-1.02127E-13
 -1      2218 1.04060E-02 3.62290E-05-1.03625E-13
 -1      2219 1.23151E-02 7.06301E-04-1.19616E-13
 -1      2220 1.19567E-02 7.58712E-04-1.15768E-13
 -1      2221 1.08076E-02 2.34223E-04-1.05877E-13
 -1      2222 1.02182E-02-3.77265E-04-1.02638E-13
 -1      2223 1.28270E-02-1.24052E-03-1.23220E-13
 -1      2224 1.01663E-03 3.99808E-04-9.32698E-16
 -1      2225 8.72162E-04 3.63422E-04-6.87615E-16
 -1      2226 5.47765E-04-5.52987E-05-5.19116E-16
 -1      2227 5.48802E-04-7.20146E-05-5.14196E-16
 -1      2228 5.50222E-04-8.93371E-05-5.07786E-16
 -1      2229 5.52090E-04-1.07313E-04-4.99112E-16
 -1      2230 6.65265E-04-9.54940E-05-6.92914E-16
 -1      2231 5.46382E-04 8.85627E-06-5.24944E-16
 -1      2232 5.46362E-04-6.98100E-06-5.25377E-16
 -1      2233 5.47139E-04 4.08668E-05-5.20647E-16
 -1      2234 5.46638E-04 2.47925E-05-5.23385E-16
 -1      2235 6.61316E-04 1.99308E-05-7.10220E-16
 -1      2236 5.48969E-04 7.34877E-05-5.11201E-16
 -1      2237 5.47904E-04 5.69958E-05-5.16744E-16
 -1      2238 6.62644E-04 5.77867E-05-7.03308E-16
 -1      2239 5.52366E-04 1.08959E-04-4.94749E-16
 -1      2240 5.50440E-04 9.08850E-05-5.03897E-16
 -1      2241 6.65511E-04 9.72552E-05-6.89065E-16
 -1      2242 5.58254E-04 1.48292E-04-4.69460E-16
 -1      2243 5.54931E-04 1.28068E-04-4.83635E-16
 -1      2244 6.70608E-04 1.40025E-04-6.65659E-16
 -1      2245 5.68593E-04 1.93889E-04-4.31025E-16
 -1      2246 5.62749E-04 1.70172E-04-4.52383E-16
 -1      2247 6.79269E-04 1.87567E-04-6.30396E-16
 -1      2248 1.30210E-03 4.56755E-04-1.54577E-15
 -1      2249 1.15978E-03 4.30810E-04-1.21840E-15
 -1      2250 1.07181E-03 3.81330E-04-1.12605E-15
 -1      2251 9.15228E-04-3.46372E-04-8.37844E-16
 -1      2252 1.05933E-03-3.79700E-04-1.10663E-15
 -1      2253 1.11361E-02 4.13548E-04-1.07353E-13
 -1      2254 1.13419E-02 5.35339E-04-1.09071E-13
 -1      2255 1.20258E-03-4.08084E-04-1.41567E-15
 -1      2256 1.34539E-03-4.31963E-04-1.76602E-15
 -1      2257 1.11702E-03-3.60525E-04-1.30675E-15
 -1      2258 1.48757E-03-4.52178E-04-2.15703E-15
 -1      2259 1.62935E-03-4.69021E-04-2.58903E-15
 -1      2260 1.40333E-03-4.07282E-04-2.01708E-15
 -1      2261 1.77077E-03-4.83159E-04-3.06139E-15
 -1      2262 1.91196E-03-4.94804E-04-3.57476E-15
 -1      2263 1.68846E-03-4.40525E-04-2.88891E-15
 -1      2264 2.05299E-03-5.04451E-04-4.12891E-15
 -1      2265 2.19391E-03-5.12276E-04-4.72419E-15
 -1      2266 1.97265E-03-4.63582E-04-3.92256E-15
 -1      2267 2.33481E-03-5.18640E-04-5.35879E-15
 -1      2268 2.47569E-03-5.23685E-04-6.03340E-15
 -1      2269 2.25629E-03-4.79089E-04-5.11710E-15
 -1      2270 2.61664E-03-5.27676E-04-6.74730E-15
 -1      2271 2.75763E-03-5.30725E-04-7.50025E-15
 -1      2272 2.53970E-03-4.89083E-04-6.47048E-15
 -1      2273 2.89873E-03-5.33024E-04-8.29131E-15
 -1      2274 3.03990E-03-5.34662E-04-9.12023E-15
 -1      2275 2.82311E-03-4.95112E-04-7.97871E-15
 -1      2276 3.18120E-03-5.35775E-04-9.98695E-15
 -1      2277 3.32259E-03-5.36432E-04-1.08905E-14
 -1      2278 3.10668E-03-4.98338E-04-9.63896E-15
 -1      2279 3.46411E-03-5.36729E-04-1.18310E-14
 -1      2280 3.60572E-03-5.36715E-04-1.28087E-14
 -1      2281 3.39047E-03-4.99617E-04-1.14482E-14
 -1      2282 3.74746E-03-5.36456E-04-1.38224E-14
 -1      2283 3.88929E-03-5.35986E-04-1.48721E-14
 -1      2284 3.67453E-03-4.99567E-04-1.34044E-14
 -1      2285 4.03124E-03-5.35347E-04-1.59568E-14
 -1      2286 4.17327E-03-5.34562E-04-1.70781E-14
 -1      2287 3.95885E-03-4.98613E-04-1.55046E-14
 -1      2288 4.31540E-03-5.33654E-04-1.82352E-14
 -1      2289 4.45762E-03-5.32637E-04-1.94272E-14
 -1      2290 4.24344E-03-4.97037E-04-1.77473E-14
 -1      2291 4.59993E-03-5.31519E-04-2.06534E-14
 -1      2292 4.74232E-03-5.30307E-04-2.19147E-14
 -1      2293 4.52828E-03-4.95002E-04-2.01313E-14
 -1      2294 4.88480E-03-5.28999E-04-2.32108E-14
 -1      2295 5.02736E-03-5.27597E-04-2.45397E-14
 -1      2296 4.81337E-03-4.92583E-04-2.26537E-14
 -1      2297 5.17001E-03-5.26088E-04-2.59030E-14
 -1      2298 5.31274E-03-5.24470E-04-2.73010E-14
 -1      2299 5.09870E-03-4.89786E-04-2.53126E-14
 -1      2300 5.45556E-03-5.22725E-04-2.87316E-14
 -1      2301 5.59848E-03-5.20848E-04-3.01945E-14
 -1      2302 5.38428E-03-4.86562E-04-2.81057E-14
 -1      2303 5.74150E-03-5.18816E-04-3.16913E-14
 -1      2304 5.88463E-03-5.16622E-04-3.32220E-14
 -1      2305 5.67014E-03-4.82823E-04-3.10320E-14
 -1      2306 6.02789E-03-5.14241E-04-3.47852E-14
 -1      2307 6.17129E-03-5.11667E-04-3.63814E-14
 -1      2308 5.95632E-03-4.78455E-04-3.40918E-14
 -1      2309 6.31485E-03-5.08872E-04-3.80109E-14
 -1      2310 6.45859E-03-5.05855E-04-3.96723E-14
 -1      2311 6.24289E-03-4.73328E-04-3.72835E-14
 -1      2312 6.60251E-03-5.02589E-04-4.13659E-14
 -1      2313 6.74667E-03-4.99078E-04-4.30903E-14
 -1      2314 6.52994E-03-4.67319E-04-4.06047E-14
 -1      2315 6.89107E-03-4.95304E-04-4.48451E-14
 -1      2316 7.03577E-03-4.91280E-04-4.66316E-14
 -1      2317 6.81758E-03-4.60328E-04-4.40522E-14
 -1      2318 7.18077E-03-4.87001E-04-4.84480E-14
 -1      2319 7.32615E-03-4.82496E-04-5.02935E-14
 -1      2320 7.10597E-03-4.52314E-04-4.76220E-14
 -1      2321 7.47190E-03-4.77784E-04-5.21682E-14
 -1      2322 7.61814E-03-4.72916E-04-5.40713E-14
 -1      2323 7.39526E-03-4.43341E-04-5.13104E-14
 -1      2324 7.76482E-03-4.67953E-04-5.60009E-14
 -1      2325 7.91212E-03-4.62979E-04-5.79592E-14
 -1      2326 7.68567E-03-4.33639E-04-5.51127E-14
 -1      2327 8.05996E-03-4.58116E-04-5.99461E-14
 -1      2328 8.20855E-03-4.53499E-04-6.19595E-14
 -1      2329 7.97742E-03-4.23705E-04-5.90267E-14
 -1      2330 8.35781E-03-4.49343E-04-6.39985E-14
 -1      2331 8.50798E-03-4.45855E-04-6.60627E-14
 -1      2332 8.27082E-03-4.14428E-04-6.30502E-14
 -1      2333 8.65898E-03-4.43384E-04-6.81533E-14
 -1      2334 8.81110E-03-4.42245E-04-7.02687E-14
 -1      2335 8.56623E-03-4.07274E-04-6.71776E-14
 -1      2336 8.96427E-03-4.42958E-04-7.24083E-14
 -1      2337 9.11881E-03-4.46008E-04-7.45726E-14
 -1      2338 8.86424E-03-4.04524E-04-7.14043E-14
 -1      2339 9.27476E-03-4.52116E-04-7.67592E-14
 -1      2340 9.43242E-03-4.62019E-04-7.89684E-14
 -1      2341 9.16581E-03-4.09581E-04-7.57284E-14
 -1      2342 9.59208E-03-4.76624E-04-8.12016E-14
 -1      2343 9.75392E-03-4.97040E-04-8.34555E-14
 -1      2344 9.47263E-03-4.27327E-04-8.01452E-14
 -1      2345 9.91863E-03-5.24255E-04-8.57317E-14
 -1      2346 1.00861E-02-5.59842E-04-8.80293E-14
 -1      2347 9.78758E-03-4.64524E-04-8.46501E-14
 -1      2348 1.02576E-02-6.04607E-04-9.03487E-14
 -1      2349 1.04323E-02-6.60533E-04-9.26902E-14
 -1      2350 1.01151E-02-5.30100E-04-8.92446E-14
 -1      2351 1.06120E-02-7.27806E-04-9.50521E-14
 -1      2352 1.07946E-02-8.07882E-04-9.74348E-14
 -1      2353 1.04610E-02-6.35067E-04-9.39216E-14
 -1      2354 1.09817E-02-8.99595E-04-9.98368E-14
 -1      2355 1.11694E-02-1.00186E-03-1.02259E-13
 -1      2356 1.08293E-02-7.90136E-04-9.86829E-14
 -1      2357 1.13587E-02-1.11106E-03-1.04697E-13
 -1      2358 1.15446E-02-1.22038E-03-1.07156E-13
 -1      2359 1.12162E-02-9.96888E-04-1.03521E-13
 -1      2360 1.17260E-02-1.32395E-03-1.09637E-13
 -1      2361 1.19027E-02-1.40896E-03-1.12133E-13
 -1      2362 1.16043E-02-1.22900E-03-1.08437E-13
 -1      2363 1.20715E-02-1.46936E-03-1.14647E-13
 -1      2364 1.22407E-02-1.49684E-03-1.17179E-13
 -1      2365 1.19728E-02-1.41616E-03-1.13428E-13
 -1      2366 1.24064E-02-1.48944E-03-1.19734E-13
 -1      2367 1.25784E-02-1.45258E-03-1.22306E-13
 -1      2368 1.23241E-02-1.47383E-03-1.18493E-13
 -1      2369 1.27533E-02-1.39058E-03-1.24893E-13
 -1      2370 1.29333E-02-1.31544E-03-1.27501E-13
 -1      2371 1.26830E-02-1.38602E-03-1.23636E-13
 -1      2372 1.31168E-02-1.23350E-03-1.30123E-13
 -1      2373 1.32996E-02-1.15300E-03-1.32762E-13
 -1      2374 1.30622E-02-1.22001E-03-1.28847E-13
 -1      2375 1.34823E-02-1.07787E-03-1.35415E-13
 -1      2376 1.36602E-02-1.01064E-03-1.38078E-13
 -1      2377 1.34453E-02-1.05377E-03-1.34121E-13
 -1      2378 1.38349E-02-9.52435E-04-1.40757E-13
 -1      2379 1.40037E-02-9.01679E-04-1.43445E-13
 -1      2380 1.38119E-02-9.23082E-04-1.39450E-13
 -1      2381 1.41684E-02-8.57794E-04-1.46143E-13
 -1      2382 1.43278E-02-8.18047E-04-1.48852E-13
 -1      2383 1.41539E-02-8.29406E-04-1.44824E-13
 -1      2384 1.42749E-02-3.08798E-04-1.33712E-13
 -1      2385 1.43933E-02-3.42372E-04-1.34177E-13
 -1      2386 1.86529E-03 5.25266E-04-3.26854E-15
 -1      2387 1.72505E-03 5.12518E-04-2.77586E-15
 -1      2388 2.14536E-03 5.44538E-04-4.37611E-15
 -1      2389 2.00537E-03 5.35879E-04-3.80186E-15
 -1      2390 1.92460E-03 4.94648E-04-3.61272E-15
 -1      2391 2.42541E-03 5.57307E-04-5.64489E-15
 -1      2392 2.28538E-03 5.51630E-04-4.99042E-15
 -1      2393 2.20669E-03 5.11898E-04-4.76678E-15
 -1      2394 2.70581E-03 5.65378E-04-7.07377E-15
 -1      2395 2.56556E-03 5.61849E-04-6.33949E-15
 -1      2396 2.48863E-03 5.23187E-04-6.08046E-15
 -1      2397 2.98676E-03 5.70096E-04-8.66084E-15
 -1      2398 2.84622E-03 5.68094E-04-7.84737E-15
 -1      2399 2.77071E-03 5.30180E-04-7.55278E-15
 -1      2400 3.26834E-03 5.72462E-04-1.04030E-14
 -1      2401 3.12748E-03 5.71527E-04-9.51293E-15
 -1      2402 3.05310E-03 5.34124E-04-9.18159E-15
 -1      2403 3.55056E-03 5.73204E-04-1.22965E-14
 -1      2404 3.40938E-03 5.73002E-04-1.13309E-14
 -1      2405 3.33590E-03 5.35941E-04-1.09633E-14
 -1      2406 3.83339E-03 5.72836E-04-1.43404E-14
 -1      2407 3.69191E-03 5.73134E-04-1.33000E-14
 -1      2408 3.61913E-03 5.36298E-04-1.28964E-14
 -1      2409 4.11676E-03 5.71708E-04-1.65304E-14
 -1      2410 3.97501E-03 5.72350E-04-1.54168E-14
 -1      2411 3.90277E-03 5.35662E-04-1.49767E-14
 -1      2412 4.40064E-03 5.70039E-04-1.88660E-14
 -1      2413 4.25865E-03 5.70931E-04-1.76801E-14
 -1      2414 4.18681E-03 5.34345E-04-1.72032E-14
 -1      2415 4.68496E-03 5.67950E-04-2.13415E-14
 -1      2416 4.54275E-03 5.69042E-04-2.00863E-14
 -1      2417 4.47122E-03 5.32536E-04-1.95731E-14
 -1      2418 4.96970E-03 5.65484E-04-2.39543E-14
 -1      2419 4.82728E-03 5.66762E-04-2.26307E-14
 -1      2420 4.75596E-03 5.30333E-04-2.20819E-14
 -1      2421 5.25484E-03 5.62626E-04-2.67004E-14
 -1      2422 5.11222E-03 5.64104E-04-2.53112E-14
 -1      2423 5.04102E-03 5.27758E-04-2.47271E-14
 -1      2424 5.54041E-03 5.59319E-04-2.95794E-14
 -1      2425 5.39757E-03 5.61030E-04-2.81230E-14
 -1      2426 5.32642E-03 5.24784E-04-2.75057E-14
 -1      2427 5.82646E-03 5.55483E-04-3.25906E-14
 -1      2428 5.68337E-03 5.57470E-04-3.10688E-14
 -1      2429 5.61216E-03 5.21342E-04-3.04160E-14
 -1      2430 6.11307E-03 5.51027E-04-3.57282E-14
 -1      2431 5.96969E-03 5.53335E-04-3.41436E-14
 -1      2432 5.89831E-03 5.17346E-04-3.34572E-14
 -1      2433 6.40038E-03 5.45873E-04-3.89909E-14
 -1      2434 6.25663E-03 5.48538E-04-3.73440E-14
 -1      2435 6.18494E-03 5.12700E-04-3.66251E-14
 -1      2436 6.68858E-03 5.39981E-04-4.23791E-14
 -1      2437 6.54435E-03 5.43016E-04-4.06692E-14
 -1      2438 6.47217E-03 5.07329E-04-3.99175E-14
 -1      2439 6.97789E-03 5.33381E-04-4.58884E-14
 -1      2440 6.83307E-03 5.36761E-04-4.41185E-14
 -1      2441 6.76016E-03 5.01197E-04-4.33333E-14
 -1      2442 7.26860E-03 5.26224E-04-4.95149E-14
 -1      2443 7.12303E-03 5.29855E-04-4.76867E-14
 -1      2444 7.04909E-03 4.94350E-04-4.68688E-14
 -1      2445 7.56105E-03 5.18838E-04-5.32602E-14
 -1      2446 7.41457E-03 5.22530E-04-5.13733E-14
 -1      2447 7.33922E-03 4.86961E-04-5.05238E-14
 -1      2448 7.85564E-03 5.11806E-04-5.71112E-14
 -1      2449 7.70804E-03 5.15231E-04-5.51732E-14
 -1      2450 7.63085E-03 4.79395E-04-5.42936E-14
 -1      2451 8.15279E-03 5.06055E-04-6.10700E-14
 -1      2452 8.00385E-03 5.08701E-04-5.90777E-14
 -1      2453 7.92433E-03 4.72281E-04-5.81707E-14
 -1      2454 8.45294E-03 5.02958E-04-6.51316E-14
 -1      2455 8.30245E-03 5.04078E-04-6.30890E-14
 -1      2456 8.22006E-03 4.66614E-04-6.21540E-14
 -1      2457 8.75650E-03 5.04416E-04-6.92928E-14
 -1      2458 8.60427E-03 5.02990E-04-6.71982E-14
 -1      2459 8.51853E-03 4.63844E-04-6.62392E-14
 -1      2460 9.06382E-03 5.12900E-04-7.35553E-14
 -1      2461 8.90969E-03 5.07621E-04-7.14113E-14
 -1      2462 8.82025E-03 4.65966E-04-7.04272E-14
 -1      2463 9.37505E-03 5.31362E-04-7.79177E-14
 -1      2464 9.21899E-03 5.20703E-04-7.57238E-14
 -1      2465 9.12579E-03 4.75549E-04-7.47145E-14
 -1      2466 9.69003E-03 5.62921E-04-8.23795E-14
 -1      2467 9.53218E-03 5.45330E-04-8.01360E-14
 -1      2468 9.43567E-03 4.95650E-04-7.91013E-14
 -1      2469 1.00080E-02 6.10162E-04-8.69464E-14
 -1      2470 9.84885E-03 5.84471E-04-8.46499E-14
 -1      2471 9.75018E-03 5.29475E-04-8.35895E-14
 -1      2472 1.03275E-02 6.73911E-04-9.16217E-14
 -1      2473 1.01679E-02 6.40029E-04-8.92727E-14
 -1      2474 1.00691E-02 5.79658E-04-8.81806E-14
 -1      2475 1.06457E-02 7.51453E-04-9.63902E-14
 -1      2476 1.04871E-02 7.11301E-04-9.39926E-14
 -1      2477 1.03912E-02 6.46913E-04-9.28727E-14
 -1      2478 1.09592E-02 8.34690E-04-1.01254E-13
 -1      2479 1.08034E-02 7.93109E-04-9.88112E-14
 -1      2480 1.07137E-02 7.28062E-04-9.76586E-14
 -1      2481 1.12642E-02 9.09338E-04-1.06202E-13
 -1      2482 1.11129E-02 8.74190E-04-1.03718E-13
 -1      2483 1.10322E-02 8.13795E-04-1.02536E-13
 -1      2484 1.15593E-02 9.57048E-04-1.11231E-13
 -1      2485 1.14128E-02 9.37754E-04-1.08707E-13
 -1      2486 1.13425E-02 8.87866E-04-1.07498E-13
 -1      2487 1.18464E-02 9.61025E-04-1.16325E-13
 -1      2488 1.17033E-02 9.65282E-04-1.13769E-13
 -1      2489 1.16428E-02 9.29837E-04-1.12537E-13
 -1      2490 1.21312E-02 9.13218E-04-1.21478E-13
 -1      2491 1.19884E-02 9.43601E-04-1.18896E-13
 -1      2492 1.19362E-02 9.22442E-04-1.17640E-13
 -1      2493 1.24192E-02 8.17887E-04-1.26671E-13
 -1      2494 1.22743E-02 8.70762E-04-1.24069E-13
 -1      2495 1.22293E-02 8.59971E-04-1.22799E-13
 -1      2496 1.27132E-02 6.88750E-04-1.31889E-13
 -1      2497 1.25653E-02 7.56498E-04-1.29277E-13
 -1      2498 1.25279E-02 7.50896E-04-1.27994E-13
 -1      2499 1.30122E-02 5.41849E-04-1.37131E-13
 -1      2500 1.28623E-02 6.16611E-04-1.34509E-13
 -1      2501 1.28333E-02 6.12414E-04-1.33218E-13
 -1      2502 1.33128E-02 3.89422E-04-1.42389E-13
 -1      2503 1.31626E-02 4.65833E-04-1.39756E-13
 -1      2504 1.31424E-02 4.61568E-04-1.38463E-13
 -1      2505 1.36117E-02 2.37157E-04-1.47671E-13
 -1      2506 1.34628E-02 3.13163E-04-1.45027E-13
 -1      2507 1.34504E-02 3.09262E-04-1.43727E-13
 -1      2508 1.39065E-02 8.51026E-05-1.52973E-13
 -1      2509 1.37598E-02 1.61288E-04-1.50319E-13
 -1      2510 1.37536E-02 1.59036E-04-1.49015E-13
 -1      2511 1.40549E-02 6.72996E-06-1.55720E-13
 -1      2512 1.46771E-02-2.85126E-04-1.54444E-13
 -1      2513 1.45803E-02-2.46313E-04-1.54420E-13
 -1      2514 1.48670E-02-3.54220E-04-1.54490E-13
 -1      2515 1.47735E-02-3.21484E-04-1.54468E-13
 -1      2516 1.45990E-02-2.65102E-04-1.52142E-13
 -1      2517 1.43035E-02-1.21031E-04-1.54347E-13
 -1      2518 1.42158E-02-7.76351E-05-1.54322E-13
 -1      2519 1.44854E-02-2.05454E-04-1.54397E-13
 -1      2520 1.43934E-02-1.64001E-04-1.54371E-13
 -1      2521 1.42172E-02-8.54854E-05-1.52054E-13
 -1      2522 1.44030E-02-1.77467E-04-1.52100E-13
 -1      2523 1.50344E-02-4.07637E-04-1.54537E-13
 -1      2524 1.49551E-02-3.83023E-04-1.54514E-13
 -1      2525 1.47925E-02-3.41359E-04-1.52182E-13
 -1      2526 1.51541E-02-4.44586E-04-1.54576E-13
 -1      2527 1.51018E-02-4.27693E-04-1.54557E-13
 -1      2528 1.49590E-02-3.99722E-04-1.52218E-13
 -1      2529 1.52046E-02-4.71095E-04-1.54604E-13
 -1      2530 1.51889E-02-4.58082E-04-1.54591E-13
 -1      2531 1.50698E-02-4.39756E-04-1.52246E-13
 -1      2532 1.51794E-02-4.97921E-04-1.54612E-13
 -1      2533 1.52010E-02-4.83308E-04-1.54610E-13
 -1      2534 1.51024E-02-4.70093E-04-1.52261E-13
 -1      2535 1.50882E-02-5.36378E-04-1.54607E-13
 -1      2536 1.51408E-02-5.15020E-04-1.54612E-13
 -1      2537 1.50542E-02-5.04894E-04-1.52261E-13
 -1      2538 1.49536E-02-5.90911E-04-1.54585E-13
 -1      2539 1.50246E-02-5.61583E-04-1.54598E-13
 -1      2540 1.49414E-02-5.55389E-04-1.52247E-13
 -1      2541 1.48009E-02-6.59888E-04-1.54542E-13
 -1      2542 1.48780E-02-6.24006E-04-1.54563E-13
 -1      2543 1.47923E-02-6.23831E-04-1.52215E-13
 -1      2544 1.47477E-02-7.08779E-04-1.55984E-13
 -1      2545 1.44565E-02-4.44989E-04-1.34005E-13
 -1      2546 1.43195E-02-4.84899E-04-1.33522E-13
 -1      2547 1.58453E-03 4.97087E-04-2.32491E-15
 -1      2548 1.44359E-03 4.78760E-04-1.91465E-15
 -1      2549 1.64187E-03 4.69232E-04-2.62054E-15
 -1      2550 1.45085E-02-3.76109E-04-1.34668E-13
 -1      2551 1.45681E-02-3.91451E-04-1.34763E-13
 -1      2552 1.34012E-02 8.29059E-05-1.29130E-13
 -1      2553 1.35851E-02-1.59490E-05-1.30151E-13
 -1      2554 1.45723E-02-4.06928E-04-1.34414E-13
 -1      2555 1.45394E-02-4.18199E-04-1.34226E-13
 -1      2556 5.88541E-04-2.37988E-04-3.98932E-16
 -1      2557 7.81337E-04-3.04846E-04-6.37267E-16
 -1      2558 8.40800E-04-2.93597E-04-7.87415E-16
 -1      2559 5.78970E-04-2.10162E-04-4.28694E-16
 -1      2560 5.46576E-04-2.29006E-05-5.24713E-16
 -1      2561 5.47034E-04-3.89411E-05-5.22585E-16
 -1      2562 6.62493E-04-5.58164E-05-7.05748E-16
 -1      2563 6.61263E-04-1.77055E-05-7.11291E-16
 -1      2564 1.18624E-02 7.57170E-04-1.14602E-13
 -1      2565 1.20322E-02 7.70817E-04-1.16760E-13
 -1      2566 1.07193E-02 1.81324E-04-1.04408E-13
 -1      2567 1.09152E-02 2.88460E-04-1.05760E-13
 -1      2568 1.15415E-02 6.40180E-04-1.10972E-13
 -1      2569 1.16754E-02 7.02776E-04-1.12436E-13
 -1      2570 1.02729E-02-3.76121E-04-1.01559E-13
 -1      2571 1.01199E-02-3.18311E-04-1.01099E-13
 -1      2572 1.22441E-02 7.31420E-04-1.19219E-13
 -1      2573 1.23996E-02 6.69457E-04-1.20907E-13
 -1      2574 1.03045E-02-1.29308E-05-1.02004E-13
 -1      2575 1.04846E-02 6.58450E-05-1.02894E-13
 -1      2576 9.97718E-03-1.29506E-04-1.00606E-13
 -1      2577 1.01195E-02-8.45398E-05-1.01205E-13
 -1      2578 9.79386E-03-2.11196E-04-9.99647E-14
 -1      2579 9.77147E-03-2.01566E-04-9.98735E-14
 -1      2580 1.29080E-02-1.19305E-03-1.24605E-13
 -1      2581 1.27206E-02-1.29856E-03-1.22778E-13
 -1      2582 9.97368E-03-2.66674E-04-1.00565E-13
 -1      2583 9.85962E-03-2.32828E-04-1.00031E-13
 -1      2584 1.00164E-02-2.74492E-04-9.94923E-14
 -1      2585 1.07192E-02-6.00901E-04-1.03962E-13
 -1      2586 1.05245E-02-4.94041E-04-1.02721E-13
 -1      2587 1.10976E-02-8.38148E-04-1.06470E-13
 -1      2588 1.09063E-02-7.13692E-04-1.05212E-13
 -1      2589 1.08116E-02-6.50186E-04-1.03576E-13
 -1      2590 1.14612E-02-1.08383E-03-1.09016E-13
 -1      2591 1.12862E-02-9.62101E-04-1.07740E-13
 -1      2592 1.11668E-02-8.78699E-04-1.06087E-13
 -1      2593 1.22311E-02-1.44000E-03-1.17286E-13
 -1      2594 1.21109E-02-1.42481E-03-1.15799E-13
 -1      2595 1.25310E-02-1.38110E-03-1.20762E-13
 -1      2596 1.23794E-02-1.42628E-03-1.19020E-13
 -1      2597 1.23189E-02-1.44162E-03-1.18382E-13
 -1      2598 1.33461E-02-9.32554E-04-1.27908E-13
 -1      2599 1.31530E-02-1.04846E-03-1.26607E-13
 -1      2600 1.37316E-02-7.26304E-04-1.30368E-13
 -1      2601 1.35375E-02-8.27135E-04-1.29139E-13
 -1      2602 1.34474E-02-8.79738E-04-1.29403E-13
 -1      2603 1.41235E-02-5.55171E-04-1.32569E-13
 -1      2604 1.39517E-02-6.23945E-04-1.31639E-13
 -1      2605 1.25458E-02 5.97873E-04-1.22352E-13
 -1      2606 1.26983E-02 5.07625E-04-1.23801E-13
 -1      2607 1.24581E-02 6.37757E-04-1.21953E-13
 -1      2608 7.57918E-04 3.34215E-04-5.13343E-16
 -1      2609 6.11497E-04 2.84853E-04-3.42499E-16
 -1      2610 5.84771E-04 2.58083E-04-3.50712E-16
 -1      2611 8.13739E-04 3.22888E-04-6.59073E-16
 -1      2612 6.70194E-04-1.37968E-04-6.71067E-16
 -1      2613 5.54571E-04-1.26215E-04-4.88352E-16
 -1      2614 5.57783E-04-1.46188E-04-4.74813E-16
 -1      2615 1.35784E-03 4.32739E-04-1.79151E-15
 -1      2616 5.72266E-04 2.27886E-04-3.84838E-16
 -1      2617 1.38424E-02-6.77340E-04-1.31910E-13
 -1      2618 1.26318E-02-1.34761E-03-1.22136E-13
 -1      2619 1.14141E-02 5.86467E-04-1.09354E-13
 -1      2620 1.31447E-02 2.23635E-04-1.28405E-13
 -1      2621 1.32656E-02 1.52713E-04-1.28768E-13
 -1      2622 1.33702E-02 9.06159E-05-1.30284E-13
 -1      2623 1.20110E-02-1.39964E-03-1.14497E-13
 -1      2624 1.43580E-02-4.85458E-04-1.35715E-13
 -1      2625 1.42483E-02-5.11093E-04-1.34142E-13
 -1      2626 1.41813E-02-5.43679E-04-1.34758E-13
 -1      2627 1.41753E-02-2.78813E-04-1.33889E-13
 -1      2628 1.42648E-02-3.08600E-04-1.35421E-13
 -1      2629 1.40722E-02-2.42819E-04-1.34064E-13
 -1      2630 1.45897E-02-4.02094E-04-1.35883E-13
 -1      2631 1.40529E-02 7.34451E-06-1.54413E-13
 -1      2632 1.41010E-02-1.82892E-05-1.54138E-13
 -1      2633 1.37311E-02-9.22816E-05-1.31592E-13
 -1      2634 1.45659E-02-7.62485E-04-1.53127E-13
 -1      2635 1.47086E-02-6.98866E-04-1.54041E-13
 -1      2636 1.46181E-02-7.04314E-04-1.51693E-13
 -1      2637 1.44319E-02-7.93814E-04-1.50689E-13
 -1      2638 1.30298E-02-1.12553E-03-1.26161E-13
 -1      2639 1.29337E-02-1.19620E-03-1.25713E-13
 -1      2640 1.31514E-02-1.06162E-03-1.27722E-13
 -1      2641 1.45115E-02-4.33500E-04-1.35316E-13
 -1      2642 6.89550E-04 2.51240E-04-5.54312E-16
 -1      2643 1.44785E-02-3.69136E-04-1.35738E-13
 -1      2644 5.64282E-04-1.64955E-04-4.65163E-16
 -1      2645 5.69721E-04-1.88023E-04-4.45201E-16
 -1      2646 6.97841E-04-2.27769E-04-6.14214E-16
 -1      2647 6.80699E-04-1.81673E-04-6.45182E-16
 -1      2648 9.81505E-03-2.14954E-04-9.88978E-14
 -1      2649 9.89952E-03-1.50273E-04-9.95690E-14
 -1      2650 9.93873E-03-1.28327E-04-9.86526E-14
 -1      2651 9.83544E-03-1.59356E-04-9.85371E-14
 -1      2652 1.01888E-02-4.95420E-05-1.00480E-13
 -1      2653 1.03905E-02-4.26403E-04-1.01177E-13
 -1      2654 9.76553E-03-1.89734E-04-9.91389E-14
 -1      2655 9.77117E-03-1.79993E-04-9.84082E-14
 -1      2656 9.75018E-03-1.88478E-04-9.80994E-14
 -1      2657 1.05867E-02 1.24953E-04-1.02777E-13
 -1      2658 1.10222E-02 3.60015E-04-1.05873E-13
 -1      2659 1.17700E-02 7.43135E-04-1.13417E-13
 -1      2660 1.26985E-02 5.00140E-04-1.24744E-13
 -1      2661 1.28022E-02 4.38765E-04-1.25146E-13
 -1      2662 1.29062E-02 3.70071E-04-1.26493E-13
 -1      2663 1.40138E-02 2.27837E-05-1.51850E-13
 -1      2664 1.44211E-02-7.69663E-04-1.49355E-13
 -1      2665 1.20652E-02 7.71923E-04-1.17366E-13
 -1      2666 1.21758E-02 7.51326E-04-1.18542E-13
 -1      2667 7.80179E-04 7.73383E-05-9.14687E-16
 -1      2668 7.78917E-04 5.54756E-05-9.21057E-16
 -1      2669 7.78070E-04 3.35624E-05-9.25421E-16
 -1      2670 7.77646E-04 1.18969E-05-9.27860E-16
 -1      2671 8.96480E-04 4.96850E-05-1.16958E-15
 -1      2672 7.91529E-04 1.73138E-04-8.62645E-16
 -1      2673 7.87522E-04 1.47723E-04-8.80128E-16
 -1      2674 8.03401E-04 2.28336E-04-8.15659E-16
 -1      2675 7.96774E-04 1.99945E-04-8.41544E-16
 -1      2676 9.14831E-04 2.07838E-04-1.08488E-15
 -1      2677 1.12982E-03 3.61969E-04-1.32838E-15
 -1      2678 9.86224E-04 3.32898E-04-1.03098E-15
 -1      2679 1.44487E-02-3.61218E-04-1.37251E-13
 -1      2680 1.45523E-02-3.84854E-04-1.37747E-13
 -1      2681 1.24003E-02 6.67243E-04-1.21786E-13
 -1      2682 1.25249E-02 6.00589E-04-1.23234E-13
 -1      2683 1.22596E-02 7.25297E-04-1.19829E-13
 -1      2684 1.32015E-03-3.62775E-04-1.87545E-15
 -1      2685 1.46338E-03-3.81770E-04-2.27566E-15
 -1      2686 1.60641E-03-3.97863E-04-2.71547E-15
 -1      2687 1.74935E-03-4.11278E-04-3.19529E-15
 -1      2688 1.52498E-03-3.55448E-04-2.54138E-15
 -1      2689 1.89212E-03-4.22489E-04-3.71555E-15
 -1      2690 2.03477E-03-4.31686E-04-4.27567E-15
 -1      2691 1.81166E-03-3.81362E-04-3.50826E-15
 -1      2692 2.17732E-03-4.39243E-04-4.87577E-15
 -1      2693 2.31979E-03-4.45312E-04-5.51536E-15
 -1      2694 2.09811E-03-3.99223E-04-4.63427E-15
 -1      2695 2.46220E-03-4.50183E-04-6.19350E-15
 -1      2696 2.60456E-03-4.53976E-04-6.91083E-15
 -1      2697 2.38429E-03-4.11050E-04-5.91745E-15
 -1      2698 2.74691E-03-4.56909E-04-7.66714E-15
 -1      2699 2.88924E-03-4.59077E-04-8.46064E-15
 -1      2700 2.67023E-03-4.18459E-04-7.35539E-15
 -1      2701 3.03159E-03-4.60639E-04-9.29178E-15
 -1      2702 3.17393E-03-4.61667E-04-1.01604E-14
 -1      2703 2.95601E-03-4.22700E-04-8.94544E-15
 -1      2704 3.31631E-03-4.62277E-04-1.10656E-14
 -1      2705 3.45870E-03-4.62522E-04-1.20081E-14
 -1      2706 3.24168E-03-4.24718E-04-1.06842E-14
 -1      2707 3.60113E-03-4.62483E-04-1.29873E-14
 -1      2708 3.74357E-03-4.62196E-04-1.40023E-14
 -1      2709 3.52730E-03-4.25205E-04-1.25707E-14
 -1      2710 3.88606E-03-4.61716E-04-1.50532E-14
 -1      2711 4.02858E-03-4.61068E-04-1.61393E-14
 -1      2712 3.81289E-03-4.24652E-04-1.46020E-14
 -1      2713 4.17113E-03-4.60285E-04-1.72606E-14
 -1      2714 4.31371E-03-4.59382E-04-1.84181E-14
 -1      2715 4.09849E-03-4.23392E-04-1.67755E-14
 -1      2716 4.45634E-03-4.58376E-04-1.96101E-14
 -1      2717 4.59899E-03-4.57275E-04-2.08362E-14
 -1      2718 4.38410E-03-4.21634E-04-1.90897E-14
 -1      2719 4.74168E-03-4.56082E-04-2.20978E-14
 -1      2720 4.88440E-03-4.54800E-04-2.33931E-14
 -1      2721 4.66975E-03-4.19487E-04-2.15429E-14
 -1      2722 5.02717E-03-4.53423E-04-2.47225E-14
 -1      2723 5.16997E-03-4.51948E-04-2.60853E-14
 -1      2724 4.95544E-03-4.16987E-04-2.41332E-14
 -1      2725 5.31281E-03-4.50362E-04-2.74823E-14
 -1      2726 5.45569E-03-4.48660E-04-2.89117E-14
 -1      2727 5.24117E-03-4.14112E-04-2.68600E-14
 -1      2728 5.59861E-03-4.46822E-04-3.03747E-14
 -1      2729 5.74158E-03-4.44841E-04-3.18711E-14
 -1      2730 5.52695E-03-4.10795E-04-2.97191E-14
 -1      2731 5.88460E-03-4.42694E-04-3.34009E-14
 -1      2732 6.02769E-03-4.40373E-04-3.49633E-14
 -1      2733 5.81280E-03-4.06936E-04-3.27108E-14
 -1      2734 6.17082E-03-4.37855E-04-3.65585E-14
 -1      2735 6.31403E-03-4.35131E-04-3.81869E-14
 -1      2736 6.09872E-03-4.02420E-04-3.58356E-14
 -1      2737 6.45730E-03-4.32180E-04-3.98462E-14
 -1      2738 6.60067E-03-4.28996E-04-4.15374E-14
 -1      2739 6.38470E-03-3.97126E-04-3.90899E-14
 -1      2740 6.74410E-03-4.25564E-04-4.32614E-14
 -1      2741 6.88765E-03-4.21883E-04-4.50145E-14
 -1      2742 6.67074E-03-3.90947E-04-4.24711E-14
 -1      2743 7.03128E-03-4.17950E-04-4.67982E-14
 -1      2744 7.17504E-03-4.13773E-04-4.86119E-14
 -1      2745 6.95684E-03-3.83816E-04-4.59775E-14
 -1      2746 7.31889E-03-4.09370E-04-5.04549E-14
 -1      2747 7.46290E-03-4.04762E-04-5.23269E-14
 -1      2748 7.24296E-03-3.75741E-04-4.96020E-14
 -1      2749 7.60700E-03-3.99999E-04-5.42265E-14
 -1      2750 7.75130E-03-3.95124E-04-5.61535E-14
 -1      2751 7.52904E-03-3.66854E-04-5.33428E-14
 -1      2752 7.89570E-03-3.90237E-04-5.81098E-14
 -1      2753 8.04032E-03-3.85411E-04-6.00940E-14
 -1      2754 7.81503E-03-3.57476E-04-5.71962E-14
 -1      2755 8.18507E-03-3.80816E-04-6.21041E-14
 -1      2756 8.33009E-03-3.76572E-04-6.41405E-14
 -1      2757 8.10085E-03-3.48203E-04-6.11600E-14
 -1      2758 8.47527E-03-3.72943E-04-6.62040E-14
 -1      2759 8.62082E-03-3.70123E-04-6.82909E-14
 -1      2760 8.38644E-03-3.40024E-04-6.52311E-14
 -1      2761 8.76664E-03-3.68492E-04-7.04032E-14
 -1      2762 8.91302E-03-3.68362E-04-7.25395E-14
 -1      2763 8.67189E-03-3.34462E-04-6.94033E-14
 -1      2764 9.05991E-03-3.70239E-04-7.46994E-14
 -1      2765 9.20771E-03-3.74630E-04-7.68835E-14
 -1      2766 8.95760E-03-3.33740E-04-7.36734E-14
 -1      2767 9.35655E-03-3.82153E-04-7.90905E-14
 -1      2768 9.50698E-03-3.93654E-04-8.13197E-14
 -1      2769 9.24469E-03-3.41002E-04-7.80392E-14
 -1      2770 9.65945E-03-4.09789E-04-8.35731E-14
 -1      2771 9.81467E-03-4.32004E-04-8.58467E-14
 -1      2772 9.53565E-03-3.60618E-04-8.24963E-14
 -1      2773 9.97364E-03-4.60845E-04-8.81414E-14
 -1      2774 1.01370E-02-4.98715E-04-9.04578E-14
 -1      2775 9.83530E-03-3.98798E-04-8.70414E-14
 -1      2776 1.03067E-02-5.45859E-04-9.27945E-14
 -1      2777 1.04825E-02-6.06004E-04-9.51542E-14
 -1      2778 1.01519E-02-4.64770E-04-9.16715E-14
 -1      2779 1.06675E-02-6.78790E-04-9.75331E-14
 -1      2780 1.08585E-02-7.68061E-04-9.99303E-14
 -1      2781 1.04972E-02-5.73129E-04-9.63832E-14
 -1      2782 1.18138E-02-1.32395E-03-1.11645E-13
 -1      2783 1.20072E-02-1.40828E-03-1.14152E-13
 -1      2784 1.26315E-02-1.36703E-03-1.22608E-13
 -1      2785 1.28331E-02-1.27909E-03-1.25199E-13
 -1      2786 1.34110E-02-1.02384E-03-1.32831E-13
 -1      2787 1.36049E-02-9.48564E-04-1.35481E-13
 -1      2788 1.37933E-02-8.87663E-04-1.38142E-13
 -1      2789 1.39717E-02-8.36785E-04-1.40817E-13
 -1      2790 1.37788E-02-8.46584E-04-1.36839E-13
 -1      2791 1.41434E-02-7.96165E-04-1.43503E-13
 -1      2792 1.43073E-02-7.61250E-04-1.46197E-13
 -1      2793 1.41367E-02-7.57416E-04-1.42183E-13
 -1      2794 1.98545E-03 4.63301E-04-3.96254E-15
 -1      2795 1.84341E-03 4.53043E-04-3.42228E-15
 -1      2796 2.83623E-03 4.94522E-04-8.03493E-15
 -1      2797 2.69446E-03 4.91939E-04-7.25827E-15
 -1      2798 3.11989E-03 4.97773E-04-9.70480E-15
 -1      2799 2.97804E-03 4.96440E-04-8.85050E-15
 -1      2800 2.90238E-03 4.58494E-04-8.52058E-15
 -1      2801 3.40377E-03 4.99113E-04-1.15258E-14
 -1      2802 3.26181E-03 4.98644E-04-1.05966E-14
 -1      2803 3.18715E-03 4.61116E-04-1.02305E-14
 -1      2804 3.68790E-03 4.99148E-04-1.34975E-14
 -1      2805 3.54581E-03 4.99266E-04-1.24933E-14
 -1      2806 3.47200E-03 4.62038E-04-1.20910E-14
 -1      2807 3.97229E-03 4.98297E-04-1.56145E-14
 -1      2808 3.83007E-03 4.98815E-04-1.45376E-14
 -1      2809 3.75693E-03 4.61802E-04-1.40991E-14
 -1      2810 4.25694E-03 4.96835E-04-1.78771E-14
 -1      2811 4.11459E-03 4.97631E-04-1.67276E-14
 -1      2812 4.04199E-03 4.60780E-04-1.62536E-14
 -1      2813 4.54182E-03 4.94924E-04-2.02811E-14
 -1      2814 4.39935E-03 4.95930E-04-1.90617E-14
 -1      2815 4.32717E-03 4.59212E-04-1.85515E-14
 -1      2816 4.82693E-03 4.92638E-04-2.28235E-14
 -1      2817 4.68435E-03 4.93826E-04-2.15358E-14
 -1      2818 4.61247E-03 4.57231E-04-2.09903E-14
 -1      2819 5.11228E-03 4.89984E-04-2.55011E-14
 -1      2820 4.96958E-03 4.91357E-04-2.41450E-14
 -1      2821 4.89790E-03 4.54892E-04-2.35655E-14
 -1      2822 5.39786E-03 4.86920E-04-2.83108E-14
 -1      2823 5.25504E-03 4.88506E-04-2.68893E-14
 -1      2824 5.18347E-03 4.52186E-04-2.62742E-14
 -1      2825 5.68372E-03 4.83372E-04-3.12531E-14
 -1      2826 5.54075E-03 4.85211E-04-2.97657E-14
 -1      2827 5.46918E-03 4.49062E-04-2.91157E-14
 -1      2828 5.96988E-03 4.79246E-04-3.43236E-14
 -1      2829 5.82675E-03 4.81386E-04-3.27728E-14
 -1      2830 5.75506E-03 4.45438E-04-3.20894E-14
 -1      2831 6.25642E-03 4.74447E-04-3.75227E-14
 -1      2832 6.11309E-03 4.76935E-04-3.59082E-14
 -1      2833 6.04114E-03 4.41218E-04-3.51919E-14
 -1      2834 6.54342E-03 4.68900E-04-4.08436E-14
 -1      2835 6.39985E-03 4.71769E-04-3.91670E-14
 -1      2836 6.32746E-03 4.36305E-04-3.84193E-14
 -1      2837 6.83102E-03 4.62578E-04-4.42881E-14
 -1      2838 6.68713E-03 4.65834E-04-4.25510E-14
 -1      2839 6.61410E-03 4.30630E-04-4.17703E-14
 -1      2840 7.11936E-03 4.55541E-04-4.78499E-14
 -1      2841 6.97508E-03 4.59141E-04-4.60543E-14
 -1      2842 6.90112E-03 4.24174E-04-4.52417E-14
 -1      2843 7.40867E-03 4.47983E-04-5.15320E-14
 -1      2844 7.26387E-03 4.51809E-04-4.96767E-14
 -1      2845 7.18866E-03 4.17008E-04-4.88324E-14
 -1      2846 7.69919E-03 4.40296E-04-5.53273E-14
 -1      2847 7.55374E-03 4.44124E-04-5.34157E-14
 -1      2848 7.47689E-03 4.09341E-04-5.25401E-14
 -1      2849 7.99125E-03 4.33149E-04-5.92285E-14
 -1      2850 7.84499E-03 4.36604E-04-5.72639E-14
 -1      2851 7.76603E-03 4.01587E-04-5.63610E-14
 -1      2852 8.28529E-03 4.27580E-04-6.32380E-14
 -1      2853 8.13799E-03 4.30091E-04-6.12204E-14
 -1      2854 8.05642E-03 3.94436E-04-6.02883E-14
 -1      2855 8.58185E-03 4.25093E-04-6.73485E-14
 -1      2856 8.43321E-03 4.25842E-04-6.52807E-14
 -1      2857 8.34851E-03 3.88948E-04-6.43221E-14
 -1      2858 8.88163E-03 4.27740E-04-7.15620E-14
 -1      2859 8.73130E-03 4.25625E-04-6.94426E-14
 -1      2860 8.64298E-03 3.86648E-04-6.84596E-14
 -1      2861 9.18549E-03 4.38163E-04-7.58746E-14
 -1      2862 9.03302E-03 4.31787E-04-7.37057E-14
 -1      2863 8.94076E-03 3.89617E-04-7.26977E-14
 -1      2864 9.49438E-03 4.59512E-04-8.02855E-14
 -1      2865 9.33930E-03 4.47243E-04-7.80665E-14
 -1      2866 9.24307E-03 4.00545E-04-7.70335E-14
 -1      2867 9.80919E-03 4.95135E-04-8.47963E-14
 -1      2868 9.65110E-03 4.75305E-04-8.25290E-14
 -1      2869 9.55142E-03 4.22699E-04-8.14692E-14
 -1      2870 1.01302E-02 5.47847E-04-8.94119E-14
 -1      2871 9.96908E-03 5.19183E-04-8.70923E-14
 -1      2872 9.86730E-03 4.59666E-04-8.60065E-14
 -1      2873 1.04565E-02 6.18524E-04-9.41194E-14
 -1      2874 1.02930E-02 5.80997E-04-9.17544E-14
 -1      2875 1.01916E-02 5.14693E-04-9.06389E-14
 -1      2876 1.07848E-02 7.03700E-04-9.89237E-14
 -1      2877 1.06208E-02 6.59763E-04-9.65114E-14
 -1      2878 1.05234E-02 5.89064E-04-9.53680E-14
 -1      2879 1.11097E-02 7.92826E-04-1.03815E-13
 -1      2880 1.09482E-02 7.48875E-04-1.01359E-13
 -1      2881 1.08587E-02 6.79251E-04-1.00187E-13
 -1      2882 1.14258E-02 8.67015E-04-1.08789E-13
 -1      2883 1.12691E-02 8.33380E-04-1.06291E-13
 -1      2884 1.11906E-02 7.72868E-04-1.05091E-13
 -1      2885 1.17311E-02 9.02942E-04-1.13838E-13
 -1      2886 1.15794E-02 8.91379E-04-1.11307E-13
 -1      2887 1.15123E-02 8.47462E-04-1.10078E-13
 -1      2888 1.20303E-02 8.82360E-04-1.18953E-13
 -1      2889 1.18805E-02 9.00283E-04-1.16389E-13
 -1      2890 1.18224E-02 8.75387E-04-1.15140E-13
 -1      2891 1.23320E-02 8.02975E-04-1.24118E-13
 -1      2892 1.21800E-02 8.49323E-04-1.21531E-13
 -1      2893 1.21283E-02 8.38553E-04-1.20263E-13
 -1      2894 1.26419E-02 6.78970E-04-1.29317E-13
 -1      2895 1.24857E-02 7.45031E-04-1.26714E-13
 -1      2896 1.24403E-02 7.39905E-04-1.25433E-13
 -1      2897 1.29591E-02 5.31513E-04-1.34546E-13
 -1      2898 1.28000E-02 6.06744E-04-1.31928E-13
 -1      2899 1.27629E-02 6.00934E-04-1.30639E-13
 -1      2900 1.32778E-02 3.78266E-04-1.39795E-13
 -1      2901 1.31188E-02 4.54837E-04-1.37168E-13
 -1      2902 1.30920E-02 4.46387E-04-1.35871E-13
 -1      2903 1.35923E-02 2.27779E-04-1.45066E-13
 -1      2904 1.34361E-02 3.02518E-04-1.42426E-13
 -1      2905 1.34196E-02 2.93027E-04-1.41128E-13
 -1      2906 1.38805E-02 8.80771E-05-1.49779E-13
 -1      2907 1.37277E-02 1.61026E-04-1.47132E-13
 -1      2908 1.37194E-02 1.52369E-04-1.45825E-13
 -1      2909 1.39939E-02 2.35594E-05-1.49960E-13
 -1      2910 1.48871E-02-3.97401E-04-1.49898E-13
 -1      2911 1.48096E-02-3.69126E-04-1.49886E-13
 -1      2912 1.44133E-02-7.41645E-04-1.48026E-13
 -1      2913 1.45167E-02-7.22651E-04-1.49858E-13
 -1      2914 1.44087E-02-7.09270E-04-1.46697E-13
 -1      2915 1.45203E-02-2.51511E-04-1.49839E-13
 -1      2916 1.44182E-02-2.04205E-04-1.49821E-13
 -1      2917 1.49880E-02-4.38404E-04-1.49917E-13
 -1      2918 1.49479E-02-4.19316E-04-1.49909E-13
 -1      2919 1.48201E-02-3.97549E-04-1.47580E-13
 -1      2920 1.47196E-02-3.35079E-04-1.49871E-13
 -1      2921 1.46220E-02-2.95671E-04-1.49855E-13
 -1      2922 1.44429E-02-2.43682E-04-1.47536E-13
 -1      2923 1.46508E-02-3.34074E-04-1.47562E-13
 -1      2924 1.19907E-02 7.82398E-04-1.16481E-13
 -1      2925 1.21142E-02 7.68685E-04-1.18262E-13
 -1      2926 1.49991E-02-4.71037E-04-1.49920E-13
 -1      2927 1.50049E-02-4.54020E-04-1.49921E-13
 -1      2928 1.49069E-02-4.37466E-04-1.47589E-13
 -1      2929 1.49238E-02-5.14043E-04-1.49913E-13
 -1      2930 1.49710E-02-4.89965E-04-1.49918E-13
 -1      2931 1.48913E-02-4.73560E-04-1.47585E-13
 -1      2932 1.47873E-02-5.77926E-04-1.49892E-13
 -1      2933 1.48606E-02-5.43109E-04-1.49904E-13
 -1      2934 1.47844E-02-5.27085E-04-1.47570E-13
 -1      2935 1.70119E-03 4.40578E-04-2.92285E-15
 -1      2936 1.55874E-03 4.25700E-04-2.46363E-15
 -1      2937 1.76211E-03 4.11256E-04-3.23161E-15
 -1      2938 1.00555E-02-2.86040E-04-9.83307E-14
 -1      2939 9.92969E-03-2.45607E-04-9.78051E-14
 -1      2940 1.46135E-02-6.78485E-04-1.50356E-13
 -1      2941 1.46143E-02-4.06139E-04-1.37700E-13
 -1      2942 1.46124E-02-4.13740E-04-1.37352E-13
 -1      2943 8.03097E-04 2.78243E-04-7.30752E-16
 -1      2944 8.28032E-04-2.65290E-04-8.13477E-16
 -1      2945 9.59658E-04-3.00550E-04-1.04356E-15
 -1      2946 8.17432E-04-2.38656E-04-8.35174E-16
 -1      2947 1.24763E-02-1.42918E-03-1.20591E-13
 -1      2948 1.16829E-02-1.23444E-03-1.10614E-13
 -1      2949 1.15705E-02-1.15618E-03-1.09783E-13
 -1      2950 1.36645E-02-6.29548E-05-1.32597E-13
 -1      2951 1.38815E-02-1.64800E-04-1.33544E-13
 -1      2952 1.00747E-02-7.42902E-05-9.87122E-14
 -1      2953 1.02341E-02-1.31176E-05-9.95005E-14
 -1      2954 2.55270E-03 4.88518E-04-6.52026E-15
 -1      2955 2.41096E-03 4.84156E-04-5.82154E-15
 -1      2956 2.61760E-03 4.53408E-04-6.96361E-15
 -1      2957 2.26918E-03 4.78617E-04-5.16197E-15
 -1      2958 2.12736E-03 4.71772E-04-4.54243E-15
 -1      2959 2.33273E-03 4.44825E-04-5.56208E-15
 -1      2960 1.06817E-03-3.21644E-04-1.26789E-15
 -1      2961 1.21147E-03-3.46878E-04-1.59712E-15
 -1      2962 1.27288E-03-3.24858E-04-1.82073E-15
 -1      2963 1.05582E-03-2.91432E-04-1.29667E-15
 -1      2964 1.41607E-03 4.07874E-04-2.04487E-15
 -1      2965 1.27302E-03 3.86839E-04-1.66603E-15
 -1      2966 1.18967E-03 3.41516E-04-1.53968E-15
 -1      2967 1.47610E-03 3.82226E-04-2.30538E-15
 -1      2968 7.84373E-04 1.23467E-04-8.94209E-16
 -1      2969 7.81985E-04 1.00030E-04-9.05837E-16
 -1      2970 8.99595E-04 9.94574E-05-1.15378E-15
 -1      2971 9.05336E-04 1.51600E-04-1.12632E-15
 -1      2972 1.16571E-02 7.20025E-04-1.11882E-13
 -1      2973 1.18163E-02 7.67995E-04-1.14046E-13
 -1      2974 7.81714E-04-9.79751E-05-9.09835E-16
 -1      2975 7.84024E-04-1.21332E-04-8.99319E-16
 -1      2976 1.39572E-02-6.37559E-04-1.33735E-13
 -1      2977 1.37582E-02-7.28473E-04-1.32458E-13
 -1      2978 1.08907E-02 3.07812E-04-1.04028E-13
 -1      2979 1.10805E-02 4.19894E-04-1.05609E-13
 -1      2980 1.04732E-02-4.68750E-04-1.00329E-13
 -1      2981 1.02510E-02-3.64769E-04-9.91801E-14
 -1      2982 1.04644E-02 8.95763E-05-1.00857E-13
 -1      2983 1.06734E-02 1.90942E-04-1.02356E-13
 -1      2984 1.12978E-02 5.41896E-04-1.07731E-13
 -1      2985 1.14709E-02 6.38105E-04-1.09622E-13
 -1      2986 1.12201E-02-9.23831E-04-1.05660E-13
 -1      2987 1.10584E-02-8.11116E-04-1.04400E-13
 -1      2988 1.08953E-02-7.07135E-04-1.03157E-13
 -1      2989 1.07287E-02-6.07794E-04-1.01917E-13
 -1      2990 1.09530E-02-7.61438E-04-1.02731E-13
 -1      2991 1.14424E-02-1.07119E-03-1.08117E-13
 -1      2992 1.45758E-02-4.28281E-04-1.37133E-13
 -1      2993 1.45030E-02-4.47070E-04-1.36914E-13
 -1      2994 1.46311E-02-4.28085E-04-1.38954E-13
 -1      2995 9.81613E-03-2.11245E-04-9.73113E-14
 -1      2996 9.75955E-03-1.97238E-04-9.72470E-14
 -1      2997 1.35566E-02-8.33877E-04-1.31161E-13
 -1      2998 1.33890E-02-9.28611E-04-1.29924E-13
 -1      2999 1.21660E-02-1.45416E-03-1.16301E-13
 -1      3000 1.16798E-02-1.24687E-03-1.09903E-13
 -1      3001 1.14786E-02-1.12385E-03-1.07424E-13
 -1      3002 1.23513E-02-1.45542E-03-1.18846E-13
 -1      3003 1.18739E-02 7.83899E-04-1.14931E-13
 -1      3004 8.95454E-04 1.01055E-06-1.17534E-15
 -1      3005 7.77617E-04-9.72153E-06-9.28362E-16
 -1      3006 7.77981E-04-3.13705E-05-9.27034E-16
 -1      3007 1.46219E-02-3.99927E-04-1.39218E-13
 -1      3008 1.26244E-02 5.45141E-04-1.24577E-13
 -1      3009 7.87068E-04-1.45487E-04-8.85942E-16
 -1      3010 7.90946E-04-1.70661E-04-8.69191E-16
 -1      3011 9.04860E-04-1.49084E-04-1.13239E-15
 -1      3012 1.23345E-02 6.97734E-04-1.21105E-13
 -1      3013 1.30190E-02 2.99816E-04-1.28002E-13
 -1      3014 1.31318E-02 2.36510E-04-1.29515E-13
 -1      3015 1.29132E-02 3.71714E-04-1.27597E-13
 -1      3016 1.44617E-02-4.69782E-04-1.37535E-13
 -1      3017 1.40010E-02-2.09023E-04-1.35072E-13
 -1      3018 1.10678E-02-8.73613E-04-1.02534E-13
 -1      3019 1.12712E-02-9.92856E-04-1.04970E-13
 -1      3020 1.29488E-02-1.22771E-03-1.26754E-13
 -1      3021 1.42325E-02-1.37497E-04-1.47507E-13
 -1      3022 1.43184E-02-1.54763E-04-1.49803E-13
 -1      3023 1.42216E-02-1.04748E-04-1.49783E-13
 -1      3024 1.31524E-02-1.13135E-03-1.29372E-13
 -1      3025 9.83583E-03-2.20797E-04-9.61582E-14
 -1      3026 2.04762E-03 4.31370E-04-4.31760E-15
 -1      3027 1.11528E-02 4.89633E-04-1.05868E-13
 -1      3028 1.03189E-02 5.04099E-05-9.90834E-14
 -1      3029 1.05568E-02-5.27076E-04-9.99107E-14
 -1      3030 1.15345E-02 6.88007E-04-1.10239E-13
 -1      3031 9.72978E-03-1.87347E-04-9.65181E-14
 -1      3032 1.41496E-02-6.45840E-05-1.49884E-13
 -1      3033 1.40600E-02-1.50308E-05-1.49863E-13
 -1      3034 1.39215E-02 4.67740E-05-1.47795E-13
 -1      3035 1.40589E-02-3.82205E-05-1.47595E-13
 -1      3036 1.46956E-02-6.34871E-04-1.50379E-13
 -1      3037 9.98012E-03-9.75207E-05-9.76817E-14
 -1      3038 1.00110E-02-6.07631E-05-9.67100E-14
 -1      3039 9.89551E-03-1.11372E-04-9.66548E-14
 -1      3040 1.32776E-02-1.00969E-03-1.29473E-13
 -1      3041 1.01285E-02-3.23574E-04-9.74906E-14
 -1      3042 8.64856E-04 2.66564E-04-8.83923E-16
 -1      3043 1.35421E-02 7.82640E-07-1.32231E-13
 -1      3044 1.37066E-02-7.13674E-05-1.34182E-13
 -1      3045 1.34282E-02 6.75604E-05-1.31866E-13
 -1      3046 9.78373E-03-1.65090E-04-9.74959E-14
 -1      3047 9.80059E-03-1.47077E-04-9.65838E-14
 -1      3048 9.74178E-03-1.65379E-04-9.64577E-14
 -1      3049 1.13205E-02-9.98496E-04-1.06417E-13
 -1      3050 1.42315E-02-5.54906E-04-1.36887E-13
 -1      3051 1.41001E-02-5.88457E-04-1.35308E-13
 -1      3052 1.40300E-02-6.38760E-04-1.35859E-13
 -1      3053 1.07420E-02 2.61260E-04-1.02093E-13
 -1      3054 1.43822E-02-3.40125E-04-1.37428E-13
 -1      3055 1.44872E-02-3.59435E-04-1.39438E-13
 -1      3056 1.43074E-02-3.14271E-04-1.37601E-13
 -1      3057 7.78759E-04-5.31569E-05-9.23361E-16
 -1      3058 7.79977E-04-7.53473E-05-9.17506E-16
 -1      3059 8.99310E-04-9.71061E-05-1.15752E-15
 -1      3060 8.96350E-04-4.75321E-05-1.17145E-15
 -1      3061 9.82948E-04 2.75806E-04-1.13857E-15
 -1      3062 1.22459E-02 7.35174E-04-1.20211E-13
 -1      3063 1.23759E-02 6.84343E-04-1.22169E-13
 -1      3064 1.21664E-02 7.62540E-04-1.19318E-13
 -1      3065 1.36934E-02-7.83860E-04-1.32983E-13
 -1      3066 1.45103E-02-6.65508E-04-1.47372E-13
 -1      3067 1.46941E-02-6.09482E-04-1.49219E-13
 -1      3068 1.46125E-02-5.96522E-04-1.46889E-13
 -1      3069 1.44074E-02-6.78531E-04-1.45546E-13
 -1      3070 1.04027E-03 2.43286E-04-1.33223E-15
 -1      3071 1.03365E-03 2.11562E-04-1.36089E-15
 -1      3072 1.46414E-02-3.97706E-04-1.41056E-13
 -1      3073 1.46913E-02-4.15594E-04-1.41015E-13
 -1      3074 1.08891E-02-7.44823E-04-1.01360E-13
 -1      3075 1.73167E-03-3.40518E-04-3.30119E-15
 -1      3076 1.87533E-03-3.50730E-04-3.82753E-15
 -1      3077 2.01899E-03-3.59223E-04-4.39296E-15
 -1      3078 2.16264E-03-3.66153E-04-4.99802E-15
 -1      3079 1.94015E-03-3.19413E-04-4.15282E-15
 -1      3080 2.30623E-03-3.71796E-04-5.64147E-15
 -1      3081 2.44978E-03-3.76277E-04-6.32343E-15
 -1      3082 2.22819E-03-3.32539E-04-5.36638E-15
 -1      3083 2.59327E-03-3.79818E-04-7.04441E-15
 -1      3084 2.73671E-03-3.82517E-04-7.80327E-15
 -1      3085 2.51616E-03-3.41066E-04-6.73474E-15
 -1      3086 2.88009E-03-3.84545E-04-8.59943E-15
 -1      3087 3.02341E-03-3.85977E-04-9.43287E-15
 -1      3088 2.80393E-03-3.46223E-04-8.25451E-15
 -1      3089 3.16670E-03-3.86941E-04-1.03038E-14
 -1      3090 3.30993E-03-3.87491E-04-1.12112E-14
 -1      3091 3.09143E-03-3.48975E-04-9.92404E-15
 -1      3092 3.45313E-03-3.87721E-04-1.21549E-14
 -1      3093 3.59628E-03-3.87670E-04-1.31353E-14
 -1      3094 3.37866E-03-3.50047E-04-1.17409E-14
 -1      3095 3.73941E-03-3.87401E-04-1.41519E-14
 -1      3096 3.88249E-03-3.86942E-04-1.52038E-14
 -1      3097 3.66564E-03-3.49971E-04-1.37027E-14
 -1      3098 4.02556E-03-3.86336E-04-1.62902E-14
 -1      3099 4.16860E-03-3.85596E-04-1.74125E-14
 -1      3100 3.95238E-03-3.49114E-04-1.58073E-14
 -1      3101 4.31162E-03-3.84750E-04-1.85711E-14
 -1      3102 4.45462E-03-3.83805E-04-1.97638E-14
 -1      3103 4.23891E-03-3.47721E-04-1.80529E-14
 -1      3104 4.59760E-03-3.82774E-04-2.09899E-14
 -1      3105 4.74057E-03-3.81657E-04-2.22509E-14
 -1      3106 4.52526E-03-3.45934E-04-2.04386E-14
 -1      3107 4.88352E-03-3.80457E-04-2.35469E-14
 -1      3108 5.02646E-03-3.79170E-04-2.48757E-14
 -1      3109 4.81145E-03-3.43819E-04-2.29607E-14
 -1      3110 5.16938E-03-3.77790E-04-2.62385E-14
 -1      3111 5.31229E-03-3.76310E-04-2.76355E-14
 -1      3112 5.09747E-03-3.41379E-04-2.56191E-14
 -1      3113 5.45519E-03-3.74719E-04-2.90645E-14
 -1      3114 5.59807E-03-3.73007E-04-3.05266E-14
 -1      3115 5.38334E-03-3.38575E-04-2.84117E-14
 -1      3116 5.74094E-03-3.71158E-04-3.20230E-14
 -1      3117 5.88378E-03-3.69161E-04-3.35518E-14
 -1      3118 5.66904E-03-3.35332E-04-3.13367E-14
 -1      3119 6.02660E-03-3.67000E-04-3.51136E-14
 -1      3120 6.16940E-03-3.64661E-04-3.67084E-14
 -1      3121 5.95452E-03-3.31555E-04-3.43934E-14
 -1      3122 6.31216E-03-3.62131E-04-3.83351E-14
 -1      3123 6.45489E-03-3.59395E-04-3.99935E-14
 -1      3124 6.23974E-03-3.27140E-04-3.75815E-14
 -1      3125 6.59756E-03-3.56447E-04-4.16843E-14
 -1      3126 6.74018E-03-3.53273E-04-4.34064E-14
 -1      3127 6.52460E-03-3.21990E-04-4.08991E-14
 -1      3128 6.88272E-03-3.49877E-04-4.51581E-14
 -1      3129 7.02519E-03-3.46251E-04-4.69394E-14
 -1      3130 6.80899E-03-3.16033E-04-4.43410E-14
 -1      3131 7.16754E-03-3.42415E-04-4.87512E-14
 -1      3132 7.30980E-03-3.38368E-04-5.05928E-14
 -1      3133 7.09274E-03-3.09255E-04-4.79035E-14
 -1      3134 7.45188E-03-3.34158E-04-5.24617E-14
 -1      3135 7.59384E-03-3.29794E-04-5.43592E-14
 -1      3136 7.37562E-03-3.01726E-04-5.15829E-14
 -1      3137 7.73555E-03-3.25362E-04-5.62853E-14
 -1      3138 7.87709E-03-3.20891E-04-5.82384E-14
 -1      3139 7.65734E-03-2.93656E-04-5.53770E-14
 -1      3140 8.01831E-03-3.16517E-04-6.02185E-14
 -1      3141 8.15932E-03-3.12294E-04-6.22253E-14
 -1      3142 7.93756E-03-2.85445E-04-5.92796E-14
 -1      3143 8.29994E-03-3.08428E-04-6.42609E-14
 -1      3144 8.44030E-03-3.05007E-04-6.63208E-14
 -1      3145 8.21588E-03-2.77754E-04-6.32920E-14
 -1      3146 8.58025E-03-3.02319E-04-6.84059E-14
 -1      3147 8.71996E-03-3.00508E-04-7.05165E-14
 -1      3148 8.49188E-03-2.71570E-04-6.74095E-14
 -1      3149 8.85929E-03-2.99946E-04-7.26507E-14
 -1      3150 8.99856E-03-3.00875E-04-7.48089E-14
 -1      3151 8.76529E-03-2.68279E-04-7.16290E-14
 -1      3152 9.13769E-03-3.03730E-04-7.69899E-14
 -1      3153 9.27721E-03-3.08935E-04-7.91952E-14
 -1      3154 9.03617E-03-2.69717E-04-7.59442E-14
 -1      3155 9.41718E-03-3.16933E-04-8.14215E-14
 -1      3156 9.55855E-03-3.28546E-04-8.36718E-14
 -1      3157 9.30544E-03-2.78251E-04-8.03513E-14
 -1      3158 9.70165E-03-3.44116E-04-8.59440E-14
 -1      3159 9.84807E-03-3.65370E-04-8.82361E-14
 -1      3160 9.57565E-03-2.96989E-04-8.48460E-14
 -1      3161 9.99864E-03-3.92488E-04-9.05501E-14
 -1      3162 1.01556E-02-4.28878E-04-9.28841E-14
 -1      3163 9.85265E-03-3.30873E-04-8.94313E-14
 -1      3164 9.84920E-03-2.32132E-04-9.48346E-14
 -1      3165 9.75073E-03-2.02774E-04-9.43485E-14
 -1      3166 1.10137E-02 4.52189E-04-1.03923E-13
 -1      3167 1.12070E-02 5.58662E-04-1.06033E-13
 -1      3168 2.96917E-03 4.22088E-04-9.00868E-15
 -1      3169 2.82627E-03 4.20298E-04-8.19044E-15
 -1      3170 3.82623E-03 4.24265E-04-1.47034E-14
 -1      3171 3.68341E-03 4.24599E-04-1.36622E-14
 -1      3172 4.11187E-03 4.23121E-04-1.68936E-14
 -1      3173 3.96905E-03 4.23766E-04-1.57806E-14
 -1      3174 3.89581E-03 3.86587E-04-1.53093E-14
 -1      3175 4.39751E-03 4.21487E-04-1.92269E-14
 -1      3176 4.25469E-03 4.22357E-04-1.80429E-14
 -1      3177 4.18194E-03 3.85359E-04-1.75357E-14
 -1      3178 4.68317E-03 4.19474E-04-2.16998E-14
 -1      3179 4.54034E-03 4.20525E-04-2.04459E-14
 -1      3180 4.46798E-03 3.83697E-04-1.99038E-14
 -1      3181 4.96886E-03 4.17115E-04-2.43076E-14
 -1      3182 4.82602E-03 4.18338E-04-2.29873E-14
 -1      3183 4.75393E-03 3.81684E-04-2.24097E-14
 -1      3184 5.25459E-03 4.14392E-04-2.70483E-14
 -1      3185 5.11172E-03 4.15802E-04-2.56614E-14
 -1      3186 5.03982E-03 3.79340E-04-2.50501E-14
 -1      3187 5.54036E-03 4.11244E-04-2.99220E-14
 -1      3188 5.39747E-03 4.12876E-04-2.84684E-14
 -1      3189 5.32564E-03 3.76634E-04-2.78231E-14
 -1      3190 5.82619E-03 4.07585E-04-3.29268E-14
 -1      3191 5.68327E-03 4.09484E-04-3.14085E-14
 -1      3192 5.61140E-03 3.73498E-04-3.07289E-14
 -1      3193 6.11209E-03 4.03315E-04-3.60601E-14
 -1      3194 5.96913E-03 4.05532E-04-3.44775E-14
 -1      3195 5.89709E-03 3.69845E-04-3.37658E-14
 -1      3196 6.39808E-03 3.98342E-04-3.93163E-14
 -1      3197 6.25507E-03 4.00922E-04-3.76729E-14
 -1      3198 6.18271E-03 3.65576E-04-3.69276E-14
 -1      3199 6.68419E-03 3.92600E-04-4.26974E-14
 -1      3200 6.54111E-03 3.95570E-04-4.09915E-14
 -1      3201 6.46825E-03 3.60599E-04-4.02150E-14
 -1      3202 6.97048E-03 3.86075E-04-4.61966E-14
 -1      3203 6.82730E-03 3.89434E-04-4.44327E-14
 -1      3204 6.75370E-03 3.54853E-04-4.36243E-14
 -1      3205 7.25702E-03 3.78848E-04-4.98158E-14
 -1      3206 7.11370E-03 3.82542E-04-4.79915E-14
 -1      3207 7.03908E-03 3.48328E-04-4.71530E-14
 -1      3208 7.54395E-03 3.71137E-04-5.35503E-14
 -1      3209 7.40041E-03 3.75036E-04-5.16684E-14
 -1      3210 7.32443E-03 3.41108E-04-5.07992E-14
 -1      3211 7.83147E-03 3.63361E-04-5.73950E-14
 -1      3212 7.68760E-03 3.67225E-04-5.54593E-14
 -1      3213 7.60984E-03 3.33410E-04-5.45608E-14
 -1      3214 8.11991E-03 3.56212E-04-6.13495E-14
 -1      3215 7.97553E-03 3.59655E-04-5.93579E-14
 -1      3216 7.89550E-03 3.25642E-04-5.84316E-14
 -1      3217 8.40982E-03 3.50742E-04-6.54083E-14
 -1      3218 8.26463E-03 3.53186E-04-6.33655E-14
 -1      3219 8.18177E-03 3.18474E-04-6.24098E-14
 -1      3220 8.70199E-03 3.48464E-04-6.95703E-14
 -1      3221 8.55555E-03 3.49086E-04-6.74775E-14
 -1      3222 8.46925E-03 3.12921E-04-6.64954E-14
 -1      3223 8.99762E-03 3.51445E-04-7.38337E-14
 -1      3224 8.84928E-03 3.49129E-04-7.16887E-14
 -1      3225 8.75891E-03 3.10440E-04-7.06826E-14
 -1      3226 9.29837E-03 3.62405E-04-7.81957E-14
 -1      3227 9.14725E-03 3.55698E-04-7.60023E-14
 -1      3228 9.05224E-03 3.13052E-04-7.49708E-14
 -1      3229 9.60633E-03 3.84748E-04-8.26568E-14
 -1      3230 9.45136E-03 3.71856E-04-8.04138E-14
 -1      3231 9.35137E-03 3.23493E-04-7.93586E-14
 -1      3232 9.92372E-03 4.22430E-04-8.72145E-14
 -1      3233 9.76382E-03 4.01329E-04-8.49215E-14
 -1      3234 9.65908E-03 3.45369E-04-8.38415E-14
 -1      3235 1.02521E-02 4.79357E-04-9.18659E-14
 -1      3236 1.00867E-02 4.48161E-04-8.95294E-14
 -1      3237 9.97842E-03 3.83192E-04-8.84209E-14
 -1      3238 1.05907E-02 5.57804E-04-9.66135E-14
 -1      3239 1.04205E-02 5.15865E-04-9.42283E-14
 -1      3240 1.03117E-02 4.42102E-04-9.30942E-14
 -1      3241 1.09346E-02 6.54182E-04-1.01449E-13
 -1      3242 1.07627E-02 6.04364E-04-9.90203E-14
 -1      3243 1.06583E-02 5.25562E-04-9.78579E-14
 -1      3244 1.12749E-02 7.54180E-04-1.06366E-13
 -1      3245 1.11061E-02 7.05488E-04-1.03897E-13
 -1      3246 1.10118E-02 6.30302E-04-1.02707E-13
 -1      3247 1.16025E-02 8.30024E-04-1.11366E-13
 -1      3248 1.14403E-02 7.97725E-04-1.08856E-13
 -1      3249 1.13604E-02 7.38661E-04-1.07639E-13
 -1      3250 1.19175E-02 8.48437E-04-1.16439E-13
 -1      3251 1.17606E-02 8.48496E-04-1.13895E-13
 -1      3252 1.16942E-02 8.15215E-04-1.12652E-13
 -1      3253 1.25549E-02 6.70198E-04-1.26747E-13
 -1      3254 1.23907E-02 7.36514E-04-1.24155E-13
 -1      3255 1.28918E-02 5.15964E-04-1.31959E-13
 -1      3256 1.27224E-02 5.94745E-04-1.29349E-13
 -1      3257 1.26795E-02 5.90933E-04-1.28061E-13
 -1      3258 1.32329E-02 3.56728E-04-1.37199E-13
 -1      3259 1.30628E-02 4.35671E-04-1.34574E-13
 -1      3260 1.30315E-02 4.24167E-04-1.33278E-13
 -1      3261 1.35678E-02 2.06009E-04-1.42461E-13
 -1      3262 1.34019E-02 2.80002E-04-1.39826E-13
 -1      3263 1.33830E-02 2.64050E-04-1.38525E-13
 -1      3264 1.38166E-02 9.26978E-05-1.46158E-13
 -1      3265 1.36751E-02 1.57513E-04-1.44095E-13
 -1      3266 1.36653E-02 1.41294E-04-1.42789E-13
 -1      3267 1.38822E-02 4.91834E-05-1.46059E-13
 -1      3268 1.14500E-03 3.10593E-04-1.48387E-15
 -1      3269 1.08236E-03 2.71665E-04-1.39239E-15
 -1      3270 1.20146E-03 2.73102E-04-1.70784E-15
 -1      3271 1.28816E-03 3.32567E-04-1.83984E-15
 -1      3272 1.46699E-02-3.88331E-04-1.43584E-13
 -1      3273 1.45793E-02-3.55265E-04-1.43582E-13
 -1      3274 1.46437E-02-5.44702E-04-1.45423E-13
 -1      3275 1.47228E-02-5.07041E-04-1.45434E-13
 -1      3276 2.68332E-03 4.17843E-04-7.41109E-15
 -1      3277 2.54034E-03 4.14638E-04-6.66988E-15
 -1      3278 2.74981E-03 3.81902E-04-7.86231E-15
 -1      3279 1.82456E-03 3.81212E-04-3.54667E-15
 -1      3280 1.68121E-03 3.69617E-04-3.04056E-15
 -1      3281 1.47864E-02-4.78179E-04-1.45442E-13
 -1      3282 1.48247E-02-4.55544E-04-1.45448E-13
 -1      3283 1.46696E-02-4.86902E-04-1.43305E-13
 -1      3284 3.54059E-03 4.24718E-04-1.26573E-14
 -1      3285 3.39776E-03 4.24593E-04-1.16894E-14
 -1      3286 3.60955E-03 3.87209E-04-1.32262E-14
 -1      3287 3.25491E-03 4.24153E-04-1.07584E-14
 -1      3288 3.11206E-03 4.23352E-04-9.86468E-15
 -1      3289 3.03658E-03 3.85376E-04-9.50013E-15
 -1      3290 3.32315E-03 3.86946E-04-1.12892E-14
 -1      3291 7.99201E-04-1.91589E-04-8.62252E-16
 -1      3292 8.07203E-04-2.15463E-04-8.47968E-16
 -1      3293 9.36476E-04-2.46255E-04-1.08558E-15
 -1      3294 9.17265E-04-1.98765E-04-1.10777E-15
 -1      3295 1.26045E-02 5.66152E-04-1.24964E-13
 -1      3296 1.27631E-02 4.67161E-04-1.26480E-13
 -1      3297 1.44457E-03-3.13793E-04-2.36736E-15
 -1      3298 1.58808E-03-3.28258E-04-2.81464E-15
 -1      3299 1.65236E-03-3.00192E-04-3.09515E-15
 -1      3300 1.33263E-02-1.01180E-03-1.30717E-13
 -1      3301 2.39730E-03 4.10493E-04-5.96729E-15
 -1      3302 2.25422E-03 4.05300E-04-5.30314E-15
 -1      3303 2.46282E-03 3.75704E-04-6.37684E-15
 -1      3304 1.05948E-02 2.30544E-04-9.99679E-14
 -1      3305 1.07839E-02 3.31129E-04-1.01621E-13
 -1      3306 1.01599E-02 2.31249E-05-9.67954E-14
 -1      3307 1.03584E-02 1.12782E-04-9.81335E-14
 -1      3308 9.69387E-03-1.78578E-04-9.47370E-14
 -1      3309 9.70364E-03-1.72204E-04-9.55837E-14
 -1      3310 1.45497E-02-4.69975E-04-1.39726E-13
 -1      3311 1.44106E-02-5.03135E-04-1.38524E-13
 -1      3312 1.14070E-02 6.59149E-04-1.08444E-13
 -1      3313 1.15744E-02 7.32637E-04-1.10696E-13
 -1      3314 1.46941E-02-4.37246E-04-1.41239E-13
 -1      3315 1.46533E-02-4.50192E-04-1.41020E-13
 -1      3316 2.11106E-03 3.98810E-04-4.67848E-15
 -1      3317 1.96784E-03 3.90885E-04-4.09285E-15
 -1      3318 2.17561E-03 3.65698E-04-5.04496E-15
 -1      3319 1.17882E-02 7.96661E-04-1.13845E-13
 -1      3320 1.19448E-02 8.06249E-04-1.16282E-13
 -1      3321 1.01620E-02-3.53181E-04-9.62741E-14
 -1      3322 9.99285E-03-2.84408E-04-9.54371E-14
 -1      3323 1.39930E-02-1.92568E-04-1.36550E-13
 -1      3324 1.41564E-02-2.60646E-04-1.37076E-13
 -1      3325 1.42956E-02-2.94899E-04-1.39084E-13
 -1      3326 1.01655E-03 6.82135E-05-1.44202E-15
 -1      3327 1.01538E-03 4.12291E-05-1.44825E-15
 -1      3328 1.01478E-03 1.44506E-05-1.45150E-15
 -1      3329 1.01475E-03-1.22297E-05-1.45210E-15
 -1      3330 1.13547E-03 3.01705E-05-1.75620E-15
 -1      3331 1.37779E-02-8.78860E-05-1.35813E-13
 -1      3332 1.38846E-02-1.42619E-04-1.36181E-13
 -1      3333 1.40512E-02-1.98068E-04-1.38186E-13
 -1      3334 1.47563E-02-4.35275E-04-1.43088E-13
 -1      3335 1.02831E-03 1.81183E-04-1.38486E-15
 -1      3336 1.02413E-03 1.51853E-04-1.40464E-15
 -1      3337 1.15306E-03 2.11835E-04-1.66860E-15
 -1      3338 1.02366E-03-1.49117E-04-1.41038E-15
 -1      3339 1.02772E-03-1.78360E-04-1.39174E-15
 -1      3340 1.28738E-02 4.07574E-04-1.27988E-13
 -1      3341 1.07434E-02-6.56118E-04-1.00132E-13
 -1      3342 1.55630E-03 3.61541E-04-2.62241E-15
 -1      3343 1.41294E-03 3.45352E-04-2.19077E-15
 -1      3344 1.36910E-03 3.15103E-04-2.11903E-15
 -1      3345 1.61929E-03 3.33935E-04-2.90143E-15
 -1      3346 1.43529E-02-5.40629E-04-1.39078E-13
 -1      3347 1.35430E-02-8.97557E-04-1.32933E-13
 -1      3348 9.87284E-03-2.55677E-04-9.36307E-14
 -1      3349 1.03224E-02-4.75462E-04-9.52375E-14
 -1      3350 1.04980E-02-5.37304E-04-9.76124E-14
 -1      3351 1.12627E-02 6.24214E-04-1.06475E-13
 -1      3352 1.41443E-02-1.24036E-04-1.45214E-13
 -1      3353 1.40403E-02-6.35846E-05-1.45201E-13
 -1      3354 1.41387E-02-7.13593E-04-1.40867E-13
 -1      3355 1.43036E-02-6.85951E-04-1.43550E-13
 -1      3356 1.20688E-02 8.27537E-04-1.18902E-13
 -1      3357 1.20111E-02 8.17541E-04-1.17639E-13
 -1      3358 1.21072E-02 7.85606E-04-1.18738E-13
 -1      3359 1.22272E-02 7.90131E-04-1.21473E-13
 -1      3360 1.43671E-02-2.41664E-04-1.45238E-13
 -1      3361 1.42542E-02-1.85078E-04-1.45225E-13
 -1      3362 1.40569E-02-1.15594E-04-1.42925E-13
 -1      3363 1.03193E-02-4.21764E-04-9.73958E-14
 -1      3364 1.01583E-02-3.68890E-04-9.53408E-14
 -1      3365 1.45189E-02-5.95763E-04-1.44889E-13
 -1      3366 1.44546E-02-5.76718E-04-1.42762E-13
 -1      3367 1.03360E-03-2.39230E-04-1.32884E-15
 -1      3368 1.04413E-03-2.64862E-04-1.31455E-15
 -1      3369 1.15232E-03-2.81611E-04-1.56685E-15
 -1      3370 1.44665E-02-3.18535E-04-1.43048E-13
 -1      3371 1.43472E-02-2.66642E-04-1.43043E-13
 -1      3372 1.08522E-02 4.11193E-04-1.01777E-13
 -1      3373 1.88825E-03 3.50495E-04-3.86861E-15
 -1      3374 1.48248E-02-4.34895E-04-1.45218E-13
 -1      3375 1.47979E-02-4.17036E-04-1.45220E-13
 -1      3376 1.02083E-03 1.23309E-04-1.42041E-15
 -1      3377 1.01836E-03 9.55359E-05-1.43292E-15
 -1      3378 1.13813E-03 8.86344E-05-1.74201E-15
 -1      3379 1.14374E-03 1.48790E-04-1.71362E-15
 -1      3380 9.82232E-03-1.21826E-04-9.56220E-14
 -1      3381 9.84106E-03-9.14318E-05-9.46579E-14
 -1      3382 9.75783E-03-1.26588E-04-9.45897E-14
 -1      3383 9.96342E-03-2.81269E-05-9.47542E-14
 -1      3384 1.00585E-02-6.31452E-06-9.57742E-14
 -1      3385 1.00894E-02 5.27837E-05-9.48328E-14
 -1      3386 9.68054E-03-1.83005E-04-9.34230E-14
 -1      3387 9.62943E-03-1.68045E-04-9.24994E-14
 -1      3388 9.67032E-03-1.90833E-04-9.21133E-14
 -1      3389 1.33041E-02 1.42778E-04-1.31459E-13
 -1      3390 1.34729E-02 6.14115E-05-1.33407E-13
 -1      3391 1.31939E-02 2.17459E-04-1.31051E-13
 -1      3392 1.37762E-02-8.00934E-04-1.35536E-13
 -1      3393 1.39622E-02-7.49890E-04-1.38194E-13
 -1      3394 9.69225E-03-1.58715E-04-9.46779E-14
 -1      3395 1.37475E-02-7.81422E-04-1.34279E-13
 -1      3396 1.05449E-02-5.36611E-04-9.89660E-14
 -1      3397 1.02046E-03-1.20716E-04-1.42513E-15
 -1      3398 1.14326E-03-1.45904E-04-1.71908E-15
 -1      3399 1.01808E-03-9.30004E-05-1.43646E-15
 -1      3400 1.23364E-02 7.35286E-04-1.22777E-13
 -1      3401 1.41482E-02-6.65163E-04-1.39551E-13
 -1      3402 1.01495E-02-3.90537E-04-9.40970E-14
 -1      3403 1.22274E-02 7.56851E-04-1.20689E-13
 -1      3404 1.40699E-02-6.47792E-04-1.37162E-13
 -1      3405 1.39273E-02-6.93195E-04-1.35582E-13
 -1      3406 1.26078E-03-2.96408E-04-1.84203E-15
 -1      3407 1.04110E-02 1.84818E-04-9.76670E-14
 -1      3408 1.23603E-02 7.01099E-04-1.22376E-13
 -1      3409 1.24469E-02 6.54470E-04-1.23275E-13
 -1      3410 1.25768E-02 5.91859E-04-1.25174E-13
 -1      3411 1.22940E-02 7.36977E-04-1.21791E-13
 -1      3412 1.32465E-03-2.73618E-04-2.07031E-15
 -1      3413 1.28720E-02 4.25824E-04-1.28642E-13
 -1      3414 1.30122E-02 3.32687E-04-1.29765E-13
 -1      3415 1.21318E-03-2.33018E-04-1.81121E-15
 -1      3416 1.39666E-03-2.47925E-04-2.33102E-15
 -1      3417 2.15039E-03-2.93451E-04-5.09354E-15
 -1      3418 2.29475E-03-2.98358E-04-5.74066E-15
 -1      3419 2.43910E-03-3.02310E-04-6.42619E-15
 -1      3420 2.58342E-03-3.05402E-04-7.15027E-15
 -1      3421 2.36220E-03-2.63656E-04-6.11991E-15
 -1      3422 2.72769E-03-3.07798E-04-7.91085E-15
 -1      3423 2.87189E-03-3.09572E-04-8.70955E-15
 -1      3424 2.65147E-03-2.69343E-04-7.56921E-15
 -1      3425 3.01601E-03-3.10853E-04-9.54548E-15
 -1      3426 3.16005E-03-3.11695E-04-1.04182E-14
 -1      3427 2.94052E-03-2.72625E-04-9.16841E-15
 -1      3428 3.30401E-03-3.12196E-04-1.13278E-14
 -1      3429 3.44788E-03-3.12393E-04-1.22731E-14
 -1      3430 3.22924E-03-2.74196E-04-1.09158E-14
 -1      3431 3.59167E-03-3.12359E-04-1.32545E-14
 -1      3432 3.73537E-03-3.12117E-04-1.42725E-14
 -1      3433 3.51756E-03-2.74583E-04-1.28086E-14
 -1      3434 3.87900E-03-3.11720E-04-1.53254E-14
 -1      3435 4.02255E-03-3.11181E-04-1.64130E-14
 -1      3436 3.80547E-03-2.74160E-04-1.48441E-14
 -1      3437 4.16602E-03-3.10533E-04-1.75363E-14
 -1      3438 4.30942E-03-3.09783E-04-1.86951E-14
 -1      3439 4.09298E-03-2.73186E-04-1.70223E-14
 -1      3440 4.45276E-03-3.08952E-04-1.98883E-14
 -1      3441 4.59603E-03-3.08040E-04-2.11151E-14
 -1      3442 4.38012E-03-2.71823E-04-1.93389E-14
 -1      3443 4.73924E-03-3.07056E-04-2.23762E-14
 -1      3444 4.88238E-03-3.05995E-04-2.36720E-14
 -1      3445 4.66692E-03-2.70158E-04-2.17942E-14
 -1      3446 5.02546E-03-3.04861E-04-2.50012E-14
 -1      3447 5.16848E-03-3.03644E-04-2.63641E-14
 -1      3448 4.95337E-03-2.68221E-04-2.43849E-14
 -1      3449 5.31143E-03-3.02341E-04-2.77603E-14
 -1      3450 5.45432E-03-3.00940E-04-2.91898E-14
 -1      3451 5.23947E-03-2.65997E-04-2.71108E-14
 -1      3452 5.59712E-03-2.99435E-04-3.06515E-14
 -1      3453 5.73985E-03-2.97812E-04-3.21475E-14
 -1      3454 5.52521E-03-2.63440E-04-2.99695E-14
 -1      3455 5.88249E-03-2.96061E-04-3.36763E-14
 -1      3456 6.02503E-03-2.94169E-04-3.52366E-14
 -1      3457 5.81052E-03-2.60481E-04-3.29600E-14
 -1      3458 6.16745E-03-2.92127E-04-3.68306E-14
 -1      3459 6.30975E-03-2.89920E-04-3.84565E-14
 -1      3460 6.09531E-03-2.57041E-04-3.60820E-14
 -1      3461 6.45189E-03-2.87544E-04-4.01153E-14
 -1      3462 6.59388E-03-2.84985E-04-4.18064E-14
 -1      3463 6.37945E-03-2.53042E-04-3.93337E-14
 -1      3464 6.73567E-03-2.82247E-04-4.35260E-14
 -1      3465 6.87724E-03-2.79317E-04-4.52764E-14
 -1      3466 6.66276E-03-2.48425E-04-4.27129E-14
 -1      3467 7.01855E-03-2.76215E-04-4.70570E-14
 -1      3468 7.15958E-03-2.72929E-04-4.88676E-14
 -1      3469 6.94499E-03-2.43172E-04-4.62128E-14
 -1      3470 7.30026E-03-2.69504E-04-5.07072E-14
 -1      3471 7.44057E-03-2.65931E-04-5.25752E-14
 -1      3472 7.22580E-03-2.37326E-04-4.98325E-14
 -1      3473 7.58043E-03-2.62286E-04-5.44713E-14
 -1      3474 7.71982E-03-2.58568E-04-5.63946E-14
 -1      3475 7.50479E-03-2.31034E-04-5.35678E-14
 -1      3476 7.85862E-03-2.54895E-04-5.83442E-14
 -1      3477 7.99683E-03-2.51273E-04-6.03209E-14
 -1      3478 7.78143E-03-2.24577E-04-5.74105E-14
 -1      3479 8.13429E-03-2.47877E-04-6.23258E-14
 -1      3480 8.27102E-03-2.44720E-04-6.43585E-14
 -1      3481 8.05509E-03-2.18416E-04-6.13627E-14
 -1      3482 8.40684E-03-2.42040E-04-6.64151E-14
 -1      3483 8.54180E-03-2.39861E-04-6.84991E-14
 -1      3484 8.32503E-03-2.13225E-04-6.54233E-14
 -1      3485 8.67569E-03-2.38487E-04-7.06087E-14
 -1      3486 8.80863E-03-2.37955E-04-7.27421E-14
 -1      3487 8.59042E-03-2.09900E-04-6.95896E-14
 -1      3488 8.94039E-03-2.38624E-04-7.48985E-14
 -1      3489 9.07126E-03-2.40558E-04-7.70782E-14
 -1      3490 8.85041E-03-2.09542E-04-7.38550E-14
 -1      3491 9.20096E-03-2.44149E-04-7.92809E-14
 -1      3492 9.33013E-03-2.49536E-04-8.15062E-14
 -1      3493 9.10425E-03-2.13380E-04-7.82131E-14
 -1      3494 9.45842E-03-2.57087E-04-8.37542E-14
 -1      3495 9.58715E-03-2.67162E-04-8.60249E-14
 -1      3496 9.35163E-03-2.22656E-04-8.26638E-14
 -1      3497 1.00107E-02-3.34762E-04-9.29901E-14
 -1      3498 1.44124E-02-6.38142E-04-1.44221E-13
 -1      3499 3.96566E-03 3.48776E-04-1.59173E-14
 -1      3500 3.82231E-03 3.49228E-04-1.48397E-14
 -1      3501 4.82475E-03 3.43883E-04-2.31203E-14
 -1      3502 4.68169E-03 3.44910E-04-2.18336E-14
 -1      3503 5.11077E-03 3.41590E-04-2.57931E-14
 -1      3504 4.96778E-03 3.42779E-04-2.44402E-14
 -1      3505 4.89563E-03 3.06104E-04-2.38316E-14
 -1      3506 5.39662E-03 3.38941E-04-2.85989E-14
 -1      3507 5.25372E-03 3.40314E-04-2.71796E-14
 -1      3508 5.18171E-03 3.03900E-04-2.65374E-14
 -1      3509 5.68229E-03 3.35863E-04-3.15367E-14
 -1      3510 5.53948E-03 3.37461E-04-3.00512E-14
 -1      3511 5.46753E-03 3.01346E-04-2.93756E-14
 -1      3512 5.96777E-03 3.32267E-04-3.46038E-14
 -1      3513 5.82506E-03 3.34136E-04-3.30540E-14
 -1      3514 5.75304E-03 2.98371E-04-3.23442E-14
 -1      3515 6.25301E-03 3.28056E-04-3.77965E-14
 -1      3516 6.11042E-03 3.30245E-04-3.61847E-14
 -1      3517 6.03822E-03 2.94885E-04-3.54429E-14
 -1      3518 6.53799E-03 3.23141E-04-4.11135E-14
 -1      3519 6.39553E-03 3.25692E-04-3.94397E-14
 -1      3520 6.32300E-03 2.90792E-04-3.86666E-14
 -1      3521 6.82266E-03 3.17464E-04-4.45516E-14
 -1      3522 6.68036E-03 3.20402E-04-4.28173E-14
 -1      3523 6.60731E-03 2.86009E-04-4.20128E-14
 -1      3524 7.10698E-03 3.11015E-04-4.81089E-14
 -1      3525 6.96485E-03 3.14336E-04-4.63154E-14
 -1      3526 6.89107E-03 2.80474E-04-4.54793E-14
 -1      3527 7.39096E-03 3.03874E-04-5.17832E-14
 -1      3528 7.24900E-03 3.07526E-04-4.99311E-14
 -1      3529 7.17420E-03 2.74177E-04-4.90654E-14
 -1      3530 7.67466E-03 2.96245E-04-5.55704E-14
 -1      3531 7.53283E-03 3.00106E-04-5.36630E-14
 -1      3532 7.45666E-03 2.67184E-04-5.27680E-14
 -1      3533 7.95826E-03 2.88508E-04-5.94682E-14
 -1      3534 7.81644E-03 2.92362E-04-5.75058E-14
 -1      3535 7.73846E-03 2.59672E-04-5.65820E-14
 -1      3536 8.24211E-03 2.81287E-04-6.34720E-14
 -1      3537 8.10010E-03 2.84786E-04-6.14569E-14
 -1      3538 8.01977E-03 2.51974E-04-6.05057E-14
 -1      3539 8.52689E-03 2.75520E-04-6.75827E-14
 -1      3540 8.38431E-03 2.78145E-04-6.55146E-14
 -1      3541 8.30095E-03 2.44635E-04-6.45352E-14
 -1      3542 8.81372E-03 2.72573E-04-7.17962E-14
 -1      3543 8.66994E-03 2.73575E-04-6.96771E-14
 -1      3544 8.58274E-03 2.38485E-04-6.86715E-14
 -1      3545 9.10440E-03 2.74380E-04-7.61093E-14
 -1      3546 8.95843E-03 2.72699E-04-7.39395E-14
 -1      3547 8.86641E-03 2.34750E-04-7.29107E-14
 -1      3548 9.40154E-03 2.83674E-04-8.05214E-14
 -1      3549 9.25197E-03 2.77814E-04-7.83032E-14
 -1      3550 9.15401E-03 2.35238E-04-7.72488E-14
 -1      3551 9.70864E-03 3.04300E-04-8.50268E-14
 -1      3552 9.55363E-03 2.92158E-04-8.27624E-14
 -1      3553 9.44867E-03 2.42659E-04-8.16832E-14
 -1      3554 1.00298E-02 3.41506E-04-8.96287E-14
 -1      3555 9.86732E-03 3.20268E-04-8.73158E-14
 -1      3556 9.75473E-03 2.61176E-04-8.62134E-14
 -1      3557 1.03683E-02 4.01909E-04-9.43199E-14
 -1      3558 1.01970E-02 3.68142E-04-9.19632E-14
 -1      3559 1.00775E-02 2.97007E-04-9.08349E-14
 -1      3560 1.14909E-02 7.49322E-04-1.09514E-13
 -1      3561 1.13163E-02 6.96430E-04-1.07025E-13
 -1      3562 1.42344E-02-6.20612E-04-1.39829E-13
 -1      3563 1.31819E-02 3.25212E-04-1.34598E-13
 -1      3564 1.29985E-02 4.10868E-04-1.31980E-13
 -1      3565 1.29218E-02 4.35622E-04-1.30545E-13
 -1      3566 1.27361E-02 5.28613E-04-1.27941E-13
 -1      3567 1.02407E-03-2.14569E-04-1.33987E-15
 -1      3568 2.81707E-03 3.45576E-04-8.31742E-15
 -1      3569 2.67319E-03 3.43365E-04-7.53564E-15
 -1      3570 1.39945E-02-2.89158E-05-1.45578E-13
 -1      3571 1.39220E-02 1.79292E-05-1.45684E-13
 -1      3572 1.38128E-02 6.18735E-05-1.44047E-13
 -1      3573 1.38980E-02-9.33993E-06-1.43293E-13
 -1      3574 1.02317E-02 1.57242E-04-9.51577E-14
 -1      3575 1.04386E-02 2.58892E-04-9.69651E-14
 -1      3576 1.06926E-02 3.86854E-04-9.94879E-14
 -1      3577 1.08989E-02 4.91108E-04-1.01771E-13
 -1      3578 1.46038E-02-3.84117E-04-1.41232E-13
 -1      3579 2.24123E-03 3.32007E-04-5.41686E-15
 -1      3580 2.09718E-03 3.26202E-04-4.78708E-15
 -1      3581 1.45491E-02-5.12030E-04-1.42005E-13
 -1      3582 1.46355E-02-4.74884E-04-1.42017E-13
 -1      3583 3.67890E-03 3.49519E-04-1.37977E-14
 -1      3584 3.53543E-03 3.49628E-04-1.27919E-14
 -1      3585 3.74861E-03 3.11698E-04-1.43713E-14
 -1      3586 1.57400E-03-2.60752E-04-2.89031E-15
 -1      3587 1.71781E-03-2.71222E-04-3.38285E-15
 -1      3588 9.63793E-03-1.48116E-04-9.28611E-14
 -1      3589 9.68732E-03-1.40520E-04-9.37272E-14
 -1      3590 9.68758E-03-1.18029E-04-9.27729E-14
 -1      3591 4.53857E-03 3.45857E-04-2.05811E-14
 -1      3592 4.39542E-03 3.46728E-04-1.93628E-14
 -1      3593 4.60929E-03 3.08006E-04-2.12590E-14
 -1      3594 4.25221E-03 3.47510E-04-1.81789E-14
 -1      3595 4.10897E-03 3.48200E-04-1.70303E-14
 -1      3596 4.03580E-03 3.10880E-04-1.65270E-14
 -1      3597 4.32269E-03 3.09612E-04-1.88234E-14
 -1      3598 2.52925E-03 3.40440E-04-6.79097E-15
 -1      3599 2.38526E-03 3.36716E-04-6.08473E-15
 -1      3600 2.30780E-03 2.97785E-04-5.79375E-15
 -1      3601 1.01527E-03-3.89408E-05-1.44996E-15
 -1      3602 1.01636E-03-6.57842E-05-1.44460E-15
 -1      3603 1.13787E-03-8.59905E-05-1.74552E-15
 -1      3604 1.95315E-03 3.19072E-04-4.19639E-15
 -1      3605 1.80917E-03 3.10479E-04-3.64502E-15
 -1      3606 2.01909E-03 2.86964E-04-4.53081E-15
 -1      3607 1.86186E-03-2.80051E-04-3.91442E-15
 -1      3608 2.00609E-03-2.87388E-04-4.48460E-15
 -1      3609 2.07298E-03-2.54676E-04-4.82223E-15
 -1      3610 1.16609E-02 7.89481E-04-1.12023E-13
 -1      3611 9.87384E-03-2.76827E-04-9.22491E-14
 -1      3612 9.75053E-03-2.30037E-04-9.16573E-14
 -1      3613 1.24681E-02 6.70470E-04-1.24472E-13
 -1      3614 9.86390E-03-2.97765E-04-9.10205E-14
 -1      3615 1.11354E-02 6.10477E-04-1.04623E-13
 -1      3616 1.36564E-02-2.21563E-05-1.35400E-13
 -1      3617 1.38332E-02-9.19963E-05-1.37401E-13
 -1      3618 1.35419E-02 4.69244E-05-1.34991E-13
 -1      3619 1.27928E-03 2.42926E-04-1.97763E-15
 -1      3620 1.27314E-03 2.08721E-04-2.00792E-15
 -1      3621 1.46264E-03-2.22461E-04-2.57676E-15
 -1      3622 1.68356E-03 3.05483E-04-3.18774E-15
 -1      3623 1.55811E-03 2.98875E-04-2.76115E-15
 -1      3624 1.74892E-03 2.76151E-04-3.48118E-15
 -1      3625 9.60903E-03-2.37910E-04-8.75901E-14
 -1      3626 9.73293E-03-2.79790E-04-8.87056E-14
 -1      3627 2.59652E-03 3.04762E-04-7.20954E-15
 -1      3628 1.44117E-02-5.66931E-04-1.41475E-13
 -1      3629 3.10462E-03 3.48358E-04-9.99556E-15
 -1      3630 2.96088E-03 3.47219E-04-9.13751E-15
 -1      3631 2.88503E-03 3.08929E-04-8.77678E-15
 -1      3632 1.06095E-02 4.72061E-04-9.74647E-14
 -1      3633 1.04881E-02 3.87526E-04-9.63067E-14
 -1      3634 1.07888E-02 5.22478E-04-9.98733E-14
 -1      3635 1.09512E-02 5.47934E-04-1.02178E-13
 -1      3636 1.39544E-02-1.14380E-04-1.39954E-13
 -1      3637 1.38325E-02-3.86052E-05-1.39948E-13
 -1      3638 1.14339E-03-2.15244E-04-1.64475E-15
 -1      3639 1.37019E-02 1.07641E-04-1.42412E-13
 -1      3640 1.37112E-02 8.18934E-05-1.41532E-13
 -1      3641 1.35589E-02 1.66346E-04-1.40277E-13
 -1      3642 1.33827E-02 2.40919E-04-1.37647E-13
 -1      3643 1.37539E-02 4.32194E-05-1.41155E-13
 -1      3644 1.25746E-03 4.78602E-05-2.08926E-15
 -1      3645 1.25672E-03 1.67898E-05-2.09351E-15
 -1      3646 1.04999E-02 3.41946E-04-9.69532E-14
 -1      3647 9.79587E-03-5.83465E-05-9.27078E-14
 -1      3648 9.87648E-03-4.59345E-05-9.37301E-14
 -1      3649 9.90290E-03 5.24760E-06-9.27977E-14
 -1      3650 1.26113E-03 1.10639E-04-2.06950E-15
 -1      3651 1.25892E-03 7.90807E-05-2.08138E-15
 -1      3652 1.38063E-03 6.71774E-05-2.44954E-15
 -1      3653 3.46109E-03 3.11871E-04-1.23596E-14
 -1      3654 3.39189E-03 3.49500E-04-1.18232E-14
 -1      3655 3.24829E-03 3.49104E-04-1.08906E-14
 -1      3656 9.66054E-03-2.03473E-04-9.07456E-14
 -1      3657 9.58485E-03-1.83117E-04-8.98337E-14
 -1      3658 9.64800E-03-2.20342E-04-8.93806E-14
 -1      3659 1.31763E-02 2.46078E-04-1.31710E-13
 -1      3660 9.55491E-03-1.56341E-04-9.02583E-14
 -1      3661 9.59168E-03-1.51986E-04-9.15559E-14
 -1      3662 9.56444E-03-1.35662E-04-9.06160E-14
 -1      3663 1.13539E-03-2.77030E-05-1.75742E-15
 -1      3664 1.41539E-02-2.09609E-04-1.40744E-13
 -1      3665 1.21642E-03-1.93023E-04-1.87148E-15
 -1      3666 1.36282E-02 6.08342E-05-1.38195E-13
 -1      3667 1.33649E-02 2.18300E-04-1.36343E-13
 -1      3668 1.78425E-03-2.41326E-04-3.67795E-15
 -1      3669 1.20840E-03-1.29172E-04-1.91026E-15
 -1      3670 1.21191E-03-1.60726E-04-1.89279E-15
 -1      3671 1.28103E-03-1.75905E-04-2.07468E-15
 -1      3672 1.32613E-03 2.85626E-04-2.04508E-15
 -1      3673 1.44603E-03 2.81012E-04-2.42448E-15
 -1      3674 1.45748E-03-1.86834E-04-2.60390E-15
 -1      3675 9.52197E-03-2.11922E-04-8.66956E-14
 -1      3676 2.57542E-03-2.30955E-04-7.22993E-15
 -1      3677 2.72029E-03-2.32890E-04-7.99294E-15
 -1      3678 2.86509E-03-2.34350E-04-8.79338E-15
 -1      3679 3.00982E-03-2.35385E-04-9.63163E-15
 -1      3680 2.78981E-03-1.96095E-04-8.42120E-15
 -1      3681 3.15445E-03-2.36086E-04-1.05056E-14
 -1      3682 3.29897E-03-2.36488E-04-1.14168E-14
 -1      3683 3.07972E-03-1.97909E-04-1.00979E-14
 -1      3684 3.44338E-03-2.36662E-04-1.23639E-14
 -1      3685 3.58767E-03-2.36629E-04-1.33463E-14
 -1      3686 3.36920E-03-1.98624E-04-1.19210E-14
 -1      3687 3.73185E-03-2.36441E-04-1.43656E-14
 -1      3688 3.87590E-03-2.36112E-04-1.54198E-14
 -1      3689 3.65819E-03-1.98580E-04-1.38884E-14
 -1      3690 4.01985E-03-2.35679E-04-1.65087E-14
 -1      3691 4.16368E-03-2.35146E-04-1.76330E-14
 -1      3692 3.94666E-03-1.98020E-04-1.59980E-14
 -1      3693 4.30740E-03-2.34539E-04-1.87923E-14
 -1      3694 4.45101E-03-2.33857E-04-1.99857E-14
 -1      3695 4.23461E-03-1.97102E-04-1.82469E-14
 -1      3696 4.59451E-03-2.33115E-04-2.12128E-14
 -1      3697 4.73791E-03-2.32309E-04-2.24746E-14
 -1      3698 4.52206E-03-1.95923E-04-2.06340E-14
 -1      3699 4.88121E-03-2.31446E-04-2.37711E-14
 -1      3700 5.02440E-03-2.30519E-04-2.51007E-14
 -1      3701 4.80901E-03-1.94527E-04-2.31584E-14
 -1      3702 5.16749E-03-2.29529E-04-2.64634E-14
 -1      3703 5.31046E-03-2.28467E-04-2.78597E-14
 -1      3704 5.09548E-03-1.92920E-04-2.58179E-14
 -1      3705 5.45331E-03-2.27330E-04-2.92892E-14
 -1      3706 5.59604E-03-2.26107E-04-3.07514E-14
 -1      3707 5.38143E-03-1.91082E-04-2.86107E-14
 -1      3708 5.73862E-03-2.24795E-04-3.22467E-14
 -1      3709 5.88106E-03-2.23379E-04-3.37748E-14
 -1      3710 5.66680E-03-1.88971E-04-3.15358E-14
 -1      3711 6.02333E-03-2.21858E-04-3.53365E-14
 -1      3712 6.16541E-03-2.20215E-04-3.69291E-14
 -1      3713 5.95149E-03-1.86535E-04-3.45915E-14
 -1      3714 6.30728E-03-2.18454E-04-3.85539E-14
 -1      3715 6.44891E-03-2.16557E-04-4.02119E-14
 -1      3716 6.23535E-03-1.83724E-04-3.77778E-14
 -1      3717 6.59027E-03-2.14535E-04-4.19014E-14
 -1      3718 6.73133E-03-2.12369E-04-4.36217E-14
 -1      3719 6.51816E-03-1.80499E-04-4.10914E-14
 -1      3720 6.87203E-03-2.10084E-04-4.53717E-14
 -1      3721 7.01236E-03-2.07660E-04-4.71512E-14
 -1      3722 6.79965E-03-1.76849E-04-4.45321E-14
 -1      3723 7.15222E-03-2.05141E-04-4.89599E-14
 -1      3724 7.29159E-03-2.02509E-04-5.07983E-14
 -1      3725 7.07944E-03-1.72814E-04-4.80908E-14
 -1      3726 7.43037E-03-1.99833E-04-5.26654E-14
 -1      3727 7.56852E-03-1.97097E-04-5.45590E-14
 -1      3728 7.35706E-03-1.68506E-04-5.17646E-14
 -1      3729 7.70592E-03-1.94405E-04-5.64804E-14
 -1      3730 7.84252E-03-1.91740E-04-5.84274E-14
 -1      3731 7.63194E-03-1.64141E-04-5.55505E-14
 -1      3732 7.97818E-03-1.89251E-04-6.04022E-14
 -1      3733 8.11284E-03-1.86920E-04-6.24053E-14
 -1      3734 7.90335E-03-1.60065E-04-5.94443E-14
 -1      3735 8.24631E-03-1.84948E-04-6.44341E-14
 -1      3736 8.37855E-03-1.83304E-04-6.64904E-14
 -1      3737 8.17040E-03-1.56780E-04-6.34474E-14
 -1      3738 8.50932E-03-1.82253E-04-6.85719E-14
 -1      3739 8.63859E-03-1.81732E-04-7.06798E-14
 -1      3740 8.43201E-03-1.54944E-04-6.75565E-14
 -1      3741 8.76605E-03-1.82075E-04-7.28135E-14
 -1      3742 8.89172E-03-1.83156E-04-7.49677E-14
 -1      3743 8.68685E-03-1.55341E-04-7.17706E-14
 -1      3744 9.01518E-03-1.85385E-04-7.71465E-14
 -1      3745 9.13657E-03-1.88512E-04-7.93486E-14
 -1      3746 8.93325E-03-1.58796E-04-7.60817E-14
 -1      3747 9.25524E-03-1.93047E-04-8.15738E-14
 -1      3748 9.37167E-03-1.98551E-04-8.38226E-14
 -1      3749 9.16899E-03-1.66006E-04-8.04859E-14
 -1      3750 5.53836E-03 2.63882E-04-3.01523E-14
 -1      3751 5.39555E-03 2.65135E-04-2.87008E-14
 -1      3752 5.25265E-03 2.66294E-04-2.72830E-14
 -1      3753 5.10965E-03 2.67372E-04-2.58968E-14
 -1      3754 5.32357E-03 2.28805E-04-2.80287E-14
 -1      3755 4.96656E-03 2.68371E-04-2.45436E-14
 -1      3756 4.82339E-03 2.69302E-04-2.32235E-14
 -1      3757 5.03754E-03 2.30715E-04-2.52574E-14
 -1      3758 5.82366E-03 2.61060E-04-3.31530E-14
 -1      3759 5.68106E-03 2.62528E-04-3.16371E-14
 -1      3760 5.60913E-03 2.26578E-04-3.09306E-14
 -1      3761 6.10847E-03 2.57742E-04-3.62835E-14
 -1      3762 5.96613E-03 2.59471E-04-3.47025E-14
 -1      3763 5.89415E-03 2.23963E-04-3.39635E-14
 -1      3764 6.39271E-03 2.53837E-04-3.95368E-14
 -1      3765 6.25067E-03 2.55871E-04-3.78942E-14
 -1      3766 6.17853E-03 2.20874E-04-3.71237E-14
 -1      3767 6.67627E-03 2.49259E-04-4.29120E-14
 -1      3768 6.53458E-03 2.51639E-04-4.12087E-14
 -1      3769 6.46217E-03 2.17224E-04-4.04072E-14
 -1      3770 6.95902E-03 2.43948E-04-4.64089E-14
 -1      3771 6.81775E-03 2.46702E-04-4.46457E-14
 -1      3772 6.74489E-03 2.12929E-04-4.38138E-14
 -1      3773 7.24084E-03 2.37884E-04-5.00244E-14
 -1      3774 7.10005E-03 2.41015E-04-4.82022E-14
 -1      3775 7.02654E-03 2.07923E-04-4.73407E-14
 -1      3776 7.52164E-03 2.31111E-04-5.37534E-14
 -1      3777 7.38136E-03 2.34586E-04-5.18744E-14
 -1      3778 7.30695E-03 2.02172E-04-5.09838E-14
 -1      3779 7.80138E-03 2.23766E-04-5.75947E-14
 -1      3780 7.66163E-03 2.27503E-04-5.56603E-14
 -1      3781 7.58596E-03 1.95687E-04-5.47407E-14
 -1      3782 8.08021E-03 2.16116E-04-6.15447E-14
 -1      3783 7.94088E-03 2.19962E-04-5.95569E-14
 -1      3784 7.86350E-03 1.88553E-04-5.86091E-14
 -1      3785 8.35846E-03 2.08604E-04-6.56002E-14
 -1      3786 8.21935E-03 2.12309E-04-6.35593E-14
 -1      3787 8.13963E-03 1.80949E-04-6.25844E-14
 -1      3788 8.63689E-03 2.01916E-04-6.97629E-14
 -1      3789 8.49756E-03 2.05097E-04-6.76683E-14
 -1      3790 8.41467E-03 1.73188E-04-6.66670E-14
 -1      3791 8.91687E-03 1.97099E-04-7.40252E-14
 -1      3792 8.77654E-03 1.99167E-04-7.18811E-14
 -1      3793 8.68935E-03 1.65773E-04-7.08543E-14
 -1      3794 9.20068E-03 1.95791E-04-7.83896E-14
 -1      3795 9.05807E-03 1.95818E-04-7.61952E-14
 -1      3796 8.96506E-03 1.59525E-04-7.51424E-14
 -1      3797 9.49185E-03 2.00661E-04-8.28456E-14
 -1      3798 9.34502E-03 1.97121E-04-8.06050E-14
 -1      3799 9.24421E-03 1.55863E-04-7.95292E-14
 -1      3800 9.79558E-03 2.16168E-04-8.74004E-14
 -1      3801 9.64172E-03 2.06466E-04-8.51129E-14
 -1      3802 9.53073E-03 1.57343E-04-8.40121E-14
 -1      3803 1.51125E-03 2.54937E-04-2.68055E-15
 -1      3804 1.30823E-02 3.29410E-04-1.31858E-13
 -1      3805 1.27057E-02 5.28007E-04-1.26942E-13
 -1      3806 1.02542E-02 2.77427E-04-9.38189E-14
 -1      3807 1.00586E-02 8.94734E-05-9.35439E-14
 -1      3808 1.00892E-02 1.58600E-04-9.28511E-14
 -1      3809 2.37530E-03 2.63022E-04-6.17534E-15
 -1      3810 2.23064E-03 2.59065E-04-5.50387E-15
 -1      3811 1.26813E-03 1.75331E-04-2.03281E-15
 -1      3812 1.26419E-03 1.42677E-04-2.05313E-15
 -1      3813 1.38539E-03 1.33935E-04-2.42293E-15
 -1      3814 1.20387E-03-6.77223E-05-1.93285E-15
 -1      3815 1.20575E-03-9.82294E-05-1.92346E-15
 -1      3816 1.27404E-03-1.10940E-04-2.10945E-15
 -1      3817 9.62675E-03-1.01552E-04-9.10020E-14
 -1      3818 9.70401E-03-8.41889E-05-9.18540E-14
 -1      3819 9.72068E-03-4.33840E-05-9.09348E-14
 -1      3820 4.68013E-03 2.70162E-04-2.19382E-14
 -1      3821 4.53678E-03 2.70959E-04-2.06864E-14
 -1      3822 4.75108E-03 2.32361E-04-2.26187E-14
 -1      3823 1.34229E-02 1.39018E-04-1.35141E-13
 -1      3824 1.39381E-03 2.02671E-04-2.37783E-15
 -1      3825 1.37903E-03 1.42700E-06-2.45916E-15
 -1      3826 1.25668E-03-1.41471E-05-2.09426E-15
 -1      3827 1.25733E-03-4.51287E-05-2.09130E-15
 -1      3828 9.96461E-03 6.31018E-05-9.25352E-14
 -1      3829 2.08604E-03 2.54162E-04-4.87142E-15
 -1      3830 1.94155E-03 2.48209E-04-4.27654E-15
 -1      3831 2.15389E-03 2.20685E-04-5.21700E-15
 -1      3832 1.32478E-02 2.23795E-04-1.33150E-13
 -1      3833 3.81868E-03 2.73759E-04-1.49471E-14
 -1      3834 3.67478E-03 2.73999E-04-1.39045E-14
 -1      3835 2.28564E-03-2.25248E-04-5.81580E-15
 -1      3836 2.43053E-03-2.28429E-04-6.50382E-15
 -1      3837 2.49964E-03-1.92722E-04-6.89273E-15
 -1      3838 1.00904E-02 2.05938E-04-9.21615E-14
 -1      3839 1.00887E-02 2.53018E-04-9.15284E-14
 -1      3840 9.92519E-03 2.33884E-04-8.92007E-14
 -1      3841 9.93328E-03 1.44931E-04-9.05714E-14
 -1      3842 1.70749E-03-2.03506E-04-3.44337E-15
 -1      3843 1.85166E-03-2.10528E-04-3.97931E-15
 -1      3844 1.99613E-03-2.16418E-04-4.55346E-15
 -1      3845 2.14083E-03-2.21272E-04-5.16552E-15
 -1      3846 2.20952E-03-1.87203E-04-5.51448E-15
 -1      3847 2.66460E-03 2.68666E-04-7.63219E-15
 -1      3848 2.51997E-03 2.66196E-04-6.88502E-15
 -1      3849 2.44363E-03 2.27761E-04-6.56245E-15
 -1      3850 9.87523E-03 4.15402E-05-9.15202E-14
 -1      3851 1.39906E-03-1.34916E-04-2.46866E-15
 -1      3852 1.57996E-03-1.77356E-04-3.02189E-15
 -1      3853 1.64830E-03-1.48507E-04-3.28863E-15
 -1      3854 1.39627E-03-1.01217E-04-2.48341E-15
 -1      3855 1.81533E-03 2.45946E-04-3.78182E-15
 -1      3856 1.68934E-03 2.42472E-04-3.31728E-15
 -1      3857 1.88267E-03 2.14860E-04-4.08919E-15
 -1      3858 9.80336E-03 1.73916E-04-8.80814E-14
 -1      3859 1.50238E-03 1.87200E-05-2.85187E-15
 -1      3860 1.50234E-03-1.57253E-05-2.85270E-15
 -1      3861 1.40616E-02-1.68067E-04-1.40371E-13
 -1      3862 3.17323E-03 3.11096E-04-1.04940E-14
 -1      3863 4.10620E-03 2.72912E-04-1.71381E-14
 -1      3864 3.96249E-03 2.73394E-04-1.60253E-14
 -1      3865 3.88909E-03 2.35750E-04-1.55248E-14
 -1      3866 1.59709E-03 2.30534E-04-3.00821E-15
 -1      3867 1.48547E-03 2.15386E-04-2.65379E-15
 -1      3868 1.48048E-03 1.79527E-04-2.68110E-15
 -1      3869 1.66418E-03 2.01950E-04-3.28302E-15
 -1      3870 2.95369E-03 2.71963E-04-9.23899E-15
 -1      3871 2.80918E-03 2.70569E-04-8.41676E-15
 -1      3872 2.73342E-03 2.32205E-04-8.05879E-15
 -1      3873 9.72472E-03 1.12224E-05-8.96535E-14
 -1      3874 9.77155E-03 6.22441E-05-8.93909E-14
 -1      3875 1.91993E-03-1.78829E-04-4.28699E-15
 -1      3876 1.32532E-03-5.59091E-05-2.28750E-15
 -1      3877 3.53076E-03 2.74070E-04-1.28981E-14
 -1      3878 3.38665E-03 2.73955E-04-1.19284E-14
 -1      3879 3.60086E-03 2.36147E-04-1.34399E-14
 -1      3880 9.55042E-03-1.10803E-04-8.97111E-14
 -1      3881 9.54576E-03-8.15454E-05-8.88040E-14
 -1      3882 9.48590E-03-1.17273E-04-8.84246E-14
 -1      3883 1.50487E-03 8.79003E-05-2.83694E-15
 -1      3884 1.50323E-03 5.32254E-05-2.84651E-15
 -1      3885 1.62663E-03 3.74882E-05-3.27200E-15
 -1      3886 9.42527E-03-1.82548E-04-8.55825E-14
 -1      3887 9.45834E-03-1.68808E-04-8.69256E-14
 -1      3888 9.49106E-03-1.57750E-04-8.82707E-14
 -1      3889 9.32408E-03-1.56939E-04-8.40481E-14
 -1      3890 9.44170E-03-1.41520E-04-8.73433E-14
 -1      3891 4.39335E-03 2.71685E-04-1.94682E-14
 -1      3892 4.24982E-03 2.72341E-04-1.82855E-14
 -1      3893 4.46419E-03 2.33764E-04-2.01152E-14
 -1      3894 9.79020E-03 9.61861E-05-8.90774E-14
 -1      3895 9.79122E-03 1.39244E-04-8.83998E-14
 -1      3896 9.66817E-03 1.28560E-04-8.66060E-14
 -1      3897 9.64179E-03 6.47630E-05-8.72315E-14
 -1      3898 2.71479E-03-1.57939E-04-8.05087E-15
 -1      3899 2.86001E-03-1.58971E-04-8.85293E-15
 -1      3900 9.31747E-03-1.21426E-04-8.45006E-14
 -1      3901 9.40068E-03-1.18707E-04-8.64554E-14
 -1      3902 9.37101E-03-9.44250E-05-8.55663E-14
 -1      3903 3.00515E-03-1.59720E-04-9.69246E-15
 -1      3904 3.15020E-03-1.60211E-04-1.05683E-14
 -1      3905 2.93082E-03-1.21574E-04-9.28928E-15
 -1      3906 3.29512E-03-1.60506E-04-1.14805E-14
 -1      3907 3.43992E-03-1.60619E-04-1.24288E-14
 -1      3908 3.22119E-03-1.22344E-04-1.10425E-14
 -1      3909 3.58458E-03-1.60600E-04-1.34134E-14
 -1      3910 3.72910E-03-1.60454E-04-1.44333E-14
 -1      3911 3.51106E-03-1.22524E-04-1.29405E-14
 -1      3912 3.87348E-03-1.60220E-04-1.54883E-14
 -1      3913 4.01771E-03-1.59899E-04-1.65777E-14
 -1      3914 3.80035E-03-1.22296E-04-1.49801E-14
 -1      3915 4.16181E-03-1.59517E-04-1.77031E-14
 -1      3916 4.30576E-03-1.59071E-04-1.88633E-14
 -1      3917 4.08903E-03-1.21790E-04-1.71616E-14
 -1      3918 4.44958E-03-1.58580E-04-2.00570E-14
 -1      3919 4.59326E-03-1.58039E-04-2.12847E-14
 -1      3920 4.37711E-03-1.21090E-04-1.94813E-14
 -1      3921 4.73680E-03-1.57458E-04-2.25471E-14
 -1      3922 4.88021E-03-1.56831E-04-2.38439E-14
 -1      3923 4.66460E-03-1.20236E-04-2.19386E-14
 -1      3924 5.02348E-03-1.56164E-04-2.51739E-14
 -1      3925 5.16661E-03-1.55447E-04-2.65369E-14
 -1      3926 4.95149E-03-1.19249E-04-2.45312E-14
 -1      3927 5.30958E-03-1.54686E-04-2.79342E-14
 -1      3928 5.45240E-03-1.53868E-04-2.93638E-14
 -1      3929 5.23777E-03-1.18126E-04-2.72588E-14
 -1      3930 5.59505E-03-1.52996E-04-3.08255E-14
 -1      3931 5.73752E-03-1.52058E-04-3.23208E-14
 -1      3932 5.52338E-03-1.16847E-04-3.01184E-14
 -1      3933 5.87979E-03-1.51057E-04-3.38488E-14
 -1      3934 6.02184E-03-1.49978E-04-3.54097E-14
 -1      3935 5.80822E-03-1.15390E-04-3.31083E-14
 -1      3936 6.16365E-03-1.48830E-04-3.70026E-14
 -1      3937 6.30518E-03-1.47597E-04-3.86269E-14
 -1      3938 6.09215E-03-1.13731E-04-3.62287E-14
 -1      3939 6.44640E-03-1.46291E-04-4.02846E-14
 -1      3940 6.58729E-03-1.44896E-04-4.19729E-14
 -1      3941 6.37496E-03-1.11854E-04-3.94789E-14
 -1      3942 6.72778E-03-1.43435E-04-4.36920E-14
 -1      3943 6.86784E-03-1.41892E-04-4.54425E-14
 -1      3944 6.65636E-03-1.09766E-04-4.28552E-14
 -1      3945 7.00740E-03-1.40304E-04-4.72217E-14
 -1      3946 7.14641E-03-1.38653E-04-4.90294E-14
 -1      3947 6.93599E-03-1.07511E-04-4.63535E-14
 -1      3948 7.28479E-03-1.37000E-04-5.08656E-14
 -1      3949 7.42248E-03-1.35325E-04-5.27300E-14
 -1      3950 7.21340E-03-1.05184E-04-4.99688E-14
 -1      3951 7.55937E-03-1.33718E-04-5.46224E-14
 -1      3952 7.69540E-03-1.32154E-04-5.65409E-14
 -1      3953 7.48801E-03-1.02961E-04-5.36962E-14
 -1      3954 7.83042E-03-1.30764E-04-5.84875E-14
 -1      3955 7.96436E-03-1.29515E-04-6.04612E-14
 -1      3956 7.75911E-03-1.01117E-04-5.75320E-14
 -1      3957 8.09705E-03-1.28584E-04-6.24618E-14
 -1      3958 8.22838E-03-1.27923E-04-6.44897E-14
 -1      3959 8.02586E-03-1.00048E-04-6.14779E-14
 -1      3960 8.35815E-03-1.27768E-04-6.65448E-14
 -1      3961 8.48623E-03-1.28032E-04-6.86250E-14
 -1      3962 8.28719E-03-1.00286E-04-6.55334E-14
 -1      3963 8.61234E-03-1.29027E-04-7.07313E-14
 -1      3964 8.73633E-03-1.30588E-04-7.28628E-14
 -1      3965 8.54175E-03-1.02486E-04-6.96941E-14
 -1      3966 8.85782E-03-1.33131E-04-7.50173E-14
 -1      3967 8.97659E-03-1.36339E-04-7.71954E-14
 -1      3968 8.78777E-03-1.07381E-04-7.39541E-14
 -1      3969 9.09207E-03-1.40783E-04-7.93986E-14
 -1      3970 9.20404E-03-1.45868E-04-8.16240E-14
 -1      3971 9.02273E-03-1.15741E-04-7.83112E-14
 -1      3972 5.96453E-03 1.87110E-04-3.47742E-14
 -1      3973 5.82228E-03 1.88339E-04-3.32257E-14
 -1      3974 5.67984E-03 1.89464E-04-3.17096E-14
 -1      3975 5.53724E-03 1.90503E-04-3.02269E-14
 -1      3976 5.75051E-03 1.52567E-04-3.24904E-14
 -1      3977 6.24844E-03 1.84315E-04-3.79646E-14
 -1      3978 6.10659E-03 1.85775E-04-3.63533E-14
 -1      3979 6.03484E-03 1.50530E-04-3.55849E-14
 -1      3980 6.53142E-03 1.80994E-04-4.12792E-14
 -1      3981 6.39006E-03 1.82729E-04-3.96067E-14
 -1      3982 6.31823E-03 1.48094E-04-3.88072E-14
 -1      3983 6.81326E-03 1.77063E-04-4.47171E-14
 -1      3984 6.67249E-03 1.79114E-04-4.29826E-14
 -1      3985 6.60051E-03 1.45176E-04-4.21532E-14
 -1      3986 7.09375E-03 1.72448E-04-4.82738E-14
 -1      3987 6.95368E-03 1.74851E-04-4.64810E-14
 -1      3988 6.88143E-03 1.41691E-04-4.56223E-14
 -1      3989 7.37267E-03 1.67093E-04-5.19446E-14
 -1      3990 7.23342E-03 1.69873E-04-5.00948E-14
 -1      3991 7.16072E-03 1.37552E-04-4.92075E-14
 -1      3992 7.64980E-03 1.60972E-04-5.57288E-14
 -1      3993 7.51146E-03 1.64137E-04-5.38233E-14
 -1      3994 7.43809E-03 1.32678E-04-5.29079E-14
 -1      3995 7.92501E-03 1.54104E-04-5.96239E-14
 -1      3996 7.78764E-03 1.57638E-04-5.76634E-14
 -1      3997 7.71327E-03 1.26995E-04-5.67194E-14
 -1      3998 8.19826E-03 1.46565E-04-6.36260E-14
 -1      3999 8.06185E-03 1.50419E-04-6.16112E-14
 -1      4000 7.98603E-03 1.20444E-04-6.06402E-14
 -1      4001 8.46981E-03 1.38519E-04-6.77338E-14
 -1      4002 8.33420E-03 1.42596E-04-6.56665E-14
 -1      4003 8.25623E-03 1.12983E-04-6.46686E-14
 -1      4004 8.74028E-03 1.30268E-04-7.19466E-14
 -1      4005 8.60508E-03 1.34390E-04-6.98276E-14
 -1      4006 8.52398E-03 1.04611E-04-6.88025E-14
 -1      4007 9.01095E-03 1.22366E-04-7.62614E-14
 -1      4008 8.87541E-03 1.26196E-04-7.40916E-14
 -1      4009 8.78972E-03 9.53942E-05-7.30422E-14
 -1      4010 9.28422E-03 1.15971E-04-8.06708E-14
 -1      4011 9.14699E-03 1.18824E-04-7.84545E-14
 -1      4012 9.05452E-03 8.55675E-05-7.73798E-14
 -1      4013 9.54399E-03 1.20203E-04-8.47521E-14
 -1      4014 9.40236E-03 1.20498E-04-8.24903E-14
 -1      4015 9.30064E-03 8.26215E-05-8.13958E-14
 -1      4016 9.53446E-03 8.98792E-05-8.50632E-14
 -1      4017 1.62567E-03-3.49917E-05-3.27039E-15
 -1      4018 1.50223E-03-5.08289E-05-2.84600E-15
 -1      4019 3.24242E-03 2.73594E-04-1.09955E-14
 -1      4020 3.09810E-03 2.72957E-04-1.00990E-14
 -1      4021 3.31214E-03 2.35908E-04-1.14996E-14
 -1      4022 9.63371E-03-1.89629E-05-8.88157E-14
 -1      4023 1.84448E-03-1.42110E-04-4.02400E-15
 -1      4024 1.98908E-03-1.46232E-04-4.60112E-15
 -1      4025 5.39449E-03 1.91458E-04-2.87756E-14
 -1      4026 5.25160E-03 1.92343E-04-2.73582E-14
 -1      4027 5.46541E-03 1.54280E-04-2.95249E-14
 -1      4028 1.49361E-03 1.51206E-04-2.75274E-15
 -1      4029 1.49039E-03 1.16117E-04-2.77137E-15
 -1      4030 1.61307E-03 1.02970E-04-3.19543E-15
 -1      4031 1.58517E-03 1.61591E-04-3.05085E-15
 -1      4032 9.25356E-03-1.32481E-04-8.29390E-14
 -1      4033 4.82213E-03 1.94621E-04-2.33009E-14
 -1      4034 4.67872E-03 1.95273E-04-2.20158E-14
 -1      4035 2.22262E-03 1.86544E-04-5.56834E-15
 -1      4036 2.07769E-03 1.82819E-04-4.93304E-15
 -1      4037 2.51278E-03 1.92008E-04-6.95456E-15
 -1      4038 2.36767E-03 1.89585E-04-6.24247E-15
 -1      4039 2.29215E-03 1.51772E-04-5.92576E-15
 -1      4040 2.42426E-03-1.54761E-04-6.55841E-15
 -1      4041 2.56953E-03-1.56548E-04-7.28607E-15
 -1      4042 2.64010E-03-1.19958E-04-7.68361E-15
 -1      4043 5.10857E-03 1.93160E-04-2.59730E-14
 -1      4044 4.96542E-03 1.93920E-04-2.46198E-14
 -1      4045 5.17964E-03 1.55732E-04-2.66885E-14
 -1      4046 1.44821E-03-7.65159E-05-2.66067E-15
 -1      4047 2.13396E-03-1.49677E-04-5.21626E-15
 -1      4048 2.27905E-03-1.52488E-04-5.86839E-15
 -1      4049 2.05903E-03-1.12789E-04-4.92091E-15
 -1      4050 9.51194E-03 3.21868E-05-8.56789E-14
 -1      4051 9.52372E-03 6.06732E-05-8.53724E-14
 -1      4052 9.40844E-03 5.81006E-05-8.35283E-14
 -1      4053 4.17686E-03 2.34914E-04-1.77502E-14
 -1      4054 1.75029E-03-1.75045E-05-3.72410E-15
 -1      4055 1.75022E-03-5.54014E-05-3.71608E-15
 -1      4056 3.02298E-03 2.34734E-04-9.70537E-15
 -1      4057 1.95093E-03 1.82904E-04-4.40248E-15
 -1      4058 1.82440E-03 1.82139E-04-3.90176E-15
 -1      4059 2.02001E-03 1.50095E-04-4.72200E-15
 -1      4060 1.71745E-03-1.18492E-04-3.56231E-15
 -1      4061 1.57363E-03-9.84672E-05-3.06519E-15
 -1      4062 4.89328E-03 1.56974E-04-2.39849E-14
 -1      4063 2.80296E-03 1.95387E-04-8.48985E-15
 -1      4064 2.65789E-03 1.93926E-04-7.70332E-15
 -1      4065 2.58265E-03 1.55812E-04-7.35061E-15
 -1      4066 3.67136E-03 1.98118E-04-1.39838E-14
 -1      4067 3.52693E-03 1.98164E-04-1.29769E-14
 -1      4068 4.60635E-03 1.58035E-04-2.14148E-14
 -1      4069 4.53519E-03 1.95870E-04-2.07646E-14
 -1      4070 4.39154E-03 1.96418E-04-1.95468E-14
 -1      4071 3.95982E-03 1.97685E-04-1.61042E-14
 -1      4072 3.81566E-03 1.97957E-04-1.50262E-14
 -1      4073 3.74224E-03 1.60031E-04-1.45302E-14
 -1      4074 1.75120E-03 5.69254E-05-3.71724E-15
 -1      4075 1.75032E-03 1.96856E-05-3.72322E-15
 -1      4076 1.87469E-03 5.85151E-07-4.20176E-15
 -1      4077 2.34935E-03-1.17166E-04-6.22749E-15
 -1      4078 9.20424E-03-1.08919E-04-8.20693E-14
 -1      4079 9.44247E-03-6.95745E-05-8.65554E-14
 -1      4080 9.52643E-03-5.71407E-05-8.78268E-14
 -1      4081 9.51384E-03-1.07915E-05-8.65650E-14
 -1      4082 9.33851E-03-7.41649E-05-8.46054E-14
 -1      4083 9.40878E-03-8.78791E-06-8.47111E-14
 -1      4084 9.30795E-03-3.11850E-05-8.33337E-14
 -1      4085 9.29351E-03 5.24626E-06-8.24654E-14
 -1      4086 2.85682E-03-8.35387E-05-8.88893E-15
 -1      4087 3.00221E-03-8.39286E-05-9.72983E-15
 -1      4088 3.14750E-03-8.41908E-05-1.06067E-14
 -1      4089 3.29267E-03-8.43326E-05-1.15197E-14
 -1      4090 3.07411E-03-4.60822E-05-1.01734E-14
 -1      4091 3.43771E-03-8.43888E-05-1.24694E-14
 -1      4092 3.58260E-03-8.43586E-05-1.34546E-14
 -1      4093 3.36458E-03-4.62267E-05-1.20007E-14
 -1      4094 3.72734E-03-8.42712E-05-1.44754E-14
 -1      4095 3.87191E-03-8.41243E-05-1.55306E-14
 -1      4096 3.65448E-03-4.61633E-05-1.39717E-14
 -1      4097 4.01633E-03-8.39398E-05-1.66215E-14
 -1      4098 4.16059E-03-8.37123E-05-1.77478E-14
 -1      4099 3.94375E-03-4.59754E-05-1.60841E-14
 -1      4100 4.30469E-03-8.34594E-05-1.89078E-14
 -1      4101 4.44864E-03-8.31733E-05-2.01027E-14
 -1      4102 4.23235E-03-4.56994E-05-1.83361E-14
 -1      4103 4.59243E-03-8.28662E-05-2.13313E-14
 -1      4104 4.73606E-03-8.25317E-05-2.25943E-14
 -1      4105 4.52031E-03-4.53488E-05-2.07259E-14
 -1      4106 4.87954E-03-8.21787E-05-2.38910E-14
 -1      4107 5.02285E-03-8.17992E-05-2.52209E-14
 -1      4108 4.80763E-03-4.49488E-05-2.32524E-14
 -1      4109 5.16600E-03-8.13993E-05-2.65848E-14
 -1      4110 5.30898E-03-8.09712E-05-2.79826E-14
 -1      4111 5.09428E-03-4.45002E-05-2.59131E-14
 -1      4112 5.45178E-03-8.05199E-05-2.94130E-14
 -1      4113 5.59438E-03-8.00371E-05-3.08746E-14
 -1      4114 5.38024E-03-4.40021E-05-2.87082E-14
 -1      4115 5.73677E-03-7.95282E-05-3.23689E-14
 -1      4116 5.87893E-03-7.89844E-05-3.38974E-14
 -1      4117 5.66541E-03-4.34527E-05-3.16330E-14
 -1      4118 6.02084E-03-7.84133E-05-3.54574E-14
 -1      4119 6.16247E-03-7.78052E-05-3.70495E-14
 -1      4120 5.94966E-03-4.28530E-05-3.46876E-14
 -1      4121 6.30378E-03-7.71726E-05-3.86757E-14
 -1      4122 6.44476E-03-7.65049E-05-4.03323E-14
 -1      4123 6.23282E-03-4.22126E-05-3.78735E-14
 -1      4124 6.58534E-03-7.58222E-05-4.20200E-14
 -1      4125 6.72549E-03-7.51126E-05-4.37383E-14
 -1      4126 6.51463E-03-4.15566E-05-4.11863E-14
 -1      4127 6.86515E-03-7.44083E-05-4.54882E-14
 -1      4128 7.00428E-03-7.36957E-05-4.72671E-14
 -1      4129 6.79476E-03-4.09362E-05-4.46236E-14
 -1      4130 7.14278E-03-7.30238E-05-4.90732E-14
 -1      4131 7.28062E-03-7.23769E-05-5.09086E-14
 -1      4132 7.07279E-03-4.04407E-05-4.81804E-14
 -1      4133 7.41769E-03-7.18270E-05-5.27711E-14
 -1      4134 7.55393E-03-7.13547E-05-5.46608E-14
 -1      4135 7.34823E-03-4.02142E-05-5.18487E-14
 -1      4136 7.68922E-03-7.10633E-05-5.65795E-14
 -1      4137 7.82348E-03-7.09254E-05-5.85248E-14
 -1      4138 7.62045E-03-4.04737E-05-5.56269E-14
 -1      4139 7.95656E-03-7.10861E-05-6.04968E-14
 -1      4140 8.08838E-03-7.15025E-05-6.24968E-14
 -1      4141 7.88875E-03-4.15298E-05-5.95162E-14
 -1      4142 8.21874E-03-7.23741E-05-6.45228E-14
 -1      4143 8.34753E-03-7.36266E-05-6.65770E-14
 -1      4144 8.15224E-03-4.38048E-05-6.35157E-14
 -1      4145 8.47453E-03-7.55336E-05-6.86585E-14
 -1      4146 8.59955E-03-7.79570E-05-7.07631E-14
 -1      4147 8.40985E-03-4.78456E-05-6.76222E-14
 -1      4148 8.72231E-03-8.12777E-05-7.28924E-14
 -1      4149 8.84254E-03-8.52280E-05-7.50467E-14
 -1      4150 8.66023E-03-5.43229E-05-7.18322E-14
 -1      4151 8.95985E-03-9.03825E-05-7.72251E-14
 -1      4152 9.07382E-03-9.62757E-05-7.94270E-14
 -1      4153 8.90146E-03-6.40132E-05-7.61400E-14
 -1      4154 6.38796E-03 1.12234E-04-3.96520E-14
 -1      4155 6.24668E-03 1.13291E-04-3.80090E-14
 -1      4156 6.66953E-03 1.09796E-04-4.30300E-14
 -1      4157 6.52892E-03 1.11078E-04-4.13253E-14
 -1      4158 6.45767E-03 7.67597E-05-4.04984E-14
 -1      4159 1.67704E-03 1.71818E-04-3.36401E-15
 -1      4160 6.94951E-03 1.06840E-04-4.65286E-14
 -1      4161 6.80973E-03 1.08394E-04-4.47637E-14
 -1      4162 6.73852E-03 7.48781E-05-4.39067E-14
 -1      4163 7.22759E-03 1.03265E-04-5.01441E-14
 -1      4164 7.08880E-03 1.05143E-04-4.83222E-14
 -1      4165 7.01758E-03 7.25360E-05-4.74356E-14
 -1      4166 7.50341E-03 9.89601E-05-5.38710E-14
 -1      4167 7.36579E-03 1.01219E-04-5.19941E-14
 -1      4168 7.29446E-03 6.96159E-05-5.10825E-14
 -1      4169 7.77660E-03 9.37979E-05-5.77102E-14
 -1      4170 7.64034E-03 9.65031E-05-5.57770E-14
 -1      4171 7.56873E-03 6.59710E-05-5.48358E-14
 -1      4172 8.04684E-03 8.76356E-05-6.16574E-14
 -1      4173 7.91209E-03 9.08598E-05-5.96702E-14
 -1      4174 7.83994E-03 6.14174E-05-5.87008E-14
 -1      4175 8.31387E-03 8.03116E-05-6.57123E-14
 -1      4176 8.18074E-03 8.41363E-05-6.36710E-14
 -1      4177 8.10764E-03 5.57239E-05-6.26756E-14
 -1      4178 8.57756E-03 7.16536E-05-6.98737E-14
 -1      4179 8.44608E-03 7.61626E-05-6.77800E-14
 -1      4180 8.37137E-03 4.86040E-05-6.67590E-14
 -1      4181 8.83806E-03 6.15042E-05-7.41372E-14
 -1      4182 8.70810E-03 6.67677E-05-7.19928E-14
 -1      4183 8.63075E-03 3.97148E-05-7.09459E-14
 -1      4184 9.09589E-03 4.97459E-05-7.84994E-14
 -1      4185 8.96712E-03 5.58069E-05-7.63068E-14
 -1      4186 8.88555E-03 2.86659E-05-7.52342E-14
 -1      4187 3.09288E-03 1.97253E-04-1.01756E-14
 -1      4188 2.94797E-03 1.96484E-04-9.31404E-15
 -1      4189 2.87315E-03 1.58265E-04-8.92548E-15
 -1      4190 4.24776E-03 1.96905E-04-1.83647E-14
 -1      4191 4.10386E-03 1.97334E-04-1.72177E-14
 -1      4192 4.03084E-03 1.59608E-04-1.66864E-14
 -1      4193 3.38237E-03 1.98052E-04-1.20068E-14
 -1      4194 3.23769E-03 1.97768E-04-1.10732E-14
 -1      4195 3.45306E-03 1.60076E-04-1.25171E-14
 -1      4196 5.53634E-03 1.17290E-04-3.02745E-14
 -1      4197 5.39364E-03 1.17897E-04-2.88240E-14
 -1      4198 2.56586E-03-8.22415E-05-7.31991E-15
 -1      4199 2.71135E-03-8.29814E-05-8.08595E-15
 -1      4200 2.78320E-03-4.56657E-05-8.49246E-15
 -1      4201 1.76978E-03-9.04504E-05-3.77441E-15
 -1      4202 2.27500E-03-8.00567E-05-5.90004E-15
 -1      4203 2.42039E-03-8.12736E-05-6.59131E-15
 -1      4204 2.49211E-03-4.48572E-05-6.95979E-15
 -1      4205 4.96451E-03 1.19438E-04-2.46699E-14
 -1      4206 4.82116E-03 1.19877E-04-2.33514E-14
 -1      4207 5.82116E-03 1.15906E-04-3.32717E-14
 -1      4208 5.67885E-03 1.16631E-04-3.17566E-14
 -1      4209 5.60729E-03 8.05104E-05-3.10253E-14
 -1      4210 2.36246E-03 1.16393E-04-6.28760E-15
 -1      4211 2.21719E-03 1.14459E-04-5.61203E-15
 -1      4212 9.23280E-03-5.94669E-05-8.23635E-14
 -1      4213 5.25076E-03 1.18452E-04-2.74066E-14
 -1      4214 5.10772E-03 1.18967E-04-2.60219E-14
 -1      4215 5.32192E-03 8.13414E-05-2.81255E-14
 -1      4216 1.89429E-03-7.36111E-05-4.26413E-15
 -1      4217 2.01192E-03-7.61779E-05-4.74295E-15
 -1      4218 2.15695E-03-7.79414E-05-5.36623E-15
 -1      4219 2.22848E-03-4.27651E-05-5.69988E-15
 -1      4220 1.99265E-03-3.94956E-05-4.67536E-15
 -1      4221 6.10510E-03 1.14244E-04-3.63975E-14
 -1      4222 5.96325E-03 1.15117E-04-3.48190E-14
 -1      4223 6.17534E-03 7.82763E-05-3.72124E-14
 -1      4224 9.15074E-03-8.32555E-05-8.09589E-14
 -1      4225 9.10079E-03-4.47618E-05-7.97143E-14
 -1      4226 1.74574E-03 1.41696E-04-3.64436E-15
 -1      4227 1.75995E-03 1.11076E-04-3.72156E-15
 -1      4228 4.74906E-03 8.26232E-05-2.27206E-14
 -1      4229 4.67765E-03 1.20277E-04-2.20671E-14
 -1      4230 4.53399E-03 1.20649E-04-2.08161E-14
 -1      4231 9.19033E-03 2.96461E-05-8.03477E-14
 -1      4232 9.10483E-03 2.75113E-06-7.92514E-14
 -1      4233 3.16334E-03 1.59573E-04-1.06486E-14
 -1      4234 9.29579E-03 5.66917E-05-8.16992E-14
 -1      4235 4.31887E-03 1.58921E-04-1.89815E-14
 -1      4236 3.52419E-03 1.21998E-04-1.30298E-14
 -1      4237 3.37933E-03 1.21918E-04-1.20593E-14
 -1      4238 2.14286E-03 7.77448E-05-5.30169E-15
 -1      4239 2.07211E-03 1.12073E-04-4.97371E-15
 -1      4240 1.94508E-03 1.13563E-04-4.44237E-15
 -1      4241 1.99225E-03-2.70114E-07-4.67770E-15
 -1      4242 5.89181E-03 7.95055E-05-3.40539E-14
 -1      4243 3.66890E-03 1.21996E-04-1.40364E-14
 -1      4244 3.59569E-03 8.38675E-05-1.35455E-14
 -1      4245 3.81346E-03 1.21902E-04-1.50790E-14
 -1      4246 2.65324E-03 1.19192E-04-7.75134E-15
 -1      4247 2.50784E-03 1.17966E-04-7.00095E-15
 -1      4248 2.43349E-03 8.04563E-05-6.65421E-15
 -1      4249 5.03583E-03 8.20369E-05-2.53565E-14
 -1      4250 9.00888E-03-2.64841E-05-7.78792E-14
 -1      4251 3.29175E-03-8.07992E-06-1.15348E-14
 -1      4252 3.43689E-03-8.04877E-06-1.24847E-14
 -1      4253 3.62465E-03 1.88485E-05-1.37670E-14
 -1      4254 3.76941E-03 1.88749E-05-1.47990E-14
 -1      4255 4.16014E-03-7.82659E-06-1.77652E-14
 -1      4256 4.30430E-03-7.76316E-06-1.89260E-14
 -1      4257 4.49077E-03 1.88417E-05-2.04822E-14
 -1      4258 4.63455E-03 1.88209E-05-2.17218E-14
 -1      4259 4.77817E-03 1.87865E-05-2.29946E-14
 -1      4260 4.92162E-03 1.87534E-05-2.43030E-14
 -1      4261 5.06490E-03 1.87067E-05-2.56439E-14
 -1      4262 5.20800E-03 1.86586E-05-2.70183E-14
 -1      4263 5.35092E-03 1.85943E-05-2.84255E-14
 -1      4264 5.49365E-03 1.85256E-05-2.98658E-14
 -1      4265 5.63617E-03 1.84360E-05-3.13383E-14
 -1      4266 5.77847E-03 1.83377E-05-3.28423E-14
 -1      4267 5.92052E-03 1.82106E-05-3.43796E-14
 -1      4268 6.06230E-03 1.80690E-05-3.59495E-14
 -1      4269 6.20378E-03 1.78867E-05-3.75508E-14
 -1      4270 6.34494E-03 1.76815E-05-3.91859E-14
 -1      4271 6.48574E-03 1.74181E-05-4.08507E-14
 -1      4272 6.62613E-03 1.71196E-05-4.25465E-14
 -1      4273 6.76607E-03 1.67381E-05-4.42729E-14
 -1      4274 6.90551E-03 1.63034E-05-4.60303E-14
 -1      4275 7.04440E-03 1.57507E-05-4.78174E-14
 -1      4276 7.18268E-03 1.51188E-05-4.96310E-14
 -1      4277 7.32028E-03 1.43203E-05-5.14738E-14
 -1      4278 7.45714E-03 1.34054E-05-5.33421E-14
 -1      4279 7.59318E-03 1.22574E-05-5.52389E-14
 -1      4280 7.72832E-03 1.09418E-05-5.71649E-14
 -1      4281 7.86249E-03 9.30371E-06-5.91156E-14
 -1      4282 7.99558E-03 7.42935E-06-6.10953E-14
 -1      4283 8.12752E-03 5.11462E-06-6.31043E-14
 -1      4284 8.25818E-03 2.47620E-06-6.51368E-14
 -1      4285 8.38750E-03-7.55298E-07-6.71976E-14
 -1      4286 8.51528E-03-4.41485E-06-6.92836E-14
 -1      4287 8.64152E-03-8.86193E-06-7.13956E-14
 -1      4288 8.76590E-03-1.38471E-05-7.35315E-14
 -1      4289 8.88851E-03-1.98771E-05-7.56931E-14
 -1      4290 2.94396E-03 1.20859E-04-9.36447E-15
 -1      4291 2.79863E-03 1.20152E-04-8.53915E-15
 -1      4292 2.72447E-03 8.21993E-05-8.15628E-15
 -1      4293 3.23433E-03 1.21716E-04-1.11247E-14
 -1      4294 3.08921E-03 1.21378E-04-1.02264E-14
 -1      4295 3.30579E-03 8.37286E-05-1.16040E-14
 -1      4296 2.75307E-03 1.83573E-05-8.33184E-15
 -1      4297 2.89860E-03 1.85113E-05-9.14632E-15
 -1      4298 4.10213E-03 1.21536E-04-1.72699E-14
 -1      4299 3.95787E-03 1.21751E-04-1.61569E-14
 -1      4300 3.88499E-03 8.37703E-05-1.56302E-14
 -1      4301 1.81247E-03 7.51667E-05-3.94144E-15
 -1      4302 1.93638E-03 5.72146E-05-4.43715E-15
 -1      4303 4.39019E-03 1.20979E-04-1.95986E-14
 -1      4304 4.24623E-03 1.21280E-04-1.84172E-14
 -1      4305 4.17365E-03 8.35051E-05-1.78553E-14
 -1      4306 4.46167E-03 8.31125E-05-2.02191E-14
 -1      4307 3.04406E-03 1.86152E-05-9.99843E-15
 -1      4308 3.18940E-03 1.87078E-05-1.08862E-14
 -1      4309 2.46194E-03 1.79502E-05-6.81372E-15
 -1      4310 2.60750E-03 1.81853E-05-7.55425E-15
 -1      4311 2.08125E-03 5.87220E-05-5.04158E-15
 -1      4312 2.01986E-03 4.00211E-05-4.78692E-15
 -1      4313 2.22641E-03 5.99853E-05-5.68363E-15
 -1      4314 3.91401E-03 1.88773E-05-1.58659E-14
 -1      4315 4.05844E-03 1.88808E-05-1.69678E-14
 -1      4316 3.01533E-03 8.32187E-05-9.80683E-15
 -1      4317 2.13726E-03-2.68692E-07-5.29659E-15
 -1      4318 2.31646E-03 1.76824E-05-6.11089E-15
 -1      4319 2.25530E-03-1.17111E-06-5.82740E-15
 -1      4320 3.26246E-03 5.68733E-05-1.13378E-14
 -1      4321 4.41900E-03 5.66158E-05-1.98693E-14
 -1      4322 3.40757E-03 5.69715E-05-1.22801E-14
 -1      4323 4.13083E-03 5.68533E-05-1.75257E-14
 -1      4324 3.55253E-03 5.70145E-05-1.32582E-14
 -1      4325 4.27500E-03 5.67436E-05-1.86800E-14
 -3
    1PSTEP                         2           1           1          
  100CL  101 1.000000000        4325                     0    1           1
 -4  STRESS      6    1
 -5  SXX         1    4    1    1
 -5  SYY         1    4    2    2
 -5  SZZ         1    4    3    3
 -5  SXY         1    4    1    2
 -5  SYZ         1    4    2    3
 -5  SZX         1    4    3    1
 -1         1 3.62615E+01 1.10368E+01 2.03755E+00-1.93576E+01-9.69280E-13 1.67899E-12
 -1         2-8.19382E-01-2.81070E+01-3.80759E+00-1.58934E-01 1.65259E-12 3.72584E-14
 -1         3 1.99963E+01-3.14069E-03 3.36593E-02-3.81638E-03-2.80050E-13-3.50241E-13
 -1         4 1.99411E+01-5.99650E-02 7.33326E-02 6.00521E-02 2.82024E-13 9.45619E-14
 -1         5 3.27687E+01 6.14286E+00 2.74245E+00 6.22431E+00-4.68237E-14 3.62309E-12
 -1         6 3.57528E+01 1.22635E+01 5.12546E+00-8.64661E+00-2.04725E-13 3.70498E-12
 -1         7 2.08195E+01 6.09991E+00-1.28593E-01-4.72525E+00-3.15442E-14 8.25538E-13
 -1         8 1.96720E+01 5.93500E+00 5.07800E-02-3.27440E+00-4.26395E-14-1.04903E-13
 -1         9 1.91371E+01 5.77198E+00 4.90072E-02-2.52660E+00-4.44280E-14-6.10873E-13
 -1        10 1.88959E+01 5.69227E+00 5.12582E-02-1.95110E+00-2.78007E-14-8.77552E-13
 -1        11 1.87736E+01 5.65129E+00 5.04212E-02-1.45589E+00-2.27158E-14-1.00972E-12
 -1        12 1.87098E+01 5.62952E+00 4.87898E-02-1.01505E+00-1.13826E-14-1.06663E-12
 -1        13 1.86762E+01 5.61805E+00 4.74234E-02-5.95302E-01-5.62864E-15-1.08834E-12
 -1        14 1.86621E+01 5.61321E+00 4.66996E-02-1.91193E-01-1.91679E-15-1.09501E-12
 -1        15 1.86626E+01 5.61337E+00 4.67404E-02 2.08179E-01 4.89940E-15-1.08648E-12
 -1        16 1.86778E+01 5.61855E+00 4.75607E-02 6.13123E-01 8.25110E-15-1.07009E-12
 -1        17 1.87126E+01 5.63028E+00 4.90751E-02 1.03486E+00 1.43780E-14-1.03373E-12
 -1        18 1.87776E+01 5.65235E+00 5.08243E-02 1.47890E+00 1.86786E-14-9.60475E-13
 -1        19 1.89010E+01 5.69378E+00 5.15359E-02 1.98000E+00 3.15295E-14-8.24021E-13
 -1        20 1.91427E+01 5.77456E+00 4.87926E-02 2.56360E+00 4.02768E-14-5.60476E-13
 -1        21 1.96679E+01 5.94973E+00 4.59409E-02 3.30860E+00 4.92731E-14-3.78916E-14
 -1        22 2.12022E+01 6.38165E+00 1.39723E-01 4.52293E+00 6.93889E-15 1.06792E-12
 -1        23 2.30307E+01-1.37928E+00-9.38301E-01-7.11179E-01-1.34736E-13 2.97651E-12
 -1        24 1.93679E+01-9.94693E-02-3.09823E-01 6.31980E-02-3.97495E-14 2.33396E-12
 -1        25 1.86797E+01-5.63182E-02-6.87635E-02 6.07469E-02-2.43104E-14 1.68694E-12
 -1        26 1.84775E+01-2.20843E-02-6.43041E-03 3.29932E-02-7.51244E-16 1.23786E-12
 -1        27 1.84889E+01-1.17942E-02 1.61119E-03 2.26039E-02-8.90206E-15 9.44196E-13
 -1        28 1.86030E+01-6.22832E-03 1.80353E-03 1.63059E-02-4.35269E-15 6.91671E-13
 -1        29 1.87627E+01-3.07328E-03 1.73745E-03 1.21605E-02 2.00195E-15 5.72419E-13
 -1        30 1.89367E+01-1.21480E-03 1.92822E-03 9.20220E-03-2.40549E-15 3.32772E-13
 -1        31 1.91071E+01-1.17949E-04 2.09511E-03 6.97434E-03 3.92687E-15 1.52248E-13
 -1        32 1.92641E+01 5.07814E-04 2.13033E-03 5.24557E-03-3.36485E-14-3.85623E-14
 -1        33 1.94029E+01 8.30932E-04 2.04158E-03 3.88492E-03 3.04940E-14-1.23866E-13
 -1        34 1.95218E+01 9.55733E-04 1.86580E-03 2.80885E-03-3.05369E-14-1.48950E-13
 -1        35 1.96209E+01 9.49295E-04 1.63682E-03 1.95823E-03 3.24511E-14-1.71477E-13
 -1        36 1.97021E+01 8.55064E-04 1.37820E-03 1.28803E-03-7.99781E-15-1.00926E-13
 -1        37 1.97677E+01 7.00252E-04 1.10341E-03 7.62816E-04 3.63614E-17-2.67352E-13
 -1        38 1.98208E+01 5.00216E-04 8.17255E-04 3.54784E-04-6.82252E-15-4.14166E-13
 -1        39 1.98647E+01 2.61259E-04 5.17250E-04 4.31660E-05 1.98214E-15-4.64039E-13
 -1        40 1.99031E+01-1.74932E-05 1.94509E-04-1.85738E-04-1.83094E-14-5.10309E-13
 -1        41 1.99404E+01-3.42766E-04-1.65702E-04-3.37991E-04-4.77950E-15-7.25172E-13
 -1        42 1.99812E+01-7.26172E-04-5.83831E-04-4.10935E-04-7.31340E-15-6.39124E-13
 -1        43 2.00312E+01-1.18339E-03-1.08627E-03-3.91440E-04-4.28547E-14-5.05247E-13
 -1        44 2.00972E+01-1.73325E-03-1.70594E-03-2.53171E-04-1.11948E-14-4.67672E-13
 -1        45 2.01871E+01-2.39622E-03-2.48288E-03 4.75378E-05-4.44364E-14-5.36663E-13
 -1        46 2.03112E+01-3.19160E-03-3.46439E-03 5.77796E-04-1.74649E-14-7.51964E-13
 -1        47 2.04819E+01-4.13179E-03-4.70311E-03 1.43683E-03 1.27204E-14-5.24117E-13
 -1        48 2.07142E+01-5.21116E-03-6.24952E-03 2.76743E-03 1.00515E-14-4.72595E-13
 -1        49 2.10263E+01-6.38506E-03-8.13142E-03 4.76885E-03 1.33840E-14-6.29826E-13
 -1        50 2.14394E+01-7.53203E-03-1.03047E-02 7.70545E-03-3.79967E-14-7.38071E-13
 -1        51 2.19759E+01-8.39062E-03-1.25456E-02 1.18942E-02-5.25922E-14-8.49208E-13
 -1        52 2.26565E+01-8.46392E-03-1.42388E-02 1.76301E-02 2.34936E-15-6.12346E-13
 -1        53 2.34918E+01-6.90298E-03-1.40096E-02 2.49617E-02-3.88086E-14-4.72837E-13
 -1        54 2.44676E+01-2.43663E-03-9.23154E-03 3.31569E-02 6.34572E-14-3.45066E-13
 -1        55 2.55188E+01 6.45630E-03 4.25291E-03 3.96553E-02 5.59649E-15-3.15019E-13
 -1        56 2.64912E+01 2.07160E-02 3.11131E-02 3.84988E-02-9.69773E-14-6.99388E-13
 -1        57 2.71045E+01 3.87853E-02 7.22418E-02 1.92094E-02 2.23977E-14-1.04180E-12
 -1        58 2.69541E+01 5.38164E-02 1.15559E-01-3.03877E-02 8.69977E-14-9.25017E-13
 -1        59 2.56339E+01 5.31242E-02 1.28505E-01-1.11869E-01-5.52123E-14-7.94607E-13
 -1        60 2.30447E+01 2.50085E-02 6.90956E-02-1.95244E-01-3.26338E-14-7.59857E-13
 -1        61 1.97777E+01-2.62832E-02-6.68687E-02-2.14673E-01 7.88159E-14-6.01887E-13
 -1        62 1.71358E+01-7.24425E-02-2.01902E-01-1.18900E-01 3.35929E-15-8.29413E-13
 -1        63 1.63965E+01-8.01328E-02-2.24155E-01 5.08694E-02-5.98601E-14-8.83888E-13
 -1        64 1.77730E+01-4.34509E-02-1.13972E-01 1.78489E-01 7.98966E-14-1.04217E-12
 -1        65 2.02290E+01 9.69535E-03 3.39112E-02 1.92069E-01-1.02468E-13-8.72025E-13
 -1        66 2.23574E+01 4.57578E-02 1.20951E-01 1.18307E-01-6.99467E-14-1.24144E-12
 -1        67 2.33161E+01 5.16801E-02 1.25209E-01 2.70520E-02 5.94026E-14-9.50963E-13
 -1        68 2.30517E+01 3.46205E-02 7.85897E-02-3.76178E-02 1.32390E-14 1.12607E-13
 -1        69 2.20017E+01 7.78886E-03 1.63602E-02-6.48108E-02-5.41065E-14-3.28557E-14
 -1        70 2.07801E+01-1.22928E-02-3.65968E-02-4.89767E-02 1.22222E-15 4.72747E-14
 -1        71 2.00060E+01 1.22873E-02-2.96127E-02 1.01142E-03-1.20733E-13-1.62341E-13
 -1        72 2.10430E+01-4.04897E-01-9.80423E-01-3.11629E-01 6.04586E-14 3.23370E-12
 -1        73 1.93325E+01-6.58826E-02-2.91127E-01-5.38353E-02 2.63400E-14 2.37964E-12
 -1        74 1.86893E+01-2.05047E-02-6.42685E-02-2.03472E-02 1.00203E-14 1.76141E-12
 -1        75 1.84866E+01-9.87681E-03-9.30734E-03-1.54485E-02 1.09136E-14 1.28922E-12
 -1        76 1.84979E+01-5.16283E-03 6.84734E-04-1.23804E-02 1.74306E-14 9.26809E-13
 -1        77 1.86112E+01-2.61025E-03 1.75062E-03-1.01099E-02-5.46294E-15 7.51908E-13
 -1        78 1.87700E+01-1.13902E-03 1.88924E-03-8.37045E-03-8.18372E-15 6.48048E-13
 -1        79 1.89429E+01-2.74282E-04 2.08510E-03-6.93582E-03 1.08811E-14 5.36347E-13
 -1        80 1.91124E+01 2.24940E-04 2.22787E-03-5.70017E-03-1.32297E-15 4.11764E-13
 -1        81 1.92686E+01 4.93288E-04 2.23971E-03-4.62122E-03 1.15992E-14 2.39270E-13
 -1        82 1.94066E+01 6.11989E-04 2.13008E-03-3.67951E-03 1.82939E-14 1.02062E-13
 -1        83 1.95248E+01 6.32308E-04 1.93506E-03-2.86221E-03 2.43713E-14 5.08155E-15
 -1        84 1.96235E+01 5.87307E-04 1.68787E-03-2.15719E-03-6.83607E-15-1.12489E-13
 -1        85 1.97044E+01 4.98065E-04 1.41165E-03-1.55141E-03 1.52697E-14-3.50539E-13
 -1        86 1.97698E+01 3.77250E-04 1.11949E-03-1.03103E-03 1.45145E-14-5.17292E-13
 -1        87 1.98229E+01 2.31417E-04 8.15931E-04-5.82255E-04-1.90215E-14-4.19280E-13
 -1        88 1.98670E+01 6.26565E-05 4.98579E-04-1.92584E-04-8.00243E-15-2.47739E-13
 -1        89 1.99060E+01-1.30048E-04 1.59537E-04 1.47784E-04 3.07589E-14-4.43442E-13
 -1        90 1.99439E+01-3.49518E-04-2.13228E-04 4.44319E-04-4.29454E-15-6.37907E-13
 -1        91 1.99854E+01-5.98921E-04-6.34341E-04 6.96183E-04-1.25363E-14-5.38246E-13
 -1        92 2.00359E+01-8.79916E-04-1.11898E-03 8.93777E-04-1.81597E-14-2.25397E-13
 -1        93 2.01013E+01-1.19009E-03-1.67985E-03 1.01567E-03 7.87551E-15-9.55230E-14
 -1        94 2.01884E+01-1.51935E-03-2.32238E-03 1.02480E-03 5.60810E-15-5.26921E-13
 -1        95 2.03051E+01-1.84478E-03-3.03700E-03 8.64126E-04-6.79269E-14-5.95489E-13
 -1        96 2.04595E+01-2.12357E-03-3.78694E-03 4.52245E-04 6.03696E-14-4.44217E-13
 -1        97 2.06600E+01-2.28404E-03-4.48914E-03-3.19262E-04-2.91786E-14-6.60200E-13
 -1        98 2.09137E+01-2.21538E-03-4.98622E-03-1.58296E-03 1.15026E-14-5.57551E-13
 -1        99 2.12248E+01-1.75943E-03-5.00869E-03-3.47948E-03-7.45708E-14-8.21121E-13
 -1       100 2.15914E+01-7.12182E-04-4.13271E-03-6.11423E-03-2.22530E-14-3.83468E-13
 -1       101 2.20005E+01 1.14983E-03-1.75486E-03-9.46532E-03 2.33308E-14-3.49153E-13
 -1       102 2.24225E+01 3.99307E-03 2.86278E-03-1.32171E-02 1.58354E-14-6.01989E-13
 -1       103 2.28036E+01 7.77110E-03 1.03755E-02-1.65102E-02-5.76015E-14-1.33092E-13
 -1       104 2.30608E+01 1.19834E-02 2.08339E-02-1.76668E-02 6.77579E-14 1.95176E-13
 -1       105 2.30832E+01 1.54181E-02 3.27786E-02-1.41116E-02 7.30542E-14-7.06616E-14
 -1       106 2.27487E+01 1.61356E-02 4.22553E-02-2.96477E-03-6.92623E-14-4.95415E-13
 -1       107 2.19643E+01 1.21045E-02 4.27582E-02 1.71421E-02 2.44585E-15-1.04226E-12
 -1       108 2.07307E+01 2.67020E-03 2.78052E-02 4.31564E-02-1.67076E-15-1.44890E-12
 -1       109 1.92048E+01-9.93714E-03-3.73841E-03 6.57640E-02-3.30734E-14-1.32412E-12
 -1       110 1.77109E+01-2.06361E-02-4.25759E-02 7.20139E-02-3.54451E-14-1.19066E-12
 -1       111 1.66476E+01-2.42940E-02-7.07333E-02 5.37169E-02 6.56825E-14-1.17648E-12
 -1       112 1.63080E+01-1.92786E-02-7.24115E-02 1.58549E-02-1.31211E-13-7.55967E-13
 -1       113 1.67188E+01-8.63127E-03-4.66423E-02-2.44915E-02 3.27005E-14-5.36137E-13
 -1       114 1.76261E+01 2.33580E-03-8.21456E-03-4.96007E-02-4.32163E-14-7.58053E-13
 -1       115 1.86420E+01 9.25951E-03 2.35340E-02-5.24840E-02 1.26545E-13-1.15897E-12
 -1       116 1.94392E+01 1.04594E-02 3.67949E-02-3.80706E-02-5.25328E-14-9.94461E-13
 -1       117 1.98717E+01 7.04378E-03 3.10187E-02-1.72145E-02 1.24244E-14-7.99855E-13
 -1       118 1.99859E+01 2.17136E-03 1.38504E-02-7.75022E-04-8.04939E-14-7.03309E-13
 -1       119 1.99523E+01-3.09030E-04-1.01562E-03 3.39715E-03-2.74244E-14-3.17678E-13
 -1       120 1.99561E+01 6.88993E-03 7.78688E-03-9.93753E-03 1.55886E-13-5.89918E-13
 -1       121 1.99977E+01-4.22021E-02 1.03981E-03-2.00798E-02-4.79185E-13 9.00358E-14
 -1       122 1.99841E+01-2.94269E-02-2.28292E-02-1.38326E-02 2.05296E-13-9.69300E-14
 -1       123 1.99760E+01 2.55734E-01-4.00826E-02-4.77451E-04 7.49860E-13 1.12888E-13
 -1       124 1.99712E+01 9.65451E-01-5.23440E-02 2.22271E-02 3.19036E-13-1.07379E-13
 -1       125 1.99747E+01 2.20983E+00-5.17409E-02 5.30437E-02-3.10005E-13-2.39565E-13
 -1       126 1.99878E+01 3.93701E+00-3.18025E-02 8.09646E-02-1.55445E-12-2.01057E-13
 -1       127 2.00110E+01 5.98004E+00 9.76889E-03 9.56228E-02-1.92095E-12 3.35390E-14
 -1       128 2.00374E+01 7.88148E+00 6.13509E-02 8.23025E-02-1.66267E-12-1.75981E-14
 -1       129 2.00568E+01 9.11595E+00 1.00845E-01 3.88015E-02-9.83214E-13 1.63535E-13
 -1       130 2.00603E+01 9.28604E+00 1.08080E-01-2.10048E-02-4.00233E-13 6.65904E-14
 -1       131 2.00456E+01 8.32147E+00 7.90879E-02-7.39312E-02-8.29319E-13-8.26049E-14
 -1       132 2.00215E+01 6.54754E+00 3.16685E-02-9.81885E-02-1.44882E-12 1.64856E-13
 -1       133 1.99959E+01 4.39520E+00-1.54901E-02-9.58669E-02-5.82125E-13 2.96769E-13
 -1       134 1.99721E+01 2.36684E+00-5.22254E-02-7.89407E-02 7.96967E-14-1.04931E-13
 -1       135 1.99691E+01 8.56849E-01-6.08644E-02-6.52280E-02 4.88264E-13 7.84973E-14
 -1       136 1.99669E+01 9.39651E-02-2.93525E-02 2.64133E-02-4.57861E-14 4.91711E-14
 -1       137-1.57614E+00-2.23338E+01-3.41481E+00-4.31774E+00 1.98969E-12 4.21337E-13
 -1       138-1.73149E+00-9.38658E+00-2.38886E+00-3.35259E+00 1.79839E-12 6.08125E-13
 -1       139 4.50566E+00 4.64389E+00-8.48649E-01 4.89537E+00 9.53349E-13 1.01014E-12
 -1       140 1.81717E+01 1.13070E+01 7.01856E-01 1.41206E+01 8.61977E-13 9.66560E-13
 -1       141 3.84965E+01 1.04247E+01 2.14555E+00 1.94294E+01 5.31658E-13 8.10185E-13
 -1       142 5.79145E+01 4.99624E+00 3.20617E+00 1.56463E+01 1.65090E-13 1.07575E-12
 -1       143 6.81431E+01 1.19512E+00 3.68862E+00 3.69727E+00 1.21101E-13 1.21982E-12
 -1       144 6.31945E+01 2.72801E+00 3.39778E+00-1.08097E+01 5.96623E-14 2.29122E-13
 -1       145 4.57399E+01 8.15947E+00 2.43547E+00-1.85281E+01 4.98990E-13-1.00764E-12
 -1       146 2.37524E+01 1.13794E+01 1.03400E+00-1.61333E+01 1.28991E-12-1.75765E-12
 -1       147 6.72920E+00 7.02025E+00-5.42498E-01-7.04916E+00 1.74233E-12-1.46239E-12
 -1       148-6.35860E-01-4.23751E+00-1.86632E+00 1.26095E+00 1.76015E-12-8.03663E-13
 -1       149-1.74625E+00-1.80010E+01-2.89513E+00 4.17377E+00 1.68177E-12-4.32543E-13
 -1       150-8.07207E-01-2.57846E+01-3.38230E+00 1.23418E+00 7.28237E-13-2.16435E-13
 -1       151-1.27060E+00-2.40975E+01-3.33953E+00-3.58144E+00-4.44339E-13-9.57787E-14
 -1       152-2.13388E+00-1.37044E+01-2.72010E+00-4.57340E+00-1.67127E-12-8.55011E-13
 -1       153 2.20511E-01-1.19708E+00-1.69547E+00 1.24019E-01-2.27218E-12-1.62731E-12
 -1       154 9.98373E+00 8.15726E+00-3.26880E-01 9.12272E+00-1.74150E-12-1.61338E-12
 -1       155 2.88003E+01 1.04642E+01 1.29796E+00 1.69616E+01-1.08918E-12-1.73805E-12
 -1       156 4.99633E+01 6.70858E+00 2.70103E+00 1.70813E+01-7.13041E-13-1.43430E-12
 -1       157 6.67993E+01 1.96808E+00 3.72353E+00 8.19536E+00-1.21459E-13-2.06474E-13
 -1       158 6.92405E+01 1.40587E+00 3.91814E+00-6.36695E+00-1.50491E-13 9.88432E-13
 -1       159 5.65004E+01 6.15013E+00 3.26910E+00-1.73321E+01-5.67199E-13 1.76065E-12
 -1       160 1.61107E+01 1.11246E+01 4.67549E-01-1.32492E+01-1.03750E-12 1.19149E-12
 -1       161 2.96653E+00 3.39709E+00-1.13095E+00-3.47628E+00-6.73128E-13 4.24216E-13
 -1       162-1.77900E+00-1.01713E+01-2.52844E+00 3.53431E+00-1.43635E-12 3.94990E-13
 -1       163-1.60224E+00-2.32367E+01-3.49574E+00 4.39554E+00-7.11764E-13 4.23234E-13
 -1       164 2.10141E+01 3.69373E+00-5.73991E-02-3.61000E+00-5.23252E-13 3.13249E-13
 -1       165 1.99902E+01 4.20844E+00-4.59571E-02-2.80833E+00-5.11068E-13-2.60680E-13
 -1       166 1.95103E+01 4.47655E+00-3.13481E-02-2.19586E+00-4.23975E-13-5.91922E-13
 -1       167 1.92675E+01 4.61521E+00-2.34916E-02-1.67464E+00-3.32188E-13-7.78568E-13
 -1       168 1.91368E+01 4.69689E+00-1.95323E-02-1.21906E+00-2.43086E-13-8.62477E-13
 -1       169 1.90629E+01 4.74786E+00-1.74379E-02-7.92062E-01-1.67511E-13-9.03081E-13
 -1       170 1.90257E+01 4.77570E+00-1.64245E-02-3.86884E-01-7.43570E-14-9.05317E-13
 -1       171 1.90149E+01 4.78422E+00-1.61328E-02 8.26491E-03 3.24862E-15-9.11054E-13
 -1       172 1.90275E+01 4.77442E+00-1.64659E-02 4.03750E-01 8.08386E-14-8.92160E-13
 -1       173 1.90667E+01 4.74489E+00-1.75195E-02 8.09993E-01 1.64045E-13-8.78334E-13
 -1       174 1.91413E+01 4.69248E+00-1.96876E-02 1.23147E+00 2.41849E-13-8.18686E-13
 -1       175 1.92770E+01 4.60535E+00-2.40069E-02 1.69815E+00 3.55599E-13-7.19336E-13
 -1       176 1.95240E+01 4.45957E+00-3.28510E-02 2.22650E+00 4.52068E-13-5.51613E-13
 -1       177 2.00137E+01 4.18385E+00-4.72122E-02 2.84673E+00 5.27833E-13-2.02387E-13
 -1       178 2.11356E+01 3.46368E+00-5.97786E-02 3.53667E+00 5.17052E-13 4.49980E-13
 -1       179 2.24201E+01 1.14335E+00-3.36470E-01 3.01479E+00 4.04195E-13 1.33508E-12
 -1       180 2.19726E+01 8.58202E-01 6.88906E-04-1.95913E+00-4.40873E-13 9.84709E-13
 -1       181 2.04480E+01 1.90336E-01-9.92601E-03-7.64146E-01-3.85365E-13 7.35693E-13
 -1       182 1.96725E+01 1.01672E-01 1.36124E-02-2.85612E-01-2.85700E-13 5.44766E-13
 -1       183 1.93328E+01 4.71438E-02 1.00118E-02-6.79211E-02-2.18750E-13 3.74383E-13
 -1       184 1.92031E+01 2.25529E-02 5.16702E-03 3.92853E-02-1.55784E-13 2.56177E-13
 -1       185 1.91896E+01 9.50647E-03 2.42491E-03 9.18688E-02-1.05624E-13 1.61865E-13
 -1       186 1.92381E+01 2.09724E-03 1.12495E-03 1.14197E-01-1.23277E-13 5.73503E-14
 -1       187 1.93170E+01-2.14566E-03 4.92057E-04 1.19044E-01-9.18149E-14-2.51687E-15
 -1       188 1.94077E+01-4.45080E-03 1.57404E-04 1.13840E-01-7.97693E-14-1.57685E-14
 -1       189 1.94989E+01-5.51955E-03-2.83151E-05 1.03206E-01-6.27535E-14-1.04539E-14
 -1       190 1.95844E+01-5.78715E-03-1.27729E-04 9.01135E-02-6.96152E-14-1.78656E-13
 -1       191 1.96609E+01-5.53699E-03-1.71920E-04 7.64992E-02-2.61299E-14-1.73641E-13
 -1       192 1.97275E+01-4.95505E-03-1.79047E-04 6.36262E-02-6.58047E-15-2.65255E-13
 -1       193 1.97843E+01-4.15903E-03-1.60494E-04 5.23200E-02-7.24015E-14-2.78969E-13
 -1       194 1.98327E+01-3.21575E-03-1.23298E-04 4.31368E-02-1.02916E-13-2.86274E-13
 -1       195 1.98745E+01-2.15253E-03-7.13830E-05 3.64894E-02-2.78157E-14-3.09427E-13
 -1       196 1.99122E+01-9.64864E-04-6.32888E-06 3.27450E-02-3.65925E-14-3.02320E-13
 -1       197 1.99488E+01 3.78408E-04 7.21071E-05 3.23049E-02-7.11524E-14-3.71717E-13
 -1       198 1.99878E+01 1.93174E-03 1.65597E-04 3.56710E-02-2.99295E-14-3.89625E-13
 -1       199 2.00333E+01 3.77080E-03 2.76896E-04 4.35037E-02 3.65642E-14-4.95551E-13
 -1       200 2.00902E+01 5.99115E-03 4.09442E-04 5.66737E-02-1.75257E-14-4.81843E-13
 -1       201 2.01643E+01 8.70644E-03 5.66734E-04 7.63072E-02-3.89414E-14-4.58943E-13
 -1       202 2.02625E+01 1.20442E-02 7.51251E-04 1.03820E-01 3.08053E-14-3.21306E-13
 -1       203 2.03931E+01 1.61342E-02 9.62434E-04 1.40930E-01 1.24461E-13-2.29717E-13
 -1       204 2.05661E+01 2.10819E-02 1.19302E-03 1.89607E-01-6.47898E-15-1.92075E-13
 -1       205 2.07926E+01 2.69078E-02 1.42270E-03 2.51920E-01-1.04110E-13-2.44421E-13
 -1       206 2.10851E+01 3.34235E-02 1.60798E-03 3.29636E-01-9.97444E-14-4.14812E-13
 -1       207 2.14565E+01 3.99906E-02 1.66825E-03 4.23372E-01-8.62039E-14-4.88595E-13
 -1       208 2.19178E+01 4.50815E-02 1.47216E-03 5.30926E-01 1.13188E-13-4.05134E-13
 -1       209 2.24747E+01 4.55558E-02 8.37917E-04 6.44260E-01 8.50708E-15-4.89063E-13
 -1       210 2.31207E+01 3.56543E-02-4.22661E-04 7.44519E-01-7.57413E-15-3.69794E-13
 -1       211 2.38277E+01 6.12384E-03-2.36979E-03 7.95063E-01-9.33133E-14-4.50986E-13
 -1       212 2.45319E+01-5.49881E-02-4.68309E-03 7.34682E-01-1.92673E-13-6.29588E-13
 -1       213 2.51203E+01-1.56250E-01-6.43085E-03 4.78964E-01-5.20126E-14-4.12177E-13
 -1       214 2.54258E+01-2.85790E-01-6.15402E-03-5.22386E-02-2.42011E-14-4.97413E-13
 -1       215 2.52505E+01-3.84433E-01-3.46324E-03-8.57108E-01 7.09849E-15-5.95856E-13
 -1       216 2.44502E+01-3.36983E-01-3.94673E-04-1.73092E+00 5.89407E-14-5.51997E-13
 -1       217 2.30927E+01-4.68562E-02-2.10391E-03-2.21266E+00 1.21813E-13-2.60516E-13
 -1       218 2.16084E+01 3.97208E-01-1.02173E-02-1.81386E+00-1.93611E-13-4.14811E-13
 -1       219 2.06831E+01 6.68242E-01-1.67607E-02-5.37668E-01-2.71408E-13-6.80207E-13
 -1       220 2.07498E+01 5.16639E-01-1.32760E-02 8.87331E-01-8.18963E-15-8.17473E-13
 -1       221 2.15700E+01 8.89398E-02-4.07354E-03 1.59973E+00 1.91214E-13-7.73319E-13
 -1       222 2.24809E+01-2.73378E-01 4.73157E-04 1.35780E+00-5.39430E-14-2.74845E-13
 -1       223 2.29449E+01-3.88062E-01-4.42059E-04 5.57060E-01 3.50331E-13-1.75658E-14
 -1       224 2.28073E+01-3.06372E-01-2.87084E-03-2.70709E-01 3.98078E-13 2.03188E-14
 -1       225 2.22036E+01-1.41005E-01-3.22659E-03-7.98418E-01 1.37390E-14-3.53727E-13
 -1       226 2.13896E+01 4.32675E-02-1.75279E-03-9.17511E-01 6.66663E-14-2.26414E-13
 -1       227 2.06055E+01 2.15198E-01-1.04643E-03-6.42485E-01-9.81204E-14-1.92724E-13
 -1       228 2.09642E+01 2.77019E-01-5.13331E-02 1.16482E+00 4.01883E-13 1.12856E-12
 -1       229 1.98695E+01 1.26841E-01 8.30968E-03 4.43128E-01 3.14936E-13 8.12706E-13
 -1       230 1.93632E+01 5.80597E-02 1.27342E-02 1.50094E-01 2.42596E-13 5.78993E-13
 -1       231 1.91535E+01 2.77115E-02 7.62807E-03 1.08419E-02 1.74916E-13 4.21601E-13
 -1       232 1.91037E+01 1.30624E-02 3.82253E-03-5.82612E-02 8.38714E-14 2.70645E-13
 -1       233 1.91394E+01 5.11220E-03 1.90536E-03-9.06544E-02 5.67779E-14 1.81232E-13
 -1       234 1.92183E+01 5.67486E-04 1.00267E-03-1.02372E-01 7.40265E-14 1.66199E-13
 -1       235 1.93157E+01-2.01731E-03 5.42967E-04-1.02139E-01 5.71612E-14 1.01896E-13
 -1       236 1.94170E+01-3.38620E-03 2.81002E-04-9.51704E-02 1.00638E-13 3.76948E-14
 -1       237 1.95137E+01-3.97295E-03 1.22455E-04-8.47598E-02 6.14968E-14 4.54521E-14
 -1       238 1.96014E+01-4.05141E-03 2.74350E-05-7.30383E-02 8.59876E-14-2.09389E-15
 -1       239 1.96780E+01-3.80102E-03-2.49643E-05-6.13948E-02 8.99715E-14-9.12580E-14
 -1       240 1.97436E+01-3.33895E-03-4.76926E-05-5.07331E-02 1.49870E-13-2.17773E-13
 -1       241 1.97989E+01-2.73818E-03-4.93418E-05-4.16453E-02 6.46878E-14-2.57903E-13
 -1       242 1.98459E+01-2.03864E-03-3.56944E-05-3.45365E-02-6.08337E-14-1.79923E-13
 -1       243 1.98868E+01-1.25524E-03-1.06245E-05-2.97180E-02-1.39162E-14-2.62798E-13
 -1       244 1.99244E+01-3.84005E-04 2.32526E-05-2.74763E-02 8.99987E-14-2.56340E-13
 -1       245 1.99619E+01 5.92640E-04 6.40395E-05-2.81238E-02 6.15604E-14-2.13058E-13
 -1       246 2.00032E+01 1.70049E-03 1.10037E-04-3.20318E-02-5.46012E-14-2.28017E-13
 -1       247 2.00523E+01 2.96723E-03 1.59188E-04-3.96444E-02-1.37890E-13-2.19438E-13
 -1       248 2.01140E+01 4.41382E-03 2.08424E-04-5.14675E-02 2.03916E-14-2.20913E-13
 -1       249 2.01936E+01 6.04209E-03 2.52887E-04-6.80253E-02 1.73351E-13-2.28408E-13
 -1       250 2.02970E+01 7.81603E-03 2.85038E-04-8.97673E-02 6.48586E-14-3.75784E-13
 -1       251 2.04300E+01 9.63385E-03 2.93810E-04-1.16904E-01-5.96788E-15-4.64236E-13
 -1       252 2.05984E+01 1.12872E-02 2.64183E-04-1.49138E-01 2.25037E-15-3.84316E-13
 -1       253 2.08067E+01 1.24047E-02 1.78078E-04-1.85257E-01 7.22946E-14-3.23806E-13
 -1       254 2.10567E+01 1.23805E-02 1.81553E-05-2.22535E-01 4.66032E-14-3.81002E-13
 -1       255 2.13455E+01 1.03008E-02-2.23143E-04-2.55949E-01-1.75175E-13-4.11636E-13
 -1       256 2.16625E+01 4.90819E-03-5.27223E-04-2.77258E-01 3.87478E-14-4.86722E-13
 -1       257 2.19853E+01-5.30252E-03-8.27065E-04-2.74227E-01-5.38436E-14-4.14816E-13
 -1       258 2.22769E+01-2.16833E-02-9.89326E-04-2.30634E-01-2.49099E-13-1.74767E-13
 -1       259 2.24825E+01-4.44839E-02-8.30298E-04-1.28299E-01-6.41956E-15-1.80347E-13
 -1       260 2.25323E+01-7.11653E-02-1.91426E-04 4.71031E-02 1.11134E-13-9.29521E-14
 -1       261 2.23524E+01-9.43310E-02 8.52438E-04 2.94918E-01 7.37435E-14-2.53391E-14
 -1       262 2.18877E+01-1.00862E-01 1.80183E-03 5.84342E-01 2.65316E-13-1.67926E-13
 -1       263 2.11378E+01-7.55980E-02 1.80340E-03 8.43319E-01 2.24380E-13-3.22260E-13
 -1       264 2.01929E+01-1.19887E-02 2.25087E-04 9.68300E-01-1.45363E-13-3.40907E-13
 -1       265 1.92417E+01 7.52710E-02-2.47635E-03 8.68258E-01 1.59855E-14-3.44226E-13
 -1       266 1.85239E+01 1.48288E-01-4.54249E-03 5.30863E-01-1.10099E-14-2.92418E-13
 -1       267 1.82265E+01 1.67257E-01-4.05809E-03 6.05323E-02-2.11451E-13-1.17795E-13
 -1       268 1.83839E+01 1.21273E-01-1.05906E-03-3.63578E-01 1.69564E-13-2.60699E-13
 -1       269 1.88587E+01 3.82555E-02 2.40930E-03-5.90909E-01-8.73216E-15-4.09726E-13
 -1       270 1.94231E+01-3.78211E-02 4.17969E-03-5.81501E-01 2.24283E-13-3.83927E-13
 -1       271 1.98765E+01-7.69605E-02 3.64067E-03-4.04868E-01-8.78004E-14-3.86358E-13
 -1       272 2.01203E+01-7.34041E-02 1.67081E-03-1.80071E-01-1.22535E-13-1.57390E-13
 -1       273 2.01672E+01-3.99142E-02-6.35927E-04-1.32201E-02-5.50779E-14 4.43288E-14
 -1       274 2.01017E+01 3.04443E-03-1.37772E-03 4.01939E-02-1.42232E-13-5.45418E-14
 -1       275 2.00256E+01 2.22895E-02 1.89332E-03 9.65094E-04 2.05510E-13-1.07830E-13
 -1       276 2.00523E+01 8.40131E-02 2.81640E-03 5.41388E-02 1.05977E-13 5.91440E-13
 -1       277 2.01061E+01 2.72747E-01 4.00422E-03 2.49416E-01 3.33060E-13 7.91986E-14
 -1       278 2.01509E+01 6.69321E-01 3.45105E-03 5.65062E-01-1.61400E-13-2.97952E-13
 -1       279 2.01701E+01 1.35652E+00 2.63834E-03 9.57695E-01-5.87393E-14-2.72153E-13
 -1       280 2.01367E+01 2.33515E+00 3.35977E-04 1.32468E+00-5.14156E-13-9.25998E-13
 -1       281 2.00335E+01 3.56291E+00-2.65057E-03 1.53000E+00-6.28695E-13-4.98607E-13
 -1       282 1.98758E+01 4.82370E+00-5.38692E-03 1.41602E+00-6.61195E-13 2.19986E-13
 -1       283 1.97196E+01 5.82264E+00-6.90885E-03 9.17009E-01-3.25080E-13 4.08275E-13
 -1       284 1.96389E+01 6.27143E+00-7.39327E-03 1.26764E-01-2.08475E-13-9.53404E-15
 -1       285 1.96782E+01 6.02227E+00-7.07402E-03-7.15007E-01-4.76727E-13-1.39730E-13
 -1       286 1.98107E+01 5.16862E+00-5.51323E-03-1.33377E+00-1.08143E-14-1.68311E-13
 -1       287 1.99723E+01 3.92764E+00-3.20209E-03-1.60040E+00 9.28025E-14 2.48184E-13
 -1       288 2.01007E+01 2.61651E+00 1.41970E-04-1.51112E+00-1.30762E-13 3.21668E-13
 -1       289 2.01923E+01 1.47370E+00 1.78225E-03-1.14997E+00-2.12547E-15 2.19147E-13
 -1       290 2.03762E+01 7.42612E-01 3.91894E-03-9.95813E-01-9.28894E-14-3.99122E-13
 -1       291-7.90136E-01-1.14672E+01-9.41496E-01 1.58016E+00 5.50587E-13 2.20546E-13
 -1       292 2.97705E+00-9.91124E+00-8.68388E-01 3.76796E+00 7.11431E-13 1.90056E-13
 -1       293 1.23636E+01-6.19962E+00-3.30600E-01 6.87174E+00 6.36685E-13 2.47323E-13
 -1       294 2.05924E+01-8.76421E-01-2.83004E-02 7.72068E+00 5.60774E-13 1.69309E-13
 -1       295 3.16148E+01 1.75492E+00 3.14266E-01 6.77394E+00 2.64455E-13 2.68563E-13
 -1       296 4.08999E+01 5.51694E+00 8.15399E-01 6.70967E+00 2.71175E-13 6.63525E-13
 -1       297 4.63908E+01 6.85716E+00 9.54851E-01 3.22499E+00 9.92817E-14 4.12337E-13
 -1       298 4.59058E+01 7.43340E+00 8.26669E-01-6.07368E-01 3.82500E-13 7.22200E-14
 -1       299 4.35196E+01 5.87158E+00 8.64702E-01-4.98915E+00 4.25535E-13 2.89768E-14
 -1       300 3.42909E+01 3.31450E+00 4.36871E-01-6.48983E+00 6.56392E-13 5.18752E-14
 -1       301 2.32505E+01 9.83768E-02 5.64485E-02-7.49587E+00 5.52225E-13-4.60965E-13
 -1       302 1.29255E+01-4.03892E+00-3.40756E-01-6.41779E+00 3.61794E-13-5.05609E-13
 -1       303 4.94990E+00-7.90444E+00-6.09874E-01-4.65554E+00 3.29486E-13-1.91274E-13
 -1       304 2.28015E-02-9.86613E+00-6.81743E-01-2.50076E+00-1.09912E-14-4.92703E-13
 -1       305-1.43022E+00-1.22279E+01-1.00606E+00 1.11006E-01 4.03150E-15-6.53755E-13
 -1       306 1.28470E+00-1.00388E+01-7.88667E-01 2.63957E+00-4.14058E-13-7.77989E-13
 -1       307 6.77827E+00-7.34485E+00-6.81509E-01 4.33091E+00-5.32935E-13-6.59389E-13
 -1       308 1.52856E+01-3.37654E+00-3.32344E-01 6.16257E+00-7.02938E-13-4.79145E-13
 -1       309 2.61029E+01 6.22377E-01 1.38785E-01 7.12900E+00-6.17451E-13-6.63136E-13
 -1       310 3.68338E+01 3.36661E+00 5.41067E-01 5.72824E+00-5.22180E-13-2.39031E-13
 -1       311 4.27534E+01 5.95982E+00 6.31655E-01 1.79283E+00-5.56333E-13 9.09273E-14
 -1       312 4.92475E+01 6.93037E+00 1.16417E+00-3.22203E-01-4.68264E-13 2.43500E-13
 -1       313 4.73127E+01 6.70670E+00 1.11695E+00-4.11660E+00-3.87149E-13 2.57128E-13
 -1       314 3.96787E+01 4.76700E+00 6.57717E-01-5.87728E+00-2.94932E-13 4.53304E-13
 -1       315 3.05905E+01 1.95671E+00 3.47947E-01-7.73064E+00-1.49936E-13 6.90448E-13
 -1       316 1.94969E+01-1.56370E+00-1.09492E-01-7.58355E+00-2.39309E-13 4.27852E-13
 -1       317 9.85102E+00-6.12750E+00-5.65124E-01-5.82909E+00-5.49227E-13 3.23214E-14
 -1       318 3.08139E+00-9.67890E+00-7.84669E-01-4.06549E+00 1.14242E-13 3.15414E-13
 -1       319-1.03644E+00-1.26788E+01-1.11108E+00-1.07803E+00 4.86583E-13 1.03828E-12
 -1       320 2.01367E+01 3.00082E+00-2.19703E-02-2.09705E+00-5.38452E-13-2.77550E-13
 -1       321 2.07570E+01 2.20821E+00-1.76854E-02-2.36417E+00-5.67458E-13 5.16896E-14
 -1       322 1.95833E+01 3.69158E+00-1.55892E-02-1.31710E+00-3.53658E-13-6.27762E-13
 -1       323 1.94599E+01 3.84860E+00-1.37061E-02-9.23618E-01-2.63509E-13-6.74347E-13
 -1       324 1.93909E+01 3.93940E+00-1.27127E-02-5.43882E-01-1.48748E-13-6.92018E-13
 -1       325 1.93604E+01 3.98071E+00-1.22932E-02-1.73250E-01-4.61130E-14-7.00510E-13
 -1       326 1.93617E+01 3.97910E+00-1.23117E-02 1.94392E-01 6.32831E-14-6.92141E-13
 -1       327 1.93952E+01 3.93421E+00-1.27578E-02 5.65357E-01 1.46260E-13-6.87056E-13
 -1       328 1.94661E+01 3.84094E+00-1.37651E-02 9.39293E-01 2.54375E-13-6.45005E-13
 -1       329 1.95931E+01 3.67870E+00-1.56527E-02 1.33331E+00 3.71593E-13-5.53824E-13
 -1       330 1.98088E+01 3.41000E+00-1.88302E-02 1.73856E+00 4.81065E-13-4.35266E-13
 -1       331 2.01795E+01 2.95521E+00-2.29395E-02 2.12712E+00 5.70302E-13-2.30889E-13
 -1       332 2.07495E+01 2.12942E+00-3.04691E-02 2.32209E+00 5.90288E-13 1.63893E-13
 -1       333 2.10961E+01 1.18771E+00-2.49225E-02 1.92186E+00 5.33264E-13 5.43223E-13
 -1       334 2.03924E+01 4.89269E-01 8.33198E-03 9.27287E-01 4.53250E-13 3.82815E-13
 -1       335 2.04591E+01 6.75032E-01 1.25720E-02-1.02488E+00-4.25543E-13 9.63583E-14
 -1       336 2.00369E+01 3.37172E-01 7.18729E-03-4.57681E-01-3.36522E-13 3.89854E-14
 -1       337 1.97829E+01 1.76449E-01 4.13999E-03-1.48888E-01-2.37942E-13-5.11646E-15
 -1       338 1.96475E+01 9.04164E-02 1.86599E-03 2.22385E-02-1.92333E-13-5.34588E-14
 -1       339 1.95920E+01 4.12593E-02 7.79282E-04 1.13319E-01-1.60833E-13-9.67544E-14
 -1       340 1.95865E+01 1.22627E-02 2.68567E-04 1.56372E-01-1.51797E-13-1.39230E-13
 -1       341 1.96103E+01-4.72481E-03 1.29101E-05 1.70333E-01-9.00186E-14-1.48212E-13
 -1       342 1.96495E+01-1.41568E-02-1.20848E-04 1.66981E-01-1.04921E-13-1.78622E-13
 -1       343 1.96952E+01-1.86861E-02-1.87045E-04 1.53936E-01-1.24355E-13-1.86963E-13
 -1       344 1.97417E+01-1.99968E-02-2.11220E-04 1.36230E-01-4.89467E-14-2.35788E-13
 -1       345 1.97860E+01-1.91915E-02-2.07962E-04 1.17217E-01-8.91865E-14-2.80246E-13
 -1       346 1.98266E+01-1.69894E-02-1.86429E-04 9.91430E-02-4.58816E-14-2.99569E-13
 -1       347 1.98631E+01-1.38378E-02-1.52303E-04 8.35318E-02-8.90533E-14-2.88731E-13
 -1       348 1.98962E+01-9.98099E-03-1.08751E-04 7.14713E-02-3.21025E-14-3.26831E-13
 -1       349 1.99269E+01-5.50600E-03-5.69984E-05 6.38222E-02 1.19900E-14-2.72706E-13
 -1       350 1.99570E+01-3.73395E-04 3.26377E-06 6.13839E-02-6.07644E-14-2.10268E-13
 -1       351 1.99887E+01 5.56115E-03 7.36042E-05 6.50254E-02-4.20519E-14-2.04251E-13
 -1       352 2.00244E+01 1.25317E-02 1.56660E-04 7.57937E-02-1.21592E-13-3.09394E-13
 -1       353 2.00672E+01 2.08503E-02 2.55959E-04 9.50024E-02-5.84594E-14-4.63078E-13
 -1       354 2.01208E+01 3.08952E-02 3.75691E-04 1.24303E-01 6.88832E-14-4.35571E-13
 -1       355 2.01894E+01 4.30919E-02 5.20304E-04 1.65732E-01 5.77880E-14-2.80691E-13
 -1       356 2.02779E+01 5.78734E-02 6.93666E-04 2.21725E-01 1.00112E-13-2.92290E-13
 -1       357 2.03917E+01 7.55975E-02 8.97356E-04 2.95053E-01 1.08659E-13-4.06477E-13
 -1       358 2.05371E+01 9.63741E-02 1.12732E-03 3.88631E-01-7.31247E-14-4.15142E-13
 -1       359 2.07205E+01 1.19723E-01 1.36767E-03 5.05062E-01-1.58985E-13-3.91150E-13
 -1       360 2.09486E+01 1.43931E-01 1.58006E-03 6.45719E-01-7.71048E-14-1.99516E-13
 -1       361 2.12277E+01 1.64898E-01 1.68741E-03 8.09023E-01-5.81290E-15-5.80123E-14
 -1       362 2.15634E+01 1.74244E-01 1.55345E-03 9.87395E-01 2.99984E-14-1.52508E-13
 -1       363 2.19597E+01 1.56560E-01 9.66273E-04 1.16227E+00-2.77033E-14-3.35917E-13
 -1       364 2.24193E+01 8.64226E-02-3.52033E-04 1.29670E+00-3.39148E-14-3.45253E-13
 -1       365 2.29434E+01-7.20354E-02-2.64762E-03 1.32633E+00-7.36821E-14-7.93946E-14
 -1       366 2.35292E+01-3.55404E-01-5.84677E-03 1.15284E+00-1.63407E-13 9.49767E-14
 -1       367 2.41586E+01-7.67004E-01-9.20587E-03 6.52466E-01-8.15719E-14 3.19060E-14
 -1       368 2.47644E+01-1.20307E+00-1.09087E-02-2.73320E-01-1.53406E-13-6.16006E-14
 -1       369 2.51769E+01-1.37012E+00-1.15014E-02-1.56303E+00 3.52838E-14-1.75944E-14
 -1       370 2.51351E+01-8.41325E-01-1.35423E-02-2.79232E+00 1.37702E-13-1.71542E-14
 -1       371 2.45020E+01 5.24240E-01-2.39538E-02-3.13414E+00-8.60943E-14-9.87227E-14
 -1       372 2.36662E+01 1.97858E+00-3.59597E-02-1.92854E+00-2.12998E-13 2.80297E-14
 -1       373 2.33489E+01 2.24333E+00-4.00792E-02 2.78991E-01-2.55920E-13 2.11234E-13
 -1       374 2.37354E+01 1.03719E+00-3.05197E-02 1.92568E+00-6.10033E-14 3.76726E-14
 -1       375 2.41546E+01-4.79334E-01-1.65307E-02 2.06154E+00 3.91730E-13-2.55689E-13
 -1       376 2.40604E+01-1.28124E+00-1.01092E-02 1.02897E+00 3.52052E-13 5.80036E-14
 -1       377 2.34516E+01-1.25289E+00-1.04524E-02-2.65947E-01 2.32287E-13 2.94801E-14
 -1       378 2.26010E+01-7.68928E-01-7.49905E-03-1.22076E+00-8.11237E-14-4.98434E-14
 -1       379 2.17248E+01-1.53592E-01-3.08808E-03-1.62067E+00-1.35819E-13-1.87689E-14
 -1       380 2.10237E+01 3.47669E-01 4.12486E-03-1.48676E+00 2.20345E-14-1.92834E-13
 -1       381 1.98908E+01 2.28459E-01 1.07950E-02 3.98664E-01 3.35815E-13 2.62661E-13
 -1       382 1.96022E+01 1.15298E-01 6.17461E-03 1.20035E-01 2.67732E-13 1.78561E-13
 -1       383 1.94675E+01 5.75947E-02 2.80678E-03-2.87131E-02 1.79107E-13 5.85067E-14
 -1       384 1.94276E+01 2.56817E-02 1.17604E-03-1.05476E-01 7.87740E-14-1.62108E-14
 -1       385 1.94432E+01 7.20922E-03 4.46966E-04-1.40544E-01 5.15642E-14-4.50578E-14
 -1       386 1.94890E+01-3.50195E-03 9.93372E-05-1.50867E-01 8.22947E-14-2.33808E-14
 -1       387 1.95490E+01-9.40913E-03-8.18528E-05-1.46680E-01 1.15845E-13-4.04521E-14
 -1       388 1.96133E+01-1.22274E-02-1.76240E-04-1.34469E-01 3.96562E-14-9.39881E-16
 -1       389 1.96758E+01-1.30298E-02-2.17479E-04-1.18466E-01 1.07644E-13 1.77222E-14
 -1       390 1.97335E+01-1.25149E-02-2.23816E-04-1.01464E-01 1.40325E-13-4.95060E-14
 -1       391 1.97849E+01-1.11400E-02-2.06744E-04-8.53120E-02 2.29113E-13-8.29333E-14
 -1       392 1.98300E+01-9.19337E-03-1.73674E-04-7.12456E-02 5.74338E-14-8.80375E-14
 -1       393 1.98696E+01-6.83976E-03-1.29135E-04-6.01204E-02-1.96456E-14-1.42844E-13
 -1       394 1.99053E+01-4.15133E-03-7.55437E-05-5.25825E-02 5.23715E-14-2.32400E-13
 -1       395 1.99389E+01-1.13151E-03-1.38006E-05-4.91942E-02 3.73005E-14-2.16308E-13
 -1       396 1.99730E+01 2.26466E-03 5.61849E-05-5.05251E-02 7.49924E-14-1.45945E-13
 -1       397 2.00104E+01 6.11045E-03 1.34963E-04-5.72103E-02-1.04046E-14-1.83184E-13
 -1       398 2.00543E+01 1.04840E-02 2.22936E-04-6.99748E-02-3.11631E-14-1.87616E-13
 -1       399 2.01085E+01 1.54377E-02 3.19571E-04-8.96165E-02-5.63328E-14-3.01222E-13
 -1       400 2.01770E+01 2.09549E-02 4.22312E-04-1.16934E-01 1.58139E-13-2.25746E-13
 -1       401 2.02642E+01 2.68865E-02 5.25088E-04-1.52579E-01 1.55102E-13-1.76269E-13
 -1       402 2.03747E+01 3.28591E-02 6.16316E-04-1.96793E-01-4.78236E-15-2.48522E-13
 -1       403 2.05128E+01 3.81448E-02 6.76438E-04-2.48997E-01-4.68809E-16-2.64938E-13
 -1       404 2.06819E+01 4.14860E-02 6.75376E-04-3.07173E-01-3.07853E-14-2.92415E-13
 -1       405 2.08838E+01 4.08842E-02 5.70968E-04-3.66988E-01 9.26468E-14-2.54089E-14
 -1       406 2.11171E+01 3.33981E-02 3.10694E-04-4.20659E-01-7.76497E-14-2.33554E-13
 -1       407 2.13758E+01 1.50804E-02-1.59370E-04-4.55674E-01 4.39755E-14-2.11654E-13
 -1       408 2.16469E+01-1.86620E-02-8.73630E-04-4.53734E-01-8.35073E-14-7.52589E-14
 -1       409 2.19081E+01-7.17787E-02-1.81134E-03-3.90817E-01-2.63593E-13-2.51837E-13
 -1       410 2.21260E+01-1.44668E-01-2.84873E-03-2.39991E-01-1.17895E-13-1.77379E-13
 -1       411 2.22555E+01-2.29212E-01-3.72673E-03 2.05979E-02-3.73269E-14-6.74309E-15
 -1       412 2.22427E+01-3.02631E-01-4.01530E-03 3.92384E-01 5.35388E-14 1.54374E-13
 -1       413 2.20357E+01-3.24914E-01-3.46906E-03 8.34445E-01 2.92426E-13 2.38021E-13
 -1       414 2.16070E+01-2.48866E-01-1.96040E-03 1.24506E+00 2.10421E-13 4.07868E-13
 -1       415 2.09878E+01-5.18521E-02 6.33773E-05 1.46981E+00-3.77768E-14 3.95623E-13
 -1       416 2.02962E+01 2.24841E-01 2.17026E-03 1.36179E+00-5.61853E-14 3.60081E-14
 -1       417 1.97218E+01 4.64971E-01 3.75705E-03 8.82366E-01-1.45466E-13 7.27065E-14
 -1       418 1.94428E+01 5.38488E-01 4.85551E-03 1.75195E-01-8.14535E-14 2.82840E-13
 -1       419 1.95132E+01 4.02320E-01 5.13830E-03-4.85291E-01 1.15263E-13 1.49627E-13
 -1       420 1.98259E+01 1.39002E-01 4.01881E-03-8.54286E-01 1.87358E-13 1.26817E-13
 -1       421 2.01888E+01-1.09767E-01 1.53616E-03-8.58059E-01 1.71909E-13 6.22690E-14
 -1       422 2.04413E+01-2.43654E-01-1.10594E-03-5.97035E-01-5.45705E-14 1.32919E-14
 -1       423 2.05154E+01-2.40888E-01-2.52941E-03-2.52110E-01-2.08774E-13 2.40907E-13
 -1       424 2.04301E+01-1.38783E-01-2.23894E-03 1.47398E-02-5.26142E-14 3.61158E-13
 -1       425 2.02593E+01-9.75354E-03-9.49154E-04 1.17363E-01-5.53953E-14 3.16836E-13
 -1       426 2.01555E+01 5.48429E-02 1.11146E-03 1.11386E-01 4.24172E-15 4.36440E-13
 -1       427 2.06162E+01 4.79525E-01 5.28704E-03 1.22540E+00-3.45679E-13-9.91835E-14
 -1       428 2.04838E+01 2.04595E-01 3.06369E-03 6.60989E-01-3.03549E-13-4.34104E-13
 -1       429 2.03019E+01 1.19320E-01 2.49780E-03 3.17497E-01-1.84704E-13 5.18162E-13
 -1       430 2.05979E+01 9.57744E-01 4.07257E-03 1.85156E+00-3.66872E-13-1.17707E-12
 -1       431 2.03434E+01 1.68929E+00 1.18228E-03 2.36445E+00-3.17528E-13-5.70923E-13
 -1       432 1.98368E+01 2.61270E+00-3.55486E-03 2.48869E+00-2.21341E-13 4.68338E-14
 -1       433 1.92135E+01 3.53941E+00-7.24434E-03 2.00727E+00-3.48975E-13 2.80384E-13
 -1       434 1.87338E+01 4.18050E+00-8.62482E-03 9.12508E-01-3.88650E-13 2.98038E-13
 -1       435 1.86492E+01 4.28337E+00-9.04101E-03-5.00964E-01-2.61174E-13-8.80342E-14
 -1       436 1.89998E+01 3.81844E+00-7.49509E-03-1.73706E+00-8.31837E-14 1.52398E-13
 -1       437 1.95951E+01 2.96969E+00-4.66018E-03-2.46075E+00 1.98711E-13 4.32088E-13
 -1       438 2.01633E+01 2.03587E+00 6.83426E-04-2.55717E+00 3.59941E-13 4.61098E-14
 -1       439 2.05415E+01 1.24490E+00 6.58817E-03-2.17982E+00-4.43665E-14 1.12623E-13
 -1       440 1.10385E+01-6.28009E+00-2.49988E-03 7.57509E+00 5.44884E-13 7.52731E-14
 -1       441 1.23029E+00-5.37697E+00-9.82142E-02-7.73585E-02 1.27479E-13 4.03205E-13
 -1       442 4.69807E+00-5.51693E+00-2.81011E-02 5.29197E+00 3.40047E-13 2.20060E-13
 -1       443 2.15084E+01-5.68357E+00-1.10733E-03 6.94030E+00 4.77104E-13-1.85796E-13
 -1       444 2.83524E+01-3.52111E+00 1.02504E-02 4.71654E+00 2.07889E-14-7.27474E-14
 -1       445 1.97906E+01 3.43314E+00-1.86926E-02-1.71989E+00-4.56107E-13-5.05029E-13
 -1       446 3.68395E+01 5.85230E+00 1.12705E-01 7.18232E-01 1.35558E-13 4.31460E-14
 -1       447 3.58798E+01 8.34510E+00-9.78107E-03 1.87713E-01 3.23269E-13-2.60712E-13
 -1       448 3.53419E+01 6.92626E+00-2.66483E-02 8.77908E-01 4.30989E-13-2.83232E-13
 -1       449 3.43531E+01 3.23954E+00 1.01521E-02 6.78293E-02 4.45699E-13-2.40918E-13
 -1       450 2.97621E+01-2.12508E+00-1.60659E-02-3.10718E+00 4.27193E-13 2.30455E-13
 -1       451 2.27678E+01-5.41396E+00-4.54963E-03-5.94535E+00 1.28786E-14-3.36668E-13
 -1       452 1.38090E+01-6.13164E+00-1.25291E-02-7.40035E+00-9.04693E-14-1.77776E-13
 -1       453 5.57684E+00-5.61781E+00-2.63005E-02-5.78995E+00-7.09571E-14-2.97568E-13
 -1       454 1.16731E+00-4.96628E+00-2.69196E-02-1.17656E+00-2.03240E-13-4.44478E-13
 -1       455 2.00116E+00-5.46671E+00-7.96139E-02 2.66720E+00-1.42455E-13-7.52676E-13
 -1       456 8.12781E+00-6.45987E+00-7.41820E-02 6.07313E+00-2.27041E-14-4.26534E-13
 -1       457 1.70220E+01-6.63831E+00-7.96833E-03 6.59137E+00 2.26485E-14-1.13567E-13
 -1       458 2.48696E+01-5.12472E+00-2.20797E-02 4.73070E+00-3.31110E-13-1.51212E-13
 -1       459 3.15972E+01-1.49853E+00 2.17730E-02 2.03042E+00-3.70592E-13-4.32987E-14
 -1       460 3.44803E+01 2.61624E+00-4.53301E-02-1.13500E+00-5.53738E-13 3.61322E-13
 -1       461 3.55435E+01 7.65166E+00-3.20684E-02-1.29204E+00-3.80862E-13 1.56881E-13
 -1       462 3.68186E+01 8.03378E+00 4.77674E-02-3.51537E-01-3.58658E-13 1.94247E-13
 -1       463 3.63671E+01 5.28409E+00 6.04391E-02-1.79398E-01-2.95972E-13 3.52704E-13
 -1       464 3.33280E+01-2.27160E-01-3.13054E-03-1.51719E+00 2.53907E-14 1.52545E-13
 -1       465 2.78783E+01-4.05955E+00-1.91154E-03-4.98987E+00 1.36058E-13 3.87843E-13
 -1       466 2.02743E+01-6.45898E+00-1.92541E-02-7.23539E+00-2.11831E-13-1.69614E-13
 -1       467 1.20875E+01-6.50673E+00 6.88289E-03-7.72469E+00-1.26010E-14 1.23623E-13
 -1       468 3.38179E+00-5.90665E+00-1.15135E-01-4.35357E+00 4.10005E-13 7.66429E-13
 -1       469 3.41033E+01 1.89169E+00 5.82729E-02 1.89996E+00 4.84890E-14 1.48659E-13
 -1       470 3.09471E+01-2.12351E+00-6.07861E-02 1.45733E+00-1.62836E-13-7.92422E-14
 -1       471 1.82250E+01-6.41052E+00 5.23875E-02 7.75081E+00 2.92613E-13-8.81552E-14
 -1       472 3.16364E+01 4.86566E+00-1.44576E-01-2.92727E+00-3.89980E-13 1.46959E-13
 -1       473 4.92263E+00-3.01734E+00 1.56708E-01-3.95870E+00 1.29688E-14-4.09742E-13
 -1       474 2.03736E+01 8.31947E-01 4.01040E-03 9.71943E-01 4.53413E-13-4.63377E-15
 -1       475 1.97326E+01 3.10386E+00-5.39763E-03-6.34018E-01-2.00673E-13-5.92691E-13
 -1       476 1.98285E+01 2.93074E+00-5.98563E-03-9.50732E-01-2.92966E-13-5.81936E-13
 -1       477 1.96649E+01 3.22655E+00-5.02540E-03 8.82037E-03-3.50489E-15-6.13761E-13
 -1       478 1.96834E+01 3.19355E+00-5.10433E-03 3.30444E-01 1.00259E-13-6.28741E-13
 -1       479 1.97372E+01 3.09675E+00-5.41468E-03 6.45860E-01 1.99785E-13-5.92312E-13
 -1       480 1.98358E+01 2.91892E+00-5.94572E-03 9.61483E-01 2.98819E-13-5.09266E-13
 -1       481 1.99913E+01 2.63387E+00-6.52713E-03 1.25666E+00 4.04812E-13-4.31232E-13
 -1       482 2.02336E+01 2.18774E+00-5.70315E-03 1.50142E+00 4.88016E-13-2.99823E-13
 -1       483 2.01119E+01 4.53510E-01 5.07363E-03 4.64103E-01 3.55024E-13-4.42903E-14
 -1       484 2.03412E+01 9.73718E-01 2.87696E-03-9.38780E-01-4.05282E-13-1.55194E-13
 -1       485 3.03462E+01-9.46947E-01-9.68985E-02 8.27156E-01 4.09377E-13-4.78229E-14
 -1       486 2.01707E+01 5.46509E-01 2.30080E-03-4.67666E-01-3.02468E-13-1.76448E-13
 -1       487 2.00244E+01 3.03514E-01 9.41634E-04-1.66631E-01-2.48097E-13-1.73199E-13
 -1       488 1.99236E+01 1.61490E-01 4.23423E-04 1.47872E-02-1.97807E-13-1.95092E-13
 -1       489 1.98647E+01 7.51517E-02 1.52151E-04 1.17222E-01-1.68939E-13-2.14944E-13
 -1       490 1.98372E+01 2.24473E-02 2.04035E-05 1.68439E-01-1.39218E-13-1.97542E-13
 -1       491 1.98310E+01-8.98057E-03-4.72422E-05 1.87017E-01-1.19293E-13-2.10523E-13
 -1       492 1.98381E+01-2.64970E-02-8.19610E-05 1.85557E-01-1.17203E-13-2.23188E-13
 -1       493 1.98529E+01-3.47714E-02-9.65417E-05 1.72657E-01-8.19195E-14-1.81647E-13
 -1       494 1.98715E+01-3.68752E-02-9.78835E-05 1.54196E-01-3.82953E-14-1.20167E-13
 -1       495 1.98916E+01-3.48492E-02-9.04138E-05 1.34197E-01-6.95851E-14-1.50982E-13
 -1       496 1.99118E+01-3.00216E-02-7.70158E-05 1.15428E-01-3.97329E-14-2.10832E-13
 -1       497 1.99316E+01-2.32001E-02-5.94402E-05 9.98363E-02-1.27155E-13-1.33760E-13
 -1       498 1.99511E+01-1.47983E-02-3.85024E-05 8.88770E-02-3.45136E-14-1.48741E-13
 -1       499 1.99708E+01-4.92255E-03-1.43032E-05 8.37626E-02-3.42295E-14-1.82609E-13
 -1       500 1.99916E+01 6.56857E-03 1.36380E-05 8.56561E-02-5.02181E-14-2.46989E-13
 -1       501 2.00147E+01 2.00192E-02 4.63071E-05 9.58254E-02-1.55386E-13-2.50346E-13
 -1       502 2.00417E+01 3.59418E-02 8.51145E-05 1.15762E-01-8.70685E-14-1.42714E-13
 -1       503 2.00741E+01 5.49860E-02 1.31839E-04 1.47272E-01-1.31813E-14-2.50102E-13
 -1       504 2.01140E+01 7.78989E-02 1.88525E-04 1.92534E-01 1.40800E-13-3.12954E-13
 -1       505 2.01634E+01 1.05460E-01 2.57279E-04 2.54118E-01 7.50111E-14-2.16195E-13
 -1       506 2.02245E+01 1.38357E-01 3.39836E-04 3.34936E-01 4.08401E-14-3.31368E-13
 -1       507 2.02995E+01 1.76946E-01 4.36658E-04 4.38092E-01-5.04156E-14-4.65929E-13
 -1       508 2.03905E+01 2.20790E-01 5.45154E-04 5.66547E-01-7.64233E-14-3.86146E-13
 -1       509 2.04994E+01 2.67816E-01 6.56372E-04 7.22487E-01 1.00231E-14-3.03148E-13
 -1       510 2.06285E+01 3.12809E-01 7.49357E-04 9.06206E-01 8.30569E-15-2.74563E-13
 -1       511 2.07814E+01 3.44922E-01 7.82481E-04 1.11422E+00-1.93595E-14-4.68467E-14
 -1       512 2.09649E+01 3.43852E-01 6.82080E-04 1.33622E+00-5.42743E-14-2.46521E-13
 -1       513 2.11946E+01 2.74855E-01 3.29211E-04 1.55040E+00-6.34832E-14-8.85688E-14
 -1       514 2.15023E+01 8.44503E-02-4.54185E-04 1.71634E+00 4.54987E-14-2.91100E-13
 -1       515 2.19459E+01-2.96690E-01-1.82519E-03 1.76472E+00-4.01212E-14-9.81204E-14
 -1       516 2.26129E+01-9.27004E-01-3.53499E-03 1.58474E+00-9.93188E-14 1.52371E-13
 -1       517 2.35953E+01-1.77588E+00-5.13509E-03 1.01625E+00-1.83607E-13 1.49178E-13
 -1       518 2.48921E+01-2.55570E+00-5.77925E-03-1.13115E-01 2.82036E-14 3.35541E-13
 -1       519 2.62088E+01-2.55296E+00-1.97451E-02-1.78584E+00 1.51659E-14 1.70749E-13
 -1       520 2.69125E+01-8.49930E-01-5.81901E-02-3.33916E+00-4.09742E-14 4.20931E-14
 -1       521 2.66943E+01 2.33610E+00-1.09353E-01-3.36998E+00-1.28574E-13 7.17482E-15
 -1       522 2.61582E+01 4.54120E+00-1.60581E-01-1.13152E+00-1.44711E-13 1.04505E-13
 -1       523 2.61607E+01 3.40191E+00-1.70293E-01 1.68117E+00-3.15047E-13-1.83469E-13
 -1       524 2.66190E+01 9.74722E-02-7.08788E-02 2.39571E+00-3.94493E-14-1.55606E-13
 -1       525 2.60606E+01-2.24033E+00-2.71671E-02 1.16167E+00 3.58682E-13-1.37199E-13
 -1       526 2.47454E+01-2.61609E+00-1.08051E-02-5.32038E-01 2.48313E-13-3.97087E-14
 -1       527 2.32619E+01-1.87093E+00-5.01808E-03-1.78023E+00 1.62241E-13-9.65124E-14
 -1       528 2.20441E+01-7.56977E-01-7.08497E-04-2.33159E+00-4.31958E-14-4.38700E-14
 -1       529 1.08998E+01-3.83556E+00 1.67133E-01 6.83626E+00 3.59338E-13 1.12160E-13
 -1       530 1.98095E+01 1.28816E-01 1.00047E-03-1.94547E-02 1.94480E-13-8.82644E-14
 -1       531 1.97514E+01 5.93793E-02 3.65186E-04-1.17844E-01 1.02526E-13-1.20054E-13
 -1       532 1.97324E+01 1.76479E-02 8.32157E-05-1.65871E-01 7.82217E-14-1.43400E-13
 -1       533 1.97383E+01-7.03460E-03-5.27403E-05-1.82474E-01 7.61565E-14-1.34783E-13
 -1       534 1.97585E+01-2.07552E-02-1.21644E-04-1.80031E-01 5.16556E-14-8.55546E-14
 -1       535 1.97861E+01-2.72673E-02-1.52441E-04-1.66811E-01 8.07515E-14-9.81470E-14
 -1       536 1.98164E+01-2.90008E-02-1.58987E-04-1.48386E-01 1.80614E-13-9.18011E-14
 -1       537 1.98466E+01-2.75600E-02-1.49581E-04-1.28528E-01 1.78758E-13-9.80129E-14
 -1       538 1.98755E+01-2.39939E-02-1.29592E-04-1.09798E-01 1.16895E-13-1.75438E-14
 -1       539 1.99025E+01-1.89548E-02-1.02383E-04-9.39670E-02 6.08898E-14-3.22179E-14
 -1       540 1.99279E+01-1.28024E-02-6.98448E-05-8.23154E-02 6.61282E-14-4.33643E-14
 -1       541 1.99525E+01-5.68016E-03-3.27836E-05-7.58597E-02 5.35891E-14-4.91209E-14
 -1       542 1.99775E+01 2.42399E-03 8.77285E-06-7.55135E-02 4.73587E-14-2.10417E-14
 -1       543 2.00045E+01 1.16230E-02 5.52281E-05-8.21995E-02-3.84882E-14-2.55077E-14
 -1       544 2.00353E+01 2.20725E-02 1.07097E-04-9.69117E-02-8.63909E-14-4.42149E-14
 -1       545 2.00722E+01 3.39013E-02 1.64617E-04-1.20724E-01 4.26109E-14-9.79971E-15
 -1       546 2.01176E+01 4.71178E-02 2.27187E-04-1.54735E-01 5.23763E-14-2.41883E-13
 -1       547 2.01742E+01 6.14804E-02 2.92615E-04-1.99921E-01 3.37323E-14-2.18694E-13
 -1       548 2.02448E+01 7.63121E-02 3.56055E-04-2.56876E-01 2.65818E-14-3.86156E-14
 -1       549 2.03326E+01 9.02421E-02 4.08596E-04-3.25391E-01 1.24298E-14-6.62836E-15
 -1       550 2.04405E+01 1.00857E-01 4.35533E-04-4.03821E-01 6.94309E-14-1.85194E-13
 -1       551 2.05713E+01 1.04271E-01 4.14590E-04-4.88181E-01 6.27292E-16-3.45402E-13
 -1       552 2.07275E+01 9.46613E-02 3.14854E-04-5.70955E-01 2.01124E-14-3.54815E-13
 -1       553 2.09108E+01 6.39731E-02 9.80070E-05-6.39631E-01-1.17011E-14-2.23685E-13
 -1       554 2.11220E+01 2.19988E-03-2.74804E-04-6.75181E-01-1.59757E-13-6.91497E-14
 -1       555 2.13598E+01-1.00913E-01-8.27495E-04-6.51049E-01-7.97916E-14 2.83910E-14
 -1       556 2.16191E+01-2.51420E-01-1.54264E-03-5.33861E-01-1.44680E-13-1.64817E-13
 -1       557 2.18870E+01-4.42473E-01-2.31340E-03-2.88130E-01-1.76034E-13-2.91775E-13
 -1       558 2.21357E+01-6.41230E-01-2.90650E-03 1.11581E-01-9.48507E-14-2.01659E-13
 -1       559 2.23155E+01-7.75498E-01-2.73610E-03 6.57619E-01 1.71885E-13 8.02122E-14
 -1       560 2.23529E+01-7.36016E-01-2.10737E-03 1.27485E+00 4.57435E-14 3.39152E-13
 -1       561 2.21766E+01-4.18714E-01-7.89045E-04 1.79145E+00 1.20598E-13 2.56926E-13
 -1       562 2.17813E+01 1.73969E-01-1.37416E-05 1.96567E+00 5.09533E-14 1.80971E-13
 -1       563 2.12883E+01 8.53021E-01 8.51547E-04 1.60434E+00 5.73970E-14 3.65251E-13
 -1       564 2.09304E+01 1.26996E+00 1.11088E-03 7.47687E-01-2.51684E-13 3.93919E-14
 -1       565 2.08802E+01 1.17596E+00 1.74488E-03-2.58973E-01 1.08989E-13-6.63407E-15
 -1       566 2.11013E+01 6.28621E-01 2.46247E-03-9.70405E-01 1.32179E-13 1.62632E-13
 -1       567 2.13694E+01-3.29300E-02 1.57541E-03-1.14453E+00 1.45130E-13 2.08454E-13
 -1       568 2.14838E+01-4.95615E-01-7.52665E-04-8.58496E-01 1.86031E-13 2.12406E-13
 -1       569 2.13701E+01-6.23970E-01-2.10016E-03-3.64519E-01-1.01613E-13 3.29730E-14
 -1       570 2.10746E+01-4.68485E-01-2.66689E-03 7.98250E-02-1.32592E-13-6.03720E-14
 -1       571 2.06925E+01-1.68479E-01-7.81097E-04 3.27129E-01-2.60074E-13 1.27416E-13
 -1       572 2.10721E+01 7.03240E-02 1.99592E-03 2.64953E+00 8.68829E-14-9.12810E-13
 -1       573 2.03081E+01 6.75771E-01 1.94563E-03 3.23778E+00 2.18094E-13-2.22994E-13
 -1       574 2.11298E+01-2.42704E-01 3.33264E-03 1.02838E+00-2.10578E-13-1.87251E-13
 -1       575 2.12890E+01-1.97928E-01 3.28791E-03 1.81450E+00-4.66260E-13-3.31064E-13
 -1       576 1.90786E+01 1.56602E+00-3.86384E-04 3.15295E+00-6.40488E-14 6.06688E-14
 -1       577 1.77820E+01 2.48336E+00-2.65010E-05 2.13077E+00-2.85054E-13 2.62869E-13
 -1       578 1.71139E+01 2.95726E+00 2.21871E-03 3.25510E-01-3.16017E-13 2.23605E-13
 -1       579 1.74508E+01 2.73325E+00 2.28140E-03-1.59741E+00 1.07779E-13 1.03933E-13
 -1       580 1.85719E+01 1.97050E+00-7.55333E-04-2.93869E+00 2.13172E-13 3.48031E-13
 -1       581 1.98546E+01 1.08858E+00 9.50293E-04-3.35198E+00 3.22093E-13 4.38084E-13
 -1       582 2.07955E+01 4.43210E-01-4.47308E-03-2.97195E+00 6.94087E-14-2.04206E-13
 -1       583 1.00548E+01-3.77792E+00 1.53512E-01-6.51122E+00 4.00076E-13 5.32532E-13
 -1       584 1.99244E+01 2.46226E-01 2.45609E-03 1.58872E-01 2.67627E-13-6.15007E-14
 -1       585 5.91215E+00-1.91746E+00 1.77374E-01 2.75950E+00 4.10685E-13 4.59049E-13
 -1       586 2.61830E+01-5.79966E+00 2.56293E-02 4.90309E+00 1.93456E-13-2.93193E-13
 -1       587 5.12675E+00-2.47209E+00 1.59558E-01-2.55270E+00 1.82972E-13 6.78235E-13
 -1       588 2.03905E+01 1.75489E+00-5.26317E-03-1.52190E+00-5.08102E-13-1.85921E-13
 -1       589 1.96805E+01 3.19794E+00-5.10829E-03-3.12914E-01-9.12284E-14-6.21117E-13
 -1       590 2.93527E+01 7.14118E+00-1.95674E-01 1.14342E+00 4.79672E-13-3.60595E-13
 -1       591 2.71702E+01-4.94939E+00-1.49446E-02-2.87895E+00 1.10745E-13 4.31599E-14
 -1       592 3.05507E+01 4.04153E+00-1.64194E-01 2.31730E+00 3.56881E-13-1.92804E-13
 -1       593 1.46318E+01-5.29320E+00 1.02659E-01 6.50728E+00 2.83801E-13 1.37897E-13
 -1       594 3.13103E+01 6.23055E+00-1.83177E-01-1.05452E+00 3.33553E-13-3.65777E-13
 -1       595 2.02601E+01-6.01477E+00 5.25198E-02-6.30232E+00-2.01020E-13-3.53799E-13
 -1       596 1.23028E+01-4.52183E+00 1.21601E-01-6.93757E+00-2.47552E-13-6.94445E-14
 -1       597 4.00581E+00-2.29887E+00 1.59651E-01 9.04408E-01-7.73860E-14-6.67091E-13
 -1       598 3.13855E+01 1.60626E+00-1.50871E-01 1.58380E+00-1.20161E-13 2.95416E-13
 -1       599 7.84157E+00-3.21049E+00 1.71653E-01 4.94515E+00 6.67383E-14-4.83932E-13
 -1       600 2.39297E+01-6.34277E+00 5.90316E-02 4.28731E+00 2.48836E-13-4.87457E-14
 -1       601 2.83363E+01-4.97026E+00-3.41252E-02 1.27450E+00-2.25493E-13 1.24893E-13
 -1       602 3.06053E+01-1.72464E+00-1.00527E-01-1.62113E+00-3.66859E-13 4.88491E-13
 -1       603 3.05763E+01 6.89551E+00-2.01856E-01-7.50131E-01-3.03549E-13-1.02364E-13
 -1       604 3.16628E+01 5.80108E+00-1.52204E-01 1.08849E+00-3.34746E-13 8.75688E-15
 -1       605 2.98562E+01-3.80854E+00-6.09298E-02-1.61329E+00 4.30325E-13 1.62023E-13
 -1       606 2.60504E+01-6.13402E+00 1.81707E-02-4.82373E+00 3.22894E-13-1.17968E-13
 -1       607 1.88323E+01-6.15903E+00 7.48268E-02-7.33934E+00 2.80012E-13-5.82333E-13
 -1       608 3.18143E+01 3.17447E+00-1.46035E-01-1.09155E+00 7.09016E-14-4.13489E-13
 -1       609 2.05855E+01 1.30522E+00-9.99913E-04 1.54784E+00 5.42385E-13 4.81579E-14
 -1       610 1.99801E+01 2.65195E+00-6.51889E-03-1.24475E+00-3.91367E-13-5.04011E-13
 -1       611 2.84765E+01-4.50949E+00-3.93725E-02 2.19242E+00 4.10175E-15-1.46147E-13
 -1       612 1.55955E+01-4.05763E+00 1.30016E-01-7.03044E+00 3.94101E-13-1.77948E-13
 -1       613 1.62226E+01-4.63338E+00 1.17238E-01 7.35296E+00 2.50799E-13-1.13919E-13
 -1       614 2.13950E+01-8.02332E-03-3.58672E-05-2.35087E+00-2.18537E-13 6.03893E-14
 -1       615 2.96887E+01-1.92087E+00-7.70989E-02 1.17429E+00 1.93470E-13 2.01450E-13
 -1       616 2.01657E+01 2.27901E+00-5.77145E-03-1.43645E+00-4.58243E-13-3.69634E-13
 -1       617 1.01774E+01-2.52870E+00 1.67009E-01-5.55290E+00-1.61468E-13-6.56419E-15
 -1       618 5.93904E+00-1.19900E+00 1.78082E-01-1.65959E+00 3.24046E-15-7.56228E-13
 -1       619 3.02641E+01-7.02712E-02-1.19508E-01-9.54235E-01-7.12867E-14-3.03028E-13
 -1       620 2.94847E+01 6.59028E+00-1.69463E-01-6.32541E-01 3.42643E-13-2.74308E-13
 -1       621 1.99601E+01 2.44907E+00-1.58820E-03 3.94238E-01 1.34314E-13-5.21119E-13
 -1       622 1.99282E+01 2.52392E+00-1.52536E-03 1.35795E-01 3.49155E-14-5.50102E-13
 -1       623 2.01202E+01 2.04581E+00-1.58240E-03 8.50475E-01 3.01578E-13-3.92460E-13
 -1       624 2.02394E+01 1.67520E+00-2.21504E-03 9.91883E-01 3.93778E-13-3.09190E-13
 -1       625 2.03192E+01 1.03671E+00 2.86059E-03 8.31603E-01 3.90605E-13-1.97031E-13
 -1       626 1.13308E+01-1.05944E+00 1.12790E-01 4.75851E+00 2.37841E-13-2.22877E-14
 -1       627 2.84136E+01 3.40627E+00-1.49948E-01-1.89046E+00 1.12688E-13-4.01609E-13
 -1       628 2.02401E+01 6.70284E-01-4.39223E-04-3.95661E-01-2.72658E-13-2.44589E-13
 -1       629 2.01676E+01 3.91409E-01 2.07585E-04-1.40298E-01-2.47004E-13-2.59154E-13
 -1       630 2.01018E+01 2.11991E-01 4.33519E-05 2.14873E-02-1.71220E-13-2.55885E-13
 -1       631 2.00515E+01 9.77663E-02 4.77551E-06 1.16356E-01-1.34199E-13-2.30778E-13
 -1       632 2.00164E+01 2.61922E-02-1.53939E-05 1.65020E-01-1.32612E-13-2.13651E-13
 -1       633 1.99940E+01-1.68671E-02-2.61356E-05 1.83132E-01-1.30411E-13-1.84922E-13
 -1       634 1.99811E+01-4.06356E-02-3.13974E-05 1.82105E-01-7.42129E-14-1.40712E-13
 -1       635 1.99751E+01-5.13039E-02-3.26270E-05 1.70104E-01-5.56112E-14-1.64901E-13
 -1       636 1.99738E+01-5.30771E-02-3.09665E-05 1.52892E-01-9.65711E-14-2.43407E-13
 -1       637 1.99757E+01-4.87837E-02-2.72661E-05 1.34517E-01-7.65551E-14-1.81072E-13
 -1       638 1.99799E+01-4.02505E-02-2.21912E-05 1.17836E-01-5.24705E-14-1.52603E-13
 -1       639 1.99857E+01-2.85534E-02-1.60792E-05 1.04932E-01-6.80064E-14-1.35704E-13
 -1       640 1.99928E+01-1.41916E-02-9.04878E-06 9.74254E-02-5.65439E-14-1.45563E-13
 -1       641 2.00012E+01 2.79086E-03-1.02350E-06 9.67249E-02-1.37498E-13-1.99139E-13
 -1       642 2.00108E+01 2.27129E-02 8.26070E-06 1.04216E-01-1.07980E-13-1.95077E-13
 -1       643 2.00220E+01 4.61848E-02 1.91722E-05 1.21406E-01-7.54382E-14-1.58941E-13
 -1       644 2.00348E+01 7.40466E-02 3.22305E-05 1.50029E-01-1.25743E-13-7.36177E-14
 -1       645 2.00493E+01 1.07303E-01 4.80781E-05 1.92112E-01-8.99185E-15 1.23334E-14
 -1       646 2.00657E+01 1.47038E-01 6.74583E-05 2.49998E-01 6.59753E-14-2.63248E-13
 -1       647 2.00834E+01 1.94267E-01 9.11722E-05 3.26315E-01 7.15929E-15-2.11373E-13
 -1       648 2.01018E+01 2.49685E-01 1.19976E-04 4.23877E-01-1.23141E-13-2.31916E-13
 -1       649 2.01196E+01 3.13204E-01 1.54349E-04 5.45490E-01 2.06307E-14-2.02220E-13
 -1       650 2.01350E+01 3.83134E-01 1.93992E-04 6.93626E-01 1.55230E-14-1.57488E-13
 -1       651 2.01460E+01 4.54758E-01 2.36856E-04 8.69952E-01 3.68167E-14-2.47769E-13
 -1       652 2.01517E+01 5.17955E-01 2.77455E-04 1.07466E+00-2.38644E-14-2.25161E-13
 -1       653 2.01550E+01 5.53458E-01 3.04452E-04 1.30561E+00-1.63766E-13-3.06551E-13
 -1       654 2.01675E+01 5.27422E-01 2.98686E-04 1.55716E+00 8.41142E-14-2.03606E-13
 -1       655 2.02196E+01 3.84637E-01 2.24591E-04 1.81813E+00-8.74358E-14-1.86675E-13
 -1       656 2.03764E+01 4.27923E-02 2.69548E-06 2.06717E+00 1.18527E-13-5.75169E-14
 -1       657 2.07597E+01-6.03478E-01-1.85526E-04 2.25806E+00-1.83626E-14-1.16666E-13
 -1       658 2.15633E+01-1.64138E+00 1.04681E-03 2.28894E+00 8.56799E-15 1.12542E-13
 -1       659 2.30304E+01-3.00918E+00 5.34066E-03 1.93584E+00-1.43378E-14 2.31991E-13
 -1       660 2.52765E+01-4.19378E+00 1.25520E-02 8.44554E-01 2.48499E-15 4.40109E-13
 -1       661 2.61910E+01-4.25879E+00 6.25922E-04-1.46472E+00 4.86339E-13 2.25779E-13
 -1       662 2.37767E+01-3.27756E+00 4.12757E-03-2.83073E+00 5.04134E-14 2.23949E-13
 -1       663 2.20587E+01-1.62664E+00 3.83958E-03-3.26476E+00 7.03262E-15-1.09925E-13
 -1       664 2.00266E+01 1.89004E-01 1.75757E-04-2.05132E-02 1.57885E-13-7.82146E-14
 -1       665 1.99251E+01-1.31729E-02-2.91282E-05-1.86953E-01 6.93288E-14-1.26783E-13
 -1       666 1.99206E+01-3.41006E-02-4.45394E-05-1.85604E-01 8.02477E-14-1.58559E-13
 -1       667 1.99233E+01-4.36942E-02-5.07847E-05-1.73024E-01 9.08397E-14-1.54646E-13
 -1       668 1.99304E+01-4.56410E-02-5.06590E-05-1.55063E-01 1.40675E-13-9.27462E-14
 -1       669 1.99400E+01-4.24154E-02-4.61083E-05-1.35786E-01 1.16366E-13 2.67261E-14
 -1       670 1.99509E+01-3.56348E-02-3.84988E-05-1.18027E-01 6.80513E-14 5.85423E-14
 -1       671 1.99627E+01-2.62844E-02-2.87067E-05-1.03805E-01 5.73518E-14 5.00341E-15
 -1       672 1.99751E+01-1.48821E-02-1.72259E-05-9.46430E-02 3.07211E-14 3.33033E-14
 -1       673 1.99884E+01-1.60446E-03-4.10878E-06-9.18011E-02-8.53119E-15 7.63512E-14
 -1       674 2.00031E+01 1.36090E-02 1.07521E-05-9.64433E-02 5.21534E-14 8.74624E-14
 -1       675 2.00197E+01 3.09545E-02 2.75366E-05-1.09748E-01 3.17099E-14-1.79924E-14
 -1       676 2.00393E+01 5.06503E-02 4.64743E-05-1.32961E-01-1.19648E-14-1.38159E-13
 -1       677 2.00628E+01 7.27976E-02 6.76201E-05-1.67381E-01 6.68112E-14-7.57356E-14
 -1       678 2.00915E+01 9.71945E-02 9.06658E-05-2.14264E-01 5.31418E-14-2.63914E-14
 -1       679 2.01269E+01 1.23079E-01 1.14640E-04-2.74640E-01 3.15612E-14-4.20280E-14
 -1       680 2.01708E+01 1.48774E-01 1.37486E-04-3.48979E-01-1.38533E-14-5.21885E-14
 -1       681 2.02255E+01 1.71207E-01 1.55502E-04-4.36707E-01 6.31460E-14-1.61355E-13
 -1       682 2.02941E+01 1.85295E-01 1.62626E-04-5.35495E-01 1.80993E-14-8.75543E-14
 -1       683 2.03809E+01 1.83233E-01 1.49641E-04-6.40292E-01 1.04986E-14-3.61486E-14
 -1       684 2.04921E+01 1.53824E-01 1.03408E-04-7.42057E-01-6.07258E-14 2.42195E-14
 -1       685 2.06368E+01 8.22485E-02 6.44859E-06-8.26195E-01-1.88707E-13 1.35688E-13
 -1       686 2.08277E+01-4.88918E-02-1.59542E-04-8.70768E-01-2.83390E-14 2.84721E-14
 -1       687 2.10806E+01-2.55704E-01-4.09313E-04-8.44838E-01 7.48770E-14-9.52322E-14
 -1       688 2.14115E+01-5.43862E-01-7.52287E-04-7.07967E-01-2.06791E-14-1.83174E-13
 -1       689 2.18270E+01-8.91405E-01-1.14342E-03-4.13566E-01-2.02778E-13-3.79903E-13
 -1       690 2.23068E+01-1.22395E+00-1.54886E-03 7.79447E-02-1.68190E-13-2.43357E-13
 -1       691 2.27808E+01-1.39047E+00-5.09659E-04 7.67397E-01 4.35329E-14-1.66653E-13
 -1       692 2.31023E+01-1.17002E+00-1.47821E-03 1.56091E+00 9.03200E-14-1.26600E-13
 -1       693 2.31226E+01-4.04316E-01-3.71638E-03 2.18331E+00 1.00256E-14 1.44122E-13
 -1       694 2.27977E+01 8.17763E-01-9.18669E-03 2.26155E+00-1.49041E-13 2.31461E-13
 -1       695 2.23580E+01 1.96535E+00-9.50921E-03 1.53035E+00 8.04877E-14 1.12601E-13
 -1       696 2.21659E+01 2.31644E+00-1.06563E-02 2.44600E-01 6.47121E-14-1.19994E-14
 -1       697 2.23801E+01 1.62910E+00-3.87722E-03-9.17856E-01 1.53883E-13 5.29785E-14
 -1       698 2.27263E+01 3.81527E-01-2.22974E-03-1.35431E+00 2.40487E-13-1.21043E-13
 -1       699 2.28258E+01-6.64577E-01-2.62059E-03-1.06806E+00 2.82947E-13-3.30426E-13
 -1       700 2.25632E+01-1.13117E+00-6.37088E-04-3.89307E-01-1.80357E-14-3.13937E-13
 -1       701 2.20170E+01-1.01039E+00-1.49528E-03 2.69180E-01-2.55943E-13-2.55006E-13
 -1       702 2.16109E+01-7.15944E-01 3.73772E-04 7.43951E-01-2.05724E-13-2.35122E-13
 -1       703 1.73768E+01 7.19813E-01 3.74175E-02 3.68911E+00 3.04615E-14-4.45490E-14
 -1       704 2.13248E+01-5.39671E-01 5.13278E-03-3.20869E+00 8.14807E-14-2.72681E-13
 -1       705 2.14635E+01-1.13193E+00 3.20587E-03 3.42405E+00 1.90350E-13-6.40903E-13
 -1       706 1.53720E+01 1.74723E+00 3.38150E-02 1.79667E+00-3.19449E-13 1.27919E-13
 -1       707 1.98022E+01-5.26203E-01-8.72970E-04 4.12493E+00 4.16351E-14-1.79654E-13
 -1       708 2.65218E+01 5.81018E+00-1.44697E-01 2.35053E-01 4.58987E-13-2.73913E-13
 -1       709 1.50784E+01 1.88739E+00 2.63928E-02-8.96938E-01-8.60691E-14 4.61726E-13
 -1       710 1.66096E+01 1.12599E+00 1.52988E-02-3.17361E+00 1.19004E-13 5.54582E-13
 -1       711 1.89445E+01 2.17574E-02 8.90890E-03-4.06790E+00 2.08459E-13 3.46051E-13
 -1       712 2.01051E+01 3.52909E-01 6.31588E-04 1.49404E-01 2.08682E-13-1.26898E-13
 -1       713 1.32822E+01-2.82724E+00 1.19304E-01 5.31671E+00 3.31960E-13 1.59126E-13
 -1       714 8.63370E+00-1.01766E-01 1.62523E-01-4.85362E-01 3.62202E-13 8.32945E-13
 -1       715 2.02889E+01 1.42619E+00 1.85003E-04-9.93649E-01-4.06472E-13-2.86449E-13
 -1       716 3.03032E+01 5.36454E-01-1.00687E-01-3.14319E+00-2.86431E-13 3.34927E-13
 -1       717 2.26991E+01-5.65074E+00 7.75658E-02 5.98805E+00 1.69885E-13-6.72467E-13
 -1       718 1.76244E+01-4.47053E+00 6.94672E-02-6.04730E+00-5.17572E-14-3.69808E-13
 -1       719 1.99409E+01 2.45885E-02 1.41893E-07-1.68678E-01 7.57862E-14-1.05025E-13
 -1       720 1.99728E+01 8.75630E-02 5.60407E-05-1.18821E-01 1.26871E-13-1.24296E-13
 -1       721 2.02762E+01 9.90742E-01 4.96393E-04-6.59288E-01-3.30463E-13-2.78445E-13
 -1       722 2.02058E+01 6.13640E-01 9.74253E-04 4.20521E-01 3.13619E-13-1.84524E-13
 -1       723 2.00239E+01 2.29457E+00-1.65599E-03 6.37979E-01 2.15805E-13-4.92330E-13
 -1       724 2.70454E+01 4.59626E+00-1.29907E-01 2.37661E+00 3.02237E-13-3.87353E-13
 -1       725 2.00184E+01 2.30487E+00-1.66606E-03-6.29110E-01-2.15661E-13-5.01117E-13
 -1       726 2.33436E+01-5.77847E+00 2.89122E-02-5.35051E+00 3.25653E-13-2.43278E-14
 -1       727 2.76780E+01-3.55363E+00-4.93160E-02 1.10357E-01 7.95507E-14 1.82840E-15
 -1       728 2.04225E+01-5.04572E+00 6.95968E-02 4.86807E+00 3.33244E-13-1.73217E-13
 -1       729 2.44196E+01-5.44099E+00 2.44451E-02-3.46395E+00-4.63275E-14-3.83808E-14
 -1       730 2.82524E+01 6.86988E-01-1.03080E-01 2.57517E+00 3.62467E-13-3.28203E-13
 -1       731 2.81083E+01-3.72285E+00-7.01569E-02-1.24944E+00-1.70645E-13 6.88317E-13
 -1       732 2.63008E+01-5.27468E+00-1.31882E-03 1.40121E+00 1.54921E-13 3.63445E-13
 -1       733 1.06286E+01-1.08352E+00 1.76174E-01-4.34701E+00 2.47125E-13 5.36168E-13
 -1       734 8.62283E+00-6.96903E-01 1.69716E-01 2.50348E+00 1.45248E-13-4.68847E-13
 -1       735 2.74537E+01-5.22978E+00-3.29670E-02-2.17319E+00 4.37924E-13 3.40828E-13
 -1       736 1.99272E+01 2.52567E+00-1.52074E-03-1.26568E-01-5.36912E-14-5.39334E-13
 -1       737 2.01156E+01 2.06020E+00-1.14362E-03-8.44440E-01-3.06199E-13-4.77126E-13
 -1       738 2.87893E+01-2.61538E+00-6.18080E-02-1.60796E-01-7.59236E-14-2.04000E-13
 -1       739 2.21019E+01-1.22295E+00 2.67450E-03 2.32277E+00-3.66445E-14-1.94905E-13
 -1       740 2.20037E+01-9.99693E-01 1.86100E-03 1.44003E+00-2.90554E-13-2.42621E-13
 -1       741 1.50956E+01-2.84988E+00 9.34609E-02-5.58010E+00-8.27550E-14-4.36769E-13
 -1       742 2.54188E+01-5.49548E+00 8.31383E-03 4.07807E+00-9.20722E-14-3.64573E-13
 -1       743 9.52969E+00-9.88164E-01 1.33846E-01-3.71254E+00-8.95534E-14-1.39118E-13
 -1       744 2.03079E+01-4.33817E+00 8.42202E-02-6.01809E+00 1.30049E-13-4.68322E-13
 -1       745 1.46877E+01-1.97260E+00 8.75406E-02 5.81521E+00-8.29198E-15 5.60871E-14
 -1       746 1.99570E+01 2.45477E+00-1.57172E-03-3.84445E-01-1.14673E-13-5.21569E-13
 -1       747 2.60526E+01 4.10164E+00-1.15491E-01-1.25967E+00 1.01082E-13-3.40315E-13
 -1       748 2.06360E+01-1.02894E+00 1.01725E-02-4.02949E+00-2.28110E-13 2.90011E-14
 -1       749 2.02715E+01 1.30100E+00 8.29824E-04 6.30949E-01 2.89184E-13-2.92588E-13
 -1       750 1.22232E+01 9.01960E-01 1.25867E-01 1.61961E+00 4.14113E-14 3.28466E-13
 -1       751 2.02622E+01 4.32366E-01 5.86619E-05-9.37891E-02-1.90394E-13-2.53009E-13
 -1       752 2.02219E+01 2.33661E-01-6.67208E-06 3.50380E-02-1.55289E-13-2.13728E-13
 -1       753 2.01805E+01 1.03352E-01-1.10922E-05 1.12147E-01-1.68771E-13-2.78833E-13
 -1       754 2.01431E+01 2.05893E-02-9.89909E-06 1.51713E-01-1.13690E-13-3.31092E-13
 -1       755 2.01114E+01-2.90712E-02-9.33009E-06 1.65917E-01-8.17547E-14-3.06204E-13
 -1       756 2.00856E+01-5.57486E-02-8.78496E-06 1.64127E-01-7.91713E-14-2.22163E-13
 -1       757 2.00653E+01-6.65379E-02-8.16358E-06 1.53289E-01-8.25400E-14-1.75406E-13
 -1       758 2.00497E+01-6.63757E-02-7.26722E-06 1.38434E-01-5.85532E-14-6.18361E-14
 -1       759 2.00380E+01-5.85934E-02-6.16069E-06 1.23170E-01-8.82632E-15-9.82417E-14
 -1       760 2.00295E+01-4.53055E-02-4.79714E-06 1.10111E-01-1.04889E-13-9.93073E-14
 -1       761 2.00234E+01-2.77025E-02-3.34903E-06 1.01225E-01-8.95305E-14-1.41346E-13
 -1       762 2.00190E+01-6.25047E-03-1.75231E-06 9.80975E-02-1.24672E-13-1.43566E-13
 -1       763 2.00156E+01 1.91576E-02 1.64477E-07 1.02155E-01-1.37388E-13-1.27667E-13
 -1       764 2.00124E+01 4.90751E-02 2.35894E-06 1.14821E-01-8.31919E-14-7.14526E-14
 -1       765 2.00084E+01 8.44005E-02 4.92122E-06 1.37631E-01 8.71844E-15-3.85992E-14
 -1       766 2.00024E+01 1.26280E-01 8.00586E-06 1.72296E-01-9.66803E-14 7.91905E-14
 -1       767 1.99929E+01 1.75999E-01 1.18144E-05 2.20733E-01-1.38049E-13-6.24285E-14
 -1       768 1.99777E+01 2.34824E-01 1.66152E-05 2.85039E-01 5.12345E-14-1.84765E-13
 -1       769 1.99541E+01 3.03761E-01 2.27819E-05 3.67420E-01 3.22985E-15-8.90295E-14
 -1       770 1.99185E+01 3.83158E-01 3.08497E-05 4.70076E-01 2.37469E-14 3.69446E-14
 -1       771 1.98662E+01 4.72034E-01 4.15861E-05 5.95064E-01 4.34008E-14 4.46147E-14
 -1       772 1.97918E+01 5.66964E-01 5.60585E-05 7.44199E-01-3.36517E-14 2.27222E-15
 -1       773 1.96895E+01 6.60274E-01 7.57020E-05 9.19129E-01-1.04834E-14-1.31066E-13
 -1       774 1.95548E+01 7.37202E-01 1.02739E-04 1.12181E+00-1.86453E-13-1.66490E-13
 -1       775 1.93878E+01 7.71625E-01 1.43363E-04 1.35576E+00-7.08822E-14 5.53269E-14
 -1       776 1.91994E+01 7.19946E-01 2.26979E-04 1.62843E+00-3.02960E-14-1.78652E-14
 -1       777 1.90230E+01 5.13049E-01 4.62445E-04 1.95408E+00-1.08806E-13-8.82236E-14
 -1       778 1.89340E+01 4.76663E-02 7.12776E-04 2.35604E+00-4.80119E-14-4.96841E-13
 -1       779 1.91077E+01-8.28261E-01 1.97784E-03 2.84627E+00 2.05761E-13-3.73206E-13
 -1       780 1.98255E+01-2.24440E+00 2.04387E-02 3.38039E+00 1.41569E-13-2.47037E-13
 -1       781 1.28198E+01-7.54256E-01 7.15941E-02 3.49658E+00 3.69574E-13-1.59317E-14
 -1       782 2.64985E+01-1.66968E+00-3.62029E-02 1.92770E+00 5.15308E-14-2.32355E-13
 -1       783 2.00617E+01-2.35619E-02-1.27441E-05-1.75284E-01 7.23572E-14-1.16168E-13
 -1       784 2.00176E+01-6.03971E-02-1.35473E-05-1.46037E-01 5.69402E-14-1.01675E-13
 -1       785 2.00116E+01-5.42151E-02-1.18089E-05-1.29268E-01 2.36971E-14-8.37650E-14
 -1       786 2.00084E+01-4.31525E-02-9.32197E-06-1.14514E-01 2.15581E-14-9.78117E-15
 -1       787 2.00074E+01-2.84013E-02-6.54911E-06-1.03782E-01 5.62192E-14-1.80850E-14
 -1       788 2.00079E+01-1.05482E-02-3.33482E-06-9.86506E-02 1.94844E-14-1.47763E-14
 -1       789 2.00097E+01 1.02615E-02 4.01399E-07-1.00474E-01 5.14155E-14-3.91328E-14
 -1       790 2.00125E+01 3.41740E-02 4.56687E-06-1.10545E-01 2.31449E-14-6.45935E-14
 -1       791 2.00160E+01 6.14672E-02 9.33761E-06-1.30190E-01 5.23628E-15-9.70146E-14
 -1       792 2.00201E+01 9.23725E-02 1.47995E-05-1.60804E-01 1.59970E-14-1.59011E-13
 -1       793 2.00248E+01 1.26852E-01 2.10131E-05-2.03827E-01 3.76511E-14-1.24221E-13
 -1       794 2.00303E+01 1.64301E-01 2.79575E-05-2.60645E-01 6.04171E-15-1.21917E-13
 -1       795 2.00371E+01 2.03143E-01 3.54567E-05-3.32399E-01-6.78885E-14 1.37320E-14
 -1       796 2.00463E+01 2.40289E-01 4.30768E-05-4.19692E-01 5.42032E-14 6.27865E-14
 -1       797 2.00602E+01 2.70432E-01 4.99795E-05-5.22151E-01 1.87874E-15 2.04018E-13
 -1       798 2.00829E+01 2.85172E-01 5.46835E-05-6.37830E-01 6.53808E-17 8.16280E-14
 -1       799 2.01216E+01 2.72055E-01 5.45743E-05-7.62397E-01-5.69024E-14-2.74458E-14
 -1       800 2.01880E+01 2.13749E-01 4.47295E-05-8.88000E-01-9.12186E-14 6.08763E-14
 -1       801 2.03009E+01 8.79038E-02 1.55856E-05-1.00163E+00-5.28146E-14-1.19638E-13
 -1       802 2.04875E+01-1.31054E-01-3.82658E-05-1.08259E+00-5.49192E-14-7.06667E-14
 -1       803 2.07848E+01-4.65884E-01-1.22648E-04-1.09871E+00-3.22849E-14 7.55490E-14
 -1       804 2.12348E+01-9.22266E-01-2.86176E-04-1.00122E+00 4.02392E-14 1.64998E-13
 -1       805 2.18703E+01-1.46025E+00-4.82866E-04-7.21394E-01-1.37182E-13-2.75631E-14
 -1       806 2.26771E+01-1.94877E+00-1.61723E-03-1.76382E-01-1.96581E-13-1.42890E-13
 -1       807 2.35502E+01-2.15323E+00-5.30327E-03 6.56279E-01-1.29423E-13-2.05351E-14
 -1       808 2.42322E+01-1.58609E+00-1.42911E-03 1.70552E+00-9.75957E-14 2.71820E-13
 -1       809 2.43981E+01-4.27767E-02-2.45777E-02 2.51894E+00-2.97666E-14 2.61761E-13
 -1       810 2.41360E+01 2.10350E+00-2.40661E-02 2.40797E+00 1.52940E-13-1.27617E-13
 -1       811 2.36651E+01 3.63552E+00-4.93133E-02 1.12058E+00 2.01669E-13-4.17330E-13
 -1       812 2.42575E+01 1.36509E+00-4.14948E-02-1.62724E+00 5.20517E-14-4.85461E-13
 -1       813 2.44935E+01-6.02043E-01-3.05345E-03-1.35154E+00 2.62005E-13-1.72706E-13
 -1       814 2.40375E+01-1.74978E+00-2.70742E-03-3.46321E-01 1.40603E-13 8.89046E-16
 -1       815 2.31720E+01-1.77729E+00-7.50469E-04 6.04673E-01 7.49219E-14-1.60810E-13
 -1       816 2.25779E+01-1.46093E+00-3.52049E-04 1.10533E+00-1.72292E-13-2.64879E-13
 -1       817 2.02762E+01 9.43429E-01 2.29175E-05 5.53164E-01 3.05184E-13-2.51694E-13
 -1       818 1.71775E+01-9.20136E-01 5.74858E-02-4.87394E+00 2.09190E-14 4.40126E-13
 -1       819 2.00894E+01 2.30981E-02-1.05574E-05-1.59552E-01 3.27231E-14-1.32018E-13
 -1       820 2.02194E+01 4.14137E-01-1.05931E-04 1.11620E-01 1.51253E-13-2.01556E-13
 -1       821 1.34654E+01 5.68639E-01 7.13631E-02-3.01327E+00 2.48559E-13 5.13417E-13
 -1       822 2.00271E+01-5.96766E-02-1.43109E-05-1.62101E-01 9.78264E-14-1.11456E-13
 -1       823 2.00414E+01-4.89301E-02-1.41259E-05-1.73640E-01 8.90527E-14-1.37170E-13
 -1       824 2.02040E+01 1.78043E+00-2.33405E-05-9.53327E-01-3.67458E-13-3.89155E-13
 -1       825 2.76579E+01 2.54861E-01-7.98157E-02-1.59603E+00 2.46157E-14-3.85632E-13
 -1       826 2.02905E+01 7.25053E-01 2.44903E-05-2.89958E-01-2.53685E-13-2.94076E-13
 -1       827 2.01257E+01 1.00726E-01-7.96093E-06-1.16202E-01 7.10679E-14-1.57770E-13
 -1       828 2.53513E+01-4.16397E+00-7.87986E-03-8.81676E-01-7.23142E-14-7.21489E-14
 -1       829 2.13322E+01-4.26499E+00 8.71799E-03-3.97934E+00-2.47559E-13 1.69066E-14
 -1       830 9.32511E+00 1.28533E-01 1.20183E-01-5.91579E-01 5.88765E-14-6.61249E-13
 -1       831 1.56526E+01-1.65736E+00 7.88842E-02-5.52098E+00 1.91715E-13 3.15165E-14
 -1       832 2.56518E+01 1.78904E+00-5.57691E-02 2.80204E+00 3.16750E-13-2.41809E-13
 -1       833 2.01704E+01 2.23524E-01-2.94733E-06-3.16099E-02 1.55076E-13-1.97858E-13
 -1       834 1.77759E+01-2.76385E+00 5.27010E-02 4.42308E+00 1.76787E-13-1.20117E-13
 -1       835 1.94395E+01-3.70402E+00 6.11465E-02 6.11314E+00 4.97952E-14-5.92394E-13
 -1       836 2.01388E+01 1.88837E+00-3.39946E-04 1.99272E-01 6.84372E-14-4.63186E-13
 -1       837 2.01272E+01 1.92685E+00-2.77217E-04 3.63553E-03-1.17167E-14-4.72964E-13
 -1       838 2.22947E+01-4.50078E+00 3.19038E-02 5.27001E+00 2.57010E-13-5.10600E-13
 -1       839 2.02190E+01 1.58193E+00-2.75018E-04 5.34380E-01 2.05424E-13-3.86716E-13
 -1       840 2.02139E+01 1.59757E+00-2.80660E-04-5.31003E-01-2.20330E-13-4.26386E-13
 -1       841 2.02536E+01 6.30081E-01-4.43391E-04 2.97111E-01 2.10952E-13-2.20070E-13
 -1       842 2.16421E+01-4.23618E+00 4.11433E-02 3.60835E+00 1.99835E-13-4.20540E-14
 -1       843 2.31067E+01-2.51606E+00 5.71962E-03 2.80721E+00 1.03315E-13-4.73164E-13
 -1       844 2.11230E+01-2.49221E+00 2.33168E-02-4.62425E+00-3.45761E-13-1.36818E-13
 -1       845 2.39707E+01 3.41045E+00-4.53755E-02-6.23487E-01 1.28885E-13-7.57202E-13
 -1       846 2.16140E+01-2.48124E+00 1.18040E-02 4.28317E+00 1.90823E-13-3.61507E-13
 -1       847 2.02719E+01 1.28016E+00-1.31155E-04-6.68971E-01-2.93014E-13-3.52519E-13
 -1       848 2.01712E+01 1.77497E+00-3.53409E-04 3.81818E-01 1.30699E-13-4.43779E-13
 -1       849 1.35478E+01-1.44761E+00 7.39849E-02-4.55155E+00-9.60421E-14-9.17010E-14
 -1       850 1.93294E+01-3.24780E+00 4.88300E-02-4.35734E+00-1.79055E-13 1.24714E-13
 -1       851 1.18099E+01 4.14037E-01 5.83927E-02 1.37270E+00 2.95616E-13-1.22858E-13
 -1       852 2.68995E+01-4.29519E+00-2.06150E-03 1.71818E+00-1.17142E-13 4.05891E-14
 -1       853 2.32021E+01-4.72370E+00 3.22585E-02-4.63100E+00 1.55490E-13 1.17940E-13
 -1       854 2.01664E+01 1.78502E+00-4.49189E-04-3.76214E-01-1.40461E-13-4.32193E-13
 -1       855 2.59050E+01 2.67086E+00-6.08275E-02-1.72553E+00-1.05981E-13-4.55408E-13
 -1       856 2.71350E+01-1.97220E+00-5.37769E-02-8.11709E-01 5.66812E-14-2.51500E-13
 -1       857 2.02785E+01 1.25129E+00 5.00745E-04-4.48500E-01-2.29441E-13-4.08921E-13
 -1       858 2.03048E+01 2.26918E-01-1.28598E-05 4.68184E-02-1.58656E-13-2.25176E-13
 -1       859 2.02688E+01 9.18206E-02-8.41752E-06 1.02457E-01-1.91425E-13-1.82951E-13
 -1       860 2.02297E+01 5.98757E-03-5.48776E-06 1.30296E-01-1.19718E-13-2.07378E-13
 -1       861 2.01918E+01-4.46831E-02-2.96877E-06 1.39218E-01-6.11061E-14-2.54688E-13
 -1       862 2.01573E+01-7.04984E-02-1.77896E-06 1.36309E-01-3.47981E-14-1.89265E-13
 -1       863 2.01270E+01-7.89141E-02-1.56847E-06 1.26962E-01-1.67640E-14-1.03035E-13
 -1       864 2.01011E+01-7.51814E-02-1.49631E-06 1.15129E-01-6.91218E-14-1.67388E-13
 -1       865 2.00792E+01-6.27956E-02-9.50661E-07 1.03698E-01-3.56336E-14-1.98330E-13
 -1       866 2.00607E+01-4.39284E-02-9.86894E-07 9.48267E-02-9.82804E-14-1.70253E-13
 -1       867 2.00444E+01-1.97220E-02-1.30729E-06 9.01658E-02-1.03065E-13-9.32368E-14
 -1       868 2.00293E+01 9.51377E-03-1.14205E-06 9.10935E-02-6.47005E-14-9.15818E-14
 -1       869 2.00140E+01 4.41014E-02-1.02322E-06 9.88794E-02-1.09565E-13 5.83372E-14
 -1       870 1.99966E+01 8.48419E-02-1.05606E-06 1.14789E-01 1.05430E-14 6.90343E-14
 -1       871 1.99752E+01 1.32883E-01-1.19591E-06 1.40147E-01-2.74187E-14 8.97474E-14
 -1       872 1.99472E+01 1.89579E-01-1.39656E-06 1.76362E-01-6.62255E-14 3.04793E-14
 -1       873 1.99095E+01 2.56323E-01-1.60159E-06 2.24899E-01-1.16563E-13 1.32233E-13
 -1       874 1.98579E+01 3.34314E-01-1.71367E-06 2.87210E-01 1.04278E-13 1.62038E-13
 -1       875 1.97876E+01 4.24225E-01-1.56074E-06 3.64639E-01 4.17398E-14 1.53455E-13
 -1       876 1.96921E+01 5.25694E-01-8.63472E-07 4.58327E-01-1.62716E-14 9.88513E-14
 -1       877 1.95639E+01 6.36544E-01 7.85815E-07 5.69210E-01-1.08356E-13-1.64905E-13
 -1       878 1.93937E+01 7.51613E-01 3.93657E-06 6.98272E-01-8.40242E-14-2.05212E-13
 -1       879 1.91712E+01 8.61008E-01 9.48860E-06 8.47359E-01-6.85211E-14-1.96863E-13
 -1       880 1.88853E+01 9.47569E-01 2.07709E-05 1.02105E+00 9.36779E-14 2.17900E-14
 -1       881 1.85262E+01 9.83288E-01 5.94264E-05 1.23034E+00-6.12887E-14 8.07288E-14
 -1       882 1.80879E+01 9.24102E-01 2.39589E-04 1.49941E+00-1.82001E-13-4.77379E-14
 -1       883 1.75784E+01 6.99426E-01 1.01485E-03 1.87571E+00-3.06618E-13-2.28803E-13
 -1       884 1.70411E+01 2.16496E-01 5.75766E-03 2.43124E+00 2.11458E-13-3.03878E-13
 -1       885 2.00795E+01-7.13196E-02-1.92380E-06-1.26331E-01 5.98733E-14-7.48609E-14
 -1       886 2.00355E+01-2.37824E-02-7.04502E-07-9.58134E-02 4.49408E-14-1.57710E-13
 -1       887 2.00251E+01 1.36214E-03 2.92458E-08-9.50067E-02 3.39405E-14-1.96765E-13
 -1       888 2.00152E+01 3.06395E-02 5.00729E-07-1.01236E-01 2.32422E-14-1.80620E-13
 -1       889 2.00049E+01 6.43112E-02 1.14320E-06-1.15811E-01 1.23335E-14-1.84480E-13
 -1       890 1.99930E+01 1.02726E-01 1.98920E-06-1.40109E-01 8.08338E-14-1.47256E-13
 -1       891 1.99784E+01 1.46076E-01 3.10929E-06-1.75608E-01 7.75461E-14-2.57163E-13
 -1       892 1.99602E+01 1.94087E-01 4.60045E-06-2.23872E-01 2.52308E-14-2.96725E-13
 -1       893 1.99374E+01 2.45609E-01 6.58573E-06-2.86495E-01-4.33416E-14-2.65143E-13
 -1       894 1.99098E+01 2.98077E-01 9.22512E-06-3.64977E-01-3.26639E-14-2.08095E-13
 -1       895 1.98780E+01 3.46806E-01 1.27371E-05-4.60557E-01-9.79722E-14-1.14765E-13
 -1       896 1.98444E+01 3.84096E-01 1.74221E-05-5.73985E-01 2.24156E-14-1.45250E-14
 -1       897 1.98142E+01 3.98163E-01 2.35903E-05-7.05210E-01-6.62359E-14 8.03053E-14
 -1       898 1.97976E+01 3.71970E-01 3.10166E-05-8.52944E-01-1.34885E-13-2.38383E-14
 -1       899 1.98115E+01 2.82179E-01 3.72567E-05-1.01388E+00-1.83460E-14-1.09020E-13
 -1       900 1.98840E+01 9.87759E-02 3.57848E-05-1.18103E+00 5.73190E-14-2.99708E-14
 -1       901 2.00578E+01-2.13224E-01 6.00999E-05-1.34009E+00-1.54542E-13-1.52936E-13
 -1       902 2.03939E+01-6.86792E-01 2.05022E-04-1.46207E+00-1.39928E-13-7.08089E-14
 -1       903 2.09712E+01-1.33469E+00 5.53196E-04-1.48943E+00-4.18817E-14 1.31330E-13
 -1       904 2.18722E+01-2.10917E+00 2.82836E-03-1.32451E+00-9.62205E-14 1.07117E-13
 -1       905 2.31408E+01-2.81927E+00 1.02394E-02-7.79008E-01-1.28976E-13-4.67784E-14
 -1       906 2.58524E+01-2.42473E+00-1.64515E-02-2.21752E-01-8.36096E-14-1.22455E-13
 -1       907 2.01931E+01 1.22838E-02-3.83195E-06-1.41622E-01 4.61145E-14-2.30004E-13
 -1       908 2.29903E+01-1.97505E+00 1.50366E-05 1.82966E+00 1.10336E-13-5.57010E-14
 -1       909 2.30206E+01-3.60573E+00-5.78686E-03-1.87223E+00-2.04088E-13-1.27209E-13
 -1       910 2.48828E+01-2.58564E+00-3.74875E-03 9.34805E-01-2.54231E-13 3.01625E-15
 -1       911 2.02692E+01 2.29087E-01-1.92057E-05-4.44472E-02 1.04336E-13-2.56273E-13
 -1       912 2.01011E+01-7.34845E-02-1.80689E-06-1.39659E-01 9.63707E-14-7.79777E-14
 -1       913 2.03381E+01 7.20402E-01-1.18719E-04-1.91601E-01-1.61002E-13-3.03977E-13
 -1       914 1.16748E+01 3.81283E-02 6.57217E-02-2.49971E+00-1.18981E-13-2.16757E-13
 -1       915 2.00475E+01-4.47597E-02-1.05553E-06-1.02336E-01 4.78044E-14-1.34912E-13
 -1       916 2.00619E+01-6.10186E-02-1.16309E-06-1.13111E-01 9.21925E-15-7.88643E-14
 -1       917 2.02313E+01 9.65605E-02-9.02882E-06-1.09015E-01 5.45537E-14-2.50536E-13
 -1       918 2.01357E+01 1.89281E+00-6.29911E-04-1.91067E-01-8.67338E-14-5.06968E-13
 -1       919 2.02999E+01 4.30197E-01-8.07153E-05 6.44058E-02 1.46059E-13-2.96552E-13
 -1       920 2.03301E+01 4.30208E-01-3.28847E-05-4.74550E-02-1.32560E-13-2.61152E-13
 -1       921 1.62791E+01-8.99027E-01 2.34721E-02 3.43868E+00 3.23798E-13-4.50074E-14
 -1       922 2.46096E+01-4.53003E+00 3.28243E-03 3.54619E+00 1.71741E-13-3.84510E-13
 -1       923 2.03025E+01 1.00347E+00-3.39276E-04 3.66677E-01 1.79670E-13-2.95225E-13
 -1       924 2.03075E+01 6.66393E-01 2.62345E-04 2.07114E-01 1.64128E-13-2.75656E-13
 -1       925 2.01579E+01-3.78519E-02-2.66294E-06-1.52560E-01 3.94827E-14-1.79795E-13
 -1       926 2.41109E+01-2.57509E+00-9.55001E-03 1.12327E+00-2.15722E-14 2.57725E-14
 -1       927 2.02756E+01 1.40539E+00 2.00651E-06 6.95655E-02 8.68653E-15-4.09735E-13
 -1       928 1.75829E+01-2.19977E+00 2.77609E-02-4.24243E+00-3.88980E-13-7.78442E-14
 -1       929 2.02844E+01 1.33777E+00-1.90605E-04 1.96571E-01 8.74945E-14-3.90282E-13
 -1       930 2.01272E+01-6.40257E-02-2.02216E-06-1.49891E-01 4.50827E-14-9.59703E-14
 -1       931 1.46035E+01 2.57201E-01 2.57284E-02 2.34722E+00 3.68195E-13-2.95944E-15
 -1       932 1.24666E+01 7.61872E-01 3.73698E-02-4.80494E-01 3.73808E-14-1.27592E-13
 -1       933 2.02536E+01 1.44871E+00 2.14024E-04-3.43302E-01-1.51460E-13-3.92185E-13
 -1       934 2.03251E+01 6.66144E-02-5.12567E-06 8.50111E-02-1.35552E-13-1.58805E-13
 -1       935 2.02836E+01-1.50241E-02-7.66434E-07 1.01450E-01-9.98414E-14-1.29788E-13
 -1       936 2.02411E+01-6.16261E-02 1.27201E-06 1.05458E-01-8.26345E-15-9.66144E-14
 -1       937 2.02004E+01-8.31565E-02 2.18713E-06 1.01928E-01 1.55041E-14-1.30378E-13
 -1       938 2.01634E+01-8.70596E-02 2.50058E-07 9.45717E-02-6.54699E-14-1.44882E-13
 -1       939 2.01304E+01-7.84788E-02 1.02244E-06 8.61249E-02-8.43735E-14-1.69654E-13
 -1       940 2.01012E+01-6.07246E-02 1.40969E-06 7.86705E-02-1.62326E-14-1.32917E-13
 -1       941 2.00749E+01-3.58878E-02-1.21134E-06 7.37550E-02-3.22159E-14-9.01905E-14
 -1       942 2.00501E+01-4.87177E-03-1.74947E-06 7.25780E-02-5.92574E-14 1.35281E-14
 -1       943 2.00253E+01 3.22531E-02-2.71746E-06 7.61868E-02-5.20307E-14 5.38899E-14
 -1       944 1.99983E+01 7.60349E-02-4.41076E-06 8.55366E-02-3.61073E-14 4.15635E-14
 -1       945 1.99665E+01 1.27482E-01-6.77425E-06 1.01544E-01 3.27515E-14 1.37075E-14
 -1       946 1.99270E+01 1.87888E-01-9.84425E-06 1.25104E-01 7.00019E-15 1.20181E-13
 -1       947 1.98759E+01 2.58636E-01-1.37410E-05 1.57060E-01 1.29857E-14 2.12590E-13
 -1       948 1.98088E+01 3.40972E-01-1.86395E-05 1.98118E-01-3.32570E-14 1.21644E-13
 -1       949 1.97200E+01 4.35703E-01-2.47801E-05 2.48740E-01 7.24181E-14 1.07530E-14
 -1       950 1.96027E+01 5.42794E-01-3.25440E-05 3.09013E-01-1.36894E-14 2.04097E-15
 -1       951 1.94485E+01 6.60823E-01-4.26305E-05 3.78577E-01-1.24061E-13-6.12962E-15
 -1       952 1.92469E+01 7.86259E-01-5.63545E-05 4.56714E-01-1.96479E-13 1.26001E-13
 -1       953 1.89851E+01 9.12524E-01-7.58532E-05 5.42840E-01-2.77058E-15 4.23366E-14
 -1       954 1.86465E+01 1.02882E+00-1.03105E-04 6.37775E-01 6.69093E-14 1.34909E-13
 -1       955 1.82099E+01 1.11870E+00-1.31167E-04 7.46364E-01 3.63281E-15 2.44971E-14
 -1       956 1.76460E+01 1.15835E+00-9.83335E-05 8.82176E-01-2.11703E-13-3.05893E-14
 -1       957 1.69124E+01 1.11510E+00 7.53477E-04 1.07598E+00-2.27432E-13 1.56999E-13
 -1       958 1.59425E+01 9.37567E-01 7.52373E-05 1.38643E+00-7.48637E-14 1.97313E-13
 -1       959 2.00060E+01 5.88856E-02 4.22207E-08-9.30815E-02-7.03644E-14-2.38219E-13
 -1       960 2.00274E+01 2.07199E-02 1.40897E-06-8.38250E-02 6.17328E-14-2.68641E-13
 -1       961 2.00479E+01-1.21130E-02 2.73405E-06-8.10748E-02 1.09980E-13-1.58024E-13
 -1       962 1.99819E+01 1.02782E-01-1.35614E-06-1.10078E-01 1.32705E-14-2.37435E-13
 -1       963 1.99532E+01 1.52823E-01-2.79874E-06-1.36169E-01 1.69006E-13-2.00777E-13
 -1       964 1.99178E+01 2.09133E-01-4.28603E-06-1.72881E-01 7.96216E-14-8.34406E-14
 -1       965 1.98737E+01 2.71160E-01-5.81463E-06-2.21940E-01-3.08709E-14-9.01370E-14
 -1       966 1.98191E+01 3.37186E-01-7.36733E-06-2.85294E-01-1.76799E-13-1.93225E-13
 -1       967 1.97527E+01 4.03685E-01-8.89574E-06-3.65126E-01-1.60883E-13-1.62039E-14
 -1       968 1.96744E+01 4.64517E-01-1.02934E-05-4.63905E-01-1.16019E-13-1.40753E-15
 -1       969 1.95861E+01 5.09936E-01-1.14190E-05-5.84476E-01-2.98560E-14-6.03278E-15
 -1       970 1.94933E+01 5.25413E-01-1.25067E-05-7.30208E-01 3.77187E-14-3.91181E-14
 -1       971 1.94067E+01 4.90315E-01-1.59143E-05-9.05156E-01-7.16718E-14-6.67941E-15
 -1       972 1.93457E+01 3.76489E-01-3.10551E-05-1.11403E+00-4.46789E-15 7.89922E-14
 -1       973 1.93440E+01 1.46785E-01-3.47720E-05-1.36109E+00-3.83511E-15 2.17619E-14
 -1       974 1.94552E+01-2.44195E-01 4.42439E-05-1.64522E+00-1.29449E-13-7.28977E-15
 -1       975 1.97659E+01-8.47212E-01 1.49565E-03-1.95238E+00-2.28932E-13-1.72285E-13
 -1       976 2.03994E+01-1.70327E+00 1.14885E-03-2.22205E+00-1.04428E-13-1.53783E-13
 -1       977 2.03887E+01-2.77194E+00 1.41760E-02-3.23445E+00-1.77498E-13-7.14281E-14
 -1       978 2.03368E+01 2.08915E-01-1.10203E-05-5.15300E-02 8.33747E-14-2.45826E-13
 -1       979 2.02979E+01 1.20397E+00-1.57152E-04 3.01740E-01 1.59567E-13-3.75629E-13
 -1       980 2.02277E+01 1.57307E+00-3.24954E-04-2.01985E-01-9.81411E-14-4.67220E-13
 -1       981 1.50553E+01-7.37226E-01 3.24442E-02-3.58870E+00-5.06322E-14-8.50734E-14
 -1       982 2.00690E+01-3.97464E-02 2.14999E-06-8.36361E-02 8.24461E-14-5.20185E-14
 -1       983 2.02760E+01 1.40684E+00 5.01360E-04-6.51202E-02-3.11943E-14-4.11056E-13
 -1       984 2.03588E+01 4.07743E-01-1.46924E-05 2.26880E-02 8.36913E-14-2.55478E-13
 -1       985 2.01485E+01-8.36365E-02 5.21441E-06-1.09639E-01 5.41811E-14-9.60065E-14
 -1       986 2.03602E+01 1.96628E-01-2.23952E-05 5.01309E-02-1.37867E-13-1.68060E-13
 -1       987 2.14078E+01-2.52720E+00 3.79441E-03-2.17029E+00-6.21329E-14-1.97415E-13
 -1       988 2.03760E+01 6.73925E-01 8.69888E-05-1.04211E-01-1.05191E-13-3.19411E-13
 -1       989 2.03813E+01 3.91847E-01 1.05522E-05-9.68474E-03-8.12474E-14-2.15650E-13
 -1       990 2.03015E+01 7.70965E-02 4.63536E-06-9.49554E-02 2.00666E-14-2.47555E-13
 -1       991 2.03370E+01 1.06835E+00-6.16288E-04-1.71022E-01-9.16842E-14-3.85407E-13
 -1       992 2.03545E+01 6.41217E-01-2.26180E-04 1.22291E-01 1.35111E-13-3.24681E-13
 -1       993 2.03686E+01 9.97803E-01 3.85844E-06 1.21906E-03-2.99986E-15-3.69330E-13
 -1       994 2.01184E+01-7.71365E-02 4.91054E-06-9.95698E-02 5.75985E-14 6.24719E-15
 -1       995 2.03402E+01 8.97610E-01 6.66116E-04 2.09624E-01 1.61086E-13-3.83269E-13
 -1       996 2.02613E+01-6.17436E-03 8.69251E-06-1.15916E-01 2.96255E-14-2.12248E-13
 -1       997 1.82550E+01-1.35005E+00 6.49713E-03-3.18369E+00-1.02575E-13-8.31223E-14
 -1       998 2.01827E+01-7.78524E-02 1.72134E-06-1.18145E-01 7.31510E-14-1.48315E-13
 -1       999 1.42146E+01 3.99042E-01 1.41489E-02-2.11004E+00-9.77789E-14-1.76758E-13
 -1      1000 2.03705E+01 9.65091E-01 2.25454E-04 7.95681E-02 6.52109E-14-3.08415E-13
 -1      1001 1.44274E+01 1.02475E+00 7.81607E-03 5.61315E-01 3.94859E-14 1.54173E-13
 -1      1002 2.00921E+01-6.18272E-02 1.29887E-06-9.02902E-02 4.07364E-14 2.40387E-14
 -1      1003 1.94688E+01-1.61322E+00 1.87735E-03-2.75817E+00-1.42353E-13-2.64511E-13
 -1      1004 2.03540E+01 3.27853E-02-2.91518E-05 5.87896E-02-9.10843E-14-1.65439E-13
 -1      1005 1.50115E+01 9.93727E-01 2.10062E-03-8.35381E-01-6.34167E-14-1.52749E-13
 -1      1006 2.03094E+01-3.88068E-02-1.63129E-05 6.61589E-02-2.44330E-14-1.27785E-13
 -1      1007 2.02634E+01-7.72694E-02 8.64977E-06 6.67954E-02 6.28884E-16-1.23730E-13
 -1      1008 2.02190E+01-9.20587E-02-6.54137E-06 6.37236E-02-8.37865E-15-1.06739E-13
 -1      1009 2.01779E+01-9.00285E-02-7.53282E-07 5.88918E-02-5.33186E-14-3.00231E-14
 -1      1010 2.01405E+01-7.58524E-02 6.53335E-06 5.38849E-02-6.27601E-14-1.22457E-13
 -1      1011 2.01065E+01-5.25705E-02-4.80278E-06 5.00877E-02 2.45957E-14-1.16947E-13
 -1      1012 2.00746E+01-2.19601E-02-3.62432E-06 4.81922E-02 1.99580E-15-8.75529E-14
 -1      1013 2.00432E+01 1.54928E-02-7.97590E-06 4.90047E-02-2.46009E-14-3.90299E-14
 -1      1014 2.00101E+01 5.99090E-02-1.33916E-05 5.31294E-02-2.62615E-14 5.15160E-14
 -1      1015 1.99727E+01 1.12043E-01-2.05460E-05 6.10655E-02-2.58783E-14 5.35358E-14
 -1      1016 1.99276E+01 1.73018E-01-2.93372E-05 7.32356E-02 8.59081E-14 5.07796E-15
 -1      1017 1.98711E+01 2.44102E-01-3.98747E-05 8.99308E-02 4.36765E-14 6.11938E-14
 -1      1018 1.97985E+01 3.26469E-01-5.23856E-05 1.11224E-01-1.06018E-13 2.49781E-14
 -1      1019 1.97045E+01 4.20895E-01-6.72154E-05 1.36835E-01-3.64425E-14 6.11115E-14
 -1      1020 1.95823E+01 5.27401E-01-8.49626E-05 1.65968E-01 6.74743E-14-1.24971E-14
 -1      1021 1.94241E+01 6.44809E-01-1.06811E-04 1.97117E-01-5.02240E-14 1.27270E-14
 -1      1022 1.92200E+01 7.70221E-01-1.35144E-04 2.27931E-01-1.12477E-13-4.00850E-14
 -1      1023 1.89581E+01 8.98462E-01-1.74287E-04 2.55191E-01-7.18535E-14 4.64226E-14
 -1      1024 1.86221E+01 1.02157E+00-2.29967E-04 2.75111E-01 7.08925E-15 4.54059E-14
 -1      1025 1.81898E+01 1.12847E+00-3.04474E-04 2.84213E-01 3.58178E-14-4.69904E-14
 -1      1026 1.76282E+01 1.20468E+00-3.96140E-04 2.81304E-01-6.94447E-14 5.27313E-14
 -1      1027 1.68878E+01 1.23230E+00 5.46775E-05 2.67622E-01-3.45998E-14 1.19828E-13
 -1      1028 1.58830E+01 1.19182E+00 7.66148E-04 2.60484E-01-1.73837E-13 2.01485E-13
 -1      1029 1.99472E+01 1.47115E-01-1.58376E-05-9.13810E-02 1.04755E-14-7.13864E-14
 -1      1030 1.99848E+01 9.31599E-02-9.81610E-06-7.49728E-02-2.39470E-14-1.63897E-13
 -1      1031 1.99013E+01 2.08616E-01-2.22329E-05-1.15476E-01 4.25880E-14-2.63400E-14
 -1      1032 1.98443E+01 2.77734E-01-2.88410E-05-1.48812E-01 7.67157E-14-6.40237E-14
 -1      1033 1.97730E+01 3.53691E-01-3.54123E-05-1.93312E-01-3.04379E-14-1.41526E-13
 -1      1034 1.96845E+01 4.34320E-01-4.15837E-05-2.51398E-01-2.59363E-13-1.62278E-13
 -1      1035 1.95762E+01 5.15396E-01-4.68691E-05-3.26183E-01-2.75984E-13-8.18815E-14
 -1      1036 1.94465E+01 5.89815E-01-5.07285E-05-4.21771E-01-8.72598E-14-4.93187E-14
 -1      1037 1.92954E+01 6.46627E-01-5.30778E-05-5.43721E-01-4.57466E-14-1.66032E-13
 -1      1038 1.91259E+01 6.69900E-01-5.65807E-05-6.99741E-01-1.32527E-13-4.00543E-14
 -1      1039 1.89455E+01 6.37395E-01-7.28134E-05-9.00640E-01-1.09475E-13 1.43232E-13
 -1      1040 1.87689E+01 5.19020E-01-1.29693E-04-1.16157E+00 3.81100E-14 1.92123E-13
 -1      1041 1.86224E+01 2.72993E-01-7.04182E-04-1.50616E+00-8.68963E-15 1.39207E-13
 -1      1042 1.85720E+01-1.62672E-01-3.23773E-04-1.95368E+00-1.32759E-14 2.99800E-14
 -1      1043 1.88530E+01-7.80170E-01-2.48787E-03-2.36132E+00-1.20838E-13-1.94169E-13
 -1      1044 2.03684E+01 9.69428E-01 2.31132E-04-7.86549E-02-5.73598E-14-3.74025E-13
 -1      1045 2.02207E+01-5.44260E-02 5.84515E-06-1.21712E-01 9.69491E-15-1.91724E-13
 -1      1046 2.04114E+01 5.84064E-01 4.07470E-05-3.82226E-02-2.03235E-14-3.58316E-13
 -1      1047 2.00171E+01 4.62610E-02-4.26655E-06-6.49719E-02 4.51777E-14 4.87330E-16
 -1      1048 2.03570E+01 9.52368E-01 5.48983E-04 1.48617E-01 1.12058E-13-3.14681E-13
 -1      1049 2.00750E+01-2.84032E-02 6.06828E-06-5.99792E-02 1.67720E-13-8.97650E-14
 -1      1050 2.04002E+01 3.55176E-01 8.04963E-06-4.53987E-03 4.46286E-14-2.62139E-13
 -1      1051 2.03791E+01 1.69021E-01-4.58364E-05-4.79162E-02 3.89275E-14-1.87191E-13
 -1      1052 2.03915E+01 1.49926E-01-5.31736E-05 4.13080E-02-1.16430E-13-2.36224E-13
 -1      1053 2.00464E+01 5.85314E-03 8.46604E-07-6.02948E-02 1.00574E-13-2.17142E-14
 -1      1054 2.04137E+01 3.29267E-01 5.40886E-05 9.94707E-03-8.16351E-14-3.00156E-13
 -1      1055 1.78596E+01-4.88432E-01 2.88487E-03-2.52833E+00-6.54085E-14 9.53886E-14
 -1      1056 2.04175E+01 6.66516E-01 2.24061E-04-1.78322E-02-1.74844E-14-3.09374E-13
 -1      1057 2.03953E+01 5.75373E-01-2.52119E-04 5.62139E-02 5.72059E-14-2.89729E-13
 -1      1058 2.03428E+01 4.65804E-02-1.32345E-05-7.24600E-02 2.03656E-14-2.17708E-13
 -1      1059 2.02120E+01-8.86595E-02-1.15724E-05-8.12484E-02 5.74765E-15-7.14773E-14
 -1      1060 2.01046E+01-5.63800E-02-4.18441E-06-6.30174E-02 1.32319E-13 2.60582E-14
 -1      1061 2.01725E+01-8.90169E-02 1.46045E-05-7.51079E-02-2.59403E-14-7.71802E-14
 -1      1062 2.04188E+01 6.62191E-01-3.48404E-04 1.67758E-02-1.99292E-15-2.90610E-13
 -1      1063 1.58677E+01 6.61800E-02 6.41726E-03-2.46069E+00-4.09896E-14-1.37928E-13
 -1      1064 1.68334E+01 4.41994E-01 1.58786E-03-1.80960E+00-4.79380E-15-6.96644E-14
 -1      1065 2.03590E+01-2.67348E-03 8.89010E-05 2.46262E-02-1.34399E-14-1.35931E-13
 -1      1066 2.03102E+01-6.01244E-02-1.71134E-05 2.61614E-02-4.81001E-14-1.58782E-13
 -1      1067 2.02628E+01-8.92679E-02-3.25578E-05 2.54694E-02 5.78404E-15-1.77470E-13
 -1      1068 2.02176E+01-9.57662E-02 4.01143E-05 2.40315E-02-1.33556E-14-1.71847E-13
 -1      1069 2.01739E+01-8.68465E-02-4.73400E-05 2.23640E-02-9.46155E-14-1.28698E-13
 -1      1070 2.01352E+01-6.76397E-02-1.10090E-07 2.05434E-02 5.67729E-15-5.69487E-14
 -1      1071 2.00991E+01-3.92844E-02 1.33288E-05 1.94494E-02 2.19546E-14-1.17600E-13
 -1      1072 2.00638E+01-3.44366E-03 1.89684E-05 1.93543E-02 6.27599E-14-8.27909E-14
 -1      1073 2.00277E+01 3.94978E-02 1.91593E-05 2.02809E-02 1.53302E-14-1.77176E-14
 -1      1074 1.99882E+01 9.00055E-02 2.01509E-05 2.23739E-02-7.37915E-15 6.55783E-14
 -1      1075 1.99423E+01 1.48953E-01 2.26365E-05 2.56394E-02 2.80110E-15 9.20808E-14
 -1      1076 1.98861E+01 2.17422E-01 2.64491E-05 2.99100E-02 2.94616E-14-1.30349E-13
 -1      1077 1.98155E+01 2.96438E-01 3.11484E-05 3.47607E-02 4.48308E-14-1.15593E-13
 -1      1078 1.97253E+01 3.86664E-01 3.59827E-05 3.93747E-02-4.49718E-14 3.40699E-14
 -1      1079 1.96098E+01 4.88030E-01 3.96981E-05 4.23571E-02-7.91358E-14 7.51421E-15
 -1      1080 1.94621E+01 5.99307E-01 4.02165E-05 4.14915E-02-9.92966E-14-7.55461E-14
 -1      1081 1.92743E+01 7.17612E-01 3.40973E-05 3.34377E-02-6.12841E-14-2.40690E-13
 -1      1082 1.90366E+01 8.37911E-01 1.56321E-05 1.33730E-02-7.19026E-14-3.19868E-13
 -1      1083 1.87368E+01 9.52573E-01-2.45387E-05-2.54400E-02 6.19483E-15-1.58042E-13
 -1      1084 1.83585E+01 1.05112E+00-1.00311E-04-9.22458E-02-4.98641E-15-1.35989E-13
 -1      1085 1.78777E+01 1.12035E+00-2.29616E-04-1.99876E-01-7.22703E-14-4.01034E-14
 -1      1086 1.72549E+01 1.14500E+00-6.85320E-04-3.66975E-01-1.98515E-13-9.10413E-14
 -1      1087 1.64611E+01 1.08700E+00-2.85896E-03-6.11752E-01-1.08865E-13-4.13932E-13
 -1      1088 1.98429E+01 2.66807E-01-1.61250E-05-7.57839E-02 1.38366E-13 1.22025E-13
 -1      1089 1.97645E+01 3.48122E-01-2.41429E-05-1.00414E-01 5.62029E-14 1.03824E-13
 -1      1090 1.96659E+01 4.37559E-01-3.47096E-05-1.34200E-01-1.10425E-13 6.46045E-14
 -1      1091 1.95425E+01 5.32740E-01-4.73496E-05-1.80055E-01-2.03185E-13-9.33759E-16
 -1      1092 1.93897E+01 6.29158E-01-6.07437E-05-2.42043E-01-2.18659E-13-1.28530E-13
 -1      1093 1.92033E+01 7.19454E-01-7.25200E-05-3.25901E-01-2.22487E-14-3.53084E-14
 -1      1094 1.89792E+01 7.92617E-01-8.04723E-05-4.39816E-01 2.65102E-14-1.21092E-13
 -1      1095 1.87140E+01 8.33085E-01-9.03422E-05-5.95582E-01-1.97506E-13-3.18254E-13
 -1      1096 1.84058E+01 8.19612E-01-1.44371E-04-8.10276E-01-3.53021E-14-4.32680E-13
 -1      1097 1.80547E+01 7.23360E-01-3.63703E-04-1.10834E+00-6.99803E-14-2.69808E-13
 -1      1098 1.76656E+01 5.13365E-01 1.46416E-03-1.52708E+00-4.83266E-14 7.08332E-14
 -1      1099 2.02996E+01-2.91560E-02 3.85203E-06-8.31968E-02-1.19459E-14-2.10163E-13
 -1      1100 2.01368E+01-7.72136E-02 3.28343E-06-6.85509E-02-6.98884E-15 7.23871E-14
 -1      1101 2.02549E+01-7.09150E-02 3.74725E-06-8.50374E-02 2.25448E-14-1.39814E-13
 -1      1102 1.99978E+01 7.61146E-02-5.79247E-06-3.84101E-02 8.16126E-14 1.26129E-13
 -1      1103 2.04005E+01 9.65873E-02 1.03092E-04 1.97714E-02-2.11603E-14-1.89287E-13
 -1      1104 2.04291E+01 2.51451E-01-3.55651E-06 9.36744E-03-3.60677E-14-2.82361E-13
 -1      1105 2.00689E+01-1.17212E-02-3.11151E-06-3.26681E-02 9.02523E-14 9.53739E-14
 -1      1106 1.99558E+01 1.31135E-01-7.35048E-06-4.61298E-02-6.70907E-14 1.47353E-13
 -1      1107 2.04225E+01 2.84278E-01 1.43809E-05-1.29266E-02-1.55032E-14-2.10436E-13
 -1      1108 2.00346E+01 2.86951E-02-5.11001E-06-3.41617E-02 9.49717E-14 3.82352E-14
 -1      1109 2.04341E+01 4.28884E-01-1.69357E-04-3.43254E-03-2.11476E-14-3.18813E-13
 -1      1110 1.99054E+01 1.94502E-01-1.06285E-05-5.82041E-02-3.59212E-14 1.42653E-13
 -1      1111 2.01028E+01-4.55615E-02-2.40425E-05-3.33467E-02 4.44831E-14-1.30197E-13
 -1      1112 2.02629E+01-8.39677E-02-6.80696E-05-4.49547E-02-5.03665E-14-6.84178E-14
 -1      1113 2.04251E+01 5.20898E-01 2.79408E-04 1.69890E-02 9.37837E-15-2.63384E-13
 -1      1114 2.02197E+01-9.55668E-02-8.60058E-05-4.22306E-02 6.72361E-15-1.48801E-13
 -1      1115 2.03993E+01 1.18665E-01 1.80475E-05-3.07315E-02 4.61345E-14-1.80241E-13
 -1      1116 2.02898E+01-7.83197E-02 2.65553E-04-1.56623E-02-5.52764E-14-1.76130E-13
 -1      1117 2.01561E+01-7.87856E-02 1.87697E-04-1.27246E-02 9.56146E-15-1.75636E-13
 -1      1118 2.03594E+01 1.15925E-02-1.06257E-05-4.10050E-02 5.38466E-15-1.75591E-13
 -1      1119 2.03131E+01-5.26296E-02-7.72347E-05-4.47871E-02-4.83979E-14-1.69421E-13
 -1      1120 2.01775E+01-8.92612E-02-7.87170E-05-3.87052E-02-1.99439E-14-1.75429E-13
 -1      1121 2.01373E+01-7.10462E-02-4.68334E-05-3.56196E-02 3.78249E-14-2.75513E-13
 -1      1122 2.04344E+01 3.83283E-01-8.08012E-05-9.12427E-04-5.68889E-15-2.47269E-13
 -1      1123 2.79640E+01 9.08687E+00 2.32539E+00-6.69824E+00-5.57332E-14 2.22519E-12
 -1      1124 2.05480E+01 6.22731E+00 2.09687E-01-3.90382E+00-3.30569E-14 4.55344E-13
 -1      1125 1.94346E+01 5.85293E+00 7.51456E-02-2.88794E+00-2.49245E-14-3.41362E-13
 -1      1126 1.90261E+01 5.72595E+00 6.03538E-02-2.23526E+00-1.78017E-14-7.20798E-13
 -1      1127 1.88400E+01 5.66936E+00 5.78229E-02-1.70139E+00-1.21621E-14-9.23178E-13
 -1      1128 1.87457E+01 5.64039E+00 5.55630E-02-1.23411E+00-8.24861E-15-1.01661E-12
 -1      1129 1.86966E+01 5.62513E+00 5.37710E-02-8.04342E-01-5.48043E-15-1.05833E-12
 -1      1130 1.86726E+01 5.61754E+00 5.25247E-02-3.92853E-01-3.00302E-15-1.07382E-12
 -1      1131 1.86657E+01 5.61536E+00 5.21286E-02 8.47336E-03-1.89627E-16-1.07060E-12
 -1      1132 1.86737E+01 5.61789E+00 5.26409E-02 4.10210E-01 2.94231E-15-1.06148E-12
 -1      1133 1.86989E+01 5.62587E+00 5.40293E-02 8.23053E-01 6.89206E-15-1.03164E-12
 -1      1134 1.87497E+01 5.64177E+00 5.62370E-02 1.25547E+00 9.66068E-15-9.76665E-13
 -1      1135 1.88450E+01 5.67104E+00 5.84492E-02 1.72726E+00 1.32186E-14-8.70300E-13
 -1      1136 1.90316E+01 5.72762E+00 6.04037E-02 2.26831E+00 1.85754E-14-6.68805E-13
 -1      1137 1.94315E+01 5.85022E+00 6.92269E-02 2.92847E+00 2.45082E-14-2.75995E-13
 -1      1138 2.04542E+01 6.18227E+00 1.53308E-01 3.87854E+00 3.10862E-14 5.20674E-13
 -1      1139 2.52182E+01 7.99464E+00 1.43047E+00 5.84646E+00 7.07212E-14 2.23679E-12
 -1      1140 2.88138E+01 3.61636E+00 1.27127E+00-4.21711E+00-2.35756E-13 3.36398E-12
 -1      1141 2.02288E+01-1.77712E-01-6.16292E-01-1.09924E-01-7.57727E-14 2.81145E-12
 -1      1142 1.88346E+01-9.63775E-02-2.36349E-01 6.25291E-02-3.66079E-14 2.00369E-12
 -1      1143 1.85009E+01-4.80607E-02-5.95573E-02 4.05332E-02-2.23298E-14 1.47217E-12
 -1      1144 1.84459E+01-2.46100E-02-1.51596E-02 2.68034E-02-7.64449E-15 1.09284E-12
 -1      1145 1.85278E+01-1.30447E-02-4.95257E-03 1.90679E-02-1.43765E-14 8.45022E-13
 -1      1146 1.86746E+01-6.60327E-03-1.46037E-03 1.41283E-02-9.33390E-16 6.31098E-13
 -1      1147 1.88470E+01-2.82515E-03 5.81412E-04 1.06995E-02-8.36299E-15 4.73744E-13
 -1      1148 1.90224E+01-5.87770E-04 1.90911E-03 8.15969E-03-7.49087E-15 2.41273E-13
 -1      1149 1.91879E+01 7.08882E-04 2.66027E-03 6.20068E-03-1.08091E-14 6.24847E-14
 -1      1150 1.93367E+01 1.40560E-03 2.97071E-03 4.65858E-03-1.07107E-14-8.97893E-14
 -1      1151 1.94659E+01 1.71090E-03 2.97350E-03 3.43471E-03 9.90633E-15-1.30423E-13
 -1      1152 1.95748E+01 1.75851E-03 2.77415E-03 2.46233E-03-2.47838E-15-1.89963E-13
 -1      1153 1.96646E+01 1.63573E-03 2.44685E-03 1.69195E-03 9.98480E-15-1.09562E-13
 -1      1154 1.97376E+01 1.39857E-03 2.03914E-03 1.08490E-03-2.03953E-15-2.00414E-13
 -1      1155 1.97963E+01 1.08048E-03 1.57722E-03 6.10597E-04-5.78128E-15-3.44807E-13
 -1      1156 1.98441E+01 6.97818E-04 1.07030E-03 2.45522E-04 4.68525E-15-4.67034E-13
 -1      1157 1.98845E+01 2.53613E-04 5.13561E-04-2.69056E-05-9.34742E-15-4.52297E-13
 -1      1158 1.99214E+01-2.59971E-04-1.09774E-04-2.15904E-04-1.47483E-14-6.44722E-13
 -1      1159 1.99595E+01-8.59818E-04-8.27205E-04-3.22415E-04 1.31441E-15-7.25596E-13
 -1      1160 2.00037E+01-1.57053E-03-1.67637E-03-3.37616E-04-1.25263E-14-5.10315E-13
 -1      1161 2.00602E+01-2.42322E-03-2.70486E-03-2.40633E-04-1.17220E-14-4.89496E-13
 -1      1162 2.01363E+01-3.45392E-03-3.97014E-03 4.89374E-06-1.34576E-14-5.04155E-13
 -1      1163 2.02412E+01-4.70068E-03-5.53841E-03 4.55850E-04-6.42053E-14-6.57153E-13
 -1      1164 2.03859E+01-6.19764E-03-7.48074E-03 1.19678E-03 1.31001E-14-6.57548E-13
 -1      1165 2.05841E+01-7.96301E-03-9.86185E-03 2.34936E-03 5.54591E-15-4.41556E-13
 -1      1166 2.08527E+01-9.97519E-03-1.27131E-02 4.08335E-03 3.41324E-14-5.51195E-13
 -1      1167 2.12112E+01-1.21277E-02-1.59722E-02 6.62515E-03-3.95941E-14-7.22156E-13
 -1      1168 2.16821E+01-1.41485E-02-1.93585E-02 1.02522E-02-4.37989E-14-7.93235E-13
 -1      1169 2.22879E+01-1.54643E-02-2.21343E-02 1.52444E-02 2.36258E-14-7.74793E-13
 -1      1170 2.30464E+01-1.49983E-02-2.26928E-02 2.17298E-02-4.96528E-14-4.94126E-13
 -1      1171 2.39595E+01-1.09259E-02-1.79752E-02 2.93069E-02 3.56956E-14-4.00395E-13
 -1      1172 2.49931E+01-5.45740E-04-2.98277E-03 3.62764E-02 2.18436E-14-3.97765E-13
 -1      1173 2.60442E+01 1.92861E-02 2.86374E-02 3.83953E-02-2.84820E-15-3.64590E-13
 -1      1174 2.68987E+01 5.01932E-02 8.08242E-02 2.76075E-02-5.74749E-14-9.77281E-13
 -1      1175 2.72039E+01 8.77202E-02 1.45532E-01-7.11978E-03 4.23264E-14-1.02683E-12
 -1      1176 2.65170E+01 1.14345E-01 1.89974E-01-7.25898E-02 3.79505E-14-8.56912E-13
 -1      1177 2.45224E+01 9.86146E-02 1.57518E-01-1.55102E-01-4.04312E-14-8.07354E-13
 -1      1178 2.14245E+01 1.49816E-02 9.29501E-03-2.07216E-01 6.68551E-14-6.81649E-13
 -1      1179 1.82309E+01-1.11159E-01-2.02372E-01-1.69257E-01-1.18178E-14-7.41573E-13
 -1      1180 1.63997E+01-1.88158E-01-3.27314E-01-3.46870E-02 5.13305E-15-7.49296E-13
 -1      1181 1.67959E+01-1.45537E-01-2.57642E-01 1.16181E-01 8.09769E-15-9.81035E-13
 -1      1182 1.89395E+01-2.44683E-02-5.54871E-02 1.87163E-01 4.26005E-15-8.21287E-13
 -1      1183 2.14358E+01 7.85175E-02 1.24276E-01 1.56409E-01-7.03456E-14-1.02973E-12
 -1      1184 2.30555E+01 1.12300E-01 1.90404E-01 7.37520E-02-7.12590E-14-1.15051E-12
 -1      1185 2.33641E+01 8.92396E-02 1.55391E-01-3.83692E-03 7.17221E-14-3.15930E-13
 -1      1186 2.26121E+01 4.07917E-02 7.21054E-02-4.96824E-02-5.68417E-14 6.32203E-14
 -1      1187 2.13675E+01-1.10941E-02-1.78993E-02-5.75922E-02 2.32767E-14 1.55084E-14
 -1      1188 2.02872E+01-5.55380E-02-7.36786E-02-2.29698E-02-4.59580E-14-1.91347E-13
 -1      1189 1.99436E+01 1.75780E-02 2.57551E-02 2.06588E-02 4.36873E-14-3.25638E-14
 -1      1190 2.77933E+01 5.25754E-01 3.77007E-01 1.96668E+00-3.86566E-14 3.66224E-12
 -1      1191 2.00863E+01-6.62468E-02-5.73633E-01 1.29461E-01 2.90462E-14 2.83934E-12
 -1      1192 1.89094E+01-4.06133E-02-1.93235E-01 1.94097E-02 1.18646E-14 2.08794E-12
 -1      1193 1.85298E+01-2.14271E-02-5.05691E-02 1.45419E-03 1.84275E-14 1.54897E-12
 -1      1194 1.84586E+01-1.24152E-02-1.34205E-02-4.08516E-03 1.22014E-14 1.12613E-12
 -1      1195 1.85341E+01-7.40907E-03-4.67455E-03-5.54381E-03 1.13436E-14 8.38406E-13
 -1      1196 1.86779E+01-4.32860E-03-1.94130E-03-5.73617E-03-8.37373E-15 7.09403E-13
 -1      1197 1.88486E+01-2.35252E-03-3.49131E-04-5.45953E-03 3.66243E-15 6.03708E-13
 -1      1198 1.90231E+01-1.07503E-03 7.76678E-04-4.96516E-03 9.86979E-15 4.82734E-13
 -1      1199 1.91881E+01-2.64168E-04 1.49525E-03-4.36716E-03 1.27259E-15 3.44132E-13
 -1      1200 1.93366E+01 2.26252E-04 1.87002E-03-3.73230E-03 2.38530E-14 1.45059E-13
 -1      1201 1.94657E+01 4.93371E-04 1.98745E-03-3.10210E-03 1.40423E-14 5.99117E-14
 -1      1202 1.95747E+01 6.02998E-04 1.92507E-03-2.50114E-03 9.61789E-15-4.11784E-14
 -1      1203 1.96647E+01 5.99343E-04 1.74032E-03-1.94186E-03 3.71308E-15-2.20800E-13
 -1      1204 1.97379E+01 5.10801E-04 1.47086E-03-1.42797E-03 1.41293E-14-4.50082E-13
 -1      1205 1.97971E+01 3.53697E-04 1.13762E-03-9.57129E-04 3.64675E-15-5.34046E-13
 -1      1206 1.98455E+01 1.34943E-04 7.47788E-04-5.23291E-04-3.55904E-15-3.06078E-13
 -1      1207 1.98867E+01-1.45884E-04 2.97451E-04-1.18800E-04 2.78896E-14-3.17825E-13
 -1      1208 1.99246E+01-4.94655E-04-2.26138E-04 2.63535E-04 1.12369E-14-5.38554E-13
 -1      1209 1.99636E+01-9.20613E-04-8.42149E-04 6.28210E-04 1.23464E-14-6.12999E-13
 -1      1210 2.00088E+01-1.43371E-03-1.57317E-03 9.74386E-04-9.39217E-16-4.06133E-13
 -1      1211 2.00657E+01-2.04078E-03-2.44091E-03 1.29258E-03-3.91224E-14-6.88338E-14
 -1      1212 2.01406E+01-2.73981E-03-3.45946E-03 1.56039E-03 3.32695E-14-3.32619E-13
 -1      1213 2.02410E+01-3.51124E-03-4.62466E-03 1.73694E-03-3.62164E-14-6.02804E-13
 -1      1214 2.03748E+01-4.30501E-03-5.89716E-03 1.75601E-03-2.26108E-14-5.22807E-13
 -1      1215 2.05503E+01-5.02206E-03-7.17630E-03 1.51837E-03 5.67336E-14-5.55293E-13
 -1      1216 2.07756E+01-5.48954E-03-8.26149E-03 8.85039E-04-3.12635E-14-6.52097E-13
 -1      1217 2.10567E+01-5.43163E-03-8.79945E-03-3.23726E-04 9.97227E-15-7.22387E-13
 -1      1218 2.13954E+01-4.44423E-03-8.22208E-03-2.31382E-03-4.23527E-14-6.17085E-13
 -1      1219 2.17853E+01-1.99488E-03-5.69724E-03-5.26839E-03-1.17546E-14-3.85417E-13
 -1      1220 2.22063E+01 2.50784E-03-1.50936E-04-9.23582E-03 3.07053E-14-4.68483E-13
 -1      1221 2.26184E+01 9.50471E-03 9.52212E-03-1.39221E-02 1.18550E-14-4.91825E-13
 -1      1222 2.29541E+01 1.88553E-02 2.38861E-02-1.83819E-02-5.17559E-14 1.01238E-13
 -1      1223 2.31162E+01 2.91884E-02 4.18850E-02-2.06982E-02 2.86910E-14 8.13303E-14
 -1      1224 2.29845E+01 3.72714E-02 5.94265E-02-1.79606E-02 2.70769E-14-2.15140E-13
 -1      1225 2.24432E+01 3.81749E-02 6.85994E-02-7.10622E-03-4.31859E-15-7.16888E-13
 -1      1226 2.14345E+01 2.72843E-02 5.95343E-02 1.29177E-02 3.35105E-15-1.30426E-12
 -1      1227 2.00277E+01 4.19598E-03 2.62691E-02 3.82934E-02-2.03830E-17-1.42808E-12
 -1      1228 1.84650E+01-2.40506E-02-2.54937E-02 5.93382E-02 3.48311E-15-1.32323E-12
 -1      1229 1.71254E+01-4.47292E-02-7.58940E-02 6.42714E-02-4.85497E-14-1.08256E-12
 -1      1230 1.63822E+01-4.75729E-02-1.00219E-01 4.73213E-02 3.75897E-14-1.07217E-12
 -1      1231 1.64139E+01-3.26936E-02-8.61622E-02 1.44818E-02-5.67480E-14-4.88425E-13
 -1      1232 1.71042E+01-1.00353E-02-4.33412E-02-1.93177E-02-2.68065E-14-6.59410E-13
 -1      1233 1.81112E+01 8.69345E-03 4.43620E-03-4.00898E-02 7.00344E-14-9.11660E-13
 -1      1234 1.90544E+01 1.68638E-02 3.56758E-02-4.26544E-02-2.32778E-15-1.20191E-12
 -1      1235 1.96843E+01 1.40961E-02 4.17080E-02-3.09923E-02-8.30065E-15-7.78145E-13
 -1      1236 1.99503E+01 4.39941E-03 2.67627E-02-1.40464E-02 4.98364E-15-7.83132E-13
 -1      1237 1.99700E+01-4.94303E-03 4.69048E-03-1.54299E-03-5.58149E-14-5.37323E-13
 -1      1238 1.99378E+01-4.09209E-03-2.48156E-03-2.21778E-03 3.49000E-14-4.23633E-13
 -1      1239 1.99791E+01 8.74493E-03 2.26275E-02-6.95145E-03 2.72689E-14-4.89040E-13
 -1      1240 2.00056E+01-2.34826E-02 1.73938E-02-8.85092E-03-4.87709E-13-9.45440E-14
 -1      1241 1.99827E+01-7.48361E-02-2.21621E-02-1.62229E-02-2.13446E-13-3.44319E-14
 -1      1242 1.99644E+01 4.72725E-02-5.16677E-02-6.35244E-03 5.29589E-13-2.98763E-14
 -1      1243 1.99498E+01 5.18436E-01-7.48186E-02 1.16753E-02 6.45404E-13-7.43368E-14
 -1      1244 1.99455E+01 1.48710E+00-8.35324E-02 3.78862E-02 1.90729E-13-7.04705E-14
 -1      1245 1.99570E+01 2.99755E+00-6.63188E-02 6.71920E-02-1.05833E-12-1.55044E-13
 -1      1246 1.99920E+01 4.94411E+00-1.60753E-02 8.82968E-02-1.89837E-12-1.40605E-13
 -1      1247 2.00432E+01 7.00964E+00 6.00206E-02 8.86659E-02-1.71688E-12-1.93994E-13
 -1      1248 2.00932E+01 8.66727E+00 1.34385E-01 6.03299E-02-1.31291E-12 7.94260E-14
 -1      1249 2.01188E+01 9.41517E+00 1.72490E-01 8.77463E-03-7.99532E-13 1.17734E-13
 -1      1250 2.01056E+01 8.99601E+00 1.54307E-01-4.70715E-02-2.48010E-13-4.44696E-15
 -1      1251 2.00648E+01 7.54904E+00 9.18144E-02-8.61023E-02-1.45953E-12-1.26924E-13
 -1      1252 2.00112E+01 5.49388E+00 1.44259E-02-9.71017E-02-1.16374E-12 1.65105E-13
 -1      1253 1.99682E+01 3.32375E+00-5.15730E-02-8.60759E-02-1.61676E-13 1.40474E-13
 -1      1254 1.99384E+01 1.45884E+00-1.02737E-01-7.21923E-02 3.23692E-13 2.78423E-14
 -1      1255 1.99125E+01 3.14129E-01-1.01849E-01-4.26580E-03 3.04045E-13-9.19273E-14
 -1      1256 2.00230E+01-4.99952E-02 2.29279E-02 1.34416E-02 7.93619E-14 1.35910E-13
 -1      1257-1.32540E+00-2.71020E+01-4.14108E+00-2.56673E+00 2.00218E-12 2.83995E-13
 -1      1258-1.97250E+00-1.72237E+01-3.36027E+00-4.68480E+00 2.08566E-12 7.09821E-13
 -1      1259 7.13204E-01-2.45722E+00-1.80746E+00 2.20229E-01 1.23457E-12 6.82121E-13
 -1      1260 1.09049E+01 8.68696E+00 4.31527E-03 9.60656E+00 1.04960E-12 1.05871E-12
 -1      1261 2.86582E+01 1.17730E+01 1.76584E+00 1.73651E+01 6.50591E-13 9.00613E-13
 -1      1262 4.97251E+01 8.25093E+00 3.24467E+00 1.85444E+01 3.00426E-13 7.74047E-13
 -1      1263 6.55233E+01 3.33714E+00 4.21357E+00 1.02678E+01 1.62668E-13 1.34026E-12
 -1      1264 6.83077E+01 2.12727E+00 4.29549E+00-3.78600E+00 6.10137E-14 7.09877E-13
 -1      1265 5.64832E+01 5.77202E+00 3.57476E+00-1.56378E+01 2.62568E-13-4.05675E-13
 -1      1266 3.54107E+01 1.05976E+01 2.14218E+00-1.81349E+01 9.80327E-13-1.51190E-12
 -1      1267 1.49132E+01 1.00072E+01 3.90854E-01-1.18472E+01 1.67955E-12-1.77014E-12
 -1      1268 2.41659E+00 1.48788E+00-1.34804E+00-2.42693E+00 1.65556E-12-1.07381E-12
 -1      1269-1.65803E+00-1.21146E+01-2.77100E+00 3.53605E+00 1.86806E-12-7.10987E-13
 -1      1270-1.44007E+00-2.36176E+01-3.63611E+00 3.12973E+00 1.33471E-12-3.45300E-13
 -1      1271-1.01196E+00-2.70252E+01-3.93374E+00-1.30996E+00 8.67084E-14-9.38069E-14
 -1      1272-1.97116E+00-2.02809E+01-3.45979E+00-4.68633E+00-1.02884E-12-4.81531E-13
 -1      1273-1.50791E+00-8.03599E+00-2.52412E+00-2.92899E+00-2.14029E-12-1.37379E-12
 -1      1274 4.48674E+00 3.71808E+00-1.10407E+00 4.31479E+00-2.09166E-12-1.70242E-12
 -1      1275 1.92577E+01 1.00840E+01 6.70187E-01 1.34652E+01-1.36047E-12-1.68265E-12
 -1      1276 4.05228E+01 9.42037E+00 2.57210E+00 1.79497E+01-9.58678E-13-1.74105E-12
 -1      1277 6.03725E+01 4.91093E+00 3.90796E+00 1.33930E+01-3.95600E-13-8.66418E-13
 -1      1278 7.09781E+01 1.58348E+00 4.60524E+00 1.03046E+00-1.11446E-13 3.68872E-13
 -1      1279 6.52371E+01 3.96595E+00 4.29661E+00-1.25738E+01-3.77712E-13 1.49381E-12
 -1      1280 4.76404E+01 9.38452E+00 3.22461E+00-1.92112E+01-7.08877E-13 1.68088E-12
 -1      1281 2.65099E+01 1.20261E+01 1.61513E+00-1.69692E+01-1.14198E-12 1.50124E-12
 -1      1282 9.06807E+00 7.86630E+00-2.83477E-01-8.34226E+00-8.33555E-13 9.30145E-13
 -1      1283-3.94314E-02-3.67138E+00-2.08198E+00 6.86636E-01-8.96172E-13 3.23186E-13
 -1      1284-2.06888E+00-1.79451E+01-3.43718E+00 4.67342E+00-1.52500E-12 5.24469E-13
 -1      1285-1.20637E+00-2.78335E+01-4.24639E+00 2.45362E+00 6.67966E-13 1.97592E-13
 -1      1286 2.22677E+01 1.83823E+00-7.25843E-01-2.79058E+00-8.70970E-14 1.86579E-12
 -1      1287 2.03597E+01 4.69011E+00-4.87578E-02-3.30678E+00-2.69479E-13 8.18789E-14
 -1      1288 2.08675E+01 4.81066E+00-1.13369E-01-4.16108E+00-3.40616E-13 4.99906E-13
 -1      1289 1.95313E+01 4.99394E+00-1.97230E-02-2.65449E+00-2.86479E-13-5.05380E-13
 -1      1290 1.98296E+01 5.09035E+00 2.54795E-05-3.04533E+00-3.18814E-13-2.51001E-13
 -1      1291 2.05263E+01 3.95278E+00-2.60007E-02-3.07442E+00-4.84782E-13 7.45515E-14
 -1      1292 1.91850E+01 5.08414E+00-3.39563E-03-2.07081E+00-2.32404E-13-8.11740E-13
 -1      1293 1.93333E+01 5.13933E+00 1.05112E-02-2.36414E+00-2.66218E-13-6.72042E-13
 -1      1294 1.97550E+01 4.36714E+00-2.38779E-02-2.49048E+00-4.44495E-13-4.15327E-13
 -1      1295 1.90091E+01 5.13096E+00 3.47687E-03-1.56457E+00-1.82138E-13-9.69641E-13
 -1      1296 1.90872E+01 5.16067E+00 1.28100E-02-1.81454E+00-2.03631E-13-8.97497E-13
 -1      1297 1.93929E+01 4.55509E+00-1.94929E-02-1.93142E+00-3.60982E-13-6.77122E-13
 -1      1298 1.89152E+01 5.16061E+00 6.56732E-03-1.11705E+00-1.30279E-13-1.04384E-12
 -1      1299 1.89577E+01 5.17698E+00 1.27740E-02-1.33849E+00-1.53098E-13-1.00609E-12
 -1      1300 1.92054E+01 4.66142E+00-1.60389E-02-1.44475E+00-2.74933E-13-8.05675E-13
 -1      1301 1.88638E+01 5.18037E+00 8.19011E-03-6.93828E-01-8.52578E-14-1.07211E-12
 -1      1302 1.88867E+01 5.18923E+00 1.19989E-02-9.04029E-01-1.01561E-13-1.06183E-12
 -1      1303 1.91025E+01 4.72675E+00-1.39961E-02-1.00429E+00-1.94072E-13-8.83182E-13
 -1      1304 1.88398E+01 5.19227E+00 9.28662E-03-2.89171E-01-3.45794E-14-1.08034E-12
 -1      1305 1.88497E+01 5.19610E+00 1.10626E-02-4.91272E-01-4.98369E-14-1.07291E-12
 -1      1306 1.90467E+01 4.76567E+00-1.29280E-02-5.88800E-01-1.16959E-13-8.91436E-13
 -1      1307 1.88361E+01 5.19721E+00 1.02185E-02 1.08204E-01 9.60126E-15-1.07816E-12
 -1      1308 1.88358E+01 5.19708E+00 1.01466E-02-9.14498E-02-6.20109E-15-1.08100E-12
 -1      1309 1.90226E+01 4.78367E+00-1.24784E-02-1.89107E-01-3.05300E-14-9.04721E-13
 -1      1310 1.88515E+01 5.19574E+00 1.11569E-02 5.08614E-01 5.56812E-14-1.05637E-12
 -1      1311 1.88408E+01 5.19163E+00 9.22261E-03 3.06091E-01 3.92157E-14-1.06752E-12
 -1      1312 1.90234E+01 4.78303E+00-1.24953E-02 2.05768E-01 3.59811E-14-8.94427E-13
 -1      1313 1.88901E+01 5.18808E+00 1.20910E-02 9.22864E-01 1.03789E-13-1.03135E-12
 -1      1314 1.88663E+01 5.17904E+00 8.13119E-03 7.11697E-01 8.47998E-14-1.04899E-12
 -1      1315 1.90494E+01 4.76361E+00-1.29811E-02 6.06150E-01 1.16620E-13-8.77048E-13
 -1      1316 1.89620E+01 5.17511E+00 1.28974E-02 1.35607E+00 1.50508E-13-9.64423E-13
 -1      1317 1.89187E+01 5.15836E+00 6.44554E-03 1.13318E+00 1.31382E-13-1.00533E-12
 -1      1318 1.91069E+01 4.72320E+00-1.40033E-02 1.01946E+00 1.94734E-13-8.44158E-13
 -1      1319 1.90949E+01 5.15669E+00 1.28273E-02 1.84072E+00 2.19491E-13-8.41566E-13
 -1      1320 1.90153E+01 5.12633E+00 3.13947E-03 1.58792E+00 1.89081E-13-9.13164E-13
 -1      1321 1.92125E+01 4.65485E+00-1.61466E-02 1.46257E+00 2.81201E-13-7.56669E-13
 -1      1322 1.93437E+01 5.13348E+00 1.01741E-02 2.39781E+00 2.80945E-13-6.22415E-13
 -1      1323 1.91935E+01 5.07634E+00-4.38168E-03 2.10053E+00 2.50112E-13-7.60312E-13
 -1      1324 1.94052E+01 4.54244E+00-1.99845E-02 1.95825E+00 3.87095E-13-6.27557E-13
 -1      1325 1.98555E+01 5.09946E+00 6.05646E-03 3.08394E+00 3.31374E-13-1.87808E-13
 -1      1326 1.95434E+01 4.98444E+00-2.05457E-02 2.69655E+00 2.93585E-13-4.50310E-13
 -1      1327 1.97748E+01 4.34643E+00-2.45608E-02 2.52811E+00 4.68247E-13-3.64681E-13
 -1      1328 2.11035E+01 4.90704E+00 8.31884E-03 4.05402E+00 2.93043E-13 6.74627E-13
 -1      1329 2.03345E+01 4.73388E+00-4.79687E-02 3.41635E+00 2.82621E-13 1.46216E-13
 -1      1330 2.05647E+01 3.91595E+00-2.24095E-02 3.17847E+00 4.99600E-13 1.38639E-13
 -1      1331 2.72033E+01 3.20543E+00 9.29046E-01 4.58236E+00 1.56861E-13 2.36583E-12
 -1      1332 2.20204E+01 3.52222E+00-1.82000E-01 3.88507E+00 1.52212E-13 1.18214E-12
 -1      1333 2.21127E+01 2.56181E+00-3.25462E-02 3.45667E+00 4.84703E-13 9.20292E-13
 -1      1334 2.14273E+01 3.59581E-01-7.63536E-01 1.18388E+00 2.72969E-13 2.24948E-12
 -1      1335 2.20018E+01 1.31305E-01-4.00863E-01-1.28583E+00-2.67786E-13 1.94889E-12
 -1      1336 2.06790E+01 3.06731E-01-1.64792E-01-8.05888E-01-2.52395E-13 1.64291E-12
 -1      1337 2.00812E+01 1.53520E-01-7.35175E-02-4.02154E-01-2.03330E-13 1.49124E-12
 -1      1338 1.96114E+01 9.12196E-02-1.48892E-02-3.29979E-01-1.98036E-13 1.20183E-12
 -1      1339 2.09729E+01 3.69319E-01-1.04170E-01-1.27410E+00-4.41897E-13 8.77739E-13
 -1      1340 1.92540E+01 6.45156E-02 3.06556E-03-1.35333E-01-1.59160E-13 1.09517E-12
 -1      1341 1.90997E+01 4.12681E-02 1.32556E-02-1.17529E-01-1.45937E-13 8.88397E-13
 -1      1342 1.99220E+01 1.33959E-01-3.50874E-02-5.03998E-01-3.37560E-13 6.61263E-13
 -1      1343 1.89393E+01 3.15119E-02 1.32609E-02-2.80277E-02-1.06124E-13 7.89414E-13
 -1      1344 1.89199E+01 1.93661E-02 1.10688E-02-1.86646E-02-1.05633E-13 6.38250E-13
 -1      1345 1.94447E+01 5.54049E-02-8.50557E-03-1.70024E-01-2.60809E-13 4.76934E-13
 -1      1346 1.88637E+01 1.60002E-02 8.78281E-03 2.49445E-02-8.38184E-14 5.82853E-13
 -1      1347 1.89060E+01 9.06888E-03 6.43945E-03 2.95711E-02-8.36115E-14 4.57910E-13
 -1      1348 1.92357E+01 2.43834E-02-3.49257E-03-1.12601E-02-1.87616E-13 3.20511E-13
 -1      1349 1.89059E+01 7.84645E-03 4.67202E-03 5.07131E-02-5.38394E-14 4.12068E-13
 -1      1350 1.89762E+01 3.49150E-03 3.63692E-03 5.25990E-02-4.52572E-14 3.51738E-13
 -1      1351 1.91787E+01 1.01761E-02-2.21717E-03 6.73587E-02-1.39595E-13 2.22879E-13
 -1      1352 1.90055E+01 3.17287E-03 2.44117E-03 6.13654E-02-6.00781E-14 3.06886E-13
 -1      1353 1.90858E+01 3.13231E-04 2.21009E-03 6.16245E-02-6.94961E-14 1.95538E-13
 -1      1354 1.92046E+01 2.75827E-03-1.32132E-03 1.04129E-01-1.05946E-13 1.11506E-13
 -1      1355 1.91292E+01 4.22798E-04 1.33429E-03 6.32669E-02-4.61936E-14 1.63428E-13
 -1      1356 1.92098E+01-1.48469E-03 1.44095E-03 6.25727E-02-3.65158E-14 8.12505E-14
 -1      1357 1.92733E+01-1.33564E-03-5.53839E-04 1.17312E-01-1.21733E-13 3.42784E-14
 -1      1358 1.92581E+01-1.16356E-03 7.51520E-04 6.01409E-02-4.29313E-14 4.70552E-14
 -1      1359 1.93333E+01-2.42705E-03 9.73985E-04 5.89279E-02-5.68395E-14-3.41563E-14
 -1      1360 1.93611E+01-3.54454E-03 6.11158E-06 1.16873E-01-8.20871E-14-2.34615E-14
 -1      1361 1.93812E+01-2.00987E-03 4.17168E-04 5.43144E-02-5.39010E-14-1.72119E-14
 -1      1362 1.94484E+01-2.82171E-03 6.64769E-04 5.28681E-02-2.22047E-14-5.94624E-14
 -1      1363 1.94538E+01-4.60281E-03 3.57726E-04 1.08779E-01-7.16306E-14 5.27540E-15
 -1      1364 1.94928E+01-2.37379E-03 2.15925E-04 4.72876E-02-1.21211E-14-1.44529E-13
 -1      1365 1.95507E+01-2.86259E-03 4.52804E-04 4.57960E-02-4.73822E-14-1.68720E-13
 -1      1366 1.95432E+01-4.93338E-03 5.45354E-04 9.67948E-02-6.73752E-14-9.98495E-14
 -1      1367 1.95902E+01-2.42106E-03 9.56251E-05 4.00383E-02-4.12789E-14-1.66638E-13
 -1      1368 1.96389E+01-2.67641E-03 3.08132E-04 3.86234E-02-5.09304E-15-1.85332E-13
 -1      1369 1.96246E+01-4.80018E-03 6.16486E-04 8.33575E-02-5.67948E-14-1.94386E-13
 -1      1370 1.96730E+01-2.26059E-03 2.85963E-05 3.32018E-02 2.90567E-14-2.10667E-13
 -1      1371 1.97131E+01-2.34575E-03 2.13022E-04 3.19417E-02-6.68698E-15-1.80851E-13
 -1      1372 1.96963E+01-4.37401E-03 6.08209E-04 7.00556E-02-1.39201E-15-2.15712E-13
 -1      1373 1.97421E+01-1.96286E-03-1.96518E-06 2.71906E-02-4.32009E-14-2.00821E-13
 -1      1374 1.97747E+01-1.92185E-03 1.55848E-04 2.61354E-02-4.24287E-14-2.74849E-13
 -1      1375 1.97578E+01-3.76415E-03 5.46335E-04 5.79250E-02-5.46905E-14-2.64578E-13
 -1      1376 1.97992E+01-1.57028E-03-7.05227E-06 2.22795E-02-5.50817E-14-2.72289E-13
 -1      1377 1.98258E+01-1.43252E-03 1.28708E-04 2.14631E-02-6.85583E-14-3.45260E-13
 -1      1378 1.98100E+01-3.03568E-03 4.47478E-04 4.76503E-02-8.22467E-14-2.79665E-13
 -1      1379 1.98469E+01-1.10389E-03 5.87430E-06 1.86690E-02-1.05419E-14-3.68680E-13
 -1      1380 1.98690E+01-8.87405E-04 1.26256E-04 1.81195E-02-1.39815E-14-3.95653E-13
 -1      1381 1.98547E+01-2.21991E-03 3.21123E-04 3.97111E-02-6.61402E-14-3.10441E-13
 -1      1382 1.98880E+01-5.67648E-04 3.16016E-05 1.65361E-02-1.43587E-14-3.86064E-13
 -1      1383 1.99076E+01-2.81538E-04 1.45002E-04 1.62829E-02-3.05397E-14-4.19314E-13
 -1      1384 1.98939E+01-1.32134E-03 1.71197E-04 3.44936E-02-2.39672E-14-2.99869E-13
 -1      1385 1.99259E+01 4.86313E-05 6.62921E-05 1.60744E-02-4.28277E-14-4.40565E-13
 -1      1386 1.99451E+01 4.02147E-04 1.82798E-04 1.61549E-02-3.88122E-14-5.47316E-13
 -1      1387 1.99304E+01-3.22185E-04-2.80886E-06 3.23787E-02-7.27693E-14-3.32960E-13
 -1      1388 1.99645E+01 7.67356E-04 1.06781E-04 1.75282E-02 4.53157E-15-5.55182E-13
 -1      1389 1.99856E+01 1.19114E-03 2.38392E-04 1.79938E-02-7.64590E-15-5.55153E-13
 -1      1390 1.99674E+01 8.14674E-04-2.05024E-04 3.38155E-02-4.95995E-14-4.25774E-13
 -1      1391 2.00082E+01 1.62197E-03 1.49894E-04 2.12229E-02 4.07487E-14-5.68406E-13
 -1      1392 2.00340E+01 2.12219E-03 3.10909E-04 2.21440E-02-7.20005E-15-5.35699E-13
 -1      1393 2.00087E+01 2.14400E-03-4.42594E-04 3.93830E-02 1.08600E-14-4.52331E-13
 -1      1394 2.00623E+01 2.65617E-03 1.91639E-04 2.75914E-02-2.76828E-14-4.95188E-13
 -1      1395 2.00961E+01 3.24020E-03 3.99118E-04 2.90626E-02-6.62908E-15-4.65498E-13
 -1      1396 2.00588E+01 3.73734E-03-7.25216E-04 4.98449E-02-8.97297E-15-4.89648E-13
 -1      1397 2.01332E+01 3.92318E-03 2.26117E-04 3.71987E-02-5.11624E-15-4.70087E-13
 -1      1398 2.01791E+01 4.59670E-03 5.00273E-04 3.93435E-02-1.65672E-14-5.13203E-13
 -1      1399 2.01230E+01 5.68243E-03-1.06471E-03 6.61986E-02-2.25343E-14-4.86387E-13
 -1      1400 2.02283E+01 5.48400E-03 2.43948E-04 5.07612E-02-3.56614E-14-4.49773E-13
 -1      1401 2.02913E+01 6.24632E-03 6.08209E-04 5.37364E-02-1.26010E-14-5.30178E-13
 -1      1402 2.02076E+01 8.08147E-03-1.47446E-03 8.97149E-02-2.27882E-14-3.86637E-13
 -1      1403 2.03570E+01 7.40300E-03 2.29954E-04 6.91563E-02 5.19385E-14-4.84821E-13
 -1      1404 2.04432E+01 8.23890E-03 7.10278E-04 7.31529E-02 6.25769E-14-4.40684E-13
 -1      1405 2.03201E+01 1.10456E-02-1.96846E-03 1.21961E-01 7.48348E-14-2.36523E-13
 -1      1406 2.05305E+01 9.73719E-03 1.59895E-04 9.34054E-02 1.68658E-14-3.40289E-13
 -1      1407 2.06473E+01 1.06022E-02 7.82687E-04 9.86458E-02-1.39589E-14-3.56364E-13
 -1      1408 2.04697E+01 1.46801E-02-2.55945E-03 1.64788E-01 8.64152E-14-2.20222E-13
 -1      1409 2.07619E+01 1.25122E-02-3.58702E-06 1.24605E-01-6.32155E-14-4.01625E-13
 -1      1410 2.09181E+01 1.33062E-02 7.84254E-04 1.31325E-01-4.05006E-14-4.85669E-13
 -1      1411 2.06670E+01 1.90492E-02-3.25504E-03 2.20225E-01-8.82872E-14-2.15450E-13
 -1      1412 2.10667E+01 1.56720E-02-3.14381E-04 1.63743E-01-3.15685E-14-5.21636E-13
 -1      1413 2.12723E+01 1.61927E-02 6.50393E-04 1.72147E-01-7.61002E-14-5.82244E-13
 -1      1414 2.09239E+01 2.40994E-02-4.04980E-03 2.90218E-01-6.87493E-14-3.65835E-13
 -1      1415 2.14615E+01 1.89804E-02-8.40763E-04 2.11294E-01-5.00320E-14-6.36341E-13
 -1      1416 2.17271E+01 1.88452E-02 2.93919E-04 2.21455E-01-7.19195E-14-6.70687E-13
 -1      1417 2.12534E+01 2.95043E-02-4.90913E-03 3.76011E-01-1.14156E-13-5.04968E-13
 -1      1418 2.19630E+01 2.18385E-02-1.64501E-03 2.66417E-01 1.98090E-14-6.27630E-13
 -1      1419 2.22975E+01 2.03642E-02-3.70622E-04 2.78064E-01 7.87287E-14-5.46525E-13
 -1      1420 2.16679E+01 3.43720E-02-5.73697E-03 4.76911E-01-6.69343E-15-4.35305E-13
 -1      1421 2.25834E+01 2.29772E-02-2.71859E-03 3.25453E-01 4.48599E-15-5.50501E-13
 -1      1422 2.29904E+01 1.90233E-02-1.34745E-03 3.37576E-01-2.06606E-14-4.63856E-13
 -1      1423 2.21769E+01 3.67383E-02-6.31432E-03 5.87975E-01 8.17766E-14-4.92576E-13
 -1      1424 2.33233E+01 2.00067E-02-3.83298E-03 3.79412E-01 6.65722E-15-3.96310E-13
 -1      1425 2.37933E+01 1.18548E-02-2.38466E-03 3.89583E-01 3.75047E-14-2.91388E-13
 -1      1426 2.27818E+01 3.28057E-02-6.19298E-03 6.96035E-01-2.94946E-15-4.12968E-13
 -1      1427 2.41590E+01 8.94863E-03-4.27893E-03 4.10315E-01 6.00708E-15-3.99642E-13
 -1      1428 2.46570E+01-5.53467E-03-2.70444E-03 4.13687E-01-1.48038E-14-3.91191E-13
 -1      1429 2.34678E+01 1.61116E-02-4.54514E-03 7.73715E-01-5.95058E-14-4.15579E-13
 -1      1430 2.50223E+01-1.56919E-02-2.58643E-03 3.87325E-01-7.49687E-14-4.93942E-13
 -1      1431 2.54712E+01-3.80253E-02-8.27628E-04 3.75657E-01-1.66036E-13-6.54126E-13
 -1      1432 2.41916E+01-2.24983E-02-4.44947E-05 7.72371E-01-1.05330E-13-5.50119E-13
 -1      1433 2.57760E+01-5.89001E-02 3.32715E-03 2.66437E-01-5.97456E-14-6.24379E-13
 -1      1434 2.60422E+01-8.71275E-02 4.97261E-03 2.28429E-01 3.78985E-14-6.76839E-13
 -1      1435 2.48669E+01-9.17682E-02 8.92976E-03 6.18819E-01-1.85055E-13-5.53148E-13
 -1      1436 2.61965E+01-1.18550E-01 1.46820E-02 2.82564E-03-1.05731E-14-7.41635E-13
 -1      1437 2.60974E+01-1.42227E-01 1.45580E-02-7.09977E-02 4.32293E-14-6.84595E-13
 -1      1438 2.53514E+01-1.89716E-01 2.31488E-02 2.28484E-01-6.14717E-14-4.35791E-13
 -1      1439 2.59934E+01-1.73428E-01 2.79897E-02-4.10870E-01 8.99732E-14-7.31921E-13
 -1      1440 2.53595E+01-1.70092E-01 2.25367E-02-5.15043E-01-2.22045E-16-6.76334E-13
 -1      1441 2.54509E+01-2.84073E-01 3.96130E-02-4.43395E-01 3.74319E-14-5.26327E-13
 -1      1442 2.49173E+01-1.74912E-01 3.21511E-02-8.80583E-01-2.19928E-14-6.41459E-13
 -1      1443 2.37291E+01-1.19094E-01 1.71564E-02-9.76621E-01-1.22732E-14-6.21919E-13
 -1      1444 2.49696E+01-2.99185E-01 4.74555E-02-1.30077E+00 3.58914E-15-6.39140E-13
 -1      1445 2.29849E+01-7.06478E-02 1.28896E-02-1.17325E+00 5.02638E-14-4.70610E-13
 -1      1446 2.15233E+01 3.58139E-02-1.07633E-02-1.19122E+00 1.14436E-13-4.63518E-13
 -1      1447 2.38395E+01-1.48299E-01 2.94325E-02-2.00965E+00 1.14630E-13-3.95545E-13
 -1      1448 2.07128E+01 1.24389E-01-2.84511E-02-1.01841E+00-9.69537E-14-5.63022E-13
 -1      1449 1.95436E+01 2.25084E-01-4.99130E-02-9.09897E-01-1.54956E-13-6.34701E-13
 -1      1450 2.23074E+01 1.59866E-01-2.26216E-02-2.07208E+00-3.05814E-14-3.98251E-13
 -1      1451 1.90434E+01 2.81542E-01-6.25424E-02-3.74658E-01-6.77028E-14-7.58116E-13
 -1      1452 1.87019E+01 2.99392E-01-6.66148E-02-1.87246E-01-1.43892E-13-8.38100E-13
 -1      1453 2.09912E+01 4.48445E-01-8.00725E-02-1.21231E+00-2.12733E-13-4.55094E-13
 -1      1454 1.87494E+01 2.65633E-01-5.79471E-02 4.08919E-01-8.00297E-14-9.28351E-13
 -1      1455 1.93239E+01 1.86795E-01-4.22900E-02 5.52122E-01 4.10921E-14-9.52002E-13
 -1      1456 2.05421E+01 4.94342E-01-9.10249E-02 1.94827E-01-2.09745E-13-8.42828E-13
 -1      1457 1.97882E+01 9.71147E-02-2.15408E-02 8.54746E-01 1.14558E-13-9.01973E-13
 -1      1458 2.08471E+01-1.31753E-02 1.19370E-03 8.74992E-01-7.25505E-15-8.75577E-13
 -1      1459 2.10755E+01 2.62771E-01-4.34349E-02 1.29982E+00 1.46359E-13-6.96089E-13
 -1      1460 2.13639E+01-8.19008E-02 1.32154E-02 7.79494E-01-1.10152E-13-6.88311E-13
 -1      1461 2.23058E+01-1.52998E-01 2.98858E-02 6.99438E-01-3.33171E-14-8.45587E-13
 -1      1462 2.20610E+01-6.37519E-02 1.57872E-02 1.52578E+00 4.54103E-14-4.94878E-13
 -1      1463 2.25788E+01-1.64963E-01 2.64071E-02 3.65715E-01 1.06469E-13-6.91509E-13
 -1      1464 2.30222E+01-1.77245E-01 3.31510E-02 2.58253E-01 2.01722E-13-5.26992E-13
 -1      1465 2.28182E+01-2.71848E-01 4.51997E-02 9.72216E-01 1.44447E-13-2.08474E-13
 -1      1466 2.29671E+01-1.50767E-01 2.17341E-02-9.07387E-02 3.08125E-13-4.44055E-13
 -1      1467 2.28661E+01-1.23441E-01 2.11001E-02-1.72472E-01 2.51200E-13 4.31287E-14
 -1      1468 2.29845E+01-2.94374E-01 4.23999E-02 1.33574E-01 4.02766E-13 3.95586E-14
 -1      1469 2.25568E+01-8.52382E-02 1.01289E-02-3.96755E-01-6.90073E-15-1.49835E-13
 -1      1470 2.20953E+01-4.19682E-02 6.23095E-03-4.32938E-01-8.15433E-14-1.37626E-13
 -1      1471 2.25741E+01-1.93570E-01 2.38662E-02-5.54200E-01 1.95399E-13-1.87668E-13
 -1      1472 2.16713E+01-4.62836E-03-2.36014E-03-4.84625E-01 8.69784E-14-9.21659E-14
 -1      1473 2.11228E+01 4.10452E-02-5.08722E-03-4.72641E-01 1.28736E-13-7.08808E-15
 -1      1474 2.18122E+01-4.67106E-02 2.75338E-03-8.78622E-01 9.52450E-15-2.99056E-13
 -1      1475 2.07227E+01 7.74105E-02-1.17064E-02-3.49318E-01-6.33985E-14 1.91513E-15
 -1      1476 2.03515E+01 1.00043E-01-6.18028E-03-3.02009E-01-6.68413E-14-1.84167E-14
 -1      1477 2.09746E+01 1.14661E-01-1.15705E-02-7.96166E-01-4.57544E-15-2.53278E-13
 -1      1478 2.00261E+01 6.14080E-02-1.47296E-02-1.86957E-02-1.24268E-13 3.86014E-14
 -1      1479 2.02257E+01 2.19660E-01-1.39748E-02-3.06955E-01-5.36442E-14-1.26126E-14
 -1      1480 2.02600E+01 7.54751E-02-1.52093E-01 4.83885E-01 2.31135E-13 1.73254E-12
 -1      1481 2.15303E+01 2.16133E-01-2.29287E-01 7.20877E-01 2.04572E-13 2.10590E-12
 -1      1482 2.17289E+01 8.81765E-01-8.54711E-02 2.06490E+00 4.08049E-13 1.34337E-12
 -1      1483 1.93316E+01 3.23803E-02-2.13326E-02 1.86048E-01 1.72855E-13 1.27136E-12
 -1      1484 1.97523E+01 1.13618E-01-6.27008E-02 2.38058E-01 1.66620E-13 1.54931E-12
 -1      1485 2.03036E+01 1.87675E-01-5.51924E-02 7.86242E-01 3.48326E-13 9.96305E-13
 -1      1486 1.89497E+01 1.51031E-02 5.66730E-03 5.35520E-02 1.29750E-13 9.20410E-13
 -1      1487 1.90884E+01 5.16246E-02 9.77476E-04 7.98651E-02 1.23440E-13 1.13265E-12
 -1      1488 1.95584E+01 7.18356E-02-1.21565E-02 2.99061E-01 2.80245E-13 7.09908E-13
 -1      1489 1.88391E+01 7.11729E-03 6.97706E-03-8.93083E-03 1.03604E-13 6.65473E-13
 -1      1490 1.88538E+01 2.58559E-02 1.10891E-02 5.46663E-03 9.35940E-14 8.34433E-13
 -1      1491 1.92229E+01 3.10296E-02-2.46296E-03 8.35855E-02 2.08256E-13 5.27172E-13
 -1      1492 1.88650E+01 3.20438E-03 4.78371E-03-3.91634E-02 4.05830E-14 5.08774E-13
 -1      1493 1.88213E+01 1.38021E-02 8.52013E-03-3.10476E-02 4.56473E-14 5.80525E-13
 -1      1494 1.91062E+01 1.32536E-02-1.61787E-03-2.13614E-02 1.27532E-13 3.48709E-13
 -1      1495 1.89588E+01 1.04512E-03 3.29567E-03-5.25642E-02 2.94687E-14 4.15223E-13
 -1      1496 1.88885E+01 7.26981E-03 5.36714E-03-4.80978E-02 2.80549E-14 4.64889E-13
 -1      1497 1.91072E+01 4.52583E-03-1.63188E-03-7.28024E-02 7.82514E-14 2.36582E-13
 -1      1498 1.90827E+01-2.03992E-04 2.51370E-03-5.64738E-02 4.48501E-14 3.39025E-13
 -1      1499 1.90028E+01 3.43242E-03 3.43063E-03-5.42685E-02 3.63526E-14 3.84555E-13
 -1      1500 1.91696E+01-1.31937E-04-1.37575E-03-9.53733E-02 6.46395E-14 1.84444E-13
 -1      1501 1.92149E+01-9.09900E-04 2.04900E-03-5.49303E-02 3.36804E-14 2.51228E-13
 -1      1502 1.91350E+01 1.09963E-03 2.32857E-03-5.41464E-02 2.64971E-14 3.03770E-13
 -1      1503 1.92611E+01-2.65092E-03-9.99623E-04-1.01481E-01 6.35244E-14 1.37358E-13
 -1      1504 1.93429E+01-1.26851E-03 1.70454E-03-5.03756E-02 5.07484E-14 1.50601E-13
 -1      1505 1.92684E+01-3.05322E-04 1.65099E-03-5.04694E-02 4.51897E-14 2.28153E-13
 -1      1506 1.93627E+01-3.91618E-03-6.56673E-04-9.81392E-02 8.23785E-14 8.48939E-14
 -1      1507 1.94598E+01-1.39938E-03 1.41372E-03-4.43589E-02 5.36089E-14 7.90279E-14
 -1      1508 1.93934E+01-1.10567E-03 1.19190E-03-4.49670E-02 4.99215E-14 1.27400E-13
 -1      1509 1.94632E+01-4.40667E-03-3.93171E-04-8.96314E-02 8.98103E-14 2.72804E-14
 -1      1510 1.95625E+01-1.38085E-03 1.15841E-03-3.78833E-02 5.73594E-14-1.73936E-14
 -1      1511 1.95052E+01-1.50151E-03 8.62114E-04-3.87584E-02 3.72925E-14 5.05485E-14
 -1      1512 1.95564E+01-4.41015E-03-2.06225E-04-7.86909E-02 5.50844E-14 3.70110E-14
 -1      1513 1.96501E+01-1.26516E-03 9.33718E-04-3.15995E-02 4.53955E-14-9.08160E-14
 -1      1514 1.96020E+01-1.62382E-03 6.20111E-04-3.25718E-02 5.07586E-14-5.10358E-14
 -1      1515 1.96393E+01-4.11020E-03-8.14659E-05-6.70923E-02 8.15932E-14-4.62362E-14
 -1      1516 1.97233E+01-1.08637E-03 7.37118E-04-2.59272E-02 7.13478E-14-2.74438E-13
 -1      1517 1.96837E+01-1.55962E-03 4.42763E-04-2.68792E-02 6.86179E-14-1.80800E-13
 -1      1518 1.97108E+01-3.62590E-03-5.51042E-06-5.59915E-02 1.32656E-13-1.61532E-13
 -1      1519 1.97838E+01-8.65152E-04 5.65769E-04-2.11388E-02 2.34059E-14-4.03884E-13
 -1      1520 1.97515E+01-1.36547E-03 3.15006E-04-2.19872E-02 4.39256E-14-3.28974E-13
 -1      1521 1.97714E+01-3.03249E-03 3.14857E-05-4.61431E-02 1.05182E-13-2.31476E-13
 -1      1522 1.98340E+01-6.11940E-04 4.15955E-04-1.74203E-02-4.44135E-14-3.20839E-13
 -1      1523 1.98076E+01-1.07541E-03 2.26107E-04-1.81021E-02-1.01485E-14-3.40691E-13
 -1      1524 1.98226E+01-2.37353E-03 3.58079E-05-3.80496E-02 2.03396E-15-2.17022E-13
 -1      1525 1.98767E+01-3.29361E-04 2.83105E-04-1.49162E-02-1.95056E-14-2.62607E-13
 -1      1526 1.98546E+01-7.06239E-04 1.68072E-04-1.53782E-02-2.10183E-14-2.96149E-13
 -1      1527 1.98664E+01-1.66891E-03 1.05660E-05-3.20715E-02-4.23272E-14-2.15286E-13
 -1      1528 1.99152E+01-1.41862E-05 1.61951E-04-1.37647E-02 5.84742E-14-3.55062E-13
 -1      1529 1.98955E+01-2.61452E-04 1.34787E-04-1.39545E-02 3.35085E-14-2.90123E-13
 -1      1530 1.99055E+01-9.20831E-04-4.39500E-05-2.85079E-02 2.82499E-14-2.93831E-13
 -1      1531 1.99532E+01 3.40882E-04 4.67156E-05-1.41223E-02 2.08906E-14-4.31213E-13
 -1      1532 1.99340E+01 2.65623E-04 1.21451E-04-1.39814E-02 4.76282E-14-3.66544E-13
 -1      1533 1.99427E+01-1.18678E-04-1.29957E-04-2.76578E-02 9.31860E-14-2.11694E-13
 -1      1534 1.99950E+01 7.45272E-04-6.86746E-05-1.61800E-02-3.83483E-14-3.79667E-13
 -1      1535 1.99738E+01 8.88736E-04 1.24106E-04-1.56391E-02-2.75542E-14-4.50115E-13
 -1      1536 1.99816E+01 7.56539E-04-2.51822E-04-2.98614E-02 4.19505E-15-2.31117E-13
 -1      1537 2.00452E+01 1.20813E-03-1.90279E-04-2.01706E-02-8.22375E-14-2.14462E-13
 -1      1538 2.00196E+01 1.62518E-03 1.39181E-04-1.91457E-02-7.67010E-14-3.46891E-13
 -1      1539 2.00262E+01 1.72742E-03-4.15544E-04-3.55245E-02-8.31197E-14-1.93892E-13
 -1      1540 2.01092E+01 1.73497E-03-3.23661E-04-2.63621E-02 2.46183E-14-1.60296E-13
 -1      1541 2.00762E+01 2.49107E-03 1.62993E-04-2.47546E-02-2.61906E-14-2.03194E-13
 -1      1542 2.00809E+01 2.81421E-03-6.27920E-04-4.51204E-02-9.05244E-14-1.94439E-13
 -1      1543 2.01932E+01 2.32271E-03-4.73048E-04-3.50352E-02 8.29224E-14-3.58398E-13
 -1      1544 2.01494E+01 3.49442E-03 1.91171E-04-3.27356E-02 1.02837E-13-2.05085E-13
 -1      1545 2.01506E+01 4.02660E-03-8.95130E-04-5.91641E-02 1.23185E-13-2.23939E-13
 -1      1546 2.03038E+01 2.95233E-03-6.39793E-04-4.64334E-02-1.85613E-14-4.68767E-13
 -1      1547 2.02455E+01 4.62468E-03 2.18036E-04-4.33322E-02 4.24080E-14-4.24411E-13
 -1      1548 2.02410E+01 5.35162E-03-1.22033E-03-7.81455E-02 1.34014E-13-2.90010E-13
 -1      1549 2.04482E+01 3.57793E-03-8.19586E-04-6.06763E-02 3.90779E-15-4.75532E-13
 -1      1550 2.03714E+01 5.83680E-03 2.36071E-04-5.66853E-02-5.07915E-14-5.44278E-13
 -1      1551 2.03580E+01 6.73561E-03-1.59963E-03-1.02404E-01 4.91534E-15-4.58631E-13
 -1      1552 2.06332E+01 4.11116E-03-9.97509E-04-7.76159E-02-7.18544E-15-5.08874E-13
 -1      1553 2.05341E+01 7.02754E-03 2.35851E-04-7.27065E-02 7.02868E-14-4.21028E-13
 -1      1554 2.05075E+01 8.05766E-03-2.01563E-03-1.31916E-01 2.35637E-14-3.99720E-13
 -1      1555 2.08646E+01 4.40020E-03-1.13959E-03-9.66160E-02 4.42148E-15-4.16961E-13
 -1      1556 2.07398E+01 8.00187E-03 2.07212E-04-9.08812E-02-1.92398E-14-4.74835E-13
 -1      1557 2.06947E+01 9.09176E-03-2.42726E-03-1.65960E-01 6.46705E-15-3.52838E-13
 -1      1558 2.11452E+01 4.20481E-03-1.17939E-03-1.16230E-01-1.48502E-14-5.52084E-13
 -1      1559 2.09929E+01 8.42893E-03 1.43069E-04-1.09982E-01 6.06098E-14-4.82926E-13
 -1      1560 2.09230E+01 9.45651E-03-2.75485E-03-2.02626E-01 1.01502E-13-4.13242E-13
 -1      1561 2.14722E+01 3.17375E-03-9.99337E-04-1.33771E-01-1.02477E-13-3.86240E-13
 -1      1562 2.12938E+01 7.79289E-03 4.79294E-05-1.27677E-01-1.42417E-13-6.05234E-13
 -1      1563 2.11925E+01 8.55712E-03-2.86042E-03-2.38128E-01-1.03090E-13-3.48985E-13
 -1      1564 2.18333E+01 8.42961E-04-4.11239E-04-1.44803E-01 2.55284E-14-3.86793E-13
 -1      1565 2.16356E+01 5.35840E-03-4.71333E-05-1.40063E-01-9.58261E-15-4.03764E-13
 -1      1566 2.14968E+01 5.53902E-03-2.52654E-03-2.65951E-01-6.55089E-14-4.36845E-13
 -1      1567 2.22022E+01-3.30709E-03 8.47232E-04-1.42710E-01 1.62357E-14-4.39324E-13
 -1      1568 2.20002E+01 1.98529E-04-6.45769E-05-1.41233E-01 2.36404E-14-3.99085E-13
 -1      1569 2.18204E+01-6.95842E-04-1.44669E-03-2.75996E-01 1.63846E-14-5.36644E-13
 -1      1570 2.25330E+01-9.66786E-03 3.06099E-03-1.18692E-01-1.53322E-13-1.77924E-13
 -1      1571 2.23529E+01-8.62159E-03 1.33392E-04-1.23173E-01-1.11054E-13-3.99136E-13
 -1      1572 2.21343E+01-1.13052E-02 7.43535E-04-2.54149E-01-1.16208E-13-2.51107E-13
 -1      1573 2.27569E+01-1.81117E-02 6.36767E-03-6.28804E-02 3.54118E-14 4.37411E-15
 -1      1574 2.26386E+01-2.15681E-02 7.23094E-04-7.65604E-02-9.09047E-14-9.54766E-14
 -1      1575 2.23931E+01-2.69831E-02 4.34364E-03-1.83206E-01-1.91052E-13-1.60336E-13
 -1      1576 2.27847E+01-2.73599E-02 1.04085E-02 3.24330E-02 1.10131E-13-1.60898E-13
 -1      1577 2.27804E+01-3.77454E-02 1.81777E-03 6.65491E-03 1.00420E-13-1.68559E-14
 -1      1578 2.25344E+01-4.69195E-02 9.31468E-03-4.66355E-02 7.25756E-14-1.31863E-13
 -1      1579 2.25208E+01-3.43139E-02 1.38516E-02 1.66608E-01 1.85815E-14-2.43187E-13
 -1      1580 2.26864E+01-5.37013E-02 3.23357E-03 1.28041E-01 7.19303E-14-5.50306E-14
 -1      1581 2.24842E+01-6.72136E-02 1.48726E-02 1.63123E-01 5.67723E-14-5.97510E-14
 -1      1582 2.18950E+01-3.40651E-02 1.41616E-02 3.22292E-01 1.55100E-13-5.38083E-13
 -1      1583 2.22712E+01-6.26670E-02 4.19854E-03 2.75116E-01 1.08029E-13-3.51814E-13
 -1      1584 2.21732E+01-7.95873E-02 1.90788E-02 4.31474E-01 2.02828E-13-8.15155E-14
 -1      1585 2.09111E+01-2.17595E-02 8.44225E-03 4.59546E-01 1.06291E-13-8.66682E-13
 -1      1586 2.14939E+01-5.58837E-02 3.34081E-03 4.14866E-01 1.06798E-13-7.12354E-13
 -1      1587 2.15677E+01-7.20570E-02 1.91796E-02 7.08102E-01 2.48373E-13-2.13747E-13
 -1      1588 1.96934E+01 3.27591E-03-4.33252E-03 5.21795E-01-8.28904E-14-8.18595E-13
 -1      1589 2.04073E+01-2.75227E-02-5.94896E-04 4.96106E-01-4.61126E-14-8.96630E-13
 -1      1590 2.07071E+01-3.46591E-02 1.29833E-02 9.05154E-01 5.94125E-14-3.37255E-13
 -1      1591 1.84935E+01 3.36755E-02-2.06651E-02 4.60631E-01 5.30001E-15-8.06286E-13
 -1      1592 1.91885E+01 1.83145E-02-7.34006E-03 4.68643E-01-2.40294E-14-8.30211E-13
 -1      1593 1.97316E+01 3.06106E-02 1.19023E-03 9.23430E-01-7.13865E-14-3.30716E-13
 -1      1594 1.76211E+01 5.52007E-02-3.25896E-02 2.71895E-01 2.22487E-14-7.59358E-13
 -1      1595 1.81158E+01 6.45202E-02-1.40605E-02 3.15975E-01-2.70886E-14-7.89157E-13
 -1      1596 1.88641E+01 1.02005E-01-1.16533E-02 7.07897E-01 8.47412E-15-3.92424E-13
 -1      1597 1.73078E+01 5.57957E-02-3.23242E-02 1.50038E-02-2.01623E-13-5.18154E-13
 -1      1598 1.74701E+01 8.86695E-02-1.64395E-02 7.98912E-02-6.33833E-14-7.12303E-13
 -1      1599 1.83316E+01 1.44530E-01-1.92638E-02 3.02681E-01-6.56905E-14-1.35847E-13
 -1      1600 1.75823E+01 3.52473E-02-1.90356E-02-2.11783E-01 1.10521E-13-3.44114E-13
 -1      1601 1.74002E+01 7.86515E-02-1.20277E-02-1.51935E-01-1.37130E-14-4.55955E-13
 -1      1602 1.82545E+01 1.32831E-01-1.84009E-02-1.49040E-01-7.98892E-14-2.54616E-13
 -1      1603 1.82553E+01 5.69289E-03 1.55603E-05-3.28342E-01-5.94453E-14-6.29080E-13
 -1      1604 1.78433E+01 4.20412E-02-2.77974E-03-2.94603E-01-6.36383E-15-5.37799E-13
 -1      1605 1.85807E+01 7.24557E-02-1.11283E-02-4.78889E-01 1.48511E-13-2.77226E-13
 -1      1606 1.90283E+01-1.80130E-02 1.51047E-02-3.16191E-01 1.90349E-13-7.41591E-13
 -1      1607 1.85621E+01-2.45663E-04 6.40581E-03-3.13884E-01 1.21410E-13-5.82839E-13
 -1      1608 1.91192E+01-3.22970E-03-2.51320E-03-5.89308E-01 8.98873E-14-3.89751E-13
 -1      1609 1.96442E+01-2.75912E-02 2.06079E-02-2.15910E-01-1.01179E-13-7.40984E-13
 -1      1610 1.92737E+01-2.90803E-02 1.13728E-02-2.35627E-01-4.41097E-15-8.20129E-13
 -1      1611 1.96460E+01-5.83088E-02 3.27328E-03-4.95264E-01 5.94871E-14-3.77488E-13
 -1      1612 1.99823E+01-2.29958E-02 1.68589E-02-9.33269E-02-5.07051E-14-4.38821E-13
 -1      1613 1.97761E+01-3.62690E-02 1.10116E-02-1.19117E-01-1.06672E-13-5.93376E-13
 -1      1614 2.00045E+01-7.53883E-02 4.62993E-03-2.92291E-01-1.27943E-13-3.35229E-13
 -1      1615 2.00699E+01-9.71330E-03 8.03684E-03-5.39071E-03-1.07859E-13-3.44247E-13
 -1      1616 2.00092E+01-2.45786E-02 6.86944E-03-2.30517E-02-3.74934E-14-4.39246E-13
 -1      1617 2.01499E+01-5.77829E-02 2.19026E-03-9.41158E-02-5.21848E-14-2.65976E-14
 -1      1618 2.00293E+01 3.45720E-03 5.17249E-04 2.02081E-02-1.00823E-13-1.93749E-13
 -1      1619 2.00387E+01-4.01478E-03 1.79976E-03 1.76978E-02-1.44597E-13-3.39292E-13
 -1      1620 2.01345E+01-2.04889E-02-1.31403E-03 1.80144E-02-1.45411E-13 5.02452E-14
 -1      1621 1.99949E+01 8.59206E-03 4.48914E-03-4.73335E-03 1.13623E-13-3.80468E-13
 -1      1622 1.99934E+01 1.10278E-02 7.84944E-04 5.53927E-03 9.78678E-14-2.06670E-13
 -1      1623 2.00588E+01 1.36261E-02-6.83479E-04 2.40003E-02 1.13573E-13-9.85503E-14
 -1      1624 1.99872E+01-6.45557E-03 7.74242E-03-1.28287E-02-1.85641E-13-2.36157E-13
 -1      1625 2.00299E+01 5.16538E-02-6.24069E-04 2.94786E-02 1.33138E-13 1.08363E-13
 -1      1626 2.00209E+01 2.30801E-02 3.49832E-03 1.70568E-02-1.01816E-13 2.59656E-13
 -1      1627 2.00545E+01 3.02168E-01-2.40402E-03 1.37957E-01 4.48515E-13 2.93264E-14
 -1      1628 2.00439E+01 1.44944E-01-2.30658E-03 1.11917E-01 3.23879E-13 4.43881E-14
 -1      1629 2.00654E+01 1.41627E-01-1.01523E-02 1.44628E-01 2.00106E-13 3.21940E-13
 -1      1630 2.00726E+01 8.61613E-01-4.92939E-03 3.08699E-01 2.70426E-14-3.64143E-13
 -1      1631 2.00671E+01 5.03691E-01-6.25491E-03 2.70061E-01 2.88638E-13-5.43801E-14
 -1      1632 2.01073E+01 4.17882E-01-1.62021E-02 4.02346E-01 1.16697E-13-9.44782E-14
 -1      1633 2.00753E+01 1.81867E+00-7.02774E-03 5.17969E-01-1.46078E-13-3.00891E-13
 -1      1634 2.00803E+01 1.21471E+00-9.84173E-03 4.72985E-01 8.96245E-14-5.14033E-14
 -1      1635 2.01308E+01 9.48444E-01-2.23824E-02 7.59541E-01-1.08085E-13-3.28310E-13
 -1      1636 2.00505E+01 3.14494E+00-7.33216E-03 7.08040E-01-9.22470E-13-3.77085E-13
 -1      1637 2.00722E+01 2.32726E+00-1.11881E-02 6.71521E-01-4.38104E-13-5.46372E-13
 -1      1638 2.01234E+01 1.78825E+00-2.24963E-02 1.14571E+00-3.03757E-13-7.90360E-13
 -1      1639 1.99939E+01 4.73906E+00-3.81205E-03 8.04308E-01-1.29343E-12-1.54821E-13
 -1      1640 2.00323E+01 3.78774E+00-8.72834E-03 7.93072E-01-1.06738E-12-3.33276E-13
 -1      1641 2.00676E+01 2.91994E+00-1.40870E-02 1.44058E+00-5.81691E-13-5.91911E-13
 -1      1642 1.99188E+01 6.27615E+00 3.30952E-03 7.25041E-01-1.12220E-12-7.26329E-15
 -1      1643 1.99634E+01 5.40236E+00-1.63790E-03 7.55759E-01-1.31054E-12 1.07478E-13
 -1      1644 1.99616E+01 4.21752E+00 4.04014E-03 1.49312E+00-7.34470E-13-8.98582E-14
 -1      1645 1.98539E+01 7.36566E+00 1.08083E-02 4.43278E-01-5.77875E-13 3.51282E-13
 -1      1646 1.98869E+01 6.80346E+00 7.37908E-03 5.16378E-01-9.65672E-13 3.07195E-13
 -1      1647 1.98365E+01 5.41006E+00 2.76505E-02 1.18642E+00-4.90599E-13 2.72397E-13
 -1      1648 1.98311E+01 7.67907E+00 1.39163E-02 1.87389E-02-3.82647E-13 6.73558E-14
 -1      1649 1.98369E+01 7.60303E+00 1.34628E-02 1.13928E-01-5.61412E-13 1.03360E-13
 -1      1650 1.97434E+01 6.18081E+00 4.63919E-02 5.32139E-01-2.40095E-13 1.88669E-13
 -1      1651 1.98631E+01 7.10632E+00 1.00475E-02-4.16326E-01-5.22981E-13-1.21392E-13
 -1      1652 1.98399E+01 7.54762E+00 1.32805E-02-3.32017E-01-4.14200E-13 1.50401E-14
 -1      1653 1.97264E+01 6.28899E+00 4.95939E-02-2.99245E-01-3.81574E-13 1.61572E-14
 -1      1654 1.99319E+01 5.84076E+00 2.42315E-03-7.22005E-01-5.79349E-13 5.11197E-14
 -1      1655 1.98909E+01 6.65480E+00 7.24371E-03-6.75210E-01-4.68417E-13-1.72909E-13
 -1      1656 1.97951E+01 5.70128E+00 3.61717E-02-1.04130E+00-3.41904E-13-2.78201E-13
 -1      1657 2.00069E+01 4.18768E+00-5.44217E-03-8.39793E-01-2.72803E-13 1.76348E-13
 -1      1658 1.99643E+01 5.18622E+00 3.26895E-04-8.34487E-01-6.24625E-13 2.89913E-13
 -1      1659 1.99096E+01 4.59607E+00 1.31549E-02-1.48776E+00 1.05679E-14 2.48834E-13
 -1      1660 2.00623E+01 2.55072E+00-9.86614E-03-7.77708E-01-8.06508E-14 1.36534E-13
 -1      1661 2.00290E+01 3.49859E+00-4.84566E-03-8.03323E-01-3.68781E-13 4.07498E-13
 -1      1662 2.00270E+01 3.26049E+00-7.56802E-03-1.57182E+00-7.99586E-14 2.52447E-13
 -1      1663 2.01012E+01 1.24994E+00-2.36424E-03-5.90082E-01 2.20990E-13 2.24461E-13
 -1      1664 2.00675E+01 1.95980E+00-8.60979E-03-6.29589E-01 6.37199E-14 4.13124E-14
 -1      1665 2.01207E+01 1.99317E+00-1.89860E-02-1.34671E+00-5.64687E-14 2.07126E-13
 -1      1666 2.01793E+01 4.83615E-01 7.86543E-03-4.42670E-01-4.84803E-14-2.89817E-13
 -1      1667 2.01636E+01 8.74094E-01-4.65810E-03-5.44317E-01 2.00756E-13-2.09058E-13
 -1      1668 2.02509E+01 1.04253E+00-2.54560E-02-1.06458E+00-3.37876E-14-3.50379E-14
 -1      1669 2.04739E+01 4.29301E-01-1.67216E-02-8.20328E-01-1.14397E-13-4.39061E-13
 -1      1670-6.07286E-01-1.63095E+01-1.80117E+00-9.45926E-01 1.23612E-12 2.78000E-13
 -1      1671-6.26122E-01-1.87850E+01-2.02360E+00 4.26046E-01 1.07431E-12 2.31315E-13
 -1      1672 1.20696E+00-9.38494E+00-1.33659E+00 2.39388E-01 1.27987E-12 3.82805E-13
 -1      1673 5.11285E-01-1.51627E+01-1.93328E+00-3.66569E-01 1.36113E-12 3.52801E-13
 -1      1674 8.99742E+00-1.01215E+00-4.08823E-01 5.59402E+00 7.64722E-13 6.48481E-13
 -1      1675 5.25792E+00-7.10007E+00-1.22958E+00 2.31209E+00 1.12932E-12 3.09364E-13
 -1      1676 1.90926E+01 5.37463E+00 3.46755E-01 1.04934E+01 7.21756E-13 5.54667E-13
 -1      1677 1.22815E+01 2.01268E+00-5.29420E-01 6.70093E+00 7.76490E-13 5.88196E-13
 -1      1678 3.42234E+01 6.16009E+00 1.05984E+00 1.25750E+01 4.17666E-13 5.29798E-13
 -1      1679 2.50097E+01 5.84511E+00 2.63491E-01 1.07075E+01 5.00711E-13 5.34461E-13
 -1      1680 4.82389E+01 5.43233E+00 1.74019E+00 1.11747E+01 2.11803E-13 8.55982E-13
 -1      1681 3.93438E+01 7.18230E+00 1.09749E+00 1.29572E+01 4.30489E-13 7.34302E-13
 -1      1682 5.58774E+01 3.79594E+00 1.85018E+00 3.87866E+00 9.89486E-14 7.84206E-13
 -1      1683 5.14718E+01 5.18315E+00 1.63089E+00 8.99362E+00 8.70415E-14 7.80487E-13
 -1      1684 5.37017E+01 4.42607E+00 1.63635E+00-5.08720E+00 2.39864E-13 2.11497E-13
 -1      1685 5.58255E+01 3.91216E+00 1.77322E+00 9.98786E-01 2.68674E-13 5.59566E-13
 -1      1686 4.41835E+01 6.18110E+00 1.23113E+00-1.15575E+01 4.23273E-13-3.95795E-13
 -1      1687 5.20717E+01 4.32524E+00 1.77616E+00-8.14216E+00 2.58037E-13 2.14273E-13
 -1      1688 2.90261E+01 6.48322E+00 4.17170E-01-1.14255E+01 8.38996E-13-8.12239E-13
 -1      1689 3.90841E+01 5.91406E+00 1.26275E+00-1.21897E+01 5.82479E-13-4.80727E-13
 -1      1690 1.48092E+01 3.33943E+00-4.19040E-01-7.66602E+00 1.17539E-12-9.83880E-13
 -1      1691 2.31220E+01 5.88051E+00 5.31432E-01-1.13480E+01 9.77662E-13-1.01652E-12
 -1      1692 5.93255E+00-3.69981E+00-1.08543E+00-2.95892E+00 1.01141E-12-6.26277E-13
 -1      1693 1.01829E+01 1.56681E+00-2.56140E-01-6.40917E+00 9.97868E-13-9.40026E-13
 -1      1694 1.47876E+00-1.19883E+01-1.53655E+00-3.78912E-01 9.32032E-13-4.07868E-13
 -1      1695 2.86320E+00-5.94294E+00-9.36351E-01-1.74335E+00 1.02096E-12-4.93272E-13
 -1      1696-3.55251E-01-1.68179E+01-1.71729E+00-4.35336E-01 3.61267E-13-3.87829E-13
 -1      1697-2.45043E-01-1.34947E+01-1.42498E+00 4.86045E-01 7.88924E-13-4.14488E-13
 -1      1698-9.49507E-01-1.74798E+01-1.83878E+00-1.38565E+00-2.13773E-13-3.73285E-13
 -1      1699-8.44751E-01-1.81890E+01-1.86597E+00 3.77755E-01 3.70648E-13-3.92464E-13
 -1      1700 2.86805E-01-1.15879E+01-1.41673E+00-6.91711E-01-9.96536E-13-7.72507E-13
 -1      1701-2.38185E-02-1.60874E+01-1.79918E+00-5.11913E-01-4.21552E-13-4.86750E-13
 -1      1702 4.10484E+00-4.08975E+00-9.08976E-01 2.15681E+00-1.40599E-12-1.13115E-12
 -1      1703 2.13148E+00-9.77568E+00-1.56789E+00 7.48476E-02-1.08336E-12-8.09908E-13
 -1      1704 1.28560E+01 2.49974E+00-1.77238E-01 7.26092E+00-1.28297E-12-9.86211E-13
 -1      1705 7.54011E+00-2.05324E+00-1.05599E+00 3.51666E+00-1.39511E-12-1.01918E-12
 -1      1706 2.69484E+01 5.68701E+00 6.62041E-01 1.16332E+01-8.85292E-13-1.20126E-12
 -1      1707 1.79211E+01 4.05470E+00-2.84677E-01 8.48024E+00-1.12566E-12-1.14087E-12
 -1      1708 4.20800E+01 5.09362E+00 1.29308E+00 1.11940E+01-6.13898E-13-8.30447E-13
 -1      1709 3.26151E+01 6.10735E+00 5.68677E-01 1.13597E+01-7.63389E-13-9.76996E-13
 -1      1710 5.33114E+01 4.00412E+00 1.76471E+00 5.21465E+00-3.83943E-13-4.75175E-14
 -1      1711 4.60221E+01 5.37298E+00 1.20840E+00 9.01184E+00-6.08846E-13-5.52336E-13
 -1      1712 5.83523E+01 3.78643E+00 2.14649E+00-2.80499E+00-2.48690E-13 5.34961E-13
 -1      1713 5.70429E+01 3.82235E+00 1.94410E+00 3.47468E+00-2.76723E-13 1.17739E-13
 -1      1714 5.13003E+01 5.56787E+00 1.72535E+00-1.03648E+01-4.76279E-13 9.85656E-13
 -1      1715 5.71045E+01 3.95367E+00 2.14658E+00-5.63695E+00-3.44114E-13 6.71241E-13
 -1      1716 3.77999E+01 6.88774E+00 9.38842E-01-1.24180E+01-5.68379E-13 1.08891E-12
 -1      1717 4.68676E+01 5.57199E+00 1.67281E+00-1.14034E+01-4.31793E-13 1.13209E-12
 -1      1718 2.32546E+01 5.91193E+00 1.33371E-01-1.07555E+01-6.12510E-13 9.43468E-13
 -1      1719 3.26143E+01 6.57193E+00 1.02699E+00-1.31179E+01-6.33826E-13 1.23324E-12
 -1      1720 1.10073E+01 9.31348E-01-7.36926E-01-5.93354E+00-4.91607E-13 5.24469E-13
 -1      1721 1.77104E+01 4.85829E+00 2.28794E-01-9.96583E+00-5.83977E-13 7.78488E-13
 -1      1722 3.78668E+00-7.45279E+00-1.45669E+00-1.39729E+00-8.35332E-13 1.51212E-13
 -1      1723 6.89852E+00-1.23477E+00-6.12061E-01-4.42548E+00-6.27054E-13 2.24154E-13
 -1      1724 6.71354E-01-1.54201E+01-1.87969E+00 8.90004E-02-3.35176E-13 3.99757E-13
 -1      1725 1.45026E+00-9.75664E+00-1.31671E+00-4.85473E-01-6.66911E-13 2.91461E-13
 -1      1726-7.41893E-01-1.94646E+01-2.12867E+00-2.91338E-01 9.65505E-13 4.91079E-13
 -1      1727-8.12204E-01-1.73312E+01-1.94641E+00 1.31265E+00-4.66294E-15 7.43988E-13
 -1      1728 2.67334E+01 8.84544E-01 4.11485E-01 7.67335E+00 3.56715E-13 1.84963E-13
 -1      1729 1.61376E+01-3.95329E+00-3.36997E-01 6.98785E+00 5.95191E-13 3.58380E-13
 -1      1730 2.00120E+01-8.08557E-04 3.42739E-03-1.15059E-02-1.44129E-13-2.90703E-14
 -1      1731 2.00325E+01 4.36534E-02-2.47880E-03 2.42245E-02 1.40304E-13 3.17074E-13
 -1      1732 5.77062E-01-1.17092E+01-1.30477E+00 2.56431E+00 7.47957E-13 2.85660E-13
 -1      1733 7.31074E+00-8.16657E+00-7.40136E-01 5.45449E+00 6.57363E-13 1.49672E-14
 -1      1734-1.49337E+00-1.30967E+01-1.45535E+00 2.41976E-01 5.39249E-13 6.27054E-13
 -1      1735 3.65991E+01 4.10300E+00 8.03674E-01 6.79187E+00 3.23963E-13 4.96714E-13
 -1      1736 4.49659E+01 6.82228E+00 1.42045E+00 5.16115E+00 1.09940E-13 5.32241E-13
 -1      1737 4.75974E+01 7.92443E+00 1.50123E+00 1.27066E+00 2.60347E-13 2.21878E-13
 -1      1738 4.62848E+01 7.35376E+00 1.45761E+00-2.86239E+00 4.06231E-13 7.88258E-14
 -1      1739 3.97368E+01 5.23188E+00 1.07283E+00-5.85670E+00 5.89580E-13-3.36398E-14
 -1      1740 2.93901E+01 2.06923E+00 5.12046E-01-7.22181E+00 6.15341E-13-1.96620E-13
 -1      1741 1.80965E+01-1.97778E+00-1.33185E-01-6.98123E+00 4.27880E-13-6.21503E-13
 -1      1742 8.63375E+00-6.45897E+00-6.74748E-01-5.42381E+00 4.11893E-13-2.78860E-13
 -1      1743 1.98771E+00-9.80207E+00-1.00298E+00-3.46086E+00 2.24376E-13-3.70398E-13
 -1      1744-1.26298E+00-1.19129E+01-1.21713E+00-1.14843E+00 9.08718E-14-5.52836E-13
 -1      1745-6.10164E-01-1.19611E+01-1.26799E+00 1.31680E+00-2.63289E-13-7.39409E-13
 -1      1746 3.62131E+00-9.48719E+00-1.04186E+00 3.30800E+00-4.76286E-13-7.55881E-13
 -1      1747 1.07662E+01-5.65614E+00-6.57530E-01 5.18857E+00-6.31939E-13-6.44818E-13
 -1      1748 2.07428E+01-1.30305E+00-5.66637E-02 6.70138E+00-7.41518E-13-6.21725E-13
 -1      1749 3.21840E+01 2.44853E+00 6.65567E-01 6.68398E+00-5.60718E-13-5.02598E-13
 -1      1750 4.12641E+01 5.24690E+00 1.13027E+00 4.00013E+00-5.91957E-13-1.13243E-13
 -1      1751 4.71660E+01 7.17542E+00 1.40722E+00 8.87640E-01-5.43066E-13 2.52187E-13
 -1      1752 4.99269E+01 7.56003E+00 1.79116E+00-2.26623E+00-4.23606E-13 1.89654E-13
 -1      1753 4.45555E+01 6.43647E+00 1.38599E+00-5.15503E+00-3.36731E-13 4.01679E-13
 -1      1754 3.60485E+01 3.89457E+00 9.03445E-01-6.98945E+00-2.83273E-13 6.16063E-13
 -1      1755 2.54347E+01 5.16032E-01 3.15692E-01-7.86156E+00-1.75304E-13 4.94382E-13
 -1      1756 1.45225E+01-3.99950E+00-4.16289E-01-6.68101E+00-4.43645E-13 3.71980E-13
 -1      1757 6.08019E+00-8.67615E+00-9.69655E-01-4.77171E+00-2.48912E-13 4.95437E-15
 -1      1758 4.67490E-01-1.19811E+01-1.31788E+00-2.52619E+00 3.03868E-13 8.02747E-13
 -1      1759 2.28606E+01 1.98484E+00-2.35562E-02-2.72238E+00-3.33109E-13 1.53005E-12
 -1      1760 1.98222E+01 3.71852E+00-3.49151E-02-2.15499E+00-4.74237E-13-3.67279E-13
 -1      1761 2.00515E+01 3.56057E+00-4.29493E-02-2.44154E+00-5.31783E-13-2.16091E-13
 -1      1762 2.03654E+01 3.18232E+00-4.52284E-02-2.58497E+00-5.25623E-13-2.66731E-14
 -1      1763 2.05845E+01 2.80919E+00-1.42624E-01-2.85321E+00-5.43194E-13 2.45477E-13
 -1      1764 2.04304E+01 2.69118E+00-3.00312E-03-2.22133E+00-5.50944E-13-9.94482E-14
 -1      1765 1.93545E+01 4.18899E+00-2.01851E-02-1.27042E+00-2.98194E-13-6.71177E-13
 -1      1766 1.94279E+01 4.14927E+00-1.71730E-02-1.49484E+00-3.48531E-13-6.31183E-13
 -1      1767 1.92578E+01 4.29469E+00-1.68056E-02-8.59596E-01-2.15340E-13-7.16299E-13
 -1      1768 1.93005E+01 4.27076E+00-1.43564E-02-1.07036E+00-2.51996E-13-6.97822E-13
 -1      1769 1.95263E+01 3.78298E+00-9.28349E-03-1.11946E+00-3.03144E-13-6.55113E-13
 -1      1770 1.92062E+01 4.35507E+00-1.48052E-02-4.66760E-01-1.15190E-13-7.24533E-13
 -1      1771 1.92282E+01 4.34224E+00-1.33267E-02-6.67050E-01-1.59976E-13-7.21053E-13
 -1      1772 1.94291E+01 3.90328E+00-9.22172E-03-7.33164E-01-1.99624E-13-6.82702E-13
 -1      1773 1.91868E+01 4.38068E+00-1.36694E-02-8.36220E-02-1.84151E-14-7.27618E-13
 -1      1774 1.91932E+01 4.37676E+00-1.32178E-02-2.79056E-01-5.83235E-14-7.29042E-13
 -1      1775 1.93788E+01 3.96772E+00-9.16442E-03-3.58276E-01-9.69863E-14-7.05370E-13
 -1      1776 1.91949E+01 4.37539E+00-1.31706E-02 2.98105E-01 7.45155E-14-7.18094E-13
 -1      1777 1.91873E+01 4.37984E+00-1.37523E-02 1.02511E-01 3.38718E-14-7.23768E-13
 -1      1778 1.93640E+01 3.98713E+00-9.14761E-03 1.05597E-02 6.82830E-15-6.98396E-13
 -1      1779 1.92323E+01 4.33821E+00-1.33288E-02 6.86813E-01 1.56432E-13-7.05481E-13
 -1      1780 1.92090E+01 4.35189E+00-1.49165E-02 4.86022E-01 1.14556E-13-7.14014E-13
 -1      1781 1.93815E+01 3.96442E+00-9.18882E-03 3.79579E-01 1.01991E-13-6.89969E-13
 -1      1782 1.93059E+01 4.26483E+00-1.44101E-02 1.08445E+00 2.52997E-13-6.51973E-13
 -1      1783 1.92625E+01 4.28928E+00-1.69719E-02 8.76488E-01 2.08311E-13-6.85989E-13
 -1      1784 1.94344E+01 3.89694E+00-9.19375E-03 7.51716E-01 1.94457E-13-6.71107E-13
 -1      1785 1.94378E+01 4.13765E+00-1.74031E-02 1.51441E+00 3.68292E-13-5.67345E-13
 -1      1786 1.93612E+01 4.18022E+00-2.05014E-02 1.28490E+00 3.03415E-13-6.12911E-13
 -1      1787 1.95342E+01 3.77306E+00-9.23923E-03 1.13544E+00 3.09708E-13-5.99165E-13
 -1      1788 1.96673E+01 3.92112E+00-2.51930E-02 1.97945E+00 4.71040E-13-4.29184E-13
 -1      1789 1.95343E+01 3.99788E+00-2.69036E-02 1.72212E+00 4.15840E-13-5.10741E-13
 -1      1790 1.97079E+01 3.56601E+00-8.69554E-03 1.53511E+00 4.19251E-13-4.93664E-13
 -1      1791 2.00763E+01 3.52279E+00-4.51844E-02 2.47187E+00 5.55226E-13-1.61111E-13
 -1      1792 1.98361E+01 3.68325E+00-3.97242E-02 2.18277E+00 5.02327E-13-3.22700E-13
 -1      1793 2.00046E+01 3.22288E+00-5.27121E-03 1.93440E+00 5.19588E-13-3.27981E-13
 -1      1794 2.09220E+01 2.68182E+00-5.76480E-02 2.85760E+00 5.52003E-13 3.49887E-13
 -1      1795 2.04144E+01 3.09694E+00-5.04293E-02 2.61580E+00 5.46594E-13 3.92464E-14
 -1      1796 2.05181E+01 2.60993E+00 3.18786E-03 2.24437E+00 5.74527E-13-3.59678E-14
 -1      1797 2.17325E+01 1.21297E+00-1.22093E-01 2.32970E+00 4.76869E-13 9.94149E-13
 -1      1798 2.12759E+01 2.26305E+00 1.17359E-04 2.74028E+00 5.16052E-13 5.72098E-13
 -1      1799 2.09386E+01 1.68502E+00-2.29584E-02 2.14002E+00 5.61591E-13 3.55979E-13
 -1      1800 2.09539E+01 7.78674E-01-6.24473E-02 1.52401E+00 4.79880E-13 8.39488E-13
 -1      1801 2.17985E+01 2.45802E+00 9.08956E-02-3.04809E+00-4.58224E-13 7.14748E-13
 -1      1802 2.01031E+01 2.97941E-01-8.91510E-03 6.56868E-01 3.85081E-13 6.00568E-13
 -1      1803 2.06552E+01 4.40408E-01-1.24672E-02 1.03391E+00 4.10255E-13 7.48653E-13
 -1      1804 2.07462E+01 8.45120E-01 2.24704E-03 1.41496E+00 4.90236E-13 4.77169E-13
 -1      1805 2.15089E+01 1.74230E+00 7.95252E-02-2.33726E+00-4.90656E-13 5.11341E-13
 -1      1806 2.05222E+01 5.00719E-01 3.24821E-02-9.21444E-01-3.93931E-13 4.13351E-13
 -1      1807 2.00909E+01 3.52038E-01 7.72128E-03-6.29605E-01-3.43390E-13 3.07407E-13
 -1      1808 1.98960E+01 2.57347E-01 2.74037E-02-3.91208E-01-3.09747E-13 2.85266E-13
 -1      1809 1.97052E+01 1.78067E-01 1.04291E-02-2.53323E-01-2.80149E-13 2.11013E-13
 -1      1810 2.02002E+01 4.83354E-01-5.91236E-03-7.22705E-01-3.85349E-13 6.92818E-14
 -1      1811 1.95832E+01 1.32584E-01 1.66464E-02-1.19910E-01-2.32036E-13 1.87309E-13
 -1      1812 1.95051E+01 9.29687E-02 6.97206E-03-4.91877E-02-1.91231E-13 1.26795E-13
 -1      1813 1.98743E+01 2.43872E-01-5.74029E-03-2.95633E-01-2.94566E-13 2.15158E-14
 -1      1814 1.94401E+01 6.82880E-02 8.67293E-03 2.42386E-02-1.74006E-13 1.15147E-13
 -1      1815 1.94255E+01 4.65760E-02 4.08649E-03 6.03315E-02-1.48250E-13 6.51304E-14
 -1      1816 1.96916E+01 1.25010E-01-4.65532E-03-5.90027E-02-2.20722E-13-2.75285E-14
 -1      1817 1.93993E+01 3.22110E-02 4.22283E-03 9.89176E-02-1.39758E-13 2.85828E-14
 -1      1818 1.94189E+01 1.97381E-02 2.41503E-03 1.15575E-01-1.33696E-13-3.68436E-14
 -1      1819 1.96049E+01 6.07031E-02-3.46758E-03 7.03331E-02-1.81356E-13-6.13666E-14
 -1      1820 1.94170E+01 1.10753E-02 1.84600E-03 1.33323E-01-1.34120E-13-4.19582E-14
 -1      1821 1.94538E+01 3.86937E-03 1.43381E-03 1.38600E-01-1.18377E-13-6.48234E-14
 -1      1822 1.95803E+01 2.37244E-02-2.33414E-03 1.36399E-01-1.59402E-13-1.32844E-13
 -1      1823 1.94660E+01-1.34038E-03 5.46532E-04 1.43785E-01-9.79603E-14-7.73457E-14
 -1      1824 1.95098E+01-5.34014E-03 8.20885E-04 1.42400E-01-6.92178E-14-8.90719E-14
 -1      1825 1.95934E+01 2.12586E-03-1.43164E-03 1.64298E-01-1.29594E-13-1.24434E-13
 -1      1826 1.95295E+01-8.33798E-03-1.73531E-04 1.40159E-01-8.28648E-14-8.33181E-14
 -1      1827 1.95743E+01-1.03077E-02 4.26141E-04 1.35057E-01-6.80292E-14-9.19705E-14
 -1      1828 1.96275E+01-1.01765E-02-7.86542E-04 1.69212E-01-9.03323E-14-1.84815E-13
 -1      1829 1.95970E+01-1.18445E-02-5.57697E-04 1.28706E-01-9.85657E-14-1.20863E-13
 -1      1830 1.96395E+01-1.25060E-02 1.76789E-04 1.21794E-01-9.04927E-14-1.63611E-13
 -1      1831 1.96715E+01-1.65864E-02-3.56280E-04 1.60754E-01-1.26830E-13-1.87166E-13
 -1      1832 1.96625E+01-1.30664E-02-7.34815E-04 1.13517E-01-6.01981E-14-1.87650E-13
 -1      1833 1.97008E+01-1.28831E-02 3.12864E-05 1.06046E-01-1.99902E-14-2.05371E-13
 -1      1834 1.97185E+01-1.91705E-02-8.70061E-05 1.45205E-01-8.64136E-14-1.90248E-13
 -1      1835 1.97227E+01-1.27894E-02-7.80852E-04 9.72957E-02-5.61512E-14-2.11840E-13
 -1      1836 1.97562E+01-1.20623E-02-3.70702E-05 9.00894E-02-6.03213E-14-2.72663E-13
 -1      1837 1.97645E+01-1.92515E-02 6.61760E-05 1.26729E-01-5.58123E-14-2.75030E-13
 -1      1838 1.97762E+01-1.15283E-02-7.43942E-04 8.18334E-02-3.85521E-14-3.22150E-13
 -1      1839 1.98050E+01-1.04473E-02-4.57142E-05 7.54376E-02-5.98986E-14-3.02349E-13
 -1      1840 1.98071E+01-1.76914E-02 1.36423E-04 1.08106E-01-7.66521E-14-3.03114E-13
 -1      1841 1.98230E+01-9.60857E-03-6.55381E-04 6.83313E-02-5.76002E-14-3.05793E-13
 -1      1842 1.98475E+01-8.28297E-03-5.19915E-06 6.31179E-02-6.84854E-14-2.87522E-13
 -1      1843 1.98456E+01-1.50399E-02 1.47022E-04 9.12085E-02-6.07066E-14-2.98578E-13
 -1      1844 1.98638E+01-7.21628E-03-5.35298E-04 5.76274E-02-7.05796E-14-2.94709E-13
 -1      1845 1.98852E+01-5.69387E-03 7.94325E-05 5.38731E-02-3.53834E-14-2.94604E-13
 -1      1846 1.98803E+01-1.16210E-02 1.13686E-04 7.73314E-02-8.25420E-14-3.18459E-13
 -1      1847 1.99003E+01-4.43012E-03-3.96058E-04 5.03681E-02-2.27214E-14-2.68416E-13
 -1      1848 1.99197E+01-2.71021E-03 2.07763E-04 4.83147E-02-1.48455E-14-2.60578E-13
 -1      1849 1.99119E+01-7.58704E-03 4.64552E-05 6.74415E-02 3.23546E-15-3.05304E-13
 -1      1850 1.99345E+01-1.24343E-03-2.44551E-04 4.71412E-02-6.42359E-14-2.56488E-13
 -1      1851 1.99534E+01 7.14625E-04 3.83384E-04 4.70442E-02-6.52151E-14-2.55081E-13
 -1      1852 1.99419E+01-2.95524E-03-4.89001E-05 6.23624E-02-3.49884E-14-2.63605E-13
 -1      1853 1.99689E+01 2.42081E-03-8.38587E-05 4.85824E-02-4.52455E-14-2.96530E-13
 -1      1854 1.99891E+01 4.69177E-03 6.13459E-04 5.07512E-02-3.75537E-14-2.77720E-13
 -1      1855 1.99722E+01 2.36780E-03-1.69780E-04 6.29234E-02-5.05615E-14-1.82488E-13
 -1      1856 2.00066E+01 6.69941E-03 8.54509E-05 5.54641E-02-9.45052E-14-2.82712E-13
 -1      1857 2.00302E+01 9.38824E-03 9.08349E-04 6.02959E-02-6.11565E-14-3.57951E-13
 -1      1858 2.00053E+01 8.56897E-03-3.15793E-04 7.00783E-02-8.27238E-14-2.40421E-13
 -1      1859 2.00512E+01 1.17813E-02 2.64180E-04 6.87686E-02-3.05502E-14-4.19616E-13
 -1      1860 2.00807E+01 1.50200E-02 1.28113E-03 7.67785E-02-3.69222E-14-4.49220E-13
 -1      1861 2.00438E+01 1.59164E-02-4.87883E-04 8.50040E-02-1.07470E-13-4.27540E-13
 -1      1862 2.01069E+01 1.79004E-02 4.53386E-04 8.97512E-02 1.46099E-14-4.32265E-13
 -1      1863 2.01452E+01 2.18442E-02 1.74672E-03 1.01596E-01-8.72712E-15-4.33124E-13
 -1      1864 2.00912E+01 2.47490E-02-6.87430E-04 1.09180E-01 1.86804E-14-4.41103E-13
 -1      1865 2.01788E+01 2.53258E-02 6.53134E-04 1.19988E-01-2.02128E-14-3.29391E-13
 -1      1866 2.02294E+01 3.01445E-02 2.32004E-03 1.36484E-01 6.62065E-14-2.68095E-13
 -1      1867 2.01513E+01 3.54622E-02-9.15263E-04 1.44449E-01 5.52654E-14-3.51026E-13
 -1      1868 2.02728E+01 3.43412E-02 8.60939E-04 1.61398E-01 7.97453E-14-3.01146E-13
 -1      1869 2.03400E+01 4.02007E-02 3.01231E-03 1.83523E-01 1.14772E-13-2.33823E-13
 -1      1870 2.02287E+01 4.84806E-02-1.17053E-03 1.93048E-01 7.49472E-14-2.83322E-13
 -1      1871 2.03958E+01 4.52020E-02 1.06972E-03 2.16223E-01 1.50669E-13-2.81138E-13
 -1      1872 2.04844E+01 5.22232E-02 3.82374E-03 2.45080E-01 5.74684E-14-2.80916E-13
 -1      1873 2.03285E+01 6.42001E-02-1.44951E-03 2.57585E-01 1.41495E-13-3.26265E-13
 -1      1874 2.05557E+01 5.80434E-02 1.26514E-03 2.86911E-01-4.54897E-14-3.00850E-13
 -1      1875 2.06715E+01 6.62182E-02 4.72994E-03 3.23626E-01-8.21801E-14-2.58602E-13
 -1      1876 2.04568E+01 8.28638E-02-1.74459E-03 3.40915E-01-1.36789E-14-4.45732E-13
 -1      1877 2.07615E+01 7.26964E-02 1.42259E-03 3.75810E-01-1.19386E-13-2.75091E-13
 -1      1878 2.09105E+01 8.17209E-02 5.65804E-03 4.21298E-01-1.19735E-13-3.50982E-13
 -1      1879 2.06197E+01 1.04311E-01-2.04437E-03 4.45823E-01-1.16964E-13-4.23350E-13
 -1      1880 2.10226E+01 8.83319E-02 1.50499E-03 4.84521E-01-1.16855E-13-2.92533E-13
 -1      1881 2.12111E+01 9.72979E-02 6.44768E-03 5.38992E-01-1.01006E-13-3.13598E-13
 -1      1882 2.08242E+01 1.27493E-01-2.33630E-03 5.74351E-01-1.05140E-13-3.12431E-13
 -1      1883 2.13485E+01 1.02813E-01 1.46497E-03 6.12621E-01-2.53443E-14-1.93650E-13
 -1      1884 2.15815E+01 1.09671E-01 6.79442E-03 6.74639E-01 8.14156E-14-1.60253E-13
 -1      1885 2.10769E+01 1.49584E-01-2.61462E-03 7.26497E-01-4.07831E-14-1.55080E-13
 -1      1886 2.17473E+01 1.11590E-01 1.25917E-03 7.55309E-01 6.06073E-14-2.71913E-13
 -1      1887 2.20266E+01 1.12305E-01 6.18225E-03 8.20133E-01 2.00998E-14-3.19966E-13
 -1      1888 2.13839E+01 1.64467E-01-2.89656E-03 8.97854E-01-4.45000E-15-1.07029E-13
 -1      1889 2.22236E+01 1.06032E-01 8.86817E-04 8.99412E-01-1.45914E-14-4.18189E-13
 -1      1890 2.25447E+01 9.34694E-02 3.83731E-03 9.56340E-01-1.99448E-14-3.94452E-13
 -1      1891 2.17505E+01 1.60406E-01-3.24666E-03 1.07563E+00 2.55221E-14-2.21104E-13
 -1      1892 2.27753E+01 7.13846E-02 4.58128E-04 1.01720E+00-5.41948E-14-4.03258E-13
 -1      1893 2.31218E+01 3.44552E-02-1.20959E-03 1.04594E+00-9.47390E-14-4.01770E-13
 -1      1894 2.21802E+01 1.17157E-01-3.79498E-03 1.23249E+00-5.29801E-14-3.63012E-13
 -1      1895 2.33885E+01-1.42679E-02 2.62877E-04 1.05835E+00-1.21256E-13-2.74167E-13
 -1      1896 2.37259E+01-8.94586E-02-9.75786E-03 1.02569E+00-1.17675E-13-3.53201E-13
 -1      1897 2.26751E+01 4.18565E-03-4.68893E-03 1.31825E+00-2.78835E-14-1.98091E-13
 -1      1898 2.40297E+01-1.75964E-01 7.02325E-04 9.43407E-01-1.71268E-13-2.11263E-13
 -1      1899 2.42995E+01-2.99007E-01-2.15285E-02 8.04181E-01-1.09732E-13-1.64011E-13
 -1      1900 2.32343E+01-2.14740E-01-5.81863E-03 1.25182E+00-1.48378E-13-5.99607E-15
 -1      1901 2.46324E+01-4.24397E-01 1.67613E-03 5.68941E-01-1.34949E-13-1.93577E-13
 -1      1902 2.47527E+01-5.81356E-01-3.33980E-02 2.80325E-01-6.36106E-14-3.06307E-13
 -1      1903 2.38482E+01-5.59584E-01-6.20877E-03 9.21418E-01-1.28886E-13 5.31918E-14
 -1      1904 2.50778E+01-7.13691E-01 1.41853E-03-1.52793E-01-5.09818E-14-3.04837E-13
 -1      1905 2.49605E+01-8.36168E-01-3.79880E-02-5.91526E-01-8.31141E-14-2.67173E-13
 -1      1906 2.44769E+01-9.79577E-01-3.22360E-03 2.12193E-01-6.44085E-14-3.69563E-14
 -1      1907 2.51813E+01-8.84371E-01-5.37697E-03-1.18843E+00-1.71391E-14-3.16610E-13
 -1      1908 2.47791E+01-8.37637E-01-2.62572E-02-1.67231E+00 6.20597E-14-2.63017E-13
 -1      1909 2.50057E+01-1.27206E+00 5.73714E-03-9.03816E-01-6.74044E-14-7.61359E-14
 -1      1910 2.47465E+01-6.67933E-01-2.18622E-02-2.22782E+00 1.55100E-13-2.86113E-13
 -1      1911 2.41183E+01-3.34274E-01 9.80265E-04-2.50997E+00 1.59565E-13-1.57534E-13
 -1      1912 2.52122E+01-1.07835E+00 1.48214E-02-2.19657E+00 7.39313E-14-4.73146E-15
 -1      1913 2.37603E+01 9.56812E-02-4.02431E-02-2.64496E+00 1.50539E-14-1.75499E-13
 -1      1914 2.31067E+01 6.18349E-01 1.92954E-02-2.44722E+00-9.09550E-14-2.13553E-13
 -1      1915 2.48728E+01-1.30631E-01 4.97116E-03-3.03581E+00 1.06182E-14-8.15329E-14
 -1      1916 2.26393E+01 1.07580E+00-3.71476E-02-1.88171E+00-1.77899E-13-1.35714E-13
 -1      1917 2.22359E+01 1.39866E+00 3.56854E-03-1.18537E+00-2.71373E-13-1.68108E-13
 -1      1918 2.40892E+01 1.25674E+00-3.27291E-02-2.62127E+00-1.47216E-13-5.51113E-14
 -1      1919 2.20698E+01 1.47884E+00-6.66194E-03-1.76188E-01-3.39735E-13-2.34630E-13
 -1      1920 2.20741E+01 1.29919E+00-3.23724E-02 6.08247E-01-1.07865E-13-3.21354E-13
 -1      1921 2.34738E+01 2.08789E+00-6.35687E-02-8.47015E-01-2.60923E-13 1.27363E-13
 -1      1922 2.23039E+01 9.23649E-01 1.98580E-02 1.36894E+00 1.62717E-15-3.28956E-13
 -1      1923 2.26244E+01 4.18354E-01-4.59898E-02 1.74501E+00 1.00270E-13-3.57200E-13
 -1      1924 2.35315E+01 1.62300E+00-5.05003E-02 1.18090E+00-1.14513E-13 9.95354E-14
 -1      1925 2.28863E+01-5.87162E-02 1.28702E-02 1.82709E+00 3.47267E-13-5.22769E-13
 -1      1926 2.32731E+01-4.80295E-01-3.06699E-02 1.67438E+00 2.58421E-13-2.18811E-13
 -1      1927 2.39819E+01 3.00010E-01-8.68830E-03 2.07906E+00 1.27023E-13-1.44485E-13
 -1      1928 2.32483E+01-7.33271E-01-1.43044E-02 1.21385E+00 1.58781E-13 3.09336E-14
 -1      1929 2.34686E+01-8.57826E-01-9.10440E-03 7.68918E-01 3.81990E-13 1.44717E-13
 -1      1930 2.41638E+01-8.50233E-01 1.49954E-02 1.58048E+00 4.36745E-13-1.67445E-13
 -1      1931 2.31571E+01-8.52832E-01-3.19106E-02 1.71157E-01 2.60065E-13 1.19431E-13
 -1      1932 2.31164E+01-7.47528E-01 3.32342E-03-2.77697E-01 2.33848E-13 1.81912E-14
 -1      1933 2.37905E+01-1.25097E+00 7.93088E-03 3.72778E-01 2.73275E-13 1.36378E-13
 -1      1934 2.26670E+01-6.00213E-01-3.16535E-02-7.26420E-01 4.41609E-14-3.54178E-14
 -1      1935 2.24064E+01-3.99791E-01 9.70203E-03-1.00745E+00-2.87730E-14-2.77785E-13
 -1      1936 2.30356E+01-1.00764E+00-2.97214E-03-7.69499E-01 6.63488E-14-6.47744E-14
 -1      1937 2.19416E+01-2.12941E-01-2.18795E-02-1.20262E+00-3.20937E-14-3.17680E-13
 -1      1938 2.15703E+01-8.93681E-04 1.24896E-02-1.26186E+00-8.38279E-14-2.76287E-13
 -1      1939 2.21563E+01-4.70259E-01-7.40912E-03-1.44964E+00-1.23548E-13-9.22890E-14
 -1      1940 2.11889E+01 1.52656E-01-1.21061E-02-1.19605E+00 4.34857E-15-4.01413E-13
 -1      1941 2.08336E+01 3.36233E-01 1.80505E-02-1.05116E+00 4.67952E-14-4.23305E-13
 -1      1942 2.07044E+01 5.22844E-01-2.38166E-03-1.26144E+00-2.82937E-14-1.95740E-13
 -1      1943 2.13558E+01 1.12537E-01-1.53112E-03-1.57051E+00-4.32901E-14-1.32364E-13
 -1      1944 1.96205E+01 1.42029E-01 7.88276E-03 2.59251E-01 3.02905E-13 4.23939E-13
 -1      1945 1.98926E+01 2.04093E-01 1.64335E-02 4.32250E-01 3.21935E-13 5.37796E-13
 -1      1946 2.01040E+01 3.50546E-01-1.53242E-03 6.54788E-01 3.95578E-13 3.35519E-13
 -1      1947 1.93783E+01 7.18984E-02 6.94829E-03 5.62978E-02 2.18838E-13 2.97187E-13
 -1      1948 1.94932E+01 1.01786E-01 1.41953E-02 1.44807E-01 2.49048E-13 3.87078E-13
 -1      1949 1.97113E+01 1.65172E-01-1.94262E-03 2.56050E-01 3.01995E-13 2.37135E-13
 -1      1950 1.92878E+01 3.61314E-02 4.43019E-03-4.91332E-02 1.24196E-13 1.63178E-13
 -1      1951 1.93179E+01 5.19458E-02 8.33565E-03-1.93406E-03 1.65026E-13 2.36169E-13
 -1      1952 1.95111E+01 8.06573E-02-2.82228E-03 4.40998E-02 2.31900E-13 1.16448E-13
 -1      1953 1.92861E+01 1.61834E-02 2.86088E-03-1.01590E-01 6.57139E-14 6.92859E-14
 -1      1954 1.92709E+01 2.50489E-02 4.35083E-03-7.69805E-02 8.64087E-14 1.21016E-13
 -1      1955 1.94320E+01 3.74491E-02-2.83931E-03-6.77631E-02 1.33597E-13 2.12536E-14
 -1      1956 1.93332E+01 4.54587E-03 1.98581E-03-1.23633E-01 5.64829E-14 7.44646E-14
 -1      1957 1.92949E+01 9.58013E-03 2.14534E-03-1.12224E-01 4.42029E-14 7.23928E-14
 -1      1958 1.94254E+01 1.36092E-02-2.30973E-03-1.23260E-01 6.71011E-14-1.77700E-14
 -1      1959 1.94046E+01-2.23839E-03 1.44355E-03-1.27796E-01 5.95947E-14 4.39991E-14
 -1      1960 1.93561E+01 5.04176E-04 9.47102E-04-1.24316E-01 6.93270E-14 7.41042E-14
 -1      1961 1.94599E+01 2.42223E-05-1.69082E-03-1.45745E-01 7.46994E-14-4.14034E-14
 -1      1962 1.94849E+01-5.99209E-03 1.06334E-03-1.21636E-01 1.11364E-13-1.84819E-14
 -1      1963 1.94340E+01-4.67835E-03 2.75744E-04-1.22869E-01 8.43975E-14 3.52879E-14
 -1      1964 1.95153E+01-7.56531E-03-1.16971E-03-1.48705E-01 9.35732E-14-1.39172E-14
 -1      1965 1.95650E+01-7.78425E-03 7.81152E-04-1.09945E-01 4.39631E-14 8.42696E-15
 -1      1966 1.95162E+01-7.37523E-03-1.04447E-04-1.13821E-01 7.47496E-14 6.33277E-15
 -1      1967 1.95791E+01-1.14316E-02-7.79396E-04-1.40451E-01 8.24773E-14-1.42419E-14
 -1      1968 1.96399E+01-8.28968E-03 5.70583E-04-9.58423E-02 9.79689E-14 7.89695E-15
 -1      1969 1.95954E+01-8.44933E-03-3.08290E-04-1.00994E-01 5.81878E-14 3.68890E-14
 -1      1970 1.96436E+01-1.29128E-02-5.01554E-04-1.26318E-01 6.42282E-14 9.81317E-15
 -1      1971 1.97068E+01-7.94996E-03 4.17131E-04-8.13794E-02 1.05492E-13-5.60442E-14
 -1      1972 1.96678E+01-8.45788E-03-3.98577E-04-8.68906E-02 1.13771E-13-1.90341E-14
 -1      1973 1.97044E+01-1.28515E-02-3.10733E-04-1.09805E-01 1.31064E-13-4.47093E-14
 -1      1974 1.97651E+01-7.05419E-03 3.11091E-04-6.79053E-02 2.01978E-13-1.57332E-13
 -1      1975 1.97316E+01-7.76675E-03-4.13700E-04-7.31605E-02 1.72764E-13-9.71188E-14
 -1      1976 1.97593E+01-1.17933E-02-1.85822E-04-9.32246E-02 1.88897E-13-5.46110E-14
 -1      1977 1.98151E+01-5.78414E-03 2.45755E-04-5.63158E-02 6.10267E-14-1.69415E-13
 -1      1978 1.97868E+01-6.61142E-03-3.78403E-04-6.08936E-02 1.05005E-13-1.40493E-13
 -1      1979 1.98077E+01-1.00878E-02-1.11188E-04-7.81136E-02 1.35440E-13-8.44509E-14
 -1      1980 1.98583E+01-4.24235E-03 2.16773E-04-4.72298E-02-6.30617E-14-1.55781E-13
 -1      1981 1.98343E+01-5.13314E-03-3.08610E-04-5.08277E-02 1.49505E-14-1.69039E-13
 -1      1982 1.98501E+01-7.94575E-03-7.57877E-05-6.55131E-02 2.10741E-14-1.35681E-13
 -1      1983 1.98965E+01-2.47192E-03 2.21749E-04-4.11194E-02 3.62222E-14-2.21987E-13
 -1      1984 1.98756E+01-3.40281E-03-2.14110E-04-4.34970E-02-1.39531E-14-1.75015E-13
 -1      1985 1.98876E+01-5.47569E-03-7.21787E-05-5.61701E-02 1.63443E-15-1.92400E-13
 -1      1986 1.99322E+01-4.71799E-04 2.59891E-04-3.84065E-02 5.07149E-14-2.21744E-13
 -1      1987 1.99129E+01-1.43875E-03-1.00362E-04-3.93428E-02 9.75030E-15-2.51472E-13
 -1      1988 1.99220E+01-2.70994E-03-9.56860E-05-5.06856E-02 6.45123E-14-2.30405E-13
 -1      1989 1.99681E+01 1.79004E-03 3.31565E-04-3.95327E-02 6.49276E-14-1.37009E-13
 -1      1990 1.99488E+01 7.78848E-04 3.01282E-05-3.87942E-02 8.23232E-14-1.57112E-13
 -1      1991 1.99555E+01 3.74236E-04-1.43773E-04-4.96232E-02 4.39563E-14-1.79799E-13
 -1      1992 2.00075E+01 4.36319E-03 4.37679E-04-4.50037E-02-3.11628E-14-2.19423E-13
 -1      1993 1.99864E+01 3.29434E-03 1.76611E-04-4.23233E-02 1.83225E-14-1.71920E-13
 -1      1994 1.99908E+01 3.83549E-03-2.15513E-04-5.35830E-02 4.15655E-14-1.45097E-13
 -1      1995 2.00543E+01 7.29902E-03 5.78730E-04-5.54074E-02-7.80088E-14-2.47773E-13
 -1      1996 2.00292E+01 6.16159E-03 3.38906E-04-5.04747E-02-5.30968E-14-1.97556E-13
 -1      1997 2.00309E+01 7.74767E-03-3.11036E-04-6.32438E-02-2.10339E-14-1.97013E-13
 -1      1998 2.01125E+01 1.06297E-02 7.53358E-04-7.13985E-02-8.28455E-15-2.86169E-13
 -1      1999 2.00811E+01 9.42494E-03 5.16063E-04-6.38653E-02-1.02849E-13-2.82811E-13
 -1      2000 2.00793E+01 1.21742E-02-4.30934E-04-7.93673E-02-4.46292E-14-2.57242E-13
 -1      2001 2.01869E+01 1.43380E-02 9.56110E-04-9.36387E-02 1.75845E-13-2.25193E-13
 -1      2002 2.01465E+01 1.30928E-02 7.04706E-04-8.31448E-02 1.05026E-13-2.48961E-13
 -1      2003 2.01400E+01 1.71326E-02-5.75544E-04-1.02755E-01 5.84493E-14-2.70084E-13
 -1      2004 2.02826E+01 1.83141E-02 1.17416E-03-1.22672E-01 1.24702E-13-3.11713E-13
 -1      2005 2.02303E+01 1.70996E-02 8.96912E-04-1.08901E-01 1.72783E-13-2.58721E-13
 -1      2006 2.02170E+01 2.25439E-02-7.44041E-04-1.34138E-01 1.58037E-13-2.01082E-13
 -1      2007 2.04048E+01 2.22911E-02 1.38269E-03-1.58708E-01-1.06781E-14-3.55776E-13
 -1      2008 2.03377E+01 2.12494E-02 1.07749E-03-1.41490E-01-1.28803E-16-3.66501E-13
 -1      2009 2.03151E+01 2.81581E-02-9.33216E-04-1.73977E-01 7.89322E-14-2.11147E-13
 -1      2010 2.05585E+01 2.57552E-02 1.53900E-03-2.01274E-01-1.57349E-14-3.26350E-13
 -1      2011 2.04738E+01 2.51362E-02 1.22069E-03-1.80749E-01 2.02318E-14-3.32564E-13
 -1      2012 2.04386E+01 3.34475E-02-1.13580E-03-2.22128E-01 7.10033E-15-2.32618E-13
 -1      2013 2.07474E+01 2.78256E-02 1.57597E-03-2.48693E-01 5.20142E-14-2.99504E-13
 -1      2014 2.06430E+01 2.80338E-02 1.28668E-03-2.25565E-01-2.15323E-14-3.42019E-13
 -1      2015 2.05916E+01 3.74606E-02-1.33803E-03-2.77331E-01-1.49264E-14-3.14725E-13
 -1      2016 2.09733E+01 2.71115E-02 1.39736E-03-2.97336E-01 6.61823E-14-1.96753E-13
 -1      2017 2.08486E+01 2.87573E-02 1.21889E-03-2.73243E-01 1.26515E-13-1.96620E-13
 -1      2018 2.07768E+01 3.86361E-02-1.51596E-03-3.36467E-01 5.54304E-14-1.91145E-13
 -1      2019 2.12338E+01 2.15811E-02 8.80422E-04-3.40652E-01-1.34890E-13-3.24660E-13
 -1      2020 2.10905E+01 2.55163E-02 9.44365E-04-3.18656E-01-5.62146E-14-2.89433E-13
 -1      2021 2.09947E+01 3.46057E-02-1.62969E-03-3.93560E-01-1.24658E-14-9.56623E-14
 -1      2022 2.15201E+01 8.53878E-03-1.04262E-04-3.68061E-01 1.49897E-14-3.66879E-13
 -1      2023 2.13640E+01 1.58268E-02 3.81234E-04-3.53221E-01-7.05101E-14-3.35913E-13
 -1      2024 2.12421E+01 2.20687E-02-1.61442E-03-4.38564E-01-4.31339E-14-2.45436E-13
 -1      2025 2.18143E+01-1.50852E-02-1.64159E-03-3.64051E-01-1.16916E-13-3.07871E-13
 -1      2026 2.16570E+01-3.36624E-03-5.41883E-04-3.63920E-01 1.34089E-14-3.39242E-13
 -1      2027 2.15096E+01-3.05714E-03-1.36826E-03-4.56174E-01 2.83230E-14-1.41677E-13
 -1      2028 2.20866E+01-5.17763E-02-3.67723E-03-3.08270E-01-2.34921E-13-2.43080E-13
 -1      2029 2.19469E+01-3.50588E-02-1.85034E-03-3.32914E-01-2.06355E-13-3.09088E-13
 -1      2030 2.17802E+01-4.48263E-02-7.41147E-04-4.25271E-01-1.89975E-13-1.65052E-13
 -1      2031 2.22932E+01-1.01350E-01-5.88870E-03-1.78080E-01-3.19059E-14-1.98687E-13
 -1      2032 2.21980E+01-8.06087E-02-3.47196E-03-2.38881E-01-1.98542E-13-2.01693E-13
 -1      2033 2.20262E+01-1.05218E-01 4.61131E-04-3.20253E-01-2.16332E-13-2.39629E-13
 -1      2034 2.23779E+01-1.57515E-01-7.57781E-03 4.43161E-02 5.31354E-14 2.64506E-14
 -1      2035 2.23603E+01-1.36809E-01-5.18795E-03-6.18421E-02 2.95337E-14-8.91435E-14
 -1      2036 2.22080E+01-1.80313E-01 2.42358E-03-1.16269E-01-5.30860E-14-6.49628E-14
 -1      2037 2.22788E+01-2.03892E-01-7.75257E-03 3.58334E-01 2.29105E-14 7.78665E-14
 -1      2038 2.23726E+01-1.91792E-01-6.57567E-03 2.06578E-01 3.46294E-14 9.90100E-14
 -1      2039 2.22749E+01-2.54993E-01 5.17839E-03 1.99284E-01 1.49073E-14 9.84059E-14
 -1      2040 2.19449E+01-2.13081E-01-5.71390E-03 7.26290E-01 2.33919E-13 2.87678E-14
 -1      2041 2.21735E+01-2.22061E-01-7.14370E-03 5.46995E-01 1.64474E-13 7.75643E-14
 -1      2042 2.21719E+01-2.98740E-01 8.28061E-03 6.08069E-01 1.68015E-13 1.69677E-13
 -1      2043 2.13631E+01-1.54837E-01-1.85261E-03 1.05904E+00 2.22693E-13 4.52850E-14
 -1      2044 2.17243E+01-1.95836E-01-6.30130E-03 8.95583E-01 2.24445E-13 7.16718E-14
 -1      2045 2.18554E+01-2.70110E-01 1.03226E-02 1.03987E+00 2.51329E-13 3.05248E-13
 -1      2046 2.05914E+01-1.82450E-02 1.73749E-03 1.22652E+00-1.32322E-13-2.50182E-14
 -1      2047 2.10428E+01-8.98530E-02-3.62979E-03 1.14159E+00 1.01198E-13 1.29619E-14
 -1      2048 2.13234E+01-1.36953E-01 9.29543E-03 1.36569E+00 1.28522E-13 4.56997E-13
 -1      2049 1.97770E+01 1.63791E-01 2.40440E-03 1.11148E+00 8.27116E-15-9.23619E-14
 -1      2050 2.02341E+01 8.41719E-02 9.45552E-04 1.16013E+00-1.54349E-13-1.23424E-13
 -1      2051 2.06498E+01 8.98117E-02 3.98033E-03 1.43085E+00-1.22430E-13 1.65673E-13
 -1      2052 1.91297E+01 3.12168E-01-6.40413E-04 6.93512E-01-7.02632E-14-7.43880E-14
 -1      2053 1.94850E+01 2.63196E-01 6.48362E-03 8.82613E-01-6.05418E-15-1.09600E-13
 -1      2054 1.99943E+01 3.34301E-01-3.84195E-03 1.13677E+00-4.13740E-14 2.68986E-14
 -1      2055 1.88341E+01 3.46479E-01-4.40398E-03 1.01247E-01-1.48484E-13 1.62983E-13
 -1      2056 1.89989E+01 3.57520E-01 1.09547E-02 3.68051E-01-1.03018E-13 8.84804E-14
 -1      2057 1.95523E+01 4.81959E-01-8.98193E-03 5.34010E-01-1.64020E-13 1.55464E-13
 -1      2058 1.89417E+01 2.47392E-01-5.01635E-03-4.37811E-01 9.35762E-14-1.37747E-13
 -1      2059 1.88910E+01 3.13893E-01 1.20026E-02-1.97714E-01-1.36714E-14-2.69194E-14
 -1      2060 1.94476E+01 4.52758E-01-7.55001E-03-1.62480E-01 8.87224E-14 2.37128E-13
 -1      2061 1.93361E+01 7.46085E-02-1.60596E-03-7.29468E-01 9.07347E-14-9.99617E-14
 -1      2062 1.91235E+01 1.59804E-01 8.67997E-03-6.00408E-01 1.50395E-13-2.40728E-14
 -1      2063 1.96517E+01 2.64472E-01-1.23419E-03-6.84296E-01 1.12538E-13 1.24456E-13
 -1      2064 1.98064E+01-8.10732E-02 3.22598E-03-7.20462E-01 2.02832E-13-1.91024E-13
 -1      2065 1.95347E+01-1.78948E-02 2.64143E-03-7.22215E-01 9.22531E-14-1.03584E-13
 -1      2066 2.00043E+01 1.90892E-02 3.90228E-03-8.68672E-01 1.84089E-13 8.47690E-14
 -1      2067 2.01673E+01-1.59312E-01 6.66226E-03-4.98021E-01-3.02956E-14-1.75360E-13
 -1      2068 1.99352E+01-1.38317E-01-3.05184E-03-5.90524E-01 1.06833E-13-1.33713E-13
 -1      2069 2.03217E+01-1.67604E-01 4.96176E-03-7.32763E-01 1.00397E-13 4.12738E-14
 -1      2070 2.03319E+01-1.50065E-01 7.83778E-03-2.12550E-01-1.30211E-13 4.49290E-14
 -1      2071 2.01941E+01-1.68083E-01-6.17454E-03-3.30118E-01-1.32045E-13-2.29729E-14
 -1      2072 2.04872E+01-2.34646E-01 2.86024E-03-4.22207E-01-1.69391E-13 1.01467E-13
 -1      2073 2.03143E+01-8.03758E-02 6.94081E-03 2.00030E-03-3.26822E-14 2.58309E-13
 -1      2074 2.02729E+01-1.19781E-01-6.16877E-03-8.24207E-02-1.03553E-13 1.69753E-13
 -1      2075 2.04786E+01-1.86488E-01 9.16584E-05-1.11061E-01-1.37493E-13 2.56188E-13
 -1      2076 2.01919E+01 5.06155E-03 5.22322E-03 7.74998E-02-8.60202E-14 5.59218E-14
 -1      2077 2.02134E+01-3.49847E-02-4.03327E-03 5.61253E-02-4.63418E-14 1.39906E-13
 -1      2078 2.03448E+01-7.60807E-02-2.31929E-03 7.52116E-02-5.92556E-14 3.69257E-13
 -1      2079 2.00886E+01 4.72396E-02 4.66955E-03 5.56909E-02 9.03123E-14 2.29351E-13
 -1      2080 2.01267E+01 2.30842E-02-2.39019E-03 7.60224E-02-3.99841E-14 1.26934E-13
 -1      2081 2.02071E+01 1.08085E-02-3.46463E-03 1.14231E-01 2.86294E-14 3.17678E-13
 -1      2082 2.01111E+01 7.85065E-02 5.92460E-03 8.41880E-02 2.80735E-14 6.49022E-13
 -1      2083 2.04070E+01 9.43391E-01 1.77866E-02 1.10680E+00-1.58040E-13-2.35685E-13
 -1      2084 2.03816E+01 5.92027E-01 4.79108E-03 8.83522E-01-2.91857E-13-1.39351E-13
 -1      2085 2.03389E+01 4.63029E-01 1.70364E-02 6.27363E-01-2.33768E-13-3.57807E-13
 -1      2086 2.02857E+01 2.52895E-01 2.99892E-03 4.51420E-01 1.95655E-14-1.80125E-13
 -1      2087 2.05337E+01 3.09166E-01-9.37903E-03 9.33842E-01-3.52435E-13-2.59368E-13
 -1      2088 2.02219E+01 2.17091E-01 1.29662E-02 2.88254E-01 7.82425E-14 2.36432E-13
 -1      2089 2.01671E+01 1.12427E-01 3.77613E-03 1.78862E-01-7.71982E-14 6.69240E-13
 -1      2090 2.02229E+01 8.50758E-02 5.15074E-04 2.06869E-01-7.51760E-14 5.41629E-13
 -1      2091 2.03969E+01 1.48507E-01-2.03725E-04 4.83171E-01-2.06408E-13-2.94972E-14
 -1      2092 2.03578E+01 1.66133E+00 9.51334E-03 1.59916E+00-4.73173E-13-1.23675E-12
 -1      2093 2.03988E+01 1.17961E+00 7.77465E-03 1.39063E+00-2.29742E-13-6.44139E-13
 -1      2094 2.05879E+01 6.79692E-01-1.21551E-02 1.53811E+00-3.47997E-13-5.79420E-13
 -1      2095 2.01475E+01 2.61900E+00-5.58214E-03 1.94772E+00-4.92219E-13-5.78087E-13
 -1      2096 2.02768E+01 2.03414E+00 9.29273E-03 1.82989E+00-4.96526E-13-7.52814E-13
 -1      2097 2.04525E+01 1.28944E+00-1.30928E-02 2.11945E+00-3.50389E-13-9.66331E-13
 -1      2098 1.97899E+01 3.68373E+00-2.29124E-02 1.93643E+00-4.02737E-13 1.51216E-13
 -1      2099 1.99887E+01 3.09955E+00 7.12679E-03 2.00119E+00-4.37386E-13-2.85540E-13
 -1      2100 2.00810E+01 2.14010E+00-7.90548E-03 2.45208E+00-2.87156E-13-3.19012E-13
 -1      2101 1.93973E+01 4.62510E+00-3.36052E-02 1.43053E+00-3.29976E-13 2.35503E-13
 -1      2102 1.95950E+01 4.17274E+00-8.05039E-04 1.71716E+00-3.93558E-13 2.40673E-13
 -1      2103 1.95356E+01 3.10640E+00 5.35675E-03 2.28107E+00-2.35607E-13 1.47973E-13
 -1      2104 1.91453E+01 5.16593E+00-3.18038E-02 4.82544E-01-2.34032E-13 5.50393E-14
 -1      2105 1.92477E+01 4.96623E+00-1.39719E-02 9.38331E-01-3.56969E-13 3.53904E-13
 -1      2106 1.90111E+01 3.93624E+00 2.41439E-02 1.48658E+00-4.43499E-13 3.73581E-13
 -1      2107 1.91680E+01 5.10837E+00-2.01328E-02-6.36673E-01-3.44657E-13-4.02664E-14
 -1      2108 1.91197E+01 5.22173E+00-2.75535E-02-1.51206E-01-3.05617E-13-1.57721E-14
 -1      2109 1.87421E+01 4.33235E+00 3.43318E-02 2.10692E-01-3.26970E-13 3.81015E-14
 -1      2110 1.94464E+01 4.47474E+00-5.65504E-03-1.54698E+00-1.18891E-13-4.66467E-15
 -1      2111 1.92783E+01 4.86113E+00-3.32773E-02-1.19194E+00-3.01137E-13 2.74086E-14
 -1      2112 1.88697E+01 4.13644E+00 2.89965E-02-1.13884E+00-1.41963E-13-3.04114E-14
 -1      2113 1.98373E+01 3.45385E+00 4.22678E-03-2.02670E+00 1.90974E-13 3.74150E-13
 -1      2114 1.96338E+01 4.02661E+00-2.61882E-02-1.87593E+00 1.22203E-13 1.82764E-13
 -1      2115 1.93162E+01 3.43962E+00 1.16051E-02-2.13143E+00 5.11518E-14 3.62475E-13
 -1      2116 2.01772E+01 2.34433E+00 9.09815E-03-2.02023E+00 1.32664E-13 1.63735E-13
 -1      2117 2.00155E+01 2.96554E+00-1.04461E-02-2.07416E+00 2.82182E-13 1.07513E-13
 -1      2118 1.98742E+01 2.50460E+00-3.73300E-03-2.53758E+00 3.00012E-13 2.23588E-13
 -1      2119 2.03974E+01 1.37367E+00 7.27827E-03-1.66164E+00-7.12724E-14 2.73773E-13
 -1      2120 2.02842E+01 1.92962E+00 9.80893E-04-1.85095E+00-4.99566E-14 1.47391E-13
 -1      2121 2.03360E+01 1.60943E+00-9.86297E-03-2.38079E+00 9.52042E-14 4.94212E-14
 -1      2122 1.15144E+01-6.29569E+00-1.80461E-01 7.16770E+00 5.45120E-13 1.30229E-13
 -1      2123 7.02457E+00-8.01128E+00-4.58726E-01 5.63642E+00 5.28577E-13 1.09010E-13
 -1      2124 2.97247E-01-8.09991E+00-4.11628E-01 9.48158E-01 3.67623E-13 3.15969E-13
 -1      2125 2.62648E-01-8.77574E+00-5.06926E-01-8.45613E-01 2.65565E-13 7.48956E-13
 -1      2126 4.11358E+00-7.65494E+00-3.43479E-01 4.80683E+00 5.08371E-13 1.95233E-13
 -1      2127 1.99207E+00-8.11016E+00-4.01946E-01 3.29160E+00 4.44061E-13 1.14797E-13
 -1      2128 7.79298E+00-6.17394E+00-9.68569E-02 6.46099E+00 4.15945E-13 5.80924E-14
 -1      2129 2.11953E+01-3.40616E+00 4.99711E-02 7.39097E+00 5.43232E-13 1.06248E-13
 -1      2130 1.68867E+01-5.67582E+00-1.61405E-01 6.98135E+00 5.38902E-13 1.66644E-13
 -1      2131 2.94349E+01-9.49149E-01 4.18640E-02 5.65338E+00 1.84963E-13 1.46161E-13
 -1      2132 2.46521E+01-2.44181E+00-1.01644E-01 6.16451E+00 3.47000E-13 1.22125E-14
 -1      2133 2.52200E+01-4.57934E+00 9.13685E-02 5.89875E+00 2.81275E-13-1.67089E-13
 -1      2134 1.95227E+01 4.01596E+00-2.56447E-02-1.70074E+00-3.92412E-13-5.81445E-13
 -1      2135 1.96511E+01 3.94242E+00-2.43523E-02-1.95592E+00-4.46747E-13-4.81188E-13
 -1      2136 1.99733E+01 3.25307E+00-7.96682E-03-1.90911E+00-4.90309E-13-3.90037E-13
 -1      2137 1.96934E+01 3.58304E+00-9.24982E-03-1.51751E+00-3.96372E-13-5.68295E-13
 -1      2138 4.10046E+01 6.28870E+00 3.72123E-01 2.14671E+00 1.29063E-13 3.17912E-13
 -1      2139 3.87286E+01 5.32513E+00 2.98973E-01 3.40038E+00 1.62509E-13 3.66152E-13
 -1      2140 4.03271E+01 7.71944E+00 2.01178E-01 1.72837E-01 3.24130E-13-1.14041E-13
 -1      2141 4.08519E+01 7.40264E+00 3.38634E-01 1.26501E+00 2.65399E-13 1.21070E-13
 -1      2142 3.91408E+01 6.04386E+00 2.33097E-01-1.57671E+00 3.80973E-13-1.91736E-13
 -1      2143 3.99086E+01 7.05087E+00 1.85332E-01-1.50156E-01 3.85136E-13-1.46133E-13
 -1      2144 3.41671E+01 2.94502E+00 2.59025E-02-2.91635E+00 5.75234E-13-6.99441E-14
 -1      2145 3.83231E+01 4.50213E+00 3.12941E-01-2.47163E+00 4.36262E-13-1.63480E-13
 -1      2146 3.54147E+01 5.47050E+00 2.71961E-01 5.02087E-01 4.45199E-13-2.90101E-13
 -1      2147 2.65142E+01-1.30046E+00-1.10166E-01-5.18493E+00 4.26104E-13-1.23346E-13
 -1      2148 3.16301E+01 6.25511E-01 1.63920E-01-4.82697E+00 5.97161E-13 1.52878E-13
 -1      2149 1.79377E+01-4.82090E+00-2.51630E-01-6.22009E+00 1.55098E-13-4.56080E-13
 -1      2150 2.30275E+01-2.78322E+00 6.47813E-02-6.67133E+00 2.72449E-13-4.08451E-13
 -1      2151 9.35206E+00-6.83513E+00-3.29188E-01-5.98208E+00 1.29619E-13-1.34504E-13
 -1      2152 1.35376E+01-5.10083E+00-9.13059E-02-6.99431E+00 1.77414E-13-3.82819E-13
 -1      2153 2.75624E+00-7.42564E+00-3.05590E-01-4.01599E+00-2.88658E-14-3.99236E-13
 -1      2154 5.33968E+00-6.72293E+00-2.47142E-01-5.38046E+00 1.78191E-13-1.62204E-13
 -1      2155-8.86956E-02-8.49643E+00-4.83698E-01-2.96830E-01-1.44123E-13-5.50726E-13
 -1      2156 6.04867E-01-7.29128E+00-3.08441E-01-1.94802E+00-1.24345E-13-4.13336E-13
 -1      2157 1.79548E+00-7.53843E+00-3.20267E-01 2.85166E+00-2.85827E-13-7.19758E-13
 -1      2158 3.50575E-01-8.56141E+00-4.78085E-01 1.19939E+00-1.31312E-13-7.28306E-13
 -1      2159 1.32533E+00-5.56089E+00-1.91885E-01 7.22694E-01-2.00846E-13-6.81399E-13
 -1      2160 7.69935E+00-6.85927E+00-2.80591E-01 5.34151E+00-2.79332E-13-4.09214E-13
 -1      2161 4.63311E+00-7.97973E+00-4.10984E-01 4.21794E+00-2.25653E-13-5.66158E-13
 -1      2162 1.64657E+01-5.11803E+00-5.15235E-02 6.44559E+00-3.01092E-13-2.80553E-13
 -1      2163 1.20437E+01-6.87848E+00-3.51078E-01 5.60582E+00-2.33591E-13-3.01106E-13
 -1      2164 2.54402E+01-2.19826E+00 1.18465E-01 5.91263E+00-4.85390E-13-3.30180E-13
 -1      2165 2.00221E+01-4.31577E+00-2.71455E-01 5.47383E+00-4.70735E-13-3.51996E-13
 -1      2166 3.37466E+01 9.17990E-01 1.91390E-01 3.91684E+00-4.44617E-13-9.92539E-14
 -1      2167 2.87920E+01-7.33260E-01-7.50855E-02 4.43533E+00-4.72289E-13-3.20965E-13
 -1      2168 3.78963E+01 4.20372E+00 1.15105E-01 4.31612E-01-5.82673E-13 1.22014E-13
 -1      2169 3.57748E+01 2.72440E+00 1.57078E-01 1.86974E+00-5.14519E-13 7.79377E-14
 -1      2170 4.20480E+01 7.30889E+00 5.13089E-01-4.92067E-01-4.56746E-13 1.77969E-13
 -1      2171 3.89223E+01 6.64252E+00 1.66932E-01 2.73644E-02-4.14779E-13 1.64868E-13
 -1      2172 4.15559E+01 7.13179E+00 3.49298E-01-1.77175E+00-3.04756E-13 1.33671E-13
 -1      2173 4.22868E+01 7.27676E+00 3.59787E-01-6.80011E-01-4.42701E-13 8.55045E-14
 -1      2174 3.68722E+01 8.26692E+00 3.20847E-01-8.70241E-01-3.95628E-13 1.46307E-13
 -1      2175 3.76649E+01 4.72268E+00 1.38270E-01-2.76913E+00-3.05533E-13 2.86438E-13
 -1      2176 4.12242E+01 5.99745E+00 4.62519E-01-2.28986E+00-3.43670E-13 2.24099E-13
 -1      2177 3.19670E+01 5.00606E-01 1.77393E-02-4.40625E+00-3.08087E-15 3.80584E-13
 -1      2178 3.59867E+01 2.26966E+00 2.38663E-01-3.78309E+00-1.68158E-13 2.60791E-13
 -1      2179 2.36704E+01-3.04687E+00-1.83140E-01-6.22768E+00-1.23124E-13 3.62599E-13
 -1      2180 2.89395E+01-1.05856E+00 1.45586E-01-6.31451E+00 2.81442E-14 5.04485E-13
 -1      2181 1.51410E+01-6.24747E+00-3.31550E-01-6.63097E+00-4.18776E-13 2.10942E-14
 -1      2182 2.00314E+01-4.08259E+00 2.19846E-02-7.41513E+00-2.85105E-13 1.74749E-13
 -1      2183 7.58475E+00-7.74271E+00-3.41734E-01-5.83936E+00 3.22520E-14 2.00617E-13
 -1      2184 1.12647E+01-6.33134E+00-1.60992E-01-6.96029E+00-2.87881E-13 2.22045E-14
 -1      2185 1.24735E+00-8.99121E+00-5.48615E-01-2.52743E+00 4.54775E-13 8.83849E-13
 -1      2186 3.30195E+00-7.57217E+00-3.46561E-01-4.37390E+00 3.03257E-13 5.50449E-13
 -1      2187 2.11602E+00-5.96675E+00-2.40128E-01-2.21048E+00 1.62398E-13 6.94167E-13
 -1      2188 3.73537E+01 3.83917E+00 4.84143E-01 4.49281E+00 2.37872E-13 3.91132E-13
 -1      2189 3.29642E+01 1.81123E+00 1.65390E-01 4.40673E+00 2.08056E-13 2.14939E-13
 -1      2190 3.59613E+01 4.12017E+00 2.75461E-01 1.33050E+00 1.38195E-13 7.03326E-14
 -1      2191 3.13921E+01-4.24361E-01 1.14318E-01 3.85397E+00 6.54476E-14 7.78266E-14
 -1      2192 3.01417E+01-2.53273E+00 1.70849E-01 3.16812E+00-7.99916E-14-7.42184E-14
 -1      2193 3.21374E+01-4.32415E-01-1.71844E-01 1.56989E+00-9.68323E-14 8.18234E-14
 -1      2194 2.07370E+01 1.10873E+00-2.05632E-02-1.61598E+00-4.75724E-13 3.78055E-13
 -1      2195 3.26753E+01 7.20332E-01 1.69245E-01-1.57434E+00 4.78530E-13 1.07914E-13
 -1      2196 2.06269E+01 1.32945E+00-1.88096E-02-1.67745E+00-5.09414E-13 9.90909E-14
 -1      2197 2.62080E+00-5.80702E+00-1.97264E-01 2.66576E+00 3.13749E-13 2.45082E-13
 -1      2198 1.94565E+01-6.44568E+00-1.70153E-01 7.34704E+00 3.53551E-13-1.46105E-13
 -1      2199 1.56787E+01-6.32225E+00-6.12219E-02 7.36605E+00 4.62352E-13 1.70766E-13
 -1      2200 1.48960E+01-6.09362E+00 1.53870E-01 7.78736E+00 4.55802E-13 8.59174E-14
 -1      2201 2.04894E+01 1.02198E+00 1.08536E-02-1.56923E+00-7.66002E-14 9.83970E-14
 -1      2202 7.45897E+00-6.42286E+00-1.33408E-01-6.17884E+00 2.40197E-13 4.93106E-13
 -1      2203 1.60854E+01-6.77579E+00-9.98419E-02-7.50126E+00-1.12410E-13-3.19536E-15
 -1      2204 2.42239E+01-5.30698E+00 4.05401E-02-6.09970E+00-8.31002E-14 1.75526E-13
 -1      2205 3.11422E+01-1.90424E+00 1.85400E-01-3.40305E+00 1.04888E-13 2.55629E-13
 -1      2206 3.73330E+01 7.10859E+00 3.46257E-01-2.57508E-01-3.03535E-13 3.15192E-13
 -1      2207 3.65445E+01 5.28464E+00 1.19114E-01-8.70669E-01-4.28046E-13 1.31950E-13
 -1      2208 3.33287E+01 3.92265E+00 2.13594E-02-2.03160E+00-5.01821E-13 3.03979E-13
 -1      2209 3.33681E+01 6.08049E+00-1.86355E-01-2.09921E+00-3.94740E-13 1.81882E-13
 -1      2210 3.37799E+01 9.26056E-01 2.44708E-01 5.05289E-01-3.88155E-13 2.06390E-13
 -1      2211 2.85395E+01-3.21603E+00 1.13438E-01 3.44089E+00-4.45699E-13-9.95870E-14
 -1      2212 2.09617E+01-6.09748E+00-3.12919E-02 5.55756E+00-1.72418E-13-2.61513E-13
 -1      2213 4.77640E+00-6.32098E+00-1.90672E-01 4.40515E+00-9.37028E-14-6.51368E-13
 -1      2214 2.66659E+00-6.13957E+00-1.86479E-01-3.34695E+00-2.93932E-14-3.89744E-13
 -1      2215 5.01088E+00-4.49215E+00-3.78975E-02-4.78797E+00-9.98923E-14-3.59102E-13
 -1      2216 3.05570E+00-3.92263E+00 8.42505E-02-2.67305E+00-1.24900E-14-4.01901E-13
 -1      2217 9.44306E+00-6.16874E+00-1.22148E-01-6.67726E+00-4.36873E-14-1.14631E-13
 -1      2218 1.84179E+01-5.88821E+00-4.16739E-03-6.77562E+00-4.94049E-14-3.30985E-13
 -1      2219 3.70942E+01 7.49707E+00 3.21690E-01 4.40203E-01 1.88682E-13-5.36793E-14
 -1      2220 3.64147E+01 8.07342E+00 2.50003E-01 5.47356E-01 4.19220E-13-3.07185E-13
 -1      2221 2.65148E+01-3.76894E+00 8.31748E-02-4.51453E+00 1.92929E-13-8.74856E-14
 -1      2222 1.25837E+01-6.67071E+00-8.94363E-02 6.48407E+00 7.32747E-15-1.95260E-13
 -1      2223 3.53467E+01 2.71673E+00 1.91034E-01-8.47322E-01-1.71974E-13 2.76557E-13
 -1      2224 2.01485E+01 5.06430E-01 3.72828E-03 6.77873E-01 3.83815E-13 1.21463E-13
 -1      2225 2.04164E+01 6.99972E-01 2.07820E-02 9.69473E-01 4.48119E-13 1.82007E-13
 -1      2226 1.95595E+01 3.51605E+00-1.11245E-02-5.91585E-01-1.69106E-13-6.41292E-13
 -1      2227 1.95950E+01 3.47022E+00-1.05116E-02-7.75952E-01-2.38788E-13-6.36626E-13
 -1      2228 1.96417E+01 3.38222E+00-1.28048E-02-9.40469E-01-2.76527E-13-6.35218E-13
 -1      2229 1.97026E+01 3.30166E+00-1.28550E-02-1.12965E+00-3.29859E-13-6.10290E-13
 -1      2230 1.97864E+01 3.03326E+00 1.96852E-04-7.92484E-01-2.46297E-13-5.93215E-13
 -1      2231 1.95122E+01 3.59854E+00-9.62039E-03 9.94619E-02 3.21561E-14-6.56597E-13
 -1      2232 1.95115E+01 3.59937E+00-9.62590E-03-8.00583E-02-3.36767E-14-6.56496E-13
 -1      2233 1.95384E+01 3.55915E+00-9.72119E-03 4.45590E-01 1.29104E-13-6.59141E-13
 -1      2234 1.95209E+01 3.58171E+00-1.01390E-02 2.64719E-01 7.58716E-14-6.58679E-13
 -1      2235 1.96784E+01 3.22124E+00-9.02888E-04 1.69621E-01 4.79475E-14-6.23208E-13
 -1      2236 1.96003E+01 3.46263E+00-1.06078E-02 7.89639E-01 2.31109E-13-6.29869E-13
 -1      2237 1.95640E+01 3.50963E+00-1.12086E-02 6.08165E-01 1.68920E-13-6.49431E-13
 -1      2238 1.97153E+01 3.15774E+00-5.02706E-04 4.88146E-01 1.47280E-13-6.10948E-13
 -1      2239 1.97111E+01 3.28891E+00-1.29490E-02 1.14305E+00 3.43529E-13-5.34501E-13
 -1      2240 1.96484E+01 3.37223E+00-1.28717E-02 9.53756E-01 2.71288E-13-5.82269E-13
 -1      2241 1.97924E+01 3.02410E+00 2.70870E-04 8.03904E-01 2.43799E-13-5.52234E-13
 -1      2242 1.98905E+01 3.00337E+00-1.81665E-02 1.49009E+00 4.51284E-13-4.37766E-13
 -1      2243 1.97909E+01 3.14465E+00-1.51780E-02 1.29969E+00 3.84081E-13-4.94091E-13
 -1      2244 1.99217E+01 2.79900E+00 1.96038E-03 1.11020E+00 3.52681E-13-4.72935E-13
 -1      2245 2.01693E+01 2.54382E+00-2.83978E-02 1.79445E+00 5.41323E-13-2.72400E-13
 -1      2246 2.00179E+01 2.78318E+00-1.70929E-02 1.61996E+00 4.83142E-13-3.68058E-13
 -1      2247 2.01166E+01 2.44834E+00 5.81728E-03 1.37593E+00 4.47628E-13-3.58064E-13
 -1      2248 1.98714E+01 2.68173E-01 4.72784E-03 2.85369E-01 3.08230E-13 6.58063E-14
 -1      2249 2.00321E+01 3.67955E-01 2.01693E-02 4.42498E-01 3.35186E-13 1.08863E-13
 -1      2250 2.02110E+01 6.34556E-01-2.24608E-03 7.04767E-01 4.09554E-13-1.04552E-14
 -1      2251 2.04008E+01 8.53325E-01 1.24465E-02-1.00112E+00-4.06713E-13-3.06608E-14
 -1      2252 2.01911E+01 6.28407E-01-3.83739E-03-6.91768E-01-3.64124E-13-5.98727E-14
 -1      2253 3.02339E+01-1.44486E+00-2.65640E-02-9.61047E-01 4.50091E-13 1.15075E-13
 -1      2254 3.19712E+01 9.45618E-01-1.59273E-01 3.41535E-01 4.01179E-13-1.11744E-13
 -1      2255 2.01232E+01 4.69025E-01 1.55798E-02-4.74577E-01-3.12150E-13-5.47795E-14
 -1      2256 1.99841E+01 3.44312E-01 1.51190E-04-3.03346E-01-2.62759E-13-8.26327E-14
 -1      2257 2.02439E+01 7.47810E-01-1.26949E-03-6.92654E-01-3.57690E-13-1.66306E-13
 -1      2258 1.99200E+01 2.59247E-01 1.07265E-02-1.66342E-01-2.42504E-13-7.49511E-14
 -1      2259 1.98414E+01 1.87907E-01 6.47042E-04-6.91482E-02-2.21672E-13-1.11005E-13
 -1      2260 2.00807E+01 4.14705E-01-4.07051E-03-3.10586E-01-2.79754E-13-1.78861E-13
 -1      2261 1.97970E+01 1.38357E-01 6.36545E-03 1.28831E-02-1.92027E-13-1.17344E-13
 -1      2262 1.97618E+01 9.59588E-02 6.90797E-04 6.60828E-02-1.69497E-13-1.31028E-13
 -1      2263 1.99595E+01 2.27062E-01-3.69666E-03-7.17607E-02-2.27602E-13-1.69772E-13
 -1      2264 1.97359E+01 6.60085E-02 3.56922E-03 1.11640E-01-1.55181E-13-1.59193E-13
 -1      2265 1.97284E+01 4.04396E-02 6.06724E-04 1.38062E-01-1.54950E-13-1.79143E-13
 -1      2266 1.98837E+01 1.14459E-01-2.94353E-03 6.86680E-02-1.84152E-13-2.17541E-13
 -1      2267 1.97166E+01 2.21613E-02 1.85486E-03 1.60142E-01-1.51122E-13-1.74595E-13
 -1      2268 1.97255E+01 6.89362E-03 4.89642E-04 1.70115E-01-1.11082E-13-1.65343E-13
 -1      2269 1.98438E+01 4.62370E-02-2.12390E-03 1.44540E-01-1.57955E-13-1.93276E-13
 -1      2270 1.97234E+01-4.02688E-03 7.95288E-04 1.77337E-01-1.01851E-13-1.76577E-13
 -1      2271 1.97413E+01-1.27091E-02 3.75952E-04 1.77372E-01-1.05926E-13-2.06598E-13
 -1      2272 1.98295E+01 5.11319E-03-1.43529E-03 1.78800E-01-1.31032E-13-1.87204E-13
 -1      2273 1.97453E+01-1.88154E-02 1.46331E-04 1.75549E-01-1.22883E-13-1.85390E-13
 -1      2274 1.97672E+01-2.31845E-02 2.82947E-04 1.69893E-01-1.23212E-13-1.98391E-13
 -1      2275 1.98317E+01-1.86973E-02-9.18006E-04 1.86925E-01-1.15005E-13-2.26910E-13
 -1      2276 1.97747E+01-2.60845E-02-2.35834E-04 1.62978E-01-1.00637E-13-1.87060E-13
 -1      2277 1.97976E+01-2.76026E-02 2.17600E-04 1.54458E-01-6.08706E-14-1.89893E-13
 -1      2278 1.98439E+01-3.11454E-02-5.52968E-04 1.79449E-01-1.11668E-13-2.24592E-13
 -1      2279 1.98067E+01-2.83550E-02-4.41791E-04 1.45144E-01-5.33501E-14-1.91702E-13
 -1      2280 1.98289E+01-2.79861E-02 1.81289E-04 1.35659E-01-4.85321E-14-1.92227E-13
 -1      2281 1.98614E+01-3.60477E-02-3.08651E-04 1.63565E-01-5.64690E-14-1.48080E-13
 -1      2282 1.98386E+01-2.72962E-02-5.31886E-04 1.25782E-01-7.34097E-14-2.12515E-13
 -1      2283 1.98592E+01-2.56725E-02 1.73629E-04 1.16610E-01-5.73324E-14-1.65894E-13
 -1      2284 1.98813E+01-3.59182E-02-1.56087E-04 1.44196E-01-5.85327E-14-1.38954E-13
 -1      2285 1.98689E+01-2.40008E-02-5.47510E-04 1.07428E-01-3.83783E-14-2.06261E-13
 -1      2286 1.98876E+01-2.15187E-02 1.94608E-04 9.94447E-02-6.79789E-14-2.21752E-13
 -1      2287 1.99016E+01-3.24102E-02-7.21761E-05 1.24715E-01-6.05640E-14-1.65059E-13
 -1      2288 1.98970E+01-1.91461E-02-5.17307E-04 9.18411E-02-1.40463E-13-1.85359E-13
 -1      2289 1.99141E+01-1.60270E-02 2.45483E-04 8.56740E-02-8.31182E-14-2.21681E-13
 -1      2290 1.99217E+01-2.65689E-02-3.96876E-05 1.07465E-01-8.37624E-14-2.13807E-13
 -1      2291 1.99233E+01-1.30981E-02-4.61036E-04 8.03069E-02-1.89177E-14-2.26129E-13
 -1      2292 1.99393E+01-9.42806E-03 3.29151E-04 7.64515E-02 7.65800E-15-2.21796E-13
 -1      2293 1.99413E+01-1.89896E-02-4.61570E-05 9.41341E-02-8.94568E-14-1.29373E-13
 -1      2294 1.99486E+01-5.98047E-03-3.92265E-04 7.38723E-02-1.77911E-15-2.43529E-13
 -1      2295 1.99644E+01-1.73845E-03 4.50239E-04 7.27814E-02-2.37454E-14-2.12912E-13
 -1      2296 1.99607E+01-9.92161E-03-8.27806E-05 8.60482E-02-3.56633E-14-1.97282E-13
 -1      2297 1.99742E+01 2.27637E-03-3.20294E-04 7.35245E-02-4.69737E-14-2.49054E-13
 -1      2298 1.99909E+01 7.19945E-03 6.15055E-04 7.56802E-02-4.63996E-14-2.50145E-13
 -1      2299 1.99807E+01 6.59108E-04-1.43503E-04 8.43873E-02-3.84593E-14-2.10068E-13
 -1      2300 2.00018E+01 1.19010E-02-2.51602E-04 8.03355E-02-1.25642E-13-2.65178E-13
 -1      2301 2.00206E+01 1.76879E-02 8.31462E-04 8.63067E-02-1.37634E-13-2.97193E-13
 -1      2302 2.00024E+01 1.29991E-02-2.24035E-04 9.03612E-02-1.13134E-13-2.65155E-13
 -1      2303 2.00333E+01 2.32548E-02-1.91025E-04 9.55761E-02-1.04897E-13-2.95828E-13
 -1      2304 2.00559E+01 3.01505E-02 1.10859E-03 1.06065E-01-6.94647E-14-3.50348E-13
 -1      2305 2.00270E+01 2.75289E-02-3.20894E-04 1.05345E-01-1.16768E-13-2.08019E-13
 -1      2306 2.00711E+01 3.68096E-02-1.42720E-04 1.20807E-01-3.22080E-14-3.65780E-13
 -1      2307 2.00994E+01 4.51095E-02 1.45626E-03 1.36685E-01 3.29553E-14-3.83977E-13
 -1      2308 2.00563E+01 4.48317E-02-4.30454E-04 1.30984E-01-4.17980E-14-1.76810E-13
 -1      2309 2.01181E+01 5.31224E-02-1.10913E-04 1.57943E-01 8.79922E-14-4.24175E-13
 -1      2310 2.01542E+01 6.31545E-02 1.88382E-03 1.80275E-01 9.18801E-14-3.66311E-13
 -1      2311 2.00919E+01 6.56085E-02-5.47945E-04 1.69270E-01 5.73819E-14-3.19982E-13
 -1      2312 2.01774E+01 7.27947E-02-1.00358E-04 2.09290E-01 7.42802E-14-3.17498E-13
 -1      2313 2.02237E+01 8.48859E-02 2.39795E-03 2.39330E-01 9.58566E-14-2.69203E-13
 -1      2314 2.01361E+01 9.06282E-02-6.66466E-04 2.22577E-01 1.28261E-13-2.63557E-13
 -1      2315 2.02524E+01 9.63947E-02-1.16219E-04 2.77525E-01 9.47387E-14-2.81708E-13
 -1      2316 2.03118E+01 1.10803E-01 2.99868E-03 3.16683E-01 7.12283E-14-3.61638E-13
 -1      2317 2.01908E+01 1.20634E-01-7.76265E-04 2.93648E-01 7.21393E-14-2.26748E-13
 -1      2318 2.03470E+01 1.24303E-01-1.62799E-04 3.65590E-01 7.87461E-15-4.68789E-13
 -1      2319 2.04226E+01 1.41087E-01 3.67250E-03 4.15320E-01-4.87217E-14-4.22349E-13
 -1      2320 2.02584E+01 1.56162E-01-8.64974E-04 3.85503E-01-3.55599E-14-4.40445E-13
 -1      2321 2.04654E+01 1.56414E-01-2.39904E-04 4.76430E-01-5.79744E-14-4.23599E-13
 -1      2322 2.05603E+01 1.75176E-01 4.38085E-03 5.37987E-01-8.77201E-14-3.86585E-13
 -1      2323 2.03410E+01 1.97195E-01-9.20238E-04 5.01193E-01-6.74973E-14-4.39661E-13
 -1      2324 2.06117E+01 1.91563E-01-3.34717E-04 6.12447E-01-6.95783E-14-3.53805E-13
 -1      2325 2.07292E+01 2.10989E-01 5.04216E-03 6.86411E-01-1.21624E-14-2.30842E-13
 -1      2326 2.04407E+01 2.42502E-01-9.37619E-04 6.43326E-01-2.76229E-14-3.34378E-13
 -1      2327 2.07905E+01 2.26506E-01-4.05564E-04 7.74471E-01-2.87456E-14-2.44373E-13
 -1      2328 2.09335E+01 2.43552E-01 5.50569E-03 8.59881E-01-2.14185E-14-2.20859E-13
 -1      2329 2.05597E+01 2.88458E-01-9.38762E-04 8.13205E-01 3.21775E-15-2.88759E-13
 -1      2330 2.10068E+01 2.54156E-01-3.52408E-04 9.59932E-01-4.08533E-14-8.53120E-14
 -1      2331 2.11774E+01 2.62747E-01 5.51757E-03 1.05279E+00-1.04517E-15-8.69507E-14
 -1      2332 2.07006E+01 3.27023E-01-1.00741E-03 1.00934E+00-3.03577E-18-1.44763E-13
 -1      2333 2.12671E+01 2.60821E-01 3.08036E-05 1.15978E+00 1.47180E-15-1.85909E-13
 -1      2334 2.14666E+01 2.49961E-01 4.68224E-03 1.25068E+00-1.54497E-14-2.51336E-13
 -1      2335 2.08685E+01 3.42529E-01-1.35164E-03 1.22499E+00-6.55082E-14-1.25585E-13
 -1      2336 2.15820E+01 2.22417E-01 1.11674E-03 1.35356E+00-6.72739E-14-2.33274E-13
 -1      2337 2.18102E+01 1.74086E-01 2.42390E-03 1.42426E+00-3.46287E-14-1.90655E-13
 -1      2338 2.10735E+01 3.07182E-01-2.39330E-03 1.44436E+00-4.29821E-14-1.99245E-13
 -1      2339 2.19697E+01 1.00815E-01 3.47320E-03 1.50210E+00 2.75227E-14-2.91063E-13
 -1      2340 2.22247E+01-1.07304E-02-2.02858E-03 1.52144E+00 1.14049E-14-1.57041E-13
 -1      2341 2.13377E+01 1.76280E-01-4.85212E-03 1.63670E+00-5.56171E-15-1.68678E-13
 -1      2342 2.24607E+01-1.55364E-01 7.74777E-03 1.53785E+00-7.65726E-14-7.50172E-14
 -1      2343 2.27377E+01-3.58072E-01-9.44758E-03 1.45890E+00-1.37551E-13 7.66763E-14
 -1      2344 2.17034E+01-1.12681E-01-9.66454E-03 1.74773E+00-2.00468E-14-2.83973E-13
 -1      2345 2.30970E+01-5.94083E-01 1.41553E-02 1.35580E+00-1.47633E-13 1.43016E-13
 -1      2346 2.33827E+01-8.97029E-01-2.00579E-02 1.11970E+00-6.13962E-14 1.25446E-13
 -1      2347 2.22415E+01-6.24966E-01-1.72066E-02 1.68808E+00-4.32049E-14 7.73058E-14
 -1      2348 2.39103E+01-1.20777E+00 2.05190E-02 8.15875E-01-1.14925E-13 7.81805E-14
 -1      2349 2.41700E+01-1.55002E+00-3.14381E-02 3.73060E-01-1.82325E-13-1.74969E-15
 -1      2350 2.30444E+01-1.37496E+00-2.56770E-02 1.32313E+00-1.71514E-13 1.35012E-13
 -1      2351 2.48530E+01-1.82026E+00 1.94231E-02-2.09829E-01-1.08913E-13 8.83729E-14
 -1      2352 2.50161E+01-1.99669E+00-3.57341E-02-8.40548E-01 2.69975E-14 1.65507E-13
 -1      2353 2.41724E+01-2.20101E+00-2.88323E-02 4.84129E-01-7.21645E-14 1.98710E-13
 -1      2354 2.56774E+01-1.96018E+00-8.43535E-03-1.66493E+00 1.13906E-15 1.18835E-13
 -1      2355 2.56614E+01-1.62758E+00-2.35541E-02-2.29458E+00 4.81620E-14 1.12300E-13
 -1      2356 2.55051E+01-2.57498E+00-2.05818E-02-9.26281E-01 1.28344E-14 2.54549E-13
 -1      2357 2.59641E+01-9.76162E-01-6.66294E-02-3.01382E+00 2.07473E-15 5.36628E-14
 -1      2358 2.57255E+01 3.68636E-02-9.58150E-03-3.23344E+00-6.55725E-14-3.13092E-14
 -1      2359 2.66045E+01-1.69060E+00-1.54095E-02-2.60801E+00-1.15324E-14 1.04101E-13
 -1      2360 2.55195E+01 1.20753E+00-1.16187E-01-3.19282E+00-8.92758E-14-6.62257E-14
 -1      2361 2.52028E+01 2.37619E+00-2.18082E-02-2.63762E+00-1.39166E-13 1.48180E-14
 -1      2362 2.69277E+01 7.53617E-01-4.31019E-02-3.47091E+00-9.28563E-14-6.88338E-15
 -1      2363 2.48665E+01 3.11911E+00-1.19137E-01-1.47909E+00-1.64396E-13 3.55232E-14
 -1      2364 2.47854E+01 3.35564E+00-7.95368E-02-4.11196E-01-1.99021E-13 1.39097E-13
 -1      2365 2.65469E+01 3.63296E+00-7.79914E-02-2.38088E+00-1.61177E-13 1.76081E-13
 -1      2366 2.48310E+01 2.90806E+00-5.88507E-02 9.37928E-01-2.41335E-13 3.89324E-14
 -1      2367 2.49550E+01 1.94500E+00-1.36467E-01 1.71764E+00-1.31645E-13 1.77441E-14
 -1      2368 2.64527E+01 4.12514E+00-5.60699E-02 2.40049E-01-2.46261E-13-1.40761E-13
 -1      2369 2.52000E+01 8.11041E-01-5.09145E-03 2.15301E+00-7.12069E-14 4.45824E-15
 -1      2370 2.53132E+01-3.58454E-01-8.95059E-02 2.17633E+00 9.39387E-14-1.13642E-13
 -1      2371 2.65864E+01 1.81022E+00-6.58546E-02 2.17912E+00-1.56278E-13-7.50303E-14
 -1      2372 2.51227E+01-1.22965E+00-1.13728E-02 1.61464E+00 3.64533E-13-9.46535E-14
 -1      2373 2.50320E+01-1.77426E+00-2.61199E-02 1.07415E+00 4.20441E-13-1.11612E-13
 -1      2374 2.64134E+01-1.12032E+00-2.79912E-02 1.85991E+00 1.73528E-13-1.62342E-13
 -1      2375 2.43885E+01-1.95753E+00-3.02189E-02 2.53032E-01 2.54860E-13-1.17004E-13
 -1      2376 2.41184E+01-1.87990E+00 1.36990E-02-3.85369E-01 2.70804E-13 3.14384E-14
 -1      2377 2.53672E+01-2.41400E+00-2.11836E-02 3.10840E-01 3.00182E-13-1.24682E-13
 -1      2378 2.33451E+01-1.62746E+00-3.34438E-02-1.02514E+00 2.87174E-13-4.89673E-14
 -1      2379 2.29728E+01-1.24003E+00 2.59162E-02-1.47712E+00 1.42176E-13 1.17591E-13
 -1      2380 2.39297E+01-2.28168E+00-2.99366E-02-1.19391E+00 2.18896E-13-8.70059E-14
 -1      2381 2.23114E+01-8.33420E-01-2.33023E-02-1.78532E+00-3.25764E-14 2.57190E-14
 -1      2382 2.19138E+01-3.97019E-01 1.91074E-02-1.95871E+00-1.16618E-13 1.23369E-13
 -1      2383 2.25794E+01-1.34543E+00-2.60457E-02-2.09264E+00 4.53069E-14-3.35306E-14
 -1      2384 1.08560E+01-5.13497E+00 4.18871E-02 7.24597E+00 4.96714E-13-1.03528E-14
 -1      2385 7.93262E+00-4.60096E+00 9.14387E-02 5.97645E+00 3.87912E-13 1.67089E-13
 -1      2386 1.96237E+01 7.24902E-02 2.06726E-03-6.59532E-02 1.25036E-13-5.60121E-14
 -1      2387 1.96512E+01 1.04231E-01 6.91148E-03-1.98382E-02 1.84191E-13-1.12929E-14
 -1      2388 1.96001E+01 3.06209E-02 1.33414E-03-1.31547E-01 7.74606E-14-1.04892E-13
 -1      2389 1.95971E+01 4.95448E-02 3.68286E-03-1.09081E-01 8.70277E-14-7.16206E-14
 -1      2390 1.97682E+01 8.97304E-02-3.17052E-03-7.12616E-02 1.50696E-13-1.10986E-13
 -1      2391 1.96119E+01 5.59079E-03 8.68244E-04-1.59904E-01 8.84909E-14-9.37107E-14
 -1      2392 1.95920E+01 1.68341E-02 1.81552E-03-1.51704E-01 6.45799E-14-1.03140E-13
 -1      2393 1.97340E+01 3.57373E-02-2.28248E-03-1.43496E-01 9.27558E-14-1.17362E-13
 -1      2394 1.96439E+01-8.98117E-03 5.50576E-04-1.65534E-01 9.42547E-14-8.97421E-14
 -1      2395 1.96157E+01-2.57131E-03 7.17590E-04-1.65864E-01 9.12234E-14-7.79092E-14
 -1      2396 1.97304E+01 3.63983E-03-1.51438E-03-1.75195E-01 8.95118E-14-1.47918E-13
 -1      2397 1.96856E+01-1.67941E-02 3.32298E-04-1.57812E-01 4.07242E-14-4.10447E-14
 -1      2398 1.96544E+01-1.35233E-02 6.62649E-05-1.62996E-01 8.49826E-14-6.06898E-14
 -1      2399 1.97456E+01-1.48049E-02-9.39984E-04-1.81863E-01 6.98517E-14-9.44460E-14
 -1      2400 1.97304E+01-2.01546E-02 1.89864E-04-1.42941E-01 8.95185E-14-3.07564E-14
 -1      2401 1.96995E+01-1.89495E-02-3.06732E-04-1.50558E-01 5.87591E-14-4.71541E-14
 -1      2402 1.97709E+01-2.44228E-02-5.39931E-04-1.73752E-01 6.81457E-14-1.03137E-13
 -1      2403 1.97743E+01-2.05652E-02 1.07705E-04-1.25069E-01 1.58482E-13-8.87682E-14
 -1      2404 1.97455E+01-2.07233E-02-4.99379E-04-1.33507E-01 1.66576E-13-3.03114E-14
 -1      2405 1.98007E+01-2.82351E-02-2.75967E-04-1.57739E-01 1.43503E-13-9.94588E-14
 -1      2406 1.98151E+01-1.90171E-02 7.44495E-05-1.06981E-01 1.94329E-13-8.52607E-14
 -1      2407 1.97893E+01-2.00769E-02-5.74039E-04-1.15161E-01 1.57771E-13-7.67224E-14
 -1      2408 1.98315E+01-2.82070E-02-1.13647E-04-1.38468E-01 1.62392E-13-1.11028E-13
 -1      2409 1.98522E+01-1.61518E-02 8.23565E-05-9.05600E-02 8.52542E-14-5.21297E-14
 -1      2410 1.98294E+01-1.78194E-02-5.72300E-04-9.77503E-02 1.86654E-13-1.51547E-14
 -1      2411 1.98613E+01-2.56275E-02-2.62465E-05-1.19084E-01 1.70194E-13-4.33137E-14
 -1      2412 1.98857E+01-1.23576E-02 1.26977E-04-7.71066E-02 4.75080E-14-8.19834E-14
 -1      2413 1.98655E+01-1.44616E-02-5.22296E-04-8.27953E-02 7.72583E-14-4.27705E-14
 -1      2414 1.98892E+01-2.13203E-02 5.87697E-06-1.01740E-01 7.07201E-14-3.33873E-14
 -1      2415 1.99165E+01-7.83512E-03 2.06595E-04-6.75783E-02 3.36959E-14-1.72462E-13
 -1      2416 1.98982E+01-1.02947E-02-4.42851E-04-7.13760E-02 3.32848E-14-1.00555E-13
 -1      2417 1.99153E+01-1.57730E-02-3.45955E-06-8.79499E-02 7.08643E-14-4.38422E-14
 -1      2418 1.99459E+01-2.64627E-03 3.21605E-04-6.27612E-02 6.33384E-14-1.33102E-13
 -1      2419 1.99285E+01-5.44751E-03-3.46177E-04-6.43314E-02 6.48455E-14-1.59877E-13
 -1      2420 1.99401E+01-9.22528E-03-4.48076E-05-7.88554E-02 5.16752E-14-4.19055E-14
 -1      2421 1.99758E+01 3.24536E-03 4.73767E-04-6.33965E-02 5.35275E-14-1.42528E-13
 -1      2422 1.99581E+01 6.97692E-05-2.39844E-04-6.24047E-02 4.82259E-14-1.08802E-13
 -1      2423 1.99647E+01-1.73551E-03-1.11838E-04-7.54155E-02 5.74237E-14-3.31706E-14
 -1      2424 2.00084E+01 9.93666E-03 6.65179E-04-7.02634E-02-1.83280E-14-9.90002E-14
 -1      2425 1.99890E+01 6.32720E-03-1.28211E-04-6.63453E-02 3.84037E-14-1.18602E-13
 -1      2426 1.99903E+01 6.76306E-03-2.00474E-04-7.85447E-02-9.15402E-16-5.54738E-14
 -1      2427 2.00462E+01 1.75429E-02 8.96901E-04-8.42222E-02-5.59841E-14-9.60037E-14
 -1      2428 2.00234E+01 1.34358E-02-1.35278E-05-7.69699E-02-3.55047E-14-1.50749E-13
 -1      2429 2.00188E+01 1.64072E-02-3.08018E-04-8.91997E-02-5.64160E-14-3.58317E-14
 -1      2430 2.00922E+01 2.61452E-02 1.16701E-03-1.06208E-01-2.61807E-14-1.59929E-13
 -1      2431 2.00642E+01 2.15016E-02 1.03174E-04-9.51799E-02 6.68955E-15-9.94052E-14
 -1      2432 2.00522E+01 2.73410E-02-4.32318E-04-1.08416E-01-2.62076E-14-2.17713E-14
 -1      2433 2.01495E+01 3.57188E-02 1.46777E-03-1.37163E-01 8.50019E-14-2.60877E-13
 -1      2434 2.01143E+01 3.05650E-02 2.21339E-04-1.21925E-01 7.19040E-15-2.86073E-13
 -1      2435 2.00927E+01 3.96360E-02-5.71066E-04-1.37283E-01 5.61433E-14-1.35525E-13
 -1      2436 2.02219E+01 4.60316E-02 1.78170E-03-1.77889E-01 8.63994E-14-1.47758E-13
 -1      2437 2.01773E+01 4.05164E-02 3.40312E-04-1.58094E-01 8.09742E-14-2.12991E-13
 -1      2438 2.01431E+01 5.31810E-02-7.21212E-04-1.76846E-01 2.39836E-14-2.60345E-13
 -1      2439 2.03128E+01 5.64990E-02 2.07615E-03-2.28780E-01 4.89266E-14-1.11140E-13
 -1      2440 2.02566E+01 5.09761E-02 4.58947E-04-2.04314E-01 8.88223E-14-4.88556E-14
 -1      2441 2.02062E+01 6.75264E-02-8.78606E-04-2.27905E-01 2.94170E-14-1.26404E-13
 -1      2442 2.04259E+01 6.59812E-02 2.29644E-03-2.89401E-01 3.62785E-15-1.19651E-13
 -1      2443 2.03561E+01 6.11234E-02 5.75520E-04-2.60604E-01 3.12093E-14-6.87810E-14
 -1      2444 2.02849E+01 8.16636E-02-1.03806E-03-2.90676E-01 2.12093E-14-7.14702E-15
 -1      2445 2.05642E+01 7.25146E-02 2.35789E-03-3.57855E-01-2.05672E-14-2.48104E-13
 -1      2446 2.04793E+01 6.94633E-02 6.88078E-04-3.25853E-01 3.79562E-14-2.14486E-13
 -1      2447 2.03823E+01 9.37230E-02-1.19406E-03-3.64263E-01 5.67719E-14-1.05223E-13
 -1      2448 2.07300E+01 7.29851E-02 2.13855E-03-4.29888E-01 5.33730E-14-2.15021E-13
 -1      2449 2.06294E+01 7.35268E-02 7.95383E-04-3.97061E-01-2.55816E-14-3.15932E-13
 -1      2450 2.05013E+01 1.00584E-01-1.34224E-03-4.45897E-01 3.07383E-14-2.78635E-13
 -1      2451 2.09237E+01 6.28069E-02 1.47676E-03-4.97724E-01-2.84872E-14-2.99423E-13
 -1      2452 2.08083E+01 6.95345E-02 8.98236E-04-4.68296E-01 3.41556E-14-1.94479E-13
 -1      2453 2.06448E+01 9.74297E-02-1.48111E-03-5.29886E-01 2.65865E-14-3.55033E-13
 -1      2454 2.11428E+01 3.57774E-02 1.81951E-04-5.48695E-01 1.18683E-14-2.27667E-13
 -1      2455 2.10162E+01 5.21276E-02 9.99937E-04-5.29398E-01-2.37690E-14-2.26445E-13
 -1      2456 2.08149E+01 7.73606E-02-1.61184E-03-6.06285E-01 1.77129E-14-2.91813E-13
 -1      2457 2.13811E+01-1.55041E-02-1.92655E-03-5.63973E-01-1.14153E-13-8.76519E-14
 -1      2458 2.12503E+01 1.44248E-02 1.10242E-03-5.64572E-01-8.60955E-15-1.49357E-13
 -1      2459 2.10129E+01 3.13875E-02-1.73083E-03-6.59390E-01-1.02174E-13-1.57821E-13
 -1      2460 2.16270E+01-9.79483E-02-4.93204E-03-5.18143E-01-1.37196E-13-1.54910E-13
 -1      2461 2.15034E+01-5.10647E-02 1.18971E-03-5.51372E-01-1.01271E-13-5.06702E-15
 -1      2462 2.12387E+01-5.05742E-02-1.80531E-03-6.66440E-01-1.51868E-13 2.05929E-14
 -1      2463 2.18614E+01-2.13974E-01-8.65861E-03-3.81057E-01-1.55115E-13-2.01228E-13
 -1      2464 2.17617E+01-1.49791E-01 1.18652E-03-4.61123E-01-2.06546E-13-2.04569E-13
 -1      2465 2.14892E+01-1.76608E-01-1.72182E-03-5.97390E-01-9.29050E-14-8.02026E-14
 -1      2466 2.20559E+01-3.54272E-01-1.24385E-02-1.24334E-01-1.33897E-13-1.56413E-13
 -1      2467 2.20018E+01-2.79669E-01 8.93588E-04-2.62766E-01-1.39889E-13-1.71793E-13
 -1      2468 2.17558E+01-3.46171E-01-1.20520E-03-4.17492E-01-1.62999E-13-2.40305E-13
 -1      2469 2.21713E+01-4.87964E-01-1.48234E-02 2.64723E-01-7.72386E-15-1.70490E-14
 -1      2470 2.21872E+01-4.22327E-01-8.04578E-05 6.69606E-02-8.55089E-14-6.70421E-14
 -1      2471 2.20187E+01-5.39110E-01 2.38253E-04-9.55546E-02-1.32714E-13-2.36046E-13
 -1      2472 2.21590E+01-5.55267E-01-1.37025E-02 7.60376E-01 2.14980E-13 1.44284E-13
 -1      2473 2.22662E+01-5.33189E-01-2.13879E-03 5.24298E-01 1.27386E-13 5.07145E-14
 -1      2474 2.22398E+01-7.02657E-01 3.24770E-03 3.78655E-01 5.22984E-14-7.83890E-14
 -1      2475 2.19713E+01-4.76468E-01-7.34759E-03 1.27214E+00 5.58603E-14 3.57916E-13
 -1      2476 2.21771E+01-5.39849E-01-5.82246E-03 1.05066E+00 1.40432E-13 3.02948E-13
 -1      2477 2.23567E+01-7.45379E-01 7.84900E-03 9.65624E-01 7.73088E-14 2.10948E-13
 -1      2478 2.15886E+01-1.94468E-01 3.49936E-03 1.63503E+00 4.04234E-14 4.17766E-13
 -1      2479 2.18732E+01-3.64621E-01-9.95613E-03 1.51046E+00 1.49575E-13 4.18239E-13
 -1      2480 2.22925E+01-5.63401E-01 1.14544E-02 1.54318E+00 7.23653E-14 3.14941E-13
 -1      2481 2.10627E+01 2.54364E-01 1.39949E-02 1.65619E+00-5.06509E-14 1.90465E-13
 -1      2482 2.13718E+01 1.25114E-02-1.18191E-02 1.70818E+00 5.11527E-15 3.95959E-13
 -1      2483 2.20016E+01-1.09326E-01 1.02300E-02 1.90092E+00 1.31399E-13 2.05737E-13
 -1      2484 2.05384E+01 7.00322E-01 1.68824E-02 1.22561E+00-1.14757E-13 1.59458E-13
 -1      2485 2.07945E+01 4.90831E-01-7.17669E-03 1.47761E+00 1.86027E-14 1.49473E-13
 -1      2486 2.15381E+01 5.15840E-01 9.76838E-04 1.81381E+00 3.85538E-14 2.51670E-13
 -1      2487 2.02138E+01 9.06163E-01 9.51419E-03 4.44542E-01-1.45524E-13 1.17311E-13
 -1      2488 2.03475E+01 8.46131E-01 4.08746E-03 8.18347E-01-2.43671E-13 1.28373E-13
 -1      2489 2.10882E+01 1.04888E+00-1.09829E-02 1.19454E+00-1.44012E-13 3.29491E-13
 -1      2490 2.02046E+01 7.49473E-01-2.30585E-03-3.77806E-01 7.06440E-14 1.80592E-13
 -1      2491 2.01948E+01 8.74946E-01 1.60411E-02-3.18957E-02 4.16230E-14 1.31223E-13
 -1      2492 2.08762E+01 1.20413E+00-1.50364E-02 2.40313E-01-5.23279E-14-9.85082E-14
 -1      2493 2.04519E+01 3.28438E-01-9.58400E-03-9.05120E-01 2.14741E-13 1.12275E-13
 -1      2494 2.03355E+01 5.60629E-01 2.01122E-02-7.18742E-01 1.57569E-13 1.47581E-13
 -1      2495 2.09767E+01 8.93967E-01-6.06551E-03-6.39421E-01 1.21091E-13 1.80160E-13
 -1      2496 2.07576E+01-1.14012E-01-9.73842E-03-9.89781E-01 1.43190E-13 1.51749E-13
 -1      2497 2.06080E+01 9.74117E-02 1.30199E-02-9.95886E-01 2.40322E-13 1.71791E-13
 -1      2498 2.12452E+01 3.04707E-01 6.65668E-03-1.08409E+00 1.50047E-13 1.39132E-13
 -1      2499 2.09424E+01-3.84820E-01-5.12975E-03-7.19164E-01 4.22887E-14 1.64006E-13
 -1      2500 2.08281E+01-2.77831E-01 7.02787E-04-8.60371E-01 1.31955E-13 1.62216E-13
 -1      2501 2.14496E+01-2.51462E-01 1.16795E-02-1.01809E+00 1.24318E-13 1.11227E-13
 -1      2502 2.09307E+01-4.22678E-01 8.30790E-04-3.06137E-01-1.60607E-13 8.72668E-14
 -1      2503 2.08869E+01-4.32936E-01-9.33540E-03-4.85662E-01-1.64359E-13 1.05866E-13
 -1      2504 2.14492E+01-5.48506E-01 9.63762E-03-6.13931E-01 2.95577E-14 2.86527E-13
 -1      2505 2.07514E+01-2.79792E-01 6.17436E-03 4.75763E-02-5.97504E-14 1.07872E-13
 -1      2506 2.07766E+01-3.71905E-01-1.35679E-02-8.94281E-02-1.47736E-13 1.19279E-13
 -1      2507 2.12375E+01-5.42198E-01 4.41264E-03-1.35024E-01-9.63142E-14-6.98609E-14
 -1      2508 2.04737E+01-6.53179E-02 6.46048E-03 2.16499E-01-1.43490E-13 2.94455E-13
 -1      2509 2.05461E+01-1.74175E-01-1.15031E-02 1.66664E-01-8.85648E-14 2.00767E-13
 -1      2510 2.08940E+01-3.06358E-01 5.19887E-03 2.14515E-01-1.89805E-13 4.60001E-14
 -1      2511 2.02804E+01 4.09737E-02-2.90376E-03 2.17619E-01-1.44829E-13 4.58259E-13
 -1      2512 2.06727E+01 8.81532E-01-2.53323E-04 2.51068E+00-1.02359E-13-7.59903E-13
 -1      2513 2.08617E+01 5.34887E-01 1.14278E-02 2.23787E+00-1.21591E-13-1.12853E-12
 -1      2514 1.99925E+01 1.62106E+00-2.12072E-02 2.85646E+00-2.50854E-14-9.87530E-14
 -1      2515 2.03913E+01 1.21187E+00 2.16132E-02 2.78159E+00-2.33444E-14-3.73321E-13
 -1      2516 2.06730E+01 3.38921E-01-1.54615E-02 2.96407E+00 1.52790E-13-5.06322E-13
 -1      2517 2.09008E+01 1.33636E-01 1.94405E-02 1.13788E+00-2.72042E-13-1.42956E-13
 -1      2518 2.07911E+01-2.45582E-02-3.82262E-03 8.38115E-01-2.27929E-13-2.60314E-13
 -1      2519 2.09469E+01 3.93572E-01 1.35554E-02 1.84104E+00-4.29092E-13-6.87078E-13
 -1      2520 2.09503E+01 1.50205E-01 3.22643E-03 1.51443E+00-4.00072E-13-2.01064E-13
 -1      2521 2.12006E+01-2.44500E-01-8.02523E-03 1.41631E+00-3.39828E-13-2.57672E-13
 -1      2522 2.11711E+01-9.31360E-02-1.09436E-02 2.23409E+00-2.13033E-13-6.50787E-13
 -1      2523 1.90404E+01 2.50423E+00-3.95005E-02 2.55953E+00-2.27917E-13 2.34537E-13
 -1      2524 1.95457E+01 2.11996E+00 2.47470E-02 2.80446E+00-1.43364E-13 1.46694E-13
 -1      2525 1.96765E+01 1.10681E+00-8.85786E-03 3.23562E+00 7.86072E-14-1.25269E-13
 -1      2526 1.81824E+01 3.27305E+00-3.83636E-02 1.48808E+00-4.25880E-13 3.15848E-13
 -1      2527 1.85796E+01 3.02006E+00 1.58913E-02 2.06988E+00-3.81232E-13 2.34664E-13
 -1      2528 1.84365E+01 2.04953E+00 1.01238E-02 2.69808E+00-1.41726E-13 1.15277E-13
 -1      2529 1.78728E+01 3.58012E+00-1.84432E-02-1.15947E-01-2.75726E-13-2.54363E-14
 -1      2530 1.79458E+01 3.54170E+00-7.32305E-03 6.38813E-01-3.91568E-13 1.93128E-13
 -1      2531 1.74845E+01 2.78164E+00 3.27839E-02 1.25723E+00-3.50981E-13 2.88462E-13
 -1      2532 1.82843E+01 3.27254E+00 7.61632E-03-1.67225E+00 5.73740E-14 1.14483E-13
 -1      2533 1.79920E+01 3.45684E+00-3.18667E-02-1.01752E+00-5.55569E-14-8.85316E-14
 -1      2534 1.73306E+01 2.91896E+00 4.20178E-02-6.52213E-01-1.14778E-13 7.54778E-14
 -1      2535 1.91738E+01 2.49324E+00 2.19537E-02-2.68537E+00 1.39990E-13 4.16483E-13
 -1      2536 1.86872E+01 2.84385E+00-3.91321E-02-2.31081E+00 8.03251E-14 2.96822E-13
 -1      2537 1.80301E+01 2.39233E+00 2.02248E-02-2.31198E+00 2.26341E-13 2.46425E-13
 -1      2538 2.00862E+01 1.58781E+00 1.93784E-02-2.93027E+00 3.66113E-13 2.55715E-13
 -1      2539 1.96386E+01 2.00249E+00-2.71029E-02-2.88764E+00 1.92131E-13 4.11319E-13
 -1      2540 1.92075E+01 1.52358E+00-5.71828E-03-3.18122E+00 1.77697E-13 4.16824E-13
 -1      2541 2.07196E+01 8.78996E-01 1.92694E-02-2.56112E+00-3.88017E-14-9.13020E-14
 -1      2542 2.04369E+01 1.25183E+00-2.46561E-03-2.75800E+00 2.33175E-13-1.11638E-13
 -1      2543 2.03490E+01 7.55045E-01 8.40065E-04-3.18219E+00 3.15048E-13 1.78529E-14
 -1      2544 2.07722E+01 7.26903E-01-9.41362E-03-1.83438E+00-5.28849E-14 6.34987E-14
 -1      2545 6.87826E+00-4.79110E+00 3.98492E-02-5.40848E+00 4.18526E-13 5.92748E-13
 -1      2546 1.08922E+01-5.21215E+00 4.24634E-02-7.08153E+00 1.80689E-13 3.30735E-13
 -1      2547 1.97049E+01 1.43276E-01 3.26883E-03 6.00738E-02 2.22956E-13 2.75528E-15
 -1      2548 1.97835E+01 1.98091E-01 1.23805E-02 1.46262E-01 2.64868E-13 5.51161E-14
 -1      2549 1.98493E+01 1.80832E-01-3.86413E-03 6.55577E-02 2.38400E-13-7.26624E-14
 -1      2550 5.16287E+00-3.70290E+00 4.53400E-02 4.06825E+00 4.12309E-13 4.73899E-13
 -1      2551 3.66736E+00-3.50177E+00 8.01764E-02 1.28725E+00 2.56205E-13 2.76112E-13
 -1      2552 2.69179E+01-4.80103E+00-8.51934E-02 4.79756E+00 2.70339E-14-2.16493E-13
 -1      2553 2.41185E+01-5.75622E+00 3.90731E-02 5.76383E+00 3.39367E-13-3.35565E-13
 -1      2554 3.20333E+00-3.84260E+00 3.55013E-02-1.22196E+00 1.67776E-13 5.47007E-13
 -1      2555 4.23659E+00-4.15895E+00 1.29919E-02-3.54006E+00 2.60791E-13 6.73794E-13
 -1      2556 2.05468E+01 1.95532E+00-1.39161E-02-1.90142E+00-5.29094E-13-8.10116E-14
 -1      2557 2.04127E+01 1.21694E+00-5.71669E-03-1.28701E+00-4.76487E-13-5.08494E-14
 -1      2558 2.03728E+01 1.37256E+00 3.15090E-03-1.22966E+00-4.60121E-13-1.49784E-13
 -1      2559 2.02871E+01 2.36621E+00-7.48951E-03-1.82698E+00-5.09187E-13-2.24676E-13
 -1      2560 1.95188E+01 3.58473E+00-1.00970E-02-2.45331E-01-6.77651E-14-6.69190E-13
 -1      2561 1.95349E+01 3.56406E+00-9.66821E-03-4.26092E-01-1.26748E-13-6.60333E-13
 -1      2562 1.97113E+01 3.16346E+00-5.84735E-04-4.73466E-01-1.42367E-13-6.02605E-13
 -1      2563 1.96770E+01 3.22335E+00-9.21566E-04-1.52037E-01-5.11800E-14-6.23150E-13
 -1      2564 3.21949E+01 7.06198E+00-1.52228E-01 1.17075E+00 4.70957E-13-3.10543E-13
 -1      2565 3.23244E+01 7.69755E+00-1.69552E-01 5.08860E-01 4.44811E-13-3.50523E-13
 -1      2566 2.50749E+01-5.01710E+00 2.76367E-02-4.27610E+00 5.29576E-14-1.62953E-13
 -1      2567 2.81454E+01-3.72629E+00-1.14227E-01-3.10694E+00 2.42667E-13 1.64979E-13
 -1      2568 3.23522E+01 3.66967E+00-8.92968E-02 1.38508E+00 3.47250E-13-2.58960E-13
 -1      2569 3.25787E+01 5.31153E+00-1.97058E-01 1.46662E+00 3.94657E-13-1.71085E-13
 -1      2570 1.55026E+01-6.04337E+00-4.08767E-02 6.60925E+00 1.39944E-13 4.66294E-14
 -1      2571 1.16246E+01-5.72690E+00 7.08547E-02 6.19360E+00 1.28175E-13-1.32894E-13
 -1      2572 3.33993E+01 7.23583E+00-1.44988E-01-4.11368E-01 2.74503E-13-3.37716E-13
 -1      2573 3.40862E+01 6.00884E+00-4.50730E-02-3.52072E-01 2.42140E-13-2.28678E-13
 -1      2574 1.72718E+01-5.93756E+00 7.05321E-02-6.74572E+00-1.82659E-13-2.68004E-13
 -1      2575 2.11951E+01-5.84950E+00-6.57991E-02-6.21970E+00-1.06137E-13-3.13791E-13
 -1      2576 9.03873E+00-4.87215E+00 1.00069E-01-6.33489E+00-1.43191E-13-1.69753E-13
 -1      2577 1.28072E+01-5.36539E+00 1.77469E-02-7.25327E+00-1.63258E-13-1.14325E-13
 -1      2578 2.98402E+00-3.84275E+00 3.10493E-02 1.85613E+00-1.05915E-13-6.43596E-13
 -1      2579 2.59795E+00-3.56096E+00 7.91673E-02-2.09668E-01-1.82146E-13-5.26634E-13
 -1      2580 3.24799E+01 7.20987E-01-6.88042E-02 3.78961E-02-2.74225E-14 3.13638E-13
 -1      2581 3.36535E+01 3.24713E+00-1.14707E-01 4.92206E-01-2.28262E-13 4.48086E-13
 -1      2582 7.85182E+00-4.88210E+00 2.22358E-02 5.58621E+00 2.62290E-14-5.19390E-13
 -1      2583 5.02330E+00-4.18544E+00 8.70574E-02 3.76890E+00-2.55351E-14-5.85698E-13
 -1      2584 1.12694E+01-4.29383E+00 1.62180E-01 5.80160E+00 1.57485E-13-1.55126E-13
 -1      2585 2.43025E+01-5.88890E+00-1.74966E-02 4.55350E+00-6.34492E-14-1.01891E-13
 -1      2586 2.06919E+01-6.33683E+00 7.64837E-02 5.35064E+00 1.41054E-13-1.91416E-13
 -1      2587 2.96506E+01-3.41830E+00-7.80509E-02 1.67952E+00-3.09905E-13-3.48055E-14
 -1      2588 2.66784E+01-5.02983E+00-5.24830E-02 2.89677E+00-2.17021E-13-3.04201E-14
 -1      2589 2.62573E+01-5.67206E+00 4.67803E-02 2.69775E+00-1.02834E-14 1.06193E-13
 -1      2590 3.21957E+01 3.62228E-01-1.46007E-01-1.36535E+00-4.36221E-13 3.78308E-13
 -1      2591 3.12310E+01-1.69013E+00-4.91658E-02-2.87773E-02-3.20050E-13 2.36589E-13
 -1      2592 2.98051E+01-3.31490E+00 1.73383E-02-1.59185E-01-3.65132E-13 3.47000E-13
 -1      2593 3.35645E+01 7.24257E+00-1.42870E-01-4.08072E-01-3.75033E-13 7.48984E-14
 -1      2594 3.31021E+01 7.17065E+00-1.40590E-01-1.30391E+00-3.30846E-13 3.74145E-14
 -1      2595 3.39054E+01 5.59611E+00-6.95730E-02 6.66010E-01-2.60014E-13 2.55407E-13
 -1      2596 3.40035E+01 6.84388E+00-1.18748E-01 1.98086E-01-3.36342E-13 1.97967E-13
 -1      2597 3.13034E+01 6.57962E+00-6.58298E-02 8.90970E-02-3.64098E-13-3.42920E-14
 -1      2598 2.90513E+01-3.94363E+00-2.85504E-02-3.14034E+00 3.61725E-13 2.26208E-13
 -1      2599 3.12493E+01-2.11037E+00-1.00935E-01-1.56100E+00 1.93837E-13 1.89126E-13
 -1      2600 2.32799E+01-6.16533E+00 1.70385E-02-5.93793E+00 2.66176E-14-8.94285E-14
 -1      2601 2.67394E+01-5.22753E+00-4.97201E-02-4.98386E+00 2.20296E-13 1.79551E-13
 -1      2602 2.82144E+01-5.00710E+00 3.31476E-02-3.19713E+00 4.33625E-13-2.73670E-14
 -1      2603 1.55539E+01-6.13268E+00 7.31953E-02-7.48065E+00 1.42497E-13-2.30496E-13
 -1      2604 1.93742E+01-6.33682E+00 5.28715E-03-7.40897E+00 6.59472E-14-4.72750E-13
 -1      2605 3.41121E+01 4.40883E+00-6.25133E-02-7.27489E-02 1.53572E-13-2.39142E-13
 -1      2606 3.30499E+01 2.50537E+00-5.90762E-02 2.94923E-01 4.69069E-14-1.12577E-13
 -1      2607 3.18822E+01 4.80208E+00-6.36591E-02-1.09467E+00 2.11553E-13-3.90216E-13
 -1      2608 2.04909E+01 8.74929E-01-7.31473E-03 1.22670E+00 4.98476E-13 2.08656E-13
 -1      2609 2.08414E+01 1.25692E+00-6.05277E-03 1.72740E+00 5.26149E-13 2.81610E-13
 -1      2610 2.06472E+01 1.71561E+00-1.57937E-02 1.92155E+00 5.66165E-13 1.09343E-13
 -1      2611 2.04494E+01 1.05801E+00-9.39844E-03 1.24148E+00 5.08243E-13 2.93397E-14
 -1      2612 1.99117E+01 2.81429E+00 1.53471E-03-1.09925E+00-3.45263E-13-5.43836E-13
 -1      2613 1.97816E+01 3.16182E+00-1.46338E-02-1.28646E+00-3.68350E-13-5.75550E-13
 -1      2614 1.98779E+01 3.02496E+00-1.73801E-02-1.47586E+00-4.23692E-13-5.12455E-13
 -1      2615 1.99950E+01 3.40172E-01-3.53062E-03 3.04665E-01 3.13425E-13-5.97725E-14
 -1      2616 2.04228E+01 2.11576E+00-1.27786E-02 1.87456E+00 5.48451E-13-9.49536E-14
 -1      2617 2.25361E+01-6.30719E+00 5.01108E-02-6.20673E+00 2.60042E-13-3.54328E-13
 -1      2618 3.18574E+01 3.92591E+00-3.45581E-02 1.50997E+00-2.46109E-13 1.63564E-13
 -1      2619 3.07326E+01 1.62301E+00-5.50324E-02 1.60925E+00 3.75089E-13-9.03166E-14
 -1      2620 2.93316E+01-3.47578E+00-1.84491E-01 1.75925E+00-1.06738E-13-1.76748E-13
 -1      2621 2.86007E+01-4.08349E+00 1.21851E-02 3.36232E+00-3.72063E-14-9.07330E-14
 -1      2622 2.74951E+01-5.01191E+00 5.87375E-02 3.53730E+00 1.35045E-13-1.16518E-13
 -1      2623 3.15898E+01 6.19365E+00-3.06134E-02-1.91598E+00-3.23852E-13-1.07969E-14
 -1      2624 1.29419E+01-3.87404E+00 1.65276E-01-6.82356E+00 3.64625E-13 2.10443E-13
 -1      2625 1.41115E+01-5.30407E+00 8.52163E-02-7.33739E+00 2.48634E-13-7.37466E-14
 -1      2626 1.70495E+01-5.16408E+00 5.72930E-02-7.08125E+00 3.64236E-13-3.32553E-13
 -1      2627 1.39536E+01-5.38106E+00 1.19541E-01 7.46955E+00 4.40648E-13 5.20417E-14
 -1      2628 1.36405E+01-4.20370E+00 1.57920E-01 7.17067E+00 2.80637E-13 4.36873E-14
 -1      2629 1.68458E+01-5.63028E+00-3.91055E-02 7.49069E+00 2.90323E-13-1.13132E-13
 -1      2630 5.41507E+00-2.24118E+00 1.65757E-01 1.59188E-01 2.38304E-13 4.87832E-13
 -1      2631 2.04936E+01-3.01849E-02-2.38107E-03 3.36202E-01-2.19803E-13 2.98032E-13
 -1      2632 2.06178E+01 1.46021E-02 9.05955E-03 5.04993E-01-3.13757E-13-1.29564E-13
 -1      2633 2.24554E+01-6.11074E+00 9.53216E-02 6.46585E+00 2.49578E-13-3.04833E-13
 -1      2634 2.12353E+01 2.21739E-01 1.84468E-02-1.91013E+00-1.38804E-13 7.87981E-14
 -1      2635 2.09341E+01 6.10486E-01 1.18524E-03-2.29271E+00-1.07845E-13-4.85831E-14
 -1      2636 2.11074E+01 1.78488E-01-9.94191E-03-2.66777E+00-1.72314E-13-4.58303E-14
 -1      2637 2.15600E+01-1.26075E-01-1.46834E-02-1.97779E+00-1.60334E-13 1.45768E-13
 -1      2638 3.14151E+01-1.20889E+00-7.62094E-02-2.78852E-02 1.24879E-13 3.16247E-13
 -1      2639 3.04599E+01-2.08878E-01-1.27675E-01 1.47554E+00 5.03209E-14 3.35121E-13
 -1      2640 3.00219E+01-2.62881E+00 2.74830E-02-1.92444E-01 2.61194E-13 2.77001E-13
 -1      2641 7.60119E+00-3.23298E+00 1.60023E-01-4.65100E+00 3.06200E-13 6.15230E-13
 -1      2642 2.04367E+01 1.80800E+00 1.25383E-02 1.56232E+00 5.08925E-13-1.28646E-13
 -1      2643 8.34192E+00-2.98351E+00 1.78332E-01 4.90262E+00 4.25410E-13 3.83610E-13
 -1      2644 1.99860E+01 2.83979E+00-1.49004E-02-1.58646E+00-4.51110E-13-4.36404E-13
 -1      2645 2.01315E+01 2.61209E+00-2.25207E-02-1.75241E+00-4.98806E-13-3.34593E-13
 -1      2646 2.02848E+01 2.05189E+00 3.95937E-03-1.48662E+00-4.86710E-13-2.70779E-13
 -1      2647 2.00849E+01 2.49441E+00 4.06182E-03-1.34337E+00-4.18019E-13-4.32563E-13
 -1      2648 5.86750E+00-2.83861E+00 1.60040E-01 2.98476E+00 8.54872E-15-6.04794E-13
 -1      2649 8.08941E+00-4.01390E+00 1.00940E-01-5.72233E+00-1.30729E-13-2.24182E-13
 -1      2650 1.10542E+01-3.62183E+00 7.90793E-02-6.14191E+00-2.54838E-13-3.85525E-14
 -1      2651 7.61052E+00-2.63053E+00 2.14368E-01-4.85611E+00-7.44127E-14-2.35090E-13
 -1      2652 1.62922E+01-5.36483E+00 9.37427E-02-6.80401E+00-2.02449E-13-2.63012E-13
 -1      2653 1.94277E+01-5.98393E+00 9.58364E-02 5.58664E+00 3.04590E-13-5.95461E-14
 -1      2654 3.83597E+00-2.98687E+00 1.23840E-01-1.47620E+00-6.50938E-14-5.75373E-13
 -1      2655 5.37780E+00-2.14952E+00 1.42510E-01-2.74277E+00 3.33067E-15-5.81230E-13
 -1      2656 4.81973E+00-1.80859E+00 1.04610E-01-4.23470E-01-2.98806E-14-7.43128E-13
 -1      2657 2.39193E+01-5.59340E+00 6.95048E-02-4.63147E+00-4.39926E-14-1.51074E-13
 -1      2658 2.90798E+01-2.95692E+00 9.19368E-03-1.00905E+00 2.91024E-13 3.92741E-14
 -1      2659 3.02601E+01 5.80629E+00-8.49894E-02 1.78246E+00 4.01401E-13-2.72338E-13
 -1      2660 3.09460E+01 1.47809E+00-1.68423E-01-1.05553E+00-1.00198E-14-3.82944E-13
 -1      2661 3.21813E+01 7.10861E-01-4.00565E-02 2.81235E-01-8.58896E-14-1.04750E-13
 -1      2662 3.07734E+01-9.21085E-01-1.42428E-02 3.52192E-01-1.15144E-13-1.21264E-13
 -1      2663 2.09047E+01-2.27596E-01-7.45606E-03 6.58511E-01-2.70991E-13-5.36652E-14
 -1      2664 2.16863E+01-3.87689E-01-1.12628E-02-2.34455E+00-1.29477E-13-1.70048E-14
 -1      2665 2.96209E+01 6.96610E+00-1.18957E-01 1.99419E-01 4.31266E-13-3.18544E-13
 -1      2666 3.23411E+01 7.32796E+00-1.53786E-01-1.68132E-01 3.27849E-13-2.88970E-13
 -1      2667 1.98449E+01 2.76482E+00-6.30149E-03 5.16334E-01 1.69156E-13-5.52043E-13
 -1      2668 1.98200E+01 2.81457E+00-5.70184E-03 3.65444E-01 1.11370E-13-5.78678E-13
 -1      2669 1.98031E+01 2.85207E+00-5.61915E-03 2.29905E-01 7.35761E-14-5.97656E-13
 -1      2670 1.97945E+01 2.86896E+00-5.43871E-03 7.52579E-02 1.60582E-14-5.77921E-13
 -1      2671 1.99496E+01 2.50075E+00 3.64188E-03 2.65301E-01 8.55914E-14-5.45405E-13
 -1      2672 2.00435E+01 2.32387E+00-1.07264E-02 1.04609E+00 3.57721E-13-4.13609E-13
 -1      2673 1.99793E+01 2.47280E+00-6.30705E-03 9.10510E-01 3.02677E-13-4.48834E-13
 -1      2674 2.02170E+01 1.90808E+00-1.20228E-02 1.22736E+00 4.38212E-13-3.08754E-13
 -1      2675 2.01244E+01 2.14618E+00-4.79875E-03 1.13392E+00 3.94713E-13-3.64788E-13
 -1      2676 2.01893E+01 1.88641E+00 6.44028E-03 9.26600E-01 3.51424E-13-3.51767E-13
 -1      2677 2.02128E+01 7.26831E-01-3.49728E-03 6.42814E-01 3.70903E-13-1.12120E-13
 -1      2678 2.03548E+01 9.51737E-01 9.14680E-03 9.06614E-01 4.14621E-13-9.94541E-14
 -1      2679 1.10162E+01-2.46461E+00 1.03083E-01 5.75383E+00 2.54269E-13 1.00892E-13
 -1      2680 8.82118E+00-1.43197E+00 1.81389E-01 3.78626E+00 3.75783E-13 1.73889E-13
 -1      2681 2.97342E+01 4.67541E+00-2.13725E-01-1.37975E+00 2.22655E-13-3.47888E-13
 -1      2682 3.01787E+01 3.30770E+00-1.27889E-01-1.58317E+00 7.33025E-14-4.45477E-13
 -1      2683 3.03804E+01 6.44325E+00-1.64042E-01-7.60088E-01 3.37758E-13-3.11945E-13
 -1      2684 2.02148E+01 6.25915E-01 7.09921E-03-4.39520E-01-2.83638E-13-2.22149E-13
 -1      2685 2.01320E+01 4.77110E-01-3.03204E-03-2.79046E-01-2.49440E-13-2.33530E-13
 -1      2686 2.01066E+01 3.62406E-01 6.63597E-03-1.58887E-01-2.37594E-13-2.17982E-13
 -1      2687 2.00471E+01 2.67590E-01-1.80016E-03-6.12502E-02-2.21789E-13-2.43964E-13
 -1      2688 2.01949E+01 5.29762E-01-1.51102E-03-2.61638E-01-2.64183E-13-2.44111E-13
 -1      2689 2.00209E+01 1.97327E-01 4.50387E-03 1.39739E-02-1.84918E-13-2.36524E-13
 -1      2690 1.99850E+01 1.37790E-01-8.42272E-04 7.04911E-02-1.74536E-13-2.44875E-13
 -1      2691 2.01264E+01 2.98451E-01-2.07997E-03-5.59819E-02-2.13594E-13-2.56909E-13
 -1      2692 1.99640E+01 9.36815E-02 2.89894E-03 1.13829E-01-1.49470E-13-2.10306E-13
 -1      2693 1.99459E+01 5.64438E-02-2.94490E-04 1.43236E-01-1.30482E-13-2.17529E-13
 -1      2694 2.00698E+01 1.52282E-01-1.90452E-03 7.12947E-02-1.50364E-13-2.46223E-13
 -1      2695 1.99309E+01 2.90473E-02 1.73610E-03 1.64708E-01-1.45793E-13-1.92261E-13
 -1      2696 1.99249E+01 6.37967E-03 8.25475E-06 1.76613E-01-1.33284E-13-2.15385E-13
 -1      2697 2.00287E+01 6.00360E-02-1.52434E-03 1.42275E-01-1.42898E-13-2.09738E-13
 -1      2698 1.99151E+01-9.98090E-03 9.30465E-04 1.83745E-01-1.15971E-13-2.14197E-13
 -1      2699 1.99170E+01-2.29301E-02 1.70966E-04 1.84756E-01-1.00856E-13-2.08227E-13
 -1      2700 2.00013E+01 3.26390E-03-1.14534E-03 1.75095E-01-1.34176E-13-2.27122E-13
 -1      2701 1.99112E+01-3.18767E-02 3.90156E-04 1.82998E-01-8.33842E-14-2.06851E-13
 -1      2702 1.99177E+01-3.82828E-02 2.56274E-04 1.77664E-01-6.63942E-14-1.65857E-13
 -1      2703 1.99848E+01-2.97272E-02-8.27842E-04 1.83231E-01-1.06443E-13-1.58015E-13
 -1      2704 1.99149E+01-4.22151E-02 4.13779E-05 1.70891E-01-7.29410E-14-1.64918E-13
 -1      2705 1.99239E+01-4.42080E-02 3.01043E-04 1.62351E-01-3.84995E-14-1.52935E-13
 -1      2706 1.99762E+01-4.66335E-02-5.83016E-04 1.76429E-01-6.20716E-14-1.34338E-13
 -1      2707 1.99231E+01-4.47445E-02-1.72849E-04 1.53287E-01-6.51093E-14-1.82449E-13
 -1      2708 1.99332E+01-4.37588E-02 3.27581E-04 1.43700E-01-8.07626E-14-2.01499E-13
 -1      2709 1.99732E+01-5.26342E-02-4.04533E-04 1.61621E-01-8.35408E-14-2.28542E-13
 -1      2710 1.99338E+01-4.19836E-02-2.95662E-04 1.34249E-01-8.05913E-14-1.85749E-13
 -1      2711 1.99442E+01-3.89623E-02 3.50576E-04 1.25113E-01-6.37185E-14-1.73453E-13
 -1      2712 1.99739E+01-5.12269E-02-2.80920E-04 1.43686E-01-8.49765E-14-2.21292E-13
 -1      2713 1.99458E+01-3.55732E-02-3.59413E-04 1.16612E-01-3.88056E-14-2.02471E-13
 -1      2714 1.99562E+01-3.10975E-02 3.80505E-04 1.08985E-01-7.03150E-14-1.57953E-13
 -1      2715 1.99772E+01-4.47232E-02-2.00916E-04 1.26057E-01-6.36395E-14-1.51727E-13
 -1      2716 1.99585E+01-2.65031E-02-3.88135E-04 1.02410E-01-9.88801E-14-1.46635E-13
 -1      2717 1.99689E+01-2.08800E-02 4.25587E-04 9.70844E-02-5.14719E-14-1.32260E-13
 -1      2718 1.99823E+01-3.45613E-02-1.54865E-04 1.11188E-01-7.72169E-14-1.62978E-13
 -1      2719 1.99718E+01-1.52667E-02-3.99824E-04 9.31917E-02-4.81162E-14-1.48875E-13
 -1      2720 1.99824E+01-8.58929E-03 4.92882E-04 9.08239E-02-5.05080E-14-1.56306E-13
 -1      2721 1.99888E+01-2.15184E-02-1.34516E-04 1.00921E-01-5.84247E-14-1.45241E-13
 -1      2722 1.99858E+01-1.96785E-03-4.08277E-04 9.02780E-02-9.52371E-14-1.72152E-13
 -1      2723 1.99971E+01 5.84140E-03 5.88817E-04 9.14882E-02-9.03942E-14-1.98615E-13
 -1      2724 1.99965E+01-5.85788E-03-1.33039E-04 9.67600E-02-7.65431E-14-1.69080E-13
 -1      2725 2.00011E+01 1.36015E-02-4.24386E-04 9.49500E-02-6.92222E-14-2.12820E-13
 -1      2726 2.00137E+01 2.27579E-02 7.19388E-04 1.00403E-01-1.10323E-13-1.90534E-13
 -1      2727 2.00055E+01 1.25645E-02-1.44461E-04 1.00095E-01-1.25201E-13-2.15349E-13
 -1      2728 2.00182E+01 3.19012E-02-4.57280E-04 1.08601E-01-1.01645E-13-1.64912E-13
 -1      2729 2.00329E+01 4.27320E-02 8.90126E-04 1.19065E-01-8.18318E-14-8.97621E-14
 -1      2730 2.00158E+01 3.42197E-02-1.62884E-04 1.12368E-01-9.85571E-14-1.88863E-13
 -1      2731 2.00381E+01 5.35941E-02-5.15228E-04 1.32850E-01-9.14394E-14-5.22865E-14
 -1      2732 2.00558E+01 6.65143E-02 1.10587E-03 1.49243E-01-5.89347E-14-1.02988E-13
 -1      2733 2.00277E+01 5.98398E-02-1.81709E-04 1.35196E-01-9.26785E-14-1.46986E-13
 -1      2734 2.00616E+01 7.94979E-02-6.06244E-04 1.69617E-01-7.63522E-15-1.14150E-13
 -1      2735 2.00833E+01 9.49812E-02 1.37014E-03 1.93033E-01 9.21782E-14-1.11499E-13
 -1      2736 2.00413E+01 9.03560E-02-1.92845E-04 1.70457E-01-7.40593E-14-4.59090E-14
 -1      2737 2.00897E+01 1.10522E-01-7.38297E-04 2.21170E-01 1.10619E-13-1.98072E-13
 -1      2738 2.01164E+01 1.29056E-01 1.68417E-03 2.52883E-01 4.72088E-14-2.34503E-13
 -1      2739 2.00567E+01 1.26824E-01-1.85922E-04 2.20337E-01 3.74604E-14-8.19079E-14
 -1      2740 2.01232E+01 1.47566E-01-9.18869E-04 2.90117E-01 4.84923E-14-2.17277E-13
 -1      2741 2.01561E+01 1.69570E-01 2.04547E-03 3.31549E-01 4.19424E-14-2.56453E-13
 -1      2742 2.00738E+01 1.70307E-01-1.47823E-04 2.87323E-01 5.73047E-14-3.12200E-13
 -1      2743 2.01628E+01 1.91334E-01-1.15328E-03 3.79329E-01-5.65403E-14-3.15930E-13
 -1      2744 2.02030E+01 2.17012E-01 2.44604E-03 4.31969E-01-9.05970E-14-3.28117E-13
 -1      2745 2.00920E+01 2.21682E-01-6.31717E-05 3.74144E-01-8.80984E-14-1.84759E-13
 -1      2746 2.02089E+01 2.41992E-01-1.44073E-03 4.91770E-01-3.03069E-14-3.32889E-13
 -1      2747 2.02575E+01 2.71059E-01 2.87062E-03 5.57001E-01-4.49863E-14-3.08719E-13
 -1      2748 2.01105E+01 2.81275E-01 8.29433E-05 4.83619E-01-5.55510E-14-2.23193E-13
 -1      2749 2.02618E+01 2.98542E-01-1.76634E-03 6.30163E-01-5.59506E-14-2.75493E-13
 -1      2750 2.03197E+01 3.29733E-01 3.29574E-03 7.08947E-01 3.96167E-16-2.66694E-13
 -1      2751 2.01276E+01 3.48218E-01 2.97521E-04 6.18405E-01 1.78287E-14-1.69139E-13
 -1      2752 2.03214E+01 3.57710E-01-2.08626E-03 7.96422E-01-5.77972E-15-2.93231E-13
 -1      2753 2.03897E+01 3.87936E-01 3.69143E-03 8.88769E-01 3.59532E-15-2.71479E-13
 -1      2754 2.01416E+01 4.19318E-01 5.63136E-04 7.80598E-01 2.17603E-14-2.39008E-13
 -1      2755 2.03887E+01 4.12045E-01-2.30133E-03 9.90738E-01 2.86582E-14-2.82696E-13
 -1      2756 2.04688E+01 4.35006E-01 4.02760E-03 1.09484E+00 8.39666E-15-1.87320E-13
 -1      2757 2.01508E+01 4.87121E-01 8.05325E-04 9.71160E-01 2.37154E-14-2.53344E-13
 -1      2758 2.04672E+01 4.46862E-01-2.21257E-03 1.21015E+00-9.48838E-14-2.47238E-13
 -1      2759 2.05624E+01 4.50927E-01 4.28427E-03 1.32107E+00-1.28806E-13-2.43298E-13
 -1      2760 2.01558E+01 5.36810E-01 8.33864E-04 1.18916E+00-1.10853E-13-2.87397E-13
 -1      2761 2.05669E+01 4.35718E-01-1.44859E-03 1.44636E+00 2.14790E-14-2.51474E-13
 -1      2762 2.06848E+01 4.01072E-01 4.44900E-03 1.55403E+00 3.71358E-14-1.05765E-13
 -1      2763 2.01627E+01 5.41513E-01 2.46474E-04 1.43075E+00-4.63440E-14-2.67152E-13
 -1      2764 2.07124E+01 3.34724E-01 6.40850E-04 1.68220E+00-1.17711E-13-1.09037E-13
 -1      2765 2.08680E+01 2.30476E-01 4.43325E-03 1.76856E+00-6.35385E-14-2.16124E-13
 -1      2766 2.01905E+01 4.56031E-01-1.71149E-03 1.68760E+00 6.42424E-15-1.41746E-13
 -1      2767 2.09542E+01 7.79379E-02 5.10629E-03 1.88556E+00 5.26235E-14-1.92857E-13
 -1      2768 2.11748E+01-1.38218E-01 3.74557E-03 1.92042E+00 5.26994E-14-1.14986E-13
 -1      2769 2.02833E+01 2.10423E-01-6.30503E-03 1.94370E+00-5.73445E-15-1.98446E-13
 -1      2770 2.13847E+01-4.18771E-01 1.35474E-02 1.99696E+00 5.12004E-15-1.09753E-13
 -1      2771 2.17098E+01-7.89409E-01 1.37413E-03 1.93219E+00-2.58704E-14 2.40281E-15
 -1      2772 2.05288E+01-2.91726E-01-1.53451E-02 2.16639E+00 6.27563E-14-4.99453E-14
 -1      2773 2.21458E+01-1.22509E+00 2.78148E-02 1.90780E+00-6.04254E-14 6.49543E-14
 -1      2774 2.26129E+01-1.75602E+00-5.01167E-03 1.67278E+00-8.59954E-14 1.31197E-13
 -1      2775 2.10795E+01-1.14988E+00-2.96900E-02 2.28338E+00 3.57006E-15-1.68073E-14
 -1      2776 2.33968E+01-2.29870E+00 4.54270E-02 1.42725E+00-7.60949E-14 2.46910E-13
 -1      2777 2.39989E+01-2.85455E+00-1.54129E-02 9.37919E-01 1.88304E-14 3.61476E-13
 -1      2778 2.21567E+01-2.37910E+00-4.57449E-02 2.13812E+00-2.49909E-14 1.88815E-13
 -1      2779 2.51839E+01-3.27491E+00 4.70352E-02 2.98135E-01-2.12634E-14 3.96307E-13
 -1      2780 2.58010E+01-3.41428E+00-2.49364E-02-4.78431E-01-1.43704E-14 3.41582E-13
 -1      2781 2.39869E+01-3.66999E+00-4.83185E-02 1.44440E+00-1.02609E-14 3.09305E-13
 -1      2782 2.89254E+01 3.35213E+00-2.06230E-01-3.06544E+00-2.82080E-13 2.49661E-14
 -1      2783 2.87739E+01 4.96563E+00-1.64952E-01-2.03115E+00-2.59875E-13 9.46743E-14
 -1      2784 2.88685E+01 2.81923E+00-1.23098E-01 1.79512E+00-2.48773E-13-4.56302E-14
 -1      2785 2.88484E+01 6.12284E-01-1.67279E-01 2.02012E+00-6.17006E-14-1.03209E-13
 -1      2786 2.61774E+01-3.24385E+00-2.17745E-02-1.36414E-01 3.89223E-13 4.14712E-14
 -1      2787 2.55612E+01-3.35216E+00 2.63800E-02-9.35073E-01 3.67398E-13 1.66853E-13
 -1      2788 2.42973E+01-3.02437E+00-2.22888E-02-1.70992E+00 2.00805E-13 1.05017E-13
 -1      2789 2.36112E+01-2.46088E+00 4.97217E-02-2.25002E+00 5.92699E-14-9.14208E-14
 -1      2790 2.48149E+01-3.82782E+00-5.24579E-02-2.20746E+00 2.68423E-13 2.70919E-13
 -1      2791 2.26886E+01-1.82161E+00-9.88002E-03-2.55832E+00 1.95087E-14-2.22116E-13
 -1      2792 2.21197E+01-1.12796E+00 3.24232E-02-2.77038E+00 2.66126E-14-1.57009E-13
 -1      2793 2.27582E+01-2.50863E+00-4.45674E-02-3.09282E+00-1.49186E-16 3.36398E-14
 -1      2794 1.98916E+01 1.18558E-01-2.57212E-04-7.06366E-02 1.18231E-13-9.37313E-14
 -1      2795 1.99274E+01 1.70182E-01 5.20316E-03-1.51946E-02 1.76037E-13-8.17052E-14
 -1      2796 1.98428E+01-1.81346E-02 2.49561E-04-1.83878E-01 5.26324E-14-1.16844E-13
 -1      2797 1.98344E+01-7.14749E-03 8.80810E-04-1.83381E-01 7.33406E-14-1.20269E-13
 -1      2798 1.98540E+01-3.12324E-02 2.65998E-04-1.76427E-01 8.47722E-14-1.30237E-13
 -1      2799 1.98411E+01-2.57561E-02 2.96272E-04-1.82036E-01 6.88251E-14-1.18906E-13
 -1      2800 1.99201E+01-2.46046E-02-8.58779E-04-1.86906E-01 6.82921E-14-1.41168E-13
 -1      2801 1.98702E+01-3.64713E-02 2.67961E-04-1.60823E-01 1.22646E-13-1.22768E-13
 -1      2802 1.98555E+01-3.46837E-02-6.70722E-05-1.69507E-01 8.33272E-14-1.21828E-13
 -1      2803 1.99202E+01-3.94969E-02-5.62560E-04-1.79648E-01 9.07956E-14-1.70891E-13
 -1      2804 1.98888E+01-3.64280E-02 2.70146E-04-1.41862E-01 1.60576E-13-6.50303E-14
 -1      2805 1.98737E+01-3.71115E-02-2.78964E-04-1.51554E-01 1.60804E-13-7.78470E-14
 -1      2806 1.99257E+01-4.50189E-02-3.56131E-04-1.64173E-01 1.26076E-13-1.29909E-13
 -1      2807 1.99080E+01-3.28163E-02 2.81186E-04-1.22846E-01 1.09220E-13 3.77983E-15
 -1      2808 1.98933E+01-3.51671E-02-3.89058E-04-1.32133E-01 1.60249E-13-2.21440E-14
 -1      2809 1.99345E+01-4.42237E-02-2.20939E-04-1.45413E-01 1.24597E-13-4.67854E-14
 -1      2810 1.99270E+01-2.67359E-02 3.07140E-04-1.06067E-01 4.26366E-14-1.20934E-14
 -1      2811 1.99130E+01-3.02481E-02-4.33129E-04-1.13968E-01 7.98548E-14 1.86857E-14
 -1      2812 1.99451E+01-3.91343E-02-1.40275E-04-1.26796E-01 1.01419E-13 8.25883E-14
 -1      2813 1.99456E+01-1.88332E-02 3.52878E-04-9.31709E-02 6.91989E-14-2.69497E-14
 -1      2814 1.99323E+01-2.32217E-02-4.36968E-04-9.89730E-02 6.22169E-14-3.00870E-14
 -1      2815 1.99565E+01-3.10344E-02-1.00986E-04-1.10732E-01 7.32117E-14 2.83434E-14
 -1      2816 1.99643E+01-9.41938E-03 4.22576E-04-8.54231E-02 4.15713E-14-1.73769E-14
 -1      2817 1.99513E+01-1.45615E-02-4.18851E-04-8.85636E-02 6.75839E-14 3.39222E-15
 -1      2818 1.99686E+01-2.06636E-02-9.34199E-05-9.89826E-02 3.75357E-14 1.04622E-14
 -1      2819 1.99836E+01 1.43710E-03 5.20032E-04-8.39082E-02 2.32565E-14 4.09136E-14
 -1      2820 1.99703E+01-4.45303E-03-3.91545E-04-8.38877E-02 1.17556E-14 1.85738E-15
 -1      2821 1.99814E+01-8.35971E-03-1.10054E-04-9.29304E-02 4.95154E-15 2.72109E-14
 -1      2822 2.00046E+01 1.38316E-02 6.48286E-04-8.96675E-02-9.11639E-15 5.40031E-14
 -1      2823 1.99902E+01 7.12300E-03-3.63795E-04-8.59909E-02 5.31096E-14 7.45786E-14
 -1      2824 1.99953E+01 5.82590E-03-1.45357E-04-9.37816E-02 3.37709E-14 8.34560E-14
 -1      2825 2.00286E+01 2.79423E-02 8.08947E-04-1.03785E-01-2.24815E-14-1.53593E-14
 -1      2826 2.00121E+01 2.03115E-02-3.41117E-04-9.59280E-02 1.30264E-15 5.87226E-15
 -1      2827 2.00108E+01 2.20263E-02-1.95391E-04-1.02704E-01 4.05359E-14 2.85345E-14
 -1      2828 2.00570E+01 4.39372E-02 1.00122E-03-1.27418E-01 2.21026E-14-1.04026E-13
 -1      2829 2.00374E+01 3.52978E-02-3.26195E-04-1.14821E-01-3.97530E-14-1.12595E-13
 -1      2830 2.00286E+01 4.04526E-02-2.57148E-04-1.20909E-01 2.65925E-14-5.83458E-14
 -1      2831 2.00917E+01 6.18552E-02 1.22031E-03-1.61757E-01 6.75044E-14-9.69448E-14
 -1      2832 2.00677E+01 5.22039E-02-3.18873E-04-1.43859E-01 7.55103E-14-7.09276E-14
 -1      2833 2.00499E+01 6.12679E-02-3.28441E-04-1.49670E-01 1.80119E-14-1.85923E-13
 -1      2834 2.01346E+01 8.14448E-02 1.45527E-03-2.07912E-01 4.72800E-14-1.34944E-13
 -1      2835 2.01049E+01 7.09519E-02-3.15536E-04-1.84218E-01 5.84987E-14-7.01762E-14
 -1      2836 2.00757E+01 8.44252E-02-4.08056E-04-1.90271E-01 5.77282E-14 2.80650E-15
 -1      2837 2.01879E+01 1.01937E-01 1.68606E-03-2.66682E-01 8.04792E-15-6.94081E-14
 -1      2838 2.01510E+01 9.10737E-02-3.07775E-04-2.36901E-01 2.14587E-14-1.24042E-13
 -1      2839 2.01075E+01 1.09446E-01-4.96425E-04-2.43866E-01 3.63231E-14-5.76414E-14
 -1      2840 2.02539E+01 1.21735E-01 1.87991E-03-3.38181E-01-2.50353E-14-6.46581E-14
 -1      2841 2.02085E+01 1.11447E-01-2.80139E-04-3.02437E-01-8.30019E-15-3.27612E-14
 -1      2842 2.01469E+01 1.35111E-01-5.97158E-04-3.11222E-01 5.38797E-15-9.04552E-15
 -1      2843 2.03353E+01 1.37991E-01 1.98703E-03-4.21278E-01 6.78003E-14-1.64169E-13
 -1      2844 2.02799E+01 1.29931E-01-2.06815E-04-3.80429E-01 5.15164E-14-8.25047E-14
 -1      2845 2.01959E+01 1.59045E-01-7.19831E-04-3.92312E-01 3.62837E-14-1.24238E-13
 -1      2846 2.04350E+01 1.46078E-01 1.93613E-03-5.12794E-01 2.19733E-14-1.96455E-13
 -1      2847 2.03685E+01 1.42896E-01-4.72422E-05-4.68874E-01 8.93614E-14-1.48427E-13
 -1      2848 2.02572E+01 1.77162E-01-8.84357E-04-4.85721E-01 2.60442E-14-1.65419E-13
 -1      2849 2.05562E+01 1.39006E-01 1.63035E-03-6.06428E-01 6.53757E-14-1.65500E-13
 -1      2850 2.04777E+01 1.44652E-01 2.58637E-04-5.63230E-01 2.38650E-14-1.41674E-13
 -1      2851 2.03344E+01 1.82995E-01-1.12676E-03-5.87805E-01 5.08789E-15-3.00521E-14
 -1      2852 2.07029E+01 1.06942E-01 9.45084E-04-6.91394E-01-4.66599E-14-6.28138E-14
 -1      2853 2.06122E+01 1.26889E-01 7.93090E-04-6.55179E-01-1.45605E-14-1.34843E-13
 -1      2854 2.04327E+01 1.66997E-01-1.50466E-03-6.91582E-01-4.03933E-17-5.94576E-14
 -1      2855 2.08800E+01 3.72739E-02-2.68615E-04-7.50889E-01-1.43111E-13 7.08758E-14
 -1      2856 2.07773E+01 7.83836E-02 1.65512E-03-7.31108E-01-9.42784E-14 1.89419E-14
 -1      2857 2.05596E+01 1.16086E-01-2.09694E-03-7.85307E-01-1.55812E-13 1.00388E-13
 -1      2858 2.10932E+01-8.39412E-02-2.16650E-03-7.60690E-01-9.38220E-14 7.15010E-15
 -1      2859 2.09799E+01-1.44002E-02 2.93510E-03-7.70471E-01-1.27444E-13-7.42380E-15
 -1      2860 2.07256E+01 1.40510E-02-2.98381E-03-8.50797E-01-8.63165E-14 1.16834E-13
 -1      2861 2.13476E+01-2.67629E-01-4.86199E-03-6.88659E-01-2.22153E-15-1.08955E-13
 -1      2862 2.12273E+01-1.64691E-01 4.64393E-03-7.44504E-01 2.20937E-14-3.94885E-14
 -1      2863 2.09450E+01-1.55955E-01-4.18364E-03-8.61686E-01 1.95131E-14-5.19757E-14
 -1      2864 2.16445E+01-5.12392E-01-8.28329E-03-4.96789E-01-8.52231E-14-3.33612E-13
 -1      2865 2.15245E+01-3.78951E-01 6.56138E-03-6.16448E-01-4.89669E-14-1.66985E-13
 -1      2866 2.12338E+01-4.04796E-01-5.52208E-03-7.82291E-01 2.78075E-14-1.24342E-13
 -1      2867 2.19736E+01-7.88712E-01-1.18760E-02-1.48934E-01-1.38218E-13-3.42669E-13
 -1      2868 2.18672E+01-6.44508E-01 8.01968E-03-3.45802E-01-1.69416E-13-3.29866E-13
 -1      2869 2.16048E+01-7.23966E-01-6.40243E-03-5.68863E-01-1.21898E-13-3.06390E-13
 -1      2870 2.23004E+01-1.01916E+00-1.39409E-02 3.71150E-01 5.74128E-15-4.68643E-14
 -1      2871 2.22292E+01-9.11305E-01 7.62351E-03 9.87766E-02-1.39511E-13-2.83924E-13
 -1      2872 2.20538E+01-1.06405E+00-5.59545E-03-1.77520E-01-1.92692E-13-3.53290E-13
 -1      2873 2.25550E+01-1.06706E+00-1.14606E-02 1.02638E+00 5.79758E-14 7.75385E-14
 -1      2874 2.25475E+01-1.07316E+00 3.89846E-03 7.12495E-01 1.01285E-13 4.89942E-14
 -1      2875 2.25390E+01-1.31092E+00-1.13662E-03 4.13857E-01-2.63102E-14-1.21199E-13
 -1      2876 2.26344E+01-7.66609E-01-2.54542E-03 1.68009E+00 9.29702E-14-3.92325E-14
 -1      2877 2.27127E+01-9.71436E-01-6.24657E-03 1.40790E+00 1.34770E-13 5.11984E-14
 -1      2878 2.29569E+01-1.27263E+00 8.79568E-03 1.16391E+00 6.91992E-14-2.28352E-13
 -1      2879 2.24600E+01-4.91162E-02 1.05096E-02 2.07385E+00 8.84171E-14 9.81207E-14
 -1      2880 2.26186E+01-4.65229E-01-1.93424E-02 1.96766E+00 1.38109E-13 9.27134E-14
 -1      2881 2.31447E+01-7.71990E-01 1.32298E-02 1.88739E+00 4.28024E-14-3.53853E-14
 -1      2882 2.20661E+01 9.14889E-01 1.86218E-02 1.92343E+00 4.49640E-15 2.26100E-13
 -1      2883 2.22553E+01 4.14021E-01-2.88551E-02 2.09174E+00-2.41836E-14 1.24519E-13
 -1      2884 2.29968E+01 2.23383E-01 8.40252E-03 2.25939E+00-5.88527E-14 2.97899E-13
 -1      2885 2.16639E+01 1.65816E+00 1.14513E-02 1.12498E+00-1.12584E-13 9.53176E-14
 -1      2886 2.18026E+01 1.34328E+00-2.13785E-02 1.55986E+00 9.20227E-14 3.14627E-13
 -1      2887 2.25933E+01 1.40002E+00-7.54117E-03 1.93763E+00-3.61421E-14 1.52260E-13
 -1      2888 2.15235E+01 1.71540E+00-9.84990E-03-1.06752E-02 6.56766E-14-6.68710E-14
 -1      2889 2.15572E+01 1.78612E+00-1.16610E-03 5.05787E-01-1.07948E-13-5.74309E-14
 -1      2890 2.22590E+01 2.13812E+00-1.91650E-02 9.03260E-01 7.44188E-14 3.55894E-14
 -1      2891 2.17145E+01 1.04817E+00-2.50572E-02-9.30169E-01 1.37730E-13 8.80797E-14
 -1      2892 2.16556E+01 1.46161E+00 1.97064E-02-5.72599E-01 1.90467E-13-5.73727E-15
 -1      2893 2.22758E+01 1.96403E+00-1.53636E-02-3.61872E-01 7.01683E-14 1.03605E-13
 -1      2894 2.20126E+01 1.03147E-01-2.44279E-02-1.22902E+00 1.56377E-13-1.44858E-14
 -1      2895 2.19322E+01 5.83471E-01 2.12955E-02-1.15705E+00 1.31546E-13-3.17836E-14
 -1      2896 2.25818E+01 1.02284E+00 6.83416E-03-1.18237E+00 1.87955E-13-2.98407E-14
 -1      2897 2.21322E+01-6.16841E-01-1.37323E-02-9.47179E-01 2.71419E-13-2.49230E-13
 -1      2898 2.21004E+01-2.97957E-01 7.45476E-03-1.10812E+00 2.02700E-13-1.78476E-13
 -1      2899 2.28107E+01-1.23535E-01 1.32365E-02-1.23862E+00 2.76287E-13-2.14239E-13
 -1      2900 2.19601E+01-8.74746E-01 2.80279E-05-3.72939E-01-1.24033E-15-1.92869E-13
 -1      2901 2.20128E+01-8.03798E-01-7.04200E-03-6.29852E-01 1.48252E-13-2.50284E-14
 -1      2902 2.27229E+01-8.84901E-01 1.36214E-02-7.35061E-01 1.32897E-13-3.08751E-13
 -1      2903 2.15427E+01-7.22192E-01 3.09556E-03 1.71994E-01-2.16630E-13-7.09842E-14
 -1      2904 2.16795E+01-8.38260E-01-1.45721E-02-4.74703E-02-1.60332E-13-7.03422E-14
 -1      2905 2.23008E+01-1.07732E+00 4.29127E-03-4.83663E-02-1.55377E-13-2.73372E-13
 -1      2906 2.11421E+01-4.22581E-01 2.61489E-03 5.22576E-01-2.32606E-13-3.15683E-14
 -1      2907 2.13289E+01-6.18959E-01-1.46397E-02 4.01870E-01-1.99406E-13-1.03915E-13
 -1      2908 2.18354E+01-8.55531E-01 9.66625E-03 5.15682E-01-2.39271E-13-1.97500E-13
 -1      2909 2.13852E+01-4.52507E-01 1.54409E-02 8.89916E-01-2.10252E-13-2.07700E-13
 -1      2910 1.74429E+01 1.48310E+00-5.47197E-02 2.90273E+00-7.82083E-14 1.21191E-13
 -1      2911 1.84255E+01 1.19631E+00 7.16447E-02 3.39344E+00 6.53557E-16-1.71905E-14
 -1      2912 2.17159E+01-6.64419E-01 2.95410E-03-2.76263E+00 6.64039E-14-1.51405E-13
 -1      2913 2.14073E+01-2.26290E-01 1.96968E-02-2.74454E+00-2.82003E-14-8.74804E-14
 -1      2914 2.15953E+01-1.10897E+00-3.11710E-02-3.24037E+00 2.23649E-14-2.21339E-13
 -1      2915 2.08236E+01-2.28698E-01-4.73682E-03 3.33238E+00 2.49664E-13-4.77453E-13
 -1      2916 2.13092E+01-4.99979E-01 1.89355E-02 3.02027E+00 2.12139E-13-6.94308E-13
 -1      2917 1.62357E+01 2.24892E+00-2.14323E-02 1.02898E+00-3.18261E-13 2.74815E-13
 -1      2918 1.67474E+01 2.15054E+00 6.16430E-02 1.93401E+00-2.85530E-13 2.70908E-13
 -1      2919 1.62507E+01 1.16342E+00-1.83515E-02 2.87304E+00-1.57329E-13 3.19293E-14
 -1      2920 1.92909E+01 4.93542E-01-4.04503E-02 3.62888E+00 3.94264E-14-1.20966E-13
 -1      2921 2.01505E+01 1.42418E-01 3.96960E-02 3.65331E+00 1.82161E-13-1.54901E-13
 -1      2922 2.06234E+01-8.66179E-01-1.59129E-02 3.80907E+00 3.53953E-14-4.41212E-13
 -1      2923 1.84989E+01 5.65278E-02-1.46065E-02 4.00575E+00 9.52328E-14-1.21042E-13
 -1      2924 2.79433E+01 6.42021E+00-1.74408E-01 7.47762E-01 4.97102E-13-3.66932E-13
 -1      2925 2.79372E+01 6.25085E+00-1.67582E-01-2.54764E-01 4.43562E-13-2.88422E-13
 -1      2926 1.63331E+01 2.29802E+00 1.99609E-02-1.25949E+00-1.34701E-14 2.36701E-13
 -1      2927 1.60829E+01 2.39595E+00-2.05206E-03-2.56368E-01-1.93066E-13 3.77955E-13
 -1      2928 1.52689E+01 1.80164E+00 4.22058E-02 5.08591E-01-2.20270E-13 3.89369E-13
 -1      2929 1.77284E+01 1.58769E+00 4.64814E-02-3.03395E+00 2.49035E-13 3.98860E-13
 -1      2930 1.69100E+01 1.87324E+00-3.74130E-02-2.34735E+00 1.28394E-13 3.89955E-13
 -1      2931 1.58861E+01 1.55444E+00 5.44296E-02-2.08445E+00-8.47933E-15 3.83339E-13
 -1      2932 1.95211E+01 6.31654E-01 4.81421E-02-3.64659E+00 2.88988E-13 5.00610E-13
 -1      2933 1.86414E+01 9.50059E-01-3.65082E-02-3.49521E+00 2.27481E-13 3.59577E-13
 -1      2934 1.77820E+01 5.45108E-01 4.61635E-03-3.70394E+00 1.78849E-13 4.55762E-13
 -1      2935 1.99610E+01 2.31095E-01-7.76370E-04 6.28865E-02 2.12074E-13-1.07944E-13
 -1      2936 2.00266E+01 3.14952E-01 7.81594E-03 1.60658E-01 2.48318E-13-9.32493E-14
 -1      2937 2.00561E+01 2.65713E-01-2.71649E-03 6.08463E-02 1.87317E-13-1.00479E-13
 -1      2938 1.36325E+01-4.15781E+00-4.76705E-03 5.95829E+00 2.97415E-13 2.00159E-13
 -1      2939 1.07400E+01-2.92126E+00 1.88473E-01 5.04058E+00 2.20657E-13-1.48048E-13
 -1      2940 2.10369E+01-6.11420E-02-7.13106E-03-3.09823E+00 1.14150E-13-2.67935E-13
 -1      2941 7.10638E+00-1.04916E+00 1.03522E-01 1.11751E+00 4.17440E-13 6.26360E-13
 -1      2942 6.95164E+00-1.23925E+00 1.66676E-01-1.53333E+00 1.97245E-13 6.89837E-13
 -1      2943 2.03382E+01 1.50023E+00-1.89943E-03 1.26709E+00 4.67012E-13-1.55278E-13
 -1      2944 2.03215E+01 1.57874E+00-8.99270E-03-1.24197E+00-4.57614E-13-2.40479E-13
 -1      2945 2.03052E+01 1.21367E+00 7.37285E-04-9.70717E-01-4.11844E-13-2.19618E-13
 -1      2946 2.02400E+01 1.84352E+00-4.35641E-04-1.21893E+00-4.27879E-13-3.27623E-13
 -1      2947 2.85852E+01 4.32843E+00-2.95087E-01 1.39422E+00-3.63432E-13-1.83749E-13
 -1      2948 3.09986E+01 2.66007E+00-1.27184E-01-3.15340E+00-3.40922E-13 2.66231E-13
 -1      2949 3.23547E+01 1.38320E+00-9.42600E-02-2.08910E+00-4.53221E-13 3.58741E-13
 -1      2950 2.41778E+01-5.88918E+00-2.57756E-02 5.46299E+00 1.74222E-13-4.45685E-13
 -1      2951 2.07585E+01-5.88154E+00 1.39979E-01 6.76039E+00 2.08500E-13-4.93139E-13
 -1      2952 1.51243E+01-4.35761E+00 1.51078E-01-6.44894E+00-1.52253E-13-3.06991E-13
 -1      2953 1.85897E+01-5.36527E+00-3.87285E-02-6.28895E+00-1.16046E-13-4.61915E-13
 -1      2954 1.98410E+01 6.68044E-03 1.91918E-04-1.76213E-01 7.45802E-14-1.36726E-13
 -1      2955 1.98410E+01 2.59402E-02 1.78631E-03-1.65147E-01 8.35539E-14-1.34485E-13
 -1      2956 1.99288E+01 4.21865E-03-1.26172E-03-1.78863E-01 8.08722E-14-1.08546E-13
 -1      2957 1.98546E+01 4.91098E-02 4.63603E-05-1.43337E-01 9.77924E-14-1.22727E-13
 -1      2958 1.98687E+01 8.09762E-02 3.16308E-03-1.15076E-01 1.10296E-13-9.78891E-14
 -1      2959 1.99508E+01 5.38802E-02-1.77254E-03-1.45397E-01 1.05745E-13-1.17463E-13
 -1      2960 2.03057E+01 9.88309E-01 2.83448E-03-7.97864E-01-3.68674E-13-2.26568E-13
 -1      2961 2.02190E+01 7.60887E-01-3.56213E-03-5.61832E-01-3.20409E-13-2.40312E-13
 -1      2962 2.02520E+01 8.22333E-01-3.57963E-03-5.23804E-01-3.03220E-13-2.55047E-13
 -1      2963 2.02847E+01 1.21517E+00 3.44818E-03-8.29461E-01-3.65233E-13-2.70258E-13
 -1      2964 2.00701E+01 4.15355E-01-1.54642E-03 2.88065E-01 2.92709E-13-1.17659E-13
 -1      2965 2.01713E+01 5.53631E-01 1.04291E-02 4.50719E-01 3.29660E-13-1.07666E-13
 -1      2966 2.02536E+01 8.21388E-01 6.12851E-04 6.17402E-01 3.51818E-13-1.78899E-13
 -1      2967 2.01459E+01 4.76888E-01-2.14116E-03 2.80730E-01 2.68968E-13-1.61735E-13
 -1      2968 1.99234E+01 2.59576E+00-7.88588E-03 7.94601E-01 2.58038E-13-5.07000E-13
 -1      2969 1.98796E+01 2.68791E+00-6.12372E-03 6.45589E-01 2.09329E-13-5.40713E-13
 -1      2970 1.99983E+01 2.38822E+00 4.33184E-03 5.16888E-01 1.80726E-13-5.03322E-13
 -1      2971 2.00797E+01 2.19048E+00 5.59964E-03 7.45904E-01 2.52615E-13-4.40750E-13
 -1      2972 2.88485E+01 4.43229E+00-9.90783E-02 2.42847E+00 3.47750E-13-4.10200E-13
 -1      2973 2.81012E+01 5.77685E+00-2.02433E-01 1.69483E+00 3.50275E-13-3.59858E-13
 -1      2974 1.98746E+01 2.69641E+00-6.14947E-03-6.35309E-01-2.03727E-13-5.51716E-13
 -1      2975 1.99177E+01 2.60704E+00-7.66164E-03-7.84719E-01-2.58126E-13-5.42885E-13
 -1      2976 2.12650E+01-5.89415E+00 7.87665E-02-6.30314E+00 3.51219E-13-3.22634E-13
 -1      2977 2.44895E+01-6.06941E+00-3.68483E-02-5.18201E+00 3.59268E-13-9.28285E-14
 -1      2978 2.76004E+01-4.03878E+00 4.41374E-02-1.22072E+00 1.07849E-13 1.67505E-14
 -1      2979 2.86759E+01-2.50761E+00-1.96307E-01 3.53595E-01 2.62228E-13-4.58661E-14
 -1      2980 2.18197E+01-5.91326E+00-6.80512E-02 4.66711E+00 3.23852E-13-1.35638E-13
 -1      2981 1.78781E+01-5.00146E+00 1.81942E-01 5.57749E+00 3.56604E-13-8.68125E-14
 -1      2982 2.26144E+01-5.53116E+00 1.30259E-01-4.76358E+00-1.43274E-13-2.28151E-13
 -1      2983 2.54352E+01-5.41796E+00-1.20877E-01-3.27386E+00 6.14786E-14-4.99323E-14
 -1      2984 2.93950E+01 7.03839E-02-2.72773E-02 1.82113E+00 3.18606E-13-1.65590E-13
 -1      2985 2.91791E+01 2.17570E+00-2.16432E-01 2.36000E+00 3.94296E-13-2.64261E-13
 -1      2986 2.92025E+01-2.96202E+00-1.66140E-01-1.34557E+00-2.35442E-13 5.81327E-13
 -1      2987 2.83051E+01-4.17478E+00-1.69459E-02-6.70440E-02-1.99455E-13 5.54778E-13
 -1      2988 2.71369E+01-5.18165E+00-7.04630E-02 1.38801E+00-1.28786E-14 3.09114E-13
 -1      2989 2.52682E+01-5.59931E+00 8.63631E-02 2.62775E+00 2.02408E-13 1.77136E-13
 -1      2990 2.72446E+01-4.48290E+00-3.04934E-02 1.20219E-01 8.80893E-15 6.89802E-13
 -1      2991 3.05757E+01-4.27609E-01-1.71960E-02-2.30863E+00-3.43975E-13 3.91187E-13
 -1      2992 7.97275E+00-1.73117E+00 1.63098E-01-3.42542E+00 1.94483E-13 6.16840E-13
 -1      2993 1.02265E+01-2.43927E+00 1.42280E-01-5.46679E+00 3.29625E-13 5.50476E-13
 -1      2994 9.74237E+00-6.10462E-01 1.99785E-01-2.39344E+00 2.00964E-13 6.61915E-13
 -1      2995 8.02378E+00-1.97456E+00 1.02126E-01 3.70409E+00 6.97498E-14-4.39399E-13
 -1      2996 6.52423E+00-1.39147E+00 2.33548E-01 1.69273E+00-5.04458E-15-6.12677E-13
 -1      2997 2.69085E+01-5.47734E+00 5.10397E-02-3.32944E+00 3.94407E-13 5.97994E-14
 -1      2998 2.85112E+01-4.66697E+00-1.09065E-01-1.99246E+00 4.16583E-13 3.11778E-13
 -1      2999 2.81031E+01 5.57238E+00-2.69259E-01-8.49768E-01-1.96065E-13-3.41255E-14
 -1      3000 2.83976E+01 1.68445E+00-1.09268E-01-3.23676E+00-1.93318E-13 1.13930E-13
 -1      3001 2.84445E+01-3.67777E-01-1.41724E-01-3.20939E+00-1.28550E-13 1.47146E-13
 -1      3002 2.80925E+01 5.21698E+00-1.99944E-01 5.44934E-01-3.14054E-13-1.37085E-13
 -1      3003 2.68790E+01 5.30836E+00-1.18938E-01 1.33248E+00 3.56895E-13-2.66565E-13
 -1      3004 1.99330E+01 2.53824E+00 3.41848E-03 4.59341E-03-9.46021E-15-5.37202E-13
 -1      3005 1.97939E+01 2.86978E+00-5.49672E-03-6.19056E-02-2.41161E-14-5.79509E-13
 -1      3006 1.98014E+01 2.85516E+00-5.54461E-03-2.16648E-01-7.67771E-14-5.84275E-13
 -1      3007 9.94369E+00-5.32749E-01 1.94795E-01 2.24147E+00 4.10019E-13 3.80584E-13
 -1      3008 2.94822E+01 1.83100E+00-1.03099E-01-1.42727E+00 4.16195E-14-4.18776E-13
 -1      3009 1.99716E+01 2.48603E+00-6.59092E-03-9.02850E-01-2.94677E-13-5.24244E-13
 -1      3010 2.00362E+01 2.34051E+00-1.00391E-02-1.03639E+00-3.58172E-13-4.90945E-13
 -1      3011 2.00741E+01 2.20240E+00 5.52835E-03-7.38936E-01-2.62020E-13-4.80959E-13
 -1      3012 2.89960E+01 4.98871E+00-1.52367E-01-1.30460E+00 2.04142E-13-3.04215E-13
 -1      3013 2.98742E+01-2.36837E+00-4.33339E-02 6.23910E-01-8.45036E-14-1.75249E-13
 -1      3014 2.87395E+01-3.41723E+00-1.58624E-04 1.09003E+00-3.08911E-14-2.23099E-13
 -1      3015 2.93465E+01-1.45378E+00-1.54474E-01-5.74671E-01-8.94146E-14-2.19560E-13
 -1      3016 1.29391E+01-2.60502E+00 1.57747E-01-5.76473E+00 3.36675E-13 2.36547E-13
 -1      3017 1.96750E+01-5.22958E+00 1.23464E-01 6.80494E+00 2.28928E-13-5.13367E-13
 -1      3018 2.71781E+01-3.14679E+00-3.47667E-02-1.51771E+00-1.09884E-13 3.66672E-13
 -1      3019 2.75975E+01-2.13674E+00-5.23510E-02-2.32497E+00-1.17968E-13 2.25979E-13
 -1      3020 2.80792E+01-6.67337E-01-5.99407E-02 1.71803E+00 5.17503E-14-1.52239E-13
 -1      3021 2.17794E+01-1.20862E+00-1.29951E-02 2.87606E+00 1.42418E-13-3.94651E-13
 -1      3022 2.15815E+01-5.72313E-01 9.03169E-03 2.49345E+00 4.50932E-14-5.74901E-13
 -1      3023 2.16964E+01-7.00643E-01 4.49081E-03 2.06847E+00-2.56553E-13-3.07744E-13
 -1      3024 2.77560E+01-2.20931E+00-6.29093E-02 1.12004E+00 2.49198E-13-2.22954E-13
 -1      3025 1.08727E+01-1.75386E+00 1.65820E-01 3.97690E+00 2.81108E-13-1.04083E-13
 -1      3026 1.99914E+01 1.35187E-01-2.33778E-03-7.21670E-02 1.39516E-13-1.05450E-13
 -1      3027 2.81681E+01-1.47500E+00-4.52862E-02 1.39658E+00 1.93841E-13-1.70558E-13
 -1      3028 2.11291E+01-5.09103E+00 6.22212E-02-4.96288E+00-7.75352E-14-2.38137E-13
 -1      3029 2.34368E+01-5.36076E+00 1.76126E-03 3.21159E+00 2.28456E-13 2.74850E-14
 -1      3030 2.77778E+01 2.65408E+00-1.08868E-01 2.52482E+00 3.81001E-13-4.60909E-13
 -1      3031 7.11918E+00-9.55171E-01 1.68169E-01 5.22022E-01 2.08757E-14-6.99441E-13
 -1      3032 2.16622E+01-5.85781E-01 1.47674E-02 1.63051E+00-3.47207E-13-2.95040E-13
 -1      3033 2.15541E+01-6.14383E-01-4.00477E-04 1.23665E+00-2.96675E-13-2.05167E-13
 -1      3034 2.17853E+01-8.71893E-01-1.15972E-02 1.08922E+00-2.79902E-13-2.82321E-13
 -1      3035 2.20473E+01-1.12361E+00-6.55799E-03 1.87539E+00-1.48756E-13-1.98732E-13
 -1      3036 2.05652E+01 2.31617E-01 3.05082E-03-3.33013E+00 2.13338E-13-1.30831E-14
 -1      3037 1.38348E+01-3.65686E+00 1.25914E-01-6.26744E+00-1.85449E-13-2.34562E-13
 -1      3038 1.62155E+01-3.63622E+00 6.06158E-02-5.73207E+00-7.77087E-14-4.96020E-13
 -1      3039 1.26462E+01-2.64100E+00 1.38224E-01-5.62146E+00-1.11994E-13-1.12091E-13
 -1      3040 2.86821E+01-3.76154E+00-8.88795E-02-5.30829E-01 3.79377E-13 3.76199E-13
 -1      3041 1.69957E+01-3.94829E+00 1.41263E-01 5.19360E+00 3.19716E-13 3.29528E-14
 -1      3042 2.02906E+01 1.58784E+00-1.13131E-03 1.16604E+00 4.42329E-13-2.44129E-13
 -1      3043 2.58638E+01-5.66323E+00 4.47539E-02 4.41690E+00 1.57374E-14-2.94667E-13
 -1      3044 2.40240E+01-5.56865E+00 2.86225E-02 5.05355E+00 4.79478E-14-5.04917E-13
 -1      3045 2.68150E+01-5.09119E+00-4.70764E-02 3.11800E+00-3.92741E-14-2.37484E-13
 -1      3046 7.47200E+00-1.95557E+00 1.83466E-01-3.83220E+00-2.98095E-14-3.36564E-13
 -1      3047 9.72502E+00-1.85387E+00 9.57522E-02-4.54692E+00-8.64586E-14-1.06748E-13
 -1      3048 7.65806E+00-1.12661E+00 1.18409E-01-2.81554E+00-6.62248E-14-4.40370E-13
 -1      3049 2.92874E+01-1.70906E+00-6.45510E-02-2.26933E+00-2.03892E-13 3.93852E-13
 -1      3050 1.78972E+01-4.12654E+00 8.65484E-02-6.52346E+00 2.60791E-13-3.64403E-13
 -1      3051 1.96964E+01-5.26481E+00 8.98546E-02-6.64484E+00 2.05932E-13-4.73396E-13
 -1      3052 2.17604E+01-5.05362E+00 5.47962E-02-5.62968E+00 2.23398E-13-2.54788E-13
 -1      3053 2.62532E+01-4.56575E+00 2.46377E-02-1.66435E+00 4.65392E-14 2.60555E-14
 -1      3054 1.31631E+01-2.85491E+00 1.85738E-01 6.22783E+00 1.20126E-13 1.78468E-13
 -1      3055 1.30651E+01-1.58270E+00 8.58911E-02 5.29509E+00 1.91930E-14 1.15422E-13
 -1      3056 1.52599E+01-3.39171E+00 3.05705E-02 6.58803E+00 1.05790E-13 3.97044E-14
 -1      3057 1.98170E+01 2.81965E+00-5.71379E-03-3.51853E-01-1.00858E-13-5.63518E-13
 -1      3058 1.98411E+01 2.77136E+00-6.21105E-03-5.05515E-01-1.65706E-13-5.53664E-13
 -1      3059 1.99939E+01 2.39588E+00 4.21534E-03-5.07661E-01-1.62099E-13-5.14803E-13
 -1      3060 1.99476E+01 2.50424E+00 3.61080E-03-2.55750E-01-8.54912E-14-5.33813E-13
 -1      3061 2.02804E+01 1.36644E+00 2.30707E-03 9.20045E-01 3.97345E-13-2.59137E-13
 -1      3062 2.76869E+01 5.24350E+00-1.58857E-01-9.51906E-01 1.98550E-13-3.46192E-13
 -1      3063 2.72214E+01 3.80048E+00-1.25200E-01-1.51266E+00 1.06581E-13-4.03476E-13
 -1      3064 2.63687E+01 4.96031E+00-1.13987E-01-5.81253E-01 2.85966E-13-2.69514E-13
 -1      3065 2.54604E+01-5.59189E+00-1.78200E-02-3.84661E+00 3.27516E-13 1.45849E-13
 -1      3066 2.10502E+01-7.54385E-01 2.94230E-02-3.59498E+00-9.92305E-14-1.57800E-13
 -1      3067 2.01167E+01 1.64422E-02-2.55688E-02-3.71029E+00 7.43190E-14 2.51169E-13
 -1      3068 1.97111E+01-5.46387E-01-1.67521E-02-4.08910E+00-3.44611E-14 2.19217E-13
 -1      3069 2.14419E+01-1.32914E+00 2.83252E-02-3.61844E+00-1.12185E-13-3.23281E-14
 -1      3070 2.02397E+01 1.47512E+00-7.99965E-03 8.01190E-01 3.40834E-13-3.07063E-13
 -1      3071 2.02001E+01 1.66962E+00-4.63783E-04 7.46375E-01 2.86444E-13-3.39735E-13
 -1      3072 1.16580E+01-1.87311E-01 7.10436E-02 3.19108E+00 2.21906E-13 1.06873E-13
 -1      3073 1.05045E+01 4.02371E-01 1.47180E-01 6.02336E-01 2.04841E-13 5.90999E-13
 -1      3074 2.65697E+01-4.01572E+00-3.01249E-02-1.46326E-01-6.60244E-14 6.25430E-13
 -1      3075 2.02213E+01 4.23027E-01 4.30964E-03-1.20496E-01-2.23576E-13-2.39515E-13
 -1      3076 2.01815E+01 3.14724E-01-2.32486E-03-3.58829E-02-1.87549E-13-2.39692E-13
 -1      3077 2.01674E+01 2.31084E-01 3.16196E-03 2.53744E-02-1.66279E-13-2.32316E-13
 -1      3078 2.01371E+01 1.60534E-01-1.30838E-03 7.62385E-02-1.49822E-13-2.27164E-13
 -1      3079 2.02377E+01 3.31170E-01-8.56770E-04-2.69482E-02-1.78812E-13-2.28140E-13
 -1      3080 2.01204E+01 1.06524E-01 2.24103E-03 1.12017E-01-1.52389E-13-2.59015E-13
 -1      3081 2.00992E+01 6.13821E-02-6.26964E-04 1.39111E-01-1.32858E-13-2.57692E-13
 -1      3082 2.01970E+01 1.66891E-01-1.01416E-03 7.55035E-02-1.60634E-13-2.37472E-13
 -1      3083 2.00830E+01 2.74652E-02 1.46861E-03 1.56713E-01-1.12971E-13-2.74483E-13
 -1      3084 2.00694E+01-2.02987E-04-1.88715E-04 1.67900E-01-1.31806E-13-2.59738E-13
 -1      3085 2.01581E+01 6.05704E-02-9.72092E-04 1.33243E-01-1.43034E-13-3.15865E-13
 -1      3086 2.00550E+01-2.03400E-02 8.82334E-04 1.73343E-01-1.23862E-13-2.15362E-13
 -1      3087 2.00471E+01-3.59703E-02 8.33125E-05 1.74429E-01-9.56879E-14-2.11888E-13
 -1      3088 2.01242E+01-5.38848E-03-8.47161E-04 1.59668E-01-9.92790E-14-3.22043E-13
 -1      3089 2.00349E+01-4.66287E-02 4.59303E-04 1.72299E-01-8.87413E-14-1.72005E-13
 -1      3090 2.00311E+01-5.39777E-02 2.47140E-04 1.67477E-01-5.53027E-14-1.85554E-13
 -1      3091 2.00960E+01-4.33233E-02-7.03212E-04 1.65533E-01-8.74453E-14-2.62803E-13
 -1      3092 2.00212E+01-5.81252E-02 1.65230E-04 1.61150E-01-8.27532E-14-1.59623E-13
 -1      3093 2.00203E+01-5.97959E-02 3.42679E-04 1.53407E-01-9.74040E-14-1.98765E-13
 -1      3094 2.00735E+01-6.18583E-02-5.68139E-04 1.58969E-01-7.99777E-14-1.98831E-13
 -1      3095 2.00123E+01-5.94757E-02-3.35679E-05 1.45314E-01-7.72534E-14-1.47374E-13
 -1      3096 2.00134E+01-5.72442E-02 3.98142E-04 1.36759E-01-4.83270E-14-1.26754E-13
 -1      3097 2.00560E+01-6.70114E-02-4.51430E-04 1.45945E-01-6.80205E-14-1.24930E-13
 -1      3098 2.00072E+01-5.38252E-02-1.66637E-04 1.28636E-01-4.96210E-14-1.11404E-13
 -1      3099 2.00096E+01-4.88512E-02 4.33744E-04 1.20766E-01-4.67224E-14-1.34932E-13
 -1      3100 2.00427E+01-6.29124E-02-3.54269E-04 1.30758E-01-2.69824E-14-3.05571E-14
 -1      3101 2.00048E+01-4.31969E-02-2.58025E-04 1.13865E-01-8.05221E-14-1.23406E-13
 -1      3102 2.00082E+01-3.61747E-02 4.63928E-04 1.07777E-01-8.88580E-14-1.16931E-13
 -1      3103 2.00329E+01-5.22800E-02-2.75252E-04 1.16502E-01-5.07145E-14-1.52346E-13
 -1      3104 2.00045E+01-2.87651E-02-3.26871E-04 1.03038E-01-5.78608E-14-1.21644E-13
 -1      3105 2.00087E+01-2.00305E-02 4.99328E-04 9.95841E-02-5.89609E-14-1.44035E-13
 -1      3106 2.00258E+01-3.67602E-02-2.10687E-04 1.05457E-01-1.09181E-13-1.01602E-13
 -1      3107 2.00058E+01-1.10455E-02-3.88853E-04 9.77707E-02-8.71894E-14-1.29169E-13
 -1      3108 2.00107E+01-6.51391E-04 5.48060E-04 9.76844E-02-1.27578E-13-1.63850E-13
 -1      3109 2.00207E+01-1.71742E-02-1.55698E-04 9.93888E-02-1.04761E-13-1.66712E-13
 -1      3110 2.00082E+01 9.96674E-03-4.56867E-04 9.94878E-02-1.43230E-13-1.78511E-13
 -1      3111 2.00139E+01 2.21914E-02 6.16030E-04 1.03481E-01-1.36136E-13-1.64653E-13
 -1      3112 2.00169E+01 6.30489E-03-1.05052E-04 9.97951E-02-1.26199E-13-1.33750E-13
 -1      3113 2.00113E+01 3.46878E-02-5.41953E-04 1.09602E-01-1.03220E-13-1.20208E-13
 -1      3114 2.00179E+01 4.90899E-02 7.07080E-04 1.18436E-01-5.84551E-14-1.18151E-13
 -1      3115 2.00137E+01 3.40149E-02-5.24722E-05 1.08096E-01-1.31034E-13-1.00523E-13
 -1      3116 2.00147E+01 6.38559E-02-6.54153E-04 1.29642E-01-3.28563E-14-9.05190E-14
 -1      3117 2.00224E+01 8.09178E-02 8.23229E-04 1.44179E-01-6.70385E-14-6.83386E-14
 -1      3118 2.00102E+01 6.66911E-02 9.80295E-06 1.25766E-01-3.92661E-14-6.11977E-14
 -1      3119 2.00180E+01 9.84530E-02-8.03014E-04 1.61339E-01-1.19597E-13 2.12802E-15
 -1      3120 2.00268E+01 1.18749E-01 9.64383E-04 1.82572E-01-5.89869E-14 3.32927E-14
 -1      3121 2.00054E+01 1.05367E-01 9.14442E-05 1.54427E-01-3.06822E-14 1.83276E-14
 -1      3122 2.00203E+01 1.39616E-01-9.97872E-04 2.06674E-01-9.55288E-14-6.10998E-14
 -1      3123 2.00302E+01 1.63759E-01 1.12795E-03 2.35731E-01-2.87629E-14-1.79590E-13
 -1      3124 1.99980E+01 1.51273E-01 2.04635E-04 1.95894E-01-1.30493E-13 1.86630E-14
 -1      3125 2.00206E+01 1.88516E-01-1.24779E-03 2.67878E-01 7.00384E-14-2.06877E-13
 -1      3126 2.00315E+01 2.17071E-01 1.30859E-03 3.06006E-01 2.98010E-14-2.35009E-13
 -1      3127 1.99861E+01 2.05701E-01 3.64510E-04 2.52175E-01-3.70855E-14-1.06229E-13
 -1      3128 2.00173E+01 2.46169E-01-1.56092E-03 3.47380E-01-5.29496E-14-1.44389E-13
 -1      3129 2.00288E+01 2.79510E-01 1.49876E-03 3.95885E-01-8.59569E-14-1.25916E-13
 -1      3130 1.99673E+01 2.69812E-01 5.89030E-04 3.25426E-01 3.70546E-14-1.79631E-13
 -1      3131 2.00082E+01 3.13105E-01-1.94285E-03 4.47702E-01-3.75138E-14-7.82003E-14
 -1      3132 2.00196E+01 3.51171E-01 1.69094E-03 5.07848E-01 4.11485E-14-5.48438E-14
 -1      3133 1.99386E+01 3.44310E-01 8.97515E-04 4.17857E-01-2.07016E-15-1.04706E-14
 -1      3134 1.99902E+01 3.88807E-01-2.39349E-03 5.71287E-01 2.26970E-15-7.91690E-14
 -1      3135 2.00008E+01 4.30685E-01 1.88381E-03 6.44139E-01 2.15488E-15-4.31002E-14
 -1      3136 1.98958E+01 4.28905E-01 1.30637E-03 5.31603E-01 4.51787E-14 4.23646E-14
 -1      3137 1.99599E+01 4.70749E-01-2.90125E-03 7.20285E-01 5.82574E-15-9.13963E-14
 -1      3138 1.99686E+01 5.13965E-01 2.09563E-03 8.06493E-01 3.08944E-14-1.14796E-13
 -1      3139 1.98340E+01 5.21415E-01 1.81948E-03 6.68603E-01-3.70638E-15-1.26136E-15
 -1      3140 1.99135E+01 5.52773E-01-3.43291E-03 8.96332E-01 3.63798E-14-1.46485E-13
 -1      3141 1.99198E+01 5.92146E-01 2.38968E-03 9.95863E-01-3.90079E-14-1.31480E-13
 -1      3142 1.97475E+01 6.16290E-01 2.40896E-03 8.30582E-01 1.13558E-14-7.62596E-14
 -1      3143 1.98484E+01 6.22493E-01-3.91460E-03 1.10043E+00-1.37581E-13-1.61431E-13
 -1      3144 1.98540E+01 6.48352E-01 2.91700E-03 1.21228E+00-1.71801E-13-1.99379E-13
 -1      3145 1.96310E+01 7.02259E-01 2.97999E-03 1.01931E+00-9.76880E-14-2.07681E-13
 -1      3146 1.97666E+01 6.57312E-01-4.19186E-03 1.33309E+00-1.26998E-13-1.65689E-13
 -1      3147 1.97778E+01 6.52878E-01 3.97659E-03 1.45497E+00-6.58599E-15-1.07773E-13
 -1      3148 1.94817E+01 7.58711E-01 3.31027E-03 1.23744E+00-1.39373E-13-5.99659E-14
 -1      3149 1.96804E+01 6.18773E-01-3.93196E-03 1.59478E+00-2.91623E-16-1.02492E-13
 -1      3150 1.97131E+01 5.56662E-01 6.05317E-03 1.72267E+00-2.52764E-14-6.52020E-14
 -1      3151 1.93036E+01 7.50415E-01 2.95051E-03 1.49031E+00-4.74714E-14 2.92784E-14
 -1      3152 1.96238E+01 4.45534E-01-2.39351E-03 1.88617E+00-3.62158E-14-1.59877E-13
 -1      3153 1.97116E+01 2.84068E-01 9.81746E-03 2.01286E+00 4.39495E-14-1.02792E-13
 -1      3154 1.91166E+01 6.20158E-01 1.05431E-03 1.78860E+00-6.93966E-14-3.83873E-14
 -1      3155 1.96717E+01 4.72454E-02 2.12781E-03 2.20626E+00 1.56556E-14-2.89658E-13
 -1      3156 1.98753E+01-2.72919E-01 1.50894E-02 2.31675E+00-7.00635E-14-3.34890E-13
 -1      3157 1.89702E+01 2.80458E-01-3.89540E-03 2.15037E+00-9.27039E-14-3.20634E-13
 -1      3158 1.99752E+01-6.92784E-01 1.49323E-02 2.53519E+00 6.44085E-14-2.90221E-13
 -1      3159 2.03859E+01-1.23683E+00 2.21356E-02 2.59409E+00 1.09643E-13-1.59313E-13
 -1      3160 1.89733E+01-4.02025E-01-1.57893E-02 2.59761E+00 7.40306E-14-4.49671E-13
 -1      3161 2.07906E+01-1.88639E+00 4.27010E-02 2.78240E+00 3.98430E-14-8.57621E-14
 -1      3162 2.14922E+01-2.67493E+00 1.98889E-02 2.69932E+00 3.29198E-14-9.40489E-14
 -1      3163 1.93538E+01-1.59071E+00-3.82224E-02 3.11423E+00 1.74078E-13-3.04628E-13
 -1      3164 1.28153E+01-1.84660E+00 2.05582E-02 4.41404E+00 3.21868E-13 2.94764E-14
 -1      3165 1.07853E+01-7.48942E-01 1.11346E-01 2.99277E+00 3.22083E-13-1.79107E-13
 -1      3166 2.72312E+01-2.36106E+00 4.44832E-02 1.12210E+00 1.00687E-13-1.45516E-13
 -1      3167 2.71731E+01-7.05962E-01-1.60209E-01 2.15044E+00 2.42219E-13-2.88339E-13
 -1      3168 1.99920E+01-3.00150E-02 1.19518E-04-1.80856E-01 7.12298E-14-1.38126E-13
 -1      3169 1.99959E+01-1.55996E-02 9.10228E-04-1.79877E-01 6.75404E-14-1.08063E-13
 -1      3170 1.99793E+01-5.11250E-02 3.74695E-04-1.41141E-01 6.97593E-14-8.07317E-14
 -1      3171 1.99745E+01-5.27797E-02-8.76485E-05-1.50241E-01 9.35206E-14-1.13775E-13
 -1      3172 1.99818E+01-4.44078E-02 4.04906E-04-1.23859E-01 5.37981E-14-6.65616E-15
 -1      3173 1.99760E+01-4.84689E-02-2.17551E-04-1.32362E-01 7.70027E-14-1.24458E-14
 -1      3174 2.00135E+01-5.76781E-02-3.19503E-04-1.37618E-01 4.14047E-14-1.06552E-13
 -1      3175 1.99861E+01-3.40173E-02 4.34098E-04-1.09369E-01 2.69717E-14 2.69031E-14
 -1      3176 1.99797E+01-3.98230E-02-2.97675E-04-1.16200E-01 5.41212E-14 4.64840E-14
 -1      3177 2.00092E+01-4.89611E-02-2.40898E-04-1.21760E-01 3.28608E-14-4.61102E-14
 -1      3178 1.99918E+01-2.07809E-02 4.71395E-04-9.94363E-02 2.48191E-14 3.01387E-14
 -1      3179 1.99850E+01-2.79743E-02-3.49010E-04-1.03782E-01 3.93438E-14 1.91851E-14
 -1      3180 2.00073E+01-3.59918E-02-1.85610E-04-1.08943E-01 3.09399E-14-1.12818E-14
 -1      3181 1.99988E+01-5.06008E-03 5.23780E-04-9.54765E-02-9.20098E-15 5.17222E-14
 -1      3182 1.99914E+01-1.35072E-02-3.86903E-04-9.66693E-02 7.12658E-15 3.29302E-14
 -1      3183 2.00072E+01-1.96516E-02-1.48301E-04-1.00951E-01 3.69774E-14-4.84379E-14
 -1      3184 2.00071E+01 1.31171E-02 5.96387E-04-9.87478E-02 5.20680E-14-4.65980E-15
 -1      3185 1.99989E+01 3.39334E-03-4.22959E-04-9.61777E-02 3.91968E-14 2.34988E-14
 -1      3186 2.00084E+01-2.99290E-04-1.23645E-04-9.92426E-02 3.75450E-14-2.56088E-14
 -1      3187 2.00169E+01 3.39289E-02 6.92311E-04-1.10484E-01 1.26597E-14-7.66367E-14
 -1      3188 2.00076E+01 2.28146E-02-4.65440E-04-1.03542E-01 5.25646E-14-1.97067E-14
 -1      3189 2.00107E+01 2.20704E-02-1.08081E-04-1.05135E-01 4.19159E-14-6.81303E-14
 -1      3190 2.00286E+01 5.76236E-02 8.12730E-04-1.31967E-01 4.16700E-16-7.01680E-14
 -1      3191 2.00176E+01 4.49856E-02-5.19291E-04-1.20018E-01 1.69270E-14-2.41195E-14
 -1      3192 2.00138E+01 4.76744E-02-9.84220E-05-1.19936E-01 1.94267E-15-7.18142E-14
 -1      3193 2.00425E+01 8.43596E-02 9.56328E-04-1.64539E-01 3.75796E-14-1.42157E-13
 -1      3194 2.00294E+01 7.01320E-02-5.86114E-04-1.46930E-01-4.20865E-15-1.11070E-13
 -1      3195 2.00177E+01 7.67713E-02-9.26061E-05-1.45006E-01 1.53931E-14-1.49829E-13
 -1      3196 2.00594E+01 1.13999E-01 1.11865E-03-2.09546E-01 5.34611E-14-9.33121E-14
 -1      3197 2.00435E+01 9.82961E-02-6.63340E-04-1.85646E-01 6.68673E-14-5.49523E-14
 -1      3198 2.00221E+01 1.09460E-01-9.04202E-05-1.81764E-01 1.70028E-14-1.52721E-13
 -1      3199 2.00800E+01 1.45828E-01 1.29126E-03-2.68187E-01 3.62574E-14-5.75449E-14
 -1      3200 2.00606E+01 1.29098E-01-7.42615E-04-2.37487E-01 3.42837E-14-7.84761E-14
 -1      3201 2.00272E+01 1.45420E-01-9.47308E-05-2.31630E-01 3.72053E-14-1.67850E-13
 -1      3202 2.01054E+01 1.78174E-01 1.46078E-03-3.41265E-01-7.39079E-14 2.10500E-14
 -1      3203 2.00817E+01 1.61411E-01-8.07275E-04-3.03530E-01-2.37678E-14 2.16642E-15
 -1      3204 2.00333E+01 1.83556E-01-1.13724E-04-2.95877E-01-1.89793E-14-4.12332E-14
 -1      3205 2.01375E+01 2.07893E-01 1.60808E-03-4.28791E-01 6.24533E-14-1.90830E-14
 -1      3206 2.01083E+01 1.92915E-01-8.28607E-04-3.84298E-01 3.90000E-14 1.79227E-14
 -1      3207 2.00413E+01 2.21525E-01-1.64552E-04-3.75394E-01-2.13384E-14 3.15751E-14
 -1      3208 2.01789E+01 2.29707E-01 1.70735E-03-5.29417E-01-3.48704E-14 3.77791E-14
 -1      3209 2.01428E+01 2.19516E-01-7.60665E-04-4.79293E-01 2.99936E-14 7.55547E-15
 -1      3210 2.00526E+01 2.55102E-01-2.78898E-04-4.70315E-01 1.91490E-14 1.46832E-13
 -1      3211 2.02337E+01 2.35405E-01 1.72448E-03-6.39664E-01-4.93963E-14 1.79239E-14
 -1      3212 2.01889E+01 2.34609E-01-5.33568E-04-5.86330E-01-2.96819E-14-3.03496E-14
 -1      3213 2.00705E+01 2.77386E-01-5.10818E-04-5.79512E-01 2.22292E-14 1.30808E-13
 -1      3214 2.03089E+01 2.13026E-01 1.61259E-03-7.52884E-01-4.90033E-14-4.17569E-14
 -1      3215 2.02525E+01 2.28250E-01-4.57957E-05-7.00647E-01-5.60552E-14-5.60286E-14
 -1      3216 2.01002E+01 2.77870E-01-9.46590E-04-6.99885E-01-4.73017E-14 3.12477E-14
 -1      3217 2.04148E+01 1.46314E-01 1.29930E-03-8.57918E-01-2.03558E-13 1.25645E-14
 -1      3218 2.03428E+01 1.86427E-01 8.42287E-04-8.13686E-01-9.15700E-14 6.52242E-15
 -1      3219 2.01510E+01 2.41529E-01-1.71431E-03-8.25396E-01-6.51769E-14 2.55169E-15
 -1      3220 2.05673E+01 1.51531E-02 6.61581E-04-9.37381E-01-1.11216E-14-7.85765E-14
 -1      3221 2.04740E+01 9.08837E-02 2.30671E-03-9.11488E-01-1.21174E-13-9.19304E-14
 -1      3222 2.02376E+01 1.48329E-01-2.98553E-03-9.45696E-01-7.77776E-14-1.78295E-14
 -1      3223 2.07878E+01-2.01611E-01-5.13580E-04-9.65535E-01-4.84535E-15-7.77988E-14
 -1      3224 2.06664E+01-7.94925E-02 4.53838E-03-9.72557E-01 1.84526E-15-2.93164E-14
 -1      3225 2.03824E+01-2.59458E-02-4.94423E-03-1.04407E+00-5.48581E-14-8.44503E-14
 -1      3226 2.11023E+01-5.18496E-01-2.58142E-03-9.06055E-01-1.79714E-14 7.08534E-15
 -1      3227 2.09463E+01-3.43838E-01 7.64953E-03-9.65208E-01 1.37607E-14 2.72371E-14
 -1      3228 2.06171E+01-3.05710E-01-7.68294E-03-1.09428E+00-4.78577E-14-3.92980E-15
 -1      3229 2.15343E+01-9.27143E-01-5.95085E-03-7.10943E-01-6.89858E-14-1.24266E-13
 -1      3230 2.13422E+01-7.08036E-01 1.14123E-02-8.45004E-01-1.77506E-15 3.10725E-14
 -1      3231 2.09816E+01-7.05241E-01-1.10005E-02-1.05618E+00-1.31519E-14 9.39374E-14
 -1      3232 2.20883E+01-1.36835E+00-1.06997E-02-3.25267E-01-1.74399E-13-2.20056E-13
 -1      3233 2.18716E+01-1.14294E+00 1.48380E-02-5.55143E-01-1.51600E-13-2.20258E-13
 -1      3234 2.15153E+01-1.20696E+00-1.39383E-02-8.71142E-01-6.92713E-15 1.18826E-13
 -1      3235 2.27237E+01-1.69240E+00-1.35839E-02 2.93960E-01-5.02272E-14-2.13242E-13
 -1      3236 2.25132E+01-1.55184E+00 1.50147E-02-3.82107E-02-1.50986E-13-1.83587E-13
 -1      3237 2.22344E+01-1.72343E+00-1.43748E-02-4.63642E-01-1.97599E-13-1.39536E-13
 -1      3238 2.33310E+01-1.65380E+00-1.03575E-02 1.12267E+00-1.60132E-14-4.09698E-15
 -1      3239 2.31733E+01-1.74559E+00 6.62223E-03 7.18696E-01 3.01842E-16-7.32045E-14
 -1      3240 2.30834E+01-2.04930E+00-8.61544E-03 2.23992E-01-1.35337E-13-6.63924E-14
 -1      3241 2.36851E+01-9.34863E-01 5.46562E-04 1.95106E+00-7.29967E-14 2.19320E-13
 -1      3242 2.36393E+01-1.39154E+00-1.36492E-02 1.62516E+00 2.92552E-14 1.75334E-13
 -1      3243 2.39039E+01-1.86549E+00 4.95141E-03 1.19340E+00-1.02653E-13 1.01872E-13
 -1      3244 2.36207E+01 4.89663E-01 6.91702E-03 2.37682E+00-8.22415E-14 2.54989E-13
 -1      3245 2.37193E+01-3.10002E-01-4.04001E-02 2.31888E+00-4.11737E-14 2.92004E-13
 -1      3246 2.43743E+01-8.14375E-01 7.54323E-03 2.15722E+00-9.21034E-14 3.22322E-13
 -1      3247 2.32409E+01 2.14253E+00 8.87336E-03 1.95969E+00 1.29455E-13-8.04044E-14
 -1      3248 2.34022E+01 1.33566E+00-5.30352E-02 2.31183E+00-1.76560E-14 5.68252E-14
 -1      3249 2.43198E+01 9.67557E-01-2.22881E-02 2.49426E+00 5.63768E-14 6.15549E-14
 -1      3250 2.29333E+01 2.95582E+00-1.92501E-02 6.61990E-01 1.05936E-13-2.69144E-13
 -1      3251 2.29940E+01 2.68966E+00-4.80034E-02 1.29364E+00 1.13734E-13-2.21075E-13
 -1      3252 2.39271E+01 2.93167E+00-4.15844E-02 1.81151E+00 1.84200E-13-2.89820E-13
 -1      3253 2.34395E+01 7.28215E-01-5.34705E-02-1.42425E+00 1.41903E-13-2.27709E-13
 -1      3254 2.33391E+01 1.59045E+00 1.58114E-02-1.24731E+00 9.92817E-14-2.64102E-13
 -1      3255 2.36022E+01-6.97761E-01-2.42263E-02-1.16989E+00 2.75059E-13-9.11120E-14
 -1      3256 2.35754E+01-2.87157E-02 6.08926E-03-1.33196E+00 3.16174E-13-1.80626E-13
 -1      3257 2.44046E+01 4.32019E-01-4.74338E-03-1.52032E+00 1.77060E-13-3.75779E-13
 -1      3258 2.32948E+01-1.42963E+00 1.28550E-03-3.64982E-01 3.86965E-14-1.56277E-13
 -1      3259 2.34138E+01-1.18184E+00-1.12407E-02-7.14312E-01 1.97377E-13-7.82863E-14
 -1      3260 2.42781E+01-1.20127E+00 3.31608E-03-8.52206E-01 2.07636E-13-3.04427E-14
 -1      3261 2.25980E+01-1.36756E+00 6.39252E-03 4.26842E-01-5.76210E-14-3.59314E-13
 -1      3262 2.28512E+01-1.47392E+00-1.58397E-02 1.11628E-01-1.81153E-14-2.07363E-13
 -1      3263 2.35890E+01-1.79453E+00-6.83893E-03 1.53161E-01 6.74595E-14-5.65869E-14
 -1      3264 2.20922E+01-1.08650E+00-4.57415E-04 9.24541E-01-2.22685E-13-2.86839E-13
 -1      3265 2.22873E+01-1.25514E+00-1.37241E-02 6.83656E-01-2.07819E-13-3.38412E-13
 -1      3266 2.28642E+01-1.62873E+00-4.59972E-03 8.66520E-01-1.94428E-14-2.64625E-13
 -1      3267 2.23009E+01-1.21758E+00 1.01696E-02 1.26982E+00-2.54668E-13-2.37302E-13
 -1      3268 2.02896E+01 9.89591E-01-7.75171E-04 6.90158E-01 3.42978E-13-2.30562E-13
 -1      3269 2.02686E+01 1.31120E+00 4.57544E-03 7.73446E-01 3.45436E-13-2.66917E-13
 -1      3270 2.02831E+01 1.13065E+00 5.34682E-03 5.97460E-01 3.02674E-13-2.76308E-13
 -1      3271 2.02320E+01 7.75568E-01-3.85989E-03 4.83054E-01 3.08699E-13-2.22918E-13
 -1      3272 1.47018E+01 8.12819E-02 5.98846E-02 3.64836E+00-1.10067E-13-6.64677E-14
 -1      3273 1.62927E+01-4.36427E-01 1.61259E-01 4.58594E+00-9.26993E-15-4.13940E-14
 -1      3274 1.82491E+01-3.84378E-01 8.99306E-02-4.42795E+00 7.65490E-14 3.52535E-13
 -1      3275 1.66618E+01 6.50767E-02-2.96497E-02-4.01895E+00 4.62096E-14 5.50244E-13
 -1      3276 2.00083E+01 2.81300E-03-1.12895E-04-1.73773E-01 4.68465E-14-1.21093E-13
 -1      3277 2.00187E+01 2.82008E-02 1.58505E-03-1.62312E-01 5.67912E-14-1.09630E-13
 -1      3278 2.00722E+01-1.47790E-03-9.63726E-04-1.68344E-01 4.15814E-14-1.13690E-13
 -1      3279 2.01240E+01 2.93286E-01-1.99640E-03 4.45433E-02 1.60953E-13-1.39459E-13
 -1      3280 2.01693E+01 3.94394E-01 4.36407E-03 1.34935E-01 1.71581E-13-1.61822E-13
 -1      3281 1.52253E+01 8.62891E-01 7.88062E-02-3.04094E+00 1.15675E-13 4.88370E-13
 -1      3282 1.41708E+01 1.21195E+00 1.71930E-02-1.89577E+00 1.10764E-13 5.04791E-13
 -1      3283 1.52418E+01-2.17877E-01 4.67921E-02-4.02464E+00 1.06127E-13 3.87211E-13
 -1      3284 1.99794E+01-5.27040E-02 3.30321E-04-1.58849E-01 1.18213E-13-1.30464E-13
 -1      3285 1.99762E+01-5.08784E-02 1.19476E-04-1.67041E-01 1.09600E-13-1.41003E-13
 -1      3286 2.00209E+01-6.05424E-02-4.26107E-04-1.54168E-01 7.78398E-14-1.02136E-13
 -1      3287 1.99831E+01-4.68241E-02 2.53881E-04-1.73659E-01 8.45647E-14-1.64349E-13
 -1      3288 1.99826E+01-3.98954E-02 4.37928E-04-1.78799E-01 8.73922E-14-1.67181E-13
 -1      3289 2.00490E+01-3.71820E-02-7.48456E-04-1.75018E-01 9.38410E-14-1.47164E-13
 -1      3290 2.00324E+01-5.49941E-02-5.68026E-04-1.68160E-01 9.15787E-14-1.21239E-13
 -1      3291 2.00993E+01 2.20119E+00-4.81341E-03-1.10314E+00-3.71247E-13-4.40682E-13
 -1      3292 2.01720E+01 2.01051E+00-1.03193E-02-1.18497E+00-4.15191E-13-3.83303E-13
 -1      3293 2.02481E+01 1.61683E+00 3.02005E-03-9.74279E-01-3.93020E-13-3.34032E-13
 -1      3294 2.01719E+01 1.93701E+00 6.85259E-03-9.02176E-01-3.31268E-13-4.43813E-13
 -1      3295 2.80246E+01 1.89933E+00-8.65303E-02-1.79601E+00 2.90323E-14-3.66429E-13
 -1      3296 2.89833E+01 9.50105E-02-8.61579E-02-1.29401E+00-3.21826E-14-2.89380E-13
 -1      3297 2.02744E+01 7.13091E-01 6.34522E-03-3.44779E-01-2.68730E-13-2.65444E-13
 -1      3298 2.02264E+01 5.48630E-01-4.22697E-03-2.16367E-01-2.49445E-13-2.75137E-13
 -1      3299 2.02715E+01 5.79756E-01-3.62252E-04-1.89613E-01-2.23389E-13-2.70078E-13
 -1      3300 2.78044E+01-3.35284E+00-6.01938E-02-1.76908E-01 4.07001E-13 1.26052E-13
 -1      3301 2.00343E+01 5.91323E-02-5.04257E-04-1.43086E-01 5.59916E-14-1.23372E-13
 -1      3302 2.00543E+01 1.00639E-01 2.50891E-03-1.14984E-01 9.69276E-14-1.39718E-13
 -1      3303 2.01032E+01 6.02943E-02-1.19488E-03-1.39309E-01 5.66312E-14-1.47133E-13
 -1      3304 2.50932E+01-4.56974E+00 1.07238E-01-2.02577E+00-5.28210E-14 1.81175E-14
 -1      3305 2.62014E+01-4.06192E+00-1.46619E-01-5.07821E-01-1.50054E-14-5.29750E-14
 -1      3306 1.97211E+01-4.26940E+00 1.01754E-01-4.97686E+00-1.49655E-13-1.02841E-13
 -1      3307 2.25604E+01-5.02418E+00-8.91063E-02-3.83597E+00-1.43607E-13 5.87724E-15
 -1      3308 8.78061E+00-3.14088E-01 9.81042E-02 8.47678E-01 1.37409E-13-6.19921E-13
 -1      3309 7.79845E+00-4.22275E-01 2.20523E-01-1.11458E+00 3.00853E-14-7.20812E-13
 -1      3310 1.30648E+01-1.36365E+00 9.31576E-02-4.93200E+00 2.82538E-13 3.10613E-13
 -1      3311 1.55618E+01-2.80077E+00 1.16127E-01-6.26552E+00 2.74628E-13-1.25372E-13
 -1      3312 2.70168E+01 1.42178E+00-8.58511E-03 2.76125E+00 3.55729E-13-2.70312E-13
 -1      3313 2.62358E+01 3.08749E+00-1.31675E-01 2.55572E+00 3.34135E-13-3.48090E-13
 -1      3314 1.10347E+01 2.40648E-01 8.09112E-02-1.83194E+00 3.32031E-13 8.03274E-13
 -1      3315 1.22081E+01-2.50140E-01 1.35742E-01-3.68114E+00 2.27075E-13 4.79422E-13
 -1      3316 2.00726E+01 1.50105E-01-1.13661E-03-7.59867E-02 1.39558E-13-1.66516E-13
 -1      3317 2.01051E+01 2.15445E-01 3.68439E-03-2.26398E-02 1.59871E-13-1.39845E-13
 -1      3318 2.01428E+01 1.60095E-01-1.38692E-03-7.60270E-02 1.13933E-13-1.82173E-13
 -1      3319 2.52531E+01 4.22330E+00-7.05233E-02 1.75603E+00 2.79804E-13-2.63282E-13
 -1      3320 2.49730E+01 4.64971E+00-1.09851E-01 6.39548E-01 3.39340E-13-3.12443E-13
 -1      3321 1.87733E+01-3.95559E+00-3.02858E-02 4.66684E+00 2.04357E-13-6.38239E-14
 -1      3322 1.57872E+01-2.71590E+00 1.46988E-01 4.83187E+00 2.16223E-13 2.84217E-14
 -1      3323 2.09235E+01-4.80954E+00 2.11700E-02 6.04228E+00 1.08684E-13-7.07923E-13
 -1      3324 1.81293E+01-3.98828E+00 2.03386E-01 6.65458E+00 1.57194E-13-4.75821E-13
 -1      3325 1.69909E+01-2.99154E+00 1.38709E-02 6.21229E+00 5.42205E-14-2.82503E-13
 -1      3326 2.00449E+01 2.16028E+00-4.29473E-03 2.92767E-01 1.06915E-13-4.95392E-13
 -1      3327 2.00317E+01 2.19902E+00-3.34376E-03 1.70978E-01 4.46108E-14-5.10239E-13
 -1      3328 2.00247E+01 2.21782E+00-3.67595E-03 6.61309E-02 7.52146E-15-5.08377E-13
 -1      3329 2.00244E+01 2.21882E+00-3.58350E-03-5.80253E-02-4.12567E-14-5.01876E-13
 -1      3330 2.01386E+01 1.92205E+00 4.93086E-03 1.01670E-01 2.78857E-14-4.70219E-13
 -1      3331 2.37839E+01-4.98664E+00 2.56281E-02 4.67258E+00 9.59927E-14-4.84036E-13
 -1      3332 2.25195E+01-5.00145E+00 9.05927E-02 5.57155E+00 2.04670E-13-5.70261E-13
 -1      3333 2.09814E+01-4.26667E+00 2.11505E-02 5.70423E+00 1.07622E-13-5.52641E-13
 -1      3334 1.27088E+01 8.83838E-01 1.34696E-01-7.23016E-01 1.25802E-13 6.62560E-13
 -1      3335 2.01587E+01 1.80092E+00-6.97396E-03 6.85762E-01 2.53694E-13-3.92567E-13
 -1      3336 2.01235E+01 1.93051E+00-2.50676E-03 5.90205E-01 2.05750E-13-4.32103E-13
 -1      3337 2.02508E+01 1.46198E+00 6.23307E-03 5.86550E-01 2.48617E-13-3.33629E-13
 -1      3338 2.01190E+01 1.94001E+00-2.85276E-03-5.82786E-01-2.19041E-13-4.53850E-13
 -1      3339 2.01575E+01 1.81769E+00-5.17340E-03-6.81841E-01-2.67652E-13-4.45512E-13
 -1      3340 2.82892E+01-1.22036E+00-8.74579E-02-7.97183E-01-2.03657E-14-2.63116E-13
 -1      3341 2.58761E+01-4.62503E+00 7.89386E-02 1.09026E+00 9.90250E-14 4.06127E-13
 -1      3342 2.01762E+01 4.88539E-01-2.07575E-03 2.21472E-01 1.99492E-13-1.82966E-13
 -1      3343 2.02325E+01 6.34626E-01 4.13957E-03 3.62723E-01 2.59115E-13-2.14245E-13
 -1      3344 2.02562E+01 7.76511E-01-4.82327E-03 4.19921E-01 2.64041E-13-2.36377E-13
 -1      3345 2.02289E+01 5.24182E-01-1.21721E-03 2.00265E-01 1.79500E-13-2.09403E-13
 -1      3346 1.78791E+01-3.03249E+00 7.13272E-02-5.83282E+00 1.20161E-13-2.98400E-13
 -1      3347 2.69166E+01-4.66806E+00 5.08779E-02-1.80015E+00 4.90018E-13 1.84824E-13
 -1      3348 1.53361E+01-1.75024E+00 9.65636E-02 4.09279E+00 2.45248E-13-6.18464E-14
 -1      3349 2.24978E+01-3.48800E+00 8.13815E-02 2.67533E+00 1.14583E-13 3.22294E-14
 -1      3350 2.34993E+01-4.33202E+00-4.25988E-03 2.30010E+00 1.50019E-13 1.13543E-13
 -1      3351 2.61913E+01 3.97652E-02-3.80492E-02 2.43128E+00 1.64053E-13-1.82031E-13
 -1      3352 2.22488E+01-1.81933E+00 5.74135E-03 3.12205E+00 4.81290E-14-6.08786E-13
 -1      3353 2.25865E+01-1.85487E+00 4.53971E-03 2.56107E+00 5.93666E-14-3.12476E-13
 -1      3354 2.25137E+01-2.96430E+00 1.46042E-02-3.75126E+00-1.46792E-13 2.51744E-13
 -1      3355 2.16990E+01-1.98391E+00 5.09258E-02-3.87397E+00-1.82118E-13 1.19450E-13
 -1      3356 2.30655E+01 2.89466E+00-1.50891E-02-1.81575E-01 1.54547E-13-3.61301E-13
 -1      3357 2.38636E+01 3.52003E+00-3.90158E-02 2.45589E-01 1.74423E-13-5.66854E-13
 -1      3358 2.51536E+01 4.56010E+00-9.62565E-02-1.91227E-01 2.52284E-13-3.76203E-13
 -1      3359 2.31430E+01 2.41527E+00-4.72777E-02-7.55729E-01 1.06037E-13-3.64764E-13
 -1      3360 2.07229E+01-1.50381E+00 1.73394E-02 4.16292E+00 1.00406E-14-2.73861E-13
 -1      3361 2.16114E+01-1.78353E+00 3.10489E-02 3.84229E+00 8.21699E-14-5.14120E-13
 -1      3362 2.23356E+01-2.54835E+00-1.61135E-02 3.58853E+00 6.58718E-14-5.10389E-13
 -1      3363 2.11763E+01-4.48169E+00 1.37842E-01 4.16039E+00 2.27443E-13-6.89379E-14
 -1      3364 1.97027E+01-3.55394E+00 3.98622E-02 4.06581E+00 1.82791E-13-2.08687E-14
 -1      3365 1.98170E+01-1.25712E+00-1.83101E-02-4.38211E+00-1.13238E-13-6.00214E-14
 -1      3366 1.91715E+01-1.79700E+00 1.59022E-02-4.85102E+00-1.94070E-13-9.39179E-15
 -1      3367 2.02328E+01 1.52499E+00-2.80621E-03-8.11706E-01-3.30629E-13-3.67506E-13
 -1      3368 2.02750E+01 1.35273E+00-1.65649E-03-8.26775E-01-3.45382E-13-3.20286E-13
 -1      3369 2.02798E+01 1.14841E+00 5.12788E-03-6.66922E-01-3.07184E-13-3.17218E-13
 -1      3370 1.80480E+01-1.42722E+00 2.83878E-02 4.88982E+00 1.60345E-14-2.71033E-13
 -1      3371 1.96649E+01-1.95755E+00 7.25532E-02 5.04111E+00 5.38588E-14-2.65989E-13
 -1      3372 2.61069E+01-2.95086E+00 1.07126E-02 5.77997E-01 1.43485E-14-1.69954E-13
 -1      3373 2.01895E+01 3.15473E-01-1.50450E-03 3.67045E-02 1.59130E-13-1.97683E-13
 -1      3374 1.35852E+01 1.40258E+00 4.42624E-02 3.03131E-01-5.24511E-14 6.46212E-13
 -1      3375 1.39228E+01 1.36712E+00 1.05871E-01 1.68342E+00-1.33688E-13 1.80300E-13
 -1      3376 2.00906E+01 2.02445E+00-5.40828E-03 5.04950E-01 1.79948E-13-4.64863E-13
 -1      3377 2.00653E+01 2.10471E+00-3.06709E-03 3.91586E-01 1.32821E-13-4.77218E-13
 -1      3378 2.01611E+01 1.84704E+00 5.22328E-03 2.91386E-01 1.03553E-13-4.58019E-13
 -1      3379 2.02019E+01 1.69541E+00 5.74550E-03 4.59889E-01 1.67692E-13-4.11781E-13
 -1      3380 1.20515E+01-1.97122E+00 1.51142E-01-5.01718E+00-7.49192E-14-1.49880E-14
 -1      3381 1.41933E+01-2.19126E+00 4.64571E-02-5.01783E+00-4.97449E-14-2.51132E-13
 -1      3382 1.14832E+01-1.23727E+00 7.63725E-02-4.19132E+00-5.69336E-14-3.24740E-14
 -1      3383 1.72560E+01-3.08257E+00 5.47706E-02-5.01680E+00-1.84346E-13-1.60899E-13
 -1      3384 1.85609E+01-3.83740E+00 5.99247E-02-5.19088E+00-1.32325E-13-1.77844E-14
 -1      3385 2.02947E+01-3.70679E+00 3.88421E-02-4.10863E+00-2.13207E-13-1.59039E-14
 -1      3386 1.03941E+01-1.17447E-01 1.34053E-01 1.91865E+00 2.78499E-13-3.07712E-13
 -1      3387 1.04464E+01 2.29673E-01 4.07236E-02 4.60564E-01 1.85130E-13-4.12226E-13
 -1      3388 1.22983E+01-1.27483E-01 8.62530E-02 2.35204E+00 3.46094E-13-6.41501E-14
 -1      3389 2.76588E+01-4.42118E+00-8.90285E-03 2.02545E+00-8.19171E-14-1.61135E-13
 -1      3390 2.61003E+01-4.86419E+00-1.71457E-02 2.98993E+00-7.64111E-14-1.51525E-13
 -1      3391 2.77332E+01-3.55036E+00-6.76840E-02 7.58246E-01-9.00642E-14-1.15213E-13
 -1      3392 2.48081E+01-4.60908E+00-6.59724E-03-3.10854E+00 2.64753E-13 1.87470E-13
 -1      3393 2.36665E+01-3.87605E+00 7.54322E-02-3.63198E+00 5.34865E-14 2.44466E-13
 -1      3394 9.30971E+00-4.47390E-01 1.23244E-01-2.07168E+00-5.26679E-14-3.81778E-13
 -1      3395 2.51821E+01-5.07692E+00-1.69703E-02-3.47399E+00 2.98553E-13 1.94067E-13
 -1      3396 2.37861E+01-4.90309E+00-2.35720E-02 2.59903E+00 1.82264E-13 1.02888E-13
 -1      3397 2.00870E+01 2.03407E+00-4.89273E-03-4.98482E-01-1.80925E-13-4.69678E-13
 -1      3398 2.01958E+01 1.70215E+00 3.91945E-03-4.54500E-01-1.79146E-13-4.20408E-13
 -1      3399 2.00624E+01 2.11048E+00-3.17288E-03-3.83470E-01-1.19840E-13-4.82050E-13
 -1      3400 2.41849E+01 2.40858E+00-1.97015E-02-1.19662E+00 9.40012E-14-7.46014E-13
 -1      3401 2.19201E+01-3.60758E+00-2.87193E-02-4.58641E+00-5.13131E-14 5.74263E-14
 -1      3402 2.05327E+01-3.27874E+00-3.42336E-02 3.51717E+00 1.50845E-13-9.45511E-14
 -1      3403 2.49765E+01 3.76078E+00-8.68464E-02-9.59344E-01 9.47784E-14-4.62470E-13
 -1      3404 2.16881E+01-4.51290E+00 3.64295E-02-5.39443E+00 1.79197E-13-1.47944E-13
 -1      3405 2.33851E+01-5.16268E+00 9.74856E-02-4.98409E+00 2.36103E-13 4.20909E-14
 -1      3406 2.02570E+01 9.60691E-01-3.52123E-03-5.31890E-01-2.85512E-13-2.95231E-13
 -1      3407 2.35064E+01-4.34069E+00 2.00327E-02-2.54697E+00-1.52080E-13 6.77097E-14
 -1      3408 2.58996E+01 3.39041E+00-1.02630E-01-1.41252E+00 8.64586E-15-3.83617E-13
 -1      3409 2.71294E+01 2.86249E+00-1.32803E-01-1.74596E+00 3.74561E-14-4.44131E-13
 -1      3410 2.69492E+01 1.65683E+00 1.31911E-02-1.77832E+00-5.02515E-14-4.85008E-13
 -1      3411 2.48921E+01 3.19090E+00-3.17192E-02-1.11654E+00-7.41074E-15-6.26401E-13
 -1      3412 2.02777E+01 9.91072E-01-1.27755E-03-4.70154E-01-2.75842E-13-3.13079E-13
 -1      3413 2.72723E+01-1.10960E+00-1.63809E-01-1.17523E+00 1.22333E-13-3.20521E-13
 -1      3414 2.80230E+01-2.27876E+00-1.50157E-02-4.24095E-01-3.42148E-14-1.47091E-13
 -1      3415 2.02721E+01 1.27835E+00 2.18844E-03-5.55916E-01-2.64526E-13-3.79441E-13
 -1      3416 2.02799E+01 9.71607E-01-5.47742E-03-3.66341E-01-2.46199E-13-3.50289E-13
 -1      3417 2.02671E+01 2.36385E-01 2.17615E-03 3.90197E-02-1.58506E-13-2.20469E-13
 -1      3418 2.02425E+01 1.60951E-01-1.28898E-03 7.96961E-02-1.77726E-13-2.31777E-13
 -1      3419 2.02278E+01 1.02119E-01 1.61564E-03 1.05679E-01-1.79042E-13-2.28498E-13
 -1      3420 2.02063E+01 5.34655E-02-6.51633E-04 1.27441E-01-1.46251E-13-2.54494E-13
 -1      3421 2.02842E+01 1.58361E-01-4.37315E-04 7.60370E-02-1.70552E-13-1.96583E-13
 -1      3422 2.01889E+01 1.64782E-02 1.12729E-03 1.39708E-01-1.20354E-13-2.73429E-13
 -1      3423 2.01712E+01-1.31781E-02-2.13794E-04 1.48520E-01-9.54762E-14-2.80554E-13
 -1      3424 2.02465E+01 4.78928E-02-5.92058E-04 1.17355E-01-1.58010E-13-1.77767E-13
 -1      3425 2.01535E+01-3.47687E-02 7.27657E-04 1.51569E-01-7.09146E-14-2.94111E-13
 -1      3426 2.01395E+01-5.10398E-02 7.32714E-05 1.52097E-01-7.45154E-14-2.49636E-13
 -1      3427 2.02082E+01-2.02942E-02-6.29610E-04 1.35393E-01-9.71256E-14-2.37855E-13
 -1      3428 2.01228E+01-6.18465E-02 4.19997E-04 1.49471E-01-6.40151E-14-2.22409E-13
 -1      3429 2.01121E+01-6.87638E-02 2.52001E-04 1.45210E-01-5.01790E-14-1.95367E-13
 -1      3430 2.01723E+01-5.84298E-02-6.01723E-04 1.38135E-01-4.41175E-14-2.42728E-13
 -1      3431 2.00971E+01-7.20686E-02 1.91304E-04 1.39582E-01-4.17687E-14-1.54550E-13
 -1      3432 2.00891E+01-7.24890E-02 3.56715E-04 1.33083E-01-4.53886E-14-1.05358E-13
 -1      3433 2.01402E+01-7.54267E-02-5.42425E-04 1.31812E-01-2.82012E-14-1.22633E-13
 -1      3434 2.00761E+01-7.05784E-02 2.27205E-05 1.26401E-01-8.68643E-14-1.18453E-13
 -1      3435 2.00703E+01-6.64515E-02 4.15277E-04 1.19503E-01-2.96742E-14-1.29065E-13
 -1      3436 2.01125E+01-7.76466E-02-4.66013E-04 1.21082E-01-5.33000E-14-1.25091E-13
 -1      3437 2.00590E+01-6.08379E-02-1.05090E-04 1.13184E-01-1.57730E-14-1.67344E-13
 -1      3438 2.00551E+01-5.34134E-02 4.47912E-04 1.07227E-01-6.19425E-14-1.49303E-13
 -1      3439 2.00889E+01-6.94707E-02-3.81783E-04 1.09346E-01-5.56028E-14-1.83024E-13
 -1      3440 2.00453E+01-4.50274E-02-2.08399E-04 1.02323E-01-1.09438E-13-1.26916E-13
 -1      3441 2.00427E+01-3.50252E-02 4.68052E-04 9.83189E-02-1.22231E-13-1.23081E-13
 -1      3442 2.00690E+01-5.37371E-02-2.96032E-04 9.91170E-02-3.88476E-14-2.03949E-13
 -1      3443 2.00339E+01-2.43462E-02-3.01912E-04 9.56388E-02-1.16746E-13-1.43353E-13
 -1      3444 2.00323E+01-1.20646E-02 4.86454E-04 9.43980E-02-1.00220E-13-1.43206E-13
 -1      3445 2.00518E+01-3.20950E-02-2.06473E-04 9.22892E-02-1.28276E-13-1.25165E-13
 -1      3446 2.00240E+01 7.90049E-04-3.98272E-04 9.46203E-02-1.03567E-13-1.16069E-13
 -1      3447 2.00231E+01 1.53843E-02 5.10294E-04 9.68647E-02-1.07526E-13-9.58472E-14
 -1      3448 2.00364E+01-5.26959E-03-1.11568E-04 9.03682E-02-7.38669E-14-1.09637E-13
 -1      3449 2.00144E+01 3.05753E-02-5.08268E-04 1.00623E-01-1.36209E-13-3.68192E-14
 -1      3450 2.00137E+01 4.77696E-02 5.42804E-04 1.07062E-01-1.20865E-13-1.87775E-14
 -1      3451 2.00215E+01 2.67522E-02-6.67536E-06 9.46725E-02-8.01617E-14-2.65319E-14
 -1      3452 2.00039E+01 6.56709E-02-6.41919E-04 1.15001E-01-6.03111E-14-7.17075E-15
 -1      3453 2.00030E+01 8.59445E-02 5.84747E-04 1.26383E-01 4.12131E-15-9.24159E-15
 -1      3454 2.00055E+01 6.45419E-02 1.15343E-04 1.06466E-01-6.40101E-14 1.06168E-13
 -1      3455 1.99910E+01 1.07088E-01-8.08576E-04 1.39191E-01 3.56213E-16 5.85711E-14
 -1      3456 1.99892E+01 1.31054E-01 6.34133E-04 1.56340E-01-5.12415E-14 5.80065E-14
 -1      3457 1.99865E+01 1.09085E-01 2.63855E-04 1.27043E-01 7.61131E-15 9.98334E-14
 -1      3458 1.99737E+01 1.56068E-01-1.01717E-03 1.74766E-01-1.04555E-13 4.73705E-14
 -1      3459 1.99703E+01 1.84406E-01 6.85954E-04 1.98580E-01-1.15426E-13 4.17639E-15
 -1      3460 1.99623E+01 1.61647E-01 4.51039E-04 1.57769E-01-4.73524E-14 3.64166E-14
 -1      3461 1.99496E+01 2.13947E-01-1.27649E-03 2.23427E-01-1.29076E-13 4.18094E-14
 -1      3462 1.99436E+01 2.47314E-01 7.32259E-04 2.54869E-01-3.34553E-14-3.57113E-14
 -1      3463 1.99301E+01 2.23620E-01 6.92233E-04 2.00083E-01-1.05750E-13 4.45042E-14
 -1      3464 1.99158E+01 2.81955E-01-1.59543E-03 2.86963E-01 8.49180E-14-6.88533E-15
 -1      3465 1.99057E+01 3.20858E-01 7.62970E-04 3.27017E-01 9.90676E-14 5.76604E-14
 -1      3466 1.98863E+01 2.96324E-01 1.00622E-03 2.55449E-01 9.66591E-15 1.38916E-13
 -1      3467 1.98681E+01 3.60932E-01-1.98337E-03 3.67167E-01 2.73259E-14 3.69239E-14
 -1      3468 1.98522E+01 4.05524E-01 7.68503E-04 4.16771E-01 7.96000E-15 1.00346E-13
 -1      3469 1.98265E+01 3.80722E-01 1.41512E-03 3.25269E-01 5.74808E-14 1.65607E-13
 -1      3470 1.98018E+01 4.50867E-01-2.45108E-03 4.65728E-01 2.28699E-14 2.89147E-14
 -1      3471 1.97776E+01 5.00623E-01 7.46028E-04 5.25706E-01 7.21950E-14 5.38080E-14
 -1      3472 1.97452E+01 4.77002E-01 1.94353E-03 4.10789E-01 2.61602E-14 1.23280E-13
 -1      3473 1.97104E+01 5.50157E-01-3.01290E-03 5.84165E-01-1.33555E-15-6.54644E-14
 -1      3474 1.96754E+01 6.03376E-01 7.12454E-04 6.55181E-01-7.90703E-14-6.80066E-14
 -1      3475 1.96353E+01 5.83932E-01 2.61596E-03 5.13047E-01-8.74702E-14-1.54338E-14
 -1      3476 1.95868E+01 6.54453E-01-3.69110E-03 7.23898E-01-6.08949E-14-4.74656E-14
 -1      3477 1.95381E+01 7.07463E-01 7.28756E-04 8.06516E-01-5.32124E-14-1.37346E-13
 -1      3478 1.94887E+01 6.97879E-01 3.45177E-03 6.32986E-01-5.03395E-14-2.00508E-13
 -1      3479 1.94229E+01 7.54837E-01-4.52307E-03 8.86686E-01-6.98435E-14-2.03004E-13
 -1      3480 1.93584E+01 8.00804E-01 9.42062E-04 9.81667E-01-1.34943E-13-1.94641E-13
 -1      3481 1.92955E+01 8.11340E-01 4.45575E-03 7.71970E-01-8.54199E-14-2.47799E-13
 -1      3482 1.92109E+01 8.35092E-01-5.56884E-03 1.07578E+00-8.26546E-14-5.41453E-14
 -1      3483 1.91314E+01 8.62266E-01 1.65652E-03 1.18483E+00 6.56712E-15 5.28031E-14
 -1      3484 1.90450E+01 9.10793E-01 5.60264E-03 9.33103E-01-2.93466E-15-4.36678E-14
 -1      3485 1.89463E+01 8.67723E-01-6.89982E-03 1.29838E+00-5.70907E-14 6.17116E-14
 -1      3486 1.88583E+01 8.56949E-01 3.46725E-03 1.42552E+00-2.84565E-14 3.64056E-14
 -1      3487 1.87267E+01 9.73608E-01 6.81745E-03 1.12396E+00 3.31810E-14 1.42688E-14
 -1      3488 1.86322E+01 8.08351E-01-8.47301E-03 1.57003E+00-9.43370E-14-4.55240E-14
 -1      3489 1.85546E+01 7.29329E-01 7.38238E-03 1.72362E+00-1.50050E-13-3.63277E-14
 -1      3490 1.83321E+01 9.63659E-01 7.95928E-03 1.36167E+00-1.28012E-13 5.96075E-14
 -1      3491 1.82912E+01 5.87554E-01-9.67098E-03 1.92050E+00-2.46160E-13-1.30274E-13
 -1      3492 1.82640E+01 3.92940E-01 1.43685E-02 2.11494E+00-1.51137E-13-3.23927E-13
 -1      3493 1.78601E+01 8.23573E-01 8.70402E-03 1.68141E+00-2.32037E-13-1.55679E-13
 -1      3494 1.79833E+01 1.10715E-01-5.56299E-03 2.39762E+00 9.01830E-14-3.17471E-13
 -1      3495 1.80993E+01-2.79112E-01 2.81911E-02 2.65185E+00 2.08834E-13-3.11964E-13
 -1      3496 1.73305E+01 4.62083E-01 8.87653E-03 2.14224E+00-6.81915E-14-2.45448E-13
 -1      3497 1.89184E+01-2.40279E+00 8.75902E-02 3.82647E+00 2.05183E-13-1.79698E-13
 -1      3498 2.08422E+01-1.70197E+00 2.97664E-02-4.28191E+00-3.41682E-13-5.99000E-15
 -1      3499 2.00463E+01-6.23705E-02 4.11990E-04-1.28123E-01 1.71880E-14-6.29273E-14
 -1      3500 2.00491E+01-6.56429E-02-1.28244E-06-1.35819E-01 5.04075E-14-8.42812E-14
 -1      3501 2.00224E+01-1.62436E-02 4.97080E-04-9.74952E-02 2.47619E-14-9.08515E-14
 -1      3502 2.00214E+01-2.67282E-02-3.10240E-04-9.97496E-02 6.06362E-14-9.10887E-14
 -1      3503 2.00180E+01 6.87138E-03 5.32067E-04-9.79959E-02 3.30349E-14-6.40399E-14
 -1      3504 2.00164E+01-5.42006E-03-3.86990E-04-9.68460E-02 4.15148E-14-8.37563E-14
 -1      3505 2.00298E+01-1.13936E-02-1.37220E-04-9.51423E-02 3.59950E-14-1.84856E-13
 -1      3506 2.00145E+01 3.36119E-02 5.81019E-04-1.06143E-01 5.27065E-15-6.03225E-14
 -1      3507 2.00122E+01 1.94385E-02-4.69580E-04-1.00930E-01 2.75649E-14-7.62261E-14
 -1      3508 2.00199E+01 1.58935E-02-6.61132E-05-9.77990E-02 2.89858E-14-2.07916E-13
 -1      3509 2.00111E+01 6.42535E-02 6.47340E-04-1.23251E-01 6.39522E-15-1.59951E-13
 -1      3510 2.00083E+01 4.80384E-02-5.64642E-04-1.13310E-01 1.21750E-14-1.16694E-13
 -1      3511 2.00100E+01 4.74446E-02 6.38645E-06-1.08145E-01 2.31101E-14-1.66022E-13
 -1      3512 2.00072E+01 9.90864E-02 7.32660E-04-1.50705E-01 5.11668E-14-1.56199E-13
 -1      3513 2.00039E+01 8.06867E-02-6.76142E-04-1.35340E-01 4.97420E-14-1.52106E-13
 -1      3514 1.99991E+01 8.35690E-02 8.25042E-05-1.27523E-01 3.38806E-14-1.55630E-13
 -1      3515 2.00023E+01 1.38181E-01 8.37302E-04-1.89959E-01-3.09346E-15-1.88391E-13
 -1      3516 1.99986E+01 1.17596E-01-8.04614E-04-1.68459E-01 1.37300E-14-2.13389E-13
 -1      3517 1.99861E+01 1.24540E-01 1.62688E-04-1.57357E-01 7.71832E-14-2.30981E-13
 -1      3518 1.99960E+01 1.81085E-01 9.60681E-04-2.42488E-01 6.20404E-15-2.34283E-13
 -1      3519 1.99916E+01 1.58622E-01-9.45865E-04-2.14169E-01 2.96134E-14-2.06112E-13
 -1      3520 1.99699E+01 1.70318E-01 2.44365E-04-1.99173E-01 4.90992E-14-2.67959E-13
 -1      3521 1.99880E+01 2.26416E-01 1.10208E-03-3.09658E-01-3.32870E-14-1.31970E-13
 -1      3522 1.99829E+01 2.02909E-01-1.08912E-03-2.73953E-01-4.36496E-14-2.11545E-13
 -1      3523 1.99496E+01 2.20185E-01 3.19654E-04-2.54552E-01-9.18536E-15-3.16604E-13
 -1      3524 1.99789E+01 2.71323E-01 1.26202E-03-3.92528E-01-2.35255E-14-9.13636E-14
 -1      3525 1.99723E+01 2.48425E-01-1.21425E-03-3.49121E-01-3.88242E-14-1.50648E-13
 -1      3526 1.99247E+01 2.72273E-01 3.71853E-04-3.25047E-01-2.23381E-14-2.32551E-13
 -1      3527 1.99701E+01 3.10776E-01 1.44430E-03-4.91547E-01-6.13172E-14 3.42882E-14
 -1      3528 1.99610E+01 2.91341E-01-1.28768E-03-4.40568E-01-4.40327E-14-4.67474E-14
 -1      3529 1.98951E+01 3.22931E-01 3.70198E-04-4.12037E-01-9.39229E-14-1.38648E-13
 -1      3530 1.99649E+01 3.36693E-01 1.65827E-03-6.06150E-01 5.85066E-14 4.12747E-14
 -1      3531 1.99514E+01 3.25237E-01-1.25660E-03-5.48440E-01 4.21157E-14 6.57127E-14
 -1      3532 1.98623E+01 3.65920E-01 2.62215E-04-5.16527E-01-1.70058E-14-9.39966E-14
 -1      3533 1.99697E+01 3.36911E-01 1.91931E-03-7.34206E-01-4.19299E-14 6.66294E-15
 -1      3534 1.99482E+01 3.40149E-01-1.04031E-03-6.71670E-01-5.80382E-15 7.89414E-14
 -1      3535 1.98298E+01 3.91417E-01-3.71396E-05-6.38880E-01-1.78092E-14 5.73740E-14
 -1      3536 1.99955E+01 2.94168E-01 2.24157E-03-8.71242E-01-1.07229E-13 7.22755E-14
 -1      3537 1.99603E+01 3.21520E-01-5.17165E-04-8.07331E-01-1.04168E-13 5.81912E-14
 -1      3538 1.98050E+01 3.84883E-01-6.60405E-04-7.78447E-01-1.11074E-13 2.69558E-15
 -1      3539 2.00605E+01 1.85455E-01 2.60810E-03-1.00924E+00-2.67626E-14-3.41748E-14
 -1      3540 2.00026E+01 2.49319E-01 4.95364E-04-9.49663E-01-2.97182E-15 6.44177E-14
 -1      3541 1.98009E+01 3.25925E-01-1.80698E-03-9.32968E-01-6.58495E-14-5.73533E-14
 -1      3542 2.01926E+01-1.74048E-02 2.91115E-03-1.13455E+00-2.45173E-15-7.22568E-14
 -1      3543 2.00989E+01 9.78682E-02 2.26682E-03-1.08840E+00 7.07941E-15-3.50185E-14
 -1      3544 1.98392E+01 1.87555E-01-3.76244E-03-1.09739E+00 1.80829E-15-7.32949E-14
 -1      3545 2.04315E+01-3.44061E-01 2.84634E-03-1.22405E+00-1.32440E-13-7.35819E-14
 -1      3546 2.02849E+01-1.62312E-01 5.19409E-03-1.20566E+00-1.18114E-13-1.23299E-13
 -1      3547 1.99540E+01-6.31796E-02-6.87096E-03-1.26127E+00-2.33910E-14-7.56193E-14
 -1      3548 2.08283E+01-8.15256E-01 1.69004E-03-1.23884E+00-5.59324E-14 6.45949E-14
 -1      3549 2.06099E+01-5.58031E-01 9.74069E-03-1.27039E+00-9.52423E-14 6.41399E-14
 -1      3550 2.01963E+01-4.60783E-01-1.13858E-02-1.40335E+00-1.70095E-13-1.42627E-13
 -1      3551 2.14372E+01-1.41859E+00-1.56598E-03-1.11511E+00-7.33120E-14 1.57042E-13
 -1      3552 2.11341E+01-1.09766E+00 1.60496E-02-1.22922E+00 7.17178E-15 2.07939E-13
 -1      3553 2.06355E+01-1.02812E+00-1.70204E-02-1.48122E+00-8.10875E-14 5.02892E-14
 -1      3554 2.22865E+01-2.06929E+00-1.07040E-02-7.59637E-01-1.83600E-13-1.87372E-14
 -1      3555 2.19121E+01-1.73902E+00 2.31925E-02-9.96704E-01-9.41888E-14 4.89010E-14
 -1      3556 2.13554E+01-1.74533E+00-2.15056E-02-1.41616E+00-3.83129E-14 1.09420E-13
 -1      3557 2.33282E+01-2.50569E+00-1.38789E-02-7.30016E-02-1.44309E-13-5.23479E-14
 -1      3558 2.29414E+01-2.31837E+00 2.74684E-02-4.42063E-01-1.77388E-13 1.51164E-14
 -1      3559 2.24238E+01-2.50603E+00-2.39082E-02-1.07742E+00-1.64269E-13 6.18039E-14
 -1      3560 2.48868E+01 2.01509E+00-2.67040E-02 2.58108E+00 2.29275E-13-1.98929E-13
 -1      3561 2.49396E+01 7.07599E-01-8.46742E-02 2.61205E+00 1.20154E-13-1.48241E-14
 -1      3562 2.08385E+01-3.33566E+00 9.19300E-02-5.23472E+00-7.54327E-14-3.16571E-13
 -1      3563 2.49467E+01-2.03883E+00 2.47352E-02-2.85978E-01 5.26090E-14-1.31934E-13
 -1      3564 2.51434E+01-1.49490E+00-1.97305E-02-7.86255E-01 9.98108E-14-2.06460E-13
 -1      3565 2.57371E+01-1.23503E+00-4.37747E-02-1.12053E+00 1.31360E-13-2.51070E-13
 -1      3566 2.57897E+01-3.69695E-02-1.60210E-02-1.39280E+00 1.16036E-13-4.37955E-13
 -1      3567 2.01987E+01 1.66439E+00-2.01669E-03-7.66782E-01-2.97132E-13-4.17245E-13
 -1      3568 2.01281E+01-7.46597E-03-2.07038E-04-1.58885E-01 3.53580E-14-1.48479E-13
 -1      3569 2.01441E+01 2.12549E-02 1.27242E-03-1.49147E-01 2.06180E-14-1.66711E-13
 -1      3570 2.25515E+01-1.57933E+00 1.28802E-02 2.06133E+00 2.34711E-14-1.76394E-13
 -1      3571 2.24897E+01-1.47927E+00 4.60603E-04 1.63465E+00-6.56597E-14-1.55001E-13
 -1      3572 2.28006E+01-1.70382E+00 4.78321E-03 1.46014E+00-1.37538E-14-1.06493E-13
 -1      3573 2.30787E+01-2.21918E+00 1.47486E-02 2.28845E+00 1.95542E-13-2.33808E-13
 -1      3574 2.23701E+01-3.80327E+00 7.19574E-02-2.84851E+00-2.29129E-13-1.34007E-14
 -1      3575 2.39724E+01-4.06814E+00-1.01900E-01-1.46280E+00-1.41779E-13-4.26629E-14
 -1      3576 2.52656E+01-3.17146E+00 7.06014E-02 1.63319E-01-1.41318E-13-1.01828E-14
 -1      3577 2.55287E+01-2.24481E+00-7.11044E-02 1.36746E+00-1.31001E-13-1.06447E-13
 -1      3578 1.31349E+01-5.59044E-01 7.24623E-02 3.84109E+00 8.78776E-14-3.19467E-14
 -1      3579 2.01975E+01 1.60314E-01-1.30231E-03-8.06596E-02 9.19917E-14-2.20802E-13
 -1      3580 2.02243E+01 2.33248E-01 2.55524E-03-3.57242E-02 1.24354E-13-2.26155E-13
 -1      3581 1.65350E+01-1.26542E+00 9.69792E-02-5.17380E+00 1.22877E-13 2.76119E-13
 -1      3582 1.44149E+01-5.63253E-01 5.22754E-02-4.19509E+00 2.29707E-13 2.34084E-13
 -1      3583 2.00601E+01-6.68433E-02 3.54002E-04-1.43203E-01 8.50899E-14-6.42416E-14
 -1      3584 2.00651E+01-6.58676E-02 1.81375E-04-1.50340E-01 9.75944E-14-6.94912E-14
 -1      3585 2.00887E+01-7.29795E-02-4.55097E-04-1.33048E-01 8.83834E-14-1.14067E-13
 -1      3586 2.03200E+01 7.38316E-01 5.46436E-03-2.42868E-01-2.01951E-13-3.10846E-13
 -1      3587 2.02963E+01 5.71694E-01-2.89985E-03-1.41911E-01-1.64008E-13-2.90104E-13
 -1      3588 1.03883E+01 4.00064E-02 5.12566E-02-1.59529E+00-4.27089E-14-4.51722E-13
 -1      3589 1.06979E+01-3.92473E-01 1.49462E-01-3.08554E+00-1.13631E-13-1.29396E-13
 -1      3590 1.24957E+01-7.23055E-01 6.06051E-02-3.49719E+00-9.73718E-14-8.75411E-14
 -1      3591 2.00281E+01-3.58008E-02 4.71163E-04-1.03336E-01 7.09402E-14-8.76371E-14
 -1      3592 2.00281E+01-4.43740E-02-2.28981E-04-1.08297E-01 3.35259E-14-8.05627E-14
 -1      3593 2.00408E+01-3.45366E-02-2.10031E-04-9.88632E-02 7.57059E-14-1.51076E-13
 -1      3594 2.00358E+01-5.14729E-02 4.46252E-04-1.14108E-01 3.57653E-15-6.09579E-14
 -1      3595 2.00371E+01-5.77617E-02-1.30905E-04-1.20959E-01 5.18275E-15-7.95660E-14
 -1      3596 2.00695E+01-6.66276E-02-3.67590E-04-1.19662E-01 3.69721E-14-6.54442E-14
 -1      3597 2.00537E+01-5.32431E-02-2.85029E-04-1.07579E-01 1.84661E-14-9.68154E-14
 -1      3598 2.01608E+01 5.68038E-02-6.49637E-04-1.34699E-01 4.28130E-14-1.90040E-13
 -1      3599 2.01821E+01 1.03777E-01 1.87521E-03-1.10739E-01 7.30175E-14-2.02071E-13
 -1      3600 2.02470E+01 1.61567E-01-6.78453E-04-7.83603E-02 8.64387E-14-2.56645E-13
 -1      3601 2.00306E+01 2.20097E+00-3.46602E-03-1.63231E-01-6.76579E-14-5.18545E-13
 -1      3602 2.00431E+01 2.16561E+00-3.90484E-03-2.85130E-01-1.01900E-13-5.20924E-13
 -1      3603 2.01549E+01 1.85072E+00 3.31561E-03-2.83541E-01-1.14020E-13-4.73904E-13
 -1      3604 2.02350E+01 3.20239E-01-2.05323E-03 1.62180E-02 1.50115E-13-2.44813E-13
 -1      3605 2.02640E+01 4.29641E-01 2.61985E-03 9.01230E-02 1.50128E-13-2.52157E-13
 -1      3606 2.02818E+01 3.27695E-01-5.23870E-04 7.60345E-03 1.17519E-13-2.67668E-13
 -1      3607 2.03003E+01 4.38472E-01 2.61649E-03-7.29215E-02-1.46944E-13-2.61001E-13
 -1      3608 2.02751E+01 3.26037E-01-2.12961E-03-6.18758E-03-1.37539E-13-2.34479E-13
 -1      3609 2.03154E+01 3.27851E-01-5.58998E-05 1.71579E-03-1.53782E-13-2.45375E-13
 -1      3610 2.46867E+01 2.89930E+00-4.65785E-02 2.01988E+00 3.13888E-13-3.36833E-13
 -1      3611 1.68303E+01-1.88877E+00-2.33200E-02 3.95130E+00 2.65996E-13-1.47986E-13
 -1      3612 1.46496E+01-8.12584E-01 6.58271E-02 3.48591E+00 3.46136E-13-1.66950E-14
 -1      3613 2.49641E+01 1.91594E+00-1.08836E-01-1.67330E+00-4.76702E-14-4.10543E-13
 -1      3614 1.80803E+01-1.57864E+00 4.12331E-02 3.48019E+00 2.45763E-13-1.48447E-13
 -1      3615 2.54617E+01-6.58661E-01 7.56309E-03 2.26683E+00-1.48492E-15-1.91487E-14
 -1      3616 2.50410E+01-4.94761E+00 4.26627E-02 3.83049E+00 5.66838E-14-3.50659E-13
 -1      3617 2.33422E+01-4.45478E+00 1.39037E-02 4.47149E+00 2.55795E-13-4.55245E-13
 -1      3618 2.56409E+01-4.56348E+00-6.33510E-02 2.70333E+00-1.88564E-14-8.70484E-14
 -1      3619 2.02777E+01 1.14075E+00-5.06419E-03 4.93635E-01 2.43473E-13-2.86836E-13
 -1      3620 2.02663E+01 1.28582E+00-4.55078E-05 4.53870E-01 1.87089E-13-3.35633E-13
 -1      3621 2.03050E+01 9.69980E-01-3.07187E-03-3.12730E-01-2.01594E-13-3.55030E-13
 -1      3622 2.02621E+01 5.34423E-01-2.13031E-03 1.58623E-01 1.56496E-13-2.35661E-13
 -1      3623 2.02809E+01 6.52290E-01 5.48335E-05 2.53672E-01 1.83406E-13-2.34803E-13
 -1      3624 2.03017E+01 5.47691E-01 2.71868E-04 1.32859E-01 1.67591E-13-2.88188E-13
 -1      3625 1.66487E+01-3.40338E-01-4.70978E-04 2.91305E+00 2.88502E-13-1.86849E-13
 -1      3626 1.77617E+01-8.52460E-01 1.95086E-02 3.13351E+00 2.53693E-13-1.28045E-13
 -1      3627 2.02091E+01 5.32589E-02-7.40274E-04-1.26440E-01 5.37649E-14-2.49819E-13
 -1      3628 1.86126E+01-2.16299E+00 4.26473E-02-5.20643E+00-1.37848E-13-1.93054E-13
 -1      3629 2.01005E+01-4.43458E-02 7.62654E-05-1.63518E-01 6.84317E-14-1.38492E-13
 -1      3630 2.01119E+01-2.83778E-02 7.95324E-04-1.62851E-01 6.29756E-14-1.57509E-13
 -1      3631 2.01728E+01-1.38042E-02-7.09636E-04-1.47819E-01 3.70770E-14-2.18783E-13
 -1      3632 2.42057E+01-2.37093E+00 6.22520E-03 7.75992E-01-2.05266E-13-8.89889E-14
 -1      3633 2.39646E+01-2.84713E+00-3.34160E-02 3.62877E-02-1.61942E-13-5.78192E-14
 -1      3634 2.44935E+01-2.01797E+00-9.01085E-04 1.28524E+00-2.08006E-13 5.12819E-14
 -1      3635 2.52540E+01-1.68205E+00-3.31655E-02 1.77926E+00-9.51717E-14 1.85702E-15
 -1      3636 2.29501E+01-3.52283E+00 1.24166E-02 4.00426E+00 2.80763E-13-4.37763E-13
 -1      3637 2.37499E+01-3.49216E+00-1.27134E-02 3.18590E+00 1.73540E-13-4.58699E-13
 -1      3638 2.02450E+01 1.45720E+00 3.02711E-03-6.05247E-01-2.61006E-13-3.95054E-13
 -1      3639 2.30986E+01-1.92147E+00-1.10808E-02 1.22621E+00 8.34749E-14-4.64511E-14
 -1      3640 2.34627E+01-2.32466E+00-3.31059E-02 1.50516E+00 3.58203E-14-3.72916E-14
 -1      3641 2.36675E+01-2.10333E+00 2.70532E-02 8.68109E-01 3.92351E-15 3.17021E-16
 -1      3642 2.40710E+01-2.22543E+00-1.94963E-02 4.41339E-01 5.71765E-14 2.99489E-14
 -1      3643 2.37162E+01-2.56995E+00 1.49000E-02 1.92158E+00 1.19091E-13-2.22778E-13
 -1      3644 2.02030E+01 1.63907E+00-3.32104E-03 1.30583E-01 4.33228E-14-4.31031E-13
 -1      3645 2.01991E+01 1.65938E+00-2.48617E-03 4.00774E-02 1.87627E-15-4.50528E-13
 -1      3646 2.41175E+01-3.21079E+00 5.23385E-04-4.60896E-01-2.39942E-13 1.01889E-14
 -1      3647 1.55610E+01-1.86391E+00 2.67101E-02-4.45299E+00-2.81188E-13-1.14166E-13
 -1      3648 1.64994E+01-2.49322E+00 9.46904E-02-4.87339E+00-2.58790E-13-2.39302E-13
 -1      3649 1.83527E+01-2.74143E+00 1.38146E-02-4.29873E+00-3.11122E-13 5.00346E-14
 -1      3650 2.02223E+01 1.54744E+00-3.99795E-03 2.85523E-01 1.11192E-13-4.24485E-13
 -1      3651 2.02117E+01 1.60599E+00-2.01579E-03 2.01675E-01 7.16430E-14-4.28426E-13
 -1      3652 2.02859E+01 1.38492E+00 4.81734E-03 1.33737E-01 4.33336E-14-3.94781E-13
 -1      3653 2.01122E+01-6.94667E-02-5.45457E-04-1.44988E-01 6.31919E-14-5.94746E-14
 -1      3654 2.00779E+01-6.21873E-02 2.50719E-04-1.56383E-01 6.59656E-14-9.96830E-14
 -1      3655 2.00858E+01-5.50791E-02 4.39018E-04-1.60992E-01 7.38593E-14-1.09597E-13
 -1      3656 1.37689E+01-2.41263E-01 4.91357E-02 2.90397E+00 3.81264E-13-2.69680E-14
 -1      3657 1.31302E+01 2.81785E-01 4.48987E-03 1.90438E+00 2.88021E-13-9.66241E-15
 -1      3658 1.55015E+01-2.93003E-01 5.82847E-02 2.86362E+00 3.70800E-13-6.61884E-14
 -1      3659 2.72258E+01-3.12865E+00 2.91263E-02 4.95749E-01-6.05826E-14-4.61089E-14
 -1      3660 1.21120E+01 5.91675E-01 5.09718E-02 3.86667E-01 1.98751E-13-1.51101E-13
 -1      3661 1.10954E+01 4.82046E-01 1.20273E-01-5.20852E-01 3.32429E-14-4.34160E-13
 -1      3662 1.19392E+01 3.80944E-01 1.59908E-02-1.41381E+00-9.77626E-14-2.60486E-13
 -1      3663 2.01378E+01 1.92226E+00 4.45274E-03-9.39360E-02-5.23733E-14-4.84389E-13
 -1      3664 2.06320E+01-3.05940E+00 1.34884E-02 5.15259E+00 1.48148E-13-3.10075E-13
 -1      3665 2.02466E+01 1.43205E+00 1.68523E-03-4.96606E-01-2.19859E-13-4.23386E-13
 -1      3666 2.45753E+01-3.44120E+00 2.97882E-02 2.20130E+00 3.92065E-14-1.86864E-13
 -1      3667 2.48962E+01-2.62718E+00-4.88863E-02 4.98587E-01-6.23876E-14-1.02349E-14
 -1      3668 2.03307E+01 5.76704E-01 2.64580E-04-1.15908E-01-1.45739E-13-2.69620E-13
 -1      3669 2.02057E+01 1.62103E+00-3.75753E-04-3.60978E-01-1.49364E-13-4.04835E-13
 -1      3670 2.02230E+01 1.51927E+00-4.65290E-03-4.30624E-01-1.79808E-13-4.04990E-13
 -1      3671 2.02756E+01 1.36033E+00 5.40576E-03-3.98638E-01-1.77231E-13-3.99329E-13
 -1      3672 2.02719E+01 9.56238E-01 2.05316E-03 4.63432E-01 2.54853E-13-2.54019E-13
 -1      3673 2.02851E+01 8.22087E-01 1.82787E-03 3.37262E-01 2.08502E-13-2.54362E-13
 -1      3674 2.03023E+01 1.06871E+00-1.54797E-03-2.73542E-01-1.52401E-13-3.54413E-13
 -1      3675 1.58100E+01 1.97539E-01-9.10307E-03 2.39166E+00 3.20261E-13-1.74488E-13
 -1      3676 2.02991E+01 8.23859E-02 1.06895E-03 9.25733E-02-1.63095E-13-1.71658E-13
 -1      3677 2.02777E+01 3.43706E-02-5.10853E-04 1.07959E-01-1.25605E-13-1.65148E-13
 -1      3678 2.02585E+01-2.24056E-03 7.91007E-04 1.14870E-01-1.08023E-13-1.45383E-13
 -1      3679 2.02383E+01-3.09445E-02-1.34667E-04 1.20742E-01-8.51173E-14-1.61121E-13
 -1      3680 2.03023E+01 2.50162E-02-3.75815E-04 9.38743E-02-1.18599E-13-1.47108E-13
 -1      3681 2.02179E+01-5.16176E-02 5.46321E-04 1.21511E-01-2.57573E-14-1.53750E-13
 -1      3682 2.01999E+01-6.65218E-02 1.15532E-04 1.21330E-01-9.37087E-15-1.27157E-13
 -1      3683 2.02602E+01-3.91422E-02-4.98451E-04 1.03871E-01-5.78023E-14-1.08765E-13
 -1      3684 2.01800E+01-7.58868E-02 3.42649E-04 1.18453E-01-2.21490E-14-1.16851E-13
 -1      3685 2.01646E+01-8.10574E-02 2.68203E-04 1.14889E-01-3.03369E-15-1.01787E-13
 -1      3686 2.02187E+01-7.31795E-02-5.37621E-04 1.03920E-01-4.82969E-15-9.93515E-14
 -1      3687 2.01461E+01-8.25023E-02 1.78657E-04 1.10255E-01-2.88832E-14-1.30078E-13
 -1      3688 2.01331E+01-8.08450E-02 3.52657E-04 1.05269E-01-4.30878E-14-1.37534E-13
 -1      3689 2.01801E+01-8.58068E-02-5.11892E-04 9.83450E-02-2.26575E-14-1.48931E-13
 -1      3690 2.01164E+01-7.66964E-02 4.42996E-05 1.00252E-01-7.26051E-14-1.68551E-13
 -1      3691 2.01056E+01-7.01495E-02 3.96276E-04 9.52896E-02-7.01523E-14-1.95125E-13
 -1      3692 2.01454E+01-8.33687E-02-4.53791E-04 9.03492E-02-7.72392E-14-1.51602E-13
 -1      3693 2.00906E+01-6.19110E-02-7.05997E-05 9.09265E-02-2.51478E-14-1.75328E-13
 -1      3694 2.00816E+01-5.17006E-02 4.10724E-04 8.70781E-02-3.80179E-14-1.63748E-13
 -1      3695 2.01146E+01-7.00887E-02-3.72024E-04 8.23168E-02-4.20884E-14-1.34788E-13
 -1      3696 2.00679E+01-4.02903E-02-1.76392E-04 8.41455E-02-7.76525E-14-1.32695E-13
 -1      3697 2.00602E+01-2.70790E-02 4.09076E-04 8.22344E-02-9.10381E-14-7.19360E-14
 -1      3698 2.00871E+01-4.86622E-02-2.69015E-04 7.60793E-02-1.65467E-14-1.30153E-13
 -1      3699 2.00472E+01-1.28893E-02-2.84220E-04 8.13337E-02-8.48080E-14-4.64306E-15
 -1      3700 2.00402E+01 3.12792E-03 4.01794E-04 8.20496E-02-6.25717E-14-1.90082E-14
 -1      3701 2.00619E+01-2.05994E-02-1.51379E-04 7.29868E-02-5.66857E-14-5.04912E-14
 -1      3702 2.00270E+01 2.00843E-02-4.01883E-04 8.37110E-02-4.57254E-14-1.18594E-14
 -1      3703 2.00200E+01 3.90532E-02 3.91004E-04 8.76779E-02-4.62778E-14 4.13294E-14
 -1      3704 2.00375E+01 1.36183E-02-1.70525E-05 7.41606E-02-6.90098E-14 3.89244E-14
 -1      3705 2.00056E+01 5.90529E-02-5.38154E-04 9.23983E-02-7.33815E-14 4.60111E-14
 -1      3706 1.99976E+01 8.13751E-02 3.77091E-04 1.00224E-01-3.22990E-14 5.70620E-14
 -1      3707 2.00120E+01 5.42409E-02 1.39833E-04 8.06010E-02-1.50868E-14 3.25564E-14
 -1      3708 1.99807E+01 1.04910E-01-7.01226E-04 1.08494E-01 5.40384E-14 1.54703E-14
 -1      3709 1.99709E+01 1.31168E-01 3.57406E-04 1.20800E-01 2.08287E-14 4.29325E-14
 -1      3710 1.99831E+01 1.02054E-01 3.26240E-04 9.32413E-02-2.23416E-14 8.91057E-15
 -1      3711 1.99499E+01 1.58869E-01-8.98334E-04 1.33120E-01-3.87021E-14 6.20666E-14
 -1      3712 1.99369E+01 1.89746E-01 3.25721E-04 1.50548E-01-8.19479E-15 9.80474E-14
 -1      3713 1.99481E+01 1.58223E-01 5.52627E-04 1.12988E-01 3.85902E-15 5.91081E-14
 -1      3714 1.99099E+01 2.22297E-01-1.13646E-03 1.67411E-01-2.14230E-14 1.16124E-13
 -1      3715 1.98921E+01 2.58478E-01 2.72250E-04 1.90603E-01-5.73771E-14 1.60143E-13
 -1      3716 1.99036E+01 2.24102E-01 8.32581E-04 1.40713E-01 1.09612E-14 1.70396E-13
 -1      3717 1.98569E+01 2.96512E-01-1.42281E-03 2.12467E-01-4.79471E-14 1.83669E-13
 -1      3718 1.98323E+01 3.38562E-01 1.84020E-04 2.42027E-01 4.36981E-14 1.52051E-13
 -1      3719 1.98455E+01 3.01027E-01 1.18310E-03 1.77195E-01-2.46236E-14 1.86276E-13
 -1      3720 1.97861E+01 3.82517E-01-1.76580E-03 2.69262E-01 7.29306E-14 1.21670E-13
 -1      3721 1.97520E+01 4.30711E-01 4.62034E-05 3.05698E-01 8.78170E-14 1.22074E-13
 -1      3722 1.97688E+01 3.90050E-01 1.62524E-03 2.23024E-01 1.62447E-14 3.21700E-14
 -1      3723 1.96914E+01 4.80626E-01-2.17765E-03 3.38533E-01 5.33723E-14 6.95894E-14
 -1      3724 1.96447E+01 5.34705E-01-1.54484E-04 3.82202E-01-1.59335E-14 5.09311E-14
 -1      3725 1.96674E+01 4.91590E-01 2.18515E-03 2.78480E-01 4.67486E-14-1.06080E-14
 -1      3726 1.95654E+01 5.89918E-01-2.67973E-03 4.20700E-01-1.00134E-13 2.40533E-14
 -1      3727 1.95023E+01 6.48748E-01-4.22589E-04 4.71798E-01-1.44183E-13-4.75207E-14
 -1      3728 1.95337E+01 6.04959E-01 2.89591E-03 3.43430E-01-6.94705E-14-5.15307E-14
 -1      3729 1.93990E+01 7.07468E-01-3.31319E-03 5.15912E-01-1.34761E-13-8.67382E-15
 -1      3730 1.93149E+01 7.68554E-01-7.40305E-04 5.74590E-01-1.14831E-13-3.22009E-14
 -1      3731 1.93586E+01 7.27734E-01 3.80115E-03 4.17327E-01-1.56910E-13 8.71414E-14
 -1      3732 1.91811E+01 8.27241E-01-4.15836E-03 6.24431E-01-6.06230E-14-9.01273E-14
 -1      3733 1.90708E+01 8.86064E-01-1.04362E-03 6.91191E-01-1.78048E-14-8.81790E-14
 -1      3734 1.91305E+01 8.54932E-01 4.96252E-03 4.99487E-01-1.26620E-13 7.88904E-14
 -1      3735 1.88980E+01 9.38568E-01-5.36662E-03 7.47680E-01 2.73656E-14-9.64869E-15
 -1      3736 1.87564E+01 9.87673E-01-1.18445E-03 8.24297E-01 1.14564E-13 9.18802E-14
 -1      3737 1.88351E+01 9.77976E-01 6.47507E-03 5.89955E-01 4.66495E-14 2.25179E-14
 -1      3738 1.85332E+01 1.02404E+00-7.20676E-03 8.90514E-01 6.00969E-14 2.06904E-14
 -1      3739 1.83561E+01 1.05185E+00-8.66069E-04 9.81845E-01-1.98701E-14 6.53473E-14
 -1      3740 1.84541E+01 1.08340E+00 8.49725E-03 6.91414E-01 2.90148E-14 1.19130E-13
 -1      3741 1.80667E+01 1.05672E+00-1.01153E-02 1.06547E+00-1.61131E-13 3.91001E-14
 -1      3742 1.78523E+01 1.04599E+00 5.56146E-04 1.18264E+00-1.87755E-13 1.25898E-15
 -1      3743 1.79629E+01 1.15129E+00 1.13252E-02 8.12822E-01-1.05039E-13-2.79216E-14
 -1      3744 1.74731E+01 9.96681E-01-1.44875E-02 1.30071E+00-2.39145E-13 2.09839E-14
 -1      3745 1.72291E+01 9.21447E-01 5.23346E-03 1.46603E+00-2.81531E-13-5.43398E-14
 -1      3746 1.73272E+01 1.15376E+00 1.57287E-02 9.76061E-01-2.05341E-13 4.54250E-14
 -1      3747 1.67234E+01 7.80658E-01-2.04042E-02 1.65690E+00-2.04185E-13-4.65923E-14
 -1      3748 1.64934E+01 6.05704E-01 2.00761E-02 1.90097E+00 8.39825E-14-5.78258E-14
 -1      3749 1.64881E+01 1.04944E+00 2.10635E-02 1.22593E+00-1.52963E-13 1.80671E-13
 -1      3750 2.00059E+01 6.26942E-02 4.87477E-04-1.04598E-01-1.94068E-14-2.11094E-13
 -1      3751 2.00102E+01 4.37229E-02-5.11993E-04-9.73042E-02-7.49412E-15-2.32661E-13
 -1      3752 2.00218E+01 2.66622E-02 4.65547E-04-9.27283E-02 3.14912E-14-2.64950E-13
 -1      3753 2.00260E+01 1.02140E-02-3.94586E-04-8.94654E-02 3.60285E-14-2.57451E-13
 -1      3754 2.00167E+01 3.98119E-02 4.99892E-05-8.81562E-02-3.50968E-15-2.61317E-13
 -1      3755 2.00370E+01-4.49936E-03 4.52909E-04-8.82824E-02 8.27175E-14-2.03706E-13
 -1      3756 2.00417E+01-1.85680E-02-2.89736E-04-8.83997E-02 8.99057E-14-1.56772E-13
 -1      3757 2.00373E+01 4.18160E-03-6.78741E-05-8.22025E-02 7.98124E-14-2.26815E-13
 -1      3758 1.99878E+01 1.03976E-01 5.22392E-04-1.25194E-01 3.39099E-14-1.83833E-13
 -1      3759 1.99927E+01 8.22764E-02-6.47743E-04-1.13193E-01-5.50954E-16-1.83322E-13
 -1      3760 1.99943E+01 8.09859E-02 1.79534E-04-1.01229E-01-3.38270E-14-1.97984E-13
 -1      3761 1.99661E+01 1.50814E-01 5.73487E-04-1.55930E-01 1.36680E-13-2.17232E-13
 -1      3762 1.99722E+01 1.26249E-01-8.05540E-04-1.38502E-01 1.16532E-13-1.66510E-13
 -1      3763 1.99683E+01 1.28114E-01 3.21881E-04-1.22714E-01 9.61955E-14-2.58276E-13
 -1      3764 1.99392E+01 2.03131E-01 6.44526E-04-1.98351E-01 4.42152E-14-1.75168E-13
 -1      3765 1.99469E+01 1.75798E-01-9.86096E-04-1.74733E-01 1.15772E-13-1.83743E-13
 -1      3766 1.99367E+01 1.81467E-01 4.76303E-04-1.54048E-01 1.11929E-13-1.63068E-13
 -1      3767 1.99057E+01 2.60078E-01 7.41434E-04-2.54119E-01-3.22144E-14-1.78890E-13
 -1      3768 1.99155E+01 2.30515E-01-1.18625E-03-2.23533E-01 1.64685E-14-1.87051E-13
 -1      3769 1.98975E+01 2.40831E-01 6.38195E-04-1.96858E-01 3.95311E-14-4.45987E-14
 -1      3770 1.98645E+01 3.19514E-01 8.74696E-04-3.24965E-01-7.97306E-14-1.81852E-13
 -1      3771 1.98765E+01 2.88978E-01-1.39750E-03-2.86663E-01-8.77211E-14-1.98003E-13
 -1      3772 1.98486E+01 3.05065E-01 7.96317E-04-2.52981E-01-9.21572E-14-1.49592E-13
 -1      3773 1.98154E+01 3.77340E-01 1.06291E-03-4.12617E-01-1.29260E-13-4.45419E-14
 -1      3774 1.98292E+01 3.48163E-01-1.60397E-03-3.65951E-01-8.61403E-14-5.72932E-14
 -1      3775 1.97886E+01 3.71528E-01 9.28889E-04-3.24479E-01-1.87874E-13-1.14864E-13
 -1      3776 1.97596E+01 4.26656E-01 1.33765E-03-5.18718E-01-4.87093E-14-1.08528E-14
 -1      3777 1.97740E+01 4.02689E-01-1.77921E-03-4.63224E-01-6.82762E-14-2.79854E-15
 -1      3778 1.97166E+01 4.35357E-01 9.97957E-04-4.13677E-01-1.30624E-13 2.87056E-14
 -1      3779 1.97009E+01 4.56732E-01 1.74926E-03-6.44723E-01-4.26352E-14 5.10146E-14
 -1      3780 1.97131E+01 4.43881E-01-1.88107E-03-5.80227E-01 1.07797E-16 7.70209E-14
 -1      3781 1.96334E+01 4.88552E-01 9.41058E-04-5.23226E-01-7.63802E-14 1.39304E-15
 -1      3782 1.96471E+01 4.51829E-01 2.37118E-03-7.91766E-01-5.66409E-14-7.02642E-14
 -1      3783 1.96521E+01 4.58663E-01-1.84185E-03-7.18539E-01-4.17763E-14 3.10718E-14
 -1      3784 1.95424E+01 5.18882E-01 6.58312E-04-6.56224E-01 8.94709E-15-1.08145E-13
 -1      3785 1.96125E+01 3.89983E-01 3.29650E-03-9.60367E-01-5.79997E-14-1.05520E-13
 -1      3786 1.96016E+01 4.28349E-01-1.54830E-03-8.79405E-01-7.39455E-14-6.29630E-14
 -1      3787 1.94513E+01 5.08616E-01-8.89247E-06-8.16370E-01-4.30400E-14-3.41518E-15
 -1      3788 1.96213E+01 2.41980E-01 4.59503E-03-1.14962E+00-1.70726E-14-3.85605E-15
 -1      3789 1.95804E+01 3.27515E-01-7.97393E-04-1.06329E+00-4.10020E-14-1.19729E-13
 -1      3790 1.93744E+01 4.33128E-01-1.31532E-03-1.00804E+00-2.67851E-14 4.14430E-14
 -1      3791 1.97120E+01-2.87625E-02 6.24715E-03-1.35482E+00-4.29455E-14-4.16238E-14
 -1      3792 1.96201E+01 1.23334E-01 7.99979E-04-1.26840E+00 2.32584E-14-1.94423E-14
 -1      3793 1.93370E+01 2.59403E-01-3.67325E-03-1.23581E+00-4.78388E-15 5.25322E-14
 -1      3794 1.99426E+01-4.62916E-01 7.98387E-03-1.56111E+00-1.85895E-13-1.12464E-13
 -1      3795 1.97707E+01-2.23391E-01 4.00333E-03-1.48642E+00-1.55615E-13-9.58152E-14
 -1      3796 1.93813E+01-5.50913E-02-7.67432E-03-1.50143E+00-5.11458E-14-2.03507E-14
 -1      3797 2.03956E+01-1.09516E+00 8.78926E-03-1.73030E+00-1.48024E-13-7.38274E-14
 -1      3798 2.01072E+01-7.53196E-01 9.58924E-03-1.69366E+00-1.78617E-13-9.67243E-14
 -1      3799 1.95759E+01-5.57691E-01-1.31406E-02-1.79893E+00-1.79774E-13-2.35294E-14
 -1      3800 2.11743E+01-1.92619E+00 6.58305E-03-1.78388E+00-8.57790E-14 2.01376E-14
 -1      3801 2.07318E+01-1.48993E+00 1.72902E-02-1.83249E+00-7.64042E-14-8.57497E-14
 -1      3802 2.00270E+01-1.28282E+00-1.60356E-02-2.09080E+00-1.55312E-13-2.23401E-13
 -1      3803 2.03054E+01 8.39293E-01 1.83727E-03 2.88058E-01 1.68645E-13-2.83248E-13
 -1      3804 2.62733E+01-2.25505E+00-8.59265E-02-3.80426E-01-3.82923E-14-1.99206E-13
 -1      3805 2.67079E+01 4.28356E-01-3.03061E-02-1.49432E+00 4.50612E-14-3.95996E-13
 -1      3806 2.31873E+01-3.13218E+00 5.07067E-02-1.30366E+00-1.37266E-13-1.32187E-13
 -1      3807 2.07243E+01-3.51825E+00-2.59175E-02-3.61221E+00-2.66096E-13 1.31301E-14
 -1      3808 2.17710E+01-3.16938E+00 3.28740E-02-2.55621E+00-2.11020E-13-1.19832E-13
 -1      3809 2.02838E+01 1.49237E-01-1.14607E-03-8.04172E-02 6.02346E-14-2.44346E-13
 -1      3810 2.03059E+01 2.23920E-01 1.67672E-03-4.64535E-02 9.47455E-14-2.47348E-13
 -1      3811 2.02509E+01 1.38248E+00-4.74458E-03 4.13942E-01 1.82463E-13-3.81326E-13
 -1      3812 2.02373E+01 1.48192E+00-1.24963E-03 3.45348E-01 1.32268E-13-3.98362E-13
 -1      3813 2.02963E+01 1.28318E+00 4.11196E-03 2.50029E-01 1.24096E-13-3.80845E-13
 -1      3814 2.01779E+01 1.72893E+00-3.04160E-03-1.97842E-01-8.90345E-14-4.87143E-13
 -1      3815 2.01917E+01 1.68009E+00-2.30657E-03-2.85978E-01-1.24107E-13-4.50815E-13
 -1      3816 2.02417E+01 1.52828E+00 4.45471E-03-2.73840E-01-1.34777E-13-4.26674E-13
 -1      3817 1.33265E+01-4.00105E-01 2.39393E-02-3.12905E+00-8.56572E-14-8.11920E-14
 -1      3818 1.43660E+01-1.03444E+00 8.71625E-02-4.06471E+00-1.37699E-13-1.19682E-13
 -1      3819 1.62746E+01-1.46547E+00 3.22568E-02-3.90010E+00-1.99587E-13-1.07626E-13
 -1      3820 2.00529E+01-3.09972E-02 4.43804E-04-9.00098E-02 7.73892E-14-1.10827E-13
 -1      3821 2.00584E+01-4.26601E-02-1.91334E-04-9.28423E-02 7.99795E-14-1.14121E-13
 -1      3822 2.00578E+01-2.61712E-02-1.76259E-04-8.21592E-02 1.01479E-13-7.08068E-14
 -1      3823 2.55678E+01-3.58894E+00 9.43649E-04 1.56701E+00-5.65659E-14-1.12382E-13
 -1      3824 2.03044E+01 1.11446E+00 3.15381E-03 3.35975E-01 1.69655E-13-3.35305E-13
 -1      3825 2.02808E+01 1.41942E+00 4.83341E-03 1.58199E-03-1.65303E-14-4.17747E-13
 -1      3826 2.01985E+01 1.66085E+00-2.38454E-03-3.52435E-02-1.69574E-14-4.42921E-13
 -1      3827 2.02040E+01 1.64733E+00-9.75279E-04-1.23968E-01-5.52014E-14-4.61141E-13
 -1      3828 1.98763E+01-2.95484E+00 5.34903E-02-3.74219E+00-1.50108E-13 6.41371E-14
 -1      3829 2.03133E+01 3.13410E-01-1.75945E-03-1.06608E-02 9.01864E-14-2.58616E-13
 -1      3830 2.03320E+01 4.24350E-01 1.71717E-03 4.48503E-02 1.07792E-13-2.83375E-13
 -1      3831 2.03465E+01 3.07162E-01 4.33008E-05-1.59843E-02 8.35449E-14-2.33860E-13
 -1      3832 2.66010E+01-3.20367E+00 5.90563E-02 6.34322E-01-1.17961E-13 2.98928E-14
 -1      3833 2.01148E+01-7.72470E-02 3.59684E-04-1.18389E-01 7.03111E-14-7.53969E-14
 -1      3834 2.01257E+01-7.80163E-02 1.82303E-04-1.24127E-01 6.89586E-14-1.15119E-13
 -1      3835 2.03348E+01 2.15857E-01 1.30638E-03 4.71903E-02-1.33190E-13-1.99216E-13
 -1      3836 2.03142E+01 1.41228E-01-1.04258E-03 7.64082E-02-1.75365E-13-1.90211E-13
 -1      3837 2.03409E+01 1.30997E-01-1.29724E-04 6.85107E-02-1.43272E-13-1.71655E-13
 -1      3838 2.20452E+01-3.10485E+00-5.11383E-02-2.06198E+00-1.11289E-13-2.28966E-13
 -1      3839 2.23204E+01-2.71653E+00 8.48540E-03-1.50263E+00-1.00606E-13-1.14863E-13
 -1      3840 2.17120E+01-2.26559E+00 3.46692E-02-1.72400E+00-9.53712E-14-7.04645E-15
 -1      3841 2.09643E+01-2.61764E+00 3.16225E-02-2.66328E+00-1.10937E-13-2.17725E-13
 -1      3842 2.03549E+01 6.99409E-01-1.10014E-03-1.48334E-01-1.36844E-13-3.06644E-13
 -1      3843 2.03497E+01 5.47100E-01-2.62170E-03-7.56151E-02-1.28944E-13-2.99754E-13
 -1      3844 2.03578E+01 4.16344E-01 1.58005E-03-2.94868E-02-1.11801E-13-2.58522E-13
 -1      3845 2.03418E+01 3.05193E-01-1.75844E-03 1.83422E-02-1.06298E-13-2.26464E-13
 -1      3846 2.03697E+01 2.93841E-01 2.59334E-04 2.12848E-02-1.04832E-13-1.66055E-13
 -1      3847 2.02476E+01 4.24034E-02-5.71954E-04-1.18606E-01 5.66353E-14-2.37658E-13
 -1      3848 2.02690E+01 9.05707E-02 1.30431E-03-1.00638E-01 3.53032E-14-2.32848E-13
 -1      3849 2.03171E+01 1.42239E-01-2.41426E-04-7.43906E-02 4.71310E-14-2.50319E-13
 -1      3850 1.89530E+01-2.53076E+00-4.83225E-03-3.75293E+00-2.56564E-13-6.93889E-14
 -1      3851 2.02918E+01 1.24772E+00-3.88816E-03-2.56988E-01-1.26377E-13-3.95346E-13
 -1      3852 2.03439E+01 9.08625E-01 3.21327E-03-1.88180E-01-1.22545E-13-3.42838E-13
 -1      3853 2.03565E+01 8.69756E-01-5.78259E-04-1.40991E-01-9.29606E-14-3.43616E-13
 -1      3854 2.02804E+01 1.30790E+00-4.28051E-03-1.90067E-01-9.38480E-14-4.31411E-13
 -1      3855 2.03247E+01 5.31869E-01-2.15464E-03 9.34414E-02 1.50574E-13-3.09327E-13
 -1      3856 2.03313E+01 6.57364E-01 6.51351E-04 1.65099E-01 1.55634E-13-3.17746E-13
 -1      3857 2.03559E+01 5.26182E-01 8.83630E-04 7.04492E-02 1.11085E-13-2.86281E-13
 -1      3858 2.08317E+01-2.15530E+00-2.84251E-02-2.20740E+00-9.17834E-14-9.18406E-14
 -1      3859 2.03192E+01 1.19456E+00-2.56406E-03 3.19189E-02 8.59519E-15-3.99215E-13
 -1      3860 2.03199E+01 1.19481E+00-2.38120E-03-2.85501E-02-2.94733E-14-3.89192E-13
 -1      3861 2.19238E+01-3.46987E+00 8.66333E-03 4.78250E+00 2.98076E-13-3.54192E-13
 -1      3862 2.01402E+01-5.18056E-02-6.37448E-04-1.51658E-01 5.34610E-14-1.21001E-13
 -1      3863 2.00909E+01-6.86103E-02 4.09172E-04-1.06709E-01 3.12242E-14-3.22552E-14
 -1      3864 2.00996E+01-7.40764E-02 3.45214E-05-1.12575E-01 7.07641E-14-3.43226E-14
 -1      3865 2.01318E+01-8.09750E-02-4.48496E-04-1.04616E-01 5.65759E-14-3.94380E-14
 -1      3866 2.03227E+01 7.82988E-01-5.18873E-04 2.09253E-01 1.54109E-13-3.43118E-13
 -1      3867 2.03172E+01 9.48878E-01-1.89430E-03 2.85457E-01 1.58879E-13-3.54753E-13
 -1      3868 2.03197E+01 1.04999E+00 6.22679E-04 2.57212E-01 1.67206E-13-3.84446E-13
 -1      3869 2.03472E+01 7.70095E-01 6.85788E-04 1.65633E-01 1.50800E-13-3.47089E-13
 -1      3870 2.02102E+01-2.33403E-02-1.66235E-04-1.34640E-01 1.67195E-14-2.00169E-13
 -1      3871 2.02293E+01 5.71434E-03 9.37397E-04-1.27650E-01 5.07290E-14-2.14375E-13
 -1      3872 2.02791E+01 3.46001E-02-4.43476E-04-1.06227E-01 3.08175E-14-2.25467E-13
 -1      3873 1.79621E+01-1.75344E+00 3.22069E-02-3.68798E+00-2.24201E-13-1.09887E-13
 -1      3874 1.92738E+01-2.04610E+00 1.34401E-02-3.21393E+00-1.14384E-13-1.34799E-13
 -1      3875 2.03786E+01 5.34774E-01 1.38997E-03-5.40516E-02-1.04106E-13-2.83029E-13
 -1      3876 2.02580E+01 1.49857E+00 4.39087E-03-1.31206E-01-5.51956E-14-4.39859E-13
 -1      3877 2.01427E+01-7.57803E-02 2.62729E-04-1.29326E-01 6.85340E-14-1.29924E-13
 -1      3878 2.01562E+01-6.98522E-02 3.75760E-04-1.33324E-01 5.81330E-14-1.30870E-13
 -1      3879 2.01637E+01-8.14491E-02-5.16740E-04-1.14013E-01 6.59172E-14-1.47603E-13
 -1      3880 1.31226E+01 2.73070E-01 8.63540E-02-2.29676E+00-1.30203E-13-2.14270E-13
 -1      3881 1.45715E+01-1.47876E-01 2.20624E-02-2.80408E+00-7.61487E-14-1.05671E-13
 -1      3882 1.33220E+01 5.68839E-01 2.56709E-02-1.37186E+00-6.12062E-14-1.57025E-13
 -1      3883 2.03219E+01 1.14690E+00-2.74954E-03 1.34128E-01 7.56137E-14-3.50434E-13
 -1      3884 2.03205E+01 1.18105E+00-1.77451E-03 7.80909E-02 2.15862E-14-3.57192E-13
 -1      3885 2.03732E+01 9.95341E-01 4.29027E-03 4.06487E-02 2.75715E-14-3.48447E-13
 -1      3886 1.53199E+01 6.27237E-01 2.44568E-02 1.83979E+00 1.70451E-13 1.06687E-13
 -1      3887 1.44573E+01 6.88917E-01 2.79041E-02 1.41888E+00 2.36498E-13 6.56211E-14
 -1      3888 1.32468E+01 7.52317E-01 5.68175E-02 9.47252E-01 2.10175E-13 1.05957E-14
 -1      3889 1.51055E+01 9.34428E-01-2.88372E-02 9.95335E-01-3.12961E-14 1.97288E-13
 -1      3890 1.33854E+01 8.43164E-01-1.90114E-02 7.92329E-02 7.29464E-14 3.55323E-14
 -1      3891 2.00705E+01-5.26505E-02 4.32436E-04-9.66381E-02 2.00586E-14-6.04557E-14
 -1      3892 2.00774E+01-6.15744E-02-8.60997E-05-1.01450E-01 3.37207E-14-3.10566E-14
 -1      3893 2.00796E+01-5.11524E-02-2.80447E-04-8.68162E-02 5.47439E-14-2.29314E-14
 -1      3894 1.98694E+01-2.20190E+00-7.94343E-03-3.00215E+00-1.26774E-13-2.15705E-13
 -1      3895 2.04790E+01-2.06388E+00 1.91728E-02-2.47636E+00-1.02925E-13-2.11971E-13
 -1      3896 1.99710E+01-1.65110E+00 1.19198E-02-2.47976E+00-1.43044E-13-2.02732E-13
 -1      3897 1.88244E+01-1.49074E+00-8.65862E-03-2.94205E+00-9.77132E-14-1.59600E-13
 -1      3898 2.03410E+01 5.17538E-02 6.20652E-04 7.10680E-02-1.14372E-13-1.72644E-13
 -1      3899 2.03192E+01 7.87474E-03-2.78893E-04 8.04340E-02-9.11419E-14-1.75439E-13
 -1      3900 1.47338E+01 1.00054E+00 1.26917E-02-1.60318E-01-4.35624E-14 3.57481E-14
 -1      3901 1.38668E+01 9.00974E-01 4.05719E-02-6.48750E-01 2.43533E-15-6.06338E-14
 -1      3902 1.45660E+01 6.86187E-01-8.03618E-03-1.45445E+00-4.77023E-14-1.52172E-13
 -1      3903 2.02979E+01-2.54144E-02 5.06746E-04 8.30105E-02-7.30756E-14-1.69763E-13
 -1      3904 2.02760E+01-5.07151E-02 2.64039E-07 8.62231E-02-3.54984E-14-1.56319E-13
 -1      3905 2.03298E+01-3.77097E-03-3.82567E-04 6.27666E-02-5.58285E-14-1.34203E-13
 -1      3906 2.02534E+01-6.84045E-02 3.89194E-04 8.54232E-02-2.16518E-14-1.39005E-13
 -1      3907 2.02327E+01-8.02762E-02 1.82768E-04 8.48368E-02 4.80429E-15-1.57055E-13
 -1      3908 2.02844E+01-5.88692E-02-4.97204E-04 6.66882E-02-1.70286E-14-1.31713E-13
 -1      3909 2.02108E+01-8.69464E-02 2.74558E-04 8.22523E-02 2.08962E-14-1.48714E-13
 -1      3910 2.01921E+01-8.93741E-02 2.84034E-04 7.95981E-02-4.79350E-14-1.27171E-13
 -1      3911 2.02392E+01-8.53991E-02-5.25557E-04 6.53513E-02-6.28495E-15-1.25457E-13
 -1      3912 2.01715E+01-8.81901E-02 1.62726E-04 7.62585E-02-8.26817E-14-1.03309E-13
 -1      3913 2.01550E+01-8.38983E-02 3.32634E-04 7.29202E-02-6.42811E-14-1.02790E-13
 -1      3914 2.01967E+01-9.17557E-02-5.10817E-04 6.13272E-02-3.17232E-14-6.33816E-14
 -1      3915 2.01361E+01-7.70605E-02 6.23398E-05 6.96467E-02-5.74223E-14-1.29505E-13
 -1      3916 2.01216E+01-6.77914E-02 3.45964E-04 6.66452E-02-4.01363E-14-1.05724E-13
 -1      3917 2.01577E+01-8.35518E-02-4.46441E-04 5.63727E-02-4.65485E-14-6.77054E-14
 -1      3918 2.01042E+01-5.67599E-02-3.61628E-05 6.41429E-02-1.52815E-14-1.21525E-13
 -1      3919 2.00913E+01-4.36973E-02 3.28617E-04 6.22078E-02 1.10257E-14-7.99441E-14
 -1      3920 2.01223E+01-6.46420E-02-3.43274E-04 5.19038E-02-3.41571E-14-1.44888E-13
 -1      3921 2.00749E+01-2.92195E-02-1.42397E-04 6.08526E-02 4.39540E-15-1.25903E-13
 -1      3922 2.00628E+01-1.28359E-02 2.99850E-04 6.05908E-02-1.88554E-14-6.50333E-14
 -1      3923 2.00898E+01-3.75804E-02-2.23199E-04 4.90421E-02 2.70989E-14-1.27980E-13
 -1      3924 2.00466E+01 4.82639E-03-2.56437E-04 6.07891E-02-3.05357E-14-6.92522E-14
 -1      3925 2.00345E+01 2.44620E-02 2.56847E-04 6.27071E-02-4.73215E-14-2.74550E-14
 -1      3926 2.00586E+01-3.37509E-03-7.98044E-05 4.84619E-02-1.70387E-14-5.21026E-14
 -1      3927 2.00173E+01 4.54103E-02-3.84563E-04 6.47878E-02-5.01412E-14 3.49946E-14
 -1      3928 2.00043E+01 6.85501E-02 2.01154E-04 6.93324E-02 7.20869E-16 2.92647E-14
 -1      3929 2.00268E+01 3.77544E-02 9.23622E-05 5.09080E-02-2.92013E-14-3.48337E-16
 -1      3930 1.99848E+01 9.31694E-02-5.34278E-04 7.35799E-02-2.77141E-14 6.05108E-14
 -1      3931 1.99694E+01 1.20306E-01 1.30247E-04 8.11680E-02-1.29533E-14 4.22236E-14
 -1      3932 1.99921E+01 8.62530E-02 2.94120E-04 5.69164E-02-2.34697E-14 3.23618E-14
 -1      3933 1.99460E+01 1.49166E-01-7.09878E-04 8.78426E-02 3.57665E-14 4.44908E-14
 -1      3934 1.99268E+01 1.80924E-01 3.75092E-05 9.88625E-02 5.75402E-14 8.15538E-14
 -1      3935 1.99515E+01 1.43072E-01 5.33872E-04 6.69510E-02 1.73801E-14-1.20796E-14
 -1      3936 1.98975E+01 2.14679E-01-9.15728E-04 1.08179E-01 3.77670E-14 1.20477E-13
 -1      3937 1.98726E+01 2.51713E-01-8.76219E-05 1.22968E-01 5.10589E-14 1.55683E-13
 -1      3938 1.99015E+01 2.09422E-01 8.23210E-04 8.13716E-02 6.95455E-14 5.23576E-14
 -1      3939 1.98352E+01 2.90989E-01-1.15595E-03 1.35057E-01-4.45362E-14 1.16279E-13
 -1      3940 1.98022E+01 3.33853E-01-2.59806E-04 1.53858E-01-8.22875E-14 4.63070E-14
 -1      3941 1.98380E+01 2.86541E-01 1.17661E-03 1.00365E-01-4.07797E-14 1.89760E-14
 -1      3942 1.97539E+01 3.79112E-01-1.43502E-03 1.68704E-01-2.46980E-14 2.12342E-14
 -1      3943 1.97100E+01 4.28102E-01-4.97848E-04 1.91601E-01 1.74445E-14 5.57385E-15
 -1      3944 1.97560E+01 3.75427E-01 1.61217E-03 1.23835E-01-4.66285E-14 4.32333E-14
 -1      3945 1.96476E+01 4.79464E-01-1.75982E-03 2.08970E-01 5.53724E-14-2.68497E-14
 -1      3946 1.95893E+01 5.34417E-01-8.24269E-04 2.35815E-01 1.52716E-14 3.17976E-14
 -1      3947 1.96494E+01 4.76506E-01 2.15308E-03 1.51251E-01 1.32707E-14 2.39858E-14
 -1      3948 1.95089E+01 5.91425E-01-2.14426E-03 2.55173E-01-6.21422E-14 6.25409E-14
 -1      3949 1.94318E+01 6.51466E-01-1.26406E-03 2.85532E-01-7.45129E-14 3.94381E-14
 -1      3950 1.95112E+01 5.89235E-01 2.83061E-03 1.81473E-01 5.15988E-15-5.42001E-15
 -1      3951 1.93284E+01 7.12798E-01-2.61888E-03 3.05992E-01-1.11931E-13-2.47386E-14
 -1      3952 1.92273E+01 7.76021E-01-1.84230E-03 3.39174E-01-1.62715E-13 3.43920E-14
 -1      3953 1.93328E+01 7.11628E-01 3.69011E-03 2.12577E-01-7.76133E-14 7.95289E-16
 -1      3954 1.90949E+01 8.39125E-01-3.24881E-03 3.59524E-01-1.29013E-13 6.99654E-14
 -1      3955 1.89632E+01 9.02241E-01-2.58034E-03 3.94780E-01-9.85795E-15 1.36974E-13
 -1      3956 1.91032E+01 8.39725E-01 4.80324E-03 2.41776E-01-8.76719E-14-3.86087E-14
 -1      3957 1.87936E+01 9.62914E-01-4.16508E-03 4.13697E-01 2.95982E-15 8.97908E-14
 -1      3958 1.86230E+01 1.02087E+00-3.48831E-03 4.50772E-01 2.99511E-14 8.65195E-14
 -1      3959 1.88090E+01 9.67080E-01 6.29296E-03 2.65549E-01-3.33669E-14 6.74161E-14
 -1      3960 1.84046E+01 1.07279E+00-5.61284E-03 4.67381E-01 3.10647E-14 3.78358E-14
 -1      3961 1.81845E+01 1.11837E+00-4.55149E-03 5.07682E-01 1.99718E-14-7.09407E-15
 -1      3962 1.84315E+01 1.08439E+00 8.38335E-03 2.80210E-01 9.02956E-15 2.23573E-15
 -1      3963 1.78999E+01 1.15258E+00-8.01360E-03 5.22712E-01-2.77878E-14 1.23981E-14
 -1      3964 1.76157E+01 1.17583E+00-5.82117E-03 5.71474E-01-1.19842E-13 1.40807E-14
 -1      3965 1.79444E+01 1.17929E+00 1.14795E-02 2.83280E-01-1.41370E-14 5.44519E-15
 -1      3966 1.72378E+01 1.18052E+00-1.19591E-02 5.88411E-01-1.47987E-13 3.31185E-14
 -1      3967 1.68704E+01 1.17105E+00-5.69259E-03 6.57498E-01-1.27699E-13 1.29257E-13
 -1      3968 1.73080E+01 1.23573E+00 1.62892E-02 2.75718E-01-5.50790E-14 1.11247E-13
 -1      3969 1.63526E+01 1.12526E+00-1.82079E-02 6.92218E-01-1.83517E-13 1.69271E-13
 -1      3970 1.58910E+01 1.07486E+00 3.45863E-03 7.99135E-01-1.29584E-13 1.97410E-13
 -1      3971 1.64521E+01 1.23967E+00 2.40583E-02 2.63883E-01-9.58891E-14 1.17139E-13
 -1      3972 1.99501E+01 1.50916E-01 3.17560E-04-1.13672E-01 1.04573E-13-1.50423E-13
 -1      3973 1.99636E+01 1.23684E-01-7.08747E-04-1.01109E-01 1.97983E-14-1.94154E-13
 -1      3974 1.99835E+01 9.88358E-02 3.20033E-04-9.25231E-02-2.37949E-14-2.03156E-13
 -1      3975 1.99948E+01 7.50229E-02-5.38710E-04-8.42617E-02-6.06854E-14-1.99512E-13
 -1      3976 1.99669E+01 1.20515E-01 3.80024E-04-8.28824E-02-2.02800E-14-1.29395E-13
 -1      3977 1.99093E+01 2.09925E-01 3.29970E-04-1.43961E-01 6.45943E-14-6.27811E-14
 -1      3978 1.99260E+01 1.79147E-01-9.08579E-04-1.26367E-01 1.35331E-13-9.22802E-14
 -1      3979 1.99258E+01 1.78485E-01 5.90544E-04-1.03075E-01 2.74430E-14-1.69697E-14
 -1      3980 1.98586E+01 2.75632E-01 3.65287E-04-1.85033E-01 2.31285E-14-7.32204E-14
 -1      3981 1.98794E+01 2.41501E-01-1.14163E-03-1.61578E-01 8.78768E-14-4.68974E-14
 -1      3982 1.98750E+01 2.44072E-01 8.26069E-04-1.31716E-01 5.17262E-14-5.28232E-14
 -1      3983 1.97954E+01 3.46801E-01 4.36770E-04-2.38825E-01-1.04514E-13-1.77426E-13
 -1      3984 1.98213E+01 3.10073E-01-1.40971E-03-2.08567E-01-1.78339E-14-1.72495E-13
 -1      3985 1.98117E+01 3.16924E-01 1.08427E-03-1.70540E-01 3.31865E-14-1.12482E-13
 -1      3986 1.97179E+01 4.20612E-01 5.66486E-04-3.07654E-01-2.24515E-13-1.29999E-13
 -1      3987 1.97492E+01 3.82910E-01-1.71273E-03-2.69512E-01-2.32586E-13-1.89585E-13
 -1      3988 1.97326E+01 3.95566E-01 1.35741E-03-2.21711E-01-1.37297E-13-1.27315E-13
 -1      3989 1.96245E+01 4.91926E-01 7.90508E-04-3.94332E-01-1.86061E-13-5.54278E-14
 -1      3990 1.96614E+01 4.56124E-01-2.04837E-03-3.47051E-01-1.96798E-13-5.49044E-14
 -1      3991 1.96351E+01 4.76790E-01 1.62950E-03-2.87987E-01-2.94896E-13-1.25249E-13
 -1      3992 1.95157E+01 5.52390E-01 1.16624E-03-5.02375E-01-9.08110E-14-4.85436E-14
 -1      3993 1.95569E+01 5.23077E-01-2.41152E-03-4.44447E-01-1.22200E-13-3.40841E-14
 -1      3994 1.95170E+01 5.54913E-01 1.87257E-03-3.72956E-01-1.46147E-13-7.11074E-15
 -1      3995 1.93943E+01 5.89372E-01 1.78200E-03-6.36313E-01 2.15091E-14-8.70589E-14
 -1      3996 1.94369E+01 5.73399E-01-2.79230E-03-5.65862E-01-6.33104E-14-1.30519E-13
 -1      3997 1.93773E+01 6.20867E-01 2.04058E-03-4.81423E-01-8.38372E-14-1.74516E-13
 -1      3998 1.92674E+01 5.84739E-01 2.76835E-03-8.02133E-01-1.24261E-13-1.85287E-14
 -1      3999 1.93057E+01 5.91841E-01-3.16999E-03-7.16762E-01-4.22026E-14-1.67007E-14
 -1      4000 1.92174E+01 6.61149E-01 2.05826E-03-6.19978E-01-1.01217E-13-9.03938E-14
 -1      4001 1.91490E+01 5.13483E-01 4.31689E-03-1.00776E+00-3.40315E-14 1.54582E-13
 -1      4002 1.91727E+01 5.56984E-01-3.49586E-03-9.04455E-01-8.79793E-14 1.15713E-13
 -1      4003 1.90422E+01 6.56569E-01 1.79809E-03-7.97821E-01-1.22119E-13 2.47258E-14
 -1      4004 1.90642E+01 3.42237E-01 6.81225E-03-1.26318E+00-2.31595E-14 1.31399E-13
 -1      4005 1.90557E+01 4.39812E-01-3.63252E-03-1.13868E+00-4.21075E-15 1.38269E-13
 -1      4006 1.88622E+01 5.80762E-01 1.03897E-03-1.02787E+00-2.96099E-14 1.53895E-13
 -1      4007 1.90535E+01 2.45195E-02 9.35563E-03-1.58009E+00-8.35668E-14 1.06627E-13
 -1      4008 1.89868E+01 2.01378E-01-3.17534E-03-1.43220E+00-5.85111E-14 6.75820E-14
 -1      4009 1.86969E+01 3.98335E-01-6.22388E-04-1.32853E+00 4.73016E-14 1.31977E-13
 -1      4010 1.91763E+01-4.93692E-01 9.85274E-03-1.95939E+00-1.46047E-13-9.83776E-14
 -1      4011 1.90259E+01-2.06758E-01 3.76120E-04-1.78961E+00-5.98501E-14 3.36046E-14
 -1      4012 1.85957E+01 5.43938E-02-1.67161E-03-1.72688E+00-2.88263E-14 1.02608E-13
 -1      4013 1.96407E+01-1.22072E+00 1.54859E-02-2.30868E+00-1.13833E-13-2.19448E-13
 -1      4014 1.93321E+01-8.11721E-01 4.75764E-03-2.15186E+00-1.76649E-13-2.11651E-13
 -1      4015 1.86857E+01-4.70170E-01-1.10658E-02-2.14021E+00-6.85659E-14-8.64196E-14
 -1      4016 1.91247E+01-1.19312E+00-8.71491E-03-2.56110E+00-1.44924E-13-2.40133E-13
 -1      4017 2.03722E+01 9.98364E-01 4.44963E-03-3.96694E-02-3.67006E-14-3.62354E-13
 -1      4018 2.03182E+01 1.17863E+00-3.34352E-03-7.45838E-02-4.01547E-14-3.86357E-13
 -1      4019 2.01747E+01-5.98508E-02 9.74064E-05-1.36238E-01 2.13150E-14-1.47594E-13
 -1      4020 2.01910E+01-4.43674E-02 6.23870E-04-1.36241E-01 2.11874E-14-1.83608E-13
 -1      4021 2.01996E+01-6.69507E-02-5.58940E-04-1.20227E-01 4.18661E-14-1.64566E-13
 -1      4022 1.66896E+01-1.10767E+00-5.26017E-03-3.41951E+00-6.80506E-14-8.72982E-14
 -1      4023 2.03978E+01 6.35632E-01 2.94882E-03-7.03400E-02-5.75993E-14-3.39048E-13
 -1      4024 2.03944E+01 4.84210E-01-2.17344E-03-2.54657E-02-5.06831E-14-2.98261E-13
 -1      4025 2.00118E+01 5.33709E-02 3.32128E-04-7.91138E-02-4.29916E-14-1.20274E-13
 -1      4026 2.00219E+01 3.27227E-02-3.93831E-04-7.45030E-02 5.90018E-14-1.48343E-13
 -1      4027 2.00014E+01 6.98767E-02 1.93529E-04-6.97265E-02 1.40370E-14-6.62657E-14
 -1      4028 2.03223E+01 1.07439E+00-2.32714E-03 2.20957E-01 1.34068E-13-3.59001E-13
 -1      4029 2.03204E+01 1.13990E+00-1.06108E-03 1.74209E-01 9.94316E-14-3.45222E-13
 -1      4030 2.03675E+01 9.68438E-01 3.88072E-03 1.15323E-01 9.22204E-14-3.11112E-13
 -1      4031 2.03493E+01 9.30931E-01 2.17584E-03 1.79989E-01 1.40169E-13-3.52732E-13
 -1      4032 1.52381E+01 1.13113E+00 3.18029E-02 4.08465E-01-1.09082E-13 2.13587E-13
 -1      4033 2.00620E+01-1.95810E-02 3.66875E-04-7.07658E-02 1.30653E-13-1.14002E-13
 -1      4034 2.00721E+01-3.44168E-02-1.53711E-04-7.16837E-02 1.18878E-13-5.64133E-14
 -1      4035 2.03676E+01 2.78662E-01-1.35630E-03-2.78265E-02 6.70059E-14-2.45967E-13
 -1      4036 2.03812E+01 3.85041E-01 1.07467E-03 9.76409E-03 5.62120E-14-2.47424E-13
 -1      4037 2.03401E+01 1.20797E-01-8.58292E-04-7.15614E-02 1.32710E-14-2.37205E-13
 -1      4038 2.03598E+01 1.92262E-01 9.99412E-04-4.87751E-02 5.66400E-14-2.37076E-13
 -1      4039 2.03889E+01 2.61435E-01 2.51228E-04-2.72881E-02 5.09511E-14-2.18479E-13
 -1      4040 2.03772E+01 1.75849E-01 6.83528E-04 4.49264E-02-1.14010E-13-2.02645E-13
 -1      4041 2.03582E+01 1.06548E-01-6.87711E-04 6.33097E-02-1.28608E-13-1.88163E-13
 -1      4042 2.03712E+01 9.07642E-02-1.49314E-04 5.05346E-02-1.07363E-13-1.97183E-13
 -1      4043 2.00373E+01 1.40254E-02 3.49506E-04-7.22270E-02 9.86678E-14-1.21869E-13
 -1      4044 2.00471E+01-3.68555E-03-2.68461E-04-7.06704E-02 9.45411E-14-1.07711E-13
 -1      4045 2.00317E+01 2.60369E-02 2.85578E-05-6.24290E-02 8.60861E-14-2.47169E-14
 -1      4046 2.03006E+01 1.26445E+00 2.18467E-04-1.36965E-01-7.30797E-14-4.18265E-13
 -1      4047 2.03983E+01 3.63297E-01 6.62608E-04-9.64180E-04-8.34847E-14-2.59353E-13
 -1      4048 2.03862E+01 2.60237E-01-1.13242E-03 2.98528E-02-1.10610E-13-2.22572E-13
 -1      4049 2.04117E+01 4.57032E-01 3.97821E-04-1.43376E-02-4.08177E-14-3.35786E-13
 -1      4050 1.80317E+01-9.11101E-01 4.96232E-03-2.84865E+00-9.74839E-14-1.83837E-14
 -1      4051 1.86613E+01-1.03582E+00 1.26726E-02-2.65842E+00-9.79596E-14-1.24651E-13
 -1      4052 1.83710E+01-6.48981E-01-2.26964E-03-2.44778E+00-4.49293E-14-4.74902E-14
 -1      4053 2.01040E+01-6.99688E-02-3.73891E-04-9.48585E-02 4.85101E-14 1.88308E-14
 -1      4054 2.03922E+01 8.25532E-01-1.69176E-03-1.10700E-02-1.22956E-14-3.30932E-13
 -1      4055 2.03909E+01 8.11128E-01-2.19869E-03-4.66739E-02-4.23396E-14-3.39717E-13
 -1      4056 2.02387E+01-3.11495E-02-5.31896E-04-1.19319E-01 1.90136E-14-2.11398E-13
 -1      4057 2.03739E+01 4.89615E-01-1.99066E-03 3.92505E-02 6.56436E-14-2.87744E-13
 -1      4058 2.03769E+01 6.12538E-01 1.22015E-03 8.94504E-02 8.55594E-14-3.14732E-13
 -1      4059 2.03969E+01 4.68696E-01 9.92118E-04 2.39562E-02 4.34519E-14-2.72507E-13
 -1      4060 2.03735E+01 8.21582E-01-2.93322E-06-9.97622E-02-6.46540E-14-3.65736E-13
 -1      4061 2.03597E+01 1.02833E+00 4.65825E-03-1.21722E-01-6.86465E-14-3.86153E-13
 -1      4062 2.00602E+01-1.14637E-02-1.16577E-04-5.99699E-02 1.26431E-13-6.55408E-14
 -1      4063 2.03023E+01 1.88239E-02-3.84450E-04-9.44764E-02 3.46944E-14-2.34618E-13
 -1      4064 2.03239E+01 6.44378E-02 8.41523E-04-8.27529E-02 2.13603E-14-2.41934E-13
 -1      4065 2.03592E+01 1.07222E-01-1.59832E-04-6.09352E-02 2.47266E-14-1.71227E-13
 -1      4066 2.01811E+01-8.60223E-02 2.74828E-04-9.58957E-02 4.23427E-14-1.09803E-13
 -1      4067 2.01985E+01-8.24833E-02 3.00056E-04-9.90928E-02 5.33746E-14-1.04239E-13
 -1      4068 2.00889E+01-4.26909E-02-2.37999E-04-6.13911E-02 1.43282E-13-4.39132E-14
 -1      4069 2.00874E+01-4.74636E-02 3.71008E-04-7.36393E-02 7.76001E-14-1.74337E-14
 -1      4070 2.00988E+01-5.92547E-02-5.52608E-05-7.64127E-02 9.08392E-14 2.76815E-14
 -1      4071 2.01463E+01-8.27257E-02 3.55781E-04-8.77458E-02 1.76531E-14-4.41903E-14
 -1      4072 2.01613E+01-8.59092E-02 1.80362E-04-9.18989E-02 1.37169E-14-7.10768E-14
 -1      4073 2.01905E+01-8.95011E-02-5.05448E-04-7.82485E-02-1.07962E-14-8.60172E-14
 -1      4074 2.03936E+01 8.09768E-01-1.03621E-03 4.55340E-02 4.55802E-14-2.96410E-13
 -1      4075 2.03920E+01 8.25440E-01-1.72766E-03 1.29689E-02 1.06125E-15-3.37188E-13
 -1      4076 2.04210E+01 6.72665E-01 2.30323E-03-1.51561E-03-1.53499E-14-3.14270E-13
 -1      4077 2.04020E+01 2.38830E-01 2.46621E-04 2.63465E-02-1.02278E-13-2.57927E-13
 -1      4078 1.53995E+01 1.05627E+00-2.20311E-02-2.43987E-01-1.47189E-13 8.00991E-14
 -1      4079 1.49720E+01 1.88532E-01-2.11694E-02-2.25155E+00-5.42396E-14-1.48946E-13
 -1      4080 1.55098E+01-3.27779E-01 2.91492E-02-2.99821E+00-4.22535E-14-8.11053E-14
 -1      4081 1.70524E+01-6.23985E-01 2.07521E-02-2.87755E+00-9.72260E-14-8.23716E-14
 -1      4082 1.53366E+01 5.59517E-01 1.73015E-03-1.64655E+00-5.24719E-14-1.90575E-13
 -1      4083 1.68409E+01-2.45087E-01-1.54625E-02-2.52394E+00-6.71739E-14-3.05434E-14
 -1      4084 1.64385E+01 2.86260E-01 3.11621E-02-2.11791E+00 5.03677E-15-1.69093E-13
 -1      4085 1.73206E+01-1.65434E-02-1.28615E-03-2.15529E+00-7.40549E-14 7.00740E-14
 -1      4086 2.03565E+01 1.59421E-02 2.88170E-04 4.05822E-02-5.26652E-14-1.43136E-13
 -1      4087 2.03344E+01-2.08567E-02 2.11918E-04 4.60413E-02-1.17301E-14-9.91366E-14
 -1      4088 2.03108E+01-4.91128E-02 2.79226E-04 4.50327E-02-2.48575E-14-1.25322E-13
 -1      4089 2.02874E+01-6.88981E-02 1.65419E-04 4.68114E-02-7.92748E-15-1.13836E-13
 -1      4090 2.03322E+01-3.33696E-02-7.60169E-04 2.51943E-02-3.90338E-14-1.53255E-13
 -1      4091 2.02637E+01-8.22825E-02 3.12572E-04 4.58269E-02-1.68410E-15-1.14217E-13
 -1      4092 2.02418E+01-9.01629E-02 3.80342E-04 4.56026E-02-2.40921E-14-1.17485E-13
 -1      4093 2.02832E+01-7.55067E-02-7.03580E-04 2.59806E-02-1.06512E-14-1.55108E-13
 -1      4094 2.02186E+01-9.34509E-02 2.33461E-04 4.32441E-02-4.62763E-15-1.16515E-13
 -1      4095 2.01982E+01-9.24134E-02 3.86135E-04 4.21023E-02-1.75307E-14-7.54367E-14
 -1      4096 2.02377E+01-9.39146E-02-8.82724E-04 2.44047E-02-7.98979E-15-1.87281E-13
 -1      4097 2.01766E+01-8.83550E-02 1.76225E-04 3.99278E-02-8.68763E-14-8.51391E-14
 -1      4098 2.01578E+01-8.10865E-02 2.62737E-04 3.83832E-02-9.76914E-14-1.42570E-13
 -1      4099 2.01936E+01-9.25140E-02-7.21054E-04 2.30856E-02-4.55895E-14-1.33508E-13
 -1      4100 2.01382E+01-7.14232E-02 1.20119E-04 3.70442E-02-1.83322E-14-1.20499E-13
 -1      4101 2.01214E+01-5.95602E-02 3.39115E-04 3.58960E-02 3.96087E-14-8.70388E-14
 -1      4102 2.01523E+01-7.77039E-02-5.45226E-04 2.14916E-02-5.48521E-14-9.60963E-14
 -1      4103 2.01028E+01-4.59745E-02-2.12301E-06 3.44962E-02 4.37805E-14-8.72043E-14
 -1      4104 2.00871E+01-3.01867E-02 2.65213E-04 3.41261E-02 2.41623E-14-4.90420E-14
 -1      4105 2.01159E+01-5.41784E-02-4.37664E-04 1.97913E-02 1.64280E-14-8.55718E-14
 -1      4106 2.00692E+01-1.29332E-02-9.21472E-05 3.35562E-02 2.15227E-14-3.98698E-15
 -1      4107 2.00537E+01 6.35408E-03 1.95184E-04 3.42837E-02 1.81736E-14 3.67104E-14
 -1      4108 2.00804E+01-2.17845E-02-2.63101E-04 1.92530E-02 3.80108E-14-1.26935E-13
 -1      4109 2.00352E+01 2.70259E-02-2.21795E-04 3.45232E-02-1.27261E-14 3.48849E-14
 -1      4110 2.00190E+01 4.98847E-02 1.06875E-04 3.66078E-02-7.24460E-15 5.01243E-14
 -1      4111 2.00456E+01 1.79545E-02 5.45509E-05 1.96826E-02 4.27238E-14-3.39920E-14
 -1      4112 1.99988E+01 7.42188E-02-3.70474E-04 3.77389E-02-3.36568E-14 1.01864E-13
 -1      4113 1.99804E+01 1.01009E-01-1.75455E-06 4.13901E-02-1.93583E-14 9.02840E-14
 -1      4114 2.00088E+01 6.51001E-02 4.34039E-04 2.12186E-02-1.34747E-14 6.45487E-15
 -1      4115 1.99569E+01 1.29458E-01-5.40776E-04 4.34656E-02-1.82116E-14 9.39596E-14
 -1      4116 1.99347E+01 1.60709E-01-1.39598E-04 4.88315E-02 3.20849E-14 4.86090E-14
 -1      4117 1.99673E+01 1.20321E-01 8.84301E-04 2.39401E-02 1.18646E-14 8.83012E-14
 -1      4118 1.99061E+01 1.93841E-01-7.35016E-04 5.18437E-02 7.80930E-14-6.76982E-15
 -1      4119 1.98782E+01 2.30134E-01-3.20138E-04 5.89800E-02 5.31936E-14-5.16895E-14
 -1      4120 1.99177E+01 1.84621E-01 1.42541E-03 2.77782E-02 1.72043E-14-2.38646E-16
 -1      4121 1.98423E+01 2.68518E-01-9.54402E-04 6.28228E-02 1.96735E-14-4.50377E-14
 -1      4122 1.98063E+01 3.10347E-01-5.62201E-04 7.16424E-02-4.42133E-14-2.21227E-14
 -1      4123 1.98560E+01 2.59089E-01 2.08332E-03 3.24532E-02 3.43208E-14-1.87815E-13
 -1      4124 1.97607E+01 3.54406E-01-1.19892E-03 7.60528E-02-6.71260E-14 7.34807E-14
 -1      4125 1.97138E+01 4.02022E-01-8.91204E-04 8.62514E-02-5.26164E-14 2.10865E-14
 -1      4126 1.97778E+01 3.44615E-01 2.89016E-03 3.73664E-02-7.86114E-16-2.60424E-14
 -1      4127 1.96557E+01 4.51866E-01-1.46798E-03 9.07261E-02-5.66046E-14 3.25244E-14
 -1      4128 1.95944E+01 5.05076E-01-1.34097E-03 1.01687E-01 1.87520E-14-3.07476E-15
 -1      4129 1.96777E+01 4.41551E-01 3.88619E-03 4.14413E-02-5.81135E-14-4.16916E-14
 -1      4130 1.95206E+01 5.60291E-01-1.76260E-03 1.05375E-01 2.23877E-14-1.08634E-13
 -1      4131 1.94407E+01 6.18227E-01-1.95659E-03 1.16061E-01-2.30677E-14-1.35084E-13
 -1      4132 1.95494E+01 5.49319E-01 5.12441E-03 4.29097E-02-9.63156E-14-3.47796E-14
 -1      4133 1.93473E+01 6.77638E-01-2.09067E-03 1.17636E-01-5.05883E-14-1.47088E-13
 -1      4134 1.92437E+01 7.38496E-01-2.79960E-03 1.26486E-01-9.80010E-14-1.24417E-13
 -1      4135 1.93860E+01 6.65964E-01 6.67962E-03 3.90417E-02-6.64072E-14-1.29320E-13
 -1      4136 1.91263E+01 7.99893E-01-2.47718E-03 1.24006E-01-1.11478E-13-1.71330E-13
 -1      4137 1.89924E+01 8.60658E-01-3.95850E-03 1.28882E-01-1.15052E-13-1.66132E-13
 -1      4138 1.91787E+01 7.87672E-01 8.66554E-03 2.58185E-02-8.34465E-14-3.41238E-13
 -1      4139 1.88452E+01 9.20549E-01-2.98227E-03 1.19654E-01-7.80885E-14-1.11239E-13
 -1      4140 1.86724E+01 9.76759E-01-5.57121E-03 1.17891E-01 4.17406E-14-6.96052E-14
 -1      4141 1.89173E+01 9.08336E-01 1.12656E-02-2.45393E-03-5.55907E-14-2.81746E-13
 -1      4142 1.84876E+01 1.03018E+00-3.72965E-03 9.83276E-02-5.00779E-15-6.76507E-14
 -1      4143 1.82640E+01 1.07578E+00-7.87086E-03 8.69964E-02 2.37136E-14-5.12617E-14
 -1      4144 1.85882E+01 1.01925E+00 1.47831E-02-5.36330E-02 1.93161E-14-1.51870E-13
 -1      4145 1.80300E+01 1.11633E+00-4.93898E-03 5.24834E-02-4.57669E-17-3.58088E-14
 -1      4146 1.77376E+01 1.14360E+00-1.12344E-02 2.90060E-02-5.87124E-14 1.50476E-15
 -1      4147 1.81729E+01 1.10908E+00 1.97001E-02-1.38511E-01-3.56926E-14-1.08013E-14
 -1      4148 1.74358E+01 1.16403E+00-6.87124E-03-2.57559E-02-1.16955E-13 3.12082E-14
 -1      4149 1.70484E+01 1.16332E+00-1.56807E-02-6.29063E-02-7.44693E-14 4.04364E-14
 -1      4150 1.76419E+01 1.16399E+00 2.64805E-02-2.72358E-01-1.12733E-13-2.39847E-14
 -1      4151 1.66503E+01 1.15149E+00-1.00360E-02-1.42707E-01-4.97176E-14-1.08216E-13
 -1      4152 1.61543E+01 1.12669E+00-1.03274E-02-1.94208E-01-9.98886E-14-1.08523E-13
 -1      4153 1.69376E+01 1.16264E+00 3.15364E-02-4.78360E-01-1.96134E-13-2.58367E-13
 -1      4154 1.98434E+01 2.72370E-01-3.99700E-05-1.11733E-01 1.05081E-13-3.79963E-15
 -1      4155 1.98712E+01 2.35618E-01-1.02415E-03-9.64720E-02 9.00610E-14 3.19181E-14
 -1      4156 1.97686E+01 3.50956E-01-5.95117E-05-1.46036E-01-1.14899E-14-3.59145E-14
 -1      4157 1.98033E+01 3.10183E-01-1.35251E-03-1.25773E-01 5.11700E-14-3.68649E-14
 -1      4158 1.98097E+01 3.09937E-01 2.26490E-03-8.76237E-02 1.11628E-13 8.03239E-14
 -1      4159 2.03548E+01 7.93408E-01-1.57794E-03 1.37918E-01 1.19140E-13-3.21461E-13
 -1      4160 1.96752E+01 4.35996E-01-3.10894E-05-1.91633E-01-1.74527E-13-5.80706E-14
 -1      4161 1.97180E+01 3.92061E-01-1.76235E-03-1.65274E-01-5.76227E-14-3.52056E-14
 -1      4162 1.97233E+01 3.96299E-01 3.05581E-03-1.16602E-01-2.43295E-14 7.53459E-14
 -1      4163 1.95597E+01 5.24229E-01 7.85490E-05-2.51515E-01-2.82295E-13-8.90558E-14
 -1      4164 1.96117E+01 4.78924E-01-2.27662E-03-2.17638E-01-2.23218E-13-8.57039E-14
 -1      4165 1.96149E+01 4.89844E-01 4.01125E-03-1.56091E-01-1.67825E-13 3.48962E-14
 -1      4166 1.94191E+01 6.09918E-01 3.20974E-04-3.29740E-01-1.58584E-13-9.05639E-14
 -1      4167 1.94809E+01 5.66326E-01-2.92728E-03-2.86439E-01-2.89793E-13-1.40664E-13
 -1      4168 1.94800E+01 5.87197E-01 5.17195E-03-2.09534E-01-2.15137E-13-1.20089E-13
 -1      4169 1.92514E+01 6.84009E-01 7.75031E-04-4.31917E-01 1.84111E-14-1.17471E-13
 -1      4170 1.93224E+01 6.46917E-01-3.76090E-03-3.76570E-01-1.23464E-14-5.50660E-14
 -1      4171 1.93142E+01 6.82518E-01 6.59621E-03-2.81772E-01-1.21115E-13-9.66926E-14
 -1      4172 1.90564E+01 7.33181E-01 1.55930E-03-5.65935E-01-7.82780E-14-7.37734E-14
 -1      4173 1.91345E+01 7.09540E-01-4.84758E-03-4.94856E-01-9.43211E-15-1.19516E-13
 -1      4174 1.91137E+01 7.66759E-01 8.37308E-03-3.79680E-01 2.37778E-14-9.56370E-14
 -1      4175 1.88366E+01 7.38746E-01 2.84437E-03-7.43010E-01-1.94151E-13-1.17438E-13
 -1      4176 1.89170E+01 7.38185E-01-6.29582E-03-6.50960E-01-1.68135E-13-1.42027E-13
 -1      4177 1.88752E+01 8.26845E-01 1.06393E-02-5.13117E-01-1.31260E-13-2.50320E-13
 -1      4178 1.85988E+01 6.75311E-01 4.83233E-03-9.79132E-01 1.88083E-14-1.01725E-13
 -1      4179 1.86728E+01 7.10764E-01-8.28320E-03-8.58666E-01-1.20446E-13-1.24753E-13
 -1      4180 1.85962E+01 8.44729E-01 1.35871E-02-6.96331E-01-1.37531E-13-3.51884E-13
 -1      4181 1.83555E+01 5.08209E-01 7.15728E-03-1.29753E+00 6.54479E-15 3.78287E-14
 -1      4182 1.84093E+01 5.97494E-01-1.11706E-02-1.13734E+00 4.11884E-14-2.03475E-14
 -1      4183 1.82765E+01 7.95994E-01 1.74397E-02-9.49765E-01-1.44441E-14-4.09931E-13
 -1      4184 1.81060E+01 1.66962E-01-4.10240E-03-1.74482E+00 2.93088E-14 1.22362E-13
 -1      4185 1.81344E+01 3.64194E-01-1.54391E-02-1.51456E+00 4.10230E-14 1.90435E-13
 -1      4186 1.79200E+01 6.48754E-01 2.29447E-02-1.30077E+00-7.30861E-14-4.29645E-14
 -1      4187 2.02608E+01-4.24853E-02-4.57670E-05-1.02839E-01-1.22041E-16-2.01195E-13
 -1      4188 2.02820E+01-1.57945E-02 6.48814E-04-9.86943E-02 1.00835E-14-2.20795E-13
 -1      4189 2.03192E+01 7.94566E-03-3.89299E-04-7.83103E-02 3.29448E-15-2.34609E-13
 -1      4190 2.01152E+01-6.90289E-02 3.69668E-04-7.97865E-02 3.24032E-14 8.05441E-14
 -1      4191 2.01282E+01-7.70530E-02 5.47851E-05-8.36894E-02 3.55385E-14 7.83052E-14
 -1      4192 2.01531E+01-8.36978E-02-4.46228E-04-7.18055E-02-1.98904E-14-1.53606E-14
 -1      4193 2.02196E+01-7.46452E-02 1.47685E-04-1.02048E-01 3.62678E-14-1.55354E-13
 -1      4194 2.02391E+01-6.14007E-02 4.57698E-04-1.02612E-01 2.35668E-14-1.75166E-13
 -1      4195 2.02315E+01-8.06528E-02-5.59970E-04-8.33126E-02 1.91076E-15-1.15401E-13
 -1      4196 1.99913E+01 8.50054E-02 1.33361E-04-5.66181E-02 4.98911E-14 2.48267E-15
 -1      4197 2.00071E+01 6.03976E-02-3.69766E-04-5.17973E-02 9.33003E-14 8.65217E-14
 -1      4198 2.03957E+01 1.24244E-01 2.09615E-04 2.93899E-02-7.28954E-14-2.04524E-13
 -1      4199 2.03772E+01 6.41217E-02 2.43183E-05 3.98981E-02-5.88277E-14-1.63456E-13
 -1      4200 2.03764E+01 4.47737E-02-8.37917E-04 2.16318E-02-1.10788E-14-1.42140E-13
 -1      4201 2.03868E+01 7.65771E-01-3.24239E-03-6.06333E-02-4.34582E-14-3.74378E-13
 -1      4202 2.04211E+01 2.91096E-01 1.70077E-04 9.47933E-03-6.10120E-14-2.86882E-13
 -1      4203 2.04098E+01 1.99269E-01-3.21264E-04 2.60581E-02-8.69191E-14-2.51193E-13
 -1      4204 2.04121E+01 1.71923E-01-4.30224E-04 1.42286E-02-3.31081E-14-2.33677E-13
 -1      4205 2.00578E+01-2.39767E-03 2.63871E-04-4.66204E-02 7.34141E-14 6.60045E-14
 -1      4206 2.00719E+01-2.02905E-02-9.25059E-05-4.60742E-02 1.17788E-13 2.98611E-14
 -1      4207 1.99514E+01 1.39396E-01 6.69502E-05-6.85541E-02-3.96127E-14 2.91372E-14
 -1      4208 1.99698E+01 1.11003E-01-5.45693E-04-6.08717E-02-3.08862E-14 1.77252E-14
 -1      4209 1.99783E+01 1.04149E-01 5.93606E-04-4.21501E-02 1.32281E-14 1.60437E-13
 -1      4210 2.03999E+01 2.23635E-01-1.18456E-03-3.09894E-02 1.81723E-14-2.03981E-13
 -1      4211 2.04121E+01 3.21184E-01 4.59509E-04-8.42838E-03 9.44182E-15-2.43023E-13
 -1      4212 1.58466E+01 6.90204E-01-2.21958E-02-1.37953E+00-1.18430E-14-2.07227E-13
 -1      4213 2.00259E+01 3.79384E-02 2.00559E-04-4.96018E-02 7.83300E-14 5.09475E-14
 -1      4214 2.00403E+01 1.67849E-02-2.21598E-04-4.71441E-02 1.00099E-13 2.23092E-14
 -1      4215 2.00166E+01 5.24932E-02 1.97787E-04-3.62329E-02 8.99038E-14 6.65598E-14
 -1      4216 2.04156E+01 6.33684E-01 2.16137E-03-2.76146E-02-1.99332E-14-3.38521E-13
 -1      4217 2.04227E+01 5.08136E-01-1.09180E-04-1.95239E-02-9.91088E-15-3.41439E-13
 -1      4218 2.04229E+01 3.79925E-01-4.32683E-04 4.13368E-03-4.50424E-14-3.18803E-13
 -1      4219 2.04289E+01 3.41427E-01 2.47568E-04 3.52703E-03-3.41677E-14-2.99215E-13
 -1      4220 2.04249E+01 5.47054E-01-9.43607E-05-1.04808E-02-1.66587E-14-3.12308E-13
 -1      4221 1.99032E+01 2.01738E-01 6.51555E-06-8.64793E-02 9.37423E-15 4.27936E-14
 -1      4222 1.99256E+01 1.69238E-01-7.59874E-04-7.53562E-02 1.62681E-14 7.50430E-14
 -1      4223 1.98784E+01 2.32337E-01 1.60735E-03-6.66786E-02 5.32821E-14 1.50646E-13
 -1      4224 1.58645E+01 1.06454E+00 3.38497E-02-7.15947E-01-6.37457E-14-3.45771E-13
 -1      4225 1.65395E+01 7.62047E-01-2.43608E-02-1.20772E+00-5.58663E-14-2.67256E-13
 -1      4226 2.03768E+01 7.59281E-01-5.08660E-05 1.00791E-01 9.79563E-14-2.94088E-13
 -1      4227 2.03836E+01 7.62965E-01-1.78848E-03 7.26646E-02 7.19353E-14-2.96365E-13
 -1      4228 2.00847E+01-2.90902E-02-4.04986E-04-3.30453E-02 7.21726E-14-1.06041E-14
 -1      4229 2.00893E+01-3.63091E-02 3.06660E-04-4.69187E-02 1.42601E-13-9.72980E-14
 -1      4230 2.01041E+01-5.07730E-02 6.75579E-05-4.78649E-02 1.31528E-13-6.60429E-14
 -1      4231 1.77144E+01 9.08751E-02-1.12566E-02-1.91644E+00-1.73659E-14 7.20037E-14
 -1      4232 1.73516E+01 5.16040E-01 3.82198E-02-1.65875E+00-3.60638E-14 5.53550E-15
 -1      4233 2.02751E+01-5.07489E-02-4.78795E-04-8.43813E-02 1.68147E-14-1.57305E-13
 -1      4234 1.82701E+01-3.03938E-01 1.59127E-02-2.21921E+00-1.28213E-14 7.14961E-14
 -1      4235 2.01195E+01-6.73040E-02-3.68273E-04-6.57026E-02 7.67924E-14 5.64168E-14
 -1      4236 2.02386E+01-8.66970E-02 7.58716E-05-6.36549E-02-4.22553E-14-3.45089E-14
 -1      4237 2.02603E+01-7.69318E-02 2.49876E-04-6.42604E-02-1.18780E-14-6.69128E-14
 -1      4238 2.04240E+01 4.00481E-01 3.85430E-04 2.09924E-03-7.38899E-15-2.29024E-13
 -1      4239 2.04118E+01 4.35299E-01-1.54861E-03 7.37280E-03 2.94184E-14-2.87332E-13
 -1      4240 2.04119E+01 5.53614E-01 1.32104E-03 3.70773E-02 3.59699E-14-2.71822E-13
 -1      4241 2.04274E+01 5.45069E-01-5.24290E-04 2.39256E-03-2.27510E-14-3.04253E-13
 -1      4242 1.99333E+01 1.63864E-01 1.05751E-03-5.19642E-02-6.69029E-14 1.74540E-13
 -1      4243 2.02167E+01-9.09188E-02 4.16438E-04-6.09993E-02 6.58276E-15-4.90823E-14
 -1      4244 2.02394E+01-9.12096E-02-5.79493E-04-4.39168E-02-2.21038E-14-1.10120E-13
 -1      4245 2.01966E+01-9.15214E-02 3.38922E-04-5.92161E-02 1.37594E-15-8.02161E-14
 -1      4246 2.03699E+01 8.12848E-02-5.14527E-04-5.26821E-02 2.54024E-14-1.93642E-13
 -1      4247 2.03901E+01 1.45964E-01 8.82458E-04-3.86262E-02 4.42857E-14-1.84964E-13
 -1      4248 2.04098E+01 1.99823E-01-2.30423E-04-2.28459E-02 1.79593E-14-1.88803E-13
 -1      4249 2.00512E+01 8.20481E-03-1.40701E-04-3.34234E-02 1.00818E-13 8.38843E-14
 -1      4250 1.69749E+01 7.70335E-01-2.53004E-02-1.11308E+00-1.55639E-13-1.80895E-13
 -1      4251 2.03020E+01-6.88512E-02 4.27613E-04 5.34329E-03-5.16214E-14-1.83911E-13
 -1      4252 2.02780E+01-8.38891E-02 4.50166E-04 5.18677E-03-4.70144E-15-1.97745E-13
 -1      4253 2.02445E+01-9.21573E-02 4.35614E-04-8.94055E-03 4.00976E-15-2.11283E-13
 -1      4254 2.02220E+01-9.44089E-02 5.96076E-04-8.32444E-03-1.41181E-14-2.08510E-13
 -1      4255 2.01664E+01-8.25692E-02 3.52000E-04 4.87758E-03-3.02502E-14-1.41241E-13
 -1      4256 2.01467E+01-7.32339E-02 3.39626E-04 4.15588E-03-1.15327E-14-1.07750E-13
 -1      4257 2.01205E+01-5.65067E-02 2.02731E-04-6.85687E-03-2.32326E-14-1.03719E-13
 -1      4258 2.01025E+01-4.18886E-02 2.61948E-04-6.64792E-03 8.90259E-16-1.36488E-13
 -1      4259 2.00852E+01-2.53566E-02 2.14370E-04-6.72130E-03 4.58022E-14-8.97426E-14
 -1      4260 2.00671E+01-7.25217E-03 1.29277E-04-6.50744E-03 8.84507E-14-7.91406E-14
 -1      4261 2.00496E+01 1.26628E-02 1.30984E-05-7.31686E-03 7.26108E-14-7.90549E-14
 -1      4262 2.00310E+01 3.43687E-02-7.25663E-05-6.91605E-03 6.60976E-14-2.61529E-14
 -1      4263 2.00122E+01 5.77163E-02-2.46500E-04-8.75260E-03 3.76907E-14 3.56087E-14
 -1      4264 1.99918E+01 8.32747E-02-3.17056E-04-8.13597E-03 3.12664E-14 9.16620E-14
 -1      4265 1.99703E+01 1.10341E-01-5.51751E-04-1.13129E-02-1.62383E-14 8.64312E-14
 -1      4266 1.99465E+01 1.40176E-01-6.13154E-04-1.05415E-02-2.43836E-14 9.34952E-14
 -1      4267 1.99207E+01 1.71354E-01-9.08182E-04-1.54453E-02-4.77384E-14 7.50400E-14
 -1      4268 1.98917E+01 2.05954E-01-9.79726E-04-1.46803E-02-3.52433E-14-2.26263E-14
 -1      4269 1.98597E+01 2.41600E-01-1.32558E-03-2.18229E-02 3.74790E-14 1.39609E-14
 -1      4270 1.98233E+01 2.81374E-01-1.44218E-03-2.13697E-02 1.01163E-13-1.34766E-14
 -1      4271 1.97830E+01 3.21643E-01-1.81556E-03-3.14524E-02 7.78528E-14 6.48088E-14
 -1      4272 1.97366E+01 3.66746E-01-2.03362E-03-3.18293E-02 8.86623E-15 1.30923E-13
 -1      4273 1.96860E+01 4.11391E-01-2.39144E-03-4.58294E-02-8.72829E-14 8.81279E-14
 -1      4274 1.96266E+01 4.61521E-01-2.79781E-03-4.78632E-02-1.26838E-13 5.40601E-14
 -1      4275 1.95632E+01 5.09649E-01-3.06984E-03-6.71564E-02-1.75490E-13 6.30636E-14
 -1      4276 1.94873E+01 5.63798E-01-3.79461E-03-7.21084E-02-1.80678E-13 4.91269E-14
 -1      4277 1.94088E+01 6.13587E-01-3.87463E-03-9.86446E-02-1.73859E-13 4.48095E-14
 -1      4278 1.93123E+01 6.69757E-01-5.10931E-03-1.08372E-01-1.07522E-13-8.16328E-14
 -1      4279 1.92162E+01 7.18131E-01-4.84495E-03-1.44930E-01-9.71005E-14-1.24875E-13
 -1      4280 1.90941E+01 7.73036E-01-6.86903E-03-1.62088E-01-5.63362E-14-1.49411E-13
 -1      4281 1.89780E+01 8.15320E-01-6.04865E-03-2.12652E-01 3.32503E-14-1.73239E-13
 -1      4282 1.88240E+01 8.64082E-01-9.27032E-03-2.40959E-01 1.29818E-14-1.44440E-13
 -1      4283 1.86857E+01 8.93642E-01-7.59935E-03-3.11269E-01-7.62609E-14-2.46665E-13
 -1      4284 1.84913E+01 9.29521E-01-1.26198E-02-3.55906E-01-6.53117E-14-2.83579E-13
 -1      4285 1.83287E+01 9.37392E-01-9.65403E-03-4.54265E-01-2.11242E-14-2.96757E-13
 -1      4286 1.80818E+01 9.51511E-01-1.73584E-02-5.22653E-01-2.25933E-14-2.88930E-13
 -1      4287 1.78940E+01 9.25989E-01-1.22102E-02-6.60933E-01-1.00642E-13-2.37501E-13
 -1      4288 1.75764E+01 9.07078E-01-2.37697E-02-7.64969E-01-1.54805E-13-2.36162E-13
 -1      4289 1.73685E+01 8.35190E-01-1.30539E-02-9.57749E-01-2.10364E-13-9.85994E-14
 -1      4290 2.03290E+01-9.38090E-03-1.41050E-04-6.29984E-02-1.98483E-14-1.83883E-13
 -1      4291 2.03520E+01 3.08617E-02 7.67890E-04-5.57747E-02-3.93786E-15-1.96588E-13
 -1      4292 2.03757E+01 6.33925E-02-8.64407E-04-3.72936E-02 3.71829E-14-1.82971E-13
 -1      4293 2.02840E+01-6.14025E-02 2.19273E-04-6.52800E-02 7.37784E-15-1.30692E-13
 -1      4294 2.03073E+01-3.93802E-02 6.31239E-04-6.28581E-02-1.05372E-14-1.81905E-13
 -1      4295 2.02853E+01-6.87599E-02-4.09817E-04-4.46466E-02-3.73558E-14-1.14974E-13
 -1      4296 2.03844E+01 5.36715E-02 2.53986E-04-9.43018E-03 1.37444E-14-1.94940E-13
 -1      4297 2.03635E+01 7.13962E-03 9.01428E-04-6.92900E-03 7.61800E-15-1.58212E-13
 -1      4298 2.01574E+01-8.24136E-02 3.63295E-04-5.39104E-02-4.23912E-14-6.91474E-14
 -1      4299 2.01755E+01-8.84824E-02 2.80535E-04-5.61296E-02-2.52963E-14-1.08905E-13
 -1      4300 2.01960E+01-9.33401E-02-9.52880E-04-4.08803E-02 8.50082E-17-1.84468E-13
 -1      4301 2.03989E+01 7.35249E-01-2.43655E-04 4.57651E-02 5.36325E-14-2.74061E-13
 -1      4302 2.04210E+01 5.92631E-01 4.18332E-04 1.73383E-02 7.40949E-15-2.65659E-13
 -1      4303 2.01218E+01-6.35218E-02 2.23320E-04-4.96640E-02 1.00116E-13-1.04691E-13
 -1      4304 2.01378E+01-7.42051E-02 4.36687E-05-5.17030E-02 2.12416E-14-1.18759E-13
 -1      4305 2.01555E+01-8.03578E-02-3.86062E-04-3.68592E-02 2.62415E-15-2.32361E-13
 -1      4306 2.01192E+01-5.88821E-02-2.41740E-04-3.45189E-02 4.64123E-14-2.21374E-13
 -1      4307 2.03402E+01-2.79148E-02 3.17233E-04-9.96565E-03-3.97377E-14-1.74146E-13
 -1      4308 2.03158E+01-5.47093E-02 5.23458E-04-8.65389E-03-6.75199E-14-1.79496E-13
 -1      4309 2.04177E+01 1.84184E-01-2.16716E-04-8.06538E-03 5.25356E-15-2.36968E-13
 -1      4310 2.04039E+01 1.11196E-01 9.00310E-04-3.96429E-03 1.13313E-14-2.00925E-13
 -1      4311 2.04281E+01 4.51579E-01-1.58497E-04 8.52859E-03-1.09462E-14-2.54279E-13
 -1      4312 2.04261E+01 5.21574E-01 1.39745E-04 8.21195E-03-1.08714E-14-2.52673E-13
 -1      4313 2.04280E+01 3.33448E-01-3.64994E-04-6.07079E-03-7.92273E-15-2.28736E-13
 -1      4314 2.02006E+01-9.24292E-02 4.55976E-04-7.99898E-03-1.53309E-14-1.80893E-13
 -1      4315 2.01787E+01-8.75626E-02 3.91384E-04-7.85151E-03-2.30953E-14-1.41807E-13
 -1      4316 2.03326E+01-2.21703E-02-1.03674E-03-4.40731E-02-2.71341E-14-1.65276E-13
 -1      4317 2.04356E+01 4.09591E-01 6.51782E-04-2.95021E-03-1.04870E-14-2.80120E-13
 -1      4318 2.04292E+01 2.73357E-01 8.51088E-04-1.29771E-03-1.43222E-14-2.56311E-13
 -1      4319 2.04321E+01 3.17819E-01-4.29862E-04 1.28553E-03-1.02891E-14-2.67820E-13
 -1      4320 2.03000E+01-6.60176E-02-5.06013E-04-3.07267E-02-5.82381E-14-1.76617E-13
 -1      4321 2.01279E+01-6.29036E-02-2.80380E-04-2.31322E-02 2.57868E-15-1.77455E-13
 -1      4322 2.02752E+01-8.00819E-02 2.33701E-04-3.04126E-02-4.96003E-14-1.37798E-13
 -1      4323 2.01660E+01-8.45520E-02-3.71207E-04-2.56954E-02 3.49051E-15-1.68815E-13
 -1      4324 2.02523E+01-8.85690E-02-4.80371E-04-2.91047E-02-3.32441E-14-1.56307E-13
 -1      4325 2.01458E+01-7.43292E-02 8.07562E-05-2.43554E-02 1.64109E-14-2.37694E-13
 -3
    1PSTEP                         3           1           1          
  100CL  101 1.000000000        4325                     0    1           1
 -4  TOSTRAIN    6    1
 -5  EXX         1    4    1    1
 -5  EYY         1    4    2    2
 -5  EZZ         1    4    3    3
 -5  EXY         1    4    1    2
 -5  EYZ         1    4    2    3
 -5  EZX         1    4    3    1
 -1         1 1.53996E-04-2.15681E-06-5.78663E-05-1.19833E-04-6.00102E-18 1.03889E-17
 -1         2 4.16904E-05-1.27233E-04 2.31920E-05-9.83879E-07 1.02302E-17 2.30419E-19
 -1         3 9.51769E-05-2.86292E-05-2.84014E-05-2.36252E-08-1.73364E-18-2.16816E-18
 -1         4 9.49383E-05-2.88775E-05-2.80524E-05 3.71751E-07 1.74585E-18 5.85386E-19
 -1         5 1.43348E-04-2.14785E-05-4.25287E-05 3.85315E-05-2.89685E-19 2.24289E-17
 -1         6 1.45410E-04 2.57580E-10-4.41879E-05-5.35266E-05-1.26716E-18 2.29355E-17
 -1         7 9.06100E-05-5.11234E-07-3.90686E-05-2.92516E-05-1.95559E-19 5.11049E-18
 -1         8 8.51251E-05 8.65025E-08-3.63396E-05-2.02701E-05-2.63930E-19-6.49396E-19
 -1         9 8.28134E-05 7.68851E-08-3.53511E-05-1.56408E-05-2.74995E-19-3.78160E-18
 -1        10 8.17754E-05 3.86844E-08-3.48818E-05-1.20782E-05-1.72087E-19-5.43248E-18
 -1        11 8.12526E-05 1.94846E-08-3.46525E-05-9.01266E-06-1.40624E-19-6.25063E-18
 -1        12 8.09824E-05 9.22750E-09-3.45381E-05-6.28365E-06-7.04642E-20-6.60296E-18
 -1        13 8.08407E-05 4.61684E-09-3.44802E-05-3.68521E-06-3.48475E-20-6.73735E-18
 -1        14 8.07814E-05 2.75636E-09-3.44566E-05-1.18357E-06-1.18663E-20-6.77861E-18
 -1        15 8.07835E-05 2.74254E-09-3.44574E-05 1.28873E-06 3.03302E-20-6.72585E-18
 -1        16 8.08473E-05 4.53095E-09-3.44825E-05 3.79552E-06 5.10734E-20-6.62434E-18
 -1        17 8.09944E-05 8.41449E-09-3.45419E-05 6.40625E-06 8.89931E-20-6.39929E-18
 -1        18 8.12698E-05 1.81791E-08-3.46579E-05 9.15513E-06 1.15620E-19-5.94579E-18
 -1        19 8.17971E-05 3.81977E-08-3.48900E-05 1.22572E-05 1.95175E-19-5.10107E-18
 -1        20 8.28365E-05 8.15161E-08-3.53637E-05 1.58699E-05 2.49306E-19-3.46962E-18
 -1        21 8.50913E-05 1.69430E-07-3.63778E-05 2.04818E-05 3.04958E-19-2.34562E-19
 -1        22 9.16468E-05-9.97364E-08-3.87402E-05 2.79991E-05 4.31987E-20 6.61098E-18
 -1        23 1.12981E-04-3.81285E-05-3.53987E-05-4.40254E-06-8.34089E-19 1.84258E-17
 -1        24 9.28129E-05-2.76995E-05-2.90017E-05 3.91226E-07-2.46053E-19 1.44483E-17
 -1        25 8.91297E-05-2.68552E-05-2.69323E-05 3.76052E-07-1.50486E-19 1.04429E-17
 -1        26 8.80287E-05-2.64924E-05-2.63955E-05 2.04243E-07-4.64462E-21 7.66292E-18
 -1        27 8.80571E-05-2.64712E-05-2.63882E-05 1.39929E-07-5.51080E-20 5.84506E-18
 -1        28 8.85922E-05-2.66080E-05-2.65583E-05 1.00941E-07-2.69448E-20 4.28179E-18
 -1        29 8.93482E-05-2.68210E-05-2.67912E-05 7.52795E-08 1.23927E-20 3.54354E-18
 -1        30 9.01736E-05-2.70609E-05-2.70415E-05 5.69660E-08-1.48909E-20 2.06002E-18
 -1        31 9.09833E-05-2.72994E-05-2.72857E-05 4.31745E-08 2.43092E-20 9.42493E-19
 -1        32 9.17302E-05-2.75208E-05-2.75108E-05 3.24726E-08-2.08300E-19-2.38721E-19
 -1        33 9.23908E-05-2.77174E-05-2.77099E-05 2.40495E-08 1.88773E-19-7.66787E-19
 -1        34 9.29567E-05-2.78863E-05-2.78807E-05 1.73881E-08-1.89038E-19-9.22074E-19
 -1        35 9.34294E-05-2.80277E-05-2.80235E-05 1.21224E-08 2.00888E-19-1.06152E-18
 -1        36 9.38164E-05-2.81438E-05-2.81405E-05 7.97354E-09-4.95102E-20-6.24779E-19
 -1        37 9.41295E-05-2.82379E-05-2.82354E-05 4.72219E-09 2.25097E-22-1.65504E-18
 -1        38 9.43828E-05-2.83142E-05-2.83122E-05 2.19628E-09-4.22347E-20-2.56388E-18
 -1        39 9.45925E-05-2.83776E-05-2.83760E-05 2.67218E-10 1.22704E-20-2.87262E-18
 -1        40 9.47766E-05-2.84334E-05-2.84321E-05-1.14981E-09-1.13344E-19-3.15906E-18
 -1        41 9.49550E-05-2.84877E-05-2.84866E-05-2.09232E-09-2.95874E-20-4.48916E-18
 -1        42 9.51506E-05-2.85472E-05-2.85464E-05-2.54389E-09-4.52735E-20-3.95648E-18
 -1        43 9.53901E-05-2.86201E-05-2.86195E-05-2.42320E-09-2.65291E-19-3.12772E-18
 -1        44 9.57057E-05-2.87160E-05-2.87159E-05-1.56725E-09-6.93014E-20-2.89511E-18
 -1        45 9.61362E-05-2.88466E-05-2.88472E-05 2.94281E-10-2.75082E-19-3.32220E-18
 -1        46 9.67297E-05-2.90263E-05-2.90280E-05 3.57683E-09-1.08115E-19-4.65502E-18
 -1        47 9.75452E-05-2.92727E-05-2.92763E-05 8.89465E-09 7.87451E-20-3.24453E-18
 -1        48 9.86552E-05-2.96075E-05-2.96140E-05 1.71317E-08 6.22234E-20-2.92559E-18
 -1        49 1.00146E-04-3.00564E-05-3.00672E-05 2.95215E-08 8.28548E-20-3.89893E-18
 -1        50 1.02118E-04-3.06489E-05-3.06660E-05 4.77004E-08-2.35219E-19-4.56902E-18
 -1        51 1.04677E-04-3.14162E-05-3.14419E-05 7.36306E-08-3.25570E-19-5.25700E-18
 -1        52 1.07920E-04-3.23863E-05-3.24221E-05 1.09139E-07 1.45422E-20-3.79071E-18
 -1        53 1.11895E-04-3.35725E-05-3.36165E-05 1.54525E-07-2.40244E-19-2.92710E-18
 -1        54 1.16529E-04-3.49522E-05-3.49942E-05 2.05257E-07 3.92831E-19-2.13612E-18
 -1        55 1.21503E-04-3.64307E-05-3.64443E-05 2.45485E-07 3.46432E-20-1.95016E-18
 -1        56 1.26075E-04-3.77904E-05-3.77260E-05 2.38326E-07-6.00337E-19-4.32957E-18
 -1        57 1.28910E-04-3.86392E-05-3.84321E-05 1.18915E-07 1.38660E-19-6.44922E-18
 -1        58 1.28111E-04-3.84147E-05-3.80325E-05-1.88114E-07 5.38564E-19-5.72629E-18
 -1        59 1.21807E-04-3.65504E-05-3.60838E-05-6.92525E-07-3.41798E-19-4.91912E-18
 -1        60 1.09602E-04-3.29007E-05-3.26277E-05-1.20865E-06-2.02014E-19-4.70421E-18
 -1        61 9.43127E-05-2.82835E-05-2.85348E-05-1.32893E-06 4.87899E-19-3.72610E-18
 -1        62 8.19912E-05-2.45363E-05-2.53377E-05-7.36050E-07 2.08019E-20-5.13440E-18
 -1        63 7.85131E-05-2.34849E-05-2.43765E-05 3.14906E-07-3.70560E-19-5.47169E-18
 -1        64 8.48583E-05-2.54341E-05-2.58707E-05 1.10493E-06 4.94588E-19-6.45169E-18
 -1        65 9.62663E-05-2.89009E-05-2.87510E-05 1.18900E-06-6.34322E-19-5.39819E-18
 -1        66 1.06226E-04-3.18940E-05-3.14286E-05 7.32377E-07-4.32986E-19-7.68513E-18
 -1        67 1.10777E-04-3.32416E-05-3.27864E-05 1.67465E-07 3.67738E-19-5.88693E-18
 -1        68 1.09608E-04-3.28784E-05-3.26062E-05-2.32872E-07 8.19537E-20 6.97121E-19
 -1        69 1.04736E-04-3.14173E-05-3.13643E-05-4.01210E-07-3.34945E-19-2.03447E-19
 -1        70 9.90225E-05-2.96920E-05-2.98425E-05-3.03189E-07 7.56457E-21 2.92676E-19
 -1        71 9.52915E-05-2.84792E-05-2.87386E-05 6.26118E-09-7.47392E-19-1.00496E-18
 -1        72 1.02184E-04-3.05889E-05-3.41517E-05-1.92913E-06 3.74309E-19 2.00181E-17
 -1        73 9.25696E-05-2.75157E-05-2.89101E-05-3.33266E-07 1.63044E-19 1.47312E-17
 -1        74 8.91177E-05-2.67048E-05-2.69757E-05-1.25959E-07 6.20352E-20 1.09039E-17
 -1        75 8.80587E-05-2.64431E-05-2.64396E-05-9.56334E-08 6.75637E-20 7.98089E-18
 -1        76 8.80917E-05-2.64511E-05-2.64149E-05-7.66407E-08 1.07903E-19 5.73739E-18
 -1        77 8.86262E-05-2.66024E-05-2.65754E-05-6.25853E-08-3.38172E-20 4.65467E-18
 -1        78 8.93797E-05-2.68223E-05-2.68036E-05-5.18171E-08-5.06622E-20 4.01173E-18
 -1        79 9.02017E-05-2.70656E-05-2.70510E-05-4.29360E-08 6.73595E-20 3.32025E-18
 -1        80 9.10078E-05-2.73055E-05-2.72931E-05-3.52867E-08-8.18979E-21 2.54901E-18
 -1        81 9.17511E-05-2.75274E-05-2.75165E-05-2.86076E-08 7.18045E-20 1.48119E-18
 -1        82 9.24085E-05-2.77238E-05-2.77144E-05-2.27779E-08 1.13248E-19 6.31810E-19
 -1        83 9.29716E-05-2.78923E-05-2.78843E-05-1.77184E-08 1.50870E-19 3.14535E-20
 -1        84 9.34420E-05-2.80332E-05-2.80264E-05-1.33540E-08-4.23187E-20-6.96362E-19
 -1        85 9.38275E-05-2.81487E-05-2.81431E-05-9.60398E-09 9.45269E-20-2.17000E-18
 -1        86 9.41398E-05-2.82424E-05-2.82378E-05-6.38258E-09 8.98513E-20-3.20229E-18
 -1        87 9.43933E-05-2.83185E-05-2.83149E-05-3.60444E-09-1.17752E-19-2.59554E-18
 -1        88 9.46041E-05-2.83819E-05-2.83792E-05-1.19219E-09-4.95389E-20-1.53362E-18
 -1        89 9.47903E-05-2.84380E-05-2.84362E-05 9.14855E-10 1.90412E-19-2.74511E-18
 -1        90 9.49717E-05-2.84926E-05-2.84918E-05 2.75055E-09-2.65852E-20-3.94895E-18
 -1        91 9.51704E-05-2.85526E-05-2.85528E-05 4.30971E-09-7.76054E-20-3.33200E-18
 -1        92 9.54118E-05-2.86253E-05-2.86267E-05 5.53290E-09-1.12417E-19-1.39531E-18
 -1        93 9.57244E-05-2.87194E-05-2.87224E-05 6.28745E-09 4.87531E-20-5.91332E-19
 -1        94 9.61409E-05-2.88446E-05-2.88495E-05 6.34399E-09 3.47161E-20-3.26189E-18
 -1        95 9.66980E-05-2.90117E-05-2.90191E-05 5.34935E-09-4.20501E-19-3.68636E-18
 -1        96 9.74347E-05-2.92326E-05-2.92429E-05 2.79961E-09 3.73716E-19-2.74991E-18
 -1        97 9.83906E-05-2.95187E-05-2.95324E-05-1.97638E-09-1.80630E-19-4.08695E-18
 -1        98 9.95994E-05-2.98802E-05-2.98973E-05-9.79928E-09 7.12064E-20-3.45150E-18
 -1        99 1.01080E-04-3.03224E-05-3.03425E-05-2.15396E-08-4.61629E-19-5.08313E-18
 -1       100 1.02823E-04-3.08423E-05-3.08635E-05-3.78500E-08-1.37756E-19-2.37383E-18
 -1       101 1.04765E-04-3.14214E-05-3.14393E-05-5.85949E-08 1.44429E-19-2.16142E-18
 -1       102 1.06764E-04-3.20172E-05-3.20242E-05-8.18201E-08 9.80281E-20-3.72660E-18
 -1       103 1.08563E-04-3.25544E-05-3.25383E-05-1.02206E-07-3.56583E-19-8.23908E-19
 -1       104 1.09767E-04-3.29167E-05-3.28619E-05-1.09366E-07 4.19456E-19 1.20824E-18
 -1       105 1.09851E-04-3.29494E-05-3.28420E-05-8.73572E-08 4.52239E-19-4.37420E-19
 -1       106 1.08244E-04-3.24816E-05-3.23200E-05-1.83533E-08-4.28768E-19-3.06683E-18
 -1       107 1.04514E-04-3.13811E-05-3.11913E-05 1.06118E-07 1.51391E-20-6.45211E-18
 -1       108 9.86739E-05-2.96422E-05-2.94866E-05 2.67159E-07-1.03406E-20-8.96932E-18
 -1       109 9.14711E-05-2.74774E-05-2.74391E-05 4.07111E-07-2.04740E-19-8.19700E-18
 -1       110 8.44278E-05-2.53387E-05-2.54745E-05 4.45800E-07-2.19422E-19-7.37071E-18
 -1       111 7.94102E-05-2.37970E-05-2.40845E-05 3.32533E-07 4.06609E-19-7.28299E-18
 -1       112 7.77882E-05-2.32855E-05-2.36144E-05 9.81494E-08-8.12255E-19-4.67980E-18
 -1       113 7.96923E-05-2.38585E-05-2.40938E-05-1.51614E-07 2.02433E-19-3.31894E-18
 -1       114 8.39423E-05-2.51573E-05-2.52226E-05-3.07052E-07-2.67530E-19-4.69264E-18
 -1       115 8.87247E-05-2.66210E-05-2.65326E-05-3.24901E-07 7.83372E-19-7.17454E-18
 -1       116 9.25003E-05-2.77731E-05-2.76101E-05-2.35675E-07-3.25206E-19-6.15617E-18
 -1       117 9.45729E-05-2.83990E-05-2.82506E-05-1.06566E-07 7.69141E-20-4.95147E-18
 -1       118 9.51478E-05-2.85607E-05-2.84884E-05-4.79775E-09-4.98296E-19-4.35382E-18
 -1       119 9.50130E-05-2.85034E-05-2.85077E-05 2.10300E-08-1.69770E-19-1.96658E-18
 -1       120 9.50082E-05-2.84871E-05-2.84815E-05-6.15180E-08 9.65007E-19-3.65188E-18
 -1       121 9.52862E-05-2.87707E-05-2.85030E-05-1.24304E-07-2.96639E-18 5.57364E-19
 -1       122 9.52371E-05-2.86563E-05-2.86154E-05-8.56302E-08 1.27089E-18-6.00046E-19
 -1       123 9.48158E-05-2.72621E-05-2.90934E-05-2.95565E-09 4.64199E-18 6.98831E-19
 -1       124 9.37967E-05-2.38582E-05-3.01588E-05 1.37597E-07 1.97497E-18-6.64734E-19
 -1       125 9.20348E-05-1.79384E-05-3.19386E-05 3.28366E-07-1.91911E-18-1.48302E-18
 -1       126 8.96012E-05-9.76090E-06-3.43298E-05 5.01210E-07-9.62282E-18-1.24464E-18
 -1       127 8.67334E-05-1.24669E-07-3.70835E-05 5.91951E-07-1.18915E-17 2.07620E-19
 -1       128 8.40694E-05 8.81835E-06-3.95920E-05 5.09491E-07-1.02927E-17-1.08933E-19
 -1       129 8.23416E-05 1.46127E-05-4.11951E-05 2.40200E-07-6.08651E-18 1.01236E-18
 -1       130 8.21051E-05 1.54073E-05-4.14087E-05-1.30030E-07-2.47764E-18 4.12214E-19
 -1       131 8.34545E-05 1.08765E-05-4.01478E-05-4.57669E-07-5.13397E-18-5.11373E-19
 -1       132 8.59416E-05 2.53138E-06-3.78049E-05-6.07834E-07-8.96899E-18 1.02054E-18
 -1       133 8.89619E-05-7.61393E-06-3.49182E-05-5.93462E-07-3.60373E-18 1.83714E-18
 -1       134 9.17988E-05-1.71863E-05-3.21615E-05-4.88680E-07 4.93450E-19-6.49582E-19
 -1       135 9.39537E-05-2.43601E-05-3.00411E-05-4.03792E-07 3.02257E-18 4.85937E-19
 -1       136 9.49880E-05-2.80347E-05-2.87981E-05 1.63511E-07-2.83442E-19 3.04397E-19
 -1       137 2.92783E-05-9.92215E-05 1.78961E-05-2.67289E-05 1.23167E-17 2.60831E-18
 -1       138 8.57687E-06-3.88118E-05 4.50744E-06-2.07542E-05 1.11351E-17 3.76379E-18
 -1       139 1.60338E-05 1.68894E-05-1.71120E-05 3.03047E-05 5.90297E-18 6.25322E-18
 -1       140 6.93765E-05 2.68805E-05-3.87703E-05 8.74133E-05 5.33800E-18 5.98429E-18
 -1       141 1.65359E-04-8.41854E-06-5.96706E-05 1.20277E-04 3.29051E-18 5.01867E-18
 -1       142 2.64066E-04-6.35237E-05-7.46050E-05 9.68581E-05 1.02195E-18 6.65937E-18
 -1       143 3.17514E-04-9.69257E-05-8.14897E-05 2.28878E-05 7.49889E-19 7.55119E-18
 -1       144 2.92175E-04-8.21413E-05-7.79952E-05-6.69170E-05 3.69373E-19 1.41836E-18
 -1       145 2.02673E-04-2.99673E-05-6.54016E-05-1.14698E-04 3.08892E-18-6.23967E-18
 -1       146 9.53731E-05 1.87784E-05-4.52644E-05-9.98726E-05 7.98625E-18-1.08784E-17
 -1       147 2.27899E-05 2.45916E-05-2.22254E-05-4.36377E-05 1.07865E-17-9.05224E-18
 -1       148 5.69186E-06-1.66041E-05-1.92528E-06 7.80588E-06 1.08967E-17-4.97547E-18
 -1       149 2.15362E-05-7.90885E-05 1.44240E-05 2.58376E-05 1.04105E-17-2.67763E-18
 -1       150 3.78231E-05-1.16799E-04 2.18821E-05 7.64018E-06 4.50786E-18-1.33982E-18
 -1       151 3.31453E-05-1.08164E-04 2.03376E-05-2.21708E-05-2.75053E-18-5.92914E-19
 -1       152 1.33022E-05-5.83246E-05 9.67319E-06-2.83115E-05-1.03469E-17-5.29343E-18
 -1       153 5.18226E-06-3.59329E-06-6.67855E-06 7.67737E-07-1.40654E-17-1.00738E-17
 -1       154 3.63553E-05 2.50486E-05-2.74723E-05 5.64740E-05-1.07823E-17-9.98948E-18
 -1       155 1.20341E-04 6.83203E-06-4.99114E-05 1.05000E-04-6.74281E-18-1.07560E-17
 -1       156 2.24478E-04-4.32892E-05-6.80978E-05 1.05742E-04-4.41378E-18-8.88114E-18
 -1       157 3.09961E-04-9.13750E-05-8.05080E-05 5.07332E-05-7.51960E-19-1.27923E-18
 -1       158 3.22111E-04-9.78177E-05-8.22655E-05-3.94145E-05-9.31524E-19 6.11886E-18
 -1       159 2.55593E-04-5.60986E-05-7.39336E-05-1.07294E-04-3.51180E-18 1.09000E-17
 -1       160 6.01572E-05 2.92911E-05-3.66811E-05-8.20190E-05-6.42263E-18 7.37639E-18
 -1       161 1.08890E-05 1.35543E-05-1.44763E-05-2.15199E-05-4.16486E-18 2.62792E-18
 -1       162 9.67102E-06-4.22812E-05 5.03164E-06 2.18791E-05-8.89130E-18 2.44560E-18
 -1       163 3.05595E-05-1.03368E-04 1.88378E-05 2.72105E-05-4.40584E-18 2.61998E-18
 -1       164 9.48723E-05-1.23490E-05-3.55702E-05-2.23476E-05-3.23915E-18 1.93923E-18
 -1       165 8.92453E-05-8.45168E-06-3.47884E-05-1.73849E-05-3.16378E-18-1.61373E-18
 -1       166 8.65557E-05-6.51009E-06-3.44161E-05-1.35934E-05-2.62461E-18-3.66426E-18
 -1       167 8.51906E-05-5.51432E-06-3.42301E-05-1.03668E-05-2.05640E-18-4.81970E-18
 -1       168 8.44458E-05-4.94426E-06-3.41412E-05-7.54653E-06-1.50482E-18-5.33915E-18
 -1       169 8.40182E-05-4.59903E-06-3.40985E-05-4.90324E-06-1.03697E-18-5.59051E-18
 -1       170 8.37998E-05-4.41475E-06-3.40803E-05-2.39500E-06-4.60305E-19-5.60434E-18
 -1       171 8.37354E-05-4.35902E-06-3.40755E-05 5.11638E-08 2.01108E-20-5.63987E-18
 -1       172 8.38098E-05-4.42323E-06-3.40811E-05 2.49940E-06 5.00429E-19-5.52288E-18
 -1       173 8.40404E-05-4.61840E-06-3.41000E-05 5.01424E-06 1.01552E-18-5.43731E-18
 -1       174 8.44737E-05-4.97149E-06-3.41420E-05 7.62339E-06 1.49716E-18-5.06806E-18
 -1       175 8.52504E-05-5.57403E-06-3.42320E-05 1.05123E-05 2.20133E-18-4.45308E-18
 -1       176 8.66476E-05-6.60850E-06-3.44187E-05 1.37831E-05 2.79851E-18-3.41476E-18
 -1       177 8.93940E-05-8.60050E-06-3.47928E-05 1.76226E-05 3.26750E-18-1.25283E-18
 -1       178 9.57832E-05-1.36147E-05-3.54265E-05 2.18937E-05 3.20078E-18 2.78563E-18
 -1       179 1.05610E-04-2.61035E-05-3.52643E-05 1.86630E-05 2.50210E-18 8.26508E-18
 -1       180 1.03404E-04-2.73037E-05-3.26121E-05-1.21280E-05-2.72922E-18 6.09596E-18
 -1       181 9.71136E-05-2.82909E-05-2.95306E-05-4.73043E-06-2.38559E-18 4.55426E-18
 -1       182 9.35139E-05-2.76389E-05-2.81840E-05-1.76808E-06-1.76863E-18 3.37236E-18
 -1       183 9.19791E-05-2.74080E-05-2.76379E-05-4.20464E-07-1.35418E-18 2.31761E-18
 -1       184 9.14036E-05-2.73329E-05-2.74406E-05 2.43195E-07-9.64381E-19 1.58586E-18
 -1       185 9.13618E-05-2.73719E-05-2.74157E-05 5.68711E-07-6.53864E-19 1.00202E-18
 -1       186 9.16052E-05-2.74746E-05-2.74806E-05 7.06935E-07-7.63142E-19 3.55029E-19
 -1       187 9.19881E-05-2.76066E-05-2.75903E-05 7.36937E-07-5.68378E-19-1.55810E-20
 -1       188 9.24236E-05-2.77466E-05-2.77181E-05 7.04726E-07-4.93810E-19-9.76139E-20
 -1       189 9.28598E-05-2.78818E-05-2.78478E-05 6.38895E-07-3.88474E-19-6.47147E-20
 -1       190 9.32674E-05-2.80051E-05-2.79700E-05 5.57845E-07-4.30951E-19-1.10597E-18
 -1       191 9.36317E-05-2.81132E-05-2.80800E-05 4.73566E-07-1.61756E-19-1.07492E-18
 -1       192 9.39478E-05-2.82055E-05-2.81759E-05 3.93876E-07-4.07366E-20-1.64206E-18
 -1       193 9.42172E-05-2.82829E-05-2.82581E-05 3.23886E-07-4.48200E-19-1.72695E-18
 -1       194 9.44460E-05-2.83475E-05-2.83284E-05 2.67037E-07-6.37097E-19-1.77217E-18
 -1       195 9.46434E-05-2.84022E-05-2.83893E-05 2.25887E-07-1.72193E-19-1.91550E-18
 -1       196 9.48213E-05-2.84506E-05-2.84446E-05 2.02707E-07-2.26525E-19-1.87150E-18
 -1       197 9.49937E-05-2.84966E-05-2.84985E-05 1.99983E-07-4.40467E-19-2.30111E-18
 -1       198 9.51771E-05-2.85451E-05-2.85560E-05 2.20821E-07-1.85278E-19-2.41197E-18
 -1       199 9.53910E-05-2.86015E-05-2.86231E-05 2.69309E-07 2.26350E-19-3.06770E-18
 -1       200 9.56585E-05-2.86724E-05-2.87069E-05 3.50837E-07-1.08492E-19-2.98284E-18
 -1       201 9.60071E-05-2.87655E-05-2.88158E-05 4.72378E-07-2.41066E-19-2.84108E-18
 -1       202 9.64697E-05-2.88901E-05-2.89600E-05 6.42698E-07 1.90700E-19-1.98904E-18
 -1       203 9.70858E-05-2.90576E-05-2.91515E-05 8.72422E-07 7.70476E-19-1.42206E-18
 -1       204 9.79019E-05-2.92814E-05-2.94045E-05 1.17376E-06-4.01079E-20-1.18903E-18
 -1       205 9.89718E-05-2.95776E-05-2.97353E-05 1.55951E-06-6.44486E-19-1.51308E-18
 -1       206 1.00355E-04-2.99647E-05-3.01617E-05 2.04061E-06-6.17466E-19-2.56788E-18
 -1       207 1.02114E-04-3.04641E-05-3.07014E-05 2.62087E-06-5.33644E-19-3.02464E-18
 -1       208 1.04304E-04-3.10986E-05-3.13686E-05 3.28669E-06 7.00693E-19-2.50797E-18
 -1       209 1.06956E-04-3.18909E-05-3.21678E-05 3.98827E-06 5.26608E-20-3.02753E-18
 -1       210 1.10048E-04-3.28592E-05-3.30825E-05 4.60893E-06-4.68883E-20-2.28920E-18
 -1       211 1.13460E-04-3.40070E-05-3.40596E-05 4.92182E-06-5.77654E-19-2.79181E-18
 -1       212 1.16904E-04-3.53007E-05-3.49892E-05 4.54803E-06-1.19274E-18-3.89743E-18
 -1       213 1.19853E-04-3.66210E-05-3.56935E-05 2.96501E-06-3.21985E-19-2.55157E-18
 -1       214 1.21492E-04-3.76746E-05-3.59435E-05-3.23382E-07-1.49829E-19-3.07922E-18
 -1       215 1.20795E-04-3.78979E-05-3.55395E-05-5.30591E-06 4.39465E-20-3.68864E-18
 -1       216 1.16912E-04-3.65330E-05-3.44493E-05-1.07152E-05 3.64843E-19-3.41713E-18
 -1       217 1.10035E-04-3.32097E-05-3.29327E-05-1.36974E-05 7.54078E-19-1.61274E-18
 -1       218 1.02344E-04-2.89630E-05-3.14852E-05-1.12287E-05-1.19855E-18-2.56791E-18
 -1       219 9.75604E-05-2.63413E-05-3.05818E-05-3.32842E-06-1.68009E-18-4.21079E-18
 -1       220 9.80897E-05-2.71635E-05-3.04439E-05 5.49300E-06-5.07293E-20-5.06055E-18
 -1       221 1.02593E-04-3.03849E-05-3.09607E-05 9.90306E-06 1.18370E-18-4.78722E-18
 -1       222 1.07442E-04-3.34181E-05-3.17228E-05 8.40540E-06-3.33939E-19-1.70144E-18
 -1       223 1.09816E-04-3.46257E-05-3.22261E-05 3.44847E-06 2.16872E-18-1.08741E-19
 -1       224 1.09048E-04-3.40367E-05-3.21579E-05-1.67581E-06 2.46431E-18 1.25783E-19
 -1       225 1.05938E-04-3.23863E-05-3.15334E-05-4.94259E-06 8.50606E-20-2.18975E-18
 -1       226 1.01796E-04-3.03481E-05-3.06268E-05-5.67983E-06 4.12698E-19-1.40160E-18
 -1       227 9.78154E-05-2.84102E-05-2.97488E-05-3.97729E-06-6.07413E-19-1.19305E-18
 -1       228 9.95070E-05-2.85564E-05-3.05890E-05 7.21080E-06 2.48785E-18 6.98632E-18
 -1       229 9.44235E-05-2.77928E-05-2.85266E-05 2.74317E-06 1.94962E-18 5.03103E-18
 -1       230 9.21044E-05-2.74034E-05-2.76839E-05 9.29153E-07 1.50179E-18 3.58424E-18
 -1       231 9.11566E-05-2.72411E-05-2.73654E-05 6.71165E-08 1.08281E-18 2.60992E-18
 -1       232 9.09457E-05-2.72342E-05-2.72914E-05-3.60664E-07 5.19203E-19 1.67542E-18
 -1       233 9.11298E-05-2.73203E-05-2.73402E-05-5.61194E-07 3.51483E-19 1.12192E-18
 -1       234 9.15134E-05-2.74534E-05-2.74507E-05-6.33732E-07 4.58259E-19 1.02885E-18
 -1       235 9.19817E-05-2.76043E-05-2.75884E-05-6.32286E-07 3.53855E-19 6.30783E-19
 -1       236 9.24663E-05-2.77551E-05-2.77324E-05-5.89150E-07 6.22994E-19 2.33348E-19
 -1       237 9.29279E-05-2.78958E-05-2.78705E-05-5.24703E-07 3.80694E-19 2.81370E-19
 -1       238 9.33456E-05-2.80213E-05-2.79960E-05-4.52142E-07 5.32304E-19-1.29614E-20
 -1       239 9.37104E-05-2.81296E-05-2.81062E-05-3.80063E-07 5.56966E-19-5.64930E-19
 -1       240 9.40219E-05-2.82209E-05-2.82006E-05-3.14062E-07 9.27768E-19-1.34812E-18
 -1       241 9.42847E-05-2.82972E-05-2.82805E-05-2.57804E-07 4.00449E-19-1.59654E-18
 -1       242 9.45072E-05-2.83609E-05-2.83485E-05-2.13798E-07-3.76590E-19-1.11381E-18
 -1       243 9.47007E-05-2.84156E-05-2.84079E-05-1.83969E-07-8.61476E-20-1.62684E-18
 -1       244 9.48785E-05-2.84652E-05-2.84627E-05-1.70091E-07 5.57135E-19-1.58687E-18
 -1       245 9.50559E-05-2.85143E-05-2.85176E-05-1.74099E-07 3.81089E-19-1.31893E-18
 -1       246 9.52506E-05-2.85680E-05-2.85778E-05-1.98292E-07-3.38008E-19-1.41154E-18
 -1       247 9.54825E-05-2.86322E-05-2.86496E-05-2.45418E-07-8.53607E-19-1.35843E-18
 -1       248 9.57742E-05-2.87135E-05-2.87396E-05-3.18608E-07 1.26234E-19-1.36755E-18
 -1       249 9.61511E-05-2.88196E-05-2.88554E-05-4.21109E-07 1.07313E-18-1.41396E-18
 -1       250 9.66406E-05-2.89588E-05-2.90055E-05-5.55702E-07 4.01506E-19-2.32628E-18
 -1       251 9.72714E-05-2.91402E-05-2.91980E-05-7.23690E-07-3.69437E-20-2.87384E-18
 -1       252 9.80710E-05-2.93729E-05-2.94411E-05-9.23236E-07 1.39305E-20-2.37910E-18
 -1       253 9.90614E-05-2.96650E-05-2.97407E-05-1.14683E-06 4.47538E-19-2.00451E-18
 -1       254 1.00252E-04-3.00221E-05-3.00986E-05-1.37760E-06 2.88496E-19-2.35859E-18
 -1       255 1.01631E-04-3.04443E-05-3.05094E-05-1.58445E-06-1.08442E-18-2.54822E-18
 -1       256 1.03148E-04-3.09223E-05-3.09559E-05-1.71636E-06 2.39867E-19-3.01304E-18
 -1       257 1.04701E-04-3.14317E-05-3.14040E-05-1.69760E-06-3.33318E-19-2.56791E-18
 -1       258 1.06113E-04-3.19259E-05-3.17978E-05-1.42773E-06-1.54204E-18-1.08189E-18
 -1       259 1.07124E-04-3.23284E-05-3.20582E-05-7.94232E-07-3.97394E-20-1.11644E-18
 -1       260 1.07399E-04-3.25277E-05-3.20883E-05 2.91591E-07 6.87974E-19-5.75418E-19
 -1       261 1.06574E-04-3.23824E-05-3.17932E-05 1.82568E-06 4.56513E-19-1.56864E-19
 -1       262 1.04369E-04-3.17510E-05-3.11155E-05 3.61736E-06 1.64244E-18-1.03954E-18
 -1       263 1.00762E-04-3.05595E-05-3.00803E-05 5.22054E-06 1.38901E-18-1.99495E-18
 -1       264 9.61736E-05-2.89045E-05-2.88289E-05 5.99424E-06-8.99865E-19-2.11039E-18
 -1       265 9.15232E-05-2.71262E-05-2.76075E-05 5.37493E-06 9.89622E-20-2.13092E-18
 -1       266 8.80035E-05-2.57500E-05-2.66961E-05 3.28629E-06-6.81431E-20-1.81020E-18
 -1       267 8.65597E-05-2.52356E-05-2.62961E-05 3.74724E-07-1.30898E-18-7.29208E-19
 -1       268 8.73708E-05-2.56838E-05-2.64410E-05-2.25072E-06 1.04969E-18-1.61384E-18
 -1       269 8.97451E-05-2.67622E-05-2.69841E-05-3.65801E-06-5.40563E-20-2.53641E-18
 -1       270 9.25389E-05-2.79333E-05-2.76733E-05-3.59977E-06 1.38841E-18-2.37669E-18
 -1       271 9.47547E-05-2.87667E-05-2.82677E-05-2.50632E-06-5.43525E-19-2.39174E-18
 -1       272 9.59133E-05-2.90952E-05-2.86304E-05-1.11472E-06-7.58544E-19-9.74313E-19
 -1       273 9.60923E-05-2.89995E-05-2.87563E-05-8.18385E-08-3.40959E-19 2.74416E-19
 -1       274 9.57200E-05-2.87002E-05-2.87276E-05 2.48820E-07-8.80482E-19-3.37641E-19
 -1       275 9.53256E-05-2.85046E-05-2.86309E-05 5.97439E-09 1.27220E-18-6.67516E-19
 -1       276 9.53631E-05-2.82501E-05-2.87528E-05 3.35145E-07 6.56039E-19 3.66129E-18
 -1       277 9.53481E-05-2.74300E-05-2.90936E-05 1.54400E-06 2.06180E-18 4.90275E-19
 -1       278 9.49953E-05-2.56046E-05-2.97267E-05 3.49800E-06-9.99142E-19-1.84446E-18
 -1       279 9.41064E-05-2.23586E-05-3.07397E-05 5.92859E-06-3.63626E-19-1.68476E-18
 -1       280 9.25526E-05-1.76474E-05-3.21010E-05 8.20040E-06-3.18287E-18-5.73236E-18
 -1       281 9.03114E-05-1.16492E-05-3.37217E-05 9.47145E-06-3.89193E-18-3.08661E-18
 -1       282 8.77633E-05-5.41628E-06-3.53106E-05 8.76587E-06-4.09312E-18 1.36182E-18
 -1       283 8.55947E-05-4.34129E-07-3.65218E-05 5.67672E-06-2.01239E-18 2.52743E-18
 -1       284 8.45701E-05 1.81889E-06-3.70500E-05 7.84728E-07-1.29056E-18-5.90210E-20
 -1       285 8.51125E-05 5.75876E-07-3.67486E-05-4.42623E-06-2.95117E-18-8.64993E-19
 -1       286 8.69607E-05-3.68060E-06-3.57110E-05-8.25666E-06-6.69454E-20-1.04192E-18
 -1       287 8.94997E-05-9.82418E-06-3.41580E-05-9.90724E-06 5.74493E-19 1.53638E-18
 -1       288 9.19797E-05-1.62560E-05-3.24525E-05-9.35454E-06-8.09492E-19 1.99128E-18
 -1       289 9.40459E-05-2.18311E-05-3.09429E-05-7.11887E-06-1.31538E-20 1.35661E-18
 -1       290 9.59629E-05-2.55782E-05-3.01510E-05-6.16456E-06-5.75027E-19-2.47076E-18
 -1       291 1.39641E-05-5.21319E-05 1.30271E-05 9.78196E-06 3.40783E-18 1.36521E-18
 -1       292 2.95759E-05-5.02088E-05 5.77081E-06 2.33255E-05 4.40436E-18 1.17637E-18
 -1       293 6.82033E-05-4.67121E-05-1.03800E-05 4.25393E-05 3.94188E-18 1.53128E-18
 -1       294 9.93517E-05-3.35508E-05-2.83005E-05 4.77947E-05 3.47135E-18 1.04778E-18
 -1       295 1.47591E-04-3.72563E-05-4.61746E-05 4.19339E-05 1.63710E-18 1.66273E-18
 -1       296 1.85715E-04-3.33222E-05-6.24270E-05 4.15361E-05 1.67877E-18 4.10747E-18
 -1       297 2.09748E-04-3.49834E-05-7.15216E-05 1.99642E-05 6.14522E-19 2.55243E-18
 -1       298 2.06799E-04-3.13635E-05-7.22624E-05-3.75990E-06 2.36767E-18 4.46969E-19
 -1       299 1.97613E-04-3.54462E-05-6.64412E-05-3.08852E-05 2.63433E-18 1.78936E-19
 -1       300 1.57931E-04-3.38277E-05-5.16416E-05-4.01751E-05 4.06327E-18 3.21025E-19
 -1       301 1.10496E-04-3.28272E-05-3.30867E-05-4.64030E-05 3.41862E-18-2.85302E-18
 -1       302 6.78067E-05-3.72111E-05-1.43178E-05-3.97292E-05 2.23977E-18-3.13000E-18
 -1       303 3.57342E-05-4.38402E-05 1.31661E-06-2.88200E-05 2.03966E-18-1.18402E-18
 -1       304 1.51770E-05-4.60402E-05 1.08155E-05-1.54809E-05-6.77626E-20-3.05017E-18
 -1       305 1.20950E-05-5.47475E-05 1.47208E-05 6.87181E-07 2.50139E-20-4.04691E-18
 -1       306 2.15855E-05-4.85126E-05 8.75035E-06 1.63402E-05-2.56344E-18-4.81581E-18
 -1       307 4.37437E-05-4.36851E-05-2.43587E-06 2.68104E-05-3.29941E-18-4.08225E-18
 -1       308 7.80868E-05-3.74405E-05-1.85955E-05 3.81493E-05-4.35121E-18-2.96610E-18
 -1       309 1.23212E-04-3.45244E-05-3.75181E-05 4.41319E-05-3.82329E-18-4.10409E-18
 -1       310 1.69817E-04-3.73612E-05-5.48526E-05 3.54605E-05-3.23260E-18-1.48019E-18
 -1       311 1.94171E-04-3.35986E-05-6.65824E-05 1.10985E-05-3.44393E-18 5.63277E-19
 -1       312 2.22948E-04-3.90149E-05-7.47104E-05-1.99459E-06-2.89908E-18 1.50737E-18
 -1       313 2.14122E-04-3.72485E-05-7.18518E-05-2.54837E-05-2.39647E-18 1.59200E-18
 -1       314 1.81197E-04-3.49234E-05-6.03619E-05-3.63831E-05-1.82578E-18 2.80664E-18
 -1       315 1.42377E-04-3.48801E-05-4.48391E-05-4.78563E-05-9.27925E-19 4.27434E-18
 -1       316 9.52329E-05-3.51426E-05-2.61403E-05-4.69458E-05-1.48188E-18 2.64846E-18
 -1       317 5.64705E-05-4.24441E-05-8.01038E-06-3.60849E-05-3.39914E-18 2.00006E-19
 -1       318 2.96212E-05-4.93710E-05 5.68849E-06-2.51673E-05 7.06849E-19 1.95246E-18
 -1       319 1.47643E-05-5.73072E-05 1.43023E-05-6.67351E-06 3.01216E-18 6.42750E-18
 -1       320 9.16335E-05-1.44457E-05-3.31582E-05-1.29817E-05-3.33328E-18-1.71818E-18
 -1       321 9.57137E-05-1.91123E-05-3.28917E-05-1.46354E-05-3.51284E-18 3.19987E-19
 -1       322 8.80025E-05-1.03750E-05-3.33241E-05-8.15349E-06-2.18931E-18-3.88614E-18
 -1       323 8.71879E-05-9.45365E-06-3.33632E-05-5.71764E-06-1.63125E-18-4.17453E-18
 -1       324 8.67283E-05-8.92414E-06-3.33896E-05-3.36689E-06-9.20823E-19-4.28393E-18
 -1       325 8.65232E-05-8.68439E-06-3.34030E-05-1.07250E-06-2.85462E-19-4.33649E-18
 -1       326 8.65319E-05-8.69391E-06-3.34027E-05 1.20338E-06 3.91752E-19-4.28469E-18
 -1       327 8.67559E-05-8.95482E-06-3.33884E-05 3.49983E-06 9.05422E-19-4.25320E-18
 -1       328 8.72281E-05-9.49881E-06-3.33612E-05 5.81467E-06 1.57470E-18-3.99289E-18
 -1       329 8.80674E-05-1.04501E-05-3.33199E-05 8.25381E-06 2.30033E-18-3.42842E-18
 -1       330 8.94829E-05-1.20332E-05-3.32593E-05 1.07625E-05 2.97802E-18-2.69449E-18
 -1       331 9.19039E-05-1.47227E-05-3.31588E-05 1.31679E-05 3.53044E-18-1.42930E-18
 -1       332 9.58084E-05-1.94585E-05-3.28292E-05 1.43749E-05 3.65416E-18 1.01455E-18
 -1       333 9.87964E-05-2.44459E-05-3.19527E-05 1.18972E-05 3.30117E-18 3.36286E-18
 -1       334 9.63958E-05-2.68140E-05-2.97913E-05 5.74035E-06 2.80585E-18 2.36981E-18
 -1       335 9.64419E-05-2.60308E-05-3.01317E-05-6.34451E-06-2.63431E-18 5.96501E-19
 -1       336 9.49221E-05-2.70289E-05-2.90717E-05-2.83326E-06-2.08323E-18 2.41335E-19
 -1       337 9.39464E-05-2.74270E-05-2.84937E-05-9.21687E-07-1.47298E-18-3.16752E-20
 -1       338 9.34275E-05-2.76399E-05-2.81881E-05 1.37667E-07-1.19063E-18-3.30933E-19
 -1       339 9.32351E-05-2.77932E-05-2.80438E-05 7.01497E-07-9.95635E-19-5.98955E-19
 -1       340 9.32514E-05-2.79228E-05-2.79970E-05 9.68015E-07-9.39695E-19-8.61902E-19
 -1       341 9.33893E-05-2.80373E-05-2.80080E-05 1.05444E-06-5.57258E-19-9.17500E-19
 -1       342 9.35896E-05-2.81380E-05-2.80511E-05 1.03369E-06-6.49513E-19-1.10576E-18
 -1       343 9.38135E-05-2.82247E-05-2.81102E-05 9.52934E-07-7.69818E-19-1.15739E-18
 -1       344 9.40370E-05-2.82974E-05-2.81749E-05 8.43328E-07-3.03003E-19-1.45964E-18
 -1       345 9.42468E-05-2.83568E-05-2.82393E-05 7.25632E-07-5.52107E-19-1.73486E-18
 -1       346 9.44368E-05-2.84043E-05-2.83003E-05 6.13742E-07-2.84029E-19-1.85448E-18
 -1       347 9.46063E-05-2.84416E-05-2.83568E-05 5.17102E-07-5.51282E-19-1.78738E-18
 -1       348 9.47582E-05-2.84705E-05-2.84094E-05 4.42441E-07-1.98730E-19-2.02324E-18
 -1       349 9.48981E-05-2.84932E-05-2.84595E-05 3.95090E-07 7.42236E-20-1.68818E-18
 -1       350 9.50341E-05-2.85119E-05-2.85095E-05 3.79995E-07-3.76161E-19-1.30166E-18
 -1       351 9.51760E-05-2.85288E-05-2.85628E-05 4.02538E-07-2.60321E-19-1.26441E-18
 -1       352 9.53359E-05-2.85468E-05-2.86234E-05 4.69199E-07-7.52710E-19-1.91530E-18
 -1       353 9.55280E-05-2.85685E-05-2.86960E-05 5.88110E-07-3.61892E-19-2.86668E-18
 -1       354 9.57688E-05-2.85975E-05-2.87864E-05 7.69492E-07 4.26420E-19-2.69639E-18
 -1       355 9.60779E-05-2.86376E-05-2.89011E-05 1.02596E-06 3.57735E-19-1.73761E-18
 -1       356 9.64778E-05-2.86938E-05-2.90478E-05 1.37258E-06 6.19741E-19-1.80942E-18
 -1       357 9.69943E-05-2.87724E-05-2.92348E-05 1.82652E-06 6.72653E-19-2.51628E-18
 -1       358 9.76563E-05-2.88814E-05-2.94710E-05 2.40581E-06-4.52677E-19-2.56993E-18
 -1       359 9.84959E-05-2.90325E-05-2.97652E-05 3.12657E-06-9.84194E-19-2.42140E-18
 -1       360 9.95472E-05-2.92434E-05-3.01246E-05 3.99731E-06-4.77316E-19-1.23510E-18
 -1       361 1.00846E-04-2.95425E-05-3.05528E-05 5.00824E-06-3.59840E-20-3.59124E-19
 -1       362 1.02432E-04-2.99773E-05-3.10464E-05 6.11244E-06 1.85704E-19-9.44099E-19
 -1       363 1.04345E-04-3.06269E-05-3.15901E-05 7.19497E-06-1.71496E-19-2.07948E-18
 -1       364 1.06636E-04-3.16156E-05-3.21528E-05 8.02721E-06-2.09949E-19-2.13728E-18
 -1       365 1.09361E-04-3.31156E-05-3.26860E-05 8.21063E-06-4.56128E-19-4.91489E-19
 -1       366 1.12560E-04-3.52972E-05-3.31333E-05 7.13664E-06-1.01157E-18 5.87951E-19
 -1       367 1.16150E-04-3.81516E-05-3.34604E-05 4.03908E-06-5.04972E-19 1.97517E-19
 -1       368 1.19660E-04-4.10910E-05-3.37109E-05-1.69198E-06-9.49656E-19-3.81334E-19
 -1       369 1.21864E-04-4.24750E-05-3.40645E-05-9.67592E-06 2.18419E-19-1.08919E-19
 -1       370 1.20912E-04-3.98943E-05-3.47699E-05-1.72858E-05 8.52442E-19-1.06192E-19
 -1       371 1.15961E-04-3.24723E-05-3.58658E-05-1.94018E-05-5.32969E-19-6.11149E-19
 -1       372 1.09921E-04-2.43357E-05-3.68066E-05-1.19386E-05-1.31853E-18 1.73531E-19
 -1       373 1.08038E-04-2.26157E-05-3.67512E-05 1.72709E-06-1.58435E-18 1.30764E-18
 -1       374 1.11587E-04-2.89251E-05-3.55347E-05 1.19209E-05-3.77611E-19 2.33219E-19
 -1       375 1.15730E-04-3.67655E-05-3.39005E-05 1.27619E-05 2.42498E-18-1.58285E-18
 -1       376 1.16418E-04-4.04588E-05-3.25898E-05 6.36983E-06 2.17937E-18 3.59066E-19
 -1       377 1.13479E-04-3.94536E-05-3.17623E-05-1.64634E-06 1.43797E-18 1.82498E-19
 -1       378 1.08733E-04-3.59379E-05-3.12243E-05-7.55706E-06-5.02201E-19-3.08556E-19
 -1       379 1.03675E-04-3.17625E-05-3.08308E-05-1.00327E-05-8.40782E-19-1.16189E-19
 -1       380 9.96102E-05-2.83841E-05-3.05109E-05-9.20378E-06 1.36404E-19-1.19374E-18
 -1       381 9.43762E-05-2.73429E-05-2.86904E-05 2.46792E-06 2.07885E-18 1.62599E-18
 -1       382 9.31701E-05-2.74629E-05-2.81384E-05 7.43072E-07 1.65739E-18 1.10537E-18
 -1       383 9.26161E-05-2.75405E-05-2.78796E-05-1.77748E-07 1.10876E-18 3.62182E-19
 -1       384 9.24739E-05-2.76331E-05-2.77848E-05-6.52946E-07 4.87648E-19-1.00352E-19
 -1       385 9.25756E-05-2.77423E-05-2.77841E-05-8.70032E-07 3.19207E-19-2.78929E-19
 -1       386 9.28096E-05-2.78582E-05-2.78359E-05-9.33941E-07 5.09443E-19-1.44738E-19
 -1       387 9.31041E-05-2.79719E-05-2.79141E-05-9.08020E-07 7.17133E-19-2.50418E-19
 -1       388 9.34143E-05-2.80769E-05-2.80023E-05-8.32428E-07 2.45491E-19-5.81823E-21
 -1       389 9.37134E-05-2.81701E-05-2.80908E-05-7.33364E-07 6.66370E-19 1.09709E-19
 -1       390 9.39872E-05-2.82500E-05-2.81739E-05-6.28112E-07 8.68679E-19-3.06466E-19
 -1       391 9.42300E-05-2.83169E-05-2.82492E-05-5.28122E-07 1.41832E-18-5.13396E-19
 -1       392 9.44420E-05-2.83721E-05-2.83163E-05-4.41044E-07 3.55543E-19-5.44994E-19
 -1       393 9.46273E-05-2.84176E-05-2.83760E-05-3.72174E-07-1.21615E-19-8.84272E-19
 -1       394 9.47931E-05-2.84558E-05-2.84305E-05-3.25511E-07 3.24205E-19-1.43867E-18
 -1       395 9.49489E-05-2.84895E-05-2.84826E-05-3.04535E-07 2.30908E-19-1.33905E-18
 -1       396 9.51063E-05-2.85222E-05-2.85358E-05-3.12775E-07 4.64239E-19-9.03469E-19
 -1       397 9.52787E-05-2.85574E-05-2.85944E-05-3.54159E-07-6.44095E-20-1.13399E-18
 -1       398 9.54815E-05-2.85994E-05-2.86629E-05-4.33177E-07-1.92914E-19-1.16143E-18
 -1       399 9.57322E-05-2.86534E-05-2.87470E-05-5.54769E-07-3.48727E-19-1.86471E-18
 -1       400 9.60504E-05-2.87251E-05-2.88522E-05-7.23879E-07 9.78956E-19-1.39747E-18
 -1       401 9.64572E-05-2.88216E-05-2.89848E-05-9.44535E-07 9.60152E-19-1.09119E-18
 -1       402 9.69748E-05-2.89512E-05-2.91508E-05-1.21824E-06-2.96056E-20-1.53847E-18
 -1       403 9.76246E-05-2.91233E-05-2.93553E-05-1.54141E-06-2.90154E-21-1.64009E-18
 -1       404 9.84251E-05-2.93490E-05-2.96016E-05-1.90155E-06-1.90575E-19-1.81019E-18
 -1       405 9.93873E-05-2.96401E-05-2.98896E-05-2.27183E-06 5.73528E-19-1.57293E-19
 -1       406 1.00509E-04-3.00087E-05-3.02135E-05-2.60408E-06-4.80689E-19-1.44581E-18
 -1       407 1.01768E-04-3.04648E-05-3.05591E-05-2.82084E-06 2.72229E-19-1.31024E-18
 -1       408 1.03108E-04-3.10117E-05-3.09016E-05-2.80883E-06-5.16950E-19-4.65888E-19
 -1       409 1.04429E-04-3.16365E-05-3.12034E-05-2.41934E-06-1.63177E-18-1.55899E-18
 -1       410 1.05573E-04-3.22935E-05-3.14155E-05-1.48566E-06-7.29827E-19-1.09806E-18
 -1       411 1.06311E-04-3.28797E-05-3.14839E-05 1.27511E-07-2.31071E-19-4.17416E-20
 -1       412 1.06356E-04-3.32107E-05-3.13621E-05 2.42904E-06 3.31428E-19 9.55649E-19
 -1       413 1.05401E-04-3.30218E-05-3.10319E-05 5.16561E-06 1.81026E-18 1.47346E-18
 -1       414 1.03249E-04-3.20494E-05-3.05209E-05 7.70753E-06 1.30261E-18 2.52490E-18
 -1       415 1.00016E-04-3.02296E-05-2.99082E-05 9.09879E-06-2.33856E-19 2.44909E-18
 -1       416 9.63242E-05-2.79270E-05-2.93054E-05 8.43014E-06-3.47814E-19 2.22907E-19
 -1       417 9.32438E-05-2.59652E-05-2.88204E-05 5.46227E-06-9.00505E-19 4.50094E-19
 -1       418 9.18084E-05-2.52181E-05-2.85215E-05 1.08454E-06-5.04233E-19 1.75092E-18
 -1       419 9.23377E-05-2.59675E-05-2.84262E-05-3.00418E-06 7.13531E-19 9.26262E-19
 -1       420 9.42049E-05-2.76666E-05-2.85022E-05-5.28844E-06 1.15983E-18 7.85056E-19
 -1       421 9.62919E-05-2.93661E-05-2.86771E-05-5.31180E-06 1.06420E-18 3.85478E-19
 -1       422 9.76891E-05-3.03605E-05-2.88590E-05-3.69593E-06-3.37815E-19 8.22854E-20
 -1       423 9.80403E-05-3.04512E-05-2.89757E-05-1.56068E-06-1.29242E-18 1.49133E-18
 -1       424 9.74875E-05-2.98435E-05-2.89982E-05 9.12466E-08-3.25707E-19 2.23574E-18
 -1       425 9.64883E-05-2.89870E-05-2.89325E-05 7.26531E-07-3.42922E-19 1.96136E-18
 -1       426 9.58986E-05-2.85340E-05-2.88666E-05 6.89531E-07 2.62597E-20 2.70177E-18
 -1       427 9.74796E-05-2.71757E-05-3.01115E-05 7.58578E-06-2.13992E-18-6.13993E-19
 -1       428 9.72451E-05-2.82926E-05-2.95402E-05 4.09184E-06-1.87912E-18-2.68731E-18
 -1       429 9.65016E-05-2.84381E-05-2.91613E-05 1.96546E-06-1.14341E-18 3.20767E-18
 -1       430 9.67114E-05-2.48708E-05-3.07744E-05 1.14621E-05-2.27111E-18-7.28664E-18
 -1       431 9.44585E-05-2.10195E-05-3.14697E-05 1.46370E-05-1.96565E-18-3.53429E-18
 -1       432 9.07334E-05-1.58917E-05-3.20876E-05 1.54062E-05-1.37020E-18 2.89925E-19
 -1       433 8.64469E-05-1.05831E-05-3.25386E-05 1.24260E-05-2.16032E-18 1.73571E-18
 -1       434 8.32489E-05-6.84316E-06-3.27758E-05 5.64886E-06-2.40593E-18 1.84499E-18
 -1       435 8.26995E-05-6.23181E-06-3.28039E-05-3.10121E-06-1.61679E-18-5.44970E-19
 -1       436 8.50311E-05-8.94885E-06-3.26332E-05-1.07533E-05-5.14947E-19 9.43423E-19
 -1       437 8.90745E-05-1.38450E-05-3.22577E-05-1.52332E-05 1.23011E-18 2.67483E-18
 -1       438 9.31063E-05-1.91111E-05-3.17098E-05-1.58301E-05 2.22820E-18 2.85442E-19
 -1       439 9.60287E-05-2.34263E-05-3.10920E-05-1.34941E-05-2.74647E-19 6.97187E-19
 -1       440 6.15394E-05-4.56709E-05-6.80961E-06 4.68934E-05 3.37278E-18 4.65815E-19
 -1       441 1.36802E-05-2.72219E-05 5.45614E-06-4.78886E-07 7.89155E-19 2.49578E-18
 -1       442 3.02932E-05-3.29425E-05 1.03599E-06 3.27598E-05 2.10488E-18 1.36224E-18
 -1       443 1.10542E-04-5.77894E-05-2.26122E-05 4.29637E-05 2.95350E-18-1.15006E-18
 -1       444 1.40027E-04-5.72852E-05-3.54244E-05 2.91976E-05 1.28961E-19-4.50622E-19
 -1       445 8.93633E-05-1.18974E-05-3.32658E-05-1.06469E-05-2.82352E-18-3.12639E-18
 -1       446 1.66905E-04-2.49208E-05-6.04516E-05 4.44620E-06 8.39304E-19 2.66815E-19
 -1       447 1.58949E-04-1.15043E-05-6.32250E-05 1.16203E-06 2.00101E-18-1.61405E-18
 -1       448 1.58438E-04-1.74682E-05-6.05099E-05 5.43467E-06 2.66837E-18-1.75320E-18
 -1       449 1.58944E-04-3.36640E-05-5.36554E-05 4.19896E-07 2.75910E-18-1.49141E-18
 -1       450 1.44783E-04-5.26138E-05-3.95580E-05-1.92349E-05 2.64460E-18 1.42619E-18
 -1       451 1.16159E-04-5.82997E-05-2.48128E-05-3.68046E-05 7.93035E-20-2.08423E-18
 -1       452 7.45347E-05-4.89076E-05-1.10274E-05-4.58117E-05-5.59571E-19-1.10060E-18
 -1       453 3.46194E-05-3.46808E-05-6.67169E-08-3.58425E-05-4.39292E-19-1.84208E-18
 -1       454 1.26918E-05-2.52781E-05 5.29891E-06-7.28346E-06-1.25820E-18-2.75169E-18
 -1       455 1.74527E-05-2.87770E-05 4.57168E-06 1.65112E-05-8.81708E-19-4.65963E-18
 -1       456 4.80382E-05-4.22665E-05-2.73602E-06 3.75955E-05-1.40925E-19-2.64031E-18
 -1       457 9.05517E-05-5.59167E-05-1.48718E-05 4.08037E-05 1.40184E-19-7.03034E-19
 -1       458 1.25779E-04-5.98998E-05-2.83121E-05 2.92853E-05-2.04993E-18-9.36183E-19
 -1       459 1.52573E-04-5.23058E-05-4.28944E-05 1.25693E-05-2.29406E-18-2.67874E-19
 -1       460 1.60519E-04-3.67346E-05-5.32110E-05-7.02618E-06-3.42794E-18 2.23659E-18
 -1       461 1.58370E-04-1.42942E-05-6.18601E-05-7.99833E-06-2.35803E-18 9.71123E-19
 -1       462 1.63782E-04-1.44102E-05-6.38474E-05-2.17618E-06-2.22071E-18 1.20242E-18
 -1       463 1.65541E-04-2.68769E-05-5.92138E-05-1.11056E-06-1.83171E-18 2.18312E-18
 -1       464 1.59034E-04-4.86887E-05-4.73018E-05-9.39214E-06 1.57237E-19 9.44548E-19
 -1       465 1.38556E-04-5.91546E-05-3.40359E-05-3.08897E-05 8.42692E-19 2.40102E-18
 -1       466 1.05799E-04-5.96929E-05-1.98279E-05-4.47905E-05-1.31131E-18-1.04995E-18
 -1       467 6.68450E-05-4.82621E-05-7.93973E-06-4.78195E-05-7.81388E-20 7.65215E-19
 -1       468 2.47063E-05-3.27936E-05 3.05868E-06-2.69507E-05 2.53856E-18 4.74476E-18
 -1       469 1.59611E-04-3.97941E-05-5.11439E-05 1.17617E-05 3.00035E-19 9.19984E-19
 -1       470 1.50488E-04-5.42353E-05-4.14660E-05 9.02154E-06-1.00803E-18-4.90220E-19
 -1       471 9.58689E-05-5.66369E-05-1.66284E-05 4.79812E-05 1.81149E-18-5.45701E-19
 -1       472 1.43905E-04-2.18185E-05-5.28343E-05-1.81212E-05-2.41394E-18 9.09608E-19
 -1       473 2.75277E-05-2.16245E-05-1.97561E-06-2.45062E-05 8.01770E-20-2.53665E-18
 -1       474 9.58227E-05-2.51492E-05-3.02745E-05 6.01679E-06 2.80684E-18-2.86858E-20
 -1       475 8.95382E-05-1.34014E-05-3.26492E-05-3.92487E-06-1.24226E-18-3.66904E-18
 -1       476 9.02431E-05-1.43619E-05-3.25417E-05-5.88548E-06-1.81360E-18-3.60246E-18
 -1       477 8.90401E-05-1.27210E-05-3.27260E-05 5.46023E-08-2.16971E-20-3.79947E-18
 -1       478 8.91755E-05-1.29045E-05-3.27056E-05 2.04561E-06 6.20651E-19-3.89221E-18
 -1       479 8.95705E-05-1.34418E-05-3.26457E-05 3.99818E-06 1.23676E-18-3.66669E-18
 -1       480 9.02949E-05-1.44288E-05-3.25351E-05 5.95204E-06 1.84983E-18-3.15260E-18
 -1       481 9.14431E-05-1.60074E-05-3.23527E-05 7.77931E-06 2.50598E-18-2.66953E-18
 -1       482 9.32333E-05-1.84792E-05-3.20576E-05 9.29449E-06 3.02105E-18-1.85604E-18
 -1       483 9.51156E-05-2.65789E-05-2.93549E-05 2.87302E-06 2.19777E-18-2.74179E-19
 -1       484 9.54675E-05-2.44262E-05-3.04361E-05-5.81149E-06-2.50889E-18-9.60726E-19
 -1       485 1.45997E-04-4.77225E-05-4.24603E-05 5.12049E-06 2.53424E-18-2.96091E-19
 -1       486 9.52670E-05-2.62162E-05-2.95851E-05-2.89508E-06-1.87242E-18-1.09230E-18
 -1       487 9.49193E-05-2.71623E-05-2.90354E-05-1.03152E-06-1.53584E-18-1.07219E-18
 -1       488 9.46431E-05-2.76939E-05-2.86910E-05 9.15401E-08-1.22452E-18-1.20771E-18
 -1       489 9.44865E-05-2.80206E-05-2.84848E-05 7.25657E-07-1.04581E-18-1.33060E-18
 -1       490 9.44309E-05-2.82320E-05-2.83709E-05 1.04271E-06-8.61826E-19-1.22288E-18
 -1       491 9.44461E-05-2.83727E-05-2.83174E-05 1.15772E-06-7.38481E-19-1.30323E-18
 -1       492 9.45052E-05-2.84662E-05-2.83027E-05 1.14868E-06-7.25542E-19-1.38164E-18
 -1       493 9.45875E-05-2.85267E-05-2.83121E-05 1.06883E-06-5.07121E-19-1.12448E-18
 -1       494 9.46792E-05-2.85634E-05-2.83357E-05 9.54545E-07-2.37066E-19-7.43889E-19
 -1       495 9.47719E-05-2.85824E-05-2.83672E-05 8.30745E-07-4.30765E-19-9.34650E-19
 -1       496 9.48612E-05-2.85883E-05-2.84029E-05 7.14555E-07-2.45965E-19-1.30515E-18
 -1       497 9.49457E-05-2.85841E-05-2.84409E-05 6.18034E-07-7.87152E-19-8.28040E-19
 -1       498 9.50264E-05-2.85720E-05-2.84806E-05 5.50191E-07-2.13656E-19-9.20780E-19
 -1       499 9.51060E-05-2.85531E-05-2.85227E-05 5.18530E-07-2.11897E-19-1.13044E-18
 -1       500 9.51886E-05-2.85282E-05-2.85687E-05 5.30252E-07-3.10874E-19-1.52898E-18
 -1       501 9.52795E-05-2.84972E-05-2.86208E-05 5.93205E-07-9.61916E-19-1.54976E-18
 -1       502 9.53850E-05-2.84599E-05-2.86819E-05 7.16622E-07-5.38996E-19-8.83467E-19
 -1       503 9.55122E-05-2.84156E-05-2.87552E-05 9.11683E-07-8.15985E-20-1.54825E-18
 -1       504 9.56693E-05-2.83636E-05-2.88446E-05 1.19188E-06 8.71621E-19-1.93733E-18
 -1       505 9.58651E-05-2.83030E-05-2.89543E-05 1.57311E-06 4.64354E-19-1.33835E-18
 -1       506 9.61090E-05-2.82338E-05-2.90882E-05 2.07341E-06 2.52820E-19-2.05132E-18
 -1       507 9.64109E-05-2.81573E-05-2.92500E-05 2.71200E-06-3.12096E-19-2.88432E-18
 -1       508 9.67812E-05-2.80786E-05-2.94421E-05 3.50719E-06-4.73097E-19-2.39043E-18
 -1       509 9.72327E-05-2.80105E-05-2.96643E-05 4.47254E-06 6.20474E-20-1.87663E-18
 -1       510 9.77832E-05-2.79809E-05-2.99127E-05 5.60985E-06 5.14163E-20-1.69968E-18
 -1       511 9.84650E-05-2.80463E-05-3.01767E-05 6.89754E-06-1.19845E-19-2.90004E-19
 -1       512 9.93406E-05-2.83134E-05-3.04378E-05 8.27185E-06-3.35984E-19-1.52608E-18
 -1       513 1.00534E-04-2.89696E-05-3.06691E-05 9.59771E-06-3.92991E-19-5.48283E-19
 -1       514 1.02272E-04-3.03147E-05-3.08403E-05 1.06250E-05 2.81659E-19-1.80205E-18
 -1       515 1.04931E-04-3.27615E-05-3.09361E-05 1.09245E-05-2.48368E-19-6.07411E-19
 -1       516 1.09010E-04-3.67134E-05-3.09967E-05 9.81030E-06-6.14831E-19 9.43248E-19
 -1       517 1.14903E-04-4.21568E-05-3.11950E-05 6.29104E-06-1.13661E-18 9.23483E-19
 -1       518 1.22193E-04-4.77219E-05-3.19367E-05-7.00234E-07 1.74591E-19 2.07715E-18
 -1       519 1.28479E-04-4.95698E-05-3.38880E-05-1.10552E-05 9.38842E-20 1.05703E-18
 -1       520 1.29452E-04-4.24105E-05-3.75093E-05-2.06710E-05-2.53660E-19 2.60542E-19
 -1       521 1.23935E-04-2.68542E-05-4.19927E-05-2.08618E-05-7.95920E-19 4.44560E-20
 -1       522 1.18305E-04-1.55148E-05-4.46210E-05-7.00465E-06-8.95711E-19 6.46948E-19
 -1       523 1.19958E-04-2.09296E-05-4.30432E-05 1.04073E-05-1.95037E-18-1.13575E-18
 -1       524 1.26719E-04-3.74617E-05-3.85039E-05 1.48306E-05-2.44184E-19-9.63321E-19
 -1       525 1.27338E-04-4.78589E-05-3.41584E-05 7.19126E-06 2.22040E-18-8.49316E-19
 -1       526 1.21588E-04-4.77927E-05-3.16647E-05-3.29357E-06 1.53718E-18-2.45818E-19
 -1       527 1.13451E-04-4.21333E-05-3.05825E-05-1.10205E-05 1.00435E-18-5.97456E-19
 -1       528 1.06054E-04-3.50952E-05-3.04135E-05-1.44336E-05-2.67402E-19-2.71577E-19
 -1       529 5.71443E-05-3.40744E-05-9.29586E-06 4.23197E-05 2.22431E-18 6.94249E-19
 -1       530 9.41453E-05-2.76873E-05-2.84785E-05-1.20434E-07 1.20392E-18-5.46399E-19
 -1       531 9.39690E-05-2.79341E-05-2.82994E-05-7.29509E-07 6.34686E-19-7.43188E-19
 -1       532 9.39387E-05-2.81053E-05-2.82140E-05-1.02682E-06 4.84230E-19-8.87713E-19
 -1       533 9.40019E-05-2.82310E-05-2.81877E-05-1.12960E-06 4.71445E-19-8.34370E-19
 -1       534 9.41180E-05-2.83251E-05-2.81974E-05-1.11448E-06 3.19773E-19-5.29624E-19
 -1       535 9.42586E-05-2.83954E-05-2.82276E-05-1.03264E-06 4.99890E-19-6.07577E-19
 -1       536 9.44053E-05-2.84470E-05-2.82684E-05-9.18581E-07 1.11809E-18-5.68293E-19
 -1       537 9.45473E-05-2.84833E-05-2.83137E-05-7.95649E-07 1.10659E-18-6.06747E-19
 -1       538 9.46796E-05-2.85076E-05-2.83599E-05-6.79704E-07 7.23637E-19-1.08604E-19
 -1       539 9.48009E-05-2.85222E-05-2.84055E-05-5.81701E-07 3.76937E-19-1.99444E-19
 -1       540 9.49130E-05-2.85292E-05-2.84504E-05-5.09571E-07 4.09365E-19-2.68446E-19
 -1       541 9.50199E-05-2.85305E-05-2.84956E-05-4.69607E-07 3.31742E-19-3.04082E-19
 -1       542 9.51274E-05-2.85277E-05-2.85427E-05-4.67465E-07 2.93173E-19-1.30258E-19
 -1       543 9.52428E-05-2.85226E-05-2.85942E-05-5.08854E-07-2.38260E-19-1.57905E-19
 -1       544 9.53747E-05-2.85170E-05-2.86529E-05-5.99929E-07-5.34801E-19-2.73711E-19
 -1       545 9.55334E-05-2.85134E-05-2.87223E-05-7.47341E-07 2.63782E-19-6.06649E-20
 -1       546 9.57305E-05-2.85154E-05-2.88057E-05-9.57883E-07 3.24234E-19-1.49737E-18
 -1       547 9.59793E-05-2.85279E-05-2.89067E-05-1.23760E-06 2.08819E-19-1.35382E-18
 -1       548 9.62945E-05-2.85583E-05-2.90285E-05-1.59018E-06 1.64554E-19-2.39049E-19
 -1       549 9.66925E-05-2.86175E-05-2.91736E-05-2.01433E-06 7.69459E-20-4.10327E-20
 -1       550 9.71910E-05-2.87211E-05-2.93427E-05-2.49984E-06 4.29810E-19-1.14644E-18
 -1       551 9.78091E-05-2.88917E-05-2.95346E-05-3.02207E-06 3.88320E-21-2.13820E-18
 -1       552 9.85667E-05-2.91604E-05-2.97444E-05-3.53449E-06 1.24505E-19-2.19647E-18
 -1       553 9.94838E-05-2.95681E-05-2.99635E-05-3.95962E-06-7.24355E-20-1.38472E-18
 -1       554 1.00578E-04-3.01634E-05-3.01787E-05-4.17969E-06-9.88969E-19-4.28070E-19
 -1       555 1.01859E-04-3.09934E-05-3.03738E-05-4.03031E-06-4.93948E-19 1.75754E-19
 -1       556 1.03310E-04-3.20795E-05-3.05327E-05-3.30485E-06-8.95638E-19-1.02029E-18
 -1       557 1.04859E-04-3.33708E-05-3.06460E-05-1.78366E-06-1.08974E-18-1.80623E-18
 -1       558 1.06328E-04-3.46718E-05-3.07202E-05 6.90741E-07-5.87170E-19-1.24837E-18
 -1       559 1.07376E-04-3.55683E-05-3.07845E-05 4.07098E-06 1.06405E-18 4.96552E-19
 -1       560 1.07497E-04-3.54346E-05-3.08913E-05 7.89193E-06 2.83172E-19 2.09951E-18
 -1       561 1.06202E-04-3.36736E-05-3.10865E-05 1.10899E-05 7.46558E-19 1.59049E-18
 -1       562 1.03472E-04-3.02877E-05-3.13647E-05 1.21684E-05 3.15425E-19 1.12030E-18
 -1       563 1.00153E-04-2.63511E-05-3.16264E-05 9.93161E-06 3.55315E-19 2.26108E-18
 -1       564 9.78527E-05-2.38547E-05-3.17095E-05 4.62854E-06-1.55804E-18 2.43855E-19
 -1       565 9.77471E-05-2.42316E-05-3.15005E-05-1.60317E-06 6.74693E-19-4.10677E-20
 -1       566 9.95808E-05-2.71548E-05-3.10310E-05-6.00727E-06 8.18252E-19 1.00677E-18
 -1       567 1.01804E-04-3.06868E-05-3.04732E-05-7.08519E-06 8.98422E-19 1.29043E-18
 -1       568 1.03013E-04-3.30501E-05-2.99867E-05-5.31450E-06 1.15162E-18 1.31489E-18
 -1       569 1.02657E-04-3.34970E-05-2.96473E-05-2.25655E-06-6.29034E-19 2.04119E-19
 -1       570 1.01028E-04-3.23336E-05-2.94500E-05 4.94155E-07-8.20810E-19-3.73731E-19
 -1       571 9.87774E-05-3.03618E-05-2.93237E-05 2.02508E-06-1.60998E-18 7.88766E-19
 -1       572 1.00240E-04-2.97710E-05-3.01940E-05 1.64018E-05 5.37846E-19-5.65073E-18
 -1       573 9.57372E-05-2.57964E-05-2.99677E-05 2.00434E-05 1.35011E-18-1.38044E-18
 -1       574 1.00960E-04-3.13460E-05-2.98229E-05 6.36619E-06-1.30358E-18-1.15917E-18
 -1       575 1.01654E-04-3.13601E-05-3.01145E-05 1.12326E-05-2.88637E-18-2.04945E-18
 -1       576 8.86140E-05-1.97974E-05-2.94942E-05 1.95183E-05-3.96494E-19 3.75575E-19
 -1       577 8.11285E-05-1.35773E-05-2.89506E-05 1.31905E-05-1.76462E-18 1.62729E-18
 -1       578 7.72671E-05-1.03695E-05-2.86626E-05 2.01506E-06-1.95629E-18 1.38423E-18
 -1       579 7.91911E-05-1.19175E-05-2.88235E-05-9.88871E-06 6.67208E-19 6.43398E-19
 -1       580 8.56235E-05-1.71468E-05-2.93498E-05-1.81919E-05 1.31964E-18 2.15448E-18
 -1       581 9.29892E-05-2.31814E-05-2.99143E-05-2.07504E-05 1.99391E-18 2.71195E-18
 -1       582 9.83994E-05-2.75909E-05-3.03623E-05-1.83978E-05 4.29671E-19-1.26414E-18
 -1       583 5.30579E-05-3.25735E-05-8.23602E-06-4.03076E-05 2.47678E-18 3.29665E-18
 -1       584 9.45230E-05-2.72945E-05-2.88035E-05 9.83491E-07 1.65674E-18-3.80716E-19
 -1       585 3.06389E-05-1.78301E-05-4.86207E-06 1.70826E-05 2.54237E-18 2.84148E-18
 -1       586 1.32929E-04-6.50583E-05-2.89970E-05 3.03525E-05 1.19744E-18-1.81487E-18
 -1       587 2.77167E-05-1.93237E-05-3.03257E-06-1.58024E-05 1.13269E-18 4.19853E-18
 -1       588 9.45981E-05-2.07652E-05-3.16613E-05-9.42130E-06-3.14540E-18-1.15094E-18
 -1       589 8.91556E-05-1.28795E-05-3.27078E-05-1.93709E-06-5.64747E-19-3.84501E-18
 -1       590 1.29852E-04-7.64723E-06-5.30659E-05 7.07831E-06 2.96938E-18-2.23228E-18
 -1       591 1.36474E-04-6.23617E-05-3.18151E-05-1.78220E-05 6.85541E-19 2.67239E-19
 -1       592 1.39941E-04-2.41640E-05-5.01994E-05 1.43452E-05 2.20906E-18-1.19347E-18
 -1       593 7.70904E-05-4.62550E-05-1.28520E-05 4.02832E-05 1.75722E-18 8.53677E-19
 -1       594 1.40458E-04-1.47981E-05-5.45021E-05-6.52796E-06 2.06496E-18-2.26433E-18
 -1       595 1.04994E-04-5.76598E-05-2.01004E-05-3.90143E-05-1.24445E-18-2.19020E-18
 -1       596 6.48706E-05-3.92816E-05-1.05366E-05-4.29468E-05-1.53271E-18-4.30081E-19
 -1       597 2.21313E-05-1.68977E-05-1.67824E-06 5.59871E-06-4.79063E-19-4.12971E-18
 -1       598 1.47376E-04-3.69721E-05-4.78496E-05 9.80449E-06-7.44066E-19 1.82880E-18
 -1       599 4.16820E-05-2.67355E-05-5.79843E-06 3.06128E-05 4.13140E-19-2.99569E-18
 -1       600 1.22928E-04-6.44733E-05-2.48432E-05 2.65405E-05 1.54012E-18-3.01848E-19
 -1       601 1.42084E-04-6.40995E-05-3.35425E-05 7.88977E-06-1.39594E-18 7.73235E-19
 -1       602 1.48347E-04-5.17908E-05-4.17368E-05-1.00356E-05-2.27107E-18 3.02375E-18
 -1       603 1.36039E-04-1.05563E-05-5.44924E-05-4.64367E-06-1.87925E-18-6.33713E-19
 -1       604 1.42705E-04-1.73910E-05-5.42446E-05 6.73828E-06-2.07205E-18 5.43160E-20
 -1       605 1.47700E-04-6.07006E-05-3.75011E-05-9.98703E-06 2.66394E-18 1.00289E-18
 -1       606 1.32787E-04-6.64505E-05-2.83655E-05-2.98612E-05 1.99905E-18-7.30354E-19
 -1       607 9.83693E-05-5.63389E-05-1.77483E-05-4.54340E-05 1.73335E-18-3.60493E-18
 -1       608 1.47170E-04-3.01238E-05-5.06793E-05-6.75723E-06 4.38498E-19-2.55952E-18
 -1       609 9.61630E-05-2.31911E-05-3.12772E-05 9.58189E-06 3.35762E-18 2.98114E-19
 -1       610 9.13640E-05-1.59053E-05-3.23625E-05-7.70563E-06-2.42275E-18-3.12006E-18
 -1       611 1.42101E-04-6.20982E-05-3.44260E-05 1.35721E-05 2.53713E-20-9.04790E-19
 -1       612 7.98750E-05-4.17870E-05-1.58635E-05-4.35218E-05 2.43967E-18-1.10170E-18
 -1       613 8.37019E-05-4.54063E-05-1.59977E-05 4.55183E-05 1.55240E-18-7.05261E-19
 -1       614 1.01892E-04-3.06024E-05-3.05530E-05-1.45530E-05-1.35285E-18 3.73842E-19
 -1       615 1.44229E-04-5.14493E-05-4.00355E-05 7.26938E-06 1.19765E-18 1.24699E-18
 -1       616 9.27799E-05-1.79475E-05-3.20914E-05-8.89233E-06-2.83674E-18-2.28821E-18
 -1       617 5.18378E-05-2.68192E-05-1.01315E-05-3.43751E-05-9.99711E-19-4.07105E-20
 -1       618 2.97396E-05-1.44483E-05-5.92346E-06-1.02736E-05 2.00575E-20-4.68160E-18
 -1       619 1.44386E-04-4.33983E-05-4.37031E-05-5.90717E-06-4.41304E-19-1.87597E-18
 -1       620 1.31231E-04-1.04966E-05-5.23427E-05-3.91573E-06 2.12102E-18-1.69813E-18
 -1       621 9.15517E-05-1.68499E-05-3.20207E-05 2.44052E-06 8.31466E-19-3.22598E-18
 -1       622 9.12929E-05-1.64480E-05-3.20818E-05 8.40635E-07 2.16143E-19-3.40540E-18
 -1       623 9.28901E-05-1.89989E-05-3.16732E-05 5.26484E-06 1.86691E-18-2.42951E-18
 -1       624 9.39882E-05-2.09331E-05-3.13172E-05 6.14023E-06 2.43767E-18-1.91403E-18
 -1       625 9.52729E-05-2.40948E-05-3.04948E-05 5.14802E-06 2.41803E-18-1.21971E-18
 -1       626 5.53087E-05-2.13930E-05-1.41363E-05 2.94574E-05 1.47236E-18-1.37908E-19
 -1       627 1.30651E-04-2.41564E-05-4.61710E-05-1.17029E-05 6.97796E-19-2.48615E-18
 -1       628 9.54244E-05-2.57219E-05-2.98740E-05-2.44933E-06-1.68788E-18-1.51412E-18
 -1       629 9.54767E-05-2.69473E-05-2.93690E-05-8.68511E-07-1.52907E-18-1.60428E-18
 -1       630 9.54198E-05-2.77074E-05-2.90194E-05 1.33017E-07-1.05993E-18-1.58405E-18
 -1       631 9.53434E-05-2.81794E-05-2.87846E-05 7.20298E-07-8.30755E-19-1.42862E-18
 -1       632 9.52789E-05-2.84701E-05-2.86324E-05 1.02155E-06-8.20931E-19-1.32260E-18
 -1       633 9.52337E-05-2.86431E-05-2.85389E-05 1.13367E-06-8.07305E-19-1.14476E-18
 -1       634 9.52063E-05-2.87379E-05-2.84866E-05 1.12732E-06-4.59413E-19-8.71074E-19
 -1       635 9.51928E-05-2.87801E-05-2.84627E-05 1.05302E-06-3.44260E-19-1.02082E-18
 -1       636 9.51892E-05-2.87867E-05-2.84583E-05 9.46475E-07-5.97821E-19-1.50681E-18
 -1       637 9.51923E-05-2.87690E-05-2.84672E-05 8.32724E-07-4.73913E-19-1.12092E-18
 -1       638 9.52000E-05-2.87344E-05-2.84853E-05 7.29462E-07-3.24817E-19-9.44684E-19
 -1       639 9.52108E-05-2.86870E-05-2.85103E-05 6.49578E-07-4.20992E-19-8.40071E-19
 -1       640 9.52242E-05-2.86287E-05-2.85409E-05 6.03110E-07-3.50034E-19-9.01104E-19
 -1       641 9.52396E-05-2.85598E-05-2.85771E-05 5.98773E-07-8.51181E-19-1.23277E-18
 -1       642 9.52572E-05-2.84787E-05-2.86193E-05 6.45145E-07-6.68447E-19-1.20762E-18
 -1       643 9.52766E-05-2.83829E-05-2.86687E-05 7.51558E-07-4.66999E-19-9.83923E-19
 -1       644 9.52978E-05-2.82685E-05-2.87267E-05 9.28749E-07-7.78411E-19-4.55729E-19
 -1       645 9.53197E-05-2.81310E-05-2.87950E-05 1.18926E-06-5.56639E-20 7.63496E-20
 -1       646 9.53407E-05-2.79652E-05-2.88750E-05 1.54760E-06 4.08418E-19-1.62963E-18
 -1       647 9.53577E-05-2.77657E-05-2.89677E-05 2.02004E-06 4.43194E-20-1.30850E-18
 -1       648 9.53662E-05-2.75281E-05-2.90730E-05 2.62400E-06-7.62304E-19-1.43567E-18
 -1       649 9.53600E-05-2.72511E-05-2.91890E-05 3.37684E-06 1.27714E-19-1.25184E-18
 -1       650 9.53332E-05-2.69401E-05-2.93106E-05 4.29388E-06 9.60950E-20-9.74923E-19
 -1       651 9.52832E-05-2.66148E-05-2.94285E-05 5.38542E-06 2.27913E-19-1.53381E-18
 -1       652 9.52202E-05-2.63221E-05-2.95268E-05 6.65267E-06-1.47732E-19-1.39385E-18
 -1       653 9.51850E-05-2.61577E-05-2.95820E-05 8.08238E-06-1.01379E-18-1.89769E-18
 -1       654 9.52817E-05-2.62996E-05-2.95627E-05 9.63954E-06 5.20707E-19-1.26042E-18
 -1       655 9.57342E-05-2.70539E-05-2.94336E-05 1.12551E-05-5.41270E-19-1.15561E-18
 -1       656 9.69694E-05-2.89054E-05-2.91703E-05 1.27968E-05 7.33740E-19-3.56057E-19
 -1       657 9.97183E-05-3.25302E-05-2.87955E-05 1.39785E-05-1.13674E-19-7.22219E-19
 -1       658 1.05025E-04-3.86223E-05-2.84548E-05 1.41696E-05 5.30363E-20 6.96691E-19
 -1       659 1.13960E-04-4.72376E-05-2.85763E-05 1.19838E-05-8.87619E-20 1.43615E-18
 -1       660 1.26338E-04-5.60976E-05-3.00584E-05 5.22819E-06 1.53856E-20 2.72449E-18
 -1       661 1.30802E-04-5.76966E-05-3.13288E-05-9.06733E-06 3.01067E-18 1.39768E-18
 -1       662 1.17899E-04-4.95801E-05-2.92649E-05-1.75236E-05 3.12079E-19 1.38635E-18
 -1       663 1.07360E-04-3.92638E-05-2.91703E-05-2.02104E-05 4.35316E-20-6.80493E-19
 -1       664 9.50944E-05-2.77096E-05-2.88786E-05-1.26987E-07 9.77386E-19-4.84186E-19
 -1       665 9.49005E-05-2.85272E-05-2.84458E-05-1.15733E-06 4.29178E-19-7.84846E-19
 -1       666 9.49088E-05-2.86203E-05-2.84095E-05-1.14898E-06 4.96771E-19-9.81554E-19
 -1       667 9.49353E-05-2.86698E-05-2.83997E-05-1.07110E-06 5.62341E-19-9.57331E-19
 -1       668 9.49718E-05-2.86892E-05-2.84070E-05-9.59913E-07 8.70847E-19-5.74143E-19
 -1       669 9.50129E-05-2.86876E-05-2.84253E-05-8.40583E-07 7.20360E-19 1.65447E-19
 -1       670 9.50554E-05-2.86710E-05-2.84506E-05-7.30645E-07 4.21270E-19 3.62405E-19
 -1       671 9.50981E-05-2.86433E-05-2.84807E-05-6.42602E-07 3.55035E-19 3.09735E-20
 -1       672 9.51410E-05-2.86068E-05-2.85147E-05-5.85885E-07 1.90178E-19 2.06163E-19
 -1       673 9.51854E-05-2.85626E-05-2.85527E-05-5.68293E-07-5.28122E-20 4.72650E-19
 -1       674 9.52334E-05-2.85111E-05-2.85952E-05-5.97030E-07 3.22855E-19 5.41434E-19
 -1       675 9.52879E-05-2.84523E-05-2.86437E-05-6.79394E-07 1.96300E-19-1.11381E-19
 -1       676 9.53528E-05-2.83864E-05-2.86997E-05-8.23095E-07-7.40680E-20-8.55271E-19
 -1       677 9.54330E-05-2.83146E-05-2.87648E-05-1.03617E-06 4.13593E-19-4.68840E-19
 -1       678 9.55347E-05-2.82394E-05-2.88405E-05-1.32640E-06 3.28973E-19-1.63375E-19
 -1       679 9.56663E-05-2.81668E-05-2.89280E-05-1.70015E-06 1.95379E-19-2.60173E-19
 -1       680 9.58386E-05-2.81071E-05-2.90273E-05-2.16035E-06-8.57586E-20-3.23071E-19
 -1       681 9.60670E-05-2.80785E-05-2.91374E-05-2.70343E-06 3.90904E-19-9.98862E-19
 -1       682 9.63735E-05-2.81094E-05-2.92555E-05-3.31497E-06 1.12043E-19-5.42003E-19
 -1       683 9.67897E-05-2.82432E-05-2.93766E-05-3.96371E-06 6.49912E-20-2.23777E-19
 -1       684 9.73614E-05-2.85420E-05-2.94936E-05-4.59369E-06-3.75922E-19 1.49930E-19
 -1       685 9.81530E-05-2.90895E-05-2.95986E-05-5.11454E-06-1.16818E-18 8.39973E-19
 -1       686 9.92496E-05-2.99864E-05-2.96848E-05-5.39047E-06-1.75432E-19 1.76256E-19
 -1       687 1.00750E-04-3.13322E-05-2.97518E-05-5.22995E-06 4.63524E-19-5.89533E-19
 -1       688 1.02737E-04-3.31765E-05-2.98144E-05-4.38265E-06-1.28013E-19-1.13393E-18
 -1       689 1.05213E-04-3.54246E-05-2.99135E-05-2.56017E-06-1.25529E-18-2.35178E-18
 -1       690 1.07974E-04-3.76930E-05-3.01258E-05 4.82515E-07-1.04118E-18-1.50650E-18
 -1       691 1.10467E-04-3.91645E-05-3.05600E-05 4.75056E-06 2.69490E-19-1.03166E-18
 -1       692 1.11685E-04-3.85727E-05-3.13389E-05 9.66275E-06 5.59124E-19-7.83713E-19
 -1       693 1.10691E-04-3.49523E-05-3.24724E-05 1.35157E-05 6.20648E-20 8.92181E-19
 -1       694 1.07405E-04-2.86609E-05-3.37801E-05 1.40001E-05-9.22636E-19 1.43285E-18
 -1       695 1.03673E-04-2.25676E-05-3.47929E-05 9.47363E-06 4.98251E-19 6.97055E-19
 -1       696 1.02258E-04-2.06197E-05-3.50255E-05 1.51419E-06 4.00584E-19-7.42825E-20
 -1       697 1.04250E-04-2.42085E-05-3.43174E-05-5.68197E-06 9.52608E-19 3.27959E-19
 -1       698 1.07679E-04-3.06462E-05-3.30219E-05-8.38379E-06 1.48873E-18-7.49313E-19
 -1       699 1.09647E-04-3.57691E-05-3.16713E-05-6.61180E-06 1.75158E-18-2.04549E-18
 -1       700 1.09061E-04-3.76187E-05-3.06202E-05-2.41000E-06-1.11650E-19-1.94342E-18
 -1       701 1.06288E-04-3.62621E-05-3.00166E-05 1.66635E-06-1.58441E-18-1.57861E-18
 -1       702 1.03932E-04-3.42826E-05-2.98482E-05 4.60541E-06-1.27353E-18-1.45552E-18
 -1       703 8.16651E-05-2.14498E-05-2.56742E-05 2.28374E-05 1.88597E-19-2.75775E-19
 -1       704 1.02310E-04-3.30412E-05-2.96686E-05-1.98633E-05 5.04402E-19-1.68803E-18
 -1       705 1.03819E-04-3.60568E-05-2.90298E-05 2.11965E-05 1.17835E-18-3.96749E-18
 -1       706 7.06559E-05-1.36882E-05-2.42951E-05 1.11222E-05-1.97756E-18 7.91896E-19
 -1       707 9.50490E-05-3.07933E-05-2.75413E-05 2.55353E-05 2.57749E-19-1.11215E-18
 -1       708 1.18201E-04-1.00141E-05-4.68776E-05 1.45509E-06 2.84148E-18-1.69565E-18
 -1       709 6.90681E-05-1.25907E-05-2.41112E-05-5.55247E-06-5.32807E-19 2.85833E-18
 -1       710 7.74629E-05-1.83880E-05-2.52637E-05-1.96462E-05 7.36687E-19 3.43311E-18
 -1       711 9.01679E-05-2.69726E-05-2.70522E-05-2.51822E-05 1.29046E-18 2.14222E-18
 -1       712 9.52333E-05-2.70419E-05-2.92227E-05 9.24883E-07 1.29184E-18-7.85560E-19
 -1       713 6.71172E-05-3.26081E-05-1.43676E-05 3.29129E-05 2.05498E-18 9.85073E-19
 -1       714 4.10261E-05-1.30506E-05-1.14146E-05-3.00462E-06 2.24218E-18 5.15631E-18
 -1       715 9.45759E-05-2.21930E-05-3.10206E-05-6.15116E-06-2.51626E-18-1.77326E-18
 -1       716 1.43678E-04-4.05918E-05-4.45360E-05-1.94578E-05-1.77308E-18 2.07343E-18
 -1       717 1.16053E-04-5.94464E-05-2.39854E-05 3.70689E-05 1.05154E-18-4.16288E-18
 -1       718 9.02130E-05-4.65652E-05-1.84605E-05-3.74356E-05-3.20443E-19-2.28936E-18
 -1       719 9.49213E-05-2.83699E-05-2.85221E-05-1.04420E-06 4.69152E-19-6.50158E-19
 -1       720 9.49834E-05-2.81157E-05-2.86574E-05-7.35556E-07 7.85393E-19-7.69454E-19
 -1       721 9.51374E-05-2.42489E-05-3.03790E-05-4.08130E-06-2.04572E-18-1.72371E-18
 -1       722 9.53401E-05-2.59447E-05-2.97374E-05 2.60323E-06 1.94145E-18-1.14229E-18
 -1       723 9.20765E-05-1.76768E-05-3.18915E-05 3.94940E-06 1.33594E-18-3.04776E-18
 -1       724 1.22407E-04-1.65638E-05-4.58210E-05 1.47123E-05 1.87115E-18-2.39796E-18
 -1       725 9.20357E-05-1.76198E-05-3.18984E-05-3.89449E-06-1.33504E-18-3.10215E-18
 -1       726 1.19374E-04-6.09059E-05-2.49554E-05-3.31222E-05 2.01589E-18-1.50613E-19
 -1       727 1.36947E-04-5.63916E-05-3.46982E-05 6.83164E-07 4.92469E-19 1.13820E-20
 -1       728 1.04359E-04-5.33017E-05-2.16354E-05 3.01357E-05 2.06298E-18-1.07228E-18
 -1       729 1.24022E-04-6.08296E-05-2.69959E-05-2.14435E-05-2.86787E-19-2.37573E-19
 -1       730 1.33701E-04-3.69419E-05-4.18328E-05 1.59415E-05 2.24392E-18-2.03177E-18
 -1       731 1.39268E-04-5.77823E-05-3.51704E-05-7.73461E-06-1.05638E-18 4.26103E-18
 -1       732 1.32779E-04-6.26882E-05-3.00436E-05 8.67417E-06 9.59040E-19 2.24989E-18
 -1       733 5.19084E-05-2.05950E-05-1.27968E-05-2.69101E-05 1.52981E-18 3.31910E-18
 -1       734 4.18142E-05-1.58794E-05-1.05146E-05 1.54977E-05 8.99125E-19-2.90236E-18
 -1       735 1.38250E-04-6.40761E-05-3.19054E-05-1.34531E-05 2.71100E-18 2.10993E-18
 -1       736 9.12856E-05-1.64383E-05-3.20828E-05-7.83517E-07-3.32374E-19-3.33873E-18
 -1       737 9.28468E-05-1.89244E-05-3.16851E-05-5.22749E-06-1.89552E-18-2.95364E-18
 -1       738 1.40916E-04-5.34934E-05-3.76856E-05-9.95404E-07-4.70017E-19-1.26285E-18
 -1       739 1.06990E-04-3.74015E-05-2.98143E-05 1.43790E-05-2.26847E-19-1.20655E-18
 -1       740 1.06205E-04-3.61969E-05-2.99968E-05 8.91450E-06-1.79867E-18-1.50194E-18
 -1       741 7.58213E-05-3.52694E-05-1.70488E-05-3.45435E-05-5.12230E-19-2.70384E-18
 -1       742 1.28881E-04-6.24934E-05-2.84223E-05 2.52452E-05-5.69947E-19-2.25690E-18
 -1       743 4.65999E-05-1.85106E-05-1.15648E-05-2.29824E-05-5.54390E-19-8.61406E-19
 -1       744 1.02781E-04-4.97896E-05-2.24129E-05-3.72548E-05 8.05105E-19-2.89916E-18
 -1       745 7.26342E-05-3.05008E-05-1.77475E-05 3.59989E-05-5.12852E-20 3.47231E-19
 -1       746 9.15286E-05-1.68183E-05-3.20243E-05-2.37990E-06-7.09879E-19-3.22876E-18
 -1       747 1.18366E-04-1.75214E-05-4.36275E-05-7.79796E-06 6.25799E-19-2.10667E-18
 -1       748 9.97220E-05-3.43942E-05-2.79616E-05-2.49444E-05-1.41210E-18 1.79538E-19
 -1       749 9.46714E-05-2.27653E-05-3.08140E-05 3.90588E-06 1.79018E-18-1.81126E-18
 -1       750 5.67372E-05-1.33464E-05-1.81508E-05 1.00262E-05 2.56360E-19 2.03328E-18
 -1       751 9.58691E-05-2.68873E-05-2.95634E-05-5.80599E-07-1.17863E-18-1.56625E-18
 -1       752 9.59610E-05-2.77758E-05-2.92223E-05 2.16902E-07-9.61313E-19-1.32308E-18
 -1       753 9.59502E-05-2.83372E-05-2.89771E-05 6.94246E-07-1.04477E-18-1.72611E-18
 -1       754 9.58902E-05-2.86778E-05-2.88053E-05 9.39175E-07-7.03792E-19-2.04962E-18
 -1       755 9.58101E-05-2.88690E-05-2.86891E-05 1.02711E-06-5.06101E-19-1.89555E-18
 -1       756 9.57255E-05-2.89592E-05-2.86141E-05 1.01603E-06-4.90108E-19-1.37530E-18
 -1       757 9.56441E-05-2.89815E-05-2.85697E-05 9.48929E-07-5.10962E-19-1.08584E-18
 -1       758 9.55695E-05-2.89585E-05-2.85476E-05 8.56973E-07-3.62472E-19-3.82795E-19
 -1       759 9.55028E-05-2.89047E-05-2.85421E-05 7.62481E-07-5.46391E-20-6.08163E-19
 -1       760 9.54433E-05-2.88293E-05-2.85489E-05 6.81641E-07-6.49315E-19-6.14760E-19
 -1       761 9.53891E-05-2.87368E-05-2.85653E-05 6.26630E-07-5.54237E-19-8.74996E-19
 -1       762 9.53376E-05-2.86284E-05-2.85897E-05 6.07270E-07-7.71779E-19-8.88743E-19
 -1       763 9.52851E-05-2.85025E-05-2.86211E-05 6.32387E-07-8.50500E-19-7.90320E-19
 -1       764 9.52269E-05-2.83554E-05-2.86592E-05 7.10798E-07-5.14998E-19-4.42326E-19
 -1       765 9.51574E-05-2.81815E-05-2.87039E-05 8.52000E-07 5.39713E-20-2.38947E-19
 -1       766 9.50690E-05-2.79735E-05-2.87552E-05 1.06660E-06-5.98497E-19 4.90227E-19
 -1       767 9.49526E-05-2.77232E-05-2.88126E-05 1.36644E-06-8.54590E-19-3.86462E-19
 -1       768 9.47965E-05-2.74214E-05-2.88750E-05 1.76453E-06 3.17166E-19-1.14379E-18
 -1       769 9.45858E-05-2.70595E-05-2.89398E-05 2.27450E-06 1.99944E-20-5.51135E-19
 -1       770 9.43027E-05-2.66305E-05-2.90022E-05 2.90999E-06 1.47005E-19 2.28705E-19
 -1       771 9.39266E-05-2.61326E-05-2.90544E-05 3.68373E-06 2.68671E-19 2.76186E-19
 -1       772 9.34365E-05-2.55742E-05-2.90836E-05 4.60695E-06-2.08320E-19 1.40665E-20
 -1       773 9.28160E-05-2.49838E-05-2.90707E-05 5.68984E-06-6.48971E-20-8.11358E-19
 -1       774 9.20649E-05-2.44251E-05-2.89881E-05 6.94454E-06-1.15423E-18-1.03065E-18
 -1       775 9.12205E-05-2.40227E-05-2.87986E-05 8.39282E-06-4.38795E-19 3.42500E-19
 -1       776 9.03967E-05-2.39997E-05-2.84551E-05 1.00808E-05-1.87547E-19-1.10595E-19
 -1       777 8.98521E-05-2.47333E-05-2.79064E-05 1.20967E-05-6.73563E-19-5.46146E-19
 -1       778 9.00930E-05-2.68227E-05-2.71133E-05 1.45850E-05-2.97216E-19-3.07568E-18
 -1       779 9.21696E-05-3.12437E-05-2.61041E-05 1.76198E-05 1.27376E-18-2.31032E-18
 -1       780 9.75844E-05-3.90390E-05-2.50186E-05 2.09262E-05 8.76381E-19-1.52927E-18
 -1       781 6.20220E-05-2.20080E-05-1.68956E-05 2.16455E-05 2.28787E-18-9.85999E-20
 -1       782 1.28620E-04-4.57542E-05-3.56422E-05 1.19334E-05 3.19007E-19-1.43839E-18
 -1       783 9.55657E-05-2.87718E-05-2.86260E-05-1.08509E-06 4.47926E-19-7.19136E-19
 -1       784 9.54080E-05-2.88841E-05-2.85103E-05-9.04039E-07 3.52487E-19-6.29416E-19
 -1       785 9.53708E-05-2.88462E-05-2.85106E-05-8.00230E-07 1.46696E-19-5.18546E-19
 -1       786 9.53399E-05-2.87890E-05-2.85219E-05-7.08897E-07 1.33455E-19-6.05500E-20
 -1       787 9.53138E-05-2.87172E-05-2.85414E-05-6.42463E-07 3.48024E-19-1.11955E-19
 -1       788 9.52909E-05-2.86330E-05-2.85677E-05-6.10694E-07 1.20617E-19-9.14721E-20
 -1       789 9.52698E-05-2.85365E-05-2.86000E-05-6.21982E-07 3.18287E-19-2.42251E-19
 -1       790 9.52487E-05-2.84265E-05-2.86381E-05-6.84328E-07 1.43278E-19-3.99864E-19
 -1       791 9.52264E-05-2.83016E-05-2.86820E-05-8.05939E-07 3.24151E-20-6.00567E-19
 -1       792 9.52018E-05-2.81603E-05-2.87320E-05-9.95454E-07 9.90290E-20-9.84354E-19
 -1       793 9.51751E-05-2.80029E-05-2.87880E-05-1.26179E-06 2.33078E-19-7.68988E-19
 -1       794 9.51478E-05-2.78324E-05-2.88494E-05-1.61351E-06 3.74011E-20-7.54726E-19
 -1       795 9.51246E-05-2.76572E-05-2.89145E-05-2.05771E-06-4.20262E-19 8.50078E-20
 -1       796 9.51155E-05-2.74935E-05-2.89807E-05-2.59809E-06 3.35544E-19 3.88678E-19
 -1       797 9.51385E-05-2.73698E-05-2.90436E-05-3.23236E-06 1.16304E-20 1.26297E-18
 -1       798 9.52255E-05-2.73320E-05-2.90970E-05-3.94847E-06 4.04827E-22 5.05316E-19
 -1       799 9.54282E-05-2.74497E-05-2.91335E-05-4.71960E-06-3.52253E-19-1.69903E-19
 -1       800 9.58279E-05-2.78222E-05-2.91452E-05-5.49714E-06-5.64687E-19 3.76853E-19
 -1       801 9.65452E-05-2.85827E-05-2.91267E-05-6.20055E-06-3.26947E-19-7.40619E-19
 -1       802 9.77470E-05-2.98919E-05-2.90809E-05-6.70174E-06-3.39976E-19-4.37460E-19
 -1       803 9.96410E-05-3.19109E-05-2.90276E-05-6.80151E-06-1.99859E-19 4.67685E-19
 -1       804 1.02436E-04-3.47268E-05-2.90193E-05-6.19806E-06 2.49099E-19 1.02142E-18
 -1       805 1.06231E-04-3.81962E-05-2.91595E-05-4.46578E-06-8.49223E-19-1.70629E-19
 -1       806 1.10772E-04-4.16733E-05-2.96195E-05-1.09189E-06-1.21692E-18-8.84560E-19
 -1       807 1.15227E-04-4.38890E-05-3.05923E-05 4.06268E-06-8.01192E-19-1.27122E-19
 -1       808 1.17659E-04-4.21681E-05-3.23583E-05 1.05580E-05-6.04165E-19 1.68269E-18
 -1       809 1.16278E-04-3.50231E-05-3.49104E-05 1.55934E-05-1.84283E-19 1.62042E-18
 -1       810 1.11963E-04-2.44289E-05-3.75996E-05 1.49065E-05 9.46784E-19-7.90017E-19
 -1       811 1.07568E-04-1.64248E-05-3.92356E-05 6.93689E-06 1.24841E-18-2.58347E-18
 -1       812 1.13621E-04-2.80938E-05-3.68013E-05-1.00734E-05 3.22223E-19-3.00524E-18
 -1       813 1.17500E-04-3.78533E-05-3.41452E-05-8.36670E-06 1.62194E-18-1.06914E-18
 -1       814 1.16968E-04-4.26677E-05-3.18525E-05-2.14389E-06 8.70399E-19 5.50241E-21
 -1       815 1.12883E-04-4.15650E-05-3.05674E-05 3.74321E-06 4.63803E-19-9.95490E-19
 -1       816 1.09601E-04-3.92104E-05-3.01687E-05 6.84250E-06-1.06657E-18-1.63973E-18
 -1       817 9.52054E-05-2.44735E-05-3.03136E-05 3.42435E-06 1.88924E-18-1.55811E-18
 -1       818 8.30300E-05-2.90030E-05-2.29511E-05-3.01720E-05 1.29450E-19 2.72459E-18
 -1       819 9.56310E-05-2.85892E-05-2.87322E-05-9.87701E-07 2.02572E-19-8.17254E-19
 -1       820 9.56912E-05-2.69126E-05-2.94769E-05 6.90983E-07 9.36330E-19-1.24773E-18
 -1       821 6.32065E-05-1.66304E-05-1.97088E-05-1.86536E-05 1.53872E-18 3.17824E-18
 -1       822 9.54526E-05-2.88943E-05-2.85250E-05-1.00348E-06 6.05592E-19-6.89965E-19
 -1       823 9.55053E-05-2.88636E-05-2.85608E-05-1.07492E-06 5.51278E-19-8.49151E-19
 -1       824 9.36660E-05-2.03846E-05-3.14064E-05-5.90155E-06-2.27474E-18-2.40905E-18
 -1       825 1.31454E-04-3.81837E-05-4.02555E-05-9.88017E-06 1.52413E-19-2.38726E-18
 -1       826 9.55858E-05-2.55339E-05-3.00222E-05-1.79498E-06-1.57043E-18-1.82047E-18
 -1       827 9.56927E-05-2.82713E-05-2.88949E-05-7.19345E-07 4.39944E-19-9.76675E-19
 -1       828 1.26680E-04-5.60334E-05-3.03052E-05-5.45799E-06-4.47668E-19-4.46621E-19
 -1       829 1.07662E-04-5.07965E-05-2.43402E-05-2.46340E-05-1.53251E-18 1.04662E-19
 -1       830 4.40500E-05-1.28812E-05-1.29329E-05-3.66215E-06 3.64476E-19-4.09347E-18
 -1       831 7.67912E-05-3.03657E-05-1.96176E-05-3.41775E-05 1.18679E-18 1.95082E-19
 -1       832 1.19675E-04-2.80465E-05-3.94668E-05 1.73460E-05 1.96083E-18-1.49690E-18
 -1       833 9.57303E-05-2.77505E-05-2.91342E-05-1.95680E-07 9.59993E-19-1.22484E-18
 -1       834 8.85201E-05-3.86306E-05-2.11948E-05 2.73810E-05 1.09440E-18-7.43576E-19
 -1       835 9.77731E-05-4.54962E-05-2.21881E-05 3.78433E-05 3.08254E-19-3.66721E-18
 -1       836 9.32018E-05-1.97770E-05-3.14690E-05 1.23359E-06 4.23659E-19-2.86734E-18
 -1       837 9.30916E-05-1.95773E-05-3.15071E-05 2.25056E-08-7.25317E-20-2.92788E-18
 -1       838 1.12549E-04-5.33274E-05-2.52680E-05 3.26239E-05 1.59105E-18-3.16085E-18
 -1       839 9.40213E-05-2.13508E-05-3.11455E-05 3.30806E-06 1.27167E-18-2.39395E-18
 -1       840 9.39747E-05-2.12691E-05-3.11605E-05-3.28716E-06-1.36395E-18-2.63953E-18
 -1       841 9.55462E-05-2.59327E-05-2.98359E-05 1.83926E-06 1.30589E-18-1.36234E-18
 -1       842 1.09051E-04-5.11483E-05-2.46697E-05 2.23374E-05 1.23706E-18-2.60340E-19
 -1       843 1.13618E-04-4.49990E-05-2.93880E-05 1.73780E-05 6.39566E-19-2.92911E-18
 -1       844 1.04113E-04-4.20767E-05-2.65044E-05-2.86263E-05-2.14042E-18-8.46970E-19
 -1       845 1.09339E-04-1.79388E-05-3.93320E-05-3.85968E-06 7.97879E-19-4.68745E-18
 -1       846 1.06451E-04-4.27094E-05-2.72763E-05 2.65149E-05 1.18128E-18-2.23790E-18
 -1       847 9.47042E-05-2.28637E-05-3.07893E-05-4.14125E-06-1.81389E-18-2.18226E-18
 -1       848 9.35182E-05-2.03632E-05-3.13534E-05 2.36363E-06 8.09091E-19-2.74720E-18
 -1       849 6.64758E-05-2.63531E-05-1.69337E-05-2.81762E-05-5.94531E-19-5.67658E-19
 -1       850 9.66147E-05-4.31489E-05-2.27412E-05-2.69740E-05-1.10843E-18 7.72043E-19
 -1       851 5.55628E-05-1.49831E-05-1.71847E-05 8.49769E-06 1.82998E-18-7.60569E-19
 -1       852 1.34232E-04-5.88781E-05-3.23016E-05 1.06364E-05-7.25164E-19 2.51278E-19
 -1       853 1.17188E-04-5.56858E-05-2.62442E-05-2.86681E-05 9.62580E-19 7.30099E-19
 -1       854 9.34810E-05-2.03084E-05-3.13613E-05-2.32894E-06-8.69523E-19-2.67548E-18
 -1       855 1.19628E-04-2.42018E-05-4.11123E-05-1.06819E-05-6.56067E-19-2.81922E-18
 -1       856 1.32108E-04-4.80788E-05-3.62029E-05-5.02487E-06 3.50897E-19-1.55690E-18
 -1       857 9.47762E-05-2.30115E-05-3.07545E-05-2.77643E-06-1.42035E-18-2.53141E-18
 -1       858 9.63654E-05-2.79263E-05-2.93311E-05 2.89828E-07-9.82157E-19-1.39395E-18
 -1       859 9.63868E-05-2.85181E-05-2.90866E-05 6.34259E-07-1.18501E-18-1.13255E-18
 -1       860 9.63233E-05-2.88710E-05-2.89081E-05 8.06592E-07-7.41109E-19-1.28377E-18
 -1       861 9.62152E-05-2.90582E-05-2.87816E-05 8.61824E-07-3.78276E-19-1.57664E-18
 -1       862 9.60876E-05-2.91318E-05-2.86954E-05 8.43816E-07-2.15417E-19-1.17164E-18
 -1       863 9.59555E-05-2.91286E-05-2.86401E-05 7.85953E-07-1.03777E-19-6.37833E-19
 -1       864 9.58270E-05-2.90739E-05-2.86085E-05 7.12704E-07-4.27897E-19-1.03621E-18
 -1       865 9.57052E-05-2.89837E-05-2.85949E-05 6.41942E-07-2.20589E-19-1.22776E-18
 -1       866 9.55898E-05-2.88673E-05-2.85954E-05 5.87022E-07-6.08403E-19-1.05395E-18
 -1       867 9.54779E-05-2.87288E-05-2.86067E-05 5.58169E-07-6.38023E-19-5.77180E-19
 -1       868 9.53642E-05-2.85680E-05-2.86269E-05 5.63912E-07-4.00527E-19-5.66935E-19
 -1       869 9.52416E-05-2.83814E-05-2.86544E-05 6.12110E-07-6.78260E-19 3.61135E-19
 -1       870 9.51008E-05-2.81626E-05-2.86878E-05 7.10596E-07 6.52661E-20 4.27355E-19
 -1       871 9.49303E-05-2.79032E-05-2.87259E-05 8.67576E-07-1.69735E-19 5.55579E-19
 -1       872 9.47160E-05-2.75933E-05-2.87669E-05 1.09177E-06-4.09967E-19 1.88682E-19
 -1       873 9.44409E-05-2.72215E-05-2.88083E-05 1.39223E-06-7.21580E-19 8.18584E-19
 -1       874 9.40841E-05-2.67765E-05-2.88461E-05 1.77797E-06 6.45531E-19 1.00310E-18
 -1       875 9.36206E-05-2.62479E-05-2.88740E-05 2.25729E-06 2.58389E-19 9.49958E-19
 -1       876 9.30211E-05-2.56283E-05-2.88826E-05 2.83726E-06-1.00729E-19 6.11937E-19
 -1       877 9.22520E-05-2.49173E-05-2.88578E-05 3.52368E-06-6.70777E-19-1.02084E-18
 -1       878 9.12772E-05-2.41262E-05-2.87790E-05 4.32264E-06-5.20150E-19-1.27036E-18
 -1       879 9.00612E-05-2.32873E-05-2.86173E-05 5.24556E-06-4.24178E-19-1.21868E-18
 -1       880 8.85763E-05-2.24668E-05-2.83326E-05 6.32079E-06 5.79910E-19 1.34891E-19
 -1       881 8.68150E-05-2.17837E-05-2.78704E-05 7.61641E-06-3.79406E-19 4.99749E-19
 -1       882 8.48122E-05-2.14397E-05-2.71588E-05 9.28208E-06-1.12667E-18-2.95519E-19
 -1       883 8.27058E-05-2.17828E-05-2.61063E-05 1.16116E-05-1.89811E-18-1.41640E-18
 -1       884 8.08305E-05-2.33217E-05-2.46263E-05 1.50506E-05 1.30903E-18-1.88115E-18
 -1       885 9.57185E-05-2.90246E-05-2.85831E-05-7.82046E-07 3.70644E-19-4.63425E-19
 -1       886 9.54413E-05-2.87355E-05-2.85882E-05-5.93131E-07 2.78205E-19-9.76297E-19
 -1       887 9.53557E-05-2.86008E-05-2.86093E-05-5.88137E-07 2.10108E-19-1.21807E-18
 -1       888 9.52669E-05-2.84473E-05-2.86370E-05-6.26697E-07 1.43880E-19-1.11813E-18
 -1       889 9.51695E-05-2.82722E-05-2.86703E-05-7.16925E-07 7.63503E-20-1.14202E-18
 -1       890 9.50580E-05-2.80723E-05-2.87082E-05-8.67343E-07 5.00400E-19-9.11586E-19
 -1       891 9.49267E-05-2.78450E-05-2.87493E-05-1.08710E-06 4.80047E-19-1.59196E-18
 -1       892 9.47713E-05-2.75903E-05-2.87918E-05-1.38588E-06 1.56191E-19-1.83687E-18
 -1       893 9.45893E-05-2.73125E-05-2.88329E-05-1.77354E-06-2.68305E-19-1.64136E-18
 -1       894 9.43828E-05-2.70232E-05-2.88684E-05-2.25938E-06-2.02205E-19-1.28821E-18
 -1       895 9.41618E-05-2.67457E-05-2.88925E-05-2.85107E-06-6.06494E-19-7.10452E-19
 -1       896 9.39484E-05-2.65201E-05-2.88978E-05-3.55324E-06 1.38763E-19-8.99167E-20
 -1       897 9.37847E-05-2.64101E-05-2.88748E-05-4.36559E-06-4.10031E-19 4.97128E-19
 -1       898 9.37426E-05-2.65110E-05-2.88135E-05-5.28013E-06-8.35004E-19-1.47571E-19
 -1       899 9.39373E-05-2.69585E-05-2.87051E-05-6.27639E-06-1.13571E-19-6.74887E-19
 -1       900 9.45445E-05-2.79354E-05-2.85466E-05-7.31115E-06 3.54831E-19-1.85534E-19
 -1       901 9.58177E-05-2.96694E-05-2.83491E-05-8.29578E-06-9.56691E-19-9.46749E-19
 -1       902 9.80947E-05-3.24049E-05-2.81520E-05-9.05090E-06-8.66222E-19-4.38341E-19
 -1       903 1.01769E-04-3.63154E-05-2.80496E-05-9.22031E-06-2.59269E-19 8.12994E-19
 -1       904 1.07162E-04-4.12937E-05-2.82194E-05-8.19937E-06-5.95647E-19 6.63110E-19
 -1       905 1.14207E-04-4.64981E-05-2.89820E-05-4.82243E-06-7.98425E-19-2.89577E-19
 -1       906 1.26594E-04-4.84549E-05-3.35465E-05-1.37275E-06-5.17585E-19-7.58055E-19
 -1       907 9.61401E-05-2.87888E-05-2.88649E-05-8.76705E-07 2.85471E-19-1.42383E-18
 -1       908 1.12299E-04-4.22483E-05-3.00217E-05 1.13264E-05 6.83028E-19-3.44816E-19
 -1       909 1.14781E-04-5.00485E-05-2.77631E-05-1.15900E-05-1.26341E-18-7.87484E-19
 -1       910 1.22189E-04-4.78541E-05-3.18709E-05 5.78689E-06-1.57381E-18 1.86810E-20
 -1       911 9.61928E-05-2.78651E-05-2.92834E-05-2.75149E-07 6.45887E-19-1.58645E-18
 -1       912 9.58244E-05-2.90658E-05-2.86109E-05-8.64556E-07 5.96581E-19-4.82719E-19
 -1       913 9.58193E-05-2.56238E-05-3.00842E-05-1.18610E-06-9.96678E-19-1.88176E-18
 -1       914 5.54462E-05-1.65907E-05-1.64199E-05-1.54744E-05-7.36555E-19-1.34181E-18
 -1       915 9.55282E-05-2.88524E-05-2.85753E-05-6.33507E-07 2.95932E-19-8.35171E-19
 -1       916 9.56199E-05-2.89504E-05-2.85727E-05-7.00208E-07 5.70716E-20-4.88208E-19
 -1       917 9.62014E-05-2.84420E-05-2.90398E-05-6.74857E-07 3.37713E-19-1.55094E-18
 -1       918 9.31812E-05-1.97510E-05-3.14723E-05-1.18279E-06-5.36924E-19-3.13837E-18
 -1       919 9.60520E-05-2.69512E-05-2.96149E-05 3.98702E-07 9.04175E-19-1.83580E-18
 -1       920 9.61954E-05-2.69943E-05-2.96577E-05-2.93769E-07-8.20611E-19-1.61666E-18
 -1       921 7.87703E-05-2.75705E-05-2.18598E-05 2.12871E-05 2.00447E-18-2.78628E-19
 -1       922 1.23655E-04-5.67328E-05-2.86694E-05 2.19526E-05 1.06316E-18-2.38029E-18
 -1       923 9.52453E-05-2.42246E-05-3.04386E-05 2.26990E-06 1.11224E-18-1.82758E-18
 -1       924 9.57499E-05-2.58377E-05-2.99614E-05 1.28213E-06 1.01603E-18-1.70644E-18
 -1       925 9.60443E-05-2.89773E-05-2.87430E-05-9.44421E-07 2.44417E-19-1.11302E-18
 -1       926 1.18506E-04-4.66928E-05-3.08109E-05 6.95355E-06-1.33547E-19 1.59552E-19
 -1       927 9.45429E-05-2.22729E-05-3.09729E-05 4.30644E-07 5.37739E-20-2.53645E-18
 -1       928 8.68308E-05-3.56331E-05-2.18436E-05-2.62626E-05-2.40797E-18-4.81879E-19
 -1       929 9.46817E-05-2.26071E-05-3.08898E-05 1.21687E-06 5.41633E-19-2.41603E-18
 -1       930 9.59351E-05-2.90580E-05-2.86616E-05-9.27896E-07 2.79084E-19-5.94102E-19
 -1       931 6.91365E-05-1.96742E-05-2.11071E-05 1.45304E-05 2.27930E-18-1.83436E-20
 -1       932 5.82228E-05-1.42348E-05-1.87198E-05-2.97449E-06 2.31408E-19-7.89845E-19
 -1       933 9.43757E-05-2.20354E-05-3.10022E-05-2.12521E-06-9.37612E-19-2.42781E-18
 -1       934 9.66910E-05-2.87186E-05-2.91310E-05 5.26259E-07-8.39134E-19-9.83076E-19
 -1       935 9.66101E-05-2.90481E-05-2.89551E-05 6.28023E-07-6.18066E-19-8.03452E-19
 -1       936 9.64740E-05-2.92092E-05-2.88277E-05 6.52833E-07-5.11547E-20-5.98089E-19
 -1       937 9.63114E-05-2.92538E-05-2.87390E-05 6.30983E-07 9.59775E-20-8.07103E-19
 -1       938 9.61406E-05-2.92195E-05-2.86805E-05 5.85444E-07-4.05290E-19-8.96890E-19
 -1       939 9.59713E-05-2.91315E-05-2.86457E-05 5.33154E-07-5.22312E-19-1.05024E-18
 -1       940 9.58067E-05-2.90051E-05-2.86292E-05 4.87008E-07-1.00488E-19-8.22819E-19
 -1       941 9.56458E-05-2.88493E-05-2.86271E-05 4.56578E-07-1.99432E-19-5.58322E-19
 -1       942 9.54838E-05-2.86662E-05-2.86361E-05 4.49292E-07-3.66832E-19 8.37455E-20
 -1       943 9.53125E-05-2.84540E-05-2.86537E-05 4.71632E-07-3.22095E-19 3.33604E-19
 -1       944 9.51213E-05-2.82069E-05-2.86776E-05 5.29512E-07-2.23522E-19 2.57298E-19
 -1       945 9.48966E-05-2.79166E-05-2.87058E-05 6.28605E-07 2.02747E-19 8.48559E-20
 -1       946 9.46221E-05-2.75724E-05-2.87356E-05 7.74456E-07 4.33345E-20 7.43981E-19
 -1       947 9.42779E-05-2.71626E-05-2.87638E-05 9.72274E-07 8.03876E-20 1.31604E-18
 -1       948 9.38406E-05-2.66746E-05-2.87855E-05 1.22644E-06-2.05876E-19 7.53034E-19
 -1       949 9.32824E-05-2.60966E-05-2.87940E-05 1.53982E-06 4.48303E-19 6.65665E-20
 -1       950 9.25709E-05-2.54191E-05-2.87795E-05 1.91294E-06-8.47438E-20 1.26345E-20
 -1       951 9.16678E-05-2.46367E-05-2.87278E-05 2.34357E-06-7.67997E-19-3.79450E-20
 -1       952 9.05288E-05-2.37514E-05-2.86191E-05 2.82728E-06-1.21630E-18 7.80004E-19
 -1       953 8.91016E-05-2.27761E-05-2.84255E-05 3.36044E-06-1.71510E-20 2.62084E-19
 -1       954 8.73234E-05-2.17386E-05-2.81082E-05 3.94813E-06 4.14201E-19 8.35152E-19
 -1       955 8.51160E-05-2.06869E-05-2.76130E-05 4.62035E-06 2.24890E-20 1.51648E-19
 -1       956 8.23737E-05-1.96924E-05-2.68638E-05 5.46109E-06-1.31054E-18-1.89362E-19
 -1       957 7.89413E-05-1.88517E-05-2.57500E-05 6.66084E-06-1.40791E-18 9.71898E-19
 -1       958 7.45772E-05-1.83105E-05-2.41140E-05 8.58269E-06-4.63443E-19 1.22146E-18
 -1       959 9.51825E-05-2.82996E-05-2.86641E-05-5.76219E-07-4.35589E-19-1.47469E-18
 -1       960 9.53389E-05-2.85119E-05-2.86401E-05-5.18917E-07 3.82155E-19-1.66302E-18
 -1       961 9.54833E-05-2.86975E-05-2.86225E-05-5.01891E-07 6.80826E-19-9.78242E-19
 -1       962 9.50051E-05-2.80561E-05-2.86924E-05-6.81434E-07 8.21508E-20-1.46984E-18
 -1       963 9.47969E-05-2.77768E-05-2.87229E-05-8.42949E-07 1.04623E-18-1.24290E-18
 -1       964 9.45479E-05-2.74581E-05-2.87528E-05-1.07021E-06 4.92895E-19-5.16537E-19
 -1       965 9.42494E-05-2.70998E-05-2.87784E-05-1.37392E-06-1.91106E-19-5.57991E-19
 -1       966 9.38949E-05-2.67073E-05-2.87947E-05-1.76610E-06-1.09447E-18-1.19615E-18
 -1       967 9.34837E-05-2.62958E-05-2.87948E-05-2.26030E-06-9.95940E-19-1.00310E-19
 -1       968 9.30239E-05-2.58943E-05-2.87699E-05-2.87179E-06-7.18213E-19-8.71327E-21
 -1       969 9.25388E-05-2.55519E-05-2.87087E-05-3.61818E-06-1.84823E-19-3.73458E-20
 -1       970 9.20745E-05-2.53455E-05-2.85982E-05-4.52033E-06 2.33497E-19-2.42160E-19
 -1       971 9.17122E-05-2.53889E-05-2.84243E-05-5.60335E-06-4.43682E-19-4.13487E-20
 -1       972 9.15848E-05-2.58439E-05-2.81748E-05-6.89639E-06-2.76583E-20 4.89000E-19
 -1       973 9.19047E-05-2.69353E-05-2.78442E-05-8.42578E-06-2.37412E-20 1.34717E-19
 -1       974 9.29926E-05-2.89560E-05-2.74441E-05-1.01847E-05-8.01352E-19-4.51285E-20
 -1       975 9.53316E-05-3.22735E-05-2.70196E-05-1.20862E-05-1.41720E-18-1.06652E-18
 -1       976 9.95715E-05-3.72544E-05-2.67032E-05-1.37556E-05-6.46460E-19-9.51991E-19
 -1       977 1.01029E-04-4.23467E-05-2.50993E-05-2.00228E-05-1.09880E-18-4.42158E-19
 -1       978 9.65433E-05-2.80577E-05-2.93510E-05-3.18995E-07 5.16129E-19-1.52178E-18
 -1       979 9.49368E-05-2.32635E-05-3.07177E-05 1.86792E-06 9.87798E-19-2.32532E-18
 -1       980 9.40756E-05-2.14055E-05-3.11455E-05-1.25038E-06-6.07540E-19-2.89231E-18
 -1       981 7.26985E-05-2.50645E-05-2.02998E-05-2.22158E-05-3.13435E-19-5.26649E-19
 -1       982 9.56234E-05-2.88593E-05-2.86132E-05-5.17747E-07 5.10380E-19-3.22019E-19
 -1       983 9.45420E-05-2.22672E-05-3.09731E-05-4.03125E-07-1.93108E-19-2.54463E-18
 -1       984 9.63642E-05-2.71424E-05-2.96666E-05 1.40449E-07 5.18089E-19-1.58153E-18
 -1       985 9.60645E-05-2.91818E-05-2.86640E-05-6.78716E-07 3.35407E-19-5.94326E-19
 -1       986 9.66723E-05-2.81496E-05-2.93669E-05 3.10334E-07-8.53460E-19-1.04037E-18
 -1       987 1.05547E-04-4.26223E-05-2.69542E-05-1.34352E-05-3.84632E-19-1.22209E-18
 -1       988 9.60655E-05-2.58995E-05-3.00709E-05-6.45114E-07-6.51185E-19-1.97730E-18
 -1       989 9.64940E-05-2.72502E-05-2.96759E-05-5.99532E-08-5.02960E-19-1.33498E-18
 -1       990 9.65639E-05-2.86351E-05-2.91123E-05-5.87819E-07 1.24222E-19-1.53248E-18
 -1       991 9.53175E-05-2.39646E-05-3.05820E-05-1.05871E-06-5.67569E-19-2.38585E-18
 -1       992 9.60103E-05-2.60241E-05-2.99949E-05 7.57042E-07 8.36402E-19-2.00993E-18
 -1       993 9.55678E-05-2.43465E-05-3.05234E-05 7.54659E-09-1.85706E-20-2.28633E-18
 -1       994 9.59119E-05-2.91078E-05-2.86303E-05-6.16384E-07 3.56562E-19 3.86731E-20
 -1       995 9.55749E-05-2.47841E-05-3.03366E-05 1.29767E-06 9.97197E-19-2.37262E-18
 -1       996 9.64910E-05-2.89741E-05-2.89358E-05-7.17575E-07 1.83396E-19-1.31392E-18
 -1       997 8.88479E-05-3.25167E-05-2.41190E-05-1.97086E-05-6.34983E-19-5.14564E-19
 -1       998 9.62194E-05-2.92032E-05-2.87212E-05-7.31374E-07 4.52840E-19-9.18143E-19
 -1       999 6.70984E-05-1.84266E-05-2.08093E-05-1.30622E-05-6.05289E-19-1.09423E-18
 -1      1000 9.56233E-05-2.45054E-05-3.04783E-05 4.92564E-07 4.03686E-19-1.90924E-18
 -1      1001 6.72270E-05-1.57420E-05-2.20373E-05 3.47481E-06 2.44446E-19 9.54399E-19
 -1      1002 9.57652E-05-2.89975E-05-2.86147E-05-5.58939E-07 2.52177E-19 1.48811E-19
 -1      1003 9.50105E-05-3.54973E-05-2.54990E-05-1.70744E-05-8.81234E-19-1.63745E-18
 -1      1004 9.68770E-05-2.89210E-05-2.91241E-05 3.63936E-07-5.63855E-19-1.02415E-18
 -1      1005 7.00606E-05-1.67159E-05-2.28546E-05-5.17141E-06-3.92579E-19-9.45593E-19
 -1      1006 9.67671E-05-2.91983E-05-2.89581E-05 4.09555E-07-1.51252E-19-7.91049E-19
 -1      1007 9.66027E-05-2.93156E-05-2.88373E-05 4.13496E-07 3.89304E-21-7.65949E-19
 -1      1008 9.64124E-05-2.93226E-05-2.87528E-05 3.94479E-07-5.18678E-20-6.60765E-19
 -1      1009 9.62138E-05-2.92543E-05-2.86970E-05 3.64568E-07-3.30067E-19-1.85857E-19
 -1      1010 9.60157E-05-2.91334E-05-2.86638E-05 3.33573E-07-3.88515E-19-7.58066E-19
 -1      1011 9.58202E-05-2.89739E-05-2.86485E-05 3.10067E-07 1.52259E-19-7.23955E-19
 -1      1012 9.56249E-05-2.87826E-05-2.86467E-05 2.98332E-07 1.23550E-20-5.41994E-19
 -1      1013 9.54218E-05-2.85594E-05-2.86554E-05 3.03363E-07-1.52291E-19-2.41613E-19
 -1      1014 9.52008E-05-2.83006E-05-2.86716E-05 3.28896E-07-1.62571E-19 3.18909E-19
 -1      1015 9.49479E-05-2.79988E-05-2.86925E-05 3.78025E-07-1.60199E-19 3.31412E-19
 -1      1016 9.46463E-05-2.76441E-05-2.87153E-05 4.53363E-07 5.31812E-19 3.14350E-20
 -1      1017 9.42756E-05-2.72248E-05-2.87362E-05 5.56715E-07 2.70379E-19 3.78819E-19
 -1      1018 9.38125E-05-2.67290E-05-2.87503E-05 6.88527E-07-6.56301E-19 1.54627E-19
 -1      1019 9.32296E-05-2.61449E-05-2.87508E-05 8.47076E-07-2.25597E-19 3.78310E-19
 -1      1020 9.24957E-05-2.54631E-05-2.87285E-05 1.02742E-06 4.17698E-19-7.73630E-20
 -1      1021 9.15745E-05-2.46780E-05-2.86703E-05 1.22025E-06-3.10911E-19 7.87860E-20
 -1      1022 9.04239E-05-2.37893E-05-2.85582E-05 1.41100E-06-6.96284E-19-2.48145E-19
 -1      1023 8.89932E-05-2.28043E-05-2.83673E-05 1.57976E-06-4.44807E-19 2.87378E-19
 -1      1024 8.72174E-05-2.17380E-05-2.80634E-05 1.70307E-06 4.38857E-20 2.81085E-19
 -1      1025 8.50063E-05-2.06113E-05-2.75989E-05 1.75941E-06 2.21729E-19-2.90893E-19
 -1      1026 8.22232E-05-1.94459E-05-2.69059E-05 1.74141E-06-4.29896E-19 3.26433E-19
 -1      1027 7.86577E-05-1.82575E-05-2.58856E-05 1.65671E-06-2.14188E-19 7.41793E-19
 -1      1028 7.39295E-05-1.70157E-05-2.43889E-05 1.61252E-06-1.07614E-18 1.24729E-18
 -1      1029 9.47763E-05-2.77954E-05-2.87062E-05-5.65692E-07 6.48486E-20-4.41916E-19
 -1      1030 9.50328E-05-2.81061E-05-2.86829E-05-4.64117E-07-1.48243E-19-1.01460E-18
 -1      1031 9.44702E-05-2.74370E-05-2.87286E-05-7.14851E-07 2.63640E-19-1.63057E-19
 -1      1032 9.41000E-05-2.70264E-05-2.87459E-05-9.21215E-07 4.74907E-19-3.96337E-19
 -1      1033 9.36522E-05-2.65629E-05-2.87527E-05-1.19669E-06-1.88425E-19-8.76112E-19
 -1      1034 9.31155E-05-2.60525E-05-2.87414E-05-1.55627E-06-1.60558E-18-1.00458E-18
 -1      1035 9.24840E-05-2.55117E-05-2.87026E-05-2.01923E-06-1.70847E-18-5.06886E-19
 -1      1036 9.17599E-05-2.49720E-05-2.86235E-05-2.61096E-06-5.40179E-19-3.05306E-19
 -1      1037 9.09592E-05-2.44856E-05-2.84889E-05-3.36589E-06-2.83193E-19-1.02782E-18
 -1      1038 9.01188E-05-2.41326E-05-2.82800E-05-4.33173E-06-8.20406E-19-2.47955E-19
 -1      1039 8.93060E-05-2.40296E-05-2.79759E-05-5.57539E-06-6.77704E-19 8.86675E-19
 -1      1040 8.86345E-05-2.43410E-05-2.75548E-05-7.19069E-06 2.35919E-19 1.18933E-18
 -1      1041 8.82891E-05-2.53024E-05-2.69968E-05-9.32386E-06-5.37935E-20 8.61758E-19
 -1      1042 8.86709E-05-2.73056E-05-2.63006E-05-1.20942E-05-8.21837E-20 1.85592E-19
 -1      1043 9.08942E-05-3.06444E-05-2.58302E-05-1.46177E-05-7.48048E-19-1.20200E-18
 -1      1044 9.56071E-05-2.44817E-05-3.04815E-05-4.86912E-07-3.55084E-19-2.31539E-18
 -1      1045 9.63669E-05-2.91459E-05-2.88090E-05-7.53454E-07 6.00161E-20-1.18686E-18
 -1      1046 9.63629E-05-2.63780E-05-2.99934E-05-2.36616E-07-1.25812E-19-2.21815E-18
 -1      1047 9.52533E-05-2.83755E-05-2.86619E-05-4.02207E-07 2.79671E-19 3.01681E-21
 -1      1048 9.55766E-05-2.45471E-05-3.04393E-05 9.20007E-07 6.93690E-19-1.94802E-18
 -1      1049 9.56358E-05-2.88138E-05-2.86380E-05-3.71300E-07 1.03827E-18-5.55688E-19
 -1      1050 9.66365E-05-2.74519E-05-2.96505E-05-2.81040E-08 2.76272E-19-1.62276E-18
 -1      1051 9.68017E-05-2.83080E-05-2.93546E-05-2.96624E-07 2.40980E-19-1.15880E-18
 -1      1052 9.68883E-05-2.84167E-05-2.93451E-05 2.55716E-07-7.20756E-19-1.46234E-18
 -1      1053 9.54507E-05-2.86099E-05-2.86461E-05-3.73254E-07 6.22599E-19-1.34421E-19
 -1      1054 9.67374E-05-2.75945E-05-2.96325E-05 6.15771E-08-5.05360E-19-1.85811E-18
 -1      1055 8.57395E-05-2.78438E-05-2.48023E-05-1.56515E-05-4.04911E-19 5.90502E-19
 -1      1056 9.62738E-05-2.59943E-05-3.01190E-05-1.10390E-07-1.08237E-19-1.91517E-18
 -1      1057 9.62988E-05-2.63959E-05-2.99593E-05 3.47991E-07 3.54132E-19-1.79356E-18
 -1      1058 9.68040E-05-2.88393E-05-2.91278E-05-4.48562E-07 1.26073E-19-1.34772E-18
 -1      1059 9.63745E-05-2.92965E-05-2.87477E-05-5.02966E-07 3.55807E-20-4.42478E-19
 -1      1060 9.58168E-05-2.89893E-05-2.86404E-05-3.90108E-07 8.19115E-19 1.61313E-19
 -1      1061 9.61868E-05-2.92418E-05-2.86907E-05-4.64954E-07-1.60583E-19-4.77782E-19
 -1      1062 9.62868E-05-2.60159E-05-3.01173E-05 1.03850E-07-1.23372E-20-1.79901E-18
 -1      1063 7.54570E-05-2.23622E-05-2.27322E-05-1.52328E-05-2.53744E-19-8.53841E-19
 -1      1064 7.95255E-05-2.19453E-05-2.46716E-05-1.12023E-05-2.96761E-20-4.31259E-19
 -1      1065 9.69514E-05-2.90972E-05-2.90801E-05 1.52448E-07-8.31991E-20-8.41479E-19
 -1      1066 9.68014E-05-2.93009E-05-2.89288E-05 1.61951E-07-2.97763E-19-9.82939E-19
 -1      1067 9.66172E-05-2.93719E-05-2.88195E-05 1.57668E-07 3.58060E-20-1.09862E-18
 -1      1068 9.64108E-05-2.93383E-05-2.87452E-05 1.48767E-07-8.26773E-20-1.06382E-18
 -1      1069 9.61901E-05-2.92333E-05-2.86960E-05 1.38444E-07-5.85715E-19-7.96701E-19
 -1      1070 9.59784E-05-2.90866E-05-2.86679E-05 1.27173E-07 3.51451E-20-3.52540E-19
 -1      1071 9.57659E-05-2.89000E-05-2.86568E-05 1.20401E-07 1.35910E-19-7.28002E-19
 -1      1072 9.55466E-05-2.86789E-05-2.86575E-05 1.19812E-07 3.88514E-19-5.12515E-19
 -1      1073 9.53135E-05-2.84229E-05-2.86673E-05 1.25549E-07 9.49012E-20-1.09680E-19
 -1      1074 9.50534E-05-2.81260E-05-2.86831E-05 1.38505E-07-4.56804E-20 4.05961E-19
 -1      1075 9.47503E-05-2.77797E-05-2.87016E-05 1.58720E-07 1.73402E-20 5.70024E-19
 -1      1076 9.43851E-05-2.73734E-05-2.87192E-05 1.85157E-07 1.82382E-19-8.06922E-19
 -1      1077 9.39358E-05-2.68962E-05-2.87311E-05 2.15185E-07 2.77524E-19-7.15574E-19
 -1      1078 9.33776E-05-2.63378E-05-2.87312E-05 2.43748E-07-2.78397E-19 2.10909E-19
 -1      1079 9.26828E-05-2.56901E-05-2.87110E-05 2.62211E-07-4.89888E-19 4.65166E-20
 -1      1080 9.18207E-05-2.49493E-05-2.86590E-05 2.56852E-07-6.14693E-19-4.67666E-19
 -1      1081 9.07571E-05-2.41176E-05-2.85597E-05 2.06996E-07-3.79379E-19-1.48999E-18
 -1      1082 8.94533E-05-2.32051E-05-2.83921E-05 8.27852E-08-4.45111E-19-1.98014E-18
 -1      1083 8.78620E-05-2.22307E-05-2.81278E-05-1.57486E-07 3.83497E-20-9.78355E-19
 -1      1084 8.59200E-05-2.12210E-05-2.77285E-05-5.71045E-07-3.08679E-20-8.41835E-19
 -1      1085 8.35317E-05-2.02043E-05-2.71412E-05-1.23733E-06-4.47387E-19-2.48259E-19
 -1      1086 8.05316E-05-1.91965E-05-2.62889E-05-2.27175E-06-1.22890E-18-5.63589E-19
 -1      1087 7.68376E-05-1.83356E-05-2.50824E-05-3.78704E-06-6.73928E-19-2.56243E-18
 -1      1088 9.41090E-05-2.70765E-05-2.87283E-05-4.69139E-07 8.56550E-19 7.55391E-19
 -1      1089 9.36195E-05-2.65773E-05-2.87325E-05-6.21609E-07 3.47923E-19 6.42722E-19
 -1      1090 9.30220E-05-2.60104E-05-2.87194E-05-8.30765E-07-6.83584E-19 3.99933E-19
 -1      1091 9.22983E-05-2.53809E-05-2.86791E-05-1.11463E-06-1.25781E-18-5.78070E-21
 -1      1092 9.14333E-05-2.47035E-05-2.85987E-05-1.49836E-06-1.35360E-18-7.95659E-19
 -1      1093 9.04166E-05-2.40072E-05-2.84614E-05-2.01748E-06-1.37730E-19-2.18577E-19
 -1      1094 8.92448E-05-2.33386E-05-2.82458E-05-2.72267E-06 1.64111E-19-7.49615E-19
 -1      1095 8.79245E-05-2.27671E-05-2.79249E-05-3.68694E-06-1.22266E-18-1.97014E-18
 -1      1096 8.64759E-05-2.23909E-05-2.74655E-05-5.01600E-06-2.18538E-19-2.67850E-18
 -1      1097 8.49420E-05-2.23474E-05-2.68276E-05-6.86112E-06-4.33211E-19-1.67024E-18
 -1      1098 8.33862E-05-2.27940E-05-2.59629E-05-9.45336E-06-2.99161E-19 4.38494E-19
 -1      1099 9.67066E-05-2.91383E-05-2.89578E-05-5.15028E-07-7.39510E-20-1.30101E-18
 -1      1100 9.59998E-05-2.91346E-05-2.86565E-05-4.24363E-07-4.32642E-20 4.48111E-19
 -1      1101 9.65531E-05-2.92732E-05-2.88342E-05-5.26422E-07 1.39563E-19-8.65516E-19
 -1      1102 9.51189E-05-2.82058E-05-2.86771E-05-2.37777E-07 5.05221E-19 7.80800E-19
 -1      1103 9.70072E-05-2.86838E-05-2.92811E-05 1.22395E-07-1.30992E-19-1.17178E-18
 -1      1104 9.69222E-05-2.79870E-05-2.95436E-05 5.79889E-08-2.23276E-19-1.74795E-18
 -1      1105 9.55829E-05-2.87257E-05-2.86531E-05-2.02231E-07 5.58705E-19 5.90410E-19
 -1      1106 9.48403E-05-2.78838E-05-2.86956E-05-2.85566E-07-4.15323E-19 9.12184E-19
 -1      1107 9.68440E-05-2.78214E-05-2.95811E-05-8.00216E-08-9.59721E-20-1.30270E-18
 -1      1108 9.53618E-05-2.84842E-05-2.86619E-05-2.11477E-07 5.87920E-19 2.36694E-19
 -1      1109 9.66926E-05-2.71490E-05-2.98050E-05-2.12491E-08-1.30914E-19-1.97360E-18
 -1      1110 9.45096E-05-2.75100E-05-2.87141E-05-3.60311E-07-2.22369E-19 8.83093E-19
 -1      1111 9.57929E-05-2.89353E-05-2.86534E-05-2.06432E-07 2.75372E-19-8.05982E-19
 -1      1112 9.66098E-05-2.93467E-05-2.88273E-05-2.78291E-07-3.11793E-19-4.23539E-19
 -1      1113 9.65178E-05-2.66986E-05-2.99215E-05 1.05170E-07 5.80567E-20-1.63047E-18
 -1      1114 9.64207E-05-2.93402E-05-2.87491E-05-2.61427E-07 4.16223E-20-9.21149E-19
 -1      1115 9.69698E-05-2.85768E-05-2.93112E-05-1.90242E-07 2.85595E-19-1.11578E-18
 -1      1116 9.67294E-05-2.93587E-05-2.88722E-05-9.69570E-08-3.42187E-19-1.09033E-18
 -1      1117 9.60937E-05-2.91698E-05-2.86810E-05-7.87713E-08 5.91900E-20-1.08727E-18
 -1      1118 9.69331E-05-2.90297E-05-2.91015E-05-2.53841E-07 3.33335E-20-1.08699E-18
 -1      1119 9.68044E-05-2.92693E-05-2.89439E-05-2.77254E-07-2.99606E-19-1.04880E-18
 -1      1120 9.62111E-05-2.92500E-05-2.86979E-05-2.39604E-07-1.23462E-19-1.08599E-18
 -1      1121 9.59934E-05-2.91058E-05-2.86663E-05-2.20502E-07 2.34154E-19-1.70556E-18
 -1      1122 9.67592E-05-2.73667E-05-2.97399E-05-5.64836E-09-3.52169E-20-1.53072E-18
 -1      1123 1.16859E-04 2.57580E-10-4.18565E-05-4.14653E-05-3.44742E-19 1.37749E-17
 -1      1124 8.86518E-05 7.19252E-11-3.72519E-05-2.41665E-05-2.04558E-19 2.81887E-18
 -1      1125 8.40770E-05 4.14366E-11-3.57672E-05-1.78777E-05-1.54266E-19-2.11319E-18
 -1      1126 8.23344E-05 3.20347E-11-3.50727E-05-1.38373E-05-1.10194E-19-4.46211E-18
 -1      1127 8.15328E-05 2.73368E-11-3.47381E-05-1.05324E-05-7.52933E-20-5.71492E-18
 -1      1128 8.11282E-05 2.46043E-11-3.45727E-05-7.63974E-06-5.10536E-20-6.29334E-18
 -1      1129 8.09189E-05 2.29495E-11-3.44893E-05-4.97926E-06-3.39309E-20-6.55154E-18
 -1      1130 8.08170E-05 2.20558E-11-3.44500E-05-2.43195E-06-1.85884E-20-6.64747E-18
 -1      1131 8.07880E-05 2.17856E-11-3.44390E-05 5.24541E-08-1.17460E-21-6.62755E-18
 -1      1132 8.08214E-05 2.21001E-11-3.44515E-05 2.53939E-06 1.82112E-20-6.57106E-18
 -1      1133 8.09280E-05 2.30502E-11-3.44923E-05 5.09509E-06 4.26627E-20-6.38631E-18
 -1      1134 8.11440E-05 2.47666E-11-3.45771E-05 7.77196E-06 5.97952E-20-6.04602E-18
 -1      1135 8.15531E-05 2.76400E-11-3.47446E-05 1.06925E-05 8.18181E-20-5.38755E-18
 -1      1136 8.23582E-05 3.24999E-11-3.50827E-05 1.40419E-05 1.14958E-19-4.14020E-18
 -1      1137 8.40746E-05 4.19260E-11-3.57871E-05 1.81286E-05 1.51672E-19-1.70856E-18
 -1      1138 8.83502E-05 6.67474E-11-3.73221E-05 2.40100E-05 1.92700E-19 3.22325E-18
 -1      1139 1.06622E-04 1.63930E-10-4.06352E-05 3.61924E-05 4.38551E-19 1.38471E-17
 -1      1140 1.30226E-04-2.57579E-05-4.02751E-05-2.61059E-05-1.45944E-18 2.08239E-17
 -1      1141 9.74621E-05-2.88642E-05-3.15792E-05-6.80484E-07-4.69071E-19 1.74045E-17
 -1      1142 9.01640E-05-2.70279E-05-2.78944E-05 3.87085E-07-2.26621E-19 1.24038E-17
 -1      1143 8.82531E-05-2.65736E-05-2.66448E-05 2.50920E-07-1.38228E-19 9.11344E-18
 -1      1144 8.78946E-05-2.64469E-05-2.63884E-05 1.65926E-07-4.73230E-20 6.76531E-18
 -1      1145 8.82531E-05-2.65233E-05-2.64732E-05 1.18040E-07-8.89980E-20 5.23112E-18
 -1      1146 8.89382E-05-2.67074E-05-2.66755E-05 8.74608E-08-5.77827E-21 3.90678E-18
 -1      1147 8.97509E-05-2.69386E-05-2.69175E-05 6.62353E-08-5.17708E-20 2.93269E-18
 -1      1148 9.05811E-05-2.71804E-05-2.71650E-05 5.05124E-08-4.63721E-20 1.49360E-18
 -1      1149 9.13663E-05-2.74118E-05-2.73997E-05 3.83851E-08-6.69137E-20 3.86816E-19
 -1      1150 9.20735E-05-2.76215E-05-2.76118E-05 2.88388E-08-6.63039E-20-5.55846E-19
 -1      1151 9.26878E-05-2.78045E-05-2.77966E-05 2.12625E-08 6.13249E-20-8.07375E-19
 -1      1152 9.32068E-05-2.79596E-05-2.79533E-05 1.52430E-08-1.53418E-20-1.17596E-18
 -1      1153 9.36353E-05-2.80880E-05-2.80830E-05 1.04740E-08 6.18107E-20-6.78242E-19
 -1      1154 9.39834E-05-2.81928E-05-2.81888E-05 6.71604E-09-1.26256E-20-1.24066E-18
 -1      1155 9.42643E-05-2.82775E-05-2.82744E-05 3.77988E-09-3.57891E-20-2.13452E-18
 -1      1156 9.44930E-05-2.83469E-05-2.83446E-05 1.51990E-09 2.90038E-20-2.89116E-18
 -1      1157 9.46868E-05-2.84059E-05-2.84043E-05-1.66558E-10-5.78650E-20-2.79993E-18
 -1      1158 9.48645E-05-2.84603E-05-2.84593E-05-1.33655E-09-9.12988E-20-3.99113E-18
 -1      1159 9.50474E-05-2.85164E-05-2.85162E-05-1.99590E-09 8.13692E-21-4.49178E-18
 -1      1160 9.52602E-05-2.85817E-05-2.85824E-05-2.09000E-09-7.75437E-20-3.15910E-18
 -1      1161 9.55319E-05-2.86650E-05-2.86668E-05-1.48963E-09-7.25652E-20-3.03022E-18
 -1      1162 9.58978E-05-2.87769E-05-2.87801E-05 3.02946E-11-8.33093E-20-3.12096E-18
 -1      1163 9.64011E-05-2.89304E-05-2.89356E-05 2.82193E-09-3.97462E-19-4.06809E-18
 -1      1164 9.70950E-05-2.91415E-05-2.91494E-05 7.40866E-09 8.10955E-20-4.07054E-18
 -1      1165 9.80451E-05-2.94297E-05-2.94415E-05 1.45437E-08 3.43313E-20-2.73344E-18
 -1      1166 9.93308E-05-2.98189E-05-2.98358E-05 2.52779E-08 2.11297E-19-3.41216E-18
 -1      1167 1.01046E-04-3.03367E-05-3.03605E-05 4.10128E-08-2.45105E-19-4.47050E-18
 -1      1168 1.03296E-04-3.10142E-05-3.10464E-05 6.34660E-08-2.71139E-19-4.91050E-18
 -1      1169 1.06187E-04-3.18819E-05-3.19232E-05 9.43701E-08 1.46255E-19-4.79635E-18
 -1      1170 1.09799E-04-3.29624E-05-3.30101E-05 1.34518E-07-3.07375E-19-3.05887E-18
 -1      1171 1.14134E-04-3.42542E-05-3.42979E-05 1.81424E-07 2.20973E-19-2.47866E-18
 -1      1172 1.19020E-04-3.57028E-05-3.57179E-05 2.24568E-07 1.35222E-19-2.46235E-18
 -1      1173 1.23951E-04-3.71551E-05-3.70972E-05 2.37685E-07-1.76289E-20-2.25705E-18
 -1      1174 1.27902E-04-3.83032E-05-3.81136E-05 1.70904E-07-3.55794E-19-6.04984E-18
 -1      1175 1.29209E-04-3.86530E-05-3.82951E-05-4.40748E-08 2.62011E-19-6.35655E-18
 -1      1176 1.25837E-04-3.76083E-05-3.71401E-05-4.49365E-07 2.34926E-19-5.30486E-18
 -1      1177 1.16407E-04-3.47874E-05-3.44228E-05-9.60157E-07-2.50278E-19-4.99802E-18
 -1      1178 1.01987E-04-3.05484E-05-3.05836E-05-1.28277E-06 4.13866E-19-4.22013E-18
 -1      1179 8.72616E-05-2.62843E-05-2.68490E-05-1.04778E-06-7.31625E-20-4.59050E-18
 -1      1180 7.88300E-05-2.38565E-05-2.47179E-05-2.14729E-07 3.17902E-20-4.63854E-18
 -1      1181 8.05563E-05-2.43191E-05-2.50131E-05 7.19218E-07 5.01073E-20-6.07323E-18
 -1      1182 9.03023E-05-2.70937E-05-2.72857E-05 1.15863E-06 2.63738E-20-5.08389E-18
 -1      1183 1.01786E-04-3.04262E-05-3.01430E-05 9.68246E-07-4.35454E-19-6.37435E-18
 -1      1184 1.09356E-04-3.26737E-05-3.21902E-05 4.56560E-07-4.41119E-19-7.12222E-18
 -1      1185 1.10908E-04-3.31743E-05-3.27648E-05-2.37524E-08 4.43984E-19-1.95574E-18
 -1      1186 1.07515E-04-3.22118E-05-3.20179E-05-3.07558E-07-3.51876E-19 3.91356E-19
 -1      1187 1.01792E-04-3.05523E-05-3.05945E-05-3.56523E-07 1.44093E-19 9.60324E-20
 -1      1188 9.67901E-05-2.91409E-05-2.92532E-05-1.42194E-07-2.84504E-19-1.18447E-18
 -1      1189 9.49076E-05-2.84439E-05-2.83933E-05 1.27888E-07 2.70435E-19-2.01582E-19
 -1      1190 1.31059E-04-3.77397E-05-3.86605E-05 1.21747E-05-2.39287E-19 2.26708E-17
 -1      1191 9.65633E-05-2.81907E-05-3.13317E-05 8.01425E-07 1.79809E-19 1.75770E-17
 -1      1192 9.03786E-05-2.69307E-05-2.78755E-05 1.20155E-07 7.34603E-20 1.29254E-17
 -1      1193 8.83400E-05-2.65009E-05-2.66813E-05 9.00212E-09 1.14078E-19 9.58892E-18
 -1      1194 8.79350E-05-2.64094E-05-2.64156E-05-2.52891E-08 7.55332E-20 6.97127E-18
 -1      1195 8.82749E-05-2.65059E-05-2.64890E-05-3.43188E-08 7.02235E-20 5.19009E-18
 -1      1196 8.89512E-05-2.67005E-05-2.66857E-05-3.55096E-08-5.18378E-20 4.39150E-18
 -1      1197 8.97592E-05-2.69373E-05-2.69249E-05-3.37971E-08 2.26728E-20 3.73724E-18
 -1      1198 9.05865E-05-2.71821E-05-2.71706E-05-3.07367E-08 6.10988E-20 2.98835E-18
 -1      1199 9.13700E-05-2.74149E-05-2.74040E-05-2.70348E-08 7.87802E-21 2.13033E-18
 -1      1200 9.20762E-05-2.76253E-05-2.76152E-05-2.31047E-08 1.47661E-19 8.97981E-19
 -1      1201 9.26901E-05-2.78086E-05-2.77993E-05-1.92035E-08 8.69287E-20 3.70885E-19
 -1      1202 9.32091E-05-2.79637E-05-2.79555E-05-1.54833E-08 5.95392E-20-2.54921E-19
 -1      1203 9.36381E-05-2.80921E-05-2.80850E-05-1.20211E-08 2.29856E-20-1.36686E-18
 -1      1204 9.39873E-05-2.81967E-05-2.81908E-05-8.83981E-09 8.74674E-20-2.78622E-18
 -1      1205 9.42698E-05-2.82815E-05-2.82767E-05-5.92509E-09 2.25751E-20-3.30600E-18
 -1      1206 9.45010E-05-2.83511E-05-2.83473E-05-3.23942E-09-2.20321E-20-1.89477E-18
 -1      1207 9.46981E-05-2.84106E-05-2.84079E-05-7.35427E-10 1.72650E-19-1.96749E-18
 -1      1208 9.48800E-05-2.84657E-05-2.84641E-05 1.63141E-09 6.95619E-20-3.33390E-18
 -1      1209 9.50675E-05-2.85227E-05-2.85222E-05 3.88892E-09 7.64303E-20-3.79475E-18
 -1      1210 9.52843E-05-2.85886E-05-2.85894E-05 6.03192E-09-5.81394E-21-2.51415E-18
 -1      1211 9.55572E-05-2.86715E-05-2.86739E-05 8.00172E-09-2.42186E-19-4.26114E-19
 -1      1212 9.59167E-05-2.87805E-05-2.87849E-05 9.65958E-09 2.05954E-19-2.05907E-18
 -1      1213 9.63974E-05-2.89259E-05-2.89327E-05 1.07525E-08-2.24197E-19-3.73164E-18
 -1      1214 9.70374E-05-2.91189E-05-2.91288E-05 1.08705E-08-1.39972E-19-3.23643E-18
 -1      1215 9.78762E-05-2.93713E-05-2.93846E-05 9.39941E-09 3.51208E-19-3.43753E-18
 -1      1216 9.89512E-05-2.96938E-05-2.97110E-05 5.47881E-09-1.93536E-19-4.03679E-18
 -1      1217 1.00291E-04-3.00944E-05-3.01152E-05-2.00402E-09 6.17329E-20-4.47191E-18
 -1      1218 1.01901E-04-3.05743E-05-3.05977E-05-1.43237E-08-2.62182E-19-3.82005E-18
 -1      1219 1.03750E-04-3.11232E-05-3.11461E-05-3.26139E-08-7.27663E-20-2.38589E-18
 -1      1220 1.05741E-04-3.17111E-05-3.17276E-05-5.71741E-08 1.90080E-19-2.90015E-18
 -1      1221 1.07679E-04-3.22803E-05-3.22802E-05-8.61846E-08 7.33875E-20-3.04462E-18
 -1      1222 1.09244E-04-3.27359E-05-3.27048E-05-1.13792E-07-3.20396E-19 6.26725E-19
 -1      1223 1.09976E-04-3.29440E-05-3.28654E-05-1.28131E-07 1.77611E-19 5.03475E-19
 -1      1224 1.09312E-04-3.27424E-05-3.26052E-05-1.11184E-07 1.67617E-19-1.33184E-18
 -1      1225 1.06720E-04-3.19779E-05-3.17896E-05-4.39909E-08-2.67378E-20-4.43787E-18
 -1      1226 1.01945E-04-3.05758E-05-3.03762E-05 7.99669E-08 2.07490E-20-8.07397E-18
 -1      1227 9.53266E-05-2.86286E-05-2.84919E-05 2.37054E-07-1.24904E-22-8.84054E-18
 -1      1228 8.79992E-05-2.64566E-05-2.64656E-05 3.67332E-07 2.15613E-20-8.19134E-18
 -1      1229 8.17220E-05-2.45695E-05-2.47624E-05 3.97871E-07-3.00548E-19-6.70141E-18
 -1      1230 7.82216E-05-2.34865E-05-2.38124E-05 2.92941E-07 2.32709E-19-6.63728E-18
 -1      1231 7.83314E-05-2.34811E-05-2.38121E-05 8.96492E-08-3.51297E-19-3.02359E-18
 -1      1232 8.15249E-05-2.44205E-05-2.46267E-05-1.19586E-07-1.65946E-19-4.08206E-18
 -1      1233 8.62251E-05-2.58381E-05-2.58644E-05-2.48175E-07 4.33546E-19-5.64357E-18
 -1      1234 9.06601E-05-2.71912E-05-2.70748E-05-2.64051E-07-1.44128E-20-7.44034E-18
 -1      1235 9.36550E-05-2.81129E-05-2.79419E-05-1.91857E-07-5.13878E-20-4.81708E-18
 -1      1236 9.49567E-05-2.85176E-05-2.83792E-05-8.69538E-08 3.08522E-20-4.84796E-18
 -1      1237 9.50954E-05-2.85588E-05-2.84991E-05-9.55183E-09-3.45521E-19-3.32629E-18
 -1      1238 9.49513E-05-2.84985E-05-2.84886E-05-1.37291E-08 2.16048E-19-2.62249E-18
 -1      1239 9.50940E-05-2.85323E-05-2.84464E-05-4.30328E-08 1.68809E-19-3.02739E-18
 -1      1240 9.52732E-05-2.87160E-05-2.84630E-05-5.47914E-08-3.01915E-18-5.85274E-19
 -1      1241 9.52945E-05-2.88715E-05-2.85454E-05-1.00428E-07-1.32132E-18-2.13151E-19
 -1      1242 9.50746E-05-2.82216E-05-2.88341E-05-3.93247E-08 3.27841E-18-1.84958E-19
 -1      1243 9.43654E-05-2.59241E-05-2.95967E-05 7.22758E-08 3.99536E-18-4.60180E-19
 -1      1244 9.29733E-05-2.12927E-05-3.10157E-05 2.34534E-07 1.18074E-18-4.36255E-19
 -1      1245 9.08460E-05-1.41413E-05-3.31081E-05 4.15951E-07-6.55164E-18-9.59801E-19
 -1      1246 8.81598E-05-4.99361E-06-3.56995E-05 5.46599E-07-1.17518E-17-8.70414E-19
 -1      1247 8.53443E-05 4.66035E-06-3.83611E-05 5.48884E-07-1.06282E-17-1.20092E-18
 -1      1248 8.31083E-05 1.23761E-05-4.04465E-05 3.73471E-07-8.12749E-18 4.91696E-19
 -1      1249 8.21072E-05 1.58465E-05-4.13700E-05 5.43191E-08-4.94946E-18 7.28832E-19
 -1      1250 8.26689E-05 1.38955E-05-4.08389E-05-2.91395E-07-1.53535E-18-2.75550E-20
 -1      1251 8.46309E-05 7.15274E-06-3.90111E-05-5.33014E-07-9.03514E-18-7.85719E-19
 -1      1252 8.74224E-05-2.44671E-06-3.63671E-05-6.01106E-07-7.20412E-18 1.02208E-18
 -1      1253 9.04119E-05-1.26249E-05-3.35197E-05-5.32851E-07-1.00077E-18 8.69600E-19
 -1      1254 9.30073E-05-2.13897E-05-3.10567E-05-4.46905E-07 2.00376E-18 1.72351E-19
 -1      1255 9.45182E-05-2.68051E-05-2.93802E-05-2.64074E-08 1.88219E-18-5.69067E-19
 -1      1256 9.53865E-05-2.88752E-05-2.84238E-05 8.32098E-08 4.91279E-19 8.41345E-19
 -1      1257 3.83216E-05-1.21248E-04 2.08911E-05-1.58893E-05 1.23951E-17 1.75796E-18
 -1      1258 2.00128E-05-7.43993E-05 1.14218E-05-2.90011E-05 1.29113E-17 4.39356E-18
 -1      1259 9.48861E-06-1.01378E-05-6.11549E-06 1.36332E-06 7.64363E-18 4.22161E-18
 -1      1260 3.95121E-05 2.57819E-05-2.79679E-05 5.94692E-05 6.50013E-18 6.55604E-18
 -1      1261 1.17126E-04 1.25989E-05-4.93501E-05 1.07498E-04 4.02764E-18 5.57686E-18
 -1      1262 2.20364E-04-3.63809E-05-6.73721E-05 1.14799E-04 1.86051E-18 4.79251E-18
 -1      1263 3.01229E-04-8.37329E-05-7.83074E-05 6.35624E-05 1.00691E-18 8.29753E-18
 -1      1264 3.16099E-04-9.35889E-05-8.01666E-05-2.34371E-05 3.77671E-19 4.39483E-18
 -1      1265 2.55615E-04-5.83114E-05-7.19134E-05-9.68054E-05 1.62524E-18-2.51145E-18
 -1      1266 1.50423E-04-3.18221E-06-5.55253E-05-1.12264E-04 6.06984E-18-9.35802E-18
 -1      1267 5.61609E-05 2.57905E-05-3.37394E-05-7.33395E-05 1.03982E-17-1.09572E-17
 -1      1268 1.13078E-05 5.55863E-06-1.19971E-05-1.50238E-05 1.02491E-17-6.64751E-18
 -1      1269 1.33698E-05-5.13615E-05 6.48000E-06 2.18898E-05 1.15645E-17-4.40203E-18
 -1      1270 3.20764E-05-1.05213E-04 1.84818E-05 1.93745E-05 8.26196E-18-2.13770E-18
 -1      1271 3.94083E-05-1.21626E-04 2.13210E-05-8.10927E-06 5.36701E-19-5.80747E-19
 -1      1272 2.45288E-05-8.88172E-05 1.53135E-05-2.90106E-05-6.36884E-18-2.98113E-18
 -1      1273 7.90537E-06-3.25066E-05 1.61452E-06-1.81318E-05-1.32476E-17-8.50590E-18
 -1      1274 1.76311E-05 1.28728E-05-1.69787E-05 2.67106E-05-1.29494E-17-1.05405E-17
 -1      1275 7.63402E-05 1.95506E-05-3.87253E-05 8.33563E-05-8.42120E-18-1.04151E-17
 -1      1276 1.75834E-04-1.67052E-05-5.90993E-05 1.11117E-04-5.93431E-18-1.07776E-17
 -1      1277 2.74890E-04-6.84439E-05-7.46527E-05 8.29088E-05-2.44856E-18-5.36511E-18
 -1      1278 3.29150E-04-1.00436E-04-8.17298E-05 6.37906E-06-6.90014E-19 2.28349E-18
 -1      1279 2.98849E-04-8.04484E-05-7.84015E-05-7.78380E-05-2.33855E-18 9.24791E-18
 -1      1280 2.08846E-04-2.79762E-05-6.61089E-05-1.18926E-04-4.38975E-18 1.04033E-17
 -1      1281 1.06750E-04 1.70883E-05-4.73603E-05-1.05048E-04-7.07018E-18 9.29195E-18
 -1      1282 3.23487E-05 2.49091E-05-2.55418E-05-5.16426E-05-5.15674E-18 5.75813E-18
 -1      1283 8.03132E-06-1.44522E-05-4.61303E-06 4.25061E-06-5.54807E-18 2.00239E-18
 -1      1284 2.06943E-05-7.75872E-05 1.22239E-05 2.89307E-05-9.44018E-18 3.24625E-18
 -1      1285 4.00838E-05-1.24751E-04 2.12646E-05 1.51891E-05 4.13479E-18 1.22298E-18
 -1      1286 1.04448E-04-2.20206E-05-3.78935E-05-1.72750E-05-5.39348E-19 1.15497E-17
 -1      1287 9.03207E-05-6.68184E-06-3.60177E-05-2.04706E-05-1.66813E-18 5.06843E-19
 -1      1288 9.26585E-05-6.74079E-06-3.72229E-05-2.57591E-05-2.10848E-18 3.09474E-18
 -1      1289 8.59001E-05-4.09299E-06-3.51300E-05-1.64326E-05-1.77342E-18-3.12852E-18
 -1      1290 8.71546E-05-4.08823E-06-3.55998E-05-1.88520E-05-1.97359E-18-1.55386E-18
 -1      1291 9.21345E-05-1.04634E-05-3.50939E-05-1.90321E-05-3.00104E-18 4.61474E-19
 -1      1292 8.40992E-05-3.19215E-06-3.46864E-05-1.28193E-05-1.43871E-18-5.02505E-18
 -1      1293 8.47062E-05-3.16097E-06-3.49108E-05-1.46352E-05-1.64806E-18-4.16026E-18
 -1      1294 8.78667E-05-7.39138E-06-3.45739E-05-1.54172E-05-2.75164E-18-2.57112E-18
 -1      1295 8.31844E-05-2.72761E-06-3.44692E-05-9.68541E-06-1.12753E-18-6.00253E-18
 -1      1296 8.35007E-05-2.71112E-06-3.45788E-05-1.12329E-05-1.26058E-18-5.55593E-18
 -1      1297 8.58677E-05-5.98540E-06-3.43042E-05-1.19564E-05-2.23464E-18-4.19167E-18
 -1      1298 8.26909E-05-2.45682E-06-3.43628E-05-6.91510E-06-8.06485E-19-6.46187E-18
 -1      1299 8.28607E-05-2.44834E-06-3.44172E-05-8.28587E-06-9.47757E-19-6.22815E-18
 -1      1300 8.48182E-05-5.21619E-06-3.41719E-05-8.94372E-06-1.70197E-18-4.98752E-18
 -1      1301 8.24152E-05-2.29150E-06-3.43098E-05-4.29513E-06-5.27788E-19-6.63690E-18
 -1      1302 8.25064E-05-2.28754E-06-3.43371E-05-5.59637E-06-6.28720E-19-6.57323E-18
 -1      1303 8.42319E-05-4.76099E-06-3.41085E-05-6.21704E-06-1.20140E-18-5.46733E-18
 -1      1304 8.22826E-05-2.20219E-06-3.42873E-05-1.79011E-06-2.14062E-19-6.68783E-18
 -1      1305 8.23216E-05-2.20061E-06-3.42984E-05-3.04121E-06-3.08515E-19-6.64182E-18
 -1      1306 8.39092E-05-4.49749E-06-3.40793E-05-3.64495E-06-7.24031E-19-5.51842E-18
 -1      1307 8.22566E-05-2.17469E-06-3.42847E-05 6.69835E-07 5.94379E-20-6.67430E-18
 -1      1308 8.22552E-05-2.17473E-06-3.42843E-05-5.66118E-07-3.83878E-20-6.69190E-18
 -1      1309 8.37678E-05-4.37792E-06-3.40684E-05-1.17066E-06-1.88995E-19-5.60065E-18
 -1      1310 8.23304E-05-2.20494E-06-3.43000E-05 3.14856E-06 3.44688E-19-6.53939E-18
 -1      1311 8.22884E-05-2.20658E-06-3.42882E-05 1.89485E-06 2.42764E-19-6.60841E-18
 -1      1312 8.37728E-05-4.38214E-06-3.40688E-05 1.27380E-06 2.22740E-19-5.53695E-18
 -1      1313 8.25239E-05-2.29797E-06-3.43398E-05 5.71297E-06 6.42494E-19-6.38455E-18
 -1      1314 8.24292E-05-2.30133E-06-3.43117E-05 4.40574E-06 5.24950E-19-6.49378E-18
 -1      1315 8.39249E-05-4.51107E-06-3.40804E-05 3.75236E-06 7.21934E-19-5.42935E-18
 -1      1316 8.28840E-05-2.46367E-06-3.44202E-05 8.39471E-06 9.31716E-19-5.97023E-18
 -1      1317 8.27110E-05-2.47235E-06-3.43652E-05 7.01494E-06 8.13307E-19-6.22347E-18
 -1      1318 8.42578E-05-4.78416E-06-3.41097E-05 6.31096E-06 1.20550E-18-5.22574E-18
 -1      1319 8.35428E-05-2.74100E-06-3.45840E-05 1.13949E-05 1.35875E-18-5.20969E-18
 -1      1320 8.32211E-05-2.75809E-06-3.44731E-05 9.82997E-06 1.17049E-18-5.65291E-18
 -1      1321 8.48612E-05-5.25735E-06-3.41731E-05 9.05400E-06 1.74077E-18-4.68415E-18
 -1      1322 8.47649E-05-3.20329E-06-3.49190E-05 1.48436E-05 1.73914E-18-3.85307E-18
 -1      1323 8.41520E-05-3.24001E-06-3.46921E-05 1.30033E-05 1.54834E-18-4.70670E-18
 -1      1324 8.59453E-05-6.06258E-06-3.43061E-05 1.21225E-05 2.39631E-18-3.88489E-18
 -1      1325 8.72565E-05-4.09055E-06-3.56211E-05 1.90911E-05 2.05130E-18-1.16266E-18
 -1      1326 8.59726E-05-4.15440E-06-3.51376E-05 1.66929E-05 1.81747E-18-2.78761E-18
 -1      1327 8.79914E-05-7.51726E-06-3.45758E-05 1.56502E-05 2.89867E-18-2.25758E-18
 -1      1328 9.34711E-05-6.79296E-06-3.71183E-05 2.50963E-05 1.81403E-18 4.17619E-18
 -1      1329 9.01366E-05-6.43841E-06-3.60403E-05 2.11488E-05 1.74965E-18 9.05161E-19
 -1      1330 9.23650E-05-1.06988E-05-3.50791E-05 1.96763E-05 3.09281E-18 8.58415E-19
 -1      1331 1.23633E-04-2.49251E-05-3.90170E-05 2.83670E-05 9.71123E-19 1.46460E-17
 -1      1332 1.00087E-04-1.44252E-05-3.73561E-05 2.40504E-05 9.42324E-19 7.31794E-18
 -1      1333 1.01685E-04-1.93440E-05-3.54042E-05 2.13984E-05 3.00051E-18 5.69693E-18
 -1      1334 1.02612E-04-2.78074E-05-3.47600E-05 7.32878E-06 1.68980E-18 1.39256E-17
 -1      1335 1.05156E-04-3.02333E-05-3.35276E-05-7.95992E-06-1.65754E-18 1.20647E-17
 -1      1336 9.82689E-05-2.78454E-05-3.07644E-05-4.98883E-06-1.56241E-18 1.01705E-17
 -1      1337 9.55106E-05-2.78514E-05-2.92569E-05-2.48953E-06-1.25872E-18 9.23149E-18
 -1      1338 9.32788E-05-2.75607E-05-2.82176E-05-2.04273E-06-1.22595E-18 7.43986E-18
 -1      1339 9.94920E-05-2.80537E-05-3.09849E-05-7.88729E-06-2.73560E-18 5.43366E-18
 -1      1340 9.15892E-05-2.72029E-05-2.75833E-05-8.37775E-07-9.85271E-19 6.77960E-18
 -1      1341 9.08731E-05-2.71077E-05-2.72811E-05-7.27563E-07-9.03407E-19 5.49955E-18
 -1      1342 9.47255E-05-2.77720E-05-2.88185E-05-3.11999E-06-2.08966E-18 4.09352E-18
 -1      1343 9.01233E-05-2.69251E-05-2.70380E-05-1.73505E-07-6.56953E-19 4.88682E-18
 -1      1344 9.00511E-05-2.69520E-05-2.70033E-05-1.15543E-07-6.53909E-19 3.95106E-18
 -1      1345 9.25266E-05-2.75021E-05-2.78977E-05-1.05253E-06-1.61454E-18 2.95247E-18
 -1      1346 8.97919E-05-2.68845E-05-2.69292E-05 1.54418E-07-5.18877E-19 3.60815E-18
 -1      1347 9.00065E-05-2.69746E-05-2.69909E-05 1.83059E-07-5.17597E-19 2.83468E-18
 -1      1348 9.15686E-05-2.73584E-05-2.75310E-05-6.97054E-08-1.16144E-18 1.98411E-18
 -1      1349 9.00104E-05-2.69778E-05-2.69974E-05 3.13939E-07-3.33292E-19 2.55091E-18
 -1      1350 9.03524E-05-2.70974E-05-2.70965E-05 3.25613E-07-2.80165E-19 2.17742E-18
 -1      1351 9.13158E-05-2.73465E-05-2.74232E-05 4.16982E-07-8.64162E-19 1.37973E-18
 -1      1352 9.04943E-05-2.71391E-05-2.71436E-05 3.79881E-07-3.71912E-19 1.89978E-18
 -1      1353 9.08814E-05-2.72672E-05-2.72554E-05 3.81485E-07-4.30213E-19 1.21048E-18
 -1      1354 9.14485E-05-2.74201E-05-2.74454E-05 6.44610E-07-6.55852E-19 6.90281E-19
 -1      1355 9.10890E-05-2.73273E-05-2.73217E-05 3.91652E-07-2.85961E-19 1.01170E-18
 -1      1356 9.14752E-05-2.74517E-05-2.74336E-05 3.87355E-07-2.26050E-19 5.02979E-19
 -1      1357 9.17805E-05-2.75389E-05-2.75341E-05 7.26218E-07-7.53589E-19 2.12202E-19
 -1      1358 9.17057E-05-2.75182E-05-2.75063E-05 3.72301E-07-2.65765E-19 2.91297E-19
 -1      1359 9.20656E-05-2.76320E-05-2.76110E-05 3.64792E-07-3.51863E-19-2.11444E-19
 -1      1360 9.22009E-05-2.76757E-05-2.76537E-05 7.23502E-07-5.08158E-19-1.45238E-19
 -1      1361 9.22938E-05-2.76976E-05-2.76826E-05 3.36232E-07-3.33673E-19-1.06554E-19
 -1      1362 9.26143E-05-2.77978E-05-2.77762E-05 3.27279E-07-1.37458E-19-3.68099E-19
 -1      1363 9.26434E-05-2.78136E-05-2.77829E-05 6.73395E-07-4.43427E-19 3.26567E-20
 -1      1364 9.28259E-05-2.78585E-05-2.78424E-05 2.92733E-07-7.50354E-20-8.94698E-19
 -1      1365 9.31020E-05-2.79438E-05-2.79233E-05 2.83499E-07-2.93318E-19-1.04445E-18
 -1      1366 9.30690E-05-2.79431E-05-2.79092E-05 5.99206E-07-4.17085E-19-6.18116E-19
 -1      1367 9.32901E-05-2.79977E-05-2.79821E-05 2.47856E-07-2.55536E-19-1.03157E-18
 -1      1368 9.35218E-05-2.80687E-05-2.80502E-05 2.39097E-07-3.15280E-20-1.14729E-18
 -1      1369 9.34566E-05-2.80589E-05-2.80254E-05 5.16023E-07-3.51586E-19-1.20334E-18
 -1      1370 9.36842E-05-2.81151E-05-2.81009E-05 2.05535E-07 1.79875E-19-1.30413E-18
 -1      1371 9.38748E-05-2.81730E-05-2.81572E-05 1.97734E-07-4.13958E-20-1.11956E-18
 -1      1372 9.37971E-05-2.81592E-05-2.81284E-05 4.33678E-07-8.61736E-21-1.33536E-18
 -1      1373 9.40126E-05-2.82123E-05-2.82002E-05 1.68323E-07-2.67434E-19-1.24318E-18
 -1      1374 9.41676E-05-2.82589E-05-2.82460E-05 1.61790E-07-2.62654E-19-1.70145E-18
 -1      1375 9.40893E-05-2.82441E-05-2.82174E-05 3.58583E-07-3.38560E-19-1.63786E-18
 -1      1376 9.42842E-05-2.82921E-05-2.82824E-05 1.37921E-07-3.40982E-19-1.68560E-18
 -1      1377 9.44103E-05-2.83295E-05-2.83199E-05 1.32867E-07-4.24408E-19-2.13733E-18
 -1      1378 9.43372E-05-2.83151E-05-2.82936E-05 2.94978E-07-5.09146E-19-1.73126E-18
 -1      1379 9.45105E-05-2.83579E-05-2.83511E-05 1.15570E-07-6.52595E-20-2.28230E-18
 -1      1380 9.46156E-05-2.83888E-05-2.83825E-05 1.12168E-07-8.65523E-20-2.44928E-18
 -1      1381 9.45487E-05-2.83748E-05-2.83591E-05 2.45831E-07-4.09439E-19-1.92178E-18
 -1      1382 9.47054E-05-2.84141E-05-2.84104E-05 1.02366E-07-8.88873E-20-2.38992E-18
 -1      1383 9.47983E-05-2.84410E-05-2.84384E-05 1.00799E-07-1.89055E-19-2.59576E-18
 -1      1384 9.47343E-05-2.84263E-05-2.84171E-05 2.13532E-07-1.48368E-19-1.85633E-18
 -1      1385 9.48850E-05-2.84654E-05-2.84653E-05 9.95081E-08-2.65124E-19-2.72731E-18
 -1      1386 9.49756E-05-2.84913E-05-2.84926E-05 1.00006E-07-2.40266E-19-3.38815E-18
 -1      1387 9.49070E-05-2.84735E-05-2.84715E-05 2.00440E-07-4.50476E-19-2.06118E-18
 -1      1388 9.50677E-05-2.85172E-05-2.85213E-05 1.08508E-07 2.80526E-20-3.43684E-18
 -1      1389 9.51673E-05-2.85455E-05-2.85514E-05 1.11390E-07-4.73319E-20-3.43666E-18
 -1      1390 9.50820E-05-2.85207E-05-2.85270E-05 2.09334E-07-3.07044E-19-2.63574E-18
 -1      1391 9.52746E-05-2.85756E-05-2.85847E-05 1.31380E-07 2.52254E-19-3.51870E-18
 -1      1392 9.53964E-05-2.86103E-05-2.86215E-05 1.37082E-07-4.45714E-20-3.31623E-18
 -1      1393 9.52773E-05-2.85731E-05-2.85891E-05 2.43799E-07 6.72285E-20-2.80014E-18
 -1      1394 9.55308E-05-2.86481E-05-2.86633E-05 1.70804E-07-1.71371E-19-3.06545E-18
 -1      1395 9.56907E-05-2.86939E-05-2.87115E-05 1.79911E-07-4.10375E-20-2.88166E-18
 -1      1396 9.55140E-05-2.86366E-05-2.86643E-05 3.08564E-07-5.55472E-20-3.03116E-18
 -1      1397 9.58663E-05-2.87433E-05-2.87662E-05 2.30277E-07-3.16727E-20-2.91006E-18
 -1      1398 9.60836E-05-2.88061E-05-2.88314E-05 2.43555E-07-1.02559E-19-3.17697E-18
 -1      1399 9.58172E-05-2.87185E-05-2.87603E-05 4.09801E-07-1.39497E-19-3.01097E-18
 -1      1400 9.63172E-05-2.88718E-05-2.89043E-05 3.14236E-07-2.20760E-19-2.78431E-18
 -1      1401 9.66155E-05-2.89587E-05-2.89936E-05 3.32654E-07-7.80064E-20-3.28205E-18
 -1      1402 9.62170E-05-2.88273E-05-2.88865E-05 5.55378E-07-1.41070E-19-2.39347E-18
 -1      1403 9.69274E-05-2.90466E-05-2.90910E-05 4.28110E-07 3.21525E-19-3.00127E-18
 -1      1404 9.73359E-05-2.91664E-05-2.92130E-05 4.52851E-07 3.87382E-19-2.72805E-18
 -1      1405 9.67495E-05-2.89733E-05-2.90539E-05 7.55000E-07 4.63263E-19-1.46419E-18
 -1      1406 9.77501E-05-2.92831E-05-2.93424E-05 5.78224E-07 1.04408E-19-2.10655E-18
 -1      1407 9.83040E-05-2.94467E-05-2.95075E-05 6.10664E-07-8.64131E-20-2.20607E-18
 -1      1408 9.74576E-05-2.91689E-05-2.92756E-05 1.02011E-06 5.34953E-19-1.36328E-18
 -1      1409 9.88484E-05-2.96003E-05-2.96778E-05 7.71364E-07-3.91333E-19-2.48625E-18
 -1      1410 9.95899E-05-2.98208E-05-2.98983E-05 8.12965E-07-2.50718E-19-3.00653E-18
 -1      1411 9.83917E-05-2.94289E-05-2.95670E-05 1.36330E-06-5.46538E-19-1.33374E-18
 -1      1412 1.00296E-04-3.00202E-05-3.01191E-05 1.01364E-06-1.95423E-19-3.22917E-18
 -1      1413 1.01273E-04-3.03128E-05-3.04090E-05 1.06567E-06-4.71096E-19-3.60437E-18
 -1      1414 9.96089E-05-2.97707E-05-2.99450E-05 1.79659E-06-4.25589E-19-2.26469E-18
 -1      1415 1.02172E-04-3.05678E-05-3.06905E-05 1.30801E-06-3.09723E-19-3.93925E-18
 -1      1416 1.03435E-04-3.09494E-05-3.10642E-05 1.37091E-06-4.45218E-19-4.15187E-18
 -1      1417 1.01171E-04-3.02144E-05-3.04275E-05 2.32769E-06-7.06677E-19-3.12599E-18
 -1      1418 1.04557E-04-3.12694E-05-3.14147E-05 1.64925E-06 1.22628E-19-3.88533E-18
 -1      1419 1.06150E-04-3.17561E-05-3.18845E-05 1.72135E-06 4.87370E-19-3.38325E-18
 -1      1420 1.03140E-04-3.07823E-05-3.10306E-05 2.95231E-06-4.14318E-20-2.69474E-18
 -1      1421 1.07511E-04-3.21486E-05-3.23077E-05 2.01471E-06 2.77685E-20-3.40785E-18
 -1      1422 1.09453E-04-3.27509E-05-3.28770E-05 2.08976E-06-1.27900E-19-2.87151E-18
 -1      1423 1.05561E-04-3.14974E-05-3.17639E-05 3.63984E-06 5.06236E-19-3.04928E-18
 -1      1424 1.11040E-04-3.32183E-05-3.33659E-05 2.34874E-06 4.12110E-20-2.45335E-18
 -1      1425 1.13288E-04-3.39306E-05-3.40187E-05 2.41170E-06 2.32171E-19-1.80385E-18
 -1      1426 1.08447E-04-3.23804E-05-3.26218E-05 4.30879E-06-1.82608E-20-2.55647E-18
 -1      1427 1.15036E-04-3.44641E-05-3.45460E-05 2.54005E-06 3.71867E-20-2.47398E-18
 -1      1428 1.17426E-04-3.52468E-05-3.52293E-05 2.56092E-06-9.16438E-20-2.42167E-18
 -1      1429 1.11735E-04-3.34422E-05-3.35700E-05 4.78966E-06-3.68370E-19-2.57263E-18
 -1      1430 1.19180E-04-3.58171E-05-3.57360E-05 2.39772E-06-4.64088E-19-3.05776E-18
 -1      1431 1.21347E-04-3.65673E-05-3.63370E-05 2.32549E-06-1.02785E-18-4.04939E-18
 -1      1432 1.15230E-04-3.46665E-05-3.45275E-05 4.78135E-06-6.52045E-19-3.40549E-18
 -1      1433 1.22822E-04-3.71081E-05-3.67228E-05 1.64937E-06-3.69856E-19-3.86518E-18
 -1      1434 1.24128E-04-3.76252E-05-3.70550E-05 1.41409E-06 2.34615E-19-4.18997E-18
 -1      1435 1.18532E-04-3.59740E-05-3.53506E-05 3.83078E-06-1.14556E-18-3.42424E-18
 -1      1436 1.24894E-04-3.80091E-05-3.71844E-05 1.74921E-08-6.54465E-20-4.59107E-18
 -1      1437 1.24456E-04-3.79800E-05-3.70095E-05-4.39510E-07 2.67596E-19-4.23793E-18
 -1      1438 1.20959E-04-3.71528E-05-3.58351E-05 1.41442E-06-3.80556E-19-2.69776E-18
 -1      1439 1.23986E-04-3.79993E-05-3.67524E-05-2.54348E-06 5.56964E-19-4.53096E-18
 -1      1440 1.20970E-04-3.70699E-05-3.58775E-05-3.18836E-06-1.41613E-21-4.18683E-18
 -1      1441 1.21544E-04-3.77678E-05-3.57640E-05-2.74482E-06 2.31730E-19-3.25821E-18
 -1      1442 1.18858E-04-3.64750E-05-3.51932E-05-5.45123E-06-1.36147E-19-3.97089E-18
 -1      1443 1.13141E-04-3.44903E-05-3.36469E-05-6.04575E-06-7.59683E-20-3.84998E-18
 -1      1444 1.19262E-04-3.71633E-05-3.50174E-05-8.05239E-06 2.22081E-20-3.95658E-18
 -1      1445 1.09534E-04-3.31904E-05-3.26733E-05-7.26300E-06 3.11161E-19-2.91358E-18
 -1      1446 1.02456E-04-3.05617E-05-3.08500E-05-7.37422E-06 7.08415E-19-2.86932E-18
 -1      1447 1.13691E-04-3.48047E-05-3.37044E-05-1.24407E-05 7.09608E-19-2.44861E-18
 -1      1448 9.84954E-05-2.89568E-05-2.99029E-05-6.30447E-06-6.00176E-19-3.48554E-18
 -1      1449 9.28144E-05-2.67762E-05-2.84786E-05-5.63269E-06-9.59238E-19-3.92907E-18
 -1      1450 1.06030E-04-3.10741E-05-3.22038E-05-1.28271E-05-1.89285E-19-2.46534E-18
 -1      1451 9.03699E-05-2.57748E-05-2.79049E-05-2.31931E-06-4.19122E-19-4.69309E-18
 -1      1452 8.87239E-05-2.51961E-05-2.74619E-05-1.15914E-06-8.90761E-19-5.18822E-18
 -1      1453 9.94319E-05-2.77376E-05-3.10094E-05-7.50479E-06-1.31687E-18-2.81728E-18
 -1      1454 8.89863E-05-2.54372E-05-2.74403E-05 2.53141E-06-4.95435E-19-5.74693E-18
 -1      1455 9.18120E-05-2.66556E-05-2.80738E-05 3.41790E-06 2.54375E-19-5.89344E-18
 -1      1456 9.72435E-05-2.68618E-05-3.04855E-05 1.20607E-06-1.29845E-18-5.21750E-18
 -1      1457 9.41218E-05-2.77757E-05-2.85102E-05 5.29129E-06 7.09158E-19-5.58364E-18
 -1      1458 9.92891E-05-2.98461E-05-2.97571E-05 5.41662E-06-4.49126E-20-5.42027E-18
 -1      1459 1.00046E-04-2.87945E-05-3.06900E-05 8.04652E-06 9.05981E-19-4.30912E-18
 -1      1460 1.01831E-04-3.09288E-05-3.03400E-05 4.82544E-06-6.81895E-19-4.26089E-18
 -1      1461 1.06394E-04-3.26367E-05-3.15046E-05 4.32985E-06-2.06233E-19-5.23466E-18
 -1      1462 1.05121E-04-3.18419E-05-3.13495E-05 9.44532E-06 2.81112E-19-3.06353E-18
 -1      1463 1.07716E-04-3.30787E-05-3.18941E-05 2.26395E-06 6.59098E-19-4.28075E-18
 -1      1464 1.09835E-04-3.37802E-05-3.24778E-05 1.59871E-06 1.24876E-18-3.26235E-18
 -1      1465 1.08982E-04-3.39565E-05-3.19939E-05 6.01848E-06 8.94189E-19-1.29059E-18
 -1      1466 1.09551E-04-3.35591E-05-3.24912E-05-5.61716E-07 1.90745E-18-2.74890E-18
 -1      1467 1.09032E-04-3.32838E-05-3.23890E-05-1.06768E-06 1.55505E-18 2.66987E-19
 -1      1468 1.09810E-04-3.42973E-05-3.22125E-05 8.26884E-07 2.49335E-18 2.44882E-19
 -1      1469 1.07520E-04-3.26443E-05-3.20540E-05-2.45610E-06-4.27090E-20-9.27514E-19
 -1      1470 1.05267E-04-3.17735E-05-3.14751E-05-2.68010E-06-5.04785E-19-8.51983E-19
 -1      1471 1.07738E-04-3.32046E-05-3.18586E-05-3.43076E-06 1.20963E-18-1.16175E-18
 -1      1472 1.03207E-04-3.09777E-05-3.09636E-05-3.00006E-06 5.38437E-19-5.70556E-19
 -1      1473 1.00534E-04-2.99727E-05-3.02583E-05-2.92588E-06 7.96936E-19-4.38869E-20
 -1      1474 1.03930E-04-3.13867E-05-3.10805E-05-5.43909E-06 5.89614E-20-1.85132E-18
 -1      1475 9.85857E-05-2.92185E-05-2.97702E-05-2.16245E-06-3.92466E-19 1.18849E-20
 -1      1476 9.67779E-05-2.85884E-05-2.92460E-05-1.86958E-06-4.13779E-19-1.14005E-19
 -1      1477 9.97318E-05-2.94012E-05-3.01826E-05-4.92865E-06-2.83231E-20-1.56791E-18
 -1      1478 9.52956E-05-2.82952E-05-2.87666E-05-1.15735E-07-7.69278E-19 2.38966E-19
 -1      1479 9.60192E-05-2.78279E-05-2.92743E-05-1.90020E-06-3.32095E-19-7.80809E-20
 -1      1480 9.65855E-05-2.83661E-05-2.97749E-05 2.99548E-06 1.43085E-18 1.07253E-17
 -1      1481 1.02544E-04-2.94008E-05-3.21582E-05 4.46257E-06 1.26653E-18 1.30367E-17
 -1      1482 1.02333E-04-2.67203E-05-3.27079E-05 1.27827E-05 2.52601E-18 8.31617E-18
 -1      1483 9.20395E-05-2.74319E-05-2.77644E-05 1.15173E-06 1.07005E-18 7.87031E-18
 -1      1484 9.39859E-05-2.75870E-05-2.86785E-05 1.47369E-06 1.03146E-18 9.59099E-18
 -1      1485 9.64945E-05-2.80326E-05-2.95360E-05 4.86721E-06 2.15631E-18 6.16759E-18
 -1      1486 9.02072E-05-2.70072E-05-2.70656E-05 3.31512E-07 8.03225E-19 5.69781E-18
 -1      1487 9.08219E-05-2.70247E-05-2.73382E-05 4.94403E-07 7.64163E-19 7.01163E-18
 -1      1488 9.30501E-05-2.75812E-05-2.81011E-05 1.85133E-06 1.73486E-18 4.39467E-18
 -1      1489 8.96901E-05-2.68891E-05-2.68900E-05-5.52861E-08 6.41363E-19 4.11960E-18
 -1      1490 8.97273E-05-2.68267E-05-2.69181E-05 3.38410E-08 5.79394E-19 5.16555E-18
 -1      1491 9.14970E-05-2.73101E-05-2.75174E-05 5.17434E-07 1.28921E-18 3.26346E-18
 -1      1492 8.98218E-05-2.69415E-05-2.69318E-05-2.42440E-07 2.51228E-19 3.14953E-18
 -1      1493 8.95933E-05-2.68340E-05-2.68667E-05-1.92199E-07 2.82579E-19 3.59374E-18
 -1      1494 9.09653E-05-2.72291E-05-2.73212E-05-1.32238E-07 7.89481E-19 2.15868E-18
 -1      1495 9.02739E-05-2.70837E-05-2.70698E-05-3.25397E-07 1.82424E-19 2.57043E-18
 -1      1496 8.99271E-05-2.69566E-05-2.69684E-05-2.97748E-07 1.73673E-19 2.87788E-18
 -1      1497 9.09823E-05-2.72721E-05-2.73102E-05-4.50682E-07 4.84414E-19 1.46456E-18
 -1      1498 9.08668E-05-2.72656E-05-2.72488E-05-3.49600E-07 2.77644E-19 2.09874E-18
 -1      1499 9.04798E-05-2.71354E-05-2.71354E-05-3.35948E-07 2.25039E-19 2.38059E-18
 -1      1500 9.12858E-05-2.73838E-05-2.73915E-05-5.90406E-07 4.00149E-19 1.14180E-18
 -1      1501 9.14979E-05-2.74571E-05-2.74388E-05-3.40045E-07 2.08498E-19 1.55522E-18
 -1      1502 9.11143E-05-2.73338E-05-2.73262E-05-3.35192E-07 1.64030E-19 1.88049E-18
 -1      1503 9.17247E-05-2.75270E-05-2.75168E-05-6.28219E-07 3.93247E-19 8.50309E-19
 -1      1504 9.21083E-05-2.76412E-05-2.76227E-05-3.11849E-07 3.14157E-19 9.32289E-19
 -1      1505 9.17521E-05-2.75300E-05-2.75179E-05-3.12430E-07 2.79745E-19 1.41237E-18
 -1      1506 9.22099E-05-2.76787E-05-2.76585E-05-6.07529E-07 5.09962E-19 5.25533E-19
 -1      1507 9.26657E-05-2.78084E-05-2.77910E-05-2.74603E-07 3.31864E-19 4.89221E-19
 -1      1508 9.23493E-05-2.77118E-05-2.76976E-05-2.78367E-07 3.09038E-19 7.88664E-19
 -1      1509 9.26889E-05-2.78250E-05-2.78002E-05-5.54861E-07 5.55968E-19 1.68879E-19
 -1      1510 9.31551E-05-2.79547E-05-2.79389E-05-2.34516E-07 3.55082E-19-1.07676E-19
 -1      1511 9.28830E-05-2.78730E-05-2.78584E-05-2.39933E-07 2.30858E-19 3.12924E-19
 -1      1512 9.31325E-05-2.79585E-05-2.79325E-05-4.87134E-07 3.40998E-19 2.29116E-19
 -1      1513 9.35724E-05-2.80789E-05-2.80653E-05-1.95616E-07 2.81020E-19-5.62194E-19
 -1      1514 9.33444E-05-2.80115E-05-2.79976E-05-2.01635E-07 3.14219E-19-3.15940E-19
 -1      1515 9.35264E-05-2.80756E-05-2.80506E-05-4.15333E-07 5.05100E-19-2.86224E-19
 -1      1516 9.39210E-05-2.81824E-05-2.81711E-05-1.60502E-07 4.41677E-19-1.69890E-18
 -1      1517 9.37335E-05-2.81276E-05-2.81152E-05-1.66395E-07 4.24777E-19-1.11924E-18
 -1      1518 9.38661E-05-2.81755E-05-2.81531E-05-3.46614E-07 8.21206E-19-9.99958E-19
 -1      1519 9.42090E-05-2.82675E-05-2.82587E-05-1.30859E-07 1.44894E-19-2.50024E-18
 -1      1520 9.40565E-05-2.82234E-05-2.82130E-05-1.36111E-07 2.71920E-19-2.03651E-18
 -1      1521 9.41540E-05-2.82594E-05-2.82404E-05-2.85648E-07 6.51125E-19-1.43295E-18
 -1      1522 9.44478E-05-2.83378E-05-2.83314E-05-1.07840E-07-2.74941E-19-1.98615E-18
 -1      1523 9.43233E-05-2.83021E-05-2.82940E-05-1.12061E-07-6.28242E-20-2.10904E-18
 -1      1524 9.43968E-05-2.83294E-05-2.83145E-05-2.35545E-07 1.25913E-20-1.34347E-18
 -1      1525 9.46509E-05-2.83972E-05-2.83934E-05-9.23384E-08-1.20749E-19-1.62566E-18
 -1      1526 9.45465E-05-2.83673E-05-2.83619E-05-9.51982E-08-1.30113E-19-1.83331E-18
 -1      1527 9.46045E-05-2.83886E-05-2.83782E-05-1.98538E-07-2.62026E-19-1.33272E-18
 -1      1528 9.48340E-05-2.84506E-05-2.84495E-05-8.52102E-08 3.61983E-19-2.19800E-18
 -1      1529 9.47409E-05-2.84237E-05-2.84212E-05-8.63847E-08 2.07433E-19-1.79600E-18
 -1      1530 9.47893E-05-2.84407E-05-2.84353E-05-1.76478E-07 1.74880E-19-1.81895E-18
 -1      1531 9.50148E-05-2.85030E-05-2.85049E-05-8.74235E-08 1.29323E-19-2.66941E-18
 -1      1532 9.49232E-05-2.84760E-05-2.84769E-05-8.65517E-08 2.94841E-19-2.26908E-18
 -1      1533 9.49656E-05-2.84900E-05-2.84900E-05-1.71215E-07 5.76866E-19-1.31048E-18
 -1      1534 9.52131E-05-2.85606E-05-2.85656E-05-1.00162E-07-2.37394E-19-2.35032E-18
 -1      1535 9.51121E-05-2.85300E-05-2.85347E-05-9.68134E-08-1.70574E-19-2.78642E-18
 -1      1536 9.51499E-05-2.85412E-05-2.85475E-05-1.84857E-07 2.59694E-20-1.43072E-18
 -1      1537 9.54517E-05-2.86299E-05-2.86386E-05-1.24865E-07-5.09089E-19-1.32762E-18
 -1      1538 9.53287E-05-2.85918E-05-2.86010E-05-1.18521E-07-4.74815E-19-2.14742E-18
 -1      1539 9.53610E-05-2.86000E-05-2.86133E-05-2.19914E-07-5.14551E-19-1.20028E-18
 -1      1540 9.57561E-05-2.87187E-05-2.87314E-05-1.63194E-07 1.52399E-19-9.92311E-19
 -1      1541 9.55971E-05-2.86686E-05-2.86830E-05-1.53243E-07-1.62132E-19-1.25787E-18
 -1      1542 9.56200E-05-2.86726E-05-2.86939E-05-2.79317E-07-5.60389E-19-1.20367E-18
 -1      1543 9.61554E-05-2.88357E-05-2.88530E-05-2.16884E-07 5.13329E-19-2.21866E-18
 -1      1544 9.59442E-05-2.87685E-05-2.87889E-05-2.02649E-07 6.36614E-19-1.26957E-18
 -1      1545 9.59508E-05-2.87661E-05-2.87966E-05-3.66254E-07 7.62572E-19-1.38629E-18
 -1      1546 9.66815E-05-2.89905E-05-2.90127E-05-2.87445E-07-1.14903E-19-2.90189E-18
 -1      1547 9.64004E-05-2.89005E-05-2.89278E-05-2.68247E-07 2.62526E-19-2.62731E-18
 -1      1548 9.63799E-05-2.88885E-05-2.89292E-05-4.83758E-07 8.29610E-19-1.79530E-18
 -1      1549 9.73684E-05-2.91935E-05-2.92207E-05-3.75615E-07 2.41901E-20-2.94377E-18
 -1      1550 9.69982E-05-2.90746E-05-2.91093E-05-3.50909E-07-3.14425E-19-3.36934E-18
 -1      1551 9.69355E-05-2.90485E-05-2.91001E-05-6.33929E-07 3.04295E-20-2.83915E-18
 -1      1552 9.82490E-05-2.94550E-05-2.94866E-05-4.80480E-07-4.44808E-20-3.15017E-18
 -1      1553 9.77710E-05-2.93013E-05-2.93433E-05-4.50088E-07 4.35108E-19-2.60637E-18
 -1      1554 9.76459E-05-2.92551E-05-2.93175E-05-8.16620E-07 1.45869E-19-2.47446E-18
 -1      1555 9.93507E-05-2.97840E-05-2.98183E-05-5.98099E-07 2.73714E-20-2.58118E-18
 -1      1556 9.87491E-05-2.95905E-05-2.96387E-05-5.62598E-07-1.19103E-19-2.93945E-18
 -1      1557 9.85365E-05-2.95170E-05-2.95883E-05-1.02737E-06 4.00339E-20-2.18423E-18
 -1      1558 1.00687E-04-3.01857E-05-3.02191E-05-7.19520E-07-9.19295E-20-3.41766E-18
 -1      1559 9.99541E-05-2.99500E-05-3.00013E-05-6.80839E-07 3.75204E-19-2.98954E-18
 -1      1560 9.96240E-05-2.98411E-05-2.99167E-05-1.25435E-06 6.28345E-19-2.55816E-18
 -1      1561 1.02245E-04-3.06580E-05-3.06838E-05-8.28105E-07-6.34379E-19-2.39100E-18
 -1      1562 1.01388E-04-3.03827E-05-3.04307E-05-7.90379E-07-8.81628E-19-3.74668E-18
 -1      1563 1.00909E-04-3.02302E-05-3.03009E-05-1.47412E-06-6.38175E-19-2.16038E-18
 -1      1564 1.03968E-04-3.11858E-05-3.11936E-05-8.96399E-07 1.58033E-19-2.39442E-18
 -1      1565 1.03019E-04-3.08825E-05-3.09159E-05-8.67056E-07-5.93211E-20-2.49949E-18
 -1      1566 1.02362E-04-3.06798E-05-3.07297E-05-1.64636E-06-4.05530E-19-2.70428E-18
 -1      1567 1.05728E-04-3.17344E-05-3.17087E-05-8.83444E-07 1.00507E-19-2.71962E-18
 -1      1568 1.04762E-04-3.14278E-05-3.14294E-05-8.74302E-07 1.46344E-19-2.47054E-18
 -1      1569 1.03910E-04-3.11732E-05-3.11778E-05-1.70855E-06 1.01429E-19-3.32208E-18
 -1      1570 1.07309E-04-3.22404E-05-3.21616E-05-7.34762E-07-9.49135E-19-1.10143E-18
 -1      1571 1.06454E-04-3.19739E-05-3.19197E-05-7.62501E-07-6.87480E-19-2.47085E-18
 -1      1572 1.05416E-04-3.16753E-05-3.16007E-05-1.57331E-06-7.19384E-19-1.55447E-18
 -1      1573 1.08383E-04-3.26052E-05-3.24537E-05-3.89260E-07 2.19213E-19 2.70819E-20
 -1      1574 1.07833E-04-3.24447E-05-3.23067E-05-4.73945E-07-5.62748E-19-5.91050E-19
 -1      1575 1.06666E-04-3.21249E-05-3.19310E-05-1.13413E-06-1.18269E-18-9.92560E-19
 -1      1576 1.08523E-04-3.26948E-05-3.24610E-05 2.00775E-07 6.81762E-19-9.96030E-19
 -1      1577 1.08530E-04-3.27258E-05-3.24809E-05 4.11971E-08 6.21643E-19-1.04349E-19
 -1      1578 1.07361E-04-3.24288E-05-3.20807E-05-2.88696E-07 4.49272E-19-8.16292E-19
 -1      1579 1.07271E-04-3.23558E-05-3.20576E-05 1.03138E-06 1.15024E-19-1.50546E-18
 -1      1580 1.08103E-04-3.26695E-05-3.23171E-05 7.92635E-07 4.45288E-19-3.40659E-19
 -1      1581 1.07142E-04-3.24616E-05-3.19534E-05 1.00981E-06 3.51459E-19-3.69889E-19
 -1      1582 1.04290E-04-3.14610E-05-3.11625E-05 1.99514E-06 9.60145E-19-3.33096E-18
 -1      1583 1.06137E-04-3.21203E-05-3.17064E-05 1.70310E-06 6.68752E-19-2.17788E-18
 -1      1584 1.05673E-04-3.20823E-05-3.14715E-05 2.67103E-06 1.25561E-18-5.04626E-19
 -1      1585 9.95959E-05-2.99887E-05-2.98018E-05 2.84481E-06 6.57992E-19-5.36513E-18
 -1      1586 1.02427E-04-3.09765E-05-3.06099E-05 2.56822E-06 6.61126E-19-4.40981E-18
 -1      1587 1.02779E-04-3.11815E-05-3.06167E-05 4.38349E-06 1.53755E-18-1.32322E-18
 -1      1588 9.37797E-05-2.81117E-05-2.81588E-05 3.23016E-06-5.13131E-19-5.06759E-18
 -1      1589 9.72178E-05-2.92835E-05-2.91168E-05 3.07113E-06-2.85458E-19-5.55058E-18
 -1      1590 9.86364E-05-2.97652E-05-2.94703E-05 5.60333E-06 3.67789E-19-2.08776E-18
 -1      1591 8.80456E-05-2.62294E-05-2.65658E-05 2.85153E-06 3.28159E-20-4.99125E-18
 -1      1592 9.13580E-05-2.73144E-05-2.74732E-05 2.90112E-06-1.48747E-19-5.13945E-18
 -1      1593 9.39147E-05-2.80440E-05-2.82261E-05 5.71647E-06-4.41916E-19-2.04728E-18
 -1      1594 8.38778E-05-2.48636E-05-2.54071E-05 1.68316E-06 1.37735E-19-4.70079E-18
 -1      1595 8.61936E-05-2.55524E-05-2.60388E-05 1.95603E-06-1.67686E-19-4.88521E-18
 -1      1596 8.96999E-05-2.64463E-05-2.71499E-05 4.38222E-06 5.24565E-20-2.42930E-18
 -1      1597 8.23845E-05-2.44135E-05-2.49590E-05 9.28808E-08-1.24814E-18-3.20761E-18
 -1      1598 8.30877E-05-2.45115E-05-2.51622E-05 4.94565E-07-3.92362E-19-4.40953E-18
 -1      1599 8.71144E-05-2.54722E-05-2.64862E-05 1.87374E-06-4.06655E-19-8.40952E-19
 -1      1600 8.37022E-05-2.49226E-05-2.52586E-05-1.31104E-06 6.84181E-19-2.13023E-18
 -1      1601 8.27631E-05-2.44658E-05-2.50271E-05-9.40552E-07-8.48886E-20-2.82258E-18
 -1      1602 8.67625E-05-2.54190E-05-2.63552E-05-9.22631E-07-4.94561E-19-1.57620E-18
 -1      1603 8.69219E-05-2.60519E-05-2.60871E-05-2.03259E-06-3.67994E-19-3.89423E-18
 -1      1604 8.49119E-05-2.52862E-05-2.55637E-05-1.82373E-06-3.93936E-20-3.32924E-18
 -1      1605 8.83919E-05-2.61829E-05-2.67004E-05-2.96455E-06 9.19375E-19-1.71615E-18
 -1      1606 9.06152E-05-2.72907E-05-2.70857E-05-1.95738E-06 1.17835E-18-4.59079E-18
 -1      1607 8.83822E-05-2.65276E-05-2.64865E-05-1.94309E-06 7.51586E-19-3.60802E-18
 -1      1608 9.10523E-05-2.73250E-05-2.73206E-05-3.64810E-06 5.56443E-19-2.41272E-18
 -1      1609 9.35536E-05-2.82239E-05-2.79255E-05-1.33659E-06-6.26351E-19-4.58704E-18
 -1      1610 9.18046E-05-2.76885E-05-2.74381E-05-1.45864E-06-2.73102E-20-5.07693E-18
 -1      1611 9.36309E-05-2.83480E-05-2.79668E-05-3.06592E-06 3.68254E-19-2.33684E-18
 -1      1612 9.51625E-05-2.86797E-05-2.84330E-05-5.77738E-07-3.13885E-19-2.71651E-18
 -1      1613 9.42082E-05-2.84401E-05-2.81474E-05-7.37390E-07-6.60345E-19-3.67329E-18
 -1      1614 9.53606E-05-2.89435E-05-2.84481E-05-1.80942E-06-7.92022E-19-2.07522E-18
 -1      1615 9.55735E-05-2.87291E-05-2.86192E-05-3.33711E-08-6.67694E-19-2.13105E-18
 -1      1616 9.53074E-05-2.87115E-05-2.85168E-05-1.42701E-07-2.32100E-19-2.71913E-18
 -1      1617 9.60314E-05-2.90639E-05-2.86926E-05-5.82621E-07-3.23050E-19-1.64650E-19
 -1      1618 9.53722E-05-2.85976E-05-2.86158E-05 1.25098E-07-6.24138E-19-1.19940E-18
 -1      1619 9.54254E-05-2.86484E-05-2.86124E-05 1.09558E-07-8.95125E-19-2.10038E-18
 -1      1620 9.59099E-05-2.88593E-05-2.87406E-05 1.11518E-07-9.00168E-19 3.11043E-19
 -1      1621 9.51950E-05-2.85296E-05-2.85550E-05-2.93017E-08 7.03378E-19-2.35528E-18
 -1      1622 9.51896E-05-2.85105E-05-2.85740E-05 3.42907E-08 6.05849E-19-1.27939E-18
 -1      1623 9.54996E-05-2.85896E-05-2.86781E-05 1.48574E-07 7.03069E-19-6.10073E-19
 -1      1624 9.51751E-05-2.85949E-05-2.85070E-05-7.94157E-08-1.14921E-18-1.46193E-18
 -1      1625 9.53076E-05-2.83673E-05-2.86909E-05 1.82486E-07 8.24203E-19 6.70817E-19
 -1      1626 9.52998E-05-2.84964E-05-2.86176E-05 1.05590E-07-6.30298E-19 1.60739E-18
 -1      1627 9.50696E-05-2.72070E-05-2.90925E-05 8.54019E-07 2.77652E-18 1.81540E-19
 -1      1628 9.52431E-05-2.79406E-05-2.88521E-05 6.92817E-07 2.00497E-18 2.74776E-19
 -1      1629 9.53616E-05-2.79759E-05-2.89155E-05 8.95315E-07 1.23875E-18 1.99295E-18
 -1      1630 9.43602E-05-2.45653E-05-2.99296E-05 1.91100E-06 1.67421E-19-2.25421E-18
 -1      1631 9.48468E-05-2.62598E-05-2.94166E-05 1.67181E-06 1.78681E-18-3.36629E-19
 -1      1632 9.51753E-05-2.67117E-05-2.93989E-05 2.49071E-06 7.22410E-19-5.84856E-19
 -1      1633 9.30084E-05-2.00086E-05-3.13105E-05 3.20647E-06-9.04287E-19-1.86267E-18
 -1      1634 9.38993E-05-2.28878E-05-3.04683E-05 2.92800E-06 5.54807E-19-3.18220E-19
 -1      1635 9.45381E-05-2.42100E-05-3.02198E-05 4.70192E-06-6.69100E-19-2.03238E-18
 -1      1636 9.09962E-05-1.36572E-05-3.31712E-05 4.38311E-06-5.71059E-18-2.33434E-18
 -1      1637 9.22732E-05-1.75764E-05-3.20525E-05 4.15704E-06-2.71209E-18-3.38230E-18
 -1      1638 9.33030E-05-2.02000E-05-3.14094E-05 7.09249E-06-1.88041E-18-4.89271E-18
 -1      1639 8.84443E-05-5.99028E-06-3.53509E-05 4.97905E-06-8.00690E-18-9.58414E-19
 -1      1640 8.99933E-05-1.05683E-05-3.40702E-05 4.90950E-06-6.60760E-18-2.06314E-18
 -1      1641 9.14089E-05-1.47434E-05-3.29065E-05 8.91791E-06-3.60095E-18-3.66420E-18
 -1      1642 8.58807E-05 1.42631E-06-3.74056E-05 4.48835E-06-6.94694E-18-4.49655E-20
 -1      1643 8.73484E-05-2.79127E-06-3.62446E-05 4.67851E-06-8.11288E-18 6.65344E-19
 -1      1644 8.90244E-05-8.43892E-06-3.45224E-05 9.24314E-06-4.54673E-18-5.56266E-19
 -1      1645 8.40044E-05 6.69648E-06-3.88336E-05 2.74410E-06-3.57734E-18 2.17460E-18
 -1      1646 8.49695E-05 3.97712E-06-3.80939E-05 3.19662E-06-5.97794E-18 1.90168E-18
 -1      1647 8.66916E-05-2.61522E-06-3.59349E-05 7.34452E-06-3.03704E-18 1.68626E-18
 -1      1648 8.34438E-05 8.21697E-06-3.92340E-05 1.16003E-07-2.36878E-18 4.16952E-19
 -1      1649 8.35805E-05 7.84730E-06-3.91357E-05 7.05270E-07-3.47540E-18 6.39854E-19
 -1      1650 8.51202E-05 1.16129E-06-3.68137E-05 3.29420E-06-1.48629E-18 1.16797E-18
 -1      1651 8.44201E-05 5.44936E-06-3.84799E-05-2.57725E-06-3.23757E-18-7.51504E-19
 -1      1652 8.36746E-05 7.57932E-06-3.90618E-05-2.05534E-06-2.56410E-18 9.30942E-20
 -1      1653 8.48800E-05 1.69620E-06-3.69286E-05-1.85247E-06-2.36214E-18 1.00029E-19
 -1      1654 8.65666E-05-6.64488E-07-3.68066E-05-4.46956E-06-3.58655E-18 3.16459E-19
 -1      1655 8.52011E-05 3.26365E-06-3.78879E-05-4.17987E-06-2.89968E-18-1.07039E-18
 -1      1656 8.60662E-05-1.18148E-06-3.62512E-05-6.44616E-06-2.11655E-18-1.72219E-18
 -1      1657 8.92962E-05-8.63216E-06-3.45896E-05-5.19872E-06-1.68882E-18 1.09168E-18
 -1      1658 8.76588E-05-3.82461E-06-3.59278E-05-5.16587E-06-3.86681E-18 1.79470E-18
 -1      1659 8.82229E-05-6.57499E-06-3.49454E-05-9.20993E-06 6.54068E-20 1.54040E-18
 -1      1660 9.19049E-05-1.65000E-05-3.23513E-05-4.81438E-06-4.99247E-19 8.45216E-19
 -1      1661 9.03851E-05-1.19460E-05-3.36339E-05-4.97295E-06-2.28302E-18 2.52261E-18
 -1      1662 9.07198E-05-1.30731E-05-3.33039E-05-9.73033E-06-4.94998E-19 1.56277E-18
 -1      1663 9.39378E-05-2.27606E-05-3.05129E-05-3.65289E-06 1.36804E-18 1.38950E-18
 -1      1664 9.27720E-05-1.93232E-05-3.15085E-05-3.89746E-06 3.94426E-19 2.55738E-19
 -1      1665 9.29925E-05-1.92254E-05-3.16816E-05-8.33675E-06-3.49586E-19 1.28220E-18
 -1      1666 9.53898E-05-2.65359E-05-2.94810E-05-2.74034E-06-3.00116E-19-1.79410E-18
 -1      1667 9.47749E-05-2.46361E-05-3.00760E-05-3.36958E-06 1.24277E-18-1.29417E-18
 -1      1668 9.49800E-05-2.39291E-05-3.05404E-05-6.59026E-06-2.09161E-19-2.16913E-19
 -1      1669 9.69055E-05-2.71803E-05-2.99414E-05-5.07822E-06-7.08176E-19-2.71800E-18
 -1      1670 2.29806E-05-7.42237E-05 1.55899E-05-5.85573E-06 7.65040E-18 1.72096E-18
 -1      1671 2.67450E-05-8.56669E-05 1.80939E-05 2.63743E-06 6.65069E-18 1.43127E-18
 -1      1672 2.10639E-05-4.45050E-05 5.31811E-06 1.48193E-06 7.92315E-18 2.36915E-18
 -1      1673 2.68576E-05-7.01721E-05 1.17246E-05-2.26924E-06 8.42544E-18 2.18389E-18
 -1      1674 4.48748E-05-1.70892E-05-1.33543E-05 3.46296E-05 4.73407E-18 4.01409E-18
 -1      1675 3.69372E-05-3.95646E-05-3.22353E-06 1.43129E-05 6.99310E-18 1.91429E-18
 -1      1676 8.27438E-05-2.17705E-06-3.33020E-05 6.49591E-05 4.46725E-18 3.43387E-18
 -1      1677 5.63642E-05-7.20445E-06-2.29412E-05 4.14819E-05 4.80776E-18 3.64224E-18
 -1      1678 1.52654E-04-2.10708E-05-5.26438E-05 7.78450E-05 2.58514E-18 3.28141E-18
 -1      1679 1.10367E-04-8.27073E-06-4.28236E-05 6.62844E-05 3.10183E-18 3.30936E-18
 -1      1680 2.19463E-04-4.55305E-05-6.83866E-05 6.91768E-05 1.31110E-18 5.29819E-18
 -1      1681 1.75523E-04-2.35718E-05-6.12397E-05 8.02113E-05 2.66519E-18 4.54687E-18
 -1      1682 2.58017E-04-6.43921E-05-7.64373E-05 2.40107E-05 6.12828E-19 4.85477E-18
 -1      1683 2.35369E-04-5.11793E-05-7.31695E-05 5.56748E-05 5.38607E-19 4.83148E-18
 -1      1684 2.47062E-04-5.79778E-05-7.52475E-05-3.14922E-05 1.48485E-18 1.30867E-18
 -1      1685 2.57714E-04-6.36545E-05-7.68956E-05 6.18296E-06 1.66273E-18 3.46405E-18
 -1      1686 1.99809E-04-3.54442E-05-6.60869E-05-7.15464E-05 2.62019E-18-2.45131E-18
 -1      1687 2.39244E-04-5.63292E-05-7.21091E-05-5.04039E-05 1.59750E-18 1.32645E-18
 -1      1688 1.28362E-04-1.11893E-05-4.87411E-05-7.07295E-05 5.19443E-18-5.02714E-18
 -1      1689 1.75862E-04-2.94762E-05-5.82700E-05-7.54601E-05 3.60582E-18-2.97563E-18
 -1      1690 6.63482E-05-4.65538E-06-2.79221E-05-4.74563E-05 7.27517E-18-6.08847E-18
 -1      1691 1.00945E-04-5.78817E-06-3.89015E-05-7.02497E-05 6.05205E-18-6.29261E-18
 -1      1692 3.50863E-05-2.45426E-05-8.35835E-06-1.83171E-05 6.26211E-18-3.87687E-18
 -1      1693 4.66176E-05-6.72011E-06-1.80050E-05-3.96758E-05 6.17487E-18-5.81912E-18
 -1      1694 2.63629E-05-5.70045E-05 7.69671E-06-2.34564E-06 5.76999E-18-2.52490E-18
 -1      1695 2.34619E-05-3.10524E-05-5.91971E-08-1.07921E-05 6.32056E-18-3.05377E-18
 -1      1696 2.47871E-05-7.71244E-05 1.63555E-05-2.69494E-06 2.23638E-18-2.40091E-18
 -1      1697 2.01470E-05-6.18748E-05 1.28426E-05 3.00885E-06 4.88399E-18-2.56598E-18
 -1      1698 2.30765E-05-7.92540E-05 1.75715E-05-8.57781E-06-1.32349E-18-2.31071E-18
 -1      1699 2.46273E-05-8.27418E-05 1.83055E-05 2.33848E-06 2.29451E-18-2.42971E-18
 -1      1700 1.99437E-05-5.35662E-05 9.39804E-06-4.28202E-06-6.16979E-18-4.78224E-18
 -1      1701 2.54389E-05-7.40024E-05 1.44485E-05-3.16898E-06-2.60886E-18-3.01311E-18
 -1      1702 2.66879E-05-2.40405E-05-4.35002E-06 1.33517E-05-8.70242E-18-7.00327E-18
 -1      1703 2.63550E-05-4.73560E-05 3.45416E-06 4.63342E-07-6.70681E-18-5.01422E-18
 -1      1704 5.79013E-05-6.20900E-06-2.27808E-05 4.49486E-05-7.94347E-18-6.10626E-18
 -1      1705 4.03470E-05-1.90404E-05-1.28669E-05 2.17698E-05-8.63719E-18-6.31040E-18
 -1      1706 1.19256E-04-1.23624E-05-4.34694E-05 7.20149E-05-5.48030E-18-7.43441E-18
 -1      1707 7.99526E-05-5.88670E-06-3.27495E-05 5.24967E-05-6.96939E-18-7.06256E-18
 -1      1708 1.91257E-04-3.77062E-05-6.12333E-05 6.92962E-05-3.80021E-18-5.14149E-18
 -1      1709 1.45773E-04-1.83228E-05-5.26099E-05 7.03217E-05-4.72644E-18-6.04782E-18
 -1      1710 2.45623E-04-5.96129E-05-7.34759E-05 3.22812E-05-2.37677E-18-2.94767E-19
 -1      1711 2.09751E-04-4.18865E-05-6.76673E-05 5.57876E-05-3.76898E-18-3.42032E-18
 -1      1712 2.69393E-04-6.83963E-05-7.85483E-05-1.73642E-05-1.53927E-18 3.31179E-18
 -1      1713 2.63395E-04-6.60655E-05-7.76928E-05 2.15099E-05-1.71312E-18 7.28448E-19
 -1      1714 2.33868E-04-4.92372E-05-7.30242E-05-6.41628E-05-2.94863E-18 6.10372E-18
 -1      1715 2.63211E-04-6.58173E-05-7.70041E-05-3.48954E-05-2.12986E-18 4.15512E-18
 -1      1716 1.68818E-04-2.25422E-05-5.93688E-05-7.68732E-05-3.51900E-18 6.73899E-18
 -1      1717 2.12830E-04-4.28102E-05-6.69480E-05-7.05924E-05-2.67334E-18 7.00750E-18
 -1      1718 1.02100E-04-5.25930E-06-4.10313E-05-6.65816E-05-3.79217E-18 5.83945E-18
 -1      1719 1.44451E-04-1.67641E-05-5.10899E-05-8.12061E-05-3.92346E-18 7.63346E-18
 -1      1720 5.21379E-05-1.02370E-05-2.05644E-05-3.67314E-05-3.04508E-18 3.24752E-18
 -1      1721 7.70681E-05-2.49274E-06-3.11515E-05-6.16932E-05-3.61514E-18 4.81792E-18
 -1      1722 3.07596E-05-3.88181E-05-1.69930E-06-8.64990E-06-5.16944E-18 9.35971E-19
 -1      1723 3.54884E-05-1.48605E-05-1.10056E-05-2.73958E-05-3.88110E-18 1.38829E-18
 -1      1724 2.79110E-05-7.17030E-05 1.21188E-05 5.50955E-07-2.07523E-18 2.47461E-18
 -1      1725 2.27250E-05-4.66510E-05 5.59622E-06-3.00531E-06-4.12844E-18 1.80397E-18
 -1      1726 2.73147E-05-8.85879E-05 1.87300E-05-1.80352E-06 5.97656E-18 3.04000E-18
 -1      1727 2.36719E-05-7.85888E-05 1.66506E-05 8.12592E-06-2.96462E-20 4.60553E-18
 -1      1728 1.25451E-04-3.45663E-05-3.74948E-05 4.75017E-05 2.20737E-18 1.14519E-18
 -1      1729 8.29749E-05-4.13975E-05-1.90110E-05 4.32581E-05 3.68459E-18 2.21838E-18
 -1      1730 9.52916E-05-2.85973E-05-2.85711E-05-7.12270E-08-8.92223E-19-1.79959E-19
 -1      1731 9.53340E-05-2.84064E-05-2.86920E-05 1.49961E-07 8.68546E-19 1.96285E-18
 -1      1732 2.13394E-05-5.47187E-05 9.68994E-06 1.58743E-05 4.63031E-18 1.76860E-18
 -1      1733 4.75369E-05-4.82750E-05-2.30184E-06 3.37659E-05 4.06915E-18 9.28560E-20
 -1      1734 1.36774E-05-5.81528E-05 1.39127E-05 1.49794E-06 3.33800E-18 3.88153E-18
 -1      1735 1.67272E-04-3.38944E-05-5.43188E-05 4.20449E-05 2.00546E-18 3.07473E-18
 -1      1736 2.02348E-04-3.37792E-05-6.72190E-05 3.19499E-05 6.80379E-19 3.29538E-18
 -1      1737 2.13189E-04-3.24054E-05-7.21681E-05 7.86600E-06 1.61233E-18 1.37368E-18
 -1      1738 2.07816E-04-3.31856E-05-6.96855E-05-1.77196E-05 2.51442E-18 4.87891E-19
 -1      1739 1.80216E-04-3.33858E-05-5.91323E-05-3.62558E-05 3.64988E-18-2.08370E-19
 -1      1740 1.36265E-04-3.28639E-05-4.25036E-05-4.47064E-05 3.80911E-18-1.21803E-18
 -1      1741 8.91895E-05-3.50799E-05-2.36610E-05-4.32171E-05 2.64782E-18-3.84722E-18
 -1      1742 5.13041E-05-4.21270E-05-6.31991E-06-3.35759E-05 2.55042E-18-1.72625E-18
 -1      1743 2.49011E-05-4.80833E-05 6.38726E-06-2.14244E-05 1.38956E-18-2.29292E-18
 -1      1744 1.27430E-05-5.31850E-05 1.30268E-05-7.10934E-06 5.62430E-19-3.42244E-18
 -1      1745 1.59932E-05-5.42747E-05 1.19209E-05 8.15161E-06-1.63011E-18-4.57652E-18
 -1      1746 3.22858E-05-4.88620E-05 3.41858E-06 2.04781E-05-2.94810E-18-4.67943E-18
 -1      1747 6.02870E-05-4.13749E-05-1.04311E-05 3.21197E-05-3.91245E-18-3.99207E-18
 -1      1748 1.00718E-04-3.57566E-05-2.80409E-05 4.14847E-05-4.59092E-18-3.84807E-18
 -1      1749 1.48808E-04-3.52682E-05-4.63057E-05 4.13771E-05-3.47114E-18-3.11115E-18
 -1      1750 1.87385E-04-3.55781E-05-6.10620E-05 2.47627E-05-3.66448E-18-6.99649E-19
 -1      1751 2.12339E-04-3.52217E-05-7.09296E-05 5.49491E-06-3.36230E-18 1.56151E-18
 -1      1752 2.24388E-04-3.78827E-05-7.35948E-05-1.40291E-05-2.62241E-18 1.17441E-18
 -1      1753 2.00994E-04-3.49808E-05-6.62457E-05-3.19121E-05-2.08455E-18 2.48689E-18
 -1      1754 1.64805E-04-3.42429E-05-5.27594E-05-4.32680E-05-1.75336E-18 3.81504E-18
 -1      1755 1.19930E-04-3.43290E-05-3.55692E-05-4.86668E-05-1.08463E-18 3.05948E-18
 -1      1756 7.54629E-05-3.91969E-05-1.70151E-05-4.13586E-05-2.74608E-18 2.30266E-18
 -1      1757 4.27330E-05-4.86158E-05-9.08885E-07-2.95392E-05-1.53991E-18 3.07049E-20
 -1      1758 2.12246E-05-5.58379E-05 1.01724E-05-1.56383E-05 1.88041E-18 4.96912E-18
 -1      1759 1.06058E-04-2.31727E-05-3.56056E-05-1.68528E-05-2.06205E-18 9.47195E-18
 -1      1760 8.91290E-05-1.05603E-05-3.37958E-05-1.33404E-05-2.93575E-18-2.27362E-18
 -1      1761 9.04582E-05-1.16286E-05-3.39361E-05-1.51143E-05-3.29200E-18-1.33770E-18
 -1      1762 9.24964E-05-1.38749E-05-3.38549E-05-1.60022E-05-3.25387E-18-1.65118E-19
 -1      1763 9.42122E-05-1.58256E-05-3.40988E-05-1.76627E-05-3.36260E-18 1.51958E-18
 -1      1764 9.34472E-05-1.63668E-05-3.30451E-05-1.37511E-05-3.41061E-18-6.15634E-19
 -1      1765 8.62089E-05-7.67289E-06-3.37297E-05-7.86451E-06-1.84596E-18-4.15493E-18
 -1      1766 8.66108E-05-7.97118E-06-3.37634E-05-9.25379E-06-2.15757E-18-3.90731E-18
 -1      1767 8.55923E-05-7.03618E-06-3.37264E-05-5.32131E-06-1.33306E-18-4.43420E-18
 -1      1768 8.58266E-05-7.21470E-06-3.37416E-05-6.62603E-06-1.55998E-18-4.31988E-18
 -1      1769 8.75913E-05-9.86721E-06-3.33431E-05-6.93002E-06-1.87661E-18-4.05547E-18
 -1      1770 8.52578E-05-6.67784E-06-3.37295E-05-2.88947E-06-7.13077E-19-4.48519E-18
 -1      1771 8.53785E-05-6.77242E-06-3.37355E-05-4.12936E-06-9.90327E-19-4.46367E-18
 -1      1772 8.69565E-05-9.15563E-06-3.33759E-05-4.53863E-06-1.23577E-18-4.22625E-18
 -1      1773 8.51271E-05-6.52982E-06-3.37329E-05-5.17660E-07-1.13998E-19-4.50430E-18
 -1      1774 8.51627E-05-6.55831E-06-3.37343E-05-1.72749E-06-3.61050E-19-4.51310E-18
 -1      1775 8.66249E-05-8.77697E-06-3.33958E-05-2.21790E-06-6.00392E-19-4.36655E-18
 -1      1776 8.51726E-05-6.56731E-06-3.37346E-05 1.84541E-06 4.61286E-19-4.44535E-18
 -1      1777 8.51308E-05-6.53437E-06-3.37328E-05 6.34593E-07 2.09683E-19-4.48049E-18
 -1      1778 8.65268E-05-8.66349E-06-3.34023E-05 6.53693E-08 4.22704E-20-4.32341E-18
 -1      1779 8.54039E-05-6.79749E-06-3.37356E-05 4.25170E-06 9.68391E-19-4.36726E-18
 -1      1780 8.52758E-05-6.69682E-06-3.37295E-05 3.00871E-06 7.09155E-19-4.42010E-18
 -1      1781 8.66426E-05-8.79653E-06-3.33951E-05 2.34977E-06 6.31371E-19-4.27124E-18
 -1      1782 8.58610E-05-7.25063E-06-3.37411E-05 6.71323E-06 1.56617E-18-4.03603E-18
 -1      1783 8.56229E-05-7.06844E-06-3.37262E-05 5.42588E-06 1.28955E-18-4.24663E-18
 -1      1784 8.69909E-05-9.19345E-06-3.33743E-05 4.65348E-06 1.20378E-18-4.15446E-18
 -1      1785 8.66748E-05-8.04030E-06-3.37621E-05 9.37495E-06 2.27990E-18-3.51216E-18
 -1      1786 8.62536E-05-7.72374E-06-3.37282E-05 7.95412E-06 1.87829E-18-3.79420E-18
 -1      1787 8.76433E-05-9.92589E-06-3.33401E-05 7.02894E-06 1.91724E-18-3.70913E-18
 -1      1788 8.80881E-05-9.38814E-06-3.38177E-05 1.22537E-05 2.91596E-18-2.65688E-18
 -1      1789 8.73476E-05-8.83017E-06-3.37455E-05 1.06608E-05 2.57424E-18-3.16174E-18
 -1      1790 8.87651E-05-1.11607E-05-3.32898E-05 9.50307E-06 2.59536E-18-3.05600E-18
 -1      1791 9.06334E-05-1.18407E-05-3.39282E-05 1.53021E-05 3.43711E-18-9.97328E-19
 -1      1792 8.92524E-05-1.07412E-05-3.37882E-05 1.35124E-05 3.10964E-18-1.99765E-18
 -1      1793 9.06635E-05-1.32235E-05-3.32072E-05 1.19749E-05 3.21650E-18-2.03032E-18
 -1      1794 9.58797E-05-1.70357E-05-3.39942E-05 1.76899E-05 3.41716E-18 2.16602E-18
 -1      1795 9.28594E-05-1.43441E-05-3.38278E-05 1.61930E-05 3.38368E-18 2.42887E-19
 -1      1796 9.39724E-05-1.68880E-05-3.30249E-05 1.38937E-05 3.55660E-18-2.22690E-19
 -1      1797 1.01930E-04-2.50960E-05-3.33607E-05 1.44220E-05 2.95202E-18 6.15433E-18
 -1      1798 9.80807E-05-1.96179E-05-3.36265E-05 1.69636E-05 3.19461E-18 3.54155E-18
 -1      1799 9.73333E-05-2.18556E-05-3.24288E-05 1.32477E-05 3.47651E-18 2.20369E-18
 -1      1800 9.87572E-05-2.61369E-05-3.13439E-05 9.43436E-06 2.97062E-18 5.19685E-18
 -1      1801 1.00161E-04-1.95657E-05-3.42193E-05-1.88691E-05-2.83659E-18 4.42479E-18
 -1      1802 9.53164E-05-2.72873E-05-2.91869E-05 4.06632E-06 2.38383E-18 3.71781E-18
 -1      1803 9.77467E-05-2.73924E-05-3.01959E-05 6.40036E-06 2.53967E-18 4.63451E-18
 -1      1804 9.75810E-05-2.56163E-05-3.08341E-05 8.75925E-06 3.03481E-18 2.95390E-18
 -1      1805 9.98208E-05-2.25440E-05-3.28373E-05-1.44687E-05-3.03735E-18 3.16547E-18
 -1      1806 9.69631E-05-2.69795E-05-2.98781E-05-5.70417E-06-2.43861E-18 2.55884E-18
 -1      1807 9.51568E-05-2.70359E-05-2.91674E-05-3.89755E-06-2.12574E-18 1.90298E-18
 -1      1808 9.43362E-05-2.72366E-05-2.86600E-05-2.42177E-06-1.91748E-18 1.76592E-18
 -1      1809 9.35650E-05-2.73172E-05-2.83550E-05-1.56819E-06-1.73427E-18 1.30628E-18
 -1      1810 9.55092E-05-2.65472E-05-2.95760E-05-4.47389E-06-2.38549E-18 4.28887E-19
 -1      1811 9.30401E-05-2.73684E-05-2.80861E-05-7.42303E-07-1.43642E-18 1.15953E-18
 -1      1812 9.27385E-05-2.74316E-05-2.79640E-05-3.04496E-07-1.18381E-18 7.84922E-19
 -1      1813 9.42991E-05-2.72223E-05-2.87675E-05-1.83011E-06-1.82351E-18 1.33196E-19
 -1      1814 9.24621E-05-2.74588E-05-2.78279E-05 1.50048E-07-1.07718E-18 7.12821E-19
 -1      1815 9.24300E-05-2.75348E-05-2.77978E-05 3.73481E-07-9.17737E-19 4.03189E-19
 -1      1816 9.35974E-05-2.75289E-05-2.83316E-05-3.65255E-07-1.36638E-18-1.70412E-19
 -1      1817 9.23258E-05-2.75660E-05-2.77392E-05 6.12347E-07-8.65166E-19 1.76945E-19
 -1      1818 9.24394E-05-2.76508E-05-2.77580E-05 7.15466E-07-8.27643E-19-2.28079E-19
 -1      1819 9.32747E-05-2.77129E-05-2.81102E-05 4.35396E-07-1.12268E-18-3.79888E-19
 -1      1820 9.24435E-05-2.76885E-05-2.77456E-05 8.25334E-07-8.30264E-19-2.59741E-19
 -1      1821 9.26294E-05-2.77747E-05-2.77898E-05 8.58002E-07-7.32807E-19-4.01287E-19
 -1      1822 9.32091E-05-2.78556E-05-2.80169E-05 8.44376E-07-9.86774E-19-8.22368E-19
 -1      1823 9.26964E-05-2.78157E-05-2.78041E-05 8.90100E-07-6.06421E-19-4.78807E-19
 -1      1824 9.29103E-05-2.78977E-05-2.78596E-05 8.81523E-07-4.28491E-19-5.51398E-19
 -1      1825 9.33010E-05-2.79784E-05-2.80005E-05 1.01708E-06-8.02245E-19-7.70306E-19
 -1      1826 9.30096E-05-2.79387E-05-2.78881E-05 8.67652E-07-5.12972E-19-5.15779E-19
 -1      1827 9.32250E-05-2.80130E-05-2.79465E-05 8.36067E-07-4.21133E-19-5.69342E-19
 -1      1828 9.34798E-05-2.80866E-05-2.80284E-05 1.04750E-06-5.59200E-19-1.14410E-18
 -1      1829 9.33368E-05-2.80513E-05-2.79815E-05 7.96751E-07-6.10169E-19-7.48198E-19
 -1      1830 9.35388E-05-2.81162E-05-2.80377E-05 7.53961E-07-5.60193E-19-1.01283E-18
 -1      1831 9.36980E-05-2.81806E-05-2.80801E-05 9.95147E-07-7.85141E-19-1.15865E-18
 -1      1832 9.36508E-05-2.81505E-05-2.80741E-05 7.02726E-07-3.72655E-19-1.16165E-18
 -1      1833 9.38318E-05-2.82054E-05-2.81255E-05 6.56475E-07-1.23749E-19-1.27135E-18
 -1      1834 9.39253E-05-2.82605E-05-2.81424E-05 8.98889E-07-5.34942E-19-1.17773E-18
 -1      1835 9.39371E-05-2.82351E-05-2.81608E-05 6.02307E-07-3.47602E-19-1.31139E-18
 -1      1836 9.40944E-05-2.82805E-05-2.82061E-05 5.57697E-07-3.73417E-19-1.68791E-18
 -1      1837 9.41439E-05-2.83267E-05-2.82071E-05 7.84514E-07-3.45505E-19-1.70257E-18
 -1      1838 9.41900E-05-2.83056E-05-2.82388E-05 5.06588E-07-2.38655E-19-1.99426E-18
 -1      1839 9.43243E-05-2.83425E-05-2.82781E-05 4.66995E-07-3.70801E-19-1.87168E-18
 -1      1840 9.43446E-05-2.83803E-05-2.82699E-05 6.69230E-07-4.74513E-19-1.87642E-18
 -1      1841 9.44097E-05-2.83633E-05-2.83079E-05 4.23003E-07-3.56573E-19-1.89300E-18
 -1      1842 9.45240E-05-2.83931E-05-2.83418E-05 3.90730E-07-4.23957E-19-1.77990E-18
 -1      1843 9.45244E-05-2.84228E-05-2.83287E-05 5.64624E-07-3.75803E-19-1.84834E-18
 -1      1844 9.46006E-05-2.84105E-05-2.83691E-05 3.56741E-07-4.36921E-19-1.82439E-18
 -1      1845 9.46994E-05-2.84346E-05-2.83989E-05 3.33500E-07-2.19041E-19-1.82374E-18
 -1      1846 9.46844E-05-2.84559E-05-2.83832E-05 4.78718E-07-5.10974E-19-1.97142E-18
 -1      1847 9.47701E-05-2.84495E-05-2.84245E-05 3.11803E-07-1.40656E-19-1.66163E-18
 -1      1848 9.48593E-05-2.84699E-05-2.84519E-05 2.99091E-07-9.19010E-20-1.61310E-18
 -1      1849 9.48292E-05-2.84817E-05-2.84345E-05 4.17495E-07 2.00290E-20-1.88998E-18
 -1      1850 9.49281E-05-2.84834E-05-2.84772E-05 2.91826E-07-3.97651E-19-1.58778E-18
 -1      1851 9.50146E-05-2.85020E-05-2.85041E-05 2.91226E-07-4.03712E-19-1.57907E-18
 -1      1852 9.49656E-05-2.85024E-05-2.84844E-05 3.86053E-07-2.16595E-19-1.63184E-18
 -1      1853 9.50865E-05-2.85153E-05-2.85308E-05 3.00748E-07-2.80091E-19-1.83566E-18
 -1      1854 9.51787E-05-2.85344E-05-2.85597E-05 3.14174E-07-2.32475E-19-1.71922E-18
 -1      1855 9.51027E-05-2.85202E-05-2.85359E-05 3.89526E-07-3.13000E-19-1.12969E-18
 -1      1856 9.52597E-05-2.85491E-05-2.85900E-05 3.43349E-07-5.85032E-19-1.75012E-18
 -1      1857 9.53672E-05-2.85712E-05-2.86237E-05 3.73261E-07-3.78588E-19-2.21589E-18
 -1      1858 9.52513E-05-2.85377E-05-2.85927E-05 4.33818E-07-5.12100E-19-1.48832E-18
 -1      1859 9.54646E-05-2.85888E-05-2.86601E-05 4.25710E-07-1.89121E-19-2.59762E-18
 -1      1860 9.55989E-05-2.86170E-05-2.87020E-05 4.75295E-07-2.28567E-19-2.78089E-18
 -1      1861 9.54246E-05-2.85575E-05-2.86590E-05 5.26215E-07-6.65294E-19-2.64668E-18
 -1      1862 9.57209E-05-2.86396E-05-2.87476E-05 5.55603E-07 9.04431E-20-2.67592E-18
 -1      1863 9.58958E-05-2.86773E-05-2.88018E-05 6.28930E-07-5.40252E-20-2.68124E-18
 -1      1864 9.56378E-05-2.85828E-05-2.87403E-05 6.75876E-07 1.15640E-19-2.73063E-18
 -1      1865 9.60524E-05-2.87072E-05-2.88599E-05 7.42780E-07-1.25127E-19-2.03908E-18
 -1      1866 9.62843E-05-2.87590E-05-2.89312E-05 8.44904E-07 4.09850E-19-1.65963E-18
 -1      1867 9.59091E-05-2.86174E-05-2.88426E-05 8.94209E-07 3.42119E-19-2.17302E-18
 -1      1868 9.64867E-05-2.87988E-05-2.90061E-05 9.99129E-07 4.93661E-19-1.86424E-18
 -1      1869 9.67952E-05-2.88700E-05-2.91002E-05 1.13609E-06 7.10492E-19-1.44748E-18
 -1      1870 9.62594E-05-2.86656E-05-2.89729E-05 1.19506E-06 4.63959E-19-1.75390E-18
 -1      1871 9.70565E-05-2.89231E-05-2.91963E-05 1.33853E-06 9.32714E-19-1.74038E-18
 -1      1872 9.74648E-05-2.90202E-05-2.93199E-05 1.51716E-06 3.55756E-19-1.73901E-18
 -1      1873 9.67129E-05-2.87330E-05-2.91394E-05 1.59457E-06 8.75920E-19-2.01974E-18
 -1      1874 9.77995E-05-2.90907E-05-2.94422E-05 1.77612E-06-2.81604E-19-1.86240E-18
 -1      1875 9.83342E-05-2.92221E-05-2.96028E-05 2.00340E-06-5.08733E-19-1.60087E-18
 -1      1876 9.72972E-05-2.88269E-05-2.93506E-05 2.11042E-06-8.46801E-20-2.75929E-18
 -1      1877 9.87582E-05-2.93151E-05-2.97563E-05 2.32644E-06-7.39059E-19-1.70295E-18
 -1      1878 9.94491E-05-2.94911E-05-2.99620E-05 2.60804E-06-7.41215E-19-2.17275E-18
 -1      1879 9.80430E-05-2.89571E-05-2.96155E-05 2.75985E-06-7.24062E-19-2.62074E-18
 -1      1880 9.99792E-05-2.96138E-05-3.01513E-05 2.99942E-06-7.23393E-19-1.81092E-18
 -1      1881 1.00857E-04-2.98474E-05-3.04098E-05 3.33662E-06-6.25269E-19-1.94132E-18
 -1      1882 9.89840E-05-2.91384E-05-2.99421E-05 3.55551E-06-6.50868E-19-1.93410E-18
 -1      1883 1.01511E-04-3.00104E-05-3.06378E-05 3.79242E-06-1.56891E-19-1.19879E-18
 -1      1884 1.02603E-04-3.03181E-05-3.09550E-05 4.17633E-06 5.04003E-19-9.92041E-19
 -1      1885 1.00156E-04-2.93937E-05-3.03359E-05 4.49736E-06-2.52466E-19-9.60016E-19
 -1      1886 1.03397E-04-3.05380E-05-3.12210E-05 4.67572E-06 3.75188E-19-1.68327E-18
 -1      1887 1.04719E-04-3.09407E-05-3.15976E-05 5.07702E-06 1.24428E-19-1.98074E-18
 -1      1888 1.01597E-04-2.97611E-05-3.07972E-05 5.55814E-06-2.75484E-20-6.62560E-19
 -1      1889 1.05674E-04-3.12444E-05-3.18953E-05 5.56779E-06-9.03281E-20-2.58879E-18
 -1      1890 1.07217E-04-3.17671E-05-3.23219E-05 5.92020E-06-1.23468E-19-2.44185E-18
 -1      1891 1.03349E-04-3.03037E-05-3.13168E-05 6.65867E-06 1.57995E-19-1.36874E-18
 -1      1892 1.08351E-04-3.21969E-05-3.26360E-05 6.29694E-06-3.35492E-19-2.49635E-18
 -1      1893 1.10056E-04-3.28653E-05-3.30861E-05 6.47490E-06-5.86479E-19-2.48715E-18
 -1      1894 1.05458E-04-3.11227E-05-3.18715E-05 7.62969E-06-3.27970E-19-2.24721E-18
 -1      1895 1.11394E-04-3.34805E-05-3.33906E-05 6.55172E-06-7.50632E-19-1.69722E-18
 -1      1896 1.13122E-04-3.43063E-05-3.38129E-05 6.34949E-06-7.28465E-19-2.18648E-18
 -1      1897 1.07977E-04-3.23664E-05-3.24213E-05 8.16059E-06-1.72613E-19-1.22627E-18
 -1      1898 1.14677E-04-3.51671E-05-3.40734E-05 5.84014E-06-1.06023E-18-1.30781E-18
 -1      1899 1.16170E-04-3.61067E-05-3.43890E-05 4.97826E-06-6.79287E-19-1.01531E-18
 -1      1900 1.10955E-04-3.42062E-05-3.29129E-05 7.74933E-06-9.18536E-19-3.71172E-20
 -1      1901 1.17901E-04-3.72124E-05-3.45748E-05 3.52201E-06-8.35413E-19-1.19833E-18
 -1      1902 1.18748E-04-3.80817E-05-3.46895E-05 1.73534E-06-3.93784E-19-1.89619E-18
 -1      1903 1.14371E-04-3.67247E-05-3.32990E-05 5.70401E-06-7.97869E-19 3.29282E-19
 -1      1904 1.20435E-04-3.92259E-05-3.47991E-05-9.45862E-07-3.15599E-19-1.88710E-18
 -1      1905 1.20108E-04-3.95854E-05-3.46443E-05-3.66183E-06-5.14506E-19-1.65393E-18
 -1      1906 1.17961E-04-3.96271E-05-3.35830E-05 1.31358E-06-3.98714E-19-2.28778E-19
 -1      1907 1.21182E-04-4.01769E-05-3.47355E-05-7.35697E-06-1.06117E-19-1.95997E-18
 -1      1908 1.19230E-04-3.93500E-05-3.43271E-05-1.03524E-05 3.84156E-19-1.62821E-18
 -1      1909 1.20884E-04-4.17881E-05-3.38779E-05-5.59505E-06-4.17270E-19-4.71319E-19
 -1      1910 1.18826E-04-3.85015E-05-3.45020E-05-1.37913E-05 9.60138E-19-1.77117E-18
 -1      1911 1.15325E-04-3.60478E-05-3.39725E-05-1.55379E-05 9.87780E-19-9.75200E-19
 -1      1912 1.21578E-04-4.11737E-05-3.44064E-05-1.35978E-05 4.57662E-19-2.92888E-20
 -1      1913 1.13065E-04-3.34302E-05-3.42716E-05-1.63736E-05 9.31670E-20-1.08643E-18
 -1      1914 1.09121E-04-3.00926E-05-3.38010E-05-1.51494E-05-5.63012E-19-1.32201E-18
 -1      1915 1.18621E-04-3.61617E-05-3.53223E-05-1.87931E-05 6.57112E-20-5.04722E-19
 -1      1916 1.06322E-04-2.71659E-05-3.40556E-05-1.16487E-05-1.10128E-18-8.40138E-19
 -1      1917 1.03882E-04-2.51103E-05-3.37466E-05-7.33800E-06-1.67985E-18-1.04067E-18
 -1      1918 1.12962E-04-2.83819E-05-3.63643E-05-1.62269E-05-9.11302E-19-3.41162E-19
 -1      1919 1.02991E-04-2.44767E-05-3.36727E-05-1.09068E-06-2.10313E-18-1.45248E-18
 -1      1920 1.03305E-04-2.53016E-05-3.35446E-05 3.76534E-06-6.67780E-19-1.98932E-18
 -1      1921 1.08888E-04-2.35009E-05-3.68195E-05-5.24343E-06-1.61519E-18 7.88437E-19
 -1      1922 1.04861E-04-2.74927E-05-3.30876E-05 8.47440E-06 1.00056E-20-2.03640E-18
 -1      1923 1.07203E-04-3.02628E-05-3.31373E-05 1.08024E-05 6.20690E-19-2.21126E-18
 -1      1924 1.09808E-04-2.58157E-05-3.61755E-05 7.31035E-06-7.08940E-19 6.16177E-19
 -1      1925 1.09048E-04-3.29926E-05-3.25495E-05 1.13106E-05 2.14975E-18-3.23620E-18
 -1      1926 1.11554E-04-3.54905E-05-3.27072E-05 1.03652E-05 1.59975E-18-1.35458E-18
 -1      1927 1.13783E-04-3.28188E-05-3.47298E-05 1.28704E-05 7.86364E-19-8.94434E-19
 -1      1928 1.11774E-04-3.66831E-05-3.22324E-05 7.51432E-06 9.82942E-19 1.91509E-19
 -1      1929 1.12994E-04-3.75984E-05-3.23444E-05 4.75997E-06 2.36469E-18 8.95870E-19
 -1      1930 1.16259E-04-3.85898E-05-3.32337E-05 9.78393E-06 2.70366E-18-1.03657E-18
 -1      1931 1.11536E-04-3.70971E-05-3.20152E-05 1.05954E-06 1.60992E-18 7.39334E-19
 -1      1932 1.11141E-04-3.65878E-05-3.19397E-05-1.71908E-06 1.44764E-18 1.12616E-19
 -1      1933 1.15064E-04-3.99547E-05-3.21616E-05 2.30767E-06 1.69170E-18 8.44247E-19
 -1      1934 1.08841E-04-3.51944E-05-3.16748E-05-4.49689E-06 2.73367E-19-2.19246E-19
 -1      1935 1.07254E-04-3.39268E-05-3.13918E-05-6.23659E-06-1.78122E-19-1.71962E-18
 -1      1936 1.11137E-04-3.77020E-05-3.14826E-05-4.76357E-06 4.10745E-19-4.00986E-19
 -1      1937 1.04819E-04-3.23278E-05-3.11451E-05-7.44477E-06-1.98676E-19-1.96661E-18
 -1      1938 1.02699E-04-3.08368E-05-3.07540E-05-7.81150E-06-5.18934E-19-1.71035E-18
 -1      1939 1.06188E-04-3.38805E-05-3.10153E-05-8.97394E-06-7.64818E-19-5.71314E-19
 -1      1940 1.00699E-04-2.95257E-05-3.05456E-05-7.40414E-06 2.69200E-20-2.48494E-18
 -1      1941 9.87013E-05-2.81869E-05-3.01566E-05-6.50717E-06 2.89686E-19-2.62046E-18
 -1      1942 9.78487E-05-2.70845E-05-3.03359E-05-7.80891E-06-1.75152E-19-1.21172E-18
 -1      1943 1.01536E-04-2.99702E-05-3.06763E-05-9.72220E-06-2.67987E-19-8.19392E-19
 -1      1944 9.32169E-05-2.73643E-05-2.81947E-05 1.60488E-06 1.87512E-18 2.62437E-18
 -1      1945 9.44114E-05-2.74695E-05-2.86312E-05 2.67583E-06 1.99294E-18 3.32921E-18
 -1      1946 9.52346E-05-2.70485E-05-2.92280E-05 4.05345E-06 2.44884E-18 2.07702E-18
 -1      1947 9.21647E-05-2.73508E-05-2.77528E-05 3.48510E-07 1.35471E-18 1.83972E-18
 -1      1948 9.26591E-05-2.73830E-05-2.79253E-05 8.96427E-07 1.54171E-18 2.39618E-18
 -1      1949 9.36302E-05-2.73697E-05-2.84042E-05 1.58507E-06 1.86949E-18 1.46797E-18
 -1      1950 9.17888E-05-2.73883E-05-2.75845E-05-3.04158E-07 7.68833E-19 1.01015E-18
 -1      1951 9.19041E-05-2.73616E-05-2.76316E-05-1.19728E-08 1.02159E-18 1.46200E-18
 -1      1952 9.27987E-05-2.74848E-05-2.80016E-05 2.72999E-07 1.43558E-18 7.20871E-19
 -1      1953 9.18113E-05-2.74786E-05-2.75610E-05-6.28890E-07 4.06800E-19 4.28913E-19
 -1      1954 9.17240E-05-2.74167E-05-2.75449E-05-4.76546E-07 5.34912E-19 7.49148E-19
 -1      1955 9.24839E-05-2.75776E-05-2.78270E-05-4.19486E-07 8.27032E-19 1.31570E-19
 -1      1956 9.20536E-05-2.76001E-05-2.76159E-05-7.65350E-07 3.49655E-19 4.60971E-19
 -1      1957 9.18638E-05-2.75216E-05-2.75676E-05-6.94718E-07 2.73637E-19 4.48145E-19
 -1      1958 9.24859E-05-2.76825E-05-2.77811E-05-7.63041E-07 4.15387E-19-1.10005E-19
 -1      1959 9.24038E-05-2.77335E-05-2.77107E-05-7.91121E-07 3.68920E-19 2.72375E-19
 -1      1960 9.21700E-05-2.76506E-05-2.76478E-05-7.69578E-07 4.29167E-19 4.58739E-19
 -1      1961 9.26685E-05-2.77973E-05-2.78079E-05-9.02230E-07 4.62425E-19-2.56307E-19
 -1      1962 9.27922E-05-2.78656E-05-2.78219E-05-7.52986E-07 6.89397E-19-1.14411E-19
 -1      1963 9.25493E-05-2.77856E-05-2.77549E-05-7.60618E-07 5.22461E-19 2.18448E-19
 -1      1964 9.29425E-05-2.79134E-05-2.78738E-05-9.20554E-07 5.79262E-19-8.61546E-20
 -1      1965 9.31769E-05-2.79883E-05-2.79352E-05-6.80610E-07 2.72153E-19 5.21672E-20
 -1      1966 9.29450E-05-2.79153E-05-2.78703E-05-7.04605E-07 4.62736E-19 3.92030E-20
 -1      1967 9.32513E-05-2.80235E-05-2.79575E-05-8.69456E-07 5.10574E-19-8.81644E-20
 -1      1968 9.35342E-05-2.80972E-05-2.80424E-05-5.93309E-07 6.06474E-19 4.88860E-20
 -1      1969 9.33241E-05-2.80333E-05-2.79829E-05-6.25198E-07 3.60210E-19 2.28361E-19
 -1      1970 9.35601E-05-2.81230E-05-2.80462E-05-7.81967E-07 3.97603E-19 6.07481E-20
 -1      1971 9.38526E-05-2.81910E-05-2.81392E-05-5.03777E-07 6.53048E-19-3.46940E-19
 -1      1972 9.36688E-05-2.81365E-05-2.80867E-05-5.37894E-07 7.04299E-19-1.17830E-19
 -1      1973 9.38491E-05-2.82099E-05-2.81322E-05-6.79745E-07 8.11351E-19-2.76772E-19
 -1      1974 9.41290E-05-2.82698E-05-2.82242E-05-4.20366E-07 1.25034E-18-9.73957E-19
 -1      1975 9.39719E-05-2.82245E-05-2.81789E-05-4.52898E-07 1.06949E-18-6.01212E-19
 -1      1976 9.41089E-05-2.82834E-05-2.82116E-05-5.77105E-07 1.16936E-18-3.38068E-19
 -1      1977 9.43658E-05-2.83352E-05-2.82979E-05-3.48622E-07 3.77784E-19-1.04876E-18
 -1      1978 9.42331E-05-2.82979E-05-2.82593E-05-3.76960E-07 6.50029E-19-8.69716E-19
 -1      1979 9.43369E-05-2.83446E-05-2.82828E-05-4.83560E-07 8.38440E-19-5.22791E-19
 -1      1980 9.45693E-05-2.83896E-05-2.83620E-05-2.92375E-07-3.90382E-19-9.64358E-19
 -1      1981 9.44568E-05-2.83587E-05-2.83288E-05-3.14648E-07 9.25508E-20-1.04643E-18
 -1      1982 9.45355E-05-2.83949E-05-2.83462E-05-4.05557E-07 1.30459E-19-8.39933E-19
 -1      1983 9.47487E-05-2.84357E-05-2.84191E-05-2.54548E-07 2.24233E-19-1.37420E-18
 -1      1984 9.46508E-05-2.84096E-05-2.83898E-05-2.69267E-07-8.63761E-20-1.08342E-18
 -1      1985 9.47106E-05-2.84368E-05-2.84033E-05-3.47719E-07 1.01181E-20-1.19105E-18
 -1      1986 9.49155E-05-2.84772E-05-2.84726E-05-2.37755E-07 3.13949E-19-1.37270E-18
 -1      1987 9.48254E-05-2.84537E-05-2.84454E-05-2.43551E-07 6.03591E-20-1.55673E-18
 -1      1988 9.48705E-05-2.84727E-05-2.84565E-05-3.13768E-07 3.99362E-19-1.42632E-18
 -1      1989 9.50831E-05-2.85178E-05-2.85268E-05-2.44726E-07 4.01933E-19-8.48150E-19
 -1      1990 9.49931E-05-2.84946E-05-2.84993E-05-2.40155E-07 5.09620E-19-9.72595E-19
 -1      1991 9.50258E-05-2.85058E-05-2.85091E-05-3.07191E-07 2.72110E-19-1.11304E-18
 -1      1992 9.52671E-05-2.85620E-05-2.85863E-05-2.78594E-07-1.92912E-19-1.35833E-18
 -1      1993 9.51684E-05-2.85366E-05-2.85559E-05-2.62001E-07 1.13425E-19-1.06426E-18
 -1      1994 9.51890E-05-2.85397E-05-2.85648E-05-3.31704E-07 2.57310E-19-8.98217E-19
 -1      1995 9.54852E-05-2.86150E-05-2.86566E-05-3.42998E-07-4.82912E-19-1.53383E-18
 -1      1996 9.53677E-05-2.85842E-05-2.86203E-05-3.12462E-07-3.28695E-19-1.22297E-18
 -1      1997 9.53746E-05-2.85782E-05-2.86281E-05-3.91509E-07-1.30210E-19-1.21960E-18
 -1      1998 9.57575E-05-2.86826E-05-2.87437E-05-4.41991E-07-5.12856E-20-1.77152E-18
 -1      1999 9.56099E-05-2.86431E-05-2.86982E-05-3.95357E-07-6.36687E-19-1.75074E-18
 -1      2000 9.55991E-05-2.86262E-05-2.87042E-05-4.91322E-07-2.76276E-19-1.59245E-18
 -1      2001 9.61063E-05-2.87715E-05-2.88544E-05-5.79668E-07 1.08857E-18-1.39405E-18
 -1      2002 9.59159E-05-2.87193E-05-2.87960E-05-5.14706E-07 6.50162E-19-1.54119E-18
 -1      2003 9.58809E-05-2.86890E-05-2.87986E-05-6.36102E-07 3.61829E-19-1.67195E-18
 -1      2004 9.65561E-05-2.88897E-05-2.89958E-05-7.59397E-07 7.71967E-19-1.92965E-18
 -1      2005 9.63091E-05-2.88203E-05-2.89206E-05-6.74151E-07 1.06961E-18-1.60160E-18
 -1      2006 9.62405E-05-2.87731E-05-2.89172E-05-8.30379E-07 9.78321E-19-1.24479E-18
 -1      2007 9.71321E-05-2.90456E-05-2.91750E-05-9.82476E-07-6.61025E-20-2.20242E-18
 -1      2008 9.68143E-05-2.89542E-05-2.90791E-05-8.75889E-07-7.96575E-22-2.26882E-18
 -1      2009 9.66996E-05-2.88861E-05-2.90662E-05-1.07700E-06 4.88627E-19-1.30710E-18
 -1      2010 9.78586E-05-2.92488E-05-2.93987E-05-1.24598E-06-9.74063E-20-2.02026E-18
 -1      2011 9.74565E-05-2.91303E-05-2.92783E-05-1.11892E-06 1.25244E-19-2.05873E-18
 -1      2012 9.72805E-05-2.90371E-05-2.92512E-05-1.37508E-06 4.39547E-20-1.44002E-18
 -1      2013 9.87554E-05-2.95090E-05-2.96715E-05-1.53953E-06 3.21992E-19-1.85407E-18
 -1      2014 9.82584E-05-2.93584E-05-2.95240E-05-1.39635E-06-1.33294E-19-2.11726E-18
 -1      2015 9.80035E-05-2.92362E-05-2.94764E-05-1.71681E-06-9.24002E-20-1.94829E-18
 -1      2016 9.98323E-05-2.98348E-05-2.99940E-05-1.84065E-06 4.09700E-19-1.21799E-18
 -1      2017 9.92361E-05-2.96485E-05-2.98190E-05-1.69150E-06 7.83185E-19-1.21717E-18
 -1      2018 9.88841E-05-2.94950E-05-2.97436E-05-2.08289E-06 3.43139E-19-1.18328E-18
 -1      2019 1.01081E-04-3.02325E-05-3.03606E-05-2.10880E-06-8.35032E-19-2.00980E-18
 -1      2020 1.00393E-04-3.00091E-05-3.01612E-05-1.97263E-06-3.47995E-19-1.79172E-18
 -1      2021 9.99279E-05-2.98254E-05-3.00497E-05-2.43632E-06-7.71677E-20-5.92196E-19
 -1      2022 1.02464E-04-3.07021E-05-3.07556E-05-2.27847E-06 9.27935E-20-2.27116E-18
 -1      2023 1.01710E-04-3.04452E-05-3.05408E-05-2.18661E-06-4.36491E-19-2.07946E-18
 -1      2024 1.01124E-04-3.02384E-05-3.03850E-05-2.71492E-06-2.67020E-19-1.51937E-18
 -1      2025 1.03901E-04-3.12328E-05-3.11495E-05-2.25365E-06-7.23767E-19-1.90587E-18
 -1      2026 1.03134E-04-3.09539E-05-3.09364E-05-2.25284E-06 8.30067E-20-2.10007E-18
 -1      2027 1.02433E-04-3.07407E-05-3.07302E-05-2.82393E-06 1.75332E-19-8.77049E-19
 -1      2028 1.05253E-04-3.17936E-05-3.14958E-05-1.90834E-06-1.45427E-18-1.50478E-18
 -1      2029 1.04562E-04-3.15170E-05-3.13115E-05-2.06089E-06-1.27744E-18-1.91340E-18
 -1      2030 1.03780E-04-3.13270E-05-3.10541E-05-2.63263E-06-1.17604E-18-1.02175E-18
 -1      2031 1.06311E-04-3.23217E-05-3.17307E-05-1.10240E-06-1.97514E-19-1.22997E-18
 -1      2032 1.05825E-04-3.20903E-05-3.16128E-05-1.47879E-06-1.22907E-18-1.24858E-18
 -1      2033 1.05036E-04-3.19677E-05-3.13135E-05-1.98252E-06-1.33920E-18-1.48342E-18
 -1      2034 1.06797E-04-3.27077E-05-3.17795E-05 2.74338E-07 3.28933E-19 1.63743E-19
 -1      2035 1.06680E-04-3.25873E-05-3.17725E-05-3.82832E-07 1.82827E-19-5.51842E-19
 -1      2036 1.06006E-04-3.25877E-05-3.14565E-05-7.19761E-07-3.28622E-19-4.02152E-19
 -1      2037 1.06392E-04-3.27867E-05-3.15725E-05 2.21826E-06 1.41828E-19 4.82028E-19
 -1      2038 1.06820E-04-3.28648E-05-3.17182E-05 1.27882E-06 2.14372E-19 6.12919E-19
 -1      2039 1.06428E-04-3.30430E-05-3.14324E-05 1.23366E-06 9.22869E-20 6.09180E-19
 -1      2040 1.04812E-04-3.23563E-05-3.10726E-05 4.49608E-06 1.44806E-18 1.78089E-19
 -1      2041 1.05916E-04-3.27237E-05-3.13933E-05 3.38616E-06 1.01818E-18 4.80162E-19
 -1      2042 1.05996E-04-3.31086E-05-3.12080E-05 3.76424E-06 1.04010E-18 1.05038E-18
 -1      2043 1.01953E-04-3.12534E-05-3.03063E-05 6.55597E-06 1.37858E-18 2.80335E-19
 -1      2044 1.03738E-04-3.19582E-05-3.07849E-05 5.54409E-06 1.38943E-18 4.43673E-19
 -1      2045 1.04444E-04-3.25230E-05-3.07870E-05 6.43731E-06 1.55585E-18 1.88962E-18
 -1      2046 9.80781E-05-2.95057E-05-2.93820E-05 7.59272E-06-8.19135E-19-1.54861E-19
 -1      2047 1.00337E-04-3.04838E-05-2.99501E-05 7.06696E-06 6.26464E-19 8.02431E-20
 -1      2048 1.01722E-04-3.11274E-05-3.02220E-05 8.45429E-06 7.95610E-19 2.82904E-18
 -1      2049 9.39387E-05-2.74763E-05-2.84754E-05 6.88059E-06 5.12058E-20-5.71754E-19
 -1      2050 9.62313E-05-2.85064E-05-2.90216E-05 7.18175E-06-9.55493E-19-7.64044E-19
 -1      2051 9.81985E-05-2.90778E-05-2.96091E-05 8.85767E-06-7.57899E-19 1.02559E-18
 -1      2052 9.06489E-05-2.58407E-05-2.77772E-05 4.29317E-06-4.34951E-19-4.60498E-19
 -1      2053 9.24006E-05-2.65917E-05-2.81809E-05 5.46379E-06-3.74878E-20-6.78473E-19
 -1      2054 9.47390E-05-2.69659E-05-2.90592E-05 7.03714E-06-2.56135E-19 1.66505E-19
 -1      2055 8.91974E-05-2.52496E-05-2.74218E-05 6.26767E-07-9.19183E-19 1.00895E-18
 -1      2056 8.99445E-05-2.54544E-05-2.75998E-05 2.27841E-06-6.37710E-19 5.47737E-19
 -1      2057 9.24303E-05-2.56239E-05-2.86631E-05 3.30578E-06-1.01537E-18 9.62398E-19
 -1      2058 8.98525E-05-2.58744E-05-2.74369E-05-2.71026E-06 5.79285E-19-8.52711E-19
 -1      2059 8.94917E-05-2.55096E-05-2.73784E-05-1.22394E-06-8.46371E-20-1.66647E-19
 -1      2060 9.19715E-05-2.56155E-05-2.84650E-05-1.00583E-06 5.49248E-19 1.46793E-18
 -1      2061 9.19726E-05-2.72655E-05-2.77373E-05-4.51575E-06 5.61695E-19-6.18811E-19
 -1      2062 9.08237E-05-2.65708E-05-2.75063E-05-3.71681E-06 9.31022E-19-1.49012E-19
 -1      2063 9.32033E-05-2.68126E-05-2.84575E-05-4.23612E-06 6.96671E-19 7.70439E-19
 -1      2064 9.44275E-05-2.86856E-05-2.81637E-05-4.46000E-06 1.25562E-18-1.18252E-18
 -1      2065 9.30440E-05-2.79957E-05-2.78685E-05-4.47086E-06 5.71091E-19-6.41217E-19
 -1      2066 9.52259E-05-2.84923E-05-2.85863E-05-5.37749E-06 1.13960E-18 5.24757E-19
 -1      2067 9.62527E-05-2.95785E-05-2.85511E-05-3.08299E-06-1.87542E-19-1.08556E-18
 -1      2068 9.51314E-05-2.91331E-05-2.82958E-05-3.65562E-06 6.61341E-19-8.27743E-19
 -1      2069 9.70022E-05-2.98362E-05-2.87679E-05-4.53615E-06 6.21500E-19 2.55513E-19
 -1      2070 9.70218E-05-2.97714E-05-2.87939E-05-1.31578E-06-8.06068E-19 2.78132E-19
 -1      2071 9.64113E-05-2.96403E-05-2.86380E-05-2.04359E-06-8.17413E-19-1.42214E-19
 -1      2072 9.78890E-05-3.03888E-05-2.89185E-05-2.61366E-06-1.04861E-18 6.28128E-19
 -1      2073 9.68396E-05-2.94131E-05-2.88725E-05 1.23828E-08-2.02320E-19 1.59905E-18
 -1      2074 9.67174E-05-2.95228E-05-2.88195E-05-5.10223E-07-6.41048E-19 1.05085E-18
 -1      2075 9.77835E-05-3.01433E-05-2.89883E-05-6.87522E-07-8.51146E-19 1.58592E-18
 -1      2076 9.61370E-05-2.88289E-05-2.88279E-05 4.79761E-07-5.32502E-19 3.46182E-19
 -1      2077 9.63100E-05-2.90371E-05-2.88455E-05 3.47442E-07-2.86876E-19 8.66085E-19
 -1      2078 9.69921E-05-2.94230E-05-2.89664E-05 4.65596E-07-3.66818E-19 2.28587E-18
 -1      2079 9.55857E-05-2.84797E-05-2.87432E-05 3.44753E-07 5.59078E-19 1.41979E-18
 -1      2080 9.58121E-05-2.86392E-05-2.87969E-05 4.70615E-07-2.47521E-19 7.85782E-19
 -1      2081 9.62140E-05-2.88109E-05-2.88993E-05 7.07142E-07 1.77232E-19 1.96658E-18
 -1      2082 9.56467E-05-2.83648E-05-2.88141E-05 5.21164E-07 1.73787E-19 4.01776E-18
 -1      2083 9.58031E-05-2.46859E-05-3.04159E-05 6.85160E-06-9.78340E-19-1.45900E-18
 -1      2084 9.62026E-05-2.63042E-05-2.99395E-05 5.46942E-06-1.80673E-18-8.62643E-19
 -1      2085 9.61661E-05-2.68750E-05-2.96359E-05 3.88368E-06-1.44713E-18-2.21500E-18
 -1      2086 9.62329E-05-2.77796E-05-2.93265E-05 2.79450E-06 1.21119E-19-1.11505E-18
 -1      2087 9.73511E-05-2.78482E-05-2.98201E-05 5.78093E-06-2.18175E-18-1.60561E-18
 -1      2088 9.59663E-05-2.78732E-05-2.91369E-05 1.78443E-06 4.84357E-19 1.46362E-18
 -1      2089 9.58678E-05-2.82802E-05-2.89528E-05 1.10724E-06-4.77895E-19 4.14291E-18
 -1      2090 9.61772E-05-2.84855E-05-2.90089E-05 1.28062E-06-4.65377E-19 3.35294E-18
 -1      2091 9.69164E-05-2.84310E-05-2.93516E-05 2.99106E-06-1.27776E-18-1.82598E-19
 -1      2092 9.45549E-05-2.11850E-05-3.14106E-05 9.89955E-06-2.92917E-18-7.65608E-18
 -1      2093 9.54411E-05-2.35351E-05-3.07893E-05 8.60864E-06-1.42222E-18-3.98753E-18
 -1      2094 9.70838E-05-2.61572E-05-3.04401E-05 9.52162E-06-2.15427E-18-3.58689E-18
 -1      2095 9.22073E-05-1.63028E-05-3.25502E-05 1.20573E-05-3.04707E-18-3.57864E-18
 -1      2096 9.36370E-05-1.92938E-05-3.18285E-05 1.13279E-05-3.07374E-18-4.66027E-18
 -1      2097 9.55695E-05-2.30590E-05-3.11223E-05 1.31204E-05-2.16908E-18-5.98205E-18
 -1      2098 8.90077E-05-1.06969E-05-3.36428E-05 1.19874E-05-2.49314E-18 9.36104E-19
 -1      2099 9.07461E-05-1.38057E-05-3.29493E-05 1.23883E-05-2.70763E-18-1.76763E-18
 -1      2100 9.25780E-05-1.84850E-05-3.17821E-05 1.51795E-05-1.77763E-18-1.97483E-18
 -1      2101 8.58089E-05-5.63819E-06-3.44778E-05 8.85567E-06-2.04271E-18 1.45790E-18
 -1      2102 8.73498E-05-8.12156E-06-3.39578E-05 1.06301E-05-2.43632E-18 1.48988E-18
 -1      2103 8.85815E-05-1.31233E-05-3.23203E-05 1.41209E-05-1.45852E-18 9.16026E-19
 -1      2104 8.38337E-05-2.70535E-06-3.48818E-05 2.98718E-06-1.44877E-18 3.40745E-19
 -1      2105 8.45809E-05-3.82800E-06-3.46578E-05 5.80872E-06-2.20981E-18 2.19088E-18
 -1      2106 8.48715E-05-8.44924E-06-3.26670E-05 9.20263E-06-2.74547E-18 2.31265E-18
 -1      2107 8.40074E-05-3.02856E-06-3.47764E-05-3.94131E-06-2.13360E-18-2.49266E-19
 -1      2108 8.36260E-05-2.40914E-06-3.49047E-05-9.36039E-07-1.89192E-18-9.76338E-20
 -1      2109 8.30101E-05-6.19329E-06-3.28000E-05 1.30428E-06-2.02410E-18 2.35879E-19
 -1      2110 8.62174E-05-6.46419E-06-3.42000E-05-9.57651E-06-7.35992E-19-2.88653E-20
 -1      2111 8.49045E-05-4.34463E-06-3.46434E-05-7.37866E-06-1.86417E-18 1.69698E-19
 -1      2112 8.39051E-05-7.30079E-06-3.27279E-05-7.04997E-06-8.78820E-19-1.88253E-19
 -1      2113 8.95233E-05-1.18982E-05-3.32529E-05-1.25462E-05 1.18222E-18 2.31617E-18
 -1      2114 8.77793E-05-8.83652E-06-3.39253E-05-1.16129E-05 7.56506E-19 1.13140E-18
 -1      2115 8.70518E-05-1.12321E-05-3.24531E-05-1.31946E-05 3.16658E-19 2.24389E-18
 -1      2116 9.27198E-05-1.76741E-05-3.21303E-05-1.25062E-05 8.21258E-19 1.01360E-18
 -1      2117 9.10901E-05-1.44570E-05-3.28797E-05-1.28400E-05 1.74683E-18 6.65554E-19
 -1      2118 9.10662E-05-1.64596E-05-3.19874E-05-1.57089E-05 1.85723E-18 1.38412E-18
 -1      2119 9.51575E-05-2.26082E-05-3.10668E-05-1.02863E-05-4.41205E-19 1.69479E-18
 -1      2120 9.38332E-05-1.97901E-05-3.17293E-05-1.14583E-05-3.09246E-19 9.12417E-19
 -1      2121 9.45529E-05-2.13733E-05-3.13976E-05-1.47382E-05 5.89353E-19 3.05941E-19
 -1      2122 6.40820E-05-4.61708E-05-8.31460E-06 4.43715E-05 3.37416E-18 8.06164E-19
 -1      2123 4.55503E-05-4.75287E-05-7.74824E-07 3.48921E-05 3.27251E-18 6.74450E-19
 -1      2124 1.35748E-05-3.84076E-05 9.18653E-06 5.86955E-06 2.27555E-18 1.95538E-18
 -1      2125 1.45117E-05-4.14403E-05 9.74763E-06-5.23475E-06 1.64409E-18 4.63666E-18
 -1      2126 3.10148E-05-4.18380E-05 3.42347E-06 2.97566E-05 3.14757E-18 1.20829E-18
 -1      2127 2.16462E-05-4.08914E-05 6.82610E-06 2.03766E-05 2.74883E-18 7.10237E-19
 -1      2128 4.60677E-05-4.03942E-05-2.77414E-06 3.99966E-05 2.57413E-18 3.59565E-19
 -1      2129 1.05725E-04-4.65702E-05-2.51751E-05 4.57536E-05 3.36187E-18 6.57721E-19
 -1      2130 8.87516E-05-5.09209E-05-1.67841E-05 4.32179E-05 3.33604E-18 1.03169E-18
 -1      2131 1.41462E-04-4.66294E-05-4.04946E-05 3.49971E-05 1.14498E-18 9.05055E-19
 -1      2132 1.21024E-04-4.66997E-05-3.22130E-05 3.81612E-05 2.14892E-18 7.58094E-20
 -1      2133 1.26506E-04-5.79654E-05-2.90515E-05 3.65161E-05 1.74171E-18-1.03423E-18
 -1      2134 8.72649E-05-8.72936E-06-3.37488E-05-1.05284E-05-2.42921E-18-3.59941E-18
 -1      2135 8.79794E-05-9.26479E-06-3.38210E-05-1.21081E-05-2.76558E-18-2.97878E-18
 -1      2136 9.04750E-05-1.30311E-05-3.32184E-05-1.18183E-05-3.03524E-18-2.41453E-18
 -1      2137 8.86728E-05-1.10582E-05-3.32961E-05-9.39408E-06-2.45373E-18-3.51802E-18
 -1      2138 1.85745E-04-2.91635E-05-6.57899E-05 1.32892E-05 7.98752E-19 1.96850E-18
 -1      2139 1.76387E-04-3.03959E-05-6.15102E-05 2.10500E-05 1.00628E-18 2.26624E-18
 -1      2140 1.80719E-04-2.11383E-05-6.76799E-05 1.06994E-06 2.00620E-18-7.06002E-19
 -1      2141 1.83474E-04-2.35930E-05-6.73225E-05 7.83099E-06 1.64240E-18 7.50048E-19
 -1      2142 1.77418E-04-2.74681E-05-6.34395E-05-9.76059E-06 2.35899E-18-1.18627E-18
 -1      2143 1.79704E-04-2.37015E-05-6.62024E-05-9.29540E-07 2.38440E-18-9.04419E-19
 -1      2144 1.58456E-04-3.48233E-05-5.28940E-05-1.80536E-05 3.56087E-18-4.32410E-19
 -1      2145 1.75612E-04-3.37556E-05-5.96887E-05-1.53006E-05 2.70087E-18-1.01178E-18
 -1      2146 1.60438E-04-2.49310E-05-5.71124E-05 3.10816E-06 2.75646E-18-1.79529E-18
 -1      2147 1.28273E-04-4.39127E-05-3.65443E-05-3.20972E-05 2.63766E-18-7.64447E-19
 -1      2148 1.49492E-04-4.24413E-05-4.52988E-05-2.98812E-05 3.69645E-18 9.46136E-19
 -1      2149 9.26643E-05-4.82225E-05-1.99366E-05-3.85053E-05 9.59688E-19-2.82337E-18
 -1      2150 1.13538E-04-4.62424E-05-2.86120E-05-4.12987E-05 1.68644E-18-2.52797E-18
 -1      2151 5.47684E-05-4.54381E-05-5.16317E-06-3.70319E-05 8.02564E-19-8.32633E-19
 -1      2152 7.18823E-05-4.34987E-05-1.24874E-05-4.32981E-05 1.09860E-18-2.37000E-18
 -1      2153 2.41696E-05-3.88611E-05 5.21537E-06-2.48609E-05-1.79147E-19-2.47101E-18
 -1      2154 3.53843E-05-3.92890E-05 7.99210E-07-3.33076E-05 1.10326E-18-1.00373E-18
 -1      2155 1.24064E-05-3.96415E-05 9.96115E-06-1.83752E-06-8.92177E-19-3.40931E-18
 -1      2156 1.37371E-05-3.51438E-05 8.08325E-06-1.20592E-05-7.69529E-19-2.55973E-18
 -1      2157 1.97766E-05-3.80048E-05 6.67914E-06 1.76531E-05-1.76924E-18-4.45539E-18
 -1      2158 1.45830E-05-4.05865E-05 9.45318E-06 7.42478E-06-8.12940E-19-4.50833E-18
 -1      2159 1.45293E-05-2.80996E-05 5.13706E-06 4.47382E-06-1.24334E-18-4.21822E-18
 -1      2160 4.68634E-05-4.32614E-05-2.53626E-06 3.30665E-05-1.72922E-18-2.53316E-18
 -1      2161 3.40492E-05-4.40303E-05 2.82381E-06 2.61110E-05-1.39676E-18-3.50460E-18
 -1      2162 8.57931E-05-4.78204E-05-1.64563E-05 3.99012E-05-1.86432E-18-1.73705E-18
 -1      2163 6.76788E-05-4.94584E-05-9.05065E-06 3.47027E-05-1.44631E-18-1.86395E-18
 -1      2164 1.24115E-04-4.69803E-05-3.26387E-05 3.66020E-05-3.00485E-18-2.04347E-18
 -1      2165 1.01896E-04-4.87665E-05-2.37302E-05 3.38856E-05-2.91379E-18-2.17899E-18
 -1      2166 1.59113E-04-4.41114E-05-4.86094E-05 2.42471E-05-2.75233E-18-6.15793E-19
 -1      2167 1.38260E-04-4.45159E-05-4.04415E-05 2.74568E-05-2.92375E-18-1.98629E-18
 -1      2168 1.74289E-04-3.42843E-05-5.95948E-05 2.67188E-06-3.60667E-18 7.55553E-19
 -1      2169 1.66240E-04-3.83579E-05-5.42509E-05 1.15746E-05-3.18506E-18 4.81962E-19
 -1      2170 1.89054E-04-2.59973E-05-6.80665E-05-3.04613E-06-2.82824E-18 1.10167E-18
 -1      2171 1.75617E-04-2.42107E-05-6.42977E-05 1.69398E-07-2.56820E-18 1.02089E-18
 -1      2172 1.87198E-04-2.59037E-05-6.78906E-05-1.09680E-05-1.88634E-18 8.27551E-19
 -1      2173 1.90456E-04-2.62724E-05-6.90918E-05-4.20959E-06-2.74100E-18 5.29422E-19
 -1      2174 1.63314E-04-1.37667E-05-6.29566E-05-5.38721E-06-2.44835E-18 9.05584E-19
 -1      2175 1.72412E-04-3.15156E-05-5.98952E-05-1.71422E-05-1.89164E-18 1.77242E-18
 -1      2176 1.87077E-04-3.09932E-05-6.52571E-05-1.41753E-05-2.12754E-18 1.38702E-18
 -1      2177 1.51483E-04-4.33086E-05-4.62978E-05-2.72768E-05-1.91641E-20 2.35560E-18
 -1      2178 1.67782E-04-4.09426E-05-5.35154E-05-2.34191E-05-1.04100E-18 1.61487E-18
 -1      2179 1.17330E-04-4.80621E-05-3.03343E-05-3.85523E-05-7.61906E-19 2.24421E-18
 -1      2180 1.39112E-04-4.65909E-05-3.91367E-05-3.90898E-05 1.74912E-19 3.12216E-18
 -1      2181 8.14986E-05-5.09062E-05-1.42838E-05-4.10489E-05-2.59277E-18 1.30655E-19
 -1      2182 1.01189E-04-4.80886E-05-2.26793E-05-4.59032E-05-1.76437E-18 1.08166E-18
 -1      2183 4.76671E-05-4.72172E-05-1.40165E-06-3.61484E-05 1.99900E-19 1.24196E-18
 -1      2184 6.29162E-05-4.60117E-05-7.81429E-06-4.30875E-05-1.78216E-18 1.37511E-19
 -1      2185 1.95681E-05-4.38135E-05 8.45020E-06-1.56460E-05 2.81554E-18 5.47099E-18
 -1      2186 2.70360E-05-4.02799E-05 4.45003E-06-2.70765E-05 1.87703E-18 3.40719E-18
 -1      2187 1.89433E-05-3.10929E-05 4.35758E-06-1.36839E-05 1.00532E-18 4.29700E-18
 -1      2188 1.71698E-04-3.57723E-05-5.65415E-05 2.78126E-05 1.47246E-18 2.42124E-18
 -1      2189 1.54148E-04-3.87031E-05-4.88916E-05 2.72798E-05 1.28802E-18 1.32942E-18
 -1      2190 1.64965E-04-3.21469E-05-5.59475E-05 8.23641E-06 8.55715E-19 4.35375E-19
 -1      2191 1.49929E-04-4.70300E-05-4.36953E-05 2.38579E-05 4.05199E-19 4.81962E-19
 -1      2192 1.46906E-04-5.53643E-05-3.86279E-05 1.96122E-05-4.95197E-19-4.59939E-19
 -1      2193 1.53899E-04-4.77242E-05-4.61112E-05 9.71840E-06-5.99541E-19 5.05679E-19
 -1      2194 9.71932E-05-2.43153E-05-3.13061E-05-1.00037E-05-2.94492E-18 2.34031E-18
 -1      2195 1.54326E-04-4.34906E-05-4.69021E-05-9.74589E-06 2.96242E-18 6.67885E-19
 -1      2196 9.63511E-05-2.31095E-05-3.14558E-05-1.03842E-05-3.15352E-18 6.13424E-19
 -1      2197 2.10576E-05-3.11147E-05 3.61239E-06 1.65023E-05 1.94246E-18 1.51704E-18
 -1      2198 1.02101E-04-5.82457E-05-1.93972E-05 4.54817E-05 2.18852E-18-9.04525E-19
 -1      2199 8.37797E-05-5.24166E-05-1.36579E-05 4.55993E-05 2.86170E-18 1.05715E-18
 -1      2200 7.94186E-05-5.05170E-05-1.18421E-05 4.82075E-05 2.82189E-18 5.31831E-19
 -1      2201 9.60929E-05-2.44194E-05-3.06788E-05-9.71426E-06-4.74190E-19 6.09116E-19
 -1      2202 4.48850E-05-4.10501E-05-2.11544E-06-3.82500E-05 1.48739E-18 3.05249E-18
 -1      2203 8.64196E-05-5.51022E-05-1.37749E-05-4.64363E-05-6.96261E-19-1.97200E-20
 -1      2204 1.22875E-04-5.99348E-05-2.68311E-05-3.77601E-05-5.14573E-19 1.08653E-18
 -1      2205 1.50752E-04-5.38215E-05-4.08856E-05-2.10665E-05 6.49568E-19 1.58226E-18
 -1      2206 1.67126E-04-1.99771E-05-6.18392E-05-1.59410E-06-1.87914E-18 1.95114E-18
 -1      2207 1.66302E-04-2.72116E-05-5.91887E-05-5.38985E-06-2.64973E-18 8.17175E-19
 -1      2208 1.53074E-04-2.89637E-05-5.31145E-05-1.25766E-05-3.10649E-18 1.88168E-18
 -1      2209 1.50475E-04-1.84478E-05-5.72425E-05-1.29951E-05-2.44369E-18 1.12592E-18
 -1      2210 1.59184E-04-4.41967E-05-4.84146E-05 3.12798E-06-2.40293E-18 1.27733E-18
 -1      2211 1.40334E-04-5.62471E-05-3.56362E-05 2.13008E-05-2.75921E-18-6.15793E-19
 -1      2212 1.08573E-04-5.89362E-05-2.13836E-05 3.44040E-05-1.06726E-18-1.61910E-18
 -1      2213 3.20471E-05-3.66510E-05 1.29858E-06 2.72700E-05-5.79794E-19-4.03209E-18
 -1      2214 2.17353E-05-3.27791E-05 4.07340E-06-2.07192E-05-1.81900E-19-2.41277E-18
 -1      2215 3.03328E-05-2.84954E-05-9.21511E-07-2.96398E-05-6.18334E-19-2.22283E-18
 -1      2216 2.00344E-05-2.31648E-05 1.63966E-06-1.65474E-05-7.75035E-20-2.48816E-18
 -1      2217 5.39539E-05-4.26906E-05-5.25925E-06-4.13354E-05-2.70627E-19-7.09496E-19
 -1      2218 9.61221E-05-5.43445E-05-1.79194E-05-4.19443E-05-3.05355E-19-2.04897E-18
 -1      2219 1.65469E-04-1.77510E-05-6.21700E-05 2.72507E-06 1.16763E-18-3.32249E-19
 -1      2220 1.61513E-04-1.39333E-05-6.23639E-05 3.38839E-06 2.59531E-18-1.90159E-18
 -1      2221 1.31526E-04-5.59444E-05-3.20980E-05-2.79471E-05 1.19410E-18-5.42525E-19
 -1      2222 6.95798E-05-4.96142E-05-8.87303E-06 4.01395E-05 4.48927E-20-1.20893E-18
 -1      2223 1.64164E-04-3.78314E-05-5.34667E-05-5.24532E-06-1.06472E-18 1.71270E-18
 -1      2224 9.52165E-05-2.63773E-05-2.94893E-05 4.19636E-06 2.37601E-18 7.51901E-19
 -1      2225 9.61913E-05-2.58628E-05-3.00673E-05 6.00150E-06 2.77407E-18 1.12671E-18
 -1      2226 8.81335E-05-1.11832E-05-3.30181E-05-3.66220E-06-1.04685E-18-3.96990E-18
 -1      2227 8.83673E-05-1.14530E-05-3.30004E-05-4.80351E-06-1.47821E-18-3.94102E-18
 -1      2228 8.87182E-05-1.19354E-05-3.29522E-05-5.82195E-06-1.71184E-18-3.93230E-18
 -1      2229 8.91238E-05-1.24060E-05-3.29245E-05-6.99306E-06-2.04198E-18-3.77799E-18
 -1      2230 8.98876E-05-1.38225E-05-3.25986E-05-4.90586E-06-1.52470E-18-3.67228E-18
 -1      2231 8.77883E-05-1.07249E-05-3.30612E-05 6.15716E-07 1.99062E-19-4.06465E-18
 -1      2232 8.77838E-05-1.07200E-05-3.30614E-05-4.95599E-07-2.08475E-19-4.06402E-18
 -1      2233 8.79692E-05-1.09497E-05-3.30427E-05 2.75841E-06 7.99216E-19-4.08040E-18
 -1      2234 8.78544E-05-1.08168E-05-3.30520E-05 1.63874E-06 4.69681E-19-4.07754E-18
 -1      2235 8.91061E-05-1.27714E-05-3.27181E-05 1.05004E-06 2.96818E-19-3.85795E-18
 -1      2236 8.84034E-05-1.14966E-05-3.29976E-05 4.88824E-06 1.43067E-18-3.89918E-18
 -1      2237 8.81640E-05-1.12200E-05-3.30157E-05 3.76483E-06 1.04569E-18-4.02029E-18
 -1      2238 8.93718E-05-1.31271E-05-3.26781E-05 3.02186E-06 9.11731E-19-3.78206E-18
 -1      2239 8.91826E-05-1.24788E-05-3.29189E-05 7.07604E-06 2.12661E-18-3.30881E-18
 -1      2240 8.87648E-05-1.19925E-05-3.29479E-05 5.90420E-06 1.67940E-18-3.60452E-18
 -1      2241 8.99290E-05-1.38748E-05-3.25937E-05 4.97655E-06 1.50923E-18-3.41859E-18
 -1      2242 9.04523E-05-1.40873E-05-3.27921E-05 9.22438E-06 2.79367E-18-2.70996E-18
 -1      2243 8.97717E-05-1.32765E-05-3.28373E-05 8.04568E-06 2.37764E-18-3.05864E-18
 -1      2244 9.08640E-05-1.51338E-05-3.24488E-05 6.87269E-06 2.18327E-18-2.92769E-18
 -1      2245 9.24507E-05-1.66593E-05-3.25825E-05 1.11085E-05 3.35105E-18-1.68628E-18
 -1      2246 9.13718E-05-1.53193E-05-3.26544E-05 1.00283E-05 2.99088E-18-2.27843E-18
 -1      2247 9.22874E-05-1.70876E-05-3.22079E-05 8.51765E-06 2.77103E-18-2.21659E-18
 -1      2248 9.42358E-05-2.71174E-05-2.87483E-05 1.76657E-06 1.90809E-18 4.07372E-19
 -1      2249 9.48365E-05-2.68939E-05-2.90469E-05 2.73928E-06 2.07496E-18 6.73914E-19
 -1      2250 9.53396E-05-2.58480E-05-2.97901E-05 4.36284E-06 2.53534E-18-6.47252E-20
 -1      2251 9.59097E-05-2.50983E-05-3.03037E-05-6.19744E-06-2.51774E-18-1.89807E-19
 -1      2252 9.52559E-05-2.58465E-05-2.97604E-05-4.28237E-06-2.25411E-18-3.70642E-19
 -1      2253 1.46073E-04-5.00336E-05-4.12537E-05-5.94934E-06 2.78629E-18 7.12143E-19
 -1      2254 1.51121E-04-4.09427E-05-4.77825E-05 2.11426E-06 2.48339E-18-6.92026E-19
 -1      2255 9.51325E-05-2.65362E-05-2.93433E-05-2.93786E-06-1.93236E-18-3.39113E-19
 -1      2256 9.46702E-05-2.69093E-05-2.90398E-05-1.87785E-06-1.62660E-18-5.11540E-19
 -1      2257 9.53328E-05-2.53570E-05-2.99941E-05-4.28786E-06-2.21427E-18-1.02951E-18
 -1      2258 9.44716E-05-2.72380E-05-2.87764E-05-1.02974E-06-1.50122E-18-4.63983E-19
 -1      2259 9.42135E-05-2.74510E-05-2.86102E-05-4.28060E-07-1.37225E-18-6.87172E-19
 -1      2260 9.50359E-05-2.67061E-05-2.92986E-05-1.92268E-06-1.73181E-18-1.10723E-18
 -1      2261 9.40648E-05-2.76317E-05-2.84488E-05 7.97523E-08-1.18874E-18-7.26417E-19
 -1      2262 9.39660E-05-2.77752E-05-2.83650E-05 4.09084E-07-1.04927E-18-8.11127E-19
 -1      2263 9.47262E-05-2.74271E-05-2.88556E-05-4.44233E-07-1.40897E-18-1.05097E-18
 -1      2264 9.38809E-05-2.78849E-05-2.82714E-05 6.91104E-07-9.60646E-19-9.85479E-19
 -1      2265 9.38860E-05-2.79917E-05-2.82383E-05 8.54668E-07-9.59217E-19-1.10898E-18
 -1      2266 9.45249E-05-2.78560E-05-2.85828E-05 4.25087E-07-1.13999E-18-1.34668E-18
 -1      2267 9.38541E-05-2.80636E-05-2.81893E-05 9.91357E-07-9.35517E-19-1.08083E-18
 -1      2268 9.39205E-05-2.81472E-05-2.81868E-05 1.05310E-06-6.87651E-19-1.02355E-18
 -1      2269 9.44313E-05-2.81251E-05-2.84245E-05 8.94772E-07-9.77816E-19-1.19647E-18
 -1      2270 9.39256E-05-2.81966E-05-2.81668E-05 1.09780E-06-6.30507E-19-1.09309E-18
 -1      2271 9.40238E-05-2.82629E-05-2.81819E-05 1.09801E-06-6.55735E-19-1.27894E-18
 -1      2272 9.44207E-05-2.83014E-05-2.83419E-05 1.10686E-06-8.11147E-19-1.15888E-18
 -1      2273 9.40518E-05-2.82974E-05-2.81800E-05 1.08673E-06-7.60703E-19-1.14765E-18
 -1      2274 9.41623E-05-2.83497E-05-2.82044E-05 1.05172E-06-7.62743E-19-1.22813E-18
 -1      2275 9.44647E-05-2.84187E-05-2.83087E-05 1.15716E-06-7.11934E-19-1.40468E-18
 -1      2276 9.42027E-05-2.83734E-05-2.82134E-05 1.00891E-06-6.22994E-19-1.15799E-18
 -1      2277 9.43133E-05-2.84140E-05-2.82418E-05 9.56170E-07-3.76818E-19-1.17553E-18
 -1      2278 9.45400E-05-2.84959E-05-2.83066E-05 1.11087E-06-6.91277E-19-1.39033E-18
 -1      2279 9.43589E-05-2.84297E-05-2.82569E-05 8.98513E-07-3.30263E-19-1.18673E-18
 -1      2280 9.44630E-05-2.84605E-05-2.82861E-05 8.39792E-07-3.00437E-19-1.18998E-18
 -1      2281 9.46301E-05-2.85447E-05-2.83234E-05 1.01254E-06-3.49570E-19-9.16687E-19
 -1      2282 9.45093E-05-2.84701E-05-2.83044E-05 7.78652E-07-4.54441E-19-1.31557E-18
 -1      2283 9.46039E-05-2.84927E-05-2.83327E-05 7.21869E-07-3.54915E-19-1.02697E-18
 -1      2284 9.47242E-05-2.85726E-05-2.83512E-05 8.92641E-07-3.62345E-19-8.60192E-19
 -1      2285 9.46487E-05-2.84976E-05-2.83524E-05 6.65032E-07-2.37580E-19-1.27686E-18
 -1      2286 9.47331E-05-2.85135E-05-2.83791E-05 6.15610E-07-4.20822E-19-1.37275E-18
 -1      2287 9.48161E-05-2.85851E-05-2.83850E-05 7.72045E-07-3.74920E-19-1.02179E-18
 -1      2288 9.47757E-05-2.85147E-05-2.83994E-05 5.68540E-07-8.69535E-19-1.14746E-18
 -1      2289 9.48515E-05-2.85253E-05-2.84246E-05 5.30363E-07-5.14541E-19-1.37231E-18
 -1      2290 9.49033E-05-2.85860E-05-2.84218E-05 6.65257E-07-5.18529E-19-1.32357E-18
 -1      2291 9.48923E-05-2.85236E-05-2.84454E-05 4.97138E-07-1.17110E-19-1.39985E-18
 -1      2292 9.49622E-05-2.85301E-05-2.84697E-05 4.73271E-07 4.74067E-20-1.37302E-18
 -1      2293 9.49857E-05-2.85779E-05-2.84606E-05 5.82735E-07-5.53780E-19-8.00877E-19
 -1      2294 9.50026E-05-2.85260E-05-2.84914E-05 4.57305E-07-1.10136E-20-1.50756E-18
 -1      2295 9.50706E-05-2.85296E-05-2.85160E-05 4.50552E-07-1.46995E-19-1.31803E-18
 -1      2296 9.50653E-05-2.85624E-05-2.85015E-05 5.32679E-07-2.20773E-19-1.22127E-18
 -1      2297 9.51126E-05-2.85233E-05-2.85394E-05 4.55152E-07-2.90789E-19-1.54176E-18
 -1      2298 9.51837E-05-2.85250E-05-2.85658E-05 4.68497E-07-2.87236E-19-1.54851E-18
 -1      2299 9.51455E-05-2.85405E-05-2.85455E-05 5.22398E-07-2.38082E-19-1.30042E-18
 -1      2300 9.52299E-05-2.85169E-05-2.85922E-05 4.97315E-07-7.77783E-19-1.64158E-18
 -1      2301 9.53100E-05-2.85179E-05-2.86222E-05 5.34279E-07-8.52019E-19-1.83977E-18
 -1      2302 9.52311E-05-2.85126E-05-2.85945E-05 5.59379E-07-7.00351E-19-1.64144E-18
 -1      2303 9.53636E-05-2.85080E-05-2.86531E-05 5.91662E-07-6.49364E-19-1.83131E-18
 -1      2304 9.54597E-05-2.85093E-05-2.86891E-05 6.56594E-07-4.30019E-19-2.16882E-18
 -1      2305 9.53279E-05-2.84785E-05-2.86509E-05 6.52136E-07-7.22850E-19-1.28774E-18
 -1      2306 9.55245E-05-2.84976E-05-2.87263E-05 7.47852E-07-1.99383E-19-2.26435E-18
 -1      2307 9.56450E-05-2.85007E-05-2.87710E-05 8.46148E-07 2.04009E-19-2.37700E-18
 -1      2308 9.54426E-05-2.84377E-05-2.87179E-05 8.10856E-07-2.58749E-19-1.09454E-18
 -1      2309 9.57248E-05-2.84870E-05-2.88166E-05 9.77745E-07 5.44714E-19-2.62584E-18
 -1      2310 9.58794E-05-2.84936E-05-2.88729E-05 1.11599E-06 5.68782E-19-2.26764E-18
 -1      2311 9.55830E-05-2.83896E-05-2.87991E-05 1.04786E-06 3.55221E-19-1.98084E-18
 -1      2312 9.59788E-05-2.84780E-05-2.89293E-05 1.29561E-06 4.59830E-19-1.96546E-18
 -1      2313 9.61786E-05-2.84902E-05-2.90008E-05 1.48157E-06 5.93398E-19-1.66649E-18
 -1      2314 9.57576E-05-2.83333E-05-2.88985E-05 1.37785E-06 7.93998E-19-1.63154E-18
 -1      2315 9.63024E-05-2.84728E-05-2.90702E-05 1.71801E-06 5.86478E-19-1.74390E-18
 -1      2316 9.65603E-05-2.84935E-05-2.91609E-05 1.96042E-06 4.40937E-19-2.23871E-18
 -1      2317 9.59755E-05-2.82685E-05-2.90201E-05 1.81782E-06 4.46577E-19-1.40368E-18
 -1      2318 9.67132E-05-2.84750E-05-2.92455E-05 2.26318E-06 4.87478E-20-2.90203E-18
 -1      2319 9.70436E-05-2.85085E-05-2.93592E-05 2.57103E-06-3.01610E-19-2.61454E-18
 -1      2320 9.62467E-05-2.81957E-05-2.91678E-05 2.38645E-06-2.20132E-19-2.72657E-18
 -1      2321 9.72310E-05-2.84911E-05-2.94608E-05 2.94933E-06-3.58889E-19-2.62228E-18
 -1      2322 9.76497E-05-2.85439E-05-2.96012E-05 3.33039E-06-5.43030E-19-2.39314E-18
 -1      2323 9.65815E-05-2.81182E-05-2.93447E-05 3.10262E-06-4.17840E-19-2.72171E-18
 -1      2324 9.78776E-05-2.85326E-05-2.97205E-05 3.79134E-06-4.30724E-19-2.19022E-18
 -1      2325 9.84019E-05-2.86157E-05-2.98906E-05 4.24921E-06-7.52908E-20-1.42902E-18
 -1      2326 9.69916E-05-2.80449E-05-2.95519E-05 3.98249E-06-1.71000E-19-2.06996E-18
 -1      2327 9.86792E-05-2.86215E-05-3.00262E-05 4.79434E-06-1.77950E-19-1.51279E-18
 -1      2328 9.93274E-05-2.87531E-05-3.02267E-05 5.32307E-06-1.32590E-19-1.36723E-18
 -1      2329 9.74925E-05-2.79960E-05-2.97875E-05 5.03413E-06 1.99197E-20-1.78756E-18
 -1      2330 9.96696E-05-2.87989E-05-3.03744E-05 5.94244E-06-2.52902E-19-5.28122E-19
 -1      2331 1.00462E-04-2.90102E-05-3.06026E-05 6.51728E-06-6.47021E-21-5.38266E-19
 -1      2332 9.81087E-05-2.80136E-05-3.00443E-05 6.24828E-06-1.98523E-23-8.96150E-19
 -1      2333 1.00899E-04-2.91397E-05-3.07541E-05 7.17959E-06 9.11222E-21-1.15087E-18
 -1      2334 1.01858E-04-2.94830E-05-3.10014E-05 7.74231E-06-9.56403E-20-1.55589E-18
 -1      2335 9.88862E-05-2.81791E-05-3.03078E-05 7.58328E-06-4.05526E-19-7.77433E-19
 -1      2336 1.02452E-04-2.97740E-05-3.11439E-05 8.37918E-06-4.16457E-19-1.44408E-18
 -1      2337 1.03606E-04-3.03319E-05-3.13946E-05 8.81684E-06-2.14368E-19-1.18024E-18
 -1      2338 9.99146E-05-2.86388E-05-3.05552E-05 8.94128E-06-2.66080E-19-1.23342E-18
 -1      2339 1.04469E-04-3.09102E-05-3.15128E-05 9.29871E-06 1.70378E-19-1.80182E-18
 -1      2340 1.05850E-04-3.17978E-05-3.17439E-05 9.41846E-06 7.06023E-20-9.72158E-19
 -1      2341 1.01363E-04-2.96360E-05-3.07573E-05 1.01319E-05-3.44295E-20-1.04420E-18
 -1      2342 1.07166E-04-3.28375E-05-3.18278E-05 9.52000E-06-4.74021E-19-4.64392E-19
 -1      2343 1.08800E-04-3.41740E-05-3.20159E-05 9.03128E-06-8.51513E-19 4.74664E-19
 -1      2344 1.03524E-04-3.15276E-05-3.08899E-05 1.08193E-05-1.24098E-19-1.75793E-18
 -1      2345 1.10814E-04-3.58448E-05-3.20795E-05 8.39304E-06-9.13915E-19 8.85338E-19
 -1      2346 1.12656E-04-3.76467E-05-3.22179E-05 6.93149E-06-3.80073E-19 7.76574E-19
 -1      2347 1.06829E-04-3.47251E-05-3.09627E-05 1.04500E-05-2.67457E-19 4.78560E-19
 -1      2348 1.15555E-04-3.99383E-05-3.23345E-05 5.05065E-06-7.11438E-19 4.83980E-19
 -1      2349 1.17354E-04-4.18647E-05-3.24639E-05 2.30942E-06-1.12868E-18-1.08261E-20
 -1      2350 1.11736E-04-3.94314E-05-3.10787E-05 8.19083E-06-1.06176E-18 8.35790E-19
 -1      2351 1.20920E-04-4.42000E-05-3.28115E-05-1.29894E-06-6.74222E-19 5.47071E-19
 -1      2352 1.22028E-04-4.51943E-05-3.30550E-05-5.20339E-06 1.67124E-19 1.02457E-18
 -1      2353 1.18292E-04-4.49718E-05-3.15250E-05 2.99699E-06-4.46730E-19 1.23011E-18
 -1      2354 1.25086E-04-4.60042E-05-3.39220E-05-1.03067E-05 7.05089E-21 7.35661E-19
 -1      2355 1.24556E-04-4.43759E-05-3.44462E-05-1.42045E-05 2.98146E-19 6.95189E-19
 -1      2356 1.25161E-04-4.86683E-05-3.28553E-05-5.73412E-06 7.94441E-20 1.57579E-18
 -1      2357 1.25128E-04-4.16447E-05-3.60143E-05-1.86570E-05 1.28246E-20 3.32202E-19
 -1      2358 1.22463E-04-3.65615E-05-3.68490E-05-2.00165E-05-4.05914E-19-1.93838E-19
 -1      2359 1.29125E-04-4.60348E-05-3.56646E-05-1.61448E-05-7.13890E-20 6.44460E-19
 -1      2360 1.19962E-04-3.05403E-05-3.87348E-05-1.97651E-05-5.52610E-19-4.09964E-19
 -1      2361 1.16650E-04-2.46576E-05-3.95024E-05-1.63281E-05-8.61433E-19 9.17707E-20
 -1      2362 1.27212E-04-3.48180E-05-3.97500E-05-2.14866E-05-5.74871E-19-4.25634E-20
 -1      2363 1.14126E-04-2.05005E-05-4.05468E-05-9.15627E-06-1.01760E-18 2.19921E-19
 -1      2364 1.13346E-04-1.93149E-05-4.05803E-05-2.54550E-06-1.23196E-18 8.61075E-19
 -1      2365 1.21335E-04-2.05129E-05-4.34855E-05-1.47387E-05-9.97487E-19 1.09005E-18
 -1      2366 1.14173E-04-2.15409E-05-3.99075E-05 5.80622E-06-1.49395E-18 2.41021E-19
 -1      2367 1.16250E-04-2.61932E-05-3.90784E-05 1.06330E-05-8.15005E-19 1.09886E-19
 -1      2368 1.20152E-04-1.80660E-05-4.39497E-05 1.48602E-06-1.52434E-18-8.71392E-19
 -1      2369 1.18849E-04-3.21307E-05-3.71829E-05 1.33282E-05-4.40775E-19 2.76212E-20
 -1      2370 1.21179E-04-3.77407E-05-3.60758E-05 1.34725E-05 5.81462E-19-7.03540E-19
 -1      2371 1.24110E-04-2.92664E-05-4.08802E-05 1.34898E-05-9.67418E-19-4.64439E-19
 -1      2372 1.21405E-04-4.17288E-05-3.41870E-05 9.99539E-06 2.25663E-18-5.85942E-19
 -1      2373 1.21772E-04-4.41716E-05-3.33498E-05 6.64953E-06 2.60273E-18-6.90927E-19
 -1      2374 1.27419E-04-4.30283E-05-3.62663E-05 1.15138E-05 1.07421E-18-1.00500E-18
 -1      2375 1.18975E-04-4.41191E-05-3.21882E-05 1.56639E-06 1.57770E-18-7.24307E-19
 -1      2376 1.17516E-04-4.34264E-05-3.17041E-05-2.38562E-06 1.67641E-18 1.94619E-19
 -1      2377 1.24275E-04-4.77038E-05-3.28912E-05 1.92425E-06 1.85827E-18-7.71826E-19
 -1      2378 1.13540E-04-4.10522E-05-3.11844E-05-6.34612E-06 1.77775E-18-3.03125E-19
 -1      2379 1.11129E-04-3.87602E-05-3.09234E-05-9.14405E-06 8.80135E-19 7.27939E-19
 -1      2380 1.17253E-04-4.50077E-05-3.10684E-05-7.39085E-06 1.35507E-18-5.38609E-19
 -1      2381 1.07469E-04-3.58089E-05-3.07939E-05-1.10520E-05-2.01653E-19 1.59206E-19
 -1      2382 1.04892E-04-3.32234E-05-3.06473E-05-1.21254E-05-7.21925E-19 7.63716E-19
 -1      2383 1.09480E-04-3.86259E-05-3.04583E-05-1.29545E-05 2.80470E-19-2.07571E-19
 -1      2384 5.89708E-05-4.00206E-05-7.97338E-06 4.48560E-05 3.07452E-18-6.43745E-20
 -1      2385 4.42165E-05-3.33723E-05-4.32409E-06 3.69970E-05 2.40091E-18 1.03402E-18
 -1      2386 9.33399E-05-2.76917E-05-2.81276E-05-4.08282E-07 7.74034E-19-3.46741E-19
 -1      2387 9.34182E-05-2.75866E-05-2.81891E-05-1.22808E-07 1.14023E-18-6.99117E-20
 -1      2388 9.32880E-05-2.78562E-05-2.80375E-05-8.14339E-07 4.79518E-19-6.49330E-19
 -1      2389 9.32433E-05-2.77651E-05-2.80490E-05-6.75266E-07 5.38743E-19-4.43365E-19
 -1      2390 9.40108E-05-2.78085E-05-2.83836E-05-4.41143E-07 9.32880E-19-6.87055E-19
 -1      2391 9.33810E-05-2.79917E-05-2.80209E-05-9.89882E-07 5.47801E-19-5.80114E-19
 -1      2392 9.32686E-05-2.79110E-05-2.80040E-05-9.39119E-07 3.99780E-19-6.38485E-19
 -1      2393 9.39235E-05-2.80179E-05-2.82533E-05-8.88311E-07 5.74203E-19-7.26527E-19
 -1      2394 9.35545E-05-2.81063E-05-2.80473E-05-1.02473E-06 5.83482E-19-5.55546E-19
 -1      2395 9.34105E-05-2.80356E-05-2.80153E-05-1.02678E-06 5.64716E-19-4.82295E-19
 -1      2396 9.39515E-05-2.81669E-05-2.81988E-05-1.08454E-06 5.54121E-19-9.15685E-19
 -1      2397 9.37645E-05-2.82027E-05-2.80967E-05-9.76931E-07 2.52102E-19-2.54087E-19
 -1      2398 9.36118E-05-2.81423E-05-2.80581E-05-1.00902E-06 5.26083E-19-3.75699E-19
 -1      2399 9.40491E-05-2.82771E-05-2.81913E-05-1.12582E-06 4.32415E-19-5.84666E-19
 -1      2400 9.39827E-05-2.82825E-05-2.81566E-05-8.84872E-07 5.54162E-19-1.90397E-19
 -1      2401 9.38348E-05-2.82320E-05-2.81166E-05-9.32024E-07 3.63747E-19-2.91906E-19
 -1      2402 9.41827E-05-2.83596E-05-2.82118E-05-1.07561E-06 4.21854E-19-6.38469E-19
 -1      2403 9.41924E-05-2.83470E-05-2.82191E-05-7.74235E-07 9.81077E-19-5.49518E-19
 -1      2404 9.40565E-05-2.83058E-05-2.81806E-05-8.26471E-07 1.03119E-18-1.87642E-19
 -1      2405 9.43297E-05-2.84208E-05-2.82477E-05-9.76482E-07 8.88353E-19-6.15697E-19
 -1      2406 9.43849E-05-2.83980E-05-2.82798E-05-6.62265E-07 1.20299E-18-5.27804E-19
 -1      2407 9.42641E-05-2.83652E-05-2.82444E-05-7.12900E-07 9.76678E-19-4.74948E-19
 -1      2408 9.44760E-05-2.84648E-05-2.82909E-05-8.57181E-07 1.00529E-18-6.87318E-19
 -1      2409 9.45575E-05-2.84374E-05-2.83369E-05-5.60609E-07 5.27764E-19-3.22708E-19
 -1      2410 9.44518E-05-2.84117E-05-2.83049E-05-6.05121E-07 1.15548E-18-9.38148E-20
 -1      2411 9.46142E-05-2.84953E-05-2.83368E-05-7.37186E-07 1.05358E-18-2.68132E-19
 -1      2412 9.47115E-05-2.84672E-05-2.83900E-05-4.77327E-07 2.94097E-19-5.07516E-19
 -1      2413 9.46190E-05-2.84474E-05-2.83611E-05-5.12542E-07 4.78266E-19-2.64770E-19
 -1      2414 9.47411E-05-2.85147E-05-2.83827E-05-6.29817E-07 4.37791E-19-2.06683E-19
 -1      2415 9.48514E-05-2.84898E-05-2.84400E-05-4.18342E-07 2.08594E-19-1.06762E-18
 -1      2416 9.47685E-05-2.84744E-05-2.84134E-05-4.41851E-07 2.06049E-19-6.22481E-19
 -1      2417 9.48575E-05-2.85256E-05-2.84280E-05-5.44451E-07 4.38684E-19-2.71404E-19
 -1      2418 9.49840E-05-2.85073E-05-2.84889E-05-3.88522E-07 3.92095E-19-8.23966E-19
 -1      2419 9.49060E-05-2.84948E-05-2.84632E-05-3.98242E-07 4.01425E-19-9.89717E-19
 -1      2420 9.49663E-05-2.85298E-05-2.84730E-05-4.88152E-07 3.19894E-19-2.59415E-19
 -1      2421 9.51176E-05-2.85221E-05-2.85393E-05-3.92454E-07 3.31361E-19-8.82318E-19
 -1      2422 9.50389E-05-2.85109E-05-2.85128E-05-3.86315E-07 2.98541E-19-6.73537E-19
 -1      2423 9.50724E-05-2.85290E-05-2.85190E-05-4.66858E-07 3.55480E-19-2.05342E-19
 -1      2424 9.52629E-05-2.85370E-05-2.85944E-05-4.34964E-07-1.13459E-19-6.12859E-19
 -1      2425 9.51767E-05-2.85253E-05-2.85653E-05-4.10709E-07 2.37737E-19-7.34204E-19
 -1      2426 9.51825E-05-2.85251E-05-2.85682E-05-4.86229E-07-5.66679E-21-3.43410E-19
 -1      2427 9.54317E-05-2.85552E-05-2.86582E-05-5.21375E-07-3.46568E-19-5.94309E-19
 -1      2428 9.53304E-05-2.85409E-05-2.86241E-05-4.76480E-07-2.19791E-19-9.33205E-19
 -1      2429 9.53045E-05-2.85197E-05-2.86232E-05-5.52189E-07-3.49242E-19-2.21815E-19
 -1      2430 9.56379E-05-2.85802E-05-2.87349E-05-6.57477E-07-1.62071E-19-9.90040E-19
 -1      2431 9.55128E-05-2.85609E-05-2.86933E-05-5.89209E-07 4.14113E-20-6.15366E-19
 -1      2432 9.54480E-05-2.85151E-05-2.86871E-05-6.71144E-07-1.62237E-19-1.34775E-19
 -1      2433 9.58970E-05-2.86171E-05-2.88291E-05-8.49104E-07 5.26202E-19-1.61495E-18
 -1      2434 9.57386E-05-2.85895E-05-2.87774E-05-7.54772E-07 4.45122E-20-1.77093E-18
 -1      2435 9.56239E-05-2.85144E-05-2.87633E-05-8.49844E-07 3.47554E-19-8.38965E-19
 -1      2436 9.62262E-05-2.86717E-05-2.89456E-05-1.10122E-06 5.34853E-19-9.14696E-19
 -1      2437 9.60239E-05-2.86322E-05-2.88809E-05-9.78679E-07 5.01269E-19-1.31852E-18
 -1      2438 9.58448E-05-2.85216E-05-2.88553E-05-1.09476E-06 1.48470E-19-1.61166E-18
 -1      2439 9.66438E-05-2.87522E-05-2.90891E-05-1.41626E-06 3.02879E-19-6.88009E-19
 -1      2440 9.63866E-05-2.86959E-05-2.90086E-05-1.26480E-06 5.49853E-19-3.02440E-19
 -1      2441 9.61247E-05-2.85432E-05-2.89666E-05-1.41084E-06 1.82105E-19-7.82501E-19
 -1      2442 9.71684E-05-2.88689E-05-2.92631E-05-1.79153E-06 2.24584E-20-7.40697E-19
 -1      2443 9.68457E-05-2.87899E-05-2.91647E-05-1.61326E-06 1.93200E-19-4.25787E-19
 -1      2444 9.64794E-05-2.85880E-05-2.91000E-05-1.79942E-06 1.31296E-19-4.42434E-20
 -1      2445 9.78180E-05-2.90355E-05-2.94698E-05-2.21529E-06-1.27320E-19-1.53588E-18
 -1      2446 9.74204E-05-2.89264E-05-2.93521E-05-2.01719E-06 2.34968E-19-1.32777E-18
 -1      2447 9.69262E-05-2.86695E-05-2.92571E-05-2.25496E-06 3.51444E-19-6.51379E-19
 -1      2448 9.86071E-05-2.92698E-05-2.97084E-05-2.66121E-06 3.30404E-19-1.33108E-18
 -1      2449 9.81291E-05-2.91216E-05-2.95718E-05-2.45800E-06-1.58362E-19-1.95577E-18
 -1      2450 9.74837E-05-2.88067E-05-2.94377E-05-2.76031E-06 1.90285E-19-1.72488E-18
 -1      2451 9.95446E-05-2.95940E-05-2.99736E-05-3.08115E-06-1.76349E-19-1.85357E-18
 -1      2452 9.89866E-05-2.93963E-05-2.98212E-05-2.89898E-06 2.11439E-19-1.20392E-18
 -1      2453 9.81716E-05-2.90265E-05-2.96388E-05-3.28025E-06 1.64583E-19-2.19782E-18
 -1      2454 1.00629E-04-3.00339E-05-3.02542E-05-3.39669E-06 7.34702E-20-1.40936E-18
 -1      2455 1.00001E-04-2.97764E-05-3.00929E-05-3.27722E-06-1.47142E-19-1.40180E-18
 -1      2456 9.90104E-05-2.93649E-05-2.98538E-05-3.75319E-06 1.09651E-19-1.80646E-18
 -1      2457 1.01840E-04-3.06156E-05-3.05315E-05-3.49126E-06-7.06663E-19-5.42607E-19
 -1      2458 1.01170E-04-3.02905E-05-3.03730E-05-3.49497E-06-5.32973E-20-9.24589E-19
 -1      2459 1.00019E-04-2.98665E-05-3.00715E-05-4.08194E-06-6.32506E-19-9.76987E-19
 -1      2460 1.03133E-04-3.13551E-05-3.07793E-05-3.20755E-06-8.49309E-19-9.58967E-19
 -1      2461 1.02468E-04-3.09640E-05-3.06405E-05-3.41326E-06-6.26919E-19-3.13675E-20
 -1      2462 1.01211E-04-3.05792E-05-3.02773E-05-4.12558E-06-9.40136E-19 1.27480E-19
 -1      2463 1.04420E-04-3.22371E-05-3.09661E-05-2.35893E-06-9.60234E-19-1.24570E-18
 -1      2464 1.03839E-04-3.18031E-05-3.08685E-05-2.85457E-06-1.27862E-18-1.26637E-18
 -1      2465 1.02584E-04-3.15374E-05-3.04548E-05-3.69813E-06-5.75127E-19-4.96492E-19
 -1      2466 1.05552E-04-3.31777E-05-3.10616E-05-7.69690E-07-8.28891E-19-9.68271E-19
 -1      2467 1.05169E-04-3.27642E-05-3.10274E-05-1.62665E-06-8.65977E-19-1.06348E-18
 -1      2468 1.04095E-04-3.27265E-05-3.05910E-05-2.58447E-06-1.00904E-18-1.48760E-18
 -1      2469 1.06296E-04-3.39758E-05-3.10468E-05 1.63876E-06-4.78177E-20-1.05541E-19
 -1      2470 1.06257E-04-3.37070E-05-3.10931E-05 4.14518E-07-5.29343E-19-4.15023E-19
 -1      2471 1.05621E-04-3.40229E-05-3.06840E-05-5.91528E-07-8.21557E-19-1.46124E-18
 -1      2472 1.06332E-04-3.42803E-05-3.09277E-05 4.70709E-06 1.33083E-18 8.93185E-19
 -1      2473 1.06794E-04-3.43448E-05-3.10574E-05 3.24566E-06 7.88574E-19 3.13946E-19
 -1      2474 1.06903E-04-3.51218E-05-3.07519E-05 2.34405E-06 3.23749E-19-4.85266E-19
 -1      2475 1.05317E-04-3.36460E-05-3.07420E-05 7.87517E-06 3.45808E-19 2.21567E-18
 -1      2476 1.06385E-04-3.42439E-05-3.09381E-05 6.50411E-06 8.69340E-19 1.87539E-18
 -1      2477 1.07514E-04-3.54987E-05-3.08359E-05 5.97767E-06 4.78575E-19 1.30587E-18
 -1      2478 1.03076E-04-3.17719E-05-3.05464E-05 1.01216E-05 2.50240E-19 2.58617E-18
 -1      2479 1.04693E-04-3.29695E-05-3.07740E-05 9.35045E-06 9.25939E-19 2.58910E-18
 -1      2480 1.06943E-04-3.45456E-05-3.09870E-05 9.55300E-06 4.47978E-19 1.94963E-18
 -1      2481 9.99153E-05-2.88983E-05-3.03863E-05 1.02526E-05-3.13558E-19 1.17907E-18
 -1      2482 1.01769E-04-3.04546E-05-3.06053E-05 1.05744E-05 3.16663E-20 2.45118E-18
 -1      2483 1.04911E-04-3.19661E-05-3.12260E-05 1.17676E-05 8.13421E-19 1.27361E-18
 -1      2484 9.67775E-05-2.60299E-05-3.02607E-05 7.58710E-06-7.10403E-19 9.87118E-19
 -1      2485 9.83307E-05-2.73589E-05-3.04418E-05 9.14713E-06 1.15163E-19 9.25317E-19
 -1      2486 1.01824E-04-2.83137E-05-3.15010E-05 1.12284E-05 2.38668E-19 1.55796E-18
 -1      2487 9.49480E-05-2.45754E-05-3.01261E-05 2.75193E-06-9.00872E-19 7.26212E-19
 -1      2488 9.56784E-05-2.50445E-05-3.02572E-05 5.06596E-06-1.50842E-18 7.94696E-19
 -1      2489 9.89371E-05-2.51156E-05-3.16767E-05 7.39477E-06-8.91496E-19 2.03971E-18
 -1      2490 9.51452E-05-2.52916E-05-2.99454E-05-2.33880E-06 4.37314E-19 1.11794E-18
 -1      2491 9.48927E-05-2.47062E-05-3.00232E-05-1.97449E-07 2.57663E-19 8.12331E-19
 -1      2492 9.77116E-05-2.40676E-05-3.16149E-05 1.48765E-06-3.23937E-19-6.09813E-19
 -1      2493 9.69344E-05-2.76393E-05-2.97318E-05-5.60312E-06 1.32935E-18 6.95024E-19
 -1      2494 9.60062E-05-2.64098E-05-2.97559E-05-4.44936E-06 9.75425E-19 9.13588E-19
 -1      2495 9.86208E-05-2.57011E-05-3.12728E-05-3.95832E-06 7.49606E-19 1.11528E-18
 -1      2496 9.90227E-05-3.01828E-05-2.95373E-05-6.12722E-06 8.86418E-19 9.39396E-19
 -1      2497 9.79758E-05-2.89948E-05-2.95172E-05-6.16501E-06 1.48771E-18 1.06346E-18
 -1      2498 1.00723E-04-2.89088E-05-3.07539E-05-6.71105E-06 9.28858E-19 8.61290E-19
 -1      2499 1.00283E-04-3.17429E-05-2.93925E-05-4.45197E-06 2.61784E-19 1.01527E-18
 -1      2500 9.95772E-05-3.10784E-05-2.93541E-05-5.32610E-06 8.16864E-19 1.00420E-18
 -1      2501 1.02484E-04-3.18565E-05-3.02275E-05-6.30246E-06 7.69585E-19 6.88545E-19
 -1      2502 1.00273E-04-3.19150E-05-2.92933E-05-1.89513E-06-9.94231E-19 5.40223E-19
 -1      2503 1.00093E-04-3.18866E-05-2.92644E-05-3.00648E-06-1.01745E-18 6.55359E-19
 -1      2504 1.02909E-04-3.32674E-05-2.98122E-05-3.80053E-06 1.82977E-19 1.77374E-18
 -1      2505 9.92069E-05-3.09860E-05-2.92157E-05 2.94520E-07-3.69884E-19 6.67776E-19
 -1      2506 9.94870E-05-3.14325E-05-2.92142E-05-5.53602E-07-9.14552E-19 7.38397E-19
 -1      2507 1.01899E-04-3.29275E-05-2.95437E-05-8.35860E-07-5.96232E-19-4.32473E-19
 -1      2508 9.75779E-05-2.95684E-05-2.91241E-05 1.34023E-06-8.88271E-19 1.82281E-18
 -1      2509 9.81038E-05-3.01645E-05-2.91575E-05 1.03173E-06-5.48255E-19 1.24284E-18
 -1      2510 9.99256E-05-3.13149E-05-2.93862E-05 1.32795E-06-1.17499E-18 2.84762E-19
 -1      2511 9.65191E-05-2.87728E-05-2.90444E-05 1.34717E-06-8.96563E-19 2.83685E-18
 -1      2512 9.71823E-05-2.53342E-05-3.07929E-05 1.55423E-05-6.33650E-19-4.70416E-18
 -1      2513 9.85607E-05-2.72716E-05-3.05121E-05 1.38535E-05-7.52705E-19-6.98616E-18
 -1      2514 9.29169E-05-2.08111E-05-3.09775E-05 1.76829E-05-1.55292E-19-6.11329E-19
 -1      2515 9.53391E-05-2.33904E-05-3.07587E-05 1.72193E-05-1.44513E-19-2.31103E-18
 -1      2516 9.79808E-05-2.78969E-05-3.00907E-05 1.83490E-05 9.45847E-19-3.13437E-18
 -1      2517 9.93090E-05-2.92497E-05-2.99566E-05 7.04401E-06-1.68407E-18-8.84961E-19
 -1      2518 9.90457E-05-2.98130E-05-2.96847E-05 5.18833E-06-1.41099E-18-1.61147E-18
 -1      2519 9.91657E-05-2.80694E-05-3.04219E-05 1.13969E-05-2.65628E-18-4.25334E-18
 -1      2520 9.95444E-05-2.92184E-05-3.01283E-05 9.37501E-06-2.47664E-18-1.24469E-18
 -1      2521 1.01316E-04-3.14393E-05-2.99754E-05 8.76761E-06-2.10370E-18-1.59511E-18
 -1      2522 1.00964E-04-3.06724E-05-3.01635E-05 1.38301E-05-1.31877E-18-4.02868E-18
 -1      2523 8.71473E-05-1.52192E-05-3.09661E-05 1.58447E-05-1.41091E-18 1.45190E-18
 -1      2524 9.00107E-05-1.78627E-05-3.08330E-05 1.73609E-05-8.87489E-19 9.08107E-19
 -1      2525 9.21289E-05-2.28261E-05-2.97326E-05 2.00301E-05 4.86620E-19-7.75477E-19
 -1      2526 8.19618E-05-1.03341E-05-3.08333E-05 9.21193E-06-2.63640E-18 1.95526E-18
 -1      2527 8.41370E-05-1.21837E-05-3.07809E-05 1.28135E-05-2.36001E-18 1.45268E-18
 -1      2528 8.48505E-05-1.65926E-05-2.92175E-05 1.67024E-05-8.77349E-19 7.13627E-19
 -1      2529 8.00207E-05-8.45809E-06-3.07349E-05-7.17767E-07-1.70688E-18-1.57455E-19
 -1      2530 8.04072E-05-8.76118E-06-3.07313E-05 3.95455E-06-2.42399E-18 1.19555E-18
 -1      2531 7.92391E-05-1.17788E-05-2.87956E-05 7.78283E-06-2.17274E-18 1.78572E-18
 -1      2532 8.23820E-05-1.05477E-05-3.07592E-05-1.03520E-05 3.55176E-19 7.08708E-19
 -1      2533 8.07835E-05-9.19623E-06-3.07930E-05-6.29891E-06-3.43925E-19-5.48030E-19
 -1      2534 7.82966E-05-1.09182E-05-2.87278E-05-4.03751E-06-7.10532E-19 4.67251E-19
 -1      2535 8.77109E-05-1.55500E-05-3.08484E-05-1.66237E-05 8.66597E-19 2.57822E-18
 -1      2536 8.49799E-05-1.30979E-05-3.09450E-05-1.43050E-05 4.97251E-19 1.83747E-18
 -1      2537 8.24111E-05-1.43941E-05-2.90786E-05-1.43123E-05 1.40116E-18 1.52551E-18
 -1      2538 9.33528E-05-2.11613E-05-3.08707E-05-1.81398E-05 2.26641E-18 1.58300E-18
 -1      2539 9.06953E-05-1.84808E-05-3.10450E-05-1.78759E-05 1.18938E-18 2.54626E-18
 -1      2540 8.92958E-05-2.01760E-05-2.96430E-05-1.96933E-05 1.10003E-18 2.58034E-18
 -1      2541 9.73817E-05-2.54413E-05-3.07634E-05-1.58545E-05-2.40204E-19-5.65203E-19
 -1      2542 9.55339E-05-2.32310E-05-3.09957E-05-1.70733E-05 1.44345E-18-6.91090E-19
 -1      2543 9.58202E-05-2.54757E-05-3.01446E-05-1.96993E-05 1.95030E-18 1.10518E-19
 -1      2544 9.78903E-05-2.61997E-05-3.07578E-05-1.13557E-05-3.27382E-19 3.93076E-19
 -1      2545 3.95411E-05-3.26978E-05-2.79190E-06-3.34811E-05 2.59107E-18 3.66956E-18
 -1      2546 5.92527E-05-4.04406E-05-7.91208E-06-4.38380E-05 1.11893E-18 2.04770E-18
 -1      2547 9.36234E-05-2.74722E-05-2.83389E-05 3.71885E-07 1.38020E-18 1.70573E-20
 -1      2548 9.39063E-05-2.73365E-05-2.84861E-05 9.05429E-07 1.63966E-18 3.41194E-19
 -1      2549 9.42675E-05-2.74895E-05-2.86328E-05 4.05834E-07 1.47581E-18-4.49816E-19
 -1      2550 2.98102E-05-2.50732E-05-1.86976E-06 2.51844E-05 2.55253E-18 2.93412E-18
 -1      2551 2.23516E-05-2.20287E-05 1.45230E-07 7.96867E-06 1.58604E-18 1.70847E-18
 -1      2552 1.35161E-04-6.11945E-05-3.20013E-05 2.96992E-05 1.67501E-19-1.34001E-18
 -1      2553 1.23017E-04-6.19214E-05-2.60457E-05 3.56809E-05 2.10085E-18-2.07714E-18
 -1      2554 2.06927E-05-2.29250E-05 1.08230E-06-7.56450E-06 1.03862E-18 3.38644E-18
 -1      2555 2.60970E-05-2.58754E-05-4.90525E-08-2.19147E-05 1.61455E-18 4.17164E-18
 -1      2556 9.50683E-05-2.00216E-05-3.22121E-05-1.17707E-05-3.27536E-18-5.01523E-19
 -1      2557 9.54732E-05-2.33579E-05-3.09268E-05-7.96720E-06-2.94969E-18-3.14787E-19
 -1      2558 9.50479E-05-2.25725E-05-3.10497E-05-7.61215E-06-2.84837E-18-9.27231E-19
 -1      2559 9.32354E-05-1.77031E-05-3.23975E-05-1.13099E-05-3.15211E-18-1.39087E-18
 -1      2560 8.78402E-05-1.07995E-05-3.30532E-05-1.51871E-06-4.19498E-19-4.14261E-18
 -1      2561 8.79455E-05-1.09214E-05-3.30445E-05-2.63771E-06-7.84631E-19-4.08778E-18
 -1      2562 8.93448E-05-1.30940E-05-3.26810E-05-2.93098E-06-8.81321E-19-3.73041E-18
 -1      2563 8.90963E-05-1.27593E-05-3.27191E-05-9.41179E-07-3.16829E-19-3.85759E-18
 -1      2564 1.43438E-04-1.21468E-05-5.68062E-05 7.24748E-06 2.91549E-18-1.92255E-18
 -1      2565 1.43172E-04-9.28054E-06-5.79817E-05 3.15009E-06 2.75370E-18-2.16995E-18
 -1      2566 1.26532E-04-5.97517E-05-2.85224E-05-2.64711E-05 3.27590E-19-1.00860E-18
 -1      2567 1.39512E-04-5.77887E-05-3.54283E-05-1.92334E-05 1.50221E-18 1.02110E-18
 -1      2568 1.48943E-04-2.86152E-05-5.18850E-05 8.57429E-06 2.14977E-18-1.60301E-18
 -1      2569 1.47830E-04-2.09665E-05-5.50673E-05 9.07909E-06 2.44369E-18-1.05890E-18
 -1      2570 8.25138E-05-5.08662E-05-1.37079E-05 4.09144E-05 8.66726E-19 2.88838E-19
 -1      2571 6.34354E-05-4.39788E-05-8.08792E-06 3.83414E-05 7.93246E-19-8.22787E-19
 -1      2572 1.48915E-04-1.30498E-05-5.87406E-05-2.54657E-06 1.69915E-18-2.09069E-18
 -1      2573 1.53796E-04-2.00167E-05-5.74933E-05-2.17950E-06 1.49946E-18-1.41582E-18
 -1      2574 9.06280E-05-5.30488E-05-1.58559E-05-4.17592E-05-1.13058E-18-1.65917E-18
 -1      2575 1.09379E-04-5.80395E-05-2.22356E-05-3.85029E-05-6.57298E-19-1.94262E-18
 -1      2576 4.98588E-05-3.62561E-05-5.47574E-06-3.92160E-05-8.86420E-19-1.05117E-18
 -1      2577 6.86260E-05-4.38708E-05-1.05466E-05-4.49012E-05-1.01051E-18-7.07696E-19
 -1      2578 1.96549E-05-2.26061E-05 1.37462E-06 1.14903E-05-6.55604E-19-3.98444E-18
 -1      2579 1.73452E-05-2.07814E-05 1.75272E-06-1.29794E-06-1.12756E-18-3.25981E-18
 -1      2580 1.53734E-04-4.28682E-05-4.77574E-05 2.34595E-07-1.69936E-19 1.94182E-18
 -1      2581 1.55780E-04-3.24501E-05-5.32615E-05 3.04699E-06-1.41264E-18 2.77403E-18
 -1      2582 4.43323E-05-3.44968E-05-4.13657E-06 3.45813E-05 1.62419E-19-3.21534E-18
 -1      2583 2.97753E-05-2.72312E-05-7.82391E-07 2.33313E-05-1.58183E-19-3.62636E-18
 -1      2584 5.95660E-05-3.67776E-05-9.19275E-06 3.59147E-05 9.74935E-19-9.60112E-19
 -1      2585 1.24164E-04-6.27353E-05-2.63885E-05 2.81884E-05-3.93023E-19-6.31145E-19
 -1      2586 1.07476E-04-5.98445E-05-2.01431E-05 3.31230E-05 8.73079E-19-1.18510E-18
 -1      2587 1.46188E-04-5.85241E-05-3.78463E-05 1.03970E-05-1.91853E-18-2.14935E-19
 -1      2588 1.34300E-04-6.19885E-05-3.11764E-05 1.79324E-05-1.34371E-18-1.88041E-19
 -1      2589 1.33071E-04-6.45870E-05-2.91847E-05 1.67004E-05-6.39510E-20 6.57298E-19
 -1      2590 1.53004E-04-4.40603E-05-4.72066E-05-8.45218E-06-2.70055E-18 2.34226E-18
 -1      2591 1.51204E-04-5.25938E-05-4.24354E-05-1.78145E-07-1.98130E-18 1.46410E-18
 -1      2592 1.46640E-04-5.83887E-05-3.77605E-05-9.85433E-07-2.26025E-18 2.14808E-18
 -1      2593 1.49689E-04-1.32567E-05-5.89761E-05-2.52616E-06-2.32129E-18 4.63539E-19
 -1      2594 1.47586E-04-1.29419E-05-5.82020E-05-8.07185E-06-2.04813E-18 2.31452E-19
 -1      2595 1.53559E-04-2.16888E-05-5.67621E-05 4.12292E-06-1.60915E-18 1.58099E-18
 -1      2596 1.52314E-04-1.58168E-05-5.89188E-05 1.22625E-06-2.08201E-18 1.22566E-18
 -1      2597 1.39759E-04-1.32936E-05-5.44321E-05 5.51553E-07-2.25311E-18-2.12182E-19
 -1      2598 1.44014E-04-6.02403E-05-3.60041E-05-1.94402E-05 2.23945E-18 1.40036E-18
 -1      2599 1.51965E-04-5.45471E-05-4.21077E-05-9.66334E-06 1.19997E-18 1.17060E-18
 -1      2600 1.19640E-04-6.26401E-05-2.43683E-05-3.67586E-05 1.65171E-19-5.53854E-19
 -1      2601 1.34869E-04-6.30211E-05-3.09680E-05-3.08525E-05 1.36372E-18 1.11131E-18
 -1      2602 1.41460E-04-6.41970E-05-3.29954E-05-1.97917E-05 2.68446E-18-1.69830E-19
 -1      2603 8.27227E-05-5.15277E-05-1.31104E-05-4.63088E-05 8.81761E-19-1.42699E-18
 -1      2604 1.01303E-04-5.78604E-05-1.85997E-05-4.58651E-05 4.08270E-19-2.92655E-18
 -1      2605 1.56230E-04-2.76479E-05-5.53276E-05-4.50350E-07 9.50794E-19-1.48083E-18
 -1      2606 1.53886E-04-3.51993E-05-5.10745E-05 1.82571E-06 2.90109E-19-6.96473E-19
 -1      2607 1.45051E-04-2.25879E-05-5.27092E-05-6.77655E-06 1.30951E-18-2.41574E-18
 -1      2608 9.63362E-05-2.50959E-05-3.05574E-05 7.59388E-06 3.08578E-18 1.29168E-18
 -1      2609 9.74578E-05-2.37794E-05-3.15979E-05 1.06934E-05 3.25711E-18 1.74330E-18
 -1      2610 9.58918E-05-2.13039E-05-3.20221E-05 1.18953E-05 3.50482E-18 6.76898E-19
 -1      2611 9.58801E-05-2.41618E-05-3.07696E-05 7.68533E-06 3.14627E-18 1.81627E-19
 -1      2612 9.07951E-05-1.50461E-05-3.24584E-05-6.80491E-06-2.13734E-18-3.36660E-18
 -1      2613 8.97019E-05-1.31822E-05-3.28460E-05-7.96378E-06-2.28026E-18-3.56291E-18
 -1      2614 9.03601E-05-1.39676E-05-3.28011E-05-9.13628E-06-2.62285E-18-3.17234E-18
 -1      2615 9.47335E-05-2.69394E-05-2.90671E-05 1.88602E-06 1.94025E-18-3.70016E-19
 -1      2616 9.42470E-05-1.90821E-05-3.22587E-05 1.16044E-05 3.39517E-18-5.87828E-19
 -1      2617 1.16253E-04-6.23002E-05-2.29455E-05-3.84226E-05 1.61021E-18-2.19355E-18
 -1      2618 1.46143E-04-2.67665E-05-5.12836E-05 9.34746E-06-1.52339E-18 1.01284E-18
 -1      2619 1.44106E-04-3.60965E-05-4.64844E-05 9.96205E-06 2.32193E-18-5.59042E-19
 -1      2620 1.44903E-04-5.81900E-05-3.78154E-05 1.08906E-05-6.60772E-19-1.09415E-18
 -1      2621 1.42010E-04-6.03208E-05-3.49666E-05 2.08144E-05-2.30287E-19-5.62006E-19
 -1      2622 1.38005E-04-6.32289E-05-3.18392E-05 2.18975E-05 8.35810E-19-7.21249E-19
 -1      2623 1.41623E-04-1.55909E-05-5.41221E-05-1.18609E-05-2.00472E-18-6.68097E-20
 -1      2624 6.69264E-05-3.71724E-05-1.21671E-05-4.22411E-05 2.25724E-18 1.30295E-18
 -1      2625 7.46530E-05-4.55385E-05-1.21762E-05-4.54220E-05 1.53906E-18-4.56551E-19
 -1      2626 8.84837E-05-4.90292E-05-1.67064E-05-4.38363E-05 2.25470E-18-2.05882E-18
 -1      2627 7.39622E-05-4.57286E-05-1.16772E-05 4.62401E-05 2.72766E-18 3.22084E-19
 -1      2628 7.07342E-05-3.97296E-05-1.27291E-05 4.43899E-05 1.73726E-18 2.70204E-19
 -1      2629 8.83174E-05-5.08205E-05-1.62084E-05 4.63709E-05 1.79740E-18-7.00390E-19
 -1      2630 2.87510E-05-1.86449E-05-3.74481E-06 9.85449E-07 1.47524E-18 3.01967E-18
 -1      2631 9.76353E-05-2.94170E-05-2.92448E-05 2.08125E-06-1.36068E-18 1.84496E-18
 -1      2632 9.81461E-05-2.93974E-05-2.94317E-05 3.12615E-06-1.94231E-18-8.02061E-19
 -1      2633 1.15524E-04-6.13141E-05-2.28956E-05 4.00267E-05 1.54499E-18-1.88703E-18
 -1      2634 1.00778E-04-2.93067E-05-3.05651E-05-1.18246E-05-8.59263E-19 4.87802E-19
 -1      2635 9.88126E-05-2.70005E-05-3.07724E-05-1.41930E-05-6.67616E-19-3.00751E-19
 -1      2636 1.00271E-04-2.92893E-05-3.04558E-05-1.65147E-05-1.06670E-18-2.83712E-19
 -1      2637 1.02868E-04-3.13794E-05-3.06899E-05-1.22435E-05-9.92546E-19 9.02375E-19
 -1      2638 1.51432E-04-5.05265E-05-4.35147E-05-1.72622E-07 7.73076E-19 1.95770E-18
 -1      2639 1.45528E-04-4.43264E-05-4.38237E-05 9.13430E-06 3.11390E-19 2.07470E-18
 -1      2640 1.46678E-04-5.54458E-05-3.90021E-05-1.19132E-06 1.61693E-18 1.71471E-18
 -1      2641 4.05861E-05-2.64826E-05-5.47829E-06-2.87919E-05 1.89577E-18 3.80890E-18
 -1      2642 9.47169E-05-2.06037E-05-3.17185E-05 9.67149E-06 3.15049E-18-7.96383E-19
 -1      2643 4.37308E-05-2.63790E-05-6.80568E-06 3.03496E-05 2.63343E-18 2.37487E-18
 -1      2644 9.11359E-05-1.50074E-05-3.26792E-05-9.82093E-06-2.79259E-18-2.70156E-18
 -1      2645 9.21649E-05-1.62886E-05-3.25981E-05-1.08482E-05-3.08784E-18-2.07129E-18
 -1      2646 9.36576E-05-1.92131E-05-3.18908E-05-9.20290E-06-3.01297E-18-1.67626E-18
 -1      2647 9.20733E-05-1.68204E-05-3.22369E-05-8.31608E-06-2.58774E-18-2.67777E-18
 -1      2648 3.17670E-05-2.21279E-05-3.56489E-06 1.84771E-05 5.28337E-20-3.74367E-18
 -1      2649 4.41110E-05-3.08143E-05-5.34149E-06-3.54240E-05-8.09340E-19-1.38786E-18
 -1      2650 5.77000E-05-3.31515E-05-1.02411E-05-3.80214E-05-1.57770E-18-2.38863E-19
 -1      2651 3.96923E-05-2.37048E-05-6.09347E-06-3.00616E-05-4.60786E-19-1.45563E-18
 -1      2652 8.51120E-05-4.89553E-05-1.51641E-05-4.21201E-05-1.25361E-18-1.62810E-18
 -1      2653 1.00924E-04-5.63856E-05-1.87490E-05 3.45840E-05 1.88550E-18-3.68539E-19
 -1      2654 2.23566E-05-1.98801E-05-6.23286E-07-9.13839E-06-4.02976E-19-3.56220E-18
 -1      2655 2.84757E-05-1.81219E-05-3.93322E-06-1.69790E-05 2.05405E-20-3.59820E-18
 -1      2656 2.53854E-05-1.56471E-05-3.80348E-06-2.62148E-06-1.84984E-19-4.60002E-18
 -1      2657 1.21793E-04-6.09050E-05-2.58489E-05-2.86710E-05-2.72321E-19-9.35018E-19
 -1      2658 1.42686E-04-5.56362E-05-3.72746E-05-6.24650E-06 1.80153E-18 2.42887E-19
 -1      2659 1.35922E-04-1.54583E-05-5.19281E-05 1.10343E-05 2.48456E-18-1.68570E-18
 -1      2660 1.45491E-04-3.69295E-05-4.71221E-05-6.53424E-06-6.20452E-20-2.37042E-18
 -1      2661 1.52286E-04-4.25310E-05-4.71795E-05 1.74098E-06-5.31831E-19-6.48615E-19
 -1      2662 1.47876E-04-4.83277E-05-4.27140E-05 2.18024E-06-7.12778E-19-7.50683E-19
 -1      2663 9.98822E-05-3.09371E-05-2.95743E-05 4.07650E-06-1.67756E-18-3.32217E-19
 -1      2664 1.03838E-04-3.28105E-05-3.04802E-05-1.45139E-05-8.01521E-19-1.05267E-19
 -1      2665 1.31270E-04-8.97367E-06-5.28336E-05 1.23450E-06 2.66942E-18-1.97197E-18
 -1      2666 1.43756E-04-1.10868E-05-5.74023E-05-1.04082E-06 2.02949E-18-1.78899E-18
 -1      2667 9.05587E-05-1.51750E-05-3.23296E-05 3.19635E-06 1.04715E-18-3.41741E-18
 -1      2668 9.03684E-05-1.49035E-05-3.23623E-05 2.26227E-06 6.89432E-19-3.58229E-18
 -1      2669 9.02341E-05-1.47008E-05-3.23913E-05 1.42322E-06 4.55471E-19-3.69978E-18
 -1      2670 9.01690E-05-1.46084E-05-3.24023E-05 4.65882E-07 9.94075E-20-3.57760E-18
 -1      2671 9.14203E-05-1.65963E-05-3.20546E-05 1.64234E-06 5.29852E-19-3.37632E-18
 -1      2672 9.21408E-05-1.75522E-05-3.20045E-05 6.47577E-06 2.21447E-18-2.56044E-18
 -1      2673 9.16162E-05-1.67577E-05-3.21045E-05 5.63649E-06 1.87371E-18-2.77849E-18
 -1      2674 9.35627E-05-1.97782E-05-3.16645E-05 7.59794E-06 2.71274E-18-1.91134E-18
 -1      2675 9.27714E-05-1.85224E-05-3.18380E-05 7.01952E-06 2.44346E-18-2.25822E-18
 -1      2676 9.34355E-05-1.98682E-05-3.15061E-05 5.73609E-06 2.17549E-18-2.17760E-18
 -1      2677 9.52182E-05-2.54094E-05-2.99304E-05 3.97932E-06 2.29606E-18-6.94079E-19
 -1      2678 9.55549E-05-2.45593E-05-3.03944E-05 5.61237E-06 2.56671E-18-6.15668E-19
 -1      2679 5.58318E-05-2.76209E-05-1.17257E-05 3.56190E-05 1.57400E-18 6.24687E-19
 -1      2680 4.37922E-05-1.96797E-05-9.69226E-06 2.34388E-05 2.32632E-18 1.07658E-18
 -1      2681 1.35217E-04-1.99082E-05-5.01743E-05-8.54128E-06 1.37855E-18-2.15358E-18
 -1      2682 1.39165E-04-2.71787E-05-4.84467E-05-9.80059E-06 4.53586E-19-2.75752E-18
 -1      2683 1.35698E-04-1.24841E-05-5.33864E-05-4.70530E-06 2.09069E-18-1.93108E-18
 -1      2684 9.53568E-05-2.59079E-05-2.97387E-05-2.72084E-06-1.75585E-18-1.37521E-18
 -1      2685 9.51895E-05-2.64837E-05-2.94560E-05-1.72743E-06-1.54415E-18-1.44566E-18
 -1      2686 9.52186E-05-2.70075E-05-2.92099E-05-9.83586E-07-1.47082E-18-1.34941E-18
 -1      2687 9.50828E-05-2.73619E-05-2.90296E-05-3.79168E-07-1.37298E-18-1.51025E-18
 -1      2688 9.54116E-05-2.63250E-05-2.96139E-05-1.61966E-06-1.63542E-18-1.51116E-18
 -1      2689 9.50493E-05-2.76681E-05-2.88617E-05 8.65049E-08-1.14473E-18-1.46419E-18
 -1      2690 9.49711E-05-2.78927E-05-2.87509E-05 4.36374E-07-1.08046E-18-1.51589E-18
 -1      2691 9.54168E-05-2.73279E-05-2.91883E-05-3.46555E-07-1.32225E-18-1.59039E-18
 -1      2692 9.49289E-05-2.80781E-05-2.86401E-05 7.04654E-07-9.25291E-19-1.30190E-18
 -1      2693 9.49001E-05-2.82249E-05-2.85761E-05 8.86700E-07-8.07743E-19-1.34661E-18
 -1      2694 9.53555E-05-2.79432E-05-2.88977E-05 4.41348E-07-9.30827E-19-1.52424E-18
 -1      2695 9.48650E-05-2.83368E-05-2.85059E-05 1.01962E-06-9.02528E-19-1.19019E-18
 -1      2696 9.48714E-05-2.84338E-05-2.84732E-05 1.09332E-06-8.25090E-19-1.33334E-18
 -1      2697 9.52910E-05-2.83243E-05-2.87054E-05 8.80752E-07-8.84608E-19-1.29838E-18
 -1      2698 9.48469E-05-2.84991E-05-2.84315E-05 1.13747E-06-7.17919E-19-1.32598E-18
 -1      2699 9.48753E-05-2.85623E-05-2.84193E-05 1.14373E-06-6.24348E-19-1.28903E-18
 -1      2700 9.52414E-05-2.85562E-05-2.85835E-05 1.08392E-06-8.30611E-19-1.40599E-18
 -1      2701 9.48605E-05-2.85970E-05-2.83972E-05 1.13284E-06-5.16188E-19-1.28050E-18
 -1      2702 9.49007E-05-2.86366E-05-2.83980E-05 1.09983E-06-4.11012E-19-1.02673E-18
 -1      2703 9.52095E-05-2.86901E-05-2.85112E-05 1.13429E-06-6.58935E-19-9.78188E-19
 -1      2704 9.48932E-05-2.86510E-05-2.83894E-05 1.05790E-06-4.51539E-19-1.02092E-18
 -1      2705 9.49383E-05-2.86736E-05-2.83981E-05 1.00503E-06-2.38330E-19-9.46740E-19
 -1      2706 9.51923E-05-2.87587E-05-2.84736E-05 1.09218E-06-3.84253E-19-8.31616E-19
 -1      2707 9.49361E-05-2.86744E-05-2.83985E-05 9.48917E-07-4.03058E-19-1.12944E-18
 -1      2708 9.49819E-05-2.86848E-05-2.84119E-05 8.89573E-07-4.99959E-19-1.24738E-18
 -1      2709 9.51860E-05-2.87831E-05-2.84598E-05 1.00051E-06-5.17157E-19-1.41478E-18
 -1      2710 9.49833E-05-2.86764E-05-2.84183E-05 8.31063E-07-4.98898E-19-1.14987E-18
 -1      2711 9.50275E-05-2.86777E-05-2.84344E-05 7.74506E-07-3.94448E-19-1.07375E-18
 -1      2712 9.51873E-05-2.87777E-05-2.84623E-05 8.89483E-07-5.26045E-19-1.36990E-18
 -1      2713 9.50314E-05-2.86629E-05-2.84449E-05 7.21886E-07-2.40225E-19-1.25339E-18
 -1      2714 9.50734E-05-2.86575E-05-2.84626E-05 6.74672E-07-4.35283E-19-9.77806E-19
 -1      2715 9.51937E-05-2.87515E-05-2.84759E-05 7.80351E-07-3.93959E-19-9.39262E-19
 -1      2716 9.50790E-05-2.86378E-05-2.84762E-05 6.33965E-07-6.12115E-19-9.07738E-19
 -1      2717 9.51191E-05-2.86270E-05-2.84951E-05 6.00998E-07-3.18636E-19-8.18754E-19
 -1      2718 9.52035E-05-2.87105E-05-2.84975E-05 6.88308E-07-4.78009E-19-1.00891E-18
 -1      2719 9.51261E-05-2.86032E-05-2.85112E-05 5.76901E-07-2.97862E-19-9.21606E-19
 -1      2720 9.51657E-05-2.85879E-05-2.85316E-05 5.62243E-07-3.12668E-19-9.67607E-19
 -1      2721 9.52158E-05-2.86577E-05-2.85254E-05 6.24748E-07-3.61677E-19-8.99111E-19
 -1      2722 9.51738E-05-2.85599E-05-2.85503E-05 5.58864E-07-5.89563E-19-1.06570E-18
 -1      2723 9.52150E-05-2.85403E-05-2.85728E-05 5.66355E-07-5.59583E-19-1.22952E-18
 -1      2724 9.52302E-05-2.85942E-05-2.85588E-05 5.98990E-07-4.73838E-19-1.04668E-18
 -1      2725 9.52243E-05-2.85076E-05-2.85944E-05 5.87786E-07-4.28518E-19-1.31746E-18
 -1      2726 9.52696E-05-2.84836E-05-2.86200E-05 6.21540E-07-6.82950E-19-1.17949E-18
 -1      2727 9.52465E-05-2.85192E-05-2.85979E-05 6.19637E-07-7.75056E-19-1.33312E-18
 -1      2728 9.52799E-05-2.84449E-05-2.86452E-05 6.72293E-07-6.29230E-19-1.02088E-18
 -1      2729 9.53325E-05-2.84162E-05-2.86752E-05 7.37070E-07-5.06578E-19-5.55670E-19
 -1      2730 9.52646E-05-2.84308E-05-2.86436E-05 6.95612E-07-6.10115E-19-1.16915E-18
 -1      2731 9.53437E-05-2.83699E-05-2.87049E-05 8.22402E-07-5.66053E-19-3.23678E-19
 -1      2732 9.54071E-05-2.83360E-05-2.87409E-05 9.23885E-07-3.64834E-19-6.37544E-19
 -1      2733 9.52846E-05-2.83257E-05-2.86973E-05 8.36927E-07-5.73724E-19-9.09913E-19
 -1      2734 9.54188E-05-2.82800E-05-2.87759E-05 1.05001E-06-4.72657E-20-7.06645E-19
 -1      2735 9.54970E-05-2.82401E-05-2.88196E-05 1.19497E-06 5.70627E-19-6.90230E-19
 -1      2736 9.53058E-05-2.81998E-05-2.87604E-05 1.05521E-06-4.58462E-19-2.84199E-19
 -1      2737 9.55084E-05-2.81722E-05-2.88610E-05 1.36915E-06 6.84781E-19-1.22616E-18
 -1      2738 9.56058E-05-2.81256E-05-2.89141E-05 1.56547E-06 2.92245E-19-1.45169E-18
 -1      2739 9.53271E-05-2.80482E-05-2.88345E-05 1.36399E-06 2.31898E-19-5.07049E-19
 -1      2740 9.56152E-05-2.80434E-05-2.89626E-05 1.79596E-06 3.00190E-19-1.34505E-18
 -1      2741 9.57364E-05-2.79899E-05-2.90270E-05 2.05244E-06 2.59643E-19-1.58757E-18
 -1      2742 9.53462E-05-2.78656E-05-2.89208E-05 1.77867E-06 3.54743E-19-1.93266E-18
 -1      2743 9.57416E-05-2.78912E-05-2.90828E-05 2.34823E-06-3.50011E-19-1.95576E-18
 -1      2744 9.58914E-05-2.78316E-05-2.91598E-05 2.67409E-06-5.60839E-19-2.03120E-18
 -1      2745 9.53596E-05-2.76471E-05-2.90199E-05 2.31613E-06-5.45371E-19-1.14374E-18
 -1      2746 9.58894E-05-2.77155E-05-2.92225E-05 3.04429E-06-1.87614E-19-2.06074E-18
 -1      2747 9.60731E-05-2.76527E-05-2.93129E-05 3.44810E-06-2.78486E-19-1.91112E-18
 -1      2748 9.53622E-05-2.73899E-05-2.91307E-05 2.99383E-06-3.43887E-19-1.38167E-18
 -1      2749 9.60608E-05-2.75213E-05-2.93803E-05 3.90101E-06-3.46360E-19-1.70543E-18
 -1      2750 9.62846E-05-2.74627E-05-2.94835E-05 4.38872E-06 2.45197E-21-1.65096E-18
 -1      2751 9.53479E-05-2.70960E-05-2.92498E-05 3.82822E-06 1.10368E-19-1.04705E-18
 -1      2752 9.62607E-05-2.73243E-05-2.95516E-05 4.93023E-06-3.57789E-20-1.81524E-18
 -1      2753 9.65341E-05-2.72860E-05-2.96647E-05 5.50190E-06 2.22574E-20-1.68059E-18
 -1      2754 9.53126E-05-2.67778E-05-2.93701E-05 4.83227E-06 1.34707E-19-1.47957E-18
 -1      2755 9.65038E-05-2.71614E-05-2.97264E-05 6.13314E-06 1.77407E-19-1.75002E-18
 -1      2756 9.68434E-05-2.71755E-05-2.98434E-05 6.77761E-06 5.19784E-20-1.15960E-18
 -1      2757 9.52594E-05-2.64685E-05-2.94790E-05 6.01194E-06 1.46810E-19-1.56832E-18
 -1      2758 9.68275E-05-2.71077E-05-2.98877E-05 7.49142E-06-5.87376E-19-1.53052E-18
 -1      2759 9.72661E-05-2.72338E-05-2.99987E-05 8.17807E-06-7.97370E-19-1.50613E-18
 -1      2760 9.52120E-05-2.62390E-05-2.95569E-05 7.36145E-06-6.86230E-19-1.77913E-18
 -1      2761 9.73174E-05-2.73044E-05-3.00107E-05 8.95365E-06 1.32965E-19-1.55674E-18
 -1      2762 9.79195E-05-2.76461E-05-3.01014E-05 9.62017E-06 2.29888E-19-6.54734E-19
 -1      2763 9.52390E-05-2.62256E-05-2.95763E-05 8.85700E-06-2.86892E-19-1.65380E-18
 -1      2764 9.81515E-05-2.79962E-05-3.00643E-05 1.04136E-05-7.28689E-19-6.74990E-19
 -1      2765 9.90357E-05-2.87202E-05-3.01195E-05 1.09482E-05-3.93334E-19-1.33791E-18
 -1      2766 9.54964E-05-2.66696E-05-2.95033E-05 1.04471E-05 3.97688E-20-8.77476E-19
 -1      2767 9.96633E-05-2.95708E-05-3.00216E-05 1.16725E-05 3.25765E-19-1.19387E-18
 -1      2768 1.01024E-04-3.09132E-05-3.00344E-05 1.18883E-05 3.26235E-19-7.11816E-19
 -1      2769 9.62956E-05-2.79651E-05-2.93068E-05 1.20324E-05-3.54997E-20-1.22847E-18
 -1      2770 1.02411E-04-3.25631E-05-2.98869E-05 1.23621E-05 3.16967E-20-6.79426E-19
 -1      2771 1.04506E-04-3.47751E-05-2.98798E-05 1.19612E-05-1.60149E-19 1.48768E-20
 -1      2772 9.81948E-05-3.06941E-05-2.89832E-05 1.34110E-05 3.88492E-19-3.09184E-19
 -1      2773 1.07167E-04-3.75103E-05-2.97543E-05 1.18102E-05-3.74060E-19 4.02097E-19
 -1      2774 1.10196E-04-4.06590E-05-2.98194E-05 1.03553E-05-5.32354E-19 8.12174E-19
 -1      2775 1.02064E-04-3.55468E-05-2.86122E-05 1.41352E-05 2.20998E-20-1.04039E-19
 -1      2776 1.14632E-04-4.44351E-05-2.99238E-05 8.83539E-06-4.71060E-19 1.52850E-18
 -1      2777 1.18380E-04-4.78552E-05-3.02796E-05 5.80617E-06 1.16560E-19 2.23771E-18
 -1      2778 1.08972E-04-4.29161E-05-2.84715E-05 1.32360E-05-1.54704E-19 1.16886E-18
 -1      2779 1.24535E-04-5.16390E-05-3.10746E-05 1.84560E-06-1.31631E-19 2.45333E-18
 -1      2780 1.27775E-04-5.30815E-05-3.20998E-05-2.96171E-06-8.89649E-20 2.11455E-18
 -1      2781 1.19535E-04-5.16741E-05-2.92542E-05 8.94152E-06-6.35606E-20 1.91476E-18
 -1      2782 1.33246E-04-2.50648E-05-4.70928E-05-1.89765E-05-1.74616E-18 1.54478E-19
 -1      2783 1.30161E-04-1.72241E-05-4.89849E-05-1.25738E-05-1.60873E-18 5.85988E-19
 -1      2784 1.33617E-04-2.76399E-05-4.58543E-05 1.11127E-05-1.54012E-18-2.82274E-19
 -1      2785 1.36738E-04-3.80574E-05-4.28832E-05 1.25055E-05-3.82012E-19-6.39192E-19
 -1      2786 1.29319E-04-5.28121E-05-3.28659E-05-8.44469E-07 2.40948E-18 2.56737E-19
 -1      2787 1.26471E-04-5.25163E-05-3.16015E-05-5.78855E-06 2.27436E-18 1.03288E-18
 -1      2788 1.20054E-04-4.90804E-05-3.04961E-05-1.05852E-05 1.24309E-18 6.50098E-19
 -1      2789 1.15879E-04-4.55197E-05-2.99779E-05-1.39287E-05 3.66901E-19-5.65934E-19
 -1      2790 1.23710E-04-5.36027E-05-3.02314E-05-1.36653E-05 1.66167E-18 1.67712E-18
 -1      2791 1.10657E-04-4.10725E-05-2.98570E-05-1.58372E-05 1.20755E-19-1.37501E-18
 -1      2792 1.06897E-04-3.70172E-05-2.98338E-05-1.71500E-05 1.64744E-19-9.71960E-19
 -1      2793 1.12020E-04-4.43939E-05-2.91402E-05-1.91460E-05-9.29751E-22 2.08251E-19
 -1      2794 9.45531E-05-2.78517E-05-2.85872E-05-4.37274E-07 7.31908E-19-5.80241E-19
 -1      2795 9.46418E-05-2.76647E-05-2.86860E-05-9.40616E-08 1.08975E-18-5.05794E-19
 -1      2796 9.45150E-05-2.84335E-05-2.83197E-05-1.13829E-06 3.25820E-19-7.23317E-19
 -1      2797 9.44584E-05-2.83701E-05-2.83204E-05-1.13522E-06 4.54013E-19-7.44520E-19
 -1      2798 9.45869E-05-2.85119E-05-2.83169E-05-1.09217E-06 5.24780E-19-8.06228E-19
 -1      2799 9.45178E-05-2.84675E-05-2.83062E-05-1.12689E-06 4.26060E-19-7.36084E-19
 -1      2800 9.48940E-05-2.85732E-05-2.84262E-05-1.15704E-06 4.22761E-19-8.73898E-19
 -1      2801 9.46719E-05-2.85601E-05-2.83327E-05-9.95572E-07 7.59238E-19-7.59991E-19
 -1      2802 9.45995E-05-2.85300E-05-2.83157E-05-1.04933E-06 5.15835E-19-7.54171E-19
 -1      2803 9.49152E-05-2.86447E-05-2.84036E-05-1.11211E-06 5.62068E-19-1.05790E-18
 -1      2804 9.47602E-05-2.85864E-05-2.83593E-05-8.78196E-07 9.94042E-19-4.02569E-19
 -1      2805 9.46899E-05-2.85673E-05-2.83393E-05-9.38193E-07 9.95452E-19-4.81910E-19
 -1      2806 9.49493E-05-2.86792E-05-2.84027E-05-1.01631E-06 7.80469E-19-8.04199E-19
 -1      2807 9.48464E-05-2.85966E-05-2.83918E-05-7.60477E-07 6.76126E-19 2.33989E-20
 -1      2808 9.47807E-05-2.85859E-05-2.83706E-05-8.17968E-07 9.92016E-19-1.37082E-19
 -1      2809 9.49898E-05-2.86882E-05-2.84158E-05-9.00175E-07 7.71317E-19-2.89624E-19
 -1      2810 9.49281E-05-2.85949E-05-2.84274E-05-6.56608E-07 2.63941E-19-7.48636E-20
 -1      2811 9.48678E-05-2.85906E-05-2.84060E-05-7.05518E-07 4.94339E-19 1.15674E-19
 -1      2812 9.50326E-05-2.86791E-05-2.84377E-05-7.84925E-07 6.27835E-19 5.11261E-19
 -1      2813 9.50056E-05-2.85839E-05-2.84652E-05-5.76772E-07 4.28374E-19-1.66831E-19
 -1      2814 9.49497E-05-2.85847E-05-2.84437E-05-6.12690E-07 3.85153E-19-1.86253E-19
 -1      2815 9.50756E-05-2.86570E-05-2.84655E-05-6.85484E-07 4.53215E-19 1.75459E-19
 -1      2816 9.50808E-05-2.85658E-05-2.85049E-05-5.28810E-07 2.57346E-19-1.07571E-19
 -1      2817 9.50274E-05-2.85705E-05-2.84830E-05-5.48251E-07 4.18376E-19 2.09995E-20
 -1      2818 9.51185E-05-2.86249E-05-2.84976E-05-6.12749E-07 2.32364E-19 6.47660E-20
 -1      2819 9.51571E-05-2.85419E-05-2.85475E-05-5.19432E-07 1.43969E-19 2.53274E-19
 -1      2820 9.51034E-05-2.85496E-05-2.85245E-05-5.19305E-07 7.27728E-20 1.14981E-20
 -1      2821 9.51619E-05-2.85846E-05-2.85335E-05-5.75284E-07 3.06524E-20 1.68449E-19
 -1      2822 9.52393E-05-2.85130E-05-2.85947E-05-5.55084E-07-5.64348E-20 3.34305E-19
 -1      2823 9.51816E-05-2.85229E-05-2.85693E-05-5.32325E-07 3.28774E-19 4.61677E-19
 -1      2824 9.52075E-05-2.85367E-05-2.85737E-05-5.80553E-07 2.09058E-19 5.16633E-19
 -1      2825 9.53331E-05-2.84803E-05-2.86483E-05-6.42480E-07-1.39171E-19-9.50815E-20
 -1      2826 9.52671E-05-2.84915E-05-2.86193E-05-5.93840E-07 8.06400E-21 3.63521E-20
 -1      2827 9.52581E-05-2.84816E-05-2.86192E-05-6.35787E-07 2.50937E-19 1.76642E-19
 -1      2828 9.54455E-05-2.84451E-05-2.87109E-05-7.88777E-07 1.36826E-19-6.43971E-19
 -1      2829 9.53662E-05-2.84563E-05-2.86768E-05-7.10800E-07-2.46090E-19-6.97018E-19
 -1      2830 9.53170E-05-2.84193E-05-2.86713E-05-7.48484E-07 1.64620E-19-3.61188E-19
 -1      2831 9.55849E-05-2.84097E-05-2.87850E-05-1.00135E-06 4.17884E-19-6.00134E-19
 -1      2832 9.54864E-05-2.84191E-05-2.87443E-05-8.90554E-07 4.67445E-19-4.39076E-19
 -1      2833 9.53886E-05-2.83505E-05-2.87318E-05-9.26529E-07 1.11502E-19-1.15095E-18
 -1      2834 9.57609E-05-2.83780E-05-2.88732E-05-1.28708E-06 2.92686E-19-8.35369E-19
 -1      2835 9.56366E-05-2.83829E-05-2.88241E-05-1.14040E-06 3.62135E-19-4.34424E-19
 -1      2836 9.54787E-05-2.82770E-05-2.88022E-05-1.17787E-06 3.57365E-19 1.73736E-20
 -1      2837 9.59849E-05-2.83569E-05-2.89775E-05-1.65089E-06 4.98205E-20-4.29669E-19
 -1      2838 9.58275E-05-2.83530E-05-2.89187E-05-1.46653E-06 1.32840E-19-7.67877E-19
 -1      2839 9.55943E-05-2.82031E-05-2.88837E-05-1.50965E-06 2.24857E-19-3.56828E-19
 -1      2840 9.62708E-05-2.83572E-05-2.90992E-05-2.09350E-06-1.54981E-19-4.00265E-19
 -1      2841 9.60720E-05-2.83381E-05-2.90298E-05-1.87223E-06-5.13819E-20-2.02808E-19
 -1      2842 9.57453E-05-2.81370E-05-2.89771E-05-1.92661E-06 3.33539E-20-5.59961E-20
 -1      2843 9.66349E-05-2.83962E-05-2.92381E-05-2.60791E-06 4.19716E-19-1.01628E-18
 -1      2844 9.63858E-05-2.83523E-05-2.91579E-05-2.35504E-06 3.18910E-19-5.10743E-19
 -1      2845 9.59446E-05-2.80929E-05-2.90819E-05-2.42860E-06 2.24614E-19-7.69092E-19
 -1      2846 9.70978E-05-2.84999E-05-2.93923E-05-3.17444E-06 1.36025E-19-1.21615E-18
 -1      2847 9.67886E-05-2.84173E-05-2.93022E-05-2.90255E-06 5.53189E-19-9.18836E-19
 -1      2848 9.62109E-05-2.80939E-05-2.91961E-05-3.00684E-06 1.61226E-19-1.02403E-18
 -1      2849 9.76855E-05-2.87063E-05-2.95567E-05-3.75408E-06 4.04707E-19-1.02452E-18
 -1      2850 9.73060E-05-2.85654E-05-2.94593E-05-3.48666E-06 1.47735E-19-8.77032E-19
 -1      2851 9.65707E-05-2.81761E-05-2.93159E-05-3.63879E-06 3.14965E-20-1.86037E-19
 -1      2852 9.84311E-05-2.90677E-05-2.97238E-05-4.28006E-06-2.88847E-19-3.88847E-19
 -1      2853 9.79707E-05-2.88428E-05-2.96234E-05-4.05587E-06-9.01363E-20-8.34744E-19
 -1      2854 9.70622E-05-2.83922E-05-2.94353E-05-4.28122E-06-2.49964E-22-3.68071E-19
 -1      2855 9.93758E-05-2.96507E-05-2.98831E-05-4.64836E-06-8.85926E-19 4.38755E-19
 -1      2856 9.88251E-05-2.93109E-05-2.97859E-05-4.52590E-06-5.83628E-19 1.17259E-19
 -1      2857 9.77399E-05-2.88150E-05-2.95467E-05-4.86142E-06-9.64548E-19 6.21447E-19
 -1      2858 1.00567E-04-3.05297E-05-3.00235E-05-4.70903E-06-5.80802E-19 4.42623E-20
 -1      2859 9.99207E-05-3.00441E-05-2.99368E-05-4.76958E-06-7.88937E-19-4.59574E-20
 -1      2860 9.86776E-05-2.95368E-05-2.96423E-05-5.26684E-06-5.34340E-19 7.23261E-19
 -1      2861 1.02044E-04-3.17640E-05-3.01374E-05-4.26313E-06-1.37535E-20-6.74485E-19
 -1      2862 1.01311E-04-3.11156E-05-3.00674E-05-4.60883E-06 1.36770E-19-2.44453E-19
 -1      2863 9.99667E-05-3.06580E-05-2.97185E-05-5.33424E-06 1.20796E-19-3.21755E-19
 -1      2864 1.03813E-04-3.33489E-05-3.02282E-05-3.07536E-06-5.27572E-19-2.06522E-18
 -1      2865 1.03030E-04-3.25632E-05-3.01767E-05-3.81611E-06-3.03128E-19-1.03372E-18
 -1      2866 1.01700E-04-3.22537E-05-2.97820E-05-4.84276E-06 1.72142E-19-7.69733E-19
 -1      2867 1.05780E-04-3.51297E-05-3.03207E-05-9.21970E-07-8.55636E-19-2.12128E-18
 -1      2868 1.05039E-04-3.43194E-05-3.02799E-05-2.14068E-06-1.04877E-18-2.04203E-18
 -1      2869 1.03924E-04-3.43024E-05-2.98603E-05-3.52153E-06-7.54611E-19-1.89670E-18
 -1      2870 1.07668E-04-3.66909E-05-3.04681E-05 2.29760E-06 3.55357E-20-2.90112E-19
 -1      2871 1.07145E-04-3.61065E-05-3.04179E-05 6.11474E-07-8.63643E-19-1.75762E-18
 -1      2872 1.06546E-04-3.65644E-05-3.00121E-05-1.09893E-06-1.19286E-18-2.18704E-18
 -1      2873 1.08946E-04-3.72864E-05-3.07517E-05 6.35381E-06 3.58897E-19 4.80000E-19
 -1      2874 1.08897E-04-3.73266E-05-3.06591E-05 4.41068E-06 6.26995E-19 3.03297E-19
 -1      2875 1.09203E-04-3.84394E-05-3.03312E-05 2.56197E-06-1.62873E-19-7.50278E-19
 -1      2876 1.08882E-04-3.59818E-05-3.12518E-05 1.04005E-05 5.75530E-19-2.42868E-19
 -1      2877 1.09552E-04-3.70637E-05-3.10887E-05 8.71557E-06 8.34289E-19 3.16943E-19
 -1      2878 1.11124E-04-3.88683E-05-3.09357E-05 7.20518E-06 4.28376E-19-1.41361E-18
 -1      2879 1.07007E-04-3.23346E-05-3.19655E-05 1.28381E-05 5.47347E-19 6.07412E-19
 -1      2880 1.08400E-04-3.45000E-05-3.17398E-05 1.21808E-05 8.54956E-19 5.73940E-19
 -1      2881 1.11297E-04-3.67589E-05-3.18980E-05 1.16838E-05 2.64966E-19-2.19051E-19
 -1      2882 1.03743E-04-2.71930E-05-3.27413E-05 1.19069E-05 2.78330E-20 1.39966E-18
 -1      2883 1.05427E-04-2.97806E-05-3.25222E-05 1.29489E-05-1.49706E-19 7.70828E-19
 -1      2884 1.09178E-04-3.18009E-05-3.31317E-05 1.39867E-05-3.64327E-19 1.84413E-18
 -1      2885 1.00776E-04-2.30689E-05-3.32628E-05 6.96418E-06-6.96943E-19 5.90064E-19
 -1      2886 1.01933E-04-2.47194E-05-3.31673E-05 9.65625E-06 5.69659E-19 1.94769E-18
 -1      2887 1.05598E-04-2.55987E-05-3.43121E-05 1.19949E-05-2.23723E-19 9.42562E-19
 -1      2888 1.00056E-04-2.25652E-05-3.32454E-05-6.60845E-08 4.06576E-19-4.13961E-19
 -1      2889 1.00103E-04-2.22890E-05-3.33531E-05 3.13106E-06-6.68243E-19-3.55524E-19
 -1      2890 1.02968E-04-2.15897E-05-3.49444E-05 5.59161E-06 4.60680E-19 2.20315E-19
 -1      2891 1.01941E-04-2.59937E-05-3.26375E-05-5.75819E-06 8.52614E-19 5.45256E-19
 -1      2892 1.01006E-04-2.40047E-05-3.29308E-05-3.54466E-06 1.17908E-18-3.55158E-20
 -1      2893 1.03292E-04-2.24481E-05-3.47015E-05-2.24016E-06 4.34372E-19 6.41359E-19
 -1      2894 1.04709E-04-3.09205E-05-3.17102E-05-7.60822E-06 9.68046E-19-8.96763E-20
 -1      2895 1.03575E-04-2.85837E-05-3.20638E-05-7.16267E-06 8.14330E-19-1.96756E-19
 -1      2896 1.06061E-04-2.73988E-05-3.36884E-05-7.31946E-06 1.16353E-18-1.84729E-19
 -1      2897 1.06292E-04-3.45352E-05-3.08016E-05-5.86349E-06 1.68021E-18-1.54285E-18
 -1      2898 1.05655E-04-3.30016E-05-3.11109E-05-6.85978E-06 1.25481E-18-1.10486E-18
 -1      2899 1.08780E-04-3.31938E-05-3.23472E-05-7.66767E-06 1.71035E-18-1.32624E-18
 -1      2900 1.05822E-04-3.55371E-05-3.01219E-05-2.30867E-06-7.67789E-21-1.19395E-18
 -1      2901 1.05981E-04-3.52644E-05-3.03321E-05-3.89909E-06 9.17752E-19-1.54936E-19
 -1      2902 1.09449E-04-3.66945E-05-3.11322E-05-4.55038E-06 8.22698E-19-1.91132E-18
 -1      2903 1.03612E-04-3.42188E-05-2.97289E-05 1.06473E-06-1.34105E-18-4.39425E-19
 -1      2904 1.04454E-04-3.49416E-05-2.98426E-05-2.93864E-07-9.92533E-19-4.35453E-19
 -1      2905 1.07727E-04-3.69946E-05-3.02989E-05-2.99410E-07-9.61858E-19-1.69230E-18
 -1      2906 1.01277E-04-3.22191E-05-2.95869E-05 3.23499E-06-1.43994E-18-1.95426E-19
 -1      2907 1.02471E-04-3.33963E-05-2.96553E-05 2.48776E-06-1.23442E-18-6.43282E-19
 -1      2908 1.05186E-04-3.52812E-05-2.99252E-05 3.19232E-06-1.48120E-18-1.22262E-18
 -1      2909 1.02459E-04-3.27272E-05-2.98304E-05 5.50901E-06-1.30156E-18-1.28576E-18
 -1      2910 8.10210E-05-1.77779E-05-2.72977E-05 1.79693E-05-4.84146E-19 7.50246E-19
 -1      2911 8.59290E-05-2.07277E-05-2.76899E-05 2.10070E-05 4.04160E-21-1.06409E-19
 -1      2912 1.04354E-04-3.41908E-05-3.00595E-05-1.71020E-05 4.11069E-19-9.37267E-19
 -1      2913 1.02235E-04-3.16876E-05-3.01649E-05-1.69900E-05-1.74572E-19-5.41542E-19
 -1      2914 1.04463E-04-3.60866E-05-2.94146E-05-2.00594E-05 1.38444E-19-1.37020E-18
 -1      2915 9.94934E-05-3.08303E-05-2.94438E-05 2.06290E-05 1.54553E-18-2.95566E-18
 -1      2916 1.02160E-04-3.28496E-05-2.96373E-05 1.86969E-05 1.31325E-18-4.29809E-18
 -1      2917 7.41307E-05-1.24541E-05-2.65086E-05 6.36986E-06-1.97019E-18 1.70124E-18
 -1      2918 7.65891E-05-1.37722E-05-2.67035E-05 1.19724E-05-1.76757E-18 1.67705E-18
 -1      2919 7.57482E-05-1.76489E-05-2.49646E-05 1.77855E-05-9.73942E-19 1.97690E-19
 -1      2920 9.12139E-05-2.51504E-05-2.84560E-05 2.24645E-05 2.44061E-19-7.48830E-19
 -1      2921 9.56948E-05-2.81650E-05-2.88009E-05 2.26157E-05 1.12767E-18-9.58911E-19
 -1      2922 9.94667E-05-3.35639E-05-2.83003E-05 2.35800E-05 2.19117E-19-2.73131E-18
 -1      2923 8.80299E-05-2.61369E-05-2.65772E-05 2.47975E-05 5.89535E-19-7.49320E-19
 -1      2924 1.24141E-04-9.09739E-06-4.99212E-05 4.62901E-06 3.07748E-18-2.27149E-18
 -1      2925 1.24344E-04-9.90496E-06-4.96381E-05-1.57711E-06 2.74608E-18-1.78549E-18
 -1      2926 7.44653E-05-1.24186E-05-2.65208E-05-7.79685E-06-8.33798E-20 1.46530E-18
 -1      2927 7.31654E-05-1.15634E-05-2.64082E-05-1.58704E-06-1.19517E-18 2.33973E-18
 -1      2928 7.00751E-05-1.32938E-05-2.41855E-05 3.14842E-06-1.36359E-18 2.41035E-18
 -1      2929 8.20866E-05-1.78323E-05-2.73731E-05-1.87816E-05 1.54164E-18 2.46914E-18
 -1      2930 7.79014E-05-1.51836E-05-2.70114E-05-1.45312E-05 7.94825E-19 2.41400E-18
 -1      2931 7.33498E-05-1.53701E-05-2.46559E-05-1.29037E-05-5.24796E-20 2.37304E-18
 -1      2932 9.19867E-05-2.49483E-05-2.85605E-05-2.25741E-05 1.78898E-18 3.09901E-18
 -1      2933 8.74635E-05-2.20543E-05-2.81617E-05-2.16370E-05 1.40822E-18 2.22595E-18
 -1      2934 8.38910E-05-2.28137E-05-2.61596E-05-2.29291E-05 1.10716E-18 2.82138E-18
 -1      2935 9.47234E-05-2.74142E-05-2.88496E-05 3.89297E-07 1.31284E-18-6.68224E-19
 -1      2936 9.49037E-05-2.71208E-05-2.90221E-05 9.94552E-07 1.53720E-18-5.77257E-19
 -1      2937 9.51293E-05-2.73823E-05-2.90440E-05 3.76667E-07 1.15958E-18-6.22014E-19
 -1      2938 7.08634E-05-3.92673E-05-1.35580E-05 3.68847E-05 1.84124E-18 1.23910E-18
 -1      2939 5.50470E-05-2.95229E-05-1.02722E-05 3.12036E-05 1.36584E-18-9.16701E-19
 -1      2940 1.00273E-04-3.03336E-05-2.99993E-05-1.91795E-05 7.06644E-19-1.65864E-18
 -1      2941 3.51908E-05-1.52959E-05-8.16021E-06 6.91792E-06 2.58414E-18 3.87729E-18
 -1      2942 3.46353E-05-1.60702E-05-7.36686E-06-9.49206E-06 1.22102E-18 4.27032E-18
 -1      2943 9.47081E-05-2.19079E-05-3.12068E-05 7.84390E-06 2.89103E-18-9.61240E-19
 -1      2944 9.45266E-05-2.15001E-05-3.13289E-05-7.68839E-06-2.83285E-18-1.48868E-18
 -1      2945 9.49567E-05-2.32291E-05-3.07378E-05-6.00920E-06-2.54951E-18-1.35954E-18
 -1      2946 9.37478E-05-2.01349E-05-3.15499E-05-7.54575E-06-2.64878E-18-2.02815E-18
 -1      2947 1.30358E-04-1.98029E-05-4.84247E-05 8.63088E-06-2.24961E-18-1.13757E-18
 -1      2948 1.43994E-04-3.14350E-05-4.86895E-05-1.95210E-05-2.11017E-18 1.64833E-18
 -1      2949 1.52229E-04-3.94996E-05-4.86458E-05-1.29325E-05-2.80569E-18 2.22071E-18
 -1      2950 1.23582E-04-6.25466E-05-2.62493E-05 3.38185E-05 1.07848E-18-2.75905E-18
 -1      2951 1.07052E-04-5.78624E-05-2.05863E-05 4.18500E-05 1.29067E-18-3.05273E-18
 -1      2952 7.80297E-05-4.25724E-05-1.46615E-05-3.99220E-05-9.42748E-19-1.90053E-18
 -1      2953 9.62424E-05-5.20503E-05-1.90765E-05-3.89316E-05-7.18284E-19-2.85953E-18
 -1      2954 9.44710E-05-2.83127E-05-2.83529E-05-1.09084E-06 4.61687E-19-8.46396E-19
 -1      2955 9.44412E-05-2.82233E-05-2.83728E-05-1.02234E-06 5.17238E-19-8.32526E-19
 -1      2956 9.48949E-05-2.84479E-05-2.84818E-05-1.10725E-06 5.00637E-19-6.71950E-19
 -1      2957 9.44756E-05-2.81299E-05-2.84337E-05-8.87327E-07 6.05382E-19-7.59738E-19
 -1      2958 9.44925E-05-2.80027E-05-2.84844E-05-7.12377E-07 6.82787E-19-6.05980E-19
 -1      2959 9.49294E-05-2.82420E-05-2.85866E-05-9.00076E-07 6.54609E-19-7.27153E-19
 -1      2960 9.52777E-05-2.43059E-05-3.04065E-05-4.93916E-06-2.28227E-18-1.40257E-18
 -1      2961 9.51992E-05-2.52560E-05-2.99883E-05-3.47801E-06-1.98348E-18-1.48764E-18
 -1      2962 9.52685E-05-2.50104E-05-3.01232E-05-3.24259E-06-1.87708E-18-1.57886E-18
 -1      2963 9.48529E-05-2.31965E-05-3.06977E-05-5.13476E-06-2.26097E-18-1.67303E-18
 -1      2964 9.49807E-05-2.66915E-05-2.92723E-05 1.78326E-06 1.81201E-18-7.28363E-19
 -1      2965 9.52478E-05-2.61947E-05-2.95573E-05 2.79017E-06 2.04075E-18-6.66506E-19
 -1      2966 9.52713E-05-2.50232E-05-3.01042E-05 3.82201E-06 2.17792E-18-1.10747E-18
 -1      2967 9.52545E-05-2.65059E-05-2.94713E-05 1.73785E-06 1.66504E-18-1.00121E-18
 -1      2968 9.11765E-05-1.60900E-05-3.22078E-05 4.91896E-06 1.59738E-18-3.13857E-18
 -1      2969 9.08337E-05-1.55911E-05-3.22685E-05 3.99650E-06 1.29585E-18-3.34727E-18
 -1      2970 9.18120E-05-1.72027E-05-3.19601E-05 3.19979E-06 1.11878E-18-3.11580E-18
 -1      2971 9.24804E-05-1.82624E-05-3.17879E-05 4.61750E-06 1.56381E-18-2.72845E-18
 -1      2972 1.31184E-04-1.99645E-05-4.80158E-05 1.50334E-05 2.15273E-18-2.53919E-18
 -1      2973 1.25852E-04-1.23466E-05-4.93612E-05 1.04918E-05 2.16840E-18-2.22770E-18
 -1      2974 9.07978E-05-1.55435E-05-3.22736E-05-3.93287E-06-1.26117E-18-3.41538E-18
 -1      2975 9.11328E-05-1.60284E-05-3.22147E-05-4.85779E-06-1.59792E-18-3.36072E-18
 -1      2976 1.09570E-04-5.85585E-05-2.15833E-05-3.90194E-05 2.17391E-18-1.99724E-18
 -1      2977 1.25340E-04-6.38342E-05-2.64898E-05-3.20791E-05 2.22399E-18-5.74632E-19
 -1      2978 1.37137E-04-5.87245E-05-3.34493E-05-7.55683E-06 6.67621E-19 1.03550E-19
 -1      2979 1.40415E-04-5.26261E-05-3.83181E-05 2.18892E-06 1.62334E-18-2.83968E-19
 -1      2980 1.12448E-04-5.92321E-05-2.30475E-05 2.88916E-05 2.00472E-18-8.39648E-19
 -1      2981 9.20190E-05-4.96166E-05-1.75289E-05 3.45273E-05 2.20758E-18-5.37495E-19
 -1      2982 1.15403E-04-5.88313E-05-2.37844E-05-2.94888E-05-8.87002E-19-1.41235E-18
 -1      2983 1.29033E-04-6.19631E-05-2.91716E-05-2.02667E-05 3.80530E-19-3.09167E-19
 -1      2984 1.39915E-04-4.16187E-05-4.22233E-05 1.12737E-05 1.97242E-18-1.02491E-18
 -1      2985 1.36149E-04-3.10147E-05-4.58231E-05 1.46095E-05 2.44073E-18-1.63583E-18
 -1      2986 1.43528E-04-5.55854E-05-3.82776E-05-8.32975E-06-1.45755E-18 3.59873E-18
 -1      2987 1.40774E-04-6.02916E-05-3.45526E-05-4.15034E-07-1.23471E-18 3.43440E-18
 -1      2988 1.36727E-04-6.33410E-05-3.17002E-05 8.59242E-06-7.97270E-20 1.91350E-18
 -1      2989 1.28201E-04-6.28842E-05-2.76872E-05 1.62670E-05 1.25287E-18 1.09648E-18
 -1      2990 1.36184E-04-6.02245E-05-3.26620E-05 7.44211E-07 5.45277E-20 4.27016E-18
 -1      2991 1.46234E-04-4.56912E-05-4.31506E-05-1.42915E-05-2.12933E-18 2.42156E-18
 -1      2992 4.02056E-05-1.98663E-05-8.13989E-06-2.12050E-05 1.20390E-18 3.81842E-18
 -1      2993 5.19792E-05-2.64281E-05-1.04471E-05-3.38421E-05 2.04061E-18 3.40761E-18
 -1      2994 4.69789E-05-1.71100E-05-1.20942E-05-1.48165E-05 1.24405E-18 4.09752E-18
 -1      2995 4.08834E-05-2.10111E-05-8.15544E-06 2.29301E-05 4.31881E-19-2.72003E-18
 -1      2996 3.27219E-05-1.62800E-05-6.22038E-06 1.04788E-05-3.11814E-20-3.79301E-18
 -1      2997 1.35888E-04-6.45962E-05-3.03729E-05-2.06108E-05 2.44157E-18 3.70153E-19
 -1      2998 1.42590E-04-6.27981E-05-3.45825E-05-1.23343E-05 2.57884E-18 1.92986E-18
 -1      2999 1.26248E-04-1.32274E-05-4.93900E-05-5.26047E-06-1.21359E-18-2.11282E-19
 -1      3000 1.32976E-04-3.23907E-05-4.34946E-05-2.00371E-05-1.19665E-18 7.05473E-19
 -1      3001 1.36178E-04-4.21839E-05-4.07845E-05-1.98676E-05-7.95735E-19 9.10931E-19
 -1      3002 1.26606E-04-1.50037E-05-4.85370E-05 3.37340E-06-1.94436E-18-8.48674E-19
 -1      3003 1.20582E-04-1.29508E-05-4.65484E-05 8.24867E-06 2.20938E-18-1.65018E-18
 -1      3004 9.12879E-05-1.63937E-05-3.20854E-05 2.84354E-08-5.85632E-20-3.32554E-18
 -1      3005 9.01649E-05-1.46035E-05-3.24029E-05-3.83225E-07-1.49290E-19-3.58743E-18
 -1      3006 9.02215E-05-1.46838E-05-3.23929E-05-1.34116E-06-4.75287E-19-3.61694E-18
 -1      3007 4.78337E-05-1.70204E-05-1.25166E-05 1.38758E-05 2.53824E-18 2.35602E-18
 -1      3008 1.37923E-04-3.32511E-05-4.52241E-05-8.83551E-06 2.57604E-19-2.59234E-18
 -1      3009 9.15606E-05-1.66831E-05-3.21137E-05-5.58907E-06-1.82419E-18-3.24532E-18
 -1      3010 9.20811E-05-1.74635E-05-3.20145E-05-6.41576E-06-2.21726E-18-3.03918E-18
 -1      3011 9.24366E-05-1.81975E-05-3.17972E-05-4.57437E-06-1.62203E-18-2.97737E-18
 -1      3012 1.31167E-04-1.74494E-05-4.92751E-05-8.07610E-06 1.26377E-18-1.88332E-18
 -1      3013 1.45703E-04-5.38935E-05-3.95004E-05 3.86230E-06-5.23162E-19-1.08452E-18
 -1      3014 1.41737E-04-5.73288E-05-3.61755E-05 6.74781E-06-1.91257E-19-1.38119E-18
 -1      3015 1.42043E-04-4.86256E-05-4.05823E-05-3.55749E-06-5.53536E-19-1.35928E-18
 -1      3016 6.51108E-05-3.11146E-05-1.40118E-05-3.56865E-05 2.08412E-18 1.46420E-18
 -1      3017 1.00985E-04-5.31863E-05-2.00484E-05 4.21258E-05 1.41719E-18-3.17799E-18
 -1      3018 1.33964E-04-5.37609E-05-3.44960E-05-9.39533E-06-6.80220E-19 2.26992E-18
 -1      3019 1.34544E-04-4.95252E-05-3.66218E-05-1.43927E-05-7.30248E-19 1.39893E-18
 -1      3020 1.34749E-04-4.32053E-05-3.94452E-05 1.06355E-05 3.20390E-19-9.42404E-19
 -1      3021 1.05456E-04-3.68502E-05-2.94487E-05 1.78042E-05 8.81632E-19-2.44308E-18
 -1      3022 1.03574E-04-3.35689E-05-2.99701E-05 1.54357E-05 2.79149E-19-3.55892E-18
 -1      3023 1.04311E-04-3.43377E-05-2.99726E-05 1.28048E-05-1.58819E-18-1.90509E-18
 -1      3024 1.35417E-04-5.00821E-05-3.67948E-05 6.93360E-06 1.54259E-18-1.38024E-18
 -1      3025 5.40434E-05-2.41210E-05-1.22373E-05 2.46189E-05 1.74018E-18-6.44274E-19
 -1      3026 9.50073E-05-2.79120E-05-2.87634E-05-4.46748E-07 8.63671E-19-6.52787E-19
 -1      3027 1.36305E-04-4.71992E-05-3.83486E-05 8.64549E-06 1.20001E-18-1.05583E-18
 -1      3028 1.07799E-04-5.45163E-05-2.26152E-05-3.07226E-05-4.80056E-19-1.47421E-18
 -1      3029 1.19259E-04-5.90111E-05-2.58145E-05 1.98813E-05 1.41412E-18 1.70121E-19
 -1      3030 1.28639E-04-2.68885E-05-4.39925E-05 1.56299E-05 2.35877E-18-2.85323E-18
 -1      3031 3.50251E-05-1.49589E-05-8.00492E-06 3.23157E-06 1.29252E-19-4.32982E-18
 -1      3032 1.03969E-04-3.37566E-05-3.00389E-05 1.00936E-05-2.14938E-18-1.82644E-18
 -1      3033 1.03517E-04-3.37167E-05-2.99158E-05 7.65547E-06-1.83656E-18-1.27008E-18
 -1      3034 1.05002E-04-3.52572E-05-2.99315E-05 6.74279E-06-1.73273E-18-1.74770E-18
 -1      3035 1.06602E-04-3.68373E-05-2.99222E-05 1.16096E-05-9.20867E-19-1.23025E-18
 -1      3036 9.75941E-05-2.82802E-05-2.96952E-05-2.06151E-05 1.32066E-18-8.09919E-20
 -1      3037 7.09243E-05-3.73575E-05-1.39403E-05-3.87984E-05-1.14794E-18-1.45213E-18
 -1      3038 8.23247E-05-4.05669E-05-1.76818E-05-3.54842E-05-4.81115E-19-3.07071E-18
 -1      3039 6.37955E-05-3.08397E-05-1.36350E-05-3.47995E-05-6.93244E-19-6.93826E-19
 -1      3040 1.42082E-04-5.87595E-05-3.60240E-05-3.28608E-06 2.34853E-18 2.32892E-18
 -1      3041 8.63705E-05-4.32828E-05-1.79665E-05 3.21508E-05 1.97930E-18 2.04029E-19
 -1      3042 9.43551E-05-2.14238E-05-3.12603E-05 7.21834E-06 2.73823E-18-1.51129E-18
 -1      3043 1.31187E-04-6.39800E-05-2.86449E-05 2.73427E-05 9.71970E-20-1.82414E-18
 -1      3044 1.22315E-04-6.08784E-05-2.62285E-05 3.12839E-05 2.96726E-19-3.12569E-18
 -1      3045 1.35031E-04-6.24837E-05-3.12582E-05 1.93019E-05-2.43151E-19-1.47013E-18
 -1      3046 3.81125E-05-2.02486E-05-7.00697E-06-2.37232E-05-1.84653E-19-2.08349E-18
 -1      3047 4.88212E-05-2.28576E-05-1.07885E-05-2.81476E-05-5.35219E-19-6.60897E-19
 -1      3048 3.79072E-05-1.64740E-05-8.76679E-06-1.74295E-05-4.09990E-19-2.72618E-18
 -1      3049 1.41997E-04-4.98853E-05-3.97050E-05-1.40482E-05-1.26208E-18 2.43808E-18
 -1      3050 9.09960E-05-4.53412E-05-1.92602E-05-4.03833E-05 1.61423E-18-2.25581E-18
 -1      3051 1.01185E-04-5.33365E-05-2.01886E-05-4.11347E-05 1.27447E-18-2.93052E-18
 -1      3052 1.10762E-04-5.52294E-05-2.36058E-05-3.48504E-05 1.38294E-18-1.57727E-18
 -1      3053 1.31502E-04-5.92814E-05-3.08647E-05-1.03031E-05 2.88071E-19 1.61413E-19
 -1      3054 6.64947E-05-3.26646E-05-1.38416E-05 3.85532E-05 7.43377E-19 1.10464E-18
 -1      3055 6.43531E-05-2.63238E-05-1.59945E-05 3.27791E-05 1.18743E-19 7.14790E-19
 -1      3056 7.74677E-05-3.79945E-05-1.68090E-05 4.07830E-05 6.54862E-19 2.45640E-19
 -1      3057 9.03467E-05-1.48749E-05-3.23653E-05-2.17814E-06-6.24359E-19-3.48844E-18
 -1      3058 9.05314E-05-1.51386E-05-3.23331E-05-3.12938E-06-1.02580E-18-3.42744E-18
 -1      3059 9.17802E-05-1.71597E-05-3.19653E-05-3.14266E-06-1.00347E-18-3.18688E-18
 -1      3060 9.14059E-05-1.65768E-05-3.20569E-05-1.58321E-06-5.29231E-19-3.30456E-18
 -1      3061 9.46178E-05-2.24684E-05-3.09130E-05 5.69552E-06 2.45976E-18-1.60418E-18
 -1      3062 1.24579E-04-1.43568E-05-4.77999E-05-5.89275E-06 1.22926E-18-2.14310E-18
 -1      3063 1.24375E-04-2.06113E-05-4.49131E-05-9.36411E-06 6.60050E-19-2.49779E-18
 -1      3064 1.18642E-04-1.38863E-05-4.52986E-05-3.59823E-06 1.77040E-18-1.66844E-18
 -1      3065 1.29254E-04-6.29746E-05-2.84685E-05-2.38123E-05 2.02748E-18 9.02911E-19
 -1      3066 1.01275E-04-3.37061E-05-2.88539E-05-2.22546E-05-6.14291E-19-9.76861E-19
 -1      3067 9.58068E-05-2.86233E-05-2.88834E-05-2.29684E-05 4.60081E-19 1.55486E-18
 -1      3068 9.46669E-05-3.07366E-05-2.74580E-05-2.53135E-05-2.13313E-19 1.35705E-18
 -1      3069 1.03963E-04-3.70010E-05-2.85977E-05-2.23999E-05-6.94461E-19-2.00128E-19
 -1      3070 9.42838E-05-2.18781E-05-3.10593E-05 4.95975E-06 2.10992E-18-1.90087E-18
 -1      3071 9.38067E-05-2.09061E-05-3.12447E-05 4.62042E-06 1.77322E-18-2.10312E-18
 -1      3072 5.56803E-05-1.76477E-05-1.60484E-05 1.97543E-05 1.37376E-18 6.61744E-19
 -1      3073 4.92361E-05-1.33006E-05-1.48803E-05 3.72875E-06 1.26805E-18 3.65865E-18
 -1      3074 1.32302E-04-5.70362E-05-3.23635E-05-9.05829E-07-4.08730E-19 3.87172E-18
 -1      3075 9.56813E-05-2.68793E-05-2.94713E-05-7.45928E-07-1.38404E-18-1.48271E-18
 -1      3076 9.56563E-05-2.73288E-05-2.92915E-05-2.22133E-07-1.16102E-18-1.48381E-18
 -1      3077 9.57006E-05-2.77147E-05-2.91256E-05 1.57080E-07-1.02935E-18-1.43815E-18
 -1      3078 9.56635E-05-2.80010E-05-2.90029E-05 4.71952E-07-9.27471E-19-1.40626E-18
 -1      3079 9.58981E-05-2.73328E-05-2.93882E-05-1.66822E-07-1.10693E-18-1.41230E-18
 -1      3080 9.56560E-05-2.82394E-05-2.88849E-05 6.93439E-07-9.43360E-19-1.60342E-18
 -1      3081 9.56238E-05-2.84200E-05-2.88039E-05 8.61162E-07-8.22452E-19-1.59524E-18
 -1      3082 9.59390E-05-2.80566E-05-2.90960E-05 4.67403E-07-9.94402E-19-1.47007E-18
 -1      3083 9.55921E-05-2.85613E-05-2.87223E-05 9.70127E-07-6.99344E-19-1.69918E-18
 -1      3084 9.55691E-05-2.86713E-05-2.86712E-05 1.03938E-06-8.15943E-19-1.60790E-18
 -1      3085 9.59058E-05-2.85075E-05-2.88884E-05 8.24835E-07-8.85448E-19-1.95535E-18
 -1      3086 9.55278E-05-2.87481E-05-2.86167E-05 1.07308E-06-7.66762E-19-1.33319E-18
 -1      3087 9.55136E-05-2.88101E-05-2.85869E-05 1.07980E-06-5.92354E-19-1.31169E-18
 -1      3088 9.58382E-05-2.87732E-05-2.87451E-05 9.88420E-07-6.14584E-19-1.99360E-18
 -1      3089 9.54704E-05-2.88440E-05-2.85525E-05 1.06661E-06-5.49351E-19-1.06479E-18
 -1      3090 9.54631E-05-2.88733E-05-2.85376E-05 1.03677E-06-3.42350E-19-1.14867E-18
 -1      3091 9.57583E-05-2.89139E-05-2.86501E-05 1.02473E-06-5.41328E-19-1.62687E-18
 -1      3092 9.54218E-05-2.88787E-05-2.85179E-05 9.97596E-07-5.12282E-19-9.88141E-19
 -1      3093 9.54195E-05-2.88856E-05-2.85133E-05 9.49663E-07-6.02977E-19-1.23045E-18
 -1      3094 9.56773E-05-2.89702E-05-2.85908E-05 9.84095E-07-4.95100E-19-1.23086E-18
 -1      3095 9.53819E-05-2.88722E-05-2.85043E-05 8.99566E-07-4.78236E-19-9.12316E-19
 -1      3096 9.53830E-05-2.88637E-05-2.85069E-05 8.46603E-07-2.99167E-19-7.84669E-19
 -1      3097 9.56010E-05-2.89699E-05-2.85578E-05 9.03467E-07-4.21079E-19-7.73375E-19
 -1      3098 9.53495E-05-2.88378E-05-2.85056E-05 7.96316E-07-3.07178E-19-6.89646E-19
 -1      3099 9.53529E-05-2.88184E-05-2.85133E-05 7.47599E-07-2.89234E-19-8.35295E-19
 -1      3100 9.55317E-05-2.89315E-05-2.85442E-05 8.09453E-07-1.67034E-19-1.89163E-19
 -1      3101 9.53231E-05-2.87836E-05-2.85178E-05 7.04876E-07-4.98470E-19-7.63940E-19
 -1      3102 9.53282E-05-2.87561E-05-2.85293E-05 6.67189E-07-5.50073E-19-7.23859E-19
 -1      3103 9.54696E-05-2.88669E-05-2.85450E-05 7.21206E-07-3.13947E-19-9.43093E-19
 -1      3104 9.53012E-05-2.87144E-05-2.85384E-05 6.37854E-07-3.58186E-19-7.53033E-19
 -1      3105 9.53076E-05-2.86800E-05-2.85529E-05 6.16473E-07-3.64996E-19-8.91645E-19
 -1      3106 9.54135E-05-2.87830E-05-2.85567E-05 6.52831E-07-6.75885E-19-6.28966E-19
 -1      3107 9.52820E-05-2.86317E-05-2.85658E-05 6.05247E-07-5.39744E-19-7.99615E-19
 -1      3108 9.52894E-05-2.85907E-05-2.85832E-05 6.04713E-07-7.89769E-19-1.01431E-18
 -1      3109 9.53613E-05-2.86825E-05-2.85772E-05 6.15264E-07-6.48523E-19-1.03203E-18
 -1      3110 9.52633E-05-2.85350E-05-2.85995E-05 6.15877E-07-8.86659E-19-1.10507E-18
 -1      3111 9.52718E-05-2.84865E-05-2.86201E-05 6.40596E-07-8.42749E-19-1.01928E-18
 -1      3112 9.53098E-05-2.85654E-05-2.86051E-05 6.17779E-07-7.81232E-19-8.27975E-19
 -1      3113 9.52430E-05-2.84216E-05-2.86397E-05 6.78489E-07-6.38980E-19-7.44146E-19
 -1      3114 9.52524E-05-2.83643E-05-2.86638E-05 7.33177E-07-3.61865E-19-7.31414E-19
 -1      3115 9.52549E-05-2.84290E-05-2.86399E-05 6.69164E-07-8.11163E-19-6.22284E-19
 -1      3116 9.52179E-05-2.82874E-05-2.86868E-05 8.02546E-07-2.03396E-19-5.60355E-19
 -1      3117 9.52280E-05-2.82193E-05-2.87151E-05 8.92538E-07-4.15000E-19-4.23048E-19
 -1      3118 9.51916E-05-2.82685E-05-2.86813E-05 7.78551E-07-2.43076E-19-3.78843E-19
 -1      3119 9.51842E-05-2.81271E-05-2.87416E-05 9.98767E-07-7.40362E-19 1.31735E-20
 -1      3120 9.51946E-05-2.80456E-05-2.87747E-05 1.13021E-06-3.65157E-19 2.06098E-19
 -1      3121 9.51134E-05-2.80776E-05-2.87293E-05 9.55979E-07-1.89937E-19 1.13457E-19
 -1      3122 9.51367E-05-2.79342E-05-2.88046E-05 1.27941E-06-5.91369E-19-3.78237E-19
 -1      3123 9.51464E-05-2.78364E-05-2.88432E-05 1.45929E-06-1.78056E-19-1.11175E-18
 -1      3124 9.50121E-05-2.78485E-05-2.87837E-05 1.21268E-06-8.07817E-19 1.15533E-19
 -1      3125 9.50687E-05-2.77014E-05-2.88761E-05 1.65829E-06 4.33571E-19-1.28067E-18
 -1      3126 9.50761E-05-2.75846E-05-2.89203E-05 1.89432E-06 1.84482E-19-1.45482E-18
 -1      3127 9.48774E-05-2.75725E-05-2.88436E-05 1.56109E-06-2.29577E-19-6.57610E-19
 -1      3128 9.49710E-05-2.74217E-05-2.89552E-05 2.15045E-06-3.27783E-19-8.93839E-19
 -1      3129 9.49738E-05-2.72837E-05-2.90047E-05 2.45071E-06-5.32114E-19-7.79483E-19
 -1      3130 9.46962E-05-2.72408E-05-2.89074E-05 2.01454E-06 2.29385E-19-1.11200E-18
 -1      3131 9.48325E-05-2.70893E-05-2.90396E-05 2.77149E-06-2.32228E-19-4.84097E-19
 -1      3132 9.48276E-05-2.69297E-05-2.90931E-05 3.14382E-06 2.54729E-19-3.39510E-19
 -1      3133 9.44526E-05-2.68454E-05-2.89713E-05 2.58673E-06-1.28151E-20-6.48179E-20
 -1      3134 9.46396E-05-2.67026E-05-2.91243E-05 3.53654E-06 1.40504E-20-4.90094E-19
 -1      3135 9.46239E-05-2.65244E-05-2.91789E-05 3.98753E-06 1.33397E-20-2.66811E-19
 -1      3136 9.41275E-05-2.63821E-05-2.90291E-05 3.29087E-06 2.79678E-19 2.62257E-19
 -1      3137 9.43789E-05-2.62684E-05-2.92005E-05 4.45890E-06 3.60641E-20-5.65787E-19
 -1      3138 9.43513E-05-2.60821E-05-2.92508E-05 4.99258E-06 1.91251E-19-7.10640E-19
 -1      3139 9.37002E-05-2.58540E-05-2.90705E-05 4.13897E-06-2.29443E-20-7.80848E-21
 -1      3140 9.40413E-05-2.58107E-05-2.92538E-05 5.54872E-06 2.25209E-19-9.06813E-19
 -1      3141 9.40070E-05-2.56406E-05-2.92914E-05 6.16487E-06-2.41477E-19-8.13923E-19
 -1      3142 9.31519E-05-2.52795E-05-2.90797E-05 5.14170E-06 7.02979E-20-4.72083E-19
 -1      3143 9.36325E-05-2.53850E-05-2.92628E-05 6.81221E-06-8.51692E-19-9.99335E-19
 -1      3144 9.36126E-05-2.52797E-05-2.92752E-05 7.50460E-06-1.06353E-18-1.23425E-18
 -1      3145 9.24735E-05-2.47044E-05-2.90333E-05 6.31000E-06-6.04735E-19-1.28564E-18
 -1      3146 9.31936E-05-2.51019E-05-2.91970E-05 8.25247E-06-7.86178E-19-1.02569E-18
 -1      3147 9.32415E-05-2.51507E-05-2.91677E-05 9.00696E-06-4.07705E-20-6.67166E-19
 -1      3148 9.16812E-05-2.42228E-05-2.88990E-05 7.66035E-06-8.62782E-19-3.71218E-19
 -1      3149 9.28377E-05-2.51626E-05-2.90175E-05 9.87242E-06-1.80532E-21-6.34476E-19
 -1      3150 9.30680E-05-2.55194E-05-2.89280E-05 1.06641E-05-1.56474E-19-4.03632E-19
 -1      3151 9.08458E-05-2.40074E-05-2.86346E-05 9.22570E-06-2.93871E-19 1.81247E-19
 -1      3152 9.28134E-05-2.59089E-05-2.86818E-05 1.16763E-05-2.24193E-19-9.89713E-19
 -1      3153 9.34449E-05-2.68208E-05-2.85185E-05 1.24606E-05 2.72069E-19-6.36333E-19
 -1      3154 9.01438E-05-2.43577E-05-2.81903E-05 1.10723E-05-4.29598E-19-2.37636E-19
 -1      3155 9.36044E-05-2.78805E-05-2.81598E-05 1.36578E-05 9.69159E-20-1.79312E-18
 -1      3156 9.50128E-05-2.97145E-05-2.79316E-05 1.43418E-05-4.33726E-19-2.07313E-18
 -1      3157 8.99393E-05-2.57592E-05-2.75195E-05 1.33118E-05-5.73881E-19-1.98487E-18
 -1      3158 9.60884E-05-3.18563E-05-2.74752E-05 1.56941E-05 3.98721E-19-1.79661E-18
 -1      3159 9.88108E-05-3.50439E-05-2.72504E-05 1.60586E-05 6.78731E-19-9.86223E-19
 -1      3160 9.09459E-05-2.89966E-05-2.66056E-05 1.60805E-05 4.58285E-19-2.78368E-18
 -1      3161 1.01637E-04-3.87447E-05-2.68027E-05 1.72244E-05 2.46643E-19-5.30908E-19
 -1      3162 1.06137E-04-4.34693E-05-2.67871E-05 1.67101E-05 2.03804E-19-5.82209E-19
 -1      3163 9.44881E-05-3.51685E-05-2.55579E-05 1.92786E-05 1.07761E-18-1.88579E-18
 -1      3164 6.36339E-05-2.71303E-05-1.55717E-05 2.73250E-05 1.99254E-18 1.82430E-19
 -1      3165 5.22696E-05-1.91331E-05-1.38075E-05 1.85266E-05 1.99386E-18-1.10877E-18
 -1      3166 1.32982E-04-5.02084E-05-3.53169E-05 6.94634E-06 6.23284E-19-9.00820E-19
 -1      3167 1.30633E-04-4.19516E-05-3.85731E-05 1.33122E-05 1.49951E-18-1.78494E-18
 -1      3168 9.52428E-05-2.87031E-05-2.85166E-05-1.11959E-06 4.40946E-19-8.55066E-19
 -1      3169 9.52395E-05-2.86411E-05-2.85389E-05-1.11352E-06 4.18107E-19-6.68962E-19
 -1      3170 9.52122E-05-2.87859E-05-2.84671E-05-8.73732E-07 4.31843E-19-4.99767E-19
 -1      3171 9.51922E-05-2.87862E-05-2.84600E-05-9.30061E-07 5.78937E-19-7.04324E-19
 -1      3172 9.52143E-05-2.87575E-05-2.84801E-05-7.66744E-07 3.33036E-19-4.12048E-20
 -1      3173 9.51935E-05-2.87677E-05-2.84690E-05-8.19383E-07 4.76683E-19-7.70454E-20
 -1      3174 9.53854E-05-2.88650E-05-2.85099E-05-8.51919E-07 2.56314E-19-6.59608E-19
 -1      3175 9.52199E-05-2.87142E-05-2.85009E-05-6.77047E-07 1.66968E-19 1.66543E-19
 -1      3176 9.51989E-05-2.87317E-05-2.84870E-05-7.19334E-07 3.35036E-19 2.87758E-19
 -1      3177 9.53524E-05-2.88174E-05-2.85158E-05-7.53750E-07 2.03424E-19-2.85444E-19
 -1      3178 9.52282E-05-2.86594E-05-2.85278E-05-6.15558E-07 1.53642E-19 1.86573E-19
 -1      3179 9.52070E-05-2.86827E-05-2.85116E-05-6.42461E-07 2.43557E-19 1.18765E-19
 -1      3180 9.53245E-05-2.87530E-05-2.85313E-05-6.74411E-07 1.91533E-19-6.98396E-20
 -1      3181 9.52389E-05-2.85946E-05-2.85600E-05-5.91045E-07-5.69585E-20 3.20185E-19
 -1      3182 9.52169E-05-2.86229E-05-2.85417E-05-5.98429E-07 4.41169E-20 2.03854E-19
 -1      3183 9.53005E-05-2.86750E-05-2.85543E-05-6.24937E-07 2.28908E-19-2.99854E-19
 -1      3184 9.52523E-05-2.85200E-05-2.85975E-05-6.11296E-07 3.22326E-19-2.88464E-20
 -1      3185 9.52286E-05-2.85531E-05-2.85767E-05-5.95386E-07 2.42647E-19 1.45469E-19
 -1      3186 9.52787E-05-2.85847E-05-2.85836E-05-6.14359E-07 2.32422E-19-1.58530E-19
 -1      3187 9.52692E-05-2.84350E-05-2.86408E-05-6.83947E-07 7.83695E-20-4.74418E-19
 -1      3188 9.52421E-05-2.84729E-05-2.86170E-05-6.40973E-07 3.25400E-19-1.21994E-19
 -1      3189 9.52577E-05-2.84815E-05-2.86188E-05-6.50838E-07 2.59480E-19-4.21759E-19
 -1      3190 9.52906E-05-2.83390E-05-2.86907E-05-8.16936E-07 2.57960E-21-4.34373E-19
 -1      3191 9.52584E-05-2.83816E-05-2.86633E-05-7.42969E-07 1.04786E-19-1.49311E-19
 -1      3192 9.52360E-05-2.83640E-05-2.86598E-05-7.42463E-07 1.20260E-20-4.44564E-19
 -1      3193 9.53187E-05-2.82318E-05-2.87481E-05-1.01858E-06 2.32636E-19-8.80023E-19
 -1      3194 9.52788E-05-2.82787E-05-2.87164E-05-9.09564E-07-2.60536E-20-6.87575E-19
 -1      3195 9.52126E-05-2.82309E-05-2.87068E-05-8.97655E-07 9.52907E-20-9.27514E-19
 -1      3196 9.53564E-05-2.81150E-05-2.88138E-05-1.29719E-06 3.30949E-19-5.77646E-19
 -1      3197 9.53058E-05-2.81646E-05-2.87772E-05-1.14924E-06 4.13940E-19-3.40181E-19
 -1      3198 9.51870E-05-2.80816E-05-2.87598E-05-1.12521E-06 1.05255E-19-9.45417E-19
 -1      3199 9.54087E-05-2.79931E-05-2.88878E-05-1.66021E-06 2.24451E-19-3.56231E-19
 -1      3200 9.53432E-05-2.80422E-05-2.88459E-05-1.47016E-06 2.12232E-19-4.85804E-19
 -1      3201 9.51600E-05-2.79177E-05-2.88185E-05-1.43390E-06 2.30319E-19-1.03907E-18
 -1      3202 9.54836E-05-2.78757E-05-2.89696E-05-2.11259E-06-4.57526E-19 1.30309E-19
 -1      3203 9.53977E-05-2.79184E-05-2.89226E-05-1.87900E-06-1.47134E-19 1.34112E-20
 -1      3204 9.51348E-05-2.77448E-05-2.88818E-05-1.83162E-06-1.17491E-19-2.55253E-19
 -1      3205 9.55937E-05-2.77802E-05-2.90572E-05-2.65442E-06 3.86616E-19-1.18133E-19
 -1      3206 9.54795E-05-2.78064E-05-2.90057E-05-2.37899E-06 2.41429E-19 1.10950E-19
 -1      3207 9.51184E-05-2.75753E-05-2.89476E-05-2.32387E-06-1.32095E-19 1.95465E-19
 -1      3208 9.57592E-05-2.77355E-05-2.91470E-05-3.27734E-06-2.15865E-19 2.33870E-19
 -1      3209 9.56058E-05-2.77291E-05-2.90927E-05-2.96705E-06 1.85674E-19 4.67719E-20
 -1      3210 9.51247E-05-2.74314E-05-2.90124E-05-2.91148E-06 1.18542E-19 9.08958E-19
 -1      3211 9.60123E-05-2.77868E-05-2.92334E-05-3.95983E-06-3.05786E-19 1.10958E-19
 -1      3212 9.58033E-05-2.77234E-05-2.91790E-05-3.62966E-06-1.83745E-19-1.87878E-19
 -1      3213 9.51781E-05-2.73505E-05-2.90708E-05-3.58746E-06 1.37610E-19 8.09766E-19
 -1      3214 9.64022E-05-2.80005E-05-2.93093E-05-4.66071E-06-3.03353E-19-2.58495E-19
 -1      3215 9.61143E-05-2.78451E-05-2.92584E-05-4.33734E-06-3.47008E-19-3.46844E-19
 -1      3216 9.53197E-05-2.73900E-05-2.91161E-05-4.33262E-06-2.92820E-19 1.93438E-19
 -1      3217 9.70025E-05-2.84691E-05-2.93668E-05-5.31092E-06-1.26012E-18 7.77802E-20
 -1      3218 9.66029E-05-2.81746E-05-2.93234E-05-5.03710E-06-5.66862E-19 4.03768E-20
 -1      3219 9.56146E-05-2.76346E-05-2.91404E-05-5.10960E-06-4.03476E-19 1.57961E-20
 -1      3220 9.79167E-05-2.93106E-05-2.94003E-05-5.80283E-06-6.88479E-20-4.86426E-19
 -1      3221 9.73621E-05-2.88191E-05-2.93674E-05-5.64254E-06-7.50122E-19-5.69093E-19
 -1      3222 9.61618E-05-2.82002E-05-2.91370E-05-5.85431E-06-4.81481E-19-1.10373E-19
 -1      3223 9.92780E-05-3.06561E-05-2.94112E-05-5.97712E-06-2.99950E-20-4.81612E-19
 -1      3224 9.85183E-05-2.99084E-05-2.93882E-05-6.02059E-06 1.14233E-20-1.81483E-19
 -1      3225 9.71032E-05-2.92342E-05-2.91042E-05-6.46327E-06-3.39597E-19-5.22788E-19
 -1      3226 1.01231E-04-3.26114E-05-2.94177E-05-5.60891E-06-1.11252E-19 4.38621E-20
 -1      3227 1.00225E-04-3.15715E-05-2.93957E-05-5.97509E-06 8.51855E-20 1.68610E-19
 -1      3228 9.86245E-05-3.08978E-05-2.90529E-05-6.77411E-06-2.96262E-19-2.43274E-20
 -1      3229 1.03877E-04-3.51697E-05-2.94671E-05-4.40108E-06-4.27057E-19-7.69264E-19
 -1      3230 1.02625E-04-3.38768E-05-2.94230E-05-5.23098E-06-1.09874E-20 1.92353E-19
 -1      3231 1.00935E-04-3.33162E-05-2.90185E-05-6.53826E-06-8.14161E-20 5.81518E-19
 -1      3232 1.07152E-04-3.80553E-05-2.96509E-05-2.01356E-06-1.07961E-18-1.36225E-18
 -1      3233 1.05762E-04-3.67089E-05-2.95416E-05-3.43660E-06-9.38474E-19-1.36350E-18
 -1      3234 1.04198E-04-3.64637E-05-2.90783E-05-5.39279E-06-4.28827E-20 7.35589E-19
 -1      3235 1.10645E-04-4.05020E-05-3.01093E-05 1.81975E-06-3.10927E-19-1.32007E-18
 -1      3236 1.09401E-04-3.95729E-05-2.98733E-05-2.36543E-07-9.34674E-19-1.13649E-18
 -1      3237 1.08361E-04-3.99497E-05-2.93699E-05-2.87016E-06-1.22323E-18-8.63795E-19
 -1      3238 1.13477E-04-4.11904E-05-3.10167E-05 6.94985E-06-9.91326E-20-2.53630E-20
 -1      3239 1.12833E-04-4.14265E-05-3.05795E-05 4.44907E-06 1.87108E-21-4.53173E-19
 -1      3240 1.12861E-04-4.27225E-05-3.00897E-05 1.38662E-06-8.37793E-19-4.11000E-19
 -1      3241 1.14121E-04-3.82884E-05-3.24978E-05 1.20780E-05-4.51885E-19 1.35769E-18
 -1      3242 1.14575E-04-4.03773E-05-3.18475E-05 1.00605E-05 1.81101E-19 1.08540E-18
 -1      3243 1.16486E-04-4.30388E-05-3.14598E-05 7.38769E-06-6.35477E-19 6.30639E-19
 -1      3244 1.11770E-04-3.14220E-05-3.44105E-05 1.47137E-05-5.09107E-19 1.57850E-18
 -1      3245 1.13450E-04-3.53032E-05-3.36343E-05 1.43550E-05-2.54884E-19 1.80764E-18
 -1      3246 1.17221E-04-3.87092E-05-3.36212E-05 1.33542E-05-5.70172E-19 1.99533E-18
 -1      3247 1.07597E-04-2.30114E-05-3.62197E-05 1.21314E-05 8.01399E-19-4.97738E-19
 -1      3248 1.09607E-04-2.69957E-05-3.55924E-05 1.43113E-05-1.09314E-19 3.51770E-19
 -1      3249 1.14458E-04-3.01033E-05-3.62309E-05 1.54407E-05 3.49017E-19 3.81046E-19
 -1      3250 1.05011E-04-1.86590E-05-3.70761E-05 4.09803E-06 6.55789E-19-1.66613E-18
 -1      3251 1.05722E-04-1.99721E-05-3.69196E-05 8.00823E-06 7.04070E-19-1.36857E-18
 -1      3252 1.09810E-04-2.01618E-05-3.85677E-05 1.12141E-05 1.14029E-18-1.79413E-18
 -1      3253 1.10653E-04-2.99409E-05-3.47800E-05-8.81677E-06 8.78446E-19-1.40963E-18
 -1      3254 1.08844E-04-2.57906E-05-3.55383E-05-7.72146E-06 6.14602E-19-1.63492E-18
 -1      3255 1.13423E-04-3.70054E-05-3.28359E-05-7.24218E-06 1.70275E-18-5.64038E-19
 -1      3256 1.12296E-04-3.38246E-05-3.36092E-05-8.24544E-06 1.95727E-18-1.11817E-18
 -1      3257 1.15602E-04-3.27998E-05-3.55035E-05-9.41152E-06 1.09606E-18-2.32628E-18
 -1      3258 1.12968E-04-4.00879E-05-3.12299E-05-2.25941E-06 2.39548E-19-9.67434E-19
 -1      3259 1.13199E-04-3.90601E-05-3.18135E-05-4.42193E-06 1.22186E-18-4.84629E-19
 -1      3260 1.17321E-04-4.04080E-05-3.29511E-05-5.27556E-06 1.28536E-18-1.88465E-19
 -1      3261 1.09554E-04-3.88042E-05-3.02988E-05 2.64236E-06-3.56702E-19-2.22432E-18
 -1      3262 1.10943E-04-3.96406E-05-3.06143E-05 6.91030E-07-1.12143E-19-1.28368E-18
 -1      3263 1.14902E-04-4.22342E-05-3.11675E-05 9.48140E-07 4.17610E-19-3.50298E-19
 -1      3264 1.06754E-04-3.67335E-05-3.00104E-05 5.72335E-06-1.37853E-18-1.77567E-18
 -1      3265 1.07943E-04-3.77963E-05-3.01113E-05 4.23216E-06-1.28650E-18-2.09493E-18
 -1      3266 1.11210E-04-4.04124E-05-3.03582E-05 5.36417E-06-1.20365E-19-1.63815E-18
 -1      3267 1.07920E-04-3.76710E-05-3.00707E-05 7.86079E-06-1.57652E-18-1.46901E-18
 -1      3268 9.52048E-05-2.42718E-05-3.04026E-05 4.27241E-06 2.12320E-18-1.42729E-18
 -1      3269 9.46372E-05-2.27178E-05-3.08064E-05 4.78800E-06 2.13841E-18-1.65234E-18
 -1      3270 9.49635E-05-2.35995E-05-3.05657E-05 3.69856E-06 1.87370E-18-1.71048E-18
 -1      3271 9.52403E-05-2.52041E-05-3.00291E-05 2.99034E-06 1.91099E-18-1.37997E-18
 -1      3272 6.98068E-05-2.07010E-05-2.08335E-05 2.25851E-05-6.81345E-19-4.11446E-19
 -1      3273 7.79772E-05-2.55838E-05-2.18839E-05 2.83891E-05-5.73402E-20-2.56254E-19
 -1      3274 8.73212E-05-2.80290E-05-2.50928E-05-2.74111E-05 4.73875E-19 2.18236E-18
 -1      3275 7.92915E-05-2.34504E-05-2.40368E-05-2.48792E-05 2.86046E-19 3.40626E-18
 -1      3276 9.52736E-05-2.85697E-05-2.85878E-05-1.07574E-06 2.90002E-19-7.49623E-19
 -1      3277 9.52847E-05-2.84662E-05-2.86309E-05-1.00479E-06 3.51565E-19-6.78665E-19
 -1      3278 9.55853E-05-2.86802E-05-2.86770E-05-1.04213E-06 2.57409E-19-7.03798E-19
 -1      3279 9.54125E-05-2.73491E-05-2.91771E-05 2.75744E-07 9.96374E-19-8.63316E-19
 -1      3280 9.54748E-05-2.69415E-05-2.93560E-05 8.35311E-07 1.06217E-18-1.00176E-18
 -1      3281 7.11559E-05-1.77539E-05-2.26078E-05-1.88249E-05 7.16082E-19 3.02325E-18
 -1      3282 6.57240E-05-1.44973E-05-2.18935E-05-1.17357E-05 6.85686E-19 3.12486E-18
 -1      3283 7.28243E-05-2.28783E-05-2.12399E-05-2.49144E-05 6.56927E-19 2.39708E-18
 -1      3284 9.52148E-05-2.87934E-05-2.84651E-05-9.83352E-07 7.31792E-19-8.07635E-19
 -1      3285 9.51972E-05-2.87799E-05-2.84641E-05-1.03406E-06 6.78475E-19-8.72878E-19
 -1      3286 9.54249E-05-2.88890E-05-2.85169E-05-9.54375E-07 4.81866E-19-6.32270E-19
 -1      3287 9.52242E-05-2.87706E-05-2.84792E-05-1.07503E-06 5.23496E-19-1.01740E-18
 -1      3288 9.52116E-05-2.87372E-05-2.84875E-05-1.10685E-06 5.40999E-19-1.03493E-18
 -1      3289 9.55256E-05-2.88174E-05-2.85919E-05-1.08344E-06 5.80921E-19-9.11017E-19
 -1      3290 9.54716E-05-2.88787E-05-2.85418E-05-1.04099E-06 5.66916E-19-7.50527E-19
 -1      3291 9.25733E-05-1.82245E-05-3.18808E-05-6.82897E-06-2.29820E-18-2.72803E-18
 -1      3292 9.31998E-05-1.92285E-05-3.17385E-05-7.33555E-06-2.57023E-18-2.37283E-18
 -1      3293 9.41052E-05-2.12309E-05-3.12212E-05-6.03125E-06-2.43298E-18-2.06782E-18
 -1      3294 9.32799E-05-1.96030E-05-3.15516E-05-5.58490E-06-2.05071E-18-2.74741E-18
 -1      3295 1.30861E-04-3.08671E-05-4.31605E-05-1.11181E-05 1.79783E-19-2.26830E-18
 -1      3296 1.38003E-04-4.08292E-05-4.19507E-05-8.01055E-06-1.99265E-19-1.79147E-18
 -1      3297 9.55168E-05-2.55768E-05-2.99519E-05-2.13434E-06-1.66357E-18-1.64323E-18
 -1      3298 9.55383E-05-2.62762E-05-2.96987E-05-1.33941E-06-1.54418E-18-1.70323E-18
 -1      3299 9.57032E-05-2.61980E-05-2.97892E-05-1.17379E-06-1.38288E-18-1.67191E-18
 -1      3300 1.37278E-04-5.56005E-05-3.52175E-05-1.09514E-06 2.51955E-18 7.80276E-19
 -1      3301 9.53177E-05-2.83381E-05-2.87073E-05-8.85770E-07 3.46615E-19-7.63732E-19
 -1      3302 9.53491E-05-2.81733E-05-2.87808E-05-7.11805E-07 6.00028E-19-8.64921E-19
 -1      3303 9.56451E-05-2.84300E-05-2.88107E-05-8.62387E-07 3.50574E-19-9.10821E-19
 -1      3304 1.25866E-04-5.77612E-05-2.88085E-05-1.25405E-05-3.26971E-19 1.12232E-19
 -1      3305 1.30781E-04-5.65636E-05-3.23260E-05-3.14365E-06-9.29155E-20-3.27908E-19
 -1      3306 9.98640E-05-4.86489E-05-2.15894E-05-3.08091E-05-9.26442E-19-6.36625E-19
 -1      3307 1.14735E-04-5.60265E-05-2.54760E-05-2.37465E-05-8.89040E-19 3.64224E-20
 -1      3308 4.21210E-05-1.41795E-05-1.16279E-05 5.24753E-06 8.50616E-19-3.83748E-18
 -1      3309 3.74237E-05-1.34665E-05-9.48728E-06-6.89980E-06 1.86255E-19-4.46206E-18
 -1      3310 6.40281E-05-2.52906E-05-1.62722E-05-3.05314E-05 1.74896E-18 1.92298E-18
 -1      3311 7.79392E-05-3.57341E-05-1.76771E-05-3.87866E-05 1.70005E-18-7.76200E-19
 -1      3312 1.26632E-04-3.18127E-05-4.06674E-05 1.70934E-05 2.20229E-18-1.67342E-18
 -1      3313 1.20710E-04-2.25893E-05-4.25174E-05 1.58211E-05 2.06856E-18-2.15485E-18
 -1      3314 5.20869E-05-1.47335E-05-1.57224E-05-1.13406E-05 2.05543E-18 4.97282E-18
 -1      3315 5.82974E-05-1.88252E-05-1.64365E-05-2.27880E-05 1.40565E-18 2.96795E-18
 -1      3316 9.53708E-05-2.79587E-05-2.88949E-05-4.70394E-07 8.63930E-19-1.03081E-18
 -1      3317 9.54256E-05-2.77009E-05-2.90118E-05-1.40151E-07 9.89679E-19-8.65705E-19
 -1      3318 9.56912E-05-2.80110E-05-2.90107E-05-4.70643E-07 7.05298E-19-1.12774E-18
 -1      3319 1.14321E-04-1.58642E-05-4.24450E-05 1.08706E-05 1.73213E-18-1.62986E-18
 -1      3320 1.12434E-04-1.33773E-05-4.28413E-05 3.95911E-06 2.10064E-18-1.93419E-18
 -1      3321 9.50910E-05-4.56120E-05-2.13124E-05 2.88899E-05 1.26504E-18-3.95088E-19
 -1      3322 7.88471E-05-3.56960E-05-1.79734E-05 2.99116E-05 1.33855E-18 1.75865E-19
 -1      3323 1.06476E-04-5.28235E-05-2.29191E-05 3.74046E-05 6.72862E-19-4.38236E-18
 -1      3324 9.17372E-05-4.51814E-05-1.92330E-05 4.11950E-05 9.73029E-19-2.94561E-18
 -1      3325 8.51627E-05-3.85379E-05-1.99330E-05 3.84570E-05 3.35637E-19-1.74881E-18
 -1      3326 9.23720E-05-1.83424E-05-3.17422E-05 1.81236E-06 6.61856E-19-3.06671E-18
 -1      3327 9.22523E-05-1.81404E-05-3.17741E-05 1.05844E-06 2.76162E-19-3.15862E-18
 -1      3328 9.21927E-05-1.80404E-05-3.17925E-05 4.09382E-07 4.65615E-20-3.14710E-18
 -1      3329 9.21896E-05-1.80353E-05-3.17931E-05-3.59204E-07-2.55398E-19-3.10685E-18
 -1      3330 9.31452E-05-1.96238E-05-3.14917E-05 6.29388E-07 1.72626E-19-2.91088E-18
 -1      3331 1.20344E-04-5.77595E-05-2.67312E-05 2.89255E-05 5.94299E-19-2.99642E-18
 -1      3332 1.14251E-04-5.61166E-05-2.45944E-05 3.44906E-05 1.26695E-18-3.53021E-18
 -1      3333 1.05976E-04-5.03211E-05-2.37774E-05 3.53119E-05 6.66297E-19-3.42110E-18
 -1      3334 5.90632E-05-1.41391E-05-1.87767E-05-4.47582E-06 7.78794E-19 4.10155E-18
 -1      3335 9.34309E-05-2.02123E-05-3.14040E-05 4.24519E-06 1.57049E-18-2.43018E-18
 -1      3336 9.30720E-05-1.95514E-05-3.15177E-05 3.65365E-06 1.27369E-18-2.67493E-18
 -1      3337 9.43349E-05-2.19768E-05-3.09886E-05 3.63102E-06 1.53906E-18-2.06532E-18
 -1      3338 9.30373E-05-1.94992E-05-3.15264E-05-3.60772E-06-1.35597E-18-2.80955E-18
 -1      3339 9.33987E-05-2.01333E-05-3.14177E-05-4.22092E-06-1.65689E-18-2.75793E-18
 -1      3340 1.36579E-04-4.60995E-05-3.90863E-05-4.93494E-06-1.26102E-19-1.62879E-18
 -1      3341 1.29714E-04-5.91026E-05-2.99828E-05 6.74920E-06 6.13014E-19 2.51414E-18
 -1      3342 9.53820E-05-2.64938E-05-2.95309E-05 1.37102E-06 1.23495E-18-1.13265E-18
 -1      3343 9.54327E-05-2.58874E-05-2.97905E-05 2.24543E-06 1.60404E-18-1.32628E-18
 -1      3344 9.53558E-05-2.52329E-05-3.00697E-05 2.59951E-06 1.63454E-18-1.46329E-18
 -1      3345 9.55808E-05-2.64005E-05-2.96530E-05 1.23974E-06 1.11119E-18-1.29630E-18
 -1      3346 8.93686E-05-4.00838E-05-2.08697E-05-3.61079E-05 7.43748E-19-1.84727E-18
 -1      3347 1.34770E-04-6.07539E-05-3.15414E-05-1.11438E-05 3.03346E-18 1.14418E-18
 -1      3348 7.53914E-05-3.03811E-05-1.89485E-05 2.53363E-05 1.51820E-18-3.82859E-19
 -1      3349 1.11999E-04-4.88655E-05-2.67693E-05 1.65615E-05 7.09311E-19 1.99519E-19
 -1      3350 1.18096E-04-5.41931E-05-2.74022E-05 1.42387E-05 9.28719E-19 7.02898E-19
 -1      3351 1.24718E-04-3.71724E-05-3.76541E-05 1.50508E-05 1.01559E-18-1.12682E-18
 -1      3352 1.08538E-04-4.04557E-05-2.91577E-05 1.93270E-05 2.97944E-19-3.76868E-18
 -1      3353 1.10198E-04-4.11056E-05-2.95950E-05 1.58542E-05 3.67506E-19-1.93438E-18
 -1      3354 1.11422E-04-4.62990E-05-2.78582E-05-2.32221E-05-9.08721E-19 1.55841E-18
 -1      3355 1.06090E-04-4.05186E-05-2.79219E-05-2.39817E-05-1.12739E-18 7.39447E-19
 -1      3356 1.05722E-04-1.91450E-05-3.71578E-05-1.12404E-06 9.56750E-19-2.23663E-18
 -1      3357 1.08663E-04-1.72731E-05-3.93053E-05 1.52031E-06 1.07976E-18-3.50911E-18
 -1      3358 1.13402E-04-1.40815E-05-4.29065E-05-1.18379E-06 1.56188E-18-2.32888E-18
 -1      3359 1.06822E-04-2.14926E-05-3.67370E-05-4.67832E-06 6.56398E-19-2.25806E-18
 -1      3360 1.00804E-04-3.67899E-05-2.73733E-05 2.57705E-05 6.21643E-20-1.69533E-18
 -1      3361 1.05415E-04-3.94107E-05-2.81776E-05 2.37856E-05 5.08666E-19-3.18265E-18
 -1      3362 1.10024E-04-4.40200E-05-2.83442E-05 2.22147E-05 4.07777E-19-3.15955E-18
 -1      3363 1.07045E-04-5.17901E-05-2.31930E-05 2.57548E-05 1.40795E-18-4.26785E-19
 -1      3364 9.88426E-05-4.51272E-05-2.28799E-05 2.51693E-05 1.13156E-18-1.29186E-19
 -1      3365 9.61886E-05-3.42701E-05-2.66013E-05-2.71274E-05-7.00993E-19-3.71556E-19
 -1      3366 9.38374E-05-3.59677E-05-2.47450E-05-3.00301E-05-1.20141E-18-5.81541E-20
 -1      3367 9.41720E-05-2.16381E-05-3.10959E-05-5.02485E-06-2.04675E-18-2.27504E-18
 -1      3368 9.46175E-05-2.25203E-05-3.09046E-05-5.11813E-06-2.13808E-18-1.98273E-18
 -1      3369 9.49226E-05-2.35099E-05-3.05873E-05-4.12856E-06-1.90161E-18-1.96373E-18
 -1      3370 8.79410E-05-3.26197E-05-2.36087E-05 3.02703E-05 9.92815E-20-1.67787E-18
 -1      3371 9.63352E-05-3.75180E-05-2.49507E-05 3.12069E-05 3.33420E-19-1.64662E-18
 -1      3372 1.28519E-04-5.13625E-05-3.30290E-05 3.57808E-06 8.88293E-20-1.05207E-18
 -1      3373 9.56919E-05-2.73377E-05-2.93000E-05 2.27218E-07 9.85093E-19-1.22375E-18
 -1      3374 6.26244E-05-1.27917E-05-2.12003E-05 1.87653E-06-3.24705E-19 4.00038E-18
 -1      3375 6.41945E-05-1.35308E-05-2.13385E-05 1.04212E-05-8.27578E-19 1.11612E-18
 -1      3376 9.27850E-05-1.90528E-05-3.16186E-05 3.12588E-06 1.11397E-18-2.87772E-18
 -1      3377 9.25468E-05-1.86379E-05-3.16861E-05 2.42410E-06 8.22224E-19-2.95421E-18
 -1      3378 9.33590E-05-2.00136E-05-3.14153E-05 1.80382E-06 6.41044E-19-2.83536E-18
 -1      3379 9.37693E-05-2.07947E-05-3.12545E-05 2.84693E-06 1.03809E-18-2.54912E-18
 -1      3380 5.99882E-05-2.68191E-05-1.36807E-05-3.10587E-05-4.63803E-19-9.28560E-20
 -1      3381 7.06512E-05-3.07771E-05-1.69246E-05-3.10627E-05-3.07923E-19-1.55457E-18
 -1      3382 5.63405E-05-2.24055E-05-1.42734E-05-2.59463E-05-3.52472E-19-2.01064E-19
 -1      3383 8.64968E-05-3.94085E-05-1.99869E-05-3.10564E-05-1.14117E-18-9.96058E-19
 -1      3384 9.37818E-05-4.48746E-05-2.07483E-05-3.21340E-05-8.19134E-19-1.10101E-19
 -1      3385 1.01881E-04-4.66993E-05-2.35120E-05-2.54344E-05-1.31986E-18-9.84610E-20
 -1      3386 4.94718E-05-1.55994E-05-1.40425E-05 1.18773E-05 1.72406E-18-1.90477E-18
 -1      3387 4.93586E-05-1.38880E-05-1.50577E-05 2.85111E-06 1.14603E-18-2.55179E-18
 -1      3388 5.86224E-05-1.82993E-05-1.69762E-05 1.45602E-05 2.14248E-18-3.97206E-19
 -1      3389 1.38037E-04-6.05531E-05-3.32390E-05 1.25385E-05-5.07108E-19-9.97487E-19
 -1      3390 1.31261E-04-6.04245E-05-3.04190E-05 1.85091E-05-4.73094E-19-9.38010E-19
 -1      3391 1.37231E-04-5.64286E-05-3.48692E-05 4.69390E-06-5.57540E-19-7.13202E-19
 -1      3392 1.24728E-04-5.73787E-05-2.88871E-05-1.92434E-05 1.63896E-18 1.16052E-18
 -1      3393 1.18127E-04-5.23744E-05-2.79129E-05-2.24837E-05 3.31098E-19 1.51334E-18
 -1      3394 4.47950E-05-1.56061E-05-1.20736E-05-1.28247E-05-3.26035E-19-2.36343E-18
 -1      3395 1.27192E-04-6.01260E-05-2.88025E-05-2.15057E-05 1.84823E-18 1.20141E-18
 -1      3396 1.20305E-04-5.72944E-05-2.70879E-05 1.60893E-05 1.12833E-18 6.36946E-19
 -1      3397 9.27536E-05-1.90027E-05-3.16248E-05-3.08584E-06-1.12001E-18-2.90753E-18
 -1      3398 9.37330E-05-2.07512E-05-3.12641E-05-2.81357E-06-1.10900E-18-2.60253E-18
 -1      3399 9.25249E-05-1.86062E-05-3.16907E-05-2.37386E-06-7.41869E-19-2.98412E-18
 -1      3400 1.11753E-04-2.30522E-05-3.80845E-05-7.40767E-06 5.81885E-19-4.61818E-18
 -1      3401 1.09576E-04-4.84524E-05-2.62975E-05-2.83921E-05-3.17584E-19 3.55489E-19
 -1      3402 1.02507E-04-4.48965E-05-2.48115E-05 2.17730E-05 9.33827E-19-5.85326E-19
 -1      3403 1.13687E-04-1.76482E-05-4.14668E-05-5.93879E-06 5.86835E-19-2.86292E-18
 -1      3404 1.09672E-04-5.25250E-05-2.43625E-05-3.33941E-05 1.10940E-18-9.15854E-19
 -1      3405 1.18594E-04-5.81308E-05-2.55679E-05-3.08539E-05 1.46156E-18 2.60572E-19
 -1      3406 9.50945E-05-2.43588E-05-3.03277E-05-3.29265E-06-1.76746E-18-1.82762E-18
 -1      3407 1.18108E-04-5.42792E-05-2.72842E-05-1.57669E-05-9.41451E-19 4.19215E-19
 -1      3408 1.18635E-04-2.07080E-05-4.23316E-05-8.74417E-06 5.35219E-20-2.37476E-18
 -1      3409 1.25288E-04-2.49357E-05-4.34779E-05-1.08083E-05 2.31981E-19-2.74926E-18
 -1      3410 1.25944E-04-3.06280E-05-4.08029E-05-1.10087E-05-3.11126E-19-3.00252E-18
 -1      3411 1.14020E-04-2.03200E-05-4.02695E-05-6.91191E-06-4.58986E-20-3.87773E-18
 -1      3412 9.51465E-05-2.42469E-05-3.03900E-05-2.91048E-06-1.70759E-18-1.93811E-18
 -1      3413 1.31687E-04-4.40102E-05-3.81553E-05-7.27521E-06 7.57300E-19-1.98417E-18
 -1      3414 1.36720E-04-5.08627E-05-3.68490E-05-2.62535E-06-2.11798E-19-9.10560E-19
 -1      3415 9.47046E-05-2.28759E-05-3.07760E-05-3.44138E-06-1.63754E-18-2.34892E-18
 -1      3416 9.51908E-05-2.43368E-05-3.03854E-05-2.26783E-06-1.52409E-18-2.16846E-18
 -1      3417 9.61692E-05-2.78305E-05-2.92803E-05 2.41551E-07-9.81228E-19-1.36481E-18
 -1      3418 9.61649E-05-2.81496E-05-2.91540E-05 4.93357E-07-1.10021E-18-1.43481E-18
 -1      3419 9.61746E-05-2.84129E-05-2.90350E-05 6.54206E-07-1.10835E-18-1.41451E-18
 -1      3420 9.61450E-05-2.86106E-05-2.89456E-05 7.88918E-07-9.05361E-19-1.57544E-18
 -1      3421 9.63657E-05-2.82227E-05-2.92057E-05 4.70705E-07-1.05580E-18-1.21694E-18
 -1      3422 9.61124E-05-2.87644E-05-2.88594E-05 8.64858E-07-7.45050E-19-1.69266E-18
 -1      3423 9.60724E-05-2.88784E-05-2.87982E-05 9.19409E-07-5.91043E-19-1.73676E-18
 -1      3424 9.63445E-05-2.86947E-05-2.89949E-05 7.26486E-07-9.78159E-19-1.10046E-18
 -1      3425 9.60176E-05-2.89573E-05-2.87376E-05 9.38284E-07-4.38995E-19-1.82069E-18
 -1      3426 9.59751E-05-2.90138E-05-2.86974E-05 9.41554E-07-4.61286E-19-1.54537E-18
 -1      3427 9.62595E-05-2.89646E-05-2.88429E-05 8.38146E-07-6.01254E-19-1.47244E-18
 -1      3428 9.59107E-05-2.90420E-05-2.86565E-05 9.25299E-07-3.96284E-19-1.37682E-18
 -1      3429 9.58697E-05-2.90594E-05-2.86321E-05 8.98921E-07-3.10632E-19-1.20941E-18
 -1      3430 9.61429E-05-2.90949E-05-2.87370E-05 8.55123E-07-2.73108E-19-1.50260E-18
 -1      3431 9.58032E-05-2.90536E-05-2.86063E-05 8.64078E-07-2.58568E-19-9.56736E-19
 -1      3432 9.57656E-05-2.90445E-05-2.85935E-05 8.23846E-07-2.80977E-19-6.52215E-19
 -1      3433 9.60143E-05-2.91301E-05-2.86666E-05 8.15980E-07-1.74579E-19-7.59159E-19
 -1      3434 9.57010E-05-2.90162E-05-2.85791E-05 7.82485E-07-5.37731E-19-7.33278E-19
 -1      3435 9.56673E-05-2.89889E-05-2.85750E-05 7.39778E-07-1.83698E-19-7.98977E-19
 -1      3436 9.58852E-05-2.91012E-05-2.86234E-05 7.49556E-07-3.29952E-19-7.74370E-19
 -1      3437 9.56062E-05-2.89453E-05-2.85693E-05 7.00663E-07-9.76422E-20-1.03594E-18
 -1      3438 9.55761E-05-2.89051E-05-2.85717E-05 6.63788E-07-3.83453E-19-9.24258E-19
 -1      3439 9.57612E-05-2.90287E-05-2.86010E-05 6.76907E-07-3.44208E-19-1.13301E-18
 -1      3440 9.55183E-05-2.88502E-05-2.85728E-05 6.33430E-07-6.77476E-19-7.85668E-19
 -1      3441 9.54908E-05-2.87999E-05-2.85802E-05 6.08641E-07-7.56670E-19-7.61928E-19
 -1      3442 9.56437E-05-2.89254E-05-2.85946E-05 6.13581E-07-2.40485E-19-1.26254E-18
 -1      3443 9.54348E-05-2.87354E-05-2.85865E-05 5.92050E-07-7.22713E-19-8.87424E-19
 -1      3444 9.54087E-05-2.86758E-05-2.85981E-05 5.84369E-07-6.20409E-19-8.86515E-19
 -1      3445 9.55311E-05-2.87980E-05-2.86006E-05 5.71314E-07-7.94088E-19-7.74830E-19
 -1      3446 9.53518E-05-2.86014E-05-2.86087E-05 5.85744E-07-6.41129E-19-7.18524E-19
 -1      3447 9.53252E-05-2.85318E-05-2.86239E-05 5.99639E-07-6.65637E-19-5.93340E-19
 -1      3448 9.54193E-05-2.86484E-05-2.86165E-05 5.59422E-07-4.57271E-19-6.78703E-19
 -1      3449 9.52638E-05-2.84457E-05-2.86381E-05 6.22905E-07-8.43196E-19-2.27928E-19
 -1      3450 9.52343E-05-2.83643E-05-2.86567E-05 6.62765E-07-7.48213E-19-1.16242E-19
 -1      3451 9.53022E-05-2.84747E-05-2.86404E-05 5.86068E-07-4.96239E-19-1.64245E-19
 -1      3452 9.51639E-05-2.82634E-05-2.86739E-05 7.11908E-07-3.73354E-19-4.43904E-20
 -1      3453 9.51285E-05-2.81672E-05-2.86956E-05 7.82374E-07 2.55129E-20-5.72099E-20
 -1      3454 9.51717E-05-2.82720E-05-2.86709E-05 6.59076E-07-3.96253E-19 6.57229E-19
 -1      3455 9.50433E-05-2.80474E-05-2.87154E-05 8.61662E-07 2.20517E-21 3.62583E-19
 -1      3456 9.49984E-05-2.79328E-05-2.87402E-05 9.67817E-07-3.17209E-19 3.59088E-19
 -1      3457 9.50175E-05-2.80330E-05-2.87067E-05 7.86454E-07 4.71177E-20 6.18017E-19
 -1      3458 9.48912E-05-2.77892E-05-2.87616E-05 1.08189E-06-6.47247E-19 2.93246E-19
 -1      3459 9.48321E-05-2.76518E-05-2.87891E-05 1.22931E-06-7.14543E-19 2.58538E-20
 -1      3460 9.48270E-05-2.77485E-05-2.87463E-05 9.76664E-07-2.93134E-19 2.25436E-19
 -1      3461 9.46944E-05-2.74789E-05-2.88112E-05 1.38312E-06-7.99045E-19 2.58820E-19
 -1      3462 9.46152E-05-2.73142E-05-2.88407E-05 1.57776E-06-2.07104E-19-2.21070E-19
 -1      3463 9.45847E-05-2.74077E-05-2.87877E-05 1.23861E-06-6.54643E-19 2.75502E-19
 -1      3464 9.44365E-05-2.71062E-05-2.88615E-05 1.77644E-06 5.25683E-19-4.26233E-20
 -1      3465 9.43296E-05-2.69099E-05-2.88915E-05 2.02439E-06 6.13276E-19 3.56945E-19
 -1      3466 9.42720E-05-2.69994E-05-2.88276E-05 1.58135E-06 5.98364E-20 8.59955E-19
 -1      3467 9.40974E-05-2.66615E-05-2.89081E-05 2.27294E-06 1.69161E-19 2.28576E-19
 -1      3468 9.39539E-05-2.64303E-05-2.89360E-05 2.58001E-06 4.92761E-20 6.21187E-19
 -1      3469 9.38662E-05-2.65127E-05-2.88608E-05 2.01357E-06 3.55833E-19 1.02519E-18
 -1      3470 9.36535E-05-2.61377E-05-2.89440E-05 2.88308E-06 1.41576E-19 1.78996E-19
 -1      3471 9.34629E-05-2.58709E-05-2.89654E-05 3.25437E-06 4.46922E-19 3.33097E-19
 -1      3472 9.33404E-05-2.59387E-05-2.88796E-05 2.54298E-06 1.61944E-19 7.63163E-19
 -1      3473 9.30775E-05-2.55336E-05-2.89580E-05 3.61626E-06-8.26767E-21-4.05256E-19
 -1      3474 9.28293E-05-2.52355E-05-2.89663E-05 4.05588E-06-4.89482E-19-4.20993E-19
 -1      3475 9.26636E-05-2.52736E-05-2.88722E-05 3.17601E-06-5.41482E-19-9.55425E-20
 -1      3476 9.23408E-05-2.48594E-05-2.89337E-05 4.48127E-06-3.76968E-19-2.93835E-19
 -1      3477 9.20267E-05-2.45437E-05-2.89187E-05 4.99272E-06-3.29411E-19-8.50235E-19
 -1      3478 9.18013E-05-2.45226E-05-2.88215E-05 3.91848E-06-3.11625E-19-1.24124E-18
 -1      3479 9.14179E-05-2.41460E-05-2.88468E-05 5.48901E-06-4.32365E-19-1.25669E-18
 -1      3480 9.10376E-05-2.38429E-05-2.87944E-05 6.07699E-06-8.35363E-19-1.20492E-18
 -1      3481 9.07177E-05-2.37078E-05-2.87028E-05 4.77886E-06-5.28790E-19-1.53399E-18
 -1      3482 9.02956E-05-2.34596E-05-2.86637E-05 6.65961E-06-5.11671E-19-3.35185E-19
 -1      3483 8.98677E-05-2.32269E-05-2.85545E-05 7.33465E-06 4.06537E-20 3.26876E-19
 -1      3484 8.93814E-05-2.28781E-05-2.84816E-05 5.77635E-06-1.81667E-20-2.70325E-19
 -1      3485 8.89907E-05-2.29243E-05-2.83386E-05 8.03759E-06-3.53419E-19 3.82024E-19
 -1      3486 8.85722E-05-2.28646E-05-2.81481E-05 8.82464E-06-1.76160E-19 2.25368E-19
 -1      3487 8.77742E-05-2.21260E-05-2.81109E-05 6.95785E-06 2.05406E-19 8.83305E-20
 -1      3488 8.75823E-05-2.27561E-05-2.78126E-05 9.71923E-06-5.83992E-19-2.81816E-19
 -1      3489 8.73028E-05-2.30441E-05-2.75133E-05 1.06700E-05-9.28882E-19-2.24886E-19
 -1      3490 8.59078E-05-2.16113E-05-2.75275E-05 8.42941E-06-7.92454E-19 3.68999E-19
 -1      3491 8.62753E-05-2.33186E-05-2.70157E-05 1.18888E-05-1.52385E-18-8.06458E-19
 -1      3492 8.63894E-05-2.42408E-05-2.65843E-05 1.30925E-05-9.35607E-19-2.00526E-18
 -1      3493 8.38589E-05-2.16050E-05-2.66495E-05 1.04087E-05-1.43642E-18-9.63727E-19
 -1      3494 8.54846E-05-2.51553E-05-2.58751E-05 1.48424E-05 5.58275E-19-1.96530E-18
 -1      3495 8.65455E-05-2.72255E-05-2.53231E-05 1.64162E-05 1.29278E-18-1.93121E-18
 -1      3496 8.18535E-05-2.25702E-05-2.53757E-05 1.32615E-05-4.22138E-19-1.51944E-18
 -1      3497 9.33950E-05-3.85932E-05-2.31766E-05 2.36877E-05 1.27017E-18-1.11245E-18
 -1      3498 1.01638E-04-3.79218E-05-2.72015E-05-2.65070E-05-2.11517E-18-3.70974E-20
 -1      3499 9.55469E-05-2.89351E-05-2.85465E-05-7.93140E-07 1.06402E-19-3.89550E-19
 -1      3500 9.55659E-05-2.89542E-05-2.85479E-05-8.40786E-07 3.12047E-19-5.21741E-19
 -1      3501 9.53671E-05-2.86814E-05-2.85778E-05-6.03542E-07 1.53288E-19-5.62414E-19
 -1      3502 9.53788E-05-2.87289E-05-2.85654E-05-6.17497E-07 3.75367E-19-5.63883E-19
 -1      3503 9.53134E-05-2.85652E-05-2.86045E-05-6.06641E-07 2.04502E-19-3.96437E-19
 -1      3504 9.53243E-05-2.86201E-05-2.85889E-05-5.99523E-07 2.56996E-19-5.18492E-19
 -1      3505 9.53966E-05-2.86681E-05-2.85984E-05-5.88976E-07 2.22826E-19-1.14435E-18
 -1      3506 9.52582E-05-2.84329E-05-2.86374E-05-6.57074E-07 3.26279E-20-3.73425E-19
 -1      3507 9.52691E-05-2.84956E-05-2.86189E-05-6.24807E-07 1.70640E-19-4.71876E-19
 -1      3508 9.53102E-05-2.85241E-05-2.86228E-05-6.05422E-07 1.79436E-19-1.28710E-18
 -1      3509 9.51981E-05-2.82822E-05-2.86760E-05-7.62985E-07 3.95894E-20-9.90175E-19
 -1      3510 9.52097E-05-2.83537E-05-2.86546E-05-7.01443E-07 7.53687E-20-7.22393E-19
 -1      3511 9.52178E-05-2.83598E-05-2.86534E-05-6.69472E-07 1.43062E-19-1.02776E-18
 -1      3512 9.51298E-05-2.81109E-05-2.87198E-05-9.32935E-07 3.16747E-19-9.66945E-19
 -1      3513 9.51425E-05-2.81919E-05-2.86955E-05-8.37820E-07 3.07927E-19-9.41611E-19
 -1      3514 9.51141E-05-2.81722E-05-2.86891E-05-7.89427E-07 2.09737E-19-9.63425E-19
 -1      3515 9.50506E-05-2.79179E-05-2.87682E-05-1.17594E-06-1.91499E-20-1.16623E-18
 -1      3516 9.50644E-05-2.80082E-05-2.87412E-05-1.04284E-06 8.49955E-20-1.32098E-18
 -1      3517 9.49935E-05-2.79587E-05-2.87286E-05-9.74118E-07 4.77801E-19-1.42988E-18
 -1      3518 9.49589E-05-2.77048E-05-2.88198E-05-1.50111E-06 3.84060E-20-1.45033E-18
 -1      3519 9.49731E-05-2.78028E-05-2.87906E-05-1.32581E-06 1.83321E-19-1.27593E-18
 -1      3520 9.48511E-05-2.77177E-05-2.87706E-05-1.23298E-06 3.03948E-19-1.65879E-18
 -1      3521 9.48561E-05-2.74777E-05-2.88725E-05-1.91693E-06-2.06063E-19-8.16957E-19
 -1      3522 9.48682E-05-2.75792E-05-2.88420E-05-1.69590E-06-2.70212E-19-1.30957E-18
 -1      3523 9.46833E-05-2.74514E-05-2.88125E-05-1.57580E-06-5.68618E-20-1.95993E-18
 -1      3524 9.47483E-05-2.72511E-05-2.89229E-05-2.42994E-06-1.45634E-19-5.65584E-19
 -1      3525 9.47533E-05-2.73472E-05-2.88926E-05-2.16122E-06-2.40340E-19-9.32582E-19
 -1      3526 9.44899E-05-2.71678E-05-2.88510E-05-2.01220E-06-1.38284E-19-1.43960E-18
 -1      3527 9.46496E-05-2.70509E-05-2.89658E-05-3.04291E-06-3.79583E-19 2.12261E-19
 -1      3528 9.46382E-05-2.71266E-05-2.89381E-05-2.72732E-06-2.72583E-19-2.89388E-19
 -1      3529 9.42767E-05-2.68843E-05-2.88811E-05-2.55071E-06-5.81427E-19-8.58299E-19
 -1      3530 9.45875E-05-2.69203E-05-2.89944E-05-3.75236E-06 3.62184E-19 2.55510E-19
 -1      3531 9.45437E-05-2.69514E-05-2.89726E-05-3.39511E-06 2.60716E-19 4.06793E-19
 -1      3532 9.40591E-05-2.66326E-05-2.88962E-05-3.19755E-06-1.05274E-19-5.81883E-19
 -1      3533 9.46095E-05-2.69265E-05-2.90002E-05-4.54509E-06-2.59566E-19 4.12467E-20
 -1      3534 9.45069E-05-2.68762E-05-2.89883E-05-4.15796E-06-3.59284E-20 4.88685E-19
 -1      3535 9.38686E-05-2.64644E-05-2.88877E-05-3.95497E-06-1.10248E-19 3.55173E-19
 -1      3536 9.47932E-05-2.71674E-05-2.89746E-05-5.39341E-06-6.63798E-19 4.47420E-19
 -1      3537 9.45905E-05-2.69829E-05-2.89765E-05-4.99776E-06-6.44851E-19 3.60231E-19
 -1      3538 9.37607E-05-2.64592E-05-2.88459E-05-4.81896E-06-6.87601E-19 1.66869E-20
 -1      3539 9.52576E-05-2.77785E-05-2.89104E-05-6.24769E-06-1.65673E-19-2.11558E-19
 -1      3540 9.48938E-05-2.73887E-05-2.89290E-05-5.87886E-06-1.83971E-20 3.98776E-19
 -1      3541 9.38270E-05-2.67324E-05-2.87612E-05-5.77551E-06-4.07640E-19-3.55044E-19
 -1      3542 9.61760E-05-2.89336E-05-2.88079E-05-7.02338E-06-1.51777E-20-4.47304E-19
 -1      3543 9.55661E-05-2.82499E-05-2.88418E-05-6.73771E-06 4.38253E-20-2.16781E-19
 -1      3544 9.42096E-05-2.74431E-05-2.86275E-05-6.79335E-06 1.11940E-20-4.53730E-19
 -1      3545 9.77803E-05-3.08303E-05-2.86828E-05-7.57744E-06-8.19869E-19-4.55506E-19
 -1      3546 9.68190E-05-2.97587E-05-2.87218E-05-7.46363E-06-7.31180E-19-7.63281E-19
 -1      3547 9.51192E-05-2.87968E-05-2.84482E-05-7.80785E-06-1.44802E-19-4.68119E-19
 -1      3548 1.00345E-04-3.36393E-05-2.85820E-05-7.66902E-06-3.46248E-19 3.99873E-19
 -1      3549 9.89257E-05-3.21139E-05-2.85992E-05-7.86429E-06-5.89594E-19 3.97057E-19
 -1      3550 9.68473E-05-3.10298E-05-2.82478E-05-8.68739E-06-1.05297E-18-8.82929E-19
 -1      3551 1.04111E-04-3.73776E-05-2.86055E-05-6.90303E-06-4.53833E-19 9.72168E-19
 -1      3552 1.02184E-04-3.54415E-05-2.85471E-05-7.60943E-06 4.43973E-20 1.28725E-18
 -1      3553 9.97574E-05-3.43508E-05-2.80916E-05-9.16948E-06-5.01969E-19 3.11313E-19
 -1      3554 1.09098E-04-4.16764E-05-2.89328E-05-4.70252E-06-1.13656E-18-1.15995E-19
 -1      3555 1.06795E-04-3.96172E-05-2.87083E-05-6.17007E-06-5.83073E-19 3.02721E-19
 -1      3556 1.04217E-04-3.87882E-05-2.81169E-05-8.76668E-06-2.37175E-19 6.77362E-19
 -1      3557 1.14686E-04-4.52380E-05-2.98125E-05-4.51915E-07-8.93332E-19-3.24053E-19
 -1      3558 1.12518E-04-4.38526E-05-2.93307E-05-2.73658E-06-1.09811E-18 9.35740E-20
 -1      3559 1.10394E-04-4.39334E-05-2.85678E-05-6.66975E-06-1.01690E-18 3.82599E-19
 -1      3560 1.15668E-04-2.59187E-05-3.85584E-05 1.59781E-05 1.41931E-18-1.23148E-18
 -1      3561 1.17870E-04-3.21375E-05-3.70420E-05 1.61698E-05 7.43761E-19-9.17658E-20
 -1      3562 1.03865E-04-4.57848E-05-2.45663E-05-3.24054E-05-4.66927E-19-1.95974E-18
 -1      3563 1.21671E-04-4.53822E-05-3.26078E-05-1.77034E-06 3.25671E-19-8.16718E-19
 -1      3564 1.21894E-04-4.30095E-05-3.38775E-05-4.86729E-06 6.17871E-19-1.27807E-18
 -1      3565 1.24385E-04-4.25859E-05-3.52115E-05-6.93661E-06 8.13191E-19-1.55423E-18
 -1      3566 1.22884E-04-3.69956E-05-3.68659E-05-8.62209E-06 7.18310E-19-2.71117E-18
 -1      3567 9.38095E-05-2.09267E-05-3.12426E-05-4.74675E-06-1.83939E-18-2.58295E-18
 -1      3568 9.58592E-05-2.87897E-05-2.87448E-05-9.83575E-07 2.18883E-19-9.19155E-19
 -1      3569 9.58920E-05-2.86778E-05-2.88015E-05-9.23290E-07 1.27636E-19-1.03202E-18
 -1      3570 1.09626E-04-3.97554E-05-2.98988E-05 1.27606E-05 1.45297E-19-1.09196E-18
 -1      3571 1.09206E-04-3.91729E-05-3.00127E-05 1.01193E-05-4.06465E-19-9.59529E-19
 -1      3572 1.11001E-04-4.06925E-05-3.01155E-05 9.03898E-06-8.51500E-20-6.59240E-19
 -1      3573 1.13048E-04-4.35581E-05-2.97290E-05 1.41666E-05 1.21050E-18-1.44738E-18
 -1      3574 1.11855E-04-5.01709E-05-2.61814E-05-1.76336E-05-1.41840E-18-8.29695E-20
 -1      3575 1.20111E-04-5.34728E-05-2.89199E-05-9.05546E-06-8.77705E-19-2.64109E-19
 -1      3576 1.24742E-04-5.12967E-05-3.12268E-05 1.01102E-06-8.74813E-19-6.30378E-20
 -1      3577 1.24874E-04-4.70576E-05-3.36014E-05 8.46520E-06-8.10961E-19-6.58952E-19
 -1      3578 6.32423E-05-2.15298E-05-1.76204E-05 2.37782E-05 5.43980E-19-1.97782E-19
 -1      3579 9.59515E-05-2.80883E-05-2.90888E-05-4.99321E-07 5.69473E-19-1.36687E-18
 -1      3580 9.59693E-05-2.77848E-05-2.92129E-05-2.21150E-07 7.69813E-19-1.40000E-18
 -1      3581 8.04074E-05-2.97858E-05-2.13519E-05-3.20283E-05 7.60636E-19 1.70931E-18
 -1      3582 6.93721E-05-2.33495E-05-1.95391E-05-2.59696E-05 1.42201E-18 1.44917E-18
 -1      3583 9.56192E-05-2.89761E-05-2.85601E-05-8.86492E-07 5.26747E-19-3.97686E-19
 -1      3584 9.56419E-05-2.89783E-05-2.85695E-05-9.30674E-07 6.04156E-19-4.30184E-19
 -1      3585 9.57656E-05-2.90451E-05-2.85961E-05-8.23631E-07 5.47135E-19-7.06131E-19
 -1      3586 9.56996E-05-2.55207E-05-3.00574E-05-1.50347E-06-1.25017E-18-1.92429E-18
 -1      3587 9.58365E-05-2.62682E-05-2.98252E-05-8.78495E-07-1.01528E-18-1.79588E-18
 -1      3588 4.93376E-05-1.47231E-05-1.46535E-05-9.87562E-06-2.64407E-19-2.79648E-18
 -1      3589 5.12896E-05-1.73652E-05-1.40103E-05-1.91010E-05-7.03461E-19-8.01028E-19
 -1      3590 6.04496E-05-2.13807E-05-1.65294E-05-2.16493E-05-6.02757E-19-5.41889E-19
 -1      3591 9.54223E-05-2.87827E-05-2.85582E-05-6.39698E-07 4.39154E-19-5.42516E-19
 -1      3592 9.54357E-05-2.88226E-05-2.85493E-05-6.70413E-07 2.07541E-19-4.98721E-19
 -1      3593 9.54821E-05-2.87939E-05-2.85814E-05-6.12010E-07 4.68655E-19-9.35230E-19
 -1      3594 9.54816E-05-2.88684E-05-2.85470E-05-7.06385E-07 2.21404E-20-3.77358E-19
 -1      3595 9.54974E-05-2.88993E-05-2.85425E-05-7.48793E-07 3.20838E-20-4.92552E-19
 -1      3596 9.56645E-05-2.89874E-05-2.85772E-05-7.40764E-07 2.28875E-19-4.05131E-19
 -1      3597 9.55704E-05-2.89013E-05-2.85735E-05-6.65966E-07 1.14314E-19-5.99334E-19
 -1      3598 9.59238E-05-2.85298E-05-2.88855E-05-8.33850E-07 2.65033E-19-1.17644E-18
 -1      3599 9.59544E-05-2.83401E-05-2.89709E-05-6.85530E-07 4.52013E-19-1.25092E-18
 -1      3600 9.61843E-05-2.81539E-05-2.91583E-05-4.85088E-07 5.35097E-19-1.58876E-18
 -1      3601 9.22445E-05-1.81294E-05-3.17759E-05-1.01048E-06-4.18835E-19-3.21004E-18
 -1      3602 9.23550E-05-1.83150E-05-3.17453E-05-1.76509E-06-6.30809E-19-3.22477E-18
 -1      3603 9.33271E-05-1.99845E-05-3.14208E-05-1.75525E-06-7.05840E-19-2.93369E-18
 -1      3604 9.59025E-05-2.73792E-05-2.93744E-05 1.00397E-07 9.29282E-19-1.51551E-18
 -1      3605 9.58777E-05-2.69064E-05-2.95499E-05 5.57904E-07 9.29362E-19-1.56097E-18
 -1      3606 9.61126E-05-2.74128E-05-2.94446E-05 4.70690E-08 7.27498E-19-1.65699E-18
 -1      3607 9.60381E-05-2.69162E-05-2.96144E-05-4.51419E-07-9.09652E-19-1.61572E-18
 -1      3608 9.60855E-05-2.74089E-05-2.94404E-05-3.83041E-08-8.51430E-19-1.45154E-18
 -1      3609 9.62718E-05-2.74608E-05-2.94907E-05 1.06216E-08-9.51983E-19-1.51899E-18
 -1      3610 1.13480E-04-2.13940E-05-3.96304E-05 1.25040E-05 1.94307E-18-2.08515E-18
 -1      3611 8.28757E-05-3.30041E-05-2.14560E-05 2.44604E-05 1.64666E-18-9.16172E-19
 -1      3612 7.08268E-05-2.48915E-05-1.94537E-05 2.15795E-05 2.14277E-18-1.03338E-19
 -1      3613 1.16295E-04-2.63840E-05-3.89183E-05-1.03585E-05-2.95072E-19-2.54144E-18
 -1      3614 8.82929E-05-3.34052E-05-2.33774E-05 2.15441E-05 1.52140E-18-9.18951E-19
 -1      3615 1.22176E-04-3.95212E-05-3.53969E-05 1.40327E-05-9.21148E-21-1.18545E-19
 -1      3616 1.26250E-04-5.93938E-05-2.85017E-05 2.37126E-05 3.50936E-19-2.17075E-18
 -1      3617 1.17497E-04-5.45791E-05-2.69158E-05 2.76806E-05 1.58342E-18-2.81818E-18
 -1      3618 1.28709E-04-5.82703E-05-3.04123E-05 1.67349E-05-1.16732E-19-5.38872E-19
 -1      3619 9.49382E-05-2.35288E-05-3.06219E-05 3.05584E-06 1.50721E-18-1.77565E-18
 -1      3620 9.46692E-05-2.28288E-05-3.07889E-05 2.80967E-06 1.15817E-18-2.07773E-18
 -1      3621 9.53093E-05-2.43838E-05-3.04075E-05-1.93595E-06-1.24796E-18-2.19781E-18
 -1      3622 9.57256E-05-2.63979E-05-2.97194E-05 9.81951E-07 9.68787E-19-1.45886E-18
 -1      3623 9.56440E-05-2.58667E-05-2.99043E-05 1.57035E-06 1.13537E-18-1.45354E-18
 -1      3624 9.58920E-05-2.63948E-05-2.97836E-05 8.22458E-07 1.03747E-18-1.78402E-18
 -1      3625 7.97665E-05-2.54039E-05-2.32999E-05 1.80331E-05 1.78597E-18-1.15668E-18
 -1      3626 8.57693E-05-2.94610E-05-2.40631E-05 1.93979E-05 1.57048E-18-7.92657E-19
 -1      3627 9.61587E-05-2.86154E-05-2.89497E-05-7.82722E-07 3.32830E-19-1.54650E-18
 -1      3628 9.16607E-05-3.69504E-05-2.32964E-05-3.22303E-05-8.53333E-19-1.19511E-18
 -1      3629 9.57798E-05-2.89262E-05-2.86512E-05-1.01225E-06 4.23625E-19-8.57333E-19
 -1      3630 9.58103E-05-2.88675E-05-2.86870E-05-1.00813E-06 3.89849E-19-9.75054E-19
 -1      3631 9.60816E-05-2.88830E-05-2.88019E-05-9.15070E-07 2.29524E-19-1.35437E-18
 -1      3632 1.18644E-04-4.58787E-05-3.11629E-05 4.80376E-06-1.27070E-18-5.50885E-19
 -1      3633 1.18232E-04-4.77452E-05-3.03269E-05 2.24638E-07-1.00250E-18-3.57924E-19
 -1      3634 1.19520E-04-4.45989E-05-3.21122E-05 7.95624E-06-1.28766E-18 3.17472E-19
 -1      3635 1.22707E-04-4.40395E-05-3.38321E-05 1.10145E-05-5.89145E-19 1.14945E-20
 -1      3636 1.14301E-04-4.95789E-05-2.76941E-05 2.47883E-05 1.73808E-18-2.70996E-18
 -1      3637 1.18102E-04-5.05396E-05-2.90002E-05 1.97223E-05 1.07430E-18-2.83956E-18
 -1      3638 9.43189E-05-2.19868E-05-3.09888E-05-3.74677E-06-1.61575E-18-2.44557E-18
 -1      3639 1.12754E-04-4.21321E-05-3.03059E-05 7.59080E-06 5.16748E-19-2.87558E-19
 -1      3640 1.15095E-04-4.45406E-05-3.03548E-05 9.31763E-06 2.21739E-19-2.30856E-19
 -1      3641 1.15668E-04-4.38652E-05-3.06771E-05 5.37401E-06 2.42860E-20 1.95876E-21
 -1      3642 1.17831E-04-4.49566E-05-3.13009E-05 2.73210E-06 3.53947E-19 1.85391E-19
 -1      3643 1.16584E-04-4.61394E-05-3.01380E-05 1.18955E-05 7.37231E-19-1.37910E-18
 -1      3644 9.38678E-05-2.10515E-05-3.12187E-05 8.08372E-07 2.68189E-19-2.66829E-18
 -1      3645 9.38193E-05-2.09505E-05-3.12383E-05 2.48098E-07 1.16151E-20-2.78898E-18
 -1      3646 1.19431E-04-4.97438E-05-2.98642E-05-2.85316E-06-1.48535E-18 6.30775E-20
 -1      3647 7.67248E-05-3.11440E-05-1.94402E-05-2.75661E-05-1.74068E-18-7.06743E-19
 -1      3648 8.19951E-05-3.55784E-05-1.95579E-05-3.01686E-05-1.60200E-18-1.48141E-18
 -1      3649 9.12904E-05-3.92923E-05-2.22360E-05-2.66112E-05-1.92598E-18 3.09736E-19
 -1      3650 9.40919E-05-2.15146E-05-3.11187E-05 1.76752E-06 6.88332E-19-2.62777E-18
 -1      3651 9.39550E-05-2.12235E-05-3.11778E-05 1.24846E-06 4.43504E-19-2.65216E-18
 -1      3652 9.46140E-05-2.23918E-05-3.09353E-05 8.27897E-07 2.68256E-19-2.44388E-18
 -1      3653 9.58725E-05-2.90617E-05-2.86351E-05-8.97545E-07 3.91188E-19-3.68176E-19
 -1      3654 9.56977E-05-2.89793E-05-2.85927E-05-9.68084E-07 4.08358E-19-6.17085E-19
 -1      3655 9.57245E-05-2.89568E-05-2.86132E-05-9.96616E-07 4.57224E-19-6.78459E-19
 -1      3656 6.58404E-05-2.08889E-05-1.90912E-05 1.79770E-05 2.36022E-18-1.66945E-19
 -1      3657 6.21156E-05-1.74219E-05-1.91385E-05 1.17890E-05 1.78298E-18-5.98482E-20
 -1      3658 7.41521E-05-2.36236E-05-2.14489E-05 1.77272E-05 2.29543E-18-4.09752E-19
 -1      3659 1.34075E-04-5.38339E-05-3.42858E-05 3.06892E-06-3.75030E-19-2.85397E-19
 -1      3660 5.67582E-05-1.45582E-05-1.79054E-05 2.39365E-06 1.23036E-18-9.35389E-19
 -1      3661 5.19750E-05-1.37270E-05-1.59665E-05-3.22432E-06 2.05789E-19-2.68769E-18
 -1      3662 5.62865E-05-1.52649E-05-1.75241E-05-8.75217E-06-6.05197E-19-1.61257E-18
 -1      3663 9.31418E-05-1.96210E-05-3.14932E-05-5.81509E-07-3.24216E-19-2.99860E-18
 -1      3664 1.02599E-04-4.40622E-05-2.50395E-05 3.18970E-05 9.17102E-19-1.91950E-18
 -1      3665 9.43642E-05-2.21068E-05-3.09615E-05-3.07423E-06-1.36103E-18-2.62096E-18
 -1      3666 1.21898E-04-5.15367E-05-3.00497E-05 1.36271E-05 2.42708E-19-1.15677E-18
 -1      3667 1.22376E-04-4.80066E-05-3.20457E-05 3.08649E-06-3.86221E-19-6.33687E-20
 -1      3668 9.59884E-05-2.62980E-05-2.98664E-05-7.17526E-07-9.02191E-19-1.66908E-18
 -1      3669 9.39025E-05-2.11456E-05-3.11829E-05-2.23463E-06-9.24634E-19-2.50612E-18
 -1      3670 9.41364E-05-2.16488E-05-3.10826E-05-2.66577E-06-1.11309E-18-2.50708E-18
 -1      3671 9.45993E-05-2.24951E-05-3.08827E-05-2.46776E-06-1.09715E-18-2.47203E-18
 -1      3672 9.51637E-05-2.44092E-05-3.03161E-05 2.86886E-06 1.57766E-18-1.57250E-18
 -1      3673 9.54186E-05-2.50666E-05-3.01444E-05 2.08781E-06 1.29073E-18-1.57462E-18
 -1      3674 9.51531E-05-2.39120E-05-3.05374E-05-1.69336E-06-9.43433E-19-2.19398E-18
 -1      3675 7.50163E-05-2.16320E-05-2.29112E-05 1.48055E-05 1.98257E-18-1.08018E-18
 -1      3676 9.65431E-05-2.86079E-05-2.91113E-05 5.73073E-07-1.00964E-18-1.06265E-18
 -1      3677 9.65120E-05-2.88037E-05-2.90196E-05 6.68317E-07-7.77555E-19-1.02234E-18
 -1      3678 9.64712E-05-2.89525E-05-2.89338E-05 7.11098E-07-6.68717E-19-8.99989E-19
 -1      3679 9.64174E-05-2.90591E-05-2.88683E-05 7.47448E-07-5.26917E-19-9.97418E-19
 -1      3680 9.66423E-05-2.88836E-05-2.90408E-05 5.81127E-07-7.34182E-19-9.10667E-19
 -1      3681 9.63489E-05-2.91294E-05-2.88064E-05 7.52208E-07-1.59450E-19-9.51788E-19
 -1      3682 9.62850E-05-2.91740E-05-2.87615E-05 7.51088E-07-5.80102E-20-7.87165E-19
 -1      3683 9.65337E-05-2.91288E-05-2.88896E-05 6.43010E-07-3.57824E-19-6.73304E-19
 -1      3684 9.62034E-05-2.91905E-05-2.87186E-05 7.33280E-07-1.37113E-19-7.23366E-19
 -1      3685 9.61371E-05-2.91929E-05-2.86894E-05 7.11218E-07-1.87800E-20-6.30110E-19
 -1      3686 9.63848E-05-2.92316E-05-2.87819E-05 6.43313E-07-2.98981E-20-6.15033E-19
 -1      3687 9.60514E-05-2.91733E-05-2.86614E-05 6.82531E-07-1.78801E-19-8.05245E-19
 -1      3688 9.59869E-05-2.91470E-05-2.86444E-05 6.51668E-07-2.66734E-19-8.51398E-19
 -1      3689 9.62191E-05-2.92366E-05-2.87086E-05 6.08802E-07-1.40261E-19-9.21951E-19
 -1      3690 9.59020E-05-2.91030E-05-2.86280E-05 6.20607E-07-4.49460E-19-1.04341E-18
 -1      3691 9.58407E-05-2.90569E-05-2.86202E-05 5.89888E-07-4.34276E-19-1.20792E-18
 -1      3692 9.60501E-05-2.91755E-05-2.86622E-05 5.59304E-07-4.78148E-19-9.38487E-19
 -1      3693 9.57582E-05-2.89956E-05-2.86128E-05 5.62878E-07-1.55677E-19-1.08536E-18
 -1      3694 9.57001E-05-2.89348E-05-2.86122E-05 5.39055E-07-2.35349E-19-1.01368E-18
 -1      3695 9.58843E-05-2.90683E-05-2.86367E-05 5.09580E-07-2.60547E-19-8.34405E-19
 -1      3696 9.56195E-05-2.88601E-05-2.86118E-05 5.20901E-07-4.80706E-19-8.21443E-19
 -1      3697 9.55631E-05-2.87870E-05-2.86169E-05 5.09070E-07-5.63569E-19-4.45318E-19
 -1      3698 9.57227E-05-2.89272E-05-2.86276E-05 4.70967E-07-1.02432E-19-8.05709E-19
 -1      3699 9.54819E-05-2.86999E-05-2.86219E-05 5.03494E-07-5.25002E-19-2.87427E-20
 -1      3700 9.54246E-05-2.86146E-05-2.86314E-05 5.07926E-07-3.87349E-19-1.17670E-19
 -1      3701 9.55626E-05-2.87578E-05-2.86312E-05 4.51823E-07-3.50911E-19-3.12565E-19
 -1      3702 9.53388E-05-2.85139E-05-2.86407E-05 5.18211E-07-2.83062E-19-7.34152E-20
 -1      3703 9.52769E-05-2.84146E-05-2.86539E-05 5.42768E-07-2.86481E-19 2.55849E-19
 -1      3704 9.53973E-05-2.85601E-05-2.86446E-05 4.59089E-07-4.27203E-19 2.40960E-19
 -1      3705 9.51811E-05-2.82974E-05-2.86663E-05 5.71989E-07-4.54266E-19 2.84831E-19
 -1      3706 9.51101E-05-2.81811E-05-2.86825E-05 6.20434E-07-1.99946E-19 3.53241E-19
 -1      3707 9.52176E-05-2.83305E-05-2.86654E-05 4.98959E-07-9.33946E-20 2.01539E-19
 -1      3708 9.49975E-05-2.80433E-05-2.86971E-05 6.71632E-07 3.34523E-19 9.57685E-20
 -1      3709 9.49115E-05-2.79057E-05-2.87155E-05 7.47812E-07 1.28940E-19 2.65773E-19
 -1      3710 9.50116E-05-2.80618E-05-2.86916E-05 5.77208E-07-1.38305E-19 5.51607E-20
 -1      3711 9.47739E-05-2.77421E-05-2.87311E-05 8.24076E-07-2.39585E-19 3.84222E-19
 -1      3712 9.46659E-05-2.75781E-05-2.87507E-05 9.31961E-07-5.07296E-20 6.06960E-19
 -1      3713 9.47643E-05-2.77447E-05-2.87207E-05 6.99450E-07 2.38891E-20 3.65907E-19
 -1      3714 9.44933E-05-2.73826E-05-2.87658E-05 1.03635E-06-1.32619E-19 7.18862E-19
 -1      3715 9.43546E-05-2.71868E-05-2.87852E-05 1.17992E-06-3.55191E-19 9.91359E-19
 -1      3716 9.44578E-05-2.73678E-05-2.87499E-05 8.71079E-07 6.78548E-20 1.05483E-18
 -1      3717 9.41353E-05-2.69531E-05-2.87974E-05 1.31527E-06-2.96816E-19 1.13700E-18
 -1      3718 9.39554E-05-2.67199E-05-2.88146E-05 1.49826E-06 2.70512E-19 9.41266E-19
 -1      3719 9.40707E-05-2.69189E-05-2.87751E-05 1.09692E-06-1.52432E-19 1.15314E-18
 -1      3720 9.36755E-05-2.64418E-05-2.88207E-05 1.66686E-06 4.51475E-19 7.53198E-19
 -1      3721 9.34418E-05-2.61662E-05-2.88322E-05 1.89241E-06 5.43629E-19 7.55693E-19
 -1      3722 9.35776E-05-2.63861E-05-2.87906E-05 1.38062E-06 1.00562E-19 1.99148E-19
 -1      3723 9.30849E-05-2.58387E-05-2.88275E-05 2.09568E-06 3.30400E-19 4.30791E-19
 -1      3724 9.27827E-05-2.55175E-05-2.88285E-05 2.36601E-06-9.86359E-20 3.15287E-19
 -1      3725 9.29489E-05-2.57585E-05-2.87881E-05 1.72393E-06 2.89396E-19-6.56684E-20
 -1      3726 9.23295E-05-2.51376E-05-2.88060E-05 2.60433E-06-6.19879E-19 1.48902E-19
 -1      3727 9.19419E-05-2.47705E-05-2.87892E-05 2.92065E-06-8.92561E-19-2.94175E-19
 -1      3728 9.21495E-05-2.50287E-05-2.87558E-05 2.12600E-06-4.30055E-19-3.19000E-19
 -1      3729 9.13703E-05-2.43392E-05-2.87393E-05 3.19374E-06-8.34237E-19-5.36946E-20
 -1      3730 9.08788E-05-2.39319E-05-2.86942E-05 3.55699E-06-7.10859E-19-1.99339E-19
 -1      3731 9.11388E-05-2.41952E-05-2.86767E-05 2.58345E-06-9.71348E-19 5.39447E-19
 -1      3732 9.01627E-05-2.34564E-05-2.86031E-05 3.86552E-06-3.75285E-19-5.57931E-19
 -1      3733 8.95492E-05-2.30232E-05-2.85148E-05 4.27880E-06-1.10220E-19-5.45870E-19
 -1      3734 8.98692E-05-2.32653E-05-2.85270E-05 3.09207E-06-7.83838E-19 4.88369E-19
 -1      3735 8.86573E-05-2.25201E-05-2.83635E-05 4.62849E-06 1.69406E-19-5.97301E-20
 -1      3736 8.79071E-05-2.20900E-05-2.82115E-05 5.10279E-06 7.09208E-19 5.68781E-19
 -1      3737 8.82847E-05-2.22595E-05-2.82736E-05 3.65210E-06 2.88783E-19 1.39396E-19
 -1      3738 8.68009E-05-2.15894E-05-2.79733E-05 5.51270E-06 3.72028E-19 1.28083E-19
 -1      3739 8.59085E-05-2.12129E-05-2.77297E-05 6.07809E-06-1.23005E-19 4.04531E-19
 -1      3740 8.63166E-05-2.12160E-05-2.78702E-05 4.28018E-06 1.79615E-19 7.37473E-19
 -1      3741 8.45366E-05-2.07631E-05-2.73673E-05 6.59576E-06-9.97475E-19 2.42048E-19
 -1      3742 8.35160E-05-2.05232E-05-2.69949E-05 7.32110E-06-1.16229E-18 7.79494E-21
 -1      3743 8.38766E-05-2.01951E-05-2.72520E-05 5.03175E-06-6.50241E-19-1.72848E-19
 -1      3744 8.18022E-05-2.01948E-05-2.64544E-05 8.05203E-06-1.48042E-18 1.29901E-19
 -1      3745 8.07196E-05-2.02327E-05-2.59045E-05 9.07540E-06-1.74281E-18-3.36388E-19
 -1      3746 8.08400E-05-1.92816E-05-2.63265E-05 6.04228E-06-1.27115E-18 2.81203E-19
 -1      3747 7.85491E-05-2.01440E-05-2.51029E-05 1.02570E-05-1.26400E-18-2.88426E-19
 -1      3748 7.76460E-05-2.07064E-05-2.43317E-05 1.17679E-05 5.19890E-19-3.57972E-19
 -1      3749 7.69854E-05-1.85872E-05-2.49533E-05 7.58910E-06-9.46911E-19 1.11844E-18
 -1      3750 9.51757E-05-2.82819E-05-2.86670E-05-6.47510E-07-1.20137E-19-1.30677E-18
 -1      3751 9.52249E-05-2.83770E-05-2.86509E-05-6.02359E-07-4.63921E-20-1.44028E-18
 -1      3752 9.53031E-05-2.84763E-05-2.86384E-05-5.74032E-07 1.94946E-19-1.64017E-18
 -1      3753 9.53480E-05-2.85594E-05-2.86251E-05-5.53834E-07 2.23034E-19-1.59375E-18
 -1      3754 9.52606E-05-2.84058E-05-2.86519E-05-5.45729E-07-2.17265E-20-1.61767E-18
 -1      3755 9.54203E-05-2.86464E-05-2.86158E-05-5.46510E-07 5.12061E-19-1.26104E-18
 -1      3756 9.54635E-05-2.87190E-05-2.86058E-05-5.47236E-07 5.56559E-19-9.70491E-19
 -1      3757 9.54098E-05-2.86047E-05-2.86310E-05-5.08873E-07 4.94077E-19-1.40409E-18
 -1      3758 9.50306E-05-2.80596E-05-2.87000E-05-7.75008E-07 2.09918E-19-1.13801E-18
 -1      3759 9.50869E-05-2.81683E-05-2.86817E-05-7.00720E-07-3.41067E-21-1.13485E-18
 -1      3760 9.50950E-05-2.81779E-05-2.86781E-05-6.26658E-07-2.09405E-19-1.22562E-18
 -1      3761 9.48602E-05-2.78056E-05-2.87357E-05-9.65278E-07 8.46114E-19-1.34477E-18
 -1      3762 9.49265E-05-2.79294E-05-2.87159E-05-8.57392E-07 7.21389E-19-1.03078E-18
 -1      3763 9.49037E-05-2.79165E-05-2.87076E-05-7.59656E-07 5.95496E-19-1.59885E-18
 -1      3764 9.46573E-05-2.75182E-05-2.87717E-05-1.22789E-06 2.73713E-19-1.08437E-18
 -1      3765 9.47357E-05-2.76571E-05-2.87515E-05-1.08168E-06 7.16682E-19-1.13746E-18
 -1      3766 9.46768E-05-2.76176E-05-2.87380E-05-9.53630E-07 6.92892E-19-1.00947E-18
 -1      3767 9.44163E-05-2.71993E-05-2.88047E-05-1.57312E-06-1.99423E-19-1.10742E-18
 -1      3768 9.45080E-05-2.73513E-05-2.87856E-05-1.38378E-06 1.01948E-19-1.15793E-18
 -1      3769 9.44048E-05-2.72790E-05-2.87659E-05-1.21865E-06 2.44716E-19-2.76087E-19
 -1      3770 9.41352E-05-2.68576E-05-2.88302E-05-2.01169E-06-4.93571E-19-1.12575E-18
 -1      3771 9.42391E-05-2.70169E-05-2.88145E-05-1.77458E-06-5.43035E-19-1.22573E-18
 -1      3772 9.40802E-05-2.69036E-05-2.87872E-05-1.56607E-06-5.70497E-19-9.26044E-19
 -1      3773 9.38186E-05-2.65124E-05-2.88418E-05-2.55430E-06-8.00182E-19-2.75736E-19
 -1      3774 9.39298E-05-2.66672E-05-2.88325E-05-2.26541E-06-5.33249E-19-3.54672E-19
 -1      3775 9.36992E-05-2.65015E-05-2.87957E-05-2.00868E-06-1.16303E-18-7.11062E-19
 -1      3776 9.34821E-05-2.61983E-05-2.88312E-05-3.21111E-06-3.01534E-19-6.71839E-20
 -1      3777 9.35892E-05-2.63285E-05-2.88323E-05-2.86758E-06-4.22662E-19-1.73244E-20
 -1      3778 9.32652E-05-2.60949E-05-2.87837E-05-2.56086E-06-8.08623E-19 1.77701E-19
 -1      3779 9.31588E-05-2.59717E-05-2.87883E-05-3.99114E-06-2.63932E-19 3.15805E-19
 -1      3780 9.32405E-05-2.60452E-05-2.88047E-05-3.59188E-06 6.67225E-22 4.76796E-19
 -1      3781 9.27932E-05-2.57226E-05-2.87412E-05-3.23902E-06-4.72830E-19 8.62356E-21
 -1      3782 9.29086E-05-2.59191E-05-2.87014E-05-4.90141E-06-3.50634E-19-4.34969E-19
 -1      3783 9.29286E-05-2.58876E-05-2.87384E-05-4.44810E-06-2.58615E-19 1.92350E-19
 -1      3784 9.23170E-05-2.54478E-05-2.86559E-05-4.06234E-06 5.53865E-20-6.69470E-19
 -1      3785 9.28310E-05-2.61655E-05-2.85593E-05-5.94513E-06-3.59046E-19-6.53217E-19
 -1      3786 9.27310E-05-2.59602E-05-2.86215E-05-5.44394E-06-4.57758E-19-3.89771E-19
 -1      3787 9.18986E-05-2.53656E-05-2.85142E-05-5.05372E-06-2.66438E-19-2.11417E-20
 -1      3788 9.30825E-05-2.68847E-05-2.83542E-05-7.11672E-06-1.05687E-19-2.38708E-20
 -1      3789 9.27734E-05-2.64113E-05-2.84437E-05-6.58225E-06-2.53822E-19-7.41180E-19
 -1      3790 9.16424E-05-2.56134E-05-2.83028E-05-6.24026E-06-1.65813E-19 2.56552E-19
 -1      3791 9.38989E-05-2.83059E-05-2.80892E-05-8.38701E-06-2.65853E-19-2.57671E-19
 -1      3792 9.32519E-05-2.74426E-05-2.82012E-05-7.85200E-06 1.43980E-19-1.20357E-19
 -1      3793 9.17158E-05-2.63838E-05-2.80124E-05-7.65025E-06-2.96141E-20 3.25200E-19
 -1      3794 9.56149E-05-3.07053E-05-2.77902E-05-9.66400E-06-1.15078E-18-6.96205E-19
 -1      3795 9.44595E-05-2.93133E-05-2.79056E-05-9.20167E-06-9.63331E-19-5.93142E-19
 -1      3796 9.23818E-05-2.79390E-05-2.76455E-05-9.29455E-06-3.16617E-19-1.25981E-19
 -1      3797 9.86736E-05-3.43641E-05-2.75301E-05-1.07114E-05-9.16336E-19-4.57026E-19
 -1      3798 9.68110E-05-3.23249E-05-2.76029E-05-1.04846E-05-1.10573E-18-5.98769E-19
 -1      3799 9.40340E-05-3.06025E-05-2.72314E-05-1.11362E-05-1.11289E-18-1.45659E-19
 -1      3800 1.03572E-04-3.94308E-05-2.74660E-05-1.10431E-05-5.31010E-19 1.24665E-19
 -1      3801 1.00827E-04-3.67365E-05-2.74061E-05-1.13440E-05-4.72980E-19-5.30831E-19
 -1      3802 9.72222E-05-3.46958E-05-2.68538E-05-1.29431E-05-9.61456E-19-1.38295E-18
 -1      3803 9.54908E-05-2.50137E-05-3.01980E-05 1.78322E-06 1.04399E-18-1.75344E-18
 -1      3804 1.28455E-04-4.81489E-05-3.47210E-05-2.35502E-06-2.37057E-19-1.23316E-18
 -1      3805 1.26612E-04-3.60710E-05-3.89103E-05-9.25054E-06 2.78991E-19-2.45142E-18
 -1      3806 1.14818E-04-4.81122E-05-2.84087E-05-8.07026E-06-8.49736E-19-8.18307E-19
 -1      3807 1.03750E-04-4.63228E-05-2.47036E-05-2.23613E-05-1.64725E-18 8.12622E-20
 -1      3808 1.08152E-04-4.62406E-05-2.64171E-05-1.58242E-05-1.30630E-18-7.41817E-19
 -1      3809 9.63779E-05-2.82646E-05-2.91955E-05-4.97821E-07 3.72881E-19-1.51262E-18
 -1      3810 9.63725E-05-2.79446E-05-2.93203E-05-2.87569E-07 5.86520E-19-1.53120E-18
 -1      3811 9.44646E-05-2.23398E-05-3.09274E-05 2.56250E-06 1.12953E-18-2.36059E-18
 -1      3812 9.42527E-05-2.18518E-05-3.10334E-05 2.13787E-06 8.18801E-19-2.46605E-18
 -1      3813 9.48100E-05-2.28902E-05-3.08082E-05 1.54780E-06 7.68212E-19-2.35761E-18
 -1      3814 9.36195E-05-2.05882E-05-3.13099E-05-1.22473E-06-5.51166E-19-3.01565E-18
 -1      3815 9.37539E-05-2.08415E-05-3.12563E-05-1.77034E-06-7.68284E-19-2.79076E-18
 -1      3816 9.41995E-05-2.16456E-05-3.10788E-05-1.69520E-06-8.34335E-19-2.64132E-18
 -1      3817 6.39967E-05-2.09773E-05-1.83522E-05-1.93703E-05-5.30243E-19-5.02635E-19
 -1      3818 6.97628E-05-2.55733E-05-1.86300E-05-2.51625E-05-8.52406E-19-7.40889E-19
 -1      3819 7.95453E-05-3.02739E-05-2.10022E-05-2.41435E-05-1.23553E-18-6.66258E-19
 -1      3820 9.55336E-05-2.87952E-05-2.86006E-05-5.57203E-07 4.79076E-19-6.86073E-19
 -1      3821 9.55775E-05-2.88578E-05-2.85948E-05-5.74738E-07 4.95111E-19-7.06463E-19
 -1      3822 9.55509E-05-2.87783E-05-2.86174E-05-5.08605E-07 6.28204E-19-4.38328E-19
 -1      3823 1.26877E-04-5.36170E-05-3.13939E-05 9.70053E-06-3.50182E-19-6.95718E-19
 -1      3824 9.50911E-05-2.37038E-05-3.05834E-05 2.07984E-06 1.05024E-18-2.07570E-18
 -1      3825 9.45408E-05-2.22204E-05-3.09773E-05 9.79326E-09-1.02331E-19-2.58606E-18
 -1      3826 9.38143E-05-2.09428E-05-3.12390E-05-2.18174E-07-1.04975E-19-2.74189E-18
 -1      3827 9.38577E-05-2.10171E-05-3.12209E-05-7.67418E-07-3.41723E-19-2.85468E-18
 -1      3828 9.87939E-05-4.25418E-05-2.39188E-05-2.31660E-05-9.29228E-19 3.97040E-19
 -1      3829 9.62849E-05-2.75241E-05-2.94751E-05-6.59952E-08 5.58297E-19-1.60096E-18
 -1      3830 9.62105E-05-2.70275E-05-2.96438E-05 2.77645E-07 6.67285E-19-1.75423E-18
 -1      3831 9.64491E-05-2.76038E-05-2.95050E-05-9.89506E-08 5.17183E-19-1.44771E-18
 -1      3832 1.31164E-04-5.33413E-05-3.31435E-05 3.92676E-06-7.30235E-19 1.85103E-19
 -1      3833 9.58946E-05-2.91038E-05-2.86233E-05-7.32883E-07 4.35259E-19-4.66743E-19
 -1      3834 9.59478E-05-2.91228E-05-2.86387E-05-7.68407E-07 4.26886E-19-7.12643E-19
 -1      3835 9.65220E-05-2.80237E-05-2.93518E-05 2.92130E-07-8.24512E-19-1.23324E-18
 -1      3836 9.65341E-05-2.83463E-05-2.92270E-05 4.73003E-07-1.08559E-18-1.17750E-18
 -1      3837 9.66745E-05-2.84345E-05-2.92462E-05 4.24114E-07-8.86922E-19-1.06263E-18
 -1      3838 1.09486E-04-4.62051E-05-2.73012E-05-1.27646E-05-6.88926E-19-1.41742E-18
 -1      3839 1.10156E-04-4.48342E-05-2.79651E-05-9.30202E-06-6.22804E-19-7.11061E-19
 -1      3840 1.06577E-04-4.18552E-05-2.76155E-05-1.06724E-05-5.90392E-19-4.36181E-20
 -1      3841 1.03524E-04-4.24591E-05-2.60589E-05-1.64870E-05-6.86749E-19-1.34782E-18
 -1      3842 9.59303E-05-2.57463E-05-3.00828E-05-9.18258E-07-8.47128E-19-1.89827E-18
 -1      3843 9.61255E-05-2.64620E-05-2.98650E-05-4.68094E-07-7.98226E-19-1.85562E-18
 -1      3844 9.63449E-05-2.71022E-05-2.96698E-05-1.82537E-07-6.92104E-19-1.60037E-18
 -1      3845 9.64321E-05-2.76038E-05-2.95040E-05 1.13547E-07-6.58032E-19-1.40192E-18
 -1      3846 9.65783E-05-2.77006E-05-2.95181E-05 1.31763E-07-6.48960E-19-1.02796E-18
 -1      3847 9.63575E-05-2.87224E-05-2.89885E-05-7.34227E-07 3.50599E-19-1.47121E-18
 -1      3848 9.63877E-05-2.85262E-05-2.90788E-05-6.22998E-07 2.18544E-19-1.44144E-18
 -1      3849 9.65452E-05-2.83467E-05-2.92288E-05-4.60513E-07 2.91763E-19-1.54959E-18
 -1      3850 9.38749E-05-3.91201E-05-2.34834E-05-2.32324E-05-1.58827E-18-4.29538E-19
 -1      3851 9.48507E-05-2.30412E-05-3.07893E-05-1.59088E-06-7.82335E-19-2.44738E-18
 -1      3852 9.55733E-05-2.47406E-05-3.03455E-05-1.16493E-06-7.58612E-19-2.12233E-18
 -1      3853 9.56942E-05-2.49382E-05-3.03260E-05-8.72799E-07-5.75470E-19-2.12715E-18
 -1      3854 9.47108E-05-2.27377E-05-3.08608E-05-1.17660E-06-5.80964E-19-2.67064E-18
 -1      3855 9.60277E-05-2.64995E-05-2.98054E-05 5.78447E-07 9.32124E-19-1.91488E-18
 -1      3856 9.58758E-05-2.59154E-05-2.99807E-05 1.02204E-06 9.63448E-19-1.96700E-18
 -1      3857 9.61797E-05-2.65754E-05-2.98273E-05 4.36114E-07 6.87669E-19-1.77222E-18
 -1      3858 1.02318E-04-3.99823E-05-2.68159E-05-1.36648E-05-5.68182E-19-5.68544E-19
 -1      3859 9.50551E-05-2.33354E-05-3.07461E-05 1.97593E-07 5.32084E-20-2.47133E-18
 -1      3860 9.50581E-05-2.33355E-05-3.07467E-05-1.76739E-07-1.82454E-19-2.40928E-18
 -1      3861 1.09344E-04-4.78553E-05-2.63215E-05 2.96059E-05 1.84521E-18-2.19260E-18
 -1      3862 9.59808E-05-2.90175E-05-2.87008E-05-9.38832E-07 3.30949E-19-7.49052E-19
 -1      3863 9.57683E-05-2.90286E-05-2.86013E-05-6.60579E-07 1.93293E-19-1.99675E-19
 -1      3864 9.58180E-05-2.90665E-05-2.86077E-05-6.96895E-07 4.38063E-19-2.12473E-19
 -1      3865 9.59823E-05-2.91447E-05-2.86462E-05-6.47624E-07 3.50232E-19-2.44140E-19
 -1      3866 9.56571E-05-2.53032E-05-3.01535E-05 1.29538E-06 9.54007E-19-2.12407E-18
 -1      3867 9.53958E-05-2.45034E-05-3.03892E-05 1.76712E-06 9.83534E-19-2.19609E-18
 -1      3868 9.52595E-05-2.40291E-05-3.05251E-05 1.59226E-06 1.03508E-18-2.37990E-18
 -1      3869 9.57904E-05-2.54013E-05-3.01643E-05 1.02535E-06 9.33526E-19-2.14864E-18
 -1      3870 9.62727E-05-2.89826E-05-2.88392E-05-8.33484E-07 1.03501E-19-1.23914E-18
 -1      3871 9.63205E-05-2.88731E-05-2.89027E-05-7.90215E-07 3.14036E-19-1.32708E-18
 -1      3872 9.65184E-05-2.88048E-05-2.90217E-05-6.57598E-07 1.90775E-19-1.39575E-18
 -1      3873 8.79925E-05-3.40558E-05-2.30018E-05-2.28303E-05-1.38791E-18-6.80247E-19
 -1      3874 9.46839E-05-3.72966E-05-2.45470E-05-1.98957E-05-7.08100E-19-8.34473E-19
 -1      3875 9.62751E-05-2.65678E-05-2.98697E-05-3.34605E-07-6.44464E-19-1.75208E-18
 -1      3876 9.43195E-05-2.18102E-05-3.10599E-05-8.12227E-07-3.41687E-19-2.72294E-18
 -1      3877 9.60256E-05-2.91366E-05-2.86658E-05-8.00589E-07 4.24258E-19-8.04292E-19
 -1      3878 9.60812E-05-2.91278E-05-2.86930E-05-8.25339E-07 3.59871E-19-8.10145E-19
 -1      3879 9.61349E-05-2.91925E-05-2.86914E-05-7.05797E-07 4.08059E-19-9.13731E-19
 -1      3880 6.19753E-05-1.75696E-05-1.87255E-05-1.42180E-05-8.06005E-19-1.32647E-18
 -1      3881 6.95679E-05-2.15521E-05-2.05001E-05-1.73586E-05-4.71394E-19-6.54148E-19
 -1      3882 6.25889E-05-1.63594E-05-1.97219E-05-8.49246E-06-3.78875E-19-9.72076E-19
 -1      3883 9.51362E-05-2.35659E-05-3.06827E-05 8.30314E-07 4.68085E-19-2.16935E-18
 -1      3884 9.50798E-05-2.34028E-05-3.07250E-05 4.83420E-07 1.33629E-19-2.21119E-18
 -1      3885 9.55872E-05-2.43710E-05-3.05061E-05 2.51635E-07 1.70680E-19-2.15706E-18
 -1      3886 7.20211E-05-1.89337E-05-2.26652E-05 1.13892E-05 1.05517E-18 6.60434E-19
 -1      3887 6.78202E-05-1.74126E-05-2.15046E-05 8.78354E-06 1.46404E-18 4.06212E-19
 -1      3888 6.19241E-05-1.54227E-05-1.97282E-05 5.86394E-06 1.30108E-18 6.55921E-20
 -1      3889 7.06373E-05-1.70885E-05-2.30515E-05 6.16160E-06-1.93736E-19 1.22131E-18
 -1      3890 6.25628E-05-1.50798E-05-2.04171E-05 4.90489E-07 4.51581E-19 2.19964E-19
 -1      3891 9.56485E-05-2.89235E-05-2.85949E-05-5.98236E-07 1.24172E-19-3.74250E-19
 -1      3892 9.56947E-05-2.89751E-05-2.85944E-05-6.28025E-07 2.08747E-19-1.92255E-19
 -1      3893 9.56907E-05-2.89283E-05-2.86134E-05-5.37434E-07 3.38891E-19-1.41956E-19
 -1      3894 9.77733E-05-3.88588E-05-2.52772E-05-1.85847E-05-7.84796E-19-1.33531E-18
 -1      3895 1.00440E-04-3.91112E-05-2.62161E-05-1.53299E-05-6.37159E-19-1.31220E-18
 -1      3896 9.74418E-05-3.64094E-05-2.61145E-05-1.53509E-05-8.85510E-19-1.25501E-18
 -1      3897 9.17821E-05-3.39784E-05-2.48036E-05-1.82127E-05-6.04892E-19-9.87998E-19
 -1      3898 9.67870E-05-2.88130E-05-2.91295E-05 4.39945E-07-7.08017E-19-1.06875E-18
 -1      3899 9.67473E-05-2.89895E-05-2.90400E-05 4.97925E-07-5.64212E-19-1.08605E-18
 -1      3900 6.87133E-05-1.63019E-05-2.24172E-05-9.92443E-07-2.69664E-19 2.21294E-19
 -1      3901 6.46871E-05-1.55773E-05-2.09036E-05-4.01607E-06 1.50812E-20-3.75375E-19
 -1      3902 6.83930E-05-1.75295E-05-2.18271E-05-9.00371E-06-2.95290E-19-9.42020E-19
 -1      3903 9.66923E-05-2.91188E-05-2.89583E-05 5.13875E-07-4.52372E-19-1.05091E-18
 -1      3904 9.66246E-05-2.92072E-05-2.88932E-05 5.33762E-07-2.19752E-19-9.67686E-19
 -1      3905 9.68145E-05-2.90600E-05-2.90390E-05 3.88555E-07-3.45605E-19-8.30782E-19
 -1      3906 9.65420E-05-2.92597E-05-2.88339E-05 5.28810E-07-1.34035E-19-8.60507E-19
 -1      3907 9.64607E-05-2.92864E-05-2.87883E-05 5.25180E-07 2.97408E-20-9.72247E-19
 -1      3908 9.66770E-05-2.92573E-05-2.88959E-05 4.12832E-07-1.05415E-19-8.15365E-19
 -1      3909 9.63655E-05-2.92869E-05-2.87470E-05 5.09181E-07 1.29358E-19-9.20609E-19
 -1      3910 9.62800E-05-2.92718E-05-2.87168E-05 4.92750E-07-2.96741E-19-7.87250E-19
 -1      3911 9.64999E-05-2.93190E-05-2.87936E-05 4.04556E-07-3.89069E-20-7.76639E-19
 -1      3912 9.61804E-05-2.92366E-05-2.86896E-05 4.72077E-07-5.11839E-19-6.39531E-19
 -1      3913 9.60955E-05-2.91928E-05-2.86714E-05 4.51411E-07-3.97931E-19-6.36317E-19
 -1      3914 9.63065E-05-2.92886E-05-2.87238E-05 3.79645E-07-1.96382E-19-3.92362E-19
 -1      3915 9.59961E-05-2.91329E-05-2.86554E-05 4.31146E-07-3.55472E-19-8.01697E-19
 -1      3916 9.59133E-05-2.90684E-05-2.86466E-05 4.12566E-07-2.48463E-19-6.54483E-19
 -1      3917 9.61091E-05-2.91940E-05-2.86795E-05 3.48974E-07-2.88157E-19-4.19129E-19
 -1      3918 9.58155E-05-2.89905E-05-2.86394E-05 3.97075E-07-9.45997E-20-7.52297E-19
 -1      3919 9.57347E-05-2.89104E-05-2.86378E-05 3.85096E-07 6.82542E-20-4.94892E-19
 -1      3920 9.59134E-05-2.90535E-05-2.86555E-05 3.21309E-07-2.11448E-19-8.96926E-19
 -1      3921 9.56366E-05-2.88173E-05-2.86373E-05 3.76707E-07 2.72096E-20-7.79398E-19
 -1      3922 9.55552E-05-2.87227E-05-2.86414E-05 3.75086E-07-1.16724E-19-4.02587E-19
 -1      3923 9.57196E-05-2.88783E-05-2.86471E-05 3.03594E-07 1.67755E-19-7.92256E-19
 -1      3924 9.54533E-05-2.86146E-05-2.86461E-05 3.76314E-07-1.89031E-19-4.28704E-19
 -1      3925 9.53672E-05-2.85046E-05-2.86545E-05 3.88187E-07-2.92942E-19-1.69959E-19
 -1      3926 9.55219E-05-2.86711E-05-2.86507E-05 3.00002E-07-1.05478E-19-3.22540E-19
 -1      3927 9.52563E-05-2.83794E-05-2.86629E-05 4.01068E-07-3.10398E-19 2.16633E-19
 -1      3928 9.51601E-05-2.82514E-05-2.86745E-05 4.29201E-07 4.46251E-21 1.81162E-19
 -1      3929 9.53116E-05-2.84301E-05-2.86632E-05 3.15144E-07-1.80770E-19-2.15638E-21
 -1      3930 9.50333E-05-2.81053E-05-2.86853E-05 4.55495E-07-1.71564E-19 3.74590E-19
 -1      3931 9.49203E-05-2.79550E-05-2.86989E-05 5.02469E-07-8.01874E-20 2.61384E-19
 -1      3932 9.50768E-05-2.81498E-05-2.86819E-05 3.52340E-07-1.45289E-19 2.00335E-19
 -1      3933 9.47689E-05-2.77830E-05-2.87108E-05 5.43788E-07 2.21411E-19 2.75419E-19
 -1      3934 9.46308E-05-2.76053E-05-2.87251E-05 6.12006E-07 3.56201E-19 5.04857E-19
 -1      3935 9.48020E-05-2.78216E-05-2.87040E-05 4.14458E-07 1.07591E-19-7.47785E-20
 -1      3936 9.44448E-05-2.74015E-05-2.87361E-05 6.69679E-07 2.33796E-19 7.45808E-19
 -1      3937 9.42717E-05-2.71906E-05-2.87494E-05 7.61233E-07 3.16079E-19 9.63749E-19
 -1      3938 9.44688E-05-2.74347E-05-2.87260E-05 5.03729E-07 4.30520E-19 3.24119E-19
 -1      3939 9.40393E-05-2.69487E-05-2.87572E-05 8.36065E-07-2.75700E-19 7.19823E-19
 -1      3940 9.38194E-05-2.66986E-05-2.87670E-05 9.52457E-07-5.09399E-19 2.86662E-19
 -1      3941 9.40556E-05-2.69772E-05-2.87437E-05 6.21306E-07-2.52445E-19 1.17470E-19
 -1      3942 9.35269E-05-2.64126E-05-2.87683E-05 1.04436E-06-1.52892E-19 1.31450E-19
 -1      3943 9.32462E-05-2.61178E-05-2.87711E-05 1.18610E-06 1.07990E-19 3.45049E-20
 -1      3944 9.35373E-05-2.64373E-05-2.87514E-05 7.66596E-07-2.88653E-19 2.67634E-19
 -1      3945 9.28778E-05-2.57824E-05-2.87614E-05 1.29363E-06 3.42782E-19-1.66212E-19
 -1      3946 9.25200E-05-2.54387E-05-2.87521E-05 1.45981E-06 9.45385E-20 1.96842E-19
 -1      3947 9.28849E-05-2.58046E-05-2.87411E-05 9.36318E-07 8.21518E-20 1.48484E-19
 -1      3948 9.20575E-05-2.50504E-05-2.87249E-05 1.57964E-06-3.84690E-19 3.87158E-19
 -1      3949 9.16034E-05-2.46557E-05-2.86964E-05 1.76758E-06-4.61271E-19 2.44140E-19
 -1      3950 9.20649E-05-2.50714E-05-2.87015E-05 1.12340E-06 3.19423E-20-3.35525E-20
 -1      3951 9.10257E-05-2.42141E-05-2.86428E-05 1.89423E-06-6.92903E-19-1.53143E-19
 -1      3952 9.04527E-05-2.37696E-05-2.85850E-05 2.09965E-06-1.00728E-18 2.12903E-19
 -1      3953 9.10389E-05-2.42348E-05-2.86173E-05 1.31595E-06-4.80464E-19 4.92317E-21
 -1      3954 8.97341E-05-2.32780E-05-2.84927E-05 2.22563E-06-7.98652E-19 4.33119E-19
 -1      3955 8.90156E-05-2.27902E-05-2.83915E-05 2.44388E-06-6.10252E-20 8.47935E-19
 -1      3956 8.97613E-05-2.32985E-05-2.84671E-05 1.49671E-06-5.42730E-19-2.39006E-19
 -1      3957 8.81236E-05-2.22567E-05-2.82434E-05 2.56098E-06 1.83231E-20 5.55848E-19
 -1      3958 8.72274E-05-2.17380E-05-2.80792E-05 2.79049E-06 1.85412E-19 5.35597E-19
 -1      3959 8.81759E-05-2.22738E-05-2.82215E-05 1.64388E-06-2.06557E-19 4.17338E-19
 -1      3960 8.61164E-05-2.11757E-05-2.78516E-05 2.89331E-06 1.92304E-19 2.34222E-19
 -1      3961 8.50015E-05-2.06457E-05-2.75971E-05 3.14279E-06 1.23635E-19-4.39165E-20
 -1      3962 8.62079E-05-2.11789E-05-2.78399E-05 1.73463E-06 5.58971E-20 1.38404E-20
 -1      3963 8.36027E-05-2.00714E-05-2.72561E-05 3.23584E-06-1.72020E-19 7.67493E-20
 -1      3964 8.22128E-05-1.95578E-05-2.68728E-05 3.53770E-06-7.41879E-19 8.71656E-20
 -1      3965 8.37485E-05-2.00356E-05-2.72649E-05 1.75364E-06-8.75149E-20 3.37084E-20
 -1      3966 8.04155E-05-1.89869E-05-2.63689E-05 3.64254E-06-9.16107E-19 2.05019E-19
 -1      3967 7.86706E-05-1.85161E-05-2.58006E-05 4.07023E-06-7.90515E-19 8.00164E-19
 -1      3968 8.06305E-05-1.88645E-05-2.64135E-05 1.70682E-06-3.40966E-19 6.88676E-19
 -1      3969 7.62881E-05-1.79765E-05-2.50551E-05 4.28516E-06-1.13606E-18 1.04787E-18
 -1      3970 7.41310E-05-1.75880E-05-2.42205E-05 4.94703E-06-8.02187E-19 1.22206E-18
 -1      3971 7.65381E-05-1.76342E-05-2.51594E-05 1.63356E-06-5.93598E-19 7.25146E-19
 -1      3972 9.47844E-05-2.77819E-05-2.87142E-05-7.03683E-07 6.47356E-19-9.31190E-19
 -1      3973 9.48892E-05-2.79295E-05-2.86995E-05-6.25915E-07 1.22561E-19-1.20190E-18
 -1      3974 9.50176E-05-2.80776E-05-2.86875E-05-5.72762E-07-1.47302E-19-1.25764E-18
 -1      3975 9.51069E-05-2.82060E-05-2.86737E-05-5.21620E-07-3.75672E-19-1.23507E-18
 -1      3976 9.49079E-05-2.79508E-05-2.86945E-05-5.13081E-07-1.25543E-19-8.01017E-19
 -1      3977 9.45058E-05-2.74427E-05-2.87402E-05-8.91190E-07 3.99870E-19-3.88645E-19
 -1      3978 9.46310E-05-2.76113E-05-2.87260E-05-7.82273E-07 8.37763E-19-5.71258E-19
 -1      3979 9.46288E-05-2.76163E-05-2.87176E-05-6.38081E-07 1.69886E-19-1.05050E-19
 -1      3980 9.41703E-05-2.70574E-05-2.87614E-05-1.14544E-06 1.43176E-19-4.53269E-19
 -1      3981 9.43204E-05-2.72475E-05-2.87496E-05-1.00025E-06 5.43999E-19-2.90317E-19
 -1      3982 9.42931E-05-2.72318E-05-2.87376E-05-8.15384E-07 3.20210E-19-3.27001E-19
 -1      3983 9.37680E-05-2.66284E-05-2.87726E-05-1.47844E-06-6.46992E-19-1.09835E-18
 -1      3984 9.39461E-05-2.68376E-05-2.87658E-05-1.29113E-06-1.10400E-19-1.06782E-18
 -1      3985 9.38870E-05-2.67948E-05-2.87500E-05-1.05572E-06 2.05440E-19-6.96318E-19
 -1      3986 9.32929E-05-2.61663E-05-2.87665E-05-1.90452E-06-1.38985E-18-8.04754E-19
 -1      3987 9.34994E-05-2.63874E-05-2.87684E-05-1.66841E-06-1.43982E-18-1.17362E-18
 -1      3988 9.33979E-05-2.63078E-05-2.87481E-05-1.37250E-06-8.49931E-19-7.88143E-19
 -1      3989 9.27463E-05-2.56937E-05-2.87340E-05-2.44110E-06-1.15181E-18-3.43124E-19
 -1      3990 9.29770E-05-2.59128E-05-2.87491E-05-2.14841E-06-1.21827E-18-3.39884E-19
 -1      3991 9.28171E-05-2.57821E-05-2.87235E-05-1.78277E-06-1.82554E-18-7.75353E-19
 -1      3992 9.21412E-05-2.52508E-05-2.86632E-05-3.10994E-06-5.62163E-19-3.00508E-19
 -1      3993 9.23845E-05-2.54442E-05-2.86972E-05-2.75134E-06-7.56478E-19-2.10997E-19
 -1      3994 9.21425E-05-2.52416E-05-2.86652E-05-2.30877E-06-9.04721E-19-4.40189E-20
 -1      3995 9.15093E-05-2.49021E-05-2.85396E-05-3.93908E-06 1.33151E-19-5.38937E-19
 -1      3996 9.17417E-05-2.50326E-05-2.85995E-05-3.50295E-06-3.91922E-19-8.07974E-19
 -1      3997 9.13830E-05-2.47283E-05-2.85591E-05-2.98024E-06-5.18992E-19-1.08034E-18
 -1      3998 9.09103E-05-2.47444E-05-2.83470E-05-4.96559E-06-7.69234E-19-1.14702E-19
 -1      3999 9.10911E-05-2.47568E-05-2.84402E-05-4.43710E-06-2.61254E-19-1.03385E-19
 -1      4000 9.05640E-05-2.43080E-05-2.83881E-05-3.83796E-06-6.26584E-19-5.59580E-19
 -1      4001 9.04460E-05-2.49167E-05-2.80687E-05-6.23848E-06-2.10671E-19 9.56934E-19
 -1      4002 9.05080E-05-2.47323E-05-2.82020E-05-5.59901E-06-5.44634E-19 7.16317E-19
 -1      4003 8.97365E-05-2.40792E-05-2.81325E-05-4.93889E-06-7.55975E-19 1.53065E-19
 -1      4004 9.02833E-05-2.56146E-05-2.76911E-05-7.81966E-06-1.43368E-19 8.13421E-19
 -1      4005 9.01185E-05-2.51229E-05-2.78681E-05-7.04897E-06-2.60665E-20 8.55950E-19
 -1      4006 8.89888E-05-2.41819E-05-2.77707E-05-6.36298E-06-1.83299E-19 9.52681E-19
 -1      4007 9.06823E-05-2.71158E-05-2.72097E-05-9.78151E-06-5.17319E-19 6.60070E-19
 -1      4008 9.01302E-05-2.61605E-05-2.74268E-05-8.86597E-06-3.62212E-19 4.18366E-19
 -1      4009 8.84649E-05-2.48122E-05-2.72819E-05-8.22425E-06 2.92819E-19 8.17001E-19
 -1      4010 9.20069E-05-2.97597E-05-2.66425E-05-1.21296E-05-9.04099E-19-6.09004E-19
 -1      4011 9.08941E-05-2.81649E-05-2.68826E-05-1.10785E-05-3.70502E-19 2.08027E-19
 -1      4012 8.84756E-05-2.63039E-05-2.66509E-05-1.06902E-05-1.78449E-19 6.35194E-19
 -1      4013 9.52491E-05-3.38933E-05-2.62406E-05-1.42918E-05-7.04681E-19-1.35849E-18
 -1      4014 9.32102E-05-3.14894E-05-2.64350E-05-1.33210E-05-1.09354E-18-1.31022E-18
 -1      4015 8.96671E-05-2.89170E-05-2.60749E-05-1.32489E-05-4.24455E-19-5.34981E-19
 -1      4016 9.27871E-05-3.29901E-05-2.56581E-05-1.58544E-05-8.97147E-19-1.48654E-18
 -1      4017 9.55777E-05-2.43553E-05-3.05081E-05-2.45573E-07-2.27194E-19-2.24314E-18
 -1      4018 9.50742E-05-2.34087E-05-3.07256E-05-4.61709E-07-2.48577E-19-2.39173E-18
 -1      4019 9.61554E-05-2.91062E-05-2.87351E-05-8.43379E-07 1.31950E-19-9.13677E-19
 -1      4020 9.62102E-05-2.90565E-05-2.87779E-05-8.43397E-07 1.31160E-19-1.13662E-18
 -1      4021 9.62851E-05-2.91746E-05-2.87636E-05-7.44265E-07 2.59171E-19-1.01874E-18
 -1      4022 8.10643E-05-2.91094E-05-2.22850E-05-2.11684E-05-4.21267E-19-5.40427E-19
 -1      4023 9.62202E-05-2.61171E-05-3.00337E-05-4.35438E-07-3.56567E-19-2.09887E-18
 -1      4024 9.64277E-05-2.68260E-05-2.98370E-05-1.57645E-07-3.13753E-19-1.84638E-18
 -1      4025 9.52175E-05-2.83346E-05-2.86629E-05-4.89752E-07-2.66139E-19-7.44552E-19
 -1      4026 9.52962E-05-2.84463E-05-2.86513E-05-4.61209E-07 3.65249E-19-9.18312E-19
 -1      4027 9.51445E-05-2.82409E-05-2.86723E-05-4.31640E-07 8.68956E-20-4.10216E-19
 -1      4028 9.52411E-05-2.39123E-05-3.05777E-05 1.36783E-06 8.29943E-19-2.22239E-18
 -1      4029 9.51371E-05-2.35996E-05-3.06627E-05 1.07843E-06 6.15529E-19-2.13709E-18
 -1      4030 9.55992E-05-2.44904E-05-3.04615E-05 7.13907E-07 5.70888E-19-1.92593E-18
 -1      4031 9.55685E-05-2.46406E-05-3.03900E-05 1.11422E-06 8.67715E-19-2.18358E-18
 -1      4032 7.09009E-05-1.64278E-05-2.32331E-05 2.52859E-06-6.75271E-19 1.32221E-18
 -1      4033 9.55605E-05-2.87537E-05-2.86302E-05-4.38074E-07 8.08802E-19-7.05728E-19
 -1      4034 9.56310E-05-2.88382E-05-2.86261E-05-4.43756E-07 7.35913E-19-3.49225E-19
 -1      4035 9.65926E-05-2.77677E-05-2.95012E-05-1.72259E-07 4.14798E-19-1.52265E-18
 -1      4036 9.65017E-05-2.72840E-05-2.96609E-05 6.04443E-08 3.47979E-19-1.53167E-18
 -1      4037 9.66861E-05-2.84808E-05-2.92339E-05-4.42999E-07 8.21536E-20-1.46841E-18
 -1      4038 9.66752E-05-2.81713E-05-2.93553E-05-3.01941E-07 3.50629E-19-1.46761E-18
 -1      4039 9.67159E-05-2.78824E-05-2.94992E-05-1.68927E-07 3.15412E-19-1.35249E-18
 -1      4040 9.67821E-05-2.82739E-05-2.93582E-05 2.78116E-07-7.05774E-19-1.25447E-18
 -1      4041 9.67926E-05-2.85748E-05-2.92386E-05 3.91917E-07-7.96148E-19-1.16482E-18
 -1      4042 9.68763E-05-2.86693E-05-2.92321E-05 3.12833E-07-6.64630E-19-1.22066E-18
 -1      4043 9.53951E-05-2.85584E-05-2.86431E-05-4.47120E-07 6.10801E-19-7.54428E-19
 -1      4044 9.54678E-05-2.86558E-05-2.86347E-05-4.37484E-07 5.85254E-19-6.66782E-19
 -1      4045 9.53517E-05-2.84927E-05-2.86537E-05-3.86465E-07 5.32914E-19-1.53009E-19
 -1      4046 9.48628E-05-2.29800E-05-3.08062E-05-8.47877E-07-4.52398E-19-2.58926E-18
 -1      4047 9.66148E-05-2.74114E-05-2.96563E-05-5.96874E-09-5.16810E-19-1.60552E-18
 -1      4048 9.67070E-05-2.78823E-05-2.95003E-05 1.84803E-07-6.84731E-19-1.37783E-18
 -1      4049 9.65452E-05-2.69838E-05-2.98106E-05-8.87567E-08-2.52681E-19-2.07868E-18
 -1      4050 8.71598E-05-3.01053E-05-2.44344E-05-1.76345E-05-6.03470E-19-1.13804E-19
 -1      4051 9.03251E-05-3.16096E-05-2.51190E-05-1.64569E-05-6.06418E-19-7.71650E-19
 -1      4052 8.84113E-05-2.93314E-05-2.53280E-05-1.51529E-05-2.78134E-19-2.93993E-19
 -1      4053 9.58338E-05-2.90526E-05-2.86218E-05-5.87220E-07 3.00301E-19 1.16571E-19
 -1      4054 9.59289E-05-2.51982E-05-3.03191E-05-6.85288E-08-7.61158E-20-2.04863E-18
 -1      4055 9.59439E-05-2.52642E-05-3.02991E-05-2.88934E-07-2.62102E-19-2.10301E-18
 -1      4056 9.64201E-05-2.90600E-05-2.88705E-05-7.38641E-07 1.17703E-19-1.30866E-18
 -1      4057 9.63220E-05-2.67712E-05-2.98145E-05 2.42979E-07 4.06365E-19-1.78128E-18
 -1      4058 9.61563E-05-2.61948E-05-2.99792E-05 5.53740E-07 5.29654E-19-1.94834E-18
 -1      4059 9.64571E-05-2.69080E-05-2.98033E-05 1.48300E-07 2.68988E-19-1.68695E-18
 -1      4060 9.58431E-05-2.51927E-05-3.02787E-05-6.17575E-07-4.00239E-19-2.26408E-18
 -1      4061 9.54751E-05-2.41951E-05-3.05321E-05-7.53517E-07-4.24955E-19-2.39047E-18
 -1      4062 9.55414E-05-2.87119E-05-2.86416E-05-3.71242E-07 7.82668E-19-4.05729E-19
 -1      4063 9.66513E-05-2.89131E-05-2.90320E-05-5.84854E-07 2.14775E-19-1.45239E-18
 -1      4064 9.66873E-05-2.87285E-05-2.91222E-05-5.12280E-07 1.32230E-19-1.49769E-18
 -1      4065 9.67959E-05-2.85738E-05-2.92386E-05-3.77218E-07 1.53069E-19-1.05997E-18
 -1      4066 9.62229E-05-2.92401E-05-2.87059E-05-5.93640E-07 2.62121E-19-6.79730E-19
 -1      4067 9.63007E-05-2.92482E-05-2.87357E-05-6.13432E-07 3.30414E-19-6.45291E-19
 -1      4068 9.57230E-05-2.89014E-05-2.86386E-05-3.80040E-07 8.86986E-19-2.71843E-19
 -1      4069 9.57218E-05-2.89229E-05-2.86268E-05-4.55863E-07 4.80382E-19-1.07923E-19
 -1      4070 9.57931E-05-2.89946E-05-2.86281E-05-4.73031E-07 5.62338E-19 1.71362E-19
 -1      4071 9.60522E-05-2.91748E-05-2.86605E-05-5.43188E-07 1.09281E-19-2.73559E-19
 -1      4072 9.61288E-05-2.92113E-05-2.86783E-05-5.68898E-07 8.49141E-20-4.39999E-19
 -1      4073 9.62737E-05-2.92690E-05-2.87181E-05-4.84396E-07-6.68338E-20-5.32487E-19
 -1      4074 9.59571E-05-2.52762E-05-3.02955E-05 2.81877E-07 2.82163E-19-1.83492E-18
 -1      4075 9.59282E-05-2.51984E-05-3.03189E-05 8.02837E-08 6.56952E-21-2.08736E-18
 -1      4076 9.62785E-05-2.59730E-05-3.01228E-05-9.38236E-09-9.50235E-20-1.94548E-18
 -1      4077 9.68108E-05-2.80088E-05-2.94857E-05 1.63097E-07-6.33152E-19-1.59669E-18
 -1      4078 7.18534E-05-1.69379E-05-2.36131E-05-1.51039E-06-9.11179E-19 4.95852E-19
 -1      4079 7.10560E-05-2.04605E-05-2.17587E-05-1.39382E-05-3.35769E-19-9.22062E-19
 -1      4080 7.42827E-05-2.37593E-05-2.15498E-05-1.85604E-05-2.61561E-19-5.02079E-19
 -1      4081 8.20637E-05-2.73616E-05-2.33704E-05-1.78134E-05-6.01873E-19-5.09915E-19
 -1      4082 7.22295E-05-1.92475E-05-2.27005E-05-1.01929E-05-3.24831E-19-1.17975E-18
 -1      4083 8.05668E-05-2.52034E-05-2.37819E-05-1.56244E-05-4.15839E-19-1.89074E-19
 -1      4084 7.78249E-05-2.21649E-05-2.37441E-05-1.31108E-05 3.11814E-20-1.04677E-18
 -1      4085 8.25043E-05-2.48206E-05-2.47261E-05-1.33423E-05-4.58437E-19 4.33793E-19
 -1      4086 9.69126E-05-2.90052E-05-2.91021E-05 2.51223E-07-3.26023E-19-8.86080E-19
 -1      4087 9.68601E-05-2.91488E-05-2.90184E-05 2.85018E-07-7.26151E-20-6.13703E-19
 -1      4088 9.67877E-05-2.92497E-05-2.89439E-05 2.78774E-07-1.53880E-19-7.75803E-19
 -1      4089 9.67048E-05-2.93103E-05-2.88828E-05 2.89785E-07-4.90749E-20-7.04696E-19
 -1      4090 9.68687E-05-2.92038E-05-2.90019E-05 1.55965E-07-2.41638E-19-9.48719E-19
 -1      4091 9.66109E-05-2.93404E-05-2.88291E-05 2.83690E-07-1.04254E-20-7.07056E-19
 -1      4092 9.65178E-05-2.93468E-05-2.87863E-05 2.82302E-07-1.49142E-19-7.27286E-19
 -1      4093 9.66957E-05-2.93346E-05-2.88715E-05 1.60833E-07-6.59357E-20-9.60191E-19
 -1      4094 9.64122E-05-2.93290E-05-2.87491E-05 2.67702E-07-2.86472E-20-7.21284E-19
 -1      4095 9.63133E-05-2.92952E-05-2.87207E-05 2.60633E-07-1.08524E-19-4.66989E-19
 -1      4096 9.65053E-05-2.93569E-05-2.87810E-05 1.51077E-07-4.94606E-20-1.15936E-18
 -1      4097 9.62051E-05-2.92447E-05-2.86967E-05 2.47172E-07-5.37806E-19-5.27052E-19
 -1      4098 9.61048E-05-2.91833E-05-2.86797E-05 2.37611E-07-6.04756E-19-8.82573E-19
 -1      4099 9.62931E-05-2.92875E-05-2.87192E-05 1.42911E-07-2.82220E-19-8.26477E-19
 -1      4100 9.59980E-05-2.91091E-05-2.86662E-05 2.29322E-07-1.13485E-19-7.45943E-19
 -1      4101 9.59010E-05-2.90290E-05-2.86582E-05 2.22213E-07 2.45197E-19-5.38811E-19
 -1      4102 9.60752E-05-2.91583E-05-2.86806E-05 1.33043E-07-3.39560E-19-5.94882E-19
 -1      4103 9.57935E-05-2.89373E-05-2.86527E-05 2.13548E-07 2.71022E-19-5.39836E-19
 -1      4104 9.56958E-05-2.88400E-05-2.86515E-05 2.11257E-07 1.49576E-19-3.03593E-19
 -1      4105 9.58680E-05-2.89944E-05-2.86617E-05 1.22517E-07 1.01697E-19-5.29730E-19
 -1      4106 9.55860E-05-2.87317E-05-2.86522E-05 2.07729E-07 1.33236E-19-2.46813E-20
 -1      4107 9.54844E-05-2.86181E-05-2.86563E-05 2.12232E-07 1.12503E-19 2.27255E-19
 -1      4108 9.56525E-05-2.87897E-05-2.86564E-05 1.19185E-07 2.35305E-19-7.85787E-19
 -1      4109 9.53677E-05-2.84928E-05-2.86614E-05 2.13715E-07-7.87808E-20 2.15954E-19
 -1      4110 9.52571E-05-2.83612E-05-2.86693E-05 2.26620E-07-4.48475E-20 3.10293E-19
 -1      4111 9.54295E-05-2.85511E-05-2.86620E-05 1.21844E-07 2.64480E-19-2.10427E-19
 -1      4112 9.51269E-05-2.82158E-05-2.86775E-05 2.33622E-07-2.08352E-19 6.30586E-19
 -1      4113 9.50005E-05-2.80624E-05-2.86877E-05 2.56224E-07-1.19837E-19 5.58901E-19
 -1      4114 9.51866E-05-2.82747E-05-2.86750E-05 1.31353E-07-8.34148E-20 3.99587E-20
 -1      4115 9.48487E-05-2.78926E-05-2.86974E-05 2.69073E-07-1.12739E-19 5.81655E-19
 -1      4116 9.46979E-05-2.77127E-05-2.87084E-05 3.02290E-07 1.98621E-19 3.00913E-19
 -1      4117 9.49093E-05-2.79530E-05-2.86924E-05 1.48200E-07 7.34475E-20 5.46627E-19
 -1      4118 9.45150E-05-2.75132E-05-2.87177E-05 3.20937E-07 4.83433E-19-4.19085E-20
 -1      4119 9.43297E-05-2.73011E-05-2.87277E-05 3.65114E-07 3.29294E-19-3.19983E-19
 -1      4120 9.45803E-05-2.75767E-05-2.87108E-05 1.71960E-07 1.06503E-19-1.47724E-21
 -1      4121 9.41049E-05-2.70661E-05-2.87343E-05 3.88903E-07 1.21788E-19-2.78805E-19
 -1      4122 9.38732E-05-2.68161E-05-2.87407E-05 4.43500E-07-2.73701E-19-1.36950E-19
 -1      4123 9.41795E-05-2.71350E-05-2.87260E-05 2.00901E-07 2.12462E-19-1.16267E-18
 -1      4124 9.35941E-05-2.65402E-05-2.87416E-05 4.70803E-07-4.15542E-19 4.54881E-19
 -1      4125 9.33021E-05-2.62469E-05-2.87411E-05 5.33937E-07-3.25721E-19 1.30535E-19
 -1      4126 9.36836E-05-2.66171E-05-2.87325E-05 2.31316E-07-4.86672E-21-1.61215E-19
 -1      4127 9.29552E-05-2.59257E-05-2.87321E-05 5.61638E-07-3.50410E-19 2.01342E-19
 -1      4128 9.25870E-05-2.55850E-05-2.87199E-05 6.29493E-07 1.16084E-19-1.90345E-20
 -1      4129 9.30668E-05-2.60139E-05-2.87232E-05 2.56541E-07-3.59751E-19-2.58090E-19
 -1      4130 9.21572E-05-2.52160E-05-2.86953E-05 6.52323E-07 1.38591E-19-6.72495E-19
 -1      4131 9.16943E-05-2.48257E-05-2.86649E-05 7.18474E-07-1.42800E-19-8.36232E-19
 -1      4132 9.23005E-05-2.53193E-05-2.86881E-05 2.65632E-07-5.96239E-19-2.15302E-19
 -1      4133 9.11651E-05-2.44092E-05-2.86171E-05 7.28222E-07-3.13166E-19-9.10546E-19
 -1      4134 9.05858E-05-2.39704E-05-2.85594E-05 7.83008E-07-6.06673E-19-7.70199E-19
 -1      4135 9.13532E-05-2.45325E-05-2.86138E-05 2.41687E-07-4.11093E-19-8.00554E-19
 -1      4136 8.99385E-05-2.35107E-05-2.84778E-05 7.67658E-07-6.90100E-19-1.06062E-18
 -1      4137 8.92162E-05-2.30280E-05-2.83804E-05 7.97843E-07-7.12224E-19-1.02844E-18
 -1      4138 9.01895E-05-2.36597E-05-2.84821E-05 1.59829E-07-5.16573E-19-2.11242E-18
 -1      4139 8.84281E-05-2.25339E-05-2.82510E-05 7.40713E-07-4.83405E-19-6.88625E-19
 -1      4140 8.75290E-05-2.20157E-05-2.80968E-05 7.29803E-07 2.58395E-19-4.30889E-19
 -1      4141 8.87685E-05-2.27153E-05-2.82686E-05-1.51910E-08-3.44132E-19-1.74414E-18
 -1      4142 8.65699E-05-2.14999E-05-2.79003E-05 6.08695E-07-3.10011E-20-4.18790E-19
 -1      4143 8.54458E-05-2.09574E-05-2.76657E-05 5.38549E-07 1.46799E-19-3.17334E-19
 -1      4144 8.70381E-05-2.17221E-05-2.79403E-05-3.32014E-07 1.19576E-19-9.40149E-19
 -1      4145 8.42695E-05-2.04343E-05-2.73754E-05 3.24897E-07-2.83620E-22-2.21673E-19
 -1      4146 8.28473E-05-1.98777E-05-2.70267E-05 1.79561E-07-3.63459E-19 9.31447E-21
 -1      4147 8.49251E-05-2.07081E-05-2.74519E-05-8.57451E-07-2.20956E-19-6.68651E-20
 -1      4148 8.13745E-05-1.93555E-05-2.66039E-05-1.59442E-07-7.24006E-19 1.93195E-19
 -1      4149 7.95432E-05-1.87928E-05-2.60914E-05-3.89420E-07-4.61003E-19 2.50320E-19
 -1      4150 8.23085E-05-1.96978E-05-2.67395E-05-1.68603E-06-6.97874E-19-1.48476E-19
 -1      4151 7.76563E-05-1.82884E-05-2.54789E-05-8.83427E-07-3.07776E-19-6.69908E-19
 -1      4152 7.53305E-05-1.76977E-05-2.47363E-05-1.20224E-06-6.18359E-19-6.71803E-19
 -1      4153 7.89495E-05-1.87053E-05-2.57074E-05-2.96128E-06-1.21416E-18-1.59941E-18
 -1      4154 9.41035E-05-2.70507E-05-2.87371E-05-6.91683E-07 6.50502E-19-2.35212E-20
 -1      4155 9.42897E-05-2.72640E-05-2.87289E-05-5.97208E-07 5.57521E-19 1.97588E-19
 -1      4156 9.36351E-05-2.65696E-05-2.87426E-05-9.04030E-07-7.11278E-20-2.22328E-19
 -1      4157 9.38601E-05-2.68114E-05-2.87399E-05-7.78593E-07 3.16767E-19-2.28211E-19
 -1      4158 9.38860E-05-2.68269E-05-2.87316E-05-5.42433E-07 6.91031E-19 4.97243E-19
 -1      4159 9.57965E-05-2.52979E-05-3.02193E-05 8.53780E-07 7.37531E-19-1.99000E-18
 -1      4160 9.30686E-05-2.60312E-05-2.87304E-05-1.18630E-06-1.08041E-18-3.59484E-19
 -1      4161 9.33377E-05-2.62991E-05-2.87371E-05-1.02313E-06-3.56712E-19-2.17939E-19
 -1      4162 9.33501E-05-2.62934E-05-2.87278E-05-7.21821E-07-1.50611E-19 4.66427E-19
 -1      4163 9.23923E-05-2.54462E-05-2.86909E-05-1.55700E-06-1.74754E-18-5.51298E-19
 -1      4164 9.27082E-05-2.57329E-05-2.87118E-05-1.34728E-06-1.38183E-18-5.30548E-19
 -1      4165 9.26987E-05-2.56944E-05-2.87019E-05-9.66275E-07-1.03892E-18 2.16024E-19
 -1      4166 9.15999E-05-2.48376E-05-2.86113E-05-2.04125E-06-9.81710E-19-5.60633E-19
 -1      4167 9.19611E-05-2.51288E-05-2.86528E-05-1.77319E-06-1.79396E-18-8.70778E-19
 -1      4168 9.19155E-05-2.50397E-05-2.86428E-05-1.29712E-06-1.33180E-18-7.43409E-19
 -1      4169 9.06950E-05-2.42459E-05-2.84754E-05-2.67377E-06 1.13974E-19-7.27203E-19
 -1      4170 9.10927E-05-2.45175E-05-2.85455E-05-2.33115E-06-7.64299E-20-3.40885E-19
 -1      4171 9.09881E-05-2.43511E-05-2.85354E-05-1.74430E-06-7.49757E-19-5.98573E-19
 -1      4172 8.96951E-05-2.37343E-05-2.82634E-05-3.50341E-06-4.84579E-19-4.56692E-19
 -1      4173 9.01100E-05-2.39493E-05-2.83717E-05-3.06340E-06-5.83895E-20-7.39859E-19
 -1      4174 8.99105E-05-2.36661E-05-2.83608E-05-2.35040E-06 1.47196E-19-5.92039E-19
 -1      4175 8.86386E-05-2.33956E-05-2.79512E-05-4.59958E-06-1.20189E-18-7.26995E-19
 -1      4176 8.90356E-05-2.35002E-05-2.81089E-05-4.02975E-06-1.04084E-18-8.79216E-19
 -1      4177 8.86853E-05-2.30423E-05-2.80950E-05-3.17644E-06-8.12559E-19-1.54960E-18
 -1      4178 8.75942E-05-2.33609E-05-2.75115E-05-6.06129E-06 1.16432E-19-6.29724E-19
 -1      4179 8.79147E-05-2.32791E-05-2.77303E-05-5.31555E-06-7.45620E-19-7.72279E-19
 -1      4180 8.73273E-05-2.25629E-05-2.77081E-05-4.31062E-06-8.51382E-19-2.17833E-18
 -1      4181 8.66710E-05-2.38124E-05-2.69141E-05-8.03232E-06 4.05161E-20 2.34177E-19
 -1      4182 8.68256E-05-2.34378E-05-2.72057E-05-7.04067E-06 2.54976E-19-1.25960E-19
 -1      4183 8.58691E-05-2.23438E-05-2.71634E-05-5.87950E-06-8.94182E-20-2.53767E-18
 -1      4184 8.59866E-05-2.50649E-05-2.61238E-05-1.08013E-05 1.81435E-19 7.57482E-19
 -1      4185 8.58561E-05-2.41500E-05-2.65001E-05-9.37587E-06 2.53953E-19 1.17888E-18
 -1      4186 8.43737E-05-2.25434E-05-2.64175E-05-8.05241E-06-4.52436E-19-2.65972E-19
 -1      4187 9.65408E-05-2.91463E-05-2.88835E-05-6.36625E-07-7.55552E-22-1.24549E-18
 -1      4188 9.66027E-05-2.90505E-05-2.89487E-05-6.10965E-07 6.24215E-20-1.36683E-18
 -1      4189 9.67472E-05-2.89890E-05-2.90406E-05-4.84778E-07 2.03942E-20-1.45234E-18
 -1      4190 9.58848E-05-2.90652E-05-2.86356E-05-4.93916E-07 2.00591E-19 4.98606E-19
 -1      4191 9.59585E-05-2.91215E-05-2.86442E-05-5.18078E-07 2.20000E-19 4.84746E-19
 -1      4192 9.60874E-05-2.91881E-05-2.86727E-05-4.44510E-07-1.23131E-19-9.50893E-20
 -1      4193 9.63902E-05-2.92408E-05-2.87778E-05-6.31724E-07 2.24515E-19-9.61717E-19
 -1      4194 9.64639E-05-2.92061E-05-2.88231E-05-6.35214E-07 1.45890E-19-1.08436E-18
 -1      4195 9.64563E-05-2.92853E-05-2.87895E-05-5.15745E-07 1.18286E-20-7.14385E-19
 -1      4196 9.50752E-05-2.81544E-05-2.86798E-05-3.50493E-07 3.08850E-19 1.53689E-20
 -1      4197 9.51862E-05-2.82935E-05-2.86696E-05-3.20650E-07 5.77574E-19 5.35611E-19
 -1      4198 9.69444E-05-2.85453E-05-2.93131E-05 1.81938E-07-4.51257E-19-1.26610E-18
 -1      4199 9.69427E-05-2.88050E-05-2.92018E-05 2.46988E-07-3.64171E-19-1.01187E-18
 -1      4200 9.69676E-05-2.88947E-05-2.91771E-05 1.33911E-07-6.85833E-20-8.79912E-19
 -1      4201 9.59906E-05-2.54728E-05-3.02334E-05-3.75349E-07-2.69027E-19-2.31757E-18
 -1      4202 9.68272E-05-2.77870E-05-2.95880E-05 5.86816E-08-3.77693E-19-1.77593E-18
 -1      4203 9.69052E-05-2.82075E-05-2.94430E-05 1.61312E-07-5.38071E-19-1.55500E-18
 -1      4204 9.69556E-05-2.83409E-05-2.94078E-05 8.80817E-08-2.04955E-19-1.44657E-18
 -1      4205 9.55166E-05-2.86659E-05-2.86494E-05-2.88602E-07 4.54468E-19 4.08599E-19
 -1      4206 9.56096E-05-2.87706E-05-2.86456E-05-2.85221E-07 7.29162E-19 1.84854E-19
 -1      4207 9.48075E-05-2.78383E-05-2.87008E-05-4.24383E-07-2.45222E-19 1.80373E-19
 -1      4208 9.49365E-05-2.79989E-05-2.86895E-05-3.76825E-07-1.91200E-19 1.09728E-19
 -1      4209 9.49850E-05-2.80453E-05-2.86864E-05-2.60929E-07 8.18886E-20 9.93183E-19
 -1      4210 9.68248E-05-2.80762E-05-2.94679E-05-1.91839E-07 1.12495E-19-1.26274E-18
 -1      4211 9.67412E-05-2.76314E-05-2.96168E-05-5.21757E-08 5.84494E-20-1.50443E-18
 -1      4212 7.45058E-05-1.93196E-05-2.37297E-05-8.53995E-06-7.33196E-20-1.28284E-18
 -1      4213 9.53071E-05-2.84281E-05-2.86617E-05-3.07059E-07 4.84900E-19 3.15389E-19
 -1      4214 9.54064E-05-2.85488E-05-2.86541E-05-2.91844E-07 6.19660E-19 1.38105E-19
 -1      4215 9.52419E-05-2.83455E-05-2.86692E-05-2.24299E-07 5.56547E-19 4.12037E-19
 -1      4216 9.63086E-05-2.61506E-05-3.00601E-05-1.70948E-07-1.23396E-19-2.09561E-18
 -1      4217 9.65251E-05-2.67554E-05-2.99017E-05-1.20862E-07-6.13530E-20-2.11367E-18
 -1      4218 9.67096E-05-2.73657E-05-2.97203E-05 2.55895E-08-2.78834E-19-1.97354E-18
 -1      4219 9.67924E-05-2.75587E-05-2.96707E-05 2.18340E-08-2.11514E-19-1.85229E-18
 -1      4220 9.64802E-05-2.65733E-05-2.99604E-05-6.48811E-08-1.03125E-19-1.93333E-18
 -1      4221 9.44889E-05-2.74725E-05-2.87213E-05-5.35348E-07 5.80311E-20 2.64913E-19
 -1      4222 9.46430E-05-2.76581E-05-2.87105E-05-4.66491E-07 1.00707E-19 4.64552E-19
 -1      4223 9.43246E-05-2.72936E-05-2.87219E-05-4.12772E-07 3.29842E-19 9.32568E-19
 -1      4224 7.39760E-05-1.76426E-05-2.40231E-05-4.43205E-06-3.94616E-19-2.14048E-18
 -1      4225 7.77057E-05-1.99643E-05-2.48325E-05-7.47637E-06-3.45841E-19-1.65445E-18
 -1      4226 9.59476E-05-2.54940E-05-3.01946E-05 6.23946E-07 6.06396E-19-1.82054E-18
 -1      4227 9.59772E-05-2.54837E-05-3.02179E-05 4.49828E-07 4.45314E-19-1.83464E-18
 -1      4228 9.56836E-05-2.88304E-05-2.86528E-05-2.04566E-07 4.46783E-19-6.56445E-20
 -1      4229 9.57147E-05-2.88723E-05-2.86456E-05-2.90449E-07 8.82770E-19-6.02321E-19
 -1      4230 9.58060E-05-2.89619E-05-2.86472E-05-2.96307E-07 8.14222E-19-4.08837E-19
 -1      4231 8.42405E-05-2.48574E-05-2.54897E-05-1.18637E-05-1.07504E-19 4.45739E-19
 -1      4232 8.18350E-05-2.23853E-05-2.53433E-05-1.02685E-05-2.23249E-19 3.42684E-20
 -1      4233 9.66215E-05-2.92055E-05-2.88943E-05-5.22360E-07 1.04091E-19-9.73792E-19
 -1      4234 8.74118E-05-2.75702E-05-2.55901E-05-1.37380E-05-7.93705E-20 4.42597E-19
 -1      4235 9.59038E-05-2.90621E-05-2.86477E-05-4.06730E-07 4.75381E-19 3.49247E-19
 -1      4236 9.64983E-05-2.93253E-05-2.87881E-05-3.94054E-07-2.61581E-19-2.13626E-19
 -1      4237 9.65873E-05-2.93100E-05-2.88322E-05-3.97802E-07-7.35303E-20-4.14222E-19
 -1      4238 9.66845E-05-2.72706E-05-2.97474E-05 1.29953E-08-4.57413E-20-1.41777E-18
 -1      4239 9.65792E-05-2.70846E-05-2.97889E-05 4.56411E-08 1.82114E-19-1.77872E-18
 -1      4240 9.64066E-05-2.65254E-05-2.99444E-05 2.29526E-07 2.22671E-19-1.68270E-18
 -1      4241 9.64955E-05-2.65857E-05-2.99632E-05 1.48111E-08-1.40840E-19-1.88347E-18
 -1      4242 9.46849E-05-2.76974E-05-2.87052E-05-3.21683E-07-4.14161E-19 1.08048E-18
 -1      4243 9.63993E-05-2.93145E-05-2.87491E-05-3.77615E-07 4.07504E-20-3.03843E-19
 -1      4244 9.65093E-05-2.93470E-05-2.87859E-05-2.71866E-07-1.36833E-19-6.81694E-19
 -1      4245 9.63043E-05-2.92885E-05-2.87199E-05-3.66576E-07 8.51776E-21-4.96576E-19
 -1      4246 9.68840E-05-2.87120E-05-2.92184E-05-3.26127E-07 1.57253E-19-1.19873E-18
 -1      4247 9.68860E-05-2.84349E-05-2.93331E-05-2.39115E-07 2.74149E-19-1.14501E-18
 -1      4248 9.69042E-05-2.82049E-05-2.94434E-05-1.41427E-07 1.11176E-19-1.16878E-18
 -1      4249 9.54705E-05-2.86053E-05-2.86570E-05-2.06906E-07 6.24112E-19 5.19284E-19
 -1      4250 7.97687E-05-2.05455E-05-2.54709E-05-6.89051E-06-9.63474E-19-1.11982E-18
 -1      4251 9.67740E-05-2.93314E-05-2.89025E-05 3.30775E-08-3.19561E-19-1.13850E-18
 -1      4252 9.66813E-05-2.93688E-05-2.88467E-05 3.21086E-08-2.91041E-20-1.22413E-18
 -1      4253 9.65332E-05-2.93601E-05-2.87869E-05-5.53462E-08 2.48222E-20-1.30794E-18
 -1      4254 9.64292E-05-2.93390E-05-2.87508E-05-5.15322E-08-8.73980E-20-1.29077E-18
 -1      4255 9.61479E-05-2.92028E-05-2.86895E-05 3.01945E-08-1.87263E-19-8.74348E-19
 -1      4256 9.60410E-05-2.91303E-05-2.86748E-05 2.57269E-08-7.13932E-20-6.67022E-19
 -1      4257 9.58923E-05-2.90129E-05-2.86619E-05-4.24473E-08-1.43821E-19-6.42071E-19
 -1      4258 9.57857E-05-2.89177E-05-2.86568E-05-4.11538E-08 5.51117E-21-8.44926E-19
 -1      4259 9.56797E-05-2.88142E-05-2.86559E-05-4.16081E-08 2.83537E-19-5.55550E-19
 -1      4260 9.55680E-05-2.87021E-05-2.86564E-05-4.02841E-08 5.47552E-19-4.89918E-19
 -1      4261 9.54561E-05-2.85820E-05-2.86603E-05-4.52949E-08 4.49496E-19-4.89388E-19
 -1      4262 9.53369E-05-2.84520E-05-2.86652E-05-4.28137E-08 4.09175E-19-1.61899E-19
 -1      4263 9.52139E-05-2.83136E-05-2.86724E-05-5.41827E-08 2.33323E-19 2.20435E-19
 -1      4264 9.50807E-05-2.81628E-05-2.86802E-05-5.03655E-08 1.93554E-19 5.67431E-19
 -1      4265 9.49396E-05-2.80027E-05-2.86892E-05-7.00323E-08-1.00523E-19 5.35050E-19
 -1      4266 9.47842E-05-2.78267E-05-2.86982E-05-6.52569E-08-1.50946E-19 5.78779E-19
 -1      4267 9.46168E-05-2.76408E-05-2.87072E-05-9.56138E-08-2.95524E-19 4.64533E-19
 -1      4268 9.44296E-05-2.74346E-05-2.87156E-05-9.08780E-08-2.18173E-19-1.40068E-19
 -1      4269 9.42266E-05-2.72186E-05-2.87224E-05-1.35094E-07 2.32012E-19 8.64247E-20
 -1      4270 9.39966E-05-2.69770E-05-2.87278E-05-1.32289E-07 6.26248E-19-8.34265E-20
 -1      4271 9.37481E-05-2.67273E-05-2.87296E-05-1.94705E-07 4.81945E-19 4.01198E-19
 -1      4272 9.34629E-05-2.64459E-05-2.87288E-05-1.97039E-07 5.48864E-20 8.10478E-19
 -1      4273 9.31586E-05-2.61605E-05-2.87220E-05-2.83706E-07-5.40323E-19 5.45554E-19
 -1      4274 9.28047E-05-2.58363E-05-2.87106E-05-2.96296E-07-7.85186E-19 3.34657E-19
 -1      4275 9.24346E-05-2.55162E-05-2.86902E-05-4.15730E-07-1.08637E-18 3.90394E-19
 -1      4276 9.19968E-05-2.51489E-05-2.86625E-05-4.46385E-07-1.11848E-18 3.04118E-19
 -1      4277 9.15519E-05-2.47995E-05-2.86219E-05-6.10657E-07-1.07627E-18 2.77393E-19
 -1      4278 9.10139E-05-2.43924E-05-2.85701E-05-6.70873E-07-6.65615E-19-5.05346E-19
 -1      4279 9.04867E-05-2.40251E-05-2.85007E-05-8.97187E-07-6.01098E-19-7.73038E-19
 -1      4280 8.98297E-05-2.35863E-05-2.84143E-05-1.00340E-06-3.48747E-19-9.24928E-19
 -1      4281 8.92154E-05-2.32203E-05-2.83050E-05-1.31642E-06 2.05836E-19-1.07244E-18
 -1      4282 8.84169E-05-2.27635E-05-2.81700E-05-1.49165E-06 8.03635E-20-8.94153E-19
 -1      4283 8.77138E-05-2.24276E-05-2.80067E-05-1.92691E-06-4.72091E-19-1.52697E-18
 -1      4284 8.67438E-05-2.19718E-05-2.78041E-05-2.20323E-06-4.04311E-19-1.75549E-18
 -1      4285 8.59544E-05-2.17063E-05-2.75690E-05-2.81212E-06-1.30769E-19-1.83706E-18
 -1      4286 8.47691E-05-2.12753E-05-2.72730E-05-3.23547E-06-1.39863E-19-1.78862E-18
 -1      4287 8.39043E-05-2.11360E-05-2.69439E-05-4.09149E-06-6.23018E-19-1.47025E-18
 -1      4288 8.24354E-05-2.07558E-05-2.65182E-05-4.73552E-06-9.58320E-19-1.46196E-18
 -1      4289 8.15328E-05-2.08164E-05-2.60675E-05-5.92892E-06-1.30225E-18-6.10375E-19
 -1      4290 9.68182E-05-2.90858E-05-2.90286E-05-3.89990E-07-1.22871E-19-1.13833E-18
 -1      4291 9.68693E-05-2.89285E-05-2.91148E-05-3.45272E-07-2.43773E-20-1.21697E-18
 -1      4292 9.69379E-05-2.88051E-05-2.92029E-05-2.30865E-07 2.30180E-19-1.13268E-18
 -1      4293 9.66779E-05-2.92699E-05-2.88884E-05-4.04114E-07 4.56724E-20-8.09045E-19
 -1      4294 9.67568E-05-2.91989E-05-2.89512E-05-3.89121E-07-6.52300E-20-1.12608E-18
 -1      4295 9.66953E-05-2.93058E-05-2.88827E-05-2.76384E-07-2.31250E-19-7.11743E-19
 -1      4296 9.69914E-05-2.88653E-05-2.91960E-05-5.83773E-08 8.50847E-20-1.20677E-18
 -1      4297 9.69576E-05-2.90580E-05-2.90966E-05-4.28938E-08 4.71591E-20-9.79408E-19
 -1      4298 9.61049E-05-2.91893E-05-2.86768E-05-3.33731E-07-2.62422E-19-4.28055E-19
 -1      4299 9.61999E-05-2.92439E-05-2.86944E-05-3.47469E-07-1.56596E-19-6.74173E-19
 -1      4300 9.63059E-05-2.92945E-05-2.87226E-05-2.53069E-07 5.26242E-22-1.14194E-18
 -1      4301 9.60876E-05-2.56397E-05-3.01928E-05 2.83307E-07 3.32011E-19-1.69657E-18
 -1      4302 9.63956E-05-2.63514E-05-3.00175E-05 1.07332E-07 4.58683E-20-1.64455E-18
 -1      4303 9.59085E-05-2.90482E-05-2.86536E-05-3.07444E-07 6.19768E-19-6.48084E-19
 -1      4304 9.60004E-05-2.91218E-05-2.86621E-05-3.20066E-07 1.31495E-19-7.35172E-19
 -1      4305 9.60938E-05-2.91756E-05-2.86806E-05-2.28176E-07 1.62448E-20-1.43843E-18
 -1      4306 9.58901E-05-2.90217E-05-2.86587E-05-2.13689E-07 2.87314E-19-1.37041E-18
 -1      4307 9.68977E-05-2.91909E-05-2.90161E-05-6.16921E-08-2.45995E-19-1.07804E-18
 -1      4308 9.68191E-05-2.92838E-05-2.89419E-05-5.35717E-08-4.17980E-19-1.11116E-18
 -1      4309 9.69644E-05-2.82908E-05-2.94323E-05-4.99285E-08 3.25219E-20-1.46695E-18
 -1      4310 9.70015E-05-2.86203E-05-2.93030E-05-2.45409E-08 7.01463E-20-1.24382E-18
 -1      4311 9.66318E-05-2.70324E-05-2.98289E-05 5.27960E-08-6.77624E-20-1.57411E-18
 -1      4312 9.65220E-05-2.66967E-05-2.99246E-05 5.08359E-08-6.72992E-20-1.56417E-18
 -1      4313 9.68003E-05-2.75945E-05-2.96609E-05-3.75811E-08-4.90455E-20-1.41598E-18
 -1      4314 9.63246E-05-2.92988E-05-2.87237E-05-4.95175E-08-9.49056E-20-1.11981E-18
 -1      4315 9.62137E-05-2.92443E-05-2.86998E-05-4.86046E-08-1.42971E-19-8.77854E-19
 -1      4316 9.68553E-05-2.91507E-05-2.90199E-05-2.72833E-07-1.67973E-19-1.02314E-18
 -1      4317 9.67262E-05-2.72442E-05-2.97757E-05-1.82632E-08-6.49196E-20-1.73408E-18
 -1      4318 9.68903E-05-2.78841E-05-2.95711E-05-8.03347E-09-8.86613E-20-1.58669E-18
 -1      4319 9.68425E-05-2.76747E-05-2.96449E-05 7.95806E-09-6.36943E-20-1.65793E-18
 -1      4320 9.67619E-05-2.93137E-05-2.89082E-05-1.90213E-07-3.60522E-19-1.09334E-18
 -1      4321 9.59374E-05-2.90533E-05-2.86656E-05-1.43199E-07 1.59633E-20-1.09853E-18
 -1      4322 9.66625E-05-2.93462E-05-2.88490E-05-1.88269E-07-3.07049E-19-8.53034E-19
 -1      4323 9.61497E-05-2.92106E-05-2.86895E-05-1.59067E-07 2.16080E-20-1.04505E-18
 -1      4324 9.65666E-05-2.93529E-05-2.88076E-05-1.80172E-07-2.05797E-19-9.67618E-19
 -1      4325 9.60387E-05-2.91338E-05-2.86732E-05-1.50772E-07 1.01591E-19-1.47144E-18
 -3
    1PSTEP                         4           1           1          
  100CL  101 1.000000000        4325                     0    1           1
 -4  ERROR       1    1
 -5  STR(%)      1    1    0    0
 -1         1 1.25852E+01
 -1         2 2.48219E+01
 -1         3 6.90668E-02
 -1         4 2.22071E-01
 -1         5 1.40393E+01
 -1         6 1.31434E+01
 -1         7 1.31434E+01
 -1         8 3.66391E+00
 -1         9 1.82687E+00
 -1        10 1.29023E+00
 -1        11 1.04373E+00
 -1        12 8.99978E-01
 -1        13 8.08892E-01
 -1        14 7.53937E-01
 -1        15 7.55919E-01
 -1        16 8.13193E-01
 -1        17 9.00857E-01
 -1        18 1.05261E+00
 -1        19 1.30778E+00
 -1        20 1.83578E+00
 -1        21 3.50551E+00
 -1        22 8.64148E+00
 -1        23 1.31434E+01
 -1        24 4.31803E+00
 -1        25 3.34120E+00
 -1        26 2.11148E+00
 -1        27 1.36269E+00
 -1        28 1.01400E+00
 -1        29 7.75220E-01
 -1        30 5.95574E-01
 -1        31 4.55542E-01
 -1        32 3.48280E-01
 -1        33 2.69785E-01
 -1        34 2.06910E-01
 -1        35 1.57625E-01
 -1        36 1.19988E-01
 -1        37 9.22370E-02
 -1        38 7.28271E-02
 -1        39 6.04372E-02
 -1        40 5.53021E-02
 -1        41 6.34497E-02
 -1        42 7.59509E-02
 -1        43 9.22121E-02
 -1        44 1.17034E-01
 -1        45 1.59515E-01
 -1        46 2.15524E-01
 -1        47 2.87120E-01
 -1        48 3.75833E-01
 -1        49 4.81759E-01
 -1        50 6.02022E-01
 -1        51 7.28382E-01
 -1        52 9.51725E-01
 -1        53 1.22421E+00
 -1        54 1.54526E+00
 -1        55 1.90128E+00
 -1        56 2.12727E+00
 -1        57 2.12727E+00
 -1        58 2.18769E+00
 -1        59 2.36547E+00
 -1        60 3.48165E+00
 -1        61 6.03185E+00
 -1        62 6.65856E+00
 -1        63 6.65856E+00
 -1        64 6.38517E+00
 -1        65 4.56893E+00
 -1        66 2.16478E+00
 -1        67 1.26389E+00
 -1        68 1.26389E+00
 -1        69 1.28160E+00
 -1        70 1.28160E+00
 -1        71 1.08538E+00
 -1        72 1.40393E+01
 -1        73 3.39475E+00
 -1        74 2.41317E+00
 -1        75 1.66598E+00
 -1        76 1.14490E+00
 -1        77 9.05913E-01
 -1        78 7.31291E-01
 -1        79 5.87915E-01
 -1        80 4.68493E-01
 -1        81 3.69218E-01
 -1        82 2.95191E-01
 -1        83 2.33832E-01
 -1        84 1.83446E-01
 -1        85 1.43300E-01
 -1        86 1.12476E-01
 -1        87 9.00321E-02
 -1        88 7.50961E-02
 -1        89 6.71776E-02
 -1        90 7.55857E-02
 -1        91 8.96507E-02
 -1        92 1.08771E-01
 -1        93 1.32025E-01
 -1        94 1.57897E-01
 -1        95 1.89638E-01
 -1        96 2.40066E-01
 -1        97 2.95022E-01
 -1        98 3.49549E-01
 -1        99 3.95413E-01
 -1       100 4.20269E-01
 -1       101 4.37281E-01
 -1       102 5.80052E-01
 -1       103 7.10727E-01
 -1       104 7.86623E-01
 -1       105 1.03943E+00
 -1       106 1.22052E+00
 -1       107 1.32129E+00
 -1       108 1.63286E+00
 -1       109 1.90138E+00
 -1       110 2.74177E+00
 -1       111 3.07167E+00
 -1       112 3.22506E+00
 -1       113 3.22506E+00
 -1       114 3.01849E+00
 -1       115 2.24606E+00
 -1       116 1.45375E+00
 -1       117 7.76431E-01
 -1       118 3.43009E-01
 -1       119 2.17694E-01
 -1       120 1.50496E-01
 -1       121 1.06609E-01
 -1       122 2.33236E-01
 -1       123 3.42055E-01
 -1       124 4.20575E-01
 -1       125 4.20575E-01
 -1       126 4.12095E-01
 -1       127 2.46554E-01
 -1       128 5.59790E-01
 -1       129 7.80326E-01
 -1       130 7.80326E-01
 -1       131 6.65369E-01
 -1       132 3.02645E-01
 -1       133 3.76101E-01
 -1       134 4.72625E-01
 -1       135 7.10963E-01
 -1       136 7.88808E-01
 -1       137 2.48219E+01
 -1       138 4.59469E+01
 -1       139 4.59469E+01
 -1       140 1.87863E+01
 -1       141 1.20747E+01
 -1       142 1.25327E+01
 -1       143 1.28760E+01
 -1       144 1.28760E+01
 -1       145 1.22661E+01
 -1       146 1.56407E+01
 -1       147 4.07777E+01
 -1       148 4.07777E+01
 -1       149 2.54949E+01
 -1       150 2.54949E+01
 -1       151 2.49799E+01
 -1       152 2.70595E+01
 -1       153 3.23976E+01
 -1       154 3.23976E+01
 -1       155 1.40549E+01
 -1       156 1.36395E+01
 -1       157 1.36395E+01
 -1       158 1.22068E+01
 -1       159 1.25852E+01
 -1       160 2.15956E+01
 -1       161 4.86655E+01
 -1       162 4.86655E+01
 -1       163 2.45146E+01
 -1       164 6.07816E+00
 -1       165 2.30089E+00
 -1       166 1.50593E+00
 -1       167 1.15829E+00
 -1       168 9.72058E-01
 -1       169 8.64417E-01
 -1       170 7.96076E-01
 -1       171 7.55919E-01
 -1       172 7.99522E-01
 -1       173 8.67272E-01
 -1       174 9.81026E-01
 -1       175 1.17250E+00
 -1       176 1.52758E+00
 -1       177 2.26082E+00
 -1       178 3.93117E+00
 -1       179 1.40393E+01
 -1       180 4.31803E+00
 -1       181 3.34120E+00
 -1       182 2.11148E+00
 -1       183 1.44746E+00
 -1       184 1.02568E+00
 -1       185 7.75220E-01
 -1       186 5.95574E-01
 -1       187 4.68367E-01
 -1       188 3.68550E-01
 -1       189 2.90786E-01
 -1       190 2.34422E-01
 -1       191 1.86767E-01
 -1       192 1.47658E-01
 -1       193 1.16468E-01
 -1       194 9.23417E-02
 -1       195 7.43291E-02
 -1       196 6.14525E-02
 -1       197 5.53021E-02
 -1       198 6.34497E-02
 -1       199 7.59509E-02
 -1       200 9.72177E-02
 -1       201 1.29281E-01
 -1       202 1.71422E-01
 -1       203 2.25078E-01
 -1       204 2.91321E-01
 -1       205 3.93298E-01
 -1       206 5.39400E-01
 -1       207 7.17814E-01
 -1       208 9.23243E-01
 -1       209 1.13911E+00
 -1       210 1.33116E+00
 -1       211 1.55810E+00
 -1       212 1.90128E+00
 -1       213 2.12727E+00
 -1       214 2.07211E+00
 -1       215 2.18769E+00
 -1       216 2.36547E+00
 -1       217 3.67512E+00
 -1       218 6.03185E+00
 -1       219 6.65856E+00
 -1       220 6.38517E+00
 -1       221 4.56893E+00
 -1       222 2.77129E+00
 -1       223 1.47059E+00
 -1       224 1.26389E+00
 -1       225 1.20918E+00
 -1       226 1.28160E+00
 -1       227 1.08538E+00
 -1       228 3.39475E+00
 -1       229 2.41317E+00
 -1       230 1.66598E+00
 -1       231 1.14490E+00
 -1       232 9.05913E-01
 -1       233 7.31291E-01
 -1       234 5.87915E-01
 -1       235 4.68493E-01
 -1       236 3.69218E-01
 -1       237 2.95191E-01
 -1       238 2.33832E-01
 -1       239 1.86139E-01
 -1       240 1.47758E-01
 -1       241 1.17350E-01
 -1       242 9.42878E-02
 -1       243 7.78761E-02
 -1       244 6.74243E-02
 -1       245 6.95006E-02
 -1       246 7.84348E-02
 -1       247 9.12674E-02
 -1       248 1.08771E-01
 -1       249 1.33126E-01
 -1       250 1.69387E-01
 -1       251 2.10875E-01
 -1       252 2.55222E-01
 -1       253 2.98158E-01
 -1       254 3.49549E-01
 -1       255 3.95413E-01
 -1       256 4.20269E-01
 -1       257 4.91373E-01
 -1       258 5.80052E-01
 -1       259 7.10727E-01
 -1       260 7.86623E-01
 -1       261 1.03943E+00
 -1       262 1.22052E+00
 -1       263 1.32129E+00
 -1       264 1.63286E+00
 -1       265 2.04952E+00
 -1       266 2.74177E+00
 -1       267 3.07167E+00
 -1       268 3.22506E+00
 -1       269 3.01849E+00
 -1       270 2.24606E+00
 -1       271 1.50013E+00
 -1       272 9.11756E-01
 -1       273 4.57497E-01
 -1       274 2.88482E-01
 -1       275 1.94685E-01
 -1       276 3.39548E-01
 -1       277 5.38065E-01
 -1       278 7.41720E-01
 -1       279 7.87615E-01
 -1       280 7.87615E-01
 -1       281 7.45559E-01
 -1       282 8.75111E-01
 -1       283 1.49124E+00
 -1       284 1.55346E+00
 -1       285 1.55346E+00
 -1       286 1.13666E+00
 -1       287 6.48130E-01
 -1       288 8.07668E-01
 -1       289 8.07668E-01
 -1       290 8.36335E-01
 -1       291 2.89260E+01
 -1       292 2.74450E+01
 -1       293 4.59469E+01
 -1       294 1.94108E+01
 -1       295 1.08911E+01
 -1       296 1.20747E+01
 -1       297 1.25327E+01
 -1       298 1.28760E+01
 -1       299 1.22661E+01
 -1       300 1.17442E+01
 -1       301 1.56407E+01
 -1       302 4.07777E+01
 -1       303 3.58889E+01
 -1       304 2.75629E+01
 -1       305 2.75629E+01
 -1       306 2.49799E+01
 -1       307 3.23329E+01
 -1       308 3.23976E+01
 -1       309 1.40549E+01
 -1       310 1.21505E+01
 -1       311 1.36395E+01
 -1       312 1.18214E+01
 -1       313 1.22068E+01
 -1       314 1.25852E+01
 -1       315 1.15332E+01
 -1       316 2.34632E+01
 -1       317 4.86655E+01
 -1       318 2.96710E+01
 -1       319 2.89260E+01
 -1       320 1.07037E+00
 -1       321 2.47958E+00
 -1       322 7.88814E-01
 -1       323 6.95066E-01
 -1       324 6.31939E-01
 -1       325 5.87665E-01
 -1       326 5.90903E-01
 -1       327 6.34561E-01
 -1       328 7.01259E-01
 -1       329 7.96430E-01
 -1       330 9.31860E-01
 -1       331 1.16016E+00
 -1       332 1.32913E+00
 -1       333 2.20077E+00
 -1       334 1.91429E+00
 -1       335 1.72976E+00
 -1       336 1.26756E+00
 -1       337 9.07305E-01
 -1       338 6.56255E-01
 -1       339 5.38699E-01
 -1       340 4.41735E-01
 -1       341 3.56373E-01
 -1       342 2.91154E-01
 -1       343 2.36223E-01
 -1       344 1.89185E-01
 -1       345 1.53628E-01
 -1       346 1.24683E-01
 -1       347 1.00470E-01
 -1       348 8.06898E-02
 -1       349 6.47673E-02
 -1       350 5.28994E-02
 -1       351 5.18655E-02
 -1       352 5.75601E-02
 -1       353 7.37597E-02
 -1       354 9.72177E-02
 -1       355 1.30666E-01
 -1       356 1.90230E-01
 -1       357 2.68820E-01
 -1       358 3.70453E-01
 -1       359 4.98581E-01
 -1       360 6.54777E-01
 -1       361 8.36436E-01
 -1       362 1.03319E+00
 -1       363 1.22214E+00
 -1       364 1.36845E+00
 -1       365 1.53255E+00
 -1       366 1.64446E+00
 -1       367 1.64641E+00
 -1       368 1.54370E+00
 -1       369 1.80930E+00
 -1       370 2.39583E+00
 -1       371 3.25537E+00
 -1       372 4.20862E+00
 -1       373 4.27322E+00
 -1       374 3.51773E+00
 -1       375 2.83321E+00
 -1       376 2.32545E+00
 -1       377 1.78193E+00
 -1       378 1.42405E+00
 -1       379 1.01949E+00
 -1       380 1.14035E+00
 -1       381 1.13050E+00
 -1       382 8.91393E-01
 -1       383 7.03975E-01
 -1       384 5.45260E-01
 -1       385 4.37919E-01
 -1       386 3.71517E-01
 -1       387 3.07915E-01
 -1       388 2.52562E-01
 -1       389 2.07477E-01
 -1       390 1.68077E-01
 -1       391 1.34839E-01
 -1       392 1.08193E-01
 -1       393 8.79445E-02
 -1       394 7.30760E-02
 -1       395 6.31577E-02
 -1       396 5.91270E-02
 -1       397 6.22633E-02
 -1       398 6.95040E-02
 -1       399 8.82034E-02
 -1       400 1.12012E-01
 -1       401 1.44675E-01
 -1       402 1.99317E-01
 -1       403 2.64509E-01
 -1       404 3.38196E-01
 -1       405 4.15387E-01
 -1       406 4.86986E-01
 -1       407 5.50911E-01
 -1       408 5.99853E-01
 -1       409 5.99853E-01
 -1       410 5.94548E-01
 -1       411 5.01546E-01
 -1       412 5.28909E-01
 -1       413 6.99324E-01
 -1       414 1.18753E+00
 -1       415 1.71130E+00
 -1       416 2.00234E+00
 -1       417 2.00234E+00
 -1       418 1.99588E+00
 -1       419 1.94888E+00
 -1       420 1.95386E+00
 -1       421 1.73326E+00
 -1       422 1.35034E+00
 -1       423 1.07107E+00
 -1       424 8.09555E-01
 -1       425 5.20050E-01
 -1       426 2.34619E-01
 -1       427 1.00054E+00
 -1       428 9.13169E-01
 -1       429 5.20050E-01
 -1       430 1.12118E+00
 -1       431 1.12118E+00
 -1       432 1.28139E+00
 -1       433 2.08188E+00
 -1       434 2.47858E+00
 -1       435 2.47858E+00
 -1       436 2.33619E+00
 -1       437 1.30851E+00
 -1       438 1.09312E+00
 -1       439 1.14035E+00
 -1       440 2.74450E+01
 -1       441 2.94109E+01
 -1       442 2.94109E+01
 -1       443 1.49615E+01
 -1       444 8.30699E+00
 -1       445 9.12991E-01
 -1       446 9.54297E+00
 -1       447 1.07898E+01
 -1       448 1.03597E+01
 -1       449 9.04137E+00
 -1       450 7.44401E+00
 -1       451 1.39890E+01
 -1       452 2.42264E+01
 -1       453 2.06133E+01
 -1       454 3.19072E+01
 -1       455 3.19072E+01
 -1       456 2.58791E+01
 -1       457 2.19518E+01
 -1       458 1.28107E+01
 -1       459 7.29569E+00
 -1       460 8.35226E+00
 -1       461 1.13876E+01
 -1       462 1.14700E+01
 -1       463 1.02670E+01
 -1       464 7.00258E+00
 -1       465 9.62149E+00
 -1       466 1.72646E+01
 -1       467 2.96710E+01
 -1       468 2.84575E+01
 -1       469 7.70966E+00
 -1       470 3.74801E+00
 -1       471 1.46001E+01
 -1       472 9.13134E+00
 -1       473 2.37153E+01
 -1       474 1.04786E+00
 -1       475 4.86556E-01
 -1       476 5.10983E-01
 -1       477 4.31684E-01
 -1       478 4.57580E-01
 -1       479 4.87128E-01
 -1       480 5.11162E-01
 -1       481 5.11162E-01
 -1       482 6.09062E-01
 -1       483 8.91393E-01
 -1       484 8.03080E-01
 -1       485 4.37402E+00
 -1       486 7.02488E-01
 -1       487 5.89056E-01
 -1       488 4.76783E-01
 -1       489 3.78265E-01
 -1       490 3.23432E-01
 -1       491 2.73601E-01
 -1       492 2.26548E-01
 -1       493 1.88000E-01
 -1       494 1.54601E-01
 -1       495 1.25539E-01
 -1       496 1.01018E-01
 -1       497 8.07758E-02
 -1       498 6.47673E-02
 -1       499 5.20682E-02
 -1       500 4.43297E-02
 -1       501 4.57319E-02
 -1       502 5.63315E-02
 -1       503 7.71113E-02
 -1       504 1.16115E-01
 -1       505 1.67101E-01
 -1       506 2.33312E-01
 -1       507 3.18291E-01
 -1       508 4.25630E-01
 -1       509 5.58475E-01
 -1       510 7.18578E-01
 -1       511 9.04714E-01
 -1       512 1.11019E+00
 -1       513 1.31936E+00
 -1       514 1.50343E+00
 -1       515 1.70244E+00
 -1       516 2.07005E+00
 -1       517 2.43675E+00
 -1       518 2.76947E+00
 -1       519 3.32010E+00
 -1       520 3.28707E+00
 -1       521 4.61632E+00
 -1       522 7.67485E+00
 -1       523 6.90292E+00
 -1       524 4.00495E+00
 -1       525 3.63245E+00
 -1       526 2.90209E+00
 -1       527 2.01712E+00
 -1       528 1.42405E+00
 -1       529 1.87215E+01
 -1       530 5.45260E-01
 -1       531 4.37919E-01
 -1       532 3.71517E-01
 -1       533 3.07915E-01
 -1       534 2.52562E-01
 -1       535 2.08083E-01
 -1       536 1.69192E-01
 -1       537 1.36058E-01
 -1       538 1.09978E-01
 -1       539 8.89248E-02
 -1       540 7.10671E-02
 -1       541 5.59330E-02
 -1       542 4.73249E-02
 -1       543 4.59173E-02
 -1       544 5.54437E-02
 -1       545 6.94120E-02
 -1       546 9.51321E-02
 -1       547 1.34880E-01
 -1       548 1.83605E-01
 -1       549 2.41474E-01
 -1       550 3.07275E-01
 -1       551 3.77646E-01
 -1       552 4.46165E-01
 -1       553 5.06619E-01
 -1       554 5.60860E-01
 -1       555 5.99853E-01
 -1       556 6.01279E-01
 -1       557 5.55824E-01
 -1       558 6.01189E-01
 -1       559 6.67970E-01
 -1       560 9.83237E-01
 -1       561 1.43912E+00
 -1       562 1.71591E+00
 -1       563 2.00234E+00
 -1       564 1.99588E+00
 -1       565 1.96146E+00
 -1       566 1.94888E+00
 -1       567 1.79492E+00
 -1       568 1.60769E+00
 -1       569 1.44507E+00
 -1       570 1.18313E+00
 -1       571 1.17670E+00
 -1       572 1.64806E+00
 -1       573 2.03791E+00
 -1       574 1.17670E+00
 -1       575 1.27422E+00
 -1       576 2.56123E+00
 -1       577 3.78892E+00
 -1       578 3.96408E+00
 -1       579 3.96408E+00
 -1       580 2.83466E+00
 -1       581 2.21025E+00
 -1       582 1.56526E+00
 -1       583 2.20988E+01
 -1       584 7.03975E-01
 -1       585 2.94109E+01
 -1       586 1.00779E+01
 -1       587 2.84575E+01
 -1       588 8.76892E-01
 -1       589 4.57487E-01
 -1       590 8.52719E+00
 -1       591 7.93788E+00
 -1       592 6.20061E+00
 -1       593 1.51280E+01
 -1       594 7.45706E+00
 -1       595 1.18843E+01
 -1       596 1.82313E+01
 -1       597 3.19072E+01
 -1       598 6.15872E+00
 -1       599 2.58791E+01
 -1       600 1.19408E+01
 -1       601 5.75161E+00
 -1       602 3.77722E+00
 -1       603 8.22134E+00
 -1       604 7.29564E+00
 -1       605 4.94146E+00
 -1       606 8.53436E+00
 -1       607 1.25947E+01
 -1       608 5.50292E+00
 -1       609 1.32812E+00
 -1       610 5.10983E-01
 -1       611 4.14824E+00
 -1       612 1.20775E+01
 -1       613 1.13902E+01
 -1       614 1.14035E+00
 -1       615 4.00495E+00
 -1       616 4.63817E-01
 -1       617 1.86539E+01
 -1       618 2.24525E+01
 -1       619 4.04513E+00
 -1       620 6.47969E+00
 -1       621 3.58543E-01
 -1       622 3.42919E-01
 -1       623 3.61987E-01
 -1       624 3.38021E-01
 -1       625 5.43987E-01
 -1       626 1.47105E+01
 -1       627 4.75014E+00
 -1       628 3.96977E-01
 -1       629 3.84288E-01
 -1       630 3.43583E-01
 -1       631 2.94117E-01
 -1       632 2.44589E-01
 -1       633 2.13266E-01
 -1       634 1.80862E-01
 -1       635 1.49895E-01
 -1       636 1.21856E-01
 -1       637 9.91312E-02
 -1       638 8.03023E-02
 -1       639 6.39509E-02
 -1       640 5.06028E-02
 -1       641 3.90041E-02
 -1       642 3.10950E-02
 -1       643 3.71914E-02
 -1       644 5.91694E-02
 -1       645 9.08589E-02
 -1       646 1.31267E-01
 -1       647 1.82912E-01
 -1       648 2.48697E-01
 -1       649 3.31976E-01
 -1       650 4.36666E-01
 -1       651 5.67468E-01
 -1       652 7.32518E-01
 -1       653 9.42614E-01
 -1       654 1.19629E+00
 -1       655 1.49886E+00
 -1       656 1.87746E+00
 -1       657 2.29212E+00
 -1       658 2.87815E+00
 -1       659 3.97663E+00
 -1       660 5.43517E+00
 -1       661 4.63175E+00
 -1       662 3.42284E+00
 -1       663 2.01712E+00
 -1       664 3.96781E-01
 -1       665 2.34256E-01
 -1       666 1.97318E-01
 -1       667 1.63182E-01
 -1       668 1.35251E-01
 -1       669 1.10455E-01
 -1       670 8.89824E-02
 -1       671 7.10671E-02
 -1       672 5.59330E-02
 -1       673 4.42716E-02
 -1       674 3.45397E-02
 -1       675 4.04529E-02
 -1       676 5.14766E-02
 -1       677 7.94565E-02
 -1       678 1.14006E-01
 -1       679 1.56334E-01
 -1       680 2.07264E-01
 -1       681 2.66900E-01
 -1       682 3.34135E-01
 -1       683 4.06014E-01
 -1       684 4.76951E-01
 -1       685 5.43388E-01
 -1       686 6.09519E-01
 -1       687 6.91145E-01
 -1       688 7.55930E-01
 -1       689 7.69940E-01
 -1       690 1.00294E+00
 -1       691 1.17722E+00
 -1       692 1.38528E+00
 -1       693 1.58225E+00
 -1       694 1.90191E+00
 -1       695 2.41010E+00
 -1       696 2.62772E+00
 -1       697 2.43452E+00
 -1       698 1.92396E+00
 -1       699 1.93189E+00
 -1       700 1.75477E+00
 -1       701 1.44507E+00
 -1       702 1.27963E+00
 -1       703 4.87802E+00
 -1       704 2.02110E+00
 -1       705 2.60642E+00
 -1       706 5.95988E+00
 -1       707 4.29487E+00
 -1       708 5.10201E+00
 -1       709 5.95988E+00
 -1       710 5.40145E+00
 -1       711 4.04877E+00
 -1       712 4.64324E-01
 -1       713 1.26680E+01
 -1       714 1.40641E+01
 -1       715 3.48891E-01
 -1       716 4.61632E+00
 -1       717 9.13236E+00
 -1       718 9.65075E+00
 -1       719 2.73673E-01
 -1       720 3.28254E-01
 -1       721 3.92984E-01
 -1       722 5.15503E-01
 -1       723 3.61987E-01
 -1       724 5.05963E+00
 -1       725 3.60212E-01
 -1       726 7.07185E+00
 -1       727 4.57251E+00
 -1       728 1.02636E+01
 -1       729 8.20455E+00
 -1       730 3.28976E+00
 -1       731 3.32010E+00
 -1       732 6.99627E+00
 -1       733 1.65639E+01
 -1       734 1.67278E+01
 -1       735 4.93688E+00
 -1       736 3.42483E-01
 -1       737 3.60212E-01
 -1       738 2.65532E+00
 -1       739 1.87493E+00
 -1       740 1.30731E+00
 -1       741 1.03236E+01
 -1       742 4.84582E+00
 -1       743 1.37920E+01
 -1       744 7.63758E+00
 -1       745 7.82983E+00
 -1       746 3.57891E-01
 -1       747 4.07305E+00
 -1       748 3.22419E+00
 -1       749 2.40743E-01
 -1       750 1.09041E+01
 -1       751 2.54913E-01
 -1       752 2.48871E-01
 -1       753 2.27212E-01
 -1       754 1.98953E-01
 -1       755 1.72256E-01
 -1       756 1.51046E-01
 -1       757 1.28652E-01
 -1       758 1.06907E-01
 -1       759 8.67611E-02
 -1       760 6.85186E-02
 -1       761 5.20348E-02
 -1       762 3.68488E-02
 -1       763 2.22440E-02
 -1       764 2.32815E-02
 -1       765 4.07651E-02
 -1       766 6.74032E-02
 -1       767 1.01629E-01
 -1       768 1.48309E-01
 -1       769 2.09623E-01
 -1       770 2.89195E-01
 -1       771 3.91569E-01
 -1       772 5.21873E-01
 -1       773 6.85543E-01
 -1       774 8.87556E-01
 -1       775 1.13041E+00
 -1       776 1.42016E+00
 -1       777 1.84924E+00
 -1       778 2.54525E+00
 -1       779 3.81378E+00
 -1       780 4.93270E+00
 -1       781 1.00416E+01
 -1       782 2.63555E+00
 -1       783 1.89287E-01
 -1       784 1.13404E-01
 -1       785 9.13765E-02
 -1       786 7.18287E-02
 -1       787 5.45003E-02
 -1       788 4.11115E-02
 -1       789 2.87328E-02
 -1       790 2.37737E-02
 -1       791 3.49839E-02
 -1       792 5.81673E-02
 -1       793 8.64884E-02
 -1       794 1.21335E-01
 -1       795 1.64100E-01
 -1       796 2.16081E-01
 -1       797 2.78766E-01
 -1       798 3.54503E-01
 -1       799 4.39700E-01
 -1       800 5.29997E-01
 -1       801 6.18920E-01
 -1       802 7.22674E-01
 -1       803 8.78998E-01
 -1       804 1.04867E+00
 -1       805 1.19139E+00
 -1       806 1.53400E+00
 -1       807 2.22497E+00
 -1       808 2.36080E+00
 -1       809 2.16627E+00
 -1       810 2.41010E+00
 -1       811 4.81757E+00
 -1       812 3.04062E+00
 -1       813 2.36124E+00
 -1       814 2.21447E+00
 -1       815 1.75477E+00
 -1       816 1.42514E+00
 -1       817 2.81914E-01
 -1       818 7.32763E+00
 -1       819 2.17829E-01
 -1       820 3.05950E-01
 -1       821 1.10043E+01
 -1       822 1.37742E-01
 -1       823 1.63608E-01
 -1       824 3.00825E-01
 -1       825 2.88437E+00
 -1       826 2.33542E-01
 -1       827 2.54485E-01
 -1       828 5.01067E+00
 -1       829 5.75453E+00
 -1       830 1.00784E+01
 -1       831 9.99139E+00
 -1       832 3.28976E+00
 -1       833 2.86953E-01
 -1       834 8.05898E+00
 -1       835 7.54549E+00
 -1       836 2.88649E-01
 -1       837 2.81616E-01
 -1       838 4.85161E+00
 -1       839 2.80113E-01
 -1       840 2.79623E-01
 -1       841 2.72556E-01
 -1       842 5.43517E+00
 -1       843 3.24759E+00
 -1       844 6.82005E+00
 -1       845 3.80196E+00
 -1       846 3.24759E+00
 -1       847 2.39157E-01
 -1       848 2.88649E-01
 -1       849 9.28526E+00
 -1       850 6.31995E+00
 -1       851 8.05796E+00
 -1       852 3.61672E+00
 -1       853 4.70107E+00
 -1       854 2.87939E-01
 -1       855 3.24298E+00
 -1       856 3.04062E+00
 -1       857 1.34311E-01
 -1       858 1.82843E-01
 -1       859 1.75651E-01
 -1       860 1.59937E-01
 -1       861 1.40215E-01
 -1       862 1.23583E-01
 -1       863 1.06973E-01
 -1       864 9.00005E-02
 -1       865 7.36702E-02
 -1       866 5.84042E-02
 -1       867 4.42277E-02
 -1       868 3.19246E-02
 -1       869 3.38189E-02
 -1       870 3.89806E-02
 -1       871 6.21826E-02
 -1       872 9.42066E-02
 -1       873 1.35636E-01
 -1       874 1.89246E-01
 -1       875 2.58457E-01
 -1       876 3.47571E-01
 -1       877 4.62206E-01
 -1       878 6.10030E-01
 -1       879 8.02032E-01
 -1       880 1.05461E+00
 -1       881 1.39263E+00
 -1       882 1.84924E+00
 -1       883 2.47424E+00
 -1       884 3.63481E+00
 -1       885 9.74015E-02
 -1       886 4.75613E-02
 -1       887 3.32555E-02
 -1       888 2.77214E-02
 -1       889 3.02678E-02
 -1       890 4.92563E-02
 -1       891 7.55144E-02
 -1       892 1.08696E-01
 -1       893 1.49301E-01
 -1       894 1.98051E-01
 -1       895 2.54955E-01
 -1       896 3.18779E-01
 -1       897 3.89201E-01
 -1       898 4.81647E-01
 -1       899 6.07048E-01
 -1       900 7.59878E-01
 -1       901 9.43207E-01
 -1       902 1.14925E+00
 -1       903 1.49904E+00
 -1       904 1.87220E+00
 -1       905 2.25813E+00
 -1       906 2.70768E+00
 -1       907 1.76274E-01
 -1       908 1.32441E+00
 -1       909 3.13372E+00
 -1       910 2.87358E+00
 -1       911 2.09909E-01
 -1       912 1.16370E-01
 -1       913 1.60926E-01
 -1       914 7.12688E+00
 -1       915 6.28223E-02
 -1       916 7.94102E-02
 -1       917 1.96977E-01
 -1       918 2.87939E-01
 -1       919 2.08160E-01
 -1       920 1.75109E-01
 -1       921 6.24980E+00
 -1       922 3.91730E+00
 -1       923 1.65341E-01
 -1       924 1.66431E-01
 -1       925 1.52535E-01
 -1       926 2.21447E+00
 -1       927 2.17576E-01
 -1       928 6.46879E+00
 -1       929 2.17576E-01
 -1       930 1.35344E-01
 -1       931 5.40161E+00
 -1       932 6.89177E+00
 -1       933 1.60926E-01
 -1       934 1.35653E-01
 -1       935 1.26787E-01
 -1       936 1.13407E-01
 -1       937 9.82233E-02
 -1       938 8.56617E-02
 -1       939 7.25226E-02
 -1       940 5.96925E-02
 -1       941 4.75891E-02
 -1       942 3.93296E-02
 -1       943 4.04653E-02
 -1       944 4.46270E-02
 -1       945 5.29278E-02
 -1       946 7.87869E-02
 -1       947 1.12005E-01
 -1       948 1.54623E-01
 -1       949 2.09148E-01
 -1       950 2.78789E-01
 -1       951 3.67920E-01
 -1       952 4.83023E-01
 -1       953 6.34559E-01
 -1       954 8.40628E-01
 -1       955 1.13405E+00
 -1       956 1.57618E+00
 -1       957 2.31533E+00
 -1       958 3.63481E+00
 -1       959 3.92501E-02
 -1       960 3.65934E-02
 -1       961 3.97185E-02
 -1       962 4.51672E-02
 -1       963 6.93051E-02
 -1       964 9.96069E-02
 -1       965 1.37473E-01
 -1       966 1.84301E-01
 -1       967 2.41361E-01
 -1       968 3.09584E-01
 -1       969 3.89201E-01
 -1       970 4.79097E-01
 -1       971 5.80939E-01
 -1       972 7.34663E-01
 -1       973 9.55633E-01
 -1       974 1.31825E+00
 -1       975 1.67445E+00
 -1       976 1.89966E+00
 -1       977 3.80482E+00
 -1       978 1.55867E-01
 -1       979 2.04213E-01
 -1       980 2.09258E-01
 -1       981 6.68126E+00
 -1       982 5.23804E-02
 -1       983 2.13666E-01
 -1       984 1.45696E-01
 -1       985 9.50817E-02
 -1       986 1.36341E-01
 -1       987 2.29038E+00
 -1       988 1.41030E-01
 -1       989 1.23702E-01
 -1       990 1.52564E-01
 -1       991 2.09258E-01
 -1       992 1.06548E-01
 -1       993 1.52761E-01
 -1       994 8.02346E-02
 -1       995 1.04961E-01
 -1       996 1.40946E-01
 -1       997 4.35582E+00
 -1       998 1.09305E-01
 -1       999 5.03148E+00
 -1      1000 1.52761E-01
 -1      1001 5.05990E+00
 -1      1002 6.58935E-02
 -1      1003 2.73694E+00
 -1      1004 1.03379E-01
 -1      1005 5.05990E+00
 -1      1006 9.79692E-02
 -1      1007 8.85374E-02
 -1      1008 7.71505E-02
 -1      1009 6.52204E-02
 -1      1010 5.53500E-02
 -1      1011 4.68721E-02
 -1      1012 4.39424E-02
 -1      1013 4.40032E-02
 -1      1014 4.70436E-02
 -1      1015 5.35230E-02
 -1      1016 6.73971E-02
 -1      1017 8.78116E-02
 -1      1018 1.15297E-01
 -1      1019 1.52356E-01
 -1      1020 2.00258E-01
 -1      1021 2.60024E-01
 -1      1022 3.41839E-01
 -1      1023 4.50313E-01
 -1      1024 5.96713E-01
 -1      1025 8.01400E-01
 -1      1026 1.10122E+00
 -1      1027 1.58210E+00
 -1      1028 2.63709E+00
 -1      1029 5.90359E-02
 -1      1030 4.87783E-02
 -1      1031 8.27041E-02
 -1      1032 1.14808E-01
 -1      1033 1.55721E-01
 -1      1034 2.07522E-01
 -1      1035 2.72683E-01
 -1      1036 3.54174E-01
 -1      1037 4.55557E-01
 -1      1038 5.80939E-01
 -1      1039 7.34663E-01
 -1      1040 9.22665E-01
 -1      1041 1.24813E+00
 -1      1042 2.48716E+00
 -1      1043 2.00055E+00
 -1      1044 2.09258E-01
 -1      1045 1.24958E-01
 -1      1046 1.41030E-01
 -1      1047 4.37708E-02
 -1      1048 1.39109E-01
 -1      1049 4.27135E-02
 -1      1050 1.04911E-01
 -1      1051 1.16844E-01
 -1      1052 1.01973E-01
 -1      1053 4.18768E-02
 -1      1054 8.96894E-02
 -1      1055 3.27591E+00
 -1      1056 1.01116E-01
 -1      1057 9.23219E-02
 -1      1058 1.17426E-01
 -1      1059 8.63948E-02
 -1      1060 5.21465E-02
 -1      1061 7.42388E-02
 -1      1062 1.01116E-01
 -1      1063 3.92412E+00
 -1      1064 3.43252E+00
 -1      1065 8.42472E-02
 -1      1066 7.21065E-02
 -1      1067 9.13317E-02
 -1      1068 6.69025E-02
 -1      1069 5.60985E-02
 -1      1070 6.70013E-02
 -1      1071 4.68721E-02
 -1      1072 4.40032E-02
 -1      1073 4.70436E-02
 -1      1074 5.35230E-02
 -1      1075 6.63943E-02
 -1      1076 8.48643E-02
 -1      1077 1.09628E-01
 -1      1078 1.41869E-01
 -1      1079 1.83047E-01
 -1      1080 2.35061E-01
 -1      1081 3.02746E-01
 -1      1082 3.89861E-01
 -1      1083 5.21678E-01
 -1      1084 7.47384E-01
 -1      1085 1.08827E+00
 -1      1086 1.61187E+00
 -1      1087 2.47105E+00
 -1      1088 9.59851E-02
 -1      1089 1.23328E-01
 -1      1090 1.58810E-01
 -1      1091 2.13361E-01
 -1      1092 2.85160E-01
 -1      1093 3.80294E-01
 -1      1094 5.21678E-01
 -1      1095 7.47384E-01
 -1      1096 1.08827E+00
 -1      1097 1.61187E+00
 -1      1098 2.47105E+00
 -1      1099 1.10599E-01
 -1      1100 6.30952E-02
 -1      1101 9.94350E-02
 -1      1102 4.87783E-02
 -1      1103 8.17267E-02
 -1      1104 6.68538E-02
 -1      1105 4.37208E-02
 -1      1106 5.90359E-02
 -1      1107 7.65341E-02
 -1      1108 4.37708E-02
 -1      1109 5.44135E-02
 -1      1110 7.48076E-02
 -1      1111 6.70013E-02
 -1      1112 8.91872E-02
 -1      1113 9.23219E-02
 -1      1114 9.13317E-02
 -1      1115 8.72495E-02
 -1      1116 9.13317E-02
 -1      1117 6.70013E-02
 -1      1118 8.86277E-02
 -1      1119 8.42472E-02
 -1      1120 6.69025E-02
 -1      1121 6.39090E-02
 -1      1122 4.71678E-02
 -1      1123 1.31434E+01
 -1      1124 8.40368E+00
 -1      1125 2.74539E+00
 -1      1126 1.55855E+00
 -1      1127 1.16698E+00
 -1      1128 9.71852E-01
 -1      1129 8.54435E-01
 -1      1130 7.81415E-01
 -1      1131 7.54928E-01
 -1      1132 7.84556E-01
 -1      1133 8.57025E-01
 -1      1134 9.76734E-01
 -1      1135 1.18019E+00
 -1      1136 1.57178E+00
 -1      1137 2.67065E+00
 -1      1138 6.07350E+00
 -1      1139 1.13404E+01
 -1      1140 1.31434E+01
 -1      1141 8.73074E+00
 -1      1142 3.82962E+00
 -1      1143 2.72634E+00
 -1      1144 1.73709E+00
 -1      1145 1.18835E+00
 -1      1146 8.94611E-01
 -1      1147 6.85397E-01
 -1      1148 5.25558E-01
 -1      1149 4.01911E-01
 -1      1150 3.09032E-01
 -1      1151 2.38348E-01
 -1      1152 1.82268E-01
 -1      1153 1.38807E-01
 -1      1154 1.06113E-01
 -1      1155 8.25321E-02
 -1      1156 6.66322E-02
 -1      1157 5.78697E-02
 -1      1158 5.93759E-02
 -1      1159 6.97003E-02
 -1      1160 8.40815E-02
 -1      1161 1.04623E-01
 -1      1162 1.38275E-01
 -1      1163 1.87520E-01
 -1      1164 2.51322E-01
 -1      1165 3.31476E-01
 -1      1166 4.28796E-01
 -1      1167 5.41890E-01
 -1      1168 6.65202E-01
 -1      1169 8.40054E-01
 -1      1170 1.08797E+00
 -1      1171 1.38474E+00
 -1      1172 1.72327E+00
 -1      1173 2.01428E+00
 -1      1174 2.12727E+00
 -1      1175 2.15748E+00
 -1      1176 2.27658E+00
 -1      1177 2.92356E+00
 -1      1178 4.75675E+00
 -1      1179 6.34520E+00
 -1      1180 6.65856E+00
 -1      1181 6.52187E+00
 -1      1182 5.47705E+00
 -1      1183 3.36686E+00
 -1      1184 1.71434E+00
 -1      1185 1.26389E+00
 -1      1186 1.27274E+00
 -1      1187 1.28160E+00
 -1      1188 1.18349E+00
 -1      1189 6.53726E-01
 -1      1190 1.40393E+01
 -1      1191 8.71705E+00
 -1      1192 2.90396E+00
 -1      1193 2.03957E+00
 -1      1194 1.40544E+00
 -1      1195 1.02541E+00
 -1      1196 8.18602E-01
 -1      1197 6.59603E-01
 -1      1198 5.28204E-01
 -1      1199 4.18855E-01
 -1      1200 3.32205E-01
 -1      1201 2.64512E-01
 -1      1202 2.08639E-01
 -1      1203 1.63373E-01
 -1      1204 1.27888E-01
 -1      1205 1.01254E-01
 -1      1206 8.25641E-02
 -1      1207 7.11368E-02
 -1      1208 7.13816E-02
 -1      1209 8.26182E-02
 -1      1210 9.92108E-02
 -1      1211 1.20398E-01
 -1      1212 1.44961E-01
 -1      1213 1.73768E-01
 -1      1214 2.14852E-01
 -1      1215 2.67544E-01
 -1      1216 3.22286E-01
 -1      1217 3.72481E-01
 -1      1218 4.07841E-01
 -1      1219 4.28775E-01
 -1      1220 5.08667E-01
 -1      1221 6.45390E-01
 -1      1222 7.48675E-01
 -1      1223 9.13026E-01
 -1      1224 1.12997E+00
 -1      1225 1.27090E+00
 -1      1226 1.47707E+00
 -1      1227 1.76712E+00
 -1      1228 2.32158E+00
 -1      1229 2.90672E+00
 -1      1230 3.14837E+00
 -1      1231 3.22506E+00
 -1      1232 3.12178E+00
 -1      1233 2.63228E+00
 -1      1234 1.84990E+00
 -1      1235 1.11509E+00
 -1      1236 5.59720E-01
 -1      1237 2.80352E-01
 -1      1238 1.84095E-01
 -1      1239 1.09781E-01
 -1      1240 8.78379E-02
 -1      1241 1.69922E-01
 -1      1242 2.87645E-01
 -1      1243 3.81315E-01
 -1      1244 4.20575E-01
 -1      1245 4.16335E-01
 -1      1246 3.29324E-01
 -1      1247 4.03172E-01
 -1      1248 6.70058E-01
 -1      1249 7.80326E-01
 -1      1250 7.22848E-01
 -1      1251 4.84007E-01
 -1      1252 3.39373E-01
 -1      1253 4.24363E-01
 -1      1254 5.91794E-01
 -1      1255 7.49885E-01
 -1      1256 5.05439E-01
 -1      1257 2.48219E+01
 -1      1258 3.53844E+01
 -1      1259 4.59469E+01
 -1      1260 3.23666E+01
 -1      1261 1.54305E+01
 -1      1262 1.23037E+01
 -1      1263 1.27044E+01
 -1      1264 1.28760E+01
 -1      1265 1.25710E+01
 -1      1266 1.39534E+01
 -1      1267 2.82092E+01
 -1      1268 4.07777E+01
 -1      1269 3.31363E+01
 -1      1270 2.54949E+01
 -1      1271 2.52374E+01
 -1      1272 2.60197E+01
 -1      1273 2.97286E+01
 -1      1274 3.23976E+01
 -1      1275 2.32263E+01
 -1      1276 1.38472E+01
 -1      1277 1.36395E+01
 -1      1278 1.29231E+01
 -1      1279 1.23960E+01
 -1      1280 1.25852E+01
 -1      1281 1.70904E+01
 -1      1282 3.51306E+01
 -1      1283 4.86655E+01
 -1      1284 3.65901E+01
 -1      1285 2.46683E+01
 -1      1286 1.31434E+01
 -1      1287 4.87103E+00
 -1      1288 9.61081E+00
 -1      1289 2.06388E+00
 -1      1290 2.98240E+00
 -1      1291 4.18953E+00
 -1      1292 1.39808E+00
 -1      1293 1.66640E+00
 -1      1294 1.90341E+00
 -1      1295 1.10101E+00
 -1      1296 1.22426E+00
 -1      1297 1.33211E+00
 -1      1298 9.36018E-01
 -1      1299 1.00789E+00
 -1      1300 1.06517E+00
 -1      1301 8.36655E-01
 -1      1302 8.82198E-01
 -1      1303 9.18238E-01
 -1      1304 7.75007E-01
 -1      1305 8.02484E-01
 -1      1306 8.30247E-01
 -1      1307 7.55919E-01
 -1      1308 7.54928E-01
 -1      1309 7.75998E-01
 -1      1310 8.06357E-01
 -1      1311 7.77720E-01
 -1      1312 7.77720E-01
 -1      1313 8.84064E-01
 -1      1314 8.40233E-01
 -1      1315 8.33397E-01
 -1      1316 1.01682E+00
 -1      1317 9.40941E-01
 -1      1318 9.24149E-01
 -1      1319 1.24014E+00
 -1      1320 1.11256E+00
 -1      1321 1.07677E+00
 -1      1322 1.68168E+00
 -1      1323 1.41768E+00
 -1      1324 1.35004E+00
 -1      1325 2.88316E+00
 -1      1326 2.04830E+00
 -1      1327 1.89420E+00
 -1      1328 6.28632E+00
 -1      1329 3.71834E+00
 -1      1330 3.09599E+00
 -1      1331 1.40393E+01
 -1      1332 1.13404E+01
 -1      1333 8.98526E+00
 -1      1334 1.40393E+01
 -1      1335 8.73074E+00
 -1      1336 4.31803E+00
 -1      1337 3.82962E+00
 -1      1338 3.34120E+00
 -1      1339 3.82962E+00
 -1      1340 2.72634E+00
 -1      1341 2.11148E+00
 -1      1342 2.72634E+00
 -1      1343 1.77947E+00
 -1      1344 1.40508E+00
 -1      1345 1.77947E+00
 -1      1346 1.19419E+00
 -1      1347 1.01984E+00
 -1      1348 1.23657E+00
 -1      1349 8.94611E-01
 -1      1350 7.75220E-01
 -1      1351 9.00450E-01
 -1      1352 6.85397E-01
 -1      1353 5.95574E-01
 -1      1354 6.85397E-01
 -1      1355 5.31971E-01
 -1      1356 4.61955E-01
 -1      1357 5.31971E-01
 -1      1358 4.12046E-01
 -1      1359 3.58415E-01
 -1      1360 4.18459E-01
 -1      1361 3.19533E-01
 -1      1362 2.80286E-01
 -1      1363 3.29668E-01
 -1      1364 2.52104E-01
 -1      1365 2.20666E-01
 -1      1366 2.62604E-01
 -1      1367 1.96839E-01
 -1      1368 1.72196E-01
 -1      1369 2.10595E-01
 -1      1370 1.52642E-01
 -1      1371 1.33823E-01
 -1      1372 1.67213E-01
 -1      1373 1.18228E-01
 -1      1374 1.04353E-01
 -1      1375 1.32063E-01
 -1      1376 9.22894E-02
 -1      1377 8.25844E-02
 -1      1378 1.04405E-01
 -1      1379 7.35781E-02
 -1      1380 6.73832E-02
 -1      1381 8.33354E-02
 -1      1382 6.09449E-02
 -1      1383 5.83773E-02
 -1      1384 6.78908E-02
 -1      1385 5.53021E-02
 -1      1386 5.93759E-02
 -1      1387 5.83773E-02
 -1      1388 6.34497E-02
 -1      1389 6.97003E-02
 -1      1390 5.93759E-02
 -1      1391 7.59509E-02
 -1      1392 8.40815E-02
 -1      1393 6.97003E-02
 -1      1394 9.47149E-02
 -1      1395 1.07126E-01
 -1      1396 8.65843E-02
 -1      1397 1.23158E-01
 -1      1398 1.44398E-01
 -1      1399 1.13249E-01
 -1      1400 1.65468E-01
 -1      1401 1.93473E-01
 -1      1402 1.50351E-01
 -1      1403 2.20301E-01
 -1      1404 2.56099E-01
 -1      1405 1.98250E-01
 -1      1406 2.89220E-01
 -1      1407 3.33577E-01
 -1      1408 2.58199E-01
 -1      1409 3.84566E-01
 -1      1410 4.37529E-01
 -1      1411 3.42310E-01
 -1      1412 5.10580E-01
 -1      1413 5.70711E-01
 -1      1414 4.66349E-01
 -1      1415 6.59918E-01
 -1      1416 7.23098E-01
 -1      1417 6.28607E-01
 -1      1418 8.25813E-01
 -1      1419 9.37484E-01
 -1      1420 8.20529E-01
 -1      1421 1.04542E+00
 -1      1422 1.18166E+00
 -1      1423 1.03117E+00
 -1      1424 1.27768E+00
 -1      1425 1.43821E+00
 -1      1426 1.23513E+00
 -1      1427 1.55168E+00
 -1      1428 1.72969E+00
 -1      1429 1.44463E+00
 -1      1430 1.90128E+00
 -1      1431 2.01428E+00
 -1      1432 1.72969E+00
 -1      1433 2.12727E+00
 -1      1434 2.12727E+00
 -1      1435 2.01428E+00
 -1      1436 2.09969E+00
 -1      1437 2.12990E+00
 -1      1438 2.09969E+00
 -1      1439 2.18769E+00
 -1      1440 2.27658E+00
 -1      1441 2.12990E+00
 -1      1442 2.36547E+00
 -1      1443 2.92356E+00
 -1      1444 2.27658E+00
 -1      1445 3.57838E+00
 -1      1446 4.85348E+00
 -1      1447 3.02030E+00
 -1      1448 6.03185E+00
 -1      1449 6.34520E+00
 -1      1450 4.85348E+00
 -1      1451 6.65856E+00
 -1      1452 6.65856E+00
 -1      1453 6.34520E+00
 -1      1454 6.52187E+00
 -1      1455 6.38517E+00
 -1      1456 6.52187E+00
 -1      1457 5.47705E+00
 -1      1458 4.56893E+00
 -1      1459 5.47705E+00
 -1      1460 3.67011E+00
 -1      1461 2.46804E+00
 -1      1462 3.67011E+00
 -1      1463 1.81769E+00
 -1      1464 1.36724E+00
 -1      1465 2.12094E+00
 -1      1466 1.26389E+00
 -1      1467 1.26389E+00
 -1      1468 1.36724E+00
 -1      1469 1.23653E+00
 -1      1470 1.24539E+00
 -1      1471 1.23653E+00
 -1      1472 1.28160E+00
 -1      1473 1.28160E+00
 -1      1474 1.24539E+00
 -1      1475 1.18349E+00
 -1      1476 1.08538E+00
 -1      1477 1.18349E+00
 -1      1478 9.37095E-01
 -1      1479 9.37095E-01
 -1      1480 3.39475E+00
 -1      1481 8.71705E+00
 -1      1482 8.71705E+00
 -1      1483 2.41317E+00
 -1      1484 2.90396E+00
 -1      1485 2.90396E+00
 -1      1486 1.66598E+00
 -1      1487 2.03957E+00
 -1      1488 2.03957E+00
 -1      1489 1.14490E+00
 -1      1490 1.40544E+00
 -1      1491 1.40544E+00
 -1      1492 9.05913E-01
 -1      1493 1.02541E+00
 -1      1494 1.02541E+00
 -1      1495 7.31291E-01
 -1      1496 8.18602E-01
 -1      1497 8.18602E-01
 -1      1498 5.87915E-01
 -1      1499 6.59603E-01
 -1      1500 6.59603E-01
 -1      1501 4.68493E-01
 -1      1502 5.28204E-01
 -1      1503 5.28204E-01
 -1      1504 3.69218E-01
 -1      1505 4.18855E-01
 -1      1506 4.18855E-01
 -1      1507 2.95191E-01
 -1      1508 3.32205E-01
 -1      1509 3.32205E-01
 -1      1510 2.33832E-01
 -1      1511 2.64512E-01
 -1      1512 2.64512E-01
 -1      1513 1.84793E-01
 -1      1514 2.09985E-01
 -1      1515 2.09985E-01
 -1      1516 1.45529E-01
 -1      1517 1.65602E-01
 -1      1518 1.66949E-01
 -1      1519 1.14913E-01
 -1      1520 1.30325E-01
 -1      1521 1.32554E-01
 -1      1522 9.21599E-02
 -1      1523 1.03382E-01
 -1      1524 1.05819E-01
 -1      1525 7.64861E-02
 -1      1526 8.39541E-02
 -1      1527 8.60819E-02
 -1      1528 6.73009E-02
 -1      1529 7.12602E-02
 -1      1530 7.26502E-02
 -1      1531 7.25431E-02
 -1      1532 6.83391E-02
 -1      1533 6.84624E-02
 -1      1534 8.40427E-02
 -1      1535 7.70102E-02
 -1      1536 7.39677E-02
 -1      1537 1.00019E-01
 -1      1538 9.04591E-02
 -1      1539 8.48511E-02
 -1      1540 1.20398E-01
 -1      1541 1.08771E-01
 -1      1542 1.00019E-01
 -1      1543 1.45512E-01
 -1      1544 1.32576E-01
 -1      1545 1.20949E-01
 -1      1546 1.79513E-01
 -1      1547 1.63642E-01
 -1      1548 1.51257E-01
 -1      1549 2.25471E-01
 -1      1550 2.00257E-01
 -1      1551 1.90131E-01
 -1      1552 2.75122E-01
 -1      1553 2.47644E-01
 -1      1554 2.33048E-01
 -1      1555 3.23854E-01
 -1      1556 2.96590E-01
 -1      1557 2.76690E-01
 -1      1558 3.72481E-01
 -1      1559 3.49549E-01
 -1      1560 3.23854E-01
 -1      1561 4.07841E-01
 -1      1562 3.95413E-01
 -1      1563 3.72481E-01
 -1      1564 4.28775E-01
 -1      1565 4.20269E-01
 -1      1566 4.07841E-01
 -1      1567 5.35713E-01
 -1      1568 4.64327E-01
 -1      1569 4.55821E-01
 -1      1570 6.45390E-01
 -1      1571 5.80052E-01
 -1      1572 5.35713E-01
 -1      1573 7.48675E-01
 -1      1574 7.10727E-01
 -1      1575 6.45390E-01
 -1      1576 9.13026E-01
 -1      1577 7.86623E-01
 -1      1578 7.48675E-01
 -1      1579 1.12997E+00
 -1      1580 1.03943E+00
 -1      1581 9.13026E-01
 -1      1582 1.27090E+00
 -1      1583 1.22052E+00
 -1      1584 1.12997E+00
 -1      1585 1.47707E+00
 -1      1586 1.32129E+00
 -1      1587 1.27090E+00
 -1      1588 1.76712E+00
 -1      1589 1.63286E+00
 -1      1590 1.47707E+00
 -1      1591 2.39564E+00
 -1      1592 1.97545E+00
 -1      1593 1.84119E+00
 -1      1594 2.90672E+00
 -1      1595 2.74177E+00
 -1      1596 2.39564E+00
 -1      1597 3.14837E+00
 -1      1598 3.07167E+00
 -1      1599 2.90672E+00
 -1      1600 3.22506E+00
 -1      1601 3.22506E+00
 -1      1602 3.14837E+00
 -1      1603 3.01849E+00
 -1      1604 3.12178E+00
 -1      1605 3.12178E+00
 -1      1606 2.24606E+00
 -1      1607 2.63228E+00
 -1      1608 2.63228E+00
 -1      1609 1.47694E+00
 -1      1610 1.87310E+00
 -1      1611 1.87310E+00
 -1      1612 8.44093E-01
 -1      1613 1.18275E+00
 -1      1614 1.20594E+00
 -1      1615 4.00253E-01
 -1      1616 6.16964E-01
 -1      1617 6.84627E-01
 -1      1618 2.53088E-01
 -1      1619 3.15746E-01
 -1      1620 3.72990E-01
 -1      1621 1.72590E-01
 -1      1622 2.06189E-01
 -1      1623 2.41584E-01
 -1      1624 1.28552E-01
 -1      1625 2.86392E-01
 -1      1626 2.23078E-01
 -1      1627 4.40060E-01
 -1      1628 3.85650E-01
 -1      1629 4.38806E-01
 -1      1630 5.81148E-01
 -1      1631 5.41888E-01
 -1      1632 6.39892E-01
 -1      1633 6.04095E-01
 -1      1634 6.04095E-01
 -1      1635 7.64668E-01
 -1      1636 5.99855E-01
 -1      1637 6.04095E-01
 -1      1638 7.87615E-01
 -1      1639 4.96056E-01
 -1      1640 5.78826E-01
 -1      1641 7.66587E-01
 -1      1642 7.17451E-01
 -1      1643 5.60833E-01
 -1      1644 8.10335E-01
 -1      1645 1.13578E+00
 -1      1646 1.02552E+00
 -1      1647 1.18318E+00
 -1      1648 1.16689E+00
 -1      1649 1.16689E+00
 -1      1650 1.52235E+00
 -1      1651 1.10941E+00
 -1      1652 1.16689E+00
 -1      1653 1.55346E+00
 -1      1654 7.19652E-01
 -1      1655 9.01015E-01
 -1      1656 1.34506E+00
 -1      1657 5.12115E-01
 -1      1658 4.75387E-01
 -1      1659 8.92395E-01
 -1      1660 6.40147E-01
 -1      1661 5.91884E-01
 -1      1662 7.27899E-01
 -1      1663 7.59316E-01
 -1      1664 6.40147E-01
 -1      1665 8.07668E-01
 -1      1666 8.12571E-01
 -1      1667 7.73649E-01
 -1      1668 8.22002E-01
 -1      1669 9.60858E-01
 -1      1670 2.68740E+01
 -1      1671 2.68740E+01
 -1      1672 3.66959E+01
 -1      1673 2.61335E+01
 -1      1674 4.59469E+01
 -1      1675 4.59469E+01
 -1      1676 1.90985E+01
 -1      1677 3.26789E+01
 -1      1678 1.14829E+01
 -1      1679 1.48387E+01
 -1      1680 1.23037E+01
 -1      1681 1.20747E+01
 -1      1682 1.27044E+01
 -1      1683 1.25327E+01
 -1      1684 1.28760E+01
 -1      1685 1.28760E+01
 -1      1686 1.22661E+01
 -1      1687 1.25710E+01
 -1      1688 1.36924E+01
 -1      1689 1.20051E+01
 -1      1690 2.82092E+01
 -1      1691 1.56407E+01
 -1      1692 4.07777E+01
 -1      1693 4.07777E+01
 -1      1694 3.06919E+01
 -1      1695 3.83333E+01
 -1      1696 2.65289E+01
 -1      1697 2.65289E+01
 -1      1698 2.62714E+01
 -1      1699 2.65289E+01
 -1      1700 2.60197E+01
 -1      1701 2.49799E+01
 -1      1702 3.23653E+01
 -1      1703 2.96962E+01
 -1      1704 3.23976E+01
 -1      1705 3.23976E+01
 -1      1706 1.40549E+01
 -1      1707 2.32263E+01
 -1      1708 1.28950E+01
 -1      1709 1.31027E+01
 -1      1710 1.36395E+01
 -1      1711 1.36395E+01
 -1      1712 1.20141E+01
 -1      1713 1.27304E+01
 -1      1714 1.23960E+01
 -1      1715 1.22068E+01
 -1      1716 1.25852E+01
 -1      1717 1.25852E+01
 -1      1718 1.65644E+01
 -1      1719 1.20592E+01
 -1      1720 3.60644E+01
 -1      1721 2.25294E+01
 -1      1722 4.86655E+01
 -1      1723 4.86655E+01
 -1      1724 2.70928E+01
 -1      1725 3.91683E+01
 -1      1726 2.68740E+01
 -1      1727 2.67203E+01
 -1      1728 1.51510E+01
 -1      1729 3.26789E+01
 -1      1730 1.50647E-01
 -1      1731 2.67116E-01
 -1      1732 2.81855E+01
 -1      1733 3.66959E+01
 -1      1734 2.89260E+01
 -1      1735 1.14829E+01
 -1      1736 1.23037E+01
 -1      1737 1.27044E+01
 -1      1738 1.25710E+01
 -1      1739 1.20051E+01
 -1      1740 1.36924E+01
 -1      1741 2.82092E+01
 -1      1742 3.83333E+01
 -1      1743 3.17259E+01
 -1      1744 2.75629E+01
 -1      1745 2.62714E+01
 -1      1746 2.86564E+01
 -1      1747 3.23653E+01
 -1      1748 2.32263E+01
 -1      1749 1.31027E+01
 -1      1750 1.28950E+01
 -1      1751 1.27304E+01
 -1      1752 1.20141E+01
 -1      1753 1.23960E+01
 -1      1754 1.20592E+01
 -1      1755 1.74982E+01
 -1      1756 3.60644E+01
 -1      1757 3.91683E+01
 -1      1758 2.92985E+01
 -1      1759 9.61081E+00
 -1      1760 1.28815E+00
 -1      1761 1.68563E+00
 -1      1762 2.39023E+00
 -1      1763 4.27887E+00
 -1      1764 1.77497E+00
 -1      1765 8.80436E-01
 -1      1766 9.73552E-01
 -1      1767 7.79742E-01
 -1      1768 8.33562E-01
 -1      1769 7.41940E-01
 -1      1770 7.14008E-01
 -1      1771 7.48178E-01
 -1      1772 6.63502E-01
 -1      1773 6.71792E-01
 -1      1774 6.91871E-01
 -1      1775 6.09802E-01
 -1      1776 6.95212E-01
 -1      1777 6.73411E-01
 -1      1778 5.89284E-01
 -1      1779 7.50916E-01
 -1      1780 7.17041E-01
 -1      1781 6.12732E-01
 -1      1782 8.41142E-01
 -1      1783 7.84265E-01
 -1      1784 6.67910E-01
 -1      1785 9.84467E-01
 -1      1786 8.88728E-01
 -1      1787 7.48844E-01
 -1      1788 1.22972E+00
 -1      1789 1.05218E+00
 -1      1790 8.64145E-01
 -1      1791 1.71049E+00
 -1      1792 1.34387E+00
 -1      1793 1.04601E+00
 -1      1794 2.63015E+00
 -1      1795 1.79497E+00
 -1      1796 1.24464E+00
 -1      1797 8.12006E+00
 -1      1798 3.06597E+00
 -1      1799 1.76495E+00
 -1      1800 2.79776E+00
 -1      1801 5.19810E+00
 -1      1802 2.16373E+00
 -1      1803 2.65452E+00
 -1      1804 2.05753E+00
 -1      1805 3.39880E+00
 -1      1806 2.53548E+00
 -1      1807 1.92062E+00
 -1      1808 1.68952E+00
 -1      1809 1.35751E+00
 -1      1810 1.49866E+00
 -1      1811 1.17738E+00
 -1      1812 9.66492E-01
 -1      1813 1.08743E+00
 -1      1814 8.40967E-01
 -1      1815 7.15737E-01
 -1      1816 7.81780E-01
 -1      1817 6.56959E-01
 -1      1818 5.67137E-01
 -1      1819 5.97477E-01
 -1      1820 5.18655E-01
 -1      1821 4.55051E-01
 -1      1822 4.90217E-01
 -1      1823 4.12370E-01
 -1      1824 3.62461E-01
 -1      1825 3.99054E-01
 -1      1826 3.29852E-01
 -1      1827 2.90970E-01
 -1      1828 3.23763E-01
 -1      1829 2.63504E-01
 -1      1830 2.35323E-01
 -1      1831 2.63688E-01
 -1      1832 2.11804E-01
 -1      1833 1.87976E-01
 -1      1834 2.12704E-01
 -1      1835 1.70198E-01
 -1      1836 1.50643E-01
 -1      1837 1.71407E-01
 -1      1838 1.36171E-01
 -1      1839 1.20576E-01
 -1      1840 1.39156E-01
 -1      1841 1.08469E-01
 -1      1842 9.64056E-02
 -1      1843 1.12576E-01
 -1      1844 8.65158E-02
 -1      1845 7.75095E-02
 -1      1846 9.05797E-02
 -1      1847 6.95482E-02
 -1      1848 6.31099E-02
 -1      1849 7.27286E-02
 -1      1850 5.71759E-02
 -1      1851 5.41007E-02
 -1      1852 5.88333E-02
 -1      1853 5.35838E-02
 -1      1854 5.76576E-02
 -1      1855 5.23824E-02
 -1      1856 6.05049E-02
 -1      1857 6.67555E-02
 -1      1858 5.47128E-02
 -1      1859 7.48553E-02
 -1      1860 8.54887E-02
 -1      1861 6.56599E-02
 -1      1862 9.72177E-02
 -1      1863 1.13249E-01
 -1      1864 8.54887E-02
 -1      1865 1.29973E-01
 -1      1866 1.51044E-01
 -1      1867 1.13942E-01
 -1      1868 1.80826E-01
 -1      1869 2.07654E-01
 -1      1870 1.60448E-01
 -1      1871 2.46949E-01
 -1      1872 2.80070E-01
 -1      1873 2.29525E-01
 -1      1874 3.30887E-01
 -1      1875 3.81876E-01
 -1      1876 3.19636E-01
 -1      1877 4.45940E-01
 -1      1878 5.18991E-01
 -1      1879 4.34517E-01
 -1      1880 5.97089E-01
 -1      1881 6.86296E-01
 -1      1882 5.76679E-01
 -1      1883 7.77125E-01
 -1      1884 8.79840E-01
 -1      1885 7.45607E-01
 -1      1886 9.78218E-01
 -1      1887 1.08615E+00
 -1      1888 9.34814E-01
 -1      1889 1.18062E+00
 -1      1890 1.27665E+00
 -1      1891 1.12767E+00
 -1      1892 1.34980E+00
 -1      1893 1.46327E+00
 -1      1894 1.29530E+00
 -1      1895 1.54532E+00
 -1      1896 1.71692E+00
 -1      1897 1.45050E+00
 -1      1898 1.77287E+00
 -1      1899 1.88587E+00
 -1      1900 1.58851E+00
 -1      1901 1.88684E+00
 -1      1902 1.85926E+00
 -1      1903 1.64544E+00
 -1      1904 1.80791E+00
 -1      1905 1.86570E+00
 -1      1906 1.59505E+00
 -1      1907 1.99850E+00
 -1      1908 2.08739E+00
 -1      1909 1.67650E+00
 -1      1910 2.38065E+00
 -1      1911 3.03548E+00
 -1      1912 2.10257E+00
 -1      1913 3.46525E+00
 -1      1914 4.64361E+00
 -1      1915 2.82560E+00
 -1      1916 5.12023E+00
 -1      1917 5.43359E+00
 -1      1918 3.73199E+00
 -1      1919 5.46589E+00
 -1      1920 5.32920E+00
 -1      1921 4.24092E+00
 -1      1922 4.95145E+00
 -1      1923 4.04333E+00
 -1      1924 3.89548E+00
 -1      1925 3.70107E+00
 -1      1926 2.80225E+00
 -1      1927 3.17547E+00
 -1      1928 2.54837E+00
 -1      1929 1.89802E+00
 -1      1930 2.57933E+00
 -1      1931 1.62626E+00
 -1      1932 1.52291E+00
 -1      1933 2.05369E+00
 -1      1934 1.34397E+00
 -1      1935 1.31662E+00
 -1      1936 1.60299E+00
 -1      1937 1.11433E+00
 -1      1938 1.15054E+00
 -1      1939 1.22177E+00
 -1      1940 1.21097E+00
 -1      1941 1.11286E+00
 -1      1942 9.88340E-01
 -1      1943 1.07992E+00
 -1      1944 1.39824E+00
 -1      1945 1.77183E+00
 -1      1946 1.52239E+00
 -1      1947 1.01815E+00
 -1      1948 1.27868E+00
 -1      1949 1.01095E+00
 -1      1950 8.04944E-01
 -1      1951 9.24439E-01
 -1      1952 7.97684E-01
 -1      1953 6.38276E-01
 -1      1954 7.25586E-01
 -1      1955 6.24617E-01
 -1      1956 5.12917E-01
 -1      1957 5.84605E-01
 -1      1958 4.91589E-01
 -1      1959 4.20005E-01
 -1      1960 4.79716E-01
 -1      1961 4.04718E-01
 -1      1962 3.38567E-01
 -1      1963 3.88204E-01
 -1      1964 3.39716E-01
 -1      1965 2.73877E-01
 -1      1966 3.10890E-01
 -1      1967 2.80239E-01
 -1      1968 2.20654E-01
 -1      1969 2.51334E-01
 -1      1970 2.30019E-01
 -1      1971 1.77108E-01
 -1      1972 2.00955E-01
 -1      1973 1.87777E-01
 -1      1974 1.41299E-01
 -1      1975 1.60489E-01
 -1      1976 1.51458E-01
 -1      1977 1.12772E-01
 -1      1978 1.27976E-01
 -1      1979 1.21516E-01
 -1      1980 9.11162E-02
 -1      1981 1.02647E-01
 -1      1982 9.80689E-02
 -1      1983 7.54760E-02
 -1      1984 8.36819E-02
 -1      1985 8.05103E-02
 -1      1986 6.52910E-02
 -1      1987 7.05169E-02
 -1      1988 6.81169E-02
 -1      1989 6.43138E-02
 -1      1990 6.32756E-02
 -1      1991 6.11423E-02
 -1      1992 7.03490E-02
 -1      1993 6.58819E-02
 -1      1994 6.06952E-02
 -1      1995 8.03857E-02
 -1      1996 7.39694E-02
 -1      1997 6.58836E-02
 -1      1998 9.84871E-02
 -1      1999 8.97354E-02
 -1      2000 7.88537E-02
 -1      2001 1.22569E-01
 -1      2002 1.10392E-01
 -1      2003 1.00108E-01
 -1      2004 1.57031E-01
 -1      2005 1.38901E-01
 -1      2006 1.28344E-01
 -1      2007 2.05096E-01
 -1      2008 1.84352E-01
 -1      2009 1.71996E-01
 -1      2010 2.59865E-01
 -1      2011 2.37692E-01
 -1      2012 2.31913E-01
 -1      2013 3.18177E-01
 -1      2014 2.96709E-01
 -1      2015 3.01352E-01
 -1      2016 3.82468E-01
 -1      2017 3.56773E-01
 -1      2018 3.76792E-01
 -1      2019 4.41200E-01
 -1      2020 4.18268E-01
 -1      2021 4.51187E-01
 -1      2022 4.85590E-01
 -1      2023 4.73162E-01
 -1      2024 5.18948E-01
 -1      2025 5.45613E-01
 -1      2026 5.10061E-01
 -1      2027 5.75382E-01
 -1      2028 5.89953E-01
 -1      2029 5.45613E-01
 -1      2030 5.99853E-01
 -1      2031 6.52638E-01
 -1      2032 5.87300E-01
 -1      2033 5.97200E-01
 -1      2034 6.44085E-01
 -1      2035 6.06137E-01
 -1      2036 5.48047E-01
 -1      2037 7.84169E-01
 -1      2038 6.57766E-01
 -1      2039 5.15227E-01
 -1      2040 9.59920E-01
 -1      2041 8.69377E-01
 -1      2042 6.14116E-01
 -1      2043 1.25441E+00
 -1      2044 1.20402E+00
 -1      2045 9.43425E-01
 -1      2046 1.67208E+00
 -1      2047 1.51629E+00
 -1      2048 1.44941E+00
 -1      2049 2.02593E+00
 -1      2050 1.81760E+00
 -1      2051 1.85682E+00
 -1      2052 2.37206E+00
 -1      2053 2.02593E+00
 -1      2054 2.00234E+00
 -1      2055 2.53378E+00
 -1      2056 2.36882E+00
 -1      2057 1.99911E+00
 -1      2058 2.58697E+00
 -1      2059 2.51028E+00
 -1      2060 1.97238E+00
 -1      2061 2.48618E+00
 -1      2062 2.58946E+00
 -1      2063 1.95137E+00
 -1      2064 1.98966E+00
 -1      2065 2.37587E+00
 -1      2066 1.84356E+00
 -1      2067 1.42523E+00
 -1      2068 1.79820E+00
 -1      2069 1.54180E+00
 -1      2070 9.91411E-01
 -1      2071 1.28560E+00
 -1      2072 1.21070E+00
 -1      2073 6.33526E-01
 -1      2074 8.60656E-01
 -1      2075 9.40311E-01
 -1      2076 4.04266E-01
 -1      2077 4.88774E-01
 -1      2078 6.64803E-01
 -1      2079 2.14652E-01
 -1      2080 2.61551E-01
 -1      2081 3.77335E-01
 -1      2082 2.87083E-01
 -1      2083 8.94078E-01
 -1      2084 8.71131E-01
 -1      2085 8.27445E-01
 -1      2086 7.25617E-01
 -1      2087 9.56856E-01
 -1      2088 5.29057E-01
 -1      2089 4.29799E-01
 -1      2090 3.77335E-01
 -1      2091 7.16610E-01
 -1      2092 9.54397E-01
 -1      2093 9.54397E-01
 -1      2094 1.06086E+00
 -1      2095 9.33369E-01
 -1      2096 9.54397E-01
 -1      2097 1.12118E+00
 -1      2098 1.07825E+00
 -1      2099 1.01347E+00
 -1      2100 1.20128E+00
 -1      2101 1.78656E+00
 -1      2102 1.47850E+00
 -1      2103 1.68163E+00
 -1      2104 2.01602E+00
 -1      2105 1.98491E+00
 -1      2106 2.28023E+00
 -1      2107 2.01602E+00
 -1      2108 2.01602E+00
 -1      2109 2.47858E+00
 -1      2110 1.73642E+00
 -1      2111 1.94482E+00
 -1      2112 2.40738E+00
 -1      2113 9.78322E-01
 -1      2114 1.22259E+00
 -1      2115 1.82235E+00
 -1      2116 9.50393E-01
 -1      2117 8.70623E-01
 -1      2118 1.20082E+00
 -1      2119 9.74007E-01
 -1      2120 9.74007E-01
 -1      2121 1.11673E+00
 -1      2122 3.66959E+01
 -1      2123 2.74450E+01
 -1      2124 2.91685E+01
 -1      2125 2.91685E+01
 -1      2126 2.84279E+01
 -1      2127 2.91685E+01
 -1      2128 2.84279E+01
 -1      2129 1.71861E+01
 -1      2130 3.04542E+01
 -1      2131 9.59906E+00
 -1      2132 1.38589E+01
 -1      2133 1.16342E+01
 -1      2134 1.03564E+00
 -1      2135 1.20946E+00
 -1      2136 9.91679E-01
 -1      2137 8.50902E-01
 -1      2138 1.10379E+01
 -1      2139 1.08088E+01
 -1      2140 1.18329E+01
 -1      2141 1.16613E+01
 -1      2142 1.13129E+01
 -1      2143 1.16178E+01
 -1      2144 1.03928E+01
 -1      2145 1.06537E+01
 -1      2146 9.70052E+00
 -1      2147 1.15424E+01
 -1      2148 9.59410E+00
 -1      2149 2.73833E+01
 -1      2150 1.48148E+01
 -1      2151 3.00576E+01
 -1      2152 3.25021E+01
 -1      2153 2.40881E+01
 -1      2154 2.82511E+01
 -1      2155 2.97350E+01
 -1      2156 2.97350E+01
 -1      2157 2.84435E+01
 -1      2158 2.97350E+01
 -1      2159 3.19072E+01
 -1      2160 2.91060E+01
 -1      2161 2.54295E+01
 -1      2162 2.71747E+01
 -1      2163 2.71424E+01
 -1      2164 1.34328E+01
 -1      2165 2.26042E+01
 -1      2166 9.72307E+00
 -1      2167 1.06753E+01
 -1      2168 1.09959E+01
 -1      2169 1.02514E+01
 -1      2170 1.16045E+01
 -1      2171 1.25135E+01
 -1      2172 1.18384E+01
 -1      2173 1.16457E+01
 -1      2174 1.14288E+01
 -1      2175 1.14261E+01
 -1      2176 1.12369E+01
 -1      2177 9.26788E+00
 -1      2178 9.79388E+00
 -1      2179 1.65423E+01
 -1      2180 1.05773E+01
 -1      2181 3.29650E+01
 -1      2182 2.03639E+01
 -1      2183 2.96710E+01
 -1      2184 3.91683E+01
 -1      2185 2.86917E+01
 -1      2186 2.90642E+01
 -1      2187 2.89342E+01
 -1      2188 9.89217E+00
 -1      2189 9.30040E+00
 -1      2190 8.62632E+00
 -1      2191 7.31957E+00
 -1      2192 6.02750E+00
 -1      2193 5.72884E+00
 -1      2194 2.91039E+00
 -1      2195 8.24269E+00
 -1      2196 2.10467E+00
 -1      2197 2.94109E+01
 -1      2198 1.47808E+01
 -1      2199 3.02735E+01
 -1      2200 2.10225E+01
 -1      2201 9.88340E-01
 -1      2202 2.90642E+01
 -1      2203 2.34678E+01
 -1      2204 1.34430E+01
 -1      2205 8.31203E+00
 -1      2206 1.08685E+01
 -1      2207 1.13854E+01
 -1      2208 8.74180E+00
 -1      2209 1.02595E+01
 -1      2210 7.82397E+00
 -1      2211 1.00532E+01
 -1      2212 1.73813E+01
 -1      2213 2.88931E+01
 -1      2214 2.56391E+01
 -1      2215 2.21643E+01
 -1      2216 2.78112E+01
 -1      2217 2.24199E+01
 -1      2218 1.91077E+01
 -1      2219 1.01664E+01
 -1      2220 1.05747E+01
 -1      2221 1.07165E+01
 -1      2222 2.39155E+01
 -1      2223 8.63477E+00
 -1      2224 1.08918E+00
 -1      2225 1.48108E+00
 -1      2226 5.59247E-01
 -1      2227 5.90811E-01
 -1      2228 6.03024E-01
 -1      2229 6.49898E-01
 -1      2230 4.98769E-01
 -1      2231 5.11293E-01
 -1      2232 5.09674E-01
 -1      2233 5.46070E-01
 -1      2234 5.24241E-01
 -1      2235 4.44632E-01
 -1      2236 5.94194E-01
 -1      2237 5.60845E-01
 -1      2238 4.72354E-01
 -1      2239 6.53796E-01
 -1      2240 6.06210E-01
 -1      2241 4.99145E-01
 -1      2242 7.21511E-01
 -1      2243 6.53796E-01
 -1      2244 5.11162E-01
 -1      2245 8.84609E-01
 -1      2246 7.70461E-01
 -1      2247 5.60112E-01
 -1      2248 8.91393E-01
 -1      2249 1.01095E+00
 -1      2250 9.69629E-01
 -1      2251 1.26642E+00
 -1      2252 1.03532E+00
 -1      2253 5.90902E+00
 -1      2254 6.70770E+00
 -1      2255 9.85022E-01
 -1      2256 8.04896E-01
 -1      2257 7.52784E-01
 -1      2258 7.48180E-01
 -1      2259 6.22656E-01
 -1      2260 6.45772E-01
 -1      2261 5.66519E-01
 -1      2262 5.07741E-01
 -1      2263 5.32919E-01
 -1      2264 4.58482E-01
 -1      2265 4.10000E-01
 -1      2266 4.27524E-01
 -1      2267 3.82584E-01
 -1      2268 3.39902E-01
 -1      2269 3.50849E-01
 -1      2270 3.14987E-01
 -1      2271 2.82377E-01
 -1      2272 2.98517E-01
 -1      2273 2.58851E-01
 -1      2274 2.31385E-01
 -1      2275 2.50075E-01
 -1      2276 2.12111E-01
 -1      2277 1.88593E-01
 -1      2278 2.07274E-01
 -1      2279 1.71893E-01
 -1      2280 1.54115E-01
 -1      2281 1.71301E-01
 -1      2282 1.39584E-01
 -1      2283 1.25111E-01
 -1      2284 1.40070E-01
 -1      2285 1.12851E-01
 -1      2286 1.00744E-01
 -1      2287 1.13279E-01
 -1      2288 9.06226E-02
 -1      2289 8.07328E-02
 -1      2290 9.08969E-02
 -1      2291 7.27286E-02
 -1      2292 6.47673E-02
 -1      2293 7.27715E-02
 -1      2294 5.84178E-02
 -1      2295 5.24838E-02
 -1      2296 5.84178E-02
 -1      2297 4.86145E-02
 -1      2298 4.80976E-02
 -1      2299 4.81990E-02
 -1      2300 4.87987E-02
 -1      2301 5.16460E-02
 -1      2302 4.50308E-02
 -1      2303 5.69458E-02
 -1      2304 6.50456E-02
 -1      2305 5.10317E-02
 -1      2306 7.54355E-02
 -1      2307 8.71645E-02
 -1      2308 6.67214E-02
 -1      2309 1.06666E-01
 -1      2310 1.23391E-01
 -1      2311 9.66132E-02
 -1      2312 1.48883E-01
 -1      2313 1.78665E-01
 -1      2314 1.41608E-01
 -1      2315 2.11771E-01
 -1      2316 2.51066E-01
 -1      2317 2.00206E-01
 -1      2318 2.93555E-01
 -1      2319 3.44372E-01
 -1      2320 2.75801E-01
 -1      2321 3.98042E-01
 -1      2322 4.62106E-01
 -1      2323 3.71960E-01
 -1      2324 5.28528E-01
 -1      2325 6.06626E-01
 -1      2326 4.92052E-01
 -1      2327 6.86677E-01
 -1      2328 7.77507E-01
 -1      2329 6.38526E-01
 -1      2330 8.70575E-01
 -1      2331 9.68953E-01
 -1      2332 8.11646E-01
 -1      2333 1.07169E+00
 -1      2334 1.16617E+00
 -1      2335 1.00745E+00
 -1      2336 1.27075E+00
 -1      2337 1.34390E+00
 -1      2338 1.21478E+00
 -1      2339 1.43594E+00
 -1      2340 1.51799E+00
 -1      2341 1.41139E+00
 -1      2342 1.61749E+00
 -1      2343 1.67345E+00
 -1      2344 1.60293E+00
 -1      2345 1.85726E+00
 -1      2346 1.85823E+00
 -1      2347 1.88625E+00
 -1      2348 2.04158E+00
 -1      2349 1.99023E+00
 -1      2350 2.25340E+00
 -1      2351 2.15659E+00
 -1      2352 2.28939E+00
 -1      2353 2.60311E+00
 -1      2354 2.56470E+00
 -1      2355 2.85797E+00
 -1      2356 3.04479E+00
 -1      2357 2.84145E+00
 -1      2358 3.27122E+00
 -1      2359 3.30358E+00
 -1      2360 3.93585E+00
 -1      2361 4.41247E+00
 -1      2362 3.95169E+00
 -1      2363 5.94173E+00
 -1      2364 5.97404E+00
 -1      2365 6.14559E+00
 -1      2366 5.58807E+00
 -1      2367 5.21033E+00
 -1      2368 7.28889E+00
 -1      2369 3.76134E+00
 -1      2370 3.41908E+00
 -1      2371 5.45393E+00
 -1      2372 3.23283E+00
 -1      2373 2.97895E+00
 -1      2374 3.81870E+00
 -1      2375 2.61377E+00
 -1      2376 2.34201E+00
 -1      2377 3.26727E+00
 -1      2378 1.89953E+00
 -1      2379 1.72059E+00
 -1      2380 2.45961E+00
 -1      2381 1.42405E+00
 -1      2382 1.22177E+00
 -1      2383 1.72059E+00
 -1      2384 2.30832E+01
 -1      2385 2.40662E+01
 -1      2386 5.45260E-01
 -1      2387 6.24617E-01
 -1      2388 4.37919E-01
 -1      2389 4.91589E-01
 -1      2390 4.91589E-01
 -1      2391 3.71517E-01
 -1      2392 4.04718E-01
 -1      2393 4.04718E-01
 -1      2394 3.07915E-01
 -1      2395 3.39716E-01
 -1      2396 3.39716E-01
 -1      2397 2.52562E-01
 -1      2398 2.80239E-01
 -1      2399 2.80239E-01
 -1      2400 2.07780E-01
 -1      2401 2.30322E-01
 -1      2402 2.30322E-01
 -1      2403 1.68635E-01
 -1      2404 1.88335E-01
 -1      2405 1.88638E-01
 -1      2406 1.35449E-01
 -1      2407 1.52068E-01
 -1      2408 1.52625E-01
 -1      2409 1.09086E-01
 -1      2410 1.22409E-01
 -1      2411 1.23018E-01
 -1      2412 8.84346E-02
 -1      2413 9.85591E-02
 -1      2414 9.94516E-02
 -1      2415 7.20716E-02
 -1      2416 7.95058E-02
 -1      2417 7.99959E-02
 -1      2418 5.95453E-02
 -1      2419 6.45045E-02
 -1      2420 6.35000E-02
 -1      2421 5.32259E-02
 -1      2422 5.52413E-02
 -1      2423 5.16289E-02
 -1      2424 5.40903E-02
 -1      2425 5.25222E-02
 -1      2426 4.66211E-02
 -1      2427 6.24739E-02
 -1      2428 5.88535E-02
 -1      2429 5.06805E-02
 -1      2430 7.88077E-02
 -1      2431 6.94580E-02
 -1      2432 6.24279E-02
 -1      2433 1.03572E-01
 -1      2434 9.16677E-02
 -1      2435 8.22720E-02
 -1      2436 1.39778E-01
 -1      2437 1.23446E-01
 -1      2438 1.15006E-01
 -1      2439 1.91461E-01
 -1      2440 1.64140E-01
 -1      2441 1.59242E-01
 -1      2442 2.52992E-01
 -1      2443 2.20396E-01
 -1      2444 2.12539E-01
 -1      2445 3.22736E-01
 -1      2446 2.85892E-01
 -1      2447 2.74375E-01
 -1      2448 3.96517E-01
 -1      2449 3.57921E-01
 -1      2450 3.42461E-01
 -1      2451 4.66576E-01
 -1      2452 4.30776E-01
 -1      2453 4.11906E-01
 -1      2454 5.28765E-01
 -1      2455 4.96802E-01
 -1      2456 4.76392E-01
 -1      2457 5.80356E-01
 -1      2458 5.55885E-01
 -1      2459 5.33739E-01
 -1      2460 5.99853E-01
 -1      2461 5.99853E-01
 -1      2462 5.80356E-01
 -1      2463 5.97914E-01
 -1      2464 6.00566E-01
 -1      2465 6.00566E-01
 -1      2466 5.28685E-01
 -1      2467 5.75186E-01
 -1      2468 5.78552E-01
 -1      2469 5.65049E-01
 -1      2470 5.51368E-01
 -1      2471 5.78507E-01
 -1      2472 6.83647E-01
 -1      2473 5.98439E-01
 -1      2474 6.34579E-01
 -1      2475 1.08538E+00
 -1      2476 8.41281E-01
 -1      2477 8.25603E-01
 -1      2478 1.57521E+00
 -1      2479 1.31332E+00
 -1      2480 1.21118E+00
 -1      2481 1.85913E+00
 -1      2482 1.71361E+00
 -1      2483 1.57751E+00
 -1      2484 2.00234E+00
 -1      2485 2.00234E+00
 -1      2486 1.85913E+00
 -1      2487 1.99588E+00
 -1      2488 1.99911E+00
 -1      2489 1.99911E+00
 -1      2490 1.95517E+00
 -1      2491 1.97867E+00
 -1      2492 1.97867E+00
 -1      2493 1.95137E+00
 -1      2494 1.94888E+00
 -1      2495 1.95517E+00
 -1      2496 1.76409E+00
 -1      2497 1.87439E+00
 -1      2498 1.87190E+00
 -1      2499 1.47901E+00
 -1      2500 1.67047E+00
 -1      2501 1.70131E+00
 -1      2502 1.25807E+00
 -1      2503 1.39770E+00
 -1      2504 1.52638E+00
 -1      2505 9.96341E-01
 -1      2506 1.12710E+00
 -1      2507 1.31410E+00
 -1      2508 8.48376E-01
 -1      2509 9.93128E-01
 -1      2510 1.17991E+00
 -1      2511 5.20050E-01
 -1      2512 1.38462E+00
 -1      2513 1.38462E+00
 -1      2514 1.65965E+00
 -1      2515 1.57955E+00
 -1      2516 1.84299E+00
 -1      2517 1.08862E+00
 -1      2518 1.04494E+00
 -1      2519 1.19770E+00
 -1      2520 1.13738E+00
 -1      2521 1.22546E+00
 -1      2522 1.46114E+00
 -1      2523 2.32156E+00
 -1      2524 1.92131E+00
 -1      2525 2.29957E+00
 -1      2526 3.13375E+00
 -1      2527 2.93540E+00
 -1      2528 3.17508E+00
 -1      2529 3.22133E+00
 -1      2530 3.22133E+00
 -1      2531 3.87650E+00
 -1      2532 3.15014E+00
 -1      2533 3.22133E+00
 -1      2534 3.96408E+00
 -1      2535 2.07159E+00
 -1      2536 2.58543E+00
 -1      2537 3.39937E+00
 -1      2538 1.65168E+00
 -1      2539 1.75938E+00
 -1      2540 2.52246E+00
 -1      2541 1.35280E+00
 -1      2542 1.32919E+00
 -1      2543 1.88776E+00
 -1      2544 1.14035E+00
 -1      2545 2.52781E+01
 -1      2546 2.58849E+01
 -1      2547 7.03975E-01
 -1      2548 7.97684E-01
 -1      2549 6.24617E-01
 -1      2550 2.94109E+01
 -1      2551 2.94109E+01
 -1      2552 9.19245E+00
 -1      2553 1.25197E+01
 -1      2554 2.89342E+01
 -1      2555 2.84575E+01
 -1      2556 1.67823E+00
 -1      2557 1.30333E+00
 -1      2558 8.39986E-01
 -1      2559 9.73630E-01
 -1      2560 5.22576E-01
 -1      2561 5.44713E-01
 -1      2562 4.72021E-01
 -1      2563 4.44585E-01
 -1      2564 9.44343E+00
 -1      2565 9.65849E+00
 -1      2566 1.09634E+01
 -1      2567 7.69095E+00
 -1      2568 7.62099E+00
 -1      2569 8.28014E+00
 -1      2570 1.85399E+01
 -1      2571 2.05036E+01
 -1      2572 9.12342E+00
 -1      2573 8.50002E+00
 -1      2574 1.80554E+01
 -1      2575 1.29367E+01
 -1      2576 1.94223E+01
 -1      2577 2.12288E+01
 -1      2578 3.19072E+01
 -1      2579 3.19072E+01
 -1      2580 6.58065E+00
 -1      2581 8.21283E+00
 -1      2582 2.58791E+01
 -1      2583 2.88931E+01
 -1      2584 2.05036E+01
 -1      2585 1.23757E+01
 -1      2586 1.69463E+01
 -1      2587 6.52365E+00
 -1      2588 9.28114E+00
 -1      2589 8.84619E+00
 -1      2590 6.06474E+00
 -1      2591 5.53646E+00
 -1      2592 4.76441E+00
 -1      2593 9.84568E+00
 -1      2594 9.80446E+00
 -1      2595 8.78129E+00
 -1      2596 9.38282E+00
 -1      2597 7.75849E+00
 -1      2598 7.28147E+00
 -1      2599 5.97202E+00
 -1      2600 1.28995E+01
 -1      2601 9.07792E+00
 -1      2602 6.73791E+00
 -1      2603 2.11329E+01
 -1      2604 1.49296E+01
 -1      2605 7.52294E+00
 -1      2606 6.60629E+00
 -1      2607 6.47999E+00
 -1      2608 1.62120E+00
 -1      2609 1.76445E+00
 -1      2610 1.32863E+00
 -1      2611 1.18799E+00
 -1      2612 5.10983E-01
 -1      2613 6.49898E-01
 -1      2614 7.11987E-01
 -1      2615 7.97684E-01
 -1      2616 1.24414E+00
 -1      2617 1.05645E+01
 -1      2618 6.72718E+00
 -1      2619 5.28732E+00
 -1      2620 3.94813E+00
 -1      2621 6.22762E+00
 -1      2622 7.11308E+00
 -1      2623 8.67634E+00
 -1      2624 1.70881E+01
 -1      2625 2.08742E+01
 -1      2626 1.23361E+01
 -1      2627 1.94176E+01
 -1      2628 1.50559E+01
 -1      2629 1.29952E+01
 -1      2630 2.89342E+01
 -1      2631 8.48376E-01
 -1      2632 1.04494E+00
 -1      2633 1.23390E+01
 -1      2634 1.14035E+00
 -1      2635 1.14035E+00
 -1      2636 1.35280E+00
 -1      2637 1.07992E+00
 -1      2638 5.50376E+00
 -1      2639 5.08183E+00
 -1      2640 4.47320E+00
 -1      2641 2.52781E+01
 -1      2642 9.68592E-01
 -1      2643 2.40662E+01
 -1      2644 6.88404E-01
 -1      2645 7.67092E-01
 -1      2646 6.70355E-01
 -1      2647 4.87400E-01
 -1      2648 2.88931E+01
 -1      2649 1.96336E+01
 -1      2650 1.84426E+01
 -1      2651 2.11846E+01
 -1      2652 1.50578E+01
 -1      2653 1.35344E+01
 -1      2654 2.71798E+01
 -1      2655 2.30839E+01
 -1      2656 2.71798E+01
 -1      2657 9.91111E+00
 -1      2658 6.15595E+00
 -1      2659 7.36390E+00
 -1      2660 4.77402E+00
 -1      2661 5.87739E+00
 -1      2662 3.89657E+00
 -1      2663 1.17670E+00
 -1      2664 1.28220E+00
 -1      2665 7.50344E+00
 -1      2666 8.63474E+00
 -1      2667 4.22836E-01
 -1      2668 4.08062E-01
 -1      2669 4.00249E-01
 -1      2670 3.87301E-01
 -1      2671 3.50731E-01
 -1      2672 4.36575E-01
 -1      2673 4.36575E-01
 -1      2674 4.73542E-01
 -1      2675 4.24592E-01
 -1      2676 3.50004E-01
 -1      2677 7.17690E-01
 -1      2678 7.95926E-01
 -1      2679 1.67160E+01
 -1      2680 2.20607E+01
 -1      2681 6.10360E+00
 -1      2682 5.12653E+00
 -1      2683 6.96837E+00
 -1      2684 5.49733E-01
 -1      2685 4.93017E-01
 -1      2686 4.86672E-01
 -1      2687 4.30536E-01
 -1      2688 3.90633E-01
 -1      2689 4.10183E-01
 -1      2690 3.60924E-01
 -1      2691 3.63936E-01
 -1      2692 3.36191E-01
 -1      2693 3.08775E-01
 -1      2694 3.18850E-01
 -1      2695 2.84010E-01
 -1      2696 2.59095E-01
 -1      2697 2.69353E-01
 -1      2698 2.43434E-01
 -1      2699 2.19907E-01
 -1      2700 2.28927E-01
 -1      2701 2.03705E-01
 -1      2702 1.84431E-01
 -1      2703 1.97064E-01
 -1      2704 1.68947E-01
 -1      2705 1.52248E-01
 -1      2706 1.65378E-01
 -1      2707 1.38229E-01
 -1      2708 1.23698E-01
 -1      2709 1.35875E-01
 -1      2710 1.12335E-01
 -1      2711 1.00075E-01
 -1      2712 1.10493E-01
 -1      2713 9.06602E-02
 -1      2714 8.05390E-02
 -1      2715 8.97168E-02
 -1      2716 7.23633E-02
 -1      2717 6.43591E-02
 -1      2718 7.21266E-02
 -1      2719 5.76851E-02
 -1      2720 5.13355E-02
 -1      2721 5.72769E-02
 -1      2722 4.55361E-02
 -1      2723 4.16669E-02
 -1      2724 4.48035E-02
 -1      2725 3.77123E-02
 -1      2726 3.84134E-02
 -1      2727 3.50495E-02
 -1      2728 4.14616E-02
 -1      2729 4.67614E-02
 -1      2730 3.41432E-02
 -1      2731 5.77504E-02
 -1      2732 6.81404E-02
 -1      2733 4.81804E-02
 -1      2734 8.39851E-02
 -1      2735 1.03487E-01
 -1      2736 7.50141E-02
 -1      2737 1.23691E-01
 -1      2738 1.49184E-01
 -1      2739 1.11063E-01
 -1      2740 1.75006E-01
 -1      2741 2.08112E-01
 -1      2742 1.57089E-01
 -1      2743 2.41005E-01
 -1      2744 2.83494E-01
 -1      2745 2.15804E-01
 -1      2746 3.25133E-01
 -1      2747 3.78803E-01
 -1      2748 2.90336E-01
 -1      2749 4.31148E-01
 -1      2750 4.97570E-01
 -1      2751 3.84321E-01
 -1      2752 5.62972E-01
 -1      2753 6.43023E-01
 -1      2754 5.02067E-01
 -1      2755 7.25548E-01
 -1      2756 8.18616E-01
 -1      2757 6.49993E-01
 -1      2758 9.23664E-01
 -1      2759 1.02640E+00
 -1      2760 8.37566E-01
 -1      2761 1.15324E+00
 -1      2762 1.25783E+00
 -1      2763 1.06945E+00
 -1      2764 1.40911E+00
 -1      2765 1.50115E+00
 -1      2766 1.34758E+00
 -1      2767 1.69045E+00
 -1      2768 1.78995E+00
 -1      2769 1.68816E+00
 -1      2770 1.99728E+00
 -1      2771 2.18109E+00
 -1      2772 2.08479E+00
 -1      2773 2.47410E+00
 -1      2774 2.65745E+00
 -1      2775 2.58514E+00
 -1      2776 3.20669E+00
 -1      2777 3.37305E+00
 -1      2778 3.42739E+00
 -1      2779 4.10232E+00
 -1      2780 4.37764E+00
 -1      2781 4.70590E+00
 -1      2782 6.87383E+00
 -1      2783 8.40310E+00
 -1      2784 6.53082E+00
 -1      2785 5.08183E+00
 -1      2786 4.13210E+00
 -1      2787 3.76692E+00
 -1      2788 3.16246E+00
 -1      2789 2.71998E+00
 -1      2790 4.02730E+00
 -1      2791 2.01712E+00
 -1      2792 1.72059E+00
 -1      2793 2.71998E+00
 -1      2794 4.17350E-01
 -1      2795 4.71020E-01
 -1      2796 2.43409E-01
 -1      2797 2.71086E-01
 -1      2798 2.02700E-01
 -1      2799 2.24940E-01
 -1      2800 2.15787E-01
 -1      2801 1.66187E-01
 -1      2802 1.85633E-01
 -1      2803 1.80250E-01
 -1      2804 1.35655E-01
 -1      2805 1.52222E-01
 -1      2806 1.49217E-01
 -1      2807 1.10217E-01
 -1      2808 1.23257E-01
 -1      2809 1.22853E-01
 -1      2810 8.89536E-02
 -1      2811 9.94804E-02
 -1      2812 9.97189E-02
 -1      2813 7.10671E-02
 -1      2814 7.99959E-02
 -1      2815 8.00247E-02
 -1      2816 5.59330E-02
 -1      2817 6.35000E-02
 -1      2818 6.35000E-02
 -1      2819 4.57983E-02
 -1      2820 5.01023E-02
 -1      2821 5.01023E-02
 -1      2822 4.02285E-02
 -1      2823 4.09323E-02
 -1      2824 3.94057E-02
 -1      2825 4.79483E-02
 -1      2826 4.31851E-02
 -1      2827 3.74963E-02
 -1      2828 6.04443E-02
 -1      2829 5.34602E-02
 -1      2830 4.59648E-02
 -1      2831 8.72943E-02
 -1      2832 7.44342E-02
 -1      2833 6.54665E-02
 -1      2834 1.24443E-01
 -1      2835 1.04569E-01
 -1      2836 9.67315E-02
 -1      2837 1.69969E-01
 -1      2838 1.45607E-01
 -1      2839 1.35170E-01
 -1      2840 2.24369E-01
 -1      2841 1.95435E-01
 -1      2842 1.81799E-01
 -1      2843 2.87088E-01
 -1      2844 2.54187E-01
 -1      2845 2.37082E-01
 -1      2846 3.55890E-01
 -1      2847 3.20705E-01
 -1      2848 3.00517E-01
 -1      2849 4.26090E-01
 -1      2850 3.91830E-01
 -1      2851 3.70074E-01
 -1      2852 4.91785E-01
 -1      2853 4.61558E-01
 -1      2854 4.41483E-01
 -1      2855 5.52124E-01
 -1      2856 5.25003E-01
 -1      2857 5.10169E-01
 -1      2858 6.04686E-01
 -1      2859 5.85189E-01
 -1      2860 5.76453E-01
 -1      2861 6.46212E-01
 -1      2862 6.45499E-01
 -1      2863 6.50332E-01
 -1      2864 6.55877E-01
 -1      2865 6.78605E-01
 -1      2866 7.23538E-01
 -1      2867 6.85565E-01
 -1      2868 6.62882E-01
 -1      2869 7.62935E-01
 -1      2870 8.35457E-01
 -1      2871 8.02067E-01
 -1      2872 8.86442E-01
 -1      2873 1.08023E+00
 -1      2874 9.22597E-01
 -1      2875 1.09008E+00
 -1      2876 1.41220E+00
 -1      2877 1.18426E+00
 -1      2878 1.28125E+00
 -1      2879 1.64908E+00
 -1      2880 1.51068E+00
 -1      2881 1.48376E+00
 -1      2882 1.95213E+00
 -1      2883 1.80891E+00
 -1      2884 1.74208E+00
 -1      2885 2.20299E+00
 -1      2886 2.20622E+00
 -1      2887 2.15601E+00
 -1      2888 2.29459E+00
 -1      2889 2.31180E+00
 -1      2890 2.51891E+00
 -1      2891 2.19170E+00
 -1      2892 2.19799E+00
 -1      2893 2.53112E+00
 -1      2894 1.85944E+00
 -1      2895 1.93642E+00
 -1      2896 2.17924E+00
 -1      2897 1.76979E+00
 -1      2898 1.86341E+00
 -1      2899 1.92792E+00
 -1      2900 1.59992E+00
 -1      2901 1.68123E+00
 -1      2902 1.84333E+00
 -1      2903 1.31410E+00
 -1      2904 1.44507E+00
 -1      2905 1.59992E+00
 -1      2906 1.22816E+00
 -1      2907 1.23138E+00
 -1      2908 1.36235E+00
 -1      2909 1.22816E+00
 -1      2910 4.33347E+00
 -1      2911 3.71963E+00
 -1      2912 1.72258E+00
 -1      2913 1.58072E+00
 -1      2914 2.01911E+00
 -1      2915 2.32217E+00
 -1      2916 2.12724E+00
 -1      2917 4.96198E+00
 -1      2918 4.87440E+00
 -1      2919 5.41895E+00
 -1      2920 3.42805E+00
 -1      2921 3.16639E+00
 -1      2922 3.45065E+00
 -1      2923 4.58644E+00
 -1      2924 6.81460E+00
 -1      2925 5.79085E+00
 -1      2926 4.96198E+00
 -1      2927 4.96198E+00
 -1      2928 5.95988E+00
 -1      2929 4.11806E+00
 -1      2930 4.68277E+00
 -1      2931 5.68067E+00
 -1      2932 3.12951E+00
 -1      2933 3.44171E+00
 -1      2934 4.72511E+00
 -1      2935 5.04792E-01
 -1      2936 5.84149E-01
 -1      2937 4.30552E-01
 -1      2938 1.38980E+01
 -1      2939 1.92736E+01
 -1      2940 1.79318E+00
 -1      2941 2.17375E+01
 -1      2942 2.12608E+01
 -1      2943 8.28463E-01
 -1      2944 6.12892E-01
 -1      2945 5.75986E-01
 -1      2946 4.06354E-01
 -1      2947 7.09928E+00
 -1      2948 6.87383E+00
 -1      2949 6.48429E+00
 -1      2950 9.60514E+00
 -1      2951 1.18662E+01
 -1      2952 1.39410E+01
 -1      2953 1.07675E+01
 -1      2954 2.90794E-01
 -1      2955 3.22595E-01
 -1      2956 2.53965E-01
 -1      2957 3.49885E-01
 -1      2958 3.83086E-01
 -1      2959 3.00963E-01
 -1      2960 5.98032E-01
 -1      2961 5.47736E-01
 -1      2962 3.94981E-01
 -1      2963 3.70938E-01
 -1      2964 6.09739E-01
 -1      2965 7.03448E-01
 -1      2966 5.29745E-01
 -1      2967 4.89913E-01
 -1      2968 4.36575E-01
 -1      2969 4.24558E-01
 -1      2970 3.60265E-01
 -1      2971 3.61987E-01
 -1      2972 5.63012E+00
 -1      2973 6.79341E+00
 -1      2974 4.23384E-01
 -1      2975 4.35597E-01
 -1      2976 9.83327E+00
 -1      2977 7.80311E+00
 -1      2978 6.25519E+00
 -1      2979 4.47327E+00
 -1      2980 1.11022E+01
 -1      2981 1.26958E+01
 -1      2982 1.00444E+01
 -1      2983 8.07122E+00
 -1      2984 3.83189E+00
 -1      2985 4.74519E+00
 -1      2986 3.54866E+00
 -1      2987 4.53585E+00
 -1      2988 6.37394E+00
 -1      2989 9.46853E+00
 -1      2990 5.15819E+00
 -1      2991 4.19677E+00
 -1      2992 2.25107E+01
 -1      2993 1.93313E+01
 -1      2994 1.53140E+01
 -1      2995 2.13034E+01
 -1      2996 2.43175E+01
 -1      2997 6.73562E+00
 -1      2998 4.93917E+00
 -1      2999 7.94810E+00
 -1      3000 4.61632E+00
 -1      3001 3.95169E+00
 -1      3002 7.56213E+00
 -1      3003 5.08082E+00
 -1      3004 3.42701E-01
 -1      3005 3.87083E-01
 -1      3006 3.99985E-01
 -1      3007 1.43873E+01
 -1      3008 4.39763E+00
 -1      3009 4.35597E-01
 -1      3010 4.35597E-01
 -1      3011 3.60212E-01
 -1      3012 5.61491E+00
 -1      3013 3.20167E+00
 -1      3014 3.40178E+00
 -1      3015 3.35022E+00
 -1      3016 1.43207E+01
 -1      3017 1.02613E+01
 -1      3018 3.32010E+00
 -1      3019 3.30358E+00
 -1      3020 4.00495E+00
 -1      3021 2.24067E+00
 -1      3022 1.76149E+00
 -1      3023 1.57457E+00
 -1      3024 3.81870E+00
 -1      3025 1.46979E+01
 -1      3026 3.62517E-01
 -1      3027 3.93113E+00
 -1      3028 8.92765E+00
 -1      3029 8.62995E+00
 -1      3030 4.17469E+00
 -1      3031 1.95901E+01
 -1      3032 1.29077E+00
 -1      3033 1.24201E+00
 -1      3034 1.29347E+00
 -1      3035 1.59112E+00
 -1      3036 2.11568E+00
 -1      3037 1.42775E+01
 -1      3038 9.98718E+00
 -1      3039 1.44888E+01
 -1      3040 4.47091E+00
 -1      3041 1.14658E+01
 -1      3042 5.76525E-01
 -1      3043 7.46187E+00
 -1      3044 6.98909E+00
 -1      3045 4.49703E+00
 -1      3046 1.87536E+01
 -1      3047 1.62229E+01
 -1      3048 1.81222E+01
 -1      3049 3.96821E+00
 -1      3050 9.85753E+00
 -1      3051 1.01161E+01
 -1      3052 7.35472E+00
 -1      3053 6.38853E+00
 -1      3054 1.32757E+01
 -1      3055 1.12702E+01
 -1      3056 9.61003E+00
 -1      3057 4.07689E-01
 -1      3058 4.22223E-01
 -1      3059 3.59052E-01
 -1      3060 3.50187E-01
 -1      3061 4.41004E-01
 -1      3062 5.27637E+00
 -1      3063 4.41159E+00
 -1      3064 4.58753E+00
 -1      3065 6.00437E+00
 -1      3066 2.62264E+00
 -1      3067 2.71722E+00
 -1      3068 3.63648E+00
 -1      3069 2.62066E+00
 -1      3070 2.89382E-01
 -1      3071 3.01365E-01
 -1      3072 1.28073E+01
 -1      3073 1.24841E+01
 -1      3074 4.37764E+00
 -1      3075 3.19601E-01
 -1      3076 2.99248E-01
 -1      3077 2.96227E-01
 -1      3078 2.71494E-01
 -1      3079 2.51892E-01
 -1      3080 2.60665E-01
 -1      3081 2.35900E-01
 -1      3082 2.38041E-01
 -1      3083 2.21771E-01
 -1      3084 2.06109E-01
 -1      3085 2.13082E-01
 -1      3086 1.92761E-01
 -1      3087 1.76559E-01
 -1      3088 1.85604E-01
 -1      3089 1.65954E-01
 -1      3090 1.50470E-01
 -1      3091 1.61651E-01
 -1      3092 1.39273E-01
 -1      3093 1.25254E-01
 -1      3094 1.39849E-01
 -1      3095 1.14381E-01
 -1      3096 1.03019E-01
 -1      3097 1.17780E-01
 -1      3098 9.29461E-02
 -1      3099 8.35317E-02
 -1      3100 9.68341E-02
 -1      3101 7.44105E-02
 -1      3102 6.62347E-02
 -1      3103 7.76398E-02
 -1      3104 5.79928E-02
 -1      3105 5.13188E-02
 -1      3106 6.02767E-02
 -1      3107 4.37258E-02
 -1      3108 3.79264E-02
 -1      3109 4.44418E-02
 -1      3110 3.06240E-02
 -1      3111 2.66695E-02
 -1      3112 2.95464E-02
 -1      3113 2.71882E-02
 -1      3114 3.02364E-02
 -1      3115 2.27628E-02
 -1      3116 3.89782E-02
 -1      3117 4.99672E-02
 -1      3118 3.20233E-02
 -1      3119 6.32863E-02
 -1      3120 7.91310E-02
 -1      3121 5.40841E-02
 -1      3122 9.62439E-02
 -1      3123 1.16448E-01
 -1      3124 8.45160E-02
 -1      3125 1.39788E-01
 -1      3126 1.65610E-01
 -1      3127 1.24969E-01
 -1      3128 1.96267E-01
 -1      3129 2.29160E-01
 -1      3130 1.78966E-01
 -1      3131 2.68946E-01
 -1      3132 3.10586E-01
 -1      3133 2.49409E-01
 -1      3134 3.61773E-01
 -1      3135 4.14118E-01
 -1      3136 3.40382E-01
 -1      3137 4.79269E-01
 -1      3138 5.44671E-01
 -1      3139 4.56721E-01
 -1      3140 6.26506E-01
 -1      3141 7.09030E-01
 -1      3142 6.03708E-01
 -1      3143 8.10037E-01
 -1      3144 9.15085E-01
 -1      3145 7.86550E-01
 -1      3146 1.03651E+00
 -1      3147 1.16335E+00
 -1      3148 1.00899E+00
 -1      3149 1.30822E+00
 -1      3150 1.45951E+00
 -1      3151 1.27529E+00
 -1      3152 1.67405E+00
 -1      3153 1.86335E+00
 -1      3154 1.63470E+00
 -1      3155 2.21136E+00
 -1      3156 2.41869E+00
 -1      3157 2.19724E+00
 -1      3158 3.05295E+00
 -1      3159 3.34597E+00
 -1      3160 3.17952E+00
 -1      3161 3.90543E+00
 -1      3162 4.45466E+00
 -1      3163 4.37324E+00
 -1      3164 1.13548E+01
 -1      3165 1.33847E+01
 -1      3166 3.60403E+00
 -1      3167 2.96265E+00
 -1      3168 1.93303E-01
 -1      3169 2.11772E-01
 -1      3170 1.11929E-01
 -1      3171 1.24327E-01
 -1      3172 9.01795E-02
 -1      3173 1.00916E-01
 -1      3174 1.02390E-01
 -1      3175 7.14479E-02
 -1      3176 8.04055E-02
 -1      3177 8.16026E-02
 -1      3178 5.52166E-02
 -1      3179 6.27837E-02
 -1      3180 6.31645E-02
 -1      3181 4.26915E-02
 -1      3182 4.85222E-02
 -1      3183 4.78059E-02
 -1      3184 3.16362E-02
 -1      3185 3.65022E-02
 -1      3186 3.49221E-02
 -1      3187 3.21133E-02
 -1      3188 2.91567E-02
 -1      3189 2.62532E-02
 -1      3190 4.32303E-02
 -1      3191 3.77184E-02
 -1      3192 2.93788E-02
 -1      3193 6.88119E-02
 -1      3194 5.48219E-02
 -1      3195 4.65756E-02
 -1      3196 1.00247E-01
 -1      3197 8.29724E-02
 -1      3198 7.23278E-02
 -1      3199 1.38834E-01
 -1      3200 1.17671E-01
 -1      3201 1.03911E-01
 -1      3202 1.85682E-01
 -1      3203 1.60217E-01
 -1      3204 1.42717E-01
 -1      3205 2.41490E-01
 -1      3206 2.11673E-01
 -1      3207 1.90090E-01
 -1      3208 3.06450E-01
 -1      3209 2.72833E-01
 -1      3210 2.47423E-01
 -1      3211 3.80258E-01
 -1      3212 3.44319E-01
 -1      3213 3.16634E-01
 -1      3214 4.58326E-01
 -1      3215 4.22857E-01
 -1      3216 3.97102E-01
 -1      3217 5.36692E-01
 -1      3218 5.03474E-01
 -1      3219 4.84849E-01
 -1      3220 6.14219E-01
 -1      3221 5.81154E-01
 -1      3222 5.74458E-01
 -1      3223 7.06910E-01
 -1      3224 6.66097E-01
 -1      3225 6.70797E-01
 -1      3226 8.17464E-01
 -1      3227 7.85071E-01
 -1      3228 8.00836E-01
 -1      3229 9.09307E-01
 -1      3230 9.02303E-01
 -1      3231 9.63836E-01
 -1      3232 1.09717E+00
 -1      3233 9.80665E-01
 -1      3234 1.12003E+00
 -1      3235 1.35561E+00
 -1      3236 1.26847E+00
 -1      3237 1.36270E+00
 -1      3238 1.80513E+00
 -1      3239 1.70110E+00
 -1      3240 1.87949E+00
 -1      3241 1.97153E+00
 -1      3242 1.87304E+00
 -1      3243 2.29289E+00
 -1      3244 2.03409E+00
 -1      3245 1.87426E+00
 -1      3246 2.26353E+00
 -1      3247 2.41010E+00
 -1      3248 2.15601E+00
 -1      3249 2.28818E+00
 -1      3250 3.72264E+00
 -1      3251 3.61383E+00
 -1      3252 3.61383E+00
 -1      3253 2.48229E+00
 -1      3254 2.73757E+00
 -1      3255 2.14656E+00
 -1      3256 2.14260E+00
 -1      3257 2.70093E+00
 -1      3258 1.98462E+00
 -1      3259 2.07318E+00
 -1      3260 2.28785E+00
 -1      3261 1.59992E+00
 -1      3262 1.75477E+00
 -1      3263 1.98462E+00
 -1      3264 1.35238E+00
 -1      3265 1.43510E+00
 -1      3266 1.58996E+00
 -1      3267 1.36623E+00
 -1      3268 4.12951E-01
 -1      3269 3.09968E-01
 -1      3270 2.61329E-01
 -1      3271 3.98709E-01
 -1      3272 6.89485E+00
 -1      3273 6.35392E+00
 -1      3274 5.68820E+00
 -1      3275 6.36454E+00
 -1      3276 2.26043E-01
 -1      3277 2.45751E-01
 -1      3278 2.03558E-01
 -1      3279 3.51365E-01
 -1      3280 3.85137E-01
 -1      3281 8.20288E+00
 -1      3282 8.48209E+00
 -1      3283 9.16596E+00
 -1      3284 1.36497E-01
 -1      3285 1.50462E-01
 -1      3286 1.25573E-01
 -1      3287 1.63395E-01
 -1      3288 1.80463E-01
 -1      3289 1.76448E-01
 -1      3290 1.50675E-01
 -1      3291 4.05904E-01
 -1      3292 3.82321E-01
 -1      3293 3.24858E-01
 -1      3294 3.30519E-01
 -1      3295 3.81726E+00
 -1      3296 3.46475E+00
 -1      3297 3.15259E-01
 -1      3298 3.08915E-01
 -1      3299 2.44227E-01
 -1      3300 4.31835E+00
 -1      3301 2.64079E-01
 -1      3302 2.91369E-01
 -1      3303 2.36157E-01
 -1      3304 6.60761E+00
 -1      3305 4.79159E+00
 -1      3306 7.70264E+00
 -1      3307 6.97954E+00
 -1      3308 1.34031E+01
 -1      3309 1.62654E+01
 -1      3310 1.32776E+01
 -1      3311 1.10344E+01
 -1      3312 3.28976E+00
 -1      3313 4.17469E+00
 -1      3314 1.25342E+01
 -1      3315 1.37841E+01
 -1      3316 3.07603E-01
 -1      3317 3.41867E-01
 -1      3318 2.70719E-01
 -1      3319 4.93860E+00
 -1      3320 4.95979E+00
 -1      3321 9.16130E+00
 -1      3322 1.03635E+01
 -1      3323 8.33892E+00
 -1      3324 9.46786E+00
 -1      3325 7.68766E+00
 -1      3326 3.23596E-01
 -1      3327 3.15784E-01
 -1      3328 3.12267E-01
 -1      3329 3.12049E-01
 -1      3330 2.85133E-01
 -1      3331 4.84871E+00
 -1      3332 6.99198E+00
 -1      3333 6.19855E+00
 -1      3334 1.09542E+01
 -1      3335 3.21050E-01
 -1      3336 3.21050E-01
 -1      3337 2.60428E-01
 -1      3338 3.19918E-01
 -1      3339 3.19918E-01
 -1      3340 2.76985E+00
 -1      3341 6.21572E+00
 -1      3342 3.68440E-01
 -1      3343 3.94029E-01
 -1      3344 2.77235E-01
 -1      3345 2.89253E-01
 -1      3346 8.81449E+00
 -1      3347 4.78432E+00
 -1      3348 9.05031E+00
 -1      3349 4.70590E+00
 -1      3350 5.43517E+00
 -1      3351 2.96265E+00
 -1      3352 2.92700E+00
 -1      3353 2.56126E+00
 -1      3354 5.12144E+00
 -1      3355 4.41859E+00
 -1      3356 3.21484E+00
 -1      3357 4.30976E+00
 -1      3358 4.45198E+00
 -1      3359 3.11824E+00
 -1      3360 3.77123E+00
 -1      3361 2.92700E+00
 -1      3362 3.24759E+00
 -1      3363 7.84940E+00
 -1      3364 6.74708E+00
 -1      3365 5.43441E+00
 -1      3366 7.07384E+00
 -1      3367 2.69991E-01
 -1      3368 2.94024E-01
 -1      3369 3.16071E-01
 -1      3370 6.21175E+00
 -1      3371 5.92018E+00
 -1      3372 3.82311E+00
 -1      3373 2.96452E-01
 -1      3374 8.43199E+00
 -1      3375 8.43199E+00
 -1      3376 3.25318E-01
 -1      3377 3.23596E-01
 -1      3378 2.88649E-01
 -1      3379 2.84381E-01
 -1      3380 1.39696E+01
 -1      3381 9.80444E+00
 -1      3382 1.15386E+01
 -1      3383 8.32179E+00
 -1      3384 7.98535E+00
 -1      3385 6.03724E+00
 -1      3386 1.23929E+01
 -1      3387 9.06816E+00
 -1      3388 9.04980E+00
 -1      3389 3.88248E+00
 -1      3390 4.23127E+00
 -1      3391 3.13602E+00
 -1      3392 4.66641E+00
 -1      3393 4.06196E+00
 -1      3394 1.19352E+01
 -1      3395 4.81898E+00
 -1      3396 6.21572E+00
 -1      3397 3.24076E-01
 -1      3398 2.83781E-01
 -1      3399 3.22915E-01
 -1      3400 3.42129E+00
 -1      3401 5.76056E+00
 -1      3402 5.18394E+00
 -1      3403 3.93750E+00
 -1      3404 6.16933E+00
 -1      3405 5.88646E+00
 -1      3406 3.18067E-01
 -1      3407 5.38260E+00
 -1      3408 3.65802E+00
 -1      3409 3.99656E+00
 -1      3410 3.06368E+00
 -1      3411 3.52247E+00
 -1      3412 2.36349E-01
 -1      3413 2.96250E+00
 -1      3414 2.84797E+00
 -1      3415 1.86734E-01
 -1      3416 1.83926E-01
 -1      3417 2.15857E-01
 -1      3418 2.05028E-01
 -1      3419 2.01431E-01
 -1      3420 1.87302E-01
 -1      3421 1.79247E-01
 -1      3422 1.79445E-01
 -1      3423 1.66096E-01
 -1      3424 1.67794E-01
 -1      3425 1.56236E-01
 -1      3426 1.45631E-01
 -1      3427 1.50076E-01
 -1      3428 1.37314E-01
 -1      3429 1.26118E-01
 -1      3430 1.31899E-01
 -1      3431 1.17813E-01
 -1      3432 1.06940E-01
 -1      3433 1.15278E-01
 -1      3434 9.84538E-02
 -1      3435 8.83808E-02
 -1      3436 9.84869E-02
 -1      3437 8.02156E-02
 -1      3438 7.10944E-02
 -1      3439 8.18353E-02
 -1      3440 6.34614E-02
 -1      3441 5.52195E-02
 -1      3442 6.60372E-02
 -1      3443 4.81312E-02
 -1      3444 4.05382E-02
 -1      3445 5.13159E-02
 -1      3446 3.43867E-02
 -1      3447 2.70843E-02
 -1      3448 3.80762E-02
 -1      3449 2.80315E-02
 -1      3450 2.85502E-02
 -1      3451 3.28718E-02
 -1      3452 3.11310E-02
 -1      3453 3.98728E-02
 -1      3454 3.63997E-02
 -1      3455 5.14739E-02
 -1      3456 6.47929E-02
 -1      3457 5.05816E-02
 -1      3458 8.08049E-02
 -1      3459 9.79178E-02
 -1      3460 7.81946E-02
 -1      3461 1.18632E-01
 -1      3462 1.41972E-01
 -1      3463 1.14921E-01
 -1      3464 1.68777E-01
 -1      3465 1.99435E-01
 -1      3466 1.62441E-01
 -1      3467 2.34040E-01
 -1      3468 2.73826E-01
 -1      3469 2.23852E-01
 -1      3470 3.18383E-01
 -1      3471 3.69570E-01
 -1      3472 3.03014E-01
 -1      3473 4.26888E-01
 -1      3474 4.92039E-01
 -1      3475 4.04888E-01
 -1      3476 5.65951E-01
 -1      3477 6.47786E-01
 -1      3478 5.36118E-01
 -1      3479 7.43787E-01
 -1      3480 8.44794E-01
 -1      3481 7.06031E-01
 -1      3482 9.71084E-01
 -1      3483 1.09251E+00
 -1      3484 9.28322E-01
 -1      3485 1.26152E+00
 -1      3486 1.40639E+00
 -1      3487 1.22362E+00
 -1      3488 1.63470E+00
 -1      3489 1.84924E+00
 -1      3490 1.62093E+00
 -1      3491 2.16174E+00
 -1      3492 2.50975E+00
 -1      3493 2.16174E+00
 -1      3494 3.09003E+00
 -1      3495 3.72430E+00
 -1      3496 3.05453E+00
 -1      3497 6.49584E+00
 -1      3498 5.02212E+00
 -1      3499 9.43890E-02
 -1      3500 1.05402E-01
 -1      3501 4.43364E-02
 -1      3502 5.10308E-02
 -1      3503 3.09941E-02
 -1      3504 3.71835E-02
 -1      3505 4.04084E-02
 -1      3506 2.57476E-02
 -1      3507 2.82271E-02
 -1      3508 3.04884E-02
 -1      3509 3.26259E-02
 -1      3510 2.70208E-02
 -1      3511 2.89946E-02
 -1      3512 5.37118E-02
 -1      3513 4.21201E-02
 -1      3514 3.97620E-02
 -1      3515 8.10014E-02
 -1      3516 6.68408E-02
 -1      3517 6.23853E-02
 -1      3518 1.15015E-01
 -1      3519 9.75924E-02
 -1      3520 9.21053E-02
 -1      3521 1.56701E-01
 -1      3522 1.35318E-01
 -1      3523 1.28999E-01
 -1      3524 2.07066E-01
 -1      3525 1.81076E-01
 -1      3526 1.73676E-01
 -1      3527 2.66861E-01
 -1      3528 2.35518E-01
 -1      3529 2.26503E-01
 -1      3530 3.36641E-01
 -1      3531 2.98773E-01
 -1      3532 2.86867E-01
 -1      3533 4.14451E-01
 -1      3534 3.71852E-01
 -1      3535 3.53990E-01
 -1      3536 5.05822E-01
 -1      3537 4.60674E-01
 -1      3538 4.35424E-01
 -1      3539 6.12984E-01
 -1      3540 5.68522E-01
 -1      3541 5.44348E-01
 -1      3542 7.41276E-01
 -1      3543 6.89399E-01
 -1      3544 6.83463E-01
 -1      3545 9.11102E-01
 -1      3546 8.32940E-01
 -1      3547 8.51542E-01
 -1      3548 1.09896E+00
 -1      3549 1.01412E+00
 -1      3550 1.04623E+00
 -1      3551 1.34521E+00
 -1      3552 1.27386E+00
 -1      3553 1.32414E+00
 -1      3554 1.70310E+00
 -1      3555 1.53179E+00
 -1      3556 1.68562E+00
 -1      3557 2.24155E+00
 -1      3558 1.89606E+00
 -1      3559 2.06516E+00
 -1      3560 2.84993E+00
 -1      3561 2.72801E+00
 -1      3562 7.22882E+00
 -1      3563 2.46108E+00
 -1      3564 2.53446E+00
 -1      3565 2.70093E+00
 -1      3566 3.04062E+00
 -1      3567 2.99685E-01
 -1      3568 1.82781E-01
 -1      3569 1.97052E-01
 -1      3570 1.59967E+00
 -1      3571 1.31586E+00
 -1      3572 1.37478E+00
 -1      3573 2.28600E+00
 -1      3574 4.44412E+00
 -1      3575 4.07219E+00
 -1      3576 3.94212E+00
 -1      3577 2.75456E+00
 -1      3578 9.36696E+00
 -1      3579 2.32197E-01
 -1      3580 2.48431E-01
 -1      3581 8.65951E+00
 -1      3582 1.04978E+01
 -1      3583 1.14887E-01
 -1      3584 1.27056E-01
 -1      3585 1.06886E-01
 -1      3586 1.97234E-01
 -1      3587 2.07919E-01
 -1      3588 8.60262E+00
 -1      3589 1.04594E+01
 -1      3590 8.20607E+00
 -1      3591 5.86613E-02
 -1      3592 6.73255E-02
 -1      3593 5.51918E-02
 -1      3594 7.56195E-02
 -1      3595 8.53934E-02
 -1      3596 8.84058E-02
 -1      3597 7.11163E-02
 -1      3598 2.07403E-01
 -1      3599 2.25731E-01
 -1      3600 2.03443E-01
 -1      3601 3.15211E-01
 -1      3602 3.22915E-01
 -1      3603 2.87939E-01
 -1      3604 2.47556E-01
 -1      3605 2.57055E-01
 -1      3606 2.09034E-01
 -1      3607 2.15011E-01
 -1      3608 2.11990E-01
 -1      3609 1.78976E-01
 -1      3610 4.05366E+00
 -1      3611 7.15439E+00
 -1      3612 8.14572E+00
 -1      3613 3.14180E+00
 -1      3614 5.59125E+00
 -1      3615 2.40091E+00
 -1      3616 4.38156E+00
 -1      3617 4.38445E+00
 -1      3618 3.76701E+00
 -1      3619 2.03042E-01
 -1      3620 2.22727E-01
 -1      3621 1.47619E-01
 -1      3622 2.36190E-01
 -1      3623 2.19493E-01
 -1      3624 1.87295E-01
 -1      3625 4.94231E+00
 -1      3626 5.03179E+00
 -1      3627 1.86625E-01
 -1      3628 8.40572E+00
 -1      3629 1.58072E-01
 -1      3630 1.70911E-01
 -1      3631 1.64404E-01
 -1      3632 2.54928E+00
 -1      3633 2.56585E+00
 -1      3634 2.61719E+00
 -1      3635 2.49817E+00
 -1      3636 3.58244E+00
 -1      3637 3.58244E+00
 -1      3638 2.59390E-01
 -1      3639 1.53959E+00
 -1      3640 1.76944E+00
 -1      3641 1.98462E+00
 -1      3642 2.21447E+00
 -1      3643 2.73103E+00
 -1      3644 2.53113E-01
 -1      3645 2.49596E-01
 -1      3646 3.00365E+00
 -1      3647 7.87702E+00
 -1      3648 8.39620E+00
 -1      3649 6.39437E+00
 -1      3650 2.53113E-01
 -1      3651 2.53113E-01
 -1      3652 2.17576E-01
 -1      3653 1.25857E-01
 -1      3654 1.36543E-01
 -1      3655 1.49476E-01
 -1      3656 7.72162E+00
 -1      3657 6.72979E+00
 -1      3658 5.82571E+00
 -1      3659 3.32867E+00
 -1      3660 7.47487E+00
 -1      3661 8.48507E+00
 -1      3662 7.00932E+00
 -1      3663 2.84778E-01
 -1      3664 5.39654E+00
 -1      3665 2.06967E-01
 -1      3666 3.06589E+00
 -1      3667 2.46108E+00
 -1      3668 1.68018E-01
 -1      3669 2.24433E-01
 -1      3670 2.20274E-01
 -1      3671 1.47619E-01
 -1      3672 2.56649E-01
 -1      3673 2.18948E-01
 -1      3674 1.60926E-01
 -1      3675 4.51821E+00
 -1      3676 1.55652E-01
 -1      3677 1.47795E-01
 -1      3678 1.43362E-01
 -1      3679 1.33501E-01
 -1      3680 1.31220E-01
 -1      3681 1.26811E-01
 -1      3682 1.18495E-01
 -1      3683 1.20097E-01
 -1      3684 1.10903E-01
 -1      3685 1.02598E-01
 -1      3686 1.05815E-01
 -1      3687 9.63176E-02
 -1      3688 8.78311E-02
 -1      3689 9.19425E-02
 -1      3690 8.12615E-02
 -1      3691 7.30964E-02
 -1      3692 7.90921E-02
 -1      3693 6.66814E-02
 -1      3694 5.90484E-02
 -1      3695 6.61075E-02
 -1      3696 5.29966E-02
 -1      3697 4.59084E-02
 -1      3698 5.36408E-02
 -1      3699 4.17787E-02
 -1      3700 3.56271E-02
 -1      3701 4.34593E-02
 -1      3702 3.61950E-02
 -1      3703 3.71421E-02
 -1      3704 3.98975E-02
 -1      3705 3.92229E-02
 -1      3706 4.18038E-02
 -1      3707 4.25462E-02
 -1      3708 4.59542E-02
 -1      3709 5.75552E-02
 -1      3710 4.87774E-02
 -1      3711 7.04848E-02
 -1      3712 8.64968E-02
 -1      3713 6.58574E-02
 -1      3714 1.03106E-01
 -1      3715 1.23820E-01
 -1      3716 9.53958E-02
 -1      3717 1.45129E-01
 -1      3718 1.71935E-01
 -1      3719 1.33314E-01
 -1      3720 1.99197E-01
 -1      3721 2.33802E-01
 -1      3722 1.81886E-01
 -1      3723 2.68623E-01
 -1      3724 3.13180E-01
 -1      3725 2.43969E-01
 -1      3726 3.57746E-01
 -1      3727 4.15063E-01
 -1      3728 3.23354E-01
 -1      3729 4.72614E-01
 -1      3730 5.46526E-01
 -1      3731 4.25472E-01
 -1      3732 6.22294E-01
 -1      3733 7.18295E-01
 -1      3734 5.58791E-01
 -1      3735 8.21330E-01
 -1      3736 9.47620E-01
 -1      3737 7.37594E-01
 -1      3738 1.09433E+00
 -1      3739 1.26334E+00
 -1      3740 9.87338E-01
 -1      3741 1.48441E+00
 -1      3742 1.71271E+00
 -1      3743 1.35511E+00
 -1      3744 2.08228E+00
 -1      3745 2.39479E+00
 -1      3746 1.94576E+00
 -1      3747 3.05453E+00
 -1      3748 3.63481E+00
 -1      3749 2.97507E+00
 -1      3750 3.47590E-02
 -1      3751 3.34858E-02
 -1      3752 3.21574E-02
 -1      3753 3.49244E-02
 -1      3754 3.79217E-02
 -1      3755 3.64870E-02
 -1      3756 4.36399E-02
 -1      3757 3.81559E-02
 -1      3758 4.72117E-02
 -1      3759 3.77175E-02
 -1      3760 4.22086E-02
 -1      3761 7.24097E-02
 -1      3762 5.92807E-02
 -1      3763 5.72361E-02
 -1      3764 1.04152E-01
 -1      3765 8.75606E-02
 -1      3766 8.44560E-02
 -1      3767 1.43387E-01
 -1      3768 1.23085E-01
 -1      3769 1.18540E-01
 -1      3770 1.91176E-01
 -1      3771 1.66801E-01
 -1      3772 1.60887E-01
 -1      3773 2.48158E-01
 -1      3774 2.19706E-01
 -1      3775 2.12831E-01
 -1      3776 3.14182E-01
 -1      3777 2.82270E-01
 -1      3778 2.75473E-01
 -1      3779 3.89201E-01
 -1      3780 3.53990E-01
 -1      3781 3.49393E-01
 -1      3782 4.80372E-01
 -1      3783 4.34149E-01
 -1      3784 4.34149E-01
 -1      3785 5.93994E-01
 -1      3786 5.31293E-01
 -1      3787 5.30018E-01
 -1      3788 7.47270E-01
 -1      3789 6.70855E-01
 -1      3790 6.57801E-01
 -1      3791 9.49420E-01
 -1      3792 8.57755E-01
 -1      3793 8.45148E-01
 -1      3794 1.23375E+00
 -1      3795 1.13073E+00
 -1      3796 1.13694E+00
 -1      3797 1.58674E+00
 -1      3798 1.41185E+00
 -1      3799 1.49635E+00
 -1      3800 1.88593E+00
 -1      3801 1.69935E+00
 -1      3802 1.78706E+00
 -1      3803 1.65886E-01
 -1      3804 2.87415E+00
 -1      3805 3.14180E+00
 -1      3806 2.69592E+00
 -1      3807 4.77967E+00
 -1      3808 3.46927E+00
 -1      3809 1.76422E-01
 -1      3810 1.82888E-01
 -1      3811 2.42163E-01
 -1      3812 2.46431E-01
 -1      3813 2.10894E-01
 -1      3814 2.48598E-01
 -1      3815 2.48598E-01
 -1      3816 1.85092E-01
 -1      3817 6.90407E+00
 -1      3818 7.98326E+00
 -1      3819 6.57503E+00
 -1      3820 4.99709E-02
 -1      3821 5.76014E-02
 -1      3822 4.60495E-02
 -1      3823 3.31249E+00
 -1      3824 1.84777E-01
 -1      3825 2.15621E-01
 -1      3826 2.47641E-01
 -1      3827 2.50803E-01
 -1      3828 5.06238E+00
 -1      3829 1.77802E-01
 -1      3830 1.76928E-01
 -1      3831 1.50782E-01
 -1      3832 3.16220E+00
 -1      3833 9.62416E-02
 -1      3834 1.05726E-01
 -1      3835 1.59592E-01
 -1      3836 1.55996E-01
 -1      3837 1.35997E-01
 -1      3838 2.71205E+00
 -1      3839 2.27426E+00
 -1      3840 2.08129E+00
 -1      3841 3.04760E+00
 -1      3842 1.50978E-01
 -1      3843 1.58070E-01
 -1      3844 1.49406E-01
 -1      3845 1.53273E-01
 -1      3846 1.30022E-01
 -1      3847 1.64419E-01
 -1      3848 1.74770E-01
 -1      3849 1.54215E-01
 -1      3850 5.13680E+00
 -1      3851 1.85092E-01
 -1      3852 1.85092E-01
 -1      3853 1.75144E-01
 -1      3854 2.09258E-01
 -1      3855 1.57354E-01
 -1      3856 1.36489E-01
 -1      3857 1.26122E-01
 -1      3858 2.09502E+00
 -1      3859 1.85168E-01
 -1      3860 1.83214E-01
 -1      3861 4.04960E+00
 -1      3862 1.43939E-01
 -1      3863 7.98224E-02
 -1      3864 8.88180E-02
 -1      3865 8.76582E-02
 -1      3866 1.35696E-01
 -1      3867 1.35151E-01
 -1      3868 1.54587E-01
 -1      3869 1.05755E-01
 -1      3870 1.46740E-01
 -1      3871 1.58610E-01
 -1      3872 1.46755E-01
 -1      3873 5.41231E+00
 -1      3874 4.08032E+00
 -1      3875 1.32366E-01
 -1      3876 2.11462E-01
 -1      3877 1.12838E-01
 -1      3878 1.22324E-01
 -1      3879 1.02193E-01
 -1      3880 6.07918E+00
 -1      3881 5.85637E+00
 -1      3882 5.96163E+00
 -1      3883 1.85168E-01
 -1      3884 1.85168E-01
 -1      3885 1.52761E-01
 -1      3886 4.51821E+00
 -1      3887 5.23075E+00
 -1      3888 6.55893E+00
 -1      3889 4.34735E+00
 -1      3890 5.97583E+00
 -1      3891 6.43579E-02
 -1      3892 7.26518E-02
 -1      3893 5.91369E-02
 -1      3894 3.27088E+00
 -1      3895 2.51366E+00
 -1      3896 2.31830E+00
 -1      3897 3.54638E+00
 -1      3898 1.19516E-01
 -1      3899 1.15083E-01
 -1      3900 5.05990E+00
 -1      3901 5.97583E+00
 -1      3902 5.04569E+00
 -1      3903 1.12378E-01
 -1      3904 1.05688E-01
 -1      3905 1.00674E-01
 -1      3906 1.00972E-01
 -1      3907 9.33804E-02
 -1      3908 9.32533E-02
 -1      3909 8.76869E-02
 -1      3910 8.14061E-02
 -1      3911 8.28440E-02
 -1      3912 7.54410E-02
 -1      3913 6.88715E-02
 -1      3914 7.11854E-02
 -1      3915 6.39363E-02
 -1      3916 5.75213E-02
 -1      3917 6.02852E-02
 -1      3918 5.32823E-02
 -1      3919 4.72306E-02
 -1      3920 5.11111E-02
 -1      3921 4.57657E-02
 -1      3922 4.16360E-02
 -1      3923 4.54072E-02
 -1      3924 4.16664E-02
 -1      3925 4.22342E-02
 -1      3926 4.39728E-02
 -1      3927 4.37545E-02
 -1      3928 4.58353E-02
 -1      3929 4.55234E-02
 -1      3930 4.90750E-02
 -1      3931 5.32254E-02
 -1      3932 5.02833E-02
 -1      3933 6.01625E-02
 -1      3934 7.30920E-02
 -1      3935 6.04601E-02
 -1      3936 8.32992E-02
 -1      3937 9.99082E-02
 -1      3938 7.76043E-02
 -1      3939 1.13651E-01
 -1      3940 1.34960E-01
 -1      3941 1.01554E-01
 -1      3942 1.53490E-01
 -1      3943 1.80752E-01
 -1      3944 1.33827E-01
 -1      3945 2.04703E-01
 -1      3946 2.39523E-01
 -1      3947 1.76307E-01
 -1      3948 2.69407E-01
 -1      3949 3.13972E-01
 -1      3950 2.30141E-01
 -1      3951 3.54880E-01
 -1      3952 4.12431E-01
 -1      3953 3.00932E-01
 -1      3954 4.66668E-01
 -1      3955 5.42436E-01
 -1      3956 3.96076E-01
 -1      3957 6.15636E-01
 -1      3958 7.18671E-01
 -1      3959 5.23513E-01
 -1      3960 8.21014E-01
 -1      3961 9.67724E-01
 -1      3962 6.99057E-01
 -1      3963 1.11764E+00
 -1      3964 1.33870E+00
 -1      3965 9.51311E-01
 -1      3966 1.57914E+00
 -1      3967 1.94871E+00
 -1      3968 1.34166E+00
 -1      3969 2.47621E+00
 -1      3970 3.13595E+00
 -1      3971 2.10960E+00
 -1      3972 6.41705E-02
 -1      3973 5.21015E-02
 -1      3974 4.69727E-02
 -1      3975 4.40142E-02
 -1      3976 5.39071E-02
 -1      3977 9.11555E-02
 -1      3978 7.60046E-02
 -1      3979 7.08700E-02
 -1      3980 1.26140E-01
 -1      3981 1.07207E-01
 -1      3982 9.87558E-02
 -1      3983 1.70011E-01
 -1      3984 1.46597E-01
 -1      3985 1.35264E-01
 -1      3986 2.24442E-01
 -1      3987 1.95912E-01
 -1      3988 1.81622E-01
 -1      3989 2.91134E-01
 -1      3990 2.57022E-01
 -1      3991 2.40103E-01
 -1      3992 3.71688E-01
 -1      3993 3.31879E-01
 -1      3994 3.13429E-01
 -1      3995 4.67327E-01
 -1      3996 4.22379E-01
 -1      3997 4.04865E-01
 -1      3998 5.80939E-01
 -1      3999 5.30018E-01
 -1      4000 5.18248E-01
 -1      4001 7.34663E-01
 -1      4002 6.57801E-01
 -1      4003 6.57801E-01
 -1      4004 9.39149E-01
 -1      4005 8.28664E-01
 -1      4006 8.28664E-01
 -1      4007 1.28319E+00
 -1      4008 1.10188E+00
 -1      4009 1.08540E+00
 -1      4010 2.08081E+00
 -1      4011 1.90271E+00
 -1      4012 1.86765E+00
 -1      4013 1.95011E+00
 -1      4014 1.83750E+00
 -1      4015 2.24386E+00
 -1      4016 2.36875E+00
 -1      4017 1.81009E-01
 -1      4018 2.11462E-01
 -1      4019 1.30151E-01
 -1      4020 1.38747E-01
 -1      4021 1.17132E-01
 -1      4022 5.51854E+00
 -1      4023 1.41030E-01
 -1      4024 1.32366E-01
 -1      4025 4.15105E-02
 -1      4026 4.01821E-02
 -1      4027 4.62745E-02
 -1      4028 1.71661E-01
 -1      4029 1.78343E-01
 -1      4030 1.45935E-01
 -1      4031 1.22035E-01
 -1      4032 3.84849E+00
 -1      4033 4.12160E-02
 -1      4034 4.75470E-02
 -1      4035 1.30389E-01
 -1      4036 1.25303E-01
 -1      4037 1.34704E-01
 -1      4038 1.36356E-01
 -1      4039 1.10877E-01
 -1      4040 1.19157E-01
 -1      4041 1.18813E-01
 -1      4042 1.02676E-01
 -1      4043 3.92351E-02
 -1      4044 4.07977E-02
 -1      4045 4.28238E-02
 -1      4046 2.09258E-01
 -1      4047 1.06696E-01
 -1      4048 1.13015E-01
 -1      4049 1.15360E-01
 -1      4050 3.81587E+00
 -1      4051 3.00643E+00
 -1      4052 2.63823E+00
 -1      4053 7.30640E-02
 -1      4054 1.26938E-01
 -1      4055 1.55187E-01
 -1      4056 1.32952E-01
 -1      4057 1.19009E-01
 -1      4058 9.94351E-02
 -1      4059 9.86162E-02
 -1      4060 1.75144E-01
 -1      4061 2.09258E-01
 -1      4062 4.22952E-02
 -1      4063 1.29186E-01
 -1      4064 1.34995E-01
 -1      4065 1.17135E-01
 -1      4066 9.07383E-02
 -1      4067 9.78499E-02
 -1      4068 4.74300E-02
 -1      4069 5.22635E-02
 -1      4070 5.90200E-02
 -1      4071 7.72367E-02
 -1      4072 8.46602E-02
 -1      4073 8.03168E-02
 -1      4074 1.26938E-01
 -1      4075 1.26938E-01
 -1      4076 1.01116E-01
 -1      4077 9.58313E-02
 -1      4078 3.84849E+00
 -1      4079 4.47780E+00
 -1      4080 5.30269E+00
 -1      4081 4.13997E+00
 -1      4082 4.49201E+00
 -1      4083 3.60002E+00
 -1      4084 3.67832E+00
 -1      4085 3.35422E+00
 -1      4086 9.38133E-02
 -1      4087 9.11082E-02
 -1      4088 8.50378E-02
 -1      4089 8.03220E-02
 -1      4090 7.81768E-02
 -1      4091 8.99346E-02
 -1      4092 8.42411E-02
 -1      4093 8.17191E-02
 -1      4094 7.20265E-02
 -1      4095 6.60614E-02
 -1      4096 7.91171E-02
 -1      4097 6.06594E-02
 -1      4098 5.57243E-02
 -1      4099 6.15005E-02
 -1      4100 6.11757E-02
 -1      4101 5.69367E-02
 -1      4102 6.15499E-02
 -1      4103 4.68721E-02
 -1      4104 4.54072E-02
 -1      4105 5.69367E-02
 -1      4106 4.39728E-02
 -1      4107 4.40032E-02
 -1      4108 4.54376E-02
 -1      4109 4.55234E-02
 -1      4110 4.70436E-02
 -1      4111 4.55234E-02
 -1      4112 5.02833E-02
 -1      4113 5.35230E-02
 -1      4114 5.02833E-02
 -1      4115 5.99587E-02
 -1      4116 6.68957E-02
 -1      4117 5.99587E-02
 -1      4118 7.61307E-02
 -1      4119 8.63379E-02
 -1      4120 7.56293E-02
 -1      4121 9.87196E-02
 -1      4122 1.12462E-01
 -1      4123 9.72460E-02
 -1      4124 1.28583E-01
 -1      4125 1.47113E-01
 -1      4126 1.25749E-01
 -1      4127 1.67702E-01
 -1      4128 1.91653E-01
 -1      4129 1.62458E-01
 -1      4130 2.17659E-01
 -1      4131 2.47542E-01
 -1      4132 2.09054E-01
 -1      4133 2.81385E-01
 -1      4134 3.22293E-01
 -1      4135 2.68903E-01
 -1      4136 3.65850E-01
 -1      4137 4.20087E-01
 -1      4138 3.46304E-01
 -1      4139 4.85996E-01
 -1      4140 5.59196E-01
 -1      4141 4.55770E-01
 -1      4142 6.72049E-01
 -1      4143 7.74392E-01
 -1      4144 6.34531E-01
 -1      4145 9.44835E-01
 -1      4146 1.09475E+00
 -1      4147 9.17827E-01
 -1      4148 1.35655E+00
 -1      4149 1.59698E+00
 -1      4150 1.35007E+00
 -1      4151 2.02658E+00
 -1      4152 2.55407E+00
 -1      4153 2.04146E+00
 -1      4154 1.05396E-01
 -1      4155 8.93446E-02
 -1      4156 1.39524E-01
 -1      4157 1.19068E-01
 -1      4158 1.09656E-01
 -1      4159 1.22829E-01
 -1      4160 1.83166E-01
 -1      4161 1.57266E-01
 -1      4162 1.41069E-01
 -1      4163 2.43022E-01
 -1      4164 2.10442E-01
 -1      4165 1.86086E-01
 -1      4166 3.19667E-01
 -1      4167 2.78922E-01
 -1      4168 2.49261E-01
 -1      4169 4.17925E-01
 -1      4170 3.67234E-01
 -1      4171 3.32727E-01
 -1      4172 5.51309E-01
 -1      4173 4.88617E-01
 -1      4174 4.50986E-01
 -1      4175 7.41023E-01
 -1      4176 6.64162E-01
 -1      4177 6.34531E-01
 -1      4178 1.00547E+00
 -1      4179 9.11466E-01
 -1      4180 9.17827E-01
 -1      4181 1.43000E+00
 -1      4182 1.26727E+00
 -1      4183 1.35007E+00
 -1      4184 2.47911E+00
 -1      4185 1.85959E+00
 -1      4186 2.04146E+00
 -1      4187 1.17779E-01
 -1      4188 1.25772E-01
 -1      4189 1.14012E-01
 -1      4190 6.44943E-02
 -1      4191 7.16649E-02
 -1      4192 6.86670E-02
 -1      4193 1.04370E-01
 -1      4194 1.12197E-01
 -1      4195 9.29149E-02
 -1      4196 4.87783E-02
 -1      4197 4.62745E-02
 -1      4198 9.18499E-02
 -1      4199 9.25531E-02
 -1      4200 8.29870E-02
 -1      4201 1.75144E-01
 -1      4202 7.82716E-02
 -1      4203 8.44135E-02
 -1      4204 7.42903E-02
 -1      4205 4.27988E-02
 -1      4206 4.32172E-02
 -1      4207 5.90359E-02
 -1      4208 5.39071E-02
 -1      4209 5.39071E-02
 -1      4210 9.66890E-02
 -1      4211 9.07223E-02
 -1      4212 4.24621E+00
 -1      4213 4.37708E-02
 -1      4214 4.28238E-02
 -1      4215 4.62745E-02
 -1      4216 1.21073E-01
 -1      4217 9.77216E-02
 -1      4218 7.20515E-02
 -1      4219 6.06337E-02
 -1      4220 7.77647E-02
 -1      4221 7.87558E-02
 -1      4222 6.69217E-02
 -1      4223 8.53963E-02
 -1      4224 3.76547E+00
 -1      4225 2.95179E+00
 -1      4226 1.15716E-01
 -1      4227 1.22541E-01
 -1      4228 5.53610E-02
 -1      4229 5.48574E-02
 -1      4230 5.95739E-02
 -1      4231 2.95984E+00
 -1      4232 2.95179E+00
 -1      4233 1.05017E-01
 -1      4234 2.88154E+00
 -1      4235 5.76209E-02
 -1      4236 8.77910E-02
 -1      4237 9.43111E-02
 -1      4238 8.44280E-02
 -1      4239 9.86162E-02
 -1      4240 9.23219E-02
 -1      4241 7.77647E-02
 -1      4242 6.69217E-02
 -1      4243 8.88633E-02
 -1      4244 9.02594E-02
 -1      4245 8.27852E-02
 -1      4246 1.02338E-01
 -1      4247 1.02047E-01
 -1      4248 8.18918E-02
 -1      4249 4.37458E-02
 -1      4250 2.47105E+00
 -1      4251 8.17191E-02
 -1      4252 9.13317E-02
 -1      4253 9.13317E-02
 -1      4254 7.91171E-02
 -1      4255 6.15499E-02
 -1      4256 6.70013E-02
 -1      4257 6.70013E-02
 -1      4258 5.69367E-02
 -1      4259 4.52965E-02
 -1      4260 4.38620E-02
 -1      4261 4.38870E-02
 -1      4262 4.54072E-02
 -1      4263 4.79109E-02
 -1      4264 5.11507E-02
 -1      4265 5.62795E-02
 -1      4266 6.27151E-02
 -1      4267 7.06010E-02
 -1      4268 7.98359E-02
 -1      4269 9.04247E-02
 -1      4270 1.02806E-01
 -1      4271 1.16478E-01
 -1      4272 1.32599E-01
 -1      4273 1.50340E-01
 -1      4274 1.70929E-01
 -1      4275 1.98204E-01
 -1      4276 2.24211E-01
 -1      4277 2.60110E-01
 -1      4278 2.93953E-01
 -1      4279 3.41520E-01
 -1      4280 3.85078E-01
 -1      4281 4.55770E-01
 -1      4282 5.21678E-01
 -1      4283 6.34531E-01
 -1      4284 7.47384E-01
 -1      4285 9.17827E-01
 -1      4286 1.08827E+00
 -1      4287 1.35007E+00
 -1      4288 1.61187E+00
 -1      4289 2.04146E+00
 -1      4290 9.96133E-02
 -1      4291 1.03027E-01
 -1      4292 8.79386E-02
 -1      4293 9.18411E-02
 -1      4294 9.74231E-02
 -1      4295 8.67172E-02
 -1      4296 8.51772E-02
 -1      4297 8.64375E-02
 -1      4298 6.49989E-02
 -1      4299 7.05706E-02
 -1      4300 7.91171E-02
 -1      4301 1.22541E-01
 -1      4302 9.67189E-02
 -1      4303 5.80278E-02
 -1      4304 6.35021E-02
 -1      4305 6.54058E-02
 -1      4306 6.54552E-02
 -1      4307 8.42472E-02
 -1      4308 7.81768E-02
 -1      4309 7.70517E-02
 -1      4310 8.44881E-02
 -1      4311 6.97449E-02
 -1      4312 7.41419E-02
 -1      4313 6.18509E-02
 -1      4314 6.69025E-02
 -1      4315 6.15005E-02
 -1      4316 8.64375E-02
 -1      4317 5.07907E-02
 -1      4318 7.16939E-02
 -1      4319 5.70108E-02
 -1      4320 8.77894E-02
 -1      4321 6.70013E-02
 -1      4322 9.02594E-02
 -1      4323 6.69519E-02
 -1      4324 9.13317E-02
 -1      4325 6.54552E-02
 -3
 9999
