    1C
    1UUSER                                                              
    1UDATE              26.october.2022                                 
    1UTIME              23:45:34                                        
    1UHOST                                                              
    1UPGM               CalculiX                                        
    1UVERSION           Version 2.17                             
    1UCOMPILETIME       Thu Jul 23 21:43:50 CEST 2020                    
    1UDIR                                                               
    1UDBN                                                               
    1UMAT    1SOLIDMATERIAL                                             
    2C                          4340                                     1
 -1         1 5.47050E+01 3.38758E+01 0.00000E+00
 -1         2 6.17056E+01 2.68758E+01 0.00000E+00
 -1         3 1.50000E+02 0.00000E+00 0.00000E+00
 -1         4 1.50000E+02 5.00000E+01 0.00000E+00
 -1         5 0.00000E+00 0.00000E+00 0.00000E+00
 -1         6 0.00000E+00 5.00000E+01 0.00000E+00
 -1         7 0.00000E+00 4.70500E+01 0.00000E+00
 -1         8 0.00000E+00 4.41000E+01 0.00000E+00
 -1         9 0.00000E+00 4.11500E+01 0.00000E+00
 -1        10 0.00000E+00 3.82000E+01 0.00000E+00
 -1        11 0.00000E+00 3.52500E+01 0.00000E+00
 -1        12 0.00000E+00 3.23500E+01 0.00000E+00
 -1        13 0.00000E+00 2.94000E+01 0.00000E+00
 -1        14 0.00000E+00 2.64500E+01 0.00000E+00
 -1        15 0.00000E+00 2.35000E+01 0.00000E+00
 -1        16 0.00000E+00 2.05500E+01 0.00000E+00
 -1        17 0.00000E+00 1.76000E+01 0.00000E+00
 -1        18 0.00000E+00 1.47000E+01 0.00000E+00
 -1        19 0.00000E+00 1.17500E+01 0.00000E+00
 -1        20 0.00000E+00 8.80000E+00 0.00000E+00
 -1        21 0.00000E+00 5.85000E+00 0.00000E+00
 -1        22 0.00000E+00 2.90000E+00 0.00000E+00
 -1        23 3.15000E+00 5.00000E+01 0.00000E+00
 -1        24 6.15000E+00 5.00000E+01 0.00000E+00
 -1        25 9.15000E+00 5.00000E+01 0.00000E+00
 -1        26 1.21500E+01 5.00000E+01 0.00000E+00
 -1        27 1.51500E+01 5.00000E+01 0.00000E+00
 -1        28 1.81500E+01 5.00000E+01 0.00000E+00
 -1        29 2.11500E+01 5.00000E+01 0.00000E+00
 -1        30 2.41500E+01 5.00000E+01 0.00000E+00
 -1        31 2.71500E+01 5.00000E+01 0.00000E+00
 -1        32 3.01500E+01 5.00000E+01 0.00000E+00
 -1        33 3.31500E+01 5.00000E+01 0.00000E+00
 -1        34 3.61500E+01 5.00000E+01 0.00000E+00
 -1        35 3.91500E+01 5.00000E+01 0.00000E+00
 -1        36 4.21500E+01 5.00000E+01 0.00000E+00
 -1        37 4.51500E+01 5.00000E+01 0.00000E+00
 -1        38 4.81500E+01 5.00000E+01 0.00000E+00
 -1        39 5.11500E+01 5.00000E+01 0.00000E+00
 -1        40 5.41500E+01 5.00000E+01 0.00000E+00
 -1        41 5.71500E+01 5.00000E+01 0.00000E+00
 -1        42 6.01500E+01 5.00000E+01 0.00000E+00
 -1        43 6.31500E+01 5.00000E+01 0.00000E+00
 -1        44 6.61500E+01 5.00000E+01 0.00000E+00
 -1        45 6.91500E+01 5.00000E+01 0.00000E+00
 -1        46 7.21500E+01 5.00000E+01 0.00000E+00
 -1        47 7.51500E+01 5.00000E+01 0.00000E+00
 -1        48 7.81500E+01 5.00000E+01 0.00000E+00
 -1        49 8.11500E+01 5.00000E+01 0.00000E+00
 -1        50 8.41500E+01 5.00000E+01 0.00000E+00
 -1        51 8.71500E+01 5.00000E+01 0.00000E+00
 -1        52 9.01500E+01 5.00000E+01 0.00000E+00
 -1        53 9.31500E+01 5.00000E+01 0.00000E+00
 -1        54 9.61500E+01 5.00000E+01 0.00000E+00
 -1        55 9.91500E+01 5.00000E+01 0.00000E+00
 -1        56 1.02150E+02 5.00000E+01 0.00000E+00
 -1        57 1.05150E+02 5.00000E+01 0.00000E+00
 -1        58 1.08150E+02 5.00000E+01 0.00000E+00
 -1        59 1.11150E+02 5.00000E+01 0.00000E+00
 -1        60 1.14150E+02 5.00000E+01 0.00000E+00
 -1        61 1.17150E+02 5.00000E+01 0.00000E+00
 -1        62 1.20150E+02 5.00000E+01 0.00000E+00
 -1        63 1.23150E+02 5.00000E+01 0.00000E+00
 -1        64 1.26150E+02 5.00000E+01 0.00000E+00
 -1        65 1.29150E+02 5.00000E+01 0.00000E+00
 -1        66 1.32150E+02 5.00000E+01 0.00000E+00
 -1        67 1.35150E+02 5.00000E+01 0.00000E+00
 -1        68 1.38150E+02 5.00000E+01 0.00000E+00
 -1        69 1.41150E+02 5.00000E+01 0.00000E+00
 -1        70 1.44150E+02 5.00000E+01 0.00000E+00
 -1        71 1.47150E+02 5.00000E+01 0.00000E+00
 -1        72 3.15000E+00 0.00000E+00 0.00000E+00
 -1        73 6.15000E+00 0.00000E+00 0.00000E+00
 -1        74 9.15000E+00 0.00000E+00 0.00000E+00
 -1        75 1.21500E+01 0.00000E+00 0.00000E+00
 -1        76 1.51500E+01 0.00000E+00 0.00000E+00
 -1        77 1.81500E+01 0.00000E+00 0.00000E+00
 -1        78 2.11500E+01 0.00000E+00 0.00000E+00
 -1        79 2.41500E+01 0.00000E+00 0.00000E+00
 -1        80 2.71500E+01 0.00000E+00 0.00000E+00
 -1        81 3.01500E+01 0.00000E+00 0.00000E+00
 -1        82 3.31500E+01 0.00000E+00 0.00000E+00
 -1        83 3.61500E+01 0.00000E+00 0.00000E+00
 -1        84 3.91500E+01 0.00000E+00 0.00000E+00
 -1        85 4.21500E+01 0.00000E+00 0.00000E+00
 -1        86 4.51500E+01 0.00000E+00 0.00000E+00
 -1        87 4.81500E+01 0.00000E+00 0.00000E+00
 -1        88 5.11500E+01 0.00000E+00 0.00000E+00
 -1        89 5.41500E+01 0.00000E+00 0.00000E+00
 -1        90 5.71500E+01 0.00000E+00 0.00000E+00
 -1        91 6.01500E+01 0.00000E+00 0.00000E+00
 -1        92 6.31500E+01 0.00000E+00 0.00000E+00
 -1        93 6.61500E+01 0.00000E+00 0.00000E+00
 -1        94 6.91500E+01 0.00000E+00 0.00000E+00
 -1        95 7.21500E+01 0.00000E+00 0.00000E+00
 -1        96 7.51500E+01 0.00000E+00 0.00000E+00
 -1        97 7.81500E+01 0.00000E+00 0.00000E+00
 -1        98 8.11500E+01 0.00000E+00 0.00000E+00
 -1        99 8.41500E+01 0.00000E+00 0.00000E+00
 -1       100 8.71500E+01 0.00000E+00 0.00000E+00
 -1       101 9.01500E+01 0.00000E+00 0.00000E+00
 -1       102 9.31500E+01 0.00000E+00 0.00000E+00
 -1       103 9.61500E+01 0.00000E+00 0.00000E+00
 -1       104 9.91500E+01 0.00000E+00 0.00000E+00
 -1       105 1.02150E+02 0.00000E+00 0.00000E+00
 -1       106 1.05150E+02 0.00000E+00 0.00000E+00
 -1       107 1.08150E+02 0.00000E+00 0.00000E+00
 -1       108 1.11150E+02 0.00000E+00 0.00000E+00
 -1       109 1.14150E+02 0.00000E+00 0.00000E+00
 -1       110 1.17150E+02 0.00000E+00 0.00000E+00
 -1       111 1.20150E+02 0.00000E+00 0.00000E+00
 -1       112 1.23150E+02 0.00000E+00 0.00000E+00
 -1       113 1.26150E+02 0.00000E+00 0.00000E+00
 -1       114 1.29150E+02 0.00000E+00 0.00000E+00
 -1       115 1.32150E+02 0.00000E+00 0.00000E+00
 -1       116 1.35150E+02 0.00000E+00 0.00000E+00
 -1       117 1.38150E+02 0.00000E+00 0.00000E+00
 -1       118 1.41150E+02 0.00000E+00 0.00000E+00
 -1       119 1.44150E+02 0.00000E+00 0.00000E+00
 -1       120 1.47150E+02 0.00000E+00 0.00000E+00
 -1       121 1.50000E+02 2.95000E+00 0.00000E+00
 -1       122 1.50000E+02 5.90000E+00 0.00000E+00
 -1       123 1.50000E+02 8.85000E+00 0.00000E+00
 -1       124 1.50000E+02 1.18000E+01 0.00000E+00
 -1       125 1.50000E+02 1.47500E+01 0.00000E+00
 -1       126 1.50000E+02 1.76500E+01 0.00000E+00
 -1       127 1.50000E+02 2.06000E+01 0.00000E+00
 -1       128 1.50000E+02 2.35500E+01 0.00000E+00
 -1       129 1.50000E+02 2.65000E+01 0.00000E+00
 -1       130 1.50000E+02 2.94500E+01 0.00000E+00
 -1       131 1.50000E+02 3.24000E+01 0.00000E+00
 -1       132 1.50000E+02 3.53000E+01 0.00000E+00
 -1       133 1.50000E+02 3.82500E+01 0.00000E+00
 -1       134 1.50000E+02 4.12000E+01 0.00000E+00
 -1       135 1.50000E+02 4.41500E+01 0.00000E+00
 -1       136 1.50000E+02 4.71000E+01 0.00000E+00
 -1       137 6.15668E+01 2.54885E+01 0.00000E+00
 -1       138 6.10608E+01 2.39411E+01 0.00000E+00
 -1       139 6.02763E+01 2.26369E+01 0.00000E+00
 -1       140 5.92784E+01 2.15758E+01 0.00000E+00
 -1       141 5.79531E+01 2.06746E+01 0.00000E+00
 -1       142 5.65956E+01 2.01357E+01 0.00000E+00
 -1       143 5.51615E+01 1.98906E+01 0.00000E+00
 -1       144 5.36106E+01 1.99619E+01 0.00000E+00
 -1       145 5.21933E+01 2.03422E+01 0.00000E+00
 -1       146 5.09561E+01 2.09647E+01 0.00000E+00
 -1       147 4.97636E+01 2.19183E+01 0.00000E+00
 -1       148 4.88617E+01 2.30225E+01 0.00000E+00
 -1       149 4.81860E+01 2.43274E+01 0.00000E+00
 -1       150 4.77881E+01 2.58046E+01 0.00000E+00
 -1       151 4.77157E+01 2.72513E+01 0.00000E+00
 -1       152 4.79837E+01 2.88290E+01 0.00000E+00
 -1       153 4.85408E+01 3.01916E+01 0.00000E+00
 -1       154 4.93782E+01 3.14165E+01 0.00000E+00
 -1       155 5.05654E+01 3.25201E+01 0.00000E+00
 -1       156 5.18649E+01 3.32734E+01 0.00000E+00
 -1       157 5.32447E+01 3.37216E+01 0.00000E+00
 -1       158 5.61133E+01 3.37328E+01 0.00000E+00
 -1       159 5.73954E+01 3.33384E+01 0.00000E+00
 -1       160 5.85856E+01 3.27021E+01 0.00000E+00
 -1       161 5.96421E+01 3.18387E+01 0.00000E+00
 -1       162 6.04940E+01 3.08121E+01 0.00000E+00
 -1       163 6.11369E+01 2.96396E+01 0.00000E+00
 -1       164 6.15532E+01 2.83289E+01 0.00000E+00
 -1       165 2.59800E+00 4.55750E+01 0.00000E+00
 -1       166 2.59800E+00 4.26250E+01 0.00000E+00
 -1       167 2.59800E+00 3.96750E+01 0.00000E+00
 -1       168 2.59800E+00 3.67250E+01 0.00000E+00
 -1       169 2.59800E+00 3.38250E+01 0.00000E+00
 -1       170 2.59800E+00 3.08750E+01 0.00000E+00
 -1       171 2.59800E+00 2.79250E+01 0.00000E+00
 -1       172 2.59800E+00 2.49750E+01 0.00000E+00
 -1       173 2.59800E+00 2.20250E+01 0.00000E+00
 -1       174 2.59800E+00 1.90750E+01 0.00000E+00
 -1       175 2.59800E+00 1.61750E+01 0.00000E+00
 -1       176 2.59800E+00 1.32250E+01 0.00000E+00
 -1       177 2.59800E+00 1.02750E+01 0.00000E+00
 -1       178 2.59800E+00 7.32500E+00 0.00000E+00
 -1       179 2.59800E+00 4.37500E+00 0.00000E+00
 -1       180 2.87400E+00 2.18750E+00 0.00000E+00
 -1       181 4.65000E+00 4.74020E+01 0.00000E+00
 -1       182 7.65000E+00 4.74020E+01 0.00000E+00
 -1       183 1.06500E+01 4.74020E+01 0.00000E+00
 -1       184 1.36500E+01 4.74020E+01 0.00000E+00
 -1       185 1.66500E+01 4.74020E+01 0.00000E+00
 -1       186 1.96500E+01 4.74020E+01 0.00000E+00
 -1       187 2.26500E+01 4.74020E+01 0.00000E+00
 -1       188 2.56500E+01 4.74020E+01 0.00000E+00
 -1       189 2.86500E+01 4.74020E+01 0.00000E+00
 -1       190 3.16500E+01 4.74020E+01 0.00000E+00
 -1       191 3.46500E+01 4.74020E+01 0.00000E+00
 -1       192 3.76500E+01 4.74020E+01 0.00000E+00
 -1       193 4.06500E+01 4.74020E+01 0.00000E+00
 -1       194 4.36500E+01 4.74020E+01 0.00000E+00
 -1       195 4.66500E+01 4.74020E+01 0.00000E+00
 -1       196 4.96500E+01 4.74020E+01 0.00000E+00
 -1       197 5.26500E+01 4.74020E+01 0.00000E+00
 -1       198 5.56500E+01 4.74020E+01 0.00000E+00
 -1       199 5.86500E+01 4.74020E+01 0.00000E+00
 -1       200 6.16500E+01 4.74020E+01 0.00000E+00
 -1       201 6.46500E+01 4.74020E+01 0.00000E+00
 -1       202 6.76500E+01 4.74020E+01 0.00000E+00
 -1       203 7.06500E+01 4.74020E+01 0.00000E+00
 -1       204 7.36500E+01 4.74020E+01 0.00000E+00
 -1       205 7.66500E+01 4.74020E+01 0.00000E+00
 -1       206 7.96500E+01 4.74020E+01 0.00000E+00
 -1       207 8.26500E+01 4.74020E+01 0.00000E+00
 -1       208 8.56500E+01 4.74020E+01 0.00000E+00
 -1       209 8.86500E+01 4.74020E+01 0.00000E+00
 -1       210 9.16500E+01 4.74020E+01 0.00000E+00
 -1       211 9.46500E+01 4.74020E+01 0.00000E+00
 -1       212 9.76500E+01 4.74020E+01 0.00000E+00
 -1       213 1.00650E+02 4.74020E+01 0.00000E+00
 -1       214 1.03650E+02 4.74020E+01 0.00000E+00
 -1       215 1.06650E+02 4.74020E+01 0.00000E+00
 -1       216 1.09650E+02 4.74020E+01 0.00000E+00
 -1       217 1.12650E+02 4.74020E+01 0.00000E+00
 -1       218 1.15650E+02 4.74020E+01 0.00000E+00
 -1       219 1.18650E+02 4.74020E+01 0.00000E+00
 -1       220 1.21650E+02 4.74020E+01 0.00000E+00
 -1       221 1.24650E+02 4.74020E+01 0.00000E+00
 -1       222 1.27650E+02 4.74020E+01 0.00000E+00
 -1       223 1.30650E+02 4.74020E+01 0.00000E+00
 -1       224 1.33650E+02 4.74020E+01 0.00000E+00
 -1       225 1.36650E+02 4.74020E+01 0.00000E+00
 -1       226 1.39650E+02 4.74020E+01 0.00000E+00
 -1       227 1.42650E+02 4.74020E+01 0.00000E+00
 -1       228 1.45650E+02 4.74020E+01 0.00000E+00
 -1       229 5.87400E+00 2.18750E+00 0.00000E+00
 -1       230 8.87400E+00 2.18750E+00 0.00000E+00
 -1       231 1.18740E+01 2.18750E+00 0.00000E+00
 -1       232 1.48740E+01 2.18750E+00 0.00000E+00
 -1       233 1.78740E+01 2.18750E+00 0.00000E+00
 -1       234 2.08740E+01 2.18750E+00 0.00000E+00
 -1       235 2.38740E+01 2.18750E+00 0.00000E+00
 -1       236 2.68740E+01 2.18750E+00 0.00000E+00
 -1       237 2.98740E+01 2.18750E+00 0.00000E+00
 -1       238 3.28740E+01 2.18750E+00 0.00000E+00
 -1       239 3.58740E+01 2.18750E+00 0.00000E+00
 -1       240 3.88740E+01 2.18750E+00 0.00000E+00
 -1       241 4.18740E+01 2.18750E+00 0.00000E+00
 -1       242 4.48740E+01 2.18750E+00 0.00000E+00
 -1       243 4.78740E+01 2.18750E+00 0.00000E+00
 -1       244 5.08740E+01 2.18750E+00 0.00000E+00
 -1       245 5.38740E+01 2.18750E+00 0.00000E+00
 -1       246 5.68740E+01 2.18750E+00 0.00000E+00
 -1       247 5.98740E+01 2.18750E+00 0.00000E+00
 -1       248 6.28740E+01 2.18750E+00 0.00000E+00
 -1       249 6.58740E+01 2.18750E+00 0.00000E+00
 -1       250 6.88740E+01 2.18750E+00 0.00000E+00
 -1       251 7.18740E+01 2.18750E+00 0.00000E+00
 -1       252 7.48740E+01 2.18750E+00 0.00000E+00
 -1       253 7.78740E+01 2.18750E+00 0.00000E+00
 -1       254 8.08740E+01 2.18750E+00 0.00000E+00
 -1       255 8.38740E+01 2.18750E+00 0.00000E+00
 -1       256 8.68740E+01 2.18750E+00 0.00000E+00
 -1       257 8.98740E+01 2.18750E+00 0.00000E+00
 -1       258 9.28740E+01 2.18750E+00 0.00000E+00
 -1       259 9.58740E+01 2.18750E+00 0.00000E+00
 -1       260 9.88740E+01 2.18750E+00 0.00000E+00
 -1       261 1.01874E+02 2.18750E+00 0.00000E+00
 -1       262 1.04874E+02 2.18750E+00 0.00000E+00
 -1       263 1.07874E+02 2.18750E+00 0.00000E+00
 -1       264 1.10874E+02 2.18750E+00 0.00000E+00
 -1       265 1.13874E+02 2.18750E+00 0.00000E+00
 -1       266 1.16874E+02 2.18750E+00 0.00000E+00
 -1       267 1.19874E+02 2.18750E+00 0.00000E+00
 -1       268 1.22874E+02 2.18750E+00 0.00000E+00
 -1       269 1.25874E+02 2.18750E+00 0.00000E+00
 -1       270 1.28874E+02 2.18750E+00 0.00000E+00
 -1       271 1.31874E+02 2.18750E+00 0.00000E+00
 -1       272 1.34874E+02 2.18750E+00 0.00000E+00
 -1       273 1.37874E+02 2.18750E+00 0.00000E+00
 -1       274 1.40874E+02 2.18750E+00 0.00000E+00
 -1       275 1.43874E+02 2.18750E+00 0.00000E+00
 -1       276 1.46874E+02 2.18750E+00 0.00000E+00
 -1       277 1.47402E+02 4.42500E+00 0.00000E+00
 -1       278 1.47402E+02 7.37500E+00 0.00000E+00
 -1       279 1.47402E+02 1.03250E+01 0.00000E+00
 -1       280 1.47402E+02 1.32750E+01 0.00000E+00
 -1       281 1.47402E+02 1.61750E+01 0.00000E+00
 -1       282 1.47402E+02 1.91250E+01 0.00000E+00
 -1       283 1.47402E+02 2.20750E+01 0.00000E+00
 -1       284 1.47402E+02 2.50250E+01 0.00000E+00
 -1       285 1.47402E+02 2.79750E+01 0.00000E+00
 -1       286 1.47402E+02 3.09250E+01 0.00000E+00
 -1       287 1.47402E+02 3.38250E+01 0.00000E+00
 -1       288 1.47402E+02 3.67750E+01 0.00000E+00
 -1       289 1.47402E+02 3.97250E+01 0.00000E+00
 -1       290 1.47402E+02 4.26750E+01 0.00000E+00
 -1       291 1.46526E+02 4.50385E+01 0.00000E+00
 -1       292 6.28426E+01 2.60614E+01 0.00000E+00
 -1       293 6.27847E+01 2.42338E+01 0.00000E+00
 -1       294 6.17793E+01 2.26209E+01 0.00000E+00
 -1       295 6.06606E+01 2.12758E+01 0.00000E+00
 -1       296 5.94859E+01 1.98455E+01 0.00000E+00
 -1       297 5.77217E+01 1.92783E+01 0.00000E+00
 -1       298 5.60828E+01 1.88181E+01 0.00000E+00
 -1       299 5.43149E+01 1.83804E+01 0.00000E+00
 -1       300 5.25661E+01 1.89001E+01 0.00000E+00
 -1       301 5.10297E+01 1.95704E+01 0.00000E+00
 -1       302 4.94980E+01 2.03638E+01 0.00000E+00
 -1       303 4.83737E+01 2.17034E+01 0.00000E+00
 -1       304 4.74472E+01 2.31175E+01 0.00000E+00
 -1       305 4.67355E+01 2.47289E+01 0.00000E+00
 -1       306 4.65410E+01 2.64674E+01 0.00000E+00
 -1       307 4.63240E+01 2.82992E+01 0.00000E+00
 -1       308 4.71400E+01 2.99691E+01 0.00000E+00
 -1       309 4.79586E+01 3.14883E+01 0.00000E+00
 -1       310 4.89752E+01 3.30404E+01 0.00000E+00
 -1       311 5.05651E+01 3.40181E+01 0.00000E+00
 -1       312 5.21802E+01 3.46506E+01 0.00000E+00
 -1       313 5.38388E+01 3.50877E+01 0.00000E+00
 -1       314 5.55401E+01 3.50938E+01 0.00000E+00
 -1       315 5.71108E+01 3.46944E+01 0.00000E+00
 -1       316 5.85620E+01 3.40894E+01 0.00000E+00
 -1       317 5.98810E+01 3.32092E+01 0.00000E+00
 -1       318 6.10011E+01 3.20996E+01 0.00000E+00
 -1       319 6.18785E+01 3.08088E+01 0.00000E+00
 -1       320 6.25804E+01 2.93766E+01 0.00000E+00
 -1       321 6.30018E+01 2.77464E+01 0.00000E+00
 -1       322 5.19600E+00 4.11500E+01 0.00000E+00
 -1       323 5.19600E+00 4.41000E+01 0.00000E+00
 -1       324 5.19600E+00 3.52750E+01 0.00000E+00
 -1       325 5.19600E+00 3.23250E+01 0.00000E+00
 -1       326 5.19600E+00 2.93750E+01 0.00000E+00
 -1       327 5.19600E+00 2.64250E+01 0.00000E+00
 -1       328 5.19600E+00 2.34750E+01 0.00000E+00
 -1       329 5.19600E+00 2.05250E+01 0.00000E+00
 -1       330 5.19600E+00 1.76250E+01 0.00000E+00
 -1       331 5.19600E+00 1.46750E+01 0.00000E+00
 -1       332 5.19600E+00 1.17250E+01 0.00000E+00
 -1       333 5.19600E+00 8.77500E+00 0.00000E+00
 -1       334 5.19600E+00 5.82500E+00 0.00000E+00
 -1       335 5.53500E+00 4.00625E+00 0.00000E+00
 -1       336 8.53500E+00 4.00625E+00 0.00000E+00
 -1       337 9.15000E+00 4.48040E+01 0.00000E+00
 -1       338 1.21500E+01 4.48040E+01 0.00000E+00
 -1       339 1.51500E+01 4.48040E+01 0.00000E+00
 -1       340 1.81500E+01 4.48040E+01 0.00000E+00
 -1       341 2.11500E+01 4.48040E+01 0.00000E+00
 -1       342 2.41500E+01 4.48040E+01 0.00000E+00
 -1       343 2.71500E+01 4.48040E+01 0.00000E+00
 -1       344 3.01500E+01 4.48040E+01 0.00000E+00
 -1       345 3.31500E+01 4.48040E+01 0.00000E+00
 -1       346 3.61500E+01 4.48040E+01 0.00000E+00
 -1       347 3.91500E+01 4.48040E+01 0.00000E+00
 -1       348 4.21500E+01 4.48040E+01 0.00000E+00
 -1       349 4.51500E+01 4.48040E+01 0.00000E+00
 -1       350 4.81500E+01 4.48040E+01 0.00000E+00
 -1       351 5.11500E+01 4.48040E+01 0.00000E+00
 -1       352 5.41500E+01 4.48040E+01 0.00000E+00
 -1       353 5.71500E+01 4.48040E+01 0.00000E+00
 -1       354 6.01500E+01 4.48040E+01 0.00000E+00
 -1       355 6.31500E+01 4.48040E+01 0.00000E+00
 -1       356 6.61500E+01 4.48040E+01 0.00000E+00
 -1       357 6.91500E+01 4.48040E+01 0.00000E+00
 -1       358 7.21500E+01 4.48040E+01 0.00000E+00
 -1       359 7.51500E+01 4.48040E+01 0.00000E+00
 -1       360 7.81500E+01 4.48040E+01 0.00000E+00
 -1       361 8.11500E+01 4.48040E+01 0.00000E+00
 -1       362 8.41500E+01 4.48040E+01 0.00000E+00
 -1       363 8.71500E+01 4.48040E+01 0.00000E+00
 -1       364 9.01500E+01 4.48040E+01 0.00000E+00
 -1       365 9.31500E+01 4.48040E+01 0.00000E+00
 -1       366 9.61500E+01 4.48040E+01 0.00000E+00
 -1       367 9.91500E+01 4.48040E+01 0.00000E+00
 -1       368 1.02150E+02 4.48040E+01 0.00000E+00
 -1       369 1.05150E+02 4.48040E+01 0.00000E+00
 -1       370 1.08150E+02 4.48040E+01 0.00000E+00
 -1       371 1.11150E+02 4.48040E+01 0.00000E+00
 -1       372 1.14150E+02 4.48040E+01 0.00000E+00
 -1       373 1.17150E+02 4.48040E+01 0.00000E+00
 -1       374 1.20150E+02 4.48040E+01 0.00000E+00
 -1       375 1.23150E+02 4.48040E+01 0.00000E+00
 -1       376 1.26150E+02 4.48040E+01 0.00000E+00
 -1       377 1.29150E+02 4.48040E+01 0.00000E+00
 -1       378 1.32150E+02 4.48040E+01 0.00000E+00
 -1       379 1.35150E+02 4.48040E+01 0.00000E+00
 -1       380 1.38150E+02 4.48040E+01 0.00000E+00
 -1       381 1.41150E+02 4.48040E+01 0.00000E+00
 -1       382 1.43838E+02 4.49212E+01 0.00000E+00
 -1       383 1.15350E+01 4.00625E+00 0.00000E+00
 -1       384 1.45350E+01 4.00625E+00 0.00000E+00
 -1       385 1.75350E+01 4.00625E+00 0.00000E+00
 -1       386 2.05350E+01 4.00625E+00 0.00000E+00
 -1       387 2.35350E+01 4.00625E+00 0.00000E+00
 -1       388 2.65350E+01 4.00625E+00 0.00000E+00
 -1       389 2.95350E+01 4.00625E+00 0.00000E+00
 -1       390 3.25350E+01 4.00625E+00 0.00000E+00
 -1       391 3.55350E+01 4.00625E+00 0.00000E+00
 -1       392 3.85350E+01 4.00625E+00 0.00000E+00
 -1       393 4.15350E+01 4.00625E+00 0.00000E+00
 -1       394 4.45350E+01 4.00625E+00 0.00000E+00
 -1       395 4.75350E+01 4.00625E+00 0.00000E+00
 -1       396 5.05350E+01 4.00625E+00 0.00000E+00
 -1       397 5.35350E+01 4.00625E+00 0.00000E+00
 -1       398 5.65350E+01 4.00625E+00 0.00000E+00
 -1       399 5.95350E+01 4.00625E+00 0.00000E+00
 -1       400 6.25350E+01 4.00625E+00 0.00000E+00
 -1       401 6.55350E+01 4.00625E+00 0.00000E+00
 -1       402 6.85350E+01 4.00625E+00 0.00000E+00
 -1       403 7.15350E+01 4.00625E+00 0.00000E+00
 -1       404 7.45350E+01 4.00625E+00 0.00000E+00
 -1       405 7.75350E+01 4.00625E+00 0.00000E+00
 -1       406 8.05350E+01 4.00625E+00 0.00000E+00
 -1       407 8.35350E+01 4.00625E+00 0.00000E+00
 -1       408 8.65350E+01 4.00625E+00 0.00000E+00
 -1       409 8.95350E+01 4.00625E+00 0.00000E+00
 -1       410 9.25350E+01 4.00625E+00 0.00000E+00
 -1       411 9.55350E+01 4.00625E+00 0.00000E+00
 -1       412 9.85350E+01 4.00625E+00 0.00000E+00
 -1       413 1.01535E+02 4.00625E+00 0.00000E+00
 -1       414 1.04535E+02 4.00625E+00 0.00000E+00
 -1       415 1.07535E+02 4.00625E+00 0.00000E+00
 -1       416 1.10535E+02 4.00625E+00 0.00000E+00
 -1       417 1.13535E+02 4.00625E+00 0.00000E+00
 -1       418 1.16535E+02 4.00625E+00 0.00000E+00
 -1       419 1.19535E+02 4.00625E+00 0.00000E+00
 -1       420 1.22535E+02 4.00625E+00 0.00000E+00
 -1       421 1.25535E+02 4.00625E+00 0.00000E+00
 -1       422 1.28535E+02 4.00625E+00 0.00000E+00
 -1       423 1.31535E+02 4.00625E+00 0.00000E+00
 -1       424 1.34535E+02 4.00625E+00 0.00000E+00
 -1       425 1.37535E+02 4.00625E+00 0.00000E+00
 -1       426 1.40535E+02 4.00625E+00 0.00000E+00
 -1       427 1.43535E+02 4.00625E+00 0.00000E+00
 -1       428 1.45469E+02 4.21562E+00 0.00000E+00
 -1       429 1.44804E+02 1.18000E+01 0.00000E+00
 -1       430 1.44804E+02 8.85000E+00 0.00000E+00
 -1       431 1.45136E+02 6.53281E+00 0.00000E+00
 -1       432 1.44804E+02 1.47000E+01 0.00000E+00
 -1       433 1.44804E+02 1.76500E+01 0.00000E+00
 -1       434 1.44804E+02 2.06000E+01 0.00000E+00
 -1       435 1.44804E+02 2.35500E+01 0.00000E+00
 -1       436 1.44804E+02 2.65000E+01 0.00000E+00
 -1       437 1.44804E+02 2.94500E+01 0.00000E+00
 -1       438 1.44804E+02 3.23500E+01 0.00000E+00
 -1       439 1.44804E+02 3.53000E+01 0.00000E+00
 -1       440 1.44804E+02 3.82500E+01 0.00000E+00
 -1       441 1.44804E+02 4.12000E+01 0.00000E+00
 -1       442 6.35952E+01 2.26087E+01 0.00000E+00
 -1       443 6.42126E+01 2.67819E+01 0.00000E+00
 -1       444 6.41547E+01 2.49543E+01 0.00000E+00
 -1       445 6.25386E+01 2.08516E+01 0.00000E+00
 -1       446 6.13639E+01 1.94213E+01 0.00000E+00
 -1       447 5.19600E+00 3.82125E+01 0.00000E+00
 -1       448 5.73433E+01 1.74776E+01 0.00000E+00
 -1       449 5.55754E+01 1.70399E+01 0.00000E+00
 -1       450 5.30712E+01 1.73978E+01 0.00000E+00
 -1       451 5.12126E+01 1.78936E+01 0.00000E+00
 -1       452 4.96808E+01 1.86870E+01 0.00000E+00
 -1       453 4.78788E+01 2.01464E+01 0.00000E+00
 -1       454 4.68262E+01 2.17001E+01 0.00000E+00
 -1       455 4.59057E+01 2.33995E+01 0.00000E+00
 -1       456 4.52668E+01 2.54448E+01 0.00000E+00
 -1       457 4.50498E+01 2.72766E+01 0.00000E+00
 -1       458 4.55674E+01 2.97033E+01 0.00000E+00
 -1       459 4.63345E+01 3.13833E+01 0.00000E+00
 -1       460 4.71023E+01 3.31581E+01 0.00000E+00
 -1       461 4.89595E+01 3.48475E+01 0.00000E+00
 -1       462 5.07778E+01 3.58534E+01 0.00000E+00
 -1       463 5.24364E+01 3.62905E+01 0.00000E+00
 -1       464 5.46839E+01 3.66383E+01 0.00000E+00
 -1       465 5.66656E+01 3.62315E+01 0.00000E+00
 -1       466 5.83674E+01 3.56656E+01 0.00000E+00
 -1       467 6.01271E+01 3.50063E+01 0.00000E+00
 -1       468 6.14122E+01 3.36348E+01 0.00000E+00
 -1       469 6.27197E+01 3.23242E+01 0.00000E+00
 -1       470 6.34216E+01 3.08920E+01 0.00000E+00
 -1       471 6.42894E+01 2.89488E+01 0.00000E+00
 -1       472 5.91075E+01 1.80448E+01 0.00000E+00
 -1       473 6.49653E+01 2.33292E+01 0.00000E+00
 -1       474 4.42932E+01 2.86806E+01 0.00000E+00
 -1       475 5.43317E+01 1.60573E+01 0.00000E+00
 -1       476 1.00350E+01 6.60425E+00 0.00000E+00
 -1       477 7.79400E+00 3.08500E+01 0.00000E+00
 -1       478 7.79400E+00 3.38000E+01 0.00000E+00
 -1       479 7.79400E+00 2.49500E+01 0.00000E+00
 -1       480 7.79400E+00 2.20000E+01 0.00000E+00
 -1       481 7.79400E+00 1.91000E+01 0.00000E+00
 -1       482 7.79400E+00 1.61500E+01 0.00000E+00
 -1       483 7.79400E+00 1.32000E+01 0.00000E+00
 -1       484 7.79400E+00 1.02500E+01 0.00000E+00
 -1       485 1.30350E+01 6.60425E+00 0.00000E+00
 -1       486 1.06500E+01 4.22060E+01 0.00000E+00
 -1       487 4.77531E+01 1.81490E+01 0.00000E+00
 -1       488 6.10417E+01 1.74119E+01 0.00000E+00
 -1       489 1.36500E+01 4.22060E+01 0.00000E+00
 -1       490 1.66500E+01 4.22060E+01 0.00000E+00
 -1       491 1.96500E+01 4.22060E+01 0.00000E+00
 -1       492 2.26500E+01 4.22060E+01 0.00000E+00
 -1       493 2.56500E+01 4.22060E+01 0.00000E+00
 -1       494 2.86500E+01 4.22060E+01 0.00000E+00
 -1       495 3.16500E+01 4.22060E+01 0.00000E+00
 -1       496 3.46500E+01 4.22060E+01 0.00000E+00
 -1       497 3.76500E+01 4.22060E+01 0.00000E+00
 -1       498 4.06500E+01 4.22060E+01 0.00000E+00
 -1       499 4.36500E+01 4.22060E+01 0.00000E+00
 -1       500 4.66500E+01 4.22060E+01 0.00000E+00
 -1       501 4.96500E+01 4.22060E+01 0.00000E+00
 -1       502 5.26500E+01 4.22060E+01 0.00000E+00
 -1       503 5.56500E+01 4.22060E+01 0.00000E+00
 -1       504 5.86500E+01 4.22060E+01 0.00000E+00
 -1       505 6.16500E+01 4.22060E+01 0.00000E+00
 -1       506 6.46500E+01 4.22060E+01 0.00000E+00
 -1       507 6.76500E+01 4.22060E+01 0.00000E+00
 -1       508 7.06500E+01 4.22060E+01 0.00000E+00
 -1       509 7.36500E+01 4.22060E+01 0.00000E+00
 -1       510 7.66500E+01 4.22060E+01 0.00000E+00
 -1       511 7.96500E+01 4.22060E+01 0.00000E+00
 -1       512 8.26500E+01 4.22060E+01 0.00000E+00
 -1       513 8.56500E+01 4.22060E+01 0.00000E+00
 -1       514 8.86500E+01 4.22060E+01 0.00000E+00
 -1       515 9.16500E+01 4.22060E+01 0.00000E+00
 -1       516 9.46500E+01 4.22060E+01 0.00000E+00
 -1       517 9.76500E+01 4.22060E+01 0.00000E+00
 -1       518 1.00650E+02 4.22060E+01 0.00000E+00
 -1       519 1.03650E+02 4.22060E+01 0.00000E+00
 -1       520 1.06650E+02 4.22060E+01 0.00000E+00
 -1       521 1.09650E+02 4.22060E+01 0.00000E+00
 -1       522 1.12650E+02 4.22060E+01 0.00000E+00
 -1       523 1.15650E+02 4.22060E+01 0.00000E+00
 -1       524 1.18650E+02 4.22060E+01 0.00000E+00
 -1       525 1.21650E+02 4.22060E+01 0.00000E+00
 -1       526 1.24650E+02 4.22060E+01 0.00000E+00
 -1       527 1.27650E+02 4.22060E+01 0.00000E+00
 -1       528 1.30650E+02 4.22060E+01 0.00000E+00
 -1       529 1.33650E+02 4.22060E+01 0.00000E+00
 -1       530 1.36650E+02 4.22060E+01 0.00000E+00
 -1       531 1.39650E+02 4.22060E+01 0.00000E+00
 -1       532 1.90350E+01 6.60425E+00 0.00000E+00
 -1       533 2.20350E+01 6.60425E+00 0.00000E+00
 -1       534 2.50350E+01 6.60425E+00 0.00000E+00
 -1       535 2.80350E+01 6.60425E+00 0.00000E+00
 -1       536 3.10350E+01 6.60425E+00 0.00000E+00
 -1       537 3.40350E+01 6.60425E+00 0.00000E+00
 -1       538 3.70350E+01 6.60425E+00 0.00000E+00
 -1       539 4.00350E+01 6.60425E+00 0.00000E+00
 -1       540 4.30350E+01 6.60425E+00 0.00000E+00
 -1       541 4.60350E+01 6.60425E+00 0.00000E+00
 -1       542 4.90350E+01 6.60425E+00 0.00000E+00
 -1       543 5.20350E+01 6.60425E+00 0.00000E+00
 -1       544 5.50350E+01 6.60425E+00 0.00000E+00
 -1       545 5.80350E+01 6.60425E+00 0.00000E+00
 -1       546 6.10350E+01 6.60425E+00 0.00000E+00
 -1       547 6.40350E+01 6.60425E+00 0.00000E+00
 -1       548 6.70350E+01 6.60425E+00 0.00000E+00
 -1       549 7.00350E+01 6.60425E+00 0.00000E+00
 -1       550 7.30350E+01 6.60425E+00 0.00000E+00
 -1       551 7.60350E+01 6.60425E+00 0.00000E+00
 -1       552 7.90350E+01 6.60425E+00 0.00000E+00
 -1       553 8.20350E+01 6.60425E+00 0.00000E+00
 -1       554 8.50350E+01 6.60425E+00 0.00000E+00
 -1       555 8.80350E+01 6.60425E+00 0.00000E+00
 -1       556 9.10350E+01 6.60425E+00 0.00000E+00
 -1       557 9.40350E+01 6.60425E+00 0.00000E+00
 -1       558 9.70350E+01 6.60425E+00 0.00000E+00
 -1       559 1.00035E+02 6.60425E+00 0.00000E+00
 -1       560 1.03035E+02 6.60425E+00 0.00000E+00
 -1       561 1.06035E+02 6.60425E+00 0.00000E+00
 -1       562 1.09035E+02 6.60425E+00 0.00000E+00
 -1       563 1.12035E+02 6.60425E+00 0.00000E+00
 -1       564 1.15035E+02 6.60425E+00 0.00000E+00
 -1       565 1.18035E+02 6.60425E+00 0.00000E+00
 -1       566 1.21035E+02 6.60425E+00 0.00000E+00
 -1       567 1.24035E+02 6.60425E+00 0.00000E+00
 -1       568 1.27035E+02 6.60425E+00 0.00000E+00
 -1       569 1.30035E+02 6.60425E+00 0.00000E+00
 -1       570 1.33035E+02 6.60425E+00 0.00000E+00
 -1       571 1.36035E+02 6.60425E+00 0.00000E+00
 -1       572 1.39035E+02 6.60425E+00 0.00000E+00
 -1       573 1.42035E+02 6.60425E+00 0.00000E+00
 -1       574 1.42206E+02 1.61750E+01 0.00000E+00
 -1       575 1.42206E+02 1.91250E+01 0.00000E+00
 -1       576 1.42206E+02 1.03250E+01 0.00000E+00
 -1       577 1.42206E+02 1.32500E+01 0.00000E+00
 -1       578 1.42206E+02 2.20750E+01 0.00000E+00
 -1       579 1.42206E+02 2.50250E+01 0.00000E+00
 -1       580 1.42206E+02 2.79750E+01 0.00000E+00
 -1       581 1.42206E+02 3.08750E+01 0.00000E+00
 -1       582 1.42206E+02 3.38250E+01 0.00000E+00
 -1       583 1.42206E+02 3.67750E+01 0.00000E+00
 -1       584 1.42206E+02 3.97250E+01 0.00000E+00
 -1       585 6.46803E+01 2.07599E+01 0.00000E+00
 -1       586 6.57976E+01 2.78106E+01 0.00000E+00
 -1       587 1.60350E+01 6.60425E+00 0.00000E+00
 -1       588 6.57397E+01 2.59830E+01 0.00000E+00
 -1       589 6.35057E+01 1.93296E+01 0.00000E+00
 -1       590 5.87247E+01 1.62082E+01 0.00000E+00
 -1       591 6.31616E+01 3.40724E+01 0.00000E+00
 -1       592 4.90384E+01 3.68512E+01 0.00000E+00
 -1       593 4.37892E+01 2.38608E+01 0.00000E+00
 -1       594 7.92300E+00 4.16780E+01 0.00000E+00
 -1       595 7.79400E+00 2.79000E+01 0.00000E+00
 -1       596 5.17430E+01 1.61504E+01 0.00000E+00
 -1       597 5.69568E+01 1.57704E+01 0.00000E+00
 -1       598 4.60713E+01 2.00553E+01 0.00000E+00
 -1       599 4.95808E+01 1.66186E+01 0.00000E+00
 -1       600 4.46194E+01 3.11512E+01 0.00000E+00
 -1       601 4.50789E+01 2.18526E+01 0.00000E+00
 -1       602 4.37047E+01 2.61885E+01 0.00000E+00
 -1       603 5.59859E+01 3.79508E+01 0.00000E+00
 -1       604 4.53872E+01 3.29261E+01 0.00000E+00
 -1       605 4.67640E+01 3.53955E+01 0.00000E+00
 -1       606 5.10846E+01 3.80545E+01 0.00000E+00
 -1       607 5.33321E+01 3.84023E+01 0.00000E+00
 -1       608 5.80576E+01 3.75761E+01 0.00000E+00
 -1       609 5.98173E+01 3.69167E+01 0.00000E+00
 -1       610 6.18764E+01 3.54439E+01 0.00000E+00
 -1       611 6.46107E+01 3.23629E+01 0.00000E+00
 -1       612 6.54786E+01 3.04196E+01 0.00000E+00
 -1       613 7.61550E+00 6.21462E+00 0.00000E+00
 -1       614 7.79400E+00 3.67375E+01 0.00000E+00
 -1       615 6.31834E+01 1.73202E+01 0.00000E+00
 -1       616 1.41678E+02 4.22645E+01 0.00000E+00
 -1       617 6.65503E+01 2.43579E+01 0.00000E+00
 -1       618 4.29482E+01 2.75925E+01 0.00000E+00
 -1       619 7.85850E+00 3.92077E+01 0.00000E+00
 -1       620 4.33453E+01 3.01286E+01 0.00000E+00
 -1       621 5.57131E+01 1.47878E+01 0.00000E+00
 -1       622 1.03920E+01 2.05500E+01 0.00000E+00
 -1       623 1.03920E+01 2.35000E+01 0.00000E+00
 -1       624 1.03920E+01 1.46750E+01 0.00000E+00
 -1       625 1.03920E+01 1.17250E+01 0.00000E+00
 -1       626 1.15350E+01 9.20225E+00 0.00000E+00
 -1       627 6.20396E+01 3.78479E+01 0.00000E+00
 -1       628 1.51500E+01 3.96080E+01 0.00000E+00
 -1       629 1.81500E+01 3.96080E+01 0.00000E+00
 -1       630 2.11500E+01 3.96080E+01 0.00000E+00
 -1       631 2.41500E+01 3.96080E+01 0.00000E+00
 -1       632 2.71500E+01 3.96080E+01 0.00000E+00
 -1       633 3.01500E+01 3.96080E+01 0.00000E+00
 -1       634 3.31500E+01 3.96080E+01 0.00000E+00
 -1       635 3.61500E+01 3.96080E+01 0.00000E+00
 -1       636 3.91500E+01 3.96080E+01 0.00000E+00
 -1       637 4.21500E+01 3.96080E+01 0.00000E+00
 -1       638 4.51500E+01 3.96080E+01 0.00000E+00
 -1       639 5.71500E+01 3.99882E+01 0.00000E+00
 -1       640 6.01500E+01 3.98206E+01 0.00000E+00
 -1       641 6.91500E+01 3.96080E+01 0.00000E+00
 -1       642 7.21500E+01 3.96080E+01 0.00000E+00
 -1       643 7.51500E+01 3.96080E+01 0.00000E+00
 -1       644 7.81500E+01 3.96080E+01 0.00000E+00
 -1       645 8.11500E+01 3.96080E+01 0.00000E+00
 -1       646 8.41500E+01 3.96080E+01 0.00000E+00
 -1       647 8.71500E+01 3.96080E+01 0.00000E+00
 -1       648 9.01500E+01 3.96080E+01 0.00000E+00
 -1       649 9.31500E+01 3.96080E+01 0.00000E+00
 -1       650 9.61500E+01 3.96080E+01 0.00000E+00
 -1       651 9.91500E+01 3.96080E+01 0.00000E+00
 -1       652 1.02150E+02 3.96080E+01 0.00000E+00
 -1       653 1.05150E+02 3.96080E+01 0.00000E+00
 -1       654 1.08150E+02 3.96080E+01 0.00000E+00
 -1       655 1.11150E+02 3.96080E+01 0.00000E+00
 -1       656 1.14150E+02 3.96080E+01 0.00000E+00
 -1       657 1.17150E+02 3.96080E+01 0.00000E+00
 -1       658 1.20150E+02 3.96080E+01 0.00000E+00
 -1       659 1.23150E+02 3.96080E+01 0.00000E+00
 -1       660 1.26150E+02 3.96080E+01 0.00000E+00
 -1       661 1.29150E+02 3.96080E+01 0.00000E+00
 -1       662 1.32150E+02 3.96080E+01 0.00000E+00
 -1       663 1.35150E+02 3.96080E+01 0.00000E+00
 -1       664 1.38150E+02 3.96080E+01 0.00000E+00
 -1       665 2.35350E+01 9.20225E+00 0.00000E+00
 -1       666 2.05350E+01 9.20225E+00 0.00000E+00
 -1       667 2.95350E+01 9.20225E+00 0.00000E+00
 -1       668 3.25350E+01 9.20225E+00 0.00000E+00
 -1       669 3.55350E+01 9.20225E+00 0.00000E+00
 -1       670 3.85350E+01 9.20225E+00 0.00000E+00
 -1       671 4.15350E+01 9.20225E+00 0.00000E+00
 -1       672 4.45350E+01 9.20225E+00 0.00000E+00
 -1       673 4.75350E+01 9.20225E+00 0.00000E+00
 -1       674 5.05350E+01 9.20225E+00 0.00000E+00
 -1       675 5.35350E+01 9.20225E+00 0.00000E+00
 -1       676 5.65350E+01 9.20225E+00 0.00000E+00
 -1       677 5.95350E+01 9.20225E+00 0.00000E+00
 -1       678 6.25350E+01 9.20225E+00 0.00000E+00
 -1       679 6.55350E+01 9.20225E+00 0.00000E+00
 -1       680 6.85350E+01 9.20225E+00 0.00000E+00
 -1       681 7.15350E+01 9.20225E+00 0.00000E+00
 -1       682 7.45350E+01 9.20225E+00 0.00000E+00
 -1       683 7.75350E+01 9.20225E+00 0.00000E+00
 -1       684 8.05350E+01 9.20225E+00 0.00000E+00
 -1       685 8.35350E+01 9.20225E+00 0.00000E+00
 -1       686 8.65350E+01 9.20225E+00 0.00000E+00
 -1       687 8.95350E+01 9.20225E+00 0.00000E+00
 -1       688 9.25350E+01 9.20225E+00 0.00000E+00
 -1       689 9.55350E+01 9.20225E+00 0.00000E+00
 -1       690 9.85350E+01 9.20225E+00 0.00000E+00
 -1       691 1.01535E+02 9.20225E+00 0.00000E+00
 -1       692 1.04535E+02 9.20225E+00 0.00000E+00
 -1       693 1.07535E+02 9.20225E+00 0.00000E+00
 -1       694 1.10535E+02 9.20225E+00 0.00000E+00
 -1       695 1.13535E+02 9.20225E+00 0.00000E+00
 -1       696 1.16535E+02 9.20225E+00 0.00000E+00
 -1       697 1.19535E+02 9.20225E+00 0.00000E+00
 -1       698 1.22535E+02 9.20225E+00 0.00000E+00
 -1       699 1.25535E+02 9.20225E+00 0.00000E+00
 -1       700 1.28535E+02 9.20225E+00 0.00000E+00
 -1       701 1.31535E+02 9.20225E+00 0.00000E+00
 -1       702 1.34535E+02 9.20225E+00 0.00000E+00
 -1       703 1.37535E+02 9.20225E+00 0.00000E+00
 -1       704 1.39870E+02 9.76363E+00 0.00000E+00
 -1       705 1.39608E+02 2.35500E+01 0.00000E+00
 -1       706 1.40178E+02 3.96665E+01 0.00000E+00
 -1       707 1.39608E+02 1.76500E+01 0.00000E+00
 -1       708 1.39608E+02 2.65000E+01 0.00000E+00
 -1       709 1.39608E+02 2.06000E+01 0.00000E+00
 -1       710 1.75350E+01 9.20225E+00 0.00000E+00
 -1       711 1.39608E+02 2.94000E+01 0.00000E+00
 -1       712 1.39608E+02 3.23500E+01 0.00000E+00
 -1       713 1.39608E+02 3.53000E+01 0.00000E+00
 -1       714 4.42849E+01 3.51592E+01 0.00000E+00
 -1       715 6.56774E+01 1.87435E+01 0.00000E+00
 -1       716 6.66940E+01 2.18370E+01 0.00000E+00
 -1       717 6.06353E+01 1.53624E+01 0.00000E+00
 -1       718 4.30614E+01 2.19752E+01 0.00000E+00
 -1       719 4.66153E+01 3.81325E+01 0.00000E+00
 -1       720 2.65350E+01 9.20225E+00 0.00000E+00
 -1       721 1.21500E+01 3.96080E+01 0.00000E+00
 -1       722 1.00042E+01 3.94079E+01 0.00000E+00
 -1       723 4.55004E+01 1.78566E+01 0.00000E+00
 -1       724 1.45350E+01 9.20225E+00 0.00000E+00
 -1       725 6.54501E+01 3.45434E+01 0.00000E+00
 -1       726 5.82932E+01 1.41618E+01 0.00000E+00
 -1       727 1.03920E+01 1.76125E+01 0.00000E+00
 -1       728 1.03920E+01 3.23250E+01 0.00000E+00
 -1       729 5.02281E+01 1.43807E+01 0.00000E+00
 -1       730 4.40538E+01 2.01779E+01 0.00000E+00
 -1       731 4.74583E+01 1.59403E+01 0.00000E+00
 -1       732 4.32754E+01 3.27861E+01 0.00000E+00
 -1       733 4.18655E+01 2.49564E+01 0.00000E+00
 -1       734 6.73154E+01 2.68477E+01 0.00000E+00
 -1       735 5.28168E+01 1.42875E+01 0.00000E+00
 -1       736 5.95393E+01 3.88524E+01 0.00000E+00
 -1       737 6.37449E+01 3.61956E+01 0.00000E+00
 -1       738 6.76732E+01 2.93639E+01 0.00000E+00
 -1       739 6.67637E+01 3.21590E+01 0.00000E+00
 -1       740 4.78442E+01 3.95286E+01 0.00000E+00
 -1       741 1.03920E+01 3.52625E+01 0.00000E+00
 -1       742 1.03920E+01 2.64500E+01 0.00000E+00
 -1       743 6.81260E+01 2.52226E+01 0.00000E+00
 -1       744 4.11090E+01 2.63604E+01 0.00000E+00
 -1       745 6.27770E+01 1.52707E+01 0.00000E+00
 -1       746 6.56974E+01 3.92008E+01 0.00000E+00
 -1       747 1.39608E+02 1.47250E+01 0.00000E+00
 -1       748 4.11378E+01 2.30707E+01 0.00000E+00
 -1       749 1.39739E+02 1.22443E+01 0.00000E+00
 -1       750 6.76911E+01 1.98206E+01 0.00000E+00
 -1       751 1.38879E+02 3.74540E+01 0.00000E+00
 -1       752 4.20002E+01 2.90405E+01 0.00000E+00
 -1       753 1.03920E+01 2.93875E+01 0.00000E+00
 -1       754 5.70495E+01 1.31792E+01 0.00000E+00
 -1       755 1.29900E+01 1.32000E+01 0.00000E+00
 -1       756 5.14548E+01 1.24526E+01 0.00000E+00
 -1       757 6.80494E+01 3.44214E+01 0.00000E+00
 -1       758 1.96500E+01 3.70100E+01 0.00000E+00
 -1       759 2.26500E+01 3.70100E+01 0.00000E+00
 -1       760 2.56500E+01 3.70100E+01 0.00000E+00
 -1       761 2.86500E+01 3.70100E+01 0.00000E+00
 -1       762 3.16500E+01 3.70100E+01 0.00000E+00
 -1       763 3.46500E+01 3.70100E+01 0.00000E+00
 -1       764 3.76500E+01 3.70100E+01 0.00000E+00
 -1       765 4.06500E+01 3.70100E+01 0.00000E+00
 -1       766 1.36500E+01 3.70100E+01 0.00000E+00
 -1       767 7.36500E+01 3.70100E+01 0.00000E+00
 -1       768 7.66500E+01 3.70100E+01 0.00000E+00
 -1       769 7.96500E+01 3.70100E+01 0.00000E+00
 -1       770 8.26500E+01 3.70100E+01 0.00000E+00
 -1       771 8.56500E+01 3.70100E+01 0.00000E+00
 -1       772 8.86500E+01 3.70100E+01 0.00000E+00
 -1       773 9.16500E+01 3.70100E+01 0.00000E+00
 -1       774 9.46500E+01 3.70100E+01 0.00000E+00
 -1       775 9.76500E+01 3.70100E+01 0.00000E+00
 -1       776 1.00650E+02 3.70100E+01 0.00000E+00
 -1       777 1.03650E+02 3.70100E+01 0.00000E+00
 -1       778 1.06650E+02 3.70100E+01 0.00000E+00
 -1       779 1.09650E+02 3.70100E+01 0.00000E+00
 -1       780 1.12650E+02 3.70100E+01 0.00000E+00
 -1       781 1.15650E+02 3.70100E+01 0.00000E+00
 -1       782 1.18650E+02 3.70100E+01 0.00000E+00
 -1       783 1.21650E+02 3.70100E+01 0.00000E+00
 -1       784 1.24650E+02 3.70100E+01 0.00000E+00
 -1       785 1.27650E+02 3.70100E+01 0.00000E+00
 -1       786 1.30650E+02 3.70100E+01 0.00000E+00
 -1       787 1.33650E+02 3.70100E+01 0.00000E+00
 -1       788 1.36264E+02 3.72320E+01 0.00000E+00
 -1       789 2.20350E+01 1.18003E+01 0.00000E+00
 -1       790 3.40350E+01 1.18003E+01 0.00000E+00
 -1       791 3.10350E+01 1.18003E+01 0.00000E+00
 -1       792 4.00350E+01 1.18003E+01 0.00000E+00
 -1       793 4.30350E+01 1.18003E+01 0.00000E+00
 -1       794 4.60350E+01 1.18003E+01 0.00000E+00
 -1       795 5.50350E+01 1.12525E+01 0.00000E+00
 -1       796 5.80350E+01 1.18003E+01 0.00000E+00
 -1       797 6.10350E+01 1.18003E+01 0.00000E+00
 -1       798 6.40350E+01 1.18003E+01 0.00000E+00
 -1       799 6.70350E+01 1.18003E+01 0.00000E+00
 -1       800 7.00350E+01 1.18003E+01 0.00000E+00
 -1       801 7.30350E+01 1.18003E+01 0.00000E+00
 -1       802 7.60350E+01 1.18003E+01 0.00000E+00
 -1       803 7.90350E+01 1.18003E+01 0.00000E+00
 -1       804 8.20350E+01 1.18003E+01 0.00000E+00
 -1       805 8.50350E+01 1.18003E+01 0.00000E+00
 -1       806 8.80350E+01 1.18003E+01 0.00000E+00
 -1       807 9.10350E+01 1.18003E+01 0.00000E+00
 -1       808 9.40350E+01 1.18003E+01 0.00000E+00
 -1       809 9.70350E+01 1.18003E+01 0.00000E+00
 -1       810 1.00035E+02 1.18003E+01 0.00000E+00
 -1       811 1.03035E+02 1.18003E+01 0.00000E+00
 -1       812 1.06035E+02 1.18003E+01 0.00000E+00
 -1       813 1.09035E+02 1.18003E+01 0.00000E+00
 -1       814 1.12035E+02 1.18003E+01 0.00000E+00
 -1       815 1.15035E+02 1.18003E+01 0.00000E+00
 -1       816 1.18035E+02 1.18003E+01 0.00000E+00
 -1       817 1.21035E+02 1.18003E+01 0.00000E+00
 -1       818 1.24035E+02 1.18003E+01 0.00000E+00
 -1       819 1.27035E+02 1.18003E+01 0.00000E+00
 -1       820 1.30035E+02 1.18003E+01 0.00000E+00
 -1       821 1.33035E+02 1.18003E+01 0.00000E+00
 -1       822 1.36035E+02 1.18003E+01 0.00000E+00
 -1       823 1.37887E+02 1.20223E+01 0.00000E+00
 -1       824 6.82697E+01 2.27018E+01 0.00000E+00
 -1       825 1.29900E+01 2.20250E+01 0.00000E+00
 -1       826 1.90350E+01 1.18003E+01 0.00000E+00
 -1       827 1.37010E+02 2.50250E+01 0.00000E+00
 -1       828 1.37010E+02 3.38250E+01 0.00000E+00
 -1       829 1.37010E+02 3.08750E+01 0.00000E+00
 -1       830 1.01981E+01 3.73352E+01 0.00000E+00
 -1       831 4.17393E+01 3.48408E+01 0.00000E+00
 -1       832 3.70350E+01 1.18003E+01 0.00000E+00
 -1       833 6.55297E+01 1.61057E+01 0.00000E+00
 -1       834 4.76728E+01 1.30820E+01 0.00000E+00
 -1       835 7.06500E+01 3.70100E+01 0.00000E+00
 -1       836 1.66500E+01 3.70100E+01 0.00000E+00
 -1       837 6.02467E+01 1.32359E+01 0.00000E+00
 -1       838 4.16161E+01 2.00045E+01 0.00000E+00
 -1       839 4.12608E+01 3.14035E+01 0.00000E+00
 -1       840 5.45426E+01 1.29302E+01 0.00000E+00
 -1       841 6.96900E+01 2.77936E+01 0.00000E+00
 -1       842 1.37625E+01 1.12011E+01 0.00000E+00
 -1       843 4.50452E+01 1.54332E+01 0.00000E+00
 -1       844 6.71974E+01 3.66028E+01 0.00000E+00
 -1       845 6.91681E+01 3.13959E+01 0.00000E+00
 -1       846 4.30627E+01 1.76832E+01 0.00000E+00
 -1       847 1.37010E+02 2.79500E+01 0.00000E+00
 -1       848 4.32175E+01 3.73836E+01 0.00000E+00
 -1       849 1.29900E+01 2.49750E+01 0.00000E+00
 -1       850 4.01610E+01 2.78083E+01 0.00000E+00
 -1       851 2.80350E+01 1.18003E+01 0.00000E+00
 -1       852 4.03812E+01 2.44747E+01 0.00000E+00
 -1       853 1.37010E+02 2.20750E+01 0.00000E+00
 -1       854 1.37010E+02 1.61875E+01 0.00000E+00
 -1       855 1.63988E+01 1.15007E+01 0.00000E+00
 -1       856 4.90350E+01 1.18003E+01 0.00000E+00
 -1       857 6.92668E+01 2.06854E+01 0.00000E+00
 -1       858 1.37010E+02 1.91313E+01 0.00000E+00
 -1       859 1.29900E+01 1.90875E+01 0.00000E+00
 -1       860 6.75434E+01 1.71828E+01 0.00000E+00
 -1       861 7.11849E+01 2.98256E+01 0.00000E+00
 -1       862 2.50350E+01 1.18003E+01 0.00000E+00
 -1       863 1.29900E+01 1.61437E+01 0.00000E+00
 -1       864 1.36637E+02 3.55285E+01 0.00000E+00
 -1       865 1.29900E+01 3.08563E+01 0.00000E+00
 -1       866 1.29900E+01 3.37938E+01 0.00000E+00
 -1       867 3.93512E+01 2.12216E+01 0.00000E+00
 -1       868 2.41500E+01 3.44120E+01 0.00000E+00
 -1       869 2.71500E+01 3.44120E+01 0.00000E+00
 -1       870 3.01500E+01 3.44120E+01 0.00000E+00
 -1       871 3.31500E+01 3.44120E+01 0.00000E+00
 -1       872 3.61500E+01 3.44120E+01 0.00000E+00
 -1       873 4.23900E+01 1.50920E+01 0.00000E+00
 -1       874 1.29900E+01 2.79188E+01 0.00000E+00
 -1       875 7.81500E+01 3.44120E+01 0.00000E+00
 -1       876 8.11500E+01 3.44120E+01 0.00000E+00
 -1       877 8.41500E+01 3.44120E+01 0.00000E+00
 -1       878 8.71500E+01 3.44120E+01 0.00000E+00
 -1       879 9.01500E+01 3.44120E+01 0.00000E+00
 -1       880 9.31500E+01 3.44120E+01 0.00000E+00
 -1       881 9.61500E+01 3.44120E+01 0.00000E+00
 -1       882 9.91500E+01 3.44120E+01 0.00000E+00
 -1       883 1.02150E+02 3.44120E+01 0.00000E+00
 -1       884 1.05150E+02 3.44120E+01 0.00000E+00
 -1       885 1.08150E+02 3.44120E+01 0.00000E+00
 -1       886 1.11150E+02 3.44120E+01 0.00000E+00
 -1       887 1.14150E+02 3.44120E+01 0.00000E+00
 -1       888 1.17150E+02 3.44120E+01 0.00000E+00
 -1       889 1.20150E+02 3.44120E+01 0.00000E+00
 -1       890 1.23150E+02 3.44120E+01 0.00000E+00
 -1       891 1.26150E+02 3.44120E+01 0.00000E+00
 -1       892 1.29150E+02 3.44120E+01 0.00000E+00
 -1       893 1.32150E+02 3.44120E+01 0.00000E+00
 -1       894 3.25350E+01 1.43982E+01 0.00000E+00
 -1       895 3.91374E+01 3.34511E+01 0.00000E+00
 -1       896 6.85350E+01 1.43982E+01 0.00000E+00
 -1       897 7.15350E+01 1.43982E+01 0.00000E+00
 -1       898 7.45350E+01 1.43982E+01 0.00000E+00
 -1       899 7.75350E+01 1.43982E+01 0.00000E+00
 -1       900 8.05350E+01 1.43982E+01 0.00000E+00
 -1       901 8.35350E+01 1.43982E+01 0.00000E+00
 -1       902 8.65350E+01 1.43982E+01 0.00000E+00
 -1       903 8.95350E+01 1.43982E+01 0.00000E+00
 -1       904 9.25350E+01 1.43982E+01 0.00000E+00
 -1       905 9.55350E+01 1.43982E+01 0.00000E+00
 -1       906 9.85350E+01 1.43982E+01 0.00000E+00
 -1       907 1.01535E+02 1.43982E+01 0.00000E+00
 -1       908 1.04535E+02 1.43982E+01 0.00000E+00
 -1       909 1.07535E+02 1.43982E+01 0.00000E+00
 -1       910 1.10535E+02 1.43982E+01 0.00000E+00
 -1       911 1.13535E+02 1.43982E+01 0.00000E+00
 -1       912 1.16535E+02 1.43982E+01 0.00000E+00
 -1       913 1.19535E+02 1.43982E+01 0.00000E+00
 -1       914 1.22535E+02 1.43982E+01 0.00000E+00
 -1       915 1.25535E+02 1.43982E+01 0.00000E+00
 -1       916 1.28535E+02 1.43982E+01 0.00000E+00
 -1       917 1.31535E+02 1.43982E+01 0.00000E+00
 -1       918 1.34535E+02 1.43982E+01 0.00000E+00
 -1       919 2.05350E+01 1.43982E+01 0.00000E+00
 -1       920 1.37449E+02 1.41049E+01 0.00000E+00
 -1       921 7.08461E+01 3.37359E+01 0.00000E+00
 -1       922 1.34412E+02 3.23500E+01 0.00000E+00
 -1       923 7.05164E+01 2.55296E+01 0.00000E+00
 -1       924 7.51500E+01 3.44120E+01 0.00000E+00
 -1       925 3.94216E+01 3.01714E+01 0.00000E+00
 -1       926 1.81500E+01 3.44120E+01 0.00000E+00
 -1       927 2.11500E+01 3.44120E+01 0.00000E+00
 -1       928 1.55700E+01 3.41029E+01 0.00000E+00
 -1       929 7.06602E+01 2.30088E+01 0.00000E+00
 -1       930 4.04572E+01 1.76709E+01 0.00000E+00
 -1       931 2.95350E+01 1.43982E+01 0.00000E+00
 -1       932 3.94332E+01 2.59227E+01 0.00000E+00
 -1       933 1.55880E+01 2.93875E+01 0.00000E+00
 -1       934 1.78988E+01 1.40987E+01 0.00000E+00
 -1       935 1.34412E+02 2.35500E+01 0.00000E+00
 -1       936 3.55350E+01 1.43982E+01 0.00000E+00
 -1       937 1.34394E+02 3.49702E+01 0.00000E+00
 -1       938 3.87461E+01 1.47356E+01 0.00000E+00
 -1       939 3.85946E+01 2.26256E+01 0.00000E+00
 -1       940 3.81922E+01 1.88879E+01 0.00000E+00
 -1       941 6.91191E+01 1.80475E+01 0.00000E+00
 -1       942 2.35350E+01 1.43982E+01 0.00000E+00
 -1       943 1.34412E+02 2.94250E+01 0.00000E+00
 -1       944 7.28629E+01 3.21655E+01 0.00000E+00
 -1       945 1.55880E+01 1.46719E+01 0.00000E+00
 -1       946 1.34412E+02 2.64750E+01 0.00000E+00
 -1       947 1.34250E+02 1.73983E+01 0.00000E+00
 -1       948 1.55790E+01 3.17452E+01 0.00000E+00
 -1       949 7.18718E+01 2.73072E+01 0.00000E+00
 -1       950 1.55880E+01 2.05562E+01 0.00000E+00
 -1       951 1.55880E+01 2.35063E+01 0.00000E+00
 -1       952 2.86500E+01 3.18140E+01 0.00000E+00
 -1       953 3.16500E+01 3.18140E+01 0.00000E+00
 -1       954 3.46500E+01 3.18140E+01 0.00000E+00
 -1       955 1.55880E+01 2.64469E+01 0.00000E+00
 -1       956 3.76746E+01 2.83276E+01 0.00000E+00
 -1       957 2.65350E+01 1.43982E+01 0.00000E+00
 -1       958 8.26500E+01 3.18140E+01 0.00000E+00
 -1       959 8.56500E+01 3.18140E+01 0.00000E+00
 -1       960 8.86500E+01 3.18140E+01 0.00000E+00
 -1       961 9.16500E+01 3.18140E+01 0.00000E+00
 -1       962 9.46500E+01 3.18140E+01 0.00000E+00
 -1       963 9.76500E+01 3.18140E+01 0.00000E+00
 -1       964 1.00650E+02 3.18140E+01 0.00000E+00
 -1       965 1.03650E+02 3.18140E+01 0.00000E+00
 -1       966 1.06650E+02 3.18140E+01 0.00000E+00
 -1       967 1.09650E+02 3.18140E+01 0.00000E+00
 -1       968 1.12650E+02 3.18140E+01 0.00000E+00
 -1       969 1.15650E+02 3.18140E+01 0.00000E+00
 -1       970 1.18650E+02 3.18140E+01 0.00000E+00
 -1       971 1.21650E+02 3.18140E+01 0.00000E+00
 -1       972 1.24650E+02 3.18140E+01 0.00000E+00
 -1       973 1.27650E+02 3.18140E+01 0.00000E+00
 -1       974 1.30650E+02 3.18140E+01 0.00000E+00
 -1       975 1.55880E+01 1.76141E+01 0.00000E+00
 -1       976 7.30350E+01 1.69963E+01 0.00000E+00
 -1       977 7.90350E+01 1.69963E+01 0.00000E+00
 -1       978 8.20350E+01 1.69963E+01 0.00000E+00
 -1       979 8.50350E+01 1.69963E+01 0.00000E+00
 -1       980 8.80350E+01 1.69963E+01 0.00000E+00
 -1       981 9.10350E+01 1.69963E+01 0.00000E+00
 -1       982 9.40350E+01 1.69963E+01 0.00000E+00
 -1       983 9.70350E+01 1.69963E+01 0.00000E+00
 -1       984 1.00035E+02 1.69963E+01 0.00000E+00
 -1       985 1.03035E+02 1.69963E+01 0.00000E+00
 -1       986 1.06035E+02 1.69963E+01 0.00000E+00
 -1       987 1.09035E+02 1.69963E+01 0.00000E+00
 -1       988 1.12035E+02 1.69963E+01 0.00000E+00
 -1       989 1.15035E+02 1.69963E+01 0.00000E+00
 -1       990 1.18035E+02 1.69963E+01 0.00000E+00
 -1       991 1.21035E+02 1.69963E+01 0.00000E+00
 -1       992 1.24035E+02 1.69963E+01 0.00000E+00
 -1       993 1.27035E+02 1.69963E+01 0.00000E+00
 -1       994 1.30035E+02 1.69963E+01 0.00000E+00
 -1       995 1.34412E+02 2.06063E+01 0.00000E+00
 -1       996 3.69123E+01 3.13698E+01 0.00000E+00
 -1       997 7.03270E+01 1.62229E+01 0.00000E+00
 -1       998 2.26500E+01 3.18140E+01 0.00000E+00
 -1       999 7.96500E+01 3.18140E+01 0.00000E+00
 -1      1000 7.20092E+01 2.06202E+01 0.00000E+00
 -1      1001 7.66500E+01 3.18140E+01 0.00000E+00
 -1      1002 7.60350E+01 1.69963E+01 0.00000E+00
 -1      1003 1.96500E+01 3.18140E+01 0.00000E+00
 -1      1004 2.56500E+01 3.18140E+01 0.00000E+00
 -1      1005 7.36680E+01 2.91499E+01 0.00000E+00
 -1      1006 7.28245E+01 2.51753E+01 0.00000E+00
 -1      1007 3.10350E+01 1.69963E+01 0.00000E+00
 -1      1008 1.76145E+01 3.17796E+01 0.00000E+00
 -1      1009 1.81860E+01 2.79172E+01 0.00000E+00
 -1      1010 1.89235E+01 1.68299E+01 0.00000E+00
 -1      1011 3.40350E+01 1.69963E+01 0.00000E+00
 -1      1012 1.30197E+02 2.02042E+01 0.00000E+00
 -1      1013 1.30197E+02 2.31479E+01 0.00000E+00
 -1      1014 1.81860E+01 1.90852E+01 0.00000E+00
 -1      1015 7.41735E+01 2.27867E+01 0.00000E+00
 -1      1016 3.74357E+01 2.02920E+01 0.00000E+00
 -1      1017 1.81860E+01 2.20352E+01 0.00000E+00
 -1      1018 3.76466E+01 2.40735E+01 0.00000E+00
 -1      1019 1.30197E+02 2.60729E+01 0.00000E+00
 -1      1020 2.19235E+01 1.68299E+01 0.00000E+00
 -1      1021 7.46207E+01 2.70180E+01 0.00000E+00
 -1      1022 1.81860E+01 2.49766E+01 0.00000E+00
 -1      1023 3.31500E+01 2.92160E+01 0.00000E+00
 -1      1024 2.71500E+01 2.92160E+01 0.00000E+00
 -1      1025 2.41500E+01 2.92160E+01 0.00000E+00
 -1      1026 2.49235E+01 1.68299E+01 0.00000E+00
 -1      1027 8.71500E+01 2.92160E+01 0.00000E+00
 -1      1028 9.01500E+01 2.92160E+01 0.00000E+00
 -1      1029 9.31500E+01 2.92160E+01 0.00000E+00
 -1      1030 9.61500E+01 2.92160E+01 0.00000E+00
 -1      1031 9.91500E+01 2.92160E+01 0.00000E+00
 -1      1032 1.02150E+02 2.92160E+01 0.00000E+00
 -1      1033 1.05150E+02 2.92160E+01 0.00000E+00
 -1      1034 1.08150E+02 2.92160E+01 0.00000E+00
 -1      1035 1.11150E+02 2.92160E+01 0.00000E+00
 -1      1036 1.14150E+02 2.92160E+01 0.00000E+00
 -1      1037 1.17150E+02 2.92160E+01 0.00000E+00
 -1      1038 1.20150E+02 2.92160E+01 0.00000E+00
 -1      1039 1.23150E+02 2.92160E+01 0.00000E+00
 -1      1040 1.26150E+02 2.92160E+01 0.00000E+00
 -1      1041 1.29150E+02 2.92160E+01 0.00000E+00
 -1      1042 8.65350E+01 1.95942E+01 0.00000E+00
 -1      1043 8.35350E+01 1.95942E+01 0.00000E+00
 -1      1044 2.11500E+01 2.92160E+01 0.00000E+00
 -1      1045 3.54123E+01 2.87718E+01 0.00000E+00
 -1      1046 8.05350E+01 1.95942E+01 0.00000E+00
 -1      1047 8.95350E+01 1.95942E+01 0.00000E+00
 -1      1048 9.25350E+01 1.95942E+01 0.00000E+00
 -1      1049 9.55350E+01 1.95942E+01 0.00000E+00
 -1      1050 9.85350E+01 1.95942E+01 0.00000E+00
 -1      1051 1.01535E+02 1.95942E+01 0.00000E+00
 -1      1052 1.04535E+02 1.95942E+01 0.00000E+00
 -1      1053 1.07535E+02 1.95942E+01 0.00000E+00
 -1      1054 1.10535E+02 1.95942E+01 0.00000E+00
 -1      1055 1.13535E+02 1.95942E+01 0.00000E+00
 -1      1056 1.16535E+02 1.95942E+01 0.00000E+00
 -1      1057 1.19535E+02 1.95942E+01 0.00000E+00
 -1      1058 1.22535E+02 1.95942E+01 0.00000E+00
 -1      1059 1.25535E+02 1.95942E+01 0.00000E+00
 -1      1060 1.27866E+02 1.98992E+01 0.00000E+00
 -1      1061 2.80350E+01 1.69963E+01 0.00000E+00
 -1      1062 3.65295E+01 2.64227E+01 0.00000E+00
 -1      1063 8.11500E+01 2.92160E+01 0.00000E+00
 -1      1064 8.41500E+01 2.92160E+01 0.00000E+00
 -1      1065 7.81500E+01 2.92160E+01 0.00000E+00
 -1      1066 2.11860E+01 1.90852E+01 0.00000E+00
 -1      1067 3.01500E+01 2.92160E+01 0.00000E+00
 -1      1068 2.11500E+01 2.62754E+01 0.00000E+00
 -1      1069 2.95350E+01 1.95942E+01 0.00000E+00
 -1      1070 7.49293E+01 1.98674E+01 0.00000E+00
 -1      1071 3.64877E+01 2.17399E+01 0.00000E+00
 -1      1072 3.25350E+01 1.95942E+01 0.00000E+00
 -1      1073 7.77322E+01 1.97308E+01 0.00000E+00
 -1      1074 7.59697E+01 2.46295E+01 0.00000E+00
 -1      1075 1.27866E+02 2.28430E+01 0.00000E+00
 -1      1076 1.27866E+02 2.57680E+01 0.00000E+00
 -1      1077 3.50376E+01 2.03068E+01 0.00000E+00
 -1      1078 2.41860E+01 1.90852E+01 0.00000E+00
 -1      1079 2.56500E+01 2.66180E+01 0.00000E+00
 -1      1080 3.16500E+01 2.66180E+01 0.00000E+00
 -1      1081 2.34000E+01 2.64467E+01 0.00000E+00
 -1      1082 9.16500E+01 2.66180E+01 0.00000E+00
 -1      1083 9.46500E+01 2.66180E+01 0.00000E+00
 -1      1084 9.76500E+01 2.66180E+01 0.00000E+00
 -1      1085 1.00650E+02 2.66180E+01 0.00000E+00
 -1      1086 1.03650E+02 2.66180E+01 0.00000E+00
 -1      1087 1.06650E+02 2.66180E+01 0.00000E+00
 -1      1088 1.09650E+02 2.66180E+01 0.00000E+00
 -1      1089 1.12650E+02 2.66180E+01 0.00000E+00
 -1      1090 1.15650E+02 2.66180E+01 0.00000E+00
 -1      1091 1.18650E+02 2.66180E+01 0.00000E+00
 -1      1092 1.21650E+02 2.66180E+01 0.00000E+00
 -1      1093 1.24650E+02 2.66180E+01 0.00000E+00
 -1      1094 9.10350E+01 2.21922E+01 0.00000E+00
 -1      1095 8.80350E+01 2.21922E+01 0.00000E+00
 -1      1096 7.85599E+01 2.69228E+01 0.00000E+00
 -1      1097 2.11500E+01 2.33340E+01 0.00000E+00
 -1      1098 3.40897E+01 2.65203E+01 0.00000E+00
 -1      1099 8.20350E+01 2.21922E+01 0.00000E+00
 -1      1100 9.40350E+01 2.21922E+01 0.00000E+00
 -1      1101 9.70350E+01 2.21922E+01 0.00000E+00
 -1      1102 1.00035E+02 2.21922E+01 0.00000E+00
 -1      1103 1.03035E+02 2.21922E+01 0.00000E+00
 -1      1104 1.06035E+02 2.21922E+01 0.00000E+00
 -1      1105 1.09035E+02 2.21922E+01 0.00000E+00
 -1      1106 1.12035E+02 2.21922E+01 0.00000E+00
 -1      1107 1.15035E+02 2.21922E+01 0.00000E+00
 -1      1108 1.18035E+02 2.21922E+01 0.00000E+00
 -1      1109 1.21035E+02 2.21922E+01 0.00000E+00
 -1      1110 1.24035E+02 2.21922E+01 0.00000E+00
 -1      1111 7.68509E+01 2.21802E+01 0.00000E+00
 -1      1112 2.86500E+01 2.66180E+01 0.00000E+00
 -1      1113 8.50350E+01 2.21922E+01 0.00000E+00
 -1      1114 8.86500E+01 2.66180E+01 0.00000E+00
 -1      1115 2.68605E+01 1.93397E+01 0.00000E+00
 -1      1116 3.52069E+01 2.41712E+01 0.00000E+00
 -1      1117 2.40053E+01 2.13368E+01 0.00000E+00
 -1      1118 3.30749E+01 2.24492E+01 0.00000E+00
 -1      1119 8.15771E+01 2.61242E+01 0.00000E+00
 -1      1120 1.25950E+02 2.25176E+01 0.00000E+00
 -1      1121 1.25300E+02 2.45678E+01 0.00000E+00
 -1      1122 8.56500E+01 2.66180E+01 0.00000E+00
 -1      1123 3.00749E+01 2.24492E+01 0.00000E+00
 -1      1124 7.94430E+01 2.21862E+01 0.00000E+00
 -1      1125 2.74004E+01 2.21947E+01 0.00000E+00
 -1      1126 2.37026E+01 2.38918E+01 0.00000E+00
 -1      1127 0.00000E+00 4.85250E+01 0.00000E+00
 -1      1128 0.00000E+00 4.55750E+01 0.00000E+00
 -1      1129 0.00000E+00 4.26250E+01 0.00000E+00
 -1      1130 0.00000E+00 3.96750E+01 0.00000E+00
 -1      1131 0.00000E+00 3.67250E+01 0.00000E+00
 -1      1132 0.00000E+00 3.38000E+01 0.00000E+00
 -1      1133 0.00000E+00 3.08750E+01 0.00000E+00
 -1      1134 0.00000E+00 2.79250E+01 0.00000E+00
 -1      1135 0.00000E+00 2.49750E+01 0.00000E+00
 -1      1136 0.00000E+00 2.20250E+01 0.00000E+00
 -1      1137 0.00000E+00 1.90750E+01 0.00000E+00
 -1      1138 0.00000E+00 1.61500E+01 0.00000E+00
 -1      1139 0.00000E+00 1.32250E+01 0.00000E+00
 -1      1140 0.00000E+00 1.02750E+01 0.00000E+00
 -1      1141 0.00000E+00 7.32500E+00 0.00000E+00
 -1      1142 0.00000E+00 4.37500E+00 0.00000E+00
 -1      1143 0.00000E+00 1.45000E+00 0.00000E+00
 -1      1144 1.57500E+00 5.00000E+01 0.00000E+00
 -1      1145 4.65000E+00 5.00000E+01 0.00000E+00
 -1      1146 7.65000E+00 5.00000E+01 0.00000E+00
 -1      1147 1.06500E+01 5.00000E+01 0.00000E+00
 -1      1148 1.36500E+01 5.00000E+01 0.00000E+00
 -1      1149 1.66500E+01 5.00000E+01 0.00000E+00
 -1      1150 1.96500E+01 5.00000E+01 0.00000E+00
 -1      1151 2.26500E+01 5.00000E+01 0.00000E+00
 -1      1152 2.56500E+01 5.00000E+01 0.00000E+00
 -1      1153 2.86500E+01 5.00000E+01 0.00000E+00
 -1      1154 3.16500E+01 5.00000E+01 0.00000E+00
 -1      1155 3.46500E+01 5.00000E+01 0.00000E+00
 -1      1156 3.76500E+01 5.00000E+01 0.00000E+00
 -1      1157 4.06500E+01 5.00000E+01 0.00000E+00
 -1      1158 4.36500E+01 5.00000E+01 0.00000E+00
 -1      1159 4.66500E+01 5.00000E+01 0.00000E+00
 -1      1160 4.96500E+01 5.00000E+01 0.00000E+00
 -1      1161 5.26500E+01 5.00000E+01 0.00000E+00
 -1      1162 5.56500E+01 5.00000E+01 0.00000E+00
 -1      1163 5.86500E+01 5.00000E+01 0.00000E+00
 -1      1164 6.16500E+01 5.00000E+01 0.00000E+00
 -1      1165 6.46500E+01 5.00000E+01 0.00000E+00
 -1      1166 6.76500E+01 5.00000E+01 0.00000E+00
 -1      1167 7.06500E+01 5.00000E+01 0.00000E+00
 -1      1168 7.36500E+01 5.00000E+01 0.00000E+00
 -1      1169 7.66500E+01 5.00000E+01 0.00000E+00
 -1      1170 7.96500E+01 5.00000E+01 0.00000E+00
 -1      1171 8.26500E+01 5.00000E+01 0.00000E+00
 -1      1172 8.56500E+01 5.00000E+01 0.00000E+00
 -1      1173 8.86500E+01 5.00000E+01 0.00000E+00
 -1      1174 9.16500E+01 5.00000E+01 0.00000E+00
 -1      1175 9.46500E+01 5.00000E+01 0.00000E+00
 -1      1176 9.76500E+01 5.00000E+01 0.00000E+00
 -1      1177 1.00650E+02 5.00000E+01 0.00000E+00
 -1      1178 1.03650E+02 5.00000E+01 0.00000E+00
 -1      1179 1.06650E+02 5.00000E+01 0.00000E+00
 -1      1180 1.09650E+02 5.00000E+01 0.00000E+00
 -1      1181 1.12650E+02 5.00000E+01 0.00000E+00
 -1      1182 1.15650E+02 5.00000E+01 0.00000E+00
 -1      1183 1.18650E+02 5.00000E+01 0.00000E+00
 -1      1184 1.21650E+02 5.00000E+01 0.00000E+00
 -1      1185 1.24650E+02 5.00000E+01 0.00000E+00
 -1      1186 1.27650E+02 5.00000E+01 0.00000E+00
 -1      1187 1.30650E+02 5.00000E+01 0.00000E+00
 -1      1188 1.33650E+02 5.00000E+01 0.00000E+00
 -1      1189 1.36650E+02 5.00000E+01 0.00000E+00
 -1      1190 1.39650E+02 5.00000E+01 0.00000E+00
 -1      1191 1.42650E+02 5.00000E+01 0.00000E+00
 -1      1192 1.45650E+02 5.00000E+01 0.00000E+00
 -1      1193 1.48575E+02 5.00000E+01 0.00000E+00
 -1      1194 1.57500E+00 0.00000E+00 0.00000E+00
 -1      1195 4.65000E+00 0.00000E+00 0.00000E+00
 -1      1196 7.65000E+00 0.00000E+00 0.00000E+00
 -1      1197 1.06500E+01 0.00000E+00 0.00000E+00
 -1      1198 1.36500E+01 0.00000E+00 0.00000E+00
 -1      1199 1.66500E+01 0.00000E+00 0.00000E+00
 -1      1200 1.96500E+01 0.00000E+00 0.00000E+00
 -1      1201 2.26500E+01 0.00000E+00 0.00000E+00
 -1      1202 2.56500E+01 0.00000E+00 0.00000E+00
 -1      1203 2.86500E+01 0.00000E+00 0.00000E+00
 -1      1204 3.16500E+01 0.00000E+00 0.00000E+00
 -1      1205 3.46500E+01 0.00000E+00 0.00000E+00
 -1      1206 3.76500E+01 0.00000E+00 0.00000E+00
 -1      1207 4.06500E+01 0.00000E+00 0.00000E+00
 -1      1208 4.36500E+01 0.00000E+00 0.00000E+00
 -1      1209 4.66500E+01 0.00000E+00 0.00000E+00
 -1      1210 4.96500E+01 0.00000E+00 0.00000E+00
 -1      1211 5.26500E+01 0.00000E+00 0.00000E+00
 -1      1212 5.56500E+01 0.00000E+00 0.00000E+00
 -1      1213 5.86500E+01 0.00000E+00 0.00000E+00
 -1      1214 6.16500E+01 0.00000E+00 0.00000E+00
 -1      1215 6.46500E+01 0.00000E+00 0.00000E+00
 -1      1216 6.76500E+01 0.00000E+00 0.00000E+00
 -1      1217 7.06500E+01 0.00000E+00 0.00000E+00
 -1      1218 7.36500E+01 0.00000E+00 0.00000E+00
 -1      1219 7.66500E+01 0.00000E+00 0.00000E+00
 -1      1220 7.96500E+01 0.00000E+00 0.00000E+00
 -1      1221 8.26500E+01 0.00000E+00 0.00000E+00
 -1      1222 8.56500E+01 0.00000E+00 0.00000E+00
 -1      1223 8.86500E+01 0.00000E+00 0.00000E+00
 -1      1224 9.16500E+01 0.00000E+00 0.00000E+00
 -1      1225 9.46500E+01 0.00000E+00 0.00000E+00
 -1      1226 9.76500E+01 0.00000E+00 0.00000E+00
 -1      1227 1.00650E+02 0.00000E+00 0.00000E+00
 -1      1228 1.03650E+02 0.00000E+00 0.00000E+00
 -1      1229 1.06650E+02 0.00000E+00 0.00000E+00
 -1      1230 1.09650E+02 0.00000E+00 0.00000E+00
 -1      1231 1.12650E+02 0.00000E+00 0.00000E+00
 -1      1232 1.15650E+02 0.00000E+00 0.00000E+00
 -1      1233 1.18650E+02 0.00000E+00 0.00000E+00
 -1      1234 1.21650E+02 0.00000E+00 0.00000E+00
 -1      1235 1.24650E+02 0.00000E+00 0.00000E+00
 -1      1236 1.27650E+02 0.00000E+00 0.00000E+00
 -1      1237 1.30650E+02 0.00000E+00 0.00000E+00
 -1      1238 1.33650E+02 0.00000E+00 0.00000E+00
 -1      1239 1.36650E+02 0.00000E+00 0.00000E+00
 -1      1240 1.39650E+02 0.00000E+00 0.00000E+00
 -1      1241 1.42650E+02 0.00000E+00 0.00000E+00
 -1      1242 1.45650E+02 0.00000E+00 0.00000E+00
 -1      1243 1.48575E+02 0.00000E+00 0.00000E+00
 -1      1244 1.50000E+02 1.47500E+00 0.00000E+00
 -1      1245 1.50000E+02 4.42500E+00 0.00000E+00
 -1      1246 1.50000E+02 7.37500E+00 0.00000E+00
 -1      1247 1.50000E+02 1.03250E+01 0.00000E+00
 -1      1248 1.50000E+02 1.32750E+01 0.00000E+00
 -1      1249 1.50000E+02 1.62000E+01 0.00000E+00
 -1      1250 1.50000E+02 1.91250E+01 0.00000E+00
 -1      1251 1.50000E+02 2.20750E+01 0.00000E+00
 -1      1252 1.50000E+02 2.50250E+01 0.00000E+00
 -1      1253 1.50000E+02 2.79750E+01 0.00000E+00
 -1      1254 1.50000E+02 3.09250E+01 0.00000E+00
 -1      1255 1.50000E+02 3.38500E+01 0.00000E+00
 -1      1256 1.50000E+02 3.67750E+01 0.00000E+00
 -1      1257 1.50000E+02 3.97250E+01 0.00000E+00
 -1      1258 1.50000E+02 4.26750E+01 0.00000E+00
 -1      1259 1.50000E+02 4.56250E+01 0.00000E+00
 -1      1260 1.50000E+02 4.85500E+01 0.00000E+00
 -1      1261 6.16709E+01 2.61787E+01 0.00000E+00
 -1      1262 6.13589E+01 2.47000E+01 0.00000E+00
 -1      1263 6.07041E+01 2.32676E+01 0.00000E+00
 -1      1264 5.98050E+01 2.20803E+01 0.00000E+00
 -1      1265 5.86416E+01 2.10871E+01 0.00000E+00
 -1      1266 5.72885E+01 2.03697E+01 0.00000E+00
 -1      1267 5.58849E+01 1.99758E+01 0.00000E+00
 -1      1268 5.43840E+01 1.98831E+01 0.00000E+00
 -1      1269 5.28919E+01 2.01148E+01 0.00000E+00
 -1      1270 5.15593E+01 2.06227E+01 0.00000E+00
 -1      1271 5.03338E+01 2.14089E+01 0.00000E+00
 -1      1272 4.92845E+01 2.24474E+01 0.00000E+00
 -1      1273 4.84895E+01 2.36572E+01 0.00000E+00
 -1      1274 4.79466E+01 2.50551E+01 0.00000E+00
 -1      1275 4.77144E+01 2.65261E+01 0.00000E+00
 -1      1276 4.78045E+01 2.80478E+01 0.00000E+00
 -1      1277 4.82263E+01 2.95249E+01 0.00000E+00
 -1      1278 4.89269E+01 3.08263E+01 0.00000E+00
 -1      1279 4.99398E+01 3.20028E+01 0.00000E+00
 -1      1280 5.11949E+01 3.29317E+01 0.00000E+00
 -1      1281 5.25431E+01 3.35334E+01 0.00000E+00
 -1      1282 5.39708E+01 3.38371E+01 0.00000E+00
 -1      1283 5.54128E+01 3.38399E+01 0.00000E+00
 -1      1284 5.67638E+01 3.35663E+01 0.00000E+00
 -1      1285 5.80058E+01 3.30490E+01 0.00000E+00
 -1      1286 5.91349E+01 3.22962E+01 0.00000E+00
 -1      1287 6.00926E+01 3.13458E+01 0.00000E+00
 -1      1288 6.08435E+01 3.02412E+01 0.00000E+00
 -1      1289 6.13773E+01 2.89945E+01 0.00000E+00
 -1      1290 6.16674E+01 2.76063E+01 0.00000E+00
 -1      1291 1.57500E+00 4.85250E+01 0.00000E+00
 -1      1292 1.29900E+00 4.48375E+01 0.00000E+00
 -1      1293 1.29900E+00 4.63125E+01 0.00000E+00
 -1      1294 1.29900E+00 4.18875E+01 0.00000E+00
 -1      1295 1.29900E+00 4.33625E+01 0.00000E+00
 -1      1296 2.59800E+00 4.41000E+01 0.00000E+00
 -1      1297 1.29900E+00 3.89375E+01 0.00000E+00
 -1      1298 1.29900E+00 4.04125E+01 0.00000E+00
 -1      1299 2.59800E+00 4.11500E+01 0.00000E+00
 -1      1300 1.29900E+00 3.59875E+01 0.00000E+00
 -1      1301 1.29900E+00 3.74625E+01 0.00000E+00
 -1      1302 2.59800E+00 3.82000E+01 0.00000E+00
 -1      1303 1.29900E+00 3.30875E+01 0.00000E+00
 -1      1304 1.29900E+00 3.45375E+01 0.00000E+00
 -1      1305 2.59800E+00 3.52750E+01 0.00000E+00
 -1      1306 1.29900E+00 3.01375E+01 0.00000E+00
 -1      1307 1.29900E+00 3.16125E+01 0.00000E+00
 -1      1308 2.59800E+00 3.23500E+01 0.00000E+00
 -1      1309 1.29900E+00 2.71875E+01 0.00000E+00
 -1      1310 1.29900E+00 2.86625E+01 0.00000E+00
 -1      1311 2.59800E+00 2.94000E+01 0.00000E+00
 -1      1312 1.29900E+00 2.42375E+01 0.00000E+00
 -1      1313 1.29900E+00 2.57125E+01 0.00000E+00
 -1      1314 2.59800E+00 2.64500E+01 0.00000E+00
 -1      1315 1.29900E+00 2.12875E+01 0.00000E+00
 -1      1316 1.29900E+00 2.27625E+01 0.00000E+00
 -1      1317 2.59800E+00 2.35000E+01 0.00000E+00
 -1      1318 1.29900E+00 1.83375E+01 0.00000E+00
 -1      1319 1.29900E+00 1.98125E+01 0.00000E+00
 -1      1320 2.59800E+00 2.05500E+01 0.00000E+00
 -1      1321 1.29900E+00 1.54375E+01 0.00000E+00
 -1      1322 1.29900E+00 1.68875E+01 0.00000E+00
 -1      1323 2.59800E+00 1.76250E+01 0.00000E+00
 -1      1324 1.29900E+00 1.24875E+01 0.00000E+00
 -1      1325 1.29900E+00 1.39625E+01 0.00000E+00
 -1      1326 2.59800E+00 1.47000E+01 0.00000E+00
 -1      1327 1.29900E+00 9.53750E+00 0.00000E+00
 -1      1328 1.29900E+00 1.10125E+01 0.00000E+00
 -1      1329 2.59800E+00 1.17500E+01 0.00000E+00
 -1      1330 1.29900E+00 6.58750E+00 0.00000E+00
 -1      1331 1.29900E+00 8.06250E+00 0.00000E+00
 -1      1332 2.59800E+00 8.80000E+00 0.00000E+00
 -1      1333 1.29900E+00 3.63750E+00 0.00000E+00
 -1      1334 1.29900E+00 5.11250E+00 0.00000E+00
 -1      1335 2.59800E+00 5.85000E+00 0.00000E+00
 -1      1336 1.43700E+00 1.09375E+00 0.00000E+00
 -1      1337 1.43700E+00 2.54375E+00 0.00000E+00
 -1      1338 2.73600E+00 3.28125E+00 0.00000E+00
 -1      1339 3.01200E+00 1.09375E+00 0.00000E+00
 -1      1340 3.90000E+00 4.87010E+01 0.00000E+00
 -1      1341 5.40000E+00 4.87010E+01 0.00000E+00
 -1      1342 6.90000E+00 4.87010E+01 0.00000E+00
 -1      1343 8.40000E+00 4.87010E+01 0.00000E+00
 -1      1344 6.15000E+00 4.74020E+01 0.00000E+00
 -1      1345 9.90000E+00 4.87010E+01 0.00000E+00
 -1      1346 1.14000E+01 4.87010E+01 0.00000E+00
 -1      1347 9.15000E+00 4.74020E+01 0.00000E+00
 -1      1348 1.29000E+01 4.87010E+01 0.00000E+00
 -1      1349 1.44000E+01 4.87010E+01 0.00000E+00
 -1      1350 1.21500E+01 4.74020E+01 0.00000E+00
 -1      1351 1.59000E+01 4.87010E+01 0.00000E+00
 -1      1352 1.74000E+01 4.87010E+01 0.00000E+00
 -1      1353 1.51500E+01 4.74020E+01 0.00000E+00
 -1      1354 1.89000E+01 4.87010E+01 0.00000E+00
 -1      1355 2.04000E+01 4.87010E+01 0.00000E+00
 -1      1356 1.81500E+01 4.74020E+01 0.00000E+00
 -1      1357 2.19000E+01 4.87010E+01 0.00000E+00
 -1      1358 2.34000E+01 4.87010E+01 0.00000E+00
 -1      1359 2.11500E+01 4.74020E+01 0.00000E+00
 -1      1360 2.49000E+01 4.87010E+01 0.00000E+00
 -1      1361 2.64000E+01 4.87010E+01 0.00000E+00
 -1      1362 2.41500E+01 4.74020E+01 0.00000E+00
 -1      1363 2.79000E+01 4.87010E+01 0.00000E+00
 -1      1364 2.94000E+01 4.87010E+01 0.00000E+00
 -1      1365 2.71500E+01 4.74020E+01 0.00000E+00
 -1      1366 3.09000E+01 4.87010E+01 0.00000E+00
 -1      1367 3.24000E+01 4.87010E+01 0.00000E+00
 -1      1368 3.01500E+01 4.74020E+01 0.00000E+00
 -1      1369 3.39000E+01 4.87010E+01 0.00000E+00
 -1      1370 3.54000E+01 4.87010E+01 0.00000E+00
 -1      1371 3.31500E+01 4.74020E+01 0.00000E+00
 -1      1372 3.69000E+01 4.87010E+01 0.00000E+00
 -1      1373 3.84000E+01 4.87010E+01 0.00000E+00
 -1      1374 3.61500E+01 4.74020E+01 0.00000E+00
 -1      1375 3.99000E+01 4.87010E+01 0.00000E+00
 -1      1376 4.14000E+01 4.87010E+01 0.00000E+00
 -1      1377 3.91500E+01 4.74020E+01 0.00000E+00
 -1      1378 4.29000E+01 4.87010E+01 0.00000E+00
 -1      1379 4.44000E+01 4.87010E+01 0.00000E+00
 -1      1380 4.21500E+01 4.74020E+01 0.00000E+00
 -1      1381 4.59000E+01 4.87010E+01 0.00000E+00
 -1      1382 4.74000E+01 4.87010E+01 0.00000E+00
 -1      1383 4.51500E+01 4.74020E+01 0.00000E+00
 -1      1384 4.89000E+01 4.87010E+01 0.00000E+00
 -1      1385 5.04000E+01 4.87010E+01 0.00000E+00
 -1      1386 4.81500E+01 4.74020E+01 0.00000E+00
 -1      1387 5.19000E+01 4.87010E+01 0.00000E+00
 -1      1388 5.34000E+01 4.87010E+01 0.00000E+00
 -1      1389 5.11500E+01 4.74020E+01 0.00000E+00
 -1      1390 5.49000E+01 4.87010E+01 0.00000E+00
 -1      1391 5.64000E+01 4.87010E+01 0.00000E+00
 -1      1392 5.41500E+01 4.74020E+01 0.00000E+00
 -1      1393 5.79000E+01 4.87010E+01 0.00000E+00
 -1      1394 5.94000E+01 4.87010E+01 0.00000E+00
 -1      1395 5.71500E+01 4.74020E+01 0.00000E+00
 -1      1396 6.09000E+01 4.87010E+01 0.00000E+00
 -1      1397 6.24000E+01 4.87010E+01 0.00000E+00
 -1      1398 6.01500E+01 4.74020E+01 0.00000E+00
 -1      1399 6.39000E+01 4.87010E+01 0.00000E+00
 -1      1400 6.54000E+01 4.87010E+01 0.00000E+00
 -1      1401 6.31500E+01 4.74020E+01 0.00000E+00
 -1      1402 6.69000E+01 4.87010E+01 0.00000E+00
 -1      1403 6.84000E+01 4.87010E+01 0.00000E+00
 -1      1404 6.61500E+01 4.74020E+01 0.00000E+00
 -1      1405 6.99000E+01 4.87010E+01 0.00000E+00
 -1      1406 7.14000E+01 4.87010E+01 0.00000E+00
 -1      1407 6.91500E+01 4.74020E+01 0.00000E+00
 -1      1408 7.29000E+01 4.87010E+01 0.00000E+00
 -1      1409 7.44000E+01 4.87010E+01 0.00000E+00
 -1      1410 7.21500E+01 4.74020E+01 0.00000E+00
 -1      1411 7.59000E+01 4.87010E+01 0.00000E+00
 -1      1412 7.74000E+01 4.87010E+01 0.00000E+00
 -1      1413 7.51500E+01 4.74020E+01 0.00000E+00
 -1      1414 7.89000E+01 4.87010E+01 0.00000E+00
 -1      1415 8.04000E+01 4.87010E+01 0.00000E+00
 -1      1416 7.81500E+01 4.74020E+01 0.00000E+00
 -1      1417 8.19000E+01 4.87010E+01 0.00000E+00
 -1      1418 8.34000E+01 4.87010E+01 0.00000E+00
 -1      1419 8.11500E+01 4.74020E+01 0.00000E+00
 -1      1420 8.49000E+01 4.87010E+01 0.00000E+00
 -1      1421 8.64000E+01 4.87010E+01 0.00000E+00
 -1      1422 8.41500E+01 4.74020E+01 0.00000E+00
 -1      1423 8.79000E+01 4.87010E+01 0.00000E+00
 -1      1424 8.94000E+01 4.87010E+01 0.00000E+00
 -1      1425 8.71500E+01 4.74020E+01 0.00000E+00
 -1      1426 9.09000E+01 4.87010E+01 0.00000E+00
 -1      1427 9.24000E+01 4.87010E+01 0.00000E+00
 -1      1428 9.01500E+01 4.74020E+01 0.00000E+00
 -1      1429 9.39000E+01 4.87010E+01 0.00000E+00
 -1      1430 9.54000E+01 4.87010E+01 0.00000E+00
 -1      1431 9.31500E+01 4.74020E+01 0.00000E+00
 -1      1432 9.69000E+01 4.87010E+01 0.00000E+00
 -1      1433 9.84000E+01 4.87010E+01 0.00000E+00
 -1      1434 9.61500E+01 4.74020E+01 0.00000E+00
 -1      1435 9.99000E+01 4.87010E+01 0.00000E+00
 -1      1436 1.01400E+02 4.87010E+01 0.00000E+00
 -1      1437 9.91500E+01 4.74020E+01 0.00000E+00
 -1      1438 1.02900E+02 4.87010E+01 0.00000E+00
 -1      1439 1.04400E+02 4.87010E+01 0.00000E+00
 -1      1440 1.02150E+02 4.74020E+01 0.00000E+00
 -1      1441 1.05900E+02 4.87010E+01 0.00000E+00
 -1      1442 1.07400E+02 4.87010E+01 0.00000E+00
 -1      1443 1.05150E+02 4.74020E+01 0.00000E+00
 -1      1444 1.08900E+02 4.87010E+01 0.00000E+00
 -1      1445 1.10400E+02 4.87010E+01 0.00000E+00
 -1      1446 1.08150E+02 4.74020E+01 0.00000E+00
 -1      1447 1.11900E+02 4.87010E+01 0.00000E+00
 -1      1448 1.13400E+02 4.87010E+01 0.00000E+00
 -1      1449 1.11150E+02 4.74020E+01 0.00000E+00
 -1      1450 1.14900E+02 4.87010E+01 0.00000E+00
 -1      1451 1.16400E+02 4.87010E+01 0.00000E+00
 -1      1452 1.14150E+02 4.74020E+01 0.00000E+00
 -1      1453 1.17900E+02 4.87010E+01 0.00000E+00
 -1      1454 1.19400E+02 4.87010E+01 0.00000E+00
 -1      1455 1.17150E+02 4.74020E+01 0.00000E+00
 -1      1456 1.20900E+02 4.87010E+01 0.00000E+00
 -1      1457 1.22400E+02 4.87010E+01 0.00000E+00
 -1      1458 1.20150E+02 4.74020E+01 0.00000E+00
 -1      1459 1.23900E+02 4.87010E+01 0.00000E+00
 -1      1460 1.25400E+02 4.87010E+01 0.00000E+00
 -1      1461 1.23150E+02 4.74020E+01 0.00000E+00
 -1      1462 1.26900E+02 4.87010E+01 0.00000E+00
 -1      1463 1.28400E+02 4.87010E+01 0.00000E+00
 -1      1464 1.26150E+02 4.74020E+01 0.00000E+00
 -1      1465 1.29900E+02 4.87010E+01 0.00000E+00
 -1      1466 1.31400E+02 4.87010E+01 0.00000E+00
 -1      1467 1.29150E+02 4.74020E+01 0.00000E+00
 -1      1468 1.32900E+02 4.87010E+01 0.00000E+00
 -1      1469 1.34400E+02 4.87010E+01 0.00000E+00
 -1      1470 1.32150E+02 4.74020E+01 0.00000E+00
 -1      1471 1.35900E+02 4.87010E+01 0.00000E+00
 -1      1472 1.37400E+02 4.87010E+01 0.00000E+00
 -1      1473 1.35150E+02 4.74020E+01 0.00000E+00
 -1      1474 1.38900E+02 4.87010E+01 0.00000E+00
 -1      1475 1.40400E+02 4.87010E+01 0.00000E+00
 -1      1476 1.38150E+02 4.74020E+01 0.00000E+00
 -1      1477 1.41900E+02 4.87010E+01 0.00000E+00
 -1      1478 1.43400E+02 4.87010E+01 0.00000E+00
 -1      1479 1.41150E+02 4.74020E+01 0.00000E+00
 -1      1480 1.44900E+02 4.87010E+01 0.00000E+00
 -1      1481 1.46400E+02 4.87010E+01 0.00000E+00
 -1      1482 1.44150E+02 4.74020E+01 0.00000E+00
 -1      1483 1.48575E+02 4.85500E+01 0.00000E+00
 -1      1484 1.47825E+02 4.72510E+01 0.00000E+00
 -1      1485 6.01200E+00 1.09375E+00 0.00000E+00
 -1      1486 4.51200E+00 1.09375E+00 0.00000E+00
 -1      1487 4.37400E+00 2.18750E+00 0.00000E+00
 -1      1488 9.01200E+00 1.09375E+00 0.00000E+00
 -1      1489 7.51200E+00 1.09375E+00 0.00000E+00
 -1      1490 7.37400E+00 2.18750E+00 0.00000E+00
 -1      1491 1.20120E+01 1.09375E+00 0.00000E+00
 -1      1492 1.05120E+01 1.09375E+00 0.00000E+00
 -1      1493 1.03740E+01 2.18750E+00 0.00000E+00
 -1      1494 1.50120E+01 1.09375E+00 0.00000E+00
 -1      1495 1.35120E+01 1.09375E+00 0.00000E+00
 -1      1496 1.33740E+01 2.18750E+00 0.00000E+00
 -1      1497 1.80120E+01 1.09375E+00 0.00000E+00
 -1      1498 1.65120E+01 1.09375E+00 0.00000E+00
 -1      1499 1.63740E+01 2.18750E+00 0.00000E+00
 -1      1500 2.10120E+01 1.09375E+00 0.00000E+00
 -1      1501 1.95120E+01 1.09375E+00 0.00000E+00
 -1      1502 1.93740E+01 2.18750E+00 0.00000E+00
 -1      1503 2.40120E+01 1.09375E+00 0.00000E+00
 -1      1504 2.25120E+01 1.09375E+00 0.00000E+00
 -1      1505 2.23740E+01 2.18750E+00 0.00000E+00
 -1      1506 2.70120E+01 1.09375E+00 0.00000E+00
 -1      1507 2.55120E+01 1.09375E+00 0.00000E+00
 -1      1508 2.53740E+01 2.18750E+00 0.00000E+00
 -1      1509 3.00120E+01 1.09375E+00 0.00000E+00
 -1      1510 2.85120E+01 1.09375E+00 0.00000E+00
 -1      1511 2.83740E+01 2.18750E+00 0.00000E+00
 -1      1512 3.30120E+01 1.09375E+00 0.00000E+00
 -1      1513 3.15120E+01 1.09375E+00 0.00000E+00
 -1      1514 3.13740E+01 2.18750E+00 0.00000E+00
 -1      1515 3.60120E+01 1.09375E+00 0.00000E+00
 -1      1516 3.45120E+01 1.09375E+00 0.00000E+00
 -1      1517 3.43740E+01 2.18750E+00 0.00000E+00
 -1      1518 3.90120E+01 1.09375E+00 0.00000E+00
 -1      1519 3.75120E+01 1.09375E+00 0.00000E+00
 -1      1520 3.73740E+01 2.18750E+00 0.00000E+00
 -1      1521 4.20120E+01 1.09375E+00 0.00000E+00
 -1      1522 4.05120E+01 1.09375E+00 0.00000E+00
 -1      1523 4.03740E+01 2.18750E+00 0.00000E+00
 -1      1524 4.50120E+01 1.09375E+00 0.00000E+00
 -1      1525 4.35120E+01 1.09375E+00 0.00000E+00
 -1      1526 4.33740E+01 2.18750E+00 0.00000E+00
 -1      1527 4.80120E+01 1.09375E+00 0.00000E+00
 -1      1528 4.65120E+01 1.09375E+00 0.00000E+00
 -1      1529 4.63740E+01 2.18750E+00 0.00000E+00
 -1      1530 5.10120E+01 1.09375E+00 0.00000E+00
 -1      1531 4.95120E+01 1.09375E+00 0.00000E+00
 -1      1532 4.93740E+01 2.18750E+00 0.00000E+00
 -1      1533 5.40120E+01 1.09375E+00 0.00000E+00
 -1      1534 5.25120E+01 1.09375E+00 0.00000E+00
 -1      1535 5.23740E+01 2.18750E+00 0.00000E+00
 -1      1536 5.70120E+01 1.09375E+00 0.00000E+00
 -1      1537 5.55120E+01 1.09375E+00 0.00000E+00
 -1      1538 5.53740E+01 2.18750E+00 0.00000E+00
 -1      1539 6.00120E+01 1.09375E+00 0.00000E+00
 -1      1540 5.85120E+01 1.09375E+00 0.00000E+00
 -1      1541 5.83740E+01 2.18750E+00 0.00000E+00
 -1      1542 6.30120E+01 1.09375E+00 0.00000E+00
 -1      1543 6.15120E+01 1.09375E+00 0.00000E+00
 -1      1544 6.13740E+01 2.18750E+00 0.00000E+00
 -1      1545 6.60120E+01 1.09375E+00 0.00000E+00
 -1      1546 6.45120E+01 1.09375E+00 0.00000E+00
 -1      1547 6.43740E+01 2.18750E+00 0.00000E+00
 -1      1548 6.90120E+01 1.09375E+00 0.00000E+00
 -1      1549 6.75120E+01 1.09375E+00 0.00000E+00
 -1      1550 6.73740E+01 2.18750E+00 0.00000E+00
 -1      1551 7.20120E+01 1.09375E+00 0.00000E+00
 -1      1552 7.05120E+01 1.09375E+00 0.00000E+00
 -1      1553 7.03740E+01 2.18750E+00 0.00000E+00
 -1      1554 7.50120E+01 1.09375E+00 0.00000E+00
 -1      1555 7.35120E+01 1.09375E+00 0.00000E+00
 -1      1556 7.33740E+01 2.18750E+00 0.00000E+00
 -1      1557 7.80120E+01 1.09375E+00 0.00000E+00
 -1      1558 7.65120E+01 1.09375E+00 0.00000E+00
 -1      1559 7.63740E+01 2.18750E+00 0.00000E+00
 -1      1560 8.10120E+01 1.09375E+00 0.00000E+00
 -1      1561 7.95120E+01 1.09375E+00 0.00000E+00
 -1      1562 7.93740E+01 2.18750E+00 0.00000E+00
 -1      1563 8.40120E+01 1.09375E+00 0.00000E+00
 -1      1564 8.25120E+01 1.09375E+00 0.00000E+00
 -1      1565 8.23740E+01 2.18750E+00 0.00000E+00
 -1      1566 8.70120E+01 1.09375E+00 0.00000E+00
 -1      1567 8.55120E+01 1.09375E+00 0.00000E+00
 -1      1568 8.53740E+01 2.18750E+00 0.00000E+00
 -1      1569 9.00120E+01 1.09375E+00 0.00000E+00
 -1      1570 8.85120E+01 1.09375E+00 0.00000E+00
 -1      1571 8.83740E+01 2.18750E+00 0.00000E+00
 -1      1572 9.30120E+01 1.09375E+00 0.00000E+00
 -1      1573 9.15120E+01 1.09375E+00 0.00000E+00
 -1      1574 9.13740E+01 2.18750E+00 0.00000E+00
 -1      1575 9.60120E+01 1.09375E+00 0.00000E+00
 -1      1576 9.45120E+01 1.09375E+00 0.00000E+00
 -1      1577 9.43740E+01 2.18750E+00 0.00000E+00
 -1      1578 9.90120E+01 1.09375E+00 0.00000E+00
 -1      1579 9.75120E+01 1.09375E+00 0.00000E+00
 -1      1580 9.73740E+01 2.18750E+00 0.00000E+00
 -1      1581 1.02012E+02 1.09375E+00 0.00000E+00
 -1      1582 1.00512E+02 1.09375E+00 0.00000E+00
 -1      1583 1.00374E+02 2.18750E+00 0.00000E+00
 -1      1584 1.05012E+02 1.09375E+00 0.00000E+00
 -1      1585 1.03512E+02 1.09375E+00 0.00000E+00
 -1      1586 1.03374E+02 2.18750E+00 0.00000E+00
 -1      1587 1.08012E+02 1.09375E+00 0.00000E+00
 -1      1588 1.06512E+02 1.09375E+00 0.00000E+00
 -1      1589 1.06374E+02 2.18750E+00 0.00000E+00
 -1      1590 1.11012E+02 1.09375E+00 0.00000E+00
 -1      1591 1.09512E+02 1.09375E+00 0.00000E+00
 -1      1592 1.09374E+02 2.18750E+00 0.00000E+00
 -1      1593 1.14012E+02 1.09375E+00 0.00000E+00
 -1      1594 1.12512E+02 1.09375E+00 0.00000E+00
 -1      1595 1.12374E+02 2.18750E+00 0.00000E+00
 -1      1596 1.17012E+02 1.09375E+00 0.00000E+00
 -1      1597 1.15512E+02 1.09375E+00 0.00000E+00
 -1      1598 1.15374E+02 2.18750E+00 0.00000E+00
 -1      1599 1.20012E+02 1.09375E+00 0.00000E+00
 -1      1600 1.18512E+02 1.09375E+00 0.00000E+00
 -1      1601 1.18374E+02 2.18750E+00 0.00000E+00
 -1      1602 1.23012E+02 1.09375E+00 0.00000E+00
 -1      1603 1.21512E+02 1.09375E+00 0.00000E+00
 -1      1604 1.21374E+02 2.18750E+00 0.00000E+00
 -1      1605 1.26012E+02 1.09375E+00 0.00000E+00
 -1      1606 1.24512E+02 1.09375E+00 0.00000E+00
 -1      1607 1.24374E+02 2.18750E+00 0.00000E+00
 -1      1608 1.29012E+02 1.09375E+00 0.00000E+00
 -1      1609 1.27512E+02 1.09375E+00 0.00000E+00
 -1      1610 1.27374E+02 2.18750E+00 0.00000E+00
 -1      1611 1.32012E+02 1.09375E+00 0.00000E+00
 -1      1612 1.30512E+02 1.09375E+00 0.00000E+00
 -1      1613 1.30374E+02 2.18750E+00 0.00000E+00
 -1      1614 1.35012E+02 1.09375E+00 0.00000E+00
 -1      1615 1.33512E+02 1.09375E+00 0.00000E+00
 -1      1616 1.33374E+02 2.18750E+00 0.00000E+00
 -1      1617 1.38012E+02 1.09375E+00 0.00000E+00
 -1      1618 1.36512E+02 1.09375E+00 0.00000E+00
 -1      1619 1.36374E+02 2.18750E+00 0.00000E+00
 -1      1620 1.41012E+02 1.09375E+00 0.00000E+00
 -1      1621 1.39512E+02 1.09375E+00 0.00000E+00
 -1      1622 1.39374E+02 2.18750E+00 0.00000E+00
 -1      1623 1.44012E+02 1.09375E+00 0.00000E+00
 -1      1624 1.42512E+02 1.09375E+00 0.00000E+00
 -1      1625 1.42374E+02 2.18750E+00 0.00000E+00
 -1      1626 1.47012E+02 1.09375E+00 0.00000E+00
 -1      1627 1.45512E+02 1.09375E+00 0.00000E+00
 -1      1628 1.45374E+02 2.18750E+00 0.00000E+00
 -1      1629 1.48575E+02 1.47500E+00 0.00000E+00
 -1      1630 1.48701E+02 5.16250E+00 0.00000E+00
 -1      1631 1.48701E+02 3.68750E+00 0.00000E+00
 -1      1632 1.48701E+02 8.11250E+00 0.00000E+00
 -1      1633 1.48701E+02 6.63750E+00 0.00000E+00
 -1      1634 1.47402E+02 5.90000E+00 0.00000E+00
 -1      1635 1.48701E+02 1.10625E+01 0.00000E+00
 -1      1636 1.48701E+02 9.58750E+00 0.00000E+00
 -1      1637 1.47402E+02 8.85000E+00 0.00000E+00
 -1      1638 1.48701E+02 1.40125E+01 0.00000E+00
 -1      1639 1.48701E+02 1.25375E+01 0.00000E+00
 -1      1640 1.47402E+02 1.18000E+01 0.00000E+00
 -1      1641 1.48701E+02 1.69125E+01 0.00000E+00
 -1      1642 1.48701E+02 1.54625E+01 0.00000E+00
 -1      1643 1.47402E+02 1.47250E+01 0.00000E+00
 -1      1644 1.48701E+02 1.98625E+01 0.00000E+00
 -1      1645 1.48701E+02 1.83875E+01 0.00000E+00
 -1      1646 1.47402E+02 1.76500E+01 0.00000E+00
 -1      1647 1.48701E+02 2.28125E+01 0.00000E+00
 -1      1648 1.48701E+02 2.13375E+01 0.00000E+00
 -1      1649 1.47402E+02 2.06000E+01 0.00000E+00
 -1      1650 1.48701E+02 2.57625E+01 0.00000E+00
 -1      1651 1.48701E+02 2.42875E+01 0.00000E+00
 -1      1652 1.47402E+02 2.35500E+01 0.00000E+00
 -1      1653 1.48701E+02 2.87125E+01 0.00000E+00
 -1      1654 1.48701E+02 2.72375E+01 0.00000E+00
 -1      1655 1.47402E+02 2.65000E+01 0.00000E+00
 -1      1656 1.48701E+02 3.16625E+01 0.00000E+00
 -1      1657 1.48701E+02 3.01875E+01 0.00000E+00
 -1      1658 1.47402E+02 2.94500E+01 0.00000E+00
 -1      1659 1.48701E+02 3.45625E+01 0.00000E+00
 -1      1660 1.48701E+02 3.31125E+01 0.00000E+00
 -1      1661 1.47402E+02 3.23750E+01 0.00000E+00
 -1      1662 1.48701E+02 3.75125E+01 0.00000E+00
 -1      1663 1.48701E+02 3.60375E+01 0.00000E+00
 -1      1664 1.47402E+02 3.53000E+01 0.00000E+00
 -1      1665 1.48701E+02 4.04625E+01 0.00000E+00
 -1      1666 1.48701E+02 3.89875E+01 0.00000E+00
 -1      1667 1.47402E+02 3.82500E+01 0.00000E+00
 -1      1668 1.48701E+02 4.34125E+01 0.00000E+00
 -1      1669 1.48701E+02 4.19375E+01 0.00000E+00
 -1      1670 1.47402E+02 4.12000E+01 0.00000E+00
 -1      1671 1.48263E+02 4.60692E+01 0.00000E+00
 -1      1672 1.48263E+02 4.45942E+01 0.00000E+00
 -1      1673 1.46964E+02 4.38568E+01 0.00000E+00
 -1      1674 1.46088E+02 4.62202E+01 0.00000E+00
 -1      1675 6.22047E+01 2.57750E+01 0.00000E+00
 -1      1676 6.22741E+01 2.64686E+01 0.00000E+00
 -1      1677 6.19227E+01 2.40874E+01 0.00000E+00
 -1      1678 6.21757E+01 2.48612E+01 0.00000E+00
 -1      1679 6.10278E+01 2.26289E+01 0.00000E+00
 -1      1680 6.14200E+01 2.32810E+01 0.00000E+00
 -1      1681 5.99695E+01 2.14258E+01 0.00000E+00
 -1      1682 6.04684E+01 2.19563E+01 0.00000E+00
 -1      1683 5.87195E+01 2.02600E+01 0.00000E+00
 -1      1684 5.93822E+01 2.07106E+01 0.00000E+00
 -1      1685 5.71587E+01 1.97070E+01 0.00000E+00
 -1      1686 5.78374E+01 1.99765E+01 0.00000E+00
 -1      1687 5.56221E+01 1.93544E+01 0.00000E+00
 -1      1688 5.63392E+01 1.94769E+01 0.00000E+00
 -1      1689 5.39628E+01 1.91712E+01 0.00000E+00
 -1      1690 5.47382E+01 1.91355E+01 0.00000E+00
 -1      1691 5.23797E+01 1.96211E+01 0.00000E+00
 -1      1692 5.30883E+01 1.94310E+01 0.00000E+00
 -1      1693 5.09929E+01 2.02675E+01 0.00000E+00
 -1      1694 5.16115E+01 1.99563E+01 0.00000E+00
 -1      1695 4.96308E+01 2.11410E+01 0.00000E+00
 -1      1696 5.02271E+01 2.06642E+01 0.00000E+00
 -1      1697 4.86177E+01 2.23629E+01 0.00000E+00
 -1      1698 4.90686E+01 2.18109E+01 0.00000E+00
 -1      1699 4.78166E+01 2.37224E+01 0.00000E+00
 -1      1700 4.81544E+01 2.30700E+01 0.00000E+00
 -1      1701 4.72618E+01 2.52668E+01 0.00000E+00
 -1      1702 4.74607E+01 2.45282E+01 0.00000E+00
 -1      1703 4.71284E+01 2.68594E+01 0.00000E+00
 -1      1704 4.71645E+01 2.61360E+01 0.00000E+00
 -1      1705 4.71538E+01 2.85641E+01 0.00000E+00
 -1      1706 4.70199E+01 2.77753E+01 0.00000E+00
 -1      1707 4.78404E+01 3.00803E+01 0.00000E+00
 -1      1708 4.75618E+01 2.93990E+01 0.00000E+00
 -1      1709 4.86684E+01 3.14524E+01 0.00000E+00
 -1      1710 4.82497E+01 3.08399E+01 0.00000E+00
 -1      1711 4.97703E+01 3.27802E+01 0.00000E+00
 -1      1712 4.91767E+01 3.22284E+01 0.00000E+00
 -1      1713 5.12150E+01 3.36458E+01 0.00000E+00
 -1      1714 5.05652E+01 3.32691E+01 0.00000E+00
 -1      1715 5.27125E+01 3.41861E+01 0.00000E+00
 -1      1716 5.20226E+01 3.39620E+01 0.00000E+00
 -1      1717 5.42719E+01 3.44817E+01 0.00000E+00
 -1      1718 5.35417E+01 3.44046E+01 0.00000E+00
 -1      1719 5.58267E+01 3.44133E+01 0.00000E+00
 -1      1720 5.51226E+01 3.44848E+01 0.00000E+00
 -1      1721 5.72531E+01 3.40164E+01 0.00000E+00
 -1      1722 5.66121E+01 3.42136E+01 0.00000E+00
 -1      1723 5.85738E+01 3.33958E+01 0.00000E+00
 -1      1724 5.79787E+01 3.37139E+01 0.00000E+00
 -1      1725 5.97616E+01 3.25240E+01 0.00000E+00
 -1      1726 5.92333E+01 3.29557E+01 0.00000E+00
 -1      1727 6.07476E+01 3.14559E+01 0.00000E+00
 -1      1728 6.03216E+01 3.19692E+01 0.00000E+00
 -1      1729 6.15077E+01 3.02242E+01 0.00000E+00
 -1      1730 6.11863E+01 3.08104E+01 0.00000E+00
 -1      1731 6.20668E+01 2.88528E+01 0.00000E+00
 -1      1732 6.18587E+01 2.95081E+01 0.00000E+00
 -1      1733 6.23537E+01 2.73111E+01 0.00000E+00
 -1      1734 6.22775E+01 2.80376E+01 0.00000E+00
 -1      1735 6.00732E+01 2.05606E+01 0.00000E+00
 -1      1736 6.12199E+01 2.19483E+01 0.00000E+00
 -1      1737 1.48437E+02 2.56875E+00 0.00000E+00
 -1      1738 1.47138E+02 3.30625E+00 0.00000E+00
 -1      1739 6.28136E+01 2.51476E+01 0.00000E+00
 -1      1740 6.22820E+01 2.34273E+01 0.00000E+00
 -1      1741 6.29222E+01 2.69039E+01 0.00000E+00
 -1      1742 5.86038E+01 1.95619E+01 0.00000E+00
 -1      1743 5.69023E+01 1.90482E+01 0.00000E+00
 -1      1744 5.51989E+01 1.85992E+01 0.00000E+00
 -1      1745 5.34405E+01 1.86402E+01 0.00000E+00
 -1      1746 5.17979E+01 1.92353E+01 0.00000E+00
 -1      1747 5.02639E+01 1.99671E+01 0.00000E+00
 -1      1748 4.89358E+01 2.10336E+01 0.00000E+00
 -1      1749 4.79104E+01 2.24104E+01 0.00000E+00
 -1      1750 4.70913E+01 2.39232E+01 0.00000E+00
 -1      1751 4.66382E+01 2.55982E+01 0.00000E+00
 -1      1752 4.64325E+01 2.73833E+01 0.00000E+00
 -1      1753 4.67320E+01 2.91342E+01 0.00000E+00
 -1      1754 4.75493E+01 3.07287E+01 0.00000E+00
 -1      1755 4.84669E+01 3.22643E+01 0.00000E+00
 -1      1756 4.97702E+01 3.35293E+01 0.00000E+00
 -1      1757 5.13727E+01 3.43344E+01 0.00000E+00
 -1      1758 5.30095E+01 3.48692E+01 0.00000E+00
 -1      1759 5.46895E+01 3.50908E+01 0.00000E+00
 -1      1760 5.63255E+01 3.48941E+01 0.00000E+00
 -1      1761 5.78364E+01 3.43919E+01 0.00000E+00
 -1      1762 5.92215E+01 3.36493E+01 0.00000E+00
 -1      1763 6.04410E+01 3.26544E+01 0.00000E+00
 -1      1764 6.14398E+01 3.14542E+01 0.00000E+00
 -1      1765 6.22295E+01 3.00927E+01 0.00000E+00
 -1      1766 6.27911E+01 2.85615E+01 0.00000E+00
 -1      1767 2.87400E+00 4.77875E+01 0.00000E+00
 -1      1768 3.89700E+00 4.04125E+01 0.00000E+00
 -1      1769 3.89700E+00 4.18875E+01 0.00000E+00
 -1      1770 3.89700E+00 4.33625E+01 0.00000E+00
 -1      1771 3.89700E+00 4.48375E+01 0.00000E+00
 -1      1772 5.19600E+00 4.26250E+01 0.00000E+00
 -1      1773 3.89700E+00 3.45500E+01 0.00000E+00
 -1      1774 3.89700E+00 3.60000E+01 0.00000E+00
 -1      1775 3.89700E+00 3.16000E+01 0.00000E+00
 -1      1776 3.89700E+00 3.30750E+01 0.00000E+00
 -1      1777 5.19600E+00 3.38000E+01 0.00000E+00
 -1      1778 3.89700E+00 2.86500E+01 0.00000E+00
 -1      1779 3.89700E+00 3.01250E+01 0.00000E+00
 -1      1780 5.19600E+00 3.08500E+01 0.00000E+00
 -1      1781 3.89700E+00 2.57000E+01 0.00000E+00
 -1      1782 3.89700E+00 2.71750E+01 0.00000E+00
 -1      1783 5.19600E+00 2.79000E+01 0.00000E+00
 -1      1784 3.89700E+00 2.27500E+01 0.00000E+00
 -1      1785 3.89700E+00 2.42250E+01 0.00000E+00
 -1      1786 5.19600E+00 2.49500E+01 0.00000E+00
 -1      1787 3.89700E+00 1.98000E+01 0.00000E+00
 -1      1788 3.89700E+00 2.12750E+01 0.00000E+00
 -1      1789 5.19600E+00 2.20000E+01 0.00000E+00
 -1      1790 3.89700E+00 1.69000E+01 0.00000E+00
 -1      1791 3.89700E+00 1.83500E+01 0.00000E+00
 -1      1792 5.19600E+00 1.90750E+01 0.00000E+00
 -1      1793 3.89700E+00 1.39500E+01 0.00000E+00
 -1      1794 3.89700E+00 1.54250E+01 0.00000E+00
 -1      1795 5.19600E+00 1.61500E+01 0.00000E+00
 -1      1796 3.89700E+00 1.10000E+01 0.00000E+00
 -1      1797 3.89700E+00 1.24750E+01 0.00000E+00
 -1      1798 5.19600E+00 1.32000E+01 0.00000E+00
 -1      1799 3.89700E+00 8.05000E+00 0.00000E+00
 -1      1800 3.89700E+00 9.52500E+00 0.00000E+00
 -1      1801 5.19600E+00 1.02500E+01 0.00000E+00
 -1      1802 3.89700E+00 5.10000E+00 0.00000E+00
 -1      1803 3.89700E+00 6.57500E+00 0.00000E+00
 -1      1804 5.19600E+00 7.30000E+00 0.00000E+00
 -1      1805 4.20450E+00 3.09687E+00 0.00000E+00
 -1      1806 4.06650E+00 4.19063E+00 0.00000E+00
 -1      1807 5.36550E+00 4.91563E+00 0.00000E+00
 -1      1808 5.70450E+00 3.09687E+00 0.00000E+00
 -1      1809 3.62400E+00 4.64885E+01 0.00000E+00
 -1      1810 8.70450E+00 3.09687E+00 0.00000E+00
 -1      1811 7.20450E+00 3.09687E+00 0.00000E+00
 -1      1812 7.03500E+00 4.00625E+00 0.00000E+00
 -1      1813 4.92300E+00 4.57510E+01 0.00000E+00
 -1      1814 8.40000E+00 4.61030E+01 0.00000E+00
 -1      1815 9.90000E+00 4.61030E+01 0.00000E+00
 -1      1816 1.14000E+01 4.61030E+01 0.00000E+00
 -1      1817 1.29000E+01 4.61030E+01 0.00000E+00
 -1      1818 1.06500E+01 4.48040E+01 0.00000E+00
 -1      1819 1.44000E+01 4.61030E+01 0.00000E+00
 -1      1820 1.59000E+01 4.61030E+01 0.00000E+00
 -1      1821 1.36500E+01 4.48040E+01 0.00000E+00
 -1      1822 1.74000E+01 4.61030E+01 0.00000E+00
 -1      1823 1.89000E+01 4.61030E+01 0.00000E+00
 -1      1824 1.66500E+01 4.48040E+01 0.00000E+00
 -1      1825 2.04000E+01 4.61030E+01 0.00000E+00
 -1      1826 2.19000E+01 4.61030E+01 0.00000E+00
 -1      1827 1.96500E+01 4.48040E+01 0.00000E+00
 -1      1828 2.34000E+01 4.61030E+01 0.00000E+00
 -1      1829 2.49000E+01 4.61030E+01 0.00000E+00
 -1      1830 2.26500E+01 4.48040E+01 0.00000E+00
 -1      1831 2.64000E+01 4.61030E+01 0.00000E+00
 -1      1832 2.79000E+01 4.61030E+01 0.00000E+00
 -1      1833 2.56500E+01 4.48040E+01 0.00000E+00
 -1      1834 2.94000E+01 4.61030E+01 0.00000E+00
 -1      1835 3.09000E+01 4.61030E+01 0.00000E+00
 -1      1836 2.86500E+01 4.48040E+01 0.00000E+00
 -1      1837 3.24000E+01 4.61030E+01 0.00000E+00
 -1      1838 3.39000E+01 4.61030E+01 0.00000E+00
 -1      1839 3.16500E+01 4.48040E+01 0.00000E+00
 -1      1840 3.54000E+01 4.61030E+01 0.00000E+00
 -1      1841 3.69000E+01 4.61030E+01 0.00000E+00
 -1      1842 3.46500E+01 4.48040E+01 0.00000E+00
 -1      1843 3.84000E+01 4.61030E+01 0.00000E+00
 -1      1844 3.99000E+01 4.61030E+01 0.00000E+00
 -1      1845 3.76500E+01 4.48040E+01 0.00000E+00
 -1      1846 4.14000E+01 4.61030E+01 0.00000E+00
 -1      1847 4.29000E+01 4.61030E+01 0.00000E+00
 -1      1848 4.06500E+01 4.48040E+01 0.00000E+00
 -1      1849 4.44000E+01 4.61030E+01 0.00000E+00
 -1      1850 4.59000E+01 4.61030E+01 0.00000E+00
 -1      1851 4.36500E+01 4.48040E+01 0.00000E+00
 -1      1852 4.74000E+01 4.61030E+01 0.00000E+00
 -1      1853 4.89000E+01 4.61030E+01 0.00000E+00
 -1      1854 4.66500E+01 4.48040E+01 0.00000E+00
 -1      1855 5.04000E+01 4.61030E+01 0.00000E+00
 -1      1856 5.19000E+01 4.61030E+01 0.00000E+00
 -1      1857 4.96500E+01 4.48040E+01 0.00000E+00
 -1      1858 5.34000E+01 4.61030E+01 0.00000E+00
 -1      1859 5.49000E+01 4.61030E+01 0.00000E+00
 -1      1860 5.26500E+01 4.48040E+01 0.00000E+00
 -1      1861 5.64000E+01 4.61030E+01 0.00000E+00
 -1      1862 5.79000E+01 4.61030E+01 0.00000E+00
 -1      1863 5.56500E+01 4.48040E+01 0.00000E+00
 -1      1864 5.94000E+01 4.61030E+01 0.00000E+00
 -1      1865 6.09000E+01 4.61030E+01 0.00000E+00
 -1      1866 5.86500E+01 4.48040E+01 0.00000E+00
 -1      1867 6.24000E+01 4.61030E+01 0.00000E+00
 -1      1868 6.39000E+01 4.61030E+01 0.00000E+00
 -1      1869 6.16500E+01 4.48040E+01 0.00000E+00
 -1      1870 6.54000E+01 4.61030E+01 0.00000E+00
 -1      1871 6.69000E+01 4.61030E+01 0.00000E+00
 -1      1872 6.46500E+01 4.48040E+01 0.00000E+00
 -1      1873 6.84000E+01 4.61030E+01 0.00000E+00
 -1      1874 6.99000E+01 4.61030E+01 0.00000E+00
 -1      1875 6.76500E+01 4.48040E+01 0.00000E+00
 -1      1876 7.14000E+01 4.61030E+01 0.00000E+00
 -1      1877 7.29000E+01 4.61030E+01 0.00000E+00
 -1      1878 7.06500E+01 4.48040E+01 0.00000E+00
 -1      1879 7.44000E+01 4.61030E+01 0.00000E+00
 -1      1880 7.59000E+01 4.61030E+01 0.00000E+00
 -1      1881 7.36500E+01 4.48040E+01 0.00000E+00
 -1      1882 7.74000E+01 4.61030E+01 0.00000E+00
 -1      1883 7.89000E+01 4.61030E+01 0.00000E+00
 -1      1884 7.66500E+01 4.48040E+01 0.00000E+00
 -1      1885 8.04000E+01 4.61030E+01 0.00000E+00
 -1      1886 8.19000E+01 4.61030E+01 0.00000E+00
 -1      1887 7.96500E+01 4.48040E+01 0.00000E+00
 -1      1888 8.34000E+01 4.61030E+01 0.00000E+00
 -1      1889 8.49000E+01 4.61030E+01 0.00000E+00
 -1      1890 8.26500E+01 4.48040E+01 0.00000E+00
 -1      1891 8.64000E+01 4.61030E+01 0.00000E+00
 -1      1892 8.79000E+01 4.61030E+01 0.00000E+00
 -1      1893 8.56500E+01 4.48040E+01 0.00000E+00
 -1      1894 8.94000E+01 4.61030E+01 0.00000E+00
 -1      1895 9.09000E+01 4.61030E+01 0.00000E+00
 -1      1896 8.86500E+01 4.48040E+01 0.00000E+00
 -1      1897 9.24000E+01 4.61030E+01 0.00000E+00
 -1      1898 9.39000E+01 4.61030E+01 0.00000E+00
 -1      1899 9.16500E+01 4.48040E+01 0.00000E+00
 -1      1900 9.54000E+01 4.61030E+01 0.00000E+00
 -1      1901 9.69000E+01 4.61030E+01 0.00000E+00
 -1      1902 9.46500E+01 4.48040E+01 0.00000E+00
 -1      1903 9.84000E+01 4.61030E+01 0.00000E+00
 -1      1904 9.99000E+01 4.61030E+01 0.00000E+00
 -1      1905 9.76500E+01 4.48040E+01 0.00000E+00
 -1      1906 1.01400E+02 4.61030E+01 0.00000E+00
 -1      1907 1.02900E+02 4.61030E+01 0.00000E+00
 -1      1908 1.00650E+02 4.48040E+01 0.00000E+00
 -1      1909 1.04400E+02 4.61030E+01 0.00000E+00
 -1      1910 1.05900E+02 4.61030E+01 0.00000E+00
 -1      1911 1.03650E+02 4.48040E+01 0.00000E+00
 -1      1912 1.07400E+02 4.61030E+01 0.00000E+00
 -1      1913 1.08900E+02 4.61030E+01 0.00000E+00
 -1      1914 1.06650E+02 4.48040E+01 0.00000E+00
 -1      1915 1.10400E+02 4.61030E+01 0.00000E+00
 -1      1916 1.11900E+02 4.61030E+01 0.00000E+00
 -1      1917 1.09650E+02 4.48040E+01 0.00000E+00
 -1      1918 1.13400E+02 4.61030E+01 0.00000E+00
 -1      1919 1.14900E+02 4.61030E+01 0.00000E+00
 -1      1920 1.12650E+02 4.48040E+01 0.00000E+00
 -1      1921 1.16400E+02 4.61030E+01 0.00000E+00
 -1      1922 1.17900E+02 4.61030E+01 0.00000E+00
 -1      1923 1.15650E+02 4.48040E+01 0.00000E+00
 -1      1924 1.19400E+02 4.61030E+01 0.00000E+00
 -1      1925 1.20900E+02 4.61030E+01 0.00000E+00
 -1      1926 1.18650E+02 4.48040E+01 0.00000E+00
 -1      1927 1.22400E+02 4.61030E+01 0.00000E+00
 -1      1928 1.23900E+02 4.61030E+01 0.00000E+00
 -1      1929 1.21650E+02 4.48040E+01 0.00000E+00
 -1      1930 1.25400E+02 4.61030E+01 0.00000E+00
 -1      1931 1.26900E+02 4.61030E+01 0.00000E+00
 -1      1932 1.24650E+02 4.48040E+01 0.00000E+00
 -1      1933 1.28400E+02 4.61030E+01 0.00000E+00
 -1      1934 1.29900E+02 4.61030E+01 0.00000E+00
 -1      1935 1.27650E+02 4.48040E+01 0.00000E+00
 -1      1936 1.31400E+02 4.61030E+01 0.00000E+00
 -1      1937 1.32900E+02 4.61030E+01 0.00000E+00
 -1      1938 1.30650E+02 4.48040E+01 0.00000E+00
 -1      1939 1.34400E+02 4.61030E+01 0.00000E+00
 -1      1940 1.35900E+02 4.61030E+01 0.00000E+00
 -1      1941 1.33650E+02 4.48040E+01 0.00000E+00
 -1      1942 1.37400E+02 4.61030E+01 0.00000E+00
 -1      1943 1.38900E+02 4.61030E+01 0.00000E+00
 -1      1944 1.36650E+02 4.48040E+01 0.00000E+00
 -1      1945 1.40400E+02 4.61030E+01 0.00000E+00
 -1      1946 1.41900E+02 4.61030E+01 0.00000E+00
 -1      1947 1.39650E+02 4.48040E+01 0.00000E+00
 -1      1948 1.43244E+02 4.61616E+01 0.00000E+00
 -1      1949 1.44744E+02 4.61616E+01 0.00000E+00
 -1      1950 1.45182E+02 4.49799E+01 0.00000E+00
 -1      1951 1.42494E+02 4.48626E+01 0.00000E+00
 -1      1952 1.17045E+01 3.09687E+00 0.00000E+00
 -1      1953 1.02045E+01 3.09687E+00 0.00000E+00
 -1      1954 1.00350E+01 4.00625E+00 0.00000E+00
 -1      1955 1.47045E+01 3.09687E+00 0.00000E+00
 -1      1956 1.32045E+01 3.09687E+00 0.00000E+00
 -1      1957 1.30350E+01 4.00625E+00 0.00000E+00
 -1      1958 1.77045E+01 3.09687E+00 0.00000E+00
 -1      1959 1.62045E+01 3.09687E+00 0.00000E+00
 -1      1960 1.60350E+01 4.00625E+00 0.00000E+00
 -1      1961 2.07045E+01 3.09687E+00 0.00000E+00
 -1      1962 1.92045E+01 3.09687E+00 0.00000E+00
 -1      1963 1.90350E+01 4.00625E+00 0.00000E+00
 -1      1964 2.37045E+01 3.09687E+00 0.00000E+00
 -1      1965 2.22045E+01 3.09687E+00 0.00000E+00
 -1      1966 2.20350E+01 4.00625E+00 0.00000E+00
 -1      1967 2.67045E+01 3.09687E+00 0.00000E+00
 -1      1968 2.52045E+01 3.09687E+00 0.00000E+00
 -1      1969 2.50350E+01 4.00625E+00 0.00000E+00
 -1      1970 2.97045E+01 3.09687E+00 0.00000E+00
 -1      1971 2.82045E+01 3.09687E+00 0.00000E+00
 -1      1972 2.80350E+01 4.00625E+00 0.00000E+00
 -1      1973 3.27045E+01 3.09687E+00 0.00000E+00
 -1      1974 3.12045E+01 3.09687E+00 0.00000E+00
 -1      1975 3.10350E+01 4.00625E+00 0.00000E+00
 -1      1976 3.57045E+01 3.09687E+00 0.00000E+00
 -1      1977 3.42045E+01 3.09687E+00 0.00000E+00
 -1      1978 3.40350E+01 4.00625E+00 0.00000E+00
 -1      1979 3.87045E+01 3.09687E+00 0.00000E+00
 -1      1980 3.72045E+01 3.09687E+00 0.00000E+00
 -1      1981 3.70350E+01 4.00625E+00 0.00000E+00
 -1      1982 4.17045E+01 3.09687E+00 0.00000E+00
 -1      1983 4.02045E+01 3.09687E+00 0.00000E+00
 -1      1984 4.00350E+01 4.00625E+00 0.00000E+00
 -1      1985 4.47045E+01 3.09687E+00 0.00000E+00
 -1      1986 4.32045E+01 3.09687E+00 0.00000E+00
 -1      1987 4.30350E+01 4.00625E+00 0.00000E+00
 -1      1988 4.77045E+01 3.09687E+00 0.00000E+00
 -1      1989 4.62045E+01 3.09687E+00 0.00000E+00
 -1      1990 4.60350E+01 4.00625E+00 0.00000E+00
 -1      1991 5.07045E+01 3.09687E+00 0.00000E+00
 -1      1992 4.92045E+01 3.09687E+00 0.00000E+00
 -1      1993 4.90350E+01 4.00625E+00 0.00000E+00
 -1      1994 5.37045E+01 3.09687E+00 0.00000E+00
 -1      1995 5.22045E+01 3.09687E+00 0.00000E+00
 -1      1996 5.20350E+01 4.00625E+00 0.00000E+00
 -1      1997 5.67045E+01 3.09687E+00 0.00000E+00
 -1      1998 5.52045E+01 3.09687E+00 0.00000E+00
 -1      1999 5.50350E+01 4.00625E+00 0.00000E+00
 -1      2000 5.97045E+01 3.09687E+00 0.00000E+00
 -1      2001 5.82045E+01 3.09687E+00 0.00000E+00
 -1      2002 5.80350E+01 4.00625E+00 0.00000E+00
 -1      2003 6.27045E+01 3.09687E+00 0.00000E+00
 -1      2004 6.12045E+01 3.09687E+00 0.00000E+00
 -1      2005 6.10350E+01 4.00625E+00 0.00000E+00
 -1      2006 6.57045E+01 3.09687E+00 0.00000E+00
 -1      2007 6.42045E+01 3.09687E+00 0.00000E+00
 -1      2008 6.40350E+01 4.00625E+00 0.00000E+00
 -1      2009 6.87045E+01 3.09687E+00 0.00000E+00
 -1      2010 6.72045E+01 3.09687E+00 0.00000E+00
 -1      2011 6.70350E+01 4.00625E+00 0.00000E+00
 -1      2012 7.17045E+01 3.09687E+00 0.00000E+00
 -1      2013 7.02045E+01 3.09687E+00 0.00000E+00
 -1      2014 7.00350E+01 4.00625E+00 0.00000E+00
 -1      2015 7.47045E+01 3.09687E+00 0.00000E+00
 -1      2016 7.32045E+01 3.09687E+00 0.00000E+00
 -1      2017 7.30350E+01 4.00625E+00 0.00000E+00
 -1      2018 7.77045E+01 3.09687E+00 0.00000E+00
 -1      2019 7.62045E+01 3.09687E+00 0.00000E+00
 -1      2020 7.60350E+01 4.00625E+00 0.00000E+00
 -1      2021 8.07045E+01 3.09687E+00 0.00000E+00
 -1      2022 7.92045E+01 3.09687E+00 0.00000E+00
 -1      2023 7.90350E+01 4.00625E+00 0.00000E+00
 -1      2024 8.37045E+01 3.09687E+00 0.00000E+00
 -1      2025 8.22045E+01 3.09687E+00 0.00000E+00
 -1      2026 8.20350E+01 4.00625E+00 0.00000E+00
 -1      2027 8.67045E+01 3.09687E+00 0.00000E+00
 -1      2028 8.52045E+01 3.09687E+00 0.00000E+00
 -1      2029 8.50350E+01 4.00625E+00 0.00000E+00
 -1      2030 8.97045E+01 3.09687E+00 0.00000E+00
 -1      2031 8.82045E+01 3.09687E+00 0.00000E+00
 -1      2032 8.80350E+01 4.00625E+00 0.00000E+00
 -1      2033 9.27045E+01 3.09687E+00 0.00000E+00
 -1      2034 9.12045E+01 3.09687E+00 0.00000E+00
 -1      2035 9.10350E+01 4.00625E+00 0.00000E+00
 -1      2036 9.57045E+01 3.09687E+00 0.00000E+00
 -1      2037 9.42045E+01 3.09687E+00 0.00000E+00
 -1      2038 9.40350E+01 4.00625E+00 0.00000E+00
 -1      2039 9.87045E+01 3.09687E+00 0.00000E+00
 -1      2040 9.72045E+01 3.09687E+00 0.00000E+00
 -1      2041 9.70350E+01 4.00625E+00 0.00000E+00
 -1      2042 1.01704E+02 3.09687E+00 0.00000E+00
 -1      2043 1.00204E+02 3.09687E+00 0.00000E+00
 -1      2044 1.00035E+02 4.00625E+00 0.00000E+00
 -1      2045 1.04704E+02 3.09687E+00 0.00000E+00
 -1      2046 1.03204E+02 3.09687E+00 0.00000E+00
 -1      2047 1.03035E+02 4.00625E+00 0.00000E+00
 -1      2048 1.07704E+02 3.09687E+00 0.00000E+00
 -1      2049 1.06204E+02 3.09687E+00 0.00000E+00
 -1      2050 1.06035E+02 4.00625E+00 0.00000E+00
 -1      2051 1.10704E+02 3.09687E+00 0.00000E+00
 -1      2052 1.09204E+02 3.09687E+00 0.00000E+00
 -1      2053 1.09035E+02 4.00625E+00 0.00000E+00
 -1      2054 1.13704E+02 3.09687E+00 0.00000E+00
 -1      2055 1.12204E+02 3.09687E+00 0.00000E+00
 -1      2056 1.12035E+02 4.00625E+00 0.00000E+00
 -1      2057 1.16704E+02 3.09687E+00 0.00000E+00
 -1      2058 1.15204E+02 3.09687E+00 0.00000E+00
 -1      2059 1.15035E+02 4.00625E+00 0.00000E+00
 -1      2060 1.19704E+02 3.09687E+00 0.00000E+00
 -1      2061 1.18204E+02 3.09687E+00 0.00000E+00
 -1      2062 1.18035E+02 4.00625E+00 0.00000E+00
 -1      2063 1.22704E+02 3.09687E+00 0.00000E+00
 -1      2064 1.21204E+02 3.09687E+00 0.00000E+00
 -1      2065 1.21035E+02 4.00625E+00 0.00000E+00
 -1      2066 1.25704E+02 3.09687E+00 0.00000E+00
 -1      2067 1.24204E+02 3.09687E+00 0.00000E+00
 -1      2068 1.24035E+02 4.00625E+00 0.00000E+00
 -1      2069 1.28704E+02 3.09687E+00 0.00000E+00
 -1      2070 1.27204E+02 3.09687E+00 0.00000E+00
 -1      2071 1.27035E+02 4.00625E+00 0.00000E+00
 -1      2072 1.31704E+02 3.09687E+00 0.00000E+00
 -1      2073 1.30204E+02 3.09687E+00 0.00000E+00
 -1      2074 1.30035E+02 4.00625E+00 0.00000E+00
 -1      2075 1.34704E+02 3.09687E+00 0.00000E+00
 -1      2076 1.33204E+02 3.09687E+00 0.00000E+00
 -1      2077 1.33035E+02 4.00625E+00 0.00000E+00
 -1      2078 1.37704E+02 3.09687E+00 0.00000E+00
 -1      2079 1.36204E+02 3.09687E+00 0.00000E+00
 -1      2080 1.36035E+02 4.00625E+00 0.00000E+00
 -1      2081 1.40704E+02 3.09687E+00 0.00000E+00
 -1      2082 1.39204E+02 3.09687E+00 0.00000E+00
 -1      2083 1.39035E+02 4.00625E+00 0.00000E+00
 -1      2084 1.43704E+02 3.09687E+00 0.00000E+00
 -1      2085 1.42204E+02 3.09687E+00 0.00000E+00
 -1      2086 1.42035E+02 4.00625E+00 0.00000E+00
 -1      2087 1.46171E+02 3.20156E+00 0.00000E+00
 -1      2088 1.44671E+02 3.20156E+00 0.00000E+00
 -1      2089 1.44502E+02 4.11094E+00 0.00000E+00
 -1      2090 1.46435E+02 4.32031E+00 0.00000E+00
 -1      2091 1.46103E+02 1.25375E+01 0.00000E+00
 -1      2092 1.46103E+02 1.10625E+01 0.00000E+00
 -1      2093 1.46103E+02 9.58750E+00 0.00000E+00
 -1      2094 1.46103E+02 8.11250E+00 0.00000E+00
 -1      2095 1.44804E+02 1.03250E+01 0.00000E+00
 -1      2096 1.46269E+02 6.95391E+00 0.00000E+00
 -1      2097 1.46269E+02 5.47891E+00 0.00000E+00
 -1      2098 1.45302E+02 5.37422E+00 0.00000E+00
 -1      2099 1.44970E+02 7.69141E+00 0.00000E+00
 -1      2100 1.46103E+02 1.54375E+01 0.00000E+00
 -1      2101 1.46103E+02 1.39875E+01 0.00000E+00
 -1      2102 1.44804E+02 1.32500E+01 0.00000E+00
 -1      2103 1.46103E+02 1.83875E+01 0.00000E+00
 -1      2104 1.46103E+02 1.69125E+01 0.00000E+00
 -1      2105 1.44804E+02 1.61750E+01 0.00000E+00
 -1      2106 1.46103E+02 2.13375E+01 0.00000E+00
 -1      2107 1.46103E+02 1.98625E+01 0.00000E+00
 -1      2108 1.44804E+02 1.91250E+01 0.00000E+00
 -1      2109 1.46103E+02 2.42875E+01 0.00000E+00
 -1      2110 1.46103E+02 2.28125E+01 0.00000E+00
 -1      2111 1.44804E+02 2.20750E+01 0.00000E+00
 -1      2112 1.46103E+02 2.72375E+01 0.00000E+00
 -1      2113 1.46103E+02 2.57625E+01 0.00000E+00
 -1      2114 1.44804E+02 2.50250E+01 0.00000E+00
 -1      2115 1.46103E+02 3.01875E+01 0.00000E+00
 -1      2116 1.46103E+02 2.87125E+01 0.00000E+00
 -1      2117 1.44804E+02 2.79750E+01 0.00000E+00
 -1      2118 1.46103E+02 3.30875E+01 0.00000E+00
 -1      2119 1.46103E+02 3.16375E+01 0.00000E+00
 -1      2120 1.44804E+02 3.09000E+01 0.00000E+00
 -1      2121 1.46103E+02 3.60375E+01 0.00000E+00
 -1      2122 1.46103E+02 3.45625E+01 0.00000E+00
 -1      2123 1.44804E+02 3.38250E+01 0.00000E+00
 -1      2124 1.46103E+02 3.89875E+01 0.00000E+00
 -1      2125 1.46103E+02 3.75125E+01 0.00000E+00
 -1      2126 1.44804E+02 3.67750E+01 0.00000E+00
 -1      2127 1.46103E+02 4.19375E+01 0.00000E+00
 -1      2128 1.46103E+02 4.04625E+01 0.00000E+00
 -1      2129 1.44804E+02 3.97250E+01 0.00000E+00
 -1      2130 6.26873E+01 2.26148E+01 0.00000E+00
 -1      2131 6.31900E+01 2.34213E+01 0.00000E+00
 -1      2132 6.35276E+01 2.64217E+01 0.00000E+00
 -1      2133 6.36072E+01 2.72641E+01 0.00000E+00
 -1      2134 6.34697E+01 2.45941E+01 0.00000E+00
 -1      2135 6.34987E+01 2.55079E+01 0.00000E+00
 -1      2136 6.41837E+01 2.58681E+01 0.00000E+00
 -1      2137 6.15996E+01 2.10637E+01 0.00000E+00
 -1      2138 6.21589E+01 2.17362E+01 0.00000E+00
 -1      2139 6.04249E+01 1.96334E+01 0.00000E+00
 -1      2140 6.10122E+01 2.03485E+01 0.00000E+00
 -1      2141 6.19512E+01 2.01365E+01 0.00000E+00
 -1      2142 3.89700E+00 3.74688E+01 0.00000E+00
 -1      2143 3.89700E+00 3.89437E+01 0.00000E+00
 -1      2144 5.19600E+00 3.96813E+01 0.00000E+00
 -1      2145 5.19600E+00 3.67438E+01 0.00000E+00
 -1      2146 5.67131E+01 1.81479E+01 0.00000E+00
 -1      2147 5.75325E+01 1.83780E+01 0.00000E+00
 -1      2148 5.49452E+01 1.77101E+01 0.00000E+00
 -1      2149 5.58291E+01 1.79290E+01 0.00000E+00
 -1      2150 5.64594E+01 1.72588E+01 0.00000E+00
 -1      2151 5.28187E+01 1.81489E+01 0.00000E+00
 -1      2152 5.36931E+01 1.78891E+01 0.00000E+00
 -1      2153 5.11212E+01 1.87320E+01 0.00000E+00
 -1      2154 5.18893E+01 1.83969E+01 0.00000E+00
 -1      2155 4.95894E+01 1.95254E+01 0.00000E+00
 -1      2156 5.03553E+01 1.91287E+01 0.00000E+00
 -1      2157 5.04467E+01 1.82903E+01 0.00000E+00
 -1      2158 4.81263E+01 2.09249E+01 0.00000E+00
 -1      2159 4.86884E+01 2.02551E+01 0.00000E+00
 -1      2160 4.71367E+01 2.24088E+01 0.00000E+00
 -1      2161 4.76000E+01 2.17017E+01 0.00000E+00
 -1      2162 4.63206E+01 2.40642E+01 0.00000E+00
 -1      2163 4.66764E+01 2.32585E+01 0.00000E+00
 -1      2164 4.59039E+01 2.59561E+01 0.00000E+00
 -1      2165 4.60011E+01 2.50868E+01 0.00000E+00
 -1      2166 4.56869E+01 2.77879E+01 0.00000E+00
 -1      2167 4.57954E+01 2.68720E+01 0.00000E+00
 -1      2168 4.51583E+01 2.63607E+01 0.00000E+00
 -1      2169 4.63537E+01 2.98362E+01 0.00000E+00
 -1      2170 4.59457E+01 2.90012E+01 0.00000E+00
 -1      2171 4.71466E+01 3.14358E+01 0.00000E+00
 -1      2172 4.67373E+01 3.06762E+01 0.00000E+00
 -1      2173 4.80387E+01 3.30993E+01 0.00000E+00
 -1      2174 4.75304E+01 3.23232E+01 0.00000E+00
 -1      2175 4.97623E+01 3.44328E+01 0.00000E+00
 -1      2176 4.89674E+01 3.39439E+01 0.00000E+00
 -1      2177 5.14790E+01 3.52520E+01 0.00000E+00
 -1      2178 5.06715E+01 3.49358E+01 0.00000E+00
 -1      2179 5.31376E+01 3.56891E+01 0.00000E+00
 -1      2180 5.23083E+01 3.54705E+01 0.00000E+00
 -1      2181 5.16071E+01 3.60719E+01 0.00000E+00
 -1      2182 5.51120E+01 3.58660E+01 0.00000E+00
 -1      2183 5.42613E+01 3.58630E+01 0.00000E+00
 -1      2184 5.68882E+01 3.54629E+01 0.00000E+00
 -1      2185 5.61028E+01 3.56627E+01 0.00000E+00
 -1      2186 5.84647E+01 3.48775E+01 0.00000E+00
 -1      2187 5.77391E+01 3.51800E+01 0.00000E+00
 -1      2188 6.00040E+01 3.41077E+01 0.00000E+00
 -1      2189 5.93446E+01 3.45478E+01 0.00000E+00
 -1      2190 6.12067E+01 3.28672E+01 0.00000E+00
 -1      2191 6.06466E+01 3.34220E+01 0.00000E+00
 -1      2192 6.22991E+01 3.15665E+01 0.00000E+00
 -1      2193 6.18604E+01 3.22119E+01 0.00000E+00
 -1      2194 6.30010E+01 3.01343E+01 0.00000E+00
 -1      2195 6.26500E+01 3.08504E+01 0.00000E+00
 -1      2196 6.30706E+01 3.16081E+01 0.00000E+00
 -1      2197 6.36456E+01 2.83476E+01 0.00000E+00
 -1      2198 6.34349E+01 2.91627E+01 0.00000E+00
 -1      2199 5.84146E+01 1.86616E+01 0.00000E+00
 -1      2200 5.92967E+01 1.89451E+01 0.00000E+00
 -1      2201 5.82254E+01 1.77612E+01 0.00000E+00
 -1      2202 6.02357E+01 1.87331E+01 0.00000E+00
 -1      2203 6.42300E+00 4.57510E+01 0.00000E+00
 -1      2204 4.87798E+01 1.94167E+01 0.00000E+00
 -1      2205 7.17300E+00 4.44520E+01 0.00000E+00
 -1      2206 6.38750E+01 2.37815E+01 0.00000E+00
 -1      2207 6.45600E+01 2.41418E+01 0.00000E+00
 -1      2208 6.42803E+01 2.29690E+01 0.00000E+00
 -1      2209 6.30669E+01 2.17302E+01 0.00000E+00
 -1      2210 1.45665E+02 4.31193E+01 0.00000E+00
 -1      2211 6.42510E+01 2.78654E+01 0.00000E+00
 -1      2212 6.38555E+01 2.99204E+01 0.00000E+00
 -1      2213 6.20660E+01 3.29795E+01 0.00000E+00
 -1      2214 6.07696E+01 3.43205E+01 0.00000E+00
 -1      2215 5.92472E+01 3.53359E+01 0.00000E+00
 -1      2216 5.75165E+01 3.59486E+01 0.00000E+00
 -1      2217 5.35601E+01 3.64644E+01 0.00000E+00
 -1      2218 4.98687E+01 3.53504E+01 0.00000E+00
 -1      2219 4.80309E+01 3.40028E+01 0.00000E+00
 -1      2220 4.67184E+01 3.22707E+01 0.00000E+00
 -1      2221 4.53086E+01 2.84899E+01 0.00000E+00
 -1      2222 4.46715E+01 2.79786E+01 0.00000E+00
 -1      2223 4.49303E+01 2.91919E+01 0.00000E+00
 -1      2224 4.55862E+01 2.44221E+01 0.00000E+00
 -1      2225 4.63660E+01 2.25498E+01 0.00000E+00
 -1      2226 5.37015E+01 1.67275E+01 0.00000E+00
 -1      2227 5.43233E+01 1.72188E+01 0.00000E+00
 -1      2228 5.49536E+01 1.65486E+01 0.00000E+00
 -1      2229 5.21419E+01 1.76457E+01 0.00000E+00
 -1      2230 4.73525E+01 2.09233E+01 0.00000E+00
 -1      2231 4.59510E+01 3.05433E+01 0.00000E+00
 -1      2232 5.56747E+01 3.64349E+01 0.00000E+00
 -1      2233 1.07850E+01 5.30525E+00 0.00000E+00
 -1      2234 9.28500E+00 5.30525E+00 0.00000E+00
 -1      2235 6.49500E+00 3.01125E+01 0.00000E+00
 -1      2236 6.49500E+00 3.15875E+01 0.00000E+00
 -1      2237 6.49500E+00 3.30625E+01 0.00000E+00
 -1      2238 6.49500E+00 3.45375E+01 0.00000E+00
 -1      2239 7.79400E+00 3.23250E+01 0.00000E+00
 -1      2240 6.49500E+00 2.42125E+01 0.00000E+00
 -1      2241 6.49500E+00 2.56875E+01 0.00000E+00
 -1      2242 6.49500E+00 2.12625E+01 0.00000E+00
 -1      2243 6.49500E+00 2.27375E+01 0.00000E+00
 -1      2244 7.79400E+00 2.34750E+01 0.00000E+00
 -1      2245 6.49500E+00 1.83625E+01 0.00000E+00
 -1      2246 6.49500E+00 1.98125E+01 0.00000E+00
 -1      2247 7.79400E+00 2.05500E+01 0.00000E+00
 -1      2248 6.49500E+00 1.54125E+01 0.00000E+00
 -1      2249 6.49500E+00 1.68875E+01 0.00000E+00
 -1      2250 7.79400E+00 1.76250E+01 0.00000E+00
 -1      2251 6.49500E+00 1.24625E+01 0.00000E+00
 -1      2252 6.49500E+00 1.39375E+01 0.00000E+00
 -1      2253 7.79400E+00 1.46750E+01 0.00000E+00
 -1      2254 6.49500E+00 9.51250E+00 0.00000E+00
 -1      2255 6.49500E+00 1.09875E+01 0.00000E+00
 -1      2256 7.79400E+00 1.17250E+01 0.00000E+00
 -1      2257 1.37850E+01 5.30525E+00 0.00000E+00
 -1      2258 1.22850E+01 5.30525E+00 0.00000E+00
 -1      2259 1.15350E+01 6.60425E+00 0.00000E+00
 -1      2260 9.90000E+00 4.35050E+01 0.00000E+00
 -1      2261 1.14000E+01 4.35050E+01 0.00000E+00
 -1      2262 4.78160E+01 1.91477E+01 0.00000E+00
 -1      2263 4.87170E+01 1.84180E+01 0.00000E+00
 -1      2264 6.00746E+01 1.77284E+01 0.00000E+00
 -1      2265 6.12028E+01 1.84166E+01 0.00000E+00
 -1      2266 1.29000E+01 4.35050E+01 0.00000E+00
 -1      2267 1.44000E+01 4.35050E+01 0.00000E+00
 -1      2268 1.21500E+01 4.22060E+01 0.00000E+00
 -1      2269 1.59000E+01 4.35050E+01 0.00000E+00
 -1      2270 1.74000E+01 4.35050E+01 0.00000E+00
 -1      2271 1.51500E+01 4.22060E+01 0.00000E+00
 -1      2272 1.89000E+01 4.35050E+01 0.00000E+00
 -1      2273 2.04000E+01 4.35050E+01 0.00000E+00
 -1      2274 1.81500E+01 4.22060E+01 0.00000E+00
 -1      2275 2.19000E+01 4.35050E+01 0.00000E+00
 -1      2276 2.34000E+01 4.35050E+01 0.00000E+00
 -1      2277 2.11500E+01 4.22060E+01 0.00000E+00
 -1      2278 2.49000E+01 4.35050E+01 0.00000E+00
 -1      2279 2.64000E+01 4.35050E+01 0.00000E+00
 -1      2280 2.41500E+01 4.22060E+01 0.00000E+00
 -1      2281 2.79000E+01 4.35050E+01 0.00000E+00
 -1      2282 2.94000E+01 4.35050E+01 0.00000E+00
 -1      2283 2.71500E+01 4.22060E+01 0.00000E+00
 -1      2284 3.09000E+01 4.35050E+01 0.00000E+00
 -1      2285 3.24000E+01 4.35050E+01 0.00000E+00
 -1      2286 3.01500E+01 4.22060E+01 0.00000E+00
 -1      2287 3.39000E+01 4.35050E+01 0.00000E+00
 -1      2288 3.54000E+01 4.35050E+01 0.00000E+00
 -1      2289 3.31500E+01 4.22060E+01 0.00000E+00
 -1      2290 3.69000E+01 4.35050E+01 0.00000E+00
 -1      2291 3.84000E+01 4.35050E+01 0.00000E+00
 -1      2292 3.61500E+01 4.22060E+01 0.00000E+00
 -1      2293 3.99000E+01 4.35050E+01 0.00000E+00
 -1      2294 4.14000E+01 4.35050E+01 0.00000E+00
 -1      2295 3.91500E+01 4.22060E+01 0.00000E+00
 -1      2296 4.29000E+01 4.35050E+01 0.00000E+00
 -1      2297 4.44000E+01 4.35050E+01 0.00000E+00
 -1      2298 4.21500E+01 4.22060E+01 0.00000E+00
 -1      2299 4.59000E+01 4.35050E+01 0.00000E+00
 -1      2300 4.74000E+01 4.35050E+01 0.00000E+00
 -1      2301 4.51500E+01 4.22060E+01 0.00000E+00
 -1      2302 4.89000E+01 4.35050E+01 0.00000E+00
 -1      2303 5.04000E+01 4.35050E+01 0.00000E+00
 -1      2304 4.81500E+01 4.22060E+01 0.00000E+00
 -1      2305 5.19000E+01 4.35050E+01 0.00000E+00
 -1      2306 5.34000E+01 4.35050E+01 0.00000E+00
 -1      2307 5.11500E+01 4.22060E+01 0.00000E+00
 -1      2308 5.49000E+01 4.35050E+01 0.00000E+00
 -1      2309 5.64000E+01 4.35050E+01 0.00000E+00
 -1      2310 5.41500E+01 4.22060E+01 0.00000E+00
 -1      2311 5.79000E+01 4.35050E+01 0.00000E+00
 -1      2312 5.94000E+01 4.35050E+01 0.00000E+00
 -1      2313 5.71500E+01 4.22060E+01 0.00000E+00
 -1      2314 6.09000E+01 4.35050E+01 0.00000E+00
 -1      2315 6.24000E+01 4.35050E+01 0.00000E+00
 -1      2316 6.01500E+01 4.22060E+01 0.00000E+00
 -1      2317 6.39000E+01 4.35050E+01 0.00000E+00
 -1      2318 6.54000E+01 4.35050E+01 0.00000E+00
 -1      2319 6.31500E+01 4.22060E+01 0.00000E+00
 -1      2320 6.69000E+01 4.35050E+01 0.00000E+00
 -1      2321 6.84000E+01 4.35050E+01 0.00000E+00
 -1      2322 6.61500E+01 4.22060E+01 0.00000E+00
 -1      2323 6.99000E+01 4.35050E+01 0.00000E+00
 -1      2324 7.14000E+01 4.35050E+01 0.00000E+00
 -1      2325 6.91500E+01 4.22060E+01 0.00000E+00
 -1      2326 7.29000E+01 4.35050E+01 0.00000E+00
 -1      2327 7.44000E+01 4.35050E+01 0.00000E+00
 -1      2328 7.21500E+01 4.22060E+01 0.00000E+00
 -1      2329 7.59000E+01 4.35050E+01 0.00000E+00
 -1      2330 7.74000E+01 4.35050E+01 0.00000E+00
 -1      2331 7.51500E+01 4.22060E+01 0.00000E+00
 -1      2332 7.89000E+01 4.35050E+01 0.00000E+00
 -1      2333 8.04000E+01 4.35050E+01 0.00000E+00
 -1      2334 7.81500E+01 4.22060E+01 0.00000E+00
 -1      2335 8.19000E+01 4.35050E+01 0.00000E+00
 -1      2336 8.34000E+01 4.35050E+01 0.00000E+00
 -1      2337 8.11500E+01 4.22060E+01 0.00000E+00
 -1      2338 8.49000E+01 4.35050E+01 0.00000E+00
 -1      2339 8.64000E+01 4.35050E+01 0.00000E+00
 -1      2340 8.41500E+01 4.22060E+01 0.00000E+00
 -1      2341 8.79000E+01 4.35050E+01 0.00000E+00
 -1      2342 8.94000E+01 4.35050E+01 0.00000E+00
 -1      2343 8.71500E+01 4.22060E+01 0.00000E+00
 -1      2344 9.09000E+01 4.35050E+01 0.00000E+00
 -1      2345 9.24000E+01 4.35050E+01 0.00000E+00
 -1      2346 9.01500E+01 4.22060E+01 0.00000E+00
 -1      2347 9.39000E+01 4.35050E+01 0.00000E+00
 -1      2348 9.54000E+01 4.35050E+01 0.00000E+00
 -1      2349 9.31500E+01 4.22060E+01 0.00000E+00
 -1      2350 9.69000E+01 4.35050E+01 0.00000E+00
 -1      2351 9.84000E+01 4.35050E+01 0.00000E+00
 -1      2352 9.61500E+01 4.22060E+01 0.00000E+00
 -1      2353 9.99000E+01 4.35050E+01 0.00000E+00
 -1      2354 1.01400E+02 4.35050E+01 0.00000E+00
 -1      2355 9.91500E+01 4.22060E+01 0.00000E+00
 -1      2356 1.02900E+02 4.35050E+01 0.00000E+00
 -1      2357 1.04400E+02 4.35050E+01 0.00000E+00
 -1      2358 1.02150E+02 4.22060E+01 0.00000E+00
 -1      2359 1.05900E+02 4.35050E+01 0.00000E+00
 -1      2360 1.07400E+02 4.35050E+01 0.00000E+00
 -1      2361 1.05150E+02 4.22060E+01 0.00000E+00
 -1      2362 1.08900E+02 4.35050E+01 0.00000E+00
 -1      2363 1.10400E+02 4.35050E+01 0.00000E+00
 -1      2364 1.08150E+02 4.22060E+01 0.00000E+00
 -1      2365 1.11900E+02 4.35050E+01 0.00000E+00
 -1      2366 1.13400E+02 4.35050E+01 0.00000E+00
 -1      2367 1.11150E+02 4.22060E+01 0.00000E+00
 -1      2368 1.14900E+02 4.35050E+01 0.00000E+00
 -1      2369 1.16400E+02 4.35050E+01 0.00000E+00
 -1      2370 1.14150E+02 4.22060E+01 0.00000E+00
 -1      2371 1.17900E+02 4.35050E+01 0.00000E+00
 -1      2372 1.19400E+02 4.35050E+01 0.00000E+00
 -1      2373 1.17150E+02 4.22060E+01 0.00000E+00
 -1      2374 1.20900E+02 4.35050E+01 0.00000E+00
 -1      2375 1.22400E+02 4.35050E+01 0.00000E+00
 -1      2376 1.20150E+02 4.22060E+01 0.00000E+00
 -1      2377 1.23900E+02 4.35050E+01 0.00000E+00
 -1      2378 1.25400E+02 4.35050E+01 0.00000E+00
 -1      2379 1.23150E+02 4.22060E+01 0.00000E+00
 -1      2380 1.26900E+02 4.35050E+01 0.00000E+00
 -1      2381 1.28400E+02 4.35050E+01 0.00000E+00
 -1      2382 1.26150E+02 4.22060E+01 0.00000E+00
 -1      2383 1.29900E+02 4.35050E+01 0.00000E+00
 -1      2384 1.31400E+02 4.35050E+01 0.00000E+00
 -1      2385 1.29150E+02 4.22060E+01 0.00000E+00
 -1      2386 1.32900E+02 4.35050E+01 0.00000E+00
 -1      2387 1.34400E+02 4.35050E+01 0.00000E+00
 -1      2388 1.32150E+02 4.22060E+01 0.00000E+00
 -1      2389 1.35900E+02 4.35050E+01 0.00000E+00
 -1      2390 1.37400E+02 4.35050E+01 0.00000E+00
 -1      2391 1.35150E+02 4.22060E+01 0.00000E+00
 -1      2392 1.38900E+02 4.35050E+01 0.00000E+00
 -1      2393 1.40400E+02 4.35050E+01 0.00000E+00
 -1      2394 1.38150E+02 4.22060E+01 0.00000E+00
 -1      2395 1.97850E+01 5.30525E+00 0.00000E+00
 -1      2396 1.82850E+01 5.30525E+00 0.00000E+00
 -1      2397 2.27850E+01 5.30525E+00 0.00000E+00
 -1      2398 2.12850E+01 5.30525E+00 0.00000E+00
 -1      2399 2.05350E+01 6.60425E+00 0.00000E+00
 -1      2400 2.57850E+01 5.30525E+00 0.00000E+00
 -1      2401 2.42850E+01 5.30525E+00 0.00000E+00
 -1      2402 2.35350E+01 6.60425E+00 0.00000E+00
 -1      2403 2.87850E+01 5.30525E+00 0.00000E+00
 -1      2404 2.72850E+01 5.30525E+00 0.00000E+00
 -1      2405 2.65350E+01 6.60425E+00 0.00000E+00
 -1      2406 3.17850E+01 5.30525E+00 0.00000E+00
 -1      2407 3.02850E+01 5.30525E+00 0.00000E+00
 -1      2408 2.95350E+01 6.60425E+00 0.00000E+00
 -1      2409 3.47850E+01 5.30525E+00 0.00000E+00
 -1      2410 3.32850E+01 5.30525E+00 0.00000E+00
 -1      2411 3.25350E+01 6.60425E+00 0.00000E+00
 -1      2412 3.77850E+01 5.30525E+00 0.00000E+00
 -1      2413 3.62850E+01 5.30525E+00 0.00000E+00
 -1      2414 3.55350E+01 6.60425E+00 0.00000E+00
 -1      2415 4.07850E+01 5.30525E+00 0.00000E+00
 -1      2416 3.92850E+01 5.30525E+00 0.00000E+00
 -1      2417 3.85350E+01 6.60425E+00 0.00000E+00
 -1      2418 4.37850E+01 5.30525E+00 0.00000E+00
 -1      2419 4.22850E+01 5.30525E+00 0.00000E+00
 -1      2420 4.15350E+01 6.60425E+00 0.00000E+00
 -1      2421 4.67850E+01 5.30525E+00 0.00000E+00
 -1      2422 4.52850E+01 5.30525E+00 0.00000E+00
 -1      2423 4.45350E+01 6.60425E+00 0.00000E+00
 -1      2424 4.97850E+01 5.30525E+00 0.00000E+00
 -1      2425 4.82850E+01 5.30525E+00 0.00000E+00
 -1      2426 4.75350E+01 6.60425E+00 0.00000E+00
 -1      2427 5.27850E+01 5.30525E+00 0.00000E+00
 -1      2428 5.12850E+01 5.30525E+00 0.00000E+00
 -1      2429 5.05350E+01 6.60425E+00 0.00000E+00
 -1      2430 5.57850E+01 5.30525E+00 0.00000E+00
 -1      2431 5.42850E+01 5.30525E+00 0.00000E+00
 -1      2432 5.35350E+01 6.60425E+00 0.00000E+00
 -1      2433 5.87850E+01 5.30525E+00 0.00000E+00
 -1      2434 5.72850E+01 5.30525E+00 0.00000E+00
 -1      2435 5.65350E+01 6.60425E+00 0.00000E+00
 -1      2436 6.17850E+01 5.30525E+00 0.00000E+00
 -1      2437 6.02850E+01 5.30525E+00 0.00000E+00
 -1      2438 5.95350E+01 6.60425E+00 0.00000E+00
 -1      2439 6.47850E+01 5.30525E+00 0.00000E+00
 -1      2440 6.32850E+01 5.30525E+00 0.00000E+00
 -1      2441 6.25350E+01 6.60425E+00 0.00000E+00
 -1      2442 6.77850E+01 5.30525E+00 0.00000E+00
 -1      2443 6.62850E+01 5.30525E+00 0.00000E+00
 -1      2444 6.55350E+01 6.60425E+00 0.00000E+00
 -1      2445 7.07850E+01 5.30525E+00 0.00000E+00
 -1      2446 6.92850E+01 5.30525E+00 0.00000E+00
 -1      2447 6.85350E+01 6.60425E+00 0.00000E+00
 -1      2448 7.37850E+01 5.30525E+00 0.00000E+00
 -1      2449 7.22850E+01 5.30525E+00 0.00000E+00
 -1      2450 7.15350E+01 6.60425E+00 0.00000E+00
 -1      2451 7.67850E+01 5.30525E+00 0.00000E+00
 -1      2452 7.52850E+01 5.30525E+00 0.00000E+00
 -1      2453 7.45350E+01 6.60425E+00 0.00000E+00
 -1      2454 7.97850E+01 5.30525E+00 0.00000E+00
 -1      2455 7.82850E+01 5.30525E+00 0.00000E+00
 -1      2456 7.75350E+01 6.60425E+00 0.00000E+00
 -1      2457 8.27850E+01 5.30525E+00 0.00000E+00
 -1      2458 8.12850E+01 5.30525E+00 0.00000E+00
 -1      2459 8.05350E+01 6.60425E+00 0.00000E+00
 -1      2460 8.57850E+01 5.30525E+00 0.00000E+00
 -1      2461 8.42850E+01 5.30525E+00 0.00000E+00
 -1      2462 8.35350E+01 6.60425E+00 0.00000E+00
 -1      2463 8.87850E+01 5.30525E+00 0.00000E+00
 -1      2464 8.72850E+01 5.30525E+00 0.00000E+00
 -1      2465 8.65350E+01 6.60425E+00 0.00000E+00
 -1      2466 9.17850E+01 5.30525E+00 0.00000E+00
 -1      2467 9.02850E+01 5.30525E+00 0.00000E+00
 -1      2468 8.95350E+01 6.60425E+00 0.00000E+00
 -1      2469 9.47850E+01 5.30525E+00 0.00000E+00
 -1      2470 9.32850E+01 5.30525E+00 0.00000E+00
 -1      2471 9.25350E+01 6.60425E+00 0.00000E+00
 -1      2472 9.77850E+01 5.30525E+00 0.00000E+00
 -1      2473 9.62850E+01 5.30525E+00 0.00000E+00
 -1      2474 9.55350E+01 6.60425E+00 0.00000E+00
 -1      2475 1.00785E+02 5.30525E+00 0.00000E+00
 -1      2476 9.92850E+01 5.30525E+00 0.00000E+00
 -1      2477 9.85350E+01 6.60425E+00 0.00000E+00
 -1      2478 1.03785E+02 5.30525E+00 0.00000E+00
 -1      2479 1.02285E+02 5.30525E+00 0.00000E+00
 -1      2480 1.01535E+02 6.60425E+00 0.00000E+00
 -1      2481 1.06785E+02 5.30525E+00 0.00000E+00
 -1      2482 1.05285E+02 5.30525E+00 0.00000E+00
 -1      2483 1.04535E+02 6.60425E+00 0.00000E+00
 -1      2484 1.09785E+02 5.30525E+00 0.00000E+00
 -1      2485 1.08285E+02 5.30525E+00 0.00000E+00
 -1      2486 1.07535E+02 6.60425E+00 0.00000E+00
 -1      2487 1.12785E+02 5.30525E+00 0.00000E+00
 -1      2488 1.11285E+02 5.30525E+00 0.00000E+00
 -1      2489 1.10535E+02 6.60425E+00 0.00000E+00
 -1      2490 1.15785E+02 5.30525E+00 0.00000E+00
 -1      2491 1.14285E+02 5.30525E+00 0.00000E+00
 -1      2492 1.13535E+02 6.60425E+00 0.00000E+00
 -1      2493 1.18785E+02 5.30525E+00 0.00000E+00
 -1      2494 1.17285E+02 5.30525E+00 0.00000E+00
 -1      2495 1.16535E+02 6.60425E+00 0.00000E+00
 -1      2496 1.21785E+02 5.30525E+00 0.00000E+00
 -1      2497 1.20285E+02 5.30525E+00 0.00000E+00
 -1      2498 1.19535E+02 6.60425E+00 0.00000E+00
 -1      2499 1.24785E+02 5.30525E+00 0.00000E+00
 -1      2500 1.23285E+02 5.30525E+00 0.00000E+00
 -1      2501 1.22535E+02 6.60425E+00 0.00000E+00
 -1      2502 1.27785E+02 5.30525E+00 0.00000E+00
 -1      2503 1.26285E+02 5.30525E+00 0.00000E+00
 -1      2504 1.25535E+02 6.60425E+00 0.00000E+00
 -1      2505 1.30785E+02 5.30525E+00 0.00000E+00
 -1      2506 1.29285E+02 5.30525E+00 0.00000E+00
 -1      2507 1.28535E+02 6.60425E+00 0.00000E+00
 -1      2508 1.33785E+02 5.30525E+00 0.00000E+00
 -1      2509 1.32285E+02 5.30525E+00 0.00000E+00
 -1      2510 1.31535E+02 6.60425E+00 0.00000E+00
 -1      2511 1.36785E+02 5.30525E+00 0.00000E+00
 -1      2512 1.35285E+02 5.30525E+00 0.00000E+00
 -1      2513 1.34535E+02 6.60425E+00 0.00000E+00
 -1      2514 1.39785E+02 5.30525E+00 0.00000E+00
 -1      2515 1.38285E+02 5.30525E+00 0.00000E+00
 -1      2516 1.37535E+02 6.60425E+00 0.00000E+00
 -1      2517 1.42785E+02 5.30525E+00 0.00000E+00
 -1      2518 1.41285E+02 5.30525E+00 0.00000E+00
 -1      2519 1.40535E+02 6.60425E+00 0.00000E+00
 -1      2520 1.44336E+02 5.26953E+00 0.00000E+00
 -1      2521 1.43505E+02 1.69125E+01 0.00000E+00
 -1      2522 1.43505E+02 1.54375E+01 0.00000E+00
 -1      2523 1.43505E+02 1.98625E+01 0.00000E+00
 -1      2524 1.43505E+02 1.83875E+01 0.00000E+00
 -1      2525 1.42206E+02 1.76500E+01 0.00000E+00
 -1      2526 1.43505E+02 1.10625E+01 0.00000E+00
 -1      2527 1.43505E+02 9.58750E+00 0.00000E+00
 -1      2528 1.43505E+02 1.39750E+01 0.00000E+00
 -1      2529 1.43505E+02 1.25250E+01 0.00000E+00
 -1      2530 1.42206E+02 1.17875E+01 0.00000E+00
 -1      2531 1.42206E+02 1.47125E+01 0.00000E+00
 -1      2532 1.43505E+02 2.28125E+01 0.00000E+00
 -1      2533 1.43505E+02 2.13375E+01 0.00000E+00
 -1      2534 1.42206E+02 2.06000E+01 0.00000E+00
 -1      2535 1.43505E+02 2.57625E+01 0.00000E+00
 -1      2536 1.43505E+02 2.42875E+01 0.00000E+00
 -1      2537 1.42206E+02 2.35500E+01 0.00000E+00
 -1      2538 1.43505E+02 2.87125E+01 0.00000E+00
 -1      2539 1.43505E+02 2.72375E+01 0.00000E+00
 -1      2540 1.42206E+02 2.65000E+01 0.00000E+00
 -1      2541 1.43505E+02 3.16125E+01 0.00000E+00
 -1      2542 1.43505E+02 3.01625E+01 0.00000E+00
 -1      2543 1.42206E+02 2.94250E+01 0.00000E+00
 -1      2544 1.43505E+02 3.45625E+01 0.00000E+00
 -1      2545 1.43505E+02 3.30875E+01 0.00000E+00
 -1      2546 1.42206E+02 3.23500E+01 0.00000E+00
 -1      2547 1.43505E+02 3.75125E+01 0.00000E+00
 -1      2548 1.43505E+02 3.60375E+01 0.00000E+00
 -1      2549 1.42206E+02 3.53000E+01 0.00000E+00
 -1      2550 1.43505E+02 4.04625E+01 0.00000E+00
 -1      2551 1.43505E+02 3.89875E+01 0.00000E+00
 -1      2552 1.42206E+02 3.82500E+01 0.00000E+00
 -1      2553 6.36094E+01 2.08058E+01 0.00000E+00
 -1      2554 6.41378E+01 2.16843E+01 0.00000E+00
 -1      2555 1.44321E+02 4.30606E+01 0.00000E+00
 -1      2556 6.50051E+01 2.72962E+01 0.00000E+00
 -1      2557 6.50435E+01 2.83797E+01 0.00000E+00
 -1      2558 1.67850E+01 5.30525E+00 0.00000E+00
 -1      2559 1.52850E+01 5.30525E+00 0.00000E+00
 -1      2560 1.75350E+01 6.60425E+00 0.00000E+00
 -1      2561 6.49472E+01 2.54686E+01 0.00000E+00
 -1      2562 6.49762E+01 2.63824E+01 0.00000E+00
 -1      2563 6.57686E+01 2.68968E+01 0.00000E+00
 -1      2564 6.24348E+01 1.93755E+01 0.00000E+00
 -1      2565 6.30221E+01 2.00906E+01 0.00000E+00
 -1      2566 6.40930E+01 2.00447E+01 0.00000E+00
 -1      2567 5.80340E+01 1.68429E+01 0.00000E+00
 -1      2568 5.89161E+01 1.71265E+01 0.00000E+00
 -1      2569 6.29406E+01 3.31983E+01 0.00000E+00
 -1      2570 6.22869E+01 3.38536E+01 0.00000E+00
 -1      2571 4.99081E+01 3.63523E+01 0.00000E+00
 -1      2572 4.89989E+01 3.58493E+01 0.00000E+00
 -1      2573 4.45280E+01 2.46528E+01 0.00000E+00
 -1      2574 4.48474E+01 2.36302E+01 0.00000E+00
 -1      2575 6.55950E+00 4.28890E+01 0.00000E+00
 -1      2576 8.53650E+00 4.32410E+01 0.00000E+00
 -1      2577 9.28650E+00 4.19420E+01 0.00000E+00
 -1      2578 6.55950E+00 4.14140E+01 0.00000E+00
 -1      2579 6.49500E+00 2.71625E+01 0.00000E+00
 -1      2580 6.49500E+00 2.86375E+01 0.00000E+00
 -1      2581 7.79400E+00 2.93750E+01 0.00000E+00
 -1      2582 7.79400E+00 2.64250E+01 0.00000E+00
 -1      2583 5.14778E+01 1.70220E+01 0.00000E+00
 -1      2584 5.24071E+01 1.67741E+01 0.00000E+00
 -1      2585 5.62661E+01 1.64052E+01 0.00000E+00
 -1      2586 5.71500E+01 1.66240E+01 0.00000E+00
 -1      2587 5.78407E+01 1.59893E+01 0.00000E+00
 -1      2588 4.64488E+01 2.08777E+01 0.00000E+00
 -1      2589 4.69751E+01 2.01009E+01 0.00000E+00
 -1      2590 4.96308E+01 1.76528E+01 0.00000E+00
 -1      2591 5.03967E+01 1.72561E+01 0.00000E+00
 -1      2592 4.54770E+01 3.12673E+01 0.00000E+00
 -1      2593 4.50934E+01 3.04272E+01 0.00000E+00
 -1      2594 4.54923E+01 2.26261E+01 0.00000E+00
 -1      2595 4.59526E+01 2.17763E+01 0.00000E+00
 -1      2596 4.43773E+01 2.67325E+01 0.00000E+00
 -1      2597 4.44858E+01 2.58166E+01 0.00000E+00
 -1      2598 5.63257E+01 3.70912E+01 0.00000E+00
 -1      2599 5.53349E+01 3.72946E+01 0.00000E+00
 -1      2600 4.62447E+01 3.30421E+01 0.00000E+00
 -1      2601 4.58609E+01 3.21547E+01 0.00000E+00
 -1      2602 4.50033E+01 3.20386E+01 0.00000E+00
 -1      2603 4.78618E+01 3.51215E+01 0.00000E+00
 -1      2604 4.69332E+01 3.42768E+01 0.00000E+00
 -1      2605 5.17605E+01 3.71725E+01 0.00000E+00
 -1      2606 5.09312E+01 3.69539E+01 0.00000E+00
 -1      2607 5.40080E+01 3.75203E+01 0.00000E+00
 -1      2608 5.28843E+01 3.73464E+01 0.00000E+00
 -1      2609 5.22084E+01 3.82284E+01 0.00000E+00
 -1      2610 5.82125E+01 3.66209E+01 0.00000E+00
 -1      2611 5.73616E+01 3.69038E+01 0.00000E+00
 -1      2612 5.99722E+01 3.59615E+01 0.00000E+00
 -1      2613 5.90923E+01 3.62912E+01 0.00000E+00
 -1      2614 5.89375E+01 3.72464E+01 0.00000E+00
 -1      2615 6.16443E+01 3.45393E+01 0.00000E+00
 -1      2616 6.10017E+01 3.52251E+01 0.00000E+00
 -1      2617 6.25190E+01 3.47582E+01 0.00000E+00
 -1      2618 6.40161E+01 3.16274E+01 0.00000E+00
 -1      2619 6.36652E+01 3.23435E+01 0.00000E+00
 -1      2620 6.48840E+01 2.96842E+01 0.00000E+00
 -1      2621 6.44501E+01 3.06558E+01 0.00000E+00
 -1      2622 6.50447E+01 3.13913E+01 0.00000E+00
 -1      2623 8.07525E+00 5.11044E+00 0.00000E+00
 -1      2624 6.57525E+00 5.11044E+00 0.00000E+00
 -1      2625 6.40575E+00 6.01981E+00 0.00000E+00
 -1      2626 8.82525E+00 6.40944E+00 0.00000E+00
 -1      2627 5.30374E+01 1.61039E+01 0.00000E+00
 -1      2628 7.79400E+00 3.52687E+01 0.00000E+00
 -1      2629 6.49500E+00 3.60062E+01 0.00000E+00
 -1      2630 6.49500E+00 3.74750E+01 0.00000E+00
 -1      2631 1.45350E+01 6.60425E+00 0.00000E+00
 -1      2632 6.40575E+00 7.49481E+00 0.00000E+00
 -1      2633 6.56381E+01 2.91151E+01 0.00000E+00
 -1      2634 6.08468E+01 3.61803E+01 0.00000E+00
 -1      2635 5.46590E+01 3.81766E+01 0.00000E+00
 -1      2636 4.86670E+01 1.73838E+01 0.00000E+00
 -1      2637 6.21125E+01 1.73661E+01 0.00000E+00
 -1      2638 6.22737E+01 1.83708E+01 0.00000E+00
 -1      2639 6.33445E+01 1.83249E+01 0.00000E+00
 -1      2640 6.48228E+01 2.20446E+01 0.00000E+00
 -1      2641 5.70218E+01 3.77634E+01 0.00000E+00
 -1      2642 1.43586E+02 6.56853E+00 0.00000E+00
 -1      2643 1.43419E+02 7.72713E+00 0.00000E+00
 -1      2644 4.60756E+01 3.41608E+01 0.00000E+00
 -1      2645 5.98832E+01 1.68101E+01 0.00000E+00
 -1      2646 1.42758E+02 4.35929E+01 0.00000E+00
 -1      2647 1.43241E+02 4.17323E+01 0.00000E+00
 -1      2648 1.41942E+02 4.09948E+01 0.00000E+00
 -1      2649 1.41414E+02 4.35342E+01 0.00000E+00
 -1      2650 7.70475E+00 8.23231E+00 0.00000E+00
 -1      2651 6.53525E+01 2.46561E+01 0.00000E+00
 -1      2652 6.61450E+01 2.51704E+01 0.00000E+00
 -1      2653 6.57578E+01 2.38435E+01 0.00000E+00
 -1      2654 4.39990E+01 2.74345E+01 0.00000E+00
 -1      2655 4.33264E+01 2.68905E+01 0.00000E+00
 -1      2656 4.36207E+01 2.81365E+01 0.00000E+00
 -1      2657 6.52725E+00 3.87101E+01 0.00000E+00
 -1      2658 6.52725E+00 4.01789E+01 0.00000E+00
 -1      2659 7.89075E+00 4.04429E+01 0.00000E+00
 -1      2660 7.82625E+00 3.79726E+01 0.00000E+00
 -1      2661 4.69122E+01 1.91021E+01 0.00000E+00
 -1      2662 6.38861E+01 3.32176E+01 0.00000E+00
 -1      2663 4.44341E+01 2.28567E+01 0.00000E+00
 -1      2664 4.79012E+01 3.61234E+01 0.00000E+00
 -1      2665 4.37470E+01 2.50246E+01 0.00000E+00
 -1      2666 5.00615E+01 3.74528E+01 0.00000E+00
 -1      2667 4.44563E+01 2.99159E+01 0.00000E+00
 -1      2668 4.38192E+01 2.94046E+01 0.00000E+00
 -1      2669 4.39823E+01 3.06399E+01 0.00000E+00
 -1      2670 5.56442E+01 1.59139E+01 0.00000E+00
 -1      2671 5.63349E+01 1.52791E+01 0.00000E+00
 -1      2672 5.50224E+01 1.54226E+01 0.00000E+00
 -1      2673 4.55751E+01 2.09539E+01 0.00000E+00
 -1      2674 5.06619E+01 1.63845E+01 0.00000E+00
 -1      2675 1.42120E+02 8.46463E+00 0.00000E+00
 -1      2676 1.40664E+02 4.22352E+01 0.00000E+00
 -1      2677 9.09300E+00 1.98250E+01 0.00000E+00
 -1      2678 9.09300E+00 2.12750E+01 0.00000E+00
 -1      2679 9.09300E+00 2.27500E+01 0.00000E+00
 -1      2680 9.09300E+00 2.42250E+01 0.00000E+00
 -1      2681 1.03920E+01 2.20250E+01 0.00000E+00
 -1      2682 9.09300E+00 1.39375E+01 0.00000E+00
 -1      2683 9.09300E+00 1.54125E+01 0.00000E+00
 -1      2684 9.09300E+00 1.09875E+01 0.00000E+00
 -1      2685 9.09300E+00 1.24625E+01 0.00000E+00
 -1      2686 1.03920E+01 1.32000E+01 0.00000E+00
 -1      2687 1.22850E+01 7.90325E+00 0.00000E+00
 -1      2688 1.07850E+01 7.90325E+00 0.00000E+00
 -1      2689 6.19580E+01 3.66459E+01 0.00000E+00
 -1      2690 6.09285E+01 3.73823E+01 0.00000E+00
 -1      2691 1.44000E+01 4.09070E+01 0.00000E+00
 -1      2692 1.59000E+01 4.09070E+01 0.00000E+00
 -1      2693 1.74000E+01 4.09070E+01 0.00000E+00
 -1      2694 1.89000E+01 4.09070E+01 0.00000E+00
 -1      2695 1.66500E+01 3.96080E+01 0.00000E+00
 -1      2696 2.04000E+01 4.09070E+01 0.00000E+00
 -1      2697 2.19000E+01 4.09070E+01 0.00000E+00
 -1      2698 1.96500E+01 3.96080E+01 0.00000E+00
 -1      2699 2.34000E+01 4.09070E+01 0.00000E+00
 -1      2700 2.49000E+01 4.09070E+01 0.00000E+00
 -1      2701 2.26500E+01 3.96080E+01 0.00000E+00
 -1      2702 2.64000E+01 4.09070E+01 0.00000E+00
 -1      2703 2.79000E+01 4.09070E+01 0.00000E+00
 -1      2704 2.56500E+01 3.96080E+01 0.00000E+00
 -1      2705 2.94000E+01 4.09070E+01 0.00000E+00
 -1      2706 3.09000E+01 4.09070E+01 0.00000E+00
 -1      2707 2.86500E+01 3.96080E+01 0.00000E+00
 -1      2708 3.24000E+01 4.09070E+01 0.00000E+00
 -1      2709 3.39000E+01 4.09070E+01 0.00000E+00
 -1      2710 3.16500E+01 3.96080E+01 0.00000E+00
 -1      2711 3.54000E+01 4.09070E+01 0.00000E+00
 -1      2712 3.69000E+01 4.09070E+01 0.00000E+00
 -1      2713 3.46500E+01 3.96080E+01 0.00000E+00
 -1      2714 3.84000E+01 4.09070E+01 0.00000E+00
 -1      2715 3.99000E+01 4.09070E+01 0.00000E+00
 -1      2716 3.76500E+01 3.96080E+01 0.00000E+00
 -1      2717 4.14000E+01 4.09070E+01 0.00000E+00
 -1      2718 4.29000E+01 4.09070E+01 0.00000E+00
 -1      2719 4.06500E+01 3.96080E+01 0.00000E+00
 -1      2720 4.44000E+01 4.09070E+01 0.00000E+00
 -1      2721 4.59000E+01 4.09070E+01 0.00000E+00
 -1      2722 4.36500E+01 3.96080E+01 0.00000E+00
 -1      2723 5.03673E+01 4.01302E+01 0.00000E+00
 -1      2724 5.18673E+01 4.01302E+01 0.00000E+00
 -1      2725 5.64000E+01 4.10971E+01 0.00000E+00
 -1      2726 5.79000E+01 4.10971E+01 0.00000E+00
 -1      2727 5.94000E+01 4.10133E+01 0.00000E+00
 -1      2728 6.09000E+01 4.10133E+01 0.00000E+00
 -1      2729 6.18448E+01 4.00269E+01 0.00000E+00
 -1      2730 6.33448E+01 4.00269E+01 0.00000E+00
 -1      2731 6.84000E+01 4.09070E+01 0.00000E+00
 -1      2732 6.99000E+01 4.09070E+01 0.00000E+00
 -1      2733 7.14000E+01 4.09070E+01 0.00000E+00
 -1      2734 7.29000E+01 4.09070E+01 0.00000E+00
 -1      2735 7.06500E+01 3.96080E+01 0.00000E+00
 -1      2736 7.44000E+01 4.09070E+01 0.00000E+00
 -1      2737 7.59000E+01 4.09070E+01 0.00000E+00
 -1      2738 7.36500E+01 3.96080E+01 0.00000E+00
 -1      2739 7.74000E+01 4.09070E+01 0.00000E+00
 -1      2740 7.89000E+01 4.09070E+01 0.00000E+00
 -1      2741 7.66500E+01 3.96080E+01 0.00000E+00
 -1      2742 8.04000E+01 4.09070E+01 0.00000E+00
 -1      2743 8.19000E+01 4.09070E+01 0.00000E+00
 -1      2744 7.96500E+01 3.96080E+01 0.00000E+00
 -1      2745 8.34000E+01 4.09070E+01 0.00000E+00
 -1      2746 8.49000E+01 4.09070E+01 0.00000E+00
 -1      2747 8.26500E+01 3.96080E+01 0.00000E+00
 -1      2748 8.64000E+01 4.09070E+01 0.00000E+00
 -1      2749 8.79000E+01 4.09070E+01 0.00000E+00
 -1      2750 8.56500E+01 3.96080E+01 0.00000E+00
 -1      2751 8.94000E+01 4.09070E+01 0.00000E+00
 -1      2752 9.09000E+01 4.09070E+01 0.00000E+00
 -1      2753 8.86500E+01 3.96080E+01 0.00000E+00
 -1      2754 9.24000E+01 4.09070E+01 0.00000E+00
 -1      2755 9.39000E+01 4.09070E+01 0.00000E+00
 -1      2756 9.16500E+01 3.96080E+01 0.00000E+00
 -1      2757 9.54000E+01 4.09070E+01 0.00000E+00
 -1      2758 9.69000E+01 4.09070E+01 0.00000E+00
 -1      2759 9.46500E+01 3.96080E+01 0.00000E+00
 -1      2760 9.84000E+01 4.09070E+01 0.00000E+00
 -1      2761 9.99000E+01 4.09070E+01 0.00000E+00
 -1      2762 9.76500E+01 3.96080E+01 0.00000E+00
 -1      2763 1.01400E+02 4.09070E+01 0.00000E+00
 -1      2764 1.02900E+02 4.09070E+01 0.00000E+00
 -1      2765 1.00650E+02 3.96080E+01 0.00000E+00
 -1      2766 1.04400E+02 4.09070E+01 0.00000E+00
 -1      2767 1.05900E+02 4.09070E+01 0.00000E+00
 -1      2768 1.03650E+02 3.96080E+01 0.00000E+00
 -1      2769 1.07400E+02 4.09070E+01 0.00000E+00
 -1      2770 1.08900E+02 4.09070E+01 0.00000E+00
 -1      2771 1.06650E+02 3.96080E+01 0.00000E+00
 -1      2772 1.10400E+02 4.09070E+01 0.00000E+00
 -1      2773 1.11900E+02 4.09070E+01 0.00000E+00
 -1      2774 1.09650E+02 3.96080E+01 0.00000E+00
 -1      2775 1.13400E+02 4.09070E+01 0.00000E+00
 -1      2776 1.14900E+02 4.09070E+01 0.00000E+00
 -1      2777 1.12650E+02 3.96080E+01 0.00000E+00
 -1      2778 1.16400E+02 4.09070E+01 0.00000E+00
 -1      2779 1.17900E+02 4.09070E+01 0.00000E+00
 -1      2780 1.15650E+02 3.96080E+01 0.00000E+00
 -1      2781 1.19400E+02 4.09070E+01 0.00000E+00
 -1      2782 1.20900E+02 4.09070E+01 0.00000E+00
 -1      2783 1.18650E+02 3.96080E+01 0.00000E+00
 -1      2784 1.22400E+02 4.09070E+01 0.00000E+00
 -1      2785 1.23900E+02 4.09070E+01 0.00000E+00
 -1      2786 1.21650E+02 3.96080E+01 0.00000E+00
 -1      2787 1.25400E+02 4.09070E+01 0.00000E+00
 -1      2788 1.26900E+02 4.09070E+01 0.00000E+00
 -1      2789 1.24650E+02 3.96080E+01 0.00000E+00
 -1      2790 1.28400E+02 4.09070E+01 0.00000E+00
 -1      2791 1.29900E+02 4.09070E+01 0.00000E+00
 -1      2792 1.27650E+02 3.96080E+01 0.00000E+00
 -1      2793 1.31400E+02 4.09070E+01 0.00000E+00
 -1      2794 1.32900E+02 4.09070E+01 0.00000E+00
 -1      2795 1.30650E+02 3.96080E+01 0.00000E+00
 -1      2796 1.34400E+02 4.09070E+01 0.00000E+00
 -1      2797 1.35900E+02 4.09070E+01 0.00000E+00
 -1      2798 1.33650E+02 3.96080E+01 0.00000E+00
 -1      2799 1.37400E+02 4.09070E+01 0.00000E+00
 -1      2800 1.38900E+02 4.09070E+01 0.00000E+00
 -1      2801 1.36650E+02 3.96080E+01 0.00000E+00
 -1      2802 2.42850E+01 7.90325E+00 0.00000E+00
 -1      2803 2.27850E+01 7.90325E+00 0.00000E+00
 -1      2804 8.91450E+00 8.42712E+00 0.00000E+00
 -1      2805 2.12850E+01 7.90325E+00 0.00000E+00
 -1      2806 1.97850E+01 7.90325E+00 0.00000E+00
 -1      2807 2.20350E+01 9.20225E+00 0.00000E+00
 -1      2808 3.02850E+01 7.90325E+00 0.00000E+00
 -1      2809 2.87850E+01 7.90325E+00 0.00000E+00
 -1      2810 3.32850E+01 7.90325E+00 0.00000E+00
 -1      2811 3.17850E+01 7.90325E+00 0.00000E+00
 -1      2812 3.10350E+01 9.20225E+00 0.00000E+00
 -1      2813 3.62850E+01 7.90325E+00 0.00000E+00
 -1      2814 3.47850E+01 7.90325E+00 0.00000E+00
 -1      2815 3.40350E+01 9.20225E+00 0.00000E+00
 -1      2816 3.92850E+01 7.90325E+00 0.00000E+00
 -1      2817 3.77850E+01 7.90325E+00 0.00000E+00
 -1      2818 3.70350E+01 9.20225E+00 0.00000E+00
 -1      2819 4.22850E+01 7.90325E+00 0.00000E+00
 -1      2820 4.07850E+01 7.90325E+00 0.00000E+00
 -1      2821 4.00350E+01 9.20225E+00 0.00000E+00
 -1      2822 4.52850E+01 7.90325E+00 0.00000E+00
 -1      2823 4.37850E+01 7.90325E+00 0.00000E+00
 -1      2824 4.30350E+01 9.20225E+00 0.00000E+00
 -1      2825 4.82850E+01 7.90325E+00 0.00000E+00
 -1      2826 4.67850E+01 7.90325E+00 0.00000E+00
 -1      2827 4.60350E+01 9.20225E+00 0.00000E+00
 -1      2828 5.12850E+01 7.90325E+00 0.00000E+00
 -1      2829 4.97850E+01 7.90325E+00 0.00000E+00
 -1      2830 4.90350E+01 9.20225E+00 0.00000E+00
 -1      2831 5.42850E+01 7.90325E+00 0.00000E+00
 -1      2832 5.27850E+01 7.90325E+00 0.00000E+00
 -1      2833 5.20350E+01 9.20225E+00 0.00000E+00
 -1      2834 5.72850E+01 7.90325E+00 0.00000E+00
 -1      2835 5.57850E+01 7.90325E+00 0.00000E+00
 -1      2836 5.50350E+01 9.20225E+00 0.00000E+00
 -1      2837 6.02850E+01 7.90325E+00 0.00000E+00
 -1      2838 5.87850E+01 7.90325E+00 0.00000E+00
 -1      2839 5.80350E+01 9.20225E+00 0.00000E+00
 -1      2840 6.32850E+01 7.90325E+00 0.00000E+00
 -1      2841 6.17850E+01 7.90325E+00 0.00000E+00
 -1      2842 6.10350E+01 9.20225E+00 0.00000E+00
 -1      2843 6.62850E+01 7.90325E+00 0.00000E+00
 -1      2844 6.47850E+01 7.90325E+00 0.00000E+00
 -1      2845 6.40350E+01 9.20225E+00 0.00000E+00
 -1      2846 6.92850E+01 7.90325E+00 0.00000E+00
 -1      2847 6.77850E+01 7.90325E+00 0.00000E+00
 -1      2848 6.70350E+01 9.20225E+00 0.00000E+00
 -1      2849 7.22850E+01 7.90325E+00 0.00000E+00
 -1      2850 7.07850E+01 7.90325E+00 0.00000E+00
 -1      2851 7.00350E+01 9.20225E+00 0.00000E+00
 -1      2852 7.52850E+01 7.90325E+00 0.00000E+00
 -1      2853 7.37850E+01 7.90325E+00 0.00000E+00
 -1      2854 7.30350E+01 9.20225E+00 0.00000E+00
 -1      2855 7.82850E+01 7.90325E+00 0.00000E+00
 -1      2856 7.67850E+01 7.90325E+00 0.00000E+00
 -1      2857 7.60350E+01 9.20225E+00 0.00000E+00
 -1      2858 8.12850E+01 7.90325E+00 0.00000E+00
 -1      2859 7.97850E+01 7.90325E+00 0.00000E+00
 -1      2860 7.90350E+01 9.20225E+00 0.00000E+00
 -1      2861 8.42850E+01 7.90325E+00 0.00000E+00
 -1      2862 8.27850E+01 7.90325E+00 0.00000E+00
 -1      2863 8.20350E+01 9.20225E+00 0.00000E+00
 -1      2864 8.72850E+01 7.90325E+00 0.00000E+00
 -1      2865 8.57850E+01 7.90325E+00 0.00000E+00
 -1      2866 8.50350E+01 9.20225E+00 0.00000E+00
 -1      2867 9.02850E+01 7.90325E+00 0.00000E+00
 -1      2868 8.87850E+01 7.90325E+00 0.00000E+00
 -1      2869 8.80350E+01 9.20225E+00 0.00000E+00
 -1      2870 9.32850E+01 7.90325E+00 0.00000E+00
 -1      2871 9.17850E+01 7.90325E+00 0.00000E+00
 -1      2872 9.10350E+01 9.20225E+00 0.00000E+00
 -1      2873 9.62850E+01 7.90325E+00 0.00000E+00
 -1      2874 9.47850E+01 7.90325E+00 0.00000E+00
 -1      2875 9.40350E+01 9.20225E+00 0.00000E+00
 -1      2876 9.92850E+01 7.90325E+00 0.00000E+00
 -1      2877 9.77850E+01 7.90325E+00 0.00000E+00
 -1      2878 9.70350E+01 9.20225E+00 0.00000E+00
 -1      2879 1.02285E+02 7.90325E+00 0.00000E+00
 -1      2880 1.00785E+02 7.90325E+00 0.00000E+00
 -1      2881 1.00035E+02 9.20225E+00 0.00000E+00
 -1      2882 1.05285E+02 7.90325E+00 0.00000E+00
 -1      2883 1.03785E+02 7.90325E+00 0.00000E+00
 -1      2884 1.03035E+02 9.20225E+00 0.00000E+00
 -1      2885 1.08285E+02 7.90325E+00 0.00000E+00
 -1      2886 1.06785E+02 7.90325E+00 0.00000E+00
 -1      2887 1.06035E+02 9.20225E+00 0.00000E+00
 -1      2888 1.11285E+02 7.90325E+00 0.00000E+00
 -1      2889 1.09785E+02 7.90325E+00 0.00000E+00
 -1      2890 1.09035E+02 9.20225E+00 0.00000E+00
 -1      2891 1.14285E+02 7.90325E+00 0.00000E+00
 -1      2892 1.12785E+02 7.90325E+00 0.00000E+00
 -1      2893 1.12035E+02 9.20225E+00 0.00000E+00
 -1      2894 1.17285E+02 7.90325E+00 0.00000E+00
 -1      2895 1.15785E+02 7.90325E+00 0.00000E+00
 -1      2896 1.15035E+02 9.20225E+00 0.00000E+00
 -1      2897 1.20285E+02 7.90325E+00 0.00000E+00
 -1      2898 1.18785E+02 7.90325E+00 0.00000E+00
 -1      2899 1.18035E+02 9.20225E+00 0.00000E+00
 -1      2900 1.23285E+02 7.90325E+00 0.00000E+00
 -1      2901 1.21785E+02 7.90325E+00 0.00000E+00
 -1      2902 1.21035E+02 9.20225E+00 0.00000E+00
 -1      2903 1.26285E+02 7.90325E+00 0.00000E+00
 -1      2904 1.24785E+02 7.90325E+00 0.00000E+00
 -1      2905 1.24035E+02 9.20225E+00 0.00000E+00
 -1      2906 1.29285E+02 7.90325E+00 0.00000E+00
 -1      2907 1.27785E+02 7.90325E+00 0.00000E+00
 -1      2908 1.27035E+02 9.20225E+00 0.00000E+00
 -1      2909 1.32285E+02 7.90325E+00 0.00000E+00
 -1      2910 1.30785E+02 7.90325E+00 0.00000E+00
 -1      2911 1.30035E+02 9.20225E+00 0.00000E+00
 -1      2912 1.35285E+02 7.90325E+00 0.00000E+00
 -1      2913 1.33785E+02 7.90325E+00 0.00000E+00
 -1      2914 1.33035E+02 9.20225E+00 0.00000E+00
 -1      2915 1.38285E+02 7.90325E+00 0.00000E+00
 -1      2916 1.36785E+02 7.90325E+00 0.00000E+00
 -1      2917 1.36035E+02 9.20225E+00 0.00000E+00
 -1      2918 1.40953E+02 8.18394E+00 0.00000E+00
 -1      2919 1.39453E+02 8.18394E+00 0.00000E+00
 -1      2920 1.38703E+02 9.48294E+00 0.00000E+00
 -1      2921 1.41038E+02 1.00443E+01 0.00000E+00
 -1      2922 1.40907E+02 2.42875E+01 0.00000E+00
 -1      2923 1.40907E+02 2.28125E+01 0.00000E+00
 -1      2924 1.39914E+02 4.09362E+01 0.00000E+00
 -1      2925 1.40928E+02 4.09655E+01 0.00000E+00
 -1      2926 1.39164E+02 3.96372E+01 0.00000E+00
 -1      2927 1.40907E+02 1.83875E+01 0.00000E+00
 -1      2928 1.40907E+02 1.69125E+01 0.00000E+00
 -1      2929 1.40907E+02 2.72375E+01 0.00000E+00
 -1      2930 1.40907E+02 2.57625E+01 0.00000E+00
 -1      2931 1.39608E+02 2.50250E+01 0.00000E+00
 -1      2932 1.40907E+02 2.13375E+01 0.00000E+00
 -1      2933 1.40907E+02 1.98625E+01 0.00000E+00
 -1      2934 1.39608E+02 1.91250E+01 0.00000E+00
 -1      2935 1.39608E+02 2.20750E+01 0.00000E+00
 -1      2936 1.82850E+01 7.90325E+00 0.00000E+00
 -1      2937 1.67850E+01 7.90325E+00 0.00000E+00
 -1      2938 1.90350E+01 9.20225E+00 0.00000E+00
 -1      2939 1.40907E+02 3.01375E+01 0.00000E+00
 -1      2940 1.40907E+02 2.86875E+01 0.00000E+00
 -1      2941 1.39608E+02 2.79500E+01 0.00000E+00
 -1      2942 1.40907E+02 3.30875E+01 0.00000E+00
 -1      2943 1.40907E+02 3.16125E+01 0.00000E+00
 -1      2944 1.39608E+02 3.08750E+01 0.00000E+00
 -1      2945 1.40907E+02 3.60375E+01 0.00000E+00
 -1      2946 1.40907E+02 3.45625E+01 0.00000E+00
 -1      2947 1.39608E+02 3.38250E+01 0.00000E+00
 -1      2948 5.76038E+01 3.87821E+01 0.00000E+00
 -1      2949 5.65680E+01 3.89695E+01 0.00000E+00
 -1      2950 4.55245E+01 3.52774E+01 0.00000E+00
 -1      2951 4.48361E+01 3.40426E+01 0.00000E+00
 -1      2952 6.45915E+01 1.90366E+01 0.00000E+00
 -1      2953 6.51788E+01 1.97517E+01 0.00000E+00
 -1      2954 6.56871E+01 2.12984E+01 0.00000E+00
 -1      2955 6.58297E+01 2.25831E+01 0.00000E+00
 -1      2956 5.96800E+01 1.57853E+01 0.00000E+00
 -1      2957 6.08385E+01 1.63872E+01 0.00000E+00
 -1      2958 4.34253E+01 2.29180E+01 0.00000E+00
 -1      2959 4.40702E+01 2.19139E+01 0.00000E+00
 -1      2960 4.78269E+01 3.74918E+01 0.00000E+00
 -1      2961 4.66897E+01 3.67640E+01 0.00000E+00
 -1      2962 2.72850E+01 7.90325E+00 0.00000E+00
 -1      2963 2.57850E+01 7.90325E+00 0.00000E+00
 -1      2964 2.50350E+01 9.20225E+00 0.00000E+00
 -1      2965 2.80350E+01 9.20225E+00 0.00000E+00
 -1      2966 1.14000E+01 4.09070E+01 0.00000E+00
 -1      2967 1.29000E+01 4.09070E+01 0.00000E+00
 -1      2968 1.36500E+01 3.96080E+01 0.00000E+00
 -1      2969 8.96362E+00 4.05429E+01 0.00000E+00
 -1      2970 1.03271E+01 4.08069E+01 0.00000E+00
 -1      2971 1.10771E+01 3.95079E+01 0.00000E+00
 -1      2972 8.93137E+00 3.93078E+01 0.00000E+00
 -1      2973 1.41192E+02 3.96958E+01 0.00000E+00
 -1      2974 4.57859E+01 1.89559E+01 0.00000E+00
 -1      2975 4.66268E+01 1.80028E+01 0.00000E+00
 -1      2976 1.52850E+01 7.90325E+00 0.00000E+00
 -1      2977 1.37850E+01 7.90325E+00 0.00000E+00
 -1      2978 1.30350E+01 9.20225E+00 0.00000E+00
 -1      2979 1.60350E+01 9.20225E+00 0.00000E+00
 -1      2980 6.50304E+01 3.34531E+01 0.00000E+00
 -1      2981 6.43058E+01 3.43079E+01 0.00000E+00
 -1      2982 5.76250E+01 1.49661E+01 0.00000E+00
 -1      2983 5.85089E+01 1.51850E+01 0.00000E+00
 -1      2984 9.09300E+00 1.68813E+01 0.00000E+00
 -1      2985 9.09300E+00 1.83563E+01 0.00000E+00
 -1      2986 1.03920E+01 1.90812E+01 0.00000E+00
 -1      2987 1.03920E+01 1.61437E+01 0.00000E+00
 -1      2988 9.09300E+00 3.15875E+01 0.00000E+00
 -1      2989 9.09300E+00 3.30625E+01 0.00000E+00
 -1      2990 4.99045E+01 1.54996E+01 0.00000E+00
 -1      2991 5.09855E+01 1.52656E+01 0.00000E+00
 -1      2992 4.45664E+01 2.10152E+01 0.00000E+00
 -1      2993 4.50626E+01 2.01166E+01 0.00000E+00
 -1      2994 4.35576E+01 2.10765E+01 0.00000E+00
 -1      2995 4.76057E+01 1.70447E+01 0.00000E+00
 -1      2996 4.85196E+01 1.62794E+01 0.00000E+00
 -1      2997 4.43313E+01 3.28561E+01 0.00000E+00
 -1      2998 4.39474E+01 3.19687E+01 0.00000E+00
 -1      2999 4.27851E+01 2.55724E+01 0.00000E+00
 -1      3000 4.28274E+01 2.44086E+01 0.00000E+00
 -1      3001 6.65275E+01 2.64153E+01 0.00000E+00
 -1      3002 6.65565E+01 2.73291E+01 0.00000E+00
 -1      3003 5.22799E+01 1.52190E+01 0.00000E+00
 -1      3004 5.35743E+01 1.51724E+01 0.00000E+00
 -1      3005 5.15224E+01 1.43341E+01 0.00000E+00
 -1      3006 5.96783E+01 3.78846E+01 0.00000E+00
 -1      3007 5.87985E+01 3.82142E+01 0.00000E+00
 -1      3008 6.34532E+01 3.51340E+01 0.00000E+00
 -1      3009 6.28106E+01 3.58197E+01 0.00000E+00
 -1      3010 6.28922E+01 3.70217E+01 0.00000E+00
 -1      3011 6.45975E+01 3.53695E+01 0.00000E+00
 -1      3012 6.67354E+01 2.85872E+01 0.00000E+00
 -1      3013 6.65759E+01 2.98918E+01 0.00000E+00
 -1      3014 6.61211E+01 3.12893E+01 0.00000E+00
 -1      3015 6.56872E+01 3.22609E+01 0.00000E+00
 -1      3016 4.87471E+01 4.08673E+01 0.00000E+00
 -1      3017 4.94644E+01 3.87915E+01 0.00000E+00
 -1      3018 4.84413E+01 3.81899E+01 0.00000E+00
 -1      3019 4.72471E+01 4.08673E+01 0.00000E+00
 -1      3020 9.09300E+00 3.45313E+01 0.00000E+00
 -1      3021 9.09300E+00 3.60000E+01 0.00000E+00
 -1      3022 1.03920E+01 3.37938E+01 0.00000E+00
 -1      3023 1.03920E+01 2.49750E+01 0.00000E+00
 -1      3024 9.09300E+00 2.57000E+01 0.00000E+00
 -1      3025 9.09300E+00 2.71750E+01 0.00000E+00
 -1      3026 6.61069E+01 3.33512E+01 0.00000E+00
 -1      3027 6.07894E+01 3.83501E+01 0.00000E+00
 -1      3028 6.73381E+01 2.47902E+01 0.00000E+00
 -1      3029 6.69328E+01 2.56028E+01 0.00000E+00
 -1      3030 6.77207E+01 2.60352E+01 0.00000E+00
 -1      3031 4.64971E+01 3.95683E+01 0.00000E+00
 -1      3032 4.24068E+01 2.62744E+01 0.00000E+00
 -1      3033 4.14872E+01 2.56584E+01 0.00000E+00
 -1      3034 4.20286E+01 2.69764E+01 0.00000E+00
 -1      3035 6.19093E+01 1.63413E+01 0.00000E+00
 -1      3036 6.29802E+01 1.62955E+01 0.00000E+00
 -1      3037 6.17061E+01 1.53166E+01 0.00000E+00
 -1      3038 4.37801E+01 3.39727E+01 0.00000E+00
 -1      3039 5.29911E+01 4.03041E+01 0.00000E+00
 -1      3040 5.86500E+01 3.99044E+01 0.00000E+00
 -1      3041 5.44911E+01 4.03041E+01 0.00000E+00
 -1      3042 6.38685E+01 3.85243E+01 0.00000E+00
 -1      3043 6.51737E+01 4.07034E+01 0.00000E+00
 -1      3044 6.66737E+01 4.07034E+01 0.00000E+00
 -1      3045 6.47211E+01 3.76982E+01 0.00000E+00
 -1      3046 1.39608E+02 1.61875E+01 0.00000E+00
 -1      3047 1.40907E+02 1.54500E+01 0.00000E+00
 -1      3048 1.40907E+02 1.39875E+01 0.00000E+00
 -1      3049 9.66450E+00 9.72612E+00 0.00000E+00
 -1      3050 4.24635E+01 2.34658E+01 0.00000E+00
 -1      3051 4.20996E+01 2.25230E+01 0.00000E+00
 -1      3052 4.15016E+01 2.40135E+01 0.00000E+00
 -1      3053 4.64794E+01 1.68985E+01 0.00000E+00
 -1      3054 1.40973E+02 1.27472E+01 0.00000E+00
 -1      3055 1.40973E+02 1.12847E+01 0.00000E+00
 -1      3056 1.39805E+02 1.10040E+01 0.00000E+00
 -1      3057 1.39674E+02 1.34847E+01 0.00000E+00
 -1      3058 4.54501E+01 3.66458E+01 0.00000E+00
 -1      3059 5.94642E+01 1.47621E+01 0.00000E+00
 -1      3060 6.61857E+01 2.02903E+01 0.00000E+00
 -1      3061 6.71925E+01 2.08288E+01 0.00000E+00
 -1      3062 6.66842E+01 1.92821E+01 0.00000E+00
 -1      3063 1.41192E+02 3.82207E+01 0.00000E+00
 -1      3064 6.74237E+01 3.94044E+01 0.00000E+00
 -1      3065 6.44304E+01 1.80319E+01 0.00000E+00
 -1      3066 1.39529E+02 3.85602E+01 0.00000E+00
 -1      3067 1.40542E+02 3.71145E+01 0.00000E+00
 -1      3068 1.39243E+02 3.63770E+01 0.00000E+00
 -1      3069 1.38514E+02 3.85310E+01 0.00000E+00
 -1      3070 6.66221E+01 2.30974E+01 0.00000E+00
 -1      3071 4.31467E+01 2.88605E+01 0.00000E+00
 -1      3072 4.24742E+01 2.83165E+01 0.00000E+00
 -1      3073 4.26727E+01 2.95845E+01 0.00000E+00
 -1      3074 5.52411E+01 3.91952E+01 0.00000E+00
 -1      3075 4.88432E+01 1.51605E+01 0.00000E+00
 -1      3076 4.33103E+01 3.14573E+01 0.00000E+00
 -1      3077 1.09635E+01 1.04636E+01 0.00000E+00
 -1      3078 5.42649E+01 1.45377E+01 0.00000E+00
 -1      3079 4.47771E+01 1.90172E+01 0.00000E+00
 -1      3080 9.09300E+00 2.86437E+01 0.00000E+00
 -1      3081 9.09300E+00 3.01187E+01 0.00000E+00
 -1      3082 1.03920E+01 3.08563E+01 0.00000E+00
 -1      3083 1.03920E+01 2.79188E+01 0.00000E+00
 -1      3084 5.70031E+01 1.44748E+01 0.00000E+00
 -1      3085 5.76714E+01 1.36705E+01 0.00000E+00
 -1      3086 5.63813E+01 1.39835E+01 0.00000E+00
 -1      3087 6.74943E+01 2.81058E+01 0.00000E+00
 -1      3088 6.72184E+01 3.07615E+01 0.00000E+00
 -1      3089 1.16910E+01 1.24625E+01 0.00000E+00
 -1      3090 1.16910E+01 1.39375E+01 0.00000E+00
 -1      3091 5.08414E+01 1.34166E+01 0.00000E+00
 -1      3092 5.21358E+01 1.33701E+01 0.00000E+00
 -1      3093 6.74065E+01 3.32902E+01 0.00000E+00
 -1      3094 6.67498E+01 3.44824E+01 0.00000E+00
 -1      3095 1.89000E+01 3.83090E+01 0.00000E+00
 -1      3096 2.04000E+01 3.83090E+01 0.00000E+00
 -1      3097 2.19000E+01 3.83090E+01 0.00000E+00
 -1      3098 2.34000E+01 3.83090E+01 0.00000E+00
 -1      3099 2.11500E+01 3.70100E+01 0.00000E+00
 -1      3100 2.49000E+01 3.83090E+01 0.00000E+00
 -1      3101 2.64000E+01 3.83090E+01 0.00000E+00
 -1      3102 2.41500E+01 3.70100E+01 0.00000E+00
 -1      3103 2.79000E+01 3.83090E+01 0.00000E+00
 -1      3104 2.94000E+01 3.83090E+01 0.00000E+00
 -1      3105 2.71500E+01 3.70100E+01 0.00000E+00
 -1      3106 3.09000E+01 3.83090E+01 0.00000E+00
 -1      3107 3.24000E+01 3.83090E+01 0.00000E+00
 -1      3108 3.01500E+01 3.70100E+01 0.00000E+00
 -1      3109 3.39000E+01 3.83090E+01 0.00000E+00
 -1      3110 3.54000E+01 3.83090E+01 0.00000E+00
 -1      3111 3.31500E+01 3.70100E+01 0.00000E+00
 -1      3112 3.69000E+01 3.83090E+01 0.00000E+00
 -1      3113 3.84000E+01 3.83090E+01 0.00000E+00
 -1      3114 3.61500E+01 3.70100E+01 0.00000E+00
 -1      3115 3.99000E+01 3.83090E+01 0.00000E+00
 -1      3116 4.14000E+01 3.83090E+01 0.00000E+00
 -1      3117 3.91500E+01 3.70100E+01 0.00000E+00
 -1      3118 1.29000E+01 3.83090E+01 0.00000E+00
 -1      3119 1.44000E+01 3.83090E+01 0.00000E+00
 -1      3120 7.29000E+01 3.83090E+01 0.00000E+00
 -1      3121 7.44000E+01 3.83090E+01 0.00000E+00
 -1      3122 7.59000E+01 3.83090E+01 0.00000E+00
 -1      3123 7.74000E+01 3.83090E+01 0.00000E+00
 -1      3124 7.51500E+01 3.70100E+01 0.00000E+00
 -1      3125 7.89000E+01 3.83090E+01 0.00000E+00
 -1      3126 8.04000E+01 3.83090E+01 0.00000E+00
 -1      3127 7.81500E+01 3.70100E+01 0.00000E+00
 -1      3128 8.19000E+01 3.83090E+01 0.00000E+00
 -1      3129 8.34000E+01 3.83090E+01 0.00000E+00
 -1      3130 8.11500E+01 3.70100E+01 0.00000E+00
 -1      3131 8.49000E+01 3.83090E+01 0.00000E+00
 -1      3132 8.64000E+01 3.83090E+01 0.00000E+00
 -1      3133 8.41500E+01 3.70100E+01 0.00000E+00
 -1      3134 8.79000E+01 3.83090E+01 0.00000E+00
 -1      3135 8.94000E+01 3.83090E+01 0.00000E+00
 -1      3136 8.71500E+01 3.70100E+01 0.00000E+00
 -1      3137 9.09000E+01 3.83090E+01 0.00000E+00
 -1      3138 9.24000E+01 3.83090E+01 0.00000E+00
 -1      3139 9.01500E+01 3.70100E+01 0.00000E+00
 -1      3140 9.39000E+01 3.83090E+01 0.00000E+00
 -1      3141 9.54000E+01 3.83090E+01 0.00000E+00
 -1      3142 9.31500E+01 3.70100E+01 0.00000E+00
 -1      3143 9.69000E+01 3.83090E+01 0.00000E+00
 -1      3144 9.84000E+01 3.83090E+01 0.00000E+00
 -1      3145 9.61500E+01 3.70100E+01 0.00000E+00
 -1      3146 9.99000E+01 3.83090E+01 0.00000E+00
 -1      3147 1.01400E+02 3.83090E+01 0.00000E+00
 -1      3148 9.91500E+01 3.70100E+01 0.00000E+00
 -1      3149 1.02900E+02 3.83090E+01 0.00000E+00
 -1      3150 1.04400E+02 3.83090E+01 0.00000E+00
 -1      3151 1.02150E+02 3.70100E+01 0.00000E+00
 -1      3152 1.05900E+02 3.83090E+01 0.00000E+00
 -1      3153 1.07400E+02 3.83090E+01 0.00000E+00
 -1      3154 1.05150E+02 3.70100E+01 0.00000E+00
 -1      3155 1.08900E+02 3.83090E+01 0.00000E+00
 -1      3156 1.10400E+02 3.83090E+01 0.00000E+00
 -1      3157 1.08150E+02 3.70100E+01 0.00000E+00
 -1      3158 1.11900E+02 3.83090E+01 0.00000E+00
 -1      3159 1.13400E+02 3.83090E+01 0.00000E+00
 -1      3160 1.11150E+02 3.70100E+01 0.00000E+00
 -1      3161 1.14900E+02 3.83090E+01 0.00000E+00
 -1      3162 1.16400E+02 3.83090E+01 0.00000E+00
 -1      3163 1.14150E+02 3.70100E+01 0.00000E+00
 -1      3164 1.17900E+02 3.83090E+01 0.00000E+00
 -1      3165 1.19400E+02 3.83090E+01 0.00000E+00
 -1      3166 1.17150E+02 3.70100E+01 0.00000E+00
 -1      3167 1.20900E+02 3.83090E+01 0.00000E+00
 -1      3168 1.22400E+02 3.83090E+01 0.00000E+00
 -1      3169 1.20150E+02 3.70100E+01 0.00000E+00
 -1      3170 1.23900E+02 3.83090E+01 0.00000E+00
 -1      3171 1.25400E+02 3.83090E+01 0.00000E+00
 -1      3172 1.23150E+02 3.70100E+01 0.00000E+00
 -1      3173 1.26900E+02 3.83090E+01 0.00000E+00
 -1      3174 1.28400E+02 3.83090E+01 0.00000E+00
 -1      3175 1.26150E+02 3.70100E+01 0.00000E+00
 -1      3176 1.29900E+02 3.83090E+01 0.00000E+00
 -1      3177 1.31400E+02 3.83090E+01 0.00000E+00
 -1      3178 1.29150E+02 3.70100E+01 0.00000E+00
 -1      3179 1.32900E+02 3.83090E+01 0.00000E+00
 -1      3180 1.34400E+02 3.83090E+01 0.00000E+00
 -1      3181 1.32150E+02 3.70100E+01 0.00000E+00
 -1      3182 1.35707E+02 3.84200E+01 0.00000E+00
 -1      3183 1.37207E+02 3.84200E+01 0.00000E+00
 -1      3184 1.37572E+02 3.73430E+01 0.00000E+00
 -1      3185 1.34957E+02 3.71210E+01 0.00000E+00
 -1      3186 2.27850E+01 1.05013E+01 0.00000E+00
 -1      3187 2.12850E+01 1.05013E+01 0.00000E+00
 -1      3188 4.72298E+01 3.88305E+01 0.00000E+00
 -1      3189 3.47850E+01 1.05013E+01 0.00000E+00
 -1      3190 3.32850E+01 1.05013E+01 0.00000E+00
 -1      3191 3.17850E+01 1.05013E+01 0.00000E+00
 -1      3192 3.02850E+01 1.05013E+01 0.00000E+00
 -1      3193 3.25350E+01 1.18003E+01 0.00000E+00
 -1      3194 4.07850E+01 1.05013E+01 0.00000E+00
 -1      3195 3.92850E+01 1.05013E+01 0.00000E+00
 -1      3196 4.37850E+01 1.05013E+01 0.00000E+00
 -1      3197 4.22850E+01 1.05013E+01 0.00000E+00
 -1      3198 4.15350E+01 1.18003E+01 0.00000E+00
 -1      3199 4.67850E+01 1.05013E+01 0.00000E+00
 -1      3200 4.52850E+01 1.05013E+01 0.00000E+00
 -1      3201 4.45350E+01 1.18003E+01 0.00000E+00
 -1      3202 5.24949E+01 1.08274E+01 0.00000E+00
 -1      3203 5.09949E+01 1.08274E+01 0.00000E+00
 -1      3204 5.57850E+01 1.02274E+01 0.00000E+00
 -1      3205 5.42850E+01 1.02274E+01 0.00000E+00
 -1      3206 5.87850E+01 1.05013E+01 0.00000E+00
 -1      3207 5.72850E+01 1.05013E+01 0.00000E+00
 -1      3208 6.17850E+01 1.05013E+01 0.00000E+00
 -1      3209 6.02850E+01 1.05013E+01 0.00000E+00
 -1      3210 5.95350E+01 1.18003E+01 0.00000E+00
 -1      3211 6.47850E+01 1.05013E+01 0.00000E+00
 -1      3212 6.32850E+01 1.05013E+01 0.00000E+00
 -1      3213 6.25350E+01 1.18003E+01 0.00000E+00
 -1      3214 6.77850E+01 1.05013E+01 0.00000E+00
 -1      3215 6.62850E+01 1.05013E+01 0.00000E+00
 -1      3216 6.55350E+01 1.18003E+01 0.00000E+00
 -1      3217 7.07850E+01 1.05013E+01 0.00000E+00
 -1      3218 6.92850E+01 1.05013E+01 0.00000E+00
 -1      3219 6.85350E+01 1.18003E+01 0.00000E+00
 -1      3220 7.37850E+01 1.05013E+01 0.00000E+00
 -1      3221 7.22850E+01 1.05013E+01 0.00000E+00
 -1      3222 7.15350E+01 1.18003E+01 0.00000E+00
 -1      3223 7.67850E+01 1.05013E+01 0.00000E+00
 -1      3224 7.52850E+01 1.05013E+01 0.00000E+00
 -1      3225 7.45350E+01 1.18003E+01 0.00000E+00
 -1      3226 7.97850E+01 1.05013E+01 0.00000E+00
 -1      3227 7.82850E+01 1.05013E+01 0.00000E+00
 -1      3228 7.75350E+01 1.18003E+01 0.00000E+00
 -1      3229 8.27850E+01 1.05013E+01 0.00000E+00
 -1      3230 8.12850E+01 1.05013E+01 0.00000E+00
 -1      3231 8.05350E+01 1.18003E+01 0.00000E+00
 -1      3232 8.57850E+01 1.05013E+01 0.00000E+00
 -1      3233 8.42850E+01 1.05013E+01 0.00000E+00
 -1      3234 8.35350E+01 1.18003E+01 0.00000E+00
 -1      3235 8.87850E+01 1.05013E+01 0.00000E+00
 -1      3236 8.72850E+01 1.05013E+01 0.00000E+00
 -1      3237 8.65350E+01 1.18003E+01 0.00000E+00
 -1      3238 9.17850E+01 1.05013E+01 0.00000E+00
 -1      3239 9.02850E+01 1.05013E+01 0.00000E+00
 -1      3240 8.95350E+01 1.18003E+01 0.00000E+00
 -1      3241 9.47850E+01 1.05013E+01 0.00000E+00
 -1      3242 9.32850E+01 1.05013E+01 0.00000E+00
 -1      3243 9.25350E+01 1.18003E+01 0.00000E+00
 -1      3244 9.77850E+01 1.05013E+01 0.00000E+00
 -1      3245 9.62850E+01 1.05013E+01 0.00000E+00
 -1      3246 9.55350E+01 1.18003E+01 0.00000E+00
 -1      3247 1.00785E+02 1.05013E+01 0.00000E+00
 -1      3248 9.92850E+01 1.05013E+01 0.00000E+00
 -1      3249 9.85350E+01 1.18003E+01 0.00000E+00
 -1      3250 1.03785E+02 1.05013E+01 0.00000E+00
 -1      3251 1.02285E+02 1.05013E+01 0.00000E+00
 -1      3252 1.01535E+02 1.18003E+01 0.00000E+00
 -1      3253 1.06785E+02 1.05013E+01 0.00000E+00
 -1      3254 1.05285E+02 1.05013E+01 0.00000E+00
 -1      3255 1.04535E+02 1.18003E+01 0.00000E+00
 -1      3256 1.09785E+02 1.05013E+01 0.00000E+00
 -1      3257 1.08285E+02 1.05013E+01 0.00000E+00
 -1      3258 1.07535E+02 1.18003E+01 0.00000E+00
 -1      3259 1.12785E+02 1.05013E+01 0.00000E+00
 -1      3260 1.11285E+02 1.05013E+01 0.00000E+00
 -1      3261 1.10535E+02 1.18003E+01 0.00000E+00
 -1      3262 1.15785E+02 1.05013E+01 0.00000E+00
 -1      3263 1.14285E+02 1.05013E+01 0.00000E+00
 -1      3264 1.13535E+02 1.18003E+01 0.00000E+00
 -1      3265 1.18785E+02 1.05013E+01 0.00000E+00
 -1      3266 1.17285E+02 1.05013E+01 0.00000E+00
 -1      3267 1.16535E+02 1.18003E+01 0.00000E+00
 -1      3268 1.21785E+02 1.05013E+01 0.00000E+00
 -1      3269 1.20285E+02 1.05013E+01 0.00000E+00
 -1      3270 1.19535E+02 1.18003E+01 0.00000E+00
 -1      3271 1.24785E+02 1.05013E+01 0.00000E+00
 -1      3272 1.23285E+02 1.05013E+01 0.00000E+00
 -1      3273 1.22535E+02 1.18003E+01 0.00000E+00
 -1      3274 1.27785E+02 1.05013E+01 0.00000E+00
 -1      3275 1.26285E+02 1.05013E+01 0.00000E+00
 -1      3276 1.25535E+02 1.18003E+01 0.00000E+00
 -1      3277 1.30785E+02 1.05013E+01 0.00000E+00
 -1      3278 1.29285E+02 1.05013E+01 0.00000E+00
 -1      3279 1.28535E+02 1.18003E+01 0.00000E+00
 -1      3280 1.33785E+02 1.05013E+01 0.00000E+00
 -1      3281 1.32285E+02 1.05013E+01 0.00000E+00
 -1      3282 1.31535E+02 1.18003E+01 0.00000E+00
 -1      3283 1.36785E+02 1.05013E+01 0.00000E+00
 -1      3284 1.35285E+02 1.05013E+01 0.00000E+00
 -1      3285 1.34535E+02 1.18003E+01 0.00000E+00
 -1      3286 1.38879E+02 1.08930E+01 0.00000E+00
 -1      3287 1.37711E+02 1.06123E+01 0.00000E+00
 -1      3288 1.36961E+02 1.19113E+01 0.00000E+00
 -1      3289 1.38813E+02 1.21333E+01 0.00000E+00
 -1      3290 6.74819E+01 2.22694E+01 0.00000E+00
 -1      3291 6.74100E+01 2.35298E+01 0.00000E+00
 -1      3292 6.81978E+01 2.39622E+01 0.00000E+00
 -1      3293 1.16910E+01 2.12875E+01 0.00000E+00
 -1      3294 1.16910E+01 2.27625E+01 0.00000E+00
 -1      3295 1.97850E+01 1.05013E+01 0.00000E+00
 -1      3296 1.82850E+01 1.05013E+01 0.00000E+00
 -1      3297 2.05350E+01 1.18003E+01 0.00000E+00
 -1      3298 1.38309E+02 2.57625E+01 0.00000E+00
 -1      3299 1.38309E+02 2.42875E+01 0.00000E+00
 -1      3300 1.38309E+02 3.45625E+01 0.00000E+00
 -1      3301 1.38309E+02 3.30875E+01 0.00000E+00
 -1      3302 5.83446E+01 3.94203E+01 0.00000E+00
 -1      3303 1.38309E+02 3.16125E+01 0.00000E+00
 -1      3304 1.38309E+02 3.01375E+01 0.00000E+00
 -1      3305 1.37010E+02 3.23500E+01 0.00000E+00
 -1      3306 8.99606E+00 3.70363E+01 0.00000E+00
 -1      3307 9.02831E+00 3.82715E+01 0.00000E+00
 -1      3308 1.01012E+01 3.83715E+01 0.00000E+00
 -1      3309 1.02951E+01 3.62988E+01 0.00000E+00
 -1      3310 4.30121E+01 3.50000E+01 0.00000E+00
 -1      3311 4.25074E+01 3.38135E+01 0.00000E+00
 -1      3312 3.77850E+01 1.05013E+01 0.00000E+00
 -1      3313 3.62850E+01 1.05013E+01 0.00000E+00
 -1      3314 3.55350E+01 1.18003E+01 0.00000E+00
 -1      3315 3.85350E+01 1.18003E+01 0.00000E+00
 -1      3316 6.43565E+01 1.67129E+01 0.00000E+00
 -1      3317 6.56035E+01 1.74246E+01 0.00000E+00
 -1      3318 4.75655E+01 1.45111E+01 0.00000E+00
 -1      3319 4.89504E+01 1.37313E+01 0.00000E+00
 -1      3320 6.99000E+01 3.83090E+01 0.00000E+00
 -1      3321 7.14000E+01 3.83090E+01 0.00000E+00
 -1      3322 7.21500E+01 3.70100E+01 0.00000E+00
 -1      3323 1.59000E+01 3.83090E+01 0.00000E+00
 -1      3324 1.74000E+01 3.83090E+01 0.00000E+00
 -1      3325 1.81500E+01 3.70100E+01 0.00000E+00
 -1      3326 5.92699E+01 1.36988E+01 0.00000E+00
 -1      3327 6.04410E+01 1.42992E+01 0.00000E+00
 -1      3328 4.23388E+01 2.09898E+01 0.00000E+00
 -1      3329 4.28350E+01 2.00912E+01 0.00000E+00
 -1      3330 4.22681E+01 3.20948E+01 0.00000E+00
 -1      3331 4.23030E+01 3.07660E+01 0.00000E+00
 -1      3332 5.36797E+01 1.36088E+01 0.00000E+00
 -1      3333 5.51279E+01 1.38590E+01 0.00000E+00
 -1      3334 6.85027E+01 2.73207E+01 0.00000E+00
 -1      3335 6.86816E+01 2.85788E+01 0.00000E+00
 -1      3336 1.26488E+01 1.02017E+01 0.00000E+00
 -1      3337 1.20772E+01 1.14631E+01 0.00000E+00
 -1      3338 1.33763E+01 1.22006E+01 0.00000E+00
 -1      3339 1.41488E+01 1.02017E+01 0.00000E+00
 -1      3340 4.52728E+01 1.66449E+01 0.00000E+00
 -1      3341 4.62518E+01 1.56868E+01 0.00000E+00
 -1      3342 6.64474E+01 3.79018E+01 0.00000E+00
 -1      3343 6.81737E+01 3.81054E+01 0.00000E+00
 -1      3344 6.89237E+01 3.68064E+01 0.00000E+00
 -1      3345 6.54711E+01 3.63992E+01 0.00000E+00
 -1      3346 6.84206E+01 3.03799E+01 0.00000E+00
 -1      3347 6.79659E+01 3.17774E+01 0.00000E+00
 -1      3348 4.35583E+01 1.89305E+01 0.00000E+00
 -1      3349 4.42816E+01 1.77699E+01 0.00000E+00
 -1      3350 4.23394E+01 1.88439E+01 0.00000E+00
 -1      3351 1.38309E+02 2.86750E+01 0.00000E+00
 -1      3352 1.38309E+02 2.72250E+01 0.00000E+00
 -1      3353 1.37010E+02 2.64875E+01 0.00000E+00
 -1      3354 1.37010E+02 2.94125E+01 0.00000E+00
 -1      3355 4.58827E+01 3.88702E+01 0.00000E+00
 -1      3356 4.41837E+01 3.84958E+01 0.00000E+00
 -1      3357 4.49164E+01 3.77580E+01 0.00000E+00
 -1      3358 4.37512E+01 3.62714E+01 0.00000E+00
 -1      3359 4.26837E+01 3.84958E+01 0.00000E+00
 -1      3360 1.16910E+01 2.42375E+01 0.00000E+00
 -1      3361 1.16910E+01 2.57125E+01 0.00000E+00
 -1      3362 1.29900E+01 2.35000E+01 0.00000E+00
 -1      3363 4.13769E+01 2.15376E+01 0.00000E+00
 -1      3364 5.29987E+01 1.26914E+01 0.00000E+00
 -1      3365 4.15546E+01 2.77004E+01 0.00000E+00
 -1      3366 4.06350E+01 2.70844E+01 0.00000E+00
 -1      3367 4.10806E+01 2.84244E+01 0.00000E+00
 -1      3368 6.63238E+01 3.55731E+01 0.00000E+00
 -1      3369 6.76234E+01 3.55121E+01 0.00000E+00
 -1      3370 4.24784E+01 3.61122E+01 0.00000E+00
 -1      3371 6.15118E+01 1.42533E+01 0.00000E+00
 -1      3372 1.51500E+01 3.70100E+01 0.00000E+00
 -1      3373 5.75423E+01 1.24897E+01 0.00000E+00
 -1      3374 5.81641E+01 1.29810E+01 0.00000E+00
 -1      3375 2.87850E+01 1.05013E+01 0.00000E+00
 -1      3376 2.72850E+01 1.05013E+01 0.00000E+00
 -1      3377 2.95350E+01 1.18003E+01 0.00000E+00
 -1      3378 4.07451E+01 2.54176E+01 0.00000E+00
 -1      3379 4.11234E+01 2.47156E+01 0.00000E+00
 -1      3380 4.07595E+01 2.37727E+01 0.00000E+00
 -1      3381 4.19337E+01 3.71968E+01 0.00000E+00
 -1      3382 4.15000E+01 3.31221E+01 0.00000E+00
 -1      3383 6.86087E+01 3.29086E+01 0.00000E+00
 -1      3384 6.10948E+01 3.88342E+01 0.00000E+00
 -1      3385 1.37010E+02 2.35500E+01 0.00000E+00
 -1      3386 1.38309E+02 2.28125E+01 0.00000E+00
 -1      3387 1.38309E+02 2.13375E+01 0.00000E+00
 -1      3388 1.38309E+02 1.69188E+01 0.00000E+00
 -1      3389 1.38309E+02 1.54563E+01 0.00000E+00
 -1      3390 1.69669E+01 1.03515E+01 0.00000E+00
 -1      3391 1.54669E+01 1.03515E+01 0.00000E+00
 -1      3392 1.50806E+01 1.13509E+01 0.00000E+00
 -1      3393 1.77169E+01 1.16505E+01 0.00000E+00
 -1      3394 6.41533E+01 1.56882E+01 0.00000E+00
 -1      3395 4.97850E+01 1.05013E+01 0.00000E+00
 -1      3396 4.82850E+01 1.05013E+01 0.00000E+00
 -1      3397 5.65350E+01 1.15264E+01 0.00000E+00
 -1      3398 6.79804E+01 2.12612E+01 0.00000E+00
 -1      3399 6.87683E+01 2.16936E+01 0.00000E+00
 -1      3400 6.84789E+01 2.02530E+01 0.00000E+00
 -1      3401 1.38309E+02 1.98656E+01 0.00000E+00
 -1      3402 1.38309E+02 1.83906E+01 0.00000E+00
 -1      3403 1.37010E+02 1.76594E+01 0.00000E+00
 -1      3404 1.37010E+02 2.06031E+01 0.00000E+00
 -1      3405 6.89080E+01 2.65081E+01 0.00000E+00
 -1      3406 1.16910E+01 1.98188E+01 0.00000E+00
 -1      3407 1.29900E+01 2.05562E+01 0.00000E+00
 -1      3408 1.16910E+01 1.83500E+01 0.00000E+00
 -1      3409 6.66104E+01 1.79631E+01 0.00000E+00
 -1      3410 6.76172E+01 1.85017E+01 0.00000E+00
 -1      3411 6.65365E+01 1.66442E+01 0.00000E+00
 -1      3412 6.94290E+01 2.95947E+01 0.00000E+00
 -1      3413 7.01765E+01 3.06107E+01 0.00000E+00
 -1      3414 7.04375E+01 2.88096E+01 0.00000E+00
 -1      3415 5.57961E+01 1.30547E+01 0.00000E+00
 -1      3416 2.42850E+01 1.05013E+01 0.00000E+00
 -1      3417 2.35350E+01 1.18003E+01 0.00000E+00
 -1      3418 2.57850E+01 1.05013E+01 0.00000E+00
 -1      3419 4.16305E+01 3.02220E+01 0.00000E+00
 -1      3420 4.63590E+01 1.42576E+01 0.00000E+00
 -1      3421 4.83539E+01 1.24411E+01 0.00000E+00
 -1      3422 4.96315E+01 1.30905E+01 0.00000E+00
 -1      3423 5.02449E+01 1.21264E+01 0.00000E+00
 -1      3424 1.16910E+01 1.54094E+01 0.00000E+00
 -1      3425 1.16910E+01 1.68781E+01 0.00000E+00
 -1      3426 1.29900E+01 1.76156E+01 0.00000E+00
 -1      3427 1.29900E+01 1.46719E+01 0.00000E+00
 -1      3428 1.37758E+02 3.64912E+01 0.00000E+00
 -1      3429 1.38123E+02 3.54142E+01 0.00000E+00
 -1      3430 1.36824E+02 3.46768E+01 0.00000E+00
 -1      3431 1.36451E+02 3.63802E+01 0.00000E+00
 -1      3432 1.11741E+01 3.84716E+01 0.00000E+00
 -1      3433 1.19241E+01 3.71726E+01 0.00000E+00
 -1      3434 1.16910E+01 3.01219E+01 0.00000E+00
 -1      3435 1.16910E+01 3.15906E+01 0.00000E+00
 -1      3436 1.16910E+01 3.30594E+01 0.00000E+00
 -1      3437 1.16910E+01 3.45281E+01 0.00000E+00
 -1      3438 1.29900E+01 3.23250E+01 0.00000E+00
 -1      3439 4.40540E+01 1.65582E+01 0.00000E+00
 -1      3440 4.75350E+01 1.18003E+01 0.00000E+00
 -1      3441 4.02445E+01 2.21461E+01 0.00000E+00
 -1      3442 4.04837E+01 2.06130E+01 0.00000E+00
 -1      3443 5.60423E+01 1.22159E+01 0.00000E+00
 -1      3444 2.34000E+01 3.57110E+01 0.00000E+00
 -1      3445 2.49000E+01 3.57110E+01 0.00000E+00
 -1      3446 2.64000E+01 3.57110E+01 0.00000E+00
 -1      3447 2.79000E+01 3.57110E+01 0.00000E+00
 -1      3448 2.56500E+01 3.44120E+01 0.00000E+00
 -1      3449 2.94000E+01 3.57110E+01 0.00000E+00
 -1      3450 3.09000E+01 3.57110E+01 0.00000E+00
 -1      3451 2.86500E+01 3.44120E+01 0.00000E+00
 -1      3452 3.24000E+01 3.57110E+01 0.00000E+00
 -1      3453 3.39000E+01 3.57110E+01 0.00000E+00
 -1      3454 3.16500E+01 3.44120E+01 0.00000E+00
 -1      3455 3.54000E+01 3.57110E+01 0.00000E+00
 -1      3456 3.69000E+01 3.57110E+01 0.00000E+00
 -1      3457 3.46500E+01 3.44120E+01 0.00000E+00
 -1      3458 4.27263E+01 1.63876E+01 0.00000E+00
 -1      3459 4.37176E+01 1.52626E+01 0.00000E+00
 -1      3460 1.16910E+01 2.86531E+01 0.00000E+00
 -1      3461 1.29900E+01 2.93875E+01 0.00000E+00
 -1      3462 1.16910E+01 2.71844E+01 0.00000E+00
 -1      3463 7.74000E+01 3.57110E+01 0.00000E+00
 -1      3464 7.89000E+01 3.57110E+01 0.00000E+00
 -1      3465 8.04000E+01 3.57110E+01 0.00000E+00
 -1      3466 8.19000E+01 3.57110E+01 0.00000E+00
 -1      3467 7.96500E+01 3.44120E+01 0.00000E+00
 -1      3468 8.34000E+01 3.57110E+01 0.00000E+00
 -1      3469 8.49000E+01 3.57110E+01 0.00000E+00
 -1      3470 8.26500E+01 3.44120E+01 0.00000E+00
 -1      3471 8.64000E+01 3.57110E+01 0.00000E+00
 -1      3472 8.79000E+01 3.57110E+01 0.00000E+00
 -1      3473 8.56500E+01 3.44120E+01 0.00000E+00
 -1      3474 8.94000E+01 3.57110E+01 0.00000E+00
 -1      3475 9.09000E+01 3.57110E+01 0.00000E+00
 -1      3476 8.86500E+01 3.44120E+01 0.00000E+00
 -1      3477 9.24000E+01 3.57110E+01 0.00000E+00
 -1      3478 9.39000E+01 3.57110E+01 0.00000E+00
 -1      3479 9.16500E+01 3.44120E+01 0.00000E+00
 -1      3480 9.54000E+01 3.57110E+01 0.00000E+00
 -1      3481 9.69000E+01 3.57110E+01 0.00000E+00
 -1      3482 9.46500E+01 3.44120E+01 0.00000E+00
 -1      3483 9.84000E+01 3.57110E+01 0.00000E+00
 -1      3484 9.99000E+01 3.57110E+01 0.00000E+00
 -1      3485 9.76500E+01 3.44120E+01 0.00000E+00
 -1      3486 1.01400E+02 3.57110E+01 0.00000E+00
 -1      3487 1.02900E+02 3.57110E+01 0.00000E+00
 -1      3488 1.00650E+02 3.44120E+01 0.00000E+00
 -1      3489 1.04400E+02 3.57110E+01 0.00000E+00
 -1      3490 1.05900E+02 3.57110E+01 0.00000E+00
 -1      3491 1.03650E+02 3.44120E+01 0.00000E+00
 -1      3492 1.07400E+02 3.57110E+01 0.00000E+00
 -1      3493 1.08900E+02 3.57110E+01 0.00000E+00
 -1      3494 1.06650E+02 3.44120E+01 0.00000E+00
 -1      3495 1.10400E+02 3.57110E+01 0.00000E+00
 -1      3496 1.11900E+02 3.57110E+01 0.00000E+00
 -1      3497 1.09650E+02 3.44120E+01 0.00000E+00
 -1      3498 1.13400E+02 3.57110E+01 0.00000E+00
 -1      3499 1.14900E+02 3.57110E+01 0.00000E+00
 -1      3500 1.12650E+02 3.44120E+01 0.00000E+00
 -1      3501 1.16400E+02 3.57110E+01 0.00000E+00
 -1      3502 1.17900E+02 3.57110E+01 0.00000E+00
 -1      3503 1.15650E+02 3.44120E+01 0.00000E+00
 -1      3504 1.19400E+02 3.57110E+01 0.00000E+00
 -1      3505 1.20900E+02 3.57110E+01 0.00000E+00
 -1      3506 1.18650E+02 3.44120E+01 0.00000E+00
 -1      3507 1.22400E+02 3.57110E+01 0.00000E+00
 -1      3508 1.23900E+02 3.57110E+01 0.00000E+00
 -1      3509 1.21650E+02 3.44120E+01 0.00000E+00
 -1      3510 1.25400E+02 3.57110E+01 0.00000E+00
 -1      3511 1.26900E+02 3.57110E+01 0.00000E+00
 -1      3512 1.24650E+02 3.44120E+01 0.00000E+00
 -1      3513 1.28400E+02 3.57110E+01 0.00000E+00
 -1      3514 1.29900E+02 3.57110E+01 0.00000E+00
 -1      3515 1.27650E+02 3.44120E+01 0.00000E+00
 -1      3516 1.31400E+02 3.57110E+01 0.00000E+00
 -1      3517 1.32900E+02 3.57110E+01 0.00000E+00
 -1      3518 1.30650E+02 3.44120E+01 0.00000E+00
 -1      3519 3.32850E+01 1.30992E+01 0.00000E+00
 -1      3520 3.17850E+01 1.30992E+01 0.00000E+00
 -1      3521 4.11947E+01 3.59254E+01 0.00000E+00
 -1      3522 4.04384E+01 3.41459E+01 0.00000E+00
 -1      3523 4.01991E+01 3.24273E+01 0.00000E+00
 -1      3524 4.27125E+01 1.34461E+01 0.00000E+00
 -1      3525 4.12125E+01 1.34461E+01 0.00000E+00
 -1      3526 5.32449E+01 1.18526E+01 0.00000E+00
 -1      3527 6.92850E+01 1.30992E+01 0.00000E+00
 -1      3528 6.77850E+01 1.30992E+01 0.00000E+00
 -1      3529 7.22850E+01 1.30992E+01 0.00000E+00
 -1      3530 7.07850E+01 1.30992E+01 0.00000E+00
 -1      3531 7.00350E+01 1.43982E+01 0.00000E+00
 -1      3532 7.52850E+01 1.30992E+01 0.00000E+00
 -1      3533 7.37850E+01 1.30992E+01 0.00000E+00
 -1      3534 7.30350E+01 1.43982E+01 0.00000E+00
 -1      3535 7.82850E+01 1.30992E+01 0.00000E+00
 -1      3536 7.67850E+01 1.30992E+01 0.00000E+00
 -1      3537 7.60350E+01 1.43982E+01 0.00000E+00
 -1      3538 8.12850E+01 1.30992E+01 0.00000E+00
 -1      3539 7.97850E+01 1.30992E+01 0.00000E+00
 -1      3540 7.90350E+01 1.43982E+01 0.00000E+00
 -1      3541 8.42850E+01 1.30992E+01 0.00000E+00
 -1      3542 8.27850E+01 1.30992E+01 0.00000E+00
 -1      3543 8.20350E+01 1.43982E+01 0.00000E+00
 -1      3544 8.72850E+01 1.30992E+01 0.00000E+00
 -1      3545 8.57850E+01 1.30992E+01 0.00000E+00
 -1      3546 8.50350E+01 1.43982E+01 0.00000E+00
 -1      3547 9.02850E+01 1.30992E+01 0.00000E+00
 -1      3548 8.87850E+01 1.30992E+01 0.00000E+00
 -1      3549 8.80350E+01 1.43982E+01 0.00000E+00
 -1      3550 9.32850E+01 1.30992E+01 0.00000E+00
 -1      3551 9.17850E+01 1.30992E+01 0.00000E+00
 -1      3552 9.10350E+01 1.43982E+01 0.00000E+00
 -1      3553 9.62850E+01 1.30992E+01 0.00000E+00
 -1      3554 9.47850E+01 1.30992E+01 0.00000E+00
 -1      3555 9.40350E+01 1.43982E+01 0.00000E+00
 -1      3556 9.92850E+01 1.30992E+01 0.00000E+00
 -1      3557 9.77850E+01 1.30992E+01 0.00000E+00
 -1      3558 9.70350E+01 1.43982E+01 0.00000E+00
 -1      3559 1.02285E+02 1.30992E+01 0.00000E+00
 -1      3560 1.00785E+02 1.30992E+01 0.00000E+00
 -1      3561 1.00035E+02 1.43982E+01 0.00000E+00
 -1      3562 1.05285E+02 1.30992E+01 0.00000E+00
 -1      3563 1.03785E+02 1.30992E+01 0.00000E+00
 -1      3564 1.03035E+02 1.43982E+01 0.00000E+00
 -1      3565 1.08285E+02 1.30992E+01 0.00000E+00
 -1      3566 1.06785E+02 1.30992E+01 0.00000E+00
 -1      3567 1.06035E+02 1.43982E+01 0.00000E+00
 -1      3568 1.11285E+02 1.30992E+01 0.00000E+00
 -1      3569 1.09785E+02 1.30992E+01 0.00000E+00
 -1      3570 1.09035E+02 1.43982E+01 0.00000E+00
 -1      3571 1.14285E+02 1.30992E+01 0.00000E+00
 -1      3572 1.12785E+02 1.30992E+01 0.00000E+00
 -1      3573 1.12035E+02 1.43982E+01 0.00000E+00
 -1      3574 1.17285E+02 1.30992E+01 0.00000E+00
 -1      3575 1.15785E+02 1.30992E+01 0.00000E+00
 -1      3576 1.15035E+02 1.43982E+01 0.00000E+00
 -1      3577 1.20285E+02 1.30992E+01 0.00000E+00
 -1      3578 1.18785E+02 1.30992E+01 0.00000E+00
 -1      3579 1.18035E+02 1.43982E+01 0.00000E+00
 -1      3580 1.23285E+02 1.30992E+01 0.00000E+00
 -1      3581 1.21785E+02 1.30992E+01 0.00000E+00
 -1      3582 1.21035E+02 1.43982E+01 0.00000E+00
 -1      3583 1.26285E+02 1.30992E+01 0.00000E+00
 -1      3584 1.24785E+02 1.30992E+01 0.00000E+00
 -1      3585 1.24035E+02 1.43982E+01 0.00000E+00
 -1      3586 1.29285E+02 1.30992E+01 0.00000E+00
 -1      3587 1.27785E+02 1.30992E+01 0.00000E+00
 -1      3588 1.27035E+02 1.43982E+01 0.00000E+00
 -1      3589 1.32285E+02 1.30992E+01 0.00000E+00
 -1      3590 1.30785E+02 1.30992E+01 0.00000E+00
 -1      3591 1.30035E+02 1.43982E+01 0.00000E+00
 -1      3592 1.35285E+02 1.30992E+01 0.00000E+00
 -1      3593 1.33785E+02 1.30992E+01 0.00000E+00
 -1      3594 1.33035E+02 1.43982E+01 0.00000E+00
 -1      3595 2.12850E+01 1.30992E+01 0.00000E+00
 -1      3596 1.97850E+01 1.30992E+01 0.00000E+00
 -1      3597 6.34060E+01 1.35355E+01 0.00000E+00
 -1      3598 6.47823E+01 1.39530E+01 0.00000E+00
 -1      3599 1.38528E+02 1.44149E+01 0.00000E+00
 -1      3600 1.38594E+02 1.31746E+01 0.00000E+00
 -1      3601 1.37668E+02 1.30636E+01 0.00000E+00
 -1      3602 1.37229E+02 1.51462E+01 0.00000E+00
 -1      3603 1.20210E+01 3.61362E+01 0.00000E+00
 -1      3604 1.33200E+01 3.54019E+01 0.00000E+00
 -1      3605 5.98446E+01 3.93365E+01 0.00000E+00
 -1      3606 7.00071E+01 3.25659E+01 0.00000E+00
 -1      3607 6.94478E+01 3.40786E+01 0.00000E+00
 -1      3608 6.62823E+01 1.39530E+01 0.00000E+00
 -1      3609 1.35711E+02 3.30875E+01 0.00000E+00
 -1      3610 1.35711E+02 3.16125E+01 0.00000E+00
 -1      3611 4.68539E+01 1.24411E+01 0.00000E+00
 -1      3612 6.93212E+01 2.53761E+01 0.00000E+00
 -1      3613 7.01032E+01 2.66616E+01 0.00000E+00
 -1      3614 7.07481E+01 3.53729E+01 0.00000E+00
 -1      3615 7.22481E+01 3.53729E+01 0.00000E+00
 -1      3616 5.91408E+01 1.25181E+01 0.00000E+00
 -1      3617 7.44000E+01 3.57110E+01 0.00000E+00
 -1      3618 7.59000E+01 3.57110E+01 0.00000E+00
 -1      3619 7.66500E+01 3.44120E+01 0.00000E+00
 -1      3620 4.03412E+01 3.07874E+01 0.00000E+00
 -1      3621 4.07109E+01 2.96059E+01 0.00000E+00
 -1      3622 3.97913E+01 2.89899E+01 0.00000E+00
 -1      3623 1.74000E+01 3.57110E+01 0.00000E+00
 -1      3624 1.89000E+01 3.57110E+01 0.00000E+00
 -1      3625 4.55401E+01 1.36167E+01 0.00000E+00
 -1      3626 2.04000E+01 3.57110E+01 0.00000E+00
 -1      3627 2.19000E+01 3.57110E+01 0.00000E+00
 -1      3628 2.26500E+01 3.44120E+01 0.00000E+00
 -1      3629 1.46100E+01 3.55564E+01 0.00000E+00
 -1      3630 1.61100E+01 3.55564E+01 0.00000E+00
 -1      3631 1.68600E+01 3.42574E+01 0.00000E+00
 -1      3632 1.42800E+01 3.39483E+01 0.00000E+00
 -1      3633 6.94649E+01 2.28553E+01 0.00000E+00
 -1      3634 6.93931E+01 2.41157E+01 0.00000E+00
 -1      3635 7.05883E+01 2.42692E+01 0.00000E+00
 -1      3636 6.93497E+01 3.57157E+01 0.00000E+00
 -1      3637 4.10366E+01 1.88377E+01 0.00000E+00
 -1      3638 4.17599E+01 1.76770E+01 0.00000E+00
 -1      3639 3.98937E+01 3.52305E+01 0.00000E+00
 -1      3640 6.06408E+01 1.25181E+01 0.00000E+00
 -1      3641 4.40401E+01 1.36167E+01 0.00000E+00
 -1      3642 1.96500E+01 3.44120E+01 0.00000E+00
 -1      3643 5.47888E+01 1.20913E+01 0.00000E+00
 -1      3644 3.02850E+01 1.30992E+01 0.00000E+00
 -1      3645 2.87850E+01 1.30992E+01 0.00000E+00
 -1      3646 3.10350E+01 1.43982E+01 0.00000E+00
 -1      3647 2.65350E+01 1.18003E+01 0.00000E+00
 -1      3648 4.02711E+01 2.61415E+01 0.00000E+00
 -1      3649 3.99072E+01 2.51987E+01 0.00000E+00
 -1      3650 3.97971E+01 2.68655E+01 0.00000E+00
 -1      3651 4.14236E+01 1.63814E+01 0.00000E+00
 -1      3652 3.83937E+01 3.52305E+01 0.00000E+00
 -1      3653 1.42890E+01 2.86531E+01 0.00000E+00
 -1      3654 1.42890E+01 3.01219E+01 0.00000E+00
 -1      3655 1.29900E+01 2.64469E+01 0.00000E+00
 -1      3656 1.84669E+01 1.29495E+01 0.00000E+00
 -1      3657 1.71488E+01 1.27997E+01 0.00000E+00
 -1      3658 1.92169E+01 1.42485E+01 0.00000E+00
 -1      3659 1.35711E+02 2.42875E+01 0.00000E+00
 -1      3660 1.35711E+02 2.28125E+01 0.00000E+00
 -1      3661 3.47850E+01 1.30992E+01 0.00000E+00
 -1      3662 3.40350E+01 1.43982E+01 0.00000E+00
 -1      3663 3.62850E+01 1.30992E+01 0.00000E+00
 -1      3664 1.34022E+02 3.59901E+01 0.00000E+00
 -1      3665 1.35329E+02 3.61011E+01 0.00000E+00
 -1      3666 1.35515E+02 3.52494E+01 0.00000E+00
 -1      3667 1.33272E+02 3.46911E+01 0.00000E+00
 -1      3668 4.05680E+01 1.49138E+01 0.00000E+00
 -1      3669 3.93905E+01 1.32679E+01 0.00000E+00
 -1      3670 3.78905E+01 1.32679E+01 0.00000E+00
 -1      3671 3.96016E+01 1.62032E+01 0.00000E+00
 -1      3672 3.94879E+01 2.35502E+01 0.00000E+00
 -1      3673 3.98662E+01 2.28482E+01 0.00000E+00
 -1      3674 3.89729E+01 2.19236E+01 0.00000E+00
 -1      3675 3.87717E+01 2.00548E+01 0.00000E+00
 -1      3676 3.99042E+01 1.94462E+01 0.00000E+00
 -1      3677 3.93247E+01 1.82794E+01 0.00000E+00
 -1      3678 3.76437E+01 3.39315E+01 0.00000E+00
 -1      3679 6.84051E+01 1.89341E+01 0.00000E+00
 -1      3680 6.91929E+01 1.93665E+01 0.00000E+00
 -1      3681 6.83312E+01 1.76152E+01 0.00000E+00
 -1      3682 2.27850E+01 1.30992E+01 0.00000E+00
 -1      3683 2.20350E+01 1.43982E+01 0.00000E+00
 -1      3684 2.42850E+01 1.30992E+01 0.00000E+00
 -1      3685 1.36742E+02 1.29526E+01 0.00000E+00
 -1      3686 1.34412E+02 3.08875E+01 0.00000E+00
 -1      3687 1.35711E+02 3.01500E+01 0.00000E+00
 -1      3688 1.35711E+02 2.86875E+01 0.00000E+00
 -1      3689 1.35773E+02 1.52929E+01 0.00000E+00
 -1      3690 1.35992E+02 1.42516E+01 0.00000E+00
 -1      3691 6.70323E+01 1.52520E+01 0.00000E+00
 -1      3692 6.80392E+01 1.57905E+01 0.00000E+00
 -1      3693 7.10155E+01 3.17807E+01 0.00000E+00
 -1      3694 7.18545E+01 3.29507E+01 0.00000E+00
 -1      3695 7.20239E+01 3.09955E+01 0.00000E+00
 -1      3696 3.92795E+01 3.18112E+01 0.00000E+00
 -1      3697 6.19060E+01 1.35355E+01 0.00000E+00
 -1      3698 7.29981E+01 3.40739E+01 0.00000E+00
 -1      3699 6.99635E+01 2.18471E+01 0.00000E+00
 -1      3700 1.42890E+01 1.39359E+01 0.00000E+00
 -1      3701 1.42890E+01 1.54078E+01 0.00000E+00
 -1      3702 1.35711E+02 2.57500E+01 0.00000E+00
 -1      3703 1.34412E+02 2.50125E+01 0.00000E+00
 -1      3704 1.35711E+02 2.72125E+01 0.00000E+00
 -1      3705 1.35630E+02 1.67929E+01 0.00000E+00
 -1      3706 1.34393E+02 1.58983E+01 0.00000E+00
 -1      3707 1.42845E+01 3.13007E+01 0.00000E+00
 -1      3708 1.42845E+01 3.27695E+01 0.00000E+00
 -1      3709 1.55745E+01 3.29240E+01 0.00000E+00
 -1      3710 1.55835E+01 3.05663E+01 0.00000E+00
 -1      3711 1.35630E+02 1.82648E+01 0.00000E+00
 -1      3712 1.35702E+02 3.43976E+01 0.00000E+00
 -1      3713 7.11941E+01 2.64184E+01 0.00000E+00
 -1      3714 7.07809E+01 2.75504E+01 0.00000E+00
 -1      3715 7.15283E+01 2.85664E+01 0.00000E+00
 -1      3716 1.42890E+01 1.98219E+01 0.00000E+00
 -1      3717 1.42890E+01 2.12906E+01 0.00000E+00
 -1      3718 1.42890E+01 2.27656E+01 0.00000E+00
 -1      3719 1.42890E+01 2.42406E+01 0.00000E+00
 -1      3720 1.55880E+01 2.20313E+01 0.00000E+00
 -1      3721 1.34403E+02 3.36601E+01 0.00000E+00
 -1      3722 2.79000E+01 3.31130E+01 0.00000E+00
 -1      3723 2.94000E+01 3.31130E+01 0.00000E+00
 -1      3724 3.09000E+01 3.31130E+01 0.00000E+00
 -1      3725 3.24000E+01 3.31130E+01 0.00000E+00
 -1      3726 3.01500E+01 3.18140E+01 0.00000E+00
 -1      3727 3.39000E+01 3.31130E+01 0.00000E+00
 -1      3728 3.54000E+01 3.31130E+01 0.00000E+00
 -1      3729 3.31500E+01 3.18140E+01 0.00000E+00
 -1      3730 1.42890E+01 2.57109E+01 0.00000E+00
 -1      3731 1.42890E+01 2.71828E+01 0.00000E+00
 -1      3732 1.55880E+01 2.79172E+01 0.00000E+00
 -1      3733 1.55880E+01 2.49766E+01 0.00000E+00
 -1      3734 3.85481E+01 2.92495E+01 0.00000E+00
 -1      3735 3.89178E+01 2.80680E+01 0.00000E+00
 -1      3736 2.72850E+01 1.30992E+01 0.00000E+00
 -1      3737 2.57850E+01 1.30992E+01 0.00000E+00
 -1      3738 2.50350E+01 1.43982E+01 0.00000E+00
 -1      3739 8.19000E+01 3.31130E+01 0.00000E+00
 -1      3740 8.34000E+01 3.31130E+01 0.00000E+00
 -1      3741 8.49000E+01 3.31130E+01 0.00000E+00
 -1      3742 8.64000E+01 3.31130E+01 0.00000E+00
 -1      3743 8.41500E+01 3.18140E+01 0.00000E+00
 -1      3744 8.79000E+01 3.31130E+01 0.00000E+00
 -1      3745 8.94000E+01 3.31130E+01 0.00000E+00
 -1      3746 8.71500E+01 3.18140E+01 0.00000E+00
 -1      3747 9.09000E+01 3.31130E+01 0.00000E+00
 -1      3748 9.24000E+01 3.31130E+01 0.00000E+00
 -1      3749 9.01500E+01 3.18140E+01 0.00000E+00
 -1      3750 9.39000E+01 3.31130E+01 0.00000E+00
 -1      3751 9.54000E+01 3.31130E+01 0.00000E+00
 -1      3752 9.31500E+01 3.18140E+01 0.00000E+00
 -1      3753 9.69000E+01 3.31130E+01 0.00000E+00
 -1      3754 9.84000E+01 3.31130E+01 0.00000E+00
 -1      3755 9.61500E+01 3.18140E+01 0.00000E+00
 -1      3756 9.99000E+01 3.31130E+01 0.00000E+00
 -1      3757 1.01400E+02 3.31130E+01 0.00000E+00
 -1      3758 9.91500E+01 3.18140E+01 0.00000E+00
 -1      3759 1.02900E+02 3.31130E+01 0.00000E+00
 -1      3760 1.04400E+02 3.31130E+01 0.00000E+00
 -1      3761 1.02150E+02 3.18140E+01 0.00000E+00
 -1      3762 1.05900E+02 3.31130E+01 0.00000E+00
 -1      3763 1.07400E+02 3.31130E+01 0.00000E+00
 -1      3764 1.05150E+02 3.18140E+01 0.00000E+00
 -1      3765 1.08900E+02 3.31130E+01 0.00000E+00
 -1      3766 1.10400E+02 3.31130E+01 0.00000E+00
 -1      3767 1.08150E+02 3.18140E+01 0.00000E+00
 -1      3768 1.11900E+02 3.31130E+01 0.00000E+00
 -1      3769 1.13400E+02 3.31130E+01 0.00000E+00
 -1      3770 1.11150E+02 3.18140E+01 0.00000E+00
 -1      3771 1.14900E+02 3.31130E+01 0.00000E+00
 -1      3772 1.16400E+02 3.31130E+01 0.00000E+00
 -1      3773 1.14150E+02 3.18140E+01 0.00000E+00
 -1      3774 1.17900E+02 3.31130E+01 0.00000E+00
 -1      3775 1.19400E+02 3.31130E+01 0.00000E+00
 -1      3776 1.17150E+02 3.18140E+01 0.00000E+00
 -1      3777 1.20900E+02 3.31130E+01 0.00000E+00
 -1      3778 1.22400E+02 3.31130E+01 0.00000E+00
 -1      3779 1.20150E+02 3.18140E+01 0.00000E+00
 -1      3780 1.23900E+02 3.31130E+01 0.00000E+00
 -1      3781 1.25400E+02 3.31130E+01 0.00000E+00
 -1      3782 1.23150E+02 3.18140E+01 0.00000E+00
 -1      3783 1.26900E+02 3.31130E+01 0.00000E+00
 -1      3784 1.28400E+02 3.31130E+01 0.00000E+00
 -1      3785 1.26150E+02 3.18140E+01 0.00000E+00
 -1      3786 1.29900E+02 3.31130E+01 0.00000E+00
 -1      3787 1.31400E+02 3.31130E+01 0.00000E+00
 -1      3788 1.29150E+02 3.18140E+01 0.00000E+00
 -1      3789 1.33281E+02 3.33810E+01 0.00000E+00
 -1      3790 1.42890E+01 1.68789E+01 0.00000E+00
 -1      3791 1.42890E+01 1.83508E+01 0.00000E+00
 -1      3792 1.55880E+01 1.90852E+01 0.00000E+00
 -1      3793 1.55880E+01 1.61430E+01 0.00000E+00
 -1      3794 7.37850E+01 1.56973E+01 0.00000E+00
 -1      3795 7.22850E+01 1.56973E+01 0.00000E+00
 -1      3796 7.97850E+01 1.56973E+01 0.00000E+00
 -1      3797 7.82850E+01 1.56973E+01 0.00000E+00
 -1      3798 8.27850E+01 1.56973E+01 0.00000E+00
 -1      3799 8.12850E+01 1.56973E+01 0.00000E+00
 -1      3800 8.05350E+01 1.69963E+01 0.00000E+00
 -1      3801 8.57850E+01 1.56973E+01 0.00000E+00
 -1      3802 8.42850E+01 1.56973E+01 0.00000E+00
 -1      3803 8.35350E+01 1.69963E+01 0.00000E+00
 -1      3804 8.87850E+01 1.56973E+01 0.00000E+00
 -1      3805 8.72850E+01 1.56973E+01 0.00000E+00
 -1      3806 8.65350E+01 1.69963E+01 0.00000E+00
 -1      3807 9.17850E+01 1.56973E+01 0.00000E+00
 -1      3808 9.02850E+01 1.56973E+01 0.00000E+00
 -1      3809 8.95350E+01 1.69963E+01 0.00000E+00
 -1      3810 9.47850E+01 1.56973E+01 0.00000E+00
 -1      3811 9.32850E+01 1.56973E+01 0.00000E+00
 -1      3812 9.25350E+01 1.69963E+01 0.00000E+00
 -1      3813 9.77850E+01 1.56973E+01 0.00000E+00
 -1      3814 9.62850E+01 1.56973E+01 0.00000E+00
 -1      3815 9.55350E+01 1.69963E+01 0.00000E+00
 -1      3816 1.00785E+02 1.56973E+01 0.00000E+00
 -1      3817 9.92850E+01 1.56973E+01 0.00000E+00
 -1      3818 9.85350E+01 1.69963E+01 0.00000E+00
 -1      3819 1.03785E+02 1.56973E+01 0.00000E+00
 -1      3820 1.02285E+02 1.56973E+01 0.00000E+00
 -1      3821 1.01535E+02 1.69963E+01 0.00000E+00
 -1      3822 1.06785E+02 1.56973E+01 0.00000E+00
 -1      3823 1.05285E+02 1.56973E+01 0.00000E+00
 -1      3824 1.04535E+02 1.69963E+01 0.00000E+00
 -1      3825 1.09785E+02 1.56973E+01 0.00000E+00
 -1      3826 1.08285E+02 1.56973E+01 0.00000E+00
 -1      3827 1.07535E+02 1.69963E+01 0.00000E+00
 -1      3828 1.12785E+02 1.56973E+01 0.00000E+00
 -1      3829 1.11285E+02 1.56973E+01 0.00000E+00
 -1      3830 1.10535E+02 1.69963E+01 0.00000E+00
 -1      3831 1.15785E+02 1.56973E+01 0.00000E+00
 -1      3832 1.14285E+02 1.56973E+01 0.00000E+00
 -1      3833 1.13535E+02 1.69963E+01 0.00000E+00
 -1      3834 1.18785E+02 1.56973E+01 0.00000E+00
 -1      3835 1.17285E+02 1.56973E+01 0.00000E+00
 -1      3836 1.16535E+02 1.69963E+01 0.00000E+00
 -1      3837 1.21785E+02 1.56973E+01 0.00000E+00
 -1      3838 1.20285E+02 1.56973E+01 0.00000E+00
 -1      3839 1.19535E+02 1.69963E+01 0.00000E+00
 -1      3840 1.24785E+02 1.56973E+01 0.00000E+00
 -1      3841 1.23285E+02 1.56973E+01 0.00000E+00
 -1      3842 1.22535E+02 1.69963E+01 0.00000E+00
 -1      3843 1.27785E+02 1.56973E+01 0.00000E+00
 -1      3844 1.26285E+02 1.56973E+01 0.00000E+00
 -1      3845 1.25535E+02 1.69963E+01 0.00000E+00
 -1      3846 1.30785E+02 1.56973E+01 0.00000E+00
 -1      3847 1.29285E+02 1.56973E+01 0.00000E+00
 -1      3848 1.28535E+02 1.69963E+01 0.00000E+00
 -1      3849 1.32893E+02 1.58983E+01 0.00000E+00
 -1      3850 1.34412E+02 2.20781E+01 0.00000E+00
 -1      3851 1.35711E+02 2.13406E+01 0.00000E+00
 -1      3852 1.35711E+02 1.98687E+01 0.00000E+00
 -1      3853 3.80249E+01 3.24104E+01 0.00000E+00
 -1      3854 3.81669E+01 3.07706E+01 0.00000E+00
 -1      3855 3.72935E+01 2.98487E+01 0.00000E+00
 -1      3856 3.65312E+01 3.28909E+01 0.00000E+00
 -1      3857 6.94310E+01 1.53106E+01 0.00000E+00
 -1      3858 6.89352E+01 1.67028E+01 0.00000E+00
 -1      3859 6.97231E+01 1.71352E+01 0.00000E+00
 -1      3860 7.09310E+01 1.53106E+01 0.00000E+00
 -1      3861 2.19000E+01 3.31130E+01 0.00000E+00
 -1      3862 2.34000E+01 3.31130E+01 0.00000E+00
 -1      3863 7.89000E+01 3.31130E+01 0.00000E+00
 -1      3864 8.04000E+01 3.31130E+01 0.00000E+00
 -1      3865 8.11500E+01 3.18140E+01 0.00000E+00
 -1      3866 1.46944E+01 1.23503E+01 0.00000E+00
 -1      3867 1.59934E+01 1.30863E+01 0.00000E+00
 -1      3868 7.06380E+01 2.06528E+01 0.00000E+00
 -1      3869 7.13347E+01 2.18145E+01 0.00000E+00
 -1      3870 7.59000E+01 3.31130E+01 0.00000E+00
 -1      3871 7.74000E+01 3.31130E+01 0.00000E+00
 -1      3872 7.81500E+01 3.18140E+01 0.00000E+00
 -1      3873 7.67850E+01 1.56973E+01 0.00000E+00
 -1      3874 7.52850E+01 1.56973E+01 0.00000E+00
 -1      3875 7.45350E+01 1.69963E+01 0.00000E+00
 -1      3876 7.75350E+01 1.69963E+01 0.00000E+00
 -1      3877 1.89000E+01 3.31130E+01 0.00000E+00
 -1      3878 2.04000E+01 3.31130E+01 0.00000E+00
 -1      3879 2.11500E+01 3.18140E+01 0.00000E+00
 -1      3880 2.49000E+01 3.31130E+01 0.00000E+00
 -1      3881 2.64000E+01 3.31130E+01 0.00000E+00
 -1      3882 2.41500E+01 3.18140E+01 0.00000E+00
 -1      3883 1.34331E+02 1.90023E+01 0.00000E+00
 -1      3884 7.27699E+01 2.82286E+01 0.00000E+00
 -1      3885 7.24264E+01 2.94878E+01 0.00000E+00
 -1      3886 7.16704E+01 2.53525E+01 0.00000E+00
 -1      3887 7.23481E+01 2.62412E+01 0.00000E+00
 -1      3888 7.40065E+01 3.32888E+01 0.00000E+00
 -1      3889 7.17423E+01 2.40920E+01 0.00000E+00
 -1      3890 1.67434E+01 1.43853E+01 0.00000E+00
 -1      3891 1.32531E+02 3.20820E+01 0.00000E+00
 -1      3892 1.32143E+02 1.71973E+01 0.00000E+00
 -1      3893 3.17850E+01 1.56973E+01 0.00000E+00
 -1      3894 3.02850E+01 1.56973E+01 0.00000E+00
 -1      3895 1.65923E+01 3.29412E+01 0.00000E+00
 -1      3896 1.78822E+01 3.30958E+01 0.00000E+00
 -1      3897 1.86322E+01 3.17968E+01 0.00000E+00
 -1      3898 1.65968E+01 3.17624E+01 0.00000E+00
 -1      3899 3.85539E+01 2.71251E+01 0.00000E+00
 -1      3900 1.68870E+01 2.71820E+01 0.00000E+00
 -1      3901 1.68870E+01 2.86523E+01 0.00000E+00
 -1      3902 3.71405E+01 1.45669E+01 0.00000E+00
 -1      3903 7.16810E+01 1.66096E+01 0.00000E+00
 -1      3904 2.80350E+01 1.43982E+01 0.00000E+00
 -1      3905 1.97293E+01 1.56141E+01 0.00000E+00
 -1      3906 1.84111E+01 1.54643E+01 0.00000E+00
 -1      3907 2.71500E+01 3.18140E+01 0.00000E+00
 -1      3908 3.47850E+01 1.56973E+01 0.00000E+00
 -1      3909 3.32850E+01 1.56973E+01 0.00000E+00
 -1      3910 3.25350E+01 1.69963E+01 0.00000E+00
 -1      3911 7.32655E+01 3.06577E+01 0.00000E+00
 -1      3912 7.47565E+01 3.19898E+01 0.00000E+00
 -1      3913 1.32223E+02 1.88013E+01 0.00000E+00
 -1      3914 1.30116E+02 1.86002E+01 0.00000E+00
 -1      3915 1.32304E+02 2.04052E+01 0.00000E+00
 -1      3916 7.05641E+01 1.93339E+01 0.00000E+00
 -1      3917 1.32304E+02 2.33490E+01 0.00000E+00
 -1      3918 1.32304E+02 2.18771E+01 0.00000E+00
 -1      3919 1.30197E+02 2.16761E+01 0.00000E+00
 -1      3920 3.57812E+01 3.15919E+01 0.00000E+00
 -1      3921 1.68870E+01 1.83496E+01 0.00000E+00
 -1      3922 1.68870E+01 1.98207E+01 0.00000E+00
 -1      3923 1.32531E+02 3.06195E+01 0.00000E+00
 -1      3924 7.24168E+01 2.28978E+01 0.00000E+00
 -1      3925 7.34990E+01 2.39810E+01 0.00000E+00
 -1      3926 7.30913E+01 2.17035E+01 0.00000E+00
 -1      3927 1.34412E+02 2.79500E+01 0.00000E+00
 -1      3928 3.80152E+01 2.14588E+01 0.00000E+00
 -1      3929 3.83934E+01 2.07568E+01 0.00000E+00
 -1      3930 3.78140E+01 1.95900E+01 0.00000E+00
 -1      3931 1.81860E+01 2.05602E+01 0.00000E+00
 -1      3932 1.68870E+01 2.12957E+01 0.00000E+00
 -1      3933 1.68870E+01 2.27707E+01 0.00000E+00
 -1      3934 3.84692E+01 1.68117E+01 0.00000E+00
 -1      3935 3.85399E+01 2.49981E+01 0.00000E+00
 -1      3936 3.90139E+01 2.42741E+01 0.00000E+00
 -1      3937 3.81206E+01 2.33496E+01 0.00000E+00
 -1      3938 1.66012E+01 3.05835E+01 0.00000E+00
 -1      3939 1.79002E+01 2.98484E+01 0.00000E+00
 -1      3940 1.32304E+02 2.62740E+01 0.00000E+00
 -1      3941 1.32304E+02 2.48115E+01 0.00000E+00
 -1      3942 1.30197E+02 2.46104E+01 0.00000E+00
 -1      3943 2.27293E+01 1.56141E+01 0.00000E+00
 -1      3944 2.12293E+01 1.56141E+01 0.00000E+00
 -1      3945 2.04235E+01 1.68299E+01 0.00000E+00
 -1      3946 1.72558E+01 1.57509E+01 0.00000E+00
 -1      3947 7.32462E+01 2.71626E+01 0.00000E+00
 -1      3948 7.41443E+01 2.80840E+01 0.00000E+00
 -1      3949 7.37226E+01 2.60967E+01 0.00000E+00
 -1      3950 1.72558E+01 1.72220E+01 0.00000E+00
 -1      3951 1.68870E+01 2.57117E+01 0.00000E+00
 -1      3952 1.81860E+01 2.64469E+01 0.00000E+00
 -1      3953 1.68870E+01 2.42414E+01 0.00000E+00
 -1      3954 3.68636E+01 1.66431E+01 0.00000E+00
 -1      3955 3.24000E+01 3.05150E+01 0.00000E+00
 -1      3956 3.39000E+01 3.05150E+01 0.00000E+00
 -1      3957 3.61136E+01 1.79421E+01 0.00000E+00
 -1      3958 2.64000E+01 3.05150E+01 0.00000E+00
 -1      3959 2.79000E+01 3.05150E+01 0.00000E+00
 -1      3960 2.34000E+01 3.05150E+01 0.00000E+00
 -1      3961 2.49000E+01 3.05150E+01 0.00000E+00
 -1      3962 2.56500E+01 2.92160E+01 0.00000E+00
 -1      3963 2.57293E+01 1.56141E+01 0.00000E+00
 -1      3964 2.42293E+01 1.56141E+01 0.00000E+00
 -1      3965 2.34235E+01 1.68299E+01 0.00000E+00
 -1      3966 8.64000E+01 3.05150E+01 0.00000E+00
 -1      3967 8.79000E+01 3.05150E+01 0.00000E+00
 -1      3968 8.94000E+01 3.05150E+01 0.00000E+00
 -1      3969 9.09000E+01 3.05150E+01 0.00000E+00
 -1      3970 8.86500E+01 2.92160E+01 0.00000E+00
 -1      3971 9.24000E+01 3.05150E+01 0.00000E+00
 -1      3972 9.39000E+01 3.05150E+01 0.00000E+00
 -1      3973 9.16500E+01 2.92160E+01 0.00000E+00
 -1      3974 9.54000E+01 3.05150E+01 0.00000E+00
 -1      3975 9.69000E+01 3.05150E+01 0.00000E+00
 -1      3976 9.46500E+01 2.92160E+01 0.00000E+00
 -1      3977 9.84000E+01 3.05150E+01 0.00000E+00
 -1      3978 9.99000E+01 3.05150E+01 0.00000E+00
 -1      3979 9.76500E+01 2.92160E+01 0.00000E+00
 -1      3980 1.01400E+02 3.05150E+01 0.00000E+00
 -1      3981 1.02900E+02 3.05150E+01 0.00000E+00
 -1      3982 1.00650E+02 2.92160E+01 0.00000E+00
 -1      3983 1.04400E+02 3.05150E+01 0.00000E+00
 -1      3984 1.05900E+02 3.05150E+01 0.00000E+00
 -1      3985 1.03650E+02 2.92160E+01 0.00000E+00
 -1      3986 1.07400E+02 3.05150E+01 0.00000E+00
 -1      3987 1.08900E+02 3.05150E+01 0.00000E+00
 -1      3988 1.06650E+02 2.92160E+01 0.00000E+00
 -1      3989 1.10400E+02 3.05150E+01 0.00000E+00
 -1      3990 1.11900E+02 3.05150E+01 0.00000E+00
 -1      3991 1.09650E+02 2.92160E+01 0.00000E+00
 -1      3992 1.13400E+02 3.05150E+01 0.00000E+00
 -1      3993 1.14900E+02 3.05150E+01 0.00000E+00
 -1      3994 1.12650E+02 2.92160E+01 0.00000E+00
 -1      3995 1.16400E+02 3.05150E+01 0.00000E+00
 -1      3996 1.17900E+02 3.05150E+01 0.00000E+00
 -1      3997 1.15650E+02 2.92160E+01 0.00000E+00
 -1      3998 1.19400E+02 3.05150E+01 0.00000E+00
 -1      3999 1.20900E+02 3.05150E+01 0.00000E+00
 -1      4000 1.18650E+02 2.92160E+01 0.00000E+00
 -1      4001 1.22400E+02 3.05150E+01 0.00000E+00
 -1      4002 1.23900E+02 3.05150E+01 0.00000E+00
 -1      4003 1.21650E+02 2.92160E+01 0.00000E+00
 -1      4004 1.25400E+02 3.05150E+01 0.00000E+00
 -1      4005 1.26900E+02 3.05150E+01 0.00000E+00
 -1      4006 1.24650E+02 2.92160E+01 0.00000E+00
 -1      4007 1.28400E+02 3.05150E+01 0.00000E+00
 -1      4008 1.29900E+02 3.05150E+01 0.00000E+00
 -1      4009 1.27650E+02 2.92160E+01 0.00000E+00
 -1      4010 8.72850E+01 1.82952E+01 0.00000E+00
 -1      4011 8.57850E+01 1.82952E+01 0.00000E+00
 -1      4012 8.42850E+01 1.82952E+01 0.00000E+00
 -1      4013 8.27850E+01 1.82952E+01 0.00000E+00
 -1      4014 8.50350E+01 1.95942E+01 0.00000E+00
 -1      4015 2.04000E+01 3.05150E+01 0.00000E+00
 -1      4016 2.19000E+01 3.05150E+01 0.00000E+00
 -1      4017 2.26500E+01 2.92160E+01 0.00000E+00
 -1      4018 3.50312E+01 3.02929E+01 0.00000E+00
 -1      4019 3.61623E+01 3.00708E+01 0.00000E+00
 -1      4020 3.42812E+01 2.89939E+01 0.00000E+00
 -1      4021 8.12850E+01 1.82952E+01 0.00000E+00
 -1      4022 7.97850E+01 1.82952E+01 0.00000E+00
 -1      4023 8.20350E+01 1.95942E+01 0.00000E+00
 -1      4024 9.02850E+01 1.82952E+01 0.00000E+00
 -1      4025 8.87850E+01 1.82952E+01 0.00000E+00
 -1      4026 8.80350E+01 1.95942E+01 0.00000E+00
 -1      4027 9.32850E+01 1.82952E+01 0.00000E+00
 -1      4028 9.17850E+01 1.82952E+01 0.00000E+00
 -1      4029 9.10350E+01 1.95942E+01 0.00000E+00
 -1      4030 9.62850E+01 1.82952E+01 0.00000E+00
 -1      4031 9.47850E+01 1.82952E+01 0.00000E+00
 -1      4032 9.40350E+01 1.95942E+01 0.00000E+00
 -1      4033 9.92850E+01 1.82952E+01 0.00000E+00
 -1      4034 9.77850E+01 1.82952E+01 0.00000E+00
 -1      4035 9.70350E+01 1.95942E+01 0.00000E+00
 -1      4036 1.02285E+02 1.82952E+01 0.00000E+00
 -1      4037 1.00785E+02 1.82952E+01 0.00000E+00
 -1      4038 1.00035E+02 1.95942E+01 0.00000E+00
 -1      4039 1.05285E+02 1.82952E+01 0.00000E+00
 -1      4040 1.03785E+02 1.82952E+01 0.00000E+00
 -1      4041 1.03035E+02 1.95942E+01 0.00000E+00
 -1      4042 1.08285E+02 1.82952E+01 0.00000E+00
 -1      4043 1.06785E+02 1.82952E+01 0.00000E+00
 -1      4044 1.06035E+02 1.95942E+01 0.00000E+00
 -1      4045 1.11285E+02 1.82952E+01 0.00000E+00
 -1      4046 1.09785E+02 1.82952E+01 0.00000E+00
 -1      4047 1.09035E+02 1.95942E+01 0.00000E+00
 -1      4048 1.14285E+02 1.82952E+01 0.00000E+00
 -1      4049 1.12785E+02 1.82952E+01 0.00000E+00
 -1      4050 1.12035E+02 1.95942E+01 0.00000E+00
 -1      4051 1.17285E+02 1.82952E+01 0.00000E+00
 -1      4052 1.15785E+02 1.82952E+01 0.00000E+00
 -1      4053 1.15035E+02 1.95942E+01 0.00000E+00
 -1      4054 1.20285E+02 1.82952E+01 0.00000E+00
 -1      4055 1.18785E+02 1.82952E+01 0.00000E+00
 -1      4056 1.18035E+02 1.95942E+01 0.00000E+00
 -1      4057 1.23285E+02 1.82952E+01 0.00000E+00
 -1      4058 1.21785E+02 1.82952E+01 0.00000E+00
 -1      4059 1.21035E+02 1.95942E+01 0.00000E+00
 -1      4060 1.26285E+02 1.82952E+01 0.00000E+00
 -1      4061 1.24785E+02 1.82952E+01 0.00000E+00
 -1      4062 1.24035E+02 1.95942E+01 0.00000E+00
 -1      4063 1.28950E+02 1.84477E+01 0.00000E+00
 -1      4064 1.27450E+02 1.84477E+01 0.00000E+00
 -1      4065 1.26700E+02 1.97467E+01 0.00000E+00
 -1      4066 1.29031E+02 2.00517E+01 0.00000E+00
 -1      4067 7.51590E+01 3.04820E+01 0.00000E+00
 -1      4068 2.95350E+01 1.69963E+01 0.00000E+00
 -1      4069 2.87850E+01 1.56973E+01 0.00000E+00
 -1      4070 2.72850E+01 1.56973E+01 0.00000E+00
 -1      4071 1.85548E+01 1.79575E+01 0.00000E+00
 -1      4072 1.31781E+02 2.93205E+01 0.00000E+00
 -1      4073 3.65435E+01 2.85497E+01 0.00000E+00
 -1      4074 3.71021E+01 2.73751E+01 0.00000E+00
 -1      4075 3.79813E+01 2.61727E+01 0.00000E+00
 -1      4076 3.70881E+01 2.52481E+01 0.00000E+00
 -1      4077 3.59709E+01 2.75972E+01 0.00000E+00
 -1      4078 8.04000E+01 3.05150E+01 0.00000E+00
 -1      4079 8.19000E+01 3.05150E+01 0.00000E+00
 -1      4080 8.34000E+01 3.05150E+01 0.00000E+00
 -1      4081 8.49000E+01 3.05150E+01 0.00000E+00
 -1      4082 8.56500E+01 2.92160E+01 0.00000E+00
 -1      4083 8.26500E+01 2.92160E+01 0.00000E+00
 -1      4084 7.74000E+01 3.05150E+01 0.00000E+00
 -1      4085 7.89000E+01 3.05150E+01 0.00000E+00
 -1      4086 7.96500E+01 2.92160E+01 0.00000E+00
 -1      4087 2.00548E+01 1.79575E+01 0.00000E+00
 -1      4088 1.96860E+01 1.90852E+01 0.00000E+00
 -1      4089 2.15548E+01 1.79575E+01 0.00000E+00
 -1      4090 7.59090E+01 2.91830E+01 0.00000E+00
 -1      4091 2.94000E+01 3.05150E+01 0.00000E+00
 -1      4092 3.09000E+01 3.05150E+01 0.00000E+00
 -1      4093 3.16500E+01 2.92160E+01 0.00000E+00
 -1      4094 1.89180E+01 2.98656E+01 0.00000E+00
 -1      4095 1.96680E+01 2.85666E+01 0.00000E+00
 -1      4096 1.81860E+01 2.35059E+01 0.00000E+00
 -1      4097 2.86500E+01 2.92160E+01 0.00000E+00
 -1      4098 2.64793E+01 1.69131E+01 0.00000E+00
 -1      4099 1.96680E+01 2.70963E+01 0.00000E+00
 -1      4100 2.11500E+01 2.77457E+01 0.00000E+00
 -1      4101 1.96680E+01 2.56260E+01 0.00000E+00
 -1      4102 7.63854E+01 2.81170E+01 0.00000E+00
 -1      4103 3.02850E+01 1.82952E+01 0.00000E+00
 -1      4104 2.87850E+01 1.82952E+01 0.00000E+00
 -1      4105 7.34693E+01 2.02438E+01 0.00000E+00
 -1      4106 7.45514E+01 2.13271E+01 0.00000E+00
 -1      4107 3.75412E+01 2.21828E+01 0.00000E+00
 -1      4108 3.69617E+01 2.10159E+01 0.00000E+00
 -1      4109 3.70672E+01 2.29067E+01 0.00000E+00
 -1      4110 7.54822E+01 1.84318E+01 0.00000E+00
 -1      4111 7.39822E+01 1.84318E+01 0.00000E+00
 -1      4112 1.96860E+01 2.05602E+01 0.00000E+00
 -1      4113 3.32850E+01 1.82952E+01 0.00000E+00
 -1      4114 3.17850E+01 1.82952E+01 0.00000E+00
 -1      4115 3.10350E+01 1.95942E+01 0.00000E+00
 -1      4116 7.25221E+01 1.88082E+01 0.00000E+00
 -1      4117 1.32304E+02 2.77490E+01 0.00000E+00
 -1      4118 7.83836E+01 1.83635E+01 0.00000E+00
 -1      4119 7.68836E+01 1.83635E+01 0.00000E+00
 -1      4120 7.63307E+01 1.97991E+01 0.00000E+00
 -1      4121 7.91336E+01 1.96625E+01 0.00000E+00
 -1      4122 7.10770E+01 1.75219E+01 0.00000E+00
 -1      4123 7.50716E+01 2.37081E+01 0.00000E+00
 -1      4124 7.43971E+01 2.49024E+01 0.00000E+00
 -1      4125 7.52952E+01 2.58238E+01 0.00000E+00
 -1      4126 1.29031E+02 2.29955E+01 0.00000E+00
 -1      4127 1.29031E+02 2.15236E+01 0.00000E+00
 -1      4128 1.27866E+02 2.13711E+01 0.00000E+00
 -1      4129 1.29031E+02 2.59205E+01 0.00000E+00
 -1      4130 1.29031E+02 2.44580E+01 0.00000E+00
 -1      4131 1.27866E+02 2.43055E+01 0.00000E+00
 -1      4132 1.29673E+02 2.76445E+01 0.00000E+00
 -1      4133 3.66149E+01 1.95974E+01 0.00000E+00
 -1      4134 3.45363E+01 1.86515E+01 0.00000E+00
 -1      4135 2.45548E+01 1.79575E+01 0.00000E+00
 -1      4136 2.30548E+01 1.79575E+01 0.00000E+00
 -1      4137 2.26860E+01 1.90852E+01 0.00000E+00
 -1      4138 2.49000E+01 2.79170E+01 0.00000E+00
 -1      4139 2.64000E+01 2.79170E+01 0.00000E+00
 -1      4140 3.09000E+01 2.79170E+01 0.00000E+00
 -1      4141 3.24000E+01 2.79170E+01 0.00000E+00
 -1      4142 2.22750E+01 2.78313E+01 0.00000E+00
 -1      4143 2.37750E+01 2.78313E+01 0.00000E+00
 -1      4144 2.45250E+01 2.65323E+01 0.00000E+00
 -1      4145 2.22750E+01 2.63610E+01 0.00000E+00
 -1      4146 9.09000E+01 2.79170E+01 0.00000E+00
 -1      4147 9.24000E+01 2.79170E+01 0.00000E+00
 -1      4148 9.39000E+01 2.79170E+01 0.00000E+00
 -1      4149 9.54000E+01 2.79170E+01 0.00000E+00
 -1      4150 9.31500E+01 2.66180E+01 0.00000E+00
 -1      4151 9.69000E+01 2.79170E+01 0.00000E+00
 -1      4152 9.84000E+01 2.79170E+01 0.00000E+00
 -1      4153 9.61500E+01 2.66180E+01 0.00000E+00
 -1      4154 9.99000E+01 2.79170E+01 0.00000E+00
 -1      4155 1.01400E+02 2.79170E+01 0.00000E+00
 -1      4156 9.91500E+01 2.66180E+01 0.00000E+00
 -1      4157 1.02900E+02 2.79170E+01 0.00000E+00
 -1      4158 1.04400E+02 2.79170E+01 0.00000E+00
 -1      4159 1.02150E+02 2.66180E+01 0.00000E+00
 -1      4160 1.05900E+02 2.79170E+01 0.00000E+00
 -1      4161 1.07400E+02 2.79170E+01 0.00000E+00
 -1      4162 1.05150E+02 2.66180E+01 0.00000E+00
 -1      4163 1.08900E+02 2.79170E+01 0.00000E+00
 -1      4164 1.10400E+02 2.79170E+01 0.00000E+00
 -1      4165 1.08150E+02 2.66180E+01 0.00000E+00
 -1      4166 1.11900E+02 2.79170E+01 0.00000E+00
 -1      4167 1.13400E+02 2.79170E+01 0.00000E+00
 -1      4168 1.11150E+02 2.66180E+01 0.00000E+00
 -1      4169 1.14900E+02 2.79170E+01 0.00000E+00
 -1      4170 1.16400E+02 2.79170E+01 0.00000E+00
 -1      4171 1.14150E+02 2.66180E+01 0.00000E+00
 -1      4172 1.17900E+02 2.79170E+01 0.00000E+00
 -1      4173 1.19400E+02 2.79170E+01 0.00000E+00
 -1      4174 1.17150E+02 2.66180E+01 0.00000E+00
 -1      4175 1.20900E+02 2.79170E+01 0.00000E+00
 -1      4176 1.22400E+02 2.79170E+01 0.00000E+00
 -1      4177 1.20150E+02 2.66180E+01 0.00000E+00
 -1      4178 1.23900E+02 2.79170E+01 0.00000E+00
 -1      4179 1.25400E+02 2.79170E+01 0.00000E+00
 -1      4180 1.23150E+02 2.66180E+01 0.00000E+00
 -1      4181 1.27008E+02 2.74920E+01 0.00000E+00
 -1      4182 1.28508E+02 2.74920E+01 0.00000E+00
 -1      4183 9.17850E+01 2.08932E+01 0.00000E+00
 -1      4184 9.02850E+01 2.08932E+01 0.00000E+00
 -1      4185 8.87850E+01 2.08932E+01 0.00000E+00
 -1      4186 8.72850E+01 2.08932E+01 0.00000E+00
 -1      4187 8.95350E+01 2.21922E+01 0.00000E+00
 -1      4188 7.65903E+01 2.69704E+01 0.00000E+00
 -1      4189 7.83549E+01 2.80694E+01 0.00000E+00
 -1      4190 7.98549E+01 2.80694E+01 0.00000E+00
 -1      4191 7.72648E+01 2.57761E+01 0.00000E+00
 -1      4192 1.96680E+01 2.26846E+01 0.00000E+00
 -1      4193 1.96680E+01 2.41553E+01 0.00000E+00
 -1      4194 2.11500E+01 2.48047E+01 0.00000E+00
 -1      4195 3.36199E+01 2.78682E+01 0.00000E+00
 -1      4196 3.47510E+01 2.76461E+01 0.00000E+00
 -1      4197 3.53096E+01 2.64715E+01 0.00000E+00
 -1      4198 3.28699E+01 2.65692E+01 0.00000E+00
 -1      4199 8.27850E+01 2.08932E+01 0.00000E+00
 -1      4200 8.12850E+01 2.08932E+01 0.00000E+00
 -1      4201 9.47850E+01 2.08932E+01 0.00000E+00
 -1      4202 9.32850E+01 2.08932E+01 0.00000E+00
 -1      4203 9.25350E+01 2.21922E+01 0.00000E+00
 -1      4204 9.77850E+01 2.08932E+01 0.00000E+00
 -1      4205 9.62850E+01 2.08932E+01 0.00000E+00
 -1      4206 9.55350E+01 2.21922E+01 0.00000E+00
 -1      4207 1.00785E+02 2.08932E+01 0.00000E+00
 -1      4208 9.92850E+01 2.08932E+01 0.00000E+00
 -1      4209 9.85350E+01 2.21922E+01 0.00000E+00
 -1      4210 1.03785E+02 2.08932E+01 0.00000E+00
 -1      4211 1.02285E+02 2.08932E+01 0.00000E+00
 -1      4212 1.01535E+02 2.21922E+01 0.00000E+00
 -1      4213 1.06785E+02 2.08932E+01 0.00000E+00
 -1      4214 1.05285E+02 2.08932E+01 0.00000E+00
 -1      4215 1.04535E+02 2.21922E+01 0.00000E+00
 -1      4216 1.09785E+02 2.08932E+01 0.00000E+00
 -1      4217 1.08285E+02 2.08932E+01 0.00000E+00
 -1      4218 1.07535E+02 2.21922E+01 0.00000E+00
 -1      4219 1.12785E+02 2.08932E+01 0.00000E+00
 -1      4220 1.11285E+02 2.08932E+01 0.00000E+00
 -1      4221 1.10535E+02 2.21922E+01 0.00000E+00
 -1      4222 1.15785E+02 2.08932E+01 0.00000E+00
 -1      4223 1.14285E+02 2.08932E+01 0.00000E+00
 -1      4224 1.13535E+02 2.21922E+01 0.00000E+00
 -1      4225 1.18785E+02 2.08932E+01 0.00000E+00
 -1      4226 1.17285E+02 2.08932E+01 0.00000E+00
 -1      4227 1.16535E+02 2.21922E+01 0.00000E+00
 -1      4228 1.21785E+02 2.08932E+01 0.00000E+00
 -1      4229 1.20285E+02 2.08932E+01 0.00000E+00
 -1      4230 1.19535E+02 2.21922E+01 0.00000E+00
 -1      4231 1.24785E+02 2.08932E+01 0.00000E+00
 -1      4232 1.23285E+02 2.08932E+01 0.00000E+00
 -1      4233 1.22535E+02 2.21922E+01 0.00000E+00
 -1      4234 7.58901E+01 2.10238E+01 0.00000E+00
 -1      4235 7.55122E+01 2.24834E+01 0.00000E+00
 -1      4236 7.64103E+01 2.34048E+01 0.00000E+00
 -1      4237 7.72916E+01 2.09555E+01 0.00000E+00
 -1      4238 2.11680E+01 2.12096E+01 0.00000E+00
 -1      4239 2.79000E+01 2.79170E+01 0.00000E+00
 -1      4240 2.94000E+01 2.79170E+01 0.00000E+00
 -1      4241 2.71500E+01 2.66180E+01 0.00000E+00
 -1      4242 8.57850E+01 2.08932E+01 0.00000E+00
 -1      4243 8.42850E+01 2.08932E+01 0.00000E+00
 -1      4244 8.35350E+01 2.21922E+01 0.00000E+00
 -1      4245 8.65350E+01 2.21922E+01 0.00000E+00
 -1      4246 8.79000E+01 2.79170E+01 0.00000E+00
 -1      4247 8.94000E+01 2.79170E+01 0.00000E+00
 -1      4248 9.01500E+01 2.66180E+01 0.00000E+00
 -1      4249 3.37863E+01 1.99505E+01 0.00000E+00
 -1      4250 2.74478E+01 1.81680E+01 0.00000E+00
 -1      4251 2.58920E+01 1.80848E+01 0.00000E+00
 -1      4252 2.55233E+01 1.92124E+01 0.00000E+00
 -1      4253 2.81978E+01 1.94670E+01 0.00000E+00
 -1      4254 3.58682E+01 2.52969E+01 0.00000E+00
 -1      4255 3.64268E+01 2.41224E+01 0.00000E+00
 -1      4256 3.46483E+01 2.53458E+01 0.00000E+00
 -1      4257 2.40956E+01 2.02110E+01 0.00000E+00
 -1      4258 2.25956E+01 2.02110E+01 0.00000E+00
 -1      4259 2.25776E+01 2.23354E+01 0.00000E+00
 -1      4260 2.54329E+01 2.03383E+01 0.00000E+00
 -1      4261 3.40562E+01 2.13780E+01 0.00000E+00
 -1      4262 3.28049E+01 2.10217E+01 0.00000E+00
 -1      4263 3.58473E+01 2.29556E+01 0.00000E+00
 -1      4264 3.62366E+01 2.02994E+01 0.00000E+00
 -1      4265 1.26258E+02 2.61930E+01 0.00000E+00
 -1      4266 8.00685E+01 2.65235E+01 0.00000E+00
 -1      4267 8.13636E+01 2.76701E+01 0.00000E+00
 -1      4268 1.26908E+02 2.12084E+01 0.00000E+00
 -1      4269 1.25743E+02 2.10559E+01 0.00000E+00
 -1      4270 1.24993E+02 2.23549E+01 0.00000E+00
 -1      4271 1.26908E+02 2.26803E+01 0.00000E+00
 -1      4272 1.26583E+02 2.51679E+01 0.00000E+00
 -1      4273 1.26583E+02 2.37054E+01 0.00000E+00
 -1      4274 1.25625E+02 2.35427E+01 0.00000E+00
 -1      4275 1.24975E+02 2.55929E+01 0.00000E+00
 -1      4276 3.57626E+01 2.10234E+01 0.00000E+00
 -1      4277 8.28636E+01 2.76701E+01 0.00000E+00
 -1      4278 8.49000E+01 2.79170E+01 0.00000E+00
 -1      4279 8.64000E+01 2.79170E+01 0.00000E+00
 -1      4280 8.71500E+01 2.66180E+01 0.00000E+00
 -1      4281 3.13049E+01 2.10217E+01 0.00000E+00
 -1      4282 2.98049E+01 2.10217E+01 0.00000E+00
 -1      4283 3.15749E+01 2.24492E+01 0.00000E+00
 -1      4284 3.47813E+01 2.20946E+01 0.00000E+00
 -1      4285 7.99890E+01 2.08902E+01 0.00000E+00
 -1      4286 7.85876E+01 2.09585E+01 0.00000E+00
 -1      4287 7.81470E+01 2.21832E+01 0.00000E+00
 -1      4288 8.07390E+01 2.21892E+01 0.00000E+00
 -1      4289 3.01500E+01 2.66180E+01 0.00000E+00
 -1      4290 2.87376E+01 2.23219E+01 0.00000E+00
 -1      4291 2.84677E+01 2.08945E+01 0.00000E+00
 -1      4292 2.71304E+01 2.07672E+01 0.00000E+00
 -1      4293 3.41409E+01 2.33102E+01 0.00000E+00
 -1      4294 2.93624E+01 2.45336E+01 0.00000E+00
 -1      4295 3.08624E+01 2.45336E+01 0.00000E+00
 -1      4296 9.28425E+01 2.44051E+01 0.00000E+00
 -1      4297 9.43425E+01 2.44051E+01 0.00000E+00
 -1      4298 7.90014E+01 2.45545E+01 0.00000E+00
 -1      4299 8.05100E+01 2.41552E+01 0.00000E+00
 -1      4300 9.58425E+01 2.44051E+01 0.00000E+00
 -1      4301 9.73425E+01 2.44051E+01 0.00000E+00
 -1      4302 9.88425E+01 2.44051E+01 0.00000E+00
 -1      4303 1.00342E+02 2.44051E+01 0.00000E+00
 -1      4304 1.01842E+02 2.44051E+01 0.00000E+00
 -1      4305 1.03342E+02 2.44051E+01 0.00000E+00
 -1      4306 1.04842E+02 2.44051E+01 0.00000E+00
 -1      4307 1.06342E+02 2.44051E+01 0.00000E+00
 -1      4308 1.07842E+02 2.44051E+01 0.00000E+00
 -1      4309 1.09342E+02 2.44051E+01 0.00000E+00
 -1      4310 1.10842E+02 2.44051E+01 0.00000E+00
 -1      4311 1.12342E+02 2.44051E+01 0.00000E+00
 -1      4312 1.13842E+02 2.44051E+01 0.00000E+00
 -1      4313 1.15342E+02 2.44051E+01 0.00000E+00
 -1      4314 1.16842E+02 2.44051E+01 0.00000E+00
 -1      4315 1.18342E+02 2.44051E+01 0.00000E+00
 -1      4316 1.19842E+02 2.44051E+01 0.00000E+00
 -1      4317 1.21342E+02 2.44051E+01 0.00000E+00
 -1      4318 1.24668E+02 2.33800E+01 0.00000E+00
 -1      4319 9.13425E+01 2.44051E+01 0.00000E+00
 -1      4320 1.22842E+02 2.44051E+01 0.00000E+00
 -1      4321 8.98425E+01 2.44051E+01 0.00000E+00
 -1      4322 8.83425E+01 2.44051E+01 0.00000E+00
 -1      4323 2.65252E+01 2.44063E+01 0.00000E+00
 -1      4324 2.80252E+01 2.44063E+01 0.00000E+00
 -1      4325 3.23624E+01 2.45336E+01 0.00000E+00
 -1      4326 8.36136E+01 2.63711E+01 0.00000E+00
 -1      4327 2.24263E+01 2.36129E+01 0.00000E+00
 -1      4328 2.24263E+01 2.50836E+01 0.00000E+00
 -1      4329 2.35513E+01 2.51692E+01 0.00000E+00
 -1      4330 2.38539E+01 2.26143E+01 0.00000E+00
 -1      4331 8.68425E+01 2.44051E+01 0.00000E+00
 -1      4332 2.57028E+01 2.17658E+01 0.00000E+00
 -1      4333 2.46763E+01 2.52549E+01 0.00000E+00
 -1      4334 8.18061E+01 2.41582E+01 0.00000E+00
 -1      4335 1.23475E+02 2.55929E+01 0.00000E+00
 -1      4336 7.77063E+01 2.34079E+01 0.00000E+00
 -1      4337 8.38425E+01 2.44051E+01 0.00000E+00
 -1      4338 3.34285E+01 2.53946E+01 0.00000E+00
 -1      4339 2.55515E+01 2.30432E+01 0.00000E+00
 -1      4340 8.53425E+01 2.44051E+01 0.00000E+00
 -3
    3C                          2088                                     1
 -1       165    8    0    1
 -2         6         7        23      1127      1291      1144
 -1       166    8    0    1
 -2         7         8       165      1128      1292      1293
 -1       167    8    0    1
 -2         8         9       166      1129      1294      1295
 -1       168    8    0    1
 -2         8       166       165      1295      1296      1292
 -1       169    8    0    1
 -2         9        10       167      1130      1297      1298
 -1       170    8    0    1
 -2         9       167       166      1298      1299      1294
 -1       171    8    0    1
 -2        10        11       168      1131      1300      1301
 -1       172    8    0    1
 -2        10       168       167      1301      1302      1297
 -1       173    8    0    1
 -2        11        12       169      1132      1303      1304
 -1       174    8    0    1
 -2        11       169       168      1304      1305      1300
 -1       175    8    0    1
 -2        12        13       170      1133      1306      1307
 -1       176    8    0    1
 -2        12       170       169      1307      1308      1303
 -1       177    8    0    1
 -2        13        14       171      1134      1309      1310
 -1       178    8    0    1
 -2        13       171       170      1310      1311      1306
 -1       179    8    0    1
 -2        14        15       172      1135      1312      1313
 -1       180    8    0    1
 -2        14       172       171      1313      1314      1309
 -1       181    8    0    1
 -2        15        16       173      1136      1315      1316
 -1       182    8    0    1
 -2        15       173       172      1316      1317      1312
 -1       183    8    0    1
 -2        16        17       174      1137      1318      1319
 -1       184    8    0    1
 -2        16       174       173      1319      1320      1315
 -1       185    8    0    1
 -2        17        18       175      1138      1321      1322
 -1       186    8    0    1
 -2        17       175       174      1322      1323      1318
 -1       187    8    0    1
 -2        18        19       176      1139      1324      1325
 -1       188    8    0    1
 -2        18       176       175      1325      1326      1321
 -1       189    8    0    1
 -2        19        20       177      1140      1327      1328
 -1       190    8    0    1
 -2        19       177       176      1328      1329      1324
 -1       191    8    0    1
 -2        20        21       178      1141      1330      1331
 -1       192    8    0    1
 -2        20       178       177      1331      1332      1327
 -1       193    8    0    1
 -2        21        22       179      1142      1333      1334
 -1       194    8    0    1
 -2        21       179       178      1334      1335      1330
 -1       195    8    0    1
 -2        22         5       180      1143      1336      1337
 -1       196    8    0    1
 -2       179        22       180      1333      1337      1338
 -1       197    8    0    1
 -2         5        72       180      1194      1339      1336
 -1       198    8    0    1
 -2        24        23       181      1145      1340      1341
 -1       199    8    0    1
 -2        25        24       182      1146      1342      1343
 -1       200    8    0    1
 -2        24       181       182      1341      1344      1342
 -1       201    8    0    1
 -2        26        25       183      1147      1345      1346
 -1       202    8    0    1
 -2        25       182       183      1343      1347      1345
 -1       203    8    0    1
 -2        27        26       184      1148      1348      1349
 -1       204    8    0    1
 -2        26       183       184      1346      1350      1348
 -1       205    8    0    1
 -2        28        27       185      1149      1351      1352
 -1       206    8    0    1
 -2        27       184       185      1349      1353      1351
 -1       207    8    0    1
 -2        29        28       186      1150      1354      1355
 -1       208    8    0    1
 -2        28       185       186      1352      1356      1354
 -1       209    8    0    1
 -2        30        29       187      1151      1357      1358
 -1       210    8    0    1
 -2        29       186       187      1355      1359      1357
 -1       211    8    0    1
 -2        31        30       188      1152      1360      1361
 -1       212    8    0    1
 -2        30       187       188      1358      1362      1360
 -1       213    8    0    1
 -2        32        31       189      1153      1363      1364
 -1       214    8    0    1
 -2        31       188       189      1361      1365      1363
 -1       215    8    0    1
 -2        33        32       190      1154      1366      1367
 -1       216    8    0    1
 -2        32       189       190      1364      1368      1366
 -1       217    8    0    1
 -2        34        33       191      1155      1369      1370
 -1       218    8    0    1
 -2        33       190       191      1367      1371      1369
 -1       219    8    0    1
 -2        35        34       192      1156      1372      1373
 -1       220    8    0    1
 -2        34       191       192      1370      1374      1372
 -1       221    8    0    1
 -2        36        35       193      1157      1375      1376
 -1       222    8    0    1
 -2        35       192       193      1373      1377      1375
 -1       223    8    0    1
 -2        37        36       194      1158      1378      1379
 -1       224    8    0    1
 -2        36       193       194      1376      1380      1378
 -1       225    8    0    1
 -2        38        37       195      1159      1381      1382
 -1       226    8    0    1
 -2        37       194       195      1379      1383      1381
 -1       227    8    0    1
 -2        39        38       196      1160      1384      1385
 -1       228    8    0    1
 -2        38       195       196      1382      1386      1384
 -1       229    8    0    1
 -2        40        39       197      1161      1387      1388
 -1       230    8    0    1
 -2        39       196       197      1385      1389      1387
 -1       231    8    0    1
 -2        41        40       198      1162      1390      1391
 -1       232    8    0    1
 -2        40       197       198      1388      1392      1390
 -1       233    8    0    1
 -2        42        41       199      1163      1393      1394
 -1       234    8    0    1
 -2        41       198       199      1391      1395      1393
 -1       235    8    0    1
 -2        43        42       200      1164      1396      1397
 -1       236    8    0    1
 -2        42       199       200      1394      1398      1396
 -1       237    8    0    1
 -2        44        43       201      1165      1399      1400
 -1       238    8    0    1
 -2        43       200       201      1397      1401      1399
 -1       239    8    0    1
 -2        45        44       202      1166      1402      1403
 -1       240    8    0    1
 -2        44       201       202      1400      1404      1402
 -1       241    8    0    1
 -2        46        45       203      1167      1405      1406
 -1       242    8    0    1
 -2        45       202       203      1403      1407      1405
 -1       243    8    0    1
 -2        47        46       204      1168      1408      1409
 -1       244    8    0    1
 -2        46       203       204      1406      1410      1408
 -1       245    8    0    1
 -2        48        47       205      1169      1411      1412
 -1       246    8    0    1
 -2        47       204       205      1409      1413      1411
 -1       247    8    0    1
 -2        49        48       206      1170      1414      1415
 -1       248    8    0    1
 -2        48       205       206      1412      1416      1414
 -1       249    8    0    1
 -2        50        49       207      1171      1417      1418
 -1       250    8    0    1
 -2        49       206       207      1415      1419      1417
 -1       251    8    0    1
 -2        51        50       208      1172      1420      1421
 -1       252    8    0    1
 -2        50       207       208      1418      1422      1420
 -1       253    8    0    1
 -2        52        51       209      1173      1423      1424
 -1       254    8    0    1
 -2        51       208       209      1421      1425      1423
 -1       255    8    0    1
 -2        53        52       210      1174      1426      1427
 -1       256    8    0    1
 -2        52       209       210      1424      1428      1426
 -1       257    8    0    1
 -2        54        53       211      1175      1429      1430
 -1       258    8    0    1
 -2        53       210       211      1427      1431      1429
 -1       259    8    0    1
 -2        55        54       212      1176      1432      1433
 -1       260    8    0    1
 -2        54       211       212      1430      1434      1432
 -1       261    8    0    1
 -2        56        55       213      1177      1435      1436
 -1       262    8    0    1
 -2        55       212       213      1433      1437      1435
 -1       263    8    0    1
 -2        57        56       214      1178      1438      1439
 -1       264    8    0    1
 -2        56       213       214      1436      1440      1438
 -1       265    8    0    1
 -2        58        57       215      1179      1441      1442
 -1       266    8    0    1
 -2        57       214       215      1439      1443      1441
 -1       267    8    0    1
 -2        59        58       216      1180      1444      1445
 -1       268    8    0    1
 -2        58       215       216      1442      1446      1444
 -1       269    8    0    1
 -2        60        59       217      1181      1447      1448
 -1       270    8    0    1
 -2        59       216       217      1445      1449      1447
 -1       271    8    0    1
 -2        61        60       218      1182      1450      1451
 -1       272    8    0    1
 -2        60       217       218      1448      1452      1450
 -1       273    8    0    1
 -2        62        61       219      1183      1453      1454
 -1       274    8    0    1
 -2        61       218       219      1451      1455      1453
 -1       275    8    0    1
 -2        63        62       220      1184      1456      1457
 -1       276    8    0    1
 -2        62       219       220      1454      1458      1456
 -1       277    8    0    1
 -2        64        63       221      1185      1459      1460
 -1       278    8    0    1
 -2        63       220       221      1457      1461      1459
 -1       279    8    0    1
 -2        65        64       222      1186      1462      1463
 -1       280    8    0    1
 -2        64       221       222      1460      1464      1462
 -1       281    8    0    1
 -2        66        65       223      1187      1465      1466
 -1       282    8    0    1
 -2        65       222       223      1463      1467      1465
 -1       283    8    0    1
 -2        67        66       224      1188      1468      1469
 -1       284    8    0    1
 -2        66       223       224      1466      1470      1468
 -1       285    8    0    1
 -2        68        67       225      1189      1471      1472
 -1       286    8    0    1
 -2        67       224       225      1469      1473      1471
 -1       287    8    0    1
 -2        69        68       226      1190      1474      1475
 -1       288    8    0    1
 -2        68       225       226      1472      1476      1474
 -1       289    8    0    1
 -2        70        69       227      1191      1477      1478
 -1       290    8    0    1
 -2        69       226       227      1475      1479      1477
 -1       291    8    0    1
 -2        71        70       228      1192      1480      1481
 -1       292    8    0    1
 -2        70       227       228      1478      1482      1480
 -1       293    8    0    1
 -2         4        71       136      1193      1483      1260
 -1       294    8    0    1
 -2       136        71       228      1483      1481      1484
 -1       295    8    0    1
 -2        72        73       229      1195      1485      1486
 -1       296    8    0    1
 -2        72       229       180      1486      1487      1339
 -1       297    8    0    1
 -2        73        74       230      1196      1488      1489
 -1       298    8    0    1
 -2        73       230       229      1489      1490      1485
 -1       299    8    0    1
 -2        74        75       231      1197      1491      1492
 -1       300    8    0    1
 -2        74       231       230      1492      1493      1488
 -1       301    8    0    1
 -2        75        76       232      1198      1494      1495
 -1       302    8    0    1
 -2        75       232       231      1495      1496      1491
 -1       303    8    0    1
 -2        76        77       233      1199      1497      1498
 -1       304    8    0    1
 -2        76       233       232      1498      1499      1494
 -1       305    8    0    1
 -2        77        78       234      1200      1500      1501
 -1       306    8    0    1
 -2        77       234       233      1501      1502      1497
 -1       307    8    0    1
 -2        78        79       235      1201      1503      1504
 -1       308    8    0    1
 -2        78       235       234      1504      1505      1500
 -1       309    8    0    1
 -2        79        80       236      1202      1506      1507
 -1       310    8    0    1
 -2        79       236       235      1507      1508      1503
 -1       311    8    0    1
 -2        80        81       237      1203      1509      1510
 -1       312    8    0    1
 -2        80       237       236      1510      1511      1506
 -1       313    8    0    1
 -2        81        82       238      1204      1512      1513
 -1       314    8    0    1
 -2        81       238       237      1513      1514      1509
 -1       315    8    0    1
 -2        82        83       239      1205      1515      1516
 -1       316    8    0    1
 -2        82       239       238      1516      1517      1512
 -1       317    8    0    1
 -2        83        84       240      1206      1518      1519
 -1       318    8    0    1
 -2        83       240       239      1519      1520      1515
 -1       319    8    0    1
 -2        84        85       241      1207      1521      1522
 -1       320    8    0    1
 -2        84       241       240      1522      1523      1518
 -1       321    8    0    1
 -2        85        86       242      1208      1524      1525
 -1       322    8    0    1
 -2        85       242       241      1525      1526      1521
 -1       323    8    0    1
 -2        86        87       243      1209      1527      1528
 -1       324    8    0    1
 -2        86       243       242      1528      1529      1524
 -1       325    8    0    1
 -2        87        88       244      1210      1530      1531
 -1       326    8    0    1
 -2        87       244       243      1531      1532      1527
 -1       327    8    0    1
 -2        88        89       245      1211      1533      1534
 -1       328    8    0    1
 -2        88       245       244      1534      1535      1530
 -1       329    8    0    1
 -2        89        90       246      1212      1536      1537
 -1       330    8    0    1
 -2        89       246       245      1537      1538      1533
 -1       331    8    0    1
 -2        90        91       247      1213      1539      1540
 -1       332    8    0    1
 -2        90       247       246      1540      1541      1536
 -1       333    8    0    1
 -2        91        92       248      1214      1542      1543
 -1       334    8    0    1
 -2        91       248       247      1543      1544      1539
 -1       335    8    0    1
 -2        92        93       249      1215      1545      1546
 -1       336    8    0    1
 -2        92       249       248      1546      1547      1542
 -1       337    8    0    1
 -2        93        94       250      1216      1548      1549
 -1       338    8    0    1
 -2        93       250       249      1549      1550      1545
 -1       339    8    0    1
 -2        94        95       251      1217      1551      1552
 -1       340    8    0    1
 -2        94       251       250      1552      1553      1548
 -1       341    8    0    1
 -2        95        96       252      1218      1554      1555
 -1       342    8    0    1
 -2        95       252       251      1555      1556      1551
 -1       343    8    0    1
 -2        96        97       253      1219      1557      1558
 -1       344    8    0    1
 -2        96       253       252      1558      1559      1554
 -1       345    8    0    1
 -2        97        98       254      1220      1560      1561
 -1       346    8    0    1
 -2        97       254       253      1561      1562      1557
 -1       347    8    0    1
 -2        98        99       255      1221      1563      1564
 -1       348    8    0    1
 -2        98       255       254      1564      1565      1560
 -1       349    8    0    1
 -2        99       100       256      1222      1566      1567
 -1       350    8    0    1
 -2        99       256       255      1567      1568      1563
 -1       351    8    0    1
 -2       100       101       257      1223      1569      1570
 -1       352    8    0    1
 -2       100       257       256      1570      1571      1566
 -1       353    8    0    1
 -2       101       102       258      1224      1572      1573
 -1       354    8    0    1
 -2       101       258       257      1573      1574      1569
 -1       355    8    0    1
 -2       102       103       259      1225      1575      1576
 -1       356    8    0    1
 -2       102       259       258      1576      1577      1572
 -1       357    8    0    1
 -2       103       104       260      1226      1578      1579
 -1       358    8    0    1
 -2       103       260       259      1579      1580      1575
 -1       359    8    0    1
 -2       104       105       261      1227      1581      1582
 -1       360    8    0    1
 -2       104       261       260      1582      1583      1578
 -1       361    8    0    1
 -2       105       106       262      1228      1584      1585
 -1       362    8    0    1
 -2       105       262       261      1585      1586      1581
 -1       363    8    0    1
 -2       106       107       263      1229      1587      1588
 -1       364    8    0    1
 -2       106       263       262      1588      1589      1584
 -1       365    8    0    1
 -2       107       108       264      1230      1590      1591
 -1       366    8    0    1
 -2       107       264       263      1591      1592      1587
 -1       367    8    0    1
 -2       108       109       265      1231      1593      1594
 -1       368    8    0    1
 -2       108       265       264      1594      1595      1590
 -1       369    8    0    1
 -2       109       110       266      1232      1596      1597
 -1       370    8    0    1
 -2       109       266       265      1597      1598      1593
 -1       371    8    0    1
 -2       110       111       267      1233      1599      1600
 -1       372    8    0    1
 -2       110       267       266      1600      1601      1596
 -1       373    8    0    1
 -2       111       112       268      1234      1602      1603
 -1       374    8    0    1
 -2       111       268       267      1603      1604      1599
 -1       375    8    0    1
 -2       112       113       269      1235      1605      1606
 -1       376    8    0    1
 -2       112       269       268      1606      1607      1602
 -1       377    8    0    1
 -2       113       114       270      1236      1608      1609
 -1       378    8    0    1
 -2       113       270       269      1609      1610      1605
 -1       379    8    0    1
 -2       114       115       271      1237      1611      1612
 -1       380    8    0    1
 -2       114       271       270      1612      1613      1608
 -1       381    8    0    1
 -2       115       116       272      1238      1614      1615
 -1       382    8    0    1
 -2       115       272       271      1615      1616      1611
 -1       383    8    0    1
 -2       116       117       273      1239      1617      1618
 -1       384    8    0    1
 -2       116       273       272      1618      1619      1614
 -1       385    8    0    1
 -2       117       118       274      1240      1620      1621
 -1       386    8    0    1
 -2       117       274       273      1621      1622      1617
 -1       387    8    0    1
 -2       118       119       275      1241      1623      1624
 -1       388    8    0    1
 -2       118       275       274      1624      1625      1620
 -1       389    8    0    1
 -2       119       120       276      1242      1626      1627
 -1       390    8    0    1
 -2       119       276       275      1627      1628      1623
 -1       391    8    0    1
 -2       120         3       121      1243      1244      1629
 -1       392    8    0    1
 -2       121       122       277      1245      1630      1631
 -1       393    8    0    1
 -2       122       123       278      1246      1632      1633
 -1       394    8    0    1
 -2       122       278       277      1633      1634      1630
 -1       395    8    0    1
 -2       123       124       279      1247      1635      1636
 -1       396    8    0    1
 -2       123       279       278      1636      1637      1632
 -1       397    8    0    1
 -2       124       125       280      1248      1638      1639
 -1       398    8    0    1
 -2       124       280       279      1639      1640      1635
 -1       399    8    0    1
 -2       125       126       281      1249      1641      1642
 -1       400    8    0    1
 -2       125       281       280      1642      1643      1638
 -1       401    8    0    1
 -2       126       127       282      1250      1644      1645
 -1       402    8    0    1
 -2       126       282       281      1645      1646      1641
 -1       403    8    0    1
 -2       127       128       283      1251      1647      1648
 -1       404    8    0    1
 -2       127       283       282      1648      1649      1644
 -1       405    8    0    1
 -2       128       129       284      1252      1650      1651
 -1       406    8    0    1
 -2       128       284       283      1651      1652      1647
 -1       407    8    0    1
 -2       129       130       285      1253      1653      1654
 -1       408    8    0    1
 -2       129       285       284      1654      1655      1650
 -1       409    8    0    1
 -2       130       131       286      1254      1656      1657
 -1       410    8    0    1
 -2       130       286       285      1657      1658      1653
 -1       411    8    0    1
 -2       131       132       287      1255      1659      1660
 -1       412    8    0    1
 -2       131       287       286      1660      1661      1656
 -1       413    8    0    1
 -2       132       133       288      1256      1662      1663
 -1       414    8    0    1
 -2       132       288       287      1663      1664      1659
 -1       415    8    0    1
 -2       133       134       289      1257      1665      1666
 -1       416    8    0    1
 -2       133       289       288      1666      1667      1662
 -1       417    8    0    1
 -2       134       135       290      1258      1668      1669
 -1       418    8    0    1
 -2       134       290       289      1669      1670      1665
 -1       419    8    0    1
 -2       135       136       291      1259      1671      1672
 -1       420    8    0    1
 -2       290       135       291      1668      1672      1673
 -1       421    8    0    1
 -2       136       228       291      1484      1674      1671
 -1       422    8    0    1
 -2         2       137       292      1261      1675      1676
 -1       423    8    0    1
 -2       137       138       293      1262      1677      1678
 -1       424    8    0    1
 -2       138       139       294      1263      1679      1680
 -1       425    8    0    1
 -2       139       140       295      1264      1681      1682
 -1       426    8    0    1
 -2       140       141       296      1265      1683      1684
 -1       427    8    0    1
 -2       141       142       297      1266      1685      1686
 -1       428    8    0    1
 -2       142       143       298      1267      1687      1688
 -1       429    8    0    1
 -2       143       144       299      1268      1689      1690
 -1       430    8    0    1
 -2       144       145       300      1269      1691      1692
 -1       431    8    0    1
 -2       145       146       301      1270      1693      1694
 -1       432    8    0    1
 -2       146       147       302      1271      1695      1696
 -1       433    8    0    1
 -2       147       148       303      1272      1697      1698
 -1       434    8    0    1
 -2       148       149       304      1273      1699      1700
 -1       435    8    0    1
 -2       149       150       305      1274      1701      1702
 -1       436    8    0    1
 -2       150       151       306      1275      1703      1704
 -1       437    8    0    1
 -2       151       152       307      1276      1705      1706
 -1       438    8    0    1
 -2       152       153       308      1277      1707      1708
 -1       439    8    0    1
 -2       153       154       309      1278      1709      1710
 -1       440    8    0    1
 -2       154       155       310      1279      1711      1712
 -1       441    8    0    1
 -2       155       156       311      1280      1713      1714
 -1       442    8    0    1
 -2       156       157       312      1281      1715      1716
 -1       443    8    0    1
 -2       157         1       313      1282      1717      1718
 -1       444    8    0    1
 -2         1       158       314      1283      1719      1720
 -1       445    8    0    1
 -2       158       159       315      1284      1721      1722
 -1       446    8    0    1
 -2       159       160       316      1285      1723      1724
 -1       447    8    0    1
 -2       160       161       317      1286      1725      1726
 -1       448    8    0    1
 -2       161       162       318      1287      1727      1728
 -1       449    8    0    1
 -2       162       163       319      1288      1729      1730
 -1       450    8    0    1
 -2       163       164       320      1289      1731      1732
 -1       451    8    0    1
 -2       164         2       321      1290      1733      1734
 -1       452    8    0    1
 -2       295       140       296      1681      1684      1735
 -1       453    8    0    1
 -2       294       139       295      1679      1682      1736
 -1       454    8    0    1
 -2       120       121       276      1629      1737      1626
 -1       455    8    0    1
 -2       121       277       276      1631      1738      1737
 -1       456    8    0    1
 -2       292       137       293      1675      1678      1739
 -1       457    8    0    1
 -2       293       138       294      1677      1680      1740
 -1       458    8    0    1
 -2         2       292       321      1676      1741      1733
 -1       459    8    0    1
 -2       141       297       296      1686      1742      1683
 -1       460    8    0    1
 -2       142       298       297      1688      1743      1685
 -1       461    8    0    1
 -2       143       299       298      1690      1744      1687
 -1       462    8    0    1
 -2       144       300       299      1692      1745      1689
 -1       463    8    0    1
 -2       145       301       300      1694      1746      1691
 -1       464    8    0    1
 -2       146       302       301      1696      1747      1693
 -1       465    8    0    1
 -2       147       303       302      1698      1748      1695
 -1       466    8    0    1
 -2       148       304       303      1700      1749      1697
 -1       467    8    0    1
 -2       149       305       304      1702      1750      1699
 -1       468    8    0    1
 -2       150       306       305      1704      1751      1701
 -1       469    8    0    1
 -2       151       307       306      1706      1752      1703
 -1       470    8    0    1
 -2       152       308       307      1708      1753      1705
 -1       471    8    0    1
 -2       153       309       308      1710      1754      1707
 -1       472    8    0    1
 -2       154       310       309      1712      1755      1709
 -1       473    8    0    1
 -2       155       311       310      1714      1756      1711
 -1       474    8    0    1
 -2       156       312       311      1716      1757      1713
 -1       475    8    0    1
 -2       157       313       312      1718      1758      1715
 -1       476    8    0    1
 -2         1       314       313      1720      1759      1717
 -1       477    8    0    1
 -2       158       315       314      1722      1760      1719
 -1       478    8    0    1
 -2       159       316       315      1724      1761      1721
 -1       479    8    0    1
 -2       160       317       316      1726      1762      1723
 -1       480    8    0    1
 -2       161       318       317      1728      1763      1725
 -1       481    8    0    1
 -2       162       319       318      1730      1764      1727
 -1       482    8    0    1
 -2       163       320       319      1732      1765      1729
 -1       483    8    0    1
 -2       164       321       320      1734      1766      1731
 -1       484    8    0    1
 -2        23         7       165      1291      1293      1767
 -1       485    8    0    1
 -2       166       167       322      1299      1768      1769
 -1       486    8    0    1
 -2       165       166       323      1296      1770      1771
 -1       487    8    0    1
 -2       166       322       323      1769      1772      1770
 -1       488    8    0    1
 -2       168       169       324      1305      1773      1774
 -1       489    8    0    1
 -2       169       170       325      1308      1775      1776
 -1       490    8    0    1
 -2       169       325       324      1776      1777      1773
 -1       491    8    0    1
 -2       170       171       326      1311      1778      1779
 -1       492    8    0    1
 -2       170       326       325      1779      1780      1775
 -1       493    8    0    1
 -2       171       172       327      1314      1781      1782
 -1       494    8    0    1
 -2       171       327       326      1782      1783      1778
 -1       495    8    0    1
 -2       172       173       328      1317      1784      1785
 -1       496    8    0    1
 -2       172       328       327      1785      1786      1781
 -1       497    8    0    1
 -2       173       174       329      1320      1787      1788
 -1       498    8    0    1
 -2       173       329       328      1788      1789      1784
 -1       499    8    0    1
 -2       174       175       330      1323      1790      1791
 -1       500    8    0    1
 -2       174       330       329      1791      1792      1787
 -1       501    8    0    1
 -2       175       176       331      1326      1793      1794
 -1       502    8    0    1
 -2       175       331       330      1794      1795      1790
 -1       503    8    0    1
 -2       176       177       332      1329      1796      1797
 -1       504    8    0    1
 -2       176       332       331      1797      1798      1793
 -1       505    8    0    1
 -2       177       178       333      1332      1799      1800
 -1       506    8    0    1
 -2       177       333       332      1800      1801      1796
 -1       507    8    0    1
 -2       178       179       334      1335      1802      1803
 -1       508    8    0    1
 -2       178       334       333      1803      1804      1799
 -1       509    8    0    1
 -2       179       180       335      1338      1805      1806
 -1       510    8    0    1
 -2       334       179       335      1802      1806      1807
 -1       511    8    0    1
 -2       180       229       335      1487      1808      1805
 -1       512    8    0    1
 -2       181        23       165      1340      1767      1809
 -1       513    8    0    1
 -2       229       230       336      1490      1810      1811
 -1       514    8    0    1
 -2       229       336       335      1811      1812      1808
 -1       515    8    0    1
 -2       181       165       323      1809      1771      1813
 -1       516    8    0    1
 -2       183       182       337      1347      1814      1815
 -1       517    8    0    1
 -2       184       183       338      1350      1816      1817
 -1       518    8    0    1
 -2       183       337       338      1815      1818      1816
 -1       519    8    0    1
 -2       185       184       339      1353      1819      1820
 -1       520    8    0    1
 -2       184       338       339      1817      1821      1819
 -1       521    8    0    1
 -2       186       185       340      1356      1822      1823
 -1       522    8    0    1
 -2       185       339       340      1820      1824      1822
 -1       523    8    0    1
 -2       187       186       341      1359      1825      1826
 -1       524    8    0    1
 -2       186       340       341      1823      1827      1825
 -1       525    8    0    1
 -2       188       187       342      1362      1828      1829
 -1       526    8    0    1
 -2       187       341       342      1826      1830      1828
 -1       527    8    0    1
 -2       189       188       343      1365      1831      1832
 -1       528    8    0    1
 -2       188       342       343      1829      1833      1831
 -1       529    8    0    1
 -2       190       189       344      1368      1834      1835
 -1       530    8    0    1
 -2       189       343       344      1832      1836      1834
 -1       531    8    0    1
 -2       191       190       345      1371      1837      1838
 -1       532    8    0    1
 -2       190       344       345      1835      1839      1837
 -1       533    8    0    1
 -2       192       191       346      1374      1840      1841
 -1       534    8    0    1
 -2       191       345       346      1838      1842      1840
 -1       535    8    0    1
 -2       193       192       347      1377      1843      1844
 -1       536    8    0    1
 -2       192       346       347      1841      1845      1843
 -1       537    8    0    1
 -2       194       193       348      1380      1846      1847
 -1       538    8    0    1
 -2       193       347       348      1844      1848      1846
 -1       539    8    0    1
 -2       195       194       349      1383      1849      1850
 -1       540    8    0    1
 -2       194       348       349      1847      1851      1849
 -1       541    8    0    1
 -2       196       195       350      1386      1852      1853
 -1       542    8    0    1
 -2       195       349       350      1850      1854      1852
 -1       543    8    0    1
 -2       197       196       351      1389      1855      1856
 -1       544    8    0    1
 -2       196       350       351      1853      1857      1855
 -1       545    8    0    1
 -2       198       197       352      1392      1858      1859
 -1       546    8    0    1
 -2       197       351       352      1856      1860      1858
 -1       547    8    0    1
 -2       199       198       353      1395      1861      1862
 -1       548    8    0    1
 -2       198       352       353      1859      1863      1861
 -1       549    8    0    1
 -2       200       199       354      1398      1864      1865
 -1       550    8    0    1
 -2       199       353       354      1862      1866      1864
 -1       551    8    0    1
 -2       201       200       355      1401      1867      1868
 -1       552    8    0    1
 -2       200       354       355      1865      1869      1867
 -1       553    8    0    1
 -2       202       201       356      1404      1870      1871
 -1       554    8    0    1
 -2       201       355       356      1868      1872      1870
 -1       555    8    0    1
 -2       203       202       357      1407      1873      1874
 -1       556    8    0    1
 -2       202       356       357      1871      1875      1873
 -1       557    8    0    1
 -2       204       203       358      1410      1876      1877
 -1       558    8    0    1
 -2       203       357       358      1874      1878      1876
 -1       559    8    0    1
 -2       205       204       359      1413      1879      1880
 -1       560    8    0    1
 -2       204       358       359      1877      1881      1879
 -1       561    8    0    1
 -2       206       205       360      1416      1882      1883
 -1       562    8    0    1
 -2       205       359       360      1880      1884      1882
 -1       563    8    0    1
 -2       207       206       361      1419      1885      1886
 -1       564    8    0    1
 -2       206       360       361      1883      1887      1885
 -1       565    8    0    1
 -2       208       207       362      1422      1888      1889
 -1       566    8    0    1
 -2       207       361       362      1886      1890      1888
 -1       567    8    0    1
 -2       209       208       363      1425      1891      1892
 -1       568    8    0    1
 -2       208       362       363      1889      1893      1891
 -1       569    8    0    1
 -2       210       209       364      1428      1894      1895
 -1       570    8    0    1
 -2       209       363       364      1892      1896      1894
 -1       571    8    0    1
 -2       211       210       365      1431      1897      1898
 -1       572    8    0    1
 -2       210       364       365      1895      1899      1897
 -1       573    8    0    1
 -2       212       211       366      1434      1900      1901
 -1       574    8    0    1
 -2       211       365       366      1898      1902      1900
 -1       575    8    0    1
 -2       213       212       367      1437      1903      1904
 -1       576    8    0    1
 -2       212       366       367      1901      1905      1903
 -1       577    8    0    1
 -2       214       213       368      1440      1906      1907
 -1       578    8    0    1
 -2       213       367       368      1904      1908      1906
 -1       579    8    0    1
 -2       215       214       369      1443      1909      1910
 -1       580    8    0    1
 -2       214       368       369      1907      1911      1909
 -1       581    8    0    1
 -2       216       215       370      1446      1912      1913
 -1       582    8    0    1
 -2       215       369       370      1910      1914      1912
 -1       583    8    0    1
 -2       217       216       371      1449      1915      1916
 -1       584    8    0    1
 -2       216       370       371      1913      1917      1915
 -1       585    8    0    1
 -2       218       217       372      1452      1918      1919
 -1       586    8    0    1
 -2       217       371       372      1916      1920      1918
 -1       587    8    0    1
 -2       219       218       373      1455      1921      1922
 -1       588    8    0    1
 -2       218       372       373      1919      1923      1921
 -1       589    8    0    1
 -2       220       219       374      1458      1924      1925
 -1       590    8    0    1
 -2       219       373       374      1922      1926      1924
 -1       591    8    0    1
 -2       221       220       375      1461      1927      1928
 -1       592    8    0    1
 -2       220       374       375      1925      1929      1927
 -1       593    8    0    1
 -2       222       221       376      1464      1930      1931
 -1       594    8    0    1
 -2       221       375       376      1928      1932      1930
 -1       595    8    0    1
 -2       223       222       377      1467      1933      1934
 -1       596    8    0    1
 -2       222       376       377      1931      1935      1933
 -1       597    8    0    1
 -2       224       223       378      1470      1936      1937
 -1       598    8    0    1
 -2       223       377       378      1934      1938      1936
 -1       599    8    0    1
 -2       225       224       379      1473      1939      1940
 -1       600    8    0    1
 -2       224       378       379      1937      1941      1939
 -1       601    8    0    1
 -2       226       225       380      1476      1942      1943
 -1       602    8    0    1
 -2       225       379       380      1940      1944      1942
 -1       603    8    0    1
 -2       227       226       381      1479      1945      1946
 -1       604    8    0    1
 -2       226       380       381      1943      1947      1945
 -1       605    8    0    1
 -2       228       227       382      1482      1948      1949
 -1       606    8    0    1
 -2       291       228       382      1674      1949      1950
 -1       607    8    0    1
 -2       227       381       382      1946      1951      1948
 -1       608    8    0    1
 -2       230       231       383      1493      1952      1953
 -1       609    8    0    1
 -2       230       383       336      1953      1954      1810
 -1       610    8    0    1
 -2       231       232       384      1496      1955      1956
 -1       611    8    0    1
 -2       231       384       383      1956      1957      1952
 -1       612    8    0    1
 -2       232       233       385      1499      1958      1959
 -1       613    8    0    1
 -2       232       385       384      1959      1960      1955
 -1       614    8    0    1
 -2       233       234       386      1502      1961      1962
 -1       615    8    0    1
 -2       233       386       385      1962      1963      1958
 -1       616    8    0    1
 -2       234       235       387      1505      1964      1965
 -1       617    8    0    1
 -2       234       387       386      1965      1966      1961
 -1       618    8    0    1
 -2       235       236       388      1508      1967      1968
 -1       619    8    0    1
 -2       235       388       387      1968      1969      1964
 -1       620    8    0    1
 -2       236       237       389      1511      1970      1971
 -1       621    8    0    1
 -2       236       389       388      1971      1972      1967
 -1       622    8    0    1
 -2       237       238       390      1514      1973      1974
 -1       623    8    0    1
 -2       237       390       389      1974      1975      1970
 -1       624    8    0    1
 -2       238       239       391      1517      1976      1977
 -1       625    8    0    1
 -2       238       391       390      1977      1978      1973
 -1       626    8    0    1
 -2       239       240       392      1520      1979      1980
 -1       627    8    0    1
 -2       239       392       391      1980      1981      1976
 -1       628    8    0    1
 -2       240       241       393      1523      1982      1983
 -1       629    8    0    1
 -2       240       393       392      1983      1984      1979
 -1       630    8    0    1
 -2       241       242       394      1526      1985      1986
 -1       631    8    0    1
 -2       241       394       393      1986      1987      1982
 -1       632    8    0    1
 -2       242       243       395      1529      1988      1989
 -1       633    8    0    1
 -2       242       395       394      1989      1990      1985
 -1       634    8    0    1
 -2       243       244       396      1532      1991      1992
 -1       635    8    0    1
 -2       243       396       395      1992      1993      1988
 -1       636    8    0    1
 -2       244       245       397      1535      1994      1995
 -1       637    8    0    1
 -2       244       397       396      1995      1996      1991
 -1       638    8    0    1
 -2       245       246       398      1538      1997      1998
 -1       639    8    0    1
 -2       245       398       397      1998      1999      1994
 -1       640    8    0    1
 -2       246       247       399      1541      2000      2001
 -1       641    8    0    1
 -2       246       399       398      2001      2002      1997
 -1       642    8    0    1
 -2       247       248       400      1544      2003      2004
 -1       643    8    0    1
 -2       247       400       399      2004      2005      2000
 -1       644    8    0    1
 -2       248       249       401      1547      2006      2007
 -1       645    8    0    1
 -2       248       401       400      2007      2008      2003
 -1       646    8    0    1
 -2       249       250       402      1550      2009      2010
 -1       647    8    0    1
 -2       249       402       401      2010      2011      2006
 -1       648    8    0    1
 -2       250       251       403      1553      2012      2013
 -1       649    8    0    1
 -2       250       403       402      2013      2014      2009
 -1       650    8    0    1
 -2       251       252       404      1556      2015      2016
 -1       651    8    0    1
 -2       251       404       403      2016      2017      2012
 -1       652    8    0    1
 -2       252       253       405      1559      2018      2019
 -1       653    8    0    1
 -2       252       405       404      2019      2020      2015
 -1       654    8    0    1
 -2       253       254       406      1562      2021      2022
 -1       655    8    0    1
 -2       253       406       405      2022      2023      2018
 -1       656    8    0    1
 -2       254       255       407      1565      2024      2025
 -1       657    8    0    1
 -2       254       407       406      2025      2026      2021
 -1       658    8    0    1
 -2       255       256       408      1568      2027      2028
 -1       659    8    0    1
 -2       255       408       407      2028      2029      2024
 -1       660    8    0    1
 -2       256       257       409      1571      2030      2031
 -1       661    8    0    1
 -2       256       409       408      2031      2032      2027
 -1       662    8    0    1
 -2       257       258       410      1574      2033      2034
 -1       663    8    0    1
 -2       257       410       409      2034      2035      2030
 -1       664    8    0    1
 -2       258       259       411      1577      2036      2037
 -1       665    8    0    1
 -2       258       411       410      2037      2038      2033
 -1       666    8    0    1
 -2       259       260       412      1580      2039      2040
 -1       667    8    0    1
 -2       259       412       411      2040      2041      2036
 -1       668    8    0    1
 -2       260       261       413      1583      2042      2043
 -1       669    8    0    1
 -2       260       413       412      2043      2044      2039
 -1       670    8    0    1
 -2       261       262       414      1586      2045      2046
 -1       671    8    0    1
 -2       261       414       413      2046      2047      2042
 -1       672    8    0    1
 -2       262       263       415      1589      2048      2049
 -1       673    8    0    1
 -2       262       415       414      2049      2050      2045
 -1       674    8    0    1
 -2       263       264       416      1592      2051      2052
 -1       675    8    0    1
 -2       263       416       415      2052      2053      2048
 -1       676    8    0    1
 -2       264       265       417      1595      2054      2055
 -1       677    8    0    1
 -2       264       417       416      2055      2056      2051
 -1       678    8    0    1
 -2       265       266       418      1598      2057      2058
 -1       679    8    0    1
 -2       265       418       417      2058      2059      2054
 -1       680    8    0    1
 -2       266       267       419      1601      2060      2061
 -1       681    8    0    1
 -2       266       419       418      2061      2062      2057
 -1       682    8    0    1
 -2       267       268       420      1604      2063      2064
 -1       683    8    0    1
 -2       267       420       419      2064      2065      2060
 -1       684    8    0    1
 -2       268       269       421      1607      2066      2067
 -1       685    8    0    1
 -2       268       421       420      2067      2068      2063
 -1       686    8    0    1
 -2       269       270       422      1610      2069      2070
 -1       687    8    0    1
 -2       269       422       421      2070      2071      2066
 -1       688    8    0    1
 -2       270       271       423      1613      2072      2073
 -1       689    8    0    1
 -2       270       423       422      2073      2074      2069
 -1       690    8    0    1
 -2       271       272       424      1616      2075      2076
 -1       691    8    0    1
 -2       271       424       423      2076      2077      2072
 -1       692    8    0    1
 -2       272       273       425      1619      2078      2079
 -1       693    8    0    1
 -2       272       425       424      2079      2080      2075
 -1       694    8    0    1
 -2       273       274       426      1622      2081      2082
 -1       695    8    0    1
 -2       273       426       425      2082      2083      2078
 -1       696    8    0    1
 -2       274       275       427      1625      2084      2085
 -1       697    8    0    1
 -2       274       427       426      2085      2086      2081
 -1       698    8    0    1
 -2       275       276       428      1628      2087      2088
 -1       699    8    0    1
 -2       427       275       428      2084      2088      2089
 -1       700    8    0    1
 -2       276       277       428      1738      2090      2087
 -1       701    8    0    1
 -2       279       280       429      1640      2091      2092
 -1       702    8    0    1
 -2       278       279       430      1637      2093      2094
 -1       703    8    0    1
 -2       279       429       430      2092      2095      2093
 -1       704    8    0    1
 -2       277       278       431      1634      2096      2097
 -1       705    8    0    1
 -2       428       277       431      2090      2097      2098
 -1       706    8    0    1
 -2       278       430       431      2094      2099      2096
 -1       707    8    0    1
 -2       280       281       432      1643      2100      2101
 -1       708    8    0    1
 -2       280       432       429      2101      2102      2091
 -1       709    8    0    1
 -2       281       282       433      1646      2103      2104
 -1       710    8    0    1
 -2       281       433       432      2104      2105      2100
 -1       711    8    0    1
 -2       282       283       434      1649      2106      2107
 -1       712    8    0    1
 -2       282       434       433      2107      2108      2103
 -1       713    8    0    1
 -2       283       284       435      1652      2109      2110
 -1       714    8    0    1
 -2       283       435       434      2110      2111      2106
 -1       715    8    0    1
 -2       284       285       436      1655      2112      2113
 -1       716    8    0    1
 -2       284       436       435      2113      2114      2109
 -1       717    8    0    1
 -2       285       286       437      1658      2115      2116
 -1       718    8    0    1
 -2       285       437       436      2116      2117      2112
 -1       719    8    0    1
 -2       286       287       438      1661      2118      2119
 -1       720    8    0    1
 -2       286       438       437      2119      2120      2115
 -1       721    8    0    1
 -2       287       288       439      1664      2121      2122
 -1       722    8    0    1
 -2       287       439       438      2122      2123      2118
 -1       723    8    0    1
 -2       288       289       440      1667      2124      2125
 -1       724    8    0    1
 -2       288       440       439      2125      2126      2121
 -1       725    8    0    1
 -2       289       290       441      1670      2127      2128
 -1       726    8    0    1
 -2       289       441       440      2128      2129      2124
 -1       727    8    0    1
 -2       293       294       442      1740      2130      2131
 -1       728    8    0    1
 -2       321       292       443      1741      2132      2133
 -1       729    8    0    1
 -2       292       293       444      1739      2134      2135
 -1       730    8    0    1
 -2       292       444       443      2135      2136      2132
 -1       731    8    0    1
 -2       294       295       445      1736      2137      2138
 -1       732    8    0    1
 -2       295       296       446      1735      2139      2140
 -1       733    8    0    1
 -2       295       446       445      2140      2141      2137
 -1       734    8    0    1
 -2       167       168       447      1302      2142      2143
 -1       735    8    0    1
 -2       322       167       447      1768      2143      2144
 -1       736    8    0    1
 -2       168       324       447      1774      2145      2142
 -1       737    8    0    1
 -2       297       298       448      1743      2146      2147
 -1       738    8    0    1
 -2       298       299       449      1744      2148      2149
 -1       739    8    0    1
 -2       298       449       448      2149      2150      2146
 -1       740    8    0    1
 -2       299       300       450      1745      2151      2152
 -1       741    8    0    1
 -2       300       301       451      1746      2153      2154
 -1       742    8    0    1
 -2       301       302       452      1747      2155      2156
 -1       743    8    0    1
 -2       301       452       451      2156      2157      2153
 -1       744    8    0    1
 -2       302       303       453      1748      2158      2159
 -1       745    8    0    1
 -2       303       304       454      1749      2160      2161
 -1       746    8    0    1
 -2       304       305       455      1750      2162      2163
 -1       747    8    0    1
 -2       305       306       456      1751      2164      2165
 -1       748    8    0    1
 -2       306       307       457      1752      2166      2167
 -1       749    8    0    1
 -2       306       457       456      2167      2168      2164
 -1       750    8    0    1
 -2       307       308       458      1753      2169      2170
 -1       751    8    0    1
 -2       308       309       459      1754      2171      2172
 -1       752    8    0    1
 -2       309       310       460      1755      2173      2174
 -1       753    8    0    1
 -2       310       311       461      1756      2175      2176
 -1       754    8    0    1
 -2       311       312       462      1757      2177      2178
 -1       755    8    0    1
 -2       312       313       463      1758      2179      2180
 -1       756    8    0    1
 -2       312       463       462      2180      2181      2177
 -1       757    8    0    1
 -2       313       314       464      1759      2182      2183
 -1       758    8    0    1
 -2       314       315       465      1760      2184      2185
 -1       759    8    0    1
 -2       315       316       466      1761      2186      2187
 -1       760    8    0    1
 -2       316       317       467      1762      2188      2189
 -1       761    8    0    1
 -2       317       318       468      1763      2190      2191
 -1       762    8    0    1
 -2       318       319       469      1764      2192      2193
 -1       763    8    0    1
 -2       319       320       470      1765      2194      2195
 -1       764    8    0    1
 -2       319       470       469      2195      2196      2192
 -1       765    8    0    1
 -2       320       321       471      1766      2197      2198
 -1       766    8    0    1
 -2       296       297       472      1742      2199      2200
 -1       767    8    0    1
 -2       297       448       472      2147      2201      2199
 -1       768    8    0    1
 -2       446       296       472      2139      2200      2202
 -1       769    8    0    1
 -2       181       323       182      1813      2203      1344
 -1       770    8    0    1
 -2       302       453       452      2159      2204      2155
 -1       771    8    0    1
 -2       337       182       323      1814      2203      2205
 -1       772    8    0    1
 -2       444       293       473      2134      2206      2207
 -1       773    8    0    1
 -2       293       442       473      2131      2208      2206
 -1       774    8    0    1
 -2       294       445       442      2138      2209      2130
 -1       775    8    0    1
 -2       441       290       291      2127      1673      2210
 -1       776    8    0    1
 -2       321       443       471      2133      2211      2197
 -1       777    8    0    1
 -2       470       320       471      2194      2198      2212
 -1       778    8    0    1
 -2       468       318       469      2190      2193      2213
 -1       779    8    0    1
 -2       467       317       468      2188      2191      2214
 -1       780    8    0    1
 -2       466       316       467      2186      2189      2215
 -1       781    8    0    1
 -2       465       315       466      2184      2187      2216
 -1       782    8    0    1
 -2       463       313       464      2179      2183      2217
 -1       783    8    0    1
 -2       461       311       462      2175      2178      2218
 -1       784    8    0    1
 -2       460       310       461      2173      2176      2219
 -1       785    8    0    1
 -2       459       309       460      2171      2174      2220
 -1       786    8    0    1
 -2       457       307       474      2166      2221      2222
 -1       787    8    0    1
 -2       307       458       474      2170      2223      2221
 -1       788    8    0    1
 -2       455       305       456      2162      2165      2224
 -1       789    8    0    1
 -2       454       304       455      2160      2163      2225
 -1       790    8    0    1
 -2       299       450       475      2152      2226      2227
 -1       791    8    0    1
 -2       299       475       449      2227      2228      2148
 -1       792    8    0    1
 -2       450       300       451      2151      2154      2229
 -1       793    8    0    1
 -2       453       303       454      2158      2161      2230
 -1       794    8    0    1
 -2       458       308       459      2169      2172      2231
 -1       795    8    0    1
 -2       464       314       465      2182      2185      2232
 -1       796    8    0    1
 -2       336       383       476      1954      2233      2234
 -1       797    8    0    1
 -2       325       326       477      1780      2235      2236
 -1       798    8    0    1
 -2       324       325       478      1777      2237      2238
 -1       799    8    0    1
 -2       325       477       478      2236      2239      2237
 -1       800    8    0    1
 -2       327       328       479      1786      2240      2241
 -1       801    8    0    1
 -2       328       329       480      1789      2242      2243
 -1       802    8    0    1
 -2       328       480       479      2243      2244      2240
 -1       803    8    0    1
 -2       329       330       481      1792      2245      2246
 -1       804    8    0    1
 -2       329       481       480      2246      2247      2242
 -1       805    8    0    1
 -2       330       331       482      1795      2248      2249
 -1       806    8    0    1
 -2       330       482       481      2249      2250      2245
 -1       807    8    0    1
 -2       331       332       483      1798      2251      2252
 -1       808    8    0    1
 -2       331       483       482      2252      2253      2248
 -1       809    8    0    1
 -2       332       333       484      1801      2254      2255
 -1       810    8    0    1
 -2       332       484       483      2255      2256      2251
 -1       811    8    0    1
 -2       383       384       485      1957      2257      2258
 -1       812    8    0    1
 -2       383       485       476      2258      2259      2233
 -1       813    8    0    1
 -2       338       337       486      1818      2260      2261
 -1       814    8    0    1
 -2       452       453       487      2204      2262      2263
 -1       815    8    0    1
 -2       446       472       488      2202      2264      2265
 -1       816    8    0    1
 -2       339       338       489      1821      2266      2267
 -1       817    8    0    1
 -2       338       486       489      2261      2268      2266
 -1       818    8    0    1
 -2       340       339       490      1824      2269      2270
 -1       819    8    0    1
 -2       339       489       490      2267      2271      2269
 -1       820    8    0    1
 -2       341       340       491      1827      2272      2273
 -1       821    8    0    1
 -2       340       490       491      2270      2274      2272
 -1       822    8    0    1
 -2       342       341       492      1830      2275      2276
 -1       823    8    0    1
 -2       341       491       492      2273      2277      2275
 -1       824    8    0    1
 -2       343       342       493      1833      2278      2279
 -1       825    8    0    1
 -2       342       492       493      2276      2280      2278
 -1       826    8    0    1
 -2       344       343       494      1836      2281      2282
 -1       827    8    0    1
 -2       343       493       494      2279      2283      2281
 -1       828    8    0    1
 -2       345       344       495      1839      2284      2285
 -1       829    8    0    1
 -2       344       494       495      2282      2286      2284
 -1       830    8    0    1
 -2       346       345       496      1842      2287      2288
 -1       831    8    0    1
 -2       345       495       496      2285      2289      2287
 -1       832    8    0    1
 -2       347       346       497      1845      2290      2291
 -1       833    8    0    1
 -2       346       496       497      2288      2292      2290
 -1       834    8    0    1
 -2       348       347       498      1848      2293      2294
 -1       835    8    0    1
 -2       347       497       498      2291      2295      2293
 -1       836    8    0    1
 -2       349       348       499      1851      2296      2297
 -1       837    8    0    1
 -2       348       498       499      2294      2298      2296
 -1       838    8    0    1
 -2       350       349       500      1854      2299      2300
 -1       839    8    0    1
 -2       349       499       500      2297      2301      2299
 -1       840    8    0    1
 -2       351       350       501      1857      2302      2303
 -1       841    8    0    1
 -2       350       500       501      2300      2304      2302
 -1       842    8    0    1
 -2       352       351       502      1860      2305      2306
 -1       843    8    0    1
 -2       351       501       502      2303      2307      2305
 -1       844    8    0    1
 -2       353       352       503      1863      2308      2309
 -1       845    8    0    1
 -2       352       502       503      2306      2310      2308
 -1       846    8    0    1
 -2       354       353       504      1866      2311      2312
 -1       847    8    0    1
 -2       353       503       504      2309      2313      2311
 -1       848    8    0    1
 -2       355       354       505      1869      2314      2315
 -1       849    8    0    1
 -2       354       504       505      2312      2316      2314
 -1       850    8    0    1
 -2       356       355       506      1872      2317      2318
 -1       851    8    0    1
 -2       355       505       506      2315      2319      2317
 -1       852    8    0    1
 -2       357       356       507      1875      2320      2321
 -1       853    8    0    1
 -2       356       506       507      2318      2322      2320
 -1       854    8    0    1
 -2       358       357       508      1878      2323      2324
 -1       855    8    0    1
 -2       357       507       508      2321      2325      2323
 -1       856    8    0    1
 -2       359       358       509      1881      2326      2327
 -1       857    8    0    1
 -2       358       508       509      2324      2328      2326
 -1       858    8    0    1
 -2       360       359       510      1884      2329      2330
 -1       859    8    0    1
 -2       359       509       510      2327      2331      2329
 -1       860    8    0    1
 -2       361       360       511      1887      2332      2333
 -1       861    8    0    1
 -2       360       510       511      2330      2334      2332
 -1       862    8    0    1
 -2       362       361       512      1890      2335      2336
 -1       863    8    0    1
 -2       361       511       512      2333      2337      2335
 -1       864    8    0    1
 -2       363       362       513      1893      2338      2339
 -1       865    8    0    1
 -2       362       512       513      2336      2340      2338
 -1       866    8    0    1
 -2       364       363       514      1896      2341      2342
 -1       867    8    0    1
 -2       363       513       514      2339      2343      2341
 -1       868    8    0    1
 -2       365       364       515      1899      2344      2345
 -1       869    8    0    1
 -2       364       514       515      2342      2346      2344
 -1       870    8    0    1
 -2       366       365       516      1902      2347      2348
 -1       871    8    0    1
 -2       365       515       516      2345      2349      2347
 -1       872    8    0    1
 -2       367       366       517      1905      2350      2351
 -1       873    8    0    1
 -2       366       516       517      2348      2352      2350
 -1       874    8    0    1
 -2       368       367       518      1908      2353      2354
 -1       875    8    0    1
 -2       367       517       518      2351      2355      2353
 -1       876    8    0    1
 -2       369       368       519      1911      2356      2357
 -1       877    8    0    1
 -2       368       518       519      2354      2358      2356
 -1       878    8    0    1
 -2       370       369       520      1914      2359      2360
 -1       879    8    0    1
 -2       369       519       520      2357      2361      2359
 -1       880    8    0    1
 -2       371       370       521      1917      2362      2363
 -1       881    8    0    1
 -2       370       520       521      2360      2364      2362
 -1       882    8    0    1
 -2       372       371       522      1920      2365      2366
 -1       883    8    0    1
 -2       371       521       522      2363      2367      2365
 -1       884    8    0    1
 -2       373       372       523      1923      2368      2369
 -1       885    8    0    1
 -2       372       522       523      2366      2370      2368
 -1       886    8    0    1
 -2       374       373       524      1926      2371      2372
 -1       887    8    0    1
 -2       373       523       524      2369      2373      2371
 -1       888    8    0    1
 -2       375       374       525      1929      2374      2375
 -1       889    8    0    1
 -2       374       524       525      2372      2376      2374
 -1       890    8    0    1
 -2       376       375       526      1932      2377      2378
 -1       891    8    0    1
 -2       375       525       526      2375      2379      2377
 -1       892    8    0    1
 -2       377       376       527      1935      2380      2381
 -1       893    8    0    1
 -2       376       526       527      2378      2382      2380
 -1       894    8    0    1
 -2       378       377       528      1938      2383      2384
 -1       895    8    0    1
 -2       377       527       528      2381      2385      2383
 -1       896    8    0    1
 -2       379       378       529      1941      2386      2387
 -1       897    8    0    1
 -2       378       528       529      2384      2388      2386
 -1       898    8    0    1
 -2       380       379       530      1944      2389      2390
 -1       899    8    0    1
 -2       379       529       530      2387      2391      2389
 -1       900    8    0    1
 -2       381       380       531      1947      2392      2393
 -1       901    8    0    1
 -2       380       530       531      2390      2394      2392
 -1       902    8    0    1
 -2       385       386       532      1963      2395      2396
 -1       903    8    0    1
 -2       386       387       533      1966      2397      2398
 -1       904    8    0    1
 -2       386       533       532      2398      2399      2395
 -1       905    8    0    1
 -2       387       388       534      1969      2400      2401
 -1       906    8    0    1
 -2       387       534       533      2401      2402      2397
 -1       907    8    0    1
 -2       388       389       535      1972      2403      2404
 -1       908    8    0    1
 -2       388       535       534      2404      2405      2400
 -1       909    8    0    1
 -2       389       390       536      1975      2406      2407
 -1       910    8    0    1
 -2       389       536       535      2407      2408      2403
 -1       911    8    0    1
 -2       390       391       537      1978      2409      2410
 -1       912    8    0    1
 -2       390       537       536      2410      2411      2406
 -1       913    8    0    1
 -2       391       392       538      1981      2412      2413
 -1       914    8    0    1
 -2       391       538       537      2413      2414      2409
 -1       915    8    0    1
 -2       392       393       539      1984      2415      2416
 -1       916    8    0    1
 -2       392       539       538      2416      2417      2412
 -1       917    8    0    1
 -2       393       394       540      1987      2418      2419
 -1       918    8    0    1
 -2       393       540       539      2419      2420      2415
 -1       919    8    0    1
 -2       394       395       541      1990      2421      2422
 -1       920    8    0    1
 -2       394       541       540      2422      2423      2418
 -1       921    8    0    1
 -2       395       396       542      1993      2424      2425
 -1       922    8    0    1
 -2       395       542       541      2425      2426      2421
 -1       923    8    0    1
 -2       396       397       543      1996      2427      2428
 -1       924    8    0    1
 -2       396       543       542      2428      2429      2424
 -1       925    8    0    1
 -2       397       398       544      1999      2430      2431
 -1       926    8    0    1
 -2       397       544       543      2431      2432      2427
 -1       927    8    0    1
 -2       398       399       545      2002      2433      2434
 -1       928    8    0    1
 -2       398       545       544      2434      2435      2430
 -1       929    8    0    1
 -2       399       400       546      2005      2436      2437
 -1       930    8    0    1
 -2       399       546       545      2437      2438      2433
 -1       931    8    0    1
 -2       400       401       547      2008      2439      2440
 -1       932    8    0    1
 -2       400       547       546      2440      2441      2436
 -1       933    8    0    1
 -2       401       402       548      2011      2442      2443
 -1       934    8    0    1
 -2       401       548       547      2443      2444      2439
 -1       935    8    0    1
 -2       402       403       549      2014      2445      2446
 -1       936    8    0    1
 -2       402       549       548      2446      2447      2442
 -1       937    8    0    1
 -2       403       404       550      2017      2448      2449
 -1       938    8    0    1
 -2       403       550       549      2449      2450      2445
 -1       939    8    0    1
 -2       404       405       551      2020      2451      2452
 -1       940    8    0    1
 -2       404       551       550      2452      2453      2448
 -1       941    8    0    1
 -2       405       406       552      2023      2454      2455
 -1       942    8    0    1
 -2       405       552       551      2455      2456      2451
 -1       943    8    0    1
 -2       406       407       553      2026      2457      2458
 -1       944    8    0    1
 -2       406       553       552      2458      2459      2454
 -1       945    8    0    1
 -2       407       408       554      2029      2460      2461
 -1       946    8    0    1
 -2       407       554       553      2461      2462      2457
 -1       947    8    0    1
 -2       408       409       555      2032      2463      2464
 -1       948    8    0    1
 -2       408       555       554      2464      2465      2460
 -1       949    8    0    1
 -2       409       410       556      2035      2466      2467
 -1       950    8    0    1
 -2       409       556       555      2467      2468      2463
 -1       951    8    0    1
 -2       410       411       557      2038      2469      2470
 -1       952    8    0    1
 -2       410       557       556      2470      2471      2466
 -1       953    8    0    1
 -2       411       412       558      2041      2472      2473
 -1       954    8    0    1
 -2       411       558       557      2473      2474      2469
 -1       955    8    0    1
 -2       412       413       559      2044      2475      2476
 -1       956    8    0    1
 -2       412       559       558      2476      2477      2472
 -1       957    8    0    1
 -2       413       414       560      2047      2478      2479
 -1       958    8    0    1
 -2       413       560       559      2479      2480      2475
 -1       959    8    0    1
 -2       414       415       561      2050      2481      2482
 -1       960    8    0    1
 -2       414       561       560      2482      2483      2478
 -1       961    8    0    1
 -2       415       416       562      2053      2484      2485
 -1       962    8    0    1
 -2       415       562       561      2485      2486      2481
 -1       963    8    0    1
 -2       416       417       563      2056      2487      2488
 -1       964    8    0    1
 -2       416       563       562      2488      2489      2484
 -1       965    8    0    1
 -2       417       418       564      2059      2490      2491
 -1       966    8    0    1
 -2       417       564       563      2491      2492      2487
 -1       967    8    0    1
 -2       418       419       565      2062      2493      2494
 -1       968    8    0    1
 -2       418       565       564      2494      2495      2490
 -1       969    8    0    1
 -2       419       420       566      2065      2496      2497
 -1       970    8    0    1
 -2       419       566       565      2497      2498      2493
 -1       971    8    0    1
 -2       420       421       567      2068      2499      2500
 -1       972    8    0    1
 -2       420       567       566      2500      2501      2496
 -1       973    8    0    1
 -2       421       422       568      2071      2502      2503
 -1       974    8    0    1
 -2       421       568       567      2503      2504      2499
 -1       975    8    0    1
 -2       422       423       569      2074      2505      2506
 -1       976    8    0    1
 -2       422       569       568      2506      2507      2502
 -1       977    8    0    1
 -2       423       424       570      2077      2508      2509
 -1       978    8    0    1
 -2       423       570       569      2509      2510      2505
 -1       979    8    0    1
 -2       424       425       571      2080      2511      2512
 -1       980    8    0    1
 -2       424       571       570      2512      2513      2508
 -1       981    8    0    1
 -2       425       426       572      2083      2514      2515
 -1       982    8    0    1
 -2       425       572       571      2515      2516      2511
 -1       983    8    0    1
 -2       426       427       573      2086      2517      2518
 -1       984    8    0    1
 -2       426       573       572      2518      2519      2514
 -1       985    8    0    1
 -2       427       428       431      2089      2098      2520
 -1       986    8    0    1
 -2       432       433       574      2105      2521      2522
 -1       987    8    0    1
 -2       433       434       575      2108      2523      2524
 -1       988    8    0    1
 -2       433       575       574      2524      2525      2521
 -1       989    8    0    1
 -2       430       429       576      2095      2526      2527
 -1       990    8    0    1
 -2       429       432       577      2102      2528      2529
 -1       991    8    0    1
 -2       576       429       577      2526      2529      2530
 -1       992    8    0    1
 -2       432       574       577      2522      2531      2528
 -1       993    8    0    1
 -2       434       435       578      2111      2532      2533
 -1       994    8    0    1
 -2       434       578       575      2533      2534      2523
 -1       995    8    0    1
 -2       435       436       579      2114      2535      2536
 -1       996    8    0    1
 -2       435       579       578      2536      2537      2532
 -1       997    8    0    1
 -2       436       437       580      2117      2538      2539
 -1       998    8    0    1
 -2       436       580       579      2539      2540      2535
 -1       999    8    0    1
 -2       437       438       581      2120      2541      2542
 -1      1000    8    0    1
 -2       437       581       580      2542      2543      2538
 -1      1001    8    0    1
 -2       438       439       582      2123      2544      2545
 -1      1002    8    0    1
 -2       438       582       581      2545      2546      2541
 -1      1003    8    0    1
 -2       439       440       583      2126      2547      2548
 -1      1004    8    0    1
 -2       439       583       582      2548      2549      2544
 -1      1005    8    0    1
 -2       440       441       584      2129      2550      2551
 -1      1006    8    0    1
 -2       440       584       583      2551      2552      2547
 -1      1007    8    0    1
 -2       442       445       585      2209      2553      2554
 -1      1008    8    0    1
 -2       441       291       382      2210      1950      2555
 -1      1009    8    0    1
 -2       471       443       586      2211      2556      2557
 -1      1010    8    0    1
 -2       384       385       587      1960      2558      2559
 -1      1011    8    0    1
 -2       385       532       587      2396      2560      2558
 -1      1012    8    0    1
 -2       443       444       588      2136      2561      2562
 -1      1013    8    0    1
 -2       443       588       586      2562      2563      2556
 -1      1014    8    0    1
 -2       445       446       589      2141      2564      2565
 -1      1015    8    0    1
 -2       445       589       585      2565      2566      2553
 -1      1016    8    0    1
 -2       472       448       590      2201      2567      2568
 -1      1017    8    0    1
 -2       468       469       591      2213      2569      2570
 -1      1018    8    0    1
 -2       461       462       592      2218      2571      2572
 -1      1019    8    0    1
 -2       455       456       593      2224      2573      2574
 -1      1020    8    0    1
 -2       337       323       594      2205      2575      2576
 -1      1021    8    0    1
 -2       486       337       594      2260      2576      2577
 -1      1022    8    0    1
 -2       323       322       594      1772      2578      2575
 -1      1023    8    0    1
 -2       326       327       595      1783      2579      2580
 -1      1024    8    0    1
 -2       477       326       595      2235      2580      2581
 -1      1025    8    0    1
 -2       327       479       595      2241      2582      2579
 -1      1026    8    0    1
 -2       450       451       596      2229      2583      2584
 -1      1027    8    0    1
 -2       448       449       597      2150      2585      2586
 -1      1028    8    0    1
 -2       448       597       590      2586      2587      2567
 -1      1029    8    0    1
 -2       453       454       598      2230      2588      2589
 -1      1030    8    0    1
 -2       451       452       599      2157      2590      2591
 -1      1031    8    0    1
 -2       458       459       600      2231      2592      2593
 -1      1032    8    0    1
 -2       454       455       601      2225      2594      2595
 -1      1033    8    0    1
 -2       456       457       602      2168      2596      2597
 -1      1034    8    0    1
 -2       464       465       603      2232      2598      2599
 -1      1035    8    0    1
 -2       459       460       604      2220      2600      2601
 -1      1036    8    0    1
 -2       459       604       600      2601      2602      2592
 -1      1037    8    0    1
 -2       460       461       605      2219      2603      2604
 -1      1038    8    0    1
 -2       462       463       606      2181      2605      2606
 -1      1039    8    0    1
 -2       463       464       607      2217      2607      2608
 -1      1040    8    0    1
 -2       463       607       606      2608      2609      2605
 -1      1041    8    0    1
 -2       465       466       608      2216      2610      2611
 -1      1042    8    0    1
 -2       466       467       609      2215      2612      2613
 -1      1043    8    0    1
 -2       466       609       608      2613      2614      2610
 -1      1044    8    0    1
 -2       467       468       610      2214      2615      2616
 -1      1045    8    0    1
 -2       468       591       610      2570      2617      2615
 -1      1046    8    0    1
 -2       469       470       611      2196      2618      2619
 -1      1047    8    0    1
 -2       470       471       612      2212      2620      2621
 -1      1048    8    0    1
 -2       470       612       611      2621      2622      2618
 -1      1049    8    0    1
 -2       335       336       613      1812      2623      2624
 -1      1050    8    0    1
 -2       334       335       613      1807      2624      2625
 -1      1051    8    0    1
 -2       336       476       613      2234      2626      2623
 -1      1052    8    0    1
 -2       450       596       475      2584      2627      2226
 -1      1053    8    0    1
 -2       324       478       614      2238      2628      2629
 -1      1054    8    0    1
 -2       324       614       447      2629      2630      2145
 -1      1055    8    0    1
 -2       485       384       587      2257      2559      2631
 -1      1056    8    0    1
 -2       333       334       613      1804      2625      2632
 -1      1057    8    0    1
 -2       612       471       586      2620      2557      2633
 -1      1058    8    0    1
 -2       609       467       610      2612      2616      2634
 -1      1059    8    0    1
 -2       607       464       603      2607      2599      2635
 -1      1060    8    0    1
 -2       452       487       599      2263      2636      2590
 -1      1061    8    0    1
 -2       446       488       615      2265      2637      2638
 -1      1062    8    0    1
 -2       446       615       589      2638      2639      2564
 -1      1063    8    0    1
 -2       473       442       585      2208      2554      2640
 -1      1064    8    0    1
 -2       465       608       603      2611      2641      2598
 -1      1065    8    0    1
 -2       427       431       573      2520      2642      2517
 -1      1066    8    0    1
 -2       431       430       573      2099      2643      2642
 -1      1067    8    0    1
 -2       604       460       605      2600      2604      2644
 -1      1068    8    0    1
 -2       472       590       488      2568      2645      2264
 -1      1069    8    0    1
 -2       441       382       616      2555      2646      2647
 -1      1070    8    0    1
 -2       584       441       616      2550      2647      2648
 -1      1071    8    0    1
 -2       382       381       616      1951      2649      2646
 -1      1072    8    0    1
 -2       333       613       484      2632      2650      2254
 -1      1073    8    0    1
 -2       588       444       617      2561      2651      2652
 -1      1074    8    0    1
 -2       444       473       617      2207      2653      2651
 -1      1075    8    0    1
 -2       602       457       618      2596      2654      2655
 -1      1076    8    0    1
 -2       457       474       618      2222      2656      2654
 -1      1077    8    0    1
 -2       322       447       619      2144      2657      2658
 -1      1078    8    0    1
 -2       594       322       619      2578      2658      2659
 -1      1079    8    0    1
 -2       447       614       619      2630      2660      2657
 -1      1080    8    0    1
 -2       453       598       487      2589      2661      2262
 -1      1081    8    0    1
 -2       469       611       591      2619      2662      2569
 -1      1082    8    0    1
 -2       601       455       593      2594      2574      2663
 -1      1083    8    0    1
 -2       461       592       605      2572      2664      2603
 -1      1084    8    0    1
 -2       593       456       602      2573      2597      2665
 -1      1085    8    0    1
 -2       592       462       606      2571      2606      2666
 -1      1086    8    0    1
 -2       474       458       620      2223      2667      2668
 -1      1087    8    0    1
 -2       458       600       620      2593      2669      2667
 -1      1088    8    0    1
 -2       597       449       621      2585      2670      2671
 -1      1089    8    0    1
 -2       449       475       621      2228      2672      2670
 -1      1090    8    0    1
 -2       598       454       601      2588      2595      2673
 -1      1091    8    0    1
 -2       451       599       596      2591      2674      2583
 -1      1092    8    0    1
 -2       573       430       576      2643      2527      2675
 -1      1093    8    0    1
 -2       616       381       531      2649      2393      2676
 -1      1094    8    0    1
 -2       480       481       622      2247      2677      2678
 -1      1095    8    0    1
 -2       479       480       623      2244      2679      2680
 -1      1096    8    0    1
 -2       480       622       623      2678      2681      2679
 -1      1097    8    0    1
 -2       482       483       624      2253      2682      2683
 -1      1098    8    0    1
 -2       483       484       625      2256      2684      2685
 -1      1099    8    0    1
 -2       483       625       624      2685      2686      2682
 -1      1100    8    0    1
 -2       476       485       626      2259      2687      2688
 -1      1101    8    0    1
 -2       609       610       627      2634      2689      2690
 -1      1102    8    0    1
 -2       490       489       628      2271      2691      2692
 -1      1103    8    0    1
 -2       491       490       629      2274      2693      2694
 -1      1104    8    0    1
 -2       490       628       629      2692      2695      2693
 -1      1105    8    0    1
 -2       492       491       630      2277      2696      2697
 -1      1106    8    0    1
 -2       491       629       630      2694      2698      2696
 -1      1107    8    0    1
 -2       493       492       631      2280      2699      2700
 -1      1108    8    0    1
 -2       492       630       631      2697      2701      2699
 -1      1109    8    0    1
 -2       494       493       632      2283      2702      2703
 -1      1110    8    0    1
 -2       493       631       632      2700      2704      2702
 -1      1111    8    0    1
 -2       495       494       633      2286      2705      2706
 -1      1112    8    0    1
 -2       494       632       633      2703      2707      2705
 -1      1113    8    0    1
 -2       496       495       634      2289      2708      2709
 -1      1114    8    0    1
 -2       495       633       634      2706      2710      2708
 -1      1115    8    0    1
 -2       497       496       635      2292      2711      2712
 -1      1116    8    0    1
 -2       496       634       635      2709      2713      2711
 -1      1117    8    0    1
 -2       498       497       636      2295      2714      2715
 -1      1118    8    0    1
 -2       497       635       636      2712      2716      2714
 -1      1119    8    0    1
 -2       499       498       637      2298      2717      2718
 -1      1120    8    0    1
 -2       498       636       637      2715      2719      2717
 -1      1121    8    0    1
 -2       500       499       638      2301      2720      2721
 -1      1122    8    0    1
 -2       499       637       638      2718      2722      2720
 -1      1123    8    0    1
 -2       502       501       606      2307      2723      2724
 -1      1124    8    0    1
 -2       504       503       639      2313      2725      2726
 -1      1125    8    0    1
 -2       505       504       640      2316      2727      2728
 -1      1126    8    0    1
 -2       506       505       627      2319      2729      2730
 -1      1127    8    0    1
 -2       508       507       641      2325      2731      2732
 -1      1128    8    0    1
 -2       509       508       642      2328      2733      2734
 -1      1129    8    0    1
 -2       508       641       642      2732      2735      2733
 -1      1130    8    0    1
 -2       510       509       643      2331      2736      2737
 -1      1131    8    0    1
 -2       509       642       643      2734      2738      2736
 -1      1132    8    0    1
 -2       511       510       644      2334      2739      2740
 -1      1133    8    0    1
 -2       510       643       644      2737      2741      2739
 -1      1134    8    0    1
 -2       512       511       645      2337      2742      2743
 -1      1135    8    0    1
 -2       511       644       645      2740      2744      2742
 -1      1136    8    0    1
 -2       513       512       646      2340      2745      2746
 -1      1137    8    0    1
 -2       512       645       646      2743      2747      2745
 -1      1138    8    0    1
 -2       514       513       647      2343      2748      2749
 -1      1139    8    0    1
 -2       513       646       647      2746      2750      2748
 -1      1140    8    0    1
 -2       515       514       648      2346      2751      2752
 -1      1141    8    0    1
 -2       514       647       648      2749      2753      2751
 -1      1142    8    0    1
 -2       516       515       649      2349      2754      2755
 -1      1143    8    0    1
 -2       515       648       649      2752      2756      2754
 -1      1144    8    0    1
 -2       517       516       650      2352      2757      2758
 -1      1145    8    0    1
 -2       516       649       650      2755      2759      2757
 -1      1146    8    0    1
 -2       518       517       651      2355      2760      2761
 -1      1147    8    0    1
 -2       517       650       651      2758      2762      2760
 -1      1148    8    0    1
 -2       519       518       652      2358      2763      2764
 -1      1149    8    0    1
 -2       518       651       652      2761      2765      2763
 -1      1150    8    0    1
 -2       520       519       653      2361      2766      2767
 -1      1151    8    0    1
 -2       519       652       653      2764      2768      2766
 -1      1152    8    0    1
 -2       521       520       654      2364      2769      2770
 -1      1153    8    0    1
 -2       520       653       654      2767      2771      2769
 -1      1154    8    0    1
 -2       522       521       655      2367      2772      2773
 -1      1155    8    0    1
 -2       521       654       655      2770      2774      2772
 -1      1156    8    0    1
 -2       523       522       656      2370      2775      2776
 -1      1157    8    0    1
 -2       522       655       656      2773      2777      2775
 -1      1158    8    0    1
 -2       524       523       657      2373      2778      2779
 -1      1159    8    0    1
 -2       523       656       657      2776      2780      2778
 -1      1160    8    0    1
 -2       525       524       658      2376      2781      2782
 -1      1161    8    0    1
 -2       524       657       658      2779      2783      2781
 -1      1162    8    0    1
 -2       526       525       659      2379      2784      2785
 -1      1163    8    0    1
 -2       525       658       659      2782      2786      2784
 -1      1164    8    0    1
 -2       527       526       660      2382      2787      2788
 -1      1165    8    0    1
 -2       526       659       660      2785      2789      2787
 -1      1166    8    0    1
 -2       528       527       661      2385      2790      2791
 -1      1167    8    0    1
 -2       527       660       661      2788      2792      2790
 -1      1168    8    0    1
 -2       529       528       662      2388      2793      2794
 -1      1169    8    0    1
 -2       528       661       662      2791      2795      2793
 -1      1170    8    0    1
 -2       530       529       663      2391      2796      2797
 -1      1171    8    0    1
 -2       529       662       663      2794      2798      2796
 -1      1172    8    0    1
 -2       531       530       664      2394      2799      2800
 -1      1173    8    0    1
 -2       530       663       664      2797      2801      2799
 -1      1174    8    0    1
 -2       533       534       665      2402      2802      2803
 -1      1175    8    0    1
 -2       484       613       476      2650      2626      2804
 -1      1176    8    0    1
 -2       532       533       666      2399      2805      2806
 -1      1177    8    0    1
 -2       533       665       666      2803      2807      2805
 -1      1178    8    0    1
 -2       535       536       667      2408      2808      2809
 -1      1179    8    0    1
 -2       536       537       668      2411      2810      2811
 -1      1180    8    0    1
 -2       536       668       667      2811      2812      2808
 -1      1181    8    0    1
 -2       537       538       669      2414      2813      2814
 -1      1182    8    0    1
 -2       537       669       668      2814      2815      2810
 -1      1183    8    0    1
 -2       538       539       670      2417      2816      2817
 -1      1184    8    0    1
 -2       538       670       669      2817      2818      2813
 -1      1185    8    0    1
 -2       539       540       671      2420      2819      2820
 -1      1186    8    0    1
 -2       539       671       670      2820      2821      2816
 -1      1187    8    0    1
 -2       540       541       672      2423      2822      2823
 -1      1188    8    0    1
 -2       540       672       671      2823      2824      2819
 -1      1189    8    0    1
 -2       541       542       673      2426      2825      2826
 -1      1190    8    0    1
 -2       541       673       672      2826      2827      2822
 -1      1191    8    0    1
 -2       542       543       674      2429      2828      2829
 -1      1192    8    0    1
 -2       542       674       673      2829      2830      2825
 -1      1193    8    0    1
 -2       543       544       675      2432      2831      2832
 -1      1194    8    0    1
 -2       543       675       674      2832      2833      2828
 -1      1195    8    0    1
 -2       544       545       676      2435      2834      2835
 -1      1196    8    0    1
 -2       544       676       675      2835      2836      2831
 -1      1197    8    0    1
 -2       545       546       677      2438      2837      2838
 -1      1198    8    0    1
 -2       545       677       676      2838      2839      2834
 -1      1199    8    0    1
 -2       546       547       678      2441      2840      2841
 -1      1200    8    0    1
 -2       546       678       677      2841      2842      2837
 -1      1201    8    0    1
 -2       547       548       679      2444      2843      2844
 -1      1202    8    0    1
 -2       547       679       678      2844      2845      2840
 -1      1203    8    0    1
 -2       548       549       680      2447      2846      2847
 -1      1204    8    0    1
 -2       548       680       679      2847      2848      2843
 -1      1205    8    0    1
 -2       549       550       681      2450      2849      2850
 -1      1206    8    0    1
 -2       549       681       680      2850      2851      2846
 -1      1207    8    0    1
 -2       550       551       682      2453      2852      2853
 -1      1208    8    0    1
 -2       550       682       681      2853      2854      2849
 -1      1209    8    0    1
 -2       551       552       683      2456      2855      2856
 -1      1210    8    0    1
 -2       551       683       682      2856      2857      2852
 -1      1211    8    0    1
 -2       552       553       684      2459      2858      2859
 -1      1212    8    0    1
 -2       552       684       683      2859      2860      2855
 -1      1213    8    0    1
 -2       553       554       685      2462      2861      2862
 -1      1214    8    0    1
 -2       553       685       684      2862      2863      2858
 -1      1215    8    0    1
 -2       554       555       686      2465      2864      2865
 -1      1216    8    0    1
 -2       554       686       685      2865      2866      2861
 -1      1217    8    0    1
 -2       555       556       687      2468      2867      2868
 -1      1218    8    0    1
 -2       555       687       686      2868      2869      2864
 -1      1219    8    0    1
 -2       556       557       688      2471      2870      2871
 -1      1220    8    0    1
 -2       556       688       687      2871      2872      2867
 -1      1221    8    0    1
 -2       557       558       689      2474      2873      2874
 -1      1222    8    0    1
 -2       557       689       688      2874      2875      2870
 -1      1223    8    0    1
 -2       558       559       690      2477      2876      2877
 -1      1224    8    0    1
 -2       558       690       689      2877      2878      2873
 -1      1225    8    0    1
 -2       559       560       691      2480      2879      2880
 -1      1226    8    0    1
 -2       559       691       690      2880      2881      2876
 -1      1227    8    0    1
 -2       560       561       692      2483      2882      2883
 -1      1228    8    0    1
 -2       560       692       691      2883      2884      2879
 -1      1229    8    0    1
 -2       561       562       693      2486      2885      2886
 -1      1230    8    0    1
 -2       561       693       692      2886      2887      2882
 -1      1231    8    0    1
 -2       562       563       694      2489      2888      2889
 -1      1232    8    0    1
 -2       562       694       693      2889      2890      2885
 -1      1233    8    0    1
 -2       563       564       695      2492      2891      2892
 -1      1234    8    0    1
 -2       563       695       694      2892      2893      2888
 -1      1235    8    0    1
 -2       564       565       696      2495      2894      2895
 -1      1236    8    0    1
 -2       564       696       695      2895      2896      2891
 -1      1237    8    0    1
 -2       565       566       697      2498      2897      2898
 -1      1238    8    0    1
 -2       565       697       696      2898      2899      2894
 -1      1239    8    0    1
 -2       566       567       698      2501      2900      2901
 -1      1240    8    0    1
 -2       566       698       697      2901      2902      2897
 -1      1241    8    0    1
 -2       567       568       699      2504      2903      2904
 -1      1242    8    0    1
 -2       567       699       698      2904      2905      2900
 -1      1243    8    0    1
 -2       568       569       700      2507      2906      2907
 -1      1244    8    0    1
 -2       568       700       699      2907      2908      2903
 -1      1245    8    0    1
 -2       569       570       701      2510      2909      2910
 -1      1246    8    0    1
 -2       569       701       700      2910      2911      2906
 -1      1247    8    0    1
 -2       570       571       702      2513      2912      2913
 -1      1248    8    0    1
 -2       570       702       701      2913      2914      2909
 -1      1249    8    0    1
 -2       571       572       703      2516      2915      2916
 -1      1250    8    0    1
 -2       571       703       702      2916      2917      2912
 -1      1251    8    0    1
 -2       572       573       704      2519      2918      2919
 -1      1252    8    0    1
 -2       703       572       704      2915      2919      2920
 -1      1253    8    0    1
 -2       573       576       704      2675      2921      2918
 -1      1254    8    0    1
 -2       578       579       705      2537      2922      2923
 -1      1255    8    0    1
 -2       616       531       706      2676      2924      2925
 -1      1256    8    0    1
 -2       531       664       706      2800      2926      2924
 -1      1257    8    0    1
 -2       574       575       707      2525      2927      2928
 -1      1258    8    0    1
 -2       579       580       708      2540      2929      2930
 -1      1259    8    0    1
 -2       579       708       705      2930      2931      2922
 -1      1260    8    0    1
 -2       575       578       709      2534      2932      2933
 -1      1261    8    0    1
 -2       707       575       709      2927      2933      2934
 -1      1262    8    0    1
 -2       578       705       709      2923      2935      2932
 -1      1263    8    0    1
 -2       587       532       710      2560      2936      2937
 -1      1264    8    0    1
 -2       532       666       710      2806      2938      2936
 -1      1265    8    0    1
 -2       580       581       711      2543      2939      2940
 -1      1266    8    0    1
 -2       580       711       708      2940      2941      2929
 -1      1267    8    0    1
 -2       581       582       712      2546      2942      2943
 -1      1268    8    0    1
 -2       581       712       711      2943      2944      2939
 -1      1269    8    0    1
 -2       582       583       713      2549      2945      2946
 -1      1270    8    0    1
 -2       582       713       712      2946      2947      2942
 -1      1271    8    0    1
 -2       603       608       639      2641      2948      2949
 -1      1272    8    0    1
 -2       604       605       714      2644      2950      2951
 -1      1273    8    0    1
 -2       585       589       715      2566      2952      2953
 -1      1274    8    0    1
 -2       473       585       716      2640      2954      2955
 -1      1275    8    0    1
 -2       488       590       717      2645      2956      2957
 -1      1276    8    0    1
 -2       601       593       718      2663      2958      2959
 -1      1277    8    0    1
 -2       605       592       719      2664      2960      2961
 -1      1278    8    0    1
 -2       534       535       720      2405      2962      2963
 -1      1279    8    0    1
 -2       665       534       720      2802      2963      2964
 -1      1280    8    0    1
 -2       535       667       720      2809      2965      2962
 -1      1281    8    0    1
 -2       489       486       721      2268      2966      2967
 -1      1282    8    0    1
 -2       489       721       628      2967      2968      2691
 -1      1283    8    0    1
 -2       486       594       722      2577      2969      2970
 -1      1284    8    0    1
 -2       721       486       722      2966      2970      2971
 -1      1285    8    0    1
 -2       594       619       722      2659      2972      2969
 -1      1286    8    0    1
 -2       584       616       706      2648      2925      2973
 -1      1287    8    0    1
 -2       487       598       723      2661      2974      2975
 -1      1288    8    0    1
 -2       485       587       724      2631      2976      2977
 -1      1289    8    0    1
 -2       626       485       724      2687      2977      2978
 -1      1290    8    0    1
 -2       587       710       724      2937      2979      2976
 -1      1291    8    0    1
 -2       591       611       725      2662      2980      2981
 -1      1292    8    0    1
 -2       590       597       726      2587      2982      2983
 -1      1293    8    0    1
 -2       481       482       727      2250      2984      2985
 -1      1294    8    0    1
 -2       622       481       727      2677      2985      2986
 -1      1295    8    0    1
 -2       482       624       727      2683      2987      2984
 -1      1296    8    0    1
 -2       478       477       728      2239      2988      2989
 -1      1297    8    0    1
 -2       596       599       729      2674      2990      2991
 -1      1298    8    0    1
 -2       598       601       730      2673      2992      2993
 -1      1299    8    0    1
 -2       601       718       730      2959      2994      2992
 -1      1300    8    0    1
 -2       599       487       731      2636      2995      2996
 -1      1301    8    0    1
 -2       600       604       732      2602      2997      2998
 -1      1302    8    0    1
 -2       593       602       733      2665      2999      3000
 -1      1303    8    0    1
 -2       586       588       734      2563      3001      3002
 -1      1304    8    0    1
 -2       475       596       735      2627      3003      3004
 -1      1305    8    0    1
 -2       596       729       735      2991      3005      3003
 -1      1306    8    0    1
 -2       608       609       736      2614      3006      3007
 -1      1307    8    0    1
 -2       610       591       737      2617      3008      3009
 -1      1308    8    0    1
 -2       627       610       737      2689      3009      3010
 -1      1309    8    0    1
 -2       591       725       737      2981      3011      3008
 -1      1310    8    0    1
 -2       612       586       738      2633      3012      3013
 -1      1311    8    0    1
 -2       611       612       739      2622      3014      3015
 -1      1312    8    0    1
 -2       606       501       740      2723      3016      3017
 -1      1313    8    0    1
 -2       592       606       740      2666      3017      3018
 -1      1314    8    0    1
 -2       501       500       740      2304      3019      3016
 -1      1315    8    0    1
 -2       614       478       741      2628      3020      3021
 -1      1316    8    0    1
 -2       478       728       741      2989      3022      3020
 -1      1317    8    0    1
 -2       479       623       742      2680      3023      3024
 -1      1318    8    0    1
 -2       479       742       595      3024      3025      2582
 -1      1319    8    0    1
 -2       725       611       739      2980      3015      3026
 -1      1320    8    0    1
 -2       609       627       736      2690      3027      3006
 -1      1321    8    0    1
 -2       588       617       743      2652      3028      3029
 -1      1322    8    0    1
 -2       588       743       734      3029      3030      3001
 -1      1323    8    0    1
 -2       740       500       638      3019      2721      3031
 -1      1324    8    0    1
 -2       733       602       744      2999      3032      3033
 -1      1325    8    0    1
 -2       602       618       744      2655      3034      3032
 -1      1326    8    0    1
 -2       615       488       745      2637      3035      3036
 -1      1327    8    0    1
 -2       488       717       745      2957      3037      3035
 -1      1328    8    0    1
 -2       732       604       714      2997      2951      3038
 -1      1329    8    0    1
 -2       502       606       607      2724      2609      3039
 -1      1330    8    0    1
 -2       504       639       640      2726      3040      2727
 -1      1331    8    0    1
 -2       503       502       607      2310      3039      3041
 -1      1332    8    0    1
 -2       506       627       746      2730      3042      3043
 -1      1333    8    0    1
 -2       507       506       746      2322      3043      3044
 -1      1334    8    0    1
 -2       627       737       746      3010      3045      3042
 -1      1335    8    0    1
 -2       574       707       747      2928      3046      3047
 -1      1336    8    0    1
 -2       574       747       577      3047      3048      2531
 -1      1337    8    0    1
 -2       484       476       626      2804      2688      3049
 -1      1338    8    0    1
 -2       718       593       748      2958      3050      3051
 -1      1339    8    0    1
 -2       593       733       748      3000      3052      3050
 -1      1340    8    0    1
 -2       487       723       731      2975      3053      2995
 -1      1341    8    0    1
 -2       576       577       749      2530      3054      3055
 -1      1342    8    0    1
 -2       704       576       749      2921      3055      3056
 -1      1343    8    0    1
 -2       577       747       749      3048      3057      3054
 -1      1344    8    0    1
 -2       714       605       719      2950      2961      3058
 -1      1345    8    0    1
 -2       717       590       726      2956      2983      3059
 -1      1346    8    0    1
 -2       716       585       750      2954      3060      3061
 -1      1347    8    0    1
 -2       585       715       750      2953      3062      3060
 -1      1348    8    0    1
 -2       583       584       706      2552      2973      3063
 -1      1349    8    0    1
 -2       507       746       641      3044      3064      2731
 -1      1350    8    0    1
 -2       715       589       615      2952      2639      3065
 -1      1351    8    0    1
 -2       583       706       751      3063      3066      3067
 -1      1352    8    0    1
 -2       713       583       751      2945      3067      3068
 -1      1353    8    0    1
 -2       706       664       751      2926      3069      3066
 -1      1354    8    0    1
 -2       473       716       617      2955      3070      2653
 -1      1355    8    0    1
 -2       618       474       752      2656      3071      3072
 -1      1356    8    0    1
 -2       474       620       752      2668      3073      3071
 -1      1357    8    0    1
 -2       503       607       639      3041      3074      2725
 -1      1358    8    0    1
 -2       599       731       729      2996      3075      2990
 -1      1359    8    0    1
 -2       620       600       732      2669      2998      3076
 -1      1360    8    0    1
 -2       484       626       625      3049      3077      2684
 -1      1361    8    0    1
 -2       621       475       735      2672      3004      3078
 -1      1362    8    0    1
 -2       723       598       730      2974      2993      3079
 -1      1363    8    0    1
 -2       477       595       753      2581      3080      3081
 -1      1364    8    0    1
 -2       728       477       753      2988      3081      3082
 -1      1365    8    0    1
 -2       595       742       753      3025      3083      3080
 -1      1366    8    0    1
 -2       726       597       754      2982      3084      3085
 -1      1367    8    0    1
 -2       597       621       754      2671      3086      3084
 -1      1368    8    0    1
 -2       738       586       734      3012      3002      3087
 -1      1369    8    0    1
 -2       612       738       739      3013      3088      3014
 -1      1370    8    0    1
 -2       624       625       755      2686      3089      3090
 -1      1371    8    0    1
 -2       735       729       756      3005      3091      3092
 -1      1372    8    0    1
 -2       725       739       757      3026      3093      3094
 -1      1373    8    0    1
 -2       630       629       758      2698      3095      3096
 -1      1374    8    0    1
 -2       631       630       759      2701      3097      3098
 -1      1375    8    0    1
 -2       630       758       759      3096      3099      3097
 -1      1376    8    0    1
 -2       632       631       760      2704      3100      3101
 -1      1377    8    0    1
 -2       631       759       760      3098      3102      3100
 -1      1378    8    0    1
 -2       633       632       761      2707      3103      3104
 -1      1379    8    0    1
 -2       632       760       761      3101      3105      3103
 -1      1380    8    0    1
 -2       634       633       762      2710      3106      3107
 -1      1381    8    0    1
 -2       633       761       762      3104      3108      3106
 -1      1382    8    0    1
 -2       635       634       763      2713      3109      3110
 -1      1383    8    0    1
 -2       634       762       763      3107      3111      3109
 -1      1384    8    0    1
 -2       636       635       764      2716      3112      3113
 -1      1385    8    0    1
 -2       635       763       764      3110      3114      3112
 -1      1386    8    0    1
 -2       637       636       765      2719      3115      3116
 -1      1387    8    0    1
 -2       636       764       765      3113      3117      3115
 -1      1388    8    0    1
 -2       628       721       766      2968      3118      3119
 -1      1389    8    0    1
 -2       643       642       767      2738      3120      3121
 -1      1390    8    0    1
 -2       644       643       768      2741      3122      3123
 -1      1391    8    0    1
 -2       643       767       768      3121      3124      3122
 -1      1392    8    0    1
 -2       645       644       769      2744      3125      3126
 -1      1393    8    0    1
 -2       644       768       769      3123      3127      3125
 -1      1394    8    0    1
 -2       646       645       770      2747      3128      3129
 -1      1395    8    0    1
 -2       645       769       770      3126      3130      3128
 -1      1396    8    0    1
 -2       647       646       771      2750      3131      3132
 -1      1397    8    0    1
 -2       646       770       771      3129      3133      3131
 -1      1398    8    0    1
 -2       648       647       772      2753      3134      3135
 -1      1399    8    0    1
 -2       647       771       772      3132      3136      3134
 -1      1400    8    0    1
 -2       649       648       773      2756      3137      3138
 -1      1401    8    0    1
 -2       648       772       773      3135      3139      3137
 -1      1402    8    0    1
 -2       650       649       774      2759      3140      3141
 -1      1403    8    0    1
 -2       649       773       774      3138      3142      3140
 -1      1404    8    0    1
 -2       651       650       775      2762      3143      3144
 -1      1405    8    0    1
 -2       650       774       775      3141      3145      3143
 -1      1406    8    0    1
 -2       652       651       776      2765      3146      3147
 -1      1407    8    0    1
 -2       651       775       776      3144      3148      3146
 -1      1408    8    0    1
 -2       653       652       777      2768      3149      3150
 -1      1409    8    0    1
 -2       652       776       777      3147      3151      3149
 -1      1410    8    0    1
 -2       654       653       778      2771      3152      3153
 -1      1411    8    0    1
 -2       653       777       778      3150      3154      3152
 -1      1412    8    0    1
 -2       655       654       779      2774      3155      3156
 -1      1413    8    0    1
 -2       654       778       779      3153      3157      3155
 -1      1414    8    0    1
 -2       656       655       780      2777      3158      3159
 -1      1415    8    0    1
 -2       655       779       780      3156      3160      3158
 -1      1416    8    0    1
 -2       657       656       781      2780      3161      3162
 -1      1417    8    0    1
 -2       656       780       781      3159      3163      3161
 -1      1418    8    0    1
 -2       658       657       782      2783      3164      3165
 -1      1419    8    0    1
 -2       657       781       782      3162      3166      3164
 -1      1420    8    0    1
 -2       659       658       783      2786      3167      3168
 -1      1421    8    0    1
 -2       658       782       783      3165      3169      3167
 -1      1422    8    0    1
 -2       660       659       784      2789      3170      3171
 -1      1423    8    0    1
 -2       659       783       784      3168      3172      3170
 -1      1424    8    0    1
 -2       661       660       785      2792      3173      3174
 -1      1425    8    0    1
 -2       660       784       785      3171      3175      3173
 -1      1426    8    0    1
 -2       662       661       786      2795      3176      3177
 -1      1427    8    0    1
 -2       661       785       786      3174      3178      3176
 -1      1428    8    0    1
 -2       663       662       787      2798      3179      3180
 -1      1429    8    0    1
 -2       662       786       787      3177      3181      3179
 -1      1430    8    0    1
 -2       664       663       788      2801      3182      3183
 -1      1431    8    0    1
 -2       751       664       788      3069      3183      3184
 -1      1432    8    0    1
 -2       663       787       788      3180      3185      3182
 -1      1433    8    0    1
 -2       666       665       789      2807      3186      3187
 -1      1434    8    0    1
 -2       719       592       740      2960      3018      3188
 -1      1435    8    0    1
 -2       668       669       790      2815      3189      3190
 -1      1436    8    0    1
 -2       667       668       791      2812      3191      3192
 -1      1437    8    0    1
 -2       668       790       791      3190      3193      3191
 -1      1438    8    0    1
 -2       670       671       792      2821      3194      3195
 -1      1439    8    0    1
 -2       671       672       793      2824      3196      3197
 -1      1440    8    0    1
 -2       671       793       792      3197      3198      3194
 -1      1441    8    0    1
 -2       672       673       794      2827      3199      3200
 -1      1442    8    0    1
 -2       672       794       793      3200      3201      3196
 -1      1443    8    0    1
 -2       674       675       756      2833      3202      3203
 -1      1444    8    0    1
 -2       675       676       795      2836      3204      3205
 -1      1445    8    0    1
 -2       676       677       796      2839      3206      3207
 -1      1446    8    0    1
 -2       677       678       797      2842      3208      3209
 -1      1447    8    0    1
 -2       677       797       796      3209      3210      3206
 -1      1448    8    0    1
 -2       678       679       798      2845      3211      3212
 -1      1449    8    0    1
 -2       678       798       797      3212      3213      3208
 -1      1450    8    0    1
 -2       679       680       799      2848      3214      3215
 -1      1451    8    0    1
 -2       679       799       798      3215      3216      3211
 -1      1452    8    0    1
 -2       680       681       800      2851      3217      3218
 -1      1453    8    0    1
 -2       680       800       799      3218      3219      3214
 -1      1454    8    0    1
 -2       681       682       801      2854      3220      3221
 -1      1455    8    0    1
 -2       681       801       800      3221      3222      3217
 -1      1456    8    0    1
 -2       682       683       802      2857      3223      3224
 -1      1457    8    0    1
 -2       682       802       801      3224      3225      3220
 -1      1458    8    0    1
 -2       683       684       803      2860      3226      3227
 -1      1459    8    0    1
 -2       683       803       802      3227      3228      3223
 -1      1460    8    0    1
 -2       684       685       804      2863      3229      3230
 -1      1461    8    0    1
 -2       684       804       803      3230      3231      3226
 -1      1462    8    0    1
 -2       685       686       805      2866      3232      3233
 -1      1463    8    0    1
 -2       685       805       804      3233      3234      3229
 -1      1464    8    0    1
 -2       686       687       806      2869      3235      3236
 -1      1465    8    0    1
 -2       686       806       805      3236      3237      3232
 -1      1466    8    0    1
 -2       687       688       807      2872      3238      3239
 -1      1467    8    0    1
 -2       687       807       806      3239      3240      3235
 -1      1468    8    0    1
 -2       688       689       808      2875      3241      3242
 -1      1469    8    0    1
 -2       688       808       807      3242      3243      3238
 -1      1470    8    0    1
 -2       689       690       809      2878      3244      3245
 -1      1471    8    0    1
 -2       689       809       808      3245      3246      3241
 -1      1472    8    0    1
 -2       690       691       810      2881      3247      3248
 -1      1473    8    0    1
 -2       690       810       809      3248      3249      3244
 -1      1474    8    0    1
 -2       691       692       811      2884      3250      3251
 -1      1475    8    0    1
 -2       691       811       810      3251      3252      3247
 -1      1476    8    0    1
 -2       692       693       812      2887      3253      3254
 -1      1477    8    0    1
 -2       692       812       811      3254      3255      3250
 -1      1478    8    0    1
 -2       693       694       813      2890      3256      3257
 -1      1479    8    0    1
 -2       693       813       812      3257      3258      3253
 -1      1480    8    0    1
 -2       694       695       814      2893      3259      3260
 -1      1481    8    0    1
 -2       694       814       813      3260      3261      3256
 -1      1482    8    0    1
 -2       695       696       815      2896      3262      3263
 -1      1483    8    0    1
 -2       695       815       814      3263      3264      3259
 -1      1484    8    0    1
 -2       696       697       816      2899      3265      3266
 -1      1485    8    0    1
 -2       696       816       815      3266      3267      3262
 -1      1486    8    0    1
 -2       697       698       817      2902      3268      3269
 -1      1487    8    0    1
 -2       697       817       816      3269      3270      3265
 -1      1488    8    0    1
 -2       698       699       818      2905      3271      3272
 -1      1489    8    0    1
 -2       698       818       817      3272      3273      3268
 -1      1490    8    0    1
 -2       699       700       819      2908      3274      3275
 -1      1491    8    0    1
 -2       699       819       818      3275      3276      3271
 -1      1492    8    0    1
 -2       700       701       820      2911      3277      3278
 -1      1493    8    0    1
 -2       700       820       819      3278      3279      3274
 -1      1494    8    0    1
 -2       701       702       821      2914      3280      3281
 -1      1495    8    0    1
 -2       701       821       820      3281      3282      3277
 -1      1496    8    0    1
 -2       702       703       822      2917      3283      3284
 -1      1497    8    0    1
 -2       702       822       821      3284      3285      3280
 -1      1498    8    0    1
 -2       703       704       823      2920      3286      3287
 -1      1499    8    0    1
 -2       822       703       823      3283      3287      3288
 -1      1500    8    0    1
 -2       704       749       823      3056      3289      3286
 -1      1501    8    0    1
 -2       617       716       824      3070      3290      3291
 -1      1502    8    0    1
 -2       617       824       743      3291      3292      3028
 -1      1503    8    0    1
 -2       623       622       825      2681      3293      3294
 -1      1504    8    0    1
 -2       710       666       826      2938      3295      3296
 -1      1505    8    0    1
 -2       666       789       826      3187      3297      3295
 -1      1506    8    0    1
 -2       705       708       827      2931      3298      3299
 -1      1507    8    0    1
 -2       712       713       828      2947      3300      3301
 -1      1508    8    0    1
 -2       639       608       736      2948      3007      3302
 -1      1509    8    0    1
 -2       711       712       829      2944      3303      3304
 -1      1510    8    0    1
 -2       712       828       829      3301      3305      3303
 -1      1511    8    0    1
 -2       619       614       830      2660      3306      3307
 -1      1512    8    0    1
 -2       722       619       830      2972      3307      3308
 -1      1513    8    0    1
 -2       614       741       830      3021      3309      3306
 -1      1514    8    0    1
 -2       732       714       831      3038      3310      3311
 -1      1515    8    0    1
 -2       669       670       832      2818      3312      3313
 -1      1516    8    0    1
 -2       790       669       832      3189      3313      3314
 -1      1517    8    0    1
 -2       670       792       832      3195      3315      3312
 -1      1518    8    0    1
 -2       715       615       833      3065      3316      3317
 -1      1519    8    0    1
 -2       729       731       834      3075      3318      3319
 -1      1520    8    0    1
 -2       642       641       835      2735      3320      3321
 -1      1521    8    0    1
 -2       642       835       767      3321      3322      3120
 -1      1522    8    0    1
 -2       629       628       836      2695      3323      3324
 -1      1523    8    0    1
 -2       629       836       758      3324      3325      3095
 -1      1524    8    0    1
 -2       717       726       837      3059      3326      3327
 -1      1525    8    0    1
 -2       730       718       838      2994      3328      3329
 -1      1526    8    0    1
 -2       620       732       839      3076      3330      3331
 -1      1527    8    0    1
 -2       621       735       840      3078      3332      3333
 -1      1528    8    0    1
 -2       738       734       841      3087      3334      3335
 -1      1529    8    0    1
 -2       625       626       842      3077      3336      3337
 -1      1530    8    0    1
 -2       755       625       842      3089      3337      3338
 -1      1531    8    0    1
 -2       626       724       842      2978      3339      3336
 -1      1532    8    0    1
 -2       731       723       843      3053      3340      3341
 -1      1533    8    0    1
 -2       641       746       844      3064      3342      3343
 -1      1534    8    0    1
 -2       835       641       844      3320      3343      3344
 -1      1535    8    0    1
 -2       746       737       844      3045      3345      3342
 -1      1536    8    0    1
 -2       739       738       845      3088      3346      3347
 -1      1537    8    0    1
 -2       723       730       846      3079      3348      3349
 -1      1538    8    0    1
 -2       730       838       846      3329      3350      3348
 -1      1539    8    0    1
 -2       708       711       847      2941      3351      3352
 -1      1540    8    0    1
 -2       827       708       847      3298      3352      3353
 -1      1541    8    0    1
 -2       711       829       847      3304      3354      3351
 -1      1542    8    0    1
 -2       719       740       638      3188      3031      3355
 -1      1543    8    0    1
 -2       719       638       848      3355      3356      3357
 -1      1544    8    0    1
 -2       714       719       848      3058      3357      3358
 -1      1545    8    0    1
 -2       638       637       848      2722      3359      3356
 -1      1546    8    0    1
 -2       742       623       849      3023      3360      3361
 -1      1547    8    0    1
 -2       623       825       849      3294      3362      3360
 -1      1548    8    0    1
 -2       718       748       838      3051      3363      3328
 -1      1549    8    0    1
 -2       735       756       840      3092      3364      3332
 -1      1550    8    0    1
 -2       744       618       850      3034      3365      3366
 -1      1551    8    0    1
 -2       618       752       850      3072      3367      3365
 -1      1552    8    0    1
 -2       737       725       844      3011      3368      3345
 -1      1553    8    0    1
 -2       725       757       844      3094      3369      3368
 -1      1554    8    0    1
 -2       714       848       831      3358      3370      3310
 -1      1555    8    0    1
 -2       745       717       837      3037      3327      3371
 -1      1556    8    0    1
 -2       628       766       836      3119      3372      3323
 -1      1557    8    0    1
 -2       726       754       796      3085      3373      3374
 -1      1558    8    0    1
 -2       720       667       851      2965      3375      3376
 -1      1559    8    0    1
 -2       667       791       851      3192      3377      3375
 -1      1560    8    0    1
 -2       733       744       852      3033      3378      3379
 -1      1561    8    0    1
 -2       733       852       748      3379      3380      3052
 -1      1562    8    0    1
 -2       637       765       848      3116      3381      3359
 -1      1563    8    0    1
 -2       732       831       839      3311      3382      3330
 -1      1564    8    0    1
 -2       739       845       757      3347      3383      3093
 -1      1565    8    0    1
 -2       505       640       627      2728      3384      2729
 -1      1566    8    0    1
 -2       705       827       853      3299      3385      3386
 -1      1567    8    0    1
 -2       705       853       709      3386      3387      2935
 -1      1568    8    0    1
 -2       747       707       854      3046      3388      3389
 -1      1569    8    0    1
 -2       724       710       855      2979      3390      3391
 -1      1570    8    0    1
 -2       842       724       855      3339      3391      3392
 -1      1571    8    0    1
 -2       710       826       855      3296      3393      3390
 -1      1572    8    0    1
 -2       833       615       745      3316      3036      3394
 -1      1573    8    0    1
 -2       673       674       856      2830      3395      3396
 -1      1574    8    0    1
 -2       676       796       795      3207      3397      3204
 -1      1575    8    0    1
 -2       824       716       857      3290      3398      3399
 -1      1576    8    0    1
 -2       716       750       857      3061      3400      3398
 -1      1577    8    0    1
 -2       707       709       858      2934      3401      3402
 -1      1578    8    0    1
 -2       854       707       858      3388      3402      3403
 -1      1579    8    0    1
 -2       709       853       858      3387      3404      3401
 -1      1580    8    0    1
 -2       841       734       743      3334      3030      3405
 -1      1581    8    0    1
 -2       825       622       859      3293      3406      3407
 -1      1582    8    0    1
 -2       622       727       859      2986      3408      3406
 -1      1583    8    0    1
 -2       750       715       860      3062      3409      3410
 -1      1584    8    0    1
 -2       715       833       860      3317      3411      3409
 -1      1585    8    0    1
 -2       603       639       607      2949      3074      2635
 -1      1586    8    0    1
 -2       845       738       861      3346      3412      3413
 -1      1587    8    0    1
 -2       738       841       861      3335      3414      3412
 -1      1588    8    0    1
 -2       754       621       840      3086      3333      3415
 -1      1589    8    0    1
 -2       789       665       862      3186      3416      3417
 -1      1590    8    0    1
 -2       665       720       862      2964      3418      3416
 -1      1591    8    0    1
 -2       752       620       839      3073      3331      3419
 -1      1592    8    0    1
 -2       834       731       843      3318      3341      3420
 -1      1593    8    0    1
 -2       729       834       856      3319      3421      3422
 -1      1594    8    0    1
 -2       674       756       856      3203      3423      3395
 -1      1595    8    0    1
 -2       727       624       863      2987      3424      3425
 -1      1596    8    0    1
 -2       859       727       863      3408      3425      3426
 -1      1597    8    0    1
 -2       624       755       863      3090      3427      3424
 -1      1598    8    0    1
 -2       729       856       756      3422      3423      3091
 -1      1599    8    0    1
 -2       713       751       864      3068      3428      3429
 -1      1600    8    0    1
 -2       828       713       864      3300      3429      3430
 -1      1601    8    0    1
 -2       751       788       864      3184      3431      3428
 -1      1602    8    0    1
 -2       721       722       830      2971      3308      3432
 -1      1603    8    0    1
 -2       721       830       766      3432      3433      3118
 -1      1604    8    0    1
 -2       728       753       865      3082      3434      3435
 -1      1605    8    0    1
 -2       741       728       866      3022      3436      3437
 -1      1606    8    0    1
 -2       728       865       866      3435      3438      3436
 -1      1607    8    0    1
 -2       843       723       846      3340      3349      3439
 -1      1608    8    0    1
 -2       673       856       794      3396      3440      3199
 -1      1609    8    0    1
 -2       838       748       867      3363      3441      3442
 -1      1610    8    0    1
 -2       796       754       795      3373      3443      3397
 -1      1611    8    0    1
 -2       760       759       868      3102      3444      3445
 -1      1612    8    0    1
 -2       761       760       869      3105      3446      3447
 -1      1613    8    0    1
 -2       760       868       869      3445      3448      3446
 -1      1614    8    0    1
 -2       762       761       870      3108      3449      3450
 -1      1615    8    0    1
 -2       761       869       870      3447      3451      3449
 -1      1616    8    0    1
 -2       763       762       871      3111      3452      3453
 -1      1617    8    0    1
 -2       762       870       871      3450      3454      3452
 -1      1618    8    0    1
 -2       764       763       872      3114      3455      3456
 -1      1619    8    0    1
 -2       763       871       872      3453      3457      3455
 -1      1620    8    0    1
 -2       843       846       873      3439      3458      3459
 -1      1621    8    0    1
 -2       865       753       874      3434      3460      3461
 -1      1622    8    0    1
 -2       753       742       874      3083      3462      3460
 -1      1623    8    0    1
 -2       769       768       875      3127      3463      3464
 -1      1624    8    0    1
 -2       770       769       876      3130      3465      3466
 -1      1625    8    0    1
 -2       769       875       876      3464      3467      3465
 -1      1626    8    0    1
 -2       771       770       877      3133      3468      3469
 -1      1627    8    0    1
 -2       770       876       877      3466      3470      3468
 -1      1628    8    0    1
 -2       772       771       878      3136      3471      3472
 -1      1629    8    0    1
 -2       771       877       878      3469      3473      3471
 -1      1630    8    0    1
 -2       773       772       879      3139      3474      3475
 -1      1631    8    0    1
 -2       772       878       879      3472      3476      3474
 -1      1632    8    0    1
 -2       774       773       880      3142      3477      3478
 -1      1633    8    0    1
 -2       773       879       880      3475      3479      3477
 -1      1634    8    0    1
 -2       775       774       881      3145      3480      3481
 -1      1635    8    0    1
 -2       774       880       881      3478      3482      3480
 -1      1636    8    0    1
 -2       776       775       882      3148      3483      3484
 -1      1637    8    0    1
 -2       775       881       882      3481      3485      3483
 -1      1638    8    0    1
 -2       777       776       883      3151      3486      3487
 -1      1639    8    0    1
 -2       776       882       883      3484      3488      3486
 -1      1640    8    0    1
 -2       778       777       884      3154      3489      3490
 -1      1641    8    0    1
 -2       777       883       884      3487      3491      3489
 -1      1642    8    0    1
 -2       779       778       885      3157      3492      3493
 -1      1643    8    0    1
 -2       778       884       885      3490      3494      3492
 -1      1644    8    0    1
 -2       780       779       886      3160      3495      3496
 -1      1645    8    0    1
 -2       779       885       886      3493      3497      3495
 -1      1646    8    0    1
 -2       781       780       887      3163      3498      3499
 -1      1647    8    0    1
 -2       780       886       887      3496      3500      3498
 -1      1648    8    0    1
 -2       782       781       888      3166      3501      3502
 -1      1649    8    0    1
 -2       781       887       888      3499      3503      3501
 -1      1650    8    0    1
 -2       783       782       889      3169      3504      3505
 -1      1651    8    0    1
 -2       782       888       889      3502      3506      3504
 -1      1652    8    0    1
 -2       784       783       890      3172      3507      3508
 -1      1653    8    0    1
 -2       783       889       890      3505      3509      3507
 -1      1654    8    0    1
 -2       785       784       891      3175      3510      3511
 -1      1655    8    0    1
 -2       784       890       891      3508      3512      3510
 -1      1656    8    0    1
 -2       786       785       892      3178      3513      3514
 -1      1657    8    0    1
 -2       785       891       892      3511      3515      3513
 -1      1658    8    0    1
 -2       787       786       893      3181      3516      3517
 -1      1659    8    0    1
 -2       786       892       893      3514      3518      3516
 -1      1660    8    0    1
 -2       791       790       894      3193      3519      3520
 -1      1661    8    0    1
 -2       848       765       831      3381      3521      3370
 -1      1662    8    0    1
 -2       839       831       895      3382      3522      3523
 -1      1663    8    0    1
 -2       792       793       873      3198      3524      3525
 -1      1664    8    0    1
 -2       756       675       795      3202      3205      3526
 -1      1665    8    0    1
 -2       799       800       896      3219      3527      3528
 -1      1666    8    0    1
 -2       800       801       897      3222      3529      3530
 -1      1667    8    0    1
 -2       800       897       896      3530      3531      3527
 -1      1668    8    0    1
 -2       801       802       898      3225      3532      3533
 -1      1669    8    0    1
 -2       801       898       897      3533      3534      3529
 -1      1670    8    0    1
 -2       802       803       899      3228      3535      3536
 -1      1671    8    0    1
 -2       802       899       898      3536      3537      3532
 -1      1672    8    0    1
 -2       803       804       900      3231      3538      3539
 -1      1673    8    0    1
 -2       803       900       899      3539      3540      3535
 -1      1674    8    0    1
 -2       804       805       901      3234      3541      3542
 -1      1675    8    0    1
 -2       804       901       900      3542      3543      3538
 -1      1676    8    0    1
 -2       805       806       902      3237      3544      3545
 -1      1677    8    0    1
 -2       805       902       901      3545      3546      3541
 -1      1678    8    0    1
 -2       806       807       903      3240      3547      3548
 -1      1679    8    0    1
 -2       806       903       902      3548      3549      3544
 -1      1680    8    0    1
 -2       807       808       904      3243      3550      3551
 -1      1681    8    0    1
 -2       807       904       903      3551      3552      3547
 -1      1682    8    0    1
 -2       808       809       905      3246      3553      3554
 -1      1683    8    0    1
 -2       808       905       904      3554      3555      3550
 -1      1684    8    0    1
 -2       809       810       906      3249      3556      3557
 -1      1685    8    0    1
 -2       809       906       905      3557      3558      3553
 -1      1686    8    0    1
 -2       810       811       907      3252      3559      3560
 -1      1687    8    0    1
 -2       810       907       906      3560      3561      3556
 -1      1688    8    0    1
 -2       811       812       908      3255      3562      3563
 -1      1689    8    0    1
 -2       811       908       907      3563      3564      3559
 -1      1690    8    0    1
 -2       812       813       909      3258      3565      3566
 -1      1691    8    0    1
 -2       812       909       908      3566      3567      3562
 -1      1692    8    0    1
 -2       813       814       910      3261      3568      3569
 -1      1693    8    0    1
 -2       813       910       909      3569      3570      3565
 -1      1694    8    0    1
 -2       814       815       911      3264      3571      3572
 -1      1695    8    0    1
 -2       814       911       910      3572      3573      3568
 -1      1696    8    0    1
 -2       815       816       912      3267      3574      3575
 -1      1697    8    0    1
 -2       815       912       911      3575      3576      3571
 -1      1698    8    0    1
 -2       816       817       913      3270      3577      3578
 -1      1699    8    0    1
 -2       816       913       912      3578      3579      3574
 -1      1700    8    0    1
 -2       817       818       914      3273      3580      3581
 -1      1701    8    0    1
 -2       817       914       913      3581      3582      3577
 -1      1702    8    0    1
 -2       818       819       915      3276      3583      3584
 -1      1703    8    0    1
 -2       818       915       914      3584      3585      3580
 -1      1704    8    0    1
 -2       819       820       916      3279      3586      3587
 -1      1705    8    0    1
 -2       819       916       915      3587      3588      3583
 -1      1706    8    0    1
 -2       820       821       917      3282      3589      3590
 -1      1707    8    0    1
 -2       820       917       916      3590      3591      3586
 -1      1708    8    0    1
 -2       821       822       918      3285      3592      3593
 -1      1709    8    0    1
 -2       821       918       917      3593      3594      3589
 -1      1710    8    0    1
 -2       826       789       919      3297      3595      3596
 -1      1711    8    0    1
 -2       833       745       798      3394      3597      3598
 -1      1712    8    0    1
 -2       749       747       920      3057      3599      3600
 -1      1713    8    0    1
 -2       823       749       920      3289      3600      3601
 -1      1714    8    0    1
 -2       747       854       920      3389      3602      3599
 -1      1715    8    0    1
 -2       766       830       741      3433      3309      3603
 -1      1716    8    0    1
 -2       766       741       866      3603      3437      3604
 -1      1717    8    0    1
 -2       639       736       640      3302      3605      3040
 -1      1718    8    0    1
 -2       757       845       921      3383      3606      3607
 -1      1719    8    0    1
 -2       798       799       833      3216      3608      3598
 -1      1720    8    0    1
 -2       829       828       922      3305      3609      3610
 -1      1721    8    0    1
 -2       856       834       794      3421      3611      3440
 -1      1722    8    0    1
 -2       841       743       923      3405      3612      3613
 -1      1723    8    0    1
 -2       767       835       921      3322      3614      3615
 -1      1724    8    0    1
 -2       726       796       837      3374      3616      3326
 -1      1725    8    0    1
 -2       768       767       924      3124      3617      3618
 -1      1726    8    0    1
 -2       768       924       875      3618      3619      3463
 -1      1727    8    0    1
 -2       752       839       925      3419      3620      3621
 -1      1728    8    0    1
 -2       752       925       850      3621      3622      3367
 -1      1729    8    0    1
 -2       758       836       926      3325      3623      3624
 -1      1730    8    0    1
 -2       834       843       794      3420      3625      3611
 -1      1731    8    0    1
 -2       759       758       927      3099      3626      3627
 -1      1732    8    0    1
 -2       759       927       868      3627      3628      3444
 -1      1733    8    0    1
 -2       836       766       928      3372      3629      3630
 -1      1734    8    0    1
 -2       926       836       928      3623      3630      3631
 -1      1735    8    0    1
 -2       766       866       928      3604      3632      3629
 -1      1736    8    0    1
 -2       627       640       736      3384      3605      3027
 -1      1737    8    0    1
 -2       743       824       929      3292      3633      3634
 -1      1738    8    0    1
 -2       743       929       923      3634      3635      3612
 -1      1739    8    0    1
 -2       844       757       835      3369      3636      3344
 -1      1740    8    0    1
 -2       846       838       930      3350      3637      3638
 -1      1741    8    0    1
 -2       831       765       895      3521      3639      3522
 -1      1742    8    0    1
 -2       835       757       921      3636      3607      3614
 -1      1743    8    0    1
 -2       837       796       797      3616      3210      3640
 -1      1744    8    0    1
 -2       794       843       793      3625      3641      3201
 -1      1745    8    0    1
 -2       793       843       873      3641      3459      3524
 -1      1746    8    0    1
 -2       758       926       927      3624      3642      3626
 -1      1747    8    0    1
 -2       795       754       840      3443      3415      3643
 -1      1748    8    0    1
 -2       851       791       931      3377      3644      3645
 -1      1749    8    0    1
 -2       791       894       931      3520      3646      3644
 -1      1750    8    0    1
 -2       720       851       862      3376      3647      3418
 -1      1751    8    0    1
 -2       852       744       932      3378      3648      3649
 -1      1752    8    0    1
 -2       744       850       932      3366      3650      3648
 -1      1753    8    0    1
 -2       873       846       930      3458      3638      3651
 -1      1754    8    0    1
 -2       765       764       895      3117      3652      3639
 -1      1755    8    0    1
 -2       865       874       933      3461      3653      3654
 -1      1756    8    0    1
 -2       742       849       874      3361      3655      3462
 -1      1757    8    0    1
 -2       855       826       934      3393      3656      3657
 -1      1758    8    0    1
 -2       826       919       934      3596      3658      3656
 -1      1759    8    0    1
 -2       853       827       935      3385      3659      3660
 -1      1760    8    0    1
 -2       894       790       936      3519      3661      3662
 -1      1761    8    0    1
 -2       790       832       936      3314      3663      3661
 -1      1762    8    0    1
 -2       788       787       937      3185      3664      3665
 -1      1763    8    0    1
 -2       864       788       937      3431      3665      3666
 -1      1764    8    0    1
 -2       787       893       937      3517      3667      3664
 -1      1765    8    0    1
 -2       792       873       938      3525      3668      3669
 -1      1766    8    0    1
 -2       832       792       938      3315      3669      3670
 -1      1767    8    0    1
 -2       873       930       938      3651      3671      3668
 -1      1768    8    0    1
 -2       748       852       939      3380      3672      3673
 -1      1769    8    0    1
 -2       748       939       867      3673      3674      3441
 -1      1770    8    0    1
 -2       756       795       840      3526      3643      3364
 -1      1771    8    0    1
 -2       838       867       940      3442      3675      3676
 -1      1772    8    0    1
 -2       838       940       930      3676      3677      3637
 -1      1773    8    0    1
 -2       764       872       895      3456      3678      3652
 -1      1774    8    0    1
 -2       857       750       941      3400      3679      3680
 -1      1775    8    0    1
 -2       750       860       941      3410      3681      3679
 -1      1776    8    0    1
 -2       919       789       942      3595      3682      3683
 -1      1777    8    0    1
 -2       789       862       942      3417      3684      3682
 -1      1778    8    0    1
 -2       822       823       920      3288      3601      3685
 -1      1779    8    0    1
 -2       829       922       943      3610      3686      3687
 -1      1780    8    0    1
 -2       829       943       847      3687      3688      3354
 -1      1781    8    0    1
 -2       920       854       918      3602      3689      3690
 -1      1782    8    0    1
 -2       860       833       896      3411      3691      3692
 -1      1783    8    0    1
 -2       921       845       944      3606      3693      3694
 -1      1784    8    0    1
 -2       845       861       944      3413      3695      3693
 -1      1785    8    0    1
 -2       833       799       896      3608      3528      3691
 -1      1786    8    0    1
 -2       839       895       925      3523      3696      3620
 -1      1787    8    0    1
 -2       797       798       745      3213      3597      3697
 -1      1788    8    0    1
 -2       767       921       924      3615      3698      3617
 -1      1789    8    0    1
 -2       824       857       929      3399      3699      3633
 -1      1790    8    0    1
 -2       863       755       945      3427      3700      3701
 -1      1791    8    0    1
 -2       935       827       946      3659      3702      3703
 -1      1792    8    0    1
 -2       827       847       946      3353      3704      3702
 -1      1793    8    0    1
 -2       918       854       947      3689      3705      3706
 -1      1794    8    0    1
 -2       866       865       948      3438      3707      3708
 -1      1795    8    0    1
 -2       928       866       948      3632      3708      3709
 -1      1796    8    0    1
 -2       865       933       948      3654      3710      3707
 -1      1797    8    0    1
 -2       854       858       947      3403      3711      3705
 -1      1798    8    0    1
 -2       828       864       937      3430      3666      3712
 -1      1799    8    0    1
 -2       822       920       918      3685      3690      3592
 -1      1800    8    0    1
 -2       841       923       949      3613      3713      3714
 -1      1801    8    0    1
 -2       861       841       949      3414      3714      3715
 -1      1802    8    0    1
 -2       825       859       950      3407      3716      3717
 -1      1803    8    0    1
 -2       849       825       951      3362      3718      3719
 -1      1804    8    0    1
 -2       825       950       951      3717      3720      3718
 -1      1805    8    0    1
 -2       828       937       922      3712      3721      3609
 -1      1806    8    0    1
 -2       870       869       952      3451      3722      3723
 -1      1807    8    0    1
 -2       871       870       953      3454      3724      3725
 -1      1808    8    0    1
 -2       870       952       953      3723      3726      3724
 -1      1809    8    0    1
 -2       872       871       954      3457      3727      3728
 -1      1810    8    0    1
 -2       871       953       954      3725      3729      3727
 -1      1811    8    0    1
 -2       874       849       955      3655      3730      3731
 -1      1812    8    0    1
 -2       933       874       955      3653      3731      3732
 -1      1813    8    0    1
 -2       849       951       955      3719      3733      3730
 -1      1814    8    0    1
 -2       850       925       956      3622      3734      3735
 -1      1815    8    0    1
 -2       862       851       957      3647      3736      3737
 -1      1816    8    0    1
 -2       862       957       942      3737      3738      3684
 -1      1817    8    0    1
 -2       877       876       958      3470      3739      3740
 -1      1818    8    0    1
 -2       878       877       959      3473      3741      3742
 -1      1819    8    0    1
 -2       877       958       959      3740      3743      3741
 -1      1820    8    0    1
 -2       879       878       960      3476      3744      3745
 -1      1821    8    0    1
 -2       878       959       960      3742      3746      3744
 -1      1822    8    0    1
 -2       880       879       961      3479      3747      3748
 -1      1823    8    0    1
 -2       879       960       961      3745      3749      3747
 -1      1824    8    0    1
 -2       881       880       962      3482      3750      3751
 -1      1825    8    0    1
 -2       880       961       962      3748      3752      3750
 -1      1826    8    0    1
 -2       882       881       963      3485      3753      3754
 -1      1827    8    0    1
 -2       881       962       963      3751      3755      3753
 -1      1828    8    0    1
 -2       883       882       964      3488      3756      3757
 -1      1829    8    0    1
 -2       882       963       964      3754      3758      3756
 -1      1830    8    0    1
 -2       884       883       965      3491      3759      3760
 -1      1831    8    0    1
 -2       883       964       965      3757      3761      3759
 -1      1832    8    0    1
 -2       885       884       966      3494      3762      3763
 -1      1833    8    0    1
 -2       884       965       966      3760      3764      3762
 -1      1834    8    0    1
 -2       886       885       967      3497      3765      3766
 -1      1835    8    0    1
 -2       885       966       967      3763      3767      3765
 -1      1836    8    0    1
 -2       887       886       968      3500      3768      3769
 -1      1837    8    0    1
 -2       886       967       968      3766      3770      3768
 -1      1838    8    0    1
 -2       888       887       969      3503      3771      3772
 -1      1839    8    0    1
 -2       887       968       969      3769      3773      3771
 -1      1840    8    0    1
 -2       889       888       970      3506      3774      3775
 -1      1841    8    0    1
 -2       888       969       970      3772      3776      3774
 -1      1842    8    0    1
 -2       890       889       971      3509      3777      3778
 -1      1843    8    0    1
 -2       889       970       971      3775      3779      3777
 -1      1844    8    0    1
 -2       891       890       972      3512      3780      3781
 -1      1845    8    0    1
 -2       890       971       972      3778      3782      3780
 -1      1846    8    0    1
 -2       892       891       973      3515      3783      3784
 -1      1847    8    0    1
 -2       891       972       973      3781      3785      3783
 -1      1848    8    0    1
 -2       893       892       974      3518      3786      3787
 -1      1849    8    0    1
 -2       892       973       974      3784      3788      3786
 -1      1850    8    0    1
 -2       937       893       922      3667      3789      3721
 -1      1851    8    0    1
 -2       859       863       975      3426      3790      3791
 -1      1852    8    0    1
 -2       950       859       975      3716      3791      3792
 -1      1853    8    0    1
 -2       863       945       975      3701      3793      3790
 -1      1854    8    0    1
 -2       897       898       976      3534      3794      3795
 -1      1855    8    0    1
 -2       899       900       977      3540      3796      3797
 -1      1856    8    0    1
 -2       900       901       978      3543      3798      3799
 -1      1857    8    0    1
 -2       900       978       977      3799      3800      3796
 -1      1858    8    0    1
 -2       901       902       979      3546      3801      3802
 -1      1859    8    0    1
 -2       901       979       978      3802      3803      3798
 -1      1860    8    0    1
 -2       902       903       980      3549      3804      3805
 -1      1861    8    0    1
 -2       902       980       979      3805      3806      3801
 -1      1862    8    0    1
 -2       903       904       981      3552      3807      3808
 -1      1863    8    0    1
 -2       903       981       980      3808      3809      3804
 -1      1864    8    0    1
 -2       904       905       982      3555      3810      3811
 -1      1865    8    0    1
 -2       904       982       981      3811      3812      3807
 -1      1866    8    0    1
 -2       905       906       983      3558      3813      3814
 -1      1867    8    0    1
 -2       905       983       982      3814      3815      3810
 -1      1868    8    0    1
 -2       906       907       984      3561      3816      3817
 -1      1869    8    0    1
 -2       906       984       983      3817      3818      3813
 -1      1870    8    0    1
 -2       907       908       985      3564      3819      3820
 -1      1871    8    0    1
 -2       907       985       984      3820      3821      3816
 -1      1872    8    0    1
 -2       908       909       986      3567      3822      3823
 -1      1873    8    0    1
 -2       908       986       985      3823      3824      3819
 -1      1874    8    0    1
 -2       909       910       987      3570      3825      3826
 -1      1875    8    0    1
 -2       909       987       986      3826      3827      3822
 -1      1876    8    0    1
 -2       910       911       988      3573      3828      3829
 -1      1877    8    0    1
 -2       910       988       987      3829      3830      3825
 -1      1878    8    0    1
 -2       911       912       989      3576      3831      3832
 -1      1879    8    0    1
 -2       911       989       988      3832      3833      3828
 -1      1880    8    0    1
 -2       912       913       990      3579      3834      3835
 -1      1881    8    0    1
 -2       912       990       989      3835      3836      3831
 -1      1882    8    0    1
 -2       913       914       991      3582      3837      3838
 -1      1883    8    0    1
 -2       913       991       990      3838      3839      3834
 -1      1884    8    0    1
 -2       914       915       992      3585      3840      3841
 -1      1885    8    0    1
 -2       914       992       991      3841      3842      3837
 -1      1886    8    0    1
 -2       915       916       993      3588      3843      3844
 -1      1887    8    0    1
 -2       915       993       992      3844      3845      3840
 -1      1888    8    0    1
 -2       916       917       994      3591      3846      3847
 -1      1889    8    0    1
 -2       916       994       993      3847      3848      3843
 -1      1890    8    0    1
 -2       917       918       947      3594      3706      3849
 -1      1891    8    0    1
 -2       853       935       995      3660      3850      3851
 -1      1892    8    0    1
 -2       853       995       858      3851      3852      3404
 -1      1893    8    0    1
 -2       925       895       996      3696      3853      3854
 -1      1894    8    0    1
 -2       956       925       996      3734      3854      3855
 -1      1895    8    0    1
 -2       895       872       996      3678      3856      3853
 -1      1896    8    0    1
 -2       860       896       997      3692      3857      3858
 -1      1897    8    0    1
 -2       941       860       997      3681      3858      3859
 -1      1898    8    0    1
 -2       896       897       997      3531      3860      3857
 -1      1899    8    0    1
 -2       837       797       745      3640      3697      3371
 -1      1900    8    0    1
 -2       868       927       998      3628      3861      3862
 -1      1901    8    0    1
 -2       876       875       999      3467      3863      3864
 -1      1902    8    0    1
 -2       876       999       958      3864      3865      3739
 -1      1903    8    0    1
 -2       945       755       855      3700      3866      3867
 -1      1904    8    0    1
 -2       929       857      1000      3699      3868      3869
 -1      1905    8    0    1
 -2       875       924      1001      3619      3870      3871
 -1      1906    8    0    1
 -2       875      1001       999      3871      3872      3863
 -1      1907    8    0    1
 -2       898       899      1002      3537      3873      3874
 -1      1908    8    0    1
 -2       976       898      1002      3794      3874      3875
 -1      1909    8    0    1
 -2       899       977      1002      3797      3876      3873
 -1      1910    8    0    1
 -2       927       926      1003      3642      3877      3878
 -1      1911    8    0    1
 -2       927      1003       998      3878      3879      3861
 -1      1912    8    0    1
 -2       755       842       855      3338      3392      3866
 -1      1913    8    0    1
 -2       869       868      1004      3448      3880      3881
 -1      1914    8    0    1
 -2       868       998      1004      3862      3882      3880
 -1      1915    8    0    1
 -2       947       858       995      3711      3852      3883
 -1      1916    8    0    1
 -2       861       949      1005      3715      3884      3885
 -1      1917    8    0    1
 -2       949       923      1006      3713      3886      3887
 -1      1918    8    0    1
 -2       924       921       944      3698      3694      3888
 -1      1919    8    0    1
 -2       923       929      1006      3635      3889      3886
 -1      1920    8    0    1
 -2       945       855       934      3867      3657      3890
 -1      1921    8    0    1
 -2       922       893       974      3789      3787      3891
 -1      1922    8    0    1
 -2       917       947       994      3849      3892      3846
 -1      1923    8    0    1
 -2       931       894      1007      3646      3893      3894
 -1      1924    8    0    1
 -2       926       928      1008      3631      3895      3896
 -1      1925    8    0    1
 -2      1003       926      1008      3877      3896      3897
 -1      1926    8    0    1
 -2       928       948      1008      3709      3898      3895
 -1      1927    8    0    1
 -2       932       850       956      3650      3735      3899
 -1      1928    8    0    1
 -2       933       955      1009      3732      3900      3901
 -1      1929    8    0    1
 -2       936       832       938      3663      3670      3902
 -1      1930    8    0    1
 -2       997       897       976      3860      3795      3903
 -1      1931    8    0    1
 -2       957       851       931      3736      3645      3904
 -1      1932    8    0    1
 -2       934       919      1010      3658      3905      3906
 -1      1933    8    0    1
 -2       952       869      1004      3722      3881      3907
 -1      1934    8    0    1
 -2       894       936      1011      3662      3908      3909
 -1      1935    8    0    1
 -2       894      1011      1007      3909      3910      3893
 -1      1936    8    0    1
 -2       944       861      1005      3695      3885      3911
 -1      1937    8    0    1
 -2      1001       924       944      3870      3888      3912
 -1      1938    8    0    1
 -2       994       947      1012      3892      3913      3914
 -1      1939    8    0    1
 -2       947       995      1012      3883      3915      3913
 -1      1940    8    0    1
 -2      1000       857       941      3868      3680      3916
 -1      1941    8    0    1
 -2       995       935      1013      3850      3917      3918
 -1      1942    8    0    1
 -2       995      1013      1012      3918      3919      3915
 -1      1943    8    0    1
 -2       996       872       954      3856      3728      3920
 -1      1944    8    0    1
 -2       950       975      1014      3792      3921      3922
 -1      1945    8    0    1
 -2       943       922       974      3686      3891      3923
 -1      1946    8    0    1
 -2      1006       929      1015      3889      3924      3925
 -1      1947    8    0    1
 -2       929      1000      1015      3869      3926      3924
 -1      1948    8    0    1
 -2       847       943       946      3688      3927      3704
 -1      1949    8    0    1
 -2       867       939      1016      3674      3928      3929
 -1      1950    8    0    1
 -2       867      1016       940      3929      3930      3675
 -1      1951    8    0    1
 -2       950      1014      1017      3922      3931      3932
 -1      1952    8    0    1
 -2       950      1017       951      3932      3933      3720
 -1      1953    8    0    1
 -2       930       940       938      3677      3934      3671
 -1      1954    8    0    1
 -2       852       932      1018      3649      3935      3936
 -1      1955    8    0    1
 -2       852      1018       939      3936      3937      3672
 -1      1956    8    0    1
 -2       948       933      1008      3710      3938      3898
 -1      1957    8    0    1
 -2      1008       933      1009      3938      3901      3939
 -1      1958    8    0    1
 -2       935       946      1019      3703      3940      3941
 -1      1959    8    0    1
 -2       935      1019      1013      3941      3942      3917
 -1      1960    8    0    1
 -2       919       942      1020      3683      3943      3944
 -1      1961    8    0    1
 -2       919      1020      1010      3944      3945      3905
 -1      1962    8    0    1
 -2       945       934      1010      3890      3906      3946
 -1      1963    8    0    1
 -2      1005       949      1021      3884      3947      3948
 -1      1964    8    0    1
 -2       949      1006      1021      3887      3949      3947
 -1      1965    8    0    1
 -2       945      1010       975      3946      3950      3793
 -1      1966    8    0    1
 -2      1009       955      1022      3900      3951      3952
 -1      1967    8    0    1
 -2       955       951      1022      3733      3953      3951
 -1      1968    8    0    1
 -2       936       938       940      3902      3934      3954
 -1      1969    8    0    1
 -2       954       953      1023      3729      3955      3956
 -1      1970    8    0    1
 -2       936       940      1011      3954      3957      3908
 -1      1971    8    0    1
 -2       952      1004      1024      3907      3958      3959
 -1      1972    8    0    1
 -2      1004       998      1025      3882      3960      3961
 -1      1973    8    0    1
 -2      1004      1025      1024      3961      3962      3958
 -1      1974    8    0    1
 -2       942       957      1026      3738      3963      3964
 -1      1975    8    0    1
 -2       942      1026      1020      3964      3965      3943
 -1      1976    8    0    1
 -2       960       959      1027      3746      3966      3967
 -1      1977    8    0    1
 -2       961       960      1028      3749      3968      3969
 -1      1978    8    0    1
 -2       960      1027      1028      3967      3970      3968
 -1      1979    8    0    1
 -2       962       961      1029      3752      3971      3972
 -1      1980    8    0    1
 -2       961      1028      1029      3969      3973      3971
 -1      1981    8    0    1
 -2       963       962      1030      3755      3974      3975
 -1      1982    8    0    1
 -2       962      1029      1030      3972      3976      3974
 -1      1983    8    0    1
 -2       964       963      1031      3758      3977      3978
 -1      1984    8    0    1
 -2       963      1030      1031      3975      3979      3977
 -1      1985    8    0    1
 -2       965       964      1032      3761      3980      3981
 -1      1986    8    0    1
 -2       964      1031      1032      3978      3982      3980
 -1      1987    8    0    1
 -2       966       965      1033      3764      3983      3984
 -1      1988    8    0    1
 -2       965      1032      1033      3981      3985      3983
 -1      1989    8    0    1
 -2       967       966      1034      3767      3986      3987
 -1      1990    8    0    1
 -2       966      1033      1034      3984      3988      3986
 -1      1991    8    0    1
 -2       968       967      1035      3770      3989      3990
 -1      1992    8    0    1
 -2       967      1034      1035      3987      3991      3989
 -1      1993    8    0    1
 -2       969       968      1036      3773      3992      3993
 -1      1994    8    0    1
 -2       968      1035      1036      3990      3994      3992
 -1      1995    8    0    1
 -2       970       969      1037      3776      3995      3996
 -1      1996    8    0    1
 -2       969      1036      1037      3993      3997      3995
 -1      1997    8    0    1
 -2       971       970      1038      3779      3998      3999
 -1      1998    8    0    1
 -2       970      1037      1038      3996      4000      3998
 -1      1999    8    0    1
 -2       972       971      1039      3782      4001      4002
 -1      2000    8    0    1
 -2       971      1038      1039      3999      4003      4001
 -1      2001    8    0    1
 -2       973       972      1040      3785      4004      4005
 -1      2002    8    0    1
 -2       972      1039      1040      4002      4006      4004
 -1      2003    8    0    1
 -2       974       973      1041      3788      4007      4008
 -1      2004    8    0    1
 -2       973      1040      1041      4005      4009      4007
 -1      2005    8    0    1
 -2       979       980      1042      3806      4010      4011
 -1      2006    8    0    1
 -2       978       979      1043      3803      4012      4013
 -1      2007    8    0    1
 -2       979      1042      1043      4011      4014      4012
 -1      2008    8    0    1
 -2       998      1003      1044      3879      4015      4016
 -1      2009    8    0    1
 -2       998      1044      1025      4016      4017      3960
 -1      2010    8    0    1
 -2       996       954      1045      3920      4018      4019
 -1      2011    8    0    1
 -2       954      1023      1045      3956      4020      4018
 -1      2012    8    0    1
 -2       977       978      1046      3800      4021      4022
 -1      2013    8    0    1
 -2       978      1043      1046      4013      4023      4021
 -1      2014    8    0    1
 -2       980       981      1047      3809      4024      4025
 -1      2015    8    0    1
 -2       980      1047      1042      4025      4026      4010
 -1      2016    8    0    1
 -2       981       982      1048      3812      4027      4028
 -1      2017    8    0    1
 -2       981      1048      1047      4028      4029      4024
 -1      2018    8    0    1
 -2       982       983      1049      3815      4030      4031
 -1      2019    8    0    1
 -2       982      1049      1048      4031      4032      4027
 -1      2020    8    0    1
 -2       983       984      1050      3818      4033      4034
 -1      2021    8    0    1
 -2       983      1050      1049      4034      4035      4030
 -1      2022    8    0    1
 -2       984       985      1051      3821      4036      4037
 -1      2023    8    0    1
 -2       984      1051      1050      4037      4038      4033
 -1      2024    8    0    1
 -2       985       986      1052      3824      4039      4040
 -1      2025    8    0    1
 -2       985      1052      1051      4040      4041      4036
 -1      2026    8    0    1
 -2       986       987      1053      3827      4042      4043
 -1      2027    8    0    1
 -2       986      1053      1052      4043      4044      4039
 -1      2028    8    0    1
 -2       987       988      1054      3830      4045      4046
 -1      2029    8    0    1
 -2       987      1054      1053      4046      4047      4042
 -1      2030    8    0    1
 -2       988       989      1055      3833      4048      4049
 -1      2031    8    0    1
 -2       988      1055      1054      4049      4050      4045
 -1      2032    8    0    1
 -2       989       990      1056      3836      4051      4052
 -1      2033    8    0    1
 -2       989      1056      1055      4052      4053      4048
 -1      2034    8    0    1
 -2       990       991      1057      3839      4054      4055
 -1      2035    8    0    1
 -2       990      1057      1056      4055      4056      4051
 -1      2036    8    0    1
 -2       991       992      1058      3842      4057      4058
 -1      2037    8    0    1
 -2       991      1058      1057      4058      4059      4054
 -1      2038    8    0    1
 -2       992       993      1059      3845      4060      4061
 -1      2039    8    0    1
 -2       992      1059      1058      4061      4062      4057
 -1      2040    8    0    1
 -2       993       994      1060      3848      4063      4064
 -1      2041    8    0    1
 -2      1059       993      1060      4060      4064      4065
 -1      2042    8    0    1
 -2       994      1012      1060      3914      4066      4063
 -1      2043    8    0    1
 -2       944      1005      1001      3911      4067      3912
 -1      2044    8    0    1
 -2       931      1007      1061      3894      4068      4069
 -1      2045    8    0    1
 -2       931      1061       957      4069      4070      3904
 -1      2046    8    0    1
 -2      1014       975      1010      3921      3950      4071
 -1      2047    8    0    1
 -2       943       974      1041      3923      4008      4072
 -1      2048    8    0    1
 -2       956       996      1045      3855      4019      4073
 -1      2049    8    0    1
 -2       932       956      1062      3899      4074      4075
 -1      2050    8    0    1
 -2      1018       932      1062      3935      4075      4076
 -1      2051    8    0    1
 -2       956      1045      1062      4073      4077      4074
 -1      2052    8    0    1
 -2       958       999      1063      3865      4078      4079
 -1      2053    8    0    1
 -2       959       958      1064      3743      4080      4081
 -1      2054    8    0    1
 -2      1027       959      1064      3966      4081      4082
 -1      2055    8    0    1
 -2       958      1063      1064      4079      4083      4080
 -1      2056    8    0    1
 -2       999      1001      1065      3872      4084      4085
 -1      2057    8    0    1
 -2       999      1065      1063      4085      4086      4078
 -1      2058    8    0    1
 -2      1014      1010      1066      4071      4087      4088
 -1      2059    8    0    1
 -2      1010      1020      1066      3945      4089      4087
 -1      2060    8    0    1
 -2      1001      1005      1065      4067      4090      4084
 -1      2061    8    0    1
 -2       953       952      1067      3726      4091      4092
 -1      2062    8    0    1
 -2       953      1067      1023      4092      4093      3955
 -1      2063    8    0    1
 -2      1003      1008      1009      3897      3939      4094
 -1      2064    8    0    1
 -2      1003      1009      1044      4094      4095      4015
 -1      2065    8    0    1
 -2      1022       951      1017      3953      3933      4096
 -1      2066    8    0    1
 -2       952      1024      1067      3959      4097      4091
 -1      2067    8    0    1
 -2      1026       957      1061      3963      4070      4098
 -1      2068    8    0    1
 -2      1044      1009      1068      4095      4099      4100
 -1      2069    8    0    1
 -2      1009      1022      1068      3952      4101      4099
 -1      2070    8    0    1
 -2      1065      1005      1021      4090      3948      4102
 -1      2071    8    0    1
 -2      1061      1007      1069      4068      4103      4104
 -1      2072    8    0    1
 -2      1015      1000      1070      3926      4105      4106
 -1      2073    8    0    1
 -2      1016       939      1071      3928      4107      4108
 -1      2074    8    0    1
 -2       939      1018      1071      3937      4109      4107
 -1      2075    8    0    1
 -2       976      1002      1070      3875      4110      4111
 -1      2076    8    0    1
 -2      1017      1014      1066      3931      4088      4112
 -1      2077    8    0    1
 -2      1007      1011      1072      3910      4113      4114
 -1      2078    8    0    1
 -2      1007      1072      1069      4114      4115      4103
 -1      2079    8    0    1
 -2       976      1070      1000      4111      4105      4116
 -1      2080    8    0    1
 -2       946       943      1019      3927      4117      3940
 -1      2081    8    0    1
 -2      1002       977      1073      3876      4118      4119
 -1      2082    8    0    1
 -2      1070      1002      1073      4110      4119      4120
 -1      2083    8    0    1
 -2       977      1046      1073      4022      4121      4118
 -1      2084    8    0    1
 -2      1000       941       976      3916      4122      4116
 -1      2085    8    0    1
 -2       997       976       941      3903      4122      3859
 -1      2086    8    0    1
 -2      1006      1015      1074      3925      4123      4124
 -1      2087    8    0    1
 -2      1006      1074      1021      4124      4125      3949
 -1      2088    8    0    1
 -2      1012      1013      1075      3919      4126      4127
 -1      2089    8    0    1
 -2      1012      1075      1060      4127      4128      4066
 -1      2090    8    0    1
 -2      1013      1019      1076      3942      4129      4130
 -1      2091    8    0    1
 -2      1013      1076      1075      4130      4131      4126
 -1      2092    8    0    1
 -2      1019       943      1041      4117      4072      4132
 -1      2093    8    0    1
 -2      1011       940      1077      3957      4133      4134
 -1      2094    8    0    1
 -2      1020      1026      1078      3965      4135      4136
 -1      2095    8    0    1
 -2      1020      1078      1066      4136      4137      4089
 -1      2096    8    0    1
 -2      1024      1025      1079      3962      4138      4139
 -1      2097    8    0    1
 -2      1023      1067      1080      4093      4140      4141
 -1      2098    8    0    1
 -2      1025      1044      1081      4017      4142      4143
 -1      2099    8    0    1
 -2      1079      1025      1081      4138      4143      4144
 -1      2100    8    0    1
 -2      1044      1068      1081      4100      4145      4142
 -1      2101    8    0    1
 -2      1029      1028      1082      3973      4146      4147
 -1      2102    8    0    1
 -2      1030      1029      1083      3976      4148      4149
 -1      2103    8    0    1
 -2      1029      1082      1083      4147      4150      4148
 -1      2104    8    0    1
 -2      1031      1030      1084      3979      4151      4152
 -1      2105    8    0    1
 -2      1030      1083      1084      4149      4153      4151
 -1      2106    8    0    1
 -2      1032      1031      1085      3982      4154      4155
 -1      2107    8    0    1
 -2      1031      1084      1085      4152      4156      4154
 -1      2108    8    0    1
 -2      1033      1032      1086      3985      4157      4158
 -1      2109    8    0    1
 -2      1032      1085      1086      4155      4159      4157
 -1      2110    8    0    1
 -2      1034      1033      1087      3988      4160      4161
 -1      2111    8    0    1
 -2      1033      1086      1087      4158      4162      4160
 -1      2112    8    0    1
 -2      1035      1034      1088      3991      4163      4164
 -1      2113    8    0    1
 -2      1034      1087      1088      4161      4165      4163
 -1      2114    8    0    1
 -2      1036      1035      1089      3994      4166      4167
 -1      2115    8    0    1
 -2      1035      1088      1089      4164      4168      4166
 -1      2116    8    0    1
 -2      1037      1036      1090      3997      4169      4170
 -1      2117    8    0    1
 -2      1036      1089      1090      4167      4171      4169
 -1      2118    8    0    1
 -2      1038      1037      1091      4000      4172      4173
 -1      2119    8    0    1
 -2      1037      1090      1091      4170      4174      4172
 -1      2120    8    0    1
 -2      1039      1038      1092      4003      4175      4176
 -1      2121    8    0    1
 -2      1038      1091      1092      4173      4177      4175
 -1      2122    8    0    1
 -2      1040      1039      1093      4006      4178      4179
 -1      2123    8    0    1
 -2      1039      1092      1093      4176      4180      4178
 -1      2124    8    0    1
 -2      1041      1040      1076      4009      4181      4182
 -1      2125    8    0    1
 -2      1047      1048      1094      4029      4183      4184
 -1      2126    8    0    1
 -2      1042      1047      1095      4026      4185      4186
 -1      2127    8    0    1
 -2      1047      1094      1095      4184      4187      4185
 -1      2128    8    0    1
 -2      1065      1021      1096      4102      4188      4189
 -1      2129    8    0    1
 -2      1063      1065      1096      4086      4189      4190
 -1      2130    8    0    1
 -2      1021      1074      1096      4125      4191      4188
 -1      2131    8    0    1
 -2      1022      1017      1097      4096      4192      4193
 -1      2132    8    0    1
 -2      1022      1097      1068      4193      4194      4101
 -1      2133    8    0    1
 -2      1045      1023      1098      4020      4195      4196
 -1      2134    8    0    1
 -2      1062      1045      1098      4077      4196      4197
 -1      2135    8    0    1
 -2      1023      1080      1098      4141      4198      4195
 -1      2136    8    0    1
 -2      1046      1043      1099      4023      4199      4200
 -1      2137    8    0    1
 -2      1048      1049      1100      4032      4201      4202
 -1      2138    8    0    1
 -2      1048      1100      1094      4202      4203      4183
 -1      2139    8    0    1
 -2      1049      1050      1101      4035      4204      4205
 -1      2140    8    0    1
 -2      1049      1101      1100      4205      4206      4201
 -1      2141    8    0    1
 -2      1050      1051      1102      4038      4207      4208
 -1      2142    8    0    1
 -2      1050      1102      1101      4208      4209      4204
 -1      2143    8    0    1
 -2      1051      1052      1103      4041      4210      4211
 -1      2144    8    0    1
 -2      1051      1103      1102      4211      4212      4207
 -1      2145    8    0    1
 -2      1052      1053      1104      4044      4213      4214
 -1      2146    8    0    1
 -2      1052      1104      1103      4214      4215      4210
 -1      2147    8    0    1
 -2      1053      1054      1105      4047      4216      4217
 -1      2148    8    0    1
 -2      1053      1105      1104      4217      4218      4213
 -1      2149    8    0    1
 -2      1054      1055      1106      4050      4219      4220
 -1      2150    8    0    1
 -2      1054      1106      1105      4220      4221      4216
 -1      2151    8    0    1
 -2      1055      1056      1107      4053      4222      4223
 -1      2152    8    0    1
 -2      1055      1107      1106      4223      4224      4219
 -1      2153    8    0    1
 -2      1056      1057      1108      4056      4225      4226
 -1      2154    8    0    1
 -2      1056      1108      1107      4226      4227      4222
 -1      2155    8    0    1
 -2      1057      1058      1109      4059      4228      4229
 -1      2156    8    0    1
 -2      1057      1109      1108      4229      4230      4225
 -1      2157    8    0    1
 -2      1058      1059      1110      4062      4231      4232
 -1      2158    8    0    1
 -2      1058      1110      1109      4232      4233      4228
 -1      2159    8    0    1
 -2      1015      1070      1111      4106      4234      4235
 -1      2160    8    0    1
 -2      1074      1015      1111      4123      4235      4236
 -1      2161    8    0    1
 -2      1070      1073      1111      4120      4237      4234
 -1      2162    8    0    1
 -2      1017      1066      1097      4112      4238      4192
 -1      2163    8    0    1
 -2      1067      1024      1112      4097      4239      4240
 -1      2164    8    0    1
 -2      1024      1079      1112      4139      4241      4239
 -1      2165    8    0    1
 -2      1043      1042      1113      4014      4242      4243
 -1      2166    8    0    1
 -2      1099      1043      1113      4199      4243      4244
 -1      2167    8    0    1
 -2      1042      1095      1113      4186      4245      4242
 -1      2168    8    0    1
 -2      1019      1041      1076      4132      4182      4129
 -1      2169    8    0    1
 -2      1028      1027      1114      3970      4246      4247
 -1      2170    8    0    1
 -2      1028      1114      1082      4247      4248      4146
 -1      2171    8    0    1
 -2      1011      1077      1072      4134      4249      4113
 -1      2172    8    0    1
 -2      1026      1061      1115      4098      4250      4251
 -1      2173    8    0    1
 -2      1078      1026      1115      4135      4251      4252
 -1      2174    8    0    1
 -2      1061      1069      1115      4104      4253      4250
 -1      2175    8    0    1
 -2      1018      1062      1116      4076      4254      4255
 -1      2176    8    0    1
 -2      1062      1098      1116      4197      4256      4254
 -1      2177    8    0    1
 -2      1066      1078      1117      4137      4257      4258
 -1      2178    8    0    1
 -2      1097      1066      1117      4238      4258      4259
 -1      2179    8    0    1
 -2      1078      1115      1117      4252      4260      4257
 -1      2180    8    0    1
 -2      1072      1077      1118      4249      4261      4262
 -1      2181    8    0    1
 -2      1071      1018      1116      4109      4255      4263
 -1      2182    8    0    1
 -2      1077       940      1016      4133      3930      4264
 -1      2183    8    0    1
 -2      1040      1093      1076      4179      4265      4181
 -1      2184    8    0    1
 -2      1063      1096      1119      4190      4266      4267
 -1      2185    8    0    1
 -2      1059      1060      1120      4065      4268      4269
 -1      2186    8    0    1
 -2      1110      1059      1120      4231      4269      4270
 -1      2187    8    0    1
 -2      1060      1075      1120      4128      4271      4268
 -1      2188    8    0    1
 -2      1075      1076      1121      4131      4272      4273
 -1      2189    8    0    1
 -2      1120      1075      1121      4271      4273      4274
 -1      2190    8    0    1
 -2      1076      1093      1121      4265      4275      4272
 -1      2191    8    0    1
 -2      1016      1071      1077      4108      4276      4264
 -1      2192    8    0    1
 -2      1064      1063      1119      4083      4267      4277
 -1      2193    8    0    1
 -2      1027      1064      1122      4082      4278      4279
 -1      2194    8    0    1
 -2      1027      1122      1114      4279      4280      4246
 -1      2195    8    0    1
 -2      1069      1072      1123      4115      4281      4282
 -1      2196    8    0    1
 -2      1072      1118      1123      4262      4283      4281
 -1      2197    8    0    1
 -2      1118      1077      1071      4261      4276      4284
 -1      2198    8    0    1
 -2      1073      1046      1124      4121      4285      4286
 -1      2199    8    0    1
 -2      1111      1073      1124      4237      4286      4287
 -1      2200    8    0    1
 -2      1046      1099      1124      4200      4288      4285
 -1      2201    8    0    1
 -2      1067      1112      1080      4240      4289      4140
 -1      2202    8    0    1
 -2      1069      1123      1125      4282      4290      4291
 -1      2203    8    0    1
 -2      1069      1125      1115      4291      4292      4253
 -1      2204    8    0    1
 -2      1071      1116      1118      4263      4293      4284
 -1      2205    8    0    1
 -2      1080      1112      1123      4289      4294      4295
 -1      2206    8    0    1
 -2      1083      1082      1100      4150      4296      4297
 -1      2207    8    0    1
 -2      1119      1096      1124      4266      4298      4299
 -1      2208    8    0    1
 -2      1084      1083      1101      4153      4300      4301
 -1      2209    8    0    1
 -2      1085      1084      1102      4156      4302      4303
 -1      2210    8    0    1
 -2      1086      1085      1103      4159      4304      4305
 -1      2211    8    0    1
 -2      1087      1086      1104      4162      4306      4307
 -1      2212    8    0    1
 -2      1088      1087      1105      4165      4308      4309
 -1      2213    8    0    1
 -2      1089      1088      1106      4168      4310      4311
 -1      2214    8    0    1
 -2      1090      1089      1107      4171      4312      4313
 -1      2215    8    0    1
 -2      1091      1090      1108      4174      4314      4315
 -1      2216    8    0    1
 -2      1092      1091      1109      4177      4316      4317
 -1      2217    8    0    1
 -2      1110      1120      1121      4270      4274      4318
 -1      2218    8    0    1
 -2      1101      1102      1084      4209      4302      4301
 -1      2219    8    0    1
 -2      1094      1100      1082      4203      4296      4319
 -1      2220    8    0    1
 -2      1102      1103      1085      4212      4304      4303
 -1      2221    8    0    1
 -2      1103      1104      1086      4215      4306      4305
 -1      2222    8    0    1
 -2      1104      1105      1087      4218      4308      4307
 -1      2223    8    0    1
 -2      1105      1106      1088      4221      4310      4309
 -1      2224    8    0    1
 -2      1106      1107      1089      4224      4312      4311
 -1      2225    8    0    1
 -2      1107      1108      1090      4227      4314      4313
 -1      2226    8    0    1
 -2      1108      1109      1091      4230      4316      4315
 -1      2227    8    0    1
 -2      1109      1110      1092      4233      4320      4317
 -1      2228    8    0    1
 -2      1095      1094      1114      4187      4321      4322
 -1      2229    8    0    1
 -2      1112      1079      1125      4241      4323      4324
 -1      2230    8    0    1
 -2      1080      1123      1118      4295      4283      4325
 -1      2231    8    0    1
 -2      1101      1083      1100      4300      4297      4206
 -1      2232    8    0    1
 -2      1064      1119      1122      4277      4326      4278
 -1      2233    8    0    1
 -2      1068      1097      1126      4194      4327      4328
 -1      2234    8    0    1
 -2      1081      1068      1126      4145      4328      4329
 -1      2235    8    0    1
 -2      1097      1117      1126      4259      4330      4327
 -1      2236    8    0    1
 -2      1082      1114      1094      4248      4321      4319
 -1      2237    8    0    1
 -2      1123      1112      1125      4294      4324      4290
 -1      2238    8    0    1
 -2      1095      1114      1122      4322      4280      4331
 -1      2239    8    0    1
 -2      1117      1115      1125      4260      4292      4332
 -1      2240    8    0    1
 -2      1079      1081      1126      4144      4329      4333
 -1      2241    8    0    1
 -2      1119      1124      1099      4299      4288      4334
 -1      2242    8    0    1
 -2      1092      1110      1121      4320      4318      4335
 -1      2243    8    0    1
 -2      1093      1092      1121      4180      4335      4275
 -1      2244    8    0    1
 -2      1096      1074      1124      4191      4336      4298
 -1      2245    8    0    1
 -2      1119      1099      1122      4334      4337      4326
 -1      2246    8    0    1
 -2      1080      1118      1116      4325      4293      4338
 -1      2247    8    0    1
 -2      1117      1125      1126      4332      4339      4330
 -1      2248    8    0    1
 -2      1074      1111      1124      4236      4287      4336
 -1      2249    8    0    1
 -2      1122      1099      1113      4337      4244      4340
 -1      2250    8    0    1
 -2      1095      1122      1113      4331      4340      4245
 -1      2251    8    0    1
 -2      1080      1116      1098      4338      4256      4198
 -1      2252    8    0    1
 -2      1079      1126      1125      4333      4339      4323
 -3
    1PSTEP                         1           1           1          
  100CL  101 1.000000000        4340                     0    1           1
 -4  DISP        4    1
 -5  D1          1    2    1    0
 -5  D2          1    2    2    0
 -5  D3          1    2    3    0
 -5  ALL         1    2    0    0    1ALL
 -1         1 5.67882E-03-1.01628E-03-1.51766E-14
 -1         2 7.84049E-03-1.73263E-04-1.97096E-14
 -1         3 1.49820E-02-1.15831E-04-1.21908E-13
 -1         4 1.54202E-02-1.54715E-03-1.19152E-13
 -1         5 0.00000E+00 0.00000E+00 0.00000E+00
 -1         6 0.00000E+00 0.00000E+00 0.00000E+00
 -1         7 0.00000E+00 0.00000E+00 0.00000E+00
 -1         8 0.00000E+00 0.00000E+00 0.00000E+00
 -1         9 0.00000E+00 0.00000E+00 0.00000E+00
 -1        10 0.00000E+00 0.00000E+00 0.00000E+00
 -1        11 0.00000E+00 0.00000E+00 0.00000E+00
 -1        12 0.00000E+00 0.00000E+00 0.00000E+00
 -1        13 0.00000E+00 0.00000E+00 0.00000E+00
 -1        14 0.00000E+00 0.00000E+00 0.00000E+00
 -1        15 0.00000E+00 0.00000E+00 0.00000E+00
 -1        16 0.00000E+00 0.00000E+00 0.00000E+00
 -1        17 0.00000E+00 0.00000E+00 0.00000E+00
 -1        18 0.00000E+00 0.00000E+00 0.00000E+00
 -1        19 0.00000E+00 0.00000E+00 0.00000E+00
 -1        20 0.00000E+00 0.00000E+00 0.00000E+00
 -1        21 0.00000E+00 0.00000E+00 0.00000E+00
 -1        22 0.00000E+00 0.00000E+00 0.00000E+00
 -1        23 4.08719E-04-2.52124E-04 4.14199E-17
 -1        24 7.03400E-04-3.82015E-04-1.63986E-17
 -1        25 9.80209E-04-4.68752E-04-1.72134E-16
 -1        26 1.25521E-03-5.27231E-04-4.25211E-16
 -1        27 1.53364E-03-5.67049E-04-7.76519E-16
 -1        28 1.81866E-03-5.94328E-04-1.22515E-15
 -1        29 2.11265E-03-6.14012E-04-1.77104E-15
 -1        30 2.41762E-03-6.30750E-04-2.41074E-15
 -1        31 2.73528E-03-6.49435E-04-3.14814E-15
 -1        32 3.06679E-03-6.75556E-04-3.98360E-15
 -1        33 3.41219E-03-7.15274E-04-4.91275E-15
 -1        34 3.76941E-03-7.74983E-04-5.92997E-15
 -1        35 4.13314E-03-8.59914E-04-7.04222E-15
 -1        36 4.49397E-03-9.71371E-04-8.25656E-15
 -1        37 4.83916E-03-1.10283E-03-9.56826E-15
 -1        38 5.15659E-03-1.23677E-03-1.09826E-14
 -1        39 5.44146E-03-1.34609E-03-1.25090E-14
 -1        40 5.70213E-03-1.40320E-03-1.41500E-14
 -1        41 5.95893E-03-1.39367E-03-1.58986E-14
 -1        42 6.23441E-03-1.32465E-03-1.77599E-14
 -1        43 6.54195E-03-1.22068E-03-1.97327E-14
 -1        44 6.88113E-03-1.11065E-03-2.18172E-14
 -1        45 7.24174E-03-1.01625E-03-2.40142E-14
 -1        46 7.61082E-03-9.48049E-04-2.63297E-14
 -1        47 7.97775E-03-9.07465E-04-2.87528E-14
 -1        48 8.33602E-03-8.90826E-04-3.12825E-14
 -1        49 8.68278E-03-8.92662E-04-3.39192E-14
 -1        50 9.01768E-03-9.07621E-04-3.66714E-14
 -1        51 9.34171E-03-9.31270E-04-3.95387E-14
 -1        52 9.65646E-03-9.60263E-04-4.25219E-14
 -1        53 9.96365E-03-9.92225E-04-4.56064E-14
 -1        54 1.02649E-02-1.02555E-03-4.87953E-14
 -1        55 1.05615E-02-1.05921E-03-5.20916E-14
 -1        56 1.08546E-02-1.09257E-03-5.54840E-14
 -1        57 1.11452E-02-1.12528E-03-5.89557E-14
 -1        58 1.14339E-02-1.15720E-03-6.25065E-14
 -1        59 1.17214E-02-1.18826E-03-6.61360E-14
 -1        60 1.20080E-02-1.21850E-03-6.98396E-14
 -1        61 1.22939E-02-1.24800E-03-7.36058E-14
 -1        62 1.25796E-02-1.27685E-03-7.74489E-14
 -1        63 1.28650E-02-1.30515E-03-8.13764E-14
 -1        64 1.31503E-02-1.33298E-03-8.53797E-14
 -1        65 1.34356E-02-1.36046E-03-8.94596E-14
 -1        66 1.37210E-02-1.38765E-03-9.36039E-14
 -1        67 1.40064E-02-1.41463E-03-9.77988E-14
 -1        68 1.42919E-02-1.44147E-03-1.02035E-13
 -1        69 1.45774E-02-1.46823E-03-1.06309E-13
 -1        70 1.48631E-02-1.49496E-03-1.10620E-13
 -1        71 1.51487E-02-1.52171E-03-1.14978E-13
 -1        72 4.11140E-04 2.53141E-04 4.47335E-17
 -1        73 7.03414E-04 3.85464E-04-5.75982E-18
 -1        74 9.80762E-04 4.71938E-04-1.49295E-16
 -1        75 1.25564E-03 5.31223E-04-3.87806E-16
 -1        76 1.53335E-03 5.72246E-04-7.23447E-16
 -1        77 1.81686E-03 6.01105E-04-1.15948E-15
 -1        78 2.10805E-03 6.22681E-04-1.69471E-15
 -1        79 2.40822E-03 6.41388E-04-2.32830E-15
 -1        80 2.71806E-03 6.61557E-04-3.06319E-15
 -1        81 3.03742E-03 6.87545E-04-3.89965E-15
 -1        82 3.36497E-03 7.23553E-04-4.83617E-15
 -1        83 3.69763E-03 7.73017E-04-5.87418E-15
 -1        84 4.03031E-03 8.37466E-04-7.01197E-15
 -1        85 4.35603E-03 9.14907E-04-8.25562E-15
 -1        86 4.66725E-03 9.98245E-04-9.61279E-15
 -1        87 4.95838E-03 1.07487E-03-1.10813E-14
 -1        88 5.22889E-03 1.12874E-03-1.26663E-14
 -1        89 5.48520E-03 1.14531E-03-1.43752E-14
 -1        90 5.73934E-03 1.11743E-03-1.62187E-14
 -1        91 6.00437E-03 1.04856E-03-1.81994E-14
 -1        92 6.28923E-03 9.51234E-04-2.03066E-14
 -1        93 6.59601E-03 8.41753E-04-2.25380E-14
 -1        94 6.92081E-03 7.34584E-04-2.48991E-14
 -1        95 7.25663E-03 6.39205E-04-2.73688E-14
 -1        96 7.59629E-03 5.59754E-04-2.99407E-14
 -1        97 7.93419E-03 4.96358E-04-3.26153E-14
 -1        98 8.26678E-03 4.46875E-04-3.53967E-14
 -1        99 8.59236E-03 4.08285E-04-3.82822E-14
 -1       100 8.91058E-03 3.77564E-04-4.12705E-14
 -1       101 9.22186E-03 3.52106E-04-4.43612E-14
 -1       102 9.52708E-03 3.29862E-04-4.75366E-14
 -1       103 9.82723E-03 3.09327E-04-5.07923E-14
 -1       104 1.01233E-02 2.89456E-04-5.41341E-14
 -1       105 1.04162E-02 2.69565E-04-5.75755E-14
 -1       106 1.07068E-02 2.49243E-04-6.11248E-14
 -1       107 1.09955E-02 2.28269E-04-6.47804E-14
 -1       108 1.12830E-02 2.06555E-04-6.85328E-14
 -1       109 1.15696E-02 1.84096E-04-7.23695E-14
 -1       110 1.18556E-02 1.60938E-04-7.62939E-14
 -1       111 1.21413E-02 1.37158E-04-8.02905E-14
 -1       112 1.24267E-02 1.12842E-04-8.43276E-14
 -1       113 1.27121E-02 8.80799E-05-8.84121E-14
 -1       114 1.29974E-02 6.29593E-05-9.25574E-14
 -1       115 1.32827E-02 3.75599E-05-9.67339E-14
 -1       116 1.35681E-02 1.19545E-05-1.00921E-13
 -1       117 1.38536E-02-1.37911E-05-1.05131E-13
 -1       118 1.41392E-02-3.96177E-05-1.09359E-13
 -1       119 1.44248E-02-6.54726E-05-1.13603E-13
 -1       120 1.47105E-02-9.13127E-05-1.17864E-13
 -1       121 1.50073E-02-2.00115E-04-1.21772E-13
 -1       122 1.50327E-02-2.84421E-04-1.21632E-13
 -1       123 1.50580E-02-3.68777E-04-1.21473E-13
 -1       124 1.50833E-02-4.53195E-04-1.21318E-13
 -1       125 1.51087E-02-5.37671E-04-1.21169E-13
 -1       126 1.51338E-02-6.20764E-04-1.21019E-13
 -1       127 1.51594E-02-7.05326E-04-1.20864E-13
 -1       128 1.51851E-02-7.89909E-04-1.20722E-13
 -1       129 1.52110E-02-8.74500E-04-1.20600E-13
 -1       130 1.52370E-02-9.59083E-04-1.20480E-13
 -1       131 1.52631E-02-1.04365E-03-1.20352E-13
 -1       132 1.52888E-02-1.12674E-03-1.20225E-13
 -1       133 1.53151E-02-1.21122E-03-1.20053E-13
 -1       134 1.53415E-02-1.29563E-03-1.19869E-13
 -1       135 1.53679E-02-1.37999E-03-1.19658E-13
 -1       136 1.53943E-02-1.46430E-03-1.19406E-13
 -1       137 7.78810E-03-9.69634E-06-1.96273E-14
 -1       138 7.62103E-03 1.71304E-04-1.92942E-14
 -1       139 7.37006E-03 3.29789E-04-1.87713E-14
 -1       140 7.05295E-03 4.61995E-04-1.81183E-14
 -1       141 6.63666E-03 5.79304E-04-1.72693E-14
 -1       142 6.20867E-03 6.53250E-04-1.64226E-14
 -1       143 5.75604E-03 6.91151E-04-1.55502E-14
 -1       144 5.27296E-03 6.89242E-04-1.46358E-14
 -1       145 4.82849E-03 6.47838E-04-1.38258E-14
 -1       146 4.44234E-03 5.75733E-04-1.31395E-14
 -1       147 4.07287E-03 4.63990E-04-1.24994E-14
 -1       148 3.79402E-03 3.34913E-04-1.20262E-14
 -1       149 3.58663E-03 1.82454E-04-1.16737E-14
 -1       150 3.46600E-03 1.05771E-05-1.14647E-14
 -1       151 3.44666E-03-1.60905E-04-1.14228E-14
 -1       152 3.53407E-03-3.47000E-04-1.15559E-14
 -1       153 3.71155E-03-5.15537E-04-1.18346E-14
 -1       154 3.97821E-03-6.71227E-04-1.22595E-14
 -1       155 4.35556E-03-8.17660E-04-1.28788E-14
 -1       156 4.77030E-03-9.23236E-04-1.35771E-14
 -1       157 5.21233E-03-9.89703E-04-1.43423E-14
 -1       158 6.12692E-03-1.00116E-03-1.60112E-14
 -1       159 6.53291E-03-9.51498E-04-1.68008E-14
 -1       160 6.90580E-03-8.70481E-04-1.75643E-14
 -1       161 7.23266E-03-7.62302E-04-1.82635E-14
 -1       162 7.49216E-03-6.36645E-04-1.88431E-14
 -1       163 7.68389E-03-4.96082E-04-1.92893E-14
 -1       164 7.80351E-03-3.41816E-04-1.95904E-14
 -1       165 2.43042E-04-1.17339E-04-1.07675E-17
 -1       166 2.27915E-04-8.52887E-05-2.71186E-17
 -1       167 2.21192E-04-6.30589E-05-3.65410E-17
 -1       168 2.16990E-04-4.59240E-05-4.21450E-17
 -1       169 2.14091E-04-3.22160E-05-4.52688E-17
 -1       170 2.12058E-04-2.03910E-05-4.70408E-17
 -1       171 2.10865E-04-9.89144E-06-4.79116E-17
 -1       172 2.10504E-04-1.20996E-09-4.82504E-17
 -1       173 2.10965E-04 9.95592E-06-4.77625E-17
 -1       174 2.12231E-04 2.06438E-05-4.68240E-17
 -1       175 2.14252E-04 3.25280E-05-4.48013E-17
 -1       176 2.17182E-04 4.67893E-05-4.12505E-17
 -1       177 2.21349E-04 6.43048E-05-3.52976E-17
 -1       178 2.28029E-04 8.69770E-05-2.54347E-17
 -1       179 2.41927E-04 1.19689E-04-8.50760E-18
 -1       180 2.99266E-04 1.77564E-04 9.55792E-18
 -1       181 4.72663E-04-2.48819E-04-3.19738E-17
 -1       182 7.76010E-04-3.56105E-04-1.61780E-16
 -1       183 1.06779E-03-4.27647E-04-3.84275E-16
 -1       184 1.35637E-03-4.75489E-04-7.01035E-16
 -1       185 1.64613E-03-5.07140E-04-1.11347E-15
 -1       186 1.94004E-03-5.28182E-04-1.62103E-15
 -1       187 2.24028E-03-5.43437E-04-2.22247E-15
 -1       188 2.54855E-03-5.57706E-04-2.91870E-15
 -1       189 2.86609E-03-5.76271E-04-3.71037E-15
 -1       190 3.19352E-03-6.05194E-04-4.59691E-15
 -1       191 3.53049E-03-6.51263E-04-5.57479E-15
 -1       192 3.87517E-03-7.21200E-04-6.64308E-15
 -1       193 4.22369E-03-8.19607E-04-7.80997E-15
 -1       194 4.57000E-03-9.45265E-04-9.07571E-15
 -1       195 4.90678E-03-1.08656E-03-1.04418E-14
 -1       196 5.22827E-03-1.21916E-03-1.19159E-14
 -1       197 5.53429E-03-1.31098E-03-1.35034E-14
 -1       198 5.83241E-03-1.33623E-03-1.52022E-14
 -1       199 6.13489E-03-1.29028E-03-1.70146E-14
 -1       200 6.45164E-03-1.19281E-03-1.89396E-14
 -1       201 6.78527E-03-1.07574E-03-2.09822E-14
 -1       202 7.13165E-03-9.67426E-04-2.31376E-14
 -1       203 7.48371E-03-8.84297E-04-2.54076E-14
 -1       204 7.83485E-03-8.31143E-04-2.77873E-14
 -1       205 8.18052E-03-8.05406E-04-3.02735E-14
 -1       206 8.51831E-03-8.01432E-04-3.28665E-14
 -1       207 8.84746E-03-8.13173E-04-3.55659E-14
 -1       208 9.16826E-03-8.35430E-04-3.83788E-14
 -1       209 9.48159E-03-8.64211E-04-4.13051E-14
 -1       210 9.78854E-03-8.96660E-04-4.43427E-14
 -1       211 1.00902E-02-9.30839E-04-4.74778E-14
 -1       212 1.03877E-02-9.65498E-04-5.07163E-14
 -1       213 1.06820E-02-9.99878E-04-5.40545E-14
 -1       214 1.09736E-02-1.03355E-03-5.74819E-14
 -1       215 1.12634E-02-1.06632E-03-6.09948E-14
 -1       216 1.15518E-02-1.09812E-03-6.45905E-14
 -1       217 1.18392E-02-1.12899E-03-6.82591E-14
 -1       218 1.21259E-02-1.15900E-03-7.20004E-14
 -1       219 1.24121E-02-1.18826E-03-7.58066E-14
 -1       220 1.26979E-02-1.21687E-03-7.96902E-14
 -1       221 1.29836E-02-1.24495E-03-8.36541E-14
 -1       222 1.32692E-02-1.27261E-03-8.76868E-14
 -1       223 1.35547E-02-1.29993E-03-9.17881E-14
 -1       224 1.38402E-02-1.32699E-03-9.59482E-14
 -1       225 1.41258E-02-1.35388E-03-1.00156E-13
 -1       226 1.44114E-02-1.38066E-03-1.04404E-13
 -1       227 1.46970E-02-1.40738E-03-1.08691E-13
 -1       228 1.49827E-02-1.43411E-03-1.13025E-13
 -1       229 6.09670E-04 3.12683E-04-5.64700E-17
 -1       230 9.04838E-04 4.03664E-04-2.10159E-16
 -1       231 1.19267E-03 4.65222E-04-4.56032E-16
 -1       232 1.47926E-03 5.07050E-04-7.96716E-16
 -1       233 1.76818E-03 5.35678E-04-1.23439E-15
 -1       234 2.06173E-03 5.56221E-04-1.77020E-15
 -1       235 2.36136E-03 5.73246E-04-2.40350E-15
 -1       236 2.66793E-03 5.91218E-04-3.13640E-15
 -1       237 2.98157E-03 6.14682E-04-3.96821E-15
 -1       238 3.30155E-03 6.48137E-04-4.89842E-15
 -1       239 3.62598E-03 6.95485E-04-5.92860E-15
 -1       240 3.95170E-03 7.58900E-04-7.05960E-15
 -1       241 4.27435E-03 8.37105E-04-8.29405E-15
 -1       242 4.58913E-03 9.23521E-04-9.63666E-15
 -1       243 4.89225E-03 1.00542E-03-1.10920E-14
 -1       244 5.18288E-03 1.06570E-03-1.26640E-14
 -1       245 5.46443E-03 1.08800E-03-1.43624E-14
 -1       246 5.74402E-03 1.06346E-03-1.61928E-14
 -1       247 6.02970E-03 9.94857E-04-1.81554E-14
 -1       248 6.32718E-03 8.95311E-04-2.02475E-14
 -1       249 6.63798E-03 7.82403E-04-2.24647E-14
 -1       250 6.95980E-03 6.71848E-04-2.48081E-14
 -1       251 7.28831E-03 5.73887E-04-2.72588E-14
 -1       252 7.61892E-03 4.92901E-04-2.98153E-14
 -1       253 7.94790E-03 4.28928E-04-3.24778E-14
 -1       254 8.27279E-03 3.79581E-04-3.52431E-14
 -1       255 8.59231E-03 3.41585E-04-3.81088E-14
 -1       256 8.90609E-03 3.11696E-04-4.10765E-14
 -1       257 9.21438E-03 2.87151E-04-4.41459E-14
 -1       258 9.51773E-03 2.65800E-04-4.73049E-14
 -1       259 9.81687E-03 2.46078E-04-5.05464E-14
 -1       260 1.01125E-02 2.26912E-04-5.38764E-14
 -1       261 1.04054E-02 2.07613E-04-5.73065E-14
 -1       262 1.06962E-02 1.87773E-04-6.08396E-14
 -1       263 1.09853E-02 1.67181E-04-6.44733E-14
 -1       264 1.12732E-02 1.45763E-04-6.82012E-14
 -1       265 1.15602E-02 1.23528E-04-7.20139E-14
 -1       266 1.18466E-02 1.00537E-04-7.59128E-14
 -1       267 1.21326E-02 7.68756E-05-7.98877E-14
 -1       268 1.24184E-02 5.26423E-05-8.39129E-14
 -1       269 1.27040E-02 2.79354E-05-8.79870E-14
 -1       270 1.29895E-02 2.84810E-06-9.21140E-14
 -1       271 1.32750E-02-2.25340E-05-9.62744E-14
 -1       272 1.35606E-02-4.81338E-05-1.00454E-13
 -1       273 1.38461E-02-7.38825E-05-1.04656E-13
 -1       274 1.41317E-02-9.97181E-05-1.08877E-13
 -1       275 1.44174E-02-1.25585E-04-1.13115E-13
 -1       276 1.47031E-02-1.51437E-04-1.17368E-13
 -1       277 1.47726E-02-2.19922E-04-1.18015E-13
 -1       278 1.47979E-02-3.04248E-04-1.17874E-13
 -1       279 1.48232E-02-3.88611E-04-1.17727E-13
 -1       280 1.48485E-02-4.73011E-04-1.17584E-13
 -1       281 1.48735E-02-5.56013E-04-1.17433E-13
 -1       282 1.48991E-02-6.40471E-04-1.17277E-13
 -1       283 1.49247E-02-7.24948E-04-1.17127E-13
 -1       284 1.49505E-02-8.09433E-04-1.16986E-13
 -1       285 1.49765E-02-8.93919E-04-1.16846E-13
 -1       286 1.50025E-02-9.78396E-04-1.16701E-13
 -1       287 1.50282E-02-1.06142E-03-1.16549E-13
 -1       288 1.50545E-02-1.14586E-03-1.16372E-13
 -1       289 1.50809E-02-1.23026E-03-1.16174E-13
 -1       290 1.51073E-02-1.31462E-03-1.15960E-13
 -1       291 1.50450E-02-1.37437E-03-1.14499E-13
 -1       292 7.84602E-03-1.35969E-04-2.05676E-14
 -1       293 7.69668E-03-4.72376E-05-2.05554E-14
 -1       294 7.41953E-03 1.07541E-04-1.98503E-14
 -1       295 7.08052E-03 2.78738E-04-1.90819E-14
 -1       296 6.66106E-03 4.52446E-04-1.82997E-14
 -1       297 6.28502E-03 6.28617E-04-1.71442E-14
 -1       298 5.90916E-03 7.36067E-04-1.61160E-14
 -1       299 5.53032E-03 7.80581E-04-1.50559E-14
 -1       300 5.15005E-03 7.18173E-04-1.40501E-14
 -1       301 4.77903E-03 6.00583E-04-1.32056E-14
 -1       302 4.41603E-03 4.37830E-04-1.24041E-14
 -1       303 4.04238E-03 2.78405E-04-1.18306E-14
 -1       304 3.73913E-03 1.32895E-04-1.13732E-14
 -1       305 3.51656E-03 6.46719E-06-1.10315E-14
 -1       306 3.41881E-03-8.95949E-05-1.09303E-14
 -1       307 3.46060E-03-1.77330E-04-1.08338E-14
 -1       308 3.64801E-03-3.08314E-04-1.11985E-14
 -1       309 3.93498E-03-4.55336E-04-1.15850E-14
 -1       310 4.32958E-03-6.26857E-04-1.20793E-14
 -1       311 4.73011E-03-8.32135E-04-1.28807E-14
 -1       312 5.11544E-03-9.88306E-04-1.37366E-14
 -1       313 5.49765E-03-1.08135E-03-1.46551E-14
 -1       314 5.86247E-03-1.08805E-03-1.56461E-14
 -1       315 6.21894E-03-1.01478E-03-1.66085E-14
 -1       316 6.57026E-03-8.90318E-04-1.75378E-14
 -1       317 6.92177E-03-7.34992E-04-1.84183E-14
 -1       318 7.25143E-03-5.77762E-04-1.91930E-14
 -1       319 7.53225E-03-4.39066E-04-1.98199E-14
 -1       320 7.74226E-03-3.19289E-04-2.03368E-14
 -1       321 7.85839E-03-2.23446E-04-2.06636E-14
 -1       322 4.59947E-04-1.45662E-04-1.26665E-16
 -1       323 4.80590E-04-1.94624E-04-9.88996E-17
 -1       324 4.38676E-04-7.77792E-05-1.55712E-16
 -1       325 4.32578E-04-5.23473E-05-1.62356E-16
 -1       326 4.28639E-04-3.01637E-05-1.66313E-16
 -1       327 4.26763E-04-9.78817E-06-1.68122E-16
 -1       328 4.26925E-04 1.00943E-05-1.67780E-16
 -1       329 4.29089E-04 3.07466E-05-1.65449E-16
 -1       330 4.33131E-04 5.30305E-05-1.60865E-16
 -1       331 4.39276E-04 7.90631E-05-1.53086E-16
 -1       332 4.47929E-04 1.10160E-04-1.40956E-16
 -1       333 4.60580E-04 1.48769E-04-1.21814E-16
 -1       334 4.82047E-04 1.99328E-04-9.26383E-17
 -1       335 5.38410E-04 2.51900E-04-7.98176E-17
 -1       336 8.36435E-04 3.44508E-04-2.39168E-16
 -1       337 8.76873E-04-3.24054E-04-3.28354E-16
 -1       338 1.17071E-03-3.81176E-04-6.13801E-16
 -1       339 1.46337E-03-4.19114E-04-9.92445E-16
 -1       340 1.75698E-03-4.43638E-04-1.46398E-15
 -1       341 2.05334E-03-4.59661E-04-2.02878E-15
 -1       342 2.35403E-03-4.71836E-04-2.68556E-15
 -1       343 2.66040E-03-4.85066E-04-3.43597E-15
 -1       344 2.97369E-03-5.04912E-04-4.28086E-15
 -1       345 3.29500E-03-5.37818E-04-5.21750E-15
 -1       346 3.62521E-03-5.90932E-04-6.24370E-15
 -1       347 3.96446E-03-6.71080E-04-7.36369E-15
 -1       348 4.31132E-03-7.82214E-04-8.58238E-15
 -1       349 4.66152E-03-9.20813E-04-9.90038E-15
 -1       350 5.00782E-03-1.07000E-03-1.13218E-14
 -1       351 5.34332E-03-1.19730E-03-1.28528E-14
 -1       352 5.66791E-03-1.26453E-03-1.44996E-14
 -1       353 5.99061E-03-1.24972E-03-1.62603E-14
 -1       354 6.32237E-03-1.16394E-03-1.81392E-14
 -1       355 6.66649E-03-1.04239E-03-2.01372E-14
 -1       356 7.01779E-03-9.21818E-04-2.22504E-14
 -1       357 7.36864E-03-8.24923E-04-2.44762E-14
 -1       358 7.71365E-03-7.59756E-04-2.68160E-14
 -1       359 8.05052E-03-7.24788E-04-2.92595E-14
 -1       360 8.37899E-03-7.14357E-04-3.18054E-14
 -1       361 8.69972E-03-7.21992E-04-3.44591E-14
 -1       362 9.01368E-03-7.41954E-04-3.72192E-14
 -1       363 9.32186E-03-7.69733E-04-4.00939E-14
 -1       364 9.62519E-03-8.02044E-04-4.30773E-14
 -1       365 9.92450E-03-8.36616E-04-4.61641E-14
 -1       366 1.02206E-02-8.71961E-04-4.93475E-14
 -1       367 1.05140E-02-9.07154E-04-5.26345E-14
 -1       368 1.08054E-02-9.41665E-04-5.60158E-14
 -1       369 1.10951E-02-9.75227E-04-5.94812E-14
 -1       370 1.13837E-02-1.00775E-03-6.30369E-14
 -1       371 1.16713E-02-1.03924E-03-6.66747E-14
 -1       372 1.19583E-02-1.06977E-03-7.03887E-14
 -1       373 1.22448E-02-1.09947E-03-7.41632E-14
 -1       374 1.25309E-02-1.12843E-03-7.80082E-14
 -1       375 1.28168E-02-1.15679E-03-8.19352E-14
 -1       376 1.31026E-02-1.18465E-03-8.59306E-14
 -1       377 1.33883E-02-1.21213E-03-8.99921E-14
 -1       378 1.36740E-02-1.23931E-03-9.41109E-14
 -1       379 1.39596E-02-1.26627E-03-9.82816E-14
 -1       380 1.42453E-02-1.29308E-03-1.02502E-13
 -1       381 1.45309E-02-1.31981E-03-1.06764E-13
 -1       382 1.47879E-02-1.34708E-03-1.10612E-13
 -1       383 1.12955E-03 4.08180E-04-4.87813E-16
 -1       384 1.42050E-03 4.51336E-04-8.29330E-16
 -1       385 1.71210E-03 4.80438E-04-1.26567E-15
 -1       386 2.00646E-03 5.00669E-04-1.79878E-15
 -1       387 2.30506E-03 5.16655E-04-2.42823E-15
 -1       388 2.60893E-03 5.32900E-04-3.15537E-15
 -1       389 2.91860E-03 5.54012E-04-3.97995E-15
 -1       390 3.23405E-03 5.84648E-04-4.90288E-15
 -1       391 3.55447E-03 6.29060E-04-5.92323E-15
 -1       392 3.87810E-03 6.90066E-04-7.04267E-15
 -1       393 4.20206E-03 7.67352E-04-8.26430E-15
 -1       394 4.52250E-03 8.55386E-04-9.59236E-15
 -1       395 4.83560E-03 9.41974E-04-1.10331E-14
 -1       396 5.13932E-03 1.00929E-03-1.25902E-14
 -1       397 5.43523E-03 1.03887E-03-1.42722E-14
 -1       398 5.72874E-03 1.01940E-03-1.60856E-14
 -1       399 6.02661E-03 9.52448E-04-1.80299E-14
 -1       400 6.33352E-03 8.51650E-04-2.01057E-14
 -1       401 6.65019E-03 7.36067E-04-2.23069E-14
 -1       402 6.97405E-03 6.22736E-04-2.46315E-14
 -1       403 7.30125E-03 5.22597E-04-2.70656E-14
 -1       404 7.62820E-03 4.40208E-04-2.96060E-14
 -1       405 7.95233E-03 3.75518E-04-3.22512E-14
 -1       406 8.27215E-03 3.25975E-04-3.49991E-14
 -1       407 8.58703E-03 2.88135E-04-3.78476E-14
 -1       408 8.89693E-03 2.58620E-04-4.07937E-14
 -1       409 9.20218E-03 2.34562E-04-4.38448E-14
 -1       410 9.50331E-03 2.13738E-04-4.69871E-14
 -1       411 9.80091E-03 1.94534E-04-5.02151E-14
 -1       412 1.00956E-02 1.75848E-04-5.35299E-14
 -1       413 1.03879E-02 1.56974E-04-5.69448E-14
 -1       414 1.06784E-02 1.37497E-04-6.04608E-14
 -1       415 1.09674E-02 1.17208E-04-6.40747E-14
 -1       416 1.12553E-02 9.60362E-05-6.77816E-14
 -1       417 1.15425E-02 7.39969E-05-7.15721E-14
 -1       418 1.18291E-02 5.11575E-05-7.54478E-14
 -1       419 1.21152E-02 2.76121E-05-7.94034E-14
 -1       420 1.24012E-02 3.46462E-06-8.34181E-14
 -1       421 1.26869E-02-2.11807E-05-8.74795E-14
 -1       422 1.29726E-02-4.62257E-05-9.15926E-14
 -1       423 1.32582E-02-7.15808E-05-9.57386E-14
 -1       424 1.35438E-02-9.71658E-05-9.99092E-14
 -1       425 1.38294E-02-1.22909E-04-1.04107E-13
 -1       426 1.41150E-02-1.48748E-04-1.08322E-13
 -1       427 1.44007E-02-1.74624E-04-1.12553E-13
 -1       428 1.45866E-02-1.97280E-04-1.15281E-13
 -1       429 1.45884E-02-4.08357E-04-1.13990E-13
 -1       430 1.45631E-02-3.24010E-04-1.14131E-13
 -1       431 1.45749E-02-2.60639E-04-1.14705E-13
 -1       432 1.46133E-02-4.91293E-04-1.13847E-13
 -1       433 1.46388E-02-5.75675E-04-1.13692E-13
 -1       434 1.46644E-02-6.60066E-04-1.13539E-13
 -1       435 1.46901E-02-7.44463E-04-1.13386E-13
 -1       436 1.47160E-02-8.28862E-04-1.13232E-13
 -1       437 1.47420E-02-9.13259E-04-1.13074E-13
 -1       438 1.47677E-02-9.96221E-04-1.12904E-13
 -1       439 1.47939E-02-1.08060E-03-1.12716E-13
 -1       440 1.48202E-02-1.16497E-03-1.12512E-13
 -1       441 1.48466E-02-1.24932E-03-1.12297E-13
 -1       442 7.52632E-03-2.90290E-05-2.11795E-14
 -1       443 7.88355E-03-1.83968E-04-2.15772E-14
 -1       444 7.80281E-03-1.33551E-04-2.15630E-14
 -1       445 7.18743E-03 1.19370E-04-2.04279E-14
 -1       446 6.84358E-03 2.89234E-04-1.96023E-14
 -1       447 4.47326E-04-1.08051E-04-1.44582E-16
 -1       448 6.03560E-03 7.07565E-04-1.69153E-14
 -1       449 5.73909E-03 7.95192E-04-1.58152E-14
 -1       450 5.33584E-03 7.78443E-04-1.43430E-14
 -1       451 5.00980E-03 6.68387E-04-1.33178E-14
 -1       452 4.69754E-03 5.20125E-04-1.25139E-14
 -1       453 4.25856E-03 2.98027E-04-1.16149E-14
 -1       454 3.91823E-03 1.42959E-04-1.11102E-14
 -1       455 3.62935E-03 1.94187E-05-1.06834E-14
 -1       456 3.43440E-03-6.68130E-05-1.03921E-14
 -1       457 3.40002E-03-1.15826E-04-1.02901E-14
 -1       458 3.56073E-03-2.00123E-04-1.05051E-14
 -1       459 3.81036E-03-3.06435E-04-1.08413E-14
 -1       460 4.14587E-03-4.50139E-04-1.11852E-14
 -1       461 4.62503E-03-7.06250E-04-1.20609E-14
 -1       462 5.01319E-03-9.18414E-04-1.29713E-14
 -1       463 5.31083E-03-1.05292E-03-1.38509E-14
 -1       464 5.68670E-03-1.13162E-03-1.51124E-14
 -1       465 6.01919E-03-1.08280E-03-1.63052E-14
 -1       466 6.33500E-03-9.61027E-04-1.73850E-14
 -1       467 6.67339E-03-7.86037E-04-1.85526E-14
 -1       468 7.03031E-03-6.04202E-04-1.94541E-14
 -1       469 7.35946E-03-4.39447E-04-2.03963E-14
 -1       470 7.60208E-03-3.35846E-04-2.09286E-14
 -1       471 7.82257E-03-2.41562E-04-2.16007E-14
 -1       472 6.35530E-03 5.55871E-04-1.80648E-14
 -1       473 7.68875E-03-1.04622E-04-2.21925E-14
 -1       474 3.43859E-03-1.39398E-04-9.96084E-15
 -1       475 5.54618E-03 8.19886E-04-1.50724E-14
 -1       476 9.44853E-04 3.10412E-04-4.18055E-16
 -1       477 6.54224E-04-6.04246E-05-3.51813E-16
 -1       478 6.62907E-04-9.48311E-05-3.41822E-16
 -1       479 6.47723E-04 8.10518E-08-3.58244E-16
 -1       480 6.49799E-04 2.97825E-05-3.55734E-16
 -1       481 6.55200E-04 6.08591E-05-3.49066E-16
 -1       482 6.64085E-04 9.60917E-05-3.37651E-16
 -1       483 6.76657E-04 1.36830E-04-3.20141E-16
 -1       484 6.93985E-04 1.85243E-04-2.93480E-16
 -1       485 1.23711E-03 3.60273E-04-7.30081E-16
 -1       486 9.89043E-04-2.88960E-04-5.17249E-16
 -1       487 4.48137E-03 3.98161E-04-1.15589E-14
 -1       488 6.57664E-03 4.22263E-04-1.93857E-14
 -1       489 1.28008E-03-3.32378E-04-8.62774E-16
 -1       490 1.57155E-03-3.61113E-04-1.29979E-15
 -1       491 1.86387E-03-3.79365E-04-1.82860E-15
 -1       492 2.15786E-03-3.91331E-04-2.44899E-15
 -1       493 2.45457E-03-4.01330E-04-3.15983E-15
 -1       494 2.75529E-03-4.14122E-04-3.96323E-15
 -1       495 3.06181E-03-4.35218E-04-4.85839E-15
 -1       496 3.37655E-03-4.71128E-04-5.84346E-15
 -1       497 3.70263E-03-5.29328E-04-6.91930E-15
 -1       498 4.04302E-03-6.17470E-04-8.09055E-15
 -1       499 4.39852E-03-7.40664E-04-9.35850E-15
 -1       500 4.76430E-03-8.95127E-04-1.07264E-14
 -1       501 5.12876E-03-1.05686E-03-1.22007E-14
 -1       502 5.48068E-03-1.17770E-03-1.37888E-14
 -1       503 5.82305E-03-1.20896E-03-1.54974E-14
 -1       504 6.17125E-03-1.13957E-03-1.73278E-14
 -1       505 6.53279E-03-1.00998E-03-1.92804E-14
 -1       506 6.90016E-03-8.73406E-04-2.13511E-14
 -1       507 7.26115E-03-7.62303E-04-2.35366E-14
 -1       508 7.60839E-03-6.87237E-04-2.58335E-14
 -1       509 7.94088E-03-6.45502E-04-2.82373E-14
 -1       510 8.26112E-03-6.30273E-04-3.07429E-14
 -1       511 8.57232E-03-6.34486E-04-3.33492E-14
 -1       512 8.87710E-03-6.52109E-04-3.60618E-14
 -1       513 9.17731E-03-6.78440E-04-3.88844E-14
 -1       514 9.47418E-03-7.10012E-04-4.18168E-14
 -1       515 9.76852E-03-7.44375E-04-4.48534E-14
 -1       516 1.00609E-02-7.79875E-04-4.79873E-14
 -1       517 1.03517E-02-8.15450E-04-5.12215E-14
 -1       518 1.06413E-02-8.50463E-04-5.45522E-14
 -1       519 1.09299E-02-8.84571E-04-5.79720E-14
 -1       520 1.12177E-02-9.17629E-04-6.14825E-14
 -1       521 1.15049E-02-9.49621E-04-6.50823E-14
 -1       522 1.17917E-02-9.80604E-04-6.87659E-14
 -1       523 1.20781E-02-1.01068E-03-7.25153E-14
 -1       524 1.23643E-02-1.03996E-03-7.63281E-14
 -1       525 1.26503E-02-1.06858E-03-8.02147E-14
 -1       526 1.29361E-02-1.09666E-03-8.41771E-14
 -1       527 1.32219E-02-1.12429E-03-8.82035E-14
 -1       528 1.35077E-02-1.15159E-03-9.22864E-14
 -1       529 1.37934E-02-1.17862E-03-9.64211E-14
 -1       530 1.40791E-02-1.20548E-03-1.00607E-13
 -1       531 1.43648E-02-1.23223E-03-1.04837E-13
 -1       532 1.82258E-03 4.16753E-04-1.63037E-15
 -1       533 2.11788E-03 4.32678E-04-2.22239E-15
 -1       534 2.41641E-03 4.46235E-04-2.90854E-15
 -1       535 2.71925E-03 4.61855E-04-3.69046E-15
 -1       536 3.02739E-03 4.84179E-04-4.56956E-15
 -1       537 3.34164E-03 5.17936E-04-5.54439E-15
 -1       538 3.66237E-03 5.67401E-04-6.61522E-15
 -1       539 3.98895E-03 6.35198E-04-7.78442E-15
 -1       540 4.31905E-03 7.20191E-04-9.05590E-15
 -1       541 4.64832E-03 8.14688E-04-1.04371E-14
 -1       542 4.97160E-03 9.02498E-04-1.19314E-14
 -1       543 5.28604E-03 9.60950E-04-1.35465E-14
 -1       544 5.59431E-03 9.69388E-04-1.52892E-14
 -1       545 5.90363E-03 9.20839E-04-1.71644E-14
 -1       546 6.22056E-03 8.26202E-04-1.91730E-14
 -1       547 6.54641E-03 7.07648E-04-2.13108E-14
 -1       548 6.87752E-03 5.87003E-04-2.35698E-14
 -1       549 7.20875E-03 4.78750E-04-2.59463E-14
 -1       550 7.53619E-03 3.89180E-04-2.84278E-14
 -1       551 7.85796E-03 3.18804E-04-3.10156E-14
 -1       552 8.17372E-03 2.65095E-04-3.37042E-14
 -1       553 8.48391E-03 2.24432E-04-3.64932E-14
 -1       554 8.78926E-03 1.93194E-04-3.93785E-14
 -1       555 9.09054E-03 1.68263E-04-4.23657E-14
 -1       556 9.38846E-03 1.47184E-04-4.54549E-14
 -1       557 9.68362E-03 1.28145E-04-4.86314E-14
 -1       558 9.97655E-03 1.09883E-04-5.18963E-14
 -1       559 1.02677E-02 9.15721E-05-5.52559E-14
 -1       560 1.05574E-02 7.27103E-05-5.87127E-14
 -1       561 1.08460E-02 5.30307E-05-6.22682E-14
 -1       562 1.11338E-02 3.24257E-05-6.59173E-14
 -1       563 1.14209E-02 1.08914E-05-6.96528E-14
 -1       564 1.17076E-02-1.15131E-05-7.34701E-14
 -1       565 1.19939E-02-3.46948E-05-7.73723E-14
 -1       566 1.22800E-02-5.85457E-05-8.13474E-14
 -1       567 1.25659E-02-8.29558E-05-8.53770E-14
 -1       568 1.28517E-02-1.07820E-04-8.94552E-14
 -1       569 1.31374E-02-1.33041E-04-9.35709E-14
 -1       570 1.34231E-02-1.58533E-04-9.77200E-14
 -1       571 1.37088E-02-1.84220E-04-1.01898E-13
 -1       572 1.39944E-02-2.10034E-04-1.06100E-13
 -1       573 1.42801E-02-2.35914E-04-1.10323E-13
 -1       574 1.43786E-02-5.10933E-04-1.10114E-13
 -1       575 1.44041E-02-5.95254E-04-1.09958E-13
 -1       576 1.43283E-02-3.43723E-04-1.10400E-13
 -1       577 1.43534E-02-4.27327E-04-1.10261E-13
 -1       578 1.44298E-02-6.79573E-04-1.09801E-13
 -1       579 1.44556E-02-7.63891E-04-1.09640E-13
 -1       580 1.44815E-02-8.48209E-04-1.09469E-13
 -1       581 1.45071E-02-9.31100E-04-1.09292E-13
 -1       582 1.45333E-02-1.01542E-03-1.09093E-13
 -1       583 1.45596E-02-1.09974E-03-1.08886E-13
 -1       584 1.45860E-02-1.18406E-03-1.08667E-13
 -1       585 7.38375E-03 1.02270E-05-2.20041E-14
 -1       586 7.90826E-03-2.08445E-04-2.27527E-14
 -1       587 1.52938E-03 3.94114E-04-1.13331E-15
 -1       588 7.89551E-03-1.79126E-04-2.27420E-14
 -1       589 7.09569E-03 1.42934E-04-2.11421E-14
 -1       590 6.16589E-03 6.48880E-04-1.78136E-14
 -1       591 7.18152E-03-5.10140E-04-2.06691E-14
 -1       592 4.83672E-03-8.13169E-04-1.20660E-14
 -1       593 3.48746E-03-3.93512E-05-9.76739E-15
 -1       594 7.20800E-04-2.22646E-04-2.88574E-16
 -1       595 6.49180E-04-2.94020E-05-3.57062E-16
 -1       596 5.18221E-03 7.45794E-04-1.36059E-14
 -1       597 5.90384E-03 7.62910E-04-1.66720E-14
 -1       598 4.06345E-03 1.87401E-04-1.07720E-14
 -1       599 4.85573E-03 6.00290E-04-1.24636E-14
 -1       600 3.66773E-03-2.20716E-04-1.00842E-14
 -1       601 3.75720E-03 5.57515E-05-1.03274E-14
 -1       602 3.37502E-03-8.89173E-05-9.72419E-15
 -1       603 5.87380E-03-1.13612E-03-1.58506E-14
 -1       604 3.93850E-03-3.31488E-04-1.04050E-14
 -1       605 4.38811E-03-5.55804E-04-1.09980E-14
 -1       606 5.19778E-03-1.01275E-03-1.30879E-14
 -1       607 5.51392E-03-1.13076E-03-1.43002E-14
 -1       608 6.17537E-03-1.04159E-03-1.71387E-14
 -1       609 6.46164E-03-8.99809E-04-1.82956E-14
 -1       610 6.87284E-03-6.71214E-04-1.97290E-14
 -1       611 7.51857E-03-3.59555E-04-2.17623E-14
 -1       612 7.76145E-03-2.68279E-04-2.24557E-14
 -1       613 7.13547E-04 2.64192E-04-2.25131E-16
 -1       614 6.75442E-04-1.34442E-04-3.26155E-16
 -1       615 6.85791E-03 2.78317E-04-2.09086E-14
 -1       616 1.45584E-02-1.25195E-03-1.07720E-13
 -1       617 7.84507E-03-1.56172E-04-2.33852E-14
 -1       618 3.35794E-03-1.07282E-04-9.39980E-15
 -1       619 6.95601E-04-1.74774E-04-3.11464E-16
 -1       620 3.50023E-03-1.61314E-04-9.54743E-15
 -1       621 5.72103E-03 8.18351E-04-1.58969E-14
 -1       622 8.79609E-04 5.74814E-05-6.08112E-16
 -1       623 8.73905E-04 1.84328E-05-6.15054E-16
 -1       624 9.05809E-04 1.46919E-04-5.72892E-16
 -1       625 9.26692E-04 2.01466E-04-5.40736E-16
 -1       626 1.05925E-03 2.73021E-04-6.20574E-16
 -1       627 6.71990E-03-7.94138E-04-1.97553E-14
 -1       628 1.39069E-03-2.82511E-04-1.13126E-15
 -1       629 1.67802E-03-3.03218E-04-1.62454E-15
 -1       630 1.96564E-03-3.16167E-04-2.20836E-15
 -1       631 2.25373E-03-3.24855E-04-2.88153E-15
 -1       632 2.54304E-03-3.33067E-04-3.64471E-15
 -1       633 2.83502E-03-3.45070E-04-4.49926E-15
 -1       634 3.13224E-03-3.65920E-04-5.44324E-15
 -1       635 3.43887E-03-4.01955E-04-6.47683E-15
 -1       636 3.76092E-03-4.61478E-04-7.60208E-15
 -1       637 4.10514E-03-5.55025E-04-8.82020E-15
 -1       638 4.47512E-03-6.92788E-04-1.01355E-14
 -1       639 6.00721E-03-1.13725E-03-1.64913E-14
 -1       640 6.39241E-03-9.94931E-04-1.84030E-14
 -1       641 7.52262E-03-6.08008E-04-2.48409E-14
 -1       642 7.85193E-03-5.63409E-04-2.72047E-14
 -1       643 8.16343E-03-5.46978E-04-2.96691E-14
 -1       644 8.46351E-03-5.50036E-04-3.22337E-14
 -1       645 8.75698E-03-5.66345E-04-3.49017E-14
 -1       646 9.04689E-03-5.91379E-04-3.76770E-14
 -1       647 9.33497E-03-6.21866E-04-4.05576E-14
 -1       648 9.62216E-03-6.55451E-04-4.35439E-14
 -1       649 9.90892E-03-6.90484E-04-4.66314E-14
 -1       650 1.01954E-02-7.25856E-04-4.98151E-14
 -1       651 1.04818E-02-7.60866E-04-5.30938E-14
 -1       652 1.07681E-02-7.95104E-04-5.64649E-14
 -1       653 1.10543E-02-8.28373E-04-5.99280E-14
 -1       654 1.13404E-02-8.60612E-04-6.34865E-14
 -1       655 1.16264E-02-8.91850E-04-6.71334E-14
 -1       656 1.19123E-02-9.22168E-04-7.08574E-14
 -1       657 1.21982E-02-9.51673E-04-7.46433E-14
 -1       658 1.24841E-02-9.80485E-04-7.84986E-14
 -1       659 1.27699E-02-1.00872E-03-8.24265E-14
 -1       660 1.30556E-02-1.03648E-03-8.64203E-14
 -1       661 1.33414E-02-1.06388E-03-9.04709E-14
 -1       662 1.36272E-02-1.09099E-03-9.45766E-14
 -1       663 1.39129E-02-1.11789E-03-9.87231E-14
 -1       664 1.41986E-02-1.14465E-03-1.02923E-13
 -1       665 2.22363E-03 3.64211E-04-2.65774E-15
 -1       666 1.93039E-03 3.52242E-04-2.01001E-15
 -1       667 2.82008E-03 3.89983E-04-4.23475E-15
 -1       668 3.12652E-03 4.12551E-04-5.16558E-15
 -1       669 3.44111E-03 4.48018E-04-6.18947E-15
 -1       670 3.76566E-03 5.01189E-04-7.30900E-15
 -1       671 4.10053E-03 5.75566E-04-8.52614E-15
 -1       672 4.44293E-03 6.70221E-04-9.84686E-15
 -1       673 4.78604E-03 7.75146E-04-1.12788E-14
 -1       674 5.12163E-03 8.66938E-04-1.28274E-14
 -1       675 5.44610E-03 9.13601E-04-1.44988E-14
 -1       676 5.76663E-03 8.91721E-04-1.63043E-14
 -1       677 6.09363E-03 8.04677E-04-1.82451E-14
 -1       678 6.43165E-03 6.79753E-04-2.03190E-14
 -1       679 6.77573E-03 5.48298E-04-2.25157E-14
 -1       680 7.11739E-03 4.30723E-04-2.48320E-14
 -1       681 7.45065E-03 3.34799E-04-2.72584E-14
 -1       682 7.77361E-03 2.60446E-04-2.97883E-14
 -1       683 8.08706E-03 2.04226E-04-3.24217E-14
 -1       684 8.39288E-03 1.61911E-04-3.51513E-14
 -1       685 8.69304E-03 1.29580E-04-3.79780E-14
 -1       686 8.98914E-03 1.03973E-04-4.09042E-14
 -1       687 9.28238E-03 8.25535E-05-4.39318E-14
 -1       688 9.57360E-03 6.34416E-05-4.70579E-14
 -1       689 9.86336E-03 4.53085E-05-5.02703E-14
 -1       690 1.01521E-02 2.72632E-05-5.35784E-14
 -1       691 1.04400E-02 8.74872E-06-5.69811E-14
 -1       692 1.07273E-02-1.05474E-05-6.04761E-14
 -1       693 1.10142E-02-3.07664E-05-6.40692E-14
 -1       694 1.13007E-02-5.19349E-05-6.77526E-14
 -1       695 1.15870E-02-7.40080E-05-7.15161E-14
 -1       696 1.18732E-02-9.68997E-05-7.53645E-14
 -1       697 1.21591E-02-1.20505E-04-7.92931E-14
 -1       698 1.24450E-02-1.44712E-04-8.32868E-14
 -1       699 1.27308E-02-1.69413E-04-8.73306E-14
 -1       700 1.30166E-02-1.94510E-04-9.14164E-14
 -1       701 1.33024E-02-2.19911E-04-9.55402E-14
 -1       702 1.35881E-02-2.45539E-04-9.96999E-14
 -1       703 1.38738E-02-2.71323E-04-1.03888E-13
 -1       704 1.41010E-02-3.07502E-04-1.07140E-13
 -1       705 1.41952E-02-6.99003E-04-1.06073E-13
 -1       706 1.43923E-02-1.16437E-03-1.05785E-13
 -1       707 1.41439E-02-5.30519E-04-1.06393E-13
 -1       708 1.42211E-02-7.83236E-04-1.05899E-13
 -1       709 1.41695E-02-6.14766E-04-1.06237E-13
 -1       710 1.63893E-03 3.35559E-04-1.45509E-15
 -1       711 1.42466E-02-8.66046E-04-1.05714E-13
 -1       712 1.42727E-02-9.50294E-04-1.05516E-13
 -1       713 1.42990E-02-1.03456E-03-1.05302E-13
 -1       714 4.05826E-03-4.05625E-04-9.87675E-15
 -1       715 7.28317E-03 7.85422E-05-2.27596E-14
 -1       716 7.65920E-03-8.69660E-05-2.35227E-14
 -1       717 6.38482E-03 5.46550E-04-1.90994E-14
 -1       718 3.59348E-03 1.49074E-05-9.45692E-15
 -1       719 4.58677E-03-7.02480E-04-1.08616E-14
 -1       720 2.51972E-03 3.75394E-04-3.39850E-15
 -1       721 1.10406E-03-2.50831E-04-7.28099E-16
 -1       722 8.98427E-04-2.15925E-04-4.97866E-16
 -1       723 4.21255E-03 2.88360E-04-1.04997E-14
 -1       724 1.34860E-03 3.10371E-04-9.92777E-16
 -1       725 7.39239E-03-4.46249E-04-2.23087E-14
 -1       726 6.03424E-03 7.29236E-04-1.75207E-14
 -1       727 8.90267E-04 9.96271E-05-5.94343E-16
 -1       728 8.88304E-04-9.87148E-05-6.00035E-16
 -1       729 5.02975E-03 7.16082E-04-1.27827E-14
 -1       730 3.83983E-03 1.09568E-04-9.87399E-15
 -1       731 4.60136E-03 4.97158E-04-1.14005E-14
 -1       732 3.73136E-03-2.53182E-04-9.48401E-15
 -1       733 3.34416E-03-6.42873E-05-8.96229E-15
 -1       734 7.95949E-03-1.99853E-04-2.39337E-14
 -1       735 5.35847E-03 8.17456E-04-1.41922E-14
 -1       736 6.33830E-03-9.94680E-04-1.80446E-14
 -1       737 7.05526E-03-6.05503E-04-2.10116E-14
 -1       738 7.93091E-03-2.38337E-04-2.41524E-14
 -1       739 7.70943E-03-3.15214E-04-2.33728E-14
 -1       740 4.82090E-03-8.50310E-04-1.14046E-14
 -1       741 9.03695E-04-1.44695E-04-5.80590E-16
 -1       742 8.73404E-04-1.93058E-05-6.16186E-16
 -1       743 7.95601E-03-1.82008E-04-2.45930E-14
 -1       744 3.28360E-03-8.23565E-05-8.65004E-15
 -1       745 6.66401E-03 4.12898E-04-2.06043E-14
 -1       746 7.13057E-03-6.87419E-04-2.22766E-14
 -1       747 1.41186E-02-4.46973E-04-1.06545E-13
 -1       748 3.39004E-03-2.31437E-05-8.66285E-15
 -1       749 1.41098E-02-3.77242E-04-1.06847E-13
 -1       750 7.57627E-03-2.51381E-05-2.43056E-14
 -1       751 1.42488E-02-1.08961E-03-1.04117E-13
 -1       752 3.37106E-03-1.25011E-04-8.99616E-15
 -1       753 8.78203E-04-5.76108E-05-6.11582E-16
 -1       754 5.86299E-03 8.02382E-04-1.67121E-14
 -1       755 1.15792E-03 2.01849E-04-8.62422E-16
 -1       756 5.20883E-03 8.13270E-04-1.34112E-14
 -1       757 7.66458E-03-3.93822E-04-2.42666E-14
 -1       758 1.78184E-03-2.46515E-04-1.96591E-15
 -1       759 2.06244E-03-2.55228E-04-2.60213E-15
 -1       760 2.34196E-03-2.61293E-04-3.32670E-15
 -1       761 2.62086E-03-2.67741E-04-4.14084E-15
 -1       762 2.90057E-03-2.77986E-04-5.04443E-15
 -1       763 3.18416E-03-2.96223E-04-6.03656E-15
 -1       764 3.47709E-03-3.28373E-04-7.11690E-15
 -1       765 3.78954E-03-3.84661E-04-8.28818E-15
 -1       766 1.21908E-03-2.10347E-04-9.60698E-16
 -1       767 8.08799E-03-4.63147E-04-2.85887E-14
 -1       768 8.37274E-03-4.68152E-04-3.11141E-14
 -1       769 8.65173E-03-4.84879E-04-3.37403E-14
 -1       770 8.92884E-03-5.09235E-04-3.64704E-14
 -1       771 9.20607E-03-5.38556E-04-3.93023E-14
 -1       772 9.48433E-03-5.70901E-04-4.22369E-14
 -1       773 9.76391E-03-6.04842E-04-4.52764E-14
 -1       774 1.00448E-02-6.39357E-04-4.84122E-14
 -1       775 1.03268E-02-6.73748E-04-5.16433E-14
 -1       776 1.06098E-02-7.07578E-04-5.49657E-14
 -1       777 1.08935E-02-7.40604E-04-5.83779E-14
 -1       778 1.11778E-02-7.72721E-04-6.18906E-14
 -1       779 1.14626E-02-8.03920E-04-6.54984E-14
 -1       780 1.17476E-02-8.34253E-04-6.91873E-14
 -1       781 1.20329E-02-8.63805E-04-7.29491E-14
 -1       782 1.23184E-02-8.92678E-04-7.67787E-14
 -1       783 1.26040E-02-9.20976E-04-8.06730E-14
 -1       784 1.28896E-02-9.48802E-04-8.46373E-14
 -1       785 1.31753E-02-9.76250E-04-8.86593E-14
 -1       786 1.34610E-02-1.00340E-03-9.27359E-14
 -1       787 1.37468E-02-1.03033E-03-9.68512E-14
 -1       788 1.39978E-02-1.06001E-03-1.00465E-13
 -1       789 2.03473E-03 2.87642E-04-2.40423E-15
 -1       790 3.21548E-03 3.37078E-04-5.76715E-15
 -1       791 2.91164E-03 3.16230E-04-4.78775E-15
 -1       792 3.86068E-03 4.27337E-04-8.00438E-15
 -1       793 4.20751E-03 5.09694E-04-9.26711E-15
 -1       794 4.56704E-03 6.19673E-04-1.06352E-14
 -1       795 5.61593E-03 8.74197E-04-1.54386E-14
 -1       796 5.95900E-03 7.94396E-04-1.73203E-14
 -1       797 6.31294E-03 6.58262E-04-1.93291E-14
 -1       798 6.67487E-03 5.07981E-04-2.14677E-14
 -1       799 7.03258E-03 3.76502E-04-2.37247E-14
 -1       800 7.37504E-03 2.73770E-04-2.60946E-14
 -1       801 7.70097E-03 1.97449E-04-2.85714E-14
 -1       802 8.01253E-03 1.41251E-04-3.11479E-14
 -1       803 8.31356E-03 9.93925E-05-3.38234E-14
 -1       804 8.60760E-03 6.73698E-05-3.65951E-14
 -1       805 8.89733E-03 4.18345E-05-3.94599E-14
 -1       806 9.18460E-03 2.03325E-05-4.24271E-14
 -1       807 9.47056E-03 1.08938E-06-4.54959E-14
 -1       808 9.75592E-03-1.71499E-05-4.86557E-14
 -1       809 1.00411E-02-3.52419E-05-5.19092E-14
 -1       810 1.03262E-02-5.37373E-05-5.52600E-14
 -1       811 1.06114E-02-7.29583E-05-5.87020E-14
 -1       812 1.08967E-02-9.30618E-05-6.22386E-14
 -1       813 1.11821E-02-1.14091E-04-6.58705E-14
 -1       814 1.14676E-02-1.36015E-04-6.95855E-14
 -1       815 1.17532E-02-1.58760E-04-7.33798E-14
 -1       816 1.20389E-02-1.82227E-04-7.72563E-14
 -1       817 1.23246E-02-2.06312E-04-8.12076E-14
 -1       818 1.26103E-02-2.30908E-04-8.52187E-14
 -1       819 1.28960E-02-2.55918E-04-8.92732E-14
 -1       820 1.31817E-02-2.81253E-04-9.33717E-14
 -1       821 1.34674E-02-3.06835E-04-9.75114E-14
 -1       822 1.37532E-02-3.32594E-04-1.01684E-13
 -1       823 1.39315E-02-3.54900E-04-1.04262E-13
 -1       824 7.83340E-03-1.31282E-04-2.47404E-14
 -1       825 1.10557E-03 4.40639E-05-9.35927E-16
 -1       826 1.74722E-03 2.76469E-04-1.79373E-15
 -1       827 1.39607E-02-7.18348E-04-1.02355E-13
 -1       828 1.40384E-02-9.69393E-04-1.01765E-13
 -1       829 1.40122E-02-8.85214E-04-1.01975E-13
 -1       830 8.99892E-04-1.78736E-04-5.41400E-16
 -1       831 3.75874E-03-3.10704E-04-8.79480E-15
 -1       832 3.53054E-03 3.71968E-04-6.83949E-15
 -1       833 7.06327E-03 2.26041E-04-2.26369E-14
 -1       834 4.73788E-03 6.38103E-04-1.14593E-14
 -1       835 7.79031E-03-4.75935E-04-2.61639E-14
 -1       836 1.50042E-03-2.32385E-04-1.41885E-15
 -1       837 6.25362E-03 6.50988E-04-1.88125E-14
 -1       838 3.62330E-03 8.07884E-05-8.83683E-15
 -1       839 3.46516E-03-1.74367E-04-8.66476E-15
 -1       840 5.56682E-03 8.53008E-04-1.51745E-14
 -1       841 8.06168E-03-2.23450E-04-2.57736E-14
 -1       842 1.25087E-03 2.53772E-04-9.31045E-16
 -1       843 4.31308E-03 4.04239E-04-1.02583E-14
 -1       844 7.44197E-03-5.08831E-04-2.35200E-14
 -1       845 7.92982E-03-2.87270E-04-2.52521E-14
 -1       846 3.93528E-03 2.15275E-04-9.41804E-15
 -1       847 1.39864E-02-8.01774E-04-1.02170E-13
 -1       848 4.10568E-03-4.84249E-04-9.35192E-15
 -1       849 1.10118E-03-1.03079E-06-9.41589E-16
 -1       850 3.24835E-03-9.78233E-05-8.26233E-15
 -1       851 2.61536E-03 3.03932E-04-3.90001E-15
 -1       852 3.28662E-03-5.04297E-05-8.36079E-15
 -1       853 1.39349E-02-6.34209E-04-1.02527E-13
 -1       854 1.38838E-02-4.66236E-04-1.02843E-13
 -1       855 1.49910E-03 2.68921E-04-1.32655E-15
 -1       856 4.92901E-03 7.43718E-04-1.21164E-14
 -1       857 7.77527E-03-7.95499E-05-2.55445E-14
 -1       858 1.39093E-02-5.50235E-04-1.02690E-13
 -1       859 1.11676E-03 9.15280E-05-9.21575E-16
 -1       860 7.36790E-03 9.96823E-05-2.41874E-14
 -1       861 8.11566E-03-2.63462E-04-2.69104E-14
 -1       862 2.32372E-03 2.95671E-04-3.10596E-15
 -1       863 1.13435E-03 1.43603E-04-8.98051E-16
 -1       864 1.40181E-02-1.01470E-03-1.01117E-13
 -1       865 1.11401E-03-9.18955E-05-9.28145E-16
 -1       866 1.13107E-03-1.42198E-04-9.07528E-16
 -1       867 3.35884E-03 3.09282E-05-7.93618E-15
 -1       868 2.15575E-03-1.97390E-04-3.00887E-15
 -1       869 2.42457E-03-2.01540E-04-3.78357E-15
 -1       870 2.68999E-03-2.06312E-04-4.64680E-15
 -1       871 2.95276E-03-2.13972E-04-5.59858E-15
 -1       872 3.21547E-03-2.27408E-04-6.63702E-15
 -1       873 4.00569E-03 3.31827E-04-9.07900E-15
 -1       874 1.10399E-03-4.56086E-05-9.39441E-16
 -1       875 8.55932E-03-4.08476E-04-3.25745E-14
 -1       876 8.82062E-03-4.32730E-04-3.52620E-14
 -1       877 9.08506E-03-4.60829E-04-3.80510E-14
 -1       878 9.35300E-03-4.91511E-04-4.09366E-14
 -1       879 9.62432E-03-5.23751E-04-4.39243E-14
 -1       880 9.89863E-03-5.56731E-04-4.70130E-14
 -1       881 1.01755E-02-5.89839E-04-5.01946E-14
 -1       882 1.04545E-02-6.22650E-04-5.34737E-14
 -1       883 1.07352E-02-6.54897E-04-5.68397E-14
 -1       884 1.10172E-02-6.86438E-04-6.03042E-14
 -1       885 1.13002E-02-7.17223E-04-6.38655E-14
 -1       886 1.15841E-02-7.47267E-04-6.75193E-14
 -1       887 1.18685E-02-7.76624E-04-7.12478E-14
 -1       888 1.21533E-02-8.05370E-04-7.50525E-14
 -1       889 1.24385E-02-8.33590E-04-7.89220E-14
 -1       890 1.27239E-02-8.61371E-04-8.28545E-14
 -1       891 1.30094E-02-8.88793E-04-8.68489E-14
 -1       892 1.32950E-02-9.15932E-04-9.08940E-14
 -1       893 1.35807E-02-9.42852E-04-9.49906E-14
 -1       894 2.99234E-03 2.39859E-04-5.34820E-15
 -1       895 3.42637E-03-2.19506E-04-7.77955E-15
 -1       896 7.31885E-03 2.03491E-04-2.49401E-14
 -1       897 7.64601E-03 1.27627E-04-2.73639E-14
 -1       898 7.95327E-03 7.46465E-05-2.98857E-14
 -1       899 8.24705E-03 3.60154E-05-3.25057E-14
 -1       900 8.53287E-03 6.24051E-06-3.52236E-14
 -1       901 8.81449E-03-1.80699E-05-3.80351E-14
 -1       902 9.09433E-03-3.91170E-05-4.09420E-14
 -1       903 9.37380E-03-5.83811E-05-4.39488E-14
 -1       904 9.65367E-03-7.68791E-05-4.70521E-14
 -1       905 9.93431E-03-9.53128E-05-5.02515E-14
 -1       906 1.02158E-02-1.14145E-04-5.35478E-14
 -1       907 1.04982E-02-1.33653E-04-5.69405E-14
 -1       908 1.07813E-02-1.53980E-04-6.04244E-14
 -1       909 1.10651E-02-1.75169E-04-6.40023E-14
 -1       910 1.13495E-02-1.97199E-04-6.76687E-14
 -1       911 1.16342E-02-2.20004E-04-7.14140E-14
 -1       912 1.19193E-02-2.43500E-04-7.52417E-14
 -1       913 1.22045E-02-2.67590E-04-7.91453E-14
 -1       914 1.24900E-02-2.92178E-04-8.31178E-14
 -1       915 1.27756E-02-3.17174E-04-8.71399E-14
 -1       916 1.30612E-02-3.42493E-04-9.12142E-14
 -1       917 1.33469E-02-3.68064E-04-9.53331E-14
 -1       918 1.36326E-02-3.93819E-04-9.94822E-14
 -1       919 1.85355E-03 2.17295E-04-2.14919E-15
 -1       920 1.39076E-02-4.10582E-04-1.03555E-13
 -1       921 7.95304E-03-3.57625E-04-2.64835E-14
 -1       922 1.37778E-02-9.04256E-04-9.82606E-14
 -1       923 8.08495E-03-1.97092E-04-2.64863E-14
 -1       924 8.29966E-03-3.89807E-04-2.99877E-14
 -1       925 3.27885E-03-1.34716E-04-7.94678E-15
 -1       926 1.60926E-03-1.82625E-04-1.72457E-15
 -1       927 1.88372E-03-1.91754E-04-2.32283E-15
 -1       928 1.36943E-03-1.64337E-04-1.28390E-15
 -1       929 8.00736E-03-1.52822E-04-2.66443E-14
 -1       930 3.65492E-03 1.69937E-04-8.32827E-15
 -1       931 2.70289E-03 2.31665E-04-4.41250E-15
 -1       932 3.20625E-03-6.90947E-05-7.98479E-15
 -1       933 1.33944E-03-7.69583E-05-1.32510E-15
 -1       934 1.60975E-03 2.15222E-04-1.63501E-15
 -1       935 1.37004E-02-6.53567E-04-9.88384E-14
 -1       936 3.29033E-03 2.56413E-04-6.37503E-15
 -1       937 1.37994E-02-9.78798E-04-9.80394E-14
 -1       938 3.61305E-03 2.76333E-04-7.58299E-15
 -1       939 3.24070E-03-4.82267E-06-7.65304E-15
 -1       940 3.37266E-03 1.06531E-04-7.45731E-15
 -1       941 7.58992E-03 2.35347E-05-2.54316E-14
 -1       942 2.13541E-03 2.23367E-04-2.81269E-15
 -1       943 1.37520E-02-8.20904E-04-9.84647E-14
 -1       944 8.17259E-03-3.21775E-04-2.81873E-14
 -1       945 1.38712E-03 1.90373E-04-1.25650E-15
 -1       946 1.37260E-02-7.36873E-04-9.86569E-14
 -1       947 1.36314E-02-4.76903E-04-9.89463E-14
 -1       948 1.35173E-03-1.19160E-04-1.30837E-15
 -1       949 8.18280E-03-2.28249E-04-2.75462E-14
 -1       950 1.34294E-03 7.45186E-05-1.31785E-15
 -1       951 1.33265E-03 2.29553E-05-1.33115E-15
 -1       952 2.50512E-03-1.46611E-04-4.25144E-15
 -1       953 2.75427E-03-1.50474E-04-5.16178E-15
 -1       954 2.99488E-03-1.56090E-04-6.15974E-15
 -1       955 1.33139E-03-2.67076E-05-1.33363E-15
 -1       956 3.11868E-03-9.74674E-05-7.29777E-15
 -1       957 2.41808E-03 2.27259E-04-3.56684E-15
 -1       958 8.96824E-03-3.89332E-04-3.67949E-14
 -1       959 9.22510E-03-4.17789E-04-3.96378E-14
 -1       960 9.48770E-03-4.47696E-04-4.25779E-14
 -1       961 9.75511E-03-4.78474E-04-4.56162E-14
 -1       962 1.00265E-02-5.09636E-04-4.87524E-14
 -1       963 1.03012E-02-5.40802E-04-5.19809E-14
 -1       964 1.05785E-02-5.71702E-04-5.53078E-14
 -1       965 1.08579E-02-6.02167E-04-5.87281E-14
 -1       966 1.11390E-02-6.32111E-04-6.22420E-14
 -1       967 1.14214E-02-6.61510E-04-6.58522E-14
 -1       968 1.17048E-02-6.90380E-04-6.95496E-14
 -1       969 1.19888E-02-7.18765E-04-7.33197E-14
 -1       970 1.22735E-02-7.46722E-04-7.71632E-14
 -1       971 1.25585E-02-7.74314E-04-8.10706E-14
 -1       972 1.28438E-02-8.01604E-04-8.50356E-14
 -1       973 1.31292E-02-8.28649E-04-8.90566E-14
 -1       974 1.34148E-02-8.55501E-04-9.31274E-14
 -1       975 1.36145E-03 1.29715E-04-1.29352E-15
 -1       976 7.91497E-03 4.36207E-06-2.86324E-14
 -1       977 8.46916E-03-5.34863E-05-3.38620E-14
 -1       978 8.73994E-03-7.53671E-05-3.66233E-14
 -1       979 9.01050E-03-9.53621E-05-3.94745E-14
 -1       980 9.28217E-03-1.14491E-04-4.24207E-14
 -1       981 9.55560E-03-1.33368E-04-4.54668E-14
 -1       982 9.83097E-03-1.52427E-04-4.86082E-14
 -1       983 1.01083E-02-1.71962E-04-5.18487E-14
 -1       984 1.03873E-02-1.92153E-04-5.51867E-14
 -1       985 1.06678E-02-2.13088E-04-5.86202E-14
 -1       986 1.09496E-02-2.34789E-04-6.21450E-14
 -1       987 1.12324E-02-2.57233E-04-6.57652E-14
 -1       988 1.15161E-02-2.80362E-04-6.94634E-14
 -1       989 1.18003E-02-3.04102E-04-7.32404E-14
 -1       990 1.20850E-02-3.28371E-04-7.70986E-14
 -1       991 1.23701E-02-3.53088E-04-8.10289E-14
 -1       992 1.26554E-02-3.78172E-04-8.50184E-14
 -1       993 1.29409E-02-4.03553E-04-8.90642E-14
 -1       994 1.32265E-02-4.29166E-04-9.31560E-14
 -1       995 1.36747E-02-5.69714E-04-9.90053E-14
 -1       996 3.15306E-03-1.52309E-04-6.97608E-15
 -1       997 7.60768E-03 7.71664E-05-2.63936E-14
 -1       998 1.98583E-03-1.39436E-04-2.69332E-15
 -1       999 8.71811E-03-3.62863E-04-3.40496E-14
 -1      1000 7.99544E-03-1.00883E-04-2.77717E-14
 -1      1001 8.47579E-03-3.39020E-04-3.14026E-14
 -1      1002 8.19566E-03-2.79985E-05-3.11989E-14
 -1      1003 1.71865E-03-1.33635E-04-2.04620E-15
 -1      1004 2.24850E-03-1.43326E-04-3.42863E-15
 -1      1005 8.28925E-03-2.67493E-04-2.89744E-14
 -1      1006 8.21630E-03-2.01465E-04-2.83846E-14
 -1      1007 2.78137E-03 1.59116E-04-4.93159E-15
 -1      1008 1.53553E-03-1.27289E-04-1.65699E-15
 -1      1009 1.56439E-03-5.64512E-05-1.78809E-15
 -1      1010 1.67437E-03 1.56987E-04-1.87127E-15
 -1      1011 3.05942E-03 1.61193E-04-5.91375E-15
 -1      1012 1.32698E-02-5.21732E-04-9.32264E-14
 -1      1013 1.32955E-02-6.05334E-04-9.30654E-14
 -1      1014 1.58640E-03 1.07979E-04-1.75923E-15
 -1      1015 8.24703E-03-1.64405E-04-2.95609E-14
 -1      1016 3.24481E-03 6.07184E-05-7.19058E-15
 -1      1017 1.56815E-03 5.07217E-05-1.78218E-15
 -1      1018 3.13221E-03-3.07449E-05-7.29918E-15
 -1      1019 1.33211E-02-6.88378E-04-9.28925E-14
 -1      1020 1.95016E-03 1.62229E-04-2.49289E-15
 -1      1021 8.35725E-03-2.39511E-04-2.98465E-14
 -1      1022 1.56052E-03-3.30468E-06-1.79179E-15
 -1      1023 2.82181E-03-1.02339E-04-5.68413E-15
 -1      1024 2.34540E-03-9.34231E-05-3.85930E-15
 -1      1025 2.09174E-03-8.97713E-05-3.07723E-15
 -1      1026 2.22527E-03 1.63966E-04-3.20343E-15
 -1      1027 9.35070E-03-3.76729E-04-4.12290E-14
 -1      1028 9.61164E-03-4.04692E-04-4.42211E-14
 -1      1029 9.87790E-03-4.33309E-04-4.73115E-14
 -1      1030 1.01485E-02-4.62254E-04-5.04925E-14
 -1      1031 1.04225E-02-4.91269E-04-5.37743E-14
 -1      1032 1.06994E-02-5.20168E-04-5.71538E-14
 -1      1033 1.09785E-02-5.48837E-04-6.06275E-14
 -1      1034 1.12593E-02-5.77213E-04-6.41927E-14
 -1      1035 1.15415E-02-6.05278E-04-6.78461E-14
 -1      1036 1.18248E-02-6.33038E-04-7.15865E-14
 -1      1037 1.21088E-02-6.60519E-04-7.53992E-14
 -1      1038 1.23934E-02-6.87752E-04-7.92790E-14
 -1      1039 1.26784E-02-7.14776E-04-8.32203E-14
 -1      1040 1.29637E-02-7.41626E-04-8.72170E-14
 -1      1041 1.32491E-02-7.68340E-04-9.12648E-14
 -1      1042 9.19397E-03-1.66723E-04-4.09116E-14
 -1      1043 8.93138E-03-1.47734E-04-3.80206E-14
 -1      1044 1.83142E-03-8.56565E-05-2.38268E-15
 -1      1045 2.97801E-03-9.90665E-05-6.46691E-15
 -1      1046 8.67229E-03-1.29072E-04-3.52179E-14
 -1      1047 9.46017E-03-1.86179E-04-4.38980E-14
 -1      1048 9.72976E-03-2.06176E-04-4.69842E-14
 -1      1049 1.00024E-02-2.26799E-04-5.01672E-14
 -1      1050 1.02778E-02-2.48085E-04-5.34485E-14
 -1      1051 1.05555E-02-2.70037E-04-5.68292E-14
 -1      1052 1.08351E-02-2.92636E-04-6.03035E-14
 -1      1053 1.11162E-02-3.15839E-04-6.38722E-14
 -1      1054 1.13986E-02-3.39592E-04-6.75259E-14
 -1      1055 1.16819E-02-3.63830E-04-7.12584E-14
 -1      1056 1.19660E-02-3.88488E-04-7.50705E-14
 -1      1057 1.22506E-02-4.13502E-04-7.89566E-14
 -1      1058 1.25356E-02-4.38809E-04-8.29100E-14
 -1      1059 1.28209E-02-4.64352E-04-8.69219E-14
 -1      1060 1.30453E-02-4.92978E-04-9.00590E-14
 -1      1061 2.50681E-03 1.59513E-04-4.03878E-15
 -1      1062 3.03291E-03-6.49282E-05-6.88448E-15
 -1      1063 8.85009E-03-3.24425E-04-3.55355E-14
 -1      1064 9.09625E-03-3.49807E-04-3.83343E-14
 -1      1065 8.61411E-03-3.00643E-04-3.28314E-14
 -1      1066 1.85738E-03 1.11510E-04-2.36378E-15
 -1      1067 2.58979E-03-9.74032E-05-4.72790E-15
 -1      1068 1.82064E-03-2.99901E-05-2.39449E-15
 -1      1069 2.59073E-03 9.36476E-05-4.51839E-15
 -1      1070 8.20492E-03-1.00328E-04-3.02363E-14
 -1      1071 3.11534E-03 2.39787E-05-6.85472E-15
 -1      1072 2.85043E-03 8.81357E-05-5.45732E-15
 -1      1073 8.43697E-03-1.14884E-04-3.26841E-14
 -1      1074 8.42221E-03-2.07839E-04-3.10649E-14
 -1      1075 1.30710E-02-5.76394E-04-8.99083E-14
 -1      1076 1.30966E-02-6.59238E-04-8.97424E-14
 -1      1077 3.04329E-03 6.47427E-05-6.31834E-15
 -1      1078 2.12658E-03 1.11609E-04-3.05653E-15
 -1      1079 2.20652E-03-4.22245E-05-3.47070E-15
 -1      1080 2.68834E-03-5.34636E-05-5.21163E-15
 -1      1081 2.01528E-03-3.59630E-05-2.90826E-15
 -1      1082 9.72719E-03-3.60583E-04-4.58655E-14
 -1      1083 9.99444E-03-3.86877E-04-4.90050E-14
 -1      1084 1.02658E-02-4.13576E-04-5.22406E-14
 -1      1085 1.05405E-02-4.40492E-04-5.55755E-14
 -1      1086 1.08178E-02-4.67493E-04-5.90086E-14
 -1      1087 1.10973E-02-4.94493E-04-6.25362E-14
 -1      1088 1.13784E-02-5.21440E-04-6.61478E-14
 -1      1089 1.16609E-02-5.48308E-04-6.98480E-14
 -1      1090 1.19443E-02-5.75087E-04-7.36292E-14
 -1      1091 1.22285E-02-6.01778E-04-7.74809E-14
 -1      1092 1.25131E-02-6.28389E-04-8.13950E-14
 -1      1093 1.27982E-02-6.54930E-04-8.53680E-14
 -1      1094 9.62885E-03-2.56310E-04-4.53741E-14
 -1      1095 9.36518E-03-2.35004E-04-4.23435E-14
 -1      1096 8.64107E-03-2.63001E-04-3.32797E-14
 -1      1097 1.82457E-03 2.57043E-05-2.39034E-15
 -1      1098 2.86763E-03-5.85146E-05-6.01986E-15
 -1      1099 8.85394E-03-1.95479E-04-3.65697E-14
 -1      1100 9.89692E-03-2.78430E-04-4.85038E-14
 -1      1101 1.01687E-02-3.01229E-04-5.17272E-14
 -1      1102 1.04435E-02-3.24612E-04-5.50505E-14
 -1      1103 1.07209E-02-3.48498E-04-5.84754E-14
 -1      1104 1.10004E-02-3.72819E-04-6.19930E-14
 -1      1105 1.12815E-02-3.97513E-04-6.55962E-14
 -1      1106 1.15638E-02-4.22525E-04-6.92836E-14
 -1      1107 1.18472E-02-4.47803E-04-7.30535E-14
 -1      1108 1.21313E-02-4.73303E-04-7.68997E-14
 -1      1109 1.24159E-02-4.98985E-04-8.08093E-14
 -1      1110 1.27010E-02-5.24815E-04-8.47865E-14
 -1      1111 8.43414E-03-1.65162E-04-3.18784E-14
 -1      1112 2.45326E-03-4.71900E-05-4.29752E-15
 -1      1113 9.10648E-03-2.14498E-04-3.94113E-14
 -1      1114 9.46497E-03-3.34943E-04-4.28225E-14
 -1      1115 2.36066E-03 1.03547E-04-3.75252E-15
 -1      1116 2.96342E-03-2.20845E-05-6.40903E-15
 -1      1117 2.08670E-03 6.34058E-05-3.03710E-15
 -1      1118 2.83188E-03 2.03486E-05-5.66752E-15
 -1      1119 8.87016E-03-2.69539E-04-3.60444E-14
 -1      1120 1.28859E-02-5.50563E-04-8.73367E-14
 -1      1121 1.28421E-02-6.02802E-04-8.63545E-14
 -1      1122 9.20895E-03-3.10169E-04-3.98756E-14
 -1      1123 2.59078E-03 2.92572E-05-4.71142E-15
 -1      1124 8.64108E-03-1.79751E-04-3.41880E-14
 -1      1125 2.37095E-03 4.06223E-05-3.93129E-15
 -1      1126 2.04410E-03 1.24973E-05-2.97892E-15
 -1      1127 0.00000E+00 0.00000E+00 0.00000E+00
 -1      1128 0.00000E+00 0.00000E+00 0.00000E+00
 -1      1129 0.00000E+00 0.00000E+00 0.00000E+00
 -1      1130 0.00000E+00 0.00000E+00 0.00000E+00
 -1      1131 0.00000E+00 0.00000E+00 0.00000E+00
 -1      1132 0.00000E+00 0.00000E+00 0.00000E+00
 -1      1133 0.00000E+00 0.00000E+00 0.00000E+00
 -1      1134 0.00000E+00 0.00000E+00 0.00000E+00
 -1      1135 0.00000E+00 0.00000E+00 0.00000E+00
 -1      1136 0.00000E+00 0.00000E+00 0.00000E+00
 -1      1137 0.00000E+00 0.00000E+00 0.00000E+00
 -1      1138 0.00000E+00 0.00000E+00 0.00000E+00
 -1      1139 0.00000E+00 0.00000E+00 0.00000E+00
 -1      1140 0.00000E+00 0.00000E+00 0.00000E+00
 -1      1141 0.00000E+00 0.00000E+00 0.00000E+00
 -1      1142 0.00000E+00 0.00000E+00 0.00000E+00
 -1      1143 0.00000E+00 0.00000E+00 0.00000E+00
 -1      1144 2.09941E-04-1.44841E-04 1.89600E-17
 -1      1145 5.50495E-04-3.24160E-04-2.43945E-19
 -1      1146 8.37282E-04-4.34664E-04-1.05845E-16
 -1      1147 1.11558E-03-5.05559E-04-3.11356E-16
 -1      1148 1.39378E-03-5.52607E-04-6.14146E-16
 -1      1149 1.67631E-03-5.84183E-04-1.01465E-15
 -1      1150 1.96626E-03-6.05836E-04-1.51284E-15
 -1      1151 2.26599E-03-6.22214E-04-2.10514E-15
 -1      1152 2.57740E-03-6.37975E-04-2.79341E-15
 -1      1153 2.90193E-03-6.58291E-04-3.57957E-15
 -1      1154 3.24018E-03-6.89127E-04-4.46256E-15
 -1      1155 3.59116E-03-7.37155E-04-5.43665E-15
 -1      1156 3.95131E-03-8.08921E-04-6.50025E-15
 -1      1157 4.31346E-03-9.08704E-04-7.66417E-15
 -1      1158 4.66671E-03-1.03478E-03-8.92885E-15
 -1      1159 4.99852E-03-1.17505E-03-1.02917E-14
 -1      1160 5.29994E-03-1.30532E-03-1.17614E-14
 -1      1161 5.57237E-03-1.39493E-03-1.33448E-14
 -1      1162 5.83031E-03-1.41981E-03-1.50395E-14
 -1      1163 6.09589E-03-1.37573E-03-1.68466E-14
 -1      1164 6.38749E-03-1.28091E-03-1.87646E-14
 -1      1165 6.71134E-03-1.16556E-03-2.07940E-14
 -1      1166 7.06161E-03-1.05747E-03-2.29328E-14
 -1      1167 7.42646E-03-9.73414E-04-2.51871E-14
 -1      1168 7.79419E-03-9.18731E-04-2.75571E-14
 -1      1169 8.15644E-03-8.91246E-04-3.00344E-14
 -1      1170 8.50868E-03-8.85509E-04-3.26183E-14
 -1      1171 8.84937E-03-8.95577E-04-3.53094E-14
 -1      1172 9.17881E-03-9.16308E-04-3.81218E-14
 -1      1173 9.49826E-03-9.43742E-04-4.10472E-14
 -1      1174 9.80933E-03-9.75037E-04-4.40786E-14
 -1      1175 1.01136E-02-1.00825E-03-4.72148E-14
 -1      1176 1.04127E-02-1.04213E-03-5.04580E-14
 -1      1177 1.07076E-02-1.07588E-03-5.38029E-14
 -1      1178 1.09996E-02-1.10906E-03-5.72326E-14
 -1      1179 1.12893E-02-1.14145E-03-6.07409E-14
 -1      1180 1.15775E-02-1.17297E-03-6.43289E-14
 -1      1181 1.18645E-02-1.20363E-03-6.79988E-14
 -1      1182 1.21509E-02-1.23348E-03-7.17339E-14
 -1      1183 1.24367E-02-1.26263E-03-7.55349E-14
 -1      1184 1.27222E-02-1.29118E-03-7.94224E-14
 -1      1185 1.30076E-02-1.31921E-03-8.33883E-14
 -1      1186 1.32929E-02-1.34684E-03-8.74305E-14
 -1      1187 1.35783E-02-1.37414E-03-9.15446E-14
 -1      1188 1.38637E-02-1.40120E-03-9.57129E-14
 -1      1189 1.41491E-02-1.42809E-03-9.99235E-14
 -1      1190 1.44346E-02-1.45487E-03-1.04178E-13
 -1      1191 1.47202E-02-1.48160E-03-1.08469E-13
 -1      1192 1.50059E-02-1.50833E-03-1.12803E-13
 -1      1193 1.52845E-02-1.53442E-03-1.17072E-13
 -1      1194 2.26529E-04 1.57133E-04 2.29173E-17
 -1      1195 5.52749E-04 3.29164E-04 8.86335E-18
 -1      1196 8.38245E-04 4.37840E-04-8.89046E-17
 -1      1197 1.11620E-03 5.09028E-04-2.81337E-16
 -1      1198 1.39374E-03 5.57091E-04-5.69315E-16
 -1      1199 1.67507E-03 5.90117E-04-9.54911E-16
 -1      1200 1.96280E-03 6.13610E-04-1.44127E-15
 -1      1201 2.25867E-03 6.32125E-04-2.02506E-15
 -1      1202 2.56372E-03 6.49990E-04-2.70977E-15
 -1      1203 2.87825E-03 6.71597E-04-3.49503E-15
 -1      1204 3.20153E-03 7.01396E-04-4.38228E-15
 -1      1205 3.53140E-03 7.43525E-04-5.37053E-15
 -1      1206 3.86386E-03 8.00910E-04-6.45805E-15
 -1      1207 4.19296E-03 8.73769E-04-7.64781E-15
 -1      1208 4.51150E-03 9.57755E-04-8.94919E-15
 -1      1209 4.81285E-03 1.04262E-03-1.03657E-14
 -1      1210 5.09380E-03 1.11288E-03-1.18938E-14
 -1      1211 5.35719E-03 1.15156E-03-1.35413E-14
 -1      1212 5.61229E-03 1.14645E-03-1.53163E-14
 -1      1213 5.87180E-03 1.09542E-03-1.72276E-14
 -1      1214 6.14682E-03 1.00755E-03-1.92734E-14
 -1      1215 6.44281E-03 8.98922E-04-2.14407E-14
 -1      1216 6.75871E-03 7.86354E-04-2.37325E-14
 -1      1217 7.08899E-03 6.82471E-04-2.61491E-14
 -1      1218 7.42656E-03 5.94019E-04-2.86737E-14
 -1      1219 7.76512E-03 5.22693E-04-3.12939E-14
 -1      1220 8.10015E-03 4.66987E-04-3.40196E-14
 -1      1221 8.42909E-03 4.23928E-04-3.68533E-14
 -1      1222 8.75091E-03 3.90248E-04-3.97903E-14
 -1      1223 9.06564E-03 3.63006E-04-4.28293E-14
 -1      1224 9.37393E-03 3.39831E-04-4.59604E-14
 -1      1225 9.67667E-03 3.18947E-04-4.91802E-14
 -1      1226 9.97486E-03 2.99102E-04-5.24785E-14
 -1      1227 1.02694E-02 2.79460E-04-5.58697E-14
 -1      1228 1.05612E-02 2.59504E-04-5.93627E-14
 -1      1229 1.08509E-02 2.38940E-04-6.29636E-14
 -1      1230 1.11391E-02 2.17635E-04-6.66676E-14
 -1      1231 1.14262E-02 1.95557E-04-7.04635E-14
 -1      1232 1.17125E-02 1.72739E-04-7.43430E-14
 -1      1233 1.19984E-02 1.49248E-04-7.83028E-14
 -1      1234 1.22839E-02 1.25173E-04-8.23165E-14
 -1      1235 1.25694E-02 1.00606E-04-8.63769E-14
 -1      1236 1.28547E-02 7.56364E-05-9.04923E-14
 -1      1237 1.31400E-02 5.03495E-05-9.46516E-14
 -1      1238 1.34254E-02 2.48223E-05-9.88280E-14
 -1      1239 1.37109E-02-8.75778E-07-1.03026E-13
 -1      1240 1.39964E-02-2.66820E-05-1.07247E-13
 -1      1241 1.42820E-02-5.25397E-05-1.11484E-13
 -1      1242 1.45677E-02-7.83987E-05-1.15735E-13
 -1      1243 1.48462E-02-1.03580E-04-1.19892E-13
 -1      1244 1.49946E-02-1.57979E-04-1.21838E-13
 -1      1245 1.50200E-02-2.42271E-04-1.21709E-13
 -1      1246 1.50453E-02-3.26601E-04-1.21554E-13
 -1      1247 1.50706E-02-4.10989E-04-1.21394E-13
 -1      1248 1.50960E-02-4.95436E-04-1.21244E-13
 -1      1249 1.51212E-02-5.79221E-04-1.21098E-13
 -1      1250 1.51465E-02-6.63047E-04-1.20947E-13
 -1      1251 1.51722E-02-7.47618E-04-1.20795E-13
 -1      1252 1.51980E-02-8.32204E-04-1.20658E-13
 -1      1253 1.52239E-02-9.16790E-04-1.20535E-13
 -1      1254 1.52500E-02-1.00136E-03-1.20409E-13
 -1      1255 1.52759E-02-1.08519E-03-1.20290E-13
 -1      1256 1.53020E-02-1.16897E-03-1.20142E-13
 -1      1257 1.53283E-02-1.25342E-03-1.19957E-13
 -1      1258 1.53547E-02-1.33781E-03-1.19766E-13
 -1      1259 1.53811E-02-1.42214E-03-1.19536E-13
 -1      1260 1.54072E-02-1.50572E-03-1.19287E-13
 -1      1261 7.86475E-03-1.04321E-04-1.96970E-14
 -1      1262 7.74141E-03 4.76344E-05-1.95003E-14
 -1      1263 7.50375E-03 2.10610E-04-1.90714E-14
 -1      1264 7.19299E-03 3.65777E-04-1.84876E-14
 -1      1265 6.81149E-03 5.13751E-04-1.77441E-14
 -1      1266 6.38858E-03 6.37187E-04-1.68994E-14
 -1      1267 5.96431E-03 7.13270E-04-1.60423E-14
 -1      1268 5.51955E-03 7.35660E-04-1.51463E-14
 -1      1269 5.07671E-03 7.02190E-04-1.42763E-14
 -1      1270 4.67203E-03 6.21878E-04-1.35167E-14
 -1      1271 4.28732E-03 5.04111E-04-1.28375E-14
 -1      1272 3.94422E-03 3.64230E-04-1.22730E-14
 -1      1273 3.67423E-03 2.18796E-04-1.18497E-14
 -1      1274 3.48512E-03 6.80011E-05-1.15577E-14
 -1      1275 3.40316E-03-8.05603E-05-1.14275E-14
 -1      1276 3.43997E-03-2.33860E-04-1.14714E-14
 -1      1277 3.59402E-03-3.93631E-04-1.16875E-14
 -1      1278 3.84367E-03-5.53356E-04-1.20466E-14
 -1      1279 4.18975E-03-7.19762E-04-1.25768E-14
 -1      1280 4.59915E-03-8.72919E-04-1.32529E-14
 -1      1281 5.02239E-03-9.85440E-04-1.39995E-14
 -1      1282 5.45769E-03-1.04780E-03-1.48070E-14
 -1      1283 5.89138E-03-1.05363E-03-1.56443E-14
 -1      1284 6.29974E-03-1.00678E-03-1.64538E-14
 -1      1285 6.68217E-03-9.17756E-04-1.72261E-14
 -1      1286 7.03907E-03-7.98206E-04-1.79558E-14
 -1      1287 7.35059E-03-6.63459E-04-1.85892E-14
 -1      1288 7.60055E-03-5.25113E-04-1.90972E-14
 -1      1289 7.77919E-03-3.86430E-04-1.94709E-14
 -1      1290 7.87282E-03-2.45366E-04-1.96830E-14
 -1      1291 1.67001E-04-1.06847E-04 4.09286E-18
 -1      1292 1.13927E-04-5.29551E-05-1.55041E-17
 -1      1293 1.18801E-04-6.40194E-05-1.02457E-17
 -1      1294 1.09657E-04-3.86663E-05-2.44217E-17
 -1      1295 1.11633E-04-4.50632E-05-2.16027E-17
 -1      1296 2.29334E-04-9.88566E-05-5.06865E-17
 -1      1297 1.07591E-04-2.85201E-05-2.94632E-17
 -1      1298 1.08706E-04-3.32687E-05-2.79047E-17
 -1      1299 2.21457E-04-7.26668E-05-6.67869E-17
 -1      1300 1.06179E-04-2.05599E-05-3.27836E-17
 -1      1301 1.06937E-04-2.43487E-05-3.18755E-17
 -1      1302 2.16996E-04-5.34048E-05-7.68293E-17
 -1      1303 1.05162E-04-1.41333E-05-3.47080E-17
 -1      1304 1.05691E-04-1.72312E-05-3.42743E-17
 -1      1305 2.13909E-04-3.82669E-05-8.32261E-17
 -1      1306 1.04448E-04-8.55490E-06-3.59549E-17
 -1      1307 1.04801E-04-1.12797E-05-3.57516E-17
 -1      1308 2.11680E-04-2.57226E-05-8.71292E-17
 -1      1309 1.04057E-04-3.56135E-06-3.65647E-17
 -1      1310 1.04229E-04-6.04403E-06-3.64292E-17
 -1      1311 2.10196E-04-1.47927E-05-8.93789E-17
 -1      1312 1.03999E-04 1.20548E-06-3.67545E-17
 -1      1313 1.03989E-04-1.20967E-06-3.67545E-17
 -1      1314 2.09474E-04-4.83702E-06-9.05444E-17
 -1      1315 1.04272E-04 6.09271E-06-3.63208E-17
 -1      1316 1.04083E-04 3.57582E-06-3.64292E-17
 -1      1317 2.09521E-04 4.84684E-06-9.03683E-17
 -1      1318 1.04864E-04 1.14431E-05-3.55347E-17
 -1      1319 1.04502E-04 8.65579E-06-3.58058E-17
 -1      1320 2.10324E-04 1.49381E-05-8.91079E-17
 -1      1321 1.05748E-04 1.74949E-05-3.38407E-17
 -1      1322 1.05220E-04 1.43219E-05-3.43421E-17
 -1      1323 2.11836E-04 2.60137E-05-8.63974E-17
 -1      1324 1.06986E-04 2.48508E-05-3.12115E-17
 -1      1325 1.06236E-04 2.09703E-05-3.21601E-17
 -1      1326 2.14060E-04 3.88602E-05-8.19115E-17
 -1      1327 1.08722E-04 3.39713E-05-2.69966E-17
 -1      1328 1.07616E-04 2.91261E-05-2.86094E-17
 -1      1329 2.17129E-04 5.44886E-05-7.49319E-17
 -1      1330 1.11578E-04 4.59520E-05-2.03830E-17
 -1      1331 1.09635E-04 3.94781E-05-2.32561E-17
 -1      1332 2.21522E-04 7.41740E-05-6.42390E-17
 -1      1333 1.18078E-04 6.42105E-05-9.20217E-18
 -1      1334 1.13533E-04 5.38924E-05-1.45148E-17
 -1      1335 2.29231E-04 1.00965E-04-4.78404E-17
 -1      1336 1.57547E-04 1.06851E-04 7.87402E-18
 -1      1337 1.36652E-04 8.27356E-05-2.80537E-18
 -1      1338 2.58673E-04 1.44454E-04-2.79318E-17
 -1      1339 3.35608E-04 2.13101E-04 5.14996E-19
 -1      1340 4.23111E-04-2.50671E-04-1.74963E-17
 -1      1341 5.78080E-04-3.20090E-04-5.12014E-17
 -1      1342 7.27891E-04-3.74991E-04-1.10711E-16
 -1      1343 8.74449E-04-4.18602E-04-1.94384E-16
 -1      1344 6.19132E-04-3.10605E-04-1.10494E-16
 -1      1345 1.01871E-03-4.54049E-04-3.01137E-16
 -1      1346 1.16168E-03-4.82538E-04-4.32149E-16
 -1      1347 9.19035E-04-3.99618E-04-2.86636E-16
 -1      1348 1.30429E-03-5.05924E-04-5.87136E-16
 -1      1349 1.44711E-03-5.24792E-04-7.66355E-16
 -1      1350 1.21111E-03-4.57596E-04-5.56629E-16
 -1      1351 1.59073E-03-5.40229E-04-9.69412E-16
 -1      1352 1.73551E-03-5.52728E-04-1.19693E-15
 -1      1353 1.50132E-03-4.95490E-04-9.21762E-16
 -1      1354 1.88186E-03-5.63008E-04-1.44832E-15
 -1      1355 2.03002E-03-5.71595E-04-1.72312E-15
 -1      1356 1.79371E-03-5.20085E-04-1.38176E-15
 -1      1357 2.18030E-03-5.79083E-04-2.02162E-15
 -1      1358 2.33288E-03-5.86051E-04-2.34386E-15
 -1      1359 2.09111E-03-5.36496E-04-1.93649E-15
 -1      1360 2.48800E-03-5.93108E-04-2.69016E-15
 -1      1361 2.64578E-03-6.00902E-04-3.06043E-15
 -1      1362 2.39555E-03-5.49429E-04-2.58533E-15
 -1      1363 2.80636E-03-6.10154E-04-3.45519E-15
 -1      1364 2.96979E-03-6.21583E-04-3.87358E-15
 -1      1365 2.70849E-03-5.63865E-04-3.32963E-15
 -1      1366 3.13608E-03-6.36078E-04-4.31506E-15
 -1      1367 3.30511E-03-6.54406E-04-4.78060E-15
 -1      1368 3.03084E-03-5.85518E-04-4.16842E-15
 -1      1369 3.47668E-03-6.77605E-04-5.26845E-15
 -1      1370 3.65043E-03-7.06387E-04-5.77859E-15
 -1      1371 3.36271E-03-6.21041E-04-5.10022E-15
 -1      1372 3.82587E-03-7.41769E-04-6.31294E-15
 -1      1373 4.00230E-03-7.84174E-04-6.87071E-15
 -1      1374 3.70304E-03-6.77710E-04-6.12372E-15
 -1      1375 4.17891E-03-8.34175E-04-7.45305E-15
 -1      1376 4.35464E-03-8.91477E-04-8.06121E-15
 -1      1377 4.04912E-03-7.62079E-04-7.24235E-15
 -1      1378 4.52843E-03-9.55532E-04-8.69344E-15
 -1      1379 4.69907E-03-1.02481E-03-9.35096E-15
 -1      1380 4.39626E-03-8.76938E-04-8.45862E-15
 -1      1381 4.86554E-03-1.09697E-03-1.00339E-14
 -1      1382 5.02696E-03-1.16892E-03-1.07431E-14
 -1      1383 4.73798E-03-1.01661E-03-9.77495E-15
 -1      1384 5.18288E-03-1.23662E-03-1.14790E-14
 -1      1385 5.33343E-03-1.29603E-03-1.22431E-14
 -1      1386 5.06759E-03-1.16242E-03-1.11952E-14
 -1      1387 5.47919E-03-1.34281E-03-1.30352E-14
 -1      1388 5.62166E-03-1.37377E-03-1.38552E-14
 -1      1389 5.38160E-03-1.28326E-03-1.27249E-14
 -1      1390 5.76237E-03-1.38655E-03-1.47039E-14
 -1      1391 5.90358E-03-1.38057E-03-1.55810E-14
 -1      1392 5.68347E-03-1.34622E-03-1.43674E-14
 -1      1393 6.04701E-03-1.35698E-03-1.64853E-14
 -1      1394 6.19457E-03-1.31826E-03-1.74182E-14
 -1      1395 5.98345E-03-1.33368E-03-1.61230E-14
 -1      1396 6.34723E-03-1.26830E-03-1.83799E-14
 -1      1397 6.50559E-03-1.21109E-03-1.93700E-14
 -1      1398 6.29317E-03-1.25434E-03-1.79934E-14
 -1      1399 6.66957E-03-1.15104E-03-2.03884E-14
 -1      1400 6.83857E-03-1.09175E-03-2.14330E-14
 -1      1401 6.61884E-03-1.13779E-03-1.99786E-14
 -1      1402 7.01175E-03-1.03624E-03-2.25087E-14
 -1      1403 7.18793E-03-9.86647E-04-2.36100E-14
 -1      1404 6.95916E-03-1.01766E-03-2.20795E-14
 -1      1405 7.36607E-03-9.44131E-04-2.47394E-14
 -1      1406 7.54501E-03-9.09423E-04-2.58995E-14
 -1      1407 7.30827E-03-9.17797E-04-2.42909E-14
 -1      1408 7.72387E-03-8.82307E-04-2.70864E-14
 -1      1409 7.90182E-03-8.62620E-04-2.83007E-14
 -1      1410 7.65943E-03-8.48470E-04-2.66146E-14
 -1      1411 8.07828E-03-8.49498E-04-2.95421E-14
 -1      1412 8.25279E-03-8.42380E-04-3.08096E-14
 -1      1413 8.00731E-03-8.09711E-04-2.90477E-14
 -1      1414 8.42509E-03-8.40288E-04-3.21033E-14
 -1      1415 8.59499E-03-8.42567E-04-3.34229E-14
 -1      1416 8.34864E-03-7.96390E-04-3.15860E-14
 -1      1417 8.76246E-03-8.48384E-04-3.47721E-14
 -1      1418 8.92749E-03-8.57138E-04-3.61495E-14
 -1      1419 8.68189E-03-8.01984E-04-3.42324E-14
 -1      1420 9.09018E-03-8.68216E-04-3.75559E-14
 -1      1421 9.25064E-03-8.81123E-04-3.89913E-14
 -1      1422 9.00682E-03-8.20526E-04-3.69900E-14
 -1      1423 9.40902E-03-8.95449E-04-4.04529E-14
 -1      1424 9.56547E-03-9.10812E-04-4.19421E-14
 -1      1425 9.32394E-03-8.47293E-04-3.98585E-14
 -1      1426 9.72017E-03-9.26957E-04-4.34591E-14
 -1      1427 9.87328E-03-9.43604E-04-4.50016E-14
 -1      1428 9.63419E-03-8.78850E-04-4.28393E-14
 -1      1429 1.00250E-02-9.60606E-04-4.65700E-14
 -1      1430 1.01754E-02-9.77766E-04-4.81639E-14
 -1      1431 9.93866E-03-9.12840E-04-4.59255E-14
 -1      1432 1.03247E-02-9.95009E-04-4.97846E-14
 -1      1433 1.04730E-02-1.01220E-03-5.14307E-14
 -1      1434 1.02384E-02-9.47724E-04-4.91127E-14
 -1      1435 1.06204E-02-1.02930E-03-5.31009E-14
 -1      1436 1.07671E-02-1.04624E-03-5.47938E-14
 -1      1437 1.05344E-02-9.82550E-04-5.24016E-14
 -1      1438 1.09131E-02-1.06300E-03-5.65068E-14
 -1      1439 1.10586E-02-1.07954E-03-5.82413E-14
 -1      1440 1.08274E-02-1.01677E-03-5.57836E-14
 -1      1441 1.12035E-02-1.09586E-03-5.99979E-14
 -1      1442 1.13481E-02-1.11193E-03-6.17712E-14
 -1      1443 1.11183E-02-1.05010E-03-5.92514E-14
 -1      1444 1.14923E-02-1.12778E-03-6.35660E-14
 -1      1445 1.16362E-02-1.14338E-03-6.53821E-14
 -1      1446 1.14074E-02-1.08244E-03-6.28032E-14
 -1      1447 1.17799E-02-1.15877E-03-6.72154E-14
 -1      1448 1.19233E-02-1.17394E-03-6.90704E-14
 -1      1449 1.16954E-02-1.11379E-03-6.64347E-14
 -1      1450 1.20666E-02-1.18891E-03-7.09383E-14
 -1      1451 1.22097E-02-1.20368E-03-7.28198E-14
 -1      1452 1.19824E-02-1.14422E-03-7.01397E-14
 -1      1453 1.23528E-02-1.21828E-03-7.47267E-14
 -1      1454 1.24957E-02-1.23271E-03-7.66501E-14
 -1      1455 1.22689E-02-1.17384E-03-7.39150E-14
 -1      1456 1.26386E-02-1.24700E-03-7.85896E-14
 -1      1457 1.27814E-02-1.26114E-03-8.05529E-14
 -1      1458 1.25549E-02-1.20275E-03-7.77607E-14
 -1      1459 1.29242E-02-1.27517E-03-8.25353E-14
 -1      1460 1.30670E-02-1.28908E-03-8.45361E-14
 -1      1461 1.28407E-02-1.23107E-03-8.16835E-14
 -1      1462 1.32097E-02-1.30289E-03-8.65547E-14
 -1      1463 1.33524E-02-1.31662E-03-8.85920E-14
 -1      1464 1.31264E-02-1.25891E-03-8.56833E-14
 -1      1465 1.34951E-02-1.33027E-03-9.06450E-14
 -1      1466 1.36379E-02-1.34385E-03-9.27118E-14
 -1      1467 1.34119E-02-1.28637E-03-8.97492E-14
 -1      1468 1.37806E-02-1.35738E-03-9.47921E-14
 -1      1469 1.39233E-02-1.37086E-03-9.68851E-14
 -1      1470 1.36975E-02-1.31354E-03-9.38775E-14
 -1      1471 1.40661E-02-1.38430E-03-9.89903E-14
 -1      1472 1.42089E-02-1.39771E-03-1.01103E-13
 -1      1473 1.39830E-02-1.34049E-03-9.80578E-14
 -1      1474 1.43516E-02-1.41109E-03-1.03228E-13
 -1      1475 1.44944E-02-1.42446E-03-1.05366E-13
 -1      1476 1.42686E-02-1.36730E-03-1.02283E-13
 -1      1477 1.46372E-02-1.43782E-03-1.07513E-13
 -1      1478 1.47801E-02-1.45118E-03-1.09667E-13
 -1      1479 1.45542E-02-1.39404E-03-1.06552E-13
 -1      1480 1.49229E-02-1.46454E-03-1.11833E-13
 -1      1481 1.50657E-02-1.47790E-03-1.14011E-13
 -1      1482 1.48399E-02-1.42074E-03-1.10863E-13
 -1      1483 1.52715E-02-1.49299E-03-1.17199E-13
 -1      1484 1.51885E-02-1.44918E-03-1.16215E-13
 -1      1485 6.46947E-04 3.53786E-04-5.63514E-17
 -1      1486 4.94778E-04 2.90825E-04-1.61817E-17
 -1      1487 4.48485E-04 2.53055E-04-3.73914E-17
 -1      1488 9.38951E-04 4.43128E-04-2.06635E-16
 -1      1489 7.94490E-04 4.02902E-04-1.19913E-16
 -1      1490 7.53302E-04 3.66926E-04-1.46110E-16
 -1      1491 1.22352E-03 5.02486E-04-4.50161E-16
 -1      1492 1.08159E-03 4.75734E-04-3.16384E-16
 -1      1493 1.04693E-03 4.41637E-04-3.46796E-16
 -1      1494 1.50743E-03 5.42614E-04-7.88662E-16
 -1      1495 1.36520E-03 5.24513E-04-6.07262E-16
 -1      1496 1.33549E-03 4.91414E-04-6.40628E-16
 -1      1497 1.79465E-03 5.70127E-04-1.22553E-15
 -1      1498 1.65041E-03 5.57626E-04-9.94593E-16
 -1      1499 1.62395E-03 5.24846E-04-1.02960E-15
 -1      1500 2.08759E-03 5.90033E-04-1.76111E-15
 -1      1501 1.94027E-03 5.80746E-04-1.48107E-15
 -1      1502 1.91555E-03 5.47781E-04-1.51668E-15
 -1      1503 2.38775E-03 6.06794E-04-2.39454E-15
 -1      1504 2.23669E-03 5.98530E-04-2.06569E-15
 -1      1505 2.21232E-03 5.64991E-04-2.10114E-15
 -1      1506 2.69587E-03 6.24825E-04-3.12868E-15
 -1      1507 2.54078E-03 6.15378E-04-2.74905E-15
 -1      1508 2.51545E-03 5.80958E-04-2.78433E-15
 -1      1509 3.01189E-03 6.48662E-04-3.96249E-15
 -1      1510 2.85291E-03 6.35761E-04-3.53297E-15
 -1      1511 2.82546E-03 6.00224E-04-3.56627E-15
 -1      1512 3.33468E-03 6.82826E-04-4.89674E-15
 -1      1513 3.17253E-03 6.64249E-04-4.41713E-15
 -1      1514 3.14204E-03 6.27462E-04-4.44779E-15
 -1      1515 3.66177E-03 7.31243E-04-5.93099E-15
 -1      1516 3.49789E-03 7.05167E-04-5.40097E-15
 -1      1517 3.46390E-03 6.67158E-04-5.42810E-15
 -1      1518 3.98919E-03 7.96049E-04-7.06580E-15
 -1      1519 3.82575E-03 7.61722E-04-6.48575E-15
 -1      1520 3.78859E-03 7.22772E-04-6.50875E-15
 -1      1521 4.31166E-03 8.75799E-04-8.30544E-15
 -1      1522 4.15142E-03 8.34490E-04-7.67247E-15
 -1      1523 4.11246E-03 7.95220E-04-7.69176E-15
 -1      1524 4.62360E-03 9.63566E-04-9.65798E-15
 -1      1525 4.46930E-03 9.19468E-04-8.96670E-15
 -1      1526 4.43103E-03 8.80856E-04-8.98049E-15
 -1      1527 4.92091E-03 1.04615E-03-1.11215E-14
 -1      1528 4.77427E-03 1.00655E-03-1.03755E-14
 -1      1529 4.74005E-03 9.69778E-04-1.03816E-14
 -1      1530 5.20317E-03 1.10606E-03-1.27040E-14
 -1      1531 5.06378E-03 1.07996E-03-1.18979E-14
 -1      1532 5.03715E-03 1.04601E-03-1.18975E-14
 -1      1533 5.47488E-03 1.12690E-03-1.44086E-14
 -1      1534 5.33986E-03 1.12196E-03-1.35400E-14
 -1      1535 5.32351E-03 1.09115E-03-1.35340E-14
 -1      1536 5.74466E-03 1.10010E-03-1.62440E-14
 -1      1537 5.60936E-03 1.11933E-03-1.53091E-14
 -1      1538 5.60433E-03 1.09103E-03-1.52972E-14
 -1      1539 6.02202E-03 1.02901E-03-1.82147E-14
 -1      1540 5.88182E-03 1.06929E-03-1.72132E-14
 -1      1541 5.88723E-03 1.04214E-03-1.71926E-14
 -1      1542 6.31369E-03 9.27261E-04-2.03142E-14
 -1      1543 6.16578E-03 9.80821E-04-1.92485E-14
 -1      1544 6.17908E-03 9.53397E-04-1.92203E-14
 -1      1545 6.62157E-03 8.12807E-04-2.25383E-14
 -1      1546 6.46565E-03 8.70559E-04-2.14105E-14
 -1      1547 6.48340E-03 8.41873E-04-2.13749E-14
 -1      1548 6.94314E-03 7.01470E-04-2.48812E-14
 -1      1549 6.78092E-03 7.56034E-04-2.36949E-14
 -1      1550 6.79969E-03 7.25741E-04-2.36521E-14
 -1      1551 7.27340E-03 6.03371E-04-2.73461E-14
 -1      1552 7.10755E-03 6.50446E-04-2.60999E-14
 -1      1553 7.12463E-03 6.18706E-04-2.60486E-14
 -1      1554 7.60693E-03 5.22662E-04-2.99108E-14
 -1      1555 7.44009E-03 5.60825E-04-2.86157E-14
 -1      1556 7.45384E-03 5.28053E-04-2.85538E-14
 -1      1557 7.93927E-03 4.59136E-04-3.25760E-14
 -1      1558 7.77350E-03 4.88902E-04-3.12313E-14
 -1      1559 7.78327E-03 4.55565E-04-3.11630E-14
 -1      1560 8.26742E-03 4.10234E-04-3.53490E-14
 -1      1561 8.10402E-03 4.33071E-04-3.39487E-14
 -1      1562 8.10991E-03 3.99570E-04-3.38751E-14
 -1      1563 8.58979E-03 3.72579E-04-3.82244E-14
 -1      1564 8.42940E-03 3.90214E-04-3.67741E-14
 -1      1565 8.43193E-03 3.56839E-04-3.66901E-14
 -1      1566 8.90588E-03 3.42899E-04-4.12031E-14
 -1      1567 8.74863E-03 3.56925E-04-3.97003E-14
 -1      1568 8.74851E-03 3.23857E-04-3.96073E-14
 -1      1569 9.21592E-03 3.18437E-04-4.42777E-14
 -1      1570 9.06163E-03 3.30159E-04-4.27298E-14
 -1      1571 9.05954E-03 2.97489E-04-4.26254E-14
 -1      1572 9.52052E-03 2.97071E-04-4.74448E-14
 -1      1573 9.36885E-03 3.07472E-04-4.58496E-14
 -1      1574 9.36541E-03 2.75227E-04-4.57377E-14
 -1      1575 9.82051E-03 2.77267E-04-5.06966E-14
 -1      1576 9.67104E-03 2.87047E-04-4.90607E-14
 -1      1577 9.66674E-03 2.55210E-04-4.89392E-14
 -1      1578 1.01167E-02 2.57979E-04-5.40353E-14
 -1      1579 9.96902E-03 2.67606E-04-5.23543E-14
 -1      1580 9.96424E-03 2.36140E-04-5.22260E-14
 -1      1581 1.04099E-02 2.38541E-04-5.74712E-14
 -1      1582 1.02636E-02 2.48308E-04-5.57400E-14
 -1      1583 1.02586E-02 2.17162E-04-5.56065E-14
 -1      1584 1.07008E-02 2.18558E-04-6.10105E-14
 -1      1585 1.05556E-02 2.28633E-04-5.92281E-14
 -1      1586 1.05505E-02 1.97754E-04-5.90873E-14
 -1      1587 1.09899E-02 1.97833E-04-6.46519E-14
 -1      1588 1.08455E-02 2.08295E-04-6.28191E-14
 -1      1589 1.08405E-02 1.77633E-04-6.26700E-14
 -1      1590 1.12777E-02 1.76294E-04-6.83918E-14
 -1      1591 1.11339E-02 1.87166E-04-6.65095E-14
 -1      1592 1.11291E-02 1.56675E-04-6.63502E-14
 -1      1593 1.15646E-02 1.53955E-04-7.22174E-14
 -1      1594 1.14213E-02 1.65222E-04-7.02942E-14
 -1      1595 1.14166E-02 1.34864E-04-7.01219E-14
 -1      1596 1.18509E-02 1.30875E-04-7.61257E-14
 -1      1597 1.17079E-02 1.42503E-04-7.41611E-14
 -1      1598 1.17033E-02 1.12245E-04-7.39760E-14
 -1      1599 1.21368E-02 1.07142E-04-8.01030E-14
 -1      1600 1.19939E-02 1.19084E-04-7.81072E-14
 -1      1601 1.19896E-02 8.89010E-05-7.79110E-14
 -1      1602 1.24225E-02 8.28505E-05-8.41348E-14
 -1      1603 1.22797E-02 9.50599E-05-8.21129E-14
 -1      1604 1.22755E-02 6.49296E-05-8.19090E-14
 -1      1605 1.27080E-02 5.80982E-05-8.82162E-14
 -1      1606 1.25653E-02 7.05263E-05-8.61696E-14
 -1      1607 1.25612E-02 4.04328E-05-8.59591E-14
 -1      1608 1.29934E-02 3.29762E-05-9.23456E-14
 -1      1609 1.28507E-02 4.55781E-05-9.02738E-14
 -1      1610 1.28468E-02 1.55086E-05-9.00573E-14
 -1      1611 1.32789E-02 7.56810E-06-9.65101E-14
 -1      1612 1.31362E-02 2.03031E-05-9.44269E-14
 -1      1613 1.31323E-02-9.75199E-06-9.41983E-14
 -1      1614 1.35644E-02-1.80507E-05-1.00692E-13
 -1      1615 1.34216E-02-5.21932E-06-9.85993E-14
 -1      1616 1.34178E-02-3.52672E-05-9.83687E-14
 -1      1617 1.38499E-02-4.38126E-05-1.04898E-13
 -1      1618 1.37071E-02-3.09177E-05-1.02792E-13
 -1      1619 1.37033E-02-6.09637E-05-1.02558E-13
 -1      1620 1.41355E-02-6.96566E-05-1.09125E-13
 -1      1621 1.39927E-02-5.67278E-05-1.07008E-13
 -1      1622 1.39889E-02-8.67758E-05-1.06771E-13
 -1      1623 1.44211E-02-9.55276E-05-1.13364E-13
 -1      1624 1.42783E-02-8.25916E-05-1.11242E-13
 -1      1625 1.42745E-02-1.12644E-04-1.11000E-13
 -1      1626 1.47068E-02-1.21379E-04-1.17618E-13
 -1      1627 1.45639E-02-1.08458E-04-1.15490E-13
 -1      1628 1.45602E-02-1.38517E-04-1.15245E-13
 -1      1629 1.48589E-02-1.45724E-04-1.19819E-13
 -1      1630 1.49026E-02-2.52186E-04-1.19824E-13
 -1      1631 1.48899E-02-2.10029E-04-1.19895E-13
 -1      1632 1.49279E-02-3.36528E-04-1.19674E-13
 -1      1633 1.49153E-02-2.94352E-04-1.19750E-13
 -1      1634 1.47852E-02-2.62088E-04-1.17944E-13
 -1      1635 1.49532E-02-4.20916E-04-1.19520E-13
 -1      1636 1.49406E-02-3.78716E-04-1.19596E-13
 -1      1637 1.48105E-02-3.46433E-04-1.17798E-13
 -1      1638 1.49786E-02-5.05350E-04-1.19374E-13
 -1      1639 1.49659E-02-4.63127E-04-1.19448E-13
 -1      1640 1.48358E-02-4.30815E-04-1.17651E-13
 -1      1641 1.50036E-02-5.88391E-04-1.19229E-13
 -1      1642 1.49911E-02-5.46866E-04-1.19303E-13
 -1      1643 1.48610E-02-5.14516E-04-1.17508E-13
 -1      1644 1.50292E-02-6.72895E-04-1.19074E-13
 -1      1645 1.50164E-02-6.30640E-04-1.19150E-13
 -1      1646 1.48863E-02-5.98245E-04-1.17356E-13
 -1      1647 1.50549E-02-7.57419E-04-1.18927E-13
 -1      1648 1.50420E-02-7.15155E-04-1.19000E-13
 -1      1649 1.49119E-02-6.82712E-04-1.17203E-13
 -1      1650 1.50807E-02-8.41952E-04-1.18789E-13
 -1      1651 1.50678E-02-7.99685E-04-1.18858E-13
 -1      1652 1.49376E-02-7.67191E-04-1.17057E-13
 -1      1653 1.51067E-02-9.26483E-04-1.18655E-13
 -1      1654 1.50937E-02-8.84219E-04-1.18721E-13
 -1      1655 1.49634E-02-8.51676E-04-1.16914E-13
 -1      1656 1.51328E-02-1.01100E-03-1.18518E-13
 -1      1657 1.51197E-02-9.68743E-04-1.18588E-13
 -1      1658 1.49894E-02-9.36156E-04-1.16770E-13
 -1      1659 1.51585E-02-1.09406E-03-1.18380E-13
 -1      1660 1.51456E-02-1.05253E-03-1.18451E-13
 -1      1661 1.50153E-02-1.01991E-03-1.16622E-13
 -1      1662 1.51848E-02-1.17851E-03-1.18208E-13
 -1      1663 1.51716E-02-1.13629E-03-1.18299E-13
 -1      1664 1.50413E-02-1.10364E-03-1.16461E-13
 -1      1665 1.52112E-02-1.26292E-03-1.18016E-13
 -1      1666 1.51980E-02-1.22072E-03-1.18116E-13
 -1      1667 1.50677E-02-1.18805E-03-1.16277E-13
 -1      1668 1.52376E-02-1.34729E-03-1.17809E-13
 -1      1669 1.52244E-02-1.30511E-03-1.17915E-13
 -1      1670 1.50941E-02-1.27244E-03-1.16075E-13
 -1      1671 1.52196E-02-1.41932E-03-1.16956E-13
 -1      1672 1.52064E-02-1.37716E-03-1.17075E-13
 -1      1673 1.50761E-02-1.34449E-03-1.15237E-13
 -1      1674 1.50139E-02-1.40424E-03-1.13771E-13
 -1      1675 7.85822E-03-1.08648E-04-2.01055E-14
 -1      1676 7.89149E-03-1.51689E-04-2.01463E-14
 -1      1677 7.67188E-03-2.58583E-06-1.99355E-14
 -1      1678 7.77823E-03-6.02954E-05-2.01034E-14
 -1      1679 7.37518E-03 1.59855E-04-1.93287E-14
 -1      1680 7.52301E-03 8.77129E-05-1.95894E-14
 -1      1681 7.02441E-03 3.34753E-04-1.86256E-14
 -1      1682 7.19236E-03 2.54465E-04-1.89542E-14
 -1      1683 6.59472E-03 5.13524E-04-1.78195E-14
 -1      1684 6.78822E-03 4.23542E-04-1.82472E-14
 -1      1685 6.21380E-03 6.73221E-04-1.68293E-14
 -1      1686 6.39319E-03 6.09628E-04-1.72532E-14
 -1      1687 5.83185E-03 7.64550E-04-1.58862E-14
 -1      1688 6.00656E-03 7.30637E-04-1.63224E-14
 -1      1689 5.44265E-03 7.84625E-04-1.49023E-14
 -1      1690 5.61903E-03 7.90332E-04-1.53576E-14
 -1      1691 5.05300E-03 7.06500E-04-1.39902E-14
 -1      1692 5.22746E-03 7.49264E-04-1.43952E-14
 -1      1693 4.67824E-03 5.80394E-04-1.32166E-14
 -1      1694 4.84685E-03 6.43418E-04-1.35590E-14
 -1      1695 4.30083E-03 4.09811E-04-1.24859E-14
 -1      1696 4.48167E-03 4.91450E-04-1.28038E-14
 -1      1697 3.94004E-03 2.53282E-04-1.19550E-14
 -1      1698 4.09388E-03 3.25902E-04-1.21893E-14
 -1      1699 3.64975E-03 1.10031E-04-1.15428E-14
 -1      1700 3.77539E-03 1.73704E-04-1.17173E-14
 -1      1701 3.45096E-03-1.38908E-05-1.12583E-14
 -1      1702 3.52973E-03 3.84492E-05-1.13624E-14
 -1      1703 3.38359E-03-1.12631E-04-1.11802E-14
 -1      1704 3.39757E-03-6.83552E-05-1.12021E-14
 -1      1705 3.46227E-03-2.11451E-04-1.12011E-14
 -1      1706 3.40492E-03-1.63150E-04-1.11365E-14
 -1      1707 3.67384E-03-3.50657E-04-1.15268E-14
 -1      1708 3.56287E-03-2.89273E-04-1.13895E-14
 -1      1709 3.98227E-03-5.08613E-04-1.19379E-14
 -1      1710 3.82881E-03-4.31528E-04-1.17286E-14
 -1      1711 4.39431E-03-6.93168E-04-1.25032E-14
 -1      1712 4.20097E-03-5.97854E-04-1.21971E-14
 -1      1713 4.79852E-03-8.88212E-04-1.32651E-14
 -1      1714 4.61122E-03-8.05238E-04-1.29178E-14
 -1      1715 5.18923E-03-1.02948E-03-1.40862E-14
 -1      1716 5.00927E-03-9.72039E-04-1.37031E-14
 -1      1717 5.57745E-03-1.10172E-03-1.49665E-14
 -1      1718 5.40131E-03-1.07867E-03-1.45509E-14
 -1      1719 5.94982E-03-1.08882E-03-1.58792E-14
 -1      1720 5.78081E-03-1.10524E-03-1.54612E-14
 -1      1721 6.31163E-03-1.00234E-03-1.67484E-14
 -1      1722 6.14774E-03-1.04908E-03-1.63548E-14
 -1      1723 6.67049E-03-8.67927E-04-1.75878E-14
 -1      1724 6.50458E-03-9.35194E-04-1.72056E-14
 -1      1725 7.02571E-03-7.08666E-04-1.83713E-14
 -1      1726 6.86306E-03-7.84086E-04-1.80201E-14
 -1      1727 7.34864E-03-5.53368E-04-1.90394E-14
 -1      1728 7.20491E-03-6.23423E-04-1.87498E-14
 -1      1729 7.61719E-03-4.17398E-04-1.95709E-14
 -1      1730 7.50121E-03-4.77369E-04-1.93445E-14
 -1      1731 7.80797E-03-3.00818E-04-1.99770E-14
 -1      1732 7.73015E-03-3.49688E-04-1.98242E-14
 -1      1733 7.89759E-03-2.02168E-04-2.01963E-14
 -1      1734 7.87122E-03-2.44663E-04-2.01354E-14
 -1      1735 6.83465E-03 3.40462E-04-1.87206E-14
 -1      1736 7.24031E-03 1.50752E-04-1.94867E-14
 -1      1737 1.48552E-02-1.75788E-04-1.19573E-13
 -1      1738 1.47378E-02-1.85683E-04-1.17694E-13
 -1      1739 7.81685E-03-1.14602E-04-2.05739E-14
 -1      1740 7.57937E-03-1.57353E-05-2.02175E-14
 -1      1741 7.90432E-03-1.81561E-04-2.06266E-14
 -1      1742 6.43648E-03 5.46165E-04-1.77574E-14
 -1      1743 6.06599E-03 7.13561E-04-1.66745E-14
 -1      1744 5.70409E-03 8.04057E-04-1.56338E-14
 -1      1745 5.36489E-03 7.90383E-04-1.46007E-14
 -1      1746 5.00376E-03 6.79613E-04-1.36708E-14
 -1      1747 4.63622E-03 5.12959E-04-1.28374E-14
 -1      1748 4.25681E-03 3.25876E-04-1.21436E-14
 -1      1749 3.89170E-03 1.61093E-04-1.16219E-14
 -1      1750 3.60013E-03 2.84464E-05-1.12149E-14
 -1      1751 3.41905E-03-6.12318E-05-1.09867E-14
 -1      1752 3.38514E-03-1.30126E-04-1.08875E-14
 -1      1753 3.51413E-03-2.04716E-04-1.10238E-14
 -1      1754 3.77868E-03-3.35896E-04-1.14046E-14
 -1      1755 4.14974E-03-5.01370E-04-1.18523E-14
 -1      1756 4.56526E-03-7.13664E-04-1.25068E-14
 -1      1757 4.96172E-03-9.24765E-04-1.33452E-14
 -1      1758 5.33382E-03-1.07215E-03-1.42395E-14
 -1      1759 5.68043E-03-1.13068E-03-1.51955E-14
 -1      1760 6.01451E-03-1.08886E-03-1.61688E-14
 -1      1761 6.35467E-03-9.68658E-04-1.71084E-14
 -1      1762 6.70534E-03-8.01884E-04-1.80072E-14
 -1      1763 7.05970E-03-6.22845E-04-1.88284E-14
 -1      1764 7.38799E-03-4.62968E-04-1.95238E-14
 -1      1765 7.65906E-03-3.35741E-04-2.00924E-14
 -1      1766 7.84335E-03-2.44255E-04-2.05125E-14
 -1      1767 2.87288E-04-1.68457E-04-2.06269E-17
 -1      1768 3.35324E-04-1.02137E-04-1.07919E-16
 -1      1769 3.40290E-04-1.18587E-04-9.87302E-17
 -1      1770 3.46862E-04-1.38112E-04-8.77391E-17
 -1      1771 3.56598E-04-1.60885E-04-7.28719E-17
 -1      1772 4.64397E-04-1.69030E-04-1.42925E-16
 -1      1773 3.23164E-04-5.31164E-05-1.29386E-16
 -1      1774 3.25455E-04-6.33234E-05-1.25713E-16
 -1      1775 3.19607E-04-3.47147E-05-1.34468E-16
 -1      1776 3.21225E-04-4.35239E-05-1.32205E-16
 -1      1777 4.33275E-04-6.43494E-05-1.93652E-16
 -1      1778 3.17388E-04-1.85887E-05-1.37396E-16
 -1      1779 3.18338E-04-2.64181E-05-1.36067E-16
 -1      1780 4.28499E-04-4.07583E-05-1.99927E-16
 -1      1781 3.16492E-04-3.63241E-06-1.38507E-16
 -1      1782 3.16776E-04-1.10131E-05-1.38073E-16
 -1      1783 4.25709E-04-1.97291E-05-2.03342E-16
 -1      1784 3.16916E-04 1.11782E-05-1.37639E-16
 -1      1785 3.16540E-04 3.74444E-06-1.38304E-16
 -1      1786 4.24887E-04 1.35290E-07-2.04155E-16
 -1      1787 3.18628E-04 2.68369E-05-1.35363E-16
 -1      1788 3.17610E-04 1.88576E-05-1.36759E-16
 -1      1789 4.26014E-04 2.01444E-05-2.02475E-16
 -1      1790 3.21538E-04 4.40366E-05-1.30633E-16
 -1      1791 3.19923E-04 3.51745E-05-1.33384E-16
 -1      1792 4.29005E-04 4.13909E-05-1.98328E-16
 -1      1793 3.25797E-04 6.44800E-05-1.23450E-16
 -1      1794 3.23477E-04 5.38504E-05-1.27556E-16
 -1      1795 4.33839E-04 6.53424E-05-1.91158E-16
 -1      1796 3.31718E-04 8.93682E-05-1.12012E-16
 -1      1797 3.28487E-04 7.63264E-05-1.18585E-16
 -1      1798 4.40744E-04 9.37528E-05-1.79964E-16
 -1      1799 3.40547E-04 1.21134E-04-9.45289E-17
 -1      1800 3.35575E-04 1.04321E-04-1.04300E-16
 -1      1801 4.50378E-04 1.28502E-04-1.62454E-16
 -1      1802 3.56963E-04 1.64923E-04-6.78575E-17
 -1      1803 3.47332E-04 1.41318E-04-8.28873E-17
 -1      1804 4.65271E-04 1.73039E-04-1.36271E-16
 -1      1805 4.12030E-04 2.21007E-04-4.92092E-17
 -1      1806 3.82830E-04 1.89864E-04-6.14743E-17
 -1      1807 5.02739E-04 2.26038E-04-1.12649E-16
 -1      1808 5.65149E-04 2.84315E-04-9.34989E-17
 -1      1809 3.44092E-04-1.79761E-04-4.67969E-17
 -1      1810 8.66132E-04 3.77841E-04-2.51562E-16
 -1      1811 7.16470E-04 3.35635E-04-1.61370E-16
 -1      1812 6.82949E-04 3.05148E-04-1.73757E-16
 -1      1813 4.65287E-04-2.20252E-04-9.30788E-17
 -1      1814 8.20011E-04-3.44151E-04-2.68421E-16
 -1      1815 9.69010E-04-3.79409E-04-3.84214E-16
 -1      1816 1.11621E-03-4.08220E-04-5.23073E-16
 -1      1817 1.26298E-03-4.31330E-04-6.85433E-16
 -1      1818 1.02176E-03-3.58262E-04-4.86685E-16
 -1      1819 1.40925E-03-4.50156E-04-8.71184E-16
 -1      1820 1.55574E-03-4.65085E-04-1.08054E-15
 -1      1821 1.31619E-03-4.04440E-04-8.18234E-16
 -1      1822 1.70263E-03-4.77122E-04-1.31347E-15
 -1      1823 1.85034E-03-4.86648E-04-1.56978E-15
 -1      1824 1.61004E-03-4.34187E-04-1.24304E-15
 -1      1825 1.99906E-03-4.94452E-04-1.84959E-15
 -1      1826 2.14908E-03-5.00955E-04-2.15268E-15
 -1      1827 1.90544E-03-4.52915E-04-1.76122E-15
 -1      1828 2.30054E-03-5.06890E-04-2.47953E-15
 -1      1829 2.45369E-03-5.12743E-04-2.82940E-15
 -1      1830 2.20419E-03-4.65378E-04-2.37223E-15
 -1      1831 2.60862E-03-5.19300E-04-3.20302E-15
 -1      1832 2.76549E-03-5.27141E-04-3.60057E-15
 -1      1833 2.50778E-03-4.76304E-04-3.07621E-15
 -1      1834 2.92442E-03-5.37171E-04-4.02148E-15
 -1      1835 3.08541E-03-5.50091E-04-4.46522E-15
 -1      1836 2.81752E-03-4.90919E-04-3.87349E-15
 -1      1837 3.24867E-03-5.66931E-04-4.93200E-15
 -1      1838 3.41388E-03-5.88505E-04-5.42139E-15
 -1      1839 3.13458E-03-5.15323E-04-4.76393E-15
 -1      1840 3.58144E-03-6.15862E-04-5.93425E-15
 -1      1841 3.75055E-03-6.49833E-04-6.47083E-15
 -1      1842 3.46002E-03-5.56609E-04-5.74509E-15
 -1      1843 3.92185E-03-6.91186E-04-7.03123E-15
 -1      1844 4.09389E-03-7.40482E-04-7.61515E-15
 -1      1845 3.79458E-03-6.22362E-04-6.81941E-15
 -1      1846 4.26749E-03-7.97689E-04-8.22346E-15
 -1      1847 4.44051E-03-8.62443E-04-8.85709E-15
 -1      1848 4.13797E-03-7.18971E-04-7.98915E-15
 -1      1849 4.61371E-03-9.33238E-04-9.51616E-15
 -1      1850 4.78480E-03-1.00803E-03-1.02010E-14
 -1      1851 4.48765E-03-8.47848E-04-9.25704E-15
 -1      1852 4.95398E-03-1.08346E-03-1.09110E-14
 -1      1853 5.11995E-03-1.15524E-03-1.16484E-14
 -1      1854 4.83760E-03-9.99537E-04-1.06267E-14
 -1      1855 5.28210E-03-1.21885E-03-1.24151E-14
 -1      1856 5.44176E-03-1.26916E-03-1.32082E-14
 -1      1857 5.17934E-03-1.14801E-03-1.21030E-14
 -1      1858 5.59759E-03-1.30237E-03-1.40295E-14
 -1      1859 5.75371E-03-1.31578E-03-1.48803E-14
 -1      1860 5.50782E-03-1.25340E-03-1.36911E-14
 -1      1861 5.90855E-03-1.30863E-03-1.57609E-14
 -1      1862 6.06665E-03-1.28226E-03-1.66690E-14
 -1      1863 5.82815E-03-1.28109E-03-1.53953E-14
 -1      1864 6.22660E-03-1.23959E-03-1.76063E-14
 -1      1865 6.39080E-03-1.18537E-03-1.85737E-14
 -1      1866 6.15305E-03-1.22453E-03-1.72172E-14
 -1      1867 6.55837E-03-1.12420E-03-1.95691E-14
 -1      1868 6.72876E-03-1.06079E-03-2.05935E-14
 -1      1869 6.49111E-03-1.11075E-03-1.91561E-14
 -1      1870 6.90189E-03-9.99123E-04-2.16472E-14
 -1      1871 7.07574E-03-9.42148E-04-2.27293E-14
 -1      1872 6.84045E-03-9.80702E-04-2.12128E-14
 -1      1873 7.25087E-03-8.92007E-04-2.38388E-14
 -1      1874 7.42506E-03-8.49659E-04-2.49748E-14
 -1      1875 7.19291E-03-8.66414E-04-2.33823E-14
 -1      1876 7.59911E-03-8.15617E-04-2.61391E-14
 -1      1877 7.77134E-03-7.89598E-04-2.73319E-14
 -1      1878 7.54146E-03-7.83284E-04-2.56636E-14
 -1      1879 7.94246E-03-7.71113E-04-2.85506E-14
 -1      1880 8.11148E-03-7.59433E-04-2.97963E-14
 -1      1881 7.88236E-03-7.33385E-04-2.80530E-14
 -1      1882 8.27886E-03-7.53652E-04-3.10686E-14
 -1      1883 8.44417E-03-7.53008E-04-3.23656E-14
 -1      1884 8.21472E-03-7.11956E-04-3.05484E-14
 -1      1885 8.60763E-03-7.56569E-04-3.36915E-14
 -1      1886 8.76919E-03-7.63688E-04-3.50443E-14
 -1      1887 8.53901E-03-7.12176E-04-3.31494E-14
 -1      1888 8.92893E-03-7.73588E-04-3.64241E-14
 -1      1889 9.08698E-03-7.85771E-04-3.78320E-14
 -1      1890 8.85614E-03-7.27533E-04-3.58577E-14
 -1      1891 9.24336E-03-7.99662E-04-3.92672E-14
 -1      1892 9.39829E-03-8.14894E-04-4.07296E-14
 -1      1893 9.16712E-03-7.52727E-04-3.86752E-14
 -1      1894 9.55176E-03-8.31076E-04-4.22198E-14
 -1      1895 9.70403E-03-8.47947E-04-4.37372E-14
 -1      1896 9.47286E-03-7.83812E-04-4.16022E-14
 -1      1897 9.85506E-03-8.65259E-04-4.52797E-14
 -1      1898 1.00051E-02-8.82832E-04-4.68476E-14
 -1      1899 9.77423E-03-8.18029E-04-4.46360E-14
 -1      1900 1.01541E-02-9.00521E-04-4.84428E-14
 -1      1901 1.03024E-02-9.18204E-04-5.00620E-14
 -1      1902 1.00720E-02-8.53543E-04-4.77721E-14
 -1      1903 1.04498E-02-9.35806E-04-5.17039E-14
 -1      1904 1.05966E-02-9.53248E-04-5.33717E-14
 -1      1905 1.03668E-02-8.89194E-04-5.10084E-14
 -1      1906 1.07428E-02-9.70500E-04-5.50597E-14
 -1      1907 1.08885E-02-9.87512E-04-5.67697E-14
 -1      1908 1.06593E-02-9.24297E-04-5.43391E-14
 -1      1909 1.10337E-02-1.00428E-03-5.85062E-14
 -1      1910 1.11785E-02-1.02079E-03-6.02617E-14
 -1      1911 1.09499E-02-9.58491E-04-5.77600E-14
 -1      1912 1.13230E-02-1.03703E-03-6.20391E-14
 -1      1913 1.14672E-02-1.05301E-03-6.38364E-14
 -1      1914 1.12392E-02-9.91622E-04-6.12731E-14
 -1      1915 1.16112E-02-1.06874E-03-6.56511E-14
 -1      1916 1.17549E-02-1.08422E-03-6.74873E-14
 -1      1917 1.15273E-02-1.02367E-03-6.48682E-14
 -1      1918 1.18984E-02-1.09948E-03-6.93401E-14
 -1      1919 1.20418E-02-1.11451E-03-7.12103E-14
 -1      1920 1.18147E-02-1.05470E-03-6.85390E-14
 -1      1921 1.21851E-02-1.12934E-03-7.30995E-14
 -1      1922 1.23282E-02-1.14398E-03-7.50062E-14
 -1      1923 1.21014E-02-1.08481E-03-7.22846E-14
 -1      1924 1.24713E-02-1.15845E-03-7.69309E-14
 -1      1925 1.26143E-02-1.17276E-03-7.88711E-14
 -1      1926 1.23878E-02-1.11412E-03-7.60957E-14
 -1      1927 1.27573E-02-1.18693E-03-8.08319E-14
 -1      1928 1.29002E-02-1.20097E-03-8.28134E-14
 -1      1929 1.26738E-02-1.14276E-03-7.99832E-14
 -1      1930 1.30430E-02-1.21489E-03-8.48117E-14
 -1      1931 1.31859E-02-1.22871E-03-8.68271E-14
 -1      1932 1.29597E-02-1.17085E-03-8.39422E-14
 -1      1933 1.33287E-02-1.24244E-03-8.88594E-14
 -1      1934 1.34715E-02-1.25609E-03-9.09059E-14
 -1      1935 1.32455E-02-1.19850E-03-8.79704E-14
 -1      1936 1.36143E-02-1.26968E-03-9.29684E-14
 -1      1937 1.37571E-02-1.28320E-03-9.50427E-14
 -1      1938 1.35311E-02-1.22580E-03-9.20612E-14
 -1      1939 1.38999E-02-1.29667E-03-9.71302E-14
 -1      1940 1.40427E-02-1.31011E-03-9.92296E-14
 -1      1941 1.38168E-02-1.25285E-03-9.62061E-14
 -1      1942 1.41855E-02-1.32351E-03-1.01340E-13
 -1      1943 1.43283E-02-1.33689E-03-1.03462E-13
 -1      1944 1.41024E-02-1.27971E-03-1.00399E-13
 -1      1945 1.44712E-02-1.35025E-03-1.05595E-13
 -1      1946 1.46140E-02-1.36360E-03-1.07741E-13
 -1      1947 1.43881E-02-1.30646E-03-1.04641E-13
 -1      1948 1.47425E-02-1.37724E-03-1.09666E-13
 -1      1949 1.48853E-02-1.39059E-03-1.11828E-13
 -1      1950 1.49165E-02-1.36072E-03-1.12560E-13
 -1      1951 1.46594E-02-1.33345E-03-1.08695E-13
 -1      1952 1.15960E-03 4.40109E-04-4.99600E-16
 -1      1953 1.01328E-03 4.12134E-04-3.63709E-16
 -1      1954 9.80675E-04 3.82620E-04-3.78034E-16
 -1      1955 1.45009E-03 4.81705E-04-8.40934E-16
 -1      1956 1.30484E-03 4.63061E-04-6.58450E-16
 -1      1957 1.27411E-03 4.34621E-04-6.73154E-16
 -1      1958 1.74133E-03 5.09565E-04-1.27808E-15
 -1      1959 1.59539E-03 4.97046E-04-1.04741E-15
 -1      1960 1.56616E-03 4.69220E-04-1.06202E-15
 -1      1961 2.03584E-03 5.28947E-04-1.81257E-15
 -1      1962 1.88804E-03 5.20055E-04-1.53339E-15
 -1      1963 1.85955E-03 4.92378E-04-1.54701E-15
 -1      1964 2.33523E-03 5.44469E-04-2.44412E-15
 -1      1965 2.18484E-03 5.36941E-04-2.11602E-15
 -1      1966 2.15623E-03 5.09003E-04-2.12828E-15
 -1      1967 2.64046E-03 5.60653E-04-3.17376E-15
 -1      1968 2.48707E-03 5.52227E-04-2.79673E-15
 -1      1969 2.45752E-03 5.23650E-04-2.80632E-15
 -1      1970 2.95184E-03 5.82162E-04-4.00187E-15
 -1      1971 2.79539E-03 5.70492E-04-3.57536E-15
 -1      1972 2.76421E-03 5.40916E-04-3.58166E-15
 -1      1973 3.26897E-03 6.13728E-04-4.92848E-15
 -1      1974 3.10977E-03 5.96462E-04-4.45260E-15
 -1      1975 3.07659E-03 5.65566E-04-4.45516E-15
 -1      1976 3.59055E-03 6.59651E-04-5.95350E-15
 -1      1977 3.42939E-03 6.34748E-04-5.42842E-15
 -1      1978 3.39428E-03 6.02316E-04-5.42619E-15
 -1      1979 3.91423E-03 7.22671E-04-7.08026E-15
 -1      1980 3.75242E-03 6.89045E-04-6.50464E-15
 -1      1981 3.71611E-03 6.55105E-04-6.49688E-15
 -1      1982 4.23662E-03 8.02159E-04-8.30941E-15
 -1      1983 4.07597E-03 7.60664E-04-7.68176E-15
 -1      1984 4.03988E-03 7.25667E-04-7.66866E-15
 -1      1985 4.55368E-03 8.91977E-04-9.64668E-15
 -1      1986 4.39620E-03 8.46458E-04-8.96384E-15
 -1      1987 4.36231E-03 8.11436E-04-8.94440E-15
 -1      1988 4.86188E-03 9.79205E-04-1.10959E-14
 -1      1989 4.70913E-03 9.36933E-04-1.03570E-14
 -1      1990 4.67949E-03 9.03420E-04-1.03302E-14
 -1      1991 5.15983E-03 1.04556E-03-1.26649E-14
 -1      1992 5.01205E-03 1.01607E-03-1.18651E-14
 -1      1993 4.98817E-03 9.85632E-04-1.18302E-14
 -1      1994 5.44987E-03 1.07284E-03-1.43561E-14
 -1      1995 5.30537E-03 1.06480E-03-1.34943E-14
 -1      1996 5.28782E-03 1.03821E-03-1.34518E-14
 -1      1997 5.73784E-03 1.05044E-03-1.61759E-14
 -1      1998 5.59342E-03 1.06781E-03-1.52499E-14
 -1      1999 5.58197E-03 1.04455E-03-1.51986E-14
 -1      2000 6.03070E-03 9.80704E-04-1.81304E-14
 -1      2001 5.88306E-03 1.02072E-03-1.71370E-14
 -1      2002 5.87716E-03 9.99225E-04-1.70775E-14
 -1      2003 6.33330E-03 8.77671E-04-2.02123E-14
 -1      2004 6.18050E-03 9.32207E-04-1.91546E-14
 -1      2005 6.17949E-03 9.10769E-04-1.90871E-14
 -1      2006 6.64668E-03 7.60492E-04-2.24218E-14
 -1      2007 6.48871E-03 8.19792E-04-2.13014E-14
 -1      2008 6.49161E-03 7.97308E-04-2.12252E-14
 -1      2009 6.96861E-03 6.46206E-04-2.47486E-14
 -1      2010 6.80686E-03 7.02300E-04-2.35712E-14
 -1      2011 6.81226E-03 6.78436E-04-2.34857E-14
 -1      2012 7.29533E-03 5.45683E-04-2.71934E-14
 -1      2013 7.13172E-03 5.93939E-04-2.59581E-14
 -1      2014 7.13798E-03 5.68870E-04-2.58658E-14
 -1      2015 7.62306E-03 4.63360E-04-2.97419E-14
 -1      2016 7.45938E-03 5.02256E-04-2.84537E-14
 -1      2017 7.46499E-03 4.76336E-04-2.83522E-14
 -1      2018 7.94883E-03 3.99010E-04-3.23944E-14
 -1      2019 7.78642E-03 4.29103E-04-3.10555E-14
 -1      2020 7.79030E-03 4.02679E-04-3.09451E-14
 -1      2021 8.27072E-03 3.49919E-04-3.51496E-14
 -1      2022 8.11040E-03 3.72773E-04-3.37590E-14
 -1      2023 8.11203E-03 3.46122E-04-3.36408E-14
 -1      2024 8.58774E-03 3.12521E-04-3.80057E-14
 -1      2025 8.42990E-03 3.29966E-04-3.65651E-14
 -1      2026 8.42919E-03 3.03288E-04-3.64380E-14
 -1      2027 8.89961E-03 2.83367E-04-4.09654E-14
 -1      2028 8.74433E-03 2.97086E-04-3.94737E-14
 -1      2029 8.74146E-03 2.70517E-04-3.93361E-14
 -1      2030 9.20654E-03 2.59565E-04-4.40211E-14
 -1      2031 9.05367E-03 2.70928E-04-4.24810E-14
 -1      2032 9.04900E-03 2.44551E-04-4.23349E-14
 -1      2033 9.50900E-03 2.38893E-04-4.71704E-14
 -1      2034 9.35829E-03 2.48931E-04-4.55851E-14
 -1      2035 9.35220E-03 2.22788E-04-4.54297E-14
 -1      2036 9.80762E-03 2.19755E-04-5.04060E-14
 -1      2037 9.65874E-03 2.29194E-04-4.87768E-14
 -1      2038 9.65161E-03 2.03299E-04-4.86149E-14
 -1      2039 1.01030E-02 2.01069E-04-5.37344E-14
 -1      2040 9.95568E-03 2.10394E-04-5.20593E-14
 -1      2041 9.94782E-03 1.84739E-04-5.18884E-14
 -1      2042 1.03959E-02 1.82153E-04-5.71547E-14
 -1      2043 1.02497E-02 1.91662E-04-5.54312E-14
 -1      2044 1.02414E-02 1.66228E-04-5.52553E-14
 -1      2045 1.06866E-02 1.62608E-04-6.06793E-14
 -1      2046 1.05415E-02 1.72470E-04-5.89045E-14
 -1      2047 1.05328E-02 1.47229E-04-5.87193E-14
 -1      2048 1.09759E-02 1.42240E-04-6.43005E-14
 -1      2049 1.08314E-02 1.52530E-04-6.24775E-14
 -1      2050 1.08226E-02 1.27455E-04-6.22833E-14
 -1      2051 1.12639E-02 1.20985E-04-6.80153E-14
 -1      2052 1.11200E-02 1.31721E-04-6.61458E-14
 -1      2053 1.11112E-02 1.06784E-04-6.59414E-14
 -1      2054 1.15511E-02 9.88670E-05-7.18189E-14
 -1      2055 1.14076E-02 1.10030E-04-6.99079E-14
 -1      2056 1.13988E-02 8.52038E-05-6.96912E-14
 -1      2057 1.18377E-02 7.59560E-05-7.57050E-14
 -1      2058 1.16945E-02 8.75047E-05-7.37516E-14
 -1      2059 1.16857E-02 6.27674E-05-7.35254E-14
 -1      2060 1.21238E-02 5.23477E-05-7.96614E-14
 -1      2061 1.19808E-02 6.42327E-05-7.76749E-14
 -1      2062 1.19721E-02 3.95639E-05-7.74395E-14
 -1      2063 1.24097E-02 2.81470E-05-8.36797E-14
 -1      2064 1.22668E-02 4.03152E-05-8.16643E-14
 -1      2065 1.22582E-02 1.56983E-05-8.14199E-14
 -1      2066 1.26954E-02 3.45756E-06-8.77517E-14
 -1      2067 1.25526E-02 1.58576E-05-8.57099E-14
 -1      2068 1.25440E-02-8.72098E-06-8.54589E-14
 -1      2069 1.29810E-02-2.16231E-05-9.18618E-14
 -1      2070 1.28382E-02-9.03905E-06-8.98009E-14
 -1      2071 1.28297E-02-3.35903E-05-8.95438E-14
 -1      2072 1.32666E-02-4.70062E-05-9.60136E-14
 -1      2073 1.31238E-02-3.42814E-05-9.39344E-14
 -1      2074 1.31154E-02-5.88142E-05-9.36701E-14
 -1      2075 1.35522E-02-7.26128E-05-1.00190E-13
 -1      2076 1.34094E-02-5.97857E-05-9.80999E-14
 -1      2077 1.34010E-02-8.43070E-05-9.78289E-14
 -1      2078 1.38378E-02-9.83720E-05-1.04386E-13
 -1      2079 1.36950E-02-8.54769E-05-1.02284E-13
 -1      2080 1.36866E-02-1.09992E-04-1.02012E-13
 -1      2081 1.41234E-02-1.24221E-04-1.08606E-13
 -1      2082 1.39806E-02-1.11288E-04-1.06494E-13
 -1      2083 1.39722E-02-1.35803E-04-1.06217E-13
 -1      2084 1.44090E-02-1.50101E-04-1.12841E-13
 -1      2085 1.42662E-02-1.37160E-04-1.10723E-13
 -1      2086 1.42579E-02-1.61677E-04-1.10444E-13
 -1      2087 1.46448E-02-1.74362E-04-1.16330E-13
 -1      2088 1.45020E-02-1.61431E-04-1.14204E-13
 -1      2089 1.44937E-02-1.85953E-04-1.13925E-13
 -1      2090 1.46796E-02-2.08607E-04-1.16652E-13
 -1      2091 1.47184E-02-4.40688E-04-1.15786E-13
 -1      2092 1.47058E-02-3.98499E-04-1.15857E-13
 -1      2093 1.46931E-02-3.56316E-04-1.15927E-13
 -1      2094 1.46805E-02-3.14141E-04-1.16000E-13
 -1      2095 1.45757E-02-3.66183E-04-1.14061E-13
 -1      2096 1.46864E-02-2.82451E-04-1.16293E-13
 -1      2097 1.46737E-02-2.40288E-04-1.16361E-13
 -1      2098 1.45807E-02-2.28960E-04-1.14999E-13
 -1      2099 1.45690E-02-2.92325E-04-1.14420E-13
 -1      2100 1.47434E-02-5.23654E-04-1.15642E-13
 -1      2101 1.47309E-02-4.82168E-04-1.15714E-13
 -1      2102 1.46008E-02-4.49826E-04-1.13922E-13
 -1      2103 1.47689E-02-6.08070E-04-1.15487E-13
 -1      2104 1.47562E-02-5.65860E-04-1.15565E-13
 -1      2105 1.46261E-02-5.33485E-04-1.13773E-13
 -1      2106 1.47945E-02-6.92500E-04-1.15337E-13
 -1      2107 1.47817E-02-6.50284E-04-1.15411E-13
 -1      2108 1.46516E-02-6.17871E-04-1.13619E-13
 -1      2109 1.48203E-02-7.76938E-04-1.15185E-13
 -1      2110 1.48074E-02-7.34719E-04-1.15260E-13
 -1      2111 1.46772E-02-7.02265E-04-1.13465E-13
 -1      2112 1.48462E-02-8.61377E-04-1.15036E-13
 -1      2113 1.48332E-02-8.19158E-04-1.15113E-13
 -1      2114 1.47030E-02-7.86662E-04-1.13312E-13
 -1      2115 1.48722E-02-9.45813E-04-1.14882E-13
 -1      2116 1.48592E-02-9.03596E-04-1.14960E-13
 -1      2117 1.47289E-02-8.71060E-04-1.13156E-13
 -1      2118 1.48979E-02-1.02881E-03-1.14724E-13
 -1      2119 1.48851E-02-9.87311E-04-1.14805E-13
 -1      2120 1.47548E-02-9.54739E-04-1.12993E-13
 -1      2121 1.49242E-02-1.11321E-03-1.14543E-13
 -1      2122 1.49110E-02-1.07101E-03-1.14635E-13
 -1      2123 1.47807E-02-1.03841E-03-1.12817E-13
 -1      2124 1.49505E-02-1.19760E-03-1.14346E-13
 -1      2125 1.49373E-02-1.15541E-03-1.14446E-13
 -1      2126 1.48070E-02-1.12279E-03-1.12623E-13
 -1      2127 1.49769E-02-1.28196E-03-1.14134E-13
 -1      2128 1.49637E-02-1.23978E-03-1.14243E-13
 -1      2129 1.48334E-02-1.20715E-03-1.12415E-13
 -1      2130 7.46867E-03-1.59627E-05-2.05321E-14
 -1      2131 7.62301E-03-7.72546E-05-2.08867E-14
 -1      2132 7.90276E-03-1.73951E-04-2.10870E-14
 -1      2133 7.90989E-03-1.90895E-04-2.11345E-14
 -1      2134 7.77617E-03-1.27724E-04-2.10750E-14
 -1      2135 7.85798E-03-1.50075E-04-2.10805E-14
 -1      2136 7.88663E-03-1.70795E-04-2.15901E-14
 -1      2137 7.10338E-03 1.50317E-04-1.97788E-14
 -1      2138 7.28058E-03 6.48775E-05-2.01658E-14
 -1      2139 6.71256E-03 3.46527E-04-1.89809E-14
 -1      2140 6.91005E-03 2.45170E-04-1.93764E-14
 -1      2141 6.99264E-03 1.72732E-04-2.00449E-14
 -1      2142 3.28158E-04-7.48473E-05-1.21187E-16
 -1      2143 3.31417E-04-8.75945E-05-1.15156E-16
 -1      2144 4.49842E-04-1.25862E-04-1.67414E-16
 -1      2145 4.40177E-04-9.20395E-05-1.83488E-16
 -1      2146 5.95180E-03 7.55201E-04-1.65628E-14
 -1      2147 6.10397E-03 6.87746E-04-1.70782E-14
 -1      2148 5.64470E-03 8.29255E-04-1.54844E-14
 -1      2149 5.79175E-03 8.03574E-04-1.60163E-14
 -1      2150 5.86558E-03 7.85762E-04-1.64060E-14
 -1      2151 5.28443E-03 7.77945E-04-1.42477E-14
 -1      2152 5.43785E-03 8.17492E-04-1.47490E-14
 -1      2153 4.95430E-03 6.41895E-04-1.33062E-14
 -1      2154 5.11136E-03 7.16025E-04-1.37275E-14
 -1      2155 4.61297E-03 4.60302E-04-1.24951E-14
 -1      2156 4.78451E-03 5.57257E-04-1.28968E-14
 -1      2157 4.89301E-03 6.00166E-04-1.29499E-14
 -1      2158 4.18952E-03 2.45181E-04-1.17525E-14
 -1      2159 4.37472E-03 3.35513E-04-1.20357E-14
 -1      2160 3.83776E-03 8.99317E-05-1.12657E-14
 -1      2161 3.99972E-03 1.60166E-04-1.14918E-14
 -1      2162 3.55343E-03-2.23476E-05-1.08724E-14
 -1      2163 3.67759E-03 2.38618E-05-1.10435E-14
 -1      2164 3.38960E-03-8.74989E-05-1.06696E-14
 -1      2165 3.44485E-03-6.55544E-05-1.07212E-14
 -1      2166 3.39191E-03-1.26418E-04-1.05705E-14
 -1      2167 3.37113E-03-1.10532E-04-1.06180E-14
 -1      2168 3.37159E-03-9.95761E-05-1.03517E-14
 -1      2169 3.58799E-03-2.05811E-04-1.08632E-14
 -1      2170 3.48000E-03-1.63740E-04-1.06824E-14
 -1      2171 3.88090E-03-3.25993E-04-1.12270E-14
 -1      2172 3.72518E-03-2.61719E-04-1.10369E-14
 -1      2173 4.26811E-03-4.95212E-04-1.16503E-14
 -1      2174 4.07083E-03-4.02667E-04-1.14076E-14
 -1      2175 4.72400E-03-7.55686E-04-1.24998E-14
 -1      2176 4.53050E-03-6.38467E-04-1.21009E-14
 -1      2177 5.10220E-03-9.70968E-04-1.33924E-14
 -1      2178 4.93490E-03-8.75378E-04-1.29660E-14
 -1      2179 5.41463E-03-1.10508E-03-1.42956E-14
 -1      2180 5.26200E-03-1.04638E-03-1.38387E-14
 -1      2181 5.19357E-03-1.00775E-03-1.34464E-14
 -1      2182 5.75443E-03-1.15128E-03-1.54254E-14
 -1      2183 5.61337E-03-1.14738E-03-1.49308E-14
 -1      2184 6.07250E-03-1.07656E-03-1.65002E-14
 -1      2185 5.92934E-03-1.12296E-03-1.60195E-14
 -1      2186 6.39283E-03-9.29361E-04-1.74992E-14
 -1      2187 6.24101E-03-1.00737E-03-1.70344E-14
 -1      2188 6.73740E-03-7.36212E-04-1.85181E-14
 -1      2189 6.57412E-03-8.29155E-04-1.80754E-14
 -1      2190 7.10226E-03-5.48352E-04-1.93500E-14
 -1      2191 6.93617E-03-6.35311E-04-1.89607E-14
 -1      2192 7.43197E-03-3.89426E-04-2.01313E-14
 -1      2193 7.28289E-03-4.55921E-04-1.98149E-14
 -1      2194 7.68657E-03-2.88437E-04-2.06539E-14
 -1      2195 7.56737E-03-3.34018E-04-2.03911E-14
 -1      2196 7.48443E-03-3.45765E-04-2.06855E-14
 -1      2197 7.87316E-03-2.16167E-04-2.11478E-14
 -1      2198 7.80664E-03-2.39595E-04-2.09822E-14
 -1      2199 6.27696E-03 6.01083E-04-1.76455E-14
 -1      2200 6.44919E-03 4.96457E-04-1.82233E-14
 -1      2201 6.16153E-03 6.48773E-04-1.75282E-14
 -1      2202 6.56467E-03 4.14360E-04-1.88617E-14
 -1      2203 6.16745E-04-2.75752E-04-1.57846E-16
 -1      2204 4.51163E-03 3.90284E-04-1.20898E-14
 -1      2205 6.73753E-04-2.66417E-04-2.23413E-16
 -1      2206 7.70043E-03-1.18556E-04-2.13910E-14
 -1      2207 7.76617E-03-1.44459E-04-2.19005E-14
 -1      2208 7.62007E-03-1.04167E-04-2.17070E-14
 -1      2209 7.35878E-03 3.55213E-06-2.08275E-14
 -1      2210 1.49458E-02-1.31184E-03-1.13408E-13
 -1      2211 7.90166E-03-2.01719E-04-2.16083E-14
 -1      2212 7.74509E-03-2.52030E-04-2.12836E-14
 -1      2213 7.17997E-03-4.82768E-04-1.99476E-14
 -1      2214 6.81639E-03-6.73783E-04-1.90287E-14
 -1      2215 6.46725E-03-8.75628E-04-1.79963E-14
 -1      2216 6.14461E-03-1.04743E-03-1.68785E-14
 -1      2217 5.51428E-03-1.13636E-03-1.45154E-14
 -1      2218 4.85725E-03-8.12202E-04-1.25443E-14
 -1      2219 4.41048E-03-5.49447E-04-1.16430E-14
 -1      2220 3.98382E-03-3.36801E-04-1.10321E-14
 -1      2221 3.42469E-03-1.34147E-04-1.04081E-14
 -1      2222 3.38591E-03-1.18093E-04-1.01383E-14
 -1      2223 3.47148E-03-1.40940E-04-1.02457E-14
 -1      2224 3.49327E-03-5.57450E-05-1.05503E-14
 -1      2225 3.76258E-03 3.81197E-05-1.09148E-14
 -1      2226 5.46210E-03 8.32077E-04-1.47521E-14
 -1      2227 5.54658E-03 8.37890E-04-1.51165E-14
 -1      2228 5.63415E-03 8.41052E-04-1.54876E-14
 -1      2229 5.20222E-03 7.51443E-04-1.38687E-14
 -1      2230 4.10458E-03 1.82280E-04-1.13865E-14
 -1      2231 3.66466E-03-2.12975E-04-1.06879E-14
 -1      2232 5.83792E-03-1.14917E-03-1.57440E-14
 -1      2233 1.03398E-03 3.61525E-04-4.80993E-16
 -1      2234 8.86109E-04 3.30667E-04-3.51905E-16
 -1      2235 5.38497E-04-4.40401E-05-2.85796E-16
 -1      2236 5.41083E-04-5.77224E-05-2.82543E-16
 -1      2237 5.44385E-04-7.23284E-05-2.78369E-16
 -1      2238 5.48358E-04-8.79792E-05-2.72921E-16
 -1      2239 6.55982E-04-7.70525E-05-3.80921E-16
 -1      2240 5.34898E-04 6.27729E-06-2.89658E-16
 -1      2241 5.34783E-04-6.01091E-06-2.90011E-16
 -1      2242 5.37116E-04 3.15057E-05-2.86704E-16
 -1      2243 5.35683E-04 1.87426E-05-2.88601E-16
 -1      2244 6.46380E-04 1.47766E-05-3.92034E-16
 -1      2245 5.41828E-04 5.83535E-05-2.80036E-16
 -1      2246 5.39172E-04 4.46033E-05-2.83871E-16
 -1      2247 6.50082E-04 4.49391E-05-3.87060E-16
 -1      2248 5.49201E-04 8.93376E-05-2.69167E-16
 -1      2249 5.45199E-04 7.33060E-05-2.75198E-16
 -1      2250 6.57071E-04 7.79004E-05-3.77207E-16
 -1      2251 5.59513E-04 1.25880E-04-2.52443E-16
 -1      2252 5.53978E-04 1.06824E-04-2.61699E-16
 -1      2253 6.67496E-04 1.15795E-04-3.61663E-16
 -1      2254 5.73959E-04 1.70454E-04-2.27276E-16
 -1      2255 5.66166E-04 1.47025E-04-2.41221E-16
 -1      2256 6.81843E-04 1.60422E-04-3.38230E-16
 -1      2257 1.32775E-03 4.07845E-04-8.07798E-16
 -1      2258 1.18099E-03 3.87127E-04-6.32862E-16
 -1      2259 1.08894E-03 3.39772E-04-5.89494E-16
 -1      2260 9.29635E-04-3.09237E-04-4.47545E-16
 -1      2261 1.07687E-03-3.36591E-04-5.94075E-16
 -1      2262 4.41202E-03 3.24052E-04-1.16202E-14
 -1      2263 4.62240E-03 4.43160E-04-1.20655E-14
 -1      2264 6.43440E-03 4.82987E-04-1.87588E-14
 -1      2265 6.66743E-03 3.41714E-04-1.95324E-14
 -1      2266 1.22364E-03-3.59050E-04-7.63319E-16
 -1      2267 1.37046E-03-3.77078E-04-9.55711E-16
 -1      2268 1.13272E-03-3.14410E-04-7.06439E-16
 -1      2269 1.51714E-03-3.91606E-04-1.17113E-15
 -1      2270 1.66406E-03-4.02988E-04-1.40979E-15
 -1      2271 1.42485E-03-3.49548E-04-1.09765E-15
 -1      2272 1.81125E-03-4.12038E-04-1.67103E-15
 -1      2273 1.95899E-03-4.19121E-04-1.95587E-15
 -1      2274 1.71728E-03-3.71833E-04-1.57985E-15
 -1      2275 2.10734E-03-4.24970E-04-2.26348E-15
 -1      2276 2.25657E-03-4.29994E-04-2.59447E-15
 -1      2277 2.01073E-03-3.85576E-04-2.15379E-15
 -1      2278 2.40675E-03-4.34924E-04-2.94827E-15
 -1      2279 2.55811E-03-4.40262E-04-3.32513E-15
 -1      2280 2.30616E-03-3.95040E-04-2.81931E-15
 -1      2281 2.71079E-03-4.46792E-04-3.72549E-15
 -1      2282 2.86498E-03-4.55159E-04-4.14888E-15
 -1      2283 2.60478E-03-4.04746E-04-3.57689E-15
 -1      2284 3.02094E-03-4.66223E-04-4.59494E-15
 -1      2285 3.17877E-03-4.80836E-04-5.06375E-15
 -1      2286 2.90815E-03-4.19839E-04-4.42592E-15
 -1      2287 3.33897E-03-4.99887E-04-5.55524E-15
 -1      2288 3.50141E-03-5.24476E-04-6.07015E-15
 -1      2289 3.21845E-03-4.46415E-04-5.36573E-15
 -1      2290 3.66692E-03-5.55371E-04-6.60751E-15
 -1      2291 3.83494E-03-5.93845E-04-7.16931E-15
 -1      2292 3.53869E-03-4.91725E-04-6.39651E-15
 -1      2293 4.00658E-03-6.40248E-04-7.75450E-15
 -1      2294 4.18050E-03-6.95630E-04-8.36374E-15
 -1      2295 3.87240E-03-5.63934E-04-7.51985E-15
 -1      2296 4.35791E-03-7.59513E-04-8.99789E-15
 -1      2297 4.53628E-03-8.31452E-04-9.65760E-15
 -1      2298 4.22217E-03-6.70729E-04-8.73988E-15
 -1      2299 4.71625E-03-9.09521E-04-1.03425E-14
 -1      2300 4.89487E-03-9.90414E-04-1.10528E-14
 -1      2301 4.58618E-03-8.14611E-04-1.00579E-14
 -1      2302 5.07165E-03-1.07048E-03-1.17913E-14
 -1      2303 5.24496E-03-1.14209E-03-1.25579E-14
 -1      2304 4.95466E-03-9.83526E-04-1.14795E-14
 -1      2305 5.41326E-03-1.20068E-03-1.33522E-14
 -1      2306 5.57975E-03-1.23895E-03-1.41745E-14
 -1      2307 5.31265E-03-1.13916E-03-1.30111E-14
 -1      2308 5.74171E-03-1.25367E-03-1.50281E-14
 -1      2309 5.90686E-03-1.24402E-03-1.59122E-14
 -1      2310 5.65316E-03-1.22350E-03-1.46603E-14
 -1      2311 6.07291E-03-1.21109E-03-1.68254E-14
 -1      2312 6.24386E-03-1.16079E-03-1.77684E-14
 -1      2313 5.99056E-03-1.19949E-03-1.64308E-14
 -1      2314 6.41830E-03-1.09747E-03-1.87411E-14
 -1      2315 6.59606E-03-1.02933E-03-1.97440E-14
 -1      2316 6.34293E-03-1.08713E-03-1.83233E-14
 -1      2317 6.77657E-03-9.60969E-04-2.07748E-14
 -1      2318 6.95616E-03-8.96639E-04-2.18353E-14
 -1      2319 6.71031E-03-9.41397E-04-2.03349E-14
 -1      2320 7.13562E-03-8.39089E-04-2.29243E-14
 -1      2321 7.31225E-03-7.89861E-04-2.40405E-14
 -1      2322 7.07854E-03-8.10672E-04-2.24623E-14
 -1      2323 7.48695E-03-7.49819E-04-2.51849E-14
 -1      2324 7.65816E-03-7.18388E-04-2.63551E-14
 -1      2325 7.43493E-03-7.15025E-04-2.47021E-14
 -1      2326 7.82693E-03-6.95445E-04-2.75519E-14
 -1      2327 7.99254E-03-6.79766E-04-2.87765E-14
 -1      2328 7.77555E-03-6.56829E-04-2.70505E-14
 -1      2329 8.15587E-03-6.70762E-04-3.00276E-14
 -1      2330 8.31671E-03-6.67313E-04-3.13044E-14
 -1      2331 8.10184E-03-6.29718E-04-2.95040E-14
 -1      2332 8.47563E-03-6.68668E-04-3.26068E-14
 -1      2333 8.63269E-03-6.73959E-04-3.39353E-14
 -1      2334 8.41720E-03-6.25862E-04-3.20627E-14
 -1      2335 8.78816E-03-6.82469E-04-3.52901E-14
 -1      2336 8.94224E-03-6.93585E-04-3.66731E-14
 -1      2337 8.72481E-03-6.38358E-04-3.47227E-14
 -1      2338 9.09503E-03-7.06717E-04-3.80829E-14
 -1      2339 9.24675E-03-7.21444E-04-3.95204E-14
 -1      2340 9.02703E-03-6.61687E-04-3.74902E-14
 -1      2341 9.39740E-03-7.37328E-04-4.09858E-14
 -1      2342 9.54723E-03-7.54085E-04-4.24762E-14
 -1      2343 9.32541E-03-6.91727E-04-4.03678E-14
 -1      2344 9.69617E-03-7.71413E-04-4.39931E-14
 -1      2345 9.84445E-03-7.89123E-04-4.55350E-14
 -1      2346 9.62094E-03-7.25532E-04-4.33509E-14
 -1      2347 9.99201E-03-8.07023E-04-4.71030E-14
 -1      2348 1.01390E-02-8.24989E-04-4.86972E-14
 -1      2349 9.91429E-03-7.61082E-04-4.64364E-14
 -1      2350 1.02855E-02-8.42909E-04-5.03139E-14
 -1      2351 1.04315E-02-8.60705E-04-5.19550E-14
 -1      2352 1.02059E-02-7.97063E-04-4.96197E-14
 -1      2353 1.05771E-02-8.78320E-04-5.36200E-14
 -1      2354 1.07223E-02-8.95706E-04-5.53054E-14
 -1      2355 1.04961E-02-8.32662E-04-5.29005E-14
 -1      2356 1.08671E-02-9.12845E-04-5.70176E-14
 -1      2357 1.10117E-02-9.29709E-04-5.87522E-14
 -1      2358 1.07853E-02-8.67424E-04-5.62756E-14
 -1      2359 1.11560E-02-9.46301E-04-6.05078E-14
 -1      2360 1.13001E-02-9.62611E-04-6.22853E-14
 -1      2361 1.10735E-02-9.01135E-04-5.97423E-14
 -1      2362 1.14439E-02-9.78653E-04-6.40827E-14
 -1      2363 1.15877E-02-9.94424E-04-6.59005E-14
 -1      2364 1.13611E-02-9.33733E-04-6.32955E-14
 -1      2365 1.17312E-02-1.00995E-03-6.77375E-14
 -1      2366 1.18747E-02-1.02523E-03-6.95938E-14
 -1      2367 1.16481E-02-9.65258E-04-6.69351E-14
 -1      2368 1.20180E-02-1.04029E-03-7.14656E-14
 -1      2369 1.21612E-02-1.05513E-03-7.33560E-14
 -1      2370 1.19348E-02-9.95799E-04-7.06481E-14
 -1      2371 1.23043E-02-1.06979E-03-7.52650E-14
 -1      2372 1.24474E-02-1.08427E-03-7.71910E-14
 -1      2373 1.22211E-02-1.02548E-03-7.44309E-14
 -1      2374 1.25905E-02-1.09859E-03-7.91332E-14
 -1      2375 1.27334E-02-1.11276E-03-8.10950E-14
 -1      2376 1.25072E-02-1.05442E-03-7.82839E-14
 -1      2377 1.28764E-02-1.12680E-03-8.30726E-14
 -1      2378 1.30193E-02-1.14072E-03-8.50699E-14
 -1      2379 1.27931E-02-1.08274E-03-8.22060E-14
 -1      2380 1.31622E-02-1.15454E-03-8.70840E-14
 -1      2381 1.33051E-02-1.16827E-03-8.91137E-14
 -1      2382 1.30790E-02-1.11058E-03-8.61996E-14
 -1      2383 1.34479E-02-1.18191E-03-9.11566E-14
 -1      2384 1.35908E-02-1.19549E-03-9.32116E-14
 -1      2385 1.33648E-02-1.13802E-03-9.02539E-14
 -1      2386 1.37336E-02-1.20901E-03-9.52835E-14
 -1      2387 1.38765E-02-1.22248E-03-9.73652E-14
 -1      2388 1.36505E-02-1.16517E-03-9.43623E-14
 -1      2389 1.40193E-02-1.23591E-03-9.94587E-14
 -1      2390 1.41622E-02-1.24930E-03-1.01565E-13
 -1      2391 1.39362E-02-1.19210E-03-9.85217E-14
 -1      2392 1.43050E-02-1.26268E-03-1.03684E-13
 -1      2393 1.44479E-02-1.27603E-03-1.05814E-13
 -1      2394 1.42219E-02-1.21888E-03-1.02729E-13
 -1      2395 1.91535E-03 4.59074E-04-1.74280E-15
 -1      2396 1.76786E-03 4.49852E-04-1.47321E-15
 -1      2397 2.21260E-03 4.74030E-04-2.35298E-15
 -1      2398 2.06354E-03 4.67003E-04-2.03574E-15
 -1      2399 1.97010E-03 4.25569E-04-1.94171E-15
 -1      2400 2.51385E-03 4.87942E-04-3.05924E-15
 -1      2401 2.36267E-03 4.80865E-04-2.69408E-15
 -1      2402 2.26714E-03 4.38971E-04-2.58050E-15
 -1      2403 2.81999E-03 5.05434E-04-3.86250E-15
 -1      2404 2.66630E-03 4.95971E-04-3.44879E-15
 -1      2405 2.56782E-03 4.52217E-04-3.31458E-15
 -1      2406 3.13158E-03 5.31322E-04-4.76279E-15
 -1      2407 2.97515E-03 5.17045E-04-4.30014E-15
 -1      2408 2.87321E-03 4.69913E-04-4.14467E-15
 -1      2409 3.44875E-03 5.70349E-04-5.75947E-15
 -1      2410 3.28959E-03 5.48927E-04-5.24910E-15
 -1      2411 3.18428E-03 4.96902E-04-5.07149E-15
 -1      2412 3.77094E-03 6.26376E-04-6.85599E-15
 -1      2413 3.60945E-03 5.96063E-04-6.29492E-15
 -1      2414 3.50177E-03 5.37976E-04-6.09368E-15
 -1      2415 4.09649E-03 7.00827E-04-8.05215E-15
 -1      2416 3.93365E-03 6.61348E-04-7.44108E-15
 -1      2417 3.82574E-03 5.97031E-04-7.21451E-15
 -1      2418 4.42229E-03 7.90370E-04-9.35382E-15
 -1      2419 4.25979E-03 7.44166E-04-8.68939E-15
 -1      2420 4.15484E-03 6.75374E-04-8.43566E-15
 -1      2421 4.74405E-03 8.84521E-04-1.07657E-14
 -1      2422 4.58405E-03 8.37847E-04-1.00459E-14
 -1      2423 4.48566E-03 7.69013E-04-9.76325E-15
 -1      2424 5.05785E-03 9.65178E-04-1.22947E-14
 -1      2425 4.90202E-03 9.27938E-04-1.15151E-14
 -1      2426 4.81286E-03 8.65773E-04-1.12019E-14
 -1      2427 5.36289E-03 1.01062E-03-1.39445E-14
 -1      2428 5.21100E-03 9.93604E-04-1.31038E-14
 -1      2429 5.13150E-03 9.44760E-04-1.27577E-14
 -1      2430 5.66353E-03 1.00447E-03-1.57224E-14
 -1      2431 5.51293E-03 1.01454E-03-1.48173E-14
 -1      2432 5.44111E-03 9.81828E-04-1.44367E-14
 -1      2433 5.96697E-03 9.44451E-04-1.76322E-14
 -1      2434 5.81411E-03 9.80626E-04-1.66603E-14
 -1      2435 5.74761E-03 9.61250E-04-1.62458E-14
 -1      2436 6.27880E-03 8.43815E-04-1.96735E-14
 -1      2437 6.12152E-03 8.97917E-04-1.86377E-14
 -1      2438 6.05932E-03 8.85256E-04-1.81874E-14
 -1      2439 6.59973E-03 7.23867E-04-2.18417E-14
 -1      2440 6.43831E-03 7.84876E-04-2.07416E-14
 -1      2441 6.38082E-03 7.72623E-04-2.02610E-14
 -1      2442 6.92653E-03 6.04526E-04-2.41304E-14
 -1      2443 6.76282E-03 6.63141E-04-2.29724E-14
 -1      2444 6.71033E-03 6.47636E-04-2.24585E-14
 -1      2445 7.25481E-03 4.98707E-04-2.65354E-14
 -1      2446 7.09091E-03 5.49451E-04-2.53186E-14
 -1      2447 7.04258E-03 5.29620E-04-2.47758E-14
 -1      2448 7.58107E-03 4.11854E-04-2.90452E-14
 -1      2449 7.41850E-03 4.52824E-04-2.77763E-14
 -1      2450 7.37257E-03 4.29004E-04-2.72032E-14
 -1      2451 7.90329E-03 3.44048E-04-3.16611E-14
 -1      2452 7.74286E-03 3.75693E-04-3.03403E-14
 -1      2453 7.69738E-03 3.48679E-04-2.97378E-14
 -1      2454 8.22063E-03 2.92568E-04-3.43790E-14
 -1      2455 8.06265E-03 3.16476E-04-3.30080E-14
 -1      2456 8.01607E-03 2.87068E-04-3.23766E-14
 -1      2457 8.53300E-03 2.53703E-04-3.71953E-14
 -1      2458 8.37745E-03 2.71777E-04-3.57747E-14
 -1      2459 8.32887E-03 2.40678E-04-3.51153E-14
 -1      2460 8.84068E-03 2.23811E-04-4.01147E-14
 -1      2461 8.68740E-03 2.37827E-04-3.86422E-14
 -1      2462 8.63646E-03 2.05618E-04-3.79527E-14
 -1      2463 9.14414E-03 1.99805E-04-4.31315E-14
 -1      2464 8.99289E-03 2.11226E-04-4.16112E-14
 -1      2465 8.93964E-03 1.78369E-04-4.08901E-14
 -1      2466 9.44394E-03 1.79291E-04-4.62433E-14
 -1      2467 9.29445E-03 1.89227E-04-4.46748E-14
 -1      2468 9.23916E-03 1.56076E-04-4.39260E-14
 -1      2469 9.74062E-03 1.60534E-04-4.94461E-14
 -1      2470 9.59262E-03 1.69776E-04-4.78337E-14
 -1      2471 9.53568E-03 1.36585E-04-4.70562E-14
 -1      2472 1.00347E-02 1.42346E-04-5.27414E-14
 -1      2473 9.88795E-03 1.51425E-04-5.10811E-14
 -1      2474 9.82973E-03 1.18364E-04-5.02779E-14
 -1      2475 1.03267E-02 1.23967E-04-5.61280E-14
 -1      2476 1.01810E-02 1.33217E-04-5.44241E-14
 -1      2477 1.01218E-02 1.00388E-04-5.35921E-14
 -1      2478 1.06171E-02 1.04951E-04-5.96139E-14
 -1      2479 1.04721E-02 1.14561E-04-5.78583E-14
 -1      2480 1.04123E-02 8.20162E-05-5.70020E-14
 -1      2481 1.09061E-02 8.50721E-05-6.31965E-14
 -1      2482 1.07617E-02 9.51309E-05-6.13937E-14
 -1      2483 1.07015E-02 6.28853E-05-6.05073E-14
 -1      2484 1.11941E-02 6.42510E-05-6.68705E-14
 -1      2485 1.10502E-02 7.47835E-05-6.50225E-14
 -1      2486 1.09897E-02 4.28275E-05-6.41076E-14
 -1      2487 1.14814E-02 4.25040E-05-7.06354E-14
 -1      2488 1.13378E-02 5.34930E-05-6.87417E-14
 -1      2489 1.12772E-02 2.18028E-05-6.77994E-14
 -1      2490 1.17681E-02 1.99020E-05-7.44827E-14
 -1      2491 1.16248E-02 3.13069E-05-7.25496E-14
 -1      2492 1.15641E-02-1.48876E-07-7.15771E-14
 -1      2493 1.20544E-02-3.45503E-06-7.84065E-14
 -1      2494 1.19113E-02 8.31349E-06-7.64370E-14
 -1      2495 1.18507E-02-2.29421E-05-7.54367E-14
 -1      2496 1.23405E-02-2.74566E-05-8.23961E-14
 -1      2497 1.21975E-02-1.53803E-05-8.03927E-14
 -1      2498 1.21369E-02-4.64695E-05-7.93730E-14
 -1      2499 1.26263E-02-5.19921E-05-8.64427E-14
 -1      2500 1.24834E-02-3.96627E-05-8.44122E-14
 -1      2501 1.24229E-02-7.06174E-05-8.33714E-14
 -1      2502 1.29121E-02-7.69576E-05-9.05312E-14
 -1      2503 1.27692E-02-6.44260E-05-8.84820E-14
 -1      2504 1.27087E-02-9.52746E-05-8.74224E-14
 -1      2505 1.31978E-02-1.02258E-04-9.46600E-14
 -1      2506 1.30549E-02-8.95705E-05-9.25928E-14
 -1      2507 1.29945E-02-1.20338E-04-9.15187E-14
 -1      2508 1.34834E-02-1.27810E-04-9.88242E-14
 -1      2509 1.33406E-02-1.15007E-04-9.67388E-14
 -1      2510 1.32802E-02-1.45716E-04-9.56511E-14
 -1      2511 1.37691E-02-1.53538E-04-1.03007E-13
 -1      2512 1.36263E-02-1.40656E-04-1.00913E-13
 -1      2513 1.35659E-02-1.71325E-04-9.98155E-14
 -1      2514 1.40547E-02-1.79376E-04-1.07217E-13
 -1      2515 1.39119E-02-1.66447E-04-1.05109E-13
 -1      2516 1.38516E-02-1.97094E-04-1.04004E-13
 -1      2517 1.43404E-02-2.05264E-04-1.11443E-13
 -1      2518 1.41976E-02-1.92317E-04-1.09327E-13
 -1      2519 1.41373E-02-2.22958E-04-1.08215E-13
 -1      2520 1.44878E-02-2.17627E-04-1.13636E-13
 -1      2521 1.45087E-02-5.43297E-04-1.11906E-13
 -1      2522 1.44960E-02-5.01122E-04-1.11982E-13
 -1      2523 1.45342E-02-6.27652E-04-1.11752E-13
 -1      2524 1.45215E-02-5.85474E-04-1.11829E-13
 -1      2525 1.43913E-02-5.53093E-04-1.10042E-13
 -1      2526 1.44583E-02-3.76035E-04-1.12197E-13
 -1      2527 1.44457E-02-3.33870E-04-1.12264E-13
 -1      2528 1.44834E-02-4.59305E-04-1.12056E-13
 -1      2529 1.44709E-02-4.17848E-04-1.12126E-13
 -1      2530 1.43408E-02-3.85521E-04-1.10334E-13
 -1      2531 1.43660E-02-4.69128E-04-1.10192E-13
 -1      2532 1.45599E-02-7.12008E-04-1.11595E-13
 -1      2533 1.45471E-02-6.69830E-04-1.11674E-13
 -1      2534 1.44169E-02-6.37413E-04-1.09887E-13
 -1      2535 1.45858E-02-7.96366E-04-1.11438E-13
 -1      2536 1.45728E-02-7.54188E-04-1.11516E-13
 -1      2537 1.44426E-02-7.21732E-04-1.09727E-13
 -1      2538 1.46117E-02-8.80724E-04-1.11272E-13
 -1      2539 1.45987E-02-8.38545E-04-1.11357E-13
 -1      2540 1.44685E-02-8.06050E-04-1.09562E-13
 -1      2541 1.46374E-02-9.63651E-04-1.11100E-13
 -1      2542 1.46245E-02-9.22188E-04-1.11187E-13
 -1      2543 1.44943E-02-8.89655E-04-1.09390E-13
 -1      2544 1.46636E-02-1.04800E-03-1.10909E-13
 -1      2545 1.46505E-02-1.00583E-03-1.11008E-13
 -1      2546 1.45202E-02-9.73262E-04-1.09205E-13
 -1      2547 1.46899E-02-1.13235E-03-1.10707E-13
 -1      2548 1.46767E-02-1.09018E-03-1.10811E-13
 -1      2549 1.45464E-02-1.05759E-03-1.09008E-13
 -1      2550 1.47163E-02-1.21669E-03-1.10491E-13
 -1      2551 1.47031E-02-1.17452E-03-1.10597E-13
 -1      2552 1.45728E-02-1.14191E-03-1.08795E-13
 -1      2553 7.27630E-03 2.42168E-05-2.12376E-14
 -1      2554 7.44661E-03-4.48580E-05-2.16166E-14
 -1      2555 1.48173E-02-1.29821E-03-1.11469E-13
 -1      2556 7.92575E-03-1.94733E-04-2.21848E-14
 -1      2557 7.89640E-03-2.04922E-04-2.21939E-14
 -1      2558 1.62091E-03 4.38572E-04-1.22767E-15
 -1      2559 1.47426E-03 4.24875E-04-1.00599E-15
 -1      2560 1.67555E-03 4.07596E-04-1.39746E-15
 -1      2561 7.87925E-03-1.75880E-04-2.21722E-14
 -1      2562 7.91799E-03-1.84560E-04-2.21787E-14
 -1      2563 7.93853E-03-1.93660E-04-2.27716E-14
 -1      2564 6.94866E-03 1.84521E-04-2.03981E-14
 -1      2565 7.11576E-03 9.84185E-05-2.08154E-14
 -1      2566 7.23291E-03 4.66368E-05-2.16005E-14
 -1      2567 6.07488E-03 6.93625E-04-1.74065E-14
 -1      2568 6.21792E-03 6.10808E-04-1.79823E-14
 -1      2569 7.24845E-03-4.39035E-04-2.05616E-14
 -1      2570 7.08146E-03-5.21102E-04-2.00853E-14
 -1      2571 4.95671E-03-8.66577E-04-1.25490E-14
 -1      2572 4.77716E-03-7.52369E-04-1.20962E-14
 -1      2573 3.43880E-03-7.37338E-05-1.00941E-14
 -1      2574 3.54153E-03-4.79881E-05-1.02380E-14
 -1      2575 5.96680E-04-2.13834E-04-2.10552E-16
 -1      2576 7.92935E-04-2.73035E-04-3.38867E-16
 -1      2577 8.51499E-04-2.58748E-04-4.22812E-16
 -1      2578 5.85593E-04-1.85754E-04-2.28441E-16
 -1      2579 5.35343E-04-1.83847E-05-2.89346E-16
 -1      2580 5.36574E-04-3.09692E-05-2.88032E-16
 -1      2581 6.49255E-04-4.45483E-05-3.89066E-16
 -1      2582 6.46064E-04-1.45513E-05-3.92576E-16
 -1      2583 5.13595E-03 7.25023E-04-1.35047E-14
 -1      2584 5.27684E-03 7.86280E-04-1.40179E-14
 -1      2585 5.81274E-03 8.07637E-04-1.62857E-14
 -1      2586 5.93912E-03 7.58094E-04-1.68396E-14
 -1      2587 6.01227E-03 7.27316E-04-1.72790E-14
 -1      2588 4.01286E-03 1.27110E-04-1.09680E-14
 -1      2589 4.18217E-03 2.06149E-04-1.12159E-14
 -1      2590 4.82510E-03 5.58165E-04-1.25275E-14
 -1      2591 4.96516E-03 6.39751E-04-1.29267E-14
 -1      2592 3.73365E-03-2.21209E-04-1.04775E-14
 -1      2593 3.60312E-03-1.78690E-04-1.03126E-14
 -1      2594 3.69085E-03 1.14671E-06-1.05251E-14
 -1      2595 3.84104E-03 5.52847E-05-1.07372E-14
 -1      2596 3.35613E-03-1.00731E-04-1.00191E-14
 -1      2597 3.37561E-03-9.34467E-05-1.00698E-14
 -1      2598 5.92009E-03-1.13905E-03-1.61193E-14
 -1      2599 5.78115E-03-1.16727E-03-1.55221E-14
 -1      2600 4.05314E-03-3.51104E-04-1.08120E-14
 -1      2601 3.88589E-03-2.79876E-04-1.06438E-14
 -1      2602 3.79625E-03-2.40991E-04-1.02641E-14
 -1      2603 4.53510E-03-6.06060E-04-1.15500E-14
 -1      2604 4.30212E-03-4.73579E-04-1.11181E-14
 -1      2605 5.27713E-03-1.05185E-03-1.35060E-14
 -1      2606 5.14816E-03-9.79094E-04-1.30685E-14
 -1      2607 5.59843E-03-1.16417E-03-1.47446E-14
 -1      2608 5.44300E-03-1.12172E-03-1.41163E-14
 -1      2609 5.37260E-03-1.10077E-03-1.37215E-14
 -1      2610 6.21180E-03-1.01636E-03-1.72992E-14
 -1      2611 6.07596E-03-1.08454E-03-1.67586E-14
 -1      2612 6.52069E-03-8.39333E-04-1.84578E-14
 -1      2613 6.36351E-03-9.34252E-04-1.78738E-14
 -1      2614 6.28977E-03-9.84110E-04-1.77454E-14
 -1      2615 6.91088E-03-6.11713E-04-1.96222E-14
 -1      2616 6.74145E-03-7.09743E-04-1.91668E-14
 -1      2617 7.00612E-03-5.65825E-04-2.02260E-14
 -1      2618 7.55663E-03-3.10258E-04-2.13720E-14
 -1      2619 7.43387E-03-3.56882E-04-2.11017E-14
 -1      2620 7.81028E-03-2.30539E-04-2.20509E-14
 -1      2621 7.69582E-03-2.61798E-04-2.17109E-14
 -1      2622 7.65736E-03-2.81026E-04-2.21357E-14
 -1      2623 7.69501E-04 3.06056E-04-2.60222E-16
 -1      2624 6.20337E-04 2.62319E-04-1.71304E-16
 -1      2625 5.93083E-04 2.35734E-04-1.77877E-16
 -1      2626 8.25864E-04 2.91374E-04-3.40683E-16
 -1      2627 5.37736E-03 8.20566E-04-1.43694E-14
 -1      2628 6.66298E-04-1.13951E-04-3.67219E-16
 -1      2629 5.53121E-04-1.04987E-04-2.66402E-16
 -1      2630 5.58652E-04-1.23540E-04-2.57945E-16
 -1      2631 1.38224E-03 3.80607E-04-9.47213E-16
 -1      2632 5.79660E-04 2.04984E-04-1.99114E-16
 -1      2633 7.87516E-03-2.17584E-04-2.26303E-14
 -1      2634 6.63531E-03-7.79723E-04-1.90364E-14
 -1      2635 5.68955E-03-1.17541E-03-1.51007E-14
 -1      2636 4.70247E-03 4.96411E-04-1.20399E-14
 -1      2637 6.69622E-03 3.34730E-04-2.01757E-14
 -1      2638 6.81164E-03 2.59012E-04-2.02883E-14
 -1      2639 6.95222E-03 1.91540E-04-2.10594E-14
 -1      2640 7.54659E-03-8.00940E-05-2.21258E-14
 -1      2641 6.00575E-03-1.11937E-03-1.65241E-14
 -1      2642 1.44275E-02-2.48276E-04-1.12516E-13
 -1      2643 1.44216E-02-2.79954E-04-1.12227E-13
 -1      2644 4.17805E-03-4.12733E-04-1.07229E-14
 -1      2645 6.33902E-03 5.42643E-04-1.86298E-14
 -1      2646 1.46732E-02-1.29952E-03-1.09177E-13
 -1      2647 1.47025E-02-1.25064E-03-1.10016E-13
 -1      2648 1.45722E-02-1.21801E-03-1.08209E-13
 -1      2649 1.45447E-02-1.28589E-03-1.07258E-13
 -1      2650 6.97831E-04 2.23481E-04-2.90390E-16
 -1      2651 7.83816E-03-1.67248E-04-2.24915E-14
 -1      2652 7.89580E-03-1.79598E-04-2.30884E-14
 -1      2653 7.78833E-03-1.55589E-04-2.28117E-14
 -1      2654 3.35579E-03-1.06571E-04-9.85637E-15
 -1      2655 3.33591E-03-9.90916E-05-9.57768E-15
 -1      2656 3.36972E-03-1.10238E-04-9.69451E-15
 -1      2657 5.67104E-04-1.41350E-04-2.51440E-16
 -1      2658 5.74693E-04-1.63871E-04-2.38999E-16
 -1      2659 7.04270E-04-1.98517E-04-3.30614E-16
 -1      2660 6.82298E-04-1.54179E-04-3.50658E-16
 -1      2661 4.29405E-03 2.67157E-04-1.11896E-14
 -1      2662 7.34915E-03-3.98827E-04-2.12406E-14
 -1      2663 3.59799E-03-2.67849E-05-1.00635E-14
 -1      2664 4.63876E-03-6.72926E-04-1.15520E-14
 -1      2665 3.39342E-03-8.04606E-05-9.76229E-15
 -1      2666 5.04782E-03-9.26194E-04-1.26029E-14
 -1      2667 3.51892E-03-1.49266E-04-1.00395E-14
 -1      2668 3.44896E-03-1.31253E-04-9.77069E-15
 -1      2669 3.56654E-03-1.62181E-04-9.83231E-15
 -1      2670 5.71929E-03 8.33848E-04-1.59039E-14
 -1      2671 5.79760E-03 8.16926E-04-1.63246E-14
 -1      2672 5.63636E-03 8.48283E-04-1.55257E-14
 -1      2673 3.91257E-03 8.62338E-05-1.05712E-14
 -1      2674 5.04538E-03 6.89280E-04-1.30652E-14
 -1      2675 1.43042E-02-2.89810E-04-1.10366E-13
 -1      2676 1.44616E-02-1.24210E-03-1.06290E-13
 -1      2677 7.65123E-04 6.04773E-05-5.02988E-16
 -1      2678 7.61814E-04 4.27066E-05-5.07569E-16
 -1      2679 7.59459E-04 2.52647E-05-5.10659E-16
 -1      2680 7.58182E-04 8.27270E-06-5.12313E-16
 -1      2681 8.74102E-04 3.76666E-05-6.45087E-16
 -1      2682 7.88900E-04 1.44043E-04-4.68213E-16
 -1      2683 7.81391E-04 1.20921E-04-4.79949E-16
 -1      2684 8.07789E-04 1.96314E-04-4.37028E-16
 -1      2685 7.97718E-04 1.69098E-04-4.54213E-16
 -1      2686 9.13263E-04 1.73691E-04-5.88397E-16
 -1      2687 1.14535E-03 3.17529E-04-7.03783E-16
 -1      2688 9.99271E-04 2.93887E-04-5.43768E-16
 -1      2689 6.76091E-03-7.23471E-04-1.97776E-14
 -1      2690 6.56818E-03-8.40995E-04-1.90527E-14
 -1      2691 1.33415E-03-3.08629E-04-1.02269E-15
 -1      2692 1.47930E-03-3.21987E-04-1.24405E-15
 -1      2693 1.62442E-03-3.32635E-04-1.48778E-15
 -1      2694 1.76973E-03-3.40884E-04-1.75409E-15
 -1      2695 1.53325E-03-2.94499E-04-1.39473E-15
 -1      2696 1.91512E-03-3.47379E-04-2.04367E-15
 -1      2697 2.06081E-03-3.52455E-04-2.35571E-15
 -1      2698 1.82110E-03-3.10306E-04-1.93270E-15
 -1      2699 2.20676E-03-3.56752E-04-2.69026E-15
 -1      2700 2.35322E-03-3.60666E-04-3.04777E-15
 -1      2701 2.10909E-03-3.19915E-04-2.56099E-15
 -1      2702 2.50023E-03-3.64851E-04-3.42769E-15
 -1      2703 2.64809E-03-3.69819E-04-3.83101E-15
 -1      2704 2.39773E-03-3.26972E-04-3.27860E-15
 -1      2705 2.79697E-03-3.76248E-04-4.25711E-15
 -1      2706 2.94722E-03-3.84855E-04-4.70517E-15
 -1      2707 2.68810E-03-3.35476E-04-4.08767E-15
 -1      2708 3.09923E-03-3.96320E-04-5.17552E-15
 -1      2709 3.25343E-03-4.11703E-04-5.66895E-15
 -1      2710 2.98228E-03-3.50047E-04-4.98645E-15
 -1      2711 3.41054E-03-4.31617E-04-6.18555E-15
 -1      2712 3.57092E-03-4.57645E-04-6.72479E-15
 -1      2713 3.28380E-03-3.76335E-04-5.97500E-15
 -1      2714 3.73578E-03-4.90194E-04-7.28688E-15
 -1      2715 3.90498E-03-5.31458E-04-7.87266E-15
 -1      2716 3.59822E-03-4.21704E-04-7.05458E-15
 -1      2717 4.08025E-03-5.81414E-04-8.48306E-15
 -1      2718 4.26005E-03-6.42450E-04-9.11665E-15
 -1      2719 3.93285E-03-4.96081E-04-8.22647E-15
 -1      2720 4.44640E-03-7.14014E-04-9.77496E-15
 -1      2721 4.63494E-03-7.95772E-04-1.04587E-14
 -1      2722 4.29426E-03-6.12068E-04-9.49345E-15
 -1      2723 5.18293E-03-1.04159E-03-1.26835E-14
 -1      2724 5.37025E-03-1.12081E-03-1.34767E-14
 -1      2725 5.90433E-03-1.19529E-03-1.60264E-14
 -1      2726 6.08164E-03-1.15229E-03-1.69449E-14
 -1      2727 6.26319E-03-1.08321E-03-1.78969E-14
 -1      2728 6.44998E-03-1.00655E-03-1.88770E-14
 -1      2729 6.59404E-03-9.10326E-04-1.95587E-14
 -1      2730 6.78913E-03-8.29379E-04-2.05896E-14
 -1      2731 7.38753E-03-6.77395E-04-2.42178E-14
 -1      2732 7.56075E-03-6.42074E-04-2.53684E-14
 -1      2733 7.72946E-03-6.16663E-04-2.65476E-14
 -1      2734 7.89309E-03-5.98855E-04-2.77496E-14
 -1      2735 7.68865E-03-5.74402E-04-2.60393E-14
 -1      2736 8.05307E-03-5.88349E-04-2.89789E-14
 -1      2737 8.20963E-03-5.83409E-04-3.02348E-14
 -1      2738 8.00946E-03-5.46169E-04-2.84531E-14
 -1      2739 8.36365E-03-5.83586E-04-3.15159E-14
 -1      2740 8.51556E-03-5.87702E-04-3.28230E-14
 -1      2741 8.31489E-03-5.41523E-04-3.09685E-14
 -1      2742 8.66584E-03-5.95225E-04-3.41565E-14
 -1      2743 8.81486E-03-6.05419E-04-3.55149E-14
 -1      2744 8.61112E-03-5.52932E-04-3.35868E-14
 -1      2745 8.96284E-03-6.17786E-04-3.68981E-14
 -1      2746 9.11008E-03-6.31858E-04-3.83104E-14
 -1      2747 8.90234E-03-5.74985E-04-3.63079E-14
 -1      2748 9.25663E-03-6.47220E-04-3.97503E-14
 -1      2749 9.40274E-03-6.63577E-04-4.12173E-14
 -1      2750 9.19100E-03-6.03844E-04-3.91345E-14
 -1      2751 9.54837E-03-6.80613E-04-4.27108E-14
 -1      2752 9.69372E-03-6.98142E-04-4.42275E-14
 -1      2753 9.47843E-03-6.36732E-04-4.20686E-14
 -1      2754 9.83871E-03-7.15941E-04-4.57682E-14
 -1      2755 9.98351E-03-7.33892E-04-4.73364E-14
 -1      2756 9.76529E-03-6.71687E-04-4.51042E-14
 -1      2757 1.01280E-02-7.51851E-04-4.89291E-14
 -1      2758 1.02724E-02-7.69747E-04-5.05443E-14
 -1      2759 1.00519E-02-7.07366E-04-4.82376E-14
 -1      2760 1.04166E-02-7.87493E-04-5.21858E-14
 -1      2761 1.05606E-02-8.05049E-04-5.38470E-14
 -1      2762 1.03383E-02-7.42897E-04-5.14703E-14
 -1      2763 1.07044E-02-8.22370E-04-5.55338E-14
 -1      2764 1.08482E-02-8.39438E-04-5.72444E-14
 -1      2765 1.06247E-02-7.77757E-04-5.47954E-14
 -1      2766 1.09918E-02-8.56236E-04-5.89772E-14
 -1      2767 1.11354E-02-8.72757E-04-6.07336E-14
 -1      2768 1.09109E-02-8.11668E-04-5.82124E-14
 -1      2769 1.12788E-02-8.89005E-04-6.25098E-14
 -1      2770 1.14222E-02-9.04981E-04-6.43090E-14
 -1      2771 1.11971E-02-8.44521E-04-6.17234E-14
 -1      2772 1.15654E-02-9.20699E-04-6.61303E-14
 -1      2773 1.17087E-02-9.36166E-04-6.79704E-14
 -1      2774 1.14832E-02-8.76317E-04-6.53239E-14
 -1      2775 1.18518E-02-9.51399E-04-6.98281E-14
 -1      2776 1.19949E-02-9.66410E-04-7.17011E-14
 -1      2777 1.17692E-02-9.07124E-04-6.90059E-14
 -1      2778 1.21380E-02-9.81218E-04-7.35949E-14
 -1      2779 1.22810E-02-9.95834E-04-7.55080E-14
 -1      2780 1.20551E-02-9.37045E-04-7.27591E-14
 -1      2781 1.24240E-02-1.01028E-03-7.74343E-14
 -1      2782 1.25670E-02-1.02457E-03-7.93772E-14
 -1      2783 1.23410E-02-9.66201E-04-7.65822E-14
 -1      2784 1.27100E-02-1.03871E-03-8.13399E-14
 -1      2785 1.28529E-02-1.05273E-03-8.33182E-14
 -1      2786 1.26269E-02-9.94713E-04-8.04719E-14
 -1      2787 1.29958E-02-1.06663E-03-8.53137E-14
 -1      2788 1.31387E-02-1.08043E-03-8.73266E-14
 -1      2789 1.29127E-02-1.02270E-03-8.44313E-14
 -1      2790 1.32816E-02-1.09414E-03-8.93530E-14
 -1      2791 1.34245E-02-1.10777E-03-9.13932E-14
 -1      2792 1.31985E-02-1.05026E-03-8.84522E-14
 -1      2793 1.35674E-02-1.12133E-03-9.34456E-14
 -1      2794 1.37102E-02-1.13483E-03-9.55110E-14
 -1      2795 1.34842E-02-1.07750E-03-9.25328E-14
 -1      2796 1.38531E-02-1.14829E-03-9.75912E-14
 -1      2797 1.39960E-02-1.16171E-03-9.96787E-14
 -1      2798 1.37700E-02-1.10449E-03-9.66589E-14
 -1      2799 1.41388E-02-1.17509E-03-1.01777E-13
 -1      2800 1.42817E-02-1.18845E-03-1.03892E-13
 -1      2801 1.40557E-02-1.13130E-03-1.00832E-13
 -1      2802 2.32001E-03 4.03814E-04-2.81060E-15
 -1      2803 2.17158E-03 3.98085E-04-2.46537E-15
 -1      2804 8.12572E-04 2.46039E-04-3.84797E-16
 -1      2805 2.02387E-03 3.91914E-04-2.14394E-15
 -1      2806 1.87671E-03 3.84894E-04-1.84585E-15
 -1      2807 2.07647E-03 3.58260E-04-2.34955E-15
 -1      2808 2.92401E-03 4.34022E-04-4.42921E-15
 -1      2809 2.77115E-03 4.24236E-04-3.98886E-15
 -1      2810 3.23470E-03 4.61728E-04-5.38115E-15
 -1      2811 3.07855E-03 4.46288E-04-4.89345E-15
 -1      2812 2.97258E-03 3.97637E-04-4.71570E-15
 -1      2813 3.55310E-03 5.04359E-04-6.42865E-15
 -1      2814 3.39299E-03 4.80836E-04-5.89298E-15
 -1      2815 3.28310E-03 4.25601E-04-5.69254E-15
 -1      2816 3.87995E-03 5.66061E-04-7.57375E-15
 -1      2817 3.71566E-03 5.32576E-04-6.98896E-15
 -1      2818 3.60305E-03 4.69338E-04-6.76432E-15
 -1      2819 4.21414E-03 6.48383E-04-8.81967E-15
 -1      2820 4.04653E-03 6.04698E-04-8.18382E-15
 -1      2821 3.93383E-03 5.33590E-04-7.93335E-15
 -1      2822 4.55163E-03 7.46929E-04-1.01720E-14
 -1      2823 4.38310E-03 6.96285E-04-9.48203E-15
 -1      2824 4.27441E-03 6.20533E-04-9.20321E-15
 -1      2825 4.88545E-03 8.47607E-04-1.16373E-14
 -1      2826 4.71958E-03 7.98502E-04-1.08897E-14
 -1      2827 4.61957E-03 7.25486E-04-1.05804E-14
 -1      2828 5.20906E-03 9.25829E-04-1.32202E-14
 -1      2829 5.04851E-03 8.91716E-04-1.24135E-14
 -1      2830 4.95999E-03 8.31662E-04-1.20710E-14
 -1      2831 5.52251E-03 9.53350E-04-1.49291E-14
 -1      2832 5.36608E-03 9.47418E-04-1.40587E-14
 -1      2833 5.28802E-03 9.08431E-04-1.36816E-14
 -1      2834 5.83469E-03 9.15768E-04-1.67700E-14
 -1      2835 5.67761E-03 9.42677E-04-1.58333E-14
 -1      2836 5.60580E-03 9.23140E-04-1.54213E-14
 -1      2837 6.15503E-03 8.21465E-04-1.87447E-14
 -1      2838 5.99305E-03 8.73997E-04-1.77401E-14
 -1      2839 5.92525E-03 8.64759E-04-1.72943E-14
 -1      2840 6.48676E-03 6.96550E-04-2.08479E-14
 -1      2841 6.31971E-03 7.60765E-04-1.97809E-14
 -1      2842 6.25650E-03 7.50854E-04-1.93008E-14
 -1      2843 6.82463E-03 5.68043E-04-2.30760E-14
 -1      2844 6.65561E-03 6.31300E-04-2.19462E-14
 -1      2845 6.59917E-03 6.15339E-04-2.14363E-14
 -1      2846 7.16132E-03 4.53371E-04-2.54184E-14
 -1      2847 6.99377E-03 5.08324E-04-2.42333E-14
 -1      2848 6.94441E-03 4.86125E-04-2.36922E-14
 -1      2849 7.49173E-03 3.59639E-04-2.78723E-14
 -1      2850 7.32768E-03 4.03852E-04-2.66326E-14
 -1      2851 7.28362E-03 3.77329E-04-2.60625E-14
 -1      2852 7.81403E-03 2.86816E-04-3.04298E-14
 -1      2853 7.65404E-03 3.20824E-04-2.91378E-14
 -1      2854 7.61259E-03 2.91885E-04-2.85407E-14
 -1      2855 8.12854E-03 2.31801E-04-3.30903E-14
 -1      2856 7.97226E-03 2.57369E-04-3.17469E-14
 -1      2857 7.93101E-03 2.27119E-04-3.11207E-14
 -1      2858 8.43649E-03 1.90527E-04-3.58482E-14
 -1      2859 8.28328E-03 2.09716E-04-3.44572E-14
 -1      2860 8.24054E-03 1.78702E-04-3.38023E-14
 -1      2861 8.73927E-03 1.59103E-04-3.87068E-14
 -1      2862 8.58846E-03 1.73807E-04-3.72654E-14
 -1      2863 8.54330E-03 1.42291E-04-3.65819E-14
 -1      2864 9.03807E-03 1.34250E-04-4.16642E-14
 -1      2865 8.88910E-03 1.46028E-04-4.01730E-14
 -1      2866 8.84121E-03 1.14168E-04-3.94598E-14
 -1      2867 9.33381E-03 1.13410E-04-4.47182E-14
 -1      2868 9.18626E-03 1.23455E-04-4.31792E-14
 -1      2869 9.13571E-03 9.13794E-05-4.24356E-14
 -1      2870 9.62719E-03 9.47013E-05-4.78681E-14
 -1      2871 9.48074E-03 1.03878E-04-4.62823E-14
 -1      2872 9.42782E-03 7.17018E-05-4.55116E-14
 -1      2873 9.91875E-03 7.68127E-05-5.11096E-14
 -1      2874 9.77316E-03 8.57143E-05-4.94772E-14
 -1      2875 9.71825E-03 5.35357E-05-4.86801E-14
 -1      2876 1.02089E-02 5.88817E-05-5.44444E-14
 -1      2877 1.00640E-02 6.78904E-05-5.27638E-14
 -1      2878 1.00075E-02 3.57869E-05-5.19396E-14
 -1      2879 1.04979E-02 4.03836E-05-5.78727E-14
 -1      2880 1.03535E-02 4.97256E-05-5.61469E-14
 -1      2881 1.02958E-02 1.77509E-05-5.52944E-14
 -1      2882 1.07860E-02 2.10363E-05-6.13985E-14
 -1      2883 1.06420E-02 3.08271E-05-5.96247E-14
 -1      2884 1.05834E-02-9.87303E-07-5.87447E-14
 -1      2885 1.10735E-02 7.24359E-07-6.50169E-14
 -1      2886 1.09298E-02 1.10046E-05-6.31962E-14
 -1      2887 1.08705E-02-2.06365E-05-6.22884E-14
 -1      2888 1.13605E-02-2.05589E-05-6.87249E-14
 -1      2889 1.12170E-02-9.79690E-06-6.68604E-14
 -1      2890 1.11573E-02-4.12653E-05-6.59264E-14
 -1      2891 1.16470E-02-4.27539E-05-7.25178E-14
 -1      2892 1.15038E-02-3.15463E-05-7.06106E-14
 -1      2893 1.14438E-02-6.28521E-05-6.96497E-14
 -1      2894 1.19333E-02-6.57648E-05-7.63904E-14
 -1      2895 1.17902E-02-5.41626E-05-7.44443E-14
 -1      2896 1.17300E-02-8.53218E-05-7.34567E-14
 -1      2897 1.22194E-02-8.94797E-05-8.03370E-14
 -1      2898 1.20764E-02-7.75400E-05-7.83560E-14
 -1      2899 1.20161E-02-1.08571E-04-7.73426E-14
 -1      2900 1.25053E-02-1.13784E-04-8.43454E-14
 -1      2901 1.23624E-02-1.01564E-04-8.23334E-14
 -1      2902 1.23020E-02-1.32487E-04-8.13014E-14
 -1      2903 1.27912E-02-1.38569E-04-8.84014E-14
 -1      2904 1.26483E-02-1.26122E-04-8.63667E-14
 -1      2905 1.25879E-02-1.56956E-04-8.53152E-14
 -1      2906 1.30770E-02-1.63733E-04-9.25016E-14
 -1      2907 1.29341E-02-1.51108E-04-9.04477E-14
 -1      2908 1.28737E-02-1.81872E-04-8.93789E-14
 -1      2909 1.33627E-02-1.89188E-04-9.66402E-14
 -1      2910 1.32198E-02-1.76429E-04-9.45662E-14
 -1      2911 1.31595E-02-2.07139E-04-9.34840E-14
 -1      2912 1.36484E-02-2.14854E-04-1.00806E-13
 -1      2913 1.35055E-02-2.01998E-04-9.87201E-14
 -1      2914 1.34452E-02-2.32671E-04-9.76263E-14
 -1      2915 1.39341E-02-2.40662E-04-1.05000E-13
 -1      2916 1.37913E-02-2.27744E-04-1.02900E-13
 -1      2917 1.37309E-02-2.58393E-04-1.01799E-13
 -1      2918 1.41906E-02-2.71702E-04-1.08733E-13
 -1      2919 1.40477E-02-2.58752E-04-1.06626E-13
 -1      2920 1.39874E-02-2.89391E-04-1.05518E-13
 -1      2921 1.42146E-02-3.25602E-04-1.08773E-13
 -1      2922 1.43254E-02-7.31436E-04-1.07859E-13
 -1      2923 1.43125E-02-6.89297E-04-1.07942E-13
 -1      2924 1.43785E-02-1.19831E-03-1.05328E-13
 -1      2925 1.44754E-02-1.20816E-03-1.06767E-13
 -1      2926 1.42954E-02-1.15453E-03-1.04368E-13
 -1      2927 1.42740E-02-5.62873E-04-1.08181E-13
 -1      2928 1.42612E-02-5.20729E-04-1.08257E-13
 -1      2929 1.43513E-02-8.15714E-04-1.07688E-13
 -1      2930 1.43383E-02-7.73575E-04-1.07775E-13
 -1      2931 1.42081E-02-7.41119E-04-1.05994E-13
 -1      2932 1.42996E-02-6.47157E-04-1.08023E-13
 -1      2933 1.42868E-02-6.05017E-04-1.08102E-13
 -1      2934 1.41567E-02-5.72641E-04-1.06322E-13
 -1      2935 1.41823E-02-6.56884E-04-1.06162E-13
 -1      2936 1.73002E-03 3.76367E-04-1.57113E-15
 -1      2937 1.58359E-03 3.65969E-04-1.31980E-15
 -1      2938 1.78393E-03 3.45063E-04-1.74856E-15
 -1      2939 1.43768E-02-8.98567E-04-1.07508E-13
 -1      2940 1.43640E-02-8.57140E-04-1.07599E-13
 -1      2941 1.42338E-02-8.24642E-04-1.05817E-13
 -1      2942 1.44030E-02-9.82855E-04-1.07314E-13
 -1      2943 1.43899E-02-9.40710E-04-1.07412E-13
 -1      2944 1.42596E-02-9.08172E-04-1.05629E-13
 -1      2945 1.44293E-02-1.06715E-03-1.07107E-13
 -1      2946 1.44161E-02-1.02500E-03-1.07211E-13
 -1      2947 1.42858E-02-9.92429E-04-1.05427E-13
 -1      2948 6.06466E-03-1.11156E-03-1.68510E-14
 -1      2949 5.93222E-03-1.15943E-03-1.62103E-14
 -1      2950 4.23327E-03-4.53304E-04-1.04540E-14
 -1      2951 4.01826E-03-3.41841E-04-1.01660E-14
 -1      2952 7.17821E-03 8.40751E-05-2.19750E-14
 -1      2953 7.31986E-03 2.06734E-05-2.24106E-14
 -1      2954 7.53172E-03-6.93676E-05-2.27858E-14
 -1      2955 7.67667E-03-1.21681E-04-2.28819E-14
 -1      2956 6.25355E-03 6.02208E-04-1.84905E-14
 -1      2957 6.44606E-03 4.84577E-04-1.92824E-14
 -1      2958 3.52891E-03-3.54070E-05-9.63133E-15
 -1      2959 3.66996E-03 3.47588E-06-9.90785E-15
 -1      2960 4.73328E-03-7.47681E-04-1.14862E-14
 -1      2961 4.52076E-03-6.18315E-04-1.09595E-14
 -1      2962 2.61961E-03 4.16335E-04-3.57254E-15
 -1      2963 2.46931E-03 4.09737E-04-3.17994E-15
 -1      2964 2.37117E-03 3.68635E-04-3.04402E-15
 -1      2965 2.66930E-03 3.80279E-04-3.83265E-15
 -1      2966 1.04436E-03-2.71555E-04-6.48678E-16
 -1      2967 1.18924E-03-2.91907E-04-8.24427E-16
 -1      2968 1.24564E-03-2.69054E-04-9.47362E-16
 -1      2969 8.06912E-04-2.21936E-04-4.16130E-16
 -1      2970 9.40070E-04-2.52249E-04-5.38415E-16
 -1      2971 9.98778E-04-2.35040E-04-6.37118E-16
 -1      2972 7.93922E-04-1.96784E-04-4.29181E-16
 -1      2973 1.44891E-02-1.17422E-03-1.07239E-13
 -1      2974 4.16420E-03 2.14585E-04-1.06660E-14
 -1      2975 4.36598E-03 3.20985E-04-1.10529E-14
 -1      2976 1.43744E-03 3.52998E-04-1.09164E-15
 -1      2977 1.29128E-03 3.37098E-04-8.86186E-16
 -1      2978 1.20213E-03 2.94686E-04-8.23506E-16
 -1      2979 1.49264E-03 3.25156E-04-1.24058E-15
 -1      2980 7.44450E-03-3.75937E-04-2.20670E-14
 -1      2981 7.27683E-03-4.47335E-04-2.15108E-14
 -1      2982 5.95450E-03 7.62596E-04-1.71365E-14
 -1      2983 6.07298E-03 7.03710E-04-1.77103E-14
 -1      2984 7.74919E-04 9.94956E-05-4.89246E-16
 -1      2985 7.69523E-04 7.93918E-05-4.96890E-16
 -1      2986 8.82272E-04 7.80713E-05-6.34163E-16
 -1      2987 8.95286E-04 1.22702E-04-6.15989E-16
 -1      2988 7.68115E-04-7.87167E-05-5.01362E-16
 -1      2989 7.73381E-04-9.83088E-05-4.94599E-16
 -1      2990 4.97540E-03 6.69044E-04-1.26602E-14
 -1      2991 5.12533E-03 7.43389E-04-1.32316E-14
 -1      2992 3.80676E-03 5.32456E-05-1.01235E-14
 -1      2993 3.95778E-03 1.16120E-04-1.03425E-14
 -1      2994 3.70937E-03 3.50642E-05-9.68586E-15
 -1      2995 4.57630E-03 4.39160E-04-1.15159E-14
 -1      2996 4.75120E-03 5.44782E-04-1.19608E-14
 -1      2997 3.83409E-03-2.59559E-04-9.96005E-15
 -1      2998 3.70063E-03-2.09177E-04-9.80449E-15
 -1      2999 3.34003E-03-8.44845E-05-9.35761E-15
 -1      3000 3.39285E-03-7.09025E-05-9.37865E-15
 -1      3001 7.95120E-03-1.94315E-04-2.33593E-14
 -1      3002 7.95824E-03-1.99296E-04-2.33636E-14
 -1      3003 5.29379E-03 8.05341E-04-1.39390E-14
 -1      3004 5.45464E-03 8.45009E-04-1.46718E-14
 -1      3005 5.20913E-03 7.90200E-04-1.35122E-14
 -1      3006 6.36803E-03-9.54750E-04-1.82058E-14
 -1      3007 6.23613E-03-1.02894E-03-1.76247E-14
 -1      3008 7.09225E-03-5.36135E-04-2.08730E-14
 -1      3009 6.94352E-03-6.17500E-04-2.03970E-14
 -1      3010 6.86775E-03-6.88714E-04-2.04107E-14
 -1      3011 7.21650E-03-5.02620E-04-2.16849E-14
 -1      3012 7.93879E-03-2.12995E-04-2.34748E-14
 -1      3013 7.86801E-03-2.30882E-04-2.33230E-14
 -1      3014 7.74156E-03-2.68055E-04-2.29420E-14
 -1      3015 7.62021E-03-3.06787E-04-2.25897E-14
 -1      3016 4.99628E-03-9.66486E-04-1.18310E-14
 -1      3017 5.02407E-03-9.35649E-04-1.22633E-14
 -1      3018 4.85929E-03-8.30256E-04-1.17685E-14
 -1      3019 4.80602E-03-8.74008E-04-1.10968E-14
 -1      3020 7.79799E-04-1.19174E-04-4.86197E-16
 -1      3021 7.87279E-04-1.41617E-04-4.75843E-16
 -1      3022 8.93209E-04-1.21106E-04-6.23091E-16
 -1      3023 8.70989E-04-4.70386E-07-6.49396E-16
 -1      3024 7.57978E-04-8.55402E-06-5.12841E-16
 -1      3025 7.58864E-04-2.54159E-05-5.11960E-16
 -1      3026 7.55954E-03-3.52347E-04-2.28673E-14
 -1      3027 6.50705E-03-8.98633E-04-1.89226E-14
 -1      3028 7.92047E-03-1.81479E-04-2.40131E-14
 -1      3029 7.94131E-03-1.88594E-04-2.36859E-14
 -1      3030 7.98117E-03-1.95139E-04-2.42880E-14
 -1      3031 4.65941E-03-7.66573E-04-1.07889E-14
 -1      3032 3.31295E-03-9.00989E-05-9.19860E-15
 -1      3033 3.29113E-03-7.98750E-05-8.82482E-15
 -1      3034 3.29869E-03-9.28660E-05-9.04023E-15
 -1      3035 6.59183E-03 4.07857E-04-2.00297E-14
 -1      3036 6.73659E-03 3.38713E-04-2.07925E-14
 -1      3037 6.50679E-03 4.76694E-04-1.98810E-14
 -1      3038 3.89551E-03-3.02844E-04-9.70363E-15
 -1      3039 5.50600E-03-1.17059E-03-1.40860E-14
 -1      3040 6.18499E-03-1.08800E-03-1.74666E-14
 -1      3041 5.68461E-03-1.19786E-03-1.49342E-14
 -1      3042 6.91637E-03-7.24578E-04-2.10318E-14
 -1      3043 7.00198E-03-7.78172E-04-2.18469E-14
 -1      3044 7.18682E-03-7.20111E-04-2.29399E-14
 -1      3045 7.07084E-03-6.35521E-04-2.16772E-14
 -1      3046 1.41312E-02-4.88742E-04-1.06474E-13
 -1      3047 1.42486E-02-4.78940E-04-1.08330E-13
 -1      3048 1.42360E-02-4.37149E-04-1.08403E-13
 -1      3049 8.72470E-04 2.31909E-04-4.70652E-16
 -1      3050 3.43171E-03-5.06901E-05-9.22793E-15
 -1      3051 3.47627E-03-2.49361E-05-9.07577E-15
 -1      3052 3.34986E-03-5.66791E-05-8.83249E-15
 -1      3053 4.42891E-03 3.81318E-04-1.09751E-14
 -1      3054 1.42316E-02-4.02273E-04-1.08555E-13
 -1      3055 1.42190E-02-3.60480E-04-1.08623E-13
 -1      3056 1.41054E-02-3.42363E-04-1.06997E-13
 -1      3057 1.41142E-02-4.12101E-04-1.06698E-13
 -1      3058 4.34197E-03-5.35638E-04-1.03897E-14
 -1      3059 6.18549E-03 6.53164E-04-1.83397E-14
 -1      3060 7.47492E-03-3.47045E-05-2.31707E-14
 -1      3061 7.61715E-03-7.51342E-05-2.39431E-14
 -1      3062 7.43274E-03 4.07855E-06-2.35568E-14
 -1      3063 1.44759E-02-1.13207E-03-1.07353E-13
 -1      3064 7.32571E-03-6.33277E-04-2.35727E-14
 -1      3065 7.06352E-03 1.53834E-04-2.18568E-14
 -1      3066 1.43205E-02-1.12700E-03-1.04967E-13
 -1      3067 1.44042E-02-1.09469E-03-1.06510E-13
 -1      3068 1.42738E-02-1.06210E-03-1.04726E-13
 -1      3069 1.42237E-02-1.11715E-03-1.03535E-13
 -1      3070 7.77176E-03-1.43792E-04-2.34833E-14
 -1      3071 3.38908E-03-1.16502E-04-9.49124E-15
 -1      3072 3.34115E-03-1.07765E-04-9.21569E-15
 -1      3073 3.41396E-03-1.25438E-04-9.28850E-15
 -1      3074 5.76925E-03-1.18436E-03-1.54090E-14
 -1      3075 4.84219E-03 6.16606E-04-1.21121E-14
 -1      3076 3.60174E-03-1.81010E-04-9.53762E-15
 -1      3077 9.89529E-04 2.36960E-04-6.10406E-16
 -1      3078 5.53904E-03 8.55553E-04-1.50689E-14
 -1      3079 4.03473E-03 1.73243E-04-1.02105E-14
 -1      3080 7.60852E-04-4.25297E-05-5.09792E-16
 -1      3081 7.63926E-04-6.02462E-05-5.06295E-16
 -1      3082 8.80539E-04-7.76998E-05-6.39069E-16
 -1      3083 8.73123E-04-3.82252E-05-6.47513E-16
 -1      3084 5.86651E-03 8.00783E-04-1.67372E-14
 -1      3085 5.93434E-03 7.84306E-04-1.71545E-14
 -1      3086 5.78613E-03 8.30780E-04-1.63441E-14
 -1      3087 7.97759E-03-2.12015E-04-2.40696E-14
 -1      3088 7.84814E-03-2.53455E-04-2.37896E-14
 -1      3089 1.04040E-03 2.03935E-04-7.21537E-16
 -1      3090 1.02860E-03 1.74482E-04-7.40930E-16
 -1      3091 5.13794E-03 7.81520E-04-1.31309E-14
 -1      3092 5.29184E-03 8.31201E-04-1.38377E-14
 -1      3093 7.68467E-03-3.35826E-04-2.38497E-14
 -1      3094 7.53081E-03-3.96513E-04-2.33061E-14
 -1      3095 1.72923E-03-2.74607E-04-1.82084E-15
 -1      3096 1.87159E-03-2.80240E-04-2.11466E-15
 -1      3097 2.01375E-03-2.84646E-04-2.43062E-15
 -1      3098 2.15588E-03-2.88102E-04-2.76882E-15
 -1      3099 1.92110E-03-2.50767E-04-2.30012E-15
 -1      3100 2.29788E-03-2.91141E-04-3.12969E-15
 -1      3101 2.44001E-03-2.94100E-04-3.51279E-15
 -1      3102 2.20115E-03-2.57095E-04-2.98032E-15
 -1      3103 2.58227E-03-2.97513E-04-3.91828E-15
 -1      3104 2.72504E-03-3.01847E-04-4.34692E-15
 -1      3105 2.48012E-03-2.62086E-04-3.74950E-15
 -1      3106 2.86849E-03-3.07609E-04-4.79715E-15
 -1      3107 3.01322E-03-3.15536E-04-5.26953E-15
 -1      3108 2.75896E-03-2.68881E-04-4.60791E-15
 -1      3109 3.15964E-03-3.26054E-04-5.76503E-15
 -1      3110 3.30867E-03-3.40429E-04-6.28313E-15
 -1      3111 3.04000E-03-2.81113E-04-5.55576E-15
 -1      3112 3.46113E-03-3.58918E-04-6.82292E-15
 -1      3113 3.61825E-03-3.83945E-04-7.38545E-15
 -1      3114 3.32779E-03-3.03517E-04-6.59211E-15
 -1      3115 3.78140E-03-4.15528E-04-7.97126E-15
 -1      3116 3.95147E-03-4.57467E-04-8.58065E-15
 -1      3117 3.63059E-03-3.43515E-04-7.71815E-15
 -1      3118 1.15980E-03-2.31520E-04-8.71671E-16
 -1      3119 1.30203E-03-2.46034E-04-1.07541E-15
 -1      3120 7.97242E-03-5.03250E-04-2.79242E-14
 -1      3121 8.12349E-03-4.99023E-04-2.91584E-14
 -1      3122 8.27124E-03-4.99815E-04-3.04174E-14
 -1      3123 8.41675E-03-5.04117E-04-3.17034E-14
 -1      3124 8.23287E-03-4.58074E-04-2.98671E-14
 -1      3125 8.56052E-03-5.11613E-04-3.30156E-14
 -1      3126 8.70327E-03-5.21501E-04-3.43540E-14
 -1      3127 8.51396E-03-4.71109E-04-3.24437E-14
 -1      3128 8.84522E-03-5.33443E-04-3.57167E-14
 -1      3129 8.98684E-03-5.46979E-04-3.71039E-14
 -1      3130 8.79134E-03-4.93100E-04-3.51229E-14
 -1      3131 9.12817E-03-5.61776E-04-3.85184E-14
 -1      3132 9.26951E-03-5.77571E-04-3.99593E-14
 -1      3133 9.06800E-03-5.21023E-04-3.79036E-14
 -1      3134 9.41081E-03-5.94074E-04-4.14278E-14
 -1      3135 9.55226E-03-6.11129E-04-4.29218E-14
 -1      3136 9.34539E-03-5.52682E-04-4.07876E-14
 -1      3137 9.69378E-03-6.28505E-04-4.44387E-14
 -1      3138 9.83548E-03-6.46111E-04-4.59802E-14
 -1      3139 9.62408E-03-5.86457E-04-4.37736E-14
 -1      3140 9.97729E-03-6.63779E-04-4.75479E-14
 -1      3141 1.01193E-02-6.81456E-04-4.91405E-14
 -1      3142 9.90418E-03-6.21160E-04-4.68596E-14
 -1      3143 1.02613E-02-6.99031E-04-5.07547E-14
 -1      3144 1.04036E-02-7.16475E-04-5.23941E-14
 -1      3145 1.01856E-02-6.55963E-04-5.00414E-14
 -1      3146 1.05459E-02-7.33720E-04-5.40579E-14
 -1      3147 1.06883E-02-7.50756E-04-5.57414E-14
 -1      3148 1.04681E-02-6.90325E-04-5.33198E-14
 -1      3149 1.08308E-02-7.67546E-04-5.74487E-14
 -1      3150 1.09734E-02-7.84090E-04-5.91817E-14
 -1      3151 1.07514E-02-7.23928E-04-5.66882E-14
 -1      3152 1.11160E-02-8.00374E-04-6.09371E-14
 -1      3153 1.12587E-02-8.16405E-04-6.27155E-14
 -1      3154 1.10354E-02-7.56615E-04-6.01524E-14
 -1      3155 1.14014E-02-8.32185E-04-6.45187E-14
 -1      3156 1.15441E-02-8.47723E-04-6.63407E-14
 -1      3157 1.13200E-02-7.88347E-04-6.37121E-14
 -1      3158 1.16869E-02-8.63030E-04-6.81811E-14
 -1      3159 1.18297E-02-8.78118E-04-7.00418E-14
 -1      3160 1.16049E-02-8.19156E-04-6.73577E-14
 -1      3161 1.19725E-02-8.93002E-04-7.19195E-14
 -1      3162 1.21154E-02-9.07695E-04-7.38165E-14
 -1      3163 1.18901E-02-8.49119E-04-7.10797E-14
 -1      3164 1.22582E-02-9.22212E-04-7.57282E-14
 -1      3165 1.24011E-02-9.36567E-04-7.76573E-14
 -1      3166 1.21755E-02-8.78338E-04-7.48734E-14
 -1      3167 1.25439E-02-9.50777E-04-7.96053E-14
 -1      3168 1.26868E-02-9.64852E-04-8.15681E-14
 -1      3169 1.24611E-02-9.06920E-04-7.87357E-14
 -1      3170 1.28297E-02-9.78809E-04-8.35466E-14
 -1      3171 1.29725E-02-9.92657E-04-8.55414E-14
 -1      3172 1.27467E-02-9.34974E-04-8.26624E-14
 -1      3173 1.31154E-02-1.00641E-03-8.75523E-14
 -1      3174 1.32583E-02-1.02008E-03-8.95782E-14
 -1      3175 1.30324E-02-9.62599E-04-8.66537E-14
 -1      3176 1.34012E-02-1.03368E-03-9.16161E-14
 -1      3177 1.35440E-02-1.04721E-03-9.36664E-14
 -1      3178 1.33181E-02-9.89886E-04-9.07004E-14
 -1      3179 1.36869E-02-1.06069E-03-9.57310E-14
 -1      3180 1.38298E-02-1.07413E-03-9.78048E-14
 -1      3181 1.36039E-02-1.01691E-03-9.48022E-14
 -1      3182 1.39553E-02-1.08897E-03-9.96116E-14
 -1      3183 1.40982E-02-1.10234E-03-1.01706E-13
 -1      3184 1.41232E-02-1.07483E-03-1.02303E-13
 -1      3185 1.38722E-02-1.04520E-03-9.86702E-14
 -1      3186 2.12798E-03 3.24624E-04-2.55846E-15
 -1      3187 1.98244E-03 3.19696E-04-2.23270E-15
 -1      3188 4.72374E-03-7.75132E-04-1.11603E-14
 -1      3189 3.32883E-03 3.88073E-04-6.00522E-15
 -1      3190 3.17257E-03 3.72489E-04-5.49250E-15
 -1      3191 3.01867E-03 3.60488E-04-5.00289E-15
 -1      3192 2.86694E-03 3.51116E-04-4.53736E-15
 -1      3193 3.06222E-03 3.22371E-04-5.29293E-15
 -1      3194 3.98580E-03 4.98737E-04-8.29291E-15
 -1      3195 3.81655E-03 4.62250E-04-7.68432E-15
 -1      3196 4.33415E-03 5.90839E-04-9.58595E-15
 -1      3197 4.15901E-03 5.41511E-04-8.92645E-15
 -1      3198 4.03592E-03 4.61806E-04-8.65249E-15
 -1      3199 4.68896E-03 7.04109E-04-1.09880E-14
 -1      3200 4.51191E-03 6.45714E-04-1.02735E-14
 -1      3201 4.39322E-03 5.60802E-04-9.96876E-15
 -1      3202 5.33916E-03 8.82802E-04-1.39870E-14
 -1      3203 5.17231E-03 8.48879E-04-1.31585E-14
 -1      3204 5.69112E-03 8.96968E-04-1.59069E-14
 -1      3205 5.53009E-03 9.08539E-04-1.50045E-14
 -1      3206 6.02073E-03 8.08077E-04-1.78201E-14
 -1      3207 5.85424E-03 8.58777E-04-1.68501E-14
 -1      3208 6.36476E-03 6.72359E-04-1.98597E-14
 -1      3209 6.19064E-03 7.43010E-04-1.88233E-14
 -1      3210 6.12542E-03 7.40327E-04-1.83471E-14
 -1      3211 6.71887E-03 5.28333E-04-2.20257E-14
 -1      3212 6.54180E-03 5.99013E-04-2.09272E-14
 -1      3213 6.48473E-03 5.84947E-04-2.04193E-14
 -1      3214 7.07029E-03 4.01843E-04-2.43099E-14
 -1      3215 6.89625E-03 4.61966E-04-2.31534E-14
 -1      3216 6.84912E-03 4.36908E-04-2.26162E-14
 -1      3217 7.40954E-03 3.01718E-04-2.67070E-14
 -1      3218 7.24187E-03 3.48602E-04-2.54944E-14
 -1      3219 7.20259E-03 3.17839E-04-2.49290E-14
 -1      3220 7.73492E-03 2.26015E-04-2.92079E-14
 -1      3221 7.57408E-03 2.61227E-04-2.79448E-14
 -1      3222 7.53856E-03 2.28610E-04-2.73509E-14
 -1      3223 8.04797E-03 1.69799E-04-3.18118E-14
 -1      3224 7.89288E-03 1.95912E-04-3.04970E-14
 -1      3225 7.85791E-03 1.63416E-04-2.98759E-14
 -1      3226 8.35168E-03 1.27906E-04-3.45129E-14
 -1      3227 8.20083E-03 1.47408E-04-3.31506E-14
 -1      3228 8.16418E-03 1.15581E-04-3.25014E-14
 -1      3229 8.64894E-03 9.60450E-05-3.73132E-14
 -1      3230 8.50097E-03 1.10979E-04-3.59007E-14
 -1      3231 8.46144E-03 7.97119E-05-3.52240E-14
 -1      3232 8.94196E-03 7.08469E-05-4.02115E-14
 -1      3233 8.79586E-03 8.27978E-05-3.87501E-14
 -1      3234 8.75301E-03 5.18395E-05-3.80446E-14
 -1      3235 9.23231E-03 4.97678E-05-4.32076E-14
 -1      3236 9.08738E-03 5.99223E-05-4.16977E-14
 -1      3237 9.04123E-03 2.90633E-05-4.09621E-14
 -1      3238 9.52100E-03 3.09477E-05-4.63021E-14
 -1      3239 9.37680E-03 4.01644E-05-4.47424E-14
 -1      3240 9.32764E-03 9.28381E-06-4.39785E-14
 -1      3241 9.80868E-03 1.30762E-05-4.94893E-14
 -1      3242 9.66493E-03 2.19525E-05-4.78841E-14
 -1      3243 9.61317E-03-8.99532E-06-4.70922E-14
 -1      3244 1.00957E-02-4.72821E-06-5.27709E-14
 -1      3245 9.95226E-03 4.20290E-06-5.11186E-14
 -1      3246 9.89834E-03-2.68107E-05-5.02986E-14
 -1      3247 1.03824E-02-2.30197E-05-5.61461E-14
 -1      3248 1.02391E-02-1.37915E-05-5.44464E-14
 -1      3249 1.01834E-02-4.48472E-05-5.36012E-14
 -1      3250 1.06688E-02-4.21116E-05-5.96155E-14
 -1      3251 1.05256E-02-3.24550E-05-5.78678E-14
 -1      3252 1.04686E-02-6.35232E-05-5.69960E-14
 -1      3253 1.09550E-02-6.21467E-05-6.31792E-14
 -1      3254 1.08119E-02-5.20080E-05-6.13862E-14
 -1      3255 1.07539E-02-8.30617E-05-6.04862E-14
 -1      3256 1.12411E-02-8.31531E-05-6.68352E-14
 -1      3257 1.10980E-02-7.25299E-05-6.49962E-14
 -1      3258 1.10392E-02-1.03549E-04-6.40708E-14
 -1      3259 1.15270E-02-1.05086E-04-7.05746E-14
 -1      3260 1.13841E-02-9.40081E-05-6.86941E-14
 -1      3261 1.13247E-02-1.24979E-04-6.77435E-14
 -1      3262 1.18130E-02-1.27860E-04-7.43948E-14
 -1      3263 1.16700E-02-1.16374E-04-7.24735E-14
 -1      3264 1.16103E-02-1.47289E-04-7.14966E-14
 -1      3265 1.20988E-02-1.51368E-04-7.82950E-14
 -1      3266 1.19559E-02-1.39528E-04-7.63363E-14
 -1      3267 1.18959E-02-1.70388E-04-7.53328E-14
 -1      3268 1.23847E-02-1.75497E-04-8.22627E-14
 -1      3269 1.22417E-02-1.63361E-04-8.02703E-14
 -1      3270 1.21816E-02-1.94166E-04-7.92446E-14
 -1      3271 1.26705E-02-2.00137E-04-8.62827E-14
 -1      3272 1.25276E-02-1.87759E-04-8.42669E-14
 -1      3273 1.24673E-02-2.18515E-04-8.32209E-14
 -1      3274 1.29562E-02-2.25188E-04-9.03548E-14
 -1      3275 1.28133E-02-2.12616E-04-8.83146E-14
 -1      3276 1.27531E-02-2.43330E-04-8.72521E-14
 -1      3277 1.32420E-02-2.50558E-04-9.44678E-14
 -1      3278 1.30991E-02-2.37838E-04-9.24057E-14
 -1      3279 1.30388E-02-2.68517E-04-9.13304E-14
 -1      3280 1.35277E-02-2.76167E-04-9.86138E-14
 -1      3281 1.33849E-02-2.63337E-04-9.65357E-14
 -1      3282 1.33245E-02-2.93991E-04-9.54494E-14
 -1      3283 1.38135E-02-3.01944E-04-1.02790E-13
 -1      3284 1.36706E-02-2.89038E-04-1.00699E-13
 -1      3285 1.36103E-02-3.19675E-04-9.95996E-14
 -1      3286 1.40162E-02-3.31192E-04-1.05703E-13
 -1      3287 1.39026E-02-3.13096E-04-1.04080E-13
 -1      3288 1.38423E-02-3.43726E-04-1.02975E-13
 -1      3289 1.40206E-02-3.66057E-04-1.05557E-13
 -1      3290 7.75909E-03-1.28638E-04-2.41577E-14
 -1      3291 7.84887E-03-1.59378E-04-2.40876E-14
 -1      3292 7.91702E-03-1.70530E-04-2.46967E-14
 -1      3293 9.90399E-04 5.18581E-05-7.95669E-16
 -1      3294 9.87027E-04 3.04914E-05-8.00141E-16
 -1      3295 1.83732E-03 3.13734E-04-1.93023E-15
 -1      3296 1.69244E-03 3.06395E-04-1.65063E-15
 -1      3297 1.88994E-03 2.82441E-04-2.11550E-15
 -1      3298 1.40908E-02-7.50781E-04-1.04134E-13
 -1      3299 1.40779E-02-7.08686E-04-1.04220E-13
 -1      3300 1.41686E-02-1.00198E-03-1.03544E-13
 -1      3301 1.41555E-02-9.59864E-04-1.03649E-13
 -1      3302 6.15194E-03-1.08956E-03-1.72926E-14
 -1      3303 1.41424E-02-9.17753E-04-1.03754E-13
 -1      3304 1.41294E-02-8.75648E-04-1.03852E-13
 -1      3305 1.40253E-02-9.27308E-04-1.01884E-13
 -1      3306 7.84472E-04-1.57211E-04-4.58387E-16
 -1      3307 7.95413E-04-1.79172E-04-4.49266E-16
 -1      3308 8.96463E-04-1.97551E-04-5.50436E-16
 -1      3309 8.99289E-04-1.61704E-04-5.92503E-16
 -1      3310 3.90789E-03-3.34719E-04-9.35260E-15
 -1      3311 3.75135E-03-2.62822E-04-9.16216E-15
 -1      3312 3.65044E-03 4.32221E-04-7.10007E-15
 -1      3313 3.48813E-03 4.07580E-04-6.54071E-15
 -1      3314 3.37181E-03 3.48873E-04-6.31872E-15
 -1      3315 3.69521E-03 3.92897E-04-7.43764E-15
 -1      3316 6.94622E-03 2.36306E-04-2.17991E-14
 -1      3317 7.15736E-03 1.38177E-04-2.27320E-14
 -1      3318 4.69624E-03 5.70689E-04-1.14667E-14
 -1      3319 4.89734E-03 6.80588E-04-1.21462E-14
 -1      3320 7.65606E-03-5.29935E-04-2.55305E-14
 -1      3321 7.81699E-03-5.12633E-04-2.67153E-14
 -1      3322 7.94216E-03-4.58896E-04-2.73931E-14
 -1      3323 1.44436E-03-2.57862E-04-1.30127E-15
 -1      3324 1.58686E-03-2.67233E-04-1.54987E-15
 -1      3325 1.63988E-03-2.40218E-04-1.70938E-15
 -1      3326 6.13038E-03 6.99812E-04-1.82000E-14
 -1      3327 6.29612E-03 6.05571E-04-1.89966E-14
 -1      3328 3.61003E-03 2.86147E-05-9.16843E-15
 -1      3329 3.73057E-03 7.17999E-05-9.37219E-15
 -1      3330 3.58333E-03-1.89373E-04-9.09129E-15
 -1      3331 3.47666E-03-1.48933E-04-9.12284E-15
 -1      3332 5.47137E-03 8.59947E-04-1.47177E-14
 -1      3333 5.63774E-03 8.58442E-04-1.55764E-14
 -1      3334 8.02535E-03-2.09956E-04-2.48727E-14
 -1      3335 8.01754E-03-2.22188E-04-2.49837E-14
 -1      3336 1.15345E-03 2.65686E-04-7.97051E-16
 -1      3337 1.08599E-03 2.29821E-04-7.51501E-16
 -1      3338 1.20201E-03 2.27805E-04-9.26193E-16
 -1      3339 1.29772E-03 2.82474E-04-9.91056E-16
 -1      3340 4.28542E-03 3.35878E-04-1.04116E-14
 -1      3341 4.47126E-03 4.40330E-04-1.08536E-14
 -1      3342 7.27754E-03-5.84855E-04-2.29275E-14
 -1      3343 7.47126E-03-5.49858E-04-2.42110E-14
 -1      3344 7.61788E-03-4.76214E-04-2.48561E-14
 -1      3345 7.24525E-03-5.32513E-04-2.22791E-14
 -1      3346 7.94112E-03-2.49665E-04-2.47278E-14
 -1      3347 7.83248E-03-2.81334E-04-2.43316E-14
 -1      3348 3.90249E-03 1.43366E-04-9.67211E-15
 -1      3349 4.08131E-03 2.30928E-04-9.97826E-15
 -1      3350 3.77768E-03 1.27549E-04-9.14958E-15
 -1      3351 1.41165E-02-8.33904E-04-1.03949E-13
 -1      3352 1.41037E-02-7.92520E-04-1.04041E-13
 -1      3353 1.39735E-02-7.60061E-04-1.02274E-13
 -1      3354 1.39992E-02-8.43496E-04-1.02084E-13
 -1      3355 4.54558E-03-6.91156E-04-1.05248E-14
 -1      3356 4.30142E-03-5.77572E-04-9.76786E-15
 -1      3357 4.35192E-03-5.73223E-04-1.01183E-14
 -1      3358 4.09725E-03-4.29958E-04-9.64200E-15
 -1      3359 4.11514E-03-5.11214E-04-9.11456E-15
 -1      3360 9.85151E-04 9.61772E-06-8.02594E-16
 -1      3361 9.84828E-04-1.10244E-05-8.03353E-16
 -1      3362 1.10047E-03 2.13207E-05-9.71784E-16
 -1      3363 3.49181E-03 8.03867E-06-8.77390E-15
 -1      3364 5.39263E-03 8.60758E-04-1.43125E-14
 -1      3365 3.29003E-03-9.78244E-05-8.84275E-15
 -1      3366 3.24568E-03-8.91707E-05-8.47602E-15
 -1      3367 3.28947E-03-1.03389E-04-8.64590E-15
 -1      3368 7.40513E-03-4.60638E-04-2.29433E-14
 -1      3369 7.55263E-03-4.34206E-04-2.39227E-14
 -1      3370 3.93469E-03-3.78310E-04-9.09875E-15
 -1      3371 6.43548E-03 5.38864E-04-1.97355E-14
 -1      3372 1.35808E-03-2.22772E-04-1.20798E-15
 -1      3373 5.90328E-03 8.12585E-04-1.70553E-14
 -1      3374 5.98167E-03 7.75875E-04-1.74637E-14
 -1      3375 2.71688E-03 3.43916E-04-4.09502E-15
 -1      3376 2.56824E-03 3.38175E-04-3.67585E-15
 -1      3377 2.76230E-03 3.07147E-04-4.35958E-15
 -1      3378 3.26398E-03-7.22397E-05-8.52638E-15
 -1      3379 3.30161E-03-6.62423E-05-8.67920E-15
 -1      3380 3.32088E-03-4.83058E-05-8.53209E-15
 -1      3381 3.94752E-03-4.17926E-04-8.83871E-15
 -1      3382 3.60198E-03-2.19785E-04-8.75644E-15
 -1      3383 7.81202E-03-3.19259E-04-2.47868E-14
 -1      3384 6.53167E-03-9.00957E-04-1.91068E-14
 -1      3385 1.39477E-02-6.76278E-04-1.02454E-13
 -1      3386 1.40650E-02-6.66591E-04-1.04306E-13
 -1      3387 1.40522E-02-6.24494E-04-1.04389E-13
 -1      3388 1.40138E-02-4.98357E-04-1.04623E-13
 -1      3389 1.40012E-02-4.56600E-04-1.04693E-13
 -1      3390 1.56737E-03 3.02234E-04-1.41972E-15
 -1      3391 1.42276E-03 2.90938E-04-1.18337E-15
 -1      3392 1.37351E-03 2.63021E-04-1.14829E-15
 -1      3393 1.62205E-03 2.73764E-04-1.57944E-15
 -1      3394 6.85261E-03 3.07337E-04-2.16429E-14
 -1      3395 5.03718E-03 8.18233E-04-1.25032E-14
 -1      3396 4.86470E-03 7.63882E-04-1.17303E-14
 -1      3397 5.78096E-03 8.59851E-04-1.64010E-14
 -1      3398 7.71736E-03-1.00698E-04-2.45547E-14
 -1      3399 7.80977E-03-1.19591E-04-2.51721E-14
 -1      3400 7.68224E-03-6.82329E-05-2.49516E-14
 -1      3401 1.40394E-02-5.82482E-04-1.04468E-13
 -1      3402 1.40266E-02-5.40378E-04-1.04548E-13
 -1      3403 1.38965E-02-5.08231E-04-1.02774E-13
 -1      3404 1.39220E-02-5.92220E-04-1.02620E-13
 -1      3405 8.03659E-03-2.05111E-04-2.52100E-14
 -1      3406 9.95249E-04 7.38913E-05-7.89204E-16
 -1      3407 1.10834E-03 6.73633E-05-9.61376E-16
 -1      3408 1.00148E-03 9.69211E-05-7.80666E-16
 -1      3409 7.31641E-03 7.35139E-05-2.34999E-14
 -1      3410 7.46787E-03 2.16155E-05-2.42792E-14
 -1      3411 7.21169E-03 1.48288E-04-2.34382E-14
 -1      3412 8.02904E-03-2.40916E-04-2.55429E-14
 -1      3413 8.03853E-03-2.64091E-04-2.61023E-14
 -1      3414 8.10267E-03-2.37435E-04-2.63686E-14
 -1      3415 5.70987E-03 8.54929E-04-1.59710E-14
 -1      3416 2.27399E-03 3.29055E-04-2.90771E-15
 -1      3417 2.17826E-03 2.91053E-04-2.77130E-15
 -1      3418 2.42068E-03 3.33399E-04-3.28040E-15
 -1      3419 3.40043E-03-1.34059E-04-8.85202E-15
 -1      3420 4.54608E-03 5.21074E-04-1.08793E-14
 -1      3421 4.84731E-03 6.98138E-04-1.18169E-14
 -1      3422 4.99466E-03 7.36433E-04-1.24854E-14
 -1      3423 5.07821E-03 7.90770E-04-1.27879E-14
 -1      3424 1.01815E-03 1.46994E-04-7.56882E-16
 -1      3425 1.00917E-03 1.21248E-04-7.69960E-16
 -1      3426 1.12282E-03 1.16999E-04-9.41670E-16
 -1      3427 1.14348E-03 1.72195E-04-9.11380E-16
 -1      3428 1.41334E-02-1.05217E-03-1.02627E-13
 -1      3429 1.41585E-02-1.02465E-03-1.03220E-13
 -1      3430 1.40282E-02-9.92059E-04-1.01454E-13
 -1      3431 1.40079E-02-1.03737E-03-1.00806E-13
 -1      3432 9.98300E-04-2.14425E-04-6.62732E-16
 -1      3433 1.05719E-03-1.96944E-04-7.66395E-16
 -1      3434 9.93235E-04-7.41203E-05-7.94056E-16
 -1      3435 9.99117E-04-9.65230E-05-7.86955E-16
 -1      3436 1.00658E-03-1.20072E-04-7.78037E-16
 -1      3437 1.01548E-03-1.45053E-04-7.66206E-16
 -1      3438 1.11968E-03-1.16486E-04-9.50208E-16
 -1      3439 4.13463E-03 2.94780E-04-9.86037E-15
 -1      3440 4.75794E-03 6.85979E-04-1.13929E-14
 -1      3441 3.37034E-03-8.71773E-06-8.31951E-15
 -1      3442 3.48005E-03 3.86187E-05-8.40410E-15
 -1      3443 5.73062E-03 8.60909E-04-1.61087E-14
 -1      3444 2.10793E-03-2.24831E-04-2.83085E-15
 -1      3445 2.24536E-03-2.27044E-04-3.19493E-15
 -1      3446 2.38214E-03-2.29080E-04-3.58079E-15
 -1      3447 2.51852E-03-2.31152E-04-3.98887E-15
 -1      3448 2.28865E-03-1.98004E-04-3.41224E-15
 -1      3449 2.65435E-03-2.33673E-04-4.41890E-15
 -1      3450 2.79016E-03-2.36953E-04-4.87150E-15
 -1      3451 2.55535E-03-2.01339E-04-4.23048E-15
 -1      3452 2.92585E-03-2.41338E-04-5.34607E-15
 -1      3453 3.06242E-03-2.47443E-04-5.84306E-15
 -1      3454 2.81872E-03-2.06040E-04-5.13721E-15
 -1      3455 3.19981E-03-2.55505E-04-6.36211E-15
 -1      3456 3.33988E-03-2.66811E-04-6.90278E-15
 -1      3457 3.08038E-03-2.14358E-04-6.13225E-15
 -1      3458 3.98357E-03 2.63701E-04-9.27718E-15
 -1      3459 4.16565E-03 3.55743E-04-9.68866E-15
 -1      3460 9.88860E-04-5.25959E-05-7.99165E-16
 -1      3461 1.10608E-03-6.83852E-05-9.66417E-16
 -1      3462 9.86071E-04-3.16723E-05-8.02269E-16
 -1      3463 8.47124E-03-4.31875E-04-3.18708E-14
 -1      3464 8.60589E-03-4.42253E-04-3.31887E-14
 -1      3465 8.74025E-03-4.54234E-04-3.45294E-14
 -1      3466 8.87498E-03-4.67492E-04-3.58963E-14
 -1      3467 8.69173E-03-4.16814E-04-3.39346E-14
 -1      3468 9.00998E-03-4.81772E-04-3.72874E-14
 -1      3469 9.14561E-03-4.96928E-04-3.87043E-14
 -1      3470 8.95389E-03-4.44033E-04-3.66717E-14
 -1      3471 9.28172E-03-5.12708E-04-4.01481E-14
 -1      3472 9.41852E-03-5.29033E-04-4.16181E-14
 -1      3473 9.21958E-03-4.74179E-04-3.95091E-14
 -1      3474 9.55585E-03-5.45680E-04-4.31108E-14
 -1      3475 9.69382E-03-5.62607E-04-4.46277E-14
 -1      3476 9.48887E-03-5.06214E-04-4.24478E-14
 -1      3477 9.83230E-03-5.79638E-04-4.61709E-14
 -1      3478 9.97134E-03-5.96751E-04-4.77387E-14
 -1      3479 9.76148E-03-5.39261E-04-4.54840E-14
 -1      3480 1.01108E-02-6.13814E-04-4.93305E-14
 -1      3481 1.02508E-02-6.30821E-04-5.09446E-14
 -1      3482 1.00369E-02-5.72636E-04-4.86191E-14
 -1      3483 1.03911E-02-6.47681E-04-5.25829E-14
 -1      3484 1.05317E-02-6.64397E-04-5.42463E-14
 -1      3485 1.03148E-02-6.05839E-04-5.18491E-14
 -1      3486 1.06727E-02-6.80911E-04-5.59316E-14
 -1      3487 1.08140E-02-6.97232E-04-5.76384E-14
 -1      3488 1.05946E-02-6.38544E-04-5.51737E-14
 -1      3489 1.09554E-02-7.13329E-04-5.93707E-14
 -1      3490 1.10972E-02-7.29214E-04-6.11270E-14
 -1      3491 1.08759E-02-6.70560E-04-5.85919E-14
 -1      3492 1.12390E-02-7.44873E-04-6.29073E-14
 -1      3493 1.13811E-02-7.60322E-04-6.47113E-14
 -1      3494 1.11585E-02-7.01804E-04-6.21045E-14
 -1      3495 1.15233E-02-7.75557E-04-6.65328E-14
 -1      3496 1.16656E-02-7.90595E-04-6.83745E-14
 -1      3497 1.14419E-02-7.32269E-04-6.57087E-14
 -1      3498 1.18080E-02-8.05441E-04-7.02388E-14
 -1      3499 1.19505E-02-8.20111E-04-7.21204E-14
 -1      3500 1.17261E-02-7.61999E-04-6.93972E-14
 -1      3501 1.20931E-02-8.34614E-04-7.40178E-14
 -1      3502 1.22357E-02-8.48963E-04-7.59331E-14
 -1      3503 1.20108E-02-7.91064E-04-7.31615E-14
 -1      3504 1.23784E-02-8.63172E-04-7.78650E-14
 -1      3505 1.25211E-02-8.77252E-04-7.98160E-14
 -1      3506 1.22958E-02-8.19551E-04-7.69951E-14
 -1      3507 1.26639E-02-8.91216E-04-8.17811E-14
 -1      3508 1.28066E-02-9.05074E-04-8.37600E-14
 -1      3509 1.25811E-02-8.47549E-04-8.08963E-14
 -1      3510 1.29494E-02-9.18839E-04-8.57570E-14
 -1      3511 1.30923E-02-9.32520E-04-8.77672E-14
 -1      3512 1.28666E-02-8.75143E-04-8.48601E-14
 -1      3513 1.32351E-02-9.46128E-04-8.97893E-14
 -1      3514 1.33780E-02-9.59671E-04-9.18249E-14
 -1      3515 1.31522E-02-9.02415E-04-8.88782E-14
 -1      3516 1.35208E-02-9.73159E-04-9.38726E-14
 -1      3517 1.36637E-02-9.86598E-04-9.59357E-14
 -1      3518 1.34378E-02-9.29434E-04-9.29493E-14
 -1      3519 3.10257E-03 2.83258E-04-5.58478E-15
 -1      3520 2.95289E-03 2.75502E-04-5.09391E-15
 -1      3521 3.77971E-03-3.35369E-04-8.56787E-15
 -1      3522 3.58214E-03-2.45784E-04-8.30445E-15
 -1      3523 3.44517E-03-1.83336E-04-8.24210E-15
 -1      3524 4.11993E-03 4.17265E-04-9.20481E-15
 -1      3525 3.94281E-03 3.75477E-04-8.56814E-15
 -1      3526 5.42119E-03 8.76253E-04-1.44372E-14
 -1      3527 7.34058E-03 2.34645E-04-2.55483E-14
 -1      3528 7.16796E-03 2.84167E-04-2.43641E-14
 -1      3529 7.66988E-03 1.58627E-04-2.79956E-14
 -1      3530 7.50808E-03 1.93639E-04-2.67595E-14
 -1      3531 7.48295E-03 1.56035E-04-2.61693E-14
 -1      3532 7.98078E-03 1.04451E-04-3.05434E-14
 -1      3533 7.82731E-03 1.29542E-04-2.92564E-14
 -1      3534 7.80140E-03 9.38348E-05-2.86407E-14
 -1      3535 8.27901E-03 6.46319E-05-3.31900E-14
 -1      3536 8.13115E-03 8.32118E-05-3.18548E-14
 -1      3537 8.10195E-03 5.00103E-05-3.12105E-14
 -1      3538 8.56933E-03 3.41660E-05-3.59350E-14
 -1      3539 8.42490E-03 4.85253E-05-3.45506E-14
 -1      3540 8.39141E-03 1.72479E-05-3.38800E-14
 -1      3541 8.85518E-03 9.65916E-06-3.87759E-14
 -1      3542 8.71263E-03 2.13538E-05-3.73423E-14
 -1      3543 8.67470E-03-8.74415E-06-3.66457E-14
 -1      3544 9.13879E-03-1.12231E-05-4.17123E-14
 -1      3545 8.99714E-03-1.11437E-06-4.02324E-14
 -1      3546 8.95505E-03-3.06410E-05-3.95060E-14
 -1      3547 9.42154E-03-3.01196E-05-4.47481E-14
 -1      3548 9.28020E-03-2.08417E-05-4.32197E-14
 -1      3549 9.23439E-03-5.02059E-05-4.24626E-14
 -1      3550 9.70419E-03-4.81732E-05-4.78814E-14
 -1      3551 9.56283E-03-3.92014E-05-4.63033E-14
 -1      3552 9.51385E-03-6.86379E-05-4.55184E-14
 -1      3553 9.98712E-03-6.61667E-05-5.11083E-14
 -1      3554 9.84559E-03-5.71462E-05-4.94815E-14
 -1      3555 9.79396E-03-8.67638E-05-4.86700E-14
 -1      3556 1.02705E-02-8.46067E-05-5.44308E-14
 -1      3557 1.01287E-02-7.53133E-05-5.27583E-14
 -1      3558 1.00749E-02-1.05144E-04-5.19167E-14
 -1      3559 1.05543E-02-1.03791E-04-5.78461E-14
 -1      3560 1.04123E-02-9.40977E-05-5.61272E-14
 -1      3561 1.03568E-02-1.24132E-04-5.52596E-14
 -1      3562 1.08386E-02-1.23864E-04-6.13568E-14
 -1      3563 1.06964E-02-1.13715E-04-5.95896E-14
 -1      3564 1.06396E-02-1.43922E-04-5.86968E-14
 -1      3565 1.11233E-02-1.44864E-04-6.49604E-14
 -1      3566 1.09809E-02-1.34250E-04-6.31477E-14
 -1      3567 1.09231E-02-1.64595E-04-6.22272E-14
 -1      3568 1.14083E-02-1.66759E-04-6.86497E-14
 -1      3569 1.12658E-02-1.55705E-04-6.67948E-14
 -1      3570 1.12071E-02-1.86150E-04-6.58500E-14
 -1      3571 1.16935E-02-1.89475E-04-7.24196E-14
 -1      3572 1.15509E-02-1.78021E-04-7.05257E-14
 -1      3573 1.14917E-02-2.08537E-04-6.95565E-14
 -1      3574 1.19789E-02-2.12915E-04-7.62700E-14
 -1      3575 1.18362E-02-2.01111E-04-7.43338E-14
 -1      3576 1.17766E-02-2.31673E-04-7.33424E-14
 -1      3577 1.22644E-02-2.36974E-04-8.01941E-14
 -1      3578 1.21216E-02-2.24873E-04-7.82246E-14
 -1      3579 1.20618E-02-2.55462E-04-7.72063E-14
 -1      3580 1.25500E-02-2.61548E-04-8.41794E-14
 -1      3581 1.24072E-02-2.49202E-04-8.21798E-14
 -1      3582 1.23472E-02-2.79805E-04-8.11432E-14
 -1      3583 1.28357E-02-2.86540E-04-8.82195E-14
 -1      3584 1.26929E-02-2.73997E-04-8.61927E-14
 -1      3585 1.26327E-02-3.04604E-04-8.51382E-14
 -1      3586 1.31214E-02-3.11863E-04-9.23054E-14
 -1      3587 1.29785E-02-2.99165E-04-9.02555E-14
 -1      3588 1.29183E-02-3.29772E-04-8.91849E-14
 -1      3589 1.34071E-02-3.37439E-04-9.64297E-14
 -1      3590 1.32643E-02-3.24624E-04-9.43638E-14
 -1      3591 1.32040E-02-3.55229E-04-9.32794E-14
 -1      3592 1.36929E-02-3.63198E-04-1.00588E-13
 -1      3593 1.35500E-02-3.50299E-04-9.85060E-14
 -1      3594 1.34897E-02-3.80903E-04-9.74109E-14
 -1      3595 1.94193E-03 2.51241E-04-2.30474E-15
 -1      3596 1.79948E-03 2.46720E-04-1.99793E-15
 -1      3597 6.64939E-03 4.59848E-04-2.10741E-14
 -1      3598 6.84279E-03 3.67093E-04-2.20888E-14
 -1      3599 1.40131E-02-4.28762E-04-1.05049E-13
 -1      3600 1.40087E-02-3.93905E-04-1.05200E-13
 -1      3601 1.39195E-02-3.82731E-04-1.03911E-13
 -1      3602 1.38957E-02-4.38402E-04-1.03201E-13
 -1      3603 1.05765E-03-1.77659E-04-7.90438E-16
 -1      3604 1.17179E-03-1.75155E-04-9.66593E-16
 -1      3605 6.34790E-03-1.00238E-03-1.82588E-14
 -1      3606 7.94314E-03-3.10477E-04-2.58956E-14
 -1      3607 7.81675E-03-3.58793E-04-2.53933E-14
 -1      3608 7.02712E-03 2.98770E-04-2.32184E-14
 -1      3609 1.39081E-02-9.36831E-04-1.00021E-13
 -1      3610 1.38950E-02-8.94761E-04-1.00128E-13
 -1      3611 4.66283E-03 6.29178E-04-1.10770E-14
 -1      3612 8.03282E-03-1.94213E-04-2.55598E-14
 -1      3613 8.09469E-03-2.10405E-04-2.61575E-14
 -1      3614 7.87373E-03-4.03946E-04-2.63580E-14
 -1      3615 8.01429E-03-4.01915E-04-2.75612E-14
 -1      3616 6.09057E-03 7.39128E-04-1.80973E-14
 -1      3617 8.20012E-03-4.17173E-04-2.93149E-14
 -1      3618 8.33638E-03-4.23345E-04-3.05798E-14
 -1      3619 8.43227E-03-3.93820E-04-3.12976E-14
 -1      3620 3.35649E-03-1.40769E-04-8.32416E-15
 -1      3621 3.31666E-03-1.19217E-04-8.48589E-15
 -1      3622 3.24415E-03-1.08512E-04-8.12746E-15
 -1      3623 1.55337E-03-2.07397E-04-1.59796E-15
 -1      3624 1.69263E-03-2.13588E-04-1.87300E-15
 -1      3625 4.46421E-03 5.14561E-04-1.04808E-14
 -1      3626 1.83150E-03-2.18398E-04-2.17038E-15
 -1      3627 1.97001E-03-2.22008E-04-2.48960E-15
 -1      3628 2.01839E-03-1.94013E-04-2.68234E-15
 -1      3629 1.29262E-03-1.87951E-04-1.14787E-15
 -1      3630 1.43187E-03-1.97385E-04-1.38161E-15
 -1      3631 1.48754E-03-1.73847E-04-1.52517E-15
 -1      3632 1.24812E-03-1.53806E-04-1.11799E-15
 -1      3633 7.93022E-03-1.53785E-04-2.57133E-14
 -1      3634 7.99022E-03-1.76666E-04-2.56377E-14
 -1      3635 8.06392E-03-1.82100E-04-2.65957E-14
 -1      3636 7.71992E-03-4.23528E-04-2.52403E-14
 -1      3637 3.64432E-03 1.12497E-04-8.60752E-15
 -1      3638 3.79526E-03 1.76456E-04-8.88964E-15
 -1      3639 3.60037E-03-2.82480E-04-8.06095E-15
 -1      3640 6.27077E-03 6.60101E-04-1.91094E-14
 -1      3641 4.27664E-03 4.53441E-04-9.79472E-15
 -1      3642 1.74509E-03-1.87349E-04-2.04082E-15
 -1      3643 5.59217E-03 8.80155E-04-1.53466E-14
 -1      3644 2.80532E-03 2.69986E-04-4.62624E-15
 -1      3645 2.65935E-03 2.65848E-04-4.18220E-15
 -1      3646 2.84580E-03 2.32308E-04-4.89561E-15
 -1      3647 2.46850E-03 2.98091E-04-3.51902E-15
 -1      3648 3.23076E-03-7.80600E-05-8.33464E-15
 -1      3649 3.22814E-03-6.54891E-05-8.19313E-15
 -1      3650 3.20670E-03-8.31877E-05-8.14481E-15
 -1      3651 3.83283E-03 2.36294E-04-8.72674E-15
 -1      3652 3.45588E-03-2.63784E-04-7.47568E-15
 -1      3653 1.21909E-03-6.07474E-05-1.15554E-15
 -1      3654 1.22476E-03-8.52408E-05-1.14885E-15
 -1      3655 1.09966E-03-2.32249E-05-9.73451E-16
 -1      3656 1.67644E-03 2.45259E-04-1.74361E-15
 -1      3657 1.55321E-03 2.42394E-04-1.50704E-15
 -1      3658 1.73038E-03 2.16722E-04-1.91179E-15
 -1      3659 1.38305E-02-6.85940E-04-1.00603E-13
 -1      3660 1.38176E-02-6.43898E-04-1.00690E-13
 -1      3661 3.25503E-03 2.93583E-04-6.09747E-15
 -1      3662 3.13942E-03 2.42896E-04-5.87682E-15
 -1      3663 3.41079E-03 3.07875E-04-6.63288E-15
 -1      3664 1.37730E-02-1.00458E-03-9.74632E-14
 -1      3665 1.38985E-02-1.01941E-03-9.92664E-14
 -1      3666 1.39087E-02-9.96768E-04-9.95898E-14
 -1      3667 1.36900E-02-9.60847E-04-9.65245E-14
 -1      3668 3.80874E-03 2.91583E-04-8.34126E-15
 -1      3669 3.74118E-03 3.45280E-04-7.82176E-15
 -1      3670 3.57654E-03 3.20657E-04-7.23733E-15
 -1      3671 3.64131E-03 2.16191E-04-7.98108E-15
 -1      3672 3.25443E-03-3.64134E-05-8.02737E-15
 -1      3673 3.30857E-03-2.46317E-05-8.17308E-15
 -1      3674 3.28956E-03 2.53240E-06-7.81818E-15
 -1      3675 3.36436E-03 5.85380E-05-7.72141E-15
 -1      3676 3.49883E-03 8.08223E-05-8.15828E-15
 -1      3677 3.50869E-03 1.25352E-04-7.91156E-15
 -1      3678 3.31918E-03-2.14405E-04-7.22343E-15
 -1      3679 7.57943E-03-1.37922E-05-2.48963E-14
 -1      3680 7.68486E-03-4.23250E-05-2.55204E-14
 -1      3681 7.47972E-03 4.81547E-05-2.48369E-14
 -1      3682 2.08452E-03 2.54769E-04-2.63434E-15
 -1      3683 1.99316E-03 2.20161E-04-2.49783E-15
 -1      3684 2.22743E-03 2.57596E-04-2.98726E-15
 -1      3685 1.38304E-02-3.71567E-04-1.02622E-13
 -1      3686 1.37649E-02-8.62583E-04-9.83755E-14
 -1      3687 1.38820E-02-8.53057E-04-1.00227E-13
 -1      3688 1.38691E-02-8.11361E-04-1.00324E-13
 -1      3689 1.37582E-02-4.29997E-04-1.01167E-13
 -1      3690 1.37701E-02-4.02176E-04-1.01520E-13
 -1      3691 7.18440E-03 2.04007E-04-2.38080E-14
 -1      3692 7.33328E-03 1.43984E-04-2.45962E-14
 -1      3693 8.05324E-03-2.94356E-04-2.67315E-14
 -1      3694 8.07292E-03-3.28893E-04-2.73602E-14
 -1      3695 8.15107E-03-2.84762E-04-2.75780E-14
 -1      3696 3.33938E-03-1.62652E-04-7.89061E-15
 -1      3697 6.45922E-03 5.45603E-04-2.00029E-14
 -1      3698 8.12805E-03-3.64261E-04-2.82387E-14
 -1      3699 7.90705E-03-1.30402E-04-2.61231E-14
 -1      3700 1.27104E-03 1.97715E-04-1.07947E-15
 -1      3701 1.25788E-03 1.66963E-04-1.10003E-15
 -1      3702 1.38433E-02-7.27626E-04-1.00516E-13
 -1      3703 1.37131E-02-6.95220E-04-9.87590E-14
 -1      3704 1.38561E-02-7.69313E-04-1.00421E-13
 -1      3705 1.37576E-02-4.71561E-04-1.00896E-13
 -1      3706 1.36320E-02-4.35356E-04-9.92226E-14
 -1      3707 1.23042E-03-1.05488E-04-1.14100E-15
 -1      3708 1.23967E-03-1.31793E-04-1.12982E-15
 -1      3709 1.35807E-03-1.41306E-04-1.32687E-15
 -1      3710 1.34288E-03-9.76832E-05-1.34770E-15
 -1      3711 1.37703E-02-5.13539E-04-1.00824E-13
 -1      3712 1.39188E-02-9.74124E-04-9.99129E-14
 -1      3713 8.14953E-03-2.13342E-04-2.70441E-14
 -1      3714 8.13305E-03-2.23751E-04-2.66800E-14
 -1      3715 8.16795E-03-2.41165E-04-2.72565E-14
 -1      3716 1.22795E-03 8.39851E-05-1.14181E-15
 -1      3717 1.22153E-03 5.87766E-05-1.15038E-15
 -1      3718 1.21696E-03 3.42947E-05-1.15642E-15
 -1      3719 1.21441E-03 1.03550E-05-1.15978E-15
 -1      3720 1.33470E-03 4.83375E-05-1.35624E-15
 -1      3721 1.37886E-02-9.41535E-04-9.81665E-14
 -1      3722 2.46218E-03-1.71566E-04-4.04300E-15
 -1      3723 2.59142E-03-1.72977E-04-4.47500E-15
 -1      3724 2.71902E-03-1.74747E-04-4.92901E-15
 -1      3725 2.84550E-03-1.76852E-04-5.40525E-15
 -1      3726 2.62710E-03-1.46148E-04-4.72162E-15
 -1      3727 2.97025E-03-1.79664E-04-5.90339E-15
 -1      3728 3.09432E-03-1.83255E-04-6.42374E-15
 -1      3729 2.87087E-03-1.49437E-04-5.67535E-15
 -1      3730 1.21389E-03-1.32169E-05-1.16088E-15
 -1      3731 1.21545E-03-3.68480E-05-1.15962E-15
 -1      3732 1.33223E-03-5.15629E-05-1.36107E-15
 -1      3733 1.32881E-03-1.96113E-06-1.36413E-15
 -1      3734 3.18188E-03-1.09300E-04-7.64234E-15
 -1      3735 3.17380E-03-9.41924E-05-7.79514E-15
 -1      3736 2.51461E-03 2.62751E-04-3.76104E-15
 -1      3737 2.37070E-03 2.60127E-04-3.36259E-15
 -1      3738 2.27538E-03 2.24261E-04-3.20611E-15
 -1      3739 8.89895E-03-4.08011E-04-3.60555E-14
 -1      3740 9.02804E-03-4.22387E-04-3.74501E-14
 -1      3741 9.15833E-03-4.37212E-04-3.88689E-14
 -1      3742 9.28994E-03-4.52539E-04-4.03149E-14
 -1      3743 9.09760E-03-4.01821E-04-3.82301E-14
 -1      3744 9.42266E-03-4.68142E-04-4.17848E-14
 -1      3745 9.55651E-03-4.84059E-04-4.32780E-14
 -1      3746 9.35689E-03-4.31478E-04-4.11205E-14
 -1      3747 9.69132E-03-5.00102E-04-4.47982E-14
 -1      3748 9.82709E-03-5.16298E-04-4.63410E-14
 -1      3749 9.62160E-03-4.62181E-04-4.41110E-14
 -1      3750 9.96367E-03-5.32499E-04-4.79084E-14
 -1      3751 1.01010E-02-5.48727E-04-4.94998E-14
 -1      3752 9.89081E-03-4.93429E-04-4.71997E-14
 -1      3753 1.02391E-02-5.64871E-04-5.11155E-14
 -1      3754 1.03778E-02-5.80953E-04-5.27533E-14
 -1      3755 1.01637E-02-5.24805E-04-5.03817E-14
 -1      3756 1.05170E-02-5.96895E-04-5.44142E-14
 -1      3757 1.06567E-02-6.12718E-04-5.61027E-14
 -1      3758 1.04397E-02-5.55996E-04-5.36591E-14
 -1      3759 1.07968E-02-6.28370E-04-5.78127E-14
 -1      3760 1.09374E-02-6.43872E-04-5.95459E-14
 -1      3761 1.07180E-02-5.86792E-04-5.70337E-14
 -1      3762 1.10783E-02-6.59194E-04-6.13034E-14
 -1      3763 1.12194E-02-6.74356E-04-6.30838E-14
 -1      3764 1.09983E-02-6.17076E-04-6.05038E-14
 -1      3765 1.13609E-02-6.89341E-04-6.48863E-14
 -1      3766 1.15025E-02-7.04168E-04-6.67098E-14
 -1      3767 1.12800E-02-6.46800E-04-6.40638E-14
 -1      3768 1.16444E-02-7.18832E-04-6.85538E-14
 -1      3769 1.17864E-02-7.33350E-04-7.04198E-14
 -1      3770 1.15629E-02-6.75966E-04-6.77138E-14
 -1      3771 1.19286E-02-7.47723E-04-7.23043E-14
 -1      3772 1.20709E-02-7.61966E-04-7.42050E-14
 -1      3773 1.18466E-02-7.04612E-04-7.14448E-14
 -1      3774 1.22133E-02-7.76085E-04-7.61229E-14
 -1      3775 1.23559E-02-7.90091E-04-7.80599E-14
 -1      3776 1.21310E-02-7.32791E-04-7.52512E-14
 -1      3777 1.24984E-02-8.03994E-04-8.00093E-14
 -1      3778 1.26411E-02-8.17804E-04-8.19764E-14
 -1      3779 1.24159E-02-7.60567E-04-7.91232E-14
 -1      3780 1.27838E-02-8.31528E-04-8.39608E-14
 -1      3781 1.29265E-02-8.45177E-04-8.59569E-14
 -1      3782 1.27010E-02-7.88005E-04-8.30588E-14
 -1      3783 1.30693E-02-8.58758E-04-8.79668E-14
 -1      3784 1.32121E-02-8.72280E-04-8.99888E-14
 -1      3785 1.29864E-02-8.15167E-04-8.70540E-14
 -1      3786 1.33549E-02-8.85749E-04-9.20230E-14
 -1      3787 1.34977E-02-8.99172E-04-9.40707E-14
 -1      3788 1.32720E-02-8.42110E-04-9.10986E-14
 -1      3789 1.36792E-02-9.23590E-04-9.66348E-14
 -1      3790 1.24622E-03 1.37903E-04-1.11689E-15
 -1      3791 1.23625E-03 1.10281E-04-1.13090E-15
 -1      3792 1.34931E-03 1.01512E-04-1.33721E-15
 -1      3793 1.37168E-03 1.59380E-04-1.30622E-15
 -1      3794 7.93182E-03 3.47603E-05-2.92852E-14
 -1      3795 7.78221E-03 5.69401E-05-2.80262E-14
 -1      3796 8.50075E-03-2.66173E-05-3.45702E-14
 -1      3797 8.36124E-03-1.38074E-05-3.32119E-14
 -1      3798 8.77717E-03-4.91305E-05-3.73546E-14
 -1      3799 8.63919E-03-3.82512E-05-3.59499E-14
 -1      3800 8.60609E-03-6.72186E-05-3.52584E-14
 -1      3801 9.05238E-03-6.91850E-05-4.02352E-14
 -1      3802 8.91477E-03-5.93704E-05-3.87833E-14
 -1      3803 8.87625E-03-8.73178E-05-3.80641E-14
 -1      3804 9.32790E-03-8.79989E-05-4.32111E-14
 -1      3805 9.19001E-03-7.86957E-05-4.17105E-14
 -1      3806 9.14695E-03-1.06297E-04-4.09636E-14
 -1      3807 9.60448E-03-1.06366E-04-4.62875E-14
 -1      3808 9.46601E-03-9.72070E-05-4.47386E-14
 -1      3809 9.41920E-03-1.24883E-04-4.39610E-14
 -1      3810 9.88242E-03-1.24844E-04-4.94580E-14
 -1      3811 9.74326E-03-1.15573E-04-4.78606E-14
 -1      3812 9.69339E-03-1.43541E-04-4.70559E-14
 -1      3813 1.01618E-02-1.43805E-04-5.27258E-14
 -1      3814 1.00219E-02-1.34256E-04-5.10801E-14
 -1      3815 9.96958E-03-1.62610E-04-5.02466E-14
 -1      3816 1.04425E-02-1.63472E-04-5.60901E-14
 -1      3817 1.03020E-02-1.53548E-04-5.43957E-14
 -1      3818 1.02476E-02-1.82307E-04-5.35357E-14
 -1      3819 1.07243E-02-1.83956E-04-5.95491E-14
 -1      3820 1.05833E-02-1.73614E-04-5.78081E-14
 -1      3821 1.05274E-02-2.02751E-04-5.69220E-14
 -1      3822 1.10071E-02-2.05285E-04-6.30994E-14
 -1      3823 1.08656E-02-1.94519E-04-6.13113E-14
 -1      3824 1.08085E-02-2.23988E-04-6.03998E-14
 -1      3825 1.12907E-02-2.27431E-04-6.67379E-14
 -1      3826 1.11488E-02-2.16262E-04-6.49073E-14
 -1      3827 1.10908E-02-2.46008E-04-6.39689E-14
 -1      3828 1.15749E-02-2.50330E-04-7.04620E-14
 -1      3829 1.14328E-02-2.38793E-04-6.85898E-14
 -1      3830 1.13741E-02-2.68761E-04-6.76268E-14
 -1      3831 1.18596E-02-2.73897E-04-7.42642E-14
 -1      3832 1.17172E-02-2.62037E-04-7.23545E-14
 -1      3833 1.16580E-02-2.92178E-04-7.13677E-14
 -1      3834 1.21447E-02-2.98040E-04-7.81426E-14
 -1      3835 1.20021E-02-2.85903E-04-7.61932E-14
 -1      3836 1.19425E-02-3.16175E-04-7.51852E-14
 -1      3837 1.24299E-02-3.22667E-04-8.20875E-14
 -1      3838 1.22873E-02-3.10299E-04-8.01074E-14
 -1      3839 1.22275E-02-3.40668E-04-7.90752E-14
 -1      3840 1.27154E-02-3.47690E-04-8.60947E-14
 -1      3841 1.25727E-02-3.35134E-04-8.40857E-14
 -1      3842 1.25127E-02-3.65573E-04-8.30356E-14
 -1      3843 1.30010E-02-3.73030E-04-9.01524E-14
 -1      3844 1.28582E-02-3.60325E-04-8.81168E-14
 -1      3845 1.27981E-02-3.90812E-04-8.70516E-14
 -1      3846 1.32867E-02-3.98617E-04-9.42526E-14
 -1      3847 1.31438E-02-3.85796E-04-9.21962E-14
 -1      3848 1.30837E-02-4.16318E-04-9.11171E-14
 -1      3849 1.34891E-02-4.22434E-04-9.71464E-14
 -1      3850 1.36875E-02-6.11639E-04-9.89297E-14
 -1      3851 1.38047E-02-6.01940E-04-1.00772E-13
 -1      3852 1.37919E-02-5.59977E-04-1.00851E-13
 -1      3853 3.27514E-03-1.73108E-04-7.39769E-15
 -1      3854 3.21099E-03-1.35468E-04-7.47767E-15
 -1      3855 3.12060E-03-1.17586E-04-7.16217E-15
 -1      3856 3.17747E-03-1.81027E-04-6.83354E-15
 -1      3857 7.46226E-03 1.29981E-04-2.56939E-14
 -1      3858 7.48612E-03 7.70491E-05-2.53099E-14
 -1      3859 7.59556E-03 4.14894E-05-2.59412E-14
 -1      3860 7.62396E-03 9.61994E-05-2.69070E-14
 -1      3861 1.93268E-03-1.64628E-04-2.53435E-15
 -1      3862 2.06681E-03-1.66873E-04-2.87845E-15
 -1      3863 8.64494E-03-3.81269E-04-3.33396E-14
 -1      3864 8.77135E-03-3.94336E-04-3.46856E-14
 -1      3865 8.84475E-03-3.73743E-04-3.54385E-14
 -1      3866 1.32545E-03 2.36204E-04-1.11144E-15
 -1      3867 1.44038E-03 2.28694E-04-1.32254E-15
 -1      3868 7.89064E-03-1.01130E-04-2.66772E-14
 -1      3869 8.00684E-03-1.35909E-04-2.72346E-14
 -1      3870 8.39626E-03-3.57741E-04-3.07205E-14
 -1      3871 8.52012E-03-3.69084E-04-3.20169E-14
 -1      3872 8.59942E-03-3.47629E-04-3.27415E-14
 -1      3873 8.22045E-03 2.43620E-07-3.18781E-14
 -1      3874 8.07744E-03 1.64243E-05-3.05702E-14
 -1      3875 8.05797E-03-1.78099E-05-2.99312E-14
 -1      3876 8.33452E-03-4.47803E-05-3.25461E-14
 -1      3877 1.66196E-03-1.57723E-04-1.91172E-15
 -1      3878 1.79771E-03-1.61602E-04-2.21199E-15
 -1      3879 1.85068E-03-1.36345E-04-2.38686E-15
 -1      3880 2.19981E-03-1.68700E-04-3.24418E-15
 -1      3881 2.33171E-03-1.70137E-04-3.63258E-15
 -1      3882 2.11553E-03-1.40629E-04-3.07760E-15
 -1      3883 1.36530E-02-5.23305E-04-9.89836E-14
 -1      3884 8.24605E-03-2.45003E-04-2.82865E-14
 -1      3885 8.21111E-03-2.60639E-04-2.79613E-14
 -1      3886 8.15893E-03-2.01732E-04-2.74562E-14
 -1      3887 8.21359E-03-2.16038E-04-2.79927E-14
 -1      3888 8.23720E-03-3.49306E-04-2.91134E-14
 -1      3889 8.12824E-03-1.83747E-04-2.75382E-14
 -1      3890 1.49656E-03 2.03186E-04-1.46850E-15
 -1      3891 1.35963E-02-8.79906E-04-9.56980E-14
 -1      3892 1.34289E-02-4.52983E-04-9.60512E-14
 -1      3893 2.88333E-03 1.94434E-04-5.16583E-15
 -1      3894 2.74175E-03 1.92815E-04-4.69714E-15
 -1      3895 1.45074E-03-1.46153E-04-1.49501E-15
 -1      3896 1.56943E-03-1.54116E-04-1.72079E-15
 -1      3897 1.62527E-03-1.30412E-04-1.87532E-15
 -1      3898 1.44173E-03-1.23351E-04-1.50723E-15
 -1      3899 3.14390E-03-8.23000E-05-7.66116E-15
 -1      3900 1.44546E-03-4.11273E-05-1.58302E-15
 -1      3901 1.44994E-03-6.71230E-05-1.57808E-15
 -1      3902 3.45033E-03 2.58784E-04-6.99229E-15
 -1      3903 7.76500E-03 3.09404E-05-2.75314E-14
 -1      3904 2.55892E-03 2.27334E-04-4.00531E-15
 -1      3905 1.76114E-03 1.86101E-04-2.03811E-15
 -1      3906 1.64029E-03 1.85781E-04-1.78197E-15
 -1      3907 2.37485E-03-1.43506E-04-3.85559E-15
 -1      3908 3.17181E-03 2.01784E-04-6.17000E-15
 -1      3909 3.02630E-03 1.97115E-04-5.65699E-15
 -1      3910 2.91768E-03 1.56261E-04-5.43740E-15
 -1      3911 8.24580E-03-2.87279E-04-2.86130E-14
 -1      3912 8.32869E-03-3.24367E-04-2.98032E-14
 -1      3913 1.34505E-02-4.99342E-04-9.60856E-14
 -1      3914 1.32481E-02-4.75446E-04-9.32016E-14
 -1      3915 1.34722E-02-5.45687E-04-9.61147E-14
 -1      3916 7.80693E-03-5.66326E-05-2.66220E-14
 -1      3917 1.34979E-02-6.29430E-04-9.59517E-14
 -1      3918 1.34850E-02-5.87563E-04-9.60341E-14
 -1      3919 1.32826E-02-5.63532E-04-9.31559E-14
 -1      3920 3.06910E-03-1.48666E-04-6.58620E-15
 -1      3921 1.47234E-03 1.19604E-04-1.54735E-15
 -1      3922 1.46194E-03 9.08505E-05-1.56116E-15
 -1      3923 1.35834E-02-8.38268E-04-9.58005E-14
 -1      3924 8.13142E-03-1.64178E-04-2.81129E-14
 -1      3925 8.24076E-03-1.87213E-04-2.89988E-14
 -1      3926 8.13322E-03-1.40833E-04-2.86902E-14
 -1      3927 1.37389E-02-7.78889E-04-9.85738E-14
 -1      3928 3.23710E-03 1.91903E-05-7.44640E-15
 -1      3929 3.29853E-03 3.70301E-05-7.58366E-15
 -1      3930 3.30350E-03 7.50347E-05-7.34851E-15
 -1      3931 1.57402E-03 7.86525E-05-1.80193E-15
 -1      3932 1.45368E-03 6.31981E-05-1.57156E-15
 -1      3933 1.44781E-03 3.63886E-05-1.57903E-15
 -1      3934 3.49437E-03 1.80140E-04-7.55051E-15
 -1      3935 3.15717E-03-5.44823E-05-7.66133E-15
 -1      3936 3.20176E-03-4.67663E-05-7.84369E-15
 -1      3937 3.17407E-03-2.48659E-05-7.49886E-15
 -1      3938 1.43418E-03-1.01310E-04-1.51745E-15
 -1      3939 1.54579E-03-9.12425E-05-1.75408E-15
 -1      3940 1.35235E-02-7.12624E-04-9.57765E-14
 -1      3941 1.35107E-02-6.71027E-04-9.58659E-14
 -1      3942 1.33083E-02-6.46856E-04-9.29913E-14
 -1      3943 2.03989E-03 1.91261E-04-2.67994E-15
 -1      3944 1.90051E-03 1.89210E-04-2.34783E-15
 -1      3945 1.81068E-03 1.59724E-04-2.19958E-15
 -1      3946 1.52979E-03 1.75143E-04-1.57834E-15
 -1      3947 8.27630E-03-2.33030E-04-2.87136E-14
 -1      3948 8.33463E-03-2.51499E-04-2.94397E-14
 -1      3949 8.29738E-03-2.21152E-04-2.91407E-14
 -1      3950 1.51557E-03 1.43703E-04-1.59881E-15
 -1      3951 1.44362E-03-1.54422E-05-1.58475E-15
 -1      3952 1.55886E-03-2.97934E-05-1.82081E-15
 -1      3953 1.44442E-03 1.03185E-05-1.58337E-15
 -1      3954 3.34114E-03 1.76407E-04-6.93960E-15
 -1      3955 2.78184E-03-1.22991E-04-5.44757E-15
 -1      3956 2.89672E-03-1.24597E-04-5.94687E-15
 -1      3957 3.21790E-03 1.28582E-04-6.69133E-15
 -1      3958 2.29319E-03-1.16868E-04-3.66925E-15
 -1      3959 2.41915E-03-1.18210E-04-4.08124E-15
 -1      3960 2.03568E-03-1.13667E-04-2.91156E-15
 -1      3961 2.16532E-03-1.15308E-04-3.27951E-15
 -1      3962 2.21665E-03-9.09068E-05-3.48412E-15
 -1      3963 2.31857E-03 1.93297E-04-3.41178E-15
 -1      3964 2.17918E-03 1.92557E-04-3.03419E-15
 -1      3965 2.08613E-03 1.62580E-04-2.86473E-15
 -1      3966 9.29090E-03-3.96216E-04-4.04583E-14
 -1      3967 9.42064E-03-4.10781E-04-4.19293E-14
 -1      3968 9.55179E-03-4.25492E-04-4.34248E-14
 -1      3969 9.68430E-03-4.40431E-04-4.49454E-14
 -1      3970 9.48157E-03-3.90015E-04-4.27385E-14
 -1      3971 9.81798E-03-4.55431E-04-4.64897E-14
 -1      3972 9.95276E-03-4.70550E-04-4.80570E-14
 -1      3973 9.74491E-03-4.18495E-04-4.57792E-14
 -1      3974 1.00885E-02-4.85658E-04-4.96491E-14
 -1      3975 1.02251E-02-5.00797E-04-5.12647E-14
 -1      3976 1.00132E-02-4.47430E-04-4.89167E-14
 -1      3977 1.03625E-02-5.15871E-04-5.29046E-14
 -1      3978 1.05006E-02-5.30913E-04-5.45678E-14
 -1      3979 1.02854E-02-4.76529E-04-5.21491E-14
 -1      3980 1.06394E-02-5.45856E-04-5.62542E-14
 -1      3981 1.07787E-02-5.60727E-04-5.79679E-14
 -1      3982 1.05608E-02-5.05576E-04-5.54781E-14
 -1      3983 1.09185E-02-5.75480E-04-5.97046E-14
 -1      3984 1.10587E-02-5.90140E-04-6.14634E-14
 -1      3985 1.08387E-02-5.34424E-04-5.89040E-14
 -1      3986 1.11993E-02-6.04677E-04-6.32450E-14
 -1      3987 1.13403E-02-6.19113E-04-6.50477E-14
 -1      3988 1.11187E-02-5.62992E-04-6.24249E-14
 -1      3989 1.14815E-02-6.33430E-04-6.68738E-14
 -1      3990 1.16230E-02-6.47647E-04-6.87193E-14
 -1      3991 1.14002E-02-5.91242E-04-6.60339E-14
 -1      3992 1.17648E-02-6.61756E-04-7.05869E-14
 -1      3993 1.19067E-02-6.75772E-04-7.24736E-14
 -1      3994 1.16830E-02-6.19172E-04-6.97285E-14
 -1      3995 1.20488E-02-6.89692E-04-7.43779E-14
 -1      3996 1.21910E-02-7.03530E-04-7.62991E-14
 -1      3997 1.19666E-02-6.46803E-04-7.35022E-14
 -1      3998 1.23334E-02-7.17286E-04-7.82357E-14
 -1      3999 1.24758E-02-7.30972E-04-8.01880E-14
 -1      4000 1.22510E-02-6.74164E-04-7.73467E-14
 -1      4001 1.26184E-02-7.44590E-04-8.21576E-14
 -1      4002 1.27610E-02-7.58149E-04-8.41426E-14
 -1      4003 1.25358E-02-7.01292E-04-8.12562E-14
 -1      4004 1.29037E-02-7.71654E-04-8.61399E-14
 -1      4005 1.30464E-02-7.85112E-04-8.81512E-14
 -1      4006 1.28209E-02-7.28228E-04-8.52249E-14
 -1      4007 1.31891E-02-7.98528E-04-9.01734E-14
 -1      4008 1.33319E-02-8.11905E-04-9.22074E-14
 -1      4009 1.31063E-02-7.55006E-04-8.92473E-14
 -1      4010 9.23868E-03-1.42181E-04-4.16915E-14
 -1      4011 9.10486E-03-1.32866E-04-4.02202E-14
 -1      4012 8.97177E-03-1.23548E-04-3.87720E-14
 -1      4013 8.83914E-03-1.14238E-04-3.73470E-14
 -1      4014 9.06358E-03-1.58362E-04-3.94793E-14
 -1      4015 1.77234E-03-1.09180E-04-2.24086E-15
 -1      4016 1.90463E-03-1.11614E-04-2.56526E-15
 -1      4017 1.95986E-03-8.73723E-05-2.74657E-15
 -1      4018 2.97506E-03-1.22246E-04-6.34009E-15
 -1      4019 3.05012E-03-1.19429E-04-6.74519E-15
 -1      4020 2.89463E-03-9.82730E-05-6.09425E-15
 -1      4021 8.70711E-03-1.04834E-04-3.59454E-14
 -1      4022 8.57520E-03-9.52286E-05-3.45670E-14
 -1      4023 8.80330E-03-1.40122E-04-3.66326E-14
 -1      4024 9.50828E-03-1.61016E-04-4.47101E-14
 -1      4025 9.37312E-03-1.51572E-04-4.31881E-14
 -1      4026 9.32759E-03-1.77247E-04-4.24204E-14
 -1      4027 9.78059E-03-1.80283E-04-4.78241E-14
 -1      4028 9.64409E-03-1.70596E-04-4.62551E-14
 -1      4029 9.59521E-03-1.96710E-04-4.54580E-14
 -1      4030 1.00554E-02-2.00151E-04-5.10363E-14
 -1      4031 9.91770E-03-1.90146E-04-4.94180E-14
 -1      4032 9.86615E-03-2.16834E-04-4.85943E-14
 -1      4033 1.03325E-02-2.20718E-04-5.43461E-14
 -1      4034 1.01937E-02-2.10353E-04-5.26793E-14
 -1      4035 1.01401E-02-2.37657E-04-5.18273E-14
 -1      4036 1.06116E-02-2.42021E-04-5.77523E-14
 -1      4037 1.04718E-02-2.31284E-04-5.60367E-14
 -1      4038 1.04165E-02-2.59182E-04-5.51567E-14
 -1      4039 1.08922E-02-2.64059E-04-6.12509E-14
 -1      4040 1.07517E-02-2.52956E-04-5.94913E-14
 -1      4041 1.06951E-02-2.81392E-04-5.85839E-14
 -1      4042 1.11742E-02-2.86792E-04-6.48413E-14
 -1      4043 1.10331E-02-2.75346E-04-6.30359E-14
 -1      4044 1.09755E-02-3.04249E-04-6.21046E-14
 -1      4045 1.14572E-02-3.10162E-04-6.85162E-14
 -1      4046 1.13156E-02-2.98405E-04-6.66670E-14
 -1      4047 1.12572E-02-3.27699E-04-6.57134E-14
 -1      4048 1.17410E-02-3.34097E-04-7.22732E-14
 -1      4049 1.15990E-02-3.22066E-04-7.03852E-14
 -1      4050 1.15401E-02-3.51679E-04-6.94043E-14
 -1      4051 1.20254E-02-3.58520E-04-7.61058E-14
 -1      4052 1.18831E-02-3.46254E-04-7.41808E-14
 -1      4053 1.18238E-02-3.76119E-04-7.31777E-14
 -1      4054 1.23102E-02-3.83355E-04-8.00088E-14
 -1      4055 1.21678E-02-3.70891E-04-7.80492E-14
 -1      4056 1.21082E-02-4.00953E-04-7.70268E-14
 -1      4057 1.25954E-02-4.08529E-04-8.39806E-14
 -1      4058 1.24528E-02-3.95904E-04-8.19859E-14
 -1      4059 1.23930E-02-4.26114E-04-8.09424E-14
 -1      4060 1.28808E-02-4.33976E-04-8.80064E-14
 -1      4061 1.27381E-02-4.21222E-04-8.59867E-14
 -1      4062 1.26781E-02-4.51544E-04-8.49236E-14
 -1      4063 1.31358E-02-4.61099E-04-9.16165E-14
 -1      4064 1.29931E-02-4.48247E-04-8.95777E-14
 -1      4065 1.29330E-02-4.78636E-04-8.84992E-14
 -1      4066 1.31575E-02-5.07331E-04-9.16496E-14
 -1      4067 8.38566E-03-2.98347E-04-3.02091E-14
 -1      4068 2.64195E-03 1.56901E-04-4.50013E-15
 -1      4069 2.60140E-03 1.92062E-04-4.25173E-15
 -1      4070 2.46160E-03 1.91598E-04-3.82897E-15
 -1      4071 1.62769E-03 1.31723E-04-1.84535E-15
 -1      4072 1.35005E-02-7.94654E-04-9.48590E-14
 -1      4073 3.04119E-03-9.52787E-05-6.89990E-15
 -1      4074 3.06161E-03-7.99683E-05-7.11361E-15
 -1      4075 3.11124E-03-6.79248E-05-7.44700E-15
 -1      4076 3.06633E-03-5.08979E-05-7.11480E-15
 -1      4077 2.99238E-03-8.02282E-05-6.69969E-15
 -1      4078 8.79010E-03-3.41348E-04-3.48191E-14
 -1      4079 8.91225E-03-3.54579E-04-3.61917E-14
 -1      4080 9.03649E-03-3.68034E-04-3.75897E-14
 -1      4081 9.16283E-03-3.82009E-04-3.90111E-14
 -1      4082 9.22425E-03-3.62322E-04-3.97941E-14
 -1      4083 8.97449E-03-3.35884E-04-3.69478E-14
 -1      4084 8.55355E-03-3.16372E-04-3.21419E-14
 -1      4085 8.67053E-03-3.28766E-04-3.34699E-14
 -1      4086 8.73423E-03-3.10810E-04-3.41971E-14
 -1      4087 1.76442E-03 1.34300E-04-2.14015E-15
 -1      4088 1.72011E-03 1.09910E-04-2.07932E-15
 -1      4089 1.90096E-03 1.35787E-04-2.45748E-15
 -1      4090 8.45280E-03-2.81234E-04-3.09033E-14
 -1      4091 2.54271E-03-1.19743E-04-4.51515E-15
 -1      4092 2.66385E-03-1.21158E-04-4.97025E-15
 -1      4093 2.70249E-03-9.80763E-05-5.22075E-15
 -1      4094 1.63641E-03-9.37843E-05-1.94700E-15
 -1      4095 1.69551E-03-7.06701E-05-2.10412E-15
 -1      4096 1.56084E-03 2.33500E-05-1.81795E-15
 -1      4097 2.46518E-03-9.42919E-05-4.30878E-15
 -1      4098 2.36442E-03 1.60483E-04-3.63605E-15
 -1      4099 1.69031E-03-4.34436E-05-2.10956E-15
 -1      4100 1.82184E-03-5.74812E-05-2.41869E-15
 -1      4101 1.68846E-03-1.63348E-05-2.11142E-15
 -1      4102 8.48976E-03-2.67675E-04-3.13535E-14
 -1      4103 2.68076E-03 1.22349E-04-4.75066E-15
 -1      4104 2.54692E-03 1.24360E-04-4.30424E-15
 -1      4105 8.10251E-03-1.06417E-04-2.90201E-14
 -1      4106 8.23230E-03-1.38352E-04-2.99280E-14
 -1      4107 3.17302E-03 3.08515E-06-7.27335E-15
 -1      4108 3.17200E-03 3.48833E-05-7.04674E-15
 -1      4109 3.11496E-03-9.88144E-06-7.10084E-15
 -1      4110 8.20153E-03-6.93112E-05-3.07465E-14
 -1      4111 8.06805E-03-5.74245E-05-2.94605E-14
 -1      4112 1.70833E-03 7.98405E-05-2.09388E-15
 -1      4113 2.94851E-03 1.18566E-04-5.71162E-15
 -1      4114 2.81431E-03 1.20267E-04-5.21984E-15
 -1      4115 2.71779E-03 8.84951E-05-5.00365E-15
 -1      4116 7.95506E-03-5.71183E-05-2.82317E-14
 -1      4117 1.35365E-02-7.54579E-04-9.56810E-14
 -1      4118 8.45430E-03-8.77730E-05-3.33016E-14
 -1      4119 8.32237E-03-7.74971E-05-3.19691E-14
 -1      4120 8.32386E-03-1.11323E-04-3.14773E-14
 -1      4121 8.55667E-03-1.24468E-04-3.39662E-14
 -1      4122 7.75265E-03 4.03622E-06-2.70389E-14
 -1      4123 8.34368E-03-1.89199E-04-3.03372E-14
 -1      4124 8.32318E-03-2.06304E-04-2.97379E-14
 -1      4125 8.39902E-03-2.24807E-04-3.04825E-14
 -1      4126 1.31832E-02-5.90851E-04-9.14947E-14
 -1      4127 1.31703E-02-5.49098E-04-9.15739E-14
 -1      4128 1.30581E-02-5.34687E-04-8.99980E-14
 -1      4129 1.32088E-02-6.73805E-04-9.13254E-14
 -1      4130 1.31960E-02-6.32329E-04-9.14107E-14
 -1      4131 1.30838E-02-6.17816E-04-8.98380E-14
 -1      4132 1.32851E-02-7.28379E-04-9.20913E-14
 -1      4133 3.19885E-03 7.58004E-05-6.90165E-15
 -1      4134 3.04913E-03 1.06948E-04-6.14446E-15
 -1      4135 2.17285E-03 1.36194E-04-3.15813E-15
 -1      4136 2.03707E-03 1.36381E-04-2.79670E-15
 -1      4137 1.99024E-03 1.11277E-04-2.72677E-15
 -1      4138 2.14482E-03-6.54519E-05-3.30003E-15
 -1      4139 2.27055E-03-6.72912E-05-3.69085E-15
 -1      4140 2.63177E-03-7.41841E-05-4.99461E-15
 -1      4141 2.74535E-03-7.67425E-05-5.47300E-15
 -1      4142 1.91983E-03-6.05576E-05-2.66845E-15
 -1      4143 2.04882E-03-6.23904E-05-3.02133E-15
 -1      4144 2.10855E-03-3.89089E-05-3.21031E-15
 -1      4145 1.91583E-03-3.28380E-05-2.67272E-15
 -1      4146 9.67115E-03-3.82534E-04-4.50694E-14
 -1      4147 9.80367E-03-3.96267E-04-4.66142E-14
 -1      4148 9.93737E-03-4.10065E-04-4.81836E-14
 -1      4149 1.00722E-02-4.23995E-04-4.97772E-14
 -1      4150 9.86091E-03-3.73535E-04-4.74501E-14
 -1      4151 1.02079E-02-4.37940E-04-5.13951E-14
 -1      4152 1.03446E-02-4.51950E-04-5.30363E-14
 -1      4153 1.01301E-02-4.00088E-04-5.06393E-14
 -1      4154 1.04820E-02-4.65939E-04-5.47024E-14
 -1      4155 1.06202E-02-4.79945E-04-5.63912E-14
 -1      4156 1.04030E-02-4.26940E-04-5.39253E-14
 -1      4157 1.07589E-02-4.93908E-04-5.81054E-14
 -1      4158 1.08983E-02-5.07857E-04-5.98458E-14
 -1      4159 1.06790E-02-4.53933E-04-5.73079E-14
 -1      4160 1.10381E-02-5.21750E-04-6.16052E-14
 -1      4161 1.11783E-02-5.35611E-04-6.33892E-14
 -1      4162 1.09574E-02-4.80958E-04-6.07865E-14
 -1      4163 1.13190E-02-5.49412E-04-6.51970E-14
 -1      4164 1.14600E-02-5.63172E-04-6.70228E-14
 -1      4165 1.12377E-02-5.07950E-04-6.43567E-14
 -1      4166 1.16012E-02-5.76873E-04-6.88694E-14
 -1      4167 1.17428E-02-5.90532E-04-7.07387E-14
 -1      4168 1.15195E-02-5.34869E-04-6.80118E-14
 -1      4169 1.18845E-02-6.04135E-04-7.26253E-14
 -1      4170 1.20265E-02-6.17697E-04-7.45320E-14
 -1      4171 1.18024E-02-5.61700E-04-7.17487E-14
 -1      4172 1.21686E-02-6.31211E-04-7.64565E-14
 -1      4173 1.23108E-02-6.44688E-04-7.83943E-14
 -1      4174 1.20862E-02-5.88439E-04-7.55631E-14
 -1      4175 1.24532E-02-6.58124E-04-8.03528E-14
 -1      4176 1.25957E-02-6.71527E-04-8.23239E-14
 -1      4177 1.23707E-02-6.15091E-04-7.94459E-14
 -1      4178 1.27382E-02-6.84896E-04-8.43094E-14
 -1      4179 1.28809E-02-6.98239E-04-8.63081E-14
 -1      4180 1.26556E-02-6.41666E-04-8.33910E-14
 -1      4181 1.30301E-02-7.00482E-04-8.84904E-14
 -1      4182 1.31728E-02-7.13753E-04-9.05174E-14
 -1      4183 9.68006E-03-2.32131E-04-4.62073E-14
 -1      4184 9.54638E-03-2.21836E-04-4.46650E-14
 -1      4185 9.41377E-03-2.11716E-04-4.31477E-14
 -1      4186 9.28217E-03-2.01825E-04-4.16545E-14
 -1      4187 9.49739E-03-2.45953E-04-4.38742E-14
 -1      4188 8.50095E-03-2.50563E-04-3.15691E-14
 -1      4189 8.63447E-03-2.80756E-04-3.30841E-14
 -1      4190 8.74937E-03-2.92009E-04-3.44276E-14
 -1      4191 8.53876E-03-2.35427E-04-3.21931E-14
 -1      4192 1.69462E-03 3.85157E-05-2.10425E-15
 -1      4193 1.68992E-03 1.08356E-05-2.10964E-15
 -1      4194 1.81844E-03-2.40565E-06-2.42212E-15
 -1      4195 2.83391E-03-7.88461E-05-5.87783E-15
 -1      4196 2.91131E-03-7.76772E-05-6.26735E-15
 -1      4197 2.94401E-03-6.16072E-05-6.46882E-15
 -1      4198 2.77332E-03-5.57553E-05-5.63341E-15
 -1      4199 8.89472E-03-1.73493E-04-3.73188E-14
 -1      4200 8.76803E-03-1.64632E-04-3.59193E-14
 -1      4201 9.95017E-03-2.53320E-04-4.93628E-14
 -1      4202 9.81466E-03-2.42645E-04-4.77728E-14
 -1      4203 9.76303E-03-2.67558E-04-4.69554E-14
 -1      4204 1.02235E-02-2.75217E-04-5.26168E-14
 -1      4205 1.00865E-02-2.64193E-04-5.09783E-14
 -1      4206 1.00328E-02-2.89943E-04-5.01322E-14
 -1      4207 1.04997E-02-2.97767E-04-5.59675E-14
 -1      4208 1.03613E-02-2.86421E-04-5.42803E-14
 -1      4209 1.03060E-02-3.12983E-04-5.34069E-14
 -1      4210 1.07781E-02-3.20913E-04-5.94174E-14
 -1      4211 1.06386E-02-3.09274E-04-5.76802E-14
 -1      4212 1.05821E-02-3.36584E-04-5.67804E-14
 -1      4213 1.10583E-02-3.44596E-04-6.29576E-14
 -1      4214 1.09180E-02-3.32695E-04-6.11757E-14
 -1      4215 1.08605E-02-3.60665E-04-6.02505E-14
 -1      4216 1.13400E-02-3.68755E-04-6.65817E-14
 -1      4217 1.11990E-02-3.56623E-04-6.47600E-14
 -1      4218 1.11407E-02-3.85158E-04-6.38087E-14
 -1      4219 1.16228E-02-3.93329E-04-7.02942E-14
 -1      4220 1.14813E-02-3.80996E-04-6.84286E-14
 -1      4221 1.14225E-02-4.10003E-04-6.74544E-14
 -1      4222 1.19065E-02-4.18257E-04-7.40850E-14
 -1      4223 1.17646E-02-4.05754E-04-7.21790E-14
 -1      4224 1.17054E-02-4.35143E-04-7.11840E-14
 -1      4225 1.21908E-02-4.43482E-04-7.79441E-14
 -1      4226 1.20486E-02-4.30837E-04-7.60049E-14
 -1      4227 1.19891E-02-4.60531E-04-7.49887E-14
 -1      4228 1.24757E-02-4.68953E-04-8.18753E-14
 -1      4229 1.23332E-02-4.56190E-04-7.99034E-14
 -1      4230 1.22735E-02-4.86123E-04-7.88638E-14
 -1      4231 1.27608E-02-4.94622E-04-8.58683E-14
 -1      4232 1.26182E-02-4.81766E-04-8.38654E-14
 -1      4233 1.25583E-02-5.11880E-04-8.28088E-14
 -1      4234 8.32825E-03-1.38081E-04-3.10827E-14
 -1      4235 8.34378E-03-1.67755E-04-3.07370E-14
 -1      4236 8.43511E-03-1.89455E-04-3.14995E-14
 -1      4237 8.43959E-03-1.43704E-04-3.23100E-14
 -1      4238 1.83564E-03 6.71653E-05-2.40929E-15
 -1      4239 2.39387E-03-6.94592E-05-4.10368E-15
 -1      4240 2.51447E-03-7.15806E-05-4.53833E-15
 -1      4241 2.32762E-03-4.44584E-05-3.89979E-15
 -1      4242 9.15178E-03-1.92071E-04-4.01850E-14
 -1      4243 9.02256E-03-1.82635E-04-3.87403E-14
 -1      4244 8.98140E-03-2.05652E-04-3.80029E-14
 -1      4245 9.23659E-03-2.25283E-04-4.08910E-14
 -1      4246 9.41031E-03-3.55625E-04-4.20507E-14
 -1      4247 9.54000E-03-3.69022E-04-4.35478E-14
 -1      4248 9.59640E-03-3.47502E-04-4.43582E-14
 -1      4249 2.94431E-03 7.26093E-05-5.90667E-15
 -1      4250 2.42981E-03 1.29041E-04-3.92249E-15
 -1      4251 2.29147E-03 1.32475E-04-3.50176E-15
 -1      4252 2.24183E-03 1.06800E-04-3.42277E-15
 -1      4253 2.47363E-03 9.72288E-05-4.15339E-15
 -1      4254 2.98693E-03-4.57047E-05-6.67002E-15
 -1      4255 3.04104E-03-2.96522E-05-6.87049E-15
 -1      4256 2.90376E-03-4.17231E-05-6.23873E-15
 -1      4257 2.10328E-03 8.62858E-05-3.07546E-15
 -1      4258 1.97044E-03 8.72556E-05-2.71925E-15
 -1      4259 1.95211E-03 4.38817E-05-2.73285E-15
 -1      4260 2.21940E-03 8.20472E-05-3.41348E-15
 -1      4261 2.92850E-03 3.70352E-05-6.01549E-15
 -1      4262 2.83515E-03 4.98663E-05-5.59057E-15
 -1      4263 3.02638E-03-4.74451E-06-6.65595E-15
 -1      4264 3.13942E-03 5.62256E-05-6.77273E-15
 -1      4265 1.29473E-02-6.57115E-04-8.75598E-14
 -1      4266 8.75775E-03-2.66249E-04-3.46733E-14
 -1      4267 8.86634E-03-2.96325E-04-3.58182E-14
 -1      4268 1.29655E-02-5.21807E-04-8.87089E-14
 -1      4269 1.28533E-02-5.07450E-04-8.71446E-14
 -1      4270 1.27934E-02-5.37672E-04-8.60748E-14
 -1      4271 1.29784E-02-5.63465E-04-8.86321E-14
 -1      4272 1.29693E-02-6.30991E-04-8.80572E-14
 -1      4273 1.29565E-02-5.89635E-04-8.81397E-14
 -1      4274 1.28640E-02-5.76695E-04-8.68606E-14
 -1      4275 1.28201E-02-6.28880E-04-8.58771E-14
 -1      4276 3.07540E-03 3.89637E-05-6.60998E-15
 -1      4277 8.98714E-03-3.08312E-04-3.72107E-14
 -1      4278 9.15612E-03-3.29642E-04-3.91295E-14
 -1      4279 9.28230E-03-3.42531E-04-4.05780E-14
 -1      4280 9.33759E-03-3.22252E-04-4.13628E-14
 -1      4281 2.71133E-03 5.44465E-05-5.10627E-15
 -1      4282 2.58569E-03 5.86649E-05-4.64365E-15
 -1      4283 2.70816E-03 2.30017E-05-5.20462E-15
 -1      4284 2.96744E-03 1.78952E-05-6.27257E-15
 -1      4285 8.65978E-03-1.57106E-04-3.47295E-14
 -1      4286 8.54551E-03-1.50901E-04-3.34624E-14
 -1      4287 8.54059E-03-1.74509E-04-3.30510E-14
 -1      4288 8.74959E-03-1.88783E-04-3.53959E-14
 -1      4289 2.56792E-03-5.00109E-05-4.76941E-15
 -1      4290 2.47839E-03 3.39847E-05-4.33936E-15
 -1      4291 2.47446E-03 6.46327E-05-4.24809E-15
 -1      4292 2.36151E-03 7.01795E-05-3.87036E-15
 -1      4293 2.89280E-03-3.80964E-06-6.05856E-15
 -1      4294 2.51027E-03-1.06060E-05-4.53355E-15
 -1      4295 2.62886E-03-1.44594E-05-4.99005E-15
 -1      4296 9.81411E-03-3.20562E-04-4.72094E-14
 -1      4297 9.94804E-03-3.32724E-04-4.87891E-14
 -1      4298 8.65285E-03-2.24141E-04-3.37672E-14
 -1      4299 8.76512E-03-2.26007E-04-3.51435E-14
 -1      4300 1.00830E-02-3.44971E-04-5.03924E-14
 -1      4301 1.02189E-02-3.57398E-04-5.20210E-14
 -1      4302 1.03557E-02-3.69886E-04-5.36722E-14
 -1      4303 1.04932E-02-3.82506E-04-5.53492E-14
 -1      4304 1.06314E-02-3.95170E-04-5.70504E-14
 -1      4305 1.07702E-02-4.07931E-04-5.87762E-14
 -1      4306 1.09095E-02-4.20723E-04-6.05253E-14
 -1      4307 1.10493E-02-4.33586E-04-6.22961E-14
 -1      4308 1.11896E-02-4.46472E-04-6.40874E-14
 -1      4309 1.13303E-02-4.59409E-04-6.59032E-14
 -1      4310 1.14713E-02-4.72363E-04-6.77414E-14
 -1      4311 1.16125E-02-4.85355E-04-6.95954E-14
 -1      4312 1.17541E-02-4.98360E-04-7.14721E-14
 -1      4313 1.18958E-02-5.11392E-04-7.33686E-14
 -1      4314 1.20378E-02-5.24435E-04-7.52814E-14
 -1      4315 1.21799E-02-5.37497E-04-7.72131E-14
 -1      4316 1.23221E-02-5.50567E-04-7.91616E-14
 -1      4317 1.24645E-02-5.63651E-04-8.11269E-14
 -1      4318 1.27715E-02-5.63774E-04-8.55875E-14
 -1      4319 9.68129E-03-3.08643E-04-4.56554E-14
 -1      4320 1.26070E-02-5.76742E-04-8.31050E-14
 -1      4321 9.54976E-03-2.96842E-04-4.41251E-14
 -1      4322 9.41957E-03-2.85374E-04-4.26184E-14
 -1      4323 2.27858E-03-2.02597E-06-3.72959E-15
 -1      4324 2.40253E-03-4.91645E-06-4.14453E-15
 -1      4325 2.74433E-03-1.96235E-05-5.46827E-15
 -1      4326 9.03999E-03-2.89319E-04-3.79640E-14
 -1      4327 1.93243E-03 1.90843E-05-2.70453E-15
 -1      4328 1.92879E-03-8.99857E-06-2.70809E-15
 -1      4329 2.02539E-03-1.19031E-05-2.97242E-15
 -1      4330 2.06134E-03 3.70845E-05-3.03711E-15
 -1      4331 9.29095E-03-2.74070E-04-4.11354E-14
 -1      4332 2.22743E-03 5.16149E-05-3.49722E-15
 -1      4333 2.12103E-03-1.50334E-05-3.24946E-15
 -1      4334 8.86904E-03-2.34025E-04-3.63371E-14
 -1      4335 1.26775E-02-6.15692E-04-8.38792E-14
 -1      4336 8.53371E-03-1.96054E-04-3.26379E-14
 -1      4337 9.03885E-03-2.52672E-04-3.82422E-14
 -1      4338 2.81661E-03-3.82866E-05-5.82162E-15
 -1      4339 2.20418E-03 2.60947E-05-3.46655E-15
 -1      4340 9.16400E-03-2.63358E-04-3.96761E-14
 -3
    1PSTEP                         2           1           1          
  100CL  101 1.000000000        4340                     0    1           1
 -4  STRESS      6    1
 -5  SXX         1    4    1    1
 -5  SYY         1    4    2    2
 -5  SZZ         1    4    3    3
 -5  SXY         1    4    1    2
 -5  SYZ         1    4    2    3
 -5  SZX         1    4    3    1
 -1         1 6.70338E+01 9.15998E-01 3.70314E+00 4.32432E-02-8.16465E-14 4.01349E-13
 -1         2-7.06742E-01-2.44703E+01-3.34216E+00 1.42800E-01-6.30776E-13-6.31196E-14
 -1         3 2.00000E+01 2.36404E-04-1.12487E-04 2.29193E-04-7.55456E-13-8.71459E-13
 -1         4 2.00000E+01 2.03049E-04-1.41551E-04-2.00671E-04 3.61040E-13-5.04060E-14
 -1         5 3.24331E+01 6.08709E+00 2.65026E+00 6.12436E+00-3.02258E-14 2.13915E-12
 -1         6 3.52900E+01 1.20768E+01 4.96594E+00-8.48249E+00-1.08413E-13 2.21849E-12
 -1         7 2.09948E+01 6.14218E+00-9.42166E-02-4.53702E+00-1.60705E-14 5.92582E-13
 -1         8 1.98937E+01 5.99620E+00 6.76681E-02-3.01168E+00-2.52541E-14 4.56263E-14
 -1         9 1.93259E+01 5.82521E+00 5.71686E-02-2.21831E+00-2.54519E-14-2.71755E-13
 -1        10 1.89988E+01 5.72081E+00 5.16923E-02-1.63456E+00-1.87263E-14-4.35202E-13
 -1        11 1.87717E+01 5.64909E+00 4.44741E-02-1.16799E+00-1.33383E-14-5.25194E-13
 -1        12 1.86106E+01 5.59842E+00 3.79048E-02-7.86645E-01-6.56940E-15-5.68264E-13
 -1        13 1.85018E+01 5.56462E+00 3.31396E-02-4.51959E-01-6.63315E-15-5.84371E-13
 -1        14 1.84485E+01 5.54814E+00 3.08337E-02-1.47774E-01-8.12284E-16-5.93563E-13
 -1        15 1.84514E+01 5.54904E+00 3.11813E-02 1.47887E-01 3.69388E-15-5.93789E-13
 -1        16 1.85094E+01 5.56702E+00 3.41022E-02 4.56442E-01 7.61587E-15-5.86337E-13
 -1        17 1.86206E+01 5.60142E+00 3.92770E-02 7.99224E-01 9.90354E-15-5.65256E-13
 -1        18 1.87808E+01 5.65179E+00 4.58845E-02 1.19041E+00 1.42187E-14-5.16194E-13
 -1        19 1.90043E+01 5.72270E+00 5.26109E-02 1.66873E+00 2.11376E-14-4.23403E-13
 -1        20 1.93268E+01 5.82665E+00 5.70001E-02 2.26381E+00 2.58266E-14-2.53620E-13
 -1        21 1.98827E+01 6.00840E+00 6.23437E-02 3.05506E+00 2.99274E-14 6.87657E-14
 -1        22 2.13344E+01 6.40909E+00 1.56606E-01 4.34488E+00 7.41074E-15 7.16427E-13
 -1        23 2.30610E+01-1.38766E+00-9.45591E-01-6.59676E-01-7.48360E-14 1.81995E-12
 -1        24 1.97106E+01-1.00044E-01-3.04778E-01 6.92108E-02-2.67755E-14 1.44493E-12
 -1        25 1.92802E+01-5.84371E-02-6.87465E-02 6.30237E-02-1.79739E-14 1.09739E-12
 -1        26 1.93578E+01-2.60785E-02-1.08618E-02 3.60644E-02 4.00266E-15 8.66448E-13
 -1        27 1.97102E+01-1.72073E-02-5.70975E-03 2.77322E-02-1.98958E-14 6.71532E-13
 -1        28 2.02533E+01-1.25972E-02-7.62058E-03 2.45899E-02-7.21005E-15 5.86598E-13
 -1        29 2.09503E+01-9.65851E-03-8.97248E-03 2.47150E-02 1.12422E-14 5.41837E-13
 -1        30 2.17795E+01-6.75543E-03-8.53823E-03 2.70483E-02 3.23320E-15 5.75427E-13
 -1        31 2.27130E+01-2.55424E-03-5.01327E-03 3.05642E-02-1.21543E-14 4.02138E-13
 -1        32 2.36954E+01 4.16926E-03 3.92779E-03 3.33821E-02-3.99920E-14 3.38287E-13
 -1        33 2.46182E+01 1.41874E-02 2.09946E-02 3.18089E-02 7.72295E-14 3.66370E-13
 -1        34 2.52958E+01 2.68090E-02 4.70169E-02 1.97078E-02 5.59058E-15 5.71405E-13
 -1        35 2.54645E+01 3.83892E-02 7.64457E-02-1.03243E-02-3.10591E-14 3.42943E-13
 -1        36 2.48423E+01 4.13769E-02 9.21096E-02-6.13037E-02 1.40738E-14 2.84803E-13
 -1        37 2.32951E+01 2.72365E-02 6.89575E-02-1.21005E-01-7.11714E-15 5.17003E-13
 -1        38 2.10757E+01-5.73042E-03-6.84016E-03-1.54476E-01-1.60225E-16 4.93647E-13
 -1        39 1.89406E+01-4.48541E-02-1.07637E-01-1.21922E-01-4.37228E-14 3.26451E-13
 -1        40 1.78690E+01-6.65909E-02-1.66414E-01-2.15674E-02 4.07053E-15 2.57784E-13
 -1        41 1.84315E+01-5.59656E-02-1.37274E-01 9.26257E-02 2.24295E-14 1.67512E-13
 -1        42 2.03479E+01-2.04585E-02-4.28768E-02 1.52613E-01 1.02384E-14 2.00652E-13
 -1        43 2.27081E+01 1.68664E-02 4.76690E-02 1.39260E-01-4.79976E-14 3.88647E-13
 -1        44 2.46213E+01 3.80509E-02 8.93361E-02 8.44383E-02 5.21011E-14 6.55465E-13
 -1        45 2.56557E+01 4.01922E-02 8.40240E-02 2.82769E-02-3.78998E-14 5.75364E-13
 -1        46 2.58359E+01 3.06253E-02 5.64076E-02-8.88011E-03-2.38524E-17 2.95326E-13
 -1        47 2.54174E+01 1.78053E-02 2.76839E-02-2.57532E-02 3.01150E-14 5.02201E-13
 -1        48 2.46839E+01 6.85485E-03 7.10408E-03-2.91119E-02-7.78435E-15 6.65749E-13
 -1        49 2.38507E+01-5.55397E-04-4.51900E-03-2.58305E-02 3.54850E-14 5.76956E-13
 -1        50 2.30487E+01-4.69674E-03-9.59611E-03-2.03495E-02-5.49563E-14 1.18586E-13
 -1        51 2.23424E+01-6.48662E-03-1.08189E-02-1.49039E-02 1.70567E-14 9.38104E-14
 -1        52 2.17539E+01-6.82358E-03-1.01310E-02-1.03520E-02-5.70057E-15 1.13506E-13
 -1        53 2.12818E+01-6.37590E-03-8.68634E-03-6.86252E-03 6.86605E-14-9.97839E-14
 -1        54 2.09137E+01-5.57384E-03-7.08201E-03-4.32349E-03-4.81564E-14-3.99582E-13
 -1        55 2.06334E+01-4.66846E-03-5.58915E-03-2.54292E-03-2.02733E-14-3.50082E-13
 -1        56 2.04245E+01-3.79318E-03-4.30799E-03-1.33284E-03-1.02625E-14-1.41621E-13
 -1        57 2.02720E+01-3.01046E-03-3.25697E-03-5.36882E-04 5.23032E-14 1.52273E-13
 -1        58 2.01632E+01-2.34270E-03-2.41921E-03-3.42065E-05-5.18231E-14-6.74307E-14
 -1        59 2.00877E+01-1.79095E-03-1.76529E-03 2.65143E-04-3.57096E-14-2.82607E-13
 -1        60 2.00371E+01-1.34590E-03-1.26371E-03 4.26712E-04 3.79116E-14-1.18728E-13
 -1        61 2.00047E+01-9.93946E-04-8.85256E-04 4.97628E-04 1.16633E-13-1.80518E-14
 -1        62 1.99855E+01-7.20361E-04-6.04450E-04 5.11409E-04-4.92442E-14-2.76854E-13
 -1        63 1.99755E+01-5.10957E-04-3.99795E-04 4.91621E-04-2.74116E-14-5.62439E-13
 -1        64 1.99719E+01-3.52766E-04-2.53399E-04 4.54571E-04 5.68458E-14-6.43672E-13
 -1        65 1.99726E+01-2.34242E-04-1.50348E-04 4.11260E-04-3.33005E-14-7.96039E-13
 -1        66 1.99759E+01-1.45150E-04-7.77336E-05 3.68701E-04 1.36193E-13-3.02582E-13
 -1        67 1.99808E+01-7.62887E-05-2.31018E-05 3.30521E-04 1.13907E-13 7.15275E-14
 -1        68 1.99864E+01-1.91560E-05 2.79953E-05 2.96515E-04-6.24220E-14 4.54288E-13
 -1        69 1.99920E+01 3.28199E-05 9.30529E-05 2.58562E-04 1.00254E-13 1.73946E-13
 -1        70 1.99967E+01 6.76925E-05 1.68181E-04 1.78221E-04 4.10764E-14 1.43620E-13
 -1        71 1.99996E+01-1.43160E-05 1.44972E-04 3.44681E-05-1.74875E-13-9.24164E-15
 -1        72 2.11079E+01-4.03165E-01-9.82455E-01-3.23472E-01 2.41994E-14 1.96793E-12
 -1        73 1.96741E+01-6.61631E-02-2.86363E-01-5.68437E-02 1.50440E-14 1.49695E-12
 -1        74 1.92713E+01-2.20433E-02-6.40068E-02-2.11367E-02 8.31041E-15 1.19923E-12
 -1        75 1.93257E+01-1.21135E-02-1.25838E-02-1.59219E-02 2.00090E-15 1.02283E-12
 -1        76 1.96385E+01-7.66850E-03-4.57856E-03-1.37790E-02 1.10159E-14 8.53767E-13
 -1        77 2.01141E+01-4.85542E-03-4.29428E-03-1.34959E-02 1.36441E-14 6.27966E-13
 -1        78 2.07013E+01-2.37345E-03-3.61184E-03-1.47848E-02-1.28207E-17 5.92272E-13
 -1        79 2.13598E+01 5.20774E-04-9.43126E-04-1.73602E-02 3.09046E-15 4.67263E-13
 -1        80 2.20411E+01 4.28321E-03 4.53192E-03-2.07227E-02-1.72788E-14 3.96776E-13
 -1        81 2.26745E+01 8.98887E-03 1.36353E-02-2.37149E-02 2.77296E-14 2.17501E-13
 -1        82 2.31569E+01 1.40303E-02 2.64522E-02-2.40553E-02 1.16629E-14 1.53136E-13
 -1        83 2.33523E+01 1.77649E-02 4.08914E-02-1.81973E-02-9.22743E-15 1.87243E-13
 -1        84 2.31148E+01 1.75604E-02 5.11585E-02-2.27606E-03 1.18978E-14 2.68221E-13
 -1        85 2.23457E+01 1.09115E-02 4.80081E-02 2.49286E-02 5.55329E-14-5.51330E-14
 -1        86 2.10834E+01-2.26798E-03 2.32593E-02 5.75962E-02-1.18392E-14-3.28803E-13
 -1        87 1.95816E+01-1.76552E-02-2.15088E-02 8.09460E-02-2.65654E-14-1.65222E-13
 -1        88 1.82935E+01-2.78658E-02-6.88896E-02 7.76754E-02-2.42636E-14 1.75866E-14
 -1        89 1.77012E+01-2.75074E-02-9.27191E-02 4.21248E-02 2.01009E-14-2.56800E-14
 -1        90 1.80557E+01-1.72394E-02-7.84903E-02-1.09326E-02-9.84065E-15-3.48195E-13
 -1        91 1.92232E+01-2.85264E-03-3.51785E-02-5.57175E-02 3.31712E-15-4.02928E-13
 -1        92 2.07708E+01 9.25792E-03 1.23187E-02-7.44756E-02-8.57457E-14-3.38011E-13
 -1        93 2.22143E+01 1.56246E-02 4.29599E-02-6.73071E-02 4.54638E-14-2.30205E-13
 -1        94 2.32320E+01 1.62681E-02 5.11430E-02-4.60164E-02 7.02069E-14-7.56322E-13
 -1        95 2.37263E+01 1.32039E-02 4.32058E-02-2.29536E-02-4.70789E-14-5.07583E-13
 -1        96 2.37652E+01 8.74500E-03 2.88276E-02-5.11311E-03-1.07641E-14 2.54419E-14
 -1        97 2.34882E+01 4.49976E-03 1.49182E-02 5.82125E-03 3.76172E-14-9.36634E-14
 -1        98 2.30370E+01 1.22999E-03 4.55795E-03 1.10080E-02-6.21095E-14-3.80496E-13
 -1        99 2.25222E+01-9.23022E-04-1.86551E-03 1.23790E-02-2.17297E-14-4.75249E-13
 -1       100 2.20164E+01-2.12616E-03-5.15644E-03 1.16263E-02-2.29099E-14-5.18881E-13
 -1       101 2.15603E+01-2.64033E-03-6.35918E-03 9.91925E-03 2.01669E-14-6.18705E-13
 -1       102 2.11719E+01-2.70981E-03-6.34421E-03 7.95332E-03 4.11015E-14-7.27150E-13
 -1       103 2.08545E+01-2.52344E-03-5.71374E-03 6.09008E-03-6.83761E-14-1.86454E-13
 -1       104 2.06037E+01-2.21179E-03-4.83873E-03 4.48609E-03 5.98784E-14-1.10723E-13
 -1       105 2.04111E+01-1.85791E-03-3.92759E-03 3.18456E-03-1.37821E-15-2.88691E-13
 -1       106 2.02673E+01-1.51058E-03-3.08603E-03 2.17200E-03-1.01584E-13-4.21272E-13
 -1       107 2.01627E+01-1.19557E-03-2.35931E-03 1.41062E-03-1.56557E-14-7.86130E-13
 -1       108 2.00890E+01-9.24101E-04-1.75910E-03 8.55439E-04-4.02163E-15-1.01430E-12
 -1       109 2.00389E+01-6.98648E-04-1.27962E-03 4.62893E-04 6.94331E-14-7.16313E-13
 -1       110 2.00065E+01-5.16779E-04-9.07025E-04 1.94507E-04-4.94391E-14-1.04934E-12
 -1       111 1.99870E+01-3.73555E-04-6.24617E-04 1.80616E-05-6.67699E-14-5.66122E-13
 -1       112 1.99767E+01-2.62996E-04-4.15592E-04-9.25032E-05 2.33142E-14-2.15096E-13
 -1       113 1.99729E+01-1.78916E-04-2.64371E-04-1.57749E-04 1.79872E-13-5.12221E-13
 -1       114 1.99733E+01-1.15333E-04-1.57048E-04-1.93594E-04-8.89118E-14-5.91996E-13
 -1       115 1.99765E+01-6.65495E-05-8.10366E-05-2.12259E-04-4.68933E-14-3.81339E-13
 -1       116 1.99812E+01-2.71359E-05-2.35907E-05-2.22937E-04 9.83285E-14-8.12469E-13
 -1       117 1.99867E+01 8.04951E-06 3.06132E-05-2.31552E-04-2.09603E-14-1.19428E-12
 -1       118 1.99922E+01 4.21448E-05 9.91939E-05-2.38442E-04-4.70257E-14-1.18928E-12
 -1       119 1.99969E+01 7.31219E-05 1.83139E-04-2.22755E-04-1.82489E-14-1.15472E-12
 -1       120 1.99996E+01-4.92203E-05 1.13219E-04-8.81641E-05 3.67066E-13-1.39698E-12
 -1       121 1.99998E+01-3.84690E-04 9.76256E-05-5.70443E-05-1.18899E-12 2.79108E-13
 -1       122 1.99999E+01-3.02523E-03 1.30724E-04-1.81255E-04 2.71702E-13 2.16136E-13
 -1       123 1.99998E+01-7.18110E-03 2.34907E-05-2.08114E-04 5.78411E-13-7.73917E-14
 -1       124 1.99998E+01-1.15598E-02-4.92310E-05-1.81218E-04 3.01296E-13 1.68989E-13
 -1       125 1.99998E+01-1.54454E-02-8.20713E-05-1.37192E-04 2.11630E-13-7.03386E-14
 -1       126 1.99997E+01-1.84483E-02-9.32885E-05-9.47465E-05 1.65564E-13 8.71638E-14
 -1       127 1.99997E+01-2.05188E-02-9.34052E-05-5.44628E-05-1.70436E-13-7.48359E-14
 -1       128 1.99997E+01-2.15647E-02-9.20766E-05-1.82043E-05-6.09314E-13-6.51043E-14
 -1       129 1.99997E+01-2.15830E-02-9.26754E-05 1.66427E-05-7.19954E-13-1.05672E-13
 -1       130 1.99997E+01-2.05675E-02-9.50836E-05 5.33607E-05-1.18851E-12 3.62120E-14
 -1       131 1.99997E+01-1.85118E-02-9.48020E-05 9.60423E-05-2.17832E-12-1.41870E-13
 -1       132 1.99998E+01-1.55028E-02-8.48095E-05 1.38787E-04-1.43903E-12 6.07801E-13
 -1       133 1.99998E+01-1.15864E-02-5.04121E-05 1.83463E-04-1.04911E-12-2.60204E-14
 -1       134 1.99998E+01-7.16165E-03 2.97535E-05 2.21915E-04-1.39084E-12-1.13458E-13
 -1       135 1.99999E+01-3.06597E-03 1.11420E-04 2.54360E-04-1.29558E-13 2.67938E-13
 -1       136 1.99999E+01-4.64430E-04 8.87172E-05 1.71696E-05 2.18929E-14 1.15684E-13
 -1       137-1.43864E+00-1.99699E+01-3.04950E+00-3.75114E+00 6.93029E-13 2.89952E-13
 -1       138-1.32901E+00-7.95835E+00-2.19163E+00-2.51594E+00 1.41054E-12 5.81424E-13
 -1       139 3.63616E+00 4.27521E+00-9.64526E-01 4.19678E+00 1.98103E-12 1.53699E-12
 -1       140 1.65477E+01 1.04475E+01 4.78009E-01 1.29813E+01 1.92951E-12 2.33885E-12
 -1       141 3.65233E+01 9.71673E+00 1.91730E+00 1.82260E+01 1.34412E-12 2.62684E-12
 -1       142 5.51170E+01 4.66625E+00 2.97023E+00 1.48447E+01 6.59056E-13 1.79323E-12
 -1       143 6.52201E+01 1.14993E+00 3.48066E+00 3.70994E+00 8.13412E-14 4.94133E-13
 -1       144 6.21979E+01 2.31786E+00 3.33887E+00-9.10008E+00 2.48392E-13-1.09296E-12
 -1       145 4.76989E+01 7.01689E+00 2.59411E+00-1.74089E+01 9.51017E-13-2.36611E-12
 -1       146 2.88785E+01 1.09206E+01 1.43959E+00-1.73579E+01 1.75715E-12-2.70106E-12
 -1       147 1.11989E+01 9.28322E+00 2.70477E-04-1.01839E+01 2.17093E-12-2.21034E-12
 -1       148 1.23586E+00 9.68219E-01-1.36648E+00-1.50446E+00 2.63467E-12-1.71207E-12
 -1       149-1.74107E+00-1.15833E+01-2.50882E+00 3.74029E+00 2.32231E-12-9.07496E-13
 -1       150-1.11135E+00-2.21201E+01-3.22124E+00 3.14364E+00 1.15319E-12-1.82017E-13
 -1       151-8.70460E-01-2.44014E+01-3.35472E+00-1.43356E+00-7.55222E-13-1.65250E-13
 -1       152-1.68169E+00-1.72327E+01-2.91849E+00-4.07443E+00-2.14556E-12-6.05835E-13
 -1       153-9.74155E-01-4.80098E+00-1.99569E+00-1.75459E+00-2.69174E-12-1.41134E-12
 -1       154 6.09649E+00 6.24934E+00-6.62783E-01 6.33443E+00-2.69357E-12-2.40297E-12
 -1       155 2.26692E+01 1.09835E+01 9.33038E-01 1.55031E+01-2.12519E-12-2.85344E-12
 -1       156 4.32444E+01 8.40859E+00 2.35972E+00 1.83523E+01-1.16507E-12-2.61730E-12
 -1       157 6.04070E+01 3.30131E+00 3.35796E+00 1.22457E+01-3.42466E-13-1.21425E-12
 -1       158 6.06732E+01 3.09994E+00 3.33952E+00-1.17871E+01-3.25930E-13 1.63697E-12
 -1       159 4.52359E+01 7.75306E+00 2.44885E+00-1.79415E+01-8.13821E-13 2.01761E-12
 -1       160 2.65534E+01 1.08737E+01 1.21680E+00-1.66865E+01-1.12754E-12 1.80855E-12
 -1       161 1.06336E+01 8.84155E+00-1.54828E-01-9.72480E+00-1.85274E-12 1.80705E-12
 -1       162 1.36969E+00 1.00638E+00-1.41686E+00-1.61447E+00-2.30632E-12 1.55115E-12
 -1       163-1.72388E+00-1.01939E+01-2.44189E+00 3.50773E+00-1.92324E-12 9.25426E-13
 -1       164-1.39775E+00-2.02537E+01-3.11409E+00 3.72240E+00-1.27506E-12 1.83624E-13
 -1       165 2.12774E+01 3.65767E+00-5.36781E-02-3.33858E+00-2.85246E-13 2.85962E-13
 -1       166 2.02373E+01 4.21644E+00-4.34332E-02-2.49906E+00-2.86265E-13-6.36192E-14
 -1       167 1.96629E+01 4.52315E+00-2.98622E-02-1.87158E+00-2.41878E-13-2.79630E-13
 -1       168 1.92912E+01 4.69414E+00-2.20996E-02-1.36777E+00-1.91450E-13-3.97648E-13
 -1       169 1.90313E+01 4.80028E+00-1.78289E-02-9.59881E-01-1.41896E-13-4.52314E-13
 -1       170 1.88478E+01 4.86817E+00-1.54166E-02-6.07441E-01-9.62341E-14-4.79181E-13
 -1       171 1.87399E+01 4.90488E+00-1.41833E-02-2.95161E-01-3.51061E-14-4.87626E-13
 -1       172 1.87072E+01 4.91436E+00-1.38326E-02-1.36076E-03 1.10370E-14-4.96506E-13
 -1       173 1.87492E+01 4.89815E+00-1.42804E-02 2.94798E-01 6.56031E-14-4.90517E-13
 -1       174 1.88640E+01 4.85560E+00-1.55997E-02 6.13643E-01 1.08101E-13-4.81780E-13
 -1       175 1.90465E+01 4.78464E+00-1.81271E-02 9.68907E-01 1.58484E-13-4.44802E-13
 -1       176 1.93089E+01 4.67341E+00-2.27396E-02 1.39419E+00 2.18905E-13-3.79087E-13
 -1       177 1.96775E+01 4.49819E+00-3.15071E-02 1.91049E+00 2.76836E-13-2.59371E-13
 -1       178 2.02540E+01 4.18814E+00-4.49169E-02 2.54829E+00 3.19448E-13-4.37081E-14
 -1       179 2.13834E+01 3.43365E+00-5.65523E-02 3.28257E+00 2.96672E-13 3.37598E-13
 -1       180 2.26035E+01 1.11394E+00-3.31033E-01 2.82779E+00 2.17685E-13 8.48474E-13
 -1       181 2.22480E+01 8.39425E-01 1.43800E-03-1.75641E+00-2.41685E-13 6.62068E-13
 -1       182 2.09035E+01 1.91806E-01-8.54932E-03-5.60184E-01-2.06349E-13 5.41846E-13
 -1       183 2.03420E+01 1.15436E-01 1.46862E-02-5.88491E-02-1.52363E-13 4.26117E-13
 -1       184 2.02565E+01 6.98827E-02 1.10743E-02 2.06862E-01-1.29322E-13 3.18801E-13
 -1       185 2.04368E+01 5.22428E-02 6.32349E-03 3.81491E-01-7.71629E-14 2.56356E-13
 -1       186 2.08012E+01 4.38607E-02 3.54999E-03 5.15467E-01-4.44848E-14 2.36074E-13
 -1       187 2.13020E+01 3.70065E-02 1.87385E-03 6.24995E-01 1.04409E-15 1.80230E-13
 -1       188 2.19046E+01 2.56417E-02 4.14987E-04 7.08008E-01-4.01242E-14 2.24279E-13
 -1       189 2.25700E+01 2.90796E-03-1.24161E-03 7.46066E-01-2.92155E-14 3.16535E-13
 -1       190 2.32419E+01-3.89317E-02-3.08855E-03 7.03097E-01 2.73404E-14 3.36092E-13
 -1       191 2.38347E+01-1.05309E-01-4.67459E-03 5.27658E-01 3.71239E-14 1.93657E-13
 -1       192 2.42289E+01-1.90788E-01-5.15291E-03 1.68725E-01-3.70407E-14 1.61920E-13
 -1       193 2.42845E+01-2.64971E-01-3.68709E-03-3.82751E-01-2.11836E-14 3.82692E-13
 -1       194 2.38881E+01-2.64239E-01-1.09165E-03-1.02538E+00 4.52993E-14 3.49330E-13
 -1       195 2.30464E+01-1.17706E-01 1.04521E-03-1.49691E+00-3.90274E-14 3.39762E-13
 -1       196 2.19921E+01 1.66991E-01-6.89665E-05-1.45151E+00-8.25117E-14 3.16690E-13
 -1       197 2.11825E+01 4.35547E-01-4.32861E-03-7.30078E-01-9.91230E-14 2.71924E-13
 -1       198 2.10586E+01 4.88500E-01-4.88097E-03 3.89194E-01-4.38347E-14 6.11505E-14
 -1       199 2.17068E+01 2.78017E-01-1.23578E-03 1.31192E+00-6.58605E-14-6.70254E-14
 -1       200 2.27807E+01-2.49885E-02 2.13546E-03 1.60488E+00 1.38528E-13-2.23922E-13
 -1       201 2.37902E+01-2.27123E-01 1.25934E-03 1.28693E+00 1.50773E-13-6.70939E-14
 -1       202 2.44149E+01-2.73523E-01-2.26055E-03 6.76592E-01-4.60127E-14-1.07711E-14
 -1       203 2.45778E+01-2.17177E-01-4.69528E-03 8.24925E-02-3.90035E-14 1.43363E-13
 -1       204 2.43621E+01-1.29933E-01-4.93891E-03-3.37896E-01 9.96828E-14 2.14282E-13
 -1       205 2.39059E+01-5.49418E-02-3.69894E-03-5.63016E-01 5.97363E-14 1.97834E-13
 -1       206 2.33369E+01-5.18791E-03-1.99820E-03-6.37015E-01-1.29230E-13 2.28439E-13
 -1       207 2.27486E+01 2.19292E-02-4.92838E-04-6.16604E-01-2.20710E-13 7.75812E-15
 -1       208 2.21982E+01 3.33993E-02 5.45809E-04-5.47785E-01-2.23019E-14 5.97079E-14
 -1       209 2.17145E+01 3.56525E-02 1.12232E-03-4.60965E-01-2.00783E-14 3.93985E-14
 -1       210 2.13077E+01 3.31868E-02 1.34882E-03-3.73573E-01-8.97497E-14 5.29207E-15
 -1       211 2.09764E+01 2.87332E-02 1.35275E-03-2.94266E-01-1.80281E-13-5.68448E-14
 -1       212 2.07134E+01 2.37902E-02 1.23582E-03-2.26443E-01 2.29257E-14-1.70400E-13
 -1       213 2.05091E+01 1.91011E-02 1.06643E-03-1.70639E-01 2.10466E-13-7.87441E-14
 -1       214 2.03537E+01 1.49824E-02 8.85408E-04-1.25980E-01 9.39904E-14 6.07325E-14
 -1       215 2.02378E+01 1.15254E-02 7.14536E-04-9.10125E-02-2.27092E-13-1.87936E-13
 -1       216 2.01530E+01 8.71051E-03 5.63772E-04-6.41426E-02-6.62768E-14-1.87903E-13
 -1       217 2.00925E+01 6.47012E-03 4.36295E-04-4.38514E-02 6.61038E-14-2.86759E-13
 -1       218 2.00505E+01 4.72032E-03 3.31673E-04-2.87906E-02 7.03598E-14-2.39349E-13
 -1       219 2.00224E+01 3.37683E-03 2.47725E-04-1.78124E-02-1.98190E-13-2.87770E-13
 -1       220 2.00045E+01 2.36201E-03 1.81563E-04-9.96781E-03-1.59990E-13-2.78801E-13
 -1       221 1.99941E+01 1.60732E-03 1.30139E-04-4.49100E-03 6.28731E-14-3.89327E-13
 -1       222 1.99888E+01 1.05358E-03 9.05148E-05-7.78301E-04 1.15122E-13-2.69832E-13
 -1       223 1.99872E+01 6.49726E-04 5.99824E-05 1.63260E-03 2.64933E-13 1.44370E-13
 -1       224 1.99878E+01 3.50595E-04 3.62192E-05 3.08024E-03 3.70937E-13 9.42762E-14
 -1       225 1.99899E+01 1.13906E-04 1.76060E-05 3.79140E-03 1.81788E-13 2.02633E-13
 -1       226 1.99927E+01-1.05580E-04 4.36296E-06 3.88648E-03-9.72720E-14 2.57052E-13
 -1       227 1.99955E+01-3.64282E-04-2.67394E-06 3.37769E-03-4.87130E-14 2.08803E-13
 -1       228 1.99979E+01-7.02212E-04 9.24798E-07 2.22184E-03-1.37028E-13 1.80185E-13
 -1       229 2.12981E+01 2.71355E-01-4.88979E-02 9.99533E-01 2.24081E-13 7.21030E-13
 -1       230 2.03942E+01 1.29842E-01 9.21004E-03 2.78345E-01 1.38039E-13 5.76277E-13
 -1       231 2.01035E+01 6.70143E-02 1.29987E-02-3.48371E-02 9.67668E-14 4.47453E-13
 -1       232 2.01450E+01 4.05234E-02 7.69943E-03-2.07893E-01 1.16710E-13 3.52308E-13
 -1       233 2.03903E+01 2.75655E-02 3.75530E-03-3.18299E-01 8.99104E-14 2.73520E-13
 -1       234 2.07668E+01 1.84831E-02 1.61501E-03-3.91981E-01 1.57998E-14 2.08071E-13
 -1       235 2.12241E+01 8.62876E-03 4.05031E-04-4.34352E-01 6.58727E-14 1.72813E-13
 -1       236 2.17153E+01-5.31218E-03-3.50183E-04-4.38837E-01 5.97843E-14 1.10593E-13
 -1       237 2.21848E+01-2.59063E-02-7.02875E-04-3.90214E-01 1.09204E-13 8.45829E-15
 -1       238 2.25619E+01-5.39828E-02-4.81566E-04-2.68596E-01-4.73827E-14 5.96099E-14
 -1       239 2.27607E+01-8.62876E-02 4.66423E-04-5.81267E-02-1.94458E-14 1.36667E-13
 -1       240 2.26938E+01-1.12368E-01 1.92597E-03 2.36748E-01 4.12092E-14 2.33990E-14
 -1       241 2.23035E+01-1.13620E-01 3.00227E-03 5.69296E-01 2.01836E-13-2.12768E-14
 -1       242 2.16093E+01-7.01466E-02 2.36036E-03 8.36958E-01 2.58302E-14-6.23520E-14
 -1       243 2.07513E+01 2.17831E-02-7.34014E-04 9.02708E-01-5.42580E-14 1.22853E-14
 -1       244 1.99880E+01 1.31735E-01-4.84706E-03 6.68963E-01-2.43525E-14-7.41898E-14
 -1       245 1.96065E+01 2.01682E-01-6.71242E-03 1.70625E-01 3.46867E-14-8.74126E-14
 -1       246 1.97725E+01 1.88456E-01-4.60248E-03-4.05373E-01 8.37824E-14-9.18120E-14
 -1       247 2.04279E+01 1.01455E-01 6.11194E-05-8.24422E-01 3.40548E-15-2.66983E-14
 -1       248 2.13282E+01-6.26902E-03 3.83459E-03-9.50096E-01-1.26891E-13 1.10849E-15
 -1       249 2.21854E+01-8.34147E-02 4.55768E-03-8.03827E-01 6.03710E-14-5.37331E-15
 -1       250 2.27975E+01-1.11516E-01 2.85800E-03-5.07563E-01 1.84306E-13-1.01559E-13
 -1       251 2.30916E+01-1.01142E-01 5.17227E-04-1.90508E-01-1.15757E-13-2.70094E-13
 -1       252 2.30953E+01-7.25729E-02-1.11606E-03 6.58334E-02-1.27101E-13-3.48979E-13
 -1       253 2.28860E+01-4.18710E-02-1.74271E-03 2.33407E-01 7.83900E-14-2.44542E-13
 -1       254 2.25495E+01-1.70941E-02-1.61450E-03 3.18747E-01 3.81525E-14-8.58068E-14
 -1       255 2.21585E+01-3.20965E-04-1.12740E-03 3.42667E-01 3.29339E-14-4.79386E-14
 -1       256 2.17646E+01 9.39562E-03-5.79998E-04 3.27404E-01-2.11676E-14-1.59709E-13
 -1       257 2.13999E+01 1.39572E-02-1.27471E-04 2.90983E-01 7.33651E-14-2.30991E-13
 -1       258 2.10807E+01 1.51943E-02 1.82764E-04 2.45964E-01-4.76732E-14-4.11443E-13
 -1       259 2.08129E+01 1.45141E-02 3.60977E-04 2.00160E-01-3.25840E-13-1.93397E-13
 -1       260 2.05956E+01 1.28740E-02 4.38850E-04 1.57895E-01 5.66317E-14-5.22046E-14
 -1       261 2.04241E+01 1.08730E-02 4.49740E-04 1.21177E-01 1.26846E-13-3.59987E-14
 -1       262 2.02922E+01 8.85747E-03 4.20849E-04 9.05944E-02-3.73879E-14-5.13802E-15
 -1       263 2.01933E+01 7.00969E-03 3.71676E-04 6.59326E-02 1.78191E-13-1.14509E-13
 -1       264 2.01210E+01 5.41037E-03 3.15016E-04 4.65720E-02-4.94339E-14-1.51966E-13
 -1       265 2.00696E+01 4.08071E-03 2.58625E-04 3.17308E-02-1.28166E-14-2.96111E-13
 -1       266 2.00343E+01 3.00912E-03 2.06758E-04 2.06072E-02 5.00209E-14-2.89712E-14
 -1       267 2.00112E+01 2.16771E-03 1.61376E-04 1.24554E-02-1.73605E-13-7.56956E-14
 -1       268 1.99970E+01 1.52199E-03 1.23003E-04 6.62225E-03-1.64725E-14-3.17230E-13
 -1       269 1.99893E+01 1.03631E-03 9.13109E-05 2.56032E-03 9.81754E-14-2.87360E-13
 -1       270 1.99861E+01 6.76674E-04 6.54858E-05-1.71904E-04-1.72971E-13-3.32815E-14
 -1       271 1.99859E+01 4.11670E-04 4.45392E-05-1.91589E-03 2.51084E-13-5.57659E-14
 -1       272 1.99877E+01 2.11525E-04 2.78292E-05-2.91983E-03 2.16857E-13-3.58260E-13
 -1       273 1.99905E+01 4.57684E-05 1.61749E-05-3.34136E-03 1.34391E-13-3.55443E-13
 -1       274 1.99936E+01-1.17254E-04 1.30094E-05-3.24600E-03 2.89238E-16-5.52175E-13
 -1       275 1.99965E+01-3.30095E-04 1.51578E-05-2.60409E-03 7.93798E-14-5.37289E-13
 -1       276 1.99987E+01-5.77356E-04 1.49000E-05-1.36763E-03 4.30374E-14-3.29344E-13
 -1       277 1.99992E+01-1.99430E-03-2.86272E-06-2.17300E-03-9.16971E-14 9.90009E-13
 -1       278 1.99996E+01-4.26618E-03-3.31512E-06-3.05530E-03-9.98051E-14 3.54505E-14
 -1       279 1.99999E+01-6.81541E-03-2.06422E-06-3.21062E-03-5.97658E-14 4.67706E-14
 -1       280 2.00000E+01-9.27234E-03 2.58601E-06-2.86955E-03 1.07721E-13 2.48769E-13
 -1       281 2.00001E+01-1.13254E-02 7.33027E-06-2.26957E-03 1.35273E-13-2.62844E-13
 -1       282 2.00001E+01-1.28889E-02 1.06949E-05-1.54403E-03-1.00484E-13-4.39717E-13
 -1       283 2.00001E+01-1.38473E-02 1.25859E-05-7.82355E-04-2.14425E-13-3.09538E-13
 -1       284 2.00001E+01-1.41773E-02 1.31925E-05-1.41148E-05-2.68170E-13 8.69360E-14
 -1       285 2.00001E+01-1.38717E-02 1.26664E-05 7.58587E-04-3.60415E-13-3.31473E-13
 -1       286 2.00001E+01-1.29306E-02 1.07822E-05 1.53281E-03-5.45135E-13-5.37068E-13
 -1       287 2.00001E+01-1.14054E-02 7.25570E-06 2.26398E-03-3.35931E-13 5.42534E-13
 -1       288 2.00000E+01-9.31169E-03 2.56355E-06 2.88910E-03-3.56525E-13 1.05965E-13
 -1       289 1.99999E+01-6.84152E-03-3.35753E-06 3.24102E-03-2.86436E-13 8.06275E-14
 -1       290 1.99995E+01-4.24914E-03-6.28564E-06 3.02244E-03-2.98097E-13 7.24737E-13
 -1       291 1.99990E+01-2.29392E-03-1.21772E-05 3.06787E-03-4.27007E-13 3.64587E-13
 -1       292-8.93614E-01-1.07387E+01-9.55318E-01 1.15201E+00 1.19904E-14 6.57530E-13
 -1       293 3.62341E+00-7.48293E+00-5.06598E-01 4.47871E+00 1.23901E-13 3.69524E-13
 -1       294 1.00145E+01-4.80432E+00-4.43012E-01 5.81406E+00 3.36592E-13 7.77919E-13
 -1       295 1.89569E+01-6.97762E-01-8.27443E-02 7.26444E+00 5.74735E-13 9.04971E-13
 -1       296 2.99085E+01 1.50328E+00 2.34925E-01 6.11628E+00 4.49182E-13 4.34319E-13
 -1       297 3.90759E+01 5.12313E+00 7.23858E-01 6.01720E+00 6.97673E-13 5.10814E-13
 -1       298 4.50843E+01 6.39924E+00 9.59255E-01 3.07242E+00 6.73878E-13 3.74631E-13
 -1       299 4.32208E+01 7.40023E+00 6.63901E-01-5.35750E-01 9.70030E-13-8.72843E-14
 -1       300 4.24240E+01 6.02719E+00 8.17899E-01-4.27395E+00 9.15948E-13-6.75071E-13
 -1       301 3.56356E+01 4.33748E+00 6.02413E-01-6.96719E+00 9.63472E-13-1.07447E-12
 -1       302 2.62922E+01 1.00708E+00 1.80495E-01-7.15405E+00 8.37691E-13-1.17811E-12
 -1       303 1.56813E+01-1.90887E+00-2.11964E-01-6.88099E+00 1.05213E-12-8.91481E-13
 -1       304 7.22557E+00-5.94990E+00-6.07576E-01-4.95633E+00 9.33170E-13-8.48641E-13
 -1       305 1.53103E+00-9.16366E+00-8.23242E-01-3.01565E+00 5.35433E-13-8.47725E-13
 -1       306-1.21868E+00-1.11662E+01-9.95364E-01-6.06386E-01 7.99361E-15-8.75550E-13
 -1       307 3.03963E-01-8.69579E+00-6.19239E-01 2.32595E+00-2.95694E-13-8.23633E-13
 -1       308 4.21066E+00-7.82521E+00-7.65891E-01 3.83787E+00-9.43440E-13-7.92472E-13
 -1       309 1.18593E+01-3.90448E+00-4.15095E-01 6.04616E+00-1.09579E-12-1.11663E-12
 -1       310 2.32572E+01-9.29732E-01 1.96759E-02 6.87865E+00-9.66394E-13-9.03611E-13
 -1       311 3.32909E+01 3.12627E+00 4.45835E-01 6.69736E+00-9.27980E-13-9.26648E-13
 -1       312 4.19674E+01 5.53305E+00 8.57795E-01 5.25422E+00-1.01485E-12-5.86059E-13
 -1       313 4.60005E+01 6.79802E+00 9.94732E-01 1.79654E+00-7.91284E-13-1.11702E-13
 -1       314 4.59912E+01 6.73635E+00 9.76431E-01-1.57904E+00-6.24167E-13 2.21489E-13
 -1       315 4.23957E+01 5.57360E+00 8.73180E-01-4.92802E+00-3.87065E-13 5.73042E-13
 -1       316 3.47602E+01 3.76380E+00 5.51415E-01-6.87437E+00-4.27471E-13 7.13651E-13
 -1       317 2.53407E+01 1.09646E+00 1.57180E-01-7.45308E+00-6.68993E-13 5.87447E-13
 -1       318 1.58653E+01-2.25068E+00-2.53237E-01-6.64255E+00-7.22783E-13 4.90719E-13
 -1       319 7.94708E+00-5.75973E+00-5.81488E-01-5.00066E+00-7.14817E-13 5.78336E-13
 -1       320 2.37515E+00-8.59743E+00-7.69334E-01-3.27622E+00-5.62606E-13 7.51066E-13
 -1       321-7.52915E-01-9.79907E+00-8.11396E-01-1.13440E+00-3.12139E-13 3.49082E-13
 -1       322 2.03571E+01 3.05527E+00-2.17089E-02-1.73099E+00-2.90240E-13-9.88125E-14
 -1       323 2.10723E+01 2.20747E+00-1.64931E-02-2.03612E+00-3.11138E-13 1.22137E-13
 -1       324 1.94938E+01 3.87743E+00-1.44209E-02-9.92934E-01-2.04378E-13-3.15227E-13
 -1       325 1.92232E+01 4.08753E+00-1.19699E-02-6.72097E-01-1.46583E-13-3.54009E-13
 -1       326 1.90459E+01 4.21416E+00-1.05780E-02-3.89556E-01-6.71077E-14-3.56616E-13
 -1       327 1.89613E+01 4.27065E+00-9.96272E-03-1.30321E-01-6.74056E-15-3.74490E-13
 -1       328 1.89693E+01 4.26281E+00-1.00143E-02 1.23260E-01 4.18882E-14-3.66115E-13
 -1       329 1.90681E+01 4.19177E+00-1.07142E-02 3.88746E-01 1.05424E-13-3.62338E-13
 -1       330 1.92506E+01 4.05658E+00-1.21557E-02 6.76933E-01 1.67718E-13-3.55901E-13
 -1       331 1.95227E+01 3.83984E+00-1.45804E-02 1.00948E+00 2.40953E-13-2.90126E-13
 -1       332 1.98929E+01 3.51037E+00-1.82668E-02 1.38438E+00 2.90853E-13-2.20152E-13
 -1       333 2.04011E+01 2.99590E+00-2.22254E-02 1.77613E+00 3.38344E-13-8.77198E-14
 -1       334 2.10537E+01 2.12573E+00-2.93889E-02 2.01391E+00 3.47598E-13 1.51811E-13
 -1       335 2.14249E+01 1.17534E+00-2.31854E-02 1.66827E+00 3.06026E-13 3.62496E-13
 -1       336 2.08543E+01 5.01787E-01 9.09125E-03 6.56299E-01 2.20936E-13 2.71162E-13
 -1       337 2.09270E+01 7.19215E-01 1.34273E-02-6.60350E-01-2.32569E-13 1.51437E-13
 -1       338 2.06645E+01 4.13617E-01 8.03992E-03-2.21797E-02-1.91255E-13 1.27114E-13
 -1       339 2.06069E+01 2.81243E-01 5.15406E-03 3.86884E-01-1.49142E-13 1.07022E-13
 -1       340 2.07115E+01 2.16218E-01 3.11369E-03 6.82176E-01-9.78974E-14 3.49202E-14
 -1       341 2.09442E+01 1.76247E-01 1.97965E-03 9.12542E-01-4.18488E-14-3.64983E-15
 -1       342 2.12788E+01 1.34880E-01 1.08453E-03 1.09388E+00 1.25758E-14 1.19606E-14
 -1       343 2.16960E+01 6.79607E-02-5.32483E-05 1.21685E+00 5.13162E-14 3.75699E-14
 -1       344 2.21799E+01-5.08259E-02-1.71166E-03 1.24748E+00-3.55767E-15 9.74810E-14
 -1       345 2.27134E+01-2.45776E-01-3.94140E-03 1.12676E+00-6.34201E-14 9.43838E-14
 -1       346 2.32691E+01-5.20940E-01-6.39189E-03 7.78338E-01 3.16392E-15 8.05004E-14
 -1       347 2.37924E+01-8.22709E-01-8.08887E-03 1.39395E-01 5.36327E-14 1.19265E-13
 -1       348 2.41771E+01-9.93293E-01-7.54367E-03-7.67452E-01 3.69323E-14 2.30862E-13
 -1       349 2.42609E+01-7.76615E-01-7.24900E-03-1.71964E+00 2.85150E-14 2.91499E-13
 -1       350 2.39330E+01 2.98067E-03-6.64383E-03-2.22584E+00-9.47348E-14 2.71845E-13
 -1       351 2.33461E+01 1.09329E+00-9.45911E-03-1.74721E+00-1.70895E-13 2.43686E-13
 -1       352 2.29674E+01 1.76210E+00-1.67419E-02-2.80100E-01-2.80604E-13 1.45555E-13
 -1       353 2.31892E+01 1.42393E+00-1.12898E-02 1.39113E+00-1.74328E-13-1.28019E-13
 -1       354 2.37937E+01 3.97440E-01-6.61864E-03 2.26938E+00-3.82632E-14-1.52953E-13
 -1       355 2.42927E+01-5.56992E-01-3.05642E-03 2.07058E+00 1.11534E-13-2.22356E-13
 -1       356 2.43828E+01-9.59274E-01-6.00086E-03 1.22604E+00 9.42978E-14-2.84913E-13
 -1       357 2.41289E+01-8.96844E-01-8.22850E-03 2.76803E-01 7.34913E-14-1.47097E-13
 -1       358 2.36835E+01-6.16107E-01-7.20033E-03-4.54698E-01-2.07083E-16-7.23350E-14
 -1       359 2.31761E+01-3.20121E-01-4.75281E-03-8.87701E-01 1.06097E-13-8.62279E-14
 -1       360 2.26756E+01-9.74566E-02-2.36897E-03-1.06877E+00 6.38258E-14-1.57457E-13
 -1       361 2.22120E+01 3.97075E-02-5.52313E-04-1.07909E+00-1.82028E-13 1.81653E-14
 -1       362 2.17974E+01 1.09345E-01 5.68240E-04-9.91806E-01-7.67904E-14 1.67546E-13
 -1       363 2.14360E+01 1.34799E-01 1.13674E-03-8.59559E-01 4.99721E-14 2.30816E-13
 -1       364 2.11281E+01 1.34940E-01 1.33104E-03-7.15341E-01-1.04183E-13-4.86657E-15
 -1       365 2.08712E+01 1.22445E-01 1.30608E-03-5.77566E-01-5.47868E-14 4.41830E-14
 -1       366 2.06611E+01 1.04935E-01 1.17108E-03-4.55112E-01-1.76190E-13 1.63144E-13
 -1       367 2.04924E+01 8.66090E-02 9.94135E-04-3.51139E-01 1.96332E-13 3.60552E-13
 -1       368 2.03595E+01 6.95578E-02 8.13313E-04-2.65644E-01 9.96698E-14 1.41400E-13
 -1       369 2.02566E+01 5.46671E-02 6.47503E-04-1.97045E-01-1.93445E-13 2.02753E-14
 -1       370 2.01784E+01 4.21703E-02 5.04364E-04-1.43106E-01-2.63729E-13 7.54317E-14
 -1       371 2.01200E+01 3.19721E-02 3.85479E-04-1.01451E-01-7.41926E-14 6.36175E-15
 -1       372 2.00774E+01 2.38293E-02 2.89420E-04-6.98244E-02 5.26038E-14 8.84150E-14
 -1       373 2.00471E+01 1.74468E-02 2.13454E-04-4.62173E-02-2.41750E-16-1.51655E-13
 -1       374 2.00260E+01 1.25275E-02 1.54453E-04-2.89077E-02-9.18809E-14 1.21277E-13
 -1       375 2.00121E+01 8.79446E-03 1.09331E-04-1.64638E-02-1.21288E-13 2.65876E-13
 -1       376 2.00033E+01 6.00075E-03 7.52462E-05-7.72504E-03 1.49648E-14 3.91223E-13
 -1       377 1.99983E+01 3.92990E-03 4.96595E-05-1.77496E-03 3.66528E-13 3.74248E-13
 -1       378 1.99959E+01 2.39239E-03 3.03168E-05 2.08720E-03 2.99853E-13 4.62016E-13
 -1       379 1.99952E+01 1.21798E-03 1.52820E-05 4.37180E-03 3.72474E-13 2.10733E-13
 -1       380 1.99956E+01 2.49511E-04 3.79083E-06 5.41792E-03-4.98968E-14 5.12446E-13
 -1       381 1.99966E+01-6.71769E-04-7.24389E-06 5.43226E-03 1.32405E-14 4.27946E-13
 -1       382 1.99977E+01-1.48309E-03-1.82329E-05 4.59605E-03-1.76494E-13 5.43067E-13
 -1       383 2.05198E+01 2.58970E-01 1.12764E-02 8.98095E-02 1.75229E-13 2.20388E-13
 -1       384 2.04325E+01 1.57880E-01 6.77476E-03-2.44142E-01 1.53474E-13 1.44013E-13
 -1       385 2.05353E+01 1.05231E-01 3.41333E-03-4.58840E-01 1.29841E-13 9.73185E-14
 -1       386 2.07700E+01 6.90506E-02 1.57820E-03-6.01428E-01 5.99381E-14 4.77197E-14
 -1       387 2.10935E+01 3.27130E-02 3.68323E-04-6.86401E-01 6.69084E-14 1.65863E-14
 -1       388 2.14685E+01-1.50925E-02-7.69080E-04-7.08124E-01 8.77519E-14 2.78626E-14
 -1       389 2.18567E+01-8.25923E-02-2.01280E-03-6.46956E-01 1.26862E-13 3.80116E-14
 -1       390 2.22121E+01-1.72252E-01-3.27049E-03-4.75434E-01-6.51380E-14 1.17928E-13
 -1       391 2.24784E+01-2.74062E-01-4.18165E-03-1.70366E-01 6.64920E-15-3.44633E-14
 -1       392 2.25906E+01-3.56633E-01-4.26286E-03 2.64924E-01 7.51222E-14-1.06695E-13
 -1       393 2.24873E+01-3.63856E-01-3.16977E-03 7.68869E-01 2.22854E-13-7.89848E-14
 -1       394 2.21413E+01-2.34025E-01-1.12740E-03 1.19738E+00 4.83478E-14 1.01157E-13
 -1       395 2.16068E+01 4.94297E-02 1.14375E-03 1.34514E+00-6.15297E-14 5.22716E-14
 -1       396 2.10535E+01 3.99269E-01 2.65595E-03 1.04634E+00 2.95762E-14 8.15502E-14
 -1       397 2.07259E+01 6.34979E-01 4.18957E-03 3.24777E-01 7.95015E-14 5.96903E-14
 -1       398 2.07969E+01 6.10156E-01 5.04207E-03-5.48432E-01 1.11086E-13-5.23873E-14
 -1       399 2.12415E+01 3.41853E-01 4.79269E-03-1.20531E+00 2.90319E-14-1.31321E-13
 -1       400 2.18546E+01-4.91488E-03 2.90122E-03-1.41765E+00-1.16233E-13-1.09938E-13
 -1       401 2.24003E+01-2.61270E-01-4.22216E-04-1.20797E+00-7.61175E-15-1.43822E-13
 -1       402 2.27367E+01-3.61132E-01-3.39631E-03-7.61075E-01 2.70276E-13-1.40014E-13
 -1       403 2.28347E+01-3.33940E-01-4.81823E-03-2.75732E-01 4.57707E-14-2.19496E-13
 -1       404 2.27350E+01-2.43873E-01-4.55248E-03 1.21578E-01-1.08364E-13-3.29407E-13
 -1       405 2.25013E+01-1.43697E-01-3.40406E-03 3.85553E-01-6.97574E-14-2.58914E-13
 -1       406 2.21938E+01-6.09966E-02-2.02365E-03 5.23569E-01 6.56522E-15 6.73300E-15
 -1       407 2.18596E+01-3.81096E-03-8.26329E-04 5.65530E-01 1.12103E-14 8.98810E-14
 -1       408 2.15314E+01 3.01409E-02 3.50710E-05 5.44611E-01 6.74882E-14 1.67382E-13
 -1       409 2.12291E+01 4.67045E-02 5.61255E-04 4.88469E-01 1.64796E-13 8.61427E-14
 -1       410 2.09635E+01 5.17953E-02 8.21627E-04 4.16934E-01 6.83425E-14 1.82067E-13
 -1       411 2.07383E+01 5.00976E-02 8.99264E-04 3.42741E-01-2.00367E-13-2.23820E-13
 -1       412 2.05530E+01 4.48777E-02 8.65877E-04 2.73224E-01-1.14456E-13-4.06391E-13
 -1       413 2.04044E+01 3.82251E-02 7.73983E-04 2.12024E-01-4.79046E-14-8.34674E-14
 -1       414 2.02880E+01 3.13798E-02 6.58232E-04 1.60427E-01 1.65115E-14 1.35366E-13
 -1       415 2.01988E+01 2.50150E-02 5.39572E-04 1.18339E-01 1.51546E-13 9.63377E-14
 -1       416 2.01321E+01 1.94462E-02 4.29475E-04 8.49260E-02 6.51829E-14-2.54550E-14
 -1       417 2.00834E+01 1.47741E-02 3.33312E-04 5.90223E-02 2.94026E-14-6.46107E-14
 -1       418 2.00488E+01 1.09778E-02 2.52753E-04 3.93792E-02-9.21456E-14-5.96060E-14
 -1       419 2.00251E+01 7.97355E-03 1.87357E-04 2.48034E-02-6.71151E-14-2.76379E-13
 -1       420 2.00095E+01 5.64958E-03 1.35576E-04 1.42296E-02 2.36726E-15-3.56647E-13
 -1       421 2.00000E+01 3.88682E-03 9.53633E-05 6.75058E-03 9.90552E-14-1.17606E-13
 -1       422 1.99948E+01 2.56956E-03 6.45142E-05 1.62458E-03-1.20629E-13-2.73688E-15
 -1       423 1.99926E+01 1.59007E-03 4.08239E-05-1.73061E-03 2.65618E-13-2.30929E-13
 -1       424 1.99925E+01 8.47641E-04 2.22782E-05-3.74864E-03 3.31349E-13 1.64388E-13
 -1       425 1.99935E+01 2.41985E-04 8.02322E-06-4.72329E-03 2.83474E-13-4.80121E-14
 -1       426 1.99952E+01-3.20799E-04-2.11047E-06-4.81258E-03 1.06447E-13-1.33043E-13
 -1       427 1.99971E+01-9.40953E-04-6.80537E-06-4.06888E-03-1.68685E-13 2.62319E-13
 -1       428 1.99982E+01-1.47399E-03-1.09789E-05-3.26857E-03-7.72024E-14 6.64184E-13
 -1       429 2.00004E+01-4.97714E-03 2.53343E-06-4.69784E-03-1.20996E-14 2.43998E-13
 -1       430 1.99996E+01-3.65680E-03-8.32042E-06-4.94015E-03-1.63466E-13 1.63625E-13
 -1       431 1.99989E+01-2.65712E-03-1.51863E-05-4.41862E-03-3.39564E-13 2.38895E-13
 -1       432 2.00007E+01-6.04021E-03 7.91254E-06-3.93384E-03-2.35345E-13-4.51917E-13
 -1       433 2.00009E+01-6.85131E-03 1.09071E-05-2.89745E-03-2.27826E-13-2.63409E-13
 -1       434 2.00010E+01-7.38302E-03 1.26073E-05-1.76247E-03-1.64073E-13-4.51783E-13
 -1       435 2.00010E+01-7.64999E-03 1.33089E-05-6.05619E-04-3.78624E-13-3.29127E-13
 -1       436 2.00010E+01-7.66310E-03 1.33648E-05 5.56811E-04-3.85560E-13-2.29244E-13
 -1       437 2.00010E+01-7.41933E-03 1.27551E-05 1.72813E-03-1.61626E-13-3.75680E-13
 -1       438 2.00009E+01-6.91368E-03 1.10461E-05 2.86895E-03 2.62878E-14 9.34113E-15
 -1       439 2.00008E+01-6.11305E-03 7.70058E-06 3.93636E-03 9.62079E-14 7.43800E-13
 -1       440 2.00004E+01-5.02013E-03 2.11583E-06 4.73818E-03 3.51977E-13-1.51146E-13
 -1       441 1.99996E+01-3.71760E-03-9.84280E-06 5.04657E-03-1.20855E-13 6.63835E-14
 -1       442 1.18209E+01-5.27968E+00 1.34205E-02 7.07493E+00-9.20514E-14 3.62099E-13
 -1       443 1.00783E+00-4.66547E+00-9.06132E-02 3.84535E-01-5.90673E-14 6.01547E-13
 -1       444 3.56887E+00-4.48079E+00-2.81782E-02 4.24581E+00-1.47715E-13 4.75370E-13
 -1       445 2.00689E+01-5.40683E+00 1.10686E-02 6.51170E+00-2.42806E-13 4.43964E-13
 -1       446 2.65778E+01-3.88991E+00-3.18784E-02 3.95899E+00 1.04708E-14-4.10089E-14
 -1       447 1.98636E+01 3.55461E+00-1.80957E-02-1.35572E+00-2.55988E-13-2.38536E-13
 -1       448 3.42857E+01 5.41471E+00-5.37127E-03-3.15987E-01 4.77174E-13-2.57433E-13
 -1       449 3.42913E+01 7.73221E+00-5.48689E-02-4.06405E-01 8.45157E-13-2.74378E-13
 -1       450 3.54086E+01 7.02169E+00 3.40968E-02 1.35322E-01 8.86513E-13-1.25781E-13
 -1       451 3.39396E+01 3.69577E+00 4.09299E-02-5.00026E-01 6.78776E-13-4.04815E-14
 -1       452 3.11896E+01-8.66055E-02 5.18761E-02-2.35524E+00 4.56085E-13-1.52045E-13
 -1       453 2.41224E+01-4.11945E+00-2.09302E-02-5.44867E+00 2.02297E-13-5.08177E-13
 -1       454 1.61224E+01-5.49622E+00-5.50429E-02-7.04149E+00 2.61624E-13-3.84238E-13
 -1       455 8.21786E+00-5.65598E+00-8.67479E-02-6.51134E+00 8.96228E-14-6.70144E-13
 -1       456 2.36588E+00-4.84604E+00-8.72181E-02-3.32004E+00 1.16365E-14-9.62785E-13
 -1       457 1.48260E+00-4.21067E+00-2.56005E-02 7.20760E-01-1.79023E-15-9.59760E-13
 -1       458 5.98598E+00-5.28319E+00-5.82903E-02 5.57807E+00-7.13735E-14-6.59681E-13
 -1       459 1.27529E+01-5.83083E+00-6.41071E-02 6.97720E+00-2.20629E-13-6.60052E-13
 -1       460 2.15029E+01-5.53388E+00-3.39070E-02 6.04991E+00-2.02116E-13-2.72775E-13
 -1       461 2.97299E+01-2.23370E+00 1.76542E-03 2.65650E+00-4.03323E-13-6.70575E-14
 -1       462 3.35244E+01 2.34514E+00 6.53237E-03 1.28472E-01-7.42732E-13 5.39707E-14
 -1       463 3.52459E+01 5.98561E+00 2.30116E-02-3.87407E-01-9.44633E-13-2.00395E-14
 -1       464 3.55529E+01 8.03505E+00 3.01879E-02 8.11692E-02-8.68500E-13-2.70253E-14
 -1       465 3.60531E+01 6.38816E+00 7.64339E-02 2.83303E-01-5.50851E-13 9.39387E-14
 -1       466 3.43540E+01 2.90843E+00 5.20330E-02-5.58539E-01-2.02657E-13 3.11889E-13
 -1       467 3.04559E+01-1.47423E+00-6.59918E-03-2.12247E+00-7.51968E-14 1.81105E-13
 -1       468 2.44770E+01-4.22322E+00-1.61730E-02-5.14452E+00-6.35325E-14-6.59472E-14
 -1       469 1.72842E+01-5.72399E+00-2.80365E-02-6.74302E+00-5.25413E-14-1.55273E-13
 -1       470 1.04067E+01-5.56339E+00-2.87370E-02-6.71254E+00 7.92283E-14 2.90122E-13
 -1       471 3.99178E+00-4.34725E+00-4.72617E-05-4.24451E+00-8.29059E-14 3.36911E-13
 -1       472 3.23248E+01 1.46688E+00 1.49657E-02 7.49858E-01 2.60354E-13-1.93831E-13
 -1       473 9.87951E+00-3.72888E+00 1.15467E-01 6.46212E+00-1.89383E-13 3.33469E-13
 -1       474 5.09882E+00-2.80075E+00 1.32420E-01 3.69237E+00 1.19162E-13-7.91187E-13
 -1       475 3.10550E+01 7.62777E+00-1.37102E-01 3.06859E-01 8.58452E-13-6.36054E-14
 -1       476 2.07892E+01 8.97689E-01 4.17964E-03 5.63775E-01 2.28336E-13 1.51167E-14
 -1       477 1.93404E+01 3.49382E+00-4.56962E-03-3.89675E-01-1.04428E-13-3.06201E-13
 -1       478 1.95909E+01 3.25568E+00-5.35904E-03-6.01763E-01-1.56233E-13-2.99149E-13
 -1       479 1.91504E+01 3.65920E+00-4.01837E-03-1.29278E-02 8.56644E-15-3.15603E-13
 -1       480 1.92146E+01 3.60078E+00-4.16449E-03 1.75691E-01 7.04338E-14-3.21853E-13
 -1       481 1.93758E+01 3.45271E+00-4.62727E-03 3.77591E-01 1.21320E-13-3.07551E-13
 -1       482 1.96316E+01 3.20307E+00-5.38091E-03 6.05628E-01 2.07411E-13-2.77481E-13
 -1       483 1.99709E+01 2.83529E+00-6.23196E-03 8.49148E-01 2.57995E-13-2.25124E-13
 -1       484 2.03960E+01 2.30680E+00-5.61681E-03 1.08122E+00 2.85053E-13-1.40821E-13
 -1       485 2.06456E+01 5.50525E-01 5.44190E-03-1.73390E-02 2.04865E-13-3.11676E-14
 -1       486 2.07095E+01 1.10945E+00 3.01613E-03-4.42175E-01-2.23619E-13-4.04123E-14
 -1       487 2.79665E+01-3.69044E+00-3.36365E-02-2.00536E+00 9.95384E-15 6.25472E-14
 -1       488 2.88072E+01-2.26374E+00-9.26984E-02 4.30485E-01 3.50787E-14-3.79759E-13
 -1       489 2.06320E+01 7.35405E-01 2.27732E-03 1.46066E-01-1.81159E-13-6.60248E-14
 -1       490 2.06041E+01 5.42285E-01 1.55707E-03 5.90029E-01-1.40054E-13-4.69242E-14
 -1       491 2.06502E+01 4.31353E-01 1.03012E-03 9.38069E-01-9.38970E-14-1.70869E-14
 -1       492 2.07713E+01 3.46797E-01 6.80081E-04 1.22063E+00-3.11985E-14-4.68193E-14
 -1       493 2.09680E+01 2.43583E-01 3.00735E-04 1.44623E+00 1.94792E-15-9.36482E-14
 -1       494 2.12512E+01 7.51968E-02-2.86469E-04 1.60095E+00 3.07092E-14-1.21298E-13
 -1       495 2.16476E+01-2.08259E-01-1.18211E-03 1.64535E+00 1.54507E-14-7.46174E-14
 -1       496 2.21997E+01-6.45975E-01-2.41415E-03 1.50976E+00-1.49544E-15 6.49556E-14
 -1       497 2.29479E+01-1.22183E+00-3.88685E-03 1.09560E+00 8.57029E-14 1.74726E-13
 -1       498 2.38780E+01-1.78095E+00-5.34600E-03 3.04103E-01 8.20808E-14 1.42476E-13
 -1       499 2.48348E+01-1.93855E+00-6.81049E-03-8.65581E-01 5.40564E-14 1.56242E-13
 -1       500 2.54510E+01-1.10893E+00-2.04628E-02-2.09861E+00-2.74945E-14 2.32138E-13
 -1       501 2.54148E+01 8.45433E-01-2.82890E-02-2.58093E+00-2.02887E-13 2.85221E-13
 -1       502 2.47720E+01 2.97412E+00-9.73088E-02-1.47287E+00-3.40464E-13 1.53960E-13
 -1       503 2.47510E+01 3.47921E+00-6.93192E-02 7.58118E-01-3.89397E-13-5.35791E-14
 -1       504 2.52478E+01 1.72329E+00-5.05597E-02 2.45309E+00-2.17245E-13-2.34068E-13
 -1       505 2.54905E+01-4.66328E-01-4.57340E-02 2.57332E+00 1.04812E-14-3.66130E-13
 -1       506 2.51969E+01-1.77657E+00-4.53630E-03 1.48863E+00 4.01072E-14-2.73774E-13
 -1       507 2.43262E+01-1.89702E+00-8.76904E-03 2.26964E-01 7.13015E-14-2.81094E-13
 -1       508 2.33739E+01-1.41335E+00-5.33303E-03-7.08688E-01 8.08605E-14-1.98846E-13
 -1       509 2.25696E+01-8.11098E-01-3.21066E-03-1.23532E+00 2.31097E-14-1.61317E-13
 -1       510 2.19671E+01-3.22014E-01-1.70372E-03-1.44604E+00 2.90960E-14-2.42789E-13
 -1       511 2.15300E+01 1.60818E-03-5.30698E-04-1.45314E+00 1.28677E-15-2.85076E-13
 -1       512 2.12090E+01 1.81726E-01 1.28092E-04-1.34393E+00-1.35580E-14-1.28553E-13
 -1       513 2.09638E+01 2.61561E-01 4.67403E-04-1.17901E+00-3.00904E-15-9.99713E-14
 -1       514 2.07691E+01 2.79905E-01 5.96830E-04-9.96409E-01-7.94615E-14-4.48739E-14
 -1       515 2.06103E+01 2.64669E-01 6.05708E-04-8.18349E-01-7.72221E-14 1.33368E-13
 -1       516 2.04794E+01 2.33714E-01 5.52525E-04-6.56553E-01 2.35235E-15 6.45824E-14
 -1       517 2.03716E+01 1.97558E-01 4.73873E-04-5.16112E-01 1.23302E-13 3.15715E-13
 -1       518 2.02837E+01 1.61922E-01 3.90303E-04-3.98137E-01-3.96590E-14 2.39650E-13
 -1       519 2.02128E+01 1.29597E-01 3.12255E-04-3.01513E-01-1.29638E-13 7.17008E-14
 -1       520 2.01566E+01 1.01691E-01 2.44179E-04-2.24020E-01-2.30641E-13 9.60294E-14
 -1       521 2.01128E+01 7.83910E-02 1.87266E-04-1.63005E-01-8.15320E-14 3.43815E-13
 -1       522 2.00793E+01 5.94170E-02 1.41064E-04-1.15779E-01 3.84129E-14 3.13186E-13
 -1       523 2.00541E+01 4.42768E-02 1.04393E-04-7.98288E-02-2.52088E-13 1.51762E-13
 -1       524 2.00356E+01 3.24086E-02 7.58297E-05-5.29197E-02 1.15372E-13 1.43163E-13
 -1       525 2.00223E+01 2.32547E-02 5.39470E-05-3.31362E-02 3.39588E-14 3.58307E-13
 -1       526 2.00131E+01 1.62969E-02 3.74113E-05-1.88819E-02 1.66234E-13 4.74179E-13
 -1       527 2.00069E+01 1.10707E-02 2.50239E-05-8.86091E-03 1.27389E-13 2.38328E-13
 -1       528 2.00029E+01 7.16689E-03 1.57791E-05-2.05087E-03 4.29553E-13 2.31026E-13
 -1       529 2.00006E+01 4.22538E-03 8.78387E-06 2.33047E-03 1.80294E-13 4.83500E-13
 -1       530 1.99994E+01 1.91904E-03 3.77182E-06 4.84991E-03 1.43334E-13 1.57671E-13
 -1       531 1.99990E+01-4.52161E-05-1.54858E-07 5.89150E-03-4.32756E-14 2.90099E-14
 -1       532 2.06693E+01 2.45157E-01 1.38550E-03-6.88433E-01 1.20602E-13-1.02023E-16
 -1       533 2.08231E+01 1.49943E-01 5.39160E-04-8.75938E-01 7.43410E-14 1.34462E-14
 -1       534 2.10522E+01 4.43410E-02-1.44353E-04-9.82374E-01 8.01238E-14 1.68213E-14
 -1       535 2.13444E+01-9.53967E-02-9.03831E-04-9.94927E-01 5.59633E-14 3.30022E-14
 -1       536 2.16883E+01-2.83950E-01-1.80827E-03-8.85122E-01-2.90469E-15 1.25416E-13
 -1       537 2.20673E+01-5.16592E-01-2.75171E-03-6.16663E-01 2.83582E-14 5.25035E-14
 -1       538 2.24479E+01-7.51351E-01-3.26903E-03-1.62469E-01 8.37698E-14 5.70371E-14
 -1       539 2.27653E+01-8.88592E-01-2.92372E-03 4.62481E-01 7.33013E-14 1.31461E-13
 -1       540 2.29205E+01-7.77596E-01-1.68798E-03 1.14888E+00 5.57205E-14 1.60435E-13
 -1       541 2.28204E+01-2.93473E-01-8.55618E-04 1.65758E+00 2.61629E-15 1.67689E-13
 -1       542 2.24741E+01 5.13040E-01-5.97115E-04 1.66756E+00-5.39068E-14 1.66631E-13
 -1       543 2.20819E+01 1.29503E+00-1.91495E-03 9.87295E-01 7.08986E-14 2.05483E-13
 -1       544 2.19469E+01 1.56799E+00-1.65792E-03-1.80112E-01 2.23699E-13 1.35521E-13
 -1       545 2.21846E+01 1.15333E+00-1.29034E-03-1.28150E+00 6.83134E-14 7.27571E-14
 -1       546 2.26169E+01 3.30606E-01 1.49515E-04-1.81447E+00-1.43642E-14-5.14519E-15
 -1       547 2.29440E+01-4.16737E-01 8.51743E-05-1.67925E+00 8.17460E-14-2.31484E-13
 -1       548 2.30106E+01-8.10385E-01-1.81969E-03-1.11929E+00 1.00547E-13-3.87240E-13
 -1       549 2.28393E+01-8.49988E-01-3.49891E-03-4.47731E-01 1.35528E-13-1.53101E-13
 -1       550 2.25312E+01-6.78372E-01-3.43319E-03 1.26627E-01-1.07621E-13-1.30327E-13
 -1       551 2.21770E+01-4.40175E-01-2.65550E-03 5.23422E-01-7.07387E-14-1.47264E-13
 -1       552 2.18300E+01-2.22633E-01-1.63723E-03 7.44530E-01-1.48104E-13-1.71646E-13
 -1       553 2.15137E+01-6.02387E-02-7.47134E-04 8.27058E-01-2.85257E-14-4.70564E-14
 -1       554 2.12352E+01 4.42675E-02-9.72510E-05 8.15031E-01 3.75892E-14-6.02507E-14
 -1       555 2.09947E+01 1.01714E-01 3.09227E-04 7.46598E-01 1.92708E-14 4.60299E-14
 -1       556 2.07900E+01 1.25933E-01 5.20681E-04 6.50255E-01-1.05599E-14 1.49272E-13
 -1       557 2.06182E+01 1.29057E-01 5.95381E-04 5.45225E-01 2.05420E-13 1.96320E-13
 -1       558 2.04760E+01 1.20159E-01 5.85542E-04 4.43334E-01 5.26655E-14-6.18561E-15
 -1       559 2.03603E+01 1.05395E-01 5.29834E-04 3.51079E-01-2.31250E-13 2.07438E-14
 -1       560 2.02675E+01 8.86517E-02 4.54091E-04 2.71382E-01-1.00530E-13 1.07146E-13
 -1       561 2.01945E+01 7.22073E-02 3.74159E-04 2.04911E-01 1.31194E-13 1.33810E-13
 -1       562 2.01380E+01 5.72697E-02 2.98881E-04 1.51016E-01 1.84041E-13 2.44023E-14
 -1       563 2.00952E+01 4.43700E-02 2.32548E-04 1.08364E-01 9.99271E-14 6.47869E-14
 -1       564 2.00633E+01 3.36316E-02 1.76669E-04 7.53416E-02 3.41089E-14-1.32163E-13
 -1       565 2.00402E+01 2.49480E-02 1.31149E-04 5.03019E-02 2.23390E-13-1.54985E-13
 -1       566 2.00239E+01 1.80944E-02 9.50487E-05 3.17087E-02 2.33354E-14-2.57009E-13
 -1       567 2.00128E+01 1.27966E-02 6.70331E-05 1.82065E-02-1.27047E-13-3.93572E-13
 -1       568 2.00055E+01 8.77007E-03 4.56454E-05 8.65121E-03-1.24553E-13-1.65901E-13
 -1       569 2.00011E+01 5.74113E-03 2.94402E-05 2.11465E-03 1.04756E-13-3.70348E-13
 -1       570 1.99988E+01 3.45678E-03 1.69208E-05-2.12708E-03-9.22002E-15-1.47089E-13
 -1       571 1.99978E+01 1.67929E-03 7.50690E-06-4.61033E-03 2.83252E-13 1.17564E-13
 -1       572 1.99977E+01 1.77538E-04-1.99620E-06-5.71585E-03 8.80546E-14 3.85416E-13
 -1       573 1.99982E+01-1.24329E-03-7.72458E-06-5.65846E-03-2.08433E-13 4.91670E-13
 -1       574 2.00019E+01-1.95348E-03 4.20851E-06-3.73003E-03 3.63805E-14-3.21520E-13
 -1       575 2.00020E+01-1.79047E-03 5.03990E-06-2.49517E-03-1.07523E-13-3.15531E-13
 -1       576 2.00004E+01-1.91549E-03-3.88721E-06-5.62795E-03-1.39734E-13 2.11243E-13
 -1       577 2.00014E+01-2.03170E-03 3.00452E-06-4.83973E-03-2.54408E-13-2.40267E-13
 -1       578 2.00020E+01-1.64807E-03 5.70226E-06-1.25739E-03-1.53734E-13-5.86865E-13
 -1       579 2.00020E+01-1.60380E-03 5.82888E-06-3.86487E-05 9.00165E-16-6.76943E-14
 -1       580 2.00021E+01-1.68124E-03 5.76864E-06 1.19092E-03 1.48925E-13-4.29234E-14
 -1       581 2.00021E+01-1.84681E-03 5.22272E-06 2.43459E-03 4.75293E-13-2.28194E-13
 -1       582 2.00019E+01-2.02948E-03 3.65045E-06 3.71190E-03 3.42303E-13 3.47377E-13
 -1       583 2.00014E+01-2.08841E-03 1.28640E-06 4.88301E-03-4.55843E-15 4.01091E-13
 -1       584 2.00004E+01-1.92401E-03-2.04513E-06 5.65191E-03-1.63048E-13-3.16976E-13
 -1       585 1.83852E+01-5.05102E+00 1.02659E-01 6.43833E+00-1.49693E-13 3.37553E-13
 -1       586 4.75448E+00-1.59091E+00 1.56502E-01-1.77347E+00 5.26246E-14 4.21760E-13
 -1       587 2.06057E+01 3.61920E-01 2.88825E-03-4.12909E-01 1.46458E-13-2.45769E-14
 -1       588 4.80335E+00-1.61001E+00 1.80119E-01 2.01995E+00-1.70993E-13 4.47350E-13
 -1       589 2.32103E+01-5.37700E+00 1.54603E-02 4.66989E+00-2.40488E-13 3.34802E-14
 -1       590 3.01269E+01 2.60776E+00-1.22328E-01-1.76401E+00 2.60320E-13-4.18839E-13
 -1       591 2.31711E+01-5.65571E+00 3.59941E-02-4.89243E+00 2.62845E-14-1.51362E-13
 -1       592 3.00033E+01-1.31377E+00-1.12913E-01-8.28305E-01-2.37253E-13 3.86129E-13
 -1       593 8.80767E+00-2.77775E+00 1.63377E-01-5.62116E+00-2.51348E-13-6.00062E-13
 -1       594 2.06665E+01 1.85186E+00-4.89664E-03-1.09695E+00-2.64956E-13-6.03930E-14
 -1       595 1.91922E+01 3.62496E+00-4.14760E-03-1.96865E-01-5.18489E-14-3.13062E-13
 -1       596 3.05789E+01 4.65181E+00-1.62047E-01 1.61483E+00 6.02060E-13 1.66027E-13
 -1       597 2.99356E+01 5.60658E+00-1.73100E-01-1.58825E+00 5.16143E-13-3.09114E-13
 -1       598 2.19188E+01-5.66819E+00 2.26166E-02-5.68552E+00-1.49152E-13-1.84158E-13
 -1       599 2.98237E+01 3.02378E-01-1.17831E-01 1.10788E+00 3.24726E-13 2.60715E-13
 -1       600 1.22249E+01-4.36871E+00 1.04614E-01 6.61623E+00 1.62696E-13-5.54598E-13
 -1       601 1.49915E+01-5.09722E+00 8.53195E-02-7.08518E+00-1.88377E-13-2.82330E-13
 -1       602 4.61534E+00-1.70247E+00 1.72094E-01-1.65393E+00-4.99288E-14-9.47201E-13
 -1       603 3.08559E+01 6.47334E+00-1.67495E-01 1.06428E+00-7.52537E-13-3.03577E-14
 -1       604 1.89364E+01-5.66170E+00 4.95496E-02 6.41210E+00 1.76983E-13-2.15745E-13
 -1       605 2.66243E+01-5.01125E+00-8.13489E-03 2.73865E+00 6.94098E-14 3.21229E-13
 -1       606 2.97400E+01 3.05663E+00-1.51817E-01-2.33644E+00-5.91707E-13 2.95111E-13
 -1       607 2.95367E+01 6.36086E+00-1.64811E-01-1.14800E+00-8.33639E-13 9.97067E-14
 -1       608 3.08214E+01 3.57519E+00-1.56321E-01 2.11555E+00-2.83891E-13-3.45626E-14
 -1       609 3.05256E+01-1.42146E-01-8.52557E-02 1.25271E+00-4.40481E-14 5.85088E-14
 -1       610 2.76942E+01-4.32392E+00-4.33312E-02-2.01847E+00 6.83308E-14 1.91541E-13
 -1       611 1.64228E+01-5.02408E+00 9.29546E-02-6.58234E+00 1.61614E-13-1.43979E-13
 -1       612 9.95016E+00-3.11866E+00 1.55523E-01-5.87819E+00 1.77934E-13 2.62637E-13
 -1       613 2.09430E+01 1.33316E+00-8.31353E-04 1.19698E+00 2.83509E-13 7.33053E-14
 -1       614 1.99312E+01 2.89421E+00-6.45555E-03-8.27174E-01-2.14356E-13-2.35175E-13
 -1       615 2.62994E+01-4.44197E+00-1.63701E-02 1.79519E+00-1.72633E-13-3.20667E-13
 -1       616 1.99989E+01-1.30489E-03-4.62302E-06 5.89951E-03-1.42666E-13 1.17684E-13
 -1       617 8.69266E+00-1.52796E+00 1.58463E-01 4.46687E+00-2.14873E-13 4.72025E-13
 -1       618 6.13439E+00-9.00794E-01 1.83214E-01 1.22684E+00 4.72964E-14-7.79904E-13
 -1       619 2.02839E+01 2.44845E+00-5.98016E-03-9.94756E-01-2.50361E-13-1.84298E-13
 -1       620 9.95165E+00-2.51043E+00 1.42694E-01 5.37292E+00 2.15439E-13-6.00978E-13
 -1       621 2.81462E+01 6.36960E+00-1.68162E-01-8.42778E-01 5.80286E-13-2.42243E-13
 -1       622 1.94257E+01 2.95235E+00-1.32549E-03 1.26630E-01 8.83368E-14-2.58275E-13
 -1       623 1.92970E+01 3.07962E+00-1.21293E-03 2.08520E-02 2.39849E-14-2.52834E-13
 -1       624 1.99583E+01 2.36966E+00-1.44819E-03 3.81887E-01 2.10744E-13-2.10142E-13
 -1       625 2.03059E+01 1.89639E+00-2.03207E-03 4.93850E-01 2.28477E-13-1.86694E-13
 -1       626 2.05937E+01 1.19524E+00 2.74215E-03 3.15623E-01 2.20656E-13-1.05736E-13
 -1       627 2.79476E+01-2.76520E+00-3.88569E-02 9.27129E-01 2.40298E-13-5.40089E-14
 -1       628 2.04193E+01 1.02094E+00 5.36197E-04 3.49903E-01-1.49344E-13-1.01991E-13
 -1       629 2.03740E+01 8.01712E-01 3.84369E-04 7.74500E-01-9.39589E-14-8.30714E-14
 -1       630 2.03467E+01 6.56117E-01 2.82513E-04 1.13192E+00-7.79249E-14-7.87902E-14
 -1       631 2.03556E+01 5.23649E-01 2.13292E-04 1.43997E+00-5.31403E-14-1.06536E-13
 -1       632 2.04245E+01 3.43882E-01 1.14756E-04 1.70613E+00 1.81882E-14-9.87040E-14
 -1       633 2.05967E+01 4.88567E-02-5.29010E-05 1.92292E+00 4.74386E-14-3.71524E-14
 -1       634 2.09477E+01-4.35739E-01-1.88329E-04 2.06024E+00 9.08885E-14 3.39718E-15
 -1       635 2.15959E+01-1.16873E+00 1.15022E-04 2.04617E+00 9.74582E-14 2.15669E-15
 -1       636 2.26635E+01-2.10537E+00-9.54425E-05 1.73895E+00 7.26620E-14 1.64428E-14
 -1       637 2.42120E+01-2.95797E+00 2.27601E-03 9.38763E-01 9.98054E-14 1.07654E-13
 -1       638 2.60004E+01-2.99901E+00-1.13694E-02-5.00893E-01 1.37153E-13 2.58913E-13
 -1       639 2.70736E+01 4.10580E+00-1.65740E-01 2.21170E+00-4.28706E-13-3.53360E-13
 -1       640 2.74132E+01 3.46621E-01-1.00611E-01 2.59263E+00-5.63438E-14-2.44091E-13
 -1       641 2.31883E+01-2.41504E+00 5.73738E-04-1.36543E+00 6.70510E-14 4.53897E-14
 -1       642 2.19429E+01-1.44596E+00-2.95366E-04-1.81892E+00-1.78321E-14-5.40864E-14
 -1       643 2.11552E+01-6.33462E-01-6.89027E-04-1.90259E+00-7.37870E-14-6.80145E-14
 -1       644 2.07021E+01-7.95930E-02-1.06987E-04-1.80741E+00-2.50647E-14-1.57273E-13
 -1       645 2.04584E+01 2.42302E-01 9.39356E-05-1.62605E+00 3.13944E-14-5.57648E-14
 -1       646 2.03295E+01 3.98421E-01 1.99490E-04-1.41303E+00 8.50873E-14 2.48980E-14
 -1       647 2.02584E+01 4.49075E-01 2.28096E-04-1.19603E+00 8.35309E-14 1.23316E-13
 -1       648 2.02141E+01 4.38841E-01 2.21700E-04-9.90324E-01-1.37476E-14 2.79494E-13
 -1       649 2.01815E+01 3.97363E-01 1.97461E-04-8.04148E-01 8.12164E-14 4.57073E-13
 -1       650 2.01538E+01 3.42979E-01 1.67261E-04-6.41292E-01 1.13944E-13 3.06743E-13
 -1       651 2.01289E+01 2.86299E-01 1.36885E-04-5.02649E-01-1.11707E-14 1.90643E-13
 -1       652 2.01062E+01 2.32982E-01 1.09203E-04-3.87282E-01-2.56387E-13 1.97694E-13
 -1       653 2.00858E+01 1.85683E-01 8.53395E-05-2.93182E-01-2.37720E-13 2.48024E-13
 -1       654 2.00680E+01 1.45306E-01 6.54960E-05-2.17806E-01-1.54804E-13 2.17565E-13
 -1       655 2.00529E+01 1.11793E-01 4.94173E-05-1.58447E-01-2.34759E-13-2.82546E-14
 -1       656 2.00403E+01 8.45911E-02 3.66526E-05-1.12465E-01-2.24356E-13-1.06613E-13
 -1       657 2.00301E+01 6.29266E-02 2.66928E-05-7.74247E-02-1.76459E-13-2.26388E-14
 -1       658 2.00220E+01 4.59636E-02 1.90484E-05-5.11734E-02 1.04887E-13-2.90429E-14
 -1       659 2.00157E+01 3.28860E-02 1.32719E-05-3.18638E-02 2.98648E-14-1.06641E-13
 -1       660 2.00109E+01 2.29379E-02 8.90967E-06-1.79561E-02 7.70957E-14-1.83736E-13
 -1       661 2.00074E+01 1.54414E-02 5.53955E-06-8.20197E-03 2.48609E-13-6.18983E-14
 -1       662 2.00047E+01 9.80001E-03 2.97512E-06-1.61792E-03 3.02928E-13-3.18439E-13
 -1       663 2.00028E+01 5.48427E-03 4.22249E-06 2.55811E-03-3.21777E-14-4.82570E-13
 -1       664 2.00015E+01 2.00895E-03-1.19143E-06 4.84475E-03 1.78931E-13-3.86290E-13
 -1       665 2.06830E+01 2.20040E-01 1.00363E-04-1.09857E+00 9.06449E-14-9.07607E-14
 -1       666 2.05785E+01 3.88075E-01 2.99502E-04-8.87066E-01 1.07891E-13-9.98452E-14
 -1       667 2.11420E+01-2.49861E-01-4.16433E-04-1.25114E+00-3.94488E-14 1.64470E-14
 -1       668 2.15360E+01-6.04501E-01-8.62735E-04-1.13706E+00 2.08035E-14 3.72859E-14
 -1       669 2.20592E+01-1.02281E+00-1.44827E-03-8.33528E-01-3.67821E-14 1.44114E-13
 -1       670 2.26919E+01-1.41145E+00-1.50071E-03-2.90286E-01-4.48453E-17 2.35683E-13
 -1       671 2.33321E+01-1.55550E+00-1.27976E-03 4.95186E-01 2.91717E-14 3.80323E-13
 -1       672 2.37901E+01-1.16641E+00-3.41715E-03 1.37539E+00 5.51404E-14 4.13286E-13
 -1       673 2.38356E+01-2.98140E-02-1.01663E-02 1.97595E+00 4.38690E-15 2.89348E-13
 -1       674 2.35056E+01 1.54277E+00-1.42354E-02 1.76730E+00 4.25132E-14 1.76088E-13
 -1       675 2.31359E+01 2.72394E+00-2.55804E-02 5.77651E-01 2.04886E-13 1.32374E-13
 -1       676 2.32082E+01 2.54419E+00-2.23487E-02-1.00556E+00 2.35861E-13 8.06137E-14
 -1       677 2.36108E+01 1.21565E+00-1.59362E-02-2.00881E+00 1.58467E-13-1.61676E-13
 -1       678 2.39019E+01-3.24261E-01-6.43466E-03-2.00448E+00 1.40717E-13-4.08730E-13
 -1       679 2.37543E+01-1.27924E+00-1.22544E-03-1.31405E+00 1.05237E-13-2.56285E-13
 -1       680 2.32466E+01-1.52176E+00-2.36197E-03-4.47334E-01 1.05283E-13-2.31157E-13
 -1       681 2.26026E+01-1.29457E+00-1.76965E-03 2.71302E-01 6.49200E-14-1.24368E-13
 -1       682 2.19976E+01-8.90854E-01-1.31942E-03 7.43593E-01-6.70095E-14-1.51360E-13
 -1       683 2.15049E+01-4.93159E-01-7.85987E-04 9.92475E-01-1.51862E-13-3.77374E-16
 -1       684 2.11327E+01-1.81331E-01-3.93746E-04 1.07628E+00-1.62841E-13 2.01252E-14
 -1       685 2.08598E+01 2.95947E-02-1.17723E-04 1.05197E+00 1.14649E-14 1.48785E-14
 -1       686 2.06600E+01 1.53793E-01 5.56023E-05 9.64239E-01-4.55242E-14 2.25774E-13
 -1       687 2.05114E+01 2.13901E-01 1.53338E-04 8.44944E-01 3.11158E-14 2.05524E-13
 -1       688 2.03981E+01 2.31353E-01 1.94902E-04 7.15362E-01 1.22616E-13 1.56949E-13
 -1       689 2.03098E+01 2.22992E-01 2.01311E-04 5.88788E-01 1.36073E-13 2.93708E-13
 -1       690 2.02400E+01 2.00762E-01 1.87674E-04 4.72855E-01-2.52045E-14 2.07544E-13
 -1       691 2.01843E+01 1.72550E-01 1.64282E-04 3.71311E-01-1.77103E-13-1.15623E-13
 -1       692 2.01399E+01 1.43240E-01 1.37643E-04 2.85344E-01-5.57222E-14-1.39224E-13
 -1       693 2.01048E+01 1.15623E-01 1.11536E-04 2.14548E-01 2.57564E-13-3.60420E-14
 -1       694 2.00772E+01 9.11112E-02 8.79287E-05 1.57612E-01 1.20252E-13-1.38450E-13
 -1       695 2.00558E+01 7.02415E-02 6.76574E-05 1.12789E-01 6.98107E-14-3.01792E-14
 -1       696 2.00394E+01 5.30293E-02 5.08859E-05 7.82045E-02 3.55841E-15 2.34904E-14
 -1       697 2.00271E+01 3.91978E-02 3.74089E-05 5.20398E-02 1.12916E-13 2.18730E-13
 -1       698 2.00181E+01 2.83261E-02 2.68354E-05 3.26432E-02 3.69667E-14 2.04210E-13
 -1       699 2.00116E+01 1.99385E-02 1.86997E-05 1.85806E-02-7.01684E-15-1.56512E-14
 -1       700 2.00070E+01 1.35550E-02 1.25162E-05 8.65627E-03 1.38342E-13-4.25902E-13
 -1       701 2.00039E+01 8.72309E-03 7.52311E-06 1.91174E-03-1.19879E-13-3.90000E-13
 -1       702 2.00019E+01 5.03538E-03 4.54410E-06-2.40179E-03-1.15827E-13-2.67604E-13
 -1       703 2.00007E+01 2.08965E-03 7.09454E-06-4.83320E-03-1.39400E-13 5.01818E-14
 -1       704 2.00005E+01 1.69624E-04 1.40087E-06-5.58358E-03-3.51892E-13 2.22398E-13
 -1       705 2.00030E+01 4.60376E-03 1.16692E-06-5.23151E-04 2.20951E-13 1.40588E-13
 -1       706 2.00009E+01-3.51626E-05-6.44945E-06 5.53580E-03 1.91566E-13-2.66033E-13
 -1       707 2.00030E+01 3.22858E-03 1.88406E-07-2.59122E-03 2.69223E-13-6.35927E-13
 -1       708 2.00030E+01 4.57781E-03 1.52194E-06 4.14942E-04 2.78751E-13-1.61971E-13
 -1       709 2.00031E+01 4.11712E-03 8.00260E-07-1.49870E-03-2.10389E-14-5.97843E-13
 -1       710 2.05386E+01 5.67787E-01 7.92455E-04-5.92363E-01 1.18942E-13-7.62927E-14
 -1       711 2.00031E+01 4.06953E-03 9.55780E-07 1.39933E-03 3.19647E-13 1.73182E-14
 -1       712 2.00031E+01 3.14688E-03 6.98656E-09 2.53571E-03 3.77859E-13-1.68599E-13
 -1       713 2.00028E+01 2.02114E-03-7.59380E-07 3.78732E-03 4.12333E-13 2.11225E-13
 -1       714 2.30417E+01-5.13420E+00 2.44220E-02 4.09370E+00 2.91465E-13 2.39896E-13
 -1       715 2.18364E+01-4.72455E+00 3.54637E-02 4.37064E+00-3.02156E-13-1.37093E-13
 -1       716 1.47365E+01-3.01193E+00 1.28867E-01 5.89916E+00-1.95427E-13 3.93394E-13
 -1       717 2.80423E+01-3.54393E-01-8.58116E-02-1.68854E+00 6.90593E-14-4.24737E-13
 -1       718 1.43924E+01-3.32490E+00 1.06231E-01-6.14778E+00-3.63556E-13-2.82677E-13
 -1       719 2.74147E+01-3.32032E+00-2.16108E-02-3.49000E-01 1.26210E-14 3.43777E-13
 -1       720 2.08648E+01 1.89651E-02-1.25243E-04-1.22602E+00 5.28540E-14-4.71411E-14
 -1       721 2.04515E+01 1.38708E+00-3.93490E-04-1.63366E-01-1.90520E-13-1.22605E-13
 -1       722 2.04047E+01 1.84620E+00 5.50363E-04-5.74824E-01-2.24858E-13-1.48797E-13
 -1       723 2.51473E+01-4.97483E+00 4.09785E-03-2.96699E+00-2.80869E-13 3.08989E-14
 -1       724 2.05495E+01 8.11672E-01 1.25606E-03-2.00823E-01 1.72063E-13-1.08103E-13
 -1       725 2.14378E+01-4.88305E+00 5.33710E-02-4.67823E+00 2.05710E-13-1.00642E-13
 -1       726 2.73058E+01 3.23218E+00-1.18260E-01-2.27061E+00 3.25434E-13-4.66027E-13
 -1       727 1.96532E+01 2.71683E+00-1.44641E-03 2.49012E-01 1.50600E-13-2.34485E-13
 -1       728 1.95944E+01 2.78625E+00-1.45668E-03-2.64944E-01-1.06873E-13-2.61151E-13
 -1       729 2.75557E+01 1.94812E+00-1.11770E-01 2.29761E+00 3.77361E-13 3.16983E-13
 -1       730 1.95096E+01-4.90976E+00 6.39827E-02-5.85127E+00-3.28387E-13-1.69587E-14
 -1       731 2.77117E+01-2.52370E+00-6.37079E-02 4.70362E-01 3.35764E-14 3.13295E-13
 -1       732 1.71299E+01-3.97874E+00 1.08824E-01 5.96910E+00 3.18107E-13-1.44936E-13
 -1       733 9.03228E+00-5.96613E-01 1.54712E-01-3.08739E+00-1.78321E-13-6.19102E-13
 -1       734 7.18342E+00-2.04935E-01 1.52623E-01 2.08930E-01 3.62691E-14 2.56808E-13
 -1       735 2.73893E+01 5.39993E+00-1.62582E-01 1.42522E+00 5.59927E-13 1.93874E-13
 -1       736 2.85701E+01 9.04158E-01-1.24549E-01 2.55946E+00-7.57762E-14-2.07997E-13
 -1       737 2.57136E+01-4.88642E+00-1.57328E-02-2.16682E+00 2.48059E-13 3.03872E-14
 -1       738 9.80282E+00-6.50145E-01 1.45782E-01-3.49812E+00 2.32259E-13 2.51583E-13
 -1       739 1.52158E+01-3.09071E+00 9.84051E-02-5.69354E+00 2.87596E-13-5.85434E-14
 -1       740 2.71886E+01-1.36586E+00-6.71887E-02-2.03515E+00-9.61731E-14 3.30347E-13
 -1       741 1.99036E+01 2.44629E+00-4.42227E-04-3.73715E-01-1.68597E-13-2.18248E-13
 -1       742 1.92814E+01 3.09634E+00-1.19713E-03-7.29713E-02-2.83540E-14-2.76471E-13
 -1       743 9.34628E+00-1.32046E-01 1.17832E-01 2.52453E+00-7.49561E-14 2.57960E-13
 -1       744 8.99765E+00 1.52585E-01 1.33547E-01-8.99012E-01-2.70478E-14-6.76140E-13
 -1       745 2.68586E+01-2.72557E+00-1.80743E-02-5.76206E-01-3.73204E-15-3.69149E-13
 -1       746 2.50556E+01-3.31016E+00-5.47317E-04-3.85331E-01 8.58300E-14 9.63101E-14
 -1       747 2.00027E+01 2.11517E-03-7.28986E-07-3.76699E-03 8.04244E-14 1.65454E-13
 -1       748 1.27766E+01-1.34608E+00 8.65870E-02-4.60794E+00-3.17113E-13-2.72619E-13
 -1       749 2.00019E+01 1.01271E-03-7.17137E-07-4.78114E-03-2.59482E-13-1.52930E-14
 -1       750 1.85733E+01-3.32142E+00 5.38584E-02 4.89629E+00-2.75424E-13-2.54970E-14
 -1       751 2.00024E+01 2.18909E-03-1.50708E-06 4.37624E-03 1.22507E-13-1.57616E-13
 -1       752 9.24039E+00-7.79886E-01 1.37806E-01 3.28791E+00 1.41350E-13-6.07563E-13
 -1       753 1.93825E+01 2.99993E+00-1.31562E-03-1.64909E-01-8.31574E-14-2.66357E-13
 -1       754 2.60334E+01 4.29538E+00-1.18120E-01-1.69236E+00 3.49984E-13-4.07247E-13
 -1       755 2.01960E+01 1.63647E+00 7.78039E-04 4.20639E-02 1.76156E-13-1.86102E-13
 -1       756 2.54693E+01 3.25399E+00-7.64243E-02 1.94796E+00 2.91933E-13 9.35701E-14
 -1       757 1.92785E+01-3.11166E+00 4.25831E-02-4.37706E+00 2.61752E-13-8.56025E-14
 -1       758 1.99914E+01 1.03633E+00 4.14181E-05 8.95409E-01-7.17963E-14-1.31310E-13
 -1       759 1.98646E+01 8.70401E-01 7.89569E-05 1.23799E+00-9.05072E-14-1.25881E-13
 -1       760 1.97406E+01 6.99102E-01 1.03517E-04 1.56009E+00-1.81842E-14-9.95233E-14
 -1       761 1.96559E+01 4.51955E-01 1.29129E-04 1.87966E+00 5.63687E-14-1.20741E-13
 -1       762 1.96760E+01 4.31735E-02 3.49334E-04 2.21121E+00 9.85172E-14-1.13468E-13
 -1       763 1.99152E+01-6.25406E-01 1.78229E-03 2.55385E+00 9.59844E-14-2.65814E-14
 -1       764 2.05789E+01-1.66619E+00-4.79583E-04 2.86732E+00 1.26660E-13 3.70385E-14
 -1       765 2.19802E+01-3.04735E+00 1.72973E-02 2.95230E+00 1.81930E-13 1.24078E-13
 -1       766 2.01538E+01 1.59889E+00-3.42468E-04 8.26797E-02-1.49272E-13-1.30705E-13
 -1       767 2.00319E+01-9.11980E-01-2.52934E-03-2.50609E+00-1.53369E-13 2.19777E-13
 -1       768 1.96244E+01-1.29718E-01 1.77063E-04-2.17541E+00-5.66649E-14 1.54025E-13
 -1       769 1.95181E+01 3.21754E-01 2.31808E-04-1.84511E+00 4.28742E-14 2.00047E-14
 -1       770 1.95416E+01 5.49849E-01 1.59226E-04-1.55344E+00 1.73741E-13 1.45315E-13
 -1       771 1.96183E+01 6.33573E-01 1.16667E-04-1.29719E+00 1.91114E-13 3.39513E-13
 -1       772 1.97068E+01 6.31219E-01 9.15647E-05-1.07232E+00 1.61671E-13 4.06086E-13
 -1       773 1.97880E+01 5.81935E-01 6.84485E-05-8.75755E-01 4.60646E-14 5.22529E-13
 -1       774 1.98547E+01 5.10845E-01 5.14777E-05-7.05591E-01-1.43770E-13 3.27732E-13
 -1       775 1.99060E+01 4.33252E-01 3.89733E-05-5.60272E-01-6.68734E-14 1.87406E-13
 -1       776 1.99435E+01 3.57906E-01 2.95695E-05-4.38092E-01-6.63531E-14 9.84175E-14
 -1       777 1.99697E+01 2.89366E-01 2.23369E-05-3.37042E-01-1.24588E-13 1.75348E-13
 -1       778 1.99873E+01 2.29609E-01 1.67362E-05-2.54840E-01-2.70227E-13 9.57421E-14
 -1       779 1.99984E+01 1.79087E-01 1.24051E-05-1.89060E-01-2.26153E-13 2.18293E-13
 -1       780 2.00050E+01 1.37392E-01 9.07102E-06-1.37268E-01-3.39987E-13 2.87056E-13
 -1       781 2.00085E+01 1.03673E-01 6.51821E-06-9.71484E-02-1.16634E-13 3.16173E-13
 -1       782 2.00099E+01 7.68890E-02 4.56211E-06-6.65813E-02 5.74684E-14 3.90115E-13
 -1       783 2.00100E+01 5.59589E-02 3.08905E-06-4.36942E-02 1.56478E-13 3.96205E-13
 -1       784 2.00092E+01 3.98410E-02 2.01482E-06-2.68813E-02 5.79024E-15 4.10689E-13
 -1       785 2.00080E+01 2.75759E-02 1.02695E-06-1.48034E-02 8.76942E-14-3.72604E-14
 -1       786 2.00066E+01 1.82973E-02-1.12406E-07-6.37931E-03 1.13435E-13-4.25368E-13
 -1       787 2.00051E+01 1.12623E-02 2.89541E-06-7.75404E-04-3.05168E-14-2.92447E-13
 -1       788 2.00037E+01 6.20093E-03-1.88699E-06 2.46753E-03 1.02995E-13-6.48437E-14
 -1       789 2.03262E+01 5.13572E-01 3.79362E-05-1.06019E+00 6.14126E-14-9.59841E-14
 -1       790 2.13326E+01-1.00762E+00-1.35455E-04-1.51047E+00-8.01801E-14 4.93765E-14
 -1       791 2.08341E+01-4.54880E-01-9.05399E-06-1.55623E+00-1.68108E-14 4.94789E-14
 -1       792 2.30960E+01-2.23454E+00-4.11162E-03-6.63657E-01-1.22171E-13 1.01858E-13
 -1       793 2.42200E+01-2.32804E+00-3.69207E-03 3.25212E-01-5.77865E-14 2.38304E-13
 -1       794 2.50302E+01-1.44294E+00-3.76369E-02 1.51070E+00 8.39034E-14 4.03256E-13
 -1       795 2.42742E+01 4.06387E+00-7.79483E-02-2.93260E-01 2.89529E-13-1.43155E-13
 -1       796 2.50024E+01 2.87053E+00-6.52212E-02-2.02616E+00 3.23160E-13-3.91399E-13
 -1       797 2.52688E+01 2.34297E-01-5.38068E-02-2.31307E+00 1.64502E-13-3.55123E-13
 -1       798 2.49525E+01-1.69620E+00-1.57991E-02-1.41006E+00 6.71537E-14-2.90774E-13
 -1       799 2.39677E+01-2.31436E+00-5.16079E-03-2.20451E-01 3.46645E-14-1.94459E-13
 -1       800 2.28272E+01-2.06005E+00-7.29729E-04 6.83056E-01-6.91569E-14-2.16395E-14
 -1       801 2.18598E+01-1.45231E+00-6.74206E-04 1.16981E+00-2.52276E-14 1.21473E-13
 -1       802 2.11554E+01-8.35101E-01-1.40164E-04 1.36218E+00-1.42756E-13 8.31830E-14
 -1       803 2.06895E+01-3.43447E-01-3.18681E-05 1.37546E+00-3.09456E-14-9.49287E-14
 -1       804 2.04029E+01-3.95301E-03 2.14355E-05 1.28992E+00-8.43121E-14-2.43135E-13
 -1       805 2.02360E+01 2.03177E-01 4.16465E-05 1.15527E+00-2.02582E-13-4.40390E-14
 -1       806 2.01431E+01 3.10566E-01 6.02530E-05 1.00113E+00-1.53474E-13 1.86793E-13
 -1       807 2.00932E+01 3.49793E-01 6.57926E-05 8.45136E-01 1.68478E-13 3.22591E-13
 -1       808 2.00668E+01 3.46219E-01 6.41578E-05 6.97506E-01 9.98364E-14 2.05820E-13
 -1       809 2.00526E+01 3.18244E-01 5.79776E-05 5.63916E-01 1.01730E-13 1.70660E-13
 -1       810 2.00442E+01 2.78425E-01 4.97778E-05 4.47090E-01 9.78129E-14 1.32531E-13
 -1       811 2.00384E+01 2.34865E-01 4.12348E-05 3.47743E-01-9.23595E-14-8.99889E-14
 -1       812 2.00337E+01 1.92454E-01 3.32146E-05 2.65265E-01-4.37848E-14-1.56932E-13
 -1       813 2.00293E+01 1.53875E-01 2.61198E-05 1.98244E-01 7.81183E-14-7.37873E-14
 -1       814 2.00252E+01 1.20360E-01 2.00959E-05 1.44849E-01-7.67721E-14 2.45861E-13
 -1       815 2.00213E+01 9.22263E-02 1.51389E-05 1.03101E-01-4.27416E-14 3.90780E-13
 -1       816 2.00176E+01 6.92517E-02 1.11517E-05 7.10570E-02-5.98462E-14 3.63763E-13
 -1       817 2.00143E+01 5.09211E-02 8.00571E-06 4.69177E-02 1.86348E-13 3.69886E-13
 -1       818 2.00114E+01 3.65855E-02 5.57845E-06 2.90923E-02 1.73085E-13 8.52865E-14
 -1       819 2.00088E+01 2.55537E-02 3.86894E-06 1.62221E-02 1.09596E-13 1.01844E-13
 -1       820 2.00066E+01 1.71447E-02 3.17963E-06 7.19196E-03-1.58272E-13 3.16802E-13
 -1       821 2.00048E+01 1.07566E-02 1.92353E-06 1.14578E-03-2.61196E-13 3.66889E-13
 -1       822 2.00032E+01 5.80417E-03 1.73876E-06-2.63277E-03-2.49295E-13 9.49918E-14
 -1       823 2.00025E+01 3.35628E-03-8.98428E-06-3.99608E-03-3.89565E-13 1.10245E-13
 -1       824 1.32304E+01-1.42850E+00 9.05234E-02 4.72270E+00-3.05317E-13 4.65510E-13
 -1       825 1.93975E+01 2.54135E+00-2.61963E-04-4.76559E-02 4.78998E-14-1.90956E-13
 -1       826 2.03197E+01 7.46141E-01 3.48192E-05-7.61736E-01 1.17995E-13-1.14458E-13
 -1       827 2.00036E+01 1.16647E-02-2.25942E-06-9.11933E-05-2.40441E-14-1.65749E-13
 -1       828 2.00041E+01 7.74019E-03 2.67027E-06 1.68266E-03 9.45311E-14 1.90348E-13
 -1       829 2.00040E+01 9.78424E-03-1.83367E-06 7.61879E-04 1.61049E-13-1.29250E-13
 -1       830 2.01517E+01 2.17438E+00 1.82992E-04-4.77542E-01-2.05924E-13-1.86775E-13
 -1       831 2.02718E+01-3.53855E+00 5.19776E-02 4.39940E+00 2.88684E-13 1.87807E-13
 -1       832 2.20798E+01-1.64863E+00-2.27020E-03-1.25412E+00-1.06947E-13 7.36738E-14
 -1       833 2.45143E+01-4.08035E+00-3.29383E-03 1.72465E+00-1.75242E-13-2.43734E-13
 -1       834 2.61223E+01-7.50960E-01-3.25880E-02 1.84884E+00 7.83817E-14 3.83516E-13
 -1       835 2.09397E+01-2.06629E+00 7.43418E-03-2.76893E+00 1.41868E-14 2.51420E-13
 -1       836 2.00960E+01 1.26089E+00 1.87273E-04 5.14820E-01-1.17192E-13-1.11937E-13
 -1       837 2.63878E+01 7.37313E-01-8.08713E-02-2.30846E+00 1.80474E-13-4.27788E-13
 -1       838 1.83502E+01-3.28412E+00 5.51729E-02-5.09303E+00-3.77700E-13-5.34937E-14
 -1       839 1.40330E+01-1.75393E+00 8.71632E-02 4.88014E+00 2.84339E-13-3.19817E-13
 -1       840 2.57375E+01 5.22596E+00-1.11797E-01 8.91498E-02 3.94518E-13-2.69115E-13
 -1       841 1.06536E+01 6.26007E-01 9.35307E-02-9.42959E-01-2.22548E-14 4.51895E-14
 -1       842 2.04006E+01 1.20962E+00 2.01398E-04-6.95390E-02 1.86561E-13-1.39271E-13
 -1       843 2.57620E+01-3.70392E+00-6.73610E-03-6.68971E-01-1.64998E-13 2.32245E-13
 -1       844 2.26055E+01-3.75782E+00 2.74960E-02-2.92075E+00 1.96966E-13 4.30081E-14
 -1       845 1.41731E+01-1.06892E+00 5.33553E-02-4.13025E+00 2.04151E-13 1.22284E-13
 -1       846 2.26882E+01-4.42976E+00 1.41073E-02-3.58058E+00-3.67807E-13 1.66666E-14
 -1       847 2.00037E+01 1.11627E-02-1.33333E-06 2.55220E-04 1.74057E-13 1.78773E-13
 -1       848 2.41648E+01-4.06675E+00 1.45197E-02 2.13956E+00 2.39204E-13 2.28807E-13
 -1       849 1.93120E+01 2.62524E+00-2.44621E-04-4.45980E-02-7.59806E-15-2.25933E-13
 -1       850 1.04032E+01 3.71705E-01 8.91048E-02 1.06914E+00 1.16927E-13-5.66665E-13
 -1       851 2.05408E+01-3.72742E-02 2.71717E-05-1.46833E+00-5.33634E-14 1.44639E-14
 -1       852 1.13522E+01-2.27128E-01 9.47040E-02-2.99458E+00-2.03251E-13-4.19161E-13
 -1       853 2.00036E+01 1.12068E-02-2.05604E-06-3.77083E-04 1.62156E-13-3.43168E-13
 -1       854 2.00039E+01 7.85010E-03-9.84178E-07-1.71980E-03-1.87494E-13 1.50005E-13
 -1       855 2.03640E+01 9.42291E-01-3.13548E-04-4.45224E-01 1.34595E-13-1.38670E-13
 -1       856 2.52683E+01 7.32895E-01-3.02566E-02 2.22415E+00 1.58501E-13 3.45937E-13
 -1       857 1.67364E+01-2.04106E+00 2.72948E-02 4.52182E+00-3.75507E-13 1.76210E-13
 -1       858 2.00039E+01 9.85529E-03-1.75002E-07-8.88381E-04 1.34421E-13-7.37166E-13
 -1       859 1.95938E+01 2.34307E+00-3.16460E-04-3.15991E-02 1.18370E-13-2.03400E-13
 -1       860 2.20640E+01-3.73510E+00 1.92225E-02 3.18128E+00-3.67661E-13-1.34788E-13
 -1       861 1.33979E+01 3.69296E-01 3.56290E-02-2.35362E+00-9.39353E-16-1.82753E-15
 -1       862 2.03878E+01 2.70356E-01 7.39475E-05-1.29647E+00 1.64445E-14-4.09681E-14
 -1       863 1.98736E+01 2.03894E+00-2.05797E-04 3.47552E-03 1.66253E-13-1.75133E-13
 -1       864 2.00040E+01 7.16161E-03 2.08822E-05 2.02878E-03-1.23118E-14 2.00935E-15
 -1       865 1.95160E+01 2.42528E+00-6.24549E-04-1.77499E-02-7.96782E-14-2.54007E-13
 -1       866 1.97853E+01 2.14142E+00-7.72997E-04-1.24261E-02-1.16188E-13-1.92237E-13
 -1       867 1.61604E+01-1.43372E+00 3.70059E-02-4.14192E+00-2.82522E-13-1.46366E-13
 -1       868 1.92498E+01 1.06707E+00-6.41290E-07 1.22334E+00-4.70557E-14-1.04158E-13
 -1       869 1.89497E+01 8.81290E-01-4.91521E-05 1.54733E+00 2.01628E-15-9.07255E-14
 -1       870 1.86373E+01 6.05789E-01-9.88626E-05 1.92457E+00 6.29551E-14-1.21613E-13
 -1       871 1.83686E+01 1.44776E-01-2.73363E-04 2.40902E+00 1.08164E-13-1.75290E-13
 -1       872 1.82913E+01-6.40280E-01 5.84977E-03 3.07324E+00 1.72264E-13-1.63573E-13
 -1       873 2.37701E+01-3.52728E+00 9.29482E-03-1.67415E+00-2.96268E-13 3.51013E-14
 -1       874 1.93524E+01 2.58741E+00-2.37580E-04-3.13307E-02-4.13066E-14-2.33737E-13
 -1       875 1.83271E+01 4.71187E-01-2.60085E-04-1.95186E+00-4.29946E-14 2.18464E-13
 -1       876 1.85950E+01 7.33385E-01 9.12726E-05-1.56543E+00 1.61952E-13 3.33861E-13
 -1       877 1.88689E+01 8.31042E-01 2.33913E-05-1.27340E+00 2.52811E-13 5.79550E-14
 -1       878 1.91164E+01 8.30148E-01 4.56815E-05-1.04236E+00 2.75969E-13 7.25470E-14
 -1       879 1.93266E+01 7.72761E-01 2.97379E-05-8.51891E-01 1.24561E-13 2.25565E-13
 -1       880 1.94980E+01 6.86808E-01 1.67109E-05-6.91388E-01-2.59117E-14 2.05735E-13
 -1       881 1.96337E+01 5.90302E-01 9.79245E-06-5.55185E-01-2.02354E-13 2.84000E-13
 -1       882 1.97386E+01 4.94257E-01 6.19720E-06-4.40013E-01-3.34739E-13-7.16643E-14
 -1       883 1.98181E+01 4.04944E-01 3.96357E-06-3.43606E-01 1.05732E-14-2.48103E-13
 -1       884 1.98771E+01 3.25520E-01 2.47258E-06-2.64002E-01-3.25157E-14-7.53647E-14
 -1       885 1.99201E+01 2.57158E-01 1.48192E-06-1.99275E-01-1.55020E-13 2.19673E-13
 -1       886 1.99508E+01 1.99814E-01 8.39090E-07-1.47480E-01-2.64959E-13 2.58392E-13
 -1       887 1.99721E+01 1.52737E-01 4.33421E-07-1.06707E-01-1.12709E-13 3.48879E-13
 -1       888 1.99865E+01 1.14816E-01 1.74298E-07-7.51391E-02-3.53808E-14 5.07932E-13
 -1       889 1.99957E+01 8.47909E-02-4.84252E-08-5.11140E-02 9.16272E-14 2.15399E-13
 -1       890 2.00013E+01 6.13889E-02-2.13033E-07-3.31591E-02 3.57298E-14 3.82482E-14
 -1       891 2.00043E+01 4.33966E-02-4.05293E-07-2.00085E-02 5.54536E-14 1.49565E-14
 -1       892 2.00054E+01 2.97029E-02 1.96758E-06-1.06011E-02-1.64400E-13 2.89407E-13
 -1       893 2.00055E+01 1.92463E-02-1.10619E-05-4.14034E-03 9.28579E-15 1.05764E-13
 -1       894 2.03206E+01-6.47172E-01 5.89721E-04-1.95879E+00-1.90921E-14-7.72702E-14
 -1       895 1.74520E+01-1.59071E+00 2.59761E-02 4.06887E+00 2.87591E-13-1.06110E-13
 -1       896 2.29558E+01-2.94111E+00 1.08760E-04 1.53898E+00-1.96180E-13-7.76701E-14
 -1       897 2.15512E+01-2.05245E+00 4.68515E-03 1.92095E+00-8.29809E-14 7.22274E-15
 -1       898 2.06272E+01-1.17684E+00 1.38054E-03 1.92420E+00-9.26566E-14-7.95616E-14
 -1       899 2.00895E+01-4.90501E-01 6.00940E-04 1.76358E+00-2.03963E-15-1.89425E-13
 -1       900 1.98166E+01-2.14161E-02 2.42503E-04 1.54795E+00-1.69908E-13-6.18812E-14
 -1       901 1.97050E+01 2.67418E-01 6.76698E-05 1.32614E+00-2.67931E-13 1.79720E-13
 -1       902 1.96849E+01 4.21535E-01 3.11686E-05 1.11686E+00-3.21119E-13 1.64597E-13
 -1       903 1.97115E+01 4.82815E-01 1.53629E-05 9.27439E-01-4.76199E-14 7.33459E-14
 -1       904 1.97575E+01 4.84870E-01 1.23433E-05 7.59544E-01 2.85904E-13 1.94666E-13
 -1       905 1.98082E+01 4.51817E-01 9.42372E-06 6.13120E-01 1.04695E-13 2.34875E-13
 -1       906 1.98555E+01 4.00489E-01 6.59449E-06 4.87536E-01 1.86802E-13 2.69004E-13
 -1       907 1.98961E+01 3.42141E-01 4.58225E-06 3.81634E-01 1.32405E-13 2.53063E-13
 -1       908 1.99289E+01 2.83859E-01 3.23469E-06 2.93825E-01-3.52015E-14-3.87305E-14
 -1       909 1.99542E+01 2.29768E-01 2.31139E-06 2.22230E-01-5.99683E-14 1.04052E-13
 -1       910 1.99730E+01 1.81962E-01 1.66214E-06 1.64821E-01-1.76528E-13 3.75849E-13
 -1       911 1.99863E+01 1.41212E-01 1.20550E-06 1.19544E-01-1.18241E-13 4.14848E-13
 -1       912 1.99953E+01 1.07460E-01 8.85585E-07 8.44247E-02-1.03490E-13 2.81493E-13
 -1       913 2.00010E+01 8.01677E-02 6.02437E-07 5.76471E-02 1.66463E-13 1.38535E-13
 -1       914 2.00042E+01 5.85541E-02 3.76777E-07 3.75977E-02 2.27094E-13 2.40172E-13
 -1       915 2.00057E+01 4.17457E-02-7.00541E-08 2.28825E-02 1.19017E-13 2.83057E-13
 -1       916 2.00061E+01 2.88291E-02-7.81186E-07 1.23286E-02-1.60303E-13 3.04355E-13
 -1       917 2.00056E+01 1.89075E-02-1.71319E-05 4.96894E-03-2.41806E-13 3.03995E-13
 -1       918 2.00047E+01 1.14939E-02 9.31197E-06 1.20196E-04-1.76156E-13 4.42117E-13
 -1       919 1.99882E+01 8.95260E-01-2.96807E-05-8.96130E-01 6.58024E-14-1.02288E-13
 -1       920 2.00034E+01 5.45439E-03 3.09184E-06-2.82816E-03-2.09909E-13 2.63723E-13
 -1       921 1.76064E+01-1.29510E+00 1.71794E-02-3.61255E+00 5.44879E-14-7.38324E-14
 -1       922 2.00047E+01 1.56103E-02 1.65873E-05-1.07308E-03 2.07339E-13-1.16164E-13
 -1       923 1.17620E+01 5.95054E-01 6.12024E-02 1.48689E+00-6.12618E-14 2.22693E-13
 -1       924 1.81510E+01-3.46142E-02 3.31392E-03-2.47577E+00-1.53959E-13 2.39997E-13
 -1       925 1.31062E+01-1.95735E-01 5.17357E-02 3.17457E+00 2.57410E-13-3.55053E-13
 -1       926 1.97062E+01 1.44862E+00-1.11602E-04 5.95175E-01-9.61288E-14-1.06470E-13
 -1       927 1.95076E+01 1.23614E+00-1.11238E-04 9.13898E-01-7.98767E-14-1.14255E-13
 -1       928 1.97798E+01 1.74530E+00 1.71913E-04 2.91855E-01-1.02139E-13-1.31164E-13
 -1       929 1.39160E+01-2.33696E-01 3.93907E-02 3.30867E+00-1.86284E-13 2.94461E-13
 -1       930 2.07944E+01-3.14887E+00 1.02999E-02-3.56340E+00-3.05228E-13 4.65990E-14
 -1       931 2.00386E+01-8.60969E-02 2.16164E-04-1.73435E+00-4.54856E-14-6.08028E-14
 -1       932 1.12084E+01 5.21721E-01 7.36490E-02-1.12827E+00-5.11601E-14-4.85782E-13
 -1       933 1.93576E+01 2.14540E+00-1.39292E-04 1.15827E-01-5.17161E-14-2.18303E-13
 -1       934 2.00731E+01 1.11830E+00 8.54960E-05-6.05306E-01 8.98210E-14-1.50409E-13
 -1       935 2.00035E+01 1.96601E-02-1.32049E-05 3.87309E-04 1.49734E-13-1.94522E-13
 -1       936 2.09295E+01-1.42060E+00-3.44832E-03-2.08369E+00-3.53806E-14-5.28100E-14
 -1       937 2.00049E+01 1.24783E-02 4.60689E-07-5.76596E-04 3.40078E-13 4.25174E-14
 -1       938 2.19100E+01-2.43104E+00 1.08603E-02-2.15068E+00-1.21537E-13-3.70825E-14
 -1       939 1.46920E+01-4.82562E-01 3.94624E-02-3.44973E+00-1.47808E-13-1.69188E-13
 -1       940 1.87940E+01-1.82008E+00 4.18051E-03-3.58996E+00-2.23107E-13-5.77910E-14
 -1       941 2.01533E+01-2.88598E+00 2.50541E-02 3.67381E+00-2.79547E-13-2.19667E-13
 -1       942 1.99372E+01 6.25492E-01-2.06670E-05-1.19853E+00 9.60278E-15-4.29086E-14
 -1       943 2.00041E+01 1.79881E-02-1.66106E-05-1.08707E-03 5.55085E-14 6.74918E-14
 -1       944 1.61908E+01-1.12936E-02 1.92958E-02-2.78424E+00 9.45121E-14 7.09112E-15
 -1       945 2.00385E+01 1.45399E+00-5.91649E-04-3.20029E-01 1.31462E-13-1.59870E-13
 -1       946 2.00035E+01 1.99845E-02 6.98998E-05-5.53465E-04 8.24483E-14 1.09420E-13
 -1       947 2.00046E+01 1.56970E-02-3.85631E-06 1.15892E-03-2.37000E-13-2.37691E-13
 -1       948 1.95415E+01 1.98108E+00 1.27882E-03 2.12429E-01-5.95038E-14-2.06316E-13
 -1       949 1.26662E+01 9.42548E-01 3.29685E-02-2.67537E-01 1.06960E-13-7.61457E-15
 -1       950 1.94543E+01 2.05232E+00-1.73418E-04-2.22032E-01 5.73074E-14-1.40384E-13
 -1       951 1.92896E+01 2.20587E+00-1.64735E-05-1.27175E-01 1.87067E-14-1.59963E-13
 -1       952 1.80180E+01 1.07211E+00-3.82596E-04 1.33264E+00 2.53623E-14-9.08227E-14
 -1       953 1.73648E+01 8.28180E-01-6.58116E-04 1.72408E+00 6.59854E-14-1.36344E-13
 -1       954 1.65826E+01 4.20443E-01 5.69418E-03 2.31048E+00 1.01548E-13-1.39331E-13
 -1       955 1.92545E+01 2.23952E+00 5.73322E-05-7.59728E-03-2.93583E-14-1.96462E-13
 -1       956 1.30263E+01 7.77042E-01 3.99123E-02 1.20703E+00 1.06721E-13-3.79355E-13
 -1       957 1.99358E+01 3.19151E-01 5.34105E-05-1.47699E+00-5.17162E-14-2.77140E-14
 -1       958 1.80456E+01 1.03322E+00-1.35614E-04-1.07820E+00 5.06515E-14 3.14119E-13
 -1       959 1.84831E+01 1.01994E+00-3.98120E-05-8.72701E-01 1.02807E-13 1.26702E-13
 -1       960 1.88349E+01 9.52251E-01 7.16826E-06-7.13892E-01 2.31348E-13-3.17605E-13
 -1       961 1.91158E+01 8.53899E-01-1.55451E-05-5.84387E-01 1.89378E-13-2.00422E-13
 -1       962 1.93379E+01 7.42357E-01-1.64917E-05-4.75420E-01-6.66825E-14 8.78764E-15
 -1       963 1.95118E+01 6.29337E-01-1.29329E-05-3.82585E-01-3.99541E-13 4.73210E-14
 -1       964 1.96462E+01 5.22148E-01-9.94790E-06-3.03647E-01-2.26666E-13 6.56573E-15
 -1       965 1.97487E+01 4.24986E-01-7.88727E-06-2.37229E-01 1.27765E-13-2.23298E-14
 -1       966 1.98259E+01 3.39852E-01-6.34314E-06-1.82164E-01 8.87880E-14 9.00875E-14
 -1       967 1.98830E+01 2.67259E-01-5.07286E-06-1.37259E-01-1.43964E-13 7.70649E-14
 -1       968 1.99244E+01 2.06760E-01-3.97702E-06-1.01266E-01-1.42968E-13 7.68098E-14
 -1       969 1.99539E+01 1.57344E-01-3.00001E-06-7.29158E-02 3.58348E-14-2.20036E-13
 -1       970 1.99743E+01 1.17705E-01-2.08727E-06-5.09768E-02-6.27429E-14-1.66682E-13
 -1       971 1.99879E+01 8.64362E-02-1.09052E-06-3.43090E-02 1.25373E-13-2.02868E-13
 -1       972 1.99964E+01 6.21488E-02-6.04661E-07-2.18904E-02 6.47940E-14-1.57834E-13
 -1       973 2.00014E+01 4.35064E-02 6.34978E-07-1.28638E-02 1.37907E-13 2.43663E-14
 -1       974 2.00039E+01 2.91060E-02-2.61875E-05-6.27269E-03-7.32128E-14 1.07870E-13
 -1       975 1.97204E+01 1.79464E+00-1.51410E-05-2.85161E-01 1.19344E-13-1.58074E-13
 -1       976 1.96520E+01-1.42130E+00 9.88315E-04 2.70157E+00-6.20901E-15 6.28501E-14
 -1       977 1.90154E+01 3.18499E-02 3.58681E-04 1.80715E+00-5.35746E-14 1.03231E-13
 -1       978 1.90304E+01 3.76475E-01-4.85299E-05 1.45939E+00-3.08086E-13-2.08357E-14
 -1       979 1.91269E+01 5.61120E-01-3.71135E-05 1.17762E+00-1.96074E-13 8.05191E-15
 -1       980 1.92574E+01 6.33760E-01-9.04703E-05 9.49422E-01-1.91924E-13-1.07599E-13
 -1       981 1.93926E+01 6.36462E-01-5.49416E-05 7.63392E-01 9.01742E-14-5.78628E-14
 -1       982 1.95188E+01 5.96286E-01-4.06013E-05 6.09748E-01 1.89493E-14 2.07561E-13
 -1       983 1.96297E+01 5.32673E-01-3.26268E-05 4.82642E-01 3.84425E-14 4.06519E-13
 -1       984 1.97228E+01 4.59174E-01-2.62268E-05 3.77827E-01 9.54938E-14 4.96002E-13
 -1       985 1.97983E+01 3.84649E-01-2.06775E-05 2.91980E-01 5.69662E-14 7.72204E-13
 -1       986 1.98577E+01 3.14498E-01-1.59899E-05 2.22349E-01 6.24978E-14 6.83291E-13
 -1       987 1.99032E+01 2.51667E-01-1.21351E-05 1.66531E-01-1.58079E-13 1.98584E-13
 -1       988 1.99371E+01 1.97427E-01-9.01828E-06 1.22368E-01-2.27521E-13-3.64261E-14
 -1       989 1.99617E+01 1.51956E-01-6.52811E-06 8.79147E-02 1.16204E-13-1.68297E-14
 -1       990 1.99789E+01 1.14758E-01-4.57556E-06 6.14330E-02 1.37074E-13-7.69043E-14
 -1       991 1.99905E+01 8.49643E-02-3.08749E-06 4.14053E-02 1.34803E-13-1.17704E-13
 -1       992 1.99978E+01 6.15464E-02-3.09427E-06 2.65310E-02 2.16078E-14-7.36068E-15
 -1       993 2.00021E+01 4.34480E-02-9.24515E-07 1.57301E-02-1.01411E-13 2.57111E-13
 -1       994 2.00042E+01 2.95600E-02 1.50984E-05 8.02296E-03-1.94459E-13 1.57709E-13
 -1       995 2.00039E+01 1.82028E-02-5.05928E-06 9.77234E-04 1.55281E-15-7.30593E-13
 -1       996 1.55431E+01 6.97710E-02 2.09424E-02 2.81965E+00 2.06810E-13-1.83820E-13
 -1       997 2.10699E+01-2.49641E+00 6.97360E-04 2.65715E+00-1.51376E-13-4.93930E-14
 -1       998 1.89728E+01 1.38927E+00-1.48438E-04 7.94512E-01-4.10480E-14-8.78058E-14
 -1       999 1.75075E+01 9.53054E-01 4.72675E-05-1.36861E+00 1.84635E-13 1.67960E-13
 -1      1000 1.67750E+01-8.12445E-01 1.57186E-02 3.39656E+00-2.96535E-13 1.50809E-13
 -1      1001 1.68545E+01 7.36838E-01-3.99231E-04-1.79797E+00-2.53458E-14 1.50953E-13
 -1      1002 1.91648E+01-5.37152E-01 5.29254E-04 2.23092E+00-1.77059E-14 1.04484E-13
 -1      1003 1.92850E+01 1.58199E+00 5.27853E-05 5.54941E-01-5.89198E-14-1.64498E-13
 -1      1004 1.85502E+01 1.23809E+00-2.23404E-04 1.04273E+00-6.66530E-15-6.96857E-14
 -1      1005 1.44859E+01 9.00816E-01 1.16710E-02-1.33752E+00 9.44553E-14 8.46350E-15
 -1      1006 1.36981E+01 8.63461E-01 2.58093E-02 1.27434E+00 2.71549E-15 1.53983E-13
 -1      1007 1.92685E+01-6.60424E-02-9.82972E-04-2.00790E+00-2.24032E-14-1.04417E-13
 -1      1008 1.94375E+01 1.75822E+00 7.46667E-04 3.84714E-01-5.68789E-14-1.84142E-13
 -1      1009 1.91208E+01 1.92292E+00-4.85233E-04 1.34346E-01-2.55001E-14-1.90806E-13
 -1      1010 1.97208E+01 1.31077E+00 3.76229E-04-6.54684E-01 4.30563E-14-1.36645E-13
 -1      1011 1.94783E+01-7.44144E-01 4.51758E-03-2.45954E+00-3.48907E-14-1.41814E-13
 -1      1012 2.00020E+01 3.43967E-02-2.63951E-06 5.58732E-03 1.37116E-13-6.46557E-14
 -1      1013 2.00006E+01 3.73703E-02 9.11143E-07 2.38902E-03 3.34242E-13-2.21003E-13
 -1      1014 1.94907E+01 1.61037E+00 5.37459E-04-4.86329E-01 2.50443E-14-8.91239E-14
 -1      1015 1.55822E+01 4.38718E-01 8.58025E-03 2.14842E+00-7.30138E-14 6.24399E-14
 -1      1016 1.73526E+01-1.04210E+00 1.71641E-02-3.46927E+00-1.52732E-13-2.46081E-14
 -1      1017 1.92281E+01 1.82935E+00 3.49492E-04-3.16878E-01 1.33831E-14-1.29586E-13
 -1      1018 1.38311E+01 3.50612E-01 2.67256E-02-2.28179E+00-1.00147E-13-2.79841E-13
 -1      1019 2.00005E+01 3.75446E-02-1.26840E-05-1.52099E-03 2.34001E-13-1.81820E-13
 -1      1020 1.95921E+01 1.02063E+00-3.97526E-05-9.62524E-01 4.41840E-15-7.48565E-14
 -1      1021 1.45568E+01 1.14069E+00 1.02918E-02-3.75797E-02-6.44164E-14-6.36976E-14
 -1      1022 1.91001E+01 1.93699E+00-3.69792E-05-1.04098E-01-6.27135E-15-1.49512E-13
 -1      1023 1.59687E+01 1.06696E+00 4.61233E-03 1.07624E+00 6.65505E-14-2.14984E-13
 -1      1024 1.78478E+01 1.35515E+00-6.91369E-04 6.43094E-01-1.44512E-14-1.65303E-13
 -1      1025 1.84456E+01 1.47881E+00-1.02974E-03 5.06791E-01-2.21478E-14-1.53700E-13
 -1      1026 1.94530E+01 7.38867E-01 3.20166E-04-1.27517E+00-9.10429E-15-7.99795E-14
 -1      1027 1.83669E+01 1.09514E+00-5.79549E-05-4.46636E-01-2.72319E-15-6.64067E-14
 -1      1028 1.87510E+01 9.91119E-01-1.09143E-04-3.75084E-01 1.64880E-13-2.01109E-13
 -1      1029 1.90528E+01 8.71673E-01-1.07233E-04-3.14228E-01 1.17709E-13-3.49891E-13
 -1      1030 1.92895E+01 7.48397E-01-8.84663E-05-2.60119E-01-7.68476E-14-2.57543E-13
 -1      1031 1.94744E+01 6.28908E-01-7.04562E-05-2.11922E-01-2.49513E-13 4.39832E-14
 -1      1032 1.96176E+01 5.18288E-01-5.68935E-05-1.69600E-01-1.19457E-13-1.54329E-13
 -1      1033 1.97273E+01 4.19470E-01-4.62806E-05-1.33174E-01 7.09212E-14-3.53417E-13
 -1      1034 1.98101E+01 3.33727E-01-3.75297E-05-1.02496E-01 9.87801E-14-3.42460E-13
 -1      1035 1.98716E+01 2.61138E-01-3.01289E-05-7.72159E-02-1.82117E-13-2.71158E-13
 -1      1036 1.99165E+01 2.00997E-01-2.38162E-05-5.68187E-02-2.00311E-13-2.89775E-13
 -1      1037 1.99486E+01 1.52126E-01-1.84764E-05-4.06916E-02 9.90244E-14-2.52932E-13
 -1      1038 1.99708E+01 1.13105E-01-1.26251E-05-2.81955E-02 9.08829E-14-5.60728E-14
 -1      1039 1.99857E+01 8.24356E-02-1.00029E-05-1.87122E-02 2.05558E-13-1.22152E-13
 -1      1040 1.99950E+01 5.87734E-02-8.03447E-06-1.16207E-02 2.23093E-13-3.53242E-14
 -1      1041 2.00006E+01 4.05206E-02 6.91377E-06-6.56820E-03 8.22691E-14-8.19962E-14
 -1      1042 1.87393E+01 8.05799E-01-3.95330E-04 8.85788E-01-2.25443E-13 2.09046E-13
 -1      1043 1.84633E+01 7.41598E-01-1.88891E-04 1.14790E+00-1.90350E-13 2.24490E-13
 -1      1044 1.88858E+01 1.64038E+00-9.54412E-04 3.78529E-01 2.01739E-14-1.99870E-13
 -1      1045 1.47177E+01 9.44546E-01 1.43950E-02 1.15381E+00 9.08266E-14-2.97783E-13
 -1      1046 1.81721E+01 5.61525E-01-9.92480E-04 1.49581E+00-5.01723E-14 3.46356E-13
 -1      1047 1.89867E+01 7.97852E-01-2.09937E-04 6.92923E-01-1.17885E-13 2.09517E-13
 -1      1048 1.92008E+01 7.45959E-01-1.55857E-04 5.41899E-01-1.86069E-13 4.15606E-13
 -1      1049 1.93822E+01 6.68138E-01-1.17913E-04 4.22956E-01-8.20232E-14 3.59400E-13
 -1      1050 1.95319E+01 5.79055E-01-9.58383E-05 3.28420E-01-1.31245E-14 3.01797E-13
 -1      1051 1.96528E+01 4.88454E-01-7.83224E-05 2.52921E-01-4.10334E-14 4.06470E-13
 -1      1052 1.97484E+01 4.02528E-01-6.36535E-05 1.92682E-01 5.45940E-14 4.30433E-13
 -1      1053 1.98225E+01 3.24859E-01-5.12056E-05 1.44863E-01 3.04586E-14 5.84595E-13
 -1      1054 1.98788E+01 2.57154E-01-4.06488E-05 1.07207E-01 8.12518E-14 5.05175E-13
 -1      1055 1.99205E+01 1.99829E-01-3.17824E-05 7.78563E-02 9.49486E-14 6.85362E-14
 -1      1056 1.99506E+01 1.52476E-01-2.44534E-05 5.52486E-02-1.05466E-13 3.34202E-13
 -1      1057 1.99717E+01 1.14189E-01-1.96584E-05 3.80574E-02 1.00280E-13 6.47584E-13
 -1      1058 1.99860E+01 8.37708E-02-1.18622E-05 2.51760E-02 1.69174E-13 6.18508E-13
 -1      1059 1.99951E+01 6.02152E-02-8.79910E-06 1.58147E-02-5.36478E-14 3.00054E-13
 -1      1060 1.99992E+01 4.61816E-02-1.95156E-06 9.94853E-03 1.33190E-13 1.07112E-13
 -1      1061 1.92969E+01 4.02665E-01 1.21763E-05-1.61968E+00-7.57459E-15-8.61159E-14
 -1      1062 1.36603E+01 9.43187E-01 1.58020E-02-3.79589E-01 2.34326E-14-3.29622E-13
 -1      1063 1.72408E+01 1.20272E+00 1.03284E-03-6.59015E-01 5.34509E-14-2.52637E-13
 -1      1064 1.78727E+01 1.17640E+00 6.33943E-04-5.34326E-01 1.00202E-13-2.59930E-13
 -1      1065 1.64181E+01 1.16425E+00-6.82465E-04-8.39525E-01 2.89211E-14-3.38548E-14
 -1      1066 1.93086E+01 1.31238E+00-6.22052E-04-7.58834E-01 9.37689E-15-9.19258E-14
 -1      1067 1.70491E+01 1.23078E+00-8.14221E-04 8.20409E-01-3.91568E-15-1.55478E-13
 -1      1068 1.87830E+01 1.70089E+00 2.07107E-04 5.79960E-03-1.27588E-14-1.47064E-13
 -1      1069 1.84172E+01 5.59597E-01-1.36339E-03-1.66234E+00-1.87716E-14-6.64461E-14
 -1      1070 1.75763E+01-2.22623E-01 3.02580E-03 2.54100E+00-9.46426E-14 3.43918E-13
 -1      1071 1.61574E+01-1.92338E-01 1.58659E-02-2.89807E+00-9.48603E-14-9.21072E-14
 -1      1072 1.81094E+01 1.02623E-01 4.34080E-04-2.19242E+00-2.15968E-14-3.46773E-14
 -1      1073 1.78587E+01 2.64003E-01-1.23780E-03 1.92994E+00-5.15284E-14 3.23363E-13
 -1      1074 1.55083E+01 1.00183E+00-2.37243E-04 1.03614E+00-9.88694E-14 1.56152E-13
 -1      1075 1.99968E+01 5.03545E-02-1.70916E-05 4.64262E-03 1.78594E-13-3.35402E-13
 -1      1076 1.99963E+01 5.12565E-02-1.44607E-05-1.71931E-03 2.19827E-13-9.52761E-14
 -1      1077 1.74678E+01-2.78059E-01 8.67763E-03-2.70352E+00-6.08012E-14 9.32848E-16
 -1      1078 1.90812E+01 1.04613E+00 1.12677E-03-1.04845E+00 1.03757E-15-9.03017E-14
 -1      1079 1.80249E+01 1.47229E+00 2.17890E-03 3.47257E-02-2.18516E-14-1.81190E-13
 -1      1080 1.62288E+01 1.26642E+00-5.78327E-04-6.74647E-02-2.38251E-14-2.06446E-13
 -1      1081 1.84611E+01 1.56610E+00 2.17843E-03 2.21804E-02-1.26711E-14-1.90207E-13
 -1      1082 1.88135E+01 9.59556E-01-1.93710E-04-6.97263E-02-4.47333E-14-2.27652E-13
 -1      1083 1.90986E+01 8.36902E-01-1.53426E-04-7.10521E-02 4.23782E-14-3.77481E-13
 -1      1084 1.93234E+01 7.13678E-01-1.06822E-04-6.66143E-02-1.14340E-13-3.92791E-13
 -1      1085 1.94995E+01 5.96217E-01-7.17714E-05-5.89593E-02-2.21114E-13-2.61307E-13
 -1      1086 1.96362E+01 4.88700E-01-4.65045E-05-4.99207E-02-9.16465E-14-2.52818E-13
 -1      1087 1.97411E+01 3.93463E-01-2.84714E-05-4.07392E-02 1.43899E-13-2.57323E-13
 -1      1088 1.98203E+01 3.11393E-01-1.58022E-05-3.21791E-02-8.20660E-14-2.29244E-13
 -1      1089 1.98792E+01 2.42333E-01-7.16351E-06-2.46484E-02-1.49353E-13-9.05084E-14
 -1      1090 1.99221E+01 1.85438E-01-1.64842E-06-1.83077E-02-1.34525E-14-4.43907E-14
 -1      1091 1.99525E+01 1.39457E-01 5.62333E-07-1.31623E-02 8.97559E-14-3.78085E-13
 -1      1092 1.99737E+01 1.02745E-01 2.79412E-06-8.88201E-03 1.92740E-13-5.83803E-13
 -1      1093 1.99878E+01 7.41991E-02 7.73755E-05-5.97062E-03 8.76528E-14-2.04412E-13
 -1      1094 1.88702E+01 8.95080E-01 2.38333E-04 4.01220E-01-1.29445E-13-3.20274E-13
 -1      1095 1.85519E+01 9.62586E-01-1.15791E-03 5.35598E-01-1.35464E-13-2.23331E-13
 -1      1096 1.62574E+01 1.24802E+00-1.20904E-03-2.79200E-02-4.57411E-14 4.40323E-14
 -1      1097 1.88745E+01 1.62805E+00 4.44028E-04-3.58218E-01 1.76420E-14-1.15910E-13
 -1      1098 1.52040E+01 1.11874E+00 1.63337E-02-1.67718E-01 9.92977E-15-2.59957E-13
 -1      1099 1.76909E+01 9.69189E-01 1.72956E-04 9.52396E-01 2.96248E-14 1.11149E-13
 -1      1100 1.91282E+01 8.00566E-01 2.00091E-04 3.03701E-01-7.96446E-14-3.40553E-13
 -1      1101 1.93368E+01 6.95665E-01 1.50716E-04 2.30200E-01 3.34036E-14-3.52558E-13
 -1      1102 1.95038E+01 5.89674E-01 1.12048E-04 1.74115E-01-8.96550E-14-3.14571E-13
 -1      1103 1.96357E+01 4.88942E-01 8.31950E-05 1.31003E-01 4.01719E-15-2.69089E-13
 -1      1104 1.97383E+01 3.97369E-01 6.17840E-05 9.77658E-02 1.45729E-14-1.06907E-13
 -1      1105 1.98168E+01 3.16956E-01 4.57622E-05 7.21586E-02 1.07435E-13-9.63216E-14
 -1      1106 1.98758E+01 2.48323E-01 3.36238E-05 5.25055E-02 1.27777E-13 2.32796E-15
 -1      1107 1.99191E+01 1.91151E-01 2.42786E-05 3.75204E-02-1.98198E-13 1.87712E-13
 -1      1108 1.99502E+01 1.44536E-01 1.71035E-05 2.62008E-02-2.65803E-13 7.84108E-14
 -1      1109 1.99718E+01 1.07295E-01 2.16023E-05 1.77833E-02 8.02869E-15 9.82204E-14
 -1      1110 1.99864E+01 7.77987E-02 5.84780E-05 1.15276E-02 3.36473E-13 1.64838E-13
 -1      1111 1.66727E+01 6.37791E-01 5.04004E-03 1.70933E+00-1.38595E-13 3.24308E-14
 -1      1112 1.72668E+01 1.36168E+00-9.15399E-04-1.18839E-02 6.98341E-15-1.64679E-13
 -1      1113 1.82029E+01 9.91476E-01 6.35463E-03 6.99264E-01-1.08450E-13-7.16202E-15
 -1      1114 1.84526E+01 1.07419E+00 2.05658E-04-5.85968E-02-1.09250E-14-5.38898E-14
 -1      1115 1.87724E+01 8.26424E-01-1.13804E-05-1.32157E+00-2.31702E-14-8.61195E-14
 -1      1116 1.50820E+01 7.55015E-01 3.70706E-03-1.55836E+00-3.52576E-14-2.12298E-13
 -1      1117 1.87328E+01 1.27930E+00-3.68862E-04-7.82998E-01-7.70402E-15-1.14673E-13
 -1      1118 1.66780E+01 6.33566E-01 4.85392E-03-1.77564E+00-7.56725E-14-6.74618E-14
 -1      1119 1.71357E+01 1.22602E+00-2.64226E-03 1.29377E-01 7.96455E-16 3.19174E-14
 -1      1120 1.99924E+01 6.30430E-02 4.00509E-05 7.39549E-03 1.94945E-13-1.90459E-13
 -1      1121 1.99891E+01 6.93942E-02-5.22884E-05 1.35845E-03 4.01742E-13-1.54415E-13
 -1      1122 1.79628E+01 1.17915E+00-3.48160E-03-4.42705E-02 1.29698E-13-1.32928E-13
 -1      1123 1.74311E+01 9.53416E-01 1.27896E-03-1.27208E+00-3.65203E-14-1.05626E-13
 -1      1124 1.72039E+01 8.65470E-01-1.39157E-03 1.28291E+00-1.20808E-13 1.63196E-13
 -1      1125 1.80524E+01 1.12829E+00 8.42960E-04-9.85654E-01-4.54242E-14-9.02427E-14
 -1      1126 1.84802E+01 1.47975E+00-2.57795E-03-4.09652E-01-1.88816E-14-7.18374E-14
 -1      1127 2.78474E+01 9.03840E+00 2.28046E+00-6.53407E+00-2.73670E-14 1.38334E-12
 -1      1128 2.07339E+01 6.28924E+00 2.30214E-01-3.67547E+00-1.88183E-14 3.72202E-13
 -1      1129 1.96424E+01 5.91977E+00 9.01727E-02-2.59998E+00-1.44884E-14-1.02213E-13
 -1      1130 1.91737E+01 5.77194E+00 6.61016E-02-1.92046E+00-1.03598E-14-3.41644E-13
 -1      1131 1.88913E+01 5.68402E+00 5.53642E-02-1.39704E+00-6.46705E-15-4.68131E-13
 -1      1132 1.86951E+01 5.62248E+00 4.64554E-02-9.74293E-01-4.94396E-15-5.34271E-13
 -1      1133 1.85594E+01 5.57977E+00 3.98552E-02-6.17304E-01-3.55445E-15-5.68378E-13
 -1      1134 1.84778E+01 5.55404E+00 3.56874E-02-2.98924E-01-1.26375E-15-5.77622E-13
 -1      1135 1.84524E+01 5.54607E+00 3.45121E-02-6.14713E-05 5.31259E-16-5.80712E-13
 -1      1136 1.84830E+01 5.55581E+00 3.63786E-02 3.01009E-01 2.94556E-15-5.79038E-13
 -1      1137 1.85680E+01 5.58273E+00 4.10755E-02 6.25625E-01 4.13732E-15-5.65352E-13
 -1      1138 1.87052E+01 5.62605E+00 4.82767E-02 9.91782E-01 6.20337E-15-5.29103E-13
 -1      1139 1.88989E+01 5.68670E+00 5.67881E-02 1.42539E+00 8.07687E-15-4.57190E-13
 -1      1140 1.91769E+01 5.77301E+00 6.64309E-02 1.96057E+00 1.16296E-14-3.26972E-13
 -1      1141 1.96336E+01 5.91534E+00 8.41677E-02 2.64929E+00 1.53766E-14-8.34801E-14
 -1      1142 2.06350E+01 6.24288E+00 1.74580E-01 3.66078E+00 1.81521E-14 4.00541E-13
 -1      1143 2.51714E+01 7.97383E+00 1.40788E+00 5.69376E+00 3.50275E-14 1.37229E-12
 -1      1144 2.85860E+01 3.52355E+00 1.19013E+00-4.10847E+00-1.28508E-13 2.03765E-12
 -1      1145 2.04149E+01-1.81674E-01-6.18990E-01-8.87008E-02-4.52000E-14 1.71857E-12
 -1      1146 1.93048E+01-9.92444E-02-2.34977E-01 6.67567E-02-2.01714E-14 1.26800E-12
 -1      1147 1.92322E+01-5.37118E-02-6.48926E-02 4.35863E-02-1.43748E-14 9.96182E-13
 -1      1148 1.94821E+01-3.30028E-02-2.56930E-02 3.12624E-02-1.62296E-14 7.69614E-13
 -1      1149 1.99446E+01-2.36412E-02-1.92474E-02 2.61449E-02-1.08225E-14 6.49168E-13
 -1      1150 2.05720E+01-1.85229E-02-1.82373E-02 2.49193E-02-4.49749E-15 5.43871E-13
 -1      1151 2.13409E+01-1.45499E-02-1.66606E-02 2.62281E-02 6.46596E-15 6.02764E-13
 -1      1152 2.22308E+01-9.42561E-03-1.19575E-02 2.90738E-02-7.85190E-15 4.92256E-13
 -1      1153 2.32043E+01-8.75048E-04-9.89804E-04 3.20032E-02-1.67004E-14 3.51944E-13
 -1      1154 2.41840E+01 1.33404E-02 2.01041E-02 3.22447E-02 1.08943E-14 3.26437E-13
 -1      1155 2.50253E+01 3.44265E-02 5.38872E-02 2.49752E-02 3.39243E-14 5.25101E-13
 -1      1156 2.54983E+01 6.01061E-02 9.67933E-02 3.60578E-03-1.11040E-14 4.89950E-13
 -1      1157 2.53106E+01 8.11293E-02 1.31988E-01-3.69001E-02-1.25984E-14 2.55677E-13
 -1      1158 2.42176E+01 7.90607E-02 1.27266E-01-9.20884E-02 9.49761E-16 4.11324E-13
 -1      1159 2.22440E+01 3.49870E-02 5.16069E-02-1.38717E-01-3.25347E-15 5.35821E-13
 -1      1160 1.99069E+01-4.82733E-02-8.64367E-02-1.39281E-01-5.37461E-15 4.47115E-13
 -1      1161 1.81583E+01-1.26917E-01-2.13091E-01-7.24562E-02-3.54577E-15 2.52257E-13
 -1      1162 1.78762E+01-1.42078E-01-2.36921E-01 3.59092E-02 3.01842E-15 2.39777E-13
 -1      1163 1.92278E+01-8.08642E-02-1.38697E-01 1.23723E-01 8.42468E-15 1.48534E-13
 -1      1164 2.15333E+01 7.79476E-03 6.72064E-03 1.47050E-01-7.98168E-15 3.36065E-13
 -1      1165 2.37896E+01 6.78042E-02 1.08611E-01 1.12808E-01 7.81927E-15 5.60316E-13
 -1      1166 2.52980E+01 8.29203E-02 1.35597E-01 5.74660E-02-4.18936E-16 7.57304E-13
 -1      1167 2.58782E+01 6.76142E-02 1.09787E-01 1.08932E-02-2.09555E-14 3.43611E-13
 -1      1168 2.57096E+01 4.19893E-02 6.63607E-02-1.63162E-02 2.06822E-14 3.92972E-13
 -1      1169 2.50882E+01 1.88389E-02 2.81483E-02-2.68327E-02 4.50811E-16 6.17707E-13
 -1      1170 2.42732E+01 2.65547E-03 2.71582E-03-2.72867E-02 1.40461E-14 6.45456E-13
 -1      1171 2.34376E+01-6.72737E-03-1.09525E-02-2.32110E-02-3.10699E-14 3.40387E-13
 -1      1172 2.26753E+01-1.11011E-02-1.65223E-02-1.79179E-02 1.25361E-14 1.08573E-13
 -1      1173 2.20258E+01-1.23253E-02-1.74199E-02-1.29827E-02 1.77923E-14 2.00621E-14
 -1      1174 2.14966E+01-1.18098E-02-1.60142E-02-8.95805E-03-2.24302E-14 6.44294E-14
 -1      1175 2.10792E+01-1.04713E-02-1.37044E-02-5.90512E-03 1.00643E-14-2.53182E-13
 -1      1176 2.07580E+01-8.84984E-03-1.12274E-02-3.69355E-03 1.28146E-14-4.35597E-13
 -1      1177 2.05164E+01-7.23672E-03-8.92857E-03-2.14568E-03-5.30164E-15-2.92019E-13
 -1      1178 2.03383E+01-5.77233E-03-6.94225E-03-1.09531E-03 1.24537E-14 2.82968E-14
 -1      1179 2.02099E+01-4.51139E-03-5.29661E-03-4.06090E-04 1.36756E-14 1.05057E-13
 -1      1180 2.01196E+01-3.46280E-03-3.97108E-03 2.71545E-05 2.79019E-16-2.26010E-13
 -1      1181 2.00581E+01-2.61278E-03-2.92587E-03 2.82868E-04 1.07290E-14-2.44135E-13
 -1      1182 2.00177E+01-1.93773E-03-2.11640E-03 4.18432E-04 3.79045E-14 2.95122E-14
 -1      1183 1.99928E+01-1.41109E-03-1.49985E-03 4.75263E-04 8.79074E-15-1.44725E-13
 -1      1184 1.99789E+01-1.00686E-03-1.03790E-03 4.82900E-04 2.02908E-14-4.57185E-13
 -1      1185 1.99726E+01-7.01106E-04-6.97352E-04 4.62126E-04-3.40579E-14-6.08246E-13
 -1      1186 1.99715E+01-4.72550E-04-4.49907E-04 4.27275E-04 4.45498E-14-7.61998E-13
 -1      1187 1.99738E+01-3.02508E-04-2.71265E-04 3.87874E-04 4.00650E-14-5.50729E-13
 -1      1188 1.99781E+01-1.74413E-04-1.39563E-04 3.49609E-04 6.65785E-14-7.03062E-14
 -1      1189 1.99835E+01-7.32288E-05-3.30213E-05 3.14401E-04 2.25688E-14 3.54055E-13
 -1      1190 1.99893E+01 1.48220E-05 7.24671E-05 2.78605E-04-1.02027E-15 2.14942E-13
 -1      1191 1.99946E+01 1.00322E-04 1.93818E-04 2.23397E-04 6.26172E-14 2.63067E-13
 -1      1192 1.99985E+01 1.89987E-04 2.93143E-04 1.08397E-04-1.41801E-14 3.84490E-14
 -1      1193 1.99999E+01-2.46366E-05-5.35758E-06-4.45782E-05 2.46330E-14-1.28445E-14
 -1      1194 2.75958E+01 5.16633E-01 3.19048E-01 1.93286E+00-2.86507E-14 2.17582E-12
 -1      1195 2.02884E+01-6.91361E-02-5.73596E-01 1.21735E-01 1.19488E-14 1.75313E-12
 -1      1196 1.93664E+01-4.42802E-02-1.92870E-01 1.76708E-02 1.11508E-14 1.35050E-12
 -1      1197 1.92320E+01-2.64821E-02-5.50901E-02 1.79473E-03 6.69083E-15 1.11539E-12
 -1      1198 1.94368E+01-1.85487E-02-2.15331E-02-3.32591E-03 3.59738E-16 9.73617E-13
 -1      1199 1.98416E+01-1.39451E-02-1.47589E-02-5.59359E-03 1.44741E-14 7.34496E-13
 -1      1200 2.03797E+01-1.01358E-02-1.22238E-02-7.79002E-03 4.29149E-15 6.15188E-13
 -1      1201 2.10090E+01-5.64802E-03-8.30579E-03-1.08257E-02-2.31087E-15 5.79651E-13
 -1      1202 2.16879E+01 6.90240E-04-1.04695E-03-1.49849E-02-1.36882E-14 4.34118E-13
 -1      1203 2.23596E+01 9.70891E-03 1.10707E-02-2.00038E-02 7.36314E-15 3.19602E-13
 -1      1204 2.29389E+01 2.13676E-02 2.88853E-02-2.46911E-02 1.81537E-14 1.73427E-13
 -1      1205 2.33057E+01 3.38227E-02 5.09498E-02-2.64674E-02 6.21595E-15 1.35177E-13
 -1      1206 2.33139E+01 4.25353E-02 7.13615E-02-2.13683E-02-1.49347E-14 2.35777E-13
 -1      1207 2.28295E+01 4.07340E-02 7.88130E-02-5.45950E-03 8.04825E-15 1.36724E-13
 -1      1208 2.18064E+01 2.28896E-02 6.01051E-02 2.16915E-02 4.32731E-14-2.44270E-13
 -1      1209 2.03799E+01-9.25385E-03 9.91180E-03 5.29194E-02-1.54478E-14-2.39836E-13
 -1      1210 1.89116E+01-4.29594E-02-5.82029E-02 7.33593E-02-1.38349E-14-9.77690E-14
 -1      1211 1.78999E+01-6.05433E-02-1.12423E-01 6.85668E-02-3.04964E-15 1.28023E-14
 -1      1212 1.77468E+01-5.32382E-02-1.23056E-01 3.64549E-02 1.18378E-14-1.53587E-13
 -1      1213 1.85252E+01-2.78367E-02-8.58282E-02-8.51792E-03-3.18669E-15-3.67553E-13
 -1      1214 1.99348E+01 9.00113E-05-2.44565E-02-4.54781E-02-1.95310E-14-4.26825E-13
 -1      1215 2.14864E+01 1.88326E-02 2.93324E-02-6.14602E-02-8.17337E-15-2.44554E-13
 -1      1216 2.27547E+01 2.56391E-02 5.74191E-02-5.69730E-02 5.42535E-14-4.83905E-13
 -1      1217 2.35254E+01 2.37237E-02 6.00601E-02-4.08832E-02 5.75841E-15-7.48950E-13
 -1      1218 2.37898E+01 1.77151E-02 4.74917E-02-2.24946E-02-3.95435E-14-2.51467E-13
 -1      1219 2.36604E+01 1.10047E-02 3.03202E-02-7.43474E-03 3.43627E-15 4.51054E-14
 -1      1220 2.32845E+01 5.33578E-03 1.50293E-02 2.53428E-03 2.86457E-15-3.03091E-13
 -1      1221 2.27914E+01 1.24977E-03 4.04043E-03 7.90486E-03-3.13595E-14-4.62687E-13
 -1      1222 2.22737E+01-1.34099E-03-2.67860E-03 9.97259E-03-1.32168E-14-4.79962E-13
 -1      1223 2.17880E+01-2.76157E-03-6.12005E-03 1.00167E-02-2.69598E-14-5.72577E-13
 -1      1224 2.13629E+01-3.36495E-03-7.39217E-03 9.00392E-03 5.04003E-14-7.00927E-13
 -1      1225 2.10087E+01-3.44708E-03-7.38529E-03 7.56266E-03-1.64159E-14-4.75883E-13
 -1      1226 2.07242E+01-3.22694E-03-6.71303E-03 6.05706E-03 8.44507E-15-1.52925E-13
 -1      1227 2.05026E+01-2.85438E-03-5.75933E-03 4.67379E-03-1.34274E-14-1.72553E-13
 -1      1228 2.03349E+01-2.42575E-03-4.74670E-03 3.49155E-03-5.43215E-14-3.31542E-13
 -1      1229 2.02113E+01-1.99914E-03-3.79369E-03 2.52851E-03-2.80414E-14-5.19691E-13
 -1      1230 2.01228E+01-1.60668E-03-2.95560E-03 1.77173E-03 1.21650E-15-1.09401E-12
 -1      1231 2.00614E+01-1.26364E-03-2.25099E-03 1.19449E-03 8.97172E-15-8.27959E-13
 -1      1232 2.00207E+01-9.74740E-04-1.67816E-03 7.65908E-04 3.39700E-14-9.10473E-13
 -1      1233 1.99952E+01-7.38437E-04-1.22510E-03 4.55896E-04-1.54971E-14-9.29666E-13
 -1      1234 1.99807E+01-5.49693E-04-8.75283E-04 2.37483E-04-1.07925E-14-3.89557E-13
 -1      1235 1.99739E+01-4.01702E-04-6.10938E-04 8.76109E-05 4.39515E-14-2.60335E-13
 -1      1236 1.99724E+01-2.86883E-04-4.14646E-04-1.28437E-05 7.93549E-14-6.46722E-13
 -1      1237 1.99744E+01-1.97283E-04-2.69811E-04-7.95063E-05-6.10174E-14-4.76083E-13
 -1      1238 1.99785E+01-1.24357E-04-1.59750E-04-1.25120E-04 2.83773E-14-5.47156E-13
 -1      1239 1.99837E+01-5.85458E-05-6.54806E-05-1.59830E-04-1.28997E-14-1.01315E-12
 -1      1240 1.99894E+01 1.11060E-05 3.60823E-05-1.90495E-04 1.19726E-14-1.22168E-12
 -1      1241 1.99946E+01 9.30756E-05 1.63334E-04-2.14241E-04-6.55161E-14-1.12128E-12
 -1      1242 1.99985E+01 1.62574E-04 2.66883E-04-1.88980E-04 1.38916E-13-1.30964E-12
 -1      1243 1.99999E+01-2.90770E-05-9.87531E-06 3.35125E-05-2.99787E-14-1.22763E-12
 -1      1244 1.99998E+01 8.02132E-05-1.63348E-05 1.74957E-05-1.13554E-12-5.52617E-14
 -1      1245 1.99999E+01-1.32703E-03 2.34637E-04-9.11741E-05-4.99167E-13 7.08494E-14
 -1      1246 1.99999E+01-4.96802E-03 1.13985E-04-1.95508E-04 5.52606E-13-1.81834E-15
 -1      1247 1.99998E+01-9.39932E-03-2.37668E-05-1.95674E-04 4.94948E-13 7.48865E-14
 -1      1248 1.99997E+01-1.36312E-02-1.05595E-04-1.60894E-04 2.85128E-13-9.13290E-14
 -1      1249 1.99997E+01-1.71218E-02-1.42511E-04-1.16285E-04 9.41361E-14 6.56094E-14
 -1      1250 1.99997E+01-1.96763E-02-1.52405E-04-7.60473E-05 5.99343E-14-1.95615E-13
 -1      1251 1.99997E+01-2.12393E-02-1.53408E-04-3.71092E-05-3.46396E-13-1.32261E-13
 -1      1252 1.99997E+01-2.17725E-02-1.53377E-04-7.65149E-07-7.01418E-13-9.58273E-14
 -1      1253 1.99997E+01-2.12750E-02-1.55192E-04 3.58908E-05-1.02270E-12 1.06410E-15
 -1      1254 1.99997E+01-1.97359E-02-1.55232E-04 7.56584E-05-1.54503E-12-1.47103E-13
 -1      1255 1.99997E+01-1.71835E-02-1.44991E-04 1.19271E-04-2.02549E-12 2.14906E-13
 -1      1256 1.99997E+01-1.36758E-02-1.08513E-04 1.62852E-04-1.12152E-12 2.23808E-13
 -1      1257 1.99998E+01-9.40138E-03-2.18382E-05 2.00878E-04-1.28527E-12-6.30254E-14
 -1      1258 1.99999E+01-4.87135E-03 1.43595E-04 2.33975E-04-8.24990E-13 2.08042E-13
 -1      1259 2.00000E+01-1.34640E-03 2.47003E-04 9.63930E-05 1.25249E-13-3.00285E-14
 -1      1260 1.99997E+01 7.54681E-05-3.30637E-05-7.62278E-06 1.73834E-13 1.32473E-13
 -1      1261-1.06007E+00-2.42231E+01-3.74683E+00-2.10779E+00-1.02696E-14 1.08392E-13
 -1      1262-1.75293E+00-1.50873E+01-3.00209E+00-3.78841E+00 1.11799E-12 4.69458E-13
 -1      1263 4.88846E-01-2.10380E+00-1.83915E+00 2.02914E-01 1.71196E-12 1.09079E-12
 -1      1264 9.69746E+00 8.03320E+00-1.48506E-01 8.64405E+00 2.03260E-12 2.00151E-12
 -1      1265 2.67742E+01 1.09712E+01 1.51030E+00 1.61492E+01 1.68698E-12 2.54707E-12
 -1      1266 4.71921E+01 7.67852E+00 2.95426E+00 1.74611E+01 1.04933E-12 2.36411E-12
 -1      1267 6.26320E+01 3.04120E+00 3.95482E+00 9.85500E+00 3.25101E-13 1.17339E-12
 -1      1268 6.60486E+01 2.09237E+00 4.14729E+00-2.84847E+00 1.15380E-13-3.04645E-13
 -1      1269 5.71017E+01 5.07352E+00 3.68954E+00-1.40586E+01 5.78787E-13-1.80278E-12
 -1      1270 3.92345E+01 9.65633E+00 2.47738E+00-1.82155E+01 1.39733E-12-2.66809E-12
 -1      1271 2.00250E+01 1.08971E+01 9.39122E-01-1.41682E+01 1.99218E-12-2.56462E-12
 -1      1272 5.74880E+00 5.53941E+00-6.83864E-01-5.66226E+00 2.47269E-12-1.98730E-12
 -1      1273-7.56644E-01-5.72379E+00-2.18613E+00 1.74282E+00 2.58504E-12-1.36535E-12
 -1      1274-1.65412E+00-1.81179E+01-3.26001E+00 4.02670E+00 1.78912E-12-5.85476E-13
 -1      1275-9.24468E-01-2.53226E+01-3.83725E+00 1.00453E+00 2.67425E-13-1.67880E-13
 -1      1276-1.49882E+00-2.23768E+01-3.60007E+00-3.15584E+00-1.58307E-12-3.77004E-13
 -1      1277-1.74862E+00-1.20625E+01-2.86384E+00-3.70692E+00-2.49356E-12-1.08513E-12
 -1      1278 2.00056E+00 8.29420E-01-1.43426E+00 1.81783E+00-2.76312E-12-1.95233E-12
 -1      1279 1.40560E+01 9.39025E+00 2.68630E-01 1.11021E+01-2.54996E-12-2.73315E-12
 -1      1280 3.35498E+01 1.04744E+01 2.01878E+00 1.77257E+01-1.67311E-12-2.83640E-12
 -1      1281 5.35471E+01 6.26453E+00 3.45123E+00 1.61663E+01-7.44071E-13-2.06346E-12
 -1      1282 6.61568E+01 2.31696E+00 4.26443E+00 6.47174E+00-1.75325E-13-3.45057E-13
 -1      1283 6.62165E+01 2.26765E+00 4.25447E+00-6.21351E+00-1.78781E-13 1.02779E-12
 -1      1284 5.46479E+01 5.89843E+00 3.50726E+00-1.56108E+01-6.07570E-13 1.94356E-12
 -1      1285 3.66041E+01 1.00072E+01 2.22846E+00-1.80235E+01-9.52349E-13 1.94378E-12
 -1      1286 1.85090E+01 1.05534E+01 7.07826E-01-1.35162E+01-1.52500E-12 1.80345E-12
 -1      1287 5.49506E+00 5.21140E+00-8.40168E-01-5.46939E+00-2.09077E-12 1.76192E-12
 -1      1288-7.23596E-01-5.01460E+00-2.19602E+00 1.53251E+00-2.28928E-12 1.33482E-12
 -1      1289-1.93017E+00-1.64638E+01-3.22666E+00 4.22986E+00-1.57463E-12 4.84612E-13
 -1      1290-1.19807E+00-2.40408E+01-3.72007E+00 2.19902E+00-1.00697E-12 1.75943E-13
 -1      1291 2.23561E+01 1.84677E+00-7.14031E-01-2.66907E+00-4.76563E-14 1.18949E-12
 -1      1292 2.05936E+01 4.69600E+00-4.25144E-02-3.04970E+00-1.51032E-13 1.51254E-13
 -1      1293 2.10821E+01 4.80089E+00-1.00753E-01-3.92474E+00-1.87517E-13 3.99569E-13
 -1      1294 1.97437E+01 5.01834E+00-1.75914E-02-2.34880E+00-1.61315E-13-2.08149E-13
 -1      1295 2.00663E+01 5.12020E+00 9.18851E-03-2.75765E+00-1.78219E-13-4.89608E-14
 -1      1296 2.07824E+01 3.94726E+00-2.16075E-02-2.78842E+00-2.67578E-13 1.37487E-13
 -1      1297 1.93078E+01 5.11810E+00-4.76696E-03-1.75206E+00-1.35950E-13-3.97907E-13
 -1      1298 1.95074E+01 5.18777E+00 1.62246E-02-2.04713E+00-1.55209E-13-3.10398E-13
 -1      1299 1.99565E+01 4.39903E+00-2.07958E-02-2.17248E+00-2.55391E-13-1.63806E-13
 -1      1300 1.90160E+01 5.16775E+00-1.38587E-04-1.26796E+00-1.04722E-13-5.01659E-13
 -1      1301 1.91545E+01 5.21511E+00 1.55758E-02-1.50279E+00-1.20237E-13-4.53932E-13
 -1      1302 1.94818E+01 4.62032E+00-1.74888E-02-1.61440E+00-2.05540E-13-3.35267E-13
 -1      1303 1.88103E+01 5.19688E+00 1.63868E-03-8.73397E-01-7.41265E-14-5.52459E-13
 -1      1304 1.89081E+01 5.22974E+00 1.30419E-02-1.06543E+00-8.94475E-14-5.25621E-13
 -1      1305 1.91646E+01 4.75324E+00-1.44361E-02-1.16047E+00-1.59905E-13-4.15484E-13
 -1      1306 1.86679E+01 5.21526E+00 2.67299E-03-5.29451E-01-5.19741E-14-5.74709E-13
 -1      1307 1.87331E+01 5.23673E+00 1.01067E-02-6.98249E-01-5.74315E-14-5.66649E-13
 -1      1308 1.89418E+01 4.83796E+00-1.24466E-02-7.81395E-01-1.09153E-13-4.66738E-13
 -1      1309 1.85906E+01 5.22680E+00 3.94657E-03-2.20847E-01-1.56680E-14-5.87462E-13
 -1      1310 1.86222E+01 5.23710E+00 7.40302E-03-3.74609E-01-2.56037E-14-5.78376E-13
 -1      1311 1.87954E+01 4.88885E+00-1.14016E-02-4.50048E-01-6.22770E-14-4.75026E-13
 -1      1312 1.85786E+01 5.23319E+00 5.70631E-03 7.41825E-02 9.19880E-15-5.89509E-13
 -1      1313 1.85766E+01 5.23247E+00 5.25841E-03-7.54021E-02 2.46201E-15-5.89428E-13
 -1      1314 1.87248E+01 4.91124E+00-1.09850E-02-1.47937E-01-9.60538E-15-4.89268E-13
 -1      1315 1.86312E+01 5.23504E+00 8.00280E-03 3.76742E-01 4.32640E-14-5.80664E-13
 -1      1316 1.85961E+01 5.22350E+00 3.74391E-03 2.20795E-01 3.08902E-14-5.84487E-13
 -1      1317 1.87295E+01 4.90783E+00-1.10591E-02 1.46146E-01 3.06247E-14-4.88689E-13
 -1      1318 1.87464E+01 5.23177E+00 1.06546E-02 7.07628E-01 6.74495E-14-5.66460E-13
 -1      1319 1.86793E+01 5.20978E+00 2.74744E-03 5.34818E-01 5.92417E-14-5.78076E-13
 -1      1320 1.88081E+01 4.87912E+00-1.16189E-02 4.52757E-01 8.66651E-14-4.82194E-13
 -1      1321 1.89202E+01 5.22282E+00 1.34505E-02 1.08099E+00 9.83016E-14-5.22188E-13
 -1      1322 1.88226E+01 5.18982E+00 1.82713E-03 8.84228E-01 8.63129E-14-5.49854E-13
 -1      1323 1.89577E+01 4.82381E+00-1.26557E-02 7.89004E-01 1.26235E-13-4.59372E-13
 -1      1324 1.91663E+01 5.20572E+00 1.56703E-02 1.53307E+00 1.35298E-13-4.38677E-13
 -1      1325 1.90290E+01 5.15842E+00-6.71851E-05 1.29241E+00 1.19224E-13-4.88262E-13
 -1      1326 1.91810E+01 4.73541E+00-1.47692E-02 1.17806E+00 1.78972E-13-4.05537E-13
 -1      1327 1.95156E+01 5.17721E+00 1.56539E-02 2.08924E+00 1.72362E-13-2.92044E-13
 -1      1328 1.93174E+01 5.10666E+00-5.36168E-03 1.78847E+00 1.54411E-13-3.80168E-13
 -1      1329 1.94985E+01 4.59790E+00-1.82484E-02 1.64700E+00 2.34678E-13-3.14998E-13
 -1      1330 2.00848E+01 5.12578E+00 1.45107E-02 2.80608E+00 1.98189E-13-2.37935E-14
 -1      1331 1.97508E+01 5.00675E+00-1.82532E-02 2.40018E+00 1.79141E-13-1.84273E-13
 -1      1332 1.99729E+01 4.37197E+00-2.18952E-02 2.21983E+00 2.86264E-13-1.43587E-13
 -1      1333 2.12969E+01 4.89552E+00 1.60247E-02 3.83500E+00 1.69337E-13 4.84474E-13
 -1      1334 2.05624E+01 4.73766E+00-4.17697E-02 3.16655E+00 1.63786E-13 1.74888E-13
 -1      1335 2.08127E+01 3.90943E+00-1.80003E-02 2.90148E+00 2.92787E-13 1.55140E-13
 -1      1336 2.71456E+01 3.16483E+00 8.93336E-01 4.43967E+00 7.86871E-14 1.43546E-12
 -1      1337 2.21660E+01 3.51019E+00-1.75147E-01 3.70675E+00 8.59313E-14 7.74658E-13
 -1      1338 2.23263E+01 2.53870E+00-2.76103E-02 3.22946E+00 2.72804E-13 6.08791E-13
 -1      1339 2.15625E+01 3.48852E-01-7.56819E-01 1.07968E+00 1.40138E-13 1.38706E-12
 -1      1340 2.21834E+01 1.24071E-01-3.97035E-01-1.16407E+00-1.50185E-13 1.22247E-12
 -1      1341 2.09936E+01 2.98980E-01-1.58895E-01-7.02215E-01-1.46008E-13 1.04294E-12
 -1      1342 2.04819E+01 1.54070E-01-7.09652E-02-2.98001E-01-1.12993E-13 9.65507E-13
 -1      1343 2.01414E+01 9.38163E-02-1.23867E-02-2.26631E-01-1.12098E-13 8.08523E-13
 -1      1344 2.13349E+01 3.61757E-01-1.03358E-01-1.07102E+00-2.39371E-13 6.12115E-13
 -1      1345 1.98923E+01 7.03898E-02 3.98375E-03-2.21762E-02-8.36223E-14 7.41233E-13
 -1      1346 1.98795E+01 4.88992E-02 1.43773E-02-7.73113E-04-6.94549E-14 6.36553E-13
 -1      1347 2.04774E+01 1.38490E-01-3.67703E-02-2.90033E-01-1.82413E-13 4.94445E-13
 -1      1348 1.98481E+01 4.18046E-02 1.31658E-02 1.08655E-01-6.77058E-14 5.74936E-13
 -1      1349 1.99995E+01 3.07529E-02 1.16225E-02 1.23851E-01-8.19674E-14 4.81771E-13
 -1      1350 2.02313E+01 6.95775E-02-1.11504E-02 7.98584E-02-1.43064E-13 3.86391E-13
 -1      1351 2.01009E+01 2.99041E-02 8.12143E-03 1.95533E-01-4.04876E-14 4.59646E-13
 -1      1352 2.03563E+01 2.32574E-02 6.65502E-03 2.07775E-01-3.99533E-14 4.16639E-13
 -1      1353 2.03016E+01 4.52035E-02-7.21340E-03 2.96647E-01-1.01438E-13 2.94221E-13
 -1      1354 2.05489E+01 2.44116E-02 3.47314E-03 2.62875E-01-2.92214E-14 3.97418E-13
 -1      1355 2.08839E+01 1.91547E-02 3.44324E-03 2.73672E-01-1.47798E-14 3.68384E-13
 -1      1356 2.05865E+01 3.58522E-02-6.71123E-03 4.49982E-01-7.31229E-14 2.49629E-13
 -1      1357 2.11447E+01 2.07505E-02 5.85197E-04 3.18829E-01 2.00651E-14 3.67607E-13
 -1      1358 2.15452E+01 1.50836E-02 1.40805E-03 3.28364E-01-6.39679E-16 3.70100E-13
 -1      1359 2.10272E+01 3.05966E-02-6.28036E-03 5.71583E-01-4.15596E-15 2.23028E-13
 -1      1360 2.18574E+01 1.58716E-02-1.20840E-03 3.62562E-01-1.88762E-14 3.78819E-13
 -1      1361 2.23068E+01 8.19250E-03-3.58705E-05 3.69685E-01-3.69271E-14 3.13489E-13
 -1      1362 2.15862E+01 2.37583E-02-5.39254E-03 6.68387E-01-2.72699E-14 2.00783E-13
 -1      1363 2.26513E+01 6.56345E-03-2.09332E-03 3.85029E-01-2.06729E-14 3.53381E-13
 -1      1364 2.31200E+01-4.69983E-03-8.17795E-04 3.86877E-01-3.30401E-14 3.22381E-13
 -1      1365 2.22298E+01 9.96482E-03-3.59268E-03 7.30219E-01-4.55232E-14 2.68739E-13
 -1      1366 2.34678E+01-1.08729E-02-1.52036E-03 3.68032E-01-2.22071E-14 3.39867E-13
 -1      1367 2.39011E+01-2.67681E-02-2.64360E-04 3.59603E-01 4.47563E-14 3.13159E-13
 -1      1368 2.29130E+01-1.69321E-02-6.78864E-05 7.29901E-01-5.46655E-15 3.30713E-13
 -1      1369 2.42075E+01-3.95969E-02 1.57214E-03 2.84793E-01 7.44986E-14 2.93113E-13
 -1      1370 2.45163E+01-5.91668E-02 2.58513E-03 2.59251E-01 2.36512E-14 3.66240E-13
 -1      1371 2.35666E+01-6.24353E-02 6.18600E-03 6.23401E-01 4.49692E-14 2.56012E-13
 -1      1372 2.47175E+01-7.89073E-02 7.99561E-03 1.07078E-01-2.00352E-14 3.51079E-13
 -1      1373 2.47808E+01-9.65941E-02 8.05752E-03 5.82936E-02-5.79276E-14 2.70223E-13
 -1      1374 2.40870E+01-1.26201E-01 1.57039E-02 3.58243E-01 3.94650E-15 1.63754E-13
 -1      1375 2.48013E+01-1.18044E-01 1.66058E-02-1.74428E-01-2.20154E-14 3.41777E-13
 -1      1376 2.44977E+01-1.21404E-01 1.39475E-02-2.45124E-01-8.10636E-15 3.14651E-13
 -1      1377 2.43379E+01-1.92260E-01 2.70940E-02-9.85119E-02-3.72688E-14 2.92773E-13
 -1      1378 2.42753E+01-1.30826E-01 2.19262E-02-5.14486E-01 5.03157E-14 3.18877E-13
 -1      1379 2.35594E+01-1.03351E-01 1.45793E-02-5.88207E-01 2.09971E-14 4.03240E-13
 -1      1380 2.41780E+01-2.19425E-01 3.48772E-02-7.04836E-01 1.63342E-14 3.64137E-13
 -1      1381 2.30963E+01-8.23962E-02 1.60679E-02-7.83093E-01-1.56077E-14 3.96946E-13
 -1      1382 2.20967E+01-1.78226E-02 3.28849E-03-8.19059E-01-4.27002E-14 3.68927E-13
 -1      1383 2.35341E+01-1.52601E-01 2.87952E-02-1.28026E+00 1.28673E-14 3.65076E-13
 -1      1384 2.15187E+01 3.61633E-02-4.92051E-03-7.96043E-01-3.73191E-14 3.75505E-13
 -1      1385 2.05746E+01 1.14817E-01-1.93927E-02-7.52918E-01-8.04643E-14 3.16427E-13
 -1      1386 2.25161E+01 3.00714E-02 1.18210E-03-1.51133E+00-6.85031E-14 3.28008E-13
 -1      1387 2.01307E+01 1.69912E-01-3.09941E-02-4.49026E-01-7.12121E-14 2.86486E-13
 -1      1388 1.96629E+01 2.14875E-01-3.87397E-02-3.29026E-01-3.63945E-14 2.42174E-13
 -1      1389 2.14931E+01 2.55461E-01-4.07265E-02-1.12619E+00-9.82166E-14 3.18775E-13
 -1      1390 1.95939E+01 2.26147E-01-4.11486E-02 1.38647E-01-3.34455E-14 1.59468E-13
 -1      1391 1.98418E+01 2.04025E-01-3.71186E-02 2.74029E-01-3.09197E-14 1.35225E-13
 -1      1392 2.09725E+01 3.81308E-01-6.79113E-02-1.77593E-01-5.93588E-14 1.43400E-13
 -1      1393 2.01956E+01 1.60122E-01-2.76565E-02 6.61091E-01-1.25247E-14 2.85189E-14
 -1      1394 2.10420E+01 8.76978E-02-1.41975E-02 7.35699E-01-2.01072E-14 9.89486E-15
 -1      1395 2.12616E+01 3.20778E-01-5.36869E-02 8.78421E-01-6.85979E-14-2.11289E-15
 -1      1396 2.16286E+01 2.82262E-02-3.34614E-03 8.61926E-01 5.89978E-14 5.21805E-15
 -1      1397 2.26867E+01-4.58198E-02 1.09955E-02 8.51200E-01 1.27767E-14 2.28845E-14
 -1      1398 2.22071E+01 1.13232E-01-1.32703E-02 1.49819E+00 3.80789E-14-1.40853E-13
 -1      1399 2.32390E+01-7.92472E-02 1.28981E-02 7.21537E-01 4.86781E-14 1.74638E-13
 -1      1400 2.41174E+01-1.20375E-01 2.24245E-02 6.56753E-01 1.08759E-13 2.53964E-13
 -1      1401 2.33312E+01-9.59993E-02 2.26314E-02 1.47224E+00 1.36379E-13-1.58262E-13
 -1      1402 2.44613E+01-1.19716E-01 1.55619E-02 4.01753E-01 2.36235E-14 2.88290E-13
 -1      1403 2.49545E+01-1.25771E-01 1.96478E-02 3.27563E-01-5.00051E-14 2.80102E-13
 -1      1404 2.41889E+01-2.05842E-01 3.52172E-02 9.88263E-01 7.37327E-14-5.72424E-14
 -1      1405 2.50497E+01-1.06282E-01 1.02824E-02 7.74060E-02-3.52444E-14 2.86590E-13
 -1      1406 2.51525E+01-9.21616E-02 1.10221E-02 2.09471E-02-2.61301E-14 1.81955E-13
 -1      1407 2.45825E+01-2.05936E-01 3.05112E-02 3.73304E-01-5.71349E-14 1.31319E-13
 -1      1408 2.50450E+01-7.03006E-02 3.93123E-03-1.56999E-01 3.37595E-14 2.92779E-13
 -1      1409 2.48630E+01-5.07728E-02 3.33264E-03-1.89150E-01 4.76875E-14 3.29729E-13
 -1      1410 2.45336E+01-1.47433E-01 1.92660E-02-1.37820E-01 2.60417E-14 1.80109E-13
 -1      1411 2.46280E+01-3.48134E-02-1.17579E-04-2.84898E-01 5.30418E-14 3.40974E-13
 -1      1412 2.42888E+01-1.79310E-02-1.09030E-03-2.97343E-01 1.51741E-14 4.36623E-13
 -1      1413 2.41702E+01-7.94093E-02 8.73828E-03-4.59321E-01 7.67919E-14 1.62661E-13
 -1      1414 2.39948E+01-9.13262E-03-1.64638E-03-3.29201E-01-3.94116E-14 4.22284E-13
 -1      1415 2.36001E+01 2.72911E-03-2.69797E-03-3.29186E-01-1.50534E-14 3.74558E-13
 -1      1416 2.36347E+01-2.67200E-02 1.44668E-03-6.06090E-01-5.62384E-14 2.45515E-13
 -1      1417 2.32966E+01 6.09788E-03-1.61813E-03-3.21084E-01-9.02350E-14 2.74249E-13
 -1      1418 2.29108E+01 1.33548E-02-2.68595E-03-3.14611E-01-1.62185E-13 1.04076E-13
 -1      1419 2.30405E+01 5.74772E-03-2.67379E-03-6.30333E-01-1.52299E-13 1.01352E-13
 -1      1420 2.26276E+01 1.34483E-02-9.75527E-04-2.86018E-01-1.05716E-14 7.54830E-14
 -1      1421 2.22840E+01 1.73470E-02-2.03715E-03-2.77031E-01 1.84900E-14 9.83848E-14
 -1      1422 2.24623E+01 2.19839E-02-4.52866E-03-5.83911E-01-1.28965E-13 2.51587E-14
 -1      1423 2.20361E+01 1.58284E-02-2.84398E-04-2.40817E-01-6.39606E-14 6.00431E-14
 -1      1424 2.17473E+01 1.75670E-02-1.29745E-03-2.31540E-01-3.43827E-14 4.86156E-14
 -1      1425 2.19413E+01 2.77173E-02-5.02319E-03-5.04984E-01-4.01838E-14 7.41102E-14
 -1      1426 2.15394E+01 1.54691E-02 2.29486E-04-1.95071E-01-4.13816E-14 3.94684E-14
 -1      1427 2.13062E+01 1.59359E-02-6.90125E-04-1.86591E-01-1.56025E-14-3.49412E-14
 -1      1428 2.14953E+01 2.76145E-02-4.80211E-03-4.17270E-01-2.84243E-14-4.67061E-14
 -1      1429 2.11374E+01 1.38119E-02 5.31285E-04-1.53514E-01-3.66649E-14-6.38769E-14
 -1      1430 2.09545E+01 1.35905E-02-2.63460E-04-1.46254E-01-1.69089E-13-1.81426E-13
 -1      1431 2.11271E+01 2.47448E-02-4.25839E-03-3.33626E-01-1.04888E-13 3.03561E-14
 -1      1432 2.08210E+01 1.16932E-02 6.63178E-04-1.17994E-01 1.23907E-14-2.70661E-13
 -1      1433 2.06810E+01 1.11403E-02 5.46194E-06-1.12028E-01 5.29444E-14-2.74896E-13
 -1      1434 2.08317E+01 2.08844E-02-3.60959E-03-2.59947E-01-1.42536E-13-1.09920E-13
 -1      1435 2.05776E+01 9.55604E-03 6.82394E-04-8.88008E-02 6.82862E-14-2.02309E-13
 -1      1436 2.04728E+01 8.87835E-03 1.57802E-04-8.40370E-02 9.85714E-14-1.84834E-13
 -1      1437 2.06001E+01 1.69600E-02-2.96733E-03-1.98115E-01 1.51393E-13-1.21329E-13
 -1      1438 2.03943E+01 7.61008E-03 6.36965E-04-6.54702E-02 1.77503E-14-8.90781E-15
 -1      1439 2.03174E+01 6.92157E-03 2.31624E-04-6.17491E-02 5.59504E-14 5.88013E-14
 -1      1440 2.04223E+01 1.33994E-02-2.38363E-03-1.47912E-01 1.31431E-13-1.90269E-14
 -1      1441 2.02591E+01 5.93592E-03 5.60409E-04-4.72286E-02-7.20413E-14-1.06214E-14
 -1      1442 2.02039E+01 5.29511E-03 2.56002E-04-4.43758E-02-1.39281E-13-1.05093E-13
 -1      1443 2.02885E+01 1.03595E-02-1.87850E-03-1.08147E-01-6.65567E-14-7.19881E-14
 -1      1444 2.01614E+01 4.54685E-03 4.73639E-04-3.32311E-02-8.48144E-15-1.35830E-13
 -1      1445 2.01229E+01 3.98015E-03 2.51196E-04-3.10814E-02 1.16131E-14-2.05203E-13
 -1      1446 2.01897E+01 7.86033E-03-1.45530E-03-7.72825E-02-1.37302E-13-2.03835E-13
 -1      1447 2.00927E+01 3.42385E-03 3.88533E-04-2.26757E-02-3.61316E-14-2.62427E-13
 -1      1448 2.00666E+01 2.93955E-03 2.30557E-04-2.10835E-02 4.02139E-14-2.73876E-13
 -1      1449 2.01184E+01 5.85942E-03-1.10919E-03-5.37542E-02-9.51637E-15-1.80965E-13
 -1      1450 2.00458E+01 2.53450E-03 3.11101E-04-1.48525E-02 3.90322E-14-1.31346E-13
 -1      1451 2.00289E+01 2.13091E-03 2.02522E-04-1.36943E-02 8.47275E-14-1.44332E-13
 -1      1452 2.00682E+01 4.29020E-03-8.31642E-04-3.61253E-02 8.63296E-14-3.20250E-13
 -1      1453 2.00150E+01 1.84269E-03 2.43795E-04-9.15859E-03-3.33909E-14-2.16246E-13
 -1      1454 2.00048E+01 1.51295E-03 1.72203E-04-8.33266E-03-1.34060E-13-2.62801E-13
 -1      1455 2.00340E+01 3.08142E-03-6.12932E-04-2.31466E-02-7.85998E-14-3.22910E-13
 -1      1456 1.99961E+01 1.31341E-03 1.87025E-04-5.09656E-03-5.57801E-14-3.17829E-13
 -1      1457 1.99906E+01 1.04821E-03 1.42513E-04-4.52093E-03-9.03908E-14-5.27383E-13
 -1      1458 2.00117E+01 2.16578E-03-4.43354E-04-1.37694E-02-1.11411E-13-1.92660E-13
 -1      1459 1.99856E+01 9.14753E-04 1.40104E-04-2.26551E-03-1.57960E-14-5.18242E-13
 -1      1460 1.99834E+01 7.03891E-04 1.14944E-04-1.87544E-03 5.83503E-14-5.24693E-13
 -1      1461 1.99980E+01 1.48342E-03-3.13876E-04-7.13655E-03-1.08961E-13-3.67212E-13
 -1      1462 1.99809E+01 6.18594E-04 1.01822E-04-3.49665E-04 5.08985E-14-3.60216E-13
 -1      1463 1.99809E+01 4.51797E-04 9.00893E-05-9.52308E-05 3.03580E-14-5.01307E-13
 -1      1464 1.99905E+01 9.82596E-04-2.16389E-04-2.56393E-03 7.88897E-14-2.89276E-13
 -1      1465 1.99802E+01 4.00365E-04 7.08294E-05 8.92908E-04 8.01997E-14-2.67694E-13
 -1      1466 1.99816E+01 2.67620E-04 6.81031E-05 1.04893E-03 2.23401E-13-6.35977E-14
 -1      1467 1.99874E+01 6.18992E-04-1.43754E-04 4.80906E-04 1.96862E-13-6.64639E-14
 -1      1468 1.99821E+01 2.38284E-04 4.60592E-05 1.63974E-03 2.05891E-13-1.08632E-13
 -1      1469 1.99844E+01 1.29848E-04 4.93203E-05 1.72338E-03 2.10120E-13 1.21505E-13
 -1      1470 1.99871E+01 3.54028E-04-8.96659E-05 2.39797E-03 3.22534E-13 2.00750E-14
 -1      1471 1.99855E+01 1.12132E-04 2.74443E-05 2.01045E-03 2.22541E-13 1.19796E-13
 -1      1472 1.99881E+01 1.83268E-05 3.52666E-05 2.03719E-03 1.14677E-13 3.68694E-13
 -1      1473 1.99887E+01 1.52563E-04-4.82271E-05 3.46967E-03 3.03076E-13 1.40854E-13
 -1      1474 1.99896E+01 1.44596E-06 1.73425E-05 2.06928E-03-1.36081E-13 3.00236E-13
 -1      1475 1.99922E+01-8.75672E-05 3.00405E-05 2.04292E-03-7.89111E-14 1.77569E-13
 -1      1476 1.99912E+01-2.07711E-05-1.34268E-05 3.87001E-03 5.65788E-14 2.29343E-13
 -1      1477 1.99937E+01-1.17617E-04 2.11303E-05 1.82349E-03 3.14361E-14 1.45308E-13
 -1      1478 1.99959E+01-2.09816E-04 3.35759E-05 1.73197E-03 1.52870E-15 1.16865E-13
 -1      1479 1.99941E+01-2.07775E-04 1.97014E-05 3.66298E-03-1.41245E-13 2.65138E-13
 -1      1480 1.99972E+01-2.72407E-04 3.68467E-05 1.22098E-03-9.55514E-14 1.51453E-13
 -1      1481 1.99986E+01-3.29103E-04 3.73670E-05 1.06616E-03-1.56232E-13 1.00174E-13
 -1      1482 1.99968E+01-4.66464E-04 5.03727E-05 2.82606E-03-5.06947E-14 1.82292E-13
 -1      1483 1.99996E+01-2.41575E-04 7.03035E-05 1.23854E-04-1.33097E-13 1.60209E-13
 -1      1484 1.99991E+01-7.59139E-04 5.31216E-05 1.11515E-03-9.43193E-14 1.50250E-13
 -1      1485 2.05996E+01 7.40438E-02-1.47317E-01 3.98352E-01 1.26892E-13 1.09877E-12
 -1      1486 2.17369E+01 2.16303E-01-2.27618E-01 6.29737E-01 1.10578E-13 1.29954E-12
 -1      1487 2.19696E+01 8.58825E-01-8.87168E-02 1.89063E+00 2.21913E-13 8.36872E-13
 -1      1488 1.98874E+01 3.40686E-02-1.96587E-02 1.01086E-01 8.11122E-14 8.80452E-13
 -1      1489 2.01886E+01 1.15746E-01-5.97226E-02 1.54068E-01 7.56270E-14 1.00841E-12
 -1      1490 2.07264E+01 1.83286E-01-5.60994E-02 6.23263E-01 1.78427E-13 6.62617E-13
 -1      1491 1.97432E+01 1.87086E-02 5.43378E-03-4.20807E-02 5.08690E-14 7.25663E-13
 -1      1492 1.97539E+01 5.70859E-02 2.44541E-03-1.19209E-02 5.04258E-14 8.11573E-13
 -1      1493 2.01840E+01 7.52084E-02-1.39286E-02 1.25768E-01 1.22536E-13 5.26017E-13
 -1      1494 1.99099E+01 1.18782E-02 5.84979E-03-1.22551E-01 7.24087E-14 5.99222E-13
 -1      1495 1.97755E+01 3.38842E-02 1.16309E-02-1.02330E-01 4.70205E-14 6.73343E-13
 -1      1496 2.00804E+01 3.88803E-02-5.11061E-03-1.16680E-01 8.75576E-14 4.06094E-13
 -1      1497 2.02649E+01 8.29205E-03 3.31069E-03-1.74717E-01 5.97760E-14 4.38007E-13
 -1      1498 2.00433E+01 2.33704E-02 8.67387E-03-1.59485E-01 6.08441E-14 5.43010E-13
 -1      1499 2.02355E+01 2.35089E-02-4.85847E-03-2.59168E-01 1.19513E-13 3.32255E-13
 -1      1500 2.07429E+01 5.35245E-03 1.88978E-03-2.09950E-01 1.92155E-14 3.83952E-13
 -1      1501 2.04636E+01 1.69127E-02 5.33756E-03-1.98004E-01 8.81391E-15 4.06990E-13
 -1      1502 2.05538E+01 1.50449E-02-5.15438E-03-3.52043E-01 4.36812E-14 2.45342E-13
 -1      1503 2.12969E+01 1.69642E-03 1.72571E-03-2.29873E-01 4.18877E-14 3.07473E-13
 -1      1504 2.09820E+01 1.08917E-02 3.29840E-03-2.21321E-01 3.49970E-14 3.69775E-13
 -1      1505 2.09769E+01 7.81392E-03-4.65725E-03-4.11068E-01 4.76073E-14 2.13780E-13
 -1      1506 2.18779E+01-3.70211E-03 2.75486E-03-2.30238E-01 2.97056E-14 2.46631E-13
 -1      1507 2.15525E+01 2.98204E-03 2.22569E-03-2.26608E-01 2.87999E-14 2.77082E-13
 -1      1508 2.14582E+01-1.35802E-03-3.13466E-03-4.35886E-01 5.29007E-14 1.57595E-13
 -1      1509 2.24222E+01-1.15778E-02 5.17883E-03-2.02358E-01 7.03170E-14 1.31039E-13
 -1      1510 2.21215E+01-8.62252E-03 1.89404E-03-2.06517E-01 3.42480E-14 2.10899E-13
 -1      1511 2.19484E+01-1.48385E-02-2.49806E-04-4.15803E-01 7.80465E-14 5.90422E-14
 -1      1512 2.28425E+01-2.18979E-02 9.13602E-03-1.35150E-01-2.08080E-15 1.24078E-13
 -1      1513 2.26164E+01-2.48892E-02 2.35499E-03-1.50901E-01 4.95480E-15 1.15937E-13
 -1      1514 2.23853E+01-3.40752E-02 4.36630E-03-3.33294E-01 4.21269E-14 7.95024E-15
 -1      1515 2.30296E+01-3.29520E-02 1.40740E-02-1.99190E-02 6.29878E-15 1.60956E-13
 -1      1516 2.29417E+01-4.47612E-02 3.67418E-03-5.06915E-02-4.35849E-15 1.51944E-13
 -1      1517 2.26903E+01-5.82522E-02 1.06592E-02-1.70107E-01-4.40091E-14 1.27888E-13
 -1      1518 2.28702E+01-4.03546E-02 1.79626E-02 1.40575E-01 3.36536E-14 1.45769E-13
 -1      1519 2.29869E+01-6.34119E-02 5.48075E-03 9.44848E-02-2.80505E-15 9.83588E-14
 -1      1520 2.27740E+01-8.20454E-02 1.74554E-02 8.04916E-02 4.02803E-15 8.22348E-14
 -1      1521 2.22913E+01-3.72359E-02 1.70454E-02 3.19988E-01 1.07718E-13-5.40540E-15
 -1      1522 2.26545E+01-7.12675E-02 6.48674E-03 2.65333E-01 8.47647E-14 1.09468E-13
 -1      1523 2.25576E+01-9.36440E-02 2.19469E-02 3.94537E-01 1.23550E-13-2.10075E-15
 -1      1524 2.13262E+01-1.75394E-02 7.39643E-03 4.61335E-01-9.45338E-15-1.72889E-13
 -1      1525 2.19134E+01-5.65919E-02 4.56817E-03 4.14427E-01 6.17692E-14-9.45563E-14
 -1      1526 2.20134E+01-7.65760E-02 2.02687E-02 6.98705E-01 1.34327E-13-4.78749E-14
 -1      1527 2.01710E+01 1.73889E-02-1.12578E-02 4.89804E-01-5.36155E-14-8.33153E-14
 -1      1528 2.08624E+01-1.37056E-02-1.89844E-03 4.72925E-01-4.26614E-14-1.46876E-13
 -1      1529 2.12157E+01-1.92758E-02 1.00211E-02 8.72600E-01-4.22204E-14 1.08559E-14
 -1      1530 1.91727E+01 5.38708E-02-3.18499E-02 3.54304E-01-1.89163E-14-2.81442E-14
 -1      1531 1.97609E+01 4.67456E-02-1.16220E-02 3.83297E-01-1.84644E-14-1.08455E-13
 -1      1532 2.03675E+01 6.90228E-02-6.40019E-03 7.95251E-01-2.91243E-14-3.07341E-14
 -1      1533 1.87027E+01 7.16356E-02-4.19419E-02 7.75951E-02 3.50631E-14-6.45491E-14
 -1      1534 1.89704E+01 9.70564E-02-1.93030E-02 1.47448E-01-6.79318E-15-4.50230E-14
 -1      1535 1.97563E+01 1.50931E-01-2.09816E-02 4.30860E-01-1.96301E-14-1.15248E-13
 -1      1536 1.89608E+01 5.95348E-02-3.39660E-02-2.35481E-01 4.13315E-14-2.12295E-13
 -1      1537 1.87959E+01 1.09634E-01-1.91097E-02-1.52492E-01 5.64132E-14-8.81821E-14
 -1      1538 1.96261E+01 1.78429E-01-2.62578E-02-1.10587E-01 6.95364E-14-8.64825E-14
 -1      1539 1.98539E+01 2.55755E-02-1.19815E-02-4.57345E-01-2.53565E-14-1.80356E-13
 -1      1540 1.93165E+01 7.90510E-02-1.01208E-02-3.94839E-01-1.88235E-14-2.03060E-13
 -1      1541 2.00383E+01 1.32460E-01-2.08633E-02-6.14339E-01 3.99524E-14-3.80442E-14
 -1      1542 2.10541E+01-1.04488E-02 1.12377E-02-5.17079E-01-1.15473E-13-1.41796E-13
 -1      1543 2.03395E+01 2.56616E-02 2.58012E-03-4.93760E-01-3.66964E-14-1.74499E-13
 -1      1544 2.08356E+01 4.00417E-02-1.00394E-02-8.90387E-01-1.62622E-14-8.25728E-16
 -1      1545 2.21860E+01-3.30125E-02 2.48615E-02-4.30600E-01 5.44287E-14-1.33629E-13
 -1      1546 2.15147E+01-2.23904E-02 1.20854E-02-4.43339E-01-4.40945E-14-1.74367E-13
 -1      1547 2.17393E+01-4.81937E-02-1.93773E-04-8.80264E-01-8.04643E-14-1.74357E-14
 -1      1548 2.29921E+01-3.86782E-02 2.66338E-02-2.66811E-01 1.30356E-13-4.04902E-13
 -1      1549 2.25140E+01-4.87102E-02 1.49752E-02-2.99581E-01 1.30096E-13-1.80550E-13
 -1      1550 2.24948E+01-9.72959E-02 5.47103E-03-6.57508E-01 1.50778E-13-2.51518E-14
 -1      1551 2.33861E+01-3.26833E-02 2.06248E-02-9.59306E-02-8.23074E-14-3.89137E-13
 -1      1552 2.31499E+01-5.29273E-02 1.23901E-02-1.32369E-01-2.52636E-14-4.81035E-13
 -1      1553 2.29603E+01-1.03511E-01 7.10385E-03-3.49539E-01 3.03767E-14-1.75918E-13
 -1      1554 2.34121E+01-2.20733E-02 1.22696E-02 3.94393E-02-8.86474E-14-1.45324E-13
 -1      1555 2.33898E+01-4.33938E-02 7.46635E-03 9.39483E-03-1.14724E-13-3.60551E-13
 -1      1556 2.31135E+01-8.26089E-02 6.33123E-03-6.22786E-02-1.39614E-13-3.29775E-13
 -1      1557 2.31752E+01-1.17739E-02 5.03980E-03 1.25996E-01 3.37764E-14-1.37943E-13
 -1      1558 2.33039E+01-2.90323E-02 2.85311E-03 1.05780E-01 3.05368E-14-1.12234E-13
 -1      1559 2.30093E+01-5.28135E-02 4.65398E-03 1.49716E-01-1.02106E-14-2.97872E-13
 -1      1560 2.27870E+01-3.93180E-03 1.85914E-04 1.68611E-01-2.27609E-14-1.86334E-13
 -1      1561 2.30009E+01-1.55459E-02-2.77700E-04 1.57577E-01 2.93617E-14-1.21897E-13
 -1      1562 2.27322E+01-2.57941E-02 2.95532E-03 2.76055E-01 4.74538E-14-1.65528E-13
 -1      1563 2.23384E+01 1.12481E-03-2.43641E-03 1.79132E-01 3.31042E-15-2.66891E-13
 -1      1564 2.25850E+01-5.31572E-03-1.85187E-03 1.75007E-01 3.20520E-15-2.18860E-13
 -1      1565 2.23636E+01-6.12067E-03 1.60547E-03 3.30605E-01 3.87395E-14-4.42341E-14
 -1      1566 2.18914E+01 3.89170E-03-3.47139E-03 1.69639E-01-1.36182E-14-3.52566E-13
 -1      1567 2.21356E+01 1.36097E-03-2.30453E-03 1.69998E-01-3.45871E-14-3.18225E-13
 -1      1568 2.19667E+01 6.01872E-03 6.63031E-04 3.34935E-01-3.35934E-14-1.21562E-13
 -1      1569 2.14826E+01 5.05982E-03-3.56572E-03 1.49655E-01 3.04875E-14-4.10471E-13
 -1      1570 2.17042E+01 5.11254E-03-2.12918E-03 1.52538E-01 3.18515E-14-3.32526E-13
 -1      1571 2.15841E+01 1.22471E-02 6.13698E-05 3.09153E-01 5.05095E-14-1.67746E-13
 -1      1572 2.11295E+01 5.23607E-03-3.19292E-03 1.25676E-01-8.37221E-16-5.32365E-13
 -1      1573 2.13193E+01 6.78891E-03-1.69353E-03 1.29710E-01 1.72207E-14-5.16365E-13
 -1      1574 2.12398E+01 1.44916E-02-2.92434E-04 2.68511E-01 2.30100E-14-4.07809E-13
 -1      1575 2.08371E+01 4.86465E-03-2.64520E-03 1.01655E-01-2.05531E-13-1.61221E-13
 -1      1576 2.09929E+01 7.14346E-03-1.21363E-03 1.05975E-01-1.50038E-13-4.49372E-13
 -1      1577 2.09450E+01 1.43545E-02-4.78262E-04 2.23172E-01-1.81725E-13-3.25622E-13
 -1      1578 2.06028E+01 4.23764E-03-2.08047E-03 7.97221E-02 5.94812E-14-9.03585E-14
 -1      1579 2.07265E+01 6.73937E-03-7.91623E-04 8.38320E-02-3.15297E-15-1.16640E-13
 -1      1580 2.07017E+01 1.29699E-02-5.54942E-04 1.79189E-01-1.20804E-13-9.63098E-14
 -1      1581 2.04204E+01 3.53229E-03-1.57263E-03 6.08228E-02 8.88211E-14-1.85978E-13
 -1      1582 2.05158E+01 5.95775E-03-4.61354E-04 6.44747E-02 9.19698E-14-8.44832E-14
 -1      1583 2.05070E+01 1.10622E-02-5.63327E-04 1.39726E-01 8.03309E-14-5.87538E-14
 -1      1584 2.02822E+01 2.84786E-03-1.14852E-03 4.51892E-02-6.19646E-14-1.80235E-13
 -1      1585 2.03538E+01 5.03817E-03-2.22467E-04 4.82892E-02-8.08229E-15-1.56684E-13
 -1      1586 2.03554E+01 9.05707E-03-5.31261E-04 1.06085E-01 1.92941E-14-4.80713E-14
 -1      1587 2.01800E+01 2.23410E-03-8.10911E-04 3.26595E-02 7.93821E-14-3.62532E-13
 -1      1588 2.02323E+01 4.12093E-03-6.07989E-05 3.52035E-02 5.29798E-14-2.83962E-13
 -1      1589 2.02402E+01 7.18255E-03-4.77527E-04 7.84575E-02 9.29445E-14-5.49447E-14
 -1      1590 2.01066E+01 1.71082E-03-5.51616E-04 2.28798E-02-1.03283E-14-5.74062E-13
 -1      1591 2.01437E+01 3.28094E-03 4.11444E-05 2.49117E-02-3.58806E-14-5.25993E-13
 -1      1592 2.01549E+01 5.54402E-03-4.14587E-04 5.64318E-02 5.56604E-14-1.36587E-13
 -1      1593 2.00555E+01 1.28071E-03-3.58425E-04 1.54256E-02 8.60954E-15-5.18644E-13
 -1      1594 2.00809E+01 2.55200E-03 9.95635E-05 1.70115E-02-9.89974E-15-5.88994E-13
 -1      1595 2.00934E+01 4.17486E-03-3.50460E-04 3.93111E-02-9.28077E-15-1.56519E-13
 -1      1596 2.00214E+01 9.37287E-04-2.18600E-04 9.87118E-03-2.34607E-14-5.31804E-13
 -1      1597 2.00380E+01 1.94331E-03 1.27770E-04 1.10836E-02 8.53812E-14-3.83438E-13
 -1      1598 2.00504E+01 3.06879E-03-2.90024E-04 2.63071E-02 3.85814E-14-1.98498E-13
 -1      1599 1.99998E+01 6.69797E-04-1.20470E-04 5.82607E-03-1.56294E-13-3.62171E-13
 -1      1600 2.00100E+01 1.45010E-03 1.35984E-04 6.73518E-03-1.23999E-13-5.41447E-13
 -1      1601 2.00215E+01 2.19965E-03-2.35964E-04 1.66479E-02-5.48928E-14-5.03177E-14
 -1      1602 1.99874E+01 4.65968E-04-5.40226E-05 2.95155E-03 6.05662E-14-3.01791E-13
 -1      1603 1.99929E+01 1.06036E-03 1.31692E-04 3.62065E-03-2.78492E-14-3.55190E-13
 -1      1604 2.00031E+01 1.53307E-03-1.89450E-04 9.63553E-03-1.13102E-13-1.82424E-13
 -1      1605 1.99815E+01 3.13550E-04-1.10062E-05 9.65938E-04 1.25958E-13-3.60117E-13
 -1      1606 1.99837E+01 7.58880E-04 1.20159E-04 1.44925E-03 2.75565E-14-2.09810E-13
 -1      1607 1.99924E+01 1.03301E-03-1.50616E-04 4.67019E-03 3.56570E-14-3.93493E-13
 -1      1608 1.99800E+01 2.01051E-04 1.52230E-05-3.56357E-04-1.34068E-13-3.26847E-13
 -1      1609 1.99800E+01 5.29518E-04 1.04936E-04-1.43168E-05 4.53238E-14-2.84489E-13
 -1      1610 1.99871E+01 6.65105E-04-1.18901E-04 1.25755E-03 1.68842E-14-1.40602E-13
 -1      1611 1.99814E+01 1.17893E-04 3.00985E-05-1.18854E-03 6.72641E-14-1.98507E-13
 -1      1612 1.99800E+01 3.56302E-04 8.83162E-05-9.53007E-04 4.91745E-14-2.39056E-13
 -1      1613 1.99855E+01 3.98080E-04-9.32183E-05-9.94164E-04 7.43065E-15-4.15824E-14
 -1      1614 1.99846E+01 5.39189E-05 3.87916E-05-1.65505E-03 1.40638E-13-6.24311E-13
 -1      1615 1.99824E+01 2.23353E-04 7.19591E-05-1.50114E-03 1.01272E-13-4.07438E-13
 -1      1616 1.99864E+01 2.03616E-04-7.17713E-05-2.38059E-03 2.78958E-13-2.37758E-13
 -1      1617 1.99887E+01-1.25579E-06 4.77945E-05-1.83270E-03 4.83522E-14-7.37186E-13
 -1      1618 1.99861E+01 1.13888E-04 5.79839E-05-1.74634E-03 8.94218E-14-5.76685E-13
 -1      1619 1.99888E+01 5.48046E-05-5.12860E-05-3.10597E-03 1.35428E-13-3.29365E-13
 -1      1620 1.99929E+01-5.90001E-05 6.45821E-05-1.74876E-03-2.06751E-14-8.76180E-13
 -1      1621 1.99904E+01 9.06983E-06 5.01023E-05-1.72887E-03 8.33112E-15-8.67367E-13
 -1      1622 1.99919E+01-7.68402E-05-2.64813E-05-3.28385E-03 1.05856E-13-4.28459E-13
 -1      1623 1.99966E+01-1.32921E-04 8.67972E-05-1.37502E-03 3.62332E-14-8.14866E-13
 -1      1624 1.99945E+01-1.14248E-04 5.12590E-05-1.44089E-03-2.04495E-14-8.09580E-13
 -1      1625 1.99950E+01-2.24613E-04 7.36080E-06-2.93470E-03-2.08359E-14-5.24504E-13
 -1      1626 1.99990E+01-2.41064E-04 5.07472E-05-6.85883E-04 8.03239E-14-8.10180E-13
 -1      1627 1.99978E+01-2.62061E-04 5.34769E-05-8.42386E-04 3.81344E-14-8.27417E-13
 -1      1628 1.99977E+01-4.37449E-04 4.28205E-05-2.00973E-03 1.74870E-13-5.05981E-13
 -1      1629 1.99996E+01-2.71485E-04 5.41754E-05-1.54848E-04-4.10653E-13-4.54869E-13
 -1      1630 1.99996E+01-2.58875E-03 3.50265E-05-1.20532E-03 8.10189E-14 6.13362E-13
 -1      1631 1.99995E+01-1.30749E-03 1.70507E-05-1.01955E-03-6.31673E-13 5.68110E-13
 -1      1632 1.99998E+01-5.71653E-03 1.15077E-06-1.63012E-03 2.50730E-13 1.74002E-14
 -1      1633 1.99997E+01-3.78598E-03 2.04596E-05-1.58208E-03 4.28276E-14 1.91773E-13
 -1      1634 1.99994E+01-3.02640E-03 3.41861E-05-2.65000E-03-1.09737E-13 5.30924E-13
 -1      1635 1.99999E+01-9.11515E-03-1.51179E-05-1.67382E-03 1.32933E-13 1.09403E-13
 -1      1636 1.99998E+01-7.05996E-03 2.36974E-06-1.69569E-03 2.29883E-13-1.20377E-14
 -1      1637 1.99997E+01-5.51910E-03 3.75366E-06-3.16589E-03 1.39829E-14-3.33958E-14
 -1      1638 1.99999E+01-1.22564E-02-1.78111E-05-1.47317E-03 2.20347E-13 1.00120E-13
 -1      1639 1.99999E+01-1.04100E-02-5.81465E-06-1.53183E-03 1.19503E-13 2.45700E-13
 -1      1640 1.99999E+01-8.09267E-03-2.05385E-05-3.06082E-03-9.13482E-14 2.06814E-13
 -1      1641 1.99999E+01-1.47740E-02-1.46943E-05-1.14924E-03 1.80805E-13 4.40920E-14
 -1      1642 1.99999E+01-1.33329E-02-5.50617E-06-1.22110E-03 1.22512E-13-1.62761E-13
 -1      1643 2.00000E+01-1.03957E-02-3.37535E-05-2.57895E-03 1.45506E-13-1.37788E-13
 -1      1644 2.00000E+01-1.65943E-02-1.00084E-05-7.66651E-04-1.45631E-13-2.54241E-13
 -1      1645 1.99999E+01-1.55944E-02-4.25395E-06-8.43961E-04 2.74172E-14-1.55914E-13
 -1      1646 2.00000E+01-1.22285E-02-3.72743E-05-1.91149E-03 7.15111E-14-2.58037E-13
 -1      1647 1.99999E+01-1.76024E-02-5.90125E-06-3.69130E-04-3.97044E-13-2.50675E-13
 -1      1648 1.99999E+01-1.70955E-02-2.94998E-06-4.46012E-04-2.86343E-13-1.48183E-13
 -1      1649 2.00001E+01-1.34987E-02-3.76933E-05-1.16469E-03-2.13029E-13-3.95969E-13
 -1      1650 1.99999E+01-1.77831E-02-3.51586E-06 3.09970E-05-4.39062E-13 8.29082E-14
 -1      1651 1.99999E+01-1.77748E-02-3.50035E-06-4.56371E-05-4.72970E-13 6.49718E-14
 -1      1652 2.00001E+01-1.41460E-02-3.72136E-05-3.98677E-04-2.33482E-13-1.92997E-13
 -1      1653 1.99999E+01-1.71303E-02-3.03959E-06 4.34166E-04-8.20249E-13-4.95931E-14
 -1      1654 2.00000E+01-1.76234E-02-6.05729E-06 3.56368E-04-5.01723E-13-1.79958E-13
 -1      1655 2.00001E+01-1.41590E-02-3.74842E-05 3.72269E-04-2.44582E-13-1.78045E-13
 -1      1656 1.99999E+01-1.56450E-02-4.28031E-06 8.38774E-04-1.24886E-12-4.19396E-13
 -1      1657 2.00000E+01-1.66382E-02-1.05378E-05 7.59968E-04-8.58542E-13-3.26778E-13
 -1      1658 2.00001E+01-1.35340E-02-3.83499E-05 1.14691E-03-5.38511E-13-3.76665E-13
 -1      1659 1.99999E+01-1.34029E-02-6.36685E-06 1.22019E-03-8.23957E-13 6.20169E-13
 -1      1660 1.99999E+01-1.48456E-02-1.54007E-05 1.14714E-03-1.22529E-12 2.20082E-13
 -1      1661 2.00001E+01-1.22895E-02-3.83049E-05 1.90260E-03-5.08975E-13-1.23167E-13
 -1      1662 1.99999E+01-1.04417E-02-5.94551E-06 1.54284E-03-7.18824E-13-2.82457E-14
 -1      1663 1.99999E+01-1.23027E-02-1.86347E-05 1.48276E-03-9.04226E-13 4.28936E-13
 -1      1664 2.00000E+01-1.04577E-02-3.41750E-05 2.58711E-03-3.57580E-13 4.96257E-13
 -1      1665 1.99998E+01-7.07331E-03-3.40153E-07 1.71732E-03-8.24224E-13-1.41128E-15
 -1      1666 1.99999E+01-9.13964E-03-1.55286E-05 1.68946E-03-7.10619E-13 1.04289E-13
 -1      1667 1.99999E+01-8.12563E-03-2.11413E-05 3.08465E-03-3.44413E-13 6.16967E-15
 -1      1668 1.99997E+01-3.83297E-03 1.67100E-06 1.58325E-03-2.80988E-13 5.50220E-13
 -1      1669 1.99997E+01-5.72451E-03-2.19048E-06 1.62956E-03-7.81413E-13 2.78985E-13
 -1      1670 1.99997E+01-5.51826E-03 1.63631E-06 3.19140E-03-2.66728E-13 3.34101E-13
 -1      1671 1.99994E+01-1.55951E-03-1.45709E-05 1.40826E-03-1.79905E-13 1.04885E-13
 -1      1672 1.99994E+01-2.82542E-03-3.07893E-06 1.68790E-03-2.92661E-13 2.16605E-13
 -1      1673 1.99994E+01-3.11755E-03 6.86307E-05 3.04368E-03-4.17727E-13 6.14005E-13
 -1      1674 1.99984E+01-1.38724E-03 2.86967E-05 2.64447E-03-2.13783E-13 1.93072E-13
 -1      1675-7.06072E-01-1.47614E+01-1.67220E+00-1.01224E+00 3.04479E-13 4.39926E-13
 -1      1676-6.44040E-01-1.67835E+01-1.85757E+00 3.80199E-01-2.93127E-13 2.40030E-13
 -1      1677 1.86723E+00-7.62887E+00-1.03426E+00 1.15826E+00 7.25531E-13 4.24688E-13
 -1      1678 9.74419E-01-1.27140E+01-1.52369E+00 4.63273E-01 4.05787E-13 3.32054E-13
 -1      1679 7.30706E+00-1.29170E-01-4.68049E-01 4.79642E+00 1.13398E-12 1.12255E-12
 -1      1680 4.14340E+00-5.69129E+00-1.21362E+00 1.92671E+00 8.48099E-13 6.78790E-13
 -1      1681 1.74406E+01 5.02181E+00 1.98129E-01 9.70477E+00 1.28764E-12 1.54865E-12
 -1      1682 1.09293E+01 1.83765E+00-6.61445E-01 6.06580E+00 1.28964E-12 1.21814E-12
 -1      1683 3.25401E+01 5.59554E+00 9.32597E-01 1.16025E+01 8.89344E-13 1.49225E-12
 -1      1684 2.34586E+01 5.17663E+00 1.13402E-01 9.75925E+00 1.12421E-12 1.41087E-12
 -1      1685 4.61123E+01 5.10850E+00 1.63897E+00 1.04999E+01 7.40893E-13 1.15352E-12
 -1      1686 3.74857E+01 6.65369E+00 9.54786E-01 1.20906E+01 9.88598E-13 1.53522E-12
 -1      1687 5.39376E+01 3.49391E+00 1.77900E+00 3.70831E+00 3.93463E-13 5.11091E-13
 -1      1688 4.95386E+01 4.84702E+00 1.56346E+00 8.57066E+00 5.82687E-13 1.07381E-12
 -1      1689 5.17479E+01 4.29147E+00 1.51068E+00-4.26316E+00 5.88279E-13-5.40179E-13
 -1      1690 5.30911E+01 3.95182E+00 1.61755E+00 1.08731E+00 5.64326E-13 1.87031E-13
 -1      1691 4.45555E+01 5.73834E+00 1.28530E+00-1.04800E+01 8.97407E-13-1.47016E-12
 -1      1692 5.09419E+01 4.04557E+00 1.65052E+00-6.83071E+00 6.21003E-13-8.98170E-13
 -1      1693 3.20116E+01 6.92900E+00 6.96038E-01-1.21879E+01 1.30063E-12-1.86051E-12
 -1      1694 4.06891E+01 5.84999E+00 1.39081E+00-1.20313E+01 1.00153E-12-1.71296E-12
 -1      1695 1.88418E+01 4.62744E+00-9.61768E-02-8.99665E+00 1.45528E-12-1.70175E-12
 -1      1696 2.71644E+01 5.94937E+00 7.37298E-01-1.17476E+01 1.32983E-12-1.85674E-12
 -1      1697 8.24192E+00-3.34876E-01-8.56539E-01-4.55895E+00 1.79989E-12-1.27343E-12
 -1      1698 1.34680E+01 3.71572E+00-3.87182E-02-8.15213E+00 1.62337E-12-1.49480E-12
 -1      1699 2.54178E+00-8.09985E+00-1.45586E+00-8.14600E-01 1.59861E-12-8.81850E-13
 -1      1700 4.74866E+00-2.42055E+00-7.68736E-01-3.11179E+00 1.76037E-12-1.22080E-12
 -1      1701 1.57989E-01-1.47485E+01-1.79161E+00 1.29106E-01 8.23563E-13-5.41747E-13
 -1      1702 5.50823E-01-1.01345E+01-1.36267E+00 1.45592E-01 1.37845E-12-8.29115E-13
 -1      1703-7.68293E-01-1.69805E+01-1.85156E+00-7.16811E-01-3.22981E-13-5.18474E-13
 -1      1704-7.80445E-01-1.60383E+01-1.79904E+00 9.30961E-01 5.58553E-13-5.02098E-13
 -1      1705-9.56896E-02-1.25049E+01-1.40689E+00-4.82394E-01-1.15541E-12-6.44318E-13
 -1      1706-2.40294E-01-1.54896E+01-1.65580E+00 2.75238E-01-5.38569E-13-5.21583E-13
 -1      1707 2.22813E+00-6.10185E+00-1.09763E+00 1.07239E+00-1.80722E-12-1.07775E-12
 -1      1708 1.14029E+00-1.16099E+01-1.63392E+00-5.52075E-02-1.50668E-12-7.31221E-13
 -1      1709 9.16433E+00 1.24600E+00-4.07693E-01 5.86151E+00-1.88827E-12-1.68421E-12
 -1      1710 5.11972E+00-3.95759E+00-1.22070E+00 2.44191E+00-1.86295E-12-1.25766E-12
 -1      1711 2.27459E+01 4.96011E+00 4.60150E-01 1.06389E+01-1.58096E-12-1.80511E-12
 -1      1712 1.47683E+01 2.33089E+00-4.61615E-01 7.08166E+00-1.73672E-12-1.66922E-12
 -1      1713 3.74438E+01 6.00675E+00 1.26897E+00 1.22695E+01-1.08469E-12-1.72840E-12
 -1      1714 2.78674E+01 6.36547E+00 3.93234E-01 1.12623E+01-1.43663E-12-1.85074E-12
 -1      1715 5.00549E+01 4.47214E+00 1.80235E+00 8.87847E+00-7.02440E-13-9.42246E-13
 -1      1716 4.22489E+01 6.13924E+00 1.21088E+00 1.15857E+01-1.03423E-12-1.58629E-12
 -1      1717 5.53477E+01 3.51597E+00 1.89828E+00 1.33524E+00-4.20997E-13 1.24678E-13
 -1      1718 5.24624E+01 4.35435E+00 1.72427E+00 6.51229E+00-5.33074E-13-5.95968E-13
 -1      1719 5.25430E+01 4.28229E+00 1.71128E+00-6.22679E+00-4.38705E-13 8.55815E-13
 -1      1720 5.53119E+01 3.53349E+00 1.89541E+00-1.20055E+00-3.85636E-13 3.37258E-13
 -1      1721 4.34070E+01 5.87186E+00 1.26829E+00-1.11734E+01-5.52752E-13 1.25988E-12
 -1      1722 5.03378E+01 4.33210E+00 1.76887E+00-8.44121E+00-3.89473E-13 1.12677E-12
 -1      1723 3.05037E+01 6.58651E+00 5.72032E-01-1.18127E+01-7.29417E-13 1.24967E-12
 -1      1724 3.91665E+01 5.88456E+00 1.32315E+00-1.21824E+01-6.17062E-13 1.34115E-12
 -1      1725 1.78808E+01 4.62696E+00-1.79215E-01-8.90866E+00-1.23590E-12 1.14042E-12
 -1      1726 2.55669E+01 6.12392E+00 6.62124E-01-1.16969E+01-9.29701E-13 1.15952E-12
 -1      1727 8.47295E+00-4.87137E-01-8.81914E-01-4.49684E+00-1.44929E-12 1.02973E-12
 -1      1728 1.34224E+01 3.35167E+00-8.84955E-02-7.84529E+00-1.29563E-12 1.13698E-12
 -1      1729 2.92899E+00-7.37596E+00-1.41526E+00-9.66474E-01-1.30229E-12 7.88924E-13
 -1      1730 5.17456E+00-2.25876E+00-7.63765E-01-3.19992E+00-1.53610E-12 9.63563E-13
 -1      1731 4.71044E-01-1.34942E+01-1.69043E+00 2.33472E-01-8.81406E-13 4.24605E-13
 -1      1732 1.00029E+00-9.10427E+00-1.28246E+00-5.73461E-02-1.20026E-12 8.14265E-13
 -1      1733-5.63703E-01-1.62444E+01-1.76178E+00-2.71606E-01-4.42035E-13 1.55653E-13
 -1      1734-5.77106E-01-1.44037E+01-1.60651E+00 9.20412E-01-7.66665E-13 2.94154E-13
 -1      1735 2.50981E+01 7.53252E-01 3.29931E-01 7.05849E+00 5.55445E-13 7.08100E-13
 -1      1736 1.43156E+01-2.89306E+00-3.31408E-01 6.46702E+00 5.09370E-13 9.32421E-13
 -1      1737 1.99994E+01-5.98599E-04 7.13052E-05-7.04498E-04-5.27264E-13-1.30802E-14
 -1      1738 1.99990E+01-1.21815E-03 3.83451E-05-1.76019E-03-1.06120E-13 4.10017E-13
 -1      1739 8.12371E-01-9.66736E+00-1.02312E+00 2.74879E+00 9.42579E-14 5.67268E-13
 -1      1740 6.35021E+00-7.00091E+00-7.95705E-01 4.92201E+00 2.34590E-13 5.82021E-13
 -1      1741-1.30963E+00-1.12124E+01-1.26754E+00 1.35941E-02-1.52871E-13 5.06095E-13
 -1      1742 3.48854E+01 3.80752E+00 7.53402E-01 6.05770E+00 5.51947E-13 5.47118E-13
 -1      1743 4.33918E+01 6.41588E+00 1.38279E+00 4.76183E+00 6.95999E-13 4.56524E-13
 -1      1744 4.56199E+01 7.54933E+00 1.37834E+00 1.23497E+00 8.77687E-13 1.98924E-13
 -1      1745 4.42867E+01 7.29986E+00 1.28560E+00-2.47960E+00 9.06497E-13-4.11560E-13
 -1      1746 4.01264E+01 5.78289E+00 1.17968E+00-5.82598E+00 9.65519E-13-9.25260E-13
 -1      1747 3.13727E+01 3.07446E+00 6.36249E-01-7.09306E+00 9.13436E-13-1.15841E-12
 -1      1748 2.12930E+01-2.48322E-01 1.16334E-01-7.22346E+00 9.74332E-13-1.12810E-12
 -1      1749 1.12745E+01-4.11702E+00-5.00381E-01-5.87616E+00 1.03739E-12-8.53484E-13
 -1      1750 4.01078E+00-8.20546E+00-9.78476E-01-3.87042E+00 7.62945E-13-8.62588E-13
 -1      1751-3.37032E-01-1.09929E+01-1.26487E+00-1.76398E+00 3.03091E-13-8.78686E-13
 -1      1752-1.02031E+00-1.07409E+01-1.16486E+00 8.04455E-01-1.91541E-13-9.23761E-13
 -1      1753 1.77511E+00-9.25517E+00-1.05801E+00 2.94626E+00-6.33438E-13-7.78377E-13
 -1      1754 7.69306E+00-6.25244E+00-7.77520E-01 4.84690E+00-1.07814E-12-9.87627E-13
 -1      1755 1.77654E+01-2.26863E+00-1.11355E-01 6.70516E+00-1.05038E-12-1.08508E-12
 -1      1756 2.86044E+01 1.36901E+00 4.19011E-01 6.77915E+00-1.00292E-12-9.40248E-13
 -1      1757 3.85014E+01 4.93153E+00 1.06172E+00 6.13949E+00-9.84657E-13-8.38662E-13
 -1      1758 4.54087E+01 6.84375E+00 1.50469E+00 3.70030E+00-9.10938E-13-3.51497E-13
 -1      1759 4.74049E+01 7.51687E+00 1.58770E+00 1.11401E-01-7.04325E-13 7.70634E-14
 -1      1760 4.55423E+01 6.79992E+00 1.48109E+00-3.36492E+00-5.17086E-13 4.53970E-13
 -1      1761 3.95259E+01 5.23001E+00 1.13584E+00-6.11605E+00-3.95319E-13 6.62914E-13
 -1      1762 3.05574E+01 2.82788E+00 6.11380E-01-7.29345E+00-5.52003E-13 7.18758E-13
 -1      1763 2.06971E+01-4.53078E-01 1.97202E-02-7.11721E+00-7.27529E-13 5.51115E-13
 -1      1764 1.16781E+01-4.23319E+00-5.37411E-01-5.77758E+00-7.85927E-13 5.18585E-13
 -1      1765 4.71987E+00-7.84375E+00-9.74283E-01-3.95640E+00-6.55587E-13 8.16333E-13
 -1      1766 3.47253E-01-1.00616E+01-1.14965E+00-2.12870E+00-4.40203E-13 5.15366E-13
 -1      1767 2.30115E+01 1.95846E+00-2.61870E-02-2.54782E+00-1.82025E-13 9.88570E-13
 -1      1768 2.00030E+01 3.76553E+00-3.64173E-02-1.81186E+00-2.60074E-13-1.56746E-13
 -1      1769 2.02893E+01 3.59345E+00-3.95444E-02-2.10307E+00-2.95576E-13-4.81490E-14
 -1      1770 2.06407E+01 3.18246E+00-4.55102E-02-2.27035E+00-2.89778E-13 7.71189E-14
 -1      1771 2.08849E+01 2.79451E+00-1.36366E-01-2.55669E+00-2.97432E-13 2.40724E-13
 -1      1772 2.07030E+01 2.72080E+00-1.00633E-03-1.87378E+00-3.01504E-13 2.23918E-14
 -1      1773 1.92531E+01 4.33121E+00-2.09428E-02-9.79890E-01-1.74053E-13-3.42984E-13
 -1      1774 1.93988E+01 4.28271E+00-1.44119E-02-1.17996E+00-1.99843E-13-3.17281E-13
 -1      1775 1.90290E+01 4.47280E+00-1.66989E-02-6.42166E-01-1.20217E-13-3.78449E-13
 -1      1776 1.91325E+01 4.44297E+00-1.15822E-02-8.15712E-01-1.45908E-13-3.63029E-13
 -1      1777 1.93636E+01 3.99647E+00-7.23471E-03-8.30414E-01-1.74874E-13-3.30897E-13
 -1      1778 1.88893E+01 4.55646E+00-1.37739E-02-3.43877E-01-5.22592E-14-3.77701E-13
 -1      1779 1.89500E+01 4.54067E+00-1.07513E-02-4.98232E-01-8.27307E-14-3.77101E-13
 -1      1780 1.91385E+01 4.16085E+00-6.67848E-03-5.29405E-01-9.99848E-14-3.58902E-13
 -1      1781 1.88335E+01 4.59097E+00-1.18125E-02-6.66596E-02 3.17002E-15-3.92847E-13
 -1      1782 1.88514E+01 4.58683E+00-1.10799E-02-2.12188E-01-2.18465E-14-3.91276E-13
 -1      1783 1.90069E+01 4.25042E+00-6.37305E-03-2.59303E-01-3.69460E-14-3.66444E-13
 -1      1784 1.88610E+01 4.58003E+00-1.06993E-02 2.08723E-01 5.53380E-14-3.85678E-13
 -1      1785 1.88366E+01 4.58675E+00-1.22379E-02 6.19737E-02 2.63112E-14-3.88412E-13
 -1      1786 1.89684E+01 4.27405E+00-6.35404E-03-3.69636E-03 1.39593E-14-3.73289E-13
 -1      1787 1.89699E+01 4.52364E+00-1.05419E-02 5.01186E-01 1.09787E-13-3.78812E-13
 -1      1788 1.89044E+01 4.54191E+00-1.41383E-02 3.43440E-01 8.93636E-14-3.85669E-13
 -1      1789 1.90218E+01 4.23506E+00-6.63597E-03 2.55091E-01 7.16895E-14-3.63379E-13
 -1      1790 1.91541E+01 4.42017E+00-1.15691E-02 8.22830E-01 1.63794E-13-3.60436E-13
 -1      1791 1.90505E+01 4.45111E+00-1.69658E-02 6.47761E-01 1.35514E-13-3.78201E-13
 -1      1792 1.91633E+01 4.13362E+00-7.03445E-03 5.31304E-01 1.35509E-13-3.58821E-13
 -1      1793 1.94223E+01 4.25354E+00-1.46882E-02 1.20120E+00 2.35461E-13-2.96678E-13
 -1      1794 1.92748E+01 4.30488E+00-2.12183E-02 9.92682E-01 1.96936E-13-3.27138E-13
 -1      1795 1.93914E+01 3.96183E+00-7.64894E-03 8.41100E-01 1.96925E-13-3.25184E-13
 -1      1796 1.97897E+01 3.99159E+00-2.26408E-02 1.64465E+00 2.86153E-13-2.06481E-13
 -1      1797 1.95881E+01 4.07942E+00-2.80937E-02 1.39439E+00 2.53008E-13-2.62814E-13
 -1      1798 1.97150E+01 3.69752E+00-7.67753E-03 1.19470E+00 2.63864E-13-2.52512E-13
 -1      1799 2.03105E+01 3.54568E+00-4.23148E-02 2.14756E+00 3.34895E-13-3.56173E-14
 -1      1800 2.00194E+01 3.72000E+00-4.05292E-02 1.85094E+00 3.03947E-13-1.35718E-13
 -1      1801 2.01571E+01 3.29458E+00-4.77331E-03 1.58023E+00 3.06945E-13-1.52430E-13
 -1      1802 2.12003E+01 2.66681E+00-5.45602E-02 2.57770E+00 3.24529E-13 2.66134E-13
 -1      1803 2.06824E+01 3.09474E+00-4.99932E-02 2.31341E+00 3.25831E-13 8.46753E-14
 -1      1804 2.07792E+01 2.62909E+00 3.31346E-03 1.91389E+00 3.38726E-13 3.39034E-14
 -1      1805 2.19889E+01 1.19573E+00-1.19349E-01 2.11398E+00 2.68910E-13 6.34187E-13
 -1      1806 2.15524E+01 2.23976E+00-3.11334E-04 2.48831E+00 2.97836E-13 3.91492E-13
 -1      1807 2.12588E+01 1.67937E+00-1.98205E-02 1.85716E+00 3.29240E-13 2.60951E-13
 -1      1808 2.12904E+01 7.70705E-01-5.83340E-02 1.31077E+00 2.70707E-13 5.43615E-13
 -1      1809 2.20537E+01 2.42418E+00 8.80133E-02-2.80460E+00-2.46353E-13 5.16170E-13
 -1      1810 2.06013E+01 3.07456E-01-5.96170E-03 4.36657E-01 1.79599E-13 4.22629E-13
 -1      1811 2.10562E+01 4.43611E-01-1.07043E-02 8.18913E-01 2.13426E-13 4.93743E-13
 -1      1812 2.11329E+01 8.42857E-01 5.96839E-04 1.15437E+00 2.58994E-13 3.17796E-13
 -1      1813 2.18022E+01 1.73062E+00 7.82025E-02-2.06638E+00-2.67886E-13 3.89008E-13
 -1      1814 2.09877E+01 5.21153E-01 3.33159E-02-6.39664E-01-2.10637E-13 3.53116E-13
 -1      1815 2.06662E+01 3.85861E-01 1.21796E-02-3.32509E-01-1.91827E-13 2.87517E-13
 -1      1816 2.05481E+01 3.00740E-01 2.79928E-02-6.17087E-02-1.77150E-13 2.77234E-13
 -1      1817 2.04868E+01 2.32769E-01 1.49508E-02 1.04797E-01-1.54913E-13 2.22777E-13
 -1      1818 2.07399E+01 5.40381E-01-8.16648E-03-3.24066E-01-2.14891E-13 1.38566E-13
 -1      1819 2.04611E+01 1.95303E-01 1.73773E-02 2.83120E-01-1.32101E-13 2.19354E-13
 -1      1820 2.05406E+01 1.64972E-01 1.19591E-02 3.93295E-01-1.10238E-13 1.82614E-13
 -1      1821 2.05915E+01 3.31145E-01-7.94300E-03 1.88794E-01-1.68402E-13 1.18377E-13
 -1      1822 2.05939E+01 1.45978E-01 9.69576E-03 5.22544E-01-8.66260E-14 1.50502E-13
 -1      1823 2.07703E+01 1.30627E-01 9.37982E-03 6.05850E-01-6.47230E-14 1.40438E-13
 -1      1824 2.06263E+01 2.36440E-01-7.01492E-03 5.37953E-01-1.29000E-13 7.45406E-14
 -1      1825 2.08867E+01 1.18334E-01 5.35716E-03 7.07206E-01-3.87329E-14 1.20353E-13
 -1      1826 2.11333E+01 1.06807E-01 7.27213E-03 7.74117E-01-1.43427E-14 8.67461E-14
 -1      1827 2.08031E+01 1.86760E-01-6.07289E-03 7.99545E-01-7.60941E-14 1.87311E-14
 -1      1828 2.13005E+01 9.36948E-02 2.87144E-03 8.54272E-01-3.33370E-15 8.83672E-14
 -1      1829 2.15977E+01 7.74958E-02 4.61923E-03 9.04391E-01 2.84907E-15 1.24072E-13
 -1      1830 2.10929E+01 1.48170E-01-5.21393E-03 1.00534E+00-2.06083E-14 2.51361E-15
 -1      1831 2.18072E+01 5.65325E-02 1.31417E-03 9.58651E-01 8.68668E-15 1.34935E-13
 -1      1832 2.21333E+01 2.67346E-02 4.73701E-04 9.82234E-01 1.37687E-14 1.95250E-13
 -1      1833 2.14741E+01 9.58827E-02-4.61738E-03 1.15851E+00 2.80239E-14 2.39546E-14
 -1      1834 2.23785E+01-9.88314E-03 3.30489E-04 9.94550E-01-9.18384E-15 2.25945E-13
 -1      1835 2.27032E+01-6.27938E-02-5.83105E-03 9.72176E-01 2.70999E-14 2.45890E-13
 -1      1836 2.19299E+01 5.03972E-03-4.31799E-03 1.23749E+00 2.28672E-14 7.91899E-14
 -1      1837 2.29771E+01-1.22360E-01-1.48176E-04 9.14807E-01 2.10552E-15 2.28694E-13
 -1      1838 2.32560E+01-2.04774E-01-1.42316E-02 8.18841E-01-1.48137E-14 1.69673E-13
 -1      1839 2.24446E+01-1.49404E-01-4.13879E-03 1.19582E+00-3.21204E-14 7.77382E-14
 -1      1840 2.35458E+01-2.88508E-01-2.97141E-04 6.56011E-01 1.33400E-14 1.31158E-13
 -1      1841 2.37202E+01-3.93792E-01-2.30303E-02 4.59097E-01 1.13997E-14 1.19233E-13
 -1      1842 2.29966E+01-3.81346E-01-3.44644E-03 9.65213E-01-3.58524E-14 8.76651E-14
 -1      1843 2.39970E+01-4.85300E-01-9.60443E-04 1.61939E-01 2.12209E-14 1.49219E-13
 -1      1844 2.40027E+01-5.77688E-01-2.78174E-02-1.41259E-01 9.03791E-15 2.70733E-13
 -1      1845 2.35463E+01-6.65537E-01-8.82869E-04 4.73977E-01 4.17270E-14 1.00392E-13
 -1      1846 2.42072E+01-6.28220E-01-3.94532E-03-5.60043E-01 9.68670E-15 2.84314E-13
 -1      1847 2.40016E+01-6.32336E-01-2.23961E-02-9.16599E-01 1.64452E-14 2.97403E-13
 -1      1848 2.40142E+01-8.95847E-01 5.22555E-03-3.02714E-01 3.90434E-14 1.70083E-13
 -1      1849 2.40419E+01-5.62600E-01-1.22520E-02-1.34936E+00 4.04468E-14 3.16551E-13
 -1      1850 2.36471E+01-3.92460E-01-3.95997E-03-1.61892E+00 1.03828E-14 3.56822E-13
 -1      1851 2.42632E+01-8.63597E-01 1.34405E-02-1.24953E+00 3.86297E-14 2.44879E-13
 -1      1852 2.34588E+01-1.47115E-01-2.12608E-02-1.83864E+00-4.70136E-14 3.29735E-13
 -1      1853 2.29929E+01 1.92005E-01 1.85426E-02-1.82718E+00-5.94828E-14 3.11121E-13
 -1      1854 2.41402E+01-3.64036E-01 1.29117E-02-2.01032E+00-4.67287E-14 3.02334E-13
 -1      1855 2.26600E+01 5.33320E-01-2.15763E-02-1.59696E+00-1.15673E-13 3.03620E-13
 -1      1856 2.23195E+01 8.57619E-01 2.32793E-02-1.20377E+00-1.50560E-13 2.79395E-13
 -1      1857 2.36492E+01 5.59171E-01-3.75491E-03-2.04935E+00-1.16506E-13 2.51158E-13
 -1      1858 2.21052E+01 1.06521E+00-6.76078E-03-5.32417E-01-1.96339E-13 1.89522E-13
 -1      1859 2.20577E+01 1.13023E+00 3.45879E-03 9.09675E-02-1.24692E-13 1.06731E-13
 -1      1860 2.31220E+01 1.40753E+00-3.33850E-02-1.05770E+00-2.46258E-13 1.82007E-13
 -1      1861 2.21783E+01 1.02466E+00 1.82662E-02 8.51127E-01-9.46188E-14-3.65511E-14
 -1      1862 2.24537E+01 7.70543E-01-1.66089E-02 1.35882E+00-1.21628E-13-7.46330E-14
 -1      1863 2.30307E+01 1.55820E+00-4.32005E-02 5.77275E-01-2.16632E-13 2.64100E-14
 -1      1864 2.27928E+01 4.48541E-01 2.33989E-02 1.76858E+00-7.15313E-14-7.19771E-14
 -1      1865 2.32621E+01 8.58867E-02-2.18796E-02 1.91893E+00 5.10694E-14-1.38065E-13
 -1      1866 2.34842E+01 9.04374E-01-1.57959E-02 1.89051E+00-1.00682E-13-1.88215E-13
 -1      1867 2.35426E+01-2.11982E-01 6.88782E-03 1.84233E+00 1.55217E-13-2.09324E-13
 -1      1868 2.40061E+01-4.49686E-01-1.31138E-02 1.65456E+00 1.51185E-13-1.50558E-13
 -1      1869 2.40770E+01-6.02628E-02 1.04551E-02 2.22250E+00 1.27866E-14-1.87461E-13
 -1      1870 2.40622E+01-5.78110E-01-1.59215E-02 1.27417E+00 1.27160E-13-1.70487E-13
 -1      1871 2.43721E+01-6.28243E-01-5.03146E-03 9.33331E-01 4.09846E-14-1.41564E-13
 -1      1872 2.43798E+01-7.34588E-01 1.62667E-02 1.66316E+00 9.85462E-14-2.56175E-13
 -1      1873 2.42366E+01-6.11656E-01-2.71950E-02 4.97272E-01-2.61076E-15-2.79126E-14
 -1      1874 2.43371E+01-5.40133E-01-1.01369E-03 1.69820E-01 2.83263E-14 7.30126E-14
 -1      1875 2.42905E+01-9.12512E-01 8.65424E-03 7.44419E-01 9.73336E-14-1.98688E-13
 -1      1876 2.40989E+01-4.55364E-01-2.57444E-02-1.69757E-01-1.07137E-14 3.65417E-14
 -1      1877 2.40148E+01-3.47859E-01 2.03461E-04-4.00463E-01 9.01093E-14 5.44009E-14
 -1      1878 2.39261E+01-7.48659E-01 6.13842E-04-1.03901E-01 2.76038E-14-8.28871E-14
 -1      1879 2.37474E+01-2.58023E-01-1.77796E-02-6.02493E-01 1.11335E-13 7.93328E-14
 -1      1880 2.35388E+01-1.65535E-01 3.12042E-04-7.26042E-01 8.35586E-14 8.86661E-14
 -1      1881 2.34383E+01-4.64980E-01-2.95051E-03-6.85086E-01 6.95750E-14-9.14802E-14
 -1      1882 2.32795E+01-9.77859E-02-9.05382E-03-8.11085E-01 5.02571E-14 1.01126E-14
 -1      1883 2.30079E+01-3.58492E-02 3.69473E-04-8.51469E-01-1.07115E-13 5.34486E-14
 -1      1884 2.29269E+01-2.08757E-01-3.78810E-03-9.88142E-01 1.07796E-13-1.40996E-13
 -1      1885 2.27716E+01 6.14585E-03-2.21821E-03-8.57376E-01-1.50993E-13 1.03878E-13
 -1      1886 2.24843E+01 4.03115E-02 6.43306E-04-8.45228E-01-1.64153E-13-1.54985E-14
 -1      1887 2.24397E+01-3.10483E-02-3.65171E-03-1.07993E+00-9.03820E-14-5.49226E-14
 -1      1888 2.22756E+01 6.19933E-02 2.16819E-03-8.06139E-01-1.73729E-13 8.14984E-14
 -1      1889 2.20031E+01 7.65762E-02 9.88877E-04-7.66619E-01-7.40759E-14 1.51760E-13
 -1      1890 2.19972E+01 7.09542E-02-3.30961E-03-1.03850E+00-1.45823E-13 1.14019E-13
 -1      1891 2.18228E+01 8.49688E-02 4.47084E-03-7.06977E-01 7.44457E-15 1.85054E-13
 -1      1892 2.15810E+01 8.77394E-02 1.27091E-03-6.56960E-01 6.01381E-14 1.73164E-13
 -1      1893 2.16073E+01 1.17774E-01-3.00705E-03-9.26834E-01 1.67221E-14 2.00006E-13
 -1      1894 2.14283E+01 8.84870E-02 5.32353E-03-5.91962E-01-5.68605E-14 3.02083E-14
 -1      1895 2.12235E+01 8.50391E-02 1.42324E-03-5.41309E-01-9.44271E-14 1.70794E-15
 -1      1896 2.12718E+01 1.30369E-01-2.74977E-03-7.87499E-01-9.25059E-14 1.33744E-13
 -1      1897 2.10966E+01 8.19198E-02 5.29730E-03-4.79346E-01-9.27630E-14 6.98957E-14
 -1      1898 2.09289E+01 7.57551E-02 1.44720E-03-4.33079E-01-1.13066E-13-3.94033E-15
 -1      1899 2.09896E+01 1.24355E-01-2.50168E-03-6.45936E-01-1.14611E-14 2.97405E-15
 -1      1900 2.08254E+01 7.10388E-02 4.80965E-03-3.78141E-01-1.81302E-13-1.39226E-14
 -1      1901 2.06917E+01 6.41434E-02 1.37450E-03-3.38322E-01-1.33492E-13 1.29195E-15
 -1      1902 2.07568E+01 1.09737E-01-2.24135E-03-5.15584E-01-1.32239E-13 7.64338E-14
 -1      1903 2.06088E+01 5.90847E-02 4.12937E-03-2.91790E-01 7.04033E-14 6.84682E-14
 -1      1904 2.05046E+01 5.24818E-02 1.24230E-03-2.58828E-01 2.48078E-13 1.18365E-13
 -1      1905 2.05684E+01 9.23126E-02-1.96748E-03-4.02317E-01-2.39072E-14 3.26782E-13
 -1      1906 2.04394E+01 4.77134E-02 3.41303E-03-2.20655E-01 1.49872E-13 8.93823E-14
 -1      1907 2.03598E+01 4.18620E-02 1.08167E-03-1.94124E-01 1.28541E-13 1.44673E-13
 -1      1908 2.04188E+01 7.51484E-02-1.68977E-03-3.07626E-01 1.64596E-13 2.28153E-13
 -1      1909 2.03093E+01 3.76606E-02 2.74258E-03-1.63563E-01-5.44230E-14 3.03029E-14
 -1      1910 2.02498E+01 3.27101E-02 9.14697E-04-1.42675E-01-2.36119E-13-6.74229E-14
 -1      1911 2.03021E+01 5.96842E-02-1.42063E-03-2.30666E-01-2.15155E-14 3.75900E-14
 -1      1912 2.02114E+01 2.91588E-02 2.15452E-03-1.18696E-01-2.10865E-13-6.59749E-14
 -1      1913 2.01677E+01 2.50998E-02 7.55349E-04-1.02558E-01-1.70136E-13 8.38185E-15
 -1      1914 2.02126E+01 4.64520E-02-1.17057E-03-1.69498E-01-2.18894E-13 8.86169E-14
 -1      1915 2.01392E+01 2.21835E-02 1.65958E-03-8.40788E-02-1.49060E-13-7.50894E-14
 -1      1916 2.01079E+01 1.89331E-02 6.11400E-04-7.18258E-02 1.29296E-14-7.14060E-14
 -1      1917 2.01453E+01 3.55081E-02-9.46522E-04-1.21802E-01-1.69930E-13 2.73224E-14
 -1      1918 2.00870E+01 1.65907E-02 1.25500E-03-5.78248E-02 7.51462E-14-1.09109E-13
 -1      1919 2.00652E+01 1.40380E-02 4.86312E-04-4.86793E-02 6.97668E-14-5.87519E-14
 -1      1920 2.00956E+01 2.66798E-02-7.51831E-04-8.52525E-02-8.57804E-15 4.78687E-14
 -1      1921 2.00503E+01 1.21913E-02 9.31616E-04-3.82507E-02 3.84234E-14-1.75301E-13
 -1      1922 2.00356E+01 1.02213E-02 3.80740E-04-3.15447E-02-1.11153E-13-1.57824E-13
 -1      1923 2.00598E+01 1.97004E-02-5.86983E-04-5.77156E-02-5.00441E-15-4.68128E-14
 -1      1924 2.00254E+01 8.78938E-03 6.77940E-04-2.39152E-02-1.35366E-13 3.34429E-14
 -1      1925 2.00160E+01 7.29394E-03 2.93604E-04-1.90922E-02-1.13626E-13 4.73984E-14
 -1      1926 2.00347E+01 1.42792E-02-4.50465E-04-3.73246E-02-7.94067E-15 1.47363E-14
 -1      1927 2.00092E+01 6.20040E-03 4.82213E-04-1.36208E-02-1.58535E-13 2.57452E-14
 -1      1928 2.00036E+01 5.08264E-03 2.22805E-04-1.02288E-02 3.75189E-14-1.63350E-14
 -1      1929 2.00177E+01 1.01361E-02-3.39546E-04-2.25032E-02-1.51830E-13 1.61841E-13
 -1      1930 1.99993E+01 4.25849E-03 3.33461E-04-6.39700E-03 2.33590E-14 2.45678E-15
 -1      1931 1.99964E+01 3.43402E-03 1.65681E-04-4.07774E-03 5.91238E-14 2.03647E-14
 -1      1932 2.00067E+01 7.01645E-03-2.50878E-04-1.19561E-02-3.25361E-15 3.42059E-13
 -1      1933 1.99940E+01 2.81822E-03 2.21956E-04-1.47706E-03 3.10537E-13-4.06376E-14
 -1      1934 1.99929E+01 2.21402E-03 1.19273E-04 4.53848E-05 4.08743E-13 2.06146E-13
 -1      1935 2.00001E+01 4.69575E-03-1.80923E-04-4.64616E-03 1.44358E-13 4.11927E-13
 -1      1936 1.99918E+01 1.75260E-03 1.39400E-04 1.72650E-03 2.79543E-13 2.70016E-13
 -1      1937 1.99920E+01 1.30459E-03 8.04676E-05 2.65570E-03 3.92235E-13 3.14586E-13
 -1      1938 1.99966E+01 2.97770E-03-1.26295E-04 2.34159E-04 3.53980E-13 4.40340E-13
 -1      1939 1.99917E+01 9.48471E-04 7.91001E-05 3.64318E-03 3.55053E-13 2.25338E-13
 -1      1940 1.99926E+01 5.98389E-04 4.63078E-05 4.11758E-03 2.11112E-13 1.82378E-13
 -1      1941 1.99952E+01 1.68817E-03-8.40268E-05 3.28950E-03 2.95308E-13 3.59817E-13
 -1      1942 1.99929E+01 3.01562E-04 3.61522E-05 4.56087E-03 2.08978E-14 3.63487E-13
 -1      1943 1.99942E+01-2.86716E-06 1.71276E-05 4.65755E-03 2.25905E-14 3.41973E-13
 -1      1944 1.99952E+01 6.69254E-04-5.11152E-05 4.94484E-03 2.34525E-13 3.08897E-13
 -1      1945 1.99947E+01-2.97412E-04 5.43092E-06 4.64967E-03 1.68526E-14 2.08728E-13
 -1      1946 1.99961E+01-6.03563E-04-7.50300E-06 4.38292E-03-3.08919E-14 4.04338E-13
 -1      1947 1.99961E+01-2.17656E-04-2.55386E-05 5.46773E-03-7.75149E-14 3.96335E-13
 -1      1948 1.99966E+01-8.62336E-04-5.08271E-06 3.98021E-03-1.10819E-13 3.13108E-13
 -1      1949 1.99978E+01-1.20125E-03-2.93651E-05 3.36045E-03-9.14083E-14 3.74488E-13
 -1      1950 1.99983E+01-1.84758E-03-6.47349E-06 3.86616E-03-2.77107E-13 4.83581E-13
 -1      1951 1.99972E+01-1.09846E-03-1.19030E-05 5.03962E-03-3.96809E-14 4.76307E-13
 -1      1952 2.03096E+01 1.63444E-01 1.00879E-02 1.00665E-02 1.53927E-13 3.29015E-13
 -1      1953 2.04722E+01 2.21450E-01 1.76755E-02 1.98294E-01 1.51781E-13 3.95992E-13
 -1      1954 2.06428E+01 3.69554E-01-3.16013E-03 3.66214E-01 1.93253E-13 2.53545E-13
 -1      1955 2.02935E+01 1.00959E-01 8.94458E-03-2.37872E-01 1.41546E-13 2.36292E-13
 -1      1956 2.02817E+01 1.28816E-01 1.53918E-02-1.26677E-01 1.18798E-13 2.98338E-13
 -1      1957 2.04343E+01 1.98928E-01-3.74697E-03-7.92172E-02 1.62848E-13 2.00420E-13
 -1      1958 2.04691E+01 6.80525E-02 6.20484E-03-3.97222E-01 1.07142E-13 1.94722E-13
 -1      1959 2.03514E+01 8.42059E-02 9.58042E-03-3.22973E-01 1.27235E-13 2.28621E-13
 -1      1960 2.04531E+01 1.22731E-01-4.71504E-03-3.52051E-01 1.44413E-13 1.14458E-13
 -1      1961 2.07744E+01 4.45328E-02 4.09113E-03-5.03167E-01 3.58572E-14 1.25470E-13
 -1      1962 2.05897E+01 5.68399E-02 5.44770E-03-4.51393E-01 6.34811E-14 1.67601E-13
 -1      1963 2.06302E+01 7.98286E-02-4.86195E-03-5.30232E-01 9.97986E-14 8.32431E-14
 -1      1964 2.11629E+01 1.99240E-02 2.12909E-03-5.64800E-01 6.43813E-14 1.09756E-13
 -1      1965 2.09379E+01 3.26954E-02 2.74208E-03-5.32471E-01 3.23780E-14 1.20810E-13
 -1      1966 2.09160E+01 4.51837E-02-4.39140E-03-6.44373E-01 5.65968E-14 3.85310E-14
 -1      1967 2.15925E+01-1.30371E-02-1.70729E-04-5.75401E-01 6.83006E-14 6.39462E-14
 -1      1968 2.13519E+01 3.11580E-03 6.03266E-04-5.66591E-01 5.81839E-14 9.76307E-14
 -1      1969 2.12715E+01 4.97523E-03-3.61639E-03-6.98787E-01 7.89926E-14 2.01020E-14
 -1      1970 2.20161E+01-5.95105E-02-2.90811E-03-5.17060E-01 1.24067E-13-3.06309E-15
 -1      1971 2.17883E+01-3.82872E-02-1.46715E-03-5.41167E-01 9.24824E-14 3.94147E-14
 -1      1972 2.16602E+01-5.02322E-02-2.52091E-03-6.80821E-01 1.08860E-13 3.30430E-14
 -1      1973 2.23759E+01-1.20440E-01-5.69263E-03-3.65884E-01-6.78945E-14 7.52731E-14
 -1      1974 2.21959E+01-9.48570E-02-3.60046E-03-4.35301E-01 3.76929E-14 3.39273E-14
 -1      1975 2.20406E+01-1.25443E-01-8.61019E-04-5.66724E-01 4.45369E-14 9.43048E-14
 -1      1976 2.26024E+01-1.87829E-01-7.55383E-03-1.02675E-01-1.42464E-14 3.80686E-14
 -1      1977 2.25109E+01-1.63158E-01-5.60340E-03-2.27583E-01-5.08907E-14 3.38087E-14
 -1      1978 2.23615E+01-2.16758E-01 1.67082E-03-3.30518E-01-3.84632E-14 6.58419E-14
 -1      1979 2.26226E+01-2.38976E-01-7.17519E-03 2.67349E-01 7.68621E-14-2.20375E-14
 -1      1980 2.26588E+01-2.27132E-01-7.04015E-03 8.88713E-02 2.12790E-14-5.86131E-15
 -1      1981 2.25611E+01-3.03715E-01 5.21875E-03 3.91277E-02 3.72593E-14-9.22694E-14
 -1      1982 2.23800E+01-2.35642E-01-3.80784E-03 6.87495E-01 2.38255E-13-6.61138E-14
 -1      1983 2.25673E+01-2.53805E-01-7.33616E-03 4.83073E-01 1.37195E-13-4.36543E-14
 -1      1984 2.25732E+01-3.43869E-01 9.12300E-03 5.11838E-01 1.59258E-13-8.63253E-14
 -1      1985 2.18712E+01-1.39146E-01 1.35327E-03 1.03152E+00 5.11383E-14 1.49551E-14
 -1      1986 2.21975E+01-2.00335E-01-5.95194E-03 8.63035E-01 1.32217E-13 2.44318E-14
 -1      1987 2.23485E+01-2.81070E-01 1.13841E-02 9.86114E-01 1.32869E-13 2.74303E-14
 -1      1988 2.11880E+01 5.45377E-02 4.73514E-03 1.12738E+00-5.73533E-14 4.20150E-14
 -1      1989 2.15893E+01-4.17112E-02-2.47019E-03 1.07800E+00-3.31690E-14 7.26502E-15
 -1      1990 2.18961E+01-8.01603E-02 9.03262E-03 1.28527E+00-7.62866E-15 9.00261E-14
 -1      1991 2.05352E+01 2.79943E-01 2.85533E-03 8.47312E-01 4.81386E-16 1.11317E-14
 -1      1992 2.08980E+01 1.88265E-01 2.86411E-03 9.75794E-01-8.77944E-15 2.78891E-14
 -1      1993 2.13285E+01 2.22327E-01 8.77304E-04 1.21664E+00-2.69181E-14 2.85345E-14
 -1      1994 2.01748E+01 4.18631E-01-2.60480E-03 2.28251E-01 5.50705E-14-4.56206E-14
 -1      1995 2.03698E+01 3.84827E-01 9.03988E-03 5.12361E-01 6.93022E-15-2.20700E-14
 -1      1996 2.08630E+01 4.98192E-01-8.87951E-03 7.01178E-01 5.54695E-14 1.21713E-13
 -1      1997 2.02830E+01 3.85029E-01-6.42289E-03-4.96701E-01 8.92619E-14-9.25492E-14
 -1      1998 2.02272E+01 4.33167E-01 1.29000E-02-1.68192E-01 8.87502E-14-4.69412E-14
 -1      1999 2.07238E+01 5.98183E-01-1.18413E-02-1.12004E-01 9.71723E-14 2.46071E-15
 -1      2000 2.08287E+01 2.02255E-01-4.43527E-03-1.02808E+00-3.51889E-15-8.80684E-14
 -1      2001 2.05347E+01 3.04306E-01 1.17381E-02-7.89435E-01 3.34698E-14-9.94291E-14
 -1      2002 2.09896E+01 4.60596E-01-6.61158E-03-8.91722E-01 7.60954E-14-1.14140E-13
 -1      2003 2.15901E+01-1.97151E-02 1.58148E-03-1.18889E+00-1.02968E-13-9.01241E-14
 -1      2004 2.11619E+01 7.96989E-02 5.79002E-03-1.11366E+00-1.69613E-14-8.41705E-14
 -1      2005 2.15364E+01 1.68361E-01 1.57525E-03-1.32958E+00-3.20004E-14-1.18802E-13
 -1      2006 2.22998E+01-1.77061E-01 6.54879E-03-1.00438E+00 5.20109E-14-1.00144E-13
 -1      2007 2.18742E+01-1.20621E-01-1.80393E-03-1.07773E+00-1.01323E-13-1.12285E-13
 -1      2008 2.21310E+01-1.23980E-01 5.39818E-03-1.32409E+00-7.88631E-14-1.14148E-13
 -1      2009 2.27795E+01-2.33629E-01 7.86420E-03-6.28982E-01 2.21363E-13-1.22900E-13
 -1      2010 2.24618E+01-2.25814E-01-7.58007E-03-7.83816E-01 2.00727E-13-3.87806E-14
 -1      2011 2.25798E+01-3.00779E-01 4.22770E-03-9.86741E-01 1.46280E-13-1.07239E-13
 -1      2012 2.29758E+01-2.11628E-01 6.14473E-03-2.26429E-01-2.30154E-14-2.58477E-13
 -1      2013 2.28114E+01-2.35370E-01-9.94745E-03-3.93887E-01 1.09183E-13-1.70468E-13
 -1      2014 2.27989E+01-3.39927E-01 1.32277E-03-5.14687E-01 1.73034E-13-2.00363E-13
 -1      2015 2.29246E+01-1.52286E-01 3.38613E-03 9.99818E-02-1.09690E-13-3.82012E-13
 -1      2016 2.29065E+01-1.87054E-01-9.32273E-03-3.69808E-02-1.33379E-13-3.27303E-13
 -1      2017 2.27969E+01-2.84511E-01-6.69464E-04-7.13974E-02-4.33837E-14-2.69512E-13
 -1      2018 2.26988E+01-8.82678E-02 9.63002E-04 3.14367E-01 3.77576E-14-2.45410E-13
 -1      2019 2.27917E+01-1.20377E-01-7.03289E-03 2.23148E-01-6.02036E-14-3.63680E-13
 -1      2020 2.26278E+01-1.91784E-01-1.32483E-03 2.58702E-01-8.46129E-14-3.07674E-13
 -1      2021 2.23732E+01-3.61596E-02-5.63795E-04 4.24358E-01 6.48687E-14-4.70123E-14
 -1      2022 2.25345E+01-5.99178E-02-4.30584E-03 3.76200E-01 5.05485E-14-1.10191E-13
 -1      2023 2.23542E+01-1.01840E-01-1.20412E-03 4.58234E-01-4.98807E-14-1.19414E-13
 -1      2024 2.20081E+01-4.78965E-04-1.25208E-03 4.55748E-01 6.82462E-15 4.18901E-14
 -1      2025 2.22007E+01-1.53163E-02-1.87286E-03 4.40340E-01 1.53969E-14-2.00382E-14
 -1      2026 2.20303E+01-3.27968E-02-8.57179E-04 5.46744E-01 2.86623E-14 4.55892E-14
 -1      2027 2.16457E+01 2.04987E-02-1.37512E-03 4.36450E-01 2.61951E-14 1.27999E-14
 -1      2028 2.18424E+01 1.28736E-02-4.86419E-05 4.42439E-01 4.29864E-14 8.19774E-14
 -1      2029 2.16964E+01 1.22295E-02-5.72519E-04 5.56127E-01 2.46852E-14 1.12002E-13
 -1      2030 2.13118E+01 3.05709E-02-1.20243E-03 3.89341E-01 8.98594E-14-9.20466E-14
 -1      2031 2.14955E+01 2.79414E-02 1.13143E-03 4.07319E-01 6.12680E-14-1.48646E-14
 -1      2032 2.13790E+01 3.71695E-02-4.21842E-04 5.16848E-01 1.16326E-13 9.67927E-14
 -1      2033 2.10195E+01 3.34923E-02-9.20857E-04 3.30570E-01-2.59402E-14-1.21729E-13
 -1      2034 2.11811E+01 3.39288E-02 1.76951E-03 3.53827E-01 5.68261E-14-9.03147E-14
 -1      2035 2.10936E+01 4.78372E-02-3.77274E-04 4.52579E-01 1.25078E-13 8.14254E-14
 -1      2036 2.07733E+01 3.22075E-02-6.35095E-04 2.70331E-01-2.90621E-13-2.75220E-13
 -1      2037 2.09096E+01 3.42924E-02 2.01137E-03 2.94576E-01-1.65285E-13-3.37714E-13
 -1      2038 2.08474E+01 4.94923E-02-3.87720E-04 3.79503E-01-3.56607E-14-1.97041E-14
 -1      2039 2.05724E+01 2.87586E-02-3.91974E-04 2.14376E-01-2.53003E-14-2.46258E-13
 -1      2040 2.06834E+01 3.15549E-02 1.99476E-03 2.37146E-01-2.29848E-13-3.60388E-13
 -1      2041 2.06419E+01 4.60793E-02-4.11970E-04 3.07573E-01-1.90017E-13-3.77841E-13
 -1      2042 2.04128E+01 2.44478E-02-2.05122E-04 1.65462E-01 3.39393E-14-2.57921E-14
 -1      2043 2.05006E+01 2.73857E-02 1.82885E-03 1.85536E-01 2.08128E-14-1.06301E-13
 -1      2044 2.04750E+01 4.02486E-02-4.26738E-04 2.42216E-01-4.29974E-14-1.95577E-13
 -1      2045 2.02890E+01 2.00450E-02-7.19437E-05 1.24481E-01-4.99339E-14 4.92085E-14
 -1      2046 2.03567E+01 2.28081E-02 1.59108E-03 1.41422E-01 1.47275E-14 1.19404E-13
 -1      2047 2.03427E+01 3.36407E-02-4.23550E-04 1.85858E-01-4.01654E-14 7.04565E-14
 -1      2048 2.01953E+01 1.59668E-02 1.65212E-05 9.12422E-02 1.58719E-13-3.91951E-14
 -1      2049 2.02462E+01 1.84018E-02 1.33188E-03 1.05075E-01 2.91753E-14 4.56426E-15
 -1      2050 2.02403E+01 2.71924E-02-4.02775E-04 1.39073E-01 6.12693E-14 6.70120E-14
 -1      2051 2.01260E+01 1.24063E-02 7.05909E-05 6.49980E-02-4.25986E-14-1.46683E-13
 -1      2052 2.01633E+01 1.44594E-02 1.08137E-03 7.59926E-02 8.49388E-14-3.21321E-15
 -1      2053 2.01629E+01 2.13833E-02-3.68764E-04 1.01381E-01 1.61184E-13 1.67407E-13
 -1      2054 2.00762E+01 9.42314E-03 9.97025E-05 4.47615E-02 3.38383E-14-2.21589E-13
 -1      2055 2.01027E+01 1.10977E-02 8.55588E-04 5.32973E-02 3.56621E-14-1.40572E-13
 -1      2056 2.01056E+01 1.64118E-02-3.26838E-04 7.17776E-02 5.80043E-14-1.19373E-13
 -1      2057 2.00414E+01 7.00145E-03 1.11611E-04 2.95004E-02-3.56309E-14-3.81118E-14
 -1      2058 2.00597E+01 8.33062E-03 6.61417E-04 3.59854E-02-6.54328E-14-1.97662E-13
 -1      2059 2.00643E+01 1.23118E-02-2.81771E-04 4.90518E-02-5.78838E-14-4.45151E-14
 -1      2060 2.00181E+01 5.08611E-03 1.12263E-04 1.82419E-02-1.16134E-13-1.40279E-13
 -1      2061 2.00301E+01 6.11643E-03 5.00115E-04 2.30667E-02-3.42093E-16-9.44676E-14
 -1      2062 2.00355E+01 9.02826E-03-2.37201E-04 3.19818E-02-2.41198E-14-1.09593E-13
 -1      2063 2.00033E+01 3.60498E-03 1.05958E-04 1.01265E-02-2.21709E-14-2.23348E-13
 -1      2064 2.00107E+01 4.38671E-03 3.69717E-04 1.36398E-02-7.32859E-14-1.48774E-13
 -1      2065 2.00162E+01 6.46276E-03-1.95564E-04 1.94385E-02-1.04786E-13-3.55090E-13
 -1      2066 1.99947E+01 2.48143E-03 9.55987E-05 4.42784E-03 8.68633E-14-1.83213E-13
 -1      2067 1.99988E+01 3.06324E-03 2.66594E-04 6.92697E-03 5.23294E-14-2.28883E-13
 -1      2068 2.00039E+01 4.50086E-03-1.58245E-04 1.04365E-02 1.33152E-13-2.53882E-13
 -1      2069 1.99905E+01 1.64105E-03 8.29409E-05 5.56474E-04-1.60471E-13-1.09579E-13
 -1      2070 1.99923E+01 2.06743E-03 1.86406E-04 2.28416E-03-4.90370E-15-1.44258E-13
 -1      2071 1.99967E+01 3.02703E-03-1.25795E-04 4.15207E-03-2.11137E-14-4.43472E-14
 -1      2072 1.99893E+01 1.01432E-03 6.87525E-05-1.94694E-03 2.38152E-13-2.40043E-13
 -1      2073 1.99895E+01 1.32498E-03 1.24665E-04-8.00904E-04-1.56197E-14-1.93534E-13
 -1      2074 1.99932E+01 1.93198E-03-9.81986E-05-7.59517E-05 6.36712E-14-1.46572E-13
 -1      2075 1.99901E+01 5.35436E-04 5.31056E-05-3.42032E-03 2.88837E-13-1.01313E-13
 -1      2076 1.99893E+01 7.66429E-04 7.71743E-05-2.71686E-03 4.08546E-13 3.46482E-14
 -1      2077 1.99922E+01 1.11412E-03-7.51153E-05-2.75495E-03 3.49452E-13-5.09418E-15
 -1      2078 1.99921E+01 1.38868E-04 3.67078E-05-4.08594E-03 1.92408E-13-2.56619E-13
 -1      2079 1.99907E+01 3.24175E-04 4.06275E-05-3.73646E-03 1.92054E-13-1.66605E-13
 -1      2080 1.99928E+01 4.76580E-04-5.54888E-05-4.24893E-03 2.23767E-13 7.14862E-14
 -1      2081 1.99945E+01-2.40940E-04 2.10445E-05-4.05285E-03 7.02912E-14-3.36422E-13
 -1      2082 1.99929E+01-6.89075E-05 1.37666E-05-4.02058E-03 1.85529E-13-3.34902E-13
 -1      2083 1.99943E+01-7.57404E-05-3.68669E-05-4.78217E-03 2.47343E-13-1.29354E-13
 -1      2084 1.99968E+01-6.71875E-04 5.36256E-06-3.31893E-03-3.65043E-14-2.08266E-13
 -1      2085 1.99954E+01-4.76562E-04-8.70079E-07-3.63521E-03-9.60009E-14-2.12367E-13
 -1      2086 1.99961E+01-6.37995E-04-1.90089E-05-4.47204E-03-9.91466E-14 8.41349E-14
 -1      2087 1.99984E+01-1.09766E-03-1.28924E-05-2.27406E-03 2.18966E-15 1.96900E-13
 -1      2088 1.99973E+01-8.70114E-04-6.91479E-06-2.92717E-03-1.98613E-14-6.01609E-14
 -1      2089 1.99977E+01-1.15741E-03 2.68708E-06-3.67191E-03-9.74487E-14 4.28246E-13
 -1      2090 1.99987E+01-1.72057E-03 1.15540E-05-2.72154E-03-8.17449E-14 8.55331E-13
 -1      2091 2.00002E+01-7.09384E-03 5.08689E-06-3.76541E-03 4.19021E-14 2.14359E-13
 -1      2092 2.00001E+01-5.89656E-03 6.00065E-06-3.95702E-03-4.44226E-15 2.44027E-13
 -1      2093 1.99998E+01-5.20932E-03 3.06737E-06-4.07396E-03-8.48505E-14 6.83664E-14
 -1      2094 1.99995E+01-3.99058E-03-1.02045E-05-3.98278E-03-1.12931E-13 3.57499E-14
 -1      2095 2.00000E+01-4.33214E-03-1.14947E-05-4.86257E-03-3.95886E-14 2.34929E-13
 -1      2096 1.99993E+01-3.47419E-03 1.28135E-06-3.72696E-03-2.60364E-13 5.58418E-14
 -1      2097 1.99989E+01-2.37026E-03-1.89741E-05-3.25469E-03-1.73112E-13 5.87520E-13
 -1      2098 1.99985E+01-2.08878E-03-1.81288E-05-3.83133E-03-1.55648E-13 5.70054E-13
 -1      2099 1.99993E+01-3.18956E-03-1.34036E-05-4.70613E-03-3.00731E-13 1.44235E-13
 -1      2100 2.00004E+01-8.64460E-03 9.36705E-06-3.07999E-03-7.95863E-14-4.13522E-13
 -1      2101 2.00004E+01-7.62791E-03 2.44162E-05-3.41669E-03-9.31746E-15-6.86855E-14
 -1      2102 2.00005E+01-5.54699E-03-1.18880E-05-4.33136E-03-1.83499E-13-6.19589E-14
 -1      2103 2.00005E+01-9.82711E-03 1.47897E-05-2.19721E-03-1.46991E-13-4.45272E-13
 -1      2104 2.00005E+01-9.04777E-03 3.29298E-05-2.60681E-03-4.95341E-14-2.22797E-13
 -1      2105 2.00008E+01-6.49713E-03-1.16131E-05-3.42328E-03-2.09667E-13-3.49370E-13
 -1      2106 2.00006E+01-1.05688E-02 2.08174E-05-1.24804E-03-1.84629E-13-3.08065E-13
 -1      2107 2.00006E+01-1.00872E-02 3.49381E-05-1.67896E-03-1.76067E-13-4.31563E-13
 -1      2108 2.00009E+01-7.17317E-03-1.00558E-05-2.33192E-03-2.10526E-13-4.93886E-13
 -1      2109 2.00006E+01-1.08645E-02 2.70983E-05-2.84571E-04-3.28744E-13-1.52552E-13
 -1      2110 2.00006E+01-1.06985E-02 3.20456E-05-7.19799E-04-2.11902E-13-2.59988E-13
 -1      2111 2.00009E+01-7.57343E-03-8.34475E-06-1.18423E-03-2.52027E-13-3.66082E-13
 -1      2112 2.00006E+01-1.07164E-02 3.26918E-05 6.84030E-04-3.26456E-13-3.85511E-13
 -1      2113 2.00006E+01-1.08714E-02 2.67396E-05 2.46196E-04-3.25302E-13-7.54561E-14
 -1      2114 2.00010E+01-7.71375E-03-7.80763E-06-2.47599E-05-4.03978E-13-2.53509E-13
 -1      2115 2.00006E+01-1.01254E-02 3.57430E-05 1.65668E-03-3.39609E-13-3.47947E-13
 -1      2116 2.00006E+01-1.05988E-02 2.06617E-05 1.21875E-03-3.14183E-13-3.44046E-13
 -1      2117 2.00010E+01-7.59920E-03-8.65505E-06 1.14212E-03-2.95185E-13-3.21040E-13
 -1      2118 2.00005E+01-9.11668E-03 3.35235E-05 2.58950E-03-1.92267E-13 2.01587E-13
 -1      2119 2.00005E+01-9.87948E-03 1.48909E-05 2.17778E-03-3.03748E-13-1.72773E-13
 -1      2120 2.00009E+01-7.22296E-03-1.03337E-05 2.29997E-03-1.10794E-13-1.94408E-13
 -1      2121 2.00004E+01-7.68583E-03 2.38532E-05 3.42900E-03-1.06210E-13 3.75919E-13
 -1      2122 2.00005E+01-8.71939E-03 9.71732E-06 3.07721E-03-1.31727E-13 6.57633E-13
 -1      2123 2.00008E+01-6.56590E-03-1.24166E-05 3.40936E-03 1.01906E-13 3.96436E-13
 -1      2124 2.00001E+01-5.92928E-03 5.17031E-06 3.98857E-03 5.07096E-14-2.18618E-14
 -1      2125 2.00002E+01-7.13368E-03 5.64896E-06 3.79340E-03 7.26839E-14-2.59727E-14
 -1      2126 2.00006E+01-5.60688E-03-1.32261E-05 4.35563E-03 2.59086E-13 2.94938E-13
 -1      2127 1.99995E+01-4.01238E-03-2.19592E-05 4.06454E-03-2.04128E-13 4.47578E-13
 -1      2128 1.99999E+01-5.24011E-03 1.08075E-05 4.11221E-03-1.74196E-13 1.65067E-14
 -1      2129 2.00000E+01-4.36491E-03-5.43278E-06 4.90107E-03 4.16648E-14-1.10412E-13
 -1      2130 1.11445E+01-5.05276E+00-1.10949E-01 6.64479E+00 1.31006E-13 5.61683E-13
 -1      2131 7.72185E+00-6.01752E+00-1.95773E-01 5.82436E+00 3.92464E-14 3.73868E-13
 -1      2132 2.03774E-01-7.55254E+00-4.53529E-01 1.01255E+00 4.02456E-15 6.68854E-13
 -1      2133 1.89127E-01-6.98956E+00-3.67682E-01-5.20471E-01-2.12053E-13 4.67959E-13
 -1      2134 3.58782E+00-5.97974E+00-2.56954E-01 4.37529E+00-3.46390E-14 3.24296E-13
 -1      2135 1.30496E+00-7.53313E+00-5.00549E-01 2.50945E+00-5.96745E-14 5.57221E-13
 -1      2136 2.02437E+00-4.90090E+00-1.88696E-01 2.35070E+00-5.18752E-14 6.14231E-13
 -1      2137 1.96661E+01-3.22744E+00 1.63216E-02 6.85351E+00 1.23679E-13 6.33271E-13
 -1      2138 1.51133E+01-5.07601E+00-2.68965E-01 6.23653E+00 3.46390E-14 5.91777E-13
 -1      2139 2.78123E+01-1.22138E+00 3.03483E-02 5.06854E+00 2.77917E-13 1.12133E-13
 -1      2140 2.30033E+01-2.60267E+00-1.40756E-01 5.56717E+00 2.18936E-13 3.58491E-13
 -1      2141 2.35244E+01-4.54122E+00 8.06036E-02 5.32357E+00-9.86988E-14 1.89210E-13
 -1      2142 1.95662E+01 4.11313E+00-2.70527E-02-1.36677E+00-2.22042E-13-2.87277E-13
 -1      2143 1.97681E+01 4.02743E+00-2.15520E-02-1.61171E+00-2.49589E-13-2.26208E-13
 -1      2144 2.01220E+01 3.34348E+00-6.57624E-03-1.54237E+00-2.67526E-13-1.70825E-13
 -1      2145 1.96856E+01 3.73827E+00-7.84961E-03-1.17193E+00-2.23958E-13-2.79816E-13
 -1      2146 3.89814E+01 5.84777E+00 2.99477E-01 1.50345E+00 5.96745E-13-1.40998E-14
 -1      2147 3.63992E+01 4.87085E+00 1.29809E-01 2.45698E+00 5.72542E-13 7.19980E-14
 -1      2148 3.82261E+01 7.42486E+00 1.15843E-01-2.59046E-01 9.24760E-13-1.64344E-13
 -1      2149 3.94489E+01 6.98428E+00 3.59386E-01 9.08141E-01 7.54730E-13 2.91434E-15
 -1      2150 3.50048E+01 7.02020E+00 2.68525E-01-3.22909E-01 6.47593E-13-2.35867E-13
 -1      2151 3.89069E+01 6.35178E+00 3.69100E-01-1.70239E+00 8.71747E-13-3.75422E-13
 -1      2152 3.89505E+01 7.13820E+00 2.50951E-01-3.89828E-01 8.85958E-13-1.33532E-13
 -1      2153 3.46731E+01 3.60425E+00 1.37264E-01-3.43089E+00 8.05231E-13-5.16254E-13
 -1      2154 3.76594E+01 4.79923E+00 3.08407E-01-2.51111E+00 8.04273E-13-3.53273E-13
 -1      2155 2.86553E+01 2.60193E-01-2.24582E-02-4.64675E+00 6.07847E-13-6.99774E-13
 -1      2156 3.31411E+01 2.12868E+00 3.02133E-01-4.65436E+00 7.32109E-13-5.92304E-13
 -1      2157 3.29885E+01 2.06667E+00 2.36098E-01-1.41473E+00 5.88543E-13-9.57012E-14
 -1      2158 1.99758E+01-3.21998E+00-2.06129E-01-6.13441E+00 5.86420E-13-7.50067E-13
 -1      2159 2.49700E+01-1.53503E+00 7.17134E-02-6.31949E+00 5.33296E-13-8.41438E-13
 -1      2160 1.16157E+01-5.64984E+00-3.80683E-01-6.00193E+00 5.69766E-13-6.32452E-13
 -1      2161 1.59785E+01-3.71310E+00-7.03047E-02-6.97160E+00 6.81899E-13-6.04961E-13
 -1      2162 4.83102E+00-7.15084E+00-4.36985E-01-4.65061E+00 2.93598E-13-7.28251E-13
 -1      2163 7.97087E+00-5.74888E+00-2.36936E-01-5.87402E+00 5.17031E-13-7.63653E-13
 -1      2164 6.47455E-01-7.71364E+00-4.69349E-01-1.77782E+00 1.06026E-14-8.67029E-13
 -1      2165 2.10647E+00-6.79534E+00-3.37684E-01-3.38436E+00 2.72504E-13-8.81351E-13
 -1      2166 9.11922E-01-6.29378E+00-2.69532E-01 1.60446E+00-1.13909E-13-8.90177E-13
 -1      2167 1.71881E-01-7.57305E+00-4.74157E-01-1.75608E-01 1.75207E-14-9.17988E-13
 -1      2168 1.65359E+00-4.88895E+00-1.97402E-01-1.27990E+00-8.42382E-15-9.63452E-13
 -1      2169 5.30622E+00-6.59042E+00-3.36004E-01 4.91275E+00-5.12146E-13-6.96609E-13
 -1      2170 3.11806E+00-6.68251E+00-2.83961E-01 3.88406E+00-2.26208E-13-7.12319E-13
 -1      2171 1.24504E+01-4.92043E+00-1.69909E-01 6.56364E+00-6.58806E-13-8.59368E-13
 -1      2172 8.41762E+00-6.64926E+00-4.36481E-01 5.39285E+00-5.66214E-13-7.05404E-13
 -1      2173 2.21423E+01-3.29259E+00-2.08506E-02 6.46787E+00-5.87030E-13-5.48894E-13
 -1      2174 1.68772E+01-4.87971E+00-2.78011E-01 6.09048E+00-5.88529E-13-7.14151E-13
 -1      2175 3.12738E+01 4.16482E-01 2.06778E-01 4.64180E+00-7.00523E-13-4.74509E-13
 -1      2176 2.64196E+01-1.73320E+00-1.14145E-01 4.62781E+00-6.58917E-13-4.66960E-13
 -1      2177 3.71826E+01 3.91606E+00 3.24820E-01 2.69706E+00-9.08662E-13-2.53131E-13
 -1      2178 3.32878E+01 2.32001E+00 1.52466E-02 3.15959E+00-8.02448E-13-4.30989E-13
 -1      2179 3.99503E+01 6.31717E+00 3.13913E-01 9.40722E-01-8.78408E-13-1.01336E-13
 -1      2180 3.81839E+01 5.36554E+00 2.05303E-01 2.05674E+00-9.33614E-13-2.33868E-13
 -1      2181 3.49649E+01 4.55421E+00 3.04044E-01-1.30642E-01-8.45324E-13 3.55826E-14
 -1      2182 4.02637E+01 7.18038E+00 3.13132E-01-4.07555E-01-7.13818E-13 1.02224E-13
 -1      2183 4.02533E+01 7.22428E+00 3.20700E-01 5.35286E-01-8.21232E-13-5.39846E-14
 -1      2184 3.89299E+01 5.67623E+00 2.91980E-01-1.97302E+00-4.51250E-13 2.88825E-13
 -1      2185 4.04183E+01 6.44221E+00 3.44728E-01-8.38466E-01-5.89584E-13 1.34531E-13
 -1      2186 3.43281E+01 2.98735E+00 1.01928E-01-3.49858E+00-3.12844E-13 4.42868E-13
 -1      2187 3.78985E+01 4.24987E+00 3.70229E-01-2.82887E+00-3.05700E-13 4.42757E-13
 -1      2188 2.79758E+01-6.03780E-01-7.79034E-02-4.63847E+00-3.22853E-13 3.72813E-13
 -1      2189 3.23084E+01 1.07270E+00 2.34027E-01-4.39414E+00-2.77722E-13 4.36096E-13
 -1      2190 2.00856E+01-3.36691E+00-2.45414E-01-5.88744E+00-3.30347E-13 1.85407E-13
 -1      2191 2.48187E+01-1.57195E+00 8.93521E-02-6.23751E+00-3.49387E-13 2.88047E-13
 -1      2192 1.26630E+01-5.68360E+00-3.38033E-01-5.96767E+00-3.46057E-13 1.74111E-13
 -1      2193 1.67903E+01-4.01483E+00-3.55127E-02-6.72525E+00-3.82139E-13 1.77691E-13
 -1      2194 6.34446E+00-6.76550E+00-3.67448E-01-5.00295E+00-2.47358E-13 5.67768E-13
 -1      2195 9.51468E+00-5.52030E+00-1.61453E-01-6.00408E+00-3.07643E-13 4.14779E-13
 -1      2196 1.38130E+01-5.82357E+00-9.98637E-02-6.73552E+00 5.10703E-15 4.65253E-15
 -1      2197 1.69464E+00-6.73513E+00-3.28021E-01-2.56668E+00-2.10831E-13 3.39728E-13
 -1      2198 3.42524E+00-6.32250E+00-2.71853E-01-4.00972E+00-3.39950E-13 4.89719E-13
 -1      2199 3.53445E+01 3.27754E+00 3.23821E-01 3.32213E+00 4.61672E-13 1.05471E-13
 -1      2200 3.09019E+01 1.34327E+00-2.78474E-02 3.27385E+00 3.47895E-13 5.87308E-14
 -1      2201 3.37498E+01 3.75968E+00 2.11931E-01 2.06484E-01 3.68428E-13-2.06613E-13
 -1      2202 2.98220E+01-1.26718E+00 5.60796E-02 2.42057E+00 1.86504E-13-7.01106E-14
 -1      2203 2.11201E+01 1.11106E+00-1.77636E-02-1.34134E+00-2.55636E-13 3.25401E-13
 -1      2204 2.80434E+01-2.07851E+00 1.17704E-01-3.97448E+00 3.33567E-13-3.96128E-13
 -1      2205 2.10033E+01 1.34953E+00-2.09217E-02-1.33137E+00-2.75347E-13 1.47514E-13
 -1      2206 7.12880E+00-5.30153E+00-7.56595E-02 5.60210E+00-5.33462E-14 3.84998E-13
 -1      2207 6.87281E+00-3.89595E+00 1.21603E-01 5.47533E+00-1.63286E-13 3.81140E-13
 -1      2208 1.05133E+01-4.77274E+00-1.04256E-01 6.76164E+00-1.59150E-13 3.19855E-13
 -1      2209 1.59370E+01-5.55834E+00-3.12572E-02 6.85186E+00-1.55542E-13 4.94034E-13
 -1      2210 1.99992E+01-3.09238E-03-1.79429E-05 4.08124E-03-2.86823E-13 3.87110E-13
 -1      2211 2.19744E+00-4.77633E+00-1.61955E-01-1.99053E+00-1.13284E-13 4.77507E-13
 -1      2212 6.99566E+00-5.33210E+00-1.31691E-01-5.49171E+00-1.32117E-14 3.72813E-13
 -1      2213 2.09164E+01-5.06991E+00-1.08113E-02-5.93143E+00-7.83262E-14-7.24143E-14
 -1      2214 2.78758E+01-2.74941E+00 1.09809E-01-3.76441E+00-9.04832E-14 9.69780E-14
 -1      2215 3.27682E+01 9.25223E-01 1.93297E-01-1.30638E+00-1.66572E-13 2.30760E-13
 -1      2216 3.58314E+01 4.99675E+00 3.24199E-01-1.67082E-01-3.82472E-13 2.32425E-13
 -1      2217 3.62049E+01 7.43577E+00 3.17317E-01-1.37633E-01-9.29812E-13-9.33420E-14
 -1      2218 3.21076E+01 2.39795E-01 1.68073E-01 1.40500E+00-5.84309E-13-5.41234E-14
 -1      2219 2.59683E+01-3.96583E+00 7.17206E-02 4.40797E+00-3.21299E-13-1.81744E-13
 -1      2220 1.72797E+01-5.65322E+00-2.86946E-03 6.66641E+00-2.28595E-13-5.19418E-13
 -1      2221 2.93853E+00-5.50137E+00-1.72767E-01 3.07689E+00-6.98053E-14-8.29115E-13
 -1      2222 3.27968E+00-3.50304E+00 4.98246E-02 2.33007E+00 2.33702E-14-8.81406E-13
 -1      2223 5.33380E+00-4.18904E+00-4.75389E-02 4.55251E+00 7.01661E-14-7.39631E-13
 -1      2224 5.06210E+00-5.58699E+00-1.98917E-01-4.95120E+00 4.55747E-14-8.41660E-13
 -1      2225 1.20971E+01-5.78606E+00-1.29803E-01-6.80317E+00 1.76248E-13-5.68712E-13
 -1      2226 3.32140E+01 7.43496E+00-2.95683E-02 2.62130E-01 8.72191E-13-8.73884E-14
 -1      2227 3.64812E+01 7.54340E+00 1.81789E-01-5.74764E-02 8.90177E-13-7.83262E-14
 -1      2228 3.27507E+01 7.71717E+00-4.56415E-02-2.59742E-02 8.53984E-13-1.89491E-13
 -1      2229 3.52889E+01 5.69287E+00 2.77170E-01-2.15345E-01 8.00360E-13-1.25566E-13
 -1      2230 2.03068E+01-4.79996E+00 1.93122E-02-6.33660E+00 2.71283E-13-4.55413E-13
 -1      2231 9.12196E+00-5.86125E+00-1.77958E-01 6.28382E+00-1.55653E-13-6.58557E-13
 -1      2232 3.65230E+01 7.59888E+00 3.32037E-01 1.75955E-01-7.22089E-13 5.60385E-14
 -1      2233 2.06739E+01 5.58023E-01 6.48645E-03 3.16601E-01 1.97706E-13 1.14734E-13
 -1      2234 2.08570E+01 7.38253E-01 2.07995E-02 6.30627E-01 2.24810E-13 1.48650E-13
 -1      2235 1.91882E+01 3.84657E+00-1.12513E-02-3.93018E-01-8.25058E-14-3.33462E-13
 -1      2236 1.92833E+01 3.78520E+00-8.52680E-03-5.28227E-01-1.28241E-13-3.36917E-13
 -1      2237 1.94004E+01 3.66177E+00-1.36974E-02-6.41327E-01-1.49228E-13-3.27402E-13
 -1      2238 1.95430E+01 3.55815E+00-1.06413E-02-7.93606E-01-1.85861E-13-3.10130E-13
 -1      2239 1.94722E+01 3.39253E+00 1.97141E-03-4.94472E-01-1.27068E-13-3.02699E-13
 -1      2240 1.90594E+01 3.95650E+00-8.20202E-03 5.29783E-02 2.93397E-14-3.45471E-13
 -1      2241 1.90543E+01 3.95996E+00-8.65037E-03-6.92160E-02-2.28998E-15-3.48296E-13
 -1      2242 1.91425E+01 3.89204E+00-7.78523E-03 2.80183E-01 8.93160E-14-3.44213E-13
 -1      2243 1.90884E+01 3.92591E+00-9.79150E-03 1.52246E-01 5.42481E-14-3.49160E-13
 -1      2244 1.91875E+01 3.64264E+00 1.21607E-03 8.08643E-02 4.37141E-14-3.20064E-13
 -1      2245 1.93151E+01 3.74955E+00-8.36023E-03 5.24822E-01 1.49810E-13-3.35899E-13
 -1      2246 1.92168E+01 3.81461E+00-1.14859E-02 3.86369E-01 1.08880E-13-3.39184E-13
 -1      2247 1.93009E+01 3.54033E+00 1.25471E-03 2.75655E-01 9.08270E-14-3.10624E-13
 -1      2248 1.95780E+01 3.51313E+00-1.05851E-02 8.03864E-01 2.26160E-13-2.85810E-13
 -1      2249 1.94345E+01 3.62004E+00-1.37367E-02 6.45452E-01 1.82604E-13-3.19054E-13
 -1      2250 1.95098E+01 3.34478E+00 1.48583E-03 4.90430E-01 1.62366E-13-2.98721E-13
 -1      2251 1.99271E+01 3.15622E+00-1.58377E-02 1.10993E+00 2.79924E-13-2.26433E-13
 -1      2252 1.97409E+01 3.32367E+00-1.65018E-02 9.34979E-01 2.47275E-13-2.56890E-13
 -1      2253 1.98095E+01 3.04201E+00 2.59308E-03 7.26847E-01 2.32265E-13-2.46274E-13
 -1      2254 2.03669E+01 2.62525E+00-2.62010E-02 1.40987E+00 3.18177E-13-1.15821E-13
 -1      2255 2.01364E+01 2.89084E+00-1.86238E-02 1.23518E+00 2.84284E-13-1.76706E-13
 -1      2256 2.01878E+01 2.60852E+00 5.87000E-03 9.61768E-01 2.66078E-13-1.81890E-13
 -1      2257 2.05569E+01 3.40808E-01 7.71003E-03-1.40386E-01 1.81686E-13 5.82613E-14
 -1      2258 2.06158E+01 4.30804E-01 2.03468E-02 4.78337E-02 1.81474E-13 9.56583E-14
 -1      2259 2.06798E+01 7.13479E-01-4.21251E-03 2.60830E-01 2.12876E-13-1.22272E-14
 -1      2260 2.08240E+01 9.43069E-01 1.38468E-02-5.69649E-01-2.23935E-13 5.60658E-14
 -1      2261 2.06917E+01 7.38430E-01-4.76138E-04-2.22317E-01-2.07215E-13 5.27316E-14
 -1      2262 2.62481E+01-3.80997E+00 1.02139E-02-3.59436E+00 9.77551E-14-2.27457E-13
 -1      2263 2.92077E+01-2.08587E+00-1.03501E-01-2.22592E+00 2.38427E-13-2.08167E-14
 -1      2264 3.03719E+01-5.43699E-01-9.41954E-02 7.34629E-01 1.66346E-13-2.38698E-13
 -1      2265 2.78950E+01-2.87851E+00-4.46277E-03 2.17803E+00 3.11626E-14-2.03615E-13
 -1      2266 2.06705E+01 6.01266E-01 1.57348E-02 4.82862E-02-1.76539E-13 5.18017E-14
 -1      2267 2.06305E+01 4.97680E-01 4.23705E-03 2.73194E-01-1.59625E-13 2.05753E-14
 -1      2268 2.06509E+01 9.07690E-01-3.77853E-03-1.38127E-01-2.04034E-13-4.55472E-14
 -1      2269 2.06239E+01 4.29218E-01 1.03928E-02 4.78672E-01-1.54805E-13 3.28549E-14
 -1      2270 2.06682E+01 3.74498E-01 5.23005E-03 6.41311E-01-1.25860E-13-2.66697E-15
 -1      2271 2.05954E+01 6.29528E-01-5.12295E-03 3.73452E-01-1.67069E-13-7.14084E-14
 -1      2272 2.06946E+01 3.35473E-01 6.23507E-03 8.02929E-01-1.05328E-13 1.36939E-14
 -1      2273 2.08059E+01 3.01316E-01 5.19431E-03 9.29281E-01-7.76415E-14 5.08716E-15
 -1      2274 2.06078E+01 4.79240E-01-5.06337E-03 7.67341E-01-1.10509E-13-2.29658E-14
 -1      2275 2.08682E+01 2.70870E-01 3.91527E-03 1.06102E+00-3.23485E-14-2.33737E-14
 -1      2276 2.10318E+01 2.37729E-01 4.38167E-03 1.16007E+00-1.84846E-15-1.40242E-14
 -1      2277 2.06949E+01 3.83021E-01-4.65625E-03 1.08179E+00-7.21219E-14-3.97872E-14
 -1      2278 2.11325E+01 1.99433E-01 3.10797E-03 1.26524E+00 6.83644E-15-3.89118E-14
 -1      2279 2.13366E+01 1.49179E-01 2.48440E-03 1.33322E+00 3.93434E-14-3.98050E-14
 -1      2280 2.08558E+01 2.90061E-01-4.63480E-03 1.33599E+00-2.01968E-14-6.16268E-14
 -1      2281 2.14833E+01 8.60249E-02 3.72231E-03 1.40394E+00 5.51309E-14-5.63386E-14
 -1      2282 2.17178E+01-1.07980E-03-9.73668E-04 1.42483E+00 2.12466E-14-3.22457E-14
 -1      2283 2.10955E+01 1.54340E-01-5.55742E-03 1.52730E+00 2.25792E-14-1.12329E-13
 -1      2284 2.19263E+01-1.07211E-01 5.85371E-03 1.44020E+00 3.33544E-15-1.80053E-14
 -1      2285 2.21798E+01-2.50260E-01-6.48409E-03 1.38585E+00-3.13089E-14-4.71769E-15
 -1      2286 2.14314E+01-7.28113E-02-7.89522E-03 1.62926E+00 2.65832E-14-1.05912E-13
 -1      2287 2.24736E+01-4.12778E-01 9.30751E-03 1.30970E+00-3.68215E-14 6.37795E-14
 -1      2288 2.27298E+01-6.18363E-01-1.41130E-02 1.14329E+00-3.63121E-15 7.46217E-14
 -1      2289 2.18979E+01-4.36559E-01-1.17701E-02 1.58762E+00-1.46389E-15-1.85063E-14
 -1      2290 2.31290E+01-8.28738E-01 1.26421E-02 9.26137E-01 4.09447E-14 1.31340E-13
 -1      2291 2.33599E+01-1.06452E+00-2.24121E-02 6.16034E-01 7.91485E-14 1.24063E-13
 -1      2292 2.25385E+01-9.48156E-01-1.60326E-02 1.31809E+00 3.55111E-14 1.32285E-13
 -1      2293 2.38516E+01-1.26151E+00 1.19426E-02 2.12378E-01 6.02643E-14 1.43899E-13
 -1      2294 2.40115E+01-1.41843E+00-2.64455E-02-2.35204E-01 5.79597E-14 2.13968E-13
 -1      2295 2.33744E+01-1.51991E+00-1.73707E-02 7.20128E-01 8.20627E-14 1.47311E-13
 -1      2296 2.45020E+01-1.45721E+00 7.31893E-04-8.14297E-01 5.42201E-14 2.01398E-13
 -1      2297 2.45320E+01-1.33727E+00-1.95120E-02-1.30014E+00 2.82881E-14 2.21294E-13
 -1      2298 2.43341E+01-1.87629E+00-1.08057E-02-2.62455E-01 7.58889E-14 1.45368E-13
 -1      2299 2.48149E+01-1.01217E+00-3.02195E-02-1.88153E+00-1.06902E-14 2.61376E-13
 -1      2300 2.46882E+01-4.45785E-01-1.29431E-03-2.16390E+00-8.82246E-14 2.58627E-13
 -1      2301 2.51655E+01-1.52194E+00 2.51318E-03-1.49157E+00 9.12898E-15 1.89054E-13
 -1      2302 2.46038E+01 2.85424E-01-6.41254E-02-2.35170E+00-1.49757E-13 2.74509E-13
 -1      2303 2.43990E+01 1.15151E+00 1.49026E-02-2.14900E+00-1.76626E-13 2.77032E-13
 -1      2304 2.54877E+01-9.49779E-02-7.20976E-03-2.39936E+00-1.15061E-13 2.51233E-13
 -1      2305 2.40673E+01 1.87722E+00-8.28992E-02-1.56363E+00-2.65819E-13 2.03890E-13
 -1      2306 2.39712E+01 2.44023E+00-1.58808E-02-8.56885E-01-3.34295E-13 1.70452E-13
 -1      2307 2.52077E+01 2.00562E+00-1.55724E-02-2.14450E+00-2.80029E-13 2.42015E-13
 -1      2308 2.38573E+01 2.59330E+00-4.99473E-02 2.64661E-01-3.35426E-13 5.78157E-14
 -1      2309 2.39862E+01 2.31998E+00-5.77290E-02 1.09972E+00-2.71554E-13-5.32231E-14
 -1      2310 2.49051E+01 3.32722E+00-2.55625E-02-4.36030E-01-3.78787E-13 4.32848E-14
 -1      2311 2.42497E+01 1.71229E+00 7.52286E-03 1.90214E+00-1.92922E-13-1.83120E-13
 -1      2312 2.44629E+01 8.95189E-01-7.04424E-02 2.32303E+00-8.91544E-14-2.06499E-13
 -1      2313 2.51122E+01 2.60177E+00-4.11486E-02 1.68516E+00-3.08191E-13-1.57168E-13
 -1      2314 2.47003E+01 9.34949E-02 1.38023E-02 2.38784E+00-4.32293E-15-2.68846E-13
 -1      2315 2.48653E+01-6.37767E-01-4.47482E-02 2.25669E+00 5.25140E-14-2.83308E-13
 -1      2316 2.55033E+01 6.58869E-01 2.67280E-03 2.58868E+00-1.02033E-13-3.16629E-13
 -1      2317 2.47348E+01-1.09493E+00-5.01009E-03 1.75953E+00 6.02929E-14-2.49411E-13
 -1      2318 2.47603E+01-1.36150E+00-7.05642E-03 1.33000E+00 3.84432E-14-3.29598E-13
 -1      2319 2.53994E+01-1.12269E+00 7.25473E-04 2.08382E+00 4.93112E-14-3.18027E-13
 -1      2320 2.43357E+01-1.44070E+00-2.55419E-02 7.26461E-01 8.08078E-14-3.06535E-13
 -1      2321 2.42358E+01-1.35838E+00 9.00496E-03 2.53686E-01 9.07620E-14-2.82508E-13
 -1      2322 2.47290E+01-1.83631E+00-1.64453E-02 8.60247E-01 2.95859E-14-2.71682E-13
 -1      2323 2.37372E+01-1.19663E+00-2.60628E-02-2.14662E-01 5.77004E-14-2.32667E-13
 -1      2324 2.35487E+01-9.69667E-01 1.32365E-02-5.71130E-01 2.75628E-14-1.44023E-13
 -1      2325 2.38079E+01-1.67478E+00-2.02308E-02-2.64050E-01 9.08644E-14-2.40329E-13
 -1      2326 2.31197E+01-7.52557E-01-1.79015E-02-8.44224E-01 1.26639E-14-7.66826E-14
 -1      2327 2.28913E+01-5.28942E-01 1.07860E-02-1.05217E+00 6.93375E-14-1.23824E-13
 -1      2328 2.29338E+01-1.12844E+00-1.77376E-02-9.90112E-01 5.70880E-14-1.61719E-13
 -1      2329 2.25692E+01-3.48051E-01-9.42395E-03-1.16629E+00 6.27825E-14-2.14501E-13
 -1      2330 2.23343E+01-1.84834E-01 6.87644E-03-1.25103E+00 9.64090E-14-1.93820E-13
 -1      2331 2.22405E+01-5.77141E-01-1.31859E-02-1.35211E+00 3.39019E-15-2.19256E-13
 -1      2332 2.21032E+01-6.36323E-02-3.11734E-03-1.26094E+00 8.96791E-14-2.24610E-13
 -1      2333 2.18793E+01 3.53517E-02 3.77995E-03-1.26190E+00-7.85383E-14-1.34395E-13
 -1      2334 2.17306E+01-1.66625E-01-8.46730E-03-1.45649E+00 2.85900E-14-2.65362E-13
 -1      2335 2.17128E+01 1.03600E-01 9.76681E-04-1.21219E+00-1.27952E-13-6.58059E-14
 -1      2336 2.15084E+01 1.53034E-01 1.78320E-03-1.16496E+00-3.19121E-14 1.44501E-14
 -1      2337 2.13583E+01 8.76950E-02-5.00892E-03-1.40210E+00-1.11874E-14-2.19223E-13
 -1      2338 2.13843E+01 1.83963E-01 3.25687E-03-1.08676E+00-1.95670E-14 1.18954E-14
 -1      2339 2.12035E+01 2.01183E-01 7.02751E-04-1.01708E+00 3.12204E-14 6.29848E-14
 -1      2340 2.10789E+01 2.18823E-01-2.98809E-03-1.26293E+00-1.94797E-14-9.50208E-14
 -1      2341 2.11070E+01 2.09160E-01 4.28686E-03-9.29815E-01-2.09673E-14 3.07524E-14
 -1      2342 2.09513E+01 2.07867E-01 1.97581E-04-8.54056E-01-1.00953E-13 5.75827E-15
 -1      2343 2.08606E+01 2.68383E-01-1.95386E-03-1.08791E+00-1.99458E-14-1.23408E-13
 -1      2344 2.08740E+01 2.03291E-01 4.51925E-03-7.68924E-01-7.71699E-14 3.55353E-14
 -1      2345 2.07430E+01 1.92691E-01 6.03251E-06-6.96390E-01-1.42431E-14 4.96325E-14
 -1      2346 2.06846E+01 2.70133E-01-1.47456E-03-9.06886E-01-1.25066E-13 1.66462E-13
 -1      2347 2.06801E+01 1.82206E-01 4.28851E-03-6.19183E-01-2.06922E-14-5.78351E-15
 -1      2348 2.05722E+01 1.67894E-01-3.63805E-05-5.54468E-01-7.47569E-14 1.26307E-13
 -1      2349 2.05401E+01 2.47163E-01-1.25694E-03-7.36619E-01-1.99399E-14 3.47921E-14
 -1      2350 2.05208E+01 1.55397E-01 3.82268E-03-4.87634E-01 8.62895E-15 2.15613E-13
 -1      2351 2.04338E+01 1.40507E-01-1.96334E-05-4.32446E-01 1.64351E-13 3.56553E-13
 -1      2352 2.04210E+01 2.13748E-01-1.13834E-03-5.85383E-01 5.65287E-14 1.93603E-13
 -1      2353 2.03920E+01 1.28104E-01 3.26703E-03-3.76468E-01 8.23903E-14 2.84946E-13
 -1      2354 2.03231E+01 1.14231E-01 1.21668E-05-3.30887E-01 1.95938E-14 1.35931E-13
 -1      2355 2.03235E+01 1.78026E-01-1.04259E-03-4.56185E-01 2.10784E-14 3.32413E-13
 -1      2356 2.02896E+01 1.02950E-01 2.70730E-03-2.85174E-01-1.28818E-14 3.76817E-14
 -1      2357 2.02360E+01 9.07900E-02 4.04363E-05-2.48442E-01-1.24414E-13 1.09384E-14
 -1      2358 2.02446E+01 1.44246E-01-9.41916E-04-3.48963E-01-7.11618E-14 9.56684E-14
 -1      2359 2.02095E+01 8.10394E-02 2.18950E-03-2.11883E-01-1.89669E-13 2.17697E-14
 -1      2360 2.01686E+01 7.07883E-02 5.94234E-05-1.82878E-01-2.64884E-13 5.63130E-14
 -1      2361 2.01815E+01 1.14342E-01-8.31794E-04-2.62011E-01-1.84885E-13 9.08640E-14
 -1      2362 2.01480E+01 6.26424E-02 1.73467E-03-1.54171E-01-2.60777E-13 1.34295E-13
 -1      2363 2.01173E+01 5.42386E-02 6.90956E-05-1.31677E-01-9.60253E-14 1.47365E-13
 -1      2364 2.01320E+01 8.89476E-02-7.16734E-04-1.92873E-01-1.42742E-13 2.48471E-13
 -1      2365 2.01016E+01 4.76024E-02 1.34907E-03-1.09517E-01 1.14690E-14 2.12270E-13
 -1      2366 2.00791E+01 4.08623E-02 7.14613E-05-9.23671E-02 8.46025E-14 1.97843E-13
 -1      2367 2.00938E+01 6.80056E-02-6.03199E-04-1.38864E-01-4.25950E-14 3.50082E-13
 -1      2368 2.00673E+01 3.55652E-02 1.03072E-03-7.55427E-02-1.05373E-13 1.76321E-13
 -1      2369 2.00511E+01 3.02596E-02 6.88429E-05-6.26860E-02-1.64073E-13 2.82219E-14
 -1      2370 2.00648E+01 5.11230E-02-4.96627E-04-9.73763E-02-8.44273E-14 2.18773E-13
 -1      2371 2.00425E+01 2.61056E-02 7.73483E-04-5.01269E-02 1.01260E-13-7.05241E-14
 -1      2372 2.00313E+01 2.19991E-02 6.31686E-05-4.06572E-02 5.90125E-14 3.78964E-14
 -1      2373 2.00434E+01 3.77703E-02-4.00564E-04-6.60344E-02-9.23033E-14 1.22847E-13
 -1      2374 2.00251E+01 1.87936E-02 5.69459E-04-3.14499E-02-4.12938E-14 7.04574E-14
 -1      2375 2.00175E+01 1.56644E-02 5.57516E-05-2.46088E-02-7.20850E-14 1.95436E-13
 -1      2376 2.00278E+01 2.73873E-02-3.16751E-04-4.27624E-02 7.00242E-14 2.78582E-13
 -1      2377 2.00132E+01 1.32264E-02 4.10406E-04-1.79949E-02-2.27452E-14 3.14340E-13
 -1      2378 2.00084E+01 1.08747E-02 4.72855E-05-1.31645E-02 1.44144E-13 3.25147E-13
 -1      2379 2.00168E+01 1.94374E-02-2.45522E-04-2.58044E-02 9.05997E-14 5.16530E-13
 -1      2380 2.00056E+01 9.04172E-03 2.88482E-04-8.53065E-03 1.44487E-13 4.16349E-13
 -1      2381 2.00027E+01 7.29158E-03 3.79735E-05-5.22073E-03 2.12564E-13 4.02024E-13
 -1      2382 2.00093E+01 1.34316E-02-1.86267E-04-1.37156E-02 2.04740E-13 3.23828E-13
 -1      2383 2.00009E+01 5.92031E-03 1.96674E-04-2.08420E-03 3.18307E-13 3.87190E-13
 -1      2384 1.99995E+01 4.61785E-03 2.76876E-05 8.19404E-05 3.71712E-13 3.36479E-13
 -1      2385 2.00044E+01 8.93603E-03-1.37784E-04-5.33794E-03 2.07764E-13 2.04173E-13
 -1      2386 1.99985E+01 3.58137E-03 1.29073E-04 2.08892E-03 1.80517E-13 3.46903E-13
 -1      2387 1.99980E+01 2.58949E-03 1.57398E-05 3.38819E-03 2.34603E-13 3.39892E-13
 -1      2388 2.00014E+01 5.56884E-03-9.88160E-05 2.29225E-04 3.25433E-13 2.94431E-13
 -1      2389 1.99975E+01 1.77145E-03 8.07701E-05 4.53075E-03 3.61218E-13 2.03792E-13
 -1      2390 1.99976E+01 9.71147E-04 4.36248E-06 5.14914E-03 1.13627E-13 3.26803E-13
 -1      2391 1.99998E+01 2.98783E-03-6.85616E-05 3.66164E-03 1.59360E-13 3.42954E-13
 -1      2392 1.99974E+01 2.46791E-04 4.20413E-05 5.61173E-03-1.10870E-13 3.42382E-13
 -1      2393 1.99978E+01-4.35850E-04-1.17868E-06 5.65065E-03-1.02184E-13 3.29256E-13
 -1      2394 1.99990E+01 9.05061E-04-4.36907E-05 5.43515E-03 5.22981E-14-1.87321E-14
 -1      2395 2.07270E+01 1.51853E-01 4.22139E-03-6.50978E-01 9.00571E-14 9.76498E-15
 -1      2396 2.06180E+01 1.87469E-01 7.68294E-03-5.68732E-01 1.19925E-13 3.94333E-14
 -1      2397 2.09614E+01 8.51846E-02 2.13230E-03-7.85223E-01 6.57856E-14-8.71417E-15
 -1      2398 2.08070E+01 1.19845E-01 4.72445E-03-7.35271E-01 6.13368E-14 1.01396E-14
 -1      2399 2.07286E+01 1.90780E-01-5.15514E-03-7.85612E-01 1.03167E-13 7.43980E-16
 -1      2400 2.12590E+01 5.48326E-03-6.44689E-04-8.46897E-01 8.98336E-14 1.77703E-14
 -1      2401 2.10793E+01 4.91864E-02 3.13649E-03-8.31808E-01 7.44742E-14 1.29085E-15
 -1      2402 2.09247E+01 9.20677E-02-4.55724E-03-9.32788E-01 7.23039E-14 1.80256E-14
 -1      2403 2.15944E+01-1.02646E-01-4.36649E-03-8.19523E-01 8.74065E-14 4.87956E-14
 -1      2404 2.14096E+01-4.25525E-02 2.33770E-03-8.49271E-01 7.97192E-14 4.10660E-14
 -1      2405 2.11891E+01-2.92468E-02-4.14054E-03-9.93286E-01 7.60213E-14 2.01872E-14
 -1      2406 2.19389E+01-2.46542E-01-8.88321E-03-6.75043E-01-3.41754E-14 1.24182E-13
 -1      2407 2.17725E+01-1.67670E-01 1.92945E-03-7.63744E-01 6.58354E-14 1.10889E-13
 -1      2408 2.15105E+01-1.92188E-01-3.84891E-03-9.46264E-01 3.31035E-14 9.31004E-14
 -1      2409 2.22569E+01-4.16298E-01-1.33390E-02-3.84034E-01 3.06448E-14 1.38897E-14
 -1      2410 2.21361E+01-3.26747E-01 1.46546E-03-5.43640E-01-1.89406E-14 9.39591E-14
 -1      2411 2.18756E+01-4.01374E-01-3.26218E-03-7.58851E-01 1.23916E-14 8.13878E-14
 -1      2412 2.25007E+01-5.70799E-01-1.57538E-02 6.45796E-02 6.94904E-14-4.05725E-14
 -1      2413 2.24551E+01-4.96847E-01 3.40102E-04-1.64463E-01 5.95665E-14-1.19783E-14
 -1      2414 2.22607E+01-6.33157E-01-1.57733E-03-3.98423E-01 6.26569E-14 3.82102E-14
 -1      2415 2.26103E+01-6.26997E-01-1.32797E-02 6.30532E-01 1.56905E-13 1.39428E-14
 -1      2416 2.26644E+01-6.16842E-01-2.39699E-03 3.63409E-01 7.83661E-14-2.39727E-14
 -1      2417 2.26183E+01-8.15326E-01 2.50646E-03 1.43134E-01 7.03459E-14 7.46317E-14
 -1      2418 2.25258E+01-4.77722E-01-3.96178E-03 1.18440E+00 5.05243E-14 9.96013E-14
 -1      2419 2.26848E+01-5.86190E-01-7.28510E-03 9.53984E-01 1.29120E-13 5.26389E-14
 -1      2420 2.28655E+01-8.22760E-01 8.62045E-03 8.06573E-01 7.06514E-14 1.93917E-13
 -1      2421 2.22277E+01-6.30489E-02 9.83791E-03 1.50161E+00-1.63273E-14 1.08237E-13
 -1      2422 2.24604E+01-3.07329E-01-1.31005E-02 1.41687E+00 1.54468E-14 1.46786E-13
 -1      2423 2.29003E+01-5.19368E-01 1.32643E-02 1.41884E+00 3.40711E-14 1.64787E-13
 -1      2424 2.17969E+01 5.22982E-01 1.96908E-02 1.34229E+00-1.89432E-14 1.12777E-13
 -1      2425 2.20293E+01 2.18174E-01-1.48404E-02 1.49477E+00-4.84750E-14 1.09765E-13
 -1      2426 2.26697E+01 1.22206E-01 9.19859E-03 1.69462E+00-8.60466E-15 1.46834E-13
 -1      2427 2.14410E+01 9.98288E-01 1.67285E-02 6.32453E-01 9.31512E-14 1.34918E-13
 -1      2428 2.15764E+01 7.95351E-01-7.84632E-03 1.01287E+00 5.59067E-14 1.52052E-13
 -1      2429 2.22756E+01 9.04936E-01-3.85768E-03 1.36242E+00-1.48445E-14 1.99272E-13
 -1      2430 2.13920E+01 1.06537E+00 3.03007E-03-3.79557E-01 1.64834E-13 3.42718E-14
 -1      2431 2.13672E+01 1.09461E+00 7.82987E-03 7.93048E-02 1.69200E-13 1.16450E-13
 -1      2432 2.19878E+01 1.41238E+00-1.87841E-02 4.16033E-01 1.50298E-13 1.98613E-13
 -1      2433 2.17070E+01 6.82542E-01-1.04289E-02-1.24122E+00 7.84355E-14-2.83246E-14
 -1      2434 2.15274E+01 9.22845E-01 1.94692E-02-9.03317E-01 1.20558E-13 2.53140E-15
 -1      2435 2.20427E+01 1.34472E+00-1.62476E-02-7.50033E-01 1.57357E-13 7.96335E-14
 -1      2436 2.22107E+01 9.78836E-02-1.37556E-02-1.60259E+00-8.93742E-14-4.11268E-14
 -1      2437 2.19508E+01 3.96472E-01 1.85105E-02-1.50324E+00 2.95788E-14-4.65925E-14
 -1      2438 2.24044E+01 7.43939E-01-7.18255E-04-1.58395E+00 2.38060E-14 1.19554E-14
 -1      2439 2.26426E+01-3.76216E-01-9.44270E-03-1.43065E+00 2.49765E-14-2.12628E-13
 -1      2440 2.23966E+01-1.65540E-01 6.58158E-03-1.54887E+00-5.31204E-14-1.43051E-13
 -1      2441 2.28057E+01-2.82827E-02 1.19879E-02-1.77502E+00 1.10369E-14-9.83889E-14
 -1      2442 2.28498E+01-5.91880E-01-3.69385E-03-9.33299E-01 1.67316E-13-3.00654E-13
 -1      2443 2.26848E+01-5.17981E-01-6.80485E-03-1.16820E+00 6.52837E-14-2.92006E-13
 -1      2444 2.30054E+01-5.98955E-01 1.28446E-02-1.41068E+00 1.09581E-13-3.46707E-13
 -1      2445 2.28217E+01-5.78536E-01 5.26138E-05-3.60192E-01 8.46007E-14-2.01523E-13
 -1      2446 2.27614E+01-6.09548E-01-1.44334E-02-6.09953E-01 1.96855E-13-2.34139E-13
 -1      2447 2.29437E+01-8.22190E-01 6.29189E-03-7.81825E-01 1.20334E-13-2.94706E-13
 -1      2448 2.26255E+01-4.41006E-01 1.78923E-03 1.22955E-01-8.22901E-14-2.16153E-13
 -1      2449 2.26592E+01-5.20847E-01-1.52978E-02-7.94735E-02-4.07998E-14-1.71883E-13
 -1      2450 2.26936E+01-7.61019E-01 5.29165E-04-1.52905E-01 7.68309E-15-7.73014E-14
 -1      2451 2.23370E+01-2.73105E-01 2.04919E-03 4.52644E-01-1.03499E-13-1.69410E-13
 -1      2452 2.24391E+01-3.58627E-01-1.21761E-02 3.18782E-01-1.07467E-13-1.80703E-13
 -1      2453 2.23557E+01-5.59024E-01-2.40221E-03 3.33514E-01-1.00883E-13-1.40057E-13
 -1      2454 2.20133E+01-1.27495E-01 1.75303E-03 6.32336E-01-1.04561E-13-1.16805E-13
 -1      2455 2.21559E+01-1.97161E-01-7.85004E-03 5.62708E-01-1.22314E-13-1.88110E-13
 -1      2456 2.20016E+01-3.32491E-01-3.20322E-03 6.41061E-01-7.80368E-14-1.40545E-13
 -1      2457 2.16901E+01-2.25750E-02 1.37158E-03 6.94864E-01 2.55752E-15 1.52919E-14
 -1      2458 2.18500E+01-7.05353E-02-3.86904E-03 6.74258E-01-2.30250E-14-1.23640E-14
 -1      2459 2.16683E+01-1.43168E-01-2.99322E-03 7.90852E-01-1.04051E-13-1.07389E-13
 -1      2460 2.13878E+01 4.26622E-02 1.08405E-03 6.78590E-01 1.77538E-14 2.14035E-14
 -1      2461 2.15479E+01 1.42203E-02-8.52092E-04 6.90255E-01 4.32850E-14-7.26285E-15
 -1      2462 2.13700E+01-1.00699E-02-2.51866E-03 8.24238E-01 3.32217E-14-7.46774E-14
 -1      2463 2.11168E+01 7.68341E-02 9.02592E-04 6.16404E-01 1.03223E-13 1.19331E-13
 -1      2464 2.12662E+01 6.30138E-02 1.13287E-03 6.46307E-01 3.47672E-14 1.43442E-13
 -1      2465 2.11099E+01 7.06999E-02-2.09074E-03 7.82564E-01 1.20080E-14-5.03661E-14
 -1      2466 2.08816E+01 8.96761E-02 7.90666E-04 5.32514E-01-3.86084E-16 2.41088E-13
 -1      2467 2.10142E+01 8.55732E-02 2.25247E-03 5.70505E-01 7.75083E-14 1.96037E-13
 -1      2468 2.08870E+01 1.11447E-01-1.77742E-03 6.99169E-01 1.13874E-14 7.59412E-14
 -1      2469 2.06827E+01 8.93373E-02 7.11228E-04 4.42942E-01 7.59783E-14 4.12712E-14
 -1      2470 2.07961E+01 9.10476E-02 2.73860E-03 4.82430E-01 1.49772E-13 2.41548E-13
 -1      2471 2.06987E+01 1.25143E-01-1.55568E-03 5.97840E-01 5.98126E-14 1.60096E-13
 -1      2472 2.05185E+01 8.17395E-02 6.41963E-04 3.57294E-01-3.82961E-14-3.02374E-13
 -1      2473 2.06124E+01 8.65089E-02 2.80703E-03 3.94427E-01-5.26937E-14-8.44300E-14
 -1      2474 2.05419E+01 1.22376E-01-1.38422E-03 4.94005E-01 1.66566E-13 1.07859E-13
 -1      2475 2.03857E+01 7.08157E-02 5.73212E-04 2.80644E-01-1.30115E-13-2.59468E-14
 -1      2476 2.04614E+01 7.68548E-02 2.62748E-03 3.13470E-01-1.33790E-13-1.07284E-13
 -1      2477 2.04133E+01 1.10736E-01-1.23252E-03 3.96742E-01-1.11973E-13-5.64357E-14
 -1      2478 2.02806E+01 5.89954E-02 5.03048E-04 2.15092E-01-1.75858E-14 6.82819E-14
 -1      2479 2.03402E+01 6.52229E-02 2.32060E-03 2.42888E-01-8.16534E-14 4.98773E-14
 -1      2480 2.03095E+01 9.52172E-02-1.08612E-03 3.10695E-01-1.44526E-13 9.95622E-14
 -1      2481 2.01990E+01 4.76663E-02 4.33049E-04 1.60917E-01 1.07693E-13 1.24377E-13
 -1      2482 2.02448E+01 5.34823E-02 1.96604E-03 1.83691E-01 6.50473E-14 1.15771E-13
 -1      2483 2.02272E+01 7.88757E-02-9.41640E-04 2.37613E-01-1.44617E-14 1.16420E-13
 -1      2484 2.01369E+01 3.75354E-02 3.65762E-04 1.17369E-01 1.64480E-13 2.39271E-14
 -1      2485 2.01714E+01 4.26503E-02 1.61258E-03 1.35533E-01 1.91778E-13 1.55325E-13
 -1      2486 2.01630E+01 6.34347E-02-8.01254E-04 1.77472E-01 1.77797E-13 7.83596E-14
 -1      2487 2.00907E+01 2.88859E-02 3.03448E-04 8.31918E-02 4.35655E-14 8.80156E-15
 -1      2488 2.01160E+01 3.32003E-02 1.28740E-03 9.73412E-02 8.04792E-14-7.78464E-16
 -1      2489 2.01139E+01 4.97500E-02-6.68791E-04 1.29260E-01 1.15628E-13 4.50787E-14
 -1      2490 2.00572E+01 2.17508E-02 2.47620E-04 5.69510E-02-5.38554E-14-1.12925E-13
 -1      2491 2.00752E+01 2.52757E-02 1.00340E-03 6.77355E-02 4.65090E-15-3.58250E-15
 -1      2492 2.00771E+01 3.81407E-02-5.47707E-04 9.14903E-02 1.33148E-13-3.01267E-15
 -1      2493 2.00335E+01 1.60254E-02 1.98963E-04 3.72247E-02 8.11356E-14-2.16818E-13
 -1      2494 2.00460E+01 1.88307E-02 7.64497E-04 4.52713E-02 1.02122E-13-1.02060E-13
 -1      2495 2.00500E+01 2.86117E-02-4.40259E-04 6.25246E-02 1.10144E-13-1.52081E-13
 -1      2496 2.00173E+01 1.15374E-02 1.57420E-04 2.27108E-02-1.36535E-14-3.98639E-13
 -1      2497 2.00256E+01 1.37203E-02 5.69374E-04 2.85843E-02-6.05338E-14-3.40409E-13
 -1      2498 2.00307E+01 2.09967E-02-3.47393E-04 4.07677E-02 8.17794E-14-1.88232E-13
 -1      2499 2.00068E+01 8.08904E-03 1.22317E-04 1.22788E-02-3.18562E-14-3.20355E-13
 -1      2500 2.00119E+01 9.75532E-03 4.13883E-04 1.64627E-02-5.72295E-15-5.27624E-13
 -1      2501 2.00173E+01 1.50477E-02-2.68962E-04 2.47714E-02 7.40413E-15-3.38619E-13
 -1      2502 2.00004E+01 5.48049E-03 9.25447E-05 4.98689E-03-1.12389E-13-6.59414E-14
 -1      2503 2.00033E+01 6.73421E-03 2.92618E-04 7.87877E-03-4.97103E-14-1.71482E-13
 -1      2504 2.00084E+01 1.04882E-02-2.04007E-04 1.32853E-02-1.82512E-13-2.39512E-13
 -1      2505 1.99971E+01 3.52240E-03 6.67366E-05 8.16531E-05 2.09685E-13-2.07718E-13
 -1      2506 1.99984E+01 4.46085E-03 1.99835E-04 1.99512E-03 2.12028E-14-7.42197E-14
 -1      2507 2.00028E+01 7.04251E-03-1.51006E-04 5.27322E-03 4.26015E-14-2.24588E-13
 -1      2508 1.99957E+01 2.03881E-03 4.31478E-05-3.01387E-03 1.45046E-13 4.29709E-14
 -1      2509 1.99960E+01 2.75242E-03 1.30041E-04-1.84377E-03 1.49280E-13-1.01433E-13
 -1      2510 1.99996E+01 4.45121E-03-1.08356E-04-8.99833E-05 2.00730E-15-3.17018E-13
 -1      2511 1.99957E+01 8.64759E-04 2.24343E-05-4.71184E-03 3.03877E-13 1.33676E-13
 -1      2512 1.99953E+01 1.43724E-03 7.85276E-05-4.12501E-03 2.64930E-13 2.58457E-13
 -1      2513 1.99980E+01 2.47179E-03-7.47387E-05-3.43488E-03 1.63056E-13 1.56216E-14
 -1      2514 1.99965E+01-1.70415E-04 2.00689E-06-5.27899E-03 1.26560E-13 1.86005E-13
 -1      2515 1.99957E+01 3.41912E-04 3.88423E-05-5.18684E-03 2.65399E-13 2.17050E-13
 -1      2516 1.99976E+01 8.89417E-04-4.65532E-05-5.21205E-03 1.60946E-13 2.24989E-13
 -1      2517 1.99976E+01-1.18221E-03-1.88070E-05-4.85079E-03-2.37280E-13 3.40713E-13
 -1      2518 1.99967E+01-6.58758E-04 1.90660E-05-5.19610E-03-8.22674E-14 2.54375E-13
 -1      2519 1.99979E+01-5.78499E-04-2.81759E-05-5.73687E-03-1.06304E-14 5.48653E-13
 -1      2520 1.99980E+01-1.70635E-03 2.78139E-06-4.24086E-03-2.41354E-13 3.33662E-13
 -1      2521 2.00014E+01-4.39443E-03 1.35966E-06-3.30669E-03-1.07294E-13-2.26070E-13
 -1      2522 2.00013E+01-3.98809E-03 1.97812E-05-3.83437E-03-1.08208E-13-4.36215E-13
 -1      2523 2.00015E+01-4.58186E-03 2.51508E-06-2.12438E-03-1.16556E-13-4.53454E-13
 -1      2524 2.00015E+01-4.30798E-03 2.19761E-05-2.70059E-03-1.43479E-13-2.47598E-13
 -1      2525 2.00019E+01-1.86326E-03 5.58092E-06-3.11458E-03-4.33905E-15-2.98031E-13
 -1      2526 2.00004E+01-3.41892E-03 8.87166E-06-5.14150E-03-7.25296E-14 2.27804E-13
 -1      2527 1.99999E+01-2.77610E-03-1.24043E-05-5.28178E-03-1.20171E-13 2.60700E-13
 -1      2528 2.00011E+01-4.02127E-03 3.18891E-06-4.37610E-03-2.76543E-13-3.88354E-13
 -1      2529 2.00008E+01-3.49756E-03 1.12157E-05-4.76372E-03-1.59113E-13 1.47675E-14
 -1      2530 2.00009E+01-1.97702E-03-2.89485E-06-5.23858E-03-1.72093E-13-3.47020E-14
 -1      2531 2.00016E+01-1.99426E-03-8.97074E-07-4.29346E-03-1.39865E-13-3.15945E-13
 -1      2532 2.00015E+01-4.64359E-03 7.18754E-06-9.28275E-04-3.14733E-13-3.99417E-13
 -1      2533 2.00015E+01-4.50413E-03 1.89936E-05-1.51397E-03-1.21288E-13-5.18631E-13
 -1      2534 2.00020E+01-1.70053E-03 1.15275E-05-1.87500E-03-1.23528E-13-5.70120E-13
 -1      2535 2.00015E+01-4.62471E-03 1.37220E-05 2.62852E-04-2.11636E-13-1.72421E-13
 -1      2536 2.00015E+01-4.61905E-03 1.28878E-05-3.25303E-04-2.21280E-13-1.46902E-13
 -1      2537 2.00021E+01-1.60151E-03 1.49164E-05-6.47641E-04-9.69285E-14-2.26419E-13
 -1      2538 2.00015E+01-4.53813E-03 1.99326E-05 1.46413E-03-2.63651E-15-2.52238E-13
 -1      2539 2.00015E+01-4.66694E-03 6.65489E-06 8.70713E-04-1.13607E-13-2.02312E-13
 -1      2540 2.00021E+01-1.61861E-03 1.44641E-05 5.74925E-04 1.02315E-13-1.59693E-13
 -1      2541 2.00015E+01-4.36593E-03 2.28408E-05 2.65627E-03 2.43455E-13-9.87639E-14
 -1      2542 2.00015E+01-4.62916E-03 2.24409E-06 2.07746E-03 1.56265E-13-3.33071E-13
 -1      2543 2.00021E+01-1.74550E-03 1.17837E-05 1.81065E-03 2.61330E-13-1.10483E-13
 -1      2544 2.00013E+01-4.05991E-03 1.91469E-05 3.82552E-03 2.29361E-13 6.12789E-13
 -1      2545 2.00014E+01-4.46090E-03 1.46479E-06 3.28177E-03 2.05662E-13 1.86105E-13
 -1      2546 2.00020E+01-1.92930E-03 5.20734E-06 3.07330E-03 3.96653E-13-2.52180E-14
 -1      2547 2.00009E+01-3.57366E-03 4.46878E-06 4.79880E-03 2.17654E-13 2.05614E-13
 -1      2548 2.00011E+01-4.08917E-03 6.22991E-06 4.38834E-03 2.77294E-14 7.99765E-13
 -1      2549 2.00017E+01-2.05735E-03 3.70519E-06 4.30765E-03 1.51617E-13 4.92882E-13
 -1      2550 1.99999E+01-2.83557E-03-9.21870E-06 5.31003E-03-1.43748E-13-1.29782E-13
 -1      2551 2.00004E+01-3.46415E-03 7.28051E-06 5.18529E-03 3.88186E-14-3.31616E-13
 -1      2552 2.00009E+01-2.04213E-03-1.02323E-05 5.27696E-03-2.61082E-14-1.73758E-13
 -1      2553 1.89905E+01-5.30790E+00 8.91347E-03 6.50129E+00-1.73334E-13 4.11875E-13
 -1      2554 1.53810E+01-5.10295E+00 1.08642E-01 6.67478E+00-1.21680E-13 3.34503E-13
 -1      2555 1.99987E+01-2.49597E-03 8.47952E-06 4.85334E-03-1.66385E-13 4.27844E-13
 -1      2556 2.98389E+00-3.01942E+00 6.69600E-02-6.31116E-01 1.14362E-14 4.95770E-13
 -1      2557 4.20053E+00-2.95588E+00 4.04026E-02-3.03350E+00-1.70558E-14 3.67539E-13
 -1      2558 2.05826E+01 2.26441E-01 6.06326E-03-4.43760E-01 1.33894E-13 3.45746E-14
 -1      2559 2.05421E+01 2.77107E-01 1.28664E-02-3.21174E-01 1.50212E-13 6.05800E-14
 -1      2560 2.06144E+01 2.94557E-01-5.62540E-03-5.54825E-01 1.30462E-13-9.86407E-15
 -1      2561 4.07379E+00-3.04533E+00 6.39386E-02 3.16007E+00-1.72917E-13 4.81615E-13
 -1      2562 2.95763E+00-3.05813E+00 6.11088E-02 1.12516E+00-9.16038E-14 4.59410E-13
 -1      2563 4.74469E+00-1.68967E+00 1.59284E-01 1.49033E-01-2.19946E-14 4.53637E-13
 -1      2564 2.45740E+01-4.67313E+00-4.87765E-02 4.32527E+00-1.34309E-13 3.21410E-14
 -1      2565 2.16892E+01-5.39096E+00 1.05714E-04 5.41877E+00-2.60236E-13 2.64622E-13
 -1      2566 2.09099E+01-5.31074E+00 7.42541E-02 5.52423E+00-2.02505E-13 2.39893E-13
 -1      2567 3.19766E+01 3.86903E+00-1.25380E-01-8.93074E-01 3.56853E-13-3.37896E-13
 -1      2568 3.11870E+01 2.12389E+00-5.76099E-02-6.78664E-01 2.25653E-13-3.29015E-13
 -1      2569 2.02623E+01-5.59321E+00 3.44256E-03-5.74941E+00-4.20219E-14-1.50324E-13
 -1      2570 2.36699E+01-5.03402E+00-2.48704E-02-5.06984E+00-4.78229E-14-1.59095E-13
 -1      2571 3.14548E+01 4.17686E-01-1.38642E-01-2.23778E-01-4.76341E-13 2.20574E-13
 -1      2572 2.99163E+01-1.64881E+00-5.15654E-02 7.15372E-01-2.90769E-13 1.69087E-13
 -1      2573 5.66820E+00-3.60173E+00 8.25914E-02-4.46308E+00-1.17933E-13-7.90923E-13
 -1      2574 8.46960E+00-4.18760E+00 5.41175E-02-6.19336E+00-8.56260E-14-6.33327E-13
 -1      2575 2.08492E+01 2.00334E+00-1.16497E-02-1.52851E+00-2.83613E-13 2.72195E-14
 -1      2576 2.07870E+01 1.28845E+00-3.53664E-03-8.86526E-01-2.52098E-13 4.00625E-14
 -1      2577 2.06856E+01 1.48701E+00 7.31132E-04-7.69471E-01-2.45411E-13-4.72127E-14
 -1      2578 2.05272E+01 2.43517E+00-1.08164E-02-1.43169E+00-2.72468E-13-7.07247E-14
 -1      2579 1.90741E+01 3.94217E+00-9.40656E-03-1.66243E-01-2.53668E-14-3.44611E-13
 -1      2580 1.91194E+01 3.91488E+00-8.12770E-03-2.90888E-01-6.26106E-14-3.35056E-13
 -1      2581 1.92719E+01 3.57378E+00 1.54953E-03-2.92553E-01-7.57783E-14-3.03507E-13
 -1      2582 1.91764E+01 3.65492E+00 1.33348E-03-1.04783E-01-2.31476E-14-3.22222E-13
 -1      2583 3.21941E+01 4.16899E+00-8.79162E-02 6.77560E-01 6.16923E-13 7.22755E-14
 -1      2584 3.28420E+01 5.75623E+00-1.12833E-01 6.79973E-01 7.49956E-13 2.58127E-14
 -1      2585 3.18965E+01 6.60017E+00-1.88461E-01-8.65667E-01 6.88338E-13-2.59404E-13
 -1      2586 3.20811E+01 5.46744E+00-1.15881E-01-1.05424E+00 4.86389E-13-3.00177E-13
 -1      2587 3.02661E+01 4.24994E+00-5.70958E-02-1.67323E+00 3.62071E-13-3.21465E-13
 -1      2588 1.91916E+01-5.49484E+00 1.41080E-02-6.27550E+00 3.65818E-14-2.82691E-13
 -1      2589 2.27187E+01-5.04079E+00-8.71532E-02-5.64577E+00 2.60902E-14-3.21479E-13
 -1      2590 3.05155E+01 1.01767E-01-4.87561E-02-4.08422E-01 3.66471E-13 1.06026E-13
 -1      2591 3.15469E+01 1.81525E+00-1.29461E-01 2.29488E-01 4.83516E-13 7.34968E-14
 -1      2592 1.23765E+01-5.13131E+00 5.01279E-03 6.87333E+00-3.73035E-14-5.91555E-13
 -1      2593 9.11949E+00-4.65836E+00 4.38233E-02 6.08306E+00 5.07372E-14-5.81007E-13
 -1      2594 1.16709E+01-5.23583E+00 1.61446E-02-6.74830E+00-5.51781E-14-4.67806E-13
 -1      2595 1.54357E+01-5.36295E+00-1.40909E-02-7.13307E+00 2.20934E-14-3.01162E-13
 -1      2596 3.03029E+00-2.89104E+00 8.56864E-02-3.89550E-01-3.51108E-14-9.37861E-13
 -1      2597 3.46578E+00-3.21628E+00 4.91787E-02-2.55932E+00 1.66533E-16-9.64118E-13
 -1      2598 3.33327E+01 6.39479E+00-7.93151E-02 8.58713E-01-6.53144E-13 6.80012E-14
 -1      2599 3.29098E+01 7.27055E+00-1.26353E-01 4.63593E-01-8.23563E-13-3.07740E-14
 -1      2600 1.98491E+01-5.72258E+00-1.06858E-01 6.31004E+00-2.91434E-14-2.24133E-13
 -1      2601 1.60603E+01-5.63403E+00 4.78963E-02 6.58958E+00-7.71605E-15-4.54976E-13
 -1      2602 1.56544E+01-5.04383E+00 1.14695E-01 6.59082E+00 1.58040E-13-4.21413E-13
 -1      2603 2.77855E+01-3.88166E+00-1.21811E-01 2.79380E+00-1.63147E-13 1.42442E-13
 -1      2604 2.43765E+01-5.09126E+00 6.22602E-02 4.27006E+00-7.24976E-14 3.27793E-14
 -1      2605 3.21488E+01 4.30537E+00-1.81603E-01-1.19688E+00-8.00443E-13 1.56375E-13
 -1      2606 3.15595E+01 2.63866E+00-1.44977E-01-1.23235E+00-6.71158E-13 1.77608E-13
 -1      2607 3.22516E+01 7.00971E+00-1.82710E-01-3.78194E-01-8.60534E-13 3.05311E-16
 -1      2608 3.22886E+01 6.02102E+00-1.50710E-01-1.01874E+00-9.03666E-13 6.56974E-14
 -1      2609 3.00607E+01 4.93607E+00 2.29380E-03-1.92692E+00-7.06268E-13 2.48038E-13
 -1      2610 3.25203E+01 3.17575E+00-1.02735E-01 9.12497E-01-2.56045E-13 1.40776E-13
 -1      2611 3.30990E+01 4.81598E+00-1.38509E-01 1.09693E+00-4.42368E-13 1.00198E-13
 -1      2612 3.05101E+01-7.04525E-01-4.99991E-02-3.09068E-01-9.67143E-14 1.23512E-13
 -1      2613 3.21858E+01 1.22886E+00-8.57048E-02 2.73225E-01-1.38570E-13 1.89015E-13
 -1      2614 3.09259E+01 1.81598E+00-2.80363E-02 1.69514E+00-1.25816E-13-1.01030E-14
 -1      2615 2.62121E+01-4.24627E+00-2.13626E-02-3.48439E+00-2.54241E-14 6.53921E-14
 -1      2616 2.87596E+01-3.02823E+00-1.13664E-01-2.18413E+00 1.67921E-15 2.02421E-13
 -1      2617 2.56245E+01-4.95264E+00 6.37628E-02-3.47864E+00 4.79894E-14 4.74065E-14
 -1      2618 1.35669E+01-5.20661E+00 5.21794E-02-6.56528E+00 1.21125E-13 2.27041E-14
 -1      2619 1.67252E+01-5.39725E+00 1.00880E-02-6.71985E+00 6.52256E-14-2.07487E-13
 -1      2620 7.11122E+00-3.61641E+00 1.15934E-01-5.00223E+00 4.68514E-14 2.54741E-13
 -1      2621 1.00830E+01-4.42696E+00 3.38071E-02-6.35568E+00 1.40110E-13 2.82968E-13
 -1      2622 1.32620E+01-4.16373E+00 1.36566E-01-6.28027E+00 1.69392E-13 1.32339E-13
 -1      2623 2.09057E+01 8.98151E-01-4.27092E-03 9.14780E-01 2.56049E-13 1.68643E-13
 -1      2624 2.11875E+01 1.26529E+00-5.01072E-03 1.42791E+00 2.87683E-13 2.05932E-13
 -1      2625 2.09754E+01 1.72805E+00-1.57857E-02 1.59319E+00 3.14932E-13 1.12051E-13
 -1      2626 2.08337E+01 1.10432E+00-1.00226E-02 8.63072E-01 2.60330E-13 5.63389E-14
 -1      2627 3.11100E+01 6.26990E+00-9.84324E-02 1.00418E+00 7.42018E-13 5.39568E-14
 -1      2628 1.97691E+01 3.09812E+00 2.30934E-03-7.14284E-01-1.89898E-13-2.71975E-13
 -1      2629 1.97081E+01 3.37240E+00-1.61888E-02-9.17123E-01-2.08072E-13-2.87899E-13
 -1      2630 1.98951E+01 3.20782E+00-1.52078E-02-1.08658E+00-2.35372E-13-2.41270E-13
 -1      2631 2.05970E+01 4.44282E-01-5.26091E-03-2.21431E-01 1.87855E-13-2.70122E-14
 -1      2632 2.07086E+01 2.14999E+00-1.27042E-02 1.52122E+00 3.10388E-13-8.81586E-15
 -1      2633 7.21512E+00-2.39724E+00 1.54906E-01-3.95194E+00 7.93809E-14 2.98261E-13
 -1      2634 2.94387E+01-2.26501E+00-5.52685E-03-3.82044E-01-9.02750E-15 1.42886E-13
 -1      2635 3.04801E+01 6.87423E+00-1.73960E-02-9.10643E-02-8.41605E-13 8.39606E-16
 -1      2636 2.91912E+01-1.68387E+00-1.72962E-02-4.64314E-01 1.73981E-13 1.93179E-13
 -1      2637 2.73717E+01-3.42360E+00-9.38032E-02 1.04879E+00-8.28270E-14-3.68261E-13
 -1      2638 2.65121E+01-4.26193E+00-2.58431E-02 2.79517E+00-1.15297E-13-1.39722E-13
 -1      2639 2.49477E+01-4.81466E+00 5.36857E-02 3.25885E+00-1.82673E-13-1.62072E-13
 -1      2640 1.42202E+01-4.40277E+00 1.33419E-01 6.64121E+00-1.28980E-13 3.37980E-13
 -1      2641 3.11423E+01 5.13035E+00-6.06156E-02 1.69748E+00-5.19279E-13 5.62050E-15
 -1      2642 1.99985E+01-1.90790E-03-1.78440E-05-5.06088E-03-3.06092E-13 2.62981E-13
 -1      2643 1.99990E+01-2.35478E-03 1.18815E-05-5.27657E-03-2.27333E-13 2.70743E-13
 -1      2644 2.30630E+01-5.43031E+00 5.37752E-02 4.76432E+00 8.74578E-14 6.56766E-14
 -1      2645 2.97594E+01 1.29526E-01-7.53287E-02-6.93135E-01 1.54696E-13-3.89022E-13
 -1      2646 1.99983E+01-1.45835E-03-1.51415E-05 5.23717E-03-8.58003E-14 4.03367E-13
 -1      2647 1.99993E+01-2.47771E-03-8.34209E-06 5.51524E-03-8.29600E-14 6.92962E-14
 -1      2648 1.99997E+01-1.55696E-03 1.43151E-05 5.77860E-03-1.87647E-13 3.46806E-14
 -1      2649 1.99978E+01-9.10986E-04 1.28541E-05 5.62934E-03-3.93773E-14 3.44658E-13
 -1      2650 2.06988E+01 1.87924E+00 1.19562E-02 1.17221E+00 2.87784E-13-3.13933E-14
 -1      2651 6.45703E+00-2.87593E+00 1.38941E-01 4.40911E+00-1.87211E-13 4.97463E-13
 -1      2652 6.78913E+00-1.53839E+00 1.84711E-01 3.33936E+00-1.95288E-13 4.92578E-13
 -1      2653 8.92908E+00-2.73545E+00 2.55030E-02 5.32615E+00-2.22863E-13 3.46972E-13
 -1      2654 4.02196E+00-2.48345E+00 1.18158E-01 9.97568E-01 2.89282E-14-8.81573E-13
 -1      2655 5.30485E+00-1.36923E+00 1.48138E-01-9.05844E-02-2.22617E-14-8.65058E-13
 -1      2656 5.48485E+00-1.87589E+00 1.30058E-01 2.37199E+00 8.93730E-14-7.75713E-13
 -1      2657 2.00771E+01 2.97983E+00-1.70521E-02-1.18533E+00-2.49319E-13-2.11546E-13
 -1      2658 2.03073E+01 2.72420E+00-2.03746E-02-1.35068E+00-2.66574E-13-1.52789E-13
 -1      2659 2.04827E+01 2.18492E+00 4.00859E-03-1.04963E+00-2.60103E-13-1.18792E-13
 -1      2660 2.01205E+01 2.69898E+00 3.99783E-03-9.11289E-01-2.29790E-13-2.03739E-13
 -1      2661 2.52329E+01-4.74752E+00 5.25043E-02-3.90904E+00-8.42659E-14-1.01863E-13
 -1      2662 1.98764E+01-5.44479E+00 8.39080E-02-5.77795E+00 1.20515E-13-1.61595E-13
 -1      2663 1.17591E+01-4.10630E+00 9.71385E-02-6.41326E+00-2.31676E-13-4.73815E-13
 -1      2664 2.86209E+01-3.19656E+00 1.35030E-02 8.49544E-01-6.64954E-14 3.18162E-13
 -1      2665 6.51355E+00-2.32402E+00 1.34917E-01-3.70759E+00-1.34753E-13-8.18456E-13
 -1      2666 3.02739E+01 9.91011E-01-3.34095E-02-1.53566E+00-4.31891E-13 2.85966E-13
 -1      2667 8.21424E+00-3.80631E+00 1.02614E-01 5.47065E+00 9.72555E-14-6.31106E-13
 -1      2668 7.55405E+00-2.50829E+00 1.80594E-01 4.56635E+00 1.52545E-13-6.57002E-13
 -1      2669 1.08243E+01-3.59792E+00 1.49692E-02 5.99896E+00 2.10110E-13-5.87891E-13
 -1      2670 3.11725E+01 6.91549E+00-1.00900E-01-6.21339E-01 7.33302E-13-2.24550E-13
 -1      2671 2.91805E+01 6.04540E+00-1.10846E-01-1.19517E+00 5.89584E-13-2.65503E-13
 -1      2672 2.94766E+01 6.99552E+00-1.83185E-01-3.28613E-01 7.16038E-13-1.68317E-13
 -1      2673 1.85552E+01-5.41435E+00 8.01978E-02-6.48062E+00-1.48631E-13-2.15852E-13
 -1      2674 3.04233E+01 2.56393E+00-5.01099E-02 1.43318E+00 4.71290E-13 1.57513E-13
 -1      2675 1.99993E+01-1.56502E-03-1.53727E-06-5.69203E-03-1.94775E-13 3.50253E-13
 -1      2676 1.99989E+01-7.28433E-04-3.57095E-05 5.90478E-03-1.09598E-13 4.50279E-14
 -1      2677 1.94004E+01 3.19538E+00-4.81672E-03 2.48814E-01 1.01858E-13-2.79554E-13
 -1      2678 1.93152E+01 3.26774E+00-6.86203E-03 1.55156E-01 7.45746E-14-2.89737E-13
 -1      2679 1.92547E+01 3.33347E+00-4.84621E-03 9.49462E-02 5.19436E-14-2.82947E-13
 -1      2680 1.92201E+01 3.36150E+00-6.00795E-03 7.60821E-03 1.66829E-14-2.73285E-13
 -1      2681 1.93678E+01 3.03217E+00 5.31348E-03 7.29776E-02 5.87388E-14-2.61216E-13
 -1      2682 1.99580E+01 2.58894E+00-8.41144E-03 6.09095E-01 2.40286E-13-2.24095E-13
 -1      2683 1.97909E+01 2.77449E+00-8.12400E-03 4.99241E-01 2.09048E-13-2.44193E-13
 -1      2684 2.03366E+01 2.08079E+00-9.80560E-03 7.71596E-01 2.53438E-13-1.70118E-13
 -1      2685 2.01418E+01 2.35510E+00-6.66767E-03 6.81281E-01 2.44595E-13-2.00387E-13
 -1      2686 2.01413E+01 2.15843E+00 6.43511E-03 4.40685E-01 2.26245E-13-1.95788E-13
 -1      2687 2.06212E+01 8.57689E-01-7.54829E-04 1.42886E-01 2.15861E-13-7.21294E-14
 -1      2688 2.07026E+01 1.06310E+00 9.31500E-03 4.45832E-01 2.23624E-13-4.77460E-14
 -1      2689 2.79531E+01-3.41059E+00-2.78067E-03-4.94078E-01 1.29088E-13 5.70655E-14
 -1      2690 2.89212E+01-1.69691E+00-1.76739E-01 9.56030E-01 1.05811E-13 2.88658E-15
 -1      2691 2.05363E+01 8.94448E-01 6.98169E-03 2.41449E-01-1.67280E-13-9.73014E-14
 -1      2692 2.05149E+01 7.72859E-01 1.12803E-05 4.72500E-01-1.36428E-13-8.86981E-14
 -1      2693 2.04990E+01 6.84065E-01 4.94491E-03 6.76570E-01-1.08916E-13-6.43785E-14
 -1      2694 2.05166E+01 6.11218E-01 1.82486E-03 8.58582E-01-8.57209E-14-7.11996E-14
 -1      2695 2.03878E+01 9.07344E-01-1.87548E-03 5.65608E-01-1.21903E-13-8.54816E-14
 -1      2696 2.05068E+01 5.52725E-01 3.15071E-03 1.03051E+00-7.80791E-14-6.12296E-14
 -1      2697 2.05638E+01 4.97939E-01 2.83226E-03 1.17817E+00-5.56753E-14-7.23347E-14
 -1      2698 2.03517E+01 7.25541E-01-2.33156E-03 9.55735E-01-8.79694E-14-8.52113E-14
 -1      2699 2.05711E+01 4.43140E-01 2.31782E-03 1.32641E+00-3.17313E-14-5.93176E-14
 -1      2700 2.06671E+01 3.79993E-01 3.25643E-03 1.44479E+00-2.76108E-14-9.00078E-14
 -1      2701 2.03426E+01 5.86915E-01-2.77858E-03 1.28783E+00-5.94698E-14-8.82151E-14
 -1      2702 2.07055E+01 3.03370E-01 2.89784E-03 1.57184E+00-1.43443E-15-8.38824E-14
 -1      2703 2.08446E+01 2.03738E-01 3.10718E-03 1.65562E+00 1.38298E-14-9.82620E-14
 -1      2704 2.03793E+01 4.30379E-01-4.01048E-03 1.57488E+00-2.47294E-14-1.05148E-13
 -1      2705 2.09382E+01 7.71332E-02 5.41961E-03 1.75544E+00 3.25976E-14-6.25542E-14
 -1      2706 2.11319E+01-9.03875E-02 2.16103E-03 1.78771E+00 3.61866E-14-4.60040E-14
 -1      2707 2.04931E+01 1.90893E-01-6.94058E-03 1.81701E+00 4.09827E-14-7.81972E-14
 -1      2708 2.13216E+01-2.96205E-01 1.06470E-02 1.84151E+00 4.46291E-14-3.08210E-14
 -1      2709 2.15879E+01-5.60751E-01-4.25396E-04 1.79181E+00 4.66467E-14 1.27726E-14
 -1      2710 2.07402E+01-2.03820E-01-1.24684E-02 1.99585E+00 5.59460E-14 5.30825E-16
 -1      2711 2.19349E+01-8.63741E-01 1.89609E-02 1.75864E+00 5.29027E-14 7.27558E-14
 -1      2712 2.22888E+01-1.22870E+00-5.90099E-03 1.58216E+00 8.75923E-14 1.08826E-13
 -1      2713 2.12141E+01-8.21676E-01-2.11068E-02 2.06228E+00 1.08306E-13-5.19550E-15
 -1      2714 2.28580E+01-1.60115E+00 2.82378E-02 1.38827E+00 9.47107E-14 1.18867E-13
 -1      2715 2.32864E+01-1.99318E+00-1.57404E-02 1.03595E+00 8.42004E-14 7.05783E-14
 -1      2716 2.20424E+01-1.67240E+00-3.12035E-02 1.90849E+00 7.93441E-14-4.48686E-15
 -1      2717 2.40959E+01-2.29903E+00 3.11385E-02 5.84181E-01 8.48913E-14 9.55173E-14
 -1      2718 2.45251E+01-2.49380E+00-2.56320E-02 4.29875E-02 6.94774E-14 1.24108E-13
 -1      2719 2.33313E+01-2.58435E+00-3.58852E-02 1.36956E+00 7.67639E-14 5.43125E-14
 -1      2720 2.54371E+01-2.43299E+00 8.04322E-03-7.08782E-01 1.02245E-13 1.89691E-13
 -1      2721 2.57415E+01-2.00661E+00-2.53854E-02-1.32527E+00 5.58035E-14 2.43642E-13
 -1      2722 2.50166E+01-3.04013E+00-3.08999E-02 2.65955E-01 1.16856E-13 1.96374E-13
 -1      2723 2.72873E+01 1.73629E+00-1.37366E-01-2.48047E+00-3.50775E-13 2.95097E-13
 -1      2724 2.70462E+01 3.28172E+00-1.29418E-01-1.94508E+00-4.44353E-13 2.43416E-13
 -1      2725 2.58115E+01 3.93387E+00-1.04759E-01 1.43680E+00-4.17999E-13-2.30208E-13
 -1      2726 2.60760E+01 2.66092E+00-1.58579E-01 2.21252E+00-3.36536E-13-2.64927E-13
 -1      2727 2.62908E+01 1.24094E+00-4.48675E-02 2.56804E+00-1.75339E-13-2.48676E-13
 -1      2728 2.62877E+01-2.18607E-01-1.48322E-01 2.52995E+00-3.79696E-14-3.10656E-13
 -1      2729 2.67289E+01-1.42093E+00-4.33373E-02 1.86515E+00 1.19828E-13-2.05884E-13
 -1      2730 2.64164E+01-2.33728E+00-3.61463E-02 1.23621E+00 1.64013E-13-1.47597E-13
 -1      2731 2.37828E+01-2.20358E+00-1.40456E-02-5.95118E-01 6.75866E-14-7.57450E-14
 -1      2732 2.33395E+01-1.84051E+00 3.27545E-02-1.01118E+00 8.40079E-14-8.00479E-14
 -1      2733 2.26773E+01-1.47025E+00-9.41249E-03-1.27671E+00 4.47546E-14-1.12515E-13
 -1      2734 2.22994E+01-1.07808E+00 2.24600E-02-1.50447E+00 1.71651E-14-9.96184E-14
 -1      2735 2.24609E+01-1.97664E+00-3.79936E-02-1.61504E+00 4.13406E-14-1.02975E-13
 -1      2736 2.18771E+01-7.45272E-01-2.52822E-03-1.57705E+00-3.80078E-14-1.35038E-13
 -1      2737 2.15882E+01-4.47342E-01 1.28038E-02-1.66161E+00-2.45019E-14-1.45539E-13
 -1      2738 2.14818E+01-1.06498E+00-2.55529E-02-1.87109E+00-6.41332E-14-1.67735E-14
 -1      2739 2.13449E+01-2.13511E-01 1.06130E-03-1.63101E+00-3.41741E-16-1.61582E-13
 -1      2740 2.11311E+01-2.29945E-02 6.25462E-03-1.62346E+00-7.27012E-14-1.89872E-13
 -1      2741 2.08907E+01-3.69306E-01-1.49699E-02-1.86065E+00-2.83467E-14-1.07374E-13
 -1      2742 2.10008E+01 1.16492E-01 2.80357E-03-1.54153E+00-1.54378E-14-1.31853E-13
 -1      2743 2.08408E+01 2.19239E-01 2.16967E-03-1.48182E+00 3.82724E-14-9.98560E-14
 -1      2744 2.05618E+01 7.57508E-02-7.60098E-03-1.71882E+00-2.35942E-14-8.85958E-14
 -1      2745 2.07735E+01 2.88857E-01 3.41676E-03-1.37946E+00 4.62576E-14-5.49473E-14
 -1      2746 2.06495E+01 3.32158E-01-2.96662E-05-1.29465E+00 4.55774E-14-6.91719E-14
 -1      2747 2.03861E+01 3.18182E-01-3.43519E-03-1.52019E+00 7.06331E-14-3.99654E-14
 -1      2748 2.06143E+01 3.56650E-01 3.59008E-03-1.18826E+00 6.09289E-14 9.10730E-16
 -1      2749 2.05145E+01 3.63877E-01-1.06725E-03-1.09566E+00 5.29606E-15-2.10561E-14
 -1      2750 2.02912E+01 4.23090E-01-1.30428E-03-1.30434E+00 9.10760E-14 7.34532E-14
 -1      2751 2.04945E+01 3.62163E-01 3.52306E-03-9.94165E-01-3.61599E-14 1.01124E-13
 -1      2752 2.04121E+01 3.49749E-01-1.43722E-03-9.04083E-01-5.20052E-14 1.90238E-13
 -1      2753 2.02355E+01 4.43817E-01-3.69009E-04-1.09252E+00 5.17310E-14 1.82776E-13
 -1      2754 2.03986E+01 3.34523E-01 3.30521E-03-8.12171E-01-1.48728E-14 2.41908E-13
 -1      2755 2.03301E+01 3.12965E-01-1.45661E-03-7.30182E-01 3.40967E-14 2.29746E-13
 -1      2756 2.01976E+01 4.18024E-01-5.32050E-05-8.96329E-01 8.61803E-15 3.64837E-13
 -1      2757 2.03193E+01 2.92069E-01 2.99125E-03-6.49934E-01 9.01840E-14 2.50455E-13
 -1      2758 2.02624E+01 2.67602E-01-1.31162E-03-5.78536E-01 1.31126E-13 3.35032E-13
 -1      2759 2.01673E+01 3.69995E-01-1.76705E-05-7.21714E-01 9.46639E-14 3.81189E-13
 -1      2760 2.02528E+01 2.45545E-01 2.62628E-03-5.10417E-01 3.62196E-14 3.34707E-13
 -1      2761 2.02061E+01 2.21604E-01-1.10648E-03-4.50210E-01-3.04244E-14 2.75818E-13
 -1      2762 2.01407E+01 3.14341E-01-8.17371E-05-5.70967E-01 5.31833E-14 2.28057E-13
 -1      2763 2.01973E+01 2.00772E-01 2.24640E-03-3.93710E-01-1.20702E-13 2.31608E-13
 -1      2764 2.01594E+01 1.79063E-01-8.95214E-04-3.44204E-01-1.68413E-13 1.48878E-13
 -1      2765 2.01167E+01 2.59253E-01-1.59692E-04-4.44026E-01-1.30373E-13 1.77708E-13
 -1      2766 2.01514E+01 1.60568E-01 1.87798E-03-2.98269E-01-2.04508E-13 1.72787E-13
 -1      2767 2.01213E+01 1.41783E-01-7.02935E-04-2.58408E-01-2.69534E-13 2.15462E-13
 -1      2768 2.00950E+01 2.08900E-01-2.17812E-04-3.39390E-01-1.88568E-13 1.65160E-13
 -1      2769 2.01142E+01 1.26003E-01 1.53809E-03-2.21730E-01-1.75065E-13 2.28208E-13
 -1      2770 2.00905E+01 1.10265E-01-5.38988E-04-1.90224E-01-3.97725E-14 3.07719E-13
 -1      2771 2.00759E+01 1.65056E-01-2.48235E-04-2.54763E-01-2.34204E-13 2.97716E-13
 -1      2772 2.00844E+01 9.71823E-02 1.23616E-03-1.61429E-01-1.50253E-13 1.92003E-13
 -1      2773 2.00662E+01 8.43163E-02-4.04720E-04-1.36950E-01-1.25059E-13 1.38514E-13
 -1      2774 2.00594E+01 1.28133E-01-2.54177E-04-1.87510E-01-2.30682E-13 4.79569E-14
 -1      2775 2.00611E+01 7.37111E-02 9.75873E-04-1.14711E-01-9.13894E-14 1.21005E-13
 -1      2776 2.00473E+01 6.34048E-02-2.97806E-04-9.60054E-02-1.94802E-13 9.73973E-15
 -1      2777 2.00456E+01 9.78158E-02-2.42343E-04-1.34946E-01-2.02020E-13-8.74699E-14
 -1      2778 2.00431E+01 5.49698E-02 7.57017E-04-7.91092E-02-2.29990E-13-3.43276E-14
 -1      2779 2.00330E+01 4.68595E-02-2.14550E-04-6.50538E-02-7.41793E-14 1.29477E-15
 -1      2780 2.00344E+01 7.34311E-02-2.19454E-04-9.45318E-02-2.08406E-13-5.67896E-14
 -1      2781 2.00296E+01 4.02636E-02 5.76941E-04-5.24338E-02 1.35909E-13 1.15173E-13
 -1      2782 2.00223E+01 3.39842E-02-1.51057E-04-4.20585E-02 7.19752E-14 1.62112E-13
 -1      2783 2.00253E+01 5.41686E-02-1.90963E-04-6.39704E-02 6.56301E-15 7.39038E-15
 -1      2784 2.00197E+01 2.89053E-02 4.31699E-04-3.28050E-02 7.62611E-14 2.21040E-13
 -1      2785 2.00145E+01 2.41142E-02-1.03791E-04-2.52969E-02 1.41686E-13 2.14299E-13
 -1      2786 2.00183E+01 3.91978E-02-1.60800E-04-4.12612E-02 6.05260E-14-6.43024E-14
 -1      2787 2.00125E+01 2.02551E-02 3.16796E-04-1.86546E-02 9.18418E-14 1.80422E-13
 -1      2788 2.00090E+01 1.66429E-02-6.98248E-05-1.33510E-02 4.40072E-14-6.33171E-14
 -1      2789 2.00129E+01 2.77303E-02-1.31556E-04-2.47110E-02 7.78675E-14-1.74860E-13
 -1      2790 2.00075E+01 1.37372E-02 2.27667E-04-8.71012E-03 8.76743E-14 3.80158E-14
 -1      2791 2.00052E+01 1.10307E-02-4.65797E-05-5.08557E-03 3.62741E-13 3.89869E-14
 -1      2792 2.00088E+01 1.90479E-02-1.04842E-04-1.29267E-02 1.11787E-13-1.04124E-13
 -1      2793 2.00041E+01 8.84393E-03 1.60059E-04-1.96685E-03 4.70017E-13 1.42807E-14
 -1      2794 2.00027E+01 6.80400E-03-3.16262E-05 3.82454E-04 3.33192E-13 1.75999E-13
 -1      2795 2.00058E+01 1.25144E-02-8.09905E-05-4.79382E-03 3.27574E-13-2.17129E-13
 -1      2796 2.00019E+01 5.12995E-03 1.11116E-04 2.34643E-03 1.05345E-13 9.70211E-14
 -1      2797 2.00012E+01 3.53932E-03-2.23721E-05 3.72025E-03 1.40136E-14-4.25548E-14
 -1      2798 2.00036E+01 7.56905E-03-6.08454E-05 5.56453E-04 1.27067E-13-4.67406E-13
 -1      2799 2.00006E+01 2.16743E-03 7.11818E-05 4.78386E-03 5.34394E-14-4.03148E-14
 -1      2800 2.00003E+01 8.95754E-04-6.19914E-06 5.37133E-03 7.92298E-14-1.49975E-13
 -1      2801 2.00020E+01 3.67464E-03-5.46103E-05 3.78488E-03 7.33232E-14-4.15773E-13
 -1      2802 2.08712E+01 1.24233E-01 5.05219E-04-1.04205E+00 9.09774E-14-2.74039E-14
 -1      2803 2.07635E+01 1.97591E-01 4.73415E-03-9.81987E-01 8.81399E-14-4.01225E-15
 -1      2804 2.06260E+01 1.59406E+00-8.75574E-04 8.47337E-01 2.60182E-13-6.71711E-14
 -1      2805 2.07058E+01 2.62225E-01 1.41569E-03-8.83825E-01 9.32867E-14-2.86527E-14
 -1      2806 2.06358E+01 3.29892E-01 5.73547E-03-7.81601E-01 1.16133E-13-3.24802E-14
 -1      2807 2.06168E+01 2.98790E-01-4.73623E-03-9.96293E-01 9.38385E-14-9.95301E-14
 -1      2808 2.14155E+01-2.83194E-01-4.23742E-03-1.06869E+00-2.73880E-14 7.49278E-14
 -1      2809 2.12549E+01-1.54354E-01 6.27415E-03-1.11725E+00 6.33315E-15 3.10939E-14
 -1      2810 2.17995E+01-5.82413E-01-8.16055E-03-8.76952E-01 2.47758E-14 7.38960E-14
 -1      2811 2.16261E+01-4.20581E-01 8.28926E-03-1.00415E+00 8.49798E-15 7.82507E-14
 -1      2812 2.13185E+01-4.35295E-01-8.45201E-03-1.20131E+00-1.47779E-14 9.15725E-15
 -1      2813 2.22477E+01-9.12785E-01-1.25152E-02-4.97509E-01 1.94883E-14 1.16440E-13
 -1      2814 2.20783E+01-7.41718E-01 9.98612E-03-7.17217E-01 3.81195E-15 9.11840E-14
 -1      2815 2.17735E+01-8.23600E-01-9.90837E-03-9.94937E-01 5.59985E-15 9.20699E-14
 -1      2816 2.27185E+01-1.17079E+00-1.47726E-02 8.85775E-02 3.12610E-14 2.01084E-13
 -1      2817 2.25819E+01-1.05493E+00 9.65155E-03-2.19704E-01 3.89214E-14 1.82259E-13
 -1      2818 2.23522E+01-1.22888E+00-9.40372E-03-5.74242E-01-2.83642E-14 1.82284E-13
 -1      2819 2.31151E+01-1.16454E+00-1.11573E-02 8.26477E-01 5.44933E-14 2.74968E-13
 -1      2820 2.30490E+01-1.21222E+00 3.81365E-03 4.78926E-01 4.50766E-14 2.82981E-13
 -1      2821 2.30010E+01-1.49077E+00-3.01509E-03 9.16678E-02 1.24486E-14 2.97614E-13
 -1      2822 2.33022E+01-6.81813E-01 7.93392E-04 1.52180E+00 4.35598E-14 2.54449E-13
 -1      2823 2.33340E+01-9.98319E-01-1.04118E-02 1.24930E+00 6.11729E-14 2.93856E-13
 -1      2824 2.35733E+01-1.35625E+00 6.74004E-03 9.34478E-01 5.62072E-14 4.23247E-13
 -1      2825 2.31701E+01 3.30847E-01 1.47177E-02 1.81802E+00-1.40088E-14 1.94775E-13
 -1      2826 2.32899E+01-2.41979E-01-3.00651E-02 1.79009E+00 1.76779E-15 2.27352E-13
 -1      2827 2.38566E+01-5.77272E-01 1.39486E-02 1.70449E+00 2.85579E-14 3.60883E-13
 -1      2828 2.28193E+01 1.51353E+00 1.85669E-02 1.37008E+00 5.97838E-14 2.27257E-13
 -1      2829 2.29502E+01 9.26842E-01-3.82698E-02 1.69551E+00-1.71343E-14 2.34951E-13
 -1      2830 2.37200E+01 7.77391E-01 4.75036E-03 1.92009E+00 1.38448E-14 2.41512E-13
 -1      2831 2.25600E+01 2.14250E+00-2.96678E-03 1.77995E-01 2.07350E-13 1.15824E-13
 -1      2832 2.25871E+01 1.93533E+00-3.04895E-02 7.70456E-01 1.54397E-13 2.14956E-13
 -1      2833 2.33388E+01 2.17155E+00-1.21172E-02 1.23045E+00 1.35480E-13 1.86403E-13
 -1      2834 2.26725E+01 1.77264E+00-2.95496E-02-1.13492E+00 1.56960E-13 1.02447E-13
 -1      2835 2.25911E+01 2.08493E+00 2.68125E-03-5.74622E-01 2.44176E-13 1.10770E-13
 -1      2836 2.31887E+01 2.61887E+00-3.24715E-02-2.19721E-01 2.24223E-13 8.33415E-14
 -1      2837 2.30729E+01 6.69736E-01-3.80349E-02-1.88469E+00 6.20407E-14-1.07228E-13
 -1      2838 2.29231E+01 1.27752E+00 1.82089E-02-1.63246E+00 8.33292E-14-1.98719E-14
 -1      2839 2.34339E+01 1.89087E+00-1.46962E-02-1.55832E+00 1.92988E-13-2.94998E-14
 -1      2840 2.33860E+01-4.34733E-01-2.35478E-02-1.81782E+00 1.01457E-13-2.92452E-13
 -1      2841 2.32685E+01 8.79246E-02 1.31164E-02-1.90985E+00 7.56331E-14-2.43718E-13
 -1      2842 2.38043E+01 4.70461E-01 8.29703E-03-2.05675E+00 1.67974E-13-3.54008E-13
 -1      2843 2.33681E+01-1.06048E+00-4.90506E-03-1.20670E+00 9.37575E-14-2.73044E-13
 -1      2844 2.33421E+01-8.12102E-01-1.94683E-03-1.50231E+00 1.32602E-13-2.45292E-13
 -1      2845 2.38623E+01-7.84276E-01 1.39562E-02-1.67663E+00 1.08885E-13-3.48285E-13
 -1      2846 2.30461E+01-1.16885E+00 5.65554E-03-4.49064E-01 1.12799E-13-2.19487E-13
 -1      2847 2.31159E+01-1.17012E+00-1.32620E-02-7.87069E-01 1.01456E-13-2.51053E-13
 -1      2848 2.35062E+01-1.40417E+00 2.92962E-03-8.76716E-01 1.18188E-13-1.90742E-13
 -1      2849 2.25797E+01-9.58668E-01 1.00607E-02 1.92043E-01-3.18636E-14-1.49855E-13
 -1      2850 2.27113E+01-1.09481E+00-1.52195E-02-9.00918E-02 1.02098E-13-1.23254E-13
 -1      2851 2.29091E+01-1.41640E+00-5.67815E-03-7.56760E-02 7.47065E-14-2.27869E-13
 -1      2852 2.21012E+01-6.38821E-01 9.59785E-03 6.26245E-01-4.65078E-14-1.89372E-13
 -1      2853 2.22589E+01-8.09047E-01-1.19503E-02 4.34423E-01-8.39298E-14-1.47474E-13
 -1      2854 2.22773E+01-1.10363E+00-9.46444E-03 5.18955E-01-1.31635E-14-8.83948E-14
 -1      2855 2.16790E+01-3.37250E-01 7.30446E-03 8.62684E-01-1.58605E-13-1.11502E-13
 -1      2856 2.18387E+01-4.86417E-01-7.59186E-03 7.57783E-01-8.01505E-14-1.10831E-13
 -1      2857 2.17298E+01-7.01026E-01-9.14428E-03 8.76831E-01-1.08173E-13-1.17864E-13
 -1      2858 2.13315E+01-1.06773E-01 4.79205E-03 9.47512E-01-9.53147E-14-2.42580E-14
 -1      2859 2.14811E+01-2.15574E-01-3.81566E-03 9.10489E-01-1.22756E-13-5.46743E-14
 -1      2860 2.13024E+01-3.43729E-01-7.13464E-03 1.04030E+00-1.45671E-13 6.12892E-14
 -1      2861 2.10531E+01 4.54370E-02 2.77892E-03 9.30644E-01 4.51231E-14 5.37168E-14
 -1      2862 2.11877E+01-2.34386E-02-1.07500E-03 9.39856E-01 2.56028E-14 2.71087E-14
 -1      2863 2.09848E+01-8.02242E-02-5.00086E-03 1.06776E+00-7.04110E-14-3.33996E-14
 -1      2864 2.08311E+01 1.32254E-01 1.39174E-03 8.53441E-01-2.61921E-14 1.40778E-13
 -1      2865 2.09495E+01 9.51025E-02 7.22483E-04 8.90269E-01-1.37393E-14 1.18643E-13
 -1      2866 2.07522E+01 8.87499E-02-3.34372E-03 1.01008E+00-1.07553E-14 8.82331E-14
 -1      2867 2.06532E+01 1.71751E-01 5.35043E-04 7.46177E-01 4.04715E-14 1.47577E-13
 -1      2868 2.07555E+01 1.56796E-01 1.78162E-03 7.96678E-01 4.19798E-14 1.81286E-13
 -1      2869 2.05804E+01 1.81754E-01-2.22854E-03 9.05439E-01-1.69746E-14 2.94169E-13
 -1      2870 2.05099E+01 1.80397E-01 5.51844E-05 6.29215E-01 1.40903E-13 1.46034E-13
 -1      2871 2.05968E+01 1.79492E-01 2.30405E-03 6.83917E-01 8.43986E-14 1.19815E-13
 -1      2872 2.04507E+01 2.21011E-01-1.54448E-03 7.80276E-01 7.28886E-14 1.23742E-13
 -1      2873 2.03942E+01 1.70844E-01-1.81856E-04 5.15206E-01 1.31820E-13 1.94698E-13
 -1      2874 2.04669E+01 1.77940E-01 2.46117E-03 5.68224E-01 1.85584E-13 1.89704E-13
 -1      2875 2.03507E+01 2.25825E-01-1.14533E-03 6.51763E-01 1.34446E-13 2.06437E-13
 -1      2876 2.03011E+01 1.51898E-01-2.74166E-04 4.11268E-01-1.49721E-13 6.28527E-14
 -1      2877 2.03608E+01 1.62881E-01 2.38605E-03 4.59332E-01 1.63192E-14 1.46494E-13
 -1      2878 2.02721E+01 2.10701E-01-9.09882E-04 5.30275E-01 7.39391E-14 2.48569E-13
 -1      2879 2.02267E+01 1.29270E-01-2.86566E-04 3.20769E-01-1.51457E-13-6.21029E-14
 -1      2880 2.02749E+01 1.41524E-01 2.17604E-03 3.62382E-01-2.17044E-13-7.55668E-14
 -1      2881 2.02096E+01 1.85613E-01-7.60066E-04 4.21438E-01-1.02416E-13 5.70101E-14
 -1      2882 2.01679E+01 1.06418E-01-2.59301E-04 2.44649E-01 8.91008E-14-1.41799E-14
 -1      2883 2.02061E+01 1.18395E-01 1.89992E-03 2.79451E-01-6.98695E-14-1.27835E-14
 -1      2884 2.01599E+01 1.56973E-01-6.51712E-04 3.27670E-01-1.37656E-13-7.49416E-14
 -1      2885 2.01220E+01 8.52587E-02-2.16009E-04 1.82388E-01 2.24671E-13-5.45038E-14
 -1      2886 2.01517E+01 9.61327E-02 1.60386E-03 2.10690E-01 2.41448E-13 2.52591E-14
 -1      2887 2.01204E+01 1.28626E-01-5.62494E-04 2.49328E-01 9.58204E-14-7.25196E-14
 -1      2888 2.00867E+01 6.67129E-02-1.69716E-04 1.32667E-01 1.08020E-13-9.74694E-14
 -1      2889 2.01094E+01 7.61152E-02 1.31682E-03 1.55137E-01 1.55522E-13-7.86048E-14
 -1      2890 2.00893E+01 1.02676E-01-4.82690E-04 1.85529E-01 2.10396E-13-7.03796E-14
 -1      2891 2.00599E+01 5.10793E-02-1.26994E-04 9.38080E-02 1.05944E-13-1.04982E-13
 -1      2892 2.00770E+01 5.89234E-02 1.05526E-03 1.11264E-01 1.45876E-13-1.06107E-14
 -1      2893 2.00650E+01 8.00946E-02-4.09071E-04 1.34728E-01 7.93263E-14-1.17878E-13
 -1      2894 2.00401E+01 3.82938E-02-9.06744E-05 6.40499E-02 1.00174E-13-5.42233E-14
 -1      2895 2.00526E+01 4.46543E-02 8.27057E-04 7.73335E-02-1.93488E-15-6.62840E-14
 -1      2896 2.00464E+01 6.11548E-02-3.41254E-04 9.51037E-02 3.55957E-14-2.25195E-14
 -1      2897 2.00258E+01 2.80961E-02-6.15491E-05 4.17166E-02 3.53815E-14-3.43504E-15
 -1      2898 2.00346E+01 3.31317E-02 6.34479E-04 5.16185E-02 1.58265E-13-1.02047E-14
 -1      2899 2.00323E+01 4.57240E-02-2.79758E-04 6.48028E-02 5.95866E-14 1.61605E-13
 -1      2900 2.00156E+01 2.01344E-02-3.94500E-05 2.53052E-02-3.66592E-14-3.60601E-14
 -1      2901 2.00217E+01 2.40400E-02 4.76368E-04 3.25264E-02 5.70076E-14-2.26500E-14
 -1      2902 2.00218E+01 3.34524E-02-2.25136E-04 4.20876E-02 7.29242E-14 1.69382E-13
 -1      2903 2.00087E+01 1.40270E-02-2.39149E-05 1.35278E-02-9.49769E-14-1.38074E-13
 -1      2904 2.00127E+01 1.70061E-02 3.49723E-04 1.86625E-02-1.02260E-13-1.03744E-13
 -1      2905 2.00142E+01 2.38912E-02-1.77700E-04 2.54136E-02 1.30128E-14 1.72719E-13
 -1      2906 2.00042E+01 9.39801E-03-1.42996E-05 5.32368E-03 1.32674E-13-4.89574E-13
 -1      2907 2.00067E+01 1.16467E-02 2.50641E-04 8.85601E-03 3.56243E-14-3.76494E-13
 -1      2908 2.00088E+01 1.65629E-02-1.37350E-04 1.34655E-02 5.34729E-14-2.83685E-13
 -1      2909 2.00014E+01 5.89757E-03-9.83745E-06-1.47465E-04-5.81359E-14-3.83552E-13
 -1      2910 2.00028E+01 7.59576E-03 1.74742E-04 2.16139E-03 6.87513E-15-4.39078E-13
 -1      2911 2.00051E+01 1.10037E-02-1.03358E-04 5.16655E-03 4.90888E-14-3.31374E-13
 -1      2912 1.99999E+01 3.20650E-03-8.16554E-06-3.52741E-03 1.29461E-13-1.79997E-13
 -1      2913 2.00006E+01 4.51782E-03 1.18042E-04-2.15851E-03-8.38998E-15-2.31449E-13
 -1      2914 2.00027E+01 6.78248E-03-7.57783E-05-3.35535E-04-1.38203E-13-3.91288E-13
 -1      2915 1.99992E+01 1.04673E-03 4.47828E-06-5.25391E-03-3.07305E-14 2.35995E-13
 -1      2916 1.99994E+01 2.07288E-03 7.03639E-05-4.65502E-03 7.34970E-14 5.88331E-14
 -1      2917 2.00011E+01 3.51809E-03-4.83648E-05-3.69750E-03-1.49641E-13-3.55707E-14
 -1      2918 1.99993E+01-6.55391E-04-6.66182E-06-5.64928E-03-2.52678E-13 4.04441E-13
 -1      2919 1.99992E+01 2.88825E-04 2.70288E-05-5.62744E-03-1.96398E-13 2.67189E-13
 -1      2920 2.00006E+01 1.08340E-03-3.62059E-05-5.23809E-03-2.11114E-13 1.43125E-13
 -1      2921 2.00005E+01-9.07277E-04-1.03141E-05-5.62430E-03-2.63300E-13 1.87651E-13
 -1      2922 2.00025E+01 1.46670E-03-9.97076E-06-2.99377E-04 1.26750E-13-6.76366E-15
 -1      2923 2.00025E+01 1.45058E-03-1.74658E-06-8.73557E-04 5.90080E-14-2.53109E-13
 -1      2924 2.00000E+01 5.30749E-05 3.83470E-05 5.67262E-03 1.88203E-13-2.76550E-14
 -1      2925 1.99999E+01-7.31938E-04-4.14755E-07 5.70909E-03 3.12153E-14 6.12996E-14
 -1      2926 2.00011E+01 9.07457E-04-4.92623E-05 5.22676E-03 1.95875E-13-3.36827E-13
 -1      2927 2.00025E+01 6.88470E-04-1.86093E-05-2.55756E-03 1.16646E-14-4.68711E-13
 -1      2928 2.00024E+01 6.26193E-04 1.23583E-05-3.15253E-03 2.44866E-13-4.43478E-13
 -1      2929 2.00026E+01 1.42171E-03-8.72447E-07 7.87721E-04 2.68288E-13-7.58686E-14
 -1      2930 2.00025E+01 1.45305E-03-1.09850E-05 2.06567E-04 1.74546E-13-4.99446E-14
 -1      2931 2.00031E+01 4.69935E-03 4.16711E-05-5.56924E-05 1.78290E-13 4.76795E-14
 -1      2932 2.00025E+01 1.19902E-03-1.70500E-05-1.39581E-03-1.29384E-13-5.95088E-13
 -1      2933 2.00025E+01 1.14524E-03 6.86508E-06-1.98443E-03-1.04481E-13-4.64134E-13
 -1      2934 2.00031E+01 3.75428E-03 2.84022E-05-2.03990E-03 4.37768E-14-6.51939E-13
 -1      2935 2.00031E+01 4.46207E-03 3.82861E-05-1.00628E-03 5.79233E-14-2.18929E-13
 -1      2936 2.06103E+01 3.97813E-01 1.57094E-03-6.43740E-01 1.15366E-13-3.12172E-14
 -1      2937 2.05858E+01 4.80315E-01 7.83289E-03-4.95347E-01 1.25186E-13-4.48375E-14
 -1      2938 2.05445E+01 4.71337E-01-4.27862E-03-7.43407E-01 1.12705E-13-9.32816E-14
 -1      2939 2.00026E+01 1.09452E-03 8.10011E-06 1.90407E-03 3.83363E-13-1.14476E-13
 -1      2940 2.00026E+01 1.15686E-03-1.75027E-05 1.31320E-03 2.15965E-13 4.61596E-14
 -1      2941 2.00031E+01 4.42430E-03 3.85872E-05 9.03341E-04 3.32487E-13-1.33453E-13
 -1      2942 2.00025E+01 5.45866E-04 1.05649E-05 3.11448E-03 3.94533E-13 1.37680E-13
 -1      2943 2.00026E+01 6.20884E-04-1.91968E-05 2.49746E-03 4.84065E-13-1.48481E-13
 -1      2944 2.00032E+01 3.69148E-03 2.90994E-05 1.95830E-03 2.84966E-13-8.97219E-14
 -1      2945 2.00021E+01-9.27542E-05-4.16463E-06 4.32382E-03 1.75150E-13 2.62335E-13
 -1      2946 2.00024E+01-2.12851E-05-1.55700E-05 3.74159E-03 4.22830E-13 3.31341E-13
 -1      2947 2.00030E+01 2.66205E-03 2.14629E-05 3.16071E-03 4.33066E-13 1.21918E-13
 -1      2948 2.89101E+01 3.99600E+00-1.28577E-01 2.22882E+00-3.53828E-13-2.14620E-13
 -1      2949 2.87780E+01 5.02522E+00-2.76346E-01 1.62570E+00-5.83394E-13-2.22378E-13
 -1      2950 2.44339E+01-5.33779E+00-1.47668E-01 3.52904E+00 1.66270E-13 3.26988E-13
 -1      2951 2.13578E+01-5.19374E+00 1.59685E-01 5.12209E+00 2.38906E-13 1.29341E-14
 -1      2952 2.24622E+01-5.11245E+00 5.33892E-03 4.62199E+00-2.73642E-13-6.31652E-14
 -1      2953 2.01490E+01-4.77498E+00 7.45869E-02 5.31028E+00-2.39392E-13 9.85149E-14
 -1      2954 1.62455E+01-4.12728E+00 3.81143E-02 6.15901E+00-1.64521E-13 3.66235E-13
 -1      2955 1.25673E+01-3.29054E+00 1.98317E-01 6.13571E+00-1.77275E-13 4.13905E-13
 -1      2956 2.89636E+01 9.67240E-01-1.58867E-01-1.66288E+00 1.91069E-13-4.46809E-13
 -1      2957 2.85269E+01-1.19846E+00-5.23060E-02-6.72235E-01 6.88061E-14-4.31363E-13
 -1      2958 1.16305E+01-3.02162E+00 1.30086E-01-5.93385E+00-3.00038E-13-4.18554E-13
 -1      2959 1.45780E+01-4.24449E+00 6.91266E-02-6.65558E+00-2.65371E-13-2.99427E-13
 -1      2960 2.83874E+01-2.45954E+00-1.43687E-01-5.39923E-01-1.25382E-13 3.86233E-13
 -1      2961 2.72570E+01-3.93158E+00 7.45809E-02 9.48353E-01 5.14181E-14 3.30805E-13
 -1      2962 2.11068E+01-4.94428E-02-1.32589E-03-1.11145E+00 4.68116E-14-1.59961E-14
 -1      2963 2.09689E+01 4.59562E-02 4.94833E-03-1.09906E+00 7.43583E-14-1.11928E-14
 -1      2964 2.07596E+01 1.14157E-01-5.38016E-03-1.16616E+00 7.76521E-14-8.32219E-14
 -1      2965 2.09868E+01-1.21678E-01-6.64339E-03-1.24366E+00 1.02512E-14-3.09357E-15
 -1      2966 2.05862E+01 1.26233E+00 5.42151E-03-3.06648E-01-1.98734E-13-8.73659E-14
 -1      2967 2.05408E+01 1.05050E+00-2.77645E-03-6.66296E-03-1.86017E-13-9.87920E-14
 -1      2968 2.04289E+01 1.20232E+00-2.68438E-04 9.85201E-02-1.75761E-13-1.13494E-13
 -1      2969 2.05259E+01 1.84626E+00-5.65245E-03-8.26000E-01-2.42767E-13-1.11723E-13
 -1      2970 2.05529E+01 1.48324E+00-6.42850E-04-5.11098E-01-2.24403E-13-9.80533E-14
 -1      2971 2.04250E+01 1.61842E+00-4.68823E-05-3.67608E-01-2.10703E-13-1.27477E-13
 -1      2972 2.03456E+01 2.14175E+00-3.06230E-03-7.89757E-01-2.35497E-13-1.63643E-13
 -1      2973 2.00006E+01-9.68292E-04-1.49712E-05 5.61306E-03 3.40997E-14-2.42769E-13
 -1      2974 2.38028E+01-5.15768E+00 9.96255E-02-4.20919E+00-2.41931E-13-6.50313E-14
 -1      2975 2.61836E+01-4.55191E+00-1.40348E-01-2.59028E+00-1.40318E-13 5.23470E-14
 -1      2976 2.05850E+01 5.74552E-01 1.03557E-03-3.10343E-01 1.58211E-13-7.06758E-14
 -1      2977 2.06117E+01 7.00158E-01 1.03379E-02-1.00140E-01 1.84108E-13-6.35842E-14
 -1      2978 2.05588E+01 9.97602E-01-1.09933E-03 4.98841E-02 2.02103E-13-1.16006E-13
 -1      2979 2.05304E+01 6.82358E-01-3.38399E-03-4.00556E-01 1.47334E-13-8.28906E-14
 -1      2980 1.91046E+01-4.84456E+00 1.11332E-01-5.56603E+00 1.93526E-13-1.51990E-13
 -1      2981 2.21160E+01-5.41286E+00-2.88057E-02-4.84245E+00 1.25164E-13-1.45533E-13
 -1      2982 2.84511E+01 4.30623E+00-1.95701E-01-1.86446E+00 3.98709E-13-3.65499E-13
 -1      2983 2.86941E+01 3.03933E+00-9.43590E-02-2.09231E+00 3.10030E-13-3.73937E-13
 -1      2984 1.96407E+01 2.95078E+00-5.86638E-03 4.22969E-01 1.83861E-13-2.57877E-13
 -1      2985 1.95090E+01 3.07475E+00-7.69934E-03 3.17947E-01 1.36003E-13-2.65479E-13
 -1      2986 1.95463E+01 2.85200E+00 5.43226E-03 1.86972E-01 1.13485E-13-2.46012E-13
 -1      2987 1.98135E+01 2.56357E+00 6.07983E-03 3.15100E-01 1.78514E-13-2.21295E-13
 -1      2988 1.94622E+01 3.12963E+00-7.68759E-03-3.32162E-01-1.03518E-13-2.86924E-13
 -1      2989 1.95908E+01 3.01129E+00-6.12810E-03-4.28377E-01-1.31709E-13-2.83997E-13
 -1      2990 2.87686E+01 1.35422E+00-5.18867E-02 1.80655E+00 3.53675E-13 2.98067E-13
 -1      2991 2.88759E+01 3.08144E+00-2.09106E-01 1.85586E+00 4.75966E-13 2.44110E-13
 -1      2992 1.74063E+01-4.88754E+00 1.15503E-01-6.37620E+00-2.64733E-13-1.42150E-13
 -1      2993 2.03820E+01-5.42111E+00-6.04218E-02-5.84898E+00-2.25986E-13-8.02622E-14
 -1      2994 1.70667E+01-4.14006E+00 1.28983E-01-6.02533E+00-3.40297E-13-1.56840E-13
 -1      2995 2.79949E+01-2.91326E+00 3.65921E-02-6.31329E-01 1.31457E-14 2.00340E-13
 -1      2996 2.85048E+01-1.30417E+00-1.94090E-01 6.87545E-01 1.64459E-13 3.16566E-13
 -1      2997 1.76667E+01-4.92529E+00-3.36579E-02 6.22058E+00 2.47802E-13-1.66644E-13
 -1      2998 1.49775E+01-4.05304E+00 1.99617E-01 6.24027E+00 2.41529E-13-3.60115E-13
 -1      2999 6.90048E+00-1.11105E+00 1.73759E-01-2.38467E+00-1.06033E-13-7.80931E-13
 -1      3000 8.75578E+00-1.66657E+00 1.24660E-01-4.29388E+00-2.12122E-13-5.98910E-13
 -1      3001 5.98813E+00-9.12394E-01 1.53645E-01 1.13944E+00-5.05845E-14 4.04454E-13
 -1      3002 5.89928E+00-9.39344E-01 1.06078E-01-7.90156E-01 1.98279E-14 3.29070E-13
 -1      3003 2.89390E+01 5.15107E+00-1.42154E-01 1.56824E+00 6.03656E-13 2.15494E-13
 -1      3004 2.91345E+01 6.41695E+00-1.92040E-01 7.52095E-01 7.17815E-13 1.00309E-13
 -1      3005 2.75637E+01 3.69362E+00-1.15449E-01 1.92283E+00 4.70263E-13 2.68174E-13
 -1      3006 2.95176E+01 5.23713E-01-6.97728E-02 2.02748E+00-3.30569E-14-1.06914E-13
 -1      3007 2.95091E+01 2.12599E+00-1.95953E-01 2.22356E+00-1.61163E-13-1.68865E-13
 -1      3008 2.45503E+01-5.12192E+00 3.87889E-02-3.42894E+00 1.50102E-13-6.94583E-15
 -1      3009 2.64533E+01-4.70085E+00-1.11610E-01-2.16383E+00 1.67241E-13 1.24012E-13
 -1      3010 2.70977E+01-3.90430E+00 1.31649E-02-6.95672E-01 2.20584E-13 1.47382E-14
 -1      3011 2.36616E+01-4.97517E+00 2.90757E-02-3.48081E+00 2.19991E-13-2.51188E-14
 -1      3012 7.42023E+00-1.01696E+00 1.95897E-01-2.64775E+00 1.12674E-13 2.95541E-13
 -1      3013 9.60117E+00-1.93267E+00 7.35815E-02-4.70067E+00 1.82521E-13 2.50716E-13
 -1      3014 1.27560E+01-3.02038E+00 1.62028E-01-5.70105E+00 2.45387E-13 1.35184E-13
 -1      3015 1.56008E+01-4.14870E+00 1.11064E-02-6.17578E+00 2.05447E-13-8.38357E-14
 -1      3016 2.63310E+01-1.47488E-01-3.72701E-02-2.27504E+00-1.60594E-13 2.92063E-13
 -1      3017 2.83747E+01 6.75597E-01-1.08847E-01-2.28097E+00-2.85813E-13 3.09017E-13
 -1      3018 2.85059E+01-1.36773E+00-9.77286E-02-1.55319E+00-1.70454E-13 3.93574E-13
 -1      3019 2.63175E+01-1.29555E+00-6.55567E-02-2.01864E+00-5.08968E-14 2.63175E-13
 -1      3020 1.97417E+01 2.84092E+00-7.90774E-03-4.93688E-01-1.59395E-13-2.55792E-13
 -1      3021 1.99115E+01 2.65895E+00-7.41072E-03-5.92516E-01-1.97300E-13-2.23499E-13
 -1      3022 1.97561E+01 2.64068E+00 7.28365E-03-3.19665E-01-1.30918E-13-2.37858E-13
 -1      3023 1.92957E+01 3.10403E+00 5.45087E-03-2.63627E-02 1.13256E-15-2.57955E-13
 -1      3024 1.92134E+01 3.37041E+00-5.52355E-03-4.65297E-02-1.05378E-14-2.90223E-13
 -1      3025 1.92346E+01 3.35314E+00-5.40936E-03-1.31417E-01-4.55893E-14-2.98370E-13
 -1      3026 1.84484E+01-4.02532E+00 1.10108E-01-5.26334E+00 2.30774E-13-1.02859E-13
 -1      3027 2.83818E+01-9.50948E-01-5.96254E-02 1.83949E+00 1.05228E-13-1.07581E-13
 -1      3028 8.85482E+00-9.13105E-01 6.91738E-02 3.44831E+00-1.35704E-13 4.07674E-13
 -1      3029 7.32223E+00-8.34270E-01 1.82840E-01 2.25375E+00-1.28678E-13 3.81833E-13
 -1      3030 8.15209E+00-1.91460E-01 9.83517E-02 1.40951E+00 1.57166E-15 2.45748E-13
 -1      3031 2.66084E+01-2.16750E+00-2.50372E-02-1.26122E+00 1.19071E-14 2.93543E-13
 -1      3032 7.00542E+00-7.02104E-01 1.77532E-01-1.28520E+00-4.11685E-14-8.02247E-13
 -1      3033 8.95183E+00-3.10329E-01 1.06974E-01-1.93224E+00-1.02422E-13-6.68549E-13
 -1      3034 7.52120E+00-3.39033E-01 1.44561E-01 1.02104E-01 1.37061E-14-7.24337E-13
 -1      3035 2.77736E+01-2.65036E+00-6.45288E-02-5.42975E-02-2.35202E-14-4.02137E-13
 -1      3036 2.64859E+01-3.44062E+00-6.10868E-03 6.87149E-01-6.86100E-14-3.82305E-13
 -1      3037 2.73555E+01-1.67369E+00-8.94088E-02-1.10727E+00-2.77556E-17-3.70953E-13
 -1      3038 2.02473E+01-4.59207E+00 1.03865E-01 5.08049E+00 2.99288E-13 1.65840E-14
 -1      3039 2.68220E+01 4.38422E+00-2.10118E-01-1.21595E+00-5.35696E-13 9.52034E-14
 -1      3040 2.73891E+01 2.24357E+00-9.09668E-02 2.48679E+00-2.45776E-13-2.53353E-13
 -1      3041 2.68358E+01 4.86999E+00-1.72232E-01-1.42444E-01-6.02518E-13 1.25767E-15
 -1      3042 2.62464E+01-3.20086E+00-5.89345E-02 2.09708E-01 2.06474E-13-1.37451E-14
 -1      3043 2.51802E+01-2.55166E+00-5.40172E-03 5.33243E-01 5.01864E-14-2.90839E-14
 -1      3044 2.47521E+01-2.53966E+00 2.41976E-02-5.64855E-02 2.26063E-14-1.21275E-14
 -1      3045 2.55008E+01-3.99660E+00 5.04516E-02-1.14284E+00 2.07342E-13-5.97439E-15
 -1      3046 2.00029E+01 2.72631E-03 1.22545E-05-3.17869E-03 2.58027E-13-1.77798E-13
 -1      3047 2.00023E+01 7.08381E-05-1.42301E-05-3.76101E-03 6.43451E-14-1.13750E-13
 -1      3048 2.00020E+01 3.68050E-05 1.45915E-05-4.30045E-03-9.76886E-14-6.62530E-14
 -1      3049 2.05003E+01 1.72600E+00-2.95166E-03 6.98347E-01 2.50733E-13-1.16772E-13
 -1      3050 1.10832E+01-2.00134E+00 1.65340E-01-5.01365E+00-2.85910E-13-4.19387E-13
 -1      3051 1.33746E+01-2.37935E+00 3.50918E-02-5.37138E+00-3.50414E-13-2.75516E-13
 -1      3052 1.08983E+01-9.74222E-01 1.17713E-01-3.91391E+00-2.40696E-13-4.43492E-13
 -1      3053 2.66004E+01-3.82273E+00-6.64597E-03-1.28364E+00-1.02834E-13 1.59261E-13
 -1      3054 2.00016E+01-5.22062E-04-9.90089E-06-4.81995E-03-2.56056E-13-1.61870E-13
 -1      3055 2.00011E+01-4.78445E-04 9.00642E-06-5.18770E-03-2.65680E-13 1.11380E-13
 -1      3056 2.00012E+01 6.45742E-04 1.28223E-05-5.16326E-03-3.82020E-13 1.32696E-13
 -1      3057 2.00023E+01 1.60233E-03 8.41514E-06-4.27384E-03-4.34448E-14-1.59463E-14
 -1      3058 2.55121E+01-4.39683E+00-1.10524E-04 1.87135E+00 1.47535E-13 3.03098E-13
 -1      3059 2.78446E+01 1.43125E+00-9.04161E-02-2.02659E+00 1.93456E-13-3.91104E-13
 -1      3060 1.85033E+01-4.16465E+00 9.24800E-02 5.62984E+00-2.32259E-13 1.45051E-13
 -1      3061 1.66289E+01-3.12914E+00 7.76301E-02 5.39689E+00-2.57148E-13 1.61780E-13
 -1      3062 2.01252E+01-4.03915E+00 3.87779E-02 4.63342E+00-2.66617E-13-8.02379E-14
 -1      3063 2.00012E+01-9.09621E-04 2.83979E-05 5.17953E-03 4.51167E-14-2.08448E-13
 -1      3064 2.39785E+01-2.92496E+00-4.79956E-02-9.17920E-01 1.79214E-14 1.31032E-13
 -1      3065 2.40921E+01-4.73083E+00 5.36213E-03 3.14400E+00-2.58460E-13-2.02845E-13
 -1      3066 2.00017E+01 1.01708E-03-1.48838E-05 4.94999E-03 7.92511E-14-3.10599E-13
 -1      3067 2.00019E+01 5.81461E-05-1.73577E-05 4.69371E-03 3.31004E-14 1.01432E-13
 -1      3068 2.00027E+01 2.24880E-03 4.98215E-05 4.07140E-03 2.27383E-13 7.53071E-14
 -1      3069 2.00021E+01 2.28450E-03 7.06199E-05 4.53642E-03 2.05150E-13-4.02090E-13
 -1      3070 1.17602E+01-2.27775E+00 1.73901E-01 5.33250E+00-1.97453E-13 4.31280E-13
 -1      3071 7.37701E+00-1.71990E+00 1.84663E-01 3.46758E+00 1.19599E-13-6.87755E-13
 -1      3072 7.64799E+00-8.43550E-01 1.54658E-01 2.33159E+00 6.97706E-14-6.94611E-13
 -1      3073 9.35348E+00-1.72598E+00 6.06169E-02 4.21259E+00 1.81494E-13-5.88252E-13
 -1      3074 2.83737E+01 5.55742E+00-1.36545E-01 6.03775E-01-6.67799E-13-1.69254E-13
 -1      3075 2.78582E+01-2.48831E-01-5.46858E-02 1.48795E+00 1.85352E-13 2.99538E-13
 -1      3076 1.34932E+01-3.25035E+00 1.16638E-01 5.83644E+00 2.47705E-13-4.10574E-13
 -1      3077 2.04515E+01 1.55653E+00 2.99342E-03 4.10483E-01 2.19253E-13-1.46409E-13
 -1      3078 2.78942E+01 6.06996E+00-1.36081E-01 3.14583E-01 5.68379E-13-6.87159E-14
 -1      3079 2.25291E+01-4.99411E+00 7.70099E-02-4.50171E+00-3.18134E-13-1.19765E-14
 -1      3080 1.92831E+01 3.30381E+00-6.57157E-03-1.85008E-01-6.79411E-14-2.87673E-13
 -1      3081 1.93601E+01 3.23897E+00-5.31577E-03-2.73523E-01-9.37293E-14-2.86347E-13
 -1      3082 1.94959E+01 2.91167E+00 6.03071E-03-2.14428E-01-9.33904E-14-2.67042E-13
 -1      3083 1.93388E+01 3.06497E+00 5.68336E-03-1.18746E-01-6.02540E-14-2.69987E-13
 -1      3084 2.79442E+01 4.87226E+00-1.34983E-01-1.66809E+00 4.34930E-13-3.93970E-13
 -1      3085 2.67681E+01 3.75771E+00-8.56602E-02-1.94992E+00 3.45182E-13-4.72629E-13
 -1      3086 2.69458E+01 5.26248E+00-1.79687E-01-1.27990E+00 4.39343E-13-3.17250E-13
 -1      3087 8.45707E+00-4.09747E-01 1.74675E-01-1.71975E+00 9.19403E-14 2.15411E-13
 -1      3088 1.24065E+01-1.87376E+00 1.42132E-01-4.72873E+00 2.78777E-13 1.67283E-13
 -1      3089 2.02417E+01 1.75659E+00-5.70505E-03 2.60440E-01 1.98223E-13-1.91335E-13
 -1      3090 2.00760E+01 1.99628E+00-2.69269E-03 2.17883E-01 1.87895E-13-1.87221E-13
 -1      3091 2.65085E+01 2.73132E+00-6.43082E-02 2.09699E+00 3.89327E-13 2.50727E-13
 -1      3092 2.63667E+01 4.06382E+00-1.80578E-01 1.64367E+00 4.25951E-13 1.52361E-13
 -1      3093 1.74441E+01-3.02561E+00 1.19907E-01-4.98165E+00 2.84418E-13-1.01204E-13
 -1      3094 2.00865E+01-4.05876E+00-3.08422E-02-4.55122E+00 2.36533E-13-6.45491E-14
 -1      3095 2.01863E+01 9.25629E-01 1.30077E-03 8.32657E-01-8.36058E-14-9.37377E-14
 -1      3096 2.01698E+01 8.42084E-01 6.48244E-04 1.01378E+00-8.35299E-14-1.08667E-13
 -1      3097 2.01090E+01 7.67908E-01 4.40205E-04 1.18315E+00-8.69001E-14-9.21706E-14
 -1      3098 2.01125E+01 6.94994E-01 2.33630E-03 1.33933E+00-7.68457E-14-1.14109E-13
 -1      3099 1.99284E+01 9.53667E-01 4.66575E-04 1.06808E+00-8.29991E-14-1.37794E-13
 -1      3100 2.00522E+01 6.14901E-01 1.05718E-04 1.49821E+00-3.53055E-14-1.05328E-13
 -1      3101 2.00879E+01 5.21194E-01 4.23353E-03 1.63424E+00 9.39239E-15-9.25951E-14
 -1      3102 1.98016E+01 7.84963E-01-4.00450E-04 1.39961E+00-5.60020E-14-1.14789E-13
 -1      3103 2.00478E+01 4.02200E-01 1.00315E-03 1.78978E+00 4.39662E-14-1.07316E-13
 -1      3104 2.01371E+01 2.51169E-01 6.60568E-03 1.90448E+00 5.88858E-14-8.35412E-14
 -1      3105 1.96926E+01 5.74579E-01-2.42044E-03 1.71961E+00 1.56451E-14-1.10537E-13
 -1      3106 2.01525E+01 5.47270E-02 4.22295E-03 2.06019E+00 6.02609E-14-5.48076E-14
 -1      3107 2.03324E+01-1.96340E-01 9.59257E-03 2.14309E+00 8.47715E-14-2.93354E-14
 -1      3108 1.96489E+01 2.43316E-01-6.69494E-03 2.04455E+00 7.91568E-14-1.12572E-13
 -1      3109 2.04652E+01-5.11160E-01 1.19429E-02 2.29209E+00 9.56118E-14-4.59160E-16
 -1      3110 2.07935E+01-9.03580E-01 1.35576E-02 2.31526E+00 9.47985E-14-2.91327E-14
 -1      3111 1.97561E+01-3.03684E-01-1.43429E-02 2.38166E+00 9.78408E-14-7.78713E-14
 -1      3112 2.11457E+01-1.37172E+00 2.54159E-02 2.42673E+00 9.55347E-14 8.29675E-15
 -1      3113 2.16787E+01-1.91747E+00 1.09196E-02 2.33075E+00 9.50221E-14 1.51260E-14
 -1      3114 2.01537E+01-1.16078E+00-2.69116E-02 2.71080E+00 1.04914E-13 5.51208E-15
 -1      3115 2.24125E+01-2.47890E+00 5.15883E-02 2.26221E+00 1.30366E-13 7.85702E-14
 -1      3116 2.31196E+01-3.07179E+00-1.04194E-02 1.95620E+00 1.59881E-13 1.14723E-13
 -1      3117 2.11450E+01-2.43203E+00-4.51204E-02 2.93136E+00 1.52657E-13 8.82888E-14
 -1      3118 2.03079E+01 1.50504E+00 3.90901E-03-4.12139E-02-1.69826E-13-1.28103E-13
 -1      3119 2.02835E+01 1.30430E+00-2.58380E-03 2.16091E-01-1.52552E-13-1.15965E-13
 -1      3120 2.10239E+01-1.18401E+00 1.37345E-02-2.19204E+00-8.58556E-14 8.08052E-14
 -1      3121 2.06287E+01-7.36713E-01 1.78527E-02-2.18995E+00-9.08145E-14 8.68886E-14
 -1      3122 2.04155E+01-3.85135E-01 9.54902E-03-2.04972E+00-8.52653E-14 2.67459E-14
 -1      3123 2.01842E+01-9.52757E-02 5.76654E-03-1.98282E+00-4.11906E-14 2.80798E-15
 -1      3124 1.97634E+01-5.41118E-01-2.22411E-02-2.34407E+00-9.50860E-14 1.94380E-13
 -1      3125 2.01233E+01 1.23711E-01 7.82748E-03-1.83016E+00 1.76110E-14-1.11477E-13
 -1      3126 1.99954E+01 2.83885E-01 6.14600E-04-1.73297E+00 2.12094E-14-3.52662E-14
 -1      3127 1.95513E+01 9.02100E-02-8.38441E-03-2.00734E+00-6.14819E-15 1.41406E-13
 -1      3128 2.00061E+01 3.99054E-01 5.47289E-03-1.59091E+00 9.50709E-14 5.85483E-15
 -1      3129 1.99366E+01 4.72553E-01-1.64695E-03-1.48311E+00 1.26154E-13 1.32353E-13
 -1      3130 1.95247E+01 4.35208E-01-2.67859E-03-1.69767E+00 1.02436E-13 1.43368E-14
 -1      3131 1.99765E+01 5.18960E-01 3.97811E-03-1.35509E+00 1.14085E-13 2.24210E-13
 -1      3132 1.99366E+01 5.38246E-01-2.54569E-03-1.24749E+00 1.15861E-13 2.44578E-13
 -1      3133 1.95818E+01 5.93185E-01 9.39500E-05-1.42394E+00 1.86512E-13 2.60153E-13
 -1      3134 1.99837E+01 5.43128E-01 3.07171E-03-1.13383E+00 1.09487E-13 3.26918E-13
 -1      3135 1.99578E+01 5.31371E-01-2.74737E-03-1.03247E+00 5.49603E-14 4.04645E-13
 -1      3136 1.96670E+01 6.34468E-01 1.22702E-03-1.18357E+00 1.91165E-13 3.67694E-13
 -1      3137 2.00017E+01 5.13449E-01 2.53486E-03-9.32752E-01 3.68303E-16 4.99431E-13
 -1      3138 1.99820E+01 4.85888E-01-2.61076E-03-8.41037E-01 9.43603E-14 5.60806E-13
 -1      3139 1.97521E+01 6.08566E-01 1.51242E-03-9.72941E-01 6.94226E-14 4.14554E-13
 -1      3140 2.00188E+01 4.57201E-01 2.18311E-03-7.54772E-01-1.83011E-14 4.55456E-13
 -1      3141 2.00019E+01 4.23318E-01-2.31909E-03-6.74346E-01-5.89841E-14 3.24775E-13
 -1      3142 1.98255E+01 5.48036E-01 1.40521E-03-7.89628E-01-2.79353E-14 4.38008E-13
 -1      3143 2.00307E+01 3.91150E-01 1.91172E-03-6.00878E-01-8.69847E-15 2.16795E-13
 -1      3144 2.00155E+01 3.56496E-01-1.97434E-03-5.32162E-01-3.44613E-14 9.96053E-14
 -1      3145 1.98836E+01 4.73290E-01 1.14984E-03-6.31941E-01-1.32037E-13 3.02823E-13
 -1      3146 2.00371E+01 3.24972E-01 1.67096E-03-4.70615E-01-4.51727E-14 7.76279E-14
 -1      3147 2.00233E+01 2.92553E-01-1.63114E-03-4.13205E-01-2.07852E-13 1.18664E-13
 -1      3148 1.99271E+01 3.96452E-01 8.69300E-04-4.98261E-01-4.61073E-14 5.25897E-14
 -1      3149 2.00389E+01 2.63796E-01 1.44299E-03-3.62498E-01-2.60423E-13 2.06118E-13
 -1      3150 2.00266E+01 2.35043E-01-1.31666E-03-3.15480E-01-1.72223E-13 1.52191E-13
 -1      3151 1.99581E+01 3.24210E-01 6.18668E-04-3.86732E-01-9.55415E-14 1.98421E-13
 -1      3152 2.00375E+01 2.09971E-01 1.22542E-03-2.74387E-01-2.77838E-13 1.91781E-13
 -1      3153 2.00268E+01 1.85376E-01-1.04228E-03-2.36576E-01-2.40773E-13 1.20801E-13
 -1      3154 1.99794E+01 2.59836E-01 4.16562E-04-2.95203E-01-1.83646E-13 1.06807E-13
 -1      3155 2.00342E+01 1.64203E-01 1.02168E-03-2.03812E-01-2.28212E-13 2.00839E-13
 -1      3156 2.00251E+01 1.43729E-01-8.10735E-04-1.73921E-01-2.18720E-13 1.52726E-13
 -1      3157 1.99933E+01 2.04536E-01 2.63905E-04-2.21314E-01-2.67616E-13 6.10507E-14
 -1      3158 2.00298E+01 1.26283E-01 8.36064E-04-1.48216E-01-2.90324E-13 1.74310E-13
 -1      3159 2.00223E+01 1.09609E-01-6.20155E-04-1.24973E-01-3.49516E-13 2.02957E-14
 -1      3160 2.00019E+01 1.58319E-01 1.54207E-04-1.62627E-01-2.29224E-13 3.27255E-13
 -1      3161 2.00252E+01 9.55263E-02 6.71666E-04-1.05128E-01-2.44954E-13 6.76224E-14
 -1      3162 2.00190E+01 8.22017E-02-4.66491E-04-8.73505E-02-1.58724E-13 1.03305E-13
 -1      3163 2.00068E+01 1.20542E-01 7.88331E-05-1.16765E-01-2.74109E-13 3.02801E-13
 -1      3164 2.00206E+01 7.10360E-02 5.29831E-04-7.22821E-02-3.69682E-14 2.29511E-13
 -1      3165 2.00158E+01 6.05679E-02-3.44852E-04-5.89127E-02 5.48270E-14 1.36252E-13
 -1      3166 2.00091E+01 9.02498E-02 2.94612E-05-8.15054E-02-8.29289E-16 3.47088E-13
 -1      3167 2.00165E+01 5.18580E-02 4.10418E-04-4.76687E-02 9.20251E-14 1.97042E-13
 -1      3168 2.00127E+01 4.37608E-02-2.50309E-04-3.77960E-02 2.32055E-14 1.46218E-13
 -1      3169 2.00098E+01 6.63716E-02-9.94081E-07-5.48513E-02 1.12251E-13 3.45709E-13
 -1      3170 2.00129E+01 3.70650E-02 3.12232E-04-2.95652E-02-8.44384E-14 1.64582E-13
 -1      3171 2.00100E+01 3.08858E-02-1.78313E-04-2.24248E-02 7.96924E-14 9.28879E-14
 -1      3172 2.00094E+01 4.78394E-02-1.82237E-05-3.50630E-02 4.97326E-14 4.28867E-13
 -1      3173 2.00098E+01 2.57983E-02 2.33319E-04-1.65345E-02 1.13176E-13-1.22070E-13
 -1      3174 2.00076E+01 2.11276E-02-1.25278E-04-1.15032E-02 1.67109E-13-1.46064E-13
 -1      3175 2.00084E+01 3.36484E-02-2.65620E-05-2.06685E-02 5.11110E-14 1.79167E-13
 -1      3176 2.00072E+01 1.72835E-02 1.70911E-04-7.41315E-03 1.85632E-13-2.26978E-13
 -1      3177 2.00056E+01 1.37626E-02-8.63299E-05-3.99971E-03 1.58991E-13-4.32036E-13
 -1      3178 2.00071E+01 2.28824E-02-2.94729E-05-1.04569E-02 9.32427E-14-3.19586E-13
 -1      3179 2.00051E+01 1.08479E-02 1.21716E-04-1.28501E-03-4.33933E-15-2.83702E-13
 -1      3180 2.00039E+01 8.17500E-03-5.08814E-05 8.91321E-04-7.11284E-14-4.21076E-13
 -1      3181 2.00057E+01 1.47518E-02-2.43007E-05-3.47332E-03 4.85394E-14-3.68785E-13
 -1      3182 2.00034E+01 6.08493E-03 9.16264E-05 2.43534E-03 1.33205E-14-3.26907E-13
 -1      3183 2.00026E+01 3.96797E-03-2.91389E-05 3.67197E-03 1.92098E-13-3.60321E-13
 -1      3184 2.00029E+01 4.07156E-03-6.01971E-05 3.47162E-03 1.38267E-13-1.95850E-13
 -1      3185 2.00042E+01 8.64421E-03-5.31703E-05 9.10820E-04 4.94045E-14-1.98855E-13
 -1      3186 2.05088E+01 3.60686E-01 9.56292E-04-1.08119E+00 7.15251E-14-9.69340E-14
 -1      3187 2.04615E+01 4.61750E-01 4.04446E-03-9.69036E-01 8.80223E-14-9.41438E-14
 -1      3188 2.73019E+01-2.24494E+00-2.38123E-02-1.14628E+00-7.01175E-14 3.39999E-13
 -1      3189 2.17036E+01-1.03618E+00-4.66332E-03-1.17870E+00-6.26932E-14 9.03479E-14
 -1      3190 2.14590E+01-7.74525E-01 1.39264E-02-1.31115E+00-2.51648E-14 4.69980E-14
 -1      3191 2.11936E+01-5.44921E-01-1.20584E-03-1.35160E+00 8.31583E-16 1.70431E-14
 -1      3192 2.10070E+01-3.31289E-01 9.41123E-03-1.39446E+00-2.18896E-14 3.55856E-14
 -1      3193 2.10427E+01-7.46496E-01-1.50130E-02-1.54147E+00-4.57135E-14 4.46028E-14
 -1      3194 2.32053E+01-1.91892E+00-1.66682E-02-9.40132E-02-5.15126E-14 2.61033E-13
 -1      3195 2.29197E+01-1.77261E+00 1.97436E-02-4.65410E-01-5.99355E-14 1.79936E-13
 -1      3196 2.39862E+01-1.74167E+00-1.45231E-02 8.39904E-01 9.50997E-15 3.51948E-13
 -1      3197 2.37761E+01-1.91641E+00 9.92229E-03 4.05449E-01-2.47341E-14 3.41588E-13
 -1      3198 2.36039E+01-2.29563E+00-1.60612E-02-1.80299E-01-9.53786E-14 1.80365E-13
 -1      3199 2.44528E+01-6.59569E-01-6.28135E-03 1.74464E+00 5.92547E-14 3.63635E-13
 -1      3200 2.43895E+01-1.35175E+00-2.66738E-02 1.41184E+00 6.62998E-14 4.14668E-13
 -1      3201 2.46299E+01-1.86684E+00-3.72608E-03 9.27593E-01 3.03056E-14 3.21297E-13
 -1      3202 2.42567E+01 3.09270E+00-4.15550E-02 1.25061E+00 1.90230E-13 5.82772E-14
 -1      3203 2.44099E+01 2.22677E+00-7.63860E-02 1.81092E+00 1.44950E-13 6.82778E-14
 -1      3204 2.37122E+01 3.25295E+00-5.66118E-02-6.24953E-01 2.54231E-13-9.62576E-15
 -1      3205 2.36884E+01 3.38747E+00-4.92994E-02 1.44285E-01 2.35277E-13-1.38604E-14
 -1      3206 2.42367E+01 1.89391E+00-7.77872E-02-1.97072E+00 2.45680E-13-2.43519E-13
 -1      3207 2.41057E+01 2.81682E+00-1.40212E-02-1.49862E+00 2.69361E-13-1.48931E-13
 -1      3208 2.45364E+01-1.67829E-01-5.30774E-02-2.09973E+00 1.70790E-13-3.65680E-13
 -1      3209 2.44451E+01 8.41359E-01-4.03516E-03-2.14501E+00 1.95337E-13-2.62076E-13
 -1      3210 2.52152E+01 1.55690E+00-3.39671E-02-2.23654E+00 2.61378E-13-4.12229E-13
 -1      3211 2.43353E+01-1.50455E+00-8.93230E-04-1.33797E+00 4.19265E-14-3.06084E-13
 -1      3212 2.43868E+01-9.52374E-01-1.04373E-02-1.69137E+00 9.80908E-14-3.05927E-13
 -1      3213 2.51336E+01-7.11350E-01-7.90954E-03-1.88388E+00 1.17784E-13-3.22388E-13
 -1      3214 2.36032E+01-1.88059E+00 1.29631E-02-3.25228E-01 7.39799E-14-2.08552E-13
 -1      3215 2.38326E+01-1.80932E+00-1.82073E-02-7.34875E-01 7.16816E-14-2.28375E-13
 -1      3216 2.44429E+01-2.05076E+00-2.06911E-02-8.00265E-01 5.08213E-14-2.62297E-13
 -1      3217 2.27432E+01-1.63099E+00 1.97824E-02 4.59558E-01 8.85815E-15-8.14279E-14
 -1      3218 2.30339E+01-1.82159E+00-1.61505E-02 1.24521E-01 4.00045E-14-1.23022E-13
 -1      3219 2.33117E+01-2.22620E+00-2.74222E-02 2.52393E-01-5.22585E-15-7.88783E-14
 -1      3220 2.19583E+01-1.13377E+00 1.72114E-02 9.40717E-01-5.93546E-14-1.04034E-14
 -1      3221 2.22365E+01-1.40316E+00-9.97151E-03 7.27344E-01 2.46756E-14 3.34258E-14
 -1      3222 2.22841E+01-1.78331E+00-2.12201E-02 9.43493E-01-4.78441E-14 4.90268E-14
 -1      3223 2.13526E+01-6.37759E-01 1.22406E-02 1.16602E+00-1.51145E-13 4.09831E-14
 -1      3224 2.15845E+01-8.83152E-01-4.10710E-03 1.05869E+00-1.20326E-13-3.77298E-14
 -1      3225 2.14594E+01-1.16320E+00-1.79613E-02 1.27596E+00-9.57204E-14 1.05330E-13
 -1      3226 2.09259E+01-2.45998E-01 7.47215E-03 1.21876E+00-1.36052E-13-6.12230E-15
 -1      3227 2.11046E+01-4.30423E-01-6.98975E-04 1.18795E+00-5.99966E-14-4.47572E-14
 -1      3228 2.08889E+01-6.02007E-01-1.28781E-02 1.37444E+00-6.46872E-14-1.58457E-14
 -1      3229 2.06402E+01 2.20633E-02 3.94279E-03 1.16683E+00-9.21135E-14-1.17252E-13
 -1      3230 2.07734E+01-9.91142E-02 9.92428E-04 1.18554E+00-1.72602E-13-1.55141E-13
 -1      3231 2.05254E+01-1.81191E-01-8.26479E-03 1.33559E+00-7.15641E-14-2.27267E-13
 -1      3232 2.04527E+01 1.82970E-01 1.61318E-03 1.05754E+00-9.06461E-14 2.57661E-14
 -1      3233 2.05519E+01 1.13591E-01 1.76019E-03 1.10508E+00-8.85538E-14-6.47007E-14
 -1      3234 2.03077E+01 9.54696E-02-4.91455E-03 1.22393E+00-1.25374E-13-1.25829E-13
 -1      3235 2.03294E+01 2.63718E-01 2.16407E-04 9.21935E-01-5.34106E-14 1.50715E-13
 -1      3236 2.04046E+01 2.31755E-01 2.08087E-03 9.83622E-01-5.27844E-14 1.11008E-13
 -1      3237 2.01834E+01 2.54757E-01-2.71563E-03 1.07859E+00-1.60929E-13 6.08669E-14
 -1      3238 2.02464E+01 2.90268E-01-5.43971E-04 7.79751E-01 1.20892E-13 2.32070E-13
 -1      3239 2.03047E+01 2.82901E-01 2.16630E-03 8.45754E-01 8.56777E-14 2.01141E-13
 -1      3240 2.01152E+01 3.29178E-01-1.39325E-03 9.22971E-01-2.35006E-14 2.78768E-13
 -1      3241 2.01884E+01 2.83310E-01-8.98125E-04 6.42951E-01 7.43773E-14 2.63964E-13
 -1      3242 2.02345E+01 2.90710E-01 2.11895E-03 7.07083E-01 1.01733E-13 2.11550E-13
 -1      3243 2.00787E+01 3.47544E-01-6.70554E-04 7.70842E-01 1.39961E-13 2.64828E-13
 -1      3244 2.01460E+01 2.57736E-01-1.00737E-03 5.18327E-01 6.08357E-14 2.28045E-13
 -1      3245 2.01831E+01 2.72989E-01 1.99066E-03 5.76994E-01 1.18686E-13 2.97882E-13
 -1      3246 2.00591E+01 3.32006E-01-3.05664E-04 6.30058E-01 9.54723E-14 1.34803E-13
 -1      3247 2.01139E+01 2.23579E-01-9.77431E-04 4.09195E-01-1.92924E-14 5.01410E-14
 -1      3248 2.01438E+01 2.42111E-01 1.80926E-03 4.60616E-01 2.42986E-14 1.82648E-13
 -1      3249 2.00481E+01 2.98189E-01-1.41118E-04 5.04778E-01 1.02689E-13 1.03134E-13
 -1      3250 2.00889E+01 1.87201E-01-8.76142E-04 3.16549E-01-7.86167E-14-1.24256E-13
 -1      3251 2.01130E+01 2.06167E-01 1.59740E-03 3.60156E-01-1.02335E-13-7.17204E-14
 -1      3252 2.00410E+01 2.56511E-01-8.06933E-05 3.96691E-01-7.64171E-16 7.77595E-14
 -1      3253 2.00690E+01 1.52356E-01-7.45605E-04 2.39907E-01 5.22639E-14-1.05801E-13
 -1      3254 2.00883E+01 1.70121E-01 1.37425E-03 2.75900E-01-8.47439E-14-2.01355E-13
 -1      3255 2.00357E+01 2.13513E-01-6.84379E-05 3.05823E-01-6.72426E-14-1.24437E-13
 -1      3256 2.00531E+01 1.21030E-01-6.10615E-04 1.77919E-01 9.91379E-14 2.27146E-14
 -1      3257 2.00684E+01 1.36767E-01 1.15475E-03 2.06940E-01 1.66329E-13-4.42423E-14
 -1      3258 2.00311E+01 1.73003E-01-7.41150E-05 2.31142E-01 3.18134E-14-1.98652E-13
 -1      3259 2.00403E+01 9.40698E-02-4.84722E-04 1.28801E-01-6.52864E-14 2.04485E-13
 -1      3260 2.00523E+01 1.07469E-01 9.49412E-04 1.51713E-01-1.70527E-14 8.14787E-14
 -1      3261 2.00269E+01 1.36949E-01-8.28847E-05 1.71015E-01-3.45670E-15 1.28161E-13
 -1      3262 2.00303E+01 7.16202E-02-3.74432E-04 9.06288E-02-3.12737E-14 1.66641E-13
 -1      3263 2.00395E+01 8.26838E-02 7.64747E-04 1.08362E-01-1.82667E-14 1.93498E-13
 -1      3264 2.00228E+01 1.06126E-01-8.85238E-05 1.23527E-01-4.12043E-14 3.23755E-13
 -1      3265 2.00223E+01 5.34188E-02-2.81978E-04 6.15214E-02 9.70208E-15 3.18317E-13
 -1      3266 2.00293E+01 6.23252E-02 6.03948E-04 7.49817E-02-6.11375E-14 1.44111E-13
 -1      3267 2.00191E+01 8.05807E-02-8.92706E-05 8.67106E-02-8.52984E-14 3.90198E-13
 -1      3268 2.00162E+01 3.89917E-02-2.07110E-04 3.97536E-02 8.94341E-14 2.23731E-13
 -1      3269 2.00214E+01 4.60077E-02 4.67726E-04 4.97676E-02 1.82684E-13 2.44679E-13
 -1      3270 2.00156E+01 5.99427E-02-8.53920E-05 5.86902E-02 9.08599E-14 3.82172E-13
 -1      3271 2.00115E+01 2.77746E-02-1.48431E-04 2.38118E-02 5.55456E-14 4.77572E-14
 -1      3272 2.00153E+01 3.32006E-02 3.55199E-04 3.11004E-02 7.42531E-14 1.00078E-13
 -1      3273 2.00125E+01 4.36277E-02-7.80325E-05 3.77700E-02 1.76219E-13 1.92937E-13
 -1      3274 2.00079E+01 1.91815E-02-1.04365E-04 1.24186E-02 1.14539E-13-1.07056E-13
 -1      3275 2.00106E+01 2.33220E-02 2.64710E-04 1.75854E-02 1.38938E-13-4.40949E-14
 -1      3276 2.00098E+01 3.09629E-02-6.87855E-05 2.24744E-02 1.87603E-13 5.68433E-14
 -1      3277 2.00053E+01 1.26481E-02-7.24342E-05 4.53863E-03-1.36615E-13-3.27088E-15
 -1      3278 2.00071E+01 1.57898E-02 1.93628E-04 8.06878E-03 2.72203E-14-3.76987E-14
 -1      3279 2.00075E+01 2.12619E-02-5.79992E-05 1.15661E-02-7.09017E-14 1.96252E-13
 -1      3280 2.00033E+01 7.68023E-03-4.90211E-05-6.41502E-04-2.36730E-13 2.20601E-15
 -1      3281 2.00046E+01 1.00700E-02 1.37904E-04 1.63476E-03-2.20996E-13-3.98464E-15
 -1      3282 2.00055E+01 1.38893E-02-4.25891E-05 4.06100E-03-1.78396E-13 3.94889E-13
 -1      3283 2.00020E+01 3.83220E-03-1.06567E-05-3.73264E-03-1.99826E-13-1.70063E-14
 -1      3284 2.00027E+01 5.64983E-03 9.09558E-05-2.45335E-03-2.09739E-13-6.68880E-14
 -1      3285 2.00038E+01 8.23056E-03-3.74345E-05-8.48063E-04-2.80758E-13 1.97802E-13
 -1      3286 2.00015E+01 1.72613E-03 9.98060E-06-4.76912E-03-3.53008E-13 1.92366E-13
 -1      3287 2.00017E+01 2.82480E-03 3.42139E-05-4.38098E-03-2.87703E-13-6.60914E-16
 -1      3288 2.00028E+01 4.57948E-03-2.75477E-05-3.32739E-03-3.16259E-13 1.02526E-13
 -1      3289 2.00021E+01 2.12670E-03-2.65225E-05-4.39210E-03-3.19821E-13 9.33735E-14
 -1      3290 1.37912E+01-2.27792E+00 4.88227E-02 5.28721E+00-2.50022E-13 3.91173E-13
 -1      3291 1.11383E+01-1.42860E+00 1.71342E-01 4.59433E+00-2.49946E-13 4.90177E-13
 -1      3292 1.13620E+01-7.93395E-01 1.41156E-01 3.74463E+00-1.72029E-13 4.36373E-13
 -1      3293 1.94106E+01 2.73912E+00-3.30704E-03 3.57339E-02 7.37137E-14-2.30004E-13
 -1      3294 1.93420E+01 2.80100E+00-5.06900E-03-8.85241E-03 2.83276E-14-2.39331E-13
 -1      3295 2.04518E+01 5.59927E-01 1.23583E-04-8.26542E-01 1.14035E-13-1.07404E-13
 -1      3296 2.04371E+01 6.67608E-01 3.93675E-03-6.72364E-01 1.20527E-13-1.03258E-13
 -1      3297 2.03139E+01 6.26037E-01-2.88821E-03-9.14117E-01 9.21628E-14-1.00572E-13
 -1      3298 2.00033E+01 8.05105E-03-2.24676E-05 1.24465E-04 9.30711E-14-1.48100E-13
 -1      3299 2.00033E+01 8.06458E-03-2.43168E-05-2.64024E-04 1.15979E-13 6.12310E-14
 -1      3300 2.00034E+01 4.79351E-03-1.05083E-05 2.73809E-03 2.13620E-13 2.14924E-13
 -1      3301 2.00036E+01 5.37598E-03-4.01252E-05 2.13146E-03 2.26874E-13-1.89532E-14
 -1      3302 2.80511E+01 2.71020E+00-5.10696E-02 2.38399E+00-2.47177E-13-2.55448E-13
 -1      3303 2.00036E+01 6.42679E-03 4.45118E-06 1.62738E-03 2.38227E-13-2.75219E-13
 -1      3304 2.00035E+01 6.84869E-03-4.35939E-05 1.12108E-03 3.03765E-13 3.95681E-14
 -1      3305 2.00041E+01 8.90462E-03 4.39646E-05 1.20271E-03 1.54675E-13-1.29151E-13
 -1      3306 2.00385E+01 2.51957E+00-7.93564E-03-6.56697E-01-2.06265E-13-2.00939E-13
 -1      3307 2.02077E+01 2.30203E+00-7.70496E-03-7.27275E-01-2.28271E-13-1.89811E-13
 -1      3308 2.02822E+01 2.02831E+00 6.14134E-03-5.27586E-01-2.15726E-13-1.72789E-13
 -1      3309 2.00407E+01 2.32686E+00 8.32807E-03-4.24781E-01-1.89116E-13-1.98187E-13
 -1      3310 2.12261E+01-4.41547E+00-8.39817E-02 4.28459E+00 3.01731E-13 2.22263E-13
 -1      3311 1.90543E+01-3.61585E+00 1.98702E-01 5.09275E+00 3.17274E-13 3.01981E-14
 -1      3312 2.23901E+01-1.56126E+00-1.10632E-02-7.82487E-01-7.64983E-14 1.47645E-13
 -1      3313 2.20999E+01-1.29368E+00 1.82025E-02-1.02893E+00-8.90535E-14 1.38402E-13
 -1      3314 2.16492E+01-1.34996E+00-2.10476E-02-1.39264E+00-8.76636E-14 4.41510E-14
 -1      3315 2.25205E+01-1.97459E+00-2.69471E-02-9.79944E-01-1.14692E-13 7.39597E-14
 -1      3316 2.52713E+01-4.32825E+00-3.73708E-02 1.87942E+00-1.86004E-13-2.35374E-13
 -1      3317 2.32316E+01-4.38314E+00 1.78600E-02 3.08536E+00-2.37206E-13-1.36444E-13
 -1      3318 2.70529E+01-1.43723E+00 2.76663E-02 1.29181E+00 7.02216E-14 3.39222E-13
 -1      3319 2.66862E+01 4.34537E-01-1.22504E-01 2.01819E+00 2.35555E-13 3.15904E-13
 -1      3320 2.21188E+01-2.28566E+00 9.64412E-03-2.09256E+00 5.12975E-14 1.35481E-13
 -1      3321 2.15146E+01-1.69976E+00 3.77295E-02-2.25647E+00-1.75293E-14 8.31149E-14
 -1      3322 2.03662E+01-1.55022E+00-4.80332E-02-2.64641E+00-5.56031E-14 2.69782E-13
 -1      3323 2.02605E+01 1.14880E+00 1.93191E-03 4.29360E-01-1.37025E-13-9.77335E-14
 -1      3324 2.02344E+01 1.02489E+00-8.52566E-04 6.44677E-01-1.02654E-13-9.48015E-14
 -1      3325 2.00450E+01 1.14770E+00 9.74112E-04 7.07242E-01-8.96902E-14-1.14113E-13
 -1      3326 2.67441E+01 1.90163E+00-1.37002E-01-2.24814E+00 2.71866E-13-4.86208E-13
 -1      3327 2.73635E+01 2.62228E-01-2.68495E-02-2.06806E+00 1.18489E-13-4.11060E-13
 -1      3328 1.65834E+01-3.22082E+00 1.42348E-01-5.57545E+00-3.86677E-13-1.63661E-13
 -1      3329 1.86849E+01-4.16569E+00-2.24982E-02-5.50218E+00-3.31797E-13-1.89571E-14
 -1      3330 1.51630E+01-3.00180E+00-3.22980E-02 5.44673E+00 3.11931E-13-2.30510E-13
 -1      3331 1.23126E+01-1.98771E+00 2.24040E-01 5.06311E+00 2.37380E-13-4.65544E-13
 -1      3332 2.65499E+01 5.46605E+00-1.03176E-01 7.64856E-01 4.68625E-13-5.79363E-14
 -1      3333 2.69248E+01 5.75867E+00-1.51540E-01-4.14391E-01 4.72677E-13-2.70178E-13
 -1      3334 9.12171E+00 3.11556E-01 1.94756E-01-4.02386E-01 1.33730E-14 1.31103E-13
 -1      3335 1.00906E+01-2.16419E-02 7.14918E-02-2.09284E+00 9.97570E-14 1.24206E-13
 -1      3336 2.04922E+01 1.20264E+00-4.39069E-04 1.22521E-01 1.98586E-13-1.36157E-13
 -1      3337 2.03580E+01 1.55265E+00 2.45454E-03 2.13437E-01 2.01838E-13-1.70508E-13
 -1      3338 2.03042E+01 1.43080E+00 4.70568E-03-1.04149E-02 1.85774E-13-1.66829E-13
 -1      3339 2.04701E+01 1.00915E+00-1.91037E-03-1.38350E-01 1.82283E-13-1.24423E-13
 -1      3340 2.56003E+01-4.15262E+00 8.04913E-02-1.72334E+00-2.18259E-13 1.46855E-13
 -1      3341 2.64445E+01-3.32109E+00-1.44931E-01-2.30679E-01-3.68329E-14 2.60091E-13
 -1      3342 2.39746E+01-3.62545E+00 1.41767E-02-1.69220E+00 1.35130E-13 7.50715E-14
 -1      3343 2.30187E+01-2.97802E+00 5.99127E-02-2.06219E+00 1.24283E-13 1.42434E-13
 -1      3344 2.15559E+01-2.93744E+00-4.60270E-02-2.85173E+00 8.08104E-14 1.46543E-13
 -1      3345 2.38966E+01-4.42704E+00-4.53011E-02-2.60347E+00 2.14703E-13-1.46315E-14
 -1      3346 1.20599E+01-8.61819E-01 1.01997E-01-3.83196E+00 2.43673E-13 1.88613E-13
 -1      3347 1.44534E+01-2.14017E+00 7.87026E-03-4.94263E+00 2.56246E-13 2.39114E-14
 -1      3348 2.13028E+01-4.54247E+00 9.78619E-02-4.63603E+00-3.35107E-13 1.42490E-14
 -1      3349 2.36052E+01-4.85551E+00-1.01221E-01-3.35190E+00-3.30548E-13-2.03917E-15
 -1      3350 2.06107E+01-3.88383E+00 6.30152E-02-4.37833E+00-3.30777E-13-1.03962E-14
 -1      3351 2.00034E+01 7.56260E-03-8.22568E-06 7.92253E-04 2.61127E-13 2.85979E-14
 -1      3352 2.00033E+01 7.78690E-03-3.63734E-05 3.73751E-04 2.31507E-13-3.11500E-14
 -1      3353 2.00037E+01 1.16012E-02 6.95577E-05 7.59187E-05 1.14760E-13 8.22247E-14
 -1      3354 2.00039E+01 1.06505E-02 6.33380E-05 4.92097E-04 1.97950E-13 6.72186E-14
 -1      3355 2.67405E+01-3.11774E+00 2.54479E-02-4.21873E-01 7.50793E-14 2.99261E-13
 -1      3356 2.50680E+01-3.62141E+00-3.22660E-02 8.66865E-01 1.89300E-13 2.57360E-13
 -1      3357 2.56377E+01-3.91151E+00-7.23080E-02 9.56675E-01 1.30545E-13 3.09896E-13
 -1      3358 2.38268E+01-4.44651E+00 1.10286E-01 3.03878E+00 2.60045E-13 2.44197E-13
 -1      3359 2.43033E+01-3.36875E+00 7.33842E-02 1.46945E+00 1.83308E-13 1.76539E-13
 -1      3360 1.93026E+01 2.84436E+00-3.69127E-03-1.57748E-02 1.15719E-14-2.37152E-13
 -1      3361 1.92926E+01 2.85175E+00-4.58771E-03-5.43505E-02-1.98263E-14-2.52011E-13
 -1      3362 1.93618E+01 2.60059E+00 6.93839E-03-4.68984E-02 2.34508E-14-2.12408E-13
 -1      3363 1.55244E+01-2.33694E+00 7.89252E-02-4.99125E+00-3.60600E-13-1.77504E-13
 -1      3364 2.56380E+01 4.38758E+00-6.63102E-02 1.11795E+00 3.45640E-13-7.84442E-14
 -1      3365 8.48506E+00-2.07366E-01 1.72482E-01 1.11206E+00 8.10263E-14-6.52881E-13
 -1      3366 9.60523E+00 2.11520E-01 7.51369E-02 1.33432E-01 2.75795E-14-6.03295E-13
 -1      3367 9.67029E+00-2.27479E-01 6.34537E-02 2.10096E+00 1.43333E-13-5.81285E-13
 -1      3368 2.21284E+01-4.18094E+00 1.00020E-01-3.68120E+00 2.19710E-13-4.20801E-14
 -1      3369 2.10338E+01-3.48286E+00 4.04201E-02-3.67984E+00 2.24997E-13-4.28425E-14
 -1      3370 2.23155E+01-3.88999E+00 3.24567E-02 3.29959E+00 2.67324E-13 1.81036E-13
 -1      3371 2.68405E+01-9.19651E-01-5.21346E-03-1.54812E+00 8.28261E-14-3.31332E-13
 -1      3372 2.01260E+01 1.43140E+00 1.45674E-03 3.02222E-01-1.38475E-13-1.19910E-13
 -1      3373 2.54259E+01 3.49636E+00-1.38904E-01-1.80313E+00 3.27627E-13-3.56916E-13
 -1      3374 2.61570E+01 3.07812E+00-6.80730E-02-2.16505E+00 3.16747E-13-4.78138E-13
 -1      3375 2.08485E+01-1.53116E-01 7.09589E-04-1.36298E+00-4.22880E-14-7.64506E-15
 -1      3376 2.07163E+01 5.60633E-03 6.18009E-03-1.34077E+00 9.43986E-15-2.20227E-14
 -1      3377 2.06609E+01-2.55703E-01-1.00965E-02-1.51642E+00-4.40721E-14 4.94263E-14
 -1      3378 1.00842E+01-7.28930E-02 1.00782E-01-2.00630E+00-1.06710E-13-5.60871E-13
 -1      3379 1.03451E+01-3.71525E-01 1.79400E-01-3.06426E+00-1.92974E-13-5.15879E-13
 -1      3380 1.19400E+01-8.15508E-01 6.02776E-02-3.73284E+00-2.61874E-13-3.27516E-13
 -1      3381 2.28381E+01-3.64879E+00-6.93078E-02 2.59767E+00 2.06493E-13 1.47891E-13
 -1      3382 1.71650E+01-2.73942E+00 5.32620E-02 4.79279E+00 2.84509E-13-7.69523E-14
 -1      3383 1.67413E+01-2.10583E+00 7.65963E-02-4.40201E+00 2.31301E-13-7.02563E-15
 -1      3384 2.79908E+01-1.05776E+00 1.67518E-02 1.86876E+00 1.20459E-13-1.40804E-13
 -1      3385 2.00037E+01 1.16356E-02 7.18443E-05-2.28269E-04 8.07057E-15-1.93631E-13
 -1      3386 2.00033E+01 7.82604E-03-3.64913E-05-4.90681E-04 1.97102E-13 2.37493E-14
 -1      3387 2.00033E+01 7.60738E-03-9.25582E-06-9.04318E-04 1.72351E-13-4.57655E-13
 -1      3388 2.00034E+01 5.48483E-03-3.59369E-05-2.18916E-03 5.58857E-14-2.93251E-13
 -1      3389 2.00033E+01 4.94643E-03 9.45650E-06-2.74759E-03-5.48127E-14 2.68950E-13
 -1      3390 2.04519E+01 7.52367E-01-3.32557E-04-5.20049E-01 1.30019E-13-1.06616E-13
 -1      3391 2.04619E+01 8.88887E-01 3.79121E-03-3.17970E-01 1.48108E-13-1.15704E-13
 -1      3392 2.03746E+01 1.06796E+00-3.95380E-03-2.59900E-01 1.61688E-13-1.31470E-13
 -1      3393 2.03346E+01 8.44230E-01-2.10300E-03-6.06611E-01 1.21104E-13-1.21775E-13
 -1      3394 2.56780E+01-3.48786E+00-6.79981E-03 5.97965E-01-8.33153E-14-3.27453E-13
 -1      3395 2.43610E+01 1.26434E+00-7.05494E-03 1.97465E+00 8.56572E-14 1.87465E-13
 -1      3396 2.44764E+01 2.52394E-01-6.06163E-02 2.06855E+00 6.31648E-14 2.88799E-13
 -1      3397 2.46782E+01 3.55732E+00-5.60940E-02-1.17766E+00 3.19536E-13-2.48548E-13
 -1      3398 1.58898E+01-2.51193E+00 9.60576E-02 5.15112E+00-2.81025E-13 2.23516E-13
 -1      3399 1.49722E+01-1.75976E+00 3.67164E-02 4.62873E+00-3.47888E-13 2.75793E-13
 -1      3400 1.75395E+01-2.69189E+00 5.61689E-03 4.67377E+00-3.26263E-13 6.20129E-14
 -1      3401 2.00034E+01 6.90835E-03-4.23433E-05-1.22811E-03 1.02122E-13-6.84351E-13
 -1      3402 2.00035E+01 6.50608E-03 3.95098E-06-1.71558E-03 2.17085E-13-6.68440E-13
 -1      3403 2.00039E+01 8.97745E-03 3.79883E-05-1.29044E-03-3.02714E-15-3.70366E-13
 -1      3404 2.00038E+01 1.07094E-02 6.59177E-05-6.16174E-04 1.55077E-13-6.25476E-13
 -1      3405 9.85980E+00 2.52736E-01 1.01944E-01 6.71451E-01-6.68875E-14 1.37765E-13
 -1      3406 1.95042E+01 2.63777E+00-5.28671E-03 5.22036E-02 9.70372E-14-2.23777E-13
 -1      3407 1.95026E+01 2.45930E+00 6.62773E-03-4.06498E-02 7.98900E-14-1.95148E-13
 -1      3408 1.96219E+01 2.52162E+00-3.57905E-03 1.04609E-01 1.33383E-13-2.22716E-13
 -1      3409 2.20146E+01-4.21196E+00 3.77434E-02 3.76235E+00-3.11504E-13-1.54978E-13
 -1      3410 2.03820E+01-3.57705E+00 3.02256E-02 4.08846E+00-3.00922E-13-1.23670E-13
 -1      3411 2.32918E+01-3.87533E+00 3.51742E-02 2.47350E+00-2.71165E-13-1.71608E-13
 -1      3412 1.18437E+01-1.28278E-01 1.03483E-01-2.86771E+00 1.37695E-13 1.19717E-13
 -1      3413 1.37573E+01-2.89262E-01 5.38153E-02-3.12926E+00 9.38118E-14 5.54418E-14
 -1      3414 1.19825E+01 4.39193E-01 2.46115E-02-1.71505E+00-2.51535E-16 5.34642E-14
 -1      3415 2.59759E+01 4.80849E+00-9.74236E-02-8.63429E-01 3.72966E-13-3.48475E-13
 -1      3416 2.05457E+01 2.56813E-01 4.50534E-03-1.19251E+00 4.96236E-14-6.72191E-14
 -1      3417 2.03447E+01 3.87551E-01-4.44079E-03-1.18095E+00 4.11100E-14-7.68425E-14
 -1      3418 2.06317E+01 1.37820E-01 1.21321E-03-1.26352E+00 2.61751E-14-4.39381E-14
 -1      3419 1.16498E+01-1.23471E+00 1.28102E-01 4.17259E+00 1.97425E-13-4.75148E-13
 -1      3420 2.61495E+01-2.26200E+00-1.90251E-03 6.77993E-01-1.73672E-14 3.13624E-13
 -1      3421 2.56802E+01 6.09677E-02-9.07081E-03 1.98917E+00 1.29979E-13 3.84437E-13
 -1      3422 2.63308E+01 1.22951E+00-8.57835E-02 2.23460E+00 2.89616E-13 3.23179E-13
 -1      3423 2.54104E+01 1.97375E+00-3.06357E-02 2.14255E+00 2.37553E-13 2.41838E-13
 -1      3424 1.99116E+01 2.19426E+00-4.53483E-03 1.87321E-01 1.83761E-13-1.88774E-13
 -1      3425 1.97592E+01 2.36752E+00-4.87560E-03 1.31229E-01 1.54443E-13-2.03330E-13
 -1      3426 1.97406E+01 2.20819E+00 6.34048E-03-1.46329E-02 1.48451E-13-1.94432E-13
 -1      3427 2.00410E+01 1.85693E+00 6.23035E-03 2.31632E-02 1.67781E-13-1.73570E-13
 -1      3428 2.00032E+01 4.50520E-03-2.30071E-05 3.21101E-03 5.19202E-14-1.07641E-13
 -1      3429 2.00033E+01 4.47029E-03-3.22473E-05 2.97718E-03 1.88813E-13 4.80794E-14
 -1      3430 2.00041E+01 7.57574E-03 4.87387E-05 1.84945E-03 9.60943E-15 1.55325E-13
 -1      3431 2.00039E+01 6.83966E-03 7.72030E-05 2.19388E-03 3.52029E-14 5.06245E-14
 -1      3432 2.02970E+01 1.77276E+00-4.43085E-03-3.24791E-01-2.00705E-13-1.60410E-13
 -1      3433 2.01533E+01 1.87356E+00-1.74579E-03-1.94553E-01-1.76373E-13-1.53367E-13
 -1      3434 1.94453E+01 2.70293E+00-4.87886E-03-9.64417E-02-7.70983E-14-2.56457E-13
 -1      3435 1.95528E+01 2.59586E+00-4.45208E-03-1.37662E-01-1.00793E-13-2.53588E-13
 -1      3436 1.96870E+01 2.45256E+00-4.90046E-03-1.45055E-01-1.12003E-13-2.27893E-13
 -1      3437 1.98404E+01 2.28045E+00-5.25782E-03-1.90972E-01-1.42835E-13-2.12770E-13
 -1      3438 1.96567E+01 2.30201E+00 6.17977E-03-1.44251E-02-1.08104E-13-2.28997E-13
 -1      3439 2.43523E+01-4.13202E+00 2.90940E-02-2.18479E+00-3.14034E-13 9.89209E-14
 -1      3440 2.52234E+01-3.85372E-01-1.52449E-02 1.89990E+00 1.10285E-13 4.04345E-13
 -1      3441 1.45923E+01-1.35236E+00 9.30096E-02-4.38634E+00-3.02893E-13-2.10706E-13
 -1      3442 1.70727E+01-2.36807E+00 1.40174E-02-4.63885E+00-3.52642E-13-1.13458E-13
 -1      3443 2.51950E+01 4.32695E+00-5.99565E-02-9.86727E-01 3.38368E-13-2.76886E-13
 -1      3444 1.95547E+01 9.67680E-01-2.61171E-03 1.23184E+00-7.40382E-14-1.20421E-13
 -1      3445 1.94948E+01 8.84165E-01 2.52734E-03 1.39041E+00-4.57184E-14-1.09265E-13
 -1      3446 1.93430E+01 7.86036E-01-3.68617E-03 1.55504E+00-9.69569E-15-1.00544E-13
 -1      3447 1.93066E+01 6.72389E-01 5.88086E-03 1.71343E+00 2.70096E-14-1.11201E-13
 -1      3448 1.91096E+01 9.78523E-01 3.17772E-03 1.38409E+00-2.71790E-14-9.62850E-14
 -1      3449 1.91476E+01 5.21853E-01-4.14184E-03 1.90257E+00 5.25970E-14-1.19289E-13
 -1      3450 1.91691E+01 3.36484E-01 1.11778E-02 2.07079E+00 8.55666E-14-1.39857E-13
 -1      3451 1.88007E+01 7.47551E-01 1.76943E-03 1.73270E+00 3.22501E-14-8.38569E-14
 -1      3452 1.90340E+01 8.57300E-02-2.50798E-03 2.30674E+00 1.08139E-13-1.61833E-13
 -1      3453 1.91697E+01-2.23964E-01 1.85706E-02 2.48955E+00 1.08143E-13-1.20254E-13
 -1      3454 1.85017E+01 3.77990E-01-1.50589E-03 2.16024E+00 8.26323E-14-1.65296E-13
 -1      3455 1.91328E+01-6.37016E-01 5.29566E-03 2.78639E+00 1.29158E-13-9.42760E-14
 -1      3456 1.94983E+01-1.12323E+00 3.20823E-02 2.96061E+00 1.62054E-13-5.86764E-14
 -1      3457 1.83120E+01-2.43462E-01-1.88575E-03 2.73138E+00 1.33348E-13-1.80054E-13
 -1      3458 2.33984E+01-3.86103E+00 7.81408E-02-2.55801E+00-3.54840E-13 6.44033E-14
 -1      3459 2.45601E+01-3.70598E+00-5.62803E-02-1.23115E+00-2.63105E-13 1.37084E-13
 -1      3460 1.93642E+01 2.78461E+00-4.32673E-03-9.38453E-02-6.50533E-14-2.50746E-13
 -1      3461 1.94410E+01 2.52525E+00 7.07482E-03-2.42197E-02-5.73477E-14-2.37970E-13
 -1      3462 1.93135E+01 2.83283E+00-4.39295E-03-5.64135E-02-3.26045E-14-2.56229E-13
 -1      3463 1.89907E+01 1.85294E-01 1.27431E-02-2.06655E+00-1.82884E-14 1.68277E-13
 -1      3464 1.89238E+01 3.86468E-01-4.78126E-03-1.89916E+00-3.56858E-15 1.68330E-13
 -1      3465 1.90624E+01 5.37607E-01 8.04879E-03-1.70567E+00 8.12256E-14 1.26441E-13
 -1      3466 1.90641E+01 6.32414E-01-5.29116E-03-1.56205E+00 1.91686E-13 1.90498E-13
 -1      3467 1.84683E+01 6.07428E-01 1.55559E-03-1.75349E+00-6.65445E-15 2.94882E-13
 -1      3468 1.92060E+01 6.96620E-01 4.63758E-03-1.41217E+00 2.33707E-13 1.27089E-13
 -1      3469 1.92376E+01 7.24802E-01-4.93343E-03-1.28838E+00 2.40648E-13 1.92198E-13
 -1      3470 1.87438E+01 7.87389E-01 3.33553E-03-1.41628E+00 2.62115E-13 2.07639E-13
 -1      3471 1.93660E+01 7.35714E-01 2.75621E-03-1.16806E+00 2.23204E-13 2.27850E-13
 -1      3472 1.94056E+01 7.24517E-01-4.31220E-03-1.06021E+00 2.34205E-13 2.68090E-13
 -1      3473 1.90049E+01 8.35694E-01 3.82120E-03-1.15595E+00 2.42450E-13 2.65149E-14
 -1      3474 1.95148E+01 7.04767E-01 1.80113E-03-9.60484E-01 1.64887E-13 2.75944E-13
 -1      3475 1.95519E+01 6.72157E-01-3.70333E-03-8.66293E-01 9.13085E-14 3.50046E-13
 -1      3476 1.92325E+01 8.05853E-01 3.59486E-03-9.45767E-01 2.08246E-13 1.83041E-13
 -1      3477 1.96413E+01 6.36708E-01 1.33553E-03-7.82263E-01 5.09656E-15 2.92796E-13
 -1      3478 1.96718E+01 5.94371E-01-3.13661E-03-7.00515E-01-6.68996E-14 2.64723E-13
 -1      3479 1.94215E+01 7.33404E-01 3.10355E-03-7.70576E-01 5.18115E-14 1.82785E-13
 -1      3480 1.97430E+01 5.52738E-01 1.10756E-03-6.29440E-01-1.78416E-13 2.39439E-13
 -1      3481 1.97662E+01 5.07926E-01-2.62176E-03-5.59337E-01-1.57211E-13 2.85264E-13
 -1      3482 1.95731E+01 6.41418E-01 2.54750E-03-6.22379E-01-1.33990E-13 2.77930E-13
 -1      3483 1.98215E+01 4.65826E-01 9.79696E-04-4.99520E-01-1.63062E-13 7.16490E-14
 -1      3484 1.98381E+01 4.22762E-01-2.16287E-03-4.40301E-01-1.51694E-13 1.61464E-14
 -1      3485 1.96918E+01 5.44476E-01 2.01901E-03-4.96788E-01-2.87869E-13 9.64477E-14
 -1      3486 1.98804E+01 3.83392E-01 8.84146E-04-3.90487E-01-6.31083E-14-3.40697E-15
 -1      3487 1.98916E+01 3.44321E-01-1.76057E-03-3.41276E-01-3.87171E-14-3.41387E-14
 -1      3488 1.97825E+01 4.51245E-01 1.55795E-03-3.91075E-01-1.45009E-13-1.89699E-13
 -1      3489 1.99233E+01 3.09267E-01 7.92762E-04-3.00351E-01-7.71341E-14 1.03275E-13
 -1      3490 1.99304E+01 2.75179E-01-1.41341E-03-2.60135E-01-1.83621E-13 9.00534E-14
 -1      3491 1.98507E+01 3.66435E-01 1.17555E-03-3.03145E-01 2.08211E-14-1.87487E-13
 -1      3492 1.99538E+01 2.45028E-01 6.97966E-04-2.27017E-01-2.27885E-13 1.71593E-13
 -1      3493 1.99579E+01 2.16145E-01-1.11863E-03-1.94694E-01-1.86470E-13 2.41911E-13
 -1      3494 1.99008E+01 2.92200E-01 8.69240E-04-2.31058E-01-1.45149E-13 3.66237E-15
 -1      3495 1.99748E+01 1.90892E-01 6.01021E-04-1.68312E-01-2.69440E-13 2.08240E-13
 -1      3496 1.99769E+01 1.66989E-01-8.72452E-04-1.42757E-01-2.48688E-13 2.22520E-13
 -1      3497 1.99370E+01 2.29088E-01 6.30242E-04-1.72877E-01-2.03704E-13 2.96287E-13
 -1      3498 1.99888E+01 1.46297E-01 5.05928E-04-1.22076E-01-2.51739E-13 3.01992E-13
 -1      3499 1.99896E+01 1.26909E-01-6.70233E-04-1.02201E-01-1.43885E-13 3.60666E-13
 -1      3500 1.99625E+01 1.76685E-01 4.47720E-04-1.26671E-01-1.67258E-13 2.97028E-13
 -1      3501 1.99978E+01 1.10274E-01 4.16613E-04-8.62538E-02-2.93427E-14 4.67492E-13
 -1      3502 1.99977E+01 9.48284E-02-5.06859E-04-7.10510E-02 2.98805E-14 4.79632E-13
 -1      3503 1.99799E+01 1.34047E-01 3.10946E-04-9.05737E-02-5.18078E-14 4.52371E-13
 -1      3504 2.00031E+01 8.16824E-02 3.35873E-04-5.89630E-02 8.12309E-14 3.61772E-13
 -1      3505 2.00025E+01 6.95776E-02-3.76984E-04-4.75348E-02 1.60175E-13 3.50767E-13
 -1      3506 1.99915E+01 9.99737E-02 2.10346E-04-6.28429E-02 4.37889E-14 3.28279E-13
 -1      3507 2.00059E+01 5.93503E-02 2.65373E-04-3.85368E-02 1.13427E-13 2.70688E-13
 -1      3508 2.00050E+01 5.00030E-02-2.75505E-04-3.01075E-02 6.75532E-14 2.93970E-13
 -1      3509 1.99987E+01 7.31911E-02 1.37842E-04-4.19105E-02 5.11785E-14 1.59642E-13
 -1      3510 2.00070E+01 4.21531E-02 2.05788E-04-2.35443E-02 4.55207E-14 2.17051E-13
 -1      3511 2.00060E+01 3.50228E-02-1.97642E-04-1.74634E-02 5.36294E-14 2.27852E-13
 -1      3512 2.00029E+01 5.24470E-02 8.62989E-05-2.64060E-02 3.27127E-14-1.38847E-13
 -1      3513 2.00069E+01 2.90559E-02 1.56735E-04-1.27902E-02-5.98407E-14 2.04741E-13
 -1      3514 2.00059E+01 2.36531E-02-1.37829E-04-8.52863E-03-3.00983E-14-4.38709E-14
 -1      3515 2.00049E+01 3.65775E-02 5.21477E-05-1.51669E-02-4.74449E-14 2.13062E-13
 -1      3516 2.00062E+01 1.90837E-02 1.04195E-04-5.31537E-03 4.13077E-14-1.74930E-13
 -1      3517 2.00052E+01 1.50550E-02-6.82461E-05-2.50299E-03 4.06294E-14-1.32737E-13
 -1      3518 2.00055E+01 2.45324E-02 3.76105E-05-7.24843E-03-1.18555E-13 1.75810E-13
 -1      3519 2.08506E+01-8.38547E-01 5.66149E-03-1.74598E+00-5.23290E-14 2.24340E-15
 -1      3520 2.06043E+01-5.31578E-01 1.10117E-02-1.74479E+00-2.17483E-14-9.20314E-15
 -1      3521 2.13670E+01-3.16264E+00 1.32975E-01 3.60988E+00 2.29814E-13 1.40837E-13
 -1      3522 1.85148E+01-2.68181E+00-7.31690E-02 4.29043E+00 2.64726E-13 4.03740E-14
 -1      3523 1.60454E+01-1.54011E+00 1.59061E-01 4.41200E+00 2.95819E-13-1.89931E-13
 -1      3524 2.40337E+01-2.94883E+00-1.22749E-02-6.66806E-01-1.76829E-13 1.24526E-13
 -1      3525 2.34810E+01-2.80465E+00 3.18483E-02-1.11270E+00-2.03959E-13 6.84160E-14
 -1      3526 2.49129E+01 3.83996E+00-6.45239E-02 8.63193E-01 2.47906E-13-7.42071E-14
 -1      3527 2.29791E+01-2.44191E+00 3.67391E-02 1.08167E+00-1.19043E-13-6.63874E-14
 -1      3528 2.35801E+01-2.66639E+00 9.50776E-03 6.45375E-01-7.10309E-14-1.44522E-13
 -1      3529 2.17612E+01-1.70475E+00 2.67397E-02 1.51310E+00-9.70526E-14 3.59292E-14
 -1      3530 2.22240E+01-2.09510E+00-2.11868E-03 1.31220E+00-1.21118E-13-3.24237E-14
 -1      3531 2.21532E+01-2.53269E+00-2.72967E-02 1.75710E+00-1.07405E-13-2.19998E-14
 -1      3532 2.09265E+01-9.76237E-01 1.64704E-02 1.62505E+00-1.07473E-13 2.27517E-14
 -1      3533 2.12685E+01-1.33366E+00 2.58779E-03 1.55992E+00-6.79526E-14 7.43663E-14
 -1      3534 2.10160E+01-1.64468E+00-2.43596E-02 1.93184E+00-1.14792E-13-1.42213E-14
 -1      3535 2.04104E+01-4.01723E-01 8.67164E-03 1.55952E+00-6.67343E-15-1.24293E-13
 -1      3536 2.06414E+01-6.69569E-01 5.28921E-03 1.57168E+00-4.02830E-14-3.32119E-14
 -1      3537 2.03068E+01-8.51366E-01-1.79915E-02 1.84707E+00-3.36291E-14-1.37441E-13
 -1      3538 2.01209E+01-5.87974E-03 3.80414E-03 1.41390E+00-1.09486E-13-1.45826E-13
 -1      3539 2.02656E+01-1.83534E-01 5.16146E-03 1.46679E+00-7.95386E-14-1.34980E-13
 -1      3540 1.99240E+01-2.65437E-01-1.08123E-02 1.65629E+00-6.79023E-14-2.09435E-13
 -1      3541 1.99755E+01 2.37385E-01 9.66805E-04 1.23851E+00-2.65714E-13 8.32773E-14
 -1      3542 2.00616E+01 1.32794E-01 4.23750E-03 1.31073E+00-1.62347E-13 1.45302E-14
 -1      3543 1.97463E+01 1.18333E-01-5.92508E-03 1.43669E+00-2.44797E-13 1.02536E-13
 -1      3544 1.99155E+01 3.65574E-01-5.62907E-04 1.05838E+00-2.67331E-13 2.76219E-13
 -1      3545 1.99648E+01 3.14302E-01 3.34450E-03 1.13737E+00-2.87348E-13 1.69291E-13
 -1      3546 1.96890E+01 3.42681E-01-2.82435E-03 1.22074E+00-2.61078E-13 1.41078E-13
 -1      3547 1.99020E+01 4.14530E-01-1.30984E-03 8.86455E-01 5.44602E-14 2.41128E-13
 -1      3548 1.99298E+01 3.98972E-01 2.64304E-03 9.64810E-01-1.36865E-13 2.30020E-13
 -1      3549 1.96969E+01 4.52005E-01-9.61627E-04 1.02126E+00-1.84525E-13 5.22980E-14
 -1      3550 1.99110E+01 4.13154E-01-1.60486E-03 7.29031E-01 2.26160E-13 2.49941E-13
 -1      3551 1.99269E+01 4.19727E-01 2.13471E-03 8.02545E-01 2.50105E-13 2.78309E-13
 -1      3552 1.97354E+01 4.84369E-01-1.91525E-06 8.42612E-01 8.69460E-14 1.37107E-13
 -1      3553 1.99289E+01 3.82419E-01-1.64660E-03 5.89129E-01 6.96594E-14 1.30511E-13
 -1      3554 1.99385E+01 4.01452E-01 1.78155E-03 6.55414E-01 1.07781E-13 2.21225E-13
 -1      3555 1.97846E+01 4.69134E-01 4.48674E-04 6.85462E-01 1.97039E-13 2.57576E-13
 -1      3556 1.99484E+01 3.36873E-01-1.54624E-03 4.67908E-01 1.49401E-13 1.88010E-13
 -1      3557 1.99549E+01 3.61762E-01 1.51621E-03 5.25826E-01 1.20140E-13 2.59017E-13
 -1      3558 1.98338E+01 4.26969E-01 6.08592E-04 5.49489E-01 1.26167E-13 2.45704E-13
 -1      3559 1.99659E+01 2.86097E-01-1.37335E-03 3.65211E-01-1.38499E-14 1.43096E-13
 -1      3560 1.99709E+01 3.12563E-01 1.29895E-03 4.14497E-01 1.07712E-13 2.58269E-13
 -1      3561 1.98776E+01 3.72038E-01 6.11408E-04 4.33800E-01 1.72983E-13 2.23570E-13
 -1      3562 1.99802E+01 2.36010E-01-1.17220E-03 2.79975E-01-2.98585E-14-2.69381E-14
 -1      3563 1.99844E+01 2.61465E-01 1.10953E-03 3.20958E-01-6.07353E-14-7.75339E-14
 -1      3564 1.99140E+01 3.13586E-01 5.39597E-04 3.37014E-01 5.71513E-14 1.21777E-13
 -1      3565 1.99909E+01 1.89968E-01-9.69776E-04 2.10575E-01 1.28095E-14-6.42601E-14
 -1      3566 1.99946E+01 2.12994E-01 9.38783E-04 2.43950E-01-4.22875E-15-4.41200E-14
 -1      3567 1.99427E+01 2.57258E-01 4.40620E-04 2.57393E-01-6.62712E-14 2.05732E-14
 -1      3568 1.99984E+01 1.49603E-01-7.81486E-04 1.55091E-01-1.07624E-13 2.90627E-13
 -1      3569 2.00018E+01 1.69561E-01 7.83752E-04 1.81747E-01-7.48444E-14 1.59867E-13
 -1      3570 1.99644E+01 2.06184E-01 3.39950E-04 1.92976E-01-1.45148E-13 2.80230E-13
 -1      3571 2.00032E+01 1.15441E-01-6.15150E-04 1.11510E-01-1.03425E-13 2.93244E-13
 -1      3572 2.00063E+01 1.32184E-01 6.44277E-04 1.32409E-01-7.73347E-14 2.44492E-13
 -1      3573 1.99802E+01 1.61803E-01 2.49921E-04 1.41717E-01-1.07758E-13 4.05839E-13
 -1      3574 2.00061E+01 8.73284E-02-4.73784E-04 7.78740E-02-8.34712E-14 3.92253E-13
 -1      3575 2.00088E+01 1.01008E-01 5.20965E-04 9.39636E-02-1.14947E-13 3.65148E-13
 -1      3576 1.99911E+01 1.24472E-01 1.75287E-04 1.01598E-01-1.44507E-13 3.26672E-13
 -1      3577 2.00074E+01 6.47339E-02-3.57324E-04 5.23739E-02 1.10023E-13 3.60874E-13
 -1      3578 2.00097E+01 7.56605E-02 4.14118E-04 6.45336E-02 7.97740E-14 2.80039E-13
 -1      3579 1.99983E+01 9.38906E-02 1.16652E-04 7.07219E-02 6.64322E-14 1.78554E-13
 -1      3580 2.00076E+01 4.69417E-02-2.63745E-04 3.34058E-02 1.98764E-13 3.03193E-13
 -1      3581 2.00096E+01 5.54997E-02 3.23404E-04 4.24162E-02 1.62907E-13 3.61307E-13
 -1      3582 2.00027E+01 6.93965E-02 7.28653E-05 4.73713E-02 1.49188E-13 1.96096E-13
 -1      3583 2.00071E+01 3.31699E-02-1.90919E-04 1.95897E-02 5.64847E-14 2.35173E-13
 -1      3584 2.00089E+01 3.97660E-02 2.48394E-04 2.61208E-02 2.14391E-13 2.08754E-13
 -1      3585 2.00050E+01 5.01573E-02 4.11589E-05 3.00428E-02 2.42812E-13 3.08746E-13
 -1      3586 2.00063E+01 2.26327E-02-1.34410E-04 9.78312E-03-1.91954E-13 2.97154E-13
 -1      3587 2.00077E+01 2.76646E-02 1.88733E-04 1.43816E-02-5.20890E-14 2.78745E-13
 -1      3588 2.00059E+01 3.52736E-02 1.52231E-05 1.74451E-02-8.11759E-14 3.31211E-13
 -1      3589 2.00051E+01 1.45647E-02-9.52637E-05 3.11115E-03-2.53336E-13 3.91884E-13
 -1      3590 2.00063E+01 1.83811E-02 1.30501E-04 6.16871E-03-2.27236E-13 2.75234E-13
 -1      3591 2.00058E+01 2.38674E-02-1.00929E-06 8.51179E-03-1.82340E-13 1.89294E-13
 -1      3592 2.00039E+01 8.45488E-03-4.18435E-05-1.25338E-03-2.43154E-13 3.12063E-13
 -1      3593 2.00048E+01 1.13843E-02 9.32810E-05 7.09061E-04-2.42615E-13 4.40050E-13
 -1      3594 2.00051E+01 1.52993E-02 2.50596E-05 2.50970E-03-2.32741E-13 4.38616E-13
 -1      3595 2.01587E+01 7.00402E-01 4.76094E-04-9.79283E-01 6.45093E-14-9.57487E-14
 -1      3596 2.01589E+01 8.27531E-01 1.91005E-03-8.27161E-01 9.39502E-14-1.03889E-13
 -1      3597 2.58998E+01-2.20188E+00-2.19334E-02-1.01031E+00 5.19342E-14-3.24653E-13
 -1      3598 2.49346E+01-2.90490E+00-1.59861E-02 5.03617E-02-1.52545E-14-3.10100E-13
 -1      3599 2.00030E+01 3.71715E-03-2.52010E-05-3.29692E-03-4.08827E-14 1.79540E-13
 -1      3600 2.00027E+01 3.16438E-03 5.49355E-06-3.80339E-03-1.50080E-13 7.79256E-14
 -1      3601 2.00030E+01 4.39917E-03-1.32725E-06-3.39044E-03-2.92913E-13 1.54841E-13
 -1      3602 2.00036E+01 6.67680E-03-3.09543E-06-2.28278E-03-1.46935E-13 2.59555E-13
 -1      3603 2.00271E+01 2.00780E+00-3.56565E-03-1.53942E-01-1.57835E-13-1.73178E-13
 -1      3604 1.99729E+01 1.88677E+00 4.09269E-03 3.20493E-02-1.31460E-13-1.65025E-13
 -1      3605 2.80014E+01 5.11613E-01-1.43334E-01 2.55014E+00-5.16601E-14-1.88655E-13
 -1      3606 1.59880E+01-1.18386E+00 5.13311E-02-3.90035E+00 1.28496E-13 2.43625E-14
 -1      3607 1.82401E+01-2.26012E+00-2.61469E-02-4.01974E+00 1.47455E-13-9.33698E-14
 -1      3608 2.43275E+01-3.10128E+00 1.27343E-02 6.25651E-01-5.49838E-14-2.82943E-13
 -1      3609 2.00044E+01 1.15877E-02 9.57813E-06 2.78701E-04 2.34458E-13-6.26769E-14
 -1      3610 2.00042E+01 1.25319E-02-6.87501E-05-1.26090E-04 1.61089E-13-2.45013E-13
 -1      3611 2.54860E+01-1.22925E+00-9.61220E-02 1.65138E+00 5.56534E-14 3.95217E-13
 -1      3612 1.06190E+01 2.64768E-01 1.02993E-01 1.98555E+00-8.88734E-14 2.02949E-13
 -1      3613 1.10521E+01 5.67713E-01 3.85684E-02 3.14184E-01-4.39683E-14 1.22673E-13
 -1      3614 1.93764E+01-1.72604E+00 2.75071E-02-3.26291E+00 4.30055E-14 9.13375E-14
 -1      3615 1.89424E+01-1.08182E+00 2.43033E-02-3.02848E+00-7.39166E-14 1.15077E-13
 -1      3616 2.57011E+01 1.89361E+00-5.78227E-02-2.17115E+00 2.67182E-13-4.59330E-13
 -1      3617 1.91331E+01-4.61513E-01 2.07951E-02-2.50125E+00-1.87269E-13 2.18641E-13
 -1      3618 1.88991E+01-8.82309E-02 2.46054E-03-2.32050E+00-8.40557E-14 1.89294E-13
 -1      3619 1.82329E+01 2.09302E-01-2.37491E-03-2.20777E+00-6.74966E-14 2.14836E-13
 -1      3620 1.32999E+01-1.04827E+00-2.57465E-02 3.98554E+00 2.64004E-13-3.42337E-13
 -1      3621 1.14268E+01-3.98588E-01 1.65497E-01 3.20098E+00 2.16091E-13-4.81004E-13
 -1      3622 1.17105E+01 9.22056E-02 7.09781E-02 2.20547E+00 2.01866E-13-4.73462E-13
 -1      3623 1.98976E+01 1.35613E+00-1.76703E-03 5.53889E-01-1.04920E-13-1.17344E-13
 -1      3624 1.98452E+01 1.23890E+00-1.01011E-03 7.43036E-01-8.09428E-14-1.25281E-13
 -1      3625 2.55242E+01-2.42884E+00 7.92415E-03 5.14466E-01-2.17187E-14 2.98733E-13
 -1      3626 1.97476E+01 1.13729E+00-1.72929E-03 9.05263E-01-6.89098E-14-1.28194E-13
 -1      3627 1.96837E+01 1.05090E+00 2.25138E-04 1.07426E+00-7.71246E-14-1.31199E-13
 -1      3628 1.93888E+01 1.15564E+00 3.65129E-03 1.06896E+00-6.09956E-14-1.09561E-13
 -1      3629 1.99627E+01 1.67346E+00-2.55266E-03 1.90780E-01-1.30133E-13-1.42029E-13
 -1      3630 1.99348E+01 1.50271E+00-6.49073E-04 4.01809E-01-1.14310E-13-1.27003E-13
 -1      3631 1.97477E+01 1.59873E+00 2.45230E-03 4.43495E-01-9.86325E-14-1.12173E-13
 -1      3632 1.97853E+01 1.94292E+00 6.82390E-04 1.37237E-01-1.02826E-13-1.53801E-13
 -1      3633 1.35350E+01-8.54286E-01 4.35074E-02 4.01343E+00-2.67054E-13 3.66686E-13
 -1      3634 1.17290E+01-1.50362E-01 8.06277E-02 3.01802E+00-1.12457E-13 2.69444E-13
 -1      3635 1.28282E+01 1.64974E-01 4.86035E-02 2.43041E+00-1.06481E-13 2.42355E-13
 -1      3636 2.02695E+01-2.48787E+00 7.68828E-02-3.47189E+00 1.50055E-13 6.19812E-14
 -1      3637 1.96323E+01-3.14937E+00 4.97443E-02-4.26455E+00-3.42492E-13 4.45477E-15
 -1      3638 2.15146E+01-3.88611E+00-6.42462E-02-3.63336E+00-3.28442E-13 4.75227E-14
 -1      3639 1.97460E+01-2.38816E+00 2.59979E-02 3.62100E+00 2.13430E-13 2.39661E-14
 -1      3640 2.57339E+01 4.03435E-01-1.22280E-01-2.30840E+00 1.33504E-13-3.66174E-13
 -1      3641 2.49795E+01-2.97599E+00 2.82280E-03-1.21306E-01-1.17253E-13 2.36563E-13
 -1      3642 1.96163E+01 1.34423E+00 3.32464E-03 7.55410E-01-8.86501E-14-1.01954E-13
 -1      3643 2.49498E+01 4.52609E+00-1.40095E-01-8.90779E-02 3.20272E-13-2.13374E-13
 -1      3644 2.04508E+01-2.74006E-01 5.15943E-03-1.65132E+00-4.36328E-14 1.14700E-14
 -1      3645 2.03052E+01-5.00090E-02 5.84293E-03-1.59410E+00-6.84085E-14 1.67694E-14
 -1      3646 2.01454E+01-3.80035E-01-1.31363E-02-1.84732E+00-3.42087E-14-6.94223E-14
 -1      3647 2.04467E+01 1.10276E-01-6.65654E-03-1.38539E+00-1.16370E-14-1.78060E-14
 -1      3648 1.02490E+01 3.82985E-01 1.63076E-01-1.01492E+00-2.97965E-14-5.83630E-13
 -1      3649 1.11924E+01 1.20559E-01 6.18080E-02-2.04365E+00-1.19812E-13-4.72081E-13
 -1      3650 1.06577E+01 3.97822E-01 4.45167E-02-8.84798E-02 3.19605E-14-5.33601E-13
 -1      3651 2.24152E+01-3.42879E+00 2.79532E-02-2.68477E+00-2.87062E-13 3.75412E-14
 -1      3652 1.91589E+01-1.62381E+00 3.16691E-02 3.45250E+00 2.08522E-13-1.89128E-14
 -1      3653 1.93523E+01 2.35600E+00-4.04310E-03 3.73818E-02-4.05554E-14-2.15508E-13
 -1      3654 1.94341E+01 2.27682E+00-3.82842E-03 5.34918E-02-6.12486E-14-2.38203E-13
 -1      3655 1.93397E+01 2.62417E+00 7.26060E-03-3.80459E-02-3.13389E-14-2.28490E-13
 -1      3656 2.01971E+01 9.28626E-01-3.42605E-04-6.82690E-01 1.06349E-13-1.36082E-13
 -1      3657 2.02213E+01 1.03330E+00-2.36184E-04-5.23194E-01 1.14346E-13-1.40015E-13
 -1      3658 2.00298E+01 1.00750E+00 2.36157E-04-7.53546E-01 7.66247E-14-1.32785E-13
 -1      3659 2.00034E+01 1.56342E-02-5.74054E-05 5.76582E-05 1.25052E-14-2.21291E-13
 -1      3660 2.00035E+01 1.54034E-02-3.91339E-05 4.82082E-05 5.41492E-14-2.79681E-13
 -1      3661 2.11599E+01-1.17204E+00 1.98769E-02-1.78549E+00-7.11875E-14 9.53995E-15
 -1      3662 2.05391E+01-1.05559E+00-2.61055E-02-2.02905E+00-1.53089E-14-5.79849E-14
 -1      3663 2.15446E+01-1.54476E+00 1.04311E-02-1.69609E+00-7.66826E-14 5.05780E-17
 -1      3664 2.00051E+01 1.20685E-02 7.71555E-05-7.55818E-04 1.93545E-13-1.53588E-13
 -1      3665 2.00043E+01 9.19563E-03-2.04021E-05 9.29567E-04 2.31761E-13 6.50407E-14
 -1      3666 2.00044E+01 9.68093E-03-3.57592E-05 7.56724E-04 1.71932E-13 5.45210E-14
 -1      3667 2.00052E+01 1.59038E-02 7.68897E-06-2.37022E-03 2.16573E-13 6.32945E-14
 -1      3668 2.26346E+01-3.03684E+00-4.28858E-02-1.95746E+00-1.92432E-13 1.46931E-15
 -1      3669 2.25177E+01-2.38016E+00-7.25956E-03-1.41582E+00-1.26127E-13 1.04386E-14
 -1      3670 2.20449E+01-1.98120E+00 3.03610E-02-1.64962E+00-1.09493E-13-8.86639E-15
 -1      3671 2.15374E+01-2.70552E+00 7.72527E-02-2.83577E+00-1.99189E-13 1.38717E-14
 -1      3672 1.30089E+01-3.71591E-01 4.12894E-02-3.24379E+00-1.80744E-13-2.93043E-13
 -1      3673 1.37655E+01-8.80593E-01 6.51857E-02-4.00602E+00-2.23110E-13-2.07251E-13
 -1      3674 1.54407E+01-9.74192E-01 4.32190E-02-3.77505E+00-2.04425E-13-1.32776E-13
 -1      3675 1.74472E+01-1.60719E+00 1.33266E-02-3.90032E+00-2.58992E-13-1.01613E-13
 -1      3676 1.85998E+01-2.51748E+00 3.91955E-02-4.28693E+00-3.13517E-13-4.42701E-14
 -1      3677 1.97071E+01-2.50901E+00-1.50395E-02-3.59505E+00-2.74232E-13-3.96211E-15
 -1      3678 1.79185E+01-1.09880E+00 2.09189E-02 3.51806E+00 2.34764E-13-1.20549E-13
 -1      3679 1.95293E+01-3.05411E+00 8.32591E-02 4.21933E+00-2.54397E-13-1.69773E-13
 -1      3680 1.84121E+01-2.52572E+00-3.13026E-04 4.15008E+00-3.21076E-13-5.08101E-14
 -1      3681 2.10888E+01-3.33149E+00 1.43584E-02 3.43574E+00-3.29977E-13-1.84598E-13
 -1      3682 2.01384E+01 5.76326E-01 2.21424E-03-1.12647E+00 3.25777E-14-7.40729E-14
 -1      3683 1.99578E+01 7.58683E-01-1.68531E-03-1.04867E+00 4.24256E-14-7.28889E-14
 -1      3684 2.01675E+01 4.45263E-01 2.19790E-03-1.24947E+00 1.31441E-14-4.85005E-14
 -1      3685 2.00034E+01 5.77300E-03 3.92497E-05-2.67847E-03-2.85252E-13 2.52233E-13
 -1      3686 2.00044E+01 1.71304E-02 6.05503E-05-1.08805E-03 6.53739E-14-3.54682E-14
 -1      3687 2.00040E+01 1.39794E-02-1.17273E-05-2.25124E-04 8.14413E-14-4.06326E-17
 -1      3688 2.00037E+01 1.45794E-02-8.60142E-05-3.43854E-04 1.30737E-13 1.04045E-13
 -1      3689 2.00043E+01 9.63775E-03-2.31389E-05-7.95978E-04-1.46095E-13 3.26997E-13
 -1      3690 2.00040E+01 8.41683E-03 3.06269E-07-1.40096E-03-1.90084E-13 3.99703E-13
 -1      3691 2.35731E+01-3.50564E+00-2.78905E-02 1.65178E+00-2.05644E-13-1.69044E-13
 -1      3692 2.24995E+01-3.28504E+00 1.35269E-02 2.29198E+00-3.04836E-13-1.24652E-13
 -1      3693 1.52942E+01-5.22219E-01 4.32064E-02-3.41859E+00 1.28835E-13 7.24056E-14
 -1      3694 1.69097E+01-6.02900E-01 4.45689E-02-3.14714E+00 1.02300E-13-7.96013E-14
 -1      3695 1.47502E+01 1.32713E-01-2.11209E-04-2.60929E+00 1.89519E-14-2.54848E-14
 -1      3696 1.52908E+01-9.15678E-01 4.15028E-02 3.71784E+00 2.62391E-13-2.42643E-13
 -1      3697 2.61580E+01-1.11120E+00-3.72171E-02-1.52287E+00 8.33431E-14-3.36176E-13
 -1      3698 1.78434E+01-6.40982E-01-3.62784E-03-3.01405E+00-4.53955E-14 9.86138E-14
 -1      3699 1.53137E+01-1.11763E+00 6.28575E-02 3.92784E+00-3.09218E-13 2.87104E-13
 -1      3700 2.01139E+01 1.53907E+00-2.48678E-03-1.41677E-01 1.55241E-13-1.74707E-13
 -1      3701 1.99521E+01 1.73896E+00-2.87339E-03-1.52171E-01 1.46184E-13-1.65987E-13
 -1      3702 2.00035E+01 1.56300E-02-3.92495E-05-2.58531E-04 7.54205E-14-1.28414E-13
 -1      3703 2.00035E+01 2.01796E-02 1.34885E-04-5.01640E-05 1.50910E-13-7.87425E-14
 -1      3704 2.00036E+01 1.53990E-02-1.26499E-05-1.81964E-04 1.38224E-13 1.87862E-13
 -1      3705 2.00042E+01 1.18336E-02 1.04928E-05-2.66315E-04-1.98744E-13-5.35937E-14
 -1      3706 2.00045E+01 1.37438E-02-1.36430E-05 6.60048E-04-1.87926E-13 8.46399E-14
 -1      3707 1.95273E+01 2.19264E+00-2.93494E-03 9.50028E-02-6.39545E-14-2.33671E-13
 -1      3708 1.96587E+01 2.05354E+00-3.73127E-03 1.06232E-01-9.00342E-14-1.90983E-13
 -1      3709 1.96603E+01 1.87057E+00 2.66470E-03 2.52127E-01-8.54274E-14-1.65549E-13
 -1      3710 1.94501E+01 2.07443E+00 4.30858E-03 1.64343E-01-4.94966E-14-2.27755E-13
 -1      3711 2.00041E+01 1.27300E-02-7.85307E-05 3.15616E-05-5.33729E-14-4.77826E-13
 -1      3712 2.00045E+01 1.00400E-02-3.63247E-05 6.05019E-04 2.11750E-13 1.68809E-13
 -1      3713 1.20686E+01 7.49351E-01 4.96455E-03 5.78607E-01 9.99548E-15 1.09256E-13
 -1      3714 1.17991E+01 8.20136E-01 1.04257E-01-5.96258E-01 2.62351E-14 1.43080E-14
 -1      3715 1.29794E+01 6.67034E-01 4.60684E-02-1.30320E+00 7.51695E-14 2.09208E-14
 -1      3716 1.95239E+01 2.19067E+00-2.48384E-03-1.30276E-01 9.55767E-14-1.74894E-13
 -1      3717 1.94196E+01 2.28700E+00-4.80586E-03-1.30040E-01 5.14164E-14-1.56979E-13
 -1      3718 1.93430E+01 2.36609E+00-2.64767E-03-9.11680E-02 3.28859E-14-1.71396E-13
 -1      3719 1.92953E+01 2.40564E+00-4.67643E-03-8.10821E-02 5.55236E-15-2.01268E-13
 -1      3720 1.93788E+01 2.14521E+00 6.71497E-03-1.76110E-01 3.04180E-14-1.51401E-13
 -1      3721 2.00048E+01 1.41908E-02 2.32040E-05-8.48150E-04 3.06549E-13-4.06539E-14
 -1      3722 1.84710E+01 9.62797E-01-9.32340E-03 1.44626E+00 1.73424E-14-9.01528E-14
 -1      3723 1.83240E+01 8.50161E-01 5.58607E-03 1.62498E+00 4.10400E-14-9.73983E-14
 -1      3724 1.79868E+01 6.93738E-01-1.32687E-02 1.83158E+00 6.06857E-14-1.21566E-13
 -1      3725 1.78664E+01 5.07622E-01 1.08816E-02 2.06440E+00 8.62586E-14-1.59095E-13
 -1      3726 1.77256E+01 9.63613E-01 1.05742E-02 1.52181E+00 3.27967E-14-9.97806E-14
 -1      3727 1.74582E+01 2.50276E-01-1.72725E-02 2.35727E+00 1.09823E-13-1.54037E-13
 -1      3728 1.73964E+01-8.75623E-02 1.03285E-02 2.70336E+00 1.41747E-13-1.79736E-13
 -1      3729 1.70297E+01 6.40334E-01 1.74522E-02 2.00445E+00 9.12189E-14-1.60358E-13
 -1      3730 1.92810E+01 2.42362E+00-3.39146E-03-3.05155E-02-2.16269E-14-2.17357E-13
 -1      3731 1.93001E+01 2.40427E+00-3.88487E-03-1.46127E-02-3.50116E-14-2.21531E-13
 -1      3732 1.93166E+01 2.20915E+00 7.93610E-03 5.52884E-02-3.64677E-14-1.94545E-13
 -1      3733 1.92796E+01 2.23997E+00 7.48818E-03-6.83826E-02-7.03993E-15-1.77719E-13
 -1      3734 1.28570E+01 2.41760E-01-1.81414E-02 2.12210E+00 1.94594E-13-3.49137E-13
 -1      3735 1.19100E+01 6.62723E-01 1.37769E-01 1.15383E+00 1.08491E-13-4.63005E-13
 -1      3736 2.02474E+01 1.38709E-01 3.83175E-03-1.47631E+00-6.45795E-14 9.50889E-15
 -1      3737 2.01717E+01 3.02666E-01 3.36963E-03-1.38250E+00-1.52091E-14-3.17658E-14
 -1      3738 1.99262E+01 4.69232E-01-3.83972E-03-1.33868E+00-1.14498E-14-3.64527E-14
 -1      3739 1.83149E+01 8.91952E-01 3.83895E-03-1.31796E+00 1.03760E-13 3.96641E-13
 -1      3740 1.84440E+01 9.18896E-01-8.42743E-03-1.18235E+00 1.05808E-13 2.33310E-13
 -1      3741 1.86701E+01 9.29522E-01 1.59681E-03-1.06913E+00 1.91732E-13 1.54127E-14
 -1      3742 1.87891E+01 9.15895E-01-6.25654E-03-9.62595E-01 2.36547E-13-3.62332E-15
 -1      3743 1.82889E+01 1.03591E+00 7.89489E-03-9.73103E-01 5.70515E-14 2.18556E-13
 -1      3744 1.89702E+01 8.93236E-01 6.00293E-04-8.74803E-01 2.72702E-13-1.80326E-13
 -1      3745 1.90721E+01 8.55880E-01-4.81231E-03-7.86928E-01 1.96941E-13-6.74653E-14
 -1      3746 1.86783E+01 9.93382E-01 6.34608E-03-7.91817E-01 1.49538E-13-8.90778E-14
 -1      3747 1.92166E+01 8.14536E-01 1.95952E-04-7.15447E-01 1.28384E-13 2.59726E-15
 -1      3748 1.93000E+01 7.65222E-01-3.82393E-03-6.41079E-01 1.00624E-13 3.99323E-14
 -1      3749 1.89903E+01 9.08837E-01 5.05466E-03-6.48199E-01 2.30103E-13-3.05606E-13
 -1      3750 1.94144E+01 7.15532E-01 9.14717E-05-5.81315E-01-1.86875E-14 1.30233E-13
 -1      3751 1.94804E+01 6.62175E-01-3.08557E-03-5.17806E-01-9.46759E-14 2.29560E-13
 -1      3752 1.92385E+01 8.02640E-01 4.01529E-03-5.29200E-01 7.30345E-14-9.11217E-14
 -1      3753 1.95700E+01 6.10758E-01 1.14644E-04-4.67327E-01-2.83151E-13 1.73558E-13
 -1      3754 1.96209E+01 5.58336E-01-2.50704E-03-4.13251E-01-3.99544E-13 4.03583E-14
 -1      3755 1.94339E+01 6.89348E-01 3.17083E-03-4.28410E-01-2.52692E-13 3.24678E-14
 -1      3756 1.96904E+01 5.09197E-01 1.73408E-04-3.70707E-01-3.27104E-13-7.36888E-15
 -1      3757 1.97287E+01 4.60631E-01-2.03676E-03-3.25137E-01-1.04194E-13-8.41400E-14
 -1      3758 1.95859E+01 5.78436E-01 2.48428E-03-3.42580E-01-3.22523E-13 3.29742E-14
 -1      3759 1.97821E+01 4.15997E-01 2.24354E-04-2.89636E-01 8.23428E-14-8.81020E-14
 -1      3760 1.98103E+01 3.72801E-01-1.64514E-03-2.51774E-01 8.13196E-14-1.03247E-13
 -1      3761 1.97027E+01 4.75617E-01 1.92659E-03-2.69946E-01-1.81770E-14-4.57650E-14
 -1      3762 1.98506E+01 3.33709E-01 2.53562E-04-2.22560E-01 1.99103E-14-9.88546E-14
 -1      3763 1.98710E+01 2.96461E-01-1.31606E-03-1.91597E-01-5.20844E-14 8.13232E-14
 -1      3764 1.97912E+01 3.83959E-01 1.47678E-03-2.09250E-01 1.03871E-13-2.99687E-14
 -1      3765 1.99010E+01 2.63177E-01 2.60523E-04-1.67933E-01-1.44308E-13 8.01989E-14
 -1      3766 1.99153E+01 2.31854E-01-1.04014E-03-1.43027E-01-2.14932E-13 1.38610E-13
 -1      3767 1.98573E+01 3.04696E-01 1.11772E-03-1.59314E-01-1.25512E-14 1.10348E-13
 -1      3768 1.99373E+01 2.04168E-01 2.49954E-04-1.24175E-01-1.86600E-13 1.65714E-13
 -1      3769 1.99471E+01 1.78385E-01-8.10877E-04-1.04472E-01-7.17025E-14 1.42842E-13
 -1      3770 1.99058E+01 2.37841E-01 8.34432E-04-1.18917E-01-1.70226E-13 1.47886E-13
 -1      3771 1.99629E+01 1.55815E-01 2.27817E-04-8.97054E-02 7.39994E-15 1.19242E-13
 -1      3772 1.99693E+01 1.34991E-01-6.22860E-04-7.43799E-02-6.17784E-15 1.69077E-13
 -1      3773 1.99407E+01 1.82648E-01 6.13656E-04-8.67980E-02-2.10152E-14-6.80884E-14
 -1      3774 1.99803E+01 1.16922E-01 1.99508E-04-6.30134E-02-7.40130E-14 1.99002E-13
 -1      3775 1.99844E+01 1.00392E-01-4.71058E-04-5.12969E-02 1.01368E-15 2.94262E-15
 -1      3776 1.99652E+01 1.37942E-01 4.43754E-04-6.17029E-02 1.07432E-14-1.68414E-13
 -1      3777 1.99918E+01 8.61648E-02 1.69039E-04-4.27059E-02 8.20002E-14-4.28224E-14
 -1      3778 1.99941E+01 7.32503E-02-3.50033E-04-3.39107E-02 7.04589E-14-4.70809E-14
 -1      3779 1.99818E+01 1.02356E-01 3.15036E-04-4.24447E-02 1.17280E-14-1.70021E-13
 -1      3780 1.99989E+01 6.22160E-02 1.39221E-04-2.75422E-02 9.97782E-15-1.16362E-13
 -1      3781 2.00000E+01 5.22633E-02-2.56713E-04-2.10695E-02 5.13348E-14-9.25087E-14
 -1      3782 1.99926E+01 7.44833E-02 2.20469E-04-2.79438E-02 7.44646E-14-1.78520E-13
 -1      3783 2.00029E+01 4.38107E-02 1.11663E-04-1.64565E-02 1.23807E-13 1.28713E-14
 -1      3784 2.00032E+01 3.62483E-02-1.73963E-04-1.18127E-02 2.33975E-14 1.33814E-13
 -1      3785 1.99992E+01 5.29432E-02 1.48359E-04-1.72403E-02 1.17093E-13-6.16612E-14
 -1      3786 2.00047E+01 2.97195E-02 6.51613E-05-8.49500E-03-1.10450E-13 1.91134E-13
 -1      3787 2.00046E+01 2.39802E-02-9.71472E-05-5.29564E-03-1.03347E-13 1.57781E-13
 -1      3788 2.00028E+01 3.65418E-02 1.09416E-04-9.49150E-03 6.75351E-14 2.92104E-14
 -1      3789 2.00050E+01 1.74798E-02-7.38694E-06-2.60048E-03 1.69840E-13 6.80095E-14
 -1      3790 1.97963E+01 1.90928E+00-2.55369E-03-1.44386E-01 1.52712E-13-1.73155E-13
 -1      3791 1.96516E+01 2.06010E+00-3.99103E-03-1.54069E-01 1.19835E-13-1.74974E-13
 -1      3792 1.95917E+01 1.93914E+00 5.60931E-03-2.54959E-01 8.80259E-14-1.39861E-13
 -1      3793 1.98866E+01 1.63684E+00 4.89994E-03-3.03399E-01 1.33157E-13-1.61367E-13
 -1      3794 2.01789E+01-1.27363E+00 1.43924E-02 2.28487E+00-8.16770E-14-1.17003E-14
 -1      3795 2.06294E+01-1.75776E+00 7.85107E-03 2.32775E+00-2.59298E-14 6.15025E-14
 -1      3796 1.94264E+01 3.92736E-03 8.29151E-04 1.67300E+00-1.23889E-13-9.98507E-15
 -1      3797 1.95733E+01-2.20237E-01 1.16625E-02 1.79119E+00-2.32629E-14-3.27034E-14
 -1      3798 1.93707E+01 3.18506E-01-1.42089E-03 1.39178E+00-2.91188E-13 8.85316E-14
 -1      3799 1.94343E+01 1.85302E-01 7.66900E-03 1.50705E+00-2.69123E-13 2.95110E-14
 -1      3800 1.90120E+01 2.01818E-01-4.72587E-03 1.63003E+00-2.21294E-13-1.34118E-14
 -1      3801 1.94052E+01 4.86816E-01-2.39272E-03 1.14777E+00-2.50667E-13 3.32593E-14
 -1      3802 1.94213E+01 4.20161E-01 5.06616E-03 1.25328E+00-2.02940E-13 9.06199E-14
 -1      3803 1.90768E+01 4.68850E-01-1.57426E-03 1.31611E+00-2.28074E-13-4.07389E-16
 -1      3804 1.94820E+01 5.53874E-01-2.65882E-03 9.39679E-01-8.83734E-14-8.10260E-14
 -1      3805 1.94735E+01 5.32241E-01 3.38986E-03 1.03329E+00-2.40370E-13 1.19120E-14
 -1      3806 1.91949E+01 5.98972E-01 2.91233E-04 1.06140E+00-2.08772E-13-3.52739E-14
 -1      3807 1.95721E+01 5.56569E-01-2.57557E-03 7.62885E-01 1.29986E-13 6.06003E-15
 -1      3808 1.95527E+01 5.63054E-01 2.27498E-03 8.45090E-01-7.28226E-15-1.32671E-14
 -1      3809 1.93295E+01 6.37056E-01 1.11260E-03 8.54938E-01-5.01267E-14-1.44917E-13
 -1      3810 1.96605E+01 5.20310E-01-2.37211E-03 6.12827E-01 1.05245E-13 2.43748E-13
 -1      3811 1.96382E+01 5.43330E-01 1.62431E-03 6.84152E-01 1.59552E-13 1.73647E-13
 -1      3812 1.94606E+01 6.18418E-01 1.45201E-03 6.85379E-01 4.80144E-14 7.66249E-14
 -1      3813 1.97398E+01 4.63233E-01-2.10803E-03 4.86347E-01 8.19085E-14 3.31304E-13
 -1      3814 1.97187E+01 4.94585E-01 1.22115E-03 5.47386E-01 7.04986E-14 3.50166E-13
 -1      3815 1.95790E+01 5.66395E-01 1.50352E-03 5.45198E-01 3.77954E-14 2.80120E-13
 -1      3816 1.98070E+01 3.97716E-01-1.82028E-03 3.80806E-01 1.15684E-13 2.90368E-13
 -1      3817 1.97889E+01 4.31879E-01 9.60171E-04 4.32270E-01 1.46406E-13 3.40690E-13
 -1      3818 1.96804E+01 4.97587E-01 1.39355E-03 4.29388E-01 6.94819E-14 4.57895E-13
 -1      3819 1.98616E+01 3.31716E-01-1.53417E-03 2.93787E-01 4.96186E-14 3.49986E-13
 -1      3820 1.98470E+01 3.65206E-01 7.81835E-04 3.36503E-01 1.25813E-13 4.40871E-13
 -1      3821 1.97640E+01 4.23290E-01 1.21117E-03 3.34178E-01 6.29200E-14 6.34193E-13
 -1      3822 1.99043E+01 2.69981E-01-1.26536E-03 2.22996E-01-4.05356E-15 2.73625E-13
 -1      3823 1.98932E+01 3.00777E-01 6.49429E-04 2.57887E-01 2.41213E-14 2.82164E-13
 -1      3824 1.98307E+01 3.50676E-01 1.00698E-03 2.56542E-01 8.99953E-14 8.49278E-13
 -1      3825 1.99368E+01 2.15024E-01-1.02284E-03 1.66226E-01-1.95520E-13 2.10868E-13
 -1      3826 1.99287E+01 2.42112E-01 5.42950E-04 1.94267E-01-1.43636E-13 1.68844E-13
 -1      3827 1.98825E+01 2.83936E-01 8.08765E-04 1.93911E-01-5.73751E-14 3.64294E-13
 -1      3828 1.99607E+01 1.67856E-01-8.11010E-04 1.21373E-01-1.18921E-13 2.56474E-13
 -1      3829 1.99551E+01 1.90894E-01 4.52554E-04 1.43548E-01-1.30726E-13 2.08327E-13
 -1      3830 1.99217E+01 2.25190E-01 6.30753E-04 1.44005E-01-1.79661E-13 1.22226E-13
 -1      3831 1.99777E+01 1.28532E-01-6.31001E-04 8.64791E-02 5.98419E-14 1.04540E-13
 -1      3832 1.99741E+01 1.47597E-01 3.73850E-04 1.03730E-01 1.21873E-14 3.44997E-13
 -1      3833 1.99506E+01 1.75162E-01 4.78933E-04 1.04773E-01-9.23531E-14-3.57852E-15
 -1      3834 1.99894E+01 9.65327E-02-4.82112E-04 5.97640E-02 1.70624E-13-7.87430E-14
 -1      3835 1.99872E+01 1.11950E-01 3.05121E-04 7.29597E-02 5.50048E-14 7.01504E-14
 -1      3836 1.99711E+01 1.33692E-01 3.54286E-04 7.43737E-02 1.74688E-13-3.88141E-14
 -1      3837 1.99970E+01 7.10355E-02-3.61495E-04 3.96602E-02 1.44839E-13-5.10009E-14
 -1      3838 1.99959E+01 8.32528E-02 2.45599E-04 4.95746E-02 1.65431E-13 5.70092E-15
 -1      3839 1.99853E+01 1.00090E-01 2.54606E-04 5.11774E-02 1.19440E-13-6.52230E-14
 -1      3840 2.00015E+01 5.10875E-02-2.68373E-04 2.48127E-02 1.27379E-13 1.79908E-13
 -1      3841 2.00012E+01 6.06038E-02 1.95029E-04 3.21192E-02 2.31694E-13 3.99400E-14
 -1      3842 1.99945E+01 7.34083E-02 1.77997E-04 3.37780E-02 8.33574E-14-1.74896E-13
 -1      3843 2.00039E+01 3.57129E-02-1.98868E-04 1.40545E-02-1.51661E-13 2.21855E-13
 -1      3844 2.00041E+01 4.30634E-02 1.65059E-04 1.93542E-02-1.63863E-14 2.35045E-13
 -1      3845 2.00002E+01 5.25489E-02 1.05264E-04 2.09812E-02-7.07852E-14 2.13644E-13
 -1      3846 2.00047E+01 2.39353E-02-1.51450E-04 6.39812E-03-1.43237E-13 2.07362E-13
 -1      3847 2.00052E+01 2.96271E-02 1.52046E-04 1.02433E-02-1.20392E-13 2.27248E-13
 -1      3848 2.00032E+01 3.64168E-02 1.04560E-05 1.17788E-02-1.30033E-13 2.83895E-13
 -1      3849 2.00052E+01 1.76250E-02 8.06913E-05 3.07016E-03-2.19479E-13 1.63158E-13
 -1      3850 2.00040E+01 1.94646E-02 2.07987E-04 7.06550E-04 1.40673E-14-3.98132E-13
 -1      3851 2.00036E+01 1.46553E-02-7.52615E-05 2.06753E-04 5.20517E-14-6.20497E-13
 -1      3852 2.00039E+01 1.40471E-02-1.04465E-05 9.72520E-05 2.08843E-14-7.82775E-13
 -1      3853 1.63366E+01-7.57264E-01-7.14767E-03 3.41558E+00 2.55666E-13-1.80808E-13
 -1      3854 1.45310E+01 3.67169E-02 1.11914E-01 2.98808E+00 2.18749E-13-2.67014E-13
 -1      3855 1.42158E+01 3.74362E-01 2.64174E-03 2.08393E+00 1.59536E-13-2.88908E-13
 -1      3856 1.68443E+01-3.44035E-01-2.58940E-02 2.98198E+00 1.92598E-13-1.61599E-13
 -1      3857 2.20583E+01-2.74758E+00 8.40262E-03 2.12495E+00-1.90786E-13-3.31883E-14
 -1      3858 2.14993E+01-3.13918E+00-1.00418E-02 2.91810E+00-2.83162E-13-8.63771E-14
 -1      3859 2.05382E+01-2.66941E+00-1.09549E-02 3.12908E+00-2.19714E-13-1.33772E-13
 -1      3860 2.13804E+01-2.22739E+00 3.48999E-02 2.27784E+00-6.25194E-14-2.78672E-15
 -1      3861 1.92321E+01 1.30949E+00-4.39319E-03 8.58011E-01-7.00835E-14-1.05961E-13
 -1      3862 1.91043E+01 1.22748E+00-5.66125E-04 1.00504E+00-4.09612E-14-9.54114E-14
 -1      3863 1.79158E+01 7.28787E-01 8.40211E-03-1.65624E+00 6.00730E-14 1.84309E-13
 -1      3864 1.80359E+01 8.23872E-01-1.11699E-02-1.47482E+00 1.72296E-13 3.48684E-13
 -1      3865 1.78070E+01 1.00453E+00 9.46242E-03-1.21905E+00 1.40721E-13 2.82050E-13
 -1      3866 2.02796E+01 1.28029E+00 3.79493E-04-2.01377E-01 1.64601E-13-1.70963E-13
 -1      3867 2.02069E+01 1.20491E+00 2.76508E-03-3.81878E-01 1.40830E-13-1.53574E-13
 -1      3868 1.67488E+01-1.36371E+00 4.59198E-02 3.94936E+00-3.51875E-13 2.15062E-13
 -1      3869 1.53135E+01-5.79846E-01-6.91708E-03 3.37078E+00-2.10256E-13 2.23689E-13
 -1      3870 1.75094E+01 3.75441E-01 2.01166E-02-2.14412E+00-7.68875E-14 2.40383E-13
 -1      3871 1.75701E+01 5.77232E-01-1.36961E-02-1.88697E+00-2.32605E-14 1.89722E-13
 -1      3872 1.72148E+01 8.57250E-01 1.21330E-02-1.57566E+00 6.43309E-14 7.32573E-14
 -1      3873 1.96522E+01-5.09130E-01 5.49273E-03 1.98533E+00-2.48515E-14-1.68906E-14
 -1      3874 1.99334E+01-8.52482E-01 1.55421E-02 2.08669E+00-4.50462E-14-2.16556E-14
 -1      3875 1.93533E+01-9.77980E-01-1.31583E-02 2.46661E+00-3.48332E-15 5.37825E-14
 -1      3876 1.90649E+01-2.55758E-01-8.43896E-03 2.01442E+00-3.96078E-14 1.60420E-13
 -1      3877 1.94897E+01 1.51205E+00-3.74489E-03 5.79493E-01-7.89309E-14-1.23494E-13
 -1      3878 1.93920E+01 1.40508E+00-1.43757E-03 7.31118E-01-7.66420E-14-1.28238E-13
 -1      3879 1.91507E+01 1.49024E+00 7.06667E-03 6.74788E-01-4.89802E-14-1.16188E-13
 -1      3880 1.88899E+01 1.14518E+00-6.27938E-03 1.13771E+00-1.78478E-14-8.87760E-14
 -1      3881 1.87439E+01 1.06334E+00 1.69819E-03 1.29099E+00-7.85727E-15-9.30763E-14
 -1      3882 1.87828E+01 1.32190E+00 7.34868E-03 9.17710E-01-2.50788E-14-7.84798E-14
 -1      3883 2.00045E+01 1.74414E-02 1.95304E-04 1.15927E-03-1.47538E-13-5.63669E-13
 -1      3884 1.35069E+01 8.75357E-01-1.06694E-02-8.18120E-01 1.13858E-13 9.07607E-15
 -1      3885 1.39290E+01 6.45992E-01 3.12946E-02-1.83300E+00 4.03332E-14 1.45300E-14
 -1      3886 1.28622E+01 7.98931E-01 9.59109E-02 1.36820E+00-2.92977E-14 1.83589E-13
 -1      3887 1.31240E+01 8.76632E-01 9.47047E-03 5.53842E-01 7.48568E-14 5.16566E-14
 -1      3888 1.71327E+01-4.62353E-02-1.24846E-02-2.60547E+00-8.84351E-15 1.36730E-13
 -1      3889 1.36901E+01 3.28452E-01 2.07171E-02 2.23027E+00-1.08938E-13 2.16199E-13
 -1      3890 2.00516E+01 1.28271E+00-2.26656E-03-4.61983E-01 1.06496E-13-1.48334E-13
 -1      3891 2.00044E+01 2.22221E-02 3.52618E-05-3.64319E-03-1.27092E-16 9.03391E-14
 -1      3892 2.00043E+01 2.22241E-02-8.49979E-05 4.33463E-03-2.35595E-13-1.67258E-14
 -1      3893 1.98165E+01-3.51294E-01 1.03177E-02-1.99003E+00-2.39164E-14-1.14149E-13
 -1      3894 1.96689E+01-7.33702E-02 2.31798E-03-1.86453E+00-2.28593E-14-1.02433E-13
 -1      3895 1.96081E+01 1.74708E+00-1.93547E-03 3.42987E-01-7.99076E-14-1.53884E-13
 -1      3896 1.95679E+01 1.60463E+00-4.96480E-04 4.88738E-01-8.58200E-14-1.41383E-13
 -1      3897 1.93677E+01 1.68204E+00 5.74111E-03 4.70302E-01-6.31065E-14-1.77589E-13
 -1      3898 1.94965E+01 1.86664E+00 2.10395E-03 2.97791E-01-5.84335E-14-1.86103E-13
 -1      3899 1.20633E+01 6.45586E-01 4.49083E-02 1.11038E-01 1.83742E-14-4.30690E-13
 -1      3900 1.91868E+01 2.07134E+00-3.65503E-03 5.88334E-02-3.02428E-14-1.84060E-13
 -1      3901 1.92443E+01 2.03134E+00-2.35816E-04 1.30798E-01-4.77711E-14-2.01101E-13
 -1      3902 2.13163E+01-1.98568E+00-4.21166E-02-2.12463E+00-7.84711E-14-5.82624E-14
 -1      3903 2.03254E+01-1.95134E+00-1.22793E-03 2.66925E+00-6.17687E-14-1.19366E-14
 -1      3904 1.99675E+01 1.09990E-01-7.46185E-03-1.60656E+00-5.76933E-14-4.07132E-14
 -1      3905 1.98505E+01 1.10005E+00-7.23478E-04-7.72909E-01 4.83895E-14-1.24304E-13
 -1      3906 1.98999E+01 1.22222E+00 2.67852E-03-6.32927E-01 6.20479E-14-1.52892E-13
 -1      3907 1.83110E+01 1.16520E+00 8.69117E-03 1.18502E+00 1.31081E-14-7.95013E-14
 -1      3908 2.02599E+01-1.07201E+00 1.90399E-02-2.25656E+00-2.02545E-14-1.14993E-13
 -1      3909 1.99199E+01-6.87741E-01 9.64543E-03-2.18643E+00-1.40848E-14-1.41751E-13
 -1      3910 1.93364E+01-4.13561E-01-8.30429E-03-2.23247E+00-2.27936E-14-1.33605E-13
 -1      3911 1.53040E+01 4.81972E-01 3.74650E-02-2.09783E+00 9.42354E-14 2.19703E-14
 -1      3912 1.64899E+01 3.60990E-01-2.31627E-03-2.27818E+00 3.69958E-14 1.49105E-13
 -1      3913 2.00033E+01 2.44404E-02-1.12833E-04 3.44507E-03-1.04098E-13-2.26463E-13
 -1      3914 2.00034E+01 3.25130E-02 2.20069E-04 6.91192E-03-1.18422E-13-8.09199E-14
 -1      3915 2.00028E+01 2.57018E-02-1.61278E-04 3.08137E-03 1.04288E-13-3.55568E-13
 -1      3916 1.83962E+01-1.86251E+00 2.74019E-02 3.62116E+00-3.20307E-13-2.19815E-14
 -1      3917 2.00020E+01 2.79210E-02-1.30732E-04 1.26881E-03 2.76873E-13-1.26823E-13
 -1      3918 2.00022E+01 2.71420E-02-1.60357E-04 1.76631E-03 2.78411E-13-3.83525E-13
 -1      3919 2.00016E+01 3.65766E-02 2.62666E-04 4.07104E-03 3.37490E-13-1.06464E-13
 -1      3920 1.61714E+01 2.94936E-01 5.45684E-02 2.53878E+00 1.47867E-13-1.47985E-13
 -1      3921 1.96057E+01 1.69505E+00-2.19241E-03-3.86194E-01 6.70648E-14-1.31765E-13
 -1      3922 1.94646E+01 1.82162E+00-4.61119E-03-3.51513E-01 3.58338E-14-1.14915E-13
 -1      3923 2.00040E+01 2.34835E-02-2.75140E-05-3.41332E-03-8.99668E-15 2.71336E-14
 -1      3924 1.48646E+01 1.37346E-01 5.30266E-02 2.68655E+00-1.14226E-13 1.86462E-13
 -1      3925 1.45913E+01 6.17028E-01-8.81312E-03 1.75169E+00-3.86171E-14 1.69543E-13
 -1      3926 1.61444E+01-1.56074E-01 1.80022E-02 2.73469E+00-1.77708E-13 5.97586E-14
 -1      3927 2.00038E+01 1.93185E-02 1.10735E-04-9.43147E-04 5.61006E-14 1.82789E-13
 -1      3928 1.60278E+01-8.00475E-01 1.60251E-02-3.48750E+00-1.47240E-13-8.61880E-14
 -1      3929 1.68057E+01-1.25390E+00 2.88459E-02-3.81067E+00-2.09517E-13-8.11885E-14
 -1      3930 1.79657E+01-1.42045E+00-6.11575E-03-3.53298E+00-1.83435E-13-5.65251E-14
 -1      3931 1.93533E+01 1.73119E+00 2.49844E-03-4.04406E-01 1.72412E-14-1.04119E-13
 -1      3932 1.93445E+01 1.93676E+00-6.84468E-04-2.72110E-01 3.25244E-14-1.35842E-13
 -1      3933 1.92526E+01 2.00616E+00-5.19955E-03-2.18158E-01 1.25714E-14-1.39434E-13
 -1      3934 2.05209E+01-2.19947E+00 2.64971E-02-2.92364E+00-1.72418E-13-4.67551E-14
 -1      3935 1.24667E+01 3.91211E-01 1.11057E-02-1.76322E+00-7.58595E-14-3.60580E-13
 -1      3936 1.27349E+01 8.13544E-02 8.40814E-02-2.63708E+00-1.42830E-13-3.51386E-13
 -1      3937 1.42131E+01-6.65514E-02 2.69213E-02-2.84303E+00-1.34816E-13-2.49755E-13
 -1      3938 1.93867E+01 1.94471E+00-4.21710E-03 2.45559E-01-4.86201E-14-2.08718E-13
 -1      3939 1.92658E+01 1.85218E+00 2.23723E-04 2.62555E-01-3.02744E-14-2.06463E-13
 -1      3940 2.00021E+01 2.80788E-02-1.01154E-04-1.01777E-03 2.08387E-13 1.61689E-14
 -1      3941 2.00020E+01 2.81201E-02-1.22724E-04-2.82792E-04 2.93920E-13-2.31050E-13
 -1      3942 2.00006E+01 3.81599E-02 1.97861E-04 4.89839E-04 1.85831E-13-2.53741E-13
 -1      3943 1.97642E+01 8.23242E-01 1.54901E-03-1.08085E+00-1.82677E-15-6.46623E-14
 -1      3944 1.97890E+01 9.60516E-01-3.17882E-04-9.28174E-01 2.82631E-14-9.90367E-14
 -1      3945 1.96550E+01 1.16545E+00-6.30889E-05-8.08244E-01 2.84294E-14-1.05370E-13
 -1      3946 1.98831E+01 1.38007E+00-1.03759E-03-4.92059E-01 9.18615E-14-1.59338E-13
 -1      3947 1.37190E+01 1.07068E+00 5.23011E-02-1.53084E-01 4.22123E-15-3.53502E-14
 -1      3948 1.45147E+01 1.03303E+00 1.85908E-02-6.46282E-01-2.88441E-15-3.85187E-14
 -1      3949 1.40517E+01 9.61677E-01-1.15223E-02 5.93867E-01-2.37961E-15 2.35437E-14
 -1      3950 1.97177E+01 1.54560E+00-1.77560E-03-4.67012E-01 7.94464E-14-1.51391E-13
 -1      3951 1.91715E+01 2.07850E+00-4.65789E-03-5.19008E-02-2.10130E-14-1.77272E-13
 -1      3952 1.91209E+01 1.94408E+00 7.11782E-03 1.48846E-02-1.76645E-14-1.65289E-13
 -1      3953 1.91950E+01 2.06545E+00-1.95819E-03-1.19871E-01 9.20240E-15-1.54234E-13
 -1      3954 2.00383E+01-1.62236E+00 1.85705E-02-2.79617E+00-1.17129E-13-7.11167E-14
 -1      3955 1.66213E+01 9.17192E-01-2.17009E-02 1.41847E+00 6.85049E-14-1.68786E-13
 -1      3956 1.62092E+01 7.47038E-01-5.71745E-03 1.69075E+00 8.60976E-14-1.67248E-13
 -1      3957 1.91398E+01-1.26676E+00-3.58436E-03-2.97104E+00-1.23817E-13-1.01397E-13
 -1      3958 1.81797E+01 1.28420E+00-1.00007E-02 8.51563E-01-2.39414E-15-1.12592E-13
 -1      3959 1.79159E+01 1.21565E+00-2.22302E-03 9.79557E-01 1.66632E-14-1.29439E-13
 -1      3960 1.86958E+01 1.42806E+00-6.63666E-03 6.55624E-01-2.86909E-14-1.13050E-13
 -1      3961 1.84860E+01 1.35764E+00-2.55820E-03 7.68006E-01-2.51582E-14-9.16987E-14
 -1      3962 1.81837E+01 1.42853E+00 1.15049E-02 5.74597E-01-3.26962E-14-1.55316E-13
 -1      3963 1.96979E+01 5.32048E-01 4.20063E-03-1.37746E+00-2.43898E-14-5.97046E-14
 -1      3964 1.96956E+01 6.83062E-01-2.90420E-04-1.23475E+00-1.78901E-15-5.97777E-14
 -1      3965 1.95200E+01 8.77296E-01-1.29398E-03-1.11805E+00-2.07303E-15-6.94710E-14
 -1      3966 1.84143E+01 1.05674E+00-1.79831E-03-6.53735E-01 2.90341E-14 4.80914E-14
 -1      3967 1.85889E+01 1.01621E+00-5.68467E-03-5.85657E-01 1.02577E-13-1.14552E-13
 -1      3968 1.87848E+01 9.70777E-01-1.53122E-03-5.40186E-01 1.96919E-13-2.13145E-13
 -1      3969 1.89244E+01 9.17178E-01-4.26165E-03-4.84034E-01 2.04099E-13-2.08340E-13
 -1      3970 1.85804E+01 1.05137E+00 7.22119E-03-4.10292E-01 4.83660E-14-1.13276E-13
 -1      3971 1.90779E+01 8.61877E-01-1.30240E-03-4.45996E-01 1.92646E-13-3.30281E-13
 -1      3972 1.91884E+01 8.02964E-01-3.31989E-03-3.98107E-01 5.00833E-14-1.71567E-13
 -1      3973 1.89181E+01 9.37488E-01 5.44380E-03-3.44396E-01 1.57595E-13-3.29406E-13
 -1      3974 1.93089E+01 7.44727E-01-1.00456E-03-3.65250E-01-1.24861E-13-1.60031E-13
 -1      3975 1.93953E+01 6.85610E-01-2.64588E-03-3.23894E-01-2.61596E-13-6.72440E-14
 -1      3976 1.91835E+01 8.14747E-01 4.21217E-03-2.86962E-01 3.77748E-14-2.68606E-13
 -1      3977 1.94895E+01 6.28797E-01-7.24185E-04-2.95356E-01-3.10544E-13 5.98763E-14
 -1      3978 1.95561E+01 5.72830E-01-2.13579E-03-2.59761E-01-2.17972E-13 6.61692E-14
 -1      3979 1.93914E+01 6.92307E-01 3.29202E-03-2.35801E-01-1.70711E-13-1.15507E-13
 -1      3980 1.96292E+01 5.20173E-01-4.94579E-04-2.35215E-01-1.50799E-13-4.60468E-14
 -1      3981 1.96799E+01 4.69378E-01-1.72863E-03-2.04946E-01 1.05911E-14-5.03339E-14
 -1      3982 1.95533E+01 5.76419E-01 2.57197E-03-1.90532E-01-2.06959E-13-1.75080E-14
 -1      3983 1.97361E+01 4.22389E-01-3.18450E-04-1.84174E-01 9.13719E-14-1.53550E-13
 -1      3984 1.97740E+01 3.77776E-01-1.39249E-03-1.58847E-01 1.16324E-13-5.31783E-14
 -1      3985 1.96780E+01 4.71040E-01 1.99770E-03-1.51155E-01-2.88716E-16-3.01204E-13
 -1      3986 1.98166E+01 3.37079E-01-1.90003E-04-1.41594E-01 1.08511E-13-9.51243E-14
 -1      3987 1.98446E+01 2.98934E-01-1.11114E-03-1.20775E-01-3.72533E-15-6.13704E-14
 -1      3988 1.97728E+01 3.78236E-01 1.53767E-03-1.17611E-01 9.99988E-14-3.71827E-13
 -1      3989 1.98763E+01 2.64553E-01-1.00631E-04-1.06723E-01-1.83493E-13-4.40001E-14
 -1      3990 1.98965E+01 2.32677E-01-8.75670E-04-8.99159E-02-2.16660E-13-1.30127E-14
 -1      3991 1.98440E+01 2.98657E-01 1.17027E-03-8.96492E-02-3.93496E-14-2.55608E-13
 -1      3992 1.99198E+01 2.04251E-01-4.14118E-05-7.86912E-02-1.82112E-13-1.15775E-13
 -1      3993 1.99341E+01 1.78150E-01-6.80163E-04-6.53673E-02-7.67118E-14-2.83427E-13
 -1      3994 1.98964E+01 2.31970E-01 8.79078E-04-6.68336E-02-2.03590E-13-3.17998E-13
 -1      3995 1.99508E+01 1.55095E-01-4.23267E-06-5.65718E-02 4.44691E-14-3.59599E-13
 -1      3996 1.99606E+01 1.34109E-01-5.20059E-04-4.61985E-02 6.50205E-14-2.90422E-13
 -1      3997 1.99342E+01 1.77216E-01 6.50646E-04-4.85974E-02-8.16772E-14-2.79980E-13
 -1      3998 1.99723E+01 1.15736E-01 1.82398E-05-3.94386E-02-1.52940E-14-1.58050E-13
 -1      3999 1.99787E+01 9.91461E-02-3.90623E-04-3.15110E-02 1.17738E-13-1.74386E-13
 -1      4000 1.99609E+01 1.33080E-01 4.72963E-04-3.43094E-02 8.45729E-14-5.50252E-14
 -1      4001 1.99866E+01 8.47292E-02 3.01625E-05-2.64205E-02 1.76617E-13-2.04846E-13
 -1      4002 1.99906E+01 7.18180E-02-2.88900E-04-2.04890E-02 1.47763E-13-1.83059E-13
 -1      4003 1.99790E+01 9.80898E-02 3.35342E-04-2.33426E-02 1.61278E-13-7.96718E-14
 -1      4004 1.99957E+01 6.06887E-02 3.94410E-05-1.67404E-02 1.82203E-13-8.75111E-14
 -1      4005 1.99979E+01 5.07222E-02-2.30991E-04-1.23901E-02 1.90792E-13-3.71764E-14
 -1      4006 1.99910E+01 7.07970E-02 2.46980E-04-1.50849E-02 2.17419E-13-8.51218E-14
 -1      4007 2.00009E+01 4.22816E-02 4.70621E-05-9.74240E-03 8.96025E-14 6.42693E-14
 -1      4008 2.00020E+01 3.46794E-02-1.13834E-04-6.44890E-03 2.22686E-14-4.21293E-14
 -1      4009 1.99982E+01 4.98718E-02 1.75740E-04-9.06372E-03 1.67099E-13-3.99785E-14
 -1      4010 1.89924E+01 7.11310E-01-4.86278E-03 9.20805E-01-2.34802E-13 5.89649E-14
 -1      4011 1.89338E+01 6.90817E-01 3.76672E-03 1.03080E+00-2.11249E-13 1.10592E-13
 -1      4012 1.87890E+01 6.41051E-01-5.68125E-03 1.16521E+00-2.06975E-13 1.02875E-13
 -1      4013 1.87508E+01 5.69023E-01 6.18674E-03 1.30358E+00-2.42784E-13 7.71435E-14
 -1      4014 1.86121E+01 7.79447E-01 3.12521E-03 1.01323E+00-1.90154E-13 2.32474E-13
 -1      4015 1.90723E+01 1.60430E+00-6.48982E-03 4.65564E-01-1.29270E-14-1.96686E-13
 -1      4016 1.89196E+01 1.51277E+00-2.82164E-03 5.79073E-01-3.69117E-15-1.43670E-13
 -1      4017 1.86925E+01 1.56715E+00 7.85882E-03 4.44265E-01 1.28393E-14-1.70954E-13
 -1      4018 1.55641E+01 6.37106E-01-2.27229E-02 1.77881E+00 8.44849E-14-1.89878E-13
 -1      4019 1.50065E+01 4.81826E-01-1.33497E-02 1.97188E+00 1.42740E-13-2.32382E-13
 -1      4020 1.54556E+01 1.05552E+00 5.15422E-02 1.10669E+00 7.90271E-14-2.51119E-13
 -1      4021 1.85983E+01 4.55030E-01-6.89784E-03 1.47922E+00-1.59335E-13 9.64359E-14
 -1      4022 1.86026E+01 3.11632E-01 9.46338E-03 1.65391E+00-3.38616E-14 2.01288E-13
 -1      4023 1.83303E+01 6.57013E-01 2.92637E-03 1.31633E+00-1.68482E-13 2.35295E-13
 -1      4024 1.91839E+01 7.10771E-01-3.98985E-03 7.30764E-01 4.96502E-14 1.16602E-13
 -1      4025 1.91210E+01 7.20150E-01 2.07520E-03 8.19972E-01-1.64512E-13 9.05966E-14
 -1      4026 1.88740E+01 8.05568E-01 3.00182E-03 7.87260E-01-2.10718E-13 1.83129E-13
 -1      4027 1.93548E+01 6.65897E-01-3.31440E-03 5.78154E-01-1.18395E-13 3.37901E-13
 -1      4028 1.92952E+01 6.94199E-01 1.27741E-03 6.51360E-01-2.20867E-14 2.28900E-13
 -1      4029 1.91031E+01 7.75831E-01 2.93152E-03 6.15803E-01-1.14828E-13 2.88968E-13
 -1      4030 1.95016E+01 5.96145E-01-2.75582E-03 4.54790E-01-2.71850E-14 3.65255E-13
 -1      4031 1.94489E+01 6.34409E-01 7.91046E-04 5.15144E-01-5.43638E-14 3.35144E-13
 -1      4032 1.92998E+01 7.10394E-01 2.66414E-03 4.81190E-01-1.15923E-13 4.26250E-13
 -1      4033 1.96237E+01 5.15616E-01-2.28132E-03 3.54776E-01 3.80866E-14 4.05242E-13
 -1      4034 1.95793E+01 5.57559E-01 5.06176E-04 4.04496E-01 4.39881E-15 3.92498E-13
 -1      4035 1.94640E+01 6.26380E-01 2.30758E-03 3.74743E-01-6.50291E-14 3.14495E-13
 -1      4036 1.97226E+01 4.33673E-01-1.87440E-03 2.73794E-01-4.64873E-14 6.00032E-13
 -1      4037 1.96866E+01 4.75197E-01 3.50667E-04 3.14535E-01 2.78689E-14 4.91217E-13
 -1      4038 1.95980E+01 5.36029E-01 1.94074E-03 2.89919E-01-8.96072E-15 3.42413E-13
 -1      4039 1.98006E+01 3.56152E-01-1.52420E-03 2.08587E-01 4.90065E-14 6.82548E-13
 -1      4040 1.97724E+01 3.94759E-01 2.64779E-04 2.41680E-01 4.91242E-14 6.23224E-13
 -1      4041 1.97051E+01 4.47312E-01 1.59354E-03 2.22191E-01-3.12006E-16 4.20610E-13
 -1      4042 1.98610E+01 2.86341E-01-1.22401E-03 1.56536E-01-3.54101E-14 4.46901E-13
 -1      4043 1.98393E+01 3.20686E-01 2.14587E-04 1.83121E-01 4.38587E-14 6.02823E-13
 -1      4044 1.97890E+01 3.65123E-01 1.27999E-03 1.68273E-01 6.22965E-14 4.19056E-13
 -1      4045 1.99065E+01 2.25743E-01-9.69257E-04 1.15432E-01-1.21857E-13 1.61305E-13
 -1      4046 1.98904E+01 2.55278E-01 1.81799E-04 1.36522E-01-3.76419E-14 3.21485E-13
 -1      4047 1.98534E+01 2.92106E-01 1.00679E-03 1.25626E-01 2.83973E-14 6.10291E-13
 -1      4048 1.99399E+01 1.74662E-01-7.55989E-04 8.33714E-02 5.59481E-14-5.92757E-14
 -1      4049 1.99284E+01 1.99371E-01 1.57028E-04 9.98740E-02-1.01194E-13-7.91909E-14
 -1      4050 1.99016E+01 2.29320E-01 7.75833E-04 9.21987E-02 1.26425E-13 2.88783E-13
 -1      4051 1.99639E+01 1.32652E-01-5.79855E-04 5.87001E-02-7.87084E-15 2.00245E-13
 -1      4052 1.99559E+01 1.52844E-01 1.35842E-04 7.14266E-02-3.16073E-15 3.16487E-14
 -1      4053 1.99370E+01 1.76764E-01 5.85758E-04 6.62836E-02-9.84408E-15 9.38196E-14
 -1      4054 1.99805E+01 9.88267E-02-4.38689E-04 3.99898E-02 1.36067E-13 3.43981E-13
 -1      4055 1.99752E+01 1.14997E-01 1.16614E-04 4.96518E-02 8.25838E-14 2.84292E-13
 -1      4056 1.99622E+01 1.33774E-01 4.32746E-04 4.64399E-02-4.84303E-14 5.43951E-13
 -1      4057 1.99915E+01 7.20918E-02-3.23468E-04 2.60429E-02 3.26284E-14 1.66499E-13
 -1      4058 1.99882E+01 8.48090E-02 9.98365E-05 3.32454E-02 2.23691E-13 1.62504E-13
 -1      4059 1.99796E+01 9.92917E-02 3.08775E-04 3.14420E-02 1.90067E-13 6.69241E-13
 -1      4060 1.99983E+01 5.13888E-02-2.25190E-04 1.58574E-02-5.29679E-14 2.06350E-13
 -1      4061 1.99965E+01 6.12255E-02 1.01306E-04 2.11114E-02-8.69087E-14 1.40696E-13
 -1      4062 1.99911E+01 7.21520E-02 2.16097E-04 2.03770E-02-1.36115E-14 4.02932E-13
 -1      4063 2.00016E+01 3.75004E-02-1.26778E-04 9.18147E-03-5.71204E-14 3.48359E-14
 -1      4064 2.00008E+01 4.52284E-02 1.44689E-04 1.28901E-02 6.07780E-14 1.44655E-13
 -1      4065 1.99973E+01 5.31967E-02 3.77003E-05 1.27118E-02 7.78275E-14 2.59586E-13
 -1      4066 2.00005E+01 4.01015E-02-9.58725E-05 7.63494E-03 1.14524E-13-1.19129E-14
 -1      4067 1.56776E+01 7.93781E-01-1.07303E-02-1.59770E+00 4.69321E-14 5.85604E-14
 -1      4068 1.92665E+01 1.66809E-01-5.78234E-03-1.81094E+00-1.58100E-14-9.26031E-14
 -1      4069 1.96792E+01 1.64209E-01 7.60632E-03-1.68199E+00-3.28064E-14-9.82779E-14
 -1      4070 1.96225E+01 3.61403E-01 2.21167E-04-1.54587E+00-3.09315E-14-6.80589E-14
 -1      4071 1.96089E+01 1.46616E+00 3.24063E-03-5.69092E-01 3.57816E-14-1.09347E-13
 -1      4072 2.00028E+01 2.87156E-02 2.47889E-05-3.64813E-03 1.72633E-14-9.35105E-14
 -1      4073 1.40319E+01 9.29312E-01 8.66313E-02 1.17505E+00 9.78831E-14-3.56505E-13
 -1      4074 1.32299E+01 8.13388E-01-1.58089E-02 3.71370E-01 5.73899E-14-3.60819E-13
 -1      4075 1.25808E+01 7.84573E-01 8.19241E-02-7.32038E-01-1.87877E-14-3.87863E-13
 -1      4076 1.37066E+01 6.70282E-01 2.87754E-02-1.29508E+00-3.12441E-14-2.92587E-13
 -1      4077 1.41329E+01 9.24987E-01-3.30010E-03 4.21141E-01 5.94134E-14-3.36174E-13
 -1      4078 1.73533E+01 1.08309E+00-3.07806E-04-1.00498E+00 1.27745E-13-4.87404E-14
 -1      4079 1.76160E+01 1.10352E+00-1.13024E-02-8.77665E-01 1.13616E-13-8.34131E-16
 -1      4080 1.79443E+01 1.10192E+00-2.59015E-03-7.95890E-01 9.69887E-14 1.14099E-14
 -1      4081 1.81631E+01 1.08280E+00-8.26742E-03-7.09363E-01 4.13925E-14 1.49973E-14
 -1      4082 1.81534E+01 1.14470E+00 1.10841E-02-4.89656E-01 4.29906E-14-1.71705E-13
 -1      4083 1.75916E+01 1.20892E+00 1.46156E-02-5.96649E-01 1.12266E-13-2.80547E-13
 -1      4084 1.66266E+01 9.70068E-01 8.69609E-03-1.29593E+00-1.46246E-14-2.70501E-14
 -1      4085 1.69138E+01 1.02859E+00-1.77734E-02-1.11406E+00 9.88506E-14 2.98604E-14
 -1      4086 1.68726E+01 1.19425E+00 1.70431E-02-7.48991E-01 4.49671E-14-9.26824E-14
 -1      4087 1.95172E+01 1.30942E+00-1.42836E-03-7.07422E-01 2.46553E-14-9.59098E-14
 -1      4088 1.94074E+01 1.46183E+00 2.28943E-03-6.19118E-01 2.14930E-14-8.23493E-14
 -1      4089 1.94547E+01 1.16741E+00 1.40038E-03-8.59655E-01 1.35437E-14-7.79924E-14
 -1      4090 1.55423E+01 1.04584E+00 1.51322E-02-1.08654E+00 4.33948E-14-4.71739E-14
 -1      4091 1.75053E+01 1.13016E+00-1.52658E-02 1.08869E+00 8.91930E-15-1.18627E-13
 -1      4092 1.71830E+01 1.03701E+00-1.25986E-03 1.26062E+00 2.46018E-14-1.27075E-13
 -1      4093 1.65886E+01 1.17079E+00 2.51810E-02 9.41917E-01 2.97714E-14-1.73260E-13
 -1      4094 1.91888E+01 1.75695E+00-1.39896E-03 3.38346E-01-3.37007E-14-2.00783E-13
 -1      4095 1.90143E+01 1.78110E+00 2.43678E-03 2.51035E-01 1.14722E-15-1.91182E-13
 -1      4096 1.91742E+01 1.89821E+00 7.57959E-03-2.14295E-01-1.71125E-15-1.39473E-13
 -1      4097 1.74977E+01 1.31110E+00 1.59686E-02 7.29046E-01-1.90408E-15-1.63296E-13
 -1      4098 1.93702E+01 5.69810E-01-2.17032E-03-1.44616E+00-2.51866E-15-8.21436E-14
 -1      4099 1.89504E+01 1.79857E+00-5.48696E-03 7.32393E-02-2.36313E-14-1.69343E-13
 -1      4100 1.88352E+01 1.67798E+00 2.81041E-03 1.90692E-01-1.67859E-15-1.77562E-13
 -1      4101 1.89461E+01 1.81181E+00-1.19090E-03-5.25454E-02-6.40736E-15-1.39927E-13
 -1      4102 1.54746E+01 1.12727E+00-1.69592E-02-4.79066E-01-1.65354E-14-4.36894E-14
 -1      4103 1.88567E+01 2.61856E-01 9.59245E-03-1.83495E+00-2.74753E-14-7.31385E-14
 -1      4104 1.88596E+01 4.67954E-01-6.38688E-03-1.64273E+00-6.98291E-15-5.86654E-14
 -1      4105 1.72443E+01-5.00173E-01 2.34675E-02 2.93900E+00-2.04910E-13 1.85808E-13
 -1      4106 1.65218E+01 5.33835E-02-2.39053E-02 2.38197E+00-1.11829E-13 1.20923E-13
 -1      4107 1.55109E+01-3.35886E-01 4.87930E-02-3.16354E+00-1.21981E-13-1.48246E-13
 -1      4108 1.67492E+01-6.06609E-01 2.16968E-02-3.16454E+00-1.21765E-13-2.88246E-14
 -1      4109 1.49590E+01 2.54667E-02-3.97149E-03-2.63637E+00-1.12708E-13-2.11334E-13
 -1      4110 1.83715E+01-4.06482E-01-8.61931E-03 2.38416E+00-5.93558E-14 2.58970E-13
 -1      4111 1.86183E+01-7.94678E-01 1.77237E-02 2.64395E+00-4.93373E-14 1.82237E-13
 -1      4112 1.92480E+01 1.56603E+00-5.15854E-03-5.29147E-01 1.33003E-14-1.12617E-13
 -1      4113 1.87892E+01-3.12236E-01 9.80957E-03-2.34442E+00-3.59296E-14-5.85122E-14
 -1      4114 1.86881E+01-2.54934E-03-1.09129E-02-2.09806E+00-2.35408E-14-6.22113E-14
 -1      4115 1.82824E+01 3.49738E-01 8.53384E-03-1.91486E+00-2.35097E-14-6.71733E-14
 -1      4116 1.82364E+01-1.18290E+00-1.45870E-02 3.09101E+00-1.61230E-13 8.78568E-14
 -1      4117 2.00024E+01 2.72779E-02-9.41394E-05-1.66832E-03 1.61247E-13 9.85434E-14
 -1      4118 1.84377E+01 1.29154E-01-7.90499E-03 1.87278E+00-4.71692E-14 2.53084E-13
 -1      4119 1.85214E+01-1.12886E-01 1.37866E-02 2.08894E+00-5.25215E-14 2.21062E-13
 -1      4120 1.77383E+01 3.26279E-02 7.98506E-03 2.22057E+00-8.13117E-14 3.70191E-13
 -1      4121 1.80318E+01 4.17769E-01 2.72977E-03 1.70618E+00-1.87150E-14 3.82688E-13
 -1      4122 1.98702E+01-2.12110E+00 1.32939E-02 3.17223E+00-1.45906E-13-6.31110E-14
 -1      4123 1.54923E+01 7.06982E-01-1.05325E-02 1.55751E+00-3.97892E-14 1.50342E-13
 -1      4124 1.47206E+01 9.58600E-01 4.18548E-02 1.14617E+00-4.72304E-14 2.31146E-13
 -1      4125 1.49874E+01 1.06964E+00-2.81594E-03 5.46567E-01-6.56515E-14 7.06345E-14
 -1      4126 1.99986E+01 4.37747E-02-5.48788E-05 3.34247E-03 2.42090E-13-3.76048E-13
 -1      4127 1.99992E+01 4.22404E-02-1.12180E-04 5.26697E-03 2.34433E-13-1.46561E-13
 -1      4128 1.99981E+01 4.87761E-02 1.64752E-04 7.41447E-03 2.00822E-13-4.65773E-14
 -1      4129 1.99984E+01 4.47806E-02 9.27478E-05-1.67992E-03 1.91833E-13-2.73559E-13
 -1      4130 1.99982E+01 4.42384E-02-1.06625E-04 5.46938E-04 2.25187E-13-2.53824E-13
 -1      4131 1.99966E+01 5.12908E-02 1.49170E-04 1.47587E-03 1.76141E-13-2.71906E-13
 -1      4132 2.00004E+01 3.93819E-02 2.03601E-05-4.07373E-03 1.30083E-13-1.21722E-13
 -1      4133 1.80266E+01-9.89112E-01 1.30167E-02-3.13815E+00-1.27314E-13-5.32092E-14
 -1      4134 1.84557E+01-5.51628E-01-1.58404E-02-2.61900E+00-5.69304E-14-6.33655E-14
 -1      4135 1.92696E+01 8.96365E-01 3.30465E-03-1.16086E+00-3.32307E-15-8.68264E-14
 -1      4136 1.93361E+01 1.03077E+00-2.07089E-03-1.00438E+00 9.55275E-15-6.81294E-14
 -1      4137 1.91934E+01 1.17259E+00-3.10505E-03-9.04854E-01 2.20921E-15-8.59950E-14
 -1      4138 1.82197E+01 1.46223E+00-8.38102E-03 2.74913E-01-3.09400E-14-1.93575E-13
 -1      4139 1.79123E+01 1.40157E+00-9.53737E-03 3.23468E-01-3.37459E-14-1.88131E-13
 -1      4140 1.66199E+01 1.21541E+00-1.74191E-02 4.01985E-01-6.36812E-15-1.73060E-13
 -1      4141 1.60725E+01 1.13371E+00-1.38062E-02 4.84942E-01 2.00421E-14-2.08493E-13
 -1      4142 1.86587E+01 1.59855E+00-5.66619E-03 2.10823E-01 9.43305E-15-1.94307E-13
 -1      4143 1.84345E+01 1.52200E+00-3.81204E-03 2.58294E-01-5.32755E-15-1.98802E-13
 -1      4144 1.82787E+01 1.52410E+00 1.24763E-02 2.67650E-02-2.65188E-14-1.92252E-13
 -1      4145 1.86320E+01 1.63296E+00 3.37205E-03 1.69202E-02-1.77180E-15-1.58357E-13
 -1      4146 1.87757E+01 9.69847E-01-3.69029E-03-2.19004E-01 3.22693E-14-1.80688E-13
 -1      4147 1.89292E+01 9.11027E-01-3.17507E-03-1.97790E-01-2.93701E-14-2.59548E-13
 -1      4148 1.90709E+01 8.50075E-01-2.77526E-03-1.90053E-01 2.30826E-14-2.88127E-13
 -1      4149 1.91911E+01 7.88918E-01-2.51082E-03-1.70021E-01-4.01415E-15-3.09783E-13
 -1      4150 1.89796E+01 9.06884E-01 7.94489E-03-7.04451E-02-7.14598E-16-3.08358E-13
 -1      4151 1.93028E+01 7.27851E-01-2.09155E-03-1.61402E-01-7.96196E-14-3.30094E-13
 -1      4152 1.93966E+01 6.68189E-01-2.01334E-03-1.42666E-01-1.66118E-13-2.64013E-13
 -1      4153 1.92292E+01 7.82035E-01 6.25009E-03-6.88753E-02-5.09428E-14-4.30769E-13
 -1      4154 1.94842E+01 6.10189E-01-1.56981E-03-1.33971E-01-2.40162E-13-1.29384E-13
 -1      4155 1.95567E+01 5.54654E-01-1.62100E-03-1.16880E-01-2.00915E-13-2.58323E-13
 -1      4156 1.94256E+01 6.60182E-01 4.93114E-03-6.28229E-02-1.46799E-13-3.27921E-13
 -1      4157 1.96249E+01 5.01757E-01-1.17044E-03-1.08682E-01-1.22108E-13-2.53454E-13
 -1      4158 1.96803E+01 4.51920E-01-1.29979E-03-9.35274E-02-2.64475E-14-4.15430E-13
 -1      4159 1.95788E+01 5.46480E-01 3.87279E-03-5.44747E-02-1.97226E-13-2.80941E-13
 -1      4160 1.97326E+01 4.05220E-01-8.65039E-04-8.61813E-02 9.83354E-14-3.71464E-13
 -1      4161 1.97744E+01 3.61812E-01-1.03211E-03-7.31117E-02 1.47810E-13-3.54643E-13
 -1      4162 1.96971E+01 4.44130E-01 3.01428E-03-4.53657E-02 2.58280E-14-3.00259E-13
 -1      4163 1.98140E+01 3.21683E-01-6.32575E-04-6.67952E-02-3.17975E-15-2.92032E-13
 -1      4164 1.98451E+01 2.84820E-01-8.08654E-04-5.58112E-02-1.32494E-13-2.11398E-13
 -1      4165 1.97871E+01 3.54700E-01 2.31790E-03-3.64971E-02 7.11926E-14-2.78239E-13
 -1      4166 1.98745E+01 2.51133E-01-4.56896E-04-5.05648E-02-1.49404E-13-3.17729E-13
 -1      4167 1.98972E+01 2.20514E-01-6.23762E-04-4.15512E-02-1.51177E-13-2.18942E-13
 -1      4168 1.98545E+01 2.78525E-01 1.75687E-03-2.84536E-02-1.46846E-13-1.67751E-13
 -1      4169 1.99187E+01 1.92816E-01-3.25259E-04-3.73234E-02-1.22173E-13-2.28577E-13
 -1      4170 1.99348E+01 1.67882E-01-4.72951E-04-3.00886E-02 5.41915E-14-1.88209E-13
 -1      4171 1.99041E+01 2.15073E-01 1.30949E-03-2.15186E-02-1.12998E-13-4.10242E-14
 -1      4172 1.99501E+01 1.45538E-01-2.26887E-04-2.67719E-02 1.00159E-13-2.40411E-13
 -1      4173 1.99613E+01 1.25597E-01-3.48772E-04-2.10828E-02 8.68701E-14-1.59382E-13
 -1      4174 1.99398E+01 1.63269E-01 9.54522E-04-1.57747E-02 6.17667E-14-1.92073E-13
 -1      4175 1.99718E+01 1.07893E-01-1.47185E-04-1.85261E-02 1.50953E-13-2.60524E-13
 -1      4176 1.99794E+01 9.21620E-02-2.42197E-04-1.41008E-02 1.70142E-13-2.16080E-13
 -1      4177 1.99647E+01 1.21714E-01 6.50052E-04-1.11893E-02 1.14176E-13-4.54871E-13
 -1      4178 1.99863E+01 7.83689E-02-8.43645E-05-1.23561E-02 1.33269E-13-8.38543E-14
 -1      4179 1.99909E+01 6.61746E-02-2.21850E-04-8.90616E-03 1.29905E-13-1.09208E-13
 -1      4180 1.99813E+01 8.78922E-02 5.14195E-05-7.43865E-03 1.18063E-13-3.15222E-13
 -1      4181 1.99955E+01 5.52369E-02-1.65108E-05-6.57335E-03 1.70596E-13-1.05103E-13
 -1      4182 1.99982E+01 4.57973E-02-1.52462E-04-4.30422E-03 2.04979E-13-1.65542E-13
 -1      4183 1.90307E+01 8.10986E-01-5.06297E-03 4.72863E-01-1.28190E-13 4.56285E-14
 -1      4184 1.89301E+01 8.47804E-01 9.73507E-04 5.41361E-01-1.17527E-13-6.00488E-14
 -1      4185 1.87647E+01 8.68355E-01-6.77719E-03 6.15356E-01-1.45437E-13-3.62539E-14
 -1      4186 1.86485E+01 8.84799E-01 4.88509E-04 7.04174E-01-1.65650E-13 7.23053E-14
 -1      4187 1.87400E+01 9.41536E-01 1.00540E-02 4.66468E-01-1.55673E-13-3.19497E-13
 -1      4188 1.55111E+01 1.20088E+00 2.25209E-02-5.16679E-02-1.45326E-14 4.49423E-15
 -1      4189 1.63445E+01 1.20016E+00 2.17790E-03-4.29770E-01 4.27776E-14 4.23236E-14
 -1      4190 1.67099E+01 1.19911E+00-2.10374E-02-3.64525E-01-3.09146E-14-4.22195E-14
 -1      4191 1.58130E+01 1.10491E+00-2.46156E-02 4.97299E-01-7.65095E-14 3.75416E-14
 -1      4192 1.90630E+01 1.72667E+00 2.34431E-03-3.41432E-01 1.80219E-14-1.35738E-13
 -1      4193 1.89763E+01 1.76859E+00-7.52958E-03-2.25493E-01 1.32576E-15-1.39658E-13
 -1      4194 1.88304E+01 1.67621E+00 5.02512E-03-1.76919E-01-2.26921E-15-1.30199E-13
 -1      4195 1.55104E+01 1.07881E+00-1.08531E-02 4.75636E-01 3.60194E-14-2.58043E-13
 -1      4196 1.48794E+01 1.00828E+00-1.29769E-02 4.61604E-01 5.68720E-14-2.90210E-13
 -1      4197 1.45335E+01 1.05794E+00 4.72864E-02-2.82165E-01 1.58855E-14-2.99233E-13
 -1      4198 1.58008E+01 1.20555E+00 2.98257E-02-9.15530E-02-1.29436E-14-2.14457E-13
 -1      4199 1.80685E+01 8.23123E-01-1.43206E-02 1.06282E+00-3.74643E-14 1.80349E-13
 -1      4200 1.79382E+01 7.65808E-01 2.76003E-03 1.22040E+00-1.54052E-14 3.55266E-13
 -1      4201 1.92513E+01 7.26987E-01-3.94844E-03 3.64411E-01-7.61102E-14 1.97357E-14
 -1      4202 1.91651E+01 7.73623E-01 3.37882E-04 4.18183E-01-1.21373E-13 1.46377E-14
 -1      4203 1.90223E+01 8.56797E-01 8.36034E-03 3.51774E-01-8.12190E-14-3.36592E-13
 -1      4204 1.94312E+01 6.31579E-01-3.11835E-03 2.80218E-01 1.08356E-14-3.34251E-14
 -1      4205 1.93597E+01 6.81877E-01 7.94595E-05 3.22946E-01-2.25653E-14 4.82322E-14
 -1      4206 1.92508E+01 7.55250E-01 6.70084E-03 2.66433E-01-2.74903E-14-2.66858E-13
 -1      4207 1.95757E+01 5.34479E-01-2.47879E-03 2.14240E-01-3.39790E-14 9.74241E-15
 -1      4208 1.95179E+01 5.84208E-01-3.29285E-05 2.48419E-01-2.31489E-14 1.24068E-14
 -1      4209 1.94347E+01 6.48296E-01 5.34984E-03 2.01729E-01-2.91434E-14-3.58701E-13
 -1      4210 1.96899E+01 4.42089E-01-1.96981E-03 1.62390E-01-2.95794E-14 1.03854E-13
 -1      4211 1.96442E+01 4.88530E-01-6.82796E-05 1.89747E-01-2.40650E-14 4.56097E-14
 -1      4212 1.95811E+01 5.43708E-01 4.24564E-03 1.52175E-01-3.88532E-14-3.41821E-13
 -1      4213 1.97787E+01 3.58222E-01-1.55704E-03 1.21709E-01-3.91122E-14 2.27544E-13
 -1      4214 1.97433E+01 3.99822E-01-6.52745E-05 1.43522E-01-3.53423E-16 1.07619E-13
 -1      4215 1.96958E+01 4.46556E-01 3.33641E-03 1.14029E-01 2.27591E-14-2.24591E-13
 -1      4216 1.98464E+01 2.84777E-01-1.21998E-03 8.99529E-02 1.40242E-13 2.60951E-13
 -1      4217 1.98196E+01 3.20840E-01-4.62749E-05 1.07222E-01 7.55969E-14 2.79657E-13
 -1      4218 1.97843E+01 3.59753E-01 2.58846E-03 8.46303E-02 1.29969E-14-4.63514E-14
 -1      4219 1.98970E+01 2.22300E-01-9.45256E-04 6.53542E-02 1.38633E-13 7.39042E-14
 -1      4220 1.98772E+01 2.52727E-01-2.35393E-05 7.88977E-02 1.39536E-13 2.11968E-13
 -1      4221 1.98514E+01 2.84580E-01 1.97799E-03 6.20259E-02 1.31462E-13-1.23924E-13
 -1      4222 1.99340E+01 1.70444E-01-7.23273E-04 4.64859E-02-1.64966E-13 2.39806E-13
 -1      4223 1.99198E+01 1.95524E-01-3.20322E-06 5.69889E-02-7.06678E-14 2.24129E-13
 -1      4224 1.99012E+01 2.21162E-01 1.48568E-03 4.47354E-02-3.97551E-15 1.25762E-13
 -1      4225 1.99603E+01 1.28322E-01-5.47013E-04 3.21792E-02-6.14424E-14 3.64817E-13
 -1      4226 1.99504E+01 1.48573E-01 1.20954E-05 4.02246E-02-1.67250E-13 3.28322E-13
 -1      4227 1.99373E+01 1.68866E-01 1.09379E-03 3.16137E-02-2.61955E-13 1.06453E-13
 -1      4228 1.99784E+01 9.47873E-02-3.87874E-04 2.14692E-02 1.54300E-13 4.77479E-13
 -1      4229 1.99717E+01 1.10831E-01 2.40012E-05 2.75522E-02 1.49939E-13 4.45282E-13
 -1      4230 1.99629E+01 1.26605E-01 7.82425E-04 2.17686E-02-1.09177E-13 9.55120E-14
 -1      4231 1.99905E+01 6.85829E-02-1.90270E-04 1.36980E-02 9.54506E-14 2.70853E-13
 -1      4232 1.99861E+01 8.08466E-02-9.90726E-06 1.79834E-02 2.38941E-13 4.88270E-13
 -1      4233 1.99800E+01 9.30773E-02 4.84077E-04 1.44301E-02 1.61283E-13 9.48054E-14
 -1      4234 1.70739E+01 2.31879E-01 4.03493E-03 2.12084E+00-9.41486E-14 2.19748E-13
 -1      4235 1.62028E+01 5.69217E-01 3.39809E-02 1.91518E+00-1.25817E-13 6.45423E-14
 -1      4236 1.61143E+01 7.95966E-01 3.56715E-03 1.39150E+00-1.29492E-13 5.90692E-14
 -1      4237 1.72130E+01 4.25488E-01-1.96686E-02 1.82062E+00-8.67336E-14 1.72103E-13
 -1      4238 1.90810E+01 1.48542E+00 2.87010E-03-5.67551E-01 1.37246E-14-1.07606E-13
 -1      4239 1.75414E+01 1.34382E+00-1.10646E-02 3.32911E-01-3.20387E-15-1.60040E-13
 -1      4240 1.71353E+01 1.28440E+00-1.08016E-02 3.91937E-01 6.62903E-15-1.65936E-13
 -1      4241 1.77062E+01 1.44354E+00 2.27720E-02 1.65333E-02-2.88268E-15-1.69776E-13
 -1      4242 1.84523E+01 8.87505E-01-6.81528E-03 7.96962E-01-1.65174E-13 9.78731E-14
 -1      4243 1.83234E+01 8.80353E-01 5.16653E-03 9.18962E-01-1.05288E-13 1.81461E-13
 -1      4244 1.79754E+01 9.94940E-01 1.30873E-02 8.17229E-01-1.98547E-14 1.23226E-14
 -1      4245 1.84004E+01 9.77180E-01 8.01217E-03 6.20559E-01-1.36909E-13-8.48022E-14
 -1      4246 1.83998E+01 1.07849E+00-4.62808E-03-2.48063E-01-7.33224E-15-2.33266E-14
 -1      4247 1.85958E+01 1.02660E+00-4.06488E-03-2.24756E-01 5.09107E-14-1.04274E-13
 -1      4248 1.86637E+01 1.02762E+00 1.03325E-02-6.44864E-02-4.05715E-14-1.37533E-13
 -1      4249 1.78347E+01-8.00305E-02 1.48628E-02-2.43253E+00-4.49967E-14-1.84191E-14
 -1      4250 1.90414E+01 6.19888E-01 4.77440E-03-1.46807E+00-9.51555E-15-7.21387E-14
 -1      4251 1.91169E+01 7.75805E-01-3.09387E-03-1.29995E+00-1.94029E-14-8.57533E-14
 -1      4252 1.89343E+01 9.38283E-01 2.59514E-03-1.18071E+00-1.71870E-14-1.00438E-13
 -1      4253 1.86121E+01 7.04802E-01 6.41398E-03-1.48746E+00-1.42142E-14-6.17678E-14
 -1      4254 1.43120E+01 8.13944E-01-1.50216E-02-1.02325E+00-3.53710E-15-2.71307E-13
 -1      4255 1.45338E+01 5.82662E-01 4.51942E-02-1.90763E+00-6.50955E-14-2.48027E-13
 -1      4256 1.51019E+01 9.37180E-01 1.75295E-03-8.72002E-01-2.11671E-14-2.34664E-13
 -1      4257 1.89030E+01 1.16484E+00 9.04720E-04-9.19683E-01 8.44810E-16-1.12304E-13
 -1      4258 1.90339E+01 1.29889E+00 2.39053E-03-7.77181E-01 1.14348E-15-1.16110E-13
 -1      4259 1.87898E+01 1.44418E+00-5.90976E-03-5.68364E-01 3.25407E-15-9.90813E-14
 -1      4260 1.87297E+01 1.05327E+00-4.93242E-03-1.04778E+00-1.45032E-14-1.15315E-13
 -1      4261 1.70578E+01 1.81580E-01 7.68260E-03-2.23835E+00-7.39777E-14-1.90386E-14
 -1      4262 1.73452E+01 3.30195E-01-2.22114E-02-2.01768E+00-6.38513E-14-4.07787E-14
 -1      4263 1.56271E+01 2.94198E-01 2.54569E-02-2.23002E+00-7.01969E-14-1.65973E-13
 -1      4264 1.74220E+01-6.15834E-01 3.41568E-02-3.06769E+00-1.01574E-13-2.34032E-14
 -1      4265 1.99924E+01 6.26444E-02 1.48257E-04-3.71133E-03 1.32123E-13-1.52603E-13
 -1      4266 1.67506E+01 1.27832E+00 2.47932E-02 5.96944E-02-9.20880E-14 9.34879E-14
 -1      4267 1.71844E+01 1.21115E+00-1.26092E-03-2.53588E-01-2.76222E-14-8.16866E-14
 -1      4268 1.99956E+01 5.43056E-02-1.35420E-04 8.81685E-03 1.61036E-13-6.57359E-15
 -1      4269 1.99937E+01 6.19816E-02 7.83174E-05 1.16577E-02 8.98229E-14 1.65168E-13
 -1      4270 1.99899E+01 7.07472E-02 2.88141E-04 9.36105E-03 2.65929E-13 2.07335E-14
 -1      4271 1.99945E+01 5.63440E-02-9.31053E-05 5.98344E-03 1.79508E-13-2.69942E-13
 -1      4272 1.99926E+01 5.97959E-02-1.92746E-04-4.69502E-04 2.95058E-13 3.21827E-14
 -1      4273 1.99928E+01 5.96815E-02-1.12731E-04 3.07189E-03 1.95469E-13-2.03099E-13
 -1      4274 1.99905E+01 6.65196E-02 1.78210E-05 4.38901E-03 2.82138E-13-2.04903E-13
 -1      4275 1.99890E+01 7.20288E-02 2.48130E-04-2.20320E-03 2.96799E-13-1.96001E-13
 -1      4276 1.67913E+01-2.57745E-01-4.86317E-03-2.77713E+00-7.04341E-14-7.89646E-15
 -1      4277 1.74989E+01 1.19909E+00-5.33810E-03-2.27950E-01 7.54887E-14-1.27552E-13
 -1      4278 1.79101E+01 1.15903E+00-1.01365E-02-2.76836E-01 9.45065E-14-1.87053E-13
 -1      4279 1.81676E+01 1.11925E+00-7.16752E-03-2.52622E-01 5.12674E-14-1.14955E-13
 -1      4280 1.82631E+01 1.13786E+00 1.49361E-02-4.94212E-02 8.17559E-14-1.30908E-13
 -1      4281 1.77471E+01 5.39762E-01 2.38432E-03-1.72720E+00-3.24474E-14-6.91468E-14
 -1      4282 1.78911E+01 7.22202E-01-2.05711E-02-1.47790E+00-2.60020E-14-9.24216E-14
 -1      4283 1.71263E+01 8.29594E-01 3.12147E-02-1.50653E+00-7.33597E-14-7.55633E-14
 -1      4284 1.64120E+01 2.40370E-01 1.17732E-02-2.32702E+00-6.21476E-14-9.30987E-14
 -1      4285 1.76730E+01 6.81173E-01-1.62416E-02 1.39417E+00-6.10436E-14 3.27088E-13
 -1      4286 1.75247E+01 5.67124E-01 5.98896E-04 1.59719E+00-7.76432E-14 3.02117E-13
 -1      4287 1.69651E+01 7.34328E-01-2.42510E-03 1.48982E+00-1.62570E-13 8.11486E-14
 -1      4288 1.75243E+01 9.53261E-01 3.08175E-02 1.09867E+00-1.84971E-14 2.19579E-13
 -1      4289 1.68588E+01 1.34361E+00 3.38792E-02-4.36358E-02-6.96838E-15-1.62802E-13
 -1      4290 1.78185E+01 1.07686E+00 3.07471E-02-1.12330E+00-3.54838E-14-1.14975E-13
 -1      4291 1.82151E+01 8.42777E-01-4.11444E-03-1.31789E+00-3.00634E-14-9.42580E-14
 -1      4292 1.84036E+01 9.58028E-01-8.27499E-03-1.16170E+00-3.10379E-14-9.31110E-14
 -1      4293 1.58941E+01 6.63035E-01-5.79846E-03-1.64737E+00-3.66855E-14-1.40429E-13
 -1      4294 1.72695E+01 1.15524E+00-1.53591E-02-6.39965E-01-1.25699E-14-1.42144E-13
 -1      4295 1.67540E+01 1.08461E+00-2.31108E-02-7.28719E-01-3.36996E-14-1.64461E-13
 -1      4296 1.89468E+01 8.73843E-01-6.97565E-03 1.25140E-01-3.89785E-14-3.15378E-13
 -1      4297 1.90921E+01 8.19810E-01-3.56820E-03 1.15616E-01 6.72151E-16-3.54807E-13
 -1      4298 1.66532E+01 1.06943E+00-6.69404E-03 6.72275E-01-1.09436E-13-1.19759E-14
 -1      4299 1.70675E+01 1.03672E+00-2.31329E-02 7.05653E-01-1.80429E-14 1.85130E-14
 -1      4300 1.91990E+01 7.61546E-01-5.45938E-03 8.59377E-02 4.65558E-14-3.81709E-13
 -1      4301 1.93135E+01 7.05668E-01-2.85201E-03 8.11482E-02-2.81256E-14-3.66771E-13
 -1      4302 1.93990E+01 6.48031E-01-4.29182E-03 5.87809E-02-1.17622E-13-2.84453E-13
 -1      4303 1.94888E+01 5.93903E-01-2.26396E-03 5.70406E-02-1.43481E-13-2.35286E-13
 -1      4304 1.95563E+01 5.39763E-01-3.37275E-03 4.00236E-02-7.78349E-14-2.26998E-13
 -1      4305 1.96261E+01 4.89743E-01-1.77719E-03 4.01265E-02 7.37856E-15-1.87050E-13
 -1      4306 1.96787E+01 4.40859E-01-2.63644E-03 2.71048E-02 4.00042E-14-1.06803E-13
 -1      4307 1.97322E+01 3.96288E-01-1.37455E-03 2.82151E-02 8.45606E-14-6.62653E-14
 -1      4308 1.97724E+01 3.53535E-01-2.04220E-03 1.82283E-02 7.03023E-14-8.38223E-14
 -1      4309 1.98129E+01 3.14980E-01-1.04448E-03 1.97923E-02 1.89602E-14-1.95787E-13
 -1      4310 1.98432E+01 2.78578E-01-1.56312E-03 1.21405E-02 1.37812E-14-4.35834E-14
 -1      4311 1.98733E+01 2.46056E-01-7.77730E-04 1.38120E-02-3.03556E-14 5.00844E-14
 -1      4312 1.98956E+01 2.15772E-01-1.17925E-03 7.97228E-03-1.39660E-13 9.52559E-14
 -1      4313 1.99176E+01 1.88936E-01-5.65287E-04 9.55034E-03-1.06106E-13 7.85415E-14
 -1      4314 1.99336E+01 1.64260E-01-8.72760E-04 5.12596E-03-1.40581E-13 3.31540E-14
 -1      4315 1.99493E+01 1.42549E-01-3.94966E-04 6.50230E-03-8.03689E-14-1.72776E-13
 -1      4316 1.99605E+01 1.22835E-01-6.15105E-04 3.20329E-03-1.80282E-14-2.16111E-13
 -1      4317 1.99713E+01 1.05566E-01-2.39065E-04 4.33599E-03 6.74066E-14-3.00484E-13
 -1      4318 1.99872E+01 7.35247E-02-2.00831E-04 6.56537E-03 4.29223E-13-6.92652E-14
 -1      4319 1.88144E+01 9.28596E-01-4.44039E-03 1.65018E-01-4.11838E-14-2.94002E-13
 -1      4320 1.99791E+01 9.03128E-02-2.45522E-04 1.97040E-03 3.06299E-13-2.98606E-13
 -1      4321 1.86304E+01 9.75895E-01-8.90763E-03 1.81630E-01-1.13007E-13-2.03506E-13
 -1      4322 1.84668E+01 1.02120E+00-5.78390E-03 2.37357E-01-8.12099E-14-2.13804E-13
 -1      4323 1.79753E+01 1.31120E+00-6.68982E-03-4.73553E-01-2.46801E-14-1.01605E-13
 -1      4324 1.75891E+01 1.22694E+00-1.93366E-02-5.32936E-01-1.87877E-14-1.31604E-13
 -1      4325 1.63672E+01 9.84180E-01 6.76284E-04-9.18373E-01-5.20003E-14-1.68621E-13
 -1      4326 1.76380E+01 1.23205E+00 2.40420E-02 2.17382E-02 8.24727E-14-3.53036E-14
 -1      4327 1.86981E+01 1.55378E+00 3.98714E-03-3.80577E-01 5.15533E-15-8.71191E-14
 -1      4328 1.86204E+01 1.59136E+00-4.12707E-03-1.88899E-01-1.56132E-14-1.13787E-13
 -1      4329 1.84584E+01 1.52608E+00-1.76582E-03-1.91407E-01-1.94499E-14-1.29770E-13
 -1      4330 1.86206E+01 1.37883E+00 2.70501E-03-6.05205E-01-1.77777E-14-7.51537E-14
 -1      4331 1.82312E+01 1.06961E+00-7.40075E-03 2.66982E-01 1.93007E-14-1.97070E-13
 -1      4332 1.84313E+01 1.20197E+00 5.64118E-03-8.70729E-01-3.11129E-14-1.03408E-13
 -1      4333 1.82309E+01 1.46769E+00-7.66616E-03-1.92598E-01-1.38617E-14-1.20063E-13
 -1      4334 1.73314E+01 1.08201E+00-2.32362E-02 5.63250E-01 1.57457E-14-1.64779E-14
 -1      4335 1.99822E+01 8.59923E-02 1.97301E-04-3.19302E-03 3.20683E-13-4.70769E-13
 -1      4336 1.64305E+01 9.51350E-01 1.65121E-02 1.17208E+00-1.70574E-13 9.68353E-14
 -1      4337 1.77699E+01 1.09212E+00-8.45722E-03 4.32580E-01 6.34545E-14-6.46384E-14
 -1      4338 1.56338E+01 1.04407E+00 1.65274E-03-7.66652E-01-2.81459E-14-2.20698E-13
 -1      4339 1.82839E+01 1.31328E+00 5.31142E-03-6.86065E-01-3.71105E-14-6.84118E-14
 -1      4340 1.80174E+01 1.07916E+00-1.24353E-02 3.36158E-01 3.99124E-14-5.95359E-14
 -3
    1PSTEP                         3           1           1          
  100CL  101 1.000000000        4340                     0    1           1
 -4  TOSTRAIN    6    1
 -5  EXX         1    4    1    1
 -5  EYY         1    4    2    2
 -5  EZZ         1    4    3    3
 -5  EXY         1    4    1    2
 -5  EYZ         1    4    2    3
 -5  EZX         1    4    3    1
 -1         1 3.12610E-04-9.66909E-05-7.94371E-05 2.67696E-07-5.05361E-19 2.48455E-18
 -1         2 3.63666E-05-1.10741E-04 2.00522E-05 8.84001E-07-3.90474E-18-3.90826E-19
 -1         3 9.52380E-05-2.85702E-05-2.85723E-05 1.41881E-09-4.67663E-18-5.39475E-18
 -1         4 9.52380E-05-2.85703E-05-2.85724E-05-1.24225E-09 2.23501E-18-3.12037E-19
 -1         5 1.41961E-04-2.11329E-05-4.24085E-05 3.79127E-05-1.87353E-19 1.32418E-17
 -1         6 1.43701E-04 2.57587E-10-4.40195E-05-5.25106E-05-6.70956E-19 1.37321E-17
 -1         7 9.13354E-05-6.09517E-07-3.92158E-05-2.80863E-05-9.94205E-20 3.66842E-18
 -1         8 8.60691E-05 3.71331E-08-3.66633E-05-1.86438E-05-1.56436E-19 2.82409E-19
 -1         9 8.36246E-05 4.90440E-08-3.56579E-05-1.37324E-05-1.57601E-19-1.68230E-18
 -1        10 8.22239E-05 2.69901E-08-3.50675E-05-1.01187E-05-1.15885E-19-2.69410E-18
 -1        11 8.12554E-05 2.01758E-08-3.46750E-05-7.23043E-06-8.25592E-20-3.25119E-18
 -1        12 8.05701E-05 1.83906E-08-3.44038E-05-4.86971E-06-4.06841E-20-3.51782E-18
 -1        13 8.01071E-05 1.96816E-08-3.42228E-05-2.79784E-06-4.10646E-20-3.61753E-18
 -1        14 7.98802E-05 2.06364E-08-3.41341E-05-9.14790E-07-5.02595E-21-3.67444E-18
 -1        15 7.98920E-05 2.03420E-08-3.41378E-05 9.15492E-07 2.28641E-20-3.67583E-18
 -1        16 8.01385E-05 1.88713E-08-3.42325E-05 2.82559E-06 4.71361E-20-3.62971E-18
 -1        17 8.06114E-05 1.64579E-08-3.44158E-05 4.94758E-06 6.13305E-20-3.49920E-18
 -1        18 8.12927E-05 1.80778E-08-3.46851E-05 7.36922E-06 8.80120E-20-3.19550E-18
 -1        19 8.22462E-05 2.68055E-08-3.50738E-05 1.03302E-05 1.30867E-19-2.62107E-18
 -1        20 8.36271E-05 5.48225E-08-3.56621E-05 1.40141E-05 1.59838E-19-1.57002E-18
 -1        21 8.60068E-05 1.18548E-07-3.66903E-05 1.89123E-05 1.85341E-19 4.25737E-19
 -1        22 9.22126E-05-1.81889E-07-3.88878E-05 2.68969E-05 4.58457E-20 4.43500E-18
 -1        23 1.13148E-04-3.82014E-05-3.54648E-05-4.08371E-06-4.63274E-19 1.12663E-17
 -1        24 9.44382E-05-2.81990E-05-2.94664E-05 4.28448E-07-1.65800E-19 8.94481E-18
 -1        25 9.19920E-05-2.77231E-05-2.77870E-05 3.90147E-07-1.11254E-19 6.79338E-18
 -1        26 9.22328E-05-2.77627E-05-2.76685E-05 2.23256E-07 2.47774E-20 5.36376E-18
 -1        27 9.38908E-05-2.82312E-05-2.81600E-05 1.71676E-07-1.23160E-19 4.15711E-18
 -1        28 9.64733E-05-2.89824E-05-2.89516E-05 1.52223E-07-4.46309E-20 3.63136E-18
 -1        29 9.97901E-05-2.99622E-05-2.99580E-05 1.52998E-07 6.95977E-20 3.35425E-18
 -1        30 1.03734E-04-3.11336E-05-3.11446E-05 1.67442E-07 2.00149E-20 3.56215E-18
 -1        31 1.08168E-04-3.24522E-05-3.24674E-05 1.89207E-07-7.52402E-20 2.48944E-18
 -1        32 1.12824E-04-3.38364E-05-3.38379E-05 2.06651E-07-2.47569E-19 2.09416E-18
 -1        33 1.17179E-04-3.51312E-05-3.50891E-05 1.96912E-07 4.78088E-19 2.26799E-18
 -1        34 1.20351E-04-3.60764E-05-3.59513E-05 1.22001E-07 3.46109E-20 3.53728E-18
 -1        35 1.21095E-04-3.63043E-05-3.60687E-05-6.39123E-08-1.92272E-19 2.12296E-18
 -1        36 1.18106E-04-3.54236E-05-3.51095E-05-3.79499E-07 8.71253E-20 1.76302E-18
 -1        37 1.10792E-04-3.32476E-05-3.29893E-05-7.49080E-07-4.40589E-20 3.20046E-18
 -1        38 1.00378E-04-3.01256E-05-3.01325E-05-9.56282E-07-9.90937E-22 3.05599E-18
 -1        39 9.04112E-05-2.71178E-05-2.75065E-05-7.54752E-07-2.70657E-19 2.02091E-18
 -1        40 8.54234E-05-2.56065E-05-2.62245E-05-1.33512E-07 2.51959E-20 1.59580E-18
 -1        41 8.80452E-05-2.64011E-05-2.69045E-05 5.73397E-07 1.38864E-19 1.03703E-18
 -1        42 9.69855E-05-2.91047E-05-2.92434E-05 9.44748E-07 6.33852E-20 1.24212E-18
 -1        43 1.08042E-04-3.24279E-05-3.22372E-05 8.62084E-07-2.97129E-19 2.40594E-18
 -1        44 1.17062E-04-3.51197E-05-3.48022E-05 5.22714E-07 3.22533E-19 4.05763E-18
 -1        45 1.21993E-04-3.65797E-05-3.63084E-05 1.75047E-07-2.34598E-19 3.56176E-18
 -1        46 1.22904E-04-3.68432E-05-3.66836E-05-5.49721E-08-1.43929E-22 1.82821E-18
 -1        47 1.20970E-04-3.62654E-05-3.62042E-05-1.59425E-07 1.86418E-19 3.10888E-18
 -1        48 1.17522E-04-3.52402E-05-3.52387E-05-1.80216E-07-4.81882E-20 4.12132E-18
 -1        49 1.13582E-04-3.40686E-05-3.40931E-05-1.59903E-07 2.19669E-19 3.57161E-18
 -1        50 1.09776E-04-3.29353E-05-3.29657E-05-1.25973E-07-3.40203E-19 7.34093E-19
 -1        51 1.06417E-04-3.19331E-05-3.19600E-05-9.22623E-08 1.05589E-19 5.80724E-19
 -1        52 1.03614E-04-3.10950E-05-3.11154E-05-6.40837E-08-3.52879E-20 7.02640E-19
 -1        53 1.01363E-04-3.04205E-05-3.04348E-05-4.24823E-08 4.25042E-19-6.17699E-19
 -1        54 9.96070E-05-2.98931E-05-2.99024E-05-2.67645E-08-2.98110E-19-2.47360E-18
 -1        55 9.82689E-05-2.94905E-05-2.94962E-05-1.57419E-08-1.25502E-19-2.16717E-18
 -1        56 9.72709E-05-2.91897E-05-2.91929E-05-8.25089E-09-6.35295E-20-8.76700E-19
 -1        57 9.65422E-05-2.89696E-05-2.89712E-05-3.32356E-09 3.23782E-19 9.42641E-19
 -1        58 9.60222E-05-2.88123E-05-2.88128E-05-2.11754E-10-3.20810E-19-4.17428E-19
 -1        59 9.56610E-05-2.87028E-05-2.87026E-05 1.64136E-09-2.21059E-19-1.74947E-18
 -1        60 9.54186E-05-2.86291E-05-2.86285E-05 2.64155E-09 2.34691E-19-7.34986E-19
 -1        61 9.52633E-05-2.85817E-05-2.85810E-05 3.08055E-09 7.22016E-19-1.11749E-19
 -1        62 9.51709E-05-2.85533E-05-2.85526E-05 3.16587E-09-3.04845E-19-1.71386E-18
 -1        63 9.51228E-05-2.85383E-05-2.85376E-05 3.04337E-09-1.69691E-19-3.48176E-18
 -1        64 9.51053E-05-2.85326E-05-2.85320E-05 2.81401E-09 3.51903E-19-3.98464E-18
 -1        65 9.51081E-05-2.85332E-05-2.85326E-05 2.54590E-09-2.06146E-19-4.92786E-18
 -1        66 9.51238E-05-2.85376E-05-2.85372E-05 2.28244E-09 8.43100E-19-1.87313E-18
 -1        67 9.51469E-05-2.85444E-05-2.85440E-05 2.04608E-09 7.05141E-19 4.42789E-19
 -1        68 9.51734E-05-2.85522E-05-2.85519E-05 1.83557E-09-3.86422E-19 2.81226E-18
 -1        69 9.51998E-05-2.85600E-05-2.85596E-05 1.60062E-09 6.20618E-19 1.07681E-18
 -1        70 9.52221E-05-2.85666E-05-2.85660E-05 1.10327E-09 2.54282E-19 8.89078E-19
 -1        71 9.52360E-05-2.85711E-05-2.85701E-05 2.13374E-10-1.08256E-18-5.72101E-20
 -1        72 1.02493E-04-3.06704E-05-3.42565E-05-2.00245E-06 1.49740E-19 1.21823E-17
 -1        73 9.41899E-05-2.80119E-05-2.93750E-05-3.51890E-07 9.31273E-20 9.26674E-18
 -1        74 9.18911E-05-2.75440E-05-2.78038E-05-1.30846E-07 5.14482E-20 7.42375E-18
 -1        75 9.20623E-05-2.76478E-05-2.76507E-05-9.85644E-08 1.23887E-20 6.33181E-18
 -1        76 9.35341E-05-2.80850E-05-2.80658E-05-8.52984E-08 6.81944E-20 5.28523E-18
 -1        77 9.57946E-05-2.87514E-05-2.87480E-05-8.35458E-08 8.44618E-20 3.88737E-18
 -1        78 9.85864E-05-2.95795E-05-2.95872E-05-9.15249E-08-8.06501E-23 3.66644E-18
 -1        79 1.01714E-04-3.05101E-05-3.05192E-05-1.07468E-07 1.91313E-20 2.89257E-18
 -1        80 1.04945E-04-3.14733E-05-3.14718E-05-1.28283E-07-1.06964E-19 2.45624E-18
 -1        81 1.07942E-04-3.23688E-05-3.23401E-05-1.46806E-07 1.71661E-19 1.34644E-18
 -1        82 1.10213E-04-3.30522E-05-3.29753E-05-1.48914E-07 7.21980E-20 9.47992E-19
 -1        83 1.11117E-04-3.33342E-05-3.31910E-05-1.12650E-07-5.71201E-20 1.15912E-18
 -1        84 1.09972E-04-3.30105E-05-3.28026E-05-1.40899E-08 7.36530E-20 1.66045E-18
 -1        85 1.06324E-04-3.19391E-05-3.17094E-05 1.54320E-07 3.43772E-19-3.41275E-19
 -1        86 1.00367E-04-3.01632E-05-3.00052E-05 3.56548E-07-7.32899E-20-2.03534E-18
 -1        87 9.33015E-05-2.80270E-05-2.80509E-05 5.01094E-07-1.64453E-19-1.02279E-18
 -1        88 8.72502E-05-2.61679E-05-2.64218E-05 4.80847E-07-1.50204E-19 1.08989E-19
 -1        89 8.44634E-05-2.52860E-05-2.56897E-05 2.60773E-07 1.24431E-19-1.58971E-19
 -1        90 8.61161E-05-2.57638E-05-2.61429E-05-6.76778E-08-6.09219E-20-2.15549E-18
 -1        91 9.15933E-05-2.74250E-05-2.76251E-05-3.44918E-07 2.05331E-20-2.49438E-18
 -1        92 9.88776E-05-2.96460E-05-2.96271E-05-4.61040E-07-5.30808E-19-2.09244E-18
 -1        93 1.05699E-04-3.17217E-05-3.15525E-05-4.16663E-07 2.81443E-19-1.42511E-18
 -1        94 1.10532E-04-3.31842E-05-3.29683E-05-2.84863E-07 4.34611E-19-4.68197E-18
 -1        95 1.12902E-04-3.38936E-05-3.37079E-05-1.42094E-07-2.91441E-19-3.14220E-18
 -1        96 1.13114E-04-3.39498E-05-3.38254E-05-3.16526E-08-6.66331E-20 1.57498E-19
 -1        97 1.11821E-04-3.35544E-05-3.34899E-05 3.60363E-08 2.32867E-19-5.79791E-19
 -1        98 1.09692E-04-3.29106E-05-3.28900E-05 6.81449E-08-3.84488E-19-2.35544E-18
 -1        99 1.07252E-04-3.21762E-05-3.21821E-05 7.66319E-08-1.34517E-19-2.94201E-18
 -1       100 1.04850E-04-3.14548E-05-3.14735E-05 7.19725E-08-1.41823E-19-3.21212E-18
 -1       101 1.02681E-04-3.08040E-05-3.08270E-05 6.14049E-08 1.24843E-19-3.83009E-18
 -1       102 1.00831E-04-3.02494E-05-3.02719E-05 4.92349E-08 2.54438E-19-4.50141E-18
 -1       103 9.93188E-05-2.97960E-05-2.98157E-05 3.77005E-08-4.23281E-19-1.15424E-18
 -1       104 9.81228E-05-2.94374E-05-2.94537E-05 2.77711E-08 3.70676E-19-6.85429E-19
 -1       105 9.72041E-05-2.91620E-05-2.91748E-05 1.97139E-08-8.53164E-21-1.78714E-18
 -1       106 9.65174E-05-2.89560E-05-2.89658E-05 1.34457E-08-6.28854E-19-2.60787E-18
 -1       107 9.60181E-05-2.88062E-05-2.88134E-05 8.73240E-09-9.69164E-20-4.86652E-18
 -1       108 9.56659E-05-2.87005E-05-2.87057E-05 5.29557E-09-2.48961E-20-6.27901E-18
 -1       109 9.54263E-05-2.86286E-05-2.86322E-05 2.86553E-09 4.29824E-19-4.43432E-18
 -1       110 9.52712E-05-2.85819E-05-2.85843E-05 1.20409E-09-3.06052E-19-6.49593E-18
 -1       111 9.51777E-05-2.85538E-05-2.85553E-05 1.11810E-10-4.13337E-19-3.50456E-18
 -1       112 9.51283E-05-2.85389E-05-2.85398E-05-5.72639E-10 1.44326E-19-1.33155E-18
 -1       113 9.51095E-05-2.85331E-05-2.85337E-05-9.76539E-10 1.11349E-18-3.17089E-18
 -1       114 9.51113E-05-2.85336E-05-2.85339E-05-1.19844E-09-5.50407E-19-3.66474E-18
 -1       115 9.51262E-05-2.85380E-05-2.85381E-05-1.31398E-09-2.90292E-19-2.36067E-18
 -1       116 9.51488E-05-2.85447E-05-2.85447E-05-1.38008E-09 6.08700E-19-5.02957E-18
 -1       117 9.51749E-05-2.85525E-05-2.85523E-05-1.43342E-09-1.29754E-19-7.39316E-18
 -1       118 9.52009E-05-2.85603E-05-2.85599E-05-1.47607E-09-2.91111E-19-7.36224E-18
 -1       119 9.52229E-05-2.85669E-05-2.85662E-05-1.37896E-09-1.12969E-19-7.14828E-18
 -1       120 9.52359E-05-2.85712E-05-2.85702E-05-5.45777E-10 2.27231E-18-8.64795E-18
 -1       121 9.52377E-05-2.85731E-05-2.85702E-05-3.53132E-10-7.36043E-18 1.72781E-18
 -1       122 9.52416E-05-2.85858E-05-2.85663E-05-1.12205E-09 1.68197E-18 1.33798E-18
 -1       123 9.52475E-05-2.86054E-05-2.85608E-05-1.28832E-09 3.58064E-18-4.79092E-19
 -1       124 9.52536E-05-2.86261E-05-2.85548E-05-1.12183E-09 1.86516E-18 1.04612E-18
 -1       125 9.52591E-05-2.86445E-05-2.85494E-05-8.49281E-10 1.31009E-18-4.35429E-19
 -1       126 9.52634E-05-2.86588E-05-2.85452E-05-5.86526E-10 1.02492E-18 5.39585E-19
 -1       127 9.52663E-05-2.86686E-05-2.85422E-05-3.37151E-10-1.05508E-18-4.63270E-19
 -1       128 9.52678E-05-2.86736E-05-2.85407E-05-1.12694E-10-3.77194E-18-4.03027E-19
 -1       129 9.52678E-05-2.86737E-05-2.85407E-05 1.03026E-10-4.45686E-18-6.54160E-19
 -1       130 9.52664E-05-2.86689E-05-2.85421E-05 3.30328E-10-7.35746E-18 2.24170E-19
 -1       131 9.52635E-05-2.86591E-05-2.85451E-05 5.94548E-10-1.34849E-17-8.78243E-19
 -1       132 9.52592E-05-2.86448E-05-2.85493E-05 8.59155E-10-8.90828E-18 3.76257E-18
 -1       133 9.52537E-05-2.86262E-05-2.85548E-05 1.13572E-09-6.49450E-18-1.61078E-19
 -1       134 9.52475E-05-2.86053E-05-2.85608E-05 1.37376E-09-8.60995E-18-7.02358E-19
 -1       135 9.52417E-05-2.85860E-05-2.85663E-05 1.57461E-09-8.02023E-19 1.65866E-18
 -1       136 9.52380E-05-2.85736E-05-2.85702E-05 1.06288E-10 1.35527E-19 7.16136E-19
 -1       137 2.60342E-05-8.86833E-05 1.60622E-05-2.32213E-05 4.29128E-18 1.79505E-18
 -1       138 8.17136E-06-3.28674E-05 2.83132E-06-1.55748E-05 8.73376E-18 3.59904E-18
 -1       139 1.25855E-05 1.65415E-05-1.58949E-05 2.59800E-05 1.22621E-17 9.51472E-18
 -1       140 6.31907E-05 2.54275E-05-3.62883E-05 8.03604E-05 1.19436E-17 1.44766E-17
 -1       141 1.57300E-04-8.64498E-06-5.69272E-05 1.12828E-04 8.32125E-18 1.62609E-17
 -1       142 2.51552E-04-6.07615E-05-7.12606E-05 9.18956E-05 4.07979E-18 1.10999E-17
 -1       143 3.03957E-04-9.26682E-05-7.82398E-05 2.29663E-05 5.03640E-19 3.05938E-18
 -1       144 2.88099E-04-8.25865E-05-7.62659E-05-5.63339E-05 1.53752E-18-6.76589E-18
 -1       145 2.13407E-04-3.84333E-05-6.58124E-05-1.07769E-04 5.88783E-18-1.46482E-17
 -1       146 1.19859E-04 8.69134E-06-5.00007E-05-1.07453E-04 1.08772E-17-1.67217E-17
 -1       147 4.00661E-05 2.82070E-05-2.92589E-05-6.30432E-05 1.34399E-17-1.36809E-17
 -1       148 6.45400E-06 4.79716E-06-9.65572E-06-9.31332E-06 1.63100E-17-1.06006E-17
 -1       149 1.18408E-05-4.90874E-05 7.08809E-06 2.31542E-05 1.43754E-17-5.61773E-18
 -1       150 3.09097E-05-9.91444E-05 1.78486E-05 1.94606E-05 7.13858E-18-1.12686E-18
 -1       151 3.55066E-05-1.10161E-04 2.01278E-05-8.87444E-06-4.67525E-18-1.02308E-18
 -1       152 2.07793E-05-7.54887E-05 1.31229E-05-2.52227E-05-1.32806E-17-3.75029E-18
 -1       153 5.07070E-06-1.86192E-05-1.25310E-06-1.08618E-05-1.66624E-17-8.73651E-18
 -1       154 2.10501E-05 2.19963E-05-2.07930E-05 3.92131E-05-1.66743E-17-1.48743E-17
 -1       155 9.09248E-05 1.85849E-05-4.36322E-05 9.59719E-05-1.31553E-17-1.76619E-17
 -1       156 1.90543E-04-2.51079E-05-6.25533E-05 1.13609E-04-7.21227E-18-1.62020E-17
 -1       157 2.78139E-04-7.53722E-05-7.50215E-05 7.58067E-05-2.12020E-18-7.51763E-18
 -1       158 2.79721E-04-7.66852E-05-7.52021E-05-7.29678E-05-2.01774E-18 1.01333E-17
 -1       159 2.00835E-04-3.12017E-05-6.40374E-05-1.11066E-04-5.03815E-18 1.24895E-17
 -1       160 1.09172E-04 1.21078E-05-4.76729E-05-1.03297E-04-6.97913E-18 1.11965E-17
 -1       161 3.82267E-05 2.71329E-05-2.85590E-05-6.02011E-05-1.14701E-17 1.11885E-17
 -1       162 7.10875E-06 4.85966E-06-1.01413E-05-9.99436E-06-1.42789E-17 9.60069E-18
 -1       163 9.84221E-06-4.25915E-05 5.39743E-06 2.17145E-05-1.19063E-17 5.72933E-18
 -1       164 2.67266E-05-9.00006E-05 1.61016E-05 2.30434E-05-7.89202E-18 1.13674E-18
 -1       165 9.61725E-05-1.29021E-05-3.58772E-05-2.06674E-05-1.76581E-18 1.77030E-18
 -1       166 9.04065E-05-8.77005E-06-3.51407E-05-1.54704E-05-1.77211E-18-3.93884E-19
 -1       167 8.72138E-05-6.50836E-06-3.46937E-05-1.15860E-05-1.49733E-18-1.73104E-18
 -1       168 8.51883E-05-5.17418E-06-3.43700E-05-8.46714E-06-1.18516E-18-2.46165E-18
 -1       169 8.37932E-05-4.30364E-06-3.41300E-05-5.94212E-06-8.78398E-19-2.80001E-18
 -1       170 8.28187E-05-3.72159E-06-3.39533E-05-3.76035E-06-5.95735E-19-2.96636E-18
 -1       171 8.22507E-05-3.39442E-06-3.38457E-05-1.82719E-06-2.17324E-19-3.01865E-18
 -1       172 8.20813E-05-3.30313E-06-3.38110E-05-8.42374E-09 6.83242E-20-3.07361E-18
 -1       173 8.23050E-05-3.43966E-06-3.38500E-05 1.82494E-06 4.06115E-19-3.03653E-18
 -1       174 8.29142E-05-3.80438E-06-3.39594E-05 3.79874E-06 6.69193E-19-2.98244E-18
 -1       175 8.38883E-05-4.39937E-06-3.41308E-05 5.99799E-06 9.81092E-19-2.75354E-18
 -1       176 8.53035E-05-5.29741E-06-3.43688E-05 8.63068E-06 1.35512E-18-2.34674E-18
 -1       177 8.73214E-05-6.64574E-06-3.46867E-05 1.18269E-05 1.71375E-18-1.60562E-18
 -1       178 9.05289E-05-8.92664E-06-3.51313E-05 1.57751E-05 1.97750E-18-2.70574E-19
 -1       179 9.70011E-05-1.41161E-05-3.57222E-05 2.03206E-05 1.83657E-18 2.08984E-18
 -1       180 1.06517E-04-2.65133E-05-3.54584E-05 1.75054E-05 1.34762E-18 5.25235E-18
 -1       181 1.04742E-04-2.77876E-05-3.29752E-05-1.08730E-05-1.49612E-18 4.09855E-18
 -1       182 9.92788E-05-2.89366E-05-3.01769E-05-3.46781E-06-1.27733E-18 3.35428E-18
 -1       183 9.66810E-05-2.85313E-05-2.91550E-05-3.64304E-07-9.43211E-19 2.63787E-18
 -1       184 9.63439E-05-2.86209E-05-2.89850E-05 1.28058E-06-8.00564E-19 1.97354E-18
 -1       185 9.72344E-05-2.89557E-05-2.92399E-05 2.36161E-06-4.77672E-19 1.58696E-18
 -1       186 9.89854E-05-2.95122E-05-2.97617E-05 3.19098E-06-2.75382E-19 1.46141E-18
 -1       187 1.01383E-04-3.02579E-05-3.04754E-05 3.86902E-06 6.46442E-21 1.11571E-18
 -1       188 1.04270E-04-3.11707E-05-3.13269E-05 4.38291E-06-2.48388E-19 1.38840E-18
 -1       189 1.07474E-04-3.22272E-05-3.22529E-05 4.61850E-06-1.80859E-19 1.95951E-18
 -1       190 1.10736E-04-3.33837E-05-3.31618E-05 4.35250E-06 1.69248E-19 2.08057E-18
 -1       191 1.13656E-04-3.45443E-05-3.39214E-05 3.26646E-06 2.29811E-19 1.19883E-18
 -1       192 1.15656E-04-3.55139E-05-3.43647E-05 1.04449E-06-2.29304E-19 1.00236E-18
 -1       193 1.16024E-04-3.59487E-05-3.43312E-05-2.36941E-06-1.31131E-19 2.36905E-18
 -1       194 1.14132E-04-3.53826E-05-3.37536E-05-6.34756E-06 2.80414E-19 2.16252E-18
 -1       195 1.09911E-04-3.34854E-05-3.27503E-05-9.26659E-06-2.41591E-19 2.10329E-18
 -1       196 1.04486E-04-3.06220E-05-3.16562E-05-8.98554E-06-5.10784E-19 1.96048E-18
 -1       197 1.00253E-04-2.81806E-05-3.09036E-05-4.51953E-06-6.13622E-19 1.68335E-18
 -1       198 9.95881E-05-2.77505E-05-3.08048E-05 2.40930E-06-2.71355E-19 3.78556E-19
 -1       199 1.02970E-04-2.96840E-05-3.14127E-05 8.12143E-06-4.07694E-19-4.14887E-19
 -1       200 1.08512E-04-3.26659E-05-3.24980E-05 9.93500E-06 8.57553E-19-1.38618E-18
 -1       201 1.13610E-04-3.50694E-05-3.36556E-05 7.96673E-06 9.33348E-19-4.15357E-19
 -1       202 1.16655E-04-3.61776E-05-3.44984E-05 4.18843E-06-2.84841E-19-6.66873E-20
 -1       203 1.17354E-04-3.61387E-05-3.48233E-05 5.10668E-07-2.41461E-19 8.87480E-19
 -1       204 1.16203E-04-3.54147E-05-3.46409E-05-2.09173E-06 6.17088E-19 1.32651E-18
 -1       205 1.13921E-04-3.44076E-05-3.40903E-05-3.48533E-06 3.69792E-19 1.22468E-18
 -1       206 1.11139E-04-3.33603E-05-3.33406E-05-3.94342E-06-7.99997E-19 1.41415E-18
 -1       207 1.08296E-04-3.23929E-05-3.25317E-05-3.81707E-06-1.36630E-18 4.80294E-20
 -1       208 1.05657E-04-3.15534E-05-3.17568E-05-3.39105E-06-1.38061E-19 3.69621E-19
 -1       209 1.03350E-04-3.08526E-05-3.10663E-05-2.85359E-06-1.24296E-19 2.43899E-19
 -1       210 1.01416E-04-3.02835E-05-3.04805E-05-2.31259E-06-5.55592E-19 3.27586E-20
 -1       211 9.98444E-05-2.98313E-05-3.00008E-05-1.82164E-06-1.11602E-18-3.51896E-19
 -1       212 9.85993E-05-2.94790E-05-2.96186E-05-1.40179E-06 1.41921E-19-1.05486E-18
 -1       213 9.76338E-05-2.92093E-05-2.93210E-05-1.05634E-06 1.30288E-18-4.87463E-19
 -1       214 9.68999E-05-2.90067E-05-2.90940E-05-7.79875E-07 5.81845E-19 3.75963E-19
 -1       215 9.63529E-05-2.88572E-05-2.89242E-05-5.63411E-07-1.40581E-18-1.16341E-18
 -1       216 9.59536E-05-2.87494E-05-2.87998E-05-3.97073E-07-4.10285E-19-1.16321E-18
 -1       217 9.56689E-05-2.86734E-05-2.87108E-05-2.71461E-07 4.09214E-19-1.77517E-18
 -1       218 9.54715E-05-2.86216E-05-2.86488E-05-1.78228E-07 4.35560E-19-1.48168E-18
 -1       219 9.53397E-05-2.85877E-05-2.86071E-05-1.10267E-07-1.22689E-18-1.78143E-18
 -1       220 9.52561E-05-2.85669E-05-2.85804E-05-6.17055E-08-9.90414E-19-1.72591E-18
 -1       221 9.52073E-05-2.85555E-05-2.85646E-05-2.78014E-08 3.89215E-19-2.41012E-18
 -1       222 9.51832E-05-2.85506E-05-2.85565E-05-4.81805E-09 7.12658E-19-1.67039E-18
 -1       223 9.51759E-05-2.85501E-05-2.85537E-05 1.01066E-08 1.64006E-18 8.93718E-19
 -1       224 9.51796E-05-2.85524E-05-2.85544E-05 1.90682E-08 2.29628E-18 5.83615E-19
 -1       225 9.51899E-05-2.85565E-05-2.85571E-05 2.34706E-08 1.12535E-18 1.25440E-18
 -1       226 9.52034E-05-2.85615E-05-2.85608E-05 2.40592E-08-6.02160E-19 1.59128E-18
 -1       227 9.52171E-05-2.85667E-05-2.85645E-05 2.09095E-08-3.01557E-19 1.29259E-18
 -1       228 9.52291E-05-2.85718E-05-2.85674E-05 1.37542E-08-8.48267E-19 1.11543E-18
 -1       229 1.01102E-04-2.90638E-05-3.10463E-05 6.18759E-06 1.38718E-18 4.46353E-18
 -1       230 9.69166E-05-2.85294E-05-2.92762E-05 1.72309E-06 8.54531E-19 3.56744E-18
 -1       231 9.56166E-05-2.84187E-05-2.87531E-05-2.15659E-07 5.99024E-19 2.76995E-18
 -1       232 9.58599E-05-2.85967E-05-2.87999E-05-1.28696E-06 7.22493E-19 2.18095E-18
 -1       233 9.70520E-05-2.90031E-05-2.91505E-05-1.97042E-06 5.56587E-19 1.69322E-18
 -1       234 9.88607E-05-2.95811E-05-2.96856E-05-2.42655E-06 9.78071E-20 1.28806E-18
 -1       235 1.01054E-04-3.02796E-05-3.03305E-05-2.68885E-06 4.07784E-19 1.06979E-18
 -1       236 1.03414E-04-3.10466E-05-3.10159E-05-2.71661E-06 3.70093E-19 6.84628E-19
 -1       237 1.05680E-04-3.18150E-05-3.16590E-05-2.41561E-06 6.76024E-19 5.23589E-20
 -1       238 1.07515E-04-3.24876E-05-3.21564E-05-1.66274E-06-2.93323E-19 3.69011E-19
 -1       239 1.08507E-04-3.29268E-05-3.23898E-05-3.59832E-07-1.20385E-19 8.46032E-19
 -1       240 1.08224E-04-3.29576E-05-3.22501E-05 1.46558E-06 2.55103E-19 1.44856E-19
 -1       241 1.06365E-04-3.24075E-05-3.16856E-05 3.52422E-06 1.24947E-18-1.31710E-19
 -1       242 1.02998E-04-3.12078E-05-3.07589E-05 5.18117E-06 1.59901E-19-3.85982E-19
 -1       243 9.87858E-05-2.95400E-05-2.96794E-05 5.58819E-06-3.35878E-19 7.60874E-20
 -1       244 9.49995E-05-2.79200E-05-2.87655E-05 4.14120E-06-1.50752E-19-4.59267E-19
 -1       245 9.30857E-05-2.70393E-05-2.83294E-05 1.05625E-06 2.14723E-19-5.41134E-19
 -1       246 9.38921E-05-2.73424E-05-2.85376E-05-2.50945E-06 5.18652E-19-5.68356E-19
 -1       247 9.71308E-05-2.86997E-05-2.93274E-05-5.10356E-06 2.10898E-20-1.65257E-19
 -1       248 1.01566E-04-3.05042E-05-3.04417E-05-5.88154E-06-7.85517E-19 6.88876E-21
 -1       249 1.05757E-04-3.20971E-05-3.15525E-05-4.97607E-06 3.73719E-19-3.32758E-20
 -1       250 1.08715E-04-3.31029E-05-3.23949E-05-3.14206E-06 1.14095E-18-6.28705E-19
 -1       251 1.10104E-04-3.34703E-05-3.28410E-05-1.17934E-06-7.16593E-19-1.67201E-18
 -1       252 1.10083E-04-3.33373E-05-3.28949E-05 4.07540E-07-7.86811E-19-2.16035E-18
 -1       253 1.09043E-04-3.28911E-05-3.26427E-05 1.44490E-06 4.85271E-19-1.51383E-18
 -1       254 1.07405E-04-3.22927E-05-3.21969E-05 1.97320E-06 2.36182E-19-5.31191E-19
 -1       255 1.05519E-04-3.16549E-05-3.16599E-05 2.12127E-06 2.03876E-19-2.96763E-19
 -1       256 1.03628E-04-3.10467E-05-3.11085E-05 2.02679E-06-1.31037E-19-9.88680E-19
 -1       257 1.01884E-04-3.05046E-05-3.05918E-05 1.80132E-06 4.54165E-19-1.42995E-18
 -1       258 1.00362E-04-3.00432E-05-3.01362E-05 1.52263E-06-2.95121E-19-2.54703E-18
 -1       259 9.90880E-05-2.96642E-05-2.97518E-05 1.23909E-06-2.01711E-18-1.19722E-18
 -1       260 9.80553E-05-2.93616E-05-2.94386E-05 9.77447E-07 3.50578E-19-3.23171E-19
 -1       261 9.72416E-05-2.91262E-05-2.91907E-05 7.50144E-07 7.85240E-19-2.22849E-19
 -1       262 9.66165E-05-2.89473E-05-2.89996E-05 5.60822E-07-2.31450E-19-3.18069E-20
 -1       263 9.61481E-05-2.88147E-05-2.88558E-05 4.08154E-07 1.10308E-18-7.08864E-19
 -1       264 9.58060E-05-2.87189E-05-2.87505E-05 2.88303E-07-3.06019E-19-9.40745E-19
 -1       265 9.55633E-05-2.86518E-05-2.86754E-05 1.96429E-07-7.93404E-20-1.83307E-18
 -1       266 9.53970E-05-2.86064E-05-2.86238E-05 1.27568E-07 3.09653E-19-1.79345E-19
 -1       267 9.52882E-05-2.85774E-05-2.85898E-05 7.71047E-08-1.07469E-18-4.68592E-19
 -1       268 9.52216E-05-2.85601E-05-2.85688E-05 4.09949E-08-1.01973E-19-1.96380E-18
 -1       269 9.51856E-05-2.85513E-05-2.85572E-05 1.58496E-08 6.07753E-19-1.77890E-18
 -1       270 9.51708E-05-2.85484E-05-2.85522E-05-1.06417E-09-1.07077E-18-2.06028E-19
 -1       271 9.51703E-05-2.85494E-05-2.85517E-05-1.18602E-08 1.55433E-18-3.45217E-19
 -1       272 9.51790E-05-2.85528E-05-2.85540E-05-1.80751E-08 1.34245E-18-2.21780E-18
 -1       273 9.51926E-05-2.85576E-05-2.85578E-05-2.06846E-08 8.31943E-19-2.20036E-18
 -1       274 9.52079E-05-2.85629E-05-2.85621E-05-2.00943E-08 1.79052E-21-3.41823E-18
 -1       275 9.52220E-05-2.85681E-05-2.85659E-05-1.61206E-08 4.91399E-19-3.32607E-18
 -1       276 9.52328E-05-2.85724E-05-2.85687E-05-8.46628E-09 2.66422E-19-2.03880E-18
 -1       277 9.52371E-05-2.85798E-05-2.85674E-05-1.34519E-08-5.67649E-19 6.12863E-18
 -1       278 9.52422E-05-2.85911E-05-2.85648E-05-1.89138E-08-6.17841E-19 2.19456E-19
 -1       279 9.52472E-05-2.86037E-05-2.85615E-05-1.98753E-08-3.69979E-19 2.89532E-19
 -1       280 9.52514E-05-2.86156E-05-2.85582E-05-1.77639E-08 6.66845E-19 1.54000E-18
 -1       281 9.52547E-05-2.86255E-05-2.85553E-05-1.40497E-08 8.37403E-19-1.62713E-18
 -1       282 9.52570E-05-2.86330E-05-2.85531E-05-9.55827E-09-6.22044E-19-2.72206E-18
 -1       283 9.52584E-05-2.86375E-05-2.85517E-05-4.84315E-09-1.32739E-18-1.91619E-18
 -1       284 9.52589E-05-2.86391E-05-2.85513E-05-8.73775E-11-1.66010E-18 5.38175E-19
 -1       285 9.52584E-05-2.86377E-05-2.85517E-05 4.69602E-09-2.23114E-18-2.05198E-18
 -1       286 9.52571E-05-2.86332E-05-2.85531E-05 9.48885E-09-3.37464E-18-3.32471E-18
 -1       287 9.52548E-05-2.86259E-05-2.85552E-05 1.40151E-08-2.07958E-18 3.35854E-18
 -1       288 9.52515E-05-2.86158E-05-2.85581E-05 1.78849E-08-2.20706E-18 6.55975E-19
 -1       289 9.52473E-05-2.86038E-05-2.85615E-05 2.00635E-08-1.77318E-18 4.99123E-19
 -1       290 9.52420E-05-2.85910E-05-2.85647E-05 1.87104E-08-1.84536E-18 4.48647E-18
 -1       291 9.52364E-05-2.85808E-05-2.85667E-05 1.89916E-08-2.64337E-18 2.25697E-18
 -1       292 1.24504E-05-4.84954E-05 1.20685E-05 7.13152E-06 7.40095E-20 4.07021E-18
 -1       293 2.86679E-05-4.00856E-05 3.10122E-06 2.77254E-05 7.66988E-19 2.28747E-18
 -1       294 5.51845E-05-3.65513E-05-9.55274E-06 3.59918E-05 2.08264E-18 4.81586E-18
 -1       295 9.13858E-05-3.02857E-05-2.64785E-05 4.49703E-05 3.55754E-18 5.60249E-18
 -1       296 1.39938E-04-3.59036E-05-4.37553E-05 3.78627E-05 2.78081E-18 2.68912E-18
 -1       297 1.77723E-04-3.24609E-05-5.96945E-05 3.72493E-05 4.31903E-18 3.16197E-18
 -1       298 2.04175E-04-3.53040E-05-6.89801E-05 1.90197E-05 4.17174E-18 2.31960E-18
 -1       299 1.94293E-04-2.74533E-05-6.91544E-05-3.31655E-06 6.00578E-18-5.40460E-19
 -1       300 1.92241E-04-3.30733E-05-6.53213E-05-2.64578E-05 5.67025E-18-4.17863E-18
 -1       301 1.62636E-04-3.11139E-05-5.42357E-05-4.31302E-05 5.96420E-18-6.65090E-18
 -1       302 1.23504E-04-3.30226E-05-3.81395E-05-4.42870E-05 5.18628E-18-7.29253E-18
 -1       303 7.77026E-05-3.11889E-05-2.06843E-05-4.25966E-05 6.51220E-18-5.51905E-18
 -1       304 4.37753E-05-3.77871E-05-4.71560E-06-3.06821E-05 5.77613E-18-5.25356E-18
 -1       305 2.15576E-05-4.46476E-05 6.98356E-06-1.86683E-05 3.31444E-18-5.24769E-18
 -1       306 1.15705E-05-5.00096E-05 1.29529E-05-3.75382E-06 4.92603E-20-5.42027E-18
 -1       307 1.47546E-05-4.09581E-05 9.03957E-06 1.43988E-05-1.83086E-18-5.09871E-18
 -1       308 3.23238E-05-4.21840E-05 1.51655E-06 2.37582E-05-5.84072E-18-4.90580E-18
 -1       309 6.26437E-05-3.49416E-05-1.33407E-05 3.74286E-05-6.78368E-18-6.91242E-18
 -1       310 1.12048E-04-3.76799E-05-3.18026E-05 4.25821E-05-5.98259E-18-5.59486E-18
 -1       311 1.53425E-04-3.33083E-05-4.99015E-05 4.14598E-05-5.74468E-18-5.73632E-18
 -1       312 1.90715E-04-3.48310E-05-6.37731E-05 3.25261E-05-6.28255E-18-3.62742E-18
 -1       313 2.07917E-04-3.47645E-05-7.06896E-05 1.11215E-05-4.89850E-18-6.91391E-19
 -1       314 2.07987E-04-3.50187E-05-7.06753E-05-9.77499E-06-3.86374E-18 1.37119E-18
 -1       315 1.92675E-04-3.52718E-05-6.43696E-05-3.05068E-05-2.39589E-18 3.54737E-18
 -1       316 1.59360E-04-3.25223E-05-5.24085E-05-4.25556E-05-2.64629E-18 4.41855E-18
 -1       317 1.18879E-04-3.12044E-05-3.70189E-05-4.61381E-05-4.14114E-18 3.63674E-18
 -1       318 7.91261E-05-3.30205E-05-2.06554E-05-4.11206E-05-4.47403E-18 3.03873E-18
 -1       319 4.69021E-05-3.79496E-05-5.89377E-06-3.09565E-05-4.42490E-18 3.58025E-18
 -1       320 2.46913E-05-4.32342E-05 5.22548E-06-2.02814E-05-3.48236E-18 4.64936E-18
 -1       321 1.15725E-05-4.44275E-05 1.12105E-05-7.02251E-06-1.93235E-18 2.16078E-18
 -1       322 9.26048E-05-1.45016E-05-3.35496E-05-1.07157E-05-1.79672E-18-6.11710E-19
 -1       323 9.72142E-05-1.95679E-05-3.33353E-05-1.26045E-05-1.92609E-18 7.56096E-19
 -1       324 8.73092E-05-9.36377E-06-3.34562E-05-6.14673E-06-1.26520E-18-1.95141E-18
 -1       325 8.57168E-05-7.98018E-06-3.33580E-05-4.16060E-06-9.07421E-19-2.19149E-18
 -1       326 8.46895E-05-7.12582E-06-3.32790E-05-2.41154E-06-4.15428E-19-2.20762E-18
 -1       327 8.42052E-05-6.73691E-06-3.32359E-05-8.06751E-07-4.17274E-20-2.31828E-18
 -1       328 8.42548E-05-6.78565E-06-3.32365E-05 7.63037E-07 2.59308E-19-2.26642E-18
 -1       329 8.48276E-05-7.26405E-06-3.32794E-05 2.40652E-06 6.52622E-19-2.24305E-18
 -1       330 8.58917E-05-8.16643E-06-3.33538E-05 4.19054E-06 1.03826E-18-2.20320E-18
 -1       331 8.75004E-05-9.58375E-06-3.34444E-05 6.24913E-06 1.49161E-18-1.79600E-18
 -1       332 8.97394E-05-1.16763E-05-3.35202E-05 8.56997E-06 1.80052E-18-1.36284E-18
 -1       333 9.29001E-05-1.48465E-05-3.35302E-05 1.09951E-05 2.09451E-18-5.43021E-19
 -1       334 9.72612E-05-1.99123E-05-3.32535E-05 1.24670E-05 2.15180E-18 9.39810E-19
 -1       335 1.00378E-04-2.49771E-05-3.23965E-05 1.03274E-05 1.89447E-18 2.24403E-18
 -1       336 9.85764E-05-2.74154E-05-3.04654E-05 4.06280E-06 1.36768E-18 1.67862E-18
 -1       337 9.86060E-05-2.64901E-05-3.08593E-05-4.08788E-06-1.43971E-18 9.37468E-19
 -1       338 9.77999E-05-2.75626E-05-3.00733E-05-1.37303E-07-1.18395E-18 7.86892E-19
 -1       339 9.77191E-05-2.81066E-05-2.98157E-05 2.39500E-06-9.23254E-19 6.62521E-19
 -1       340 9.83130E-05-2.85627E-05-2.98819E-05 4.22299E-06-6.06032E-19 2.16172E-19
 -1       341 9.94797E-05-2.90839E-05-3.01627E-05 5.64907E-06-2.59063E-19-2.25940E-20
 -1       342 1.01133E-04-2.97576E-05-3.05858E-05 6.77161E-06 7.78513E-20 7.40418E-20
 -1       343 1.03217E-04-3.06706E-05-3.10917E-05 7.53288E-06 3.17672E-19 2.32574E-19
 -1       344 1.05694E-04-3.19252E-05-3.16211E-05 7.72250E-06-2.20239E-20 6.03454E-19
 -1       345 1.08516E-04-3.36124E-05-3.21153E-05 6.97516E-06-3.92601E-19 5.84284E-19
 -1       346 1.11559E-04-3.57131E-05-3.25278E-05 4.81828E-06 1.95843E-20 4.98337E-19
 -1       347 1.14484E-04-3.78952E-05-3.28523E-05 8.62923E-07 3.32010E-19 7.38305E-19
 -1       348 1.16559E-04-3.92578E-05-3.31556E-05-4.75089E-06 2.28634E-19 1.42915E-18
 -1       349 1.16648E-04-3.83462E-05-3.35834E-05-1.06454E-05 1.76522E-19 1.80452E-18
 -1       350 1.13972E-04-3.41663E-05-3.42259E-05-1.37790E-05-5.86452E-19 1.68286E-18
 -1       351 1.09623E-04-2.81319E-05-3.49584E-05-1.08161E-05-1.05793E-18 1.50853E-18
 -1       352 1.06875E-04-2.43957E-05-3.54076E-05-1.73395E-06-1.73709E-18 9.01058E-19
 -1       353 1.08407E-04-2.63307E-05-3.52154E-05 8.61179E-06-1.07915E-18-7.92504E-19
 -1       354 1.12745E-04-3.20890E-05-3.45903E-05 1.40485E-05-2.36875E-19-9.46857E-19
 -1       355 1.16479E-04-3.73518E-05-3.39227E-05 1.28179E-05 6.90444E-19-1.37648E-18
 -1       356 1.17488E-04-3.93920E-05-3.34908E-05 7.58980E-06 5.83748E-19-1.76374E-18
 -1       357 1.16193E-04-3.87288E-05-3.32279E-05 1.71355E-06 4.54948E-19-9.10601E-19
 -1       358 1.13669E-04-3.67572E-05-3.29877E-05-2.81479E-06-1.28544E-21-4.47788E-19
 -1       359 1.10827E-04-3.46263E-05-3.26740E-05-5.49529E-06 6.56794E-19-5.33790E-19
 -1       360 1.08122E-04-3.28544E-05-3.22658E-05-6.61618E-06 3.95111E-19-9.74733E-19
 -1       361 1.05715E-04-3.15415E-05-3.17908E-05-6.68007E-06-1.12684E-18 1.12453E-19
 -1       362 1.03640E-04-3.06192E-05-3.12926E-05-6.13975E-06-4.75369E-19 1.03719E-18
 -1       363 1.01882E-04-2.99826E-05-3.08101E-05-5.32108E-06 3.09350E-19 1.42886E-18
 -1       364 1.00415E-04-2.95424E-05-3.03695E-05-4.42830E-06-6.44943E-19-3.01267E-20
 -1       365 9.92100E-05-2.92348E-05-2.99847E-05-3.57541E-06-3.39156E-19 2.73514E-19
 -1       366 9.82346E-05-2.90178E-05-2.96602E-05-2.81736E-06-1.09070E-18 1.00994E-18
 -1       367 9.74579E-05-2.88639E-05-2.93939E-05-2.17372E-06 1.21539E-18 2.23199E-18
 -1       368 9.68496E-05-2.87550E-05-2.91805E-05-1.64446E-06 6.17004E-19 8.75334E-19
 -1       369 9.63811E-05-2.86786E-05-2.90130E-05-1.21980E-06-1.19752E-18 1.25514E-19
 -1       370 9.60266E-05-2.86262E-05-2.88841E-05-8.85895E-07-1.63261E-18 4.66958E-19
 -1       371 9.57635E-05-2.85912E-05-2.87867E-05-6.28029E-07-4.59288E-19 3.93823E-20
 -1       372 9.55723E-05-2.85690E-05-2.87147E-05-4.32246E-07 3.25643E-19 5.47331E-19
 -1       373 9.54369E-05-2.85559E-05-2.86626E-05-2.86107E-07-1.49652E-21-9.38816E-19
 -1       374 9.53440E-05-2.85492E-05-2.86258E-05-1.78952E-07-5.68786E-19 7.50764E-19
 -1       375 9.52829E-05-2.85470E-05-2.86007E-05-1.01919E-07-7.50833E-19 1.64590E-18
 -1       376 9.52451E-05-2.85477E-05-2.85844E-05-4.78217E-08 9.26392E-20 2.42186E-18
 -1       377 9.52242E-05-2.85503E-05-2.85743E-05-1.09878E-08 2.26898E-18 2.31677E-18
 -1       378 9.52149E-05-2.85542E-05-2.85688E-05 1.29207E-08 1.85623E-18 2.86010E-18
 -1       379 9.52135E-05-2.85588E-05-2.85662E-05 2.70635E-08 2.30579E-18 1.30454E-18
 -1       380 9.52169E-05-2.85640E-05-2.85655E-05 3.35395E-08-3.08885E-19 3.17229E-18
 -1       381 9.52231E-05-2.85698E-05-2.85657E-05 3.36283E-08 8.19648E-20 2.64919E-18
 -1       382 9.52293E-05-2.85752E-05-2.85661E-05 2.84517E-08-1.09258E-18 3.36184E-18
 -1       383 9.73273E-05-2.80969E-05-2.96303E-05 5.55964E-07 1.08475E-18 1.36431E-18
 -1       384 9.70622E-05-2.84471E-05-2.93825E-05-1.51135E-06 9.50078E-19 8.91506E-19
 -1       385 9.76318E-05-2.88399E-05-2.94702E-05-2.84044E-06 8.03777E-19 6.02451E-19
 -1       386 9.88039E-05-2.93449E-05-2.97626E-05-3.72313E-06 3.71044E-19 2.95407E-19
 -1       387 1.00398E-04-2.99783E-05-3.01785E-05-4.24915E-06 4.14195E-19 1.02676E-19
 -1       388 1.02254E-04-3.07401E-05-3.06514E-05-4.38362E-06 5.43227E-19 1.72482E-19
 -1       389 1.04200E-04-3.16142E-05-3.11154E-05-4.00497E-06 7.85334E-19 2.35311E-19
 -1       390 1.06022E-04-3.25471E-05-3.15010E-05-2.94316E-06-4.03233E-19 7.30031E-19
 -1       391 1.07437E-04-3.34111E-05-3.17404E-05-1.05465E-06 4.11638E-20-2.13345E-19
 -1       392 1.08090E-04-3.39645E-05-3.17832E-05 1.64001E-06 4.65043E-19-6.60493E-19
 -1       393 1.07607E-04-3.38529E-05-3.16201E-05 4.75967E-06 1.37958E-18-4.88961E-19
 -1       394 1.05771E-04-3.27432E-05-3.13015E-05 7.41237E-06 2.99294E-19 6.26209E-19
 -1       395 1.02817E-04-3.06332E-05-3.09321E-05 8.32704E-06-3.80898E-19 3.23586E-19
 -1       396 9.96808E-05-2.81790E-05-3.06342E-05 6.47737E-06 1.83096E-19 5.04828E-19
 -1       397 9.77816E-05-2.65907E-05-3.04956E-05 2.01053E-06 4.92153E-19 3.69517E-19
 -1       398 9.81541E-05-2.68116E-05-3.05575E-05-3.39505E-06 6.87685E-19-3.24303E-19
 -1       399 1.00655E-04-2.87240E-05-3.08106E-05-7.46142E-06 1.79722E-19-8.12940E-19
 -1       400 1.04073E-04-3.12484E-05-3.12001E-05-8.77594E-06-7.19535E-19-6.80571E-19
 -1       401 1.07042E-04-3.32440E-05-3.16292E-05-7.47794E-06-4.71228E-20-8.90323E-19
 -1       402 1.08791E-04-3.41959E-05-3.19813E-05-4.71142E-06 1.67314E-18-8.66754E-19
 -1       403 1.09221E-04-3.42043E-05-3.21669E-05-1.70691E-06 2.83346E-19-1.35878E-18
 -1       404 1.08617E-04-3.36333E-05-3.21518E-05 7.52626E-07-6.70822E-19-2.03919E-18
 -1       405 1.07359E-04-3.28241E-05-3.19556E-05 2.38675E-06-4.31830E-19-1.60280E-18
 -1       406 1.05775E-04-3.19930E-05-3.16279E-05 3.24114E-06 4.06439E-20 4.16808E-20
 -1       407 1.04100E-04-3.12450E-05-3.12265E-05 3.50090E-06 6.93972E-20 5.56406E-19
 -1       408 1.02487E-04-3.06156E-05-3.08020E-05 3.37140E-06 4.17783E-19 1.03617E-18
 -1       409 1.01023E-04-3.01057E-05-3.03913E-05 3.02385E-06 1.02017E-18 5.33264E-19
 -1       410 9.97508E-05-2.97023E-05-3.00179E-05 2.58102E-06 4.23074E-19 1.12708E-18
 -1       411 9.86808E-05-2.93888E-05-2.96934E-05 2.12173E-06-1.24036E-18-1.38555E-18
 -1       412 9.78059E-05-2.91489E-05-2.94214E-05 1.69139E-06-7.08535E-19-2.51575E-18
 -1       413 9.71079E-05-2.89682E-05-2.92000E-05 1.31253E-06-2.96552E-19-5.16703E-19
 -1       414 9.65635E-05-2.88343E-05-2.90245E-05 9.93119E-07 1.02214E-19 8.37980E-19
 -1       415 9.61483E-05-2.87371E-05-2.88886E-05 7.32576E-07 9.38139E-19 5.96376E-19
 -1       416 9.58388E-05-2.86682E-05-2.87859E-05 5.25732E-07 4.03513E-19-1.57579E-19
 -1       417 9.56136E-05-2.86207E-05-2.87101E-05 3.65376E-07 1.82016E-19-3.99971E-19
 -1       418 9.54544E-05-2.85892E-05-2.86556E-05 2.43776E-07-5.70425E-19-3.68990E-19
 -1       419 9.53458E-05-2.85695E-05-2.86177E-05 1.53545E-07-4.15474E-19-1.71092E-18
 -1       420 9.52751E-05-2.85583E-05-2.85924E-05 8.80881E-08 1.46546E-20-2.20781E-18
 -1       421 9.52323E-05-2.85530E-05-2.85765E-05 4.17893E-08 6.13199E-19-7.28038E-19
 -1       422 9.52095E-05-2.85518E-05-2.85673E-05 1.00569E-08-7.46751E-19-1.69425E-20
 -1       423 9.52006E-05-2.85534E-05-2.85630E-05-1.07133E-08 1.64430E-18-1.42956E-18
 -1       424 9.52010E-05-2.85567E-05-2.85618E-05-2.32059E-08 2.05121E-18 1.01764E-18
 -1       425 9.52069E-05-2.85610E-05-2.85625E-05-2.92394E-08 1.75484E-18-2.97218E-19
 -1       426 9.52158E-05-2.85661E-05-2.85642E-05-2.97921E-08 6.58958E-19-8.23600E-19
 -1       427 9.52255E-05-2.85717E-05-2.85659E-05-2.51883E-08-1.04424E-18 1.62388E-18
 -1       428 9.52317E-05-2.85759E-05-2.85668E-05-2.02340E-08-4.77920E-19 4.11162E-18
 -1       429 9.52469E-05-2.85956E-05-2.85648E-05-2.90819E-08-7.49021E-20 1.51046E-18
 -1       430 9.52416E-05-2.85883E-05-2.85657E-05-3.05819E-08-1.01193E-18 1.01292E-18
 -1       431 9.52366E-05-2.85825E-05-2.85661E-05-2.73533E-08-2.10207E-18 1.47887E-18
 -1       432 9.52503E-05-2.86013E-05-2.85638E-05-2.43523E-08-1.45690E-18-2.79758E-18
 -1       433 9.52522E-05-2.86054E-05-2.85629E-05-1.79366E-08-1.41035E-18-1.63063E-18
 -1       434 9.52532E-05-2.86080E-05-2.85622E-05-1.09105E-08-1.01569E-18-2.79675E-18
 -1       435 9.52536E-05-2.86093E-05-2.85618E-05-3.74907E-09-2.34386E-18-2.03745E-18
 -1       436 9.52537E-05-2.86093E-05-2.85618E-05 3.44693E-09-2.38680E-18-1.41913E-18
 -1       437 9.52534E-05-2.86082E-05-2.85622E-05 1.06980E-08-1.00054E-18-2.32564E-18
 -1       438 9.52525E-05-2.86057E-05-2.85628E-05 1.77602E-08 1.62734E-19 5.78260E-20
 -1       439 9.52505E-05-2.86017E-05-2.85638E-05 2.43679E-08 5.95573E-19 4.60448E-18
 -1       440 9.52470E-05-2.85959E-05-2.85648E-05 2.93316E-08 2.17890E-18-9.35668E-19
 -1       441 9.52416E-05-2.85886E-05-2.85656E-05 3.12406E-08-7.48149E-19 4.10945E-19
 -1       442 6.38134E-05-4.20476E-05-9.28073E-06 4.37972E-05-5.70053E-19 2.24151E-18
 -1       443 1.15936E-05-2.35268E-05 4.79370E-06 2.38045E-06-3.65620E-19 3.72387E-18
 -1       444 2.34360E-05-2.63952E-05 1.16856E-06 2.62836E-05-9.14637E-19 2.94312E-18
 -1       445 1.03274E-04-5.44324E-05-2.08931E-05 4.03105E-05-1.50348E-18 2.74833E-18
 -1       446 1.32164E-04-5.64461E-05-3.25631E-05 2.45081E-05 6.49568E-20-2.53898E-19
 -1       447 8.95362E-05-1.14239E-05-3.35407E-05-8.39255E-06-1.58468E-18-1.47666E-18
 -1       448 1.55538E-04-2.31876E-05-5.67405E-05-1.95611E-06 2.95392E-18-1.59369E-18
 -1       449 1.52324E-04-1.20891E-05-6.02948E-05-2.51584E-06 5.23223E-18-1.69857E-18
 -1       450 1.58533E-04-1.71958E-05-6.04523E-05 8.37706E-07 5.48803E-18-7.78582E-19
 -1       451 1.56279E-04-3.09447E-05-5.35699E-05-3.09540E-06 4.20187E-18-2.50510E-19
 -1       452 1.48572E-04-4.50431E-05-4.41858E-05-1.45800E-05 2.82339E-18-9.41901E-19
 -1       453 1.20784E-04-5.40472E-05-2.86754E-05-3.37298E-05 1.25266E-18-3.14577E-18
 -1       454 8.47038E-05-4.91259E-05-1.54424E-05-4.35902E-05 1.61974E-18-2.37865E-18
 -1       455 4.73366E-05-3.85491E-05-4.07292E-06-4.03083E-05 5.54912E-19-4.14856E-18
 -1       456 1.83136E-05-2.63316E-05 3.12776E-06-2.05526E-05 7.18919E-20-5.95994E-18
 -1       457 1.31118E-05-2.21322E-05 3.77534E-06 4.46185E-06-1.11438E-20-5.94109E-18
 -1       458 3.61354E-05-3.36262E-05-1.28156E-06 3.45309E-05-4.41622E-19-4.08344E-18
 -1       459 6.91496E-05-4.58928E-05-1.01940E-05 4.31922E-05-1.36584E-18-4.08609E-18
 -1       460 1.10349E-04-5.70219E-05-2.29744E-05 3.74518E-05-1.25128E-18-1.68861E-18
 -1       461 1.44759E-04-5.31104E-05-3.92718E-05 1.64450E-05-2.49689E-18-4.14729E-19
 -1       462 1.56280E-04-3.67339E-05-5.12111E-05 7.95301E-07-4.59801E-18 3.34049E-19
 -1       463 1.59254E-04-2.18812E-05-5.87926E-05-2.39824E-06-5.84781E-18-1.24090E-19
 -1       464 1.57778E-04-1.25708E-05-6.21248E-05 5.02476E-07-5.37601E-18-1.67291E-19
 -1       465 1.62446E-04-2.11939E-05-6.02665E-05 1.75378E-06-3.40963E-18 5.81700E-19
 -1       466 1.59361E-04-3.53018E-05-5.29842E-05-3.45762E-06-1.25451E-18 1.93124E-18
 -1       467 1.47143E-04-5.05191E-05-4.14337E-05-1.31391E-05-4.65590E-19 1.12115E-18
 -1       468 1.22613E-04-5.50546E-05-2.90110E-05-3.18470E-05-3.93447E-19-4.08482E-19
 -1       469 9.05228E-05-5.19087E-05-1.66481E-05-4.17425E-05-3.25155E-19-9.61277E-19
 -1       470 5.75447E-05-4.13181E-05-7.05593E-06-4.15538E-05 4.90326E-19 1.79603E-18
 -1       471 2.52189E-05-2.64037E-05 5.07599E-07-2.62755E-05-5.12931E-19 2.08603E-18
 -1       472 1.51811E-04-3.92145E-05-4.82026E-05 4.64198E-06 1.61185E-18-1.19982E-18
 -1       473 5.22073E-05-3.20351E-05-8.23677E-06 4.00036E-05-1.17235E-18 2.06443E-18
 -1       474 2.80920E-05-2.08101E-05-2.65239E-06 2.28576E-05 7.37607E-19-4.89829E-18
 -1       475 1.37180E-04-7.84567E-06-5.59139E-05 1.89960E-06 5.31418E-18-3.93718E-19
 -1       476 9.77077E-05-2.54301E-05-3.09613E-05 3.49003E-06 1.41350E-18 9.35823E-20
 -1       477 8.71123E-05-1.09853E-05-3.26420E-05-2.41228E-06-6.46460E-19-1.89553E-18
 -1       478 8.86467E-05-1.24761E-05-3.26635E-05-3.72520E-06-9.67159E-19-1.85188E-18
 -1       479 8.59709E-05-9.92728E-06-3.26043E-05-8.00293E-08 5.30304E-20-1.95373E-18
 -1       480 8.63602E-05-1.02970E-05-3.26133E-05 1.08761E-06 4.36019E-19-1.99243E-18
 -1       481 8.73400E-05-1.12316E-05-3.26342E-05 2.33747E-06 7.51027E-19-1.90389E-18
 -1       482 8.89158E-05-1.27848E-05-3.26466E-05 3.74913E-06 1.28397E-18-1.71774E-18
 -1       483 9.10578E-05-1.50195E-05-3.26099E-05 5.25663E-06 1.59711E-18-1.39363E-18
 -1       484 9.38363E-05-1.81444E-05-3.24593E-05 6.69328E-06 1.76462E-18-8.71752E-19
 -1       485 9.75180E-05-2.68799E-05-3.02542E-05-1.07336E-07 1.26821E-18-1.92940E-19
 -1       486 9.70275E-05-2.43062E-05-3.11556E-05-2.73728E-06-1.38431E-18-2.50170E-19
 -1       487 1.38494E-04-5.74776E-05-3.48402E-05-1.24141E-05 6.16216E-20 3.87147E-19
 -1       488 1.40543E-04-5.18004E-05-3.83606E-05 2.66490E-06 2.17191E-19-2.35078E-18
 -1       489 9.71936E-05-2.59756E-05-3.05140E-05 9.04221E-07-1.12146E-18-4.08724E-19
 -1       490 9.73377E-05-2.68543E-05-3.02017E-05 3.65256E-06-8.66999E-19-2.90484E-19
 -1       491 9.77167E-05-2.74477E-05-3.01116E-05 5.80710E-06-5.81267E-19-1.05776E-19
 -1       492 9.84145E-05-2.80228E-05-3.01654E-05 7.55627E-06-1.93134E-19-2.89834E-19
 -1       493 9.94993E-05-2.87948E-05-3.03009E-05 8.95283E-06 1.20593E-20-5.79727E-19
 -1       494 1.01089E-04-3.00004E-05-3.04677E-05 9.91066E-06 1.90104E-19-7.50890E-19
 -1       495 1.03383E-04-3.19151E-05-3.06332E-05 1.01855E-05 9.56463E-20-4.61918E-19
 -1       496 1.06639E-04-3.47865E-05-3.08025E-05 9.34613E-06-9.25801E-21 4.02106E-19
 -1       497 1.11027E-04-3.85954E-05-3.10558E-05 6.78228E-06 5.30539E-19 1.08164E-18
 -1       498 1.16257E-04-4.25846E-05-3.15927E-05 1.88254E-06 5.08117E-19 8.81990E-19
 -1       499 1.21040E-04-4.46998E-05-3.27414E-05-5.35836E-06 3.34633E-19 9.67211E-19
 -1       500 1.22808E-04-4.16099E-05-3.48718E-05-1.29914E-05-1.70211E-19 1.43704E-18
 -1       501 1.19855E-04-3.22405E-05-3.76493E-05-1.59772E-05-1.25597E-18 1.76566E-18
 -1       502 1.13852E-04-2.10871E-05-4.01007E-05-9.11778E-06-2.10760E-18 9.53117E-19
 -1       503 1.12990E-04-1.86918E-05-4.06589E-05 4.69311E-06-2.41055E-18-3.31673E-19
 -1       504 1.17838E-04-2.77899E-05-3.87708E-05 1.51858E-05-1.34484E-18-1.44900E-18
 -1       505 1.22115E-04-3.85702E-05-3.59666E-05 1.59301E-05 6.49039E-20-2.26652E-18
 -1       506 1.22530E-04-4.44489E-05-3.34792E-05 9.21534E-06 2.48287E-19-1.69479E-18
 -1       507 1.18562E-04-4.37726E-05-3.20834E-05 1.40501E-06 4.41389E-19-1.74010E-18
 -1       508 1.13331E-04-4.01139E-05-3.13976E-05-4.38712E-06 5.00563E-19-1.23096E-18
 -1       509 1.08638E-04-3.61001E-05-3.10989E-05-7.64719E-06 1.43059E-19-9.98629E-19
 -1       510 1.05067E-04-3.29125E-05-3.09296E-05-8.95171E-06 1.80118E-19-1.50298E-18
 -1       511 1.02522E-04-3.07488E-05-3.07620E-05-8.99562E-06 7.96570E-21-1.76476E-18
 -1       512 1.00735E-04-2.94334E-05-3.05575E-05-8.31954E-06-8.39303E-20-7.95807E-19
 -1       513 9.94534E-05-2.87035E-05-3.03197E-05-7.29860E-06-1.86276E-20-6.18870E-19
 -1       514 9.84998E-05-2.83381E-05-3.00672E-05-6.16824E-06-4.91904E-19-2.77791E-19
 -1       515 9.77655E-05-2.81839E-05-2.98185E-05-5.06597E-06-4.78041E-19 8.25610E-19
 -1       516 9.71864E-05-2.81442E-05-2.95876E-05-4.06438E-06 1.45616E-20 3.99796E-19
 -1       517 9.67249E-05-2.81623E-05-2.93823E-05-3.19498E-06 7.63298E-19 1.95442E-18
 -1       518 9.63571E-05-2.82062E-05-2.92061E-05-2.46466E-06-2.45508E-19 1.48355E-18
 -1       519 9.60660E-05-2.82588E-05-2.90591E-05-1.86651E-06-8.02521E-19 4.43862E-19
 -1       520 9.58384E-05-2.83113E-05-2.89393E-05-1.38679E-06-1.42778E-18 5.94468E-19
 -1       521 9.56631E-05-2.83596E-05-2.88437E-05-1.00908E-06-5.04722E-19 2.12838E-18
 -1       522 9.55305E-05-2.84020E-05-2.87689E-05-7.16729E-07 2.37794E-19 1.93877E-18
 -1       523 9.54323E-05-2.84380E-05-2.87115E-05-4.94178E-07-1.56054E-18 9.39476E-19
 -1       524 9.53611E-05-2.84680E-05-2.86682E-05-3.27598E-07 7.14210E-19 8.86247E-19
 -1       525 9.53110E-05-2.84926E-05-2.86362E-05-2.05129E-07 2.10221E-19 2.21809E-18
 -1       526 9.52769E-05-2.85125E-05-2.86132E-05-1.16888E-07 1.02907E-18 2.93539E-18
 -1       527 9.52549E-05-2.85285E-05-2.85969E-05-5.48533E-08 7.88598E-19 1.47536E-18
 -1       528 9.52417E-05-2.85415E-05-2.85858E-05-1.26959E-08 2.65914E-18 1.43016E-18
 -1       529 9.52349E-05-2.85522E-05-2.85783E-05 1.44267E-08 1.11611E-18 2.99310E-18
 -1       530 9.52325E-05-2.85614E-05-2.85733E-05 3.00233E-08 8.87308E-19 9.76061E-19
 -1       531 9.52332E-05-2.85702E-05-2.85699E-05 3.64712E-08-2.67897E-19 1.79585E-19
 -1       532 9.80730E-05-2.83621E-05-2.98712E-05-4.26173E-06 7.46586E-19-6.32380E-22
 -1       533 9.89427E-05-2.90341E-05-2.99589E-05-5.42248E-06 4.60206E-19 8.32391E-20
 -1       534 1.00185E-04-2.98632E-05-3.01386E-05-6.08136E-06 4.96004E-19 1.04133E-19
 -1       535 1.01777E-04-3.09449E-05-3.03600E-05-6.15907E-06 3.46439E-19 2.04299E-19
 -1       536 1.03686E-04-3.23329E-05-3.05863E-05-5.47933E-06-1.79815E-20 7.76388E-19
 -1       537 1.05824E-04-3.39807E-05-3.07998E-05-3.81744E-06 1.75552E-19 3.25021E-19
 -1       538 1.07973E-04-3.56416E-05-3.10106E-05-1.00576E-06 5.18575E-19 3.53085E-19
 -1       539 1.09680E-04-3.67490E-05-3.12663E-05 2.86298E-06 4.53771E-19 8.13806E-19
 -1       540 1.10259E-04-3.64441E-05-3.16408E-05 7.11214E-06 3.44941E-19 9.93169E-19
 -1       541 1.09089E-04-3.39968E-05-3.21854E-05 1.02612E-05 1.61925E-20 1.03808E-18
 -1       542 1.06287E-04-2.96619E-05-3.28416E-05 1.03230E-05-3.33710E-19 1.03152E-18
 -1       543 1.03305E-04-2.53760E-05-3.34047E-05 6.11182E-06 4.38904E-19 1.27204E-18
 -1       544 1.02271E-04-2.38837E-05-3.36006E-05-1.11498E-06 1.38480E-18 8.38941E-19
 -1       545 1.03995E-04-2.61983E-05-3.33460E-05-7.93311E-06 4.22893E-19 4.50399E-19
 -1       546 1.07227E-04-3.07358E-05-3.27815E-05-1.12324E-05-8.89170E-20-3.18506E-20
 -1       547 1.09852E-04-3.47617E-05-3.21813E-05-1.03953E-05 5.06048E-19-1.43300E-18
 -1       548 1.10735E-04-3.67287E-05-3.17233E-05-6.92894E-06 6.22433E-19-2.39720E-18
 -1       549 1.09978E-04-3.66702E-05-3.14300E-05-2.77167E-06 8.38979E-19-9.47769E-19
 -1       550 1.08266E-04-3.54129E-05-3.12347E-05 7.83879E-07-6.66223E-19-8.06788E-19
 -1       551 1.06237E-04-3.37737E-05-3.10652E-05 3.24023E-06-4.37905E-19-9.11631E-19
 -1       552 1.04273E-04-3.22435E-05-3.08754E-05 4.60900E-06-9.16833E-19-1.06257E-18
 -1       553 1.02533E-04-3.10196E-05-3.06513E-05 5.11988E-06-1.76588E-19-2.91302E-19
 -1       554 1.01057E-04-3.01250E-05-3.03997E-05 5.04543E-06 2.32695E-19-3.72980E-19
 -1       555 9.98291E-05-2.95086E-05-3.01363E-05 4.62180E-06 1.19295E-19 2.84947E-19
 -1       556 9.88196E-05-2.91011E-05-2.98775E-05 4.02539E-06-6.53712E-20 9.24065E-19
 -1       557 9.79967E-05-2.88409E-05-2.96361E-05 3.37520E-06 1.27165E-18 1.21532E-18
 -1       558 9.73325E-05-2.86801E-05-2.94204E-05 2.74445E-06 3.26025E-19-3.82919E-20
 -1       559 9.68023E-05-2.85850E-05-2.92341E-05 2.17335E-06-1.43155E-18 1.28414E-19
 -1       560 9.63847E-05-2.85321E-05-2.90781E-05 1.67999E-06-6.22328E-19 6.63284E-19
 -1       561 9.60606E-05-2.85060E-05-2.89507E-05 1.26850E-06 8.12156E-19 8.28347E-19
 -1       562 9.58132E-05-2.84963E-05-2.88490E-05 9.34864E-07 1.13930E-18 1.51062E-19
 -1       563 9.56276E-05-2.84965E-05-2.87697E-05 6.70828E-07 6.18596E-19 4.01062E-19
 -1       564 9.54914E-05-2.85020E-05-2.87091E-05 4.66400E-07 2.11151E-19-8.18155E-19
 -1       565 9.53938E-05-2.85103E-05-2.86639E-05 3.11393E-07 1.38289E-18-9.59432E-19
 -1       566 9.53259E-05-2.85195E-05-2.86310E-05 1.96292E-07 1.44457E-19-1.59101E-18
 -1       567 9.52805E-05-2.85288E-05-2.86076E-05 1.12707E-07-7.86479E-19-2.43640E-18
 -1       568 9.52518E-05-2.85376E-05-2.85916E-05 5.35551E-08-7.71042E-19-1.02701E-18
 -1       569 9.52353E-05-2.85458E-05-2.85811E-05 1.30907E-08 6.48490E-19-2.29263E-18
 -1       570 9.52273E-05-2.85532E-05-2.85745E-05-1.31677E-08-5.70763E-20-9.10554E-19
 -1       571 9.52252E-05-2.85603E-05-2.85706E-05-2.85402E-08 1.75346E-18 7.27779E-19
 -1       572 9.52269E-05-2.85673E-05-2.85684E-05-3.53838E-08 5.45100E-19 2.38591E-18
 -1       573 9.52312E-05-2.85747E-05-2.85671E-05-3.50285E-08-1.29030E-18 3.04367E-18
 -1       574 9.52497E-05-2.85834E-05-2.85713E-05-2.30906E-08 2.25213E-19-1.99036E-18
 -1       575 9.52503E-05-2.85828E-05-2.85717E-05-1.54463E-08-6.65618E-19-1.95329E-18
 -1       576 9.52426E-05-2.85811E-05-2.85692E-05-3.48397E-08-8.65017E-19 1.30769E-18
 -1       577 9.52475E-05-2.85831E-05-2.85705E-05-2.99603E-08-1.57491E-18-1.48737E-18
 -1       578 9.52502E-05-2.85822E-05-2.85720E-05-7.78382E-09-9.51687E-19-3.63297E-18
 -1       579 9.52501E-05-2.85820E-05-2.85720E-05-2.39254E-10 5.57245E-21-4.19060E-19
 -1       580 9.52503E-05-2.85824E-05-2.85720E-05 7.37235E-09 9.21916E-19-2.65716E-19
 -1       581 9.52506E-05-2.85832E-05-2.85717E-05 1.50713E-08 2.94229E-18-1.41263E-18
 -1       582 9.52501E-05-2.85838E-05-2.85713E-05 2.29784E-08 2.11902E-18 2.15043E-18
 -1       583 9.52479E-05-2.85834E-05-2.85705E-05 3.02282E-08-2.82188E-20 2.48294E-18
 -1       584 9.52426E-05-2.85811E-05-2.85692E-05 3.49880E-08-1.00934E-18-1.96223E-18
 -1       585 9.46175E-05-5.04637E-05-1.85599E-05 3.98563E-05-9.26654E-19 2.08962E-18
 -1       586 2.46895E-05-1.45915E-05-3.77413E-06-1.09786E-05 3.25830E-19 2.61108E-18
 -1       587 9.76013E-05-2.77174E-05-2.99400E-05-2.55610E-06 9.06639E-19-1.52143E-19
 -1       588 2.49158E-05-1.47860E-05-3.70420E-06 1.25045E-05-1.05854E-18 2.76959E-18
 -1       589 1.18185E-04-5.87844E-05-2.54025E-05 2.89088E-05-1.48874E-18 2.07265E-19
 -1       590 1.39911E-04-3.04458E-05-4.73463E-05-1.09200E-05 1.61137E-18-2.59287E-18
 -1       591 1.18367E-04-6.00849E-05-2.48505E-05-3.02865E-05 1.62630E-19-9.37030E-19
 -1       592 1.44911E-04-4.89567E-05-4.15228E-05-5.12760E-06-1.46872E-18 2.39027E-18
 -1       593 4.56761E-05-2.60432E-05-7.83618E-06-3.47977E-05-1.55600E-18-3.71477E-18
 -1       594 9.57736E-05-2.06982E-05-3.21925E-05-6.79065E-06-1.64020E-18-3.73866E-19
 -1       595 8.62187E-05-1.01498E-05-3.26157E-05-1.21869E-06-3.20969E-19-1.93800E-18
 -1       596 1.39200E-04-2.13013E-05-5.11013E-05 9.99655E-06 3.72721E-18 1.02740E-18
 -1       597 1.34788E-04-1.58199E-05-5.15989E-05-9.83200E-06 3.19501E-18-1.91345E-18
 -1       598 1.12441E-04-5.83363E-05-2.31075E-05-3.51961E-05-9.23319E-19-1.14004E-18
 -1       599 1.41754E-04-4.09971E-05-4.35984E-05 6.85828E-06 2.01017E-18 1.61386E-18
 -1       600 6.43054E-05-3.84170E-05-1.07250E-05 4.09576E-05 1.00723E-18-3.43324E-18
 -1       601 7.85478E-05-4.58107E-05-1.37284E-05-4.38607E-05-1.16626E-18-1.74772E-18
 -1       602 2.41640E-05-1.49462E-05-3.34175E-06-1.02386E-05-3.09074E-19-5.86369E-18
 -1       603 1.37924E-04-1.30151E-05-5.41251E-05 6.58843E-06-4.65858E-18-1.87949E-19
 -1       604 9.81908E-05-5.40833E-05-1.87279E-05 3.96939E-05 1.09580E-18-1.33561E-18
 -1       605 1.33953E-04-6.18862E-05-3.09146E-05 1.69535E-05 4.29657E-19 1.98873E-18
 -1       606 1.37469E-04-2.77134E-05-4.75752E-05-1.44637E-05-3.66294E-18 1.82689E-18
 -1       607 1.31800E-04-1.16701E-05-5.20671E-05-7.10664E-06-5.16055E-18 6.17262E-19
 -1       608 1.41885E-04-2.67826E-05-4.98824E-05 1.30963E-05-1.75749E-18-2.14088E-19
 -1       609 1.45685E-04-4.41631E-05-4.38109E-05 7.75487E-06-2.72665E-19 3.62107E-19
 -1       610 1.38116E-04-6.00914E-05-3.35924E-05-1.24953E-05 4.22961E-19 1.18595E-18
 -1       611 8.52483E-05-4.75181E-05-1.58412E-05-4.07478E-05 1.00056E-18-8.91290E-19
 -1       612 5.16148E-05-2.92874E-05-9.01871E-06-3.63888E-05 1.10141E-18 1.62583E-18
 -1       613 9.78251E-05-2.35690E-05-3.18270E-05 7.40985E-06 1.75506E-18 4.53801E-19
 -1       614 9.07850E-05-1.46819E-05-3.26384E-05-5.12060E-06-1.32697E-18-1.45585E-18
 -1       615 1.31604E-04-5.86994E-05-3.13028E-05 1.11131E-05-1.06869E-18-1.98500E-18
 -1       616 9.52349E-05-2.85761E-05-2.85681E-05 3.65208E-08-8.83173E-19 7.28522E-19
 -1       617 4.33500E-05-1.99205E-05-9.48070E-06 2.76520E-05-1.33019E-18 2.92205E-18
 -1       618 3.02365E-05-1.33146E-05-6.60412E-06 7.59470E-06 2.92782E-19-4.82819E-18
 -1       619 9.31007E-05-1.73091E-05-3.25033E-05-6.15801E-06-1.54985E-18-1.14089E-18
 -1       620 5.07713E-05-2.63749E-05-9.95082E-06 3.32609E-05 1.33368E-18-3.72054E-18
 -1       621 1.25170E-04-9.63720E-06-5.01090E-05-5.21720E-06 3.59243E-18-1.49961E-18
 -1       622 8.82878E-05-1.36904E-05-3.19750E-05 7.83902E-07 5.46847E-19-1.59884E-18
 -1       623 8.74928E-05-1.29006E-05-3.19724E-05 1.29084E-07 1.48478E-19-1.56516E-18
 -1       624 9.16562E-05-1.72256E-05-3.19039E-05 2.36406E-06 1.30461E-18-1.30088E-18
 -1       625 9.39887E-05-1.99751E-05-3.17273E-05 3.05717E-06 1.41438E-18-1.15573E-18
 -1       626 9.63538E-05-2.37319E-05-3.11140E-05 1.95386E-06 1.36597E-18-6.54557E-19
 -1       627 1.37090E-04-5.30372E-05-3.61599E-05 5.73937E-06 1.48756E-18-3.34287E-19
 -1       628 9.57755E-05-2.43095E-05-3.06264E-05 2.16606E-06-9.24510E-19-6.31371E-19
 -1       629 9.58730E-05-2.52885E-05-3.02491E-05 4.79452E-06-5.81650E-19-5.14251E-19
 -1       630 9.59513E-05-2.59427E-05-3.00027E-05 7.00715E-06-4.82393E-19-4.87749E-19
 -1       631 9.61829E-05-2.65861E-05-2.98264E-05 8.91410E-06-3.28964E-19-6.59511E-19
 -1       632 9.67682E-05-2.75405E-05-2.96686E-05 1.05618E-05 1.12594E-19-6.11024E-19
 -1       633 9.80099E-05-2.91912E-05-2.94939E-05 1.19038E-05 2.93667E-19-2.29990E-19
 -1       634 1.00374E-04-3.20000E-05-2.93037E-05 1.27539E-05 5.62645E-19 2.10309E-20
 -1       635 1.04507E-04-3.64169E-05-2.91812E-05 1.26668E-05 6.03318E-19 1.33521E-20
 -1       636 1.10929E-04-4.24019E-05-2.93692E-05 1.07649E-05 4.49815E-19 1.01783E-19
 -1       637 1.19517E-04-4.86773E-05-3.03520E-05 5.81139E-06 6.17848E-19 6.66421E-19
 -1       638 1.28112E-04-5.14081E-05-3.29132E-05-3.10076E-06 8.49035E-19 1.60279E-18
 -1       639 1.23293E-04-1.88884E-05-4.53312E-05 1.36915E-05-2.65397E-18-2.18752E-18
 -1       640 1.30187E-04-3.73674E-05-4.01359E-05 1.60496E-05-3.48792E-19-1.51104E-18
 -1       641 1.13870E-04-4.46272E-05-2.96734E-05-8.45266E-06 4.15073E-19 2.80988E-19
 -1       642 1.06556E-04-3.82320E-05-2.92827E-05-1.12600E-05-1.10389E-19-3.34820E-19
 -1       643 1.01645E-04-3.32372E-05-2.93201E-05-1.17779E-05-4.56776E-19-4.21039E-19
 -1       644 9.86954E-05-2.99533E-05-2.94613E-05-1.11887E-05-1.55162E-19-9.73595E-19
 -1       645 9.70746E-05-2.80726E-05-2.95720E-05-1.00660E-05 1.94347E-19-3.45211E-19
 -1       646 9.62376E-05-2.71451E-05-2.96103E-05-8.74732E-06 5.26731E-19 1.54131E-19
 -1       647 9.58266E-05-2.68024E-05-2.95810E-05-7.40398E-06 5.17096E-19 7.63385E-19
 -1       648 9.56305E-05-2.67879E-05-2.95032E-05-6.13058E-06-8.51041E-20 1.73020E-18
 -1       649 9.55343E-05-2.69387E-05-2.93974E-05-4.97806E-06 5.02768E-19 2.82950E-18
 -1       650 9.54804E-05-2.71582E-05-2.92804E-05-3.96990E-06 7.05366E-19 1.89888E-18
 -1       651 9.54427E-05-2.73924E-05-2.91639E-05-3.11164E-06-6.91521E-20 1.18017E-18
 -1       652 9.54107E-05-2.76138E-05-2.90554E-05-2.39746E-06-1.58716E-18 1.22382E-18
 -1       653 9.53814E-05-2.78099E-05-2.89589E-05-1.81493E-06-1.47160E-18 1.53539E-18
 -1       654 9.53543E-05-2.79768E-05-2.88759E-05-1.34832E-06-9.58313E-19 1.34683E-18
 -1       655 9.53301E-05-2.81147E-05-2.88064E-05-9.80863E-07-1.45327E-18-1.74909E-19
 -1       656 9.53091E-05-2.82262E-05-2.87497E-05-6.96209E-07-1.38887E-18-6.59985E-19
 -1       657 9.52915E-05-2.83148E-05-2.87042E-05-4.79296E-07-1.09237E-18-1.40145E-19
 -1       658 9.52773E-05-2.83840E-05-2.86685E-05-3.16788E-07 6.49302E-19-1.79790E-19
 -1       659 9.52660E-05-2.84373E-05-2.86408E-05-1.97252E-07 1.84877E-19-6.60161E-19
 -1       660 9.52574E-05-2.84778E-05-2.86198E-05-1.11157E-07 4.77259E-19-1.13741E-18
 -1       661 9.52511E-05-2.85084E-05-2.86040E-05-5.07741E-08 1.53901E-18-3.83180E-19
 -1       662 9.52466E-05-2.85315E-05-2.85922E-05-1.00157E-08 1.87527E-18-1.97129E-18
 -1       663 9.52438E-05-2.85494E-05-2.85833E-05 1.58359E-08-1.99195E-19-2.98734E-18
 -1       664 9.52425E-05-2.85640E-05-2.85765E-05 2.99913E-08 1.10767E-18-2.39132E-18
 -1       665 9.81758E-05-2.84994E-05-2.98609E-05-6.80067E-06 5.61135E-19-5.61852E-19
 -1       666 9.74381E-05-2.75503E-05-2.99509E-05-5.49136E-06 6.67896E-19-6.18089E-19
 -1       667 1.01034E-04-3.13920E-05-2.98478E-05-7.74514E-06-2.44207E-19 1.01815E-19
 -1       668 1.03417E-04-3.36430E-05-2.99062E-05-7.03891E-06 1.28785E-19 2.30817E-19
 -1       669 1.06507E-04-3.63816E-05-3.00589E-05-5.15993E-06-2.27699E-19 8.92137E-19
 -1       670 1.10075E-04-3.91361E-05-3.04078E-05-1.79701E-06-2.77261E-22 1.45899E-18
 -1       671 1.13329E-04-4.07369E-05-3.11155E-05 3.06544E-06 1.80589E-19 2.35438E-18
 -1       672 1.14957E-04-3.95353E-05-3.23358E-05 8.51433E-06 3.41346E-19 2.55844E-18
 -1       673 1.13560E-04-3.41783E-05-3.40567E-05 1.22321E-05 2.71596E-20 1.79120E-18
 -1       674 1.09748E-04-2.62126E-05-3.58512E-05 1.09405E-05 2.63179E-19 1.09007E-18
 -1       675 1.06316E-04-2.00436E-05-3.70644E-05 3.57593E-06 1.26837E-18 8.19456E-19
 -1       676 1.06912E-04-2.10074E-05-3.68955E-05-6.22490E-06 1.46009E-18 4.99046E-19
 -1       677 1.10719E-04-2.79181E-05-3.55423E-05-1.24355E-05 9.80990E-19-1.00085E-18
 -1       678 1.14291E-04-3.56805E-05-3.37130E-05-1.24087E-05 8.71108E-19-2.53023E-18
 -1       679 1.14945E-04-4.00245E-05-3.21130E-05-8.13459E-06 6.51465E-19-1.58653E-18
 -1       680 1.12875E-04-4.04525E-05-3.10467E-05-2.76921E-06 6.51755E-19-1.43097E-18
 -1       681 1.09484E-04-3.84516E-05-3.04485E-05 1.67949E-06 4.01886E-19-7.69898E-19
 -1       682 1.06025E-04-3.56655E-05-3.01588E-05 4.60320E-06-4.14821E-19-9.36989E-19
 -1       683 1.03110E-04-3.30686E-05-3.00206E-05 6.14390E-06-9.40097E-19-2.33558E-21
 -1       684 1.00891E-04-3.10524E-05-2.99323E-05 6.66271E-06-1.00806E-18 1.24585E-19
 -1       685 9.92902E-05-2.96586E-05-2.98425E-05 6.51222E-06 7.09733E-20 9.21049E-20
 -1       686 9.81614E-05-2.87821E-05-2.97338E-05 5.96910E-06-2.81816E-19 1.39765E-18
 -1       687 9.73675E-05-2.82836E-05-2.96068E-05 5.23061E-06 1.92622E-19 1.27229E-18
 -1       688 9.68030E-05-2.80387E-05-2.94697E-05 4.42843E-06 7.59053E-19 9.71586E-19
 -1       689 9.63945E-05-2.79524E-05-2.93316E-05 3.64488E-06 8.42356E-19 1.81819E-18
 -1       690 9.60937E-05-2.79585E-05-2.92001E-05 2.92720E-06-1.56028E-19 1.28480E-18
 -1       691 9.58690E-05-2.80133E-05-2.90804E-05 2.29859E-06-1.09635E-18-7.15762E-19
 -1       692 9.56997E-05-2.80895E-05-2.89753E-05 1.76642E-06-3.44947E-19-8.61860E-19
 -1       693 9.55718E-05-2.81707E-05-2.88858E-05 1.32815E-06 1.59444E-18-2.23117E-19
 -1       694 9.54754E-05-2.82480E-05-2.88114E-05 9.75691E-07 7.44419E-19-8.57068E-19
 -1       695 9.54033E-05-2.83167E-05-2.87511E-05 6.98220E-07 4.32162E-19-1.86824E-19
 -1       696 9.53500E-05-2.83753E-05-2.87033E-05 4.84123E-07 2.20282E-20 1.45417E-19
 -1       697 9.53113E-05-2.84236E-05-2.86660E-05 3.22151E-07 6.99003E-19 1.35404E-18
 -1       698 9.52838E-05-2.84624E-05-2.86376E-05 2.02077E-07 2.28842E-19 1.26416E-18
 -1       699 9.52648E-05-2.84931E-05-2.86164E-05 1.15023E-07-4.34376E-20-9.68885E-20
 -1       700 9.52521E-05-2.85169E-05-2.86008E-05 5.35864E-08 8.56404E-19-2.63654E-18
 -1       701 9.52443E-05-2.85355E-05-2.85895E-05 1.18346E-08-7.42108E-19-2.41429E-18
 -1       702 9.52400E-05-2.85502E-05-2.85813E-05-1.48682E-08-7.17022E-19-1.65659E-18
 -1       703 9.52384E-05-2.85625E-05-2.85754E-05-2.99198E-08-8.62955E-19 3.10649E-19
 -1       704 9.52404E-05-2.85714E-05-2.85724E-05-3.45650E-08-2.17838E-18 1.37675E-18
 -1       705 9.52459E-05-2.85538E-05-2.85823E-05-3.23855E-09 1.36780E-18 8.70304E-19
 -1       706 9.52422E-05-2.85728E-05-2.85726E-05 3.42692E-08 1.18588E-18-1.64687E-18
 -1       707 9.52479E-05-2.85604E-05-2.85804E-05-1.60409E-08 1.66662E-18-3.93669E-18
 -1       708 9.52460E-05-2.85540E-05-2.85823E-05 2.56869E-09 1.72560E-18-1.00268E-18
 -1       709 9.52468E-05-2.85562E-05-2.85817E-05-9.27767E-09-1.30241E-19-3.70093E-18
 -1       710 9.69908E-05-2.66383E-05-3.01483E-05-3.66701E-06 7.36310E-19-4.72289E-19
 -1       711 9.52471E-05-2.85565E-05-2.85817E-05 8.66253E-09 1.97877E-18 1.07208E-19
 -1       712 9.52485E-05-2.85609E-05-2.85804E-05 1.56972E-08 2.33913E-18-1.04371E-18
 -1       713 9.52485E-05-2.85658E-05-2.85783E-05 2.34453E-08 2.55254E-18 1.30758E-18
 -1       714 1.17022E-04-5.74002E-05-2.54659E-05 2.53420E-05 1.80431E-18 1.48507E-18
 -1       715 1.10682E-04-5.37434E-05-2.42767E-05 2.70564E-05-1.87051E-18-8.48681E-19
 -1       716 7.42925E-05-3.55788E-05-1.61357E-05 3.65186E-05-1.20975E-18 2.43527E-18
 -1       717 1.34164E-04-4.16254E-05-3.99628E-05-1.04528E-05 4.27540E-19-2.62919E-18
 -1       718 7.31335E-05-3.65452E-05-1.53049E-05-3.80577E-05-2.25051E-18-1.74989E-18
 -1       719 1.35320E-04-5.49440E-05-3.45235E-05-2.16047E-06 7.81057E-20 2.12816E-18
 -1       720 9.93294E-05-2.97164E-05-2.98346E-05-7.58966E-06 3.27191E-19-2.91826E-19
 -1       721 9.54070E-05-2.26107E-05-3.11998E-05-1.01131E-06-1.17941E-18-7.58985E-19
 -1       722 9.45272E-05-2.03590E-05-3.17844E-05-3.55844E-06-1.39197E-18-9.21123E-19
 -1       723 1.26850E-04-5.96202E-05-2.87983E-05-1.83671E-05-1.73871E-18 1.91271E-19
 -1       724 9.66935E-05-2.54931E-05-3.05100E-05-1.24319E-06 1.06515E-18-6.69210E-19
 -1       725 1.08984E-04-5.39543E-05-2.33955E-05-2.89605E-05 1.27351E-18-6.23049E-19
 -1       726 1.25579E-04-2.34481E-05-4.41889E-05-1.40562E-05 2.01464E-18-2.88485E-18
 -1       727 8.97076E-05-1.51367E-05-3.19641E-05 1.54151E-06 9.32287E-19-1.45157E-18
 -1       728 8.93286E-05-1.47221E-05-3.19794E-05-1.64013E-06-6.61595E-19-1.61665E-18
 -1       729 1.28594E-04-2.99289E-05-4.26806E-05 1.42233E-05 2.33606E-18 1.96227E-18
 -1       730 9.98252E-05-5.13420E-05-2.05522E-05-3.62221E-05-2.03280E-18-1.04986E-19
 -1       731 1.35657E-04-5.15148E-05-3.62863E-05 2.91177E-06 2.07847E-19 1.93933E-18
 -1       732 8.70996E-05-4.35732E-05-1.82692E-05 3.69516E-05 1.96911E-18-8.97220E-19
 -1       733 4.36421E-05-1.59653E-05-1.13142E-05-1.91124E-05-1.10386E-18-3.83272E-18
 -1       734 3.42815E-05-1.14559E-05-9.24249E-06 1.29337E-06 2.24530E-19 1.58983E-18
 -1       735 1.22943E-04-1.31813E-05-4.76159E-05 8.82281E-06 3.46627E-18 1.20014E-18
 -1       736 1.34934E-04-3.63310E-05-4.26992E-05 1.58443E-05-4.69097E-19-1.28760E-18
 -1       737 1.29449E-04-5.99799E-05-2.98280E-05-1.34137E-05 1.53562E-18 1.88147E-19
 -1       738 4.74006E-05-1.73082E-05-1.23811E-05-2.16550E-05 1.43781E-18 1.55746E-18
 -1       739 7.67309E-05-3.65951E-05-1.68530E-05-3.52457E-05 1.78041E-18-3.62424E-19
 -1       740 1.31517E-04-4.52490E-05-3.72096E-05-1.25985E-05-5.95332E-19 2.04504E-18
 -1       741 9.12851E-05-1.67841E-05-3.19306E-05-2.31347E-06-1.04370E-18-1.35106E-18
 -1       742 8.73944E-05-1.27986E-05-3.19739E-05-4.51727E-07-1.75525E-19-1.71149E-18
 -1       743 4.45264E-05-1.41490E-05-1.26021E-05 1.56281E-05-4.64012E-19 1.59695E-18
 -1       744 4.24372E-05-1.23180E-05-1.24358E-05-5.56531E-06-1.67441E-19-4.18564E-18
 -1       745 1.31818E-04-5.13225E-05-3.45618E-05-3.56699E-06-2.31015E-20-2.28526E-18
 -1       746 1.24042E-04-5.15555E-05-3.10674E-05-2.38538E-06 5.31343E-19 5.96209E-19
 -1       747 9.52479E-05-2.85652E-05-2.85783E-05-2.33195E-08 4.97865E-19 1.02424E-18
 -1       748 6.26404E-05-2.47860E-05-1.59171E-05-2.85253E-05-1.96305E-18-1.68767E-18
 -1       749 9.52456E-05-2.85693E-05-2.85756E-05-2.95975E-08-1.60631E-18-9.46709E-20
 -1       750 9.31121E-05-4.24265E-05-2.15319E-05 3.03104E-05-1.70501E-18-1.57846E-19
 -1       751 9.52466E-05-2.85645E-05-2.85780E-05 2.70910E-08 7.58377E-19-9.75718E-19
 -1       752 4.49191E-05-1.71112E-05-1.14302E-05 2.03537E-05 8.75038E-19-3.76130E-18
 -1       753 8.80137E-05-1.34019E-05-3.19811E-05-1.02087E-06-5.14784E-19-1.64888E-18
 -1       754 1.18001E-04-1.65677E-05-4.38893E-05-1.04765E-05 2.16660E-18-2.52106E-18
 -1       755 9.38323E-05-2.10598E-05-3.11855E-05 2.60395E-07 1.09049E-18-1.15206E-18
 -1       756 1.16743E-04-2.07803E-05-4.13971E-05 1.20588E-05 1.80717E-18 5.79238E-19
 -1       757 9.61868E-05-4.24190E-05-2.28927E-05-2.70961E-05 1.62041E-18-5.29905E-19
 -1       758 9.37168E-05-2.36244E-05-3.00395E-05 5.54301E-06-4.44453E-19-8.12871E-19
 -1       759 9.33499E-05-2.42334E-05-2.96211E-05 7.66376E-06-5.60282E-19-7.79266E-19
 -1       760 9.30040E-05-2.48720E-05-2.91991E-05 9.65770E-06-1.12569E-19-6.16097E-19
 -1       761 9.29535E-05-2.59278E-05-2.87248E-05 1.16360E-05 3.48949E-19-7.47446E-19
 -1       762 9.36330E-05-2.79035E-05-2.81686E-05 1.36885E-05 6.09868E-19-7.02419E-19
 -1       763 9.57252E-05-3.14310E-05-2.75484E-05 1.58095E-05 5.94192E-19-1.64554E-19
 -1       764 1.00376E-04-3.73320E-05-2.70204E-05 1.77501E-05 7.84083E-19 2.29290E-19
 -1       765 1.08996E-04-4.59362E-05-2.69646E-05 1.82762E-05 1.12625E-18 7.68100E-19
 -1       766 9.36870E-05-2.11770E-05-3.10769E-05 5.11827E-07-9.24065E-19-8.09128E-19
 -1       767 9.66964E-05-3.29561E-05-2.73262E-05-1.55139E-05-9.49428E-19 1.36053E-18
 -1       768 9.36347E-05-2.86529E-05-2.78488E-05-1.34668E-05-3.50781E-19 9.53490E-19
 -1       769 9.24836E-05-2.63512E-05-2.83416E-05-1.14221E-05 2.65412E-19 1.23839E-19
 -1       770 9.22695E-05-2.52985E-05-2.87013E-05-9.61651E-06 1.07554E-18 8.99571E-19
 -1       771 9.25151E-05-2.50093E-05-2.89307E-05-8.03022E-06 1.18309E-18 2.10175E-18
 -1       772 9.29399E-05-2.51468E-05-2.90538E-05-6.63818E-06 1.00082E-18 2.51386E-18
 -1       773 9.33969E-05-2.54975E-05-2.90995E-05-5.42134E-06 2.85161E-19 3.23470E-18
 -1       774 9.38165E-05-2.59314E-05-2.90934E-05-4.36795E-06-8.90002E-19 2.02882E-18
 -1       775 9.41717E-05-2.63741E-05-2.90559E-05-3.46835E-06-4.13978E-19 1.16013E-18
 -1       776 9.44577E-05-2.67865E-05-2.90019E-05-2.71200E-06-4.10757E-19 6.09251E-19
 -1       777 9.46805E-05-2.71503E-05-2.89414E-05-2.08645E-06-7.71262E-19 1.08549E-18
 -1       778 9.48494E-05-2.74599E-05-2.88812E-05-1.57758E-06-1.67283E-18 5.92689E-19
 -1       779 9.49747E-05-2.77164E-05-2.88250E-05-1.17037E-06-1.39999E-18 1.35134E-18
 -1       780 9.50658E-05-2.79244E-05-2.87749E-05-8.49755E-07-2.10468E-18 1.77701E-18
 -1       781 9.51306E-05-2.80899E-05-2.87317E-05-6.01395E-07-7.22021E-19 1.95726E-18
 -1       782 9.51755E-05-2.82195E-05-2.86954E-05-4.12170E-07 3.55757E-19 2.41500E-18
 -1       783 9.52057E-05-2.83192E-05-2.86656E-05-2.70488E-07 9.68673E-19 2.45269E-18
 -1       784 9.52250E-05-2.83949E-05-2.86415E-05-1.66408E-07 3.58443E-20 2.54236E-18
 -1       785 9.52367E-05-2.84515E-05-2.86222E-05-9.16401E-08 5.42869E-19-2.30660E-19
 -1       786 9.52432E-05-2.84937E-05-2.86069E-05-3.94910E-08 7.02219E-19-2.63323E-18
 -1       787 9.52461E-05-2.85250E-05-2.85947E-05-4.80012E-09-1.88914E-19-1.81038E-18
 -1       788 9.52468E-05-2.85472E-05-2.85856E-05 1.52752E-08 6.37591E-19-4.01413E-19
 -1       789 9.60577E-05-2.65919E-05-2.97709E-05-6.56306E-06 3.80173E-19-5.94187E-19
 -1       790 1.03024E-04-3.52732E-05-2.90364E-05-9.35053E-06-4.96354E-19 3.05662E-19
 -1       791 9.98597E-05-3.19290E-05-2.91132E-05-9.63381E-06-1.04068E-19 3.06298E-19
 -1       792 1.13179E-04-4.36291E-05-2.98217E-05-4.10835E-06-7.56295E-19 6.30555E-19
 -1       793 1.18664E-04-4.56806E-05-3.12918E-05 2.01321E-06-3.57726E-19 1.47521E-18
 -1       794 1.21307E-04-4.25749E-05-3.38754E-05 9.35198E-06 5.19407E-19 2.49635E-18
 -1       795 1.09897E-04-1.52143E-05-4.08541E-05-1.81542E-06 1.79230E-18-8.86205E-19
 -1       796 1.15051E-04-2.19553E-05-4.01290E-05-1.25429E-05 2.00053E-18-2.42294E-18
 -1       797 1.20070E-04-3.49057E-05-3.66892E-05-1.43190E-05 1.01835E-18-2.19837E-18
 -1       798 1.21267E-04-4.37010E-05-3.32985E-05-8.72891E-06 4.15715E-19-1.80002E-18
 -1       799 1.17445E-04-4.52529E-05-3.09579E-05-1.36469E-06 2.14594E-19-1.20380E-18
 -1       800 1.11645E-04-4.24189E-05-2.96708E-05 4.22844E-06-4.28112E-19-1.33958E-19
 -1       801 1.06170E-04-3.81431E-05-2.91568E-05 7.24167E-06-1.56173E-19 7.51976E-19
 -1       802 1.01933E-04-3.41985E-05-2.90297E-05 8.43254E-06-8.83727E-19 5.14942E-19
 -1       803 9.90121E-05-3.11918E-05-2.90659E-05 8.51474E-06-1.91568E-19-5.87654E-19
 -1       804 9.71623E-05-2.91658E-05-2.91412E-05 7.98524E-06-5.21932E-19-1.50512E-18
 -1       805 9.60714E-05-2.79410E-05-2.91986E-05 7.15167E-06-1.25408E-18-2.72623E-19
 -1       806 9.54758E-05-2.72971E-05-2.92192E-05 6.19745E-06-9.50077E-19 1.15634E-18
 -1       807 9.51822E-05-2.70390E-05-2.92040E-05 5.23180E-06 1.04296E-18 1.99699E-18
 -1       808 9.50617E-05-2.70184E-05-2.91612E-05 4.31790E-06 6.18035E-19 1.27412E-18
 -1       809 9.50339E-05-2.71312E-05-2.91009E-05 3.49091E-06 6.29758E-19 1.05647E-18
 -1       810 9.50509E-05-2.73088E-05-2.90321E-05 2.76770E-06 6.05509E-19 8.20433E-19
 -1       811 9.50855E-05-2.75080E-05-2.89617E-05 2.15270E-06-5.71749E-19-5.57074E-19
 -1       812 9.51235E-05-2.77032E-05-2.88943E-05 1.64212E-06-2.71049E-19-9.71481E-19
 -1       813 9.51579E-05-2.78806E-05-2.88330E-05 1.22722E-06 4.83589E-19-4.56778E-19
 -1       814 9.51862E-05-2.80343E-05-2.87793E-05 8.96684E-07-4.75256E-19 1.52199E-18
 -1       815 9.52077E-05-2.81627E-05-2.87335E-05 6.38247E-07-2.64591E-19 2.41911E-18
 -1       816 9.52232E-05-2.82669E-05-2.86955E-05 4.39877E-07-3.70476E-19 2.25187E-18
 -1       817 9.52336E-05-2.83494E-05-2.86646E-05 2.90443E-07 1.15358E-18 2.28977E-18
 -1       818 9.52401E-05-2.84135E-05-2.86399E-05 1.80095E-07 1.07148E-18 5.27964E-19
 -1       819 9.52436E-05-2.84623E-05-2.86205E-05 1.00422E-07 6.78449E-19 6.30464E-19
 -1       820 9.52451E-05-2.84992E-05-2.86054E-05 4.45216E-08-9.79782E-19 1.96116E-18
 -1       821 9.52454E-05-2.85270E-05-2.85936E-05 7.09293E-09-1.61693E-18 2.27122E-18
 -1       822 9.52451E-05-2.85484E-05-2.85843E-05-1.62981E-08-1.54325E-18 5.88044E-19
 -1       823 9.52451E-05-2.85590E-05-2.85798E-05-2.47377E-08-2.41160E-18 6.82467E-19
 -1       824 6.49135E-05-2.58323E-05-1.64288E-05 2.92358E-05-1.89002E-18 2.88184E-18
 -1       825 8.87387E-05-1.56086E-05-3.13424E-05-2.95013E-07 2.96522E-19-1.18211E-18
 -1       826 9.56945E-05-2.54751E-05-3.00939E-05-4.71551E-06 7.30444E-19-7.08551E-19
 -1       827 9.52385E-05-2.85210E-05-2.85932E-05-5.64530E-10-1.48845E-19-1.02606E-18
 -1       828 9.52465E-05-2.85404E-05-2.85883E-05 1.04165E-08 5.85192E-19 1.17835E-18
 -1       829 9.52431E-05-2.85305E-05-2.85911E-05 4.71639E-09 9.96971E-19-8.00117E-19
 -1       830 9.28539E-05-1.84342E-05-3.18935E-05-2.95621E-06-1.27477E-18-1.15623E-18
 -1       831 1.01513E-04-4.58842E-05-2.36572E-05 2.72344E-05 1.78705E-18 1.16264E-18
 -1       832 1.07500E-04-3.93899E-05-2.91981E-05-7.76361E-06-6.62052E-19 4.56074E-19
 -1       833 1.22568E-04-5.44459E-05-2.92070E-05 1.06764E-05-1.08483E-18-1.50882E-18
 -1       834 1.25511E-04-4.08470E-05-3.63999E-05 1.14452E-05 4.85224E-19 2.37417E-18
 -1       835 1.02654E-04-3.97640E-05-2.69266E-05-1.71410E-05 8.78284E-20 1.55640E-18
 -1       836 9.38937E-05-2.27046E-05-3.05089E-05 3.18698E-06-7.25475E-19-6.92940E-19
 -1       837 1.24718E-04-3.40703E-05-3.91352E-05-1.42905E-05 1.11721E-18-2.64824E-18
 -1       838 9.19947E-05-4.19321E-05-2.12602E-05-3.15283E-05-2.33812E-18-3.31170E-19
 -1       839 6.92051E-05-2.85238E-05-1.71265E-05 3.02104E-05 1.76023E-18-1.97983E-18
 -1       840 1.15254E-04-1.17226E-05-4.47659E-05 5.51880E-07 2.44226E-18-1.66594E-18
 -1       841 4.97037E-05-1.23721E-05-1.56684E-05-5.83737E-06-1.37759E-19 2.79733E-19
 -1       842 9.54175E-05-2.33839E-05-3.08708E-05-4.30480E-07 1.15490E-18-8.62153E-19
 -1       843 1.27977E-04-5.44309E-05-3.15436E-05-4.14125E-06-1.02142E-18 1.43769E-18
 -1       844 1.12974E-04-5.02272E-05-2.67943E-05-1.80809E-05 1.21933E-18 2.66246E-19
 -1       845 6.89418E-05-2.54136E-05-1.84662E-05-2.55682E-05 1.26380E-18 7.57009E-19
 -1       846 1.14347E-04-5.35260E-05-2.60164E-05-2.21655E-05-2.27688E-18 1.03180E-19
 -1       847 9.52399E-05-2.85236E-05-2.85927E-05 1.57993E-09 1.07750E-18 1.10669E-18
 -1       848 1.20859E-04-5.39073E-05-2.86423E-05 1.32449E-05 1.48078E-18 1.41644E-18
 -1       849 8.82119E-05-1.50871E-05-3.13401E-05-2.76083E-07-4.70356E-20-1.39863E-18
 -1       850 4.88808E-05-1.32190E-05-1.49684E-05 6.61846E-06 7.23844E-19-3.50791E-18
 -1       851 9.78665E-05-2.95215E-05-2.92906E-05-9.08966E-06-3.30345E-19 8.95375E-20
 -1       852 5.42473E-05-1.74343E-05-1.54420E-05-1.85379E-05-1.25821E-18-2.59489E-18
 -1       853 9.52395E-05-2.85233E-05-2.85927E-05-2.33432E-09 1.00382E-18-2.12438E-18
 -1       854 9.52455E-05-2.85396E-05-2.85882E-05-1.06464E-08-1.16068E-18 9.28601E-19
 -1       855 9.56257E-05-2.46039E-05-3.04390E-05-2.75615E-06 8.33207E-19-8.58436E-19
 -1       856 1.19322E-04-3.25644E-05-3.72887E-05 1.37685E-05 9.81208E-19 2.14152E-18
 -1       857 8.25739E-05-3.36675E-05-2.08634E-05 2.79922E-05-2.32456E-18 1.09083E-18
 -1       858 9.52425E-05-2.85300E-05-2.85910E-05-5.49950E-09 8.32132E-19-4.56341E-18
 -1       859 8.99571E-05-1.68332E-05-3.13399E-05-1.95614E-07 7.32769E-19-1.25914E-18
 -1       860 1.10375E-04-4.93337E-05-2.60926E-05 1.96937E-05-2.27600E-18-8.34413E-19
 -1       861 6.32212E-05-1.74322E-05-1.94978E-05-1.45700E-05-5.81094E-21-1.13158E-20
 -1       862 9.66985E-05-2.78381E-05-2.95113E-05-8.02577E-06 1.01800E-19-2.53612E-19
 -1       863 9.17236E-05-1.86813E-05-3.13046E-05 2.15151E-08 1.02918E-18-1.08416E-18
 -1       864 9.52469E-05-2.85431E-05-2.85873E-05 1.25591E-08-7.62156E-20 1.24388E-20
 -1       865 8.94695E-05-1.63301E-05-3.13477E-05-1.09881E-07-4.93246E-19-1.57242E-18
 -1       866 9.11577E-05-1.80664E-05-3.13276E-05-7.69233E-08-7.19261E-19-1.19004E-18
 -1       867 7.89494E-05-2.99663E-05-2.08618E-05-2.56404E-05-1.74895E-18-9.06080E-19
 -1       868 9.01411E-05-2.24184E-05-2.90240E-05 7.57306E-06-2.91297E-19-6.44787E-19
 -1       869 8.89776E-05-2.28743E-05-2.83302E-05 9.57871E-06 1.24819E-20-5.61634E-19
 -1       870 8.78838E-05-2.37399E-05-2.74906E-05 1.19140E-05 3.89723E-19-7.52842E-19
 -1       871 8.72630E-05-2.55510E-05-2.64490E-05 1.49130E-05 6.69583E-19-1.08513E-18
 -1       872 8.80076E-05-2.91877E-05-2.51878E-05 1.90248E-05 1.06639E-18-1.01260E-18
 -1       873 1.18216E-04-5.07671E-05-2.88740E-05-1.03638E-05-1.83403E-18 2.17300E-19
 -1       874 8.84581E-05-1.53249E-05-3.13437E-05-1.93952E-07-2.55707E-19-1.44694E-18
 -1       875 8.65991E-05-2.39374E-05-2.68559E-05-1.20830E-05-2.66157E-19 1.35240E-18
 -1       876 8.75000E-05-2.30722E-05-2.76116E-05-9.69075E-06 1.00256E-18 2.06676E-18
 -1       877 8.86644E-05-2.29982E-05-2.81426E-05-7.88297E-06 1.56502E-18 3.58768E-19
 -1       878 8.98445E-05-2.33561E-05-2.84948E-05-6.45270E-06 1.70838E-18 4.49101E-19
 -1       879 9.09273E-05-2.39296E-05-2.87132E-05-5.27361E-06 7.71090E-19 1.39635E-18
 -1       880 9.18663E-05-2.45838E-05-2.88353E-05-4.28002E-06-1.60406E-19 1.27360E-18
 -1       881 9.26504E-05-2.52372E-05-2.88914E-05-3.43686E-06-1.25267E-18 1.75809E-18
 -1       882 9.32872E-05-2.58444E-05-2.89040E-05-2.72389E-06-2.07220E-18-4.43636E-19
 -1       883 9.37932E-05-2.63832E-05-2.88900E-05-2.12708E-06 6.54533E-20-1.53587E-18
 -1       884 9.41878E-05-2.68457E-05-2.88609E-05-1.63430E-06-2.01288E-19-4.66544E-19
 -1       885 9.44902E-05-2.72327E-05-2.88246E-05-1.23360E-06-9.59650E-19 1.35988E-18
 -1       886 9.47182E-05-2.75496E-05-2.87865E-05-9.12974E-07-1.64022E-18 1.59957E-18
 -1       887 9.48870E-05-2.78042E-05-2.87497E-05-6.60568E-07-6.97725E-19 2.15973E-18
 -1       888 9.50096E-05-2.80053E-05-2.87161E-05-4.65147E-07-2.19024E-19 3.14434E-18
 -1       889 9.50965E-05-2.81615E-05-2.86864E-05-3.16420E-07 5.67216E-19 1.33342E-18
 -1       890 9.51565E-05-2.82809E-05-2.86610E-05-2.05270E-07 2.21184E-19 2.36775E-19
 -1       891 9.51964E-05-2.83709E-05-2.86395E-05-1.23862E-07 3.43284E-19 9.25878E-20
 -1       892 9.52216E-05-2.84378E-05-2.86216E-05-6.56257E-08-1.01772E-18 1.79157E-18
 -1       893 9.52366E-05-2.84876E-05-2.86068E-05-2.56306E-08 5.74834E-20 6.54730E-19
 -1       894 9.76882E-05-3.21120E-05-2.81020E-05-1.21259E-05-1.18188E-19-4.78343E-19
 -1       895 8.53400E-05-3.25433E-05-2.25353E-05 2.51882E-05 1.78032E-18-6.56874E-19
 -1       896 1.13515E-04-4.67995E-05-2.85920E-05 9.52701E-06-1.21445E-18-4.80814E-19
 -1       897 1.05550E-04-4.05677E-05-2.78331E-05 1.18916E-05-5.13690E-19 4.47124E-20
 -1       898 9.99039E-05-3.50734E-05-2.77796E-05 1.19117E-05-5.73587E-19-4.92522E-19
 -1       899 9.63639E-05-3.10358E-05-2.79956E-05 1.09174E-05-1.26254E-20-1.17263E-18
 -1       900 9.43951E-05-2.84118E-05-2.82777E-05 9.58258E-06-1.05181E-18-3.83075E-19
 -1       901 9.34513E-05-2.68767E-05-2.85317E-05 8.20943E-06-1.65862E-18 1.11256E-18
 -1       902 9.31355E-05-2.61141E-05-2.87234E-05 6.91392E-06-1.98788E-18 1.01894E-18
 -1       903 9.31744E-05-2.58602E-05-2.88489E-05 5.74129E-06-2.94790E-19 4.54046E-19
 -1       904 9.33909E-05-2.59162E-05-2.89177E-05 4.70194E-06 1.76988E-18 1.20507E-18
 -1       905 9.36791E-05-2.61459E-05-2.89428E-05 3.79550E-06 6.48114E-19 1.45399E-18
 -1       906 9.39780E-05-2.64580E-05-2.89371E-05 3.01808E-06 1.15640E-18 1.66526E-18
 -1       907 9.42547E-05-2.67938E-05-2.89118E-05 2.36250E-06 8.19652E-19 1.56658E-18
 -1       908 9.44942E-05-2.71182E-05-2.88754E-05 1.81891E-06-2.17914E-19-2.39760E-19
 -1       909 9.46919E-05-2.74119E-05-2.88343E-05 1.37571E-06-3.71232E-19 6.44129E-19
 -1       910 9.48494E-05-2.76663E-05-2.87928E-05 1.02032E-06-1.09279E-18 2.32668E-18
 -1       911 9.49710E-05-2.78794E-05-2.87535E-05 7.40033E-07-7.31969E-19 2.56811E-18
 -1       912 9.50620E-05-2.80529E-05-2.87182E-05 5.22629E-07-6.40655E-19 1.74258E-18
 -1       913 9.51281E-05-2.81911E-05-2.86873E-05 3.56863E-07 1.03049E-18 8.57597E-19
 -1       914 9.51746E-05-2.82986E-05-2.86611E-05 2.32748E-07 1.40582E-18 1.48678E-18
 -1       915 9.52058E-05-2.83809E-05-2.86393E-05 1.41654E-07 7.36770E-19 1.75226E-18
 -1       916 9.52258E-05-2.84428E-05-2.86213E-05 7.63201E-08-9.92354E-19 1.88410E-18
 -1       917 9.52379E-05-2.84894E-05-2.86065E-05 3.07601E-08-1.49690E-18 1.88187E-18
 -1       918 9.52439E-05-2.85234E-05-2.85945E-05 7.44073E-10-1.09049E-18 2.73692E-18
 -1       919 9.39032E-05-2.42914E-05-2.98337E-05-5.54747E-06 4.07348E-19-6.33211E-19
 -1       920 9.52467E-05-2.85504E-05-2.85841E-05-1.75077E-08-1.29944E-18 1.63257E-18
 -1       921 8.56658E-05-3.13438E-05-2.32201E-05-2.23634E-05 3.37313E-19-4.57054E-19
 -1       922 9.52380E-05-2.85038E-05-2.86003E-05-6.64289E-09 1.28352E-18-7.19113E-19
 -1       923 5.50719E-05-1.40567E-05-1.73615E-05 9.20457E-06-3.79266E-19 1.37859E-18
 -1       924 8.64781E-05-2.60996E-05-2.58648E-05-1.53262E-05-9.53077E-19 1.48569E-18
 -1       925 6.26162E-05-1.97291E-05-1.81972E-05 1.96521E-05 1.59348E-18-2.19792E-18
 -1       926 9.17699E-05-2.12534E-05-3.02217E-05 3.68442E-06-5.95084E-19-6.59097E-19
 -1       927 9.11275E-05-2.19814E-05-2.96344E-05 5.65746E-06-4.94475E-19-7.07291E-19
 -1       928 9.16961E-05-1.99462E-05-3.07493E-05 1.80672E-06-6.32289E-19-8.11965E-19
 -1       929 6.65445E-05-2.10492E-05-1.93586E-05 2.04822E-05-1.15318E-18 1.82284E-18
 -1       930 1.03505E-04-4.47156E-05-2.51588E-05-2.20591E-05-1.88950E-18 2.88471E-19
 -1       931 9.55448E-05-2.90369E-05-2.85026E-05-1.07365E-05-2.81578E-19-3.76399E-19
 -1       932 5.25228E-05-1.36328E-05-1.64066E-05-6.98451E-06-3.16707E-19-3.00722E-18
 -1       933 8.91146E-05-1.74374E-05-3.07193E-05 7.17025E-07-3.20147E-19-1.35140E-18
 -1       934 9.39883E-05-2.33507E-05-3.02730E-05-3.74713E-06 5.56035E-19-9.31100E-19
 -1       935 9.52265E-05-2.84827E-05-2.86045E-05 2.39762E-09 9.26922E-19-1.20418E-18
 -1       936 1.01699E-04-3.66592E-05-2.78863E-05-1.28990E-05-2.19018E-19-3.26916E-19
 -1       937 9.52438E-05-2.85191E-05-2.85963E-05-3.56940E-09 2.10525E-18 2.63203E-19
 -1       938 1.07791E-04-4.28918E-05-2.77753E-05-1.33138E-05-7.52377E-19-2.29561E-19
 -1       939 7.05947E-05-2.33428E-05-2.01112E-05-2.13555E-05-9.15006E-19-1.04736E-18
 -1       940 9.20894E-05-3.55216E-05-2.42286E-05-2.22236E-05-1.38115E-18-3.57741E-19
 -1       941 1.00055E-04-4.25690E-05-2.45483E-05 2.27426E-05-1.73052E-18-1.35985E-18
 -1       942 9.40453E-05-2.55031E-05-2.93753E-05-7.41950E-06 5.94457E-20-2.65625E-19
 -1       943 9.52320E-05-2.84916E-05-2.86031E-05-6.72948E-09 3.43624E-19 4.17806E-19
 -1       944 7.70878E-05-2.32111E-05-2.30218E-05-1.72357E-05 5.85074E-19 4.39030E-20
 -1       945 9.33452E-05-2.17019E-05-3.07064E-05-1.98113E-06 8.13810E-19-9.89675E-19
 -1       946 9.52261E-05-2.84814E-05-2.86046E-05-3.42621E-09 5.10394E-19 6.77361E-19
 -1       947 9.52376E-05-2.85033E-05-2.86005E-05 7.17429E-09-1.46714E-18-1.47142E-18
 -1       948 9.02228E-05-1.84845E-05-3.07404E-05 1.31504E-06-3.68357E-19-1.27719E-18
 -1       949 5.89214E-05-1.36533E-05-1.92840E-05-1.65618E-06 6.62129E-19-4.71294E-20
 -1       950 8.97081E-05-1.80187E-05-3.07246E-05-1.37449E-06 3.54760E-19-8.69044E-19
 -1       951 8.87042E-05-1.70525E-05-3.07079E-05-7.87275E-07 1.15803E-19-9.90246E-19
 -1       952 8.42688E-05-2.06341E-05-2.72734E-05 8.24966E-06 1.57004E-19-5.62235E-19
 -1       953 8.15076E-05-2.08623E-05-2.59932E-05 1.06729E-05 4.08481E-19-8.44036E-19
 -1       954 7.83558E-05-2.16954E-05-2.42629E-05 1.43030E-05 6.28634E-19-8.62522E-19
 -1       955 8.84887E-05-1.68421E-05-3.07055E-05-4.70308E-08-1.81742E-19-1.21619E-18
 -1       956 6.08628E-05-1.49658E-05-1.95290E-05 7.47206E-06 6.60653E-19-2.34840E-18
 -1       957 9.44765E-05-2.69601E-05-2.89354E-05-9.14328E-06-3.20147E-19-1.71563E-19
 -1       958 8.44557E-05-2.08592E-05-2.72561E-05-6.67460E-06 3.13557E-19 1.94454E-18
 -1       959 8.65575E-05-2.15474E-05-2.78616E-05-5.40243E-06 6.36426E-19 7.84344E-19
 -1       960 8.83297E-05-2.23725E-05-2.82673E-05-4.41933E-06 1.43215E-18-1.96612E-18
 -1       961 8.98076E-05-2.32420E-05-2.85282E-05-3.61763E-06 1.17234E-18-1.24071E-18
 -1       962 9.10250E-05-2.40906E-05-2.86862E-05-2.94308E-06-4.12796E-19 5.43998E-20
 -1       963 9.20142E-05-2.48771E-05-2.87731E-05-2.36838E-06-2.47335E-18 2.92940E-19
 -1       964 9.28073E-05-2.55795E-05-2.88119E-05-1.87972E-06-1.40317E-18 4.06450E-20
 -1       965 9.34345E-05-2.61887E-05-2.88196E-05-1.46856E-06 7.90928E-19-1.38232E-19
 -1       966 9.39234E-05-2.67043E-05-2.88082E-05-1.12768E-06 5.49640E-19 5.57684E-19
 -1       967 9.42990E-05-2.71316E-05-2.87861E-05-8.49700E-07-8.91206E-19 4.77068E-19
 -1       968 9.45829E-05-2.74789E-05-2.87589E-05-6.26888E-07-8.85042E-19 4.75489E-19
 -1       969 9.47939E-05-2.77563E-05-2.87304E-05-4.51383E-07 2.21835E-19-1.36213E-18
 -1       970 9.49475E-05-2.79742E-05-2.87029E-05-3.15571E-07-3.88409E-19-1.03184E-18
 -1       971 9.50569E-05-2.81425E-05-2.86776E-05-2.12389E-07 7.76117E-19-1.25585E-18
 -1       972 9.51323E-05-2.82704E-05-2.86551E-05-1.35512E-07 4.01106E-19-9.77069E-19
 -1       973 9.51826E-05-2.83663E-05-2.86356E-05-7.96332E-08 8.53708E-19 1.50839E-19
 -1       974 9.52150E-05-2.84383E-05-2.86187E-05-3.88310E-08-4.53222E-19 6.67769E-19
 -1       975 9.13428E-05-1.96260E-05-3.07358E-05-1.76528E-06 7.38798E-19-9.78553E-19
 -1       976 9.56098E-05-3.48437E-05-2.60391E-05 1.67240E-05-3.84358E-20 3.89073E-19
 -1       977 9.05036E-05-2.70137E-05-2.72087E-05 1.11871E-05-3.31652E-19 6.39049E-19
 -1       978 9.00832E-05-2.53935E-05-2.77243E-05 9.03433E-06-1.90720E-18-1.28982E-19
 -1       979 9.02791E-05-2.46521E-05-2.81260E-05 7.29006E-06-1.21379E-18 4.98448E-20
 -1       980 9.07966E-05-2.44925E-05-2.84164E-05 5.87737E-06-1.18810E-18-6.66091E-19
 -1       981 9.14363E-05-2.46728E-05-2.86131E-05 4.72576E-06 5.58221E-19-3.58198E-19
 -1       982 9.20951E-05-2.50445E-05-2.87361E-05 3.77463E-06 1.17305E-19 1.28490E-18
 -1       983 9.27139E-05-2.55059E-05-2.88036E-05 2.98778E-06 2.37978E-19 2.51655E-18
 -1       984 9.32621E-05-2.59888E-05-2.88315E-05 2.33893E-06 5.91152E-19 3.07049E-18
 -1       985 9.37279E-05-2.64515E-05-2.88328E-05 1.80750E-06 3.52648E-19 4.78031E-18
 -1       986 9.41110E-05-2.68704E-05-2.88174E-05 1.37645E-06 3.86891E-19 4.22990E-18
 -1       987 9.44174E-05-2.72347E-05-2.87927E-05 1.03091E-06-9.78586E-19 1.22933E-18
 -1       988 9.46565E-05-2.75414E-05-2.87636E-05 7.57518E-07-1.40846E-18-2.25495E-19
 -1       989 9.48385E-05-2.77931E-05-2.87338E-05 5.44234E-07 7.19357E-19-1.04184E-19
 -1       990 9.49737E-05-2.79948E-05-2.87053E-05 3.80300E-07 8.48553E-19-4.76074E-19
 -1       991 9.50715E-05-2.81533E-05-2.86792E-05 2.56319E-07 8.34493E-19-7.28644E-19
 -1       992 9.51399E-05-2.82753E-05-2.86563E-05 1.64240E-07 1.33763E-19-4.55661E-20
 -1       993 9.51860E-05-2.83675E-05-2.86365E-05 9.73766E-08-6.27781E-19 1.59164E-18
 -1       994 9.52157E-05-2.84366E-05-2.86195E-05 4.96660E-08-1.20379E-18 9.76295E-19
 -1       995 9.52308E-05-2.84903E-05-2.86031E-05 6.04954E-09 9.61261E-21-4.52272E-18
 -1       996 7.38852E-05-2.19021E-05-2.22044E-05 1.74550E-05 1.28026E-18-1.13793E-18
 -1       997 1.03898E-04-4.19884E-05-2.65302E-05 1.64490E-05-9.37086E-19-3.05776E-19
 -1       998 8.83622E-05-2.04882E-05-2.90894E-05 4.91841E-06-2.54107E-19-5.43559E-19
 -1       999 8.20075E-05-2.04724E-05-2.63720E-05-8.47235E-06 1.14298E-18 1.03975E-18
 -1      1000 8.10191E-05-2.78555E-05-2.27288E-05 2.10263E-05-1.83569E-18 9.33589E-19
 -1      1001 7.92074E-05-2.05685E-05-2.51324E-05-1.11303E-05-1.56905E-19 9.34468E-19
 -1      1002 9.20276E-05-2.99369E-05-2.66084E-05 1.38105E-05-1.09609E-19 6.46806E-19
 -1      1003 8.95731E-05-2.00167E-05-2.98097E-05 3.43535E-06-3.64742E-19-1.01832E-18
 -1      1004 8.65659E-05-2.06043E-05-2.82700E-05 6.45501E-06-4.12611E-20-4.31388E-19
 -1      1005 6.76771E-05-1.64213E-05-2.19255E-05-8.27991E-06 5.84726E-19 5.23953E-20
 -1      1006 6.39586E-05-1.54938E-05-2.06793E-05 7.88876E-06 1.68166E-20 9.53230E-19
 -1      1007 9.18505E-05-2.78395E-05-2.74368E-05-1.24299E-05-1.38686E-19-6.46390E-19
 -1      1008 9.00467E-05-1.93965E-05-3.02760E-05 2.38157E-06-3.52107E-19-1.13992E-18
 -1      1009 8.83053E-05-1.81581E-05-3.00648E-05 8.31665E-07-1.57857E-19-1.18118E-18
 -1      1010 9.20357E-05-2.19314E-05-3.00434E-05-4.05280E-06 2.66539E-19-8.45896E-19
 -1      1011 9.38102E-05-3.13761E-05-2.67415E-05-1.52257E-05-2.15993E-19-8.77893E-19
 -1      1012 9.51984E-05-2.84105E-05-2.86234E-05 3.45882E-08 8.48810E-19-4.00250E-19
 -1      1013 9.51874E-05-2.83943E-05-2.86256E-05 1.47892E-08 2.06912E-18-1.36812E-18
 -1      1014 9.05117E-05-2.01762E-05-3.01419E-05-3.01061E-06 1.55036E-19-5.51720E-19
 -1      1015 7.35621E-05-2.01835E-05-2.28462E-05 1.32997E-05-4.51990E-19 3.86535E-19
 -1      1016 8.40954E-05-2.97763E-05-2.32189E-05-2.14765E-05-9.45481E-19-1.52340E-19
 -1      1017 8.89485E-05-1.87580E-05-3.00804E-05-1.96162E-06 8.28473E-20-8.02200E-19
 -1      1018 6.53234E-05-1.81273E-05-2.01324E-05-1.41254E-05-6.19954E-19-1.73238E-18
 -1      1019 9.51869E-05-2.83934E-05-2.86259E-05-9.41564E-09 1.44858E-18-1.12555E-18
 -1      1020 9.18376E-05-2.31285E-05-2.94469E-05-5.95848E-06 2.73521E-20-4.63397E-19
 -1      1021 6.76740E-05-1.53783E-05-2.23760E-05-2.32636E-07-3.98770E-19-3.94316E-19
 -1      1022 8.81859E-05-1.80621E-05-3.00532E-05-6.44416E-07-3.88228E-20-9.25553E-19
 -1      1023 7.45107E-05-1.77383E-05-2.43147E-05 6.66243E-06 4.11981E-19-1.33085E-18
 -1      1024 8.30548E-05-1.90428E-05-2.74361E-05 3.98106E-06-8.94602E-20-1.02330E-18
 -1      1025 8.57249E-05-1.93073E-05-2.84683E-05 3.13728E-06-1.37106E-19-9.51478E-19
 -1      1026 9.15774E-05-2.42721E-05-2.88440E-05-7.89394E-06-5.63600E-20-4.95112E-19
 -1      1027 8.58970E-05-2.10234E-05-2.78032E-05-2.76489E-06-1.68581E-20-4.11089E-19
 -1      1028 8.78748E-05-2.20674E-05-2.82036E-05-2.32195E-06 1.02069E-18-1.24496E-18
 -1      1029 8.94825E-05-2.30673E-05-2.84640E-05-1.94522E-06 7.28677E-19-2.16599E-18
 -1      1030 9.07859E-05-2.39926E-05-2.86260E-05-1.61026E-06-4.75723E-19-1.59432E-18
 -1      1031 9.18371E-05-2.48257E-05-2.87194E-05-1.31190E-06-1.54460E-18 2.72277E-19
 -1      1032 9.26770E-05-2.55571E-05-2.87659E-05-1.04991E-06-7.39495E-19-9.55373E-19
 -1      1033 9.33402E-05-2.61843E-05-2.87813E-05-8.24408E-07 4.39036E-19-2.18782E-18
 -1      1034 9.38570E-05-2.67109E-05-2.87770E-05-6.34499E-07 6.11496E-19-2.11999E-18
 -1      1035 9.42538E-05-2.71445E-05-2.87612E-05-4.78003E-07-1.12739E-18-1.67860E-18
 -1      1036 9.45536E-05-2.74950E-05-2.87395E-05-3.51735E-07-1.24002E-18-1.79384E-18
 -1      1037 9.47759E-05-2.77735E-05-2.87154E-05-2.51901E-07 6.13008E-19-1.56577E-18
 -1      1038 9.49375E-05-2.79911E-05-2.86914E-05-1.74544E-07 5.62608E-19-3.47117E-19
 -1      1039 9.50521E-05-2.81584E-05-2.86688E-05-1.15837E-07 1.27250E-18-7.56180E-19
 -1      1040 9.51305E-05-2.82844E-05-2.86483E-05-7.19378E-08 1.38105E-18-2.18674E-19
 -1      1041 9.51831E-05-2.83794E-05-2.86301E-05-4.06603E-08 5.09285E-19-5.07595E-19
 -1      1042 8.80840E-05-2.29327E-05-2.79234E-05 5.48345E-06-1.39560E-18 1.29409E-18
 -1      1043 8.68615E-05-2.28445E-05-2.74365E-05 7.10603E-06-1.17836E-18 1.38970E-18
 -1      1044 8.75903E-05-1.91670E-05-2.93276E-05 2.34327E-06 1.24887E-19-1.23729E-18
 -1      1045 6.87144E-05-1.65480E-05-2.23061E-05 7.14262E-06 5.62257E-19-1.84342E-18
 -1      1046 8.57328E-05-2.32847E-05-2.67670E-05 9.25978E-06-3.10589E-19 2.14411E-18
 -1      1047 8.92732E-05-2.33242E-05-2.82646E-05 4.28952E-06-7.29761E-19 1.29701E-18
 -1      1048 9.03669E-05-2.38773E-05-2.84961E-05 3.35461E-06-1.15185E-18 2.57280E-18
 -1      1049 9.13420E-05-2.45071E-05-2.86439E-05 2.61830E-06-5.07763E-19 2.22486E-18
 -1      1050 9.21821E-05-2.51452E-05-2.87304E-05 2.03308E-06-8.12467E-20 1.86827E-18
 -1      1051 9.28872E-05-2.57494E-05-2.87736E-05 1.56570E-06-2.54017E-19 2.51624E-18
 -1      1052 9.34652E-05-2.62952E-05-2.87874E-05 1.19280E-06 3.37963E-19 2.66458E-18
 -1      1053 9.39291E-05-2.67709E-05-2.87822E-05 8.96771E-07 1.88553E-19 3.61892E-18
 -1      1054 9.42935E-05-2.71736E-05-2.87658E-05 6.63664E-07 5.02987E-19 3.12727E-18
 -1      1055 9.45739E-05-2.75062E-05-2.87434E-05 4.81968E-07 5.87777E-19 4.24272E-19
 -1      1056 9.47851E-05-2.77747E-05-2.87188E-05 3.42015E-07-6.52886E-19 2.06887E-18
 -1      1057 9.49404E-05-2.79873E-05-2.86943E-05 2.35593E-07 6.20779E-19 4.00885E-18
 -1      1058 9.50520E-05-2.81526E-05-2.86712E-05 1.55851E-07 1.04727E-18 3.82886E-18
 -1      1059 9.51286E-05-2.82776E-05-2.86504E-05 9.79006E-08-3.32106E-19 1.85748E-18
 -1      1060 9.51685E-05-2.83504E-05-2.86363E-05 6.15862E-08 8.24509E-19 6.63076E-19
 -1      1061 9.13148E-05-2.56496E-05-2.81422E-05-1.00266E-05-4.68901E-20-5.33098E-19
 -1      1062 6.36789E-05-1.50459E-05-2.07868E-05-2.34983E-06 1.45059E-19-2.04052E-18
 -1      1063 8.03796E-05-1.89040E-05-2.63430E-05-4.07961E-06 3.30886E-19-1.56394E-18
 -1      1064 8.34264E-05-1.99314E-05-2.72099E-05-3.30773E-06 6.20301E-19-1.60909E-18
 -1      1065 7.65191E-05-1.79094E-05-2.51209E-05-5.19706E-06 1.79035E-19-2.09577E-19
 -1      1066 9.00717E-05-2.13334E-05-2.94615E-05-4.69755E-06 5.80473E-20-5.69065E-19
 -1      1067 7.94292E-05-1.84939E-05-2.61180E-05 5.07872E-06-2.42385E-20-9.62481E-19
 -1      1068 8.70126E-05-1.87336E-05-2.92617E-05 3.59023E-08-7.89830E-20-9.10394E-19
 -1      1069 8.69033E-05-2.36435E-05-2.71162E-05-1.02907E-05-1.16206E-19-4.11332E-19
 -1      1070 8.40104E-05-2.61734E-05-2.47766E-05 1.57300E-05-5.85882E-19 2.12901E-18
 -1      1071 7.71920E-05-2.40205E-05-2.27317E-05-1.79404E-05-5.87232E-19-5.70188E-19
 -1      1072 8.60880E-05-2.53825E-05-2.60151E-05-1.35721E-05-1.33696E-19-2.14669E-19
 -1      1073 8.46660E-05-2.42535E-05-2.58954E-05 1.19472E-05-3.18987E-19 2.00177E-18
 -1      1074 7.24182E-05-1.73837E-05-2.35870E-05 6.41417E-06-6.12049E-19 9.66652E-19
 -1      1075 9.51508E-05-2.83270E-05-2.86388E-05 2.87400E-08 1.10558E-18-2.07630E-18
 -1      1076 9.51472E-05-2.83220E-05-2.86394E-05-1.06433E-08 1.36084E-18-5.89805E-19
 -1      1077 8.35646E-05-2.62904E-05-2.45154E-05-1.67361E-05-3.76380E-19 5.77041E-21
 -1      1078 8.93669E-05-2.22789E-05-2.87480E-05-6.49039E-06 6.42290E-21-5.59010E-19
 -1      1079 8.37265E-05-1.87421E-05-2.78428E-05 2.14969E-07-1.35272E-19-1.12165E-18
 -1      1080 7.54717E-05-1.71526E-05-2.49959E-05-4.17639E-07-1.47488E-19-1.27800E-18
 -1      1081 8.56696E-05-1.89185E-05-2.85999E-05 1.37307E-07-7.84401E-20-1.17747E-18
 -1      1082 8.82176E-05-2.23069E-05-2.82482E-05-4.31639E-07-2.76921E-19-1.40927E-18
 -1      1083 8.97504E-05-2.32983E-05-2.84800E-05-4.39846E-07 2.62341E-19-2.33679E-18
 -1      1084 9.09966E-05-2.42062E-05-2.86249E-05-4.12374E-07-7.07820E-19-2.43156E-18
 -1      1085 9.20031E-05-2.50172E-05-2.87085E-05-3.64986E-07-1.36880E-18-1.61762E-18
 -1      1086 9.28078E-05-2.57245E-05-2.87501E-05-3.09033E-07-5.67335E-19-1.56506E-18
 -1      1087 9.34431E-05-2.63279E-05-2.87638E-05-2.52195E-07 8.90805E-19-1.59295E-18
 -1      1088 9.39377E-05-2.68319E-05-2.87597E-05-1.99204E-07-5.08028E-19-1.41913E-18
 -1      1089 9.43167E-05-2.72449E-05-2.87451E-05-1.52585E-07-9.24567E-19-5.60290E-19
 -1      1090 9.46022E-05-2.75771E-05-2.87250E-05-1.13333E-07-8.32772E-20-2.74799E-19
 -1      1091 9.48129E-05-2.78396E-05-2.87029E-05-8.14806E-08 5.55632E-19-2.34052E-18
 -1      1092 9.49661E-05-2.80446E-05-2.86806E-05-5.49839E-08 1.19315E-18-3.61402E-18
 -1      1093 9.50740E-05-2.82008E-05-2.86597E-05-3.69610E-08 5.42612E-19-1.26541E-18
 -1      1094 8.85790E-05-2.26955E-05-2.82349E-05 2.48374E-06-8.01328E-19-1.98265E-18
 -1      1095 8.69690E-05-2.19173E-05-2.78834E-05 3.31560E-06-8.38586E-19-1.38253E-18
 -1      1096 7.56351E-05-1.72802E-05-2.50135E-05-1.72838E-07-2.83157E-19 2.72577E-19
 -1      1097 8.75520E-05-1.92115E-05-2.92872E-05-2.21754E-06 1.09212E-19-7.17539E-19
 -1      1098 7.07786E-05-1.64160E-05-2.32405E-05-1.03825E-06 6.14703E-20-1.60926E-18
 -1      1099 8.28576E-05-2.06578E-05-2.66564E-05 5.89578E-06 1.83394E-19 6.88063E-19
 -1      1100 8.99427E-05-2.35141E-05-2.84687E-05 1.88005E-06-4.93038E-19-2.10819E-18
 -1      1101 9.10860E-05-2.43115E-05-2.86171E-05 1.42505E-06 2.06785E-19-2.18250E-18
 -1      1102 9.20327E-05-2.50548E-05-2.87044E-05 1.07785E-06-5.55007E-19-1.94734E-18
 -1      1103 9.28048E-05-2.57228E-05-2.87491E-05 8.10974E-07 2.48684E-20-1.66579E-18
 -1      1104 9.34243E-05-2.63055E-05-2.87650E-05 6.05217E-07 9.02132E-20-6.61804E-19
 -1      1105 9.39131E-05-2.68005E-05-2.87624E-05 4.46696E-07 6.65075E-19-5.96277E-19
 -1      1106 9.42918E-05-2.72115E-05-2.87486E-05 3.25034E-07 7.91001E-19 1.44113E-20
 -1      1107 9.45798E-05-2.75457E-05-2.87288E-05 2.32269E-07-1.22694E-18 1.16203E-18
 -1      1108 9.47943E-05-2.78120E-05-2.87066E-05 1.62195E-07-1.64545E-18 4.85400E-19
 -1      1109 9.49503E-05-2.80202E-05-2.86843E-05 1.10087E-07 4.97014E-20 6.08031E-19
 -1      1110 9.50623E-05-2.81817E-05-2.86629E-05 7.13616E-08 2.08293E-18 1.02043E-18
 -1      1111 7.84757E-05-2.07883E-05-2.47053E-05 1.05816E-05-8.57976E-19 2.00759E-19
 -1      1112 8.02791E-05-1.81814E-05-2.66165E-05-7.35667E-08 4.32307E-20-1.01944E-18
 -1      1113 8.52548E-05-2.12918E-05-2.73902E-05 4.32878E-06-6.71356E-19-4.43369E-20
 -1      1114 8.63345E-05-2.12459E-05-2.78944E-05-3.62742E-07-6.76304E-20-3.33603E-19
 -1      1115 8.82117E-05-2.28823E-05-2.79983E-05-8.18112E-06-1.43434E-19-5.33121E-19
 -1      1116 7.07353E-05-1.79557E-05-2.26067E-05-9.64698E-06-2.18262E-19-1.31422E-18
 -1      1117 8.73768E-05-2.06687E-05-2.85905E-05-4.84713E-06-4.76913E-20-7.09881E-19
 -1      1118 7.85072E-05-2.08157E-05-2.47078E-05-1.09921E-05-4.68450E-19-4.17620E-19
 -1      1119 7.98510E-05-1.86376E-05-2.62437E-05 8.00907E-07 4.93165E-21 1.97585E-19
 -1      1120 9.51119E-05-2.82605E-05-2.86505E-05 4.57816E-08 1.20680E-18-1.17903E-18
 -1      1121 9.50872E-05-2.82253E-05-2.86552E-05 8.40948E-09 2.48698E-18-9.55902E-19
 -1      1122 8.38576E-05-2.00412E-05-2.73622E-05-2.74056E-07 8.02894E-19-8.22886E-19
 -1      1123 8.16412E-05-2.03633E-05-2.62574E-05-7.87475E-06-2.26078E-19-6.53873E-19
 -1      1124 8.06892E-05-2.04538E-05-2.58201E-05 7.94180E-06-7.47857E-19 1.01026E-18
 -1      1125 8.43507E-05-2.04175E-05-2.73970E-05-6.10167E-06-2.81198E-19-5.58646E-19
 -1      1126 8.58908E-05-1.93502E-05-2.85265E-05-2.53594E-06-1.16886E-19-4.44708E-19
 -1      1127 1.16437E-04 2.57587E-10-4.18346E-05-4.04490E-05-1.69407E-19 8.56287E-18
 -1      1128 8.94192E-05 7.50118E-11-3.75082E-05-2.27529E-05-1.16679E-19 2.30409E-18
 -1      1129 8.49494E-05 4.33686E-11-3.60879E-05-1.60951E-05-8.96796E-20-6.32787E-19
 -1      1130 8.29632E-05 3.21937E-11-3.53218E-05-1.18886E-05-6.41627E-20-2.11495E-18
 -1      1131 8.17597E-05 2.56871E-11-3.48440E-05-8.64837E-06-4.00752E-20-2.89794E-18
 -1      1132 8.09260E-05 2.13649E-11-3.45182E-05-6.03134E-06-3.05991E-20-3.30739E-18
 -1      1133 8.03499E-05 1.84733E-11-3.42947E-05-3.82141E-06-2.20229E-20-3.51853E-18
 -1      1134 8.00041E-05 1.68317E-11-3.41612E-05-1.85048E-06-7.82844E-21-3.57575E-18
 -1      1135 7.98961E-05 1.63739E-11-3.41191E-05-3.80537E-10 3.28887E-21-3.59488E-18
 -1      1136 8.00253E-05 1.70636E-11-3.41679E-05 1.86339E-06 1.82244E-20-3.58453E-18
 -1      1137 8.03851E-05 1.88971E-11-3.43055E-05 3.87292E-06 2.56227E-20-3.49981E-18
 -1      1138 8.09663E-05 2.18832E-11-3.45291E-05 6.13961E-06 3.83812E-20-3.27540E-18
 -1      1139 8.17896E-05 2.63088E-11-3.48518E-05 8.82386E-06 5.00014E-20-2.83023E-18
 -1      1140 8.29766E-05 3.28485E-11-3.53264E-05 1.21369E-05 7.20507E-20-2.02410E-18
 -1      1141 8.49226E-05 4.38911E-11-3.60977E-05 1.64004E-05 9.51853E-20-5.16730E-19
 -1      1142 8.90940E-05 6.99531E-11-3.75656E-05 2.26620E-05 1.12232E-19 2.47953E-18
 -1      1143 1.06461E-04 1.66313E-10-4.06462E-05 3.52471E-05 2.17052E-19 8.49489E-18
 -1      1144 1.29390E-04-2.57585E-05-4.02035E-05-2.54334E-05-7.95470E-19 1.26132E-17
 -1      1145 9.83578E-05-2.91450E-05-3.18522E-05-5.49100E-07-2.79944E-19 1.06387E-17
 -1      1146 9.24049E-05-2.77151E-05-2.85554E-05 4.13256E-07-1.24831E-19 7.84956E-18
 -1      1147 9.17514E-05-2.76376E-05-2.77069E-05 2.69820E-07-8.89881E-20 6.16693E-18
 -1      1148 9.28559E-05-2.79521E-05-2.79068E-05 1.93529E-07-1.00463E-19 4.76435E-18
 -1      1149 9.50357E-05-2.85774E-05-2.85502E-05 1.61849E-07-6.69950E-20 4.01869E-18
 -1      1150 9.80144E-05-2.94507E-05-2.94489E-05 1.54262E-07-2.78363E-20 3.36680E-18
 -1      1151 1.01668E-04-3.05325E-05-3.05455E-05 1.62364E-07 4.00273E-20 3.73144E-18
 -1      1152 1.05891E-04-3.17860E-05-3.18017E-05 1.79981E-07-4.86051E-20 3.04728E-18
 -1      1153 1.10499E-04-3.31518E-05-3.31525E-05 1.98115E-07-1.03383E-19 2.17873E-18
 -1      1154 1.15114E-04-3.45138E-05-3.44719E-05 1.99610E-07 6.74384E-20 2.02084E-18
 -1      1155 1.19042E-04-3.56634E-05-3.55429E-05 1.54609E-07 2.10008E-19 3.25062E-18
 -1      1156 1.21197E-04-3.62783E-05-3.60511E-05 2.23215E-08-6.87420E-20 3.03301E-18
 -1      1157 1.20222E-04-3.59603E-05-3.56454E-05-2.28429E-07-7.79800E-20 1.58279E-18
 -1      1158 1.15027E-04-3.44019E-05-3.41035E-05-5.70071E-07 5.88291E-21 2.54618E-18
 -1      1159 1.05800E-04-3.16843E-05-3.15814E-05-8.58722E-07-2.01369E-20 3.31709E-18
 -1      1160 9.49870E-05-2.85448E-05-2.87810E-05-8.62214E-07-3.32824E-20 2.76789E-18
 -1      1161 8.69540E-05-2.62404E-05-2.67739E-05-4.48539E-07-2.19501E-20 1.56161E-18
 -1      1162 8.56661E-05-2.58755E-05-2.64626E-05 2.22295E-07 1.87075E-20 1.48437E-18
 -1      1163 9.18748E-05-2.76553E-05-2.80133E-05 7.65903E-07 5.21653E-20 9.19454E-19
 -1      1164 1.02519E-04-3.07343E-05-3.07410E-05 9.10313E-07-4.94110E-20 2.08031E-18
 -1      1165 1.13032E-04-3.38175E-05-3.35649E-05 6.98335E-07 4.84066E-20 3.46860E-18
 -1      1166 1.20155E-04-3.59389E-05-3.56128E-05 3.55742E-07-2.58080E-21 4.68817E-18
 -1      1167 1.22976E-04-3.68038E-05-3.65427E-05 6.74340E-08-1.29702E-19 2.12710E-18
 -1      1168 1.22272E-04-3.66228E-05-3.64720E-05-1.01005E-07 1.28031E-19 2.43268E-18
 -1      1169 1.19400E-04-3.57908E-05-3.57331E-05-1.66107E-07 2.78594E-21 3.82390E-18
 -1      1170 1.15579E-04-3.46673E-05-3.46669E-05-1.68918E-07 8.69524E-20 3.99569E-18
 -1      1171 1.11633E-04-3.34987E-05-3.35249E-05-1.43687E-07-1.92338E-19 2.10715E-18
 -1      1172 1.08017E-04-3.24226E-05-3.24561E-05-1.10921E-07 7.76044E-20 6.72107E-19
 -1      1173 1.04927E-04-3.14993E-05-3.15308E-05-8.03691E-08 1.10142E-19 1.24196E-19
 -1      1174 1.02405E-04-3.07429E-05-3.07689E-05-5.54546E-08-1.38851E-19 3.98840E-19
 -1      1175 1.00411E-04-3.01434E-05-3.01634E-05-3.65555E-08 6.23041E-20-1.56730E-18
 -1      1176 9.88764E-05-2.96804E-05-2.96951E-05-2.28649E-08 7.93291E-20-2.69655E-18
 -1      1177 9.77201E-05-2.93308E-05-2.93413E-05-1.32828E-08-3.28196E-20-1.80774E-18
 -1      1178 9.68672E-05-2.90723E-05-2.90795E-05-6.78051E-09 7.70949E-20 1.75170E-19
 -1      1179 9.62517E-05-2.88852E-05-2.88901E-05-2.51389E-09 8.46582E-20 6.50353E-19
 -1      1180 9.58185E-05-2.87532E-05-2.87563E-05 1.68099E-10 1.72777E-21-1.39911E-18
 -1      1181 9.55225E-05-2.86626E-05-2.86646E-05 1.75108E-09 6.64174E-20-1.51131E-18
 -1      1182 9.53283E-05-2.86029E-05-2.86041E-05 2.59030E-09 2.34647E-19 1.82694E-19
 -1      1183 9.52080E-05-2.85657E-05-2.85663E-05 2.94211E-09 5.44190E-20-8.95916E-19
 -1      1184 9.51405E-05-2.85446E-05-2.85448E-05 2.98938E-09 1.25610E-19-2.83019E-18
 -1      1185 9.51097E-05-2.85346E-05-2.85346E-05 2.86078E-09-2.10835E-19-3.76533E-18
 -1      1186 9.51038E-05-2.85323E-05-2.85322E-05 2.64503E-09 2.75784E-19-4.71713E-18
 -1      1187 9.51141E-05-2.85350E-05-2.85348E-05 2.40113E-09 2.48021E-19-3.40928E-18
 -1      1188 9.51344E-05-2.85408E-05-2.85406E-05 2.16425E-09 4.12153E-19-4.35229E-19
 -1      1189 9.51598E-05-2.85482E-05-2.85480E-05 1.94629E-09 1.39712E-19 2.19177E-18
 -1      1190 9.51869E-05-2.85561E-05-2.85558E-05 1.72470E-09-6.31598E-21 1.33059E-18
 -1      1191 9.52118E-05-2.85635E-05-2.85629E-05 1.38293E-09 3.87630E-19 1.62851E-18
 -1      1192 9.52304E-05-2.85688E-05-2.85682E-05 6.71029E-10-8.77813E-20 2.38018E-19
 -1      1193 9.52377E-05-2.85714E-05-2.85713E-05-2.75960E-10 1.52490E-19-7.95136E-20
 -1      1194 1.30215E-04-3.74183E-05-3.86414E-05 1.19653E-05-1.77374E-19 1.34687E-17
 -1      1195 9.75297E-05-2.84933E-05-3.16161E-05 7.53599E-07 7.39566E-20 1.08528E-17
 -1      1196 9.25599E-05-2.76017E-05-2.85215E-05 1.09391E-07 6.90332E-20 8.36025E-18
 -1      1197 9.16975E-05-2.75217E-05-2.76988E-05 1.11103E-08 4.14186E-20 6.90483E-18
 -1      1198 9.26132E-05-2.78244E-05-2.78428E-05-2.05889E-08 2.23173E-21 6.02714E-18
 -1      1199 9.45247E-05-2.83904E-05-2.83955E-05-3.46270E-08 8.95985E-20 4.54690E-18
 -1      1200 9.70780E-05-2.91446E-05-2.91575E-05-4.82239E-08 2.65666E-20 3.80831E-18
 -1      1201 1.00063E-04-3.00278E-05-3.00443E-05-6.70161E-08-1.43057E-20 3.58830E-18
 -1      1202 1.03276E-04-3.09779E-05-3.09887E-05-9.27639E-08-8.47363E-20 2.68737E-18
 -1      1203 1.06445E-04-3.19118E-05-3.19034E-05-1.23833E-07 4.55818E-20 1.97851E-18
 -1      1204 1.09161E-04-3.27093E-05-3.26628E-05-1.52850E-07 1.12381E-19 1.07363E-18
 -1      1205 1.10858E-04-3.32056E-05-3.30995E-05-1.63846E-07 3.84804E-20 8.36809E-19
 -1      1206 1.10856E-04-3.32050E-05-3.30266E-05-1.32280E-07-9.24556E-20 1.45957E-18
 -1      1207 1.08541E-04-3.25323E-05-3.22965E-05-3.37969E-08 4.98294E-20 8.46424E-19
 -1      1208 1.03721E-04-3.11289E-05-3.08985E-05 1.34281E-07 2.67874E-19-1.51206E-18
 -1      1209 9.70460E-05-2.91723E-05-2.90537E-05 3.27596E-07-9.56295E-20-1.48464E-18
 -1      1210 9.01998E-05-2.71380E-05-2.72324E-05 4.54129E-07-8.56430E-20-6.05205E-19
 -1      1211 8.54845E-05-2.56989E-05-2.60201E-05 4.24461E-07-1.88796E-20 7.93299E-20
 -1      1212 8.47604E-05-2.54303E-05-2.58625E-05 2.25673E-07 7.32750E-20-9.50742E-19
 -1      1213 8.83774E-05-2.64744E-05-2.68334E-05-5.27300E-08-1.97266E-20-2.27534E-18
 -1      1214 9.49626E-05-2.84430E-05-2.85949E-05-2.81531E-07-1.20908E-19-2.64232E-18
 -1      1215 1.02247E-04-3.06470E-05-3.05820E-05-3.80468E-07-5.05962E-20-1.51386E-18
 -1      1216 1.08237E-04-3.24667E-05-3.22700E-05-3.52690E-07 3.35855E-19-2.99553E-18
 -1      1217 1.11906E-04-3.35805E-05-3.33556E-05-2.53086E-07 3.56416E-20-4.63631E-18
 -1      1218 1.13191E-04-3.39689E-05-3.37845E-05-1.39252E-07-2.44793E-19-1.55671E-18
 -1      1219 1.12610E-04-3.37916E-05-3.36720E-05-4.60246E-08 2.12734E-20 2.79230E-19
 -1      1220 1.10850E-04-3.32597E-05-3.31997E-05 1.56884E-08 1.77323E-20-1.87626E-18
 -1      1221 1.08523E-04-3.25589E-05-3.25417E-05 4.89348E-08-1.94130E-19-2.86423E-18
 -1      1222 1.06071E-04-3.18221E-05-3.18304E-05 6.17351E-08-8.18181E-20-2.97121E-18
 -1      1223 1.03765E-04-3.11301E-05-3.11508E-05 6.20084E-08-1.66894E-19-3.54453E-18
 -1      1224 1.01744E-04-3.05239E-05-3.05489E-05 5.57386E-08 3.12003E-19-4.33909E-18
 -1      1225 1.00057E-04-3.00182E-05-3.00426E-05 4.68164E-08-1.01622E-19-2.94595E-18
 -1      1226 9.87006E-05-2.96117E-05-2.96333E-05 3.74961E-08 5.22791E-20-9.46685E-19
 -1      1227 9.76439E-05-2.92948E-05-2.93128E-05 2.89330E-08-8.31230E-20-1.06818E-18
 -1      1228 9.68431E-05-2.90546E-05-2.90690E-05 2.16144E-08-3.36276E-19-2.05240E-18
 -1      1229 9.62524E-05-2.88773E-05-2.88885E-05 1.56527E-08-1.73590E-19-3.21713E-18
 -1      1230 9.58292E-05-2.87502E-05-2.87586E-05 1.09679E-08 7.53024E-21-6.77244E-18
 -1      1231 9.55357E-05-2.86620E-05-2.86681E-05 7.39448E-09 5.55390E-20-5.12546E-18
 -1      1232 9.53405E-05-2.86032E-05-2.86076E-05 4.74134E-09 2.10290E-19-5.63626E-18
 -1      1233 9.52180E-05-2.85663E-05-2.85693E-05 2.82221E-09-9.59345E-20-5.75507E-18
 -1      1234 9.51480E-05-2.85452E-05-2.85472E-05 1.47013E-09-6.68106E-20-2.41154E-18
 -1      1235 9.51151E-05-2.85351E-05-2.85364E-05 5.42353E-10 2.72081E-19-1.61160E-18
 -1      1236 9.51076E-05-2.85327E-05-2.85335E-05-7.95089E-11 4.91245E-19-4.00351E-18
 -1      1237 9.51166E-05-2.85353E-05-2.85358E-05-4.92182E-10-3.77727E-19-2.94718E-18
 -1      1238 9.51360E-05-2.85410E-05-2.85412E-05-7.74550E-10 1.75669E-19-3.38716E-18
 -1      1239 9.51608E-05-2.85484E-05-2.85484E-05-9.89422E-10-7.98550E-20-6.27189E-18
 -1      1240 9.51874E-05-2.85562E-05-2.85561E-05-1.17926E-09 7.41162E-20-7.56281E-18
 -1      1241 9.52120E-05-2.85635E-05-2.85631E-05-1.32625E-09-4.05576E-19-6.94124E-18
 -1      1242 9.52305E-05-2.85689E-05-2.85683E-05-1.16987E-09 8.59954E-19-8.10728E-18
 -1      1243 9.52376E-05-2.85714E-05-2.85713E-05 2.07458E-10-1.85583E-19-7.59964E-18
 -1      1244 9.52369E-05-2.85707E-05-2.85713E-05 1.08307E-10-7.02955E-18-3.42096E-19
 -1      1245 9.52394E-05-2.85780E-05-2.85683E-05-5.64411E-10-3.09008E-18 4.38591E-19
 -1      1246 9.52444E-05-2.85951E-05-2.85636E-05-1.21029E-09 3.42089E-18-1.12564E-20
 -1      1247 9.52505E-05-2.86158E-05-2.85578E-05-1.21132E-09 3.06396E-18 4.63583E-19
 -1      1248 9.52564E-05-2.86358E-05-2.85521E-05-9.96010E-10 1.76508E-18-5.65370E-19
 -1      1249 9.52614E-05-2.86523E-05-2.85472E-05-7.19861E-10 5.82747E-19 4.06153E-19
 -1      1250 9.52650E-05-2.86645E-05-2.85436E-05-4.70769E-10 3.71022E-19-1.21095E-18
 -1      1251 9.52672E-05-2.86719E-05-2.85414E-05-2.29723E-10-2.14436E-18-8.18762E-19
 -1      1252 9.52680E-05-2.86744E-05-2.85406E-05-4.73664E-12-4.34211E-18-5.93217E-19
 -1      1253 9.52672E-05-2.86721E-05-2.85413E-05 2.22181E-10-6.33100E-18 6.58732E-21
 -1      1254 9.52651E-05-2.86648E-05-2.85435E-05 4.68362E-10-9.56444E-18-9.10639E-19
 -1      1255 9.52614E-05-2.86526E-05-2.85471E-05 7.38342E-10-1.25387E-17 1.33037E-18
 -1      1256 9.52565E-05-2.86360E-05-2.85520E-05 1.00813E-09-6.94276E-18 1.38548E-18
 -1      1257 9.52505E-05-2.86159E-05-2.85578E-05 1.24353E-09-7.95645E-18-3.90157E-19
 -1      1258 9.52443E-05-2.85947E-05-2.85636E-05 1.44842E-09-5.10708E-18 1.28788E-18
 -1      1259 9.52396E-05-2.85782E-05-2.85683E-05 5.96719E-10 7.75349E-19-1.85890E-19
 -1      1260 9.52368E-05-2.85707E-05-2.85713E-05-4.71887E-11 1.07612E-18 8.20069E-19
 -1      1261 3.49090E-05-1.08481E-04 1.82767E-05-1.30482E-05-6.22569E-20 6.70956E-19
 -1      1262 1.74947E-05-6.50513E-05 9.76178E-06-2.34520E-05 6.92111E-18 2.90596E-18
 -1      1263 7.96063E-06-8.08910E-06-6.45079E-06 1.25613E-06 1.05981E-17 6.75424E-18
 -1      1264 3.49145E-05 2.46120E-05-2.60367E-05 5.35108E-05 1.25835E-17 1.23887E-17
 -1      1265 1.09666E-04 1.18374E-05-4.67302E-05 9.99711E-05 1.04431E-17 1.57667E-17
 -1      1266 2.09535E-04-3.50733E-05-6.43187E-05 1.08092E-04 6.49632E-18 1.46350E-17
 -1      1267 2.88253E-04-8.06421E-05-7.49864E-05 6.10071E-05 2.01266E-18 7.26331E-18
 -1      1268 3.05603E-04-9.03162E-05-7.75953E-05-1.76334E-05 7.14261E-19-1.88592E-18
 -1      1269 2.59394E-04-6.26850E-05-7.12525E-05-8.70296E-05 3.58316E-18-1.11614E-17
 -1      1270 1.69497E-04-1.36059E-05-5.80470E-05-1.12763E-04 8.64905E-18-1.65171E-17
 -1      1271 7.84482E-05 2.19421E-05-3.97023E-05-8.77077E-05 1.23336E-17-1.58768E-17
 -1      1272 2.04388E-05 1.91425E-05-1.93825E-05-3.50521E-05 1.53076E-17-1.23023E-17
 -1      1273 7.69683E-06-2.30522E-05-1.15240E-06 1.07889E-05 1.60038E-17-8.45424E-18
 -1      1274 2.26631E-05-7.92555E-05 1.27219E-05 2.49272E-05 1.10741E-17-3.62382E-18
 -1      1275 3.72547E-05-1.13781E-04 1.92232E-05 6.21851E-06 1.65531E-18-1.03942E-18
 -1      1276 2.99725E-05-9.92718E-05 1.69648E-05-1.95362E-05-9.79932E-18-2.33379E-18
 -1      1277 1.29966E-05-5.08513E-05 6.09288E-06-2.29476E-05-1.54380E-17-6.71782E-18
 -1      1278 1.03906E-05 3.14062E-06-1.08727E-05 1.12532E-05-1.71067E-17-1.20863E-17
 -1      1279 5.31351E-05 2.42517E-05-3.22155E-05 6.87270E-05-1.57853E-17-1.69186E-17
 -1      1280 1.41914E-04-9.34201E-07-5.32785E-05 1.09731E-04-1.03558E-17-1.75556E-17
 -1      1281 2.41107E-04-5.15951E-05-6.90108E-05 1.00077E-04-4.60617E-18-1.27733E-17
 -1      1282 3.05631E-04-8.95686E-05-7.75129E-05 4.00632E-05-1.08550E-18-2.13622E-18
 -1      1283 3.05999E-04-8.98745E-05-7.75751E-05-3.84646E-05-1.10670E-18 6.36206E-18
 -1      1284 2.46792E-04-5.49911E-05-6.97935E-05-9.66385E-05-3.76146E-18 1.20321E-17
 -1      1285 1.56825E-04-7.82156E-06-5.59758E-05-1.11574E-04-5.89450E-18 1.20313E-17
 -1      1286 7.20504E-05 2.28018E-05-3.81471E-05-8.36718E-05-9.44103E-18 1.11656E-17
 -1      1287 1.99223E-05 1.81664E-05-1.92958E-05-3.38581E-05-1.29444E-17 1.09098E-17
 -1      1288 6.85519E-06-1.97082E-05-2.25984E-06 9.48698E-06-1.41742E-17 8.26281E-18
 -1      1289 1.89379E-05-7.10320E-05 1.09120E-05 2.61848E-05-9.74681E-18 2.99998E-18
 -1      1290 3.39533E-05-1.07454E-04 1.83409E-05 1.36130E-05-6.23374E-18 1.08923E-18
 -1      1291 1.04840E-04-2.21232E-05-3.79757E-05-1.65228E-05-2.94873E-19 7.36368E-18
 -1      1292 9.14171E-05-6.99683E-06-3.63305E-05-1.88791E-05-9.35071E-19 9.36342E-19
 -1      1293 9.36763E-05-7.11192E-06-3.74554E-05-2.42960E-05-1.16075E-18 2.47360E-18
 -1      1294 8.68735E-05-4.28324E-06-3.54581E-05-1.45402E-05-9.98652E-19-1.28860E-18
 -1      1295 8.82263E-05-4.29742E-06-3.59370E-05-1.70712E-05-1.10326E-18-3.03238E-19
 -1      1296 9.33555E-05-1.08618E-05-3.54309E-05-1.72616E-05-1.65645E-18 8.51162E-19
 -1      1297 8.46372E-05-3.20388E-06-3.49169E-05-1.08461E-05-8.41580E-19-2.46322E-18
 -1      1298 8.54581E-05-3.18724E-06-3.52015E-05-1.26727E-05-9.60800E-19-1.92152E-18
 -1      1299 8.87763E-05-7.53180E-06-3.48926E-05-1.34487E-05-1.58097E-18-1.01403E-18
 -1      1300 8.31701E-05-2.55716E-06-3.45489E-05-7.84925E-06-6.48271E-19-3.10550E-18
 -1      1301 8.37397E-05-2.55201E-06-3.47396E-05-9.30296E-06-7.44330E-19-2.81005E-18
 -1      1302 8.61950E-05-5.80462E-06-3.45149E-05-9.99389E-06-1.27240E-18-2.07550E-18
 -1      1303 8.21462E-05-2.12710E-06-3.42881E-05-5.40674E-06-4.58880E-19-3.42000E-18
 -1      1304 8.25488E-05-2.12663E-06-3.44205E-05-6.59552E-06-5.53695E-19-3.25382E-18
 -1      1305 8.44902E-05-4.72288E-06-3.42370E-05-7.18389E-06-9.89884E-19-2.57202E-18
 -1      1306 8.14404E-05-1.83761E-06-3.41060E-05-3.27755E-06-3.21760E-19-3.55770E-18
 -1      1307 8.17099E-05-1.83925E-06-3.41945E-05-4.32249E-06-3.55529E-19-3.50783E-18
 -1      1308 8.33054E-05-4.00401E-06-3.40303E-05-4.83721E-06-6.75707E-19-2.88931E-18
 -1      1309 8.10540E-05-1.67404E-06-3.40060E-05-1.36715E-06-9.69902E-20-3.63668E-18
 -1      1310 8.11851E-05-1.67519E-06-3.40495E-05-2.31901E-06-1.58494E-19-3.58042E-18
 -1      1311 8.25343E-05-3.55411E-06-3.38890E-05-2.78601E-06-3.85526E-19-2.94063E-18
 -1      1312 8.09853E-05-1.62903E-06-3.39896E-05 4.59225E-07 5.69431E-20-3.64935E-18
 -1      1313 8.09773E-05-1.62891E-06-3.39879E-05-4.66775E-07 1.52416E-20-3.64885E-18
 -1      1314 8.21655E-05-3.34721E-06-3.38181E-05-9.15801E-07-5.94611E-20-3.02882E-18
 -1      1315 8.12299E-05-1.69867E-06-3.40565E-05 2.33221E-06 2.67821E-19-3.59458E-18
 -1      1316 8.10853E-05-1.69734E-06-3.40102E-05 1.36683E-06 1.91228E-19-3.61825E-18
 -1      1317 8.21926E-05-3.36998E-06-3.38202E-05 9.04714E-07 1.89582E-19-3.02519E-18
 -1      1318 8.17794E-05-1.88262E-06-3.42038E-05 4.38055E-06 4.17561E-19-3.50666E-18
 -1      1319 8.15026E-05-1.88016E-06-3.41142E-05 3.31078E-06 3.66732E-19-3.57857E-18
 -1      1320 8.26086E-05-3.61817E-06-3.38941E-05 2.80278E-06 5.36496E-19-2.98501E-18
 -1      1321 8.26159E-05-2.17752E-06-3.44260E-05 6.69184E-06 6.08514E-19-3.23257E-18
 -1      1322 8.22150E-05-2.17866E-06-3.42948E-05 5.47379E-06 5.34319E-19-3.40385E-18
 -1      1323 8.34018E-05-4.09387E-06-3.40339E-05 4.88431E-06 7.81457E-19-2.84370E-18
 -1      1324 8.38090E-05-2.61369E-06-3.47426E-05 9.49043E-06 8.37557E-19-2.71561E-18
 -1      1325 8.32454E-05-2.62035E-06-3.45538E-05 8.00066E-06 7.38044E-19-3.02258E-18
 -1      1326 8.45942E-05-4.83072E-06-3.42366E-05 7.29275E-06 1.10791E-18-2.51050E-18
 -1      1327 8.55131E-05-3.24844E-06-3.52009E-05 1.29334E-05 1.06702E-18-1.80789E-18
 -1      1328 8.46998E-05-3.27112E-06-3.49170E-05 1.10715E-05 9.55877E-19-2.35345E-18
 -1      1329 8.63078E-05-5.93424E-06-3.45104E-05 1.01957E-05 1.45277E-18-1.95000E-18
 -1      1330 8.82984E-05-4.30477E-06-3.59459E-05 1.73710E-05 1.22698E-18-1.47278E-19
 -1      1331 8.69248E-05-4.34762E-06-3.54548E-05 1.48582E-05 1.10890E-18-1.14072E-18
 -1      1332 8.88947E-05-7.68254E-06-3.48826E-05 1.37418E-05 1.77210E-18-8.88855E-19
 -1      1333 9.43975E-05-7.13509E-06-3.73415E-05 2.37405E-05 1.04820E-18 2.99913E-18
 -1      1334 9.12078E-05-6.75490E-06-3.63419E-05 1.96025E-05 1.01385E-18 1.08267E-18
 -1      1335 9.35491E-05-1.10905E-05-3.54031E-05 1.79615E-05 1.81249E-18 9.60377E-19
 -1      1336 1.23467E-04-2.49849E-05-3.90466E-05 2.74837E-05 4.87044E-19 8.88580E-18
 -1      1337 1.00788E-04-1.47004E-05-3.75144E-05 2.29466E-05 5.32043E-19 4.79558E-18
 -1      1338 1.02729E-04-1.97663E-05-3.56529E-05 1.99919E-05 1.68875E-18 3.76887E-18
 -1      1339 1.03261E-04-2.80612E-05-3.49058E-05 6.68371E-06 8.67468E-19 8.58616E-18
 -1      1340 1.06025E-04-3.05326E-05-3.37585E-05-7.20615E-06-9.29619E-19 7.56760E-18
 -1      1341 9.97692E-05-2.83401E-05-3.11746E-05-4.34705E-06-9.03837E-19 6.45630E-18
 -1      1342 9.74143E-05-2.84249E-05-2.98179E-05-1.84477E-06-6.99490E-19 5.97694E-18
 -1      1343 9.57953E-05-2.83091E-05-2.89665E-05-1.40295E-06-6.93905E-19 5.00517E-18
 -1      1344 1.01226E-04-2.86081E-05-3.14874E-05-6.63013E-06-1.48194E-18 3.78933E-18
 -1      1345 9.46192E-05-2.80881E-05-2.84992E-05-1.37281E-07-5.17650E-19 4.58856E-18
 -1      1346 9.45739E-05-2.81870E-05-2.84007E-05-4.78594E-09-4.29949E-19 3.94061E-18
 -1      1347 9.73660E-05-2.85414E-05-2.96263E-05-1.79544E-06-1.12920E-18 3.06085E-18
 -1      1348 9.44363E-05-2.81742E-05-2.83515E-05 6.72629E-07-4.19129E-19 3.55913E-18
 -1      1349 9.51751E-05-2.84408E-05-2.85593E-05 7.66696E-07-5.07412E-19 2.98243E-18
 -1      1350 9.62562E-05-2.85546E-05-2.90544E-05 4.94362E-07-8.85626E-19 2.39195E-18
 -1      1351 9.56640E-05-2.85847E-05-2.87196E-05 1.21044E-06-2.50639E-19 2.84541E-18
 -1      1352 9.68921E-05-2.89792E-05-2.90820E-05 1.28623E-06-2.47334E-19 2.57922E-18
 -1      1353 9.66200E-05-2.87767E-05-2.91012E-05 1.83639E-06-6.27949E-19 1.82138E-18
 -1      1354 9.78119E-05-2.92443E-05-2.93739E-05 1.62732E-06-1.80898E-19 2.46022E-18
 -1      1355 9.94149E-05-2.97479E-05-2.98451E-05 1.69416E-06-9.14928E-20 2.28048E-18
 -1      1356 9.79895E-05-2.92290E-05-2.94925E-05 2.78560E-06-4.52660E-19 1.54532E-18
 -1      1357 1.00659E-04-3.01088E-05-3.02336E-05 1.97371E-06 1.24216E-19 2.27570E-18
 -1      1358 1.02572E-04-3.07090E-05-3.07936E-05 2.03273E-06-3.95723E-21 2.29107E-18
 -1      1359 1.00095E-04-2.98841E-05-3.01124E-05 3.53837E-06-2.57286E-20 1.38064E-18
 -1      1360 1.04062E-04-3.11476E-05-3.12533E-05 2.24443E-06-1.16851E-19 2.34508E-18
 -1      1361 1.06211E-04-3.18278E-05-3.18788E-05 2.28852E-06-2.28595E-19 1.94066E-18
 -1      1362 1.02765E-04-3.07166E-05-3.08970E-05 4.13763E-06-1.68816E-19 1.24294E-18
 -1      1363 1.07857E-04-3.23247E-05-3.23783E-05 2.38351E-06-1.27975E-19 2.18757E-18
 -1      1364 1.10103E-04-3.30498E-05-3.30257E-05 2.39495E-06-2.04534E-19 1.99570E-18
 -1      1365 1.05847E-04-3.17043E-05-3.17882E-05 4.52040E-06-2.81811E-19 1.66363E-18
 -1      1366 1.11769E-04-3.35750E-05-3.35171E-05 2.27829E-06-1.37474E-19 2.10394E-18
 -1      1367 1.13854E-04-3.42716E-05-3.41075E-05 2.22611E-06 2.77064E-19 1.93863E-18
 -1      1368 1.09134E-04-3.28135E-05-3.27091E-05 4.51843E-06-3.38433E-20 2.04727E-18
 -1      1369 1.15328E-04-3.47729E-05-3.45180E-05 1.76300E-06 4.61173E-19 1.81450E-18
 -1      1370 1.16825E-04-3.53087E-05-3.49265E-05 1.60489E-06 1.46408E-19 2.26722E-18
 -1      1371 1.12302E-04-3.39728E-05-3.35480E-05 3.85915E-06 2.78379E-19 1.58484E-18
 -1      1372 1.17804E-04-3.56979E-05-3.51600E-05 6.62863E-07-1.24024E-19 2.17334E-18
 -1      1373 1.18130E-04-3.58726E-05-3.52248E-05 3.60865E-07-3.58606E-19 1.67281E-18
 -1      1374 1.14858E-04-3.50334E-05-3.41550E-05 2.21770E-06 2.44250E-20 1.01372E-18
 -1      1375 1.18246E-04-3.60162E-05-3.51827E-05-1.07980E-06-1.36273E-19 2.11576E-18
 -1      1376 1.16809E-04-3.55947E-05-3.47568E-05-1.51744E-06-5.01867E-20 1.94783E-18
 -1      1377 1.16131E-04-3.57227E-05-3.43648E-05-6.09836E-07-2.30697E-19 1.81240E-18
 -1      1378 1.15752E-04-3.53333E-05-3.43877E-05-3.18491E-06 3.11483E-19 1.97401E-18
 -1      1379 1.12314E-04-3.41693E-05-3.34392E-05-3.64128E-06 1.29986E-19 2.49621E-18
 -1      1380 1.15397E-04-3.56347E-05-3.40605E-05-4.36327E-06 1.01115E-19 2.25419E-18
 -1      1381 1.10077E-04-3.34100E-05-3.28005E-05-4.84772E-06-9.66114E-20 2.45730E-18
 -1      1382 1.05243E-04-3.16562E-05-3.15255E-05-5.07037E-06-2.64331E-19 2.28392E-18
 -1      1383 1.12244E-04-3.43879E-05-3.32650E-05-7.92543E-06 7.96608E-20 2.25999E-18
 -1      1384 1.02425E-04-3.05617E-05-3.08160E-05-4.92789E-06-2.31028E-19 2.32468E-18
 -1      1385 9.78379E-05-2.88178E-05-2.96486E-05-4.66092E-06-4.98122E-19 1.95887E-18
 -1      1386 1.07175E-04-3.20244E-05-3.22032E-05-9.35583E-06-4.24067E-19 2.03052E-18
 -1      1387 9.56620E-05-2.79048E-05-2.91485E-05-2.77968E-06-4.40814E-19 1.77348E-18
 -1      1388 9.33812E-05-2.70113E-05-2.85813E-05-2.03683E-06-2.25284E-19 1.49918E-18
 -1      1389 1.02041E-04-2.94298E-05-3.12633E-05-6.97164E-06-6.07998E-19 1.97338E-18
 -1      1390 9.30402E-05-2.68557E-05-2.85104E-05 8.58291E-07-2.07007E-19 9.87199E-19
 -1      1391 9.42463E-05-2.73209E-05-2.88136E-05 1.69637E-06-1.91403E-19 8.37107E-19
 -1      1392 9.94213E-05-2.80479E-05-3.08288E-05-1.09938E-06-3.67453E-19 8.87710E-19
 -1      1393 9.59801E-05-2.80488E-05-2.92112E-05 4.09247E-06-7.75167E-20 1.76553E-19
 -1      1394 1.00095E-04-2.96221E-05-3.02529E-05 4.55433E-06-1.24481E-19 6.11452E-20
 -1      1395 1.00864E-04-2.87695E-05-3.10876E-05 5.43785E-06-4.24668E-19-1.30761E-20
 -1      1396 1.02958E-04-3.07588E-05-3.09543E-05 5.33573E-06 3.65224E-19 3.22931E-20
 -1      1397 1.08082E-04-3.26434E-05-3.22917E-05 5.26933E-06 7.90934E-20 1.41613E-19
 -1      1398 1.05605E-04-3.11663E-05-3.19494E-05 9.27453E-06 2.35727E-19-8.71954E-19
 -1      1399 1.10757E-04-3.35944E-05-3.30240E-05 4.46666E-06 3.01339E-19 1.08113E-18
 -1      1400 1.14985E-04-3.50587E-05-3.41747E-05 4.06562E-06 6.73259E-19 1.57220E-18
 -1      1401 1.11206E-04-3.38197E-05-3.30854E-05 9.11389E-06 8.44247E-19-9.79699E-19
 -1      1402 1.16631E-04-3.55370E-05-3.46996E-05 2.48704E-06 1.46246E-19 1.78465E-18
 -1      1403 1.18983E-04-3.62763E-05-3.53761E-05 2.02777E-06-3.09538E-19 1.73401E-18
 -1      1404 1.15429E-04-3.55860E-05-3.40938E-05 6.11782E-06 4.56418E-19-3.54351E-19
 -1      1405 1.19422E-04-3.63061E-05-3.55845E-05 4.79180E-07-2.18177E-19 1.77411E-18
 -1      1406 1.19890E-04-3.63867E-05-3.57479E-05 1.29673E-07-1.61757E-19 1.12639E-18
 -1      1407 1.17310E-04-3.61421E-05-3.46784E-05 2.31093E-06-3.53702E-19 8.12925E-19
 -1      1408 1.19357E-04-3.61189E-05-3.56594E-05-9.71899E-07 2.08992E-19 1.81244E-18
 -1      1409 1.18463E-04-3.57652E-05-3.54302E-05-1.17093E-06 2.95204E-19 2.04118E-18
 -1      1410 1.17010E-04-3.57776E-05-3.47457E-05-8.53169E-07 1.61221E-19 1.11496E-18
 -1      1411 1.17326E-04-3.53485E-05-3.51337E-05-1.76365E-06 3.28351E-19 2.11079E-18
 -1      1412 1.15688E-04-3.47822E-05-3.46779E-05-1.84069E-06 9.39280E-20 2.70290E-18
 -1      1413 1.15197E-04-3.49194E-05-3.43737E-05-2.84342E-06 4.75384E-19 1.00694E-18
 -1      1414 1.14277E-04-3.43195E-05-3.42731E-05-2.03791E-06-2.43977E-19 2.61416E-18
 -1      1415 1.12382E-04-3.36976E-05-3.37312E-05-2.03782E-06-9.31893E-20 2.31867E-18
 -1      1416 1.12582E-04-3.38931E-05-3.37187E-05-3.75199E-06-3.48145E-19 1.51987E-18
 -1      1417 1.10930E-04-3.32495E-05-3.32973E-05-1.98766E-06-5.58598E-19 1.69773E-18
 -1      1418 1.09084E-04-3.26623E-05-3.27616E-05-1.94759E-06-1.00400E-18 6.44274E-19
 -1      1419 1.09712E-04-3.28838E-05-3.29359E-05-3.90206E-06-9.42805E-19 6.27420E-19
 -1      1420 1.07733E-04-3.22597E-05-3.23490E-05-1.77059E-06-6.54416E-20 4.67258E-19
 -1      1421 1.06093E-04-3.17488E-05-3.18688E-05-1.71495E-06 1.14462E-19 6.09050E-19
 -1      1422 1.06938E-04-3.19778E-05-3.21419E-05-3.61468E-06-7.98355E-19 1.55738E-19
 -1      1423 1.04912E-04-3.14043E-05-3.15041E-05-1.49077E-06-3.95948E-19 3.71689E-19
 -1      1424 1.03535E-04-3.09821E-05-3.10989E-05-1.43334E-06-2.12847E-19 3.00948E-19
 -1      1425 1.04450E-04-3.12055E-05-3.14082E-05-3.12609E-06-2.48756E-19 4.58776E-19
 -1      1426 1.02546E-04-3.06973E-05-3.07916E-05-1.20758E-06-2.56168E-19 2.44316E-19
 -1      1427 1.01436E-04-3.03606E-05-3.04635E-05-1.15508E-06-9.65833E-20-2.16301E-19
 -1      1428 1.02326E-04-3.05691E-05-3.07698E-05-2.58310E-06-1.75961E-19-2.89134E-19
 -1      1429 1.00634E-04-3.01313E-05-3.02136E-05-9.50325E-07-2.26972E-19-3.95422E-19
 -1      1430 9.97645E-05-2.98700E-05-2.99557E-05-9.05381E-07-1.04674E-18-1.12311E-18
 -1      1431 1.00576E-04-3.00577E-05-3.02372E-05-2.06531E-06-6.49307E-19 1.87920E-19
 -1      1432 9.91300E-05-2.96896E-05-2.97579E-05-7.30436E-07 7.67045E-20-1.67552E-18
 -1      1433 9.84651E-05-2.94913E-05-2.95602E-05-6.93506E-07 3.27751E-19-1.70174E-18
 -1      1434 9.91739E-05-2.96550E-05-2.98066E-05-1.60919E-06-8.82362E-19-6.80457E-19
 -1      1435 9.79741E-05-2.93521E-05-2.94070E-05-5.49719E-07 4.22724E-19-1.25239E-18
 -1      1436 9.74764E-05-2.92047E-05-2.92587E-05-5.20229E-07 6.10205E-19-1.14421E-18
 -1      1437 9.80759E-05-2.93438E-05-2.94671E-05-1.22642E-06 9.37197E-19-7.51085E-19
 -1      1438 9.71041E-05-2.90994E-05-2.91426E-05-4.05292E-07 1.09883E-19-5.51436E-20
 -1      1439 9.67394E-05-2.89922E-05-2.90337E-05-3.82256E-07 3.46360E-19 3.64007E-19
 -1      1440 9.72335E-05-2.91076E-05-2.92053E-05-9.15644E-07 8.13618E-19-1.17786E-19
 -1      1441 9.64625E-05-2.89141E-05-2.89473E-05-2.92368E-07-4.45969E-19-6.57520E-20
 -1      1442 9.62012E-05-2.88379E-05-2.88691E-05-2.74707E-07-8.62218E-19-6.50573E-19
 -1      1443 9.65997E-05-2.89315E-05-2.90073E-05-6.69482E-07-4.12018E-19-4.45641E-19
 -1      1444 9.59997E-05-2.87811E-05-2.88063E-05-2.05716E-07-5.25049E-20-8.40854E-19
 -1      1445 9.58173E-05-2.87284E-05-2.87515E-05-1.92409E-07 7.18911E-20-1.27030E-18
 -1      1446 9.61322E-05-2.88029E-05-2.88606E-05-4.78415E-07-8.49967E-19-1.26184E-18
 -1      1447 9.56740E-05-2.86881E-05-2.87069E-05-1.40374E-07-2.23672E-19-1.62455E-18
 -1      1448 9.55509E-05-2.86530E-05-2.86697E-05-1.30517E-07 2.48943E-19-1.69542E-18
 -1      1449 9.57950E-05-2.87111E-05-2.87542E-05-3.32764E-07-5.89093E-20-1.12026E-18
 -1      1450 9.54519E-05-2.86252E-05-2.86389E-05-9.19441E-08 2.41629E-19-8.13097E-19
 -1      1451 9.53724E-05-2.86029E-05-2.86148E-05-8.47741E-08 5.24503E-19-8.93485E-19
 -1      1452 9.55579E-05-2.86472E-05-2.86789E-05-2.23633E-07 5.34422E-19-1.98250E-18
 -1      1453 9.53067E-05-2.85845E-05-2.85944E-05-5.66961E-08-2.06706E-19-1.33866E-18
 -1      1454 9.52587E-05-2.85714E-05-2.85797E-05-5.15831E-08-8.29894E-19-1.62686E-18
 -1      1455 9.53965E-05-2.86044E-05-2.86273E-05-1.43289E-07-4.86570E-19-1.99897E-18
 -1      1456 9.52173E-05-2.85598E-05-2.85668E-05-3.15501E-08-3.45305E-19-1.96751E-18
 -1      1457 9.51917E-05-2.85532E-05-2.85588E-05-2.79867E-08-5.59562E-19-3.26475E-18
 -1      1458 9.52912E-05-2.85772E-05-2.85933E-05-8.52390E-08-6.89688E-19-1.19265E-18
 -1      1459 9.51679E-05-2.85467E-05-2.85514E-05-1.40246E-08-9.77847E-20-3.20817E-18
 -1      1460 9.51577E-05-2.85445E-05-2.85481E-05-1.16099E-08 3.61216E-19-3.24810E-18
 -1      1461 9.52269E-05-2.85611E-05-2.85722E-05-4.41786E-08-6.74523E-19-2.27322E-18
 -1      1462 9.51462E-05-2.85414E-05-2.85446E-05-2.16460E-09 3.15086E-19-2.22991E-18
 -1      1463 9.51464E-05-2.85421E-05-2.85444E-05-5.89524E-10 1.87930E-19-3.10333E-18
 -1      1464 9.51919E-05-2.85529E-05-2.85603E-05-1.58720E-08 4.88365E-19-1.79075E-18
 -1      1465 9.51434E-05-2.85414E-05-2.85434E-05 5.52753E-09 4.96474E-19-1.65715E-18
 -1      1466 9.51502E-05-2.85440E-05-2.85453E-05 6.49340E-09 1.38296E-18-3.93700E-19
 -1      1467 9.51773E-05-2.85502E-05-2.85550E-05 2.97704E-09 1.21867E-18-4.11443E-19
 -1      1468 9.51526E-05-2.85448E-05-2.85460E-05 1.01508E-08 1.27456E-18-6.72482E-19
 -1      1469 9.51633E-05-2.85485E-05-2.85490E-05 1.06686E-08 1.30075E-18 7.52176E-19
 -1      1470 9.51763E-05-2.85512E-05-2.85539E-05 1.48446E-08 1.99664E-18 1.24274E-19
 -1      1471 9.51690E-05-2.85503E-05-2.85508E-05 1.24456E-08 1.37763E-18 7.41592E-19
 -1      1472 9.51815E-05-2.85544E-05-2.85543E-05 1.26112E-08 7.09908E-19 2.28239E-18
 -1      1473 9.51840E-05-2.85544E-05-2.85557E-05 2.14789E-08 1.87618E-18 8.71951E-19
 -1      1474 9.51886E-05-2.85566E-05-2.85565E-05 1.28098E-08-8.42404E-19 1.85860E-18
 -1      1475 9.52011E-05-2.85608E-05-2.85600E-05 1.26467E-08-4.88497E-19 1.09924E-18
 -1      1476 9.51964E-05-2.85590E-05-2.85589E-05 2.39572E-08 3.50250E-19 1.41974E-18
 -1      1477 9.52083E-05-2.85630E-05-2.85622E-05 1.12882E-08 1.94604E-19 8.99527E-19
 -1      1478 9.52189E-05-2.85666E-05-2.85651E-05 1.07217E-08 9.46339E-21 7.23450E-19
 -1      1479 9.52104E-05-2.85641E-05-2.85626E-05 2.26756E-08-8.74373E-19 1.64133E-18
 -1      1480 9.52250E-05-2.85687E-05-2.85668E-05 7.55842E-09-5.91509E-19 9.37563E-19
 -1      1481 9.52318E-05-2.85710E-05-2.85688E-05 6.60003E-09-9.67150E-19 6.20122E-19
 -1      1482 9.52235E-05-2.85692E-05-2.85660E-05 1.74947E-08-3.13824E-19 1.12847E-18
 -1      1483 9.52366E-05-2.85721E-05-2.85702E-05 7.66713E-10-8.23933E-19 9.91772E-19
 -1      1484 9.52348E-05-2.85738E-05-2.85688E-05 6.90332E-09-5.83881E-19 9.30120E-19
 -1      1485 9.81979E-05-2.88649E-05-3.02352E-05 2.46599E-06 7.85491E-19 6.80181E-18
 -1      1486 1.03525E-04-2.96975E-05-3.24456E-05 3.89837E-06 6.84509E-19 8.04491E-18
 -1      1487 1.03517E-04-2.71688E-05-3.30345E-05 1.17039E-05 1.37373E-18 5.18077E-18
 -1      1488 9.46812E-05-2.82202E-05-2.85528E-05 6.25773E-07 5.02145E-19 5.45039E-18
 -1      1489 9.60560E-05-2.82043E-05-2.92906E-05 9.53757E-07 4.68158E-19 6.24253E-18
 -1      1490 9.85154E-05-2.86562E-05-3.01381E-05 3.85829E-06 1.10456E-18 4.10192E-18
 -1      1491 9.39806E-05-2.81232E-05-2.82054E-05-2.60499E-07 3.14918E-19 4.49224E-18
 -1      1492 9.39814E-05-2.79516E-05-2.82898E-05-7.37961E-08 3.12171E-19 5.02399E-18
 -1      1493 9.60265E-05-2.84562E-05-2.90080E-05 7.78565E-07 7.58558E-19 3.25631E-18
 -1      1494 9.47840E-05-2.83946E-05-2.84319E-05-7.58651E-07 4.48249E-19 3.70947E-18
 -1      1495 9.41040E-05-2.81060E-05-2.82437E-05-6.33471E-07 2.91082E-19 4.16828E-18
 -1      1496 9.55729E-05-2.84939E-05-2.87662E-05-7.22307E-07 5.42022E-19 2.51391E-18
 -1      1497 9.64832E-05-2.89152E-05-2.89460E-05-1.08158E-06 3.70038E-19 2.71146E-18
 -1      1498 9.53984E-05-2.85343E-05-2.86253E-05-9.87288E-07 3.76653E-19 3.36152E-18
 -1      1499 9.63328E-05-2.87890E-05-2.89646E-05-1.60437E-06 7.39840E-19 2.05682E-18
 -1      1500 9.87656E-05-2.96100E-05-2.96314E-05-1.29969E-06 1.18954E-19 2.37685E-18
 -1      1501 9.74139E-05-2.91608E-05-2.92325E-05-1.22574E-06 5.45608E-20 2.51943E-18
 -1      1502 9.78613E-05-2.92836E-05-2.94087E-05-2.17931E-06 2.70404E-19 1.51879E-18
 -1      1503 1.01409E-04-3.04185E-05-3.04183E-05-1.42303E-06 2.59305E-19 1.90342E-18
 -1      1504 9.98938E-05-2.99271E-05-2.99741E-05-1.37008E-06 2.16648E-19 2.28905E-18
 -1      1505 9.98855E-05-2.99231E-05-3.00003E-05-2.54471E-06 2.94713E-19 1.32340E-18
 -1      1506 1.04182E-04-3.12757E-05-3.12357E-05-1.42528E-06 1.83893E-19 1.52675E-18
 -1      1507 1.02624E-04-3.07783E-05-3.07829E-05-1.40281E-06 1.78286E-19 1.71527E-18
 -1      1508 1.02189E-04-3.06566E-05-3.06676E-05-2.69834E-06 3.27481E-19 9.75600E-19
 -1      1509 1.06781E-04-3.20942E-05-3.19905E-05-1.25269E-06 4.35297E-19 8.11219E-19
 -1      1510 1.05350E-04-3.16458E-05-3.15807E-05-1.27844E-06 2.12011E-19 1.30556E-18
 -1      1511 1.04538E-04-3.14252E-05-3.13349E-05-2.57402E-06 4.83146E-19 3.65501E-19
 -1      1512 1.08792E-04-3.27495E-05-3.25574E-05-8.36645E-07-1.28842E-20 7.68113E-19
 -1      1513 1.07729E-04-3.24310E-05-3.22623E-05-9.34146E-07 3.06652E-20 7.17702E-19
 -1      1514 1.06639E-04-3.21475E-05-3.19095E-05-2.06325E-06 2.60794E-19 4.92139E-20
 -1      1515 1.09692E-04-3.30765E-05-3.27853E-05-1.23308E-07 3.89933E-20 9.96390E-19
 -1      1516 1.09305E-04-3.29923E-05-3.26924E-05-3.13805E-07-2.69760E-20 9.40614E-19
 -1      1517 1.08117E-04-3.27073E-05-3.22807E-05-1.05304E-06-2.72434E-19 7.91685E-19
 -1      1518 1.08938E-04-3.28895E-05-3.25285E-05 8.70229E-07 2.08337E-19 9.02408E-19
 -1      1519 1.09544E-04-3.31482E-05-3.27217E-05 5.84906E-07-1.73774E-20 6.08884E-19
 -1      1520 1.08540E-04-3.29499E-05-3.23340E-05 4.98281E-07 2.49279E-20 5.09073E-19
 -1      1521 1.06178E-04-3.20464E-05-3.17103E-05 1.98088E-06 6.66820E-19-3.34578E-20
 -1      1522 1.07971E-04-3.27122E-05-3.22309E-05 1.64254E-06 5.24730E-19 6.77693E-19
 -1      1523 1.07519E-04-3.27024E-05-3.19868E-05 2.44237E-06 7.64824E-19-1.30099E-20
 -1      1524 1.01568E-04-3.05600E-05-3.04057E-05 2.85588E-06-5.85247E-20-1.07023E-18
 -1      1525 1.04424E-04-3.15809E-05-3.12023E-05 2.56550E-06 3.82379E-19-5.85353E-19
 -1      1526 1.04906E-04-3.18413E-05-3.12418E-05 4.32532E-06 8.31555E-19-2.96369E-19
 -1      1527 9.60436E-05-2.87168E-05-2.88942E-05 3.03212E-06-3.31905E-19-5.15737E-19
 -1      1528 9.93672E-05-2.98660E-05-2.97929E-05 2.92763E-06-2.64092E-19-9.09290E-19
 -1      1529 1.01041E-04-3.04143E-05-3.02329E-05 5.40181E-06-2.61362E-19 6.72200E-20
 -1      1530 9.12671E-05-2.70875E-05-2.76182E-05 2.19331E-06-1.17102E-19-1.74224E-19
 -1      1531 9.40495E-05-2.79907E-05-2.83520E-05 2.37279E-06-1.14310E-19-6.71379E-19
 -1      1532 9.68984E-05-2.87585E-05-2.92254E-05 4.92298E-06-1.80292E-19-1.90238E-19
 -1      1533 8.90181E-05-2.63171E-05-2.70202E-05 4.80350E-07 2.17052E-19-3.99594E-19
 -1      1534 9.02244E-05-2.66109E-05-2.73312E-05 9.12772E-07-4.20605E-20-2.78674E-19
 -1      1535 9.38920E-05-2.74746E-05-2.85388E-05 2.66723E-06-1.21536E-19-7.13453E-19
 -1      1536 9.02530E-05-2.67548E-05-2.73337E-05-1.45774E-06 2.55864E-19-1.31420E-18
 -1      1537 8.93748E-05-2.63019E-05-2.70989E-05-9.43996E-07 3.49216E-19-5.45880E-19
 -1      1538 9.32403E-05-2.71501E-05-2.84173E-05-6.84584E-07 4.30465E-19-5.35371E-19
 -1      1539 9.45230E-05-2.82238E-05-2.84563E-05-2.83119E-06-1.56959E-19-1.11655E-18
 -1      1540 9.18849E-05-2.72041E-05-2.77561E-05-2.44424E-06-1.16527E-19-1.25702E-18
 -1      1541 9.52610E-05-2.79656E-05-2.89147E-05-3.80305E-06 2.47334E-19-2.35502E-19
 -1      1542 1.00257E-04-3.01431E-05-3.00089E-05-3.20097E-06-7.14836E-19-8.77791E-19
 -1      1543 9.68146E-05-2.89380E-05-2.90809E-05-3.05661E-06-2.27170E-19-1.08023E-18
 -1      1544 9.91741E-05-2.95601E-05-2.98701E-05-5.51192E-06-1.00666E-19-5.09543E-21
 -1      1545 1.05659E-04-3.18870E-05-3.15287E-05-2.66562E-06 3.36940E-19-8.27234E-19
 -1      1546 1.02466E-04-3.08592E-05-3.06458E-05-2.74448E-06-2.72970E-19-1.07933E-18
 -1      1547 1.03590E-04-3.12854E-05-3.09882E-05-5.44925E-06-4.98118E-19-1.07917E-19
 -1      1548 1.09504E-04-3.30681E-05-3.26638E-05-1.65169E-06 8.06961E-19-2.50658E-18
 -1      1549 1.07258E-04-3.24162E-05-3.20220E-05-1.85455E-06 8.05363E-19-1.11769E-18
 -1      1550 1.07249E-04-3.26066E-05-3.19704E-05-4.07029E-06 9.33391E-19-1.55689E-19
 -1      1551 1.11380E-04-3.35939E-05-3.32639E-05-5.93856E-07-5.09520E-19-2.40895E-18
 -1      1552 1.10295E-04-3.33410E-05-3.29366E-05-8.19430E-07-1.56410E-19-2.97784E-18
 -1      1553 1.09472E-04-3.33035E-05-3.26187E-05-2.16381E-06 1.88028E-19-1.08901E-18
 -1      1554 1.11500E-04-3.35685E-05-3.33559E-05 2.44148E-07-5.48771E-19-8.99632E-19
 -1      1555 1.11431E-04-3.36313E-05-3.33165E-05 5.81585E-08-7.10194E-19-2.23198E-18
 -1      1556 1.10173E-04-3.34217E-05-3.28711E-05-3.85534E-07-8.64278E-19-2.04146E-18
 -1      1557 1.10368E-04-3.31706E-05-3.30666E-05 7.79977E-07 2.09091E-19-8.53908E-19
 -1      1558 1.11008E-04-3.34336E-05-3.32362E-05 6.54831E-07 1.89041E-19-6.94779E-19
 -1      1559 1.09637E-04-3.31286E-05-3.27728E-05 9.26811E-07-6.32032E-20-1.84397E-18
 -1      1560 1.08515E-04-3.25719E-05-3.25464E-05 1.04378E-06-1.40902E-19-1.15351E-18
 -1      1561 1.09551E-04-3.29321E-05-3.28376E-05 9.75478E-07 1.81761E-19-7.54587E-19
 -1      1562 1.08281E-04-3.26016E-05-3.24236E-05 1.70891E-06 2.93762E-19-1.02470E-18
 -1      1563 1.06375E-04-3.19031E-05-3.19252E-05 1.10891E-06 2.04930E-20-1.65218E-18
 -1      1564 1.07558E-04-3.22870E-05-3.22656E-05 1.08338E-06 1.98414E-20-1.35484E-18
 -1      1565 1.06500E-04-3.19794E-05-3.19315E-05 2.04660E-06 2.39816E-19-2.73823E-19
 -1      1566 1.04244E-04-3.12499E-05-3.12955E-05 1.05014E-06-8.43025E-20-2.18255E-18
 -1      1567 1.05409E-04-3.16125E-05-3.16352E-05 1.05237E-06-2.14110E-19-1.96995E-18
 -1      1568 1.04594E-04-3.13533E-05-3.13865E-05 2.07341E-06-2.07958E-19-7.52529E-19
 -1      1569 1.02296E-04-3.06602E-05-3.07136E-05 9.26434E-07 1.88732E-19-2.54103E-18
 -1      1570 1.03349E-04-3.09786E-05-3.10234E-05 9.44282E-07 1.97176E-19-2.05850E-18
 -1      1571 1.02764E-04-3.07762E-05-3.08516E-05 1.91380E-06 3.12679E-19-1.03843E-18
 -1      1572 1.00614E-04-3.01555E-05-3.02077E-05 7.77993E-07-5.18311E-21-3.29560E-18
 -1      1573 1.01513E-04-3.04214E-05-3.04739E-05 8.02968E-07 1.06604E-19-3.19655E-18
 -1      1574 1.01122E-04-3.02732E-05-3.03647E-05 1.66221E-06 1.42444E-19-2.52453E-18
 -1      1575 9.92210E-05-2.97403E-05-2.97868E-05 6.29291E-07-1.27234E-18-9.98036E-19
 -1      1576 9.99577E-05-2.99541E-05-3.00058E-05 6.56033E-07-9.28803E-19-2.78183E-18
 -1      1577 9.97182E-05-2.98524E-05-2.99442E-05 1.38154E-06-1.12497E-18-2.01575E-18
 -1      1578 9.81056E-05-2.94094E-05-2.94486E-05 4.93518E-07 3.68218E-19-5.59359E-19
 -1      1579 9.86892E-05-2.95761E-05-2.96227E-05 5.18960E-07-1.95190E-20-7.22058E-19
 -1      1580 9.85618E-05-2.95113E-05-2.95950E-05 1.10926E-06-7.47836E-19-5.96204E-19
 -1      1581 9.72374E-05-2.91530E-05-2.91846E-05 3.76522E-07 5.49845E-19-1.15129E-18
 -1      1582 9.76866E-05-2.92793E-05-2.93190E-05 3.99129E-07 5.69337E-19-5.22992E-19
 -1      1583 9.76376E-05-2.92423E-05-2.93143E-05 8.64970E-07 4.97288E-19-3.63714E-19
 -1      1584 9.65793E-05-2.89593E-05-2.89841E-05 2.79743E-07-3.83591E-19-1.11574E-18
 -1      1585 9.69158E-05-2.90525E-05-2.90850E-05 2.98933E-07-5.00337E-20-9.69949E-19
 -1      1586 9.69184E-05-2.90353E-05-2.90946E-05 6.56716E-07 1.19439E-19-2.97584E-19
 -1      1587 9.60932E-05-2.88168E-05-2.88356E-05 2.02178E-07 4.91413E-19-2.24424E-18
 -1      1588 9.63384E-05-2.88836E-05-2.89094E-05 2.17927E-07 3.27970E-19-1.75786E-18
 -1      1589 9.63725E-05-2.88797E-05-2.89272E-05 4.85689E-07 5.75369E-19-3.40134E-19
 -1      1590 9.57440E-05-2.87148E-05-2.87288E-05 1.41637E-07-6.39369E-20-3.55371E-18
 -1      1591 9.59175E-05-2.87611E-05-2.87812E-05 1.54216E-07-2.22118E-19-3.25615E-18
 -1      1592 9.59685E-05-2.87657E-05-2.88026E-05 3.49339E-07 3.44565E-19-8.45540E-19
 -1      1593 9.55011E-05-2.86441E-05-2.86543E-05 9.54917E-08 5.32971E-20-3.21066E-18
 -1      1594 9.56195E-05-2.86750E-05-2.86902E-05 1.05309E-07-6.12842E-20-3.64615E-18
 -1      1595 9.56774E-05-2.86845E-05-2.87125E-05 2.43355E-07-5.74522E-20-9.68928E-19
 -1      1596 9.53389E-05-2.85972E-05-2.86043E-05 6.11073E-08-1.45233E-19-3.29212E-18
 -1      1597 9.54159E-05-2.86166E-05-2.86278E-05 6.86127E-08 5.28550E-19-2.37367E-18
 -1      1598 9.54741E-05-2.86284E-05-2.86492E-05 1.62853E-07 2.38838E-19-1.22880E-18
 -1      1599 9.52365E-05-2.85678E-05-2.85727E-05 3.60661E-08-9.67536E-19-2.24201E-18
 -1      1600 9.52833E-05-2.85790E-05-2.85871E-05 4.16940E-08-7.67612E-19-3.35181E-18
 -1      1601 9.53377E-05-2.85913E-05-2.86064E-05 1.03059E-07-3.39812E-19-3.11490E-19
 -1      1602 9.51776E-05-2.85512E-05-2.85544E-05 1.82715E-08 3.74934E-19-1.86823E-18
 -1      1603 9.52027E-05-2.85565E-05-2.85622E-05 2.24135E-08-1.72400E-19-2.19879E-18
 -1      1604 9.52510E-05-2.85683E-05-2.85790E-05 5.96485E-08-7.00157E-19-1.12929E-18
 -1      1605 9.51494E-05-2.85435E-05-2.85455E-05 5.97961E-09 7.79742E-19-2.22930E-18
 -1      1606 9.51594E-05-2.85447E-05-2.85487E-05 8.97158E-09 1.70588E-19-1.29882E-18
 -1      1607 9.52005E-05-2.85554E-05-2.85627E-05 2.89107E-08 2.20734E-19-2.43591E-18
 -1      1608 9.51423E-05-2.85419E-05-2.85430E-05-2.20602E-09-8.29948E-19-2.02334E-18
 -1      1609 9.51421E-05-2.85405E-05-2.85432E-05-8.86280E-11 2.80576E-19-1.76112E-18
 -1      1610 9.51758E-05-2.85496E-05-2.85545E-05 7.78486E-09 1.04521E-19-8.70396E-19
 -1      1611 9.51491E-05-2.85443E-05-2.85448E-05-7.35762E-09 4.16397E-19-1.22885E-18
 -1      1612 9.51424E-05-2.85413E-05-2.85430E-05-5.89956E-09 3.04413E-19-1.47987E-18
 -1      1613 9.51688E-05-2.85487E-05-2.85518E-05-6.15435E-09 4.59993E-20-2.57415E-19
 -1      1614 9.51644E-05-2.85492E-05-2.85493E-05-1.02456E-08 8.70619E-19-3.86478E-18
 -1      1615 9.51538E-05-2.85453E-05-2.85462E-05-9.29274E-09 6.26921E-19-2.52224E-18
 -1      1616 9.51733E-05-2.85510E-05-2.85527E-05-1.47370E-08 1.72688E-18-1.47184E-18
 -1      1617 9.51840E-05-2.85553E-05-2.85550E-05-1.13453E-08 2.99323E-19-4.56353E-18
 -1      1618 9.51716E-05-2.85511E-05-2.85515E-05-1.08107E-08 5.53563E-19-3.56996E-18
 -1      1619 9.51848E-05-2.85551E-05-2.85558E-05-1.92274E-08 8.38363E-19-2.03893E-18
 -1      1620 9.52044E-05-2.85617E-05-2.85609E-05-1.08257E-08-1.27989E-19-5.42397E-18
 -1      1621 9.51921E-05-2.85577E-05-2.85574E-05-1.07025E-08 5.15736E-20-5.36941E-18
 -1      1622 9.51997E-05-2.85602E-05-2.85599E-05-2.03286E-08 6.55300E-19-2.65237E-18
 -1      1623 9.52221E-05-2.85674E-05-2.85660E-05-8.51202E-09 2.24301E-19-5.04441E-18
 -1      1624 9.52118E-05-2.85641E-05-2.85631E-05-8.91979E-09-1.26592E-19-5.01169E-18
 -1      1625 9.52148E-05-2.85654E-05-2.85640E-05-1.81672E-08-1.28984E-19-3.24693E-18
 -1      1626 9.52337E-05-2.85712E-05-2.85694E-05-4.24594E-09 4.97243E-19-5.01540E-18
 -1      1627 9.52277E-05-2.85696E-05-2.85676E-05-5.21477E-09 2.36070E-19-5.12210E-18
 -1      1628 9.52277E-05-2.85703E-05-2.85673E-05-1.24412E-08 1.08253E-18-3.13226E-18
 -1      1629 9.52365E-05-2.85722E-05-2.85702E-05-9.58583E-10-2.54214E-18-2.81585E-18
 -1      1630 9.52398E-05-2.85832E-05-2.85670E-05-7.46148E-09 5.01546E-19 3.79700E-18
 -1      1631 9.52375E-05-2.85770E-05-2.85688E-05-6.31148E-09-3.91035E-18 3.51687E-18
 -1      1632 9.52451E-05-2.85983E-05-2.85629E-05-1.00912E-08 1.55214E-18 1.07716E-19
 -1      1633 9.52418E-05-2.85890E-05-2.85654E-05-9.79385E-09 2.65123E-19 1.18717E-18
 -1      1634 9.52396E-05-2.85851E-05-2.85661E-05-1.64048E-08-6.79325E-19 3.28667E-18
 -1      1635 9.52505E-05-2.86146E-05-2.85583E-05-1.03617E-08 8.22920E-19 6.77259E-19
 -1      1636 9.52472E-05-2.86048E-05-2.85610E-05-1.04971E-08 1.42308E-18-7.45189E-20
 -1      1637 9.52447E-05-2.85973E-05-2.85632E-05-1.95983E-08 8.65611E-20-2.06736E-19
 -1      1638 9.52553E-05-2.86297E-05-2.85539E-05-9.11965E-09 1.36405E-18 6.19789E-19
 -1      1639 9.52524E-05-2.86208E-05-2.85564E-05-9.48274E-09 7.39779E-19 1.52100E-18
 -1      1640 9.52493E-05-2.86098E-05-2.85598E-05-1.89479E-08-5.65489E-19 1.28028E-18
 -1      1641 9.52590E-05-2.86417E-05-2.85503E-05-7.11434E-09 1.11927E-18 2.72950E-19
 -1      1642 9.52568E-05-2.86348E-05-2.85523E-05-7.55919E-09 7.58409E-19-1.00757E-18
 -1      1643 9.52530E-05-2.86209E-05-2.85567E-05-1.59649E-08 9.00749E-19-8.52974E-19
 -1      1644 9.52616E-05-2.86504E-05-2.85477E-05-4.74594E-09-9.01526E-19-1.57387E-18
 -1      1645 9.52601E-05-2.86456E-05-2.85491E-05-5.22452E-09 1.69726E-19-9.65183E-19
 -1      1646 9.52558E-05-2.86297E-05-2.85542E-05-1.18330E-08 4.42688E-19-1.59737E-18
 -1      1647 9.52630E-05-2.86552E-05-2.85462E-05-2.28509E-09-2.45789E-18-1.55179E-18
 -1      1648 9.52623E-05-2.86528E-05-2.85469E-05-2.76103E-09-1.77260E-18-9.17323E-19
 -1      1649 9.52577E-05-2.86357E-05-2.85524E-05-7.20999E-09-1.31875E-18-2.45123E-18
 -1      1650 9.52633E-05-2.86560E-05-2.85460E-05 1.91886E-10-2.71800E-18 5.13241E-19
 -1      1651 9.52632E-05-2.86560E-05-2.85460E-05-2.82515E-10-2.92791E-18 4.02207E-19
 -1      1652 9.52586E-05-2.86388E-05-2.85515E-05-2.46800E-09-1.44537E-18-1.19474E-18
 -1      1653 9.52623E-05-2.86529E-05-2.85469E-05 2.68769E-09-5.07773E-18-3.07005E-19
 -1      1654 9.52630E-05-2.86553E-05-2.85462E-05 2.20609E-09-3.10591E-18-1.11403E-18
 -1      1655 9.52587E-05-2.86389E-05-2.85515E-05 2.30453E-09-1.51408E-18-1.10219E-18
 -1      1656 9.52602E-05-2.86458E-05-2.85490E-05 5.19241E-09-7.73101E-18-2.59626E-18
 -1      1657 9.52617E-05-2.86506E-05-2.85476E-05 4.70456E-09-5.31478E-18-2.02291E-18
 -1      1658 9.52578E-05-2.86359E-05-2.85524E-05 7.09990E-09-3.33364E-18-2.33173E-18
 -1      1659 9.52569E-05-2.86351E-05-2.85522E-05 7.55354E-09-5.10069E-18 3.83914E-18
 -1      1660 9.52591E-05-2.86420E-05-2.85502E-05 7.10133E-09-7.58513E-18 1.36241E-18
 -1      1661 9.52559E-05-2.86300E-05-2.85541E-05 1.17780E-08-3.15080E-18-7.62464E-19
 -1      1662 9.52524E-05-2.86210E-05-2.85564E-05 9.55093E-09-4.44986E-18-1.74854E-19
 -1      1663 9.52553E-05-2.86299E-05-2.85538E-05 9.17898E-09-5.59759E-18 2.65532E-18
 -1      1664 9.52531E-05-2.86212E-05-2.85567E-05 1.60154E-08-2.21359E-18 3.07207E-18
 -1      1665 9.52472E-05-2.86048E-05-2.85610E-05 1.06310E-08-5.10234E-18-8.73652E-21
 -1      1666 9.52505E-05-2.86147E-05-2.85583E-05 1.04586E-08-4.39907E-18 6.45597E-19
 -1      1667 9.52494E-05-2.86100E-05-2.85598E-05 1.90954E-08-2.13208E-18 3.81932E-20
 -1      1668 9.52420E-05-2.85892E-05-2.85655E-05 9.80104E-09-1.73945E-18 3.40612E-18
 -1      1669 9.52451E-05-2.85983E-05-2.85629E-05 1.00878E-08-4.83732E-18 1.72705E-18
 -1      1670 9.52446E-05-2.85973E-05-2.85631E-05 1.97563E-08-1.65117E-18 2.06824E-18
 -1      1671 9.52373E-05-2.85779E-05-2.85684E-05 8.71781E-09-1.11369E-18 6.49285E-19
 -1      1672 9.52395E-05-2.85841E-05-2.85666E-05 1.04489E-08-1.81171E-18 1.34089E-18
 -1      1673 9.52395E-05-2.85855E-05-2.85658E-05 1.88418E-08-2.58593E-18 3.80098E-18
 -1      1674 9.52326E-05-2.85759E-05-2.85671E-05 1.63705E-08-1.32342E-18 1.19521E-18
 -1      1675 2.01143E-05-6.68949E-05 1.41335E-05-6.26623E-06 1.88550E-18 2.72321E-18
 -1      1676 2.35632E-05-7.63476E-05 1.60509E-05 2.35361E-06-1.81498E-18 1.48570E-18
 -1      1677 2.12674E-05-3.75179E-05 3.30586E-06 7.17019E-06 4.49266E-18 2.62887E-18
 -1      1678 2.49796E-05-5.97581E-05 9.51511E-06 2.86788E-06 2.51272E-18 2.05559E-18
 -1      1679 3.56487E-05-1.03851E-05-1.24829E-05 2.96921E-05 7.01936E-18 6.94906E-18
 -1      1680 2.95947E-05-3.12868E-05-3.56788E-06 1.19272E-05 5.25076E-18 4.20213E-18
 -1      1681 7.55935E-05-1.28485E-06-3.11457E-05 6.00771E-05 7.97058E-18 9.58672E-18
 -1      1682 5.03640E-05-5.91768E-06-2.13882E-05 3.75502E-05 7.98413E-18 7.54029E-18
 -1      1683 1.45627E-04-2.11727E-05-5.00385E-05 7.18247E-05 5.50571E-18 9.23774E-18
 -1      1684 1.04150E-04-9.02364E-06-4.03674E-05 6.04144E-05 6.95922E-18 8.73376E-18
 -1      1685 2.09943E-04-4.38898E-05-6.53679E-05 6.49994E-05 4.58647E-18 7.13964E-18
 -1      1686 1.67634E-04-2.32307E-05-5.85096E-05 7.48467E-05 6.12024E-18 9.50286E-18
 -1      1687 2.49313E-04-6.29575E-05-7.35736E-05 2.29562E-05 2.43607E-18 3.16452E-18
 -1      1688 2.26740E-04-4.99219E-05-7.02487E-05 5.30565E-05 3.60762E-18 6.64751E-18
 -1      1689 2.38130E-04-5.56481E-05-7.28625E-05-2.63910E-05 3.64224E-18-3.34493E-18
 -1      1690 2.44858E-04-5.93370E-05-7.37873E-05 6.73100E-06 3.49359E-18 1.15779E-18
 -1      1691 2.02135E-04-3.81615E-05-6.57279E-05-6.48762E-05 5.55553E-18-9.10306E-18
 -1      1692 2.34443E-04-5.58674E-05-7.06939E-05-4.22854E-05 3.84405E-18-5.55992E-18
 -1      1693 1.41543E-04-1.37300E-05-5.23150E-05-7.54491E-05 8.05105E-18-1.15180E-17
 -1      1694 1.83414E-04-3.22570E-05-5.98615E-05-7.44795E-05 6.20007E-18-1.06032E-17
 -1      1695 8.32495E-05-4.74398E-06-3.39854E-05-5.56935E-05 9.01074E-18-1.05320E-17
 -1      1696 1.19802E-04-1.15292E-05-4.37944E-05-7.27234E-05 8.23231E-18-1.14925E-17
 -1      1697 4.09493E-05-1.21452E-05-1.53745E-05-2.82221E-05 1.11410E-17-7.88334E-18
 -1      1698 5.88805E-05-1.49078E-06-2.47326E-05-5.04655E-05 1.00475E-17-9.25299E-18
 -1      1699 2.57547E-05-4.01220E-05 1.00745E-06-5.04276E-06 9.89673E-18-5.45934E-18
 -1      1700 2.71688E-05-1.72120E-05-6.98653E-06-1.92635E-05 1.08979E-17-7.55850E-18
 -1      1701 2.43810E-05-6.78970E-05 1.23120E-05 7.99230E-07 5.09787E-18-3.35362E-18
 -1      1702 1.90475E-05-4.70999E-05 7.20211E-06 9.01282E-07 8.53132E-18-5.13217E-18
 -1      1703 2.32444E-05-7.71169E-05 1.65385E-05-4.43740E-06-1.99950E-18-3.20983E-18
 -1      1704 2.17655E-05-7.26880E-05 1.54599E-05 5.76309E-06 3.45759E-18-3.10861E-18
 -1      1705 1.94183E-05-5.74005E-05 1.13013E-05-2.98625E-06-7.15192E-18-3.98847E-18
 -1      1706 2.33491E-05-7.10512E-05 1.45865E-05 1.70386E-06-3.33392E-18-3.22889E-18
 -1      1707 2.08951E-05-3.06714E-05 3.07067E-07 6.63861E-06-1.11893E-17-6.67123E-18
 -1      1708 2.43497E-05-5.45800E-05 7.17598E-06-3.41761E-07-9.32837E-18-4.52654E-18
 -1      1709 4.24421E-05-6.57614E-06-1.68133E-05 3.62856E-05-1.16907E-17-1.04253E-17
 -1      1710 3.17772E-05-2.44157E-05-7.47303E-06 1.51166E-05-1.15332E-17-7.78508E-18
 -1      1711 1.00571E-04-9.53195E-06-3.73889E-05 6.58597E-05-9.78577E-18-1.11741E-17
 -1      1712 6.76551E-05-9.33869E-06-2.66257E-05 4.38388E-05-1.07514E-17-1.03330E-17
 -1      1713 1.67910E-04-2.67004E-05-5.60295E-05 7.59538E-05-6.71485E-18-1.06980E-17
 -1      1714 1.23046E-04-1.00605E-05-4.70315E-05 6.97189E-05-8.89300E-18-1.14553E-17
 -1      1715 2.29393E-04-5.27859E-05-6.93131E-05 5.49619E-05-4.34855E-18-5.83436E-18
 -1      1716 1.90685E-04-3.28510E-05-6.33599E-05 7.17211E-05-6.40188E-18-9.81965E-18
 -1      1717 2.55826E-04-6.50372E-05-7.50515E-05 8.26574E-06-2.60611E-18 7.71859E-19
 -1      1718 2.41137E-04-5.66746E-05-7.29560E-05 4.03142E-05-3.29962E-18-3.69052E-18
 -1      1719 2.41643E-04-5.71143E-05-7.30300E-05-3.85468E-05-2.71580E-18 5.29819E-18
 -1      1720 2.55635E-04-6.48986E-05-7.50391E-05-7.43201E-06-2.38694E-18 2.08815E-18
 -1      1721 1.96500E-04-3.58606E-05-6.43589E-05-6.91687E-05-3.42212E-18 7.79948E-18
 -1      1722 2.30988E-04-5.38091E-05-6.96767E-05-5.22551E-05-2.41097E-18 6.97616E-18
 -1      1723 1.35029E-04-1.30296E-05-5.02621E-05-7.31265E-05-4.51511E-18 7.73595E-18
 -1      1724 1.76210E-04-2.98206E-05-5.80579E-05-7.54151E-05-3.82012E-18 8.30346E-18
 -1      1725 7.87929E-05-3.25487E-06-3.30074E-05-5.51488E-05-7.65125E-18 7.06087E-18
 -1      1726 1.12053E-04-8.30846E-06-4.21196E-05-7.24095E-05-5.75474E-18 7.18030E-18
 -1      1727 4.23032E-05-1.31640E-05-1.56079E-05-2.78376E-05-8.97008E-18 6.37477E-18
 -1      1728 5.92545E-05-3.08809E-06-2.43844E-05-4.85661E-05-8.02225E-18 7.04054E-18
 -1      1729 2.65065E-05-3.72861E-05-3.86501E-07-5.98294E-06-8.06291E-18 4.88399E-18
 -1      1730 2.89586E-05-1.70571E-05-7.80241E-06-1.98090E-05-9.50879E-18 5.96523E-18
 -1      1731 2.39353E-05-6.25159E-05 1.05548E-05 1.44530E-06-5.45574E-18 2.62855E-18
 -1      1732 1.96015E-05-4.29506E-05 5.47017E-06-3.55000E-07-7.43017E-18 5.04080E-18
 -1      1733 2.30388E-05-7.40320E-05 1.56221E-05-1.68137E-06-2.73655E-18 9.63288E-19
 -1      1734 2.01236E-05-6.54694E-05 1.37510E-05 5.69779E-06-4.74593E-18 1.82070E-18
 -1      1735 1.17968E-04-3.27389E-05-3.53594E-05 4.36954E-05 3.43768E-18 4.38340E-18
 -1      1736 7.27757E-05-3.37538E-05-1.78960E-05 4.00339E-05 3.15266E-18 5.77211E-18
 -1      1737 9.52360E-05-2.85735E-05-2.85694E-05-4.36118E-09-3.26402E-18-8.09727E-20
 -1      1738 9.52349E-05-2.85758E-05-2.85680E-05-1.08964E-08-6.56934E-19 2.53820E-18
 -1      1739 1.91405E-05-4.57340E-05 7.77799E-06 1.70163E-05 5.83606E-19 3.51116E-18
 -1      1740 4.13771E-05-4.12727E-05-2.85950E-06 3.04696E-05 1.45266E-18 3.60293E-18
 -1      1741 1.15922E-05-4.97109E-05 1.18528E-05 8.41538E-08-9.46559E-19 3.13317E-18
 -1      1742 1.59605E-04-3.27815E-05-5.16879E-05 3.75001E-05 3.41704E-18 3.38728E-18
 -1      1743 1.95487E-04-3.34119E-05-6.45691E-05 2.94780E-05 4.30886E-18 2.82570E-18
 -1      1744 2.04484E-04-3.11912E-05-6.93926E-05 7.64503E-06 5.43329E-18 1.23137E-18
 -1      1745 1.98624E-04-3.03421E-05-6.75732E-05-1.53499E-05 5.61244E-18-2.54809E-18
 -1      1746 1.81132E-04-3.14712E-05-5.99672E-05-3.60656E-05 5.97719E-18-5.72764E-18
 -1      1747 1.44093E-04-3.10868E-05-4.61805E-05-4.39094E-05 5.65458E-18-7.17098E-18
 -1      1748 1.01584E-04-3.17673E-05-2.95099E-05-4.47167E-05 6.03172E-18-6.98336E-18
 -1      1749 6.02846E-05-3.49965E-05-1.26078E-05-3.63762E-05 6.42136E-18-5.28379E-18
 -1      1750 3.22189E-05-4.34055E-05 1.33299E-06-2.39597E-05 4.72221E-18-5.33970E-18
 -1      1751 1.59062E-05-5.00587E-05 1.01624E-05-1.09198E-05 1.87660E-18-5.43965E-18
 -1      1752 1.21497E-05-4.80256E-05 1.12548E-05 4.97996E-06-1.18574E-18-5.71874E-18
 -1      1753 2.31860E-05-4.50966E-05 5.64765E-06 1.82388E-05-3.92176E-18-4.81835E-18
 -1      1754 4.66764E-05-3.96529E-05-5.76050E-06 3.00046E-05-6.67462E-18-6.11410E-18
 -1      1755 8.79970E-05-3.60230E-05-2.26685E-05 4.15081E-05-6.50267E-18-6.71782E-18
 -1      1756 1.33657E-04-3.49428E-05-4.08238E-05 4.19662E-05-6.20875E-18-5.82081E-18
 -1      1757 1.74778E-04-3.30353E-05-5.69913E-05 3.80064E-05-6.09551E-18-5.19231E-18
 -1      1758 2.04306E-04-3.44299E-05-6.74812E-05 2.29066E-05-5.63955E-18-2.17518E-18
 -1      1759 2.12731E-04-3.41949E-05-7.08992E-05 6.89625E-07-4.36010E-18 4.77356E-19
 -1      1760 2.05038E-04-3.47957E-05-6.77217E-05-2.08305E-05-3.20115E-18 2.81046E-18
 -1      1761 1.79124E-04-3.31833E-05-5.85282E-05-3.78613E-05-2.44705E-18 4.10303E-18
 -1      1762 1.40598E-04-3.10607E-05-4.47819E-05-4.51499E-05-3.41651E-18 4.45031E-18
 -1      1763 9.91767E-05-3.17530E-05-2.88261E-05-4.40589E-05-4.50367E-18 3.41100E-18
 -1      1764 6.24254E-05-3.60734E-05-1.31947E-05-3.57660E-05-4.86451E-18 3.21025E-18
 -1      1765 3.50728E-05-4.27020E-05-1.76758E-07-2.44920E-05-4.05729E-18 5.05329E-18
 -1      1766 1.76696E-05-4.67660E-05 8.40306E-06-1.31777E-05-2.72490E-18 3.18993E-18
 -1      1767 1.06818E-04-2.35102E-05-3.57961E-05-1.57722E-05-1.12684E-18 6.12024E-18
 -1      1768 8.99251E-05-1.05926E-05-3.41285E-05-1.12163E-05-1.60999E-18-9.70329E-19
 -1      1769 9.15385E-05-1.18165E-05-3.43065E-05-1.30190E-05-1.82976E-18-2.98050E-19
 -1      1770 9.38076E-05-1.42671E-05-3.42498E-05-1.40546E-05-1.79387E-18 4.77409E-19
 -1      1771 9.56546E-05-1.63336E-05-3.44771E-05-1.58271E-05-1.84125E-18 1.49025E-18
 -1      1772 9.47002E-05-1.66180E-05-3.34673E-05-1.15996E-05-1.86645E-18 1.38596E-19
 -1      1773 8.55240E-05-6.84975E-06-3.37916E-05-6.06599E-06-1.07747E-18-2.12322E-18
 -1      1774 8.62777E-05-7.29812E-06-3.38994E-05-7.30452E-06-1.23712E-18-1.96412E-18
 -1      1775 8.42485E-05-5.86138E-06-3.36535E-05-3.97532E-06-7.44201E-19-2.34277E-18
 -1      1776 8.47765E-05-6.15861E-06-3.37344E-05-5.04964E-06-9.03240E-19-2.24730E-18
 -1      1777 8.65089E-05-8.62121E-06-3.34060E-05-5.14066E-06-1.08255E-18-2.04843E-18
 -1      1778 8.34597E-05-5.26768E-06-3.35596E-05-2.12876E-06-3.23510E-19-2.33816E-18
 -1      1779 8.37669E-05-5.43386E-06-3.36093E-05-3.08429E-06-5.12142E-19-2.33442E-18
 -1      1780 8.52013E-05-7.51765E-06-3.33166E-05-3.27727E-06-6.18954E-19-2.22178E-18
 -1      1781 8.31417E-05-5.02637E-06-3.35198E-05-4.12654E-07 1.96242E-20-2.43192E-18
 -1      1782 8.32318E-05-5.07272E-06-3.35360E-05-1.31355E-06-1.35239E-19-2.42220E-18
 -1      1783 8.44461E-05-6.90349E-06-3.32551E-05-1.60521E-06-2.28714E-19-2.26847E-18
 -1      1784 8.32868E-05-5.11938E-06-3.35382E-05 1.29209E-06 3.42568E-19-2.38755E-18
 -1      1785 8.31630E-05-5.05024E-06-3.35202E-05 3.83647E-07 1.62879E-19-2.40445E-18
 -1      1786 8.42289E-05-6.73599E-06-3.32337E-05-2.28822E-08 8.64150E-20-2.31084E-18
 -1      1787 8.38856E-05-5.54367E-06-3.36124E-05 3.10258E-06 6.79628E-19-2.34501E-18
 -1      1788 8.35526E-05-5.35790E-06-3.35620E-05 2.12606E-06 5.53203E-19-2.38748E-18
 -1      1789 8.45392E-05-6.99751E-06-3.32556E-05 1.57914E-06 4.43792E-19-2.24948E-18
 -1      1790 8.49119E-05-6.29801E-06-3.37326E-05 5.09371E-06 1.01397E-18-2.23126E-18
 -1      1791 8.43821E-05-5.99497E-06-3.36545E-05 4.00995E-06 8.38897E-19-2.34125E-18
 -1      1792 8.53588E-05-7.68222E-06-3.33148E-05 3.28902E-06 8.38866E-19-2.22128E-18
 -1      1793 8.64316E-05-7.47019E-06-3.38926E-05 7.43598E-06 1.45761E-18-1.83658E-18
 -1      1794 8.56651E-05-7.00566E-06-3.37862E-05 6.14518E-06 1.21913E-18-2.02512E-18
 -1      1795 8.66910E-05-8.82519E-06-3.33981E-05 5.20681E-06 1.21906E-18-2.01305E-18
 -1      1796 8.85669E-05-9.23115E-06-3.40811E-05 1.01812E-05 1.77142E-18-1.27817E-18
 -1      1797 8.74892E-05-8.51708E-06-3.39446E-05 8.63196E-06 1.56624E-18-1.62691E-18
 -1      1798 8.86098E-05-1.05461E-05-3.34830E-05 7.39574E-06 1.63344E-18-1.56315E-18
 -1      1799 9.17121E-05-1.20704E-05-3.42818E-05 1.32944E-05 2.07314E-18-2.20467E-19
 -1      1800 9.00741E-05-1.08270E-05-3.41064E-05 1.14582E-05 1.88158E-18-8.40124E-19
 -1      1801 9.12867E-05-1.31006E-05-3.35252E-05 9.78240E-06 1.90013E-18-9.43608E-19
 -1      1802 9.72218E-05-1.75090E-05-3.43556E-05 1.59572E-05 2.00899E-18 1.64748E-18
 -1      1803 9.41379E-05-1.47380E-05-3.42054E-05 1.43211E-05 2.01704E-18 5.24181E-19
 -1      1804 9.51881E-05-1.71698E-05-3.34247E-05 1.18479E-05 2.09687E-18 2.09879E-19
 -1      1805 1.03171E-04-2.55482E-05-3.36892E-05 1.30866E-05 1.66468E-18 3.92610E-18
 -1      1806 9.94313E-05-2.01232E-05-3.39903E-05 1.54038E-05 1.84375E-18 2.42363E-18
 -1      1807 9.88617E-05-2.23444E-05-3.28632E-05 1.14967E-05 2.03816E-18 1.61542E-18
 -1      1808 1.00365E-04-2.66615E-05-3.17937E-05 8.11429E-06 1.67583E-18 3.36524E-18
 -1      1809 1.01429E-04-2.00873E-05-3.45493E-05-1.73618E-05-1.52502E-18 3.19543E-18
 -1      1810 9.76706E-05-2.79578E-05-2.98980E-05 2.70312E-06 1.11178E-18 2.61627E-18
 -1      1811 9.96493E-05-2.79526E-05-3.07650E-05 5.06946E-06 1.32124E-18 3.05650E-18
 -1      1812 9.94278E-05-2.61771E-05-3.13911E-05 7.14611E-06 1.60330E-18 1.96732E-18
 -1      1813 1.01236E-04-2.30167E-05-3.32459E-05-1.27919E-05-1.65836E-18 2.40811E-18
 -1      1814 9.91492E-05-2.75483E-05-3.05682E-05-3.95982E-06-1.30395E-18 2.18596E-18
 -1      1815 9.78418E-05-2.77031E-05-3.00164E-05-2.05839E-06-1.18753E-18 1.77986E-18
 -1      1816 9.73785E-05-2.79623E-05-2.96508E-05-3.82006E-07-1.09662E-18 1.71621E-18
 -1      1817 9.72022E-05-2.81798E-05-2.95282E-05 6.48745E-07-9.58974E-19 1.37909E-18
 -1      1818 9.80009E-05-2.70435E-05-3.04392E-05-2.00612E-06-1.33027E-18 8.57786E-19
 -1      1819 9.71301E-05-2.83250E-05-2.94264E-05 1.75265E-06-8.17757E-19 1.35791E-18
 -1      1820 9.75598E-05-2.85753E-05-2.95225E-05 2.43468E-06-6.82421E-19 1.13047E-18
 -1      1821 9.75929E-05-2.78282E-05-2.99273E-05 1.16872E-06-1.04247E-18 7.32809E-19
 -1      1822 9.78439E-05-2.87386E-05-2.95822E-05 3.23480E-06-5.36258E-19 9.31675E-19
 -1      1823 9.87062E-05-2.90632E-05-2.98138E-05 3.75050E-06-4.00663E-19 8.69372E-19
 -1      1824 9.78925E-05-2.83302E-05-2.98373E-05 3.33018E-06-7.98570E-19 4.61443E-19
 -1      1825 9.92836E-05-2.92822E-05-2.99816E-05 4.37794E-06-2.39773E-19 7.45045E-19
 -1      1826 1.00472E-04-2.96922E-05-3.03084E-05 4.79215E-06-8.87896E-20 5.36994E-19
 -1      1827 9.88044E-05-2.88207E-05-3.00145E-05 4.94956E-06-4.71058E-19 1.15954E-19
 -1      1828 1.01293E-04-2.99873E-05-3.05495E-05 5.28835E-06-2.06382E-20 5.47034E-19
 -1      1829 1.02729E-04-3.04914E-05-3.09425E-05 5.59861E-06 1.76371E-20 7.68067E-19
 -1      1830 1.00238E-04-2.94197E-05-3.03692E-05 6.22353E-06-1.27574E-19 1.55601E-20
 -1      1831 1.03761E-04-3.08858E-05-3.12276E-05 5.93450E-06 5.37750E-20 8.35310E-19
 -1      1832 1.05358E-04-3.14923E-05-3.16549E-05 6.08049E-06 8.52348E-20 1.20870E-18
 -1      1833 1.02127E-04-3.02141E-05-3.08362E-05 7.17172E-06 1.73483E-19 1.48289E-19
 -1      1834 1.06578E-04-3.20168E-05-3.19536E-05 6.15674E-06-5.68521E-20 1.39871E-18
 -1      1835 1.08208E-04-3.27238E-05-3.23712E-05 6.01823E-06 1.67759E-19 1.52218E-18
 -1      1836 1.04427E-04-3.12983E-05-3.13562E-05 7.66068E-06 1.41560E-19 4.90224E-19
 -1      1837 1.09590E-04-3.34068E-05-3.26503E-05 5.66309E-06 1.30331E-20 1.41573E-18
 -1      1838 1.11056E-04-3.41777E-05-3.29982E-05 5.06901E-06-9.17012E-20 1.05037E-18
 -1      1839 1.07098E-04-3.27692E-05-3.18699E-05 7.40271E-06-1.98841E-19 4.81237E-19
 -1      1840 1.12536E-04-3.50103E-05-3.32262E-05 4.06102E-06 8.25857E-20 8.11934E-19
 -1      1841 1.13549E-04-3.57282E-05-3.34331E-05 2.84203E-06 7.05618E-20 7.38116E-19
 -1      1842 1.10057E-04-3.46633E-05-3.23239E-05 5.97513E-06-2.21949E-19 5.42692E-19
 -1      1843 1.14966E-04-3.65910E-05-3.35927E-05 1.00248E-06 1.31370E-19 9.23742E-19
 -1      1844 1.15164E-04-3.70008E-05-3.35968E-05-8.74460E-07 5.59571E-20 1.67597E-18
 -1      1845 1.13077E-04-3.68055E-05-3.26910E-05 2.93415E-06 2.58309E-19 6.21477E-19
 -1      1846 1.16175E-04-3.75676E-05-3.37031E-05-3.46693E-06 5.99673E-20 1.76004E-18
 -1      1847 1.15229E-04-3.72672E-05-3.34913E-05-5.67419E-06 1.01803E-19 1.84107E-18
 -1      1848 1.15626E-04-3.85794E-05-3.30014E-05-1.87394E-06 2.41709E-19 1.05289E-18
 -1      1849 1.15307E-04-3.70072E-05-3.36003E-05-8.35315E-06 2.50397E-19 1.95960E-18
 -1      1850 1.13172E-04-3.56448E-05-3.32398E-05-1.00219E-05 6.42819E-20 2.20890E-18
 -1      1851 1.16754E-04-3.87933E-05-3.33640E-05-7.73516E-06 2.39128E-19 1.51592E-18
 -1      1852 1.11949E-04-3.41828E-05-3.34037E-05-1.13821E-05-2.91032E-19 2.04122E-18
 -1      1853 1.09189E-04-3.19591E-05-3.30330E-05-1.13111E-05-3.68221E-19 1.92599E-18
 -1      1854 1.15455E-04-3.62380E-05-3.39045E-05-1.24449E-05-2.89268E-19 1.87160E-18
 -1      1855 1.07174E-04-2.98010E-05-3.32360E-05-9.88597E-06-7.16060E-19 1.87954E-18
 -1      1856 1.05025E-04-2.78344E-05-3.29994E-05-7.45191E-06-9.32054E-19 1.72958E-18
 -1      1857 1.11822E-04-3.11166E-05-3.46013E-05-1.26865E-05-7.21229E-19 1.55479E-18
 -1      1858 1.03751E-04-2.64968E-05-3.31328E-05-3.29591E-06-1.21544E-18 1.17323E-18
 -1      1859 1.03417E-04-2.61338E-05-3.31091E-05 5.63132E-07-7.71912E-19 6.60729E-19
 -1      1860 1.08142E-04-2.62812E-05-3.52012E-05-6.54765E-06-1.52445E-18 1.12671E-18
 -1      1861 1.04121E-04-2.68301E-05-3.30601E-05 5.26888E-06-5.85697E-19-2.26265E-19
 -1      1862 1.05845E-04-2.83838E-05-3.32566E-05 8.41172E-06-7.52959E-19-4.62004E-19
 -1      1863 1.07506E-04-2.54193E-05-3.53328E-05 3.57361E-06-1.34106E-18 1.63492E-19
 -1      1864 1.07863E-04-3.04587E-05-3.30905E-05 1.09484E-05-4.42813E-19-4.45566E-19
 -1      1865 1.10680E-04-3.27913E-05-3.34584E-05 1.18791E-05 3.16135E-19-8.54683E-19
 -1      1866 1.10560E-04-2.92198E-05-3.49161E-05 1.17031E-05-6.23257E-19-1.16514E-18
 -1      1867 1.12401E-04-3.46516E-05-3.32967E-05 1.14049E-05 9.60866E-19-1.29580E-18
 -1      1868 1.14976E-04-3.64170E-05-3.37145E-05 1.02425E-05 9.35905E-19-9.32008E-19
 -1      1869 1.14724E-04-3.46976E-05-3.42599E-05 1.37583E-05 7.91513E-20-1.16047E-18
 -1      1870 1.15430E-04-3.71047E-05-3.36245E-05 7.88773E-06 7.87185E-19-1.05540E-18
 -1      1871 1.16962E-04-3.78017E-05-3.39438E-05 5.77776E-06 2.53719E-19-8.76352E-19
 -1      1872 1.17120E-04-3.83496E-05-3.37014E-05 1.02958E-05 6.10049E-19-1.58585E-18
 -1      1873 1.16325E-04-3.74975E-05-3.38794E-05 3.07835E-06-1.61598E-20-1.72791E-19
 -1      1874 1.16664E-04-3.73379E-05-3.40005E-05 1.05127E-06 1.75356E-19 4.51981E-19
 -1      1875 1.16960E-04-3.90584E-05-3.33560E-05 4.60831E-06 6.02545E-19-1.22998E-18
 -1      1876 1.15444E-04-3.65586E-05-3.38990E-05-1.05088E-06-6.63200E-20 2.26211E-19
 -1      1877 1.14853E-04-3.59637E-05-3.38090E-05-2.47906E-06 5.57818E-19 3.36772E-19
 -1      1878 1.15003E-04-3.77461E-05-3.31077E-05-6.43196E-07 1.70892E-19-5.13113E-19
 -1      1879 1.13477E-04-3.51281E-05-3.36409E-05-3.72972E-06 6.89220E-19 4.91114E-19
 -1      1880 1.12326E-04-3.44156E-05-3.33889E-05-4.49455E-06 5.17269E-19 5.48887E-19
 -1      1881 1.12280E-04-3.56933E-05-3.28331E-05-4.24101E-06 4.30703E-19-5.66306E-19
 -1      1882 1.11008E-04-3.37092E-05-3.31599E-05-5.02100E-06 3.11116E-19 6.26043E-20
 -1      1883 1.09612E-04-3.30397E-05-3.28155E-05-5.27100E-06-6.63089E-19 3.30876E-19
 -1      1884 1.09479E-04-3.37413E-05-3.24725E-05-6.11707E-06 6.67306E-19-8.72826E-19
 -1      1885 1.08430E-04-3.24984E-05-3.25502E-05-5.30757E-06-9.34717E-19 6.43050E-19
 -1      1886 1.07010E-04-3.19294E-05-3.21750E-05-5.23236E-06-1.01618E-18-9.59430E-20
 -1      1887 1.06905E-04-3.21993E-05-3.20297E-05-6.68531E-06-5.59508E-19-3.39994E-19
 -1      1888 1.05983E-04-3.15302E-05-3.19006E-05-4.99038E-06-1.07547E-18 5.04511E-19
 -1      1889 1.04666E-04-3.10697E-05-3.15376E-05-4.74573E-06-4.58566E-19 9.39467E-19
 -1      1890 1.04652E-04-3.10819E-05-3.15417E-05-6.42883E-06-9.02717E-19 7.05837E-19
 -1      1891 1.03790E-04-3.07772E-05-3.12755E-05-4.37652E-06 4.60872E-20 1.14558E-18
 -1      1892 1.02640E-04-3.04140E-05-3.09493E-05-4.06690E-06 3.72283E-19 1.07197E-18
 -1      1893 1.02728E-04-3.03024E-05-3.10501E-05-5.73754E-06 1.03517E-19 1.23813E-18
 -1      1894 1.01906E-04-3.01982E-05-3.07130E-05-3.66452E-06-3.51993E-19 1.87004E-19
 -1      1895 1.00941E-04-2.99164E-05-3.04340E-05-3.35096E-06-5.84550E-19 1.05728E-20
 -1      1896 1.01112E-04-2.97636E-05-3.05877E-05-4.87499E-06-5.72655E-19 8.27938E-19
 -1      1897 1.00336E-04-2.97555E-05-3.02299E-05-2.96738E-06-5.74249E-19 4.32688E-19
 -1      1898 9.95513E-05-2.95398E-05-2.99998E-05-2.68097E-06-6.99934E-19-2.43925E-20
 -1      1899 9.97762E-05-2.93893E-05-3.01746E-05-3.99865E-06-7.09506E-20 1.84107E-20
 -1      1900 9.90604E-05-2.94192E-05-2.98292E-05-2.34088E-06-1.12235E-18-8.61880E-20
 -1      1901 9.84385E-05-2.92562E-05-2.96447E-05-2.09438E-06-8.26381E-19 7.99801E-21
 -1      1902 9.86881E-05-2.91267E-05-2.98199E-05-3.19171E-06-8.18625E-19 4.73162E-19
 -1      1903 9.80469E-05-2.91657E-05-2.95059E-05-1.80632E-06 4.35832E-19 4.23851E-19
 -1      1904 9.75643E-05-2.90442E-05-2.93614E-05-1.60227E-06 1.53572E-18 7.32737E-19
 -1      1905 9.78157E-05-2.89410E-05-2.95247E-05-2.49054E-06-1.47998E-19 2.02293E-18
 -1      1906 9.72572E-05-2.89767E-05-2.92510E-05-1.36596E-06 9.27780E-19 5.53319E-19
 -1      1907 9.68900E-05-2.88876E-05-2.91401E-05-1.20172E-06 7.95730E-19 8.95597E-19
 -1      1908 9.71274E-05-2.88095E-05-2.92851E-05-1.90435E-06 1.01893E-18 1.41238E-18
 -1      1909 9.66533E-05-2.88379E-05-2.90540E-05-1.01253E-06-3.36906E-19 1.87589E-19
 -1      1910 9.63793E-05-2.87738E-05-2.89706E-05-8.83224E-07-1.46169E-18-4.17380E-19
 -1      1911 9.65933E-05-2.87167E-05-2.90950E-05-1.42793E-06-1.33191E-19 2.32700E-19
 -1      1912 9.62000E-05-2.87377E-05-2.89048E-05-7.34787E-07-1.30535E-18-4.08416E-19
 -1      1913 9.59999E-05-2.86926E-05-2.88433E-05-6.34883E-07-1.05322E-18 5.18876E-20
 -1      1914 9.61858E-05-2.86523E-05-2.89471E-05-1.04928E-06-1.35506E-18 5.48581E-19
 -1      1915 9.58667E-05-2.86670E-05-2.87940E-05-5.20488E-07-9.22752E-19-4.64839E-19
 -1      1916 9.57238E-05-2.86362E-05-2.87496E-05-4.44636E-07 8.00413E-20-4.42037E-19
 -1      1917 9.58805E-05-2.86085E-05-2.88342E-05-7.54011E-07-1.05195E-18 1.69139E-19
 -1      1918 9.56269E-05-2.86185E-05-2.87134E-05-3.57963E-07 4.65191E-19-6.75435E-19
 -1      1919 9.55277E-05-2.85984E-05-2.86823E-05-3.01348E-07 4.31890E-19-3.63702E-19
 -1      1920 9.56565E-05-2.85799E-05-2.87497E-05-5.27754E-07-5.31021E-20 2.96330E-19
 -1      1921 9.54590E-05-2.85866E-05-2.86563E-05-2.36790E-07 2.37859E-19-1.08520E-18
 -1      1922 9.53927E-05-2.85742E-05-2.86351E-05-1.95277E-07-6.88090E-19-9.77009E-19
 -1      1923 9.54958E-05-2.85623E-05-2.86879E-05-3.57287E-07-3.09792E-20-2.89794E-19
 -1      1924 9.53455E-05-2.85668E-05-2.86170E-05-1.48047E-07-8.37977E-19 2.07027E-19
 -1      1925 9.53033E-05-2.85599E-05-2.86033E-05-1.18190E-07-7.03402E-19 2.93418E-19
 -1      1926 9.53837E-05-2.85524E-05-2.86436E-05-2.31057E-07-4.91567E-20 9.12244E-20
 -1      1927 9.52721E-05-2.85557E-05-2.85911E-05-8.43194E-08-9.81405E-19 1.59375E-19
 -1      1928 9.52474E-05-2.85526E-05-2.85827E-05-6.33213E-08 2.32259E-19-1.01122E-19
 -1      1929 9.53084E-05-2.85480E-05-2.86128E-05-1.39305E-07-9.39901E-19 1.00187E-18
 -1      1930 9.52282E-05-2.85506E-05-2.85749E-05-3.96005E-08 1.44604E-19 1.52086E-20
 -1      1931 9.52158E-05-2.85502E-05-2.85704E-05-2.52432E-08 3.66005E-19 1.26067E-19
 -1      1932 9.52603E-05-2.85472E-05-2.85922E-05-7.40141E-08-2.01415E-20 2.11751E-18
 -1      1933 9.52050E-05-2.85497E-05-2.85658E-05-9.14369E-09 1.92237E-18-2.51566E-19
 -1      1934 9.52011E-05-2.85510E-05-2.85639E-05 2.80953E-10 2.53032E-18 1.27614E-18
 -1      1935 9.52320E-05-2.85489E-05-2.85791E-05-2.87619E-08 8.93643E-19 2.55002E-18
 -1      1936 9.51963E-05-2.85516E-05-2.85615E-05 1.06878E-08 1.73051E-18 1.67153E-18
 -1      1937 9.51980E-05-2.85539E-05-2.85615E-05 1.64400E-08 2.42812E-18 1.94744E-18
 -1      1938 9.52177E-05-2.85522E-05-2.85714E-05 1.44956E-09 2.19131E-18 2.72591E-18
 -1      1939 9.51971E-05-2.85552E-05-2.85605E-05 2.25530E-08 2.19794E-18 1.39495E-18
 -1      1940 9.52021E-05-2.85581E-05-2.85615E-05 2.54898E-08 1.30689E-18 1.12901E-18
 -1      1941 9.52130E-05-2.85564E-05-2.85674E-05 2.03636E-08 1.82810E-18 2.22744E-18
 -1      1942 9.52037E-05-2.85599E-05-2.85615E-05 2.82340E-08 1.29367E-19 2.25016E-18
 -1      1943 9.52103E-05-2.85631E-05-2.85630E-05 2.88325E-08 1.39846E-19 2.11697E-18
 -1      1944 9.52145E-05-2.85614E-05-2.85658E-05 3.06109E-08 1.45182E-18 1.91222E-18
 -1      1945 9.52133E-05-2.85653E-05-2.85634E-05 2.87837E-08 1.04325E-19 1.29213E-18
 -1      1946 9.52202E-05-2.85687E-05-2.85650E-05 2.71323E-08-1.91236E-19 2.50304E-18
 -1      1947 9.52197E-05-2.85668E-05-2.85656E-05 3.38478E-08-4.79854E-19 2.45350E-18
 -1      1948 9.52232E-05-2.85707E-05-2.85654E-05 2.46394E-08-6.86024E-19 1.93829E-18
 -1      1949 9.52292E-05-2.85739E-05-2.85666E-05 2.08028E-08-5.65861E-19 2.31826E-18
 -1      1950 9.52327E-05-2.85778E-05-2.85664E-05 2.39334E-08-1.71542E-18 2.99360E-18
 -1      1951 9.52262E-05-2.85726E-05-2.85659E-05 3.11977E-08-2.45644E-19 2.94856E-18
 -1      1952 9.64647E-05-2.82499E-05-2.91992E-05 6.23164E-08 9.52892E-19 2.03677E-18
 -1      1953 9.71452E-05-2.82168E-05-2.94782E-05 1.22753E-06 9.39598E-19 2.45137E-18
 -1      1954 9.77757E-05-2.77254E-05-3.00327E-05 2.26704E-06 1.19631E-18 1.56956E-18
 -1      1955 9.64786E-05-2.85227E-05-2.90923E-05-1.47254E-06 8.76232E-19 1.46275E-18
 -1      1956 9.63737E-05-2.83825E-05-2.90846E-05-7.84192E-07 7.35410E-19 1.84686E-18
 -1      1957 9.70275E-05-2.82393E-05-2.94939E-05-4.90392E-07 1.00811E-18 1.24070E-18
 -1      1958 9.73660E-05-2.89264E-05-2.93093E-05-2.45900E-06 6.63257E-19 1.20542E-18
 -1      1959 9.67776E-05-2.86862E-05-2.91482E-05-1.99936E-06 7.87638E-19 1.41527E-18
 -1      1960 9.72273E-05-2.86276E-05-2.94165E-05-2.17936E-06 8.93990E-19 7.08560E-19
 -1      1961 9.88562E-05-2.94715E-05-2.97218E-05-3.11484E-06 2.21972E-19 7.76719E-19
 -1      1962 9.79571E-05-2.91509E-05-2.94691E-05-2.79434E-06 3.92979E-19 1.03753E-18
 -1      1963 9.81320E-05-2.90846E-05-2.96089E-05-3.28239E-06 6.17798E-19 5.15314E-19
 -1      1964 1.00744E-04-3.01409E-05-3.02510E-05-3.49638E-06 3.98551E-19 6.79446E-19
 -1      1965 9.96539E-05-2.97596E-05-2.99450E-05-3.29625E-06 2.00436E-19 7.47874E-19
 -1      1966 9.95415E-05-2.96585E-05-2.99654E-05-3.98898E-06 3.50361E-19 2.38526E-19
 -1      1967 1.02840E-04-3.09083E-05-3.08286E-05-3.56201E-06 4.22814E-19 3.95862E-19
 -1      1968 1.01671E-04-3.04888E-05-3.05044E-05-3.50747E-06 3.60187E-19 6.04384E-19
 -1      1969 1.01291E-04-3.03590E-05-3.04122E-05-4.32583E-06 4.89002E-19 1.24444E-19
 -1      1970 1.04928E-04-3.17308E-05-3.13805E-05-3.20085E-06 7.68032E-19-1.89656E-20
 -1      1971 1.03811E-04-3.13064E-05-3.10785E-05-3.35008E-06 5.72512E-19 2.44002E-19
 -1      1972 1.03219E-04-3.11788E-05-3.08834E-05-4.21461E-06 6.73892E-19 2.04552E-19
 -1      1973 1.06732E-04-3.25309E-05-3.18206E-05-2.26500E-06-4.20294E-19 4.65976E-19
 -1      1974 1.05835E-04-3.21550E-05-3.15901E-05-2.69472E-06 2.33341E-19 2.10024E-19
 -1      1975 1.05136E-04-3.20827E-05-3.13115E-05-3.50829E-06 2.75703E-19 5.83791E-19
 -1      1976 1.07910E-04-3.31728E-05-3.20568E-05-6.35607E-07-8.81907E-20 2.35661E-19
 -1      1977 1.07436E-04-3.29274E-05-3.19520E-05-1.40885E-06-3.15030E-19 2.09287E-19
 -1      1978 1.06791E-04-3.29796E-05-3.16274E-05-2.04606E-06-2.38102E-19 4.07588E-19
 -1      1979 1.08078E-04-3.34457E-05-3.20107E-05 1.65502E-06 4.75808E-19-1.36422E-19
 -1      1980 1.08234E-04-3.34412E-05-3.20787E-05 5.50155E-07 1.31720E-19-3.62843E-20
 -1      1981 1.07860E-04-3.36839E-05-3.17714E-05 2.42219E-07 2.30658E-19-5.71191E-19
 -1      1982 1.06913E-04-3.30880E-05-3.16529E-05 4.25592E-06 1.47492E-18-4.09289E-19
 -1      1983 1.07837E-04-3.34372E-05-3.19114E-05 2.99045E-06 8.49296E-19-2.70256E-19
 -1      1984 1.07970E-04-3.38979E-05-3.17128E-05 3.16852E-06 9.85893E-19-5.34397E-19
 -1      1985 1.04345E-04-3.19091E-05-3.10393E-05 6.38561E-06 3.16565E-19 9.25648E-20
 -1      1986 1.05997E-04-3.26561E-05-3.14528E-05 5.34260E-06 8.18485E-19 1.51235E-19
 -1      1987 1.06807E-04-3.32812E-05-3.14708E-05 6.10452E-06 8.22522E-19 1.69807E-19
 -1      1988 1.00810E-04-3.00156E-05-3.03239E-05 6.97899E-06-3.55043E-19 2.60092E-19
 -1      1989 1.02869E-04-3.10370E-05-3.07941E-05 6.67334E-06-2.05334E-19 4.49589E-20
 -1      1990 1.04369E-04-3.16748E-05-3.11227E-05 7.95644E-06-4.72287E-20 5.57308E-19
 -1      1991 9.73828E-05-2.80071E-05-2.97224E-05 5.24526E-06 2.99109E-21 6.89207E-20
 -1      1992 9.92413E-05-2.89619E-05-3.01096E-05 6.04063E-06-5.43425E-20 1.72662E-19
 -1      1993 1.01246E-04-2.94119E-05-3.07828E-05 7.53161E-06-1.66634E-19 1.76646E-19
 -1      1994 9.54761E-05-2.68239E-05-2.94316E-05 1.41298E-06 3.40918E-19-2.82408E-19
 -1      1995 9.64366E-05-2.72802E-05-2.96065E-05 3.17176E-06 4.29207E-20-1.36611E-19
 -1      1996 9.86485E-05-2.74192E-05-3.05582E-05 4.34063E-06 3.43373E-19 7.53459E-19
 -1      1997 9.60451E-05-2.71331E-05-2.95564E-05-3.07481E-06 5.52577E-19-5.72925E-19
 -1      1998 9.56826E-05-2.68517E-05-2.94533E-05-1.04119E-06 5.49420E-19-2.90589E-19
 -1      1999 9.78471E-05-2.67400E-05-3.05164E-05-6.93357E-07 6.01539E-19 1.52400E-20
 -1      2000 9.89015E-05-2.87858E-05-3.00653E-05-6.36428E-06-2.17846E-20-5.45211E-19
 -1      2001 9.73328E-05-2.79030E-05-2.97141E-05-4.88698E-06 2.07179E-19-6.15502E-19
 -1      2002 9.93020E-05-2.77824E-05-3.06746E-05-5.52018E-06 4.71069E-19-7.06574E-19
 -1      2003 1.02836E-04-3.09392E-05-3.08073E-05-7.35979E-06-6.37420E-19-5.57904E-19
 -1      2004 1.00649E-04-2.98600E-05-3.03175E-05-6.89411E-06-1.04992E-19-5.21044E-19
 -1      2005 1.02311E-04-2.99668E-05-3.09993E-05-8.23076E-06-1.98097E-19-7.35436E-19
 -1      2006 1.06433E-04-3.27094E-05-3.15728E-05-6.21761E-06 3.21975E-19-6.19935E-19
 -1      2007 1.04338E-04-3.18206E-05-3.10851E-05-6.67166E-06-6.27244E-19-6.95083E-19
 -1      2008 1.05555E-04-3.22138E-05-3.14129E-05-8.19675E-06-4.88200E-19-7.06631E-19
 -1      2009 1.08796E-04-3.36659E-05-3.21709E-05-3.89370E-06 1.37035E-18-7.60808E-19
 -1      2010 1.07294E-04-3.31528E-05-3.18018E-05-4.85220E-06 1.24259E-18-2.40074E-19
 -1      2011 1.07947E-04-3.36952E-05-3.18071E-05-6.10840E-06 9.05544E-19-6.63862E-19
 -1      2012 1.09702E-04-3.38391E-05-3.24910E-05-1.40170E-06-1.42474E-19-1.60009E-18
 -1      2013 1.08976E-04-3.36943E-05-3.22989E-05-2.43835E-06 6.75899E-19-1.05528E-18
 -1      2014 1.09050E-04-3.41905E-05-3.20780E-05-3.18616E-06 1.07116E-18-1.24034E-18
 -1      2015 1.09377E-04-3.34794E-05-3.25158E-05 6.18935E-07-6.79049E-19-2.36484E-18
 -1      2016 1.09359E-04-3.36011E-05-3.25008E-05-2.28929E-07-8.25678E-19-2.02617E-18
 -1      2017 1.08964E-04-3.39209E-05-3.21638E-05-4.41984E-07-2.68556E-19-1.66841E-18
 -1      2018 1.08214E-04-3.28486E-05-3.22962E-05 1.94608E-06 2.33735E-19-1.51921E-18
 -1      2019 1.08714E-04-3.31228E-05-3.24211E-05 1.38139E-06-3.72691E-19-2.25135E-18
 -1      2020 1.08027E-04-3.32368E-05-3.20577E-05 1.60149E-06-5.23794E-19-1.90465E-18
 -1      2021 1.06591E-04-3.21331E-05-3.19127E-05 2.62697E-06 4.01566E-19-2.91029E-19
 -1      2022 1.07399E-04-3.24713E-05-3.21270E-05 2.32886E-06 3.12917E-19-6.82136E-19
 -1      2023 1.06596E-04-3.24178E-05-3.17948E-05 2.83669E-06-3.08785E-19-7.39228E-19
 -1      2024 1.04803E-04-3.14407E-05-3.14454E-05 2.82130E-06 4.22478E-20 2.59324E-19
 -1      2025 1.05742E-04-3.17855E-05-3.17023E-05 2.72591E-06 9.53144E-20-1.24047E-19
 -1      2026 1.04954E-04-3.16268E-05-3.14291E-05 3.38460E-06 1.77434E-19 2.82219E-19
 -1      2027 1.03048E-04-3.08229E-05-3.09583E-05 2.70183E-06 1.62160E-19 7.92373E-20
 -1      2028 1.03993E-04-3.11421E-05-3.12221E-05 2.73891E-06 2.66106E-19 5.07479E-19
 -1      2029 1.03299E-04-3.09358E-05-3.10150E-05 3.44269E-06 1.52813E-19 6.93343E-19
 -1      2030 1.01443E-04-3.02981E-05-3.04948E-05 2.41021E-06 5.56273E-19-5.69812E-19
 -1      2031 1.02318E-04-3.05764E-05-3.07424E-05 2.52150E-06 3.79279E-19-9.20205E-20
 -1      2032 1.01752E-04-3.03638E-05-3.05965E-05 3.19954E-06 7.20112E-19 5.99193E-19
 -1      2033 1.00046E-04-2.98670E-05-3.00800E-05 2.04639E-06-1.60582E-19-7.53559E-19
 -1      2034 1.00812E-04-3.00997E-05-3.02988E-05 2.19035E-06 3.51782E-19-5.59089E-19
 -1      2035 1.00378E-04-2.99054E-05-3.02039E-05 2.80168E-06 7.74294E-19 5.04062E-19
 -1      2036 9.88754E-05-2.95219E-05-2.97252E-05 1.67348E-06-1.79908E-18-1.70374E-18
 -1      2037 9.95175E-05-2.97104E-05-2.99102E-05 1.82357E-06-1.02319E-18-2.09061E-18
 -1      2038 9.92034E-05-2.95458E-05-2.98546E-05 2.34930E-06-2.20757E-19-1.21978E-19
 -1      2039 9.79234E-05-2.92517E-05-2.94321E-05 1.32709E-06-1.56622E-19-1.52445E-18
 -1      2040 9.84443E-05-2.94002E-05-2.95832E-05 1.46805E-06-1.42287E-18-2.23097E-18
 -1      2041 9.82294E-05-2.92684E-05-2.95562E-05 1.90402E-06-1.17630E-18-2.33901E-18
 -1      2042 9.71691E-05-2.90444E-05-2.91970E-05 1.02429E-06 2.10100E-19-1.59666E-19
 -1      2043 9.75801E-05-2.91587E-05-2.93170E-05 1.14856E-06 1.28840E-19-6.58056E-19
 -1      2044 9.74430E-05-2.90577E-05-2.93095E-05 1.49943E-06-2.66175E-19-1.21071E-18
 -1      2045 9.65859E-05-2.88888E-05-2.90133E-05 7.70594E-07-3.09115E-19 3.04624E-19
 -1      2046 9.69019E-05-2.89747E-05-2.91060E-05 8.75469E-07 9.11694E-20 7.39171E-19
 -1      2047 9.68227E-05-2.89002E-05-2.91111E-05 1.15055E-06-2.48643E-19 4.36159E-19
 -1      2048 9.61453E-05-2.87744E-05-2.88732E-05 5.64833E-07 9.82547E-19-2.42637E-19
 -1      2049 9.63823E-05-2.88374E-05-2.89431E-05 6.50466E-07 1.80608E-19 2.82549E-20
 -1      2050 9.63443E-05-2.87847E-05-2.89555E-05 8.60926E-07 3.79286E-19 4.14836E-19
 -1      2051 9.58205E-05-2.86925E-05-2.87689E-05 4.02369E-07-2.63706E-19-9.08036E-19
 -1      2052 9.59937E-05-2.87375E-05-2.88203E-05 4.70430E-07 5.25811E-19-1.98914E-20
 -1      2053 9.59836E-05-2.87017E-05-2.88364E-05 6.27598E-07 9.97806E-19 1.03633E-18
 -1      2054 9.55872E-05-2.86355E-05-2.86932E-05 2.77095E-07 2.09475E-19-1.37174E-18
 -1      2055 9.57103E-05-2.86666E-05-2.87300E-05 3.29936E-07 2.20765E-19-8.70205E-19
 -1      2056 9.57179E-05-2.86436E-05-2.87473E-05 4.44338E-07 3.59074E-19-7.38975E-19
 -1      2057 9.54250E-05-2.85974E-05-2.86400E-05 1.82621E-07-2.20572E-19-2.35930E-19
 -1      2058 9.55094E-05-2.86180E-05-2.86654E-05 2.22767E-07-4.05060E-19-1.22362E-18
 -1      2059 9.55272E-05-2.86043E-05-2.86823E-05 3.03654E-07-3.58328E-19-2.75570E-19
 -1      2060 9.53166E-05-2.85732E-05-2.86040E-05 1.12926E-07-7.18926E-19-8.68394E-19
 -1      2061 9.53720E-05-2.85860E-05-2.86208E-05 1.42794E-07-2.11800E-21-5.84799E-19
 -1      2062 9.53947E-05-2.85788E-05-2.86362E-05 1.97982E-07-1.49314E-19-6.78432E-19
 -1      2063 9.52483E-05-2.85591E-05-2.85807E-05 6.26877E-08-1.37249E-19-1.38263E-18
 -1      2064 9.52822E-05-2.85663E-05-2.85912E-05 8.44370E-08-4.53675E-19-9.20980E-19
 -1      2065 9.53062E-05-2.85635E-05-2.86047E-05 1.20334E-07-6.48674E-19-2.19818E-18
 -1      2066 9.52090E-05-2.85521E-05-2.85669E-05 2.74105E-08 5.37725E-19-1.13418E-18
 -1      2067 9.52275E-05-2.85555E-05-2.85728E-05 4.28813E-08 3.23944E-19-1.41689E-18
 -1      2068 9.52504E-05-2.85553E-05-2.85842E-05 6.46069E-08 8.24272E-19-1.57165E-18
 -1      2069 9.51903E-05-2.85501E-05-2.85598E-05 3.44484E-09-9.93390E-19-6.78349E-19
 -1      2070 9.51980E-05-2.85508E-05-2.85624E-05 1.41400E-08-3.03562E-20-8.93029E-19
 -1      2071 9.52185E-05-2.85522E-05-2.85717E-05 2.57033E-08-1.30704E-19-2.74531E-19
 -1      2072 9.51857E-05-2.85515E-05-2.85573E-05-1.20525E-08 1.47427E-18-1.48598E-18
 -1      2073 9.51861E-05-2.85503E-05-2.85578E-05-4.95798E-09-9.66931E-20-1.19807E-18
 -1      2074 9.52033E-05-2.85524E-05-2.85650E-05-4.70177E-10 3.94155E-19-9.07353E-19
 -1      2075 9.51902E-05-2.85548E-05-2.85578E-05-2.11734E-08 1.78804E-18-6.27177E-19
 -1      2076 9.51860E-05-2.85526E-05-2.85569E-05-1.68186E-08 2.52909E-18 2.14489E-19
 -1      2077 9.51995E-05-2.85549E-05-2.85623E-05-1.70545E-08 2.16328E-18-3.15354E-20
 -1      2078 9.52000E-05-2.85595E-05-2.85601E-05-2.52939E-08 1.19110E-18-1.58860E-18
 -1      2079 9.51933E-05-2.85566E-05-2.85584E-05-2.31305E-08 1.18890E-18-1.03136E-18
 -1      2080 9.52031E-05-2.85588E-05-2.85621E-05-2.63029E-08 1.38523E-18 4.42534E-19
 -1      2081 9.52120E-05-2.85647E-05-2.85631E-05-2.50891E-08 4.35136E-19-2.08261E-18
 -1      2082 9.52044E-05-2.85616E-05-2.85611E-05-2.48893E-08 1.14852E-18-2.07320E-18
 -1      2083 9.52109E-05-2.85635E-05-2.85633E-05-2.96039E-08 1.53117E-18-8.00762E-19
 -1      2084 9.52238E-05-2.85701E-05-2.85659E-05-2.05458E-08-2.25979E-19-1.28927E-18
 -1      2085 9.52168E-05-2.85671E-05-2.85642E-05-2.25037E-08-5.94291E-19-1.31465E-18
 -1      2086 9.52205E-05-2.85689E-05-2.85650E-05-2.76841E-08-6.13764E-19 5.20835E-19
 -1      2087 9.52322E-05-2.85744E-05-2.85677E-05-1.40775E-08 1.35551E-20 1.21890E-18
 -1      2088 9.52267E-05-2.85718E-05-2.85664E-05-1.81206E-08-1.22951E-19-3.72424E-19
 -1      2089 9.52286E-05-2.85736E-05-2.85664E-05-2.27309E-08-6.03254E-19 2.65105E-18
 -1      2090 9.52344E-05-2.85778E-05-2.85671E-05-1.68476E-08-5.06040E-19 5.29491E-18
 -1      2091 9.52494E-05-2.86056E-05-2.85616E-05-2.33097E-08 2.59394E-19 1.32699E-18
 -1      2092 9.52468E-05-2.85996E-05-2.85631E-05-2.44959E-08-2.74997E-20 1.51064E-18
 -1      2093 9.52447E-05-2.85960E-05-2.85637E-05-2.52198E-08-5.25265E-19 4.23221E-19
 -1      2094 9.52416E-05-2.85897E-05-2.85651E-05-2.46553E-08-6.99097E-19 2.21309E-19
 -1      2095 9.52442E-05-2.85920E-05-2.85653E-05-3.01016E-08-2.45072E-19 1.45432E-18
 -1      2096 9.52397E-05-2.85870E-05-2.85654E-05-2.30716E-08-1.61178E-18 3.45687E-19
 -1      2097 9.52365E-05-2.85812E-05-2.85666E-05-2.01481E-08-1.07164E-18 3.63703E-18
 -1      2098 9.52342E-05-2.85793E-05-2.85665E-05-2.37178E-08-9.63532E-19 3.52890E-18
 -1      2099 9.52393E-05-2.85856E-05-2.85659E-05-2.91332E-08-1.86167E-18 8.92882E-19
 -1      2100 9.52526E-05-2.86132E-05-2.85597E-05-1.90666E-08-4.92677E-19-2.55990E-18
 -1      2101 9.52507E-05-2.86083E-05-2.85609E-05-2.11509E-08-5.76795E-20-4.25196E-19
 -1      2102 9.52486E-05-2.85986E-05-2.85643E-05-2.68132E-08-1.13595E-18-3.83555E-19
 -1      2103 9.52547E-05-2.86190E-05-2.85581E-05-1.36018E-08-9.09946E-19-2.75645E-18
 -1      2104 9.52534E-05-2.86153E-05-2.85591E-05-1.61374E-08-3.06639E-19-1.37922E-18
 -1      2105 9.52512E-05-2.86035E-05-2.85634E-05-2.11918E-08-1.29794E-18-2.16277E-18
 -1      2106 9.52558E-05-2.86226E-05-2.85570E-05-7.72596E-09-1.14294E-18-1.90707E-18
 -1      2107 9.52551E-05-2.86203E-05-2.85576E-05-1.03935E-08-1.08994E-18-2.67158E-18
 -1      2108 9.52527E-05-2.86069E-05-2.85625E-05-1.44357E-08-1.30326E-18-3.05739E-18
 -1      2109 9.52562E-05-2.86240E-05-2.85566E-05-1.76163E-09-2.03508E-18-9.44367E-19
 -1      2110 9.52560E-05-2.86232E-05-2.85568E-05-4.45590E-09-1.31178E-18-1.60945E-18
 -1      2111 9.52534E-05-2.86088E-05-2.85620E-05-7.33094E-09-1.56016E-18-2.26622E-18
 -1      2112 9.52561E-05-2.86233E-05-2.85568E-05 4.23447E-09-2.02092E-18-2.38650E-18
 -1      2113 9.52563E-05-2.86240E-05-2.85566E-05 1.52407E-09-2.01378E-18-4.67109E-19
 -1      2114 9.52537E-05-2.86095E-05-2.85618E-05-1.53276E-10-2.50081E-18-1.56934E-18
 -1      2115 9.52552E-05-2.86205E-05-2.85576E-05 1.02556E-08-2.10234E-18-2.15396E-18
 -1      2116 9.52559E-05-2.86227E-05-2.85570E-05 7.54462E-09-1.94494E-18-2.12981E-18
 -1      2117 9.52535E-05-2.86090E-05-2.85620E-05 7.07028E-09-1.82733E-18-1.98739E-18
 -1      2118 9.52536E-05-2.86156E-05-2.85590E-05 1.60302E-08-1.19022E-18 1.24792E-18
 -1      2119 9.52548E-05-2.86193E-05-2.85580E-05 1.34815E-08-1.88034E-18-1.06955E-18
 -1      2120 9.52529E-05-2.86071E-05-2.85625E-05 1.42379E-08-6.85867E-19-1.20348E-18
 -1      2121 9.52509E-05-2.86086E-05-2.85609E-05 2.12271E-08-6.57488E-19 2.32712E-18
 -1      2122 9.52528E-05-2.86136E-05-2.85596E-05 1.90494E-08-8.15453E-19 4.07106E-18
 -1      2123 9.52515E-05-2.86039E-05-2.85633E-05 2.11056E-08 6.30849E-19 2.45413E-18
 -1      2124 9.52469E-05-2.85998E-05-2.85630E-05 2.46912E-08 3.13917E-19-1.35335E-19
 -1      2125 9.52495E-05-2.86058E-05-2.85616E-05 2.34829E-08 4.49948E-19-1.60784E-19
 -1      2126 9.52488E-05-2.85989E-05-2.85643E-05 2.69634E-08 1.60386E-18 1.82581E-18
 -1      2127 9.52413E-05-2.85897E-05-2.85650E-05 2.51615E-08-1.26365E-18 2.77072E-18
 -1      2128 9.52449E-05-2.85962E-05-2.85637E-05 2.54566E-08-1.07835E-18 1.02184E-19
 -1      2129 9.52444E-05-2.85922E-05-2.85652E-05 3.03400E-08 2.57925E-19-6.83504E-19
 -1      2130 6.04457E-05-3.98230E-05-9.23078E-06 4.11344E-05 8.10611E-19 3.47710E-18
 -1      2131 4.56469E-05-3.94064E-05-3.36702E-06 3.60555E-05 2.43098E-19 2.31420E-18
 -1      2132 1.24076E-05-3.56077E-05 8.33857E-06 6.26814E-06 2.49875E-20 4.14030E-18
 -1      2133 1.14110E-05-3.30286E-05 7.96404E-06-3.22196E-06-1.31269E-18 2.89643E-18
 -1      2134 2.59944E-05-3.32333E-05 2.19344E-06 2.70851E-05-2.14299E-19 2.00747E-18
 -1      2135 1.76908E-05-3.70212E-05 6.51383E-06 1.55347E-05-3.69730E-19 3.44954E-18
 -1      2136 1.69107E-05-2.59600E-05 3.21077E-06 1.45520E-05-3.21025E-19 3.80191E-18
 -1      2137 9.82352E-05-4.34864E-05-2.34060E-05 4.24265E-05 7.65294E-19 3.92028E-18
 -1      2138 7.96039E-05-4.53777E-05-1.56198E-05 3.86071E-05 2.13452E-19 3.66342E-18
 -1      2139 1.34141E-04-4.55913E-05-3.78425E-05 3.13767E-05 1.72032E-18 6.95414E-19
 -1      2140 1.13459E-04-4.50544E-05-2.98140E-05 3.44634E-05 1.35483E-18 2.21923E-18
 -1      2141 1.18393E-04-5.53463E-05-2.67350E-05 3.29554E-05-6.10923E-19 1.17060E-18
 -1      2142 8.73350E-05-8.32671E-06-3.39564E-05-8.46098E-06-1.37455E-18-1.77841E-18
 -1      2143 8.84111E-05-9.03111E-06-3.40962E-05-9.97723E-06-1.54509E-18-1.40036E-18
 -1      2144 9.10519E-05-1.28149E-05-3.35534E-05-9.54800E-06-1.65611E-18-1.05752E-18
 -1      2145 8.84118E-05-1.03098E-05-3.35001E-05-7.25480E-06-1.38640E-18-1.73220E-18
 -1      2146 1.76844E-04-2.82691E-05-6.26157E-05 9.30705E-06 3.69433E-18-8.68209E-20
 -1      2147 1.66186E-04-2.89897E-05-5.83390E-05 1.52099E-05 3.54483E-18 4.45539E-19
 -1      2148 1.71256E-04-1.94177E-05-6.46640E-05-1.60362E-06 5.72552E-18-1.01745E-18
 -1      2149 1.77361E-04-2.36104E-05-6.46217E-05 5.62182E-06 4.67266E-18 1.82112E-20
 -1      2150 1.56277E-04-1.69609E-05-5.87570E-05-1.99896E-06 4.00901E-18-1.46050E-18
 -1      2151 1.75670E-04-2.58620E-05-6.28976E-05-1.05386E-05 5.39645E-18-2.32383E-18
 -1      2152 1.74923E-04-2.20106E-05-6.46460E-05-2.41322E-06 5.48539E-18-8.26492E-19
 -1      2153 1.59765E-04-3.25660E-05-5.40283E-05-2.12388E-05 4.98479E-18-3.19501E-18
 -1      2154 1.72034E-04-3.13863E-05-5.91866E-05-1.55450E-05 4.97865E-18-2.18704E-18
 -1      2155 1.36114E-04-3.96651E-05-4.14148E-05-2.87656E-05 3.76294E-18-4.33173E-18
 -1      2156 1.54342E-04-3.76395E-05-4.89467E-05-2.88127E-05 4.53205E-18-3.66681E-18
 -1      2157 1.53799E-04-3.76225E-05-4.89546E-05-8.75787E-06 3.64341E-18-5.92923E-19
 -1      2158 1.00017E-04-4.35757E-05-2.49185E-05-3.79749E-05 3.62996E-18-4.64343E-18
 -1      2159 1.20995E-04-4.30835E-05-3.31370E-05-3.91206E-05 3.30089E-18-5.20883E-18
 -1      2160 6.39277E-05-4.29540E-05-1.03354E-05-3.71548E-05 3.52747E-18-3.91530E-18
 -1      2161 8.14927E-05-4.04074E-05-1.78567E-05-4.31575E-05 4.22161E-18-3.74516E-18
 -1      2162 3.38446E-05-4.03288E-05 1.23314E-06-2.87895E-05 1.81773E-18-4.50833E-18
 -1      2163 4.65077E-05-3.84241E-05-4.30253E-06-3.63630E-05 3.20178E-18-4.72734E-18
 -1      2164 1.47731E-05-3.69860E-05 7.85955E-06-1.10055E-05 6.55392E-20-5.36680E-18
 -1      2165 2.02208E-05-3.48856E-05 5.09037E-06-2.09508E-05 1.68729E-18-5.45616E-18
 -1      2166 1.37186E-05-3.08881E-05 6.40488E-06 9.93238E-06-7.05367E-19-5.51080E-18
 -1      2167 1.23145E-05-3.56303E-05 8.31521E-06-1.08710E-06 1.08500E-19-5.68190E-18
 -1      2168 1.51405E-05-2.53610E-05 3.68194E-06-7.92316E-06-5.23043E-20-5.96396E-18
 -1      2169 3.51626E-05-3.84833E-05 2.34547E-07 3.04123E-05-3.17129E-18-4.31224E-18
 -1      2170 2.48000E-05-3.58702E-05 3.73988E-06 2.40442E-05-1.40036E-18-4.40923E-18
 -1      2171 6.65594E-05-4.09741E-05-1.15662E-05 4.06321E-05-4.07846E-18-5.32000E-18
 -1      2172 5.02064E-05-4.30648E-05-4.60470E-06 3.33843E-05-3.50545E-18-4.36672E-18
 -1      2173 1.10173E-04-4.72811E-05-2.70274E-05 4.00392E-05-3.63335E-18-3.39851E-18
 -1      2174 8.77357E-05-4.69498E-05-1.84631E-05 3.77030E-05-3.64309E-18-4.42088E-18
 -1      2175 1.48033E-04-4.29890E-05-4.42872E-05 2.87350E-05-4.33681E-18-2.93751E-18
 -1      2176 1.28447E-04-4.58326E-05-3.58099E-05 2.86484E-05-4.07910E-18-2.89050E-18
 -1      2177 1.71002E-04-3.49342E-05-5.71657E-05 1.66961E-05-5.62504E-18-1.56659E-18
 -1      2178 1.55177E-04-3.65281E-05-5.07956E-05 1.95593E-05-4.96764E-18-2.66858E-18
 -1      2179 1.80766E-04-2.74385E-05-6.46015E-05 5.82352E-06-5.43710E-18-6.27228E-19
 -1      2180 1.73870E-04-2.92916E-05-6.12359E-05 1.27322E-05-5.77973E-18-1.44673E-18
 -1      2181 1.59559E-04-2.86975E-05-5.50081E-05-8.08734E-07-5.23339E-18 2.20229E-19
 -1      2182 1.81027E-04-2.37747E-05-6.62862E-05-2.52296E-06-4.41897E-18 6.32839E-19
 -1      2183 1.80904E-04-2.35615E-05-6.62980E-05 3.31367E-06-5.08389E-18-3.34154E-19
 -1      2184 1.76854E-04-2.90016E-05-6.23327E-05-1.22139E-05-2.79330E-18 1.78809E-18
 -1      2185 1.82772E-04-2.75557E-05-6.53020E-05-5.19050E-06-3.64986E-18 8.32845E-19
 -1      2186 1.59054E-04-3.49602E-05-5.28224E-05-2.16579E-05-1.93666E-18 2.74185E-18
 -1      2187 1.73869E-04-3.44321E-05-5.84490E-05-1.75120E-05-1.89206E-18 2.74100E-18
 -1      2188 1.34192E-04-4.27292E-05-3.94738E-05-2.87143E-05-1.99836E-18 2.30816E-18
 -1      2189 1.51983E-04-4.13810E-05-4.65728E-05-2.72018E-05-1.71948E-18 2.70034E-18
 -1      2190 1.00806E-04-4.43761E-05-2.50525E-05-3.64461E-05-2.04474E-18 1.14773E-18
 -1      2191 1.20302E-04-4.30685E-05-3.27842E-05-3.86131E-05-2.16248E-18 1.78343E-18
 -1      2192 6.89026E-05-4.46719E-05-1.15803E-05-3.69427E-05-2.14215E-18 1.07785E-18
 -1      2193 8.57398E-05-4.30536E-05-1.84197E-05-4.16325E-05-2.36576E-18 1.09987E-18
 -1      2194 4.04017E-05-4.07552E-05-1.14828E-06-3.09707E-05-1.53144E-18 3.51455E-18
 -1      2195 5.34248E-05-3.96489E-05-6.47508E-06-3.71681E-05-1.90413E-18 2.56781E-18
 -1      2196 7.42382E-05-4.73215E-05-1.18890E-05-4.16961E-05 3.13402E-20 2.88256E-20
 -1      2197 1.81599E-05-3.40243E-05 5.63869E-06-1.58890E-05-1.30528E-18 2.10276E-18
 -1      2198 2.57312E-05-3.46120E-05 2.84440E-06-2.48221E-05-2.10403E-18 3.03132E-18
 -1      2199 1.63163E-04-3.53475E-05-5.36324E-05 2.05656E-05 2.85805E-18 6.53486E-19
 -1      2200 1.45273E-04-3.77093E-05-4.61972E-05 2.02667E-05 2.15379E-18 3.63377E-19
 -1      2201 1.55039E-04-3.06135E-05-5.25757E-05 1.27824E-06 2.28085E-18-1.27860E-18
 -1      2202 1.43740E-04-4.87172E-05-4.05256E-05 1.49845E-05 1.15456E-18-4.33257E-19
 -1      2203 9.90103E-05-2.48555E-05-3.18435E-05-8.30353E-06-1.58252E-18 2.01438E-18
 -1      2204 1.36341E-04-5.01278E-05-3.65322E-05-2.46039E-05 2.06528E-18-2.45216E-18
 -1      2205 9.81177E-05-2.35485E-05-3.20322E-05-8.24183E-06-1.70453E-18 9.13154E-19
 -1      2206 4.16284E-05-3.53213E-05-2.97067E-06 3.46796E-05-3.29496E-19 2.38334E-18
 -1      2207 3.81196E-05-2.85441E-05-3.67360E-06 3.38949E-05-1.01072E-18 2.36005E-18
 -1      2208 5.70304E-05-3.75974E-05-8.69726E-06 4.18578E-05-9.85735E-19 1.98015E-18
 -1      2209 8.38756E-05-4.91908E-05-1.49755E-05 4.24163E-05-9.62653E-19 3.05821E-18
 -1      2210 9.52388E-05-2.85850E-05-2.85660E-05 2.52648E-08-1.77557E-18 2.39640E-18
 -1      2211 1.75187E-05-2.56523E-05 2.91292E-06-1.23223E-05-7.01026E-19 2.95530E-18
 -1      2212 4.11181E-05-3.51966E-05-3.00362E-06-3.39963E-05-8.21622E-20 2.30795E-18
 -1      2213 1.06860E-04-5.40075E-05-2.26893E-05-3.67184E-05-4.84503E-19-4.48504E-19
 -1      2214 1.36513E-04-5.30719E-05-3.53719E-05-2.33035E-05-5.60101E-19 6.00546E-19
 -1      2215 1.54441E-04-4.26820E-05-4.72130E-05-8.08711E-06-1.03129E-18 1.42810E-18
 -1      2216 1.63024E-04-2.78568E-05-5.67821E-05-1.03432E-06-2.36746E-18 1.43911E-18
 -1      2217 1.61328E-04-1.67661E-05-6.08327E-05-8.52016E-07-5.75517E-18-5.77782E-19
 -1      2218 1.52311E-04-4.49663E-05-4.54103E-05 8.69760E-06-3.61716E-18-3.34578E-19
 -1      2219 1.29221E-04-5.60849E-05-3.10905E-05 2.72874E-05-1.98883E-18-1.12486E-18
 -1      2220 9.03646E-05-5.16013E-05-1.66230E-05 4.12682E-05-1.41539E-18-3.21544E-18
 -1      2221 2.20989E-05-3.01481E-05 2.83849E-06 1.90474E-05-4.32410E-19-5.13238E-18
 -1      2222 2.05507E-05-2.14376E-05 5.56343E-07 1.44243E-05 1.44737E-19-5.45659E-18
 -1      2223 3.14513E-05-2.74996E-05-1.86174E-06 2.81822E-05 4.34316E-19-4.57842E-18
 -1      2224 3.23708E-05-3.35521E-05-1.97379E-07-3.06503E-05 2.81850E-19-5.21052E-18
 -1      2225 6.60566E-05-4.46488E-05-9.63393E-06-4.21149E-05 1.09183E-18-3.52056E-18
 -1      2226 1.47583E-04-1.20018E-05-5.82108E-05 1.62271E-06 5.39984E-18-5.40831E-19
 -1      2227 1.62684E-04-1.64547E-05-6.20266E-05-3.55806E-07 5.51037E-18-4.84926E-19
 -1      2228 1.44996E-04-9.97309E-06-5.80286E-05-1.60793E-07 5.28676E-18-1.17309E-18
 -1      2229 1.59514E-04-2.36998E-05-5.72256E-05-1.33309E-06 4.95451E-18-7.77153E-19
 -1      2230 1.03529E-04-5.18943E-05-2.20607E-05-3.92266E-05 1.67924E-18-2.81935E-18
 -1      2231 5.20654E-05-4.06879E-05-5.50558E-06 3.88999E-05-9.63076E-19-4.07666E-18
 -1      2232 1.62589E-04-1.64649E-05-6.14502E-05 1.08925E-06-4.47022E-18 3.46860E-19
 -1      2233 9.76408E-05-2.68862E-05-3.03004E-05 1.95991E-06 1.22390E-18 7.10254E-19
 -1      2234 9.82349E-05-2.63100E-05-3.07514E-05 3.90388E-06 1.39170E-18 9.20215E-19
 -1      2235 8.58933E-05-9.07862E-06-3.29604E-05-2.43297E-06-5.10751E-19-2.06429E-18
 -1      2236 8.64300E-05-9.51061E-06-3.29956E-05-3.26998E-06-7.93875E-19-2.08568E-18
 -1      2237 8.71711E-05-1.02582E-05-3.30111E-05-3.97012E-06-9.23790E-19-2.02679E-18
 -1      2238 8.79941E-05-1.09598E-05-3.30523E-05-4.91280E-06-1.15057E-18-1.91985E-18
 -1      2239 8.78756E-05-1.16654E-05-3.26546E-05-3.06102E-06-7.86608E-19-1.87385E-18
 -1      2240 8.51186E-05-8.37550E-06-3.29189E-05 3.27961E-07 1.81627E-19-2.13863E-18
 -1      2241 8.50902E-05-8.35118E-06-3.29187E-05-4.28480E-07-1.41761E-20-2.15612E-18
 -1      2242 8.56057E-05-8.80175E-06-3.29435E-05 1.73447E-06 5.52909E-19-2.13085E-18
 -1      2243 8.53028E-05-8.56040E-06-3.29243E-05 9.42474E-07 3.35822E-19-2.16147E-18
 -1      2244 8.61637E-05-1.00666E-05-3.26087E-05 5.00588E-07 2.70611E-19-1.98135E-18
 -1      2245 8.66322E-05-9.72608E-06-3.29893E-05 3.24890E-06 9.27393E-19-2.07937E-18
 -1      2246 8.60754E-05-9.27130E-06-3.29567E-05 2.39181E-06 6.74020E-19-2.09972E-18
 -1      2247 8.68495E-05-1.07158E-05-3.26243E-05 1.70643E-06 5.62262E-19-1.92292E-18
 -1      2248 8.82248E-05-1.12242E-05-3.30377E-05 4.97630E-06 1.40004E-18-1.76929E-18
 -1      2249 8.73936E-05-1.05057E-05-3.30005E-05 3.99566E-06 1.13040E-18-1.97511E-18
 -1      2250 8.81235E-05-1.19458E-05-3.26424E-05 3.03600E-06 1.00512E-18-1.84922E-18
 -1      2251 9.04048E-05-1.34150E-05-3.30516E-05 6.87101E-06 1.73286E-18-1.40173E-18
 -1      2252 8.92796E-05-1.23506E-05-3.30279E-05 5.78796E-06 1.53075E-18-1.59026E-18
 -1      2253 8.99817E-05-1.38173E-05-3.26327E-05 4.49953E-06 1.43783E-18-1.52455E-18
 -1      2254 9.32724E-05-1.65570E-05-3.29707E-05 8.72774E-06 1.96966E-18-7.16987E-19
 -1      2255 9.17846E-05-1.49738E-05-3.29848E-05 7.64635E-06 1.75985E-18-1.09390E-18
 -1      2256 9.23977E-05-1.64266E-05-3.25383E-05 5.95380E-06 1.64715E-18-1.12599E-18
 -1      2257 9.73919E-05-2.77551E-05-2.98171E-05-8.69054E-07 1.12472E-18 3.60666E-19
 -1      2258 9.75262E-05-2.74288E-05-2.99698E-05 2.96113E-07 1.12341E-18 5.92175E-19
 -1      2259 9.74618E-05-2.61390E-05-3.05818E-05 1.61466E-06 1.31780E-18-7.56903E-20
 -1      2260 9.77949E-05-2.52775E-05-3.10299E-05-3.52640E-06-1.38625E-18 3.47075E-19
 -1      2261 9.74779E-05-2.60426E-05-3.06168E-05-1.37625E-06-1.28276E-18 3.26432E-19
 -1      2262 1.30419E-04-5.56546E-05-3.20058E-05-2.22508E-05 6.05311E-19-1.40798E-18
 -1      2263 1.42212E-04-5.15101E-05-3.92383E-05-1.37795E-05 1.47585E-18-1.29596E-19
 -1      2264 1.45539E-04-4.58429E-05-4.30602E-05 4.54770E-06 1.02975E-18-1.47807E-18
 -1      2265 1.36952E-04-5.35508E-05-3.57591E-05 1.34830E-05 1.92859E-19-1.26039E-18
 -1      2266 9.75495E-05-2.66886E-05-3.03133E-05 2.98915E-07-1.09286E-18 3.20677E-19
 -1      2267 9.75234E-05-2.71083E-05-3.01629E-05 1.69120E-06-9.88157E-19 1.27373E-19
 -1      2268 9.70464E-05-2.51736E-05-3.08160E-05-8.55069E-07-1.26307E-18-2.81959E-19
 -1      2269 9.75808E-05-2.74336E-05-3.00263E-05 2.96321E-06-9.58317E-19 2.03387E-19
 -1      2270 9.78775E-05-2.77501E-05-3.00361E-05 3.97002E-06-7.79135E-19-1.65097E-20
 -1      2271 9.71813E-05-2.64169E-05-3.03457E-05 2.31185E-06-1.03424E-18-4.42052E-19
 -1      2272 9.80574E-05-2.79751E-05-3.00132E-05 4.97051E-06-6.52033E-19 8.47717E-20
 -1      2273 9.86379E-05-2.82953E-05-3.01284E-05 5.75269E-06-4.80637E-19 3.14927E-20
 -1      2274 9.74550E-05-2.71504E-05-3.01484E-05 4.75020E-06-6.84106E-19-1.42169E-19
 -1      2275 9.89801E-05-2.85275E-05-3.01801E-05 6.56819E-06-2.00251E-19-1.44695E-19
 -1      2276 9.98055E-05-2.89196E-05-3.03642E-05 7.18138E-06-1.14424E-20-8.68169E-20
 -1      2277 9.80064E-05-2.77335E-05-3.01334E-05 6.69677E-06-4.46469E-19-2.46302E-19
 -1      2278 1.00342E-04-2.92441E-05-3.04594E-05 7.83245E-06 4.23215E-20-2.40883E-19
 -1      2279 1.01386E-04-2.97741E-05-3.06822E-05 8.25325E-06 2.43554E-19-2.46412E-19
 -1      2280 9.89056E-05-2.84062E-05-3.02305E-05 8.27040E-06-1.25028E-19-3.81499E-19
 -1      2281 1.02173E-04-3.02862E-05-3.07957E-05 8.69106E-06 3.41286E-19-3.48764E-19
 -1      2282 1.03421E-04-3.10292E-05-3.10286E-05 8.82037E-06 1.31527E-19-1.99616E-19
 -1      2283 1.00242E-04-2.93935E-05-3.03833E-05 9.45474E-06 1.39776E-19-6.95369E-19
 -1      2284 1.04556E-04-3.18422E-05-3.11423E-05 8.91553E-06 2.06464E-20-1.11462E-19
 -1      2285 1.05985E-04-3.28679E-05-3.13588E-05 8.57907E-06-1.93817E-19-2.92020E-20
 -1      2286 1.02170E-04-3.09518E-05-3.05499E-05 1.00859E-05 1.64562E-19-6.55647E-19
 -1      2287 1.07593E-04-3.40840E-05-3.14711E-05 8.10768E-06-2.27941E-19 3.94828E-19
 -1      2288 1.09141E-04-3.53955E-05-3.16549E-05 7.07752E-06-2.24795E-20 4.61944E-19
 -1      2289 1.04916E-04-3.33447E-05-3.07151E-05 9.82815E-06-9.06342E-21-1.14562E-19
 -1      2290 1.11304E-04-3.70058E-05-3.17973E-05 5.73323E-06 2.53468E-19 8.13061E-19
 -1      2291 1.12790E-04-3.84084E-05-3.19573E-05 3.81354E-06 4.89962E-19 7.68007E-19
 -1      2292 1.08704E-04-3.66900E-05-3.09198E-05 8.15962E-06 2.19832E-19 8.18906E-19
 -1      2293 1.15364E-04-4.00979E-05-3.22147E-05 1.31472E-06 3.73060E-19 8.90802E-19
 -1      2294 1.16405E-04-4.10188E-05-3.24018E-05-1.45603E-06 3.58811E-19 1.32457E-18
 -1      2295 1.13503E-04-4.06048E-05-3.13034E-05 4.45794E-06 5.08000E-19 9.11922E-19
 -1      2296 1.18757E-04-4.19430E-05-3.29176E-05-5.04089E-06 3.35650E-19 1.24675E-18
 -1      2297 1.18757E-04-4.13858E-05-3.32282E-05-8.04847E-06 1.75114E-19 1.36991E-18
 -1      2298 1.18572E-04-4.36822E-05-3.21340E-05-1.62472E-06 4.69786E-19 8.99898E-19
 -1      2299 1.19655E-04-4.02265E-05-3.41478E-05-1.16476E-05-6.61778E-20 1.61804E-18
 -1      2300 1.18201E-04-3.73898E-05-3.46382E-05-1.33956E-05-5.46138E-19 1.60102E-18
 -1      2301 1.22006E-04-4.32016E-05-3.37645E-05-9.23355E-06 5.64997E-20 1.17033E-18
 -1      2302 1.16845E-04-3.36975E-05-3.58614E-05-1.45581E-05-9.27091E-19 1.69934E-18
 -1      2303 1.14519E-04-2.93936E-05-3.64298E-05-1.33034E-05-1.09341E-18 1.71497E-18
 -1      2304 1.21516E-04-3.68529E-05-3.63096E-05-1.48532E-05-7.12275E-19 1.55526E-18
 -1      2305 1.12043E-04-2.53242E-05-3.74583E-05-9.67962E-06-1.64555E-18 1.26218E-18
 -1      2306 1.10685E-04-2.26017E-05-3.78063E-05-5.30453E-06-2.06949E-18 1.05516E-18
 -1      2307 1.17194E-04-2.64382E-05-3.89503E-05-1.32755E-05-1.73351E-18 1.49819E-18
 -1      2308 1.09973E-04-2.16614E-05-3.80244E-05 1.63838E-06-2.07645E-18 3.57911E-19
 -1      2309 1.10988E-04-2.31360E-05-3.78551E-05 6.80780E-06-1.68110E-18-3.29483E-19
 -1      2310 1.13879E-04-1.96983E-05-4.04536E-05-2.69923E-06-2.34480E-18 2.67954E-19
 -1      2311 1.13018E-04-2.64994E-05-3.70527E-05 1.17752E-05-1.19429E-18-1.13360E-18
 -1      2312 1.15312E-04-3.05835E-05-3.65612E-05 1.43807E-05-5.51921E-19-1.27833E-18
 -1      2313 1.15924E-04-2.34263E-05-3.97873E-05 1.04319E-05-1.90784E-18-9.72936E-19
 -1      2314 1.17467E-04-3.48607E-05-3.53540E-05 1.47819E-05-2.67874E-20-1.66429E-18
 -1      2315 1.19381E-04-3.84949E-05-3.48239E-05 1.39700E-05 3.25080E-19-1.75381E-18
 -1      2316 1.20499E-04-3.32997E-05-3.73618E-05 1.60252E-05-6.31622E-19-1.96009E-18
 -1      2317 1.19356E-04-4.05421E-05-3.37950E-05 1.08923E-05 3.73244E-19-1.54398E-18
 -1      2318 1.19861E-04-4.18452E-05-3.34605E-05 8.23333E-06 2.37990E-19-2.04038E-18
 -1      2319 1.22552E-04-4.16320E-05-3.46776E-05 1.28998E-05 3.05276E-19-1.96872E-18
 -1      2320 1.17979E-04-4.15893E-05-3.28288E-05 4.49714E-06 5.00239E-19-1.89759E-18
 -1      2321 1.17336E-04-4.11039E-05-3.26392E-05 1.57044E-06 5.61854E-19-1.74886E-18
 -1      2322 1.20404E-04-4.40480E-05-3.27822E-05 5.32534E-06 1.83149E-19-1.68184E-18
 -1      2323 1.14781E-04-3.95713E-05-3.23249E-05-1.32886E-06 3.57196E-19-1.44032E-18
 -1      2324 1.13503E-04-3.82773E-05-3.21927E-05-3.53557E-06 1.70621E-19-8.91575E-19
 -1      2325 1.15793E-04-4.19576E-05-3.17151E-05-1.63460E-06 5.62488E-19-1.48775E-18
 -1      2326 1.11194E-04-3.65862E-05-3.20383E-05-5.22615E-06 7.84002E-20-4.74702E-19
 -1      2327 1.09746E-04-3.52360E-05-3.18948E-05-6.51346E-06 4.29237E-19-7.66533E-19
 -1      2328 1.10846E-04-3.81108E-05-3.12350E-05-6.12927E-06 3.53401E-19-1.00112E-18
 -1      2329 1.07983E-04-3.38857E-05-3.17894E-05-7.21987E-06 3.88654E-19-1.32786E-18
 -1      2330 1.06608E-04-3.27961E-05-3.16093E-05-7.74449E-06 5.96817E-19-1.19984E-18
 -1      2331 1.06750E-04-3.45015E-05-3.10104E-05-8.37018E-06 2.09856E-20-1.35730E-18
 -1      2332 1.05349E-04-3.18746E-05-3.15000E-05-7.80584E-06 5.55156E-19-1.39044E-18
 -1      2333 1.04131E-04-3.10932E-05-3.12887E-05-7.81177E-06-4.86190E-19-8.31970E-19
 -1      2334 1.03729E-04-3.18250E-05-3.08459E-05-9.01636E-06 1.76987E-19-1.64272E-18
 -1      2335 1.03245E-04-3.05264E-05-3.11617E-05-7.50402E-06-7.92086E-19-4.07368E-19
 -1      2336 1.02200E-04-3.00002E-05-3.09365E-05-7.21164E-06-1.97551E-19 8.94532E-20
 -1      2337 1.01588E-04-3.00871E-05-3.06610E-05-8.67965E-06-6.92556E-20-1.35709E-18
 -1      2338 1.01562E-04-2.96776E-05-3.07962E-05-6.72754E-06-1.21129E-19 7.36379E-20
 -1      2339 1.00681E-04-2.93337E-05-3.05748E-05-6.29618E-06 1.93269E-19 3.89906E-19
 -1      2340 1.00067E-04-2.90664E-05-3.04395E-05-7.81816E-06-1.20589E-19-5.88224E-19
 -1      2341 1.00205E-04-2.91630E-05-3.04313E-05-5.75600E-06-1.29798E-19 1.90371E-19
 -1      2342 9.94710E-05-2.89409E-05-3.02265E-05-5.28701E-06-6.24949E-19 3.56463E-20
 -1      2343 9.89556E-05-2.85201E-05-3.01936E-05-6.73470E-06-1.23474E-19-7.63956E-19
 -1      2344 9.91032E-05-2.88584E-05-3.00889E-05-4.76001E-06-4.77719E-19 2.19980E-19
 -1      2345 9.85010E-05-2.87153E-05-2.99081E-05-4.31099E-06-8.81708E-20 3.07249E-19
 -1      2346 9.81141E-05-2.82609E-05-2.99423E-05-5.61405E-06-7.74220E-19 1.03048E-18
 -1      2347 9.82101E-05-2.86814E-05-2.97828E-05-3.83304E-06-1.28096E-19-3.58024E-20
 -1      2348 9.77232E-05-2.85893E-05-2.96289E-05-3.43242E-06-4.62781E-19 7.81900E-19
 -1      2349 9.74586E-05-2.81642E-05-2.97020E-05-4.56002E-06-1.23439E-19 2.15380E-19
 -1      2350 9.74907E-05-2.85809E-05-2.95192E-05-3.01869E-06 5.34177E-20 1.33475E-18
 -1      2351 9.71030E-05-2.85220E-05-2.93919E-05-2.67705E-06 1.01741E-18 2.20723E-18
 -1      2352 9.69393E-05-2.81534E-05-2.94837E-05-3.62380E-06 3.49940E-19 1.19849E-18
 -1      2353 9.69173E-05-2.85261E-05-2.92989E-05-2.33052E-06 5.10035E-19 1.76395E-18
 -1      2354 9.66135E-05-2.84891E-05-2.91961E-05-2.04835E-06 1.21296E-19 8.41479E-19
 -1      2355 9.65259E-05-2.81844E-05-2.92929E-05-2.82400E-06 1.30485E-19 2.05779E-18
 -1      2356 9.64663E-05-2.84988E-05-2.91193E-05-1.76536E-06-7.97443E-20 2.33268E-19
 -1      2357 9.62323E-05-2.84763E-05-2.90381E-05-1.53797E-06-7.70181E-19 6.77141E-20
 -1      2358 9.61980E-05-2.82326E-05-2.91314E-05-2.16025E-06-4.40526E-19 5.92233E-19
 -1      2359 9.61169E-05-2.84880E-05-2.89761E-05-1.31166E-06-1.17414E-18 1.34765E-19
 -1      2360 9.59398E-05-2.84753E-05-2.89131E-05-1.13210E-06-1.63976E-18 3.48604E-19
 -1      2361 9.59403E-05-2.82851E-05-2.89981E-05-1.62198E-06-1.14453E-18 5.62492E-19
 -1      2362 9.58508E-05-2.84870E-05-2.88641E-05-9.54393E-07-1.61433E-18 8.31349E-19
 -1      2363 9.57192E-05-2.84809E-05-2.88162E-05-8.15144E-07-5.94443E-19 9.12263E-19
 -1      2364 9.57407E-05-2.83354E-05-2.88905E-05-1.19397E-06-8.83640E-19 1.53815E-18
 -1      2365 9.56519E-05-2.84918E-05-2.87781E-05-6.77964E-07 7.09986E-20 1.31405E-18
 -1      2366 9.55562E-05-2.84899E-05-2.87424E-05-5.71797E-07 5.23729E-19 1.22474E-18
 -1      2367 9.55885E-05-2.83807E-05-2.88054E-05-8.59632E-07-2.63683E-19 2.16718E-18
 -1      2368 9.55062E-05-2.84996E-05-2.87134E-05-4.67645E-07-6.52311E-19 1.09151E-18
 -1      2369 9.54383E-05-2.85005E-05-2.86874E-05-3.88056E-07-1.01569E-18 1.74707E-19
 -1      2370 9.54746E-05-2.84199E-05-2.87395E-05-6.02806E-07-5.22645E-19 1.35431E-18
 -1      2371 9.54020E-05-2.85089E-05-2.86657E-05-3.10309E-07 6.26850E-19-4.36578E-19
 -1      2372 9.53554E-05-2.85114E-05-2.86472E-05-2.51687E-07 3.65316E-19 2.34597E-19
 -1      2373 9.53912E-05-2.84530E-05-2.86892E-05-4.08784E-07-5.71402E-19 7.60484E-19
 -1      2374 9.53298E-05-2.85186E-05-2.86314E-05-1.94690E-07-2.55628E-19 4.36165E-19
 -1      2375 9.52991E-05-2.85220E-05-2.86186E-05-1.52340E-07-4.46240E-19 1.20984E-18
 -1      2376 9.53318E-05-2.84803E-05-2.86518E-05-2.64719E-07 4.33483E-19 1.72455E-18
 -1      2377 9.52817E-05-2.85279E-05-2.86073E-05-1.11397E-07-1.40804E-19 1.94591E-18
 -1      2378 9.52626E-05-2.85318E-05-2.85988E-05-8.14945E-08 8.92322E-19 2.01282E-18
 -1      2379 9.52907E-05-2.85025E-05-2.86244E-05-1.59742E-07 5.60855E-19 3.19756E-18
 -1      2380 9.52513E-05-2.85367E-05-2.85909E-05-5.28088E-08 8.94442E-19 2.57740E-18
 -1      2381 9.52407E-05-2.85407E-05-2.85856E-05-3.23188E-08 1.31587E-18 2.48872E-18
 -1      2382 9.52634E-05-2.85205E-05-2.86048E-05-8.49058E-08 1.26744E-18 2.00465E-18
 -1      2383 9.52339E-05-2.85449E-05-2.85803E-05-1.29022E-08 1.97047E-18 2.39689E-18
 -1      2384 9.52291E-05-2.85488E-05-2.85772E-05 5.07250E-10 2.30107E-18 2.08296E-18
 -1      2385 9.52465E-05-2.85350E-05-2.85911E-05-3.30444E-08 1.28616E-18 1.26393E-18
 -1      2386 9.52255E-05-2.85524E-05-2.85737E-05 1.29314E-08 1.11748E-18 2.14750E-18
 -1      2387 9.52247E-05-2.85562E-05-2.85722E-05 2.09745E-08 1.45230E-18 2.10409E-18
 -1      2388 9.52370E-05-2.85468E-05-2.85819E-05 1.41901E-09 2.01458E-18 1.82267E-18
 -1      2389 9.52234E-05-2.85595E-05-2.85700E-05 2.80475E-08 2.23611E-18 1.26157E-18
 -1      2390 9.52251E-05-2.85633E-05-2.85693E-05 3.18756E-08 7.03405E-19 2.02307E-18
 -1      2391 9.52328E-05-2.85568E-05-2.85757E-05 2.26673E-08 9.86513E-19 2.12305E-18
 -1      2392 9.52253E-05-2.85666E-05-2.85679E-05 3.47393E-08-6.86337E-19 2.11950E-18
 -1      2393 9.52283E-05-2.85704E-05-2.85677E-05 3.49802E-08-6.32565E-19 2.03825E-18
 -1      2394 9.52323E-05-2.85657E-05-2.85716E-05 3.36462E-08 3.23750E-19-1.15960E-19
 -1      2395 9.84771E-05-2.88930E-05-2.98069E-05-4.02986E-06 5.57497E-19 6.04504E-20
 -1      2396 9.79020E-05-2.85725E-05-2.96855E-05-3.52072E-06 7.42392E-19 2.44112E-19
 -1      2397 9.96912E-05-2.95422E-05-3.00563E-05-4.86090E-06 4.07245E-19-5.39462E-20
 -1      2398 9.89028E-05-2.91603E-05-2.98729E-05-4.55168E-06 3.79704E-19 6.27698E-20
 -1      2399 9.84426E-05-2.86965E-05-2.99094E-05-4.86332E-06 6.38651E-19 4.60491E-21
 -1      2400 1.01226E-04-3.03430E-05-3.03809E-05-5.24269E-06 5.56113E-19 1.10008E-19
 -1      2401 1.00303E-04-2.98835E-05-3.01686E-05-5.14929E-06 4.61031E-19 7.99139E-21
 -1      2402 9.95163E-05-2.94475E-05-3.00456E-05-5.77440E-06 4.47595E-19 1.11587E-19
 -1      2403 1.02983E-04-3.13316E-05-3.07232E-05-5.07324E-06 5.41088E-19 3.02068E-19
 -1      2404 1.02008E-04-3.07911E-05-3.05132E-05-5.25739E-06 4.93500E-19 2.54217E-19
 -1      2405 1.00948E-04-3.04034E-05-3.02480E-05-6.14891E-06 4.70608E-19 1.24968E-19
 -1      2406 1.04836E-04-3.25027E-05-3.10314E-05-4.17884E-06-2.11556E-19 7.68746E-19
 -1      2407 1.03915E-04-3.19047E-05-3.08548E-05-4.72794E-06 4.07552E-19 6.86460E-19
 -1      2408 1.02711E-04-3.16389E-05-3.04730E-05-5.85783E-06 2.04927E-19 5.76338E-19
 -1      2409 1.06599E-04-3.37588E-05-3.12643E-05-2.37735E-06 1.89709E-19 8.59846E-20
 -1      2410 1.05875E-04-3.31810E-05-3.11492E-05-3.36539E-06-1.17246E-19 5.81654E-19
 -1      2411 1.04748E-04-3.31575E-05-3.06930E-05-4.69765E-06 7.67102E-20 5.03829E-19
 -1      2412 1.07984E-04-3.48395E-05-3.14035E-05 3.99778E-07 4.30180E-19-2.51163E-19
 -1      2413 1.07639E-04-3.44452E-05-3.13674E-05-1.01810E-06 3.68747E-19-7.41518E-20
 -1      2414 1.06910E-04-3.48138E-05-3.09040E-05-2.46643E-06 3.87878E-19 2.36539E-19
 -1      2415 1.08583E-04-3.52671E-05-3.14679E-05 3.90330E-06 9.71318E-19 8.63146E-20
 -1      2416 1.08810E-04-3.53116E-05-3.15079E-05 2.24968E-06 4.85128E-19-1.48402E-19
 -1      2417 1.08867E-04-3.61980E-05-3.11352E-05 8.86067E-07 4.35474E-19 4.62005E-19
 -1      2418 1.07954E-04-3.44489E-05-3.15161E-05 7.33199E-06 3.12774E-19 6.16587E-19
 -1      2419 1.08871E-04-3.51879E-05-3.16042E-05 5.90562E-06 7.99308E-19 3.25861E-19
 -1      2420 1.10046E-04-3.65952E-05-3.14486E-05 4.99307E-06 4.37367E-19 1.20044E-18
 -1      2421 1.05922E-04-3.20682E-05-3.16169E-05 9.29570E-06-1.01074E-19 6.70043E-19
 -1      2422 1.07412E-04-3.35310E-05-3.17096E-05 8.77113E-06 9.56221E-20 9.08681E-19
 -1      2423 1.09772E-04-3.52068E-05-3.19096E-05 8.78328E-06 2.10916E-19 1.02011E-18
 -1      2424 1.03019E-04-2.86761E-05-3.17917E-05 8.30940E-06-1.17268E-19 6.98140E-19
 -1      2425 1.04611E-04-3.04104E-05-3.18528E-05 9.25332E-06-3.00083E-19 6.79506E-19
 -1      2426 1.07763E-04-3.18165E-05-3.25161E-05 1.04905E-05-5.32746E-20 9.08973E-19
 -1      2427 1.00650E-04-2.59001E-05-3.19764E-05 3.91518E-06 5.76657E-19 8.35204E-19
 -1      2428 1.01620E-04-2.70249E-05-3.19971E-05 6.27017E-06 3.46099E-19 9.41269E-19
 -1      2429 1.04787E-04-2.75075E-05-3.31334E-05 8.43404E-06-9.18832E-20 1.23359E-18
 -1      2430 1.00340E-04-2.54911E-05-3.20675E-05-2.34964E-06 1.02040E-18 2.12164E-19
 -1      2431 1.00173E-04-2.53233E-05-3.20509E-05 4.90935E-07 1.04743E-18 7.20883E-19
 -1      2432 1.02713E-04-2.46587E-05-3.35183E-05 2.57544E-06 9.30413E-19 1.22951E-18
 -1      2433 1.02406E-04-2.77449E-05-3.20347E-05-7.68372E-06 4.85548E-19-1.75336E-19
 -1      2434 1.01165E-04-2.63868E-05-3.19791E-05-5.59196E-06 7.46302E-19 1.56718E-20
 -1      2435 1.03067E-04-2.50629E-05-3.34880E-05-4.64306E-06 9.74114E-19 4.92968E-19
 -1      2436 1.05645E-04-3.12438E-05-3.19350E-05-9.92078E-06-5.53270E-19-2.54600E-19
 -1      2437 1.03935E-04-2.94968E-05-3.18366E-05-9.30580E-06 1.83105E-19-2.88428E-19
 -1      2438 1.05626E-04-2.84627E-05-3.30724E-05-9.80541E-06 1.47380E-19 7.40095E-20
 -1      2439 1.08373E-04-3.41246E-05-3.18541E-05-8.85641E-06 1.54617E-19-1.31627E-18
 -1      2440 1.06878E-04-3.27929E-05-3.17274E-05-9.58827E-06-3.28840E-19-8.85560E-19
 -1      2441 1.08622E-04-3.27314E-05-3.24822E-05-1.09882E-05 6.83259E-20-6.09074E-19
 -1      2442 1.09659E-04-3.54557E-05-3.18146E-05-5.77757E-06 1.03577E-18-1.86119E-18
 -1      2443 1.08773E-04-3.48637E-05-3.16993E-05-7.23173E-06 4.04137E-19-1.80765E-18
 -1      2444 1.10387E-04-3.57354E-05-3.19480E-05-8.73281E-06 6.78354E-19-2.14628E-18
 -1      2445 1.09501E-04-3.53575E-05-3.17757E-05-2.22976E-06 5.23715E-19-1.24752E-18
 -1      2446 1.09279E-04-3.53983E-05-3.17143E-05-3.77590E-06 1.21862E-18-1.44943E-18
 -1      2447 1.10421E-04-3.67008E-05-3.15721E-05-4.83987E-06 7.44922E-19-1.82437E-18
 -1      2448 1.08368E-04-3.44247E-05-3.16836E-05 7.61149E-07-5.09414E-19-1.33809E-18
 -1      2449 1.08667E-04-3.48287E-05-3.16991E-05-4.91979E-07-2.52561E-19-1.06403E-18
 -1      2450 1.09151E-04-3.60441E-05-3.13297E-05-9.46558E-07 4.75612E-20-4.78532E-19
 -1      2451 1.06754E-04-3.32134E-05-3.15101E-05 2.80208E-06-6.40709E-19-1.04873E-18
 -1      2452 1.07382E-04-3.37462E-05-3.16015E-05 1.97341E-06-6.65265E-19-1.11864E-18
 -1      2453 1.07258E-04-3.45953E-05-3.11496E-05 2.06461E-06-6.24513E-19-8.67022E-19
 -1      2454 1.05005E-04-3.20572E-05-3.12571E-05 3.91446E-06-6.47284E-19-7.23079E-19
 -1      2455 1.05797E-04-3.25789E-05-3.14070E-05 3.48343E-06-7.57183E-19-1.16449E-18
 -1      2456 1.05249E-04-3.30096E-05-3.09711E-05 3.96847E-06-4.83084E-19-8.70042E-19
 -1      2457 1.03317E-04-3.10954E-05-3.09471E-05 4.30154E-06 1.58331E-20 9.46634E-20
 -1      2458 1.04154E-04-3.15446E-05-3.11319E-05 4.17398E-06-1.42534E-19-7.65398E-20
 -1      2459 1.03391E-04-3.16322E-05-3.07644E-05 4.89575E-06-6.44127E-19-6.64787E-19
 -1      2460 1.01784E-04-3.03524E-05-3.06098E-05 4.20080E-06 1.09904E-19 1.32498E-19
 -1      2461 1.02590E-04-3.07138E-05-3.08071E-05 4.27301E-06 2.67955E-19-4.49602E-20
 -1      2462 1.01780E-04-3.05729E-05-3.05261E-05 5.10243E-06 2.05658E-19-4.62288E-19
 -1      2463 1.00445E-04-2.98023E-05-3.02724E-05 3.81583E-06 6.39000E-19 7.38714E-19
 -1      2464 1.01176E-04-3.00819E-05-3.04650E-05 4.00095E-06 2.15225E-19 8.87975E-19
 -1      2465 1.00425E-04-2.98174E-05-3.02680E-05 4.84444E-06 7.43354E-20-3.11790E-19
 -1      2466 9.93070E-05-2.94050E-05-2.99552E-05 3.29651E-06-2.38972E-21 1.49245E-18
 -1      2467 9.99423E-05-2.96161E-05-3.01319E-05 3.53170E-06 4.79814E-19 1.21356E-18
 -1      2468 9.93054E-05-2.93054E-05-3.00063E-05 4.32819E-06 7.04930E-20 4.70112E-19
 -1      2469 9.83606E-05-2.91224E-05-2.96710E-05 2.74202E-06 4.70343E-19 2.55489E-19
 -1      2470 9.88949E-05-2.92790E-05-2.98257E-05 2.98647E-06 9.27159E-19 1.49530E-18
 -1      2471 9.83888E-05-2.89715E-05-2.97558E-05 3.70091E-06 3.70269E-19 9.91069E-19
 -1      2472 9.75894E-05-2.89238E-05-2.94258E-05 2.21182E-06-2.37071E-19-1.87184E-18
 -1      2473 9.80265E-05-2.90383E-05-2.95565E-05 2.44169E-06-3.26199E-19-5.22662E-19
 -1      2474 9.76457E-05-2.87608E-05-2.95270E-05 3.05812E-06 1.03112E-18 6.67701E-19
 -1      2475 9.69729E-05-2.87861E-05-2.92209E-05 1.73732E-06-8.05475E-19-1.60623E-19
 -1      2476 9.73219E-05-2.88684E-05-2.93279E-05 1.94053E-06-8.28222E-19-6.64137E-19
 -1      2477 9.70497E-05-2.86328E-05-2.93259E-05 2.45602E-06-6.93165E-19-3.49364E-19
 -1      2478 9.64892E-05-2.86921E-05-2.90541E-05 1.33152E-06-1.08864E-19 4.22697E-19
 -1      2479 9.67615E-05-2.87501E-05-2.91395E-05 1.50359E-06-5.05474E-19 3.08764E-19
 -1      2480 9.65775E-05-2.85586E-05-2.91548E-05 1.92335E-06-8.94686E-19 6.16337E-19
 -1      2481 9.61169E-05-2.86293E-05-2.89217E-05 9.96152E-07 6.66671E-19 7.69952E-19
 -1      2482 9.63248E-05-2.86693E-05-2.89882E-05 1.13714E-06 4.02674E-19 7.16675E-19
 -1      2483 9.62087E-05-2.85191E-05-2.90132E-05 1.47094E-06-8.95243E-20 7.20698E-19
 -1      2484 9.58359E-05-2.85888E-05-2.88189E-05 7.26568E-07 1.01821E-18 1.48120E-19
 -1      2485 9.59911E-05-2.86155E-05-2.88695E-05 8.39012E-07 1.18720E-18 9.61537E-19
 -1      2486 9.59250E-05-2.85011E-05-2.88988E-05 1.09864E-06 1.10065E-18 4.85083E-19
 -1      2487 9.56284E-05-2.85639E-05-2.87408E-05 5.14997E-07 2.69691E-19 5.44859E-20
 -1      2488 9.57414E-05-2.85809E-05-2.87785E-05 6.02589E-07 4.98205E-19-4.81900E-21
 -1      2489 9.57105E-05-2.84963E-05-2.88084E-05 8.00183E-07 7.15792E-19 2.79058E-19
 -1      2490 9.54788E-05-2.85499E-05-2.86830E-05 3.52554E-07-3.33391E-19-6.99063E-19
 -1      2491 9.55589E-05-2.85600E-05-2.87103E-05 4.19315E-07 2.87911E-20-2.21774E-20
 -1      2492 9.55515E-05-2.84991E-05-2.87386E-05 5.66369E-07 8.24248E-19-1.86499E-20
 -1      2493 9.53742E-05-2.85432E-05-2.86412E-05 2.30438E-07 5.02268E-19-1.34221E-18
 -1      2494 9.54289E-05-2.85485E-05-2.86603E-05 2.80251E-07 6.32187E-19-6.31799E-19
 -1      2495 9.54362E-05-2.85060E-05-2.86859E-05 3.87057E-07 6.81842E-19-9.41451E-19
 -1      2496 9.53037E-05-2.85414E-05-2.86119E-05 1.40591E-07-8.45216E-20-2.46777E-18
 -1      2497 9.53394E-05-2.85434E-05-2.86248E-05 1.76950E-07-3.74733E-19-2.10729E-18
 -1      2498 9.53548E-05-2.85148E-05-2.86469E-05 2.52372E-07 5.06253E-19-1.16525E-18
 -1      2499 9.52587E-05-2.85428E-05-2.85921E-05 7.60116E-08-1.97205E-19-1.98315E-18
 -1      2500 9.52804E-05-2.85426E-05-2.86004E-05 1.01912E-07-3.54278E-20-3.26624E-18
 -1      2501 9.52994E-05-2.85241E-05-2.86189E-05 1.53347E-07 4.58352E-20-2.09622E-18
 -1      2502 9.52322E-05-2.85461E-05-2.85794E-05 3.08712E-08-6.95744E-19-4.08209E-19
 -1      2503 9.52439E-05-2.85445E-05-2.85844E-05 4.87733E-08-3.07730E-19-1.06156E-18
 -1      2504 9.52633E-05-2.85332E-05-2.85993E-05 8.22423E-08-1.12983E-18-1.48269E-18
 -1      2505 9.52190E-05-2.85505E-05-2.85719E-05 5.05471E-10 1.29805E-18-1.28587E-18
 -1      2506 9.52236E-05-2.85481E-05-2.85745E-05 1.23507E-08 1.31255E-19-4.59455E-19
 -1      2507 9.52414E-05-2.85416E-05-2.85862E-05 3.26437E-08 2.63724E-19-1.39031E-18
 -1      2508 9.52147E-05-2.85557E-05-2.85680E-05-1.86573E-08 8.97903E-19 2.66010E-19
 -1      2509 9.52147E-05-2.85527E-05-2.85690E-05-1.14138E-08 9.24117E-19-6.27921E-19
 -1      2510 9.52298E-05-2.85494E-05-2.85777E-05-5.57040E-10 1.24261E-20-1.96249E-18
 -1      2511 9.52163E-05-2.85612E-05-2.85664E-05-2.91685E-08 1.88114E-18 8.27517E-19
 -1      2512 9.52135E-05-2.85580E-05-2.85664E-05-2.55358E-08 1.64004E-18 1.59997E-18
 -1      2513 9.52252E-05-2.85567E-05-2.85725E-05-2.12635E-08 1.00939E-18 9.67054E-20
 -1      2514 9.52215E-05-2.85672E-05-2.85661E-05-3.26795E-08 7.83469E-19 1.15146E-18
 -1      2515 9.52171E-05-2.85637E-05-2.85656E-05-3.21090E-08 1.64294E-18 1.34364E-18
 -1      2516 9.52254E-05-2.85637E-05-2.85695E-05-3.22651E-08 9.96335E-19 1.39279E-18
 -1      2517 9.52282E-05-2.85736E-05-2.85664E-05-3.00287E-08-1.46888E-18 2.10918E-18
 -1      2518 9.52234E-05-2.85699E-05-2.85657E-05-3.21664E-08-5.09275E-19 1.57470E-18
 -1      2519 9.52288E-05-2.85711E-05-2.85677E-05-3.55139E-08-6.58073E-20 3.39642E-18
 -1      2520 9.52310E-05-2.85767E-05-2.85661E-05-2.62529E-08-1.49410E-18 2.06553E-18
 -1      2521 9.52510E-05-2.85944E-05-2.85671E-05-2.04700E-08-6.64199E-19-1.39948E-18
 -1      2522 9.52499E-05-2.85923E-05-2.85675E-05-2.37366E-08-6.69857E-19-2.70038E-18
 -1      2523 9.52518E-05-2.85954E-05-2.85670E-05-1.31509E-08-7.21537E-19-2.80710E-18
 -1      2524 9.52512E-05-2.85941E-05-2.85673E-05-1.67179E-08-8.88206E-19-1.53275E-18
 -1      2525 9.52500E-05-2.85831E-05-2.85715E-05-1.92807E-08-2.68608E-20-1.84496E-18
 -1      2526 9.52451E-05-2.85884E-05-2.85671E-05-3.18283E-08-4.48993E-19 1.41022E-18
 -1      2527 9.52417E-05-2.85845E-05-2.85674E-05-3.26967E-08-7.43915E-19 1.61386E-18
 -1      2528 9.52490E-05-2.85921E-05-2.85672E-05-2.70901E-08-1.71193E-18-2.40410E-18
 -1      2529 9.52470E-05-2.85893E-05-2.85676E-05-2.94897E-08-9.84985E-19 9.14177E-20
 -1      2530 9.52451E-05-2.85821E-05-2.85699E-05-3.24293E-08-1.06533E-18-2.14822E-19
 -1      2531 9.52486E-05-2.85832E-05-2.85709E-05-2.65786E-08-8.65831E-19-1.95585E-18
 -1      2532 9.52519E-05-2.85957E-05-2.85669E-05-5.74646E-09-1.94835E-18-2.47258E-18
 -1      2533 9.52517E-05-2.85951E-05-2.85671E-05-9.37221E-09-7.50833E-19-3.21058E-18
 -1      2534 9.52502E-05-2.85825E-05-2.85719E-05-1.16071E-08-7.64698E-19-3.52932E-18
 -1      2535 9.52519E-05-2.85956E-05-2.85669E-05 1.62718E-09-1.31013E-18-1.06737E-18
 -1      2536 9.52519E-05-2.85956E-05-2.85669E-05-2.01378E-09-1.36983E-18-9.09392E-19
 -1      2537 9.52501E-05-2.85820E-05-2.85720E-05-4.00921E-09-6.00034E-19-1.40164E-18
 -1      2538 9.52519E-05-2.85953E-05-2.85670E-05 9.06364E-09-1.63212E-20-1.56147E-18
 -1      2539 9.52520E-05-2.85958E-05-2.85669E-05 5.39013E-09-7.03283E-19-1.25241E-18
 -1      2540 9.52502E-05-2.85821E-05-2.85720E-05 3.55906E-09 6.33379E-19-9.88574E-19
 -1      2541 9.52515E-05-2.85944E-05-2.85672E-05 1.64436E-08 1.50710E-18-6.11396E-19
 -1      2542 9.52520E-05-2.85957E-05-2.85670E-05 1.28605E-08 9.67356E-19-2.06187E-18
 -1      2543 9.52505E-05-2.85827E-05-2.85718E-05 1.12088E-08 1.61775E-18-6.83941E-19
 -1      2544 9.52502E-05-2.85927E-05-2.85674E-05 2.36818E-08 1.41986E-18 3.79346E-18
 -1      2545 9.52513E-05-2.85947E-05-2.85671E-05 2.03157E-08 1.27315E-18 1.15208E-18
 -1      2546 9.52503E-05-2.85835E-05-2.85715E-05 1.90252E-08 2.45547E-18-1.56112E-19
 -1      2547 9.52472E-05-2.85897E-05-2.85675E-05 2.97069E-08 1.34738E-18 1.27285E-18
 -1      2548 9.52494E-05-2.85925E-05-2.85672E-05 2.71659E-08 1.71658E-19 4.95093E-18
 -1      2549 9.52490E-05-2.85836E-05-2.85709E-05 2.66664E-08 9.38582E-19 3.05117E-18
 -1      2550 9.52418E-05-2.85848E-05-2.85673E-05 3.28716E-08-8.89871E-19-8.03414E-19
 -1      2551 9.52451E-05-2.85886E-05-2.85671E-05 3.20994E-08 2.40306E-19-2.05286E-18
 -1      2552 9.52455E-05-2.85825E-05-2.85699E-05 3.26669E-08-1.61622E-19-1.07565E-18
 -1      2553 9.80008E-05-5.24177E-05-1.95041E-05 4.02461E-05-1.07319E-18 2.54965E-18
 -1      2554 8.03774E-05-4.64278E-05-1.41655E-05 4.13201E-05-7.53224E-19 2.07073E-18
 -1      2555 9.52356E-05-2.85815E-05-2.85660E-05 3.00445E-08-1.03000E-18 2.64856E-18
 -1      2556 1.84268E-05-1.87365E-05 3.69606E-07-3.90691E-06 7.07802E-20 3.06922E-18
 -1      2557 2.41675E-05-2.01341E-05-1.58568E-06-1.87788E-05-1.05456E-19 2.27513E-18
 -1      2558 9.76800E-05-2.83340E-05-2.96983E-05-2.74709E-06 8.28868E-19 2.14035E-19
 -1      2559 9.74052E-05-2.80447E-05-2.96804E-05-1.98822E-06 9.29878E-19 3.75017E-19
 -1      2560 9.77509E-05-2.80384E-05-2.98967E-05-3.43463E-06 8.07620E-19-6.10650E-20
 -1      2561 2.36581E-05-2.04126E-05-1.16475E-06 1.95623E-05-1.07044E-18 2.98156E-18
 -1      2562 1.83654E-05-1.88750E-05 4.34553E-07 6.96525E-06-5.67062E-19 2.84476E-18
 -1      2563 2.47800E-05-1.50517E-05-3.60583E-06 9.22583E-07-1.36154E-19 2.80855E-18
 -1      2564 1.23765E-04-5.72891E-05-2.86621E-05 2.67755E-05-8.31575E-19 1.99159E-19
 -1      2565 1.10983E-04-5.66559E-05-2.32826E-05 3.35448E-05-1.61127E-18 1.63806E-18
 -1      2566 1.07052E-04-5.52666E-05-2.19309E-05 3.41976E-05-1.25371E-18 1.48504E-18
 -1      2567 1.46921E-04-2.70777E-05-5.18051E-05-5.52855E-06 2.20885E-18-2.09196E-18
 -1      2568 1.45558E-04-3.43568E-05-4.78614E-05-4.20125E-06 1.39686E-18-2.03669E-18
 -1      2569 1.04472E-04-5.55854E-05-2.09394E-05-3.55916E-05-2.60039E-19-9.30625E-19
 -1      2570 1.19941E-04-5.77502E-05-2.67411E-05-3.13847E-05-2.96250E-19-9.84570E-19
 -1      2571 1.49386E-04-4.27484E-05-4.61923E-05-1.38529E-06-2.94895E-18 1.36542E-18
 -1      2572 1.44887E-04-5.05153E-05-4.06276E-05 4.42849E-06-1.80005E-18 1.04693E-18
 -1      2573 3.20188E-05-2.53665E-05-2.55881E-06-2.76286E-05-7.30142E-19-4.89627E-18
 -1      2574 4.62364E-05-3.21177E-05-5.85944E-06-3.83399E-05-5.29819E-19-3.92070E-18
 -1      2575 9.64368E-05-2.02283E-05-3.27020E-05-9.46223E-06-1.75571E-18 1.68493E-19
 -1      2576 9.71501E-05-2.35552E-05-3.15532E-05-5.48802E-06-1.56060E-18 2.48004E-19
 -1      2577 9.63777E-05-2.24710E-05-3.16717E-05-4.76339E-06-1.51921E-18-2.92269E-19
 -1      2578 9.42852E-05-1.77131E-05-3.28549E-05-8.86285E-06-1.68671E-18-4.37837E-19
 -1      2579 8.52106E-05-8.46299E-06-3.29251E-05-1.02912E-06-1.57033E-19-2.13332E-18
 -1      2580 8.54635E-05-8.65946E-06-3.29448E-05-1.80074E-06-3.87589E-19-2.07415E-18
 -1      2581 8.66632E-05-1.05155E-05-3.26293E-05-1.81104E-06-4.69104E-19-1.87885E-18
 -1      2582 8.60932E-05-9.99244E-06-3.26099E-05-6.48656E-07-1.43294E-19-1.99471E-18
 -1      2583 1.47475E-04-2.60137E-05-5.23660E-05 4.19442E-06 3.81906E-18 4.47233E-19
 -1      2584 1.48329E-04-1.93453E-05-5.56776E-05 4.20936E-06 4.64216E-18 1.59666E-19
 -1      2585 1.42728E-04-1.38678E-05-5.58926E-05-5.35889E-06 4.26163E-18-1.60576E-18
 -1      2586 1.45122E-04-1.96292E-05-5.41926E-05-6.52626E-06 3.01120E-18-1.85839E-18
 -1      2587 1.38135E-04-2.29180E-05-4.95805E-05-1.03581E-05 2.24125E-18-1.99010E-18
 -1      2588 9.92180E-05-5.36026E-05-1.94996E-05-3.88483E-05 2.26158E-19-1.75013E-18
 -1      2589 1.15510E-04-5.63346E-05-2.56692E-05-3.49500E-05 1.61572E-19-1.98989E-18
 -1      2590 1.45236E-04-4.30394E-05-4.39712E-05-2.52833E-06 2.26867E-18 6.56027E-19
 -1      2591 1.47815E-04-3.62380E-05-4.82767E-05 1.42064E-06 2.99320E-18 4.54645E-19
 -1      2592 6.62591E-05-4.21227E-05-1.03264E-05 4.25492E-05-2.30393E-19-3.66225E-18
 -1      2593 5.00183E-05-3.52731E-05-6.16436E-06 3.76570E-05 3.14249E-19-3.59671E-18
 -1      2594 6.30323E-05-4.16283E-05-9.11606E-06-4.17752E-05-3.40931E-19-2.89590E-18
 -1      2595 8.11849E-05-4.75688E-05-1.44568E-05-4.41571E-05 1.37219E-19-1.86435E-18
 -1      2596 1.84376E-05-1.82183E-05 2.09109E-07-2.41150E-06-2.17317E-19-5.80514E-18
 -1      2597 2.10281E-05-2.03370E-05-1.22244E-07-1.58434E-05 1.05879E-21-5.96777E-18
 -1      2598 1.49705E-04-1.70535E-05-5.71313E-05 5.31584E-06-4.04331E-18 4.20764E-19
 -1      2599 1.46508E-04-1.22119E-05-5.80022E-05 2.86986E-06-5.09914E-18-1.90503E-19
 -1      2600 1.02847E-04-5.54535E-05-2.06895E-05 3.90622E-05-1.80418E-19-1.38749E-18
 -1      2601 8.44578E-05-4.98404E-05-1.46666E-05 4.07926E-05-4.76456E-20-2.81649E-18
 -1      2602 8.15866E-05-4.65456E-05-1.46119E-05 4.08003E-05 9.78323E-19-2.60886E-18
 -1      2603 1.38031E-04-5.80036E-05-3.47284E-05 1.72950E-05-1.01030E-18 8.82185E-19
 -1      2604 1.23263E-04-5.91567E-05-2.72539E-05 2.64337E-05-4.48927E-19 2.03182E-19
 -1      2605 1.47198E-04-2.51656E-05-5.29421E-05-7.40927E-06-4.95535E-18 9.67735E-19
 -1      2606 1.46721E-04-3.23128E-05-4.95448E-05-7.62880E-06-4.15470E-18 1.09945E-18
 -1      2607 1.43826E-04-1.24332E-05-5.69577E-05-2.34120E-06-5.32699E-18 1.90582E-21
 -1      2608 1.45369E-04-1.72398E-05-5.54457E-05-6.30646E-06-5.59423E-18 4.06576E-19
 -1      2609 1.36091E-04-1.94420E-05-4.99844E-05-1.19286E-05-4.37238E-18 1.53567E-18
 -1      2610 1.50468E-04-3.11881E-05-5.14835E-05 5.64879E-06-1.58459E-18 8.71385E-19
 -1      2611 1.50932E-04-2.41532E-05-5.48238E-05 6.79051E-06-2.73846E-18 6.20028E-19
 -1      2612 1.46364E-04-4.68693E-05-4.28175E-05-1.91328E-06-5.98693E-19 7.64024E-19
 -1      2613 1.51632E-04-4.00055E-05-4.81433E-05 1.69139E-06-8.57938E-19 1.17018E-18
 -1      2614 1.44712E-04-3.54923E-05-4.69076E-05 1.04937E-05-7.78953E-19-6.26804E-20
 -1      2615 1.30916E-04-5.76357E-05-3.14815E-05-2.15700E-05-1.57336E-19 4.04458E-19
 -1      2616 1.41439E-04-5.53430E-05-3.73004E-05-1.35208E-05 1.04291E-20 1.25319E-18
 -1      2617 1.29005E-04-6.02815E-05-2.92276E-05-2.15344E-05 2.97097E-19 2.93391E-19
 -1      2618 7.19679E-05-4.42492E-05-1.16948E-05-4.06422E-05 7.49624E-19 1.40607E-19
 -1      2619 8.73398E-05-4.96087E-05-1.61348E-05-4.15990E-05 4.03823E-19-1.28442E-18
 -1      2620 3.88636E-05-2.75455E-05-4.44051E-06-3.09662E-05 2.90109E-19 1.57718E-18
 -1      2621 5.42902E-05-3.55333E-05-7.91906E-06-3.93447E-05 8.67362E-19 1.75209E-18
 -1      2622 6.89053E-05-3.89680E-05-1.23472E-05-3.88779E-05 1.04842E-18 8.19293E-19
 -1      2623 9.82741E-05-2.55823E-05-3.11687E-05 5.66292E-06 1.58504E-18 1.04398E-18
 -1      2624 9.90925E-05-2.42355E-05-3.20993E-05 8.83942E-06 1.78089E-18 1.27481E-18
 -1      2625 9.74367E-05-2.17135E-05-3.25086E-05 9.86260E-06 1.94959E-18 6.93654E-19
 -1      2626 9.76448E-05-2.44895E-05-3.13877E-05 5.34283E-06 1.61157E-18 3.48769E-19
 -1      2627 1.39326E-04-1.44456E-05-5.38685E-05 6.21634E-06 4.59388E-18 3.33837E-19
 -1      2628 8.97093E-05-1.34919E-05-3.26564E-05-4.42176E-06-1.17556E-18-1.68366E-18
 -1      2629 8.90536E-05-1.20723E-05-3.30493E-05-5.67743E-06-1.28806E-18-1.78224E-18
 -1      2630 9.01777E-05-1.31245E-05-3.30766E-05-6.72646E-06-1.45706E-18-1.49358E-18
 -1      2631 9.74536E-05-2.73011E-05-3.00840E-05-1.37076E-06 1.16291E-18-1.67218E-19
 -1      2632 9.55590E-05-1.93275E-05-3.27156E-05 9.41706E-06 1.92145E-18-5.45675E-20
 -1      2633 3.75610E-05-2.19440E-05-6.14503E-06-2.44644E-05 4.91385E-19 1.84653E-18
 -1      2634 1.43428E-04-5.28331E-05-3.88459E-05-2.36503E-06-5.59571E-20 8.84726E-19
 -1      2635 1.35348E-04-1.07837E-05-5.34462E-05-5.63732E-07-5.20989E-18 5.21455E-21
 -1      2636 1.41436E-04-4.96954E-05-3.93785E-05-2.87432E-06 1.07704E-18 1.19559E-18
 -1      2637 1.35366E-04-5.52713E-05-3.46583E-05 6.49252E-06-5.12726E-19-2.27958E-18
 -1      2638 1.32373E-04-5.81324E-05-3.19090E-05 1.73034E-05-7.13625E-19-8.65032E-19
 -1      2639 1.25600E-04-5.86432E-05-2.85058E-05 2.01739E-05-1.13089E-18-1.00331E-18
 -1      2640 7.38141E-05-4.14707E-05-1.33895E-05 4.11123E-05-7.98752E-19 2.09217E-18
 -1      2641 1.41054E-04-1.99721E-05-5.21067E-05 1.05082E-05-3.21449E-18 3.47284E-20
 -1      2642 9.52336E-05-2.85783E-05-2.85666E-05-3.13292E-08-1.89486E-18 1.62798E-18
 -1      2643 9.52369E-05-2.85813E-05-2.85666E-05-3.26645E-08-1.40730E-18 1.67603E-18
 -1      2644 1.17504E-04-5.88825E-05-2.49334E-05 2.94934E-05 5.41572E-19 4.06576E-19
 -1      2645 1.41634E-04-4.17891E-05-4.30572E-05-4.29083E-06 9.57624E-19-2.40833E-18
 -1      2646 9.52319E-05-2.85759E-05-2.85669E-05 3.24206E-08-5.31145E-19 2.49704E-18
 -1      2647 9.52385E-05-2.85823E-05-2.85670E-05 3.41420E-08-5.13562E-19 4.28976E-19
 -1      2648 9.52388E-05-2.85784E-05-2.85687E-05 3.57723E-08-1.16162E-18 2.14689E-19
 -1      2649 9.52289E-05-2.85726E-05-2.85669E-05 3.48483E-08-2.43764E-19 2.13360E-18
 -1      2650 9.58640E-05-2.06380E-05-3.21974E-05 7.25656E-06 1.78153E-18-1.94341E-19
 -1      2651 3.46577E-05-2.31177E-05-4.45423E-06 2.72945E-05-1.15916E-18 3.07981E-18
 -1      2652 3.42630E-05-1.72883E-05-6.62147E-06 2.06723E-05-1.20893E-18 3.04932E-18
 -1      2653 4.63908E-05-2.58182E-05-8.72660E-06 3.29714E-05-1.37950E-18 2.14808E-18
 -1      2654 2.25312E-05-1.77404E-05-1.63522E-06 6.17542E-06 1.79042E-19-5.45722E-18
 -1      2655 2.70056E-05-1.43101E-05-4.91690E-06-5.60761E-07-1.37822E-19-5.35494E-18
 -1      2656 2.86124E-05-1.69541E-05-4.53632E-06 1.46837E-05 5.53271E-19-4.80204E-18
 -1      2657 9.13726E-05-1.44675E-05-3.30197E-05-7.33775E-06-1.54340E-18-1.30958E-18
 -1      2658 9.28386E-05-1.60089E-05-3.29991E-05-8.36138E-06-1.65022E-18-9.45858E-19
 -1      2659 9.44095E-05-1.88623E-05-3.23632E-05-6.49771E-06-1.61016E-18-7.35380E-19
 -1      2660 9.19504E-05-1.58970E-05-3.25802E-05-5.64131E-06-1.42251E-18-1.26124E-18
 -1      2661 1.26864E-04-5.87293E-05-2.90149E-05-2.41988E-05-5.21666E-19-6.30828E-19
 -1      2662 1.02308E-04-5.44424E-05-2.02171E-05-3.57683E-05 7.46024E-19-1.00037E-18
 -1      2663 6.17229E-05-3.64912E-05-1.04699E-05-3.97011E-05-1.43403E-18-2.93349E-18
 -1      2664 1.40837E-04-5.61280E-05-3.62562E-05 5.25908E-06-4.11605E-19 1.96956E-18
 -1      2665 3.41442E-05-2.05646E-05-5.34259E-06-2.29518E-05-8.34222E-19-5.06632E-18
 -1      2666 1.42794E-04-3.84816E-05-4.48233E-05-9.50645E-06-2.67387E-18 1.77009E-18
 -1      2667 4.44064E-05-3.00065E-05-5.80841E-06 3.38659E-05 6.02029E-19-3.90694E-18
 -1      2668 3.92970E-05-2.29937E-05-6.34826E-06 2.82679E-05 9.44336E-19-4.06766E-18
 -1      2669 5.66626E-05-3.26176E-05-1.02521E-05 3.71364E-05 1.30072E-18-3.63907E-18
 -1      2670 1.38705E-04-1.14570E-05-5.48918E-05-3.84638E-06 4.53946E-18-1.39009E-18
 -1      2671 1.30477E-04-1.27405E-05-5.08506E-05-7.39868E-06 3.64965E-18-1.64356E-18
 -1      2672 1.30633E-04-8.53571E-06-5.29753E-05-2.03427E-06 4.43295E-18-1.04196E-18
 -1      2673 9.59782E-05-5.24046E-05-1.83907E-05-4.01181E-05-9.20090E-19-1.33627E-18
 -1      2674 1.41282E-04-3.11810E-05-4.73632E-05 8.87204E-06 2.91750E-18 9.74935E-19
 -1      2675 9.52371E-05-2.85779E-05-2.85682E-05-3.52364E-08-1.20575E-18 2.16824E-18
 -1      2676 9.52339E-05-2.85732E-05-2.85690E-05 3.65534E-08-6.78462E-19 2.78744E-19
 -1      2677 8.78251E-05-1.24920E-05-3.23027E-05 1.54028E-06 6.30549E-19-1.73057E-18
 -1      2678 8.73188E-05-1.20227E-05-3.22940E-05 9.60489E-07 4.61652E-19-1.79361E-18
 -1      2679 8.69340E-05-1.16262E-05-3.22919E-05 5.87762E-07 3.21556E-19-1.75158E-18
 -1      2680 8.67308E-05-1.14416E-05-3.22881E-05 4.70984E-08 1.03275E-19-1.69177E-18
 -1      2681 8.78882E-05-1.32369E-05-3.19746E-05 4.51766E-07 3.63621E-19-1.61705E-18
 -1      2682 9.13516E-05-1.61711E-05-3.22500E-05 3.77059E-06 1.48749E-18-1.38726E-18
 -1      2683 9.02906E-05-1.50493E-05-3.22750E-05 3.09054E-06 1.29411E-18-1.51167E-18
 -1      2684 9.38825E-05-1.91298E-05-3.20716E-05 4.77654E-06 1.56890E-18-1.05311E-18
 -1      2685 9.25587E-05-1.75498E-05-3.21703E-05 4.21745E-06 1.51416E-18-1.24049E-18
 -1      2686 9.28182E-05-1.85042E-05-3.18261E-05 2.72805E-06 1.40056E-18-1.21202E-18
 -1      2687 9.69722E-05-2.53736E-05-3.06878E-05 8.84530E-07 1.33628E-18-4.46514E-19
 -1      2688 9.70519E-05-2.45261E-05-3.10495E-05 2.75991E-06 1.38434E-18-2.95570E-19
 -1      2689 1.37986E-04-5.61699E-05-3.50739E-05-3.05858E-06 7.99083E-19 3.53424E-19
 -1      2690 1.40397E-04-4.91441E-05-3.97335E-05 5.91828E-06 6.55074E-19 1.77877E-20
 -1      2691 9.65044E-05-2.50883E-05-3.05822E-05 1.49468E-06-1.03554E-18-6.02342E-19
 -1      2692 9.65858E-05-2.56267E-05-3.04110E-05 2.92500E-06-8.44552E-19-5.49083E-19
 -1      2693 9.66301E-05-2.60339E-05-3.02380E-05 4.18829E-06-6.74244E-19-3.98534E-19
 -1      2694 9.68226E-05-2.64015E-05-3.01740E-05 5.31503E-06-5.30653E-19-4.40760E-19
 -1      2695 9.57913E-05-2.48021E-05-3.04306E-05 3.50138E-06-7.54639E-19-5.29172E-19
 -1      2696 9.68575E-05-2.66680E-05-3.00701E-05 6.37936E-06-4.83346E-19-3.79040E-19
 -1      2697 9.72077E-05-2.70098E-05-3.00748E-05 7.29345E-06-3.44658E-19-4.47786E-19
 -1      2698 9.58797E-05-2.56156E-05-3.01215E-05 5.91645E-06-5.44573E-19-5.27498E-19
 -1      2699 9.73212E-05-2.72804E-05-3.00093E-05 8.21114E-06-1.96432E-19-3.67204E-19
 -1      2700 9.78673E-05-2.77196E-05-3.00518E-05 8.94393E-06-1.70923E-19-5.57191E-19
 -1      2701 9.60349E-05-2.62620E-05-2.99125E-05 7.97229E-06-3.68147E-19-5.46093E-19
 -1      2702 9.81600E-05-2.81388E-05-2.99988E-05 9.73045E-06-8.87968E-21-5.19272E-19
 -1      2703 9.89646E-05-2.88123E-05-3.00543E-05 1.02491E-05 8.56132E-20-6.08289E-19
 -1      2704 9.64353E-05-2.70582E-05-2.97473E-05 9.74924E-06-1.53087E-19-6.50919E-19
 -1      2705 9.95878E-05-2.95522E-05-2.99961E-05 1.08670E-05 2.01795E-19-3.87240E-19
 -1      2706 1.00754E-04-3.06220E-05-3.00491E-05 1.10668E-05 2.24011E-19-2.84786E-19
 -1      2707 9.73232E-05-2.83569E-05-2.95815E-05 1.12482E-05 2.53703E-19-4.84078E-19
 -1      2708 1.01940E-04-3.18852E-05-2.99857E-05 1.13998E-05 2.76276E-19-1.90798E-19
 -1      2709 1.03601E-04-3.35095E-05-3.00408E-05 1.10922E-05 2.88765E-19 7.90677E-20
 -1      2710 9.90716E-05-3.05816E-05-2.93970E-05 1.23553E-05 3.46332E-19 3.28639E-21
 -1      2711 1.05659E-04-3.54757E-05-3.00114E-05 1.08868E-05 3.27494E-19 4.50392E-19
 -1      2712 1.07901E-04-3.76837E-05-3.01140E-05 9.79432E-06 5.42240E-19 6.73686E-19
 -1      2713 1.02224E-04-3.41885E-05-2.92326E-05 1.27665E-05 6.70470E-19-3.21641E-20
 -1      2714 1.11095E-04-4.03192E-05-3.02325E-05 8.59403E-06 5.86302E-19 7.35847E-19
 -1      2715 1.13757E-04-4.27351E-05-3.04938E-05 6.41305E-06 5.21240E-19 4.36905E-19
 -1      2716 1.07398E-04-3.94084E-05-2.92486E-05 1.18145E-05 4.91186E-19-2.77800E-20
 -1      2717 1.17982E-04-4.54149E-05-3.09901E-05 3.61636E-06 5.25511E-19 5.91294E-19
 -1      2718 1.20385E-04-4.68745E-05-3.15954E-05 2.66113E-07 4.30094E-19 7.68288E-19
 -1      2719 1.14845E-04-4.55857E-05-2.98094E-05 8.47825E-06 4.75212E-19 3.36206E-19
 -1      2720 1.24593E-04-4.79359E-05-3.28248E-05-4.38770E-06 6.32949E-19 1.17428E-18
 -1      2721 1.25482E-04-4.62926E-05-3.40279E-05-8.20403E-06 3.45442E-19 1.50825E-18
 -1      2722 1.23514E-04-5.01707E-05-3.15421E-05 1.64639E-06 7.23393E-19 1.21565E-18
 -1      2723 1.27655E-04-3.05175E-05-4.21164E-05-1.53553E-05-2.17126E-18 1.82686E-18
 -1      2724 1.24288E-04-2.28253E-05-4.39419E-05-1.20410E-05-2.75074E-18 1.50690E-18
 -1      2725 1.17442E-04-1.79912E-05-4.29922E-05 8.89445E-06-2.58758E-18-1.42503E-18
 -1      2726 1.20596E-04-2.43538E-05-4.18078E-05 1.36965E-05-2.08338E-18-1.64001E-18
 -1      2727 1.23486E-04-3.15850E-05-3.95447E-05 1.58974E-05-1.08542E-18-1.53943E-18
 -1      2728 1.25704E-04-3.83830E-05-3.79479E-05 1.56616E-05-2.35078E-19-1.92311E-18
 -1      2729 1.29372E-04-4.48885E-05-3.63606E-05 1.15462E-05 7.41789E-19-1.27449E-18
 -1      2730 1.29183E-04-4.88160E-05-3.45709E-05 7.65270E-06 1.01535E-18-9.13684E-19
 -1      2731 1.16419E-04-4.44486E-05-3.08943E-05-3.68407E-06 4.18395E-19-4.68906E-19
 -1      2732 1.13723E-04-4.21532E-05-3.05568E-05-6.25971E-06 5.20045E-19-4.95547E-19
 -1      2733 1.10101E-04-3.93839E-05-3.03406E-05-7.90345E-06 2.77053E-19-6.96527E-19
 -1      2734 1.07696E-04-3.70221E-05-3.02093E-05-9.31339E-06 1.06260E-19-6.16685E-19
 -1      2735 1.09835E-04-4.14452E-05-2.94441E-05-9.99788E-06 2.55918E-19-6.37455E-19
 -1      2736 1.05245E-04-3.47983E-05-3.02004E-05-9.76269E-06-2.35288E-19-8.35947E-19
 -1      2737 1.03422E-04-3.29888E-05-3.01402E-05-1.02862E-05-1.51678E-19-9.00953E-19
 -1      2738 1.03852E-04-3.57231E-05-2.92885E-05-1.15830E-05-3.97014E-19-1.03834E-19
 -1      2739 1.01946E-04-3.15110E-05-3.01827E-05-1.00967E-05-2.11427E-21-1.00027E-18
 -1      2740 1.00648E-04-3.03057E-05-3.01246E-05-1.00500E-05-4.50055E-19-1.17540E-18
 -1      2741 1.00029E-04-3.15811E-05-2.93876E-05-1.15183E-05-1.75477E-19-6.64701E-19
 -1      2742 9.98333E-05-2.94504E-05-3.01542E-05-9.54279E-06-9.55672E-20-8.16230E-19
 -1      2743 9.89256E-05-2.87317E-05-3.00754E-05-9.17315E-06 2.36925E-19-6.18156E-19
 -1      2744 9.78160E-05-2.90024E-05-2.95184E-05-1.06403E-05-1.46059E-19-5.48450E-19
 -1      2745 9.85038E-05-2.83058E-05-3.00728E-05-8.53952E-06 2.86357E-19-3.40150E-19
 -1      2746 9.78563E-05-2.79175E-05-2.99739E-05-8.01452E-06 2.82146E-19-4.28207E-19
 -1      2747 9.66271E-05-2.76030E-05-2.95939E-05-9.41067E-06 4.37253E-19-2.47405E-19
 -1      2748 9.76488E-05-2.77558E-05-2.99414E-05-7.35588E-06 3.77178E-19 5.63760E-21
 -1      2749 9.71697E-05-2.75721E-05-2.98313E-05-6.78265E-06 3.27853E-20-1.30348E-19
 -1      2750 9.60222E-05-2.69708E-05-2.95980E-05-8.07451E-06 5.63804E-19 4.54710E-19
 -1      2751 9.70703E-05-2.75583E-05-2.97784E-05-6.15435E-06-2.23847E-19 6.26006E-19
 -1      2752 9.67030E-05-2.74926E-05-2.96667E-05-5.59671E-06-3.21937E-19 1.17766E-18
 -1      2753 9.57261E-05-2.67939E-05-2.95437E-05-6.76321E-06 3.20240E-19 1.13147E-18
 -1      2754 9.66538E-05-2.75527E-05-2.96031E-05-5.02773E-06-9.20698E-20 1.49753E-18
 -1      2755 9.63651E-05-2.75506E-05-2.94971E-05-4.52017E-06 2.11075E-19 1.42224E-18
 -1      2756 9.55818E-05-2.68630E-05-2.94511E-05-5.54870E-06 5.33501E-20 2.25851E-18
 -1      2757 9.63371E-05-2.76411E-05-2.94306E-05-4.02340E-06 5.58282E-19 1.55043E-18
 -1      2758 9.61074E-05-2.76702E-05-2.93349E-05-3.58141E-06 8.11735E-19 2.07401E-18
 -1      2759 9.55062E-05-2.70485E-05-2.93391E-05-4.46776E-06 5.86015E-19 2.35974E-18
 -1      2760 9.60875E-05-2.77671E-05-2.92709E-05-3.15973E-06 2.24216E-19 2.07199E-18
 -1      2761 9.59046E-05-2.78090E-05-2.91877E-05-2.78702E-06-1.88342E-19 1.70745E-18
 -1      2762 9.54593E-05-2.72755E-05-2.92219E-05-3.53456E-06 3.29230E-19 1.41178E-18
 -1      2763 9.58876E-05-2.79004E-05-2.91294E-05-2.43725E-06-7.47203E-19 1.43376E-18
 -1      2764 9.57428E-05-2.79452E-05-2.90593E-05-2.13079E-06-1.04255E-18 9.21623E-19
 -1      2765 9.54235E-05-2.75033E-05-2.91092E-05-2.74873E-06-8.07069E-19 1.10010E-18
 -1      2766 9.57272E-05-2.80259E-05-2.90082E-05-1.84643E-06-1.26600E-18 1.06964E-18
 -1      2767 9.56139E-05-2.80685E-05-2.89505E-05-1.59967E-06-1.66855E-18 1.33381E-18
 -1      2768 9.53923E-05-2.77120E-05-2.90066E-05-2.10099E-06-1.16732E-18 1.02242E-18
 -1      2769 9.55996E-05-2.81367E-05-2.89072E-05-1.37262E-06-1.08374E-18 1.41271E-18
 -1      2770 9.55123E-05-2.81749E-05-2.88608E-05-1.17758E-06-2.46210E-19 1.90493E-18
 -1      2771 9.53639E-05-2.78935E-05-2.89168E-05-1.57711E-06-1.44984E-18 1.84300E-18
 -1      2772 9.54995E-05-2.82310E-05-2.88250E-05-9.99323E-07-9.30135E-19 1.18859E-18
 -1      2773 9.54334E-05-2.82639E-05-2.87884E-05-8.47786E-07-7.74177E-19 8.57469E-19
 -1      2774 9.53383E-05-2.80458E-05-2.88406E-05-1.16077E-06-1.42803E-18 2.96876E-19
 -1      2775 9.54223E-05-2.83091E-05-2.87593E-05-7.10115E-07-5.65744E-19 7.49077E-19
 -1      2776 9.53733E-05-2.83367E-05-2.87310E-05-5.94319E-07-1.20591E-18 6.02935E-20
 -1      2777 9.53160E-05-2.81705E-05-2.87775E-05-8.35381E-07-1.25060E-18-5.41480E-19
 -1      2778 9.53640E-05-2.83724E-05-2.87080E-05-4.89724E-07-1.42375E-18-2.12504E-19
 -1      2779 9.53284E-05-2.83951E-05-2.86865E-05-4.02714E-07-4.59205E-19 8.01527E-21
 -1      2780 9.52972E-05-2.82705E-05-2.87265E-05-5.85197E-07-1.29013E-18-3.51555E-19
 -1      2781 9.53209E-05-2.84229E-05-2.86685E-05-3.24590E-07 8.41339E-19 7.12976E-19
 -1      2782 9.52958E-05-2.84412E-05-2.86525E-05-2.60362E-07 4.45561E-19 1.00355E-18
 -1      2783 9.52817E-05-2.83494E-05-2.86859E-05-3.96007E-07 4.06281E-20 4.57500E-20
 -1      2784 9.52898E-05-2.84625E-05-2.86388E-05-2.03078E-07 4.72093E-19 1.36834E-18
 -1      2785 9.52728E-05-2.84772E-05-2.86271E-05-1.56600E-07 8.77104E-19 1.32661E-18
 -1      2786 9.52694E-05-2.84107E-05-2.86543E-05-2.55426E-07 3.74685E-19-3.98062E-19
 -1      2787 9.52682E-05-2.84933E-05-2.86167E-05-1.15481E-07 5.68544E-19 1.11690E-18
 -1      2788 9.52572E-05-2.85049E-05-2.86084E-05-8.26491E-08 2.72425E-19-3.91963E-19
 -1      2789 9.52599E-05-2.84576E-05-2.86300E-05-1.52973E-07 4.82037E-19-1.08246E-18
 -1      2790 9.52538E-05-2.85170E-05-2.86007E-05-5.39198E-08 5.42745E-19 2.35336E-19
 -1      2791 9.52472E-05-2.85263E-05-2.85948E-05-3.14821E-08 2.24554E-18 2.41347E-19
 -1      2792 9.52529E-05-2.84931E-05-2.86117E-05-8.00226E-08 6.92017E-19-6.44580E-19
 -1      2793 9.52448E-05-2.85354E-05-2.85892E-05-1.21758E-08 2.90963E-18 8.84043E-20
 -1      2794 9.52413E-05-2.85429E-05-2.85852E-05 2.36757E-09 2.06262E-18 1.08952E-18
 -1      2795 9.52478E-05-2.85200E-05-2.85979E-05-2.96760E-08 2.02784E-18-1.34413E-18
 -1      2796 9.52398E-05-2.85499E-05-2.85810E-05 1.45255E-08 6.52136E-19 6.00607E-19
 -1      2797 9.52385E-05-2.85562E-05-2.85782E-05 2.30301E-08 8.67506E-20-2.63435E-19
 -1      2798 9.52444E-05-2.85404E-05-2.85876E-05 3.44471E-09 7.86606E-19-2.89346E-18
 -1      2799 9.52378E-05-2.85621E-05-2.85751E-05 2.96144E-08 3.30815E-19-2.49568E-19
 -1      2800 9.52381E-05-2.85675E-05-2.85731E-05 3.32511E-08 4.90470E-19-9.28416E-19
 -1      2801 9.52425E-05-2.85567E-05-2.85798E-05 2.34302E-08 4.53906E-19-2.57384E-18
 -1      2802 9.92086E-05-2.92252E-05-2.99911E-05-6.45079E-06 5.63193E-19-1.69643E-19
 -1      2803 9.85846E-05-2.87280E-05-2.99218E-05-6.07897E-06 5.45628E-19-2.48375E-20
 -1      2804 9.59430E-05-2.18737E-05-3.17471E-05 5.24542E-06 1.61065E-18-4.15827E-19
 -1      2805 9.82224E-05-2.83331E-05-2.99476E-05-5.47130E-06 5.77490E-19-1.77374E-19
 -1      2806 9.77861E-05-2.79170E-05-2.99236E-05-4.83848E-06 7.18917E-19-2.01068E-19
 -1      2807 9.77551E-05-2.80230E-05-2.99020E-05-6.16753E-06 5.80905E-19-6.16139E-19
 -1      2808 1.02389E-04-3.19361E-05-3.02092E-05-6.61568E-06-1.69546E-19 4.63840E-19
 -1      2809 1.01426E-04-3.11082E-05-3.01138E-05-6.91632E-06 3.92055E-20 1.92487E-19
 -1      2810 1.04651E-04-3.39039E-05-3.03490E-05-5.42875E-06 1.53374E-19 4.57451E-19
 -1      2811 1.03570E-04-3.29090E-05-3.02541E-05-6.21619E-06 5.26066E-20 4.84409E-19
 -1      2812 1.02151E-04-3.25158E-05-2.98735E-05-7.43665E-06-9.14825E-20 5.66877E-20
 -1      2813 1.07263E-04-3.61112E-05-3.05381E-05-3.07982E-06 1.20641E-19 7.20814E-19
 -1      2814 1.06180E-04-3.50867E-05-3.04333E-05-4.43991E-06 2.35986E-20 5.64471E-19
 -1      2815 1.04874E-04-3.50127E-05-2.99756E-05-6.15913E-06 3.46659E-20 5.69956E-19
 -1      2816 1.09877E-04-3.80091E-05-3.08528E-05 5.48337E-07 1.93521E-19 1.24480E-18
 -1      2817 1.09026E-04-3.72971E-05-3.07069E-05-1.36007E-06 2.40944E-19 1.12827E-18
 -1      2818 1.08208E-04-3.77701E-05-3.02209E-05-3.55483E-06-1.75586E-19 1.12842E-18
 -1      2819 1.11752E-04-3.85511E-05-3.14111E-05 5.11629E-06 3.37341E-19 1.70218E-18
 -1      2820 1.11484E-04-3.87051E-05-3.11773E-05 2.96478E-06 2.79044E-19 1.75179E-18
 -1      2821 1.11662E-04-3.99531E-05-3.07432E-05 5.67468E-07 7.70651E-20 1.84237E-18
 -1      2822 1.11936E-04-3.65367E-05-3.23110E-05 9.42066E-06 2.69653E-19 1.57516E-18
 -1      2823 1.12555E-04-3.80733E-05-3.19577E-05 7.73377E-06 3.78692E-19 1.81911E-18
 -1      2824 1.14182E-04-4.01442E-05-3.17066E-05 5.78486E-06 3.47949E-19 2.62010E-18
 -1      2825 1.09840E-04-3.15458E-05-3.35027E-05 1.12544E-05-8.67216E-20 1.20575E-18
 -1      2826 1.11293E-04-3.43806E-05-3.30688E-05 1.10815E-05 1.09386E-20 1.40742E-18
 -1      2827 1.14408E-04-3.68497E-05-3.31897E-05 1.05516E-05 1.76795E-19 2.23404E-18
 -1      2828 1.06475E-04-2.54182E-05-3.46728E-05 8.48145E-06 3.70087E-19 1.40683E-18
 -1      2829 1.08017E-04-2.83177E-05-3.42922E-05 1.04960E-05-1.06073E-19 1.45445E-18
 -1      2830 1.11835E-04-3.01906E-05-3.49736E-05 1.18863E-05 8.57125E-20 1.49507E-18
 -1      2831 1.04372E-04-2.20220E-05-3.53035E-05 1.10187E-06 1.28359E-18 7.17005E-19
 -1      2832 1.04837E-04-2.30079E-05-3.51773E-05 4.76949E-06 9.55797E-19 1.33068E-18
 -1      2833 1.08052E-04-2.29832E-05-3.65011E-05 7.61709E-06 8.38695E-19 1.15392E-18
 -1      2834 1.05474E-04-2.39060E-05-3.50624E-05-7.02569E-06 9.71659E-19 6.34199E-19
 -1      2835 1.04594E-04-2.23486E-05-3.52387E-05-3.55718E-06 1.51157E-18 6.85720E-19
 -1      2836 1.06727E-04-2.06095E-05-3.70225E-05-1.36018E-06 1.38810E-18 5.15923E-19
 -1      2837 1.08969E-04-2.97178E-05-3.40992E-05-1.16672E-05 3.84065E-19-6.63793E-19
 -1      2838 1.07307E-04-2.66899E-05-3.44856E-05-1.01057E-05 5.15830E-19-1.23018E-19
 -1      2839 1.08910E-04-2.44519E-05-3.62482E-05-9.64676E-06 1.19469E-18-1.82602E-19
 -1      2840 1.12016E-04-3.54450E-05-3.28996E-05-1.12532E-05 6.28067E-19-1.81042E-18
 -1      2841 1.10658E-04-3.28408E-05-3.33039E-05-1.18229E-05 4.68207E-19-1.50873E-18
 -1      2842 1.12670E-04-3.17777E-05-3.46387E-05-1.27323E-05 1.03985E-18-2.19147E-18
 -1      2843 1.12799E-04-3.84259E-05-3.18914E-05-7.47003E-06 5.80400E-19-1.69027E-18
 -1      2844 1.12316E-04-3.72103E-05-3.21951E-05-9.30000E-06 8.20868E-19-1.51848E-18
 -1      2845 1.14730E-04-3.78436E-05-3.29022E-05-1.03792E-05 6.74050E-19-2.15605E-18
 -1      2846 1.11405E-04-3.84970E-05-3.12263E-05-2.77992E-06 6.98278E-19-1.35873E-18
 -1      2847 1.11766E-04-3.85758E-05-3.14143E-05-4.87233E-06 6.28057E-19-1.55414E-18
 -1      2848 1.13936E-04-4.02710E-05-3.15604E-05-5.42729E-06 7.31643E-19-1.18078E-18
 -1      2849 1.08877E-04-3.68362E-05-3.08393E-05 1.18884E-06-1.97250E-19-9.27676E-19
 -1      2850 1.09735E-04-3.76363E-05-3.09531E-05-5.57711E-07 6.32035E-19-7.63002E-19
 -1      2851 1.11122E-04-3.94639E-05-3.07308E-05-4.68470E-07 4.62469E-19-1.41062E-18
 -1      2852 1.06143E-04-3.46289E-05-3.06149E-05 3.87675E-06-2.87906E-19-1.17230E-18
 -1      2853 1.07167E-04-3.56339E-05-3.06995E-05 2.68928E-06-5.19564E-19-9.12934E-19
 -1      2854 1.07673E-04-3.70667E-05-3.02932E-05 3.21258E-06-8.14895E-20-5.47206E-19
 -1      2855 1.03705E-04-3.25864E-05-3.04535E-05 5.34043E-06-9.81843E-19-6.90250E-19
 -1      2856 1.04699E-04-3.35035E-05-3.05393E-05 4.69104E-06-4.96169E-19-6.86094E-19
 -1      2857 1.04490E-04-3.43678E-05-3.00847E-05 5.42800E-06-6.69639E-19-7.29635E-19
 -1      2858 1.01724E-04-3.09889E-05-3.02983E-05 5.86555E-06-5.90043E-19-1.50168E-19
 -1      2859 1.02604E-04-3.17083E-05-3.03974E-05 5.63636E-06-7.59919E-19-3.38460E-19
 -1      2860 1.01941E-04-3.20586E-05-2.99749E-05 6.43996E-06-9.01774E-19 3.79409E-19
 -1      2861 1.00184E-04-2.98635E-05-3.01276E-05 5.76113E-06 2.79334E-19 3.32533E-19
 -1      2862 1.00929E-04-3.03783E-05-3.02398E-05 5.81816E-06 1.58493E-19 1.67816E-19
 -1      2863 1.00050E-04-3.03532E-05-2.98875E-05 6.60995E-06-4.35878E-19-2.06759E-19
 -1      2864 9.90047E-05-2.91309E-05-2.99410E-05 5.28320E-06-1.62141E-19 8.71481E-19
 -1      2865 9.96225E-05-2.94760E-05-3.00602E-05 5.51119E-06-8.50529E-20 7.34454E-19
 -1      2866 9.86981E-05-2.92186E-05-2.97887E-05 6.25289E-06-6.65801E-20 5.46205E-19
 -1      2867 9.81023E-05-2.86874E-05-2.97473E-05 4.61919E-06 2.50538E-19 9.13574E-19
 -1      2868 9.86090E-05-2.89066E-05-2.98662E-05 4.93181E-06 2.59874E-19 1.12224E-18
 -1      2869 9.77452E-05-2.85318E-05-2.96708E-05 5.60510E-06-1.05080E-19 1.82105E-18
 -1      2870 9.74082E-05-2.84408E-05-2.95572E-05 3.89514E-06 8.72254E-19 9.04022E-19
 -1      2871 9.78203E-05-2.85726E-05-2.96695E-05 4.23377E-06 5.22468E-19 7.41713E-19
 -1      2872 9.70708E-05-2.81607E-05-2.95384E-05 4.83028E-06 4.51215E-19 7.66021E-19
 -1      2873 9.68714E-05-2.83208E-05-2.93795E-05 3.18937E-06 8.16028E-19 1.20527E-18
 -1      2874 9.72036E-05-2.83946E-05-2.94809E-05 3.51758E-06 1.14886E-18 1.17436E-18
 -1      2875 9.65870E-05-2.79954E-05-2.94005E-05 4.03472E-06 8.32283E-19 1.27794E-18
 -1      2876 9.64553E-05-2.82779E-05-2.92199E-05 2.54595E-06-9.26842E-19 3.89088E-19
 -1      2877 9.67202E-05-2.83147E-05-2.93082E-05 2.84349E-06 1.01024E-19 9.06866E-19
 -1      2878 9.62339E-05-2.79554E-05-2.92654E-05 3.28266E-06 4.57718E-19 1.53876E-18
 -1      2879 9.61335E-05-2.82793E-05-2.90814E-05 1.98571E-06-9.37590E-19-3.84446E-19
 -1      2880 9.63420E-05-2.82934E-05-2.91560E-05 2.24332E-06-1.34360E-18-4.67795E-19
 -1      2881 9.59722E-05-2.79859E-05-2.91397E-05 2.60890E-06-6.34004E-19 3.52920E-19
 -1      2882 9.58860E-05-2.83042E-05-2.89645E-05 1.51449E-06 5.51576E-19-8.77801E-20
 -1      2883 9.60478E-05-2.83048E-05-2.90260E-05 1.72993E-06-4.32525E-19-7.91357E-20
 -1      2884 9.57761E-05-2.80514E-05-2.90272E-05 2.02844E-06-8.52157E-19-4.63924E-19
 -1      2885 9.56974E-05-2.83394E-05-2.88685E-05 1.12907E-06 1.39082E-18-3.37404E-19
 -1      2886 9.58210E-05-2.83327E-05-2.89179E-05 1.30427E-06 1.49468E-18 1.56366E-19
 -1      2887 9.56284E-05-2.81301E-05-2.89298E-05 1.54346E-06 5.93174E-19-4.48931E-19
 -1      2888 9.55557E-05-2.83773E-05-2.87913E-05 8.21274E-07 6.68695E-19-6.03382E-19
 -1      2889 9.56484E-05-2.83671E-05-2.88302E-05 9.60372E-07 9.62756E-19-4.86601E-19
 -1      2890 9.55172E-05-2.82093E-05-2.88479E-05 1.14851E-06 1.30245E-18-4.35683E-19
 -1      2891 9.54508E-05-2.84137E-05-2.87306E-05 5.80716E-07 6.55847E-19-6.49890E-19
 -1      2892 9.55189E-05-2.84023E-05-2.87605E-05 6.88776E-07 9.03042E-19-6.56852E-20
 -1      2893 9.54339E-05-2.82823E-05-2.87807E-05 8.34032E-07 4.91068E-19-7.29723E-19
 -1      2894 9.53747E-05-2.84463E-05-2.86839E-05 3.96499E-07 6.20122E-19-3.35668E-19
 -1      2895 9.54235E-05-2.84351E-05-2.87064E-05 4.78731E-07-1.19778E-20-4.10329E-19
 -1      2896 9.53721E-05-2.83460E-05-2.87267E-05 5.88737E-07 2.20354E-19-1.39406E-19
 -1      2897 9.53208E-05-2.84744E-05-2.86487E-05 2.58245E-07 2.19028E-19-2.12646E-20
 -1      2898 9.53548E-05-2.84640E-05-2.86652E-05 3.19543E-07 9.79733E-19-6.31719E-20
 -1      2899 9.53270E-05-2.83994E-05-2.86842E-05 4.01160E-07 3.68870E-19 1.00041E-18
 -1      2900 9.52838E-05-2.84978E-05-2.86227E-05 1.56651E-07-2.26938E-19-2.23229E-19
 -1      2901 9.53066E-05-2.84887E-05-2.86346E-05 2.01354E-07 3.52904E-19-1.40214E-19
 -1      2902 9.52946E-05-2.84430E-05-2.86515E-05 2.60542E-07 4.51435E-19 1.04855E-18
 -1      2903 9.52596E-05-2.85170E-05-2.86040E-05 8.37434E-08-5.87952E-19-8.54744E-19
 -1      2904 9.52740E-05-2.85091E-05-2.86123E-05 1.15530E-07-6.33036E-19-6.42224E-19
 -1      2905 9.52719E-05-2.84777E-05-2.86267E-05 1.57322E-07 8.05556E-20 1.06921E-18
 -1      2906 9.52446E-05-2.85326E-05-2.85909E-05 3.29561E-08 8.21313E-19-3.03070E-18
 -1      2907 9.52530E-05-2.85259E-05-2.85964E-05 5.48229E-08 2.20531E-19-2.33068E-18
 -1      2908 9.52566E-05-2.85050E-05-2.86083E-05 8.33581E-08 3.31023E-19-1.75615E-18
 -1      2909 9.52364E-05-2.85454E-05-2.85819E-05-9.12876E-10-3.59889E-19-2.37437E-18
 -1      2910 9.52405E-05-2.85396E-05-2.85855E-05 1.33801E-08 4.25604E-20-2.71810E-18
 -1      2911 9.52469E-05-2.85262E-05-2.85949E-05 3.19834E-08 3.03883E-19-2.05137E-18
 -1      2912 9.52330E-05-2.85560E-05-2.85759E-05-2.18363E-08 8.01425E-19-1.11427E-18
 -1      2913 9.52341E-05-2.85509E-05-2.85781E-05-1.33622E-08-5.19380E-20-1.43278E-18
 -1      2914 9.52412E-05-2.85428E-05-2.85853E-05-2.07712E-09-8.55541E-19-2.42226E-18
 -1      2915 9.52329E-05-2.85654E-05-2.85718E-05-3.25242E-08-1.90236E-19 1.46092E-18
 -1      2916 9.52321E-05-2.85608E-05-2.85732E-05-2.88168E-08 4.54981E-19 3.64205E-19
 -1      2917 9.52384E-05-2.85562E-05-2.85783E-05-2.28893E-08-9.26350E-19-2.20200E-19
 -1      2918 9.52357E-05-2.85735E-05-2.85695E-05-3.49717E-08-1.56420E-18 2.50368E-18
 -1      2919 9.52337E-05-2.85689E-05-2.85705E-05-3.48365E-08-1.21580E-18 1.65403E-18
 -1      2920 9.52392E-05-2.85670E-05-2.85739E-05-3.24263E-08-1.30689E-18 8.86011E-19
 -1      2921 9.52416E-05-2.85764E-05-2.85708E-05-3.48171E-08-1.62995E-18 1.16165E-18
 -1      2922 9.52480E-05-2.85680E-05-2.85772E-05-1.85328E-09 7.84641E-19-4.18703E-20
 -1      2923 9.52480E-05-2.85681E-05-2.85771E-05-5.40774E-09 3.65287E-19-1.56687E-18
 -1      2924 9.52379E-05-2.85712E-05-2.85713E-05 3.51162E-08 1.16507E-18-1.71197E-19
 -1      2925 9.52387E-05-2.85748E-05-2.85702E-05 3.53420E-08 1.93238E-19 3.79474E-19
 -1      2926 9.52421E-05-2.85686E-05-2.85745E-05 3.23561E-08 1.21256E-18-2.08512E-18
 -1      2927 9.52491E-05-2.85717E-05-2.85761E-05-1.58325E-08 7.22093E-20-2.90155E-18
 -1      2928 9.52488E-05-2.85720E-05-2.85758E-05-1.95157E-08 1.51584E-18-2.74534E-18
 -1      2929 9.52482E-05-2.85683E-05-2.85771E-05 4.87637E-09 1.66083E-18-4.69663E-19
 -1      2930 9.52481E-05-2.85681E-05-2.85772E-05 1.27875E-09 1.08052E-18-3.09181E-19
 -1      2931 9.52460E-05-2.85535E-05-2.85823E-05-3.44762E-10 1.10370E-18 2.95159E-19
 -1      2932 9.52484E-05-2.85693E-05-2.85768E-05-8.64073E-09-8.00949E-19-3.68388E-18
 -1      2933 9.52485E-05-2.85696E-05-2.85767E-05-1.22846E-08-6.46788E-19-2.87321E-18
 -1      2934 9.52473E-05-2.85580E-05-2.85811E-05-1.26279E-08 2.70999E-19-4.03581E-18
 -1      2935 9.52463E-05-2.85546E-05-2.85820E-05-6.22937E-09 3.58573E-19-1.35527E-18
 -1      2936 9.75737E-05-2.75512E-05-3.00041E-05-3.98506E-06 7.14170E-19-1.93251E-19
 -1      2937 9.73303E-05-2.71323E-05-3.00572E-05-3.06644E-06 7.74958E-19-2.77567E-19
 -1      2938 9.71639E-05-2.70988E-05-3.00431E-05-4.60204E-06 6.97696E-19-5.77458E-19
 -1      2939 9.52489E-05-2.85699E-05-2.85767E-05 1.17871E-08 2.37320E-18-7.08663E-19
 -1      2940 9.52487E-05-2.85696E-05-2.85768E-05 8.12933E-09 1.33692E-18 2.85750E-19
 -1      2941 9.52466E-05-2.85549E-05-2.85820E-05 5.59211E-09 2.05826E-18-8.26135E-19
 -1      2942 9.52493E-05-2.85724E-05-2.85758E-05 1.92801E-08 2.44235E-18 8.52304E-19
 -1      2943 9.52495E-05-2.85721E-05-2.85761E-05 1.54605E-08 2.99659E-18-9.19168E-19
 -1      2944 9.52478E-05-2.85584E-05-2.85811E-05 1.21228E-08 1.76408E-18-5.55422E-19
 -1      2945 9.52481E-05-2.85748E-05-2.85743E-05 2.67665E-08 1.08426E-18 1.62398E-18
 -1      2946 9.52494E-05-2.85749E-05-2.85748E-05 2.31622E-08 2.61752E-18 2.05116E-18
 -1      2947 9.52485E-05-2.85631E-05-2.85794E-05 1.95663E-08 2.68089E-18 7.54729E-19
 -1      2948 1.32142E-04-2.20879E-05-4.76210E-05 1.37975E-05-2.19022E-18-1.32857E-18
 -1      2949 1.30254E-04-1.67870E-05-4.96062E-05 1.00639E-05-3.61154E-18-1.37675E-18
 -1      2950 1.24188E-04-6.01126E-05-2.79833E-05 2.18464E-05 1.02920E-18 2.02430E-18
 -1      2951 1.08895E-04-5.54713E-05-2.23311E-05 3.17082E-05 1.47913E-18 8.00446E-20
 -1      2952 1.14259E-04-5.64415E-05-2.47599E-05 2.86123E-05-1.69385E-18-3.91028E-19
 -1      2953 1.02663E-04-5.16288E-05-2.16077E-05 3.28731E-05-1.48210E-18 6.09864E-19
 -1      2954 8.32010E-05-4.29160E-05-1.71302E-05 3.81272E-05-1.01845E-18 2.26708E-18
 -1      2955 6.42619E-05-3.39059E-05-1.23082E-05 3.79830E-05-1.09744E-18 2.56227E-18
 -1      2956 1.36767E-04-3.65437E-05-4.35148E-05-1.02940E-05 1.18278E-18-2.76599E-18
 -1      2957 1.37629E-04-4.63849E-05-3.92897E-05-4.16146E-06 4.25952E-19-2.67027E-18
 -1      2958 5.95143E-05-3.11896E-05-1.16790E-05-3.67333E-05-1.85723E-18-2.59129E-18
 -1      2959 7.53841E-05-4.11364E-05-1.44330E-05-4.12012E-05-1.64303E-18-1.85341E-18
 -1      2960 1.38897E-04-5.20602E-05-3.77240E-05-3.34238E-06-7.76200E-19 2.39096E-18
 -1      2961 1.35305E-04-5.77670E-05-3.29669E-05 5.87076E-06 3.18279E-19 2.04791E-18
 -1      2962 1.00581E-04-3.03861E-05-3.00882E-05-6.88043E-06 2.89786E-19-9.90235E-20
 -1      2963 9.97792E-05-2.97438E-05-2.99977E-05-6.80372E-06 4.60313E-19-6.92887E-20
 -1      2964 9.86997E-05-2.91052E-05-2.98452E-05-7.21906E-06 4.80703E-19-5.15183E-19
 -1      2965 1.00121E-04-3.05511E-05-2.98390E-05-7.69882E-06 6.34601E-20-1.91507E-20
 -1      2966 9.62185E-05-2.34055E-05-3.11864E-05-1.89830E-06-1.23026E-18-5.40837E-19
 -1      2967 9.63164E-05-2.43376E-05-3.08579E-05-4.12469E-08-1.15154E-18-6.11569E-19
 -1      2968 9.55634E-05-2.34584E-05-3.09031E-05 6.09886E-07-1.08804E-18-7.02583E-19
 -1      2969 9.51132E-05-2.05230E-05-3.19872E-05-5.11333E-06-1.50284E-18-6.91621E-19
 -1      2970 9.57528E-05-2.22973E-05-3.14832E-05-3.16394E-06-1.38916E-18-6.06996E-19
 -1      2971 9.49502E-05-2.14718E-05-3.14909E-05-2.27567E-06-1.30435E-18-7.89144E-19
 -1      2972 9.38286E-05-1.88620E-05-3.21394E-05-4.88898E-06-1.45784E-18-1.01303E-18
 -1      2973 9.52422E-05-2.85768E-05-2.85709E-05 3.47475E-08 2.11093E-19-1.50286E-18
 -1      2974 1.20573E-04-5.87067E-05-2.61615E-05-2.60569E-05-1.49777E-18-4.02605E-19
 -1      2975 1.31387E-04-5.88804E-05-3.15708E-05-1.60351E-05-8.68685E-19 3.24096E-19
 -1      2976 9.72015E-05-2.66727E-05-3.02230E-05-1.92117E-06 9.79395E-19-4.37517E-19
 -1      2977 9.71358E-05-2.61259E-05-3.03962E-05-6.19915E-07 1.13971E-18-3.93617E-19
 -1      2978 9.64756E-05-2.46177E-05-3.08001E-05 3.08806E-07 1.25111E-18-7.18133E-19
 -1      2979 9.67939E-05-2.60750E-05-3.03201E-05-2.47963E-06 9.12067E-19-5.13132E-19
 -1      2980 9.77360E-05-5.05206E-05-1.98413E-05-3.44564E-05 1.19802E-18-9.40895E-19
 -1      2981 1.13088E-04-5.73287E-05-2.39988E-05-2.99771E-05 7.75035E-19-9.00932E-19
 -1      2982 1.29609E-04-1.98590E-05-4.77282E-05-1.15419E-05 2.46772E-18-2.26264E-18
 -1      2983 1.32432E-04-2.63838E-05-4.57828E-05-1.29524E-05 1.91916E-18-2.31484E-18
 -1      2984 8.93202E-05-1.39984E-05-3.23015E-05 2.61838E-06 1.13819E-18-1.59638E-18
 -1      2985 8.85184E-05-1.32173E-05-3.22991E-05 1.96824E-06 8.41925E-19-1.64344E-18
 -1      2986 8.89953E-05-1.43500E-05-3.19716E-05 1.15745E-06 7.02524E-19-1.52293E-18
 -1      2987 9.06790E-05-1.61062E-05-3.19383E-05 1.95062E-06 1.10509E-18-1.36992E-18
 -1      2988 8.82172E-05-1.28891E-05-3.23106E-05-2.05624E-06-6.40826E-19-1.77620E-18
 -1      2989 8.89964E-05-1.36386E-05-3.23179E-05-2.65186E-06-8.15342E-19-1.75807E-18
 -1      2990 1.35133E-04-3.45752E-05-4.32797E-05 1.11834E-05 2.18937E-18 1.84516E-18
 -1      2991 1.33401E-04-2.62790E-05-4.66491E-05 1.14887E-05 2.94672E-18 1.51100E-18
 -1      2992 8.97045E-05-4.83052E-05-1.73340E-05-3.94717E-05-1.63869E-18-8.79961E-19
 -1      2993 1.04888E-04-5.48456E-05-2.16604E-05-3.62080E-05-1.39909E-18-4.96877E-19
 -1      2994 8.70001E-05-4.42799E-05-1.78524E-05-3.72997E-05-2.10657E-18-9.70964E-19
 -1      2995 1.37418E-04-5.39176E-05-3.56566E-05-3.90823E-06 8.13747E-20 1.24016E-18
 -1      2996 1.37877E-04-4.66542E-05-3.97823E-05 4.25623E-06 1.01808E-18 1.95961E-18
 -1      2997 9.12111E-05-4.86437E-05-1.83622E-05 3.85084E-05 1.53398E-18-1.03158E-18
 -1      2998 7.68264E-05-4.09818E-05-1.46558E-05 3.86302E-05 1.49501E-18-2.22939E-18
 -1      2999 3.41984E-05-1.53967E-05-7.44319E-06-1.47623E-05-6.56345E-19-4.83444E-18
 -1      3000 4.38969E-05-2.06224E-05-9.53383E-06-2.65812E-05-1.31306E-18-3.70746E-18
 -1      3001 2.95988E-05-1.31187E-05-6.51941E-06 7.05366E-06-3.13111E-19 2.50383E-18
 -1      3002 2.92822E-05-1.30522E-05-6.58049E-06-4.89144E-06 1.22767E-19 2.03754E-18
 -1      3003 1.30649E-04-1.66094E-05-4.93770E-05 9.70816E-06 3.73732E-18 1.33387E-18
 -1      3004 1.29843E-04-1.07895E-05-5.17023E-05 4.65582E-06 4.44396E-18 6.20981E-19
 -1      3005 1.26144E-04-2.16231E-05-4.52030E-05 1.19033E-05 2.91104E-18 1.66024E-18
 -1      3006 1.39911E-04-3.95744E-05-4.32484E-05 1.25510E-05-2.04770E-19-6.61956E-19
 -1      3007 1.37763E-04-3.17522E-05-4.61262E-05 1.37649E-05-9.97805E-19-1.04545E-18
 -1      3008 1.24168E-04-5.95173E-05-2.75701E-05-2.12268E-05 9.29301E-19-4.29340E-20
 -1      3009 1.32843E-04-6.00160E-05-3.16064E-05-1.33951E-05 1.03523E-18 7.67624E-19
 -1      3010 1.34596E-04-5.73217E-05-3.30708E-05-4.30654E-06 1.36547E-18 9.13737E-20
 -1      3011 1.19740E-04-5.75352E-05-2.65565E-05-2.15479E-05 1.36187E-18-1.55510E-19
 -1      3012 3.65074E-05-1.57229E-05-8.21468E-06-1.63908E-05 6.97558E-19 1.82980E-18
 -1      3013 4.83757E-05-2.30243E-05-1.06046E-05-2.90994E-05 1.13005E-18 1.55198E-18
 -1      3014 6.48263E-05-3.28371E-05-1.31365E-05-3.52922E-05 1.51905E-18 8.36763E-19
 -1      3015 8.02005E-05-4.20585E-05-1.63073E-05-3.82310E-05 1.27171E-18-5.19019E-19
 -1      3016 1.25650E-04-3.82648E-05-3.75825E-05-1.40836E-05-9.94126E-19 1.80801E-18
 -1      3017 1.34308E-04-3.71626E-05-4.20187E-05-1.41203E-05-1.76924E-18 1.91292E-18
 -1      3018 1.37836E-04-4.70962E-05-3.92342E-05-9.61499E-06-1.05519E-18 2.43628E-18
 -1      3019 1.27266E-04-4.36721E-05-3.60578E-05-1.24963E-05-3.15043E-19 1.62923E-18
 -1      3020 8.99608E-05-1.46629E-05-3.22985E-05-3.05616E-06-9.86731E-19-1.58348E-18
 -1      3021 9.10289E-05-1.57728E-05-3.22788E-05-3.66796E-06-1.22138E-18-1.38357E-18
 -1      3022 9.02938E-05-1.56587E-05-3.19607E-05-1.97888E-06-8.10447E-19-1.47245E-18
 -1      3023 8.74421E-05-1.27920E-05-3.19736E-05-1.63198E-07 7.01108E-21-1.59687E-18
 -1      3024 8.66852E-05-1.13902E-05-3.22888E-05-2.88041E-07-6.52340E-20-1.79662E-18
 -1      3025 8.68108E-05-1.15029E-05-3.22939E-05-8.13536E-07-2.82220E-19-1.84705E-18
 -1      3026 9.34427E-05-4.56803E-05-2.00801E-05-3.25826E-05 1.42863E-18-6.36757E-19
 -1      3027 1.36595E-04-4.49886E-05-3.94709E-05 1.13873E-05 6.51421E-19-6.66086E-19
 -1      3028 4.33714E-05-1.70967E-05-1.10159E-05 2.13467E-05-8.40071E-19 2.52373E-18
 -1      3029 3.57984E-05-1.46942E-05-8.39785E-06 1.39518E-05-7.96582E-19 2.36365E-18
 -1      3030 3.89525E-05-1.26981E-05-1.09040E-05 8.72551E-06 9.72764E-21 1.52148E-18
 -1      3031 1.29839E-04-4.82976E-05-3.50347E-05-7.80753E-06 7.37316E-20 1.81720E-18
 -1      3032 3.41085E-05-1.36047E-05-8.15935E-06-7.95600E-06-2.54851E-19-4.96615E-18
 -1      3033 4.29183E-05-1.44189E-05-1.18356E-05-1.19615E-05-6.34031E-19-4.13881E-18
 -1      3034 3.60931E-05-1.25655E-05-9.57185E-06 6.32070E-07 8.48390E-20-4.48419E-18
 -1      3035 1.36134E-04-5.22051E-05-3.61976E-05-3.36127E-07-1.45594E-19-2.48943E-18
 -1      3036 1.31047E-04-5.42122E-05-3.29509E-05 4.25378E-06-4.24734E-19-2.36664E-18
 -1      3037 1.32783E-04-4.69216E-05-3.71141E-05-6.85450E-06-1.85288E-22-2.29641E-18
 -1      3038 1.02827E-04-5.09401E-05-2.18700E-05 3.14506E-05 1.85288E-18 1.02703E-19
 -1      3039 1.21761E-04-1.71398E-05-4.55809E-05-7.52732E-06-3.31645E-18 5.89429E-19
 -1      3040 1.27349E-04-2.83137E-05-4.27656E-05 1.53944E-05-1.52138E-18-1.56839E-18
 -1      3041 1.21078E-04-1.49003E-05-4.61141E-05-8.81798E-07-3.72991E-18 7.80528E-21
 -1      3042 1.29640E-04-5.26528E-05-3.32028E-05 1.29819E-06 1.27820E-18-8.50673E-20
 -1      3043 1.23559E-04-4.81148E-05-3.23522E-05 3.30103E-06 3.10682E-19-1.80041E-19
 -1      3044 1.21461E-04-4.74883E-05-3.16168E-05-3.49672E-07 1.39946E-19-7.50915E-20
 -1      3045 1.27070E-04-5.55333E-05-3.04801E-05-7.07474E-06 1.28359E-18-3.69518E-20
 -1      3046 9.52479E-05-2.85626E-05-2.85794E-05-1.96776E-08 1.59731E-18-1.10066E-18
 -1      3047 9.52489E-05-2.85743E-05-2.85749E-05-2.32824E-08 3.98327E-19-7.04166E-19
 -1      3048 9.52477E-05-2.85742E-05-2.85743E-05-2.66219E-08-6.04739E-19-4.10138E-19
 -1      3049 9.51591E-05-2.10629E-05-3.17660E-05 4.32310E-06 1.55216E-18-7.22880E-19
 -1      3050 5.54001E-05-2.55995E-05-1.21868E-05-3.10369E-05-1.76988E-18-2.59626E-18
 -1      3051 6.70377E-05-3.04870E-05-1.55404E-05-3.32514E-05-2.16925E-18-1.70561E-18
 -1      3052 5.31204E-05-2.03764E-05-1.36168E-05-2.42290E-05-1.48988E-18-2.74555E-18
 -1      3053 1.32139E-04-5.61946E-05-3.25712E-05-7.94633E-06-6.36572E-19 9.85893E-19
 -1      3054 9.52466E-05-2.85762E-05-2.85731E-05-2.98378E-08-1.58511E-18-1.00205E-18
 -1      3055 9.52440E-05-2.85753E-05-2.85723E-05-3.21144E-08-1.64469E-18 6.89494E-19
 -1      3056 9.52429E-05-2.85701E-05-2.85740E-05-3.19630E-08-2.36489E-18 8.21454E-19
 -1      3057 9.52468E-05-2.85671E-05-2.85770E-05-2.64571E-08-2.68944E-19-9.87152E-20
 -1      3058 1.27768E-04-5.73830E-05-3.01652E-05 1.15845E-05 9.13313E-19 1.87639E-18
 -1      3059 1.30678E-04-3.28334E-05-4.22532E-05-1.25455E-05 1.19770E-18-2.42103E-18
 -1      3060 9.39285E-05-4.63971E-05-2.00434E-05 3.48514E-05-1.43779E-18 8.97961E-19
 -1      3061 8.35445E-05-3.87671E-05-1.89157E-05 3.34093E-05-1.59184E-18 1.00146E-18
 -1      3062 1.01549E-04-4.80398E-05-2.27954E-05 2.86831E-05-1.65050E-18-4.96692E-19
 -1      3063 9.52453E-05-2.85776E-05-2.85718E-05 3.20637E-08 2.79294E-19-1.29039E-18
 -1      3064 1.18431E-04-4.81148E-05-3.03051E-05-5.68236E-06 1.10938E-19 8.11153E-19
 -1      3065 1.21475E-04-5.69527E-05-2.76334E-05 1.94629E-05-1.60005E-18-1.25567E-18
 -1      3066 9.52446E-05-2.85689E-05-2.85753E-05 3.06428E-08 4.90602E-19-1.92275E-18
 -1      3067 9.52471E-05-2.85738E-05-2.85743E-05 2.90563E-08 2.04907E-19 6.27915E-19
 -1      3068 9.52476E-05-2.85646E-05-2.85782E-05 2.52039E-08 1.40761E-18 4.66187E-19
 -1      3069 9.52446E-05-2.85636E-05-2.85773E-05 2.80826E-08 1.26998E-18-2.48913E-18
 -1      3070 5.90065E-05-2.78951E-05-1.27183E-05 3.30107E-05-1.22227E-18 2.66985E-18
 -1      3071 3.73218E-05-1.89924E-05-7.20223E-06 2.14659E-05 7.40307E-19-4.25761E-18
 -1      3072 3.74031E-05-1.51635E-05-8.98416E-06 1.44337E-05 4.31934E-19-4.29996E-18
 -1      3073 4.69194E-05-2.16676E-05-1.06078E-05 2.60780E-05 1.12343E-18-3.64161E-18
 -1      3074 1.27369E-04-1.38749E-05-4.91232E-05 3.73766E-06-4.13352E-18-1.04767E-18
 -1      3075 1.33092E-04-4.09043E-05-3.97024E-05 9.21109E-06 1.14746E-18 1.85426E-18
 -1      3076 6.87300E-05-3.49205E-05-1.40772E-05 3.61304E-05 1.53355E-18-2.54173E-18
 -1      3077 9.51601E-05-2.18086E-05-3.14257E-05 2.54108E-06 1.35728E-18-9.06341E-19
 -1      3078 1.24352E-04-1.07498E-05-4.91682E-05 1.94742E-06 3.51879E-18-4.25422E-19
 -1      3079 1.14306E-04-5.60759E-05-2.46833E-05-2.78677E-05-1.96956E-18-7.41683E-20
 -1      3080 8.71141E-05-1.18055E-05-3.22983E-05-1.14529E-06-4.20588E-19-1.78084E-18
 -1      3081 8.75715E-05-1.22260E-05-3.23097E-05-1.69324E-06-5.80229E-19-1.77263E-18
 -1      3082 8.86696E-05-1.39948E-05-3.19821E-05-1.32741E-06-5.78131E-19-1.65312E-18
 -1      3083 8.77027E-05-1.30398E-05-3.19783E-05-7.35096E-07-3.73002E-19-1.67135E-18
 -1      3084 1.26300E-04-1.65262E-05-4.75234E-05-1.03263E-05 2.69251E-18-2.43882E-18
 -1      3085 1.22222E-04-2.02240E-05-4.40163E-05-1.20709E-05 2.13685E-18-2.92578E-18
 -1      3086 1.21052E-04-1.31778E-05-4.68675E-05-7.92321E-06 2.71993E-18-1.96394E-18
 -1      3087 4.06076E-05-1.42822E-05-1.06644E-05-1.06461E-05 5.69153E-19 1.33334E-18
 -1      3088 6.15522E-05-2.68492E-05-1.43699E-05-2.92731E-05 1.72588E-18 1.03571E-18
 -1      3089 9.38877E-05-2.05438E-05-3.14533E-05 1.61225E-06 1.22709E-18-1.18445E-18
 -1      3090 9.27521E-05-1.91701E-05-3.15447E-05 1.34880E-06 1.16316E-18-1.15899E-18
 -1      3091 1.22421E-04-2.47711E-05-4.20774E-05 1.29814E-05 2.41007E-18 1.55213E-18
 -1      3092 1.20008E-04-1.80572E-05-4.43320E-05 1.01751E-05 2.63681E-18 9.43198E-19
 -1      3093 8.72179E-05-3.94991E-05-2.00268E-05-3.08388E-05 1.76077E-18-6.26566E-19
 -1      3094 1.01492E-04-4.79783E-05-2.30436E-05-2.81742E-05 1.46431E-18-3.99588E-19
 -1      3095 9.48011E-05-2.44317E-05-3.01537E-05 5.15454E-06-5.17559E-19-5.80280E-19
 -1      3096 9.48429E-05-2.48050E-05-3.00139E-05 6.27577E-06-5.17090E-19-6.72698E-19
 -1      3097 9.46595E-05-2.50711E-05-2.98221E-05 7.32429E-06-5.37953E-19-5.70580E-19
 -1      3098 9.47775E-05-2.54260E-05-2.97138E-05 8.29107E-06-4.75712E-19-7.06389E-19
 -1      3099 9.35342E-05-2.39286E-05-2.98293E-05 6.61195E-06-5.13804E-19-8.53007E-19
 -1      3100 9.46080E-05-2.57180E-05-2.95239E-05 9.27462E-06-2.18558E-19-6.52029E-19
 -1      3101 9.49058E-05-2.62211E-05-2.94213E-05 1.01167E-05 5.81434E-20-5.73207E-19
 -1      3102 9.31725E-05-2.45495E-05-2.94113E-05 8.66425E-06-3.46680E-19-7.10601E-19
 -1      3103 9.48898E-05-2.67259E-05-2.92095E-05 1.10796E-05 2.72172E-19-6.64335E-19
 -1      3104 9.55229E-05-2.75807E-05-2.90947E-05 1.17896E-05 3.64531E-19-5.17160E-19
 -1      3105 9.29571E-05-2.53928E-05-2.89647E-05 1.06452E-05 9.68502E-20-6.84277E-19
 -1      3106 9.58801E-05-2.85347E-05-2.88474E-05 1.27535E-05 3.73044E-19-3.39285E-19
 -1      3107 9.70879E-05-2.99950E-05-2.87202E-05 1.32667E-05 5.24776E-19-1.81598E-19
 -1      3108 9.32281E-05-2.69016E-05-2.84493E-05 1.26567E-05 4.90018E-19-6.96874E-19
 -1      3109 9.81664E-05-3.16871E-05-2.84489E-05 1.41891E-05 5.91883E-19-2.84054E-21
 -1      3110 1.00288E-04-3.40271E-05-2.83496E-05 1.43326E-05 5.86852E-19-1.80343E-19
 -1      3111 9.45310E-05-2.96486E-05-2.78575E-05 1.47436E-05 6.05681E-19-4.82063E-19
 -1      3112 1.02617E-04-3.67764E-05-2.81275E-05 1.50226E-05 5.91410E-19 5.13646E-20
 -1      3113 1.05955E-04-4.01159E-05-2.81783E-05 1.44285E-05 5.88225E-19 9.36393E-20
 -1      3114 9.76665E-05-3.42800E-05-2.72608E-05 1.67811E-05 6.49474E-19 3.41262E-20
 -1      3115 1.10194E-04-4.38958E-05-2.82309E-05 1.40041E-05 8.07024E-19 4.86384E-19
 -1      3116 1.14497E-04-4.76407E-05-2.86893E-05 1.21098E-05 9.89751E-19 7.10176E-19
 -1      3117 1.04229E-04-4.17238E-05-2.69477E-05 1.81465E-05 9.45031E-19 5.46541E-19
 -1      3118 9.45489E-05-2.18501E-05-3.11428E-05-2.55134E-07-1.05130E-18-7.93016E-19
 -1      3119 9.47284E-05-2.27618E-05-3.08520E-05 1.33771E-06-9.44372E-19-7.17876E-19
 -1      3120 1.01786E-04-3.56919E-05-2.82773E-05-1.35698E-05-5.31487E-19 5.00223E-19
 -1      3121 9.92587E-05-3.30032E-05-2.83321E-05-1.35568E-05-5.62185E-19 5.37886E-19
 -1      3122 9.77530E-05-3.10126E-05-2.85693E-05-1.26887E-05-5.27832E-19 1.65573E-19
 -1      3123 9.62431E-05-2.92965E-05-2.86710E-05-1.22746E-05-2.54989E-19 1.73832E-20
 -1      3124 9.49162E-05-3.07784E-05-2.75663E-05-1.45109E-05-5.88626E-19 1.20330E-18
 -1      3125 9.56373E-05-2.81697E-05-2.88870E-05-1.13295E-05 1.09020E-19-6.90094E-19
 -1      3126 9.48098E-05-2.72139E-05-2.89675E-05-1.07279E-05 1.31297E-19-2.18315E-19
 -1      3127 9.29846E-05-2.74889E-05-2.80993E-05-1.24264E-05-3.80611E-20 8.75367E-19
 -1      3128 9.46891E-05-2.66877E-05-2.91241E-05-9.84851E-06 5.88534E-19 3.62437E-20
 -1      3129 9.42634E-05-2.62282E-05-2.91637E-05-9.18115E-06 7.80951E-19 8.19327E-19
 -1      3130 9.23567E-05-2.58161E-05-2.85269E-05-1.05094E-05 6.34128E-19 8.87515E-20
 -1      3131 9.43790E-05-2.60723E-05-2.92602E-05-8.38862E-06 7.06238E-19 1.38797E-18
 -1      3132 9.41711E-05-2.59142E-05-2.92620E-05-7.72256E-06 7.17234E-19 1.51405E-18
 -1      3133 9.23993E-05-2.51495E-05-2.88210E-05-8.81487E-06 1.15460E-18 1.61047E-18
 -1      3134 9.43801E-05-2.59662E-05-2.93094E-05-7.01892E-06 6.77778E-19 2.02378E-18
 -1      3135 9.42821E-05-2.59769E-05-2.92834E-05-6.39147E-06 3.40231E-19 2.50495E-18
 -1      3136 9.27441E-05-2.50761E-05-2.89962E-05-7.32688E-06 1.18340E-18 2.27620E-18
 -1      3137 9.45091E-05-2.61325E-05-2.92953E-05-5.77418E-06 2.28054E-21 3.09171E-18
 -1      3138 9.44621E-05-2.62283E-05-2.92523E-05-5.20642E-06 5.84135E-19 3.47166E-18
 -1      3139 9.31862E-05-2.53215E-05-2.90795E-05-6.02297E-06 4.29759E-19 2.56629E-18
 -1      3140 9.46712E-05-2.64242E-05-2.92410E-05-4.67240E-06-1.13293E-19 2.81949E-18
 -1      3141 9.46458E-05-2.65551E-05-2.91900E-05-4.17452E-06-3.65140E-19 2.01051E-18
 -1      3142 9.36221E-05-2.57144E-05-2.90983E-05-4.88817E-06-1.72933E-19 2.71148E-18
 -1      3143 9.48230E-05-2.67555E-05-2.91650E-05-3.71972E-06-5.38479E-20 1.34206E-18
 -1      3144 9.48056E-05-2.68932E-05-2.91123E-05-3.29434E-06-2.13332E-19 6.16604E-19
 -1      3145 9.40059E-05-2.61530E-05-2.90758E-05-3.91201E-06-8.17371E-19 1.87462E-18
 -1      3146 9.49483E-05-2.70794E-05-2.90808E-05-2.91333E-06-2.79641E-19 4.80554E-19
 -1      3147 9.49336E-05-2.72093E-05-2.90305E-05-2.55794E-06-1.28670E-18 7.34587E-19
 -1      3148 9.43231E-05-2.65806E-05-2.90294E-05-3.08447E-06-2.85426E-19 3.25555E-19
 -1      3149 9.50447E-05-2.73730E-05-2.89971E-05-2.24403E-06-1.61214E-18 1.27597E-18
 -1      3150 9.50310E-05-2.74883E-05-2.89515E-05-1.95297E-06-1.06614E-18 9.42132E-19
 -1      3151 9.45747E-05-2.69686E-05-2.89718E-05-2.39406E-06-5.91448E-19 1.22832E-18
 -1      3152 9.51152E-05-2.76269E-05-2.89192E-05-1.69859E-06-1.71995E-18 1.18722E-18
 -1      3153 9.51024E-05-2.77255E-05-2.88795E-05-1.46452E-06-1.49050E-18 7.47817E-19
 -1      3154 9.47683E-05-2.73053E-05-2.89112E-05-1.82745E-06-1.13686E-18 6.61189E-19
 -1      3155 9.51648E-05-2.78398E-05-2.88500E-05-1.26170E-06-1.41274E-18 1.24329E-18
 -1      3156 9.51532E-05-2.79216E-05-2.88164E-05-1.07665E-06-1.35398E-18 9.45445E-19
 -1      3157 9.49138E-05-2.75883E-05-2.88529E-05-1.37004E-06-1.65667E-18 3.77933E-19
 -1      3158 9.51985E-05-2.80139E-05-2.87904E-05-9.17525E-07-1.79724E-18 1.07906E-18
 -1      3159 9.51884E-05-2.80804E-05-2.87628E-05-7.73642E-07-2.16367E-18 1.25640E-19
 -1      3160 9.50210E-05-2.78205E-05-2.87996E-05-1.00674E-06-1.41900E-18 2.02586E-18
 -1      3161 9.52205E-05-2.81534E-05-2.87406E-05-6.50795E-07-1.51638E-18 4.18615E-19
 -1      3162 9.52120E-05-2.82065E-05-2.87183E-05-5.40741E-07-9.82578E-19 6.39510E-19
 -1      3163 9.50982E-05-2.80073E-05-2.87530E-05-7.22830E-07-1.69687E-18 1.87448E-18
 -1      3164 9.52342E-05-2.82634E-05-2.86999E-05-4.47460E-07-2.28851E-19 1.42078E-18
 -1      3165 9.52273E-05-2.83051E-05-2.86822E-05-3.64698E-07 3.39405E-19 8.43464E-19
 -1      3166 9.51527E-05-2.81548E-05-2.87133E-05-5.04557E-07-5.13369E-21 2.14864E-18
 -1      3167 9.52421E-05-2.83487E-05-2.86672E-05-2.95092E-07 5.69679E-19 1.21978E-18
 -1      3168 9.52366E-05-2.83809E-05-2.86533E-05-2.33975E-07 1.43653E-19 9.05159E-19
 -1      3169 9.51900E-05-2.82694E-05-2.86803E-05-3.39556E-07 6.94887E-19 2.14010E-18
 -1      3170 9.52461E-05-2.84138E-05-2.86413E-05-1.83023E-07-5.22714E-19 1.01884E-18
 -1      3171 9.52419E-05-2.84384E-05-2.86307E-05-1.38820E-07 4.93334E-19 5.75020E-19
 -1      3172 9.52147E-05-2.83571E-05-2.86533E-05-2.17057E-07 3.07869E-19 2.65489E-18
 -1      3173 9.52476E-05-2.84629E-05-2.86212E-05-1.02357E-07 7.00615E-19-7.55673E-19
 -1      3174 9.52445E-05-2.84816E-05-2.86131E-05-7.12101E-08 1.03448E-18-9.04205E-19
 -1      3175 9.52302E-05-2.84232E-05-2.86317E-05-1.27948E-07 3.16401E-19 1.10913E-18
 -1      3176 9.52475E-05-2.84997E-05-2.86056E-05-4.58909E-08 1.14915E-18-1.40510E-18
 -1      3177 9.52453E-05-2.85138E-05-2.85995E-05-2.47601E-08 9.84228E-19-2.67451E-18
 -1      3178 9.52394E-05-2.84726E-05-2.86144E-05-6.47330E-08 5.77217E-19-1.97839E-18
 -1      3179 9.52467E-05-2.85272E-05-2.85936E-05-7.95482E-09-2.68625E-20-1.75625E-18
 -1      3180 9.52453E-05-2.85381E-05-2.85890E-05 5.51770E-09-4.40319E-19-2.60666E-18
 -1      3181 9.52441E-05-2.85093E-05-2.86007E-05-2.15015E-08 3.00482E-19-2.28296E-18
 -1      3182 9.52455E-05-2.85475E-05-2.85846E-05 1.50759E-08 8.24600E-20-2.02371E-18
 -1      3183 9.52448E-05-2.85562E-05-2.85809E-05 2.27313E-08 1.18918E-18-2.23056E-18
 -1      3184 9.52464E-05-2.85562E-05-2.85817E-05 2.14910E-08 8.55938E-19-1.21240E-18
 -1      3185 9.52460E-05-2.85363E-05-2.85901E-05 5.63841E-09 3.05837E-19-1.23101E-18
 -1      3186 9.71441E-05-2.75820E-05-2.98089E-05-6.69310E-06 4.42774E-19-6.00067E-19
 -1      3187 9.67702E-05-2.70376E-05-2.98711E-05-5.99880E-06 5.44900E-19-5.82795E-19
 -1      3188 1.33250E-04-4.96589E-05-3.59091E-05-7.09602E-06-4.34025E-19 2.10469E-18
 -1      3189 1.04838E-04-3.59327E-05-2.95471E-05-7.29670E-06-3.88102E-19 5.59300E-19
 -1      3190 1.03273E-04-3.43639E-05-2.94830E-05-8.11663E-06-1.55781E-19 2.90941E-19
 -1      3191 1.01702E-04-3.28697E-05-2.95038E-05-8.36706E-06 5.14837E-21 1.05507E-19
 -1      3192 1.00493E-04-3.16010E-05-2.94919E-05-8.63240E-06-1.35507E-19 2.20292E-19
 -1      3193 1.01291E-04-3.35942E-05-2.90660E-05-9.54246E-06-2.82989E-19 2.76112E-19
 -1      3194 1.13267E-04-4.22643E-05-3.04885E-05-5.81987E-07-3.18885E-19 1.61591E-18
 -1      3195 1.11646E-04-4.12117E-05-3.01162E-05-2.88111E-06-3.71028E-19 1.11388E-18
 -1      3196 1.16729E-04-4.25389E-05-3.18471E-05 5.19940E-06 5.88704E-20 2.17873E-18
 -1      3197 1.15943E-04-4.31059E-05-3.11809E-05 2.50992E-06-1.53118E-19 2.11459E-18
 -1      3198 1.15702E-04-4.46285E-05-3.05169E-05-1.11614E-06-5.90443E-19 1.11655E-18
 -1      3199 1.17393E-04-3.80644E-05-3.40202E-05 1.08002E-05 3.66805E-19 2.25107E-18
 -1      3200 1.18109E-04-4.12409E-05-3.30380E-05 8.73994E-06 4.10437E-19 2.56699E-18
 -1      3201 1.19958E-04-4.40700E-05-3.25364E-05 5.74225E-06 1.87605E-19 1.98898E-18
 -1      3202 1.11149E-04-1.98660E-05-3.92685E-05 7.74184E-06 1.17759E-18 3.60757E-19
 -1      3203 1.13166E-04-2.41585E-05-3.84161E-05 1.12104E-05 8.97312E-19 4.22669E-19
 -1      3204 1.08349E-04-1.83035E-05-3.87912E-05-3.86876E-06 1.57381E-18-5.95901E-20
 -1      3205 1.08033E-04-1.76394E-05-3.89146E-05 8.93193E-07 1.45655E-18-8.58150E-20
 -1      3206 1.12818E-04-2.54941E-05-3.76998E-05-1.21997E-05 1.52087E-18-1.50749E-18
 -1      3207 1.10785E-04-2.10032E-05-3.85275E-05-9.27716E-06 1.66744E-18-9.21916E-19
 -1      3208 1.17155E-04-3.57753E-05-3.50650E-05-1.29983E-05 1.05726E-18-2.26373E-18
 -1      3209 1.15209E-04-3.09093E-05-3.61427E-05-1.32786E-05 1.20925E-18-1.62236E-18
 -1      3210 1.17897E-04-2.85593E-05-3.84076E-05-1.38453E-05 1.61804E-18-2.55190E-18
 -1      3211 1.18033E-04-4.19279E-05-3.26196E-05-8.28268E-06 2.59539E-19-1.89480E-18
 -1      3212 1.17503E-04-3.93586E-05-3.35275E-05-1.04704E-05 6.07227E-19-1.89383E-18
 -1      3213 1.20712E-04-3.92813E-05-3.49267E-05-1.16621E-05 7.29137E-19-1.99574E-18
 -1      3214 1.15064E-04-4.26925E-05-3.09705E-05-2.01331E-06 4.57972E-19-1.29103E-18
 -1      3215 1.16099E-04-4.26364E-05-3.15486E-05-4.54923E-06 4.43739E-19-1.41375E-18
 -1      3216 1.19354E-04-4.46545E-05-3.20873E-05-4.95402E-06 3.14607E-19-1.62374E-18
 -1      3217 1.10603E-04-4.02852E-05-3.00662E-05 2.84488E-06 5.48371E-20-5.04081E-19
 -1      3218 1.12311E-04-4.15568E-05-3.03803E-05 7.70844E-07 2.47646E-19-7.61564E-19
 -1      3219 1.14228E-04-4.38642E-05-3.02527E-05 1.56243E-06-3.23444E-20-4.88298E-19
 -1      3220 1.06158E-04-3.67925E-05-2.96674E-05 5.82349E-06-3.67434E-19-6.44035E-20
 -1      3221 1.07907E-04-3.84339E-05-2.98094E-05 4.50261E-06 1.52754E-19 2.06923E-19
 -1      3222 1.08693E-04-4.02961E-05-2.93879E-05 5.84067E-06-2.96180E-19 3.03498E-19
 -1      3223 1.02573E-04-3.35581E-05-2.95343E-05 7.21820E-06-9.35657E-19 2.53705E-19
 -1      3224 1.04051E-04-3.50347E-05-2.95930E-05 6.55382E-06-7.44877E-19-2.33566E-19
 -1      3225 1.03875E-04-3.61697E-05-2.90801E-05 7.89878E-06-5.92556E-19 6.52042E-19
 -1      3226 9.99880E-05-3.10763E-05-2.95072E-05 7.54471E-06-8.42224E-19-3.78998E-20
 -1      3227 1.01114E-04-3.21981E-05-2.95379E-05 7.35397E-06-3.71407E-19-2.77068E-19
 -1      3228 1.00349E-04-3.26895E-05-2.90425E-05 8.50847E-06-4.00445E-19-9.80920E-20
 -1      3229 9.82493E-05-2.93865E-05-2.94987E-05 7.22325E-06-5.70227E-19-7.25845E-19
 -1      3230 9.90613E-05-3.01497E-05-2.95300E-05 7.33906E-06-1.06849E-18-9.60396E-19
 -1      3231 9.80109E-05-3.01731E-05-2.91026E-05 8.26792E-06-4.43016E-19-1.40689E-18
 -1      3232 9.71302E-05-2.83492E-05-2.94719E-05 6.54667E-06-5.61142E-19 1.59504E-19
 -1      3233 9.77016E-05-2.88215E-05-2.95138E-05 6.84098E-06-5.48190E-19-4.00528E-19
 -1      3234 9.65738E-05-2.85493E-05-2.91707E-05 7.57671E-06-7.76127E-19-7.78940E-19
 -1      3235 9.64298E-05-2.77866E-05-2.94178E-05 5.70722E-06-3.30637E-19 9.32996E-19
 -1      3236 9.68306E-05-2.80488E-05-2.94706E-05 6.08909E-06-3.26760E-19 6.87194E-19
 -1      3237 9.57512E-05-2.76164E-05-2.92102E-05 6.67698E-06-9.96226E-19 3.76795E-19
 -1      3238 9.59977E-05-2.75405E-05-2.93408E-05 4.82703E-06 7.48381E-19 1.43662E-18
 -1      3239 9.62818E-05-2.76626E-05-2.94005E-05 5.23562E-06 5.30386E-19 1.24516E-18
 -1      3240 9.53183E-05-2.71665E-05-2.92129E-05 5.71363E-06-1.45480E-19 1.72571E-18
 -1      3241 9.57318E-05-2.74902E-05-2.92496E-05 3.98017E-06 4.60431E-19 1.63406E-18
 -1      3242 9.59366E-05-2.75252E-05-2.93117E-05 4.37718E-06 6.29774E-19 1.30959E-18
 -1      3243 9.51172E-05-2.70279E-05-2.91835E-05 4.77188E-06 8.66423E-19 1.63941E-18
 -1      3244 9.55667E-05-2.75513E-05-2.91530E-05 3.20869E-06 3.76602E-19 1.41171E-18
 -1      3245 9.57171E-05-2.75359E-05-2.92135E-05 3.57187E-06 7.34722E-19 1.84403E-18
 -1      3246 9.50457E-05-2.70744E-05-2.91316E-05 3.90036E-06 5.91019E-19 8.34496E-19
 -1      3247 9.54626E-05-2.76681E-05-2.90582E-05 2.53311E-06-1.19429E-19 3.10397E-19
 -1      3248 9.55746E-05-2.76266E-05-2.91142E-05 2.85143E-06 1.50420E-19 1.13068E-18
 -1      3249 9.50411E-05-2.72199E-05-2.90667E-05 3.12482E-06 6.35695E-19 6.38449E-19
 -1      3250 9.53950E-05-2.78057E-05-2.89700E-05 1.95959E-06-4.86675E-19-7.69206E-19
 -1      3251 9.54793E-05-2.77534E-05-2.90197E-05 2.22954E-06-6.33505E-19-4.43983E-19
 -1      3252 9.50671E-05-2.74084E-05-2.89968E-05 2.45571E-06-4.73071E-21 4.81368E-19
 -1      3253 9.53499E-05-2.79434E-05-2.88911E-05 1.48514E-06 3.23539E-19-6.54961E-19
 -1      3254 9.54135E-05-2.78894E-05-2.89340E-05 1.70795E-06-5.24605E-19-1.24648E-18
 -1      3255 9.51032E-05-2.76056E-05-2.89278E-05 1.89319E-06-4.16264E-19-7.70322E-19
 -1      3256 9.53187E-05-2.80700E-05-2.88230E-05 1.10140E-06 6.13711E-19 1.40614E-19
 -1      3257 9.53666E-05-2.80195E-05-2.88590E-05 1.28106E-06 1.02965E-18-2.73881E-19
 -1      3258 9.51393E-05-2.77920E-05-2.88634E-05 1.43088E-06 1.96940E-19-1.22975E-18
 -1      3259 9.52965E-05-2.81804E-05-2.87658E-05 7.97339E-07-4.04154E-19 1.26586E-18
 -1      3260 9.53323E-05-2.81358E-05-2.87952E-05 9.39177E-07-1.05564E-19 5.04392E-19
 -1      3261 9.51705E-05-2.79575E-05-2.88058E-05 1.05867E-06-2.13987E-20 7.93379E-19
 -1      3262 9.52805E-05-2.82731E-05-2.87188E-05 5.61035E-07-1.93599E-19 1.03159E-18
 -1      3263 9.53069E-05-2.82352E-05-2.87423E-05 6.70813E-07-1.13080E-19 1.19784E-18
 -1      3264 9.51953E-05-2.80986E-05-2.87561E-05 7.64694E-07-2.55074E-19 2.00420E-18
 -1      3265 9.52686E-05-2.83486E-05-2.86810E-05 3.80847E-07 6.00605E-20 1.97054E-18
 -1      3266 9.52878E-05-2.83174E-05-2.86995E-05 4.64172E-07-3.78470E-19 8.92114E-19
 -1      3267 9.52139E-05-2.82148E-05-2.87142E-05 5.36780E-07-5.28038E-19 2.41551E-18
 -1      3268 9.52598E-05-2.84086E-05-2.86513E-05 2.46093E-07 5.53639E-19 1.38500E-18
 -1      3269 9.52735E-05-2.83836E-05-2.86655E-05 3.08085E-07 1.13090E-18 1.51468E-18
 -1      3270 9.52270E-05-2.83082E-05-2.86798E-05 3.63320E-07 5.62466E-19 2.36583E-18
 -1      3271 9.52533E-05-2.84554E-05-2.86282E-05 1.47407E-07 3.43854E-19 2.95640E-19
 -1      3272 9.52628E-05-2.84356E-05-2.86390E-05 1.92526E-07 4.59662E-19 6.19530E-19
 -1      3273 9.52356E-05-2.83815E-05-2.86520E-05 2.33814E-07 1.09088E-18 1.19437E-18
 -1      3274 9.52486E-05-2.84913E-05-2.86106E-05 7.68768E-08 7.09053E-19-6.62725E-19
 -1      3275 9.52549E-05-2.84759E-05-2.86186E-05 1.08862E-07 8.60094E-19-2.72969E-19
 -1      3276 9.52407E-05-2.84379E-05-2.86300E-05 1.39127E-07 1.16135E-18 3.51887E-19
 -1      3277 9.52453E-05-2.85186E-05-2.85974E-05 2.80963E-08-8.45709E-19-2.02483E-20
 -1      3278 9.52492E-05-2.85067E-05-2.86032E-05 4.99496E-08 1.68506E-19-2.33373E-19
 -1      3279 9.52434E-05-2.84808E-05-2.86128E-05 7.15998E-08-4.38915E-19 1.21490E-18
 -1      3280 9.52431E-05-2.85396E-05-2.85874E-05-3.97120E-09-1.46547E-18 1.36562E-20
 -1      3281 9.52453E-05-2.85302E-05-2.85917E-05 1.01200E-08-1.36807E-18-2.46668E-20
 -1      3282 9.52446E-05-2.85131E-05-2.85993E-05 2.51395E-08-1.10435E-18 2.44455E-18
 -1      3283 9.52420E-05-2.85560E-05-2.85798E-05-2.31068E-08-1.23702E-18-1.05277E-19
 -1      3284 9.52429E-05-2.85485E-05-2.85830E-05-1.51874E-08-1.29839E-18-4.14068E-19
 -1      3285 9.52447E-05-2.85377E-05-2.85888E-05-5.24991E-09-1.73802E-18 1.22449E-18
 -1      3286 9.52428E-05-2.85654E-05-2.85760E-05-2.95231E-08-2.18528E-18 1.19084E-18
 -1      3287 9.52419E-05-2.85604E-05-2.85777E-05-2.71203E-08-1.78102E-18-4.09137E-21
 -1      3288 9.52448E-05-2.85536E-05-2.85821E-05-2.05981E-08-1.95779E-18 6.34687E-19
 -1      3289 9.52453E-05-2.85643E-05-2.85777E-05-2.71892E-08-1.97985E-18 5.78026E-19
 -1      3290 6.88567E-05-3.06187E-05-1.62150E-05 3.27303E-05-1.54774E-18 2.42156E-18
 -1      3291 5.48357E-05-2.29595E-05-1.30551E-05 2.84411E-05-1.54721E-18 3.03450E-18
 -1      3292 5.50368E-05-2.02112E-05-1.44259E-05 2.31810E-05-1.06493E-18 2.70151E-18
 -1      3293 8.85230E-05-1.46812E-05-3.16582E-05 2.21210E-07 4.56323E-19-1.42383E-18
 -1      3294 8.81104E-05-1.42860E-05-3.16569E-05-5.48007E-08 1.75362E-19-1.48157E-18
 -1      3295 9.65895E-05-2.65507E-05-3.00162E-05-5.11669E-06 7.05930E-19-6.64880E-19
 -1      3296 9.63602E-05-2.60224E-05-3.01308E-05-4.16226E-06 7.46116E-19-6.39215E-19
 -1      3297 9.58424E-05-2.60345E-05-2.99279E-05-5.65882E-06 5.70532E-19-6.22591E-19
 -1      3298 9.52423E-05-2.85378E-05-2.85877E-05 7.70499E-10 5.76155E-19-9.16807E-19
 -1      3299 9.52422E-05-2.85377E-05-2.85877E-05-1.63444E-09 7.17964E-19 3.79049E-19
 -1      3300 9.52475E-05-2.85535E-05-2.85832E-05 1.69501E-08 1.32241E-18 1.33048E-18
 -1      3301 9.52474E-05-2.85509E-05-2.85844E-05 1.31947E-08 1.40446E-18-1.17329E-19
 -1      3302 1.29778E-04-2.70943E-05-4.41878E-05 1.47580E-05-1.53017E-18-1.58146E-18
 -1      3303 9.52459E-05-2.85459E-05-2.85857E-05 1.00742E-08 1.47474E-18-1.70374E-18
 -1      3304 9.52450E-05-2.85437E-05-2.85864E-05 6.94004E-09 1.88045E-18 2.44946E-19
 -1      3305 9.52448E-05-2.85349E-05-2.85898E-05 7.44536E-09 9.57510E-19-7.99503E-19
 -1      3306 9.18332E-05-1.66171E-05-3.22635E-05-4.06527E-06-1.27688E-18-1.24390E-18
 -1      3307 9.29494E-05-1.78951E-05-3.21934E-05-4.50218E-06-1.41311E-18-1.17502E-18
 -1      3308 9.36754E-05-1.93247E-05-3.18429E-05-3.26601E-06-1.33545E-18-1.06965E-18
 -1      3309 9.20957E-05-1.75611E-05-3.19140E-05-2.62960E-06-1.17072E-18-1.22687E-18
 -1      3310 1.07505E-04-5.12291E-05-2.44152E-05 2.65236E-05 1.86787E-18 1.37587E-18
 -1      3311 9.56165E-05-4.47226E-05-2.11087E-05 3.15265E-05 1.96411E-18 1.86983E-19
 -1      3312 1.08866E-04-3.94046E-05-2.98081E-05-4.84396E-06-4.73561E-19 9.13992E-19
 -1      3313 1.07060E-04-3.77577E-05-2.96365E-05-6.36958E-06-5.51283E-19 8.56775E-19
 -1      3314 1.05050E-04-3.73257E-05-2.90991E-05-8.62109E-06-5.42681E-19 2.73314E-19
 -1      3315 1.10100E-04-4.15364E-05-2.94796E-05-6.06632E-06-7.09988E-19 4.57844E-19
 -1      3316 1.26576E-04-5.66591E-05-3.00966E-05 1.16345E-05-1.15146E-18-1.45706E-18
 -1      3317 1.16863E-04-5.40856E-05-2.68412E-05 1.90999E-05-1.46844E-18-8.44654E-19
 -1      3318 1.30837E-04-4.55304E-05-3.64621E-05 7.99691E-06 4.34687E-19 2.10001E-18
 -1      3319 1.26631E-04-3.58789E-05-3.93273E-05 1.24936E-05 1.45822E-18 1.95559E-18
 -1      3320 1.08579E-04-4.24961E-05-2.82871E-05-1.29539E-05 3.17571E-19 8.38683E-19
 -1      3321 1.04825E-04-3.88831E-05-2.81273E-05-1.39687E-05-1.08517E-19 5.14522E-19
 -1      3322 9.92652E-05-3.64080E-05-2.71087E-05-1.63825E-05-3.44205E-19 1.67008E-18
 -1      3323 9.48346E-05-2.34758E-05-3.05755E-05 2.65794E-06-8.48253E-19-6.05016E-19
 -1      3324 9.48915E-05-2.40247E-05-3.03745E-05 3.99086E-06-6.35474E-19-5.86867E-19
 -1      3325 9.38115E-05-2.31719E-05-3.02707E-05 4.37816E-06-5.55226E-19-7.06413E-19
 -1      3326 1.24832E-04-2.89548E-05-4.15749E-05-1.39171E-05 1.68295E-18-3.00985E-18
 -1      3327 1.29966E-04-3.78036E-05-3.95931E-05-1.28023E-05 7.33425E-19-2.54465E-18
 -1      3328 8.33664E-05-3.92312E-05-1.84115E-05-3.45147E-05-2.39361E-18-1.01316E-18
 -1      3329 9.49590E-05-4.64972E-05-2.08489E-05-3.40611E-05-2.05395E-18-1.17367E-19
 -1      3330 7.65390E-05-3.59095E-05-1.75269E-05 3.37178E-05 1.93097E-18-1.42704E-18
 -1      3331 6.11509E-05-2.73747E-05-1.36830E-05 3.13430E-05 1.46955E-18-2.88214E-18
 -1      3332 1.18767E-04-1.17522E-05-4.62284E-05 4.73482E-06 2.90109E-18-3.58692E-19
 -1      3333 1.20203E-04-1.08252E-05-4.74122E-05-2.56528E-06 2.92629E-18-1.67253E-18
 -1      3334 4.27134E-05-1.18256E-05-1.25487E-05-2.49096E-06 8.27809E-20 8.11563E-19
 -1      3335 4.79792E-05-1.46203E-05-1.40438E-05-1.29557E-05 6.17540E-19 7.68682E-19
 -1      3336 9.58643E-05-2.35470E-05-3.09947E-05 7.58461E-07 1.22934E-18-8.42880E-19
 -1      3337 9.47213E-05-2.16928E-05-3.12892E-05 1.32128E-06 1.24947E-18-1.05552E-18
 -1      3338 9.46360E-05-2.21994E-05-3.10276E-05-6.44732E-08 1.15003E-18-1.03275E-18
 -1      3339 9.60379E-05-2.44349E-05-3.06938E-05-8.56451E-07 1.12842E-18-7.70241E-19
 -1      3340 1.27724E-04-5.64613E-05-3.02563E-05-1.06683E-05-1.35110E-18 9.09105E-19
 -1      3341 1.30877E-04-5.33855E-05-3.37235E-05-1.42802E-06-2.28034E-19 1.61008E-18
 -1      3342 1.19324E-04-5.15338E-05-2.90027E-05-1.04755E-05 8.36524E-19 4.64723E-19
 -1      3343 1.13782E-04-4.71505E-05-2.83443E-05-1.27659E-05 7.69377E-19 8.81732E-19
 -1      3344 1.06909E-04-4.47162E-05-2.68170E-05-1.76536E-05 5.00266E-19 9.07146E-19
 -1      3345 1.20182E-04-5.51544E-05-2.80293E-05-1.61167E-05 1.32915E-18-9.05994E-20
 -1      3346 5.85138E-05-2.14781E-05-1.55116E-05-2.37216E-05 1.50846E-18 1.16769E-18
 -1      3347 7.18717E-05-3.08502E-05-1.75528E-05-3.05972E-05 1.58628E-18 1.47966E-19
 -1      3348 1.07791E-04-5.22031E-05-2.34773E-05-2.86993E-05-2.07444E-18 8.82271E-20
 -1      3349 1.19487E-04-5.66986E-05-2.72672E-05-2.07499E-05-2.04622E-18-1.26128E-20
 -1      3350 1.03605E-04-4.80283E-05-2.35955E-05-2.71039E-05-2.04760E-18-6.43712E-20
 -1      3351 9.52436E-05-2.85403E-05-2.85872E-05 4.90442E-09 1.61650E-18 1.77034E-19
 -1      3352 9.52429E-05-2.85391E-05-2.85875E-05 2.31369E-09 1.43314E-18-1.92834E-19
 -1      3353 9.52392E-05-2.85216E-05-2.85930E-05 4.69973E-10 7.10421E-19 5.09010E-19
 -1      3354 9.52415E-05-2.85264E-05-2.85919E-05 3.04631E-09 1.22541E-18 4.16115E-19
 -1      3355 1.31753E-04-5.30834E-05-3.36256E-05-2.61160E-06 4.64766E-19 1.85259E-18
 -1      3356 1.24591E-04-5.30101E-05-3.07916E-05 5.36631E-06 1.17187E-18 1.59318E-18
 -1      3357 1.27776E-04-5.51483E-05-3.13818E-05 5.92227E-06 8.08122E-19 1.91840E-18
 -1      3358 1.19656E-04-5.53697E-05-2.71610E-05 1.88115E-05 1.60979E-18 1.51168E-18
 -1      3359 1.20437E-04-5.08654E-05-2.95570E-05 9.09658E-06 1.13477E-18 1.09286E-18
 -1      3360 8.78589E-05-1.40253E-05-3.16560E-05-9.76538E-08 7.16353E-20-1.46809E-18
 -1      3361 8.78022E-05-1.39745E-05-3.16566E-05-3.36456E-07-1.22734E-19-1.56007E-18
 -1      3362 8.84741E-05-1.52859E-05-3.13418E-05-2.90323E-07 1.45172E-19-1.31491E-18
 -1      3363 7.71513E-05-3.34187E-05-1.84633E-05-3.08982E-05-2.23230E-18-1.09887E-18
 -1      3364 1.15912E-04-1.56377E-05-4.32094E-05 6.92062E-06 2.13971E-18-4.85588E-19
 -1      3365 4.04549E-05-1.33554E-05-1.10039E-05 6.88419E-06 5.01602E-19-4.04183E-18
 -1      3366 4.53297E-05-1.28219E-05-1.36661E-05 8.26009E-07 1.70737E-19-3.73467E-18
 -1      3367 4.62833E-05-1.49886E-05-1.31876E-05 1.30059E-05 8.87293E-19-3.59851E-18
 -1      3368 1.11203E-04-5.16641E-05-2.51629E-05-2.27884E-05 1.36010E-18-2.60516E-19
 -1      3369 1.05079E-04-4.66911E-05-2.48803E-05-2.27799E-05 1.39289E-18-2.65207E-19
 -1      3370 1.11775E-04-5.04494E-05-2.61676E-05 2.04260E-05 1.65484E-18 1.12070E-18
 -1      3371 1.29133E-04-4.27154E-05-3.70546E-05-9.58362E-06 5.12720E-19-2.05109E-18
 -1      3372 9.37913E-05-2.19374E-05-3.07894E-05 1.87090E-06-8.57225E-19-7.42302E-19
 -1      3373 1.16280E-04-1.94750E-05-4.19790E-05-1.11622E-05 2.02822E-18-2.20949E-18
 -1      3374 1.20257E-04-2.26122E-05-4.20886E-05-1.34027E-05 1.96083E-18-2.95990E-18
 -1      3375 9.94962E-05-3.05137E-05-2.95614E-05-8.43747E-06-2.61783E-19-4.73266E-20
 -1      3376 9.86322E-05-2.95768E-05-2.95733E-05-8.30003E-06 5.84379E-20-1.36331E-19
 -1      3377 9.87648E-05-3.07187E-05-2.91983E-05-9.38735E-06-2.72828E-19 3.05971E-19
 -1      3378 4.79801E-05-1.48971E-05-1.38219E-05-1.24199E-05-6.60580E-19-3.47199E-18
 -1      3379 4.95367E-05-1.68041E-05-1.33936E-05-1.89692E-05-1.19453E-18-3.19374E-18
 -1      3380 5.79362E-05-2.10267E-05-1.56052E-05-2.31080E-05-1.62106E-18-2.02743E-18
 -1      3381 1.14064E-04-4.99020E-05-2.77433E-05 1.60808E-05 1.27829E-18 9.15514E-19
 -1      3382 8.55754E-05-3.76424E-05-2.03543E-05 2.96697E-05 1.76125E-18-4.76430E-19
 -1      3383 8.26193E-05-3.40533E-05-2.05430E-05-2.72506E-05 1.43186E-18-4.34898E-20
 -1      3384 1.34777E-04-4.50477E-05-3.83960E-05 1.15685E-05 7.45627E-19-8.71650E-19
 -1      3385 9.52390E-05-2.85214E-05-2.85930E-05-1.41310E-09 4.99607E-20-1.19867E-18
 -1      3386 9.52426E-05-2.85388E-05-2.85875E-05-3.03755E-09 1.22016E-18 1.47020E-19
 -1      3387 9.52432E-05-2.85400E-05-2.85871E-05-5.59816E-09 1.06693E-18-2.83310E-18
 -1      3388 9.52467E-05-2.85502E-05-2.85843E-05-1.35519E-08 3.45959E-19-1.81536E-18
 -1      3389 9.52468E-05-2.85526E-05-2.85832E-05-1.70089E-08-3.39317E-19 1.66493E-18
 -1      3390 9.63158E-05-2.56339E-05-3.02934E-05-3.21935E-06 8.04880E-19-6.60002E-19
 -1      3391 9.61626E-05-2.50040E-05-3.04831E-05-1.96839E-06 9.16857E-19-7.16261E-19
 -1      3392 9.55021E-05-2.40155E-05-3.06511E-05-1.60891E-06 1.00093E-18-8.13865E-19
 -1      3393 9.56286E-05-2.50263E-05-3.02655E-05-3.75521E-06 7.49690E-19-7.53847E-19
 -1      3394 1.27268E-04-5.32819E-05-3.17325E-05 3.70169E-06-5.15764E-19-2.02711E-18
 -1      3395 1.14209E-04-2.87707E-05-3.66413E-05 1.22240E-05 5.30269E-19 1.16051E-18
 -1      3396 1.16280E-04-3.36778E-05-3.56155E-05 1.28053E-05 3.91025E-19 1.78781E-18
 -1      3397 1.12513E-04-1.82348E-05-4.06035E-05-7.29028E-06 1.97809E-18-1.53862E-18
 -1      3398 7.91172E-05-3.47986E-05-1.86539E-05 3.18879E-05-1.73959E-18 1.38373E-18
 -1      3399 7.37579E-05-2.98212E-05-1.87001E-05 2.86540E-05-2.15358E-18 1.70730E-18
 -1      3400 8.73587E-05-3.78829E-05-2.11841E-05 2.89328E-05-2.01970E-18 3.83891E-19
 -1      3401 9.52445E-05-2.85433E-05-2.85864E-05-7.60258E-09 6.32186E-19-4.23646E-18
 -1      3402 9.52453E-05-2.85454E-05-2.85856E-05-1.06203E-08 1.34386E-18-4.13796E-18
 -1      3403 9.52440E-05-2.85344E-05-2.85897E-05-7.98841E-09-1.87394E-20-2.29274E-18
 -1      3404 9.52410E-05-2.85260E-05-2.85919E-05-3.81441E-09 9.59998E-19-3.87200E-18
 -1      3405 4.64447E-05-1.30276E-05-1.39610E-05 4.15660E-06-4.14054E-19 8.52962E-19
 -1      3406 8.91165E-05-1.52948E-05-3.16566E-05 3.23165E-07 6.00706E-19-1.38528E-18
 -1      3407 8.93467E-05-1.61594E-05-3.13426E-05-2.51642E-07 4.94557E-19-1.20806E-18
 -1      3408 8.98402E-05-1.60184E-05-3.16506E-05 6.47578E-07 8.25706E-19-1.37872E-18
 -1      3409 1.10795E-04-5.15604E-05-2.52527E-05 2.32907E-05-1.92838E-18-9.59384E-19
 -1      3410 1.02124E-04-4.61939E-05-2.38631E-05 2.53095E-05-1.86284E-18-7.65552E-19
 -1      3411 1.16399E-04-5.17782E-05-2.75703E-05 1.53121E-05-1.67866E-18-1.06234E-18
 -1      3412 5.64340E-05-1.76783E-05-1.62435E-05-1.77525E-05 8.52420E-19 7.41101E-19
 -1      3413 6.58471E-05-2.11075E-05-1.89837E-05-1.93716E-05 5.80735E-19 3.43154E-19
 -1      3414 5.63972E-05-1.50617E-05-1.76281E-05-1.06170E-05-1.54848E-21 3.30978E-19
 -1      3415 1.16965E-04-1.40717E-05-4.44417E-05-5.34504E-06 2.30880E-18-2.15726E-18
 -1      3416 9.74636E-05-2.81346E-05-2.96965E-05-7.38220E-06 3.07193E-19-4.16118E-19
 -1      3417 9.63323E-05-2.72121E-05-2.96387E-05-7.31065E-06 2.54490E-19-4.75692E-19
 -1      3418 9.80477E-05-2.88193E-05-2.96650E-05-7.82179E-06 1.62037E-19-2.71997E-19
 -1      3419 5.70562E-05-2.27052E-05-1.42687E-05 2.58303E-05 1.22216E-18-2.94153E-18
 -1      3420 1.27756E-04-4.81252E-05-3.41341E-05 4.19710E-06-1.07524E-19 1.94151E-18
 -1      3421 1.22212E-04-3.63827E-05-3.68163E-05 1.23139E-05 8.04642E-19 2.37982E-18
 -1      3422 1.23751E-04-3.16380E-05-3.97803E-05 1.38333E-05 1.79290E-18 2.00069E-18
 -1      3423 1.18226E-04-2.68580E-05-3.92661E-05 1.32634E-05 1.47050E-18 1.49708E-18
 -1      3424 9.16892E-05-1.79899E-05-3.16015E-05 1.15961E-06 1.13757E-18-1.16860E-18
 -1      3425 9.07162E-05-1.69465E-05-3.16328E-05 8.12372E-07 9.56077E-19-1.25871E-18
 -1      3426 9.08393E-05-1.76947E-05-3.13252E-05-9.05845E-08 9.18983E-19-1.20363E-18
 -1      3427 9.27717E-05-1.97964E-05-3.12531E-05 1.43391E-07 1.03864E-18-1.07448E-18
 -1      3428 9.52470E-05-2.85545E-05-2.85826E-05 1.98777E-08 3.21411E-19-6.66346E-19
 -1      3429 9.52477E-05-2.85549E-05-2.85827E-05 1.84302E-08 1.16884E-18 2.97634E-19
 -1      3430 9.52466E-05-2.85412E-05-2.85878E-05 1.14490E-08 5.94869E-20 9.61536E-19
 -1      3431 9.52470E-05-2.85446E-05-2.85865E-05 1.35812E-08 2.17923E-19 3.13390E-19
 -1      3432 9.41262E-05-2.05477E-05-3.15493E-05-2.01061E-06-1.24246E-18-9.93015E-19
 -1      3433 9.32940E-05-1.98662E-05-3.14752E-05-1.20438E-06-1.09183E-18-9.49416E-19
 -1      3434 8.87424E-05-1.49009E-05-3.16636E-05-5.97020E-07-4.77275E-19-1.58759E-18
 -1      3435 8.94065E-05-1.55650E-05-3.16621E-05-8.52195E-07-6.23959E-19-1.56983E-18
 -1      3436 9.02510E-05-1.64385E-05-3.16513E-05-8.97961E-07-6.93354E-19-1.41076E-18
 -1      3437 9.12278E-05-1.74766E-05-3.16262E-05-1.18221E-06-8.84214E-19-1.31715E-18
 -1      3438 9.03058E-05-1.71278E-05-3.13401E-05-8.92980E-08-6.69217E-19-1.41760E-18
 -1      3439 1.21825E-04-5.45069E-05-2.87476E-05-1.35249E-05-1.94397E-18 6.12378E-19
 -1      3440 1.20684E-04-3.78468E-05-3.55555E-05 1.17613E-05 6.82722E-19 2.50309E-18
 -1      3441 7.12863E-05-2.74188E-05-1.84713E-05-2.71535E-05-1.87507E-18-1.30440E-18
 -1      3442 8.46617E-05-3.56862E-05-2.09399E-05-2.87167E-05-2.18300E-18-7.02323E-19
 -1      3443 1.13881E-04-1.53027E-05-4.24597E-05-6.10831E-06 2.09471E-18-1.71406E-18
 -1      3444 9.17390E-05-2.33236E-05-2.93301E-05 7.62565E-06-4.58331E-19-7.45466E-19
 -1      3445 9.15655E-05-2.36429E-05-2.91007E-05 8.60729E-06-2.83019E-19-6.76406E-19
 -1      3446 9.09921E-05-2.38846E-05-2.87734E-05 9.62642E-06-6.00213E-20-6.22415E-19
 -1      3447 9.09674E-05-2.43875E-05-2.85135E-05 1.06069E-05 1.67203E-19-6.88386E-19
 -1      3448 8.95955E-05-2.26443E-05-2.86821E-05 8.56818E-06-1.68251E-19-5.96050E-19
 -1      3449 9.04396E-05-2.48628E-05-2.81190E-05 1.17778E-05 3.25600E-19-7.38457E-19
 -1      3450 9.07849E-05-2.57981E-05-2.78119E-05 1.28192E-05 5.29698E-19-8.65783E-19
 -1      3451 8.84569E-05-2.33010E-05-2.79177E-05 1.07262E-05 1.99644E-19-5.19114E-19
 -1      3452 9.05193E-05-2.67796E-05-2.73259E-05 1.42798E-05 6.69430E-19-1.00182E-18
 -1      3453 9.15779E-05-2.84784E-05-2.69770E-05 1.54115E-05 6.69457E-19-7.44429E-19
 -1      3454 8.75657E-05-2.46290E-05-2.69782E-05 1.33729E-05 5.11534E-19-1.02326E-18
 -1      3455 9.20112E-05-3.03736E-05-2.63974E-05 1.72491E-05 7.99553E-19-5.83615E-19
 -1      3456 9.44081E-05-3.32493E-05-2.60974E-05 1.83276E-05 1.00319E-18-3.63233E-19
 -1      3457 8.75504E-05-2.73166E-05-2.58211E-05 1.69086E-05 8.25485E-19-1.11462E-18
 -1      3458 1.16825E-04-5.19237E-05-2.75384E-05-1.58353E-05-2.19660E-18 3.98678E-19
 -1      3459 1.22328E-04-5.26530E-05-3.00596E-05-7.62141E-06-1.62872E-18 8.48631E-19
 -1      3460 8.82388E-05-1.43970E-05-3.16618E-05-5.80947E-07-4.02711E-19-1.55224E-18
 -1      3461 8.89586E-05-1.57580E-05-3.13467E-05-1.49932E-07-3.55009E-19-1.47315E-18
 -1      3462 8.79284E-05-1.40948E-05-3.16585E-05-3.49227E-07-2.01838E-19-1.58618E-18
 -1      3463 9.01491E-05-2.62655E-05-2.73336E-05-1.27929E-05-1.13213E-19 1.04171E-18
 -1      3464 8.95681E-05-2.51869E-05-2.76089E-05-1.17567E-05-2.20911E-20 1.04204E-18
 -1      3465 8.99939E-05-2.46835E-05-2.79617E-05-1.05589E-05 5.02825E-19 7.82733E-19
 -1      3466 8.98854E-05-2.42153E-05-2.81630E-05-9.66986E-06 1.18663E-18 1.17927E-18
 -1      3467 8.70743E-05-2.34930E-05-2.72436E-05-1.08549E-05-4.11955E-20 1.82546E-18
 -1      3468 9.04552E-05-2.41265E-05-2.84102E-05-8.74202E-06 1.44676E-18 7.86741E-19
 -1      3469 9.05793E-05-2.40238E-05-2.85412E-05-7.97570E-06 1.48973E-18 1.18980E-18
 -1      3470 8.81266E-05-2.30322E-05-2.78858E-05-8.76742E-06 1.62262E-18 1.28539E-18
 -1      3471 9.11641E-05-2.41663E-05-2.87036E-05-7.23082E-06 1.38174E-18 1.41050E-18
 -1      3472 9.13788E-05-2.42661E-05-2.87779E-05-6.56320E-06 1.44984E-18 1.65960E-18
 -1      3473 8.93003E-05-2.31759E-05-2.83255E-05-7.15586E-06 1.50088E-18 1.64140E-19
 -1      3474 9.19183E-05-2.45248E-05-2.88765E-05-5.94585E-06 1.02073E-18 1.70823E-18
 -1      3475 9.21494E-05-2.47253E-05-2.89092E-05-5.36277E-06 5.65243E-19 2.16695E-18
 -1      3476 9.04270E-05-2.36427E-05-2.86091E-05-5.85475E-06 1.28914E-18 1.13311E-18
 -1      3477 9.26185E-05-2.50290E-05-2.89622E-05-4.84258E-06 3.15505E-20 1.81255E-18
 -1      3478 9.28307E-05-2.52678E-05-2.89666E-05-4.33652E-06-4.14140E-19 1.63876E-18
 -1      3479 9.14310E-05-2.42570E-05-2.87779E-05-4.77023E-06 3.20738E-19 1.13153E-18
 -1      3480 9.32230E-05-2.55737E-05-2.89886E-05-3.89653E-06-1.10448E-18 1.48224E-18
 -1      3481 9.34027E-05-2.58149E-05-2.89755E-05-3.46256E-06-9.73210E-19 1.76592E-18
 -1      3482 9.22855E-05-2.49109E-05-2.88658E-05-3.85282E-06-8.29463E-19 1.72052E-18
 -1      3483 9.37214E-05-2.60997E-05-2.89773E-05-3.09227E-06-1.00943E-18 4.43542E-19
 -1      3484 9.38663E-05-2.63239E-05-2.89544E-05-2.72567E-06-9.39058E-19 9.99537E-20
 -1      3485 9.29896E-05-2.55412E-05-2.88993E-05-3.07535E-06-1.78205E-18 5.97057E-19
 -1      3486 9.41196E-05-2.65762E-05-2.89441E-05-2.41730E-06-3.90671E-19-2.10908E-20
 -1      3487 9.42325E-05-2.67744E-05-2.89168E-05-2.11266E-06-2.39678E-19-2.11335E-19
 -1      3488 9.35557E-05-2.61142E-05-2.88980E-05-2.42094E-06-8.97675E-19-1.17433E-18
 -1      3489 9.44300E-05-2.69903E-05-2.88999E-05-1.85932E-06-4.77497E-19 6.39323E-19
 -1      3490 9.45156E-05-2.71596E-05-2.88719E-05-1.61036E-06-1.13670E-18 5.57473E-19
 -1      3491 9.40018E-05-2.66148E-05-2.88760E-05-1.87661E-06 1.28893E-19-1.16064E-18
 -1      3492 9.46670E-05-2.73396E-05-2.88521E-05-1.40534E-06-1.41072E-18 1.06224E-18
 -1      3493 9.47306E-05-2.74805E-05-2.88254E-05-1.20525E-06-1.15434E-18 1.49754E-18
 -1      3494 9.43470E-05-2.70395E-05-2.88430E-05-1.43036E-06-8.98543E-19 2.26717E-20
 -1      3495 9.48446E-05-2.76273E-05-2.88053E-05-1.04193E-06-1.66796E-18 1.28911E-18
 -1      3496 9.48909E-05-2.77420E-05-2.87812E-05-8.83731E-07-1.53949E-18 1.37750E-18
 -1      3497 9.46097E-05-2.73914E-05-2.88056E-05-1.07019E-06-1.26102E-18 1.83416E-18
 -1      3498 9.49753E-05-2.78596E-05-2.87621E-05-7.55708E-07-1.55839E-18 1.86947E-18
 -1      3499 9.50082E-05-2.79513E-05-2.87410E-05-6.32670E-07-8.90718E-19 2.23269E-18
 -1      3500 9.48063E-05-2.76771E-05-2.87681E-05-7.84157E-07-1.03541E-18 1.83875E-18
 -1      3501 9.50694E-05-2.80438E-05-2.87238E-05-5.33952E-07-1.81645E-19 2.89400E-18
 -1      3502 9.50923E-05-2.81158E-05-2.87060E-05-4.39839E-07 1.84974E-19 2.96915E-18
 -1      3503 9.49507E-05-2.79049E-05-2.87328E-05-5.60695E-07-3.20715E-19 2.80039E-18
 -1      3504 9.51357E-05-2.81874E-05-2.86910E-05-3.65009E-07 5.02858E-19 2.23954E-18
 -1      3505 9.51510E-05-2.82431E-05-2.86762E-05-2.94263E-07 9.91559E-19 2.17142E-18
 -1      3506 9.50545E-05-2.80835E-05-2.87011E-05-3.89028E-07 2.71074E-19 2.03221E-18
 -1      3507 9.51810E-05-2.82976E-05-2.86634E-05-2.38561E-07 7.02168E-19 1.67569E-18
 -1      3508 9.51909E-05-2.83401E-05-2.86513E-05-1.86379E-07 4.18187E-19 1.81981E-18
 -1      3509 9.51273E-05-2.82213E-05-2.86735E-05-2.59446E-07 3.16819E-19 9.88258E-19
 -1      3510 9.52107E-05-2.83809E-05-2.86406E-05-1.45750E-07 2.81795E-19 1.34365E-18
 -1      3511 9.52167E-05-2.84129E-05-2.86309E-05-1.08107E-07 3.31992E-19 1.41051E-18
 -1      3512 9.51768E-05-2.83259E-05-2.86501E-05-1.63466E-07 2.02507E-19-8.59529E-19
 -1      3513 9.52292E-05-2.84432E-05-2.86221E-05-7.91773E-08-3.70443E-19 1.26744E-18
 -1      3514 9.52326E-05-2.84670E-05-2.86143E-05-5.27963E-08-1.86323E-19-2.71582E-19
 -1      3515 9.52091E-05-2.84043E-05-2.86304E-05-9.38905E-08-2.93707E-19 1.31895E-18
 -1      3516 9.52400E-05-2.84895E-05-2.86070E-05-3.29047E-08 2.55715E-19-1.08290E-18
 -1      3517 9.52417E-05-2.85071E-05-2.86008E-05-1.54947E-08 2.51515E-19-8.21705E-19
 -1      3518 9.52290E-05-2.84625E-05-2.86141E-05-4.48712E-08-7.33909E-19 1.08835E-18
 -1      3519 1.00478E-04-3.37877E-05-2.85617E-05-1.08084E-05-3.23942E-19 1.38836E-20
 -1      3520 9.88594E-05-3.19818E-05-2.86229E-05-1.08011E-05-1.34633E-19-5.69729E-20
 -1      3521 1.06076E-04-4.57744E-05-2.53730E-05 2.23468E-05 1.42266E-18 8.71842E-19
 -1      3522 9.21012E-05-3.91156E-05-2.29669E-05 2.65598E-05 1.63874E-18 2.49928E-19
 -1      3523 7.83795E-05-3.04831E-05-1.99644E-05 2.73124E-05 1.83126E-18-1.17573E-18
 -1      3524 1.18676E-04-4.83583E-05-3.01797E-05-4.12785E-06-1.09466E-18 7.70879E-19
 -1      3525 1.15776E-04-4.69453E-05-2.93860E-05-6.88816E-06-1.26261E-18 4.23540E-19
 -1      3526 1.13239E-04-1.72121E-05-4.13828E-05 5.34357E-06 1.53461E-18-4.59390E-19
 -1      3527 1.12860E-04-4.45079E-05-2.91639E-05 6.69605E-06-7.36934E-19-4.10966E-19
 -1      3528 1.16082E-04-4.63966E-05-2.98315E-05 3.99518E-06-4.39709E-19-8.94665E-19
 -1      3529 1.06022E-04-3.92435E-05-2.85248E-05 9.36678E-06-6.00804E-19 2.22421E-19
 -1      3530 1.08824E-04-4.17221E-05-2.87656E-05 8.12313E-06-7.49776E-19-2.00720E-19
 -1      3531 1.09149E-04-4.36689E-05-2.81593E-05 1.08773E-05-6.64880E-19-1.36187E-19
 -1      3532 1.01021E-04-3.45673E-05-2.84219E-05 1.00598E-05-6.65311E-19 1.40843E-19
 -1      3533 1.03180E-04-3.67380E-05-2.84660E-05 9.65662E-06-4.20658E-19 4.60366E-19
 -1      3534 1.02460E-04-3.78199E-05-2.77893E-05 1.19590E-05-7.10618E-19-8.80352E-20
 -1      3535 9.77538E-05-3.10830E-05-2.85425E-05 9.65416E-06-4.13123E-20-7.69434E-19
 -1      3536 9.92416E-05-3.26838E-05-2.85061E-05 9.72944E-06-2.49370E-19-2.05598E-19
 -1      3537 9.79410E-05-3.30381E-05-2.78791E-05 1.14342E-05-2.08179E-19-8.50828E-19
 -1      3538 9.58168E-05-2.87776E-05-2.87176E-05 8.75271E-06-6.77771E-19-9.02734E-19
 -1      3539 9.67577E-05-2.98322E-05-2.86641E-05 9.08011E-06-4.92383E-19-8.35591E-19
 -1      3540 9.52710E-05-2.97114E-05-2.81352E-05 1.02532E-05-4.20349E-19-1.29650E-18
 -1      3541 9.47811E-05-2.74075E-05-2.88710E-05 7.66694E-06-1.64490E-18 5.15526E-19
 -1      3542 9.53355E-05-2.80331E-05-2.88289E-05 8.11403E-06-1.00501E-18 8.99496E-20
 -1      3543 9.38695E-05-2.76371E-05-2.84063E-05 8.89378E-06-1.51541E-18 6.34749E-19
 -1      3544 9.43144E-05-2.67091E-05-2.89757E-05 6.55189E-06-1.65490E-18 1.70992E-18
 -1      3545 9.46169E-05-2.70293E-05-2.89543E-05 7.04084E-06-1.77882E-18 1.04799E-18
 -1      3546 9.32714E-05-2.64912E-05-2.86301E-05 7.55697E-06-1.61620E-18 8.73338E-19
 -1      3547 9.41812E-05-2.64556E-05-2.90299E-05 5.48758E-06 3.37134E-19 1.49270E-18
 -1      3548 9.43301E-05-2.65750E-05-2.90285E-05 5.97264E-06-8.47260E-19 1.42393E-18
 -1      3549 9.31503E-05-2.59846E-05-2.87887E-05 6.32211E-06-1.14230E-18 3.23750E-19
 -1      3550 9.42263E-05-2.64746E-05-2.90421E-05 4.51305E-06 1.40004E-18 1.54725E-18
 -1      3551 9.42872E-05-2.64713E-05-2.90564E-05 4.96814E-06 1.54827E-18 1.72286E-18
 -1      3552 9.32862E-05-2.58869E-05-2.88854E-05 5.21617E-06 5.38237E-19 8.48757E-19
 -1      3553 9.43555E-05-2.66464E-05-2.90240E-05 3.64699E-06 4.31225E-19 8.07927E-19
 -1      3554 9.43692E-05-2.65745E-05-2.90486E-05 4.05733E-06 6.67218E-19 1.36949E-18
 -1      3555 9.35417E-05-2.60304E-05-2.89318E-05 4.24333E-06 1.21976E-18 1.59452E-18
 -1      3556 9.45132E-05-2.68913E-05-2.89863E-05 2.89658E-06 9.24862E-19 1.16387E-18
 -1      3557 9.45042E-05-2.67864E-05-2.90165E-05 3.25511E-06 7.43723E-19 1.60344E-18
 -1      3558 9.38358E-05-2.63017E-05-2.89411E-05 3.40160E-06 7.81034E-19 1.52103E-18
 -1      3559 9.46691E-05-2.71584E-05-2.89380E-05 2.26083E-06-8.57372E-20 8.85834E-19
 -1      3560 9.46511E-05-2.70433E-05-2.89702E-05 2.56594E-06 6.66791E-19 1.59881E-18
 -1      3561 9.41229E-05-2.66258E-05-2.89252E-05 2.68543E-06 1.07085E-18 1.38401E-18
 -1      3562 9.48082E-05-2.74176E-05-2.88858E-05 1.73318E-06-1.84838E-19-1.66760E-19
 -1      3563 9.47885E-05-2.73056E-05-2.89173E-05 1.98688E-06-3.75980E-19-4.79972E-19
 -1      3564 9.43798E-05-2.69561E-05-2.88940E-05 2.08628E-06 3.53794E-19 7.53859E-19
 -1      3565 9.49246E-05-2.76524E-05-2.88344E-05 1.30356E-06 7.92967E-20-3.97801E-19
 -1      3566 9.49068E-05-2.75508E-05-2.88635E-05 1.51016E-06-2.61780E-20-2.73124E-19
 -1      3567 9.45971E-05-2.72652E-05-2.88550E-05 1.59338E-06-4.10251E-19 1.27358E-19
 -1      3568 9.50177E-05-2.78556E-05-2.87865E-05 9.60089E-07-6.66243E-19 1.79912E-18
 -1      3569 9.50032E-05-2.77676E-05-2.88125E-05 1.12510E-06-4.63322E-19 9.89655E-19
 -1      3570 9.47735E-05-2.75392E-05-2.88135E-05 1.19461E-06-8.98532E-19 1.73475E-18
 -1      3571 9.50895E-05-2.80255E-05-2.87439E-05 6.90303E-07-6.40249E-19 1.81532E-18
 -1      3572 9.50783E-05-2.79519E-05-2.87662E-05 8.19675E-07-4.78739E-19 1.51352E-18
 -1      3573 9.49121E-05-2.77729E-05-2.87730E-05 8.77297E-07-6.67071E-19 2.51234E-18
 -1      3574 9.51429E-05-2.81636E-05-2.87071E-05 4.82077E-07-5.16726E-19 2.42823E-18
 -1      3575 9.51348E-05-2.81037E-05-2.87258E-05 5.81680E-07-7.11577E-19 2.26044E-18
 -1      3576 9.50176E-05-2.79662E-05-2.87357E-05 6.28943E-07-8.94570E-19 2.02225E-18
 -1      3577 9.51812E-05-2.82732E-05-2.86761E-05 3.24219E-07 6.81092E-19 2.23398E-18
 -1      3578 9.51758E-05-2.82256E-05-2.86915E-05 3.99494E-07 4.93839E-19 1.73358E-18
 -1      3579 9.50957E-05-2.81221E-05-2.87026E-05 4.37802E-07 4.11247E-19 1.10533E-18
 -1      3580 9.52077E-05-2.83584E-05-2.86506E-05 2.06798E-07 1.23045E-18 1.87691E-18
 -1      3581 9.52043E-05-2.83214E-05-2.86630E-05 2.62577E-07 1.00847E-18 2.23666E-18
 -1      3582 9.51516E-05-2.82449E-05-2.86740E-05 2.93251E-07 9.23544E-19 1.21393E-18
 -1      3583 9.52250E-05-2.84234E-05-2.86299E-05 1.21270E-07 3.49667E-19 1.45583E-18
 -1      3584 9.52232E-05-2.83951E-05-2.86397E-05 1.61700E-07 1.32718E-18 1.29229E-18
 -1      3585 9.51902E-05-2.83398E-05-2.86500E-05 1.85979E-07 1.50312E-18 1.91129E-18
 -1      3586 9.52357E-05-2.84724E-05-2.86133E-05 6.05622E-08-1.18828E-18 1.83952E-18
 -1      3587 9.52349E-05-2.84509E-05-2.86210E-05 8.90289E-08-3.22456E-19 1.72556E-18
 -1      3588 9.52156E-05-2.84119E-05-2.86301E-05 1.07993E-07-5.02518E-19 2.05036E-18
 -1      3589 9.52419E-05-2.85093E-05-2.86000E-05 1.92595E-08-1.56827E-18 2.42595E-18
 -1      3590 9.52417E-05-2.84931E-05-2.86061E-05 3.81872E-08-1.40670E-18 1.70383E-18
 -1      3591 9.52315E-05-2.84660E-05-2.86138E-05 5.26921E-08-1.12877E-18 1.17182E-18
 -1      3592 9.52448E-05-2.85367E-05-2.85893E-05-7.75903E-09-1.50524E-18 1.93182E-18
 -1      3593 9.52447E-05-2.85243E-05-2.85941E-05 4.38943E-09-1.50190E-18 2.72412E-18
 -1      3594 9.52405E-05-2.85059E-05-2.86004E-05 1.55362E-08-1.44078E-18 2.71524E-18
 -1      3595 9.49927E-05-2.54636E-05-2.97965E-05-6.06223E-06 3.99343E-19-5.92730E-19
 -1      3596 9.48097E-05-2.48605E-05-2.99715E-05-5.12052E-06 5.81597E-19-6.43124E-19
 -1      3597 1.26509E-04-4.74535E-05-3.39586E-05-6.25433E-06 3.21495E-19-2.00977E-18
 -1      3598 1.22909E-04-4.94309E-05-3.15472E-05 3.11763E-07-9.44342E-20-1.91964E-18
 -1      3599 9.52473E-05-2.85580E-05-2.85812E-05-2.04095E-08-2.53083E-19 1.11144E-18
 -1      3600 9.52463E-05-2.85602E-05-2.85797E-05-2.35448E-08-9.29068E-19 4.82397E-19
 -1      3601 9.52461E-05-2.85548E-05-2.85820E-05-2.09884E-08-1.81327E-18 9.58537E-19
 -1      3602 9.52459E-05-2.85448E-05-2.85862E-05-1.41315E-08-9.09597E-19 1.60677E-18
 -1      3603 9.25041E-05-1.90441E-05-3.14954E-05-9.52974E-07-9.77072E-19-1.07205E-18
 -1      3604 9.24079E-05-1.95540E-05-3.12086E-05 1.98400E-07-8.13798E-19-1.02158E-18
 -1      3605 1.32814E-04-3.73610E-05-4.14154E-05 1.57866E-05-3.19755E-19-1.16795E-18
 -1      3606 7.77515E-05-2.85508E-05-2.09044E-05-2.41450E-05 7.95470E-19 1.50798E-19
 -1      3607 9.01237E-05-3.67824E-05-2.29530E-05-2.48841E-05 9.12850E-19-5.78021E-19
 -1      3608 1.20258E-04-4.95398E-05-3.02626E-05 3.87308E-06-3.40388E-19-1.75156E-18
 -1      3609 9.52425E-05-2.85226E-05-2.85942E-05 1.72529E-09 1.45140E-18-3.88000E-19
 -1      3610 9.52405E-05-2.85177E-05-2.85957E-05-7.80557E-10 9.97219E-19-1.51675E-18
 -1      3611 1.23255E-04-4.21248E-05-3.51102E-05 1.02228E-05 3.44531E-19 2.44659E-18
 -1      3612 5.00413E-05-1.40563E-05-1.50578E-05 1.22915E-05-5.50188E-19 1.25641E-18
 -1      3613 5.17630E-05-1.31404E-05-1.64161E-05 1.94495E-06-2.72202E-19 7.59418E-19
 -1      3614 9.46949E-05-3.59391E-05-2.50838E-05-2.01989E-05 2.66246E-19 5.65434E-19
 -1      3615 9.17128E-05-3.22469E-05-2.53994E-05-1.87477E-05-4.57570E-19 7.12381E-19
 -1      3616 1.19764E-04-2.76161E-05-3.96964E-05-1.34404E-05 1.65394E-18-2.84349E-18
 -1      3617 9.17395E-05-2.95604E-05-2.65746E-05-1.54840E-05-1.15928E-18 1.35349E-18
 -1      3618 9.01181E-05-2.74223E-05-2.68609E-05-1.43650E-05-5.20343E-19 1.17182E-18
 -1      3619 8.65277E-05-2.50469E-05-2.63573E-05-1.36672E-05-4.17835E-19 1.32994E-18
 -1      3620 6.48671E-05-2.39548E-05-1.76249E-05 2.46724E-05 1.63427E-18-2.11917E-18
 -1      3621 5.47462E-05-1.84584E-05-1.49665E-05 1.98156E-05 1.33770E-18-2.97764E-18
 -1      3622 5.55312E-05-1.63916E-05-1.65230E-05 1.36529E-05 1.24964E-18-2.93095E-18
 -1      3623 9.28156E-05-2.19648E-05-3.03709E-05 3.42884E-06-6.49507E-19-7.26417E-19
 -1      3624 9.27327E-05-2.24494E-05-3.01250E-05 4.59975E-06-5.01075E-19-7.75547E-19
 -1      3625 1.25002E-04-4.80403E-05-3.29556E-05 3.18479E-06-1.34440E-19 1.84931E-18
 -1      3626 9.24138E-05-2.27927E-05-2.98437E-05 5.60401E-06-4.26584E-19-7.93584E-19
 -1      3627 9.22304E-05-2.31156E-05-2.96198E-05 6.65016E-06-4.77437E-19-8.12184E-19
 -1      3628 9.06713E-05-2.22004E-05-2.93318E-05 6.61737E-06-3.77591E-19-6.78237E-19
 -1      3629 9.26734E-05-2.05456E-05-3.09209E-05 1.18102E-06-8.05586E-19-8.79225E-19
 -1      3630 9.27819E-05-2.13216E-05-3.06282E-05 2.48739E-06-7.07632E-19-7.86208E-19
 -1      3631 9.17493E-05-2.06015E-05-3.04832E-05 2.74545E-06-6.10582E-19-6.94402E-19
 -1      3632 9.14393E-05-1.90137E-05-3.10371E-05 8.49562E-07-6.36544E-19-9.52099E-19
 -1      3633 6.56106E-05-2.34659E-05-1.79081E-05 2.48450E-05-1.65317E-18 2.26994E-18
 -1      3634 5.59521E-05-1.75869E-05-1.61570E-05 1.86830E-05-6.96182E-19 1.66797E-18
 -1      3635 6.07816E-05-1.76099E-05-1.83302E-05 1.50454E-05-6.59164E-19 1.50031E-18
 -1      3636 9.99655E-05-4.09132E-05-2.50362E-05-2.14926E-05 9.28901E-19 3.83693E-19
 -1      3637 9.79154E-05-4.31143E-05-2.33102E-05-2.63996E-05-2.12015E-18 2.75550E-20
 -1      3638 1.08094E-04-4.91487E-05-2.54895E-05-2.24922E-05-2.03322E-18 2.94185E-19
 -1      3639 9.74030E-05-3.96179E-05-2.46731E-05 2.24157E-05 1.32124E-18 1.48340E-19
 -1      3640 1.22141E-04-3.46668E-05-3.79213E-05-1.42901E-05 8.26545E-19-2.26681E-18
 -1      3641 1.23197E-04-4.98604E-05-3.14201E-05-7.50945E-07-7.25854E-19 1.46443E-18
 -1      3642 9.14858E-05-2.16269E-05-2.99278E-05 4.67635E-06-5.48787E-19-6.31147E-19
 -1      3643 1.12543E-04-1.38897E-05-4.27756E-05-5.51434E-07 1.98269E-18-1.32090E-18
 -1      3644 9.77688E-05-3.05276E-05-2.87994E-05-1.02225E-05-2.70108E-19 7.10037E-20
 -1      3645 9.67544E-05-2.92539E-05-2.89081E-05-9.86826E-06-4.23481E-19 1.03810E-19
 -1      3646 9.64919E-05-3.05700E-05-2.82987E-05-1.14358E-05-2.11769E-19-4.29758E-19
 -1      3647 9.72172E-05-2.86749E-05-2.93988E-05-8.57619E-06-7.20383E-20-1.10227E-19
 -1      3648 4.80248E-05-1.30507E-05-1.44121E-05-6.28286E-06-1.84441E-19-3.61312E-18
 -1      3649 5.30368E-05-1.55034E-05-1.58671E-05-1.26512E-05-7.41716E-19-2.92248E-18
 -1      3650 5.01191E-05-1.33945E-05-1.55816E-05-5.47732E-07 1.97845E-19-3.30311E-18
 -1      3651 1.11597E-04-4.83892E-05-2.69903E-05-1.66200E-05-1.77704E-18 2.32390E-19
 -1      3652 9.35074E-05-3.51475E-05-2.48994E-05 2.13726E-05 1.29085E-18-1.17089E-19
 -1      3653 8.87936E-05-1.64212E-05-3.10310E-05 2.31411E-07-2.51056E-19-1.33409E-18
 -1      3654 8.92964E-05-1.69156E-05-3.10339E-05 3.31140E-07-3.79158E-19-1.47459E-18
 -1      3655 8.83348E-05-1.51425E-05-3.13424E-05-2.35522E-07-1.94002E-19-1.41446E-18
 -1      3656 9.48507E-05-2.44305E-05-3.01813E-05-4.22617E-06 6.58354E-19-8.42412E-19
 -1      3657 9.48162E-05-2.39668E-05-3.03649E-05-3.23882E-06 7.07857E-19-8.66757E-19
 -1      3658 9.39405E-05-2.38168E-05-3.00522E-05-4.66481E-06 4.74344E-19-8.22005E-19
 -1      3659 9.52320E-05-2.85017E-05-2.85989E-05 3.56932E-10 7.74130E-20-1.36990E-18
 -1      3660 9.52328E-05-2.85030E-05-2.85986E-05 2.98432E-10 3.35209E-19-1.73136E-18
 -1      3661 1.02407E-04-3.58380E-05-2.84595E-05-1.10531E-05-4.40686E-19 5.90549E-20
 -1      3662 9.93504E-05-3.43308E-05-2.79579E-05-1.25608E-05-9.47684E-20-3.58960E-19
 -1      3663 1.04785E-04-3.81489E-05-2.85215E-05-1.04996E-05-4.74699E-19 3.14329E-22
 -1      3664 9.52450E-05-2.85214E-05-2.85956E-05-4.67887E-09 1.19813E-18-9.50785E-19
 -1      3665 9.52457E-05-2.85338E-05-2.85909E-05 5.75446E-09 1.43471E-18 4.02633E-19
 -1      3666 9.52454E-05-2.85316E-05-2.85917E-05 4.68448E-09 1.06434E-18 3.37511E-19
 -1      3667 9.52400E-05-2.85031E-05-2.86015E-05-1.46728E-08 1.34069E-18 3.91823E-19
 -1      3668 1.12184E-04-4.67351E-05-2.82011E-05-1.21176E-05-1.19124E-18 9.10560E-21
 -1      3669 1.10638E-04-4.34919E-05-2.88026E-05-8.76460E-06-7.80779E-19 6.46309E-20
 -1      3670 1.07762E-04-4.09703E-05-2.85178E-05-1.02120E-05-6.77808E-19-5.48876E-20
 -1      3671 1.06314E-04-4.37615E-05-2.65348E-05-1.75547E-05-1.23308E-18 8.58746E-20
 -1      3672 6.24190E-05-2.04126E-05-1.78567E-05-2.00806E-05-1.11888E-18-1.81413E-18
 -1      3673 6.67147E-05-2.39514E-05-1.80965E-05-2.47992E-05-1.38114E-18-1.28299E-18
 -1      3674 7.48570E-05-2.67589E-05-2.04606E-05-2.33693E-05-1.26550E-18-8.21940E-19
 -1      3675 8.53589E-05-3.25969E-05-2.25652E-05-2.41448E-05-1.60327E-18-6.29054E-19
 -1      3676 9.21109E-05-3.86151E-05-2.27881E-05-2.65381E-05-1.94080E-18-2.74028E-19
 -1      3677 9.74491E-05-4.00792E-05-2.46403E-05-2.22551E-05-1.69764E-18-2.45243E-20
 -1      3678 8.68660E-05-3.08601E-05-2.39285E-05 2.17785E-05 1.45329E-18-7.46256E-19
 -1      3679 9.72407E-05-4.25613E-05-2.31395E-05 2.61197E-05-1.57482E-18-1.05098E-18
 -1      3680 9.12852E-05-3.83298E-05-2.26963E-05 2.56909E-05-1.98762E-18-3.14554E-19
 -1      3681 1.05161E-04-4.60116E-05-2.52992E-05 2.12688E-05-2.04271E-18-1.14275E-18
 -1      3682 9.50708E-05-2.60279E-05-2.95820E-05-6.97340E-06 2.01671E-19-4.58547E-19
 -1      3683 9.39555E-05-2.48959E-05-2.96029E-05-6.49180E-06 2.62635E-19-4.51217E-19
 -1      3684 9.53966E-05-2.66936E-05-2.94364E-05-7.73481E-06 8.13681E-20-3.00241E-19
 -1      3685 9.52460E-05-2.85488E-05-2.85843E-05-1.65810E-08-1.76585E-18 1.56144E-18
 -1      3686 9.52343E-05-2.84962E-05-2.86018E-05-6.73555E-09 4.04696E-19-2.19565E-19
 -1      3687 9.52370E-05-2.85105E-05-2.85971E-05-1.39362E-09 5.04160E-19-2.51531E-22
 -1      3688 9.52350E-05-2.85072E-05-2.85979E-05-2.12862E-09 8.09324E-19 6.44086E-19
 -1      3689 9.52447E-05-2.85316E-05-2.85914E-05-4.92748E-09-9.04395E-19 2.02427E-18
 -1      3690 9.52453E-05-2.85371E-05-2.85892E-05-8.67261E-09-1.17671E-18 2.47435E-18
 -1      3691 1.17301E-04-5.03296E-05-2.88007E-05 1.02253E-05-1.27303E-18-1.04648E-18
 -1      3692 1.11814E-04-4.78045E-05-2.73848E-05 1.41884E-05-1.88708E-18-7.71667E-19
 -1      3693 7.35140E-05-2.43974E-05-2.08971E-05-2.11627E-05 7.97574E-19 4.48186E-19
 -1      3694 8.13202E-05-2.70914E-05-2.30833E-05-1.94823E-05 6.33289E-19-4.92788E-19
 -1      3695 7.00500E-05-2.04395E-05-2.12624E-05-1.61528E-05 1.17327E-19-1.57760E-19
 -1      3696 7.40622E-05-2.62637E-05-2.03383E-05 2.30152E-05 1.62430E-18-1.50205E-18
 -1      3697 1.26203E-04-4.26069E-05-3.59584E-05-9.42729E-06 5.15870E-19-2.08113E-18
 -1      3698 8.58896E-05-2.85377E-05-2.45922E-05-1.86584E-05-2.81020E-19 6.10466E-19
 -1      3699 7.44292E-05-2.72886E-05-1.99808E-05 2.43152E-05-1.91422E-18 1.77729E-18
 -1      3700 9.35854E-05-2.14017E-05-3.09447E-05-8.77046E-07 9.61015E-19-1.08152E-18
 -1      3701 9.25298E-05-2.02181E-05-3.10009E-05-9.42012E-07 9.04949E-19-1.02754E-18
 -1      3702 9.52324E-05-2.85019E-05-2.85989E-05-1.60043E-09 4.66889E-19-7.94944E-19
 -1      3703 9.52259E-05-2.84806E-05-2.86047E-05-3.10539E-10 9.34207E-19-4.87453E-19
 -1      3704 9.52334E-05-2.85033E-05-2.85987E-05-1.12644E-09 8.55674E-19 1.16296E-18
 -1      3705 9.52412E-05-2.85211E-05-2.85943E-05-1.64862E-09-1.23032E-18-3.31771E-19
 -1      3706 9.52400E-05-2.85124E-05-2.85976E-05 4.08601E-09-1.16335E-18 5.23961E-19
 -1      3707 8.98592E-05-1.74509E-05-3.10425E-05 5.88113E-07-3.95909E-19-1.44654E-18
 -1      3708 9.06845E-05-1.82998E-05-3.10352E-05 6.57625E-07-5.57355E-19-1.18228E-18
 -1      3709 9.09446E-05-1.91825E-05-3.07458E-05 1.56078E-06-5.28836E-19-1.02483E-18
 -1      3710 8.96500E-05-1.79138E-05-3.07288E-05 1.01736E-06-3.06407E-19-1.40991E-18
 -1      3711 9.52394E-05-2.85165E-05-2.85958E-05 1.95382E-10-3.30404E-19-2.95797E-18
 -1      3712 9.52450E-05-2.85299E-05-2.85923E-05 3.74535E-09 1.31083E-18 1.04501E-18
 -1      3713 5.63921E-05-1.36797E-05-1.82878E-05 3.58185E-06 6.18731E-20 6.76356E-19
 -1      3714 5.48657E-05-1.30994E-05-1.75310E-05-3.69112E-06 1.62412E-19 8.85149E-20
 -1      3715 6.07878E-05-1.54314E-05-1.92755E-05-8.06741E-06 4.65334E-19 1.29517E-19
 -1      3716 8.98450E-05-1.74560E-05-3.10326E-05-8.06469E-07 5.91666E-19-1.08268E-18
 -1      3717 8.92141E-05-1.68450E-05-3.10323E-05-8.05012E-07 3.18292E-19-9.71777E-19
 -1      3718 8.87330E-05-1.63619E-05-3.10255E-05-5.64374E-07 2.03579E-19-1.06102E-18
 -1      3719 8.84522E-05-1.61025E-05-3.10236E-05-5.01937E-07 3.43717E-20-1.24595E-18
 -1      3720 8.92060E-05-1.74784E-05-3.07167E-05-1.09021E-06 1.88302E-19-9.37247E-19
 -1      3721 9.52405E-05-2.85107E-05-2.85984E-05-5.25045E-09 1.89769E-18-2.51667E-19
 -1      3722 8.65950E-05-2.17891E-05-2.78070E-05 8.95307E-06 1.07358E-19-5.58088E-19
 -1      3723 8.60348E-05-2.21368E-05-2.73651E-05 1.00594E-05 2.54057E-19-6.02942E-19
 -1      3724 8.46792E-05-2.23729E-05-2.67496E-05 1.13384E-05 3.75675E-19-7.52550E-19
 -1      3725 8.43375E-05-2.31217E-05-2.61968E-05 1.27796E-05 5.33981E-19-9.84872E-19
 -1      3726 8.30158E-05-2.07487E-05-2.66485E-05 9.42072E-06 2.03027E-19-6.17688E-19
 -1      3727 8.28014E-05-2.37238E-05-2.53800E-05 1.45926E-05 6.79859E-19-9.53558E-19
 -1      3728 8.29501E-05-2.52837E-05-2.46777E-05 1.67351E-05 8.77490E-19-1.11266E-18
 -1      3729 8.01539E-05-2.13038E-05-2.51597E-05 1.24085E-05 5.64690E-19-9.92690E-19
 -1      3730 8.83566E-05-1.59983E-05-3.10227E-05-1.88905E-07-1.33881E-19-1.34555E-18
 -1      3731 8.84761E-05-1.61171E-05-3.10247E-05-9.04594E-08-2.16738E-19-1.37138E-18
 -1      3732 8.88165E-05-1.70867E-05-3.07133E-05 3.42261E-07-2.25752E-19-1.20433E-18
 -1      3733 8.85970E-05-1.68865E-05-3.07066E-05-4.23321E-07-4.35806E-20-1.10017E-18
 -1      3734 6.09041E-05-1.71899E-05-1.87988E-05 1.31368E-05 1.20463E-18-2.16136E-18
 -1      3735 5.55705E-05-1.40552E-05-1.73049E-05 7.14277E-06 6.71618E-19-2.86617E-18
 -1      3736 9.62127E-05-2.82699E-05-2.91048E-05-9.13907E-06-3.99777E-19 5.88646E-20
 -1      3737 9.56186E-05-2.73803E-05-2.92331E-05-8.55831E-06-9.41517E-20-1.96645E-19
 -1      3738 9.42218E-05-2.62261E-05-2.91546E-05-8.28709E-06-7.08799E-20-2.25659E-19
 -1      3739 8.59339E-05-2.19222E-05-2.74200E-05-8.15879E-06 6.42321E-19 2.45540E-18
 -1      3740 8.65278E-05-2.19608E-05-2.77014E-05-7.31933E-06 6.55005E-19 1.44430E-18
 -1      3741 8.75752E-05-2.22476E-05-2.79919E-05-6.61844E-06 1.18691E-18 9.54114E-20
 -1      3742 8.81724E-05-2.24712E-05-2.81798E-05-5.95892E-06 1.46434E-18-2.24302E-20
 -1      3743 8.55991E-05-2.12054E-05-2.75693E-05-6.02397E-06 3.53176E-19 1.35296E-18
 -1      3744 8.90571E-05-2.28476E-05-2.83734E-05-5.41545E-06 1.68816E-18-1.11630E-18
 -1      3745 8.96039E-05-2.31634E-05-2.84915E-05-4.87146E-06 1.21916E-18-4.17643E-19
 -1      3746 8.75161E-05-2.19620E-05-2.80722E-05-4.90172E-06 9.25708E-19-5.51434E-19
 -1      3747 9.03436E-05-2.35738E-05-2.86149E-05-4.42896E-06 7.94758E-19 1.60785E-20
 -1      3748 9.08172E-05-2.39221E-05-2.86828E-05-3.96858E-06 6.22914E-19 2.47200E-19
 -1      3749 8.91245E-05-2.28084E-05-2.84033E-05-4.01266E-06 1.42445E-18-1.89185E-18
 -1      3750 9.14270E-05-2.43276E-05-2.87565E-05-3.59862E-06-1.15684E-19 8.06207E-19
 -1      3751 9.18221E-05-2.46715E-05-2.87898E-05-3.20546E-06-5.86089E-19 1.42109E-18
 -1      3752 9.04597E-05-2.36672E-05-2.86111E-05-3.27600E-06 4.52118E-19-5.64087E-19
 -1      3753 9.23179E-05-2.50490E-05-2.88291E-05-2.89297E-06-1.75284E-18 1.07441E-18
 -1      3754 9.26388E-05-2.53675E-05-2.88394E-05-2.55822E-06-2.47337E-18 2.49838E-19
 -1      3755 9.15530E-05-2.44846E-05-2.87324E-05-2.65206E-06-1.56429E-18 2.00991E-19
 -1      3756 9.30363E-05-2.57047E-05-2.88558E-05-2.29485E-06-2.02493E-18-4.56165E-20
 -1      3757 9.32913E-05-2.59875E-05-2.88517E-05-2.01275E-06-6.45009E-19-5.20867E-19
 -1      3758 9.24362E-05-2.52289E-05-2.87943E-05-2.12074E-06-1.99657E-18 2.04126E-19
 -1      3759 9.36056E-05-2.62795E-05-2.88533E-05-1.79298E-06 5.09741E-19-5.45393E-19
 -1      3760 9.38045E-05-2.65228E-05-2.88408E-05-1.55860E-06 5.03407E-19-6.39146E-19
 -1      3761 9.31401E-05-2.58846E-05-2.88170E-05-1.67110E-06-1.12524E-19-2.83307E-19
 -1      3762 9.40496E-05-2.67693E-05-2.88335E-05-1.37775E-06 1.23254E-19-6.11957E-19
 -1      3763 9.42020E-05-2.69735E-05-2.88169E-05-1.18608E-06-3.22427E-19 5.03430E-19
 -1      3764 9.36933E-05-2.64469E-05-2.88147E-05-1.29535E-06 6.43012E-19-1.85521E-19
 -1      3765 9.43903E-05-2.71771E-05-2.88047E-05-1.03959E-06-8.93334E-19 4.96469E-19
 -1      3766 9.45052E-05-2.73449E-05-2.87866E-05-8.85408E-07-1.33053E-18 8.58062E-19
 -1      3767 9.41217E-05-2.69182E-05-2.87975E-05-9.86228E-07-7.76976E-20 6.83108E-19
 -1      3768 9.46475E-05-2.75100E-05-2.87723E-05-7.68699E-07-1.15514E-18 1.02585E-18
 -1      3769 9.47326E-05-2.76453E-05-2.87546E-05-6.46732E-07-4.43872E-19 8.84259E-19
 -1      3770 9.44486E-05-2.73055E-05-2.87727E-05-7.36155E-07-1.05378E-18 9.15483E-19
 -1      3771 9.48383E-05-2.77767E-05-2.87399E-05-5.55319E-07 4.58092E-20 7.38167E-19
 -1      3772 9.49001E-05-2.78839E-05-2.87234E-05-4.60447E-07-3.82438E-20 1.04667E-18
 -1      3773 9.46938E-05-2.76178E-05-2.87447E-05-5.37321E-07-1.30094E-19-4.21500E-19
 -1      3774 9.49771E-05-2.79868E-05-2.87094E-05-3.90083E-07-4.58176E-19 1.23192E-18
 -1      3775 9.50210E-05-2.80704E-05-2.86948E-05-3.17552E-07 6.27514E-21 1.82162E-20
 -1      3776 9.48745E-05-2.78654E-05-2.87166E-05-3.81970E-07 6.65053E-20-1.04256E-18
 -1      3777 9.50757E-05-2.81497E-05-2.86820E-05-2.64370E-07 5.07620E-19-2.65091E-19
 -1      3778 9.51060E-05-2.82137E-05-2.86694E-05-2.09923E-07 4.36174E-19-2.91453E-19
 -1      3779 9.50047E-05-2.80585E-05-2.86901E-05-2.62753E-07 7.26022E-20-1.05251E-18
 -1      3780 9.51438E-05-2.82738E-05-2.86581E-05-1.70499E-07 6.17675E-20-7.20337E-19
 -1      3781 9.51640E-05-2.83222E-05-2.86474E-05-1.30430E-07 3.17787E-19-5.72673E-19
 -1      3782 9.50963E-05-2.82065E-05-2.86663E-05-1.72986E-07 4.60971E-19-1.10512E-18
 -1      3783 9.51892E-05-2.83671E-05-2.86376E-05-1.01874E-07 7.66426E-19 7.96797E-20
 -1      3784 9.52019E-05-2.84032E-05-2.86286E-05-7.31261E-08 1.44842E-19 8.28371E-19
 -1      3785 9.51586E-05-2.83184E-05-2.86452E-05-1.06726E-07 7.24861E-19-3.81712E-19
 -1      3786 9.52179E-05-2.84367E-05-2.86203E-05-5.25881E-08-6.83737E-19 1.18321E-18
 -1      3787 9.52259E-05-2.84637E-05-2.86127E-05-3.27825E-08-6.39766E-19 9.76740E-19
 -1      3788 9.51989E-05-2.84015E-05-2.86271E-05-5.87569E-08 4.18074E-19 1.80826E-19
 -1      3789 9.52370E-05-2.84953E-05-2.86036E-05-1.60982E-08 1.05139E-18 4.21011E-19
 -1      3790 9.15441E-05-1.91849E-05-3.10201E-05-8.93820E-07 9.45360E-19-1.07191E-18
 -1      3791 9.06417E-05-1.82580E-05-3.10357E-05-9.53760E-07 7.41835E-19-1.08317E-18
 -1      3792 9.05158E-05-1.87622E-05-3.07317E-05-1.57832E-06 5.44923E-19-8.65808E-19
 -1      3793 9.23528E-05-2.06220E-05-3.07244E-05-1.87818E-06 8.24307E-19-9.98941E-19
 -1      3794 9.78888E-05-3.49124E-05-2.69390E-05 1.41445E-05-5.05615E-19-7.24292E-20
 -1      3795 1.00735E-04-3.78521E-05-2.69222E-05 1.44099E-05-1.60516E-19 3.80730E-19
 -1      3796 9.24997E-05-2.77344E-05-2.77536E-05 1.03567E-05-7.66929E-19-6.18123E-20
 -1      3797 9.35043E-05-2.90273E-05-2.75918E-05 1.10883E-05-1.44007E-19-2.02450E-19
 -1      3798 9.17883E-05-2.61537E-05-2.81342E-05 8.61578E-06-1.80259E-18 5.48053E-19
 -1      3799 9.22684E-05-2.68918E-05-2.79914E-05 9.32935E-06-1.66600E-18 1.82688E-19
 -1      3800 9.02519E-05-2.61922E-05-2.74708E-05 1.00907E-05-1.36991E-18-8.30249E-20
 -1      3801 9.17137E-05-2.54001E-05-2.84286E-05 7.10526E-06-1.55175E-18 2.05890E-19
 -1      3802 9.18750E-05-2.57512E-05-2.83208E-05 7.75839E-06-1.25629E-18 5.60980E-19
 -1      3803 9.01742E-05-2.50177E-05-2.79298E-05 8.14734E-06-1.41189E-18-2.52207E-21
 -1      3804 9.19841E-05-2.51902E-05-2.86354E-05 5.81706E-06-5.47074E-19-5.01589E-19
 -1      3805 9.19657E-05-2.52896E-05-2.85635E-05 6.39657E-06-1.48800E-18 7.37407E-20
 -1      3806 9.05481E-05-2.45694E-05-2.82755E-05 6.57059E-06-1.29240E-18-2.18362E-19
 -1      3807 9.24088E-05-2.53061E-05-2.87674E-05 4.72262E-06 8.04677E-19 3.75146E-20
 -1      3808 9.23005E-05-2.52545E-05-2.87260E-05 5.23151E-06-4.50806E-20-8.21296E-20
 -1      3809 9.11336E-05-2.45816E-05-2.85183E-05 5.29247E-06-3.10308E-19-8.97107E-19
 -1      3810 9.28814E-05-2.56053E-05-2.88410E-05 3.79369E-06 6.51516E-19 1.50892E-18
 -1      3811 9.27366E-05-2.54696E-05-2.88230E-05 4.23522E-06 9.87705E-19 1.07496E-18
 -1      3812 9.17842E-05-2.48581E-05-2.86774E-05 4.24282E-06 2.97232E-19 4.74345E-19
 -1      3813 9.33404E-05-2.59909E-05-2.88716E-05 3.01072E-06 5.07053E-19 2.05093E-18
 -1      3814 9.31901E-05-2.58161E-05-2.88702E-05 3.38858E-06 4.36420E-19 2.16769E-18
 -1      3815 9.24219E-05-2.52750E-05-2.87719E-05 3.37503E-06 2.33972E-19 1.73408E-18
 -1      3816 9.37536E-05-2.63993E-05-2.88726E-05 2.35737E-06 7.16137E-19 1.79751E-18
 -1      3817 9.36143E-05-2.62146E-05-2.88822E-05 2.67595E-06 9.06321E-19 2.10903E-18
 -1      3818 9.30033E-05-2.57474E-05-2.88190E-05 2.65812E-06 4.30126E-19 2.83459E-18
 -1      3819 9.41071E-05-2.67919E-05-2.88548E-05 1.81868E-06 3.07163E-19 2.16658E-18
 -1      3820 9.39865E-05-2.66148E-05-2.88708E-05 2.08311E-06 7.78845E-19 2.72920E-18
 -1      3821 9.35076E-05-2.62203E-05-2.88332E-05 2.06872E-06 3.89505E-19 3.92596E-18
 -1      3822 9.43985E-05-2.71473E-05-2.88264E-05 1.38045E-06-2.50935E-20 1.69387E-18
 -1      3823 9.42988E-05-2.69875E-05-2.88454E-05 1.59644E-06 1.49322E-19 1.74673E-18
 -1      3824 9.39295E-05-2.66611E-05-2.88257E-05 1.58812E-06 5.57114E-19 5.25743E-18
 -1      3825 9.46312E-05-2.74557E-05-2.87931E-05 1.02902E-06-1.21036E-18 1.30537E-18
 -1      3826 9.45518E-05-2.73174E-05-2.88128E-05 1.20261E-06-8.89173E-19 1.04522E-18
 -1      3827 9.42720E-05-2.70527E-05-2.88054E-05 1.20040E-06-3.55179E-19 2.25515E-18
 -1      3828 9.48122E-05-2.77148E-05-2.87589E-05 7.51358E-07-7.36179E-19 1.58770E-18
 -1      3829 9.47508E-05-2.75989E-05-2.87778E-05 8.88631E-07-8.09255E-19 1.28964E-18
 -1      3830 9.45428E-05-2.73882E-05-2.87783E-05 8.91460E-07-1.11219E-18 7.56635E-19
 -1      3831 9.49492E-05-2.79266E-05-2.87262E-05 5.35347E-07 3.70450E-19 6.47151E-19
 -1      3832 9.49032E-05-2.78321E-05-2.87435E-05 6.42136E-07 7.54451E-20 2.13570E-18
 -1      3833 9.47517E-05-2.76674E-05-2.87487E-05 6.48597E-07-5.71710E-19-2.21527E-20
 -1      3834 9.50503E-05-2.80959E-05-2.86964E-05 3.69968E-07 1.05625E-18-4.87457E-19
 -1      3835 9.50168E-05-2.80205E-05-2.87116E-05 4.51655E-07 3.40506E-19 4.34265E-19
 -1      3836 9.49091E-05-2.78940E-05-2.87195E-05 4.60409E-07 1.08140E-18-2.40278E-19
 -1      3837 9.51226E-05-2.82283E-05-2.86703E-05 2.45516E-07 8.96625E-19-3.15720E-19
 -1      3838 9.50992E-05-2.81694E-05-2.86833E-05 3.06890E-07 1.02410E-18 3.52914E-20
 -1      3839 9.50246E-05-2.80741E-05-2.86921E-05 3.16812E-07 7.39393E-19-4.03762E-19
 -1      3840 9.51727E-05-2.83299E-05-2.86478E-05 1.53603E-07 7.88539E-19 1.11372E-18
 -1      3841 9.51569E-05-2.82848E-05-2.86588E-05 1.98833E-07 1.43430E-18 2.47247E-19
 -1      3842 9.51070E-05-2.82143E-05-2.86676E-05 2.09102E-07 5.16022E-19-1.08269E-18
 -1      3843 9.52057E-05-2.84066E-05-2.86289E-05 8.70038E-08-9.38855E-19 1.37339E-18
 -1      3844 9.51957E-05-2.83724E-05-2.86380E-05 1.19812E-07-1.01439E-19 1.45504E-18
 -1      3845 9.51638E-05-2.83216E-05-2.86463E-05 1.29884E-07-4.38194E-19 1.32256E-18
 -1      3846 9.52264E-05-2.84639E-05-2.86130E-05 3.96074E-08-8.86704E-19 1.28367E-18
 -1      3847 9.52205E-05-2.84381E-05-2.86205E-05 6.34107E-08-7.45285E-19 1.40677E-18
 -1      3848 9.52011E-05-2.84025E-05-2.86279E-05 7.29166E-08-8.04965E-19 1.75745E-18
 -1      3849 9.52376E-05-2.84950E-05-2.86037E-05 1.90057E-08-1.35868E-18 1.01003E-18
 -1      3850 9.52288E-05-2.84847E-05-2.86039E-05 4.37388E-09 8.70832E-20-2.46463E-18
 -1      3851 9.52346E-05-2.85067E-05-2.85979E-05 1.27990E-09 3.22225E-19-3.84117E-18
 -1      3852 9.52364E-05-2.85100E-05-2.85971E-05 6.02036E-10 1.29284E-19-4.84575E-18
 -1      3853 7.88853E-05-2.69338E-05-2.22902E-05 2.11441E-05 1.58270E-18-1.11927E-18
 -1      3854 6.89831E-05-2.07437E-05-2.02782E-05 1.84977E-05 1.35417E-18-1.65293E-18
 -1      3855 6.71557E-05-1.85294E-05-2.08305E-05 1.29005E-05 9.87601E-19-1.78848E-18
 -1      3856 8.07395E-05-2.56646E-05-2.36951E-05 1.84599E-05 1.19227E-18-1.00039E-18
 -1      3857 1.08953E-04-4.46076E-05-2.75467E-05 1.31544E-05-1.18105E-18-2.05455E-19
 -1      3858 1.06877E-04-4.56475E-05-2.62766E-05 1.80644E-05-1.75290E-18-5.34729E-19
 -1      3859 1.01630E-04-4.20361E-05-2.55790E-05 1.93705E-05-1.36014E-18-8.28127E-19
 -1      3860 1.04943E-04-4.11999E-05-2.71952E-05 1.41009E-05-3.87018E-19-1.72500E-20
 -1      3861 8.97172E-05-2.12326E-05-2.93661E-05 5.31150E-06-4.33850E-19-6.55949E-19
 -1      3862 8.92201E-05-2.14459E-05-2.90481E-05 6.22166E-06-2.53570E-19-5.90642E-19
 -1      3863 8.42601E-05-2.21355E-05-2.65951E-05-1.02529E-05 3.71881E-19 1.14096E-18
 -1      3864 8.47241E-05-2.18264E-05-2.69957E-05-9.12984E-06 1.06659E-18 2.15852E-18
 -1      3865 8.33467E-05-2.06686E-05-2.68286E-05-7.54650E-06 8.71130E-19 1.74603E-18
 -1      3866 9.47400E-05-2.28748E-05-3.07980E-05-1.24662E-06 1.01896E-18-1.05834E-18
 -1      3867 9.44980E-05-2.31333E-05-3.05751E-05-2.36401E-06 8.71804E-19-9.50698E-19
 -1      3868 8.16387E-05-3.04863E-05-2.17600E-05 2.44484E-05-2.17826E-18 1.33134E-18
 -1      3869 7.37596E-05-2.46277E-05-2.10810E-05 2.08668E-05-1.30158E-18 1.38477E-18
 -1      3870 8.28128E-05-2.32543E-05-2.54539E-05-1.32731E-05-4.75970E-19 1.48808E-18
 -1      3871 8.28620E-05-2.23318E-05-2.59900E-05-1.16812E-05-1.43993E-19 1.17447E-18
 -1      3872 8.07334E-05-2.05278E-05-2.57595E-05-9.75411E-06 3.98236E-19 4.53497E-19
 -1      3873 9.43012E-05-3.05068E-05-2.73210E-05 1.22902E-05-1.53842E-19-1.04561E-19
 -1      3874 9.61166E-05-3.25579E-05-2.71845E-05 1.29176E-05-2.78859E-19-1.34059E-19
 -1      3875 9.35745E-05-3.22858E-05-2.63131E-05 1.52695E-05-2.15646E-20 3.32937E-19
 -1      3876 9.11625E-05-2.84414E-05-2.69103E-05 1.24702E-05-2.45190E-19 9.93078E-19
 -1      3877 9.06534E-05-2.06368E-05-3.00203E-05 3.58734E-06-4.88620E-19-7.64485E-19
 -1      3878 9.03377E-05-2.10100E-05-2.97170E-05 4.52597E-06-4.74451E-19-7.93857E-19
 -1      3879 8.90548E-05-2.02719E-05-2.94534E-05 4.17726E-06-3.03211E-19-7.19258E-19
 -1      3880 8.83251E-05-2.15234E-05-2.86515E-05 7.04298E-06-1.10487E-19-5.49566E-19
 -1      3881 8.77353E-05-2.17159E-05-2.82880E-05 7.99182E-06-4.86395E-20-5.76186E-19
 -1      3882 8.75428E-05-2.05482E-05-2.86860E-05 5.68106E-06-1.55250E-19-4.85826E-19
 -1      3883 9.52345E-05-2.84951E-05-2.86019E-05 7.17646E-09-9.13332E-19-3.48938E-18
 -1      3884 6.30834E-05-1.51120E-05-2.05969E-05-5.06455E-06 7.04834E-19 5.62086E-20
 -1      3885 6.53609E-05-1.68671E-05-2.06724E-05-1.13472E-05 2.49686E-19 8.99443E-20
 -1      3886 5.99700E-05-1.47071E-05-1.90591E-05 8.46981E-06-1.81351E-19 1.13648E-18
 -1      3887 6.12292E-05-1.45876E-05-1.99558E-05 3.42854E-06 4.63400E-19 3.19795E-19
 -1      3888 8.16682E-05-2.46776E-05-2.44687E-05-1.61291E-05-5.47445E-20 8.46424E-19
 -1      3889 6.46920E-05-1.80228E-05-1.99278E-05 1.38065E-05-6.74371E-19 1.33839E-18
 -1      3890 9.36547E-05-2.25338E-05-3.04884E-05-2.85990E-06 6.59261E-19-9.18260E-19
 -1      3891 9.52273E-05-2.84720E-05-2.86093E-05-2.25531E-08-7.86757E-22 5.59242E-19
 -1      3892 9.52271E-05-2.84717E-05-2.86098E-05 2.68334E-08-1.45845E-18-1.03540E-19
 -1      3893 9.48516E-05-2.99969E-05-2.77584E-05-1.23192E-05-1.48053E-19-7.06637E-19
 -1      3894 9.37630E-05-2.84512E-05-2.79826E-05-1.15423E-05-1.41511E-19-6.34108E-19
 -1      3895 9.08788E-05-1.96894E-05-3.05166E-05 2.12326E-06-4.94666E-19-9.52613E-19
 -1      3896 9.08891E-05-2.03124E-05-3.02489E-05 3.02552E-06-5.31267E-19-8.75230E-19
 -1      3897 8.98159E-05-1.96666E-05-3.00437E-05 2.91139E-06-3.90660E-19-1.09936E-18
 -1      3898 9.01709E-05-1.89664E-05-3.05087E-05 1.84347E-06-3.61731E-19-1.15207E-18
 -1      3899 5.64577E-05-1.42232E-05-1.79416E-05 6.87376E-07 1.13741E-19-2.66625E-18
 -1      3900 8.84117E-05-1.75409E-05-3.03861E-05 3.64207E-07-1.87217E-19-1.13942E-18
 -1      3901 8.87381E-05-1.78185E-05-3.03949E-05 8.09700E-07-2.95726E-19-1.24491E-18
 -1      3902 1.04403E-04-3.98473E-05-2.78157E-05-1.31525E-05-4.85775E-19-3.60664E-19
 -1      3903 9.95770E-05-3.83266E-05-2.62545E-05 1.65239E-05-3.82379E-19-7.38970E-20
 -1      3904 9.49370E-05-2.79906E-05-2.87177E-05-9.94535E-06-3.57149E-19-2.52034E-19
 -1      3905 9.29557E-05-2.31185E-05-2.99328E-05-4.78468E-06 2.99554E-19-7.69502E-19
 -1      3906 9.30117E-05-2.26122E-05-3.01617E-05-3.91812E-06 3.84107E-19-9.46472E-19
 -1      3907 8.55184E-05-2.06224E-05-2.77818E-05 7.33583E-06 8.11456E-20-4.92152E-19
 -1      3908 9.79799E-05-3.40747E-05-2.73206E-05-1.39692E-05-1.25384E-19-7.11855E-19
 -1      3909 9.58255E-05-3.17458E-05-2.74286E-05-1.35350E-05-8.71925E-20-8.77501E-19
 -1      3910 9.26807E-05-2.95809E-05-2.70722E-05-1.38201E-05-1.41103E-19-8.27080E-19
 -1      3911 7.21342E-05-1.96213E-05-2.23730E-05-1.29866E-05 5.83364E-19 1.36005E-19
 -1      3912 7.80111E-05-2.18347E-05-2.40838E-05-1.41030E-05 2.29020E-19 9.23034E-19
 -1      3913 9.52193E-05-2.84597E-05-2.86117E-05 2.13266E-08-6.44418E-19-1.40191E-18
 -1      3914 9.52073E-05-2.84217E-05-2.86216E-05 4.27881E-08-7.33086E-19-5.00933E-19
 -1      3915 9.52152E-05-2.84529E-05-2.86130E-05 1.90752E-08 6.45594E-19-2.20114E-18
 -1      3916 9.02227E-05-3.51886E-05-2.34891E-05 2.24167E-05-1.98285E-18-1.36068E-19
 -1      3917 9.52081E-05-2.84412E-05-2.86148E-05 7.85455E-09 1.71398E-18-7.85096E-19
 -1      3918 9.52100E-05-2.84451E-05-2.86141E-05 1.09343E-08 1.72350E-18-2.37420E-18
 -1      3919 9.51929E-05-2.83998E-05-2.86246E-05 2.52017E-08 2.08922E-18-6.59065E-19
 -1      3920 7.65072E-05-2.17754E-05-2.32634E-05 1.57163E-05 9.15368E-19-9.16101E-19
 -1      3921 9.09420E-05-1.99333E-05-3.04401E-05-2.39072E-06 4.15163E-19-8.15689E-19
 -1      3922 9.00926E-05-1.91255E-05-3.04308E-05-2.17603E-06 2.21828E-19-7.11382E-19
 -1      3923 9.52237E-05-2.84653E-05-2.86108E-05-2.11301E-08-5.56938E-20 1.67970E-19
 -1      3924 7.05118E-05-2.06569E-05-2.11788E-05 1.66310E-05-7.07112E-19 1.15427E-18
 -1      3925 6.86133E-05-1.78938E-05-2.17681E-05 1.08438E-05-2.39065E-19 1.04958E-18
 -1      3926 7.70751E-05-2.38323E-05-2.27547E-05 1.69290E-05-1.10009E-18 3.69935E-19
 -1      3927 9.52286E-05-2.84851E-05-2.86040E-05-5.83853E-09 3.47289E-19 1.13155E-18
 -1      3928 7.74434E-05-2.67315E-05-2.16770E-05-2.15893E-05-9.11487E-19-5.33551E-19
 -1      3929 8.17773E-05-3.00203E-05-2.20795E-05-2.35899E-05-1.29701E-18-5.02608E-19
 -1      3930 8.75889E-05-3.24206E-05-2.36652E-05-2.18708E-05-1.13555E-18-3.49911E-19
 -1      3931 8.96818E-05-1.94074E-05-3.01088E-05-2.50346E-06 1.06731E-19-6.44549E-19
 -1      3932 8.93508E-05-1.84113E-05-3.04051E-05-1.68449E-06 2.01341E-19-8.40926E-19
 -1      3933 8.88204E-05-1.79431E-05-3.03944E-05-1.35050E-06 7.78234E-20-8.63161E-19
 -1      3934 1.00823E-04-3.98272E-05-2.60474E-05-1.80987E-05-1.06735E-18-2.89419E-19
 -1      3935 5.87907E-05-1.59626E-05-1.83156E-05-1.09151E-05-4.69607E-19-2.23220E-18
 -1      3936 6.04062E-05-1.79255E-05-1.79086E-05-1.63248E-05-8.84183E-19-2.17534E-18
 -1      3937 6.77381E-05-2.06598E-05-2.00812E-05-1.75997E-05-8.34572E-19-1.54610E-18
 -1      3938 8.95453E-05-1.84287E-05-3.04935E-05 1.52013E-06-3.00982E-19-1.29206E-18
 -1      3939 8.90958E-05-1.87031E-05-3.01675E-05 1.62534E-06-1.87413E-19-1.27810E-18
 -1      3940 9.52081E-05-2.84406E-05-2.86150E-05-6.30050E-09 1.29002E-18 1.00093E-19
 -1      3941 9.52076E-05-2.84402E-05-2.86150E-05-1.75062E-09 1.81951E-18-1.43031E-18
 -1      3942 9.51863E-05-2.83909E-05-2.86259E-05 3.03233E-09 1.15038E-18-1.57078E-18
 -1      3943 9.29367E-05-2.43165E-05-2.94032E-05-6.69098E-06-1.13084E-20-4.00291E-19
 -1      3944 9.28615E-05-2.36956E-05-2.96436E-05-5.74584E-06 1.74962E-19-6.13085E-19
 -1      3945 9.19302E-05-2.25287E-05-2.97437E-05-5.00342E-06 1.75992E-19-6.52292E-19
 -1      3946 9.27112E-05-2.18311E-05-3.03808E-05-3.04608E-06 5.68666E-19-9.86378E-19
 -1      3947 6.37242E-05-1.45748E-05-2.08790E-05-9.47665E-07 2.61290E-20-2.18826E-19
 -1      3948 6.76153E-05-1.58427E-05-2.21225E-05-4.00080E-06-1.78605E-20-2.38450E-19
 -1      3949 6.55557E-05-1.54780E-05-2.15026E-05 3.67632E-06-1.47304E-20 1.45756E-19
 -1      3950 9.16886E-05-2.08057E-05-3.03847E-05-2.89102E-06 4.91811E-19-9.37183E-19
 -1      3951 8.83303E-05-1.74836E-05-3.03794E-05-3.21291E-07-1.30081E-19-1.09740E-18
 -1      3952 8.82647E-05-1.80683E-05-3.00590E-05 9.21428E-08-1.09351E-19-1.02321E-18
 -1      3953 8.84570E-05-1.75832E-05-3.03814E-05-7.42059E-07 5.69670E-20-9.54785E-19
 -1      3954 9.77116E-05-3.63782E-05-2.62201E-05-1.73096E-05-7.25080E-19-4.40231E-19
 -1      3955 7.78696E-05-1.93461E-05-2.51583E-05 8.78101E-06 4.24077E-19-1.04487E-18
 -1      3956 7.61278E-05-1.95905E-05-2.42505E-05 1.04666E-05 5.32982E-19-1.03534E-18
 -1      3957 9.29567E-05-3.33696E-05-2.55500E-05-1.83921E-05-7.66485E-19-6.27690E-19
 -1      3958 8.47498E-05-1.98415E-05-2.78532E-05 5.27158E-06-1.48210E-20-6.97001E-19
 -1      3959 8.35804E-05-1.98022E-05-2.73414E-05 6.06392E-06 1.03153E-19-8.01288E-19
 -1      3960 8.69968E-05-1.98985E-05-2.87799E-05 4.05863E-06-1.77611E-19-6.99835E-19
 -1      3961 8.60928E-05-1.99400E-05-2.83603E-05 4.75432E-06-1.55741E-19-5.67659E-19
 -1      3962 8.45320E-05-1.91907E-05-2.79627E-05 3.55703E-06-2.02406E-19-9.61481E-19
 -1      3963 9.30334E-05-2.56123E-05-2.88799E-05-8.52714E-06-1.50985E-19-3.69600E-19
 -1      3964 9.28130E-05-2.48834E-05-2.91137E-05-7.64371E-06-1.10747E-20-3.70052E-19
 -1      3965 9.17009E-05-2.37062E-05-2.91451E-05-6.92126E-06-1.28328E-20-4.30058E-19
 -1      3966 8.61799E-05-2.12714E-05-2.78243E-05-4.04693E-06 1.79734E-19 2.97709E-19
 -1      3967 8.70752E-05-2.17084E-05-2.80344E-05-3.62550E-06 6.35001E-19-7.09135E-19
 -1      3968 8.80666E-05-2.22104E-05-2.82295E-05-3.34401E-06 1.21902E-18-1.31947E-18
 -1      3969 8.88118E-05-2.26612E-05-2.83653E-05-2.99640E-06 1.26347E-18-1.28972E-18
 -1      3970 8.69658E-05-2.15472E-05-2.80110E-05-2.53990E-06 2.99409E-19-7.01230E-19
 -1      3971 8.96180E-05-2.31482E-05-2.84917E-05-2.76093E-06 1.19257E-18-2.04460E-18
 -1      3972 9.02310E-05-2.35836E-05-2.85749E-05-2.46447E-06 3.10039E-19-1.06208E-18
 -1      3973 8.87390E-05-2.25694E-05-2.83392E-05-2.13197E-06 9.75586E-19-2.03918E-18
 -1      3974 9.08848E-05-2.40364E-05-2.86529E-05-2.26107E-06-7.72946E-19-9.90666E-19
 -1      3975 9.13827E-05-2.44389E-05-2.86995E-05-2.00506E-06-1.61940E-18-4.16272E-19
 -1      3976 9.01799E-05-2.35312E-05-2.85488E-05-1.77643E-06 2.33844E-19-1.66280E-18
 -1      3977 9.19099E-05-2.48468E-05-2.87439E-05-1.82839E-06-1.92241E-18 3.70663E-19
 -1      3978 9.23089E-05-2.52065E-05-2.87658E-05-1.60804E-06-1.34935E-18 4.09619E-19
 -1      3979 9.13464E-05-2.44100E-05-2.86754E-05-1.45972E-06-1.05678E-18-7.15045E-19
 -1      3980 9.27301E-05-2.55640E-05-2.87872E-05-1.45610E-06-9.33516E-19-2.85052E-19
 -1      3981 9.30457E-05-2.58765E-05-2.87929E-05-1.26872E-06 6.55638E-20-3.11591E-19
 -1      3982 9.22837E-05-2.51921E-05-2.87445E-05-1.17948E-06-1.28117E-18-1.08383E-19
 -1      3983 9.33783E-05-2.61825E-05-2.87993E-05-1.14012E-06 5.65636E-19-9.50548E-19
 -1      3984 9.36243E-05-2.64477E-05-2.87949E-05-9.83337E-07 7.20102E-19-3.29199E-19
 -1      3985 9.30288E-05-2.58712E-05-2.87748E-05-9.35723E-07-1.78712E-21-1.86460E-18
 -1      3986 9.38834E-05-2.67040E-05-2.87918E-05-8.76536E-07 6.71736E-19-5.88865E-19
 -1      3987 9.40724E-05-2.69243E-05-2.87817E-05-7.47653E-07-2.30616E-20-3.79912E-19
 -1      3988 9.36138E-05-2.64480E-05-2.87799E-05-7.28068E-07 6.19040E-19-2.30179E-18
 -1      3989 9.42714E-05-2.71348E-05-2.87732E-05-6.60663E-07-1.13591E-18-2.72382E-19
 -1      3990 9.44143E-05-2.73144E-05-2.87602E-05-5.56622E-07-1.34123E-18-8.05548E-20
 -1      3991 9.40667E-05-2.69280E-05-2.87696E-05-5.54971E-07-2.43593E-19-1.58234E-18
 -1      3992 9.45646E-05-2.74842E-05-2.87489E-05-4.87136E-07-1.12736E-18-7.16702E-19
 -1      3993 9.46708E-05-2.76280E-05-2.87350E-05-4.04655E-07-4.74882E-19-1.75455E-18
 -1      3994 9.44120E-05-2.73200E-05-2.87506E-05-4.13732E-07-1.26032E-18-1.96856E-18
 -1      3995 9.47823E-05-2.77626E-05-2.87227E-05-3.50206E-07 2.75285E-19-2.22609E-18
 -1      3996 9.48597E-05-2.78758E-05-2.87092E-05-2.85991E-07 4.02508E-19-1.79785E-18
 -1      3997 9.46707E-05-2.76345E-05-2.87275E-05-3.00841E-07-5.05621E-19-1.73321E-18
 -1      3998 9.49407E-05-2.79807E-05-2.86971E-05-2.44144E-07-9.46774E-20-9.78406E-19
 -1      3999 9.49958E-05-2.80684E-05-2.86845E-05-1.95068E-07 7.28856E-19-1.07954E-18
 -1      4000 9.48609E-05-2.78825E-05-2.87034E-05-2.12392E-07 5.23547E-19-3.40632E-19
 -1      4001 9.50532E-05-2.81489E-05-2.86732E-05-1.63556E-07 1.09334E-18-1.26809E-18
 -1      4002 9.50913E-05-2.82156E-05-2.86620E-05-1.26837E-07 9.14721E-19-1.13322E-18
 -1      4003 9.49977E-05-2.80749E-05-2.86800E-05-1.44502E-07 9.98387E-19-4.93206E-19
 -1      4004 9.51307E-05-2.82763E-05-2.86518E-05-1.03631E-07 1.12792E-18-5.41736E-19
 -1      4005 9.51559E-05-2.83266E-05-2.86420E-05-7.67009E-08 1.18109E-18-2.30140E-19
 -1      4006 9.50935E-05-2.82217E-05-2.86585E-05-9.33827E-08 1.34592E-18-5.26945E-19
 -1      4007 9.51821E-05-2.83715E-05-2.86329E-05-6.03101E-08 5.54682E-19 3.97858E-19
 -1      4008 9.51983E-05-2.84090E-05-2.86244E-05-3.99218E-08 1.37853E-19-2.60800E-19
 -1      4009 9.51578E-05-2.83316E-05-2.86392E-05-5.61087E-08 1.03442E-18-2.47486E-19
 -1      4010 8.94308E-05-2.37379E-05-2.81713E-05 5.70022E-06-1.45354E-18 3.65021E-19
 -1      4011 8.91686E-05-2.37640E-05-2.80172E-05 6.38116E-06-1.30773E-18 6.84619E-19
 -1      4012 8.85639E-05-2.37807E-05-2.77843E-05 7.21318E-06-1.28127E-18 6.36842E-19
 -1      4013 8.84676E-05-2.40860E-05-2.75702E-05 8.06976E-06-1.50295E-18 4.77555E-19
 -1      4014 8.75113E-05-2.28816E-05-2.76874E-05 6.27238E-06-1.17714E-18 1.43912E-18
 -1      4015 8.85377E-05-1.95973E-05-2.95688E-05 2.88207E-06-8.00243E-20-1.21758E-18
 -1      4016 8.79364E-05-1.98204E-05-2.92026E-05 3.58474E-06-2.28492E-20-8.89387E-19
 -1      4017 8.67618E-05-1.92522E-05-2.89049E-05 2.75021E-06 7.94819E-20-1.05829E-18
 -1      4018 7.32369E-05-1.91681E-05-2.32527E-05 1.10117E-05 5.23003E-19-1.17543E-18
 -1      4019 7.07904E-05-1.91244E-05-2.21898E-05 1.22068E-05 8.83629E-19-1.43854E-18
 -1      4020 7.20168E-05-1.71268E-05-2.33419E-05 6.85092E-06 4.89218E-19-1.55454E-18
 -1      4021 8.79231E-05-2.43923E-05-2.72519E-05 9.15709E-06-9.86357E-19 5.96985E-19
 -1      4022 8.81249E-05-2.51046E-05-2.69752E-05 1.02385E-05-2.09620E-19 1.24607E-18
 -1      4023 8.63445E-05-2.30617E-05-2.71108E-05 8.14871E-06-1.04298E-18 1.45659E-18
 -1      4024 9.03420E-05-2.40152E-05-2.84399E-05 4.52378E-06 3.07359E-19 7.21822E-19
 -1      4025 9.00208E-05-2.38894E-05-2.83347E-05 5.07602E-06-1.01841E-18 5.60836E-19
 -1      4026 8.87210E-05-2.31311E-05-2.80994E-05 4.87351E-06-1.30445E-18 1.13366E-18
 -1      4027 9.12192E-05-2.44740E-05-2.86168E-05 3.57905E-06-7.32919E-19 2.09177E-18
 -1      4028 9.08884E-05-2.42607E-05-2.85502E-05 4.03223E-06-1.36728E-19 1.41700E-18
 -1      4029 8.98549E-05-2.36000E-05-2.83846E-05 3.81211E-06-7.10839E-19 1.78885E-18
 -1      4030 9.20173E-05-2.50168E-05-2.87243E-05 2.81537E-06-1.68288E-19 2.26110E-18
 -1      4031 9.17066E-05-2.47643E-05-2.86867E-05 3.18899E-06-3.36538E-19 2.07470E-18
 -1      4032 9.08849E-05-2.41921E-05-2.85732E-05 2.97880E-06-7.17619E-19 2.63869E-18
 -1      4033 9.27130E-05-2.55753E-05-2.87814E-05 2.19623E-06 2.35774E-19 2.50864E-18
 -1      4034 9.24377E-05-2.53162E-05-2.87646E-05 2.50402E-06 2.72308E-20 2.42975E-18
 -1      4035 9.17875E-05-2.48262E-05-2.86895E-05 2.31983E-06-4.02561E-19 1.94688E-18
 -1      4036 9.33001E-05-2.61073E-05-2.88035E-05 1.69492E-06-2.87779E-19 3.71448E-18
 -1      4037 9.30661E-05-2.58613E-05-2.88008E-05 1.94712E-06 1.72522E-19 3.04087E-18
 -1      4038 9.25554E-05-2.54474E-05-2.87537E-05 1.79473E-06-5.54714E-20 2.11970E-18
 -1      4039 9.37822E-05-2.65885E-05-2.88027E-05 1.29126E-06 3.03374E-19 4.22530E-18
 -1      4040 9.35897E-05-2.63668E-05-2.88089E-05 1.49612E-06 3.04102E-19 3.85806E-18
 -1      4041 9.31927E-05-2.60224E-05-2.87816E-05 1.37547E-06-1.93152E-21 2.60378E-18
 -1      4042 9.41687E-05-2.70075E-05-2.87877E-05 9.69032E-07-2.19206E-19 2.76653E-18
 -1      4043 9.40147E-05-2.68152E-05-2.87990E-05 1.13360E-06 2.71506E-19 3.73176E-18
 -1      4044 9.37100E-05-2.65332E-05-2.87856E-05 1.04169E-06 3.85645E-19 2.59415E-18
 -1      4045 9.44715E-05-2.73614E-05-2.87649E-05 7.14581E-07-7.54354E-19 9.98552E-19
 -1      4046 9.43514E-05-2.71995E-05-2.87787E-05 8.45134E-07-2.33022E-19 1.99014E-18
 -1      4047 9.41211E-05-2.69724E-05-2.87745E-05 7.77686E-07 1.75793E-19 3.77799E-18
 -1      4048 9.47037E-05-2.76528E-05-2.87387E-05 5.16108E-07 3.46345E-19-3.66945E-19
 -1      4049 9.46121E-05-2.75200E-05-2.87532E-05 6.18268E-07-6.26437E-19-4.90229E-19
 -1      4050 9.44410E-05-2.73400E-05-2.87548E-05 5.70754E-07 7.82634E-19 1.78770E-18
 -1      4051 9.48776E-05-2.78874E-05-2.87121E-05 3.63381E-07-4.87243E-20 1.23961E-18
 -1      4052 9.48096E-05-2.77808E-05-2.87261E-05 4.42165E-07-1.95664E-20 1.95921E-19
 -1      4053 9.46849E-05-2.76406E-05-2.87312E-05 4.10327E-07-6.09396E-20 5.80788E-19
 -1      4054 9.50047E-05-2.80723E-05-2.86868E-05 2.47556E-07 8.42322E-19 2.12940E-18
 -1      4055 9.49555E-05-2.79885E-05-2.86997E-05 3.07368E-07 5.11233E-19 1.75991E-18
 -1      4056 9.48666E-05-2.78811E-05-2.87065E-05 2.87485E-07-2.99807E-19 3.36731E-18
 -1      4057 9.50951E-05-2.82155E-05-2.86638E-05 1.61218E-07 2.01985E-19 1.03071E-18
 -1      4058 9.50606E-05-2.81509E-05-2.86752E-05 2.05805E-07 1.38475E-18 1.00598E-18
 -1      4059 9.49988E-05-2.80699E-05-2.86827E-05 1.94641E-07 1.17661E-18 4.14292E-18
 -1      4060 9.51570E-05-2.83240E-05-2.86435E-05 9.81649E-08-3.27896E-19 1.27740E-18
 -1      4061 9.51338E-05-2.82750E-05-2.86534E-05 1.30690E-07-5.38006E-19 8.70974E-19
 -1      4062 9.50923E-05-2.82154E-05-2.86607E-05 1.26143E-07-8.42615E-20 2.49434E-18
 -1      4063 9.51925E-05-2.83950E-05-2.86280E-05 5.68377E-08-3.53603E-19 2.15651E-19
 -1      4064 9.51771E-05-2.83574E-05-2.86365E-05 7.97956E-08 3.76245E-19 8.95486E-19
 -1      4065 9.51490E-05-2.83142E-05-2.86433E-05 7.86918E-08 4.81789E-19 1.60696E-18
 -1      4066 9.51832E-05-2.83810E-05-2.86299E-05 4.72639E-08 7.08956E-19-7.37468E-20
 -1      4067 7.35367E-05-1.86014E-05-2.35817E-05-9.89053E-06 2.90532E-19 3.62515E-19
 -1      4068 9.15153E-05-2.67210E-05-2.77894E-05-1.12106E-05-9.78714E-20-5.73257E-19
 -1      4069 9.34651E-05-2.73421E-05-2.83115E-05-1.04123E-05-2.03087E-19-6.08387E-19
 -1      4070 9.29241E-05-2.63116E-05-2.85474E-05-9.56965E-06-1.91481E-19-4.21317E-19
 -1      4071 9.12766E-05-2.10357E-05-3.00918E-05-3.52295E-06 2.21505E-19-6.76911E-19
 -1      4072 9.52101E-05-2.84387E-05-2.86163E-05-2.25836E-08 1.06868E-19-5.78875E-19
 -1      4073 6.53672E-05-1.57440E-05-2.09606E-05 7.27410E-06 6.05941E-19-2.20690E-18
 -1      4074 6.18601E-05-1.50040E-05-2.01371E-05 2.29896E-06 3.55267E-19-2.23367E-18
 -1      4075 5.86708E-05-1.43536E-05-1.87033E-05-4.53166E-06-1.16310E-19-2.40107E-18
 -1      4076 6.42709E-05-1.64301E-05-2.04014E-05-8.01717E-06-1.93416E-19-1.81125E-18
 -1      4077 6.59826E-05-1.57804E-05-2.15269E-05 2.60706E-06 3.67796E-19-2.08107E-18
 -1      4078 8.10878E-05-1.96324E-05-2.63391E-05-6.22130E-06 7.90805E-19-3.01726E-19
 -1      4079 8.23253E-05-1.98947E-05-2.67960E-05-5.43316E-06 7.03339E-19-5.16388E-21
 -1      4080 8.38788E-05-2.03838E-05-2.72213E-05-4.92694E-06 6.00407E-19 7.06317E-20
 -1      4081 8.49557E-05-2.07792E-05-2.75335E-05-4.39130E-06 2.56239E-19 9.28415E-20
 -1      4082 8.47939E-05-2.04984E-05-2.75160E-05-3.03120E-06 2.66132E-19-1.06294E-18
 -1      4083 8.20216E-05-1.93950E-05-2.67883E-05-3.69354E-06 6.94978E-19-1.73672E-18
 -1      4084 7.77759E-05-1.91453E-05-2.50966E-05-8.02245E-06-9.05333E-20-1.67457E-19
 -1      4085 7.90980E-05-1.92392E-05-2.57167E-05-6.89657E-06 6.11930E-19 1.84851E-19
 -1      4086 7.86152E-05-1.84411E-05-2.57286E-05-4.63661E-06 2.78367E-19-5.73748E-19
 -1      4087 9.10707E-05-2.16444E-05-2.97592E-05-4.37928E-06 1.52628E-19-5.93728E-19
 -1      4088 9.03244E-05-2.07670E-05-2.98022E-05-3.83264E-06 1.33052E-19-5.09781E-19
 -1      4089 9.09716E-05-2.22353E-05-2.94534E-05-5.32168E-06 8.38423E-20-4.82810E-19
 -1      4090 7.24951E-05-1.72446E-05-2.36252E-05-6.72617E-06 2.68635E-19-2.92031E-19
 -1      4091 8.17657E-05-1.96040E-05-2.66947E-05 6.73951E-06 5.52151E-20-7.34357E-19
 -1      4092 8.03443E-05-1.96072E-05-2.60346E-05 7.80384E-06 1.52297E-19-7.86653E-19
 -1      4093 7.72847E-05-1.81587E-05-2.52506E-05 5.83092E-06 1.84302E-19-1.07256E-18
 -1      4094 8.88672E-05-1.90441E-05-2.99291E-05 2.09452E-06-2.08624E-19-1.24294E-18
 -1      4095 8.79962E-05-1.86853E-05-2.96961E-05 1.55403E-06 7.10176E-21-1.18351E-18
 -1      4096 8.85832E-05-1.83635E-05-3.00674E-05-1.32659E-06-1.05945E-20-8.63404E-19
 -1      4097 8.14265E-05-1.87761E-05-2.67937E-05 4.51314E-06-1.17869E-20-1.01088E-18
 -1      4098 9.14282E-05-2.49552E-05-2.84961E-05-8.95239E-06-1.55919E-20-5.08508E-19
 -1      4099 8.76785E-05-1.84996E-05-2.96675E-05 4.53386E-07-1.46289E-19-1.04831E-18
 -1      4100 8.72905E-05-1.89211E-05-2.92912E-05 1.18047E-06-1.03913E-20-1.09919E-18
 -1      4101 8.76331E-05-1.84365E-05-2.96599E-05-3.25281E-07-3.96643E-20-8.66218E-19
 -1      4102 7.21026E-05-1.67144E-05-2.37978E-05-2.96565E-06-1.02359E-19-2.70457E-19
 -1      4103 8.94062E-05-2.57050E-05-2.72666E-05-1.13592E-05-1.70085E-19-4.52761E-19
 -1      4104 8.91482E-05-2.47048E-05-2.76412E-05-1.01693E-05-4.32274E-20-3.63166E-19
 -1      4105 8.27969E-05-2.70501E-05-2.38085E-05 1.81938E-05-1.26848E-18 1.15024E-18
 -1      4106 7.86332E-05-2.33142E-05-2.37927E-05 1.47455E-05-6.92277E-19 7.48577E-19
 -1      4107 7.42716E-05-2.38276E-05-2.14463E-05-1.95838E-05-7.55130E-19-9.17694E-19
 -1      4108 8.05935E-05-2.68470E-05-2.29575E-05-1.95900E-05-7.53800E-19-1.78439E-19
 -1      4109 7.12027E-05-2.12431E-05-2.14253E-05-1.63204E-05-6.97717E-19-1.30824E-18
 -1      4110 8.80765E-05-2.81684E-05-2.57054E-05 1.47591E-05-3.67440E-19 1.60315E-18
 -1      4111 8.97685E-05-3.04071E-05-2.53779E-05 1.63673E-05-3.05422E-19 1.12813E-18
 -1      4112 8.94273E-05-2.00325E-05-2.97589E-05-3.27567E-06 8.23355E-20-6.97156E-19
 -1      4113 8.99044E-05-2.83426E-05-2.63489E-05-1.45131E-05-2.22426E-19-3.62214E-19
 -1      4114 8.90103E-05-2.66939E-05-2.67456E-05-1.29880E-05-1.45729E-19-3.85118E-19
 -1      4115 8.65470E-05-2.44644E-05-2.65766E-05-1.18539E-05-1.45537E-19-4.15835E-19
 -1      4116 8.85505E-05-3.16640E-05-2.44316E-05 1.91348E-05-9.98086E-19 5.43888E-19
 -1      4117 9.52109E-05-2.84449E-05-2.86143E-05-1.03277E-08 9.98198E-19 6.10030E-19
 -1      4118 8.76254E-05-2.57133E-05-2.65617E-05 1.15934E-05-2.92000E-19 1.56671E-18
 -1      4119 8.83385E-05-2.70163E-05-2.62322E-05 1.29315E-05-3.25133E-19 1.36848E-18
 -1      4120 8.44101E-05-2.51965E-05-2.53490E-05 1.37464E-05-5.03356E-19 2.29166E-18
 -1      4121 8.52649E-05-2.37742E-05-2.63435E-05 1.05620E-05-1.15854E-19 2.36902E-18
 -1      4122 9.76313E-05-3.85055E-05-2.52926E-05 1.96376E-05-9.03232E-19-3.90684E-19
 -1      4123 7.27778E-05-1.87502E-05-2.31920E-05 9.64170E-06-2.46316E-19 9.30691E-19
 -1      4124 6.86689E-05-1.65245E-05-2.21996E-05 7.09533E-06-2.92380E-19 1.43091E-18
 -1      4125 6.98446E-05-1.63131E-05-2.29521E-05 3.38351E-06-4.06410E-19 4.37261E-19
 -1      4126 9.51690E-05-2.83609E-05-2.86322E-05 2.06915E-08 1.49865E-18-2.32791E-18
 -1      4127 9.51742E-05-2.83690E-05-2.86312E-05 3.26051E-08 1.45125E-18-9.07284E-19
 -1      4128 9.51593E-05-2.83367E-05-2.86377E-05 4.58991E-08 1.24318E-18-2.88336E-19
 -1      4129 9.51665E-05-2.83561E-05-2.86327E-05-1.03995E-08 1.18754E-18-1.69346E-18
 -1      4130 9.51665E-05-2.83581E-05-2.86326E-05 3.38580E-09 1.39401E-18-1.57129E-18
 -1      4131 9.51486E-05-2.83226E-05-2.86392E-05 9.13633E-09 1.09040E-18-1.68323E-18
 -1      4132 9.51836E-05-2.83845E-05-2.86281E-05-2.52184E-08 8.05277E-19-7.53515E-19
 -1      4133 8.72355E-05-3.04810E-05-2.42773E-05-1.94266E-05-7.88131E-19-3.29397E-19
 -1      4134 8.86948E-05-2.89694E-05-2.56526E-05-1.62128E-05-3.52425E-19-3.92262E-19
 -1      4135 9.04749E-05-2.32644E-05-2.87928E-05-7.18626E-06-2.05714E-20-5.37496E-19
 -1      4136 9.06070E-05-2.27116E-05-2.91053E-05-6.21757E-06 5.91361E-20-4.21753E-19
 -1      4137 8.97266E-05-2.18310E-05-2.91091E-05-5.60148E-06 1.36759E-20-5.32351E-19
 -1      4138 8.46838E-05-1.90533E-05-2.81570E-05 1.70184E-06-1.91533E-19-1.19832E-18
 -1      4139 8.33079E-05-1.89012E-05-2.76366E-05 2.00242E-06-2.08903E-19-1.16462E-18
 -1      4140 7.74307E-05-1.79301E-05-2.55619E-05 2.48848E-06-3.94209E-20-1.07132E-18
 -1      4141 7.49359E-05-1.75424E-05-2.46460E-05 3.00202E-06 1.24070E-19-1.29067E-18
 -1      4142 8.65754E-05-1.90350E-05-2.89659E-05 1.30509E-06 5.83950E-20-1.20285E-18
 -1      4143 8.56145E-05-1.90820E-05-2.85275E-05 1.59897E-06-3.29801E-20-1.23068E-18
 -1      4144 8.48463E-05-1.88726E-05-2.82303E-05 1.65688E-07-1.64164E-19-1.19013E-18
 -1      4145 8.63860E-05-1.88459E-05-2.89338E-05 1.04744E-07-1.09692E-20-9.80306E-19
 -1      4146 8.80278E-05-2.21988E-05-2.82255E-05-1.35574E-06 1.99761E-19-1.11854E-18
 -1      4147 8.88419E-05-2.26989E-05-2.83582E-05-1.22442E-06-1.81815E-19-1.60673E-18
 -1      4148 8.96034E-05-2.31922E-05-2.84717E-05-1.17652E-06 1.42893E-19-1.78364E-18
 -1      4149 9.02626E-05-2.36555E-05-2.85548E-05-1.05251E-06-2.48495E-20-1.91771E-18
 -1      4150 8.90723E-05-2.28066E-05-2.83715E-05-4.36088E-07-4.42418E-21-1.90888E-18
 -1      4151 9.08815E-05-2.41065E-05-2.86252E-05-9.99156E-07-4.92883E-19-2.04344E-18
 -1      4152 9.14129E-05-2.45247E-05-2.86735E-05-8.83168E-07-1.02835E-18-1.63437E-18
 -1      4153 9.04417E-05-2.37553E-05-2.85578E-05-4.26371E-07-3.15360E-19-2.66666E-18
 -1      4154 9.19126E-05-2.49267E-05-2.87138E-05-8.29347E-07-1.48672E-18-8.00950E-19
 -1      4155 9.23372E-05-2.52947E-05-2.87383E-05-7.23546E-07-1.24376E-18-1.59914E-18
 -1      4156 9.15527E-05-2.46142E-05-2.86705E-05-3.88904E-07-9.08759E-19-2.02999E-18
 -1      4157 9.27366E-05-2.56445E-05-2.87579E-05-6.72790E-07-7.55906E-19-1.56900E-18
 -1      4158 9.30720E-05-2.59609E-05-2.87665E-05-5.78979E-07-1.63722E-19-2.57171E-18
 -1      4159 9.24462E-05-2.53730E-05-2.87320E-05-3.37224E-07-1.22092E-18-1.73916E-18
 -1      4160 9.33872E-05-2.62586E-05-2.87724E-05-5.33503E-07 6.08743E-19-2.29954E-18
 -1      4161 9.36486E-05-2.65248E-05-2.87710E-05-4.52596E-07 9.15013E-19-2.19541E-18
 -1      4162 9.31567E-05-2.60280E-05-2.87588E-05-2.80835E-07 1.59888E-19-1.85875E-18
 -1      4163 9.38939E-05-2.67730E-05-2.87683E-05-4.13494E-07-1.96842E-20-1.80782E-18
 -1      4164 9.40948E-05-2.69927E-05-2.87609E-05-3.45498E-07-8.20200E-19-1.30866E-18
 -1      4165 9.37141E-05-2.65815E-05-2.87629E-05-2.25934E-07 4.40716E-19-1.72243E-18
 -1      4166 9.42826E-05-2.71957E-05-2.87531E-05-3.13020E-07-9.24880E-19-1.96690E-18
 -1      4167 9.44345E-05-2.73736E-05-2.87426E-05-2.57222E-07-9.35855E-19-1.35536E-18
 -1      4168 9.41449E-05-2.70398E-05-2.87531E-05-1.76141E-07-9.09045E-19-1.03846E-18
 -1      4169 9.45758E-05-2.75366E-05-2.87322E-05-2.31050E-07-7.56308E-19-1.41500E-18
 -1      4170 9.46885E-05-2.76782E-05-2.87204E-05-1.86262E-07 3.35471E-19-1.16510E-18
 -1      4171 9.44725E-05-2.74122E-05-2.87355E-05-1.33210E-07-6.99513E-19-2.53959E-19
 -1      4172 9.47928E-05-2.78068E-05-2.87091E-05-1.65731E-07 6.20034E-19-1.48826E-18
 -1      4173 9.48749E-05-2.79176E-05-2.86972E-05-1.30513E-07 5.37767E-19-9.86651E-19
 -1      4174 9.47169E-05-2.77094E-05-2.87142E-05-9.76527E-08 3.82366E-19-1.18902E-18
 -1      4175 9.49500E-05-2.80172E-05-2.86860E-05-1.14686E-07 9.34472E-19-1.61277E-18
 -1      4176 9.50085E-05-2.81027E-05-2.86747E-05-8.72909E-08 1.05326E-18-1.33764E-18
 -1      4177 9.48953E-05-2.79424E-05-2.86918E-05-6.92672E-08 7.06803E-19-2.81587E-18
 -1      4178 9.50611E-05-2.81786E-05-2.86642E-05-7.64900E-08 8.24998E-19-5.19098E-19
 -1      4179 9.51006E-05-2.82430E-05-2.86540E-05-5.51334E-08 8.04177E-19-6.76049E-19
 -1      4180 9.50236E-05-2.81263E-05-2.86701E-05-4.60488E-08 7.30867E-19-1.95137E-18
 -1      4181 9.51377E-05-2.83019E-05-2.86440E-05-4.06922E-08 1.05607E-18-6.50638E-19
 -1      4182 9.51641E-05-2.83505E-05-2.86349E-05-2.66452E-08 1.26892E-18-1.02479E-18
 -1      4183 8.94711E-05-2.33176E-05-2.83694E-05 2.92725E-06-7.93559E-19 2.82463E-19
 -1      4184 8.89307E-05-2.30072E-05-2.82495E-05 3.35129E-06-7.27551E-19-3.71731E-19
 -1      4185 8.81247E-05-2.26620E-05-2.80794E-05 3.80935E-06-9.00325E-19-2.24429E-19
 -1      4186 8.75379E-05-2.24281E-05-2.79024E-05 4.35917E-06-1.02545E-18 4.47605E-19
 -1      4187 8.78788E-05-2.23023E-05-2.80686E-05 2.88766E-06-9.63693E-19-1.97784E-18
 -1      4188 7.21145E-05-1.64724E-05-2.37670E-05-3.19849E-07-8.99609E-20 2.78197E-20
 -1      4189 7.61134E-05-1.76374E-05-2.50535E-05-2.66048E-06 2.64814E-19 2.62001E-19
 -1      4190 7.78881E-05-1.81312E-05-2.56845E-05-2.25658E-06-1.91377E-19-2.61359E-19
 -1      4191 7.37565E-05-1.72933E-05-2.42856E-05 3.07852E-06-4.73627E-19 2.32398E-19
 -1      4192 8.83061E-05-1.90139E-05-2.96883E-05-2.11363E-06 1.11564E-19-8.40286E-19
 -1      4193 8.78476E-05-1.86764E-05-2.96714E-05-1.39591E-06 8.20770E-21-8.64553E-19
 -1      4194 8.72666E-05-1.89258E-05-2.92712E-05-1.09521E-06-1.40472E-20-8.05996E-19
 -1      4195 7.23333E-05-1.70050E-05-2.37505E-05 2.94441E-06 2.22981E-19-1.59741E-18
 -1      4196 6.94325E-05-1.64365E-05-2.27585E-05 2.85755E-06 3.52066E-19-1.79654E-18
 -1      4197 6.76284E-05-1.57919E-05-2.20483E-05-1.74673E-06 9.83418E-20-1.85239E-18
 -1      4198 7.34773E-05-1.68745E-05-2.41528E-05-5.66757E-07-8.01257E-20-1.32759E-18
 -1      4199 8.48851E-05-2.18721E-05-2.70562E-05 6.57933E-06-2.31922E-19 1.11644E-18
 -1      4200 8.43218E-05-2.19832E-05-2.67068E-05 7.55485E-06-9.53632E-20 2.19926E-18
 -1      4201 9.06399E-05-2.40344E-05-2.85592E-05 2.25588E-06-4.71159E-19 1.22173E-19
 -1      4202 9.01568E-05-2.36953E-05-2.84823E-05 2.58875E-06-7.51355E-19 9.06141E-20
 -1      4203 8.93464E-05-2.31066E-05-2.83589E-05 2.17765E-06-5.02783E-19-2.08366E-18
 -1      4204 9.16315E-05-2.47468E-05-2.86759E-05 1.73468E-06 6.70780E-20-2.06917E-19
 -1      4205 9.12149E-05-2.44098E-05-2.86305E-05 1.99919E-06-1.39690E-19 2.98581E-19
 -1      4206 9.05818E-05-2.39142E-05-2.85481E-05 1.64935E-06-1.70178E-19-1.65198E-18
 -1      4207 9.24575E-05-2.54166E-05-2.87406E-05 1.32625E-06-2.10346E-19 6.03099E-20
 -1      4208 9.21078E-05-2.51007E-05-2.87174E-05 1.53783E-06-1.43302E-19 7.68041E-20
 -1      4209 9.16125E-05-2.46844E-05-2.86645E-05 1.24880E-06-1.80412E-19-2.22053E-18
 -1      4210 9.31328E-05-2.60205E-05-2.87694E-05 1.00527E-06-1.83111E-19 6.42907E-19
 -1      4211 9.28461E-05-2.57367E-05-2.87614E-05 1.17462E-06-1.48974E-19 2.82345E-19
 -1      4212 9.24603E-05-2.53899E-05-2.87294E-05 9.42038E-07-2.40520E-19-2.11604E-18
 -1      4213 9.36747E-05-2.65472E-05-2.87744E-05 7.53436E-07-2.42123E-19 1.40861E-18
 -1      4214 9.34447E-05-2.63007E-05-2.87762E-05 8.88469E-07-2.18789E-21 6.66210E-19
 -1      4215 9.31468E-05-2.60152E-05-2.87589E-05 7.05892E-07 1.40890E-19-1.39032E-18
 -1      4216 9.41016E-05-2.69942E-05-2.87646E-05 5.56851E-07 8.68167E-19 1.61541E-18
 -1      4217 9.39210E-05-2.67859E-05-2.87723E-05 6.63757E-07 4.67981E-19 1.73121E-18
 -1      4218 9.36934E-05-2.65539E-05-2.87649E-05 5.23902E-07 8.04569E-20-2.86937E-19
 -1      4219 9.44315E-05-2.73644E-05-2.87464E-05 4.04574E-07 8.58205E-19 4.57502E-19
 -1      4220 9.42925E-05-2.71926E-05-2.87572E-05 4.88415E-07 8.63793E-19 1.31219E-18
 -1      4221 9.41210E-05-2.70068E-05-2.87562E-05 3.83970E-07 8.13810E-19-7.67148E-19
 -1      4222 9.46813E-05-2.76645E-05-2.87241E-05 2.87770E-07-1.02122E-18 1.48452E-18
 -1      4223 9.45767E-05-2.75257E-05-2.87362E-05 3.52788E-07-4.37467E-19 1.38747E-18
 -1      4224 9.44495E-05-2.73792E-05-2.87391E-05 2.76934E-07-2.46105E-20 7.78525E-19
 -1      4225 9.48664E-05-2.79028E-05-2.87006E-05 1.99205E-07-3.80358E-19 2.25839E-18
 -1      4226 9.47896E-05-2.77931E-05-2.87127E-05 2.49010E-07-1.03535E-18 2.03247E-18
 -1      4227 9.46969E-05-2.76794E-05-2.87180E-05 1.95704E-07-1.62163E-18 6.58993E-19
 -1      4228 9.50003E-05-2.80886E-05-2.86778E-05 1.32904E-07 9.55187E-19 2.95582E-18
 -1      4229 9.49452E-05-2.80033E-05-2.86893E-05 1.70562E-07 9.28196E-19 2.75651E-18
 -1      4230 9.48793E-05-2.79166E-05-2.86955E-05 1.34758E-07-6.75857E-19 5.91265E-19
 -1      4231 9.50951E-05-2.82310E-05-2.86567E-05 8.47971E-08 5.90885E-19 1.67671E-18
 -1      4232 9.50564E-05-2.81666E-05-2.86671E-05 1.11326E-07 1.47916E-18 3.02263E-18
 -1      4233 9.50094E-05-2.81004E-05-2.86736E-05 8.93291E-08 9.98419E-19 5.86890E-19
 -1      4234 8.09674E-05-2.32929E-05-2.47034E-05 1.31290E-05-5.82828E-19 1.36035E-18
 -1      4235 7.62945E-05-2.04848E-05-2.37982E-05 1.18559E-05-7.78871E-19 3.99546E-19
 -1      4236 7.55924E-05-1.92351E-05-2.41405E-05 8.61406E-06-8.01624E-19 3.65662E-19
 -1      4237 8.13869E-05-2.25358E-05-2.52915E-05 1.12705E-05-5.36926E-19 1.06540E-18
 -1      4238 8.87358E-05-2.01892E-05-2.93669E-05-3.51341E-06 8.49614E-20-6.66135E-19
 -1      4239 8.16267E-05-1.86443E-05-2.70316E-05 2.06088E-06-1.98346E-20-9.90726E-19
 -1      4240 7.97773E-05-1.83474E-05-2.63653E-05 2.42628E-06 4.10397E-20-1.02722E-18
 -1      4241 8.22204E-05-1.84531E-05-2.72483E-05 1.02349E-07-1.78464E-20-1.05099E-18
 -1      4242 8.66099E-05-2.21244E-05-2.76607E-05 4.93357E-06-1.02250E-18 6.05882E-19
 -1      4243 8.59895E-05-2.19916E-05-2.74094E-05 5.68881E-06-6.51783E-19 1.12333E-18
 -1      4244 8.41569E-05-2.09600E-05-2.70381E-05 5.05904E-06-1.22910E-19 7.62809E-20
 -1      4245 8.62136E-05-2.16445E-05-2.76441E-05 3.84155E-06-8.47533E-19-5.24965E-19
 -1      4246 8.60838E-05-2.11431E-05-2.78481E-05-1.53563E-06-4.53882E-20-1.44402E-19
 -1      4247 8.70905E-05-2.16710E-05-2.80513E-05-1.39134E-06 3.15161E-19-6.45508E-19
 -1      4248 8.73919E-05-2.17838E-05-2.80812E-05-3.99201E-07-2.51157E-19-8.51396E-19
 -1      4249 8.50201E-05-2.58804E-05-2.52930E-05-1.50585E-05-2.78554E-19-1.14024E-19
 -1      4250 8.97809E-05-2.42570E-05-2.80648E-05-9.08806E-06-5.89058E-20-4.46573E-19
 -1      4251 8.99288E-05-2.36111E-05-2.84328E-05-8.04733E-06-1.20114E-19-5.30854E-19
 -1      4252 8.88194E-05-2.25848E-05-2.83771E-05-7.30913E-06-1.06396E-19-6.21759E-19
 -1      4253 8.76132E-05-2.32417E-05-2.75651E-05-9.20810E-06-8.79918E-20-3.82373E-19
 -1      4254 6.70109E-05-1.65483E-05-2.16800E-05-6.33441E-06-2.18905E-20-1.67953E-18
 -1      4255 6.83114E-05-1.80525E-05-2.13797E-05-1.18091E-05-4.02963E-19-1.53541E-18
 -1      4256 7.05727E-05-1.71140E-05-2.29047E-05-5.39811E-06-1.31037E-19-1.45267E-18
 -1      4257 8.83489E-05-2.14587E-05-2.86640E-05-5.69328E-06 5.22964E-21-6.95213E-19
 -1      4258 8.87788E-05-2.10096E-05-2.90355E-05-4.81112E-06 7.07849E-21-7.18777E-19
 -1      4259 8.74208E-05-1.99571E-05-2.89339E-05-3.51844E-06 2.01439E-20-6.13361E-19
 -1      4260 8.76914E-05-2.17341E-05-2.82849E-05-6.48625E-06-8.97818E-20-7.13855E-19
 -1      4261 8.09570E-05-2.35145E-05-2.45910E-05-1.38564E-05-4.57960E-19-1.17853E-19
 -1      4262 8.21563E-05-2.31748E-05-2.53564E-05-1.24904E-05-3.95273E-19-2.52437E-19
 -1      4263 7.39580E-05-2.09598E-05-2.26235E-05-1.38049E-05-4.34554E-19-1.02746E-18
 -1      4264 8.37931E-05-2.78700E-05-2.38462E-05-1.89905E-05-6.28788E-19-1.44882E-19
 -1      4265 9.51124E-05-2.82625E-05-2.86494E-05-2.29749E-08 8.17907E-19-9.44683E-19
 -1      4266 7.79031E-05-1.78776E-05-2.56375E-05 3.69537E-07-5.70065E-19 5.78735E-19
 -1      4267 8.01020E-05-1.87800E-05-2.62853E-05-1.56983E-06-1.70996E-19-5.05678E-19
 -1      4268 9.51399E-05-2.83064E-05-2.86434E-05 5.45805E-08 9.96888E-19-4.06936E-20
 -1      4269 9.51193E-05-2.82674E-05-2.86506E-05 7.21670E-08 5.56046E-19 1.02247E-18
 -1      4270 9.50884E-05-2.82205E-05-2.86567E-05 5.79493E-08 1.64623E-18 1.28350E-19
 -1      4271 9.51318E-05-2.82952E-05-2.86446E-05 3.70403E-08 1.11124E-18-1.67107E-18
 -1      4272 9.51179E-05-2.82759E-05-2.86473E-05-2.90644E-09 1.82655E-18 1.99226E-19
 -1      4273 9.51188E-05-2.82768E-05-2.86470E-05 1.90164E-08 1.21005E-18-1.25728E-18
 -1      4274 9.50980E-05-2.82412E-05-2.86529E-05 2.71700E-08 1.74657E-18-1.26845E-18
 -1      4275 9.50826E-05-2.82131E-05-2.86575E-05-1.36389E-08 1.83733E-18-1.21334E-18
 -1      4276 8.03337E-05-2.52080E-05-2.36425E-05-1.71918E-05-4.36015E-19-4.88864E-20
 -1      4277 8.16225E-05-1.92808E-05-2.67368E-05-1.41112E-06 4.67311E-19-7.89606E-19
 -1      4278 8.36447E-05-2.00521E-05-2.72898E-05-1.71375E-06 5.85042E-19-1.15795E-18
 -1      4279 8.49236E-05-2.06137E-05-2.75867E-05-1.56385E-06 3.17370E-19-7.11624E-19
 -1      4280 8.53202E-05-2.06931E-05-2.76445E-05-3.05941E-07 5.06109E-19-8.10381E-19
 -1      4281 8.37357E-05-2.27862E-05-2.61128E-05-1.06922E-05-2.00863E-19-4.28047E-19
 -1      4282 8.41936E-05-2.20903E-05-2.66885E-05-9.14891E-06-1.60965E-19-5.72131E-19
 -1      4283 8.03241E-05-2.05603E-05-2.55026E-05-9.32613E-06-4.54132E-19-4.67767E-19
 -1      4284 7.77923E-05-2.23179E-05-2.37331E-05-1.44054E-05-3.84724E-19-5.76328E-19
 -1      4285 8.32070E-05-2.19802E-05-2.62975E-05 8.63059E-06-3.77886E-19 2.02483E-18
 -1      4286 8.26400E-05-2.23356E-05-2.58426E-05 9.88734E-06-4.80647E-19 1.87025E-18
 -1      4287 7.97407E-05-2.07356E-05-2.52965E-05 9.22271E-06-1.00638E-18 5.02352E-19
 -1      4288 8.20434E-05-2.05394E-05-2.62498E-05 6.80131E-06-1.14503E-19 1.35929E-18
 -1      4289 7.83122E-05-1.77342E-05-2.58421E-05-2.70126E-07-4.31358E-20-1.00782E-18
 -1      4290 8.32676E-05-2.03710E-05-2.68469E-05-6.95378E-06-2.19661E-19-7.11745E-19
 -1      4291 8.55404E-05-2.20024E-05-2.72451E-05-8.15838E-06-1.86109E-19-5.83501E-19
 -1      4292 8.62793E-05-2.17170E-05-2.76988E-05-7.19146E-06-1.92139E-19-5.76401E-19
 -1      4293 7.47471E-05-1.95402E-05-2.36806E-05-1.01980E-05-2.27101E-19-8.69330E-19
 -1      4294 8.06075E-05-1.91477E-05-2.63943E-05-3.96169E-06-7.78137E-20-8.79938E-19
 -1      4295 7.82647E-05-1.87365E-05-2.55938E-05-4.51111E-06-2.08615E-19-1.01809E-18
 -1      4296 8.89843E-05-2.28957E-05-2.83484E-05 7.74674E-07-2.41295E-19-1.95234E-18
 -1      4297 8.97487E-05-2.33655E-05-2.84626E-05 7.15718E-07 4.16072E-21-2.19642E-18
 -1      4298 7.77826E-05-1.86882E-05-2.53499E-05 4.16170E-06-6.77461E-19-7.41431E-20
 -1      4299 7.98259E-05-1.94123E-05-2.59734E-05 4.36833E-06-1.11691E-19 1.14603E-19
 -1      4300 9.03435E-05-2.37929E-05-2.85410E-05 5.31995E-07 2.88203E-19-2.36296E-18
 -1      4301 9.09652E-05-2.42264E-05-2.86125E-05 5.02346E-07-1.74112E-19-2.27049E-18
 -1      4302 9.14566E-05-2.46209E-05-2.86591E-05 3.63882E-07-7.28140E-19-1.76090E-18
 -1      4303 9.19587E-05-2.50098E-05-2.87004E-05 3.53109E-07-8.88217E-19-1.45653E-18
 -1      4304 9.23591E-05-2.53625E-05-2.87248E-05 2.47765E-07-4.81835E-19-1.40523E-18
 -1      4305 9.27605E-05-2.57026E-05-2.87454E-05 2.48402E-07 4.56775E-20-1.15793E-18
 -1      4306 9.30819E-05-2.60093E-05-2.87547E-05 1.67791E-07 2.47645E-19-6.61164E-19
 -1      4307 9.33987E-05-2.62998E-05-2.87615E-05 1.74665E-07 5.23470E-19-4.10214E-19
 -1      4308 9.36524E-05-2.65599E-05-2.87611E-05 1.12842E-07 4.35205E-19-5.18900E-19
 -1      4309 9.38989E-05-2.68028E-05-2.87592E-05 1.22524E-07 1.17373E-19-1.21201E-18
 -1      4310 9.40958E-05-2.70187E-05-2.87529E-05 7.51553E-08 8.53119E-20-2.69802E-19
 -1      4311 9.42845E-05-2.72177E-05-2.87457E-05 8.55031E-08-1.87916E-19 3.10046E-19
 -1      4312 9.44345E-05-2.73932E-05-2.87362E-05 4.93522E-08-8.64561E-19 5.89679E-19
 -1      4313 9.45766E-05-2.75532E-05-2.87263E-05 5.91212E-08-6.56847E-19 4.86209E-19
 -1      4314 9.46886E-05-2.76932E-05-2.87154E-05 3.17322E-08-8.70264E-19 2.05239E-19
 -1      4315 9.47934E-05-2.78196E-05-2.87045E-05 4.02523E-08-4.97522E-19-1.06957E-18
 -1      4316 9.48753E-05-2.79292E-05-2.86934E-05 1.98299E-08-1.11603E-19-1.33783E-18
 -1      4317 9.49511E-05-2.80274E-05-2.86824E-05 2.68419E-08 4.17279E-19-1.86014E-18
 -1      4318 9.50722E-05-2.82027E-05-2.86591E-05 4.06428E-08 2.65709E-18-4.28784E-19
 -1      4319 8.82723E-05-2.24495E-05-2.82255E-05 1.02154E-06-2.54946E-19-1.82001E-18
 -1      4320 9.50099E-05-2.81112E-05-2.86718E-05 1.21977E-08 1.89614E-18-1.84851E-18
 -1      4321 8.73350E-05-2.19551E-05-2.80515E-05 1.12438E-06-6.99570E-19-1.25980E-18
 -1      4322 8.64865E-05-2.15100E-05-2.78675E-05 1.46935E-06-5.02729E-19-1.32355E-18
 -1      4323 8.37331E-05-1.94257E-05-2.75840E-05-2.93152E-06-1.52782E-19-6.28986E-19
 -1      4324 8.20323E-05-1.92570E-05-2.69721E-05-3.29913E-06-1.16305E-19-8.14693E-19
 -1      4325 7.65321E-05-1.86961E-05-2.47845E-05-5.68516E-06-3.21906E-19-1.04384E-18
 -1      4326 8.21962E-05-1.93646E-05-2.68428E-05 1.34570E-07 5.10546E-19-2.18548E-19
 -1      4327 8.68130E-05-1.93183E-05-2.89122E-05-2.35595E-06 3.19136E-20-5.39309E-19
 -1      4328 8.64012E-05-1.90168E-05-2.88936E-05-1.16938E-06-9.66532E-20-7.04396E-19
 -1      4329 8.57197E-05-1.90996E-05-2.85577E-05-1.18490E-06-1.20404E-19-8.03338E-19
 -1      4330 8.66958E-05-2.00388E-05-2.85577E-05-3.74650E-06-1.10053E-19-4.65237E-19
 -1      4331 8.52978E-05-2.09406E-05-2.76078E-05 1.65275E-06 1.19479E-19-1.21996E-18
 -1      4332 8.60431E-05-2.06149E-05-2.80207E-05-5.39023E-06-1.92603E-19-6.40143E-19
 -1      4333 8.47280E-05-1.90442E-05-2.81773E-05-1.19227E-06-8.58109E-20-7.43248E-19
 -1      4334 8.10182E-05-1.95736E-05-2.64156E-05 3.48678E-06 9.74729E-20-1.02010E-19
 -1      4335 9.50300E-05-2.81367E-05-2.86678E-05-1.97663E-08 1.98518E-18-2.91429E-18
 -1      4336 7.68580E-05-1.89655E-05-2.47526E-05 7.25571E-06-1.05593E-18 5.99455E-19
 -1      4337 8.30705E-05-2.01729E-05-2.69860E-05 2.67787E-06 3.92813E-19-4.00145E-19
 -1      4338 7.29526E-05-1.73645E-05-2.38176E-05-4.74594E-06-1.74234E-19-1.36622E-18
 -1      4339 8.51823E-05-1.98737E-05-2.79706E-05-4.24707E-06-2.29732E-19-4.23502E-19
 -1      4340 8.42733E-05-2.05825E-05-2.73400E-05 2.08098E-06 2.47075E-19-3.68557E-19
 -3
    1PSTEP                         4           1           1          
  100CL  101 1.000000000        4340                     0    1           1
 -4  ERROR       1    1
 -5  STR(%)      1    1    0    0
 -1         1 1.23137E+01
 -1         2 2.53420E+01
 -1         3 7.17084E-04
 -1         4 7.61578E-04
 -1         5 1.37315E+01
 -1         6 1.28220E+01
 -1         7 1.28220E+01
 -1         8 3.52806E+00
 -1         9 1.82703E+00
 -1        10 1.32655E+00
 -1        11 1.05538E+00
 -1        12 8.70848E-01
 -1        13 7.33246E-01
 -1        14 6.35023E-01
 -1        15 6.46222E-01
 -1        16 7.48382E-01
 -1        17 8.79235E-01
 -1        18 1.07180E+00
 -1        19 1.34813E+00
 -1        20 1.83664E+00
 -1        21 3.38139E+00
 -1        22 8.32767E+00
 -1        23 1.28220E+01
 -1        24 4.22361E+00
 -1        25 3.12453E+00
 -1        26 1.91444E+00
 -1        27 1.41419E+00
 -1        28 1.06462E+00
 -1        29 9.01614E-01
 -1        30 9.45600E-01
 -1        31 1.08768E+00
 -1        32 1.41998E+00
 -1        33 1.64533E+00
 -1        34 1.64533E+00
 -1        35 1.64705E+00
 -1        36 1.64705E+00
 -1        37 2.12055E+00
 -1        38 3.78722E+00
 -1        39 4.84561E+00
 -1        40 4.85217E+00
 -1        41 4.85217E+00
 -1        42 4.34252E+00
 -1        43 2.56453E+00
 -1        44 1.81202E+00
 -1        45 1.66772E+00
 -1        46 1.68722E+00
 -1        47 1.68722E+00
 -1        48 1.55623E+00
 -1        49 1.29744E+00
 -1        50 1.03268E+00
 -1        51 8.14297E-01
 -1        52 6.34560E-01
 -1        53 5.32316E-01
 -1        54 4.30799E-01
 -1        55 3.38592E-01
 -1        56 2.59427E-01
 -1        57 1.94096E-01
 -1        58 1.41783E-01
 -1        59 1.09553E-01
 -1        60 9.01499E-02
 -1        61 7.25594E-02
 -1        62 5.71606E-02
 -1        63 4.40144E-02
 -1        64 3.29909E-02
 -1        65 2.40628E-02
 -1        66 1.96366E-02
 -1        67 1.52477E-02
 -1        68 1.09576E-02
 -1        69 6.89296E-03
 -1        70 5.52449E-03
 -1        71 3.65165E-03
 -1        72 1.37315E+01
 -1        73 3.36726E+00
 -1        74 2.31999E+00
 -1        75 1.55008E+00
 -1        76 1.30141E+00
 -1        77 1.08306E+00
 -1        78 8.79831E-01
 -1        79 7.10076E-01
 -1        80 6.85566E-01
 -1        81 7.29675E-01
 -1        82 8.49981E-01
 -1        83 1.00033E+00
 -1        84 1.18577E+00
 -1        85 1.29876E+00
 -1        86 1.56000E+00
 -1        87 2.18357E+00
 -1        88 2.83433E+00
 -1        89 3.15203E+00
 -1        90 3.26824E+00
 -1        91 3.26824E+00
 -1        92 2.55049E+00
 -1        93 1.52903E+00
 -1        94 1.05817E+00
 -1        95 8.86745E-01
 -1        96 1.03495E+00
 -1        97 1.03495E+00
 -1        98 1.03380E+00
 -1        99 9.30960E-01
 -1       100 7.86550E-01
 -1       101 6.57141E-01
 -1       102 5.23996E-01
 -1       103 4.00980E-01
 -1       104 2.98518E-01
 -1       105 2.36226E-01
 -1       106 1.81466E-01
 -1       107 1.35476E-01
 -1       108 9.82045E-02
 -1       109 6.88825E-02
 -1       110 4.82147E-02
 -1       111 4.04640E-02
 -1       112 3.30096E-02
 -1       113 2.61706E-02
 -1       114 2.00752E-02
 -1       115 1.77546E-02
 -1       116 1.49674E-02
 -1       117 1.17548E-02
 -1       118 8.19959E-03
 -1       119 5.37201E-03
 -1       120 3.47918E-03
 -1       121 1.62860E-03
 -1       122 1.21234E-03
 -1       123 4.82235E-04
 -1       124 5.06903E-04
 -1       125 6.45832E-04
 -1       126 6.86354E-04
 -1       127 6.86354E-04
 -1       128 6.85648E-04
 -1       129 6.92975E-04
 -1       130 6.93738E-04
 -1       131 6.93738E-04
 -1       132 6.59900E-04
 -1       133 5.19665E-04
 -1       134 5.49237E-04
 -1       135 1.61815E-03
 -1       136 2.48479E-03
 -1       137 2.53470E+01
 -1       138 4.71535E+01
 -1       139 4.71535E+01
 -1       140 1.97123E+01
 -1       141 1.18329E+01
 -1       142 1.21920E+01
 -1       143 1.30886E+01
 -1       144 1.30886E+01
 -1       145 1.26865E+01
 -1       146 1.25719E+01
 -1       147 2.66328E+01
 -1       148 2.96131E+01
 -1       149 2.96131E+01
 -1       150 2.49255E+01
 -1       151 2.66475E+01
 -1       152 2.66475E+01
 -1       153 4.32381E+01
 -1       154 4.32381E+01
 -1       155 1.63223E+01
 -1       156 1.20964E+01
 -1       157 1.23137E+01
 -1       158 1.23136E+01
 -1       159 1.20427E+01
 -1       160 1.22663E+01
 -1       161 2.61411E+01
 -1       162 2.94199E+01
 -1       163 2.94199E+01
 -1       164 2.53420E+01
 -1       165 5.83702E+00
 -1       166 2.31235E+00
 -1       167 1.56175E+00
 -1       168 1.19248E+00
 -1       169 9.62829E-01
 -1       170 8.04936E-01
 -1       171 6.88319E-01
 -1       172 6.16933E-01
 -1       173 7.01066E-01
 -1       174 8.16375E-01
 -1       175 9.80319E-01
 -1       176 1.21180E+00
 -1       177 1.58547E+00
 -1       178 2.30060E+00
 -1       179 3.80453E+00
 -1       180 1.37315E+01
 -1       181 4.22361E+00
 -1       182 3.12453E+00
 -1       183 1.91444E+00
 -1       184 1.41419E+00
 -1       185 1.06462E+00
 -1       186 8.16487E-01
 -1       187 9.01614E-01
 -1       188 9.45600E-01
 -1       189 1.09822E+00
 -1       190 1.41998E+00
 -1       191 1.64533E+00
 -1       192 1.62949E+00
 -1       193 1.64705E+00
 -1       194 1.50541E+00
 -1       195 2.25626E+00
 -1       196 3.78722E+00
 -1       197 4.84561E+00
 -1       198 4.85217E+00
 -1       199 4.34252E+00
 -1       200 2.67726E+00
 -1       201 1.81202E+00
 -1       202 1.66772E+00
 -1       203 1.63387E+00
 -1       204 1.68722E+00
 -1       205 1.55623E+00
 -1       206 1.29744E+00
 -1       207 1.08728E+00
 -1       208 9.45250E-01
 -1       209 7.78834E-01
 -1       210 6.13450E-01
 -1       211 4.65183E-01
 -1       212 3.40715E-01
 -1       213 2.62807E-01
 -1       214 2.03020E-01
 -1       215 1.53449E-01
 -1       216 1.13483E-01
 -1       217 9.01499E-02
 -1       218 7.25594E-02
 -1       219 5.71606E-02
 -1       220 4.40144E-02
 -1       221 3.29909E-02
 -1       222 2.48592E-02
 -1       223 1.96366E-02
 -1       224 1.52477E-02
 -1       225 1.09576E-02
 -1       226 7.43279E-03
 -1       227 5.52449E-03
 -1       228 3.65165E-03
 -1       229 3.36726E+00
 -1       230 2.31999E+00
 -1       231 1.55008E+00
 -1       232 1.30141E+00
 -1       233 1.08306E+00
 -1       234 8.79831E-01
 -1       235 7.10076E-01
 -1       236 6.85566E-01
 -1       237 6.60263E-01
 -1       238 7.29675E-01
 -1       239 8.49981E-01
 -1       240 1.00033E+00
 -1       241 1.18577E+00
 -1       242 1.29876E+00
 -1       243 1.56703E+00
 -1       244 2.18357E+00
 -1       245 2.83433E+00
 -1       246 3.15203E+00
 -1       247 3.26824E+00
 -1       248 2.55049E+00
 -1       249 1.52903E+00
 -1       250 1.05817E+00
 -1       251 8.54418E-01
 -1       252 8.86745E-01
 -1       253 1.03495E+00
 -1       254 1.03380E+00
 -1       255 9.30960E-01
 -1       256 7.86550E-01
 -1       257 6.57648E-01
 -1       258 5.40729E-01
 -1       259 4.26460E-01
 -1       260 3.23869E-01
 -1       261 2.37041E-01
 -1       262 1.81466E-01
 -1       263 1.35476E-01
 -1       264 9.93502E-02
 -1       265 7.17958E-02
 -1       266 5.02380E-02
 -1       267 4.04640E-02
 -1       268 3.30096E-02
 -1       269 2.61706E-02
 -1       270 2.00752E-02
 -1       271 1.77546E-02
 -1       272 1.49674E-02
 -1       273 1.17548E-02
 -1       274 8.19959E-03
 -1       275 5.37201E-03
 -1       276 3.47918E-03
 -1       277 1.23539E-03
 -1       278 9.85938E-04
 -1       279 8.45376E-04
 -1       280 1.08843E-03
 -1       281 1.17424E-03
 -1       282 1.17627E-03
 -1       283 1.17627E-03
 -1       284 1.18302E-03
 -1       285 1.19516E-03
 -1       286 1.19911E-03
 -1       287 1.19911E-03
 -1       288 1.12641E-03
 -1       289 8.48972E-04
 -1       290 8.11736E-04
 -1       291 2.30900E-03
 -1       292 2.91320E+01
 -1       293 2.72691E+01
 -1       294 4.71535E+01
 -1       295 2.04571E+01
 -1       296 1.12400E+01
 -1       297 1.18329E+01
 -1       298 1.21920E+01
 -1       299 1.30886E+01
 -1       300 1.26865E+01
 -1       301 1.14947E+01
 -1       302 1.25719E+01
 -1       303 2.86343E+01
 -1       304 2.96131E+01
 -1       305 2.49255E+01
 -1       306 2.96004E+01
 -1       307 2.96004E+01
 -1       308 3.76887E+01
 -1       309 4.32381E+01
 -1       310 1.74713E+01
 -1       311 1.12908E+01
 -1       312 1.20964E+01
 -1       313 1.23137E+01
 -1       314 1.23136E+01
 -1       315 1.20427E+01
 -1       316 1.11166E+01
 -1       317 1.22663E+01
 -1       318 2.77533E+01
 -1       319 3.18294E+01
 -1       320 3.18294E+01
 -1       321 2.91320E+01
 -1       322 1.12487E+00
 -1       323 2.38290E+00
 -1       324 8.20692E-01
 -1       325 6.90736E-01
 -1       326 5.87980E-01
 -1       327 5.05530E-01
 -1       328 5.18523E-01
 -1       329 6.00330E-01
 -1       330 7.06882E-01
 -1       331 8.34230E-01
 -1       332 9.90912E-01
 -1       333 1.20772E+00
 -1       334 1.33568E+00
 -1       335 2.00967E+00
 -1       336 1.66593E+00
 -1       337 1.48171E+00
 -1       338 9.37431E-01
 -1       339 7.01635E-01
 -1       340 5.29396E-01
 -1       341 6.27544E-01
 -1       342 7.32694E-01
 -1       343 8.90251E-01
 -1       344 1.06084E+00
 -1       345 1.20618E+00
 -1       346 1.17557E+00
 -1       347 1.08107E+00
 -1       348 1.27322E+00
 -1       349 1.51921E+00
 -1       350 2.09862E+00
 -1       351 2.77044E+00
 -1       352 3.02218E+00
 -1       353 2.85575E+00
 -1       354 2.40300E+00
 -1       355 1.79663E+00
 -1       356 1.20040E+00
 -1       357 1.13286E+00
 -1       358 1.20580E+00
 -1       359 1.29385E+00
 -1       360 1.24076E+00
 -1       361 1.11074E+00
 -1       362 9.99836E-01
 -1       363 8.62908E-01
 -1       364 7.10520E-01
 -1       365 5.63657E-01
 -1       366 4.33354E-01
 -1       367 3.23896E-01
 -1       368 2.35531E-01
 -1       369 1.66394E-01
 -1       370 1.13732E-01
 -1       371 8.19924E-02
 -1       372 5.90688E-02
 -1       373 4.37438E-02
 -1       374 3.59896E-02
 -1       375 2.87739E-02
 -1       376 2.22764E-02
 -1       377 1.65528E-02
 -1       378 1.24536E-02
 -1       379 9.82150E-03
 -1       380 7.03471E-03
 -1       381 4.80070E-03
 -1       382 3.12014E-03
 -1       383 1.00173E+00
 -1       384 6.90727E-01
 -1       385 6.49155E-01
 -1       386 5.72385E-01
 -1       387 5.40947E-01
 -1       388 5.36346E-01
 -1       389 5.86956E-01
 -1       390 5.86956E-01
 -1       391 5.32284E-01
 -1       392 4.34945E-01
 -1       393 6.90008E-01
 -1       394 1.20282E+00
 -1       395 1.63987E+00
 -1       396 1.73909E+00
 -1       397 1.73909E+00
 -1       398 1.75080E+00
 -1       399 2.00063E+00
 -1       400 1.76461E+00
 -1       401 1.19884E+00
 -1       402 7.48641E-01
 -1       403 4.65010E-01
 -1       404 6.59371E-01
 -1       405 7.33003E-01
 -1       406 7.71423E-01
 -1       407 7.44248E-01
 -1       408 6.67780E-01
 -1       409 5.93961E-01
 -1       410 5.00952E-01
 -1       411 4.04722E-01
 -1       412 3.15022E-01
 -1       413 2.36879E-01
 -1       414 1.75064E-01
 -1       415 1.33653E-01
 -1       416 9.93502E-02
 -1       417 7.17958E-02
 -1       418 5.02380E-02
 -1       419 3.37707E-02
 -1       420 2.52321E-02
 -1       421 2.10949E-02
 -1       422 1.69341E-02
 -1       423 1.29674E-02
 -1       424 9.45225E-03
 -1       425 7.94468E-03
 -1       426 5.99395E-03
 -1       427 4.46525E-03
 -1       428 3.01692E-03
 -1       429 1.47695E-03
 -1       430 1.93958E-03
 -1       431 2.36915E-03
 -1       432 1.49932E-03
 -1       433 1.49932E-03
 -1       434 1.42039E-03
 -1       435 1.35132E-03
 -1       436 1.37932E-03
 -1       437 1.44535E-03
 -1       438 1.54112E-03
 -1       439 1.55119E-03
 -1       440 1.55119E-03
 -1       441 2.63279E-03
 -1       442 2.72691E+01
 -1       443 3.17301E+01
 -1       444 3.06061E+01
 -1       445 1.61621E+01
 -1       446 8.34864E+00
 -1       447 9.69018E-01
 -1       448 1.04932E+01
 -1       449 1.09337E+01
 -1       450 9.33530E+00
 -1       451 8.86891E+00
 -1       452 7.35544E+00
 -1       453 1.10636E+01
 -1       454 1.96005E+01
 -1       455 2.48864E+01
 -1       456 3.30914E+01
 -1       457 3.30914E+01
 -1       458 2.09688E+01
 -1       459 2.58453E+01
 -1       460 1.43967E+01
 -1       461 8.46142E+00
 -1       462 8.70182E+00
 -1       463 1.05106E+01
 -1       464 1.07566E+01
 -1       465 1.00088E+01
 -1       466 8.50639E+00
 -1       467 6.64228E+00
 -1       468 1.13740E+01
 -1       469 1.92652E+01
 -1       470 3.18294E+01
 -1       471 3.17301E+01
 -1       472 7.67460E+00
 -1       473 2.33944E+01
 -1       474 2.35966E+01
 -1       475 9.33530E+00
 -1       476 7.91727E-01
 -1       477 4.81078E-01
 -1       478 5.48262E-01
 -1       479 3.52123E-01
 -1       480 4.19753E-01
 -1       481 4.94135E-01
 -1       482 5.57441E-01
 -1       483 5.85876E-01
 -1       484 7.99202E-01
 -1       485 5.57238E-01
 -1       486 5.93181E-01
 -1       487 7.20939E+00
 -1       488 3.96050E+00
 -1       489 4.01465E-01
 -1       490 3.37123E-01
 -1       491 4.85544E-01
 -1       492 6.64069E-01
 -1       493 8.46204E-01
 -1       494 1.00272E+00
 -1       495 1.17771E+00
 -1       496 1.42176E+00
 -1       497 1.62326E+00
 -1       498 1.84614E+00
 -1       499 2.36204E+00
 -1       500 2.10168E+00
 -1       501 3.58608E+00
 -1       502 6.79190E+00
 -1       503 6.08196E+00
 -1       504 2.77438E+00
 -1       505 2.94368E+00
 -1       506 2.95579E+00
 -1       507 2.21270E+00
 -1       508 1.77908E+00
 -1       509 1.61171E+00
 -1       510 1.39233E+00
 -1       511 1.19026E+00
 -1       512 1.07897E+00
 -1       513 9.30913E-01
 -1       514 7.73510E-01
 -1       515 6.23608E-01
 -1       516 4.90081E-01
 -1       517 3.76465E-01
 -1       518 2.83021E-01
 -1       519 2.08215E-01
 -1       520 1.49694E-01
 -1       521 1.04862E-01
 -1       522 7.12129E-02
 -1       523 4.64894E-02
 -1       524 2.98503E-02
 -1       525 2.02245E-02
 -1       526 1.71945E-02
 -1       527 1.41361E-02
 -1       528 1.10426E-02
 -1       529 8.09400E-03
 -1       530 5.85378E-03
 -1       531 4.27531E-03
 -1       532 3.32156E-01
 -1       533 3.94491E-01
 -1       534 4.66302E-01
 -1       535 5.64548E-01
 -1       536 6.32263E-01
 -1       537 6.34992E-01
 -1       538 7.73156E-01
 -1       539 8.55365E-01
 -1       540 1.13007E+00
 -1       541 1.41756E+00
 -1       542 1.64467E+00
 -1       543 1.98961E+00
 -1       544 1.76835E+00
 -1       545 1.93314E+00
 -1       546 1.58324E+00
 -1       547 1.32366E+00
 -1       548 1.00048E+00
 -1       549 8.42877E-01
 -1       550 7.30018E-01
 -1       551 7.65091E-01
 -1       552 7.68768E-01
 -1       553 7.16025E-01
 -1       554 6.65049E-01
 -1       555 5.96721E-01
 -1       556 5.16510E-01
 -1       557 4.28467E-01
 -1       558 3.42975E-01
 -1       559 2.65975E-01
 -1       560 2.00183E-01
 -1       561 1.46198E-01
 -1       562 1.03363E-01
 -1       563 7.03790E-02
 -1       564 4.73012E-02
 -1       565 3.30464E-02
 -1       566 2.52321E-02
 -1       567 2.10949E-02
 -1       568 1.69341E-02
 -1       569 1.29674E-02
 -1       570 9.32404E-03
 -1       571 7.31482E-03
 -1       572 5.30277E-03
 -1       573 3.62282E-03
 -1       574 1.82212E-03
 -1       575 1.55088E-03
 -1       576 3.01250E-03
 -1       577 2.05990E-03
 -1       578 1.35132E-03
 -1       579 1.34242E-03
 -1       580 1.37932E-03
 -1       581 1.59302E-03
 -1       582 1.86587E-03
 -1       583 1.93538E-03
 -1       584 2.10282E-03
 -1       585 1.45743E+01
 -1       586 3.17301E+01
 -1       587 4.09828E-01
 -1       588 3.06061E+01
 -1       589 6.92700E+00
 -1       590 5.10707E+00
 -1       591 9.08524E+00
 -1       592 4.52170E+00
 -1       593 2.48864E+01
 -1       594 8.61355E-01
 -1       595 4.07261E-01
 -1       596 6.30046E+00
 -1       597 6.66033E+00
 -1       598 9.73888E+00
 -1       599 4.43849E+00
 -1       600 1.75939E+01
 -1       601 1.52130E+01
 -1       602 3.30914E+01
 -1       603 7.74865E+00
 -1       604 1.10232E+01
 -1       605 9.43328E+00
 -1       606 6.79190E+00
 -1       607 8.12149E+00
 -1       608 6.30032E+00
 -1       609 3.88301E+00
 -1       610 5.70116E+00
 -1       611 1.24844E+01
 -1       612 2.00457E+01
 -1       613 1.14619E+00
 -1       614 5.48262E-01
 -1       615 4.86977E+00
 -1       616 2.78860E-03
 -1       617 1.80486E+01
 -1       618 2.11418E+01
 -1       619 5.88975E-01
 -1       620 1.82689E+01
 -1       621 7.42496E+00
 -1       622 3.43907E-01
 -1       623 2.77249E-01
 -1       624 4.51736E-01
 -1       625 4.97973E-01
 -1       626 4.64462E-01
 -1       627 3.57698E+00
 -1       628 4.23309E-01
 -1       629 4.51941E-01
 -1       630 5.93037E-01
 -1       631 7.82965E-01
 -1       632 1.01221E+00
 -1       633 1.26782E+00
 -1       634 1.52488E+00
 -1       635 2.01136E+00
 -1       636 2.48752E+00
 -1       637 3.07384E+00
 -1       638 4.05077E+00
 -1       639 6.08196E+00
 -1       640 2.94368E+00
 -1       641 2.93894E+00
 -1       642 2.27986E+00
 -1       643 1.78165E+00
 -1       644 1.48962E+00
 -1       645 1.24549E+00
 -1       646 1.01768E+00
 -1       647 8.19601E-01
 -1       648 6.50430E-01
 -1       649 5.10172E-01
 -1       650 3.94916E-01
 -1       651 3.01413E-01
 -1       652 2.26553E-01
 -1       653 1.67443E-01
 -1       654 1.21441E-01
 -1       655 8.61892E-02
 -1       656 5.96204E-02
 -1       657 3.99625E-02
 -1       658 2.57236E-02
 -1       659 1.56701E-02
 -1       660 9.74994E-03
 -1       661 8.24178E-03
 -1       662 6.96703E-03
 -1       663 5.43759E-03
 -1       664 3.87870E-03
 -1       665 4.83961E-01
 -1       666 3.86940E-01
 -1       667 7.32144E-01
 -1       668 8.62454E-01
 -1       669 9.36828E-01
 -1       670 1.22445E+00
 -1       671 1.49340E+00
 -1       672 1.62662E+00
 -1       673 1.63632E+00
 -1       674 2.25263E+00
 -1       675 3.29939E+00
 -1       676 2.74846E+00
 -1       677 2.04876E+00
 -1       678 1.70540E+00
 -1       679 1.64704E+00
 -1       680 1.38683E+00
 -1       681 1.16879E+00
 -1       682 1.04020E+00
 -1       683 9.59206E-01
 -1       684 8.38039E-01
 -1       685 7.19361E-01
 -1       686 6.46827E-01
 -1       687 5.57390E-01
 -1       688 4.64258E-01
 -1       689 3.75748E-01
 -1       690 2.96435E-01
 -1       691 2.28335E-01
 -1       692 1.71796E-01
 -1       693 1.26165E-01
 -1       694 9.02510E-02
 -1       695 6.26501E-02
 -1       696 4.19380E-02
 -1       697 2.67868E-02
 -1       698 1.64948E-02
 -1       699 1.18428E-02
 -1       700 1.02974E-02
 -1       701 8.38882E-03
 -1       702 6.35479E-03
 -1       703 4.42240E-03
 -1       704 3.54203E-03
 -1       705 1.22843E-03
 -1       706 2.82802E-03
 -1       707 1.69328E-03
 -1       708 1.26616E-03
 -1       709 1.32229E-03
 -1       710 3.04246E-01
 -1       711 1.36256E-03
 -1       712 1.74103E-03
 -1       713 2.12132E-03
 -1       714 7.96030E+00
 -1       715 5.95564E+00
 -1       716 1.35666E+01
 -1       717 2.30068E+00
 -1       718 1.23928E+01
 -1       719 5.91733E+00
 -1       720 5.92978E-01
 -1       721 4.23309E-01
 -1       722 4.91311E-01
 -1       723 7.06612E+00
 -1       724 3.19561E-01
 -1       725 8.20955E+00
 -1       726 4.05958E+00
 -1       727 3.96132E-01
 -1       728 3.80654E-01
 -1       729 3.55903E+00
 -1       730 7.92059E+00
 -1       731 4.07696E+00
 -1       732 1.33765E+01
 -1       733 1.57716E+01
 -1       734 1.53990E+01
 -1       735 5.50627E+00
 -1       736 2.94954E+00
 -1       737 5.22258E+00
 -1       738 1.65014E+01
 -1       739 1.11821E+01
 -1       740 3.58608E+00
 -1       741 4.64263E-01
 -1       742 2.57549E-01
 -1       743 1.28136E+01
 -1       744 1.26634E+01
 -1       745 3.14583E+00
 -1       746 3.68696E+00
 -1       747 2.11203E-03
 -1       748 9.80399E+00
 -1       749 2.51961E-03
 -1       750 6.72409E+00
 -1       751 2.79613E-03
 -1       752 1.31881E+01
 -1       753 3.21508E-01
 -1       754 5.32442E+00
 -1       755 4.24034E-01
 -1       756 3.29939E+00
 -1       757 7.33911E+00
 -1       758 5.90901E-01
 -1       759 7.33075E-01
 -1       760 9.43149E-01
 -1       761 1.24529E+00
 -1       762 1.73736E+00
 -1       763 2.37429E+00
 -1       764 4.13631E+00
 -1       765 6.13671E+00
 -1       766 4.88652E-01
 -1       767 2.91510E+00
 -1       768 2.04516E+00
 -1       769 1.51904E+00
 -1       770 1.16348E+00
 -1       771 9.13342E-01
 -1       772 7.39112E-01
 -1       773 5.83699E-01
 -1       774 4.51695E-01
 -1       775 3.43071E-01
 -1       776 2.55798E-01
 -1       777 1.87049E-01
 -1       778 1.33851E-01
 -1       779 9.45679E-02
 -1       780 6.58195E-02
 -1       781 4.45275E-02
 -1       782 2.98964E-02
 -1       783 1.97093E-02
 -1       784 1.24748E-02
 -1       785 7.49350E-03
 -1       786 4.68321E-03
 -1       787 4.12780E-03
 -1       788 3.62977E-03
 -1       789 5.04065E-01
 -1       790 1.29480E+00
 -1       791 9.88776E-01
 -1       792 2.25663E+00
 -1       793 2.36181E+00
 -1       794 1.63632E+00
 -1       795 3.29939E+00
 -1       796 3.36128E+00
 -1       797 2.04876E+00
 -1       798 2.64168E+00
 -1       799 1.72952E+00
 -1       800 1.79267E+00
 -1       801 1.54914E+00
 -1       802 1.29854E+00
 -1       803 1.03916E+00
 -1       804 8.74229E-01
 -1       805 7.39052E-01
 -1       806 6.12703E-01
 -1       807 4.96985E-01
 -1       808 3.94073E-01
 -1       809 3.07466E-01
 -1       810 2.37358E-01
 -1       811 1.80305E-01
 -1       812 1.34616E-01
 -1       813 9.86110E-02
 -1       814 7.07050E-02
 -1       815 4.94535E-02
 -1       816 3.35789E-02
 -1       817 2.19773E-02
 -1       818 1.37164E-02
 -1       819 8.02439E-03
 -1       820 5.61879E-03
 -1       821 5.08737E-03
 -1       822 4.14521E-03
 -1       823 2.93318E-03
 -1       824 9.67658E+00
 -1       825 2.45964E-01
 -1       826 4.06371E-01
 -1       827 1.27797E-03
 -1       828 2.12132E-03
 -1       829 1.40642E-03
 -1       830 4.29432E-01
 -1       831 9.43296E+00
 -1       832 1.44488E+00
 -1       833 4.47926E+00
 -1       834 2.50137E+00
 -1       835 4.45096E+00
 -1       836 4.96243E-01
 -1       837 2.30068E+00
 -1       838 9.18565E+00
 -1       839 1.15819E+01
 -1       840 4.22612E+00
 -1       841 1.01078E+01
 -1       842 3.27860E-01
 -1       843 4.10012E+00
 -1       844 4.58431E+00
 -1       845 9.55016E+00
 -1       846 5.47239E+00
 -1       847 1.22844E-03
 -1       848 5.20172E+00
 -1       849 1.63176E-01
 -1       850 1.12013E+01
 -1       851 7.73396E-01
 -1       852 7.91123E+00
 -1       853 1.27797E-03
 -1       854 2.25238E-03
 -1       855 4.24034E-01
 -1       856 2.28776E+00
 -1       857 6.05156E+00
 -1       858 1.35682E-03
 -1       859 3.45237E-01
 -1       860 4.66890E+00
 -1       861 6.74258E+00
 -1       862 6.32432E-01
 -1       863 4.04898E-01
 -1       864 2.79613E-03
 -1       865 3.25206E-01
 -1       866 4.64263E-01
 -1       867 6.41323E+00
 -1       868 9.43149E-01
 -1       869 1.24082E+00
 -1       870 1.66404E+00
 -1       871 2.47707E+00
 -1       872 4.16216E+00
 -1       873 3.77277E+00
 -1       874 2.08742E-01
 -1       875 1.97809E+00
 -1       876 1.47972E+00
 -1       877 1.16348E+00
 -1       878 9.08439E-01
 -1       879 7.04873E-01
 -1       880 5.43499E-01
 -1       881 4.15526E-01
 -1       882 3.14388E-01
 -1       883 2.34888E-01
 -1       884 1.72881E-01
 -1       885 1.25005E-01
 -1       886 8.84929E-02
 -1       887 6.12617E-02
 -1       888 4.20972E-02
 -1       889 2.79726E-02
 -1       890 1.77767E-02
 -1       891 1.06066E-02
 -1       892 5.84297E-03
 -1       893 3.27355E-03
 -1       894 1.37861E+00
 -1       895 7.67637E+00
 -1       896 2.85825E+00
 -1       897 2.34389E+00
 -1       898 1.76585E+00
 -1       899 1.44587E+00
 -1       900 1.14480E+00
 -1       901 8.83146E-01
 -1       902 6.87852E-01
 -1       903 5.52703E-01
 -1       904 4.51140E-01
 -1       905 3.63843E-01
 -1       906 2.86297E-01
 -1       907 2.20141E-01
 -1       908 1.65459E-01
 -1       909 1.21437E-01
 -1       910 8.68278E-02
 -1       911 6.09148E-02
 -1       912 4.19303E-02
 -1       913 2.78016E-02
 -1       914 1.75421E-02
 -1       915 1.04006E-02
 -1       916 6.07255E-03
 -1       917 3.62529E-03
 -1       918 2.90790E-03
 -1       919 4.67142E-01
 -1       920 2.25238E-03
 -1       921 5.70987E+00
 -1       922 2.07058E-03
 -1       923 8.85331E+00
 -1       924 2.76545E+00
 -1       925 7.78870E+00
 -1       926 5.44591E-01
 -1       927 7.09182E-01
 -1       928 4.88652E-01
 -1       929 8.85331E+00
 -1       930 4.06301E+00
 -1       931 1.10189E+00
 -1       932 6.15612E+00
 -1       933 3.31177E-01
 -1       934 4.39067E-01
 -1       935 5.73876E-03
 -1       936 2.45579E+00
 -1       937 2.68869E-03
 -1       938 4.05372E+00
 -1       939 6.18205E+00
 -1       940 4.05372E+00
 -1       941 4.92454E+00
 -1       942 5.83264E-01
 -1       943 5.20766E-03
 -1       944 4.82357E+00
 -1       945 4.24034E-01
 -1       946 4.59069E-03
 -1       947 5.20785E-03
 -1       948 3.66140E-01
 -1       949 5.53444E+00
 -1       950 3.29415E-01
 -1       951 3.02309E-01
 -1       952 1.66404E+00
 -1       953 2.37418E+00
 -1       954 3.67845E+00
 -1       955 3.31177E-01
 -1       956 6.15612E+00
 -1       957 8.33008E-01
 -1       958 1.41815E+00
 -1       959 1.04768E+00
 -1       960 7.84418E-01
 -1       961 5.95081E-01
 -1       962 4.53163E-01
 -1       963 3.44579E-01
 -1       964 2.60452E-01
 -1       965 1.94933E-01
 -1       966 1.43987E-01
 -1       967 1.04630E-01
 -1       968 7.45327E-02
 -1       969 5.18147E-02
 -1       970 3.53559E-02
 -1       971 2.37836E-02
 -1       972 1.53455E-02
 -1       973 9.35401E-03
 -1       974 5.25520E-03
 -1       975 3.90386E-01
 -1       976 4.24810E+00
 -1       977 1.61990E+00
 -1       978 1.10608E+00
 -1       979 8.48454E-01
 -1       980 6.86389E-01
 -1       981 5.52703E-01
 -1       982 4.39143E-01
 -1       983 3.43896E-01
 -1       984 2.65273E-01
 -1       985 2.01419E-01
 -1       986 1.50323E-01
 -1       987 1.10044E-01
 -1       988 7.87919E-02
 -1       989 5.49544E-02
 -1       990 3.76465E-02
 -1       991 2.52956E-02
 -1       992 1.62827E-02
 -1       993 9.88392E-03
 -1       994 7.12911E-03
 -1       995 5.73876E-03
 -1       996 5.81767E+00
 -1       997 2.55559E+00
 -1       998 8.45698E-01
 -1       999 1.97809E+00
 -1      1000 4.65623E+00
 -1      1001 3.53027E+00
 -1      1002 2.48560E+00
 -1      1003 6.10577E-01
 -1      1004 1.17774E+00
 -1      1005 4.61329E+00
 -1      1006 4.03754E+00
 -1      1007 1.65284E+00
 -1      1008 4.87120E-01
 -1      1009 4.60016E-01
 -1      1010 4.76132E-01
 -1      1011 2.60251E+00
 -1      1012 7.12911E-03
 -1      1013 7.06476E-03
 -1      1014 4.65916E-01
 -1      1015 3.77372E+00
 -1      1016 4.11305E+00
 -1      1017 5.08186E-01
 -1      1018 5.68726E+00
 -1      1019 5.31833E-03
 -1      1020 6.27892E-01
 -1      1021 3.70857E+00
 -1      1022 5.08186E-01
 -1      1023 2.61897E+00
 -1      1024 1.28350E+00
 -1      1025 8.77043E-01
 -1      1026 8.23292E-01
 -1      1027 7.60281E-01
 -1      1028 5.74667E-01
 -1      1029 4.35909E-01
 -1      1030 3.33028E-01
 -1      1031 2.54356E-01
 -1      1032 1.93051E-01
 -1      1033 1.45003E-01
 -1      1034 1.07417E-01
 -1      1035 7.82261E-02
 -1      1036 5.58016E-02
 -1      1037 3.88129E-02
 -1      1038 2.62885E-02
 -1      1039 1.79641E-02
 -1      1040 1.18587E-02
 -1      1041 7.55519E-03
 -1      1042 8.48454E-01
 -1      1043 1.10608E+00
 -1      1044 6.71498E-01
 -1      1045 3.74976E+00
 -1      1046 1.45974E+00
 -1      1047 6.48984E-01
 -1      1048 5.00351E-01
 -1      1049 3.84363E-01
 -1      1050 2.93490E-01
 -1      1051 2.22358E-01
 -1      1052 1.66653E-01
 -1      1053 1.23207E-01
 -1      1054 8.95818E-02
 -1      1055 6.38335E-02
 -1      1056 4.43769E-02
 -1      1057 2.99803E-02
 -1      1058 2.02278E-02
 -1      1059 1.30811E-02
 -1      1060 8.62113E-03
 -1      1061 1.08455E+00
 -1      1062 5.09260E+00
 -1      1063 1.68428E+00
 -1      1064 1.24164E+00
 -1      1065 3.53027E+00
 -1      1066 7.46424E-01
 -1      1067 1.93057E+00
 -1      1068 5.38689E-01
 -1      1069 1.49178E+00
 -1      1070 3.12840E+00
 -1      1071 4.09420E+00
 -1      1072 2.23126E+00
 -1      1073 1.92833E+00
 -1      1074 3.12945E+00
 -1      1075 9.95247E-03
 -1      1076 1.10632E-02
 -1      1077 2.60251E+00
 -1      1078 8.23292E-01
 -1      1079 1.02184E+00
 -1      1080 2.57445E+00
 -1      1081 6.71498E-01
 -1      1082 5.42131E-01
 -1      1083 4.06200E-01
 -1      1084 3.05279E-01
 -1      1085 2.29014E-01
 -1      1086 1.70745E-01
 -1      1087 1.27494E-01
 -1      1088 9.47753E-02
 -1      1089 6.92513E-02
 -1      1090 4.95488E-02
 -1      1091 3.45195E-02
 -1      1092 2.34675E-02
 -1      1093 1.87714E-02
 -1      1094 7.28031E-01
 -1      1095 1.00206E+00
 -1      1096 2.87545E+00
 -1      1097 7.46424E-01
 -1      1098 2.79064E+00
 -1      1099 1.39675E+00
 -1      1100 5.42131E-01
 -1      1101 4.06200E-01
 -1      1102 3.05279E-01
 -1      1103 2.29014E-01
 -1      1104 1.70745E-01
 -1      1105 1.26037E-01
 -1      1106 9.17767E-02
 -1      1107 6.56671E-02
 -1      1108 4.59336E-02
 -1      1109 3.18659E-02
 -1      1110 2.05330E-02
 -1      1111 2.51081E+00
 -1      1112 1.61983E+00
 -1      1113 1.01100E+00
 -1      1114 7.28031E-01
 -1      1115 1.08455E+00
 -1      1116 3.71982E+00
 -1      1117 8.79605E-01
 -1      1118 2.57445E+00
 -1      1119 1.56579E+00
 -1      1120 8.80986E-03
 -1      1121 1.87714E-02
 -1      1122 1.19586E+00
 -1      1123 2.36188E+00
 -1      1124 2.76293E+00
 -1      1125 1.61983E+00
 -1      1126 8.79605E-01
 -1      1127 1.28220E+01
 -1      1128 8.17503E+00
 -1      1129 2.67755E+00
 -1      1130 1.57679E+00
 -1      1131 1.19097E+00
 -1      1132 9.63117E-01
 -1      1133 8.02047E-01
 -1      1134 6.84135E-01
 -1      1135 6.40623E-01
 -1      1136 6.97302E-01
 -1      1137 8.13809E-01
 -1      1138 9.75518E-01
 -1      1139 1.20997E+00
 -1      1140 1.59239E+00
 -1      1141 2.60902E+00
 -1      1142 5.85453E+00
 -1      1143 1.10296E+01
 -1      1144 1.28220E+01
 -1      1145 8.52280E+00
 -1      1146 3.67407E+00
 -1      1147 2.51949E+00
 -1      1148 1.66432E+00
 -1      1149 1.23940E+00
 -1      1150 9.83116E-01
 -1      1151 9.23607E-01
 -1      1152 1.01664E+00
 -1      1153 1.25383E+00
 -1      1154 1.53266E+00
 -1      1155 1.64533E+00
 -1      1156 1.64619E+00
 -1      1157 1.64705E+00
 -1      1158 1.88380E+00
 -1      1159 2.95389E+00
 -1      1160 4.31642E+00
 -1      1161 4.84889E+00
 -1      1162 4.85217E+00
 -1      1163 4.59735E+00
 -1      1164 3.45353E+00
 -1      1165 2.18828E+00
 -1      1166 1.73987E+00
 -1      1167 1.67747E+00
 -1      1168 1.68722E+00
 -1      1169 1.62173E+00
 -1      1170 1.42684E+00
 -1      1171 1.16506E+00
 -1      1172 9.23490E-01
 -1      1173 7.24428E-01
 -1      1174 5.83438E-01
 -1      1175 4.81558E-01
 -1      1176 3.84696E-01
 -1      1177 2.99010E-01
 -1      1178 2.26761E-01
 -1      1179 1.67940E-01
 -1      1180 1.25668E-01
 -1      1181 9.98517E-02
 -1      1182 8.13547E-02
 -1      1183 6.48600E-02
 -1      1184 5.05875E-02
 -1      1185 3.85027E-02
 -1      1186 2.85268E-02
 -1      1187 2.18497E-02
 -1      1188 1.74421E-02
 -1      1189 1.31027E-02
 -1      1190 8.92529E-03
 -1      1191 6.20872E-03
 -1      1192 4.58807E-03
 -1      1193 2.20661E-03
 -1      1194 1.37315E+01
 -1      1195 8.54939E+00
 -1      1196 2.84363E+00
 -1      1197 1.93504E+00
 -1      1198 1.42574E+00
 -1      1199 1.19224E+00
 -1      1200 9.81448E-01
 -1      1201 7.94954E-01
 -1      1202 6.97821E-01
 -1      1203 7.07621E-01
 -1      1204 7.89828E-01
 -1      1205 9.25154E-01
 -1      1206 1.09305E+00
 -1      1207 1.24227E+00
 -1      1208 1.42938E+00
 -1      1209 1.87178E+00
 -1      1210 2.50895E+00
 -1      1211 2.99318E+00
 -1      1212 3.21014E+00
 -1      1213 3.26824E+00
 -1      1214 2.90937E+00
 -1      1215 2.03976E+00
 -1      1216 1.29360E+00
 -1      1217 9.72457E-01
 -1      1218 9.60847E-01
 -1      1219 1.03495E+00
 -1      1220 1.03437E+00
 -1      1221 9.82379E-01
 -1      1222 8.58755E-01
 -1      1223 7.21846E-01
 -1      1224 5.90569E-01
 -1      1225 4.62488E-01
 -1      1226 3.49749E-01
 -1      1227 2.67372E-01
 -1      1228 2.08846E-01
 -1      1229 1.58471E-01
 -1      1230 1.16840E-01
 -1      1231 8.35435E-02
 -1      1232 5.85486E-02
 -1      1233 4.43393E-02
 -1      1234 3.67368E-02
 -1      1235 2.95901E-02
 -1      1236 2.31229E-02
 -1      1237 1.89149E-02
 -1      1238 1.63610E-02
 -1      1239 1.33611E-02
 -1      1240 9.97721E-03
 -1      1241 6.78580E-03
 -1      1242 4.42559E-03
 -1      1243 2.09813E-03
 -1      1244 1.17284E-03
 -1      1245 1.42047E-03
 -1      1246 8.47289E-04
 -1      1247 4.94569E-04
 -1      1248 5.76368E-04
 -1      1249 6.66093E-04
 -1      1250 6.86354E-04
 -1      1251 6.86001E-04
 -1      1252 6.89312E-04
 -1      1253 6.93357E-04
 -1      1254 6.93738E-04
 -1      1255 6.76819E-04
 -1      1256 5.89782E-04
 -1      1257 5.34451E-04
 -1      1258 1.08369E-03
 -1      1259 2.05147E-03
 -1      1260 1.62318E-03
 -1      1261 2.53445E+01
 -1      1262 3.62502E+01
 -1      1263 4.71535E+01
 -1      1264 3.34329E+01
 -1      1265 1.57726E+01
 -1      1266 1.20125E+01
 -1      1267 1.26403E+01
 -1      1268 1.30886E+01
 -1      1269 1.28875E+01
 -1      1270 1.26292E+01
 -1      1271 1.96024E+01
 -1      1272 2.81229E+01
 -1      1273 2.96131E+01
 -1      1274 2.72693E+01
 -1      1275 2.57865E+01
 -1      1276 2.66475E+01
 -1      1277 3.49428E+01
 -1      1278 4.32381E+01
 -1      1279 2.97802E+01
 -1      1280 1.42093E+01
 -1      1281 1.22050E+01
 -1      1282 1.23137E+01
 -1      1283 1.23137E+01
 -1      1284 1.21781E+01
 -1      1285 1.21545E+01
 -1      1286 1.92037E+01
 -1      1287 2.77805E+01
 -1      1288 2.94199E+01
 -1      1289 2.73810E+01
 -1      1290 2.53420E+01
 -1      1291 1.28220E+01
 -1      1292 4.68254E+00
 -1      1293 9.32950E+00
 -1      1294 2.06969E+00
 -1      1295 2.92021E+00
 -1      1296 4.07469E+00
 -1      1297 1.44415E+00
 -1      1298 1.69439E+00
 -1      1299 1.93705E+00
 -1      1300 1.12393E+00
 -1      1301 1.25951E+00
 -1      1302 1.37711E+00
 -1      1303 9.16839E-01
 -1      1304 1.00911E+00
 -1      1305 1.07765E+00
 -1      1306 7.69091E-01
 -1      1307 8.37892E-01
 -1      1308 8.83882E-01
 -1      1309 6.61671E-01
 -1      1310 7.10783E-01
 -1      1311 7.46628E-01
 -1      1312 6.31578E-01
 -1      1313 6.25978E-01
 -1      1314 6.52626E-01
 -1      1315 7.24724E-01
 -1      1316 6.73644E-01
 -1      1317 6.59000E-01
 -1      1318 8.47805E-01
 -1      1319 7.82379E-01
 -1      1320 7.58721E-01
 -1      1321 1.02606E+00
 -1      1322 9.29777E-01
 -1      1323 8.98347E-01
 -1      1324 1.27997E+00
 -1      1325 1.14180E+00
 -1      1326 1.09606E+00
 -1      1327 1.71106E+00
 -1      1328 1.46680E+00
 -1      1329 1.39864E+00
 -1      1330 2.84100E+00
 -1      1331 2.06862E+00
 -1      1332 1.94304E+00
 -1      1333 6.06610E+00
 -1      1334 3.59296E+00
 -1      1335 3.05257E+00
 -1      1336 1.37315E+01
 -1      1337 1.10296E+01
 -1      1338 8.76802E+00
 -1      1339 1.37315E+01
 -1      1340 8.52280E+00
 -1      1341 4.22361E+00
 -1      1342 3.67407E+00
 -1      1343 3.12453E+00
 -1      1344 3.67407E+00
 -1      1345 2.51949E+00
 -1      1346 1.91444E+00
 -1      1347 2.51949E+00
 -1      1348 1.66432E+00
 -1      1349 1.41419E+00
 -1      1350 1.66432E+00
 -1      1351 1.23940E+00
 -1      1352 1.06462E+00
 -1      1353 1.23940E+00
 -1      1354 9.40552E-01
 -1      1355 8.59051E-01
 -1      1356 9.40552E-01
 -1      1357 9.01614E-01
 -1      1358 9.23607E-01
 -1      1359 8.59051E-01
 -1      1360 9.45600E-01
 -1      1361 1.01664E+00
 -1      1362 9.23607E-01
 -1      1363 1.09295E+00
 -1      1364 1.25910E+00
 -1      1365 1.02191E+00
 -1      1366 1.41998E+00
 -1      1367 1.53266E+00
 -1      1368 1.25910E+00
 -1      1369 1.64533E+00
 -1      1370 1.64533E+00
 -1      1371 1.53266E+00
 -1      1372 1.63741E+00
 -1      1373 1.63827E+00
 -1      1374 1.63741E+00
 -1      1375 1.64705E+00
 -1      1376 1.64705E+00
 -1      1377 1.63827E+00
 -1      1378 1.57623E+00
 -1      1379 1.81298E+00
 -1      1380 1.57623E+00
 -1      1381 2.18841E+00
 -1      1382 3.02174E+00
 -1      1383 1.88084E+00
 -1      1384 3.78722E+00
 -1      1385 4.31642E+00
 -1      1386 3.02174E+00
 -1      1387 4.84561E+00
 -1      1388 4.84889E+00
 -1      1389 4.31642E+00
 -1      1390 4.85217E+00
 -1      1391 4.85217E+00
 -1      1392 4.84889E+00
 -1      1393 4.59735E+00
 -1      1394 4.34252E+00
 -1      1395 4.59735E+00
 -1      1396 3.50989E+00
 -1      1397 2.62090E+00
 -1      1398 3.50989E+00
 -1      1399 2.18828E+00
 -1      1400 1.81202E+00
 -1      1401 2.24464E+00
 -1      1402 1.73987E+00
 -1      1403 1.66772E+00
 -1      1404 1.73987E+00
 -1      1405 1.65080E+00
 -1      1406 1.66055E+00
 -1      1407 1.65080E+00
 -1      1408 1.68722E+00
 -1      1409 1.68722E+00
 -1      1410 1.66055E+00
 -1      1411 1.62173E+00
 -1      1412 1.55623E+00
 -1      1413 1.62173E+00
 -1      1414 1.42684E+00
 -1      1415 1.29744E+00
 -1      1416 1.42684E+00
 -1      1417 1.19236E+00
 -1      1418 1.05998E+00
 -1      1419 1.19236E+00
 -1      1420 9.88967E-01
 -1      1421 8.79773E-01
 -1      1422 1.01626E+00
 -1      1423 7.96566E-01
 -1      1424 7.06697E-01
 -1      1425 8.62042E-01
 -1      1426 6.24005E-01
 -1      1427 5.72883E-01
 -1      1428 6.96142E-01
 -1      1429 4.98749E-01
 -1      1430 4.47991E-01
 -1      1431 5.39316E-01
 -1      1432 3.85757E-01
 -1      1433 3.39654E-01
 -1      1434 4.02949E-01
 -1      1435 3.00700E-01
 -1      1436 2.61117E-01
 -1      1437 3.01761E-01
 -1      1438 2.31223E-01
 -1      1439 1.98558E-01
 -1      1440 2.32913E-01
 -1      1441 1.73773E-01
 -1      1442 1.47616E-01
 -1      1443 1.78235E-01
 -1      1444 1.27633E-01
 -1      1445 1.11518E-01
 -1      1446 1.33466E-01
 -1      1447 9.98517E-02
 -1      1448 9.01499E-02
 -1      1449 1.01817E-01
 -1      1450 8.13547E-02
 -1      1451 7.25594E-02
 -1      1452 8.13547E-02
 -1      1453 6.48600E-02
 -1      1454 5.71606E-02
 -1      1455 6.48600E-02
 -1      1456 5.05875E-02
 -1      1457 4.40144E-02
 -1      1458 5.05875E-02
 -1      1459 3.85027E-02
 -1      1460 3.29909E-02
 -1      1461 3.85027E-02
 -1      1462 2.89250E-02
 -1      1463 2.44610E-02
 -1      1464 2.89250E-02
 -1      1465 2.18497E-02
 -1      1466 1.96366E-02
 -1      1467 2.22479E-02
 -1      1468 1.74421E-02
 -1      1469 1.52477E-02
 -1      1470 1.74421E-02
 -1      1471 1.31027E-02
 -1      1472 1.09576E-02
 -1      1473 1.31027E-02
 -1      1474 9.19520E-03
 -1      1475 7.16288E-03
 -1      1476 9.19520E-03
 -1      1477 6.20872E-03
 -1      1478 5.52449E-03
 -1      1479 6.47864E-03
 -1      1480 4.58807E-03
 -1      1481 3.65165E-03
 -1      1482 4.58807E-03
 -1      1483 3.06822E-03
 -1      1484 3.06822E-03
 -1      1485 3.36726E+00
 -1      1486 8.54939E+00
 -1      1487 8.54939E+00
 -1      1488 2.31999E+00
 -1      1489 2.84363E+00
 -1      1490 2.84363E+00
 -1      1491 1.55008E+00
 -1      1492 1.93504E+00
 -1      1493 1.93504E+00
 -1      1494 1.30141E+00
 -1      1495 1.42574E+00
 -1      1496 1.42574E+00
 -1      1497 1.08306E+00
 -1      1498 1.19224E+00
 -1      1499 1.19224E+00
 -1      1500 8.79831E-01
 -1      1501 9.81448E-01
 -1      1502 9.81448E-01
 -1      1503 7.10076E-01
 -1      1504 7.94954E-01
 -1      1505 7.94954E-01
 -1      1506 6.85566E-01
 -1      1507 6.97821E-01
 -1      1508 6.97821E-01
 -1      1509 6.94969E-01
 -1      1510 6.72915E-01
 -1      1511 6.72915E-01
 -1      1512 7.89828E-01
 -1      1513 7.29675E-01
 -1      1514 6.94969E-01
 -1      1515 9.25154E-01
 -1      1516 8.49981E-01
 -1      1517 7.89828E-01
 -1      1518 1.09305E+00
 -1      1519 1.00033E+00
 -1      1520 9.25154E-01
 -1      1521 1.24227E+00
 -1      1522 1.18577E+00
 -1      1523 1.09305E+00
 -1      1524 1.42938E+00
 -1      1525 1.29876E+00
 -1      1526 1.24227E+00
 -1      1527 1.87530E+00
 -1      1528 1.56351E+00
 -1      1529 1.43290E+00
 -1      1530 2.50895E+00
 -1      1531 2.18357E+00
 -1      1532 1.87530E+00
 -1      1533 2.99318E+00
 -1      1534 2.83433E+00
 -1      1535 2.50895E+00
 -1      1536 3.21014E+00
 -1      1537 3.15203E+00
 -1      1538 2.99318E+00
 -1      1539 3.26824E+00
 -1      1540 3.26824E+00
 -1      1541 3.21014E+00
 -1      1542 2.55049E+00
 -1      1543 2.90937E+00
 -1      1544 2.90937E+00
 -1      1545 1.52903E+00
 -1      1546 2.03976E+00
 -1      1547 2.03976E+00
 -1      1548 1.05817E+00
 -1      1549 1.29360E+00
 -1      1550 1.29360E+00
 -1      1551 8.70581E-01
 -1      1552 9.56293E-01
 -1      1553 9.56293E-01
 -1      1554 9.60847E-01
 -1      1555 8.86745E-01
 -1      1556 8.70581E-01
 -1      1557 1.03495E+00
 -1      1558 1.03495E+00
 -1      1559 9.60847E-01
 -1      1560 1.03380E+00
 -1      1561 1.03437E+00
 -1      1562 1.03437E+00
 -1      1563 9.30960E-01
 -1      1564 9.82379E-01
 -1      1565 9.82379E-01
 -1      1566 7.86550E-01
 -1      1567 8.58755E-01
 -1      1568 8.58755E-01
 -1      1569 6.57395E-01
 -1      1570 7.22099E-01
 -1      1571 7.22099E-01
 -1      1572 5.32363E-01
 -1      1573 5.98935E-01
 -1      1574 5.99189E-01
 -1      1575 4.13720E-01
 -1      1576 4.75228E-01
 -1      1577 4.83594E-01
 -1      1578 3.11194E-01
 -1      1579 3.62425E-01
 -1      1580 3.75165E-01
 -1      1581 2.36634E-01
 -1      1582 2.67780E-01
 -1      1583 2.80455E-01
 -1      1584 1.81466E-01
 -1      1585 2.08846E-01
 -1      1586 2.09254E-01
 -1      1587 1.35476E-01
 -1      1588 1.58471E-01
 -1      1589 1.58471E-01
 -1      1590 9.87774E-02
 -1      1591 1.17413E-01
 -1      1592 1.17413E-01
 -1      1593 7.03391E-02
 -1      1594 8.50001E-02
 -1      1595 8.55730E-02
 -1      1596 4.92264E-02
 -1      1597 5.95602E-02
 -1      1598 6.10169E-02
 -1      1599 4.04640E-02
 -1      1600 4.43393E-02
 -1      1601 4.53510E-02
 -1      1602 3.30096E-02
 -1      1603 3.67368E-02
 -1      1604 3.67368E-02
 -1      1605 2.61706E-02
 -1      1606 2.95901E-02
 -1      1607 2.95901E-02
 -1      1608 2.00752E-02
 -1      1609 2.31229E-02
 -1      1610 2.31229E-02
 -1      1611 1.77546E-02
 -1      1612 1.89149E-02
 -1      1613 1.89149E-02
 -1      1614 1.49674E-02
 -1      1615 1.63610E-02
 -1      1616 1.63610E-02
 -1      1617 1.17548E-02
 -1      1618 1.33611E-02
 -1      1619 1.33611E-02
 -1      1620 8.19959E-03
 -1      1621 9.97721E-03
 -1      1622 9.97721E-03
 -1      1623 5.37201E-03
 -1      1624 6.78580E-03
 -1      1625 6.78580E-03
 -1      1626 3.47918E-03
 -1      1627 4.42559E-03
 -1      1628 4.42559E-03
 -1      1629 2.55389E-03
 -1      1630 1.22386E-03
 -1      1631 1.43199E-03
 -1      1632 7.34087E-04
 -1      1633 1.09914E-03
 -1      1634 1.11066E-03
 -1      1635 6.76140E-04
 -1      1636 6.63806E-04
 -1      1637 9.15657E-04
 -1      1638 8.67129E-04
 -1      1639 7.97665E-04
 -1      1640 9.66901E-04
 -1      1641 9.30297E-04
 -1      1642 9.10036E-04
 -1      1643 1.13133E-03
 -1      1644 9.31311E-04
 -1      1645 9.31311E-04
 -1      1646 1.17525E-03
 -1      1647 9.30958E-04
 -1      1648 9.31311E-04
 -1      1649 1.17627E-03
 -1      1650 9.37997E-04
 -1      1651 9.34333E-04
 -1      1652 1.17964E-03
 -1      1653 9.44451E-04
 -1      1654 9.44070E-04
 -1      1655 1.18909E-03
 -1      1656 9.46424E-04
 -1      1657 9.46424E-04
 -1      1658 1.19714E-03
 -1      1659 9.29505E-04
 -1      1660 9.46424E-04
 -1      1661 1.19911E-03
 -1      1662 8.23039E-04
 -1      1663 8.93157E-04
 -1      1664 1.16276E-03
 -1      1665 6.99105E-04
 -1      1666 6.84318E-04
 -1      1667 9.87693E-04
 -1      1668 1.21494E-03
 -1      1669 6.80487E-04
 -1      1670 8.30354E-04
 -1      1671 2.39690E-03
 -1      1672 1.96358E-03
 -1      1673 1.56037E-03
 -1      1674 2.98033E-03
 -1      1675 2.72395E+01
 -1      1676 2.72370E+01
 -1      1677 3.72113E+01
 -1      1678 2.63080E+01
 -1      1679 4.71535E+01
 -1      1680 4.71535E+01
 -1      1681 2.00847E+01
 -1      1682 3.38053E+01
 -1      1683 1.15365E+01
 -1      1684 1.54762E+01
 -1      1685 1.20125E+01
 -1      1686 1.18329E+01
 -1      1687 1.26403E+01
 -1      1688 1.21920E+01
 -1      1689 1.30886E+01
 -1      1690 1.30886E+01
 -1      1691 1.26865E+01
 -1      1692 1.28875E+01
 -1      1693 1.20333E+01
 -1      1694 1.20906E+01
 -1      1695 1.96024E+01
 -1      1696 1.25719E+01
 -1      1697 2.91237E+01
 -1      1698 2.76336E+01
 -1      1699 2.96131E+01
 -1      1700 2.96131E+01
 -1      1701 2.49255E+01
 -1      1702 2.72693E+01
 -1      1703 2.81240E+01
 -1      1704 2.72630E+01
 -1      1705 2.81240E+01
 -1      1706 2.81240E+01
 -1      1707 4.04634E+01
 -1      1708 3.21681E+01
 -1      1709 4.32381E+01
 -1      1710 4.32381E+01
 -1      1711 1.68968E+01
 -1      1712 3.03547E+01
 -1      1713 1.16936E+01
 -1      1714 1.38065E+01
 -1      1715 1.22050E+01
 -1      1716 1.20964E+01
 -1      1717 1.23137E+01
 -1      1718 1.23137E+01
 -1      1719 1.23136E+01
 -1      1720 1.23137E+01
 -1      1721 1.20427E+01
 -1      1722 1.21781E+01
 -1      1723 1.16915E+01
 -1      1724 1.15796E+01
 -1      1725 1.92037E+01
 -1      1726 1.22663E+01
 -1      1727 2.85866E+01
 -1      1728 2.69472E+01
 -1      1729 3.06247E+01
 -1      1730 3.06247E+01
 -1      1731 2.85857E+01
 -1      1732 3.06247E+01
 -1      1733 2.72370E+01
 -1      1734 2.72370E+01
 -1      1735 1.58486E+01
 -1      1736 3.38053E+01
 -1      1737 2.55389E-03
 -1      1738 2.35728E-03
 -1      1739 2.82005E+01
 -1      1740 3.72113E+01
 -1      1741 2.91320E+01
 -1      1742 1.15365E+01
 -1      1743 1.20125E+01
 -1      1744 1.26403E+01
 -1      1745 1.28875E+01
 -1      1746 1.20906E+01
 -1      1747 1.20333E+01
 -1      1748 2.06031E+01
 -1      1749 2.91237E+01
 -1      1750 2.72693E+01
 -1      1751 2.72630E+01
 -1      1752 2.96004E+01
 -1      1753 3.36446E+01
 -1      1754 4.04634E+01
 -1      1755 3.03547E+01
 -1      1756 1.43811E+01
 -1      1757 1.16936E+01
 -1      1758 1.22050E+01
 -1      1759 1.23137E+01
 -1      1760 1.21781E+01
 -1      1761 1.15796E+01
 -1      1762 1.16915E+01
 -1      1763 2.00098E+01
 -1      1764 2.97914E+01
 -1      1765 3.18294E+01
 -1      1766 3.04807E+01
 -1      1767 9.32950E+00
 -1      1768 1.34331E+00
 -1      1769 1.71861E+00
 -1      1770 2.34762E+00
 -1      1771 4.10996E+00
 -1      1772 1.75388E+00
 -1      1773 8.91760E-01
 -1      1774 1.00658E+00
 -1      1775 7.47836E-01
 -1      1776 8.26782E-01
 -1      1777 7.55714E-01
 -1      1778 6.38150E-01
 -1      1779 6.96458E-01
 -1      1780 6.39358E-01
 -1      1781 5.61232E-01
 -1      1782 5.96925E-01
 -1      1783 5.46755E-01
 -1      1784 6.09795E-01
 -1      1785 5.67728E-01
 -1      1786 5.12027E-01
 -1      1787 7.08353E-01
 -1      1788 6.50698E-01
 -1      1789 5.59427E-01
 -1      1790 8.43601E-01
 -1      1791 7.61629E-01
 -1      1792 6.53606E-01
 -1      1793 1.02302E+00
 -1      1794 9.07275E-01
 -1      1795 7.70556E-01
 -1      1796 1.28819E+00
 -1      1797 1.10136E+00
 -1      1798 9.12571E-01
 -1      1799 1.75416E+00
 -1      1800 1.39659E+00
 -1      1801 1.09931E+00
 -1      1802 2.57011E+00
 -1      1803 1.81814E+00
 -1      1804 1.27170E+00
 -1      1805 7.87059E+00
 -1      1806 2.90710E+00
 -1      1807 1.67267E+00
 -1      1808 2.68846E+00
 -1      1809 5.03031E+00
 -1      1810 1.99296E+00
 -1      1811 2.51660E+00
 -1      1812 1.83780E+00
 -1      1813 3.30325E+00
 -1      1814 2.30312E+00
 -1      1815 1.69808E+00
 -1      1816 1.42594E+00
 -1      1817 1.17581E+00
 -1      1818 1.20957E+00
 -1      1819 1.05791E+00
 -1      1820 8.83126E-01
 -1      1821 8.19533E-01
 -1      1822 7.97007E-01
 -1      1823 6.72942E-01
 -1      1824 6.15516E-01
 -1      1825 7.22015E-01
 -1      1826 7.64579E-01
 -1      1827 5.78470E-01
 -1      1828 8.17154E-01
 -1      1829 8.39147E-01
 -1      1830 6.80119E-01
 -1      1831 9.17926E-01
 -1      1832 9.94235E-01
 -1      1833 8.11473E-01
 -1      1834 1.07953E+00
 -1      1835 1.24041E+00
 -1      1836 9.75546E-01
 -1      1837 1.31308E+00
 -1      1838 1.42575E+00
 -1      1839 1.13351E+00
 -1      1840 1.41045E+00
 -1      1841 1.40253E+00
 -1      1842 1.19087E+00
 -1      1843 1.35528E+00
 -1      1844 1.36406E+00
 -1      1845 1.12832E+00
 -1      1846 1.46013E+00
 -1      1847 1.38932E+00
 -1      1848 1.17715E+00
 -1      1849 1.51231E+00
 -1      1850 1.88774E+00
 -1      1851 1.39621E+00
 -1      1852 2.17744E+00
 -1      1853 2.94292E+00
 -1      1854 1.80891E+00
 -1      1855 3.27883E+00
 -1      1856 3.80802E+00
 -1      1857 2.43453E+00
 -1      1858 3.93390E+00
 -1      1859 3.93717E+00
 -1      1860 2.89631E+00
 -1      1861 3.85396E+00
 -1      1862 3.59914E+00
 -1      1863 2.93897E+00
 -1      1864 3.37276E+00
 -1      1865 2.54013E+00
 -1      1866 2.62938E+00
 -1      1867 2.23695E+00
 -1      1868 1.80433E+00
 -1      1869 2.09982E+00
 -1      1870 1.50621E+00
 -1      1871 1.43406E+00
 -1      1872 1.49851E+00
 -1      1873 1.40029E+00
 -1      1874 1.38337E+00
 -1      1875 1.16663E+00
 -1      1876 1.41984E+00
 -1      1877 1.44651E+00
 -1      1878 1.16933E+00
 -1      1879 1.49053E+00
 -1      1880 1.42504E+00
 -1      1881 1.24983E+00
 -1      1882 1.39850E+00
 -1      1883 1.26910E+00
 -1      1884 1.26731E+00
 -1      1885 1.20409E+00
 -1      1886 1.09901E+00
 -1      1887 1.17575E+00
 -1      1888 1.04356E+00
 -1      1889 9.72543E-01
 -1      1890 1.05529E+00
 -1      1891 9.04079E-01
 -1      1892 8.20871E-01
 -1      1893 9.31372E-01
 -1      1894 7.44677E-01
 -1      1895 6.61985E-01
 -1      1896 7.86714E-01
 -1      1897 5.88554E-01
 -1      1898 5.14420E-01
 -1      1899 6.37088E-01
 -1      1900 4.49268E-01
 -1      1901 3.87035E-01
 -1      1902 4.98506E-01
 -1      1903 3.32306E-01
 -1      1904 2.93352E-01
 -1      1905 3.78625E-01
 -1      1906 2.49169E-01
 -1      1907 2.19275E-01
 -1      1908 2.79714E-01
 -1      1909 1.84707E-01
 -1      1910 1.59922E-01
 -1      1911 2.00963E-01
 -1      1912 1.33591E-01
 -1      1913 1.13608E-01
 -1      1914 1.40063E-01
 -1      1915 9.77378E-02
 -1      1916 8.60712E-02
 -1      1917 9.78623E-02
 -1      1918 7.46094E-02
 -1      1919 6.58141E-02
 -1      1920 7.05306E-02
 -1      1921 5.81516E-02
 -1      1922 5.04522E-02
 -1      1923 5.14063E-02
 -1      1924 4.65751E-02
 -1      1925 4.00020E-02
 -1      1926 3.98667E-02
 -1      1927 3.63942E-02
 -1      1928 3.08824E-02
 -1      1929 3.23817E-02
 -1      1930 2.76336E-02
 -1      1931 2.35678E-02
 -1      1932 2.55251E-02
 -1      1933 2.07060E-02
 -1      1934 1.80947E-02
 -1      1935 1.94146E-02
 -1      1936 1.60451E-02
 -1      1937 1.38506E-02
 -1      1938 1.45032E-02
 -1      1939 1.25346E-02
 -1      1940 1.03896E-02
 -1      1941 1.11375E-02
 -1      1942 8.99616E-03
 -1      1943 7.23375E-03
 -1      1944 8.42810E-03
 -1      1945 6.11675E-03
 -1      1946 5.16259E-03
 -1      1947 5.91770E-03
 -1      1948 4.32232E-03
 -1      1949 3.38589E-03
 -1      1950 2.71457E-03
 -1      1951 3.96042E-03
 -1      1952 1.27591E+00
 -1      1953 1.66086E+00
 -1      1954 1.33383E+00
 -1      1955 9.96068E-01
 -1      1956 1.12040E+00
 -1      1957 8.46231E-01
 -1      1958 8.66110E-01
 -1      1959 9.75282E-01
 -1      1960 6.69941E-01
 -1      1961 7.26108E-01
 -1      1962 8.27725E-01
 -1      1963 6.10770E-01
 -1      1964 6.25512E-01
 -1      1965 7.10389E-01
 -1      1966 5.56666E-01
 -1      1967 6.10956E-01
 -1      1968 6.23211E-01
 -1      1969 5.38646E-01
 -1      1970 6.23610E-01
 -1      1971 6.36261E-01
 -1      1972 5.61651E-01
 -1      1973 6.58315E-01
 -1      1974 6.23610E-01
 -1      1975 5.86956E-01
 -1      1976 6.91133E-01
 -1      1977 6.30980E-01
 -1      1978 5.59620E-01
 -1      1979 7.17636E-01
 -1      1980 6.42463E-01
 -1      1981 4.83615E-01
 -1      1982 9.37891E-01
 -1      1983 8.45168E-01
 -1      1984 5.62477E-01
 -1      1985 1.25079E+00
 -1      1986 1.19430E+00
 -1      1987 9.46415E-01
 -1      1988 1.60345E+00
 -1      1989 1.46932E+00
 -1      1990 1.42135E+00
 -1      1991 1.96133E+00
 -1      1992 1.65306E+00
 -1      1993 1.68948E+00
 -1      1994 2.28671E+00
 -1      1995 1.96133E+00
 -1      1996 1.73909E+00
 -1      1997 2.45142E+00
 -1      1998 2.29257E+00
 -1      1999 1.74495E+00
 -1      2000 2.63444E+00
 -1      2001 2.57633E+00
 -1      2002 1.87572E+00
 -1      2003 2.15755E+00
 -1      2004 2.51643E+00
 -1      2005 1.88262E+00
 -1      2006 1.36394E+00
 -1      2007 1.87467E+00
 -1      2008 1.48173E+00
 -1      2009 9.03404E-01
 -1      2010 1.13884E+00
 -1      2011 9.73741E-01
 -1      2012 6.59714E-01
 -1      2013 7.61589E-01
 -1      2014 6.06826E-01
 -1      2015 7.73058E-01
 -1      2016 7.56894E-01
 -1      2017 5.62191E-01
 -1      2018 8.83976E-01
 -1      2019 8.09874E-01
 -1      2020 6.96187E-01
 -1      2021 9.02611E-01
 -1      2022 9.03186E-01
 -1      2023 7.52213E-01
 -1      2024 8.37604E-01
 -1      2025 8.89024E-01
 -1      2026 7.57836E-01
 -1      2027 7.27165E-01
 -1      2028 7.99370E-01
 -1      2029 7.06014E-01
 -1      2030 6.25805E-01
 -1      2031 6.90255E-01
 -1      2032 6.30871E-01
 -1      2033 5.20841E-01
 -1      2034 5.79300E-01
 -1      2035 5.47457E-01
 -1      2036 4.15591E-01
 -1      2037 4.72725E-01
 -1      2038 4.52837E-01
 -1      2039 3.19446E-01
 -1      2040 3.70741E-01
 -1      2041 3.59872E-01
 -1      2042 2.36960E-01
 -1      2043 2.80374E-01
 -1      2044 2.75951E-01
 -1      2045 1.78265E-01
 -1      2046 2.06053E-01
 -1      2047 2.05972E-01
 -1      2048 1.34565E-01
 -1      2049 1.57560E-01
 -1      2050 1.54359E-01
 -1      2051 9.93502E-02
 -1      2052 1.17413E-01
 -1      2053 1.16502E-01
 -1      2054 7.17958E-02
 -1      2055 8.55730E-02
 -1      2056 8.55730E-02
 -1      2057 5.02380E-02
 -1      2058 6.10169E-02
 -1      2059 6.10169E-02
 -1      2060 3.71173E-02
 -1      2061 4.20043E-02
 -1      2062 4.20043E-02
 -1      2063 2.91208E-02
 -1      2064 3.28480E-02
 -1      2065 2.95014E-02
 -1      2066 2.36327E-02
 -1      2067 2.70522E-02
 -1      2068 2.31635E-02
 -1      2069 1.85047E-02
 -1      2070 2.15523E-02
 -1      2071 1.90145E-02
 -1      2072 1.53610E-02
 -1      2073 1.65213E-02
 -1      2074 1.49507E-02
 -1      2075 1.22098E-02
 -1      2076 1.36034E-02
 -1      2077 1.12098E-02
 -1      2078 9.84976E-03
 -1      2079 1.14560E-02
 -1      2080 8.69846E-03
 -1      2081 7.09677E-03
 -1      2082 8.87439E-03
 -1      2083 6.96932E-03
 -1      2084 4.91863E-03
 -1      2085 6.33242E-03
 -1      2086 5.22960E-03
 -1      2087 3.24805E-03
 -1      2088 4.19446E-03
 -1      2089 3.74108E-03
 -1      2090 2.12615E-03
 -1      2091 1.28269E-03
 -1      2092 1.16116E-03
 -1      2093 1.39248E-03
 -1      2094 1.46276E-03
 -1      2095 1.70827E-03
 -1      2096 1.67754E-03
 -1      2097 1.80227E-03
 -1      2098 2.69303E-03
 -1      2099 2.15437E-03
 -1      2100 1.33678E-03
 -1      2101 1.29388E-03
 -1      2102 1.48814E-03
 -1      2103 1.33780E-03
 -1      2104 1.33678E-03
 -1      2105 1.49932E-03
 -1      2106 1.29833E-03
 -1      2107 1.29833E-03
 -1      2108 1.45986E-03
 -1      2109 1.26717E-03
 -1      2110 1.26379E-03
 -1      2111 1.38586E-03
 -1      2112 1.28724E-03
 -1      2113 1.28117E-03
 -1      2114 1.36532E-03
 -1      2115 1.32223E-03
 -1      2116 1.32026E-03
 -1      2117 1.41233E-03
 -1      2118 1.37012E-03
 -1      2119 1.37012E-03
 -1      2120 1.49324E-03
 -1      2121 1.33880E-03
 -1      2122 1.37515E-03
 -1      2123 1.54616E-03
 -1      2124 1.20008E-03
 -1      2125 1.33880E-03
 -1      2126 1.55119E-03
 -1      2127 1.72226E-03
 -1      2128 1.74088E-03
 -1      2129 2.09199E-03
 -1      2130 3.72113E+01
 -1      2131 2.72691E+01
 -1      2132 3.04310E+01
 -1      2133 3.04310E+01
 -1      2134 2.89376E+01
 -1      2135 2.98690E+01
 -1      2136 3.11681E+01
 -1      2137 1.83096E+01
 -1      2138 3.16578E+01
 -1      2139 9.79431E+00
 -1      2140 1.44029E+01
 -1      2141 1.22554E+01
 -1      2142 1.08075E+00
 -1      2143 1.26538E+00
 -1      2144 1.04694E+00
 -1      2145 8.94855E-01
 -1      2146 1.13426E+01
 -1      2147 1.11631E+01
 -1      2148 1.20111E+01
 -1      2149 1.15628E+01
 -1      2150 1.07134E+01
 -1      2151 1.10109E+01
 -1      2152 1.12120E+01
 -1      2153 1.01818E+01
 -1      2154 1.07777E+01
 -1      2155 9.96367E+00
 -1      2156 9.42508E+00
 -1      2157 8.11217E+00
 -1      2158 1.98490E+01
 -1      2159 1.18178E+01
 -1      2160 2.46068E+01
 -1      2161 2.41174E+01
 -1      2162 2.49059E+01
 -1      2163 2.72497E+01
 -1      2164 3.13459E+01
 -1      2165 2.90085E+01
 -1      2166 3.13459E+01
 -1      2167 3.13459E+01
 -1      2168 3.30914E+01
 -1      2169 2.93287E+01
 -1      2170 2.52846E+01
 -1      2171 3.45417E+01
 -1      2172 3.17670E+01
 -1      2173 1.59340E+01
 -1      2174 2.88174E+01
 -1      2175 9.87610E+00
 -1      2176 1.29664E+01
 -1      2177 1.03991E+01
 -1      2178 9.99630E+00
 -1      2179 1.14122E+01
 -1      2180 1.13035E+01
 -1      2181 9.60622E+00
 -1      2182 1.15351E+01
 -1      2183 1.15351E+01
 -1      2184 1.10257E+01
 -1      2185 1.11612E+01
 -1      2186 9.81150E+00
 -1      2187 1.02745E+01
 -1      2188 9.45432E+00
 -1      2189 8.87944E+00
 -1      2190 1.95637E+01
 -1      2191 1.18202E+01
 -1      2192 2.55473E+01
 -1      2193 2.35093E+01
 -1      2194 3.18294E+01
 -1      2195 3.18294E+01
 -1      2196 2.55473E+01
 -1      2197 3.04310E+01
 -1      2198 3.17797E+01
 -1      2199 9.75377E+00
 -1      2200 9.45729E+00
 -1      2201 9.08390E+00
 -1      2202 8.01162E+00
 -1      2203 2.75371E+00
 -1      2204 9.20954E+00
 -1      2205 1.93230E+00
 -1      2206 2.53317E+01
 -1      2207 2.70002E+01
 -1      2208 2.53317E+01
 -1      2209 2.17156E+01
 -1      2210 2.47090E-03
 -1      2211 3.17301E+01
 -1      2212 3.17797E+01
 -1      2213 1.53196E+01
 -1      2214 9.00815E+00
 -1      2215 7.57434E+00
 -1      2216 9.25760E+00
 -1      2217 1.06336E+01
 -1      2218 8.58162E+00
 -1      2219 1.14290E+01
 -1      2220 2.01210E+01
 -1      2221 2.65985E+01
 -1      2222 2.83440E+01
 -1      2223 2.22827E+01
 -1      2224 2.89889E+01
 -1      2225 2.22434E+01
 -1      2226 9.33530E+00
 -1      2227 1.12120E+01
 -1      2228 1.01345E+01
 -1      2229 9.10211E+00
 -1      2230 1.53321E+01
 -1      2231 2.34071E+01
 -1      2232 1.03827E+01
 -1      2233 8.96730E-01
 -1      2234 1.22883E+00
 -1      2235 5.34529E-01
 -1      2236 5.85907E-01
 -1      2237 6.19499E-01
 -1      2238 6.84477E-01
 -1      2239 5.14670E-01
 -1      2240 4.35323E-01
 -1      2241 4.28826E-01
 -1      2242 5.10042E-01
 -1      2243 4.69138E-01
 -1      2244 3.85938E-01
 -1      2245 6.00509E-01
 -1      2246 5.47233E-01
 -1      2247 4.56944E-01
 -1      2248 6.95836E-01
 -1      2249 6.32162E-01
 -1      2250 5.25788E-01
 -1      2251 7.88394E-01
 -1      2252 7.10053E-01
 -1      2253 5.71658E-01
 -1      2254 1.00346E+00
 -1      2255 8.95057E-01
 -1      2256 6.92539E-01
 -1      2257 6.23983E-01
 -1      2258 7.79486E-01
 -1      2259 6.74483E-01
 -1      2260 1.03745E+00
 -1      2261 7.65306E-01
 -1      2262 9.13651E+00
 -1      2263 7.28241E+00
 -1      2264 5.81755E+00
 -1      2265 6.15457E+00
 -1      2266 6.69448E-01
 -1      2267 5.51550E-01
 -1      2268 4.97323E-01
 -1      2269 5.19379E-01
 -1      2270 4.33260E-01
 -1      2271 3.69294E-01
 -1      2272 5.07470E-01
 -1      2273 5.56544E-01
 -1      2274 4.11333E-01
 -1      2275 6.45806E-01
 -1      2276 6.98382E-01
 -1      2277 5.74806E-01
 -1      2278 7.89449E-01
 -1      2279 8.68228E-01
 -1      2280 7.55137E-01
 -1      2281 9.46486E-01
 -1      2282 1.03178E+00
 -1      2283 9.24463E-01
 -1      2284 1.11928E+00
 -1      2285 1.19194E+00
 -1      2286 1.09022E+00
 -1      2287 1.31397E+00
 -1      2288 1.29867E+00
 -1      2289 1.29974E+00
 -1      2290 1.39941E+00
 -1      2291 1.35216E+00
 -1      2292 1.52251E+00
 -1      2293 1.46360E+00
 -1      2294 1.55968E+00
 -1      2295 1.73470E+00
 -1      2296 1.81763E+00
 -1      2297 1.94062E+00
 -1      2298 2.10409E+00
 -1      2299 1.81045E+00
 -1      2300 2.10015E+00
 -1      2301 2.23186E+00
 -1      2302 2.84235E+00
 -1      2303 3.17826E+00
 -1      2304 2.84388E+00
 -1      2305 4.78117E+00
 -1      2306 4.90704E+00
 -1      2307 5.18899E+00
 -1      2308 4.55207E+00
 -1      2309 4.46886E+00
 -1      2310 6.43693E+00
 -1      2311 2.81507E+00
 -1      2312 2.58869E+00
 -1      2313 4.42817E+00
 -1      2314 2.67334E+00
 -1      2315 2.37015E+00
 -1      2316 2.85903E+00
 -1      2317 2.37621E+00
 -1      2318 2.07810E+00
 -1      2319 2.94974E+00
 -1      2320 1.70655E+00
 -1      2321 1.67278E+00
 -1      2322 2.58425E+00
 -1      2323 1.45597E+00
 -1      2324 1.49244E+00
 -1      2325 1.99589E+00
 -1      2326 1.40876E+00
 -1      2327 1.45278E+00
 -1      2328 1.69540E+00
 -1      2329 1.34309E+00
 -1      2330 1.31655E+00
 -1      2331 1.50202E+00
 -1      2332 1.21551E+00
 -1      2333 1.15050E+00
 -1      2334 1.29129E+00
 -1      2335 1.09486E+00
 -1      2336 1.03940E+00
 -1      2337 1.13461E+00
 -1      2338 9.65375E-01
 -1      2339 8.96910E-01
 -1      2340 1.00494E+00
 -1      2341 8.18209E-01
 -1      2342 7.42015E-01
 -1      2343 8.52211E-01
 -1      2344 6.67064E-01
 -1      2345 5.93633E-01
 -1      2346 6.98559E-01
 -1      2347 5.26869E-01
 -1      2348 4.61718E-01
 -1      2349 5.56845E-01
 -1      2350 4.04910E-01
 -1      2351 3.50181E-01
 -1      2352 4.33273E-01
 -1      2353 3.03459E-01
 -1      2354 2.59276E-01
 -1      2355 3.29743E-01
 -1      2356 2.21873E-01
 -1      2357 1.87305E-01
 -1      2358 2.45618E-01
 -1      2359 1.58044E-01
 -1      2360 1.31713E-01
 -1      2361 1.78954E-01
 -1      2362 1.09297E-01
 -1      2363 9.34272E-02
 -1      2364 1.27278E-01
 -1      2365 7.66027E-02
 -1      2366 6.51409E-02
 -1      2367 8.80375E-02
 -1      2368 5.27791E-02
 -1      2369 4.51166E-02
 -1      2370 5.88512E-02
 -1      2371 3.67971E-02
 -1      2372 3.29199E-02
 -1      2373 3.81698E-02
 -1      2374 2.81070E-02
 -1      2375 2.44992E-02
 -1      2376 2.50374E-02
 -1      2377 2.29842E-02
 -1      2378 1.97355E-02
 -1      2379 1.87095E-02
 -1      2380 1.82062E-02
 -1      2381 1.53444E-02
 -1      2382 1.56653E-02
 -1      2383 1.37977E-02
 -1      2384 1.17481E-02
 -1      2385 1.25893E-02
 -1      2386 1.02738E-02
 -1      2387 8.95775E-03
 -1      2388 9.56829E-03
 -1      2389 7.83764E-03
 -1      2390 6.44424E-03
 -1      2391 6.97389E-03
 -1      2392 5.65501E-03
 -1      2393 4.53800E-03
 -1      2394 5.06454E-03
 -1      2395 4.52271E-01
 -1      2396 4.90655E-01
 -1      2397 4.67719E-01
 -1      2398 4.83438E-01
 -1      2399 3.63323E-01
 -1      2400 5.01324E-01
 -1      2401 5.03625E-01
 -1      2402 4.30396E-01
 -1      2403 5.75752E-01
 -1      2404 5.50447E-01
 -1      2405 5.15425E-01
 -1      2406 6.09610E-01
 -1      2407 6.09610E-01
 -1      2408 5.98405E-01
 -1      2409 5.83638E-01
 -1      2410 6.10974E-01
 -1      2411 6.33627E-01
 -1      2412 6.04051E-01
 -1      2413 6.52720E-01
 -1      2414 7.04074E-01
 -1      2415 7.72687E-01
 -1      2416 6.45155E-01
 -1      2417 8.14261E-01
 -1      2418 1.16645E+00
 -1      2419 9.10040E-01
 -1      2420 9.92718E-01
 -1      2421 1.52872E+00
 -1      2422 1.31019E+00
 -1      2423 1.27382E+00
 -1      2424 1.69188E+00
 -1      2425 1.64227E+00
 -1      2426 1.53112E+00
 -1      2427 1.86435E+00
 -1      2428 1.86435E+00
 -1      2429 1.81714E+00
 -1      2430 1.75958E+00
 -1      2431 1.75372E+00
 -1      2432 1.87898E+00
 -1      2433 1.96689E+00
 -1      2434 1.84197E+00
 -1      2435 1.85074E+00
 -1      2436 1.67393E+00
 -1      2437 1.79194E+00
 -1      2438 1.75819E+00
 -1      2439 1.26125E+00
 -1      2440 1.54413E+00
 -1      2441 1.45345E+00
 -1      2442 8.74558E-01
 -1      2443 1.09966E+00
 -1      2444 1.16207E+00
 -1      2445 6.53944E-01
 -1      2446 7.95759E-01
 -1      2447 9.21676E-01
 -1      2448 6.94694E-01
 -1      2449 5.97514E-01
 -1      2450 7.86447E-01
 -1      2451 7.49047E-01
 -1      2452 7.12231E-01
 -1      2453 7.47554E-01
 -1      2454 7.70096E-01
 -1      2455 7.50885E-01
 -1      2456 7.66929E-01
 -1      2457 7.30137E-01
 -1      2458 7.43724E-01
 -1      2459 7.42397E-01
 -1      2460 6.66415E-01
 -1      2461 7.04649E-01
 -1      2462 6.90537E-01
 -1      2463 5.95341E-01
 -1      2464 6.32251E-01
 -1      2465 6.30885E-01
 -1      2466 5.08731E-01
 -1      2467 5.55235E-01
 -1      2468 5.56615E-01
 -1      2469 4.16594E-01
 -1      2470 4.64710E-01
 -1      2471 4.72488E-01
 -1      2472 3.28999E-01
 -1      2473 3.73849E-01
 -1      2474 3.85721E-01
 -1      2475 2.51427E-01
 -1      2476 2.90499E-01
 -1      2477 3.04475E-01
 -1      2478 1.87624E-01
 -1      2479 2.18531E-01
 -1      2480 2.33079E-01
 -1      2481 1.39925E-01
 -1      2482 1.60631E-01
 -1      2483 1.73191E-01
 -1      2484 1.01357E-01
 -1      2485 1.18508E-01
 -1      2486 1.24781E-01
 -1      2487 7.10874E-02
 -1      2488 8.48646E-02
 -1      2489 8.68712E-02
 -1      2490 4.87696E-02
 -1      2491 5.95485E-02
 -1      2492 5.88401E-02
 -1      2493 3.34086E-02
 -1      2494 4.16422E-02
 -1      2495 4.01738E-02
 -1      2496 2.52321E-02
 -1      2497 2.95014E-02
 -1      2498 2.91392E-02
 -1      2499 2.10949E-02
 -1      2500 2.31635E-02
 -1      2501 2.31635E-02
 -1      2502 1.69341E-02
 -1      2503 1.90145E-02
 -1      2504 1.90145E-02
 -1      2505 1.29674E-02
 -1      2506 1.49507E-02
 -1      2507 1.49507E-02
 -1      2508 9.38814E-03
 -1      2509 1.11457E-02
 -1      2510 1.11457E-02
 -1      2511 7.62975E-03
 -1      2512 8.38353E-03
 -1      2513 8.31943E-03
 -1      2514 5.64836E-03
 -1      2515 6.62373E-03
 -1      2516 6.30879E-03
 -1      2517 4.04403E-03
 -1      2518 4.80838E-03
 -1      2519 4.46279E-03
 -1      2520 3.41720E-03
 -1      2521 1.66072E-03
 -1      2522 1.66072E-03
 -1      2523 1.48564E-03
 -1      2524 1.52510E-03
 -1      2525 1.68650E-03
 -1      2526 2.24473E-03
 -1      2527 2.47604E-03
 -1      2528 1.77961E-03
 -1      2529 1.76843E-03
 -1      2530 2.53620E-03
 -1      2531 1.94101E-03
 -1      2532 1.35132E-03
 -1      2533 1.38586E-03
 -1      2534 1.45110E-03
 -1      2535 1.36087E-03
 -1      2536 1.34687E-03
 -1      2537 1.34687E-03
 -1      2538 1.41233E-03
 -1      2539 1.37932E-03
 -1      2540 1.36087E-03
 -1      2541 1.56707E-03
 -1      2542 1.51918E-03
 -1      2543 1.48617E-03
 -1      2544 1.70853E-03
 -1      2545 1.70350E-03
 -1      2546 1.72944E-03
 -1      2547 1.74328E-03
 -1      2548 1.74328E-03
 -1      2549 1.90062E-03
 -1      2550 2.36780E-03
 -1      2551 1.82700E-03
 -1      2552 2.01910E-03
 -1      2553 1.53682E+01
 -1      2554 2.09217E+01
 -1      2555 2.87647E-03
 -1      2556 3.17301E+01
 -1      2557 3.17301E+01
 -1      2558 5.29492E-01
 -1      2559 5.50278E-01
 -1      2560 3.70992E-01
 -1      2561 3.06061E+01
 -1      2562 3.11681E+01
 -1      2563 3.11681E+01
 -1      2564 7.63782E+00
 -1      2565 1.15445E+01
 -1      2566 1.07506E+01
 -1      2567 7.80014E+00
 -1      2568 6.39084E+00
 -1      2569 1.41752E+01
 -1      2570 1.02296E+01
 -1      2571 6.61176E+00
 -1      2572 6.49156E+00
 -1      2573 2.89889E+01
 -1      2574 2.48864E+01
 -1      2575 1.62213E+00
 -1      2576 1.17153E+00
 -1      2577 7.27268E-01
 -1      2578 9.93113E-01
 -1      2579 4.56396E-01
 -1      2580 4.97621E-01
 -1      2581 4.44170E-01
 -1      2582 3.79692E-01
 -1      2583 7.58469E+00
 -1      2584 7.81788E+00
 -1      2585 8.79701E+00
 -1      2586 8.57677E+00
 -1      2587 5.88370E+00
 -1      2588 1.46697E+01
 -1      2589 1.04013E+01
 -1      2590 5.89696E+00
 -1      2591 6.65370E+00
 -1      2592 2.17196E+01
 -1      2593 1.92814E+01
 -1      2594 2.00497E+01
 -1      2595 1.74067E+01
 -1      2596 3.30914E+01
 -1      2597 3.30914E+01
 -1      2598 8.87873E+00
 -1      2599 9.25261E+00
 -1      2600 1.27099E+01
 -1      2601 1.84342E+01
 -1      2602 1.43085E+01
 -1      2603 8.94735E+00
 -1      2604 1.19150E+01
 -1      2605 8.65126E+00
 -1      2606 7.74686E+00
 -1      2607 9.43902E+00
 -1      2608 9.31605E+00
 -1      2609 7.45669E+00
 -1      2610 7.40336E+00
 -1      2611 8.15456E+00
 -1      2612 5.26265E+00
 -1      2613 6.19470E+00
 -1      2614 5.09166E+00
 -1      2615 8.53758E+00
 -1      2616 6.17172E+00
 -1      2617 7.39320E+00
 -1      2618 2.21569E+01
 -1      2619 1.58748E+01
 -1      2620 2.58879E+01
 -1      2621 2.59375E+01
 -1      2622 1.62651E+01
 -1      2623 1.40606E+00
 -1      2624 1.57793E+00
 -1      2625 1.24094E+00
 -1      2626 9.68961E-01
 -1      2627 7.81788E+00
 -1      2628 5.48262E-01
 -1      2629 6.84477E-01
 -1      2630 7.58640E-01
 -1      2631 4.83533E-01
 -1      2632 1.17695E+00
 -1      2633 2.58879E+01
 -1      2634 4.79208E+00
 -1      2635 7.93507E+00
 -1      2636 5.82394E+00
 -1      2637 4.41513E+00
 -1      2638 6.60920E+00
 -1      2639 5.89838E+00
 -1      2640 1.89843E+01
 -1      2641 7.02449E+00
 -1      2642 2.99598E-03
 -1      2643 2.78120E-03
 -1      2644 1.02282E+01
 -1      2645 4.53379E+00
 -1      2646 2.95437E-03
 -1      2647 2.71070E-03
 -1      2648 2.44571E-03
 -1      2649 3.79465E-03
 -1      2650 9.72698E-01
 -1      2651 2.43274E+01
 -1      2652 2.43274E+01
 -1      2653 2.07215E+01
 -1      2654 2.71166E+01
 -1      2655 2.71166E+01
 -1      2656 2.23692E+01
 -1      2657 7.78996E-01
 -1      2658 8.56923E-01
 -1      2659 7.25165E-01
 -1      2660 5.68619E-01
 -1      2661 8.47414E+00
 -1      2662 1.07848E+01
 -1      2663 2.00497E+01
 -1      2664 6.97749E+00
 -1      2665 2.89889E+01
 -1      2666 5.65680E+00
 -1      2667 1.96189E+01
 -1      2668 2.09328E+01
 -1      2669 1.79314E+01
 -1      2670 9.17932E+00
 -1      2671 7.04265E+00
 -1      2672 8.38013E+00
 -1      2673 1.24759E+01
 -1      2674 5.36948E+00
 -1      2675 3.31766E-03
 -1      2676 3.53196E-03
 -1      2677 4.19021E-01
 -1      2678 3.81830E-01
 -1      2679 3.48501E-01
 -1      2680 3.14686E-01
 -1      2681 3.10578E-01
 -1      2682 5.18806E-01
 -1      2683 5.04588E-01
 -1      2684 6.48588E-01
 -1      2685 5.41924E-01
 -1      2686 4.74854E-01
 -1      2687 5.10850E-01
 -1      2688 6.28094E-01
 -1      2689 4.63907E+00
 -1      2690 3.72999E+00
 -1      2691 4.12387E-01
 -1      2692 3.80216E-01
 -1      2693 3.94532E-01
 -1      2694 4.68742E-01
 -1      2695 4.37625E-01
 -1      2696 5.39290E-01
 -1      2697 6.28553E-01
 -1      2698 5.22489E-01
 -1      2699 7.23517E-01
 -1      2700 8.14585E-01
 -1      2701 6.88001E-01
 -1      2702 9.29209E-01
 -1      2703 1.00747E+00
 -1      2704 8.97589E-01
 -1      2705 1.13527E+00
 -1      2706 1.22277E+00
 -1      2707 1.14002E+00
 -1      2708 1.35129E+00
 -1      2709 1.47332E+00
 -1      2710 1.39635E+00
 -1      2711 1.71656E+00
 -1      2712 1.81731E+00
 -1      2713 1.76812E+00
 -1      2714 2.05539E+00
 -1      2715 2.16683E+00
 -1      2716 2.24944E+00
 -1      2717 2.45999E+00
 -1      2718 2.71794E+00
 -1      2719 2.78068E+00
 -1      2720 3.20640E+00
 -1      2721 3.07623E+00
 -1      2722 3.56231E+00
 -1      2723 5.18899E+00
 -1      2724 6.79190E+00
 -1      2725 6.08196E+00
 -1      2726 4.42817E+00
 -1      2727 2.85903E+00
 -1      2728 2.94368E+00
 -1      2729 3.26033E+00
 -1      2730 3.26639E+00
 -1      2731 2.57582E+00
 -1      2732 2.35901E+00
 -1      2733 2.02947E+00
 -1      2734 1.94578E+00
 -1      2735 2.60940E+00
 -1      2736 1.69668E+00
 -1      2737 1.58699E+00
 -1      2738 2.03075E+00
 -1      2739 1.44098E+00
 -1      2740 1.33994E+00
 -1      2741 1.63564E+00
 -1      2742 1.21787E+00
 -1      2743 1.16223E+00
 -1      2744 1.36755E+00
 -1      2745 1.04832E+00
 -1      2746 9.74296E-01
 -1      2747 1.13158E+00
 -1      2748 8.75257E-01
 -1      2749 7.96556E-01
 -1      2750 9.18640E-01
 -1      2751 7.11970E-01
 -1      2752 6.37019E-01
 -1      2753 7.35016E-01
 -1      2754 5.66890E-01
 -1      2755 5.00127E-01
 -1      2756 5.80301E-01
 -1      2757 4.42498E-01
 -1      2758 3.85691E-01
 -1      2759 4.52544E-01
 -1      2760 3.38939E-01
 -1      2761 2.92217E-01
 -1      2762 3.48164E-01
 -1      2763 2.54787E-01
 -1      2764 2.17384E-01
 -1      2765 2.63983E-01
 -1      2766 1.87829E-01
 -1      2767 1.58568E-01
 -1      2768 1.96998E-01
 -1      2769 1.35568E-01
 -1      2770 1.13152E-01
 -1      2771 1.44442E-01
 -1      2772 9.55256E-02
 -1      2773 7.87011E-02
 -1      2774 1.03815E-01
 -1      2775 6.54167E-02
 -1      2776 5.30549E-02
 -1      2777 7.29048E-02
 -1      2778 4.32260E-02
 -1      2779 3.49064E-02
 -1      2780 4.97915E-02
 -1      2781 2.77869E-02
 -1      2782 2.29740E-02
 -1      2783 3.28431E-02
 -1      2784 1.79473E-02
 -1      2785 1.64323E-02
 -1      2786 2.06968E-02
 -1      2787 1.34722E-02
 -1      2788 1.19430E-02
 -1      2789 1.27100E-02
 -1      2790 1.11889E-02
 -1      2791 9.64218E-03
 -1      2792 8.99586E-03
 -1      2793 9.00480E-03
 -1      2794 7.53051E-03
 -1      2795 7.60440E-03
 -1      2796 6.76579E-03
 -1      2797 5.64568E-03
 -1      2798 6.20231E-03
 -1      2799 4.86624E-03
 -1      2800 4.07700E-03
 -1      2801 4.65814E-03
 -1      2802 4.75132E-01
 -1      2803 4.39226E-01
 -1      2804 7.95465E-01
 -1      2805 3.90715E-01
 -1      2806 3.59548E-01
 -1      2807 4.35450E-01
 -1      2808 6.82203E-01
 -1      2809 6.48346E-01
 -1      2810 7.48723E-01
 -1      2811 7.47359E-01
 -1      2812 7.97299E-01
 -1      2813 8.54992E-01
 -1      2814 7.85910E-01
 -1      2815 8.99641E-01
 -1      2816 1.03991E+00
 -1      2817 9.98802E-01
 -1      2818 1.08064E+00
 -1      2819 1.31173E+00
 -1      2820 1.17438E+00
 -1      2821 1.35892E+00
 -1      2822 1.52209E+00
 -1      2823 1.37835E+00
 -1      2824 1.56001E+00
 -1      2825 1.64049E+00
 -1      2826 1.52694E+00
 -1      2827 1.63147E+00
 -1      2828 2.12112E+00
 -1      2829 1.94865E+00
 -1      2830 1.94447E+00
 -1      2831 2.53387E+00
 -1      2832 2.64450E+00
 -1      2833 2.77601E+00
 -1      2834 2.34080E+00
 -1      2835 2.25840E+00
 -1      2836 3.02392E+00
 -1      2837 1.81600E+00
 -1      2838 1.99095E+00
 -1      2839 2.39861E+00
 -1      2840 1.51453E+00
 -1      2841 1.64432E+00
 -1      2842 1.87708E+00
 -1      2843 1.32376E+00
 -1      2844 1.48535E+00
 -1      2845 1.67622E+00
 -1      2846 1.11485E+00
 -1      2847 1.19365E+00
 -1      2848 1.51693E+00
 -1      2849 9.49405E-01
 -1      2850 1.00583E+00
 -1      2851 1.27781E+00
 -1      2852 9.02645E-01
 -1      2853 8.85109E-01
 -1      2854 1.10450E+00
 -1      2855 8.63987E-01
 -1      2856 8.62149E-01
 -1      2857 9.99703E-01
 -1      2858 7.77032E-01
 -1      2859 8.03403E-01
 -1      2860 8.98623E-01
 -1      2861 6.92205E-01
 -1      2862 7.17693E-01
 -1      2863 7.78700E-01
 -1      2864 6.21774E-01
 -1      2865 6.55938E-01
 -1      2866 6.83094E-01
 -1      2867 5.36950E-01
 -1      2868 5.77056E-01
 -1      2869 6.02109E-01
 -1      2870 4.46363E-01
 -1      2871 4.90384E-01
 -1      2872 5.10824E-01
 -1      2873 3.59362E-01
 -1      2874 4.02107E-01
 -1      2875 4.20003E-01
 -1      2876 2.81205E-01
 -1      2877 3.19705E-01
 -1      2878 3.36091E-01
 -1      2879 2.14259E-01
 -1      2880 2.47155E-01
 -1      2881 2.62385E-01
 -1      2882 1.58997E-01
 -1      2883 1.85990E-01
 -1      2884 2.00065E-01
 -1      2885 1.14764E-01
 -1      2886 1.36181E-01
 -1      2887 1.48980E-01
 -1      2888 8.03150E-02
 -1      2889 9.68072E-02
 -1      2890 1.08208E-01
 -1      2891 5.49756E-02
 -1      2892 6.65145E-02
 -1      2893 7.64506E-02
 -1      2894 3.74922E-02
 -1      2895 4.46196E-02
 -1      2896 5.22940E-02
 -1      2897 2.60094E-02
 -1      2898 2.99166E-02
 -1      2899 3.43624E-02
 -1      2900 1.87949E-02
 -1      2901 2.08634E-02
 -1      2902 2.16408E-02
 -1      2903 1.43884E-02
 -1      2904 1.64689E-02
 -1      2905 1.41688E-02
 -1      2906 1.16324E-02
 -1      2907 1.36157E-02
 -1      2908 1.10701E-02
 -1      2909 8.85643E-03
 -1      2910 1.06781E-02
 -1      2911 9.34310E-03
 -1      2912 6.83480E-03
 -1      2913 7.83941E-03
 -1      2914 7.37180E-03
 -1      2915 4.86258E-03
 -1      2916 5.86861E-03
 -1      2917 5.38859E-03
 -1      2918 3.58242E-03
 -1      2919 4.42240E-03
 -1      2920 3.98221E-03
 -1      2921 3.27726E-03
 -1      2922 1.28542E-03
 -1      2923 1.28987E-03
 -1      2924 3.55167E-03
 -1      2925 2.80831E-03
 -1      2926 3.35336E-03
 -1      2927 1.62208E-03
 -1      2928 1.75770E-03
 -1      2929 1.32274E-03
 -1      2930 1.30429E-03
 -1      2931 1.24730E-03
 -1      2932 1.33680E-03
 -1      2933 1.43658E-03
 -1      2934 1.50778E-03
 -1      2935 1.27536E-03
 -1      2936 3.18201E-01
 -1      2937 3.57037E-01
 -1      2938 3.45593E-01
 -1      2939 1.47779E-03
 -1      2940 1.37094E-03
 -1      2941 1.31436E-03
 -1      2942 1.80345E-03
 -1      2943 1.66702E-03
 -1      2944 1.55180E-03
 -1      2945 2.02835E-03
 -1      2946 1.99360E-03
 -1      2947 1.93118E-03
 -1      2948 6.19114E+00
 -1      2949 6.91531E+00
 -1      2950 8.69679E+00
 -1      2951 9.49173E+00
 -1      2952 6.44132E+00
 -1      2953 1.02649E+01
 -1      2954 1.40704E+01
 -1      2955 1.84805E+01
 -1      2956 3.70388E+00
 -1      2957 3.13059E+00
 -1      2958 1.86396E+01
 -1      2959 1.38029E+01
 -1      2960 5.21952E+00
 -1      2961 7.67531E+00
 -1      2962 5.78763E-01
 -1      2963 5.29640E-01
 -1      2964 5.38469E-01
 -1      2965 6.62561E-01
 -1      2966 5.08245E-01
 -1      2967 4.12387E-01
 -1      2968 4.23309E-01
 -1      2969 6.76333E-01
 -1      2970 5.42246E-01
 -1      2971 4.57310E-01
 -1      2972 5.40143E-01
 -1      2973 2.46542E-03
 -1      2974 8.40250E+00
 -1      2975 7.13776E+00
 -1      2976 3.64695E-01
 -1      2977 4.38400E-01
 -1      2978 3.92011E-01
 -1      2979 3.11904E-01
 -1      2980 1.03470E+01
 -1      2981 8.64740E+00
 -1      2982 5.35995E+00
 -1      2983 4.58332E+00
 -1      2984 4.76787E-01
 -1      2985 4.45134E-01
 -1      2986 3.70019E-01
 -1      2987 4.23934E-01
 -1      2988 4.30866E-01
 -1      2989 4.64458E-01
 -1      2990 3.99876E+00
 -1      2991 4.92975E+00
 -1      2992 1.15668E+01
 -1      2993 8.82974E+00
 -1      2994 1.01567E+01
 -1      2995 5.64318E+00
 -1      2996 4.25773E+00
 -1      2997 1.21999E+01
 -1      2998 1.54852E+01
 -1      2999 2.44315E+01
 -1      3000 2.03290E+01
 -1      3001 2.30026E+01
 -1      3002 2.35646E+01
 -1      3003 5.90336E+00
 -1      3004 7.42078E+00
 -1      3005 4.53265E+00
 -1      3006 3.41627E+00
 -1      3007 4.62493E+00
 -1      3008 7.15391E+00
 -1      3009 5.46187E+00
 -1      3010 4.39978E+00
 -1      3011 6.71607E+00
 -1      3012 2.41158E+01
 -1      3013 1.82735E+01
 -1      3014 1.56139E+01
 -1      3015 1.18333E+01
 -1      3016 3.58608E+00
 -1      3017 5.18899E+00
 -1      3018 4.05389E+00
 -1      3019 2.84388E+00
 -1      3020 5.06263E-01
 -1      3021 5.06263E-01
 -1      3022 4.22458E-01
 -1      3023 2.67399E-01
 -1      3024 3.04836E-01
 -1      3025 3.32405E-01
 -1      3026 9.69584E+00
 -1      3027 3.26326E+00
 -1      3028 1.54311E+01
 -1      3029 2.17099E+01
 -1      3030 1.41063E+01
 -1      3031 3.81842E+00
 -1      3032 2.28774E+01
 -1      3033 1.42175E+01
 -1      3034 1.69026E+01
 -1      3035 3.55316E+00
 -1      3036 4.00780E+00
 -1      3037 2.72325E+00
 -1      3038 1.06684E+01
 -1      3039 7.45669E+00
 -1      3040 4.51282E+00
 -1      3041 7.10172E+00
 -1      3042 3.63197E+00
 -1      3043 3.32138E+00
 -1      3044 2.94983E+00
 -1      3045 4.45477E+00
 -1      3046 1.90265E-03
 -1      3047 1.96708E-03
 -1      3048 2.08597E-03
 -1      3049 6.31832E-01
 -1      3050 1.73452E+01
 -1      3051 1.10984E+01
 -1      3052 1.27878E+01
 -1      3053 5.57154E+00
 -1      3054 2.28976E-03
 -1      3055 2.76606E-03
 -1      3056 3.03082E-03
 -1      3057 2.31582E-03
 -1      3058 6.93882E+00
 -1      3059 3.18013E+00
 -1      3060 1.06492E+01
 -1      3061 1.01453E+01
 -1      3062 6.33986E+00
 -1      3063 2.38170E-03
 -1      3064 3.31295E+00
 -1      3065 5.41270E+00
 -1      3066 2.81208E-03
 -1      3067 2.36575E-03
 -1      3068 2.45873E-03
 -1      3069 3.33741E-03
 -1      3070 1.58076E+01
 -1      3071 1.83924E+01
 -1      3072 1.71649E+01
 -1      3073 1.57285E+01
 -1      3074 7.10172E+00
 -1      3075 3.81800E+00
 -1      3076 1.58227E+01
 -1      3077 4.81217E-01
 -1      3078 6.46561E+00
 -1      3079 7.49336E+00
 -1      3080 3.64385E-01
 -1      3081 4.01293E-01
 -1      3082 3.51081E-01
 -1      3083 2.89528E-01
 -1      3084 5.99238E+00
 -1      3085 4.69200E+00
 -1      3086 6.37469E+00
 -1      3087 1.59502E+01
 -1      3088 1.38418E+01
 -1      3089 4.61003E-01
 -1      3090 4.37885E-01
 -1      3091 3.42921E+00
 -1      3092 4.40283E+00
 -1      3093 9.26062E+00
 -1      3094 7.77433E+00
 -1      3095 5.21421E-01
 -1      3096 5.91969E-01
 -1      3097 6.63056E-01
 -1      3098 7.58020E-01
 -1      3099 6.61988E-01
 -1      3100 8.63057E-01
 -1      3101 9.77681E-01
 -1      3102 8.38112E-01
 -1      3103 1.12875E+00
 -1      3104 1.25655E+00
 -1      3105 1.09422E+00
 -1      3106 1.50259E+00
 -1      3107 1.63112E+00
 -1      3108 1.49133E+00
 -1      3109 1.94959E+00
 -1      3110 2.19283E+00
 -1      3111 2.05583E+00
 -1      3112 3.07383E+00
 -1      3113 3.31192E+00
 -1      3114 3.25530E+00
 -1      3115 4.31212E+00
 -1      3116 4.60528E+00
 -1      3117 5.13651E+00
 -1      3118 4.55980E-01
 -1      3119 4.55980E-01
 -1      3120 2.59748E+00
 -1      3121 2.34837E+00
 -1      3122 1.91340E+00
 -1      3123 1.76739E+00
 -1      3124 2.48013E+00
 -1      3125 1.50433E+00
 -1      3126 1.38226E+00
 -1      3127 1.78210E+00
 -1      3128 1.20448E+00
 -1      3129 1.09058E+00
 -1      3130 1.34126E+00
 -1      3131 9.65510E-01
 -1      3132 8.66472E-01
 -1      3133 1.03841E+00
 -1      3134 7.79357E-01
 -1      3135 6.94771E-01
 -1      3136 8.26227E-01
 -1      3137 6.17064E-01
 -1      3138 5.46935E-01
 -1      3139 6.61406E-01
 -1      3140 4.80934E-01
 -1      3141 4.23305E-01
 -1      3142 5.17697E-01
 -1      3143 3.68993E-01
 -1      3144 3.22242E-01
 -1      3145 3.97383E-01
 -1      3146 2.78606E-01
 -1      3147 2.41176E-01
 -1      3148 2.99435E-01
 -1      3149 2.06801E-01
 -1      3150 1.77246E-01
 -1      3151 2.21424E-01
 -1      3152 1.50647E-01
 -1      3153 1.27646E-01
 -1      3154 1.60450E-01
 -1      3155 1.08005E-01
 -1      3156 9.03785E-02
 -1      3157 1.14209E-01
 -1      3158 7.60043E-02
 -1      3159 6.27200E-02
 -1      3160 8.01937E-02
 -1      3161 5.20740E-02
 -1      3162 4.22450E-02
 -1      3163 5.51735E-02
 -1      3164 3.49295E-02
 -1      3165 2.78100E-02
 -1      3166 3.72120E-02
 -1      3167 2.27165E-02
 -1      3168 1.76897E-02
 -1      3169 2.48029E-02
 -1      3170 1.40725E-02
 -1      3171 1.11124E-02
 -1      3172 1.60921E-02
 -1      3173 8.62172E-03
 -1      3174 7.86764E-03
 -1      3175 9.98416E-03
 -1      3176 6.46249E-03
 -1      3177 5.82512E-03
 -1      3178 6.08835E-03
 -1      3179 5.54741E-03
 -1      3180 4.78269E-03
 -1      3181 4.40550E-03
 -1      3182 4.53368E-03
 -1      3183 3.75423E-03
 -1      3184 3.21295E-03
 -1      3185 3.87878E-03
 -1      3186 4.94013E-01
 -1      3187 4.45502E-01
 -1      3188 4.75170E+00
 -1      3189 1.11581E+00
 -1      3190 1.07863E+00
 -1      3191 9.25615E-01
 -1      3192 8.60460E-01
 -1      3193 1.14179E+00
 -1      3194 1.87501E+00
 -1      3195 1.74054E+00
 -1      3196 1.99422E+00
 -1      3197 1.92760E+00
 -1      3198 2.30922E+00
 -1      3199 1.63632E+00
 -1      3200 1.63147E+00
 -1      3201 1.99907E+00
 -1      3202 3.29939E+00
 -1      3203 2.77601E+00
 -1      3204 3.02392E+00
 -1      3205 3.29939E+00
 -1      3206 2.70502E+00
 -1      3207 3.05487E+00
 -1      3208 1.87708E+00
 -1      3209 2.04876E+00
 -1      3210 2.70502E+00
 -1      3211 2.14436E+00
 -1      3212 2.17354E+00
 -1      3213 2.34522E+00
 -1      3214 1.55817E+00
 -1      3215 1.68828E+00
 -1      3216 2.18560E+00
 -1      3217 1.48073E+00
 -1      3218 1.58975E+00
 -1      3219 1.76110E+00
 -1      3220 1.29467E+00
 -1      3221 1.35897E+00
 -1      3222 1.67091E+00
 -1      3223 1.12888E+00
 -1      3224 1.16937E+00
 -1      3225 1.42384E+00
 -1      3226 9.38600E-01
 -1      3227 9.99184E-01
 -1      3228 1.16885E+00
 -1      3229 7.96795E-01
 -1      3230 8.56134E-01
 -1      3231 9.56696E-01
 -1      3232 6.92939E-01
 -1      3233 7.29206E-01
 -1      3234 8.06640E-01
 -1      3235 5.85046E-01
 -1      3236 6.29765E-01
 -1      3237 6.75877E-01
 -1      3238 4.80621E-01
 -1      3239 5.27187E-01
 -1      3240 5.54844E-01
 -1      3241 3.84911E-01
 -1      3242 4.29166E-01
 -1      3243 4.45529E-01
 -1      3244 3.01950E-01
 -1      3245 3.41607E-01
 -1      3246 3.50770E-01
 -1      3247 2.32846E-01
 -1      3248 2.66897E-01
 -1      3249 2.72412E-01
 -1      3250 1.76050E-01
 -1      3251 2.04320E-01
 -1      3252 2.08831E-01
 -1      3253 1.30390E-01
 -1      3254 1.53206E-01
 -1      3255 1.57460E-01
 -1      3256 9.44310E-02
 -1      3257 1.12388E-01
 -1      3258 1.16613E-01
 -1      3259 6.66775E-02
 -1      3260 8.04780E-02
 -1      3261 8.46580E-02
 -1      3262 4.56957E-02
 -1      3263 5.60518E-02
 -1      3264 6.00793E-02
 -1      3265 3.01828E-02
 -1      3266 3.77584E-02
 -1      3267 4.15162E-02
 -1      3268 1.92360E-02
 -1      3269 2.43820E-02
 -1      3270 2.77781E-02
 -1      3271 1.27796E-02
 -1      3272 1.51056E-02
 -1      3273 1.78469E-02
 -1      3274 9.16088E-03
 -1      3275 9.93360E-03
 -1      3276 1.08704E-02
 -1      3277 7.00381E-03
 -1      3278 7.95809E-03
 -1      3279 6.82159E-03
 -1      3280 5.72108E-03
 -1      3281 6.73810E-03
 -1      3282 5.35308E-03
 -1      3283 4.28380E-03
 -1      3284 5.25000E-03
 -1      3285 4.61629E-03
 -1      3286 3.23760E-03
 -1      3287 3.67779E-03
 -1      3288 3.53919E-03
 -1      3289 2.72640E-03
 -1      3290 1.16216E+01
 -1      3291 1.38626E+01
 -1      3292 1.12451E+01
 -1      3293 2.94935E-01
 -1      3294 2.61607E-01
 -1      3295 3.96655E-01
 -1      3296 3.55309E-01
 -1      3297 4.55218E-01
 -1      3298 1.27207E-03
 -1      3299 1.25320E-03
 -1      3300 2.12132E-03
 -1      3301 1.93118E-03
 -1      3302 4.51575E+00
 -1      3303 1.57373E-03
 -1      3304 1.38449E-03
 -1      3305 1.76387E-03
 -1      3306 4.88847E-01
 -1      3307 5.09203E-01
 -1      3308 4.60371E-01
 -1      3309 4.46847E-01
 -1      3310 8.69663E+00
 -1      3311 1.14048E+01
 -1      3312 1.33467E+00
 -1      3313 1.19086E+00
 -1      3314 1.36984E+00
 -1      3315 1.85076E+00
 -1      3316 4.67451E+00
 -1      3317 5.21745E+00
 -1      3318 3.28917E+00
 -1      3319 3.03020E+00
 -1      3320 3.69495E+00
 -1      3321 3.36541E+00
 -1      3322 3.68303E+00
 -1      3323 4.59776E-01
 -1      3324 4.74092E-01
 -1      3325 5.43572E-01
 -1      3326 3.18013E+00
 -1      3327 2.30068E+00
 -1      3328 1.07892E+01
 -1      3329 8.55312E+00
 -1      3330 1.24792E+01
 -1      3331 1.49254E+01
 -1      3332 4.86619E+00
 -1      3333 5.82554E+00
 -1      3334 1.27534E+01
 -1      3335 1.33046E+01
 -1      3336 3.96161E-01
 -1      3337 4.12916E-01
 -1      3338 3.75947E-01
 -1      3339 3.23711E-01
 -1      3340 5.58312E+00
 -1      3341 4.08854E+00
 -1      3342 4.13563E+00
 -1      3343 3.76162E+00
 -1      3344 4.51763E+00
 -1      3345 4.90344E+00
 -1      3346 1.30258E+01
 -1      3347 1.03661E+01
 -1      3348 6.69649E+00
 -1      3349 6.26925E+00
 -1      3350 7.32902E+00
 -1      3351 1.29550E-03
 -1      3352 1.24730E-03
 -1      3353 1.25321E-03
 -1      3354 1.31743E-03
 -1      3355 4.98405E+00
 -1      3356 4.62624E+00
 -1      3357 5.55953E+00
 -1      3358 6.58101E+00
 -1      3359 4.13778E+00
 -1      3360 2.20212E-01
 -1      3361 2.10362E-01
 -1      3362 2.04570E-01
 -1      3363 9.49482E+00
 -1      3364 3.76276E+00
 -1      3365 1.61716E+01
 -1      3366 1.19323E+01
 -1      3367 1.21947E+01
 -1      3368 6.39693E+00
 -1      3369 5.96171E+00
 -1      3370 7.31734E+00
 -1      3371 2.72325E+00
 -1      3372 4.92447E-01
 -1      3373 4.34285E+00
 -1      3374 3.71043E+00
 -1      3375 7.52770E-01
 -1      3376 6.83187E-01
 -1      3377 8.81086E-01
 -1      3378 1.02873E+01
 -1      3379 1.18414E+01
 -1      3380 8.85761E+00
 -1      3381 5.66921E+00
 -1      3382 1.05074E+01
 -1      3383 8.44463E+00
 -1      3384 3.26033E+00
 -1      3385 1.27797E-03
 -1      3386 1.25320E-03
 -1      3387 1.30013E-03
 -1      3388 1.97283E-03
 -1      3389 2.18220E-03
 -1      3390 3.64140E-01
 -1      3391 3.71797E-01
 -1      3392 3.75947E-01
 -1      3393 4.15202E-01
 -1      3394 3.81254E+00
 -1      3395 2.27019E+00
 -1      3396 1.96204E+00
 -1      3397 3.33033E+00
 -1      3398 9.80908E+00
 -1      3399 7.86407E+00
 -1      3400 6.38782E+00
 -1      3401 1.33956E-03
 -1      3402 1.52505E-03
 -1      3403 1.80460E-03
 -1      3404 1.31740E-03
 -1      3405 1.14607E+01
 -1      3406 3.44572E-01
 -1      3407 2.95601E-01
 -1      3408 3.70685E-01
 -1      3409 5.31227E+00
 -1      3410 5.69649E+00
 -1      3411 4.57408E+00
 -1      3412 1.16220E+01
 -1      3413 8.14637E+00
 -1      3414 8.42518E+00
 -1      3415 4.77527E+00
 -1      3416 5.58196E-01
 -1      3417 5.68248E-01
 -1      3418 6.12705E-01
 -1      3419 1.23850E+01
 -1      3420 3.30075E+00
 -1      3421 2.39457E+00
 -1      3422 2.92339E+00
 -1      3423 2.79357E+00
 -1      3424 4.28317E-01
 -1      3425 4.00515E-01
 -1      3426 3.75067E-01
 -1      3427 4.14466E-01
 -1      3428 2.79613E-03
 -1      3429 2.45873E-03
 -1      3430 2.45873E-03
 -1      3431 3.21295E-03
 -1      3432 4.26370E-01
 -1      3433 4.59042E-01
 -1      3434 3.23357E-01
 -1      3435 3.52930E-01
 -1      3436 4.22458E-01
 -1      3437 4.64263E-01
 -1      3438 3.94735E-01
 -1      3439 4.78625E+00
 -1      3440 1.96204E+00
 -1      3441 8.10861E+00
 -1      3442 7.79944E+00
 -1      3443 4.31191E+00
 -1      3444 8.38112E-01
 -1      3445 9.43149E-01
 -1      3446 1.09198E+00
 -1      3447 1.24305E+00
 -1      3448 1.09198E+00
 -1      3449 1.45466E+00
 -1      3450 1.70070E+00
 -1      3451 1.45243E+00
 -1      3452 2.10721E+00
 -1      3453 2.42568E+00
 -1      3454 2.07055E+00
 -1      3455 3.26823E+00
 -1      3456 4.14924E+00
 -1      3457 3.31961E+00
 -1      3458 4.62258E+00
 -1      3459 3.93645E+00
 -1      3460 2.65125E-01
 -1      3461 2.66974E-01
 -1      3462 2.33145E-01
 -1      3463 2.01163E+00
 -1      3464 1.74857E+00
 -1      3465 1.49938E+00
 -1      3466 1.32160E+00
 -1      3467 1.72891E+00
 -1      3468 1.16348E+00
 -1      3469 1.03841E+00
 -1      3470 1.32160E+00
 -1      3471 9.10890E-01
 -1      3472 8.23776E-01
 -1      3473 1.03596E+00
 -1      3474 7.21993E-01
 -1      3475 6.44286E-01
 -1      3476 8.06656E-01
 -1      3477 5.63599E-01
 -1      3478 4.97597E-01
 -1      3479 6.24186E-01
 -1      3480 4.33610E-01
 -1      3481 3.79298E-01
 -1      3482 4.79512E-01
 -1      3483 3.28729E-01
 -1      3484 2.85093E-01
 -1      3485 3.64957E-01
 -1      3486 2.45343E-01
 -1      3487 2.10969E-01
 -1      3488 2.74638E-01
 -1      3489 1.79965E-01
 -1      3490 1.53366E-01
 -1      3491 2.03885E-01
 -1      3492 1.29428E-01
 -1      3493 1.09787E-01
 -1      3494 1.48943E-01
 -1      3495 9.15304E-02
 -1      3496 7.71562E-02
 -1      3497 1.06749E-01
 -1      3498 6.35406E-02
 -1      3499 5.28946E-02
 -1      3500 7.48773E-02
 -1      3501 4.33124E-02
 -1      3502 3.59968E-02
 -1      3503 5.16795E-02
 -1      3504 2.89345E-02
 -1      3505 2.38409E-02
 -1      3506 3.50349E-02
 -1      3507 1.87430E-02
 -1      3508 1.51258E-02
 -1      3509 2.28746E-02
 -1      3510 1.15407E-02
 -1      3511 9.05004E-03
 -1      3512 1.41916E-02
 -1      3513 6.66823E-03
 -1      3514 5.26309E-03
 -1      3515 8.22478E-03
 -1      3516 3.97838E-03
 -1      3517 3.70067E-03
 -1      3518 4.55826E-03
 -1      3519 1.33670E+00
 -1      3520 1.18369E+00
 -1      3521 7.78484E+00
 -1      3522 8.55467E+00
 -1      3523 9.62912E+00
 -1      3524 3.06729E+00
 -1      3525 3.01470E+00
 -1      3526 3.29939E+00
 -1      3527 2.32546E+00
 -1      3528 2.29389E+00
 -1      3529 1.94651E+00
 -1      3530 2.06828E+00
 -1      3531 2.60107E+00
 -1      3532 1.53220E+00
 -1      3533 1.65749E+00
 -1      3534 2.05487E+00
 -1      3535 1.24252E+00
 -1      3536 1.37221E+00
 -1      3537 1.60586E+00
 -1      3538 1.00951E+00
 -1      3539 1.09198E+00
 -1      3540 1.29533E+00
 -1      3541 8.11099E-01
 -1      3542 8.78687E-01
 -1      3543 1.01397E+00
 -1      3544 6.50277E-01
 -1      3545 7.13452E-01
 -1      3546 7.85499E-01
 -1      3547 5.24844E-01
 -1      3548 5.82703E-01
 -1      3549 6.20277E-01
 -1      3550 4.22607E-01
 -1      3551 4.74062E-01
 -1      3552 5.01922E-01
 -1      3553 3.35655E-01
 -1      3554 3.78958E-01
 -1      3555 4.07491E-01
 -1      3556 2.61828E-01
 -1      3557 2.96881E-01
 -1      3558 3.25070E-01
 -1      3559 2.00223E-01
 -1      3560 2.28750E-01
 -1      3561 2.53219E-01
 -1      3562 1.50037E-01
 -1      3563 1.72882E-01
 -1      3564 1.92800E-01
 -1      3565 1.10024E-01
 -1      3566 1.28026E-01
 -1      3567 1.43448E-01
 -1      3568 7.87664E-02
 -1      3569 9.27194E-02
 -1      3570 1.04132E-01
 -1      3571 5.51842E-02
 -1      3572 6.58099E-02
 -1      3573 7.38713E-02
 -1      3574 3.77546E-02
 -1      3575 4.56919E-02
 -1      3576 5.14225E-02
 -1      3577 2.48894E-02
 -1      3578 3.06903E-02
 -1      3579 3.48660E-02
 -1      3580 1.56293E-02
 -1      3581 1.97597E-02
 -1      3582 2.26719E-02
 -1      3583 9.21248E-03
 -1      3584 1.20585E-02
 -1      3585 1.39714E-02
 -1      3586 5.84567E-03
 -1      3587 7.04847E-03
 -1      3588 8.23656E-03
 -1      3589 4.35633E-03
 -1      3590 4.62204E-03
 -1      3591 4.84892E-03
 -1      3592 3.52655E-03
 -1      3593 3.99764E-03
 -1      3594 3.26659E-03
 -1      3595 4.85603E-01
 -1      3596 4.36757E-01
 -1      3597 2.89375E+00
 -1      3598 3.56047E+00
 -1      3599 2.18220E-03
 -1      3600 2.38599E-03
 -1      3601 2.59278E-03
 -1      3602 2.25238E-03
 -1      3603 4.76457E-01
 -1      3604 4.76457E-01
 -1      3605 2.94661E+00
 -1      3606 7.63001E+00
 -1      3607 6.52449E+00
 -1      3608 3.10439E+00
 -1      3609 2.09595E-03
 -1      3610 1.73850E-03
 -1      3611 2.06885E+00
 -1      3612 1.08335E+01
 -1      3613 9.48055E+00
 -1      3614 5.08042E+00
 -1      3615 4.31249E+00
 -1      3616 2.83098E+00
 -1      3617 2.84028E+00
 -1      3618 2.40531E+00
 -1      3619 2.37177E+00
 -1      3620 9.68529E+00
 -1      3621 1.04884E+01
 -1      3622 9.49501E+00
 -1      3623 5.20417E-01
 -1      3624 5.67746E-01
 -1      3625 2.86822E+00
 -1      3626 6.50041E-01
 -1      3627 7.21128E-01
 -1      3628 8.26166E-01
 -1      3629 4.88652E-01
 -1      3630 4.92447E-01
 -1      3631 5.16621E-01
 -1      3632 4.76457E-01
 -1      3633 9.26495E+00
 -1      3634 1.08335E+01
 -1      3635 8.85331E+00
 -1      3636 5.89503E+00
 -1      3637 6.62433E+00
 -1      3638 4.76770E+00
 -1      3639 6.90654E+00
 -1      3640 2.17472E+00
 -1      3641 3.23097E+00
 -1      3642 6.26887E-01
 -1      3643 3.76276E+00
 -1      3644 1.04533E+00
 -1      3645 9.37643E-01
 -1      3646 1.24025E+00
 -1      3647 7.02914E-01
 -1      3648 9.40974E+00
 -1      3649 7.03367E+00
 -1      3650 8.67871E+00
 -1      3651 3.91789E+00
 -1      3652 5.90634E+00
 -1      3653 2.69959E-01
 -1      3654 3.28191E-01
 -1      3655 1.85959E-01
 -1      3656 4.22719E-01
 -1      3657 4.31551E-01
 -1      3658 4.53105E-01
 -1      3659 3.50836E-03
 -1      3660 3.50836E-03
 -1      3661 1.87529E+00
 -1      3662 1.91720E+00
 -1      3663 1.95034E+00
 -1      3664 3.40825E-03
 -1      3665 3.15923E-03
 -1      3666 2.74241E-03
 -1      3667 2.98112E-03
 -1      3668 3.91325E+00
 -1      3669 3.15518E+00
 -1      3670 2.74930E+00
 -1      3671 4.05837E+00
 -1      3672 7.04664E+00
 -1      3673 7.99302E+00
 -1      3674 6.29764E+00
 -1      3675 5.23347E+00
 -1      3676 6.61968E+00
 -1      3677 4.05837E+00
 -1      3678 5.91927E+00
 -1      3679 5.82431E+00
 -1      3680 5.48805E+00
 -1      3681 4.79672E+00
 -1      3682 5.43665E-01
 -1      3683 5.25203E-01
 -1      3684 6.07848E-01
 -1      3685 3.19879E-03
 -1      3686 3.63912E-03
 -1      3687 3.30704E-03
 -1      3688 3.21805E-03
 -1      3689 2.58014E-03
 -1      3690 2.58014E-03
 -1      3691 3.66876E+00
 -1      3692 3.76358E+00
 -1      3693 7.18686E+00
 -1      3694 5.26672E+00
 -1      3695 5.78307E+00
 -1      3696 7.73254E+00
 -1      3697 2.59729E+00
 -1      3698 4.23766E+00
 -1      3699 7.45244E+00
 -1      3700 4.24034E-01
 -1      3701 4.14466E-01
 -1      3702 2.93433E-03
 -1      3703 5.16472E-03
 -1      3704 2.90957E-03
 -1      3705 3.73012E-03
 -1      3706 4.05787E-03
 -1      3707 3.45673E-01
 -1      3708 4.15202E-01
 -1      3709 4.27396E-01
 -1      3710 3.48658E-01
 -1      3711 3.28234E-03
 -1      3712 2.40501E-03
 -1      3713 7.19388E+00
 -1      3714 7.82111E+00
 -1      3715 6.13851E+00
 -1      3716 3.37326E-01
 -1      3717 2.87690E-01
 -1      3718 2.74136E-01
 -1      3719 2.32742E-01
 -1      3720 3.15862E-01
 -1      3721 2.37964E-03
 -1      3722 1.45243E+00
 -1      3723 1.66404E+00
 -1      3724 2.01911E+00
 -1      3725 2.42562E+00
 -1      3726 2.01911E+00
 -1      3727 3.07776E+00
 -1      3728 3.92030E+00
 -1      3729 3.02631E+00
 -1      3730 2.47176E-01
 -1      3731 2.69959E-01
 -1      3732 3.31177E-01
 -1      3733 3.16743E-01
 -1      3734 6.97241E+00
 -1      3735 8.67871E+00
 -1      3736 8.03202E-01
 -1      3737 7.32720E-01
 -1      3738 7.08136E-01
 -1      3739 1.44894E+00
 -1      3740 1.29081E+00
 -1      3741 1.10558E+00
 -1      3742 9.78058E-01
 -1      3743 1.23291E+00
 -1      3744 8.46428E-01
 -1      3745 7.44646E-01
 -1      3746 9.16047E-01
 -1      3747 6.49977E-01
 -1      3748 5.69290E-01
 -1      3749 6.89750E-01
 -1      3750 4.98331E-01
 -1      3751 4.34345E-01
 -1      3752 5.24122E-01
 -1      3753 3.80052E-01
 -1      3754 3.29483E-01
 -1      3755 3.98871E-01
 -1      3756 2.87420E-01
 -1      3757 2.47670E-01
 -1      3758 3.02516E-01
 -1      3759 2.14911E-01
 -1      3760 1.83907E-01
 -1      3761 2.27693E-01
 -1      3762 1.58434E-01
 -1      3763 1.34496E-01
 -1      3764 1.69460E-01
 -1      3765 1.14818E-01
 -1      3766 9.65616E-02
 -1      3767 1.24309E-01
 -1      3768 8.15128E-02
 -1      3769 6.78972E-02
 -1      3770 8.95815E-02
 -1      3771 5.65382E-02
 -1      3772 4.69560E-02
 -1      3773 6.31737E-02
 -1      3774 3.87266E-02
 -1      3775 3.16642E-02
 -1      3776 4.35853E-02
 -1      3777 2.58781E-02
 -1      3778 2.07801E-02
 -1      3779 2.95698E-02
 -1      3780 1.65611E-02
 -1      3781 1.29760E-02
 -1      3782 1.95645E-02
 -1      3783 9.98030E-03
 -1      3784 7.59849E-03
 -1      3785 1.23497E-02
 -1      3786 5.54908E-03
 -1      3787 4.26438E-03
 -1      3788 7.30461E-03
 -1      3789 2.67206E-03
 -1      3790 3.97642E-01
 -1      3791 3.67811E-01
 -1      3792 3.59900E-01
 -1      3793 4.07210E-01
 -1      3794 3.00697E+00
 -1      3795 3.29599E+00
 -1      3796 1.38235E+00
 -1      3797 1.53289E+00
 -1      3798 9.94615E-01
 -1      3799 1.12544E+00
 -1      3800 1.36299E+00
 -1      3801 7.68153E-01
 -1      3802 8.65800E-01
 -1      3803 9.77270E-01
 -1      3804 6.19546E-01
 -1      3805 6.87120E-01
 -1      3806 7.67421E-01
 -1      3807 5.01922E-01
 -1      3808 5.52703E-01
 -1      3809 6.19546E-01
 -1      3810 4.01493E-01
 -1      3811 4.45141E-01
 -1      3812 4.95923E-01
 -1      3813 3.15097E-01
 -1      3814 3.53870E-01
 -1      3815 3.91519E-01
 -1      3816 2.42707E-01
 -1      3817 2.75785E-01
 -1      3818 3.04585E-01
 -1      3819 1.83439E-01
 -1      3820 2.10780E-01
 -1      3821 2.33346E-01
 -1      3822 1.35880E-01
 -1      3823 1.57891E-01
 -1      3824 1.75871E-01
 -1      3825 9.84360E-02
 -1      3826 1.15740E-01
 -1      3827 1.30184E-01
 -1      3828 6.98534E-02
 -1      3829 8.28099E-02
 -1      3830 9.44181E-02
 -1      3831 4.84424E-02
 -1      3832 5.79346E-02
 -1      3833 6.68732E-02
 -1      3834 3.27240E-02
 -1      3835 3.97884E-02
 -1      3836 4.63004E-02
 -1      3837 2.14189E-02
 -1      3838 2.65486E-02
 -1      3839 3.14711E-02
 -1      3840 1.33416E-02
 -1      3841 1.69124E-02
 -1      3842 2.07891E-02
 -1      3843 7.97824E-03
 -1      3844 1.01422E-02
 -1      3845 1.30833E-02
 -1      3846 5.37720E-03
 -1      3847 6.60083E-03
 -1      3848 8.50652E-03
 -1      3849 4.41657E-03
 -1      3850 5.73876E-03
 -1      3851 3.50836E-03
 -1      3852 3.54779E-03
 -1      3853 6.74702E+00
 -1      3854 6.80319E+00
 -1      3855 5.98689E+00
 -1      3856 4.98992E+00
 -1      3857 2.70692E+00
 -1      3858 3.61224E+00
 -1      3859 3.74006E+00
 -1      3860 2.44974E+00
 -1      3861 7.77440E-01
 -1      3862 8.94424E-01
 -1      3863 1.97809E+00
 -1      3864 1.72891E+00
 -1      3865 1.69812E+00
 -1      3866 4.24034E-01
 -1      3867 4.24034E-01
 -1      3868 5.35390E+00
 -1      3869 6.75477E+00
 -1      3870 3.14786E+00
 -1      3871 2.75418E+00
 -1      3872 2.75418E+00
 -1      3873 1.96573E+00
 -1      3874 2.12572E+00
 -1      3875 3.36685E+00
 -1      3876 2.05275E+00
 -1      3877 5.77584E-01
 -1      3878 6.59879E-01
 -1      3879 7.28137E-01
 -1      3880 1.06045E+00
 -1      3881 1.20928E+00
 -1      3882 1.01172E+00
 -1      3883 5.47331E-03
 -1      3884 5.07386E+00
 -1      3885 5.67793E+00
 -1      3886 6.44543E+00
 -1      3887 4.78599E+00
 -1      3888 3.79451E+00
 -1      3889 6.44543E+00
 -1      3890 4.31551E-01
 -1      3891 3.66289E-03
 -1      3892 6.16848E-03
 -1      3893 1.51572E+00
 -1      3894 1.37736E+00
 -1      3895 4.87886E-01
 -1      3896 5.15855E-01
 -1      3897 5.48848E-01
 -1      3898 4.26630E-01
 -1      3899 6.15612E+00
 -1      3900 3.95597E-01
 -1      3901 3.95597E-01
 -1      3902 3.25475E+00
 -1      3903 3.40184E+00
 -1      3904 9.67449E-01
 -1      3905 4.71637E-01
 -1      3906 4.57600E-01
 -1      3907 1.42089E+00
 -1      3908 2.52915E+00
 -1      3909 1.99056E+00
 -1      3910 2.12767E+00
 -1      3911 4.71843E+00
 -1      3912 4.17692E+00
 -1      3913 6.16848E-03
 -1      3914 7.12911E-03
 -1      3915 6.43393E-03
 -1      3916 4.79038E+00
 -1      3917 6.40176E-03
 -1      3918 6.40176E-03
 -1      3919 7.09694E-03
 -1      3920 4.74806E+00
 -1      3921 4.28151E-01
 -1      3922 3.97665E-01
 -1      3923 5.23143E-03
 -1      3924 6.31352E+00
 -1      3925 3.90563E+00
 -1      3926 4.21498E+00
 -1      3927 4.89918E-03
 -1      3928 5.14755E+00
 -1      3929 5.26314E+00
 -1      3930 4.08338E+00
 -1      3931 4.87051E-01
 -1      3932 4.18801E-01
 -1      3933 4.05247E-01
 -1      3934 4.05372E+00
 -1      3935 5.92169E+00
 -1      3936 6.79925E+00
 -1      3937 5.93465E+00
 -1      3938 4.09148E-01
 -1      3939 4.73568E-01
 -1      3940 4.95451E-03
 -1      3941 5.52854E-03
 -1      3942 6.19154E-03
 -1      3943 6.05578E-01
 -1      3944 5.47517E-01
 -1      3945 5.52012E-01
 -1      3946 4.50083E-01
 -1      3947 4.62151E+00
 -1      3948 4.16093E+00
 -1      3949 3.87306E+00
 -1      3950 4.33259E-01
 -1      3951 4.19682E-01
 -1      3952 4.84101E-01
 -1      3953 4.05247E-01
 -1      3954 3.25475E+00
 -1      3955 2.49657E+00
 -1      3956 3.14871E+00
 -1      3957 3.32812E+00
 -1      3958 1.23062E+00
 -1      3959 1.47377E+00
 -1      3960 8.61370E-01
 -1      3961 1.02739E+00
 -1      3962 1.08027E+00
 -1      3963 8.28150E-01
 -1      3964 7.03278E-01
 -1      3965 7.25592E-01
 -1      3966 9.03979E-01
 -1      3967 7.72350E-01
 -1      3968 6.79543E-01
 -1      3969 5.84874E-01
 -1      3970 6.67474E-01
 -1      3971 5.15495E-01
 -1      3972 4.44536E-01
 -1      3973 5.05288E-01
 -1      3974 3.93096E-01
 -1      3975 3.38804E-01
 -1      3976 3.84469E-01
 -1      3977 2.99468E-01
 -1      3978 2.57404E-01
 -1      3979 2.93692E-01
 -1      3980 2.26752E-01
 -1      3981 1.93992E-01
 -1      3982 2.23704E-01
 -1      3983 1.69968E-01
 -1      3984 1.44495E-01
 -1      3985 1.69027E-01
 -1      3986 1.25702E-01
 -1      3987 1.06023E-01
 -1      3988 1.26210E-01
 -1      3989 9.14282E-02
 -1      3990 7.63794E-02
 -1      3991 9.28214E-02
 -1      3992 6.51671E-02
 -1      3993 5.38081E-02
 -1      3994 6.70139E-02
 -1      3995 4.53138E-02
 -1      3996 3.70844E-02
 -1      3997 4.73073E-02
 -1      3998 3.08222E-02
 -1      3999 2.50361E-02
 -1      4000 3.25507E-02
 -1      4001 2.08738E-02
 -1      4002 1.66548E-02
 -1      4003 2.21263E-02
 -1      4004 1.36021E-02
 -1      4005 1.06064E-02
 -1      4006 1.49114E-02
 -1      4007 8.45460E-03
 -1      4008 6.40520E-03
 -1      4009 9.70695E-03
 -1      4010 7.67421E-01
 -1      4011 8.48454E-01
 -1      4012 9.77270E-01
 -1      4013 1.10608E+00
 -1      4014 9.77270E-01
 -1      4015 6.41037E-01
 -1      4016 7.58598E-01
 -1      4017 7.74270E-01
 -1      4018 3.71410E+00
 -1      4019 4.78372E+00
 -1      4020 3.18437E+00
 -1      4021 1.28291E+00
 -1      4022 1.53982E+00
 -1      4023 1.28291E+00
 -1      4024 6.00844E-01
 -1      4025 6.67686E-01
 -1      4026 7.48719E-01
 -1      4027 4.69747E-01
 -1      4028 5.26527E-01
 -1      4029 5.74667E-01
 -1      4030 3.64130E-01
 -1      4031 4.11753E-01
 -1      4032 4.42357E-01
 -1      4033 2.79382E-01
 -1      4034 3.18693E-01
 -1      4035 3.38927E-01
 -1      4036 2.11889E-01
 -1      4037 2.43816E-01
 -1      4038 2.57924E-01
 -1      4039 1.58488E-01
 -1      4040 1.84036E-01
 -1      4041 1.94505E-01
 -1      4042 1.16626E-01
 -1      4043 1.36765E-01
 -1      4044 1.44930E-01
 -1      4045 8.41868E-02
 -1      4046 9.98130E-02
 -1      4047 1.06394E-01
 -1      4048 5.93940E-02
 -1      4049 7.13127E-02
 -1      4050 7.67076E-02
 -1      4051 4.10117E-02
 -1      4052 4.96656E-02
 -1      4053 5.41052E-02
 -1      4054 2.76380E-02
 -1      4055 3.38134E-02
 -1      4056 3.71786E-02
 -1      4057 1.82552E-02
 -1      4058 2.27617E-02
 -1      4059 2.51040E-02
 -1      4060 1.14825E-02
 -1      4061 1.46819E-02
 -1      4062 1.66544E-02
 -1      4063 7.87512E-03
 -1      4064 9.25253E-03
 -1      4065 1.08511E-02
 -1      4066 7.87512E-03
 -1      4067 4.07178E+00
 -1      4068 1.36869E+00
 -1      4069 1.09322E+00
 -1      4070 9.58778E-01
 -1      4071 4.71024E-01
 -1      4072 6.38143E-03
 -1      4073 4.95294E+00
 -1      4074 5.62436E+00
 -1      4075 5.62436E+00
 -1      4076 5.38993E+00
 -1      4077 4.42118E+00
 -1      4078 1.83119E+00
 -1      4079 1.55121E+00
 -1      4080 1.32990E+00
 -1      4081 1.14466E+00
 -1      4082 1.00096E+00
 -1      4083 1.46296E+00
 -1      4084 3.53027E+00
 -1      4085 2.75418E+00
 -1      4086 2.60728E+00
 -1      4087 6.11278E-01
 -1      4088 6.06170E-01
 -1      4089 6.87158E-01
 -1      4090 4.07178E+00
 -1      4091 1.79731E+00
 -1      4092 2.15237E+00
 -1      4093 2.27477E+00
 -1      4094 5.35296E-01
 -1      4095 5.65757E-01
 -1      4096 5.08186E-01
 -1      4097 1.60704E+00
 -1      4098 9.53920E-01
 -1      4099 4.99353E-01
 -1      4100 6.05093E-01
 -1      4101 5.23438E-01
 -1      4102 3.61942E+00
 -1      4103 1.57231E+00
 -1      4104 1.28817E+00
 -1      4105 3.89231E+00
 -1      4106 3.45106E+00
 -1      4107 5.13812E+00
 -1      4108 4.10362E+00
 -1      4109 4.89073E+00
 -1      4110 2.80700E+00
 -1      4111 3.68825E+00
 -1      4112 6.27305E-01
 -1      4113 2.41689E+00
 -1      4114 1.94205E+00
 -1      4115 1.86152E+00
 -1      4116 4.45216E+00
 -1      4117 5.26299E-03
 -1      4118 1.77412E+00
 -1      4119 2.20697E+00
 -1      4120 2.52836E+00
 -1      4121 1.69404E+00
 -1      4122 4.58632E+00
 -1      4123 3.45159E+00
 -1      4124 3.58350E+00
 -1      4125 3.41901E+00
 -1      4126 8.50862E-03
 -1      4127 8.54079E-03
 -1      4128 9.28680E-03
 -1      4129 8.19075E-03
 -1      4130 9.06397E-03
 -1      4131 1.05078E-02
 -1      4132 6.43676E-03
 -1      4133 3.32812E+00
 -1      4134 2.60251E+00
 -1      4135 8.23292E-01
 -1      4136 7.25592E-01
 -1      4137 7.84858E-01
 -1      4138 9.49439E-01
 -1      4139 1.15267E+00
 -1      4140 2.25251E+00
 -1      4141 2.59671E+00
 -1      4142 6.71498E-01
 -1      4143 7.74270E-01
 -1      4144 8.46666E-01
 -1      4145 6.05093E-01
 -1      4146 5.58399E-01
 -1      4147 4.89020E-01
 -1      4148 4.21055E-01
 -1      4149 3.69614E-01
 -1      4150 4.74165E-01
 -1      4151 3.19154E-01
 -1      4152 2.79818E-01
 -1      4153 3.55740E-01
 -1      4154 2.41685E-01
 -1      4155 2.11033E-01
 -1      4156 2.67147E-01
 -1      4157 1.81898E-01
 -1      4158 1.57874E-01
 -1      4159 1.99879E-01
 -1      4160 1.36248E-01
 -1      4161 1.17455E-01
 -1      4162 1.49119E-01
 -1      4163 1.01096E-01
 -1      4164 8.65007E-02
 -1      4165 1.11135E-01
 -1      4166 7.37387E-02
 -1      4167 6.25264E-02
 -1      4168 8.20133E-02
 -1      4169 5.26752E-02
 -1      4170 4.41809E-02
 -1      4171 5.94000E-02
 -1      4172 3.66662E-02
 -1      4173 3.04040E-02
 -1      4174 4.20341E-02
 -1      4175 2.48780E-02
 -1      4176 2.07158E-02
 -1      4177 2.89935E-02
 -1      4178 1.83677E-02
 -1      4179 1.53150E-02
 -1      4180 2.11194E-02
 -1      4181 1.14609E-02
 -1      4182 9.30918E-03
 -1      4183 6.14191E-01
 -1      4184 6.88507E-01
 -1      4185 8.25521E-01
 -1      4186 9.25256E-01
 -1      4187 8.65044E-01
 -1      4188 3.29201E+00
 -1      4189 3.20286E+00
 -1      4190 2.27986E+00
 -1      4191 3.00245E+00
 -1      4192 6.27305E-01
 -1      4193 6.27305E-01
 -1      4194 6.42556E-01
 -1      4195 2.70481E+00
 -1      4196 3.27020E+00
 -1      4197 3.94162E+00
 -1      4198 2.68255E+00
 -1      4199 1.25142E+00
 -1      4200 1.42825E+00
 -1      4201 4.63247E-01
 -1      4202 5.21241E-01
 -1      4203 6.35081E-01
 -1      4204 3.49845E-01
 -1      4205 3.95282E-01
 -1      4206 4.74165E-01
 -1      4207 2.63819E-01
 -1      4208 2.99385E-01
 -1      4209 3.55740E-01
 -1      4210 1.97834E-01
 -1      4211 2.25686E-01
 -1      4212 2.67147E-01
 -1      4213 1.46976E-01
 -1      4214 1.68699E-01
 -1      4215 1.99879E-01
 -1      4216 1.07809E-01
 -1      4217 1.24622E-01
 -1      4218 1.48391E-01
 -1      4219 7.78051E-02
 -1      4220 9.06792E-02
 -1      4221 1.08907E-01
 -1      4222 5.50220E-02
 -1      4223 6.47503E-02
 -1      4224 7.87219E-02
 -1      4225 3.79570E-02
 -1      4226 4.51552E-02
 -1      4227 5.58003E-02
 -1      4228 2.60468E-02
 -1      4229 3.09231E-02
 -1      4230 3.88997E-02
 -1      4231 1.68070E-02
 -1      4232 2.03804E-02
 -1      4233 2.61994E-02
 -1      4234 2.81960E+00
 -1      4235 3.14227E+00
 -1      4236 2.82013E+00
 -1      4237 2.21957E+00
 -1      4238 7.46424E-01
 -1      4239 1.45167E+00
 -1      4240 1.77520E+00
 -1      4241 1.32083E+00
 -1      4242 9.29727E-01
 -1      4243 1.05854E+00
 -1      4244 1.20388E+00
 -1      4245 1.00653E+00
 -1      4246 7.44156E-01
 -1      4247 6.51349E-01
 -1      4248 6.35081E-01
 -1      4249 2.41689E+00
 -1      4250 1.08455E+00
 -1      4251 9.53920E-01
 -1      4252 9.53920E-01
 -1      4253 1.28817E+00
 -1      4254 4.40621E+00
 -1      4255 4.70354E+00
 -1      4256 3.25523E+00
 -1      4257 8.51449E-01
 -1      4258 8.13014E-01
 -1      4259 8.13014E-01
 -1      4260 9.82076E-01
 -1      4261 2.58848E+00
 -1      4262 2.40286E+00
 -1      4263 3.90701E+00
 -1      4264 3.35778E+00
 -1      4265 1.49173E-02
 -1      4266 2.22062E+00
 -1      4267 1.62504E+00
 -1      4268 8.71549E-03
 -1      4269 1.09455E-02
 -1      4270 1.46714E-02
 -1      4271 9.38116E-03
 -1      4272 1.49173E-02
 -1      4273 1.43619E-02
 -1      4274 1.37906E-02
 -1      4275 1.87714E-02
 -1      4276 3.34835E+00
 -1      4277 1.40372E+00
 -1      4278 1.21875E+00
 -1      4279 9.78069E-01
 -1      4280 9.61944E-01
 -1      4281 2.29657E+00
 -1      4282 1.92683E+00
 -1      4283 2.46816E+00
 -1      4284 3.33432E+00
 -1      4285 2.11133E+00
 -1      4286 2.34563E+00
 -1      4287 2.63687E+00
 -1      4288 2.07984E+00
 -1      4289 2.09714E+00
 -1      4290 1.99085E+00
 -1      4291 1.55581E+00
 -1      4292 1.35219E+00
 -1      4293 3.14713E+00
 -1      4294 1.99085E+00
 -1      4295 2.46816E+00
 -1      4296 5.42131E-01
 -1      4297 4.74165E-01
 -1      4298 2.81919E+00
 -1      4299 2.16436E+00
 -1      4300 4.06200E-01
 -1      4301 3.55740E-01
 -1      4302 3.05279E-01
 -1      4303 2.67147E-01
 -1      4304 2.29014E-01
 -1      4305 1.99879E-01
 -1      4306 1.70745E-01
 -1      4307 1.49119E-01
 -1      4308 1.26765E-01
 -1      4309 1.10406E-01
 -1      4310 9.32760E-02
 -1      4311 8.05140E-02
 -1      4312 6.74592E-02
 -1      4313 5.76079E-02
 -1      4314 4.77412E-02
 -1      4315 4.02265E-02
 -1      4316 3.31927E-02
 -1      4317 2.76667E-02
 -1      4318 1.96522E-02
 -1      4319 6.35081E-01
 -1      4320 2.20002E-02
 -1      4321 7.28031E-01
 -1      4322 8.65044E-01
 -1      4323 1.32083E+00
 -1      4324 1.61983E+00
 -1      4325 2.57445E+00
 -1      4326 1.38083E+00
 -1      4327 8.13014E-01
 -1      4328 7.09147E-01
 -1      4329 7.75551E-01
 -1      4330 8.79605E-01
 -1      4331 1.09896E+00
 -1      4332 1.24972E+00
 -1      4333 9.50720E-01
 -1      4334 1.48127E+00
 -1      4335 2.11194E-02
 -1      4336 2.94619E+00
 -1      4337 1.29630E+00
 -1      4338 3.14713E+00
 -1      4339 1.24972E+00
 -1      4340 1.10343E+00
 -3
 9999
