    1C
    1UUSER                                                              
    1UDATE              26.october.2022                                 
    1UTIME              23:58:25                                        
    1UHOST                                                              
    1UPGM               CalculiX                                        
    1UVERSION           Version 2.17                             
    1UCOMPILETIME       Thu Jul 23 21:43:50 CEST 2020                    
    1UDIR                                                               
    1UDBN                                                               
    1UMAT    1SOLIDMATERIAL                                             
    2C                          4316                                     1
 -1         1 1.11755E+02 2.43187E+01 0.00000E+00
 -1         2 1.25710E+02 2.51139E+01 0.00000E+00
 -1         3 1.50000E+02 0.00000E+00 0.00000E+00
 -1         4 1.50000E+02 5.00000E+01 0.00000E+00
 -1         5 0.00000E+00 0.00000E+00 0.00000E+00
 -1         6 0.00000E+00 5.00000E+01 0.00000E+00
 -1         7 0.00000E+00 4.70500E+01 0.00000E+00
 -1         8 0.00000E+00 4.41000E+01 0.00000E+00
 -1         9 0.00000E+00 4.11500E+01 0.00000E+00
 -1        10 0.00000E+00 3.82000E+01 0.00000E+00
 -1        11 0.00000E+00 3.52500E+01 0.00000E+00
 -1        12 0.00000E+00 3.23500E+01 0.00000E+00
 -1        13 0.00000E+00 2.94000E+01 0.00000E+00
 -1        14 0.00000E+00 2.64500E+01 0.00000E+00
 -1        15 0.00000E+00 2.35000E+01 0.00000E+00
 -1        16 0.00000E+00 2.05500E+01 0.00000E+00
 -1        17 0.00000E+00 1.76000E+01 0.00000E+00
 -1        18 0.00000E+00 1.47000E+01 0.00000E+00
 -1        19 0.00000E+00 1.17500E+01 0.00000E+00
 -1        20 0.00000E+00 8.80000E+00 0.00000E+00
 -1        21 0.00000E+00 5.85000E+00 0.00000E+00
 -1        22 0.00000E+00 2.90000E+00 0.00000E+00
 -1        23 3.15000E+00 5.00000E+01 0.00000E+00
 -1        24 6.15000E+00 5.00000E+01 0.00000E+00
 -1        25 9.15000E+00 5.00000E+01 0.00000E+00
 -1        26 1.21500E+01 5.00000E+01 0.00000E+00
 -1        27 1.51500E+01 5.00000E+01 0.00000E+00
 -1        28 1.81500E+01 5.00000E+01 0.00000E+00
 -1        29 2.11500E+01 5.00000E+01 0.00000E+00
 -1        30 2.41500E+01 5.00000E+01 0.00000E+00
 -1        31 2.71500E+01 5.00000E+01 0.00000E+00
 -1        32 3.01500E+01 5.00000E+01 0.00000E+00
 -1        33 3.31500E+01 5.00000E+01 0.00000E+00
 -1        34 3.61500E+01 5.00000E+01 0.00000E+00
 -1        35 3.91500E+01 5.00000E+01 0.00000E+00
 -1        36 4.21500E+01 5.00000E+01 0.00000E+00
 -1        37 4.51500E+01 5.00000E+01 0.00000E+00
 -1        38 4.81500E+01 5.00000E+01 0.00000E+00
 -1        39 5.11500E+01 5.00000E+01 0.00000E+00
 -1        40 5.41500E+01 5.00000E+01 0.00000E+00
 -1        41 5.71500E+01 5.00000E+01 0.00000E+00
 -1        42 6.01500E+01 5.00000E+01 0.00000E+00
 -1        43 6.31500E+01 5.00000E+01 0.00000E+00
 -1        44 6.61500E+01 5.00000E+01 0.00000E+00
 -1        45 6.91500E+01 5.00000E+01 0.00000E+00
 -1        46 7.21500E+01 5.00000E+01 0.00000E+00
 -1        47 7.51500E+01 5.00000E+01 0.00000E+00
 -1        48 7.81500E+01 5.00000E+01 0.00000E+00
 -1        49 8.11500E+01 5.00000E+01 0.00000E+00
 -1        50 8.41500E+01 5.00000E+01 0.00000E+00
 -1        51 8.71500E+01 5.00000E+01 0.00000E+00
 -1        52 9.01500E+01 5.00000E+01 0.00000E+00
 -1        53 9.31500E+01 5.00000E+01 0.00000E+00
 -1        54 9.61500E+01 5.00000E+01 0.00000E+00
 -1        55 9.91500E+01 5.00000E+01 0.00000E+00
 -1        56 1.02150E+02 5.00000E+01 0.00000E+00
 -1        57 1.05150E+02 5.00000E+01 0.00000E+00
 -1        58 1.08150E+02 5.00000E+01 0.00000E+00
 -1        59 1.11150E+02 5.00000E+01 0.00000E+00
 -1        60 1.14150E+02 5.00000E+01 0.00000E+00
 -1        61 1.17150E+02 5.00000E+01 0.00000E+00
 -1        62 1.20150E+02 5.00000E+01 0.00000E+00
 -1        63 1.23150E+02 5.00000E+01 0.00000E+00
 -1        64 1.26150E+02 5.00000E+01 0.00000E+00
 -1        65 1.29150E+02 5.00000E+01 0.00000E+00
 -1        66 1.32150E+02 5.00000E+01 0.00000E+00
 -1        67 1.35150E+02 5.00000E+01 0.00000E+00
 -1        68 1.38150E+02 5.00000E+01 0.00000E+00
 -1        69 1.41150E+02 5.00000E+01 0.00000E+00
 -1        70 1.44150E+02 5.00000E+01 0.00000E+00
 -1        71 1.47150E+02 5.00000E+01 0.00000E+00
 -1        72 3.15000E+00 0.00000E+00 0.00000E+00
 -1        73 6.15000E+00 0.00000E+00 0.00000E+00
 -1        74 9.15000E+00 0.00000E+00 0.00000E+00
 -1        75 1.21500E+01 0.00000E+00 0.00000E+00
 -1        76 1.51500E+01 0.00000E+00 0.00000E+00
 -1        77 1.81500E+01 0.00000E+00 0.00000E+00
 -1        78 2.11500E+01 0.00000E+00 0.00000E+00
 -1        79 2.41500E+01 0.00000E+00 0.00000E+00
 -1        80 2.71500E+01 0.00000E+00 0.00000E+00
 -1        81 3.01500E+01 0.00000E+00 0.00000E+00
 -1        82 3.31500E+01 0.00000E+00 0.00000E+00
 -1        83 3.61500E+01 0.00000E+00 0.00000E+00
 -1        84 3.91500E+01 0.00000E+00 0.00000E+00
 -1        85 4.21500E+01 0.00000E+00 0.00000E+00
 -1        86 4.51500E+01 0.00000E+00 0.00000E+00
 -1        87 4.81500E+01 0.00000E+00 0.00000E+00
 -1        88 5.11500E+01 0.00000E+00 0.00000E+00
 -1        89 5.41500E+01 0.00000E+00 0.00000E+00
 -1        90 5.71500E+01 0.00000E+00 0.00000E+00
 -1        91 6.01500E+01 0.00000E+00 0.00000E+00
 -1        92 6.31500E+01 0.00000E+00 0.00000E+00
 -1        93 6.61500E+01 0.00000E+00 0.00000E+00
 -1        94 6.91500E+01 0.00000E+00 0.00000E+00
 -1        95 7.21500E+01 0.00000E+00 0.00000E+00
 -1        96 7.51500E+01 0.00000E+00 0.00000E+00
 -1        97 7.81500E+01 0.00000E+00 0.00000E+00
 -1        98 8.11500E+01 0.00000E+00 0.00000E+00
 -1        99 8.41500E+01 0.00000E+00 0.00000E+00
 -1       100 8.71500E+01 0.00000E+00 0.00000E+00
 -1       101 9.01500E+01 0.00000E+00 0.00000E+00
 -1       102 9.31500E+01 0.00000E+00 0.00000E+00
 -1       103 9.61500E+01 0.00000E+00 0.00000E+00
 -1       104 9.91500E+01 0.00000E+00 0.00000E+00
 -1       105 1.02150E+02 0.00000E+00 0.00000E+00
 -1       106 1.05150E+02 0.00000E+00 0.00000E+00
 -1       107 1.08150E+02 0.00000E+00 0.00000E+00
 -1       108 1.11150E+02 0.00000E+00 0.00000E+00
 -1       109 1.14150E+02 0.00000E+00 0.00000E+00
 -1       110 1.17150E+02 0.00000E+00 0.00000E+00
 -1       111 1.20150E+02 0.00000E+00 0.00000E+00
 -1       112 1.23150E+02 0.00000E+00 0.00000E+00
 -1       113 1.26150E+02 0.00000E+00 0.00000E+00
 -1       114 1.29150E+02 0.00000E+00 0.00000E+00
 -1       115 1.32150E+02 0.00000E+00 0.00000E+00
 -1       116 1.35150E+02 0.00000E+00 0.00000E+00
 -1       117 1.38150E+02 0.00000E+00 0.00000E+00
 -1       118 1.41150E+02 0.00000E+00 0.00000E+00
 -1       119 1.44150E+02 0.00000E+00 0.00000E+00
 -1       120 1.47150E+02 0.00000E+00 0.00000E+00
 -1       121 1.50000E+02 2.95000E+00 0.00000E+00
 -1       122 1.50000E+02 5.90000E+00 0.00000E+00
 -1       123 1.50000E+02 8.85000E+00 0.00000E+00
 -1       124 1.50000E+02 1.18000E+01 0.00000E+00
 -1       125 1.50000E+02 1.47500E+01 0.00000E+00
 -1       126 1.50000E+02 1.76500E+01 0.00000E+00
 -1       127 1.50000E+02 2.06000E+01 0.00000E+00
 -1       128 1.50000E+02 2.35500E+01 0.00000E+00
 -1       129 1.50000E+02 2.65000E+01 0.00000E+00
 -1       130 1.50000E+02 2.94500E+01 0.00000E+00
 -1       131 1.50000E+02 3.24000E+01 0.00000E+00
 -1       132 1.50000E+02 3.53000E+01 0.00000E+00
 -1       133 1.50000E+02 3.82500E+01 0.00000E+00
 -1       134 1.50000E+02 4.12000E+01 0.00000E+00
 -1       135 1.50000E+02 4.41500E+01 0.00000E+00
 -1       136 1.50000E+02 4.71000E+01 0.00000E+00
 -1       137 1.25555E+02 2.36496E+01 0.00000E+00
 -1       138 1.25145E+02 2.23586E+01 0.00000E+00
 -1       139 1.24486E+02 2.11597E+01 0.00000E+00
 -1       140 1.23566E+02 2.00727E+01 0.00000E+00
 -1       141 1.22493E+02 1.92240E+01 0.00000E+00
 -1       142 1.21272E+02 1.85997E+01 0.00000E+00
 -1       143 1.19923E+02 1.82198E+01 0.00000E+00
 -1       144 1.18452E+02 1.81187E+01 0.00000E+00
 -1       145 1.17076E+02 1.83072E+01 0.00000E+00
 -1       146 1.15772E+02 1.87604E+01 0.00000E+00
 -1       147 1.14504E+02 1.95181E+01 0.00000E+00
 -1       148 1.13422E+02 2.05267E+01 0.00000E+00
 -1       149 1.12631E+02 2.16432E+01 0.00000E+00
 -1       150 1.12045E+02 2.29750E+01 0.00000E+00
 -1       151 1.11741E+02 2.57779E+01 0.00000E+00
 -1       152 1.12053E+02 2.72797E+01 0.00000E+00
 -1       153 1.12691E+02 2.86871E+01 0.00000E+00
 -1       154 1.13621E+02 2.99202E+01 0.00000E+00
 -1       155 1.14735E+02 3.08759E+01 0.00000E+00
 -1       156 1.16081E+02 3.16017E+01 0.00000E+00
 -1       157 1.17521E+02 3.20121E+01 0.00000E+00
 -1       158 1.19093E+02 3.21034E+01 0.00000E+00
 -1       159 1.20552E+02 3.18673E+01 0.00000E+00
 -1       160 1.21958E+02 3.13149E+01 0.00000E+00
 -1       161 1.23297E+02 3.04015E+01 0.00000E+00
 -1       162 1.24321E+02 2.92997E+01 0.00000E+00
 -1       163 1.25100E+02 2.79716E+01 0.00000E+00
 -1       164 1.25549E+02 2.66082E+01 0.00000E+00
 -1       165 2.59800E+00 4.55750E+01 0.00000E+00
 -1       166 2.59800E+00 4.26250E+01 0.00000E+00
 -1       167 2.59800E+00 3.96750E+01 0.00000E+00
 -1       168 2.59800E+00 3.67250E+01 0.00000E+00
 -1       169 2.59800E+00 3.38250E+01 0.00000E+00
 -1       170 2.59800E+00 3.08750E+01 0.00000E+00
 -1       171 2.59800E+00 2.79250E+01 0.00000E+00
 -1       172 2.59800E+00 2.49750E+01 0.00000E+00
 -1       173 2.59800E+00 2.20250E+01 0.00000E+00
 -1       174 2.59800E+00 1.90750E+01 0.00000E+00
 -1       175 2.59800E+00 1.61750E+01 0.00000E+00
 -1       176 2.59800E+00 1.32250E+01 0.00000E+00
 -1       177 2.59800E+00 1.02750E+01 0.00000E+00
 -1       178 2.59800E+00 7.32500E+00 0.00000E+00
 -1       179 2.59800E+00 4.37500E+00 0.00000E+00
 -1       180 2.87400E+00 2.18750E+00 0.00000E+00
 -1       181 4.65000E+00 4.74020E+01 0.00000E+00
 -1       182 7.65000E+00 4.74020E+01 0.00000E+00
 -1       183 1.06500E+01 4.74020E+01 0.00000E+00
 -1       184 1.36500E+01 4.74020E+01 0.00000E+00
 -1       185 1.66500E+01 4.74020E+01 0.00000E+00
 -1       186 1.96500E+01 4.74020E+01 0.00000E+00
 -1       187 2.26500E+01 4.74020E+01 0.00000E+00
 -1       188 2.56500E+01 4.74020E+01 0.00000E+00
 -1       189 2.86500E+01 4.74020E+01 0.00000E+00
 -1       190 3.16500E+01 4.74020E+01 0.00000E+00
 -1       191 3.46500E+01 4.74020E+01 0.00000E+00
 -1       192 3.76500E+01 4.74020E+01 0.00000E+00
 -1       193 4.06500E+01 4.74020E+01 0.00000E+00
 -1       194 4.36500E+01 4.74020E+01 0.00000E+00
 -1       195 4.66500E+01 4.74020E+01 0.00000E+00
 -1       196 4.96500E+01 4.74020E+01 0.00000E+00
 -1       197 5.26500E+01 4.74020E+01 0.00000E+00
 -1       198 5.56500E+01 4.74020E+01 0.00000E+00
 -1       199 5.86500E+01 4.74020E+01 0.00000E+00
 -1       200 6.16500E+01 4.74020E+01 0.00000E+00
 -1       201 6.46500E+01 4.74020E+01 0.00000E+00
 -1       202 6.76500E+01 4.74020E+01 0.00000E+00
 -1       203 7.06500E+01 4.74020E+01 0.00000E+00
 -1       204 7.36500E+01 4.74020E+01 0.00000E+00
 -1       205 7.66500E+01 4.74020E+01 0.00000E+00
 -1       206 7.96500E+01 4.74020E+01 0.00000E+00
 -1       207 8.26500E+01 4.74020E+01 0.00000E+00
 -1       208 8.56500E+01 4.74020E+01 0.00000E+00
 -1       209 8.86500E+01 4.74020E+01 0.00000E+00
 -1       210 9.16500E+01 4.74020E+01 0.00000E+00
 -1       211 9.46500E+01 4.74020E+01 0.00000E+00
 -1       212 9.76500E+01 4.74020E+01 0.00000E+00
 -1       213 1.00650E+02 4.74020E+01 0.00000E+00
 -1       214 1.03650E+02 4.74020E+01 0.00000E+00
 -1       215 1.06650E+02 4.74020E+01 0.00000E+00
 -1       216 1.09650E+02 4.74020E+01 0.00000E+00
 -1       217 1.12650E+02 4.74020E+01 0.00000E+00
 -1       218 1.15650E+02 4.74020E+01 0.00000E+00
 -1       219 1.18650E+02 4.74020E+01 0.00000E+00
 -1       220 1.21650E+02 4.74020E+01 0.00000E+00
 -1       221 1.24650E+02 4.74020E+01 0.00000E+00
 -1       222 1.27650E+02 4.74020E+01 0.00000E+00
 -1       223 1.30650E+02 4.74020E+01 0.00000E+00
 -1       224 1.33650E+02 4.74020E+01 0.00000E+00
 -1       225 1.36650E+02 4.74020E+01 0.00000E+00
 -1       226 1.39650E+02 4.74020E+01 0.00000E+00
 -1       227 1.42650E+02 4.74020E+01 0.00000E+00
 -1       228 1.45650E+02 4.74020E+01 0.00000E+00
 -1       229 5.87400E+00 2.18750E+00 0.00000E+00
 -1       230 8.87400E+00 2.18750E+00 0.00000E+00
 -1       231 1.18740E+01 2.18750E+00 0.00000E+00
 -1       232 1.48740E+01 2.18750E+00 0.00000E+00
 -1       233 1.78740E+01 2.18750E+00 0.00000E+00
 -1       234 2.08740E+01 2.18750E+00 0.00000E+00
 -1       235 2.38740E+01 2.18750E+00 0.00000E+00
 -1       236 2.68740E+01 2.18750E+00 0.00000E+00
 -1       237 2.98740E+01 2.18750E+00 0.00000E+00
 -1       238 3.28740E+01 2.18750E+00 0.00000E+00
 -1       239 3.58740E+01 2.18750E+00 0.00000E+00
 -1       240 3.88740E+01 2.18750E+00 0.00000E+00
 -1       241 4.18740E+01 2.18750E+00 0.00000E+00
 -1       242 4.48740E+01 2.18750E+00 0.00000E+00
 -1       243 4.78740E+01 2.18750E+00 0.00000E+00
 -1       244 5.08740E+01 2.18750E+00 0.00000E+00
 -1       245 5.38740E+01 2.18750E+00 0.00000E+00
 -1       246 5.68740E+01 2.18750E+00 0.00000E+00
 -1       247 5.98740E+01 2.18750E+00 0.00000E+00
 -1       248 6.28740E+01 2.18750E+00 0.00000E+00
 -1       249 6.58740E+01 2.18750E+00 0.00000E+00
 -1       250 6.88740E+01 2.18750E+00 0.00000E+00
 -1       251 7.18740E+01 2.18750E+00 0.00000E+00
 -1       252 7.48740E+01 2.18750E+00 0.00000E+00
 -1       253 7.78740E+01 2.18750E+00 0.00000E+00
 -1       254 8.08740E+01 2.18750E+00 0.00000E+00
 -1       255 8.38740E+01 2.18750E+00 0.00000E+00
 -1       256 8.68740E+01 2.18750E+00 0.00000E+00
 -1       257 8.98740E+01 2.18750E+00 0.00000E+00
 -1       258 9.28740E+01 2.18750E+00 0.00000E+00
 -1       259 9.58740E+01 2.18750E+00 0.00000E+00
 -1       260 9.88740E+01 2.18750E+00 0.00000E+00
 -1       261 1.01874E+02 2.18750E+00 0.00000E+00
 -1       262 1.04874E+02 2.18750E+00 0.00000E+00
 -1       263 1.07874E+02 2.18750E+00 0.00000E+00
 -1       264 1.10874E+02 2.18750E+00 0.00000E+00
 -1       265 1.13874E+02 2.18750E+00 0.00000E+00
 -1       266 1.16874E+02 2.18750E+00 0.00000E+00
 -1       267 1.19874E+02 2.18750E+00 0.00000E+00
 -1       268 1.22874E+02 2.18750E+00 0.00000E+00
 -1       269 1.25874E+02 2.18750E+00 0.00000E+00
 -1       270 1.28874E+02 2.18750E+00 0.00000E+00
 -1       271 1.31874E+02 2.18750E+00 0.00000E+00
 -1       272 1.34874E+02 2.18750E+00 0.00000E+00
 -1       273 1.37874E+02 2.18750E+00 0.00000E+00
 -1       274 1.40874E+02 2.18750E+00 0.00000E+00
 -1       275 1.43874E+02 2.18750E+00 0.00000E+00
 -1       276 1.46874E+02 2.18750E+00 0.00000E+00
 -1       277 1.47402E+02 4.42500E+00 0.00000E+00
 -1       278 1.47402E+02 7.37500E+00 0.00000E+00
 -1       279 1.47402E+02 1.03250E+01 0.00000E+00
 -1       280 1.47402E+02 1.32750E+01 0.00000E+00
 -1       281 1.47402E+02 1.61750E+01 0.00000E+00
 -1       282 1.47402E+02 1.91250E+01 0.00000E+00
 -1       283 1.47402E+02 2.20750E+01 0.00000E+00
 -1       284 1.47402E+02 2.50250E+01 0.00000E+00
 -1       285 1.47402E+02 2.79750E+01 0.00000E+00
 -1       286 1.47402E+02 3.09250E+01 0.00000E+00
 -1       287 1.47402E+02 3.38250E+01 0.00000E+00
 -1       288 1.47402E+02 3.67750E+01 0.00000E+00
 -1       289 1.47402E+02 3.97250E+01 0.00000E+00
 -1       290 1.47402E+02 4.26750E+01 0.00000E+00
 -1       291 1.46526E+02 4.50385E+01 0.00000E+00
 -1       292 1.27005E+02 2.42366E+01 0.00000E+00
 -1       293 1.26505E+02 2.26369E+01 0.00000E+00
 -1       294 1.25878E+02 2.11753E+01 0.00000E+00
 -1       295 1.24952E+02 1.98331E+01 0.00000E+00
 -1       296 1.23781E+02 1.86971E+01 0.00000E+00
 -1       297 1.22435E+02 1.78325E+01 0.00000E+00
 -1       298 1.20949E+02 1.71621E+01 0.00000E+00
 -1       299 1.19276E+02 1.68761E+01 0.00000E+00
 -1       300 1.17600E+02 1.70118E+01 0.00000E+00
 -1       301 1.16026E+02 1.73885E+01 0.00000E+00
 -1       302 1.14344E+02 1.78110E+01 0.00000E+00
 -1       303 1.13080E+02 1.90743E+01 0.00000E+00
 -1       304 1.12038E+02 2.03837E+01 0.00000E+00
 -1       305 1.11075E+02 2.17531E+01 0.00000E+00
 -1       306 1.10715E+02 2.33915E+01 0.00000E+00
 -1       307 1.10536E+02 2.50369E+01 0.00000E+00
 -1       308 1.10628E+02 2.67924E+01 0.00000E+00
 -1       309 1.11115E+02 2.85526E+01 0.00000E+00
 -1       310 1.12121E+02 3.00842E+01 0.00000E+00
 -1       311 1.13389E+02 3.13183E+01 0.00000E+00
 -1       312 1.14833E+02 3.23060E+01 0.00000E+00
 -1       313 1.16468E+02 3.29728E+01 0.00000E+00
 -1       314 1.18232E+02 3.33518E+01 0.00000E+00
 -1       315 1.20016E+02 3.31822E+01 0.00000E+00
 -1       316 1.21698E+02 3.27195E+01 0.00000E+00
 -1       317 1.23358E+02 3.19291E+01 0.00000E+00
 -1       318 1.24697E+02 3.06758E+01 0.00000E+00
 -1       319 1.25756E+02 2.92493E+01 0.00000E+00
 -1       320 1.26476E+02 2.76688E+01 0.00000E+00
 -1       321 1.26918E+02 2.60002E+01 0.00000E+00
 -1       322 5.19600E+00 4.11500E+01 0.00000E+00
 -1       323 5.19600E+00 4.41000E+01 0.00000E+00
 -1       324 5.19600E+00 3.52750E+01 0.00000E+00
 -1       325 5.19600E+00 3.23250E+01 0.00000E+00
 -1       326 5.19600E+00 2.93750E+01 0.00000E+00
 -1       327 5.19600E+00 2.64250E+01 0.00000E+00
 -1       328 5.19600E+00 2.34750E+01 0.00000E+00
 -1       329 5.19600E+00 2.05250E+01 0.00000E+00
 -1       330 5.19600E+00 1.76250E+01 0.00000E+00
 -1       331 5.19600E+00 1.46750E+01 0.00000E+00
 -1       332 5.19600E+00 1.17250E+01 0.00000E+00
 -1       333 5.19600E+00 8.77500E+00 0.00000E+00
 -1       334 5.19600E+00 5.82500E+00 0.00000E+00
 -1       335 5.53500E+00 4.00625E+00 0.00000E+00
 -1       336 8.53500E+00 4.00625E+00 0.00000E+00
 -1       337 9.15000E+00 4.48040E+01 0.00000E+00
 -1       338 1.21500E+01 4.48040E+01 0.00000E+00
 -1       339 1.51500E+01 4.48040E+01 0.00000E+00
 -1       340 1.81500E+01 4.48040E+01 0.00000E+00
 -1       341 2.11500E+01 4.48040E+01 0.00000E+00
 -1       342 2.41500E+01 4.48040E+01 0.00000E+00
 -1       343 2.71500E+01 4.48040E+01 0.00000E+00
 -1       344 3.01500E+01 4.48040E+01 0.00000E+00
 -1       345 3.31500E+01 4.48040E+01 0.00000E+00
 -1       346 3.61500E+01 4.48040E+01 0.00000E+00
 -1       347 3.91500E+01 4.48040E+01 0.00000E+00
 -1       348 4.21500E+01 4.48040E+01 0.00000E+00
 -1       349 4.51500E+01 4.48040E+01 0.00000E+00
 -1       350 4.81500E+01 4.48040E+01 0.00000E+00
 -1       351 5.11500E+01 4.48040E+01 0.00000E+00
 -1       352 5.41500E+01 4.48040E+01 0.00000E+00
 -1       353 5.71500E+01 4.48040E+01 0.00000E+00
 -1       354 6.01500E+01 4.48040E+01 0.00000E+00
 -1       355 6.31500E+01 4.48040E+01 0.00000E+00
 -1       356 6.61500E+01 4.48040E+01 0.00000E+00
 -1       357 6.91500E+01 4.48040E+01 0.00000E+00
 -1       358 7.21500E+01 4.48040E+01 0.00000E+00
 -1       359 7.51500E+01 4.48040E+01 0.00000E+00
 -1       360 7.81500E+01 4.48040E+01 0.00000E+00
 -1       361 8.11500E+01 4.48040E+01 0.00000E+00
 -1       362 8.41500E+01 4.48040E+01 0.00000E+00
 -1       363 8.71500E+01 4.48040E+01 0.00000E+00
 -1       364 9.01500E+01 4.48040E+01 0.00000E+00
 -1       365 9.31500E+01 4.48040E+01 0.00000E+00
 -1       366 9.61500E+01 4.48040E+01 0.00000E+00
 -1       367 9.91500E+01 4.48040E+01 0.00000E+00
 -1       368 1.02150E+02 4.48040E+01 0.00000E+00
 -1       369 1.05150E+02 4.48040E+01 0.00000E+00
 -1       370 1.08150E+02 4.48040E+01 0.00000E+00
 -1       371 1.11150E+02 4.48040E+01 0.00000E+00
 -1       372 1.14150E+02 4.48040E+01 0.00000E+00
 -1       373 1.17150E+02 4.48040E+01 0.00000E+00
 -1       374 1.20150E+02 4.48040E+01 0.00000E+00
 -1       375 1.23150E+02 4.48040E+01 0.00000E+00
 -1       376 1.26150E+02 4.48040E+01 0.00000E+00
 -1       377 1.29150E+02 4.48040E+01 0.00000E+00
 -1       378 1.32150E+02 4.48040E+01 0.00000E+00
 -1       379 1.35150E+02 4.48040E+01 0.00000E+00
 -1       380 1.38150E+02 4.48040E+01 0.00000E+00
 -1       381 1.41150E+02 4.48040E+01 0.00000E+00
 -1       382 1.43838E+02 4.49212E+01 0.00000E+00
 -1       383 1.15350E+01 4.00625E+00 0.00000E+00
 -1       384 1.45350E+01 4.00625E+00 0.00000E+00
 -1       385 1.75350E+01 4.00625E+00 0.00000E+00
 -1       386 2.05350E+01 4.00625E+00 0.00000E+00
 -1       387 2.35350E+01 4.00625E+00 0.00000E+00
 -1       388 2.65350E+01 4.00625E+00 0.00000E+00
 -1       389 2.95350E+01 4.00625E+00 0.00000E+00
 -1       390 3.25350E+01 4.00625E+00 0.00000E+00
 -1       391 3.55350E+01 4.00625E+00 0.00000E+00
 -1       392 3.85350E+01 4.00625E+00 0.00000E+00
 -1       393 4.15350E+01 4.00625E+00 0.00000E+00
 -1       394 4.45350E+01 4.00625E+00 0.00000E+00
 -1       395 4.75350E+01 4.00625E+00 0.00000E+00
 -1       396 5.05350E+01 4.00625E+00 0.00000E+00
 -1       397 5.35350E+01 4.00625E+00 0.00000E+00
 -1       398 5.65350E+01 4.00625E+00 0.00000E+00
 -1       399 5.95350E+01 4.00625E+00 0.00000E+00
 -1       400 6.25350E+01 4.00625E+00 0.00000E+00
 -1       401 6.55350E+01 4.00625E+00 0.00000E+00
 -1       402 6.85350E+01 4.00625E+00 0.00000E+00
 -1       403 7.15350E+01 4.00625E+00 0.00000E+00
 -1       404 7.45350E+01 4.00625E+00 0.00000E+00
 -1       405 7.75350E+01 4.00625E+00 0.00000E+00
 -1       406 8.05350E+01 4.00625E+00 0.00000E+00
 -1       407 8.35350E+01 4.00625E+00 0.00000E+00
 -1       408 8.65350E+01 4.00625E+00 0.00000E+00
 -1       409 8.95350E+01 4.00625E+00 0.00000E+00
 -1       410 9.25350E+01 4.00625E+00 0.00000E+00
 -1       411 9.55350E+01 4.00625E+00 0.00000E+00
 -1       412 9.85350E+01 4.00625E+00 0.00000E+00
 -1       413 1.01535E+02 4.00625E+00 0.00000E+00
 -1       414 1.04535E+02 4.00625E+00 0.00000E+00
 -1       415 1.07535E+02 4.00625E+00 0.00000E+00
 -1       416 1.10535E+02 4.00625E+00 0.00000E+00
 -1       417 1.13535E+02 4.00625E+00 0.00000E+00
 -1       418 1.16535E+02 4.00625E+00 0.00000E+00
 -1       419 1.19535E+02 4.00625E+00 0.00000E+00
 -1       420 1.22535E+02 4.00625E+00 0.00000E+00
 -1       421 1.25535E+02 4.00625E+00 0.00000E+00
 -1       422 1.28535E+02 4.00625E+00 0.00000E+00
 -1       423 1.31535E+02 4.00625E+00 0.00000E+00
 -1       424 1.34535E+02 4.00625E+00 0.00000E+00
 -1       425 1.37535E+02 4.00625E+00 0.00000E+00
 -1       426 1.40535E+02 4.00625E+00 0.00000E+00
 -1       427 1.43535E+02 4.00625E+00 0.00000E+00
 -1       428 1.45469E+02 4.21562E+00 0.00000E+00
 -1       429 1.44804E+02 1.18000E+01 0.00000E+00
 -1       430 1.44804E+02 8.85000E+00 0.00000E+00
 -1       431 1.45136E+02 6.53281E+00 0.00000E+00
 -1       432 1.44804E+02 1.47000E+01 0.00000E+00
 -1       433 1.44804E+02 1.76500E+01 0.00000E+00
 -1       434 1.44804E+02 2.06000E+01 0.00000E+00
 -1       435 1.44804E+02 2.35500E+01 0.00000E+00
 -1       436 1.44804E+02 2.65000E+01 0.00000E+00
 -1       437 1.44804E+02 2.94500E+01 0.00000E+00
 -1       438 1.44804E+02 3.23500E+01 0.00000E+00
 -1       439 1.44804E+02 3.53000E+01 0.00000E+00
 -1       440 1.44804E+02 3.82500E+01 0.00000E+00
 -1       441 1.44804E+02 4.12000E+01 0.00000E+00
 -1       442 1.27460E+02 2.13618E+01 0.00000E+00
 -1       443 1.28674E+02 2.52028E+01 0.00000E+00
 -1       444 1.27959E+02 2.29615E+01 0.00000E+00
 -1       445 1.26551E+02 1.97205E+01 0.00000E+00
 -1       446 1.25503E+02 1.80945E+01 0.00000E+00
 -1       447 5.19600E+00 3.82125E+01 0.00000E+00
 -1       448 1.22328E+02 1.60867E+01 0.00000E+00
 -1       449 1.20345E+02 1.56589E+01 0.00000E+00
 -1       450 1.18327E+02 1.55684E+01 0.00000E+00
 -1       451 1.16453E+02 1.56951E+01 0.00000E+00
 -1       452 1.14770E+02 1.61176E+01 0.00000E+00
 -1       453 1.12559E+02 1.72886E+01 0.00000E+00
 -1       454 1.11479E+02 1.88698E+01 0.00000E+00
 -1       455 1.10516E+02 2.02392E+01 0.00000E+00
 -1       456 1.09301E+02 2.22222E+01 0.00000E+00
 -1       457 1.09123E+02 2.38675E+01 0.00000E+00
 -1       458 1.09288E+02 2.59827E+01 0.00000E+00
 -1       459 1.09218E+02 2.81294E+01 0.00000E+00
 -1       460 1.10464E+02 3.00760E+01 0.00000E+00
 -1       461 1.11675E+02 3.18101E+01 0.00000E+00
 -1       462 1.13379E+02 3.28821E+01 0.00000E+00
 -1       463 1.15066E+02 3.40724E+01 0.00000E+00
 -1       464 1.16990E+02 3.48391E+01 0.00000E+00
 -1       465 1.19255E+02 3.46407E+01 0.00000E+00
 -1       466 1.21223E+02 3.42814E+01 0.00000E+00
 -1       467 1.23157E+02 3.36458E+01 0.00000E+00
 -1       468 1.24970E+02 3.23101E+01 0.00000E+00
 -1       469 1.26536E+02 3.09349E+01 0.00000E+00
 -1       470 1.27600E+02 2.91354E+01 0.00000E+00
 -1       471 1.28193E+02 2.72307E+01 0.00000E+00
 -1       472 1.23853E+02 1.71036E+01 0.00000E+00
 -1       473 1.00350E+01 6.60425E+00 0.00000E+00
 -1       474 7.79400E+00 3.08500E+01 0.00000E+00
 -1       475 7.79400E+00 3.38000E+01 0.00000E+00
 -1       476 7.79400E+00 2.49500E+01 0.00000E+00
 -1       477 7.79400E+00 2.20000E+01 0.00000E+00
 -1       478 7.79400E+00 1.91000E+01 0.00000E+00
 -1       479 7.79400E+00 1.61500E+01 0.00000E+00
 -1       480 7.79400E+00 1.32000E+01 0.00000E+00
 -1       481 7.79400E+00 1.02500E+01 0.00000E+00
 -1       482 1.30350E+01 6.60425E+00 0.00000E+00
 -1       483 1.06500E+01 4.22060E+01 0.00000E+00
 -1       484 1.24042E+02 1.51681E+01 0.00000E+00
 -1       485 1.36500E+01 4.22060E+01 0.00000E+00
 -1       486 1.66500E+01 4.22060E+01 0.00000E+00
 -1       487 1.96500E+01 4.22060E+01 0.00000E+00
 -1       488 2.26500E+01 4.22060E+01 0.00000E+00
 -1       489 2.56500E+01 4.22060E+01 0.00000E+00
 -1       490 2.86500E+01 4.22060E+01 0.00000E+00
 -1       491 3.16500E+01 4.22060E+01 0.00000E+00
 -1       492 3.46500E+01 4.22060E+01 0.00000E+00
 -1       493 3.76500E+01 4.22060E+01 0.00000E+00
 -1       494 4.06500E+01 4.22060E+01 0.00000E+00
 -1       495 4.36500E+01 4.22060E+01 0.00000E+00
 -1       496 4.66500E+01 4.22060E+01 0.00000E+00
 -1       497 4.96500E+01 4.22060E+01 0.00000E+00
 -1       498 5.26500E+01 4.22060E+01 0.00000E+00
 -1       499 5.56500E+01 4.22060E+01 0.00000E+00
 -1       500 5.86500E+01 4.22060E+01 0.00000E+00
 -1       501 6.16500E+01 4.22060E+01 0.00000E+00
 -1       502 6.46500E+01 4.22060E+01 0.00000E+00
 -1       503 6.76500E+01 4.22060E+01 0.00000E+00
 -1       504 7.06500E+01 4.22060E+01 0.00000E+00
 -1       505 7.36500E+01 4.22060E+01 0.00000E+00
 -1       506 7.66500E+01 4.22060E+01 0.00000E+00
 -1       507 7.96500E+01 4.22060E+01 0.00000E+00
 -1       508 8.26500E+01 4.22060E+01 0.00000E+00
 -1       509 8.56500E+01 4.22060E+01 0.00000E+00
 -1       510 8.86500E+01 4.22060E+01 0.00000E+00
 -1       511 9.16500E+01 4.22060E+01 0.00000E+00
 -1       512 9.46500E+01 4.22060E+01 0.00000E+00
 -1       513 9.76500E+01 4.22060E+01 0.00000E+00
 -1       514 1.00650E+02 4.22060E+01 0.00000E+00
 -1       515 1.03650E+02 4.22060E+01 0.00000E+00
 -1       516 1.06650E+02 4.22060E+01 0.00000E+00
 -1       517 1.09650E+02 4.22060E+01 0.00000E+00
 -1       518 1.12650E+02 4.22060E+01 0.00000E+00
 -1       519 1.15650E+02 4.22060E+01 0.00000E+00
 -1       520 1.18650E+02 4.22060E+01 0.00000E+00
 -1       521 1.21650E+02 4.22060E+01 0.00000E+00
 -1       522 1.24650E+02 4.22060E+01 0.00000E+00
 -1       523 1.27650E+02 4.22060E+01 0.00000E+00
 -1       524 1.30650E+02 4.22060E+01 0.00000E+00
 -1       525 1.33650E+02 4.22060E+01 0.00000E+00
 -1       526 1.36650E+02 4.22060E+01 0.00000E+00
 -1       527 1.39650E+02 4.22060E+01 0.00000E+00
 -1       528 1.29107E+02 2.17255E+01 0.00000E+00
 -1       529 1.90350E+01 6.60425E+00 0.00000E+00
 -1       530 2.20350E+01 6.60425E+00 0.00000E+00
 -1       531 2.50350E+01 6.60425E+00 0.00000E+00
 -1       532 2.80350E+01 6.60425E+00 0.00000E+00
 -1       533 3.10350E+01 6.60425E+00 0.00000E+00
 -1       534 3.40350E+01 6.60425E+00 0.00000E+00
 -1       535 3.70350E+01 6.60425E+00 0.00000E+00
 -1       536 4.00350E+01 6.60425E+00 0.00000E+00
 -1       537 4.30350E+01 6.60425E+00 0.00000E+00
 -1       538 4.60350E+01 6.60425E+00 0.00000E+00
 -1       539 4.90350E+01 6.60425E+00 0.00000E+00
 -1       540 5.20350E+01 6.60425E+00 0.00000E+00
 -1       541 5.50350E+01 6.60425E+00 0.00000E+00
 -1       542 5.80350E+01 6.60425E+00 0.00000E+00
 -1       543 6.10350E+01 6.60425E+00 0.00000E+00
 -1       544 6.40350E+01 6.60425E+00 0.00000E+00
 -1       545 6.70350E+01 6.60425E+00 0.00000E+00
 -1       546 7.00350E+01 6.60425E+00 0.00000E+00
 -1       547 7.30350E+01 6.60425E+00 0.00000E+00
 -1       548 7.60350E+01 6.60425E+00 0.00000E+00
 -1       549 7.90350E+01 6.60425E+00 0.00000E+00
 -1       550 8.20350E+01 6.60425E+00 0.00000E+00
 -1       551 8.50350E+01 6.60425E+00 0.00000E+00
 -1       552 8.80350E+01 6.60425E+00 0.00000E+00
 -1       553 9.10350E+01 6.60425E+00 0.00000E+00
 -1       554 9.40350E+01 6.60425E+00 0.00000E+00
 -1       555 9.70350E+01 6.60425E+00 0.00000E+00
 -1       556 1.00035E+02 6.60425E+00 0.00000E+00
 -1       557 1.03035E+02 6.60425E+00 0.00000E+00
 -1       558 1.06035E+02 6.60425E+00 0.00000E+00
 -1       559 1.09035E+02 6.60425E+00 0.00000E+00
 -1       560 1.12035E+02 6.60425E+00 0.00000E+00
 -1       561 1.15035E+02 6.60425E+00 0.00000E+00
 -1       562 1.18035E+02 6.60425E+00 0.00000E+00
 -1       563 1.21035E+02 6.60425E+00 0.00000E+00
 -1       564 1.24035E+02 6.60425E+00 0.00000E+00
 -1       565 1.27035E+02 6.60425E+00 0.00000E+00
 -1       566 1.30035E+02 6.60425E+00 0.00000E+00
 -1       567 1.33035E+02 6.60425E+00 0.00000E+00
 -1       568 1.36035E+02 6.60425E+00 0.00000E+00
 -1       569 1.39035E+02 6.60425E+00 0.00000E+00
 -1       570 1.42035E+02 6.60425E+00 0.00000E+00
 -1       571 1.42206E+02 1.61750E+01 0.00000E+00
 -1       572 1.42206E+02 1.91250E+01 0.00000E+00
 -1       573 1.42206E+02 1.03250E+01 0.00000E+00
 -1       574 1.42206E+02 1.32500E+01 0.00000E+00
 -1       575 1.42206E+02 2.20750E+01 0.00000E+00
 -1       576 1.42206E+02 2.50250E+01 0.00000E+00
 -1       577 1.42206E+02 2.79750E+01 0.00000E+00
 -1       578 1.42206E+02 3.08750E+01 0.00000E+00
 -1       579 1.42206E+02 3.38250E+01 0.00000E+00
 -1       580 1.42206E+02 3.67750E+01 0.00000E+00
 -1       581 1.42206E+02 3.97250E+01 0.00000E+00
 -1       582 1.29939E+02 2.65743E+01 0.00000E+00
 -1       583 1.60350E+01 6.60425E+00 0.00000E+00
 -1       584 1.28359E+02 1.97914E+01 0.00000E+00
 -1       585 1.29534E+02 2.86925E+01 0.00000E+00
 -1       586 7.92300E+00 4.16780E+01 0.00000E+00
 -1       587 1.27311E+02 1.81654E+01 0.00000E+00
 -1       588 1.12901E+02 1.52614E+01 0.00000E+00
 -1       589 1.17297E+02 1.42550E+01 0.00000E+00
 -1       590 7.79400E+00 2.79000E+01 0.00000E+00
 -1       591 1.19401E+02 1.41514E+01 0.00000E+00
 -1       592 1.10602E+02 1.71118E+01 0.00000E+00
 -1       593 1.21681E+02 1.42781E+01 0.00000E+00
 -1       594 1.15235E+02 1.44054E+01 0.00000E+00
 -1       595 1.07371E+02 2.69953E+01 0.00000E+00
 -1       596 1.09640E+02 1.84812E+01 0.00000E+00
 -1       597 1.08425E+02 2.04642E+01 0.00000E+00
 -1       598 1.07340E+02 2.28415E+01 0.00000E+00
 -1       599 1.07356E+02 2.49184E+01 0.00000E+00
 -1       600 1.08397E+02 3.00273E+01 0.00000E+00
 -1       601 1.09732E+02 3.18769E+01 0.00000E+00
 -1       602 1.11658E+02 3.37269E+01 0.00000E+00
 -1       603 1.13346E+02 3.49172E+01 0.00000E+00
 -1       604 1.15393E+02 3.60490E+01 0.00000E+00
 -1       605 1.18257E+02 3.62816E+01 0.00000E+00
 -1       606 1.20502E+02 3.59010E+01 0.00000E+00
 -1       607 1.22699E+02 3.55134E+01 0.00000E+00
 -1       608 1.25081E+02 3.43588E+01 0.00000E+00
 -1       609 1.26830E+02 3.28483E+01 0.00000E+00
 -1       610 1.28400E+02 3.08228E+01 0.00000E+00
 -1       611 1.29791E+02 2.36117E+01 0.00000E+00
 -1       612 7.61550E+00 6.21462E+00 0.00000E+00
 -1       613 1.25691E+02 1.61589E+01 0.00000E+00
 -1       614 7.79400E+00 3.67375E+01 0.00000E+00
 -1       615 1.41678E+02 4.22645E+01 0.00000E+00
 -1       616 1.31056E+02 2.49832E+01 0.00000E+00
 -1       617 1.10945E+02 1.50846E+01 0.00000E+00
 -1       618 1.06550E+02 2.88932E+01 0.00000E+00
 -1       619 1.16660E+02 3.74914E+01 0.00000E+00
 -1       620 1.03920E+01 2.05500E+01 0.00000E+00
 -1       621 1.03920E+01 2.35000E+01 0.00000E+00
 -1       622 1.03920E+01 1.46750E+01 0.00000E+00
 -1       623 1.03920E+01 1.17250E+01 0.00000E+00
 -1       624 1.15350E+01 9.20225E+00 0.00000E+00
 -1       625 1.13477E+02 1.32232E+01 0.00000E+00
 -1       626 1.25836E+02 1.40497E+01 0.00000E+00
 -1       627 1.45350E+01 9.20225E+00 0.00000E+00
 -1       628 1.20655E+02 1.21677E+01 0.00000E+00
 -1       629 1.51500E+01 3.96080E+01 0.00000E+00
 -1       630 1.81500E+01 3.96080E+01 0.00000E+00
 -1       631 2.11500E+01 3.96080E+01 0.00000E+00
 -1       632 2.41500E+01 3.96080E+01 0.00000E+00
 -1       633 2.71500E+01 3.96080E+01 0.00000E+00
 -1       634 3.01500E+01 3.96080E+01 0.00000E+00
 -1       635 3.31500E+01 3.96080E+01 0.00000E+00
 -1       636 3.61500E+01 3.96080E+01 0.00000E+00
 -1       637 3.91500E+01 3.96080E+01 0.00000E+00
 -1       638 4.21500E+01 3.96080E+01 0.00000E+00
 -1       639 4.51500E+01 3.96080E+01 0.00000E+00
 -1       640 4.81500E+01 3.96080E+01 0.00000E+00
 -1       641 5.11500E+01 3.96080E+01 0.00000E+00
 -1       642 5.41500E+01 3.96080E+01 0.00000E+00
 -1       643 5.71500E+01 3.96080E+01 0.00000E+00
 -1       644 6.01500E+01 3.96080E+01 0.00000E+00
 -1       645 6.31500E+01 3.96080E+01 0.00000E+00
 -1       646 6.61500E+01 3.96080E+01 0.00000E+00
 -1       647 6.91500E+01 3.96080E+01 0.00000E+00
 -1       648 7.21500E+01 3.96080E+01 0.00000E+00
 -1       649 7.51500E+01 3.96080E+01 0.00000E+00
 -1       650 7.81500E+01 3.96080E+01 0.00000E+00
 -1       651 8.11500E+01 3.96080E+01 0.00000E+00
 -1       652 8.41500E+01 3.96080E+01 0.00000E+00
 -1       653 8.71500E+01 3.96080E+01 0.00000E+00
 -1       654 9.01500E+01 3.96080E+01 0.00000E+00
 -1       655 9.31500E+01 3.96080E+01 0.00000E+00
 -1       656 9.61500E+01 3.96080E+01 0.00000E+00
 -1       657 9.91500E+01 3.96080E+01 0.00000E+00
 -1       658 1.02150E+02 3.96080E+01 0.00000E+00
 -1       659 1.05150E+02 3.96080E+01 0.00000E+00
 -1       660 1.08150E+02 3.96080E+01 0.00000E+00
 -1       661 1.11150E+02 3.96080E+01 0.00000E+00
 -1       662 1.14150E+02 3.96080E+01 0.00000E+00
 -1       663 1.23150E+02 3.98206E+01 0.00000E+00
 -1       664 1.26150E+02 3.98206E+01 0.00000E+00
 -1       665 1.29150E+02 3.98206E+01 0.00000E+00
 -1       666 1.32150E+02 3.98206E+01 0.00000E+00
 -1       667 1.35150E+02 3.98206E+01 0.00000E+00
 -1       668 1.38150E+02 3.98206E+01 0.00000E+00
 -1       669 1.30481E+02 3.05635E+01 0.00000E+00
 -1       670 1.30904E+02 2.21408E+01 0.00000E+00
 -1       671 2.05350E+01 9.20225E+00 0.00000E+00
 -1       672 2.95350E+01 9.20225E+00 0.00000E+00
 -1       673 3.25350E+01 9.20225E+00 0.00000E+00
 -1       674 3.55350E+01 9.20225E+00 0.00000E+00
 -1       675 3.85350E+01 9.20225E+00 0.00000E+00
 -1       676 4.15350E+01 9.20225E+00 0.00000E+00
 -1       677 4.45350E+01 9.20225E+00 0.00000E+00
 -1       678 4.75350E+01 9.20225E+00 0.00000E+00
 -1       679 5.05350E+01 9.20225E+00 0.00000E+00
 -1       680 5.35350E+01 9.20225E+00 0.00000E+00
 -1       681 5.65350E+01 9.20225E+00 0.00000E+00
 -1       682 5.95350E+01 9.20225E+00 0.00000E+00
 -1       683 6.25350E+01 9.20225E+00 0.00000E+00
 -1       684 6.55350E+01 9.20225E+00 0.00000E+00
 -1       685 6.85350E+01 9.20225E+00 0.00000E+00
 -1       686 7.15350E+01 9.20225E+00 0.00000E+00
 -1       687 7.45350E+01 9.20225E+00 0.00000E+00
 -1       688 7.75350E+01 9.20225E+00 0.00000E+00
 -1       689 8.05350E+01 9.20225E+00 0.00000E+00
 -1       690 8.35350E+01 9.20225E+00 0.00000E+00
 -1       691 8.65350E+01 9.20225E+00 0.00000E+00
 -1       692 8.95350E+01 9.20225E+00 0.00000E+00
 -1       693 9.25350E+01 9.20225E+00 0.00000E+00
 -1       694 9.55350E+01 9.20225E+00 0.00000E+00
 -1       695 9.85350E+01 9.20225E+00 0.00000E+00
 -1       696 1.01535E+02 9.20225E+00 0.00000E+00
 -1       697 1.04535E+02 9.20225E+00 0.00000E+00
 -1       698 1.07535E+02 9.20225E+00 0.00000E+00
 -1       699 1.10535E+02 9.20225E+00 0.00000E+00
 -1       700 1.13535E+02 9.20225E+00 0.00000E+00
 -1       701 1.16535E+02 9.20225E+00 0.00000E+00
 -1       702 1.19535E+02 9.20225E+00 0.00000E+00
 -1       703 1.22535E+02 9.20225E+00 0.00000E+00
 -1       704 1.25535E+02 9.20225E+00 0.00000E+00
 -1       705 1.28535E+02 9.20225E+00 0.00000E+00
 -1       706 1.31535E+02 9.20225E+00 0.00000E+00
 -1       707 1.34535E+02 9.20225E+00 0.00000E+00
 -1       708 1.37535E+02 9.20225E+00 0.00000E+00
 -1       709 1.39870E+02 9.76363E+00 0.00000E+00
 -1       710 1.39608E+02 2.35500E+01 0.00000E+00
 -1       711 1.40178E+02 3.97728E+01 0.00000E+00
 -1       712 1.39608E+02 1.76500E+01 0.00000E+00
 -1       713 1.39608E+02 2.65000E+01 0.00000E+00
 -1       714 1.39608E+02 2.06000E+01 0.00000E+00
 -1       715 1.30156E+02 2.02067E+01 0.00000E+00
 -1       716 1.39608E+02 2.94000E+01 0.00000E+00
 -1       717 1.39608E+02 3.23500E+01 0.00000E+00
 -1       718 1.39608E+02 3.53000E+01 0.00000E+00
 -1       719 1.39893E+02 3.75364E+01 0.00000E+00
 -1       720 1.75350E+01 9.20225E+00 0.00000E+00
 -1       721 1.28970E+02 3.28867E+01 0.00000E+00
 -1       722 9.78035E+00 3.93914E+01 0.00000E+00
 -1       723 1.06399E+02 2.09757E+01 0.00000E+00
 -1       724 1.27076E+02 3.49015E+01 0.00000E+00
 -1       725 2.65350E+01 9.20225E+00 0.00000E+00
 -1       726 2.35350E+01 9.20225E+00 0.00000E+00
 -1       727 1.24652E+01 3.94997E+01 0.00000E+00
 -1       728 1.07570E+02 1.85770E+01 0.00000E+00
 -1       729 1.29558E+02 1.78676E+01 0.00000E+00
 -1       730 1.18269E+02 1.25738E+01 0.00000E+00
 -1       731 1.03920E+01 1.76125E+01 0.00000E+00
 -1       732 1.03920E+01 3.23250E+01 0.00000E+00
 -1       733 1.21884E+02 3.73137E+01 0.00000E+00
 -1       734 1.07674E+02 3.19561E+01 0.00000E+00
 -1       735 1.23584E+02 1.28046E+01 0.00000E+00
 -1       736 1.08533E+02 1.72076E+01 0.00000E+00
 -1       737 1.31257E+02 2.79239E+01 0.00000E+00
 -1       738 1.09507E+02 3.40389E+01 0.00000E+00
 -1       739 1.11513E+02 3.57236E+01 0.00000E+00
 -1       740 1.13377E+02 3.72774E+01 0.00000E+00
 -1       741 1.19639E+02 3.76943E+01 0.00000E+00
 -1       742 1.16207E+02 1.27243E+01 0.00000E+00
 -1       743 1.24638E+02 3.64794E+01 0.00000E+00
 -1       744 1.27939E+02 1.58612E+01 0.00000E+00
 -1       745 1.03920E+01 3.52625E+01 0.00000E+00
 -1       746 1.03920E+01 2.64500E+01 0.00000E+00
 -1       747 1.20150E+02 3.96080E+01 0.00000E+00
 -1       748 1.39608E+02 1.47250E+01 0.00000E+00
 -1       749 1.32169E+02 2.35122E+01 0.00000E+00
 -1       750 1.39739E+02 1.22443E+01 0.00000E+00
 -1       751 1.05338E+02 2.26814E+01 0.00000E+00
 -1       752 1.08875E+02 1.51804E+01 0.00000E+00
 -1       753 1.05481E+02 2.59709E+01 0.00000E+00
 -1       754 1.05827E+02 3.08219E+01 0.00000E+00
 -1       755 1.03920E+01 2.93875E+01 0.00000E+00
 -1       756 1.11521E+02 1.30465E+01 0.00000E+00
 -1       757 1.32374E+02 2.63328E+01 0.00000E+00
 -1       758 1.04659E+02 2.78688E+01 0.00000E+00
 -1       759 1.05410E+02 2.43261E+01 0.00000E+00
 -1       760 1.05292E+02 1.89503E+01 0.00000E+00
 -1       761 1.29900E+01 1.32000E+01 0.00000E+00
 -1       762 1.32006E+02 1.84881E+01 0.00000E+00
 -1       763 1.96500E+01 3.70100E+01 0.00000E+00
 -1       764 2.26500E+01 3.70100E+01 0.00000E+00
 -1       765 2.56500E+01 3.70100E+01 0.00000E+00
 -1       766 2.86500E+01 3.70100E+01 0.00000E+00
 -1       767 3.16500E+01 3.70100E+01 0.00000E+00
 -1       768 3.46500E+01 3.70100E+01 0.00000E+00
 -1       769 3.76500E+01 3.70100E+01 0.00000E+00
 -1       770 4.06500E+01 3.70100E+01 0.00000E+00
 -1       771 4.36500E+01 3.70100E+01 0.00000E+00
 -1       772 4.66500E+01 3.70100E+01 0.00000E+00
 -1       773 4.96500E+01 3.70100E+01 0.00000E+00
 -1       774 5.26500E+01 3.70100E+01 0.00000E+00
 -1       775 5.56500E+01 3.70100E+01 0.00000E+00
 -1       776 5.86500E+01 3.70100E+01 0.00000E+00
 -1       777 6.16500E+01 3.70100E+01 0.00000E+00
 -1       778 6.46500E+01 3.70100E+01 0.00000E+00
 -1       779 6.76500E+01 3.70100E+01 0.00000E+00
 -1       780 7.06500E+01 3.70100E+01 0.00000E+00
 -1       781 7.36500E+01 3.70100E+01 0.00000E+00
 -1       782 7.66500E+01 3.70100E+01 0.00000E+00
 -1       783 7.96500E+01 3.70100E+01 0.00000E+00
 -1       784 8.26500E+01 3.70100E+01 0.00000E+00
 -1       785 8.56500E+01 3.70100E+01 0.00000E+00
 -1       786 8.86500E+01 3.70100E+01 0.00000E+00
 -1       787 9.16500E+01 3.70100E+01 0.00000E+00
 -1       788 9.46500E+01 3.70100E+01 0.00000E+00
 -1       789 9.76500E+01 3.70100E+01 0.00000E+00
 -1       790 1.00650E+02 3.70100E+01 0.00000E+00
 -1       791 1.03650E+02 3.70100E+01 0.00000E+00
 -1       792 1.06650E+02 3.70100E+01 0.00000E+00
 -1       793 1.04232E+02 2.06561E+01 0.00000E+00
 -1       794 1.27650E+02 3.72226E+01 0.00000E+00
 -1       795 1.30650E+02 3.72226E+01 0.00000E+00
 -1       796 1.33650E+02 3.72226E+01 0.00000E+00
 -1       797 1.36650E+02 3.72226E+01 0.00000E+00
 -1       798 3.10350E+01 1.18003E+01 0.00000E+00
 -1       799 4.00350E+01 1.18003E+01 0.00000E+00
 -1       800 4.30350E+01 1.18003E+01 0.00000E+00
 -1       801 4.60350E+01 1.18003E+01 0.00000E+00
 -1       802 4.90350E+01 1.18003E+01 0.00000E+00
 -1       803 5.20350E+01 1.18003E+01 0.00000E+00
 -1       804 5.50350E+01 1.18003E+01 0.00000E+00
 -1       805 5.80350E+01 1.18003E+01 0.00000E+00
 -1       806 6.10350E+01 1.18003E+01 0.00000E+00
 -1       807 6.40350E+01 1.18003E+01 0.00000E+00
 -1       808 6.70350E+01 1.18003E+01 0.00000E+00
 -1       809 7.00350E+01 1.18003E+01 0.00000E+00
 -1       810 7.30350E+01 1.18003E+01 0.00000E+00
 -1       811 7.60350E+01 1.18003E+01 0.00000E+00
 -1       812 7.90350E+01 1.18003E+01 0.00000E+00
 -1       813 8.20350E+01 1.18003E+01 0.00000E+00
 -1       814 8.50350E+01 1.18003E+01 0.00000E+00
 -1       815 8.80350E+01 1.18003E+01 0.00000E+00
 -1       816 9.10350E+01 1.18003E+01 0.00000E+00
 -1       817 9.40350E+01 1.18003E+01 0.00000E+00
 -1       818 9.70350E+01 1.18003E+01 0.00000E+00
 -1       819 1.00035E+02 1.18003E+01 0.00000E+00
 -1       820 1.03035E+02 1.18003E+01 0.00000E+00
 -1       821 1.06035E+02 1.18003E+01 0.00000E+00
 -1       822 1.09035E+02 1.18003E+01 0.00000E+00
 -1       823 1.30035E+02 1.18003E+01 0.00000E+00
 -1       824 1.33035E+02 1.18003E+01 0.00000E+00
 -1       825 1.36035E+02 1.18003E+01 0.00000E+00
 -1       826 1.37887E+02 1.20223E+01 0.00000E+00
 -1       827 1.29900E+01 2.20250E+01 0.00000E+00
 -1       828 1.37055E+02 3.08750E+01 0.00000E+00
 -1       829 1.37010E+02 2.50250E+01 0.00000E+00
 -1       830 2.20350E+01 1.18003E+01 0.00000E+00
 -1       831 1.37055E+02 3.38250E+01 0.00000E+00
 -1       832 1.06374E+02 1.67130E+01 0.00000E+00
 -1       833 1.29517E+02 3.52983E+01 0.00000E+00
 -1       834 2.80350E+01 1.18003E+01 0.00000E+00
 -1       835 3.70350E+01 1.18003E+01 0.00000E+00
 -1       836 1.31164E+02 3.26603E+01 0.00000E+00
 -1       837 3.40350E+01 1.18003E+01 0.00000E+00
 -1       838 1.37055E+02 2.79750E+01 0.00000E+00
 -1       839 1.66500E+01 3.70100E+01 0.00000E+00
 -1       840 1.32836E+02 2.98216E+01 0.00000E+00
 -1       841 2.50350E+01 1.18003E+01 0.00000E+00
 -1       842 1.07177E+02 3.42414E+01 0.00000E+00
 -1       843 1.37625E+01 1.12011E+01 0.00000E+00
 -1       844 1.09300E+02 3.63230E+01 0.00000E+00
 -1       845 1.32754E+02 2.04222E+01 0.00000E+00
 -1       846 1.28226E+02 1.34023E+01 0.00000E+00
 -1       847 1.30474E+02 1.54713E+01 0.00000E+00
 -1       848 1.27186E+02 1.16260E+01 0.00000E+00
 -1       849 1.29900E+01 2.49750E+01 0.00000E+00
 -1       850 1.29900E+01 1.61375E+01 0.00000E+00
 -1       851 1.37010E+02 1.61875E+01 0.00000E+00
 -1       852 1.03133E+02 2.25712E+01 0.00000E+00
 -1       853 1.34019E+02 2.17937E+01 0.00000E+00
 -1       854 1.39652E+01 3.69017E+01 0.00000E+00
 -1       855 1.37010E+02 1.91375E+01 0.00000E+00
 -1       856 1.29900E+01 1.90875E+01 0.00000E+00
 -1       857 1.67625E+01 1.12011E+01 0.00000E+00
 -1       858 1.37010E+02 2.20812E+01 0.00000E+00
 -1       859 1.93988E+01 1.15007E+01 0.00000E+00
 -1       860 1.33486E+02 2.48619E+01 0.00000E+00
 -1       861 1.05330E+02 3.31073E+01 0.00000E+00
 -1       862 1.03204E+02 2.42160E+01 0.00000E+00
 -1       863 1.03937E+02 2.97975E+01 0.00000E+00
 -1       864 1.33953E+02 2.82305E+01 0.00000E+00
 -1       865 1.08955E+02 1.34903E+01 0.00000E+00
 -1       866 1.29900E+01 3.08563E+01 0.00000E+00
 -1       867 1.03276E+02 2.58607E+01 0.00000E+00
 -1       868 1.29900E+01 3.37938E+01 0.00000E+00
 -1       869 1.33622E+02 3.21967E+01 0.00000E+00
 -1       870 1.06466E+02 1.40557E+01 0.00000E+00
 -1       871 2.41500E+01 3.44120E+01 0.00000E+00
 -1       872 2.71500E+01 3.44120E+01 0.00000E+00
 -1       873 3.01500E+01 3.44120E+01 0.00000E+00
 -1       874 3.31500E+01 3.44120E+01 0.00000E+00
 -1       875 3.61500E+01 3.44120E+01 0.00000E+00
 -1       876 3.91500E+01 3.44120E+01 0.00000E+00
 -1       877 4.21500E+01 3.44120E+01 0.00000E+00
 -1       878 4.51500E+01 3.44120E+01 0.00000E+00
 -1       879 4.81500E+01 3.44120E+01 0.00000E+00
 -1       880 5.11500E+01 3.44120E+01 0.00000E+00
 -1       881 5.41500E+01 3.44120E+01 0.00000E+00
 -1       882 5.71500E+01 3.44120E+01 0.00000E+00
 -1       883 6.01500E+01 3.44120E+01 0.00000E+00
 -1       884 6.31500E+01 3.44120E+01 0.00000E+00
 -1       885 6.61500E+01 3.44120E+01 0.00000E+00
 -1       886 6.91500E+01 3.44120E+01 0.00000E+00
 -1       887 7.21500E+01 3.44120E+01 0.00000E+00
 -1       888 7.51500E+01 3.44120E+01 0.00000E+00
 -1       889 7.81500E+01 3.44120E+01 0.00000E+00
 -1       890 8.11500E+01 3.44120E+01 0.00000E+00
 -1       891 8.41500E+01 3.44120E+01 0.00000E+00
 -1       892 8.71500E+01 3.44120E+01 0.00000E+00
 -1       893 9.01500E+01 3.44120E+01 0.00000E+00
 -1       894 9.31500E+01 3.44120E+01 0.00000E+00
 -1       895 9.61500E+01 3.44120E+01 0.00000E+00
 -1       896 9.91500E+01 3.44120E+01 0.00000E+00
 -1       897 1.02150E+02 3.44120E+01 0.00000E+00
 -1       898 1.32517E+02 3.52983E+01 0.00000E+00
 -1       899 1.34786E+02 3.45616E+01 0.00000E+00
 -1       900 1.37449E+02 1.41049E+01 0.00000E+00
 -1       901 4.15350E+01 1.43982E+01 0.00000E+00
 -1       902 5.05350E+01 1.43982E+01 0.00000E+00
 -1       903 5.35350E+01 1.43982E+01 0.00000E+00
 -1       904 5.65350E+01 1.43982E+01 0.00000E+00
 -1       905 5.95350E+01 1.43982E+01 0.00000E+00
 -1       906 6.25350E+01 1.43982E+01 0.00000E+00
 -1       907 6.55350E+01 1.43982E+01 0.00000E+00
 -1       908 6.85350E+01 1.43982E+01 0.00000E+00
 -1       909 7.15350E+01 1.43982E+01 0.00000E+00
 -1       910 7.45350E+01 1.43982E+01 0.00000E+00
 -1       911 7.75350E+01 1.43982E+01 0.00000E+00
 -1       912 8.05350E+01 1.43982E+01 0.00000E+00
 -1       913 8.35350E+01 1.43982E+01 0.00000E+00
 -1       914 8.65350E+01 1.43982E+01 0.00000E+00
 -1       915 8.95350E+01 1.43982E+01 0.00000E+00
 -1       916 9.25350E+01 1.43982E+01 0.00000E+00
 -1       917 9.55350E+01 1.43982E+01 0.00000E+00
 -1       918 9.85350E+01 1.43982E+01 0.00000E+00
 -1       919 1.01535E+02 1.43982E+01 0.00000E+00
 -1       920 1.18035E+02 1.10849E+01 0.00000E+00
 -1       921 1.02050E+02 2.06765E+01 0.00000E+00
 -1       922 1.34605E+02 1.85950E+01 0.00000E+00
 -1       923 2.35350E+01 1.43982E+01 0.00000E+00
 -1       924 1.03987E+02 1.69393E+01 0.00000E+00
 -1       925 2.95350E+01 1.43982E+01 0.00000E+00
 -1       926 3.85350E+01 1.43982E+01 0.00000E+00
 -1       927 1.33073E+02 1.55783E+01 0.00000E+00
 -1       928 4.75350E+01 1.43982E+01 0.00000E+00
 -1       929 1.29900E+01 2.79188E+01 0.00000E+00
 -1       930 2.65350E+01 1.43982E+01 0.00000E+00
 -1       931 4.45350E+01 1.43982E+01 0.00000E+00
 -1       932 2.11500E+01 3.44120E+01 0.00000E+00
 -1       933 1.59900E+01 1.32000E+01 0.00000E+00
 -1       934 1.81500E+01 3.44120E+01 0.00000E+00
 -1       935 1.02553E+02 2.77895E+01 0.00000E+00
 -1       936 1.03110E+02 1.89708E+01 0.00000E+00
 -1       937 1.55880E+01 2.05562E+01 0.00000E+00
 -1       938 1.04735E+02 3.52107E+01 0.00000E+00
 -1       939 1.55880E+01 2.93875E+01 0.00000E+00
 -1       940 1.04535E+02 1.43982E+01 0.00000E+00
 -1       941 3.55350E+01 1.43982E+01 0.00000E+00
 -1       942 2.05351E+01 1.43983E+01 0.00000E+00
 -1       943 1.00680E+02 2.59879E+01 0.00000E+00
 -1       944 3.25350E+01 1.43982E+01 0.00000E+00
 -1       945 1.03440E+02 3.20829E+01 0.00000E+00
 -1       946 1.55880E+01 3.23250E+01 0.00000E+00
 -1       947 1.55880E+01 2.35063E+01 0.00000E+00
 -1       948 1.55880E+01 1.76063E+01 0.00000E+00
 -1       949 1.00609E+02 2.43432E+01 0.00000E+00
 -1       950 2.50350E+01 1.69963E+01 0.00000E+00
 -1       951 2.86500E+01 3.18140E+01 0.00000E+00
 -1       952 3.16500E+01 3.18140E+01 0.00000E+00
 -1       953 3.46500E+01 3.18140E+01 0.00000E+00
 -1       954 3.76500E+01 3.18140E+01 0.00000E+00
 -1       955 4.06500E+01 3.18140E+01 0.00000E+00
 -1       956 4.36500E+01 3.18140E+01 0.00000E+00
 -1       957 4.66500E+01 3.18140E+01 0.00000E+00
 -1       958 4.96500E+01 3.18140E+01 0.00000E+00
 -1       959 5.26500E+01 3.18140E+01 0.00000E+00
 -1       960 5.56500E+01 3.18140E+01 0.00000E+00
 -1       961 5.86500E+01 3.18140E+01 0.00000E+00
 -1       962 6.16500E+01 3.18140E+01 0.00000E+00
 -1       963 6.46500E+01 3.18140E+01 0.00000E+00
 -1       964 6.76500E+01 3.18140E+01 0.00000E+00
 -1       965 7.06500E+01 3.18140E+01 0.00000E+00
 -1       966 7.36500E+01 3.18140E+01 0.00000E+00
 -1       967 7.66500E+01 3.18140E+01 0.00000E+00
 -1       968 7.96500E+01 3.18140E+01 0.00000E+00
 -1       969 8.26500E+01 3.18140E+01 0.00000E+00
 -1       970 8.56500E+01 3.18140E+01 0.00000E+00
 -1       971 8.86500E+01 3.18140E+01 0.00000E+00
 -1       972 9.16500E+01 3.18140E+01 0.00000E+00
 -1       973 9.46500E+01 3.18140E+01 0.00000E+00
 -1       974 9.76500E+01 3.18140E+01 0.00000E+00
 -1       975 1.82625E+01 1.37991E+01 0.00000E+00
 -1       976 1.55880E+01 2.64469E+01 0.00000E+00
 -1       977 5.80350E+01 1.69963E+01 0.00000E+00
 -1       978 5.50350E+01 1.69963E+01 0.00000E+00
 -1       979 5.20350E+01 1.69963E+01 0.00000E+00
 -1       980 6.10350E+01 1.69963E+01 0.00000E+00
 -1       981 6.40350E+01 1.69963E+01 0.00000E+00
 -1       982 6.70350E+01 1.69963E+01 0.00000E+00
 -1       983 7.00350E+01 1.69963E+01 0.00000E+00
 -1       984 7.30350E+01 1.69963E+01 0.00000E+00
 -1       985 7.60350E+01 1.69963E+01 0.00000E+00
 -1       986 7.90350E+01 1.69963E+01 0.00000E+00
 -1       987 8.20350E+01 1.69963E+01 0.00000E+00
 -1       988 8.50350E+01 1.69963E+01 0.00000E+00
 -1       989 8.80350E+01 1.69963E+01 0.00000E+00
 -1       990 9.10350E+01 1.69963E+01 0.00000E+00
 -1       991 9.40350E+01 1.69963E+01 0.00000E+00
 -1       992 9.70350E+01 1.69963E+01 0.00000E+00
 -1       993 1.00035E+02 1.69963E+01 0.00000E+00
 -1       994 2.26500E+01 3.18140E+01 0.00000E+00
 -1       995 2.56500E+01 3.18140E+01 0.00000E+00
 -1       996 9.99626E+01 2.86075E+01 0.00000E+00
 -1       997 2.20351E+01 1.69963E+01 0.00000E+00
 -1       998 1.85098E+01 3.13542E+01 0.00000E+00
 -1       999 9.95259E+01 2.24485E+01 0.00000E+00
 -1      1000 9.80493E+01 2.52781E+01 0.00000E+00
 -1      1001 3.10350E+01 1.69963E+01 0.00000E+00
 -1      1002 4.90350E+01 1.69963E+01 0.00000E+00
 -1      1003 2.80350E+01 1.69963E+01 0.00000E+00
 -1      1004 4.00350E+01 1.69963E+01 0.00000E+00
 -1      1005 1.01701E+02 3.03452E+01 0.00000E+00
 -1      1006 9.97804E+01 1.97224E+01 0.00000E+00
 -1      1007 1.87365E+01 1.66109E+01 0.00000E+00
 -1      1008 4.30350E+01 1.69963E+01 0.00000E+00
 -1      1009 4.60350E+01 1.69963E+01 0.00000E+00
 -1      1010 3.70350E+01 1.69963E+01 0.00000E+00
 -1      1011 1.85098E+01 2.84136E+01 0.00000E+00
 -1      1012 1.81860E+01 2.20313E+01 0.00000E+00
 -1      1013 3.40350E+01 1.69963E+01 0.00000E+00
 -1      1014 5.65350E+01 1.95942E+01 0.00000E+00
 -1      1015 3.31500E+01 2.92160E+01 0.00000E+00
 -1      1016 3.61500E+01 2.92160E+01 0.00000E+00
 -1      1017 3.91500E+01 2.92160E+01 0.00000E+00
 -1      1018 4.21500E+01 2.92160E+01 0.00000E+00
 -1      1019 4.51500E+01 2.92160E+01 0.00000E+00
 -1      1020 4.81500E+01 2.92160E+01 0.00000E+00
 -1      1021 5.11500E+01 2.92160E+01 0.00000E+00
 -1      1022 5.41500E+01 2.92160E+01 0.00000E+00
 -1      1023 5.71500E+01 2.92160E+01 0.00000E+00
 -1      1024 6.01500E+01 2.92160E+01 0.00000E+00
 -1      1025 6.31500E+01 2.92160E+01 0.00000E+00
 -1      1026 6.61500E+01 2.92160E+01 0.00000E+00
 -1      1027 6.91500E+01 2.92160E+01 0.00000E+00
 -1      1028 7.21500E+01 2.92160E+01 0.00000E+00
 -1      1029 7.51500E+01 2.92160E+01 0.00000E+00
 -1      1030 7.81500E+01 2.92160E+01 0.00000E+00
 -1      1031 8.11500E+01 2.92160E+01 0.00000E+00
 -1      1032 8.41500E+01 2.92160E+01 0.00000E+00
 -1      1033 8.71500E+01 2.92160E+01 0.00000E+00
 -1      1034 9.01500E+01 2.92160E+01 0.00000E+00
 -1      1035 9.31500E+01 2.92160E+01 0.00000E+00
 -1      1036 9.61500E+01 2.92160E+01 0.00000E+00
 -1      1037 5.95350E+01 1.95942E+01 0.00000E+00
 -1      1038 3.01500E+01 2.92160E+01 0.00000E+00
 -1      1039 5.35350E+01 1.95942E+01 0.00000E+00
 -1      1040 6.55350E+01 1.95942E+01 0.00000E+00
 -1      1041 6.85350E+01 1.95942E+01 0.00000E+00
 -1      1042 7.15350E+01 1.95942E+01 0.00000E+00
 -1      1043 7.45350E+01 1.95942E+01 0.00000E+00
 -1      1044 7.75350E+01 1.95942E+01 0.00000E+00
 -1      1045 8.05350E+01 1.95942E+01 0.00000E+00
 -1      1046 8.35350E+01 1.95942E+01 0.00000E+00
 -1      1047 8.65350E+01 1.95942E+01 0.00000E+00
 -1      1048 8.95350E+01 1.95942E+01 0.00000E+00
 -1      1049 9.25350E+01 1.95942E+01 0.00000E+00
 -1      1050 9.55350E+01 1.95942E+01 0.00000E+00
 -1      1051 2.41500E+01 2.92160E+01 0.00000E+00
 -1      1052 2.35351E+01 1.95943E+01 0.00000E+00
 -1      1053 6.25350E+01 1.95942E+01 0.00000E+00
 -1      1054 3.25350E+01 1.95942E+01 0.00000E+00
 -1      1055 5.05350E+01 1.95942E+01 0.00000E+00
 -1      1056 1.81860E+01 2.49719E+01 0.00000E+00
 -1      1057 2.13299E+01 2.88148E+01 0.00000E+00
 -1      1058 2.95350E+01 1.95942E+01 0.00000E+00
 -1      1059 2.71500E+01 2.92160E+01 0.00000E+00
 -1      1060 9.64843E+01 2.26613E+01 0.00000E+00
 -1      1061 2.65350E+01 1.95943E+01 0.00000E+00
 -1      1062 9.48172E+01 2.59387E+01 0.00000E+00
 -1      1063 2.05352E+01 1.95943E+01 0.00000E+00
 -1      1064 4.75350E+01 1.95942E+01 0.00000E+00
 -1      1065 3.85350E+01 1.95942E+01 0.00000E+00
 -1      1066 3.55350E+01 1.95942E+01 0.00000E+00
 -1      1067 2.12310E+01 2.26158E+01 0.00000E+00
 -1      1068 4.15350E+01 1.95942E+01 0.00000E+00
 -1      1069 3.16500E+01 2.66180E+01 0.00000E+00
 -1      1070 3.46500E+01 2.66180E+01 0.00000E+00
 -1      1071 3.76500E+01 2.66180E+01 0.00000E+00
 -1      1072 4.06500E+01 2.66180E+01 0.00000E+00
 -1      1073 4.36500E+01 2.66180E+01 0.00000E+00
 -1      1074 4.66500E+01 2.66180E+01 0.00000E+00
 -1      1075 4.96500E+01 2.66180E+01 0.00000E+00
 -1      1076 5.26500E+01 2.66180E+01 0.00000E+00
 -1      1077 5.56500E+01 2.66180E+01 0.00000E+00
 -1      1078 5.86500E+01 2.66180E+01 0.00000E+00
 -1      1079 6.16500E+01 2.66180E+01 0.00000E+00
 -1      1080 6.46500E+01 2.66180E+01 0.00000E+00
 -1      1081 6.76500E+01 2.66180E+01 0.00000E+00
 -1      1082 7.06500E+01 2.66180E+01 0.00000E+00
 -1      1083 7.36500E+01 2.66180E+01 0.00000E+00
 -1      1084 7.66500E+01 2.66180E+01 0.00000E+00
 -1      1085 7.96500E+01 2.66180E+01 0.00000E+00
 -1      1086 8.26500E+01 2.66180E+01 0.00000E+00
 -1      1087 8.56500E+01 2.66180E+01 0.00000E+00
 -1      1088 8.86500E+01 2.66180E+01 0.00000E+00
 -1      1089 9.17336E+01 2.62783E+01 0.00000E+00
 -1      1090 7.30350E+01 2.21922E+01 0.00000E+00
 -1      1091 5.50350E+01 2.21922E+01 0.00000E+00
 -1      1092 7.00350E+01 2.21922E+01 0.00000E+00
 -1      1093 6.70350E+01 2.21922E+01 0.00000E+00
 -1      1094 7.60350E+01 2.21922E+01 0.00000E+00
 -1      1095 7.90350E+01 2.21922E+01 0.00000E+00
 -1      1096 8.20350E+01 2.21922E+01 0.00000E+00
 -1      1097 8.50350E+01 2.21922E+01 0.00000E+00
 -1      1098 8.80350E+01 2.21922E+01 0.00000E+00
 -1      1099 9.10350E+01 2.21922E+01 0.00000E+00
 -1      1100 9.37597E+01 2.24268E+01 0.00000E+00
 -1      1101 6.40350E+01 2.21922E+01 0.00000E+00
 -1      1102 3.10350E+01 2.21922E+01 0.00000E+00
 -1      1103 2.56500E+01 2.66180E+01 0.00000E+00
 -1      1104 6.10350E+01 2.21922E+01 0.00000E+00
 -1      1105 3.70350E+01 2.21922E+01 0.00000E+00
 -1      1106 2.12805E+01 2.57153E+01 0.00000E+00
 -1      1107 4.45350E+01 1.95942E+01 0.00000E+00
 -1      1108 5.20350E+01 2.21922E+01 0.00000E+00
 -1      1109 3.40350E+01 2.21922E+01 0.00000E+00
 -1      1110 5.80350E+01 2.21922E+01 0.00000E+00
 -1      1111 2.86500E+01 2.66180E+01 0.00000E+00
 -1      1112 2.44490E+01 2.26804E+01 0.00000E+00
 -1      1113 4.90350E+01 2.21922E+01 0.00000E+00
 -1      1114 2.80350E+01 2.21923E+01 0.00000E+00
 -1      1115 4.00350E+01 2.21922E+01 0.00000E+00
 -1      1116 2.34652E+01 2.61667E+01 0.00000E+00
 -1      1117 2.71500E+01 2.40200E+01 0.00000E+00
 -1      1118 4.51500E+01 2.40200E+01 0.00000E+00
 -1      1119 4.30350E+01 2.21922E+01 0.00000E+00
 -1      1120 4.60350E+01 2.21922E+01 0.00000E+00
 -1      1121 0.00000E+00 4.85250E+01 0.00000E+00
 -1      1122 0.00000E+00 4.55750E+01 0.00000E+00
 -1      1123 0.00000E+00 4.26250E+01 0.00000E+00
 -1      1124 0.00000E+00 3.96750E+01 0.00000E+00
 -1      1125 0.00000E+00 3.67250E+01 0.00000E+00
 -1      1126 0.00000E+00 3.38000E+01 0.00000E+00
 -1      1127 0.00000E+00 3.08750E+01 0.00000E+00
 -1      1128 0.00000E+00 2.79250E+01 0.00000E+00
 -1      1129 0.00000E+00 2.49750E+01 0.00000E+00
 -1      1130 0.00000E+00 2.20250E+01 0.00000E+00
 -1      1131 0.00000E+00 1.90750E+01 0.00000E+00
 -1      1132 0.00000E+00 1.61500E+01 0.00000E+00
 -1      1133 0.00000E+00 1.32250E+01 0.00000E+00
 -1      1134 0.00000E+00 1.02750E+01 0.00000E+00
 -1      1135 0.00000E+00 7.32500E+00 0.00000E+00
 -1      1136 0.00000E+00 4.37500E+00 0.00000E+00
 -1      1137 0.00000E+00 1.45000E+00 0.00000E+00
 -1      1138 1.57500E+00 5.00000E+01 0.00000E+00
 -1      1139 4.65000E+00 5.00000E+01 0.00000E+00
 -1      1140 7.65000E+00 5.00000E+01 0.00000E+00
 -1      1141 1.06500E+01 5.00000E+01 0.00000E+00
 -1      1142 1.36500E+01 5.00000E+01 0.00000E+00
 -1      1143 1.66500E+01 5.00000E+01 0.00000E+00
 -1      1144 1.96500E+01 5.00000E+01 0.00000E+00
 -1      1145 2.26500E+01 5.00000E+01 0.00000E+00
 -1      1146 2.56500E+01 5.00000E+01 0.00000E+00
 -1      1147 2.86500E+01 5.00000E+01 0.00000E+00
 -1      1148 3.16500E+01 5.00000E+01 0.00000E+00
 -1      1149 3.46500E+01 5.00000E+01 0.00000E+00
 -1      1150 3.76500E+01 5.00000E+01 0.00000E+00
 -1      1151 4.06500E+01 5.00000E+01 0.00000E+00
 -1      1152 4.36500E+01 5.00000E+01 0.00000E+00
 -1      1153 4.66500E+01 5.00000E+01 0.00000E+00
 -1      1154 4.96500E+01 5.00000E+01 0.00000E+00
 -1      1155 5.26500E+01 5.00000E+01 0.00000E+00
 -1      1156 5.56500E+01 5.00000E+01 0.00000E+00
 -1      1157 5.86500E+01 5.00000E+01 0.00000E+00
 -1      1158 6.16500E+01 5.00000E+01 0.00000E+00
 -1      1159 6.46500E+01 5.00000E+01 0.00000E+00
 -1      1160 6.76500E+01 5.00000E+01 0.00000E+00
 -1      1161 7.06500E+01 5.00000E+01 0.00000E+00
 -1      1162 7.36500E+01 5.00000E+01 0.00000E+00
 -1      1163 7.66500E+01 5.00000E+01 0.00000E+00
 -1      1164 7.96500E+01 5.00000E+01 0.00000E+00
 -1      1165 8.26500E+01 5.00000E+01 0.00000E+00
 -1      1166 8.56500E+01 5.00000E+01 0.00000E+00
 -1      1167 8.86500E+01 5.00000E+01 0.00000E+00
 -1      1168 9.16500E+01 5.00000E+01 0.00000E+00
 -1      1169 9.46500E+01 5.00000E+01 0.00000E+00
 -1      1170 9.76500E+01 5.00000E+01 0.00000E+00
 -1      1171 1.00650E+02 5.00000E+01 0.00000E+00
 -1      1172 1.03650E+02 5.00000E+01 0.00000E+00
 -1      1173 1.06650E+02 5.00000E+01 0.00000E+00
 -1      1174 1.09650E+02 5.00000E+01 0.00000E+00
 -1      1175 1.12650E+02 5.00000E+01 0.00000E+00
 -1      1176 1.15650E+02 5.00000E+01 0.00000E+00
 -1      1177 1.18650E+02 5.00000E+01 0.00000E+00
 -1      1178 1.21650E+02 5.00000E+01 0.00000E+00
 -1      1179 1.24650E+02 5.00000E+01 0.00000E+00
 -1      1180 1.27650E+02 5.00000E+01 0.00000E+00
 -1      1181 1.30650E+02 5.00000E+01 0.00000E+00
 -1      1182 1.33650E+02 5.00000E+01 0.00000E+00
 -1      1183 1.36650E+02 5.00000E+01 0.00000E+00
 -1      1184 1.39650E+02 5.00000E+01 0.00000E+00
 -1      1185 1.42650E+02 5.00000E+01 0.00000E+00
 -1      1186 1.45650E+02 5.00000E+01 0.00000E+00
 -1      1187 1.48575E+02 5.00000E+01 0.00000E+00
 -1      1188 1.57500E+00 0.00000E+00 0.00000E+00
 -1      1189 4.65000E+00 0.00000E+00 0.00000E+00
 -1      1190 7.65000E+00 0.00000E+00 0.00000E+00
 -1      1191 1.06500E+01 0.00000E+00 0.00000E+00
 -1      1192 1.36500E+01 0.00000E+00 0.00000E+00
 -1      1193 1.66500E+01 0.00000E+00 0.00000E+00
 -1      1194 1.96500E+01 0.00000E+00 0.00000E+00
 -1      1195 2.26500E+01 0.00000E+00 0.00000E+00
 -1      1196 2.56500E+01 0.00000E+00 0.00000E+00
 -1      1197 2.86500E+01 0.00000E+00 0.00000E+00
 -1      1198 3.16500E+01 0.00000E+00 0.00000E+00
 -1      1199 3.46500E+01 0.00000E+00 0.00000E+00
 -1      1200 3.76500E+01 0.00000E+00 0.00000E+00
 -1      1201 4.06500E+01 0.00000E+00 0.00000E+00
 -1      1202 4.36500E+01 0.00000E+00 0.00000E+00
 -1      1203 4.66500E+01 0.00000E+00 0.00000E+00
 -1      1204 4.96500E+01 0.00000E+00 0.00000E+00
 -1      1205 5.26500E+01 0.00000E+00 0.00000E+00
 -1      1206 5.56500E+01 0.00000E+00 0.00000E+00
 -1      1207 5.86500E+01 0.00000E+00 0.00000E+00
 -1      1208 6.16500E+01 0.00000E+00 0.00000E+00
 -1      1209 6.46500E+01 0.00000E+00 0.00000E+00
 -1      1210 6.76500E+01 0.00000E+00 0.00000E+00
 -1      1211 7.06500E+01 0.00000E+00 0.00000E+00
 -1      1212 7.36500E+01 0.00000E+00 0.00000E+00
 -1      1213 7.66500E+01 0.00000E+00 0.00000E+00
 -1      1214 7.96500E+01 0.00000E+00 0.00000E+00
 -1      1215 8.26500E+01 0.00000E+00 0.00000E+00
 -1      1216 8.56500E+01 0.00000E+00 0.00000E+00
 -1      1217 8.86500E+01 0.00000E+00 0.00000E+00
 -1      1218 9.16500E+01 0.00000E+00 0.00000E+00
 -1      1219 9.46500E+01 0.00000E+00 0.00000E+00
 -1      1220 9.76500E+01 0.00000E+00 0.00000E+00
 -1      1221 1.00650E+02 0.00000E+00 0.00000E+00
 -1      1222 1.03650E+02 0.00000E+00 0.00000E+00
 -1      1223 1.06650E+02 0.00000E+00 0.00000E+00
 -1      1224 1.09650E+02 0.00000E+00 0.00000E+00
 -1      1225 1.12650E+02 0.00000E+00 0.00000E+00
 -1      1226 1.15650E+02 0.00000E+00 0.00000E+00
 -1      1227 1.18650E+02 0.00000E+00 0.00000E+00
 -1      1228 1.21650E+02 0.00000E+00 0.00000E+00
 -1      1229 1.24650E+02 0.00000E+00 0.00000E+00
 -1      1230 1.27650E+02 0.00000E+00 0.00000E+00
 -1      1231 1.30650E+02 0.00000E+00 0.00000E+00
 -1      1232 1.33650E+02 0.00000E+00 0.00000E+00
 -1      1233 1.36650E+02 0.00000E+00 0.00000E+00
 -1      1234 1.39650E+02 0.00000E+00 0.00000E+00
 -1      1235 1.42650E+02 0.00000E+00 0.00000E+00
 -1      1236 1.45650E+02 0.00000E+00 0.00000E+00
 -1      1237 1.48575E+02 0.00000E+00 0.00000E+00
 -1      1238 1.50000E+02 1.47500E+00 0.00000E+00
 -1      1239 1.50000E+02 4.42500E+00 0.00000E+00
 -1      1240 1.50000E+02 7.37500E+00 0.00000E+00
 -1      1241 1.50000E+02 1.03250E+01 0.00000E+00
 -1      1242 1.50000E+02 1.32750E+01 0.00000E+00
 -1      1243 1.50000E+02 1.62000E+01 0.00000E+00
 -1      1244 1.50000E+02 1.91250E+01 0.00000E+00
 -1      1245 1.50000E+02 2.20750E+01 0.00000E+00
 -1      1246 1.50000E+02 2.50250E+01 0.00000E+00
 -1      1247 1.50000E+02 2.79750E+01 0.00000E+00
 -1      1248 1.50000E+02 3.09250E+01 0.00000E+00
 -1      1249 1.50000E+02 3.38500E+01 0.00000E+00
 -1      1250 1.50000E+02 3.67750E+01 0.00000E+00
 -1      1251 1.50000E+02 3.97250E+01 0.00000E+00
 -1      1252 1.50000E+02 4.26750E+01 0.00000E+00
 -1      1253 1.50000E+02 4.56250E+01 0.00000E+00
 -1      1254 1.50000E+02 4.85500E+01 0.00000E+00
 -1      1255 1.25671E+02 2.43777E+01 0.00000E+00
 -1      1256 1.25381E+02 2.29941E+01 0.00000E+00
 -1      1257 1.24845E+02 2.17430E+01 0.00000E+00
 -1      1258 1.24054E+02 2.05928E+01 0.00000E+00
 -1      1259 1.23050E+02 1.96220E+01 0.00000E+00
 -1      1260 1.21898E+02 1.88819E+01 0.00000E+00
 -1      1261 1.20607E+02 1.83759E+01 0.00000E+00
 -1      1262 1.19190E+02 1.81304E+01 0.00000E+00
 -1      1263 1.17760E+02 1.81787E+01 0.00000E+00
 -1      1264 1.16413E+02 1.85016E+01 0.00000E+00
 -1      1265 1.15118E+02 1.91057E+01 0.00000E+00
 -1      1266 1.13937E+02 1.99937E+01 0.00000E+00
 -1      1267 1.12999E+02 2.10655E+01 0.00000E+00
 -1      1268 1.12303E+02 2.22938E+01 0.00000E+00
 -1      1269 1.11867E+02 2.36397E+01 0.00000E+00
 -1      1270 1.11710E+02 2.50479E+01 0.00000E+00
 -1      1271 1.11856E+02 2.65374E+01 0.00000E+00
 -1      1272 1.12333E+02 2.80010E+01 0.00000E+00
 -1      1273 1.13121E+02 2.93293E+01 0.00000E+00
 -1      1274 1.14153E+02 3.04273E+01 0.00000E+00
 -1      1275 1.15388E+02 3.12757E+01 0.00000E+00
 -1      1276 1.16790E+02 3.18455E+01 0.00000E+00
 -1      1277 1.18304E+02 3.21022E+01 0.00000E+00
 -1      1278 1.19829E+02 3.20239E+01 0.00000E+00
 -1      1279 1.21270E+02 3.16291E+01 0.00000E+00
 -1      1280 1.22654E+02 3.08971E+01 0.00000E+00
 -1      1281 1.23838E+02 2.98782E+01 0.00000E+00
 -1      1282 1.24747E+02 2.86571E+01 0.00000E+00
 -1      1283 1.25359E+02 2.73014E+01 0.00000E+00
 -1      1284 1.25669E+02 2.58654E+01 0.00000E+00
 -1      1285 1.57500E+00 4.85250E+01 0.00000E+00
 -1      1286 1.29900E+00 4.48375E+01 0.00000E+00
 -1      1287 1.29900E+00 4.63125E+01 0.00000E+00
 -1      1288 1.29900E+00 4.18875E+01 0.00000E+00
 -1      1289 1.29900E+00 4.33625E+01 0.00000E+00
 -1      1290 2.59800E+00 4.41000E+01 0.00000E+00
 -1      1291 1.29900E+00 3.89375E+01 0.00000E+00
 -1      1292 1.29900E+00 4.04125E+01 0.00000E+00
 -1      1293 2.59800E+00 4.11500E+01 0.00000E+00
 -1      1294 1.29900E+00 3.59875E+01 0.00000E+00
 -1      1295 1.29900E+00 3.74625E+01 0.00000E+00
 -1      1296 2.59800E+00 3.82000E+01 0.00000E+00
 -1      1297 1.29900E+00 3.30875E+01 0.00000E+00
 -1      1298 1.29900E+00 3.45375E+01 0.00000E+00
 -1      1299 2.59800E+00 3.52750E+01 0.00000E+00
 -1      1300 1.29900E+00 3.01375E+01 0.00000E+00
 -1      1301 1.29900E+00 3.16125E+01 0.00000E+00
 -1      1302 2.59800E+00 3.23500E+01 0.00000E+00
 -1      1303 1.29900E+00 2.71875E+01 0.00000E+00
 -1      1304 1.29900E+00 2.86625E+01 0.00000E+00
 -1      1305 2.59800E+00 2.94000E+01 0.00000E+00
 -1      1306 1.29900E+00 2.42375E+01 0.00000E+00
 -1      1307 1.29900E+00 2.57125E+01 0.00000E+00
 -1      1308 2.59800E+00 2.64500E+01 0.00000E+00
 -1      1309 1.29900E+00 2.12875E+01 0.00000E+00
 -1      1310 1.29900E+00 2.27625E+01 0.00000E+00
 -1      1311 2.59800E+00 2.35000E+01 0.00000E+00
 -1      1312 1.29900E+00 1.83375E+01 0.00000E+00
 -1      1313 1.29900E+00 1.98125E+01 0.00000E+00
 -1      1314 2.59800E+00 2.05500E+01 0.00000E+00
 -1      1315 1.29900E+00 1.54375E+01 0.00000E+00
 -1      1316 1.29900E+00 1.68875E+01 0.00000E+00
 -1      1317 2.59800E+00 1.76250E+01 0.00000E+00
 -1      1318 1.29900E+00 1.24875E+01 0.00000E+00
 -1      1319 1.29900E+00 1.39625E+01 0.00000E+00
 -1      1320 2.59800E+00 1.47000E+01 0.00000E+00
 -1      1321 1.29900E+00 9.53750E+00 0.00000E+00
 -1      1322 1.29900E+00 1.10125E+01 0.00000E+00
 -1      1323 2.59800E+00 1.17500E+01 0.00000E+00
 -1      1324 1.29900E+00 6.58750E+00 0.00000E+00
 -1      1325 1.29900E+00 8.06250E+00 0.00000E+00
 -1      1326 2.59800E+00 8.80000E+00 0.00000E+00
 -1      1327 1.29900E+00 3.63750E+00 0.00000E+00
 -1      1328 1.29900E+00 5.11250E+00 0.00000E+00
 -1      1329 2.59800E+00 5.85000E+00 0.00000E+00
 -1      1330 1.43700E+00 1.09375E+00 0.00000E+00
 -1      1331 1.43700E+00 2.54375E+00 0.00000E+00
 -1      1332 2.73600E+00 3.28125E+00 0.00000E+00
 -1      1333 3.01200E+00 1.09375E+00 0.00000E+00
 -1      1334 3.90000E+00 4.87010E+01 0.00000E+00
 -1      1335 5.40000E+00 4.87010E+01 0.00000E+00
 -1      1336 6.90000E+00 4.87010E+01 0.00000E+00
 -1      1337 8.40000E+00 4.87010E+01 0.00000E+00
 -1      1338 6.15000E+00 4.74020E+01 0.00000E+00
 -1      1339 9.90000E+00 4.87010E+01 0.00000E+00
 -1      1340 1.14000E+01 4.87010E+01 0.00000E+00
 -1      1341 9.15000E+00 4.74020E+01 0.00000E+00
 -1      1342 1.29000E+01 4.87010E+01 0.00000E+00
 -1      1343 1.44000E+01 4.87010E+01 0.00000E+00
 -1      1344 1.21500E+01 4.74020E+01 0.00000E+00
 -1      1345 1.59000E+01 4.87010E+01 0.00000E+00
 -1      1346 1.74000E+01 4.87010E+01 0.00000E+00
 -1      1347 1.51500E+01 4.74020E+01 0.00000E+00
 -1      1348 1.89000E+01 4.87010E+01 0.00000E+00
 -1      1349 2.04000E+01 4.87010E+01 0.00000E+00
 -1      1350 1.81500E+01 4.74020E+01 0.00000E+00
 -1      1351 2.19000E+01 4.87010E+01 0.00000E+00
 -1      1352 2.34000E+01 4.87010E+01 0.00000E+00
 -1      1353 2.11500E+01 4.74020E+01 0.00000E+00
 -1      1354 2.49000E+01 4.87010E+01 0.00000E+00
 -1      1355 2.64000E+01 4.87010E+01 0.00000E+00
 -1      1356 2.41500E+01 4.74020E+01 0.00000E+00
 -1      1357 2.79000E+01 4.87010E+01 0.00000E+00
 -1      1358 2.94000E+01 4.87010E+01 0.00000E+00
 -1      1359 2.71500E+01 4.74020E+01 0.00000E+00
 -1      1360 3.09000E+01 4.87010E+01 0.00000E+00
 -1      1361 3.24000E+01 4.87010E+01 0.00000E+00
 -1      1362 3.01500E+01 4.74020E+01 0.00000E+00
 -1      1363 3.39000E+01 4.87010E+01 0.00000E+00
 -1      1364 3.54000E+01 4.87010E+01 0.00000E+00
 -1      1365 3.31500E+01 4.74020E+01 0.00000E+00
 -1      1366 3.69000E+01 4.87010E+01 0.00000E+00
 -1      1367 3.84000E+01 4.87010E+01 0.00000E+00
 -1      1368 3.61500E+01 4.74020E+01 0.00000E+00
 -1      1369 3.99000E+01 4.87010E+01 0.00000E+00
 -1      1370 4.14000E+01 4.87010E+01 0.00000E+00
 -1      1371 3.91500E+01 4.74020E+01 0.00000E+00
 -1      1372 4.29000E+01 4.87010E+01 0.00000E+00
 -1      1373 4.44000E+01 4.87010E+01 0.00000E+00
 -1      1374 4.21500E+01 4.74020E+01 0.00000E+00
 -1      1375 4.59000E+01 4.87010E+01 0.00000E+00
 -1      1376 4.74000E+01 4.87010E+01 0.00000E+00
 -1      1377 4.51500E+01 4.74020E+01 0.00000E+00
 -1      1378 4.89000E+01 4.87010E+01 0.00000E+00
 -1      1379 5.04000E+01 4.87010E+01 0.00000E+00
 -1      1380 4.81500E+01 4.74020E+01 0.00000E+00
 -1      1381 5.19000E+01 4.87010E+01 0.00000E+00
 -1      1382 5.34000E+01 4.87010E+01 0.00000E+00
 -1      1383 5.11500E+01 4.74020E+01 0.00000E+00
 -1      1384 5.49000E+01 4.87010E+01 0.00000E+00
 -1      1385 5.64000E+01 4.87010E+01 0.00000E+00
 -1      1386 5.41500E+01 4.74020E+01 0.00000E+00
 -1      1387 5.79000E+01 4.87010E+01 0.00000E+00
 -1      1388 5.94000E+01 4.87010E+01 0.00000E+00
 -1      1389 5.71500E+01 4.74020E+01 0.00000E+00
 -1      1390 6.09000E+01 4.87010E+01 0.00000E+00
 -1      1391 6.24000E+01 4.87010E+01 0.00000E+00
 -1      1392 6.01500E+01 4.74020E+01 0.00000E+00
 -1      1393 6.39000E+01 4.87010E+01 0.00000E+00
 -1      1394 6.54000E+01 4.87010E+01 0.00000E+00
 -1      1395 6.31500E+01 4.74020E+01 0.00000E+00
 -1      1396 6.69000E+01 4.87010E+01 0.00000E+00
 -1      1397 6.84000E+01 4.87010E+01 0.00000E+00
 -1      1398 6.61500E+01 4.74020E+01 0.00000E+00
 -1      1399 6.99000E+01 4.87010E+01 0.00000E+00
 -1      1400 7.14000E+01 4.87010E+01 0.00000E+00
 -1      1401 6.91500E+01 4.74020E+01 0.00000E+00
 -1      1402 7.29000E+01 4.87010E+01 0.00000E+00
 -1      1403 7.44000E+01 4.87010E+01 0.00000E+00
 -1      1404 7.21500E+01 4.74020E+01 0.00000E+00
 -1      1405 7.59000E+01 4.87010E+01 0.00000E+00
 -1      1406 7.74000E+01 4.87010E+01 0.00000E+00
 -1      1407 7.51500E+01 4.74020E+01 0.00000E+00
 -1      1408 7.89000E+01 4.87010E+01 0.00000E+00
 -1      1409 8.04000E+01 4.87010E+01 0.00000E+00
 -1      1410 7.81500E+01 4.74020E+01 0.00000E+00
 -1      1411 8.19000E+01 4.87010E+01 0.00000E+00
 -1      1412 8.34000E+01 4.87010E+01 0.00000E+00
 -1      1413 8.11500E+01 4.74020E+01 0.00000E+00
 -1      1414 8.49000E+01 4.87010E+01 0.00000E+00
 -1      1415 8.64000E+01 4.87010E+01 0.00000E+00
 -1      1416 8.41500E+01 4.74020E+01 0.00000E+00
 -1      1417 8.79000E+01 4.87010E+01 0.00000E+00
 -1      1418 8.94000E+01 4.87010E+01 0.00000E+00
 -1      1419 8.71500E+01 4.74020E+01 0.00000E+00
 -1      1420 9.09000E+01 4.87010E+01 0.00000E+00
 -1      1421 9.24000E+01 4.87010E+01 0.00000E+00
 -1      1422 9.01500E+01 4.74020E+01 0.00000E+00
 -1      1423 9.39000E+01 4.87010E+01 0.00000E+00
 -1      1424 9.54000E+01 4.87010E+01 0.00000E+00
 -1      1425 9.31500E+01 4.74020E+01 0.00000E+00
 -1      1426 9.69000E+01 4.87010E+01 0.00000E+00
 -1      1427 9.84000E+01 4.87010E+01 0.00000E+00
 -1      1428 9.61500E+01 4.74020E+01 0.00000E+00
 -1      1429 9.99000E+01 4.87010E+01 0.00000E+00
 -1      1430 1.01400E+02 4.87010E+01 0.00000E+00
 -1      1431 9.91500E+01 4.74020E+01 0.00000E+00
 -1      1432 1.02900E+02 4.87010E+01 0.00000E+00
 -1      1433 1.04400E+02 4.87010E+01 0.00000E+00
 -1      1434 1.02150E+02 4.74020E+01 0.00000E+00
 -1      1435 1.05900E+02 4.87010E+01 0.00000E+00
 -1      1436 1.07400E+02 4.87010E+01 0.00000E+00
 -1      1437 1.05150E+02 4.74020E+01 0.00000E+00
 -1      1438 1.08900E+02 4.87010E+01 0.00000E+00
 -1      1439 1.10400E+02 4.87010E+01 0.00000E+00
 -1      1440 1.08150E+02 4.74020E+01 0.00000E+00
 -1      1441 1.11900E+02 4.87010E+01 0.00000E+00
 -1      1442 1.13400E+02 4.87010E+01 0.00000E+00
 -1      1443 1.11150E+02 4.74020E+01 0.00000E+00
 -1      1444 1.14900E+02 4.87010E+01 0.00000E+00
 -1      1445 1.16400E+02 4.87010E+01 0.00000E+00
 -1      1446 1.14150E+02 4.74020E+01 0.00000E+00
 -1      1447 1.17900E+02 4.87010E+01 0.00000E+00
 -1      1448 1.19400E+02 4.87010E+01 0.00000E+00
 -1      1449 1.17150E+02 4.74020E+01 0.00000E+00
 -1      1450 1.20900E+02 4.87010E+01 0.00000E+00
 -1      1451 1.22400E+02 4.87010E+01 0.00000E+00
 -1      1452 1.20150E+02 4.74020E+01 0.00000E+00
 -1      1453 1.23900E+02 4.87010E+01 0.00000E+00
 -1      1454 1.25400E+02 4.87010E+01 0.00000E+00
 -1      1455 1.23150E+02 4.74020E+01 0.00000E+00
 -1      1456 1.26900E+02 4.87010E+01 0.00000E+00
 -1      1457 1.28400E+02 4.87010E+01 0.00000E+00
 -1      1458 1.26150E+02 4.74020E+01 0.00000E+00
 -1      1459 1.29900E+02 4.87010E+01 0.00000E+00
 -1      1460 1.31400E+02 4.87010E+01 0.00000E+00
 -1      1461 1.29150E+02 4.74020E+01 0.00000E+00
 -1      1462 1.32900E+02 4.87010E+01 0.00000E+00
 -1      1463 1.34400E+02 4.87010E+01 0.00000E+00
 -1      1464 1.32150E+02 4.74020E+01 0.00000E+00
 -1      1465 1.35900E+02 4.87010E+01 0.00000E+00
 -1      1466 1.37400E+02 4.87010E+01 0.00000E+00
 -1      1467 1.35150E+02 4.74020E+01 0.00000E+00
 -1      1468 1.38900E+02 4.87010E+01 0.00000E+00
 -1      1469 1.40400E+02 4.87010E+01 0.00000E+00
 -1      1470 1.38150E+02 4.74020E+01 0.00000E+00
 -1      1471 1.41900E+02 4.87010E+01 0.00000E+00
 -1      1472 1.43400E+02 4.87010E+01 0.00000E+00
 -1      1473 1.41150E+02 4.74020E+01 0.00000E+00
 -1      1474 1.44900E+02 4.87010E+01 0.00000E+00
 -1      1475 1.46400E+02 4.87010E+01 0.00000E+00
 -1      1476 1.44150E+02 4.74020E+01 0.00000E+00
 -1      1477 1.48575E+02 4.85500E+01 0.00000E+00
 -1      1478 1.47825E+02 4.72510E+01 0.00000E+00
 -1      1479 6.01200E+00 1.09375E+00 0.00000E+00
 -1      1480 4.51200E+00 1.09375E+00 0.00000E+00
 -1      1481 4.37400E+00 2.18750E+00 0.00000E+00
 -1      1482 9.01200E+00 1.09375E+00 0.00000E+00
 -1      1483 7.51200E+00 1.09375E+00 0.00000E+00
 -1      1484 7.37400E+00 2.18750E+00 0.00000E+00
 -1      1485 1.20120E+01 1.09375E+00 0.00000E+00
 -1      1486 1.05120E+01 1.09375E+00 0.00000E+00
 -1      1487 1.03740E+01 2.18750E+00 0.00000E+00
 -1      1488 1.50120E+01 1.09375E+00 0.00000E+00
 -1      1489 1.35120E+01 1.09375E+00 0.00000E+00
 -1      1490 1.33740E+01 2.18750E+00 0.00000E+00
 -1      1491 1.80120E+01 1.09375E+00 0.00000E+00
 -1      1492 1.65120E+01 1.09375E+00 0.00000E+00
 -1      1493 1.63740E+01 2.18750E+00 0.00000E+00
 -1      1494 2.10120E+01 1.09375E+00 0.00000E+00
 -1      1495 1.95120E+01 1.09375E+00 0.00000E+00
 -1      1496 1.93740E+01 2.18750E+00 0.00000E+00
 -1      1497 2.40120E+01 1.09375E+00 0.00000E+00
 -1      1498 2.25120E+01 1.09375E+00 0.00000E+00
 -1      1499 2.23740E+01 2.18750E+00 0.00000E+00
 -1      1500 2.70120E+01 1.09375E+00 0.00000E+00
 -1      1501 2.55120E+01 1.09375E+00 0.00000E+00
 -1      1502 2.53740E+01 2.18750E+00 0.00000E+00
 -1      1503 3.00120E+01 1.09375E+00 0.00000E+00
 -1      1504 2.85120E+01 1.09375E+00 0.00000E+00
 -1      1505 2.83740E+01 2.18750E+00 0.00000E+00
 -1      1506 3.30120E+01 1.09375E+00 0.00000E+00
 -1      1507 3.15120E+01 1.09375E+00 0.00000E+00
 -1      1508 3.13740E+01 2.18750E+00 0.00000E+00
 -1      1509 3.60120E+01 1.09375E+00 0.00000E+00
 -1      1510 3.45120E+01 1.09375E+00 0.00000E+00
 -1      1511 3.43740E+01 2.18750E+00 0.00000E+00
 -1      1512 3.90120E+01 1.09375E+00 0.00000E+00
 -1      1513 3.75120E+01 1.09375E+00 0.00000E+00
 -1      1514 3.73740E+01 2.18750E+00 0.00000E+00
 -1      1515 4.20120E+01 1.09375E+00 0.00000E+00
 -1      1516 4.05120E+01 1.09375E+00 0.00000E+00
 -1      1517 4.03740E+01 2.18750E+00 0.00000E+00
 -1      1518 4.50120E+01 1.09375E+00 0.00000E+00
 -1      1519 4.35120E+01 1.09375E+00 0.00000E+00
 -1      1520 4.33740E+01 2.18750E+00 0.00000E+00
 -1      1521 4.80120E+01 1.09375E+00 0.00000E+00
 -1      1522 4.65120E+01 1.09375E+00 0.00000E+00
 -1      1523 4.63740E+01 2.18750E+00 0.00000E+00
 -1      1524 5.10120E+01 1.09375E+00 0.00000E+00
 -1      1525 4.95120E+01 1.09375E+00 0.00000E+00
 -1      1526 4.93740E+01 2.18750E+00 0.00000E+00
 -1      1527 5.40120E+01 1.09375E+00 0.00000E+00
 -1      1528 5.25120E+01 1.09375E+00 0.00000E+00
 -1      1529 5.23740E+01 2.18750E+00 0.00000E+00
 -1      1530 5.70120E+01 1.09375E+00 0.00000E+00
 -1      1531 5.55120E+01 1.09375E+00 0.00000E+00
 -1      1532 5.53740E+01 2.18750E+00 0.00000E+00
 -1      1533 6.00120E+01 1.09375E+00 0.00000E+00
 -1      1534 5.85120E+01 1.09375E+00 0.00000E+00
 -1      1535 5.83740E+01 2.18750E+00 0.00000E+00
 -1      1536 6.30120E+01 1.09375E+00 0.00000E+00
 -1      1537 6.15120E+01 1.09375E+00 0.00000E+00
 -1      1538 6.13740E+01 2.18750E+00 0.00000E+00
 -1      1539 6.60120E+01 1.09375E+00 0.00000E+00
 -1      1540 6.45120E+01 1.09375E+00 0.00000E+00
 -1      1541 6.43740E+01 2.18750E+00 0.00000E+00
 -1      1542 6.90120E+01 1.09375E+00 0.00000E+00
 -1      1543 6.75120E+01 1.09375E+00 0.00000E+00
 -1      1544 6.73740E+01 2.18750E+00 0.00000E+00
 -1      1545 7.20120E+01 1.09375E+00 0.00000E+00
 -1      1546 7.05120E+01 1.09375E+00 0.00000E+00
 -1      1547 7.03740E+01 2.18750E+00 0.00000E+00
 -1      1548 7.50120E+01 1.09375E+00 0.00000E+00
 -1      1549 7.35120E+01 1.09375E+00 0.00000E+00
 -1      1550 7.33740E+01 2.18750E+00 0.00000E+00
 -1      1551 7.80120E+01 1.09375E+00 0.00000E+00
 -1      1552 7.65120E+01 1.09375E+00 0.00000E+00
 -1      1553 7.63740E+01 2.18750E+00 0.00000E+00
 -1      1554 8.10120E+01 1.09375E+00 0.00000E+00
 -1      1555 7.95120E+01 1.09375E+00 0.00000E+00
 -1      1556 7.93740E+01 2.18750E+00 0.00000E+00
 -1      1557 8.40120E+01 1.09375E+00 0.00000E+00
 -1      1558 8.25120E+01 1.09375E+00 0.00000E+00
 -1      1559 8.23740E+01 2.18750E+00 0.00000E+00
 -1      1560 8.70120E+01 1.09375E+00 0.00000E+00
 -1      1561 8.55120E+01 1.09375E+00 0.00000E+00
 -1      1562 8.53740E+01 2.18750E+00 0.00000E+00
 -1      1563 9.00120E+01 1.09375E+00 0.00000E+00
 -1      1564 8.85120E+01 1.09375E+00 0.00000E+00
 -1      1565 8.83740E+01 2.18750E+00 0.00000E+00
 -1      1566 9.30120E+01 1.09375E+00 0.00000E+00
 -1      1567 9.15120E+01 1.09375E+00 0.00000E+00
 -1      1568 9.13740E+01 2.18750E+00 0.00000E+00
 -1      1569 9.60120E+01 1.09375E+00 0.00000E+00
 -1      1570 9.45120E+01 1.09375E+00 0.00000E+00
 -1      1571 9.43740E+01 2.18750E+00 0.00000E+00
 -1      1572 9.90120E+01 1.09375E+00 0.00000E+00
 -1      1573 9.75120E+01 1.09375E+00 0.00000E+00
 -1      1574 9.73740E+01 2.18750E+00 0.00000E+00
 -1      1575 1.02012E+02 1.09375E+00 0.00000E+00
 -1      1576 1.00512E+02 1.09375E+00 0.00000E+00
 -1      1577 1.00374E+02 2.18750E+00 0.00000E+00
 -1      1578 1.05012E+02 1.09375E+00 0.00000E+00
 -1      1579 1.03512E+02 1.09375E+00 0.00000E+00
 -1      1580 1.03374E+02 2.18750E+00 0.00000E+00
 -1      1581 1.08012E+02 1.09375E+00 0.00000E+00
 -1      1582 1.06512E+02 1.09375E+00 0.00000E+00
 -1      1583 1.06374E+02 2.18750E+00 0.00000E+00
 -1      1584 1.11012E+02 1.09375E+00 0.00000E+00
 -1      1585 1.09512E+02 1.09375E+00 0.00000E+00
 -1      1586 1.09374E+02 2.18750E+00 0.00000E+00
 -1      1587 1.14012E+02 1.09375E+00 0.00000E+00
 -1      1588 1.12512E+02 1.09375E+00 0.00000E+00
 -1      1589 1.12374E+02 2.18750E+00 0.00000E+00
 -1      1590 1.17012E+02 1.09375E+00 0.00000E+00
 -1      1591 1.15512E+02 1.09375E+00 0.00000E+00
 -1      1592 1.15374E+02 2.18750E+00 0.00000E+00
 -1      1593 1.20012E+02 1.09375E+00 0.00000E+00
 -1      1594 1.18512E+02 1.09375E+00 0.00000E+00
 -1      1595 1.18374E+02 2.18750E+00 0.00000E+00
 -1      1596 1.23012E+02 1.09375E+00 0.00000E+00
 -1      1597 1.21512E+02 1.09375E+00 0.00000E+00
 -1      1598 1.21374E+02 2.18750E+00 0.00000E+00
 -1      1599 1.26012E+02 1.09375E+00 0.00000E+00
 -1      1600 1.24512E+02 1.09375E+00 0.00000E+00
 -1      1601 1.24374E+02 2.18750E+00 0.00000E+00
 -1      1602 1.29012E+02 1.09375E+00 0.00000E+00
 -1      1603 1.27512E+02 1.09375E+00 0.00000E+00
 -1      1604 1.27374E+02 2.18750E+00 0.00000E+00
 -1      1605 1.32012E+02 1.09375E+00 0.00000E+00
 -1      1606 1.30512E+02 1.09375E+00 0.00000E+00
 -1      1607 1.30374E+02 2.18750E+00 0.00000E+00
 -1      1608 1.35012E+02 1.09375E+00 0.00000E+00
 -1      1609 1.33512E+02 1.09375E+00 0.00000E+00
 -1      1610 1.33374E+02 2.18750E+00 0.00000E+00
 -1      1611 1.38012E+02 1.09375E+00 0.00000E+00
 -1      1612 1.36512E+02 1.09375E+00 0.00000E+00
 -1      1613 1.36374E+02 2.18750E+00 0.00000E+00
 -1      1614 1.41012E+02 1.09375E+00 0.00000E+00
 -1      1615 1.39512E+02 1.09375E+00 0.00000E+00
 -1      1616 1.39374E+02 2.18750E+00 0.00000E+00
 -1      1617 1.44012E+02 1.09375E+00 0.00000E+00
 -1      1618 1.42512E+02 1.09375E+00 0.00000E+00
 -1      1619 1.42374E+02 2.18750E+00 0.00000E+00
 -1      1620 1.47012E+02 1.09375E+00 0.00000E+00
 -1      1621 1.45512E+02 1.09375E+00 0.00000E+00
 -1      1622 1.45374E+02 2.18750E+00 0.00000E+00
 -1      1623 1.48575E+02 1.47500E+00 0.00000E+00
 -1      1624 1.48701E+02 5.16250E+00 0.00000E+00
 -1      1625 1.48701E+02 3.68750E+00 0.00000E+00
 -1      1626 1.48701E+02 8.11250E+00 0.00000E+00
 -1      1627 1.48701E+02 6.63750E+00 0.00000E+00
 -1      1628 1.47402E+02 5.90000E+00 0.00000E+00
 -1      1629 1.48701E+02 1.10625E+01 0.00000E+00
 -1      1630 1.48701E+02 9.58750E+00 0.00000E+00
 -1      1631 1.47402E+02 8.85000E+00 0.00000E+00
 -1      1632 1.48701E+02 1.40125E+01 0.00000E+00
 -1      1633 1.48701E+02 1.25375E+01 0.00000E+00
 -1      1634 1.47402E+02 1.18000E+01 0.00000E+00
 -1      1635 1.48701E+02 1.69125E+01 0.00000E+00
 -1      1636 1.48701E+02 1.54625E+01 0.00000E+00
 -1      1637 1.47402E+02 1.47250E+01 0.00000E+00
 -1      1638 1.48701E+02 1.98625E+01 0.00000E+00
 -1      1639 1.48701E+02 1.83875E+01 0.00000E+00
 -1      1640 1.47402E+02 1.76500E+01 0.00000E+00
 -1      1641 1.48701E+02 2.28125E+01 0.00000E+00
 -1      1642 1.48701E+02 2.13375E+01 0.00000E+00
 -1      1643 1.47402E+02 2.06000E+01 0.00000E+00
 -1      1644 1.48701E+02 2.57625E+01 0.00000E+00
 -1      1645 1.48701E+02 2.42875E+01 0.00000E+00
 -1      1646 1.47402E+02 2.35500E+01 0.00000E+00
 -1      1647 1.48701E+02 2.87125E+01 0.00000E+00
 -1      1648 1.48701E+02 2.72375E+01 0.00000E+00
 -1      1649 1.47402E+02 2.65000E+01 0.00000E+00
 -1      1650 1.48701E+02 3.16625E+01 0.00000E+00
 -1      1651 1.48701E+02 3.01875E+01 0.00000E+00
 -1      1652 1.47402E+02 2.94500E+01 0.00000E+00
 -1      1653 1.48701E+02 3.45625E+01 0.00000E+00
 -1      1654 1.48701E+02 3.31125E+01 0.00000E+00
 -1      1655 1.47402E+02 3.23750E+01 0.00000E+00
 -1      1656 1.48701E+02 3.75125E+01 0.00000E+00
 -1      1657 1.48701E+02 3.60375E+01 0.00000E+00
 -1      1658 1.47402E+02 3.53000E+01 0.00000E+00
 -1      1659 1.48701E+02 4.04625E+01 0.00000E+00
 -1      1660 1.48701E+02 3.89875E+01 0.00000E+00
 -1      1661 1.47402E+02 3.82500E+01 0.00000E+00
 -1      1662 1.48701E+02 4.34125E+01 0.00000E+00
 -1      1663 1.48701E+02 4.19375E+01 0.00000E+00
 -1      1664 1.47402E+02 4.12000E+01 0.00000E+00
 -1      1665 1.48263E+02 4.60692E+01 0.00000E+00
 -1      1666 1.48263E+02 4.45942E+01 0.00000E+00
 -1      1667 1.46964E+02 4.38568E+01 0.00000E+00
 -1      1668 1.46088E+02 4.62202E+01 0.00000E+00
 -1      1669 1.26280E+02 2.39431E+01 0.00000E+00
 -1      1670 1.26357E+02 2.46753E+01 0.00000E+00
 -1      1671 1.25825E+02 2.24978E+01 0.00000E+00
 -1      1672 1.26030E+02 2.31433E+01 0.00000E+00
 -1      1673 1.25182E+02 2.11675E+01 0.00000E+00
 -1      1674 1.25511E+02 2.17670E+01 0.00000E+00
 -1      1675 1.24259E+02 1.99529E+01 0.00000E+00
 -1      1676 1.24719E+02 2.04965E+01 0.00000E+00
 -1      1677 1.23137E+02 1.89606E+01 0.00000E+00
 -1      1678 1.23674E+02 1.93849E+01 0.00000E+00
 -1      1679 1.21853E+02 1.82161E+01 0.00000E+00
 -1      1680 1.22464E+02 1.85282E+01 0.00000E+00
 -1      1681 1.20436E+02 1.76909E+01 0.00000E+00
 -1      1682 1.21110E+02 1.78809E+01 0.00000E+00
 -1      1683 1.18864E+02 1.74974E+01 0.00000E+00
 -1      1684 1.19599E+02 1.75479E+01 0.00000E+00
 -1      1685 1.17338E+02 1.76595E+01 0.00000E+00
 -1      1686 1.18026E+02 1.75652E+01 0.00000E+00
 -1      1687 1.15899E+02 1.80745E+01 0.00000E+00
 -1      1688 1.16551E+02 1.78479E+01 0.00000E+00
 -1      1689 1.14424E+02 1.86645E+01 0.00000E+00
 -1      1690 1.15058E+02 1.82857E+01 0.00000E+00
 -1      1691 1.13251E+02 1.98005E+01 0.00000E+00
 -1      1692 1.13792E+02 1.92962E+01 0.00000E+00
 -1      1693 1.12334E+02 2.10135E+01 0.00000E+00
 -1      1694 1.12730E+02 2.04552E+01 0.00000E+00
 -1      1695 1.11560E+02 2.23640E+01 0.00000E+00
 -1      1696 1.11853E+02 2.16981E+01 0.00000E+00
 -1      1697 1.11235E+02 2.38551E+01 0.00000E+00
 -1      1698 1.11380E+02 2.31832E+01 0.00000E+00
 -1      1699 1.11139E+02 2.54074E+01 0.00000E+00
 -1      1700 1.11146E+02 2.46778E+01 0.00000E+00
 -1      1701 1.11341E+02 2.70361E+01 0.00000E+00
 -1      1702 1.11185E+02 2.62851E+01 0.00000E+00
 -1      1703 1.11903E+02 2.86198E+01 0.00000E+00
 -1      1704 1.11584E+02 2.79162E+01 0.00000E+00
 -1      1705 1.12871E+02 3.00022E+01 0.00000E+00
 -1      1706 1.12406E+02 2.93856E+01 0.00000E+00
 -1      1707 1.14062E+02 3.10971E+01 0.00000E+00
 -1      1708 1.13505E+02 3.06192E+01 0.00000E+00
 -1      1709 1.15457E+02 3.19539E+01 0.00000E+00
 -1      1710 1.14784E+02 3.15910E+01 0.00000E+00
 -1      1711 1.16995E+02 3.24925E+01 0.00000E+00
 -1      1712 1.16275E+02 3.22873E+01 0.00000E+00
 -1      1713 1.18663E+02 3.27276E+01 0.00000E+00
 -1      1714 1.17876E+02 3.26820E+01 0.00000E+00
 -1      1715 1.20284E+02 3.25247E+01 0.00000E+00
 -1      1716 1.19555E+02 3.26428E+01 0.00000E+00
 -1      1717 1.21828E+02 3.20172E+01 0.00000E+00
 -1      1718 1.21125E+02 3.22934E+01 0.00000E+00
 -1      1719 1.23327E+02 3.11653E+01 0.00000E+00
 -1      1720 1.22658E+02 3.16220E+01 0.00000E+00
 -1      1721 1.24509E+02 2.99877E+01 0.00000E+00
 -1      1722 1.23997E+02 3.05387E+01 0.00000E+00
 -1      1723 1.25428E+02 2.86104E+01 0.00000E+00
 -1      1724 1.25038E+02 2.92745E+01 0.00000E+00
 -1      1725 1.26012E+02 2.71385E+01 0.00000E+00
 -1      1726 1.25788E+02 2.78202E+01 0.00000E+00
 -1      1727 1.26314E+02 2.55571E+01 0.00000E+00
 -1      1728 1.26233E+02 2.63042E+01 0.00000E+00
 -1      1729 1.24367E+02 1.92651E+01 0.00000E+00
 -1      1730 1.25415E+02 2.05042E+01 0.00000E+00
 -1      1731 1.48437E+02 2.56875E+00 0.00000E+00
 -1      1732 1.47138E+02 3.30625E+00 0.00000E+00
 -1      1733 1.26755E+02 2.34368E+01 0.00000E+00
 -1      1734 1.26192E+02 2.19061E+01 0.00000E+00
 -1      1735 1.26961E+02 2.51184E+01 0.00000E+00
 -1      1736 1.23108E+02 1.82648E+01 0.00000E+00
 -1      1737 1.21692E+02 1.74973E+01 0.00000E+00
 -1      1738 1.20113E+02 1.70191E+01 0.00000E+00
 -1      1739 1.18438E+02 1.69439E+01 0.00000E+00
 -1      1740 1.16813E+02 1.72001E+01 0.00000E+00
 -1      1741 1.15185E+02 1.75998E+01 0.00000E+00
 -1      1742 1.13712E+02 1.84426E+01 0.00000E+00
 -1      1743 1.12559E+02 1.97290E+01 0.00000E+00
 -1      1744 1.11556E+02 2.10684E+01 0.00000E+00
 -1      1745 1.10895E+02 2.25723E+01 0.00000E+00
 -1      1746 1.10625E+02 2.42142E+01 0.00000E+00
 -1      1747 1.10582E+02 2.59146E+01 0.00000E+00
 -1      1748 1.10872E+02 2.76725E+01 0.00000E+00
 -1      1749 1.11618E+02 2.93184E+01 0.00000E+00
 -1      1750 1.12755E+02 3.07012E+01 0.00000E+00
 -1      1751 1.14111E+02 3.18122E+01 0.00000E+00
 -1      1752 1.15651E+02 3.26394E+01 0.00000E+00
 -1      1753 1.17350E+02 3.31623E+01 0.00000E+00
 -1      1754 1.19124E+02 3.32670E+01 0.00000E+00
 -1      1755 1.20857E+02 3.29508E+01 0.00000E+00
 -1      1756 1.22528E+02 3.23243E+01 0.00000E+00
 -1      1757 1.24027E+02 3.13024E+01 0.00000E+00
 -1      1758 1.25226E+02 2.99625E+01 0.00000E+00
 -1      1759 1.26116E+02 2.84591E+01 0.00000E+00
 -1      1760 1.26697E+02 2.68345E+01 0.00000E+00
 -1      1761 2.87400E+00 4.77875E+01 0.00000E+00
 -1      1762 3.89700E+00 4.04125E+01 0.00000E+00
 -1      1763 3.89700E+00 4.18875E+01 0.00000E+00
 -1      1764 3.89700E+00 4.33625E+01 0.00000E+00
 -1      1765 3.89700E+00 4.48375E+01 0.00000E+00
 -1      1766 5.19600E+00 4.26250E+01 0.00000E+00
 -1      1767 3.89700E+00 3.45500E+01 0.00000E+00
 -1      1768 3.89700E+00 3.60000E+01 0.00000E+00
 -1      1769 3.89700E+00 3.16000E+01 0.00000E+00
 -1      1770 3.89700E+00 3.30750E+01 0.00000E+00
 -1      1771 5.19600E+00 3.38000E+01 0.00000E+00
 -1      1772 3.89700E+00 2.86500E+01 0.00000E+00
 -1      1773 3.89700E+00 3.01250E+01 0.00000E+00
 -1      1774 5.19600E+00 3.08500E+01 0.00000E+00
 -1      1775 3.89700E+00 2.57000E+01 0.00000E+00
 -1      1776 3.89700E+00 2.71750E+01 0.00000E+00
 -1      1777 5.19600E+00 2.79000E+01 0.00000E+00
 -1      1778 3.89700E+00 2.27500E+01 0.00000E+00
 -1      1779 3.89700E+00 2.42250E+01 0.00000E+00
 -1      1780 5.19600E+00 2.49500E+01 0.00000E+00
 -1      1781 3.89700E+00 1.98000E+01 0.00000E+00
 -1      1782 3.89700E+00 2.12750E+01 0.00000E+00
 -1      1783 5.19600E+00 2.20000E+01 0.00000E+00
 -1      1784 3.89700E+00 1.69000E+01 0.00000E+00
 -1      1785 3.89700E+00 1.83500E+01 0.00000E+00
 -1      1786 5.19600E+00 1.90750E+01 0.00000E+00
 -1      1787 3.89700E+00 1.39500E+01 0.00000E+00
 -1      1788 3.89700E+00 1.54250E+01 0.00000E+00
 -1      1789 5.19600E+00 1.61500E+01 0.00000E+00
 -1      1790 3.89700E+00 1.10000E+01 0.00000E+00
 -1      1791 3.89700E+00 1.24750E+01 0.00000E+00
 -1      1792 5.19600E+00 1.32000E+01 0.00000E+00
 -1      1793 3.89700E+00 8.05000E+00 0.00000E+00
 -1      1794 3.89700E+00 9.52500E+00 0.00000E+00
 -1      1795 5.19600E+00 1.02500E+01 0.00000E+00
 -1      1796 3.89700E+00 5.10000E+00 0.00000E+00
 -1      1797 3.89700E+00 6.57500E+00 0.00000E+00
 -1      1798 5.19600E+00 7.30000E+00 0.00000E+00
 -1      1799 4.20450E+00 3.09687E+00 0.00000E+00
 -1      1800 4.06650E+00 4.19063E+00 0.00000E+00
 -1      1801 5.36550E+00 4.91563E+00 0.00000E+00
 -1      1802 5.70450E+00 3.09687E+00 0.00000E+00
 -1      1803 3.62400E+00 4.64885E+01 0.00000E+00
 -1      1804 8.70450E+00 3.09687E+00 0.00000E+00
 -1      1805 7.20450E+00 3.09687E+00 0.00000E+00
 -1      1806 7.03500E+00 4.00625E+00 0.00000E+00
 -1      1807 4.92300E+00 4.57510E+01 0.00000E+00
 -1      1808 8.40000E+00 4.61030E+01 0.00000E+00
 -1      1809 9.90000E+00 4.61030E+01 0.00000E+00
 -1      1810 1.14000E+01 4.61030E+01 0.00000E+00
 -1      1811 1.29000E+01 4.61030E+01 0.00000E+00
 -1      1812 1.06500E+01 4.48040E+01 0.00000E+00
 -1      1813 1.44000E+01 4.61030E+01 0.00000E+00
 -1      1814 1.59000E+01 4.61030E+01 0.00000E+00
 -1      1815 1.36500E+01 4.48040E+01 0.00000E+00
 -1      1816 1.74000E+01 4.61030E+01 0.00000E+00
 -1      1817 1.89000E+01 4.61030E+01 0.00000E+00
 -1      1818 1.66500E+01 4.48040E+01 0.00000E+00
 -1      1819 2.04000E+01 4.61030E+01 0.00000E+00
 -1      1820 2.19000E+01 4.61030E+01 0.00000E+00
 -1      1821 1.96500E+01 4.48040E+01 0.00000E+00
 -1      1822 2.34000E+01 4.61030E+01 0.00000E+00
 -1      1823 2.49000E+01 4.61030E+01 0.00000E+00
 -1      1824 2.26500E+01 4.48040E+01 0.00000E+00
 -1      1825 2.64000E+01 4.61030E+01 0.00000E+00
 -1      1826 2.79000E+01 4.61030E+01 0.00000E+00
 -1      1827 2.56500E+01 4.48040E+01 0.00000E+00
 -1      1828 2.94000E+01 4.61030E+01 0.00000E+00
 -1      1829 3.09000E+01 4.61030E+01 0.00000E+00
 -1      1830 2.86500E+01 4.48040E+01 0.00000E+00
 -1      1831 3.24000E+01 4.61030E+01 0.00000E+00
 -1      1832 3.39000E+01 4.61030E+01 0.00000E+00
 -1      1833 3.16500E+01 4.48040E+01 0.00000E+00
 -1      1834 3.54000E+01 4.61030E+01 0.00000E+00
 -1      1835 3.69000E+01 4.61030E+01 0.00000E+00
 -1      1836 3.46500E+01 4.48040E+01 0.00000E+00
 -1      1837 3.84000E+01 4.61030E+01 0.00000E+00
 -1      1838 3.99000E+01 4.61030E+01 0.00000E+00
 -1      1839 3.76500E+01 4.48040E+01 0.00000E+00
 -1      1840 4.14000E+01 4.61030E+01 0.00000E+00
 -1      1841 4.29000E+01 4.61030E+01 0.00000E+00
 -1      1842 4.06500E+01 4.48040E+01 0.00000E+00
 -1      1843 4.44000E+01 4.61030E+01 0.00000E+00
 -1      1844 4.59000E+01 4.61030E+01 0.00000E+00
 -1      1845 4.36500E+01 4.48040E+01 0.00000E+00
 -1      1846 4.74000E+01 4.61030E+01 0.00000E+00
 -1      1847 4.89000E+01 4.61030E+01 0.00000E+00
 -1      1848 4.66500E+01 4.48040E+01 0.00000E+00
 -1      1849 5.04000E+01 4.61030E+01 0.00000E+00
 -1      1850 5.19000E+01 4.61030E+01 0.00000E+00
 -1      1851 4.96500E+01 4.48040E+01 0.00000E+00
 -1      1852 5.34000E+01 4.61030E+01 0.00000E+00
 -1      1853 5.49000E+01 4.61030E+01 0.00000E+00
 -1      1854 5.26500E+01 4.48040E+01 0.00000E+00
 -1      1855 5.64000E+01 4.61030E+01 0.00000E+00
 -1      1856 5.79000E+01 4.61030E+01 0.00000E+00
 -1      1857 5.56500E+01 4.48040E+01 0.00000E+00
 -1      1858 5.94000E+01 4.61030E+01 0.00000E+00
 -1      1859 6.09000E+01 4.61030E+01 0.00000E+00
 -1      1860 5.86500E+01 4.48040E+01 0.00000E+00
 -1      1861 6.24000E+01 4.61030E+01 0.00000E+00
 -1      1862 6.39000E+01 4.61030E+01 0.00000E+00
 -1      1863 6.16500E+01 4.48040E+01 0.00000E+00
 -1      1864 6.54000E+01 4.61030E+01 0.00000E+00
 -1      1865 6.69000E+01 4.61030E+01 0.00000E+00
 -1      1866 6.46500E+01 4.48040E+01 0.00000E+00
 -1      1867 6.84000E+01 4.61030E+01 0.00000E+00
 -1      1868 6.99000E+01 4.61030E+01 0.00000E+00
 -1      1869 6.76500E+01 4.48040E+01 0.00000E+00
 -1      1870 7.14000E+01 4.61030E+01 0.00000E+00
 -1      1871 7.29000E+01 4.61030E+01 0.00000E+00
 -1      1872 7.06500E+01 4.48040E+01 0.00000E+00
 -1      1873 7.44000E+01 4.61030E+01 0.00000E+00
 -1      1874 7.59000E+01 4.61030E+01 0.00000E+00
 -1      1875 7.36500E+01 4.48040E+01 0.00000E+00
 -1      1876 7.74000E+01 4.61030E+01 0.00000E+00
 -1      1877 7.89000E+01 4.61030E+01 0.00000E+00
 -1      1878 7.66500E+01 4.48040E+01 0.00000E+00
 -1      1879 8.04000E+01 4.61030E+01 0.00000E+00
 -1      1880 8.19000E+01 4.61030E+01 0.00000E+00
 -1      1881 7.96500E+01 4.48040E+01 0.00000E+00
 -1      1882 8.34000E+01 4.61030E+01 0.00000E+00
 -1      1883 8.49000E+01 4.61030E+01 0.00000E+00
 -1      1884 8.26500E+01 4.48040E+01 0.00000E+00
 -1      1885 8.64000E+01 4.61030E+01 0.00000E+00
 -1      1886 8.79000E+01 4.61030E+01 0.00000E+00
 -1      1887 8.56500E+01 4.48040E+01 0.00000E+00
 -1      1888 8.94000E+01 4.61030E+01 0.00000E+00
 -1      1889 9.09000E+01 4.61030E+01 0.00000E+00
 -1      1890 8.86500E+01 4.48040E+01 0.00000E+00
 -1      1891 9.24000E+01 4.61030E+01 0.00000E+00
 -1      1892 9.39000E+01 4.61030E+01 0.00000E+00
 -1      1893 9.16500E+01 4.48040E+01 0.00000E+00
 -1      1894 9.54000E+01 4.61030E+01 0.00000E+00
 -1      1895 9.69000E+01 4.61030E+01 0.00000E+00
 -1      1896 9.46500E+01 4.48040E+01 0.00000E+00
 -1      1897 9.84000E+01 4.61030E+01 0.00000E+00
 -1      1898 9.99000E+01 4.61030E+01 0.00000E+00
 -1      1899 9.76500E+01 4.48040E+01 0.00000E+00
 -1      1900 1.01400E+02 4.61030E+01 0.00000E+00
 -1      1901 1.02900E+02 4.61030E+01 0.00000E+00
 -1      1902 1.00650E+02 4.48040E+01 0.00000E+00
 -1      1903 1.04400E+02 4.61030E+01 0.00000E+00
 -1      1904 1.05900E+02 4.61030E+01 0.00000E+00
 -1      1905 1.03650E+02 4.48040E+01 0.00000E+00
 -1      1906 1.07400E+02 4.61030E+01 0.00000E+00
 -1      1907 1.08900E+02 4.61030E+01 0.00000E+00
 -1      1908 1.06650E+02 4.48040E+01 0.00000E+00
 -1      1909 1.10400E+02 4.61030E+01 0.00000E+00
 -1      1910 1.11900E+02 4.61030E+01 0.00000E+00
 -1      1911 1.09650E+02 4.48040E+01 0.00000E+00
 -1      1912 1.13400E+02 4.61030E+01 0.00000E+00
 -1      1913 1.14900E+02 4.61030E+01 0.00000E+00
 -1      1914 1.12650E+02 4.48040E+01 0.00000E+00
 -1      1915 1.16400E+02 4.61030E+01 0.00000E+00
 -1      1916 1.17900E+02 4.61030E+01 0.00000E+00
 -1      1917 1.15650E+02 4.48040E+01 0.00000E+00
 -1      1918 1.19400E+02 4.61030E+01 0.00000E+00
 -1      1919 1.20900E+02 4.61030E+01 0.00000E+00
 -1      1920 1.18650E+02 4.48040E+01 0.00000E+00
 -1      1921 1.22400E+02 4.61030E+01 0.00000E+00
 -1      1922 1.23900E+02 4.61030E+01 0.00000E+00
 -1      1923 1.21650E+02 4.48040E+01 0.00000E+00
 -1      1924 1.25400E+02 4.61030E+01 0.00000E+00
 -1      1925 1.26900E+02 4.61030E+01 0.00000E+00
 -1      1926 1.24650E+02 4.48040E+01 0.00000E+00
 -1      1927 1.28400E+02 4.61030E+01 0.00000E+00
 -1      1928 1.29900E+02 4.61030E+01 0.00000E+00
 -1      1929 1.27650E+02 4.48040E+01 0.00000E+00
 -1      1930 1.31400E+02 4.61030E+01 0.00000E+00
 -1      1931 1.32900E+02 4.61030E+01 0.00000E+00
 -1      1932 1.30650E+02 4.48040E+01 0.00000E+00
 -1      1933 1.34400E+02 4.61030E+01 0.00000E+00
 -1      1934 1.35900E+02 4.61030E+01 0.00000E+00
 -1      1935 1.33650E+02 4.48040E+01 0.00000E+00
 -1      1936 1.37400E+02 4.61030E+01 0.00000E+00
 -1      1937 1.38900E+02 4.61030E+01 0.00000E+00
 -1      1938 1.36650E+02 4.48040E+01 0.00000E+00
 -1      1939 1.40400E+02 4.61030E+01 0.00000E+00
 -1      1940 1.41900E+02 4.61030E+01 0.00000E+00
 -1      1941 1.39650E+02 4.48040E+01 0.00000E+00
 -1      1942 1.43244E+02 4.61616E+01 0.00000E+00
 -1      1943 1.44744E+02 4.61616E+01 0.00000E+00
 -1      1944 1.45182E+02 4.49799E+01 0.00000E+00
 -1      1945 1.42494E+02 4.48626E+01 0.00000E+00
 -1      1946 1.17045E+01 3.09687E+00 0.00000E+00
 -1      1947 1.02045E+01 3.09687E+00 0.00000E+00
 -1      1948 1.00350E+01 4.00625E+00 0.00000E+00
 -1      1949 1.47045E+01 3.09687E+00 0.00000E+00
 -1      1950 1.32045E+01 3.09687E+00 0.00000E+00
 -1      1951 1.30350E+01 4.00625E+00 0.00000E+00
 -1      1952 1.77045E+01 3.09687E+00 0.00000E+00
 -1      1953 1.62045E+01 3.09687E+00 0.00000E+00
 -1      1954 1.60350E+01 4.00625E+00 0.00000E+00
 -1      1955 2.07045E+01 3.09687E+00 0.00000E+00
 -1      1956 1.92045E+01 3.09687E+00 0.00000E+00
 -1      1957 1.90350E+01 4.00625E+00 0.00000E+00
 -1      1958 2.37045E+01 3.09687E+00 0.00000E+00
 -1      1959 2.22045E+01 3.09687E+00 0.00000E+00
 -1      1960 2.20350E+01 4.00625E+00 0.00000E+00
 -1      1961 2.67045E+01 3.09687E+00 0.00000E+00
 -1      1962 2.52045E+01 3.09687E+00 0.00000E+00
 -1      1963 2.50350E+01 4.00625E+00 0.00000E+00
 -1      1964 2.97045E+01 3.09687E+00 0.00000E+00
 -1      1965 2.82045E+01 3.09687E+00 0.00000E+00
 -1      1966 2.80350E+01 4.00625E+00 0.00000E+00
 -1      1967 3.27045E+01 3.09687E+00 0.00000E+00
 -1      1968 3.12045E+01 3.09687E+00 0.00000E+00
 -1      1969 3.10350E+01 4.00625E+00 0.00000E+00
 -1      1970 3.57045E+01 3.09687E+00 0.00000E+00
 -1      1971 3.42045E+01 3.09687E+00 0.00000E+00
 -1      1972 3.40350E+01 4.00625E+00 0.00000E+00
 -1      1973 3.87045E+01 3.09687E+00 0.00000E+00
 -1      1974 3.72045E+01 3.09687E+00 0.00000E+00
 -1      1975 3.70350E+01 4.00625E+00 0.00000E+00
 -1      1976 4.17045E+01 3.09687E+00 0.00000E+00
 -1      1977 4.02045E+01 3.09687E+00 0.00000E+00
 -1      1978 4.00350E+01 4.00625E+00 0.00000E+00
 -1      1979 4.47045E+01 3.09687E+00 0.00000E+00
 -1      1980 4.32045E+01 3.09687E+00 0.00000E+00
 -1      1981 4.30350E+01 4.00625E+00 0.00000E+00
 -1      1982 4.77045E+01 3.09687E+00 0.00000E+00
 -1      1983 4.62045E+01 3.09687E+00 0.00000E+00
 -1      1984 4.60350E+01 4.00625E+00 0.00000E+00
 -1      1985 5.07045E+01 3.09687E+00 0.00000E+00
 -1      1986 4.92045E+01 3.09687E+00 0.00000E+00
 -1      1987 4.90350E+01 4.00625E+00 0.00000E+00
 -1      1988 5.37045E+01 3.09687E+00 0.00000E+00
 -1      1989 5.22045E+01 3.09687E+00 0.00000E+00
 -1      1990 5.20350E+01 4.00625E+00 0.00000E+00
 -1      1991 5.67045E+01 3.09687E+00 0.00000E+00
 -1      1992 5.52045E+01 3.09687E+00 0.00000E+00
 -1      1993 5.50350E+01 4.00625E+00 0.00000E+00
 -1      1994 5.97045E+01 3.09687E+00 0.00000E+00
 -1      1995 5.82045E+01 3.09687E+00 0.00000E+00
 -1      1996 5.80350E+01 4.00625E+00 0.00000E+00
 -1      1997 6.27045E+01 3.09687E+00 0.00000E+00
 -1      1998 6.12045E+01 3.09687E+00 0.00000E+00
 -1      1999 6.10350E+01 4.00625E+00 0.00000E+00
 -1      2000 6.57045E+01 3.09687E+00 0.00000E+00
 -1      2001 6.42045E+01 3.09687E+00 0.00000E+00
 -1      2002 6.40350E+01 4.00625E+00 0.00000E+00
 -1      2003 6.87045E+01 3.09687E+00 0.00000E+00
 -1      2004 6.72045E+01 3.09687E+00 0.00000E+00
 -1      2005 6.70350E+01 4.00625E+00 0.00000E+00
 -1      2006 7.17045E+01 3.09687E+00 0.00000E+00
 -1      2007 7.02045E+01 3.09687E+00 0.00000E+00
 -1      2008 7.00350E+01 4.00625E+00 0.00000E+00
 -1      2009 7.47045E+01 3.09687E+00 0.00000E+00
 -1      2010 7.32045E+01 3.09687E+00 0.00000E+00
 -1      2011 7.30350E+01 4.00625E+00 0.00000E+00
 -1      2012 7.77045E+01 3.09687E+00 0.00000E+00
 -1      2013 7.62045E+01 3.09687E+00 0.00000E+00
 -1      2014 7.60350E+01 4.00625E+00 0.00000E+00
 -1      2015 8.07045E+01 3.09687E+00 0.00000E+00
 -1      2016 7.92045E+01 3.09687E+00 0.00000E+00
 -1      2017 7.90350E+01 4.00625E+00 0.00000E+00
 -1      2018 8.37045E+01 3.09687E+00 0.00000E+00
 -1      2019 8.22045E+01 3.09687E+00 0.00000E+00
 -1      2020 8.20350E+01 4.00625E+00 0.00000E+00
 -1      2021 8.67045E+01 3.09687E+00 0.00000E+00
 -1      2022 8.52045E+01 3.09687E+00 0.00000E+00
 -1      2023 8.50350E+01 4.00625E+00 0.00000E+00
 -1      2024 8.97045E+01 3.09687E+00 0.00000E+00
 -1      2025 8.82045E+01 3.09687E+00 0.00000E+00
 -1      2026 8.80350E+01 4.00625E+00 0.00000E+00
 -1      2027 9.27045E+01 3.09687E+00 0.00000E+00
 -1      2028 9.12045E+01 3.09687E+00 0.00000E+00
 -1      2029 9.10350E+01 4.00625E+00 0.00000E+00
 -1      2030 9.57045E+01 3.09687E+00 0.00000E+00
 -1      2031 9.42045E+01 3.09687E+00 0.00000E+00
 -1      2032 9.40350E+01 4.00625E+00 0.00000E+00
 -1      2033 9.87045E+01 3.09687E+00 0.00000E+00
 -1      2034 9.72045E+01 3.09687E+00 0.00000E+00
 -1      2035 9.70350E+01 4.00625E+00 0.00000E+00
 -1      2036 1.01704E+02 3.09687E+00 0.00000E+00
 -1      2037 1.00204E+02 3.09687E+00 0.00000E+00
 -1      2038 1.00035E+02 4.00625E+00 0.00000E+00
 -1      2039 1.04704E+02 3.09687E+00 0.00000E+00
 -1      2040 1.03204E+02 3.09687E+00 0.00000E+00
 -1      2041 1.03035E+02 4.00625E+00 0.00000E+00
 -1      2042 1.07704E+02 3.09687E+00 0.00000E+00
 -1      2043 1.06204E+02 3.09687E+00 0.00000E+00
 -1      2044 1.06035E+02 4.00625E+00 0.00000E+00
 -1      2045 1.10704E+02 3.09687E+00 0.00000E+00
 -1      2046 1.09204E+02 3.09687E+00 0.00000E+00
 -1      2047 1.09035E+02 4.00625E+00 0.00000E+00
 -1      2048 1.13704E+02 3.09687E+00 0.00000E+00
 -1      2049 1.12204E+02 3.09687E+00 0.00000E+00
 -1      2050 1.12035E+02 4.00625E+00 0.00000E+00
 -1      2051 1.16704E+02 3.09687E+00 0.00000E+00
 -1      2052 1.15204E+02 3.09687E+00 0.00000E+00
 -1      2053 1.15035E+02 4.00625E+00 0.00000E+00
 -1      2054 1.19704E+02 3.09687E+00 0.00000E+00
 -1      2055 1.18204E+02 3.09687E+00 0.00000E+00
 -1      2056 1.18035E+02 4.00625E+00 0.00000E+00
 -1      2057 1.22704E+02 3.09687E+00 0.00000E+00
 -1      2058 1.21204E+02 3.09687E+00 0.00000E+00
 -1      2059 1.21035E+02 4.00625E+00 0.00000E+00
 -1      2060 1.25704E+02 3.09687E+00 0.00000E+00
 -1      2061 1.24204E+02 3.09687E+00 0.00000E+00
 -1      2062 1.24035E+02 4.00625E+00 0.00000E+00
 -1      2063 1.28704E+02 3.09687E+00 0.00000E+00
 -1      2064 1.27204E+02 3.09687E+00 0.00000E+00
 -1      2065 1.27035E+02 4.00625E+00 0.00000E+00
 -1      2066 1.31704E+02 3.09687E+00 0.00000E+00
 -1      2067 1.30204E+02 3.09687E+00 0.00000E+00
 -1      2068 1.30035E+02 4.00625E+00 0.00000E+00
 -1      2069 1.34704E+02 3.09687E+00 0.00000E+00
 -1      2070 1.33204E+02 3.09687E+00 0.00000E+00
 -1      2071 1.33035E+02 4.00625E+00 0.00000E+00
 -1      2072 1.37704E+02 3.09687E+00 0.00000E+00
 -1      2073 1.36204E+02 3.09687E+00 0.00000E+00
 -1      2074 1.36035E+02 4.00625E+00 0.00000E+00
 -1      2075 1.40704E+02 3.09687E+00 0.00000E+00
 -1      2076 1.39204E+02 3.09687E+00 0.00000E+00
 -1      2077 1.39035E+02 4.00625E+00 0.00000E+00
 -1      2078 1.43704E+02 3.09687E+00 0.00000E+00
 -1      2079 1.42204E+02 3.09687E+00 0.00000E+00
 -1      2080 1.42035E+02 4.00625E+00 0.00000E+00
 -1      2081 1.46171E+02 3.20156E+00 0.00000E+00
 -1      2082 1.44671E+02 3.20156E+00 0.00000E+00
 -1      2083 1.44502E+02 4.11094E+00 0.00000E+00
 -1      2084 1.46435E+02 4.32031E+00 0.00000E+00
 -1      2085 1.46103E+02 1.25375E+01 0.00000E+00
 -1      2086 1.46103E+02 1.10625E+01 0.00000E+00
 -1      2087 1.46103E+02 9.58750E+00 0.00000E+00
 -1      2088 1.46103E+02 8.11250E+00 0.00000E+00
 -1      2089 1.44804E+02 1.03250E+01 0.00000E+00
 -1      2090 1.46269E+02 6.95391E+00 0.00000E+00
 -1      2091 1.46269E+02 5.47891E+00 0.00000E+00
 -1      2092 1.45302E+02 5.37422E+00 0.00000E+00
 -1      2093 1.44970E+02 7.69141E+00 0.00000E+00
 -1      2094 1.46103E+02 1.54375E+01 0.00000E+00
 -1      2095 1.46103E+02 1.39875E+01 0.00000E+00
 -1      2096 1.44804E+02 1.32500E+01 0.00000E+00
 -1      2097 1.46103E+02 1.83875E+01 0.00000E+00
 -1      2098 1.46103E+02 1.69125E+01 0.00000E+00
 -1      2099 1.44804E+02 1.61750E+01 0.00000E+00
 -1      2100 1.46103E+02 2.13375E+01 0.00000E+00
 -1      2101 1.46103E+02 1.98625E+01 0.00000E+00
 -1      2102 1.44804E+02 1.91250E+01 0.00000E+00
 -1      2103 1.46103E+02 2.42875E+01 0.00000E+00
 -1      2104 1.46103E+02 2.28125E+01 0.00000E+00
 -1      2105 1.44804E+02 2.20750E+01 0.00000E+00
 -1      2106 1.46103E+02 2.72375E+01 0.00000E+00
 -1      2107 1.46103E+02 2.57625E+01 0.00000E+00
 -1      2108 1.44804E+02 2.50250E+01 0.00000E+00
 -1      2109 1.46103E+02 3.01875E+01 0.00000E+00
 -1      2110 1.46103E+02 2.87125E+01 0.00000E+00
 -1      2111 1.44804E+02 2.79750E+01 0.00000E+00
 -1      2112 1.46103E+02 3.30875E+01 0.00000E+00
 -1      2113 1.46103E+02 3.16375E+01 0.00000E+00
 -1      2114 1.44804E+02 3.09000E+01 0.00000E+00
 -1      2115 1.46103E+02 3.60375E+01 0.00000E+00
 -1      2116 1.46103E+02 3.45625E+01 0.00000E+00
 -1      2117 1.44804E+02 3.38250E+01 0.00000E+00
 -1      2118 1.46103E+02 3.89875E+01 0.00000E+00
 -1      2119 1.46103E+02 3.75125E+01 0.00000E+00
 -1      2120 1.44804E+02 3.67750E+01 0.00000E+00
 -1      2121 1.46103E+02 4.19375E+01 0.00000E+00
 -1      2122 1.46103E+02 4.04625E+01 0.00000E+00
 -1      2123 1.44804E+02 3.97250E+01 0.00000E+00
 -1      2124 1.26669E+02 2.12686E+01 0.00000E+00
 -1      2125 1.26983E+02 2.19994E+01 0.00000E+00
 -1      2126 1.27840E+02 2.47197E+01 0.00000E+00
 -1      2127 1.27796E+02 2.56015E+01 0.00000E+00
 -1      2128 1.27232E+02 2.27992E+01 0.00000E+00
 -1      2129 1.27482E+02 2.35991E+01 0.00000E+00
 -1      2130 1.27709E+02 2.21617E+01 0.00000E+00
 -1      2131 1.25751E+02 1.97768E+01 0.00000E+00
 -1      2132 1.26214E+02 2.04479E+01 0.00000E+00
 -1      2133 1.24642E+02 1.83958E+01 0.00000E+00
 -1      2134 1.25227E+02 1.89638E+01 0.00000E+00
 -1      2135 3.89700E+00 3.74688E+01 0.00000E+00
 -1      2136 3.89700E+00 3.89437E+01 0.00000E+00
 -1      2137 5.19600E+00 3.96813E+01 0.00000E+00
 -1      2138 5.19600E+00 3.67438E+01 0.00000E+00
 -1      2139 1.21638E+02 1.66244E+01 0.00000E+00
 -1      2140 1.22381E+02 1.69596E+01 0.00000E+00
 -1      2141 1.19811E+02 1.62675E+01 0.00000E+00
 -1      2142 1.20647E+02 1.64105E+01 0.00000E+00
 -1      2143 1.17963E+02 1.62901E+01 0.00000E+00
 -1      2144 1.18802E+02 1.62223E+01 0.00000E+00
 -1      2145 1.16239E+02 1.65418E+01 0.00000E+00
 -1      2146 1.17026E+02 1.63535E+01 0.00000E+00
 -1      2147 1.14557E+02 1.69643E+01 0.00000E+00
 -1      2148 1.15398E+02 1.67531E+01 0.00000E+00
 -1      2149 1.15611E+02 1.59064E+01 0.00000E+00
 -1      2150 1.12819E+02 1.81814E+01 0.00000E+00
 -1      2151 1.13451E+02 1.75498E+01 0.00000E+00
 -1      2152 1.11758E+02 1.96268E+01 0.00000E+00
 -1      2153 1.12279E+02 1.89720E+01 0.00000E+00
 -1      2154 1.10795E+02 2.09961E+01 0.00000E+00
 -1      2155 1.11277E+02 2.03115E+01 0.00000E+00
 -1      2156 1.10997E+02 1.95545E+01 0.00000E+00
 -1      2157 1.10008E+02 2.28068E+01 0.00000E+00
 -1      2158 1.10188E+02 2.19876E+01 0.00000E+00
 -1      2159 1.09829E+02 2.44522E+01 0.00000E+00
 -1      2160 1.09919E+02 2.36295E+01 0.00000E+00
 -1      2161 1.09212E+02 2.30449E+01 0.00000E+00
 -1      2162 1.09958E+02 2.63875E+01 0.00000E+00
 -1      2163 1.09912E+02 2.55098E+01 0.00000E+00
 -1      2164 1.10167E+02 2.83410E+01 0.00000E+00
 -1      2165 1.09923E+02 2.74609E+01 0.00000E+00
 -1      2166 1.11293E+02 3.00801E+01 0.00000E+00
 -1      2167 1.10790E+02 2.93143E+01 0.00000E+00
 -1      2168 1.12532E+02 3.15642E+01 0.00000E+00
 -1      2169 1.11898E+02 3.09471E+01 0.00000E+00
 -1      2170 1.14106E+02 3.25941E+01 0.00000E+00
 -1      2171 1.13384E+02 3.21002E+01 0.00000E+00
 -1      2172 1.15767E+02 3.35226E+01 0.00000E+00
 -1      2173 1.14950E+02 3.31892E+01 0.00000E+00
 -1      2174 1.17611E+02 3.40955E+01 0.00000E+00
 -1      2175 1.16729E+02 3.39060E+01 0.00000E+00
 -1      2176 1.19635E+02 3.39114E+01 0.00000E+00
 -1      2177 1.18743E+02 3.39963E+01 0.00000E+00
 -1      2178 1.21461E+02 3.35005E+01 0.00000E+00
 -1      2179 1.20620E+02 3.37318E+01 0.00000E+00
 -1      2180 1.23257E+02 3.27875E+01 0.00000E+00
 -1      2181 1.22428E+02 3.31827E+01 0.00000E+00
 -1      2182 1.24834E+02 3.14929E+01 0.00000E+00
 -1      2183 1.24164E+02 3.21196E+01 0.00000E+00
 -1      2184 1.26146E+02 3.00921E+01 0.00000E+00
 -1      2185 1.25617E+02 3.08053E+01 0.00000E+00
 -1      2186 1.27038E+02 2.84021E+01 0.00000E+00
 -1      2187 1.26678E+02 2.91923E+01 0.00000E+00
 -1      2188 1.27555E+02 2.66155E+01 0.00000E+00
 -1      2189 1.27334E+02 2.74498E+01 0.00000E+00
 -1      2190 1.23144E+02 1.74680E+01 0.00000E+00
 -1      2191 1.23817E+02 1.79004E+01 0.00000E+00
 -1      2192 1.24678E+02 1.75990E+01 0.00000E+00
 -1      2193 6.42300E+00 4.57510E+01 0.00000E+00
 -1      2194 1.23091E+02 1.65951E+01 0.00000E+00
 -1      2195 7.17300E+00 4.44520E+01 0.00000E+00
 -1      2196 1.28317E+02 2.40821E+01 0.00000E+00
 -1      2197 1.27005E+02 2.05412E+01 0.00000E+00
 -1      2198 1.45665E+02 4.31193E+01 0.00000E+00
 -1      2199 1.28434E+02 2.62168E+01 0.00000E+00
 -1      2200 1.26027E+02 1.89075E+01 0.00000E+00
 -1      2201 1.27897E+02 2.81831E+01 0.00000E+00
 -1      2202 1.27068E+02 3.00351E+01 0.00000E+00
 -1      2203 1.25753E+02 3.16225E+01 0.00000E+00
 -1      2204 1.24064E+02 3.29780E+01 0.00000E+00
 -1      2205 1.22190E+02 3.39636E+01 0.00000E+00
 -1      2206 1.20239E+02 3.44611E+01 0.00000E+00
 -1      2207 1.18122E+02 3.47399E+01 0.00000E+00
 -1      2208 1.16028E+02 3.44558E+01 0.00000E+00
 -1      2209 1.14223E+02 3.34773E+01 0.00000E+00
 -1      2210 1.12527E+02 3.23461E+01 0.00000E+00
 -1      2211 1.11070E+02 3.09430E+01 0.00000E+00
 -1      2212 1.09841E+02 2.91027E+01 0.00000E+00
 -1      2213 1.09205E+02 2.49251E+01 0.00000E+00
 -1      2214 1.09909E+02 2.12307E+01 0.00000E+00
 -1      2215 1.13665E+02 1.67031E+01 0.00000E+00
 -1      2216 1.17390E+02 1.56318E+01 0.00000E+00
 -1      2217 1.21337E+02 1.58728E+01 0.00000E+00
 -1      2218 1.19336E+02 1.56136E+01 0.00000E+00
 -1      2219 1.12019E+02 1.80792E+01 0.00000E+00
 -1      2220 1.09253E+02 2.70560E+01 0.00000E+00
 -1      2221 1.07850E+01 5.30525E+00 0.00000E+00
 -1      2222 9.28500E+00 5.30525E+00 0.00000E+00
 -1      2223 6.49500E+00 3.01125E+01 0.00000E+00
 -1      2224 6.49500E+00 3.15875E+01 0.00000E+00
 -1      2225 6.49500E+00 3.30625E+01 0.00000E+00
 -1      2226 6.49500E+00 3.45375E+01 0.00000E+00
 -1      2227 7.79400E+00 3.23250E+01 0.00000E+00
 -1      2228 6.49500E+00 2.42125E+01 0.00000E+00
 -1      2229 6.49500E+00 2.56875E+01 0.00000E+00
 -1      2230 6.49500E+00 2.12625E+01 0.00000E+00
 -1      2231 6.49500E+00 2.27375E+01 0.00000E+00
 -1      2232 7.79400E+00 2.34750E+01 0.00000E+00
 -1      2233 6.49500E+00 1.83625E+01 0.00000E+00
 -1      2234 6.49500E+00 1.98125E+01 0.00000E+00
 -1      2235 7.79400E+00 2.05500E+01 0.00000E+00
 -1      2236 6.49500E+00 1.54125E+01 0.00000E+00
 -1      2237 6.49500E+00 1.68875E+01 0.00000E+00
 -1      2238 7.79400E+00 1.76250E+01 0.00000E+00
 -1      2239 6.49500E+00 1.24625E+01 0.00000E+00
 -1      2240 6.49500E+00 1.39375E+01 0.00000E+00
 -1      2241 7.79400E+00 1.46750E+01 0.00000E+00
 -1      2242 6.49500E+00 9.51250E+00 0.00000E+00
 -1      2243 6.49500E+00 1.09875E+01 0.00000E+00
 -1      2244 7.79400E+00 1.17250E+01 0.00000E+00
 -1      2245 1.37850E+01 5.30525E+00 0.00000E+00
 -1      2246 1.22850E+01 5.30525E+00 0.00000E+00
 -1      2247 1.15350E+01 6.60425E+00 0.00000E+00
 -1      2248 9.90000E+00 4.35050E+01 0.00000E+00
 -1      2249 1.14000E+01 4.35050E+01 0.00000E+00
 -1      2250 1.23185E+02 1.56274E+01 0.00000E+00
 -1      2251 1.23948E+02 1.61358E+01 0.00000E+00
 -1      2252 1.29000E+01 4.35050E+01 0.00000E+00
 -1      2253 1.44000E+01 4.35050E+01 0.00000E+00
 -1      2254 1.21500E+01 4.22060E+01 0.00000E+00
 -1      2255 1.59000E+01 4.35050E+01 0.00000E+00
 -1      2256 1.74000E+01 4.35050E+01 0.00000E+00
 -1      2257 1.51500E+01 4.22060E+01 0.00000E+00
 -1      2258 1.89000E+01 4.35050E+01 0.00000E+00
 -1      2259 2.04000E+01 4.35050E+01 0.00000E+00
 -1      2260 1.81500E+01 4.22060E+01 0.00000E+00
 -1      2261 2.19000E+01 4.35050E+01 0.00000E+00
 -1      2262 2.34000E+01 4.35050E+01 0.00000E+00
 -1      2263 2.11500E+01 4.22060E+01 0.00000E+00
 -1      2264 2.49000E+01 4.35050E+01 0.00000E+00
 -1      2265 2.64000E+01 4.35050E+01 0.00000E+00
 -1      2266 2.41500E+01 4.22060E+01 0.00000E+00
 -1      2267 2.79000E+01 4.35050E+01 0.00000E+00
 -1      2268 2.94000E+01 4.35050E+01 0.00000E+00
 -1      2269 2.71500E+01 4.22060E+01 0.00000E+00
 -1      2270 3.09000E+01 4.35050E+01 0.00000E+00
 -1      2271 3.24000E+01 4.35050E+01 0.00000E+00
 -1      2272 3.01500E+01 4.22060E+01 0.00000E+00
 -1      2273 3.39000E+01 4.35050E+01 0.00000E+00
 -1      2274 3.54000E+01 4.35050E+01 0.00000E+00
 -1      2275 3.31500E+01 4.22060E+01 0.00000E+00
 -1      2276 3.69000E+01 4.35050E+01 0.00000E+00
 -1      2277 3.84000E+01 4.35050E+01 0.00000E+00
 -1      2278 3.61500E+01 4.22060E+01 0.00000E+00
 -1      2279 3.99000E+01 4.35050E+01 0.00000E+00
 -1      2280 4.14000E+01 4.35050E+01 0.00000E+00
 -1      2281 3.91500E+01 4.22060E+01 0.00000E+00
 -1      2282 4.29000E+01 4.35050E+01 0.00000E+00
 -1      2283 4.44000E+01 4.35050E+01 0.00000E+00
 -1      2284 4.21500E+01 4.22060E+01 0.00000E+00
 -1      2285 4.59000E+01 4.35050E+01 0.00000E+00
 -1      2286 4.74000E+01 4.35050E+01 0.00000E+00
 -1      2287 4.51500E+01 4.22060E+01 0.00000E+00
 -1      2288 4.89000E+01 4.35050E+01 0.00000E+00
 -1      2289 5.04000E+01 4.35050E+01 0.00000E+00
 -1      2290 4.81500E+01 4.22060E+01 0.00000E+00
 -1      2291 5.19000E+01 4.35050E+01 0.00000E+00
 -1      2292 5.34000E+01 4.35050E+01 0.00000E+00
 -1      2293 5.11500E+01 4.22060E+01 0.00000E+00
 -1      2294 5.49000E+01 4.35050E+01 0.00000E+00
 -1      2295 5.64000E+01 4.35050E+01 0.00000E+00
 -1      2296 5.41500E+01 4.22060E+01 0.00000E+00
 -1      2297 5.79000E+01 4.35050E+01 0.00000E+00
 -1      2298 5.94000E+01 4.35050E+01 0.00000E+00
 -1      2299 5.71500E+01 4.22060E+01 0.00000E+00
 -1      2300 6.09000E+01 4.35050E+01 0.00000E+00
 -1      2301 6.24000E+01 4.35050E+01 0.00000E+00
 -1      2302 6.01500E+01 4.22060E+01 0.00000E+00
 -1      2303 6.39000E+01 4.35050E+01 0.00000E+00
 -1      2304 6.54000E+01 4.35050E+01 0.00000E+00
 -1      2305 6.31500E+01 4.22060E+01 0.00000E+00
 -1      2306 6.69000E+01 4.35050E+01 0.00000E+00
 -1      2307 6.84000E+01 4.35050E+01 0.00000E+00
 -1      2308 6.61500E+01 4.22060E+01 0.00000E+00
 -1      2309 6.99000E+01 4.35050E+01 0.00000E+00
 -1      2310 7.14000E+01 4.35050E+01 0.00000E+00
 -1      2311 6.91500E+01 4.22060E+01 0.00000E+00
 -1      2312 7.29000E+01 4.35050E+01 0.00000E+00
 -1      2313 7.44000E+01 4.35050E+01 0.00000E+00
 -1      2314 7.21500E+01 4.22060E+01 0.00000E+00
 -1      2315 7.59000E+01 4.35050E+01 0.00000E+00
 -1      2316 7.74000E+01 4.35050E+01 0.00000E+00
 -1      2317 7.51500E+01 4.22060E+01 0.00000E+00
 -1      2318 7.89000E+01 4.35050E+01 0.00000E+00
 -1      2319 8.04000E+01 4.35050E+01 0.00000E+00
 -1      2320 7.81500E+01 4.22060E+01 0.00000E+00
 -1      2321 8.19000E+01 4.35050E+01 0.00000E+00
 -1      2322 8.34000E+01 4.35050E+01 0.00000E+00
 -1      2323 8.11500E+01 4.22060E+01 0.00000E+00
 -1      2324 8.49000E+01 4.35050E+01 0.00000E+00
 -1      2325 8.64000E+01 4.35050E+01 0.00000E+00
 -1      2326 8.41500E+01 4.22060E+01 0.00000E+00
 -1      2327 8.79000E+01 4.35050E+01 0.00000E+00
 -1      2328 8.94000E+01 4.35050E+01 0.00000E+00
 -1      2329 8.71500E+01 4.22060E+01 0.00000E+00
 -1      2330 9.09000E+01 4.35050E+01 0.00000E+00
 -1      2331 9.24000E+01 4.35050E+01 0.00000E+00
 -1      2332 9.01500E+01 4.22060E+01 0.00000E+00
 -1      2333 9.39000E+01 4.35050E+01 0.00000E+00
 -1      2334 9.54000E+01 4.35050E+01 0.00000E+00
 -1      2335 9.31500E+01 4.22060E+01 0.00000E+00
 -1      2336 9.69000E+01 4.35050E+01 0.00000E+00
 -1      2337 9.84000E+01 4.35050E+01 0.00000E+00
 -1      2338 9.61500E+01 4.22060E+01 0.00000E+00
 -1      2339 9.99000E+01 4.35050E+01 0.00000E+00
 -1      2340 1.01400E+02 4.35050E+01 0.00000E+00
 -1      2341 9.91500E+01 4.22060E+01 0.00000E+00
 -1      2342 1.02900E+02 4.35050E+01 0.00000E+00
 -1      2343 1.04400E+02 4.35050E+01 0.00000E+00
 -1      2344 1.02150E+02 4.22060E+01 0.00000E+00
 -1      2345 1.05900E+02 4.35050E+01 0.00000E+00
 -1      2346 1.07400E+02 4.35050E+01 0.00000E+00
 -1      2347 1.05150E+02 4.22060E+01 0.00000E+00
 -1      2348 1.08900E+02 4.35050E+01 0.00000E+00
 -1      2349 1.10400E+02 4.35050E+01 0.00000E+00
 -1      2350 1.08150E+02 4.22060E+01 0.00000E+00
 -1      2351 1.11900E+02 4.35050E+01 0.00000E+00
 -1      2352 1.13400E+02 4.35050E+01 0.00000E+00
 -1      2353 1.11150E+02 4.22060E+01 0.00000E+00
 -1      2354 1.14900E+02 4.35050E+01 0.00000E+00
 -1      2355 1.16400E+02 4.35050E+01 0.00000E+00
 -1      2356 1.14150E+02 4.22060E+01 0.00000E+00
 -1      2357 1.17900E+02 4.35050E+01 0.00000E+00
 -1      2358 1.19400E+02 4.35050E+01 0.00000E+00
 -1      2359 1.17150E+02 4.22060E+01 0.00000E+00
 -1      2360 1.20900E+02 4.35050E+01 0.00000E+00
 -1      2361 1.22400E+02 4.35050E+01 0.00000E+00
 -1      2362 1.20150E+02 4.22060E+01 0.00000E+00
 -1      2363 1.23900E+02 4.35050E+01 0.00000E+00
 -1      2364 1.25400E+02 4.35050E+01 0.00000E+00
 -1      2365 1.23150E+02 4.22060E+01 0.00000E+00
 -1      2366 1.26900E+02 4.35050E+01 0.00000E+00
 -1      2367 1.28400E+02 4.35050E+01 0.00000E+00
 -1      2368 1.26150E+02 4.22060E+01 0.00000E+00
 -1      2369 1.29900E+02 4.35050E+01 0.00000E+00
 -1      2370 1.31400E+02 4.35050E+01 0.00000E+00
 -1      2371 1.29150E+02 4.22060E+01 0.00000E+00
 -1      2372 1.32900E+02 4.35050E+01 0.00000E+00
 -1      2373 1.34400E+02 4.35050E+01 0.00000E+00
 -1      2374 1.32150E+02 4.22060E+01 0.00000E+00
 -1      2375 1.35900E+02 4.35050E+01 0.00000E+00
 -1      2376 1.37400E+02 4.35050E+01 0.00000E+00
 -1      2377 1.35150E+02 4.22060E+01 0.00000E+00
 -1      2378 1.38900E+02 4.35050E+01 0.00000E+00
 -1      2379 1.40400E+02 4.35050E+01 0.00000E+00
 -1      2380 1.38150E+02 4.22060E+01 0.00000E+00
 -1      2381 1.28283E+02 2.15437E+01 0.00000E+00
 -1      2382 1.28533E+02 2.23435E+01 0.00000E+00
 -1      2383 1.97850E+01 5.30525E+00 0.00000E+00
 -1      2384 1.82850E+01 5.30525E+00 0.00000E+00
 -1      2385 2.27850E+01 5.30525E+00 0.00000E+00
 -1      2386 2.12850E+01 5.30525E+00 0.00000E+00
 -1      2387 2.05350E+01 6.60425E+00 0.00000E+00
 -1      2388 2.57850E+01 5.30525E+00 0.00000E+00
 -1      2389 2.42850E+01 5.30525E+00 0.00000E+00
 -1      2390 2.35350E+01 6.60425E+00 0.00000E+00
 -1      2391 2.87850E+01 5.30525E+00 0.00000E+00
 -1      2392 2.72850E+01 5.30525E+00 0.00000E+00
 -1      2393 2.65350E+01 6.60425E+00 0.00000E+00
 -1      2394 3.17850E+01 5.30525E+00 0.00000E+00
 -1      2395 3.02850E+01 5.30525E+00 0.00000E+00
 -1      2396 2.95350E+01 6.60425E+00 0.00000E+00
 -1      2397 3.47850E+01 5.30525E+00 0.00000E+00
 -1      2398 3.32850E+01 5.30525E+00 0.00000E+00
 -1      2399 3.25350E+01 6.60425E+00 0.00000E+00
 -1      2400 3.77850E+01 5.30525E+00 0.00000E+00
 -1      2401 3.62850E+01 5.30525E+00 0.00000E+00
 -1      2402 3.55350E+01 6.60425E+00 0.00000E+00
 -1      2403 4.07850E+01 5.30525E+00 0.00000E+00
 -1      2404 3.92850E+01 5.30525E+00 0.00000E+00
 -1      2405 3.85350E+01 6.60425E+00 0.00000E+00
 -1      2406 4.37850E+01 5.30525E+00 0.00000E+00
 -1      2407 4.22850E+01 5.30525E+00 0.00000E+00
 -1      2408 4.15350E+01 6.60425E+00 0.00000E+00
 -1      2409 4.67850E+01 5.30525E+00 0.00000E+00
 -1      2410 4.52850E+01 5.30525E+00 0.00000E+00
 -1      2411 4.45350E+01 6.60425E+00 0.00000E+00
 -1      2412 4.97850E+01 5.30525E+00 0.00000E+00
 -1      2413 4.82850E+01 5.30525E+00 0.00000E+00
 -1      2414 4.75350E+01 6.60425E+00 0.00000E+00
 -1      2415 5.27850E+01 5.30525E+00 0.00000E+00
 -1      2416 5.12850E+01 5.30525E+00 0.00000E+00
 -1      2417 5.05350E+01 6.60425E+00 0.00000E+00
 -1      2418 5.57850E+01 5.30525E+00 0.00000E+00
 -1      2419 5.42850E+01 5.30525E+00 0.00000E+00
 -1      2420 5.35350E+01 6.60425E+00 0.00000E+00
 -1      2421 5.87850E+01 5.30525E+00 0.00000E+00
 -1      2422 5.72850E+01 5.30525E+00 0.00000E+00
 -1      2423 5.65350E+01 6.60425E+00 0.00000E+00
 -1      2424 6.17850E+01 5.30525E+00 0.00000E+00
 -1      2425 6.02850E+01 5.30525E+00 0.00000E+00
 -1      2426 5.95350E+01 6.60425E+00 0.00000E+00
 -1      2427 6.47850E+01 5.30525E+00 0.00000E+00
 -1      2428 6.32850E+01 5.30525E+00 0.00000E+00
 -1      2429 6.25350E+01 6.60425E+00 0.00000E+00
 -1      2430 6.77850E+01 5.30525E+00 0.00000E+00
 -1      2431 6.62850E+01 5.30525E+00 0.00000E+00
 -1      2432 6.55350E+01 6.60425E+00 0.00000E+00
 -1      2433 7.07850E+01 5.30525E+00 0.00000E+00
 -1      2434 6.92850E+01 5.30525E+00 0.00000E+00
 -1      2435 6.85350E+01 6.60425E+00 0.00000E+00
 -1      2436 7.37850E+01 5.30525E+00 0.00000E+00
 -1      2437 7.22850E+01 5.30525E+00 0.00000E+00
 -1      2438 7.15350E+01 6.60425E+00 0.00000E+00
 -1      2439 7.67850E+01 5.30525E+00 0.00000E+00
 -1      2440 7.52850E+01 5.30525E+00 0.00000E+00
 -1      2441 7.45350E+01 6.60425E+00 0.00000E+00
 -1      2442 7.97850E+01 5.30525E+00 0.00000E+00
 -1      2443 7.82850E+01 5.30525E+00 0.00000E+00
 -1      2444 7.75350E+01 6.60425E+00 0.00000E+00
 -1      2445 8.27850E+01 5.30525E+00 0.00000E+00
 -1      2446 8.12850E+01 5.30525E+00 0.00000E+00
 -1      2447 8.05350E+01 6.60425E+00 0.00000E+00
 -1      2448 8.57850E+01 5.30525E+00 0.00000E+00
 -1      2449 8.42850E+01 5.30525E+00 0.00000E+00
 -1      2450 8.35350E+01 6.60425E+00 0.00000E+00
 -1      2451 8.87850E+01 5.30525E+00 0.00000E+00
 -1      2452 8.72850E+01 5.30525E+00 0.00000E+00
 -1      2453 8.65350E+01 6.60425E+00 0.00000E+00
 -1      2454 9.17850E+01 5.30525E+00 0.00000E+00
 -1      2455 9.02850E+01 5.30525E+00 0.00000E+00
 -1      2456 8.95350E+01 6.60425E+00 0.00000E+00
 -1      2457 9.47850E+01 5.30525E+00 0.00000E+00
 -1      2458 9.32850E+01 5.30525E+00 0.00000E+00
 -1      2459 9.25350E+01 6.60425E+00 0.00000E+00
 -1      2460 9.77850E+01 5.30525E+00 0.00000E+00
 -1      2461 9.62850E+01 5.30525E+00 0.00000E+00
 -1      2462 9.55350E+01 6.60425E+00 0.00000E+00
 -1      2463 1.00785E+02 5.30525E+00 0.00000E+00
 -1      2464 9.92850E+01 5.30525E+00 0.00000E+00
 -1      2465 9.85350E+01 6.60425E+00 0.00000E+00
 -1      2466 1.03785E+02 5.30525E+00 0.00000E+00
 -1      2467 1.02285E+02 5.30525E+00 0.00000E+00
 -1      2468 1.01535E+02 6.60425E+00 0.00000E+00
 -1      2469 1.06785E+02 5.30525E+00 0.00000E+00
 -1      2470 1.05285E+02 5.30525E+00 0.00000E+00
 -1      2471 1.04535E+02 6.60425E+00 0.00000E+00
 -1      2472 1.09785E+02 5.30525E+00 0.00000E+00
 -1      2473 1.08285E+02 5.30525E+00 0.00000E+00
 -1      2474 1.07535E+02 6.60425E+00 0.00000E+00
 -1      2475 1.12785E+02 5.30525E+00 0.00000E+00
 -1      2476 1.11285E+02 5.30525E+00 0.00000E+00
 -1      2477 1.10535E+02 6.60425E+00 0.00000E+00
 -1      2478 1.15785E+02 5.30525E+00 0.00000E+00
 -1      2479 1.14285E+02 5.30525E+00 0.00000E+00
 -1      2480 1.13535E+02 6.60425E+00 0.00000E+00
 -1      2481 1.18785E+02 5.30525E+00 0.00000E+00
 -1      2482 1.17285E+02 5.30525E+00 0.00000E+00
 -1      2483 1.16535E+02 6.60425E+00 0.00000E+00
 -1      2484 1.21785E+02 5.30525E+00 0.00000E+00
 -1      2485 1.20285E+02 5.30525E+00 0.00000E+00
 -1      2486 1.19535E+02 6.60425E+00 0.00000E+00
 -1      2487 1.24785E+02 5.30525E+00 0.00000E+00
 -1      2488 1.23285E+02 5.30525E+00 0.00000E+00
 -1      2489 1.22535E+02 6.60425E+00 0.00000E+00
 -1      2490 1.27785E+02 5.30525E+00 0.00000E+00
 -1      2491 1.26285E+02 5.30525E+00 0.00000E+00
 -1      2492 1.25535E+02 6.60425E+00 0.00000E+00
 -1      2493 1.30785E+02 5.30525E+00 0.00000E+00
 -1      2494 1.29285E+02 5.30525E+00 0.00000E+00
 -1      2495 1.28535E+02 6.60425E+00 0.00000E+00
 -1      2496 1.33785E+02 5.30525E+00 0.00000E+00
 -1      2497 1.32285E+02 5.30525E+00 0.00000E+00
 -1      2498 1.31535E+02 6.60425E+00 0.00000E+00
 -1      2499 1.36785E+02 5.30525E+00 0.00000E+00
 -1      2500 1.35285E+02 5.30525E+00 0.00000E+00
 -1      2501 1.34535E+02 6.60425E+00 0.00000E+00
 -1      2502 1.39785E+02 5.30525E+00 0.00000E+00
 -1      2503 1.38285E+02 5.30525E+00 0.00000E+00
 -1      2504 1.37535E+02 6.60425E+00 0.00000E+00
 -1      2505 1.42785E+02 5.30525E+00 0.00000E+00
 -1      2506 1.41285E+02 5.30525E+00 0.00000E+00
 -1      2507 1.40535E+02 6.60425E+00 0.00000E+00
 -1      2508 1.44336E+02 5.26953E+00 0.00000E+00
 -1      2509 1.43505E+02 1.69125E+01 0.00000E+00
 -1      2510 1.43505E+02 1.54375E+01 0.00000E+00
 -1      2511 1.43505E+02 1.98625E+01 0.00000E+00
 -1      2512 1.43505E+02 1.83875E+01 0.00000E+00
 -1      2513 1.42206E+02 1.76500E+01 0.00000E+00
 -1      2514 1.43505E+02 1.10625E+01 0.00000E+00
 -1      2515 1.43505E+02 9.58750E+00 0.00000E+00
 -1      2516 1.43505E+02 1.39750E+01 0.00000E+00
 -1      2517 1.43505E+02 1.25250E+01 0.00000E+00
 -1      2518 1.42206E+02 1.17875E+01 0.00000E+00
 -1      2519 1.42206E+02 1.47125E+01 0.00000E+00
 -1      2520 1.43505E+02 2.28125E+01 0.00000E+00
 -1      2521 1.43505E+02 2.13375E+01 0.00000E+00
 -1      2522 1.42206E+02 2.06000E+01 0.00000E+00
 -1      2523 1.43505E+02 2.57625E+01 0.00000E+00
 -1      2524 1.43505E+02 2.42875E+01 0.00000E+00
 -1      2525 1.42206E+02 2.35500E+01 0.00000E+00
 -1      2526 1.43505E+02 2.87125E+01 0.00000E+00
 -1      2527 1.43505E+02 2.72375E+01 0.00000E+00
 -1      2528 1.42206E+02 2.65000E+01 0.00000E+00
 -1      2529 1.43505E+02 3.16125E+01 0.00000E+00
 -1      2530 1.43505E+02 3.01625E+01 0.00000E+00
 -1      2531 1.42206E+02 2.94250E+01 0.00000E+00
 -1      2532 1.43505E+02 3.45625E+01 0.00000E+00
 -1      2533 1.43505E+02 3.30875E+01 0.00000E+00
 -1      2534 1.42206E+02 3.23500E+01 0.00000E+00
 -1      2535 1.43505E+02 3.75125E+01 0.00000E+00
 -1      2536 1.43505E+02 3.60375E+01 0.00000E+00
 -1      2537 1.42206E+02 3.53000E+01 0.00000E+00
 -1      2538 1.43505E+02 4.04625E+01 0.00000E+00
 -1      2539 1.43505E+02 3.89875E+01 0.00000E+00
 -1      2540 1.42206E+02 3.82500E+01 0.00000E+00
 -1      2541 1.44321E+02 4.30606E+01 0.00000E+00
 -1      2542 1.29307E+02 2.58885E+01 0.00000E+00
 -1      2543 1.29066E+02 2.69025E+01 0.00000E+00
 -1      2544 1.67850E+01 5.30525E+00 0.00000E+00
 -1      2545 1.52850E+01 5.30525E+00 0.00000E+00
 -1      2546 1.75350E+01 6.60425E+00 0.00000E+00
 -1      2547 1.27455E+02 1.97559E+01 0.00000E+00
 -1      2548 1.27909E+02 2.05766E+01 0.00000E+00
 -1      2549 1.28864E+02 2.79616E+01 0.00000E+00
 -1      2550 1.28567E+02 2.89139E+01 0.00000E+00
 -1      2551 6.55950E+00 4.28890E+01 0.00000E+00
 -1      2552 8.53650E+00 4.32410E+01 0.00000E+00
 -1      2553 9.28650E+00 4.19420E+01 0.00000E+00
 -1      2554 6.55950E+00 4.14140E+01 0.00000E+00
 -1      2555 1.26407E+02 1.81299E+01 0.00000E+00
 -1      2556 1.26931E+02 1.89429E+01 0.00000E+00
 -1      2557 1.27835E+02 1.89784E+01 0.00000E+00
 -1      2558 1.12730E+02 1.62750E+01 0.00000E+00
 -1      2559 1.13836E+02 1.56895E+01 0.00000E+00
 -1      2560 1.16875E+02 1.49751E+01 0.00000E+00
 -1      2561 1.17812E+02 1.49117E+01 0.00000E+00
 -1      2562 6.49500E+00 2.71625E+01 0.00000E+00
 -1      2563 6.49500E+00 2.86375E+01 0.00000E+00
 -1      2564 7.79400E+00 2.93750E+01 0.00000E+00
 -1      2565 7.79400E+00 2.64250E+01 0.00000E+00
 -1      2566 1.18864E+02 1.48599E+01 0.00000E+00
 -1      2567 1.19873E+02 1.49051E+01 0.00000E+00
 -1      2568 1.11041E+02 1.79908E+01 0.00000E+00
 -1      2569 1.11581E+02 1.72002E+01 0.00000E+00
 -1      2570 1.21013E+02 1.49685E+01 0.00000E+00
 -1      2571 1.22004E+02 1.51824E+01 0.00000E+00
 -1      2572 1.15002E+02 1.52615E+01 0.00000E+00
 -1      2573 1.15844E+02 1.50503E+01 0.00000E+00
 -1      2574 1.08295E+02 2.75623E+01 0.00000E+00
 -1      2575 1.08330E+02 2.64890E+01 0.00000E+00
 -1      2576 1.10078E+02 1.93602E+01 0.00000E+00
 -1      2577 1.10559E+02 1.86755E+01 0.00000E+00
 -1      2578 1.10121E+02 1.77965E+01 0.00000E+00
 -1      2579 1.08863E+02 2.13432E+01 0.00000E+00
 -1      2580 1.09471E+02 2.03517E+01 0.00000E+00
 -1      2581 1.09032E+02 1.94727E+01 0.00000E+00
 -1      2582 1.08232E+02 2.33545E+01 0.00000E+00
 -1      2583 1.08321E+02 2.25319E+01 0.00000E+00
 -1      2584 1.08322E+02 2.54505E+01 0.00000E+00
 -1      2585 1.08239E+02 2.43930E+01 0.00000E+00
 -1      2586 1.07348E+02 2.38800E+01 0.00000E+00
 -1      2587 1.07364E+02 2.59568E+01 0.00000E+00
 -1      2588 1.09431E+02 3.00516E+01 0.00000E+00
 -1      2589 1.08808E+02 2.90784E+01 0.00000E+00
 -1      2590 1.10704E+02 3.18435E+01 0.00000E+00
 -1      2591 1.10098E+02 3.09764E+01 0.00000E+00
 -1      2592 1.12519E+02 3.33045E+01 0.00000E+00
 -1      2593 1.11667E+02 3.27685E+01 0.00000E+00
 -1      2594 1.14206E+02 3.44948E+01 0.00000E+00
 -1      2595 1.13362E+02 3.38997E+01 0.00000E+00
 -1      2596 1.12502E+02 3.43221E+01 0.00000E+00
 -1      2597 1.16191E+02 3.54441E+01 0.00000E+00
 -1      2598 1.15230E+02 3.50607E+01 0.00000E+00
 -1      2599 1.18756E+02 3.54612E+01 0.00000E+00
 -1      2600 1.17624E+02 3.55604E+01 0.00000E+00
 -1      2601 1.20862E+02 3.50912E+01 0.00000E+00
 -1      2602 1.19878E+02 3.52709E+01 0.00000E+00
 -1      2603 1.22928E+02 3.45796E+01 0.00000E+00
 -1      2604 1.21961E+02 3.48974E+01 0.00000E+00
 -1      2605 1.25026E+02 3.33344E+01 0.00000E+00
 -1      2606 1.24119E+02 3.40023E+01 0.00000E+00
 -1      2607 1.26683E+02 3.18916E+01 0.00000E+00
 -1      2608 1.25900E+02 3.25792E+01 0.00000E+00
 -1      2609 1.28000E+02 2.99791E+01 0.00000E+00
 -1      2610 1.27468E+02 3.08789E+01 0.00000E+00
 -1      2611 1.28875E+02 2.32866E+01 0.00000E+00
 -1      2612 1.29233E+02 2.44072E+01 0.00000E+00
 -1      2613 8.07525E+00 5.11044E+00 0.00000E+00
 -1      2614 6.57525E+00 5.11044E+00 0.00000E+00
 -1      2615 6.40575E+00 6.01981E+00 0.00000E+00
 -1      2616 8.82525E+00 6.40944E+00 0.00000E+00
 -1      2617 1.24772E+02 1.66313E+01 0.00000E+00
 -1      2618 1.25597E+02 1.71267E+01 0.00000E+00
 -1      2619 1.24867E+02 1.56635E+01 0.00000E+00
 -1      2620 1.20541E+02 1.42147E+01 0.00000E+00
 -1      2621 7.79400E+00 3.52687E+01 0.00000E+00
 -1      2622 6.49500E+00 3.60062E+01 0.00000E+00
 -1      2623 6.49500E+00 3.74750E+01 0.00000E+00
 -1      2624 1.45350E+01 6.60425E+00 0.00000E+00
 -1      2625 6.40575E+00 7.49481E+00 0.00000E+00
 -1      2626 1.26501E+02 1.71621E+01 0.00000E+00
 -1      2627 1.29737E+02 2.76334E+01 0.00000E+00
 -1      2628 1.28733E+02 2.07584E+01 0.00000E+00
 -1      2629 1.43586E+02 6.56853E+00 0.00000E+00
 -1      2630 1.43419E+02 7.72713E+00 0.00000E+00
 -1      2631 1.29449E+02 2.26686E+01 0.00000E+00
 -1      2632 1.42758E+02 4.35929E+01 0.00000E+00
 -1      2633 1.43241E+02 4.17323E+01 0.00000E+00
 -1      2634 1.41942E+02 4.09948E+01 0.00000E+00
 -1      2635 1.41414E+02 4.35342E+01 0.00000E+00
 -1      2636 1.28967E+02 2.97577E+01 0.00000E+00
 -1      2637 1.27615E+02 3.18356E+01 0.00000E+00
 -1      2638 1.29865E+02 2.50930E+01 0.00000E+00
 -1      2639 1.30498E+02 2.57787E+01 0.00000E+00
 -1      2640 1.30424E+02 2.42974E+01 0.00000E+00
 -1      2641 7.70475E+00 8.23231E+00 0.00000E+00
 -1      2642 1.14068E+02 1.48334E+01 0.00000E+00
 -1      2643 1.25955E+02 3.36035E+01 0.00000E+00
 -1      2644 1.23890E+02 3.49361E+01 0.00000E+00
 -1      2645 1.16266E+02 1.43302E+01 0.00000E+00
 -1      2646 1.11752E+02 1.61866E+01 0.00000E+00
 -1      2647 1.11923E+02 1.51730E+01 0.00000E+00
 -1      2648 1.10774E+02 1.60982E+01 0.00000E+00
 -1      2649 1.21601E+02 3.57072E+01 0.00000E+00
 -1      2650 1.19380E+02 3.60913E+01 0.00000E+00
 -1      2651 1.14369E+02 3.54831E+01 0.00000E+00
 -1      2652 1.07883E+02 2.16529E+01 0.00000E+00
 -1      2653 1.07884E+02 2.85113E+01 0.00000E+00
 -1      2654 1.06961E+02 2.79442E+01 0.00000E+00
 -1      2655 1.07473E+02 2.94602E+01 0.00000E+00
 -1      2656 6.55950E+00 3.99453E+01 0.00000E+00
 -1      2657 1.18349E+02 1.42032E+01 0.00000E+00
 -1      2658 1.22861E+02 1.47231E+01 0.00000E+00
 -1      2659 1.09065E+02 3.09521E+01 0.00000E+00
 -1      2660 1.10695E+02 3.28019E+01 0.00000E+00
 -1      2661 1.16825E+02 3.61653E+01 0.00000E+00
 -1      2662 1.16027E+02 3.67702E+01 0.00000E+00
 -1      2663 1.17459E+02 3.68865E+01 0.00000E+00
 -1      2664 1.42120E+02 8.46463E+00 0.00000E+00
 -1      2665 1.40664E+02 4.22352E+01 0.00000E+00
 -1      2666 9.09300E+00 1.98250E+01 0.00000E+00
 -1      2667 9.09300E+00 2.12750E+01 0.00000E+00
 -1      2668 9.09300E+00 2.27500E+01 0.00000E+00
 -1      2669 9.09300E+00 2.42250E+01 0.00000E+00
 -1      2670 1.03920E+01 2.20250E+01 0.00000E+00
 -1      2671 9.09300E+00 1.39375E+01 0.00000E+00
 -1      2672 9.09300E+00 1.54125E+01 0.00000E+00
 -1      2673 9.09300E+00 1.09875E+01 0.00000E+00
 -1      2674 9.09300E+00 1.24625E+01 0.00000E+00
 -1      2675 1.03920E+01 1.32000E+01 0.00000E+00
 -1      2676 1.22850E+01 7.90325E+00 0.00000E+00
 -1      2677 1.07850E+01 7.90325E+00 0.00000E+00
 -1      2678 1.13189E+02 1.42423E+01 0.00000E+00
 -1      2679 1.14356E+02 1.38143E+01 0.00000E+00
 -1      2680 1.24939E+02 1.46089E+01 0.00000E+00
 -1      2681 1.25764E+02 1.51043E+01 0.00000E+00
 -1      2682 1.52850E+01 7.90325E+00 0.00000E+00
 -1      2683 1.37850E+01 7.90325E+00 0.00000E+00
 -1      2684 1.30350E+01 9.20225E+00 0.00000E+00
 -1      2685 1.20028E+02 1.31595E+01 0.00000E+00
 -1      2686 1.21168E+02 1.32229E+01 0.00000E+00
 -1      2687 8.91450E+00 8.42712E+00 0.00000E+00
 -1      2688 1.44000E+01 4.09070E+01 0.00000E+00
 -1      2689 1.59000E+01 4.09070E+01 0.00000E+00
 -1      2690 1.74000E+01 4.09070E+01 0.00000E+00
 -1      2691 1.89000E+01 4.09070E+01 0.00000E+00
 -1      2692 1.66500E+01 3.96080E+01 0.00000E+00
 -1      2693 2.04000E+01 4.09070E+01 0.00000E+00
 -1      2694 2.19000E+01 4.09070E+01 0.00000E+00
 -1      2695 1.96500E+01 3.96080E+01 0.00000E+00
 -1      2696 2.34000E+01 4.09070E+01 0.00000E+00
 -1      2697 2.49000E+01 4.09070E+01 0.00000E+00
 -1      2698 2.26500E+01 3.96080E+01 0.00000E+00
 -1      2699 2.64000E+01 4.09070E+01 0.00000E+00
 -1      2700 2.79000E+01 4.09070E+01 0.00000E+00
 -1      2701 2.56500E+01 3.96080E+01 0.00000E+00
 -1      2702 2.94000E+01 4.09070E+01 0.00000E+00
 -1      2703 3.09000E+01 4.09070E+01 0.00000E+00
 -1      2704 2.86500E+01 3.96080E+01 0.00000E+00
 -1      2705 3.24000E+01 4.09070E+01 0.00000E+00
 -1      2706 3.39000E+01 4.09070E+01 0.00000E+00
 -1      2707 3.16500E+01 3.96080E+01 0.00000E+00
 -1      2708 3.54000E+01 4.09070E+01 0.00000E+00
 -1      2709 3.69000E+01 4.09070E+01 0.00000E+00
 -1      2710 3.46500E+01 3.96080E+01 0.00000E+00
 -1      2711 3.84000E+01 4.09070E+01 0.00000E+00
 -1      2712 3.99000E+01 4.09070E+01 0.00000E+00
 -1      2713 3.76500E+01 3.96080E+01 0.00000E+00
 -1      2714 4.14000E+01 4.09070E+01 0.00000E+00
 -1      2715 4.29000E+01 4.09070E+01 0.00000E+00
 -1      2716 4.06500E+01 3.96080E+01 0.00000E+00
 -1      2717 4.44000E+01 4.09070E+01 0.00000E+00
 -1      2718 4.59000E+01 4.09070E+01 0.00000E+00
 -1      2719 4.36500E+01 3.96080E+01 0.00000E+00
 -1      2720 4.74000E+01 4.09070E+01 0.00000E+00
 -1      2721 4.89000E+01 4.09070E+01 0.00000E+00
 -1      2722 4.66500E+01 3.96080E+01 0.00000E+00
 -1      2723 5.04000E+01 4.09070E+01 0.00000E+00
 -1      2724 5.19000E+01 4.09070E+01 0.00000E+00
 -1      2725 4.96500E+01 3.96080E+01 0.00000E+00
 -1      2726 5.34000E+01 4.09070E+01 0.00000E+00
 -1      2727 5.49000E+01 4.09070E+01 0.00000E+00
 -1      2728 5.26500E+01 3.96080E+01 0.00000E+00
 -1      2729 5.64000E+01 4.09070E+01 0.00000E+00
 -1      2730 5.79000E+01 4.09070E+01 0.00000E+00
 -1      2731 5.56500E+01 3.96080E+01 0.00000E+00
 -1      2732 5.94000E+01 4.09070E+01 0.00000E+00
 -1      2733 6.09000E+01 4.09070E+01 0.00000E+00
 -1      2734 5.86500E+01 3.96080E+01 0.00000E+00
 -1      2735 6.24000E+01 4.09070E+01 0.00000E+00
 -1      2736 6.39000E+01 4.09070E+01 0.00000E+00
 -1      2737 6.16500E+01 3.96080E+01 0.00000E+00
 -1      2738 6.54000E+01 4.09070E+01 0.00000E+00
 -1      2739 6.69000E+01 4.09070E+01 0.00000E+00
 -1      2740 6.46500E+01 3.96080E+01 0.00000E+00
 -1      2741 6.84000E+01 4.09070E+01 0.00000E+00
 -1      2742 6.99000E+01 4.09070E+01 0.00000E+00
 -1      2743 6.76500E+01 3.96080E+01 0.00000E+00
 -1      2744 7.14000E+01 4.09070E+01 0.00000E+00
 -1      2745 7.29000E+01 4.09070E+01 0.00000E+00
 -1      2746 7.06500E+01 3.96080E+01 0.00000E+00
 -1      2747 7.44000E+01 4.09070E+01 0.00000E+00
 -1      2748 7.59000E+01 4.09070E+01 0.00000E+00
 -1      2749 7.36500E+01 3.96080E+01 0.00000E+00
 -1      2750 7.74000E+01 4.09070E+01 0.00000E+00
 -1      2751 7.89000E+01 4.09070E+01 0.00000E+00
 -1      2752 7.66500E+01 3.96080E+01 0.00000E+00
 -1      2753 8.04000E+01 4.09070E+01 0.00000E+00
 -1      2754 8.19000E+01 4.09070E+01 0.00000E+00
 -1      2755 7.96500E+01 3.96080E+01 0.00000E+00
 -1      2756 8.34000E+01 4.09070E+01 0.00000E+00
 -1      2757 8.49000E+01 4.09070E+01 0.00000E+00
 -1      2758 8.26500E+01 3.96080E+01 0.00000E+00
 -1      2759 8.64000E+01 4.09070E+01 0.00000E+00
 -1      2760 8.79000E+01 4.09070E+01 0.00000E+00
 -1      2761 8.56500E+01 3.96080E+01 0.00000E+00
 -1      2762 8.94000E+01 4.09070E+01 0.00000E+00
 -1      2763 9.09000E+01 4.09070E+01 0.00000E+00
 -1      2764 8.86500E+01 3.96080E+01 0.00000E+00
 -1      2765 9.24000E+01 4.09070E+01 0.00000E+00
 -1      2766 9.39000E+01 4.09070E+01 0.00000E+00
 -1      2767 9.16500E+01 3.96080E+01 0.00000E+00
 -1      2768 9.54000E+01 4.09070E+01 0.00000E+00
 -1      2769 9.69000E+01 4.09070E+01 0.00000E+00
 -1      2770 9.46500E+01 3.96080E+01 0.00000E+00
 -1      2771 9.84000E+01 4.09070E+01 0.00000E+00
 -1      2772 9.99000E+01 4.09070E+01 0.00000E+00
 -1      2773 9.76500E+01 3.96080E+01 0.00000E+00
 -1      2774 1.01400E+02 4.09070E+01 0.00000E+00
 -1      2775 1.02900E+02 4.09070E+01 0.00000E+00
 -1      2776 1.00650E+02 3.96080E+01 0.00000E+00
 -1      2777 1.04400E+02 4.09070E+01 0.00000E+00
 -1      2778 1.05900E+02 4.09070E+01 0.00000E+00
 -1      2779 1.03650E+02 3.96080E+01 0.00000E+00
 -1      2780 1.07400E+02 4.09070E+01 0.00000E+00
 -1      2781 1.08900E+02 4.09070E+01 0.00000E+00
 -1      2782 1.06650E+02 3.96080E+01 0.00000E+00
 -1      2783 1.10400E+02 4.09070E+01 0.00000E+00
 -1      2784 1.11900E+02 4.09070E+01 0.00000E+00
 -1      2785 1.09650E+02 3.96080E+01 0.00000E+00
 -1      2786 1.13400E+02 4.09070E+01 0.00000E+00
 -1      2787 1.14900E+02 4.09070E+01 0.00000E+00
 -1      2788 1.12650E+02 3.96080E+01 0.00000E+00
 -1      2789 1.16155E+02 3.98487E+01 0.00000E+00
 -1      2790 1.17655E+02 3.98487E+01 0.00000E+00
 -1      2791 1.22400E+02 4.10133E+01 0.00000E+00
 -1      2792 1.23900E+02 4.10133E+01 0.00000E+00
 -1      2793 1.25400E+02 4.10133E+01 0.00000E+00
 -1      2794 1.26900E+02 4.10133E+01 0.00000E+00
 -1      2795 1.24650E+02 3.98206E+01 0.00000E+00
 -1      2796 1.28400E+02 4.10133E+01 0.00000E+00
 -1      2797 1.29900E+02 4.10133E+01 0.00000E+00
 -1      2798 1.27650E+02 3.98206E+01 0.00000E+00
 -1      2799 1.31400E+02 4.10133E+01 0.00000E+00
 -1      2800 1.32900E+02 4.10133E+01 0.00000E+00
 -1      2801 1.30650E+02 3.98206E+01 0.00000E+00
 -1      2802 1.34400E+02 4.10133E+01 0.00000E+00
 -1      2803 1.35900E+02 4.10133E+01 0.00000E+00
 -1      2804 1.33650E+02 3.98206E+01 0.00000E+00
 -1      2805 1.37400E+02 4.10133E+01 0.00000E+00
 -1      2806 1.38900E+02 4.10133E+01 0.00000E+00
 -1      2807 1.36650E+02 3.98206E+01 0.00000E+00
 -1      2808 1.30008E+02 2.96280E+01 0.00000E+00
 -1      2809 1.29441E+02 3.06932E+01 0.00000E+00
 -1      2810 1.30005E+02 2.19331E+01 0.00000E+00
 -1      2811 1.30347E+02 2.28762E+01 0.00000E+00
 -1      2812 2.12850E+01 7.90325E+00 0.00000E+00
 -1      2813 1.97850E+01 7.90325E+00 0.00000E+00
 -1      2814 3.02850E+01 7.90325E+00 0.00000E+00
 -1      2815 2.87850E+01 7.90325E+00 0.00000E+00
 -1      2816 3.32850E+01 7.90325E+00 0.00000E+00
 -1      2817 3.17850E+01 7.90325E+00 0.00000E+00
 -1      2818 3.10350E+01 9.20225E+00 0.00000E+00
 -1      2819 3.62850E+01 7.90325E+00 0.00000E+00
 -1      2820 3.47850E+01 7.90325E+00 0.00000E+00
 -1      2821 3.40350E+01 9.20225E+00 0.00000E+00
 -1      2822 3.92850E+01 7.90325E+00 0.00000E+00
 -1      2823 3.77850E+01 7.90325E+00 0.00000E+00
 -1      2824 3.70350E+01 9.20225E+00 0.00000E+00
 -1      2825 4.22850E+01 7.90325E+00 0.00000E+00
 -1      2826 4.07850E+01 7.90325E+00 0.00000E+00
 -1      2827 4.00350E+01 9.20225E+00 0.00000E+00
 -1      2828 4.52850E+01 7.90325E+00 0.00000E+00
 -1      2829 4.37850E+01 7.90325E+00 0.00000E+00
 -1      2830 4.30350E+01 9.20225E+00 0.00000E+00
 -1      2831 4.82850E+01 7.90325E+00 0.00000E+00
 -1      2832 4.67850E+01 7.90325E+00 0.00000E+00
 -1      2833 4.60350E+01 9.20225E+00 0.00000E+00
 -1      2834 5.12850E+01 7.90325E+00 0.00000E+00
 -1      2835 4.97850E+01 7.90325E+00 0.00000E+00
 -1      2836 4.90350E+01 9.20225E+00 0.00000E+00
 -1      2837 5.42850E+01 7.90325E+00 0.00000E+00
 -1      2838 5.27850E+01 7.90325E+00 0.00000E+00
 -1      2839 5.20350E+01 9.20225E+00 0.00000E+00
 -1      2840 5.72850E+01 7.90325E+00 0.00000E+00
 -1      2841 5.57850E+01 7.90325E+00 0.00000E+00
 -1      2842 5.50350E+01 9.20225E+00 0.00000E+00
 -1      2843 6.02850E+01 7.90325E+00 0.00000E+00
 -1      2844 5.87850E+01 7.90325E+00 0.00000E+00
 -1      2845 5.80350E+01 9.20225E+00 0.00000E+00
 -1      2846 6.32850E+01 7.90325E+00 0.00000E+00
 -1      2847 6.17850E+01 7.90325E+00 0.00000E+00
 -1      2848 6.10350E+01 9.20225E+00 0.00000E+00
 -1      2849 6.62850E+01 7.90325E+00 0.00000E+00
 -1      2850 6.47850E+01 7.90325E+00 0.00000E+00
 -1      2851 6.40350E+01 9.20225E+00 0.00000E+00
 -1      2852 6.92850E+01 7.90325E+00 0.00000E+00
 -1      2853 6.77850E+01 7.90325E+00 0.00000E+00
 -1      2854 6.70350E+01 9.20225E+00 0.00000E+00
 -1      2855 7.22850E+01 7.90325E+00 0.00000E+00
 -1      2856 7.07850E+01 7.90325E+00 0.00000E+00
 -1      2857 7.00350E+01 9.20225E+00 0.00000E+00
 -1      2858 7.52850E+01 7.90325E+00 0.00000E+00
 -1      2859 7.37850E+01 7.90325E+00 0.00000E+00
 -1      2860 7.30350E+01 9.20225E+00 0.00000E+00
 -1      2861 7.82850E+01 7.90325E+00 0.00000E+00
 -1      2862 7.67850E+01 7.90325E+00 0.00000E+00
 -1      2863 7.60350E+01 9.20225E+00 0.00000E+00
 -1      2864 8.12850E+01 7.90325E+00 0.00000E+00
 -1      2865 7.97850E+01 7.90325E+00 0.00000E+00
 -1      2866 7.90350E+01 9.20225E+00 0.00000E+00
 -1      2867 8.42850E+01 7.90325E+00 0.00000E+00
 -1      2868 8.27850E+01 7.90325E+00 0.00000E+00
 -1      2869 8.20350E+01 9.20225E+00 0.00000E+00
 -1      2870 8.72850E+01 7.90325E+00 0.00000E+00
 -1      2871 8.57850E+01 7.90325E+00 0.00000E+00
 -1      2872 8.50350E+01 9.20225E+00 0.00000E+00
 -1      2873 9.02850E+01 7.90325E+00 0.00000E+00
 -1      2874 8.87850E+01 7.90325E+00 0.00000E+00
 -1      2875 8.80350E+01 9.20225E+00 0.00000E+00
 -1      2876 9.32850E+01 7.90325E+00 0.00000E+00
 -1      2877 9.17850E+01 7.90325E+00 0.00000E+00
 -1      2878 9.10350E+01 9.20225E+00 0.00000E+00
 -1      2879 9.62850E+01 7.90325E+00 0.00000E+00
 -1      2880 9.47850E+01 7.90325E+00 0.00000E+00
 -1      2881 9.40350E+01 9.20225E+00 0.00000E+00
 -1      2882 9.92850E+01 7.90325E+00 0.00000E+00
 -1      2883 9.77850E+01 7.90325E+00 0.00000E+00
 -1      2884 9.70350E+01 9.20225E+00 0.00000E+00
 -1      2885 1.02285E+02 7.90325E+00 0.00000E+00
 -1      2886 1.00785E+02 7.90325E+00 0.00000E+00
 -1      2887 1.00035E+02 9.20225E+00 0.00000E+00
 -1      2888 1.05285E+02 7.90325E+00 0.00000E+00
 -1      2889 1.03785E+02 7.90325E+00 0.00000E+00
 -1      2890 1.03035E+02 9.20225E+00 0.00000E+00
 -1      2891 1.08285E+02 7.90325E+00 0.00000E+00
 -1      2892 1.06785E+02 7.90325E+00 0.00000E+00
 -1      2893 1.06035E+02 9.20225E+00 0.00000E+00
 -1      2894 1.11285E+02 7.90325E+00 0.00000E+00
 -1      2895 1.09785E+02 7.90325E+00 0.00000E+00
 -1      2896 1.09035E+02 9.20225E+00 0.00000E+00
 -1      2897 1.14285E+02 7.90325E+00 0.00000E+00
 -1      2898 1.12785E+02 7.90325E+00 0.00000E+00
 -1      2899 1.12035E+02 9.20225E+00 0.00000E+00
 -1      2900 1.17285E+02 7.90325E+00 0.00000E+00
 -1      2901 1.15785E+02 7.90325E+00 0.00000E+00
 -1      2902 1.15035E+02 9.20225E+00 0.00000E+00
 -1      2903 1.20285E+02 7.90325E+00 0.00000E+00
 -1      2904 1.18785E+02 7.90325E+00 0.00000E+00
 -1      2905 1.18035E+02 9.20225E+00 0.00000E+00
 -1      2906 1.23285E+02 7.90325E+00 0.00000E+00
 -1      2907 1.21785E+02 7.90325E+00 0.00000E+00
 -1      2908 1.21035E+02 9.20225E+00 0.00000E+00
 -1      2909 1.26285E+02 7.90325E+00 0.00000E+00
 -1      2910 1.24785E+02 7.90325E+00 0.00000E+00
 -1      2911 1.24035E+02 9.20225E+00 0.00000E+00
 -1      2912 1.29285E+02 7.90325E+00 0.00000E+00
 -1      2913 1.27785E+02 7.90325E+00 0.00000E+00
 -1      2914 1.27035E+02 9.20225E+00 0.00000E+00
 -1      2915 1.32285E+02 7.90325E+00 0.00000E+00
 -1      2916 1.30785E+02 7.90325E+00 0.00000E+00
 -1      2917 1.30035E+02 9.20225E+00 0.00000E+00
 -1      2918 1.35285E+02 7.90325E+00 0.00000E+00
 -1      2919 1.33785E+02 7.90325E+00 0.00000E+00
 -1      2920 1.33035E+02 9.20225E+00 0.00000E+00
 -1      2921 1.38285E+02 7.90325E+00 0.00000E+00
 -1      2922 1.36785E+02 7.90325E+00 0.00000E+00
 -1      2923 1.36035E+02 9.20225E+00 0.00000E+00
 -1      2924 1.40953E+02 8.18394E+00 0.00000E+00
 -1      2925 1.39453E+02 8.18394E+00 0.00000E+00
 -1      2926 1.38703E+02 9.48294E+00 0.00000E+00
 -1      2927 1.41038E+02 1.00443E+01 0.00000E+00
 -1      2928 1.40907E+02 2.42875E+01 0.00000E+00
 -1      2929 1.40907E+02 2.28125E+01 0.00000E+00
 -1      2930 1.39914E+02 4.09894E+01 0.00000E+00
 -1      2931 1.40928E+02 4.10187E+01 0.00000E+00
 -1      2932 1.41192E+02 3.97489E+01 0.00000E+00
 -1      2933 1.39164E+02 3.97967E+01 0.00000E+00
 -1      2934 1.40907E+02 1.83875E+01 0.00000E+00
 -1      2935 1.40907E+02 1.69125E+01 0.00000E+00
 -1      2936 1.40907E+02 2.72375E+01 0.00000E+00
 -1      2937 1.40907E+02 2.57625E+01 0.00000E+00
 -1      2938 1.39608E+02 2.50250E+01 0.00000E+00
 -1      2939 1.40907E+02 2.13375E+01 0.00000E+00
 -1      2940 1.40907E+02 1.98625E+01 0.00000E+00
 -1      2941 1.39608E+02 1.91250E+01 0.00000E+00
 -1      2942 1.39608E+02 2.20750E+01 0.00000E+00
 -1      2943 1.29257E+02 1.99990E+01 0.00000E+00
 -1      2944 1.29631E+02 2.09661E+01 0.00000E+00
 -1      2945 1.30530E+02 2.11737E+01 0.00000E+00
 -1      2946 1.40907E+02 3.01375E+01 0.00000E+00
 -1      2947 1.40907E+02 2.86875E+01 0.00000E+00
 -1      2948 1.39608E+02 2.79500E+01 0.00000E+00
 -1      2949 1.40907E+02 3.30875E+01 0.00000E+00
 -1      2950 1.40907E+02 3.16125E+01 0.00000E+00
 -1      2951 1.39608E+02 3.08750E+01 0.00000E+00
 -1      2952 1.40907E+02 3.60375E+01 0.00000E+00
 -1      2953 1.40907E+02 3.45625E+01 0.00000E+00
 -1      2954 1.39608E+02 3.38250E+01 0.00000E+00
 -1      2955 1.41049E+02 3.86307E+01 0.00000E+00
 -1      2956 1.41049E+02 3.71557E+01 0.00000E+00
 -1      2957 1.39751E+02 3.64182E+01 0.00000E+00
 -1      2958 1.40036E+02 3.86546E+01 0.00000E+00
 -1      2959 1.82850E+01 7.90325E+00 0.00000E+00
 -1      2960 1.67850E+01 7.90325E+00 0.00000E+00
 -1      2961 1.60350E+01 9.20225E+00 0.00000E+00
 -1      2962 1.90350E+01 9.20225E+00 0.00000E+00
 -1      2963 1.28685E+02 3.18548E+01 0.00000E+00
 -1      2964 1.27900E+02 3.28675E+01 0.00000E+00
 -1      2965 8.85168E+00 4.05347E+01 0.00000E+00
 -1      2966 1.02152E+01 4.07987E+01 0.00000E+00
 -1      2967 1.06870E+02 2.19086E+01 0.00000E+00
 -1      2968 1.07412E+02 2.07199E+01 0.00000E+00
 -1      2969 1.26953E+02 3.38749E+01 0.00000E+00
 -1      2970 1.26079E+02 3.46301E+01 0.00000E+00
 -1      2971 2.72850E+01 7.90325E+00 0.00000E+00
 -1      2972 2.57850E+01 7.90325E+00 0.00000E+00
 -1      2973 2.80350E+01 9.20225E+00 0.00000E+00
 -1      2974 2.42850E+01 7.90325E+00 0.00000E+00
 -1      2975 2.27850E+01 7.90325E+00 0.00000E+00
 -1      2976 2.50350E+01 9.20225E+00 0.00000E+00
 -1      2977 1.15576E+01 4.08528E+01 0.00000E+00
 -1      2978 1.30576E+01 4.08528E+01 0.00000E+00
 -1      2979 1.38076E+01 3.95538E+01 0.00000E+00
 -1      2980 1.11228E+01 3.94455E+01 0.00000E+00
 -1      2981 1.07997E+02 1.95206E+01 0.00000E+00
 -1      2982 1.08605E+02 1.85291E+01 0.00000E+00
 -1      2983 1.28435E+02 1.80165E+01 0.00000E+00
 -1      2984 1.28959E+02 1.88295E+01 0.00000E+00
 -1      2985 1.17783E+02 1.34144E+01 0.00000E+00
 -1      2986 1.18835E+02 1.33626E+01 0.00000E+00
 -1      2987 9.09300E+00 1.68813E+01 0.00000E+00
 -1      2988 9.09300E+00 1.83563E+01 0.00000E+00
 -1      2989 1.03920E+01 1.90812E+01 0.00000E+00
 -1      2990 1.03920E+01 1.61437E+01 0.00000E+00
 -1      2991 9.09300E+00 3.15875E+01 0.00000E+00
 -1      2992 9.09300E+00 3.30625E+01 0.00000E+00
 -1      2993 1.22292E+02 3.64136E+01 0.00000E+00
 -1      2994 1.21193E+02 3.66074E+01 0.00000E+00
 -1      2995 1.08703E+02 3.19165E+01 0.00000E+00
 -1      2996 1.08035E+02 3.09917E+01 0.00000E+00
 -1      2997 7.48818E+00 3.88019E+01 0.00000E+00
 -1      2998 1.22633E+02 1.35413E+01 0.00000E+00
 -1      2999 1.23813E+02 1.39863E+01 0.00000E+00
 -1      3000 1.09086E+02 1.78444E+01 0.00000E+00
 -1      3001 1.09568E+02 1.71597E+01 0.00000E+00
 -1      3002 1.08051E+02 1.78923E+01 0.00000E+00
 -1      3003 1.30598E+02 2.72491E+01 0.00000E+00
 -1      3004 1.30396E+02 2.83082E+01 0.00000E+00
 -1      3005 1.10583E+02 3.38829E+01 0.00000E+00
 -1      3006 1.09620E+02 3.29579E+01 0.00000E+00
 -1      3007 1.12430E+02 3.53204E+01 0.00000E+00
 -1      3008 1.11586E+02 3.47252E+01 0.00000E+00
 -1      3009 1.14385E+02 3.66632E+01 0.00000E+00
 -1      3010 1.13362E+02 3.60973E+01 0.00000E+00
 -1      3011 1.20071E+02 3.67977E+01 0.00000E+00
 -1      3012 1.18948E+02 3.69879E+01 0.00000E+00
 -1      3013 1.20762E+02 3.75040E+01 0.00000E+00
 -1      3014 1.15721E+02 1.35648E+01 0.00000E+00
 -1      3015 1.16752E+02 1.34896E+01 0.00000E+00
 -1      3016 1.17238E+02 1.26490E+01 0.00000E+00
 -1      3017 1.24860E+02 3.54191E+01 0.00000E+00
 -1      3018 1.23669E+02 3.59964E+01 0.00000E+00
 -1      3019 1.26815E+02 1.60101E+01 0.00000E+00
 -1      3020 1.27625E+02 1.70133E+01 0.00000E+00
 -1      3021 1.28748E+02 1.68644E+01 0.00000E+00
 -1      3022 9.09300E+00 3.45313E+01 0.00000E+00
 -1      3023 9.09300E+00 3.60000E+01 0.00000E+00
 -1      3024 1.03920E+01 3.37938E+01 0.00000E+00
 -1      3025 1.03920E+01 2.49750E+01 0.00000E+00
 -1      3026 9.09300E+00 2.57000E+01 0.00000E+00
 -1      3027 9.09300E+00 2.71750E+01 0.00000E+00
 -1      3028 1.22120E+02 1.24861E+01 0.00000E+00
 -1      3029 1.14842E+02 1.29737E+01 0.00000E+00
 -1      3030 1.26887E+02 1.49554E+01 0.00000E+00
 -1      3031 1.19462E+02 1.23707E+01 0.00000E+00
 -1      3032 9.66450E+00 9.72612E+00 0.00000E+00
 -1      3033 1.06984E+02 1.97763E+01 0.00000E+00
 -1      3034 1.29726E+02 3.17251E+01 0.00000E+00
 -1      3035 1.19400E+02 4.09070E+01 0.00000E+00
 -1      3036 1.20900E+02 4.09070E+01 0.00000E+00
 -1      3037 1.39608E+02 1.61875E+01 0.00000E+00
 -1      3038 1.40907E+02 1.54500E+01 0.00000E+00
 -1      3039 1.40907E+02 1.39875E+01 0.00000E+00
 -1      3040 1.30869E+02 2.92437E+01 0.00000E+00
 -1      3041 1.31536E+02 2.28265E+01 0.00000E+00
 -1      3042 1.30980E+02 2.35620E+01 0.00000E+00
 -1      3043 1.31612E+02 2.42477E+01 0.00000E+00
 -1      3044 1.28023E+02 3.38941E+01 0.00000E+00
 -1      3045 2.20350E+01 9.20225E+00 0.00000E+00
 -1      3046 1.40973E+02 1.27472E+01 0.00000E+00
 -1      3047 1.40973E+02 1.12847E+01 0.00000E+00
 -1      3048 1.39805E+02 1.10040E+01 0.00000E+00
 -1      3049 1.39674E+02 1.34847E+01 0.00000E+00
 -1      3050 1.06339E+02 2.27615E+01 0.00000E+00
 -1      3051 1.05869E+02 2.18285E+01 0.00000E+00
 -1      3052 1.12445E+02 3.65005E+01 0.00000E+00
 -1      3053 1.10510E+02 3.48812E+01 0.00000E+00
 -1      3054 1.24710E+02 1.34271E+01 0.00000E+00
 -1      3055 1.08591E+02 3.29975E+01 0.00000E+00
 -1      3056 1.23261E+02 3.68966E+01 0.00000E+00
 -1      3057 1.09739E+02 1.61461E+01 0.00000E+00
 -1      3058 1.09910E+02 1.51325E+01 0.00000E+00
 -1      3059 1.08704E+02 1.61940E+01 0.00000E+00
 -1      3060 1.25857E+02 3.56904E+01 0.00000E+00
 -1      3061 1.06426E+02 2.64831E+01 0.00000E+00
 -1      3062 1.06418E+02 2.54446E+01 0.00000E+00
 -1      3063 1.07112E+02 3.04246E+01 0.00000E+00
 -1      3064 1.06188E+02 2.98576E+01 0.00000E+00
 -1      3065 1.06750E+02 3.13890E+01 0.00000E+00
 -1      3066 1.21650E+02 3.97143E+01 0.00000E+00
 -1      3067 8.78718E+00 3.80644E+01 0.00000E+00
 -1      3068 9.09300E+00 2.86437E+01 0.00000E+00
 -1      3069 9.09300E+00 3.01187E+01 0.00000E+00
 -1      3070 1.03920E+01 3.08563E+01 0.00000E+00
 -1      3071 1.03920E+01 2.79188E+01 0.00000E+00
 -1      3072 1.29857E+02 1.90371E+01 0.00000E+00
 -1      3073 1.09635E+01 1.04636E+01 0.00000E+00
 -1      3074 1.11233E+02 1.40655E+01 0.00000E+00
 -1      3075 1.12211E+02 1.41539E+01 0.00000E+00
 -1      3076 1.12499E+02 1.31348E+01 0.00000E+00
 -1      3077 1.31156E+02 2.64536E+01 0.00000E+00
 -1      3078 1.31815E+02 2.71284E+01 0.00000E+00
 -1      3079 1.31715E+02 2.56580E+01 0.00000E+00
 -1      3080 1.05605E+02 2.83810E+01 0.00000E+00
 -1      3081 1.06015E+02 2.74320E+01 0.00000E+00
 -1      3082 1.05070E+02 2.69198E+01 0.00000E+00
 -1      3083 1.06383E+02 2.46223E+01 0.00000E+00
 -1      3084 1.06375E+02 2.35838E+01 0.00000E+00
 -1      3085 1.05374E+02 2.35038E+01 0.00000E+00
 -1      3086 1.05445E+02 2.51485E+01 0.00000E+00
 -1      3087 1.18150E+02 3.75929E+01 0.00000E+00
 -1      3088 1.05846E+02 1.99630E+01 0.00000E+00
 -1      3089 1.06431E+02 1.87637E+01 0.00000E+00
 -1      3090 1.16910E+01 1.24625E+01 0.00000E+00
 -1      3091 1.16910E+01 1.39375E+01 0.00000E+00
 -1      3092 1.30782E+02 1.81778E+01 0.00000E+00
 -1      3093 1.31081E+02 1.93474E+01 0.00000E+00
 -1      3094 1.15405E+02 3.85497E+01 0.00000E+00
 -1      3095 1.89000E+01 3.83090E+01 0.00000E+00
 -1      3096 2.04000E+01 3.83090E+01 0.00000E+00
 -1      3097 2.19000E+01 3.83090E+01 0.00000E+00
 -1      3098 2.34000E+01 3.83090E+01 0.00000E+00
 -1      3099 2.11500E+01 3.70100E+01 0.00000E+00
 -1      3100 2.49000E+01 3.83090E+01 0.00000E+00
 -1      3101 2.64000E+01 3.83090E+01 0.00000E+00
 -1      3102 2.41500E+01 3.70100E+01 0.00000E+00
 -1      3103 2.79000E+01 3.83090E+01 0.00000E+00
 -1      3104 2.94000E+01 3.83090E+01 0.00000E+00
 -1      3105 2.71500E+01 3.70100E+01 0.00000E+00
 -1      3106 3.09000E+01 3.83090E+01 0.00000E+00
 -1      3107 3.24000E+01 3.83090E+01 0.00000E+00
 -1      3108 3.01500E+01 3.70100E+01 0.00000E+00
 -1      3109 3.39000E+01 3.83090E+01 0.00000E+00
 -1      3110 3.54000E+01 3.83090E+01 0.00000E+00
 -1      3111 3.31500E+01 3.70100E+01 0.00000E+00
 -1      3112 3.69000E+01 3.83090E+01 0.00000E+00
 -1      3113 3.84000E+01 3.83090E+01 0.00000E+00
 -1      3114 3.61500E+01 3.70100E+01 0.00000E+00
 -1      3115 3.99000E+01 3.83090E+01 0.00000E+00
 -1      3116 4.14000E+01 3.83090E+01 0.00000E+00
 -1      3117 3.91500E+01 3.70100E+01 0.00000E+00
 -1      3118 4.29000E+01 3.83090E+01 0.00000E+00
 -1      3119 4.44000E+01 3.83090E+01 0.00000E+00
 -1      3120 4.21500E+01 3.70100E+01 0.00000E+00
 -1      3121 4.59000E+01 3.83090E+01 0.00000E+00
 -1      3122 4.74000E+01 3.83090E+01 0.00000E+00
 -1      3123 4.51500E+01 3.70100E+01 0.00000E+00
 -1      3124 4.89000E+01 3.83090E+01 0.00000E+00
 -1      3125 5.04000E+01 3.83090E+01 0.00000E+00
 -1      3126 4.81500E+01 3.70100E+01 0.00000E+00
 -1      3127 5.19000E+01 3.83090E+01 0.00000E+00
 -1      3128 5.34000E+01 3.83090E+01 0.00000E+00
 -1      3129 5.11500E+01 3.70100E+01 0.00000E+00
 -1      3130 5.49000E+01 3.83090E+01 0.00000E+00
 -1      3131 5.64000E+01 3.83090E+01 0.00000E+00
 -1      3132 5.41500E+01 3.70100E+01 0.00000E+00
 -1      3133 5.79000E+01 3.83090E+01 0.00000E+00
 -1      3134 5.94000E+01 3.83090E+01 0.00000E+00
 -1      3135 5.71500E+01 3.70100E+01 0.00000E+00
 -1      3136 6.09000E+01 3.83090E+01 0.00000E+00
 -1      3137 6.24000E+01 3.83090E+01 0.00000E+00
 -1      3138 6.01500E+01 3.70100E+01 0.00000E+00
 -1      3139 6.39000E+01 3.83090E+01 0.00000E+00
 -1      3140 6.54000E+01 3.83090E+01 0.00000E+00
 -1      3141 6.31500E+01 3.70100E+01 0.00000E+00
 -1      3142 6.69000E+01 3.83090E+01 0.00000E+00
 -1      3143 6.84000E+01 3.83090E+01 0.00000E+00
 -1      3144 6.61500E+01 3.70100E+01 0.00000E+00
 -1      3145 6.99000E+01 3.83090E+01 0.00000E+00
 -1      3146 7.14000E+01 3.83090E+01 0.00000E+00
 -1      3147 6.91500E+01 3.70100E+01 0.00000E+00
 -1      3148 7.29000E+01 3.83090E+01 0.00000E+00
 -1      3149 7.44000E+01 3.83090E+01 0.00000E+00
 -1      3150 7.21500E+01 3.70100E+01 0.00000E+00
 -1      3151 7.59000E+01 3.83090E+01 0.00000E+00
 -1      3152 7.74000E+01 3.83090E+01 0.00000E+00
 -1      3153 7.51500E+01 3.70100E+01 0.00000E+00
 -1      3154 7.89000E+01 3.83090E+01 0.00000E+00
 -1      3155 8.04000E+01 3.83090E+01 0.00000E+00
 -1      3156 7.81500E+01 3.70100E+01 0.00000E+00
 -1      3157 8.19000E+01 3.83090E+01 0.00000E+00
 -1      3158 8.34000E+01 3.83090E+01 0.00000E+00
 -1      3159 8.11500E+01 3.70100E+01 0.00000E+00
 -1      3160 8.49000E+01 3.83090E+01 0.00000E+00
 -1      3161 8.64000E+01 3.83090E+01 0.00000E+00
 -1      3162 8.41500E+01 3.70100E+01 0.00000E+00
 -1      3163 8.79000E+01 3.83090E+01 0.00000E+00
 -1      3164 8.94000E+01 3.83090E+01 0.00000E+00
 -1      3165 8.71500E+01 3.70100E+01 0.00000E+00
 -1      3166 9.09000E+01 3.83090E+01 0.00000E+00
 -1      3167 9.24000E+01 3.83090E+01 0.00000E+00
 -1      3168 9.01500E+01 3.70100E+01 0.00000E+00
 -1      3169 9.39000E+01 3.83090E+01 0.00000E+00
 -1      3170 9.54000E+01 3.83090E+01 0.00000E+00
 -1      3171 9.31500E+01 3.70100E+01 0.00000E+00
 -1      3172 9.69000E+01 3.83090E+01 0.00000E+00
 -1      3173 9.84000E+01 3.83090E+01 0.00000E+00
 -1      3174 9.61500E+01 3.70100E+01 0.00000E+00
 -1      3175 9.99000E+01 3.83090E+01 0.00000E+00
 -1      3176 1.01400E+02 3.83090E+01 0.00000E+00
 -1      3177 9.91500E+01 3.70100E+01 0.00000E+00
 -1      3178 1.02900E+02 3.83090E+01 0.00000E+00
 -1      3179 1.04400E+02 3.83090E+01 0.00000E+00
 -1      3180 1.02150E+02 3.70100E+01 0.00000E+00
 -1      3181 1.05900E+02 3.83090E+01 0.00000E+00
 -1      3182 1.07400E+02 3.83090E+01 0.00000E+00
 -1      3183 1.05150E+02 3.70100E+01 0.00000E+00
 -1      3184 1.12264E+02 3.84427E+01 0.00000E+00
 -1      3185 1.13764E+02 3.84427E+01 0.00000E+00
 -1      3186 1.15019E+02 3.73844E+01 0.00000E+00
 -1      3187 1.18405E+02 3.85497E+01 0.00000E+00
 -1      3188 1.04785E+02 2.16687E+01 0.00000E+00
 -1      3189 1.05315E+02 2.08159E+01 0.00000E+00
 -1      3190 1.04762E+02 1.98032E+01 0.00000E+00
 -1      3191 1.26900E+02 3.85216E+01 0.00000E+00
 -1      3192 1.28400E+02 3.85216E+01 0.00000E+00
 -1      3193 1.29900E+02 3.85216E+01 0.00000E+00
 -1      3194 1.31400E+02 3.85216E+01 0.00000E+00
 -1      3195 1.29150E+02 3.72226E+01 0.00000E+00
 -1      3196 1.32900E+02 3.85216E+01 0.00000E+00
 -1      3197 1.34400E+02 3.85216E+01 0.00000E+00
 -1      3198 1.32150E+02 3.72226E+01 0.00000E+00
 -1      3199 1.35900E+02 3.85216E+01 0.00000E+00
 -1      3200 1.37400E+02 3.85216E+01 0.00000E+00
 -1      3201 1.35150E+02 3.72226E+01 0.00000E+00
 -1      3202 1.18902E+02 1.08880E+01 0.00000E+00
 -1      3203 1.20095E+02 1.06850E+01 0.00000E+00
 -1      3204 3.17850E+01 1.05013E+01 0.00000E+00
 -1      3205 3.02850E+01 1.05013E+01 0.00000E+00
 -1      3206 4.07850E+01 1.05013E+01 0.00000E+00
 -1      3207 3.92850E+01 1.05013E+01 0.00000E+00
 -1      3208 4.37850E+01 1.05013E+01 0.00000E+00
 -1      3209 4.22850E+01 1.05013E+01 0.00000E+00
 -1      3210 4.15350E+01 1.18003E+01 0.00000E+00
 -1      3211 4.67850E+01 1.05013E+01 0.00000E+00
 -1      3212 4.52850E+01 1.05013E+01 0.00000E+00
 -1      3213 4.45350E+01 1.18003E+01 0.00000E+00
 -1      3214 4.97850E+01 1.05013E+01 0.00000E+00
 -1      3215 4.82850E+01 1.05013E+01 0.00000E+00
 -1      3216 4.75350E+01 1.18003E+01 0.00000E+00
 -1      3217 5.27850E+01 1.05013E+01 0.00000E+00
 -1      3218 5.12850E+01 1.05013E+01 0.00000E+00
 -1      3219 5.05350E+01 1.18003E+01 0.00000E+00
 -1      3220 5.57850E+01 1.05013E+01 0.00000E+00
 -1      3221 5.42850E+01 1.05013E+01 0.00000E+00
 -1      3222 5.35350E+01 1.18003E+01 0.00000E+00
 -1      3223 5.87850E+01 1.05013E+01 0.00000E+00
 -1      3224 5.72850E+01 1.05013E+01 0.00000E+00
 -1      3225 5.65350E+01 1.18003E+01 0.00000E+00
 -1      3226 6.17850E+01 1.05013E+01 0.00000E+00
 -1      3227 6.02850E+01 1.05013E+01 0.00000E+00
 -1      3228 5.95350E+01 1.18003E+01 0.00000E+00
 -1      3229 6.47850E+01 1.05013E+01 0.00000E+00
 -1      3230 6.32850E+01 1.05013E+01 0.00000E+00
 -1      3231 6.25350E+01 1.18003E+01 0.00000E+00
 -1      3232 6.77850E+01 1.05013E+01 0.00000E+00
 -1      3233 6.62850E+01 1.05013E+01 0.00000E+00
 -1      3234 6.55350E+01 1.18003E+01 0.00000E+00
 -1      3235 7.07850E+01 1.05013E+01 0.00000E+00
 -1      3236 6.92850E+01 1.05013E+01 0.00000E+00
 -1      3237 6.85350E+01 1.18003E+01 0.00000E+00
 -1      3238 7.37850E+01 1.05013E+01 0.00000E+00
 -1      3239 7.22850E+01 1.05013E+01 0.00000E+00
 -1      3240 7.15350E+01 1.18003E+01 0.00000E+00
 -1      3241 7.67850E+01 1.05013E+01 0.00000E+00
 -1      3242 7.52850E+01 1.05013E+01 0.00000E+00
 -1      3243 7.45350E+01 1.18003E+01 0.00000E+00
 -1      3244 7.97850E+01 1.05013E+01 0.00000E+00
 -1      3245 7.82850E+01 1.05013E+01 0.00000E+00
 -1      3246 7.75350E+01 1.18003E+01 0.00000E+00
 -1      3247 8.27850E+01 1.05013E+01 0.00000E+00
 -1      3248 8.12850E+01 1.05013E+01 0.00000E+00
 -1      3249 8.05350E+01 1.18003E+01 0.00000E+00
 -1      3250 8.57850E+01 1.05013E+01 0.00000E+00
 -1      3251 8.42850E+01 1.05013E+01 0.00000E+00
 -1      3252 8.35350E+01 1.18003E+01 0.00000E+00
 -1      3253 8.87850E+01 1.05013E+01 0.00000E+00
 -1      3254 8.72850E+01 1.05013E+01 0.00000E+00
 -1      3255 8.65350E+01 1.18003E+01 0.00000E+00
 -1      3256 9.17850E+01 1.05013E+01 0.00000E+00
 -1      3257 9.02850E+01 1.05013E+01 0.00000E+00
 -1      3258 8.95350E+01 1.18003E+01 0.00000E+00
 -1      3259 9.47850E+01 1.05013E+01 0.00000E+00
 -1      3260 9.32850E+01 1.05013E+01 0.00000E+00
 -1      3261 9.25350E+01 1.18003E+01 0.00000E+00
 -1      3262 9.77850E+01 1.05013E+01 0.00000E+00
 -1      3263 9.62850E+01 1.05013E+01 0.00000E+00
 -1      3264 9.55350E+01 1.18003E+01 0.00000E+00
 -1      3265 1.00785E+02 1.05013E+01 0.00000E+00
 -1      3266 9.92850E+01 1.05013E+01 0.00000E+00
 -1      3267 9.85350E+01 1.18003E+01 0.00000E+00
 -1      3268 1.03785E+02 1.05013E+01 0.00000E+00
 -1      3269 1.02285E+02 1.05013E+01 0.00000E+00
 -1      3270 1.01535E+02 1.18003E+01 0.00000E+00
 -1      3271 1.06785E+02 1.05013E+01 0.00000E+00
 -1      3272 1.05285E+02 1.05013E+01 0.00000E+00
 -1      3273 1.04535E+02 1.18003E+01 0.00000E+00
 -1      3274 1.09785E+02 1.05013E+01 0.00000E+00
 -1      3275 1.08285E+02 1.05013E+01 0.00000E+00
 -1      3276 1.07535E+02 1.18003E+01 0.00000E+00
 -1      3277 1.12528E+02 1.11244E+01 0.00000E+00
 -1      3278 1.11028E+02 1.11244E+01 0.00000E+00
 -1      3279 1.16371E+02 1.09633E+01 0.00000E+00
 -1      3280 1.14871E+02 1.09633E+01 0.00000E+00
 -1      3281 1.21595E+02 1.06850E+01 0.00000E+00
 -1      3282 1.24560E+02 1.10034E+01 0.00000E+00
 -1      3283 1.23060E+02 1.10034E+01 0.00000E+00
 -1      3284 1.30785E+02 1.05013E+01 0.00000E+00
 -1      3285 1.29285E+02 1.05013E+01 0.00000E+00
 -1      3286 1.33785E+02 1.05013E+01 0.00000E+00
 -1      3287 1.32285E+02 1.05013E+01 0.00000E+00
 -1      3288 1.31535E+02 1.18003E+01 0.00000E+00
 -1      3289 1.36785E+02 1.05013E+01 0.00000E+00
 -1      3290 1.35285E+02 1.05013E+01 0.00000E+00
 -1      3291 1.34535E+02 1.18003E+01 0.00000E+00
 -1      3292 1.38879E+02 1.08930E+01 0.00000E+00
 -1      3293 1.37711E+02 1.06123E+01 0.00000E+00
 -1      3294 1.36961E+02 1.19113E+01 0.00000E+00
 -1      3295 1.38813E+02 1.21333E+01 0.00000E+00
 -1      3296 1.39021E+02 3.86785E+01 0.00000E+00
 -1      3297 1.16910E+01 2.12875E+01 0.00000E+00
 -1      3298 1.16910E+01 2.27625E+01 0.00000E+00
 -1      3299 1.38332E+02 3.16125E+01 0.00000E+00
 -1      3300 1.38332E+02 3.01375E+01 0.00000E+00
 -1      3301 1.38309E+02 2.57625E+01 0.00000E+00
 -1      3302 1.38309E+02 2.42875E+01 0.00000E+00
 -1      3303 2.27850E+01 1.05013E+01 0.00000E+00
 -1      3304 2.12850E+01 1.05013E+01 0.00000E+00
 -1      3305 1.38332E+02 3.45625E+01 0.00000E+00
 -1      3306 1.38332E+02 3.30875E+01 0.00000E+00
 -1      3307 1.37055E+02 3.23500E+01 0.00000E+00
 -1      3308 1.11332E+02 3.76658E+01 0.00000E+00
 -1      3309 1.06972E+02 1.76450E+01 0.00000E+00
 -1      3310 1.07453E+02 1.69603E+01 0.00000E+00
 -1      3311 1.29244E+02 3.40925E+01 0.00000E+00
 -1      3312 1.28297E+02 3.50999E+01 0.00000E+00
 -1      3313 2.87850E+01 1.05013E+01 0.00000E+00
 -1      3314 2.72850E+01 1.05013E+01 0.00000E+00
 -1      3315 2.95350E+01 1.18003E+01 0.00000E+00
 -1      3316 3.77850E+01 1.05013E+01 0.00000E+00
 -1      3317 3.62850E+01 1.05013E+01 0.00000E+00
 -1      3318 3.85350E+01 1.18003E+01 0.00000E+00
 -1      3319 1.30822E+02 3.16119E+01 0.00000E+00
 -1      3320 1.30067E+02 3.27735E+01 0.00000E+00
 -1      3321 3.47850E+01 1.05013E+01 0.00000E+00
 -1      3322 3.32850E+01 1.05013E+01 0.00000E+00
 -1      3323 3.25350E+01 1.18003E+01 0.00000E+00
 -1      3324 3.55350E+01 1.18003E+01 0.00000E+00
 -1      3325 1.38332E+02 2.86875E+01 0.00000E+00
 -1      3326 1.38332E+02 2.72375E+01 0.00000E+00
 -1      3327 1.37055E+02 2.94250E+01 0.00000E+00
 -1      3328 1.23894E+02 3.81500E+01 0.00000E+00
 -1      3329 1.25394E+02 3.81500E+01 0.00000E+00
 -1      3330 1.59000E+01 3.83090E+01 0.00000E+00
 -1      3331 1.74000E+01 3.83090E+01 0.00000E+00
 -1      3332 1.81500E+01 3.70100E+01 0.00000E+00
 -1      3333 1.32047E+02 2.88728E+01 0.00000E+00
 -1      3334 1.31659E+02 3.01926E+01 0.00000E+00
 -1      3335 2.57850E+01 1.05013E+01 0.00000E+00
 -1      3336 2.42850E+01 1.05013E+01 0.00000E+00
 -1      3337 2.65350E+01 1.18003E+01 0.00000E+00
 -1      3338 1.00862E+01 3.73269E+01 0.00000E+00
 -1      3339 1.08342E+02 3.41402E+01 0.00000E+00
 -1      3340 1.07426E+02 3.30987E+01 0.00000E+00
 -1      3341 1.27363E+02 3.60620E+01 0.00000E+00
 -1      3342 1.26144E+02 3.68510E+01 0.00000E+00
 -1      3343 1.26488E+01 1.02017E+01 0.00000E+00
 -1      3344 1.20772E+01 1.14631E+01 0.00000E+00
 -1      3345 1.33763E+01 1.22006E+01 0.00000E+00
 -1      3346 1.41488E+01 1.02017E+01 0.00000E+00
 -1      3347 1.22517E+02 3.85672E+01 0.00000E+00
 -1      3348 1.10407E+02 3.60233E+01 0.00000E+00
 -1      3349 1.09403E+02 3.51810E+01 0.00000E+00
 -1      3350 1.31455E+02 2.03144E+01 0.00000E+00
 -1      3351 1.31829E+02 2.12815E+01 0.00000E+00
 -1      3352 1.32380E+02 1.94551E+01 0.00000E+00
 -1      3353 1.27031E+02 1.37260E+01 0.00000E+00
 -1      3354 1.28082E+02 1.46317E+01 0.00000E+00
 -1      3355 1.29206E+02 1.56663E+01 0.00000E+00
 -1      3356 1.30016E+02 1.66695E+01 0.00000E+00
 -1      3357 1.21017E+02 3.84609E+01 0.00000E+00
 -1      3358 1.10225E+02 3.79655E+01 0.00000E+00
 -1      3359 1.26360E+02 1.04141E+01 0.00000E+00
 -1      3360 1.25385E+02 1.22153E+01 0.00000E+00
 -1      3361 1.26511E+02 1.28378E+01 0.00000E+00
 -1      3362 1.27860E+02 1.04141E+01 0.00000E+00
 -1      3363 1.16910E+01 2.42375E+01 0.00000E+00
 -1      3364 1.16910E+01 2.57125E+01 0.00000E+00
 -1      3365 1.29900E+01 2.35000E+01 0.00000E+00
 -1      3366 1.29900E+01 1.46687E+01 0.00000E+00
 -1      3367 1.16910E+01 1.54063E+01 0.00000E+00
 -1      3368 1.16910E+01 1.68750E+01 0.00000E+00
 -1      3369 1.29350E+02 1.44368E+01 0.00000E+00
 -1      3370 1.38309E+02 1.69188E+01 0.00000E+00
 -1      3371 1.38309E+02 1.54563E+01 0.00000E+00
 -1      3372 1.32000E+02 3.12409E+01 0.00000E+00
 -1      3373 1.07975E+02 3.66665E+01 0.00000E+00
 -1      3374 1.08725E+02 3.79655E+01 0.00000E+00
 -1      3375 1.07625E+02 1.59467E+01 0.00000E+00
 -1      3376 1.28610E+02 1.17131E+01 0.00000E+00
 -1      3377 1.04236E+02 2.26263E+01 0.00000E+00
 -1      3378 1.03683E+02 2.16136E+01 0.00000E+00
 -1      3379 1.38271E+02 3.73795E+01 0.00000E+00
 -1      3380 1.32461E+02 2.19672E+01 0.00000E+00
 -1      3381 1.33094E+02 2.26530E+01 0.00000E+00
 -1      3382 1.33386E+02 2.11079E+01 0.00000E+00
 -1      3383 1.37033E+02 2.65000E+01 0.00000E+00
 -1      3384 1.30340E+02 3.39793E+01 0.00000E+00
 -1      3385 1.10278E+02 1.24234E+01 0.00000E+00
 -1      3386 1.13506E+02 1.12127E+01 0.00000E+00
 -1      3387 1.45576E+01 3.82548E+01 0.00000E+00
 -1      3388 1.53076E+01 3.69558E+01 0.00000E+00
 -1      3389 1.32152E+01 3.82007E+01 0.00000E+00
 -1      3390 1.38309E+02 1.98687E+01 0.00000E+00
 -1      3391 1.38309E+02 1.83937E+01 0.00000E+00
 -1      3392 1.37010E+02 1.76625E+01 0.00000E+00
 -1      3393 1.16910E+01 1.98188E+01 0.00000E+00
 -1      3394 1.29900E+01 2.05562E+01 0.00000E+00
 -1      3395 1.16910E+01 1.83500E+01 0.00000E+00
 -1      3396 1.19895E+02 3.86511E+01 0.00000E+00
 -1      3397 1.71488E+01 1.02017E+01 0.00000E+00
 -1      3398 1.56488E+01 1.02017E+01 0.00000E+00
 -1      3399 1.52625E+01 1.12011E+01 0.00000E+00
 -1      3400 1.38309E+02 2.28156E+01 0.00000E+00
 -1      3401 1.38309E+02 2.13406E+01 0.00000E+00
 -1      3402 1.37010E+02 2.06094E+01 0.00000E+00
 -1      3403 1.37010E+02 2.35531E+01 0.00000E+00
 -1      3404 1.38129E+02 3.62613E+01 0.00000E+00
 -1      3405 1.99669E+01 1.03515E+01 0.00000E+00
 -1      3406 1.84669E+01 1.03515E+01 0.00000E+00
 -1      3407 1.80806E+01 1.13509E+01 0.00000E+00
 -1      3408 2.07169E+01 1.16505E+01 0.00000E+00
 -1      3409 1.05833E+02 1.78317E+01 0.00000E+00
 -1      3410 1.36853E+02 3.55238E+01 0.00000E+00
 -1      3411 2.35350E+01 1.18003E+01 0.00000E+00
 -1      3412 1.28584E+02 3.62605E+01 0.00000E+00
 -1      3413 1.14286E+01 3.73811E+01 0.00000E+00
 -1      3414 1.32827E+02 2.41871E+01 0.00000E+00
 -1      3415 1.32271E+02 2.49225E+01 0.00000E+00
 -1      3416 1.32930E+02 2.55974E+01 0.00000E+00
 -1      3417 1.06502E+02 3.25317E+01 0.00000E+00
 -1      3418 1.05579E+02 3.19646E+01 0.00000E+00
 -1      3419 1.06254E+02 3.36743E+01 0.00000E+00
 -1      3420 1.08239E+02 3.52822E+01 0.00000E+00
 -1      3421 1.04307E+02 2.42711E+01 0.00000E+00
 -1      3422 1.04271E+02 2.34487E+01 0.00000E+00
 -1      3423 1.03169E+02 2.33936E+01 0.00000E+00
 -1      3424 1.04882E+02 3.03097E+01 0.00000E+00
 -1      3425 1.05243E+02 2.93454E+01 0.00000E+00
 -1      3426 1.04298E+02 2.88332E+01 0.00000E+00
 -1      3427 1.32605E+02 2.80772E+01 0.00000E+00
 -1      3428 1.33395E+02 2.90261E+01 0.00000E+00
 -1      3429 1.33163E+02 2.72817E+01 0.00000E+00
 -1      3430 1.09950E+02 1.42875E+01 0.00000E+00
 -1      3431 1.10238E+02 1.32684E+01 0.00000E+00
 -1      3432 1.08995E+02 1.26453E+01 0.00000E+00
 -1      3433 1.08915E+02 1.43354E+01 0.00000E+00
 -1      3434 1.16910E+01 3.01219E+01 0.00000E+00
 -1      3435 1.16910E+01 3.15906E+01 0.00000E+00
 -1      3436 1.04378E+02 2.59158E+01 0.00000E+00
 -1      3437 1.04343E+02 2.50934E+01 0.00000E+00
 -1      3438 1.03240E+02 2.50383E+01 0.00000E+00
 -1      3439 1.31240E+02 1.69797E+01 0.00000E+00
 -1      3440 1.27706E+02 1.25141E+01 0.00000E+00
 -1      3441 1.03968E+02 2.68647E+01 0.00000E+00
 -1      3442 1.16910E+01 3.30594E+01 0.00000E+00
 -1      3443 1.16910E+01 3.45281E+01 0.00000E+00
 -1      3444 1.29900E+01 3.23250E+01 0.00000E+00
 -1      3445 1.33229E+02 3.10092E+01 0.00000E+00
 -1      3446 1.32393E+02 3.24285E+01 0.00000E+00
 -1      3447 1.06914E+02 3.56257E+01 0.00000E+00
 -1      3448 1.06420E+02 1.53844E+01 0.00000E+00
 -1      3449 1.07670E+02 1.46180E+01 0.00000E+00
 -1      3450 2.34000E+01 3.57110E+01 0.00000E+00
 -1      3451 2.49000E+01 3.57110E+01 0.00000E+00
 -1      3452 2.64000E+01 3.57110E+01 0.00000E+00
 -1      3453 2.79000E+01 3.57110E+01 0.00000E+00
 -1      3454 2.56500E+01 3.44120E+01 0.00000E+00
 -1      3455 2.94000E+01 3.57110E+01 0.00000E+00
 -1      3456 3.09000E+01 3.57110E+01 0.00000E+00
 -1      3457 2.86500E+01 3.44120E+01 0.00000E+00
 -1      3458 3.24000E+01 3.57110E+01 0.00000E+00
 -1      3459 3.39000E+01 3.57110E+01 0.00000E+00
 -1      3460 3.16500E+01 3.44120E+01 0.00000E+00
 -1      3461 3.54000E+01 3.57110E+01 0.00000E+00
 -1      3462 3.69000E+01 3.57110E+01 0.00000E+00
 -1      3463 3.46500E+01 3.44120E+01 0.00000E+00
 -1      3464 3.84000E+01 3.57110E+01 0.00000E+00
 -1      3465 3.99000E+01 3.57110E+01 0.00000E+00
 -1      3466 3.76500E+01 3.44120E+01 0.00000E+00
 -1      3467 4.14000E+01 3.57110E+01 0.00000E+00
 -1      3468 4.29000E+01 3.57110E+01 0.00000E+00
 -1      3469 4.06500E+01 3.44120E+01 0.00000E+00
 -1      3470 4.44000E+01 3.57110E+01 0.00000E+00
 -1      3471 4.59000E+01 3.57110E+01 0.00000E+00
 -1      3472 4.36500E+01 3.44120E+01 0.00000E+00
 -1      3473 4.74000E+01 3.57110E+01 0.00000E+00
 -1      3474 4.89000E+01 3.57110E+01 0.00000E+00
 -1      3475 4.66500E+01 3.44120E+01 0.00000E+00
 -1      3476 5.04000E+01 3.57110E+01 0.00000E+00
 -1      3477 5.19000E+01 3.57110E+01 0.00000E+00
 -1      3478 4.96500E+01 3.44120E+01 0.00000E+00
 -1      3479 5.34000E+01 3.57110E+01 0.00000E+00
 -1      3480 5.49000E+01 3.57110E+01 0.00000E+00
 -1      3481 5.26500E+01 3.44120E+01 0.00000E+00
 -1      3482 5.64000E+01 3.57110E+01 0.00000E+00
 -1      3483 5.79000E+01 3.57110E+01 0.00000E+00
 -1      3484 5.56500E+01 3.44120E+01 0.00000E+00
 -1      3485 5.94000E+01 3.57110E+01 0.00000E+00
 -1      3486 6.09000E+01 3.57110E+01 0.00000E+00
 -1      3487 5.86500E+01 3.44120E+01 0.00000E+00
 -1      3488 6.24000E+01 3.57110E+01 0.00000E+00
 -1      3489 6.39000E+01 3.57110E+01 0.00000E+00
 -1      3490 6.16500E+01 3.44120E+01 0.00000E+00
 -1      3491 6.54000E+01 3.57110E+01 0.00000E+00
 -1      3492 6.69000E+01 3.57110E+01 0.00000E+00
 -1      3493 6.46500E+01 3.44120E+01 0.00000E+00
 -1      3494 6.84000E+01 3.57110E+01 0.00000E+00
 -1      3495 6.99000E+01 3.57110E+01 0.00000E+00
 -1      3496 6.76500E+01 3.44120E+01 0.00000E+00
 -1      3497 7.14000E+01 3.57110E+01 0.00000E+00
 -1      3498 7.29000E+01 3.57110E+01 0.00000E+00
 -1      3499 7.06500E+01 3.44120E+01 0.00000E+00
 -1      3500 7.44000E+01 3.57110E+01 0.00000E+00
 -1      3501 7.59000E+01 3.57110E+01 0.00000E+00
 -1      3502 7.36500E+01 3.44120E+01 0.00000E+00
 -1      3503 7.74000E+01 3.57110E+01 0.00000E+00
 -1      3504 7.89000E+01 3.57110E+01 0.00000E+00
 -1      3505 7.66500E+01 3.44120E+01 0.00000E+00
 -1      3506 8.04000E+01 3.57110E+01 0.00000E+00
 -1      3507 8.19000E+01 3.57110E+01 0.00000E+00
 -1      3508 7.96500E+01 3.44120E+01 0.00000E+00
 -1      3509 8.34000E+01 3.57110E+01 0.00000E+00
 -1      3510 8.49000E+01 3.57110E+01 0.00000E+00
 -1      3511 8.26500E+01 3.44120E+01 0.00000E+00
 -1      3512 8.64000E+01 3.57110E+01 0.00000E+00
 -1      3513 8.79000E+01 3.57110E+01 0.00000E+00
 -1      3514 8.56500E+01 3.44120E+01 0.00000E+00
 -1      3515 8.94000E+01 3.57110E+01 0.00000E+00
 -1      3516 9.09000E+01 3.57110E+01 0.00000E+00
 -1      3517 8.86500E+01 3.44120E+01 0.00000E+00
 -1      3518 9.24000E+01 3.57110E+01 0.00000E+00
 -1      3519 9.39000E+01 3.57110E+01 0.00000E+00
 -1      3520 9.16500E+01 3.44120E+01 0.00000E+00
 -1      3521 9.54000E+01 3.57110E+01 0.00000E+00
 -1      3522 9.69000E+01 3.57110E+01 0.00000E+00
 -1      3523 9.46500E+01 3.44120E+01 0.00000E+00
 -1      3524 9.84000E+01 3.57110E+01 0.00000E+00
 -1      3525 9.99000E+01 3.57110E+01 0.00000E+00
 -1      3526 9.76500E+01 3.44120E+01 0.00000E+00
 -1      3527 1.01400E+02 3.57110E+01 0.00000E+00
 -1      3528 1.02900E+02 3.57110E+01 0.00000E+00
 -1      3529 1.00650E+02 3.44120E+01 0.00000E+00
 -1      3530 1.30084E+02 3.62605E+01 0.00000E+00
 -1      3531 1.31584E+02 3.62605E+01 0.00000E+00
 -1      3532 1.33084E+02 3.62605E+01 0.00000E+00
 -1      3533 1.31017E+02 3.52983E+01 0.00000E+00
 -1      3534 1.34218E+02 3.58921E+01 0.00000E+00
 -1      3535 1.35718E+02 3.58921E+01 0.00000E+00
 -1      3536 1.35921E+02 3.41933E+01 0.00000E+00
 -1      3537 1.33652E+02 3.49300E+01 0.00000E+00
 -1      3538 1.38528E+02 1.44149E+01 0.00000E+00
 -1      3539 1.38594E+02 1.31746E+01 0.00000E+00
 -1      3540 1.37668E+02 1.30636E+01 0.00000E+00
 -1      3541 1.37229E+02 1.51462E+01 0.00000E+00
 -1      3542 4.22850E+01 1.30992E+01 0.00000E+00
 -1      3543 4.07850E+01 1.30992E+01 0.00000E+00
 -1      3544 5.12850E+01 1.30992E+01 0.00000E+00
 -1      3545 4.97850E+01 1.30992E+01 0.00000E+00
 -1      3546 5.42850E+01 1.30992E+01 0.00000E+00
 -1      3547 5.27850E+01 1.30992E+01 0.00000E+00
 -1      3548 5.20350E+01 1.43982E+01 0.00000E+00
 -1      3549 5.72850E+01 1.30992E+01 0.00000E+00
 -1      3550 5.57850E+01 1.30992E+01 0.00000E+00
 -1      3551 5.50350E+01 1.43982E+01 0.00000E+00
 -1      3552 6.02850E+01 1.30992E+01 0.00000E+00
 -1      3553 5.87850E+01 1.30992E+01 0.00000E+00
 -1      3554 5.80350E+01 1.43982E+01 0.00000E+00
 -1      3555 6.32850E+01 1.30992E+01 0.00000E+00
 -1      3556 6.17850E+01 1.30992E+01 0.00000E+00
 -1      3557 6.10350E+01 1.43982E+01 0.00000E+00
 -1      3558 6.62850E+01 1.30992E+01 0.00000E+00
 -1      3559 6.47850E+01 1.30992E+01 0.00000E+00
 -1      3560 6.40350E+01 1.43982E+01 0.00000E+00
 -1      3561 6.92850E+01 1.30992E+01 0.00000E+00
 -1      3562 6.77850E+01 1.30992E+01 0.00000E+00
 -1      3563 6.70350E+01 1.43982E+01 0.00000E+00
 -1      3564 7.22850E+01 1.30992E+01 0.00000E+00
 -1      3565 7.07850E+01 1.30992E+01 0.00000E+00
 -1      3566 7.00350E+01 1.43982E+01 0.00000E+00
 -1      3567 7.52850E+01 1.30992E+01 0.00000E+00
 -1      3568 7.37850E+01 1.30992E+01 0.00000E+00
 -1      3569 7.30350E+01 1.43982E+01 0.00000E+00
 -1      3570 7.82850E+01 1.30992E+01 0.00000E+00
 -1      3571 7.67850E+01 1.30992E+01 0.00000E+00
 -1      3572 7.60350E+01 1.43982E+01 0.00000E+00
 -1      3573 8.12850E+01 1.30992E+01 0.00000E+00
 -1      3574 7.97850E+01 1.30992E+01 0.00000E+00
 -1      3575 7.90350E+01 1.43982E+01 0.00000E+00
 -1      3576 8.42850E+01 1.30992E+01 0.00000E+00
 -1      3577 8.27850E+01 1.30992E+01 0.00000E+00
 -1      3578 8.20350E+01 1.43982E+01 0.00000E+00
 -1      3579 8.72850E+01 1.30992E+01 0.00000E+00
 -1      3580 8.57850E+01 1.30992E+01 0.00000E+00
 -1      3581 8.50350E+01 1.43982E+01 0.00000E+00
 -1      3582 9.02850E+01 1.30992E+01 0.00000E+00
 -1      3583 8.87850E+01 1.30992E+01 0.00000E+00
 -1      3584 8.80350E+01 1.43982E+01 0.00000E+00
 -1      3585 9.32850E+01 1.30992E+01 0.00000E+00
 -1      3586 9.17850E+01 1.30992E+01 0.00000E+00
 -1      3587 9.10350E+01 1.43982E+01 0.00000E+00
 -1      3588 9.62850E+01 1.30992E+01 0.00000E+00
 -1      3589 9.47850E+01 1.30992E+01 0.00000E+00
 -1      3590 9.40350E+01 1.43982E+01 0.00000E+00
 -1      3591 9.92850E+01 1.30992E+01 0.00000E+00
 -1      3592 9.77850E+01 1.30992E+01 0.00000E+00
 -1      3593 9.70350E+01 1.43982E+01 0.00000E+00
 -1      3594 1.02285E+02 1.30992E+01 0.00000E+00
 -1      3595 1.00785E+02 1.30992E+01 0.00000E+00
 -1      3596 1.00035E+02 1.43982E+01 0.00000E+00
 -1      3597 1.07750E+02 1.29280E+01 0.00000E+00
 -1      3598 1.06250E+02 1.29280E+01 0.00000E+00
 -1      3599 1.18785E+02 1.01436E+01 0.00000E+00
 -1      3600 1.17285E+02 1.01436E+01 0.00000E+00
 -1      3601 1.02591E+02 2.16239E+01 0.00000E+00
 -1      3602 1.03141E+02 2.06663E+01 0.00000E+00
 -1      3603 1.31840E+02 3.39793E+01 0.00000E+00
 -1      3604 1.33305E+02 1.85416E+01 0.00000E+00
 -1      3605 1.33679E+02 1.95086E+01 0.00000E+00
 -1      3606 2.42850E+01 1.30992E+01 0.00000E+00
 -1      3607 2.27850E+01 1.30992E+01 0.00000E+00
 -1      3608 1.04640E+02 1.79448E+01 0.00000E+00
 -1      3609 1.05181E+02 1.68262E+01 0.00000E+00
 -1      3610 1.35338E+02 3.30109E+01 0.00000E+00
 -1      3611 1.35338E+02 3.15359E+01 0.00000E+00
 -1      3612 3.02850E+01 1.30992E+01 0.00000E+00
 -1      3613 2.87850E+01 1.30992E+01 0.00000E+00
 -1      3614 1.35504E+02 2.95528E+01 0.00000E+00
 -1      3615 1.35504E+02 2.81028E+01 0.00000E+00
 -1      3616 3.92850E+01 1.30992E+01 0.00000E+00
 -1      3617 3.77850E+01 1.30992E+01 0.00000E+00
 -1      3618 4.00350E+01 1.43982E+01 0.00000E+00
 -1      3619 1.31774E+02 1.55248E+01 0.00000E+00
 -1      3620 1.32539E+02 1.70332E+01 0.00000E+00
 -1      3621 1.33839E+02 1.70866E+01 0.00000E+00
 -1      3622 1.17121E+02 1.19046E+01 0.00000E+00
 -1      3623 4.82850E+01 1.30992E+01 0.00000E+00
 -1      3624 4.67850E+01 1.30992E+01 0.00000E+00
 -1      3625 4.90350E+01 1.43982E+01 0.00000E+00
 -1      3626 1.16910E+01 2.71844E+01 0.00000E+00
 -1      3627 1.16910E+01 2.86531E+01 0.00000E+00
 -1      3628 1.29900E+01 2.93875E+01 0.00000E+00
 -1      3629 2.72850E+01 1.30992E+01 0.00000E+00
 -1      3630 2.57850E+01 1.30992E+01 0.00000E+00
 -1      3631 2.80350E+01 1.43982E+01 0.00000E+00
 -1      3632 1.21786E+01 3.60821E+01 0.00000E+00
 -1      3633 4.52850E+01 1.30992E+01 0.00000E+00
 -1      3634 4.37850E+01 1.30992E+01 0.00000E+00
 -1      3635 4.30350E+01 1.43982E+01 0.00000E+00
 -1      3636 4.60350E+01 1.43982E+01 0.00000E+00
 -1      3637 2.04000E+01 3.57110E+01 0.00000E+00
 -1      3638 2.19000E+01 3.57110E+01 0.00000E+00
 -1      3639 2.26500E+01 3.44120E+01 0.00000E+00
 -1      3640 1.18152E+02 1.18294E+01 0.00000E+00
 -1      3641 1.29130E+02 1.26013E+01 0.00000E+00
 -1      3642 1.48763E+01 1.22006E+01 0.00000E+00
 -1      3643 1.44900E+01 1.32000E+01 0.00000E+00
 -1      3644 1.63762E+01 1.22006E+01 0.00000E+00
 -1      3645 1.74000E+01 3.57110E+01 0.00000E+00
 -1      3646 1.89000E+01 3.57110E+01 0.00000E+00
 -1      3647 1.96500E+01 3.44120E+01 0.00000E+00
 -1      3648 1.35481E+02 2.66278E+01 0.00000E+00
 -1      3649 1.03606E+02 2.78291E+01 0.00000E+00
 -1      3650 1.02914E+02 2.68251E+01 0.00000E+00
 -1      3651 1.03245E+02 2.87935E+01 0.00000E+00
 -1      3652 1.03671E+02 1.98134E+01 0.00000E+00
 -1      3653 1.04201E+02 1.89606E+01 0.00000E+00
 -1      3654 1.02580E+02 1.98237E+01 0.00000E+00
 -1      3655 1.30255E+02 1.36358E+01 0.00000E+00
 -1      3656 1.31755E+02 1.36358E+01 0.00000E+00
 -1      3657 1.33054E+02 1.36893E+01 0.00000E+00
 -1      3658 1.44900E+01 1.46687E+01 0.00000E+00
 -1      3659 1.42890E+01 1.98219E+01 0.00000E+00
 -1      3660 1.42890E+01 2.12906E+01 0.00000E+00
 -1      3661 1.05693E+02 3.61103E+01 0.00000E+00
 -1      3662 1.05956E+02 3.47260E+01 0.00000E+00
 -1      3663 1.05227E+02 1.54975E+01 0.00000E+00
 -1      3664 1.34204E+02 3.33792E+01 0.00000E+00
 -1      3665 1.04193E+02 3.61103E+01 0.00000E+00
 -1      3666 1.03549E+02 1.79551E+01 0.00000E+00
 -1      3667 1.34312E+02 2.01943E+01 0.00000E+00
 -1      3668 1.29900E+01 2.64469E+01 0.00000E+00
 -1      3669 1.42890E+01 2.86531E+01 0.00000E+00
 -1      3670 1.42890E+01 3.01219E+01 0.00000E+00
 -1      3671 1.05285E+02 1.30992E+01 0.00000E+00
 -1      3672 1.03785E+02 1.30992E+01 0.00000E+00
 -1      3673 1.34776E+01 3.53477E+01 0.00000E+00
 -1      3674 1.33070E+02 3.37475E+01 0.00000E+00
 -1      3675 1.34554E+02 1.36893E+01 0.00000E+00
 -1      3676 3.62850E+01 1.30992E+01 0.00000E+00
 -1      3677 3.47850E+01 1.30992E+01 0.00000E+00
 -1      3678 3.70350E+01 1.43982E+01 0.00000E+00
 -1      3679 1.29900E+01 1.76125E+01 0.00000E+00
 -1      3680 2.20350E+01 1.43983E+01 0.00000E+00
 -1      3681 2.12850E+01 1.30993E+01 0.00000E+00
 -1      3682 1.35248E+02 2.49435E+01 0.00000E+00
 -1      3683 1.35248E+02 2.34716E+01 0.00000E+00
 -1      3684 1.01617E+02 2.68887E+01 0.00000E+00
 -1      3685 1.01978E+02 2.59243E+01 0.00000E+00
 -1      3686 1.99669E+01 1.29495E+01 0.00000E+00
 -1      3687 1.36742E+02 1.29526E+01 0.00000E+00
 -1      3688 1.33752E+02 2.33278E+01 0.00000E+00
 -1      3689 1.05033E+02 3.41590E+01 0.00000E+00
 -1      3690 3.32850E+01 1.30992E+01 0.00000E+00
 -1      3691 3.17850E+01 1.30992E+01 0.00000E+00
 -1      3692 3.40350E+01 1.43982E+01 0.00000E+00
 -1      3693 1.04633E+02 3.14524E+01 0.00000E+00
 -1      3694 1.03688E+02 3.09402E+01 0.00000E+00
 -1      3695 1.04385E+02 3.25951E+01 0.00000E+00
 -1      3696 1.55880E+01 3.08563E+01 0.00000E+00
 -1      3697 1.42890E+01 3.15906E+01 0.00000E+00
 -1      3698 1.42890E+01 3.30594E+01 0.00000E+00
 -1      3699 1.35807E+02 1.88663E+01 0.00000E+00
 -1      3700 1.35807E+02 1.73913E+01 0.00000E+00
 -1      3701 1.42890E+01 2.27656E+01 0.00000E+00
 -1      3702 1.42890E+01 2.42406E+01 0.00000E+00
 -1      3703 1.55880E+01 2.20313E+01 0.00000E+00
 -1      3704 1.35261E+02 1.48416E+01 0.00000E+00
 -1      3705 3.10350E+01 1.43982E+01 0.00000E+00
 -1      3706 1.01942E+02 2.51019E+01 0.00000E+00
 -1      3707 1.61190E+01 3.46675E+01 0.00000E+00
 -1      3708 1.68690E+01 3.33685E+01 0.00000E+00
 -1      3709 1.03443E+02 3.48113E+01 0.00000E+00
 -1      3710 2.50350E+01 1.43982E+01 0.00000E+00
 -1      3711 1.05500E+02 1.42270E+01 0.00000E+00
 -1      3712 1.03035E+02 1.43982E+01 0.00000E+00
 -1      3713 1.47766E+01 3.46133E+01 0.00000E+00
 -1      3714 1.42890E+01 1.83469E+01 0.00000E+00
 -1      3715 1.55880E+01 1.90812E+01 0.00000E+00
 -1      3716 1.42890E+01 1.68719E+01 0.00000E+00
 -1      3717 1.00645E+02 2.51655E+01 0.00000E+00
 -1      3718 1.01907E+02 2.42796E+01 0.00000E+00
 -1      3719 1.01871E+02 2.34572E+01 0.00000E+00
 -1      3720 2.57850E+01 1.56973E+01 0.00000E+00
 -1      3721 2.42850E+01 1.56973E+01 0.00000E+00
 -1      3722 2.79000E+01 3.31130E+01 0.00000E+00
 -1      3723 2.94000E+01 3.31130E+01 0.00000E+00
 -1      3724 3.09000E+01 3.31130E+01 0.00000E+00
 -1      3725 3.24000E+01 3.31130E+01 0.00000E+00
 -1      3726 3.01500E+01 3.18140E+01 0.00000E+00
 -1      3727 3.39000E+01 3.31130E+01 0.00000E+00
 -1      3728 3.54000E+01 3.31130E+01 0.00000E+00
 -1      3729 3.31500E+01 3.18140E+01 0.00000E+00
 -1      3730 3.69000E+01 3.31130E+01 0.00000E+00
 -1      3731 3.84000E+01 3.31130E+01 0.00000E+00
 -1      3732 3.61500E+01 3.18140E+01 0.00000E+00
 -1      3733 3.99000E+01 3.31130E+01 0.00000E+00
 -1      3734 4.14000E+01 3.31130E+01 0.00000E+00
 -1      3735 3.91500E+01 3.18140E+01 0.00000E+00
 -1      3736 4.29000E+01 3.31130E+01 0.00000E+00
 -1      3737 4.44000E+01 3.31130E+01 0.00000E+00
 -1      3738 4.21500E+01 3.18140E+01 0.00000E+00
 -1      3739 4.59000E+01 3.31130E+01 0.00000E+00
 -1      3740 4.74000E+01 3.31130E+01 0.00000E+00
 -1      3741 4.51500E+01 3.18140E+01 0.00000E+00
 -1      3742 4.89000E+01 3.31130E+01 0.00000E+00
 -1      3743 5.04000E+01 3.31130E+01 0.00000E+00
 -1      3744 4.81500E+01 3.18140E+01 0.00000E+00
 -1      3745 5.19000E+01 3.31130E+01 0.00000E+00
 -1      3746 5.34000E+01 3.31130E+01 0.00000E+00
 -1      3747 5.11500E+01 3.18140E+01 0.00000E+00
 -1      3748 5.49000E+01 3.31130E+01 0.00000E+00
 -1      3749 5.64000E+01 3.31130E+01 0.00000E+00
 -1      3750 5.41500E+01 3.18140E+01 0.00000E+00
 -1      3751 5.79000E+01 3.31130E+01 0.00000E+00
 -1      3752 5.94000E+01 3.31130E+01 0.00000E+00
 -1      3753 5.71500E+01 3.18140E+01 0.00000E+00
 -1      3754 6.09000E+01 3.31130E+01 0.00000E+00
 -1      3755 6.24000E+01 3.31130E+01 0.00000E+00
 -1      3756 6.01500E+01 3.18140E+01 0.00000E+00
 -1      3757 6.39000E+01 3.31130E+01 0.00000E+00
 -1      3758 6.54000E+01 3.31130E+01 0.00000E+00
 -1      3759 6.31500E+01 3.18140E+01 0.00000E+00
 -1      3760 6.69000E+01 3.31130E+01 0.00000E+00
 -1      3761 6.84000E+01 3.31130E+01 0.00000E+00
 -1      3762 6.61500E+01 3.18140E+01 0.00000E+00
 -1      3763 6.99000E+01 3.31130E+01 0.00000E+00
 -1      3764 7.14000E+01 3.31130E+01 0.00000E+00
 -1      3765 6.91500E+01 3.18140E+01 0.00000E+00
 -1      3766 7.29000E+01 3.31130E+01 0.00000E+00
 -1      3767 7.44000E+01 3.31130E+01 0.00000E+00
 -1      3768 7.21500E+01 3.18140E+01 0.00000E+00
 -1      3769 7.59000E+01 3.31130E+01 0.00000E+00
 -1      3770 7.74000E+01 3.31130E+01 0.00000E+00
 -1      3771 7.51500E+01 3.18140E+01 0.00000E+00
 -1      3772 7.89000E+01 3.31130E+01 0.00000E+00
 -1      3773 8.04000E+01 3.31130E+01 0.00000E+00
 -1      3774 7.81500E+01 3.18140E+01 0.00000E+00
 -1      3775 8.19000E+01 3.31130E+01 0.00000E+00
 -1      3776 8.34000E+01 3.31130E+01 0.00000E+00
 -1      3777 8.11500E+01 3.18140E+01 0.00000E+00
 -1      3778 8.49000E+01 3.31130E+01 0.00000E+00
 -1      3779 8.64000E+01 3.31130E+01 0.00000E+00
 -1      3780 8.41500E+01 3.18140E+01 0.00000E+00
 -1      3781 8.79000E+01 3.31130E+01 0.00000E+00
 -1      3782 8.94000E+01 3.31130E+01 0.00000E+00
 -1      3783 8.71500E+01 3.18140E+01 0.00000E+00
 -1      3784 9.09000E+01 3.31130E+01 0.00000E+00
 -1      3785 9.24000E+01 3.31130E+01 0.00000E+00
 -1      3786 9.01500E+01 3.18140E+01 0.00000E+00
 -1      3787 9.39000E+01 3.31130E+01 0.00000E+00
 -1      3788 9.54000E+01 3.31130E+01 0.00000E+00
 -1      3789 9.31500E+01 3.18140E+01 0.00000E+00
 -1      3790 9.69000E+01 3.31130E+01 0.00000E+00
 -1      3791 9.84000E+01 3.31130E+01 0.00000E+00
 -1      3792 9.61500E+01 3.18140E+01 0.00000E+00
 -1      3793 1.88306E+01 1.26499E+01 0.00000E+00
 -1      3794 1.75125E+01 1.25001E+01 0.00000E+00
 -1      3795 1.71263E+01 1.34996E+01 0.00000E+00
 -1      3796 1.93988E+01 1.40987E+01 0.00000E+00
 -1      3797 1.42890E+01 2.57109E+01 0.00000E+00
 -1      3798 1.42890E+01 2.71828E+01 0.00000E+00
 -1      3799 1.55880E+01 2.79172E+01 0.00000E+00
 -1      3800 1.55880E+01 2.49766E+01 0.00000E+00
 -1      3801 5.87850E+01 1.56973E+01 0.00000E+00
 -1      3802 5.72850E+01 1.56973E+01 0.00000E+00
 -1      3803 5.57850E+01 1.56973E+01 0.00000E+00
 -1      3804 5.42850E+01 1.56973E+01 0.00000E+00
 -1      3805 5.65350E+01 1.69963E+01 0.00000E+00
 -1      3806 5.27850E+01 1.56973E+01 0.00000E+00
 -1      3807 5.12850E+01 1.56973E+01 0.00000E+00
 -1      3808 5.35350E+01 1.69963E+01 0.00000E+00
 -1      3809 6.17850E+01 1.56973E+01 0.00000E+00
 -1      3810 6.02850E+01 1.56973E+01 0.00000E+00
 -1      3811 5.95350E+01 1.69963E+01 0.00000E+00
 -1      3812 6.47850E+01 1.56973E+01 0.00000E+00
 -1      3813 6.32850E+01 1.56973E+01 0.00000E+00
 -1      3814 6.25350E+01 1.69963E+01 0.00000E+00
 -1      3815 6.77850E+01 1.56973E+01 0.00000E+00
 -1      3816 6.62850E+01 1.56973E+01 0.00000E+00
 -1      3817 6.55350E+01 1.69963E+01 0.00000E+00
 -1      3818 7.07850E+01 1.56973E+01 0.00000E+00
 -1      3819 6.92850E+01 1.56973E+01 0.00000E+00
 -1      3820 6.85350E+01 1.69963E+01 0.00000E+00
 -1      3821 7.37850E+01 1.56973E+01 0.00000E+00
 -1      3822 7.22850E+01 1.56973E+01 0.00000E+00
 -1      3823 7.15350E+01 1.69963E+01 0.00000E+00
 -1      3824 7.67850E+01 1.56973E+01 0.00000E+00
 -1      3825 7.52850E+01 1.56973E+01 0.00000E+00
 -1      3826 7.45350E+01 1.69963E+01 0.00000E+00
 -1      3827 7.97850E+01 1.56973E+01 0.00000E+00
 -1      3828 7.82850E+01 1.56973E+01 0.00000E+00
 -1      3829 7.75350E+01 1.69963E+01 0.00000E+00
 -1      3830 8.27850E+01 1.56973E+01 0.00000E+00
 -1      3831 8.12850E+01 1.56973E+01 0.00000E+00
 -1      3832 8.05350E+01 1.69963E+01 0.00000E+00
 -1      3833 8.57850E+01 1.56973E+01 0.00000E+00
 -1      3834 8.42850E+01 1.56973E+01 0.00000E+00
 -1      3835 8.35350E+01 1.69963E+01 0.00000E+00
 -1      3836 8.87850E+01 1.56973E+01 0.00000E+00
 -1      3837 8.72850E+01 1.56973E+01 0.00000E+00
 -1      3838 8.65350E+01 1.69963E+01 0.00000E+00
 -1      3839 9.17850E+01 1.56973E+01 0.00000E+00
 -1      3840 9.02850E+01 1.56973E+01 0.00000E+00
 -1      3841 8.95350E+01 1.69963E+01 0.00000E+00
 -1      3842 9.47850E+01 1.56973E+01 0.00000E+00
 -1      3843 9.32850E+01 1.56973E+01 0.00000E+00
 -1      3844 9.25350E+01 1.69963E+01 0.00000E+00
 -1      3845 9.77850E+01 1.56973E+01 0.00000E+00
 -1      3846 9.62850E+01 1.56973E+01 0.00000E+00
 -1      3847 9.55350E+01 1.69963E+01 0.00000E+00
 -1      3848 1.00785E+02 1.56973E+01 0.00000E+00
 -1      3849 9.92850E+01 1.56973E+01 0.00000E+00
 -1      3850 9.85350E+01 1.69963E+01 0.00000E+00
 -1      3851 1.07710E+02 1.37730E+01 0.00000E+00
 -1      3852 2.19000E+01 3.31130E+01 0.00000E+00
 -1      3853 2.34000E+01 3.31130E+01 0.00000E+00
 -1      3854 2.49000E+01 3.31130E+01 0.00000E+00
 -1      3855 2.64000E+01 3.31130E+01 0.00000E+00
 -1      3856 2.41500E+01 3.18140E+01 0.00000E+00
 -1      3857 1.01258E+02 2.81985E+01 0.00000E+00
 -1      3858 1.00322E+02 2.72977E+01 0.00000E+00
 -1      3859 1.33720E+02 2.65462E+01 0.00000E+00
 -1      3860 2.27850E+01 1.56973E+01 0.00000E+00
 -1      3861 2.12851E+01 1.56973E+01 0.00000E+00
 -1      3862 2.35350E+01 1.69963E+01 0.00000E+00
 -1      3863 1.35514E+02 2.19375E+01 0.00000E+00
 -1      3864 1.70489E+01 3.18396E+01 0.00000E+00
 -1      3865 1.83299E+01 3.28831E+01 0.00000E+00
 -1      3866 1.33787E+02 3.02136E+01 0.00000E+00
 -1      3867 1.00068E+02 2.33958E+01 0.00000E+00
 -1      3868 1.01329E+02 2.25098E+01 0.00000E+00
 -1      3869 1.00788E+02 2.15625E+01 0.00000E+00
 -1      3870 9.93649E+01 2.56330E+01 0.00000E+00
 -1      3871 9.93292E+01 2.48106E+01 0.00000E+00
 -1      3872 3.17850E+01 1.56973E+01 0.00000E+00
 -1      3873 3.02850E+01 1.56973E+01 0.00000E+00
 -1      3874 1.01572E+02 1.79835E+01 0.00000E+00
 -1      3875 1.02011E+02 1.69678E+01 0.00000E+00
 -1      3876 1.57890E+01 1.54031E+01 0.00000E+00
 -1      3877 1.03740E+02 3.37596E+01 0.00000E+00
 -1      3878 1.35514E+02 2.04656E+01 0.00000E+00
 -1      3879 1.70489E+01 3.03709E+01 0.00000E+00
 -1      3880 4.97850E+01 1.56973E+01 0.00000E+00
 -1      3881 4.82850E+01 1.56973E+01 0.00000E+00
 -1      3882 5.05350E+01 1.69963E+01 0.00000E+00
 -1      3883 2.87850E+01 1.56973E+01 0.00000E+00
 -1      3884 2.72850E+01 1.56973E+01 0.00000E+00
 -1      3885 2.95350E+01 1.69963E+01 0.00000E+00
 -1      3886 4.07850E+01 1.56973E+01 0.00000E+00
 -1      3887 3.92850E+01 1.56973E+01 0.00000E+00
 -1      3888 1.02795E+02 3.32474E+01 0.00000E+00
 -1      3889 1.02819E+02 3.00714E+01 0.00000E+00
 -1      3890 1.02127E+02 2.90673E+01 0.00000E+00
 -1      3891 1.00832E+02 2.94764E+01 0.00000E+00
 -1      3892 1.02571E+02 3.12140E+01 0.00000E+00
 -1      3893 1.00915E+02 2.01994E+01 0.00000E+00
 -1      3894 1.01445E+02 1.93466E+01 0.00000E+00
 -1      3895 9.99077E+01 1.83593E+01 0.00000E+00
 -1      3896 9.96532E+01 2.10854E+01 0.00000E+00
 -1      3897 1.35041E+02 1.58829E+01 0.00000E+00
 -1      3898 1.98299E+01 3.28831E+01 0.00000E+00
 -1      3899 2.65350E+01 1.69963E+01 0.00000E+00
 -1      3900 9.96756E+01 3.10796E+01 0.00000E+00
 -1      3901 1.00426E+02 3.23786E+01 0.00000E+00
 -1      3902 1.96358E+01 1.55046E+01 0.00000E+00
 -1      3903 1.84995E+01 1.52050E+01 0.00000E+00
 -1      3904 1.01926E+02 3.23786E+01 0.00000E+00
 -1      3905 2.71500E+01 3.18140E+01 0.00000E+00
 -1      3906 1.02761E+02 1.56688E+01 0.00000E+00
 -1      3907 2.05799E+01 3.15841E+01 0.00000E+00
 -1      3908 4.37850E+01 1.56973E+01 0.00000E+00
 -1      3909 4.22850E+01 1.56973E+01 0.00000E+00
 -1      3910 4.15350E+01 1.69963E+01 0.00000E+00
 -1      3911 4.75350E+01 1.69963E+01 0.00000E+00
 -1      3912 4.67850E+01 1.56973E+01 0.00000E+00
 -1      3913 4.52850E+01 1.56973E+01 0.00000E+00
 -1      3914 3.77850E+01 1.56973E+01 0.00000E+00
 -1      3915 3.62850E+01 1.56973E+01 0.00000E+00
 -1      3916 3.85350E+01 1.69963E+01 0.00000E+00
 -1      3917 2.03858E+01 1.68036E+01 0.00000E+00
 -1      3918 9.87876E+01 2.38633E+01 0.00000E+00
 -1      3919 1.70489E+01 2.74302E+01 0.00000E+00
 -1      3920 1.70489E+01 2.89006E+01 0.00000E+00
 -1      3921 1.85098E+01 2.98839E+01 0.00000E+00
 -1      3922 9.90059E+01 2.69428E+01 0.00000E+00
 -1      3923 1.68870E+01 2.12938E+01 0.00000E+00
 -1      3924 1.68870E+01 2.27687E+01 0.00000E+00
 -1      3925 3.47850E+01 1.56973E+01 0.00000E+00
 -1      3926 3.32850E+01 1.56973E+01 0.00000E+00
 -1      3927 3.55350E+01 1.69963E+01 0.00000E+00
 -1      3928 3.25350E+01 1.69963E+01 0.00000E+00
 -1      3929 1.71622E+01 1.85836E+01 0.00000E+00
 -1      3930 1.84613E+01 1.93211E+01 0.00000E+00
 -1      3931 9.88063E+01 3.02108E+01 0.00000E+00
 -1      3932 5.72850E+01 1.82952E+01 0.00000E+00
 -1      3933 5.57850E+01 1.82952E+01 0.00000E+00
 -1      3934 1.04261E+02 1.56688E+01 0.00000E+00
 -1      3935 1.69253E+01 1.57027E+01 0.00000E+00
 -1      3936 1.71622E+01 1.71086E+01 0.00000E+00
 -1      3937 3.24000E+01 3.05150E+01 0.00000E+00
 -1      3938 3.39000E+01 3.05150E+01 0.00000E+00
 -1      3939 3.54000E+01 3.05150E+01 0.00000E+00
 -1      3940 3.69000E+01 3.05150E+01 0.00000E+00
 -1      3941 3.46500E+01 2.92160E+01 0.00000E+00
 -1      3942 3.84000E+01 3.05150E+01 0.00000E+00
 -1      3943 3.99000E+01 3.05150E+01 0.00000E+00
 -1      3944 3.76500E+01 2.92160E+01 0.00000E+00
 -1      3945 4.14000E+01 3.05150E+01 0.00000E+00
 -1      3946 4.29000E+01 3.05150E+01 0.00000E+00
 -1      3947 4.06500E+01 2.92160E+01 0.00000E+00
 -1      3948 4.44000E+01 3.05150E+01 0.00000E+00
 -1      3949 4.59000E+01 3.05150E+01 0.00000E+00
 -1      3950 4.36500E+01 2.92160E+01 0.00000E+00
 -1      3951 4.74000E+01 3.05150E+01 0.00000E+00
 -1      3952 4.89000E+01 3.05150E+01 0.00000E+00
 -1      3953 4.66500E+01 2.92160E+01 0.00000E+00
 -1      3954 5.04000E+01 3.05150E+01 0.00000E+00
 -1      3955 5.19000E+01 3.05150E+01 0.00000E+00
 -1      3956 4.96500E+01 2.92160E+01 0.00000E+00
 -1      3957 5.34000E+01 3.05150E+01 0.00000E+00
 -1      3958 5.49000E+01 3.05150E+01 0.00000E+00
 -1      3959 5.26500E+01 2.92160E+01 0.00000E+00
 -1      3960 5.64000E+01 3.05150E+01 0.00000E+00
 -1      3961 5.79000E+01 3.05150E+01 0.00000E+00
 -1      3962 5.56500E+01 2.92160E+01 0.00000E+00
 -1      3963 5.94000E+01 3.05150E+01 0.00000E+00
 -1      3964 6.09000E+01 3.05150E+01 0.00000E+00
 -1      3965 5.86500E+01 2.92160E+01 0.00000E+00
 -1      3966 6.24000E+01 3.05150E+01 0.00000E+00
 -1      3967 6.39000E+01 3.05150E+01 0.00000E+00
 -1      3968 6.16500E+01 2.92160E+01 0.00000E+00
 -1      3969 6.54000E+01 3.05150E+01 0.00000E+00
 -1      3970 6.69000E+01 3.05150E+01 0.00000E+00
 -1      3971 6.46500E+01 2.92160E+01 0.00000E+00
 -1      3972 6.84000E+01 3.05150E+01 0.00000E+00
 -1      3973 6.99000E+01 3.05150E+01 0.00000E+00
 -1      3974 6.76500E+01 2.92160E+01 0.00000E+00
 -1      3975 7.14000E+01 3.05150E+01 0.00000E+00
 -1      3976 7.29000E+01 3.05150E+01 0.00000E+00
 -1      3977 7.06500E+01 2.92160E+01 0.00000E+00
 -1      3978 7.44000E+01 3.05150E+01 0.00000E+00
 -1      3979 7.59000E+01 3.05150E+01 0.00000E+00
 -1      3980 7.36500E+01 2.92160E+01 0.00000E+00
 -1      3981 7.74000E+01 3.05150E+01 0.00000E+00
 -1      3982 7.89000E+01 3.05150E+01 0.00000E+00
 -1      3983 7.66500E+01 2.92160E+01 0.00000E+00
 -1      3984 8.04000E+01 3.05150E+01 0.00000E+00
 -1      3985 8.19000E+01 3.05150E+01 0.00000E+00
 -1      3986 7.96500E+01 2.92160E+01 0.00000E+00
 -1      3987 8.34000E+01 3.05150E+01 0.00000E+00
 -1      3988 8.49000E+01 3.05150E+01 0.00000E+00
 -1      3989 8.26500E+01 2.92160E+01 0.00000E+00
 -1      3990 8.64000E+01 3.05150E+01 0.00000E+00
 -1      3991 8.79000E+01 3.05150E+01 0.00000E+00
 -1      3992 8.56500E+01 2.92160E+01 0.00000E+00
 -1      3993 8.94000E+01 3.05150E+01 0.00000E+00
 -1      3994 9.09000E+01 3.05150E+01 0.00000E+00
 -1      3995 8.86500E+01 2.92160E+01 0.00000E+00
 -1      3996 9.24000E+01 3.05150E+01 0.00000E+00
 -1      3997 9.39000E+01 3.05150E+01 0.00000E+00
 -1      3998 9.16500E+01 2.92160E+01 0.00000E+00
 -1      3999 9.54000E+01 3.05150E+01 0.00000E+00
 -1      4000 9.69000E+01 3.05150E+01 0.00000E+00
 -1      4001 9.46500E+01 2.92160E+01 0.00000E+00
 -1      4002 6.02850E+01 1.82952E+01 0.00000E+00
 -1      4003 5.87850E+01 1.82952E+01 0.00000E+00
 -1      4004 5.80350E+01 1.95942E+01 0.00000E+00
 -1      4005 2.94000E+01 3.05150E+01 0.00000E+00
 -1      4006 3.09000E+01 3.05150E+01 0.00000E+00
 -1      4007 3.16500E+01 2.92160E+01 0.00000E+00
 -1      4008 5.42850E+01 1.82952E+01 0.00000E+00
 -1      4009 5.27850E+01 1.82952E+01 0.00000E+00
 -1      4010 5.50350E+01 1.95942E+01 0.00000E+00
 -1      4011 6.62850E+01 1.82952E+01 0.00000E+00
 -1      4012 6.47850E+01 1.82952E+01 0.00000E+00
 -1      4013 6.92850E+01 1.82952E+01 0.00000E+00
 -1      4014 6.77850E+01 1.82952E+01 0.00000E+00
 -1      4015 6.70350E+01 1.95942E+01 0.00000E+00
 -1      4016 7.22850E+01 1.82952E+01 0.00000E+00
 -1      4017 7.07850E+01 1.82952E+01 0.00000E+00
 -1      4018 7.00350E+01 1.95942E+01 0.00000E+00
 -1      4019 7.52850E+01 1.82952E+01 0.00000E+00
 -1      4020 7.37850E+01 1.82952E+01 0.00000E+00
 -1      4021 7.30350E+01 1.95942E+01 0.00000E+00
 -1      4022 7.82850E+01 1.82952E+01 0.00000E+00
 -1      4023 7.67850E+01 1.82952E+01 0.00000E+00
 -1      4024 7.60350E+01 1.95942E+01 0.00000E+00
 -1      4025 8.12850E+01 1.82952E+01 0.00000E+00
 -1      4026 7.97850E+01 1.82952E+01 0.00000E+00
 -1      4027 7.90350E+01 1.95942E+01 0.00000E+00
 -1      4028 8.42850E+01 1.82952E+01 0.00000E+00
 -1      4029 8.27850E+01 1.82952E+01 0.00000E+00
 -1      4030 8.20350E+01 1.95942E+01 0.00000E+00
 -1      4031 8.72850E+01 1.82952E+01 0.00000E+00
 -1      4032 8.57850E+01 1.82952E+01 0.00000E+00
 -1      4033 8.50350E+01 1.95942E+01 0.00000E+00
 -1      4034 9.02850E+01 1.82952E+01 0.00000E+00
 -1      4035 8.87850E+01 1.82952E+01 0.00000E+00
 -1      4036 8.80350E+01 1.95942E+01 0.00000E+00
 -1      4037 9.32850E+01 1.82952E+01 0.00000E+00
 -1      4038 9.17850E+01 1.82952E+01 0.00000E+00
 -1      4039 9.10350E+01 1.95942E+01 0.00000E+00
 -1      4040 9.62850E+01 1.82952E+01 0.00000E+00
 -1      4041 9.47850E+01 1.82952E+01 0.00000E+00
 -1      4042 9.40350E+01 1.95942E+01 0.00000E+00
 -1      4043 9.84077E+01 1.83593E+01 0.00000E+00
 -1      4044 2.34000E+01 3.05150E+01 0.00000E+00
 -1      4045 2.49000E+01 3.05150E+01 0.00000E+00
 -1      4046 2.42850E+01 1.82953E+01 0.00000E+00
 -1      4047 2.27851E+01 1.82953E+01 0.00000E+00
 -1      4048 6.32850E+01 1.82952E+01 0.00000E+00
 -1      4049 6.17850E+01 1.82952E+01 0.00000E+00
 -1      4050 6.10350E+01 1.95942E+01 0.00000E+00
 -1      4051 9.80563E+01 2.89118E+01 0.00000E+00
 -1      4052 3.32850E+01 1.82952E+01 0.00000E+00
 -1      4053 3.17850E+01 1.82952E+01 0.00000E+00
 -1      4054 5.12850E+01 1.82952E+01 0.00000E+00
 -1      4055 4.97850E+01 1.82952E+01 0.00000E+00
 -1      4056 5.20350E+01 1.95942E+01 0.00000E+00
 -1      4057 9.70996E+01 2.72470E+01 0.00000E+00
 -1      4058 1.68870E+01 2.42391E+01 0.00000E+00
 -1      4059 1.68870E+01 2.57094E+01 0.00000E+00
 -1      4060 1.81860E+01 2.35016E+01 0.00000E+00
 -1      4061 1.99199E+01 3.00845E+01 0.00000E+00
 -1      4062 2.19900E+01 3.03144E+01 0.00000E+00
 -1      4063 2.27400E+01 2.90154E+01 0.00000E+00
 -1      4064 1.99199E+01 2.86142E+01 0.00000E+00
 -1      4065 3.02850E+01 1.82952E+01 0.00000E+00
 -1      4066 2.87850E+01 1.82952E+01 0.00000E+00
 -1      4067 3.10350E+01 1.95942E+01 0.00000E+00
 -1      4068 2.64000E+01 3.05150E+01 0.00000E+00
 -1      4069 2.79000E+01 3.05150E+01 0.00000E+00
 -1      4070 2.86500E+01 2.92160E+01 0.00000E+00
 -1      4071 9.72668E+01 2.39697E+01 0.00000E+00
 -1      4072 9.80051E+01 2.25549E+01 0.00000E+00
 -1      4073 2.72850E+01 1.82953E+01 0.00000E+00
 -1      4074 2.57850E+01 1.82953E+01 0.00000E+00
 -1      4075 2.50350E+01 1.95943E+01 0.00000E+00
 -1      4076 2.80350E+01 1.95943E+01 0.00000E+00
 -1      4077 9.54836E+01 2.75773E+01 0.00000E+00
 -1      4078 9.64332E+01 2.56084E+01 0.00000E+00
 -1      4079 9.56507E+01 2.43000E+01 0.00000E+00
 -1      4080 9.39836E+01 2.75773E+01 0.00000E+00
 -1      4081 9.81324E+01 2.11918E+01 0.00000E+00
 -1      4082 9.76577E+01 1.96583E+01 0.00000E+00
 -1      4083 6.40350E+01 1.95942E+01 0.00000E+00
 -1      4084 4.45350E+01 1.69963E+01 0.00000E+00
 -1      4085 2.20351E+01 1.95943E+01 0.00000E+00
 -1      4086 2.12851E+01 1.82953E+01 0.00000E+00
 -1      4087 4.82850E+01 1.82952E+01 0.00000E+00
 -1      4088 4.67850E+01 1.82952E+01 0.00000E+00
 -1      4089 4.90350E+01 1.95942E+01 0.00000E+00
 -1      4090 3.92850E+01 1.82952E+01 0.00000E+00
 -1      4091 3.77850E+01 1.82952E+01 0.00000E+00
 -1      4092 2.56500E+01 2.92160E+01 0.00000E+00
 -1      4093 1.83479E+01 2.66927E+01 0.00000E+00
 -1      4094 3.62850E+01 1.82952E+01 0.00000E+00
 -1      4095 3.47850E+01 1.82952E+01 0.00000E+00
 -1      4096 3.70350E+01 1.95942E+01 0.00000E+00
 -1      4097 1.96358E+01 1.81026E+01 0.00000E+00
 -1      4098 1.93606E+01 2.08128E+01 0.00000E+00
 -1      4099 2.08831E+01 2.11051E+01 0.00000E+00
 -1      4100 1.97085E+01 2.23235E+01 0.00000E+00
 -1      4101 1.97085E+01 2.37939E+01 0.00000E+00
 -1      4102 3.40350E+01 1.95942E+01 0.00000E+00
 -1      4103 4.22850E+01 1.82952E+01 0.00000E+00
 -1      4104 4.07850E+01 1.82952E+01 0.00000E+00
 -1      4105 4.00350E+01 1.95942E+01 0.00000E+00
 -1      4106 3.09000E+01 2.79170E+01 0.00000E+00
 -1      4107 3.24000E+01 2.79170E+01 0.00000E+00
 -1      4108 3.39000E+01 2.79170E+01 0.00000E+00
 -1      4109 3.54000E+01 2.79170E+01 0.00000E+00
 -1      4110 3.31500E+01 2.66180E+01 0.00000E+00
 -1      4111 3.69000E+01 2.79170E+01 0.00000E+00
 -1      4112 3.84000E+01 2.79170E+01 0.00000E+00
 -1      4113 3.61500E+01 2.66180E+01 0.00000E+00
 -1      4114 3.99000E+01 2.79170E+01 0.00000E+00
 -1      4115 4.14000E+01 2.79170E+01 0.00000E+00
 -1      4116 3.91500E+01 2.66180E+01 0.00000E+00
 -1      4117 4.29000E+01 2.79170E+01 0.00000E+00
 -1      4118 4.44000E+01 2.79170E+01 0.00000E+00
 -1      4119 4.21500E+01 2.66180E+01 0.00000E+00
 -1      4120 4.59000E+01 2.79170E+01 0.00000E+00
 -1      4121 4.74000E+01 2.79170E+01 0.00000E+00
 -1      4122 4.51500E+01 2.66180E+01 0.00000E+00
 -1      4123 4.89000E+01 2.79170E+01 0.00000E+00
 -1      4124 5.04000E+01 2.79170E+01 0.00000E+00
 -1      4125 4.81500E+01 2.66180E+01 0.00000E+00
 -1      4126 5.19000E+01 2.79170E+01 0.00000E+00
 -1      4127 5.34000E+01 2.79170E+01 0.00000E+00
 -1      4128 5.11500E+01 2.66180E+01 0.00000E+00
 -1      4129 5.49000E+01 2.79170E+01 0.00000E+00
 -1      4130 5.64000E+01 2.79170E+01 0.00000E+00
 -1      4131 5.41500E+01 2.66180E+01 0.00000E+00
 -1      4132 5.79000E+01 2.79170E+01 0.00000E+00
 -1      4133 5.94000E+01 2.79170E+01 0.00000E+00
 -1      4134 5.71500E+01 2.66180E+01 0.00000E+00
 -1      4135 6.09000E+01 2.79170E+01 0.00000E+00
 -1      4136 6.24000E+01 2.79170E+01 0.00000E+00
 -1      4137 6.01500E+01 2.66180E+01 0.00000E+00
 -1      4138 6.39000E+01 2.79170E+01 0.00000E+00
 -1      4139 6.54000E+01 2.79170E+01 0.00000E+00
 -1      4140 6.31500E+01 2.66180E+01 0.00000E+00
 -1      4141 6.69000E+01 2.79170E+01 0.00000E+00
 -1      4142 6.84000E+01 2.79170E+01 0.00000E+00
 -1      4143 6.61500E+01 2.66180E+01 0.00000E+00
 -1      4144 6.99000E+01 2.79170E+01 0.00000E+00
 -1      4145 7.14000E+01 2.79170E+01 0.00000E+00
 -1      4146 6.91500E+01 2.66180E+01 0.00000E+00
 -1      4147 7.29000E+01 2.79170E+01 0.00000E+00
 -1      4148 7.44000E+01 2.79170E+01 0.00000E+00
 -1      4149 7.21500E+01 2.66180E+01 0.00000E+00
 -1      4150 7.59000E+01 2.79170E+01 0.00000E+00
 -1      4151 7.74000E+01 2.79170E+01 0.00000E+00
 -1      4152 7.51500E+01 2.66180E+01 0.00000E+00
 -1      4153 7.89000E+01 2.79170E+01 0.00000E+00
 -1      4154 8.04000E+01 2.79170E+01 0.00000E+00
 -1      4155 7.81500E+01 2.66180E+01 0.00000E+00
 -1      4156 8.19000E+01 2.79170E+01 0.00000E+00
 -1      4157 8.34000E+01 2.79170E+01 0.00000E+00
 -1      4158 8.11500E+01 2.66180E+01 0.00000E+00
 -1      4159 8.49000E+01 2.79170E+01 0.00000E+00
 -1      4160 8.64000E+01 2.79170E+01 0.00000E+00
 -1      4161 8.41500E+01 2.66180E+01 0.00000E+00
 -1      4162 8.79000E+01 2.79170E+01 0.00000E+00
 -1      4163 8.94000E+01 2.79170E+01 0.00000E+00
 -1      4164 8.71500E+01 2.66180E+01 0.00000E+00
 -1      4165 9.09418E+01 2.77472E+01 0.00000E+00
 -1      4166 9.24418E+01 2.77472E+01 0.00000E+00
 -1      4167 9.32754E+01 2.61085E+01 0.00000E+00
 -1      4168 9.01918E+01 2.64482E+01 0.00000E+00
 -1      4169 9.60097E+01 2.11278E+01 0.00000E+00
 -1      4170 7.37850E+01 2.08932E+01 0.00000E+00
 -1      4171 7.22850E+01 2.08932E+01 0.00000E+00
 -1      4172 5.57850E+01 2.08932E+01 0.00000E+00
 -1      4173 5.42850E+01 2.08932E+01 0.00000E+00
 -1      4174 7.07850E+01 2.08932E+01 0.00000E+00
 -1      4175 6.92850E+01 2.08932E+01 0.00000E+00
 -1      4176 7.15350E+01 2.21922E+01 0.00000E+00
 -1      4177 6.77850E+01 2.08932E+01 0.00000E+00
 -1      4178 6.62850E+01 2.08932E+01 0.00000E+00
 -1      4179 6.85350E+01 2.21922E+01 0.00000E+00
 -1      4180 7.67850E+01 2.08932E+01 0.00000E+00
 -1      4181 7.52850E+01 2.08932E+01 0.00000E+00
 -1      4182 7.45350E+01 2.21922E+01 0.00000E+00
 -1      4183 7.97850E+01 2.08932E+01 0.00000E+00
 -1      4184 7.82850E+01 2.08932E+01 0.00000E+00
 -1      4185 7.75350E+01 2.21922E+01 0.00000E+00
 -1      4186 8.27850E+01 2.08932E+01 0.00000E+00
 -1      4187 8.12850E+01 2.08932E+01 0.00000E+00
 -1      4188 8.05350E+01 2.21922E+01 0.00000E+00
 -1      4189 8.57850E+01 2.08932E+01 0.00000E+00
 -1      4190 8.42850E+01 2.08932E+01 0.00000E+00
 -1      4191 8.35350E+01 2.21922E+01 0.00000E+00
 -1      4192 8.87850E+01 2.08932E+01 0.00000E+00
 -1      4193 8.72850E+01 2.08932E+01 0.00000E+00
 -1      4194 8.65350E+01 2.21922E+01 0.00000E+00
 -1      4195 9.17850E+01 2.08932E+01 0.00000E+00
 -1      4196 9.02850E+01 2.08932E+01 0.00000E+00
 -1      4197 8.95350E+01 2.21922E+01 0.00000E+00
 -1      4198 9.46473E+01 2.10105E+01 0.00000E+00
 -1      4199 9.31473E+01 2.10105E+01 0.00000E+00
 -1      4200 9.23973E+01 2.23095E+01 0.00000E+00
 -1      4201 9.51220E+01 2.25441E+01 0.00000E+00
 -1      4202 6.47850E+01 2.08932E+01 0.00000E+00
 -1      4203 6.32850E+01 2.08932E+01 0.00000E+00
 -1      4204 6.55350E+01 2.21922E+01 0.00000E+00
 -1      4205 3.17850E+01 2.08932E+01 0.00000E+00
 -1      4206 3.02850E+01 2.08932E+01 0.00000E+00
 -1      4207 2.23830E+01 2.11050E+01 0.00000E+00
 -1      4208 2.49000E+01 2.79170E+01 0.00000E+00
 -1      4209 2.64000E+01 2.79170E+01 0.00000E+00
 -1      4210 6.17850E+01 2.08932E+01 0.00000E+00
 -1      4211 6.02850E+01 2.08932E+01 0.00000E+00
 -1      4212 6.25350E+01 2.21922E+01 0.00000E+00
 -1      4213 3.77850E+01 2.08932E+01 0.00000E+00
 -1      4214 3.62850E+01 2.08932E+01 0.00000E+00
 -1      4215 1.97332E+01 2.53436E+01 0.00000E+00
 -1      4216 1.98951E+01 2.70645E+01 0.00000E+00
 -1      4217 2.13052E+01 2.72651E+01 0.00000E+00
 -1      4218 2.12557E+01 2.41656E+01 0.00000E+00
 -1      4219 4.52850E+01 1.82952E+01 0.00000E+00
 -1      4220 4.37850E+01 1.82952E+01 0.00000E+00
 -1      4221 4.30350E+01 1.95942E+01 0.00000E+00
 -1      4222 5.27850E+01 2.08932E+01 0.00000E+00
 -1      4223 5.12850E+01 2.08932E+01 0.00000E+00
 -1      4224 5.35350E+01 2.21922E+01 0.00000E+00
 -1      4225 3.47850E+01 2.08932E+01 0.00000E+00
 -1      4226 3.32850E+01 2.08932E+01 0.00000E+00
 -1      4227 3.25350E+01 2.21922E+01 0.00000E+00
 -1      4228 3.55350E+01 2.21922E+01 0.00000E+00
 -1      4229 5.87850E+01 2.08932E+01 0.00000E+00
 -1      4230 5.72850E+01 2.08932E+01 0.00000E+00
 -1      4231 5.65350E+01 2.21922E+01 0.00000E+00
 -1      4232 5.95350E+01 2.21922E+01 0.00000E+00
 -1      4233 2.79000E+01 2.79170E+01 0.00000E+00
 -1      4234 2.94000E+01 2.79170E+01 0.00000E+00
 -1      4235 2.71500E+01 2.66180E+01 0.00000E+00
 -1      4236 2.39920E+01 2.11373E+01 0.00000E+00
 -1      4237 2.28400E+01 2.26481E+01 0.00000E+00
 -1      4238 9.42884E+01 2.41827E+01 0.00000E+00
 -1      4239 4.97850E+01 2.08932E+01 0.00000E+00
 -1      4240 4.82850E+01 2.08932E+01 0.00000E+00
 -1      4241 5.05350E+01 2.21922E+01 0.00000E+00
 -1      4242 4.60350E+01 1.95942E+01 0.00000E+00
 -1      4243 2.95350E+01 2.21923E+01 0.00000E+00
 -1      4244 2.87850E+01 2.08933E+01 0.00000E+00
 -1      4245 2.72850E+01 2.08933E+01 0.00000E+00
 -1      4246 3.01500E+01 2.66180E+01 0.00000E+00
 -1      4247 3.92850E+01 2.08932E+01 0.00000E+00
 -1      4248 3.85350E+01 2.21922E+01 0.00000E+00
 -1      4249 4.07850E+01 2.08932E+01 0.00000E+00
 -1      4250 2.28647E+01 2.41978E+01 0.00000E+00
 -1      4251 2.23976E+01 2.74907E+01 0.00000E+00
 -1      4252 2.38076E+01 2.76913E+01 0.00000E+00
 -1      4253 2.45576E+01 2.63923E+01 0.00000E+00
 -1      4254 2.23729E+01 2.59410E+01 0.00000E+00
 -1      4255 2.54920E+01 2.11373E+01 0.00000E+00
 -1      4256 2.64000E+01 2.53190E+01 0.00000E+00
 -1      4257 2.79000E+01 2.53190E+01 0.00000E+00
 -1      4258 3.58425E+01 2.44051E+01 0.00000E+00
 -1      4259 3.73425E+01 2.44051E+01 0.00000E+00
 -1      4260 3.88425E+01 2.44051E+01 0.00000E+00
 -1      4261 4.03425E+01 2.44051E+01 0.00000E+00
 -1      4262 4.44000E+01 2.53190E+01 0.00000E+00
 -1      4263 4.59000E+01 2.53190E+01 0.00000E+00
 -1      4264 4.78425E+01 2.44051E+01 0.00000E+00
 -1      4265 4.93425E+01 2.44051E+01 0.00000E+00
 -1      4266 5.08425E+01 2.44051E+01 0.00000E+00
 -1      4267 5.23425E+01 2.44051E+01 0.00000E+00
 -1      4268 5.38425E+01 2.44051E+01 0.00000E+00
 -1      4269 5.53425E+01 2.44051E+01 0.00000E+00
 -1      4270 5.68425E+01 2.44051E+01 0.00000E+00
 -1      4271 5.83425E+01 2.44051E+01 0.00000E+00
 -1      4272 5.98425E+01 2.44051E+01 0.00000E+00
 -1      4273 6.13425E+01 2.44051E+01 0.00000E+00
 -1      4274 6.28425E+01 2.44051E+01 0.00000E+00
 -1      4275 6.43425E+01 2.44051E+01 0.00000E+00
 -1      4276 6.58425E+01 2.44051E+01 0.00000E+00
 -1      4277 6.73425E+01 2.44051E+01 0.00000E+00
 -1      4278 6.88425E+01 2.44051E+01 0.00000E+00
 -1      4279 7.03425E+01 2.44051E+01 0.00000E+00
 -1      4280 7.18425E+01 2.44051E+01 0.00000E+00
 -1      4281 7.33425E+01 2.44051E+01 0.00000E+00
 -1      4282 7.48425E+01 2.44051E+01 0.00000E+00
 -1      4283 7.63425E+01 2.44051E+01 0.00000E+00
 -1      4284 7.78425E+01 2.44051E+01 0.00000E+00
 -1      4285 7.93425E+01 2.44051E+01 0.00000E+00
 -1      4286 8.08425E+01 2.44051E+01 0.00000E+00
 -1      4287 8.23425E+01 2.44051E+01 0.00000E+00
 -1      4288 8.38425E+01 2.44051E+01 0.00000E+00
 -1      4289 8.53425E+01 2.44051E+01 0.00000E+00
 -1      4290 8.68425E+01 2.44051E+01 0.00000E+00
 -1      4291 8.83425E+01 2.44051E+01 0.00000E+00
 -1      4292 8.98425E+01 2.44051E+01 0.00000E+00
 -1      4293 9.27466E+01 2.43526E+01 0.00000E+00
 -1      4294 9.13843E+01 2.42353E+01 0.00000E+00
 -1      4295 3.43425E+01 2.44051E+01 0.00000E+00
 -1      4296 2.62420E+01 2.24363E+01 0.00000E+00
 -1      4297 4.37850E+01 2.08932E+01 0.00000E+00
 -1      4298 4.22850E+01 2.08932E+01 0.00000E+00
 -1      4299 4.15350E+01 2.21922E+01 0.00000E+00
 -1      4300 3.28425E+01 2.44051E+01 0.00000E+00
 -1      4301 4.67850E+01 2.08932E+01 0.00000E+00
 -1      4302 4.52850E+01 2.08932E+01 0.00000E+00
 -1      4303 4.45350E+01 2.21922E+01 0.00000E+00
 -1      4304 4.75350E+01 2.21922E+01 0.00000E+00
 -1      4305 2.98425E+01 2.44051E+01 0.00000E+00
 -1      4306 3.13425E+01 2.44051E+01 0.00000E+00
 -1      4307 4.18425E+01 2.44051E+01 0.00000E+00
 -1      4308 4.33425E+01 2.44051E+01 0.00000E+00
 -1      4309 2.75925E+01 2.31061E+01 0.00000E+00
 -1      4310 2.57995E+01 2.33502E+01 0.00000E+00
 -1      4311 2.90925E+01 2.31061E+01 0.00000E+00
 -1      4312 2.39571E+01 2.44235E+01 0.00000E+00
 -1      4313 2.50495E+01 2.46492E+01 0.00000E+00
 -1      4314 4.70925E+01 2.31061E+01 0.00000E+00
 -1      4315 4.40925E+01 2.31061E+01 0.00000E+00
 -1      4316 4.55925E+01 2.31061E+01 0.00000E+00
 -3
    3C                          2076                                     1
 -1       165    8    0    1
 -2         6         7        23      1121      1285      1138
 -1       166    8    0    1
 -2         7         8       165      1122      1286      1287
 -1       167    8    0    1
 -2         8         9       166      1123      1288      1289
 -1       168    8    0    1
 -2         8       166       165      1289      1290      1286
 -1       169    8    0    1
 -2         9        10       167      1124      1291      1292
 -1       170    8    0    1
 -2         9       167       166      1292      1293      1288
 -1       171    8    0    1
 -2        10        11       168      1125      1294      1295
 -1       172    8    0    1
 -2        10       168       167      1295      1296      1291
 -1       173    8    0    1
 -2        11        12       169      1126      1297      1298
 -1       174    8    0    1
 -2        11       169       168      1298      1299      1294
 -1       175    8    0    1
 -2        12        13       170      1127      1300      1301
 -1       176    8    0    1
 -2        12       170       169      1301      1302      1297
 -1       177    8    0    1
 -2        13        14       171      1128      1303      1304
 -1       178    8    0    1
 -2        13       171       170      1304      1305      1300
 -1       179    8    0    1
 -2        14        15       172      1129      1306      1307
 -1       180    8    0    1
 -2        14       172       171      1307      1308      1303
 -1       181    8    0    1
 -2        15        16       173      1130      1309      1310
 -1       182    8    0    1
 -2        15       173       172      1310      1311      1306
 -1       183    8    0    1
 -2        16        17       174      1131      1312      1313
 -1       184    8    0    1
 -2        16       174       173      1313      1314      1309
 -1       185    8    0    1
 -2        17        18       175      1132      1315      1316
 -1       186    8    0    1
 -2        17       175       174      1316      1317      1312
 -1       187    8    0    1
 -2        18        19       176      1133      1318      1319
 -1       188    8    0    1
 -2        18       176       175      1319      1320      1315
 -1       189    8    0    1
 -2        19        20       177      1134      1321      1322
 -1       190    8    0    1
 -2        19       177       176      1322      1323      1318
 -1       191    8    0    1
 -2        20        21       178      1135      1324      1325
 -1       192    8    0    1
 -2        20       178       177      1325      1326      1321
 -1       193    8    0    1
 -2        21        22       179      1136      1327      1328
 -1       194    8    0    1
 -2        21       179       178      1328      1329      1324
 -1       195    8    0    1
 -2        22         5       180      1137      1330      1331
 -1       196    8    0    1
 -2       179        22       180      1327      1331      1332
 -1       197    8    0    1
 -2         5        72       180      1188      1333      1330
 -1       198    8    0    1
 -2        24        23       181      1139      1334      1335
 -1       199    8    0    1
 -2        25        24       182      1140      1336      1337
 -1       200    8    0    1
 -2        24       181       182      1335      1338      1336
 -1       201    8    0    1
 -2        26        25       183      1141      1339      1340
 -1       202    8    0    1
 -2        25       182       183      1337      1341      1339
 -1       203    8    0    1
 -2        27        26       184      1142      1342      1343
 -1       204    8    0    1
 -2        26       183       184      1340      1344      1342
 -1       205    8    0    1
 -2        28        27       185      1143      1345      1346
 -1       206    8    0    1
 -2        27       184       185      1343      1347      1345
 -1       207    8    0    1
 -2        29        28       186      1144      1348      1349
 -1       208    8    0    1
 -2        28       185       186      1346      1350      1348
 -1       209    8    0    1
 -2        30        29       187      1145      1351      1352
 -1       210    8    0    1
 -2        29       186       187      1349      1353      1351
 -1       211    8    0    1
 -2        31        30       188      1146      1354      1355
 -1       212    8    0    1
 -2        30       187       188      1352      1356      1354
 -1       213    8    0    1
 -2        32        31       189      1147      1357      1358
 -1       214    8    0    1
 -2        31       188       189      1355      1359      1357
 -1       215    8    0    1
 -2        33        32       190      1148      1360      1361
 -1       216    8    0    1
 -2        32       189       190      1358      1362      1360
 -1       217    8    0    1
 -2        34        33       191      1149      1363      1364
 -1       218    8    0    1
 -2        33       190       191      1361      1365      1363
 -1       219    8    0    1
 -2        35        34       192      1150      1366      1367
 -1       220    8    0    1
 -2        34       191       192      1364      1368      1366
 -1       221    8    0    1
 -2        36        35       193      1151      1369      1370
 -1       222    8    0    1
 -2        35       192       193      1367      1371      1369
 -1       223    8    0    1
 -2        37        36       194      1152      1372      1373
 -1       224    8    0    1
 -2        36       193       194      1370      1374      1372
 -1       225    8    0    1
 -2        38        37       195      1153      1375      1376
 -1       226    8    0    1
 -2        37       194       195      1373      1377      1375
 -1       227    8    0    1
 -2        39        38       196      1154      1378      1379
 -1       228    8    0    1
 -2        38       195       196      1376      1380      1378
 -1       229    8    0    1
 -2        40        39       197      1155      1381      1382
 -1       230    8    0    1
 -2        39       196       197      1379      1383      1381
 -1       231    8    0    1
 -2        41        40       198      1156      1384      1385
 -1       232    8    0    1
 -2        40       197       198      1382      1386      1384
 -1       233    8    0    1
 -2        42        41       199      1157      1387      1388
 -1       234    8    0    1
 -2        41       198       199      1385      1389      1387
 -1       235    8    0    1
 -2        43        42       200      1158      1390      1391
 -1       236    8    0    1
 -2        42       199       200      1388      1392      1390
 -1       237    8    0    1
 -2        44        43       201      1159      1393      1394
 -1       238    8    0    1
 -2        43       200       201      1391      1395      1393
 -1       239    8    0    1
 -2        45        44       202      1160      1396      1397
 -1       240    8    0    1
 -2        44       201       202      1394      1398      1396
 -1       241    8    0    1
 -2        46        45       203      1161      1399      1400
 -1       242    8    0    1
 -2        45       202       203      1397      1401      1399
 -1       243    8    0    1
 -2        47        46       204      1162      1402      1403
 -1       244    8    0    1
 -2        46       203       204      1400      1404      1402
 -1       245    8    0    1
 -2        48        47       205      1163      1405      1406
 -1       246    8    0    1
 -2        47       204       205      1403      1407      1405
 -1       247    8    0    1
 -2        49        48       206      1164      1408      1409
 -1       248    8    0    1
 -2        48       205       206      1406      1410      1408
 -1       249    8    0    1
 -2        50        49       207      1165      1411      1412
 -1       250    8    0    1
 -2        49       206       207      1409      1413      1411
 -1       251    8    0    1
 -2        51        50       208      1166      1414      1415
 -1       252    8    0    1
 -2        50       207       208      1412      1416      1414
 -1       253    8    0    1
 -2        52        51       209      1167      1417      1418
 -1       254    8    0    1
 -2        51       208       209      1415      1419      1417
 -1       255    8    0    1
 -2        53        52       210      1168      1420      1421
 -1       256    8    0    1
 -2        52       209       210      1418      1422      1420
 -1       257    8    0    1
 -2        54        53       211      1169      1423      1424
 -1       258    8    0    1
 -2        53       210       211      1421      1425      1423
 -1       259    8    0    1
 -2        55        54       212      1170      1426      1427
 -1       260    8    0    1
 -2        54       211       212      1424      1428      1426
 -1       261    8    0    1
 -2        56        55       213      1171      1429      1430
 -1       262    8    0    1
 -2        55       212       213      1427      1431      1429
 -1       263    8    0    1
 -2        57        56       214      1172      1432      1433
 -1       264    8    0    1
 -2        56       213       214      1430      1434      1432
 -1       265    8    0    1
 -2        58        57       215      1173      1435      1436
 -1       266    8    0    1
 -2        57       214       215      1433      1437      1435
 -1       267    8    0    1
 -2        59        58       216      1174      1438      1439
 -1       268    8    0    1
 -2        58       215       216      1436      1440      1438
 -1       269    8    0    1
 -2        60        59       217      1175      1441      1442
 -1       270    8    0    1
 -2        59       216       217      1439      1443      1441
 -1       271    8    0    1
 -2        61        60       218      1176      1444      1445
 -1       272    8    0    1
 -2        60       217       218      1442      1446      1444
 -1       273    8    0    1
 -2        62        61       219      1177      1447      1448
 -1       274    8    0    1
 -2        61       218       219      1445      1449      1447
 -1       275    8    0    1
 -2        63        62       220      1178      1450      1451
 -1       276    8    0    1
 -2        62       219       220      1448      1452      1450
 -1       277    8    0    1
 -2        64        63       221      1179      1453      1454
 -1       278    8    0    1
 -2        63       220       221      1451      1455      1453
 -1       279    8    0    1
 -2        65        64       222      1180      1456      1457
 -1       280    8    0    1
 -2        64       221       222      1454      1458      1456
 -1       281    8    0    1
 -2        66        65       223      1181      1459      1460
 -1       282    8    0    1
 -2        65       222       223      1457      1461      1459
 -1       283    8    0    1
 -2        67        66       224      1182      1462      1463
 -1       284    8    0    1
 -2        66       223       224      1460      1464      1462
 -1       285    8    0    1
 -2        68        67       225      1183      1465      1466
 -1       286    8    0    1
 -2        67       224       225      1463      1467      1465
 -1       287    8    0    1
 -2        69        68       226      1184      1468      1469
 -1       288    8    0    1
 -2        68       225       226      1466      1470      1468
 -1       289    8    0    1
 -2        70        69       227      1185      1471      1472
 -1       290    8    0    1
 -2        69       226       227      1469      1473      1471
 -1       291    8    0    1
 -2        71        70       228      1186      1474      1475
 -1       292    8    0    1
 -2        70       227       228      1472      1476      1474
 -1       293    8    0    1
 -2         4        71       136      1187      1477      1254
 -1       294    8    0    1
 -2       136        71       228      1477      1475      1478
 -1       295    8    0    1
 -2        72        73       229      1189      1479      1480
 -1       296    8    0    1
 -2        72       229       180      1480      1481      1333
 -1       297    8    0    1
 -2        73        74       230      1190      1482      1483
 -1       298    8    0    1
 -2        73       230       229      1483      1484      1479
 -1       299    8    0    1
 -2        74        75       231      1191      1485      1486
 -1       300    8    0    1
 -2        74       231       230      1486      1487      1482
 -1       301    8    0    1
 -2        75        76       232      1192      1488      1489
 -1       302    8    0    1
 -2        75       232       231      1489      1490      1485
 -1       303    8    0    1
 -2        76        77       233      1193      1491      1492
 -1       304    8    0    1
 -2        76       233       232      1492      1493      1488
 -1       305    8    0    1
 -2        77        78       234      1194      1494      1495
 -1       306    8    0    1
 -2        77       234       233      1495      1496      1491
 -1       307    8    0    1
 -2        78        79       235      1195      1497      1498
 -1       308    8    0    1
 -2        78       235       234      1498      1499      1494
 -1       309    8    0    1
 -2        79        80       236      1196      1500      1501
 -1       310    8    0    1
 -2        79       236       235      1501      1502      1497
 -1       311    8    0    1
 -2        80        81       237      1197      1503      1504
 -1       312    8    0    1
 -2        80       237       236      1504      1505      1500
 -1       313    8    0    1
 -2        81        82       238      1198      1506      1507
 -1       314    8    0    1
 -2        81       238       237      1507      1508      1503
 -1       315    8    0    1
 -2        82        83       239      1199      1509      1510
 -1       316    8    0    1
 -2        82       239       238      1510      1511      1506
 -1       317    8    0    1
 -2        83        84       240      1200      1512      1513
 -1       318    8    0    1
 -2        83       240       239      1513      1514      1509
 -1       319    8    0    1
 -2        84        85       241      1201      1515      1516
 -1       320    8    0    1
 -2        84       241       240      1516      1517      1512
 -1       321    8    0    1
 -2        85        86       242      1202      1518      1519
 -1       322    8    0    1
 -2        85       242       241      1519      1520      1515
 -1       323    8    0    1
 -2        86        87       243      1203      1521      1522
 -1       324    8    0    1
 -2        86       243       242      1522      1523      1518
 -1       325    8    0    1
 -2        87        88       244      1204      1524      1525
 -1       326    8    0    1
 -2        87       244       243      1525      1526      1521
 -1       327    8    0    1
 -2        88        89       245      1205      1527      1528
 -1       328    8    0    1
 -2        88       245       244      1528      1529      1524
 -1       329    8    0    1
 -2        89        90       246      1206      1530      1531
 -1       330    8    0    1
 -2        89       246       245      1531      1532      1527
 -1       331    8    0    1
 -2        90        91       247      1207      1533      1534
 -1       332    8    0    1
 -2        90       247       246      1534      1535      1530
 -1       333    8    0    1
 -2        91        92       248      1208      1536      1537
 -1       334    8    0    1
 -2        91       248       247      1537      1538      1533
 -1       335    8    0    1
 -2        92        93       249      1209      1539      1540
 -1       336    8    0    1
 -2        92       249       248      1540      1541      1536
 -1       337    8    0    1
 -2        93        94       250      1210      1542      1543
 -1       338    8    0    1
 -2        93       250       249      1543      1544      1539
 -1       339    8    0    1
 -2        94        95       251      1211      1545      1546
 -1       340    8    0    1
 -2        94       251       250      1546      1547      1542
 -1       341    8    0    1
 -2        95        96       252      1212      1548      1549
 -1       342    8    0    1
 -2        95       252       251      1549      1550      1545
 -1       343    8    0    1
 -2        96        97       253      1213      1551      1552
 -1       344    8    0    1
 -2        96       253       252      1552      1553      1548
 -1       345    8    0    1
 -2        97        98       254      1214      1554      1555
 -1       346    8    0    1
 -2        97       254       253      1555      1556      1551
 -1       347    8    0    1
 -2        98        99       255      1215      1557      1558
 -1       348    8    0    1
 -2        98       255       254      1558      1559      1554
 -1       349    8    0    1
 -2        99       100       256      1216      1560      1561
 -1       350    8    0    1
 -2        99       256       255      1561      1562      1557
 -1       351    8    0    1
 -2       100       101       257      1217      1563      1564
 -1       352    8    0    1
 -2       100       257       256      1564      1565      1560
 -1       353    8    0    1
 -2       101       102       258      1218      1566      1567
 -1       354    8    0    1
 -2       101       258       257      1567      1568      1563
 -1       355    8    0    1
 -2       102       103       259      1219      1569      1570
 -1       356    8    0    1
 -2       102       259       258      1570      1571      1566
 -1       357    8    0    1
 -2       103       104       260      1220      1572      1573
 -1       358    8    0    1
 -2       103       260       259      1573      1574      1569
 -1       359    8    0    1
 -2       104       105       261      1221      1575      1576
 -1       360    8    0    1
 -2       104       261       260      1576      1577      1572
 -1       361    8    0    1
 -2       105       106       262      1222      1578      1579
 -1       362    8    0    1
 -2       105       262       261      1579      1580      1575
 -1       363    8    0    1
 -2       106       107       263      1223      1581      1582
 -1       364    8    0    1
 -2       106       263       262      1582      1583      1578
 -1       365    8    0    1
 -2       107       108       264      1224      1584      1585
 -1       366    8    0    1
 -2       107       264       263      1585      1586      1581
 -1       367    8    0    1
 -2       108       109       265      1225      1587      1588
 -1       368    8    0    1
 -2       108       265       264      1588      1589      1584
 -1       369    8    0    1
 -2       109       110       266      1226      1590      1591
 -1       370    8    0    1
 -2       109       266       265      1591      1592      1587
 -1       371    8    0    1
 -2       110       111       267      1227      1593      1594
 -1       372    8    0    1
 -2       110       267       266      1594      1595      1590
 -1       373    8    0    1
 -2       111       112       268      1228      1596      1597
 -1       374    8    0    1
 -2       111       268       267      1597      1598      1593
 -1       375    8    0    1
 -2       112       113       269      1229      1599      1600
 -1       376    8    0    1
 -2       112       269       268      1600      1601      1596
 -1       377    8    0    1
 -2       113       114       270      1230      1602      1603
 -1       378    8    0    1
 -2       113       270       269      1603      1604      1599
 -1       379    8    0    1
 -2       114       115       271      1231      1605      1606
 -1       380    8    0    1
 -2       114       271       270      1606      1607      1602
 -1       381    8    0    1
 -2       115       116       272      1232      1608      1609
 -1       382    8    0    1
 -2       115       272       271      1609      1610      1605
 -1       383    8    0    1
 -2       116       117       273      1233      1611      1612
 -1       384    8    0    1
 -2       116       273       272      1612      1613      1608
 -1       385    8    0    1
 -2       117       118       274      1234      1614      1615
 -1       386    8    0    1
 -2       117       274       273      1615      1616      1611
 -1       387    8    0    1
 -2       118       119       275      1235      1617      1618
 -1       388    8    0    1
 -2       118       275       274      1618      1619      1614
 -1       389    8    0    1
 -2       119       120       276      1236      1620      1621
 -1       390    8    0    1
 -2       119       276       275      1621      1622      1617
 -1       391    8    0    1
 -2       120         3       121      1237      1238      1623
 -1       392    8    0    1
 -2       121       122       277      1239      1624      1625
 -1       393    8    0    1
 -2       122       123       278      1240      1626      1627
 -1       394    8    0    1
 -2       122       278       277      1627      1628      1624
 -1       395    8    0    1
 -2       123       124       279      1241      1629      1630
 -1       396    8    0    1
 -2       123       279       278      1630      1631      1626
 -1       397    8    0    1
 -2       124       125       280      1242      1632      1633
 -1       398    8    0    1
 -2       124       280       279      1633      1634      1629
 -1       399    8    0    1
 -2       125       126       281      1243      1635      1636
 -1       400    8    0    1
 -2       125       281       280      1636      1637      1632
 -1       401    8    0    1
 -2       126       127       282      1244      1638      1639
 -1       402    8    0    1
 -2       126       282       281      1639      1640      1635
 -1       403    8    0    1
 -2       127       128       283      1245      1641      1642
 -1       404    8    0    1
 -2       127       283       282      1642      1643      1638
 -1       405    8    0    1
 -2       128       129       284      1246      1644      1645
 -1       406    8    0    1
 -2       128       284       283      1645      1646      1641
 -1       407    8    0    1
 -2       129       130       285      1247      1647      1648
 -1       408    8    0    1
 -2       129       285       284      1648      1649      1644
 -1       409    8    0    1
 -2       130       131       286      1248      1650      1651
 -1       410    8    0    1
 -2       130       286       285      1651      1652      1647
 -1       411    8    0    1
 -2       131       132       287      1249      1653      1654
 -1       412    8    0    1
 -2       131       287       286      1654      1655      1650
 -1       413    8    0    1
 -2       132       133       288      1250      1656      1657
 -1       414    8    0    1
 -2       132       288       287      1657      1658      1653
 -1       415    8    0    1
 -2       133       134       289      1251      1659      1660
 -1       416    8    0    1
 -2       133       289       288      1660      1661      1656
 -1       417    8    0    1
 -2       134       135       290      1252      1662      1663
 -1       418    8    0    1
 -2       134       290       289      1663      1664      1659
 -1       419    8    0    1
 -2       135       136       291      1253      1665      1666
 -1       420    8    0    1
 -2       290       135       291      1662      1666      1667
 -1       421    8    0    1
 -2       136       228       291      1478      1668      1665
 -1       422    8    0    1
 -2         2       137       292      1255      1669      1670
 -1       423    8    0    1
 -2       137       138       293      1256      1671      1672
 -1       424    8    0    1
 -2       138       139       294      1257      1673      1674
 -1       425    8    0    1
 -2       139       140       295      1258      1675      1676
 -1       426    8    0    1
 -2       140       141       296      1259      1677      1678
 -1       427    8    0    1
 -2       141       142       297      1260      1679      1680
 -1       428    8    0    1
 -2       142       143       298      1261      1681      1682
 -1       429    8    0    1
 -2       143       144       299      1262      1683      1684
 -1       430    8    0    1
 -2       144       145       300      1263      1685      1686
 -1       431    8    0    1
 -2       145       146       301      1264      1687      1688
 -1       432    8    0    1
 -2       146       147       302      1265      1689      1690
 -1       433    8    0    1
 -2       147       148       303      1266      1691      1692
 -1       434    8    0    1
 -2       148       149       304      1267      1693      1694
 -1       435    8    0    1
 -2       149       150       305      1268      1695      1696
 -1       436    8    0    1
 -2       150         1       306      1269      1697      1698
 -1       437    8    0    1
 -2         1       151       307      1270      1699      1700
 -1       438    8    0    1
 -2       151       152       308      1271      1701      1702
 -1       439    8    0    1
 -2       152       153       309      1272      1703      1704
 -1       440    8    0    1
 -2       153       154       310      1273      1705      1706
 -1       441    8    0    1
 -2       154       155       311      1274      1707      1708
 -1       442    8    0    1
 -2       155       156       312      1275      1709      1710
 -1       443    8    0    1
 -2       156       157       313      1276      1711      1712
 -1       444    8    0    1
 -2       157       158       314      1277      1713      1714
 -1       445    8    0    1
 -2       158       159       315      1278      1715      1716
 -1       446    8    0    1
 -2       159       160       316      1279      1717      1718
 -1       447    8    0    1
 -2       160       161       317      1280      1719      1720
 -1       448    8    0    1
 -2       161       162       318      1281      1721      1722
 -1       449    8    0    1
 -2       162       163       319      1282      1723      1724
 -1       450    8    0    1
 -2       163       164       320      1283      1725      1726
 -1       451    8    0    1
 -2       164         2       321      1284      1727      1728
 -1       452    8    0    1
 -2       295       140       296      1675      1678      1729
 -1       453    8    0    1
 -2       294       139       295      1673      1676      1730
 -1       454    8    0    1
 -2       120       121       276      1623      1731      1620
 -1       455    8    0    1
 -2       121       277       276      1625      1732      1731
 -1       456    8    0    1
 -2       292       137       293      1669      1672      1733
 -1       457    8    0    1
 -2       293       138       294      1671      1674      1734
 -1       458    8    0    1
 -2         2       292       321      1670      1735      1727
 -1       459    8    0    1
 -2       141       297       296      1680      1736      1677
 -1       460    8    0    1
 -2       142       298       297      1682      1737      1679
 -1       461    8    0    1
 -2       143       299       298      1684      1738      1681
 -1       462    8    0    1
 -2       144       300       299      1686      1739      1683
 -1       463    8    0    1
 -2       145       301       300      1688      1740      1685
 -1       464    8    0    1
 -2       146       302       301      1690      1741      1687
 -1       465    8    0    1
 -2       147       303       302      1692      1742      1689
 -1       466    8    0    1
 -2       148       304       303      1694      1743      1691
 -1       467    8    0    1
 -2       149       305       304      1696      1744      1693
 -1       468    8    0    1
 -2       150       306       305      1698      1745      1695
 -1       469    8    0    1
 -2         1       307       306      1700      1746      1697
 -1       470    8    0    1
 -2       151       308       307      1702      1747      1699
 -1       471    8    0    1
 -2       152       309       308      1704      1748      1701
 -1       472    8    0    1
 -2       153       310       309      1706      1749      1703
 -1       473    8    0    1
 -2       154       311       310      1708      1750      1705
 -1       474    8    0    1
 -2       155       312       311      1710      1751      1707
 -1       475    8    0    1
 -2       156       313       312      1712      1752      1709
 -1       476    8    0    1
 -2       157       314       313      1714      1753      1711
 -1       477    8    0    1
 -2       158       315       314      1716      1754      1713
 -1       478    8    0    1
 -2       159       316       315      1718      1755      1715
 -1       479    8    0    1
 -2       160       317       316      1720      1756      1717
 -1       480    8    0    1
 -2       161       318       317      1722      1757      1719
 -1       481    8    0    1
 -2       162       319       318      1724      1758      1721
 -1       482    8    0    1
 -2       163       320       319      1726      1759      1723
 -1       483    8    0    1
 -2       164       321       320      1728      1760      1725
 -1       484    8    0    1
 -2        23         7       165      1285      1287      1761
 -1       485    8    0    1
 -2       166       167       322      1293      1762      1763
 -1       486    8    0    1
 -2       165       166       323      1290      1764      1765
 -1       487    8    0    1
 -2       166       322       323      1763      1766      1764
 -1       488    8    0    1
 -2       168       169       324      1299      1767      1768
 -1       489    8    0    1
 -2       169       170       325      1302      1769      1770
 -1       490    8    0    1
 -2       169       325       324      1770      1771      1767
 -1       491    8    0    1
 -2       170       171       326      1305      1772      1773
 -1       492    8    0    1
 -2       170       326       325      1773      1774      1769
 -1       493    8    0    1
 -2       171       172       327      1308      1775      1776
 -1       494    8    0    1
 -2       171       327       326      1776      1777      1772
 -1       495    8    0    1
 -2       172       173       328      1311      1778      1779
 -1       496    8    0    1
 -2       172       328       327      1779      1780      1775
 -1       497    8    0    1
 -2       173       174       329      1314      1781      1782
 -1       498    8    0    1
 -2       173       329       328      1782      1783      1778
 -1       499    8    0    1
 -2       174       175       330      1317      1784      1785
 -1       500    8    0    1
 -2       174       330       329      1785      1786      1781
 -1       501    8    0    1
 -2       175       176       331      1320      1787      1788
 -1       502    8    0    1
 -2       175       331       330      1788      1789      1784
 -1       503    8    0    1
 -2       176       177       332      1323      1790      1791
 -1       504    8    0    1
 -2       176       332       331      1791      1792      1787
 -1       505    8    0    1
 -2       177       178       333      1326      1793      1794
 -1       506    8    0    1
 -2       177       333       332      1794      1795      1790
 -1       507    8    0    1
 -2       178       179       334      1329      1796      1797
 -1       508    8    0    1
 -2       178       334       333      1797      1798      1793
 -1       509    8    0    1
 -2       179       180       335      1332      1799      1800
 -1       510    8    0    1
 -2       334       179       335      1796      1800      1801
 -1       511    8    0    1
 -2       180       229       335      1481      1802      1799
 -1       512    8    0    1
 -2       181        23       165      1334      1761      1803
 -1       513    8    0    1
 -2       229       230       336      1484      1804      1805
 -1       514    8    0    1
 -2       229       336       335      1805      1806      1802
 -1       515    8    0    1
 -2       181       165       323      1803      1765      1807
 -1       516    8    0    1
 -2       183       182       337      1341      1808      1809
 -1       517    8    0    1
 -2       184       183       338      1344      1810      1811
 -1       518    8    0    1
 -2       183       337       338      1809      1812      1810
 -1       519    8    0    1
 -2       185       184       339      1347      1813      1814
 -1       520    8    0    1
 -2       184       338       339      1811      1815      1813
 -1       521    8    0    1
 -2       186       185       340      1350      1816      1817
 -1       522    8    0    1
 -2       185       339       340      1814      1818      1816
 -1       523    8    0    1
 -2       187       186       341      1353      1819      1820
 -1       524    8    0    1
 -2       186       340       341      1817      1821      1819
 -1       525    8    0    1
 -2       188       187       342      1356      1822      1823
 -1       526    8    0    1
 -2       187       341       342      1820      1824      1822
 -1       527    8    0    1
 -2       189       188       343      1359      1825      1826
 -1       528    8    0    1
 -2       188       342       343      1823      1827      1825
 -1       529    8    0    1
 -2       190       189       344      1362      1828      1829
 -1       530    8    0    1
 -2       189       343       344      1826      1830      1828
 -1       531    8    0    1
 -2       191       190       345      1365      1831      1832
 -1       532    8    0    1
 -2       190       344       345      1829      1833      1831
 -1       533    8    0    1
 -2       192       191       346      1368      1834      1835
 -1       534    8    0    1
 -2       191       345       346      1832      1836      1834
 -1       535    8    0    1
 -2       193       192       347      1371      1837      1838
 -1       536    8    0    1
 -2       192       346       347      1835      1839      1837
 -1       537    8    0    1
 -2       194       193       348      1374      1840      1841
 -1       538    8    0    1
 -2       193       347       348      1838      1842      1840
 -1       539    8    0    1
 -2       195       194       349      1377      1843      1844
 -1       540    8    0    1
 -2       194       348       349      1841      1845      1843
 -1       541    8    0    1
 -2       196       195       350      1380      1846      1847
 -1       542    8    0    1
 -2       195       349       350      1844      1848      1846
 -1       543    8    0    1
 -2       197       196       351      1383      1849      1850
 -1       544    8    0    1
 -2       196       350       351      1847      1851      1849
 -1       545    8    0    1
 -2       198       197       352      1386      1852      1853
 -1       546    8    0    1
 -2       197       351       352      1850      1854      1852
 -1       547    8    0    1
 -2       199       198       353      1389      1855      1856
 -1       548    8    0    1
 -2       198       352       353      1853      1857      1855
 -1       549    8    0    1
 -2       200       199       354      1392      1858      1859
 -1       550    8    0    1
 -2       199       353       354      1856      1860      1858
 -1       551    8    0    1
 -2       201       200       355      1395      1861      1862
 -1       552    8    0    1
 -2       200       354       355      1859      1863      1861
 -1       553    8    0    1
 -2       202       201       356      1398      1864      1865
 -1       554    8    0    1
 -2       201       355       356      1862      1866      1864
 -1       555    8    0    1
 -2       203       202       357      1401      1867      1868
 -1       556    8    0    1
 -2       202       356       357      1865      1869      1867
 -1       557    8    0    1
 -2       204       203       358      1404      1870      1871
 -1       558    8    0    1
 -2       203       357       358      1868      1872      1870
 -1       559    8    0    1
 -2       205       204       359      1407      1873      1874
 -1       560    8    0    1
 -2       204       358       359      1871      1875      1873
 -1       561    8    0    1
 -2       206       205       360      1410      1876      1877
 -1       562    8    0    1
 -2       205       359       360      1874      1878      1876
 -1       563    8    0    1
 -2       207       206       361      1413      1879      1880
 -1       564    8    0    1
 -2       206       360       361      1877      1881      1879
 -1       565    8    0    1
 -2       208       207       362      1416      1882      1883
 -1       566    8    0    1
 -2       207       361       362      1880      1884      1882
 -1       567    8    0    1
 -2       209       208       363      1419      1885      1886
 -1       568    8    0    1
 -2       208       362       363      1883      1887      1885
 -1       569    8    0    1
 -2       210       209       364      1422      1888      1889
 -1       570    8    0    1
 -2       209       363       364      1886      1890      1888
 -1       571    8    0    1
 -2       211       210       365      1425      1891      1892
 -1       572    8    0    1
 -2       210       364       365      1889      1893      1891
 -1       573    8    0    1
 -2       212       211       366      1428      1894      1895
 -1       574    8    0    1
 -2       211       365       366      1892      1896      1894
 -1       575    8    0    1
 -2       213       212       367      1431      1897      1898
 -1       576    8    0    1
 -2       212       366       367      1895      1899      1897
 -1       577    8    0    1
 -2       214       213       368      1434      1900      1901
 -1       578    8    0    1
 -2       213       367       368      1898      1902      1900
 -1       579    8    0    1
 -2       215       214       369      1437      1903      1904
 -1       580    8    0    1
 -2       214       368       369      1901      1905      1903
 -1       581    8    0    1
 -2       216       215       370      1440      1906      1907
 -1       582    8    0    1
 -2       215       369       370      1904      1908      1906
 -1       583    8    0    1
 -2       217       216       371      1443      1909      1910
 -1       584    8    0    1
 -2       216       370       371      1907      1911      1909
 -1       585    8    0    1
 -2       218       217       372      1446      1912      1913
 -1       586    8    0    1
 -2       217       371       372      1910      1914      1912
 -1       587    8    0    1
 -2       219       218       373      1449      1915      1916
 -1       588    8    0    1
 -2       218       372       373      1913      1917      1915
 -1       589    8    0    1
 -2       220       219       374      1452      1918      1919
 -1       590    8    0    1
 -2       219       373       374      1916      1920      1918
 -1       591    8    0    1
 -2       221       220       375      1455      1921      1922
 -1       592    8    0    1
 -2       220       374       375      1919      1923      1921
 -1       593    8    0    1
 -2       222       221       376      1458      1924      1925
 -1       594    8    0    1
 -2       221       375       376      1922      1926      1924
 -1       595    8    0    1
 -2       223       222       377      1461      1927      1928
 -1       596    8    0    1
 -2       222       376       377      1925      1929      1927
 -1       597    8    0    1
 -2       224       223       378      1464      1930      1931
 -1       598    8    0    1
 -2       223       377       378      1928      1932      1930
 -1       599    8    0    1
 -2       225       224       379      1467      1933      1934
 -1       600    8    0    1
 -2       224       378       379      1931      1935      1933
 -1       601    8    0    1
 -2       226       225       380      1470      1936      1937
 -1       602    8    0    1
 -2       225       379       380      1934      1938      1936
 -1       603    8    0    1
 -2       227       226       381      1473      1939      1940
 -1       604    8    0    1
 -2       226       380       381      1937      1941      1939
 -1       605    8    0    1
 -2       228       227       382      1476      1942      1943
 -1       606    8    0    1
 -2       291       228       382      1668      1943      1944
 -1       607    8    0    1
 -2       227       381       382      1940      1945      1942
 -1       608    8    0    1
 -2       230       231       383      1487      1946      1947
 -1       609    8    0    1
 -2       230       383       336      1947      1948      1804
 -1       610    8    0    1
 -2       231       232       384      1490      1949      1950
 -1       611    8    0    1
 -2       231       384       383      1950      1951      1946
 -1       612    8    0    1
 -2       232       233       385      1493      1952      1953
 -1       613    8    0    1
 -2       232       385       384      1953      1954      1949
 -1       614    8    0    1
 -2       233       234       386      1496      1955      1956
 -1       615    8    0    1
 -2       233       386       385      1956      1957      1952
 -1       616    8    0    1
 -2       234       235       387      1499      1958      1959
 -1       617    8    0    1
 -2       234       387       386      1959      1960      1955
 -1       618    8    0    1
 -2       235       236       388      1502      1961      1962
 -1       619    8    0    1
 -2       235       388       387      1962      1963      1958
 -1       620    8    0    1
 -2       236       237       389      1505      1964      1965
 -1       621    8    0    1
 -2       236       389       388      1965      1966      1961
 -1       622    8    0    1
 -2       237       238       390      1508      1967      1968
 -1       623    8    0    1
 -2       237       390       389      1968      1969      1964
 -1       624    8    0    1
 -2       238       239       391      1511      1970      1971
 -1       625    8    0    1
 -2       238       391       390      1971      1972      1967
 -1       626    8    0    1
 -2       239       240       392      1514      1973      1974
 -1       627    8    0    1
 -2       239       392       391      1974      1975      1970
 -1       628    8    0    1
 -2       240       241       393      1517      1976      1977
 -1       629    8    0    1
 -2       240       393       392      1977      1978      1973
 -1       630    8    0    1
 -2       241       242       394      1520      1979      1980
 -1       631    8    0    1
 -2       241       394       393      1980      1981      1976
 -1       632    8    0    1
 -2       242       243       395      1523      1982      1983
 -1       633    8    0    1
 -2       242       395       394      1983      1984      1979
 -1       634    8    0    1
 -2       243       244       396      1526      1985      1986
 -1       635    8    0    1
 -2       243       396       395      1986      1987      1982
 -1       636    8    0    1
 -2       244       245       397      1529      1988      1989
 -1       637    8    0    1
 -2       244       397       396      1989      1990      1985
 -1       638    8    0    1
 -2       245       246       398      1532      1991      1992
 -1       639    8    0    1
 -2       245       398       397      1992      1993      1988
 -1       640    8    0    1
 -2       246       247       399      1535      1994      1995
 -1       641    8    0    1
 -2       246       399       398      1995      1996      1991
 -1       642    8    0    1
 -2       247       248       400      1538      1997      1998
 -1       643    8    0    1
 -2       247       400       399      1998      1999      1994
 -1       644    8    0    1
 -2       248       249       401      1541      2000      2001
 -1       645    8    0    1
 -2       248       401       400      2001      2002      1997
 -1       646    8    0    1
 -2       249       250       402      1544      2003      2004
 -1       647    8    0    1
 -2       249       402       401      2004      2005      2000
 -1       648    8    0    1
 -2       250       251       403      1547      2006      2007
 -1       649    8    0    1
 -2       250       403       402      2007      2008      2003
 -1       650    8    0    1
 -2       251       252       404      1550      2009      2010
 -1       651    8    0    1
 -2       251       404       403      2010      2011      2006
 -1       652    8    0    1
 -2       252       253       405      1553      2012      2013
 -1       653    8    0    1
 -2       252       405       404      2013      2014      2009
 -1       654    8    0    1
 -2       253       254       406      1556      2015      2016
 -1       655    8    0    1
 -2       253       406       405      2016      2017      2012
 -1       656    8    0    1
 -2       254       255       407      1559      2018      2019
 -1       657    8    0    1
 -2       254       407       406      2019      2020      2015
 -1       658    8    0    1
 -2       255       256       408      1562      2021      2022
 -1       659    8    0    1
 -2       255       408       407      2022      2023      2018
 -1       660    8    0    1
 -2       256       257       409      1565      2024      2025
 -1       661    8    0    1
 -2       256       409       408      2025      2026      2021
 -1       662    8    0    1
 -2       257       258       410      1568      2027      2028
 -1       663    8    0    1
 -2       257       410       409      2028      2029      2024
 -1       664    8    0    1
 -2       258       259       411      1571      2030      2031
 -1       665    8    0    1
 -2       258       411       410      2031      2032      2027
 -1       666    8    0    1
 -2       259       260       412      1574      2033      2034
 -1       667    8    0    1
 -2       259       412       411      2034      2035      2030
 -1       668    8    0    1
 -2       260       261       413      1577      2036      2037
 -1       669    8    0    1
 -2       260       413       412      2037      2038      2033
 -1       670    8    0    1
 -2       261       262       414      1580      2039      2040
 -1       671    8    0    1
 -2       261       414       413      2040      2041      2036
 -1       672    8    0    1
 -2       262       263       415      1583      2042      2043
 -1       673    8    0    1
 -2       262       415       414      2043      2044      2039
 -1       674    8    0    1
 -2       263       264       416      1586      2045      2046
 -1       675    8    0    1
 -2       263       416       415      2046      2047      2042
 -1       676    8    0    1
 -2       264       265       417      1589      2048      2049
 -1       677    8    0    1
 -2       264       417       416      2049      2050      2045
 -1       678    8    0    1
 -2       265       266       418      1592      2051      2052
 -1       679    8    0    1
 -2       265       418       417      2052      2053      2048
 -1       680    8    0    1
 -2       266       267       419      1595      2054      2055
 -1       681    8    0    1
 -2       266       419       418      2055      2056      2051
 -1       682    8    0    1
 -2       267       268       420      1598      2057      2058
 -1       683    8    0    1
 -2       267       420       419      2058      2059      2054
 -1       684    8    0    1
 -2       268       269       421      1601      2060      2061
 -1       685    8    0    1
 -2       268       421       420      2061      2062      2057
 -1       686    8    0    1
 -2       269       270       422      1604      2063      2064
 -1       687    8    0    1
 -2       269       422       421      2064      2065      2060
 -1       688    8    0    1
 -2       270       271       423      1607      2066      2067
 -1       689    8    0    1
 -2       270       423       422      2067      2068      2063
 -1       690    8    0    1
 -2       271       272       424      1610      2069      2070
 -1       691    8    0    1
 -2       271       424       423      2070      2071      2066
 -1       692    8    0    1
 -2       272       273       425      1613      2072      2073
 -1       693    8    0    1
 -2       272       425       424      2073      2074      2069
 -1       694    8    0    1
 -2       273       274       426      1616      2075      2076
 -1       695    8    0    1
 -2       273       426       425      2076      2077      2072
 -1       696    8    0    1
 -2       274       275       427      1619      2078      2079
 -1       697    8    0    1
 -2       274       427       426      2079      2080      2075
 -1       698    8    0    1
 -2       275       276       428      1622      2081      2082
 -1       699    8    0    1
 -2       427       275       428      2078      2082      2083
 -1       700    8    0    1
 -2       276       277       428      1732      2084      2081
 -1       701    8    0    1
 -2       279       280       429      1634      2085      2086
 -1       702    8    0    1
 -2       278       279       430      1631      2087      2088
 -1       703    8    0    1
 -2       279       429       430      2086      2089      2087
 -1       704    8    0    1
 -2       277       278       431      1628      2090      2091
 -1       705    8    0    1
 -2       428       277       431      2084      2091      2092
 -1       706    8    0    1
 -2       278       430       431      2088      2093      2090
 -1       707    8    0    1
 -2       280       281       432      1637      2094      2095
 -1       708    8    0    1
 -2       280       432       429      2095      2096      2085
 -1       709    8    0    1
 -2       281       282       433      1640      2097      2098
 -1       710    8    0    1
 -2       281       433       432      2098      2099      2094
 -1       711    8    0    1
 -2       282       283       434      1643      2100      2101
 -1       712    8    0    1
 -2       282       434       433      2101      2102      2097
 -1       713    8    0    1
 -2       283       284       435      1646      2103      2104
 -1       714    8    0    1
 -2       283       435       434      2104      2105      2100
 -1       715    8    0    1
 -2       284       285       436      1649      2106      2107
 -1       716    8    0    1
 -2       284       436       435      2107      2108      2103
 -1       717    8    0    1
 -2       285       286       437      1652      2109      2110
 -1       718    8    0    1
 -2       285       437       436      2110      2111      2106
 -1       719    8    0    1
 -2       286       287       438      1655      2112      2113
 -1       720    8    0    1
 -2       286       438       437      2113      2114      2109
 -1       721    8    0    1
 -2       287       288       439      1658      2115      2116
 -1       722    8    0    1
 -2       287       439       438      2116      2117      2112
 -1       723    8    0    1
 -2       288       289       440      1661      2118      2119
 -1       724    8    0    1
 -2       288       440       439      2119      2120      2115
 -1       725    8    0    1
 -2       289       290       441      1664      2121      2122
 -1       726    8    0    1
 -2       289       441       440      2122      2123      2118
 -1       727    8    0    1
 -2       293       294       442      1734      2124      2125
 -1       728    8    0    1
 -2       321       292       443      1735      2126      2127
 -1       729    8    0    1
 -2       292       293       444      1733      2128      2129
 -1       730    8    0    1
 -2       293       442       444      2125      2130      2128
 -1       731    8    0    1
 -2       294       295       445      1730      2131      2132
 -1       732    8    0    1
 -2       295       296       446      1729      2133      2134
 -1       733    8    0    1
 -2       167       168       447      1296      2135      2136
 -1       734    8    0    1
 -2       322       167       447      1762      2136      2137
 -1       735    8    0    1
 -2       168       324       447      1768      2138      2135
 -1       736    8    0    1
 -2       297       298       448      1737      2139      2140
 -1       737    8    0    1
 -2       298       299       449      1738      2141      2142
 -1       738    8    0    1
 -2       299       300       450      1739      2143      2144
 -1       739    8    0    1
 -2       300       301       451      1740      2145      2146
 -1       740    8    0    1
 -2       301       302       452      1741      2147      2148
 -1       741    8    0    1
 -2       301       452       451      2148      2149      2145
 -1       742    8    0    1
 -2       302       303       453      1742      2150      2151
 -1       743    8    0    1
 -2       303       304       454      1743      2152      2153
 -1       744    8    0    1
 -2       304       305       455      1744      2154      2155
 -1       745    8    0    1
 -2       304       455       454      2155      2156      2152
 -1       746    8    0    1
 -2       305       306       456      1745      2157      2158
 -1       747    8    0    1
 -2       306       307       457      1746      2159      2160
 -1       748    8    0    1
 -2       306       457       456      2160      2161      2157
 -1       749    8    0    1
 -2       307       308       458      1747      2162      2163
 -1       750    8    0    1
 -2       308       309       459      1748      2164      2165
 -1       751    8    0    1
 -2       309       310       460      1749      2166      2167
 -1       752    8    0    1
 -2       310       311       461      1750      2168      2169
 -1       753    8    0    1
 -2       311       312       462      1751      2170      2171
 -1       754    8    0    1
 -2       312       313       463      1752      2172      2173
 -1       755    8    0    1
 -2       313       314       464      1753      2174      2175
 -1       756    8    0    1
 -2       314       315       465      1754      2176      2177
 -1       757    8    0    1
 -2       315       316       466      1755      2178      2179
 -1       758    8    0    1
 -2       316       317       467      1756      2180      2181
 -1       759    8    0    1
 -2       317       318       468      1757      2182      2183
 -1       760    8    0    1
 -2       318       319       469      1758      2184      2185
 -1       761    8    0    1
 -2       319       320       470      1759      2186      2187
 -1       762    8    0    1
 -2       320       321       471      1760      2188      2189
 -1       763    8    0    1
 -2       296       297       472      1736      2190      2191
 -1       764    8    0    1
 -2       446       296       472      2133      2191      2192
 -1       765    8    0    1
 -2       181       323       182      1807      2193      1338
 -1       766    8    0    1
 -2       297       448       472      2140      2194      2190
 -1       767    8    0    1
 -2       337       182       323      1808      2193      2195
 -1       768    8    0    1
 -2       443       292       444      2126      2129      2196
 -1       769    8    0    1
 -2       294       445       442      2132      2197      2124
 -1       770    8    0    1
 -2       441       290       291      2121      1667      2198
 -1       771    8    0    1
 -2       321       443       471      2127      2199      2188
 -1       772    8    0    1
 -2       445       295       446      2131      2134      2200
 -1       773    8    0    1
 -2       470       320       471      2186      2189      2201
 -1       774    8    0    1
 -2       469       319       470      2184      2187      2202
 -1       775    8    0    1
 -2       468       318       469      2182      2185      2203
 -1       776    8    0    1
 -2       467       317       468      2180      2183      2204
 -1       777    8    0    1
 -2       466       316       467      2178      2181      2205
 -1       778    8    0    1
 -2       465       315       466      2176      2179      2206
 -1       779    8    0    1
 -2       464       314       465      2174      2177      2207
 -1       780    8    0    1
 -2       463       313       464      2172      2175      2208
 -1       781    8    0    1
 -2       462       312       463      2170      2173      2209
 -1       782    8    0    1
 -2       461       311       462      2168      2171      2210
 -1       783    8    0    1
 -2       460       310       461      2166      2169      2211
 -1       784    8    0    1
 -2       459       309       460      2164      2167      2212
 -1       785    8    0    1
 -2       457       307       458      2159      2163      2213
 -1       786    8    0    1
 -2       455       305       456      2154      2158      2214
 -1       787    8    0    1
 -2       452       302       453      2147      2151      2215
 -1       788    8    0    1
 -2       450       300       451      2143      2146      2216
 -1       789    8    0    1
 -2       448       298       449      2139      2142      2217
 -1       790    8    0    1
 -2       449       299       450      2141      2144      2218
 -1       791    8    0    1
 -2       453       303       454      2150      2153      2219
 -1       792    8    0    1
 -2       458       308       459      2162      2165      2220
 -1       793    8    0    1
 -2       336       383       473      1948      2221      2222
 -1       794    8    0    1
 -2       325       326       474      1774      2223      2224
 -1       795    8    0    1
 -2       324       325       475      1771      2225      2226
 -1       796    8    0    1
 -2       325       474       475      2224      2227      2225
 -1       797    8    0    1
 -2       327       328       476      1780      2228      2229
 -1       798    8    0    1
 -2       328       329       477      1783      2230      2231
 -1       799    8    0    1
 -2       328       477       476      2231      2232      2228
 -1       800    8    0    1
 -2       329       330       478      1786      2233      2234
 -1       801    8    0    1
 -2       329       478       477      2234      2235      2230
 -1       802    8    0    1
 -2       330       331       479      1789      2236      2237
 -1       803    8    0    1
 -2       330       479       478      2237      2238      2233
 -1       804    8    0    1
 -2       331       332       480      1792      2239      2240
 -1       805    8    0    1
 -2       331       480       479      2240      2241      2236
 -1       806    8    0    1
 -2       332       333       481      1795      2242      2243
 -1       807    8    0    1
 -2       332       481       480      2243      2244      2239
 -1       808    8    0    1
 -2       383       384       482      1951      2245      2246
 -1       809    8    0    1
 -2       383       482       473      2246      2247      2221
 -1       810    8    0    1
 -2       338       337       483      1812      2248      2249
 -1       811    8    0    1
 -2       472       448       484      2194      2250      2251
 -1       812    8    0    1
 -2       339       338       485      1815      2252      2253
 -1       813    8    0    1
 -2       338       483       485      2249      2254      2252
 -1       814    8    0    1
 -2       340       339       486      1818      2255      2256
 -1       815    8    0    1
 -2       339       485       486      2253      2257      2255
 -1       816    8    0    1
 -2       341       340       487      1821      2258      2259
 -1       817    8    0    1
 -2       340       486       487      2256      2260      2258
 -1       818    8    0    1
 -2       342       341       488      1824      2261      2262
 -1       819    8    0    1
 -2       341       487       488      2259      2263      2261
 -1       820    8    0    1
 -2       343       342       489      1827      2264      2265
 -1       821    8    0    1
 -2       342       488       489      2262      2266      2264
 -1       822    8    0    1
 -2       344       343       490      1830      2267      2268
 -1       823    8    0    1
 -2       343       489       490      2265      2269      2267
 -1       824    8    0    1
 -2       345       344       491      1833      2270      2271
 -1       825    8    0    1
 -2       344       490       491      2268      2272      2270
 -1       826    8    0    1
 -2       346       345       492      1836      2273      2274
 -1       827    8    0    1
 -2       345       491       492      2271      2275      2273
 -1       828    8    0    1
 -2       347       346       493      1839      2276      2277
 -1       829    8    0    1
 -2       346       492       493      2274      2278      2276
 -1       830    8    0    1
 -2       348       347       494      1842      2279      2280
 -1       831    8    0    1
 -2       347       493       494      2277      2281      2279
 -1       832    8    0    1
 -2       349       348       495      1845      2282      2283
 -1       833    8    0    1
 -2       348       494       495      2280      2284      2282
 -1       834    8    0    1
 -2       350       349       496      1848      2285      2286
 -1       835    8    0    1
 -2       349       495       496      2283      2287      2285
 -1       836    8    0    1
 -2       351       350       497      1851      2288      2289
 -1       837    8    0    1
 -2       350       496       497      2286      2290      2288
 -1       838    8    0    1
 -2       352       351       498      1854      2291      2292
 -1       839    8    0    1
 -2       351       497       498      2289      2293      2291
 -1       840    8    0    1
 -2       353       352       499      1857      2294      2295
 -1       841    8    0    1
 -2       352       498       499      2292      2296      2294
 -1       842    8    0    1
 -2       354       353       500      1860      2297      2298
 -1       843    8    0    1
 -2       353       499       500      2295      2299      2297
 -1       844    8    0    1
 -2       355       354       501      1863      2300      2301
 -1       845    8    0    1
 -2       354       500       501      2298      2302      2300
 -1       846    8    0    1
 -2       356       355       502      1866      2303      2304
 -1       847    8    0    1
 -2       355       501       502      2301      2305      2303
 -1       848    8    0    1
 -2       357       356       503      1869      2306      2307
 -1       849    8    0    1
 -2       356       502       503      2304      2308      2306
 -1       850    8    0    1
 -2       358       357       504      1872      2309      2310
 -1       851    8    0    1
 -2       357       503       504      2307      2311      2309
 -1       852    8    0    1
 -2       359       358       505      1875      2312      2313
 -1       853    8    0    1
 -2       358       504       505      2310      2314      2312
 -1       854    8    0    1
 -2       360       359       506      1878      2315      2316
 -1       855    8    0    1
 -2       359       505       506      2313      2317      2315
 -1       856    8    0    1
 -2       361       360       507      1881      2318      2319
 -1       857    8    0    1
 -2       360       506       507      2316      2320      2318
 -1       858    8    0    1
 -2       362       361       508      1884      2321      2322
 -1       859    8    0    1
 -2       361       507       508      2319      2323      2321
 -1       860    8    0    1
 -2       363       362       509      1887      2324      2325
 -1       861    8    0    1
 -2       362       508       509      2322      2326      2324
 -1       862    8    0    1
 -2       364       363       510      1890      2327      2328
 -1       863    8    0    1
 -2       363       509       510      2325      2329      2327
 -1       864    8    0    1
 -2       365       364       511      1893      2330      2331
 -1       865    8    0    1
 -2       364       510       511      2328      2332      2330
 -1       866    8    0    1
 -2       366       365       512      1896      2333      2334
 -1       867    8    0    1
 -2       365       511       512      2331      2335      2333
 -1       868    8    0    1
 -2       367       366       513      1899      2336      2337
 -1       869    8    0    1
 -2       366       512       513      2334      2338      2336
 -1       870    8    0    1
 -2       368       367       514      1902      2339      2340
 -1       871    8    0    1
 -2       367       513       514      2337      2341      2339
 -1       872    8    0    1
 -2       369       368       515      1905      2342      2343
 -1       873    8    0    1
 -2       368       514       515      2340      2344      2342
 -1       874    8    0    1
 -2       370       369       516      1908      2345      2346
 -1       875    8    0    1
 -2       369       515       516      2343      2347      2345
 -1       876    8    0    1
 -2       371       370       517      1911      2348      2349
 -1       877    8    0    1
 -2       370       516       517      2346      2350      2348
 -1       878    8    0    1
 -2       372       371       518      1914      2351      2352
 -1       879    8    0    1
 -2       371       517       518      2349      2353      2351
 -1       880    8    0    1
 -2       373       372       519      1917      2354      2355
 -1       881    8    0    1
 -2       372       518       519      2352      2356      2354
 -1       882    8    0    1
 -2       374       373       520      1920      2357      2358
 -1       883    8    0    1
 -2       373       519       520      2355      2359      2357
 -1       884    8    0    1
 -2       375       374       521      1923      2360      2361
 -1       885    8    0    1
 -2       374       520       521      2358      2362      2360
 -1       886    8    0    1
 -2       376       375       522      1926      2363      2364
 -1       887    8    0    1
 -2       375       521       522      2361      2365      2363
 -1       888    8    0    1
 -2       377       376       523      1929      2366      2367
 -1       889    8    0    1
 -2       376       522       523      2364      2368      2366
 -1       890    8    0    1
 -2       378       377       524      1932      2369      2370
 -1       891    8    0    1
 -2       377       523       524      2367      2371      2369
 -1       892    8    0    1
 -2       379       378       525      1935      2372      2373
 -1       893    8    0    1
 -2       378       524       525      2370      2374      2372
 -1       894    8    0    1
 -2       380       379       526      1938      2375      2376
 -1       895    8    0    1
 -2       379       525       526      2373      2377      2375
 -1       896    8    0    1
 -2       381       380       527      1941      2378      2379
 -1       897    8    0    1
 -2       380       526       527      2376      2380      2378
 -1       898    8    0    1
 -2       444       442       528      2130      2381      2382
 -1       899    8    0    1
 -2       385       386       529      1957      2383      2384
 -1       900    8    0    1
 -2       386       387       530      1960      2385      2386
 -1       901    8    0    1
 -2       386       530       529      2386      2387      2383
 -1       902    8    0    1
 -2       387       388       531      1963      2388      2389
 -1       903    8    0    1
 -2       387       531       530      2389      2390      2385
 -1       904    8    0    1
 -2       388       389       532      1966      2391      2392
 -1       905    8    0    1
 -2       388       532       531      2392      2393      2388
 -1       906    8    0    1
 -2       389       390       533      1969      2394      2395
 -1       907    8    0    1
 -2       389       533       532      2395      2396      2391
 -1       908    8    0    1
 -2       390       391       534      1972      2397      2398
 -1       909    8    0    1
 -2       390       534       533      2398      2399      2394
 -1       910    8    0    1
 -2       391       392       535      1975      2400      2401
 -1       911    8    0    1
 -2       391       535       534      2401      2402      2397
 -1       912    8    0    1
 -2       392       393       536      1978      2403      2404
 -1       913    8    0    1
 -2       392       536       535      2404      2405      2400
 -1       914    8    0    1
 -2       393       394       537      1981      2406      2407
 -1       915    8    0    1
 -2       393       537       536      2407      2408      2403
 -1       916    8    0    1
 -2       394       395       538      1984      2409      2410
 -1       917    8    0    1
 -2       394       538       537      2410      2411      2406
 -1       918    8    0    1
 -2       395       396       539      1987      2412      2413
 -1       919    8    0    1
 -2       395       539       538      2413      2414      2409
 -1       920    8    0    1
 -2       396       397       540      1990      2415      2416
 -1       921    8    0    1
 -2       396       540       539      2416      2417      2412
 -1       922    8    0    1
 -2       397       398       541      1993      2418      2419
 -1       923    8    0    1
 -2       397       541       540      2419      2420      2415
 -1       924    8    0    1
 -2       398       399       542      1996      2421      2422
 -1       925    8    0    1
 -2       398       542       541      2422      2423      2418
 -1       926    8    0    1
 -2       399       400       543      1999      2424      2425
 -1       927    8    0    1
 -2       399       543       542      2425      2426      2421
 -1       928    8    0    1
 -2       400       401       544      2002      2427      2428
 -1       929    8    0    1
 -2       400       544       543      2428      2429      2424
 -1       930    8    0    1
 -2       401       402       545      2005      2430      2431
 -1       931    8    0    1
 -2       401       545       544      2431      2432      2427
 -1       932    8    0    1
 -2       402       403       546      2008      2433      2434
 -1       933    8    0    1
 -2       402       546       545      2434      2435      2430
 -1       934    8    0    1
 -2       403       404       547      2011      2436      2437
 -1       935    8    0    1
 -2       403       547       546      2437      2438      2433
 -1       936    8    0    1
 -2       404       405       548      2014      2439      2440
 -1       937    8    0    1
 -2       404       548       547      2440      2441      2436
 -1       938    8    0    1
 -2       405       406       549      2017      2442      2443
 -1       939    8    0    1
 -2       405       549       548      2443      2444      2439
 -1       940    8    0    1
 -2       406       407       550      2020      2445      2446
 -1       941    8    0    1
 -2       406       550       549      2446      2447      2442
 -1       942    8    0    1
 -2       407       408       551      2023      2448      2449
 -1       943    8    0    1
 -2       407       551       550      2449      2450      2445
 -1       944    8    0    1
 -2       408       409       552      2026      2451      2452
 -1       945    8    0    1
 -2       408       552       551      2452      2453      2448
 -1       946    8    0    1
 -2       409       410       553      2029      2454      2455
 -1       947    8    0    1
 -2       409       553       552      2455      2456      2451
 -1       948    8    0    1
 -2       410       411       554      2032      2457      2458
 -1       949    8    0    1
 -2       410       554       553      2458      2459      2454
 -1       950    8    0    1
 -2       411       412       555      2035      2460      2461
 -1       951    8    0    1
 -2       411       555       554      2461      2462      2457
 -1       952    8    0    1
 -2       412       413       556      2038      2463      2464
 -1       953    8    0    1
 -2       412       556       555      2464      2465      2460
 -1       954    8    0    1
 -2       413       414       557      2041      2466      2467
 -1       955    8    0    1
 -2       413       557       556      2467      2468      2463
 -1       956    8    0    1
 -2       414       415       558      2044      2469      2470
 -1       957    8    0    1
 -2       414       558       557      2470      2471      2466
 -1       958    8    0    1
 -2       415       416       559      2047      2472      2473
 -1       959    8    0    1
 -2       415       559       558      2473      2474      2469
 -1       960    8    0    1
 -2       416       417       560      2050      2475      2476
 -1       961    8    0    1
 -2       416       560       559      2476      2477      2472
 -1       962    8    0    1
 -2       417       418       561      2053      2478      2479
 -1       963    8    0    1
 -2       417       561       560      2479      2480      2475
 -1       964    8    0    1
 -2       418       419       562      2056      2481      2482
 -1       965    8    0    1
 -2       418       562       561      2482      2483      2478
 -1       966    8    0    1
 -2       419       420       563      2059      2484      2485
 -1       967    8    0    1
 -2       419       563       562      2485      2486      2481
 -1       968    8    0    1
 -2       420       421       564      2062      2487      2488
 -1       969    8    0    1
 -2       420       564       563      2488      2489      2484
 -1       970    8    0    1
 -2       421       422       565      2065      2490      2491
 -1       971    8    0    1
 -2       421       565       564      2491      2492      2487
 -1       972    8    0    1
 -2       422       423       566      2068      2493      2494
 -1       973    8    0    1
 -2       422       566       565      2494      2495      2490
 -1       974    8    0    1
 -2       423       424       567      2071      2496      2497
 -1       975    8    0    1
 -2       423       567       566      2497      2498      2493
 -1       976    8    0    1
 -2       424       425       568      2074      2499      2500
 -1       977    8    0    1
 -2       424       568       567      2500      2501      2496
 -1       978    8    0    1
 -2       425       426       569      2077      2502      2503
 -1       979    8    0    1
 -2       425       569       568      2503      2504      2499
 -1       980    8    0    1
 -2       426       427       570      2080      2505      2506
 -1       981    8    0    1
 -2       426       570       569      2506      2507      2502
 -1       982    8    0    1
 -2       427       428       431      2083      2092      2508
 -1       983    8    0    1
 -2       432       433       571      2099      2509      2510
 -1       984    8    0    1
 -2       433       434       572      2102      2511      2512
 -1       985    8    0    1
 -2       433       572       571      2512      2513      2509
 -1       986    8    0    1
 -2       430       429       573      2089      2514      2515
 -1       987    8    0    1
 -2       429       432       574      2096      2516      2517
 -1       988    8    0    1
 -2       573       429       574      2514      2517      2518
 -1       989    8    0    1
 -2       432       571       574      2510      2519      2516
 -1       990    8    0    1
 -2       434       435       575      2105      2520      2521
 -1       991    8    0    1
 -2       434       575       572      2521      2522      2511
 -1       992    8    0    1
 -2       435       436       576      2108      2523      2524
 -1       993    8    0    1
 -2       435       576       575      2524      2525      2520
 -1       994    8    0    1
 -2       436       437       577      2111      2526      2527
 -1       995    8    0    1
 -2       436       577       576      2527      2528      2523
 -1       996    8    0    1
 -2       437       438       578      2114      2529      2530
 -1       997    8    0    1
 -2       437       578       577      2530      2531      2526
 -1       998    8    0    1
 -2       438       439       579      2117      2532      2533
 -1       999    8    0    1
 -2       438       579       578      2533      2534      2529
 -1      1000    8    0    1
 -2       439       440       580      2120      2535      2536
 -1      1001    8    0    1
 -2       439       580       579      2536      2537      2532
 -1      1002    8    0    1
 -2       440       441       581      2123      2538      2539
 -1      1003    8    0    1
 -2       440       581       580      2539      2540      2535
 -1      1004    8    0    1
 -2       441       291       382      2198      1944      2541
 -1      1005    8    0    1
 -2       471       443       582      2199      2542      2543
 -1      1006    8    0    1
 -2       384       385       583      1954      2544      2545
 -1      1007    8    0    1
 -2       385       529       583      2384      2546      2544
 -1      1008    8    0    1
 -2       442       445       584      2197      2547      2548
 -1      1009    8    0    1
 -2       470       471       585      2201      2549      2550
 -1      1010    8    0    1
 -2       337       323       586      2195      2551      2552
 -1      1011    8    0    1
 -2       483       337       586      2248      2552      2553
 -1      1012    8    0    1
 -2       323       322       586      1766      2554      2551
 -1      1013    8    0    1
 -2       445       446       587      2200      2555      2556
 -1      1014    8    0    1
 -2       445       587       584      2556      2557      2547
 -1      1015    8    0    1
 -2       452       453       588      2215      2558      2559
 -1      1016    8    0    1
 -2       450       451       589      2216      2560      2561
 -1      1017    8    0    1
 -2       326       327       590      1777      2562      2563
 -1      1018    8    0    1
 -2       474       326       590      2223      2563      2564
 -1      1019    8    0    1
 -2       327       476       590      2229      2565      2562
 -1      1020    8    0    1
 -2       449       450       591      2218      2566      2567
 -1      1021    8    0    1
 -2       453       454       592      2219      2568      2569
 -1      1022    8    0    1
 -2       448       449       593      2217      2570      2571
 -1      1023    8    0    1
 -2       451       452       594      2149      2572      2573
 -1      1024    8    0    1
 -2       458       459       595      2220      2574      2575
 -1      1025    8    0    1
 -2       454       455       596      2156      2576      2577
 -1      1026    8    0    1
 -2       454       596       592      2577      2578      2568
 -1      1027    8    0    1
 -2       455       456       597      2214      2579      2580
 -1      1028    8    0    1
 -2       455       597       596      2580      2581      2576
 -1      1029    8    0    1
 -2       456       457       598      2161      2582      2583
 -1      1030    8    0    1
 -2       457       458       599      2213      2584      2585
 -1      1031    8    0    1
 -2       598       457       599      2582      2585      2586
 -1      1032    8    0    1
 -2       458       595       599      2575      2587      2584
 -1      1033    8    0    1
 -2       459       460       600      2212      2588      2589
 -1      1034    8    0    1
 -2       460       461       601      2211      2590      2591
 -1      1035    8    0    1
 -2       461       462       602      2210      2592      2593
 -1      1036    8    0    1
 -2       462       463       603      2209      2594      2595
 -1      1037    8    0    1
 -2       462       603       602      2595      2596      2592
 -1      1038    8    0    1
 -2       463       464       604      2208      2597      2598
 -1      1039    8    0    1
 -2       464       465       605      2207      2599      2600
 -1      1040    8    0    1
 -2       465       466       606      2206      2601      2602
 -1      1041    8    0    1
 -2       466       467       607      2205      2603      2604
 -1      1042    8    0    1
 -2       467       468       608      2204      2605      2606
 -1      1043    8    0    1
 -2       468       469       609      2203      2607      2608
 -1      1044    8    0    1
 -2       469       470       610      2202      2609      2610
 -1      1045    8    0    1
 -2       443       444       611      2196      2611      2612
 -1      1046    8    0    1
 -2       335       336       612      1806      2613      2614
 -1      1047    8    0    1
 -2       334       335       612      1801      2614      2615
 -1      1048    8    0    1
 -2       336       473       612      2222      2616      2613
 -1      1049    8    0    1
 -2       446       472       613      2192      2617      2618
 -1      1050    8    0    1
 -2       472       484       613      2251      2619      2617
 -1      1051    8    0    1
 -2       449       591       593      2567      2620      2570
 -1      1052    8    0    1
 -2       324       475       614      2226      2621      2622
 -1      1053    8    0    1
 -2       324       614       447      2622      2623      2138
 -1      1054    8    0    1
 -2       482       384       583      2245      2545      2624
 -1      1055    8    0    1
 -2       333       334       612      1798      2615      2625
 -1      1056    8    0    1
 -2       587       446       613      2555      2618      2626
 -1      1057    8    0    1
 -2       471       582       585      2543      2627      2549
 -1      1058    8    0    1
 -2       528       442       584      2381      2548      2628
 -1      1059    8    0    1
 -2       427       431       570      2508      2629      2505
 -1      1060    8    0    1
 -2       431       430       570      2093      2630      2629
 -1      1061    8    0    1
 -2       611       444       528      2611      2382      2631
 -1      1062    8    0    1
 -2       441       382       615      2541      2632      2633
 -1      1063    8    0    1
 -2       581       441       615      2538      2633      2634
 -1      1064    8    0    1
 -2       382       381       615      1945      2635      2632
 -1      1065    8    0    1
 -2       610       470       585      2609      2550      2636
 -1      1066    8    0    1
 -2       609       469       610      2607      2610      2637
 -1      1067    8    0    1
 -2       582       443       616      2542      2638      2639
 -1      1068    8    0    1
 -2       443       611       616      2612      2640      2638
 -1      1069    8    0    1
 -2       333       612       481      2625      2641      2242
 -1      1070    8    0    1
 -2       452       588       594      2559      2642      2572
 -1      1071    8    0    1
 -2       608       468       609      2605      2608      2643
 -1      1072    8    0    1
 -2       607       467       608      2603      2606      2644
 -1      1073    8    0    1
 -2       589       451       594      2560      2573      2645
 -1      1074    8    0    1
 -2       588       453       617      2558      2646      2647
 -1      1075    8    0    1
 -2       453       592       617      2569      2648      2646
 -1      1076    8    0    1
 -2       606       466       607      2601      2604      2649
 -1      1077    8    0    1
 -2       605       465       606      2599      2602      2650
 -1      1078    8    0    1
 -2       603       463       604      2594      2598      2651
 -1      1079    8    0    1
 -2       456       598       597      2583      2652      2579
 -1      1080    8    0    1
 -2       595       459       618      2574      2653      2654
 -1      1081    8    0    1
 -2       459       600       618      2589      2655      2653
 -1      1082    8    0    1
 -2       586       322       447      2554      2137      2656
 -1      1083    8    0    1
 -2       450       589       591      2561      2657      2566
 -1      1084    8    0    1
 -2       484       448       593      2250      2571      2658
 -1      1085    8    0    1
 -2       600       460       601      2588      2591      2659
 -1      1086    8    0    1
 -2       601       461       602      2590      2593      2660
 -1      1087    8    0    1
 -2       604       464       619      2597      2661      2662
 -1      1088    8    0    1
 -2       464       605       619      2600      2663      2661
 -1      1089    8    0    1
 -2       570       430       573      2630      2515      2664
 -1      1090    8    0    1
 -2       615       381       527      2635      2379      2665
 -1      1091    8    0    1
 -2       477       478       620      2235      2666      2667
 -1      1092    8    0    1
 -2       476       477       621      2232      2668      2669
 -1      1093    8    0    1
 -2       477       620       621      2667      2670      2668
 -1      1094    8    0    1
 -2       479       480       622      2241      2671      2672
 -1      1095    8    0    1
 -2       480       481       623      2244      2673      2674
 -1      1096    8    0    1
 -2       480       623       622      2674      2675      2671
 -1      1097    8    0    1
 -2       473       482       624      2247      2676      2677
 -1      1098    8    0    1
 -2       594       588       625      2642      2678      2679
 -1      1099    8    0    1
 -2       613       484       626      2619      2680      2681
 -1      1100    8    0    1
 -2       482       583       627      2624      2682      2683
 -1      1101    8    0    1
 -2       482       627       624      2683      2684      2676
 -1      1102    8    0    1
 -2       593       591       628      2620      2685      2686
 -1      1103    8    0    1
 -2       612       473       481      2616      2687      2641
 -1      1104    8    0    1
 -2       486       485       629      2257      2688      2689
 -1      1105    8    0    1
 -2       487       486       630      2260      2690      2691
 -1      1106    8    0    1
 -2       486       629       630      2689      2692      2690
 -1      1107    8    0    1
 -2       488       487       631      2263      2693      2694
 -1      1108    8    0    1
 -2       487       630       631      2691      2695      2693
 -1      1109    8    0    1
 -2       489       488       632      2266      2696      2697
 -1      1110    8    0    1
 -2       488       631       632      2694      2698      2696
 -1      1111    8    0    1
 -2       490       489       633      2269      2699      2700
 -1      1112    8    0    1
 -2       489       632       633      2697      2701      2699
 -1      1113    8    0    1
 -2       491       490       634      2272      2702      2703
 -1      1114    8    0    1
 -2       490       633       634      2700      2704      2702
 -1      1115    8    0    1
 -2       492       491       635      2275      2705      2706
 -1      1116    8    0    1
 -2       491       634       635      2703      2707      2705
 -1      1117    8    0    1
 -2       493       492       636      2278      2708      2709
 -1      1118    8    0    1
 -2       492       635       636      2706      2710      2708
 -1      1119    8    0    1
 -2       494       493       637      2281      2711      2712
 -1      1120    8    0    1
 -2       493       636       637      2709      2713      2711
 -1      1121    8    0    1
 -2       495       494       638      2284      2714      2715
 -1      1122    8    0    1
 -2       494       637       638      2712      2716      2714
 -1      1123    8    0    1
 -2       496       495       639      2287      2717      2718
 -1      1124    8    0    1
 -2       495       638       639      2715      2719      2717
 -1      1125    8    0    1
 -2       497       496       640      2290      2720      2721
 -1      1126    8    0    1
 -2       496       639       640      2718      2722      2720
 -1      1127    8    0    1
 -2       498       497       641      2293      2723      2724
 -1      1128    8    0    1
 -2       497       640       641      2721      2725      2723
 -1      1129    8    0    1
 -2       499       498       642      2296      2726      2727
 -1      1130    8    0    1
 -2       498       641       642      2724      2728      2726
 -1      1131    8    0    1
 -2       500       499       643      2299      2729      2730
 -1      1132    8    0    1
 -2       499       642       643      2727      2731      2729
 -1      1133    8    0    1
 -2       501       500       644      2302      2732      2733
 -1      1134    8    0    1
 -2       500       643       644      2730      2734      2732
 -1      1135    8    0    1
 -2       502       501       645      2305      2735      2736
 -1      1136    8    0    1
 -2       501       644       645      2733      2737      2735
 -1      1137    8    0    1
 -2       503       502       646      2308      2738      2739
 -1      1138    8    0    1
 -2       502       645       646      2736      2740      2738
 -1      1139    8    0    1
 -2       504       503       647      2311      2741      2742
 -1      1140    8    0    1
 -2       503       646       647      2739      2743      2741
 -1      1141    8    0    1
 -2       505       504       648      2314      2744      2745
 -1      1142    8    0    1
 -2       504       647       648      2742      2746      2744
 -1      1143    8    0    1
 -2       506       505       649      2317      2747      2748
 -1      1144    8    0    1
 -2       505       648       649      2745      2749      2747
 -1      1145    8    0    1
 -2       507       506       650      2320      2750      2751
 -1      1146    8    0    1
 -2       506       649       650      2748      2752      2750
 -1      1147    8    0    1
 -2       508       507       651      2323      2753      2754
 -1      1148    8    0    1
 -2       507       650       651      2751      2755      2753
 -1      1149    8    0    1
 -2       509       508       652      2326      2756      2757
 -1      1150    8    0    1
 -2       508       651       652      2754      2758      2756
 -1      1151    8    0    1
 -2       510       509       653      2329      2759      2760
 -1      1152    8    0    1
 -2       509       652       653      2757      2761      2759
 -1      1153    8    0    1
 -2       511       510       654      2332      2762      2763
 -1      1154    8    0    1
 -2       510       653       654      2760      2764      2762
 -1      1155    8    0    1
 -2       512       511       655      2335      2765      2766
 -1      1156    8    0    1
 -2       511       654       655      2763      2767      2765
 -1      1157    8    0    1
 -2       513       512       656      2338      2768      2769
 -1      1158    8    0    1
 -2       512       655       656      2766      2770      2768
 -1      1159    8    0    1
 -2       514       513       657      2341      2771      2772
 -1      1160    8    0    1
 -2       513       656       657      2769      2773      2771
 -1      1161    8    0    1
 -2       515       514       658      2344      2774      2775
 -1      1162    8    0    1
 -2       514       657       658      2772      2776      2774
 -1      1163    8    0    1
 -2       516       515       659      2347      2777      2778
 -1      1164    8    0    1
 -2       515       658       659      2775      2779      2777
 -1      1165    8    0    1
 -2       517       516       660      2350      2780      2781
 -1      1166    8    0    1
 -2       516       659       660      2778      2782      2780
 -1      1167    8    0    1
 -2       518       517       661      2353      2783      2784
 -1      1168    8    0    1
 -2       517       660       661      2781      2785      2783
 -1      1169    8    0    1
 -2       519       518       662      2356      2786      2787
 -1      1170    8    0    1
 -2       518       661       662      2784      2788      2786
 -1      1171    8    0    1
 -2       520       519       619      2359      2789      2790
 -1      1172    8    0    1
 -2       522       521       663      2365      2791      2792
 -1      1173    8    0    1
 -2       523       522       664      2368      2793      2794
 -1      1174    8    0    1
 -2       522       663       664      2792      2795      2793
 -1      1175    8    0    1
 -2       524       523       665      2371      2796      2797
 -1      1176    8    0    1
 -2       523       664       665      2794      2798      2796
 -1      1177    8    0    1
 -2       525       524       666      2374      2799      2800
 -1      1178    8    0    1
 -2       524       665       666      2797      2801      2799
 -1      1179    8    0    1
 -2       526       525       667      2377      2802      2803
 -1      1180    8    0    1
 -2       525       666       667      2800      2804      2802
 -1      1181    8    0    1
 -2       527       526       668      2380      2805      2806
 -1      1182    8    0    1
 -2       526       667       668      2803      2807      2805
 -1      1183    8    0    1
 -2       610       585       669      2636      2808      2809
 -1      1184    8    0    1
 -2       611       528       670      2631      2810      2811
 -1      1185    8    0    1
 -2       529       530       671      2387      2812      2813
 -1      1186    8    0    1
 -2       532       533       672      2396      2814      2815
 -1      1187    8    0    1
 -2       533       534       673      2399      2816      2817
 -1      1188    8    0    1
 -2       533       673       672      2817      2818      2814
 -1      1189    8    0    1
 -2       534       535       674      2402      2819      2820
 -1      1190    8    0    1
 -2       534       674       673      2820      2821      2816
 -1      1191    8    0    1
 -2       535       536       675      2405      2822      2823
 -1      1192    8    0    1
 -2       535       675       674      2823      2824      2819
 -1      1193    8    0    1
 -2       536       537       676      2408      2825      2826
 -1      1194    8    0    1
 -2       536       676       675      2826      2827      2822
 -1      1195    8    0    1
 -2       537       538       677      2411      2828      2829
 -1      1196    8    0    1
 -2       537       677       676      2829      2830      2825
 -1      1197    8    0    1
 -2       538       539       678      2414      2831      2832
 -1      1198    8    0    1
 -2       538       678       677      2832      2833      2828
 -1      1199    8    0    1
 -2       539       540       679      2417      2834      2835
 -1      1200    8    0    1
 -2       539       679       678      2835      2836      2831
 -1      1201    8    0    1
 -2       540       541       680      2420      2837      2838
 -1      1202    8    0    1
 -2       540       680       679      2838      2839      2834
 -1      1203    8    0    1
 -2       541       542       681      2423      2840      2841
 -1      1204    8    0    1
 -2       541       681       680      2841      2842      2837
 -1      1205    8    0    1
 -2       542       543       682      2426      2843      2844
 -1      1206    8    0    1
 -2       542       682       681      2844      2845      2840
 -1      1207    8    0    1
 -2       543       544       683      2429      2846      2847
 -1      1208    8    0    1
 -2       543       683       682      2847      2848      2843
 -1      1209    8    0    1
 -2       544       545       684      2432      2849      2850
 -1      1210    8    0    1
 -2       544       684       683      2850      2851      2846
 -1      1211    8    0    1
 -2       545       546       685      2435      2852      2853
 -1      1212    8    0    1
 -2       545       685       684      2853      2854      2849
 -1      1213    8    0    1
 -2       546       547       686      2438      2855      2856
 -1      1214    8    0    1
 -2       546       686       685      2856      2857      2852
 -1      1215    8    0    1
 -2       547       548       687      2441      2858      2859
 -1      1216    8    0    1
 -2       547       687       686      2859      2860      2855
 -1      1217    8    0    1
 -2       548       549       688      2444      2861      2862
 -1      1218    8    0    1
 -2       548       688       687      2862      2863      2858
 -1      1219    8    0    1
 -2       549       550       689      2447      2864      2865
 -1      1220    8    0    1
 -2       549       689       688      2865      2866      2861
 -1      1221    8    0    1
 -2       550       551       690      2450      2867      2868
 -1      1222    8    0    1
 -2       550       690       689      2868      2869      2864
 -1      1223    8    0    1
 -2       551       552       691      2453      2870      2871
 -1      1224    8    0    1
 -2       551       691       690      2871      2872      2867
 -1      1225    8    0    1
 -2       552       553       692      2456      2873      2874
 -1      1226    8    0    1
 -2       552       692       691      2874      2875      2870
 -1      1227    8    0    1
 -2       553       554       693      2459      2876      2877
 -1      1228    8    0    1
 -2       553       693       692      2877      2878      2873
 -1      1229    8    0    1
 -2       554       555       694      2462      2879      2880
 -1      1230    8    0    1
 -2       554       694       693      2880      2881      2876
 -1      1231    8    0    1
 -2       555       556       695      2465      2882      2883
 -1      1232    8    0    1
 -2       555       695       694      2883      2884      2879
 -1      1233    8    0    1
 -2       556       557       696      2468      2885      2886
 -1      1234    8    0    1
 -2       556       696       695      2886      2887      2882
 -1      1235    8    0    1
 -2       557       558       697      2471      2888      2889
 -1      1236    8    0    1
 -2       557       697       696      2889      2890      2885
 -1      1237    8    0    1
 -2       558       559       698      2474      2891      2892
 -1      1238    8    0    1
 -2       558       698       697      2892      2893      2888
 -1      1239    8    0    1
 -2       559       560       699      2477      2894      2895
 -1      1240    8    0    1
 -2       559       699       698      2895      2896      2891
 -1      1241    8    0    1
 -2       560       561       700      2480      2897      2898
 -1      1242    8    0    1
 -2       560       700       699      2898      2899      2894
 -1      1243    8    0    1
 -2       561       562       701      2483      2900      2901
 -1      1244    8    0    1
 -2       561       701       700      2901      2902      2897
 -1      1245    8    0    1
 -2       562       563       702      2486      2903      2904
 -1      1246    8    0    1
 -2       562       702       701      2904      2905      2900
 -1      1247    8    0    1
 -2       563       564       703      2489      2906      2907
 -1      1248    8    0    1
 -2       563       703       702      2907      2908      2903
 -1      1249    8    0    1
 -2       564       565       704      2492      2909      2910
 -1      1250    8    0    1
 -2       564       704       703      2910      2911      2906
 -1      1251    8    0    1
 -2       565       566       705      2495      2912      2913
 -1      1252    8    0    1
 -2       565       705       704      2913      2914      2909
 -1      1253    8    0    1
 -2       566       567       706      2498      2915      2916
 -1      1254    8    0    1
 -2       566       706       705      2916      2917      2912
 -1      1255    8    0    1
 -2       567       568       707      2501      2918      2919
 -1      1256    8    0    1
 -2       567       707       706      2919      2920      2915
 -1      1257    8    0    1
 -2       568       569       708      2504      2921      2922
 -1      1258    8    0    1
 -2       568       708       707      2922      2923      2918
 -1      1259    8    0    1
 -2       569       570       709      2507      2924      2925
 -1      1260    8    0    1
 -2       708       569       709      2921      2925      2926
 -1      1261    8    0    1
 -2       570       573       709      2664      2927      2924
 -1      1262    8    0    1
 -2       575       576       710      2525      2928      2929
 -1      1263    8    0    1
 -2       615       527       711      2665      2930      2931
 -1      1264    8    0    1
 -2       581       615       711      2634      2931      2932
 -1      1265    8    0    1
 -2       527       668       711      2806      2933      2930
 -1      1266    8    0    1
 -2       571       572       712      2513      2934      2935
 -1      1267    8    0    1
 -2       576       577       713      2528      2936      2937
 -1      1268    8    0    1
 -2       576       713       710      2937      2938      2928
 -1      1269    8    0    1
 -2       572       575       714      2522      2939      2940
 -1      1270    8    0    1
 -2       712       572       714      2934      2940      2941
 -1      1271    8    0    1
 -2       575       710       714      2929      2942      2939
 -1      1272    8    0    1
 -2       528       584       715      2628      2943      2944
 -1      1273    8    0    1
 -2       528       715       670      2944      2945      2810
 -1      1274    8    0    1
 -2       577       578       716      2531      2946      2947
 -1      1275    8    0    1
 -2       577       716       713      2947      2948      2936
 -1      1276    8    0    1
 -2       578       579       717      2534      2949      2950
 -1      1277    8    0    1
 -2       578       717       716      2950      2951      2946
 -1      1278    8    0    1
 -2       579       580       718      2537      2952      2953
 -1      1279    8    0    1
 -2       579       718       717      2953      2954      2949
 -1      1280    8    0    1
 -2       580       581       719      2540      2955      2956
 -1      1281    8    0    1
 -2       718       580       719      2952      2956      2957
 -1      1282    8    0    1
 -2       581       711       719      2932      2958      2955
 -1      1283    8    0    1
 -2       583       529       720      2546      2959      2960
 -1      1284    8    0    1
 -2       627       583       720      2682      2960      2961
 -1      1285    8    0    1
 -2       529       671       720      2813      2962      2959
 -1      1286    8    0    1
 -2       609       610       721      2637      2963      2964
 -1      1287    8    0    1
 -2       483       586       722      2553      2965      2966
 -1      1288    8    0    1
 -2       597       598       723      2652      2967      2968
 -1      1289    8    0    1
 -2       608       609       724      2643      2969      2970
 -1      1290    8    0    1
 -2       531       532       725      2393      2971      2972
 -1      1291    8    0    1
 -2       532       672       725      2815      2973      2971
 -1      1292    8    0    1
 -2       530       531       726      2390      2974      2975
 -1      1293    8    0    1
 -2       531       725       726      2972      2976      2974
 -1      1294    8    0    1
 -2       485       483       727      2254      2977      2978
 -1      1295    8    0    1
 -2       629       485       727      2688      2978      2979
 -1      1296    8    0    1
 -2       483       722       727      2966      2980      2977
 -1      1297    8    0    1
 -2       596       597       728      2581      2981      2982
 -1      1298    8    0    1
 -2       584       587       729      2557      2983      2984
 -1      1299    8    0    1
 -2       591       589       730      2657      2985      2986
 -1      1300    8    0    1
 -2       478       479       731      2238      2987      2988
 -1      1301    8    0    1
 -2       620       478       731      2666      2988      2989
 -1      1302    8    0    1
 -2       479       622       731      2672      2990      2987
 -1      1303    8    0    1
 -2       475       474       732      2227      2991      2992
 -1      1304    8    0    1
 -2       606       607       733      2649      2993      2994
 -1      1305    8    0    1
 -2       600       601       734      2659      2995      2996
 -1      1306    8    0    1
 -2       586       447       722      2656      2997      2965
 -1      1307    8    0    1
 -2       484       593       735      2658      2998      2999
 -1      1308    8    0    1
 -2       592       596       736      2578      3000      3001
 -1      1309    8    0    1
 -2       596       728       736      2982      3002      3000
 -1      1310    8    0    1
 -2       585       582       737      2627      3003      3004
 -1      1311    8    0    1
 -2       601       602       738      2660      3005      3006
 -1      1312    8    0    1
 -2       602       603       739      2596      3007      3008
 -1      1313    8    0    1
 -2       603       604       740      2651      3009      3010
 -1      1314    8    0    1
 -2       605       606       741      2650      3011      3012
 -1      1315    8    0    1
 -2       606       733       741      2994      3013      3011
 -1      1316    8    0    1
 -2       589       594       742      2645      3014      3015
 -1      1317    8    0    1
 -2       589       742       730      3015      3016      2985
 -1      1318    8    0    1
 -2       607       608       743      2644      3017      3018
 -1      1319    8    0    1
 -2       587       613       744      2626      3019      3020
 -1      1320    8    0    1
 -2       587       744       729      3020      3021      2983
 -1      1321    8    0    1
 -2       614       475       745      2621      3022      3023
 -1      1322    8    0    1
 -2       475       732       745      2992      3024      3022
 -1      1323    8    0    1
 -2       476       621       746      2669      3025      3026
 -1      1324    8    0    1
 -2       476       746       590      3026      3027      2565
 -1      1325    8    0    1
 -2       593       628       735      2686      3028      2998
 -1      1326    8    0    1
 -2       594       625       742      2679      3029      3014
 -1      1327    8    0    1
 -2       613       626       744      2681      3030      3019
 -1      1328    8    0    1
 -2       628       591       730      2685      2986      3031
 -1      1329    8    0    1
 -2       481       473       624      2687      2677      3032
 -1      1330    8    0    1
 -2       728       597       723      2981      2968      3033
 -1      1331    8    0    1
 -2       610       669       721      2809      3034      2963
 -1      1332    8    0    1
 -2       521       520       747      2362      3035      3036
 -1      1333    8    0    1
 -2       571       712       748      2935      3037      3038
 -1      1334    8    0    1
 -2       571       748       574      3038      3039      2519
 -1      1335    8    0    1
 -2       669       585       737      2808      3004      3040
 -1      1336    8    0    1
 -2       611       670       749      2811      3041      3042
 -1      1337    8    0    1
 -2       611       749       616      3042      3043      2640
 -1      1338    8    0    1
 -2       609       721       724      2964      3044      2969
 -1      1339    8    0    1
 -2       530       726       671      2975      3045      2812
 -1      1340    8    0    1
 -2       573       574       750      2518      3046      3047
 -1      1341    8    0    1
 -2       709       573       750      2927      3047      3048
 -1      1342    8    0    1
 -2       574       748       750      3039      3049      3046
 -1      1343    8    0    1
 -2       723       598       751      2967      3050      3051
 -1      1344    8    0    1
 -2       739       603       740      3007      3010      3052
 -1      1345    8    0    1
 -2       738       602       739      3005      3008      3053
 -1      1346    8    0    1
 -2       484       735       626      2999      3054      2680
 -1      1347    8    0    1
 -2       734       601       738      2995      3006      3055
 -1      1348    8    0    1
 -2       607       743       733      3018      3056      2993
 -1      1349    8    0    1
 -2       617       592       752      2648      3057      3058
 -1      1350    8    0    1
 -2       592       736       752      3001      3059      3057
 -1      1351    8    0    1
 -2       608       724       743      2970      3060      3017
 -1      1352    8    0    1
 -2       599       595       753      2587      3061      3062
 -1      1353    8    0    1
 -2       618       600       754      2655      3063      3064
 -1      1354    8    0    1
 -2       600       734       754      2996      3065      3063
 -1      1355    8    0    1
 -2       663       521       747      2791      3036      3066
 -1      1356    8    0    1
 -2       447       614       722      2623      3067      2997
 -1      1357    8    0    1
 -2       474       590       755      2564      3068      3069
 -1      1358    8    0    1
 -2       732       474       755      2991      3069      3070
 -1      1359    8    0    1
 -2       590       746       755      3027      3071      3068
 -1      1360    8    0    1
 -2       584       729       715      2984      3072      2943
 -1      1361    8    0    1
 -2       481       624       623      3032      3073      2673
 -1      1362    8    0    1
 -2       588       617       756      2647      3074      3075
 -1      1363    8    0    1
 -2       588       756       625      3075      3076      2678
 -1      1364    8    0    1
 -2       737       582       757      3003      3077      3078
 -1      1365    8    0    1
 -2       582       616       757      2639      3079      3077
 -1      1366    8    0    1
 -2       595       618       758      2654      3080      3081
 -1      1367    8    0    1
 -2       595       758       753      3081      3082      3061
 -1      1368    8    0    1
 -2       598       599       759      2586      3083      3084
 -1      1369    8    0    1
 -2       751       598       759      3050      3084      3085
 -1      1370    8    0    1
 -2       599       753       759      3062      3086      3083
 -1      1371    8    0    1
 -2       619       605       741      2663      3012      3087
 -1      1372    8    0    1
 -2       728       723       760      3033      3088      3089
 -1      1373    8    0    1
 -2       622       623       761      2675      3090      3091
 -1      1374    8    0    1
 -2       715       729       762      3072      3092      3093
 -1      1375    8    0    1
 -2       519       662       619      2787      3094      2789
 -1      1376    8    0    1
 -2       631       630       763      2695      3095      3096
 -1      1377    8    0    1
 -2       632       631       764      2698      3097      3098
 -1      1378    8    0    1
 -2       631       763       764      3096      3099      3097
 -1      1379    8    0    1
 -2       633       632       765      2701      3100      3101
 -1      1380    8    0    1
 -2       632       764       765      3098      3102      3100
 -1      1381    8    0    1
 -2       634       633       766      2704      3103      3104
 -1      1382    8    0    1
 -2       633       765       766      3101      3105      3103
 -1      1383    8    0    1
 -2       635       634       767      2707      3106      3107
 -1      1384    8    0    1
 -2       634       766       767      3104      3108      3106
 -1      1385    8    0    1
 -2       636       635       768      2710      3109      3110
 -1      1386    8    0    1
 -2       635       767       768      3107      3111      3109
 -1      1387    8    0    1
 -2       637       636       769      2713      3112      3113
 -1      1388    8    0    1
 -2       636       768       769      3110      3114      3112
 -1      1389    8    0    1
 -2       638       637       770      2716      3115      3116
 -1      1390    8    0    1
 -2       637       769       770      3113      3117      3115
 -1      1391    8    0    1
 -2       639       638       771      2719      3118      3119
 -1      1392    8    0    1
 -2       638       770       771      3116      3120      3118
 -1      1393    8    0    1
 -2       640       639       772      2722      3121      3122
 -1      1394    8    0    1
 -2       639       771       772      3119      3123      3121
 -1      1395    8    0    1
 -2       641       640       773      2725      3124      3125
 -1      1396    8    0    1
 -2       640       772       773      3122      3126      3124
 -1      1397    8    0    1
 -2       642       641       774      2728      3127      3128
 -1      1398    8    0    1
 -2       641       773       774      3125      3129      3127
 -1      1399    8    0    1
 -2       643       642       775      2731      3130      3131
 -1      1400    8    0    1
 -2       642       774       775      3128      3132      3130
 -1      1401    8    0    1
 -2       644       643       776      2734      3133      3134
 -1      1402    8    0    1
 -2       643       775       776      3131      3135      3133
 -1      1403    8    0    1
 -2       645       644       777      2737      3136      3137
 -1      1404    8    0    1
 -2       644       776       777      3134      3138      3136
 -1      1405    8    0    1
 -2       646       645       778      2740      3139      3140
 -1      1406    8    0    1
 -2       645       777       778      3137      3141      3139
 -1      1407    8    0    1
 -2       647       646       779      2743      3142      3143
 -1      1408    8    0    1
 -2       646       778       779      3140      3144      3142
 -1      1409    8    0    1
 -2       648       647       780      2746      3145      3146
 -1      1410    8    0    1
 -2       647       779       780      3143      3147      3145
 -1      1411    8    0    1
 -2       649       648       781      2749      3148      3149
 -1      1412    8    0    1
 -2       648       780       781      3146      3150      3148
 -1      1413    8    0    1
 -2       650       649       782      2752      3151      3152
 -1      1414    8    0    1
 -2       649       781       782      3149      3153      3151
 -1      1415    8    0    1
 -2       651       650       783      2755      3154      3155
 -1      1416    8    0    1
 -2       650       782       783      3152      3156      3154
 -1      1417    8    0    1
 -2       652       651       784      2758      3157      3158
 -1      1418    8    0    1
 -2       651       783       784      3155      3159      3157
 -1      1419    8    0    1
 -2       653       652       785      2761      3160      3161
 -1      1420    8    0    1
 -2       652       784       785      3158      3162      3160
 -1      1421    8    0    1
 -2       654       653       786      2764      3163      3164
 -1      1422    8    0    1
 -2       653       785       786      3161      3165      3163
 -1      1423    8    0    1
 -2       655       654       787      2767      3166      3167
 -1      1424    8    0    1
 -2       654       786       787      3164      3168      3166
 -1      1425    8    0    1
 -2       656       655       788      2770      3169      3170
 -1      1426    8    0    1
 -2       655       787       788      3167      3171      3169
 -1      1427    8    0    1
 -2       657       656       789      2773      3172      3173
 -1      1428    8    0    1
 -2       656       788       789      3170      3174      3172
 -1      1429    8    0    1
 -2       658       657       790      2776      3175      3176
 -1      1430    8    0    1
 -2       657       789       790      3173      3177      3175
 -1      1431    8    0    1
 -2       659       658       791      2779      3178      3179
 -1      1432    8    0    1
 -2       658       790       791      3176      3180      3178
 -1      1433    8    0    1
 -2       660       659       792      2782      3181      3182
 -1      1434    8    0    1
 -2       659       791       792      3179      3183      3181
 -1      1435    8    0    1
 -2       662       661       740      2788      3184      3185
 -1      1436    8    0    1
 -2       662       740       619      3185      3186      3094
 -1      1437    8    0    1
 -2       747       520       619      3035      2790      3187
 -1      1438    8    0    1
 -2       723       751       793      3051      3188      3189
 -1      1439    8    0    1
 -2       723       793       760      3189      3190      3088
 -1      1440    8    0    1
 -2       665       664       794      2798      3191      3192
 -1      1441    8    0    1
 -2       666       665       795      2801      3193      3194
 -1      1442    8    0    1
 -2       665       794       795      3192      3195      3193
 -1      1443    8    0    1
 -2       667       666       796      2804      3196      3197
 -1      1444    8    0    1
 -2       666       795       796      3194      3198      3196
 -1      1445    8    0    1
 -2       668       667       797      2807      3199      3200
 -1      1446    8    0    1
 -2       667       796       797      3197      3201      3199
 -1      1447    8    0    1
 -2       628       730       702      3031      3202      3203
 -1      1448    8    0    1
 -2       672       673       798      2818      3204      3205
 -1      1449    8    0    1
 -2       675       676       799      2827      3206      3207
 -1      1450    8    0    1
 -2       676       677       800      2830      3208      3209
 -1      1451    8    0    1
 -2       676       800       799      3209      3210      3206
 -1      1452    8    0    1
 -2       677       678       801      2833      3211      3212
 -1      1453    8    0    1
 -2       677       801       800      3212      3213      3208
 -1      1454    8    0    1
 -2       678       679       802      2836      3214      3215
 -1      1455    8    0    1
 -2       678       802       801      3215      3216      3211
 -1      1456    8    0    1
 -2       679       680       803      2839      3217      3218
 -1      1457    8    0    1
 -2       679       803       802      3218      3219      3214
 -1      1458    8    0    1
 -2       680       681       804      2842      3220      3221
 -1      1459    8    0    1
 -2       680       804       803      3221      3222      3217
 -1      1460    8    0    1
 -2       681       682       805      2845      3223      3224
 -1      1461    8    0    1
 -2       681       805       804      3224      3225      3220
 -1      1462    8    0    1
 -2       682       683       806      2848      3226      3227
 -1      1463    8    0    1
 -2       682       806       805      3227      3228      3223
 -1      1464    8    0    1
 -2       683       684       807      2851      3229      3230
 -1      1465    8    0    1
 -2       683       807       806      3230      3231      3226
 -1      1466    8    0    1
 -2       684       685       808      2854      3232      3233
 -1      1467    8    0    1
 -2       684       808       807      3233      3234      3229
 -1      1468    8    0    1
 -2       685       686       809      2857      3235      3236
 -1      1469    8    0    1
 -2       685       809       808      3236      3237      3232
 -1      1470    8    0    1
 -2       686       687       810      2860      3238      3239
 -1      1471    8    0    1
 -2       686       810       809      3239      3240      3235
 -1      1472    8    0    1
 -2       687       688       811      2863      3241      3242
 -1      1473    8    0    1
 -2       687       811       810      3242      3243      3238
 -1      1474    8    0    1
 -2       688       689       812      2866      3244      3245
 -1      1475    8    0    1
 -2       688       812       811      3245      3246      3241
 -1      1476    8    0    1
 -2       689       690       813      2869      3247      3248
 -1      1477    8    0    1
 -2       689       813       812      3248      3249      3244
 -1      1478    8    0    1
 -2       690       691       814      2872      3250      3251
 -1      1479    8    0    1
 -2       690       814       813      3251      3252      3247
 -1      1480    8    0    1
 -2       691       692       815      2875      3253      3254
 -1      1481    8    0    1
 -2       691       815       814      3254      3255      3250
 -1      1482    8    0    1
 -2       692       693       816      2878      3256      3257
 -1      1483    8    0    1
 -2       692       816       815      3257      3258      3253
 -1      1484    8    0    1
 -2       693       694       817      2881      3259      3260
 -1      1485    8    0    1
 -2       693       817       816      3260      3261      3256
 -1      1486    8    0    1
 -2       694       695       818      2884      3262      3263
 -1      1487    8    0    1
 -2       694       818       817      3263      3264      3259
 -1      1488    8    0    1
 -2       695       696       819      2887      3265      3266
 -1      1489    8    0    1
 -2       695       819       818      3266      3267      3262
 -1      1490    8    0    1
 -2       696       697       820      2890      3268      3269
 -1      1491    8    0    1
 -2       696       820       819      3269      3270      3265
 -1      1492    8    0    1
 -2       697       698       821      2893      3271      3272
 -1      1493    8    0    1
 -2       697       821       820      3272      3273      3268
 -1      1494    8    0    1
 -2       698       699       822      2896      3274      3275
 -1      1495    8    0    1
 -2       698       822       821      3275      3276      3271
 -1      1496    8    0    1
 -2       699       700       756      2899      3277      3278
 -1      1497    8    0    1
 -2       700       701       742      2902      3279      3280
 -1      1498    8    0    1
 -2       702       703       628      2908      3281      3203
 -1      1499    8    0    1
 -2       703       704       735      2911      3282      3283
 -1      1500    8    0    1
 -2       705       706       823      2917      3284      3285
 -1      1501    8    0    1
 -2       706       707       824      2920      3286      3287
 -1      1502    8    0    1
 -2       706       824       823      3287      3288      3284
 -1      1503    8    0    1
 -2       707       708       825      2923      3289      3290
 -1      1504    8    0    1
 -2       707       825       824      3290      3291      3286
 -1      1505    8    0    1
 -2       708       709       826      2926      3292      3293
 -1      1506    8    0    1
 -2       825       708       826      3289      3293      3294
 -1      1507    8    0    1
 -2       709       750       826      3048      3295      3292
 -1      1508    8    0    1
 -2       711       668       719      2933      3296      2958
 -1      1509    8    0    1
 -2       621       620       827      2670      3297      3298
 -1      1510    8    0    1
 -2       716       717       828      2951      3299      3300
 -1      1511    8    0    1
 -2       710       713       829      2938      3301      3302
 -1      1512    8    0    1
 -2       671       726       830      3045      3303      3304
 -1      1513    8    0    1
 -2       717       718       831      2954      3305      3306
 -1      1514    8    0    1
 -2       717       831       828      3306      3307      3299
 -1      1515    8    0    1
 -2       740       604       619      3009      2662      3186
 -1      1516    8    0    1
 -2       739       740       661      3052      3184      3308
 -1      1517    8    0    1
 -2       736       728       832      3002      3309      3310
 -1      1518    8    0    1
 -2       724       721       833      3044      3311      3312
 -1      1519    8    0    1
 -2       725       672       834      2973      3313      3314
 -1      1520    8    0    1
 -2       672       798       834      3205      3315      3313
 -1      1521    8    0    1
 -2       674       675       835      2824      3316      3317
 -1      1522    8    0    1
 -2       675       799       835      3207      3318      3316
 -1      1523    8    0    1
 -2       721       669       836      3034      3319      3320
 -1      1524    8    0    1
 -2       673       674       837      2821      3321      3322
 -1      1525    8    0    1
 -2       798       673       837      3204      3322      3323
 -1      1526    8    0    1
 -2       674       835       837      3317      3324      3321
 -1      1527    8    0    1
 -2       713       716       838      2948      3325      3326
 -1      1528    8    0    1
 -2       716       828       838      3300      3327      3325
 -1      1529    8    0    1
 -2       664       663       743      2795      3328      3329
 -1      1530    8    0    1
 -2       735       628       703      3028      3281      3283
 -1      1531    8    0    1
 -2       630       629       839      2692      3330      3331
 -1      1532    8    0    1
 -2       630       839       763      3331      3332      3095
 -1      1533    8    0    1
 -2       669       737       840      3040      3333      3334
 -1      1534    8    0    1
 -2       726       725       841      2976      3335      3336
 -1      1535    8    0    1
 -2       725       834       841      3314      3337      3335
 -1      1536    8    0    1
 -2       722       614       745      3067      3023      3338
 -1      1537    8    0    1
 -2       734       738       842      3055      3339      3340
 -1      1538    8    0    1
 -2       743       724       794      3060      3341      3342
 -1      1539    8    0    1
 -2       623       624       843      3073      3343      3344
 -1      1540    8    0    1
 -2       761       623       843      3090      3344      3345
 -1      1541    8    0    1
 -2       624       627       843      2684      3346      3343
 -1      1542    8    0    1
 -2       733       743       663      3056      3328      3347
 -1      1543    8    0    1
 -2       738       739       844      3053      3348      3349
 -1      1544    8    0    1
 -2       670       715       845      2945      3350      3351
 -1      1545    8    0    1
 -2       715       762       845      3093      3352      3350
 -1      1546    8    0    1
 -2       744       626       846      3030      3353      3354
 -1      1547    8    0    1
 -2       729       744       847      3021      3355      3356
 -1      1548    8    0    1
 -2       733       663       747      3347      3066      3357
 -1      1549    8    0    1
 -2       739       661       844      3308      3358      3348
 -1      1550    8    0    1
 -2       735       704       848      3282      3359      3360
 -1      1551    8    0    1
 -2       626       735       848      3054      3360      3361
 -1      1552    8    0    1
 -2       704       705       848      2914      3362      3359
 -1      1553    8    0    1
 -2       664       743       794      3329      3342      3191
 -1      1554    8    0    1
 -2       746       621       849      3025      3363      3364
 -1      1555    8    0    1
 -2       621       827       849      3298      3365      3363
 -1      1556    8    0    1
 -2       622       761       850      3091      3366      3367
 -1      1557    8    0    1
 -2       622       850       731      3367      3368      2990
 -1      1558    8    0    1
 -2       744       846       847      3354      3369      3355
 -1      1559    8    0    1
 -2       748       712       851      3037      3370      3371
 -1      1560    8    0    1
 -2       669       840       836      3334      3372      3319
 -1      1561    8    0    1
 -2       660       792       844      3182      3373      3374
 -1      1562    8    0    1
 -2       736       832       752      3310      3375      3059
 -1      1563    8    0    1
 -2       661       660       844      2785      3374      3358
 -1      1564    8    0    1
 -2       848       705       823      3362      3285      3376
 -1      1565    8    0    1
 -2       793       751       852      3188      3377      3378
 -1      1566    8    0    1
 -2       668       797       719      3200      3379      3296
 -1      1567    8    0    1
 -2       749       670       853      3041      3380      3381
 -1      1568    8    0    1
 -2       670       845       853      3351      3382      3380
 -1      1569    8    0    1
 -2       713       838       829      3326      3383      3301
 -1      1570    8    0    1
 -2       721       836       833      3320      3384      3311
 -1      1571    8    0    1
 -2       699       756       822      3278      3385      3274
 -1      1572    8    0    1
 -2       700       742       625      3280      3029      3386
 -1      1573    8    0    1
 -2       839       629       854      3330      3387      3388
 -1      1574    8    0    1
 -2       629       727       854      2979      3389      3387
 -1      1575    8    0    1
 -2       712       714       855      2941      3390      3391
 -1      1576    8    0    1
 -2       712       855       851      3391      3392      3370
 -1      1577    8    0    1
 -2       827       620       856      3297      3393      3394
 -1      1578    8    0    1
 -2       620       731       856      2989      3395      3393
 -1      1579    8    0    1
 -2       741       733       747      3013      3357      3396
 -1      1580    8    0    1
 -2       627       720       857      2961      3397      3398
 -1      1581    8    0    1
 -2       627       857       843      3398      3399      3346
 -1      1582    8    0    1
 -2       714       710       858      2942      3400      3401
 -1      1583    8    0    1
 -2       855       714       858      3390      3401      3402
 -1      1584    8    0    1
 -2       710       829       858      3302      3403      3400
 -1      1585    8    0    1
 -2       718       719       797      2957      3379      3404
 -1      1586    8    0    1
 -2       720       671       859      2962      3405      3406
 -1      1587    8    0    1
 -2       857       720       859      3397      3406      3407
 -1      1588    8    0    1
 -2       671       830       859      3304      3408      3405
 -1      1589    8    0    1
 -2       832       728       760      3309      3089      3409
 -1      1590    8    0    1
 -2       831       718       797      3305      3404      3410
 -1      1591    8    0    1
 -2       830       726       841      3303      3336      3411
 -1      1592    8    0    1
 -2       724       833       794      3312      3412      3341
 -1      1593    8    0    1
 -2       722       745       727      3338      3413      2980
 -1      1594    8    0    1
 -2       616       749       860      3043      3414      3415
 -1      1595    8    0    1
 -2       616       860       757      3415      3416      3079
 -1      1596    8    0    1
 -2       754       734       861      3065      3417      3418
 -1      1597    8    0    1
 -2       734       842       861      3340      3419      3417
 -1      1598    8    0    1
 -2       738       844       842      3349      3420      3339
 -1      1599    8    0    1
 -2       751       759       862      3085      3421      3422
 -1      1600    8    0    1
 -2       751       862       852      3422      3423      3377
 -1      1601    8    0    1
 -2       618       754       863      3064      3424      3425
 -1      1602    8    0    1
 -2       618       863       758      3425      3426      3080
 -1      1603    8    0    1
 -2       840       737       864      3333      3427      3428
 -1      1604    8    0    1
 -2       737       757       864      3078      3429      3427
 -1      1605    8    0    1
 -2       756       617       865      3074      3430      3431
 -1      1606    8    0    1
 -2       822       756       865      3385      3431      3432
 -1      1607    8    0    1
 -2       617       752       865      3058      3433      3430
 -1      1608    8    0    1
 -2       700       625       756      3386      3076      3277
 -1      1609    8    0    1
 -2       732       755       866      3070      3434      3435
 -1      1610    8    0    1
 -2       759       753       867      3086      3436      3437
 -1      1611    8    0    1
 -2       759       867       862      3437      3438      3421
 -1      1612    8    0    1
 -2       762       729       847      3092      3356      3439
 -1      1613    8    0    1
 -2       626       848       846      3361      3440      3353
 -1      1614    8    0    1
 -2       753       758       867      3082      3441      3436
 -1      1615    8    0    1
 -2       745       732       868      3024      3442      3443
 -1      1616    8    0    1
 -2       732       866       868      3435      3444      3442
 -1      1617    8    0    1
 -2       747       619       741      3187      3087      3396
 -1      1618    8    0    1
 -2       836       840       869      3372      3445      3446
 -1      1619    8    0    1
 -2       844       792       842      3373      3447      3420
 -1      1620    8    0    1
 -2       752       832       870      3375      3448      3449
 -1      1621    8    0    1
 -2       765       764       871      3102      3450      3451
 -1      1622    8    0    1
 -2       766       765       872      3105      3452      3453
 -1      1623    8    0    1
 -2       765       871       872      3451      3454      3452
 -1      1624    8    0    1
 -2       767       766       873      3108      3455      3456
 -1      1625    8    0    1
 -2       766       872       873      3453      3457      3455
 -1      1626    8    0    1
 -2       768       767       874      3111      3458      3459
 -1      1627    8    0    1
 -2       767       873       874      3456      3460      3458
 -1      1628    8    0    1
 -2       769       768       875      3114      3461      3462
 -1      1629    8    0    1
 -2       768       874       875      3459      3463      3461
 -1      1630    8    0    1
 -2       770       769       876      3117      3464      3465
 -1      1631    8    0    1
 -2       769       875       876      3462      3466      3464
 -1      1632    8    0    1
 -2       771       770       877      3120      3467      3468
 -1      1633    8    0    1
 -2       770       876       877      3465      3469      3467
 -1      1634    8    0    1
 -2       772       771       878      3123      3470      3471
 -1      1635    8    0    1
 -2       771       877       878      3468      3472      3470
 -1      1636    8    0    1
 -2       773       772       879      3126      3473      3474
 -1      1637    8    0    1
 -2       772       878       879      3471      3475      3473
 -1      1638    8    0    1
 -2       774       773       880      3129      3476      3477
 -1      1639    8    0    1
 -2       773       879       880      3474      3478      3476
 -1      1640    8    0    1
 -2       775       774       881      3132      3479      3480
 -1      1641    8    0    1
 -2       774       880       881      3477      3481      3479
 -1      1642    8    0    1
 -2       776       775       882      3135      3482      3483
 -1      1643    8    0    1
 -2       775       881       882      3480      3484      3482
 -1      1644    8    0    1
 -2       777       776       883      3138      3485      3486
 -1      1645    8    0    1
 -2       776       882       883      3483      3487      3485
 -1      1646    8    0    1
 -2       778       777       884      3141      3488      3489
 -1      1647    8    0    1
 -2       777       883       884      3486      3490      3488
 -1      1648    8    0    1
 -2       779       778       885      3144      3491      3492
 -1      1649    8    0    1
 -2       778       884       885      3489      3493      3491
 -1      1650    8    0    1
 -2       780       779       886      3147      3494      3495
 -1      1651    8    0    1
 -2       779       885       886      3492      3496      3494
 -1      1652    8    0    1
 -2       781       780       887      3150      3497      3498
 -1      1653    8    0    1
 -2       780       886       887      3495      3499      3497
 -1      1654    8    0    1
 -2       782       781       888      3153      3500      3501
 -1      1655    8    0    1
 -2       781       887       888      3498      3502      3500
 -1      1656    8    0    1
 -2       783       782       889      3156      3503      3504
 -1      1657    8    0    1
 -2       782       888       889      3501      3505      3503
 -1      1658    8    0    1
 -2       784       783       890      3159      3506      3507
 -1      1659    8    0    1
 -2       783       889       890      3504      3508      3506
 -1      1660    8    0    1
 -2       785       784       891      3162      3509      3510
 -1      1661    8    0    1
 -2       784       890       891      3507      3511      3509
 -1      1662    8    0    1
 -2       786       785       892      3165      3512      3513
 -1      1663    8    0    1
 -2       785       891       892      3510      3514      3512
 -1      1664    8    0    1
 -2       787       786       893      3168      3515      3516
 -1      1665    8    0    1
 -2       786       892       893      3513      3517      3515
 -1      1666    8    0    1
 -2       788       787       894      3171      3518      3519
 -1      1667    8    0    1
 -2       787       893       894      3516      3520      3518
 -1      1668    8    0    1
 -2       789       788       895      3174      3521      3522
 -1      1669    8    0    1
 -2       788       894       895      3519      3523      3521
 -1      1670    8    0    1
 -2       790       789       896      3177      3524      3525
 -1      1671    8    0    1
 -2       789       895       896      3522      3526      3524
 -1      1672    8    0    1
 -2       791       790       897      3180      3527      3528
 -1      1673    8    0    1
 -2       790       896       897      3525      3529      3527
 -1      1674    8    0    1
 -2       795       794       833      3195      3412      3530
 -1      1675    8    0    1
 -2       796       795       898      3198      3531      3532
 -1      1676    8    0    1
 -2       795       833       898      3530      3533      3531
 -1      1677    8    0    1
 -2       797       796       899      3201      3534      3535
 -1      1678    8    0    1
 -2       831       797       899      3410      3535      3536
 -1      1679    8    0    1
 -2       796       898       899      3532      3537      3534
 -1      1680    8    0    1
 -2       750       748       900      3049      3538      3539
 -1      1681    8    0    1
 -2       826       750       900      3295      3539      3540
 -1      1682    8    0    1
 -2       748       851       900      3371      3541      3538
 -1      1683    8    0    1
 -2       799       800       901      3210      3542      3543
 -1      1684    8    0    1
 -2       802       803       902      3219      3544      3545
 -1      1685    8    0    1
 -2       803       804       903      3222      3546      3547
 -1      1686    8    0    1
 -2       803       903       902      3547      3548      3544
 -1      1687    8    0    1
 -2       804       805       904      3225      3549      3550
 -1      1688    8    0    1
 -2       804       904       903      3550      3551      3546
 -1      1689    8    0    1
 -2       805       806       905      3228      3552      3553
 -1      1690    8    0    1
 -2       805       905       904      3553      3554      3549
 -1      1691    8    0    1
 -2       806       807       906      3231      3555      3556
 -1      1692    8    0    1
 -2       806       906       905      3556      3557      3552
 -1      1693    8    0    1
 -2       807       808       907      3234      3558      3559
 -1      1694    8    0    1
 -2       807       907       906      3559      3560      3555
 -1      1695    8    0    1
 -2       808       809       908      3237      3561      3562
 -1      1696    8    0    1
 -2       808       908       907      3562      3563      3558
 -1      1697    8    0    1
 -2       809       810       909      3240      3564      3565
 -1      1698    8    0    1
 -2       809       909       908      3565      3566      3561
 -1      1699    8    0    1
 -2       810       811       910      3243      3567      3568
 -1      1700    8    0    1
 -2       810       910       909      3568      3569      3564
 -1      1701    8    0    1
 -2       811       812       911      3246      3570      3571
 -1      1702    8    0    1
 -2       811       911       910      3571      3572      3567
 -1      1703    8    0    1
 -2       812       813       912      3249      3573      3574
 -1      1704    8    0    1
 -2       812       912       911      3574      3575      3570
 -1      1705    8    0    1
 -2       813       814       913      3252      3576      3577
 -1      1706    8    0    1
 -2       813       913       912      3577      3578      3573
 -1      1707    8    0    1
 -2       814       815       914      3255      3579      3580
 -1      1708    8    0    1
 -2       814       914       913      3580      3581      3576
 -1      1709    8    0    1
 -2       815       816       915      3258      3582      3583
 -1      1710    8    0    1
 -2       815       915       914      3583      3584      3579
 -1      1711    8    0    1
 -2       816       817       916      3261      3585      3586
 -1      1712    8    0    1
 -2       816       916       915      3586      3587      3582
 -1      1713    8    0    1
 -2       817       818       917      3264      3588      3589
 -1      1714    8    0    1
 -2       817       917       916      3589      3590      3585
 -1      1715    8    0    1
 -2       818       819       918      3267      3591      3592
 -1      1716    8    0    1
 -2       818       918       917      3592      3593      3588
 -1      1717    8    0    1
 -2       819       820       919      3270      3594      3595
 -1      1718    8    0    1
 -2       819       919       918      3595      3596      3591
 -1      1719    8    0    1
 -2       821       822       870      3276      3597      3598
 -1      1720    8    0    1
 -2       701       702       920      2905      3599      3600
 -1      1721    8    0    1
 -2       793       852       921      3378      3601      3602
 -1      1722    8    0    1
 -2       833       836       898      3384      3603      3533
 -1      1723    8    0    1
 -2       845       762       922      3352      3604      3605
 -1      1724    8    0    1
 -2       830       841       923      3411      3606      3607
 -1      1725    8    0    1
 -2       832       760       924      3409      3608      3609
 -1      1726    8    0    1
 -2       828       831       869      3307      3610      3611
 -1      1727    8    0    1
 -2       834       798       925      3315      3612      3613
 -1      1728    8    0    1
 -2       838       828       864      3327      3614      3615
 -1      1729    8    0    1
 -2       835       799       926      3318      3616      3617
 -1      1730    8    0    1
 -2       799       901       926      3543      3618      3616
 -1      1731    8    0    1
 -2       762       847       927      3439      3619      3620
 -1      1732    8    0    1
 -2       762       927       922      3620      3621      3604
 -1      1733    8    0    1
 -2       742       701       920      3279      3600      3622
 -1      1734    8    0    1
 -2       801       802       928      3216      3623      3624
 -1      1735    8    0    1
 -2       802       902       928      3545      3625      3623
 -1      1736    8    0    1
 -2       755       746       929      3071      3626      3627
 -1      1737    8    0    1
 -2       755       929       866      3627      3628      3434
 -1      1738    8    0    1
 -2       841       834       930      3337      3629      3630
 -1      1739    8    0    1
 -2       834       925       930      3613      3631      3629
 -1      1740    8    0    1
 -2       727       745       854      3413      3632      3389
 -1      1741    8    0    1
 -2       800       801       931      3213      3633      3634
 -1      1742    8    0    1
 -2       901       800       931      3542      3634      3635
 -1      1743    8    0    1
 -2       801       928       931      3624      3636      3633
 -1      1744    8    0    1
 -2       764       763       932      3099      3637      3638
 -1      1745    8    0    1
 -2       764       932       871      3638      3639      3450
 -1      1746    8    0    1
 -2       730       742       920      3016      3622      3640
 -1      1747    8    0    1
 -2       848       823       846      3376      3641      3440
 -1      1748    8    0    1
 -2       761       843       933      3345      3642      3643
 -1      1749    8    0    1
 -2       843       857       933      3399      3644      3642
 -1      1750    8    0    1
 -2       763       839       934      3332      3645      3646
 -1      1751    8    0    1
 -2       763       934       932      3646      3647      3637
 -1      1752    8    0    1
 -2       829       838       864      3383      3615      3648
 -1      1753    8    0    1
 -2       867       758       935      3441      3649      3650
 -1      1754    8    0    1
 -2       758       863       935      3426      3651      3649
 -1      1755    8    0    1
 -2       760       793       936      3190      3652      3653
 -1      1756    8    0    1
 -2       793       921       936      3602      3654      3652
 -1      1757    8    0    1
 -2       846       823       847      3641      3655      3369
 -1      1758    8    0    1
 -2       847       823       824      3655      3288      3656
 -1      1759    8    0    1
 -2       847       824       927      3656      3657      3619
 -1      1760    8    0    1
 -2       850       761       933      3366      3643      3658
 -1      1761    8    0    1
 -2       827       856       937      3394      3659      3660
 -1      1762    8    0    1
 -2       842       792       938      3447      3661      3662
 -1      1763    8    0    1
 -2       870       832       924      3448      3609      3663
 -1      1764    8    0    1
 -2       831       899       869      3536      3664      3610
 -1      1765    8    0    1
 -2       792       791       938      3183      3665      3661
 -1      1766    8    0    1
 -2       760       936       924      3653      3666      3608
 -1      1767    8    0    1
 -2       845       922       853      3605      3667      3382
 -1      1768    8    0    1
 -2       746       849       929      3364      3668      3626
 -1      1769    8    0    1
 -2       866       929       939      3628      3669      3670
 -1      1770    8    0    1
 -2       820       821       940      3273      3671      3672
 -1      1771    8    0    1
 -2       745       868       854      3443      3673      3632
 -1      1772    8    0    1
 -2       898       836       869      3603      3446      3674
 -1      1773    8    0    1
 -2       927       824       825      3657      3291      3675
 -1      1774    8    0    1
 -2       837       835       941      3324      3676      3677
 -1      1775    8    0    1
 -2       835       926       941      3617      3678      3676
 -1      1776    8    0    1
 -2       856       731       850      3395      3368      3679
 -1      1777    8    0    1
 -2       830       923       942      3607      3680      3681
 -1      1778    8    0    1
 -2       858       829       860      3403      3682      3683
 -1      1779    8    0    1
 -2       867       935       943      3650      3684      3685
 -1      1780    8    0    1
 -2       859       830       942      3408      3681      3686
 -1      1781    8    0    1
 -2       825       826       900      3294      3540      3687
 -1      1782    8    0    1
 -2       860       749       853      3414      3381      3688
 -1      1783    8    0    1
 -2       861       842       938      3419      3662      3689
 -1      1784    8    0    1
 -2       798       837       944      3323      3690      3691
 -1      1785    8    0    1
 -2       837       941       944      3677      3692      3690
 -1      1786    8    0    1
 -2       863       754       945      3424      3693      3694
 -1      1787    8    0    1
 -2       754       861       945      3418      3695      3693
 -1      1788    8    0    1
 -2       866       939       946      3670      3696      3697
 -1      1789    8    0    1
 -2       866       946       868      3697      3698      3444
 -1      1790    8    0    1
 -2       851       855       922      3392      3699      3700
 -1      1791    8    0    1
 -2       849       827       947      3365      3701      3702
 -1      1792    8    0    1
 -2       827       937       947      3660      3703      3701
 -1      1793    8    0    1
 -2       927       825       900      3675      3687      3704
 -1      1794    8    0    1
 -2       925       798       944      3612      3691      3705
 -1      1795    8    0    1
 -2       862       867       943      3438      3685      3706
 -1      1796    8    0    1
 -2       934       839       946      3645      3707      3708
 -1      1797    8    0    1
 -2       938       791       897      3665      3528      3709
 -1      1798    8    0    1
 -2       923       841       930      3606      3630      3710
 -1      1799    8    0    1
 -2       940       821       870      3671      3598      3711
 -1      1800    8    0    1
 -2       820       940       919      3672      3712      3594
 -1      1801    8    0    1
 -2       946       839       854      3707      3388      3713
 -1      1802    8    0    1
 -2       937       856       948      3659      3714      3715
 -1      1803    8    0    1
 -2       856       850       948      3679      3716      3714
 -1      1804    8    0    1
 -2       862       943       949      3706      3717      3718
 -1      1805    8    0    1
 -2       862       949       852      3718      3719      3423
 -1      1806    8    0    1
 -2       923       930       950      3710      3720      3721
 -1      1807    8    0    1
 -2       873       872       951      3457      3722      3723
 -1      1808    8    0    1
 -2       874       873       952      3460      3724      3725
 -1      1809    8    0    1
 -2       873       951       952      3723      3726      3724
 -1      1810    8    0    1
 -2       875       874       953      3463      3727      3728
 -1      1811    8    0    1
 -2       874       952       953      3725      3729      3727
 -1      1812    8    0    1
 -2       876       875       954      3466      3730      3731
 -1      1813    8    0    1
 -2       875       953       954      3728      3732      3730
 -1      1814    8    0    1
 -2       877       876       955      3469      3733      3734
 -1      1815    8    0    1
 -2       876       954       955      3731      3735      3733
 -1      1816    8    0    1
 -2       878       877       956      3472      3736      3737
 -1      1817    8    0    1
 -2       877       955       956      3734      3738      3736
 -1      1818    8    0    1
 -2       879       878       957      3475      3739      3740
 -1      1819    8    0    1
 -2       878       956       957      3737      3741      3739
 -1      1820    8    0    1
 -2       880       879       958      3478      3742      3743
 -1      1821    8    0    1
 -2       879       957       958      3740      3744      3742
 -1      1822    8    0    1
 -2       881       880       959      3481      3745      3746
 -1      1823    8    0    1
 -2       880       958       959      3743      3747      3745
 -1      1824    8    0    1
 -2       882       881       960      3484      3748      3749
 -1      1825    8    0    1
 -2       881       959       960      3746      3750      3748
 -1      1826    8    0    1
 -2       883       882       961      3487      3751      3752
 -1      1827    8    0    1
 -2       882       960       961      3749      3753      3751
 -1      1828    8    0    1
 -2       884       883       962      3490      3754      3755
 -1      1829    8    0    1
 -2       883       961       962      3752      3756      3754
 -1      1830    8    0    1
 -2       885       884       963      3493      3757      3758
 -1      1831    8    0    1
 -2       884       962       963      3755      3759      3757
 -1      1832    8    0    1
 -2       886       885       964      3496      3760      3761
 -1      1833    8    0    1
 -2       885       963       964      3758      3762      3760
 -1      1834    8    0    1
 -2       887       886       965      3499      3763      3764
 -1      1835    8    0    1
 -2       886       964       965      3761      3765      3763
 -1      1836    8    0    1
 -2       888       887       966      3502      3766      3767
 -1      1837    8    0    1
 -2       887       965       966      3764      3768      3766
 -1      1838    8    0    1
 -2       889       888       967      3505      3769      3770
 -1      1839    8    0    1
 -2       888       966       967      3767      3771      3769
 -1      1840    8    0    1
 -2       890       889       968      3508      3772      3773
 -1      1841    8    0    1
 -2       889       967       968      3770      3774      3772
 -1      1842    8    0    1
 -2       891       890       969      3511      3775      3776
 -1      1843    8    0    1
 -2       890       968       969      3773      3777      3775
 -1      1844    8    0    1
 -2       892       891       970      3514      3778      3779
 -1      1845    8    0    1
 -2       891       969       970      3776      3780      3778
 -1      1846    8    0    1
 -2       893       892       971      3517      3781      3782
 -1      1847    8    0    1
 -2       892       970       971      3779      3783      3781
 -1      1848    8    0    1
 -2       894       893       972      3520      3784      3785
 -1      1849    8    0    1
 -2       893       971       972      3782      3786      3784
 -1      1850    8    0    1
 -2       895       894       973      3523      3787      3788
 -1      1851    8    0    1
 -2       894       972       973      3785      3789      3787
 -1      1852    8    0    1
 -2       896       895       974      3526      3790      3791
 -1      1853    8    0    1
 -2       895       973       974      3788      3792      3790
 -1      1854    8    0    1
 -2       857       859       975      3407      3793      3794
 -1      1855    8    0    1
 -2       933       857       975      3644      3794      3795
 -1      1856    8    0    1
 -2       859       942       975      3686      3796      3793
 -1      1857    8    0    1
 -2       929       849       976      3668      3797      3798
 -1      1858    8    0    1
 -2       939       929       976      3669      3798      3799
 -1      1859    8    0    1
 -2       849       947       976      3702      3800      3797
 -1      1860    8    0    1
 -2       899       898       869      3537      3674      3664
 -1      1861    8    0    1
 -2       904       905       977      3554      3801      3802
 -1      1862    8    0    1
 -2       702       730       920      3202      3640      3599
 -1      1863    8    0    1
 -2       903       904       978      3551      3803      3804
 -1      1864    8    0    1
 -2       904       977       978      3802      3805      3803
 -1      1865    8    0    1
 -2       902       903       979      3548      3806      3807
 -1      1866    8    0    1
 -2       903       978       979      3804      3808      3806
 -1      1867    8    0    1
 -2       905       906       980      3557      3809      3810
 -1      1868    8    0    1
 -2       905       980       977      3810      3811      3801
 -1      1869    8    0    1
 -2       906       907       981      3560      3812      3813
 -1      1870    8    0    1
 -2       906       981       980      3813      3814      3809
 -1      1871    8    0    1
 -2       907       908       982      3563      3815      3816
 -1      1872    8    0    1
 -2       907       982       981      3816      3817      3812
 -1      1873    8    0    1
 -2       908       909       983      3566      3818      3819
 -1      1874    8    0    1
 -2       908       983       982      3819      3820      3815
 -1      1875    8    0    1
 -2       909       910       984      3569      3821      3822
 -1      1876    8    0    1
 -2       909       984       983      3822      3823      3818
 -1      1877    8    0    1
 -2       910       911       985      3572      3824      3825
 -1      1878    8    0    1
 -2       910       985       984      3825      3826      3821
 -1      1879    8    0    1
 -2       911       912       986      3575      3827      3828
 -1      1880    8    0    1
 -2       911       986       985      3828      3829      3824
 -1      1881    8    0    1
 -2       912       913       987      3578      3830      3831
 -1      1882    8    0    1
 -2       912       987       986      3831      3832      3827
 -1      1883    8    0    1
 -2       913       914       988      3581      3833      3834
 -1      1884    8    0    1
 -2       913       988       987      3834      3835      3830
 -1      1885    8    0    1
 -2       914       915       989      3584      3836      3837
 -1      1886    8    0    1
 -2       914       989       988      3837      3838      3833
 -1      1887    8    0    1
 -2       915       916       990      3587      3839      3840
 -1      1888    8    0    1
 -2       915       990       989      3840      3841      3836
 -1      1889    8    0    1
 -2       916       917       991      3590      3842      3843
 -1      1890    8    0    1
 -2       916       991       990      3843      3844      3839
 -1      1891    8    0    1
 -2       917       918       992      3593      3845      3846
 -1      1892    8    0    1
 -2       917       992       991      3846      3847      3842
 -1      1893    8    0    1
 -2       918       919       993      3596      3848      3849
 -1      1894    8    0    1
 -2       918       993       992      3849      3850      3845
 -1      1895    8    0    1
 -2       870       822       865      3597      3432      3851
 -1      1896    8    0    1
 -2       871       932       994      3639      3852      3853
 -1      1897    8    0    1
 -2       872       871       995      3454      3854      3855
 -1      1898    8    0    1
 -2       871       994       995      3853      3856      3854
 -1      1899    8    0    1
 -2       943       935       996      3684      3857      3858
 -1      1900    8    0    1
 -2       860       829       864      3682      3648      3859
 -1      1901    8    0    1
 -2       942       923       997      3680      3860      3861
 -1      1902    8    0    1
 -2       923       950       997      3721      3862      3860
 -1      1903    8    0    1
 -2       858       860       853      3683      3688      3863
 -1      1904    8    0    1
 -2       934       946       998      3708      3864      3865
 -1      1905    8    0    1
 -2       828       869       864      3611      3866      3614
 -1      1906    8    0    1
 -2       852       949       999      3719      3867      3868
 -1      1907    8    0    1
 -2       852       999       921      3868      3869      3601
 -1      1908    8    0    1
 -2       949       943      1000      3717      3870      3871
 -1      1909    8    0    1
 -2       870       865       752      3851      3433      3449
 -1      1910    8    0    1
 -2       925       944      1001      3705      3872      3873
 -1      1911    8    0    1
 -2       924       936       993      3666      3874      3875
 -1      1912    8    0    1
 -2       850       933       948      3658      3876      3716
 -1      1913    8    0    1
 -2       861       938       897      3689      3709      3877
 -1      1914    8    0    1
 -2       855       858       853      3402      3863      3878
 -1      1915    8    0    1
 -2       946       939       998      3696      3879      3864
 -1      1916    8    0    1
 -2       864       757       860      3429      3416      3859
 -1      1917    8    0    1
 -2       928       902      1002      3625      3880      3881
 -1      1918    8    0    1
 -2       902       979      1002      3807      3882      3880
 -1      1919    8    0    1
 -2       922       855       853      3699      3878      3667
 -1      1920    8    0    1
 -2       930       925      1003      3631      3883      3884
 -1      1921    8    0    1
 -2       925      1001      1003      3873      3885      3883
 -1      1922    8    0    1
 -2       926       901      1004      3618      3886      3887
 -1      1923    8    0    1
 -2       861       897       945      3877      3888      3695
 -1      1924    8    0    1
 -2       935       863      1005      3651      3889      3890
 -1      1925    8    0    1
 -2       996       935      1005      3857      3890      3891
 -1      1926    8    0    1
 -2       863       945      1005      3694      3892      3889
 -1      1927    8    0    1
 -2       936       921      1006      3654      3893      3894
 -1      1928    8    0    1
 -2       993       936      1006      3874      3894      3895
 -1      1929    8    0    1
 -2       921       999      1006      3869      3896      3893
 -1      1930    8    0    1
 -2       900       851       927      3541      3897      3704
 -1      1931    8    0    1
 -2       932       934       998      3647      3865      3898
 -1      1932    8    0    1
 -2       851       922       927      3700      3621      3897
 -1      1933    8    0    1
 -2       950       930      1003      3720      3884      3899
 -1      1934    8    0    1
 -2       896       974      1005      3791      3900      3901
 -1      1935    8    0    1
 -2       975       942      1007      3796      3902      3903
 -1      1936    8    0    1
 -2       897       896      1005      3529      3901      3904
 -1      1937    8    0    1
 -2       951       872       995      3722      3855      3905
 -1      1938    8    0    1
 -2       993       919       924      3848      3906      3875
 -1      1939    8    0    1
 -2       946       854       868      3713      3673      3698
 -1      1940    8    0    1
 -2       994       932       998      3852      3898      3907
 -1      1941    8    0    1
 -2       901       931      1008      3635      3908      3909
 -1      1942    8    0    1
 -2       901      1008      1004      3909      3910      3886
 -1      1943    8    0    1
 -2       928      1002      1009      3881      3911      3912
 -1      1944    8    0    1
 -2       928      1009       931      3912      3913      3636
 -1      1945    8    0    1
 -2       941       926      1010      3678      3914      3915
 -1      1946    8    0    1
 -2       926      1004      1010      3887      3916      3914
 -1      1947    8    0    1
 -2       942       997      1007      3861      3917      3902
 -1      1948    8    0    1
 -2       999       949      1000      3867      3871      3918
 -1      1949    8    0    1
 -2       939       976      1011      3799      3919      3920
 -1      1950    8    0    1
 -2       939      1011       998      3920      3921      3879
 -1      1951    8    0    1
 -2      1000       943       996      3870      3858      3922
 -1      1952    8    0    1
 -2       947       937      1012      3703      3923      3924
 -1      1953    8    0    1
 -2       944       941      1013      3692      3925      3926
 -1      1954    8    0    1
 -2       941      1010      1013      3915      3927      3925
 -1      1955    8    0    1
 -2      1001       944      1013      3872      3926      3928
 -1      1956    8    0    1
 -2      1012       937      1007      3923      3929      3930
 -1      1957    8    0    1
 -2      1005       974       996      3900      3931      3891
 -1      1958    8    0    1
 -2       978       977      1014      3805      3932      3933
 -1      1959    8    0    1
 -2       870       924       940      3663      3934      3711
 -1      1960    8    0    1
 -2       933       975       948      3795      3935      3876
 -1      1961    8    0    1
 -2       975      1007       948      3903      3936      3935
 -1      1962    8    0    1
 -2       953       952      1015      3729      3937      3938
 -1      1963    8    0    1
 -2       954       953      1016      3732      3939      3940
 -1      1964    8    0    1
 -2       953      1015      1016      3938      3941      3939
 -1      1965    8    0    1
 -2       955       954      1017      3735      3942      3943
 -1      1966    8    0    1
 -2       954      1016      1017      3940      3944      3942
 -1      1967    8    0    1
 -2       956       955      1018      3738      3945      3946
 -1      1968    8    0    1
 -2       955      1017      1018      3943      3947      3945
 -1      1969    8    0    1
 -2       957       956      1019      3741      3948      3949
 -1      1970    8    0    1
 -2       956      1018      1019      3946      3950      3948
 -1      1971    8    0    1
 -2       958       957      1020      3744      3951      3952
 -1      1972    8    0    1
 -2       957      1019      1020      3949      3953      3951
 -1      1973    8    0    1
 -2       959       958      1021      3747      3954      3955
 -1      1974    8    0    1
 -2       958      1020      1021      3952      3956      3954
 -1      1975    8    0    1
 -2       960       959      1022      3750      3957      3958
 -1      1976    8    0    1
 -2       959      1021      1022      3955      3959      3957
 -1      1977    8    0    1
 -2       961       960      1023      3753      3960      3961
 -1      1978    8    0    1
 -2       960      1022      1023      3958      3962      3960
 -1      1979    8    0    1
 -2       962       961      1024      3756      3963      3964
 -1      1980    8    0    1
 -2       961      1023      1024      3961      3965      3963
 -1      1981    8    0    1
 -2       963       962      1025      3759      3966      3967
 -1      1982    8    0    1
 -2       962      1024      1025      3964      3968      3966
 -1      1983    8    0    1
 -2       964       963      1026      3762      3969      3970
 -1      1984    8    0    1
 -2       963      1025      1026      3967      3971      3969
 -1      1985    8    0    1
 -2       965       964      1027      3765      3972      3973
 -1      1986    8    0    1
 -2       964      1026      1027      3970      3974      3972
 -1      1987    8    0    1
 -2       966       965      1028      3768      3975      3976
 -1      1988    8    0    1
 -2       965      1027      1028      3973      3977      3975
 -1      1989    8    0    1
 -2       967       966      1029      3771      3978      3979
 -1      1990    8    0    1
 -2       966      1028      1029      3976      3980      3978
 -1      1991    8    0    1
 -2       968       967      1030      3774      3981      3982
 -1      1992    8    0    1
 -2       967      1029      1030      3979      3983      3981
 -1      1993    8    0    1
 -2       969       968      1031      3777      3984      3985
 -1      1994    8    0    1
 -2       968      1030      1031      3982      3986      3984
 -1      1995    8    0    1
 -2       970       969      1032      3780      3987      3988
 -1      1996    8    0    1
 -2       969      1031      1032      3985      3989      3987
 -1      1997    8    0    1
 -2       971       970      1033      3783      3990      3991
 -1      1998    8    0    1
 -2       970      1032      1033      3988      3992      3990
 -1      1999    8    0    1
 -2       972       971      1034      3786      3993      3994
 -1      2000    8    0    1
 -2       971      1033      1034      3991      3995      3993
 -1      2001    8    0    1
 -2       973       972      1035      3789      3996      3997
 -1      2002    8    0    1
 -2       972      1034      1035      3994      3998      3996
 -1      2003    8    0    1
 -2       974       973      1036      3792      3999      4000
 -1      2004    8    0    1
 -2       973      1035      1036      3997      4001      3999
 -1      2005    8    0    1
 -2       897      1005       945      3904      3892      3888
 -1      2006    8    0    1
 -2       977       980      1037      3811      4002      4003
 -1      2007    8    0    1
 -2       977      1037      1014      4003      4004      3932
 -1      2008    8    0    1
 -2       952       951      1038      3726      4005      4006
 -1      2009    8    0    1
 -2       952      1038      1015      4006      4007      3937
 -1      2010    8    0    1
 -2       979       978      1039      3808      4008      4009
 -1      2011    8    0    1
 -2       978      1014      1039      3933      4010      4008
 -1      2012    8    0    1
 -2       981       982      1040      3817      4011      4012
 -1      2013    8    0    1
 -2       982       983      1041      3820      4013      4014
 -1      2014    8    0    1
 -2       982      1041      1040      4014      4015      4011
 -1      2015    8    0    1
 -2       983       984      1042      3823      4016      4017
 -1      2016    8    0    1
 -2       983      1042      1041      4017      4018      4013
 -1      2017    8    0    1
 -2       984       985      1043      3826      4019      4020
 -1      2018    8    0    1
 -2       984      1043      1042      4020      4021      4016
 -1      2019    8    0    1
 -2       985       986      1044      3829      4022      4023
 -1      2020    8    0    1
 -2       985      1044      1043      4023      4024      4019
 -1      2021    8    0    1
 -2       986       987      1045      3832      4025      4026
 -1      2022    8    0    1
 -2       986      1045      1044      4026      4027      4022
 -1      2023    8    0    1
 -2       987       988      1046      3835      4028      4029
 -1      2024    8    0    1
 -2       987      1046      1045      4029      4030      4025
 -1      2025    8    0    1
 -2       988       989      1047      3838      4031      4032
 -1      2026    8    0    1
 -2       988      1047      1046      4032      4033      4028
 -1      2027    8    0    1
 -2       989       990      1048      3841      4034      4035
 -1      2028    8    0    1
 -2       989      1048      1047      4035      4036      4031
 -1      2029    8    0    1
 -2       990       991      1049      3844      4037      4038
 -1      2030    8    0    1
 -2       990      1049      1048      4038      4039      4034
 -1      2031    8    0    1
 -2       991       992      1050      3847      4040      4041
 -1      2032    8    0    1
 -2       991      1050      1049      4041      4042      4037
 -1      2033    8    0    1
 -2       992       993      1006      3850      3895      4043
 -1      2034    8    0    1
 -2       995       994      1051      3856      4044      4045
 -1      2035    8    0    1
 -2       919       940       924      3712      3934      3906
 -1      2036    8    0    1
 -2       997       950      1052      3862      4046      4047
 -1      2037    8    0    1
 -2       980       981      1053      3814      4048      4049
 -1      2038    8    0    1
 -2       980      1053      1037      4049      4050      4002
 -1      2039    8    0    1
 -2       996       974      1036      3931      4000      4051
 -1      2040    8    0    1
 -2      1007       937       948      3929      3715      3936
 -1      2041    8    0    1
 -2      1001      1013      1054      3928      4052      4053
 -1      2042    8    0    1
 -2      1002       979      1055      3882      4054      4055
 -1      2043    8    0    1
 -2       979      1039      1055      4009      4056      4054
 -1      2044    8    0    1
 -2      1000       996      1036      3922      4051      4057
 -1      2045    8    0    1
 -2       976       947      1056      3800      4058      4059
 -1      2046    8    0    1
 -2       947      1012      1056      3924      4060      4058
 -1      2047    8    0    1
 -2       994       998      1057      3907      4061      4062
 -1      2048    8    0    1
 -2      1051       994      1057      4044      4062      4063
 -1      2049    8    0    1
 -2       998      1011      1057      3921      4064      4061
 -1      2050    8    0    1
 -2      1003      1001      1058      3885      4065      4066
 -1      2051    8    0    1
 -2      1001      1054      1058      4053      4067      4065
 -1      2052    8    0    1
 -2       840       864       869      3428      3866      3445
 -1      2053    8    0    1
 -2       951       995      1059      3905      4068      4069
 -1      2054    8    0    1
 -2       951      1059      1038      4069      4070      4005
 -1      2055    8    0    1
 -2       999      1000      1060      3918      4071      4072
 -1      2056    8    0    1
 -2       950      1003      1061      3899      4073      4074
 -1      2057    8    0    1
 -2      1052       950      1061      4046      4074      4075
 -1      2058    8    0    1
 -2      1003      1058      1061      4066      4076      4073
 -1      2059    8    0    1
 -2      1000      1036      1062      4057      4077      4078
 -1      2060    8    0    1
 -2      1060      1000      1062      4071      4078      4079
 -1      2061    8    0    1
 -2      1036      1035      1062      4001      4080      4077
 -1      2062    8    0    1
 -2       999      1060      1006      4072      4081      3896
 -1      2063    8    0    1
 -2       992      1006      1050      4043      4082      4040
 -1      2064    8    0    1
 -2      1053       981      1040      4048      4012      4083
 -1      2065    8    0    1
 -2      1008       931      1009      3908      3913      4084
 -1      2066    8    0    1
 -2       997      1052      1063      4047      4085      4086
 -1      2067    8    0    1
 -2      1009      1002      1064      3911      4087      4088
 -1      2068    8    0    1
 -2      1002      1055      1064      4055      4089      4087
 -1      2069    8    0    1
 -2      1010      1004      1065      3916      4090      4091
 -1      2070    8    0    1
 -2      1059       995      1051      4068      4045      4092
 -1      2071    8    0    1
 -2      1011       976      1056      3919      4059      4093
 -1      2072    8    0    1
 -2      1013      1010      1066      3927      4094      4095
 -1      2073    8    0    1
 -2      1010      1065      1066      4091      4096      4094
 -1      2074    8    0    1
 -2      1012      1007      1063      3930      4097      4098
 -1      2075    8    0    1
 -2       997      1063      1007      4086      4097      3917
 -1      2076    8    0    1
 -2      1012      1063      1067      4098      4099      4100
 -1      2077    8    0    1
 -2      1056      1012      1067      4060      4100      4101
 -1      2078    8    0    1
 -2      1013      1066      1054      4095      4102      4052
 -1      2079    8    0    1
 -2      1004      1008      1068      3910      4103      4104
 -1      2080    8    0    1
 -2      1004      1068      1065      4104      4105      4090
 -1      2081    8    0    1
 -2      1015      1038      1069      4007      4106      4107
 -1      2082    8    0    1
 -2      1016      1015      1070      3941      4108      4109
 -1      2083    8    0    1
 -2      1015      1069      1070      4107      4110      4108
 -1      2084    8    0    1
 -2      1017      1016      1071      3944      4111      4112
 -1      2085    8    0    1
 -2      1016      1070      1071      4109      4113      4111
 -1      2086    8    0    1
 -2      1018      1017      1072      3947      4114      4115
 -1      2087    8    0    1
 -2      1017      1071      1072      4112      4116      4114
 -1      2088    8    0    1
 -2      1019      1018      1073      3950      4117      4118
 -1      2089    8    0    1
 -2      1018      1072      1073      4115      4119      4117
 -1      2090    8    0    1
 -2      1020      1019      1074      3953      4120      4121
 -1      2091    8    0    1
 -2      1019      1073      1074      4118      4122      4120
 -1      2092    8    0    1
 -2      1021      1020      1075      3956      4123      4124
 -1      2093    8    0    1
 -2      1020      1074      1075      4121      4125      4123
 -1      2094    8    0    1
 -2      1022      1021      1076      3959      4126      4127
 -1      2095    8    0    1
 -2      1021      1075      1076      4124      4128      4126
 -1      2096    8    0    1
 -2      1023      1022      1077      3962      4129      4130
 -1      2097    8    0    1
 -2      1022      1076      1077      4127      4131      4129
 -1      2098    8    0    1
 -2      1024      1023      1078      3965      4132      4133
 -1      2099    8    0    1
 -2      1023      1077      1078      4130      4134      4132
 -1      2100    8    0    1
 -2      1025      1024      1079      3968      4135      4136
 -1      2101    8    0    1
 -2      1024      1078      1079      4133      4137      4135
 -1      2102    8    0    1
 -2      1026      1025      1080      3971      4138      4139
 -1      2103    8    0    1
 -2      1025      1079      1080      4136      4140      4138
 -1      2104    8    0    1
 -2      1027      1026      1081      3974      4141      4142
 -1      2105    8    0    1
 -2      1026      1080      1081      4139      4143      4141
 -1      2106    8    0    1
 -2      1028      1027      1082      3977      4144      4145
 -1      2107    8    0    1
 -2      1027      1081      1082      4142      4146      4144
 -1      2108    8    0    1
 -2      1029      1028      1083      3980      4147      4148
 -1      2109    8    0    1
 -2      1028      1082      1083      4145      4149      4147
 -1      2110    8    0    1
 -2      1030      1029      1084      3983      4150      4151
 -1      2111    8    0    1
 -2      1029      1083      1084      4148      4152      4150
 -1      2112    8    0    1
 -2      1031      1030      1085      3986      4153      4154
 -1      2113    8    0    1
 -2      1030      1084      1085      4151      4155      4153
 -1      2114    8    0    1
 -2      1032      1031      1086      3989      4156      4157
 -1      2115    8    0    1
 -2      1031      1085      1086      4154      4158      4156
 -1      2116    8    0    1
 -2      1033      1032      1087      3992      4159      4160
 -1      2117    8    0    1
 -2      1032      1086      1087      4157      4161      4159
 -1      2118    8    0    1
 -2      1034      1033      1088      3995      4162      4163
 -1      2119    8    0    1
 -2      1033      1087      1088      4160      4164      4162
 -1      2120    8    0    1
 -2      1035      1034      1089      3998      4165      4166
 -1      2121    8    0    1
 -2      1062      1035      1089      4080      4166      4167
 -1      2122    8    0    1
 -2      1034      1088      1089      4163      4168      4165
 -1      2123    8    0    1
 -2      1006      1060      1050      4081      4169      4082
 -1      2124    8    0    1
 -2      1042      1043      1090      4021      4170      4171
 -1      2125    8    0    1
 -2      1039      1014      1091      4010      4172      4173
 -1      2126    8    0    1
 -2      1041      1042      1092      4018      4174      4175
 -1      2127    8    0    1
 -2      1042      1090      1092      4171      4176      4174
 -1      2128    8    0    1
 -2      1040      1041      1093      4015      4177      4178
 -1      2129    8    0    1
 -2      1041      1092      1093      4175      4179      4177
 -1      2130    8    0    1
 -2      1043      1044      1094      4024      4180      4181
 -1      2131    8    0    1
 -2      1043      1094      1090      4181      4182      4170
 -1      2132    8    0    1
 -2      1044      1045      1095      4027      4183      4184
 -1      2133    8    0    1
 -2      1044      1095      1094      4184      4185      4180
 -1      2134    8    0    1
 -2      1045      1046      1096      4030      4186      4187
 -1      2135    8    0    1
 -2      1045      1096      1095      4187      4188      4183
 -1      2136    8    0    1
 -2      1046      1047      1097      4033      4189      4190
 -1      2137    8    0    1
 -2      1046      1097      1096      4190      4191      4186
 -1      2138    8    0    1
 -2      1047      1048      1098      4036      4192      4193
 -1      2139    8    0    1
 -2      1047      1098      1097      4193      4194      4189
 -1      2140    8    0    1
 -2      1048      1049      1099      4039      4195      4196
 -1      2141    8    0    1
 -2      1048      1099      1098      4196      4197      4192
 -1      2142    8    0    1
 -2      1049      1050      1100      4042      4198      4199
 -1      2143    8    0    1
 -2      1099      1049      1100      4195      4199      4200
 -1      2144    8    0    1
 -2      1050      1060      1100      4169      4201      4198
 -1      2145    8    0    1
 -2      1053      1040      1101      4083      4202      4203
 -1      2146    8    0    1
 -2      1040      1093      1101      4178      4204      4202
 -1      2147    8    0    1
 -2      1058      1054      1102      4067      4205      4206
 -1      2148    8    0    1
 -2      1063      1052      1067      4085      4207      4099
 -1      2149    8    0    1
 -2      1059      1051      1103      4092      4208      4209
 -1      2150    8    0    1
 -2      1037      1053      1104      4050      4210      4211
 -1      2151    8    0    1
 -2      1053      1101      1104      4203      4212      4210
 -1      2152    8    0    1
 -2      1066      1065      1105      4096      4213      4214
 -1      2153    8    0    1
 -2      1011      1056      1106      4093      4215      4216
 -1      2154    8    0    1
 -2      1057      1011      1106      4064      4216      4217
 -1      2155    8    0    1
 -2      1056      1067      1106      4101      4218      4215
 -1      2156    8    0    1
 -2      1008      1009      1107      4084      4219      4220
 -1      2157    8    0    1
 -2      1008      1107      1068      4220      4221      4103
 -1      2158    8    0    1
 -2      1055      1039      1108      4056      4222      4223
 -1      2159    8    0    1
 -2      1039      1091      1108      4173      4224      4222
 -1      2160    8    0    1
 -2      1054      1066      1109      4102      4225      4226
 -1      2161    8    0    1
 -2      1102      1054      1109      4205      4226      4227
 -1      2162    8    0    1
 -2      1066      1105      1109      4214      4228      4225
 -1      2163    8    0    1
 -2      1014      1037      1110      4004      4229      4230
 -1      2164    8    0    1
 -2      1091      1014      1110      4172      4230      4231
 -1      2165    8    0    1
 -2      1037      1104      1110      4211      4232      4229
 -1      2166    8    0    1
 -2      1038      1059      1111      4070      4233      4234
 -1      2167    8    0    1
 -2      1059      1103      1111      4209      4235      4233
 -1      2168    8    0    1
 -2      1067      1052      1112      4207      4236      4237
 -1      2169    8    0    1
 -2      1100      1060      1062      4201      4079      4238
 -1      2170    8    0    1
 -2      1064      1055      1113      4089      4239      4240
 -1      2171    8    0    1
 -2      1055      1108      1113      4223      4241      4239
 -1      2172    8    0    1
 -2      1009      1064      1107      4088      4242      4219
 -1      2173    8    0    1
 -2      1058      1102      1114      4206      4243      4244
 -1      2174    8    0    1
 -2      1058      1114      1061      4244      4245      4076
 -1      2175    8    0    1
 -2      1038      1111      1069      4234      4246      4106
 -1      2176    8    0    1
 -2      1105      1065      1115      4213      4247      4248
 -1      2177    8    0    1
 -2      1065      1068      1115      4105      4249      4247
 -1      2178    8    0    1
 -2      1067      1112      1106      4237      4250      4218
 -1      2179    8    0    1
 -2      1051      1057      1116      4063      4251      4252
 -1      2180    8    0    1
 -2      1103      1051      1116      4208      4252      4253
 -1      2181    8    0    1
 -2      1057      1106      1116      4217      4254      4251
 -1      2182    8    0    1
 -2      1052      1061      1112      4075      4255      4236
 -1      2183    8    0    1
 -2      1111      1103      1117      4235      4256      4257
 -1      2184    8    0    1
 -2      1071      1070      1105      4113      4258      4259
 -1      2185    8    0    1
 -2      1072      1071      1115      4116      4260      4261
 -1      2186    8    0    1
 -2      1074      1073      1118      4122      4262      4263
 -1      2187    8    0    1
 -2      1075      1074      1113      4125      4264      4265
 -1      2188    8    0    1
 -2      1076      1075      1108      4128      4266      4267
 -1      2189    8    0    1
 -2      1077      1076      1091      4131      4268      4269
 -1      2190    8    0    1
 -2      1078      1077      1110      4134      4270      4271
 -1      2191    8    0    1
 -2      1079      1078      1104      4137      4272      4273
 -1      2192    8    0    1
 -2      1080      1079      1101      4140      4274      4275
 -1      2193    8    0    1
 -2      1081      1080      1093      4143      4276      4277
 -1      2194    8    0    1
 -2      1082      1081      1092      4146      4278      4279
 -1      2195    8    0    1
 -2      1083      1082      1090      4149      4280      4281
 -1      2196    8    0    1
 -2      1084      1083      1094      4152      4282      4283
 -1      2197    8    0    1
 -2      1085      1084      1095      4155      4284      4285
 -1      2198    8    0    1
 -2      1086      1085      1096      4158      4286      4287
 -1      2199    8    0    1
 -2      1087      1086      1097      4161      4288      4289
 -1      2200    8    0    1
 -2      1088      1087      1098      4164      4290      4291
 -1      2201    8    0    1
 -2      1092      1090      1082      4176      4280      4279
 -1      2202    8    0    1
 -2      1094      1095      1084      4185      4284      4283
 -1      2203    8    0    1
 -2      1090      1094      1083      4182      4282      4281
 -1      2204    8    0    1
 -2      1093      1092      1081      4179      4278      4277
 -1      2205    8    0    1
 -2      1095      1096      1085      4188      4286      4285
 -1      2206    8    0    1
 -2      1096      1097      1086      4191      4288      4287
 -1      2207    8    0    1
 -2      1097      1098      1087      4194      4290      4289
 -1      2208    8    0    1
 -2      1098      1099      1088      4197      4292      4291
 -1      2209    8    0    1
 -2      1099      1100      1089      4200      4293      4294
 -1      2210    8    0    1
 -2      1101      1093      1080      4204      4276      4275
 -1      2211    8    0    1
 -2      1104      1101      1079      4212      4274      4273
 -1      2212    8    0    1
 -2      1100      1062      1089      4238      4167      4293
 -1      2213    8    0    1
 -2      1108      1075      1113      4266      4265      4241
 -1      2214    8    0    1
 -2      1105      1070      1109      4258      4295      4228
 -1      2215    8    0    1
 -2      1112      1061      1114      4255      4245      4296
 -1      2216    8    0    1
 -2      1104      1078      1110      4272      4271      4232
 -1      2217    8    0    1
 -2      1108      1091      1076      4224      4268      4267
 -1      2218    8    0    1
 -2      1068      1107      1119      4221      4297      4298
 -1      2219    8    0    1
 -2      1068      1119      1115      4298      4299      4249
 -1      2220    8    0    1
 -2      1070      1069      1109      4110      4300      4295
 -1      2221    8    0    1
 -2      1107      1064      1120      4242      4301      4302
 -1      2222    8    0    1
 -2      1119      1107      1120      4297      4302      4303
 -1      2223    8    0    1
 -2      1064      1113      1120      4240      4304      4301
 -1      2224    8    0    1
 -2      1069      1111      1102      4246      4305      4306
 -1      2225    8    0    1
 -2      1069      1102      1109      4306      4227      4300
 -1      2226    8    0    1
 -2      1071      1105      1115      4259      4248      4260
 -1      2227    8    0    1
 -2      1077      1091      1110      4269      4231      4270
 -1      2228    8    0    1
 -2      1088      1099      1089      4292      4294      4168
 -1      2229    8    0    1
 -2      1072      1115      1119      4261      4299      4307
 -1      2230    8    0    1
 -2      1073      1072      1119      4119      4307      4308
 -1      2231    8    0    1
 -2      1112      1114      1117      4296      4309      4310
 -1      2232    8    0    1
 -2      1102      1111      1117      4305      4257      4311
 -1      2233    8    0    1
 -2      1106      1112      1116      4250      4312      4254
 -1      2234    8    0    1
 -2      1117      1103      1112      4256      4313      4310
 -1      2235    8    0    1
 -2      1116      1112      1103      4312      4313      4253
 -1      2236    8    0    1
 -2      1074      1118      1113      4263      4314      4264
 -1      2237    8    0    1
 -2      1073      1119      1118      4308      4315      4262
 -1      2238    8    0    1
 -2      1114      1102      1117      4243      4311      4309
 -1      2239    8    0    1
 -2      1118      1119      1120      4315      4303      4316
 -1      2240    8    0    1
 -2      1113      1118      1120      4314      4316      4304
 -3
    1PSTEP                         1           1           1          
  100CL  101 1.000000000        4316                     0    1           1
 -4  DISP        4    1
 -5  D1          1    2    1    0
 -5  D2          1    2    2    0
 -5  D3          1    2    3    0
 -5  ALL         1    2    0    0    1ALL
 -1         1 9.54921E-03 9.24073E-05-6.49997E-14
 -1         2 1.40498E-02-8.69038E-06-7.89334E-14
 -1         3 1.47344E-02 3.12347E-04-1.02579E-13
 -1         4 1.47572E-02-3.36870E-04-1.06572E-13
 -1         5 0.00000E+00 0.00000E+00 0.00000E+00
 -1         6 0.00000E+00 0.00000E+00 0.00000E+00
 -1         7 0.00000E+00 0.00000E+00 0.00000E+00
 -1         8 0.00000E+00 0.00000E+00 0.00000E+00
 -1         9 0.00000E+00 0.00000E+00 0.00000E+00
 -1        10 0.00000E+00 0.00000E+00 0.00000E+00
 -1        11 0.00000E+00 0.00000E+00 0.00000E+00
 -1        12 0.00000E+00 0.00000E+00 0.00000E+00
 -1        13 0.00000E+00 0.00000E+00 0.00000E+00
 -1        14 0.00000E+00 0.00000E+00 0.00000E+00
 -1        15 0.00000E+00 0.00000E+00 0.00000E+00
 -1        16 0.00000E+00 0.00000E+00 0.00000E+00
 -1        17 0.00000E+00 0.00000E+00 0.00000E+00
 -1        18 0.00000E+00 0.00000E+00 0.00000E+00
 -1        19 0.00000E+00 0.00000E+00 0.00000E+00
 -1        20 0.00000E+00 0.00000E+00 0.00000E+00
 -1        21 0.00000E+00 0.00000E+00 0.00000E+00
 -1        22 0.00000E+00 0.00000E+00 0.00000E+00
 -1        23 4.11405E-04-2.60754E-04 2.04779E-17
 -1        24 7.03407E-04-4.01017E-04-1.04243E-16
 -1        25 9.73493E-04-4.98416E-04-3.68517E-16
 -1        26 1.23800E-03-5.67187E-04-7.67930E-16
 -1        27 1.50154E-03-6.16470E-04-1.29673E-15
 -1        28 1.76621E-03-6.51651E-04-1.94995E-15
 -1        29 2.03295E-03-6.76437E-04-2.72408E-15
 -1        30 2.30215E-03-6.93524E-04-3.61695E-15
 -1        31 2.57384E-03-7.04927E-04-4.62605E-15
 -1        32 2.84787E-03-7.12168E-04-5.74926E-15
 -1        33 3.12403E-03-7.16392E-04-6.98129E-15
 -1        34 3.40202E-03-7.18449E-04-8.31493E-15
 -1        35 3.68157E-03-7.18957E-04-9.75195E-15
 -1        36 3.96241E-03-7.18349E-04-1.12879E-14
 -1        37 4.24432E-03-7.16915E-04-1.29157E-14
 -1        38 4.52711E-03-7.14831E-04-1.46277E-14
 -1        39 4.81064E-03-7.12184E-04-1.64229E-14
 -1        40 5.09486E-03-7.08997E-04-1.83031E-14
 -1        41 5.37976E-03-7.05247E-04-2.02621E-14
 -1        42 5.66542E-03-7.00884E-04-2.22988E-14
 -1        43 5.95203E-03-6.95852E-04-2.44193E-14
 -1        44 6.23986E-03-6.90118E-04-2.66161E-14
 -1        45 6.52932E-03-6.83696E-04-2.88852E-14
 -1        46 6.82098E-03-6.76697E-04-3.12291E-14
 -1        47 7.11557E-03-6.69384E-04-3.36391E-14
 -1        48 7.41400E-03-6.62245E-04-3.61125E-14
 -1        49 7.71738E-03-6.56098E-04-3.86404E-14
 -1        50 8.02699E-03-6.52211E-04-4.12134E-14
 -1        51 8.34416E-03-6.52449E-04-4.38364E-14
 -1        52 8.67014E-03-6.59413E-04-4.65071E-14
 -1        53 9.00573E-03-6.76519E-04-4.92137E-14
 -1        54 9.35078E-03-7.07904E-04-5.19549E-14
 -1        55 9.70342E-03-7.57937E-04-5.47297E-14
 -1        56 1.00592E-02-8.30081E-04-5.75230E-14
 -1        57 1.04106E-02-9.24845E-04-6.03352E-14
 -1        58 1.07475E-02-1.03705E-03-6.31669E-14
 -1        59 1.10600E-02-1.15355E-03-6.60188E-14
 -1        60 1.13426E-02-1.25364E-03-6.88890E-14
 -1        61 1.15991E-02-1.31444E-03-7.17850E-14
 -1        62 1.18430E-02-1.31998E-03-7.47071E-14
 -1        63 1.20920E-02-1.26888E-03-7.76868E-14
 -1        64 1.23601E-02-1.17456E-03-8.07248E-14
 -1        65 1.26516E-02-1.05800E-03-8.38305E-14
 -1        66 1.29614E-02-9.38266E-04-8.69791E-14
 -1        67 1.32794E-02-8.26638E-04-9.01787E-14
 -1        68 1.35955E-02-7.25761E-04-9.34254E-14
 -1        69 1.39028E-02-6.31882E-04-9.67042E-14
 -1        70 1.41990E-02-5.38141E-04-1.00012E-13
 -1        71 1.44866E-02-4.38350E-04-1.03365E-13
 -1        72 4.13851E-04 2.61458E-04 6.24534E-17
 -1        73 7.03231E-04 4.03724E-04 9.88996E-18
 -1        74 9.74029E-04 5.00190E-04-1.54855E-16
 -1        75 1.23882E-03 5.68899E-04-4.35822E-16
 -1        76 1.50249E-03 6.18230E-04-8.33843E-16
 -1        77 1.76723E-03 6.53502E-04-1.35122E-15
 -1        78 2.03402E-03 6.78399E-04-1.98505E-15
 -1        79 2.30324E-03 6.95608E-04-2.73283E-15
 -1        80 2.57494E-03 7.07139E-04-3.59258E-15
 -1        81 2.84898E-03 7.14511E-04-4.56259E-15
 -1        82 3.12514E-03 7.18868E-04-5.64464E-15
 -1        83 3.40314E-03 7.21059E-04-6.83115E-15
 -1        84 3.68270E-03 7.21700E-04-8.12404E-15
 -1        85 3.96354E-03 7.21227E-04-9.51948E-15
 -1        86 4.24545E-03 7.19928E-04-1.10162E-14
 -1        87 4.52824E-03 7.17978E-04-1.26137E-14
 -1        88 4.81177E-03 7.15467E-04-1.43051E-14
 -1        89 5.09599E-03 7.12416E-04-1.60844E-14
 -1        90 5.38090E-03 7.08803E-04-1.79507E-14
 -1        91 5.66656E-03 7.04580E-04-1.98992E-14
 -1        92 5.95317E-03 6.99692E-04-2.19263E-14
 -1        93 6.24100E-03 6.94106E-04-2.40248E-14
 -1        94 6.53046E-03 6.87841E-04-2.61956E-14
 -1        95 6.82212E-03 6.81011E-04-2.84268E-14
 -1        96 7.11669E-03 6.73881E-04-3.07200E-14
 -1        97 7.41508E-03 6.66946E-04-3.30719E-14
 -1        98 7.71838E-03 6.61025E-04-3.54866E-14
 -1        99 8.02784E-03 6.57387E-04-3.79663E-14
 -1       100 8.34474E-03 6.57887E-04-4.04982E-14
 -1       101 8.67028E-03 6.65097E-04-4.30837E-14
 -1       102 9.00518E-03 6.82375E-04-4.57083E-14
 -1       103 9.34920E-03 7.13748E-04-4.83676E-14
 -1       104 9.70038E-03 7.63415E-04-5.10645E-14
 -1       105 1.00543E-02 8.34605E-04-5.38006E-14
 -1       106 1.04035E-02 9.27583E-04-5.65928E-14
 -1       107 1.07382E-02 1.03704E-03-5.94470E-14
 -1       108 1.10488E-02 1.14997E-03-6.23582E-14
 -1       109 1.13303E-02 1.24631E-03-6.53262E-14
 -1       110 1.15864E-02 1.30401E-03-6.83372E-14
 -1       111 1.18300E-02 1.30782E-03-7.13890E-14
 -1       112 1.20786E-02 1.25636E-03-7.44507E-14
 -1       113 1.23457E-02 1.16246E-03-7.75116E-14
 -1       114 1.26356E-02 1.04621E-03-8.05846E-14
 -1       115 1.29435E-02 9.26069E-04-8.36759E-14
 -1       116 1.32596E-02 8.13156E-04-8.67958E-14
 -1       117 1.35742E-02 7.10280E-04-8.99460E-14
 -1       118 1.38805E-02 6.13996E-04-9.31202E-14
 -1       119 1.41762E-02 5.17775E-04-9.63123E-14
 -1       120 1.44636E-02 4.15573E-04-9.95237E-14
 -1       121 1.48433E-02 2.27369E-04-1.02832E-13
 -1       122 1.49590E-02 1.44851E-04-1.03095E-13
 -1       123 1.50822E-02 7.13502E-05-1.03337E-13
 -1       124 1.52085E-02 1.27598E-05-1.03558E-13
 -1       125 1.53300E-02-2.65122E-05-1.03767E-13
 -1       126 1.54349E-02-4.42493E-05-1.03972E-13
 -1       127 1.55156E-02-4.24447E-05-1.04183E-13
 -1       128 1.55600E-02-2.61196E-05-1.04425E-13
 -1       129 1.55620E-02-4.29347E-06-1.04697E-13
 -1       130 1.55213E-02 1.25813E-05-1.04975E-13
 -1       131 1.54439E-02 1.53241E-05-1.05250E-13
 -1       132 1.53416E-02-1.37730E-06-1.05527E-13
 -1       133 1.52222E-02-3.97110E-05-1.05790E-13
 -1       134 1.50977E-02-9.76740E-05-1.06019E-13
 -1       135 1.49763E-02-1.71103E-04-1.06224E-13
 -1       136 1.48624E-02-2.53253E-04-1.06404E-13
 -1       137 1.39977E-02 1.78331E-04-7.87104E-14
 -1       138 1.38607E-02 3.45432E-04-7.82318E-14
 -1       139 1.36416E-02 5.01081E-04-7.74995E-14
 -1       140 1.33374E-02 6.43394E-04-7.65026E-14
 -1       141 1.29842E-02 7.55320E-04-7.53579E-14
 -1       142 1.25845E-02 8.37547E-04-7.40790E-14
 -1       143 1.21456E-02 8.86470E-04-7.26906E-14
 -1       144 1.16702E-02 8.96200E-04-7.12011E-14
 -1       145 1.12273E-02 8.65981E-04-6.98297E-14
 -1       146 1.08098E-02 8.00712E-04-6.85570E-14
 -1       147 1.04100E-02 6.96378E-04-6.73568E-14
 -1       148 1.00688E-02 5.63983E-04-6.63709E-14
 -1       149 9.82141E-03 4.21290E-04-6.56748E-14
 -1       150 9.63895E-03 2.56836E-04-6.51949E-14
 -1       151 9.54486E-03-8.52007E-05-6.50778E-14
 -1       152 9.64175E-03-2.68818E-04-6.54781E-14
 -1       153 9.84028E-03-4.43851E-04-6.61843E-14
 -1       154 1.01315E-02-6.02685E-04-6.71630E-14
 -1       155 1.04830E-02-7.30672E-04-6.83047E-14
 -1       156 1.09110E-02-8.32534E-04-6.96739E-14
 -1       157 1.13722E-02-8.94037E-04-7.11230E-14
 -1       158 1.18787E-02-9.12546E-04-7.26921E-14
 -1       159 1.23526E-02-8.84813E-04-7.41345E-14
 -1       160 1.28117E-02-8.13303E-04-7.55071E-14
 -1       161 1.32509E-02-6.93131E-04-7.67956E-14
 -1       162 1.35887E-02-5.48894E-04-7.77543E-14
 -1       163 1.38471E-02-3.76486E-04-7.84647E-14
 -1       164 1.39962E-02-2.00555E-04-7.88460E-14
 -1       165 2.40414E-04-1.25530E-04-3.50028E-17
 -1       166 2.25278E-04-9.46271E-05-5.15911E-17
 -1       167 2.19514E-04-7.27856E-05-6.00174E-17
 -1       168 2.16713E-04-5.51101E-05-6.39307E-17
 -1       169 2.15217E-04-3.99715E-05-6.53638E-17
 -1       170 2.14381E-04-2.59203E-05-6.55129E-17
 -1       171 2.13962E-04-1.26470E-05-6.47370E-17
 -1       172 2.13840E-04 2.72590E-07-6.36393E-17
 -1       173 2.13981E-04 1.32044E-05-6.19350E-17
 -1       174 2.14422E-04 2.65175E-05-5.96006E-17
 -1       175 2.15266E-04 4.03993E-05-5.60397E-17
 -1       176 2.16816E-04 5.59211E-05-5.06729E-17
 -1       177 2.19674E-04 7.38248E-05-4.23245E-17
 -1       178 2.25448E-04 9.60270E-05-2.90024E-17
 -1       179 2.39343E-04 1.27606E-04-6.75255E-18
 -1       180 2.97722E-04 1.85514E-04 1.73676E-17
 -1       181 4.68644E-04-2.63575E-04-9.22182E-17
 -1       182 7.66799E-04-3.82184E-04-3.09757E-16
 -1       183 1.05066E-03-4.65089E-04-6.55875E-16
 -1       184 1.32805E-03-5.23889E-04-1.12864E-15
 -1       185 1.60265E-03-5.65604E-04-1.72543E-15
 -1       186 1.87654E-03-5.94920E-04-2.44214E-15
 -1       187 2.15083E-03-6.15141E-04-3.27687E-15
 -1       188 2.42613E-03-6.28687E-04-4.22649E-15
 -1       189 2.70269E-03-6.37365E-04-5.28817E-15
 -1       190 2.98058E-03-6.42527E-04-6.45870E-15
 -1       191 3.25975E-03-6.45179E-04-7.73465E-15
 -1       192 3.54008E-03-6.46052E-04-9.11233E-15
 -1       193 3.82145E-03-6.45667E-04-1.05906E-14
 -1       194 4.10372E-03-6.44374E-04-1.21622E-14
 -1       195 4.38676E-03-6.42393E-04-1.38236E-14
 -1       196 4.67049E-03-6.39842E-04-1.55694E-14
 -1       197 4.95485E-03-6.36759E-04-1.73981E-14
 -1       198 5.23985E-03-6.33126E-04-1.93092E-14
 -1       199 5.52554E-03-6.28886E-04-2.12982E-14
 -1       200 5.81204E-03-6.23962E-04-2.33659E-14
 -1       201 6.09954E-03-6.18281E-04-2.55157E-14
 -1       202 6.38834E-03-6.11801E-04-2.77381E-14
 -1       203 6.67881E-03-6.04544E-04-3.00357E-14
 -1       204 6.97146E-03-5.96652E-04-3.24026E-14
 -1       205 7.26691E-03-5.88448E-04-3.48322E-14
 -1       206 7.56591E-03-5.80531E-04-3.73204E-14
 -1       207 7.86930E-03-5.73892E-04-3.98585E-14
 -1       208 8.17798E-03-5.70062E-04-4.24466E-14
 -1       209 8.49283E-03-5.71275E-04-4.50799E-14
 -1       210 8.81454E-03-5.80621E-04-4.77587E-14
 -1       211 9.14333E-03-6.02097E-04-5.04722E-14
 -1       212 9.47865E-03-6.40391E-04-5.32236E-14
 -1       213 9.81873E-03-7.00145E-04-5.60002E-14
 -1       214 1.01601E-02-7.84339E-04-5.87965E-14
 -1       215 1.04978E-02-8.91642E-04-6.16149E-14
 -1       216 1.08256E-02-1.01324E-03-6.44572E-14
 -1       217 1.11384E-02-1.13103E-03-6.73199E-14
 -1       218 1.14349E-02-1.22016E-03-7.02070E-14
 -1       219 1.17196E-02-1.25748E-03-7.31230E-14
 -1       220 1.20015E-02-1.23260E-03-7.60840E-14
 -1       221 1.22899E-02-1.15308E-03-7.91022E-14
 -1       222 1.25897E-02-1.03979E-03-8.21733E-14
 -1       223 1.28998E-02-9.15964E-04-8.52955E-14
 -1       224 1.32153E-02-7.98122E-04-8.84639E-14
 -1       225 1.35302E-02-6.92904E-04-9.16771E-14
 -1       226 1.38396E-02-5.98588E-04-9.49309E-14
 -1       227 1.41413E-02-5.08491E-04-9.82203E-14
 -1       228 1.44349E-02-4.14541E-04-1.01547E-13
 -1       229 6.04592E-04 3.31068E-04-5.59889E-17
 -1       230 8.93696E-04 4.32704E-04-2.35512E-16
 -1       231 1.17259E-03 5.04472E-04-5.26709E-16
 -1       232 1.44694E-03 5.55582E-04-9.32234E-16
 -1       233 1.71975E-03 5.91854E-04-1.45305E-15
 -1       234 1.99264E-03 6.17266E-04-2.08916E-15
 -1       235 2.26645E-03 6.34689E-04-2.83886E-15
 -1       236 2.54158E-03 6.46250E-04-3.69962E-15
 -1       237 2.81817E-03 6.53547E-04-4.66867E-15
 -1       238 3.09619E-03 6.57772E-04-5.74690E-15
 -1       239 3.37554E-03 6.59810E-04-6.93204E-15
 -1       240 3.65608E-03 6.60297E-04-8.22167E-15
 -1       241 3.93765E-03 6.59681E-04-9.61326E-15
 -1       242 4.22011E-03 6.58255E-04-1.11037E-14
 -1       243 4.50333E-03 6.56196E-04-1.26924E-14
 -1       244 4.78724E-03 6.53587E-04-1.43758E-14
 -1       245 5.07179E-03 6.50446E-04-1.61484E-14
 -1       246 5.35700E-03 6.46738E-04-1.80064E-14
 -1       247 5.64296E-03 6.42399E-04-1.99436E-14
 -1       248 5.92981E-03 6.37355E-04-2.19636E-14
 -1       249 6.21779E-03 6.31548E-04-2.40574E-14
 -1       250 6.50725E-03 6.24963E-04-2.62211E-14
 -1       251 6.79862E-03 6.17673E-04-2.84453E-14
 -1       252 7.09249E-03 6.09895E-04-3.07340E-14
 -1       253 7.38954E-03 6.02061E-04-3.30834E-14
 -1       254 7.69061E-03 5.94926E-04-3.54931E-14
 -1       255 7.99659E-03 5.89687E-04-3.79657E-14
 -1       256 8.30842E-03 5.88137E-04-4.04918E-14
 -1       257 8.62691E-03 5.92821E-04-4.30692E-14
 -1       258 8.95256E-03 6.07138E-04-4.56892E-14
 -1       259 9.28522E-03 6.35290E-04-4.83433E-14
 -1       260 9.62365E-03 6.81865E-04-5.10374E-14
 -1       261 9.96511E-03 7.50770E-04-5.37764E-14
 -1       262 1.03051E-02 8.43227E-04-5.65687E-14
 -1       263 1.06375E-02 9.54923E-04-5.94156E-14
 -1       264 1.09564E-02 1.07336E-03-6.23184E-14
 -1       265 1.12580E-02 1.17773E-03-6.52697E-14
 -1       266 1.15436E-02 1.24388E-03-6.82647E-14
 -1       267 1.18204E-02 1.25388E-03-7.12982E-14
 -1       268 1.20985E-02 1.20476E-03-7.43547E-14
 -1       269 1.23863E-02 1.10975E-03-7.74184E-14
 -1       270 1.26866E-02 9.90686E-04-8.04971E-14
 -1       271 1.29965E-02 8.67915E-04-8.35919E-14
 -1       272 1.33104E-02 7.53730E-04-8.67085E-14
 -1       273 1.36223E-02 6.51254E-04-8.98503E-14
 -1       274 1.39280E-02 5.56747E-04-9.30187E-14
 -1       275 1.42257E-02 4.62975E-04-9.62100E-14
 -1       276 1.45163E-02 3.62870E-04-9.94185E-14
 -1       277 1.46530E-02 2.82202E-04-1.00179E-13
 -1       278 1.47751E-02 2.05529E-04-1.00426E-13
 -1       279 1.49040E-02 1.37714E-04-1.00660E-13
 -1       280 1.50334E-02 8.17161E-05-1.00883E-13
 -1       281 1.51519E-02 4.02227E-05-1.01095E-13
 -1       282 1.52518E-02 1.20442E-05-1.01320E-13
 -1       283 1.53189E-02-4.28566E-06-1.01556E-13
 -1       284 1.53438E-02-1.37297E-05-1.01800E-13
 -1       285 1.53229E-02-2.29826E-05-1.02050E-13
 -1       286 1.52594E-02-3.87938E-05-1.02301E-13
 -1       287 1.51644E-02-6.56974E-05-1.02548E-13
 -1       288 1.50464E-02-1.07078E-04-1.02788E-13
 -1       289 1.49188E-02-1.62495E-04-1.03011E-13
 -1       290 1.47915E-02-2.29947E-04-1.03210E-13
 -1       291 1.46106E-02-3.20259E-04-1.02387E-13
 -1       292 1.40628E-02 3.86908E-05-8.02469E-14
 -1       293 1.39252E-02 1.52324E-04-7.96437E-14
 -1       294 1.36876E-02 2.81867E-04-7.89187E-14
 -1       295 1.33658E-02 4.41844E-04-7.78918E-14
 -1       296 1.30000E-02 6.16774E-04-7.66281E-14
 -1       297 1.26272E-02 7.79903E-04-7.52000E-14
 -1       298 1.22499E-02 9.08966E-04-7.36450E-14
 -1       299 1.18770E-02 9.74489E-04-7.19333E-14
 -1       300 1.15080E-02 9.52524E-04-7.02554E-14
 -1       301 1.11467E-02 8.59286E-04-6.87124E-14
 -1       302 1.07939E-02 7.01653E-04-6.70848E-14
 -1       303 1.03884E-02 5.22444E-04-6.59430E-14
 -1       304 1.00397E-02 3.57556E-04-6.50249E-14
 -1       305 9.76531E-03 2.02963E-04-6.41915E-14
 -1       306 9.57611E-03 9.78978E-05-6.39531E-14
 -1       307 9.50717E-03 4.70463E-07-6.38918E-14
 -1       308 9.57138E-03-9.94761E-05-6.40967E-14
 -1       309 9.77839E-03-2.18420E-04-6.46796E-14
 -1       310 1.00916E-02-3.84941E-04-6.57447E-14
 -1       311 1.04566E-02-5.73812E-04-6.70468E-14
 -1       312 1.08518E-02-7.56935E-04-6.85117E-14
 -1       313 1.12527E-02-9.05814E-04-7.01537E-14
 -1       314 1.16530E-02-9.87238E-04-7.19159E-14
 -1       315 1.20485E-02-9.68273E-04-7.36796E-14
 -1       316 1.24449E-02-8.66161E-04-7.53349E-14
 -1       317 1.28629E-02-6.92444E-04-7.69583E-14
 -1       318 1.32865E-02-4.99686E-04-7.82407E-14
 -1       319 1.36483E-02-3.21723E-04-7.92383E-14
 -1       320 1.39165E-02-1.77045E-04-7.98892E-14
 -1       321 1.40615E-02-6.02775E-05-8.02533E-14
 -1       322 4.55395E-04-1.64831E-04-2.01682E-16
 -1       323 4.74272E-04-2.13008E-04-1.75644E-16
 -1       324 4.40437E-04-9.40355E-05-2.22702E-16
 -1       325 4.37477E-04-6.49269E-05-2.24979E-16
 -1       326 4.35856E-04-3.79147E-05-2.24460E-16
 -1       327 4.35146E-04-1.20205E-05-2.21879E-16
 -1       328 4.35177E-04 1.35385E-05-2.17569E-16
 -1       329 4.35954E-04 3.94895E-05-2.11328E-16
 -1       330 4.37620E-04 6.61506E-05-2.02383E-16
 -1       331 4.40678E-04 9.54297E-05-1.89773E-16
 -1       332 4.46068E-04 1.28345E-04-1.71853E-16
 -1       333 4.55904E-04 1.67327E-04-1.45497E-16
 -1       334 4.75902E-04 2.17069E-04-1.06560E-16
 -1       335 5.32034E-04 2.69999E-04-8.78915E-17
 -1       336 8.24521E-04 3.73552E-04-2.75743E-16
 -1       337 8.63293E-04-3.57447E-04-5.34935E-16
 -1       338 1.14965E-03-4.26228E-04-9.56615E-16
 -1       339 1.43244E-03-4.75421E-04-1.49961E-15
 -1       340 1.71315E-03-5.10178E-04-2.16086E-15
 -1       341 1.99293E-03-5.34294E-04-2.93906E-15
 -1       342 2.27251E-03-5.50592E-04-3.83188E-15
 -1       343 2.55238E-03-5.61180E-04-4.83440E-15
 -1       344 2.83280E-03-5.67644E-04-5.94633E-15
 -1       345 3.11387E-03-5.71163E-04-7.16412E-15
 -1       346 3.39563E-03-5.72604E-04-8.48368E-15
 -1       347 3.67805E-03-5.72586E-04-9.90407E-15
 -1       348 3.96109E-03-5.71538E-04-1.14212E-14
 -1       349 4.24470E-03-5.69736E-04-1.30293E-14
 -1       350 4.52883E-03-5.67338E-04-1.47244E-14
 -1       351 4.81344E-03-5.64412E-04-1.65037E-14
 -1       352 5.09854E-03-5.60955E-04-1.83654E-14
 -1       353 5.38416E-03-5.56917E-04-2.03068E-14
 -1       354 5.67037E-03-5.52215E-04-2.23265E-14
 -1       355 5.95729E-03-5.46757E-04-2.44266E-14
 -1       356 6.24509E-03-5.40461E-04-2.66045E-14
 -1       357 6.53401E-03-5.33291E-04-2.88554E-14
 -1       358 6.82436E-03-5.25297E-04-3.11789E-14
 -1       359 7.11653E-03-5.16669E-04-3.35664E-14
 -1       360 7.41097E-03-5.07817E-04-3.60139E-14
 -1       361 7.70823E-03-4.99473E-04-3.85170E-14
 -1       362 8.00893E-03-4.92821E-04-4.10704E-14
 -1       363 8.31377E-03-4.89657E-04-4.36718E-14
 -1       364 8.62347E-03-4.92562E-04-4.63163E-14
 -1       365 8.93875E-03-5.05037E-04-4.90012E-14
 -1       366 9.26022E-03-5.31517E-04-5.17265E-14
 -1       367 9.58820E-03-5.77052E-04-5.44864E-14
 -1       368 9.92231E-03-6.46372E-04-5.72660E-14
 -1       369 1.02609E-02-7.41907E-04-6.00679E-14
 -1       370 1.06001E-02-8.60519E-04-6.28951E-14
 -1       371 1.09344E-02-9.89642E-04-6.57452E-14
 -1       372 1.12580E-02-1.10551E-03-6.86244E-14
 -1       373 1.15696E-02-1.17834E-03-7.15337E-14
 -1       374 1.18747E-02-1.18547E-03-7.44775E-14
 -1       375 1.21824E-02-1.12541E-03-7.74713E-14
 -1       376 1.24987E-02-1.01779E-03-8.05190E-14
 -1       377 1.28228E-02-8.90744E-04-8.36180E-14
 -1       378 1.31491E-02-7.66835E-04-8.67587E-14
 -1       379 1.34718E-02-6.57002E-04-8.99439E-14
 -1       380 1.37870E-02-5.61780E-04-9.31695E-14
 -1       381 1.40932E-02-4.75198E-04-9.64298E-14
 -1       382 1.43550E-02-4.01085E-04-9.93917E-14
 -1       383 1.11001E-03 4.47891E-04-5.71788E-16
 -1       384 1.39076E-03 5.00976E-04-9.79810E-16
 -1       385 1.66907E-03 5.38610E-04-1.50055E-15
 -1       386 1.94647E-03 5.64913E-04-2.13548E-15
 -1       387 2.22388E-03 5.82892E-04-2.88255E-15
 -1       388 2.50185E-03 5.94779E-04-3.73967E-15
 -1       389 2.78064E-03 6.02246E-04-4.70502E-15
 -1       390 3.06036E-03 6.06542E-04-5.77818E-15
 -1       391 3.34101E-03 6.08589E-04-6.95693E-15
 -1       392 3.62254E-03 6.09051E-04-8.24042E-15
 -1       393 3.90486E-03 6.08395E-04-9.62501E-15
 -1       394 4.18789E-03 6.06925E-04-1.11075E-14
 -1       395 4.47155E-03 6.04825E-04-1.26876E-14
 -1       396 4.75579E-03 6.02182E-04-1.43624E-14
 -1       397 5.04059E-03 5.99011E-04-1.61255E-14
 -1       398 5.32597E-03 5.95275E-04-1.79735E-14
 -1       399 5.61200E-03 5.90901E-04-1.99019E-14
 -1       400 5.89881E-03 5.85803E-04-2.19123E-14
 -1       401 6.18658E-03 5.79906E-04-2.39982E-14
 -1       402 6.47559E-03 5.73172E-04-2.61534E-14
 -1       403 6.76618E-03 5.65642E-04-2.83725E-14
 -1       404 7.05879E-03 5.57491E-04-3.06548E-14
 -1       405 7.35396E-03 5.49099E-04-3.29991E-14
 -1       406 7.65231E-03 5.41149E-04-3.54023E-14
 -1       407 7.95456E-03 5.34754E-04-3.78673E-14
 -1       408 8.26145E-03 5.31608E-04-4.03868E-14
 -1       409 8.57369E-03 5.34148E-04-4.29583E-14
 -1       410 8.89188E-03 5.45687E-04-4.55732E-14
 -1       411 9.21628E-03 5.70414E-04-4.82222E-14
 -1       412 9.54661E-03 6.13089E-04-5.09125E-14
 -1       413 9.88167E-03 6.78137E-04-5.36478E-14
 -1       414 1.02189E-02 7.67816E-04-5.64363E-14
 -1       415 1.05542E-02 8.79329E-04-5.92775E-14
 -1       416 1.08821E-02 1.00160E-03-6.21721E-14
 -1       417 1.11982E-02 1.11395E-03-6.51126E-14
 -1       418 1.15015E-02 1.19007E-03-6.80914E-14
 -1       419 1.17967E-02 1.20832E-03-7.11162E-14
 -1       420 1.20921E-02 1.16312E-03-7.41672E-14
 -1       421 1.23950E-02 1.06784E-03-7.72301E-14
 -1       422 1.27068E-02 9.46478E-04-8.03113E-14
 -1       423 1.30245E-02 8.21512E-04-8.34045E-14
 -1       424 1.33427E-02 7.06381E-04-8.65162E-14
 -1       425 1.36566E-02 6.04474E-04-8.96532E-14
 -1       426 1.39635E-02 5.11891E-04-9.28177E-14
 -1       427 1.42622E-02 4.20999E-04-9.60044E-14
 -1       428 1.44590E-02 3.53612E-04-9.80892E-14
 -1       429 1.47259E-02 1.80560E-04-9.79984E-14
 -1       430 1.45922E-02 2.51028E-04-9.77627E-14
 -1       431 1.45226E-02 3.01209E-04-9.79285E-14
 -1       432 1.48549E-02 1.20372E-04-9.82232E-14
 -1       433 1.49725E-02 7.02013E-05-9.84479E-14
 -1       434 1.50627E-02 3.12713E-05-9.86786E-14
 -1       435 1.51128E-02 9.57082E-07-9.89101E-14
 -1       436 1.51149E-02-2.59847E-05-9.91479E-14
 -1       437 1.50688E-02-5.59353E-05-9.93815E-14
 -1       438 1.49838E-02-9.35350E-05-9.96062E-14
 -1       439 1.48692E-02-1.42849E-04-9.98262E-14
 -1       440 1.47401E-02-2.03414E-04-1.00031E-13
 -1       441 1.46079E-02-2.73508E-04-1.00226E-13
 -1       442 1.38016E-02 1.48975E-04-8.05548E-14
 -1       443 1.41062E-02-1.19050E-05-8.20435E-14
 -1       444 1.39997E-02 6.47775E-05-8.11670E-14
 -1       445 1.34874E-02 2.87987E-04-7.95174E-14
 -1       446 1.31094E-02 4.65695E-04-7.83369E-14
 -1       447 4.45680E-04-1.26439E-04-2.15831E-16
 -1       448 1.23803E-02 8.47927E-04-7.49622E-14
 -1       449 1.20272E-02 9.78214E-04-7.29190E-14
 -1       450 1.16883E-02 1.00697E-03-7.08754E-14
 -1       451 1.13744E-02 9.37399E-04-6.90100E-14
 -1       452 1.10756E-02 8.04517E-04-6.73786E-14
 -1       453 1.06156E-02 5.51308E-04-6.53106E-14
 -1       454 1.02527E-02 3.70756E-04-6.43825E-14
 -1       455 9.95490E-03 2.28655E-04-6.35542E-14
 -1       456 9.64074E-03 8.69104E-05-6.25344E-14
 -1       457 9.51723E-03 3.10487E-05-6.24767E-14
 -1       458 9.50527E-03-2.96167E-05-6.27747E-14
 -1       459 9.64975E-03-9.63882E-05-6.28554E-14
 -1       460 9.96436E-03-2.37944E-04-6.41705E-14
 -1       461 1.03456E-02-4.21317E-04-6.54444E-14
 -1       462 1.07260E-02-6.35901E-04-6.71507E-14
 -1       463 1.11217E-02-8.39583E-04-6.88627E-14
 -1       464 1.14780E-02-9.85081E-04-7.07926E-14
 -1       465 1.18473E-02-1.02252E-03-7.30136E-14
 -1       466 1.21929E-02-9.44918E-04-7.49557E-14
 -1       467 1.25656E-02-7.77225E-04-7.68654E-14
 -1       468 1.30157E-02-5.42218E-04-7.86270E-14
 -1       469 1.34200E-02-3.30785E-04-8.01542E-14
 -1       470 1.37756E-02-1.72840E-04-8.11500E-14
 -1       471 1.40104E-02-7.63648E-05-8.16595E-14
 -1       472 1.27342E-02 6.72591E-04-7.65895E-14
 -1       473 9.31269E-04 3.46085E-04-4.97147E-16
 -1       474 6.65839E-04-7.51551E-05-4.76070E-16
 -1       475 6.69801E-04-1.15924E-04-4.74427E-16
 -1       476 6.63171E-04 1.10455E-06-4.66454E-16
 -1       477 6.63889E-04 3.87771E-05-4.56015E-16
 -1       478 6.66026E-04 7.68405E-05-4.41480E-16
 -1       479 6.70115E-04 1.17760E-04-4.21108E-16
 -1       480 6.77122E-04 1.62385E-04-3.93399E-16
 -1       481 6.89031E-04 2.12753E-04-3.55479E-16
 -1       482 1.21715E-03 4.06592E-04-8.71793E-16
 -1       483 9.76311E-04-3.28681E-04-7.81957E-16
 -1       484 1.25650E-02 7.46118E-04-7.66372E-14
 -1       485 1.26222E-03-3.83586E-04-1.27354E-15
 -1       486 1.54725E-03-4.23356E-04-1.88182E-15
 -1       487 1.83137E-03-4.51433E-04-2.60510E-15
 -1       488 2.11491E-03-4.70715E-04-3.44199E-15
 -1       489 2.39817E-03-4.83489E-04-4.38840E-15
 -1       490 2.68142E-03-4.91519E-04-5.44232E-15
 -1       491 2.96480E-03-4.96140E-04-6.60248E-15
 -1       492 3.24841E-03-4.98346E-04-7.86517E-15
 -1       493 3.53230E-03-4.98861E-04-9.22864E-15
 -1       494 3.81648E-03-4.98194E-04-1.06906E-14
 -1       495 4.10095E-03-4.96683E-04-1.22450E-14
 -1       496 4.38570E-03-4.94537E-04-1.38890E-14
 -1       497 4.67073E-03-4.91858E-04-1.56181E-14
 -1       498 4.95604E-03-4.88671E-04-1.74306E-14
 -1       499 5.24164E-03-4.84944E-04-1.93242E-14
 -1       500 5.52757E-03-4.80601E-04-2.12966E-14
 -1       501 5.81389E-03-4.75545E-04-2.33501E-14
 -1       502 6.10068E-03-4.69679E-04-2.54825E-14
 -1       503 6.38804E-03-4.62929E-04-2.76886E-14
 -1       504 6.67614E-03-4.55278E-04-2.99681E-14
 -1       505 6.96516E-03-4.46812E-04-3.23134E-14
 -1       506 7.25533E-03-4.37782E-04-3.47202E-14
 -1       507 7.54696E-03-4.28683E-04-3.71875E-14
 -1       508 7.84042E-03-4.20361E-04-3.97062E-14
 -1       509 8.13621E-03-4.14142E-04-4.22736E-14
 -1       510 8.43502E-03-4.11990E-04-4.48868E-14
 -1       511 8.73777E-03-4.16668E-04-4.75420E-14
 -1       512 9.04577E-03-4.31878E-04-5.02404E-14
 -1       513 9.36078E-03-4.62303E-04-5.29765E-14
 -1       514 9.68479E-03-5.13374E-04-5.57391E-14
 -1       515 1.00194E-02-5.90421E-04-5.85231E-14
 -1       516 1.03645E-02-6.96476E-04-6.13329E-14
 -1       517 1.07158E-02-8.27766E-04-6.41717E-14
 -1       518 1.10646E-02-9.67381E-04-6.70362E-14
 -1       519 1.14025E-02-1.08178E-03-6.99349E-14
 -1       520 1.17279E-02-1.13155E-03-7.28711E-14
 -1       521 1.20528E-02-1.09739E-03-7.58421E-14
 -1       522 1.23868E-02-9.94464E-04-7.88645E-14
 -1       523 1.27309E-02-8.60214E-04-8.19414E-14
 -1       524 1.30764E-02-7.27540E-04-8.50582E-14
 -1       525 1.34145E-02-6.12696E-04-8.82166E-14
 -1       526 1.37403E-02-5.17503E-04-9.14167E-14
 -1       527 1.40530E-02-4.35788E-04-9.46472E-14
 -1       528 1.39332E-02 8.01164E-05-8.22802E-14
 -1       529 1.78401E-03 4.81195E-04-1.95214E-15
 -1       530 2.06599E-03 5.02560E-04-2.65870E-15
 -1       531 2.34773E-03 5.16883E-04-3.47457E-15
 -1       532 2.62956E-03 5.26066E-04-4.39849E-15
 -1       533 2.91169E-03 5.31549E-04-5.42956E-15
 -1       534 3.19422E-03 5.34402E-04-6.56506E-15
 -1       535 3.47720E-03 5.35407E-04-7.80429E-15
 -1       536 3.76063E-03 5.35119E-04-9.14570E-15
 -1       537 4.04450E-03 5.33914E-04-1.05865E-14
 -1       538 4.32877E-03 5.32027E-04-1.21237E-14
 -1       539 4.61342E-03 5.29583E-04-1.37552E-14
 -1       540 4.89845E-03 5.26624E-04-1.54760E-14
 -1       541 5.18387E-03 5.23129E-04-1.72821E-14
 -1       542 5.46971E-03 5.19032E-04-1.91706E-14
 -1       543 5.75605E-03 5.14244E-04-2.11424E-14
 -1       544 6.04298E-03 5.08667E-04-2.31929E-14
 -1       545 6.33066E-03 5.02227E-04-2.53137E-14
 -1       546 6.61928E-03 4.94901E-04-2.75016E-14
 -1       547 6.90909E-03 4.86763E-04-2.97550E-14
 -1       548 7.20038E-03 4.78047E-04-3.20708E-14
 -1       549 7.49355E-03 4.69223E-04-3.44464E-14
 -1       550 7.78904E-03 4.61104E-04-3.68820E-14
 -1       551 8.08739E-03 4.54979E-04-3.93728E-14
 -1       552 8.38925E-03 4.52764E-04-4.19196E-14
 -1       553 8.69543E-03 4.57166E-04-4.45139E-14
 -1       554 9.00688E-03 4.71800E-04-4.71455E-14
 -1       555 9.32470E-03 5.01177E-04-4.98148E-14
 -1       556 9.64997E-03 5.50369E-04-5.25291E-14
 -1       557 9.98318E-03 6.24024E-04-5.52924E-14
 -1       558 1.03233E-02 7.24246E-04-5.81072E-14
 -1       559 1.06664E-02 8.46880E-04-6.09749E-14
 -1       560 1.10056E-02 9.76838E-04-6.38865E-14
 -1       561 1.13344E-02 1.08660E-03-6.68386E-14
 -1       562 1.16518E-02 1.14331E-03-6.98346E-14
 -1       563 1.19654E-02 1.12693E-03-7.28673E-14
 -1       564 1.22852E-02 1.04383E-03-7.59240E-14
 -1       565 1.26145E-02 9.21597E-04-7.89944E-14
 -1       566 1.29490E-02 7.90361E-04-8.20829E-14
 -1       567 1.32811E-02 6.69519E-04-8.51820E-14
 -1       568 1.36052E-02 5.65324E-04-8.83058E-14
 -1       569 1.39189E-02 4.74807E-04-9.14507E-14
 -1       570 1.42221E-02 3.90301E-04-9.46280E-14
 -1       571 1.46777E-02 1.32675E-04-9.55771E-14
 -1       572 1.47925E-02 7.42908E-05-9.58046E-14
 -1       573 1.44075E-02 2.79648E-04-9.51140E-14
 -1       574 1.45452E-02 2.01915E-04-9.53485E-14
 -1       575 1.48718E-02 2.75618E-05-9.60337E-14
 -1       576 1.49017E-02-1.15585E-05-9.62589E-14
 -1       577 1.48764E-02-5.04181E-05-9.64806E-14
 -1       578 1.48026E-02-9.56469E-05-9.66919E-14
 -1       579 1.46913E-02-1.53055E-04-9.68961E-14
 -1       580 1.45599E-02-2.22064E-04-9.70910E-14
 -1       581 1.44227E-02-2.99985E-04-9.72769E-14
 -1       582 1.41048E-02-3.76035E-05-8.34418E-14
 -1       583 1.50126E-03 4.50286E-04-1.35679E-15
 -1       584 1.36605E-02 1.84670E-04-8.13809E-14
 -1       585 1.39404E-02-9.86760E-05-8.31407E-14
 -1       586 7.12657E-04-2.51772E-04-4.45018E-16
 -1       587 1.33419E-02 3.27721E-04-8.01931E-14
 -1       588 1.08651E-02 6.86555E-04-6.54866E-14
 -1       589 1.15484E-02 1.00153E-03-6.97410E-14
 -1       590 6.63778E-04-3.65326E-05-4.73410E-16
 -1       591 1.18456E-02 1.02411E-03-7.18482E-14
 -1       592 1.03766E-02 4.10162E-04-6.34082E-14
 -1       593 1.21705E-02 9.41163E-04-7.41640E-14
 -1       594 1.12507E-02 8.94282E-04-6.77046E-14
 -1       595 9.50046E-03-3.69685E-05-6.10385E-14
 -1       596 1.01073E-02 2.73828E-04-6.25897E-14
 -1       597 9.77334E-03 1.29772E-04-6.15790E-14
 -1       598 9.51931E-03 3.84108E-05-6.07230E-14
 -1       599 9.45374E-03-2.22496E-07-6.08812E-14
 -1       600 9.79981E-03-1.47385E-04-6.22118E-14
 -1       601 1.01341E-02-2.93852E-04-6.36036E-14
 -1       602 1.05837E-02-5.31133E-04-6.55603E-14
 -1       603 1.09289E-02-7.30710E-04-6.72581E-14
 -1       604 1.12857E-02-9.23081E-04-6.93123E-14
 -1       605 1.16902E-02-1.04119E-03-7.21318E-14
 -1       606 1.20092E-02-1.01098E-03-7.43355E-14
 -1       607 1.23429E-02-8.82161E-04-7.65181E-14
 -1       608 1.27804E-02-6.45704E-04-7.88673E-14
 -1       609 1.31870E-02-4.25057E-04-8.05735E-14
 -1       610 1.36187E-02-2.22215E-04-8.20806E-14
 -1       611 1.40973E-02 1.95740E-05-8.31097E-14
 -1       612 7.03827E-04 2.90933E-04-2.64877E-16
 -1       613 1.28918E-02 5.63412E-04-7.83927E-14
 -1       614 6.76594E-04-1.60160E-04-4.66559E-16
 -1       615 1.42549E-02-3.85138E-04-9.68566E-14
 -1       616 1.41718E-02-8.07848E-06-8.45106E-14
 -1       617 1.06041E-02 5.53797E-04-6.35767E-14
 -1       618 9.57868E-03-7.77837E-05-6.03995E-14
 -1       619 1.14894E-02-1.01703E-03-7.06418E-14
 -1       620 8.99792E-04 7.41372E-05-7.71742E-16
 -1       621 8.97707E-04 2.51874E-05-7.92182E-16
 -1       622 9.11853E-04 1.78282E-04-7.08133E-16
 -1       623 9.24210E-04 2.36857E-04-6.60113E-16
 -1       624 1.04889E-03 3.13989E-04-7.49526E-16
 -1       625 1.10530E-02 8.17021E-04-6.58822E-14
 -1       626 1.27424E-02 6.69964E-04-7.83813E-14
 -1       627 1.33463E-03 3.61634E-04-1.19962E-15
 -1       628 1.19809E-02 1.02281E-03-7.29555E-14
 -1       629 1.38330E-03-3.37145E-04-1.60727E-15
 -1       630 1.66950E-03-3.68081E-04-2.27712E-15
 -1       631 1.95572E-03-3.89875E-04-3.05889E-15
 -1       632 2.24176E-03-4.04679E-04-3.95012E-15
 -1       633 2.52761E-03-4.14278E-04-4.94735E-15
 -1       634 2.81333E-03-4.20081E-04-6.05050E-15
 -1       635 3.09895E-03-4.23167E-04-7.25678E-15
 -1       636 3.38453E-03-4.24339E-04-8.56370E-15
 -1       637 3.67009E-03-4.24174E-04-9.97057E-15
 -1       638 3.95566E-03-4.23070E-04-1.14728E-14
 -1       639 4.24125E-03-4.21282E-04-1.30637E-14
 -1       640 4.52688E-03-4.18954E-04-1.47431E-14
 -1       641 4.81255E-03-4.16143E-04-1.65059E-14
 -1       642 5.09828E-03-4.12841E-04-1.83522E-14
 -1       643 5.38406E-03-4.08991E-04-2.02792E-14
 -1       644 5.66991E-03-4.04507E-04-2.22840E-14
 -1       645 5.95585E-03-3.99289E-04-2.43714E-14
 -1       646 6.24189E-03-3.93246E-04-2.65335E-14
 -1       647 6.52805E-03-3.86321E-04-2.87679E-14
 -1       648 6.81437E-03-3.78526E-04-3.10738E-14
 -1       649 7.10089E-03-3.69985E-04-3.34391E-14
 -1       650 7.38769E-03-3.60996E-04-3.58676E-14
 -1       651 7.67491E-03-3.52109E-04-3.83513E-14
 -1       652 7.96282E-03-3.44212E-04-4.08851E-14
 -1       653 8.25187E-03-3.38653E-04-4.34674E-14
 -1       654 8.54287E-03-3.37372E-04-4.60927E-14
 -1       655 8.83720E-03-3.43058E-04-4.87646E-14
 -1       656 9.13709E-03-3.59360E-04-5.14752E-14
 -1       657 9.44584E-03-3.91124E-04-5.42168E-14
 -1       658 9.76776E-03-4.44593E-04-5.69835E-14
 -1       659 1.01071E-02-5.27217E-04-5.97766E-14
 -1       660 1.04652E-02-6.45365E-04-6.25976E-14
 -1       661 1.08360E-02-7.96138E-04-6.54464E-14
 -1       662 1.12059E-02-9.54642E-04-6.83281E-14
 -1       663 1.22590E-02-9.85066E-04-7.72217E-14
 -1       664 1.26245E-02-8.37388E-04-8.02757E-14
 -1       665 1.29933E-02-6.88653E-04-8.33719E-14
 -1       666 1.33505E-02-5.65372E-04-8.65076E-14
 -1       667 1.36891E-02-4.69858E-04-8.96829E-14
 -1       668 1.40092E-02-3.93896E-04-9.28953E-14
 -1       669 1.38311E-02-1.55743E-04-8.42362E-14
 -1       670 1.40625E-02 4.71924E-05-8.41713E-14
 -1       671 1.90568E-03 4.20814E-04-2.42532E-15
 -1       672 2.76011E-03 4.55422E-04-5.07365E-15
 -1       673 3.04478E-03 4.59247E-04-6.16800E-15
 -1       674 3.32953E-03 4.60953E-04-7.36412E-15
 -1       675 3.61438E-03 4.61176E-04-8.66274E-15
 -1       676 3.89936E-03 4.60362E-04-1.00622E-14
 -1       677 4.18449E-03 4.58799E-04-1.15580E-14
 -1       678 4.46975E-03 4.56657E-04-1.31478E-14
 -1       679 4.75517E-03 4.54011E-04-1.48274E-14
 -1       680 5.04075E-03 4.50866E-04-1.65936E-14
 -1       681 5.32649E-03 4.47175E-04-1.84427E-14
 -1       682 5.61244E-03 4.42854E-04-2.03753E-14
 -1       683 5.89862E-03 4.37804E-04-2.23885E-14
 -1       684 6.18509E-03 4.31933E-04-2.44756E-14
 -1       685 6.47191E-03 4.25176E-04-2.66322E-14
 -1       686 6.75917E-03 4.17536E-04-2.88555E-14
 -1       687 7.04700E-03 4.09129E-04-3.11425E-14
 -1       688 7.33555E-03 4.00240E-04-3.34904E-14
 -1       689 7.62504E-03 3.91412E-04-3.59004E-14
 -1       690 7.91580E-03 3.83539E-04-3.83648E-14
 -1       691 8.20831E-03 3.77990E-04-4.08826E-14
 -1       692 8.50333E-03 3.76755E-04-4.34524E-14
 -1       693 8.80205E-03 3.82597E-04-4.60686E-14
 -1       694 9.10626E-03 3.99201E-04-4.87184E-14
 -1       695 9.41845E-03 4.31284E-04-5.14110E-14
 -1       696 9.74168E-03 4.84512E-04-5.41493E-14
 -1       697 1.00786E-02 5.64778E-04-5.69394E-14
 -1       698 1.04294E-02 6.75882E-04-5.97802E-14
 -1       699 1.07888E-02 8.13923E-04-6.26647E-14
 -1       700 1.11451E-02 9.57047E-04-6.55933E-14
 -1       701 1.14891E-02 1.06407E-03-6.85624E-14
 -1       702 1.18222E-02 1.09052E-03-7.15749E-14
 -1       703 1.21590E-02 1.02410E-03-7.46151E-14
 -1       704 1.25082E-02 8.95994E-04-7.76797E-14
 -1       705 1.28652E-02 7.51896E-04-8.07567E-14
 -1       706 1.32178E-02 6.22020E-04-8.38479E-14
 -1       707 1.35570E-02 5.15593E-04-8.69580E-14
 -1       708 1.38803E-02 4.28712E-04-9.00911E-14
 -1       709 1.41481E-02 3.51303E-04-9.25929E-14
 -1       710 1.46843E-02 1.12602E-05-9.33905E-14
 -1       711 1.42189E-02-3.46478E-04-9.50761E-14
 -1       712 1.45040E-02 1.25542E-04-9.29434E-14
 -1       713 1.46870E-02-3.26505E-05-9.36016E-14
 -1       714 1.46181E-02 6.13274E-05-9.31700E-14
 -1       715 1.38544E-02 1.18834E-04-8.32665E-14
 -1       716 1.46270E-02-8.10531E-05-9.38049E-14
 -1       717 1.45173E-02-1.44003E-04-9.40031E-14
 -1       718 1.43799E-02-2.22072E-04-9.41919E-14
 -1       719 1.42983E-02-2.83664E-04-9.46356E-14
 -1       720 1.62033E-03 3.96316E-04-1.75813E-15
 -1       721 1.34446E-02-3.16592E-04-8.27946E-14
 -1       722 8.72358E-04-2.47212E-04-6.95519E-16
 -1       723 9.59390E-03 8.07946E-05-5.96988E-14
 -1       724 1.30120E-02-5.35915E-04-8.09477E-14
 -1       725 2.47544E-03 4.48594E-04-4.08461E-15
 -1       726 2.19067E-03 4.37577E-04-3.20168E-15
 -1       727 1.12693E-03-2.97188E-04-1.10548E-15
 -1       728 9.88989E-03 1.94716E-04-6.06263E-14
 -1       729 1.35605E-02 2.46181E-04-8.24858E-14
 -1       730 1.16881E-02 1.04175E-03-7.05820E-14
 -1       731 9.04236E-04 1.24658E-04-7.44444E-16
 -1       732 9.03862E-04-1.22246E-04-8.14802E-16
 -1       733 1.21584E-02-9.78941E-04-7.58055E-14
 -1       734 9.92946E-03-2.19145E-04-6.16649E-14
 -1       735 1.23732E-02 8.70995E-04-7.59829E-14
 -1       736 1.01184E-02 2.98547E-04-6.14347E-14
 -1       737 1.40931E-02-6.18213E-05-8.48948E-14
 -1       738 1.03294E-02-4.10954E-04-6.35358E-14
 -1       739 1.07249E-02-6.33398E-04-6.55528E-14
 -1       740 1.10536E-02-8.32618E-04-6.74400E-14
 -1       741 1.18644E-02-1.05556E-03-7.35889E-14
 -1       742 1.14257E-02 9.85065E-04-6.85331E-14
 -1       743 1.25640E-02-7.83861E-04-7.85424E-14
 -1       744 1.31692E-02 4.35056E-04-8.06728E-14
 -1       745 9.11247E-04-1.75643E-04-8.08134E-16
 -1       746 8.97645E-04-2.31662E-05-8.06006E-16
 -1       747 1.19090E-02-1.07509E-03-7.42101E-14
 -1       748 1.43654E-02 2.04028E-04-9.27166E-14
 -1       749 1.41923E-02 1.48988E-05-8.55750E-14
 -1       750 1.42552E-02 2.76410E-04-9.26565E-14
 -1       751 9.43814E-03 3.50860E-05-5.88300E-14
 -1       752 1.03259E-02 4.31303E-04-6.15965E-14
 -1       753 9.39847E-03-1.50362E-05-5.91984E-14
 -1       754 9.66988E-03-1.35263E-04-5.98541E-14
 -1       755 8.99586E-04-7.18517E-05-8.13531E-16
 -1       756 1.07979E-02 6.98632E-04-6.39624E-14
 -1       757 1.42131E-02-2.91097E-05-8.59677E-14
 -1       758 9.41630E-03-4.64287E-05-5.85647E-14
 -1       759 9.39447E-03 8.29130E-06-5.90149E-14
 -1       760 9.65693E-03 1.41197E-04-5.85020E-14
 -1       761 1.16157E-03 2.43739E-04-1.05840E-15
 -1       762 1.38620E-02 1.63372E-04-8.50586E-14
 -1       763 1.79733E-03-3.09591E-04-2.68496E-15
 -1       764 2.08500E-03-3.25683E-04-3.52096E-15
 -1       765 2.37281E-03-3.36455E-04-4.46315E-15
 -1       766 2.66052E-03-3.43256E-04-5.51012E-15
 -1       767 2.94803E-03-3.47165E-04-6.66051E-15
 -1       768 3.23530E-03-3.49009E-04-7.91136E-15
 -1       769 3.52233E-03-3.49405E-04-9.26278E-15
 -1       770 3.80913E-03-3.48786E-04-1.07110E-14
 -1       771 4.09571E-03-3.47445E-04-1.22504E-14
 -1       772 4.38209E-03-3.45560E-04-1.38783E-14
 -1       773 4.66829E-03-3.43219E-04-1.55921E-14
 -1       774 4.95430E-03-3.40443E-04-1.73888E-14
 -1       775 5.24012E-03-3.37200E-04-1.92691E-14
 -1       776 5.52573E-03-3.33423E-04-2.12298E-14
 -1       777 5.81109E-03-3.29025E-04-2.32695E-14
 -1       778 6.09616E-03-3.23913E-04-2.53879E-14
 -1       779 6.38086E-03-3.18013E-04-2.75793E-14
 -1       780 6.66509E-03-3.11289E-04-2.98421E-14
 -1       781 6.94877E-03-3.03781E-04-3.21716E-14
 -1       782 7.23178E-03-2.95641E-04-3.45594E-14
 -1       783 7.51405E-03-2.87183E-04-3.70069E-14
 -1       784 7.79556E-03-2.78946E-04-3.95076E-14
 -1       785 8.07644E-03-2.71757E-04-4.20569E-14
 -1       786 8.35711E-03-2.66818E-04-4.46533E-14
 -1       787 8.63850E-03-2.65807E-04-4.72954E-14
 -1       788 8.92237E-03-2.71051E-04-4.99817E-14
 -1       789 9.21184E-03-2.85884E-04-5.27017E-14
 -1       790 9.51186E-03-3.15293E-04-5.54475E-14
 -1       791 9.82965E-03-3.67174E-04-5.82217E-14
 -1       792 1.01728E-02-4.53554E-04-6.10278E-14
 -1       793 9.47090E-03 8.00076E-05-5.76427E-14
 -1       794 1.29295E-02-6.34127E-04-8.16746E-14
 -1       795 1.33092E-02-4.95217E-04-8.47925E-14
 -1       796 1.36598E-02-3.99774E-04-8.79482E-14
 -1       797 1.39843E-02-3.32555E-04-9.11391E-14
 -1       798 2.89349E-03 3.83178E-04-5.76546E-15
 -1       799 3.75276E-03 3.86137E-04-9.53489E-15
 -1       800 4.03892E-03 3.84999E-04-1.09907E-14
 -1       801 4.32498E-03 3.83259E-04-1.25407E-14
 -1       802 4.61095E-03 3.81028E-04-1.41797E-14
 -1       803 4.89684E-03 3.78339E-04-1.59057E-14
 -1       804 5.18266E-03 3.75169E-04-1.77157E-14
 -1       805 5.46839E-03 3.71455E-04-1.96088E-14
 -1       806 5.75403E-03 3.67108E-04-2.15841E-14
 -1       807 6.03955E-03 3.62032E-04-2.36376E-14
 -1       808 6.32493E-03 3.56144E-04-2.57625E-14
 -1       809 6.61014E-03 3.49402E-04-2.79567E-14
 -1       810 6.89514E-03 3.41836E-04-3.02146E-14
 -1       811 7.17991E-03 3.33592E-04-3.25353E-14
 -1       812 7.46445E-03 3.24989E-04-3.49186E-14
 -1       813 7.74884E-03 3.16585E-04-3.73592E-14
 -1       814 8.03330E-03 3.09259E-04-3.98518E-14
 -1       815 8.31832E-03 3.04313E-04-4.23961E-14
 -1       816 8.60484E-03 3.03587E-04-4.49887E-14
 -1       817 8.89454E-03 3.09634E-04-4.76232E-14
 -1       818 9.19017E-03 3.25972E-04-5.02955E-14
 -1       819 9.49597E-03 3.57543E-04-5.30119E-14
 -1       820 9.81749E-03 4.11326E-04-5.57762E-14
 -1       821 1.01606E-02 4.96625E-04-5.85908E-14
 -1       822 1.05270E-02 6.22268E-04-6.14534E-14
 -1       823 1.31606E-02 5.62032E-04-8.25109E-14
 -1       824 1.35168E-02 4.51571E-04-8.56097E-14
 -1       825 1.38496E-02 3.70153E-04-8.87349E-14
 -1       826 1.40559E-02 3.20688E-04-9.06904E-14
 -1       827 1.13831E-03 5.90772E-05-1.19238E-15
 -1       828 1.43593E-02-1.21443E-04-9.11863E-14
 -1       829 1.45022E-02-1.04405E-05-9.07485E-14
 -1       830 2.03276E-03 3.57760E-04-2.92108E-15
 -1       831 1.42098E-02-2.06754E-04-9.13702E-14
 -1       832 9.92275E-03 2.58498E-04-5.93421E-14
 -1       833 1.32981E-02-4.35157E-04-8.35015E-14
 -1       834 2.60674E-03 3.78379E-04-4.71348E-15
 -1       835 3.46648E-03 3.86463E-04-8.17735E-15
 -1       836 1.37059E-02-2.39999E-04-8.50725E-14
 -1       837 3.18006E-03 3.85642E-04-6.92048E-15
 -1       838 1.44666E-02-5.79377E-05-9.09957E-14
 -1       839 1.51022E-03-2.86624E-04-1.95769E-15
 -1       840 1.40757E-02-1.07044E-04-8.66612E-14
 -1       841 2.31981E-03 3.70311E-04-3.76524E-15
 -1       842 1.00659E-02-3.24946E-04-6.13488E-14
 -1       843 1.24623E-03 3.00914E-04-1.13346E-15
 -1       844 1.04650E-02-5.32814E-04-6.34856E-14
 -1       845 1.40686E-02 8.61084E-05-8.59735E-14
 -1       846 1.30226E-02 5.63291E-04-8.07782E-14
 -1       847 1.34512E-02 3.49096E-04-8.32522E-14
 -1       848 1.27946E-02 7.09618E-04-7.95702E-14
 -1       849 1.13694E-03 1.19577E-06-1.21663E-15
 -1       850 1.14981E-03 1.79160E-04-1.11508E-15
 -1       851 1.41897E-02 1.91790E-04-9.00978E-14
 -1       852 9.32195E-03 3.71479E-05-5.67683E-14
 -1       853 1.42344E-02 4.73153E-05-8.73877E-14
 -1       854 1.25392E-03-2.56315E-04-1.40157E-15
 -1       855 1.43429E-02 1.04206E-04-9.03236E-14
 -1       856 1.14241E-03 1.17849E-04-1.15899E-15
 -1       857 1.53228E-03 3.35623E-04-1.67779E-15
 -1       858 1.44574E-02 3.84657E-05-9.05395E-14
 -1       859 1.78229E-03 3.49923E-04-2.25637E-15
 -1       860 1.42835E-02-6.80055E-06-8.70378E-14
 -1       861 9.78889E-03-2.23503E-04-5.95425E-14
 -1       862 9.29179E-03 1.05914E-05-5.69558E-14
 -1       863 9.46300E-03-9.05668E-05-5.80245E-14
 -1       864 1.42408E-02-6.35930E-05-8.77396E-14
 -1       865 1.04401E-02 5.29940E-04-6.15264E-14
 -1       866 1.14207E-03-1.15237E-04-1.23865E-15
 -1       867 9.29423E-03-1.30513E-05-5.71405E-14
 -1       868 1.14925E-03-1.76193E-04-1.23638E-15
 -1       869 1.39820E-02-1.83069E-04-8.76297E-14
 -1       870 1.01035E-02 3.97726E-04-5.92034E-14
 -1       871 2.21842E-03-2.58949E-04-3.99159E-15
 -1       872 2.50751E-03-2.66230E-04-4.98285E-15
 -1       873 2.79654E-03-2.70666E-04-6.07678E-15
 -1       874 3.08532E-03-2.73036E-04-7.27276E-15
 -1       875 3.37374E-03-2.73938E-04-8.56885E-15
 -1       876 3.66177E-03-2.73809E-04-9.96200E-15
 -1       877 3.94939E-03-2.72953E-04-1.14484E-14
 -1       878 4.23662E-03-2.71568E-04-1.30244E-14
 -1       879 4.52346E-03-2.69765E-04-1.46893E-14
 -1       880 4.80991E-03-2.67589E-04-1.64376E-14
 -1       881 5.09596E-03-2.65034E-04-1.82681E-14
 -1       882 5.38156E-03-2.62057E-04-2.01825E-14
 -1       883 5.66666E-03-2.58590E-04-2.21791E-14
 -1       884 5.95116E-03-2.54556E-04-2.42506E-14
 -1       885 6.23493E-03-2.49880E-04-2.64011E-14
 -1       886 6.51778E-03-2.44507E-04-2.86236E-14
 -1       887 6.79952E-03-2.38426E-04-3.09134E-14
 -1       888 7.07990E-03-2.31694E-04-3.32631E-14
 -1       889 7.35865E-03-2.24467E-04-3.56722E-14
 -1       890 7.63551E-03-2.17033E-04-3.81396E-14
 -1       891 7.91028E-03-2.09846E-04-4.06565E-14
 -1       892 8.18290E-03-2.03563E-04-4.32230E-14
 -1       893 8.45359E-03-1.99075E-04-4.58375E-14
 -1       894 8.72311E-03-1.97578E-04-4.84973E-14
 -1       895 8.99313E-03-2.00751E-04-5.11937E-14
 -1       896 9.26692E-03-2.11359E-04-5.39189E-14
 -1       897 9.55128E-03-2.34325E-04-5.66712E-14
 -1       898 1.36522E-02-3.38572E-04-8.66437E-14
 -1       899 1.39428E-02-2.61606E-04-8.90010E-14
 -1       900 1.41200E-02 2.56081E-04-9.03951E-14
 -1       901 3.89238E-03 3.10539E-04-1.04213E-14
 -1       902 4.75237E-03 3.05388E-04-1.52175E-14
 -1       903 5.03843E-03 3.02833E-04-1.69885E-14
 -1       904 5.32416E-03 2.99831E-04-1.88447E-14
 -1       905 5.60952E-03 2.96314E-04-2.07818E-14
 -1       906 5.89445E-03 2.92196E-04-2.28002E-14
 -1       907 6.17885E-03 2.87395E-04-2.48955E-14
 -1       908 6.46260E-03 2.81846E-04-2.70577E-14
 -1       909 6.74555E-03 2.75528E-04-2.92865E-14
 -1       910 7.02752E-03 2.68493E-04-3.15782E-14
 -1       911 7.30835E-03 2.60899E-04-3.39350E-14
 -1       912 7.58786E-03 2.53051E-04-3.63513E-14
 -1       913 7.86600E-03 2.45453E-04-3.88210E-14
 -1       914 8.14283E-03 2.38852E-04-4.13423E-14
 -1       915 8.41876E-03 2.34306E-04-4.39121E-14
 -1       916 8.69479E-03 2.33276E-04-4.65270E-14
 -1       917 8.97282E-03 2.37828E-04-4.91816E-14
 -1       918 9.25632E-03 2.51025E-04-5.18776E-14
 -1       919 9.55121E-03 2.78226E-04-5.46183E-14
 -1       920 1.16587E-02 1.05818E-03-7.02256E-14
 -1       921 9.31711E-03 7.69416E-05-5.56195E-14
 -1       922 1.41045E-02 1.33284E-04-8.77665E-14
 -1       923 2.16427E-03 2.92128E-04-3.44053E-15
 -1       924 9.66697E-03 2.06454E-04-5.71135E-14
 -1       925 2.74129E-03 3.06497E-04-5.36022E-15
 -1       926 3.60509E-03 3.11195E-04-9.00560E-15
 -1       927 1.37531E-02 2.74685E-04-8.59469E-14
 -1       928 4.46600E-03 3.07535E-04-1.35308E-14
 -1       929 1.13815E-03-5.65377E-05-1.23213E-15
 -1       930 2.45282E-03 3.00971E-04-4.34885E-15
 -1       931 4.17934E-03 3.09273E-04-1.19312E-14
 -1       932 1.92962E-03-2.47861E-04-3.10496E-15
 -1       933 1.44667E-03 2.76973E-04-1.58799E-15
 -1       934 1.64165E-03-2.31853E-04-2.32360E-15
 -1       935 9.29139E-03-4.43218E-05-5.66077E-14
 -1       936 9.47558E-03 1.25769E-04-5.64626E-14
 -1       937 1.38422E-03 9.99998E-05-1.66297E-15
 -1       938 9.85712E-03-3.08664E-04-5.91218E-14
 -1       939 1.38397E-03-9.71274E-05-1.74273E-15
 -1       940 9.86573E-03 3.28143E-04-5.74087E-14
 -1       941 3.31748E-03 3.11005E-04-7.68962E-15
 -1       942 1.87597E-03 2.78845E-04-2.63622E-15
 -1       943 9.14535E-03-1.54809E-05-5.47596E-14
 -1       944 3.02954E-03 3.09610E-04-6.47408E-15
 -1       945 9.54976E-03-1.59888E-04-5.77154E-14
 -1       946 1.39027E-03-1.64282E-04-1.74669E-15
 -1       947 1.38110E-03 3.39822E-05-1.70079E-15
 -1       948 1.39083E-03 1.67563E-04-1.61254E-15
 -1       949 9.14003E-03 1.03097E-05-5.45749E-14
 -1       950 2.29959E-03 2.24037E-04-3.98153E-15
 -1       951 2.64543E-03-1.94203E-04-5.50710E-15
 -1       952 2.93536E-03-1.96752E-04-6.64705E-15
 -1       953 3.22495E-03-1.97962E-04-7.88807E-15
 -1       954 3.51409E-03-1.98223E-04-9.22615E-15
 -1       955 3.80271E-03-1.97817E-04-1.06584E-14
 -1       956 4.09079E-03-1.96935E-04-1.21826E-14
 -1       957 4.37832E-03-1.95693E-04-1.37968E-14
 -1       958 4.66531E-03-1.94152E-04-1.54975E-14
 -1       959 4.95174E-03-1.92323E-04-1.72799E-14
 -1       960 5.23755E-03-1.90190E-04-1.91470E-14
 -1       961 5.52267E-03-1.87708E-04-2.10967E-14
 -1       962 5.80699E-03-1.84820E-04-2.31264E-14
 -1       963 6.09033E-03-1.81466E-04-2.52312E-14
 -1       964 6.37249E-03-1.77593E-04-2.74132E-14
 -1       965 6.65318E-03-1.73169E-04-2.96631E-14
 -1       966 6.93207E-03-1.68202E-04-3.19777E-14
 -1       967 7.20876E-03-1.62752E-04-3.43489E-14
 -1       968 7.48283E-03-1.56955E-04-3.67794E-14
 -1       969 7.75379E-03-1.51031E-04-3.92674E-14
 -1       970 8.02119E-03-1.45297E-04-4.18018E-14
 -1       971 8.28462E-03-1.40160E-04-4.43877E-14
 -1       972 8.54379E-03-1.36114E-04-4.70194E-14
 -1       973 8.79874E-03-1.33740E-04-4.96898E-14
 -1       974 9.05035E-03-1.33905E-04-5.23937E-14
 -1       975 1.66090E-03 2.80613E-04-2.07919E-15
 -1       976 1.38101E-03-3.13317E-05-1.72717E-15
 -1       977 5.46528E-03 2.25159E-04-1.99804E-14
 -1       978 5.17992E-03 2.27773E-04-1.80803E-14
 -1       979 4.89399E-03 2.29998E-04-1.62626E-14
 -1       980 5.74997E-03 2.22093E-04-2.19634E-14
 -1       981 6.03385E-03 2.18505E-04-2.40244E-14
 -1       982 6.31676E-03 2.14330E-04-2.61592E-14
 -1       983 6.59845E-03 2.09525E-04-2.83586E-14
 -1       984 6.87867E-03 2.04087E-04-3.06229E-14
 -1       985 7.15710E-03 1.98074E-04-3.29500E-14
 -1       986 7.43339E-03 1.91629E-04-3.53420E-14
 -1       987 7.70719E-03 1.85002E-04-3.77903E-14
 -1       988 7.97822E-03 1.78567E-04-4.02891E-14
 -1       989 8.24629E-03 1.72841E-04-4.28373E-14
 -1       990 8.51149E-03 1.68497E-04-4.54324E-14
 -1       991 8.77441E-03 1.66436E-04-4.80690E-14
 -1       992 9.03651E-03 1.68110E-04-5.07458E-14
 -1       993 9.30104E-03 1.75574E-04-5.34662E-14
 -1       994 2.06567E-03-1.82901E-04-3.53482E-15
 -1       995 2.35541E-03-1.89801E-04-4.46947E-15
 -1       996 9.14109E-03-6.14498E-05-5.42865E-14
 -1       997 2.01025E-03 2.15266E-04-3.11269E-15
 -1       998 1.66630E-03-1.56318E-04-2.41494E-15
 -1       999 9.09245E-03 4.29145E-05-5.34419E-14
 -1      1000 8.96864E-03-4.16594E-06-5.23103E-14
 -1      1001 2.87878E-03 2.33185E-04-6.02494E-15
 -1      1002 4.60753E-03 2.31882E-04-1.45292E-14
 -1      1003 2.58922E-03 2.29747E-04-4.95229E-15
 -1      1004 3.74526E-03 2.35415E-04-9.84890E-15
 -1      1005 9.32407E-03-1.00371E-04-5.59949E-14
 -1      1006 9.18101E-03 9.97458E-05-5.34596E-14
 -1      1007 1.69445E-03 2.10878E-04-2.26825E-15
 -1      1008 4.03317E-03 2.34643E-04-1.13197E-14
 -1      1009 4.32059E-03 2.33438E-04-1.28803E-14
 -1      1010 3.45688E-03 2.35607E-04-8.47435E-15
 -1      1011 1.66075E-03-8.30904E-05-2.40314E-15
 -1      1012 1.62940E-03 7.32402E-05-2.25315E-15
 -1      1013 3.16804E-03 2.34979E-04-7.19973E-15
 -1      1014 5.32137E-03 1.53420E-04-1.91787E-14
 -1      1015 3.07661E-03-1.21788E-04-7.22066E-15
 -1      1016 3.36662E-03-1.22220E-04-8.50497E-15
 -1      1017 3.65609E-03-1.22139E-04-9.88307E-15
 -1      1018 3.94494E-03-1.21694E-04-1.13548E-14
 -1      1019 4.23315E-03-1.20983E-04-1.29166E-14
 -1      1020 4.52071E-03-1.20063E-04-1.45686E-14
 -1      1021 4.80759E-03-1.18956E-04-1.63043E-14
 -1      1022 5.09375E-03-1.17660E-04-1.81222E-14
 -1      1023 5.37913E-03-1.16155E-04-2.00244E-14
 -1      1024 5.66358E-03-1.14408E-04-2.20093E-14
 -1      1025 5.94695E-03-1.12381E-04-2.40718E-14
 -1      1026 6.22900E-03-1.10036E-04-2.62099E-14
 -1      1027 6.50943E-03-1.07345E-04-2.84205E-14
 -1      1028 6.78786E-03-1.04296E-04-3.06968E-14
 -1      1029 7.06384E-03-1.00906E-04-3.30344E-14
 -1      1030 7.33684E-03-9.72254E-05-3.54289E-14
 -1      1031 7.60624E-03-9.33496E-05-3.78818E-14
 -1      1032 7.87134E-03-8.94142E-05-4.03882E-14
 -1      1033 8.13131E-03-8.55823E-05-4.29425E-14
 -1      1034 8.38524E-03-8.20191E-05-4.55475E-14
 -1      1035 8.63198E-03-7.88493E-05-4.81897E-14
 -1      1036 8.87018E-03-7.61617E-05-5.08699E-14
 -1      1037 5.60612E-03 1.51431E-04-2.11251E-14
 -1      1038 2.78617E-03-1.20627E-04-6.03565E-15
 -1      1039 5.03579E-03 1.55111E-04-1.73153E-14
 -1      1040 6.17254E-03 1.46362E-04-2.52564E-14
 -1      1041 6.45374E-03 1.43189E-04-2.74289E-14
 -1      1042 6.73317E-03 1.39552E-04-2.96678E-14
 -1      1043 7.01046E-03 1.35459E-04-3.19684E-14
 -1      1044 7.28512E-03 1.30959E-04-3.43332E-14
 -1      1045 7.55666E-03 1.26156E-04-3.67574E-14
 -1      1046 7.82449E-03 1.21211E-04-3.92338E-14
 -1      1047 8.08800E-03 1.16336E-04-4.17618E-14
 -1      1048 8.34657E-03 1.11774E-04-4.43366E-14
 -1      1049 8.59958E-03 1.07773E-04-4.69557E-14
 -1      1050 8.84653E-03 1.04544E-04-4.96147E-14
 -1      1051 2.20511E-03-1.14909E-04-3.97239E-15
 -1      1052 2.14809E-03 1.48604E-04-3.61218E-15
 -1      1053 5.88992E-03 1.49095E-04-2.31526E-14
 -1      1054 3.01885E-03 1.58704E-04-6.70904E-15
 -1      1055 4.74950E-03 1.56545E-04-1.55351E-14
 -1      1056 1.62764E-03 1.56395E-06-2.29370E-15
 -1      1057 1.93219E-03-9.93531E-05-3.14123E-15
 -1      1058 2.72861E-03 1.56864E-04-5.57475E-15
 -1      1059 2.49554E-03-1.18455E-04-4.95253E-15
 -1      1060 8.87105E-03 4.21661E-05-5.07046E-14
 -1      1061 2.43823E-03 1.53658E-04-4.54247E-15
 -1      1062 8.73510E-03-1.56572E-05-4.94524E-14
 -1      1063 1.85878E-03 1.41116E-04-2.78450E-15
 -1      1064 4.46256E-03 1.57742E-04-1.38377E-14
 -1      1065 3.59805E-03 1.59719E-04-9.27550E-15
 -1      1066 3.30870E-03 1.59559E-04-7.94222E-15
 -1      1067 1.92107E-03 6.34692E-05-3.03225E-15
 -1      1068 3.88682E-03 1.59388E-04-1.07061E-14
 -1      1069 2.92934E-03-4.58306E-05-6.56870E-15
 -1      1070 3.21993E-03-4.60898E-05-7.79714E-15
 -1      1071 3.51000E-03-4.61097E-05-9.12117E-15
 -1      1072 3.79945E-03-4.59599E-05-1.05407E-14
 -1      1073 4.08823E-03-4.56876E-05-1.20501E-14
 -1      1074 4.37629E-03-4.53272E-05-1.36506E-14
 -1      1075 4.66364E-03-4.48881E-05-1.53400E-14
 -1      1076 4.95023E-03-4.43771E-05-1.71108E-14
 -1      1077 5.23599E-03-4.37890E-05-1.89640E-14
 -1      1078 5.52081E-03-4.31134E-05-2.09002E-14
 -1      1079 5.80454E-03-4.23365E-05-2.29195E-14
 -1      1080 6.08695E-03-4.14437E-05-2.50166E-14
 -1      1081 6.36774E-03-4.04225E-05-2.71854E-14
 -1      1082 6.64655E-03-3.92659E-05-2.94227E-14
 -1      1083 6.92292E-03-3.79756E-05-3.17233E-14
 -1      1084 7.19630E-03-3.65663E-05-3.40853E-14
 -1      1085 7.46605E-03-3.50676E-05-3.65018E-14
 -1      1086 7.73138E-03-3.35254E-05-3.89752E-14
 -1      1087 7.99137E-03-3.19985E-05-4.15008E-14
 -1      1088 8.24484E-03-3.05566E-05-4.40765E-14
 -1      1089 8.49567E-03-2.27073E-05-4.67445E-14
 -1      1090 6.86773E-03 7.21173E-05-3.09837E-14
 -1      1091 5.17779E-03 8.09407E-05-1.83771E-14
 -1      1092 6.59050E-03 7.41802E-05-2.87087E-14
 -1      1093 6.31102E-03 7.59839E-05-2.64969E-14
 -1      1094 7.14219E-03 6.98021E-05-3.33230E-14
 -1      1095 7.41330E-03 6.72624E-05-3.57225E-14
 -1      1096 7.68036E-03 6.45481E-05-3.81736E-14
 -1      1097 7.94255E-03 6.17276E-05-4.06819E-14
 -1      1098 8.19889E-03 5.88770E-05-4.32384E-14
 -1      1099 8.44809E-03 5.60275E-05-4.58400E-14
 -1      1100 8.66477E-03 4.89265E-05-4.82557E-14
 -1      1101 6.02970E-03 7.75383E-05-2.43503E-14
 -1      1102 2.87061E-03 8.26235E-05-6.21665E-15
 -1      1103 2.34758E-03-4.41680E-05-4.41563E-15
 -1      1104 5.74689E-03 7.88644E-05-2.22783E-14
 -1      1105 3.45123E-03 8.36437E-05-8.70223E-15
 -1      1106 1.92475E-03-1.78068E-05-3.09553E-15
 -1      1107 4.17499E-03 1.58703E-04-1.22278E-14
 -1      1108 4.89186E-03 8.17437E-05-1.65506E-14
 -1      1109 3.16116E-03 8.33542E-05-7.40994E-15
 -1      1110 5.46285E-03 7.99892E-05-2.02863E-14
 -1      1111 2.63844E-03-4.52260E-05-5.44112E-15
 -1      1112 2.23187E-03 6.50191E-05-3.96261E-15
 -1      1113 4.60513E-03 8.24154E-05-1.48055E-14
 -1      1114 2.57979E-03 8.12612E-05-5.12332E-15
 -1      1115 3.74071E-03 8.36199E-05-1.00907E-14
 -1      1116 2.13586E-03-3.07268E-05-3.72797E-15
 -1      1117 2.49276E-03 2.88812E-05-4.86445E-15
 -1      1118 4.23231E-03 2.99898E-05-1.27468E-14
 -1      1119 4.02954E-03 8.33750E-05-1.15730E-14
 -1      1120 4.31768E-03 8.29604E-05-1.31452E-14
 -1      1121 0.00000E+00 0.00000E+00 0.00000E+00
 -1      1122 0.00000E+00 0.00000E+00 0.00000E+00
 -1      1123 0.00000E+00 0.00000E+00 0.00000E+00
 -1      1124 0.00000E+00 0.00000E+00 0.00000E+00
 -1      1125 0.00000E+00 0.00000E+00 0.00000E+00
 -1      1126 0.00000E+00 0.00000E+00 0.00000E+00
 -1      1127 0.00000E+00 0.00000E+00 0.00000E+00
 -1      1128 0.00000E+00 0.00000E+00 0.00000E+00
 -1      1129 0.00000E+00 0.00000E+00 0.00000E+00
 -1      1130 0.00000E+00 0.00000E+00 0.00000E+00
 -1      1131 0.00000E+00 0.00000E+00 0.00000E+00
 -1      1132 0.00000E+00 0.00000E+00 0.00000E+00
 -1      1133 0.00000E+00 0.00000E+00 0.00000E+00
 -1      1134 0.00000E+00 0.00000E+00 0.00000E+00
 -1      1135 0.00000E+00 0.00000E+00 0.00000E+00
 -1      1136 0.00000E+00 0.00000E+00 0.00000E+00
 -1      1137 0.00000E+00 0.00000E+00 0.00000E+00
 -1      1138 2.11675E-04-1.48338E-04 7.79270E-18
 -1      1139 5.51658E-04-3.37530E-04-6.12981E-17
 -1      1140 8.33491E-04-4.59035E-04-2.52348E-16
 -1      1141 1.10308E-03-5.40734E-04-5.84697E-16
 -1      1142 1.36850E-03-5.98002E-04-1.04972E-15
 -1      1143 1.63332E-03-6.38731E-04-1.64078E-15
 -1      1144 1.89938E-03-6.67571E-04-2.35435E-15
 -1      1145 2.16753E-03-6.87639E-04-3.18726E-15
 -1      1146 2.43807E-03-7.01219E-04-4.13744E-15
 -1      1147 2.71097E-03-7.10032E-04-5.20343E-15
 -1      1148 2.98609E-03-7.15376E-04-6.38133E-15
 -1      1149 3.26317E-03-7.18224E-04-7.66299E-15
 -1      1150 3.54193E-03-7.19292E-04-9.04722E-15
 -1      1151 3.82212E-03-7.19091E-04-1.05349E-14
 -1      1152 4.10348E-03-7.17967E-04-1.21164E-14
 -1      1153 4.38582E-03-7.16144E-04-1.37841E-14
 -1      1154 4.66898E-03-7.13743E-04-1.55366E-14
 -1      1155 4.95286E-03-7.10811E-04-1.73743E-14
 -1      1156 5.23743E-03-7.07339E-04-1.92933E-14
 -1      1157 5.52274E-03-7.03283E-04-2.12924E-14
 -1      1158 5.80890E-03-6.98580E-04-2.33720E-14
 -1      1159 6.09616E-03-6.93173E-04-2.55312E-14
 -1      1160 6.38486E-03-6.87037E-04-2.77616E-14
 -1      1161 6.67549E-03-6.80216E-04-3.00678E-14
 -1      1162 6.96870E-03-6.72870E-04-3.24439E-14
 -1      1163 7.26530E-03-6.65343E-04-3.48831E-14
 -1      1164 7.56630E-03-6.58250E-04-3.73824E-14
 -1      1165 7.87288E-03-6.52592E-04-3.99325E-14
 -1      1166 8.18632E-03-6.49900E-04-4.25340E-14
 -1      1167 8.50788E-03-6.52391E-04-4.51808E-14
 -1      1168 8.83856E-03-6.63120E-04-4.78679E-14
 -1      1169 9.17868E-03-6.86015E-04-5.05894E-14
 -1      1170 9.52722E-03-7.25662E-04-5.33449E-14
 -1      1171 9.88111E-03-7.86535E-04-5.61281E-14
 -1      1172 1.02345E-02-8.71356E-04-5.89304E-14
 -1      1173 1.05787E-02-9.78442E-04-6.17522E-14
 -1      1174 1.09036E-02-1.09868E-03-6.45963E-14
 -1      1175 1.12014E-02-1.21407E-03-6.74605E-14
 -1      1176 1.14709E-02-1.30061E-03-7.03427E-14
 -1      1177 1.17207E-02-1.33650E-03-7.32527E-14
 -1      1178 1.19668E-02-1.31199E-03-7.61996E-14
 -1      1179 1.22253E-02-1.23406E-03-7.92112E-14
 -1      1180 1.25053E-02-1.12229E-03-8.22877E-14
 -1      1181 1.28063E-02-9.99003E-04-8.54170E-14
 -1      1182 1.31204E-02-8.80579E-04-8.85906E-14
 -1      1183 1.34374E-02-7.73972E-04-9.18116E-14
 -1      1184 1.37490E-02-6.77856E-04-9.50712E-14
 -1      1185 1.40505E-02-5.85863E-04-9.83614E-14
 -1      1186 1.43420E-02-4.90228E-04-1.01689E-13
 -1      1187 1.46205E-02-3.89412E-04-1.04974E-13
 -1      1188 2.28435E-04 1.60716E-04 3.18620E-17
 -1      1189 5.53831E-04 3.42163E-04 2.30800E-17
 -1      1190 8.34421E-04 4.61204E-04-8.62076E-17
 -1      1191 1.10398E-03 5.42422E-04-3.10122E-16
 -1      1192 1.36940E-03 5.99683E-04-6.50440E-16
 -1      1193 1.63427E-03 6.40501E-04-1.10834E-15
 -1      1194 1.90039E-03 6.69446E-04-1.68478E-15
 -1      1195 2.16858E-03 6.89634E-04-2.37511E-15
 -1      1196 2.43914E-03 7.03342E-04-3.17851E-15
 -1      1197 2.71207E-03 7.12286E-04-4.09292E-15
 -1      1198 2.98719E-03 7.17766E-04-5.12002E-15
 -1      1199 3.26428E-03 7.20751E-04-6.25387E-15
 -1      1200 3.54305E-03 7.21956E-04-7.49223E-15
 -1      1201 3.82324E-03 7.21891E-04-8.83588E-15
 -1      1202 4.10461E-03 7.20905E-04-1.02813E-14
 -1      1203 4.38695E-03 7.19218E-04-1.18293E-14
 -1      1204 4.67011E-03 7.16954E-04-1.34739E-14
 -1      1205 4.95399E-03 7.14160E-04-1.52085E-14
 -1      1206 5.23857E-03 7.10827E-04-1.70291E-14
 -1      1207 5.52387E-03 7.06911E-04-1.89371E-14
 -1      1208 5.81004E-03 7.02351E-04-2.09257E-14
 -1      1209 6.09730E-03 6.97091E-04-2.29860E-14
 -1      1210 6.38600E-03 6.91108E-04-2.51189E-14
 -1      1211 6.67663E-03 6.84449E-04-2.73209E-14
 -1      1212 6.96982E-03 6.77278E-04-2.95839E-14
 -1      1213 7.26638E-03 6.69944E-04-3.19067E-14
 -1      1214 7.56732E-03 6.63064E-04-3.42881E-14
 -1      1215 7.87377E-03 6.57643E-04-3.67333E-14
 -1      1216 8.18700E-03 6.55208E-04-3.92400E-14
 -1      1217 8.50821E-03 6.57961E-04-4.17973E-14
 -1      1218 8.83833E-03 6.68916E-04-4.44005E-14
 -1      1219 9.17759E-03 6.91924E-04-4.70453E-14
 -1      1220 9.52491E-03 7.31432E-04-4.97251E-14
 -1      1221 9.87716E-03 7.91704E-04-5.24393E-14
 -1      1222 1.02285E-02 8.75200E-04-5.52009E-14
 -1      1223 1.05705E-02 9.80020E-04-5.80241E-14
 -1      1224 1.08934E-02 1.09706E-03-6.09077E-14
 -1      1225 1.11896E-02 1.20872E-03-6.38484E-14
 -1      1226 1.14584E-02 1.29178E-03-6.68353E-14
 -1      1227 1.17079E-02 1.32521E-03-6.98679E-14
 -1      1228 1.19537E-02 1.29958E-03-7.29258E-14
 -1      1229 1.22115E-02 1.22160E-03-7.59881E-14
 -1      1230 1.24902E-02 1.11017E-03-7.90524E-14
 -1      1231 1.27893E-02 9.86878E-04-8.21321E-14
 -1      1232 1.31014E-02 8.67691E-04-8.52343E-14
 -1      1233 1.34168E-02 7.59515E-04-8.83703E-14
 -1      1234 1.37272E-02 6.61228E-04-9.15370E-14
 -1      1235 1.40281E-02 5.66772E-04-9.47215E-14
 -1      1236 1.43192E-02 4.68769E-04-9.79174E-14
 -1      1237 1.45977E-02 3.65766E-04-1.01052E-13
 -1      1238 1.47871E-02 2.71369E-04-1.02704E-13
 -1      1239 1.48991E-02 1.87230E-04-1.02964E-13
 -1      1240 1.50196E-02 1.09188E-04-1.03218E-13
 -1      1241 1.51466E-02 4.32398E-05-1.03445E-13
 -1      1242 1.52737E-02-5.69143E-06-1.03663E-13
 -1      1243 1.53905E-02-3.42715E-05-1.03870E-13
 -1      1244 1.54870E-02-4.26156E-05-1.04080E-13
 -1      1245 1.55522E-02-3.39043E-05-1.04302E-13
 -1      1246 1.55764E-02-1.51985E-05-1.04562E-13
 -1      1247 1.55561E-02 3.78222E-06-1.04841E-13
 -1      1248 1.54945E-02 1.32364E-05-1.05112E-13
 -1      1249 1.54010E-02 5.87411E-06-1.05385E-13
 -1      1250 1.52865E-02-2.17253E-05-1.05658E-13
 -1      1251 1.51613E-02-6.98858E-05-1.05905E-13
 -1      1252 1.50360E-02-1.35464E-04-1.06123E-13
 -1      1253 1.49173E-02-2.13327E-04-1.06314E-13
 -1      1254 1.48081E-02-2.96672E-04-1.06495E-13
 -1      1255 1.40787E-02 7.16010E-05-7.88593E-14
 -1      1256 1.39674E-02 2.27722E-04-7.85035E-14
 -1      1257 1.37644E-02 3.80858E-04-7.78971E-14
 -1      1258 1.34763E-02 5.37044E-04-7.70281E-14
 -1      1259 1.31277E-02 6.84226E-04-7.59483E-14
 -1      1260 1.27460E-02 8.07460E-04-7.47334E-14
 -1      1261 1.23363E-02 8.96499E-04-7.33963E-14
 -1      1262 1.19002E-02 9.39133E-04-7.19573E-14
 -1      1263 1.14651E-02 9.25585E-04-7.05267E-14
 -1      1264 1.10524E-02 8.59889E-04-6.91975E-14
 -1      1265 1.06470E-02 7.48248E-04-6.79463E-14
 -1      1266 1.02641E-02 6.04907E-04-6.68418E-14
 -1      1267 9.94803E-03 4.52534E-04-6.60001E-14
 -1      1268 9.70608E-03 2.99667E-04-6.54062E-14
 -1      1269 9.54960E-03 1.49677E-04-6.50685E-14
 -1      1270 9.49292E-03 2.59730E-06-6.50020E-14
 -1      1271 9.54638E-03-1.52856E-04-6.52395E-14
 -1      1272 9.71690E-03-3.16662E-04-6.57986E-14
 -1      1273 9.99026E-03-4.85009E-04-6.66461E-14
 -1      1274 1.03355E-02-6.45932E-04-6.77138E-14
 -1      1275 1.07335E-02-7.88469E-04-6.89785E-14
 -1      1276 1.11703E-02-8.96376E-04-7.04031E-14
 -1      1277 1.16326E-02-9.51233E-04-7.19241E-14
 -1      1278 1.20980E-02-9.42935E-04-7.34441E-14
 -1      1279 1.25477E-02-8.73217E-04-7.48580E-14
 -1      1280 1.29972E-02-7.48064E-04-7.61953E-14
 -1      1281 1.34020E-02-5.89988E-04-7.73161E-14
 -1      1282 1.37291E-02-4.21193E-04-7.81478E-14
 -1      1283 1.39594E-02-2.53834E-04-7.86850E-14
 -1      1284 1.40785E-02-9.11770E-05-7.89242E-14
 -1      1285 1.66705E-04-1.10346E-04-1.13706E-17
 -1      1286 1.12543E-04-5.69783E-05-3.17807E-17
 -1      1287 1.17626E-04-6.75863E-05-2.60344E-17
 -1      1288 1.08423E-04-4.34946E-05-4.09693E-17
 -1      1289 1.10287E-04-4.96094E-05-3.83401E-17
 -1      1290 2.26335E-04-1.07633E-04-9.03683E-17
 -1      1291 1.06841E-04-3.36170E-05-4.56043E-17
 -1      1292 1.07687E-04-3.83387E-05-4.43981E-17
 -1      1293 2.19105E-04-8.24668E-05-1.06442E-16
 -1      1294 1.06062E-04-2.53558E-05-4.80979E-17
 -1      1295 1.06493E-04-2.93890E-05-4.75694E-17
 -1      1296 2.15868E-04-6.32873E-05-1.15075E-16
 -1      1297 1.05658E-04-1.80954E-05-4.89924E-17
 -1      1298 1.05888E-04-2.16632E-05-4.88298E-17
 -1      1299 2.14207E-04-4.71959E-05-1.19222E-16
 -1      1300 1.05438E-04-1.12424E-05-4.92228E-17
 -1      1301 1.05561E-04-1.46280E-05-4.93176E-17
 -1      1302 2.13291E-04-3.27610E-05-1.20821E-16
 -1      1303 1.05338E-04-4.69070E-06-4.88162E-17
 -1      1304 1.05391E-04-7.94487E-06-4.90059E-17
 -1      1305 2.12795E-04-1.91956E-05-1.20807E-16
 -1      1306 1.05327E-04 1.74330E-06-4.80302E-17
 -1      1307 1.05325E-04-1.47104E-06-4.83148E-17
 -1      1308 2.12581E-04-6.16242E-06-1.19560E-16
 -1      1309 1.05399E-04 8.22685E-06-4.67562E-17
 -1      1310 1.05342E-04 4.96619E-06-4.70408E-17
 -1      1311 2.12589E-04 6.71007E-06-1.17216E-16
 -1      1312 1.05577E-04 1.49356E-05-4.49808E-17
 -1      1313 1.05449E-04 1.15350E-05-4.55229E-17
 -1      1314 2.12820E-04 1.97691E-05-1.13773E-16
 -1      1315 1.05911E-04 2.19557E-05-4.21755E-17
 -1      1316 1.05675E-04 1.83639E-05-4.30157E-17
 -1      1317 2.13332E-04 3.32742E-05-1.08732E-16
 -1      1318 1.06535E-04 2.98233E-05-3.82588E-17
 -1      1319 1.06096E-04 2.57460E-05-3.95869E-17
 -1      1320 2.14274E-04 4.78042E-05-1.01522E-16
 -1      1321 1.07726E-04 3.89225E-05-3.24448E-17
 -1      1322 1.06875E-04 3.41287E-05-3.46538E-17
 -1      1323 2.15979E-04 6.42186E-05-9.14660E-17
 -1      1324 1.10266E-04 5.03492E-05-2.34865E-17
 -1      1325 1.08428E-04 4.41656E-05-2.73219E-17
 -1      1326 2.19207E-04 8.37170E-05-7.68022E-17
 -1      1327 1.16941E-04 6.76218E-05-9.14796E-18
 -1      1328 1.12190E-04 5.77774E-05-1.60733E-17
 -1      1329 2.26322E-04 1.09452E-04-5.50639E-17
 -1      1330 1.57585E-04 1.09863E-04 1.29427E-17
 -1      1331 1.35666E-04 8.60937E-05-6.09864E-19
 -1      1332 2.56046E-04 1.52099E-04-2.90295E-17
 -1      1333 3.35097E-04 2.20746E-04 7.83336E-18
 -1      1334 4.21554E-04-2.61750E-04-7.05274E-17
 -1      1335 5.74656E-04-3.36814E-04-1.36027E-16
 -1      1336 7.21850E-04-3.97423E-04-2.38877E-16
 -1      1337 8.65022E-04-4.46725E-04-3.75690E-16
 -1      1338 6.12090E-04-3.30910E-04-2.20744E-16
 -1      1339 1.00505E-03-4.87806E-04-5.44744E-16
 -1      1340 1.14290E-03-5.21803E-04-7.46853E-16
 -1      1341 9.05331E-04-4.31622E-04-5.01769E-16
 -1      1342 1.27939E-03-5.50586E-04-9.81000E-16
 -1      1343 1.41504E-03-5.74632E-04-1.24716E-15
 -1      1344 1.18777E-03-5.01062E-04-9.11191E-16
 -1      1345 1.55029E-03-5.95007E-04-1.54365E-15
 -1      1346 1.68538E-03-6.12043E-04-1.87061E-15
 -1      1347 1.46470E-03-5.49854E-04-1.44558E-15
 -1      1348 1.82056E-03-6.26370E-04-2.22806E-15
 -1      1349 1.95595E-03-6.38279E-04-2.61546E-15
 -1      1350 1.73938E-03-5.84177E-04-2.10189E-15
 -1      1351 2.09166E-03-6.48172E-04-3.03204E-15
 -1      1352 2.22773E-03-6.56300E-04-3.47804E-15
 -1      1353 2.01369E-03-6.08011E-04-2.87712E-15
 -1      1354 2.36423E-03-6.62936E-04-3.95265E-15
 -1      1355 2.50116E-03-6.68284E-04-4.45565E-15
 -1      1356 2.28859E-03-6.24169E-04-3.76871E-15
 -1      1357 2.63853E-03-6.72540E-04-4.98798E-15
 -1      1358 2.77634E-03-6.75866E-04-5.54788E-15
 -1      1359 2.56457E-03-6.34717E-04-4.77389E-15
 -1      1360 2.91458E-03-6.78401E-04-6.13413E-15
 -1      1361 3.05322E-03-6.80272E-04-6.74763E-15
 -1      1362 2.84181E-03-6.41204E-04-5.88982E-15
 -1      1363 3.19226E-03-6.81576E-04-7.38697E-15
 -1      1364 3.33167E-03-6.82411E-04-8.05129E-15
 -1      1365 3.12034E-03-6.44781E-04-7.11269E-15
 -1      1366 3.47142E-03-6.82843E-04-8.74177E-15
 -1      1367 3.61149E-03-6.82944E-04-9.45808E-15
 -1      1368 3.40008E-03-6.46298E-04-8.43868E-15
 -1      1369 3.75185E-03-6.82757E-04-1.01991E-14
 -1      1370 3.89248E-03-6.82336E-04-1.09643E-14
 -1      1371 3.68092E-03-6.46363E-04-9.86638E-15
 -1      1372 4.03337E-03-6.81703E-04-1.17521E-14
 -1      1373 4.17448E-03-6.80897E-04-1.25622E-14
 -1      1374 3.96272E-03-6.45400E-04-1.13907E-14
 -1      1375 4.31581E-03-6.79926E-04-1.33942E-14
 -1      1376 4.45734E-03-6.78816E-04-1.42468E-14
 -1      1377 4.24536E-03-6.43681E-04-1.30061E-14
 -1      1378 4.59905E-03-6.77565E-04-1.51213E-14
 -1      1379 4.74094E-03-6.76188E-04-1.60177E-14
 -1      1380 4.52873E-03-6.41365E-04-1.47088E-14
 -1      1381 4.88300E-03-6.74676E-04-1.69338E-14
 -1      1382 5.02523E-03-6.73036E-04-1.78707E-14
 -1      1383 4.81278E-03-6.38523E-04-1.64954E-14
 -1      1384 5.16763E-03-6.71254E-04-1.88280E-14
 -1      1385 5.31021E-03-6.69333E-04-1.98053E-14
 -1      1386 5.09747E-03-6.35155E-04-1.83652E-14
 -1      1387 5.45298E-03-6.67253E-04-2.08021E-14
 -1      1388 5.59595E-03-6.65018E-04-2.18195E-14
 -1      1389 5.38283E-03-6.31216E-04-2.03153E-14
 -1      1390 5.73916E-03-6.62602E-04-2.28567E-14
 -1      1391 5.88261E-03-6.60014E-04-2.39147E-14
 -1      1392 5.66895E-03-6.26631E-04-2.23445E-14
 -1      1393 6.02635E-03-6.57228E-04-2.49911E-14
 -1      1394 6.17042E-03-6.54256E-04-2.60852E-14
 -1      1395 5.95599E-03-6.21313E-04-2.44534E-14
 -1      1396 6.31486E-03-6.51078E-04-2.71999E-14
 -1      1397 6.45973E-03-6.47718E-04-2.83321E-14
 -1      1398 6.24419E-03-6.15191E-04-2.66401E-14
 -1      1399 6.60509E-03-6.44160E-04-2.94818E-14
 -1      1400 6.75102E-03-6.40448E-04-3.06501E-14
 -1      1401 6.53390E-03-6.08239E-04-2.88996E-14
 -1      1402 6.89759E-03-6.36580E-04-3.18348E-14
 -1      1403 7.04490E-03-6.32626E-04-3.30366E-14
 -1      1404 6.82554E-03-6.00516E-04-3.12294E-14
 -1      1405 7.19305E-03-6.28607E-04-3.42547E-14
 -1      1406 7.34213E-03-6.24631E-04-3.54848E-14
 -1      1407 7.11969E-03-5.92228E-04-3.36268E-14
 -1      1408 7.49228E-03-6.20758E-04-3.67312E-14
 -1      1409 7.64361E-03-6.17143E-04-3.79917E-14
 -1      1410 7.41703E-03-5.83801E-04-3.60849E-14
 -1      1411 7.79626E-03-6.13905E-04-3.92630E-14
 -1      1412 7.95035E-03-6.11264E-04-4.05485E-14
 -1      1413 7.71833E-03-5.75991E-04-3.85978E-14
 -1      1414 8.10603E-03-6.09422E-04-4.18447E-14
 -1      1415 8.26341E-03-6.08676E-04-4.31546E-14
 -1      1416 8.02446E-03-5.70019E-04-4.11606E-14
 -1      1417 8.42262E-03-6.09345E-04-4.44750E-14
 -1      1418 8.58374E-03-6.11812E-04-4.58046E-14
 -1      1419 8.33628E-03-5.67739E-04-4.37716E-14
 -1      1420 8.74685E-03-6.16544E-04-4.71454E-14
 -1      1421 8.91196E-03-6.24004E-04-4.84960E-14
 -1      1422 8.65452E-03-5.71820E-04-4.64273E-14
 -1      1423 9.07904E-03-6.34824E-04-4.98559E-14
 -1      1424 9.24797E-03-6.49506E-04-5.12229E-14
 -1      1425 8.97962E-03-5.85884E-04-4.91225E-14
 -1      1426 9.41856E-03-6.68809E-04-5.25976E-14
 -1      1427 9.59049E-03-6.93186E-04-5.39805E-14
 -1      1428 9.31138E-03-6.14492E-04-5.18539E-14
 -1      1429 9.76333E-03-7.23374E-04-5.53703E-14
 -1      1430 9.93649E-03-7.59592E-04-5.67663E-14
 -1      1431 9.64864E-03-6.62727E-04-5.46161E-14
 -1      1432 1.01093E-02-8.02242E-04-5.81661E-14
 -1      1433 1.02809E-02-8.51017E-04-5.95701E-14
 -1      1434 9.98891E-03-7.35057E-04-5.74025E-14
 -1      1435 1.04504E-02-9.05507E-04-6.09807E-14
 -1      1436 1.06168E-02-9.64509E-04-6.23953E-14
 -1      1437 1.03281E-02-8.33096E-04-6.02092E-14
 -1      1438 1.07793E-02-1.02634E-03-6.38171E-14
 -1      1439 1.09371E-02-1.08872E-03-6.52453E-14
 -1      1440 1.06608E-02-9.52311E-04-6.30405E-14
 -1      1441 1.10898E-02-1.14864E-03-6.66766E-14
 -1      1442 1.12371E-02-1.20299E-03-6.81144E-14
 -1      1443 1.09814E-02-1.07891E-03-6.58925E-14
 -1      1444 1.13793E-02-1.24825E-03-6.95570E-14
 -1      1445 1.15174E-02-1.28162E-03-7.10047E-14
 -1      1446 1.12863E-02-1.18968E-03-6.87684E-14
 -1      1447 1.16523E-02-1.30054E-03-7.24635E-14
 -1      1448 1.17857E-02-1.30372E-03-7.39308E-14
 -1      1449 1.15770E-02-1.25791E-03-7.16722E-14
 -1      1450 1.19191E-02-1.29102E-03-7.54083E-14
 -1      1451 1.20539E-02-1.26330E-03-7.68983E-14
 -1      1452 1.18601E-02-1.26467E-03-7.46108E-14
 -1      1453 1.21914E-02-1.22280E-03-7.84062E-14
 -1      1454 1.23325E-02-1.17203E-03-7.99291E-14
 -1      1455 1.21453E-02-1.20841E-03-7.76003E-14
 -1      1456 1.24775E-02-1.11435E-03-8.14654E-14
 -1      1457 1.26263E-02-1.05259E-03-8.30170E-14
 -1      1458 1.24397E-02-1.10548E-03-8.06452E-14
 -1      1459 1.27784E-02-9.89621E-04-8.45790E-14
 -1      1460 1.29331E-02-9.27515E-04-8.61512E-14
 -1      1461 1.27450E-02-9.80714E-04-8.37427E-14
 -1      1462 1.30896E-02-8.67763E-04-8.77361E-14
 -1      1463 1.32468E-02-8.11284E-04-8.93350E-14
 -1      1464 1.30578E-02-8.55872E-04-8.68876E-14
 -1      1465 1.34040E-02-7.58160E-04-9.09444E-14
 -1      1466 1.35603E-02-7.08331E-04-9.25599E-14
 -1      1467 1.33728E-02-7.42976E-04-9.00779E-14
 -1      1468 1.37151E-02-6.60920E-04-9.41888E-14
 -1      1469 1.38680E-02-6.15270E-04-9.58268E-14
 -1      1470 1.36847E-02-6.43918E-04-9.33114E-14
 -1      1471 1.40188E-02-5.70095E-04-9.74726E-14
 -1      1472 1.41674E-02-5.24514E-04-9.91238E-14
 -1      1473 1.39900E-02-5.53525E-04-9.65804E-14
 -1      1474 1.43139E-02-4.77393E-04-1.00786E-13
 -1      1475 1.44588E-02-4.28048E-04-1.02461E-13
 -1      1476 1.42876E-02-4.63393E-04-9.98856E-14
 -1      1477 1.46723E-02-3.48130E-04-1.04889E-13
 -1      1478 1.46482E-02-3.38064E-04-1.03974E-13
 -1      1479 6.43102E-04 3.72032E-04-5.38171E-17
 -1      1480 4.92970E-04 3.03703E-04-8.75493E-18
 -1      1481 4.44897E-04 2.65906E-04-3.60362E-17
 -1      1482 9.28696E-04 4.72010E-04-2.27777E-16
 -1      1483 7.87828E-04 4.26512E-04-1.26770E-16
 -1      1484 7.44766E-04 3.90739E-04-1.61085E-16
 -1      1485 1.20359E-03 5.41446E-04-5.14427E-16
 -1      1486 1.06692E-03 5.09758E-04-3.56621E-16
 -1      1487 1.03082E-03 4.76195E-04-3.97143E-16
 -1      1488 1.47414E-03 5.90661E-04-9.16828E-16
 -1      1489 1.33909E-03 5.68193E-04-7.01140E-16
 -1      1490 1.30874E-03 5.36036E-04-7.46067E-16
 -1      1491 1.74367E-03 6.25574E-04-1.43597E-15
 -1      1492 1.60886E-03 6.09665E-04-1.16157E-15
 -1      1493 1.58296E-03 5.78343E-04-1.20933E-15
 -1      1494 2.01387E-03 6.50052E-04-2.07061E-15
 -1      1495 1.87860E-03 6.38946E-04-1.73882E-15
 -1      1496 1.85612E-03 6.08088E-04-1.78797E-15
 -1      1497 2.28553E-03 6.66839E-04-2.81832E-15
 -1      1498 2.14948E-03 6.59276E-04-2.43058E-15
 -1      1499 2.12962E-03 6.28654E-04-2.48060E-15
 -1      1500 2.55898E-03 6.77972E-04-3.67768E-15
 -1      1501 2.42202E-03 6.73012E-04-3.23408E-15
 -1      1502 2.40416E-03 6.42485E-04-3.28498E-15
 -1      1503 2.83427E-03 6.84987E-04-4.64768E-15
 -1      1504 2.69640E-03 6.81918E-04-4.14934E-15
 -1      1505 2.68005E-03 6.51404E-04-4.19993E-15
 -1      1506 3.11130E-03 6.89032E-04-5.72826E-15
 -1      1507 2.97258E-03 6.87323E-04-5.17441E-15
 -1      1508 2.95736E-03 6.56774E-04-5.22446E-15
 -1      1509 3.38990E-03 6.90962E-04-6.91247E-15
 -1      1510 3.25042E-03 6.90220E-04-6.30695E-15
 -1      1511 3.23604E-03 6.59610E-04-6.35558E-15
 -1      1512 3.66987E-03 6.91391E-04-8.20227E-15
 -1      1513 3.52973E-03 6.91334E-04-7.54430E-15
 -1      1514 3.51597E-03 6.60655E-04-7.59169E-15
 -1      1515 3.95101E-03 6.90750E-04-9.59518E-15
 -1      1516 3.81031E-03 6.91184E-04-8.88645E-15
 -1      1517 3.79701E-03 6.60435E-04-8.93190E-15
 -1      1518 4.23313E-03 6.89322E-04-1.10884E-14
 -1      1519 4.09196E-03 6.90121E-04-1.03290E-14
 -1      1520 4.07901E-03 6.59308E-04-1.03727E-14
 -1      1521 4.51610E-03 6.87276E-04-1.26811E-14
 -1      1522 4.37452E-03 6.88369E-04-1.18724E-14
 -1      1523 4.36184E-03 6.57498E-04-1.19123E-14
 -1      1524 4.79981E-03 6.84692E-04-1.43674E-14
 -1      1525 4.65787E-03 6.86048E-04-1.35128E-14
 -1      1526 4.64540E-03 6.55126E-04-1.35484E-14
 -1      1527 5.08420E-03 6.81583E-04-1.61419E-14
 -1      1528 4.94192E-03 6.83203E-04-1.52439E-14
 -1      1529 4.92962E-03 6.52233E-04-1.52757E-14
 -1      1530 5.36929E-03 6.77914E-04-1.80010E-14
 -1      1531 5.22666E-03 6.79819E-04-1.70611E-14
 -1      1532 5.21452E-03 6.48803E-04-1.70895E-14
 -1      1533 5.65518E-03 6.73622E-04-1.99470E-14
 -1      1534 5.51213E-03 6.75846E-04-1.89638E-14
 -1      1535 5.50012E-03 6.44778E-04-1.89877E-14
 -1      1536 5.94201E-03 6.68635E-04-2.19670E-14
 -1      1537 5.79846E-03 6.71214E-04-2.09475E-14
 -1      1538 5.78655E-03 6.40079E-04-2.09669E-14
 -1      1539 6.23007E-03 6.62896E-04-2.40613E-14
 -1      1540 6.08587E-03 6.65854E-04-2.30058E-14
 -1      1541 6.07402E-03 6.34630E-04-2.30218E-14
 -1      1542 6.51973E-03 6.56396E-04-2.62256E-14
 -1      1543 6.37468E-03 6.59728E-04-2.51347E-14
 -1      1544 6.36280E-03 6.28377E-04-2.51487E-14
 -1      1545 6.81149E-03 6.49212E-04-2.84553E-14
 -1      1546 6.66532E-03 6.52865E-04-2.73326E-14
 -1      1547 6.65329E-03 6.21333E-04-2.73421E-14
 -1      1548 7.10601E-03 6.41565E-04-3.07461E-14
 -1      1549 6.95837E-03 6.45406E-04-2.95934E-14
 -1      1550 6.94600E-03 6.13617E-04-2.95996E-14
 -1      1551 7.40409E-03 6.33895E-04-3.30965E-14
 -1      1552 7.25455E-03 6.37671E-04-3.19137E-14
 -1      1553 7.24156E-03 6.05524E-04-3.19190E-14
 -1      1554 7.70664E-03 6.26964E-04-3.55086E-14
 -1      1555 7.55474E-03 6.30247E-04-3.42951E-14
 -1      1556 7.54074E-03 5.97612E-04-3.42984E-14
 -1      1557 8.01472E-03 6.21983E-04-3.79806E-14
 -1      1558 7.85992E-03 6.24104E-04-3.67366E-14
 -1      1559 7.84437E-03 5.90819E-04-3.67379E-14
 -1      1560 8.32936E-03 6.20767E-04-4.05105E-14
 -1      1561 8.17115E-03 6.20737E-04-3.92390E-14
 -1      1562 8.15335E-03 5.86606E-04-3.92368E-14
 -1      1563 8.65146E-03 6.25894E-04-4.30876E-14
 -1      1564 8.48942E-03 6.22327E-04-4.17936E-14
 -1      1565 8.46853E-03 5.87127E-04-4.17873E-14
 -1      1566 8.98149E-03 6.40824E-04-4.57082E-14
 -1      1567 8.81547E-03 6.31890E-04-4.43928E-14
 -1      1568 8.79053E-03 5.95391E-04-4.43846E-14
 -1      1569 9.31908E-03 6.69848E-04-4.83693E-14
 -1      1570 9.14938E-03 6.53327E-04-4.70344E-14
 -1      1571 9.11948E-03 6.15330E-04-4.70225E-14
 -1      1572 9.66251E-03 7.17663E-04-5.10652E-14
 -1      1573 9.49021E-03 6.91223E-04-4.97121E-14
 -1      1574 9.45466E-03 6.51631E-04-4.96983E-14
 -1      1575 1.00082E-02 7.88254E-04-5.38037E-14
 -1      1576 9.83536E-03 7.50104E-04-5.24285E-14
 -1      1577 9.79415E-03 7.09039E-04-5.24147E-14
 -1      1578 1.03504E-02 8.82791E-04-5.65941E-14
 -1      1579 1.01802E-02 8.32852E-04-5.51919E-14
 -1      1580 1.01344E-02 7.90811E-04-5.51790E-14
 -1      1581 1.06821E-02 9.96643E-04-5.94462E-14
 -1      1582 1.05181E-02 9.38097E-04-5.80137E-14
 -1      1583 1.04703E-02 8.96088E-04-5.79995E-14
 -1      1584 1.09961E-02 1.11670E-03-6.23533E-14
 -1      1585 1.08417E-02 1.05717E-03-6.08919E-14
 -1      1586 1.07960E-02 1.01669E-03-6.08751E-14
 -1      1587 1.12888E-02 1.22146E-03-6.53077E-14
 -1      1588 1.11451E-02 1.17249E-03-6.38253E-14
 -1      1589 1.11064E-02 1.13515E-03-6.38015E-14
 -1      1590 1.15625E-02 1.28637E-03-6.83126E-14
 -1      1591 1.14276E-02 1.26006E-03-6.68053E-14
 -1      1592 1.14002E-02 1.22690E-03-6.67728E-14
 -1      1593 1.18264E-02 1.29375E-03-7.13510E-14
 -1      1594 1.16949E-02 1.29754E-03-6.98279E-14
 -1      1595 1.16816E-02 1.26830E-03-6.97881E-14
 -1      1596 1.20926E-02 1.24130E-03-7.44081E-14
 -1      1597 1.19584E-02 1.27424E-03-7.28778E-14
 -1      1598 1.19592E-02 1.24746E-03-7.28324E-14
 -1      1599 1.23710E-02 1.14306E-03-7.74722E-14
 -1      1600 1.22298E-02 1.19650E-03-7.59405E-14
 -1      1601 1.22424E-02 1.17027E-03-7.58927E-14
 -1      1602 1.26650E-02 1.02151E-03-8.05470E-14
 -1      1603 1.25161E-02 1.08382E-03-7.90061E-14
 -1      1604 1.25367E-02 1.05674E-03-7.89618E-14
 -1      1605 1.29717E-02 8.97245E-04-8.36378E-14
 -1      1606 1.28172E-02 9.58837E-04-8.20911E-14
 -1      1607 1.28419E-02 9.30461E-04-8.20464E-14
 -1      1608 1.32844E-02 7.82449E-04-8.67566E-14
 -1      1609 1.31278E-02 8.38398E-04-8.51941E-14
 -1      1610 1.31537E-02 8.09042E-04-8.51521E-14
 -1      1611 1.35960E-02 6.79878E-04-8.99040E-14
 -1      1612 1.34408E-02 7.29837E-04-8.83268E-14
 -1      1613 1.34663E-02 7.00204E-04-8.82811E-14
 -1      1614 1.39014E-02 5.85356E-04-9.30777E-14
 -1      1615 1.37497E-02 6.32050E-04-9.14878E-14
 -1      1616 1.37748E-02 6.02887E-04-9.14392E-14
 -1      1617 1.41984E-02 4.91302E-04-9.62671E-14
 -1      1618 1.40510E-02 5.38730E-04-9.46698E-14
 -1      1619 1.40763E-02 5.10609E-04-9.46183E-14
 -1      1620 1.44882E-02 3.90583E-04-9.94700E-14
 -1      1621 1.43440E-02 4.42020E-04-9.78669E-14
 -1      1622 1.43704E-02 4.15178E-04-9.78150E-14
 -1      1623 1.46513E-02 3.23759E-04-1.01178E-13
 -1      1624 1.48051E-02 2.17101E-04-1.01635E-13
 -1      1625 1.47467E-02 2.57003E-04-1.01506E-13
 -1      1626 1.49290E-02 1.43277E-04-1.01876E-13
 -1      1627 1.48660E-02 1.79020E-04-1.01759E-13
 -1      1628 1.47122E-02 2.44990E-04-1.00301E-13
 -1      1629 1.50588E-02 8.07761E-05-1.02107E-13
 -1      1630 1.49935E-02 1.10375E-04-1.01992E-13
 -1      1631 1.48394E-02 1.73006E-04-1.00541E-13
 -1      1632 1.51869E-02 3.29723E-05-1.02324E-13
 -1      1633 1.51236E-02 5.48729E-05-1.02219E-13
 -1      1634 1.49714E-02 1.11260E-04-1.00771E-13
 -1      1635 1.53014E-02 2.12683E-06-1.02541E-13
 -1      1636 1.52463E-02 1.55169E-05-1.02431E-13
 -1      1637 1.50988E-02 6.25270E-05-1.00993E-13
 -1      1638 1.53942E-02-1.33835E-05-1.02757E-13
 -1      1639 1.53515E-02-7.48180E-06-1.02649E-13
 -1      1640 1.52118E-02 2.73622E-05-1.01212E-13
 -1      1641 1.54513E-02-1.64725E-05-1.02989E-13
 -1      1642 1.54278E-02-1.61445E-05-1.02869E-13
 -1      1643 1.52985E-02 4.67953E-06-1.01437E-13
 -1      1644 1.54648E-02-1.35015E-05-1.03246E-13
 -1      1645 1.54638E-02-1.52756E-05-1.03116E-13
 -1      1646 1.53465E-02-8.72402E-06-1.01673E-13
 -1      1647 1.54327E-02-1.23172E-05-1.03511E-13
 -1      1648 1.54543E-02-1.21973E-05-1.03380E-13
 -1      1649 1.53485E-02-1.86151E-05-1.01926E-13
 -1      1650 1.53600E-02-2.03313E-05-1.03772E-13
 -1      1651 1.54009E-02-1.47854E-05-1.03642E-13
 -1      1652 1.53045E-02-3.16678E-05-1.02177E-13
 -1      1653 1.52585E-02-4.22747E-05-1.04029E-13
 -1      1654 1.53122E-02-2.93568E-05-1.03902E-13
 -1      1655 1.52219E-02-5.35161E-05-1.02425E-13
 -1      1656 1.51370E-02-8.11235E-05-1.04282E-13
 -1      1657 1.51993E-02-5.95948E-05-1.04159E-13
 -1      1658 1.51118E-02-8.78734E-05-1.02670E-13
 -1      1659 1.50087E-02-1.36036E-04-1.04511E-13
 -1      1660 1.50731E-02-1.06697E-04-1.04400E-13
 -1      1661 1.49854E-02-1.36330E-04-1.02902E-13
 -1      1662 1.48828E-02-2.04292E-04-1.04717E-13
 -1      1663 1.49450E-02-1.68731E-04-1.04618E-13
 -1      1664 1.48551E-02-1.97607E-04-1.03116E-13
 -1      1665 1.47349E-02-2.89937E-04-1.04394E-13
 -1      1666 1.47929E-02-2.50453E-04-1.04301E-13
 -1      1667 1.46999E-02-2.76615E-04-1.02803E-13
 -1      1668 1.45208E-02-3.68511E-04-1.01972E-13
 -1      1669 1.40739E-02 6.78444E-05-7.94749E-14
 -1      1670 1.41082E-02 1.95016E-05-7.95907E-14
 -1      1671 1.39123E-02 1.88946E-04-7.89365E-14
 -1      1672 1.39999E-02 1.33645E-04-7.91785E-14
 -1      1673 1.36521E-02 3.28745E-04-7.82093E-14
 -1      1674 1.37836E-02 2.60800E-04-7.85780E-14
 -1      1675 1.33118E-02 4.97425E-04-7.71957E-14
 -1      1676 1.34781E-02 4.16126E-04-7.76985E-14
 -1      1677 1.29394E-02 6.71852E-04-7.59918E-14
 -1      1678 1.31124E-02 5.91950E-04-7.65646E-14
 -1      1679 1.25608E-02 8.28663E-04-7.46436E-14
 -1      1680 1.27358E-02 7.59510E-04-7.52816E-14
 -1      1681 1.21779E-02 9.43910E-04-7.31732E-14
 -1      1682 1.23513E-02 8.97374E-04-7.38680E-14
 -1      1683 1.17923E-02 9.90090E-04-7.15816E-14
 -1      1684 1.19708E-02 9.78945E-04-7.23206E-14
 -1      1685 1.14176E-02 9.50456E-04-7.00625E-14
 -1      1686 1.15876E-02 9.77611E-04-7.07457E-14
 -1      1687 1.10467E-02 8.43271E-04-6.86549E-14
 -1      1688 1.12180E-02 9.00553E-04-6.92901E-14
 -1      1689 1.06777E-02 6.73827E-04-6.72335E-14
 -1      1690 1.08575E-02 7.57124E-04-6.78346E-14
 -1      1691 1.02732E-02 4.94967E-04-6.61625E-14
 -1      1692 1.04485E-02 5.80866E-04-6.66546E-14
 -1      1693 9.94082E-03 3.34663E-04-6.53569E-14
 -1      1694 1.00826E-02 4.06384E-04-6.57030E-14
 -1      1695 9.68024E-03 1.85350E-04-6.47000E-14
 -1      1696 9.79422E-03 2.46949E-04-6.49387E-14
 -1      1697 9.51822E-03 7.90914E-05-6.44814E-14
 -1      1698 9.57700E-03 1.27822E-04-6.45790E-14
 -1      1699 9.47809E-03-2.29846E-05-6.44860E-14
 -1      1700 9.48091E-03 2.37856E-05-6.44465E-14
 -1      1701 9.57581E-03-1.32297E-04-6.47897E-14
 -1      1702 9.51207E-03-7.92747E-05-6.45885E-14
 -1      1703 9.81156E-03-2.65594E-04-6.54360E-14
 -1      1704 9.68818E-03-1.99021E-04-6.50839E-14
 -1      1705 1.01451E-02-4.41542E-04-6.64585E-14
 -1      1706 9.98037E-03-3.58583E-04-6.59689E-14
 -1      1707 1.05202E-02-6.30773E-04-6.76787E-14
 -1      1708 1.03428E-02-5.45144E-04-6.71091E-14
 -1      1709 1.09269E-02-8.10403E-04-6.91023E-14
 -1      1710 1.07355E-02-7.29299E-04-6.84162E-14
 -1      1711 1.13328E-02-9.44520E-04-7.06512E-14
 -1      1712 1.11472E-02-8.90419E-04-6.99286E-14
 -1      1713 1.17464E-02-1.00436E-03-7.23219E-14
 -1      1714 1.15556E-02-9.88511E-04-7.15353E-14
 -1      1715 1.21481E-02-9.65869E-04-7.39271E-14
 -1      1716 1.19654E-02-9.93970E-04-7.32058E-14
 -1      1717 1.25581E-02-8.46972E-04-7.54393E-14
 -1      1718 1.23665E-02-9.11395E-04-7.47547E-14
 -1      1719 1.29924E-02-6.61582E-04-7.68935E-14
 -1      1720 1.27865E-02-7.53537E-04-7.62481E-14
 -1      1721 1.34046E-02-4.71539E-04-7.80098E-14
 -1      1722 1.32246E-02-5.58692E-04-7.75282E-14
 -1      1723 1.37541E-02-2.96073E-04-7.88517E-14
 -1      1724 1.36010E-02-3.74489E-04-7.84997E-14
 -1      1725 1.39939E-02-1.56480E-04-7.93601E-14
 -1      1726 1.38987E-02-2.15788E-04-7.91704E-14
 -1      1727 1.41079E-02-3.86818E-05-7.95865E-14
 -1      1728 1.40725E-02-8.97316E-05-7.95406E-14
 -1      1729 1.31531E-02 4.97472E-04-7.72608E-14
 -1      1730 1.35222E-02 3.15672E-04-7.84069E-14
 -1      1731 1.46788E-02 2.97816E-04-1.01126E-13
 -1      1732 1.45828E-02 3.23792E-04-9.97981E-14
 -1      1733 1.40409E-02 6.59838E-05-7.99428E-14
 -1      1734 1.38301E-02 1.72395E-04-7.92821E-14
 -1      1735 1.41194E-02-9.06366E-06-8.02425E-14
 -1      1736 1.27709E-02 6.92008E-04-7.59166E-14
 -1      1737 1.23975E-02 8.64948E-04-7.44278E-14
 -1      1738 1.20422E-02 9.83500E-04-7.27980E-14
 -1      1739 1.16998E-02 1.01086E-03-7.11084E-14
 -1      1740 1.13568E-02 9.41329E-04-6.95021E-14
 -1      1741 1.10080E-02 7.92298E-04-6.79129E-14
 -1      1742 1.06323E-02 5.93161E-04-6.65218E-14
 -1      1743 1.02333E-02 4.00703E-04-6.54888E-14
 -1      1744 9.89505E-03 2.32930E-04-6.46143E-14
 -1      1745 9.63704E-03 1.14948E-04-6.40785E-14
 -1      1746 9.49147E-03 3.40849E-05-6.39262E-14
 -1      1747 9.48692E-03-3.74475E-05-6.39955E-14
 -1      1748 9.63884E-03-1.22341E-04-6.43916E-14
 -1      1749 9.92775E-03-2.54765E-04-6.52166E-14
 -1      1750 1.02960E-02-4.42817E-04-6.63990E-14
 -1      1751 1.06936E-02-6.53889E-04-6.77840E-14
 -1      1752 1.10915E-02-8.49877E-04-6.93423E-14
 -1      1753 1.14767E-02-9.88228E-04-7.10490E-14
 -1      1754 1.18432E-02-1.02602E-03-7.28134E-14
 -1      1755 1.22156E-02-9.51992E-04-7.45253E-14
 -1      1756 1.26132E-02-7.86703E-04-7.61633E-14
 -1      1757 1.30409E-02-5.71825E-04-7.76133E-14
 -1      1758 1.34591E-02-3.66653E-04-7.87443E-14
 -1      1759 1.38050E-02-2.03955E-04-7.95585E-14
 -1      1760 1.40364E-02-8.91677E-05-8.00603E-14
 -1      1761 2.85250E-04-1.76237E-04-6.04985E-17
 -1      1762 3.32171E-04-1.16782E-04-1.67767E-16
 -1      1763 3.36323E-04-1.33029E-04-1.59337E-16
 -1      1764 3.42216E-04-1.52016E-04-1.48847E-16
 -1      1765 3.51771E-04-1.74018E-04-1.33492E-16
 -1      1766 4.58334E-04-1.88100E-04-2.31518E-16
 -1      1767 3.24554E-04-6.53882E-05-1.82851E-16
 -1      1768 3.25700E-04-7.66781E-05-1.80994E-16
 -1      1769 3.23070E-04-4.38938E-05-1.84640E-16
 -1      1770 3.23720E-04-5.43836E-05-1.84138E-16
 -1      1771 4.36498E-04-7.93022E-05-2.70373E-16
 -1      1772 3.22289E-04-2.37741E-05-1.84016E-16
 -1      1773 3.22619E-04-3.36883E-05-1.84613E-16
 -1      1774 4.34511E-04-5.13234E-05-2.71809E-16
 -1      1775 3.21996E-04-4.33789E-06-1.81726E-16
 -1      1776 3.22093E-04-1.39910E-05-1.83013E-16
 -1      1777 4.33494E-04-2.49266E-05-2.70264E-16
 -1      1778 3.22118E-04 1.49816E-05-1.77687E-16
 -1      1779 3.22004E-04 5.31844E-06-1.80018E-16
 -1      1780 4.33198E-04 7.56975E-07-2.66375E-16
 -1      1781 3.22682E-04 3.47317E-05-1.72076E-16
 -1      1782 3.22332E-04 2.47853E-05-1.75126E-16
 -1      1783 4.33552E-04 2.64689E-05-2.60059E-16
 -1      1784 3.23809E-04 5.51694E-05-1.63782E-16
 -1      1785 3.23147E-04 4.48067E-05-1.68471E-16
 -1      1786 4.34626E-04 5.27256E-05-2.51088E-16
 -1      1787 3.25864E-04 7.78206E-05-1.52398E-16
 -1      1788 3.24667E-04 6.62397E-05-1.58714E-16
 -1      1789 4.36677E-04 8.06056E-05-2.38524E-16
 -1      1790 3.29550E-04 1.03658E-04-1.36122E-16
 -1      1791 3.27403E-04 9.03082E-05-1.45256E-16
 -1      1792 4.40322E-04 1.11575E-04-2.21272E-16
 -1      1793 3.36582E-04 1.35115E-04-1.12323E-16
 -1      1794 3.32401E-04 1.18617E-04-1.25659E-16
 -1      1795 4.46789E-04 1.47344E-04-1.96661E-16
 -1      1796 3.52307E-04 1.77608E-04-7.71003E-17
 -1      1797 3.42812E-04 1.54763E-04-9.66837E-17
 -1      1798 4.59320E-04 1.91464E-04-1.61397E-16
 -1      1799 4.07709E-04 2.33692E-04-5.17571E-17
 -1      1800 3.78097E-04 2.02667E-04-6.81286E-17
 -1      1801 4.95864E-04 2.44003E-04-1.29156E-16
 -1      1802 5.58561E-04 3.02514E-04-1.02620E-16
 -1      1803 3.40031E-04-1.90916E-04-1.00492E-16
 -1      1804 8.53590E-04 4.07136E-04-2.87883E-16
 -1      1805 7.07182E-04 3.59390E-04-1.81645E-16
 -1      1806 6.73414E-04 3.28822E-04-1.98666E-16
 -1      1807 4.58964E-04-2.36726E-04-1.74313E-16
 -1      1808 8.07249E-04-3.74130E-04-4.55934E-16
 -1      1809 9.52519E-04-4.15319E-04-6.32280E-16
 -1      1810 1.09536E-03-4.50014E-04-8.39566E-16
 -1      1811 1.23703E-03-4.78915E-04-1.07831E-15
 -1      1812 1.00395E-03-3.97938E-04-7.67046E-16
 -1      1813 1.37744E-03-5.03405E-04-1.34716E-15
 -1      1814 1.51713E-03-5.23781E-04-1.64648E-15
 -1      1815 1.28963E-03-4.55915E-04-1.24830E-15
 -1      1816 1.65629E-03-5.40964E-04-1.97578E-15
 -1      1817 1.79513E-03-5.55191E-04-2.33460E-15
 -1      1818 1.57204E-03-4.96869E-04-1.84981E-15
 -1      1819 1.93385E-03-5.67071E-04-2.72250E-15
 -1      1820 2.07250E-03-5.76807E-04-3.13984E-15
 -1      1821 1.85266E-03-5.25419E-04-2.56872E-15
 -1      1822 2.21125E-03-5.84816E-04-3.58548E-15
 -1      1823 2.35008E-03-5.91268E-04-4.05902E-15
 -1      1824 2.13255E-03-5.44900E-04-3.40301E-15
 -1      1825 2.48912E-03-5.96459E-04-4.56117E-15
 -1      1826 2.62832E-03-6.00527E-04-5.09113E-15
 -1      1827 2.41241E-03-5.57762E-04-4.35028E-15
 -1      1828 2.76778E-03-6.03685E-04-5.64787E-15
 -1      1829 2.90744E-03-6.06043E-04-6.23105E-15
 -1      1830 2.69262E-03-5.65829E-04-5.40740E-15
 -1      1831 3.04736E-03-6.07751E-04-6.84088E-15
 -1      1832 3.18749E-03-6.08896E-04-7.47641E-15
 -1      1833 2.97341E-03-5.70465E-04-6.57172E-15
 -1      1834 3.32787E-03-6.09582E-04-8.13798E-15
 -1      1835 3.46846E-03-6.09875E-04-8.82476E-15
 -1      1836 3.25484E-03-5.72672E-04-7.83957E-15
 -1      1837 3.60927E-03-6.09845E-04-9.53664E-15
 -1      1838 3.75027E-03-6.09540E-04-1.02732E-14
 -1      1839 3.53694E-03-5.73181E-04-9.20980E-15
 -1      1840 3.89148E-03-6.09005E-04-1.10322E-14
 -1      1841 4.03286E-03-6.08273E-04-1.18151E-14
 -1      1842 3.81968E-03-5.72501E-04-1.06774E-14
 -1      1843 4.17442E-03-6.07368E-04-1.26214E-14
 -1      1844 4.31613E-03-6.06313E-04-1.34489E-14
 -1      1845 4.10300E-03-5.70974E-04-1.22384E-14
 -1      1846 4.45800E-03-6.05116E-04-1.42979E-14
 -1      1847 4.60002E-03-6.03790E-04-1.51682E-14
 -1      1848 4.38687E-03-5.68807E-04-1.38899E-14
 -1      1849 4.74219E-03-6.02334E-04-1.60606E-14
 -1      1850 4.88449E-03-6.00752E-04-1.69727E-14
 -1      1851 4.67124E-03-5.66105E-04-1.56268E-14
 -1      1852 5.02695E-03-5.99033E-04-1.79044E-14
 -1      1853 5.16955E-03-5.97181E-04-1.88569E-14
 -1      1854 4.95610E-03-5.62891E-04-1.74467E-14
 -1      1855 5.31231E-03-5.95174E-04-1.98308E-14
 -1      1856 5.45524E-03-5.93014E-04-2.08233E-14
 -1      1857 5.24148E-03-5.59132E-04-1.93476E-14
 -1      1858 5.59834E-03-5.90677E-04-2.18350E-14
 -1      1859 5.74165E-03-5.88165E-04-2.28679E-14
 -1      1860 5.52741E-03-5.54752E-04-2.13289E-14
 -1      1861 5.88517E-03-5.85451E-04-2.39201E-14
 -1      1862 6.02895E-03-5.82540E-04-2.49911E-14
 -1      1863 5.81401E-03-5.49654E-04-2.33888E-14
 -1      1864 6.17299E-03-5.79407E-04-2.60826E-14
 -1      1865 6.31735E-03-5.76065E-04-2.71926E-14
 -1      1866 6.10141E-03-5.43740E-04-2.55286E-14
 -1      1867 6.46206E-03-5.72494E-04-2.83200E-14
 -1      1868 6.60719E-03-5.68718E-04-2.94651E-14
 -1      1869 6.38982E-03-5.36937E-04-2.77427E-14
 -1      1870 6.75275E-03-5.64732E-04-3.06276E-14
 -1      1871 6.89885E-03-5.60576E-04-3.18067E-14
 -1      1872 6.67951E-03-5.29232E-04-3.00286E-14
 -1      1873 7.04549E-03-5.56269E-04-3.30025E-14
 -1      1874 7.19282E-03-5.51875E-04-3.42140E-14
 -1      1875 6.97084E-03-5.20723E-04-3.23822E-14
 -1      1876 7.34084E-03-5.47451E-04-3.54410E-14
 -1      1877 7.48971E-03-5.43095E-04-3.66805E-14
 -1      1878 7.26421E-03-5.11682E-04-3.47991E-14
 -1      1879 7.63942E-03-5.38922E-04-3.79347E-14
 -1      1880 7.79017E-03-5.35075E-04-3.92010E-14
 -1      1881 7.56012E-03-5.02645E-04-3.72749E-14
 -1      1882 7.94194E-03-5.31751E-04-4.04791E-14
 -1      1883 8.09494E-03-5.29157E-04-4.17708E-14
 -1      1884 7.85914E-03-4.94536E-04-3.98014E-14
 -1      1885 8.24915E-03-5.27599E-04-4.30729E-14
 -1      1886 8.40475E-03-5.27364E-04-4.43867E-14
 -1      1887 8.16192E-03-4.88815E-04-4.23777E-14
 -1      1888 8.56175E-03-5.28898E-04-4.57125E-14
 -1      1889 8.72026E-03-5.32581E-04-4.70465E-14
 -1      1890 8.46912E-03-4.87656E-04-4.49997E-14
 -1      1891 8.88032E-03-5.39017E-04-4.83925E-14
 -1      1892 9.04190E-03-5.48685E-04-4.97481E-14
 -1      1893 8.78146E-03-4.94134E-04-4.76657E-14
 -1      1894 9.20513E-03-5.62323E-04-5.11122E-14
 -1      1895 9.36971E-03-5.80486E-04-5.24835E-14
 -1      1896 9.09959E-03-5.12333E-04-5.03716E-14
 -1      1897 9.53590E-03-6.03936E-04-5.38615E-14
 -1      1898 9.70303E-03-6.33218E-04-5.52479E-14
 -1      1899 9.42403E-03-5.47259E-04-5.31111E-14
 -1      1900 9.87152E-03-6.68881E-04-5.66395E-14
 -1      1901 1.00402E-02-7.11231E-04-5.80357E-14
 -1      1902 9.75489E-03-6.04278E-04-5.58782E-14
 -1      1903 1.02096E-02-7.60214E-04-5.94400E-14
 -1      1904 1.03780E-02-8.15494E-04-6.08479E-14
 -1      1905 1.00914E-02-6.87678E-04-5.86691E-14
 -1      1906 1.05460E-02-8.75947E-04-6.22619E-14
 -1      1907 1.07119E-02-9.40021E-04-6.36830E-14
 -1      1908 1.04309E-02-7.97950E-04-6.14854E-14
 -1      1909 1.08756E-02-1.00522E-03-6.51090E-14
 -1      1910 1.10362E-02-1.06858E-03-6.65411E-14
 -1      1911 1.07688E-02-9.27702E-04-6.43249E-14
 -1      1912 1.11933E-02-1.12654E-03-6.79800E-14
 -1      1913 1.13474E-02-1.17525E-03-6.94254E-14
 -1      1914 1.10985E-02-1.05805E-03-6.71910E-14
 -1      1915 1.14976E-02-1.21127E-03-7.08778E-14
 -1      1916 1.16465E-02-1.23189E-03-7.23405E-14
 -1      1917 1.14156E-02-1.15964E-03-7.00843E-14
 -1      1918 1.17932E-02-1.23556E-03-7.38133E-14
 -1      1919 1.19409E-02-1.22194E-03-7.52956E-14
 -1      1920 1.17219E-02-1.20293E-03-7.30123E-14
 -1      1921 1.20889E-02-1.19222E-03-7.67920E-14
 -1      1922 1.22395E-02-1.14894E-03-7.83021E-14
 -1      1923 1.20263E-02-1.17430E-03-7.59838E-14
 -1      1924 1.23921E-02-1.09522E-03-7.98242E-14
 -1      1925 1.25473E-02-1.03464E-03-8.13617E-14
 -1      1926 1.23377E-02-1.08401E-03-7.90038E-14
 -1      1927 1.27047E-02-9.70576E-04-8.29093E-14
 -1      1928 1.28633E-02-9.05894E-04-8.44678E-14
 -1      1929 1.26586E-02-9.59486E-04-8.20766E-14
 -1      1930 1.30232E-02-8.42886E-04-8.60419E-14
 -1      1931 1.31826E-02-7.82923E-04-8.76250E-14
 -1      1932 1.29850E-02-8.28750E-04-8.51952E-14
 -1      1933 1.33420E-02-7.26820E-04-8.92169E-14
 -1      1934 1.34999E-02-6.74645E-04-9.08216E-14
 -1      1935 1.33104E-02-7.09460E-04-8.83592E-14
 -1      1936 1.36567E-02-6.25996E-04-9.24360E-14
 -1      1937 1.38113E-02-5.80165E-04-9.40590E-14
 -1      1938 1.36297E-02-6.06920E-04-9.15621E-14
 -1      1939 1.39642E-02-5.36061E-04-9.56943E-14
 -1      1940 1.41150E-02-4.92631E-04-9.73363E-14
 -1      1941 1.39405E-02-5.17485E-04-9.48074E-14
 -1      1942 1.42460E-02-4.55004E-04-9.88157E-14
 -1      1943 1.43930E-02-4.09547E-04-1.00474E-13
 -1      1944 1.44827E-02-3.63135E-04-1.00889E-13
 -1      1945 1.42242E-02-4.39081E-04-9.79170E-14
 -1      1946 1.13865E-03 4.80109E-04-5.82095E-16
 -1      1947 9.96874E-04 4.46853E-04-4.20941E-16
 -1      1948 9.64488E-04 4.17397E-04-4.40864E-16
 -1      1949 1.41776E-03 5.31601E-04-9.89226E-16
 -1      1950 1.27861E-03 5.08147E-04-7.71451E-16
 -1      1951 1.24897E-03 4.80009E-04-7.93229E-16
 -1      1952 1.69414E-03 5.67905E-04-1.51024E-15
 -1      1953 1.55611E-03 5.51407E-04-1.23549E-15
 -1      1954 1.52924E-03 5.24235E-04-1.25785E-15
 -1      1955 1.96970E-03 5.93198E-04-2.14523E-15
 -1      1956 1.83193E-03 5.81758E-04-1.81353E-15
 -1      1957 1.80748E-03 5.55224E-04-1.83576E-15
 -1      1958 2.24553E-03 6.10432E-04-2.89262E-15
 -1      1959 2.10754E-03 6.02697E-04-2.50490E-15
 -1      1960 2.08509E-03 5.76570E-04-2.52603E-15
 -1      1961 2.52217E-03 6.21779E-04-3.75077E-15
 -1      1962 2.38373E-03 6.16748E-04-3.30832E-15
 -1      1963 2.36289E-03 5.90869E-04-3.32784E-15
 -1      1964 2.79988E-03 6.28861E-04-4.71831E-15
 -1      1965 2.66089E-03 6.25783E-04-4.22073E-15
 -1      1966 2.64133E-03 6.00047E-04-4.23896E-15
 -1      1967 3.07873E-03 6.32887E-04-5.79402E-15
 -1      1968 2.93917E-03 6.31204E-04-5.24248E-15
 -1      1969 2.92062E-03 6.05541E-04-5.25793E-15
 -1      1970 3.35870E-03 6.34748E-04-6.97447E-15
 -1      1971 3.21859E-03 6.34051E-04-6.37121E-15
 -1      1972 3.20082E-03 6.08417E-04-6.38342E-15
 -1      1973 3.63969E-03 6.35088E-04-8.25971E-15
 -1      1974 3.49908E-03 6.35082E-04-7.60424E-15
 -1      1975 3.48191E-03 6.09451E-04-7.61380E-15
 -1      1976 3.92159E-03 6.34352E-04-9.64762E-15
 -1      1977 3.78054E-03 6.34837E-04-8.94087E-15
 -1      1978 3.76382E-03 6.09193E-04-8.94707E-15
 -1      1979 4.20429E-03 6.32834E-04-1.11336E-14
 -1      1980 4.06285E-03 6.33680E-04-1.03785E-14
 -1      1981 4.04649E-03 6.08018E-04-1.03810E-14
 -1      1982 4.48771E-03 6.30707E-04-1.27179E-14
 -1      1983 4.34592E-03 6.31841E-04-1.19138E-14
 -1      1984 4.32983E-03 6.06160E-04-1.19126E-14
 -1      1985 4.77177E-03 6.28049E-04-1.43956E-14
 -1      1986 4.62966E-03 6.29442E-04-1.35450E-14
 -1      1987 4.61378E-03 6.03744E-04-1.35399E-14
 -1      1988 5.05646E-03 6.24872E-04-1.61621E-14
 -1      1989 4.91404E-03 6.26526E-04-1.52679E-14
 -1      1990 4.89830E-03 6.00813E-04-1.52579E-14
 -1      1991 5.34178E-03 6.21132E-04-1.80124E-14
 -1      1992 5.19904E-03 6.23074E-04-1.70769E-14
 -1      1993 5.18340E-03 5.97348E-04-1.70620E-14
 -1      1994 5.62783E-03 6.16755E-04-1.99484E-14
 -1      1995 5.48471E-03 6.19025E-04-1.89700E-14
 -1      1996 5.46913E-03 5.93286E-04-1.89507E-14
 -1      1997 5.91474E-03 6.11653E-04-2.19602E-14
 -1      1998 5.77117E-03 6.14295E-04-2.09446E-14
 -1      1999 5.75558E-03 5.88538E-04-2.09205E-14
 -1      2000 6.20273E-03 6.05749E-04-2.40486E-14
 -1      2001 6.05858E-03 6.08799E-04-2.29954E-14
 -1      2002 6.04291E-03 5.83013E-04-2.29675E-14
 -1      2003 6.49211E-03 5.99005E-04-2.62047E-14
 -1      2004 6.34722E-03 6.02474E-04-2.51188E-14
 -1      2005 6.33135E-03 5.76639E-04-2.50863E-14
 -1      2006 6.78328E-03 5.91465E-04-2.84276E-14
 -1      2007 6.63744E-03 5.95319E-04-2.73084E-14
 -1      2008 6.62121E-03 5.69400E-04-2.72732E-14
 -1      2009 7.07673E-03 5.83305E-04-3.07133E-14
 -1      2010 6.92968E-03 5.87434E-04-2.95622E-14
 -1      2011 6.91289E-03 5.61383E-04-2.95239E-14
 -1      2012 7.37309E-03 5.74912E-04-3.30594E-14
 -1      2013 7.22450E-03 5.79092E-04-3.18787E-14
 -1      2014 7.20686E-03 5.52835E-04-3.18372E-14
 -1      2015 7.67306E-03 5.66985E-04-3.54666E-14
 -1      2016 7.52256E-03 5.70822E-04-3.42550E-14
 -1      2017 7.50371E-03 5.44257E-04-3.42108E-14
 -1      2018 7.97741E-03 5.60662E-04-3.79320E-14
 -1      2019 7.82462E-03 5.63524E-04-3.66924E-14
 -1      2020 7.80408E-03 5.36509E-04-3.66445E-14
 -1      2021 8.28694E-03 5.57683E-04-4.04553E-14
 -1      2022 8.13146E-03 5.58617E-04-3.91871E-14
 -1      2023 8.10869E-03 5.30962E-04-3.91364E-14
 -1      2024 8.60235E-03 5.60563E-04-4.30262E-14
 -1      2025 8.44385E-03 5.58209E-04-4.17344E-14
 -1      2026 8.41824E-03 5.29665E-04-4.16806E-14
 -1      2027 8.92410E-03 5.72735E-04-4.56404E-14
 -1      2028 8.76240E-03 5.65262E-04-4.43283E-14
 -1      2029 8.73334E-03 5.35519E-04-4.42716E-14
 -1      2030 9.25215E-03 5.98552E-04-4.82956E-14
 -1      2031 9.08736E-03 5.83685E-04-4.69632E-14
 -1      2032 9.05442E-03 5.52384E-04-4.69040E-14
 -1      2033 9.58570E-03 6.42955E-04-5.09887E-14
 -1      2034 9.41837E-03 6.18196E-04-4.96370E-14
 -1      2035 9.38147E-03 5.84988E-04-4.95748E-14
 -1      2036 9.92284E-03 7.10471E-04-5.37269E-14
 -1      2037 9.75410E-03 6.73704E-04-5.23522E-14
 -1      2038 9.71384E-03 6.38376E-04-5.22878E-14
 -1      2039 1.02602E-02 8.03210E-04-5.65178E-14
 -1      2040 1.00919E-02 7.53840E-04-5.51165E-14
 -1      2041 1.00498E-02 7.16565E-04-5.50509E-14
 -1      2042 1.05931E-02 9.17781E-04-5.93635E-14
 -1      2043 1.04278E-02 8.58377E-04-5.79333E-14
 -1      2044 1.03862E-02 8.20029E-04-5.78672E-14
 -1      2045 1.09162E-02 1.04210E-03-6.22589E-14
 -1      2046 1.07564E-02 9.79901E-04-6.08033E-14
 -1      2047 1.07184E-02 9.42239E-04-6.07326E-14
 -1      2048 1.12256E-02 1.15448E-03-6.52013E-14
 -1      2049 1.10728E-02 1.10132E-03-6.37264E-14
 -1      2050 1.10410E-02 1.06667E-03-6.36483E-14
 -1      2051 1.15212E-02 1.22840E-03-6.81909E-14
 -1      2052 1.13747E-02 1.19758E-03-6.66906E-14
 -1      2053 1.13507E-02 1.16776E-03-6.66086E-14
 -1      2054 1.18086E-02 1.24313E-03-7.12172E-14
 -1      2055 1.16651E-02 1.24360E-03-6.97007E-14
 -1      2056 1.16491E-02 1.21875E-03-6.96129E-14
 -1      2057 1.20968E-02 1.19425E-03-7.42657E-14
 -1      2058 1.19518E-02 1.22592E-03-7.27384E-14
 -1      2059 1.19433E-02 1.20428E-03-7.26472E-14
 -1      2060 1.23927E-02 1.09588E-03-7.73303E-14
 -1      2061 1.22433E-02 1.14981E-03-7.57965E-14
 -1      2062 1.22420E-02 1.12898E-03-7.57021E-14
 -1      2063 1.26984E-02 9.72197E-04-8.04093E-14
 -1      2064 1.25444E-02 1.03578E-03-7.88682E-14
 -1      2065 1.25497E-02 1.01413E-03-7.87718E-14
 -1      2066 1.30113E-02 8.45661E-04-8.35027E-14
 -1      2067 1.28544E-02 9.08403E-04-8.19542E-14
 -1      2068 1.28652E-02 8.85526E-04-8.18612E-14
 -1      2069 1.33261E-02 7.29637E-04-8.66177E-14
 -1      2070 1.31689E-02 7.86092E-04-8.50582E-14
 -1      2071 1.31836E-02 7.62425E-04-8.49624E-14
 -1      2072 1.36380E-02 6.27275E-04-8.97572E-14
 -1      2073 1.34828E-02 6.76971E-04-8.81829E-14
 -1      2074 1.34998E-02 6.53252E-04-8.80868E-14
 -1      2075 1.39438E-02 5.34321E-04-9.29261E-14
 -1      2076 1.37919E-02 5.80089E-04-9.13391E-14
 -1      2077 1.38102E-02 5.57042E-04-9.12379E-14
 -1      2078 1.42420E-02 4.42775E-04-9.61118E-14
 -1      2079 1.40939E-02 4.88872E-04-9.45163E-14
 -1      2080 1.41128E-02 4.67097E-04-9.44143E-14
 -1      2081 1.44859E-02 3.59837E-04-9.87549E-14
 -1      2082 1.43406E-02 4.09185E-04-9.71520E-14
 -1      2083 1.43599E-02 3.88719E-04-9.70486E-14
 -1      2084 1.45553E-02 3.20021E-04-9.91347E-14
 -1      2085 1.48838E-02 1.34172E-04-9.94443E-14
 -1      2086 1.48169E-02 1.64400E-04-9.93287E-14
 -1      2087 1.47500E-02 1.97348E-04-9.92115E-14
 -1      2088 1.46839E-02 2.32370E-04-9.90936E-14
 -1      2089 1.46603E-02 2.16371E-04-9.78862E-14
 -1      2090 1.46490E-02 2.56107E-04-9.91752E-14
 -1      2091 1.45866E-02 2.94325E-04-9.90538E-14
 -1      2092 1.44892E-02 3.28455E-04-9.80107E-14
 -1      2093 1.45569E-02 2.77284E-04-9.78483E-14
 -1      2094 1.50099E-02 8.28727E-05-9.96653E-14
 -1      2095 1.49481E-02 1.07055E-04-9.95531E-14
 -1      2096 1.47946E-02 1.50837E-04-9.81162E-14
 -1      2097 1.51209E-02 4.26660E-05-9.98888E-14
 -1      2098 1.50684E-02 6.13193E-05-9.97754E-14
 -1      2099 1.49215E-02 9.52760E-05-9.83388E-14
 -1      2100 1.52011E-02 1.34800E-05-1.00116E-13
 -1      2101 1.51656E-02 2.70039E-05-1.00003E-13
 -1      2102 1.50290E-02 5.04868E-05-9.85641E-14
 -1      2103 1.52390E-02-8.27997E-06-1.00356E-13
 -1      2104 1.52258E-02 2.20522E-06-1.00235E-13
 -1      2105 1.51020E-02 1.58737E-05-9.87951E-14
 -1      2106 1.52290E-02-2.82616E-05-1.00598E-13
 -1      2107 1.52401E-02-1.78634E-05-1.00475E-13
 -1      2108 1.51292E-02-1.25256E-05-9.90293E-14
 -1      2109 1.51726E-02-5.26519E-05-1.00839E-13
 -1      2110 1.52062E-02-3.93599E-05-1.00720E-13
 -1      2111 1.51062E-02-4.07337E-05-9.92638E-14
 -1      2112 1.50804E-02-8.56952E-05-1.01075E-13
 -1      2113 1.51304E-02-6.77371E-05-1.00957E-13
 -1      2114 1.50378E-02-7.45246E-05-9.94954E-14
 -1      2115 1.49619E-02-1.31027E-04-1.01304E-13
 -1      2116 1.50235E-02-1.06816E-04-1.01192E-13
 -1      2117 1.49346E-02-1.18156E-04-9.97197E-14
 -1      2118 1.48314E-02-1.88264E-04-1.01521E-13
 -1      2119 1.48974E-02-1.58289E-04-1.01415E-13
 -1      2120 1.48090E-02-1.73430E-04-9.99357E-14
 -1      2121 1.46999E-02-2.55842E-04-1.01723E-13
 -1      2122 1.47652E-02-2.20998E-04-1.01623E-13
 -1      2123 1.46752E-02-2.39001E-04-1.00139E-13
 -1      2124 1.37481E-02 1.59084E-04-7.97358E-14
 -1      2125 1.38795E-02 1.08794E-04-8.01005E-14
 -1      2126 1.41256E-02-1.86834E-06-8.11417E-14
 -1      2127 1.41238E-02-1.92235E-05-8.11429E-14
 -1      2128 1.39888E-02 6.58057E-05-8.04031E-14
 -1      2129 1.40689E-02 3.43237E-05-8.07060E-14
 -1      2130 1.39303E-02 7.08349E-05-8.08603E-14
 -1      2131 1.34035E-02 3.12549E-04-7.87045E-14
 -1      2132 1.35742E-02 2.34205E-04-7.92207E-14
 -1      2133 1.30104E-02 5.07038E-04-7.74820E-14
 -1      2134 1.31923E-02 4.09470E-04-7.81165E-14
 -1      2135 3.27170E-04-8.89723E-05-1.78121E-16
 -1      2136 3.29253E-04-1.02142E-04-1.73662E-16
 -1      2137 4.46291E-04-1.45114E-04-2.53134E-16
 -1      2138 4.39997E-04-1.09946E-04-2.64789E-16
 -1      2139 1.22820E-02 9.01497E-04-7.43063E-14
 -1      2140 1.24411E-02 8.20965E-04-7.50844E-14
 -1      2141 1.19463E-02 1.01726E-03-7.24351E-14
 -1      2142 1.20953E-02 9.75474E-04-7.32891E-14
 -1      2143 1.16251E-02 1.02125E-03-7.05822E-14
 -1      2144 1.17690E-02 1.03392E-03-7.14175E-14
 -1      2145 1.13142E-02 9.23436E-04-6.88807E-14
 -1      2146 1.14592E-02 9.81769E-04-6.96488E-14
 -1      2147 1.09946E-02 7.52185E-04-6.72486E-14
 -1      2148 1.11534E-02 8.47010E-04-6.80640E-14
 -1      2149 1.12577E-02 8.92786E-04-6.82094E-14
 -1      2150 1.05583E-02 5.04488E-04-6.56333E-14
 -1      2151 1.07474E-02 6.09331E-04-6.62061E-14
 -1      2152 1.01760E-02 3.16714E-04-6.47110E-14
 -1      2153 1.03539E-02 4.05091E-04-6.51669E-14
 -1      2154 9.86000E-03 1.70300E-04-6.38805E-14
 -1      2155 1.00113E-02 2.38836E-04-6.42950E-14
 -1      2156 1.01132E-02 2.57965E-04-6.39737E-14
 -1      2157 9.58456E-03 6.14365E-05-6.32499E-14
 -1      2158 9.68754E-03 9.47053E-05-6.33672E-14
 -1      2159 9.47260E-03 1.31750E-05-6.31883E-14
 -1      2160 9.51422E-03 3.37579E-05-6.32202E-14
 -1      2161 9.54421E-03 3.49873E-05-6.25115E-14
 -1      2162 9.50219E-03-3.68179E-05-6.34410E-14
 -1      2163 9.46676E-03-1.53536E-05-6.33385E-14
 -1      2164 9.69931E-03-1.05395E-04-6.37749E-14
 -1      2165 9.58612E-03-6.76154E-05-6.34819E-14
 -1      2166 1.00426E-02-2.57256E-04-6.49643E-14
 -1      2167 9.87305E-03-1.81916E-04-6.44327E-14
 -1      2168 1.04415E-02-4.58263E-04-6.62502E-14
 -1      2169 1.02544E-02-3.57345E-04-6.56015E-14
 -1      2170 1.08345E-02-6.87896E-04-6.78384E-14
 -1      2171 1.06471E-02-5.79701E-04-6.71045E-14
 -1      2172 1.12218E-02-8.94687E-04-6.95210E-14
 -1      2173 1.10508E-02-8.02047E-04-6.87002E-14
 -1      2174 1.15710E-02-1.02791E-03-7.13675E-14
 -1      2175 1.14155E-02-9.77478E-04-7.04873E-14
 -1      2176 1.19191E-02-1.03658E-03-7.33631E-14
 -1      2177 1.17649E-02-1.04860E-03-7.24804E-14
 -1      2178 1.22642E-02-9.27551E-04-7.51613E-14
 -1      2179 1.21017E-02-9.92850E-04-7.43336E-14
 -1      2180 1.26513E-02-7.25890E-04-7.69300E-14
 -1      2181 1.24631E-02-8.32249E-04-7.61166E-14
 -1      2182 1.31027E-02-4.83006E-04-7.84485E-14
 -1      2183 1.28959E-02-5.94096E-04-7.78074E-14
 -1      2184 1.35131E-02-2.74358E-04-7.97022E-14
 -1      2185 1.33238E-02-3.63622E-04-7.92057E-14
 -1      2186 1.38585E-02-1.31385E-04-8.05160E-14
 -1      2187 1.37113E-02-1.87811E-04-8.01934E-14
 -1      2188 1.40723E-02-5.06013E-05-8.09490E-14
 -1      2189 1.39897E-02-8.09563E-05-8.07677E-14
 -1      2190 1.26343E-02 7.22861E-04-7.58943E-14
 -1      2191 1.28074E-02 6.24684E-04-7.66071E-14
 -1      2192 1.28877E-02 5.49826E-04-7.74619E-14
 -1      2193 6.07890E-04-2.98137E-04-2.79182E-16
 -1      2194 1.25142E-02 7.66625E-04-7.57742E-14
 -1      2195 6.63607E-04-2.92423E-04-3.68751E-16
 -1      2196 1.41089E-02 7.87419E-06-8.16022E-14
 -1      2197 1.36527E-02 1.73599E-04-8.00370E-14
 -1      2198 1.46070E-02-2.98794E-04-1.01311E-13
 -1      2199 1.41089E-02-2.75925E-05-8.18471E-14
 -1      2200 1.32789E-02 3.39340E-04-7.89283E-14
 -1      2201 1.39252E-02-8.81182E-05-8.14001E-14
 -1      2202 1.36038E-02-2.07173E-04-8.06534E-14
 -1      2203 1.31972E-02-4.00813E-04-7.93994E-14
 -1      2204 1.27504E-02-6.51161E-04-7.77596E-14
 -1      2205 1.23430E-02-8.81742E-04-7.59234E-14
 -1      2206 1.20001E-02-1.02487E-03-7.39974E-14
 -1      2207 1.16659E-02-1.05100E-03-7.19134E-14
 -1      2208 1.13337E-02-9.41984E-04-6.98386E-14
 -1      2209 1.09677E-02-7.40925E-04-6.80156E-14
 -1      2210 1.05663E-02-5.03533E-04-6.63031E-14
 -1      2211 1.01650E-02-2.88360E-04-6.48151E-14
 -1      2212 9.78375E-03-1.22861E-04-6.35222E-14
 -1      2213 9.45976E-03-3.78876E-07-6.26332E-14
 -1      2214 9.77334E-03 1.13447E-04-6.30496E-14
 -1      2215 1.08831E-02 6.76296E-04-6.63532E-14
 -1      2216 1.15470E-02 1.01211E-03-6.99563E-14
 -1      2217 1.21749E-02 9.44086E-04-7.39435E-14
 -1      2218 1.18505E-02 1.03762E-03-7.19070E-14
 -1      2219 1.04657E-02 4.32880E-04-6.48529E-14
 -1      2220 9.53576E-03-4.15874E-05-6.28244E-14
 -1      2221 1.01660E-03 3.99840E-04-5.68583E-16
 -1      2222 8.72134E-04 3.63451E-04-4.14125E-16
 -1      2223 5.47785E-04-5.53124E-05-3.84987E-16
 -1      2224 5.48820E-04-7.20331E-05-3.85068E-16
 -1      2225 5.50240E-04-8.93596E-05-3.84228E-16
 -1      2226 5.52100E-04-1.07349E-04-3.82086E-16
 -1      2227 6.65289E-04-9.55113E-05-5.20295E-16
 -1      2228 5.46404E-04 8.85793E-06-3.75622E-16
 -1      2229 5.46384E-04-6.98312E-06-3.79186E-16
 -1      2230 5.47158E-04 4.08756E-05-3.66189E-16
 -1      2231 5.46658E-04 2.47978E-05-3.71407E-16
 -1      2232 6.61342E-04 1.99346E-05-5.05496E-16
 -1      2233 5.48984E-04 7.35029E-05-3.53138E-16
 -1      2234 5.47921E-04 5.70079E-05-3.60362E-16
 -1      2235 6.62668E-04 5.77982E-05-4.92268E-16
 -1      2236 5.52376E-04 1.08979E-04-3.34558E-16
 -1      2237 5.50452E-04 9.09028E-05-3.44546E-16
 -1      2238 6.65528E-04 9.72737E-05-4.73552E-16
 -1      2239 5.58257E-04 1.48316E-04-3.09309E-16
 -1      2240 5.54938E-04 1.28091E-04-3.22970E-16
 -1      2241 6.70620E-04 1.40049E-04-4.47762E-16
 -1      2242 5.68586E-04 1.93915E-04-2.74181E-16
 -1      2243 5.62747E-04 1.70197E-04-2.93372E-16
 -1      2244 6.79270E-04 1.87596E-04-4.13095E-16
 -1      2245 1.30206E-03 4.56788E-04-9.59831E-16
 -1      2246 1.15974E-03 4.30843E-04-7.50200E-16
 -1      2247 1.07178E-03 3.81363E-04-7.03132E-16
 -1      2248 9.15187E-04-3.46396E-04-6.93429E-16
 -1      2249 1.05928E-03-3.79723E-04-9.06366E-16
 -1      2250 1.24405E-02 8.02563E-04-7.57975E-14
 -1      2251 1.25996E-02 7.05609E-04-7.66106E-14
 -1      2252 1.20254E-03-4.08119E-04-1.14909E-15
 -1      2253 1.34534E-03-4.31995E-04-1.42189E-15
 -1      2254 1.11696E-03-3.60550E-04-1.05027E-15
 -1      2255 1.48752E-03-4.52213E-04-1.72413E-15
 -1      2256 1.62930E-03-4.69051E-04-2.05555E-15
 -1      2257 1.40329E-03-4.07317E-04-1.59908E-15
 -1      2258 1.77071E-03-4.83182E-04-2.41585E-15
 -1      2259 1.91189E-03-4.94819E-04-2.80493E-15
 -1      2260 1.68842E-03-4.40553E-04-2.26391E-15
 -1      2261 2.05291E-03-5.04455E-04-3.22219E-15
 -1      2262 2.19382E-03-5.12267E-04-3.66757E-15
 -1      2263 1.97260E-03-4.63593E-04-3.04250E-15
 -1      2264 2.33472E-03-5.18613E-04-4.14076E-15
 -1      2265 2.47559E-03-5.23637E-04-4.64173E-15
 -1      2266 2.25623E-03-4.79073E-04-3.93320E-15
 -1      2267 2.61653E-03-5.27600E-04-5.16914E-15
 -1      2268 2.75752E-03-5.30615E-04-5.72365E-15
 -1      2269 2.53963E-03-4.89024E-04-4.93307E-15
 -1      2270 2.89861E-03-5.32873E-04-6.30427E-15
 -1      2271 3.03977E-03-5.34462E-04-6.91118E-15
 -1      2272 2.82304E-03-4.94987E-04-6.03917E-15
 -1      2273 3.18107E-03-5.35517E-04-7.54370E-15
 -1      2274 3.32245E-03-5.36106E-04-8.20156E-15
 -1      2275 3.10659E-03-4.98116E-04-7.25010E-15
 -1      2276 3.46397E-03-5.36321E-04-8.88513E-15
 -1      2277 3.60558E-03-5.36213E-04-9.59335E-15
 -1      2278 3.39038E-03-4.99259E-04-8.56293E-15
 -1      2279 3.74733E-03-5.35843E-04-1.03248E-14
 -1      2280 3.88916E-03-5.35246E-04-1.10798E-14
 -1      2281 3.67444E-03-4.99020E-04-9.97494E-15
 -1      2282 4.03112E-03-5.34459E-04-1.18591E-14
 -1      2283 4.17317E-03-5.33507E-04-1.26610E-14
 -1      2284 3.95879E-03-4.97813E-04-1.14824E-14
 -1      2285 4.31533E-03-5.32406E-04-1.34842E-14
 -1      2286 4.45759E-03-5.31172E-04-1.43290E-14
 -1      2287 4.24341E-03-4.95903E-04-1.30808E-14
 -1      2288 4.59994E-03-5.29809E-04-1.51953E-14
 -1      2289 4.74239E-03-5.28322E-04-1.60834E-14
 -1      2290 4.52831E-03-4.93436E-04-1.47669E-14
 -1      2291 4.88494E-03-5.26706E-04-1.69915E-14
 -1      2292 5.02759E-03-5.24961E-04-1.79185E-14
 -1      2293 4.81349E-03-4.90469E-04-1.65373E-14
 -1      2294 5.17035E-03-5.23074E-04-1.88666E-14
 -1      2295 5.31321E-03-5.21041E-04-1.98363E-14
 -1      2296 5.09896E-03-4.86991E-04-1.83899E-14
 -1      2297 5.45620E-03-5.18842E-04-2.08249E-14
 -1      2298 5.59931E-03-5.16474E-04-2.18330E-14
 -1      2299 5.38475E-03-4.82939E-04-2.03230E-14
 -1      2300 5.74256E-03-5.13914E-04-2.28610E-14
 -1      2301 5.88596E-03-5.11159E-04-2.39097E-14
 -1      2302 5.67090E-03-4.78219E-04-2.23358E-14
 -1      2303 6.02954E-03-5.08185E-04-2.49771E-14
 -1      2304 6.17331E-03-5.04994E-04-2.60635E-14
 -1      2305 5.95748E-03-4.72724E-04-2.44289E-14
 -1      2306 6.31728E-03-5.01567E-04-2.71695E-14
 -1      2307 6.46151E-03-4.97912E-04-2.82921E-14
 -1      2308 6.24459E-03-4.66357E-04-2.65981E-14
 -1      2309 6.60599E-03-4.94021E-04-2.94331E-14
 -1      2310 6.75080E-03-4.89913E-04-3.05905E-14
 -1      2311 6.53237E-03-4.59056E-04-2.88399E-14
 -1      2312 6.89592E-03-4.85600E-04-3.17645E-14
 -1      2313 7.04145E-03-4.81118E-04-3.29545E-14
 -1      2314 6.82096E-03-4.50838E-04-3.11506E-14
 -1      2315 7.18736E-03-4.76509E-04-3.41609E-14
 -1      2316 7.33379E-03-4.71836E-04-3.53827E-14
 -1      2317 7.11059E-03-4.41849E-04-3.35258E-14
 -1      2318 7.48071E-03-4.67186E-04-3.66177E-14
 -1      2319 7.62825E-03-4.62659E-04-3.78661E-14
 -1      2320 7.40151E-03-4.32433E-04-3.59636E-14
 -1      2321 7.77639E-03-4.58408E-04-3.91266E-14
 -1      2322 7.92530E-03-4.54585E-04-4.03998E-14
 -1      2323 7.69405E-03-4.23232E-04-3.84541E-14
 -1      2324 8.07495E-03-4.51430E-04-4.16848E-14
 -1      2325 8.22552E-03-4.49169E-04-4.29819E-14
 -1      2326 7.98862E-03-4.15302E-04-4.09954E-14
 -1      2327 8.37702E-03-4.48150E-04-4.42922E-14
 -1      2328 8.52962E-03-4.48701E-04-4.56118E-14
 -1      2329 8.28580E-03-4.10263E-04-4.35862E-14
 -1      2330 8.68338E-03-4.51293E-04-4.69424E-14
 -1      2331 8.83845E-03-4.56385E-04-4.82836E-14
 -1      2332 8.58638E-03-4.10476E-04-4.62217E-14
 -1      2333 8.99499E-03-4.64562E-04-4.96342E-14
 -1      2334 9.15305E-03-4.76444E-04-5.09945E-14
 -1      2335 8.89147E-03-4.19206E-04-4.88990E-14
 -1      2336 9.31299E-03-4.92674E-04-5.23618E-14
 -1      2337 9.47462E-03-5.14033E-04-5.37362E-14
 -1      2338 9.20268E-03-4.40759E-04-5.16139E-14
 -1      2339 9.63855E-03-5.41092E-04-5.51193E-14
 -1      2340 9.80422E-03-5.74692E-04-5.65078E-14
 -1      2341 9.52203E-03-4.80442E-04-5.43616E-14
 -1      2342 9.97241E-03-6.15099E-04-5.79013E-14
 -1      2343 1.01420E-02-6.62885E-04-5.93023E-14
 -1      2344 9.85168E-03-5.44127E-04-5.71362E-14
 -1      2345 1.03138E-02-7.17652E-04-6.07093E-14
 -1      2346 1.04859E-02-7.79028E-04-6.21216E-14
 -1      2347 1.01927E-02-6.36867E-04-5.99332E-14
 -1      2348 1.06589E-02-8.45567E-04-6.35405E-14
 -1      2349 1.08305E-02-9.14773E-04-6.49676E-14
 -1      2350 1.05431E-02-7.59591E-04-6.27576E-14
 -1      2351 1.10003E-02-9.83841E-04-6.64008E-14
 -1      2352 1.11672E-02-1.04803E-03-6.78411E-14
 -1      2353 1.08958E-02-9.02786E-04-6.56097E-14
 -1      2354 1.13302E-02-1.10370E-03-6.92878E-14
 -1      2355 1.14904E-02-1.14495E-03-7.07439E-14
 -1      2356 1.12397E-02-1.03997E-03-6.84899E-14
 -1      2357 1.16460E-02-1.16879E-03-7.22096E-14
 -1      2358 1.18024E-02-1.17288E-03-7.36864E-14
 -1      2359 1.15679E-02-1.13060E-03-7.14066E-14
 -1      2360 1.19581E-02-1.15669E-03-7.51738E-14
 -1      2361 1.21167E-02-1.12247E-03-7.66711E-14
 -1      2362 1.18871E-02-1.13855E-03-7.43618E-14
 -1      2363 1.22772E-02-1.07284E-03-7.81844E-14
 -1      2364 1.24412E-02-1.01321E-03-7.97075E-14
 -1      2365 1.22134E-02-1.06307E-03-7.73607E-14
 -1      2366 1.26076E-02-9.46976E-04-8.12418E-14
 -1      2367 1.27754E-02-8.79084E-04-8.27901E-14
 -1      2368 1.25528E-02-9.34932E-04-8.04101E-14
 -1      2369 1.29441E-02-8.12122E-04-8.43498E-14
 -1      2370 1.31115E-02-7.48484E-04-8.59212E-14
 -1      2371 1.29002E-02-7.94111E-04-8.35047E-14
 -1      2372 1.32781E-02-6.89396E-04-8.75033E-14
 -1      2373 1.34419E-02-6.35048E-04-8.90929E-14
 -1      2374 1.32446E-02-6.66885E-04-8.66447E-14
 -1      2375 1.36037E-02-5.85486E-04-9.06921E-14
 -1      2376 1.37624E-02-5.39737E-04-9.23018E-14
 -1      2377 1.35780E-02-5.61484E-04-8.98239E-14
 -1      2378 1.39186E-02-4.97084E-04-9.39216E-14
 -1      2379 1.40718E-02-4.56117E-04-9.55512E-14
 -1      2380 1.38979E-02-4.74432E-04-9.30403E-14
 -1      2381 1.38826E-02 7.47313E-05-8.14160E-14
 -1      2382 1.39864E-02 4.47174E-05-8.17231E-14
 -1      2383 1.86521E-03 5.25286E-04-2.07714E-15
 -1      2384 1.72498E-03 5.12544E-04-1.75597E-15
 -1      2385 2.14526E-03 5.44536E-04-2.80288E-15
 -1      2386 2.00529E-03 5.35890E-04-2.42621E-15
 -1      2387 1.92453E-03 4.94665E-04-2.32349E-15
 -1      2388 2.42529E-03 5.57269E-04-3.63875E-15
 -1      2389 2.28527E-03 5.51612E-04-3.20723E-15
 -1      2390 2.20661E-03 5.11890E-04-3.08454E-15
 -1      2391 2.70567E-03 5.65283E-04-4.58334E-15
 -1      2392 2.56543E-03 5.61785E-04-4.09758E-15
 -1      2393 2.48853E-03 5.23139E-04-3.95417E-15
 -1      2394 2.98660E-03 5.69919E-04-5.63402E-15
 -1      2395 2.84607E-03 5.67962E-04-5.09477E-15
 -1      2396 2.77060E-03 5.30071E-04-4.93041E-15
 -1      2397 3.26816E-03 5.72167E-04-6.79036E-15
 -1      2398 3.12730E-03 5.71295E-04-6.19960E-15
 -1      2399 3.05298E-03 5.33925E-04-6.01338E-15
 -1      2400 3.55036E-03 5.72744E-04-8.05087E-15
 -1      2401 3.40919E-03 5.72631E-04-7.40793E-15
 -1      2402 3.33577E-03 5.35614E-04-7.20069E-15
 -1      2403 3.83319E-03 5.72152E-04-9.41322E-15
 -1      2404 3.69171E-03 5.72571E-04-8.71909E-15
 -1      2405 3.61899E-03 5.35794E-04-8.49032E-15
 -1      2406 4.11659E-03 5.70726E-04-1.08741E-14
 -1      2407 3.97482E-03 5.71528E-04-1.01313E-14
 -1      2408 3.90265E-03 5.34918E-04-9.88128E-15
 -1      2409 4.40051E-03 5.68668E-04-1.24329E-14
 -1      2410 4.25849E-03 5.69766E-04-1.16413E-14
 -1      2411 4.18672E-03 5.33282E-04-1.13696E-14
 -1      2412 4.68494E-03 5.66077E-04-1.40839E-14
 -1      2413 4.54267E-03 5.67434E-04-1.32471E-14
 -1      2414 4.47119E-03 5.31057E-04-1.29541E-14
 -1      2415 4.96984E-03 5.62975E-04-1.58244E-14
 -1      2416 4.82733E-03 5.64588E-04-1.49434E-14
 -1      2417 4.75604E-03 5.28319E-04-1.46293E-14
 -1      2418 5.25525E-03 5.59326E-04-1.76499E-14
 -1      2419 5.11248E-03 5.61220E-04-1.67269E-14
 -1      2420 5.04127E-03 5.25071E-04-1.63921E-14
 -1      2421 5.54122E-03 5.55054E-04-1.95600E-14
 -1      2422 5.39816E-03 5.57270E-04-1.85939E-14
 -1      2423 5.32692E-03 5.21261E-04-1.82397E-14
 -1      2424 5.82784E-03 5.50061E-04-2.15491E-14
 -1      2425 5.68444E-03 5.52650E-04-2.05452E-14
 -1      2426 5.61304E-03 5.16802E-04-2.01696E-14
 -1      2427 6.11526E-03 5.44252E-04-2.36152E-14
 -1      2428 5.97144E-03 5.47260E-04-2.25726E-14
 -1      2429 5.89970E-03 5.11593E-04-2.21790E-14
 -1      2430 6.40369E-03 5.37557E-04-2.57515E-14
 -1      2431 6.25933E-03 5.41013E-04-2.46755E-14
 -1      2432 6.18705E-03 5.05534E-04-2.42641E-14
 -1      2433 6.69339E-03 5.29971E-04-2.79559E-14
 -1      2434 6.54835E-03 5.33868E-04-2.68453E-14
 -1      2435 6.47524E-03 4.98563E-04-2.64188E-14
 -1      2436 6.98470E-03 5.21599E-04-3.02226E-14
 -1      2437 6.83881E-03 5.25867E-04-2.90808E-14
 -1      2438 6.76450E-03 4.90686E-04-2.86386E-14
 -1      2439 7.27803E-03 5.12728E-04-3.25524E-14
 -1      2440 7.13107E-03 5.17196E-04-3.13799E-14
 -1      2441 7.05510E-03 4.82035E-04-3.09228E-14
 -1      2442 7.57387E-03 5.03914E-04-3.49422E-14
 -1      2443 7.42559E-03 5.08265E-04-3.37397E-14
 -1      2444 7.34738E-03 4.72933E-04-3.32687E-14
 -1      2445 7.87278E-03 4.96100E-04-3.73906E-14
 -1      2446 7.72288E-03 4.99807E-04-3.61593E-14
 -1      2447 7.64173E-03 4.63991E-04-3.56742E-14
 -1      2448 8.17537E-03 4.90772E-04-3.98949E-14
 -1      2449 8.02355E-03 4.93015E-04-3.86352E-14
 -1      2450 7.93863E-03 4.56230E-04-3.81370E-14
 -1      2451 8.48231E-03 4.90125E-04-4.24521E-14
 -1      2452 8.32824E-03 4.89707E-04-4.11681E-14
 -1      2453 8.23867E-03 4.51228E-04-4.06545E-14
 -1      2454 8.79429E-03 4.97236E-04-4.50521E-14
 -1      2455 8.63763E-03 4.92498E-04-4.37465E-14
 -1      2456 8.54255E-03 4.51295E-04-4.32230E-14
 -1      2457 9.11194E-03 5.16156E-04-4.76947E-14
 -1      2458 8.95240E-03 5.04948E-04-4.63679E-14
 -1      2459 8.85114E-03 4.59633E-04-4.58347E-14
 -1      2460 9.43577E-03 5.51793E-04-5.03766E-14
 -1      2461 9.27315E-03 5.31567E-04-4.90303E-14
 -1      2462 9.16551E-03 4.80434E-04-4.84860E-14
 -1      2463 9.76588E-03 6.09308E-04-5.31033E-14
 -1      2464 9.60022E-03 5.77509E-04-5.17341E-14
 -1      2465 9.48685E-03 5.18758E-04-5.11801E-14
 -1      2466 1.01014E-02 6.92656E-04-5.58800E-14
 -1      2467 9.93332E-03 6.47588E-04-5.44850E-14
 -1      2468 9.81617E-03 5.79953E-04-5.39204E-14
 -1      2469 1.04399E-02 8.01868E-04-5.87089E-14
 -1      2470 1.02709E-02 7.44256E-04-5.72879E-14
 -1      2471 1.01535E-02 6.68157E-04-5.67098E-14
 -1      2472 1.07765E-02 9.29099E-04-6.15831E-14
 -1      2473 1.06091E-02 8.64128E-04-6.01388E-14
 -1      2474 1.04965E-02 7.83263E-04-5.95474E-14
 -1      2475 1.11049E-02 1.05536E-03-6.45087E-14
 -1      2476 1.09422E-02 9.94107E-04-6.30410E-14
 -1      2477 1.08394E-02 9.16249E-04-6.24351E-14
 -1      2478 1.14208E-02 1.15162E-03-6.74763E-14
 -1      2479 1.12642E-02 1.10928E-03-6.59875E-14
 -1      2480 1.11741E-02 1.04464E-03-6.53686E-14
 -1      2481 1.17261E-02 1.18964E-03-7.04860E-14
 -1      2482 1.15737E-02 1.17934E-03-6.89768E-14
 -1      2483 1.14955E-02 1.13511E-03-6.83430E-14
 -1      2484 1.20299E-02 1.15653E-03-7.35228E-14
 -1      2485 1.18770E-02 1.18167E-03-7.20016E-14
 -1      2486 1.18074E-02 1.15718E-03-7.13581E-14
 -1      2487 1.23409E-02 1.06391E-03-7.65803E-14
 -1      2488 1.21839E-02 1.11608E-03-7.50489E-14
 -1      2489 1.21213E-02 1.10300E-03-7.43984E-14
 -1      2490 1.26613E-02 9.38666E-04-7.96572E-14
 -1      2491 1.25001E-02 1.00343E-03-7.81157E-14
 -1      2492 1.24455E-02 9.92610E-04-7.74608E-14
 -1      2493 1.29870E-02 8.07940E-04-8.27462E-14
 -1      2494 1.28241E-02 8.72645E-04-8.12006E-14
 -1      2495 1.27789E-02 8.58728E-04-8.05397E-14
 -1      2496 1.33114E-02 6.88487E-04-8.58553E-14
 -1      2497 1.31500E-02 7.46294E-04-8.42996E-14
 -1      2498 1.31140E-02 7.28409E-04-8.36345E-14
 -1      2499 1.36298E-02 5.85020E-04-8.89845E-14
 -1      2500 1.34718E-02 6.34848E-04-8.74172E-14
 -1      2501 1.34433E-02 6.14553E-04-8.67467E-14
 -1      2502 1.39397E-02 4.93855E-04-9.21413E-14
 -1      2503 1.37860E-02 5.38332E-04-9.05589E-14
 -1      2504 1.37628E-02 5.17895E-04-8.98824E-14
 -1      2505 1.42405E-02 4.06846E-04-9.53216E-14
 -1      2506 1.40913E-02 4.50425E-04-9.37299E-14
 -1      2507 1.40715E-02 4.32233E-04-9.30430E-14
 -1      2508 1.43911E-02 3.61480E-04-9.69689E-14
 -1      2509 1.48329E-02 1.01111E-04-9.70158E-14
 -1      2510 1.47709E-02 1.29942E-04-9.69038E-14
 -1      2511 1.49371E-02 5.20678E-05-9.72429E-14
 -1      2512 1.48889E-02 7.52486E-05-9.71290E-14
 -1      2513 1.47446E-02 1.01491E-04-9.56965E-14
 -1      2514 1.45699E-02 2.30502E-04-9.65623E-14
 -1      2515 1.45012E-02 2.68286E-04-9.64426E-14
 -1      2516 1.47055E-02 1.61248E-04-9.67910E-14
 -1      2517 1.46384E-02 1.94616E-04-9.66762E-14
 -1      2518 1.44784E-02 2.40066E-04-9.52380E-14
 -1      2519 1.46169E-02 1.65839E-04-9.54687E-14
 -1      2520 1.50025E-02 1.31482E-05-9.74713E-14
 -1      2521 1.49755E-02 3.17452E-05-9.73562E-14
 -1      2522 1.48455E-02 4.91265E-05-9.59224E-14
 -1      2523 1.50180E-02-2.04001E-05-9.77019E-14
 -1      2524 1.50169E-02-3.65375E-06-9.75879E-14
 -1      2525 1.49025E-02 7.23307E-06-9.61498E-14
 -1      2526 1.49809E-02-5.54602E-05-9.79306E-14
 -1      2527 1.50058E-02-3.70675E-05-9.78163E-14
 -1      2528 1.49049E-02-3.03139E-05-9.63736E-14
 -1      2529 1.48998E-02-9.75383E-05-9.81474E-14
 -1      2530 1.49452E-02-7.51383E-05-9.80399E-14
 -1      2531 1.48529E-02-7.13143E-05-9.65911E-14
 -1      2532 1.47850E-02-1.51335E-04-9.83630E-14
 -1      2533 1.48455E-02-1.22942E-04-9.82571E-14
 -1      2534 1.47568E-02-1.22342E-04-9.68015E-14
 -1      2535 1.46529E-02-2.16123E-04-9.85669E-14
 -1      2536 1.47202E-02-1.82505E-04-9.84670E-14
 -1      2537 1.46313E-02-1.86026E-04-9.70070E-14
 -1      2538 1.45165E-02-2.89656E-04-9.87577E-14
 -1      2539 1.45846E-02-2.52070E-04-9.86620E-14
 -1      2540 1.44935E-02-2.60230E-04-9.71983E-14
 -1      2541 1.44799E-02-3.36801E-04-9.98195E-14
 -1      2542 1.41393E-02-2.00714E-05-8.27413E-14
 -1      2543 1.40858E-02-3.37593E-05-8.25486E-14
 -1      2544 1.58447E-03 4.97117E-04-1.46262E-15
 -1      2545 1.44354E-03 4.78792E-04-1.19704E-15
 -1      2546 1.64181E-03 4.69262E-04-1.67290E-15
 -1      2547 1.35687E-02 1.90977E-04-8.04489E-14
 -1      2548 1.37308E-02 1.28113E-04-8.09691E-14
 -1      2549 1.39939E-02-6.10455E-05-8.24003E-14
 -1      2550 1.38725E-02-9.56427E-05-8.21470E-14
 -1      2551 5.88480E-04-2.37994E-04-3.36536E-16
 -1      2552 7.81305E-04-3.04817E-04-5.30880E-16
 -1      2553 8.40723E-04-2.93628E-04-6.41048E-16
 -1      2554 5.78964E-04-2.10223E-04-3.52867E-16
 -1      2555 1.32045E-02 3.61024E-04-7.92635E-14
 -1      2556 1.33913E-02 2.69656E-04-7.98561E-14
 -1      2557 1.34979E-02 2.20682E-04-8.07869E-14
 -1      2558 1.07868E-02 6.10307E-04-6.54073E-14
 -1      2559 1.10028E-02 7.45023E-04-6.64444E-14
 -1      2560 1.14898E-02 9.99071E-04-6.93910E-14
 -1      2561 1.16228E-02 1.03755E-03-7.03221E-14
 -1      2562 5.46598E-04-2.29065E-05-3.81910E-16
 -1      2563 5.47055E-04-3.89510E-05-3.83902E-16
 -1      2564 6.62519E-04-5.58285E-05-5.19888E-16
 -1      2565 6.61290E-04-1.77098E-05-5.14820E-16
 -1      2566 1.17736E-02 1.05117E-03-7.13740E-14
 -1      2567 1.19149E-02 1.03470E-03-7.23913E-14
 -1      2568 1.03500E-02 3.57606E-04-6.39026E-14
 -1      2569 1.05224E-02 4.53681E-04-6.43641E-14
 -1      2570 1.20815E-02 9.86049E-04-7.35463E-14
 -1      2571 1.22342E-02 9.13898E-04-7.45658E-14
 -1      2572 1.12050E-02 8.62794E-04-6.75594E-14
 -1      2573 1.13373E-02 9.35762E-04-6.83736E-14
 -1      2574 9.54695E-03-3.74614E-05-6.19571E-14
 -1      2575 9.47891E-03-2.08288E-05-6.19154E-14
 -1      2576 1.00486E-02 2.12244E-04-6.30786E-14
 -1      2577 1.01989E-02 2.81649E-04-6.34899E-14
 -1      2578 1.02576E-02 3.13161E-04-6.30040E-14
 -1      2579 9.69672E-03 7.67575E-05-6.20624E-14
 -1      2580 9.86110E-03 1.33736E-04-6.25698E-14
 -1      2581 9.93378E-03 1.64954E-04-6.20881E-14
 -1      2582 9.49597E-03 1.85440E-05-6.16064E-14
 -1      2583 9.55758E-03 3.31258E-05-6.16343E-14
 -1      2584 9.44845E-03-6.04702E-06-6.18376E-14
 -1      2585 9.45431E-03 2.98025E-06-6.16865E-14
 -1      2586 9.45022E-03 8.80394E-06-6.08125E-14
 -1      2587 9.43943E-03-1.12490E-05-6.09719E-14
 -1      2588 9.88177E-03-1.48457E-04-6.31990E-14
 -1      2589 9.71554E-03-9.04622E-05-6.25429E-14
 -1      2590 1.02582E-02-3.18362E-04-6.45294E-14
 -1      2591 1.00674E-02-2.27685E-04-6.38956E-14
 -1      2592 1.06917E-02-5.62513E-04-6.63623E-14
 -1      2593 1.05037E-02-4.50333E-04-6.55112E-14
 -1      2594 1.10583E-02-7.88447E-04-6.80708E-14
 -1      2595 1.08802E-02-6.76268E-04-6.72136E-14
 -1      2596 1.07883E-02-6.23135E-04-6.64166E-14
 -1      2597 1.14001E-02-9.78488E-04-7.00640E-14
 -1      2598 1.12473E-02-8.97002E-04-6.91021E-14
 -1      2599 1.17601E-02-1.06642E-03-7.25860E-14
 -1      2600 1.16053E-02-1.04763E-03-7.14742E-14
 -1      2601 1.20684E-02-1.00673E-03-7.46598E-14
 -1      2602 1.19230E-02-1.05073E-03-7.36892E-14
 -1      2603 1.24065E-02-8.39031E-04-7.67061E-14
 -1      2604 1.22411E-02-9.32218E-04-7.57485E-14
 -1      2605 1.28492E-02-5.76674E-04-7.87624E-14
 -1      2606 1.26384E-02-7.04208E-04-7.78800E-14
 -1      2607 1.32750E-02-3.44175E-04-8.03748E-14
 -1      2608 1.30717E-02-4.51744E-04-7.96131E-14
 -1      2609 1.36943E-02-1.59871E-04-8.16207E-14
 -1      2610 1.35119E-02-2.33117E-04-8.11258E-14
 -1      2611 1.40768E-02 1.68641E-05-8.21357E-14
 -1      2612 1.41388E-02-7.99252E-08-8.25742E-14
 -1      2613 7.57893E-04 3.34242E-04-3.04132E-16
 -1      2614 6.11478E-04 2.84876E-04-1.98748E-16
 -1      2615 5.84754E-04 2.58106E-04-2.08492E-16
 -1      2616 8.13716E-04 3.22918E-04-4.04001E-16
 -1      2617 1.27763E-02 6.01090E-04-7.74882E-14
 -1      2618 1.29587E-02 4.92456E-04-7.83667E-14
 -1      2619 1.26973E-02 6.50265E-04-7.75125E-14
 -1      2620 1.19936E-02 1.01858E-03-7.30107E-14
 -1      2621 6.70203E-04-1.38003E-04-5.14942E-16
 -1      2622 5.54553E-04-1.26262E-04-3.78481E-16
 -1      2623 5.57744E-04-1.46263E-04-3.73196E-16
 -1      2624 1.35780E-03 4.32773E-04-1.13272E-15
 -1      2625 5.72253E-04 2.27911E-04-2.36776E-16
 -1      2626 1.30929E-02 4.21525E-04-7.92923E-14
 -1      2627 1.40577E-02-4.59846E-05-8.32957E-14
 -1      2628 1.38154E-02 9.71852E-05-8.18306E-14
 -1      2629 1.43732E-02 3.47732E-04-9.62791E-14
 -1      2630 1.44081E-02 3.20586E-04-9.61995E-14
 -1      2631 1.40503E-02 2.62393E-05-8.26933E-14
 -1      2632 1.43039E-02-3.95020E-04-9.81310E-14
 -1      2633 1.44332E-02-3.30287E-04-9.85488E-14
 -1      2634 1.43390E-02-3.41954E-04-9.70806E-14
 -1      2635 1.41728E-02-4.29788E-04-9.66584E-14
 -1      2636 1.37997E-02-1.23980E-04-8.26188E-14
 -1      2637 1.33973E-02-2.88057E-04-8.13382E-14
 -1      2638 1.41628E-02-9.52573E-06-8.32758E-14
 -1      2639 1.41721E-02-1.59393E-05-8.39783E-14
 -1      2640 1.41662E-02-2.43341E-06-8.38090E-14
 -1      2641 6.89536E-04 2.51268E-04-3.47934E-16
 -1      2642 1.10888E-02 8.02582E-04-6.66042E-14
 -1      2643 1.29566E-02-5.17418E-04-7.97326E-14
 -1      2644 1.25276E-02-7.72128E-04-7.77017E-14
 -1      2645 1.14188E-02 9.77028E-04-6.87347E-14
 -1      2646 1.06528E-02 5.32568E-04-6.44507E-14
 -1      2647 1.07582E-02 6.10010E-04-6.45372E-14
 -1      2648 1.05206E-02 4.66339E-04-6.34993E-14
 -1      2649 1.21527E-02-9.75891E-04-7.54368E-14
 -1      2650 1.18414E-02-1.06639E-03-7.32436E-14
 -1      2651 1.11407E-02-8.42308E-04-6.82935E-14
 -1      2652 9.61404E-03 5.32205E-05-6.11565E-14
 -1      2653 9.60742E-03-5.66804E-05-6.16351E-14
 -1      2654 9.51933E-03-3.94419E-05-6.07296E-14
 -1      2655 9.67196E-03-8.26885E-05-6.13137E-14
 -1      2656 5.71732E-04-1.85345E-04-3.65268E-16
 -1      2657 1.17011E-02 1.05229E-03-7.08036E-14
 -1      2658 1.23368E-02 8.63577E-04-7.53995E-14
 -1      2659 9.96241E-03-1.83964E-04-6.29147E-14
 -1      2660 1.03758E-02-3.82769E-04-6.45885E-14
 -1      2661 1.15054E-02-1.02574E-03-7.07295E-14
 -1      2662 1.14109E-02-9.93746E-04-6.99882E-14
 -1      2663 1.15938E-02-1.05683E-03-7.13968E-14
 -1      2664 1.43138E-02 3.34404E-04-9.48797E-14
 -1      2665 1.41546E-02-4.10167E-04-9.57631E-14
 -1      2666 7.80206E-04 7.73526E-05-6.36942E-16
 -1      2667 7.78947E-04 5.54860E-05-6.46754E-16
 -1      2668 7.78102E-04 3.35687E-05-6.55346E-16
 -1      2669 7.77680E-04 1.18989E-05-6.62597E-16
 -1      2670 8.96517E-04 4.96937E-05-8.23994E-16
 -1      2671 7.91542E-04 1.73167E-04-5.77175E-16
 -1      2672 7.87537E-04 1.47748E-04-5.95647E-16
 -1      2673 8.03398E-04 2.28369E-04-5.31828E-16
 -1      2674 7.96780E-04 1.99977E-04-5.56372E-16
 -1      2675 9.14846E-04 2.07872E-04-7.22634E-16
 -1      2676 1.12980E-03 3.62003E-04-8.45285E-16
 -1      2677 9.86202E-04 3.32932E-04-6.52622E-16
 -1      2678 1.09935E-02 7.57573E-04-6.56957E-14
 -1      2679 1.11728E-02 8.64721E-04-6.68068E-14
 -1      2680 1.26287E-02 7.04219E-04-7.75067E-14
 -1      2681 1.27835E-02 6.10621E-04-7.83887E-14
 -1      2682 1.41604E-03 4.07907E-04-1.31252E-15
 -1      2683 1.27299E-03 3.86870E-04-1.06501E-15
 -1      2684 1.18965E-03 3.41549E-04-9.94701E-16
 -1      2685 1.19090E-02 1.04882E-03-7.24101E-14
 -1      2686 1.20520E-02 1.00673E-03-7.35651E-14
 -1      2687 8.03081E-04 2.78274E-04-4.62453E-16
 -1      2688 1.32012E-03-3.62822E-04-1.47508E-15
 -1      2689 1.46335E-03-3.81807E-04-1.77993E-15
 -1      2690 1.60639E-03-3.97892E-04-2.11320E-15
 -1      2691 1.74932E-03-4.11302E-04-2.47496E-15
 -1      2692 1.52496E-03-3.55479E-04-1.96424E-15
 -1      2693 1.89209E-03-4.22506E-04-2.86486E-15
 -1      2694 2.03474E-03-4.31693E-04-3.28235E-15
 -1      2695 1.81164E-03-3.81382E-04-2.68869E-15
 -1      2696 2.17729E-03-4.39236E-04-3.72761E-15
 -1      2697 2.31975E-03-4.45289E-04-4.19989E-15
 -1      2698 2.09810E-03-3.99224E-04-3.52417E-15
 -1      2699 2.46216E-03-4.50138E-04-4.69870E-15
 -1      2700 2.60452E-03-4.53905E-04-5.22443E-15
 -1      2701 2.38428E-03-4.11018E-04-4.46721E-15
 -1      2702 2.74687E-03-4.56806E-04-5.77713E-15
 -1      2703 2.88920E-03-4.58934E-04-6.35517E-15
 -1      2704 2.67022E-03-4.18376E-04-5.51689E-15
 -1      2705 3.03155E-03-4.60449E-04-6.95948E-15
 -1      2706 3.17389E-03-4.61421E-04-7.58902E-15
 -1      2707 2.95600E-03-4.22541E-04-6.67164E-15
 -1      2708 3.31627E-03-4.61965E-04-8.24368E-15
 -1      2709 3.45866E-03-4.62131E-04-8.92408E-15
 -1      2710 3.24168E-03-4.24450E-04-7.92763E-15
 -1      2711 3.60109E-03-4.62000E-04-9.62785E-15
 -1      2712 3.74354E-03-4.61606E-04-1.03557E-14
 -1      2713 3.52730E-03-4.24784E-04-9.28363E-15
 -1      2714 3.88604E-03-4.61003E-04-1.11081E-14
 -1      2715 4.02856E-03-4.60212E-04-1.18830E-14
 -1      2716 3.81290E-03-4.24023E-04-1.07367E-14
 -1      2717 4.17113E-03-4.59265E-04-1.26805E-14
 -1      2718 4.31373E-03-4.58176E-04-1.34997E-14
 -1      2719 4.09851E-03-4.22485E-04-1.22825E-14
 -1      2720 4.45637E-03-4.56958E-04-1.43408E-14
 -1      2721 4.59905E-03-4.55617E-04-1.52033E-14
 -1      2722 4.38415E-03-4.20364E-04-1.39177E-14
 -1      2723 4.74178E-03-4.54155E-04-1.60865E-14
 -1      2724 4.88454E-03-4.52572E-04-1.69902E-14
 -1      2725 4.66982E-03-4.17751E-04-1.56383E-14
 -1      2726 5.02735E-03-4.50860E-04-1.79143E-14
 -1      2727 5.17020E-03-4.49014E-04-1.88590E-14
 -1      2728 4.95553E-03-4.14665E-04-1.74415E-14
 -1      2729 5.31311E-03-4.47020E-04-1.98246E-14
 -1      2730 5.45607E-03-4.44871E-04-2.08096E-14
 -1      2731 5.24131E-03-4.11067E-04-1.93283E-14
 -1      2732 5.59908E-03-4.42549E-04-2.18144E-14
 -1      2733 5.74216E-03-4.40045E-04-2.28389E-14
 -1      2734 5.52715E-03-4.06877E-04-2.12954E-14
 -1      2735 5.88530E-03-4.37340E-04-2.38833E-14
 -1      2736 6.02853E-03-4.34427E-04-2.49473E-14
 -1      2737 5.81307E-03-4.01996E-04-2.33406E-14
 -1      2738 6.17183E-03-4.31290E-04-2.60300E-14
 -1      2739 6.31524E-03-4.27924E-04-2.71312E-14
 -1      2740 6.09909E-03-3.96317E-04-2.54652E-14
 -1      2741 6.45873E-03-4.24323E-04-2.82498E-14
 -1      2742 6.60236E-03-4.20487E-04-2.93860E-14
 -1      2743 6.38521E-03-3.89754E-04-2.76621E-14
 -1      2744 6.74610E-03-4.16424E-04-3.05404E-14
 -1      2745 6.89001E-03-4.12148E-04-3.17090E-14
 -1      2746 6.67148E-03-3.82270E-04-2.99314E-14
 -1      2747 7.03405E-03-4.07689E-04-3.28952E-14
 -1      2748 7.17830E-03-4.03077E-04-3.40964E-14
 -1      2749 6.95790E-03-3.73915E-04-3.22678E-14
 -1      2750 7.32273E-03-3.98379E-04-3.53107E-14
 -1      2751 7.46743E-03-3.93651E-04-3.65409E-14
 -1      2752 7.24456E-03-3.64879E-04-3.46631E-14
 -1      2753 7.61235E-03-3.89007E-04-3.77865E-14
 -1      2754 7.75763E-03-3.84544E-04-3.90421E-14
 -1      2755 7.53153E-03-3.55561E-04-3.71184E-14
 -1      2756 7.90322E-03-3.80439E-04-4.03092E-14
 -1      2757 8.04928E-03-3.76847E-04-4.15890E-14
 -1      2758 7.81901E-03-3.46654E-04-3.96269E-14
 -1      2759 8.19580E-03-3.74021E-04-4.28832E-14
 -1      2760 8.34297E-03-3.72204E-04-4.41882E-14
 -1      2761 8.10733E-03-3.39249E-04-4.21831E-14
 -1      2762 8.49083E-03-3.71734E-04-4.55045E-14
 -1      2763 8.63961E-03-3.72979E-04-4.68314E-14
 -1      2764 8.39710E-03-3.34966E-04-4.47889E-14
 -1      2765 8.78946E-03-3.76359E-04-4.81664E-14
 -1      2766 8.94066E-03-3.82427E-04-4.95132E-14
 -1      2767 8.68941E-03-3.36100E-04-4.74378E-14
 -1      2768 9.09353E-03-3.91657E-04-5.08690E-14
 -1      2769 9.24833E-03-4.04865E-04-5.22317E-14
 -1      2770 8.98612E-03-3.45816E-04-5.01252E-14
 -1      2771 9.40564E-03-4.22515E-04-5.36049E-14
 -1      2772 9.56562E-03-4.45755E-04-5.49838E-14
 -1      2773 9.29011E-03-3.68395E-04-5.28506E-14
 -1      2774 9.72914E-03-4.74939E-04-5.63689E-14
 -1      2775 9.89595E-03-5.11502E-04-5.77602E-14
 -1      2776 9.60550E-03-4.09532E-04-5.56043E-14
 -1      2777 1.00672E-02-5.55545E-04-5.91583E-14
 -1      2778 1.02416E-02-6.08291E-04-6.05632E-14
 -1      2779 9.93717E-03-4.76581E-04-5.83843E-14
 -1      2780 1.04203E-02-6.69232E-04-6.19741E-14
 -1      2781 1.06006E-02-7.38192E-04-6.33925E-14
 -1      2782 1.02886E-02-5.77647E-04-6.11914E-14
 -1      2783 1.07832E-02-8.13699E-04-6.48182E-14
 -1      2784 1.09640E-02-8.91341E-04-6.62514E-14
 -1      2785 1.06578E-02-7.17171E-04-6.40275E-14
 -1      2786 1.11425E-02-9.67614E-04-6.76933E-14
 -1      2787 1.13168E-02-1.03439E-03-6.91415E-14
 -1      2788 1.10327E-02-8.83505E-04-6.68943E-14
 -1      2789 1.14541E-02-1.05961E-03-7.02997E-14
 -1      2790 1.16258E-02-1.09730E-03-7.17687E-14
 -1      2791 1.21439E-02-1.05858E-03-7.65453E-14
 -1      2792 1.23161E-02-9.98469E-04-7.80588E-14
 -1      2793 1.24923E-02-9.26925E-04-7.95837E-14
 -1      2794 1.26710E-02-8.52354E-04-8.11181E-14
 -1      2795 1.24305E-02-9.22470E-04-7.87547E-14
 -1      2796 1.28515E-02-7.78128E-04-8.26642E-14
 -1      2797 1.30301E-02-7.08632E-04-8.42238E-14
 -1      2798 1.28016E-02-7.62608E-04-8.18277E-14
 -1      2799 1.32071E-02-6.45289E-04-8.57947E-14
 -1      2800 1.33797E-02-5.88411E-04-8.73743E-14
 -1      2801 1.31693E-02-6.21494E-04-8.49441E-14
 -1      2802 1.35489E-02-5.38159E-04-8.89620E-14
 -1      2803 1.37133E-02-4.93072E-04-9.05598E-14
 -1      2804 1.35204E-02-5.11731E-04-8.81020E-14
 -1      2805 1.38740E-02-4.52614E-04-9.21628E-14
 -1      2806 1.40306E-02-4.14895E-04-9.37775E-14
 -1      2807 1.38512E-02-4.27814E-04-9.12926E-14
 -1      2808 1.38938E-02-1.02254E-04-8.36938E-14
 -1      2809 1.37301E-02-1.56682E-04-8.31651E-14
 -1      2810 1.40164E-02 3.90956E-05-8.32233E-14
 -1      2811 1.41023E-02 1.89062E-05-8.36391E-14
 -1      2812 1.98540E-03 4.63315E-04-2.57543E-15
 -1      2813 1.84336E-03 4.53065E-04-2.21875E-15
 -1      2814 2.83615E-03 4.94397E-04-5.28210E-15
 -1      2815 2.69439E-03 4.91850E-04-4.76495E-15
 -1      2816 3.11981E-03 4.97550E-04-6.39674E-15
 -1      2817 2.97797E-03 4.96271E-04-5.82604E-15
 -1      2818 2.90234E-03 4.58352E-04-5.63807E-15
 -1      2819 3.40369E-03 4.98753E-04-7.61389E-15
 -1      2820 3.26173E-03 4.98358E-04-6.99274E-15
 -1      2821 3.18712E-03 4.60870E-04-6.78292E-15
 -1      2822 3.68783E-03 4.98598E-04-8.93342E-15
 -1      2823 3.54574E-03 4.98819E-04-8.26132E-15
 -1      2824 3.47196E-03 4.61645E-04-8.03073E-15
 -1      2825 3.97224E-03 4.97492E-04-1.03522E-14
 -1      2826 3.83001E-03 4.98147E-04-9.63039E-15
 -1      2827 3.75691E-03 4.61208E-04-9.37916E-15
 -1      2828 4.25692E-03 4.95692E-04-1.18681E-14
 -1      2829 4.11455E-03 4.96668E-04-1.10976E-14
 -1      2830 4.04199E-03 4.59917E-04-1.08258E-14
 -1      2831 4.54187E-03 4.93341E-04-1.34773E-14
 -1      2832 4.39936E-03 4.94580E-04-1.26614E-14
 -1      2833 4.32720E-03 4.57994E-04-1.23679E-14
 -1      2834 4.82708E-03 4.90492E-04-1.51761E-14
 -1      2835 4.68444E-03 4.91978E-04-1.43158E-14
 -1      2836 4.61256E-03 4.55552E-04-1.40023E-14
 -1      2837 5.11258E-03 4.87130E-04-1.69606E-14
 -1      2838 4.96979E-03 4.88877E-04-1.60575E-14
 -1      2839 4.89807E-03 4.52626E-04-1.57237E-14
 -1      2840 5.39838E-03 4.83194E-04-1.88299E-14
 -1      2841 5.25544E-03 4.85238E-04-1.78852E-14
 -1      2842 5.18375E-03 4.49186E-04-1.75310E-14
 -1      2843 5.68454E-03 4.78587E-04-2.07811E-14
 -1      2844 5.54141E-03 4.80979E-04-1.97955E-14
 -1      2845 5.46962E-03 4.45160E-04-1.94211E-14
 -1      2846 5.97112E-03 4.73205E-04-2.28099E-14
 -1      2847 5.82777E-03 4.75997E-04-2.17859E-14
 -1      2848 5.75571E-03 4.40449E-04-2.13927E-14
 -1      2849 6.25822E-03 4.66951E-04-2.49140E-14
 -1      2850 6.11459E-03 4.70190E-04-2.38530E-14
 -1      2851 6.04206E-03 4.34945E-04-2.34427E-14
 -1      2852 6.54596E-03 4.59771E-04-2.70860E-14
 -1      2853 6.40199E-03 4.63476E-04-2.59918E-14
 -1      2854 6.32873E-03 4.28559E-04-2.55648E-14
 -1      2855 6.83452E-03 4.51686E-04-2.93241E-14
 -1      2856 6.69012E-03 4.55835E-04-2.81972E-14
 -1      2857 6.61581E-03 4.21246E-04-2.77549E-14
 -1      2858 7.12408E-03 4.42854E-04-3.16242E-14
 -1      2859 6.97914E-03 4.47347E-04-3.04659E-14
 -1      2860 6.90338E-03 4.13045E-04-3.00101E-14
 -1      2861 7.41491E-03 4.33633E-04-3.39858E-14
 -1      2862 7.26930E-03 4.38262E-04-3.27970E-14
 -1      2863 7.19158E-03 4.04136E-04-3.23263E-14
 -1      2864 7.70733E-03 4.24681E-04-3.64073E-14
 -1      2865 7.56087E-03 4.29072E-04-3.51884E-14
 -1      2866 7.48059E-03 3.94908E-04-3.47039E-14
 -1      2867 8.00176E-03 4.17072E-04-3.88836E-14
 -1      2868 7.85424E-03 4.20628E-04-3.76394E-14
 -1      2869 7.77066E-03 3.86051E-04-3.71414E-14
 -1      2870 8.29878E-03 4.12448E-04-4.14159E-14
 -1      2871 8.14988E-03 4.14266E-04-4.01435E-14
 -1      2872 8.06218E-03 3.78671E-04-3.96334E-14
 -1      2873 8.59919E-03 4.13177E-04-4.39938E-14
 -1      2874 8.44849E-03 4.11967E-04-4.26991E-14
 -1      2875 8.35575E-03 3.74427E-04-4.21754E-14
 -1      2876 8.90414E-03 4.22522E-04-4.66169E-14
 -1      2877 8.75102E-03 4.16526E-04-4.53012E-14
 -1      2878 8.65235E-03 3.75689E-04-4.47666E-14
 -1      2879 9.21524E-03 4.44745E-04-4.92785E-14
 -1      2880 9.05885E-03 4.31693E-04-4.79428E-14
 -1      2881 8.95347E-03 3.85709E-04-4.73999E-14
 -1      2882 9.53452E-03 4.85052E-04-5.19852E-14
 -1      2883 9.37381E-03 4.62220E-04-5.06263E-14
 -1      2884 9.26137E-03 4.08772E-04-5.00733E-14
 -1      2885 9.86406E-03 5.49124E-04-5.47358E-14
 -1      2886 9.69808E-03 5.13675E-04-5.33537E-14
 -1      2887 9.57908E-03 4.50298E-04-5.27891E-14
 -1      2888 1.02048E-02 6.41651E-04-5.75396E-14
 -1      2889 1.00334E-02 5.91521E-04-5.61318E-14
 -1      2890 9.90988E-03 5.16570E-04-5.55537E-14
 -1      2891 1.05547E-02 7.63037E-04-6.03878E-14
 -1      2892 1.03794E-02 6.99004E-04-5.89584E-14
 -1      2893 1.02557E-02 6.13506E-04-5.83686E-14
 -1      2894 1.09061E-02 9.03239E-04-6.32870E-14
 -1      2895 1.07311E-02 8.32214E-04-6.18327E-14
 -1      2896 1.06140E-02 7.42634E-04-6.12311E-14
 -1      2897 1.12487E-02 1.03566E-03-6.62270E-14
 -1      2898 1.10793E-02 9.73214E-04-6.47517E-14
 -1      2899 1.09751E-02 8.92504E-04-6.41371E-14
 -1      2900 1.15751E-02 1.12025E-03-6.92097E-14
 -1      2901 1.14129E-02 1.08708E-03-6.77120E-14
 -1      2902 1.13246E-02 1.03020E-03-6.70839E-14
 -1      2903 1.18937E-02 1.12288E-03-7.22269E-14
 -1      2904 1.17338E-02 1.13265E-03-7.07145E-14
 -1      2905 1.16573E-02 1.10478E-03-7.00738E-14
 -1      2906 1.22184E-02 1.04350E-03-7.52736E-14
 -1      2907 1.20538E-02 1.09152E-03-7.37490E-14
 -1      2908 1.19850E-02 1.08199E-03-7.30973E-14
 -1      2909 1.25571E-02 9.14150E-04-7.83408E-14
 -1      2910 1.23862E-02 9.82138E-04-7.68034E-14
 -1      2911 1.23246E-02 9.74279E-04-7.61488E-14
 -1      2912 1.29037E-02 7.73271E-04-8.14206E-14
 -1      2913 1.27305E-02 8.42840E-04-7.98795E-14
 -1      2914 1.26797E-02 8.27515E-04-7.92173E-14
 -1      2915 1.32471E-02 6.46412E-04-8.45202E-14
 -1      2916 1.30768E-02 7.07397E-04-8.29683E-14
 -1      2917 1.30383E-02 6.84188E-04-8.23015E-14
 -1      2918 1.35796E-02 5.40547E-04-8.76377E-14
 -1      2919 1.34153E-02 5.91009E-04-8.60765E-14
 -1      2920 1.33871E-02 5.64317E-04-8.54039E-14
 -1      2921 1.38986E-02 4.52059E-04-9.07779E-14
 -1      2922 1.37410E-02 4.94687E-04-8.92057E-14
 -1      2923 1.37200E-02 4.68453E-04-8.85289E-14
 -1      2924 1.41844E-02 3.72638E-04-9.36176E-14
 -1      2925 1.40322E-02 4.11585E-04-9.20325E-14
 -1      2926 1.40156E-02 3.87829E-04-9.13499E-14
 -1      2927 1.42798E-02 3.14843E-04-9.38617E-14
 -1      2928 1.48033E-02-1.30900E-06-9.48256E-14
 -1      2929 1.47867E-02 1.97315E-05-9.47157E-14
 -1      2930 1.41357E-02-3.89823E-04-9.48773E-14
 -1      2931 1.42368E-02-3.66646E-04-9.59788E-14
 -1      2932 1.43226E-02-3.23065E-04-9.61883E-14
 -1      2933 1.41157E-02-3.68548E-04-9.39930E-14
 -1      2934 1.46576E-02 9.70215E-05-9.43786E-14
 -1      2935 1.45956E-02 1.29738E-04-9.42648E-14
 -1      2936 1.47905E-02-4.18745E-05-9.50425E-14
 -1      2937 1.48046E-02-2.10307E-05-9.49350E-14
 -1      2938 1.47040E-02-1.08029E-05-9.35017E-14
 -1      2939 1.47555E-02 4.22396E-05-9.46030E-14
 -1      2940 1.47119E-02 6.80393E-05-9.44905E-14
 -1      2941 1.45729E-02 8.90629E-05-9.30616E-14
 -1      2942 1.46676E-02 3.32711E-05-9.32853E-14
 -1      2943 1.37651E-02 1.18921E-04-8.23232E-14
 -1      2944 1.39028E-02 7.32580E-05-8.27741E-14
 -1      2945 1.39810E-02 5.92582E-05-8.37182E-14
 -1      2946 1.47216E-02-8.85459E-05-9.52493E-14
 -1      2947 1.47622E-02-6.36347E-05-9.51475E-14
 -1      2948 1.46735E-02-5.40048E-05-9.37099E-14
 -1      2949 1.46091E-02-1.49096E-04-9.54532E-14
 -1      2950 1.46694E-02-1.16961E-04-9.53506E-14
 -1      2951 1.45844E-02-1.08192E-04-9.39092E-14
 -1      2952 1.44731E-02-2.23116E-04-9.56467E-14
 -1      2953 1.45428E-02-1.84614E-04-9.55504E-14
 -1      2954 1.44557E-02-1.78982E-04-9.41039E-14
 -1      2955 1.43619E-02-2.93411E-04-9.59633E-14
 -1      2956 1.44330E-02-2.51629E-04-9.58732E-14
 -1      2957 1.43421E-02-2.50883E-04-9.44222E-14
 -1      2958 1.42597E-02-3.14009E-04-9.48693E-14
 -1      2959 1.70116E-03 4.40607E-04-1.88895E-15
 -1      2960 1.55870E-03 4.25730E-04-1.58704E-15
 -1      2961 1.47609E-03 3.82261E-04-1.49857E-15
 -1      2962 1.76209E-03 4.11287E-04-2.11110E-15
 -1      2963 1.35192E-02-2.41756E-04-8.24518E-14
 -1      2964 1.33046E-02-3.41063E-04-8.16964E-14
 -1      2965 7.88847E-04-2.52542E-04-6.04822E-16
 -1      2966 9.20031E-04-2.88332E-04-7.79474E-16
 -1      2967 9.54019E-03 4.07564E-05-6.02207E-14
 -1      2968 9.67126E-03 7.67772E-05-6.06437E-14
 -1      2969 1.30701E-02-4.63055E-04-8.07759E-14
 -1      2970 1.28731E-02-5.75981E-04-7.99212E-14
 -1      2971 2.55264E-03 4.88460E-04-4.27361E-15
 -1      2972 2.41090E-03 4.84122E-04-3.80865E-15
 -1      2973 2.61756E-03 4.53338E-04-4.59730E-15
 -1      2974 2.26913E-03 4.78603E-04-3.37062E-15
 -1      2975 2.12731E-03 4.71773E-04-2.95944E-15
 -1      2976 2.33269E-03 4.44803E-04-3.66165E-15
 -1      2977 1.04824E-03-3.15906E-04-9.77639E-16
 -1      2978 1.19151E-03-3.41557E-04-1.22760E-15
 -1      2979 1.25304E-03-3.19990E-04-1.38283E-15
 -1      2980 9.96734E-04-2.74907E-04-9.28226E-16
 -1      2981 9.83446E-03 1.34591E-04-6.11070E-14
 -1      2982 1.00014E-02 2.01550E-04-6.16101E-14
 -1      2983 1.34430E-02 2.54733E-04-8.13370E-14
 -1      2984 1.35998E-02 1.86788E-04-8.19342E-14
 -1      2985 1.16309E-02 1.04985E-03-7.01711E-14
 -1      2986 1.17606E-02 1.06188E-03-7.12225E-14
 -1      2987 7.84392E-04 1.23489E-04-6.11287E-16
 -1      2988 7.82008E-04 1.00048E-04-6.25097E-16
 -1      2989 8.99626E-04 9.94740E-05-7.99152E-16
 -1      2990 9.05355E-04 1.51625E-04-7.66097E-16
 -1      2991 7.81740E-04-9.79919E-05-6.78277E-16
 -1      2992 7.84050E-04-1.21346E-04-6.76989E-16
 -1      2993 1.22211E-02-9.49506E-04-7.61731E-14
 -1      2994 1.20705E-02-1.01730E-03-7.50831E-14
 -1      2995 1.00370E-02-2.24679E-04-6.26392E-14
 -1      2996 9.86924E-03-1.56289E-04-6.19461E-14
 -1      2997 6.52863E-04-1.88431E-04-4.64974E-16
 -1      2998 1.22537E-02 9.19503E-04-7.50762E-14
 -1      2999 1.24331E-02 8.18500E-04-7.63104E-14
 -1      3000 1.01283E-02 2.59451E-04-6.20168E-14
 -1      3001 1.02591E-02 3.25772E-04-6.24244E-14
 -1      3002 1.00071E-02 2.21400E-04-6.10336E-14
 -1      3003 1.41201E-02-3.62851E-05-8.41706E-14
 -1      3004 1.40374E-02-5.73462E-05-8.40229E-14
 -1      3005 1.04756E-02-4.47179E-04-6.45533E-14
 -1      3006 1.02548E-02-3.28238E-04-6.35772E-14
 -1      3007 1.08521E-02-6.75282E-04-6.64128E-14
 -1      3008 1.06882E-02-5.72075E-04-6.55657E-14
 -1      3009 1.11894E-02-8.88142E-04-6.83848E-14
 -1      3010 1.10273E-02-7.86981E-04-6.73586E-14
 -1      3011 1.19216E-02-1.06080E-03-7.39751E-14
 -1      3012 1.17812E-02-1.07729E-03-7.28720E-14
 -1      3013 1.19992E-02-1.04746E-03-7.47059E-14
 -1      3014 1.13644E-02 9.60751E-04-6.81342E-14
 -1      3015 1.14987E-02 1.01604E-03-6.91512E-14
 -1      3016 1.15658E-02 1.04283E-03-6.95647E-14
 -1      3017 1.26352E-02-7.15485E-04-7.87196E-14
 -1      3018 1.24301E-02-8.38922E-04-7.75416E-14
 -1      3019 1.30118E-02 4.78388E-04-7.95296E-14
 -1      3020 1.32279E-02 3.58900E-04-8.04329E-14
 -1      3021 1.33573E-02 3.16505E-04-8.15769E-14
 -1      3022 7.87101E-04-1.45487E-04-6.73723E-16
 -1      3023 7.90961E-04-1.70645E-04-6.68343E-16
 -1      3024 9.04881E-04-1.49089E-04-8.54324E-16
 -1      3025 8.95495E-04 1.01013E-06-8.41747E-16
 -1      3026 7.77651E-04-9.72396E-06-6.68248E-16
 -1      3027 7.78014E-04-3.13772E-05-6.72856E-16
 -1      3028 1.21589E-02 9.74937E-04-7.44710E-14
 -1      3029 1.12595E-02 9.22632E-04-6.72153E-14
 -1      3030 1.29341E-02 5.42394E-04-7.95262E-14
 -1      3031 1.18322E-02 1.06509E-03-7.17730E-14
 -1      3032 8.64845E-04 2.66597E-04-5.69599E-16
 -1      3033 9.72614E-03 1.09234E-04-6.01685E-14
 -1      3034 1.36455E-02-2.05902E-04-8.35246E-14
 -1      3035 1.18129E-02-1.12194E-03-7.35473E-14
 -1      3036 1.19785E-02-1.10097E-03-7.50379E-14
 -1      3037 1.44414E-02 1.60890E-04-9.28357E-14
 -1      3038 1.45285E-02 1.65535E-04-9.41502E-14
 -1      3039 1.44584E-02 2.04095E-04-9.40348E-14
 -1      3040 1.39887E-02-8.36988E-05-8.45706E-14
 -1      3041 1.41525E-02 1.75384E-05-8.48725E-14
 -1      3042 1.41623E-02 6.41397E-06-8.43417E-14
 -1      3043 1.42077E-02-8.79740E-07-8.50450E-14
 -1      3044 1.32151E-02-4.04259E-04-8.18851E-14
 -1      3045 2.04759E-03 4.31378E-04-2.83263E-15
 -1      3046 1.44042E-02 2.37540E-04-9.40074E-14
 -1      3047 1.43329E-02 2.79585E-04-9.38914E-14
 -1      3048 1.42023E-02 3.12674E-04-9.26353E-14
 -1      3049 1.43130E-02 2.38041E-04-9.26936E-14
 -1      3050 9.46320E-03 2.24979E-05-5.97831E-14
 -1      3051 9.49408E-03 4.06071E-05-5.92733E-14
 -1      3052 1.09155E-02-7.37268E-04-6.65035E-14
 -1      3053 1.05474E-02-5.07787E-04-6.45493E-14
 -1      3054 1.25328E-02 7.78806E-04-7.71838E-14
 -1      3055 1.01338E-02-2.86928E-04-6.26061E-14
 -1      3056 1.23373E-02-9.00714E-04-7.71819E-14
 -1      3057 1.03765E-02 3.99621E-04-6.25072E-14
 -1      3058 1.04788E-02 4.76052E-04-6.25880E-14
 -1      3059 1.02378E-02 3.46746E-04-6.15199E-14
 -1      3060 1.27623E-02-6.56827E-04-7.97564E-14
 -1      3061 9.42643E-03-1.50370E-05-6.01287E-14
 -1      3062 9.40473E-03-6.83465E-06-6.00495E-14
 -1      3063 9.73489E-03-1.14236E-04-6.10402E-14
 -1      3064 9.61609E-03-8.70677E-05-6.01372E-14
 -1      3065 9.79138E-03-1.51832E-04-6.07659E-14
 -1      3066 1.20757E-02-1.05538E-03-7.57218E-14
 -1      3067 7.69983E-04-2.02437E-04-6.18402E-16
 -1      3068 7.78791E-04-5.31674E-05-6.76014E-16
 -1      3069 7.80007E-04-7.53615E-05-6.77775E-16
 -1      3070 8.99342E-04-9.71235E-05-8.57224E-16
 -1      3071 8.96389E-04-4.75410E-05-8.52576E-16
 -1      3072 1.37131E-02 1.55312E-04-8.28759E-14
 -1      3073 9.82938E-04 2.75839E-04-7.41283E-16
 -1      3074 1.07276E-02 6.23479E-04-6.37780E-14
 -1      3075 1.08610E-02 6.88285E-04-6.47354E-14
 -1      3076 1.09433E-02 7.60085E-04-6.49311E-14
 -1      3077 1.41775E-02-2.37356E-05-8.47063E-14
 -1      3078 1.41798E-02-3.38114E-05-8.54348E-14
 -1      3079 1.42173E-02-1.65135E-05-8.52407E-14
 -1      3080 9.47912E-03-4.54638E-05-5.94901E-14
 -1      3081 9.44799E-03-2.82725E-05-5.98087E-14
 -1      3082 9.38668E-03-2.26325E-05-5.88917E-14
 -1      3083 9.40484E-03 1.26576E-06-5.99572E-14
 -1      3084 9.42984E-03 1.03926E-05-5.98751E-14
 -1      3085 9.39317E-03 1.38091E-05-5.89318E-14
 -1      3086 9.37138E-03-3.14781E-06-5.91168E-14
 -1      3087 1.16808E-02-1.07613E-03-7.21212E-14
 -1      3088 9.62168E-03 9.26474E-05-5.91115E-14
 -1      3089 9.76772E-03 1.44124E-04-5.95683E-14
 -1      3090 1.04028E-03 2.43335E-04-8.83557E-16
 -1      3091 1.03367E-03 2.11605E-04-9.12492E-16
 -1      3092 1.37176E-02 1.80249E-04-8.37719E-14
 -1      3093 1.38572E-02 1.21153E-04-8.41652E-14
 -1      3094 1.13553E-02-1.00106E-03-6.94934E-14
 -1      3095 1.73167E-03-3.40540E-04-2.51471E-15
 -1      3096 1.87534E-03-3.50744E-04-2.90507E-15
 -1      3097 2.01900E-03-3.59230E-04-3.32286E-15
 -1      3098 2.16265E-03-3.66148E-04-3.76725E-15
 -1      3099 1.94018E-03-3.19424E-04-3.12410E-15
 -1      3100 2.30625E-03-3.71776E-04-4.23844E-15
 -1      3101 2.44980E-03-3.76237E-04-4.73586E-15
 -1      3102 2.22822E-03-3.32528E-04-4.01219E-15
 -1      3103 2.59329E-03-3.79753E-04-5.25976E-15
 -1      3104 2.73673E-03-3.82422E-04-5.81028E-15
 -1      3105 2.51620E-03-3.41017E-04-5.00601E-15
 -1      3106 2.88012E-03-3.84414E-04-6.38611E-15
 -1      3107 3.02344E-03-3.85802E-04-6.98772E-15
 -1      3108 2.80398E-03-3.46118E-04-6.10396E-15
 -1      3109 3.16673E-03-3.86714E-04-7.61469E-15
 -1      3110 3.30996E-03-3.87202E-04-8.26650E-15
 -1      3111 3.09149E-03-3.48786E-04-7.30430E-15
 -1      3112 3.45316E-03-3.87359E-04-8.94276E-15
 -1      3113 3.59632E-03-3.87222E-04-9.64318E-15
 -1      3114 3.37873E-03-3.49741E-04-8.60484E-15
 -1      3115 3.73945E-03-3.86854E-04-1.03679E-14
 -1      3116 3.88254E-03-3.86280E-04-1.11164E-14
 -1      3117 3.66570E-03-3.49502E-04-1.00030E-14
 -1      3118 4.02561E-03-3.85540E-04-1.18872E-14
 -1      3119 4.16864E-03-3.84649E-04-1.26807E-14
 -1      3120 3.95244E-03-3.48428E-04-1.14954E-14
 -1      3121 4.31166E-03-3.83629E-04-1.34971E-14
 -1      3122 4.45466E-03-3.82487E-04-1.43348E-14
 -1      3123 4.23895E-03-3.46746E-04-1.30788E-14
 -1      3124 4.59764E-03-3.81232E-04-1.51919E-14
 -1      3125 4.74060E-03-3.79864E-04-1.60710E-14
 -1      3126 4.52527E-03-3.44585E-04-1.47495E-14
 -1      3127 4.88354E-03-3.78382E-04-1.69722E-14
 -1      3128 5.02647E-03-3.76781E-04-1.78926E-14
 -1      3129 4.81140E-03-3.41993E-04-1.65041E-14
 -1      3130 5.16937E-03-3.75054E-04-1.88340E-14
 -1      3131 5.31227E-03-3.73191E-04-1.97964E-14
 -1      3132 5.09734E-03-3.38959E-04-1.83427E-14
 -1      3133 5.45514E-03-3.71181E-04-2.07779E-14
 -1      3134 5.59799E-03-3.69010E-04-2.17794E-14
 -1      3135 5.38308E-03-3.35426E-04-2.02624E-14
 -1      3136 5.74082E-03-3.66667E-04-2.28009E-14
 -1      3137 5.88363E-03-3.64139E-04-2.38416E-14
 -1      3138 5.66859E-03-3.31312E-04-2.22628E-14
 -1      3139 6.02640E-03-3.61412E-04-2.49016E-14
 -1      3140 6.16915E-03-3.58475E-04-2.59809E-14
 -1      3141 5.95383E-03-3.26518E-04-2.43415E-14
 -1      3142 6.31186E-03-3.55322E-04-2.70788E-14
 -1      3143 6.45454E-03-3.51944E-04-2.81933E-14
 -1      3144 6.23873E-03-3.20952E-04-2.64959E-14
 -1      3145 6.59715E-03-3.48344E-04-2.93252E-14
 -1      3146 6.73974E-03-3.44519E-04-3.04753E-14
 -1      3147 6.52321E-03-3.14548E-04-2.87226E-14
 -1      3148 6.88225E-03-3.40492E-04-3.16403E-14
 -1      3149 7.02473E-03-3.36268E-04-3.28212E-14
 -1      3150 6.80717E-03-3.07295E-04-3.10166E-14
 -1      3151 7.16711E-03-3.31896E-04-3.40183E-14
 -1      3152 7.30947E-03-3.27397E-04-3.52276E-14
 -1      3153 7.09050E-03-2.99271E-04-3.33743E-14
 -1      3154 7.45174E-03-3.22854E-04-3.64530E-14
 -1      3155 7.59399E-03-3.18314E-04-3.76941E-14
 -1      3156 7.37308E-03-2.90691E-04-3.57921E-14
 -1      3157 7.73617E-03-3.13904E-04-3.89465E-14
 -1      3158 7.87840E-03-3.09708E-04-4.02088E-14
 -1      3159 7.65486E-03-2.81961E-04-3.82660E-14
 -1      3160 8.02062E-03-3.05906E-04-4.14851E-14
 -1      3161 8.16299E-03-3.02637E-04-4.27742E-14
 -1      3162 7.93588E-03-2.73739E-04-4.07904E-14
 -1      3163 8.30552E-03-3.00139E-04-4.40750E-14
 -1      3164 8.44842E-03-2.98641E-04-4.53878E-14
 -1      3165 8.21638E-03-2.67010E-04-4.33639E-14
 -1      3166 8.59177E-03-2.98429E-04-4.67091E-14
 -1      3167 8.73591E-03-2.99881E-04-4.80418E-14
 -1      3168 8.49702E-03-2.63177E-04-4.59823E-14
 -1      3169 8.88105E-03-3.03311E-04-4.93838E-14
 -1      3170 9.02767E-03-3.09345E-04-5.07361E-14
 -1      3171 8.77915E-03-2.64181E-04-4.86450E-14
 -1      3172 9.17620E-03-3.18292E-04-5.20971E-14
 -1      3173 9.32727E-03-3.31215E-04-5.34655E-14
 -1      3174 9.06526E-03-2.72734E-04-5.13462E-14
 -1      3175 9.48166E-03-3.48332E-04-5.48402E-14
 -1      3176 9.64002E-03-3.71424E-04-5.62213E-14
 -1      3177 9.35964E-03-2.92865E-04-5.40786E-14
 -1      3178 9.80359E-03-4.00677E-04-5.76096E-14
 -1      3179 9.97251E-03-4.38637E-04-5.90065E-14
 -1      3180 9.66888E-03-3.30914E-04-5.68368E-14
 -1      3181 1.01487E-02-4.85171E-04-6.04104E-14
 -1      3182 1.03306E-02-5.43567E-04-6.18201E-14
 -1      3183 1.00018E-02-3.97362E-04-5.96286E-14
 -1      3184 1.09597E-02-8.14898E-04-6.64510E-14
 -1      3185 1.11517E-02-9.06054E-04-6.78953E-14
 -1      3186 1.12892E-02-9.50545E-04-6.90438E-14
 -1      3187 1.17119E-02-1.08847E-03-7.24293E-14
 -1      3188 9.44114E-03 4.49983E-05-5.82478E-14
 -1      3189 9.52430E-03 6.43502E-05-5.86795E-14
 -1      3190 9.55147E-03 9.37661E-05-5.80821E-14
 -1      3191 1.27563E-02-7.40275E-04-8.09873E-14
 -1      3192 1.29488E-02-6.59525E-04-8.25335E-14
 -1      3193 1.31394E-02-5.88718E-04-8.40914E-14
 -1      3194 1.33225E-02-5.27558E-04-8.56626E-14
 -1      3195 1.31131E-02-5.53293E-04-8.32422E-14
 -1      3196 1.35005E-02-4.76530E-04-8.72397E-14
 -1      3197 1.36712E-02-4.32637E-04-8.88262E-14
 -1      3198 1.34845E-02-4.36932E-04-8.63781E-14
 -1      3199 1.38364E-02-3.95502E-04-9.04197E-14
 -1      3200 1.39961E-02-3.62200E-04-9.20203E-14
 -1      3201 1.38248E-02-3.59081E-04-8.95478E-14
 -1      3202 1.17597E-02 1.08554E-03-7.10863E-14
 -1      3203 1.18913E-02 1.07680E-03-7.22728E-14
 -1      3204 2.96917E-03 4.21928E-04-5.99698E-15
 -1      3205 2.82626E-03 4.20181E-04-5.44808E-15
 -1      3206 3.82625E-03 4.23632E-04-9.82749E-15
 -1      3207 3.68343E-03 4.24078E-04-9.12668E-15
 -1      3208 4.11191E-03 4.22206E-04-1.13017E-14
 -1      3209 3.96908E-03 4.23002E-04-1.05524E-14
 -1      3210 3.89586E-03 3.85918E-04-1.02790E-14
 -1      3211 4.39757E-03 4.20203E-04-1.28697E-14
 -1      3212 4.25474E-03 4.21270E-04-1.20741E-14
 -1      3213 4.18200E-03 3.84401E-04-1.17799E-14
 -1      3214 4.68327E-03 4.17714E-04-1.45279E-14
 -1      3215 4.54042E-03 4.19017E-04-1.36878E-14
 -1      3216 4.46805E-03 3.82361E-04-1.33732E-14
 -1      3217 4.96900E-03 4.14752E-04-1.62729E-14
 -1      3218 4.82613E-03 4.16293E-04-1.53904E-14
 -1      3219 4.75400E-03 3.79863E-04-1.50556E-14
 -1      3220 5.25478E-03 4.11278E-04-1.81026E-14
 -1      3221 5.11189E-03 4.13083E-04-1.71773E-14
 -1      3222 5.03987E-03 3.76907E-04-1.68238E-14
 -1      3223 5.54062E-03 4.07211E-04-2.00147E-14
 -1      3224 5.39769E-03 4.09324E-04-1.90483E-14
 -1      3225 5.32567E-03 3.73443E-04-1.86754E-14
 -1      3226 5.82653E-03 4.02451E-04-2.20079E-14
 -1      3227 5.68356E-03 4.04924E-04-2.10022E-14
 -1      3228 5.61138E-03 3.69387E-04-2.06107E-14
 -1      3229 6.11251E-03 3.96894E-04-2.40766E-14
 -1      3230 5.96950E-03 3.99778E-04-2.30324E-14
 -1      3231 5.89698E-03 3.64640E-04-2.26241E-14
 -1      3232 6.39859E-03 3.90457E-04-2.62170E-14
 -1      3233 6.25553E-03 3.93789E-04-2.51379E-14
 -1      3234 6.18246E-03 3.59102E-04-2.47121E-14
 -1      3235 6.68479E-03 3.83106E-04-2.84255E-14
 -1      3236 6.54166E-03 3.86895E-04-2.73124E-14
 -1      3237 6.46778E-03 3.52699E-04-2.68711E-14
 -1      3238 6.97113E-03 3.74898E-04-3.06955E-14
 -1      3239 6.82792E-03 3.79103E-04-2.95529E-14
 -1      3240 6.75289E-03 3.45412E-04-2.90954E-14
 -1      3241 7.25768E-03 3.66032E-04-3.30306E-14
 -1      3242 7.11436E-03 3.70532E-04-3.18557E-14
 -1      3243 7.03777E-03 3.37310E-04-3.13840E-14
 -1      3244 7.54453E-03 3.56918E-04-3.54252E-14
 -1      3245 7.40104E-03 3.61476E-04-3.42207E-14
 -1      3246 7.32239E-03 3.28607E-04-3.37367E-14
 -1      3247 7.83188E-03 3.48258E-04-3.78764E-14
 -1      3248 7.68811E-03 3.52481E-04-3.66436E-14
 -1      3249 7.60678E-03 3.19720E-04-3.61469E-14
 -1      3250 8.12009E-03 3.41157E-04-4.03825E-14
 -1      3251 7.97583E-03 3.44432E-04-3.91226E-14
 -1      3252 7.89106E-03 3.11341E-04-3.86130E-14
 -1      3253 8.40981E-03 3.37243E-04-4.29364E-14
 -1      3254 8.26468E-03 3.38679E-04-4.16542E-14
 -1      3255 8.17558E-03 3.04535E-04-4.11315E-14
 -1      3256 8.70217E-03 3.38821E-04-4.55390E-14
 -1      3257 8.55554E-03 3.37162E-04-4.42321E-14
 -1      3258 8.46103E-03 3.00844E-04-4.36997E-14
 -1      3259 8.99906E-03 3.49050E-04-4.81822E-14
 -1      3260 8.84988E-03 3.42581E-04-4.68556E-14
 -1      3261 8.74871E-03 3.02429E-04-4.63119E-14
 -1      3262 9.30342E-03 3.72189E-04-5.08678E-14
 -1      3263 9.15010E-03 3.58608E-04-4.95189E-14
 -1      3264 9.04092E-03 3.12283E-04-4.89662E-14
 -1      3265 9.61937E-03 4.13894E-04-5.35946E-14
 -1      3266 9.45973E-03 3.90138E-04-5.22261E-14
 -1      3267 9.34132E-03 3.34578E-04-5.16616E-14
 -1      3268 9.95165E-03 4.81381E-04-5.63734E-14
 -1      3269 9.78340E-03 4.43700E-04-5.49764E-14
 -1      3270 9.65528E-03 3.75417E-04-5.44026E-14
 -1      3271 1.03036E-02 5.82294E-04-5.91987E-14
 -1      3272 1.01256E-02 5.26931E-04-5.77800E-14
 -1      3273 9.98930E-03 4.43260E-04-5.71920E-14
 -1      3274 1.06729E-02 7.20539E-04-6.20702E-14
 -1      3275 1.04874E-02 6.47009E-04-6.06286E-14
 -1      3276 1.03483E-02 5.49122E-04-6.00303E-14
 -1      3277 1.10028E-02 8.44887E-04-6.47863E-14
 -1      3278 1.08131E-02 7.59072E-04-6.33274E-14
 -1      3279 1.14718E-02 1.04112E-03-6.85635E-14
 -1      3280 1.12939E-02 9.79947E-04-6.70765E-14
 -1      3281 1.20640E-02 1.03756E-03-7.37912E-14
 -1      3282 1.24264E-02 8.87650E-04-7.68334E-14
 -1      3283 1.22416E-02 9.65672E-04-7.53054E-14
 -1      3284 1.31824E-02 5.91092E-04-8.31828E-14
 -1      3285 1.30004E-02 6.57435E-04-8.16368E-14
 -1      3286 1.35335E-02 4.82494E-04-8.62899E-14
 -1      3287 1.33611E-02 5.33345E-04-8.47333E-14
 -1      3288 1.33370E-02 4.98484E-04-8.40625E-14
 -1      3289 1.38637E-02 3.98805E-04-8.94193E-14
 -1      3290 1.37014E-02 4.38500E-04-8.78523E-14
 -1      3291 1.36850E-02 4.04317E-04-8.71744E-14
 -1      3292 1.41024E-02 3.36164E-04-9.16519E-14
 -1      3293 1.39673E-02 3.72379E-04-9.04007E-14
 -1      3294 1.39545E-02 3.41824E-04-8.97190E-14
 -1      3295 1.41579E-02 2.96307E-04-9.16826E-14
 -1      3296 1.41559E-02-3.34805E-04-9.37726E-14
 -1      3297 1.01659E-03 6.82244E-05-1.01098E-15
 -1      3298 1.01542E-03 4.12353E-05-1.02381E-15
 -1      3299 1.44430E-02-1.30084E-04-9.25962E-14
 -1      3300 1.45048E-02-9.59840E-05-9.24999E-14
 -1      3301 1.46055E-02-2.12421E-05-9.21790E-14
 -1      3302 1.46040E-02 3.76938E-07-9.20741E-14
 -1      3303 2.11106E-03 3.98813E-04-3.09471E-15
 -1      3304 1.96783E-03 3.90897E-04-2.70361E-15
 -1      3305 1.42978E-02-2.12563E-04-9.27817E-14
 -1      3306 1.43727E-02-1.69231E-04-9.26888E-14
 -1      3307 1.42934E-02-1.56479E-04-9.12836E-14
 -1      3308 1.08126E-02-7.18229E-04-6.55106E-14
 -1      3309 9.91428E-03 2.07023E-04-5.99905E-14
 -1      3310 1.00258E-02 2.56407E-04-6.03927E-14
 -1      3311 1.33545E-02-3.60186E-04-8.31637E-14
 -1      3312 1.31441E-02-4.68152E-04-8.22368E-14
 -1      3313 2.68332E-03 4.17761E-04-4.92516E-15
 -1      3314 2.54034E-03 4.14584E-04-4.42819E-15
 -1      3315 2.74984E-03 3.81807E-04-5.25713E-15
 -1      3316 3.54060E-03 4.24294E-04-8.44997E-15
 -1      3317 3.39777E-03 4.24253E-04-7.79853E-15
 -1      3318 3.60960E-03 3.86758E-04-8.87330E-15
 -1      3319 1.37682E-02-1.77763E-04-8.46600E-14
 -1      3320 1.35753E-02-2.54528E-04-8.39428E-14
 -1      3321 3.25491E-03 4.23883E-04-7.17276E-15
 -1      3322 3.11206E-03 4.23142E-04-6.57214E-15
 -1      3323 3.03662E-03 3.85201E-04-6.36044E-15
 -1      3324 3.32320E-03 3.86655E-04-7.56638E-15
 -1      3325 1.45547E-02-6.76039E-05-9.24030E-14
 -1      3326 1.45895E-02-4.27739E-05-9.23049E-14
 -1      3327 1.44291E-02-8.30343E-05-9.10987E-14
 -1      3328 1.23784E-02-9.03420E-04-7.78968E-14
 -1      3329 1.25731E-02-8.12706E-04-7.94223E-14
 -1      3330 1.44457E-03-3.13813E-04-1.81731E-15
 -1      3331 1.58807E-03-3.28295E-04-2.15207E-15
 -1      3332 1.65237E-03-3.00211E-04-2.34346E-15
 -1      3333 1.40956E-02-6.98568E-05-8.57814E-14
 -1      3334 1.39671E-02-1.09957E-04-8.54536E-14
 -1      3335 2.39730E-03 4.10463E-04-3.95716E-15
 -1      3336 2.25421E-03 4.05288E-04-3.51245E-15
 -1      3337 2.46284E-03 3.75664E-04-4.25768E-15
 -1      3338 8.87895E-04-2.11866E-04-7.94558E-16
 -1      3339 1.02053E-02-3.46116E-04-6.24469E-14
 -1      3340 1.00092E-02-2.52993E-04-6.15139E-14
 -1      3341 1.29470E-02-5.78681E-04-8.13260E-14
 -1      3342 1.27323E-02-7.02327E-04-8.01173E-14
 -1      3343 1.14500E-03 3.10627E-04-9.66593E-16
 -1      3344 1.08235E-03 2.71695E-04-9.16137E-16
 -1      3345 1.20143E-03 2.73112E-04-1.13196E-15
 -1      3346 1.28816E-03 3.32601E-04-1.20149E-15
 -1      3347 1.21951E-02-9.94241E-04-7.65276E-14
 -1      3348 1.06104E-02-5.71571E-04-6.45241E-14
 -1      3349 1.04199E-02-4.60141E-04-6.35177E-14
 -1      3350 1.39725E-02 8.08785E-05-8.46207E-14
 -1      3351 1.40750E-02 5.13950E-05-8.50737E-14
 -1      3352 1.39782E-02 1.07130E-04-8.55205E-14
 -1      3353 1.28686E-02 6.07521E-04-7.95802E-14
 -1      3354 1.30735E-02 4.90329E-04-8.07251E-14
 -1      3355 1.33032E-02 3.72640E-04-8.19604E-14
 -1      3356 1.34935E-02 2.81307E-04-8.28710E-14
 -1      3357 1.20154E-02-1.05329E-03-7.50156E-14
 -1      3358 1.06769E-02-6.66854E-04-6.44731E-14
 -1      3359 1.26341E-02 8.10877E-04-7.86265E-14
 -1      3360 1.25723E-02 7.90164E-04-7.77758E-14
 -1      3361 1.27486E-02 6.87891E-04-7.89773E-14
 -1      3362 1.28202E-02 7.31581E-04-8.01645E-14
 -1      3363 1.01483E-03 1.44516E-05-1.03417E-15
 -1      3364 1.01479E-03-1.22327E-05-1.04264E-15
 -1      3365 1.13552E-03 3.01730E-05-1.24525E-15
 -1      3366 1.15311E-03 2.11885E-04-1.12497E-15
 -1      3367 1.02833E-03 1.81205E-04-9.37591E-16
 -1      3368 1.02416E-03 1.51877E-04-9.59871E-16
 -1      3369 1.32272E-02 4.41813E-04-8.20151E-14
 -1      3370 1.43558E-02 1.52320E-04-9.15257E-14
 -1      3371 1.42803E-02 1.96055E-04-9.14108E-14
 -1      3372 1.39100E-02-1.48862E-04-8.58734E-14
 -1      3373 1.03263E-02-4.79921E-04-6.22612E-14
 -1      3374 1.04836E-02-5.85792E-04-6.30498E-14
 -1      3375 1.01254E-02 3.21241E-04-6.04720E-14
 -1      3376 1.29696E-02 6.30152E-04-8.10421E-14
 -1      3377 9.36830E-03 2.77073E-05-5.78050E-14
 -1      3378 9.37828E-03 4.72855E-05-5.72150E-14
 -1      3379 1.41449E-02-3.05355E-04-9.28919E-14
 -1      3380 1.41579E-02 3.43494E-05-8.57785E-14
 -1      3381 1.42288E-02 2.28999E-05-8.64850E-14
 -1      3382 1.41685E-02 5.46126E-05-8.66850E-14
 -1      3383 1.45075E-02-3.12423E-05-9.08803E-14
 -1      3384 1.34988E-02-3.16989E-04-8.42964E-14
 -1      3385 1.06741E-02 6.54241E-04-6.27158E-14
 -1      3386 1.11246E-02 8.98623E-04-6.57533E-14
 -1      3387 1.31608E-03-2.97356E-04-1.54211E-15
 -1      3388 1.38018E-03-2.73494E-04-1.70591E-15
 -1      3389 1.18784E-03-2.78834E-04-1.28944E-15
 -1      3390 1.44920E-02 7.73493E-05-9.17502E-14
 -1      3391 1.44280E-02 1.12290E-04-9.16387E-14
 -1      3392 1.42745E-02 1.40305E-04-9.02194E-14
 -1      3393 1.01839E-03 9.54903E-05-9.96287E-16
 -1      3394 1.13817E-03 8.85825E-05-1.21580E-15
 -1      3395 1.02086E-03 1.23268E-04-9.79265E-16
 -1      3396 1.18831E-02-1.08573E-03-7.39102E-14
 -1      3397 1.57475E-03 3.67351E-04-1.75248E-15
 -1      3398 1.43140E-03 3.51408E-04-1.46358E-15
 -1      3399 1.38747E-03 3.21074E-04-1.42608E-15
 -1      3400 1.45831E-02 2.19850E-05-9.19670E-14
 -1      3401 1.45451E-02 4.77188E-05-9.18596E-14
 -1      3402 1.44160E-02 6.41749E-05-9.04394E-14
 -1      3403 1.45021E-02 1.11691E-05-9.06515E-14
 -1      3404 1.41889E-02-2.70057E-04-9.26700E-14
 -1      3405 1.84291E-03 3.86629E-04-2.37534E-15
 -1      3406 1.69961E-03 3.75227E-04-2.03479E-15
 -1      3407 1.65599E-03 3.45035E-04-1.98981E-15
 -1      3408 1.90655E-03 3.55729E-04-2.61146E-15
 -1      3409 9.78504E-03 1.79044E-04-5.89311E-14
 -1      3410 1.40999E-02-2.62871E-04-9.12598E-14
 -1      3411 2.17563E-03 3.65696E-04-3.36241E-15
 -1      3412 1.30993E-02-5.24862E-04-8.26000E-14
 -1      3413 1.01426E-03-2.34450E-04-9.94715E-16
 -1      3414 1.42605E-02-4.51194E-07-8.63079E-14
 -1      3415 1.42441E-02-8.56087E-06-8.57752E-14
 -1      3416 1.42712E-02-1.58723E-05-8.65060E-14
 -1      3417 9.86401E-03-2.01177E-04-6.06108E-14
 -1      3418 9.72940E-03-1.62297E-04-5.97090E-14
 -1      3419 9.92624E-03-2.55178E-04-6.04524E-14
 -1      3420 1.02755E-02-4.11548E-04-6.24224E-14
 -1      3421 9.33006E-03 6.17817E-06-5.79912E-14
 -1      3422 9.34496E-03 1.54124E-05-5.78982E-14
 -1      3423 9.28998E-03 1.89787E-05-5.68697E-14
 -1      3424 9.55410E-03-9.55465E-05-5.89471E-14
 -1      3425 9.51581E-03-6.79390E-05-5.92194E-14
 -1      3426 9.42694E-03-5.62828E-05-5.83043E-14
 -1      3427 1.41781E-02-5.14983E-05-8.63177E-14
 -1      3428 1.41757E-02-7.33371E-05-8.72053E-14
 -1      3429 1.42453E-02-3.91992E-05-8.68544E-14
 -1      3430 1.05400E-02 5.29664E-04-6.25572E-14
 -1      3431 1.06318E-02 6.06503E-04-6.27492E-14
 -1      3432 1.04969E-02 5.71501E-04-6.14992E-14
 -1      3433 1.03985E-02 4.70843E-04-6.15672E-14
 -1      3434 1.01812E-03-9.30177E-05-1.05703E-15
 -1      3435 1.02050E-03-1.20737E-04-1.05788E-15
 -1      3436 9.33294E-03-1.07030E-05-5.81760E-14
 -1      3437 9.32633E-03-3.09256E-06-5.80833E-14
 -1      3438 9.27477E-03-1.32710E-06-5.70548E-14
 -1      3439 1.36603E-02 2.33843E-04-8.41582E-14
 -1      3440 1.28924E-02 6.34688E-04-8.01755E-14
 -1      3441 9.33286E-03-2.23171E-05-5.78601E-14
 -1      3442 1.02367E-03-1.49151E-04-1.05639E-15
 -1      3443 1.02772E-03-1.78385E-04-1.05234E-15
 -1      3444 1.14330E-03-1.45939E-04-1.27887E-15
 -1      3445 1.40367E-02-1.32038E-04-8.71548E-14
 -1      3446 1.38508E-02-1.94461E-04-8.63578E-14
 -1      3447 1.01341E-02-3.79006E-04-6.11959E-14
 -1      3448 1.00225E-02 3.14563E-04-5.92821E-14
 -1      3449 1.02232E-02 3.99565E-04-6.04038E-14
 -1      3450 2.15045E-03-2.93447E-04-3.78879E-15
 -1      3451 2.29481E-03-2.98341E-04-4.25853E-15
 -1      3452 2.43916E-03-3.02275E-04-4.75481E-15
 -1      3453 2.58349E-03-3.05345E-04-5.27714E-15
 -1      3454 2.36228E-03-2.63633E-04-4.50695E-15
 -1      3455 2.72776E-03-3.07715E-04-5.82443E-15
 -1      3456 2.87196E-03-3.09457E-04-6.39786E-15
 -1      3457 2.65156E-03-2.69280E-04-5.54882E-15
 -1      3458 3.01609E-03-3.10700E-04-6.99663E-15
 -1      3459 3.16014E-03-3.11495E-04-7.62097E-15
 -1      3460 2.94062E-03-2.72503E-04-6.69269E-15
 -1      3461 3.30410E-03-3.11942E-04-8.27057E-15
 -1      3462 3.44797E-03-3.12075E-04-8.94361E-15
 -1      3463 3.22934E-03-2.73991E-04-7.93839E-15
 -1      3464 3.59176E-03-3.11965E-04-9.64104E-15
 -1      3465 3.73545E-03-3.11637E-04-1.03623E-14
 -1      3466 3.51766E-03-2.74259E-04-9.28256E-15
 -1      3467 3.87907E-03-3.11138E-04-1.11067E-14
 -1      3468 4.02261E-03-3.10482E-04-1.18736E-14
 -1      3469 3.80555E-03-2.73677E-04-1.07207E-14
 -1      3470 4.16607E-03-3.09700E-04-1.26634E-14
 -1      3471 4.30944E-03-3.08798E-04-1.34760E-14
 -1      3472 4.09303E-03-2.72490E-04-1.22517E-14
 -1      3473 4.45275E-03-3.07793E-04-1.43087E-14
 -1      3474 4.59598E-03-3.06684E-04-1.51629E-14
 -1      3475 4.38010E-03-2.70847E-04-1.38707E-14
 -1      3476 4.73914E-03-3.05478E-04-1.60387E-14
 -1      3477 4.88222E-03-3.04170E-04-1.69357E-14
 -1      3478 4.66678E-03-2.68823E-04-1.55768E-14
 -1      3479 5.02523E-03-3.02759E-04-1.78535E-14
 -1      3480 5.16815E-03-3.01234E-04-1.87913E-14
 -1      3481 4.95306E-03-2.66432E-04-1.73663E-14
 -1      3482 5.31100E-03-2.99591E-04-1.97504E-14
 -1      3483 5.45375E-03-2.97816E-04-2.07293E-14
 -1      3484 5.23891E-03-2.63645E-04-1.92398E-14
 -1      3485 5.59641E-03-2.95903E-04-2.17265E-14
 -1      3486 5.73896E-03-2.93835E-04-2.27452E-14
 -1      3487 5.52429E-03-2.60401E-04-2.11941E-14
 -1      3488 5.88139E-03-2.91606E-04-2.37837E-14
 -1      3489 6.02370E-03-2.89199E-04-2.48397E-14
 -1      3490 5.80911E-03-2.56622E-04-2.32272E-14
 -1      3491 6.16586E-03-2.86610E-04-2.59155E-14
 -1      3492 6.30787E-03-2.83824E-04-2.70109E-14
 -1      3493 6.09326E-03-2.52224E-04-2.53385E-14
 -1      3494 6.44968E-03-2.80844E-04-2.81228E-14
 -1      3495 6.59131E-03-2.77655E-04-2.92513E-14
 -1      3496 6.37658E-03-2.47135E-04-2.75243E-14
 -1      3497 6.73271E-03-2.74276E-04-3.03959E-14
 -1      3498 6.87388E-03-2.70694E-04-3.15568E-14
 -1      3499 6.65887E-03-2.41312E-04-2.97786E-14
 -1      3500 7.01476E-03-2.66947E-04-3.27339E-14
 -1      3501 7.15537E-03-2.63030E-04-3.39261E-14
 -1      3502 6.93991E-03-2.34767E-04-3.20966E-14
 -1      3503 7.29564E-03-2.59004E-04-3.51340E-14
 -1      3504 7.43560E-03-2.54876E-04-3.63552E-14
 -1      3505 7.21941E-03-2.27593E-04-3.44769E-14
 -1      3506 7.57517E-03-2.50741E-04-3.75894E-14
 -1      3507 7.71441E-03-2.46621E-04-3.88372E-14
 -1      3508 7.49711E-03-2.19995E-04-3.69154E-14
 -1      3509 7.85324E-03-2.42647E-04-4.00972E-14
 -1      3510 7.99176E-03-2.38869E-04-4.13693E-14
 -1      3511 7.77275E-03-2.12327E-04-3.94066E-14
 -1      3512 8.12989E-03-2.35456E-04-4.26547E-14
 -1      3513 8.26781E-03-2.32502E-04-4.39530E-14
 -1      3514 8.04618E-03-2.05120E-04-4.19478E-14
 -1      3515 8.40548E-03-2.30204E-04-4.52595E-14
 -1      3516 8.54318E-03-2.28735E-04-4.65783E-14
 -1      3517 8.31745E-03-1.99109E-04-4.45388E-14
 -1      3518 8.68093E-03-2.28304E-04-4.79090E-14
 -1      3519 8.81921E-03-2.29233E-04-4.92479E-14
 -1      3520 8.58702E-03-1.95274E-04-4.71736E-14
 -1      3521 8.95815E-03-2.31708E-04-5.05965E-14
 -1      3522 9.09853E-03-2.36355E-04-5.19534E-14
 -1      3523 8.85612E-03-1.94923E-04-4.98491E-14
 -1      3524 9.24073E-03-2.43281E-04-5.33187E-14
 -1      3525 9.38593E-03-2.53871E-04-5.46896E-14
 -1      3526 9.12731E-03-1.99899E-04-5.25590E-14
 -1      3527 9.53467E-03-2.68164E-04-5.60684E-14
 -1      3528 9.68883E-03-2.88638E-04-5.74540E-14
 -1      3529 9.40568E-03-2.13708E-04-5.52997E-14
 -1      3530 1.32927E-02-4.57139E-04-8.41608E-14
 -1      3531 1.34775E-02-4.04996E-04-8.57288E-14
 -1      3532 1.36523E-02-3.62923E-04-8.73074E-14
 -1      3533 1.34748E-02-3.70292E-04-8.50817E-14
 -1      3534 1.38018E-02-3.21080E-04-8.84845E-14
 -1      3535 1.39621E-02-2.93568E-04-9.00747E-14
 -1      3536 1.40821E-02-2.26225E-04-9.01894E-14
 -1      3537 1.38012E-02-2.88489E-04-8.78296E-14
 -1      3538 1.42472E-02 2.26439E-04-9.15610E-14
 -1      3539 1.41892E-02 2.65732E-04-9.15349E-14
 -1      3540 1.40890E-02 2.85829E-04-9.05534E-14
 -1      3541 1.41576E-02 2.19620E-04-9.02556E-14
 -1      3542 3.96574E-03 3.48082E-04-1.07339E-14
 -1      3543 3.82239E-03 3.48652E-04-1.00054E-14
 -1      3544 4.82475E-03 3.42029E-04-1.55857E-14
 -1      3545 4.68171E-03 3.43313E-04-1.47218E-14
 -1      3546 5.11069E-03 3.39126E-04-1.73758E-14
 -1      3547 4.96774E-03 3.40636E-04-1.64700E-14
 -1      3548 4.89551E-03 3.04249E-04-1.61165E-14
 -1      3549 5.39641E-03 3.35726E-04-1.92503E-14
 -1      3550 5.25357E-03 3.37494E-04-1.83026E-14
 -1      3551 5.18143E-03 3.01448E-04-1.79298E-14
 -1      3552 5.68190E-03 3.31743E-04-2.12076E-14
 -1      3553 5.53918E-03 3.33814E-04-2.02187E-14
 -1      3554 5.46701E-03 2.98166E-04-1.98274E-14
 -1      3555 5.96709E-03 3.27081E-04-2.32406E-14
 -1      3556 5.82453E-03 3.29504E-04-2.22144E-14
 -1      3557 5.75218E-03 2.94320E-04-2.18043E-14
 -1      3558 6.25194E-03 3.21648E-04-2.53485E-14
 -1      3559 6.10956E-03 3.24467E-04-2.42850E-14
 -1      3560 6.03686E-03 2.89819E-04-2.38595E-14
 -1      3561 6.53634E-03 3.15381E-04-2.75264E-14
 -1      3562 6.39419E-03 3.18623E-04-2.64295E-14
 -1      3563 6.32095E-03 2.84581E-04-2.59872E-14
 -1      3564 6.82020E-03 3.08270E-04-2.97675E-14
 -1      3565 6.67833E-03 3.11932E-04-2.86396E-14
 -1      3566 6.60430E-03 2.78552E-04-2.81826E-14
 -1      3567 7.10341E-03 3.00400E-04-3.20746E-14
 -1      3568 6.96188E-03 3.04426E-04-3.09127E-14
 -1      3569 6.88675E-03 2.71736E-04-3.04425E-14
 -1      3570 7.38587E-03 2.91988E-04-3.44440E-14
 -1      3571 7.24472E-03 2.96249E-04-3.32515E-14
 -1      3572 7.16811E-03 2.64221E-04-3.27662E-14
 -1      3573 7.66752E-03 2.83444E-04-3.68693E-14
 -1      3574 7.52678E-03 2.87707E-04-3.56497E-14
 -1      3575 7.44819E-03 2.56224E-04-3.51523E-14
 -1      3576 7.94844E-03 2.75427E-04-3.93512E-14
 -1      3577 7.80804E-03 2.79326E-04-3.81037E-14
 -1      3578 7.72687E-03 2.48129E-04-3.75947E-14
 -1      3579 8.22890E-03 2.68925E-04-4.18821E-14
 -1      3580 8.08867E-03 2.71918E-04-4.06102E-14
 -1      3581 8.00412E-03 2.40538E-04-4.00891E-14
 -1      3582 8.50962E-03 2.65342E-04-4.44621E-14
 -1      3583 8.36913E-03 2.66661E-04-4.31676E-14
 -1      3584 8.28017E-03 2.34319E-04-4.26341E-14
 -1      3585 8.79203E-03 2.66632E-04-4.70861E-14
 -1      3586 8.65045E-03 2.65209E-04-4.57688E-14
 -1      3587 8.55569E-03 2.30680E-04-4.52264E-14
 -1      3588 9.07870E-03 2.75531E-04-4.97511E-14
 -1      3589 8.93457E-03 2.69847E-04-4.84133E-14
 -1      3590 8.83213E-03 2.31278E-04-4.78613E-14
 -1      3591 9.37397E-03 2.96082E-04-5.24587E-14
 -1      3592 9.22487E-03 2.83877E-04-5.10995E-14
 -1      3593 9.11227E-03 2.38521E-04-5.05373E-14
 -1      3594 9.68436E-03 3.34819E-04-5.52118E-14
 -1      3595 9.52677E-03 3.12348E-04-5.38291E-14
 -1      3596 9.40097E-03 2.56181E-04-5.32566E-14
 -1      3597 1.03250E-02 4.98832E-04-6.03348E-14
 -1      3598 1.01412E-02 4.40428E-04-5.89096E-14
 -1      3599 1.17441E-02 1.09465E-03-7.09061E-14
 -1      3600 1.15760E-02 1.07914E-03-6.94027E-14
 -1      3601 9.30887E-03 4.91946E-05-5.62028E-14
 -1      3602 9.38589E-03 6.85015E-05-5.66389E-14
 -1      3603 1.36712E-02-2.77472E-04-8.58660E-14
 -1      3604 1.39908E-02 1.34505E-04-8.64159E-14
 -1      3605 1.40917E-02 9.91817E-05-8.68760E-14
 -1      3606 2.24127E-03 3.31997E-04-3.63547E-15
 -1      3607 2.09722E-03 3.26207E-04-3.21096E-15
 -1      3608 9.66385E-03 1.60069E-04-5.78200E-14
 -1      3609 9.79204E-03 2.15409E-04-5.82349E-14
 -1      3610 1.40966E-02-1.88819E-04-8.95024E-14
 -1      3611 1.41844E-02-1.39692E-04-8.94163E-14
 -1      3612 2.81712E-03 3.45469E-04-5.59405E-15
 -1      3613 2.67325E-03 3.43290E-04-5.06598E-15
 -1      3614 1.43042E-02-8.63639E-05-8.94626E-14
 -1      3615 1.43636E-02-5.62509E-05-8.93708E-14
 -1      3616 3.67897E-03 3.49045E-04-9.30030E-15
 -1      3617 3.53550E-03 3.49243E-04-8.61927E-15
 -1      3618 3.74871E-03 3.11211E-04-9.73017E-15
 -1      3619 1.36032E-02 2.96904E-04-8.46006E-14
 -1      3620 1.38032E-02 2.06457E-04-8.55079E-14
 -1      3621 1.39383E-02 1.87907E-04-8.68623E-14
 -1      3622 1.15561E-02 1.04858E-03-6.93875E-14
 -1      3623 4.53861E-03 3.44489E-04-1.38792E-14
 -1      3624 4.39547E-03 3.45562E-04-1.30588E-14
 -1      3625 4.60927E-03 3.06629E-04-1.43876E-14
 -1      3626 1.01532E-03-3.89456E-05-1.04953E-15
 -1      3627 1.01640E-03-6.57925E-05-1.05429E-15
 -1      3628 1.13793E-03-8.60044E-05-1.27695E-15
 -1      3629 2.52930E-03 3.40391E-04-4.56289E-15
 -1      3630 2.38531E-03 3.36689E-04-4.08609E-15
 -1      3631 2.59659E-03 3.04705E-04-4.87326E-15
 -1      3632 1.07917E-03-2.16834E-04-1.12561E-15
 -1      3633 4.25228E-03 3.46522E-04-1.22614E-14
 -1      3634 4.10904E-03 3.47369E-04-1.14860E-14
 -1      3635 4.03588E-03 3.10171E-04-1.11918E-14
 -1      3636 4.32273E-03 3.08613E-04-1.27448E-14
 -1      3637 1.86190E-03-2.80065E-04-2.92850E-15
 -1      3638 2.00613E-03-2.87395E-04-3.34556E-15
 -1      3639 2.07305E-03-2.54679E-04-3.56907E-15
 -1      3640 1.16759E-02 1.07081E-03-7.04098E-14
 -1      3641 1.30816E-02 5.56691E-04-8.16471E-14
 -1      3642 1.34432E-03 2.91480E-04-1.38634E-15
 -1      3643 1.30197E-03 2.62621E-04-1.34497E-15
 -1      3644 1.48765E-03 3.07278E-04-1.66800E-15
 -1      3645 1.57406E-03-2.60773E-04-2.17551E-15
 -1      3646 1.71785E-03-2.71237E-04-2.53846E-15
 -1      3647 1.78429E-03-2.41329E-04-2.73670E-15
 -1      3648 1.44009E-02-3.10145E-05-8.92503E-14
 -1      3649 9.34285E-03-3.73788E-05-5.75937E-14
 -1      3650 9.27649E-03-2.38324E-05-5.68823E-14
 -1      3651 9.35954E-03-5.61499E-05-5.73253E-14
 -1      3652 9.46772E-03 9.12895E-05-5.70656E-14
 -1      3653 9.56060E-03 1.19180E-04-5.74910E-14
 -1      3654 9.38549E-03 9.04708E-05-5.60521E-14
 -1      3655 1.32883E-02 4.49871E-04-8.28848E-14
 -1      3656 1.34710E-02 3.95838E-04-8.44345E-14
 -1      3657 1.36267E-02 3.56569E-04-8.57855E-14
 -1      3658 1.29522E-03 2.27754E-04-1.38014E-15
 -1      3659 1.26116E-03 1.10574E-04-1.43752E-15
 -1      3660 1.25897E-03 7.90898E-05-1.45733E-15
 -1      3661 1.00178E-02-3.67605E-04-6.00818E-14
 -1      3662 9.96568E-03-3.02058E-04-6.02402E-14
 -1      3663 9.88165E-03 2.81144E-04-5.81663E-14
 -1      3664 1.39625E-02-2.13874E-04-8.83245E-14
 -1      3665 9.84782E-03-3.29656E-04-5.86793E-14
 -1      3666 9.56471E-03 1.52322E-04-5.68017E-14
 -1      3667 1.41850E-02 7.84185E-05-8.75858E-14
 -1      3668 1.13544E-03-2.77063E-05-1.26540E-15
 -1      3669 1.25876E-03-7.63581E-05-1.51611E-15
 -1      3670 1.26086E-03-1.07817E-04-1.52019E-15
 -1      3671 1.00187E-02 4.01979E-04-5.80138E-14
 -1      3672 9.84813E-03 3.63471E-04-5.66064E-14
 -1      3673 1.19877E-03-2.16003E-04-1.35857E-15
 -1      3674 1.38210E-02-2.45032E-04-8.71489E-14
 -1      3675 1.37940E-02 3.20573E-04-8.73434E-14
 -1      3676 3.39196E-03 3.49191E-04-7.96360E-15
 -1      3677 3.24836E-03 3.48858E-04-7.33333E-15
 -1      3678 3.46119E-03 3.11549E-04-8.36484E-15
 -1      3679 1.14377E-03 1.48738E-04-1.17620E-15
 -1      3680 2.01914E-03 2.86974E-04-3.05849E-15
 -1      3681 1.95319E-03 3.19084E-04-2.81288E-15
 -1      3682 1.44015E-02-8.61447E-06-8.88938E-14
 -1      3683 1.43837E-02 1.25326E-05-8.87933E-14
 -1      3684 9.20381E-03-2.57733E-05-5.56918E-14
 -1      3685 9.21132E-03-1.23555E-05-5.59542E-14
 -1      3686 1.82745E-03 3.15685E-04-2.47914E-15
 -1      3687 1.39868E-02 3.07165E-04-8.95711E-14
 -1      3688 1.42890E-02 1.32360E-05-8.72188E-14
 -1      3689 9.82747E-03-2.54073E-04-5.93420E-14
 -1      3690 3.10468E-03 3.48168E-04-6.72814E-15
 -1      3691 2.96094E-03 3.47074E-04-6.14771E-15
 -1      3692 3.17333E-03 3.10893E-04-7.09944E-15
 -1      3693 9.60977E-03-1.32874E-04-5.87939E-14
 -1      3694 9.50017E-03-1.11985E-04-5.78814E-14
 -1      3695 9.66274E-03-1.75740E-04-5.86385E-14
 -1      3696 1.38506E-03-1.30946E-04-1.78430E-15
 -1      3697 1.26380E-03-1.39744E-04-1.52179E-15
 -1      3698 1.26761E-03-1.72262E-04-1.52034E-15
 -1      3699 1.42326E-02 1.10507E-04-8.90494E-14
 -1      3700 1.41481E-02 1.57112E-04-8.89391E-14
 -1      3701 1.25752E-03 4.77982E-05-1.47418E-15
 -1      3702 1.25678E-03 1.67230E-05-1.48812E-15
 -1      3703 1.38069E-03 6.71043E-05-1.72021E-15
 -1      3704 1.39388E-02 2.58971E-04-8.81715E-14
 -1      3705 2.88511E-03 3.08813E-04-5.93528E-15
 -1      3706 9.20583E-03-2.38973E-06-5.58623E-14
 -1      3707 1.44709E-03-2.24678E-04-1.89265E-15
 -1      3708 1.51390E-03-1.98216E-04-2.06358E-15
 -1      3709 9.70011E-03-2.58018E-04-5.79023E-14
 -1      3710 2.30786E-03 2.97768E-04-3.91398E-15
 -1      3711 9.98634E-03 3.50794E-04-5.83144E-14
 -1      3712 9.70633E-03 2.91523E-04-5.60221E-14
 -1      3713 1.31903E-03-2.12001E-04-1.61215E-15
 -1      3714 1.26424E-03 1.42700E-04-1.41514E-15
 -1      3715 1.38548E-03 1.34032E-04-1.67595E-15
 -1      3716 1.26819E-03 1.75438E-04-1.38924E-15
 -1      3717 9.13012E-03-2.44784E-06-5.46758E-14
 -1      3718 9.20725E-03 8.62322E-06-5.57690E-14
 -1      3719 9.21606E-03 1.95824E-05-5.56766E-14
 -1      3720 2.37539E-03 2.62998E-04-4.19704E-15
 -1      3721 2.23072E-03 2.59056E-04-3.74077E-15
 -1      3722 2.57553E-03-2.30909E-04-5.27693E-15
 -1      3723 2.72040E-03-2.32822E-04-5.82189E-15
 -1      3724 2.86521E-03-2.34257E-04-6.39289E-15
 -1      3725 3.00994E-03-2.35260E-04-6.98920E-15
 -1      3726 2.78994E-03-1.96026E-04-6.09647E-15
 -1      3727 3.15457E-03-2.35924E-04-7.61029E-15
 -1      3728 3.29909E-03-2.36282E-04-8.25705E-15
 -1      3729 3.07986E-03-1.97786E-04-7.28608E-15
 -1      3730 3.44350E-03-2.36403E-04-8.92679E-15
 -1      3731 3.58778E-03-2.36309E-04-9.62013E-15
 -1      3732 3.36934E-03-1.98424E-04-8.57460E-15
 -1      3733 3.73195E-03-2.36051E-04-1.03382E-14
 -1      3734 3.87599E-03-2.35640E-04-1.10786E-14
 -1      3735 3.65831E-03-1.98276E-04-9.95846E-15
 -1      3736 4.01990E-03-2.35112E-04-1.18420E-14
 -1      3737 4.16370E-03-2.34471E-04-1.26286E-14
 -1      3738 3.94673E-03-1.97573E-04-1.14366E-14
 -1      3739 4.30737E-03-2.33740E-04-1.34373E-14
 -1      3740 4.45092E-03-2.32917E-04-1.42668E-14
 -1      3741 4.23459E-03-1.96468E-04-1.30053E-14
 -1      3742 4.59436E-03-2.32015E-04-1.51174E-14
 -1      3743 4.73767E-03-2.31028E-04-1.59900E-14
 -1      3744 4.52189E-03-1.95045E-04-1.46621E-14
 -1      3745 4.88085E-03-2.29963E-04-1.68834E-14
 -1      3746 5.02391E-03-2.28810E-04-1.77978E-14
 -1      3747 4.80863E-03-1.93337E-04-1.64034E-14
 -1      3748 5.16683E-03-2.27568E-04-1.87327E-14
 -1      3749 5.30962E-03-2.26226E-04-1.96887E-14
 -1      3750 5.09478E-03-1.91338E-04-1.82285E-14
 -1      3751 5.45224E-03-2.24782E-04-2.06640E-14
 -1      3752 5.59470E-03-2.23220E-04-2.16590E-14
 -1      3753 5.38028E-03-1.89013E-04-2.01362E-14
 -1      3754 5.73698E-03-2.21538E-04-2.26745E-14
 -1      3755 5.87907E-03-2.19718E-04-2.37094E-14
 -1      3756 5.66502E-03-1.86308E-04-2.21246E-14
 -1      3757 6.02093E-03-2.17761E-04-2.47641E-14
 -1      3758 6.16255E-03-2.15647E-04-2.58376E-14
 -1      3759 5.94887E-03-1.83159E-04-2.41917E-14
 -1      3760 6.30390E-03-2.13383E-04-2.69277E-14
 -1      3761 6.44495E-03-2.10947E-04-2.80367E-14
 -1      3762 6.23163E-03-1.79505E-04-2.63344E-14
 -1      3763 6.58566E-03-2.08355E-04-2.91631E-14
 -1      3764 6.72602E-03-2.05586E-04-3.03043E-14
 -1      3765 6.51305E-03-1.75296E-04-2.85480E-14
 -1      3766 6.86594E-03-2.02670E-04-3.14619E-14
 -1      3767 7.00543E-03-1.99584E-04-3.26348E-14
 -1      3768 6.79282E-03-1.70513E-04-3.08292E-14
 -1      3769 7.14441E-03-1.96380E-04-3.38231E-14
 -1      3770 7.28286E-03-1.93035E-04-3.50262E-14
 -1      3771 7.07056E-03-1.65181E-04-3.31727E-14
 -1      3772 7.42070E-03-1.89623E-04-3.62436E-14
 -1      3773 7.55792E-03-1.86127E-04-3.74744E-14
 -1      3774 7.34584E-03-1.59387E-04-3.55734E-14
 -1      3775 7.69443E-03-1.82647E-04-3.87176E-14
 -1      3776 7.83026E-03-1.79168E-04-3.99738E-14
 -1      3777 7.61819E-03-1.53297E-04-3.80313E-14
 -1      3778 7.96528E-03-1.75821E-04-4.12443E-14
 -1      3779 8.09958E-03-1.72598E-04-4.25262E-14
 -1      3780 7.88713E-03-1.47164E-04-4.05416E-14
 -1      3781 8.23301E-03-1.69656E-04-4.38195E-14
 -1      3782 8.36575E-03-1.66997E-04-4.51243E-14
 -1      3783 8.15219E-03-1.41323E-04-4.31019E-14
 -1      3784 8.49764E-03-1.64794E-04-4.64399E-14
 -1      3785 8.62899E-03-1.63086E-04-4.77661E-14
 -1      3786 8.41298E-03-1.36179E-04-4.57085E-14
 -1      3787 8.75964E-03-1.62039E-04-4.91035E-14
 -1      3788 8.89019E-03-1.61801E-04-5.04482E-14
 -1      3789 8.66934E-03-1.32175E-04-4.83574E-14
 -1      3790 9.02037E-03-1.62513E-04-5.18003E-14
 -1      3791 9.15137E-03-1.64491E-04-5.31621E-14
 -1      3792 8.92159E-03-1.29802E-04-5.10447E-14
 -1      3793 1.72010E-03 3.16134E-04-2.20265E-15
 -1      3794 1.59464E-03 3.09818E-04-1.90909E-15
 -1      3795 1.55221E-03 2.80593E-04-1.85973E-15
 -1      3796 1.76714E-03 2.81289E-04-2.38375E-15
 -1      3797 1.25674E-03-1.41892E-05-1.50001E-15
 -1      3798 1.25739E-03-4.51860E-05-1.50949E-15
 -1      3799 1.38052E-03-6.43409E-05-1.77431E-15
 -1      3800 1.37910E-03 1.32578E-06-1.75280E-15
 -1      3801 5.53747E-03 2.60806E-04-2.04053E-14
 -1      3802 5.39486E-03 2.62421E-04-1.94349E-14
 -1      3803 5.25212E-03 2.63909E-04-1.84863E-14
 -1      3804 5.10926E-03 2.65286E-04-1.75577E-14
 -1      3805 5.32276E-03 2.26545E-04-1.90437E-14
 -1      3806 4.96629E-03 2.66555E-04-1.66495E-14
 -1      3807 4.82321E-03 2.67729E-04-1.57629E-14
 -1      3808 5.03709E-03 2.28984E-04-1.71848E-14
 -1      3809 5.82224E-03 2.57169E-04-2.24047E-14
 -1      3810 5.67993E-03 2.59062E-04-2.13961E-14
 -1      3811 5.60781E-03 2.23684E-04-2.09856E-14
 -1      3812 6.10633E-03 2.52914E-04-2.44803E-14
 -1      3813 5.96438E-03 2.55126E-04-2.34336E-14
 -1      3814 5.89211E-03 2.20329E-04-2.30072E-14
 -1      3815 6.38956E-03 2.47968E-04-2.66275E-14
 -1      3816 6.24806E-03 2.50534E-04-2.55447E-14
 -1      3817 6.17552E-03 2.16405E-04-2.51032E-14
 -1      3818 6.67176E-03 2.42290E-04-2.88401E-14
 -1      3819 6.53080E-03 2.45227E-04-2.77255E-14
 -1      3820 6.45782E-03 2.11852E-04-2.72687E-14
 -1      3821 6.95267E-03 2.35891E-04-3.11185E-14
 -1      3822 6.81238E-03 2.39184E-04-2.99720E-14
 -1      3823 6.73877E-03 2.06638E-04-2.95014E-14
 -1      3824 7.23204E-03 2.28864E-04-3.34611E-14
 -1      3825 7.09255E-03 2.32456E-04-3.22818E-14
 -1      3826 7.01805E-03 2.00780E-04-3.17974E-14
 -1      3827 7.50960E-03 2.21411E-04-3.58622E-14
 -1      3828 7.37105E-03 2.25184E-04-3.46539E-14
 -1      3829 7.29532E-03 1.94368E-04-3.41560E-14
 -1      3830 7.78512E-03 2.13879E-04-3.83208E-14
 -1      3831 7.64761E-03 2.17640E-04-3.70845E-14
 -1      3832 7.57023E-03 1.87582E-04-3.65748E-14
 -1      3833 8.05847E-03 2.06789E-04-4.08289E-14
 -1      3834 7.92204E-03 2.10254E-04-3.95689E-14
 -1      3835 7.84243E-03 1.80720E-04-3.90480E-14
 -1      3836 8.32975E-03 2.00866E-04-4.33872E-14
 -1      3837 8.19431E-03 2.03641E-04-4.21014E-14
 -1      3838 8.11166E-03 1.74199E-04-4.15703E-14
 -1      3839 8.59953E-03 1.97085E-04-4.59916E-14
 -1      3840 8.46472E-03 1.98638E-04-4.46847E-14
 -1      3841 8.37785E-03 1.68569E-04-4.41414E-14
 -1      3842 8.86912E-03 1.96775E-04-4.86369E-14
 -1      3843 8.73414E-03 1.96380E-04-4.73082E-14
 -1      3844 8.64129E-03 1.64537E-04-4.67575E-14
 -1      3845 9.14119E-03 2.01879E-04-5.13244E-14
 -1      3846 9.00448E-03 1.98410E-04-4.99750E-14
 -1      3847 8.90300E-03 1.62979E-04-4.94135E-14
 -1      3848 9.42079E-03 2.15956E-04-5.40561E-14
 -1      3849 9.27945E-03 2.07384E-04-5.26853E-14
 -1      3850 9.16527E-03 1.65386E-04-5.21137E-14
 -1      3851 1.02776E-02 4.50231E-04-6.03698E-14
 -1      3852 1.99620E-03-2.16429E-04-3.35325E-15
 -1      3853 2.14091E-03-2.21269E-04-3.79498E-15
 -1      3854 2.28573E-03-2.25233E-04-4.26291E-15
 -1      3855 2.43063E-03-2.28400E-04-4.75699E-15
 -1      3856 2.20962E-03-1.87195E-04-4.02300E-15
 -1      3857 9.21051E-03-4.75585E-05-5.54519E-14
 -1      3858 9.13039E-03-3.40960E-05-5.45313E-14
 -1      3859 1.42964E-02-2.99849E-05-8.73916E-14
 -1      3860 2.08611E-03 2.54162E-04-3.31002E-15
 -1      3861 1.94161E-03 2.48226E-04-2.90554E-15
 -1      3862 2.15398E-03 2.20681E-04-3.56698E-15
 -1      3863 1.43560E-02 3.72545E-05-8.89671E-14
 -1      3864 1.52646E-03-1.61906E-04-2.10549E-15
 -1      3865 1.65210E-03-1.94691E-04-2.40751E-15
 -1      3866 1.41346E-02-1.06338E-04-8.76940E-14
 -1      3867 9.10589E-03 2.38156E-05-5.40174E-14
 -1      3868 9.20206E-03 3.54155E-05-5.51073E-14
 -1      3869 9.19204E-03 5.34072E-05-5.45370E-14
 -1      3870 9.05030E-03-8.94689E-06-5.35413E-14
 -1      3871 9.04721E-03 2.82990E-06-5.34487E-14
 -1      3872 2.95379E-03 2.71839E-04-6.28096E-15
 -1      3873 2.80928E-03 2.70477E-04-5.72201E-15
 -1      3874 9.39011E-03 1.42531E-04-5.49733E-14
 -1      3875 9.47811E-03 1.78262E-04-5.52933E-14
 -1      3876 1.41578E-03 2.22020E-04-1.64067E-15
 -1      3877 9.67141E-03-2.16655E-04-5.81125E-14
 -1      3878 1.42931E-02 6.91728E-05-8.88616E-14
 -1      3879 1.52302E-03-1.26419E-04-2.10333E-15
 -1      3880 4.68003E-03 2.68807E-04-1.48972E-14
 -1      3881 4.53674E-03 2.69797E-04-1.40524E-14
 -1      3882 4.75086E-03 2.31060E-04-1.54090E-14
 -1      3883 2.66470E-03 2.68602E-04-5.18825E-15
 -1      3884 2.52006E-03 2.66154E-04-4.67967E-15
 -1      3885 2.73354E-03 2.32135E-04-5.50771E-15
 -1      3886 3.81878E-03 2.73269E-04-1.01636E-14
 -1      3887 3.67489E-03 2.73595E-04-9.45432E-15
 -1      3888 9.55108E-03-1.87266E-04-5.72047E-14
 -1      3889 9.38798E-03-8.57869E-05-5.70177E-14
 -1      3890 9.29650E-03-6.35827E-05-5.63115E-14
 -1      3891 9.22097E-03-7.32093E-05-5.51481E-14
 -1      3892 9.42624E-03-1.17608E-04-5.68655E-14
 -1      3893 9.24485E-03 8.19418E-05-5.45468E-14
 -1      3894 9.31950E-03 1.02718E-04-5.49669E-14
 -1      3895 9.23401E-03 1.29254E-04-5.34765E-14
 -1      3896 9.12536E-03 6.52234E-05-5.34625E-14
 -1      3897 1.39801E-02 2.20580E-04-8.80236E-14
 -1      3898 1.79612E-03-2.01975E-04-2.78652E-15
 -1      3899 2.44373E-03 2.27732E-04-4.48599E-15
 -1      3900 9.18780E-03-1.11098E-04-5.41963E-14
 -1      3901 9.29923E-03-1.47532E-04-5.49659E-14
 -1      3902 1.78372E-03 2.45351E-04-2.48510E-15
 -1      3903 1.67585E-03 2.46583E-04-2.20955E-15
 -1      3904 9.42877E-03-1.52806E-04-5.63451E-14
 -1      3905 2.49976E-03-1.92690E-04-5.00838E-15
 -1      3906 9.61456E-03 2.33827E-04-5.58772E-14
 -1      3907 1.86449E-03-1.70774E-04-2.98493E-15
 -1      3908 4.10627E-03 2.72205E-04-1.16515E-14
 -1      3909 3.96258E-03 2.72802E-04-1.08960E-14
 -1      3910 3.88919E-03 2.35269E-04-1.05997E-14
 -1      3911 4.46413E-03 2.32808E-04-1.37178E-14
 -1      3912 4.39335E-03 2.70694E-04-1.32301E-14
 -1      3913 4.24986E-03 2.71501E-04-1.24301E-14
 -1      3914 3.53088E-03 2.73742E-04-8.77042E-15
 -1      3915 3.38676E-03 2.73691E-04-8.11054E-15
 -1      3916 3.60098E-03 2.35822E-04-9.17886E-15
 -1      3917 1.85101E-03 2.14594E-04-2.70853E-15
 -1      3918 9.01681E-03 1.75306E-05-5.28865E-14
 -1      3919 1.51879E-03-5.64275E-05-2.08915E-15
 -1      3920 1.52047E-03-9.12792E-05-2.09789E-15
 -1      3921 1.66172E-03-1.19956E-04-2.44671E-15
 -1      3922 9.03813E-03-2.92179E-05-5.33066E-14
 -1      3923 1.50495E-03 8.78916E-05-1.98370E-15
 -1      3924 1.50330E-03 5.31288E-05-2.00523E-15
 -1      3925 3.24254E-03 2.73385E-04-7.47498E-15
 -1      3926 3.09822E-03 2.72794E-04-6.86514E-15
 -1      3927 3.31228E-03 2.35698E-04-7.85504E-15
 -1      3928 3.02310E-03 2.34606E-04-6.63087E-15
 -1      3929 1.53654E-03 1.53961E-04-1.99486E-15
 -1      3930 1.65899E-03 1.41472E-04-2.30304E-15
 -1      3931 9.09219E-03-9.15623E-05-5.33460E-14
 -1      3932 5.39335E-03 1.89389E-04-1.96033E-14
 -1      3933 5.25071E-03 1.90522E-04-1.86526E-14
 -1      3934 9.76818E-03 2.55082E-04-5.72761E-14
 -1      3935 1.52305E-03 2.23317E-04-1.87880E-15
 -1      3936 1.54073E-03 1.90052E-04-1.96304E-15
 -1      3937 3.00530E-03-1.59631E-04-6.96486E-15
 -1      3938 3.15035E-03-1.60095E-04-7.58336E-15
 -1      3939 3.29527E-03-1.60358E-04-8.22621E-15
 -1      3940 3.44006E-03-1.60435E-04-8.89237E-15
 -1      3941 3.22135E-03-1.22243E-04-7.88088E-15
 -1      3942 3.58471E-03-1.60372E-04-9.58322E-15
 -1      3943 3.72921E-03-1.60177E-04-1.02975E-14
 -1      3944 3.51120E-03-1.22365E-04-9.21138E-15
 -1      3945 3.87356E-03-1.59884E-04-1.10342E-14
 -1      3946 4.01775E-03-1.59495E-04-1.17939E-14
 -1      3947 3.80044E-03-1.22059E-04-1.06356E-14
 -1      3948 4.16180E-03-1.59036E-04-1.25771E-14
 -1      3949 4.30569E-03-1.58502E-04-1.33827E-14
 -1      3950 4.08904E-03-1.21449E-04-1.21520E-14
 -1      3951 4.44942E-03-1.57911E-04-1.42088E-14
 -1      3952 4.59300E-03-1.57254E-04-1.50560E-14
 -1      3953 4.37698E-03-1.20611E-04-1.37580E-14
 -1      3954 4.73642E-03-1.56545E-04-1.59254E-14
 -1      3955 4.87968E-03-1.55771E-04-1.68157E-14
 -1      3956 4.66424E-03-1.19579E-04-1.54509E-14
 -1      3957 5.02277E-03-1.54941E-04-1.77268E-14
 -1      3958 5.16568E-03-1.54042E-04-1.86588E-14
 -1      3959 4.95080E-03-1.18364E-04-1.72280E-14
 -1      3960 5.30839E-03-1.53077E-04-1.96113E-14
 -1      3961 5.45091E-03-1.52033E-04-2.05836E-14
 -1      3962 5.23660E-03-1.16952E-04-1.90880E-14
 -1      3963 5.59321E-03-1.50911E-04-2.15756E-14
 -1      3964 5.73527E-03-1.49696E-04-2.25886E-14
 -1      3965 5.52154E-03-1.15314E-04-2.10299E-14
 -1      3966 5.87706E-03-1.48392E-04-2.36208E-14
 -1      3967 6.01856E-03-1.46979E-04-2.46729E-14
 -1      3968 5.80547E-03-1.13412E-04-2.30526E-14
 -1      3969 6.15974E-03-1.45467E-04-2.57429E-14
 -1      3970 6.30057E-03-1.43832E-04-2.68297E-14
 -1      3971 6.08819E-03-1.11204E-04-2.51520E-14
 -1      3972 6.44099E-03-1.42091E-04-2.79358E-14
 -1      3973 6.58099E-03-1.40218E-04-2.90586E-14
 -1      3974 6.36943E-03-1.08653E-04-2.73256E-14
 -1      3975 6.72048E-03-1.38240E-04-3.01975E-14
 -1      3976 6.85944E-03-1.36127E-04-3.13523E-14
 -1      3977 6.64885E-03-1.05736E-04-2.95675E-14
 -1      3978 6.99779E-03-1.33922E-04-3.25229E-14
 -1      3979 7.13550E-03-1.31588E-04-3.37073E-14
 -1      3980 6.92601E-03-1.02450E-04-3.18740E-14
 -1      3981 7.27246E-03-1.29187E-04-3.49050E-14
 -1      3982 7.40865E-03-1.26678E-04-3.61190E-14
 -1      3983 7.20041E-03-9.88217E-05-3.42390E-14
 -1      3984 7.54394E-03-1.24145E-04-3.73473E-14
 -1      3985 7.67831E-03-1.21536E-04-3.85865E-14
 -1      3986 7.47148E-03-9.49189E-05-3.66625E-14
 -1      3987 7.81162E-03-1.18962E-04-3.98397E-14
 -1      3988 7.94386E-03-1.16355E-04-4.11072E-14
 -1      3989 7.73851E-03-9.08475E-05-3.91412E-14
 -1      3990 8.07485E-03-1.13855E-04-4.23865E-14
 -1      3991 8.20461E-03-1.11371E-04-4.36773E-14
 -1      3992 8.00073E-03-8.67444E-05-4.16702E-14
 -1      3993 8.33294E-03-1.09072E-04-4.49778E-14
 -1      3994 8.45989E-03-1.06830E-04-4.62898E-14
 -1      3995 8.25723E-03-8.27491E-05-4.42488E-14
 -1      3996 8.58516E-03-1.04836E-04-4.76147E-14
 -1      3997 8.70899E-03-1.02927E-04-4.89472E-14
 -1      3998 8.50693E-03-7.89778E-05-4.68719E-14
 -1      3999 8.83083E-03-1.01329E-04-5.02894E-14
 -1      4000 8.95121E-03-9.97925E-05-5.16387E-14
 -1      4001 8.74847E-03-7.54188E-05-4.95340E-14
 -1      4002 5.67805E-03 1.86835E-04-2.15687E-14
 -1      4003 5.53580E-03 1.88166E-04-2.05758E-14
 -1      4004 5.46392E-03 1.52472E-04-2.01661E-14
 -1      4005 2.71493E-03-1.57891E-04-5.80327E-15
 -1      4006 2.86015E-03-1.58904E-04-6.37141E-15
 -1      4007 2.93097E-03-1.21514E-04-6.64727E-15
 -1      4008 5.10790E-03 1.91564E-04-1.77223E-14
 -1      4009 4.96491E-03 1.92529E-04-1.68121E-14
 -1      4010 5.17873E-03 1.54326E-04-1.82611E-14
 -1      4011 6.24451E-03 1.80337E-04-2.57277E-14
 -1      4012 6.10332E-03 1.82159E-04-2.46602E-14
 -1      4013 6.52583E-03 1.76280E-04-2.79122E-14
 -1      4014 6.38536E-03 1.78386E-04-2.68116E-14
 -1      4015 6.31336E-03 1.44742E-04-2.63543E-14
 -1      4016 6.80548E-03 1.71645E-04-3.01631E-14
 -1      4017 6.66588E-03 1.74042E-04-2.90295E-14
 -1      4018 6.59366E-03 1.41283E-04-2.85581E-14
 -1      4019 7.08308E-03 1.66453E-04-3.24787E-14
 -1      4020 6.94455E-03 1.69126E-04-3.13135E-14
 -1      4021 6.87199E-03 1.37341E-04-3.08281E-14
 -1      4022 7.35821E-03 1.60785E-04-3.48541E-14
 -1      4023 7.22097E-03 1.63684E-04-3.36585E-14
 -1      4024 7.14789E-03 1.32937E-04-3.31609E-14
 -1      4025 7.63042E-03 1.54795E-04-3.72872E-14
 -1      4026 7.49470E-03 1.57834E-04-3.60630E-14
 -1      4027 7.42087E-03 1.28138E-04-3.55528E-14
 -1      4028 7.89923E-03 1.48719E-04-3.97751E-14
 -1      4029 7.76526E-03 1.51771E-04-3.85251E-14
 -1      4030 7.69036E-03 1.23066E-04-3.80013E-14
 -1      4031 8.16420E-03 1.42870E-04-4.23117E-14
 -1      4032 8.03219E-03 1.45769E-04-4.10378E-14
 -1      4033 7.95574E-03 1.17893E-04-4.05039E-14
 -1      4034 8.42501E-03 1.37619E-04-4.48967E-14
 -1      4035 8.29509E-03 1.40173E-04-4.35978E-14
 -1      4036 8.21637E-03 1.12822E-04-4.30552E-14
 -1      4037 8.68159E-03 1.33406E-04-4.75231E-14
 -1      4038 8.55374E-03 1.35379E-04-4.62049E-14
 -1      4039 8.47158E-03 1.08040E-04-4.56518E-14
 -1      4040 8.93435E-03 1.30735E-04-5.01923E-14
 -1      4041 8.80823E-03 1.31860E-04-4.88526E-14
 -1      4042 8.72077E-03 1.03749E-04-4.82909E-14
 -1      4043 9.10917E-03 1.28479E-04-5.21105E-14
 -1      4044 2.13407E-03-1.49672E-04-3.78670E-15
 -1      4045 2.27917E-03-1.52477E-04-4.25223E-15
 -1      4046 2.22273E-03 1.86537E-04-3.82933E-15
 -1      4047 2.07780E-03 1.82821E-04-3.39325E-15
 -1      4048 5.96183E-03 1.83839E-04-2.36106E-14
 -1      4049 5.82006E-03 1.85400E-04-2.25801E-14
 -1      4050 5.74822E-03 1.50291E-04-2.21524E-14
 -1      4051 9.00364E-03-6.53889E-05-5.25795E-14
 -1      4052 3.09302E-03 1.97126E-04-6.98493E-15
 -1      4053 2.94811E-03 1.96388E-04-6.39597E-15
 -1      4054 4.82178E-03 1.93414E-04-1.59230E-14
 -1      4055 4.67849E-03 1.94232E-04-1.50551E-14
 -1      4056 4.89276E-03 1.55903E-04-1.64391E-14
 -1      4057 8.90776E-03-3.67070E-05-5.16016E-14
 -1      4058 1.50246E-03 1.86530E-05-2.02350E-15
 -1      4059 1.50242E-03-1.57636E-05-2.03894E-15
 -1      4060 1.62672E-03 3.74690E-05-2.31119E-15
 -1      4061 1.79748E-03-1.29457E-04-2.80452E-15
 -1      4062 1.99743E-03-1.41059E-04-3.37156E-15
 -1      4063 2.06752E-03-1.07505E-04-3.57955E-15
 -1      4064 1.79499E-03-9.15595E-05-2.79599E-15
 -1      4065 2.80310E-03 1.95315E-04-5.83247E-15
 -1      4066 2.65801E-03 1.93875E-04-5.29318E-15
 -1      4067 2.87330E-03 1.58195E-04-6.16092E-15
 -1      4068 2.42439E-03-1.54740E-04-4.74344E-15
 -1      4069 2.56966E-03-1.56515E-04-5.26047E-15
 -1      4070 2.64025E-03-1.19927E-04-5.51382E-15
 -1      4071 8.91098E-03 1.75001E-05-5.15176E-14
 -1      4072 8.97718E-03 3.99969E-05-5.20778E-14
 -1      4073 2.51290E-03 1.91975E-04-4.77952E-15
 -1      4074 2.36778E-03 1.89566E-04-4.29158E-15
 -1      4075 2.29227E-03 1.51761E-04-4.09765E-15
 -1      4076 2.58279E-03 1.55777E-04-5.07824E-15
 -1      4077 8.79186E-03-4.36240E-05-5.01718E-14
 -1      4078 8.84868E-03-9.18077E-06-5.08874E-14
 -1      4079 8.79276E-03 1.27859E-05-5.00908E-14
 -1      4080 8.67698E-03-4.50683E-05-4.88331E-14
 -1      4081 9.01160E-03 6.49088E-05-5.20890E-14
 -1      4082 9.01133E-03 9.78926E-05-5.15384E-14
 -1      4083 6.03144E-03 1.47732E-04-2.42166E-14
 -1      4084 4.17690E-03 2.34227E-04-1.21142E-14
 -1      4085 2.00223E-03 1.45598E-04-3.21954E-15
 -1      4086 1.93308E-03 1.78294E-04-2.98276E-15
 -1      4087 4.53505E-03 1.94976E-04-1.42082E-14
 -1      4088 4.39148E-03 1.95655E-04-1.33830E-14
 -1      4089 4.60611E-03 1.57237E-04-1.47010E-14
 -1      4090 3.67149E-03 1.97807E-04-9.59146E-15
 -1      4091 3.52707E-03 1.97911E-04-8.90324E-15
 -1      4092 2.34948E-03-1.17155E-04-4.48296E-15
 -1      4093 1.64225E-03-4.06341E-05-2.38642E-15
 -1      4094 3.38252E-03 1.97848E-04-8.23874E-15
 -1      4095 3.23783E-03 1.97605E-04-7.59936E-15
 -1      4096 3.45321E-03 1.59888E-04-8.62648E-15
 -1      4097 1.77485E-03 1.77295E-04-2.55663E-15
 -1      4098 1.74230E-03 1.06728E-04-2.54928E-15
 -1      4099 1.88830E-03 1.02785E-04-2.94376E-15
 -1      4100 1.77367E-03 6.90113E-05-2.66395E-15
 -1      4101 1.77253E-03 3.15797E-05-2.68818E-15
 -1      4102 3.16350E-03 1.59453E-04-7.34388E-15
 -1      4103 3.95990E-03 1.97229E-04-1.10395E-14
 -1      4104 3.81577E-03 1.97578E-04-1.03034E-14
 -1      4105 3.74236E-03 1.59745E-04-1.00074E-14
 -1      4106 2.85698E-03-8.35032E-05-6.33398E-15
 -1      4107 3.00237E-03-8.38808E-05-6.92458E-15
 -1      4108 3.14767E-03-8.41286E-05-7.53905E-15
 -1      4109 3.29283E-03-8.42535E-05-8.17812E-15
 -1      4110 3.07428E-03-4.60524E-05-7.20142E-15
 -1      4111 3.43786E-03-8.42889E-05-8.84164E-15
 -1      4112 3.58273E-03-8.42361E-05-9.52927E-15
 -1      4113 3.36474E-03-4.61717E-05-8.47597E-15
 -1      4114 3.72745E-03-8.41220E-05-1.02401E-14
 -1      4115 3.87199E-03-8.39442E-05-1.09731E-14
 -1      4116 3.65461E-03-4.60906E-05-9.84705E-15
 -1      4117 4.01636E-03-8.37233E-05-1.17304E-14
 -1      4118 4.16056E-03-8.34541E-05-1.25099E-14
 -1      4119 3.94380E-03-4.58683E-05-1.13121E-14
 -1      4120 4.30459E-03-8.31533E-05-1.33108E-14
 -1      4121 4.44843E-03-8.28119E-05-1.41340E-14
 -1      4122 4.23228E-03-4.55459E-05-1.28669E-14
 -1      4123 4.59210E-03-8.24427E-05-1.49789E-14
 -1      4124 4.73559E-03-8.20371E-05-1.58453E-14
 -1      4125 4.52004E-03-4.51343E-05-1.45109E-14
 -1      4126 4.87889E-03-8.16039E-05-1.67319E-14
 -1      4127 5.02199E-03-8.11330E-05-1.76399E-14
 -1      4128 4.80705E-03-4.46542E-05-1.62394E-14
 -1      4129 5.16488E-03-8.06308E-05-1.85689E-14
 -1      4130 5.30756E-03-8.00864E-05-1.95175E-14
 -1      4131 5.09325E-03-4.41004E-05-1.80521E-14
 -1      4132 5.45000E-03-7.95053E-05-2.04876E-14
 -1      4133 5.59218E-03-7.88752E-05-2.14770E-14
 -1      4134 5.37857E-03-4.34645E-05-1.99470E-14
 -1      4135 5.73409E-03-7.82021E-05-2.24865E-14
 -1      4136 5.87569E-03-7.74717E-05-2.35166E-14
 -1      4137 5.66287E-03-4.27334E-05-2.19240E-14
 -1      4138 6.01695E-03-7.66927E-05-2.45652E-14
 -1      4139 6.15784E-03-7.58479E-05-2.56322E-14
 -1      4140 5.94595E-03-4.18919E-05-2.39799E-14
 -1      4141 6.29831E-03-7.49505E-05-2.67184E-14
 -1      4142 6.43833E-03-7.39798E-05-2.78207E-14
 -1      4143 6.22756E-03-4.09254E-05-2.61125E-14
 -1      4144 6.57784E-03-7.29561E-05-2.89403E-14
 -1      4145 6.71678E-03-7.18540E-05-3.00760E-14
 -1      4146 6.50735E-03-3.98225E-05-2.83151E-14
 -1      4147 6.85509E-03-7.07037E-05-3.12268E-14
 -1      4148 6.99272E-03-6.94734E-05-3.23943E-14
 -1      4149 6.78491E-03-3.85792E-05-3.05826E-14
 -1      4150 7.12956E-03-6.82069E-05-3.35751E-14
 -1      4151 7.26558E-03-6.68636E-05-3.47709E-14
 -1      4152 7.05972E-03-3.72018E-05-3.29127E-14
 -1      4153 7.40064E-03-6.55044E-05-3.59809E-14
 -1      4154 7.53469E-03-6.40760E-05-3.72053E-14
 -1      4155 7.33117E-03-3.57104E-05-3.53015E-14
 -1      4156 7.66759E-03-6.26613E-05-3.84430E-14
 -1      4157 7.79928E-03-6.11869E-05-3.96934E-14
 -1      4158 7.59853E-03-3.41403E-05-3.77455E-14
 -1      4159 7.92956E-03-5.97643E-05-4.09568E-14
 -1      4160 8.05840E-03-5.82850E-05-4.22339E-14
 -1      4161 7.86092E-03-3.25405E-05-4.02446E-14
 -1      4162 8.18552E-03-5.69016E-05-4.35225E-14
 -1      4163 8.31087E-03-5.54373E-05-4.48202E-14
 -1      4164 8.11726E-03-3.09653E-05-4.27943E-14
 -1      4165 8.43635E-03-5.08074E-05-4.61552E-14
 -1      4166 8.55716E-03-4.93955E-05-4.74765E-14
 -1      4167 8.61326E-03-1.86377E-05-4.81040E-14
 -1      4168 8.36893E-03-2.61626E-05-4.54157E-14
 -1      4169 8.85180E-03 6.96614E-05-5.01720E-14
 -1      4170 6.93848E-03 1.03740E-04-3.14952E-14
 -1      4171 6.80027E-03 1.05367E-04-3.03416E-14
 -1      4172 5.24959E-03 1.17294E-04-1.88018E-14
 -1      4173 5.10681E-03 1.17950E-04-1.78696E-14
 -1      4174 6.66145E-03 1.06880E-04-2.92056E-14
 -1      4175 6.52205E-03 1.08316E-04-2.80857E-14
 -1      4176 6.72929E-03 7.30906E-05-2.98550E-14
 -1      4177 6.38215E-03 1.09641E-04-2.69814E-14
 -1      4178 6.24178E-03 1.10886E-04-2.58947E-14
 -1      4179 6.45096E-03 7.50551E-05-2.76117E-14
 -1      4180 7.21273E-03 1.00238E-04-3.38444E-14
 -1      4181 7.07598E-03 1.02044E-04-3.26619E-14
 -1      4182 7.00508E-03 7.08576E-05-3.21614E-14
 -1      4183 7.48362E-03 9.64265E-05-3.62529E-14
 -1      4184 7.34862E-03 9.83821E-05-3.50433E-14
 -1      4185 7.27777E-03 6.83696E-05-3.45307E-14
 -1      4186 7.75048E-03 9.23926E-05-3.87184E-14
 -1      4187 7.61758E-03 9.44513E-05-3.74784E-14
 -1      4188 7.54669E-03 6.56606E-05-3.69558E-14
 -1      4189 8.01254E-03 8.82488E-05-4.12354E-14
 -1      4190 7.88214E-03 9.03538E-05-3.99708E-14
 -1      4191 7.81107E-03 6.27833E-05-3.94360E-14
 -1      4192 8.26891E-03 8.41019E-05-4.38002E-14
 -1      4193 8.14146E-03 8.62084E-05-4.25115E-14
 -1      4194 8.06998E-03 5.97984E-05-4.19676E-14
 -1      4195 8.51848E-03 7.99903E-05-4.64094E-14
 -1      4196 8.39456E-03 8.20938E-05-4.50990E-14
 -1      4197 8.32225E-03 5.67429E-05-4.45462E-14
 -1      4198 8.74741E-03 7.37438E-05-4.89466E-14
 -1      4199 8.62771E-03 7.58791E-05-4.76168E-14
 -1      4200 8.55440E-03 5.14412E-05-4.70550E-14
 -1      4201 8.76498E-03 4.40777E-05-4.94870E-14
 -1      4202 6.10100E-03 1.12030E-04-2.48251E-14
 -1      4203 5.95985E-03 1.13098E-04-2.37724E-14
 -1      4204 6.17057E-03 7.67558E-05-2.54346E-14
 -1      4205 2.94412E-03 1.20798E-04-6.49399E-15
 -1      4206 2.79879E-03 1.20106E-04-5.92563E-15
 -1      4207 2.03303E-03 1.05637E-04-3.35281E-15
 -1      4208 2.27513E-03-8.00499E-05-4.22698E-15
 -1      4209 2.42053E-03-8.12641E-05-4.71511E-15
 -1      4210 5.81836E-03 1.14076E-04-2.27388E-14
 -1      4211 5.67656E-03 1.14985E-04-2.17249E-14
 -1      4212 5.88850E-03 7.82107E-05-2.33276E-14
 -1      4213 3.52433E-03 1.21837E-04-9.01875E-15
 -1      4214 3.37949E-03 1.21788E-04-8.35029E-15
 -1      4215 1.77460E-03-7.80461E-06-2.71544E-15
 -1      4216 1.79092E-03-5.18012E-05-2.77624E-15
 -1      4217 1.92687E-03-5.86692E-05-3.15484E-15
 -1      4218 1.92132E-03 2.28992E-05-3.10011E-15
 -1      4219 4.24776E-03 1.96258E-04-1.25796E-14
 -1      4220 4.10390E-03 1.96789E-04-1.17985E-14
 -1      4221 4.03089E-03 1.59194E-04-1.14825E-14
 -1      4222 4.96383E-03 1.18549E-04-1.69573E-14
 -1      4223 4.82065E-03 1.19104E-04-1.60653E-14
 -1      4224 5.03496E-03 8.13765E-05-1.74774E-14
 -1      4225 3.23449E-03 1.21608E-04-7.70686E-15
 -1      4226 3.08937E-03 1.21295E-04-7.08803E-15
 -1      4227 3.01549E-03 8.31691E-05-6.83215E-15
 -1      4228 3.30595E-03 8.36396E-05-8.07423E-15
 -1      4229 5.53448E-03 1.15816E-04-2.07306E-14
 -1      4230 5.39215E-03 1.16588E-04-1.97557E-14
 -1      4231 5.32049E-03 8.04922E-05-1.93453E-14
 -1      4232 5.60506E-03 7.94463E-05-2.12967E-14
 -1      4233 2.56601E-03-8.22255E-05-5.22924E-15
 -1      4234 2.71151E-03-8.29537E-05-5.76900E-15
 -1      4235 2.49226E-03-4.48609E-05-4.94894E-15
 -1      4236 2.18858E-03 1.07300E-04-3.82119E-15
 -1      4237 2.07527E-03 6.45885E-05-3.51650E-15
 -1      4238 8.69101E-03 1.56373E-05-4.88669E-14
 -1      4239 4.67730E-03 1.19609E-04-1.51950E-14
 -1      4240 4.53377E-03 1.20074E-04-1.43453E-14
 -1      4241 4.74859E-03 8.21218E-05-1.56918E-14
 -1      4242 4.31882E-03 1.58338E-04-1.30472E-14
 -1      4243 2.72463E-03 8.21663E-05-5.68959E-15
 -1      4244 2.65339E-03 1.19156E-04-5.38195E-15
 -1      4245 2.50798E-03 1.17944E-04-4.86319E-15
 -1      4246 2.78336E-03-4.56493E-05-6.02491E-15
 -1      4247 3.66903E-03 1.21793E-04-9.71003E-15
 -1      4248 3.59583E-03 8.37407E-05-9.41304E-15
 -1      4249 3.81357E-03 1.21657E-04-1.04252E-14
 -1      4250 2.07669E-03 2.26902E-05-3.55292E-15
 -1      4251 2.03253E-03-6.58814E-05-3.46515E-15
 -1      4252 2.16911E-03-7.27798E-05-3.88486E-15
 -1      4253 2.24076E-03-3.74938E-05-4.09839E-15
 -1      4254 2.02915E-03-2.42356E-05-3.43866E-15
 -1      4255 2.33385E-03 1.09198E-04-4.28360E-15
 -1      4256 2.41909E-03-7.92087E-06-4.67299E-15
 -1      4257 2.56465E-03-7.99218E-06-5.18380E-15
 -1      4258 3.33480E-03 1.87473E-05-8.28026E-15
 -1      4259 3.47987E-03 1.87970E-05-8.94636E-15
 -1      4260 3.62477E-03 1.88154E-05-9.63495E-15
 -1      4261 3.76951E-03 1.88345E-05-1.03480E-14
 -1      4262 4.16010E-03-7.80560E-06-1.24260E-14
 -1      4263 4.30418E-03-7.73743E-06-1.32241E-14
 -1      4264 4.49052E-03 1.87511E-05-1.42554E-14
 -1      4265 4.63416E-03 1.87174E-05-1.51023E-14
 -1      4266 4.77762E-03 1.86683E-05-1.59705E-14
 -1      4267 4.92087E-03 1.86209E-05-1.68596E-14
 -1      4268 5.06391E-03 1.85581E-05-1.77698E-14
 -1      4269 5.20673E-03 1.84962E-05-1.87003E-14
 -1      4270 5.34931E-03 1.84171E-05-1.96510E-14
 -1      4271 5.49165E-03 1.83383E-05-2.06223E-14
 -1      4272 5.63370E-03 1.82394E-05-2.16152E-14
 -1      4273 5.77546E-03 1.81412E-05-2.26266E-14
 -1      4274 5.91688E-03 1.80183E-05-2.36579E-14
 -1      4275 6.05794E-03 1.78974E-05-2.47090E-14
 -1      4276 6.19859E-03 1.77461E-05-2.57772E-14
 -1      4277 6.33880E-03 1.75995E-05-2.68648E-14
 -1      4278 6.47851E-03 1.74152E-05-2.79683E-14
 -1      4279 6.61766E-03 1.72405E-05-2.90876E-14
 -1      4280 6.75621E-03 1.70192E-05-3.02238E-14
 -1      4281 6.89407E-03 1.68146E-05-3.13747E-14
 -1      4282 7.03118E-03 1.65529E-05-3.25416E-14
 -1      4283 7.16746E-03 1.63182E-05-3.37241E-14
 -1      4284 7.30282E-03 1.60130E-05-3.49212E-14
 -1      4285 7.43716E-03 1.57495E-05-3.61312E-14
 -1      4286 7.57039E-03 1.53978E-05-3.73552E-14
 -1      4287 7.70239E-03 1.51078E-05-3.85923E-14
 -1      4288 7.83303E-03 1.47050E-05-3.98443E-14
 -1      4289 7.96218E-03 1.43919E-05-4.11086E-14
 -1      4290 8.08967E-03 1.39280E-05-4.23839E-14
 -1      4291 8.21534E-03 1.35984E-05-4.36725E-14
 -1      4292 8.33896E-03 1.30576E-05-4.49719E-14
 -1      4293 8.57151E-03 1.30717E-05-4.75120E-14
 -1      4294 8.46395E-03 1.59021E-05-4.63052E-14
 -1      4295 3.18958E-03 1.86952E-05-7.63819E-15
 -1      4296 2.40499E-03 7.33547E-05-4.55841E-15
 -1      4297 4.10215E-03 1.21184E-04-1.19269E-14
 -1      4298 3.95794E-03 1.21456E-04-1.11648E-14
 -1      4299 3.88507E-03 8.35817E-05-1.08468E-14
 -1      4300 3.04423E-03 1.86030E-05-7.02175E-15
 -1      4301 4.39006E-03 1.20487E-04-1.35174E-14
 -1      4302 4.24619E-03 1.20863E-04-1.27112E-14
 -1      4303 4.17362E-03 8.32366E-05-1.23739E-14
 -1      4304 4.46146E-03 8.27405E-05-1.39898E-14
 -1      4305 2.75324E-03 1.83463E-05-5.86136E-15
 -1      4306 2.89878E-03 1.85027E-05-6.42897E-15
 -1      4307 3.91407E-03 1.88296E-05-1.10840E-14
 -1      4308 4.05845E-03 1.88247E-05-1.18437E-14
 -1      4309 2.53546E-03 5.51049E-05-5.02734E-15
 -1      4310 2.36136E-03 4.73803E-05-4.43601E-15
 -1      4311 2.68099E-03 5.56576E-05-5.55454E-15
 -1      4312 2.18234E-03 1.68497E-05-3.88101E-15
 -1      4313 2.28814E-03 1.08195E-05-4.22302E-15
 -1      4314 4.41881E-03 5.63715E-05-1.37864E-14
 -1      4315 4.13082E-03 5.66773E-05-1.21810E-14
 -1      4316 4.27491E-03 5.65356E-05-1.29730E-14
 -3
    1PSTEP                         2           1           1          
  100CL  101 1.000000000        4316                     0    1           1
 -4  STRESS      6    1
 -5  SXX         1    4    1    1
 -5  SYY         1    4    2    2
 -5  SZZ         1    4    3    3
 -5  SXY         1    4    1    2
 -5  SYZ         1    4    2    3
 -5  SZX         1    4    3    1
 -1         1-8.96213E-01-2.41950E+01-3.32038E+00 2.50051E+00 1.05516E-12-8.07514E-15
 -1         2-8.43240E-01-2.68988E+01-3.65592E+00-3.92910E-02 1.33696E-12 1.30132E-13
 -1         3 1.99652E+01-3.65716E-02 5.38523E-02-3.61997E-02-3.20655E-13-3.99285E-13
 -1         4 1.99673E+01-3.31697E-02 5.88380E-02 3.34922E-02 2.40936E-13 7.99361E-15
 -1         5 3.27685E+01 6.14281E+00 2.74251E+00 6.22436E+00-4.12517E-14 2.79853E-12
 -1         6 3.57526E+01 1.22635E+01 5.12554E+00-8.64677E+00-1.79454E-13 2.29956E-12
 -1         7 2.08189E+01 6.09975E+00-1.28664E-01-4.72562E+00-2.60347E-14 2.14471E-13
 -1         8 1.96719E+01 5.93500E+00 5.09693E-02-3.27486E+00-2.68258E-14-3.75601E-13
 -1         9 1.91370E+01 5.77189E+00 4.90940E-02-2.52668E+00-2.02581E-14-6.71951E-13
 -1        10 1.88953E+01 5.69212E+00 5.10634E-02-1.95152E+00-1.13234E-14-7.98122E-13
 -1        11 1.87738E+01 5.65124E+00 5.02683E-02-1.45626E+00-1.09543E-14-8.47532E-13
 -1        12 1.87102E+01 5.62960E+00 4.87531E-02-1.01532E+00-4.50356E-15-8.58370E-13
 -1        13 1.86767E+01 5.61820E+00 4.74345E-02-5.95490E-01 1.98192E-16-8.42364E-13
 -1        14 1.86626E+01 5.61337E+00 4.67188E-02-1.91260E-01 3.22661E-15-8.21516E-13
 -1        15 1.86631E+01 5.61353E+00 4.67604E-02 2.08240E-01 1.02426E-14-7.92508E-13
 -1        16 1.86782E+01 5.61868E+00 4.75781E-02 6.13302E-01 1.14749E-14-7.69174E-13
 -1        17 1.87130E+01 5.63038E+00 4.90898E-02 1.03514E+00 1.65042E-14-7.20492E-13
 -1        18 1.87778E+01 5.65240E+00 5.08359E-02 1.47927E+00 1.97425E-14-6.36126E-13
 -1        19 1.89009E+01 5.69376E+00 5.15398E-02 1.98042E+00 2.87713E-14-5.05210E-13
 -1        20 1.91424E+01 5.77448E+00 4.87840E-02 2.56400E+00 3.69479E-14-2.72374E-13
 -1        21 1.96674E+01 5.94959E+00 4.59182E-02 3.30894E+00 3.92325E-14 1.56046E-13
 -1        22 2.12017E+01 6.38150E+00 1.39695E-01 4.52314E+00 4.63518E-15 9.98531E-13
 -1        23 2.30298E+01-1.37922E+00-9.38345E-01-7.11189E-01-1.18433E-13 1.69027E-12
 -1        24 1.93670E+01-9.94919E-02-3.09840E-01 6.32244E-02-3.08685E-14 1.18550E-12
 -1        25 1.86786E+01-5.63195E-02-6.87746E-02 6.07219E-02-1.91639E-14 6.78580E-13
 -1        26 1.84758E+01-2.20817E-02-6.46451E-03 3.29633E-02-4.65177E-15 3.08552E-13
 -1        27 1.84868E+01-1.17935E-02 1.59640E-03 2.26002E-02-1.46767E-14 9.17409E-14
 -1        28 1.86005E+01-6.22751E-03 1.80755E-03 1.62972E-02-2.55530E-15-9.31937E-14
 -1        29 1.87597E+01-3.07139E-03 1.74929E-03 1.21407E-02 9.63178E-16-1.83139E-13
 -1        30 1.89331E+01-1.21657E-03 1.93479E-03 9.17480E-03-2.48554E-15-2.88381E-13
 -1        31 1.91029E+01-1.24522E-04 2.09728E-03 6.94011E-03-2.18232E-14-4.57499E-13
 -1        32 1.92594E+01 4.94185E-04 2.12739E-03 5.20372E-03-1.65874E-14-6.12485E-13
 -1        33 1.93977E+01 8.07174E-04 2.03057E-03 3.83479E-03 5.13140E-14-5.39834E-13
 -1        34 1.95163E+01 9.17757E-04 1.84237E-03 2.75038E-03-3.59730E-14-5.78850E-13
 -1        35 1.96157E+01 8.91831E-04 1.59514E-03 1.89232E-03-2.01754E-14-7.43009E-13
 -1        36 1.96978E+01 7.71485E-04 1.31057E-03 1.21710E-03 2.59319E-14-6.75127E-13
 -1        37 1.97654E+01 5.82463E-04 9.99844E-04 6.91566E-04-3.93900E-15-6.13530E-13
 -1        38 1.98220E+01 3.38659E-04 6.65187E-04 2.91338E-04-4.59440E-14-6.75549E-13
 -1        39 1.98716E+01 4.51430E-05 3.01240E-04 4.74727E-07 1.48670E-14-8.67344E-13
 -1        40 1.99188E+01-2.99559E-04-1.03737E-04-1.87996E-04 1.81519E-14-8.59723E-13
 -1        41 1.99688E+01-7.01469E-04-5.66804E-04-2.70982E-04-1.02093E-14-9.15206E-13
 -1        42 2.00277E+01-1.16908E-03-1.10919E-03-2.33694E-04-3.90055E-14-1.08562E-12
 -1        43 2.01025E+01-1.71076E-03-1.75473E-03-4.74454E-05-1.70316E-14-9.95521E-13
 -1        44 2.02015E+01-2.33109E-03-2.52716E-03 3.33096E-04 3.41074E-14-8.42761E-13
 -1        45 2.03343E+01-3.02519E-03-3.44523E-03 9.73020E-04-1.69345E-14-7.85739E-13
 -1        46 2.05122E+01-3.76982E-03-4.51332E-03 1.95988E-03-3.49072E-15-8.54525E-13
 -1        47 2.07477E+01-4.50935E-03-5.70375E-03 3.40403E-03-3.14015E-14-6.57960E-13
 -1        48 2.10540E+01-5.13459E-03-6.92439E-03 5.43196E-03-3.72675E-14-8.64001E-13
 -1        49 2.14435E+01-5.45277E-03-7.96207E-03 8.16297E-03 3.79570E-14-9.64734E-13
 -1        50 2.19253E+01-5.15049E-03-8.39109E-03 1.16504E-02 7.81935E-15-1.06039E-12
 -1        51 2.24993E+01-3.76131E-03-7.44605E-03 1.57553E-02-1.46724E-14-8.44345E-13
 -1        52 2.31487E+01-6.72627E-04-3.89827E-03 1.99075E-02-7.60213E-15-5.78470E-13
 -1        53 2.38267E+01 4.75360E-03 3.92431E-03 2.27221E-02-3.65796E-14-4.71161E-13
 -1        54 2.44418E+01 1.28238E-02 1.76477E-02 2.15322E-02 9.64463E-15-4.24734E-13
 -1        55 2.48445E+01 2.28034E-02 3.73861E-02 1.21832E-02-9.23536E-14-3.65260E-13
 -1        56 2.48317E+01 3.19500E-02 5.90557E-02-1.00155E-02 2.03097E-14-3.28006E-13
 -1        57 2.41922E+01 3.51008E-02 7.18020E-02-4.68160E-02 2.22164E-14-2.25080E-13
 -1        58 2.28154E+01 2.61517E-02 5.92034E-02-9.07898E-02 3.04652E-14-3.30742E-13
 -1        59 2.08473E+01 2.89664E-03 1.08898E-02-1.21004E-01 1.71657E-14-1.78434E-13
 -1        60 1.87837E+01-2.79500E-02-6.14387E-02-1.10523E-01-1.52081E-14 2.31724E-14
 -1        61 1.73424E+01-5.06980E-02-1.17366E-01-4.96958E-02 9.09676E-14 2.36030E-13
 -1        62 1.70775E+01-5.13929E-02-1.18807E-01 3.51859E-02-5.40731E-14 5.24029E-13
 -1        63 1.80080E+01-2.95992E-02-6.45123E-02 9.87567E-02-1.67296E-13-1.54557E-13
 -1        64 1.96025E+01 1.23179E-03 8.34110E-03 1.12037E-01-8.95311E-14-6.74745E-13
 -1        65 2.11335E+01 2.52094E-02 5.97360E-02 8.20842E-02 1.54145E-14-4.85407E-13
 -1        66 2.20778E+01 3.41215E-02 7.41718E-02 3.54528E-02 1.03834E-14-1.32857E-13
 -1        67 2.22758E+01 2.92176E-02 5.96856E-02-5.27932E-03 4.03336E-14 8.59989E-16
 -1        68 2.18612E+01 1.60809E-02 3.09008E-02-3.02210E-02-5.77034E-15 4.98438E-13
 -1        69 2.11175E+01 3.00236E-04-1.85500E-03-3.75815E-02 8.69840E-14 4.58697E-13
 -1        70 2.03802E+01-9.91838E-03-2.75684E-02-2.26318E-02-7.75441E-14 1.69365E-13
 -1        71 1.99743E+01 7.47237E-03-1.33600E-02 9.20256E-03-4.41763E-14-2.16044E-13
 -1        72 2.10424E+01-4.04891E-01-9.80410E-01-3.11602E-01 3.98674E-14 2.58317E-12
 -1        73 1.93315E+01-6.58818E-02-2.91132E-01-5.38294E-02 1.93361E-14 2.04229E-12
 -1        74 1.86880E+01-2.05029E-02-6.42680E-02-2.03451E-02-3.28188E-16 1.62849E-12
 -1        75 1.84849E+01-9.87502E-03-9.30376E-03-1.54443E-02 1.24151E-14 1.35597E-12
 -1        76 1.84959E+01-5.16086E-03 6.89347E-04-1.23731E-02 3.57966E-15 1.08292E-12
 -1        77 1.86087E+01-2.60887E-03 1.75532E-03-1.01001E-02 1.25419E-14 8.57694E-13
 -1        78 1.87669E+01-1.13899E-03 1.89567E-03-8.35609E-03 7.72135E-15 8.07230E-13
 -1        79 1.89393E+01-2.76279E-04 2.09097E-03-6.91488E-03 1.52985E-14 7.20327E-13
 -1        80 1.91081E+01 2.19325E-04 2.23097E-03-5.67123E-03-4.49992E-14 5.81411E-13
 -1        81 1.92637E+01 4.82392E-04 2.23834E-03-4.58152E-03 3.32978E-14 4.73443E-13
 -1        82 1.94012E+01 5.93442E-04 2.12111E-03-3.62635E-03-7.82952E-15 3.96783E-13
 -1        83 1.95191E+01 6.03052E-04 1.91438E-03-2.79261E-03 1.50070E-14 3.75882E-13
 -1        84 1.96179E+01 5.43391E-04 1.65017E-03-2.06777E-03 2.89276E-14 2.41633E-13
 -1        85 1.96994E+01 4.34424E-04 1.34988E-03-1.43843E-03-1.00807E-14 8.86527E-14
 -1        86 1.97665E+01 2.87470E-04 1.02433E-03-8.90560E-04 1.62300E-14-4.57174E-14
 -1        87 1.98227E+01 1.07466E-04 6.75276E-04-4.10486E-04-3.23458E-14-1.36743E-13
 -1        88 1.98719E+01-1.05413E-04 2.96880E-04 1.37691E-05-8.36910E-15 3.08903E-14
 -1        89 1.99188E+01-3.54434E-04-1.23049E-04 3.90873E-04 2.95000E-14-6.90891E-14
 -1        90 1.99686E+01-6.44994E-04-6.01907E-04 7.24216E-04-5.86378E-15-2.68450E-13
 -1        91 2.00272E+01-9.83077E-04-1.16102E-03 1.00937E-03-5.65886E-14-1.26750E-13
 -1        92 2.01018E+01-1.37313E-03-1.82383E-03 1.23067E-03-1.30061E-14-2.57575E-14
 -1        93 2.02006E+01-1.81483E-03-2.61286E-03 1.35656E-03 3.99835E-14-4.70683E-14
 -1        94 2.03332E+01-2.29798E-03-3.54424E-03 1.33312E-03-6.87859E-14-4.33092E-13
 -1        95 2.05106E+01-2.79449E-03-4.61741E-03 1.07528E-03-1.45687E-15-1.99352E-13
 -1        96 2.07454E+01-3.24586E-03-5.79631E-03 4.55995E-04 3.00547E-14-1.28166E-13
 -1        97 2.10504E+01-3.54509E-03-6.97542E-03-7.05050E-04-6.91158E-14-3.21288E-14
 -1        98 2.14376E+01-3.51277E-03-7.92199E-03-2.64685E-03 2.24762E-14 2.01085E-14
 -1        99 2.19153E+01-2.87196E-03-8.18505E-03-5.65090E-03 1.71323E-14-3.40918E-13
 -1       100 2.24825E+01-1.23792E-03-6.97298E-03-9.96911E-03-4.30207E-14-1.65730E-13
 -1       101 2.31208E+01 1.83814E-03-3.04346E-03-1.56324E-02 2.47910E-14-1.74148E-13
 -1       102 2.37820E+01 6.69667E-03 5.24485E-03-2.20485E-02 4.45997E-14-2.00758E-13
 -1       103 2.43731E+01 1.31690E-02 1.93752E-02-2.73302E-02-2.59954E-14-8.12822E-14
 -1       104 2.47445E+01 1.99304E-02 3.91341E-02-2.75379E-02-4.22668E-14 3.95135E-13
 -1       105 2.46964E+01 2.39004E-02 5.99163E-02-1.66521E-02 2.91976E-14 4.37077E-13
 -1       106 2.40252E+01 2.07328E-02 7.04620E-02 1.09608E-02-4.48220E-14 2.01901E-13
 -1       107 2.26335E+01 7.52026E-03 5.51543E-02 5.41402E-02 8.76838E-15-2.32349E-14
 -1       108 2.06793E+01-1.29512E-02 5.49527E-03 9.74815E-02-8.39794E-14-3.09107E-13
 -1       109 1.86585E+01-3.09116E-02-6.45380E-02 1.13257E-01 1.21506E-13-1.26673E-13
 -1       110 1.72709E+01-3.57262E-02-1.16672E-01 8.06346E-02 8.17402E-14-6.82294E-13
 -1       111 1.70461E+01-2.49102E-02-1.15006E-01 9.78809E-03 6.90969E-14-5.67373E-13
 -1       112 1.79864E+01-5.79281E-03-6.11011E-02-6.02756E-02-1.38201E-13 8.45574E-14
 -1       113 1.95620E+01 1.15245E-02 9.74898E-03-9.43704E-02 9.90673E-14 8.36445E-13
 -1       114 2.10640E+01 2.05825E-02 5.93992E-02-8.61978E-02-8.62578E-14 9.54202E-13
 -1       115 2.19868E+01 2.05130E-02 7.31476E-02-5.28625E-02 1.20456E-13 5.13563E-13
 -1       116 2.21796E+01 1.39352E-02 5.88312E-02-1.50672E-02 3.11107E-14-3.36945E-13
 -1       117 2.17753E+01 4.15625E-03 3.01293E-02 1.49617E-02 3.41355E-14-8.32919E-13
 -1       118 2.10535E+01-5.52970E-03-2.71914E-03 3.24376E-02 1.16440E-14-7.42833E-13
 -1       119 2.03448E+01-1.15453E-02-2.89607E-02 3.24996E-02-8.87766E-15-4.06390E-13
 -1       120 1.99811E+01 1.41406E-02-7.53304E-03-2.77049E-04 2.40923E-13-4.12019E-13
 -1       121 1.99954E+01 4.27781E-03-1.26721E-02-1.40930E-02-5.77188E-13 8.59525E-14
 -1       122 1.99769E+01 3.86421E-01-4.18705E-02 1.42179E-02-2.50606E-13-8.15680E-14
 -1       123 1.99802E+01 1.25106E+00-3.65118E-02 3.42960E-02 4.29705E-13 1.31882E-13
 -1       124 1.99875E+01 2.48396E+00-2.46617E-02 5.01418E-02 3.61456E-13 8.34660E-14
 -1       125 1.99995E+01 3.95674E+00-5.29399E-03 6.09754E-02 7.76018E-13-7.27718E-14
 -1       126 2.00154E+01 5.44224E+00 2.10775E-02 6.14405E-02 7.33073E-13 1.62776E-13
 -1       127 2.00303E+01 6.70975E+00 4.85418E-02 4.69270E-02 2.21406E-13-7.23969E-14
 -1       128 2.00400E+01 7.44760E+00 6.67449E-02 1.82777E-02-7.17970E-13-3.76346E-14
 -1       129 2.00403E+01 7.46803E+00 6.73620E-02-1.63692E-02-1.32476E-12 1.25506E-13
 -1       130 2.00313E+01 6.76473E+00 5.01365E-02-4.56716E-02-1.01018E-12 1.85896E-13
 -1       131 2.00162E+01 5.51622E+00 2.27873E-02-6.15499E-02-1.34741E-12-1.77167E-13
 -1       132 2.00005E+01 4.03049E+00-3.71700E-03-6.16557E-02-1.72419E-12 2.28018E-13
 -1       133 1.99882E+01 2.54084E+00-2.36695E-02-5.14300E-02-1.16630E-12 1.11617E-13
 -1       134 1.99777E+01 1.28135E+00-3.80749E-02-3.83767E-02-8.20144E-13-1.54096E-13
 -1       135 1.99802E+01 4.12735E-01-3.73889E-02-2.69968E-02-1.35550E-13 9.23018E-14
 -1       136 1.99798E+01 2.22106E-02-1.19618E-02 3.02975E-02-2.26396E-13 5.16242E-14
 -1       137-1.45824E+00-2.20325E+01-3.32264E+00-4.00652E+00 1.90287E-12 4.39229E-13
 -1       138-1.81398E+00-1.07999E+01-2.49575E+00-3.78383E+00 1.35264E-12 5.14644E-13
 -1       139 1.72645E+00 1.63371E+00-1.29121E+00 2.07714E+00 8.63642E-13 5.00544E-13
 -1       140 1.26094E+01 1.00806E+01 1.67631E-01 1.12191E+01 4.29878E-13 3.63209E-13
 -1       141 2.96438E+01 1.14175E+01 1.56766E+00 1.79978E+01 1.91791E-13 3.49332E-13
 -1       142 4.88102E+01 7.54571E+00 2.75141E+00 1.82337E+01 1.58595E-13 4.03122E-13
 -1       143 6.35253E+01 2.68091E+00 3.50909E+00 1.06720E+01 6.58935E-14 4.72511E-13
 -1       144 6.75662E+01 9.28148E-01 3.66786E+00-2.23376E+00 1.17434E-13-4.36776E-13
 -1       145 5.88665E+01 3.81803E+00 3.18675E+00-1.35259E+01 2.12629E-13-1.04822E-12
 -1       146 4.15272E+01 8.72536E+00 2.19751E+00-1.82708E+01 8.48127E-13-1.38839E-12
 -1       147 2.18064E+01 1.06929E+01 8.50400E-01-1.49413E+01 9.29257E-13-1.44101E-12
 -1       148 6.32367E+00 6.39563E+00-6.31783E-01-6.51423E+00 8.80684E-13-7.40630E-13
 -1       149-5.19136E-01-3.73922E+00-1.86703E+00 1.07008E+00 1.00508E-12-5.71293E-13
 -1       150-1.89922E+00-1.59410E+01-2.81237E+00 4.51241E+00 1.11938E-12-3.01939E-13
 -1       151-9.01819E-01-2.45850E+01-3.34878E+00-2.20484E+00 2.09235E-13-3.88717E-14
 -1       152-1.92464E+00-1.58377E+01-2.80968E+00-4.47315E+00-5.06650E-13-1.32061E-13
 -1       153-2.44247E-01-2.72628E+00-1.76644E+00-5.48799E-01-4.76452E-13-2.60458E-13
 -1       154 8.55896E+00 7.87030E+00-3.64937E-01 8.29905E+00-4.11449E-13-3.29459E-13
 -1       155 2.50827E+01 1.10071E+01 1.11123E+00 1.63786E+01-7.42073E-13-1.23979E-12
 -1       156 4.63209E+01 7.59923E+00 2.49678E+00 1.79763E+01-8.43159E-13-2.05408E-12
 -1       157 6.30245E+01 2.47569E+00 3.43174E+00 1.02983E+01-3.99181E-13-2.20365E-12
 -1       158 6.76862E+01 1.02432E+00 3.70619E+00-3.46153E+00 1.41467E-13-1.74400E-12
 -1       159 5.79043E+01 4.72327E+00 3.23759E+00-1.52160E+01 8.20108E-14-5.14477E-13
 -1       160 3.82971E+01 1.02407E+01 2.15047E+00-1.91986E+01-4.27214E-13 9.20763E-13
 -1       161 1.67308E+01 1.11124E+01 5.60972E-01-1.35227E+01-9.45133E-13 1.05982E-12
 -1       162 3.17439E+00 3.82015E+00-1.04247E+00-3.73933E+00-1.59706E-12 1.11239E-12
 -1       163-1.81852E+00-9.70277E+00-2.43698E+00 3.53390E+00-6.65301E-13 4.68819E-13
 -1       164-1.50885E+00-2.18414E+01-3.32749E+00 4.16705E+00-5.55112E-17 1.64709E-13
 -1       165 2.10135E+01 3.69404E+00-5.73750E-02-3.61062E+00-3.73285E-13-7.21853E-14
 -1       166 1.99910E+01 4.20736E+00-4.58036E-02-2.80942E+00-3.18363E-13-4.23477E-13
 -1       167 1.95068E+01 4.47794E+00-3.17265E-02-2.19534E+00-2.38277E-13-6.16436E-13
 -1       168 1.92681E+01 4.61445E+00-2.38260E-02-1.67498E+00-1.60331E-13-6.96570E-13
 -1       169 1.91371E+01 4.69709E+00-1.95882E-02-1.21926E+00-8.49637E-14-7.14691E-13
 -1       170 1.90634E+01 4.74781E+00-1.74521E-02-7.92330E-01-2.89444E-14-7.18840E-13
 -1       171 1.90264E+01 4.77562E+00-1.64298E-02-3.87011E-01 3.38016E-14-7.00143E-13
 -1       172 1.90155E+01 4.78415E+00-1.61356E-02 8.26391E-03 9.24273E-14-6.80326E-13
 -1       173 1.90281E+01 4.77435E+00-1.64681E-02 4.03864E-01 1.49122E-13-6.58762E-13
 -1       174 1.90672E+01 4.74482E+00-1.75218E-02 8.10207E-01 1.97062E-13-6.28123E-13
 -1       175 1.91416E+01 4.69240E+00-1.96895E-02 1.23177E+00 2.50729E-13-5.65503E-13
 -1       176 1.92771E+01 4.60527E+00-2.40088E-02 1.69852E+00 3.19423E-13-4.71082E-13
 -1       177 1.95239E+01 4.45951E+00-3.28526E-02 2.22690E+00 3.79917E-13-3.08534E-13
 -1       178 2.00133E+01 4.18383E+00-4.72144E-02 2.84711E+00 4.04211E-13-1.82597E-14
 -1       179 2.11350E+01 3.46369E+00-5.97821E-02 3.53698E+00 3.69068E-13 5.03340E-13
 -1       180 2.24194E+01 1.14339E+00-3.36473E-01 3.01501E+00 2.61934E-13 1.17634E-12
 -1       181 2.19716E+01 8.58321E-01 6.07071E-04-1.95906E+00-3.26773E-13 4.00253E-13
 -1       182 2.04472E+01 1.90050E-01-9.98936E-03-7.64329E-01-2.86297E-13 2.34422E-13
 -1       183 1.96713E+01 1.01647E-01 1.35707E-02-2.85976E-01-2.21024E-13 1.29583E-13
 -1       184 1.93313E+01 4.71929E-02 1.00094E-02-6.82661E-02-1.51691E-13-3.10719E-14
 -1       185 1.92013E+01 2.25323E-02 5.16770E-03 3.89732E-02-1.08137E-13-1.09086E-13
 -1       186 1.91875E+01 9.47872E-03 2.43223E-03 9.14986E-02-8.49145E-14-1.77611E-13
 -1       187 1.92357E+01 2.08266E-03 1.12786E-03 1.13784E-01-5.36982E-14-2.48488E-13
 -1       188 1.93143E+01-2.14399E-03 4.94296E-04 1.18627E-01-8.78987E-14-2.78623E-13
 -1       189 1.94047E+01-4.42774E-03 1.61205E-04 1.13472E-01-7.65147E-14-2.43207E-13
 -1       190 1.94958E+01-5.46427E-03-2.18750E-05 1.02960E-01-4.88544E-15-2.69600E-13
 -1       191 1.95814E+01-5.68441E-03-1.17689E-04 9.00982E-02-5.60631E-14-3.97470E-13
 -1       192 1.96585E+01-5.36653E-03-1.57066E-04 7.68719E-02-6.60434E-14-4.02401E-13
 -1       193 1.97261E+01-4.69042E-03-1.57857E-04 6.46047E-02-8.87334E-15-4.01358E-13
 -1       194 1.97849E+01-3.76655E-03-1.31138E-04 5.42007E-02-6.46340E-15-4.05424E-13
 -1       195 1.98363E+01-2.65370E-03-8.36666E-05 4.63138E-02-4.41578E-14-4.22289E-13
 -1       196 1.98829E+01-1.37089E-03-1.91878E-05 4.14745E-02-9.82695E-14-3.69016E-13
 -1       197 1.99277E+01 9.40065E-05 6.06880E-05 4.01866E-02-2.61088E-14-4.15442E-13
 -1       198 1.99742E+01 1.77709E-03 1.55772E-04 4.30012E-02-1.71424E-14-5.38206E-13
 -1       199 2.00269E+01 3.73164E-03 2.66605E-04 5.05714E-02-1.30285E-13-5.28506E-13
 -1       200 2.00907E+01 6.02017E-03 3.93646E-04 6.36842E-02 5.92970E-14-5.41269E-13
 -1       201 2.01715E+01 8.70336E-03 5.36163E-04 8.32682E-02 3.52290E-14-4.44050E-13
 -1       202 2.02759E+01 1.18225E-02 6.90612E-04 1.10360E-01-4.56629E-14-5.13509E-13
 -1       203 2.04115E+01 1.53702E-02 8.48200E-04 1.46011E-01 4.40258E-14-4.34013E-13
 -1       204 2.05864E+01 1.92404E-02 9.91351E-04 1.91088E-01 7.57873E-14-4.04513E-13
 -1       205 2.08090E+01 2.31449E-02 1.08894E-03 2.45913E-01-8.28101E-14-3.50491E-13
 -1       206 2.10871E+01 2.64783E-02 1.09091E-03 3.09622E-01-5.56420E-14-2.75204E-13
 -1       207 2.14261E+01 2.81130E-02 9.24694E-04 3.79131E-01 1.03712E-14-4.17166E-13
 -1       208 2.18265E+01 2.61225E-02 4.99187E-04 4.47524E-01 1.44318E-13-4.53482E-13
 -1       209 2.22800E+01 1.74964E-02-2.73050E-04 5.01830E-01 1.25854E-13-2.92794E-13
 -1       210 2.27637E+01-1.91905E-03-1.42239E-03 5.20459E-01-4.98321E-14-2.46309E-13
 -1       211 2.32340E+01-3.66782E-02-2.82891E-03 4.71571E-01 1.96426E-14-1.77005E-13
 -1       212 2.36206E+01-8.91561E-02-4.12204E-03 3.15451E-01 9.40357E-14-1.86615E-13
 -1       213 2.38262E+01-1.53923E-01-4.68397E-03 1.65054E-02 3.77931E-14-5.28223E-16
 -1       214 2.37394E+01-2.09625E-01-3.91793E-03-4.28725E-01 9.12165E-14-5.04159E-14
 -1       215 2.32716E+01-2.14844E-01-1.67059E-03-9.49079E-01-6.23282E-14-2.21584E-13
 -1       216 2.24212E+01-1.23531E-01 6.98579E-04-1.36790E+00 9.31974E-14-2.60266E-13
 -1       217 2.13456E+01 6.99264E-02 1.69447E-03-1.44305E+00 2.30948E-14-3.21887E-13
 -1       218 2.03700E+01 2.85252E-01 1.92026E-05-1.01824E+00 1.45386E-13-3.91076E-14
 -1       219 1.98621E+01 3.84273E-01-4.36714E-04-2.03831E-01 3.79436E-14-1.57947E-13
 -1       220 1.99910E+01 2.96674E-01 1.44565E-03 6.23422E-01-3.21213E-13-3.03357E-13
 -1       221 2.06062E+01 8.29559E-02 2.18965E-03 1.07850E+00-2.69497E-13-3.64767E-13
 -1       222 2.13469E+01-1.17835E-01 1.24279E-03 1.02720E+00 3.16142E-13-1.50139E-13
 -1       223 2.18782E+01-2.16881E-01-9.57004E-04 6.14522E-01 1.48791E-13 2.18475E-13
 -1       224 2.20355E+01-2.10906E-01-2.67288E-03 9.33112E-02 2.08622E-13 4.53976E-13
 -1       225 2.18294E+01-1.41533E-01-2.90757E-03-3.33690E-01 2.18279E-13 5.79708E-13
 -1       226 2.13785E+01-4.82007E-02-2.06862E-03-5.62695E-01 1.27922E-13 4.45214E-13
 -1       227 2.08408E+01 5.08319E-02-6.95461E-04-5.64042E-01-1.30087E-13 4.03499E-13
 -1       228 2.03532E+01 1.38851E-01 8.28589E-05-3.56721E-01-1.62625E-13 3.68951E-13
 -1       229 2.09633E+01 2.77028E-01-5.13352E-02 1.16503E+00 2.74468E-13 1.01516E-12
 -1       230 1.98684E+01 1.26835E-01 8.30893E-03 4.43334E-01 2.12221E-13 8.08737E-13
 -1       231 1.93618E+01 5.80444E-02 1.27327E-02 1.50331E-01 1.59049E-13 6.32596E-13
 -1       232 1.91518E+01 2.76982E-02 7.62625E-03 1.11221E-02 1.37889E-13 5.02683E-13
 -1       233 1.91017E+01 1.30498E-02 3.82080E-03-5.79456E-02 1.02265E-13 4.20699E-13
 -1       234 1.91370E+01 5.09890E-03 1.90549E-03-9.03064E-02 1.51639E-14 3.61418E-13
 -1       235 1.92156E+01 5.60000E-04 1.00431E-03-1.02001E-01 6.15874E-14 3.42660E-13
 -1       236 1.93126E+01-2.01625E-03 5.45542E-04-1.01770E-01 7.02559E-14 2.70224E-13
 -1       237 1.94136E+01-3.37025E-03 2.85153E-04-9.48455E-02 9.52616E-14 1.49321E-13
 -1       238 1.95102E+01-3.93332E-03 1.28651E-04-8.45440E-02 1.46586E-14 1.70085E-13
 -1       239 1.95980E+01-3.97687E-03 3.62774E-05-7.30291E-02 8.19226E-14 1.52633E-13
 -1       240 1.96752E+01-3.67689E-03-1.26518E-05-6.17312E-02 8.18165E-14 8.29159E-14
 -1       241 1.97419E+01-3.14601E-03-3.08805E-05-5.16084E-02 8.03443E-14-6.96115E-14
 -1       242 1.97994E+01-2.45139E-03-2.67885E-05-4.33227E-02 3.24351E-14-1.21878E-13
 -1       243 1.98498E+01-1.62590E-03-5.91373E-06-3.73696E-02-2.81883E-14-1.51841E-15
 -1       244 1.98960E+01-6.75867E-04 2.81387E-05-3.41742E-02-4.39462E-14-6.58042E-14
 -1       245 1.99415E+01 4.13059E-04 7.30244E-05-3.41657E-02 6.14566E-14-5.23759E-14
 -1       246 1.99904E+01 1.67099E-03 1.27070E-04-3.78337E-02 2.66202E-14-1.75119E-14
 -1       247 2.00475E+01 3.13874E-03 1.88669E-04-4.57672E-02-5.30910E-14-7.06894E-14
 -1       248 2.01184E+01 4.86146E-03 2.55553E-04-5.86750E-02-9.50592E-14-1.39086E-13
 -1       249 2.02095E+01 6.87939E-03 3.23830E-04-7.73793E-02 9.64260E-14-4.59339E-14
 -1       250 2.03283E+01 9.21280E-03 3.86662E-04-1.02771E-01 1.03159E-13-6.60844E-14
 -1       251 2.04829E+01 1.18367E-02 4.32542E-04-1.35698E-01-3.32056E-14-2.56881E-13
 -1       252 2.06821E+01 1.46380E-02 4.43296E-04-1.76753E-01-4.99271E-14-2.51799E-13
 -1       253 2.09348E+01 1.73445E-02 3.92575E-04-2.25884E-01-7.28280E-14-7.08718E-14
 -1       254 2.12482E+01 1.94123E-02 2.46864E-04-2.81738E-01-6.83314E-14 1.02032E-13
 -1       255 2.16261E+01 1.98614E-02-2.65779E-05-3.40605E-01 1.54090E-13 3.03876E-13
 -1       256 2.20656E+01 1.70677E-02-4.37931E-04-3.94858E-01-6.37282E-14 2.66657E-14
 -1       257 2.25510E+01 8.58759E-03-9.30825E-04-4.30901E-01 3.74395E-14-5.24116E-14
 -1       258 2.30479E+01-8.75204E-03-1.32175E-03-4.27119E-01-2.46955E-14-9.09012E-14
 -1       259 2.34956E+01-3.79585E-02-1.25751E-03-3.53386E-01-1.55595E-13 1.49710E-13
 -1       260 2.38025E+01-7.93194E-02-3.14058E-04-1.75600E-01-8.46207E-14 1.38139E-13
 -1       261 2.38524E+01-1.25541E-01 1.65450E-03 1.29377E-01 8.45149E-14 5.94767E-14
 -1       262 2.35309E+01-1.56187E-01 3.86965E-03 5.44298E-01-2.24950E-15 1.65477E-13
 -1       263 2.27816E+01-1.38454E-01 4.44572E-03 9.75203E-01 8.00636E-14-3.04383E-14
 -1       264 2.16840E+01-4.61705E-02 1.22483E-03 1.24235E+00 5.10652E-14 1.24747E-13
 -1       265 2.05035E+01 1.04738E-01-5.50138E-03 1.15020E+00-4.21347E-14-1.06502E-13
 -1       266 1.96325E+01 2.38275E-01-1.11449E-02 6.38162E-01 2.04266E-13-7.97040E-14
 -1       267 1.93935E+01 2.64294E-01-1.01998E-02-1.04373E-01-1.13815E-13-3.76344E-14
 -1       268 1.98188E+01 1.63798E-01-3.40832E-03-7.25276E-01-3.56427E-13 3.76695E-15
 -1       269 2.06264E+01 8.13733E-03 4.00923E-03-9.58720E-01-1.13813E-13 8.23655E-14
 -1       270 2.14128E+01-1.12414E-01 7.09653E-03-7.85880E-01-1.75576E-13 2.26924E-13
 -1       271 2.18791E+01-1.56519E-01 5.64292E-03-3.79895E-01 3.14838E-13 3.70940E-13
 -1       272 2.19251E+01-1.35588E-01 2.53196E-03 4.98008E-02 3.78981E-13 1.75469E-13
 -1       273 2.16168E+01-7.99877E-02-2.76856E-04 3.60623E-01 2.70905E-13-2.51188E-14
 -1       274 2.11093E+01-1.24850E-02-2.63275E-03 4.88462E-01-6.27354E-14-3.01069E-13
 -1       275 2.05831E+01 5.80467E-02-3.30651E-03 4.18879E-01-8.12584E-14-3.49481E-13
 -1       276 2.01836E+01 1.04507E-01 7.45189E-05 1.90022E-01 2.69074E-14-2.34558E-13
 -1       277 2.01441E+01 3.68172E-01 2.43794E-03 3.62343E-01-5.47097E-14 2.37080E-13
 -1       278 2.01266E+01 8.79728E-01 2.46725E-03 6.73494E-01 2.79212E-14 4.05542E-13
 -1       279 2.00961E+01 1.60576E+00 1.29520E-03 9.42447E-01 2.72322E-13 1.35195E-13
 -1       280 2.00475E+01 2.51160E+00-1.94763E-04 1.11873E+00 3.28710E-13 3.20690E-13
 -1       281 1.99719E+01 3.48147E+00-2.45979E-03 1.14116E+00 1.26650E-13-1.47943E-13
 -1       282 1.98786E+01 4.39666E+00-4.32924E-03 9.55124E-01-2.08583E-13-5.22107E-13
 -1       283 1.97990E+01 5.05560E+00-5.58248E-03 5.54908E-01-1.75516E-13-3.48142E-13
 -1       284 1.97662E+01 5.30460E+00-6.01134E-03 1.53330E-02-9.09258E-14-1.77799E-13
 -1       285 1.97952E+01 5.08040E+00-5.65946E-03-5.28862E-01-1.12132E-13 1.95234E-14
 -1       286 1.98730E+01 4.43909E+00-4.49442E-03-9.40873E-01-3.48091E-13-2.36716E-13
 -1       287 1.99649E+01 3.54812E+00-2.44546E-03-1.13975E+00-3.74590E-13-2.76183E-13
 -1       288 2.00439E+01 2.55681E+00-3.06569E-04-1.13031E+00-2.94140E-13 3.45205E-13
 -1       289 2.00947E+01 1.64000E+00 1.67612E-03-9.60554E-01-4.07172E-13 1.78329E-13
 -1       290 2.01286E+01 8.99084E-01 2.33656E-03-6.82558E-01-3.34783E-13 3.07581E-13
 -1       291 2.02357E+01 4.62584E-01 3.70311E-03-5.70357E-01-5.34032E-13 6.36446E-14
 -1       292-7.92266E-01-1.09809E+01-8.82645E-01 1.43730E+00 4.11948E-13 4.65461E-13
 -1       293 2.43168E+00-9.88412E+00-8.79805E-01 3.32268E+00 8.45823E-13-9.08371E-14
 -1       294 8.52880E+00-6.30912E+00-5.88617E-01 5.41768E+00 6.16729E-13 1.36322E-13
 -1       295 1.71860E+01-2.09812E+00-1.73809E-01 7.18329E+00 3.74284E-13-7.31637E-14
 -1       296 2.71256E+01 1.63996E+00 2.60246E-01 7.93091E+00 1.58790E-13-1.41998E-13
 -1       297 3.65667E+01 4.42387E+00 6.57392E-01 7.29192E+00-1.80120E-13 2.30926E-14
 -1       298 4.33294E+01 6.16091E+00 8.65116E-01 4.65789E+00-2.24959E-14-1.54099E-13
 -1       299 4.69565E+01 6.98819E+00 1.00101E+00 1.48107E+00 3.29264E-13-2.97609E-13
 -1       300 4.67552E+01 6.51421E+00 1.03931E+00-2.26102E+00 3.17288E-13-3.33955E-13
 -1       301 4.12887E+01 5.30732E+00 7.85743E-01-5.23893E+00 5.46639E-13-5.28161E-13
 -1       302 3.26051E+01 1.96441E+00 2.87720E-01-5.37676E+00 3.73736E-13-3.84387E-13
 -1       303 2.25174E+01-4.32648E-01 2.45159E-02-7.14656E+00 3.22548E-13-6.09096E-13
 -1       304 1.24902E+01-3.86108E+00-3.85463E-01-6.04295E+00 6.20892E-13-5.77927E-13
 -1       305 5.65838E+00-7.49896E+00-5.98746E-01-4.69103E+00 7.15344E-13-3.53273E-13
 -1       306 3.24183E-01-1.05870E+01-9.10958E-01-2.09833E+00 5.34600E-13-3.03077E-13
 -1       307-1.46210E+00-1.19090E+01-1.03512E+00-8.17753E-02 2.27187E-13-4.00374E-13
 -1       308 2.62716E-01-1.03101E+01-8.57222E-01 2.17336E+00 9.24261E-15-3.64930E-13
 -1       309 5.96811E+00-7.40275E+00-5.83636E-01 4.75681E+00-1.87350E-13-8.66546E-14
 -1       310 1.41429E+01-3.56905E+00-3.08445E-01 6.32893E+00-3.16330E-13-1.37140E-13
 -1       311 2.40756E+01 6.70439E-01 9.99234E-02 7.41325E+00-1.18461E-13-8.36498E-13
 -1       312 3.48200E+01 3.75574E+00 5.59832E-01 7.02945E+00-2.36415E-13-1.13143E-12
 -1       313 4.34594E+01 5.74658E+00 9.11121E-01 4.58437E+00-2.37602E-13-1.24237E-12
 -1       314 4.70771E+01 6.90684E+00 1.01668E+00 7.15285E-01-3.84165E-13-1.08137E-12
 -1       315 4.68570E+01 6.60272E+00 1.07510E+00-3.33054E+00-3.62849E-13-8.76299E-13
 -1       316 4.07218E+01 5.44172E+00 8.39679E-01-6.49546E+00-3.77035E-13-6.56225E-13
 -1       317 3.07485E+01 2.52607E+00 3.89654E-01-7.62531E+00-1.35503E-13-2.35534E-13
 -1       318 1.93833E+01-1.13247E+00-8.05935E-02-7.48960E+00-4.69624E-13 3.48055E-14
 -1       319 9.56713E+00-5.73251E+00-5.48482E-01-5.70201E+00 5.28466E-14 6.09124E-13
 -1       320 2.63975E+00-9.76252E+00-8.85523E-01-3.46754E+00 3.79613E-13 2.50085E-13
 -1       321-8.83621E-01-1.15181E+01-9.67670E-01-1.31040E+00 5.63938E-13 4.29545E-13
 -1       322 2.01459E+01 3.01490E+00-1.78018E-02-2.11058E+00-3.25430E-13-3.79355E-13
 -1       323 2.07548E+01 2.20990E+00-1.78588E-02-2.36374E+00-3.84642E-13-1.83216E-13
 -1       324 1.95827E+01 3.69197E+00-1.56062E-02-1.31885E+00-1.47373E-13-5.59636E-13
 -1       325 1.94606E+01 3.84811E+00-1.36966E-02-9.24125E-01-7.93202E-14-5.77506E-13
 -1       326 1.93917E+01 3.93912E+00-1.27104E-02-5.44056E-01 3.90322E-15-5.51747E-13
 -1       327 1.93612E+01 3.98048E+00-1.22947E-02-1.73299E-01 8.36514E-14-5.36790E-13
 -1       328 1.93625E+01 3.97888E+00-1.23139E-02 1.94461E-01 1.49733E-13-5.18508E-13
 -1       329 1.93958E+01 3.93401E+00-1.27606E-02 5.65533E-01 2.17142E-13-5.07527E-13
 -1       330 1.94665E+01 3.84076E+00-1.37704E-02 9.39552E-01 2.69425E-13-4.60609E-13
 -1       331 1.95934E+01 3.67852E+00-1.56577E-02 1.33364E+00 3.49335E-13-3.80445E-13
 -1       332 1.98088E+01 3.40988E+00-1.88338E-02 1.73901E+00 4.09385E-13-2.62858E-13
 -1       333 2.01792E+01 2.95518E+00-2.29387E-02 2.12756E+00 4.51374E-13-9.32657E-14
 -1       334 2.07488E+01 2.12943E+00-3.04688E-02 2.32247E+00 4.22416E-13 2.35020E-13
 -1       335 2.10953E+01 1.18773E+00-2.49232E-02 1.92217E+00 3.72379E-13 5.41860E-13
 -1       336 2.03915E+01 4.89255E-01 8.33397E-03 9.27613E-01 3.11091E-13 4.30905E-13
 -1       337 2.04584E+01 6.75078E-01 1.25593E-02-1.02615E+00-2.97796E-13-1.14776E-13
 -1       338 2.00361E+01 3.37148E-01 7.18239E-03-4.58396E-01-2.53659E-13-1.06342E-13
 -1       339 1.97819E+01 1.76413E-01 4.16211E-03-1.49336E-01-1.76826E-13-1.16667E-13
 -1       340 1.96463E+01 9.03302E-02 1.90063E-03 2.16736E-02-1.28126E-13-1.70523E-13
 -1       341 1.95906E+01 4.12103E-02 7.89887E-04 1.12701E-01-1.05960E-13-1.40229E-13
 -1       342 1.95850E+01 1.22724E-02 2.70451E-04 1.55768E-01-1.05023E-13-1.96485E-13
 -1       343 1.96087E+01-4.63574E-03 1.42817E-05 1.69817E-01-8.95188E-14-2.63229E-13
 -1       344 1.96480E+01-1.39483E-02-1.18025E-04 1.66670E-01-7.16181E-14-2.84347E-13
 -1       345 1.96938E+01-1.83026E-02-1.82002E-04 1.54002E-01-5.11867E-14-2.85377E-13
 -1       346 1.97409E+01-1.93646E-02-2.03090E-04 1.36920E-01-8.96546E-14-2.77981E-13
 -1       347 1.97861E+01-1.82146E-02-1.95630E-04 1.18870E-01-7.19521E-14-3.06936E-13
 -1       348 1.98282E+01-1.55456E-02-1.68480E-04 1.02218E-01 2.03722E-14-2.46020E-13
 -1       349 1.98672E+01-1.17760E-02-1.27012E-04 8.86373E-02-5.76543E-15-2.52232E-13
 -1       350 1.99037E+01-7.12002E-03-7.40861E-05 7.93952E-02-7.86310E-14-2.98069E-13
 -1       351 1.99394E+01-1.63694E-03-1.06939E-05 7.55594E-02-1.09288E-13-3.24987E-13
 -1       352 1.99764E+01 4.73161E-03 6.35407E-05 7.81569E-02-1.23545E-13-2.97527E-13
 -1       353 2.00173E+01 1.21289E-02 1.49918E-04 8.82883E-02-6.99924E-14-3.37260E-13
 -1       354 2.00652E+01 2.07489E-02 2.50191E-04 1.07202E-01-9.36582E-14-2.81918E-13
 -1       355 2.01238E+01 3.07945E-02 3.65929E-04 1.36322E-01 5.35896E-14-4.09617E-13
 -1       356 2.01972E+01 4.24165E-02 4.97597E-04 1.77221E-01 3.35671E-14-3.13225E-13
 -1       357 2.02901E+01 5.56197E-02 6.43082E-04 2.31507E-01 6.01875E-14-1.26201E-13
 -1       358 2.04074E+01 7.01098E-02 7.95361E-04 3.00579E-01 3.69694E-14-1.25671E-13
 -1       359 2.05544E+01 8.50464E-02 9.38889E-04 3.85188E-01 7.30527E-15-2.42812E-13
 -1       360 2.07362E+01 9.86523E-02 1.04435E-03 4.84683E-01 4.91908E-14-1.85641E-13
 -1       361 2.09572E+01 1.07626E-01 1.06196E-03 5.95811E-01-3.01767E-14-7.98805E-14
 -1       362 2.12205E+01 1.06337E-01 9.14729E-04 7.10879E-01 1.46421E-14 3.69647E-14
 -1       363 2.15270E+01 8.59062E-02 4.96755E-04 8.15163E-01 1.43087E-13-1.32804E-13
 -1       364 2.18743E+01 3.36653E-02-3.14172E-04 8.83659E-01 6.95427E-14-2.39474E-13
 -1       365 2.22548E+01-6.57413E-02-1.61382E-03 8.77993E-01-1.16544E-14-1.94949E-13
 -1       366 2.26530E+01-2.25007E-01-3.36056E-03 7.45890E-01 1.13335E-13 1.80681E-14
 -1       367 2.30398E+01-4.40836E-01-5.21312E-03 4.28288E-01 6.86643E-14-5.81717E-14
 -1       368 2.33632E+01-6.70062E-01-6.47818E-03-1.17203E-01 3.59701E-14-1.68243E-13
 -1       369 2.35374E+01-8.03910E-01-6.32467E-03-8.66561E-01-8.17831E-14-1.33866E-14
 -1       370 2.34532E+01-6.75628E-01-3.77026E-03-1.66008E+00-1.08260E-13 1.09035E-14
 -1       371 2.30396E+01-1.60356E-01-1.45858E-03-2.16511E+00 6.66383E-14 1.92315E-13
 -1       372 2.23945E+01 6.30847E-01-8.08484E-04-1.99364E+00 6.05733E-14 3.07601E-14
 -1       373 2.18302E+01 1.27500E+00-4.53724E-03-1.01736E+00 1.30045E-13-2.01410E-13
 -1       374 2.17002E+01 1.29527E+00-2.71653E-04 3.35825E-01 2.07074E-14-6.75499E-14
 -1       375 2.20095E+01 6.82351E-01 9.09208E-04 1.35492E+00-3.75474E-13 1.91639E-13
 -1       376 2.24343E+01-1.21254E-01-5.37458E-04 1.57969E+00-1.03962E-14 3.62701E-13
 -1       377 2.26482E+01-6.66524E-01-3.69354E-03 1.10101E+00 4.61435E-13 1.30704E-13
 -1       378 2.25358E+01-8.06298E-01-5.84595E-03 3.11123E-01 2.73893E-13 2.63066E-13
 -1       379 2.21638E+01-6.43429E-01-5.64441E-03-4.23650E-01 3.02219E-13 3.05928E-13
 -1       380 2.16533E+01-3.37594E-01-3.62721E-03-8.99881E-01-4.71684E-14 4.34322E-13
 -1       381 2.11072E+01 4.21926E-03-1.01802E-03-1.05225E+00-8.13139E-14 4.21481E-13
 -1       382 2.06516E+01 2.72077E-01 3.24706E-03-9.07205E-01-2.56042E-13 4.93117E-13
 -1       383 1.98897E+01 2.28408E-01 1.07911E-02 3.99038E-01 2.29928E-13 3.44890E-13
 -1       384 1.96009E+01 1.15249E-01 6.16813E-03 1.20482E-01 1.89754E-13 2.70992E-13
 -1       385 1.94660E+01 5.75517E-02 2.79932E-03-2.82175E-02 1.33065E-13 2.33668E-13
 -1       386 1.94258E+01 2.56451E-02 1.17306E-03-1.04949E-01 6.00972E-14 1.69474E-13
 -1       387 1.94412E+01 7.19751E-03 4.47248E-04-1.39992E-01 5.23513E-14 8.65145E-14
 -1       388 1.94868E+01-3.47971E-03 1.00037E-04-1.50347E-01 1.20276E-13 1.16578E-13
 -1       389 1.95467E+01-9.32950E-03-7.94026E-05-1.46264E-01 1.09413E-13 9.32520E-14
 -1       390 1.96111E+01-1.20593E-02-1.71535E-04-1.34275E-01 1.77215E-14 1.37544E-13
 -1       391 1.96740E+01-1.27330E-02-2.09762E-04-1.18665E-01 1.02924E-13 8.54334E-14
 -1       392 1.97323E+01-1.20375E-02-2.11971E-04-1.02297E-01 1.55217E-13-2.06278E-15
 -1       393 1.97851E+01-1.04141E-02-1.89303E-04-8.71103E-02 1.83911E-13-4.91332E-14
 -1       394 1.98323E+01-8.13151E-03-1.48768E-04-7.44584E-02 4.39818E-14-6.34041E-15
 -1       395 1.98753E+01-5.33045E-03-9.44072E-05-6.53451E-02-9.40208E-14-2.30584E-14
 -1       396 1.99159E+01-2.05440E-03-2.80500E-05-6.06029E-02-1.57356E-14 4.83891E-14
 -1       397 1.99567E+01 1.72747E-03 5.00937E-05-6.10255E-02 7.92025E-14 1.50113E-14
 -1       398 2.00007E+01 6.10091E-03 1.40902E-04-6.74666E-02 6.86612E-14-2.55591E-14
 -1       399 2.00517E+01 1.11868E-02 2.45786E-04-8.09059E-02-8.21607E-15-5.97054E-14
 -1       400 2.01140E+01 1.71173E-02 3.65988E-04-1.02481E-01-6.12029E-14-4.81211E-14
 -1       401 2.01926E+01 2.40011E-02 5.01569E-04-1.33474E-01 9.60969E-15-1.13647E-13
 -1       402 2.02929E+01 3.18709E-02 6.49855E-04-1.75232E-01 1.90740E-13-6.57828E-14
 -1       403 2.04212E+01 4.05959E-02 8.03027E-04-2.28984E-01 2.76804E-14-1.61936E-13
 -1       404 2.05838E+01 4.97408E-02 9.44521E-04-2.95501E-01-5.27736E-14-2.44033E-13
 -1       405 2.07870E+01 5.83387E-02 1.04404E-03-3.74498E-01-1.58770E-13-1.56387E-13
 -1       406 2.10362E+01 6.45455E-02 1.05165E-03-4.63664E-01-2.20872E-13-1.04659E-13
 -1       407 2.13344E+01 6.51528E-02 8.93241E-04-5.57143E-01 8.54935E-14 7.66721E-14
 -1       408 2.16810E+01 5.50116E-02 4.72692E-04-6.43360E-01 5.26088E-14 2.84674E-13
 -1       409 2.20682E+01 2.66089E-02-3.09939E-04-7.02252E-01 6.32006E-15 4.29320E-13
 -1       410 2.24786E+01-2.94976E-02-1.50492E-03-7.02559E-01 5.09216E-14 5.17404E-13
 -1       411 2.28805E+01-1.21901E-01-3.02995E-03-6.01181E-01-1.52970E-13 2.11326E-13
 -1       412 2.32243E+01-2.50821E-01-4.54040E-03-3.48920E-01-9.60785E-14 1.01306E-13
 -1       413 2.34393E+01-3.94318E-01-5.48018E-03 9.02531E-02-9.13805E-14 4.57601E-14
 -1       414 2.34385E+01-4.92051E-01-5.16737E-03 7.00118E-01 3.34888E-14 2.23846E-13
 -1       415 2.31408E+01-4.45925E-01-3.61753E-03 1.35864E+00 1.48696E-13 3.78534E-13
 -1       416 2.25301E+01-1.71134E-01-8.98715E-04 1.81219E+00 9.47051E-14 4.77561E-13
 -1       417 2.17346E+01 2.95208E-01 5.16100E-04 1.75700E+00 1.64924E-13 3.84796E-13
 -1       418 2.10497E+01 7.30009E-01 1.41418E-03 1.05778E+00 8.25416E-14 2.09873E-13
 -1       419 2.07919E+01 8.40479E-01 2.82656E-03-3.87055E-02-2.21764E-13 1.51035E-13
 -1       420 2.10391E+01 5.42821E-01 3.42292E-03-9.94645E-01-1.71820E-13 2.64957E-13
 -1       421 2.15595E+01 5.00472E-02 2.57727E-03-1.37553E+00-2.27531E-13-7.74120E-14
 -1       422 2.20140E+01-3.45195E-01-6.25681E-04-1.13347E+00-1.01371E-13 8.17679E-14
 -1       423 2.21873E+01-4.98942E-01-4.05262E-03-5.28786E-01 1.37414E-13 1.16117E-13
 -1       424 2.20467E+01-4.40019E-01-5.30459E-03 1.18601E-01 4.60063E-13 3.05468E-13
 -1       425 2.16727E+01-2.65508E-01-4.46214E-03 5.92841E-01 2.22992E-13 2.90834E-13
 -1       426 2.11784E+01-5.07067E-02-2.08783E-03 8.00653E-01 1.68763E-13 1.77518E-13
 -1       427 2.06730E+01 1.54708E-01-6.02290E-06 7.28549E-01-1.16820E-13 4.52992E-14
 -1       428 2.03884E+01 2.80128E-01 1.73172E-03 5.84020E-01-1.78860E-13 2.56323E-14
 -1       429 2.02827E+01 1.37493E+00 2.08510E-03 1.70797E+00 1.41556E-13 3.69190E-13
 -1       430 2.04120E+01 8.37970E-01 3.37011E-03 1.34439E+00 1.15169E-14 5.95530E-13
 -1       431 2.04124E+01 5.47120E-01 3.41976E-03 9.59949E-01-1.27533E-14 4.64371E-13
 -1       432 2.00481E+01 2.02573E+00-6.13527E-04 1.89159E+00-5.03416E-14-4.51695E-13
 -1       433 1.97127E+01 2.74315E+00-3.40466E-03 1.78016E+00-2.73179E-13-3.30917E-13
 -1       434 1.93651E+01 3.37681E+00-5.59922E-03 1.29688E+00-4.73731E-15-4.24971E-13
 -1       435 1.91367E+01 3.75882E+00-6.96136E-03 4.93161E-01 2.26233E-14-2.45332E-13
 -1       436 1.91289E+01 3.77028E+00-7.06421E-03-4.43344E-01-8.38950E-15-2.61860E-13
 -1       437 1.93463E+01 3.40662E+00-5.93804E-03-1.26192E+00-2.43397E-14-1.26704E-13
 -1       438 1.96839E+01 2.79465E+00-3.60879E-03-1.76267E+00 8.72789E-14-2.09635E-13
 -1       439 2.00248E+01 2.07698E+00-7.74820E-04-1.90234E+00 2.82062E-13 3.32888E-13
 -1       440 2.02734E+01 1.40705E+00 2.10046E-03-1.73363E+00 2.21923E-13-2.53013E-14
 -1       441 2.04150E+01 8.63136E-01 4.99590E-03-1.37514E+00-2.08749E-13-5.84632E-14
 -1       442 9.89452E+00-6.38803E+00-7.76605E-02 7.10244E+00 4.16223E-13-2.72254E-13
 -1       443 2.09639E+00-4.00420E+00 6.31324E-02-2.17797E-01 4.24967E-13 3.30291E-14
 -1       444 4.03669E+00-5.89344E+00-9.59899E-02 4.83873E+00 1.47882E-13 1.71696E-13
 -1       445 1.79965E+01-6.15948E+00-3.61458E-02 7.29578E+00 1.95538E-13-3.32394E-13
 -1       446 2.61447E+01-4.61602E+00-5.41251E-03 5.11972E+00 1.93873E-13-3.57575E-13
 -1       447 1.98031E+01 3.43104E+00-1.76726E-02-1.73844E+00-2.39601E-13-4.97915E-13
 -1       448 3.44750E+01 3.45191E+00 1.98457E-02 5.04052E-01 8.55982E-14 1.69059E-13
 -1       449 3.64419E+01 7.22402E+00 7.42803E-02 1.62417E-01 2.00479E-13-6.77930E-14
 -1       450 3.69080E+01 8.08972E+00 8.43674E-02 4.81915E-01 3.92186E-13-1.98279E-14
 -1       451 3.54891E+01 5.98148E+00 2.28332E-02 6.95341E-01 4.92092E-13-1.13798E-13
 -1       452 3.36033E+01 2.24952E+00 1.87750E-02 1.77231E-02 2.89310E-13-1.61204E-13
 -1       453 2.86537E+01-3.35340E+00-2.79709E-02-2.84869E+00 1.03424E-13-1.79093E-13
 -1       454 2.16997E+01-5.28474E+00-2.94372E-02-5.96160E+00 2.74281E-13-2.29095E-13
 -1       455 1.44143E+01-6.09737E+00-3.58758E-02-6.97110E+00 3.86274E-13-1.78727E-13
 -1       456 6.37289E+00-5.22184E+00 1.14682E-03-5.77694E+00 2.92891E-13-4.38344E-13
 -1       457 2.12123E+00-4.76318E+00-1.17698E-02-2.76266E+00 1.82056E-13-3.74048E-13
 -1       458 1.19222E+00-5.31896E+00-9.36277E-02 1.92342E+00 1.12015E-13-4.25132E-13
 -1       459 6.96804E+00-5.03063E+00 5.13141E-02 5.96510E+00 2.77417E-14-2.23307E-13
 -1       460 1.48575E+01-6.15286E+00-2.71253E-02 6.97299E+00-2.17409E-13-1.46107E-13
 -1       461 2.37567E+01-5.02431E+00-1.13303E-02 5.28163E+00-3.36675E-14-6.43083E-13
 -1       462 3.03102E+01-1.33758E+00 2.80617E-02 3.00313E+00-2.14620E-14-8.64114E-13
 -1       463 3.43002E+01 2.97112E+00 2.36895E-02 4.32035E-02-9.19403E-14-6.63539E-13
 -1       464 3.49340E+01 6.83813E+00-3.48602E-02-1.07327E+00-2.76904E-13-3.31082E-13
 -1       465 3.70082E+01 8.13915E+00 9.57928E-02-3.40209E-01-4.76702E-13-5.12727E-13
 -1       466 3.63489E+01 5.84259E+00 9.74399E-02-4.48415E-01-3.21715E-13-8.15958E-13
 -1       467 3.34738E+01 1.31504E+00 5.12751E-02-1.61202E+00-2.92634E-13-8.48349E-13
 -1       468 2.76722E+01-3.47657E+00-1.80681E-04-4.70877E+00-2.05350E-13-4.85417E-13
 -1       469 2.00684E+01-6.17592E+00-1.02307E-02-7.00838E+00 3.49665E-13-1.73833E-13
 -1       470 1.12930E+01-6.19401E+00-4.02167E-03-7.43307E+00 8.55913E-13 6.69513E-13
 -1       471 4.39042E+00-5.27559E+00-9.44902E-03-4.88461E+00 8.88428E-13 1.08080E-13
 -1       472 3.16801E+01-6.17830E-01 3.12026E-02 2.83036E+00-6.00422E-14 3.01814E-13
 -1       473 2.03729E+01 8.31873E-01 4.02617E-03 9.72378E-01 3.03234E-13 5.81060E-14
 -1       474 1.97333E+01 3.10361E+00-5.34772E-03-6.34072E-01-3.07216E-14-5.00336E-13
 -1       475 1.98298E+01 2.92999E+00-5.72658E-03-9.49958E-01-1.04695E-13-5.15893E-13
 -1       476 1.96657E+01 3.22623E+00-5.02263E-03 8.83767E-03 1.08108E-13-4.69761E-13
 -1       477 1.96842E+01 3.19324E+00-5.10477E-03 3.30583E-01 1.81837E-13-4.68480E-13
 -1       478 1.97379E+01 3.09644E+00-5.41813E-03 6.46106E-01 2.34055E-13-4.40429E-13
 -1       479 1.98362E+01 2.91869E+00-5.97545E-03 9.61757E-01 3.06491E-13-3.75147E-13
 -1       480 1.99917E+01 2.63358E+00-6.52922E-03 1.25717E+00 3.55863E-13-2.95253E-13
 -1       481 2.02334E+01 2.18773E+00-5.69435E-03 1.50197E+00 3.69398E-13-1.79098E-13
 -1       482 2.01112E+01 4.53362E-01 5.06379E-03 4.64633E-01 2.53589E-13 4.84195E-14
 -1       483 2.03437E+01 9.72762E-01 2.78297E-03-9.40543E-01-2.61203E-13-2.33946E-13
 -1       484 3.06760E+01-4.54100E-01-1.20847E-01-6.28085E-01-2.00187E-13-8.45712E-14
 -1       485 2.01715E+01 5.45190E-01 2.32116E-03-4.68344E-01-2.19525E-13-2.12110E-13
 -1       486 2.00238E+01 3.03423E-01 1.10282E-03-1.67299E-01-1.61285E-13-1.93394E-13
 -1       487 1.99230E+01 1.61402E-01 4.68904E-04 1.40650E-02-1.05659E-13-1.88021E-13
 -1       488 1.98640E+01 7.51669E-02 1.60964E-04 1.16550E-01-1.37958E-13-2.31767E-13
 -1       489 1.98366E+01 2.25994E-02 2.17792E-05 1.67872E-01-1.57805E-13-2.39019E-13
 -1       490 1.98304E+01-8.60996E-03-4.63569E-05 1.86685E-01-8.64955E-14-2.44635E-13
 -1       491 1.98378E+01-2.58038E-02-8.04749E-05 1.85658E-01-7.68076E-14-2.33656E-13
 -1       492 1.98530E+01-3.36192E-02-9.39827E-05 1.73469E-01-7.45716E-14-2.50226E-13
 -1       493 1.98724E+01-3.50862E-02-9.38131E-05 1.56105E-01-5.59866E-14-2.02105E-13
 -1       494 1.98935E+01-3.21965E-02-8.42803E-05 1.37723E-01 8.76030E-16-2.24797E-13
 -1       495 1.99152E+01-2.62224E-02-6.81486E-05 1.21259E-01-4.12826E-14-3.20977E-13
 -1       496 1.99371E+01-1.79136E-02-4.70180E-05 1.08865E-01-4.97179E-14-2.65744E-13
 -1       497 1.99595E+01-7.62850E-03-2.15782E-05 1.02233E-01-9.48059E-14-2.02352E-13
 -1       498 1.99832E+01 4.56965E-03 8.16554E-06 1.02838E-01-7.87003E-14-1.03702E-13
 -1       499 2.00093E+01 1.88342E-02 4.26907E-05 1.12119E-01-8.02541E-14-5.29482E-14
 -1       500 2.00393E+01 3.54607E-02 8.27983E-05 1.31600E-01-1.14189E-13-1.27788E-13
 -1       501 2.00749E+01 5.48044E-02 1.29382E-04 1.62957E-01-7.04825E-14-8.85592E-14
 -1       502 2.01183E+01 7.71743E-02 1.83137E-04 2.08023E-01 9.26182E-14-2.44589E-13
 -1       503 2.01717E+01 1.02679E-01 2.44087E-04 2.68703E-01 1.08082E-13-2.07183E-13
 -1       504 2.02376E+01 1.30990E-01 3.10830E-04 3.46784E-01 7.84270E-14-1.32208E-13
 -1       505 2.03186E+01 1.60973E-01 3.79322E-04 4.43575E-01-3.03983E-14-6.86244E-14
 -1       506 2.04178E+01 1.90113E-01 4.40983E-04 5.59311E-01-5.84926E-15-9.01247E-14
 -1       507 2.05385E+01 2.13650E-01 4.79965E-04 6.92216E-01-5.81006E-15-1.87660E-13
 -1       508 2.06848E+01 2.23364E-01 4.69702E-04 8.37087E-01 4.01811E-14-1.74310E-13
 -1       509 2.08629E+01 2.06036E-01 3.69216E-04 9.83265E-01 2.38717E-14-1.93971E-13
 -1       510 2.10820E+01 1.41984E-01 1.21674E-04 1.11185E+00 4.34833E-14-2.94328E-13
 -1       511 2.13571E+01 4.90581E-03-3.42955E-04 1.19216E+00 2.40222E-14-2.25238E-13
 -1       512 2.17096E+01-2.33995E-01-1.09678E-03 1.17791E+00 1.73460E-13-1.42845E-14
 -1       513 2.21645E+01-5.91952E-01-2.08386E-03 1.00522E+00 1.05511E-13 1.27979E-13
 -1       514 2.27365E+01-1.04378E+00-3.02010E-03 5.97548E-01-9.13692E-14 2.16750E-13
 -1       515 2.33946E+01-1.46804E+00-3.80169E-03-1.09292E-01 1.46533E-13 1.24348E-13
 -1       516 2.40094E+01-1.59839E+00-5.47993E-03-1.09280E+00 5.92351E-15 2.30764E-13
 -1       517 2.43514E+01-1.07635E+00-6.57081E-03-2.11693E+00 2.26155E-14 4.42452E-13
 -1       518 2.41901E+01 2.78887E-01-1.48201E-02-2.63836E+00-1.23073E-13 2.78700E-13
 -1       519 2.36682E+01 1.89800E+00-1.37196E-02-2.08080E+00-2.06728E-13 2.95350E-13
 -1       520 2.32361E+01 2.80293E+00-3.52556E-02-4.55804E-01-1.24154E-14-6.47364E-14
 -1       521 2.35013E+01 2.05205E+00-2.19117E-02 1.22331E+00 4.54576E-14-2.40793E-13
 -1       522 2.39125E+01 3.90147E-01-1.40544E-02 1.89244E+00-6.56278E-14 7.36925E-14
 -1       523 2.39929E+01-1.02474E+00-7.89805E-03 1.42889E+00 1.33685E-13 2.50013E-13
 -1       524 2.35763E+01-1.60280E+00-5.23148E-03 4.09054E-01 2.77632E-13-1.05736E-13
 -1       525 2.28552E+01-1.45227E+00-3.86900E-03-5.79586E-01 1.30718E-13-1.94380E-13
 -1       526 2.20758E+01-9.23034E-01-2.46271E-03-1.24972E+00 1.75099E-13-1.42531E-13
 -1       527 2.13790E+01-2.82137E-01-5.65802E-04-1.52917E+00-1.07706E-13 7.40720E-14
 -1       528 9.91288E+00-4.15579E+00 1.26948E-01 6.53386E+00 3.89203E-14-2.75543E-13
 -1       529 1.98084E+01 1.28926E-01 1.01787E-03-1.87715E-02 1.55986E-13 3.63529E-14
 -1       530 1.97504E+01 5.93761E-02 3.65378E-04-1.17149E-01 1.02634E-13-2.96353E-14
 -1       531 1.97314E+01 1.76995E-02 8.28258E-05-1.65245E-01 4.78565E-14-4.15032E-14
 -1       532 1.97372E+01-6.84912E-03-5.22728E-05-1.81995E-01 1.04098E-13 2.78114E-14
 -1       533 1.97576E+01-2.03673E-02-1.19693E-04-1.79852E-01 4.42852E-14 5.76565E-14
 -1       534 1.97856E+01-2.65837E-02-1.48887E-04-1.67153E-01 3.62620E-14 5.13848E-15
 -1       535 1.98165E+01-2.79007E-02-1.53304E-04-1.49563E-01 1.74643E-13 2.34712E-14
 -1       536 1.98478E+01-2.58876E-02-1.40982E-04-1.30968E-01 1.62081E-13 3.97797E-14
 -1       537 1.98783E+01-2.15488E-02-1.17074E-04-1.14079E-01 6.29288E-14 2.88087E-14
 -1       538 1.99077E+01-1.54817E-02-8.46741E-05-1.00854E-01-4.57822E-14 9.98677E-14
 -1       539 1.99365E+01-7.98171E-03-4.53508E-05-9.28113E-02-3.66691E-14 8.19006E-14
 -1       540 1.99659E+01 8.83811E-04 4.91828E-07-9.12546E-02 6.93347E-14 7.90423E-14
 -1       541 1.99974E+01 1.12161E-02 5.32721E-05-9.74489E-02 7.55484E-14 1.48319E-13
 -1       542 2.00331E+01 2.32307E-02 1.13912E-04-1.12737E-01 8.27331E-15 1.06277E-13
 -1       543 2.00754E+01 3.71982E-02 1.83480E-04-1.38610E-01 1.90032E-14 7.66574E-14
 -1       544 2.01271E+01 5.33674E-02 2.62738E-04-1.76715E-01 5.46737E-14-6.49588E-14
 -1       545 2.01913E+01 7.18555E-02 3.51403E-04-2.28795E-01 1.19141E-13-1.99925E-13
 -1       546 2.02716E+01 9.24791E-02 4.47052E-04-2.96510E-01 1.08393E-13-1.78264E-13
 -1       547 2.03715E+01 1.14487E-01 5.43376E-04-3.81117E-01-1.66616E-14-9.48349E-14
 -1       548 2.04950E+01 1.36145E-01 6.27593E-04-4.82897E-01-4.81808E-14-1.21934E-13
 -1       549 2.06458E+01 1.54101E-01 6.76845E-04-6.00255E-01-1.31793E-13-2.35174E-13
 -1       550 2.08279E+01 1.62489E-01 6.53906E-04-7.28323E-01-2.00627E-13-1.43341E-13
 -1       551 2.10453E+01 1.51781E-01 5.03696E-04-8.56939E-01-3.37491E-14 1.89041E-14
 -1       552 2.13026E+01 1.07694E-01 1.53641E-04-9.67912E-01-1.14245E-13 7.92300E-14
 -1       553 2.16050E+01 1.10119E-02-4.78971E-04-1.03177E+00-8.88054E-14 6.63861E-14
 -1       554 2.19587E+01-1.59523E-01-1.43352E-03-1.00481E+00-1.08542E-15 2.84725E-13
 -1       555 2.23674E+01-4.17267E-01-2.65301E-03-8.28899E-01 1.01286E-15 2.23558E-13
 -1       556 2.28228E+01-7.45009E-01-3.77377E-03-4.39676E-01-7.78824E-14 2.12902E-13
 -1       557 2.32828E+01-1.05925E+00-4.49336E-03 2.06016E-01-7.09924E-14 2.72151E-13
 -1       558 2.36448E+01-1.17678E+00-4.39100E-03 1.07135E+00 7.36778E-14 3.12476E-13
 -1       559 2.37423E+01-8.46979E-01-5.29540E-03 1.94737E+00 5.55242E-14 4.26484E-13
 -1       560 2.34650E+01 4.88541E-02-5.26918E-03 2.40715E+00 1.61501E-13 2.68752E-13
 -1       561 2.29027E+01 1.24794E+00-9.83262E-03 2.00868E+00 1.51924E-13 2.44959E-13
 -1       562 2.24831E+01 1.98707E+00-8.78901E-03 7.18996E-01 6.76542E-14 3.18935E-13
 -1       563 2.25187E+01 1.70715E+00-1.20903E-02-7.93303E-01-1.84673E-13 2.82589E-13
 -1       564 2.29055E+01 6.18012E-01-7.08366E-03-1.66176E+00-2.89382E-14 1.67141E-13
 -1       565 2.31912E+01-5.01022E-01-4.67720E-03-1.56524E+00-3.15646E-13 2.61218E-13
 -1       566 2.31106E+01-1.10786E+00-4.54828E-03-8.13934E-01-5.14289E-14 3.93184E-13
 -1       567 2.26918E+01-1.13893E+00-3.78756E-03 9.28385E-02 1.66061E-13 4.61417E-13
 -1       568 2.21029E+01-8.10915E-01-3.40895E-03 8.10428E-01 2.72624E-13 7.98760E-13
 -1       569 2.14907E+01-3.41663E-01-1.50075E-03 1.20066E+00 3.49386E-13 6.87267E-13
 -1       570 2.09189E+01 1.38041E-01 7.33373E-04 1.25065E+00 7.10981E-14 7.60855E-13
 -1       571 1.98066E+01 1.34286E+00-1.18674E-03 2.46627E+00 4.53047E-14-5.61704E-13
 -1       572 1.90497E+01 1.99312E+00-1.63113E-03 2.13890E+00 6.89316E-14-1.40214E-13
 -1       573 2.07465E+01 4.19753E-01 1.91541E-03 1.90167E+00-1.02100E-13 1.29640E-13
 -1       574 2.04013E+01 7.93646E-01 4.61458E-04 2.32376E+00-3.20661E-13-6.20128E-15
 -1       575 1.83876E+01 2.54206E+00-1.89762E-03 1.27405E+00 1.70708E-14-3.87931E-13
 -1       576 1.81113E+01 2.76790E+00-2.53416E-03 3.74287E-02 1.60211E-13-1.37688E-13
 -1       577 1.83566E+01 2.56713E+00-2.75856E-03-1.21341E+00 1.24463E-13-2.18879E-14
 -1       578 1.89908E+01 2.04285E+00-1.98192E-03-2.09619E+00 1.77259E-13-1.52476E-13
 -1       579 1.97492E+01 1.39447E+00-1.22828E-03-2.46726E+00 2.54942E-13 1.82466E-14
 -1       580 2.03689E+01 8.29627E-01-1.14766E-04-2.35050E+00 3.56852E-13 2.01126E-13
 -1       581 2.07384E+01 4.41967E-01 1.47577E-03-1.93455E+00 1.41527E-14-4.45347E-13
 -1       582 6.27407E+00-2.06150E+00 1.82627E-01-3.16941E+00 4.57530E-13-1.11244E-13
 -1       583 1.99236E+01 2.46229E-01 2.46374E-03 1.59474E-01 1.68625E-13 4.47799E-14
 -1       584 1.68310E+01-5.79671E+00 8.83848E-02 7.40680E+00 5.50254E-14-7.62206E-13
 -1       585 1.08490E+01-3.74720E+00 1.42190E-01-6.53968E+00 8.38898E-13 5.51871E-13
 -1       586 2.03971E+01 1.75560E+00-5.96382E-03-1.53747E+00-3.09734E-13-2.98969E-13
 -1       587 2.32316E+01-6.26144E+00 2.10994E-02 5.81838E+00 8.92411E-14-6.13926E-13
 -1       588 2.97686E+01-1.58936E+00-1.20058E-01 7.90188E-01 6.73992E-14-2.13711E-13
 -1       589 3.13900E+01 6.74320E+00-1.57712E-01 1.50672E+00 5.27647E-13-9.68045E-14
 -1       590 1.96813E+01 3.19763E+00-5.09849E-03-3.12995E-01 4.19570E-14-4.98461E-13
 -1       591 3.12455E+01 7.39662E+00-1.60690E-01-1.26338E-01 3.92048E-13 5.56343E-14
 -1       592 2.53833E+01-5.50743E+00-7.86575E-05-3.47705E+00-3.23699E-14 3.28938E-14
 -1       593 3.09643E+01 4.66286E+00-1.48230E-01-1.51543E+00 1.03931E-13 1.92270E-13
 -1       594 3.08637E+01 3.42551E+00-1.31463E-01 2.27738E+00 4.67404E-13-1.02619E-13
 -1       595 6.55447E+00-1.94281E+00 1.89655E-01 3.55074E+00 6.15827E-15-4.74940E-13
 -1       596 2.08277E+01-5.98590E+00 6.49009E-02-5.80876E+00 1.07990E-13-4.94145E-14
 -1       597 1.33889E+01-4.71057E+00 1.23910E-01-6.77035E+00 3.52843E-14-2.16702E-14
 -1       598 7.28946E+00-2.14405E+00 1.75664E-01-4.21513E+00 5.17780E-14-4.05578E-13
 -1       599 4.76593E+00-1.50307E+00 1.98548E-01-3.93783E-01 2.55941E-14-5.99784E-13
 -1       600 1.43595E+01-4.79345E+00 1.17143E-01 6.68695E+00-3.67137E-13-4.20872E-13
 -1       601 2.13239E+01-6.09615E+00 3.30401E-02 5.61014E+00-3.51386E-13-6.77117E-13
 -1       602 2.80020E+01-4.37611E+00-1.73857E-02 1.91801E+00-2.35922E-14-9.80153E-13
 -1       603 3.04539E+01-8.24932E-01-1.05395E-01-1.03748E+00 1.51511E-14-7.86510E-13
 -1       604 3.04554E+01 3.69949E+00-1.63142E-01-2.37181E+00-3.05214E-13-3.30506E-13
 -1       605 3.05935E+01 7.38913E+00-1.69305E-01-7.68948E-01-5.50032E-13-3.93487E-14
 -1       606 3.15558E+01 6.50854E+00-1.53163E-01 8.89792E-01-2.61374E-13-1.81709E-13
 -1       607 3.13161E+01 2.59803E+00-1.24982E-01 1.40028E+00-3.86573E-13-5.18127E-13
 -1       608 2.98609E+01-2.88776E+00-7.92065E-02-9.09070E-01-1.93127E-13-7.08406E-13
 -1       609 2.57632E+01-5.82990E+00 1.70225E-02-4.51264E+00 1.68164E-13-4.31863E-13
 -1       610 1.81728E+01-5.92017E+00 8.03134E-02-7.22646E+00 6.46788E-13 1.04118E-13
 -1       611 6.05784E+00-2.28319E+00 1.76635E-01 3.32666E+00 1.84346E-13 1.73292E-13
 -1       612 2.05848E+01 1.30520E+00-9.97030E-04 1.54824E+00 3.77482E-13 1.20250E-13
 -1       613 2.89528E+01-3.99541E+00-3.11636E-02 1.83735E+00-1.34146E-13-1.09780E-13
 -1       614 1.99730E+01 2.64895E+00-9.82663E-03-1.23948E+00-1.90182E-13-4.73337E-13
 -1       615 2.09698E+01 1.41574E-01 1.04127E-03-1.51009E+00-2.01637E-13 4.69893E-15
 -1       616 7.45953E+00-7.08491E-01 1.82298E-01 2.42486E-01 1.75642E-13-7.45515E-14
 -1       617 2.75840E+01-4.05225E+00-4.52688E-02-3.98818E-01-2.15886E-13-1.10554E-13
 -1       618 1.16627E+01-2.37494E+00 1.42589E-01 5.26527E+00-1.50303E-13-6.70429E-13
 -1       619 2.79893E+01 5.17063E+00-1.39434E-01-2.23132E+00-4.26367E-13-9.18259E-14
 -1       620 1.99608E+01 2.44878E+00-1.60061E-03 3.94374E-01 1.92138E-13-3.83193E-13
 -1       621 1.99292E+01 2.52357E+00-1.51614E-03 1.35881E-01 1.15291E-13-4.14247E-13
 -1       622 2.01211E+01 2.04540E+00-1.56795E-03 8.50410E-01 2.92397E-13-3.11633E-13
 -1       623 2.02387E+01 1.67563E+00-2.25118E-03 9.92972E-01 2.98094E-13-2.53697E-13
 -1       624 2.03189E+01 1.03654E+00 2.93135E-03 8.31975E-01 2.60966E-13-1.05352E-13
 -1       625 2.83486E+01 4.56070E-01-1.14092E-01 2.65412E+00 8.30967E-14 3.22846E-13
 -1       626 2.83917E+01-2.70240E+00-7.71275E-02-4.27519E-01-1.94572E-13-2.98980E-13
 -1       627 2.02050E+01 6.13518E-01 1.06937E-03 4.20633E-01 2.12745E-13-1.28420E-13
 -1       628 2.72167E+01 4.96938E+00-1.52260E-01-1.20488E+00 1.43864E-13-1.46057E-13
 -1       629 2.02395E+01 6.73945E-01 4.43500E-04-3.95356E-01-1.86566E-13-2.46623E-13
 -1       630 2.01671E+01 3.91479E-01 2.30924E-04-1.40815E-01-1.46896E-13-2.32331E-13
 -1       631 2.01018E+01 2.11975E-01 8.24082E-05 2.08379E-02-1.09394E-13-2.34088E-13
 -1       632 2.00515E+01 9.79488E-02 8.16726E-06 1.15786E-01-1.48251E-13-2.30180E-13
 -1       633 2.00166E+01 2.66782E-02-1.43230E-05 1.64676E-01-1.07753E-13-1.90653E-13
 -1       634 1.99944E+01-1.59294E-02-2.56957E-05 1.83202E-01-4.48498E-14-1.36474E-13
 -1       635 1.99818E+01-3.90513E-02-3.09077E-05 1.82860E-01-7.88858E-14-6.90453E-14
 -1       636 1.99762E+01-4.88204E-02-3.18261E-05 1.71916E-01-7.62127E-14-8.72415E-14
 -1       637 1.99754E+01-4.93694E-02-2.95906E-05 1.56267E-01-7.09071E-14-1.42896E-13
 -1       638 1.99781E+01-4.34438E-02-2.51248E-05 1.40125E-01-3.59329E-14-1.45556E-13
 -1       639 1.99832E+01-3.27824E-02-1.90609E-05 1.26549E-01-4.37479E-14-1.69098E-13
 -1       640 1.99902E+01-1.83743E-02-1.17190E-05 1.17857E-01-1.59139E-15-1.67430E-13
 -1       641 1.99989E+01-6.43732E-04-3.13932E-06 1.15939E-01-5.98049E-14-8.46813E-14
 -1       642 2.00092E+01 2.04065E-02 6.78396E-06 1.22492E-01-9.81044E-14-1.03154E-13
 -1       643 2.00212E+01 4.50671E-02 1.83110E-05 1.39193E-01-1.21450E-13-8.64317E-14
 -1       644 2.00353E+01 7.37940E-02 3.17405E-05 1.67805E-01-9.97648E-14-1.11940E-13
 -1       645 2.00517E+01 1.07059E-01 4.74112E-05 2.10221E-01-4.68050E-14-2.44672E-14
 -1       646 2.00709E+01 1.45156E-01 6.55931E-05 2.68436E-01 8.78913E-15-1.21875E-13
 -1       647 2.00932E+01 1.87915E-01 8.63395E-05 3.44440E-01 8.78224E-14-3.37425E-13
 -1       648 2.01192E+01 2.34283E-01 1.09252E-04 4.39990E-01 1.20884E-13-2.91294E-13
 -1       649 2.01496E+01 2.81686E-01 1.33091E-04 5.56255E-01-1.05165E-14-1.05711E-13
 -1       650 2.01858E+01 3.25083E-01 1.55155E-04 6.93268E-01-4.92098E-14-7.88287E-14
 -1       651 2.02311E+01 3.55601E-01 1.70364E-04 8.49155E-01 6.64723E-14-4.95749E-14
 -1       652 2.02915E+01 3.58704E-01 1.70283E-04 1.01905E+00 7.97499E-15 2.00267E-15
 -1       653 2.03795E+01 3.12022E-01 1.41049E-04 1.19357E+00 1.63683E-15-5.11234E-14
 -1       654 2.05172E+01 1.83472E-01 6.28583E-05 1.35648E+00 1.86470E-14-4.62620E-14
 -1       655 2.07426E+01-6.84117E-02-9.97786E-05 1.48080E+00 3.35186E-13 1.20213E-13
 -1       656 2.11136E+01-4.87139E-01-4.35045E-04 1.52170E+00 2.31374E-13 1.28921E-13
 -1       657 2.17053E+01-1.09379E+00-6.66347E-04 1.40710E+00 3.10830E-15 1.60136E-13
 -1       658 2.25873E+01-1.83587E+00-4.74694E-04 1.02480E+00-1.82226E-13 1.75221E-13
 -1       659 2.37582E+01-2.48268E+00-1.23079E-03 2.35419E-01 1.24816E-14 6.28080E-14
 -1       660 2.50142E+01-2.49217E+00-8.55686E-03-1.03730E+00 1.87086E-13 1.51702E-13
 -1       661 2.58616E+01-1.21152E+00-3.37610E-02-2.44442E+00-9.24443E-14 3.58983E-13
 -1       662 2.57820E+01 1.54654E+00-6.10100E-02-2.87640E+00-1.48253E-13 3.46435E-13
 -1       663 2.55599E+01 1.73340E+00-8.42145E-02 2.09156E+00-1.11560E-14-1.01662E-13
 -1       664 2.56834E+01-1.02109E+00-2.74298E-02 1.71308E+00 8.24354E-14-7.77130E-14
 -1       665 2.49299E+01-2.40867E+00-1.22117E-02 3.77663E-01 4.65448E-14-2.98110E-13
 -1       666 2.37341E+01-2.42891E+00-4.15678E-03-8.94535E-01 9.52634E-14-6.15657E-13
 -1       667 2.25523E+01-1.71605E+00-1.58731E-03-1.70495E+00 2.21914E-13-5.39175E-13
 -1       668 2.16093E+01-7.80127E-01-5.75536E-04-2.03802E+00 1.69318E-13-7.54134E-13
 -1       669 1.65554E+01-3.97799E+00 1.07853E-01-6.56540E+00 7.24944E-13 6.80313E-13
 -1       670 1.07325E+01-1.97003E+00 1.51912E-01 4.99531E+00-1.62596E-13-5.78426E-14
 -1       671 2.00256E+01 1.90047E-01 2.42562E-04-1.96638E-02 1.48197E-13-1.07153E-13
 -1       672 1.99252E+01-1.25847E-02-2.87823E-05-1.86784E-01 4.13548E-14-4.13794E-14
 -1       673 1.99209E+01-3.30511E-02-4.37381E-05-1.85982E-01 1.09990E-13-9.66572E-14
 -1       674 1.99241E+01-4.19890E-02-4.94185E-05-1.74277E-01 1.05951E-13-7.43042E-14
 -1       675 1.99319E+01-4.30327E-02-4.84419E-05-1.57641E-01 1.03735E-13-9.03298E-15
 -1       676 1.99425E+01-3.85870E-02-4.27254E-05-1.40293E-01 1.13681E-13 1.89799E-13
 -1       677 1.99548E+01-3.01819E-02-3.35558E-05-1.25262E-01-4.58317E-14 1.29544E-13
 -1       678 1.99685E+01-1.87008E-02-2.17373E-05-1.14809E-01-3.30362E-14 1.68643E-13
 -1       679 1.99835E+01-4.54368E-03-7.57718E-06-1.10754E-01 4.67731E-14 1.87068E-13
 -1       680 2.00001E+01 1.22498E-02 8.99178E-06-1.14712E-01 4.18844E-14 1.18141E-13
 -1       681 2.00190E+01 3.18963E-02 2.82624E-05-1.28267E-01 6.12703E-14 1.36469E-13
 -1       682 2.00410E+01 5.47648E-02 5.06220E-05-1.53086E-01 7.60458E-14 2.49344E-14
 -1       683 2.00672E+01 8.12553E-02 7.65271E-05-1.90967E-01 1.02628E-13-1.24490E-13
 -1       684 2.00986E+01 1.11641E-01 1.06250E-04-2.43825E-01 1.13369E-13-1.01100E-13
 -1       685 2.01366E+01 1.45843E-01 1.39630E-04-3.13575E-01 1.36380E-13-2.36818E-14
 -1       686 2.01826E+01 1.83082E-01 1.75645E-04-4.01902E-01-2.96446E-14 1.86369E-13
 -1       687 2.02383E+01 2.21364E-01 2.11734E-04-5.09874E-01-1.33598E-14 1.90470E-13
 -1       688 2.03059E+01 2.56694E-01 2.42790E-04-6.37321E-01-7.65093E-14 2.26213E-13
 -1       689 2.03886E+01 2.81943E-01 2.59720E-04-7.81917E-01-2.54420E-13 2.32238E-13
 -1       690 2.04918E+01 2.85327E-01 2.47523E-04-9.37852E-01-1.72625E-13 7.77955E-14
 -1       691 2.06251E+01 2.48622E-01 1.83160E-04-1.09395E+00-1.14570E-13 1.18405E-13
 -1       692 2.08048E+01 1.45764E-01 3.13331E-05-1.23107E+00-1.00155E-13 2.91143E-13
 -1       693 2.10576E+01-5.65240E-02-2.74102E-04-1.31854E+00-9.56902E-15 1.05932E-13
 -1       694 2.14229E+01-3.92181E-01-7.23520E-04-1.30938E+00-2.48090E-14 1.34374E-13
 -1       695 2.19485E+01-8.76126E-01-1.30363E-03-1.13495E+00-7.07995E-14 2.76338E-13
 -1       696 2.26686E+01-1.45881E+00-1.38400E-03-7.05455E-01 3.53028E-15 1.09662E-13
 -1       697 2.35526E+01-1.95959E+00-2.39534E-03 6.55664E-02 1.85255E-14 4.05818E-14
 -1       698 2.44306E+01-1.99905E+00-5.58757E-03 1.17127E+00 5.32181E-15 1.68634E-13
 -1       699 2.49731E+01-1.05530E+00-9.09278E-03 2.34158E+00 2.32894E-13 2.42917E-13
 -1       700 2.47599E+01 9.29214E-01-4.45810E-02 2.82537E+00 1.78625E-13 4.75858E-13
 -1       701 2.43039E+01 2.94805E+00-5.26508E-02 1.86117E+00 1.05479E-13 5.73319E-13
 -1       702 2.40799E+01 3.50010E+00-5.70104E-02-1.38450E-01-6.98885E-14 4.02677E-13
 -1       703 2.44311E+01 2.00495E+00-5.24509E-02-1.73705E+00-8.88803E-14 2.74746E-13
 -1       704 2.48179E+01-2.65860E-01-1.39260E-02-1.89401E+00-2.53962E-13 2.96695E-13
 -1       705 2.45295E+01-1.72470E+00-1.24792E-02-9.63736E-01-5.17633E-14 1.07803E-13
 -1       706 2.37232E+01-2.06929E+00-1.73796E-03 2.34790E-01 1.17457E-13-1.06813E-13
 -1       707 2.27362E+01-1.63601E+00 7.21941E-05 1.16220E+00-9.15197E-15-2.44093E-13
 -1       708 2.18529E+01-8.92317E-01 2.31898E-04 1.66062E+00 1.45427E-13-5.77262E-14
 -1       709 2.12470E+01-2.63026E-01 4.32943E-04 1.90371E+00 9.68590E-14 5.50916E-15
 -1       710 1.69003E+01 1.91206E+00 2.86134E-03 9.14373E-01 2.08842E-13 1.39940E-14
 -1       711 2.11130E+01-1.46808E-01-1.63788E-03-2.05837E+00 8.40221E-14-7.19629E-13
 -1       712 1.91782E+01 6.08569E-01 2.09440E-03 2.97418E+00 7.24051E-14-4.26671E-13
 -1       713 1.68633E+01 1.92827E+00-1.30550E-03-8.17321E-01 1.78463E-13-3.54129E-13
 -1       714 1.78394E+01 1.36139E+00 3.39312E-03 2.31691E+00-5.45938E-14-3.47313E-13
 -1       715 1.51832E+01-3.95397E+00 1.13252E-01 6.70091E+00 6.51007E-14-4.20469E-13
 -1       716 1.77469E+01 1.41694E+00 2.78325E-03-2.23710E+00 9.59504E-14-2.69947E-13
 -1       717 1.90702E+01 6.71234E-01 2.18841E-03-2.95474E+00 2.40575E-14-2.28289E-14
 -1       718 2.02755E+01 4.99305E-02 3.61663E-03-2.92222E+00 2.49275E-13 3.41501E-13
 -1       719 2.08369E+01-1.17410E-01 2.53291E-04-2.54372E+00 2.03142E-13-2.79342E-13
 -1       720 2.01038E+01 3.53286E-01 6.51573E-04 1.50024E-01 1.72253E-13-1.32582E-13
 -1       721 2.29619E+01-5.69702E+00 3.77257E-02-5.23905E+00 4.05440E-13-1.41652E-13
 -1       722 2.02806E+01 1.67875E+00 8.79309E-05-1.14124E+00-2.36737E-13-3.50773E-13
 -1       723 1.24874E+01-2.55558E+00 1.19356E-01-5.41733E+00-9.54271E-14-1.77969E-13
 -1       724 2.74541E+01-4.71745E+00-3.45480E-02-1.75152E+00 9.85462E-14-7.25638E-13
 -1       725 1.99407E+01 2.48695E-02-2.93210E-07-1.68189E-01 3.39817E-14-8.67508E-14
 -1       726 1.99725E+01 8.76119E-02 4.71002E-05-1.18139E-01 8.56600E-14-7.79975E-14
 -1       727 2.02904E+01 1.07627E+00-1.53966E-04-7.23929E-01-1.91537E-13-3.01242E-13
 -1       728 1.86018E+01-4.73967E+00 8.67732E-02-5.67571E+00-9.09169E-14 7.79793E-14
 -1       729 2.13713E+01-5.31744E+00 6.23241E-02 5.79154E+00 1.77313E-13-6.41103E-13
 -1       730 2.77739E+01 6.11505E+00-1.79043E-01 8.50847E-01 4.47982E-13 6.29965E-14
 -1       731 2.00248E+01 2.29397E+00-1.66031E-03 6.38554E-01 2.54027E-13-3.38850E-13
 -1       732 2.00192E+01 2.30473E+00-1.57240E-03-6.30099E-01-5.56140E-14-4.40595E-13
 -1       733 2.84604E+01 3.89278E+00-1.40183E-01 1.87609E+00-9.23012E-14-3.63608E-13
 -1       734 1.94413E+01-4.95010E+00 6.05791E-02 5.42792E+00-3.05291E-13-4.27144E-13
 -1       735 2.80959E+01 1.19041E+00-1.10765E-01-2.12793E+00-3.16708E-13-2.07733E-13
 -1       736 2.23764E+01-5.41848E+00 3.88425E-02-4.38420E+00-6.42993E-14 1.59746E-13
 -1       737 1.07550E+01-1.60776E+00 1.41793E-01-4.65005E+00 4.00947E-13 8.76799E-14
 -1       738 2.51737E+01-5.38254E+00 2.18424E-03 2.78048E+00 4.13454E-14-8.67955E-13
 -1       739 2.81762E+01-3.06886E+00-5.67140E-02-6.87932E-01 1.27363E-14-5.47021E-13
 -1       740 2.81478E+01 2.64371E-01-1.17256E-01-2.72536E+00-1.80782E-13 3.65333E-15
 -1       741 2.78946E+01 5.88320E+00-1.82029E-01 3.40643E-01-3.39291E-13-4.24778E-13
 -1       742 2.80634E+01 4.53895E+00-1.38035E-01 2.41299E+00 2.90719E-13 4.27190E-13
 -1       743 2.88986E+01-7.85638E-01-9.34765E-02 1.46888E+00-8.48384E-14-7.47746E-13
 -1       744 2.61326E+01-5.32480E+00-7.40530E-03 2.98192E+00 4.90667E-14-2.03736E-13
 -1       745 2.01195E+01 2.06267E+00-1.12578E-03-8.54516E-01-1.21959E-13-4.30276E-13
 -1       746 1.99283E+01 2.52529E+00-1.50412E-03-1.26644E-01 7.14167E-14-4.28951E-13
 -1       747 2.52679E+01 4.28228E+00-1.45515E-01 7.56701E-01-1.89571E-13 2.17467E-13
 -1       748 2.03474E+01 3.84991E-03-1.35514E-03 2.88876E+00-1.71378E-13-1.60556E-13
 -1       749 1.01682E+01-3.71873E-01 1.23791E-01 2.51550E+00-7.07759E-14-1.86171E-13
 -1       750 2.09620E+01-2.11435E-01 6.12326E-04 2.44384E+00-2.14017E-13-4.16105E-14
 -1       751 1.01172E+01-8.20207E-01 1.15356E-01-3.33176E+00-5.57367E-15-2.82628E-13
 -1       752 2.52465E+01-4.85852E+00 7.49809E-03-1.90934E+00-1.47336E-13 1.82562E-14
 -1       753 8.33456E+00-2.78040E-01 1.51081E-01 1.30680E+00-1.25119E-13-5.68746E-13
 -1       754 1.61055E+01-3.04574E+00 7.97328E-02 5.23864E+00-1.17828E-13-4.26367E-13
 -1       755 1.99580E+01 2.45438E+00-1.53315E-03-3.84655E-01 1.60022E-14-4.20637E-13
 -1       756 2.74331E+01-2.04975E+00-5.03616E-02 1.76005E+00-3.02720E-13 3.87579E-13
 -1       757 1.00515E+01-1.37367E-01 1.05611E-01-1.88582E+00 1.85567E-13-2.56406E-13
 -1       758 1.12193E+01-6.10865E-01 9.64249E-02 3.30627E+00-5.35223E-14-5.74381E-13
 -1       759 8.37566E+00-2.22736E-01 1.44069E-01-1.16065E+00-9.43163E-14-7.61669E-13
 -1       760 1.68420E+01-2.91346E+00 6.00489E-02-4.93079E+00 4.37358E-14 1.74045E-13
 -1       761 2.02658E+01 1.30854E+00 7.96288E-04 6.33736E-01 2.55777E-13-2.76290E-13
 -1       762 1.87246E+01-3.33903E+00 4.57302E-02 5.55900E+00 8.62678E-15-7.87837E-13
 -1       763 2.02624E+01 4.31784E-01-7.55223E-05-9.52288E-02-1.22228E-13-2.39908E-13
 -1       764 2.02225E+01 2.33851E-01 9.97636E-08 3.45314E-02-1.38223E-13-2.45347E-13
 -1       765 2.01812E+01 1.03884E-01-1.00234E-05 1.11798E-01-1.27281E-13-1.98430E-13
 -1       766 2.01440E+01 2.16564E-02-9.25312E-06 1.51710E-01 2.75759E-15-1.85872E-13
 -1       767 2.01124E+01-2.72234E-02-9.37103E-06 1.66494E-01-2.09116E-14-1.62904E-13
 -1       768 2.00868E+01-5.28090E-02-9.18707E-06 1.65608E-01-4.81072E-14-5.73153E-14
 -1       769 2.00666E+01-6.21069E-02-8.39039E-06 1.56110E-01-6.64142E-14 5.13953E-14
 -1       770 2.00511E+01-5.99440E-02-7.11183E-06 1.43179E-01-5.16506E-14 3.74069E-14
 -1       771 2.00395E+01-4.95340E-02-5.61236E-06 1.30603E-01-5.65916E-14-4.24153E-14
 -1       772 2.00308E+01-3.28752E-02-4.02966E-06 1.21213E-01-8.84185E-14-4.47762E-14
 -1       773 2.00244E+01-1.10477E-02-2.30656E-06 1.17220E-01-7.47460E-14-1.47061E-13
 -1       774 2.00194E+01 1.55659E-02-3.40505E-07 1.20489E-01-1.14614E-13-2.35450E-13
 -1       775 2.00149E+01 4.70898E-02 2.05447E-06 1.32743E-01-1.28618E-13-2.90987E-13
 -1       776 2.00102E+01 8.39731E-02 4.84057E-06 1.55702E-01-1.04668E-13-2.24563E-13
 -1       777 2.00041E+01 1.26801E-01 8.11763E-06 1.91169E-01 1.99748E-14-1.10294E-13
 -1       778 1.99956E+01 1.76072E-01 1.20427E-05 2.41045E-01-5.62544E-14-1.12122E-13
 -1       779 1.99833E+01 2.31899E-01 1.68045E-05 3.07299E-01-9.05237E-15 9.64557E-14
 -1       780 1.99659E+01 2.93589E-01 2.26316E-05 3.91866E-01 1.60388E-13 1.39685E-13
 -1       781 1.99420E+01 3.59042E-01 2.98098E-05 4.96492E-01 4.13930E-14 3.39346E-14
 -1       782 1.99109E+01 4.23877E-01 3.87073E-05 6.22522E-01-5.16273E-14-4.10165E-14
 -1       783 1.98728E+01 4.80183E-01 4.98025E-05 7.70681E-01-1.52304E-14-8.09211E-14
 -1       784 1.98310E+01 5.14798E-01 6.37822E-05 9.40856E-01-3.00437E-15-1.17154E-13
 -1       785 1.97937E+01 5.07064E-01 8.31297E-05 1.13190E+00-3.84779E-14-9.19991E-14
 -1       786 1.97785E+01 4.26160E-01 1.12221E-04 1.34131E+00 8.55578E-14 2.93648E-14
 -1       787 1.98191E+01 2.28559E-01 1.74235E-04 1.56409E+00 2.08154E-13 2.26861E-13
 -1       788 1.99748E+01-1.42795E-01 2.97947E-04 1.78884E+00 1.14312E-13-4.10895E-14
 -1       789 2.03452E+01-7.52110E-01 5.69949E-04 1.98278E+00 1.11167E-13-1.08554E-13
 -1       790 2.10623E+01-1.63380E+00 1.54417E-03 2.07599E+00-1.07335E-13-2.35774E-13
 -1       791 2.23061E+01-2.72710E+00 1.21191E-02 1.90087E+00-9.45396E-14-2.00924E-13
 -1       792 2.41248E+01-3.65848E+00-2.14831E-05 1.14721E+00 1.90722E-13-2.28502E-13
 -1       793 1.40193E+01-1.35068E+00 7.09599E-02-4.21557E+00-1.65267E-13-1.57803E-13
 -1       794 2.66471E+01-3.33275E+00-2.07805E-02-4.43052E-02-1.27794E-13-7.07856E-13
 -1       795 2.46172E+01-3.67531E+00 3.50170E-03-1.71021E+00 8.28396E-14-4.41362E-13
 -1       796 2.28310E+01-2.69799E+00 9.18454E-03-2.57075E+00 1.80283E-13-4.73190E-13
 -1       797 2.15804E+01-1.41566E+00 3.14168E-03-2.79428E+00 2.02985E-13-2.23753E-13
 -1       798 2.00626E+01-2.22527E-02-1.21585E-05-1.75604E-01 8.54497E-14-2.29653E-13
 -1       799 2.00195E+01-5.54635E-02-1.28731E-05-1.50143E-01 7.03143E-15-1.25764E-13
 -1       800 2.00141E+01-4.71566E-02-1.07519E-05-1.35883E-01-6.08112E-15 1.82942E-15
 -1       801 2.00115E+01-3.33010E-02-7.89934E-06-1.24597E-01-4.75775E-14 2.27749E-14
 -1       802 2.00111E+01-1.49364E-02-4.48656E-06-1.18564E-01-2.80697E-15-3.26081E-14
 -1       803 2.00124E+01 7.52598E-03-4.68828E-07-1.19680E-01 7.51179E-14 3.70790E-14
 -1       804 2.00148E+01 3.41398E-02 4.29380E-06-1.29672E-01 8.67447E-14 2.63194E-15
 -1       805 2.00181E+01 6.52680E-02 9.76259E-06-1.50257E-01 4.48882E-14-2.35489E-14
 -1       806 2.00218E+01 1.01416E-01 1.61893E-05-1.83233E-01 1.23897E-13 4.67010E-14
 -1       807 2.00254E+01 1.43036E-01 2.37447E-05-2.30504E-01 4.11720E-14 1.67936E-13
 -1       808 2.00285E+01 1.90269E-01 3.25960E-05-2.94040E-01-2.84770E-14 2.08286E-13
 -1       809 2.00305E+01 2.42576E-01 4.28588E-05-3.75759E-01-9.54898E-14 3.55421E-13
 -1       810 2.00311E+01 2.98206E-01 5.45344E-05-4.77321E-01-1.30911E-14 2.78266E-13
 -1       811 2.00304E+01 3.53407E-01 6.74309E-05-5.99817E-01-4.13131E-14 2.65186E-13
 -1       812 2.00296E+01 4.01298E-01 8.10683E-05-7.43351E-01-1.51848E-13 2.69098E-13
 -1       813 2.00323E+01 4.30294E-01 9.45126E-05-9.06506E-01-1.37230E-13 2.17533E-13
 -1       814 2.00467E+01 4.22063E-01 1.05635E-04-1.08561E+00-9.28432E-14 1.56450E-13
 -1       815 2.00893E+01 3.49222E-01 1.09981E-04-1.27366E+00-2.61308E-13 1.75728E-13
 -1       816 2.01898E+01 1.73629E-01 8.72281E-05-1.45828E+00-2.35828E-15 1.17535E-13
 -1       817 2.03987E+01-1.52825E-01-7.89004E-05-1.61764E+00-9.73863E-14 2.14740E-13
 -1       818 2.07939E+01-6.79594E-01-7.31776E-05-1.71124E+00-5.77345E-14 1.01314E-13
 -1       819 2.14800E+01-1.42984E+00 1.67814E-05-1.65827E+00 1.10664E-13 8.10577E-14
 -1       820 2.25625E+01-2.32489E+00 2.87062E-03-1.32608E+00-5.44446E-14-5.94119E-14
 -1       821 2.40539E+01-3.02962E+00 1.02306E-02-5.01701E-01-4.01051E-14 3.31345E-14
 -1       822 2.56506E+01-2.89969E+00-4.46862E-03 8.57409E-01-4.82283E-14 1.19424E-13
 -1       823 2.49367E+01-3.18406E+00-1.61209E-02 6.90068E-01 1.75806E-13 1.24240E-13
 -1       824 2.34126E+01-2.68338E+00-1.86584E-03 1.78847E+00 2.12372E-13 1.14524E-13
 -1       825 2.20957E+01-1.64164E+00-8.12301E-03 2.29695E+00 2.16652E-13-2.90388E-13
 -1       826 2.14248E+01-9.16555E-01-5.76253E-03 2.46139E+00-1.02676E-13-3.64442E-13
 -1       827 2.01402E+01 1.88777E+00-2.98136E-04 1.99846E-01 1.33395E-13-3.23689E-13
 -1       828 1.77782E+01 4.23957E-02 1.24481E-02-3.44958E+00 1.43945E-13-1.65815E-13
 -1       829 1.49223E+01 1.39431E+00 2.22467E-02 1.19208E-01-6.63844E-14-3.82218E-14
 -1       830 2.01707E+01 2.23887E-01-7.52625E-05-3.05891E-02 9.09952E-14-2.12398E-13
 -1       831 1.99034E+01-8.61380E-01 2.05587E-03-3.57387E+00 2.39387E-13 5.06546E-13
 -1       832 2.11030E+01-4.29011E+00 2.35581E-02-4.06375E+00-6.12947E-14 7.28723E-14
 -1       833 2.50178E+01-4.73150E+00 1.40449E-02-2.82172E+00 3.25309E-13-3.24878E-13
 -1       834 2.00900E+01 2.38184E-02-8.73979E-06-1.59379E-01 2.57003E-14-2.03208E-13
 -1       835 2.00286E+01-5.63365E-02-1.38478E-05-1.64433E-01 2.94412E-14-1.55824E-13
 -1       836 2.06253E+01-4.25331E+00 4.40866E-02-5.41350E+00 6.15834E-13-1.19757E-13
 -1       837 2.00426E+01-4.67697E-02-1.38097E-05-1.74757E-01 6.75178E-14-2.15178E-13
 -1       838 1.58384E+01 9.45162E-01 1.78653E-02-2.19875E+00 1.17808E-13-2.49524E-13
 -1       839 2.02912E+01 7.31354E-01 1.15107E-04-2.94065E-01-1.35892E-13-2.57789E-13
 -1       840 1.52482E+01-1.71610E+00 4.91826E-02-5.03492E+00 2.13400E-13 5.08850E-13
 -1       841 2.01261E+01 1.01090E-01-2.37147E-06-1.15728E-01 5.36980E-14-1.83122E-13
 -1       842 2.27584E+01-4.67934E+00 1.38107E-02 3.31044E+00 1.09308E-13-5.31886E-13
 -1       843 2.02776E+01 9.40789E-01-6.58819E-05 5.52411E-01 2.34364E-13-2.30613E-13
 -1       844 2.61403E+01-4.03803E+00-1.30814E-02 3.22696E-01 1.71723E-13-3.68830E-13
 -1       845 1.53418E+01-1.71740E+00 8.38776E-02 5.03382E+00-5.37816E-14-2.50949E-13
 -1       846 2.64041E+01-3.79810E+00-1.09645E-04 7.46976E-01 2.81741E-14-3.72170E-13
 -1       847 2.38617E+01-4.63127E+00 2.26532E-02 3.61198E+00-1.40244E-13-4.60013E-13
 -1       848 2.61790E+01-2.27170E+00-2.45094E-02-9.14764E-01-1.43756E-13 1.48982E-13
 -1       849 2.01284E+01 1.92622E+00-3.03537E-04 3.16876E-03 8.65253E-14-3.78367E-13
 -1       850 2.02237E+01 1.57934E+00-5.53875E-06 5.36682E-01 2.30683E-13-3.05467E-13
 -1       851 2.00084E+01-8.93057E-01 1.02638E-02 3.54047E+00-6.26383E-14-2.87572E-13
 -1       852 1.22826E+01-1.63496E-02 5.10978E-02-2.46536E+00-2.13522E-13-3.53051E-13
 -1       853 1.41673E+01-2.81895E-01 7.47329E-02 3.66883E+00-7.66626E-14-1.03232E-13
 -1       854 2.02885E+01 1.12786E+00 7.00258E-04-5.38820E-01-1.32750E-13-3.25340E-13
 -1       855 1.79571E+01-8.86703E-02 2.76087E-03 3.52819E+00-1.30583E-13-4.26566E-13
 -1       856 2.01722E+01 1.77507E+00-2.52327E-04 3.80954E-01 1.92563E-13-3.31182E-13
 -1       857 2.02318E+01 5.72389E-01-5.78742E-05 2.59727E-01 1.65493E-13-2.38915E-13
 -1       858 1.58868E+01 9.07540E-01 1.09362E-02 2.32723E+00 7.81708E-14-1.47051E-13
 -1       859 2.01995E+01 3.70489E-01 1.31129E-04 8.63498E-02 1.46016E-13-2.26873E-13
 -1       860 1.13190E+01 4.40874E-01 8.96293E-02 3.82068E-01-6.33119E-14-2.09156E-13
 -1       861 1.98791E+01-3.54417E+00 3.96781E-02 4.15078E+00-6.22887E-14-2.66233E-13
 -1       862 1.11640E+01 4.25289E-01 7.00170E-02-9.15831E-01-1.37585E-13-4.99340E-13
 -1       863 1.44646E+01-1.33444E+00 5.03334E-02 4.11840E+00 7.64675E-14-4.98174E-13
 -1       864 1.37421E+01-1.85068E-01 6.45875E-02-3.53095E+00-8.81864E-14-1.17024E-13
 -1       865 2.57699E+01-3.83054E+00 8.16055E-04-2.22279E-01-1.11385E-13 2.08890E-13
 -1       866 2.01698E+01 1.78142E+00-2.10237E-04-3.76006E-01-7.32561E-15-3.52246E-13
 -1       867 1.10225E+01 4.41647E-01 7.75189E-02 8.17775E-01 6.19410E-14-5.59275E-13
 -1       868 2.02129E+01 1.59164E+00-1.61375E-03-5.28591E-01-9.66606E-14-3.87124E-13
 -1       869 1.89790E+01-2.28657E+00 6.00793E-02-4.88967E+00 5.30619E-13-8.95612E-14
 -1       870 2.37104E+01-4.02216E+00-1.42567E-03-1.88135E+00-1.28518E-13 2.31103E-13
 -1       871 2.03058E+01 2.27444E-01-7.12688E-06 4.65345E-02-6.44896E-14-1.32690E-13
 -1       872 2.02699E+01 9.28826E-02-8.65807E-06 1.02380E-01-4.58025E-14-8.74256E-14
 -1       873 2.02309E+01 7.90059E-03-5.49244E-06 1.30652E-01-2.28427E-14-1.22381E-13
 -1       874 2.01931E+01-4.15725E-02-4.50957E-06 1.40258E-01-7.21325E-16-1.82800E-13
 -1       875 2.01584E+01-6.57477E-02-3.45350E-06 1.38379E-01 4.03311E-14-1.40490E-13
 -1       876 2.01278E+01-7.19508E-02-2.28738E-06 1.30511E-01-8.90188E-14-9.21232E-14
 -1       877 2.01013E+01-6.52825E-02-1.21032E-06 1.20764E-01-1.20215E-13-9.54844E-14
 -1       878 2.00784E+01-4.91000E-02-7.53039E-07 1.12205E-01-8.83808E-14-1.26934E-13
 -1       879 2.00582E+01-2.54338E-02-9.78465E-07 1.07194E-01-5.67833E-14-1.07006E-13
 -1       880 2.00396E+01 4.70548E-03-1.39501E-06 1.07621E-01-1.35218E-13-3.38503E-14
 -1       881 2.00211E+01 4.10856E-02-1.26018E-06 1.15137E-01-1.07018E-13-1.21865E-13
 -1       882 2.00010E+01 8.40036E-02-1.14828E-06 1.31312E-01-1.18526E-13-3.91484E-14
 -1       883 1.99775E+01 1.34058E-01-1.15270E-06 1.57728E-01 4.69735E-14-8.97313E-16
 -1       884 1.99483E+01 1.91903E-01-1.20527E-06 1.96038E-01-5.09322E-14 4.64141E-14
 -1       885 1.99108E+01 2.57954E-01-1.22019E-06 2.47983E-01 5.28096E-14-9.39689E-14
 -1       886 1.98621E+01 3.31991E-01-1.07711E-06 3.15368E-01 1.23218E-13-4.26744E-17
 -1       887 1.97992E+01 4.12638E-01-5.69050E-07 4.00034E-01 6.93688E-14-2.41423E-14
 -1       888 1.97190E+01 4.96640E-01 6.92566E-07 5.03846E-01-4.42666E-14-1.25913E-13
 -1       889 1.96188E+01 5.77871E-01 3.46546E-06 6.28787E-01-9.12739E-14-7.19592E-14
 -1       890 1.94974E+01 6.45991E-01 9.23376E-06 7.77251E-01-4.53811E-14-1.19395E-13
 -1       891 1.93562E+01 6.84658E-01 2.10651E-05 9.52698E-01 2.46126E-14-1.22395E-13
 -1       892 1.92022E+01 6.69227E-01 4.89750E-05 1.16077E+00 8.10020E-14-1.97341E-14
 -1       893 1.90522E+01 5.63804E-01 1.06394E-04 1.41098E+00 2.73185E-13-3.84653E-14
 -1       894 1.89411E+01 3.17401E-01 3.43478E-04 1.71784E+00 4.86583E-14-1.22499E-13
 -1       895 1.89308E+01-1.38208E-01 4.37070E-04 2.10155E+00-9.35306E-14-3.47114E-13
 -1       896 1.91776E+01-9.12885E-01-3.44617E-03 2.56989E+00-7.03686E-14-6.16839E-13
 -1       897 1.98715E+01-2.06675E+00 1.35769E-02 3.07848E+00-4.38022E-14-4.49114E-13
 -1       898 2.26144E+01-3.49920E+00 1.56700E-02-3.53813E+00 2.11476E-13 2.90610E-13
 -1       899 2.08946E+01-2.18183E+00-4.91073E-03-3.77911E+00 2.67687E-13 5.74996E-13
 -1       900 2.09775E+01-1.01170E+00 5.57143E-03 3.06523E+00-3.85239E-15-1.88363E-14
 -1       901 2.00808E+01-6.32430E-02-1.29253E-06-1.31715E-01-1.91126E-14-1.56003E-13
 -1       902 2.00346E+01-2.84312E-03-3.97592E-07-1.13145E-01-3.66994E-14-1.37804E-13
 -1       903 2.00222E+01 2.90811E-02 4.90733E-07-1.19102E-01 5.91544E-14-1.21490E-13
 -1       904 2.00094E+01 6.67764E-02 1.14253E-06-1.34009E-01 8.58092E-14-7.96907E-14
 -1       905 1.99946E+01 1.10756E-01 2.03468E-06-1.59535E-01 1.71184E-14-1.02384E-13
 -1       906 1.99762E+01 1.61612E-01 3.22653E-06-1.97419E-01 4.76126E-14 4.85506E-14
 -1       907 1.99524E+01 2.19743E-01 4.83125E-06-2.49493E-01 1.79906E-14-9.36251E-16
 -1       908 1.99211E+01 2.84996E-01 7.02150E-06-3.17642E-01-2.10970E-14-8.69861E-14
 -1       909 1.98801E+01 3.56169E-01 1.00587E-05-4.03741E-01-4.49216E-14-5.53650E-14
 -1       910 1.98272E+01 4.30319E-01 1.43689E-05-5.09559E-01-5.45918E-14-5.86010E-14
 -1       911 1.97612E+01 5.01802E-01 2.07339E-05-6.36703E-01-5.70231E-14-4.72398E-14
 -1       912 1.96821E+01 5.60929E-01 3.07771E-05-7.86647E-01-1.71069E-13-1.68779E-13
 -1       913 1.95932E+01 5.92172E-01 4.79837E-05-9.60947E-01-1.71522E-13-9.80021E-14
 -1       914 1.95038E+01 5.71806E-01 7.84508E-05-1.16165E+00-2.19354E-13 2.30745E-15
 -1       915 1.94339E+01 4.65161E-01 1.34906E-04-1.39159E+00-1.44788E-13-9.26398E-14
 -1       916 1.94216E+01 2.24108E-01 2.16148E-04-1.65375E+00-1.01619E-14-1.07827E-13
 -1       917 1.95339E+01-2.14062E-01-1.48113E-04-1.94689E+00-1.23641E-13-9.69978E-14
 -1       918 1.98865E+01-9.25380E-01 6.21393E-06-2.25830E+00-6.54242E-14-2.95879E-16
 -1       919 2.06787E+01-1.96257E+00 2.29423E-03-2.48067E+00 7.16353E-14 2.65721E-13
 -1       920 2.57658E+01 4.81535E+00-1.44960E-01 9.09919E-01 2.40981E-13 3.97462E-13
 -1       921 1.47828E+01-4.41098E-01 2.97669E-02-3.13197E+00-2.67683E-13-7.75456E-14
 -1       922 1.82115E+01-1.50793E+00 3.02430E-02 4.50533E+00-1.89991E-13-5.13995E-13
 -1       923 2.02703E+01 2.29355E-01 4.74149E-05-4.40988E-02 6.49015E-14-2.07668E-13
 -1       924 1.94535E+01-2.82256E+00 2.85761E-02-3.83168E+00-7.51196E-14 2.09276E-13
 -1       925 2.01943E+01 1.36995E-02-2.26911E-06-1.41837E-01 4.14777E-14-2.11676E-13
 -1       926 2.01025E+01-6.78711E-02-1.00028E-06-1.42970E-01 1.18899E-14-1.75916E-13
 -1       927 2.17882E+01-3.16398E+00 1.65652E-02 3.91780E+00 1.86825E-13-3.60223E-13
 -1       928 2.00477E+01-2.92064E-02-8.70001E-07-1.14487E-01-1.74654E-14-1.58000E-13
 -1       929 2.01387E+01 1.89109E+00-2.93169E-04-1.92811E-01 5.39138E-14-3.94078E-13
 -1       930 2.02323E+01 9.73044E-02-1.28243E-06-1.08840E-01 6.36600E-14-1.63734E-13
 -1       931 2.00628E+01-4.96859E-02-1.09229E-06-1.21365E-01-8.20985E-14-1.06242E-13
 -1       932 2.03328E+01 4.27115E-01-3.31726E-04-4.79796E-02-9.44406E-14-2.12440E-13
 -1       933 2.02962E+01 8.23819E-01-6.73975E-04 3.46752E-01 1.90923E-13-2.84868E-13
 -1       934 2.03355E+01 7.26729E-01 1.34126E-04-1.91718E-01-8.57122E-14-2.83224E-13
 -1       935 1.28045E+01 1.04801E-01 4.29817E-02 2.37821E+00 1.14574E-13-5.96875E-13
 -1       936 1.66084E+01-1.61083E+00 2.84380E-02-3.92811E+00-2.28938E-13 5.56343E-14
 -1       937 2.02898E+01 1.33547E+00 2.06060E-04 2.00867E-01 1.20616E-13-2.94730E-13
 -1       938 2.17570E+01-3.33839E+00 1.75572E-02 2.81302E+00-4.79265E-14-4.62713E-13
 -1       939 2.02865E+01 1.33960E+00 1.00230E-04-1.95023E-01 2.53748E-14-3.26145E-13
 -1       940 2.20305E+01-3.24694E+00-1.43759E-02-2.46249E+00-1.52546E-13 1.04051E-13
 -1       941 2.01286E+01-6.02654E-02-1.01684E-06-1.51735E-01 2.48272E-14-1.75302E-13
 -1       942 2.03005E+01 4.30218E-01-1.85597E-04 6.47880E-02 5.55742E-14-2.32322E-13
 -1       943 1.33064E+01 8.06279E-01 2.22045E-02 6.71117E-01 4.93852E-14-2.68140E-13
 -1       944 2.01593E+01-3.54588E-02-1.78732E-06-1.53415E-01 5.23176E-14-1.80005E-13
 -1       945 1.77163E+01-2.09444E+00 2.46504E-02 3.95463E+00 1.49527E-13-5.14514E-13
 -1       946 2.03008E+01 1.21266E+00 6.05934E-05-3.04053E-01-2.62555E-14-3.18472E-13
 -1       947 2.02767E+01 1.40577E+00 6.61479E-05 6.92143E-02 1.09413E-13-3.26258E-13
 -1       948 2.03059E+01 1.20230E+00 6.99152E-04 3.10015E-01 1.55567E-13-2.68065E-13
 -1       949 1.33618E+01 8.10755E-01 2.34252E-02-5.57188E-01-9.51081E-14-5.40939E-14
 -1       950 2.03381E+01 2.09543E-01-6.72717E-06-5.14004E-02 6.54593E-14-2.34156E-13
 -1       951 2.03265E+01 6.84079E-02-4.34090E-06 8.51837E-02-5.96228E-14-1.74531E-13
 -1       952 2.02850E+01-1.20272E-02-2.74151E-06 1.02058E-01-1.80357E-14-1.84783E-13
 -1       953 2.02422E+01-5.69378E-02-1.45651E-06 1.06757E-01 4.65772E-14-1.44904E-13
 -1       954 2.02011E+01-7.62253E-02 1.49490E-07 1.04215E-01 8.42669E-15-2.03375E-13
 -1       955 2.01631E+01-7.70912E-02 1.66221E-06 9.82693E-02-5.24603E-14-1.38054E-13
 -1       956 2.01286E+01-6.45390E-02 1.81867E-06 9.18011E-02-9.86698E-14-5.08788E-14
 -1       957 2.00970E+01-4.17331E-02 1.15587E-06 8.70340E-02-3.54175E-14-2.86584E-14
 -1       958 2.00672E+01-1.05778E-02-2.04377E-06 8.56877E-02-5.84747E-14-3.06521E-14
 -1       959 2.00377E+01 2.81639E-02-3.06892E-06 8.91911E-02-1.05261E-13 4.14056E-14
 -1       960 2.00064E+01 7.44822E-02-4.50539E-06 9.88509E-02-6.14717E-14 3.73063E-14
 -1       961 1.99707E+01 1.28854E-01-6.74769E-06 1.15928E-01 1.07141E-14 1.76590E-13
 -1       962 1.99277E+01 1.91993E-01-9.76145E-06 1.41706E-01 3.88171E-14 1.06188E-13
 -1       963 1.98741E+01 2.64546E-01-1.36021E-05 1.77534E-01-2.65927E-15 2.18798E-13
 -1       964 1.98059E+01 3.46738E-01-1.84269E-05 2.24843E-01 4.73723E-14 1.87847E-13
 -1       965 1.97188E+01 4.37917E-01-2.44884E-05 2.85168E-01 3.99088E-14 3.53782E-15
 -1       966 1.96081E+01 5.35989E-01-3.21627E-05 3.60199E-01-3.00889E-14 4.77087E-14
 -1       967 1.94686E+01 6.36686E-01-4.19872E-05 4.51962E-01-1.29574E-13-1.51471E-14
 -1       968 1.92953E+01 7.32656E-01-5.46454E-05 5.63235E-01-3.95888E-14-5.54720E-14
 -1       969 1.90835E+01 8.12314E-01-7.09920E-05 6.98410E-01-1.70219E-14-2.12479E-14
 -1       970 1.88295E+01 8.58359E-01-8.65609E-05 8.65052E-01 2.02453E-14-1.47684E-13
 -1       971 1.85322E+01 8.46091E-01-8.86240E-05 1.07637E+00 1.82852E-13-2.22377E-13
 -1       972 1.81952E+01 7.40705E-01-1.16512E-04 1.35552E+00 1.38699E-13-2.77369E-13
 -1       973 1.78321E+01 4.89783E-01-8.21458E-04 1.74248E+00-2.59969E-13-5.01588E-13
 -1       974 1.75331E+01 2.08468E-02 2.39757E-03 2.29898E+00-1.84796E-13-5.69428E-13
 -1       975 2.03024E+01 6.03783E-01-2.99042E-04 1.85556E-01 1.32165E-13-2.87948E-13
 -1       976 2.02771E+01 1.40603E+00 1.10051E-04-6.62984E-02 6.08980E-14-3.80156E-13
 -1       977 1.99856E+01 1.08609E-01-1.15445E-06-1.25369E-01 4.67852E-14-1.94468E-13
 -1       978 2.00142E+01 5.93570E-02 4.97802E-07-1.08039E-01 5.63915E-14-2.58528E-13
 -1       979 2.00399E+01 1.74566E-02 2.10329E-06-9.88553E-02 4.78061E-14-2.38722E-13
 -1       980 1.99515E+01 1.65851E-01-2.86283E-06-1.52294E-01 7.67821E-16-1.99682E-13
 -1       981 1.99090E+01 2.31696E-01-4.65020E-06-1.90335E-01 7.49390E-14-1.39545E-13
 -1       982 1.98549E+01 3.06384E-01-6.52261E-06-2.41108E-01-3.98369E-14-3.62285E-14
 -1       983 1.97857E+01 3.89350E-01-8.48775E-06-3.06321E-01-7.97405E-14 1.35329E-15
 -1       984 1.96976E+01 4.78648E-01-1.05645E-05-3.87800E-01-1.11088E-13-8.10725E-14
 -1       985 1.95866E+01 5.70202E-01-1.27847E-05-4.87581E-01 1.53582E-14-7.61425E-14
 -1       986 1.94493E+01 6.56820E-01-1.50652E-05-6.08192E-01-1.41410E-13-1.02203E-13
 -1       987 1.92834E+01 7.26923E-01-1.64810E-05-7.53265E-01-1.50942E-13-1.02319E-13
 -1       988 1.90891E+01 7.62869E-01-1.26838E-05-9.28753E-01-1.51985E-13-1.88145E-13
 -1       989 1.88713E+01 7.38606E-01 1.51683E-05-1.14486E+00-2.03655E-13-3.47679E-13
 -1       990 1.86443E+01 6.16671E-01 1.29213E-04-1.41840E+00-9.07311E-14-3.55730E-13
 -1       991 1.84389E+01 3.44464E-01 3.28849E-04-1.77692E+00-8.52464E-14-1.87057E-13
 -1       992 1.83264E+01-1.47415E-01-3.69541E-04-2.24500E+00-2.13872E-13-2.39750E-13
 -1       993 1.84256E+01-9.69249E-01 6.96740E-03-2.86556E+00-1.86673E-13-6.15298E-14
 -1       994 2.03834E+01 3.91441E-01 2.65862E-04-1.05963E-02-3.19458E-14-1.46938E-13
 -1       995 2.03616E+01 1.97527E-01-3.52008E-05 5.00156E-02-5.09930E-14-1.48695E-13
 -1       996 1.48843E+01 3.91044E-01 1.15836E-02 2.04368E+00 8.86598E-14-6.15808E-13
 -1       997 2.03608E+01 4.06511E-01 3.36857E-05 2.29517E-02 5.22688E-14-2.48621E-13
 -1       998 2.03700E+01 8.22612E-01 9.24205E-05-1.40320E-01-9.70083E-15-2.40632E-13
 -1       999 1.46379E+01 6.35387E-01 6.92497E-03-1.54227E+00-2.64442E-13-2.08594E-13
 -1      1000 1.47718E+01 1.08521E+00 1.30408E-02 9.39042E-02-6.77234E-14 1.45532E-13
 -1      1001 2.02627E+01-3.77347E-03 6.95662E-06-1.16473E-01 5.48589E-14-2.12266E-13
 -1      1002 2.00646E+01-1.74811E-02 1.75585E-06-9.63890E-02-1.84374E-14-1.02546E-13
 -1      1003 2.03030E+01 7.84446E-02 2.36996E-06-9.50901E-02 6.22730E-14-2.49033E-13
 -1      1004 2.01490E+01-7.51974E-02 8.56180E-06-1.13522E-01-2.68318E-14-6.35044E-14
 -1      1005 1.57886E+01-6.86238E-01 1.62137E-02 3.30225E+00 1.03727E-13-4.48015E-13
 -1      1006 1.62486E+01-1.01992E-01 8.88932E-03-2.61864E+00-3.42639E-13-1.38637E-13
 -1      1007 2.03564E+01 7.10395E-01 3.83117E-04 1.59380E-01 1.02667E-13-2.27879E-13
 -1      1008 2.01180E+01-6.52092E-02 4.80664E-06-1.05569E-01-3.07939E-14-7.10568E-14
 -1      1009 2.00901E+01-4.53589E-02 1.10788E-06-9.91878E-02-2.88934E-14-6.26618E-14
 -1      1010 2.01838E+01-7.20100E-02 9.42226E-06-1.20480E-01 1.91212E-14-9.93962E-14
 -1      1011 2.03769E+01 9.15672E-01 4.69963E-05-8.24757E-02 5.73778E-15-3.47636E-13
 -1      1012 2.03693E+01 9.70622E-01-3.24154E-04 8.10108E-02 8.78415E-14-2.84275E-13
 -1      1013 2.02221E+01-5.06044E-02 1.02497E-05-1.22990E-01 2.34456E-15-1.46420E-13
 -1      1014 1.99920E+01 9.61580E-02-1.02016E-05-8.54856E-02 4.28859E-14-1.28579E-13
 -1      1015 2.03108E+01-3.46019E-02-1.92488E-05 6.67656E-02 9.37663E-15-1.44162E-13
 -1      1016 2.02641E+01-7.09114E-02-7.96127E-06 6.79964E-02 5.71510E-15-1.47239E-13
 -1      1017 2.02187E+01-8.27376E-02-1.70954E-06 6.56355E-02 5.64323E-15-1.39589E-13
 -1      1018 2.01758E+01-7.67630E-02-6.24227E-07 6.19255E-02-1.87644E-14-1.03839E-13
 -1      1019 2.01360E+01-5.75825E-02 7.19806E-06 5.84596E-02-1.11011E-13-1.86684E-13
 -1      1020 2.00982E+01-2.80152E-02-7.56194E-06 5.66977E-02-1.76697E-14-1.45722E-13
 -1      1021 2.00611E+01 1.04333E-02-8.80447E-06 5.75333E-02-7.48112E-14-8.13872E-14
 -1      1022 2.00224E+01 5.73684E-02-1.41685E-05 6.19454E-02-4.71534E-14 7.81204E-15
 -1      1023 1.99796E+01 1.12976E-01-2.11189E-05 7.07795E-02-1.12275E-14 1.09354E-13
 -1      1024 1.99294E+01 1.77909E-01-3.00324E-05 8.48572E-02-1.71003E-14 3.40474E-14
 -1      1025 1.98679E+01 2.52938E-01-4.08202E-05 1.05038E-01 6.70910E-14-5.27237E-14
 -1      1026 1.97909E+01 3.38616E-01-5.36484E-05 1.32233E-01 7.01747E-14-2.16954E-14
 -1      1027 1.96932E+01 4.34880E-01-6.89232E-05 1.67428E-01-5.49907E-14 7.88757E-15
 -1      1028 1.95692E+01 5.40590E-01-8.74380E-05 2.11730E-01-6.67757E-14-6.16082E-14
 -1      1029 1.94124E+01 6.52974E-01-1.10767E-04 2.66487E-01-9.94235E-14-7.75097E-14
 -1      1030 1.92154E+01 7.67032E-01-1.42020E-04 3.33565E-01-5.13286E-14 9.52689E-15
 -1      1031 1.89698E+01 8.74890E-01-1.87068E-04 4.15930E-01-1.90896E-13-1.58595E-13
 -1      1032 1.86653E+01 9.65204E-01-2.56317E-04 5.18815E-01-9.32970E-15-2.92112E-13
 -1      1033 1.82883E+01 1.02231E+00-4.11592E-04 6.52187E-01 9.95288E-15-2.81154E-13
 -1      1034 1.78212E+01 1.02639E+00-1.92633E-04 8.34545E-01 8.29975E-14-5.29885E-13
 -1      1035 1.72363E+01 9.49942E-01-1.25117E-05 1.09832E+00-2.18019E-13-8.16838E-13
 -1      1036 1.64965E+01 7.59217E-01-6.76652E-04 1.49717E+00-1.88853E-13-7.42340E-13
 -1      1037 1.99481E+01 1.56540E-01-1.72545E-05-1.01694E-01 7.60617E-14-1.86340E-13
 -1      1038 2.03556E+01 3.54562E-02-2.63310E-05 5.90179E-02-4.46781E-14-1.43308E-13
 -1      1039 2.00299E+01 4.45276E-02-3.81605E-06-7.56909E-02 2.01001E-14-1.75498E-13
 -1      1040 1.98280E+01 3.06293E-01-3.36597E-05-1.57801E-01-5.04984E-14-8.85395E-14
 -1      1041 1.97434E+01 3.96221E-01-4.30939E-05-2.00142E-01-7.27232E-14-5.33552E-14
 -1      1042 1.96360E+01 4.95151E-01-5.35779E-05-2.53855E-01-3.78126E-15-7.90697E-14
 -1      1043 1.95002E+01 6.00443E-01-6.57163E-05-3.20627E-01-1.63563E-13-8.44747E-14
 -1      1044 1.93301E+01 7.07160E-01-8.10855E-05-4.02667E-01-1.71680E-13 9.12362E-14
 -1      1045 1.91192E+01 8.07278E-01-1.03346E-04-5.03256E-01-5.46951E-14 6.24375E-16
 -1      1046 1.88606E+01 8.88815E-01-1.39402E-04-6.27814E-01-1.23197E-13-2.27725E-13
 -1      1047 1.85467E+01 9.34854E-01-2.10310E-04-7.85986E-01-1.59637E-13-1.21952E-13
 -1      1048 1.81696E+01 9.21254E-01-3.39490E-04-9.95606E-01-3.27977E-14-1.63246E-13
 -1      1049 1.77211E+01 8.13961E-01-4.44172E-04-1.28633E+00-1.51812E-13-2.47347E-13
 -1      1050 1.72004E+01 5.64613E-01-2.07277E-03-1.71090E+00-2.08846E-13-2.56696E-13
 -1      1051 2.04154E+01 3.30437E-01 7.64211E-05 9.21633E-03-4.69635E-14-2.52943E-13
 -1      1052 2.04030E+01 3.54318E-01-4.79386E-05-3.37719E-03 4.80730E-14-2.41465E-13
 -1      1053 1.98947E+01 2.26399E-01-2.50674E-05-1.25409E-01 4.05071E-14-2.08011E-13
 -1      1054 2.03011E+01-2.55445E-02 2.50766E-07-8.40158E-02-1.19833E-14-1.75813E-13
 -1      1055 2.00647E+01 1.08786E-03 2.88843E-06-7.12660E-02 9.67670E-14-2.63608E-13
 -1      1056 2.03710E+01 9.96107E-01-1.25187E-04 2.34207E-03 5.17774E-14-3.17478E-13
 -1      1057 2.04155E+01 5.75882E-01-2.30349E-04-3.21919E-02 5.39886E-15-3.16743E-13
 -1      1058 2.03444E+01 4.86879E-02-5.10215E-05-7.26991E-02 1.92432E-14-2.41425E-13
 -1      1059 2.03930E+01 1.51780E-01-1.47801E-05 4.12844E-02-6.22292E-14-2.12937E-13
 -1      1060 1.58267E+01 9.86282E-01 6.90466E-03-9.82537E-01-1.93411E-13 9.86549E-14
 -1      1061 2.03810E+01 1.69878E-01-8.93108E-05-4.79432E-02 9.35548E-14-2.54136E-13
 -1      1062 1.61809E+01 1.14595E+00-5.25901E-04 2.87151E-01-1.28042E-13-3.48618E-14
 -1      1063 2.03974E+01 6.22431E-01-3.63701E-04 6.50802E-02 6.62153E-14-2.81488E-13
 -1      1064 2.00987E+01-3.42843E-02-7.05141E-06-7.10836E-02 4.25716E-14-1.86435E-13
 -1      1065 2.02124E+01-8.04675E-02 1.19540E-05-8.36752E-02-6.27805E-14-2.04892E-13
 -1      1066 2.02561E+01-6.54942E-02 6.89202E-06-8.63749E-02-5.83048E-15-2.42324E-13
 -1      1067 2.04233E+01 6.06811E-01 1.99663E-04 2.61482E-02 2.36618E-14-2.49551E-13
 -1      1068 2.01716E+01-7.73427E-02 1.22500E-05-7.88213E-02-6.37012E-15-1.57359E-13
 -1      1069 2.03605E+01 9.68768E-04 1.13378E-04 2.46377E-02 1.58683E-14-1.18379E-13
 -1      1070 2.03127E+01-5.51753E-02 6.66412E-05 2.63179E-02-9.00604E-15-1.13577E-13
 -1      1071 2.02636E+01-8.06219E-02 5.79657E-05 2.61631E-02-1.31956E-14-1.83288E-13
 -1      1072 2.02160E+01-8.37893E-02 4.93738E-05 2.50876E-02-1.89141E-14-2.24097E-13
 -1      1073 2.01700E+01-7.02969E-02-4.06032E-05 2.38062E-02-8.00589E-14-1.92899E-13
 -1      1074 2.01278E+01-4.51391E-02 1.33560E-05 2.26915E-02-1.04146E-14-2.38425E-14
 -1      1075 2.00865E+01-9.20268E-03 1.90487E-05 2.25723E-02-2.31586E-15-8.03551E-14
 -1      1076 2.00442E+01 3.58629E-02 2.25068E-05 2.37896E-02 3.70766E-14-3.00740E-14
 -1      1077 1.99986E+01 8.99260E-02 2.41761E-05 2.65553E-02 5.98901E-14 2.39671E-14
 -1      1078 1.99464E+01 1.53495E-01 2.71666E-05 3.12197E-02-5.41641E-14-3.66937E-14
 -1      1079 1.98837E+01 2.27342E-01 3.24418E-05 3.81173E-02-7.19458E-14-3.96909E-14
 -1      1080 1.98062E+01 3.12204E-01 4.03228E-05 4.75881E-02-3.24953E-14-1.91987E-13
 -1      1081 1.97086E+01 4.08426E-01 5.11542E-05 5.99899E-02 4.66130E-14-2.63021E-13
 -1      1082 1.95850E+01 5.15553E-01 6.54751E-05 7.57144E-02-7.39541E-15-9.85682E-14
 -1      1083 1.94284E+01 6.31866E-01 8.40996E-05 9.52235E-02-1.60304E-13-1.60963E-14
 -1      1084 1.92309E+01 7.53918E-01 1.07909E-04 1.19135E-01-1.43600E-13-1.23593E-13
 -1      1085 1.89829E+01 8.76101E-01 1.36129E-04 1.48395E-01-1.69497E-13-3.21533E-13
 -1      1086 1.86718E+01 9.90379E-01 1.58248E-04 1.84581E-01-1.48242E-13-2.04311E-13
 -1      1087 1.82806E+01 1.08630E+00 1.10734E-04 2.30361E-01-4.15075E-14-2.65648E-13
 -1      1088 1.77828E+01 1.15157E+00-3.65240E-04 2.90678E-01-1.56753E-13-2.50038E-13
 -1      1089 1.71018E+01 1.17624E+00-1.02605E-03 2.94311E-01-1.80110E-13-2.33197E-13
 -1      1090 1.94857E+01 5.94326E-01-6.37670E-05-1.56170E-01-8.67876E-14-3.22539E-14
 -1      1091 2.00091E+01 7.62259E-02-6.48025E-06-4.38093E-02 2.97950E-14-1.84673E-13
 -1      1092 1.96290E+01 4.82492E-01-4.39720E-05-1.23174E-01-5.51455E-14-6.52955E-14
 -1      1093 1.97422E+01 3.79827E-01-2.93838E-05-9.70210E-02 2.09895E-15 6.19060E-14
 -1      1094 1.93051E+01 7.12068E-01-8.99012E-05-1.97263E-01-2.43513E-13-3.20654E-14
 -1      1095 1.90785E+01 8.30208E-01-1.24983E-04-2.48291E-01-1.72239E-13 7.34003E-14
 -1      1096 1.87958E+01 9.40537E-01-1.76753E-04-3.12196E-01-5.59076E-14 1.78213E-13
 -1      1097 1.84433E+01 1.03189E+00-2.62344E-04-3.93893E-01-1.05132E-13 1.10238E-13
 -1      1098 1.80019E+01 1.09090E+00-2.73693E-04-5.01324E-01-9.83743E-15 5.79791E-15
 -1      1099 1.74419E+01 1.10148E+00 3.37009E-05-6.50993E-01-1.56771E-13 1.73085E-13
 -1      1100 1.67541E+01 1.06826E+00 1.73534E-03-7.90277E-01-1.65784E-13 3.06647E-13
 -1      1101 1.98316E+01 2.87867E-01-1.91720E-05-7.67559E-02-4.42866E-14 8.11789E-14
 -1      1102 2.03607E+01 1.30267E-02-2.41951E-04-4.07911E-02 5.10793E-14-2.52330E-13
 -1      1103 2.04291E+01 2.52868E-01 6.16170E-06 9.73975E-03 1.00611E-14-2.68763E-13
 -1      1104 1.99027E+01 2.06942E-01-1.25426E-05-6.15866E-02 2.08809E-14-2.71731E-15
 -1      1105 2.02661E+01-7.72826E-02-1.34403E-05-4.57139E-02-8.10628E-14-2.15084E-13
 -1      1106 2.04283E+01 6.14468E-01 2.07413E-04-4.40584E-03 6.97205E-15-2.85005E-13
 -1      1107 2.01338E+01-6.09554E-02 1.52965E-06-7.41342E-02-1.39221E-14-1.71908E-13
 -1      1108 2.00521E+01 2.49829E-02-3.99926E-06-3.99604E-02 3.95522E-14-1.33693E-13
 -1      1109 2.03143E+01-4.72314E-02-1.71217E-05-4.53497E-02 1.84706E-14-2.95482E-13
 -1      1110 1.99605E+01 1.36642E-01-8.66262E-06-5.08164E-02 6.01861E-14-1.51659E-13
 -1      1111 2.04014E+01 9.74227E-02-7.30493E-05 1.93931E-02 3.48093E-14-2.17737E-13
 -1      1112 2.04334E+01 3.25942E-01 6.29751E-05-4.86411E-03 4.79167E-14-2.43099E-13
 -1      1113 2.00924E+01-1.77606E-02-2.59001E-05-3.86391E-02 4.75375E-14-2.46779E-13
 -1      1114 2.03982E+01 1.20524E-01 2.65180E-04-3.17752E-02 5.71052E-14-1.98279E-13
 -1      1115 2.02191E+01-8.41386E-02-1.95761E-05-4.40116E-02-5.30925E-14-2.23650E-13
 -1      1116 2.04356E+01 4.12226E-01-2.56190E-04-1.71501E-03 4.55990E-14-3.02290E-13
 -1      1117 2.04205E+01 1.67060E-01 2.03759E-04-9.12502E-03 5.49697E-14-2.84983E-13
 -1      1118 2.01506E+01-5.94406E-02 1.55126E-04-1.40968E-02 5.89057E-14-1.73300E-13
 -1      1119 2.01746E+01-7.41240E-02-8.35399E-05-4.14169E-02 6.46379E-14-2.86123E-13
 -1      1120 2.01314E+01-5.03513E-02-2.08992E-05-3.94455E-02 3.78103E-14-3.69761E-13
 -1      1121 2.79635E+01 9.08673E+00 2.32537E+00-6.69848E+00-5.35127E-14 1.23027E-12
 -1      1122 2.05477E+01 6.22725E+00 2.09751E-01-3.90426E+00-2.48968E-14-1.45717E-14
 -1      1123 1.94344E+01 5.85291E+00 7.52914E-02-2.88820E+00-1.55292E-14-5.08414E-13
 -1      1124 1.90260E+01 5.72593E+00 6.03979E-02-2.23545E+00-8.99628E-15-7.20162E-13
 -1      1125 1.88397E+01 5.66917E+00 5.75505E-02-1.70185E+00-6.00214E-15-8.10647E-13
 -1      1126 1.87461E+01 5.64049E+00 5.55238E-02-1.23441E+00-3.34021E-15-8.37439E-13
 -1      1127 1.86971E+01 5.62525E+00 5.37596E-02-8.04569E-01-1.52916E-15-8.36516E-13
 -1      1128 1.86731E+01 5.61769E+00 5.25408E-02-3.92983E-01 7.03647E-16-8.18194E-13
 -1      1129 1.86663E+01 5.61553E+00 5.21516E-02 8.47014E-03 2.56793E-15-7.91664E-13
 -1      1130 1.86742E+01 5.61805E+00 5.26629E-02 4.10331E-01 5.37114E-15-7.68398E-13
 -1      1131 1.86993E+01 5.62600E+00 5.40482E-02 8.23284E-01 6.41718E-15-7.30116E-13
 -1      1132 1.87499E+01 5.64185E+00 5.62521E-02 1.25579E+00 8.66321E-15-6.66070E-13
 -1      1133 1.88451E+01 5.67106E+00 5.84570E-02 1.72765E+00 1.13451E-14-5.54129E-13
 -1      1134 1.90315E+01 5.72757E+00 6.04004E-02 2.26873E+00 1.49082E-14-3.72944E-13
 -1      1135 1.94311E+01 5.85010E+00 6.92080E-02 2.92885E+00 2.04003E-14-4.51410E-14
 -1      1136 2.04537E+01 6.18210E+00 1.53274E-01 3.87882E+00 2.08167E-14 5.83138E-13
 -1      1137 2.52178E+01 7.99450E+00 1.43046E+00 5.84660E+00 3.98570E-14 1.83117E-12
 -1      1138 2.88133E+01 3.61644E+00 1.27131E+00-4.21722E+00-2.02782E-13 2.00484E-12
 -1      1139 2.02279E+01-1.77762E-01-6.16355E-01-1.09899E-01-6.17353E-14 1.55068E-12
 -1      1140 1.88337E+01-9.63527E-02-2.36345E-01 6.25273E-02-2.72560E-14 9.26374E-13
 -1      1141 1.84995E+01-4.80565E-02-5.95779E-02 4.05027E-02-1.82584E-14 4.82066E-13
 -1      1142 1.84440E+01-2.46156E-02-1.51893E-02 2.67876E-02-8.33925E-15 1.96943E-13
 -1      1143 1.85254E+01-1.30409E-02-4.95592E-03 1.90628E-02-1.84750E-14 5.93275E-15
 -1      1144 1.86719E+01-6.59572E-03-1.44731E-03 1.41130E-02 2.29851E-16-1.41704E-13
 -1      1145 1.88437E+01-2.82425E-03 5.92110E-04 1.06755E-02-6.59363E-15-2.49537E-13
 -1      1146 1.90185E+01-5.93145E-04 1.91123E-03 8.12865E-03-1.73355E-14-3.67267E-13
 -1      1147 1.91835E+01 6.94080E-04 2.65272E-03 6.16258E-03-1.29035E-14-5.53342E-13
 -1      1148 1.93317E+01 1.37686E-03 2.94919E-03 4.61277E-03 1.54207E-14-6.26710E-13
 -1      1149 1.94605E+01 1.66219E-03 2.93107E-03 3.38100E-03 4.84194E-15-5.17825E-13
 -1      1150 1.95693E+01 1.68193E-03 2.70140E-03 2.40135E-03-2.49278E-14-6.83634E-13
 -1      1151 1.96597E+01 1.52116E-03 2.33148E-03 1.62562E-03 1.24614E-14-7.32573E-13
 -1      1152 1.97340E+01 1.23337E-03 1.86533E-03 1.01715E-03 1.50090E-15-6.88256E-13
 -1      1153 1.97953E+01 8.49307E-04 1.32519E-03 5.48284E-04-3.06021E-14-6.04624E-13
 -1      1154 1.98476E+01 3.82784E-04 7.16035E-04 1.99717E-04-1.45725E-14-7.99213E-13
 -1      1155 1.98950E+01-1.65214E-04 2.89388E-05-3.92783E-05 2.51413E-14-8.69125E-13
 -1      1156 1.99425E+01-8.03150E-04-7.55994E-04-1.69946E-04-6.67089E-15-9.00148E-13
 -1      1157 1.99957E+01-1.54574E-03-1.66688E-03-1.82653E-04-1.31687E-14-1.00266E-12
 -1      1158 2.00610E+01-2.41031E-03-2.73677E-03-5.49954E-05-2.05200E-14-1.10456E-12
 -1      1159 2.01462E+01-3.41198E-03-3.99898E-03 2.50575E-04 4.62472E-15-9.07263E-13
 -1      1160 2.02601E+01-4.55636E-03-5.47935E-03 7.89449E-04 1.82273E-14-7.35624E-13
 -1      1161 2.04132E+01-5.82814E-03-7.18279E-03 1.63734E-03-2.59524E-14-8.58820E-13
 -1      1162 2.06174E+01-7.17266E-03-9.06953E-03 2.89107E-03 1.80953E-16-7.63592E-13
 -1      1163 2.08859E+01-8.46697E-03-1.10137E-02 4.66425E-03-5.08472E-14-6.90801E-13
 -1      1164 2.12318E+01-9.47591E-03-1.27333E-02 7.07069E-03 3.76105E-14-9.54468E-13
 -1      1165 2.16668E+01-9.79030E-03-1.36803E-02 1.01815E-02 1.05627E-14-1.02721E-12
 -1      1166 2.21964E+01-8.75202E-03-1.28853E-02 1.39317E-02-9.57296E-15-9.63500E-13
 -1      1167 2.28142E+01-5.39326E-03-8.79232E-03 1.79392E-02 2.70264E-15-7.14168E-13
 -1      1168 2.34909E+01 1.53061E-03 7.82444E-04 2.12040E-02 1.89974E-15-5.72160E-13
 -1      1169 2.41597E+01 1.32449E-02 1.82360E-02 2.17035E-02-5.19398E-15-4.61433E-13
 -1      1170 2.47010E+01 3.01219E-02 4.47218E-02 1.60858E-02-2.37805E-14-4.29736E-13
 -1      1171 2.49341E+01 5.00479E-02 7.70946E-02 5.51726E-05-3.38900E-14-3.56038E-13
 -1      1172 2.46381E+01 6.62273E-02 1.03946E-01-2.94855E-02 2.57017E-14-1.81927E-13
 -1      1173 2.36280E+01 6.65515E-02 1.04394E-01-6.97000E-02 3.60111E-14-2.60639E-13
 -1      1174 2.18979E+01 3.78557E-02 5.71478E-02-1.06627E-01 3.87971E-14-3.15997E-13
 -1      1175 1.97701E+01-2.04132E-02-3.76369E-02-1.16435E-01 1.05042E-14-3.11556E-14
 -1      1176 1.78983E+01-8.51687E-02-1.39956E-01-8.06770E-02 1.44459E-14 9.91290E-14
 -1      1177 1.69912E+01-1.14637E-01-1.86050E-01-7.42709E-03 4.20688E-14 4.44584E-13
 -1      1178 1.73723E+01-8.81347E-02-1.43981E-01 6.71488E-02-8.86071E-14 2.88713E-13
 -1      1179 1.87527E+01-2.46068E-02-4.28440E-02 1.05746E-01-9.45708E-14-3.67470E-13
 -1      1180 2.04308E+01 3.56844E-02 5.49339E-02 9.74638E-02-2.26113E-14-7.37826E-13
 -1      1181 2.17298E+01 6.60726E-02 1.05762E-01 5.94019E-02-1.64625E-15-1.38389E-13
 -1      1182 2.23017E+01 6.48822E-02 1.04983E-01 1.59983E-02-3.47014E-14-5.65936E-14
 -1      1183 2.21543E+01 4.38439E-02 7.10153E-02-1.67003E-02-9.89790E-15 2.26475E-13
 -1      1184 2.15193E+01 1.49981E-02 2.33982E-02-3.29747E-02 2.72475E-14 4.09124E-13
 -1      1185 2.07199E+01-1.35431E-02-2.36245E-02-3.06284E-02 2.84433E-14 5.16476E-13
 -1      1186 2.01090E+01-3.72435E-02-4.63689E-02-5.39149E-03-2.92925E-14-2.61503E-13
 -1      1187 1.99563E+01 1.48749E-02 2.58011E-02 1.54932E-02 5.91450E-14-5.26996E-14
 -1      1188 2.77929E+01 5.25757E-01 3.77075E-01 1.96670E+00-3.24810E-14 2.84189E-12
 -1      1189 2.00855E+01-6.62427E-02-5.73629E-01 1.29472E-01 1.99563E-14 2.33030E-12
 -1      1190 1.89082E+01-4.06077E-02-1.93234E-01 1.94128E-02 7.87738E-15 1.86129E-12
 -1      1191 1.85283E+01-2.14201E-02-5.05622E-02 1.45533E-03 6.80055E-15 1.50442E-12
 -1      1192 1.84568E+01-1.24085E-02-1.34111E-02-4.08232E-03 3.07827E-15 1.24649E-12
 -1      1193 1.85318E+01-7.40223E-03-4.66443E-03-5.53896E-03 1.06555E-14 9.69322E-13
 -1      1194 1.86751E+01-4.32152E-03-1.92946E-03-5.72818E-03 1.40424E-14 8.30121E-13
 -1      1195 1.88453E+01-2.34762E-03-3.36636E-04-5.44668E-03 3.62945E-15 8.07174E-13
 -1      1196 1.90192E+01-1.07366E-03 7.86480E-04-4.94553E-03-1.04391E-14 6.59691E-13
 -1      1197 1.91835E+01-2.69072E-04 1.49946E-03-4.33824E-03-3.18479E-15 5.66524E-13
 -1      1198 1.93315E+01 2.11345E-04 1.86441E-03-3.69089E-03 2.25304E-14 3.84474E-13
 -1      1199 1.94601E+01 4.63492E-04 1.96588E-03-3.04449E-03-1.07560E-14 4.26250E-13
 -1      1200 1.95690E+01 5.51521E-04 1.87945E-03-2.42293E-03 2.47355E-14 3.23290E-13
 -1      1201 1.96594E+01 5.17493E-04 1.65986E-03-1.83776E-03-4.41400E-15 1.79992E-13
 -1      1202 1.97337E+01 3.87092E-04 1.34121E-03-1.29173E-03 8.96147E-15 3.22056E-14
 -1      1203 1.97951E+01 1.73286E-04 9.39888E-04-7.81582E-04 1.92656E-14-1.04346E-13
 -1      1204 1.98475E+01-1.21147E-04 4.57449E-04-3.00391E-04-1.13681E-14-7.46045E-14
 -1      1205 1.98950E+01-5.01709E-04-1.17069E-04 1.60181E-04-6.69214E-16 1.93923E-14
 -1      1206 1.99426E+01-9.80463E-04-8.05213E-04 6.07669E-04 2.23290E-14-1.51730E-13
 -1      1207 1.99959E+01-1.57409E-03-1.63712E-03 1.04625E-03-2.64426E-14-2.45676E-13
 -1      1208 2.00613E+01-2.30115E-03-2.64890E-03 1.47349E-03 3.33061E-15-7.53329E-14
 -1      1209 2.01465E+01-3.17783E-03-3.87839E-03 1.87598E-03-2.46801E-14 4.41908E-14
 -1      1210 2.02602E+01-4.21061E-03-5.35766E-03 2.22299E-03 3.39224E-14-2.44415E-13
 -1      1211 2.04129E+01-5.38392E-03-7.09923E-03 2.45739E-03-5.17177E-14-3.69793E-13
 -1      1212 2.06163E+01-6.63930E-03-9.07109E-03 2.48271E-03 8.64353E-15-1.60066E-13
 -1      1213 2.08831E+01-7.84183E-03-1.11524E-02 2.14604E-03-9.16639E-15-7.93835E-14
 -1      1214 2.12261E+01-8.72900E-03-1.30585E-02 1.21819E-03-2.02911E-14 3.22086E-14
 -1      1215 2.16562E+01-8.84088E-03-1.42230E-02-6.21072E-04 4.63777E-14-2.36739E-13
 -1      1216 2.21779E+01-7.44382E-03-1.36348E-02-3.77185E-03-3.03460E-14-2.04297E-13
 -1      1217 2.27837E+01-3.49418E-03-9.66881E-03-8.62972E-03-5.10253E-15-1.53572E-13
 -1      1218 2.34428E+01 4.23765E-03-6.06443E-05-1.53414E-02 3.13663E-14-2.30725E-13
 -1      1219 2.40880E+01 1.66604E-02 1.76113E-02-2.32857E-02 1.67452E-14-1.83294E-13
 -1      1220 2.46001E+01 3.31955E-02 4.43431E-02-3.02427E-02-3.13560E-14 1.34840E-13
 -1      1221 2.48022E+01 4.99886E-02 7.65657E-02-3.15906E-02-4.16841E-14 4.65159E-13
 -1      1222 2.44816E+01 5.85713E-02 1.02443E-01-2.06974E-02-1.02418E-14 4.04048E-13
 -1      1223 2.34663E+01 4.80302E-02 1.01828E-01 7.57141E-03-1.86240E-14 1.09718E-13
 -1      1224 2.17618E+01 1.31000E-02 5.63195E-02 4.98085E-02 3.20746E-14-2.13884E-13
 -1      1225 1.96891E+01-3.54664E-02-3.08360E-02 8.86196E-02-1.01627E-14-1.81258E-13
 -1      1226 1.78773E+01-7.13040E-02-1.21839E-01 9.86777E-02 1.08532E-13-4.15501E-13
 -1      1227 1.69996E+01-7.20621E-02-1.62477E-01 6.64938E-02 6.46705E-14-7.05755E-13
 -1      1228 1.73615E+01-4.06825E-02-1.27732E-01 5.78920E-03 1.57322E-14-3.64389E-13
 -1      1229 1.86869E+01-1.55119E-04-4.36348E-02-5.07192E-02-7.84125E-14 5.39596E-13
 -1      1230 2.03087E+01 2.81439E-02 3.87311E-02-7.75921E-02-1.07093E-14 8.06744E-13
 -1      1231 2.15788E+01 3.72687E-02 8.34148E-02-7.14711E-02 4.60573E-14 8.33826E-13
 -1      1232 2.21562E+01 3.12975E-02 8.57135E-02-4.50962E-02 2.15375E-14 4.70908E-14
 -1      1233 2.20393E+01 1.65888E-02 5.92763E-02-1.36328E-02 4.91629E-14-6.49257E-13
 -1      1234 2.14450E+01-2.31948E-03 1.89153E-02 1.30961E-02 4.04970E-14-8.64201E-13
 -1      1235 2.06856E+01-2.09002E-02-2.29327E-02 2.88068E-02-9.19620E-16-4.78395E-13
 -1      1236 2.00989E+01-2.74681E-02-4.15994E-02 2.30731E-02 8.28194E-14-4.30975E-13
 -1      1237 1.99632E+01 1.36503E-02 2.66800E-02-1.29846E-02 4.49796E-14-4.50725E-13
 -1      1238 2.00127E+01-3.80620E-02 2.21632E-02-1.23352E-02-4.60847E-13-1.76636E-14
 -1      1239 1.99632E+01 1.02419E-01-5.58463E-02-3.38594E-03-5.68384E-13 7.45844E-15
 -1      1240 1.99605E+01 7.43008E-01-6.20062E-02 2.47228E-02 1.51414E-13 2.13215E-14
 -1      1241 1.99683E+01 1.80955E+00-4.86103E-02 4.25128E-02 3.93394E-13-2.25774E-15
 -1      1242 1.99853E+01 3.19432E+00-2.33945E-02 5.55562E-02 7.16358E-13-7.32140E-15
 -1      1243 2.00110E+01 4.72040E+00 1.42527E-02 6.07753E-02 5.59171E-13-1.41973E-14
 -1      1244 2.00420E+01 6.15145E+00 5.84859E-02 5.40965E-02 7.61918E-13-2.09039E-14
 -1      1245 2.00683E+01 7.20096E+00 9.64247E-02 3.24741E-02-2.56815E-13-7.86315E-14
 -1      1246 2.00790E+01 7.59910E+00 1.11983E-01 9.48748E-04-1.10162E-12-6.70219E-14
 -1      1247 2.00695E+01 7.24084E+00 9.82166E-02-3.09340E-02-1.31346E-12 8.50847E-14
 -1      1248 2.00436E+01 6.21930E+00 6.12342E-02-5.33363E-02-1.07999E-12-1.00050E-14
 -1      1249 2.00136E+01 4.79665E+00 1.68361E-02-6.13753E-02-1.65205E-12 3.12829E-14
 -1      1250 1.99864E+01 3.26187E+00-2.13837E-02-5.66896E-02-1.53134E-12 7.20724E-14
 -1      1251 1.99686E+01 1.85418E+00-4.83197E-02-4.43258E-02-8.84362E-13-7.11731E-14
 -1      1252 1.99589E+01 7.45817E-01-6.80043E-02-3.36464E-02-5.96863E-13 1.37507E-13
 -1      1253 1.99464E+01 1.22981E-01-5.75753E-02 1.02361E-02-1.25813E-13-1.66879E-13
 -1      1254 2.00161E+01-4.21296E-02 2.40235E-02 1.30804E-02-1.78104E-14 1.29139E-13
 -1      1255-1.31891E+00-2.63195E+01-4.03724E+00-2.32971E+00 1.80767E-12 3.18273E-13
 -1      1256-1.98204E+00-1.77157E+01-3.36759E+00-4.57594E+00 1.65334E-12 4.49196E-13
 -1      1257-5.82717E-01-4.93484E+00-2.13284E+00-1.43386E+00 1.15574E-12 5.45786E-13
 -1      1258 6.68576E+00 6.29786E+00-5.65476E-01 6.50204E+00 6.95222E-13 4.57856E-13
 -1      1259 2.11720E+01 1.15228E+01 1.09949E+00 1.50519E+01 2.98428E-13 2.44027E-13
 -1      1260 4.01987E+01 1.02135E+01 2.64238E+00 1.89320E+01 2.32592E-13 3.83249E-13
 -1      1261 5.80356E+01 5.61310E+00 3.79717E+00 1.51823E+01 1.14964E-13 4.13225E-13
 -1      1262 6.80350E+01 1.95573E+00 4.31600E+00 4.44852E+00 1.00031E-13 1.79634E-13
 -1      1263 6.54639E+01 2.58983E+00 4.11899E+00-8.33500E+00 1.50661E-13-9.00502E-13
 -1      1264 5.17719E+01 6.73418E+00 3.25855E+00-1.67827E+01 5.69544E-13-1.27809E-12
 -1      1265 3.21572E+01 1.05883E+01 1.90414E+00-1.72185E+01 9.28368E-13-1.52678E-12
 -1      1266 1.38589E+01 9.35822E+00 3.00342E-01-1.09847E+01 8.07576E-13-9.99867E-13
 -1      1267 2.29261E+00 1.35955E+00-1.40703E+00-2.27863E+00 1.04916E-12-7.62057E-13
 -1      1268-1.71635E+00-1.05445E+01-2.66390E+00 3.40903E+00 1.00320E-12-4.49196E-13
 -1      1269-1.56256E+00-2.15473E+01-3.51782E+00 4.03047E+00 1.18450E-12-1.92790E-13
 -1      1270-8.71075E-01-2.62001E+01-3.81518E+00 1.95784E-01 7.03965E-13 1.49672E-14
 -1      1271-1.51879E+00-2.17958E+01-3.52568E+00-3.89010E+00-2.28706E-13-1.55598E-13
 -1      1272-1.60546E+00-1.00275E+01-2.62468E+00-3.23266E+00-4.83835E-13-1.31894E-13
 -1      1273 3.50641E+00 2.75837E+00-1.18963E+00 3.48588E+00-4.76952E-13-3.20854E-13
 -1      1274 1.65806E+01 1.01311E+01 5.01071E-01 1.26191E+01-4.55191E-13-7.18314E-13
 -1      1275 3.63724E+01 1.00037E+01 2.18279E+00 1.79742E+01-9.05054E-13-1.85008E-12
 -1      1276 5.64849E+01 5.39167E+00 3.56739E+00 1.49348E+01-6.09124E-13-2.16116E-12
 -1      1277 6.78231E+01 1.84550E+00 4.26436E+00 3.63812E+00-1.25518E-13-2.00379E-12
 -1      1278 6.51046E+01 3.03508E+00 4.15771E+00-9.86804E+00 1.53509E-13-1.24822E-12
 -1      1279 4.95644E+01 7.97249E+00 3.22902E+00-1.81202E+01-2.06557E-13 2.84661E-13
 -1      1280 2.77958E+01 1.15420E+01 1.67060E+00-1.70539E+01-6.01519E-13 9.00169E-13
 -1      1281 9.49279E+00 8.08120E+00-1.85671E-01-8.62267E+00-1.38156E-12 1.35780E-12
 -1      1282 1.00428E-01-3.13516E+00-1.93640E+00 5.12873E-01-1.29763E-12 8.07576E-13
 -1      1283-1.97032E+00-1.69965E+01-3.29950E+00 4.55492E+00-2.88658E-13 2.22711E-13
 -1      1284-1.22711E+00-2.63671E+01-4.04316E+00 2.37809E+00 7.21923E-13 1.74999E-13
 -1      1285 2.22670E+01 1.83820E+00-7.25902E-01-2.79077E+00-7.79377E-14 9.31366E-13
 -1      1286 2.03595E+01 4.69022E+00-4.86495E-02-3.30734E+00-1.87281E-13-2.50772E-13
 -1      1287 2.08669E+01 4.81071E+00-1.13386E-01-4.16155E+00-2.48801E-13 1.11924E-14
 -1      1288 1.95314E+01 4.99318E+00-1.96971E-02-2.65478E+00-1.70919E-13-6.03205E-13
 -1      1289 1.98298E+01 5.09011E+00 2.40653E-04-3.04587E+00-2.01207E-13-4.55101E-13
 -1      1290 2.05261E+01 3.95273E+00-2.59046E-02-3.07538E+00-3.22964E-13-2.17520E-13
 -1      1291 1.91840E+01 5.08437E+00-3.54807E-03-2.07114E+00-1.26151E-13-7.65013E-13
 -1      1292 1.93326E+01 5.13956E+00 1.05487E-02-2.36395E+00-1.49471E-13-6.97383E-13
 -1      1293 1.97531E+01 4.36581E+00-2.45226E-02-2.48967E+00-2.63827E-13-5.12951E-13
 -1      1294 1.90092E+01 5.13078E+00 3.28079E-03-1.56494E+00-8.52591E-14-8.30253E-13
 -1      1295 1.90869E+01 5.16034E+00 1.25450E-02-1.81501E+00-9.83935E-14-8.02441E-13
 -1      1296 1.93916E+01 4.55478E+00-2.00498E-02-1.93234E+00-1.90060E-13-6.50636E-13
 -1      1297 1.89156E+01 5.16069E+00 6.52137E-03-1.11729E+00-4.18285E-14-8.43936E-13
 -1      1298 1.89580E+01 5.17700E+00 1.26751E-02-1.33875E+00-5.77229E-14-8.35200E-13
 -1      1299 1.92059E+01 4.66146E+00-1.61250E-02-1.44480E+00-1.20380E-13-6.97283E-13
 -1      1300 1.88643E+01 5.18042E+00 8.19031E-03-6.94049E-01-1.05150E-14-8.36272E-13
 -1      1301 1.88871E+01 5.18924E+00 1.19608E-02-9.04300E-01-2.20379E-14-8.45612E-13
 -1      1302 1.91029E+01 4.72678E+00-1.40395E-02-1.00457E+00-5.36316E-14-7.17190E-13
 -1      1303 1.88404E+01 5.19231E+00 9.29148E-03-2.89270E-01 2.60661E-14-8.16743E-13
 -1      1304 1.88502E+01 5.19613E+00 1.10628E-02-4.91429E-01 1.30737E-14-8.26502E-13
 -1      1305 1.90473E+01 4.76560E+00-1.29371E-02-5.88994E-01-1.36208E-15-7.00995E-13
 -1      1306 1.88367E+01 5.19725E+00 1.02240E-02 1.08232E-01 5.87082E-14-7.91183E-13
 -1      1307 1.88363E+01 5.19712E+00 1.01525E-02-9.14824E-02 4.56984E-14-8.06979E-13
 -1      1308 1.90232E+01 4.78360E+00-1.24800E-02-1.89170E-01 6.30761E-14-6.86860E-13
 -1      1309 1.88520E+01 5.19578E+00 1.11613E-02 5.08759E-01 9.24703E-14-7.66179E-13
 -1      1310 1.88414E+01 5.19168E+00 9.22960E-03 3.06181E-01 8.06488E-14-7.82430E-13
 -1      1311 1.90241E+01 4.78297E+00-1.24956E-02 2.05825E-01 1.12217E-13-6.65936E-13
 -1      1312 1.88905E+01 5.18809E+00 1.20943E-02 9.23109E-01 1.19805E-13-7.26414E-13
 -1      1313 1.88668E+01 5.17908E+00 8.13759E-03 7.11895E-01 1.07920E-13-7.53755E-13
 -1      1314 1.90500E+01 4.76355E+00-1.29816E-02 6.06316E-01 1.66862E-13-6.36751E-13
 -1      1315 1.89623E+01 5.17510E+00 1.28994E-02 1.35640E+00 1.52082E-13-6.50693E-13
 -1      1316 1.89191E+01 5.15838E+00 6.45132E-03 1.13347E+00 1.39335E-13-6.95942E-13
 -1      1317 1.91073E+01 4.72313E+00-1.40036E-02 1.01972E+00 2.11828E-13-5.91659E-13
 -1      1318 1.90949E+01 5.15664E+00 1.28251E-02 1.84111E+00 1.95817E-13-5.34461E-13
 -1      1319 1.90154E+01 5.12631E+00 3.14502E-03 1.58828E+00 1.76489E-13-6.04681E-13
 -1      1320 1.92127E+01 4.65478E+00-1.61488E-02 1.46290E+00 2.71106E-13-5.12132E-13
 -1      1321 1.93435E+01 5.13341E+00 1.01668E-02 2.39822E+00 2.36443E-13-3.32307E-13
 -1      1322 1.91934E+01 5.07631E+00-4.37759E-03 2.10094E+00 2.13003E-13-4.54855E-13
 -1      1323 1.94052E+01 4.54237E+00-1.99868E-02 1.95864E+00 3.30291E-13-3.83138E-13
 -1      1324 1.98551E+01 5.09938E+00 6.04462E-03 3.08430E+00 2.53284E-13 2.65066E-14
 -1      1325 1.95431E+01 4.98439E+00-2.05466E-02 2.69694E+00 2.31828E-13-1.92107E-13
 -1      1326 1.97745E+01 4.34639E+00-2.45628E-02 2.52851E+00 3.75394E-13-1.56708E-13
 -1      1327 2.11030E+01 4.90699E+00 8.30665E-03 4.05429E+00 2.05530E-13 6.95749E-13
 -1      1328 2.03339E+01 4.73383E+00-4.79756E-02 3.41667E+00 2.04642E-13 2.90240E-13
 -1      1329 2.05642E+01 3.91594E+00-2.24150E-02 3.17882E+00 3.69638E-13 2.55324E-13
 -1      1330 2.72028E+01 3.20543E+00 9.29072E-01 4.58249E+00 9.15656E-14 1.91613E-12
 -1      1331 2.20198E+01 3.52219E+00-1.82006E-01 3.88528E+00 9.73666E-14 1.07553E-12
 -1      1332 2.21120E+01 2.56181E+00-3.25545E-02 3.45694E+00 3.32068E-13 8.58424E-13
 -1      1333 2.14266E+01 3.59596E-01-7.63537E-01 1.18402E+00 1.75665E-13 1.85690E-12
 -1      1334 2.20009E+01 1.31427E-01-4.00898E-01-1.28583E+00-2.05072E-13 1.02246E-12
 -1      1335 2.06781E+01 3.06716E-01-1.64850E-01-8.05851E-01-1.87475E-13 7.83193E-13
 -1      1336 2.00804E+01 1.53473E-01-7.35276E-02-4.02256E-01-1.50942E-13 6.79065E-13
 -1      1337 1.96104E+01 9.11657E-02-1.49309E-02-3.30105E-01-1.42303E-13 4.55518E-13
 -1      1338 2.09720E+01 3.69047E-01-1.04293E-01-1.27408E+00-3.29084E-13 3.24733E-13
 -1      1339 1.92529E+01 6.44934E-02 3.03863E-03-1.35521E-01-1.25577E-13 3.93678E-13
 -1      1340 1.90983E+01 4.12621E-02 1.32207E-02-1.17727E-01-1.09307E-13 2.18860E-13
 -1      1341 1.99210E+01 1.33890E-01-3.51402E-02-5.04281E-01-2.56292E-13 1.92199E-13
 -1      1342 1.89378E+01 3.15282E-02 1.32428E-02-2.82151E-02-8.37950E-14 1.39593E-13
 -1      1343 1.89181E+01 1.93830E-02 1.10577E-02-1.88342E-02-8.24562E-14 1.78781E-14
 -1      1344 1.94434E+01 5.54430E-02-8.51461E-03-1.70381E-01-1.91376E-13 6.11039E-14
 -1      1345 1.88618E+01 1.59974E-02 8.78038E-03 2.47887E-02-6.45851E-14-1.33019E-14
 -1      1346 1.89039E+01 9.05713E-03 6.43962E-03 2.94086E-02-5.32933E-14-9.61141E-14
 -1      1347 1.92341E+01 2.44012E-02-3.49273E-03-1.15756E-02-1.32192E-13-8.87502E-14
 -1      1348 1.89036E+01 7.83310E-03 4.67685E-03 5.05261E-02-4.25722E-14-1.45422E-13
 -1      1349 1.89736E+01 3.48172E-03 3.64390E-03 5.24038E-02-3.73299E-14-1.84124E-13
 -1      1350 1.91768E+01 1.01590E-02-2.20876E-03 6.70171E-02-9.73375E-14-1.35368E-13
 -1      1351 1.90028E+01 3.16380E-03 2.44768E-03 6.11510E-02-2.45100E-14-2.17812E-13
 -1      1352 1.90829E+01 3.10891E-04 2.21442E-03 6.14059E-02-2.78469E-14-2.63448E-13
 -1      1353 1.92024E+01 2.73627E-03-1.31632E-03 1.03735E-01-7.07537E-14-2.20194E-13
 -1      1354 1.91261E+01 4.21054E-04 1.33975E-03 6.30458E-02-4.14344E-14-2.66360E-13
 -1      1355 1.92064E+01-1.47799E-03 1.44518E-03 6.23516E-02-5.84195E-14-3.47773E-13
 -1      1356 1.92708E+01-1.34428E-03-5.53698E-04 1.16895E-01-7.04355E-14-2.68105E-13
 -1      1357 1.92545E+01-1.15584E-03 7.58106E-04 5.99385E-02-4.73057E-14-3.55912E-13
 -1      1358 1.93295E+01-2.40804E-03 9.80141E-04 5.87306E-02-4.02545E-14-4.08960E-13
 -1      1359 1.93583E+01-3.53903E-03 2.37415E-06 1.16478E-01-8.84211E-14-2.77886E-13
 -1      1360 1.93773E+01-1.98797E-03 4.25963E-04 5.41663E-02-2.39285E-14-4.22632E-13
 -1      1361 1.94443E+01-2.78451E-03 6.73757E-04 5.27329E-02 2.20873E-14-4.22452E-13
 -1      1362 1.94508E+01-4.57742E-03 3.49598E-04 1.08467E-01-5.08879E-14-2.50169E-13
 -1      1363 1.94887E+01-2.33080E-03 2.27394E-04 4.72467E-02 1.22539E-15-4.46953E-13
 -1      1364 1.95466E+01-2.79923E-03 4.65390E-04 4.57795E-02-5.08405E-14-4.98011E-13
 -1      1365 1.95401E+01-4.87805E-03 5.31069E-04 9.66575E-02-1.66770E-14-3.39992E-13
 -1      1366 1.95863E+01-2.34767E-03 1.10146E-04 4.01808E-02-5.79097E-14-4.91260E-13
 -1      1367 1.96351E+01-2.57645E-03 3.25225E-04 3.88069E-02-5.10061E-14-5.65587E-13
 -1      1368 1.96218E+01-4.70109E-03 5.93489E-04 8.35275E-02-6.32650E-14-4.21360E-13
 -1      1369 1.96698E+01-2.14462E-03 4.65031E-05 3.36344E-02-7.19897E-15-5.48329E-13
 -1      1370 1.97104E+01-2.19578E-03 2.35650E-04 3.24385E-02 2.51342E-14-5.23670E-13
 -1      1371 1.96942E+01-4.21286E-03 5.73185E-04 7.07195E-02-4.22751E-14-4.14597E-13
 -1      1372 1.97403E+01-1.78865E-03 1.95090E-05 2.80594E-02-4.37776E-15-5.15622E-13
 -1      1373 1.97740E+01-1.70508E-03 1.85078E-04 2.70999E-02-1.06009E-14-5.14557E-13
 -1      1374 1.97572E+01-3.51726E-03 4.95101E-04 5.93392E-02-1.05290E-14-4.07636E-13
 -1      1375 1.98000E+01-1.31832E-03 1.78597E-05 2.37795E-02-2.33293E-14-5.13052E-13
 -1      1376 1.98284E+01-1.12860E-03 1.65512E-04 2.31010E-02-6.34262E-14-5.39982E-13
 -1      1377 1.98119E+01-2.67312E-03 3.74883E-04 5.01594E-02-1.16136E-14-4.21534E-13
 -1      1378 1.98519E+01-7.50517E-04 3.35524E-05 2.10549E-02-6.28153E-14-5.53402E-13
 -1      1379 1.98770E+01-4.72472E-04 1.71286E-04 2.06980E-02-4.98942E-14-6.17502E-13
 -1      1380 1.98603E+01-1.70499E-03 2.21013E-04 4.37673E-02-8.27223E-14-4.01056E-13
 -1      1381 1.98995E+01-8.52623E-05 6.04915E-05 2.01323E-02 2.04318E-15-6.33008E-13
 -1      1382 1.99236E+01 2.70985E-04 1.98201E-04 2.01411E-02-7.09782E-15-6.36701E-13
 -1      1383 1.99053E+01-6.10605E-04 3.64820E-05 4.06765E-02-5.67911E-14-3.78420E-13
 -1      1384 1.99468E+01 6.90581E-04 9.34699E-05 2.12828E-02-8.23489E-15-7.09540E-13
 -1      1385 1.99725E+01 1.11970E-03 2.42794E-04 2.17109E-02-2.65527E-14-7.14263E-13
 -1      1386 1.99501E+01 6.33420E-04-1.79894E-04 4.14117E-02-3.29309E-14-5.05232E-13
 -1      1387 1.99988E+01 1.59992E-03 1.27281E-04 2.48305E-02-4.86377E-14-7.17205E-13
 -1      1388 2.00289E+01 2.09816E-03 3.01573E-04 2.57456E-02-8.64481E-14-8.20523E-13
 -1      1389 1.99988E+01 2.06655E-03-4.32324E-04 4.65732E-02-5.74832E-14-5.11601E-13
 -1      1390 2.00608E+01 2.67172E-03 1.55816E-04 3.11707E-02 1.06149E-14-8.17329E-13
 -1      1391 2.00990E+01 3.23300E-03 3.70067E-04 3.26570E-02 2.82530E-14-7.88878E-13
 -1      1392 2.00559E+01 3.73891E-03-7.26886E-04 5.68805E-02-5.79907E-14-5.73840E-13
 -1      1393 2.01395E+01 3.93606E-03 1.71036E-04 4.07753E-02 2.11678E-14-6.84673E-13
 -1      1394 2.01898E+01 4.54671E-03 4.41566E-04 4.29333E-02 4.78062E-14-6.38429E-13
 -1      1395 2.01269E+01 5.70413E-03-1.07019E-03 7.31923E-02 5.44164E-14-5.08862E-13
 -1      1396 2.02422E+01 5.41657E-03 1.61793E-04 5.41793E-02 3.63696E-15-6.78778E-13
 -1      1397 2.03093E+01 6.04765E-03 5.05424E-04 5.71223E-02-3.11309E-14-6.68977E-13
 -1      1398 2.02181E+01 8.00825E-03-1.46757E-03 9.64945E-02-5.75083E-15-4.51562E-13
 -1      1399 2.03777E+01 7.11790E-03 1.12544E-04 7.19379E-02 8.45754E-15-6.71095E-13
 -1      1400 2.04670E+01 7.71379E-03 5.44942E-04 7.57806E-02 1.04604E-15-6.84693E-13
 -1      1401 2.03365E+01 1.06710E-02-1.92039E-03 1.27838E-01-7.36705E-15-4.68493E-13
 -1      1402 2.05555E+01 9.00446E-03 2.37521E-06 9.45330E-02 3.16183E-14-6.23764E-13
 -1      1403 2.06731E+01 9.46558E-03 5.35195E-04 9.93692E-02 3.30607E-14-5.53441E-13
 -1      1404 2.04900E+01 1.36536E-02-2.42180E-03 1.68194E-01 5.57698E-14-4.31927E-13
 -1      1405 2.07860E+01 1.09649E-02-1.94625E-04 1.22198E-01-5.56512E-14-5.02840E-13
 -1      1406 2.09382E+01 1.11221E-02 4.42050E-04 1.28058E-01-6.30977E-14-5.88612E-13
 -1      1407 2.06870E+01 1.68033E-02-2.94977E-03 2.18178E-01 2.53291E-15-4.04124E-13
 -1      1408 2.10797E+01 1.27541E-02-5.05107E-04 1.54607E-01-3.66213E-14-5.96577E-13
 -1      1409 2.12722E+01 1.23330E-02 2.25524E-04 1.61381E-01 4.20670E-16-6.73111E-13
 -1      1410 2.09360E+01 1.97610E-02-3.45570E-03 2.77557E-01-7.55383E-14-2.74312E-13
 -1      1411 2.14452E+01 1.39036E-02-9.43297E-04 1.90363E-01-4.63366E-15-6.95526E-13
 -1      1412 2.16817E+01 1.24800E-02-1.46317E-04 1.97673E-01-9.28576E-15-7.63242E-13
 -1      1413 2.12439E+01 2.18169E-02-3.84595E-03 3.44413E-01-1.94740E-14-3.66807E-13
 -1      1414 2.18867E+01 1.35970E-02-1.48069E-03 2.26183E-01 8.72525E-14-7.33311E-13
 -1      1415 2.21663E+01 1.05577E-02-6.63326E-04 2.33181E-01 5.70420E-14-6.65303E-13
 -1      1416 2.16143E+01 2.17017E-02-3.95336E-03 4.13834E-01 9.79130E-14-4.86868E-13
 -1      1417 2.23993E+01 1.05287E-02-1.98941E-03 2.55757E-01 2.23122E-14-5.41378E-13
 -1      1418 2.27124E+01 5.07931E-03-1.21058E-03 2.60834E-01 4.47871E-14-4.61400E-13
 -1      1419 2.20444E+01 1.73425E-02-3.49806E-03 4.75989E-01 1.01034E-13-3.50703E-13
 -1      1420 2.29617E+01 2.83123E-03-2.16044E-03 2.68368E-01-6.30117E-15-3.91458E-13
 -1      1421 2.32843E+01-5.84781E-03-1.48384E-03 2.68811E-01-1.95650E-14-3.89671E-13
 -1      1422 2.25198E+01 5.71159E-03-2.04785E-03 5.13714E-01 6.06548E-14-2.86861E-13
 -1      1423 2.35272E+01-1.17024E-02-1.43364E-03 2.47867E-01-1.00126E-14-2.88176E-13
 -1      1424 2.38139E+01-2.39743E-02-9.40403E-04 2.39659E-01 3.08152E-14-2.68133E-13
 -1      1425 2.30086E+01-1.68758E-02 9.82711E-04 5.00321E-01-1.90791E-14-2.48402E-13
 -1      1426 2.40136E+01-3.46687E-02 9.35996E-04 1.73507E-01 4.47888E-14-2.92582E-13
 -1      1427 2.41928E+01-4.94086E-02 1.06535E-03 1.51720E-01 2.56431E-14-3.39524E-13
 -1      1428 2.34544E+01-5.33114E-02 6.19639E-03 3.99768E-01 4.43135E-14-1.71496E-13
 -1      1429 2.42977E+01-6.47790E-02 5.44193E-03 2.54945E-02-4.75097E-14-1.57414E-13
 -1      1430 2.42761E+01-7.77943E-02 4.74722E-03-1.38258E-02-2.85362E-16-2.30982E-13
 -1      1431 2.37721E+01-1.02107E-01 1.37667E-02 1.73496E-01 9.81767E-14-8.67041E-14
 -1      1432 2.42263E+01-9.41849E-02 1.13593E-02-2.01182E-01 5.51772E-14-1.68749E-13
 -1      1433 2.39118E+01-9.70256E-02 8.96567E-03-2.56713E-01 4.19560E-14-1.33536E-13
 -1      1434 2.38522E+01-1.51492E-01 2.25032E-02-1.99893E-01 4.46830E-14-5.51273E-14
 -1      1435 2.36589E+01-1.05561E-01 1.57396E-02-4.74574E-01-4.92158E-14-2.45866E-13
 -1      1436 2.30112E+01-8.73509E-02 1.03906E-02-5.33635E-01-4.25441E-14-2.58057E-13
 -1      1437 2.35842E+01-1.74704E-01 2.86679E-02-6.88992E-01 5.10182E-15-1.03671E-13
 -1      1438 2.25531E+01-7.65213E-02 1.34647E-02-7.07323E-01 1.10580E-13-3.11466E-13
 -1      1439 2.16492E+01-3.18254E-02 4.81936E-03-7.43429E-01 8.54585E-14-2.14120E-13
 -1      1440 2.29090E+01-1.35370E-01 2.58392E-02-1.17068E+00 1.37642E-14-2.94150E-13
 -1      1441 2.10699E+01 2.49920E-03 1.59168E-03-7.72181E-01 3.36840E-14-2.62124E-13
 -1      1442 2.01364E+01 6.23437E-02-8.80715E-03-7.55442E-01 7.76549E-15-1.57679E-13
 -1      1443 2.18965E+01-1.55362E-02 7.93264E-03-1.43073E+00 6.83923E-14-3.14627E-13
 -1      1444 1.96116E+01 1.04628E-01-1.61371E-02-5.75838E-01 7.78284E-14-7.62584E-15
 -1      1445 1.89626E+01 1.49843E-01-2.34638E-02-4.98294E-01 1.11827E-13 8.65037E-14
 -1      1446 2.08001E+01 1.51816E-01-2.19032E-02-1.25897E+00 8.39519E-14-1.71519E-13
 -1      1447 1.86918E+01 1.69603E-01-2.68545E-02-1.57918E-01 8.00852E-14 2.24543E-14
 -1      1448 1.85637E+01 1.71773E-01-2.73707E-02-5.20215E-02-6.01741E-14 5.16028E-14
 -1      1449 2.00028E+01 2.75160E-01-4.77515E-02-6.24146E-01 1.18731E-13-4.36352E-14
 -1      1450 1.86391E+01 1.53039E-01-2.27710E-02 2.93732E-01-1.51480E-13 1.02730E-14
 -1      1451 1.90401E+01 1.11191E-01-1.65010E-02 3.74542E-01-2.88198E-13-3.14596E-13
 -1      1452 1.98116E+01 2.80730E-01-4.73895E-02 2.21103E-01-1.39682E-13-2.54127E-13
 -1      1453 1.93798E+01 6.76731E-02-8.32117E-03 5.66486E-01-1.91472E-13-3.30055E-13
 -1      1454 2.00826E+01 8.66231E-03 7.43254E-04 5.86882E-01-1.15478E-13-4.94993E-13
 -1      1455 2.02363E+01 1.60745E-01-2.31465E-02 8.78735E-01-3.51316E-13-3.34264E-13
 -1      1456 2.04903E+01-2.88641E-02 5.64730E-03 5.67991E-01 8.60627E-14-4.26423E-13
 -1      1457 2.11780E+01-7.39447E-02 1.35342E-02 5.33309E-01 1.81806E-13-3.41130E-13
 -1      1458 2.09855E+01-8.00870E-03 6.87707E-03 1.07875E+00 1.41710E-14-2.70114E-13
 -1      1459 2.14724E+01-8.80729E-02 1.22197E-02 3.62199E-01 8.70580E-14-9.82200E-14
 -1      1460 2.19076E+01-1.05617E-01 1.68835E-02 3.02147E-01 1.10380E-13 9.03166E-14
 -1      1461 2.16727E+01-1.34113E-01 2.57138E-02 8.33753E-01 2.70605E-13 3.20612E-14
 -1      1462 2.20005E+01-9.84437E-02 1.15362E-02 8.38967E-02 1.00557E-13 6.39419E-14
 -1      1463 2.21020E+01-9.22090E-02 1.31794E-02 2.73248E-02 1.21462E-13 2.05525E-13
 -1      1464 2.20329E+01-1.76426E-01 2.90499E-02 3.53668E-01 1.63401E-13 3.16956E-13
 -1      1465 2.19996E+01-7.43628E-02 7.25287E-03-1.52478E-01 1.53723E-13 2.38326E-13
 -1      1466 2.18201E+01-5.46204E-02 6.81467E-03-1.89462E-01 1.14258E-13 5.06477E-13
 -1      1467 2.19951E+01-1.47652E-01 2.18894E-02-1.28271E-01 2.19692E-13 5.31355E-13
 -1      1468 2.15867E+01-3.44339E-02 1.95610E-03-2.86382E-01 5.16867E-14 4.46632E-13
 -1      1469 2.12529E+01-9.75631E-03 3.33956E-04-2.98472E-01 4.33603E-14 4.05606E-13
 -1      1470 2.16376E+01-8.08416E-02 1.03663E-02-4.59254E-01 1.82866E-13 4.54275E-13
 -1      1471 2.09735E+01 9.90424E-03-3.79568E-03-2.99444E-01-3.71335E-14 3.65499E-13
 -1      1472 2.06376E+01 3.40862E-02-4.31457E-03-2.85666E-01-1.28179E-13 2.72997E-13
 -1      1473 2.11114E+01-6.73060E-04-1.27354E-03-5.74583E-01-3.07981E-14 4.08410E-13
 -1      1474 2.03903E+01 5.42954E-02-7.26310E-03-1.94335E-01-1.46020E-13 2.65437E-13
 -1      1475 2.01897E+01 6.17048E-02-1.84160E-03-1.61933E-01-9.01581E-14 1.32809E-13
 -1      1476 2.05781E+01 8.38162E-02-8.44300E-03-4.69491E-01-1.30046E-13 3.94288E-13
 -1      1477 2.00050E+01 2.79211E-02-2.28918E-03-3.73418E-04-1.43482E-13 6.86794E-14
 -1      1478 2.01293E+01 1.18248E-01-6.40847E-03-1.58992E-01-1.54888E-13 2.31827E-13
 -1      1479 2.02590E+01 7.54777E-02-1.52099E-01 4.83994E-01 1.56763E-13 1.50814E-12
 -1      1480 2.15295E+01 2.16132E-01-2.29288E-01 7.20993E-01 1.40915E-13 1.74127E-12
 -1      1481 2.17281E+01 8.81791E-01-8.54655E-02 2.06511E+00 2.73143E-13 1.16381E-12
 -1      1482 1.93304E+01 3.23775E-02-2.13345E-02 1.86156E-01 1.12570E-13 1.20793E-12
 -1      1483 1.97513E+01 1.13615E-01-6.27042E-02 2.38164E-01 1.10946E-13 1.38766E-12
 -1      1484 2.03026E+01 1.87682E-01-5.51898E-02 7.86445E-01 2.36353E-13 9.28132E-13
 -1      1485 1.89482E+01 1.50974E-02 5.66657E-03 5.36767E-02 8.76556E-14 9.80088E-13
 -1      1486 1.90870E+01 5.16156E-02 9.75171E-04 7.99826E-02 7.61830E-14 1.10330E-12
 -1      1487 1.95572E+01 7.18289E-02-1.21543E-02 2.99280E-01 1.85589E-13 7.45116E-13
 -1      1488 1.88373E+01 7.11294E-03 6.97649E-03-8.78292E-03 7.55789E-14 7.84782E-13
 -1      1489 1.88522E+01 2.58454E-02 1.10869E-02 5.60646E-03 6.81061E-14 9.08027E-13
 -1      1490 1.92215E+01 3.10185E-02-2.46101E-03 8.38430E-02 1.42698E-13 5.78095E-13
 -1      1491 1.88627E+01 3.19994E-03 4.78288E-03-3.89961E-02 5.77047E-14 6.20863E-13
 -1      1492 1.88193E+01 1.37919E-02 8.51816E-03-3.08888E-02 5.69614E-14 7.25066E-13
 -1      1493 1.91044E+01 1.32449E-02-1.61590E-03-2.10656E-02 1.29866E-13 4.71358E-13
 -1      1494 1.89561E+01 1.04095E-03 3.29650E-03-5.23784E-02 2.07719E-14 5.57795E-13
 -1      1495 1.88860E+01 7.25909E-03 5.36604E-03-4.79214E-02 1.64269E-14 5.92923E-13
 -1      1496 1.91050E+01 4.51793E-03-1.62838E-03-7.24728E-02 5.13110E-14 4.01097E-13
 -1      1497 1.90795E+01-2.05555E-04 2.51495E-03-5.62737E-02 4.21496E-14 5.24946E-13
 -1      1498 1.89999E+01 3.42307E-03 3.43101E-03-5.40778E-02 2.84194E-14 5.66212E-13
 -1      1499 1.91670E+01-1.38852E-04-1.37107E-03-9.50150E-02 3.34750E-14 3.58580E-13
 -1      1500 1.92112E+01-9.07869E-04 2.04967E-03-5.47295E-02 1.18496E-14 4.08195E-13
 -1      1501 1.91316E+01 1.09425E-03 2.32977E-03-5.39534E-02 4.30426E-14 4.76712E-13
 -1      1502 1.92582E+01-2.65116E-03-9.94652E-04-1.01113E-01 6.91321E-14 3.29287E-13
 -1      1503 1.93388E+01-1.26027E-03 1.70451E-03-5.01943E-02 6.15523E-14 3.18883E-13
 -1      1504 1.92645E+01-3.03836E-04 1.65298E-03-5.02927E-02 2.90669E-14 3.60911E-13
 -1      1505 1.93595E+01-3.90707E-03-6.52453E-04-9.77926E-02 8.57065E-14 2.19882E-13
 -1      1506 1.94554E+01-1.38158E-03 1.41231E-03-4.42306E-02 1.67993E-14 2.77565E-13
 -1      1507 1.93892E+01-1.09243E-03 1.19524E-03-4.48369E-02 3.03950E-14 3.01228E-13
 -1      1508 1.94598E+01-4.38189E-03-3.90510E-04-8.93593E-02 6.43614E-14 1.39981E-13
 -1      1509 1.95580E+01-1.34914E-03 1.15481E-03-3.78580E-02 5.86398E-14 2.37816E-13
 -1      1510 1.95008E+01-1.47016E-03 8.67174E-04-3.87210E-02 2.65435E-14 2.77467E-13
 -1      1511 1.95530E+01-4.36182E-03-2.06600E-04-7.85738E-02 3.28130E-14 1.78352E-13
 -1      1512 1.96459E+01-1.21388E-03 9.26965E-04-3.17487E-02 6.19177E-14 1.64829E-13
 -1      1513 1.95977E+01-1.56590E-03 6.27475E-04-3.26932E-02 4.57726E-14 2.10976E-13
 -1      1514 1.96361E+01-4.02824E-03-8.68895E-05-6.72471E-02 8.64779E-14 1.22004E-13
 -1      1515 1.97201E+01-1.00812E-03 7.25978E-04-2.63505E-02 1.80775E-14 9.89432E-15
 -1      1516 1.96801E+01-1.46394E-03 4.53252E-04-2.72518E-02 4.61523E-14 7.76419E-14
 -1      1517 1.97084E+01-3.49723E-03-1.87124E-05-5.65825E-02 9.18147E-14 2.58650E-14
 -1      1518 1.97825E+01-7.50358E-04 5.48592E-04-2.19725E-02 6.88093E-15-8.09771E-14
 -1      1519 1.97493E+01-1.21727E-03 3.29657E-04-2.27376E-02 1.97865E-14-2.58894E-14
 -1      1520 1.97707E+01-2.84011E-03 6.78936E-06-4.73962E-02 6.06976E-14-8.67727E-14
 -1      1521 1.98360E+01-4.48367E-04 3.90598E-04-1.88475E-02-3.01226E-14-6.41904E-14
 -1      1522 1.98080E+01-8.55483E-04 2.46199E-04-1.94008E-02 1.64113E-15-4.48753E-14
 -1      1523 1.98246E+01-2.09558E-03-5.37575E-06-4.02702E-02-8.30510E-15-8.40270E-14
 -1      1524 1.98839E+01-1.01577E-04 2.46839E-04-1.71800E-02-2.60847E-14-3.03062E-14
 -1      1525 1.98592E+01-3.89934E-04 1.95179E-04-1.74515E-02-3.70618E-14-9.89215E-14
 -1      1526 1.98728E+01-1.27766E-03-5.37230E-05-3.56657E-02-2.55583E-14-1.87196E-14
 -1      1527 1.99305E+01 2.97109E-04 1.11309E-04-1.71830E-02 4.28357E-14-6.98020E-14
 -1      1528 1.99068E+01 1.82616E-04 1.70829E-04-1.70988E-02 2.39202E-14-2.08802E-14
 -1      1529 1.99183E+01-3.81560E-04-1.40032E-04-3.40095E-02-3.12184E-15-7.01050E-14
 -1      1530 1.99802E+01 7.59634E-04-2.27361E-05-1.91062E-02-7.71945E-15-1.21395E-13
 -1      1531 1.99549E+01 8.77072E-04 1.68703E-04-1.85805E-02 3.42925E-14-6.03696E-14
 -1      1532 1.99650E+01 6.11755E-04-2.69154E-04-3.57588E-02 6.60422E-14-2.67552E-14
 -1      1533 2.00385E+01 1.30092E-03-1.62675E-04-2.32560E-02-5.54047E-14-9.08261E-14
 -1      1534 2.00088E+01 1.71721E-03 1.85143E-04-2.21842E-02-2.73063E-14-1.44609E-13
 -1      1535 2.00173E+01 1.73135E-03-4.48810E-04-4.14495E-02-2.41722E-14-1.63222E-14
 -1      1536 2.01119E+01 1.93641E-03-3.16378E-04-3.00056E-02-4.31933E-14-8.28481E-14
 -1      1537 2.00742E+01 2.73230E-03 2.16698E-04-2.82597E-02-3.93913E-14-1.13826E-13
 -1      1538 2.00804E+01 3.01163E-03-6.89241E-04-5.17264E-02-2.60655E-14-1.29228E-13
 -1      1539 2.02075E+01 2.67822E-03-4.91946E-04-3.97923E-02 6.05999E-14-5.83401E-14
 -1      1540 2.01578E+01 3.95219E-03 2.59376E-04-3.72184E-02 8.78610E-15-5.88607E-14
 -1      1541 2.01603E+01 4.48618E-03-1.00253E-03-6.73512E-02-4.36743E-14-9.86842E-14
 -1      1542 2.03340E+01 3.52902E-03-6.97074E-04-5.30937E-02 1.39840E-14-2.08930E-13
 -1      1543 2.02676E+01 5.39925E-03 3.07646E-04-4.95145E-02 8.77657E-14-8.10022E-14
 -1      1544 2.02639E+01 6.17829E-03-1.40123E-03-8.91777E-02 1.32932E-13-2.93044E-14
 -1      1545 2.05010E+01 4.47158E-03-9.37480E-04-7.03704E-02-9.30657E-15-2.56824E-13
 -1      1546 2.04125E+01 7.07464E-03 3.53147E-04-6.55966E-02-4.68334E-14-3.11293E-13
 -1      1547 2.03990E+01 8.08551E-03-1.89552E-03-1.18077E-01 3.00055E-14-1.30862E-13
 -1      1548 2.07191E+01 5.45139E-03-1.21320E-03-9.19519E-02-2.13821E-14-1.68364E-13
 -1      1549 2.06025E+01 8.93462E-03 3.83307E-04-8.58084E-02-2.83528E-14-2.19277E-13
 -1      1550 2.05740E+01 1.01535E-02-2.48785E-03-1.54779E-01-5.04870E-14-3.25063E-13
 -1      1551 2.09988E+01 6.34849E-03-1.51036E-03-1.17829E-01-6.87237E-14-3.62505E-14
 -1      1552 2.08481E+01 1.08507E-02 3.80544E-04-1.10209E-01-1.33500E-14-8.12163E-14
 -1      1553 2.07980E+01 1.22325E-02-3.16262E-03-1.99580E-01-4.81945E-14-1.69935E-13
 -1      1554 2.13499E+01 6.93405E-03-1.78433E-03-1.47300E-01-1.06282E-14 7.66982E-14
 -1      1555 2.11595E+01 1.25452E-02 3.23960E-04-1.38263E-01-7.66193E-14-5.31433E-15
 -1      1556 2.10790E+01 1.40062E-02-3.86786E-03-2.51829E-01-8.42017E-14-2.02746E-16
 -1      1557 2.17779E+01 6.80980E-03-1.92787E-03-1.78392E-01 6.67036E-14-3.80772E-16
 -1      1558 2.15442E+01 1.34947E-02 1.97495E-04-1.68339E-01 8.39658E-14 1.14179E-13
 -1      1559 2.14233E+01 1.48832E-02-4.48387E-03-3.09090E-01 6.57501E-14 2.10002E-13
 -1      1560 2.22801E+01 5.33821E-03-1.71900E-03-2.07001E-01-5.72864E-14-1.03990E-13
 -1      1561 2.20045E+01 1.28023E-02 1.11585E-05-1.96948E-01-4.33916E-14-1.29895E-13
 -1      1562 2.18317E+01 1.38489E-02-4.77497E-03-3.65855E-01 2.87793E-14 2.30288E-13
 -1      1563 2.28389E+01 1.60094E-03-7.54569E-04-2.25750E-01 3.26871E-14-8.25433E-14
 -1      1564 2.25312E+01 9.07342E-03-1.57021E-04-2.17719E-01-1.53118E-14-1.11376E-13
 -1      1565 2.22962E+01 9.30480E-03-4.32785E-03-4.11746E-01-2.62279E-14-2.31959E-14
 -1      1566 2.34119E+01-5.51218E-03 1.58444E-03-2.22830E-01 1.92526E-14-1.24007E-13
 -1      1567 2.30964E+01 4.11291E-04-1.00688E-04-2.20304E-01 1.86007E-14-1.31072E-13
 -1      1568 2.27933E+01-9.84871E-04-2.50458E-03-4.29451E-01 3.47396E-14-9.17964E-14
 -1      1569 2.39215E+01-1.68707E-02 6.00091E-03-1.81709E-01-9.37870E-14 2.75231E-14
 -1      1570 2.36436E+01-1.51915E-02 5.56957E-04-1.89891E-01-3.11318E-14-5.44374E-14
 -1      1571 2.32771E+01-1.95501E-02 1.49762E-03-3.93346E-01-6.90220E-14-1.09166E-14
 -1      1572 2.42475E+01-3.20338E-02 1.27452E-02-8.36772E-02-7.23206E-14 2.48771E-13
 -1      1573 2.40784E+01-3.86026E-02 2.27160E-03-1.08916E-01-9.26073E-14 6.86048E-14
 -1      1574 2.36726E+01-4.78859E-02 8.31343E-03-2.71244E-01-1.55475E-13 1.72392E-13
 -1      1575 2.42349E+01-4.74447E-02 2.04816E-02 8.37116E-02 7.88033E-14 1.93127E-13
 -1      1576 2.42671E+01-6.70280E-02 5.17712E-03 3.63783E-02 2.03474E-14 1.90042E-13
 -1      1577 2.38746E+01-8.35335E-02 1.75729E-02-3.37004E-02-1.09530E-14 8.34992E-14
 -1      1578 2.37313E+01-5.47851E-02 2.50038E-02 3.10060E-01-1.29098E-14 2.11855E-13
 -1      1579 2.40551E+01-9.08043E-02 8.29173E-03 2.42156E-01 1.30399E-14 2.59869E-13
 -1      1580 2.37618E+01-1.15604E-01 2.67351E-02 3.24235E-01 2.71658E-14 1.31996E-13
 -1      1581 2.26681E+01-4.25194E-02 1.95205E-02 5.42123E-01 3.02128E-14-8.50708E-15
 -1      1582 2.33219E+01-9.27225E-02 8.87168E-03 4.68346E-01 1.94289E-15 9.28702E-14
 -1      1583 2.32378E+01-1.22265E-01 3.04466E-02 7.49650E-01 6.34302E-14 1.31610E-13
 -1      1584 2.11683E+01-4.16479E-03-9.04600E-04 6.79982E-01-1.92697E-14-1.33352E-13
 -1      1585 2.20731E+01-5.57758E-02 3.22833E-03 6.29901E-01 5.78695E-14-2.95805E-14
 -1      1586 2.23014E+01-7.70740E-02 2.29527E-02 1.10703E+00 1.11459E-13 1.16678E-14
 -1      1587 1.96054E+01 4.95197E-02-3.17122E-02 6.17761E-01 5.28926E-14-9.84351E-14
 -1      1588 2.05326E+01 1.94068E-02-9.77161E-03 6.23468E-01-1.07165E-13-1.23276E-13
 -1      1589 2.11213E+01 2.75905E-02 3.05935E-03 1.20525E+00-2.82899E-14 9.48686E-14
 -1      1590 1.85070E+01 8.87966E-02-5.55654E-02 3.27263E-01 1.12460E-13-3.38556E-13
 -1      1591 1.91418E+01 1.01271E-01-2.45296E-02 3.98340E-01 1.43992E-13-8.06993E-14
 -1      1592 2.00410E+01 1.55939E-01-2.03804E-02 9.08848E-01 1.05796E-13-1.64353E-13
 -1      1593 1.82810E+01 8.63781E-02-5.37092E-02-8.21348E-02-2.45047E-14-3.05343E-13
 -1      1594 1.83879E+01 1.41332E-01-3.02867E-02 2.49768E-02 1.60809E-15-3.78579E-13
 -1      1595 1.94454E+01 2.32556E-01-3.33510E-02 2.77221E-01 5.10390E-14-9.29035E-14
 -1      1596 1.89431E+01 4.38532E-02-2.59047E-02-4.15896E-01-2.40884E-13 7.79377E-14
 -1      1597 1.85219E+01 1.14648E-01-2.09245E-02-3.24965E-01-1.08387E-13-2.32276E-13
 -1      1598 1.95309E+01 2.00601E-01-2.93357E-02-4.14368E-01-1.89180E-13-6.53262E-14
 -1      1599 2.01018E+01-9.59895E-03 9.86623E-03-5.32337E-01-1.81304E-14 5.01113E-13
 -1      1600 1.93893E+01 4.26000E-02-2.20056E-03-4.94747E-01-1.90489E-13 1.93040E-13
 -1      1601 2.01694E+01 7.90578E-02-1.43613E-02-8.48312E-01-3.13058E-13 4.37983E-14
 -1      1602 2.12187E+01-4.53097E-02 3.34551E-02-4.27715E-01-1.19743E-13 5.64757E-13
 -1      1603 2.05344E+01-2.94881E-02 1.43894E-02-4.45212E-01-7.54778E-15 5.47701E-13
 -1      1604 2.10003E+01-5.41904E-02 1.03100E-03-8.79049E-01-7.18089E-14 1.82514E-13
 -1      1605 2.19009E+01-5.40056E-02 3.78255E-02-2.01280E-01 2.62079E-13 5.24761E-13
 -1      1606 2.14766E+01-6.98954E-02 2.10969E-02-2.50398E-01 1.33933E-13 7.11230E-13
 -1      1607 2.16557E+01-1.32805E-01 1.01196E-02-5.86638E-01 1.39333E-14 2.41336E-13
 -1      1608 2.20223E+01-4.24994E-02 2.85123E-02 3.20503E-02 1.85858E-13-7.98185E-14
 -1      1609 2.19314E+01-7.39886E-02 1.83158E-02-2.14625E-02 2.27691E-13 3.35652E-13
 -1      1610 2.19277E+01-1.41761E-01 1.23036E-02-1.65729E-01 3.42410E-13 3.52120E-13
 -1      1611 2.16777E+01-2.14280E-02 1.35773E-02 1.96737E-01 1.19695E-13-3.81953E-13
 -1      1612 2.18626E+01-5.31443E-02 1.08179E-02 1.57160E-01 1.49647E-13-1.90427E-13
 -1      1613 2.17981E+01-1.03272E-01 9.49439E-03 2.06673E-01 3.38089E-13 2.28064E-14
 -1      1614 2.10800E+01 2.33059E-03-1.62617E-03 2.60546E-01-4.13255E-14-5.68150E-13
 -1      1615 2.14122E+01-1.97801E-02 2.44583E-03 2.44101E-01 1.10047E-15-5.54824E-13
 -1      1616 2.13798E+01-4.45836E-02 3.33824E-03 4.28092E-01 1.33393E-13-1.87801E-13
 -1      1617 2.04794E+01 2.44846E-02-1.24265E-02 2.17212E-01-5.71680E-14-3.62262E-13
 -1      1618 2.08057E+01 1.80835E-02-4.69748E-03 2.28239E-01-8.13182E-14-4.99038E-13
 -1      1619 2.08444E+01 1.93533E-02-4.07108E-03 4.60343E-01-1.36822E-13-3.57843E-13
 -1      1620 2.01035E+01 4.26527E-02-2.13256E-03 8.85951E-02 8.40019E-14-3.22779E-13
 -1      1621 2.02775E+01 5.02416E-02-6.26571E-03 1.22284E-01 4.53335E-14-3.36536E-13
 -1      1622 2.03637E+01 7.83638E-02-7.87338E-03 3.10736E-01 6.97478E-14-2.84786E-13
 -1      1623 2.00129E+01 2.99967E-02 1.14757E-03 6.62839E-03-1.30524E-13-9.61436E-14
 -1      1624 2.00609E+01 4.10756E-01-7.61060E-03 2.00853E-01-1.75335E-13 1.17584E-13
 -1      1625 2.00655E+01 2.04341E-01 5.08895E-04 1.60451E-01-3.39100E-13 8.92350E-14
 -1      1626 2.00530E+01 1.09271E+00-4.74146E-03 3.64311E-01 2.02154E-13 2.92886E-13
 -1      1627 2.00611E+01 6.74486E-01-6.57373E-03 3.33126E-01-5.00103E-14 1.07086E-13
 -1      1628 2.01178E+01 5.77723E-01-1.44760E-02 5.17519E-01-2.69707E-14 2.62246E-13
 -1      1629 2.00377E+01 2.05745E+00-3.34960E-03 5.01437E-01 2.77403E-13-7.35436E-15
 -1      1630 2.00509E+01 1.46875E+00-6.39907E-03 4.76399E-01 3.20844E-13 1.17396E-13
 -1      1631 2.00912E+01 1.20026E+00-1.46258E-02 8.11562E-01 1.74879E-13 3.22483E-13
 -1      1632 2.00114E+01 3.22513E+00-2.14004E-03 5.88203E-01 5.66061E-13 9.92813E-14
 -1      1633 2.00310E+01 2.52851E+00-5.43349E-03 5.74943E-01 3.79318E-13 2.77659E-13
 -1      1634 2.00576E+01 2.03026E+00-1.10799E-02 1.03701E+00 3.20901E-13 1.99544E-13
 -1      1635 1.99733E+01 4.42654E+00-1.26244E-04 5.91098E-01 3.49470E-13 2.94469E-16
 -1      1636 1.99980E+01 3.73107E+00-3.29144E-03 5.97109E-01 4.22898E-13-1.78020E-13
 -1      1637 2.00064E+01 2.99574E+00-2.59014E-03 1.13940E+00 2.36087E-13-8.05804E-14
 -1      1638 1.99302E+01 5.49504E+00 3.14670E-03 4.82382E-01-2.39218E-14-2.78975E-13
 -1      1639 1.99554E+01 4.90618E+00 4.97708E-04 5.13046E-01 2.74007E-13-6.25645E-14
 -1      1640 1.99393E+01 3.97416E+00 9.61263E-03 1.06020E+00-4.79668E-14-2.14410E-13
 -1      1641 1.98983E+01 6.18172E+00 6.08090E-03 2.63268E-01-3.68965E-13-1.24626E-13
 -1      1642 1.99144E+01 5.84085E+00 4.49028E-03 3.15322E-01-8.20594E-14-1.79631E-13
 -1      1643 1.98709E+01 4.79752E+00 2.28368E-02 7.65234E-01-2.04757E-13-4.95885E-13
 -1      1644 1.98912E+01 6.32188E+00 6.83680E-03-2.24659E-02-6.10976E-13-2.92613E-14
 -1      1645 1.98917E+01 6.31255E+00 6.79463E-03 3.84672E-02-4.47344E-13-1.34727E-13
 -1      1646 1.98268E+01 5.27498E+00 3.16748E-02 2.89318E-01-1.56351E-13-2.03828E-13
 -1      1647 1.99123E+01 5.87908E+00 4.66178E-03-3.02226E-01-6.02664E-13 1.42941E-13
 -1      1648 1.98970E+01 6.20413E+00 6.22316E-03-2.49187E-01-6.68772E-13 1.00088E-13
 -1      1649 1.98254E+01 5.28816E+00 3.19708E-02-2.60510E-01-5.64813E-14-1.49620E-13
 -1      1650 1.99522E+01 4.96254E+00 6.34555E-04-5.06340E-01-8.40487E-13-2.95439E-13
 -1      1651 1.99280E+01 5.54263E+00 3.49500E-03-4.74277E-01-6.09245E-13-3.68889E-15
 -1      1652 1.98669E+01 4.83324E+00 2.34799E-02-7.44889E-01-2.21631E-13 6.05731E-14
 -1      1653 1.99951E+01 3.80095E+00-2.90294E-03-5.97305E-01-1.04087E-12 4.29984E-14
 -1      1654 1.99701E+01 4.49605E+00 2.54561E-04-5.89845E-01-8.10314E-13-3.47730E-13
 -1      1655 1.99349E+01 4.03061E+00 1.06655E-02-1.05191E+00-4.47571E-13-4.13098E-13
 -1      1656 2.00297E+01 2.57894E+00-5.18086E-03-5.81546E-01-7.33493E-13 1.51217E-13
 -1      1657 2.00092E+01 3.28293E+00-1.99387E-03-5.93897E-01-9.50073E-13 2.54226E-13
 -1      1658 2.00022E+01 3.05342E+00-1.89502E-03-1.14529E+00-4.31261E-13 2.45185E-13
 -1      1659 2.00510E+01 1.50291E+00-5.96902E-03-4.87060E-01-5.38927E-13-1.78872E-14
 -1      1660 2.00367E+01 2.10183E+00-3.14866E-03-5.10699E-01-7.54823E-13 2.52699E-13
 -1      1661 2.00552E+01 2.07097E+00-1.06390E-02-1.05189E+00-4.16851E-13 2.32223E-13
 -1      1662 2.00674E+01 7.07738E-01-1.95879E-04-3.45958E-01-3.27840E-13 3.10233E-13
 -1      1663 2.00489E+01 1.12274E+00-5.02098E-03-3.72672E-01-5.32135E-13 1.03421E-13
 -1      1664 2.00927E+01 1.22651E+00-1.41004E-02-8.28399E-01-2.40527E-13 5.03330E-14
 -1      1665 2.01094E+01 2.74330E-01 6.79531E-03-2.44967E-01-3.50991E-13-4.88724E-14
 -1      1666 2.01030E+01 4.85511E-01-2.80371E-03-3.06312E-01-3.20233E-13 3.22225E-14
 -1      1667 2.01643E+01 6.43351E-01-1.31049E-02-6.21975E-01-5.67854E-13 2.78553E-13
 -1      1668 2.02861E+01 2.74981E-01-7.90934E-03-4.64373E-01-2.86983E-13 1.34407E-13
 -1      1669-5.79588E-01-1.58609E+01-1.72491E+00-9.28083E-01 1.10656E-12 3.64514E-13
 -1      1670-6.11561E-01-1.79290E+01-1.91008E+00 3.70924E-01 8.61505E-13 2.98483E-13
 -1      1671 9.39984E-01-1.00502E+01-1.37686E+00-6.87915E-02 1.07780E-12 2.34368E-13
 -1      1672 4.18604E-01-1.50055E+01-1.85827E+00-3.55264E-01 1.26754E-12 2.24900E-13
 -1      1673 5.65856E+00-2.28349E+00-7.17173E-01 3.60041E+00 7.24310E-13 3.03979E-13
 -1      1674 3.18315E+00-7.95831E+00-1.45365E+00 1.08895E+00 9.30589E-13 3.47500E-13
 -1      1675 1.49644E+01 4.07190E+00 9.46584E-02 8.82119E+00 3.63931E-13 1.92402E-13
 -1      1676 9.27196E+00-1.28634E-01-8.03030E-01 5.02833E+00 5.62883E-13 2.28151E-13
 -1      1677 2.79233E+01 6.64667E+00 8.55327E-01 1.25626E+01 1.37113E-13 6.90559E-14
 -1      1678 1.97482E+01 5.39551E+00-1.42938E-02 9.85079E+00 2.89768E-13 1.01030E-13
 -1      1679 4.16543E+01 6.10884E+00 1.46740E+00 1.25935E+01-6.27276E-15 2.04281E-13
 -1      1680 3.28890E+01 7.15125E+00 7.73419E-01 1.26578E+01 2.34257E-14 2.13163E-13
 -1      1681 5.21472E+01 4.37137E+00 1.81003E+00 7.78751E+00 2.75058E-14 8.07132E-14
 -1      1682 4.55948E+01 5.98141E+00 1.36956E+00 1.10641E+01 8.43631E-14 1.38556E-13
 -1      1683 5.61833E+01 3.63019E+00 1.90874E+00 6.00497E-02 2.43250E-13-2.23072E-13
 -1      1684 5.43491E+01 4.22570E+00 1.78824E+00 5.56443E+00 1.73833E-13 7.78266E-14
 -1      1685 5.21317E+01 4.47505E+00 1.68007E+00-7.46334E+00 2.03268E-13-6.67910E-13
 -1      1686 5.60312E+01 3.48521E+00 1.95158E+00-2.59405E+00 2.15217E-13-4.42923E-13
 -1      1687 4.10150E+01 6.23829E+00 1.10150E+00-1.16438E+01 6.75182E-13-9.69669E-13
 -1      1688 4.90382E+01 4.73247E+00 1.74584E+00-9.46622E+00 3.82167E-13-8.24230E-13
 -1      1689 2.73997E+01 5.41968E+00 2.84324E-01-1.02161E+01 6.47260E-13-9.10605E-13
 -1      1690 3.62578E+01 5.31810E+00 1.04984E+00-1.12674E+01 5.99021E-13-8.34888E-13
 -1      1691 1.42361E+01 2.77923E+00-4.67381E-01-7.20867E+00 5.62217E-13-6.81899E-13
 -1      1692 2.17167E+01 5.15895E+00 3.68833E-01-1.05969E+01 5.74318E-13-9.65672E-13
 -1      1693 5.78929E+00-3.38219E+00-1.09863E+00-2.81983E+00 8.32001E-13-5.70766E-13
 -1      1694 9.69347E+00 1.36304E+00-3.46419E-01-5.99250E+00 7.72271E-13-5.96856E-13
 -1      1695 1.78563E+00-1.09308E+01-1.53526E+00-3.15232E-01 9.01057E-13-2.95264E-13
 -1      1696 3.29240E+00-5.57031E+00-9.54069E-01-1.84451E+00 8.15015E-13-4.52360E-13
 -1      1697-3.24385E-01-1.66080E+01-1.90121E+00 3.82581E-01 7.65332E-13-2.40946E-13
 -1      1698-2.08806E-01-1.28674E+01-1.54078E+00 9.82621E-01 8.61089E-13-3.23255E-13
 -1      1699-8.31811E-01-1.75839E+01-1.88255E+00-8.21852E-01 2.39087E-13-2.11442E-13
 -1      1700-8.17325E-01-1.73968E+01-1.86512E+00 8.65656E-01 6.36935E-13-1.72529E-13
 -1      1701-1.97397E-01-1.26849E+01-1.49479E+00-8.55196E-01-2.39808E-13-2.72331E-13
 -1      1702-3.18354E-01-1.65944E+01-1.85608E+00-1.81940E-01 8.74856E-14-2.14273E-13
 -1      1703 3.57986E+00-4.99675E+00-8.89959E-01 2.08295E+00-3.06644E-13-1.77136E-13
 -1      1704 1.86618E+00-1.07839E+01-1.53374E+00 3.27299E-01-3.18856E-13-1.03778E-13
 -1      1705 1.16633E+01 2.21362E+00-1.68063E-01 6.97254E+00-3.68372E-13-2.78555E-13
 -1      1706 6.79274E+00-2.77682E+00-1.02352E+00 3.30380E+00-3.96794E-13-2.19380E-13
 -1      1707 2.42681E+01 6.02141E+00 6.15470E-01 1.14751E+01-4.02345E-13-9.70335E-13
 -1      1708 1.61875E+01 4.01469E+00-3.01745E-01 8.21286E+00-2.73337E-13-5.63327E-13
 -1      1709 3.96471E+01 5.91065E+00 1.36408E+00 1.23368E+01-5.85421E-13-1.52900E-12
 -1      1710 2.98448E+01 6.66363E+00 5.40895E-01 1.18307E+01-5.43232E-13-1.19860E-12
 -1      1711 5.20314E+01 4.11919E+00 1.83459E+00 7.69832E+00-3.26267E-13-1.77458E-12
 -1      1712 4.45403E+01 5.80275E+00 1.30253E+00 1.10395E+01-4.85306E-13-1.62470E-12
 -1      1713 5.63735E+01 3.59177E+00 1.94369E+00-9.01712E-01-1.16462E-13-1.42911E-12
 -1      1714 5.42686E+01 4.05843E+00 1.77929E+00 4.91755E+00-3.91881E-13-1.62192E-12
 -1      1715 5.17638E+01 4.93242E+00 1.73112E+00-8.81839E+00-1.47771E-13-7.67053E-13
 -1      1716 5.60949E+01 3.60945E+00 1.98731E+00-3.78091E+00-1.05693E-13-1.28358E-12
 -1      1717 3.92612E+01 6.94287E+00 1.10755E+00-1.26918E+01-4.50029E-13 1.15463E-13
 -1      1718 4.82128E+01 5.22031E+00 1.77838E+00-1.08782E+01-2.19880E-13-4.71068E-13
 -1      1719 2.37271E+01 6.15841E+00 2.13395E-01-1.08320E+01-4.52083E-13 3.05755E-13
 -1      1720 3.37697E+01 6.56445E+00 1.15228E+00-1.30270E+01-3.00648E-13 3.35287E-13
 -1      1721 1.10352E+01 1.32859E+00-6.92371E-01-6.00258E+00-8.90843E-13 5.71210E-13
 -1      1722 1.79350E+01 5.10493E+00 2.92569E-01-1.00463E+01-7.48734E-13 5.23803E-13
 -1      1723 3.58220E+00-7.14725E+00-1.44919E+00-1.31556E+00-3.54383E-13 5.91971E-13
 -1      1724 6.83697E+00-8.76533E-01-5.77418E-01-4.46993E+00-8.39329E-13 7.90257E-13
 -1      1725 4.61191E-01-1.48983E+01-1.89113E+00 4.12517E-01 1.30784E-13 1.58894E-13
 -1      1726 1.11549E+00-9.49890E+00-1.34143E+00-8.40604E-02-1.31561E-13 3.68539E-13
 -1      1727-6.38286E-01-1.82777E+01-1.96556E+00-3.41702E-01 8.91426E-13 2.62040E-13
 -1      1728-6.55800E-01-1.61301E+01-1.79589E+00 1.07119E+00 3.06144E-13 3.84082E-13
 -1      1729 2.23521E+01-3.98812E-02 1.56154E-01 7.61746E+00 3.36509E-13-6.96110E-14
 -1      1730 1.26816E+01-4.39452E+00-4.72524E-01 6.25566E+00 5.08260E-13 1.19349E-14
 -1      1731 2.00680E+01 8.02402E-02-6.88746E-03 8.46740E-02-2.92490E-13-1.40056E-13
 -1      1732 2.01547E+01 2.19611E-01-7.44242E-03 2.71540E-01-7.08040E-14 3.15407E-14
 -1      1733 3.26727E-01-1.14227E+01-1.27856E+00 2.26585E+00 6.31828E-13 1.14408E-13
 -1      1734 5.07680E+00-8.66813E+00-9.98733E-01 4.27356E+00 7.63278E-13 9.53508E-14
 -1      1735-1.41478E+00-1.22507E+01-1.35202E+00 7.46614E-02 5.55500E-13 4.34541E-13
 -1      1736 3.24725E+01 3.49613E+00 7.66019E-01 7.82451E+00-4.59632E-14-7.88258E-14
 -1      1737 4.10581E+01 5.93094E+00 1.24922E+00 6.15620E+00-7.32123E-14-7.61613E-14
 -1      1738 4.64847E+01 7.26172E+00 1.49671E+00 3.18125E+00 7.27196E-14-3.22742E-13
 -1      1739 4.83127E+01 7.42832E+00 1.61022E+00-3.90696E-01 4.03733E-13-2.32980E-13
 -1      1740 4.52859E+01 6.56848E+00 1.44547E+00-3.92221E+00 3.80918E-13-4.52305E-13
 -1      1741 3.74109E+01 4.17712E+00 8.43239E-01-5.33699E+00 4.89178E-13-5.20695E-13
 -1      1742 2.83075E+01 1.14400E+00 4.52118E-01-6.54162E+00 3.16469E-13-5.10592E-13
 -1      1743 1.75244E+01-2.04651E+00-1.40939E-01-6.70529E+00 5.20584E-13-5.68545E-13
 -1      1744 8.75053E+00-6.19262E+00-7.03173E-01-5.16746E+00 6.30052E-13-5.43399E-13
 -1      1745 2.54146E+00-9.61098E+00-1.03887E+00-3.36284E+00 7.39853E-13-2.53852E-13
 -1      1746-1.08419E+00-1.21849E+01-1.36493E+00-9.94732E-01 3.98542E-13-3.72757E-13
 -1      1747-1.06905E+00-1.20626E+01-1.32200E+00 9.80078E-01 1.16379E-13-3.37397E-13
 -1      1748 2.67104E+00-9.48375E+00-1.00916E+00 3.42519E+00-1.16684E-13-2.35922E-13
 -1      1749 9.75900E+00-5.94214E+00-6.37626E-01 5.42306E+00-2.57683E-13-1.19182E-13
 -1      1750 1.91052E+01-1.47182E+00-1.00340E-01 6.84007E+00-2.20157E-13-5.24691E-13
 -1      1751 2.99236E+01 2.55139E+00 5.56054E-01 7.40199E+00-1.74472E-13-1.03495E-12
 -1      1752 4.01788E+01 5.34352E+00 1.19033E+00 5.98398E+00-2.79578E-13-1.17706E-12
 -1      1753 4.66439E+01 7.06753E+00 1.54356E+00 2.71588E+00-3.33511E-13-1.18633E-12
 -1      1754 4.84263E+01 7.43809E+00 1.63238E+00-1.30304E+00-3.37119E-13-1.01111E-12
 -1      1755 4.50076E+01 6.67636E+00 1.47263E+00-5.08023E+00-3.78975E-13-7.93254E-13
 -1      1756 3.64594E+01 4.51693E+00 9.67459E-01-7.17740E+00-2.59792E-13-4.11227E-13
 -1      1757 2.54655E+01 9.60036E-01 3.31788E-01-7.75175E+00-3.66596E-13-1.38889E-13
 -1      1758 1.43725E+01-3.56475E+00-3.68115E-01-6.57711E+00-2.25042E-13 4.12337E-13
 -1      1759 5.68759E+00-8.34551E+00-9.85075E-01-4.47235E+00 2.43139E-13 5.40311E-13
 -1      1760 3.47414E-01-1.16683E+01-1.34195E+00-2.28687E+00 5.06317E-13 3.31180E-13
 -1      1761 2.28598E+01 1.98501E+00-2.35743E-02-2.72264E+00-2.53440E-13 7.38631E-13
 -1      1762 1.98233E+01 3.71435E+00-3.55593E-02-2.15244E+00-2.74152E-13-4.48686E-13
 -1      1763 2.00584E+01 3.56213E+00-4.02624E-02-2.44543E+00-3.27301E-13-3.56364E-13
 -1      1764 2.03638E+01 3.18181E+00-4.57171E-02-2.58533E+00-3.40161E-13-2.42563E-13
 -1      1765 2.05838E+01 2.81006E+00-1.42533E-01-2.85372E+00-3.74503E-13-8.22120E-14
 -1      1766 2.04237E+01 2.69340E+00-4.44328E-03-2.22639E+00-3.54520E-13-2.76959E-13
 -1      1767 1.93544E+01 4.18940E+00-2.02068E-02-1.27107E+00-1.16694E-13-5.79137E-13
 -1      1768 1.94276E+01 4.14908E+00-1.75101E-02-1.49535E+00-1.58799E-13-5.71231E-13
 -1      1769 1.92583E+01 4.29451E+00-1.67991E-02-8.59987E-01-5.25595E-14-5.90649E-13
 -1      1770 1.93009E+01 4.27078E+00-1.43413E-02-1.07076E+00-8.44216E-14-5.89185E-13
 -1      1771 1.95267E+01 3.78268E+00-9.21378E-03-1.12054E+00-1.13913E-13-5.70027E-13
 -1      1772 1.92069E+01 4.35490E+00-1.48085E-02-4.66918E-01 1.79255E-14-5.69511E-13
 -1      1773 1.92288E+01 4.34210E+00-1.33175E-02-6.67266E-01-1.52029E-14-5.77248E-13
 -1      1774 1.94298E+01 3.90294E+00-9.20258E-03-7.33479E-01-3.57800E-14-5.68231E-13
 -1      1775 1.91875E+01 4.38052E+00-1.36723E-02-8.36492E-02 9.14982E-14-5.50981E-13
 -1      1776 1.91939E+01 4.37660E+00-1.32206E-02-2.79142E-01 5.77379E-14-5.63520E-13
 -1      1777 1.93795E+01 3.96748E+00-9.16056E-03-3.58390E-01 4.05549E-14-5.46636E-13
 -1      1778 1.91956E+01 4.37524E+00-1.31736E-02 2.98194E-01 1.51377E-13-5.34869E-13
 -1      1779 1.91880E+01 4.37970E+00-1.37547E-02 1.02546E-01 1.20363E-13-5.44488E-13
 -1      1780 1.93648E+01 3.98691E+00-9.14809E-03 1.05690E-02 1.13666E-13-5.28909E-13
 -1      1781 1.92328E+01 4.33807E+00-1.33329E-02 6.87007E-01 2.10378E-13-5.11608E-13
 -1      1782 1.92096E+01 4.35176E+00-1.49183E-02 4.86168E-01 1.86474E-13-5.31634E-13
 -1      1783 1.93822E+01 3.96422E+00-9.18972E-03 3.79702E-01 1.81943E-13-5.18094E-13
 -1      1784 1.93063E+01 4.26470E+00-1.44136E-02 1.08472E+00 2.63049E-13-4.60458E-13
 -1      1785 1.92630E+01 4.28916E+00-1.69746E-02 8.76725E-01 2.34280E-13-4.90122E-13
 -1      1786 1.94350E+01 3.89675E+00-9.19793E-03 7.51936E-01 2.37426E-13-4.81424E-13
 -1      1787 1.94380E+01 4.13752E+00-1.74076E-02 1.51477E+00 3.38095E-13-3.77726E-13
 -1      1788 1.93615E+01 4.18009E+00-2.05040E-02 1.28521E+00 3.00093E-13-4.26194E-13
 -1      1789 1.95346E+01 3.77289E+00-9.24240E-03 1.13574E+00 3.04204E-13-4.20110E-13
 -1      1790 1.96672E+01 3.92103E+00-2.51992E-02 1.97987E+00 3.97325E-13-2.44978E-13
 -1      1791 1.95344E+01 3.99778E+00-2.69021E-02 1.72253E+00 3.61751E-13-3.24768E-13
 -1      1792 1.97080E+01 3.56585E+00-8.70608E-03 1.53551E+00 3.71317E-13-3.21973E-13
 -1      1793 2.00759E+01 3.52277E+00-4.51874E-02 2.47228E+00 4.32560E-13-2.19234E-14
 -1      1794 1.98358E+01 3.68321E+00-3.97213E-02 2.18320E+00 4.08894E-13-1.57194E-13
 -1      1795 2.00045E+01 3.22281E+00-5.26736E-03 1.93485E+00 4.20986E-13-1.71238E-13
 -1      1796 2.09214E+01 2.68183E+00-5.76503E-02 2.85794E+00 3.98615E-13 3.97619E-13
 -1      1797 2.04139E+01 3.09694E+00-5.04291E-02 2.61617E+00 4.03646E-13 1.45210E-13
 -1      1798 2.05177E+01 2.60992E+00 3.18805E-03 2.24478E+00 4.31587E-13 6.75363E-14
 -1      1799 2.17318E+01 1.21299E+00-1.22095E-01 2.32997E+00 3.27793E-13 8.89622E-13
 -1      1800 2.12752E+01 2.26307E+00 1.18293E-04 2.74059E+00 3.66472E-13 5.67338E-13
 -1      1801 2.09379E+01 1.68503E+00-2.29607E-02 2.14036E+00 3.98204E-13 3.90341E-13
 -1      1802 2.09531E+01 7.78685E-01-6.24517E-02 1.52428E+00 3.32144E-13 7.87198E-13
 -1      1803 2.17976E+01 2.45831E+00 9.08569E-02-3.04835E+00-3.32616E-13 2.28068E-13
 -1      1804 2.01022E+01 2.97928E-01-8.91813E-03 6.57136E-01 2.64153E-13 6.22450E-13
 -1      1805 2.06543E+01 4.40406E-01-1.24671E-02 1.03417E+00 2.80671E-13 7.16554E-13
 -1      1806 2.07454E+01 8.45125E-01 2.25074E-03 1.41527E+00 3.37570E-13 4.91347E-13
 -1      1807 2.15078E+01 1.74278E+00 7.94495E-02-2.33729E+00-3.49859E-13 1.07719E-13
 -1      1808 2.05219E+01 5.00438E-01 3.25307E-02-9.21790E-01-2.83502E-13 5.97768E-14
 -1      1809 2.00898E+01 3.51819E-01 7.57652E-03-6.30024E-01-2.43158E-13 3.40873E-16
 -1      1810 1.98951E+01 2.57332E-01 2.74151E-02-3.91674E-01-2.38953E-13 9.13332E-15
 -1      1811 1.97040E+01 1.78071E-01 1.04000E-02-2.53834E-01-1.97621E-13-5.75252E-14
 -1      1812 2.01997E+01 4.83762E-01-5.72497E-03-7.23329E-01-2.77326E-13-1.12697E-13
 -1      1813 1.95820E+01 1.32669E-01 1.66782E-02-1.20303E-01-1.57671E-13-6.87696E-14
 -1      1814 1.95037E+01 9.29416E-02 6.97075E-03-4.95893E-02-1.29052E-13-1.16713E-13
 -1      1815 1.98733E+01 2.44016E-01-5.70551E-03-2.96130E-01-2.28904E-13-1.06374E-13
 -1      1816 1.94387E+01 6.82357E-02 8.68968E-03 2.38004E-02-1.23295E-13-1.28363E-13
 -1      1817 1.94239E+01 4.65192E-02 4.10378E-03 5.98658E-02-1.03450E-13-1.62687E-13
 -1      1818 1.96904E+01 1.25003E-01-4.61247E-03-5.95285E-02-1.51769E-13-1.40297E-13
 -1      1819 1.93976E+01 3.21674E-02 4.23378E-03 9.84222E-02-1.01138E-13-1.53107E-13
 -1      1820 1.94170E+01 1.97124E-02 2.42183E-03 1.15062E-01-8.53494E-14-1.95182E-13
 -1      1821 1.96035E+01 6.06240E-02-3.44949E-03 6.97371E-02-1.14075E-13-1.59415E-13
 -1      1822 1.94151E+01 1.10688E-02 1.85133E-03 1.32813E-01-8.07561E-14-2.18217E-13
 -1      1823 1.94516E+01 3.88484E-03 1.43804E-03 1.38095E-01-7.82580E-14-2.40860E-13
 -1      1824 1.95788E+01 2.37014E-02-2.33216E-03 1.35786E-01-1.21861E-13-1.66983E-13
 -1      1825 1.94639E+01-1.30021E-03 5.52191E-04 1.43316E-01-9.16043E-14-2.70853E-13
 -1      1826 1.95075E+01-5.26783E-03 8.28642E-04 1.41966E-01-7.78108E-14-2.52419E-13
 -1      1827 1.95918E+01 2.16832E-03-1.43661E-03 1.63734E-01-9.64477E-14-2.22495E-13
 -1      1828 1.95272E+01-8.22938E-03-1.65010E-04 1.39812E-01-7.09575E-14-2.61937E-13
 -1      1829 1.95720E+01-1.01506E-02 4.40634E-04 1.34792E-01-2.74380E-14-2.60590E-13
 -1      1830 1.96258E+01-1.00400E-02-7.95765E-04 1.68793E-01-8.07506E-14-2.94943E-13
 -1      1831 1.95948E+01-1.16347E-02-5.44971E-04 1.28604E-01-2.35135E-14-2.81174E-13
 -1      1832 1.96373E+01-1.22254E-02 2.00976E-04 1.21841E-01-4.61490E-14-3.15983E-13
 -1      1833 1.96700E+01-1.63102E-02-3.70360E-04 1.60624E-01-7.18898E-14-2.81268E-13
 -1      1834 1.96607E+01-1.27115E-02-7.16584E-04 1.13836E-01-7.60349E-14-3.18248E-13
 -1      1835 1.96992E+01-1.24280E-02 6.88998E-05 1.06610E-01-6.00342E-14-3.12821E-13
 -1      1836 1.97174E+01-1.86925E-02-1.07517E-04 1.45571E-01-6.24730E-14-2.72897E-13
 -1      1837 1.97216E+01-1.22321E-02-7.55554E-04 9.82804E-02-5.97817E-14-3.59905E-13
 -1      1838 1.97557E+01-1.13665E-02 1.87247E-05 9.14519E-02-3.88398E-14-3.56115E-13
 -1      1839 1.97640E+01-1.84904E-02 3.71988E-05 1.27883E-01-8.23892E-14-3.16175E-13
 -1      1840 1.97764E+01-1.06950E-02-7.09713E-04 8.38202E-02-2.76943E-15-3.61666E-13
 -1      1841 1.98062E+01-9.42703E-03 3.41394E-05 7.79810E-02 1.44913E-14-3.49153E-13
 -1      1842 1.98078E+01-1.65423E-02 9.65092E-05 1.10447E-01-2.61384E-14-2.66931E-13
 -1      1843 1.98253E+01-8.40747E-03-6.10085E-04 7.17691E-02 5.24673E-16-3.47956E-13
 -1      1844 1.98516E+01-6.83532E-03 1.05734E-04 6.73487E-02-1.41831E-14-3.10341E-13
 -1      1845 1.98483E+01-1.33712E-02 9.32869E-05 9.52686E-02 1.84205E-14-2.48526E-13
 -1      1846 1.98695E+01-5.53611E-03-4.76624E-04 6.31029E-02-5.95962E-14-3.49573E-13
 -1      1847 1.98934E+01-3.69646E-03 2.29501E-04 6.04467E-02-8.63864E-14-3.07627E-13
 -1      1848 1.98858E+01-9.27240E-03 4.29115E-05 8.38078E-02-6.06384E-14-2.68917E-13
 -1      1849 1.99109E+01-2.14103E-03-3.21704E-04 5.86299E-02-8.30308E-14-3.22791E-13
 -1      1850 1.99340E+01-2.33959E-05 4.05674E-04 5.80587E-02-5.07652E-14-3.39471E-13
 -1      1851 1.99215E+01-4.36991E-03-4.47809E-05 7.72242E-02-9.04833E-14-3.16394E-13
 -1      1852 1.99521E+01 1.79890E-03-1.52532E-04 5.91198E-02-7.82730E-14-3.72977E-13
 -1      1853 1.99762E+01 4.24058E-03 6.37652E-04 6.09747E-02-5.21483E-14-4.29811E-13
 -1      1854 1.99573E+01 1.34219E-03-1.63975E-04 7.65596E-02-1.25190E-13-3.02820E-13
 -1      1855 1.99962E+01 6.36472E-03 2.70171E-05 6.53995E-02-2.46039E-14-4.45140E-13
 -1      1856 2.00235E+01 9.20123E-03 9.30797E-04 7.00741E-02-1.05578E-13-4.04750E-13
 -1      1857 1.99956E+01 7.96677E-03-3.11600E-04 8.28737E-02-7.36411E-14-3.38906E-13
 -1      1858 2.00469E+01 1.16763E-02 2.14838E-04 7.84181E-02-1.11829E-13-3.76915E-13
 -1      1859 2.00799E+01 1.49908E-02 1.29085E-03 8.63776E-02-3.51303E-15-3.79557E-13
 -1      1860 2.00393E+01 1.56720E-02-4.86137E-04 9.73385E-02-1.06371E-13-3.01514E-13
 -1      1861 2.01086E+01 1.78674E-02 4.09123E-04 9.92800E-02 4.57090E-14-4.42061E-13
 -1      1862 2.01502E+01 2.17387E-02 1.72158E-03 1.11063E-01 4.00830E-14-4.63857E-13
 -1      1863 2.00917E+01 2.46551E-02-6.86478E-04 1.21290E-01-2.51651E-14-3.30697E-13
 -1      1864 2.01862E+01 2.50509E-02 6.06849E-04 1.29234E-01 9.85025E-15-4.11363E-13
 -1      1865 2.02399E+01 2.95279E-02 2.22106E-03 1.45433E-01-8.25262E-15-3.87817E-13
 -1      1866 2.01567E+01 3.50934E-02-9.10741E-04 1.56231E-01 4.45643E-14-3.90096E-13
 -1      1867 2.02855E+01 3.32653E-02 8.02118E-04 1.69605E-01-9.29747E-15-2.93010E-13
 -1      1868 2.03549E+01 3.83255E-02 2.77573E-03 1.90805E-01 3.74151E-14-2.05441E-13
 -1      1869 2.02388E+01 4.70695E-02-1.15506E-03 2.03757E-01 5.66549E-14-2.05331E-13
 -1      1870 2.04125E+01 4.23884E-02 9.84353E-04 2.21625E-01 5.04136E-14-2.29300E-13
 -1      1871 2.05017E+01 4.78696E-02 3.35118E-03 2.48290E-01 8.77792E-14-2.40396E-13
 -1      1872 2.03428E+01 6.04513E-02-1.41244E-03 2.65386E-01 1.94152E-14-1.00438E-13
 -1      1873 2.05741E+01 5.19967E-02 1.13653E-03 2.86119E-01 4.66408E-14-3.21017E-13
 -1      1874 2.06872E+01 5.74863E-02 3.87826E-03 3.18374E-01-1.89085E-14-2.59436E-13
 -1      1875 2.04740E+01 7.46966E-02-1.67189E-03 3.42218E-01 3.61564E-14-2.39173E-13
 -1      1876 2.07769E+01 6.11400E-02 1.23405E-03 3.62954E-01-3.09141E-14-2.74665E-13
 -1      1877 2.09175E+01 6.58026E-02 4.23366E-03 4.00223E-01-9.07651E-15-1.55841E-13
 -1      1878 2.06375E+01 8.85402E-02-1.91837E-03 4.34344E-01 3.10537E-14-2.40444E-13
 -1      1879 2.10268E+01 6.79961E-02 1.24566E-03 4.50121E-01-6.21096E-14-1.70229E-13
 -1      1880 2.11973E+01 7.03210E-02 4.21624E-03 4.90541E-01 2.64936E-15-1.75488E-13
 -1      1881 2.08383E+01 9.95112E-02-2.13401E-03 5.39879E-01-1.71121E-14-1.05540E-13
 -1      1882 2.13280E+01 6.93792E-02 1.13874E-03 5.42307E-01 1.73373E-14-1.50976E-13
 -1      1883 2.15280E+01 6.68554E-02 3.52548E-03 5.81840E-01 7.73179E-14-1.89391E-13
 -1      1884 2.10804E+01 1.03242E-01-2.30081E-03 6.53450E-01 2.10964E-14-4.93891E-14
 -1      1885 2.16810E+01 6.01397E-02 8.91769E-04 6.28798E-01 1.31423E-13-2.70569E-13
 -1      1886 2.19055E+01 4.89465E-02 1.76071E-03 6.60025E-01 1.64085E-13-2.18530E-13
 -1      1887 2.13661E+01 9.26086E-02-2.40272E-03 7.63984E-01 5.80686E-14-6.13870E-14
 -1      1888 2.20802E+01 3.26859E-02 5.12776E-04 6.90745E-01 1.23052E-13-2.52451E-13
 -1      1889 2.23167E+01 7.68933E-03-1.52039E-03 7.01521E-01-1.30213E-16-2.00382E-13
 -1      1890 2.16950E+01 5.69949E-02-2.41996E-03 8.51784E-01 1.17097E-13-2.01904E-13
 -1      1891 2.25102E+01-2.27019E-02 5.01387E-05 6.98340E-01-6.90286E-14-2.53094E-13
 -1      1892 2.27355E+01-6.69664E-02-6.61406E-03 6.70998E-01 2.72178E-14-1.87047E-13
 -1      1893 2.20624E+01-1.74412E-02-2.29798E-03 8.85299E-01 1.93906E-14-2.66100E-13
 -1      1894 2.29410E+01-1.15290E-01-4.31451E-04 6.09733E-01 1.90742E-14-1.15410E-13
 -1      1895 2.31194E+01-1.81477E-01-1.32736E-02 5.22475E-01 9.45073E-14-2.22682E-14
 -1      1896 2.24571E+01-1.44556E-01-1.85971E-03 8.19157E-01 6.18988E-14-7.64334E-14
 -1      1897 2.33227E+01-2.46715E-01-9.79361E-04 3.75795E-01 8.18937E-14-7.90583E-14
 -1      1898 2.34067E+01-3.28016E-01-2.00843E-02 2.09167E-01 1.09835E-13-6.64030E-15
 -1      1899 2.28571E+01-3.28914E-01-6.54397E-04 5.97153E-01 9.83189E-14 7.66357E-15
 -1      1900 2.35805E+01-3.96991E-01-2.03606E-03-4.21717E-02 1.34441E-16-5.07754E-14
 -1      1901 2.35194E+01-4.67520E-01-2.39068E-02-2.90367E-01 4.93737E-14-7.50669E-14
 -1      1902 2.32221E+01-5.47053E-01 2.15056E-03 1.66988E-01 5.75651E-14-1.58869E-13
 -1      1903 2.36165E+01-5.06854E-01-4.55209E-03-6.33944E-01 2.34986E-14-6.10835E-14
 -1      1904 2.33760E+01-5.16688E-01-2.02387E-02-9.25757E-01-1.94497E-14-8.31340E-14
 -1      1905 2.34826E+01-7.22789E-01 7.23048E-03-4.83678E-01-4.95177E-15-1.10346E-13
 -1      1906 2.33343E+01-4.74762E-01-8.78296E-03-1.28575E+00-4.85376E-14-1.66764E-13
 -1      1907 2.29259E+01-3.67374E-01-6.42423E-03-1.52504E+00-4.67308E-14-9.95870E-14
 -1      1908 2.35373E+01-7.20050E-01 1.35312E-02-1.26687E+00-9.51270E-14 4.60656E-15
 -1      1909 2.27034E+01-2.05481E-01-1.35749E-02-1.74778E+00 3.06625E-14-4.33542E-14
 -1      1910 2.22100E+01 2.76122E-02 1.23213E-02-1.79867E+00-5.25014E-15-9.01067E-14
 -1      1911 2.32859E+01-3.95867E-01 1.59134E-02-1.93717E+00 7.40510E-15 1.00750E-13
 -1      1912 2.18591E+01 2.75231E-01-1.27077E-02-1.71187E+00 6.63749E-14-1.03126E-13
 -1      1913 2.14244E+01 5.38294E-01 2.27156E-02-1.48179E+00 9.45147E-14-2.74468E-14
 -1      1914 2.27301E+01 2.43196E-01 4.36545E-03-2.12221E+00 6.39462E-14 1.62547E-13
 -1      1915 2.11170E+01 7.39209E-01-3.01189E-03-1.03455E+00 1.24624E-13-6.75987E-14
 -1      1916 2.08903E+01 8.60829E-01 1.47736E-02-5.78814E-01 1.00281E-13-8.48067E-14
 -1      1917 2.20829E+01 9.40924E-01-1.69101E-02-1.54492E+00 7.03257E-14-1.13938E-13
 -1      1918 2.08240E+01 8.66924E-01 1.66301E-02 3.46844E-02 1.30729E-14-1.49980E-14
 -1      1919 2.08658E+01 7.59350E-01-2.29656E-04 4.97214E-01-1.58398E-13-2.38767E-14
 -1      1920 2.17137E+01 1.25027E+00-3.03332E-02-3.42861E-01 7.98563E-14-1.90452E-13
 -1      1921 2.10434E+01 5.68891E-01 2.60745E-02 9.62895E-01-3.29741E-13 5.26272E-14
 -1      1922 2.12976E+01 3.07850E-01-1.29080E-02 1.21107E+00-3.54523E-13-7.35696E-15
 -1      1923 2.18213E+01 9.68326E-01-1.77983E-02 8.82244E-01-1.80146E-13 5.35487E-14
 -1      1924 2.15406E+01 5.67417E-02 1.59796E-02 1.32182E+00-1.86193E-13 6.69170E-14
 -1      1925 2.18640E+01-1.85803E-01-1.49681E-02 1.28489E+00 1.64672E-13 9.21381E-14
 -1      1926 2.22303E+01 2.87476E-01 4.03456E-03 1.51082E+00-1.91978E-13 2.92647E-13
 -1      1927 2.19892E+01-3.56491E-01-3.09061E-03 1.07401E+00 3.93851E-13 3.14488E-14
 -1      1928 2.22356E+01-4.73141E-01-1.02038E-02 8.38763E-01 3.17645E-13 1.62950E-13
 -1      1929 2.25787E+01-3.72986E-01 1.54964E-02 1.36664E+00 2.15097E-13 1.84971E-13
 -1      1930 2.21805E+01-5.18033E-01-1.75942E-02 4.80220E-01 1.77128E-13 3.06221E-13
 -1      1931 2.22662E+01-5.06576E-01-4.14071E-03 1.89331E-01 2.50374E-13 4.82995E-13
 -1      1932 2.26325E+01-7.16409E-01 1.37949E-02 7.10339E-01 4.06957E-13 2.22935E-13
 -1      1933 2.20699E+01-4.57908E-01-2.17659E-02-1.48450E-01 2.62496E-13 5.32797E-13
 -1      1934 2.19884E+01-3.69841E-01 9.92159E-04-3.84165E-01 2.27784E-13 5.61899E-13
 -1      1935 2.23784E+01-7.11789E-01 7.02200E-03-6.58394E-02 3.00824E-13 2.67004E-13
 -1      1936 2.17185E+01-2.77039E-01-1.80828E-02-6.05181E-01 7.86437E-14 5.61116E-13
 -1      1937 2.15182E+01-1.61433E-01 5.04446E-03-7.30069E-01 1.03663E-13 4.93308E-13
 -1      1938 2.19218E+01-4.84946E-01 1.11306E-03-6.76816E-01 1.05842E-13 3.19872E-13
 -1      1939 2.12305E+01-5.77890E-02-1.14899E-02-8.03805E-01 7.53586E-14 3.28759E-13
 -1      1940 2.09826E+01 5.84008E-02 7.89380E-03-8.03539E-01-5.22960E-14 4.82427E-13
 -1      1941 2.13814E+01-1.70251E-01-2.26435E-03-9.91906E-01-7.45597E-14 2.78691E-13
 -1      1942 2.07378E+01 1.38834E-01-5.82260E-03-7.33174E-01-1.48714E-13 5.14389E-13
 -1      1943 2.05148E+01 2.33986E-01 1.13878E-02-6.25398E-01-1.87116E-13 3.46082E-13
 -1      1944 2.04462E+01 3.52174E-01-9.90738E-04-7.49612E-01-3.81506E-13 2.77630E-13
 -1      1945 2.08712E+01 1.48013E-01 5.95410E-04-9.89522E-01-1.51599E-13 6.07767E-13
 -1      1946 1.96193E+01 1.41995E-01 7.87803E-03 2.59560E-01 2.03252E-13 4.93463E-13
 -1      1947 1.98915E+01 2.04065E-01 1.64314E-02 4.32534E-01 2.22282E-13 5.77236E-13
 -1      1948 2.01030E+01 3.50518E-01-1.52996E-03 6.55134E-01 2.73738E-13 3.97763E-13
 -1      1949 1.93768E+01 7.18690E-02 6.94306E-03 5.66636E-02 1.68372E-13 3.85024E-13
 -1      1950 1.94919E+01 1.01752E-01 1.41904E-02 1.45145E-01 1.71056E-13 4.47656E-13
 -1      1951 1.97101E+01 1.65129E-01-1.94479E-03 2.56461E-01 2.08171E-13 3.13560E-13
 -1      1952 1.92861E+01 3.61051E-02 4.42400E-03-4.87259E-02 1.25058E-13 3.39406E-13
 -1      1953 1.93164E+01 5.19188E-02 8.33073E-03-1.55114E-03 1.35108E-13 3.77840E-13
 -1      1954 1.95097E+01 8.06149E-02-2.82870E-03 4.45721E-02 1.64453E-13 2.64165E-13
 -1      1955 1.92840E+01 1.61602E-02 2.85729E-03-1.01148E-01 3.19298E-14 2.77507E-13
 -1      1956 1.92690E+01 2.50244E-02 4.34844E-03-7.65617E-02 7.22711E-14 3.18759E-13
 -1      1957 1.94304E+01 3.74014E-02-2.84798E-03-6.72508E-02 9.76890E-14 2.00525E-13
 -1      1958 1.93309E+01 4.53852E-03 1.98454E-03-1.23170E-01 5.47478E-14 2.15841E-13
 -1      1959 1.92927E+01 9.56370E-03 2.14568E-03-1.11778E-01 2.91525E-14 2.42655E-13
 -1      1960 1.94236E+01 1.35859E-02-2.31053E-03-1.22720E-01 5.64500E-14 1.32029E-13
 -1      1961 1.94019E+01-2.22202E-03 1.44343E-03-1.27351E-01 9.28961E-14 1.93574E-13
 -1      1962 1.93537E+01 5.09583E-04 9.49865E-04-1.23873E-01 8.54617E-14 2.38127E-13
 -1      1963 1.94578E+01 2.82175E-05-1.69208E-03-1.45209E-01 8.58814E-14 1.03567E-13
 -1      1964 1.94821E+01-5.93614E-03 1.06585E-03-1.21268E-01 1.01706E-13 1.08547E-13
 -1      1965 1.94313E+01-4.64010E-03 2.81058E-04-1.22478E-01 1.01182E-13 1.78464E-13
 -1      1966 1.95131E+01-7.51858E-03-1.17273E-03-1.48234E-01 1.23432E-13 1.09552E-13
 -1      1967 1.95622E+01-7.66765E-03 7.87464E-04-1.09746E-01 9.79682E-15 1.41060E-13
 -1      1968 1.95134E+01-7.28428E-03-9.51112E-05-1.13559E-01 5.83124E-14 1.32117E-13
 -1      1969 1.95768E+01-1.13161E-02-7.84553E-04-1.40141E-01 5.91213E-14 1.12487E-13
 -1      1970 1.96372E+01-8.08503E-03 5.82382E-04-9.59496E-02 9.22066E-14 1.28561E-13
 -1      1971 1.95927E+01-8.28043E-03-2.93534E-04-1.00978E-01 4.46200E-14 1.31888E-13
 -1      1972 1.96415E+01-1.26952E-02-5.10110E-04-1.26312E-01 5.61405E-14 1.17141E-13
 -1      1973 1.97048E+01-7.62169E-03 4.36798E-04-8.19857E-02 1.09670E-13 4.72112E-14
 -1      1974 1.96655E+01-8.17821E-03-3.76472E-04-8.72880E-02 1.13780E-13 9.15546E-14
 -1      1975 1.97028E+01-1.24882E-02-3.24183E-04-1.10309E-01 1.25091E-13 3.43346E-14
 -1      1976 1.97643E+01-6.55602E-03 3.41820E-04-6.92768E-02 1.54594E-13-6.62211E-14
 -1      1977 1.97303E+01-7.33360E-03-3.81750E-04-7.42029E-02 1.42287E-13-1.88204E-16
 -1      1978 1.97587E+01-1.12279E-02-2.06005E-04-9.45228E-02 1.66375E-13-4.93481E-14
 -1      1979 1.98166E+01-5.05629E-03 2.91708E-04-5.88136E-02 4.68503E-14-7.10055E-14
 -1      1980 1.97872E+01-5.96943E-03-3.33463E-04-6.28975E-02 6.19831E-14-5.72863E-14
 -1      1981 1.98088E+01-9.24705E-03-1.40450E-04-8.05944E-02 1.14304E-13-6.59739E-15
 -1      1982 1.98632E+01-3.20874E-03 2.83319E-04-5.13356E-02-6.72533E-14-3.22554E-14
 -1      1983 1.98374E+01-4.21141E-03-2.46774E-04-5.42175E-02-2.41929E-14-8.30007E-14
 -1      1984 1.98538E+01-6.73576E-03-1.17084E-04-6.96968E-02-1.72524E-14-2.39702E-14
 -1      1985 1.99066E+01-1.03691E-03 3.15772E-04-4.74668E-02-4.31236E-14-2.65094E-14
 -1      1986 1.98829E+01-2.11177E-03-1.30591E-04-4.88338E-02-3.87936E-14 2.39984E-14
 -1      1987 1.98954E+01-3.77758E-03-1.29154E-04-6.27441E-02-5.59659E-14-2.65993E-15
 -1      1988 1.99498E+01 1.48374E-03 3.90142E-04-4.78185E-02 4.35954E-14-4.21365E-14
 -1      1989 1.99265E+01 3.33517E-04 1.06243E-05-4.73580E-02-3.30365E-15-1.19140E-14
 -1      1990 1.99357E+01-3.75021E-04-1.72775E-04-6.05454E-02 3.96012E-14 5.53498E-14
 -1      1991 1.99964E+01 4.41309E-03 5.09044E-04-5.30652E-02 3.68423E-14-2.87373E-14
 -1      1992 1.99714E+01 3.17096E-03 1.75453E-04-5.04301E-02 6.40182E-14-1.78887E-14
 -1      1993 1.99777E+01 3.53030E-03-2.46313E-04-6.39209E-02 7.13518E-14-2.99554E-14
 -1      1994 2.00507E+01 7.83336E-03 6.75995E-04-6.39970E-02-6.47655E-14-8.53969E-14
 -1      1995 2.00215E+01 6.47637E-03 3.64275E-04-5.87799E-02 7.53014E-15-3.49984E-14
 -1      1996 2.00246E+01 8.03908E-03-3.49845E-04-7.37839E-02 4.61977E-14-2.44970E-14
 -1      1997 2.01177E+01 1.18327E-02 8.94321E-04-8.15441E-02-7.72021E-14-1.11049E-13
 -1      1998 2.00815E+01 1.03397E-02 5.77944E-04-7.32633E-02-2.30653E-14-7.72821E-14
 -1      1999 2.00805E+01 1.32736E-02-4.84599E-04-9.11907E-02-1.77945E-14-7.28028E-14
 -1      2000 2.02030E+01 1.64815E-02 1.16526E-03-1.06765E-01 7.25720E-14-8.40487E-14
 -1      2001 2.01566E+01 1.48444E-02 8.16179E-04-9.48673E-02-8.85265E-14-1.25593E-13
 -1      2002 2.01501E+01 1.93498E-02-6.52374E-04-1.17350E-01-6.79262E-14-9.48219E-14
 -1      2003 2.03131E+01 2.17952E-02 1.48473E-03-1.40783E-01 1.56692E-13-7.50039E-14
 -1      2004 2.02528E+01 2.00361E-02 1.07538E-03-1.24668E-01 1.67858E-13-4.08782E-14
 -1      2005 2.02385E+01 2.63359E-02-8.54864E-04-1.53578E-01 1.34991E-13-7.79691E-14
 -1      2006 2.04553E+01 2.76735E-02 1.83791E-03-1.84632E-01-1.24804E-14-1.87197E-13
 -1      2007 2.03769E+01 2.58721E-02 1.34551E-03-1.63723E-01 6.30550E-14-1.52940E-13
 -1      2008 2.03517E+01 3.41847E-02-1.09285E-03-2.01170E-01 9.93625E-14-1.26316E-13
 -1      2009 2.06370E+01 3.38008E-02 2.19090E-03-2.38977E-01-6.41682E-14-2.35875E-13
 -1      2010 2.05363E+01 3.21381E-02 1.60576E-03-2.12846E-01-7.52033E-14-2.74572E-13
 -1      2011 2.04959E+01 4.26244E-02-1.36515E-03-2.61142E-01-7.59364E-15-2.03739E-13
 -1      2012 2.08656E+01 3.94870E-02 2.47849E-03-3.03605E-01-1.34500E-13-1.16557E-13
 -1      2013 2.07383E+01 3.83147E-02 1.81865E-03-2.72218E-01-1.02898E-13-2.39974E-13
 -1      2014 2.06776E+01 5.09807E-02-1.66713E-03-3.33772E-01-9.67837E-14-2.04344E-13
 -1      2015 2.11475E+01 4.34262E-02 2.58890E-03-3.76597E-01-1.47160E-13 4.50386E-14
 -1      2016 2.09901E+01 4.33689E-02 1.92308E-03-3.40713E-01-1.57068E-13-5.33953E-14
 -1      2017 2.09028E+01 5.79004E-02-1.98816E-03-4.17821E-01-1.97636E-13-1.15527E-13
 -1      2018 2.14856E+01 4.33610E-02 2.34980E-03-4.53013E-01 1.13891E-13 2.18242E-13
 -1      2019 2.12967E+01 4.54521E-02 1.82841E-03-4.14842E-01-1.77553E-14 1.41037E-13
 -1      2020 2.11760E+01 6.09492E-02-2.30651E-03-5.09306E-01-6.97456E-14-8.57008E-16
 -1      2021 2.18776E+01 3.56957E-02 1.52798E-03-5.23001E-01 1.51506E-15 1.83211E-13
 -1      2022 2.16594E+01 4.15156E-02 1.41456E-03-4.87164E-01 1.31468E-13 2.68454E-13
 -1      2023 2.14987E+01 5.60981E-02-2.57865E-03-5.99667E-01 1.11646E-13 1.57311E-13
 -1      2024 2.23114E+01 1.52484E-02-1.30445E-04-5.69355E-01 7.47682E-15 1.78799E-13
 -1      2025 2.20725E+01 2.69563E-02 5.47100E-04-5.44156E-01-6.61405E-14 2.11552E-13
 -1      2026 2.18673E+01 3.72441E-02-2.71828E-03-6.73297E-01-3.69049E-14 3.64040E-13
 -1      2027 2.27601E+01-2.43373E-02-2.77582E-03-5.65157E-01-3.05704E-14 1.85229E-13
 -1      2028 2.25186E+01-4.35145E-03-8.77386E-04-5.63865E-01 3.66093E-14 1.69620E-13
 -1      2029 2.22699E+01-3.77351E-03-2.55848E-03-7.04770E-01 7.67488E-14 4.84281E-13
 -1      2030 2.31774E+01-8.84456E-02-6.20739E-03-4.73308E-01-1.58356E-13 2.04418E-13
 -1      2031 2.29642E+01-5.88169E-02-2.85602E-03-5.14535E-01-1.12976E-13 5.31693E-14
 -1      2032 2.26826E+01-7.55740E-02-1.79904E-03-6.57040E-01-3.91917E-14 3.29329E-13
 -1      2033 2.34937E+01-1.76000E-01-9.53809E-03-2.52009E-01-7.49852E-14 1.01489E-13
 -1      2034 2.33532E+01-1.39205E-01-5.17164E-03-3.57068E-01-1.72447E-13 1.52932E-13
 -1      2035 2.30652E+01-1.82180E-01 2.26322E-05-4.83678E-01-1.51196E-13 1.38061E-13
 -1      2036 2.36187E+01-2.69905E-01-1.10559E-02 1.27530E-01 3.97078E-15 1.01670E-13
 -1      2037 2.36047E+01-2.36624E-01-7.37764E-03-5.64567E-02-1.14925E-14 7.17039E-14
 -1      2038 2.33569E+01-3.12555E-01 3.39891E-03-1.40862E-01-5.09271E-14 8.81730E-14
 -1      2039 2.34571E+01-3.26951E-01-8.80144E-03 6.46006E-01-2.14429E-14 2.15687E-13
 -1      2040 2.36189E+01-3.19311E-01-8.80447E-03 3.92121E-01 4.84543E-14 2.16793E-13
 -1      2041 2.34767E+01-4.26199E-01 8.32859E-03 3.83938E-01-3.23196E-14 1.64609E-13
 -1      2042 2.29446E+01-2.81710E-01-2.61590E-03 1.19088E+00 1.13026E-13 1.69840E-13
 -1      2043 2.33022E+01-3.27666E-01-8.85588E-03 9.22932E-01 5.13079E-14 2.27044E-13
 -1      2044 2.33356E+01-4.45916E-01 1.33180E-02 1.02518E+00 6.61866E-14 2.82758E-13
 -1      2045 2.21094E+01-8.52107E-02 3.88705E-03 1.54152E+00 6.21699E-14 3.07126E-13
 -1      2046 2.26241E+01-1.96199E-01-6.53422E-03 1.36832E+00 5.48407E-14 1.87511E-13
 -1      2047 2.28768E+01-2.86337E-01 1.43242E-02 1.59600E+00 1.25577E-13 4.43316E-13
 -1      2048 2.11357E+01 2.24152E-01 3.72194E-03 1.44971E+00 4.25094E-14 1.21153E-13
 -1      2049 2.16917E+01 8.31215E-02-1.81425E-03 1.48955E+00 7.53425E-14 2.37034E-13
 -1      2050 2.21515E+01 7.25157E-02 7.57003E-03 1.81065E+00 1.56246E-13 4.39211E-13
 -1      2051 2.03546E+01 4.90780E-01-4.67961E-03 8.27941E-01 1.95592E-13 4.82453E-14
 -1      2052 2.07824E+01 4.00825E-01 5.27500E-03 1.11572E+00 3.46528E-14 8.39884E-14
 -1      2053 2.13779E+01 4.98912E-01-7.04219E-03 1.43516E+00 9.52172E-14 3.81428E-13
 -1      2054 2.00902E+01 5.34959E-01-1.31185E-02-9.58958E-02-2.43271E-13 9.67611E-14
 -1      2055 2.02386E+01 5.62727E-01 1.18737E-02 3.24272E-01-3.07671E-14-9.83588E-15
 -1      2056 2.08835E+01 7.56725E-01-1.58331E-02 5.17502E-01-7.13249E-14 3.02696E-14
 -1      2057 2.04151E+01 3.23941E-01-1.28142E-02-8.76780E-01-2.67995E-13 5.69735E-14
 -1      2058 2.02504E+01 4.54050E-01 1.32407E-02-5.29085E-01-1.30451E-13 1.23873E-13
 -1      2059 2.08816E+01 6.68855E-01-1.20260E-02-5.34676E-01-1.86916E-13 2.78508E-13
 -1      2060 2.10831E+01 5.96746E-03-3.44142E-03-1.17283E+00-1.57497E-13-8.74474E-14
 -1      2061 2.07153E+01 1.53462E-01 7.41970E-03-1.04255E+00-2.97451E-13-7.08218E-14
 -1      2062 2.12871E+01 2.95863E-01 4.46951E-04-1.21320E+00-2.10151E-13 8.29345E-14
 -1      2063 2.17163E+01-2.36529E-01 6.37922E-03-9.56461E-01-1.85140E-13 2.01649E-13
 -1      2064 2.13312E+01-1.47283E-01-1.79967E-03-1.04751E+00-8.56806E-14 7.20222E-14
 -1      2065 2.17941E+01-1.33698E-01 7.65489E-03-1.27383E+00-1.48913E-13-8.01165E-14
 -1      2066 2.20463E+01-3.22463E-01 1.06079E-02-4.46284E-01 2.17540E-13 1.80420E-13
 -1      2067 2.17977E+01-3.10524E-01-9.10738E-03-6.61987E-01-6.61138E-14 1.14405E-13
 -1      2068 2.21163E+01-4.06592E-01 6.49850E-03-8.35523E-01-2.03179E-14 1.28781E-13
 -1      2069 2.20021E+01-2.76006E-01 9.81579E-03 9.32081E-02 4.27928E-13 1.49400E-13
 -1      2070 2.19531E+01-3.17886E-01-1.15677E-02-1.35221E-01 4.18733E-13 2.97258E-13
 -1      2071 2.21321E+01-4.59305E-01 2.04213E-03-1.98969E-01 3.55073E-13 3.33137E-13
 -1      2072 2.16598E+01-1.59025E-01 7.14094E-03 4.83487E-01 2.69206E-13 5.43628E-14
 -1      2073 2.17878E+01-2.23494E-01-9.72067E-03 3.17759E-01 3.00905E-13 1.93891E-13
 -1      2074 2.18698E+01-3.48928E-01-1.45917E-03 3.65994E-01 3.00746E-13 3.01748E-13
 -1      2075 2.11571E+01-1.82397E-02 4.82849E-03 6.46235E-01 2.53599E-14-3.84935E-15
 -1      2076 2.13899E+01-8.54265E-02-5.67111E-03 5.79282E-01 2.31069E-13 4.30697E-14
 -1      2077 2.14289E+01-1.59412E-01-2.98186E-03 7.08236E-01 2.03939E-13 1.65338E-13
 -1      2078 2.06407E+01 1.19596E-01 4.43606E-03 5.69147E-01-7.55533E-14-1.54916E-13
 -1      2079 2.08898E+01 5.78648E-02-1.86660E-03 6.12194E-01-8.17732E-14-6.91626E-14
 -1      2080 2.09216E+01 4.60708E-02-3.97035E-03 7.76687E-01 2.21128E-14 1.29995E-13
 -1      2081 2.02902E+01 2.09061E-01 6.09248E-03 3.79617E-01-7.69061E-14-5.36808E-14
 -1      2082 2.04922E+01 1.61588E-01-4.47026E-04 5.01180E-01-8.13050E-14-1.41968E-13
 -1      2083 2.05257E+01 2.00211E-01-5.20123E-03 6.56552E-01-1.46865E-13 1.51463E-14
 -1      2084 2.02694E+01 3.28682E-01 2.32143E-03 4.73638E-01-1.24707E-13 1.68536E-13
 -1      2085 2.01491E+01 1.94581E+00 2.40383E-03 1.41697E+00 3.05945E-13 3.17809E-13
 -1      2086 2.02088E+01 1.50516E+00 5.67858E-03 1.31541E+00 1.86484E-13 3.16553E-13
 -1      2087 2.02497E+01 1.23263E+00 7.35574E-03 1.15312E+00 1.48134E-13 3.46848E-13
 -1      2088 2.02813E+01 8.74502E-01 5.51343E-03 1.00023E+00 2.97627E-14 5.58685E-13
 -1      2089 2.03347E+01 1.08302E+00-7.68520E-03 1.53214E+00 1.94727E-14 4.04825E-13
 -1      2090 2.02724E+01 7.31451E-01 8.11609E-03 8.18489E-01-2.67269E-14 4.11875E-13
 -1      2091 2.02864E+01 4.70649E-01 5.84646E-03 6.47985E-01-2.03502E-14 2.16302E-13
 -1      2092 2.04020E+01 4.13793E-01 2.96336E-03 7.64366E-01-6.04320E-14 1.54324E-13
 -1      2093 2.04071E+01 6.83885E-01-1.12728E-03 1.14969E+00-1.07622E-14 6.41943E-13
 -1      2094 1.99786E+01 2.74124E+00-7.37824E-03 1.51183E+00 4.49467E-14-2.74118E-13
 -1      2095 2.00745E+01 2.27848E+00 4.23981E-03 1.49844E+00 8.56173E-14 2.13759E-14
 -1      2096 2.01565E+01 1.68624E+00-6.15875E-03 1.81076E+00 4.47971E-14-4.63414E-14
 -1      2097 1.97538E+01 3.54105E+00-1.71274E-02 1.35311E+00-2.11077E-13-5.13224E-13
 -1      2098 1.98730E+01 3.11271E+00 5.93223E-04 1.46033E+00-1.31025E-13-1.05629E-13
 -1      2099 1.98812E+01 2.39064E+00-7.29769E-04 1.85311E+00-1.18566E-13-3.62130E-13
 -1      2100 1.95431E+01 4.17629E+00-2.24554E-02 9.03429E-01-1.22694E-13-4.52253E-13
 -1      2101 1.96452E+01 3.87200E+00-5.89605E-03 1.13510E+00-6.64850E-14-4.74319E-13
 -1      2102 1.95537E+01 3.09415E+00 8.70679E-03 1.55702E+00-1.39756E-13-3.55375E-13
 -1      2103 1.94297E+01 4.49102E+00-2.12794E-02 2.29799E-01-8.07576E-14-2.29438E-13
 -1      2104 1.94718E+01 4.37697E+00-1.41957E-02 5.42832E-01-1.32563E-14-3.55774E-13
 -1      2105 1.92794E+01 3.62736E+00 1.81334E-02 9.07442E-01 1.01315E-13-4.26710E-13
 -1      2106 1.94645E+01 4.39421E+00-1.47996E-02-5.05437E-01-5.68005E-14-2.03147E-13
 -1      2107 1.94273E+01 4.49709E+00-2.09744E-02-1.89696E-01-8.36733E-15-1.58703E-13
 -1      2108 1.91673E+01 3.83484E+00 2.22054E-02 2.53213E-02-6.88922E-14-2.67585E-13
 -1      2109 1.96312E+01 3.90692E+00-6.83195E-03-1.11104E+00-1.48226E-13-9.88732E-14
 -1      2110 1.95327E+01 4.20347E+00-2.25000E-02-8.72801E-01-1.07293E-13 1.00198E-14
 -1      2111 1.92662E+01 3.64936E+00 1.83761E-02-8.64635E-01-4.64104E-14-2.09032E-13
 -1      2112 1.98545E+01 3.17027E+00 3.82760E-05-1.45126E+00-1.54836E-13-2.45917E-13
 -1      2113 1.97371E+01 3.58743E+00-1.75146E-02-1.33660E+00-2.05694E-13-2.08046E-13
 -1      2114 1.95321E+01 3.13641E+00 9.54495E-03-1.53000E+00 3.03160E-14-1.63189E-13
 -1      2115 2.00623E+01 2.32688E+00 4.25306E-03-1.50986E+00 2.62602E-14 4.76304E-13
 -1      2116 1.99620E+01 2.79867E+00-8.13471E-03-1.51591E+00 8.46111E-15 9.63956E-14
 -1      2117 1.98556E+01 2.44404E+00-1.37628E-04-1.85017E+00 1.60635E-13 6.04703E-15
 -1      2118 2.02052E+01 1.53835E+00 6.38432E-03-1.33689E+00-1.23994E-13 9.74654E-14
 -1      2119 2.01408E+01 1.98326E+00 1.67374E-03-1.43496E+00-2.36755E-14 1.54490E-13
 -1      2120 2.01410E+01 1.72869E+00-5.80943E-03-1.82967E+00 2.41478E-13 2.15301E-13
 -1      2121 2.02853E+01 8.89633E-01 4.74260E-03-1.02443E+00-2.86676E-13 5.05230E-14
 -1      2122 2.02437E+01 1.25885E+00 6.02247E-03-1.17587E+00-3.01131E-13-2.90510E-14
 -1      2123 2.03310E+01 1.10845E+00-7.73673E-03-1.55955E+00 1.33166E-14-7.36247E-14
 -1      2124 9.44629E+00-6.27094E+00-2.08766E-01 6.40229E+00 5.63660E-13-3.73104E-14
 -1      2125 6.15050E+00-7.88275E+00-4.62621E-01 5.19548E+00 6.43596E-13-1.30368E-13
 -1      2126 7.67401E-01-7.11120E+00-2.70801E-01 8.46288E-01 3.64930E-13 2.87881E-13
 -1      2127 7.50908E-01-7.34542E+00-3.10226E-01-1.04142E+00 4.60007E-13 1.69254E-13
 -1      2128 3.52039E+00-7.74141E+00-3.68959E-01 4.30798E+00 5.61995E-13-1.15907E-13
 -1      2129 1.59450E+00-8.10318E+00-4.24191E-01 3.02572E+00 2.14551E-13 3.24629E-13
 -1      2130 6.81021E+00-6.43352E+00-2.10509E-01 5.98951E+00 3.70370E-13-8.42659E-14
 -1      2131 1.76882E+01-4.15393E+00-4.02662E-02 7.24377E+00 3.00315E-13-1.82965E-13
 -1      2132 1.32069E+01-6.18260E+00-3.68897E-01 6.35985E+00 4.20997E-13-1.13909E-13
 -1      2133 2.65856E+01-1.59477E+00 1.52720E-01 6.42935E+00 2.03726E-13-2.13607E-13
 -1      2134 2.18214E+01-3.61857E+00-1.91148E-01 6.16655E+00 2.82219E-13-1.63813E-13
 -1      2135 1.95240E+01 4.01751E+00-2.49872E-02-1.70014E+00-1.98939E-13-5.42877E-13
 -1      2136 1.96480E+01 3.94378E+00-2.46604E-02-1.95650E+00-2.46344E-13-4.98490E-13
 -1      2137 1.99641E+01 3.23733E+00-1.87418E-02-1.92604E+00-2.71804E-13-4.45017E-13
 -1      2138 1.96952E+01 3.58935E+00-6.68380E-03-1.52047E+00-1.89794E-13-5.33615E-13
 -1      2139 3.83048E+01 4.75791E+00 3.09888E-01 2.66119E+00 4.72122E-14 7.43294E-14
 -1      2140 3.54003E+01 3.48502E+00 1.45560E-01 3.55044E+00-9.64506E-15 7.38298E-14
 -1      2141 4.11813E+01 7.02672E+00 3.94743E-01 1.08007E+00 2.30371E-13-2.80859E-13
 -1      2142 3.95110E+01 6.40473E+00 2.72344E-01 2.07798E+00 7.94920E-14-8.43769E-15
 -1      2143 4.13430E+01 7.10350E+00 3.72872E-01-5.45416E-01 4.31044E-13-2.02671E-13
 -1      2144 4.14011E+01 7.34993E+00 3.47957E-01 6.77184E-01 3.98404E-13-1.08656E-13
 -1      2145 3.80877E+01 5.24114E+00 1.78187E-01-1.89706E+00 4.71234E-13-2.30371E-13
 -1      2146 4.04927E+01 6.23174E+00 3.85237E-01-9.32100E-01 3.66318E-13-2.41196E-13
 -1      2147 3.28571E+01 1.96438E+00-4.70354E-03-2.53896E+00 3.70606E-13-2.38476E-13
 -1      2148 3.71176E+01 3.77377E+00 3.64932E-01-2.58409E+00 4.75786E-13-2.77556E-13
 -1      2149 3.49562E+01 4.41234E+00 2.19080E-01 3.67789E-01 3.82888E-13-1.20348E-13
 -1      2150 2.57382E+01-2.21015E+00-1.00367E-01-4.86983E+00 2.06890E-13-3.59046E-13
 -1      2151 3.01599E+01-7.05305E-01 5.42583E-02-4.20254E+00 2.36700E-13-2.41862E-13
 -1      2152 1.70424E+01-4.67605E+00-3.08564E-01-5.99941E+00 4.34097E-13-4.23661E-13
 -1      2153 2.19806E+01-2.91119E+00 2.39417E-03-6.49279E+00 3.22908E-13-3.21132E-13
 -1      2154 9.93160E+00-6.57059E+00-3.26819E-01-5.79872E+00 5.07372E-13-3.26291E-13
 -1      2155 1.37306E+01-4.94526E+00-1.00417E-01-6.58298E+00 4.76952E-13-4.64101E-13
 -1      2156 1.81117E+01-5.76254E+00-4.09722E-02-6.46055E+00 3.26295E-13-2.58835E-13
 -1      2157 3.40052E+00-7.55712E+00-4.01183E-01-3.91329E+00 3.86746E-13-3.30957E-13
 -1      2158 6.20117E+00-6.20779E+00-1.68044E-01-5.41018E+00 5.58498E-13-3.94407E-13
 -1      2159 3.32292E-01-7.95372E+00-4.27839E-01-1.23112E+00 2.07473E-13-4.67348E-13
 -1      2160 1.47852E+00-7.35597E+00-3.04212E-01-2.67249E+00 3.15192E-13-3.04978E-13
 -1      2161 4.12829E+00-5.28606E+00-1.35215E-01-4.28853E+00 2.12469E-13-3.84082E-13
 -1      2162 8.58245E-01-7.58587E+00-3.69028E-01 2.22257E+00 5.65659E-14-3.36231E-13
 -1      2163-8.38108E-02-8.34566E+00-4.84093E-01 6.84566E-01 1.47236E-13-4.22273E-13
 -1      2164 6.66522E+00-6.12050E+00-1.40008E-01 5.57571E+00-9.88654E-14-8.65419E-14
 -1      2165 3.65095E+00-7.31610E+00-3.43974E-01 4.00328E+00 6.10623E-15-2.72782E-13
 -1      2166 1.46687E+01-4.81476E+00-7.09758E-02 6.73324E+00-2.61569E-13-7.38298E-14
 -1      2167 1.03079E+01-6.57611E+00-3.28185E-01 5.81863E+00-1.98785E-13-8.44498E-14
 -1      2168 2.39996E+01-2.25556E+00 1.10259E-01 6.29632E+00-7.37743E-14-7.58948E-13
 -1      2169 1.90377E+01-4.38419E+00-2.35250E-01 5.84790E+00-2.22711E-13-3.74478E-13
 -1      2170 3.22015E+01 1.25331E+00 2.52440E-01 5.00207E+00-8.54317E-14-1.02640E-12
 -1      2171 2.70766E+01-5.75335E-01-8.56782E-02 5.13856E+00-7.76601E-14-8.85736E-13
 -1      2172 3.81436E+01 4.29381E+00 2.94017E-01 2.32859E+00-1.83076E-13-8.92397E-13
 -1      2173 3.44301E+01 2.93519E+00 8.83946E-02 3.18638E+00-1.29501E-13-8.81406E-13
 -1      2174 4.02539E+01 6.80719E+00 2.83042E-01 1.20728E-01-3.63098E-13-6.91225E-13
 -1      2175 3.87976E+01 5.98973E+00 2.15299E-01 1.25396E+00-2.46692E-13-7.76379E-13
 -1      2176 4.15010E+01 7.17506E+00 4.13382E-01-1.43278E+00-3.77087E-13-6.52173E-13
 -1      2177 4.13761E+01 7.35549E+00 3.29078E-01-9.66041E-02-4.28435E-13-7.85594E-13
 -1      2178 3.82408E+01 5.26280E+00 2.52442E-01-3.10712E+00-2.73337E-13-8.37719E-13
 -1      2179 4.09848E+01 6.19565E+00 4.38234E-01-2.08361E+00-3.07199E-13-8.15015E-13
 -1      2180 3.20547E+01 1.54201E+00 4.32562E-02-4.38114E+00-2.08042E-13-5.56666E-13
 -1      2181 3.66261E+01 3.39437E+00 3.76832E-01-4.07292E+00-2.79735E-13-8.39773E-13
 -1      2182 2.35271E+01-2.51252E+00-1.54523E-01-6.05323E+00-3.53384E-13-2.44971E-13
 -1      2183 2.89241E+01-4.34348E-01 1.82753E-01-6.16515E+00-1.64757E-13-3.36620E-13
 -1      2184 1.49357E+01-5.91879E+00-3.11297E-01-6.46769E+00 2.30260E-13 1.54515E-13
 -1      2185 1.98749E+01-3.76169E+00 3.43231E-02-7.25149E+00-9.96980E-14-4.57967E-14
 -1      2186 6.98201E+00-7.62823E+00-4.03797E-01-5.49916E+00 7.15816E-13 4.57606E-13
 -1      2187 1.07283E+01-5.92717E+00-1.37976E-01-6.75880E+00 4.95937E-13 6.22169E-13
 -1      2188 1.77333E+00-7.92131E+00-3.81833E-01-2.99494E+00 6.97609E-13 2.25320E-13
 -1      2189 3.75834E+00-7.26728E+00-2.93624E-01-4.46817E+00 6.88172E-13 1.58429E-13
 -1      2190 3.37416E+01 1.91677E+00 2.85239E-01 5.02638E+00-1.09385E-13 2.07168E-13
 -1      2191 2.92604E+01 1.99344E-01-3.25570E-02 5.25431E+00 5.75651E-14 6.83897E-14
 -1      2192 2.91626E+01-2.55509E+00 1.21317E-01 3.92231E+00 1.11189E-13-3.75255E-14
 -1      2193 2.07356E+01 1.10846E+00-2.09115E-02-1.61589E+00-3.39180E-13 2.34864E-14
 -1      2194 3.36790E+01 1.68401E+00 2.47052E-01 1.75028E+00 2.49245E-14 1.66034E-13
 -1      2195 2.06271E+01 1.33217E+00-1.78568E-02-1.67765E+00-3.51805E-13-1.33267E-13
 -1      2196 2.62821E+00-5.34887E+00-1.66171E-01 2.32027E+00 1.57263E-13 1.75249E-13
 -1      2197 1.38835E+01-6.47166E+00-1.04806E-01 7.23067E+00 3.43559E-13-3.40686E-13
 -1      2198 2.03375E+01 6.74782E-01 6.79191E-03-9.59157E-01-4.09910E-13 2.50217E-14
 -1      2199 2.89430E+00-5.05337E+00-1.43463E-01-2.55179E+00 6.58723E-13 7.26086E-14
 -1      2200 2.22802E+01-5.38937E+00 2.24698E-02 6.36308E+00 1.33560E-13-2.91489E-13
 -1      2201 7.63287E+00-6.05884E+00-1.36223E-01-6.21330E+00 9.81215E-13 3.06588E-13
 -1      2202 1.56794E+01-6.40920E+00-5.22211E-02-7.29230E+00 5.51947E-13 2.88849E-13
 -1      2203 2.40160E+01-4.91764E+00 4.13992E-02-5.82257E+00 3.29181E-14-3.42948E-13
 -1      2204 3.10851E+01-9.75263E-01 1.71263E-01-3.23801E+00-2.48954E-13-5.39513E-13
 -1      2205 3.54195E+01 3.89686E+00 2.94301E-01-1.00133E+00-2.91017E-13-9.14546E-13
 -1      2206 3.73662E+01 7.40604E+00 3.78323E-01-4.02676E-01-3.44447E-13-6.21114E-13
 -1      2207 3.66164E+01 7.89170E+00 2.71072E-01-6.83996E-01-4.44922E-13-4.10380E-13
 -1      2208 3.53664E+01 5.30713E+00 2.85780E-01-5.11039E-01-2.03004E-13-5.66214E-13
 -1      2209 3.29607E+01 1.06327E+00 2.43323E-01 1.61410E+00-6.95798E-14-7.23699E-13
 -1      2210 2.71875E+01-3.18830E+00 7.77036E-02 4.06708E+00 6.05072E-15-7.83151E-13
 -1      2211 1.94204E+01-5.71323E+00-2.74431E-02 6.24495E+00-1.35503E-13-3.82833E-13
 -1      2212 1.06709E+01-6.00621E+00-1.01154E-01 6.48247E+00-1.25289E-13-1.75596E-13
 -1      2213 1.27325E+00-5.47642E+00-2.24052E-01-4.49125E-01 1.68799E-13-4.73566E-13
 -1      2214 1.01933E+01-6.03250E+00-1.04078E-01-6.39306E+00 4.05842E-13-2.85577E-13
 -1      2215 3.15070E+01-5.71461E-01 7.00351E-02-1.44897E+00 1.84078E-13-2.05946E-13
 -1      2216 3.68396E+01 7.42419E+00 3.26154E-01 5.86067E-01 4.77951E-13-1.46549E-13
 -1      2217 3.60419E+01 5.67264E+00 2.87178E-01 3.28909E-01 1.62703E-13 1.25011E-13
 -1      2218 3.73574E+01 8.04927E+00 3.44907E-01 3.31570E-01 2.24154E-13-3.88717E-14
 -1      2219 2.55604E+01-4.10798E+00 1.23570E-01-4.58925E+00 1.99951E-13-2.20379E-13
 -1      2220 3.80728E+00-5.36485E+00-1.26388E-01 4.05102E+00 7.19425E-14-2.65177E-13
 -1      2221 2.01476E+01 5.06360E-01 3.72740E-03 6.78282E-01 2.59844E-13 2.11239E-13
 -1      2222 2.04156E+01 6.99933E-01 2.07905E-02 9.69861E-01 3.05698E-13 2.54428E-13
 -1      2223 1.95603E+01 3.51570E+00-1.11169E-02-5.91698E-01-9.86903E-15-5.25346E-13
 -1      2224 1.95957E+01 3.46967E+00-1.05170E-02-7.76208E-01-5.38979E-14-5.45746E-13
 -1      2225 1.96426E+01 3.38120E+00-1.27940E-02-9.40501E-01-9.00128E-14-5.52542E-13
 -1      2226 1.97034E+01 3.30061E+00-1.27722E-02-1.13042E+00-1.28718E-13-5.39238E-13
 -1      2227 1.97871E+01 3.03294E+00 3.01102E-04-7.92217E-01-6.88898E-14-5.14911E-13
 -1      2228 1.95130E+01 3.59827E+00-9.62106E-03 9.95050E-02 1.32210E-13-4.93139E-13
 -1      2229 1.95123E+01 3.59909E+00-9.62703E-03-8.00727E-02 9.40555E-14-5.05491E-13
 -1      2230 1.95391E+01 3.55889E+00-9.72263E-03 4.45743E-01 2.03136E-13-4.91180E-13
 -1      2231 1.95217E+01 3.58145E+00-1.01399E-02 2.64823E-01 1.65480E-13-4.98919E-13
 -1      2232 1.96792E+01 3.22094E+00-9.03238E-04 1.69703E-01 1.45382E-13-4.70767E-13
 -1      2233 1.96009E+01 3.46239E+00-1.06163E-02 7.89897E-01 2.55116E-13-4.53331E-13
 -1      2234 1.95646E+01 3.50938E+00-1.12117E-02 6.08375E-01 2.24597E-13-4.80254E-13
 -1      2235 1.97160E+01 3.15744E+00-4.99073E-04 4.88332E-01 2.06978E-13-4.60218E-13
 -1      2236 1.97115E+01 3.28871E+00-1.29558E-02 1.14335E+00 3.31569E-13-3.83023E-13
 -1      2237 1.96489E+01 3.37202E+00-1.28846E-02 9.54037E-01 2.83614E-13-4.27639E-13
 -1      2238 1.97929E+01 3.02382E+00 2.48228E-04 8.04190E-01 2.65648E-13-4.04380E-13
 -1      2239 1.98907E+01 3.00316E+00-1.81776E-02 1.49057E+00 3.90850E-13-2.76611E-13
 -1      2240 1.97912E+01 3.14442E+00-1.51825E-02 1.30008E+00 3.48259E-13-3.39539E-13
 -1      2241 1.99221E+01 2.79870E+00 1.92180E-03 1.11055E+00 3.24467E-13-3.36656E-13
 -1      2242 2.01690E+01 2.54379E+00-2.83966E-02 1.79494E+00 4.19700E-13-1.40901E-13
 -1      2243 2.00178E+01 2.78311E+00-1.70851E-02 1.62048E+00 3.85785E-13-2.21875E-13
 -1      2244 2.01168E+01 2.44824E+00 5.86310E-03 1.37651E+00 3.58609E-13-2.32272E-13
 -1      2245 1.98704E+01 2.68085E-01 4.72581E-03 2.85874E-01 2.24698E-13 1.60745E-13
 -1      2246 2.00312E+01 3.67851E-01 2.01590E-02 4.42956E-01 2.38060E-13 1.99342E-13
 -1      2247 2.02103E+01 6.34485E-01-2.22892E-03 7.05247E-01 2.79004E-13 5.80916E-14
 -1      2248 2.04016E+01 8.55551E-01 1.35246E-02-9.99989E-01-2.76881E-13-1.76758E-13
 -1      2249 2.01890E+01 6.26842E-01-4.68639E-03-6.92181E-01-2.48418E-13-1.80211E-13
 -1      2250 3.22454E+01 1.33312E+00-1.47914E-01 3.29739E-02-7.39270E-14 4.27436E-14
 -1      2251 3.12234E+01-5.80149E-01-6.27513E-02 9.61777E-01-1.12882E-13 7.00551E-14
 -1      2252 2.01239E+01 4.69672E-01 1.61963E-02-4.75335E-01-2.31245E-13-1.50782E-13
 -1      2253 1.99830E+01 3.44243E-01 7.27229E-05-3.04003E-01-2.00828E-13-1.63411E-13
 -1      2254 2.02448E+01 7.49163E-01-6.83152E-04-6.94442E-01-2.44757E-13-2.23027E-13
 -1      2255 1.99194E+01 2.59238E-01 1.08726E-02-1.66822E-01-1.78284E-13-1.52456E-13
 -1      2256 1.98405E+01 1.87754E-01 7.15803E-04-6.97177E-02-1.39412E-13-1.78480E-13
 -1      2257 2.00801E+01 4.15829E-01-3.63317E-03-3.11266E-01-2.00179E-13-2.02966E-13
 -1      2258 1.97961E+01 1.38253E-01 6.40653E-03 1.22358E-02-1.12134E-13-1.69600E-13
 -1      2259 1.97608E+01 9.58979E-02 7.18047E-04 6.54175E-02-9.94450E-14-1.60740E-13
 -1      2260 1.99589E+01 2.26870E-01-3.61579E-03-7.24712E-02-1.24966E-13-1.82433E-13
 -1      2261 1.97348E+01 6.59898E-02 3.58304E-03 1.10994E-01-1.20435E-13-1.94225E-13
 -1      2262 1.97273E+01 4.04624E-02 6.15493E-04 1.37429E-01-1.17194E-13-2.15103E-13
 -1      2263 1.98830E+01 1.14428E-01-2.92129E-03 6.79714E-02-1.35325E-13-2.27524E-13
 -1      2264 1.97155E+01 2.22345E-02 1.85818E-03 1.59555E-01-1.37993E-13-2.28014E-13
 -1      2265 1.97244E+01 7.03374E-03 4.98070E-04 1.69583E-01-1.15447E-13-2.53305E-13
 -1      2266 1.98431E+01 4.63130E-02-2.12479E-03 1.43917E-01-1.46515E-13-2.18041E-13
 -1      2267 1.97223E+01-3.80968E-03 7.97629E-04 1.76910E-01-8.15873E-14-2.69920E-13
 -1      2268 1.97403E+01-1.23899E-02 3.89702E-04 1.77064E-01-7.27165E-14-2.82865E-13
 -1      2269 1.98288E+01 5.36446E-03-1.44286E-03 1.78344E-01-1.26297E-13-2.41978E-13
 -1      2270 1.97444E+01-1.83828E-02 1.49278E-04 1.75437E-01-7.70627E-14-2.66416E-13
 -1      2271 1.97664E+01-2.26033E-02 3.04794E-04 1.69996E-01-7.14452E-14-2.58259E-13
 -1      2272 1.98312E+01-1.81803E-02-9.29661E-04 1.86800E-01-6.97169E-14-2.43976E-13
 -1      2273 1.97741E+01-2.53419E-02-2.32024E-04 1.63406E-01-5.98742E-14-2.77687E-13
 -1      2274 1.97973E+01-2.66501E-02 2.50617E-04 1.55237E-01-6.26795E-14-2.85226E-13
 -1      2275 1.98437E+01-3.02440E-02-5.69264E-04 1.79891E-01-9.45495E-14-2.37046E-13
 -1      2276 1.98067E+01-2.71788E-02-4.37018E-04 1.46428E-01-7.74501E-14-2.61945E-13
 -1      2277 1.98294E+01-2.65205E-02 2.29293E-04 1.37478E-01-6.33453E-14-2.55327E-13
 -1      2278 1.98618E+01-3.46066E-02-3.30753E-04 1.64907E-01-5.83935E-14-2.40191E-13
 -1      2279 1.98396E+01-2.55272E-02-5.26086E-04 1.28349E-01-4.54649E-14-2.32645E-13
 -1      2280 1.98610E+01-2.35134E-02 2.41282E-04 1.19961E-01 1.41181E-14-2.12713E-13
 -1      2281 1.98825E+01-3.37374E-02-1.85439E-04 1.46888E-01-4.32842E-14-1.90882E-13
 -1      2282 1.98714E+01-2.14391E-02-5.40622E-04 1.11851E-01-1.05703E-14-2.71411E-13
 -1      2283 1.98914E+01-1.84428E-02 2.87397E-04 1.04981E-01-2.03727E-14-2.92524E-13
 -1      2284 1.99041E+01-2.92375E-02-1.10444E-04 1.29360E-01-7.79772E-15-2.77842E-13
 -1      2285 1.99018E+01-1.55482E-02-5.09284E-04 9.88685E-02-4.89549E-14-2.89485E-13
 -1      2286 1.99208E+01-1.17669E-02 3.69633E-04 9.42377E-02-6.86164E-14-3.02359E-13
 -1      2287 1.99260E+01-2.20956E-02-8.86085E-05 1.14852E-01-5.00722E-14-3.12430E-13
 -1      2288 1.99314E+01-8.17710E-03-4.51877E-04 9.08949E-02-8.23686E-14-2.87600E-13
 -1      2289 1.99500E+01-3.67550E-03 4.91339E-04 8.91079E-02-1.12704E-13-2.78160E-13
 -1      2290 1.99480E+01-1.28501E-02-1.07427E-04 1.05273E-01-7.48039E-14-2.35297E-13
 -1      2291 1.99612E+01 5.86803E-04-3.81983E-04 8.92120E-02-9.91279E-14-2.16402E-13
 -1      2292 1.99806E+01 5.84378E-03 6.56979E-04 9.08403E-02-9.86415E-14-1.51420E-13
 -1      2293 1.99709E+01-1.70136E-03-1.57932E-04 1.02199E-01-8.72633E-14-1.54860E-13
 -1      2294 1.99929E+01 1.08312E-02-3.08810E-04 9.50590E-02-1.05605E-13-1.61734E-13
 -1      2295 2.00144E+01 1.69498E-02 8.71552E-04 1.00704E-01-6.48178E-14-1.88256E-13
 -1      2296 1.99955E+01 1.14027E-02-2.33702E-04 1.07079E-01-8.65646E-14-6.29609E-14
 -1      2297 2.00285E+01 2.27642E-02-2.38500E-04 1.09752E-01-1.07774E-13-2.15893E-13
 -1      2298 2.00537E+01 2.98925E-02 1.13969E-03 1.20083E-01-1.36609E-13-2.24573E-13
 -1      2299 2.00231E+01 2.66913E-02-3.29837E-04 1.21393E-01-9.04515E-14-1.02602E-13
 -1      2300 2.00705E+01 3.66565E-02-1.75053E-04 1.34756E-01-9.81839E-14-2.10163E-13
 -1      2301 2.01013E+01 4.49490E-02 1.46418E-03 1.50526E-01 7.60026E-15-2.82301E-13
 -1      2302 2.00555E+01 4.44940E-02-4.42075E-04 1.46737E-01-1.17664E-13-8.24057E-14
 -1      2303 2.01217E+01 5.27677E-02-1.20828E-04 1.71700E-01 7.47588E-14-3.09834E-13
 -1      2304 2.01601E+01 6.23363E-02 1.84374E-03 1.93729E-01 7.41630E-14-2.70644E-13
 -1      2305 2.00945E+01 6.51472E-02-5.66068E-04 1.84869E-01 1.24960E-14-1.86105E-13
 -1      2306 2.01854E+01 7.12425E-02-7.64889E-05 2.22325E-01 7.03738E-14-2.16757E-13
 -1      2307 2.02338E+01 8.20812E-02 2.26938E-03 2.51438E-01 1.12404E-13-1.80352E-13
 -1      2308 2.01424E+01 8.88659E-02-6.96991E-04 2.37661E-01 9.83429E-14-2.37373E-13
 -1      2309 2.02650E+01 9.19503E-02-4.01178E-05 2.88332E-01 8.87537E-14-1.55948E-13
 -1      2310 2.03258E+01 1.03818E-01 2.71917E-03 3.25229E-01 5.84847E-14-1.19345E-13
 -1      2311 2.02015E+01 1.15549E-01-8.29788E-04 3.06973E-01 9.74272E-14-1.71499E-13
 -1      2312 2.03645E+01 1.14233E-01-5.01051E-06 3.71078E-01-1.87778E-15-1.10051E-13
 -1      2313 2.04403E+01 1.26465E-01 3.15035E-03 4.16103E-01-1.76463E-14-1.48323E-13
 -1      2314 2.02745E+01 1.44477E-01-9.60749E-04 3.94371E-01 1.72792E-14-8.39382E-14
 -1      2315 2.04879E+01 1.36507E-01 4.46349E-05 4.71057E-01-1.85999E-14-1.52600E-13
 -1      2316 2.05810E+01 1.47730E-01 3.48854E-03 5.23813E-01 5.11986E-14-1.53436E-13
 -1      2317 2.03642E+01 1.73837E-01-1.09150E-03 5.00659E-01-2.10584E-14-5.98994E-14
 -1      2318 2.06394E+01 1.55659E-01 1.41127E-04 5.87054E-01 4.80851E-14-1.73432E-13
 -1      2319 2.07518E+01 1.63362E-01 3.61393E-03 6.45792E-01-1.13936E-14-5.77035E-14
 -1      2320 2.04737E+01 2.00002E-01-1.23699E-03 6.25118E-01 1.54815E-14-1.82219E-13
 -1      2321 2.08235E+01 1.66161E-01 3.44595E-04 7.14827E-01 3.57574E-14-1.42163E-13
 -1      2322 2.09563E+01 1.66118E-01 3.34570E-03 7.75536E-01 7.23542E-14-4.89611E-14
 -1      2323 2.06069E+01 2.16480E-01-1.43892E-03 7.64330E-01 8.15288E-15-1.73569E-13
 -1      2324 2.10447E+01 1.58923E-01 7.57026E-04 8.45161E-01 2.04164E-14-1.09267E-13
 -1      2325 2.11977E+01 1.44538E-01 2.42903E-03 9.00305E-01 7.63732E-14-1.27883E-13
 -1      2326 2.07686E+01 2.12514E-01-1.78481E-03 9.10470E-01 2.38456E-14-1.95113E-13
 -1      2327 2.13086E+01 1.20096E-01 1.53189E-03 9.61162E-01 1.30299E-13-2.07971E-13
 -1      2328 2.14794E+01 8.19715E-02 5.34610E-04 9.98126E-01 5.79787E-14-2.13945E-13
 -1      2329 2.09663E+01 1.71557E-01-2.42629E-03 1.04890E+00 6.20776E-14-2.33909E-13
 -1      2330 2.16215E+01 3.06253E-02 2.85451E-03 1.03486E+00 1.84501E-14-2.83731E-13
 -1      2331 2.18049E+01-4.27935E-02-2.70713E-03 1.03451E+00 1.32882E-14-2.38291E-13
 -1      2332 2.12117E+01 7.04284E-02-3.57386E-03 1.15500E+00-7.42669E-15-2.45589E-13
 -1      2333 2.19905E+01-1.31444E-01 4.83623E-03 1.02383E+00 7.97524E-14-1.82960E-13
 -1      2334 2.21771E+01-2.50360E-01-7.55503E-03 9.60257E-01 1.70891E-13-5.87512E-14
 -1      2335 2.15224E+01-1.18684E-01-5.41180E-03 1.19049E+00 1.24003E-13-1.49885E-13
 -1      2336 2.24198E+01-3.81977E-01 7.28940E-03 8.70112E-01 1.30832E-13 6.42665E-14
 -1      2337 2.25938E+01-5.46213E-01-1.38000E-02 7.13982E-01 7.41213E-14 7.64799E-14
 -1      2338 2.19217E+01-4.18949E-01-7.80036E-03 1.10031E+00 1.61056E-13 9.26388E-14
 -1      2339 2.29004E+01-7.09950E-01 9.22968E-03 5.06729E-01-4.86245E-14 6.72322E-14
 -1      2340 2.30362E+01-8.91542E-01-2.00175E-02 2.35982E-01 1.16461E-14-4.47272E-14
 -1      2341 2.24313E+01-8.26183E-01-9.75603E-03 8.13998E-01-3.10186E-14 1.94536E-13
 -1      2342 2.33867E+01-1.04056E+00 7.99776E-03-1.17176E-01 1.36585E-13-2.85241E-14
 -1      2343 2.34481E+01-1.16136E+00-2.26317E-02-4.94072E-01 3.77840E-14 2.90290E-15
 -1      2344 2.30482E+01-1.26512E+00-8.85826E-03 2.59454E-01 3.31124E-14 1.38498E-13
 -1      2345 2.37670E+01-1.19710E+00-6.24356E-04-9.74652E-01-7.99994E-14 1.45096E-13
 -1      2346 2.37158E+01-1.12703E+00-1.59715E-02-1.38385E+00-8.00779E-14 1.52527E-13
 -1      2347 2.36995E+01-1.53712E+00-2.59604E-03-5.89156E-01 7.40952E-14 1.53374E-13
 -1      2348 2.38717E+01-9.21245E-01-1.71549E-02-1.86789E+00-2.55022E-14 2.53764E-13
 -1      2349 2.36944E+01-5.44066E-01 2.91920E-03-2.14634E+00 9.22826E-14 3.11304E-13
 -1      2350 2.42037E+01-1.33082E+00 6.87828E-03-1.60895E+00 3.12406E-14 3.81760E-13
 -1      2351 2.35669E+01-4.47858E-02-3.80976E-02-2.36939E+00-2.59575E-14 2.71267E-13
 -1      2352 2.33144E+01 5.72290E-01 1.90483E-02-2.30639E+00-8.85264E-14 2.17464E-13
 -1      2353 2.43184E+01-3.68895E-01 1.29215E-02-2.42111E+00-4.20818E-14 2.79853E-13
 -1      2354 2.29965E+01 1.16844E+00-4.43726E-02-2.01674E+00-7.26624E-14 9.70365E-14
 -1      2355 2.27818E+01 1.70695E+00 1.34984E-02-1.53968E+00-1.19488E-14-1.85418E-14
 -1      2356 2.39729E+01 1.11382E+00-1.11303E-02-2.42343E+00-1.78290E-13 2.88745E-13
 -1      2357 2.25356E+01 1.98030E+00-3.63191E-02-7.15175E-01 1.45377E-13-2.51785E-13
 -1      2358 2.25169E+01 2.00099E+00-1.72411E-02-3.26391E-02 1.10266E-13-1.94752E-13
 -1      2359 2.34552E+01 2.38966E+00-1.87484E-02-1.33458E+00-1.13010E-13 9.97223E-14
 -1      2360 2.26284E+01 1.75170E+00 1.54866E-02 7.60402E-01 4.68826E-14-2.21894E-13
 -1      2361 2.27208E+01 1.25524E+00-4.03103E-02 1.27485E+00-1.84078E-13-2.61215E-14
 -1      2362 2.34397E+01 2.41426E+00-2.57832E-02 4.14155E-01 1.04569E-14-2.19418E-13
 -1      2363 2.29875E+01 6.57461E-01 2.41050E-02 1.61472E+00-2.39439E-13 9.39080E-14
 -1      2364 2.31251E+01 2.62189E-02-3.95444E-02 1.70635E+00 3.88936E-15 2.21149E-13
 -1      2365 2.37414E+01 1.24093E+00-8.68633E-03 1.62705E+00-4.25441E-14-2.21299E-14
 -1      2366 2.32187E+01-4.94882E-01 6.74071E-03 1.51007E+00 5.63937E-14 2.66023E-13
 -1      2367 2.32893E+01-8.97914E-01-2.12867E-02 1.24485E+00 2.54256E-13 1.51957E-13
 -1      2368 2.40023E+01-2.92175E-01 1.19920E-02 1.70476E+00 5.29897E-14 1.82782E-13
 -1      2369 2.31014E+01-1.12103E+00-1.29410E-02 7.64849E-01 3.93133E-13 2.44230E-14
 -1      2370 2.30496E+01-1.20135E+00-2.50194E-03 3.56456E-01 3.13044E-13 2.60068E-15
 -1      2371 2.38149E+01-1.30340E+00 9.83845E-03 9.27216E-01 2.16483E-13 1.37680E-13
 -1      2372 2.26810E+01-1.15676E+00-2.13180E-02-1.26531E-01 1.71307E-13-7.76177E-14
 -1      2373 2.25207E+01-1.01422E+00 8.65517E-03-4.95208E-01 2.20899E-13 2.64736E-14
 -1      2374 2.32155E+01-1.53057E+00-9.75052E-04-9.73196E-02 1.86585E-13-1.80556E-13
 -1      2375 2.21081E+01-8.25125E-01-1.99209E-02-8.31597E-01 2.68102E-13 7.02886E-14
 -1      2376 2.18828E+01-5.87155E-01 1.28845E-02-1.06502E+00 8.02863E-14 1.46446E-13
 -1      2377 2.24478E+01-1.19649E+00-7.85054E-03-9.32321E-01 1.52319E-13-1.51387E-13
 -1      2378 2.15060E+01-3.50926E-01-1.41664E-02-1.21535E+00-9.51797E-14 2.96394E-13
 -1      2379 2.12564E+01-1.06314E-01 1.00823E-02-1.28214E+00-1.52856E-13 2.76654E-13
 -1      2380 2.17055E+01-6.13952E-01-8.89587E-03-1.40930E+00 5.34805E-14-4.56934E-14
 -1      2381 9.84313E+00-5.26106E+00 1.86643E-02 6.88643E+00 2.06113E-13-3.14082E-13
 -1      2382 7.05506E+00-4.89522E+00 2.75597E-02 5.62030E+00 1.04000E-13 2.99205E-14
 -1      2383 1.96224E+01 7.24768E-02 2.07176E-03-6.53807E-02 1.09138E-13 9.26468E-14
 -1      2384 1.96499E+01 1.04190E-01 6.89507E-03-1.92431E-02 1.37268E-13 1.29159E-13
 -1      2385 1.95986E+01 3.06069E-02 1.33659E-03-1.30936E-01 6.69718E-14 1.49179E-14
 -1      2386 1.95957E+01 4.94937E-02 3.67922E-03-1.08476E-01 8.23636E-14 5.96802E-14
 -1      2387 1.97673E+01 8.97281E-02-3.15328E-03-7.05829E-02 1.36079E-13-3.64021E-15
 -1      2388 1.96103E+01 5.64189E-03 8.72514E-04-1.59335E-01 8.23471E-14 3.53198E-14
 -1      2389 1.95905E+01 1.68504E-02 1.81783E-03-1.51113E-01 5.61192E-14 1.00708E-14
 -1      2390 1.97329E+01 3.57425E-02-2.28668E-03-1.42846E-01 7.39605E-14-3.08818E-14
 -1      2391 1.96423E+01-8.82784E-03 5.59979E-04-1.65095E-01 1.10573E-13 6.77370E-14
 -1      2392 1.96141E+01-2.47625E-03 7.20864E-04-1.65360E-01 1.17173E-13 5.91265E-14
 -1      2393 1.97294E+01 3.74973E-03-1.52263E-03-1.74636E-01 7.36238E-14-2.35507E-14
 -1      2394 1.96841E+01-1.64853E-02 3.48917E-04-1.57640E-01 2.75046E-14 9.03033E-14
 -1      2395 1.96529E+01-1.33021E-02 7.21084E-05-1.62692E-01 6.68553E-14 7.53569E-14
 -1      2396 1.97446E+01-1.45318E-02-9.51034E-04-1.81526E-01 8.41817E-14 5.08161E-14
 -1      2397 1.97292E+01-1.96203E-02 2.16390E-04-1.43235E-01 6.03493E-14 4.32830E-14
 -1      2398 1.96982E+01-1.85416E-02-2.98059E-04-1.50623E-01 3.90404E-14 6.86118E-14
 -1      2399 1.97701E+01-2.39076E-02-5.55554E-04-1.73823E-01 5.02654E-14 2.04399E-14
 -1      2400 1.97738E+01-1.97147E-02 1.47764E-04-1.26110E-01 1.72558E-13 2.73498E-14
 -1      2401 1.97447E+01-2.00494E-02-4.86996E-04-1.34182E-01 1.50502E-13 4.82615E-14
 -1      2402 1.98004E+01-2.73732E-02-2.97996E-04-1.58483E-01 9.86716E-14 4.26799E-15
 -1      2403 1.98159E+01-1.77335E-02 1.32794E-04-1.09153E-01 1.51085E-13-2.40795E-15
 -1      2404 1.97893E+01-1.90349E-02-5.56834E-04-1.16780E-01 1.76124E-13 1.20472E-14
 -1      2405 1.98320E+01-2.68631E-02-1.44016E-04-1.40255E-01 1.68807E-13 4.04806E-14
 -1      2406 1.98550E+01-1.42846E-02 1.65029E-04-9.43818E-02 5.36606E-14 3.55583E-14
 -1      2407 1.98309E+01-1.62775E-02-5.48976E-04-1.00767E-01 1.19955E-13 1.56931E-14
 -1      2408 1.98631E+01-2.36270E-02-6.72495E-05-1.22416E-01 1.10830E-13 2.16940E-14
 -1      2409 1.98914E+01-9.71577E-03 2.41526E-04-8.32668E-02-7.20528E-14 6.68609E-14
 -1      2410 1.98694E+01-1.22511E-02-4.91321E-04-8.78156E-02 3.44124E-15 7.10858E-14
 -1      2411 1.98930E+01-1.84398E-02-4.85367E-05-1.07287E-01-1.95881E-16 7.65255E-14
 -1      2412 1.99264E+01-4.17966E-03 3.62351E-04-7.69778E-02-3.62279E-14 7.14175E-14
 -1      2413 1.99055E+01-7.20331E-03-4.02454E-04-7.91976E-02-6.99770E-14 4.31715E-14
 -1      2414 1.99220E+01-1.17305E-02-7.44666E-05-9.65942E-02-2.38925E-14 8.19646E-14
 -1      2415 1.99619E+01 2.31852E-03 5.30001E-04-7.65631E-02 9.17827E-14 8.55347E-14
 -1      2416 1.99407E+01-1.21103E-03-2.94413E-04-7.59898E-02 4.23200E-14 9.60380E-14
 -1      2417 1.99508E+01-3.66928E-03-1.35898E-04-9.17403E-02-3.64114E-16 7.31243E-14
 -1      2418 2.00001E+01 9.88178E-03 7.48621E-04-8.30832E-02 7.30307E-14 3.08678E-14
 -1      2419 1.99772E+01 5.77661E-03-1.74690E-04-7.92264E-02 9.72230E-14 1.12637E-13
 -1      2420 1.99808E+01 5.76745E-03-2.26721E-04-9.40043E-02 7.91015E-14 1.40758E-13
 -1      2421 2.00439E+01 1.86837E-02 1.02293E-03-9.77025E-02 1.69059E-14 3.76597E-14
 -1      2422 2.00175E+01 1.39007E-02-4.77234E-05-9.00092E-02 6.52367E-14 4.66938E-14
 -1      2423 2.00140E+01 1.67417E-02-3.42860E-04-1.04686E-01 4.29994E-14 1.03034E-13
 -1      2424 2.00968E+01 2.89246E-02 1.35662E-03-1.21738E-01-3.15449E-14 1.45404E-14
 -1      2425 2.00645E+01 2.33530E-02 8.39222E-05-1.09576E-01 2.07185E-14 2.57516E-14
 -1      2426 2.00524E+01 2.94986E-02-4.81265E-04-1.25201E-01 5.68041E-15 7.64829E-14
 -1      2427 2.01625E+01 4.07736E-02 1.75001E-03-1.56654E-01 8.86026E-15-1.32768E-13
 -1      2428 2.01220E+01 3.43265E-02 2.18563E-04-1.39322E-01-3.27011E-14-4.94748E-14
 -1      2429 2.00988E+01 4.43002E-02-6.38959E-04-1.57118E-01 2.76569E-14 2.60499E-14
 -1      2430 2.02454E+01 5.42810E-02 2.19621E-03-2.03992E-01 1.43844E-13-1.29419E-13
 -1      2431 2.01939E+01 4.69456E-02 3.54569E-04-1.80761E-01 7.98203E-14-1.68316E-13
 -1      2432 2.01560E+01 6.13334E-02-8.12272E-04-2.02138E-01 8.64170E-14-1.72187E-13
 -1      2433 2.03502E+01 6.92432E-02 2.67535E-03-2.65183E-01 7.05171E-14-1.53963E-13
 -1      2434 2.02847E+01 6.11591E-02 4.89794E-04-2.35403E-01 1.43239E-13-1.36232E-13
 -1      2435 2.02275E+01 8.05729E-02-9.96392E-04-2.61973E-01 1.19002E-13-1.71972E-13
 -1      2436 2.04820E+01 8.49857E-02 3.14583E-03-3.41209E-01-1.98083E-14-1.80334E-13
 -1      2437 2.03993E+01 7.65708E-02 6.21415E-04-3.04494E-01 1.04573E-14-1.30808E-13
 -1      2438 2.03169E+01 1.01565E-01-1.18560E-03-3.38098E-01 3.20440E-14-1.42652E-13
 -1      2439 2.06455E+01 1.00025E-01 3.53189E-03-4.32016E-01-1.11649E-13-1.52530E-13
 -1      2440 2.05428E+01 9.21710E-02 7.46612E-04-3.88565E-01-7.41330E-14-1.76786E-13
 -1      2441 2.04279E+01 1.23086E-01-1.37488E-03-4.31314E-01-4.77579E-14-9.55632E-14
 -1      2442 2.08454E+01 1.11558E-01 3.70732E-03-5.35557E-01-1.90966E-13-2.48371E-13
 -1      2443 2.07202E+01 1.05923E-01 8.64739E-04-4.86677E-01-1.39801E-13-1.75470E-13
 -1      2444 2.05645E+01 1.42621E-01-1.56393E-03-5.41012E-01-8.44195E-14-1.49960E-13
 -1      2445 2.10849E+01 1.14751E-01 3.47757E-03-6.46331E-01-5.28539E-14-1.08460E-13
 -1      2446 2.09360E+01 1.14156E-01 9.81870E-04-5.95234E-01-1.93370E-13-1.98454E-13
 -1      2447 2.07306E+01 1.55592E-01-1.76431E-03-6.64032E-01-1.67707E-13-2.26138E-13
 -1      2448 2.13653E+01 1.01873E-01 2.56742E-03-7.53268E-01 2.41234E-14 1.10099E-13
 -1      2449 2.11937E+01 1.10768E-01 1.11823E-03-7.06196E-01 7.38064E-14-2.10630E-14
 -1      2450 2.09302E+01 1.54331E-01-2.00948E-03-7.92965E-01-9.41467E-14-4.07634E-14
 -1      2451 2.16850E+01 6.15956E-02 6.29695E-04-8.36988E-01-8.59537E-14 2.56854E-13
 -1      2452 2.14952E+01 8.63693E-02 1.31617E-03-8.04620E-01-7.35955E-14 2.13429E-13
 -1      2453 2.11677E+01 1.26944E-01-2.36323E-03-9.13771E-01-6.77287E-14 5.56330E-14
 -1      2454 2.20376E+01-2.07020E-02-2.68847E-03-8.66842E-01-9.12741E-15 3.92684E-13
 -1      2455 2.18391E+01 2.78969E-02 1.63648E-03-8.65626E-01-7.42326E-15 3.01214E-13
 -1      2456 2.14478E+01 5.66633E-02-2.91329E-03-1.00277E+00-1.15378E-13 2.15688E-14
 -1      2457 2.24103E+01-1.59644E-01-7.56736E-03-7.99216E-01-3.02080E-14 3.15912E-13
 -1      2458 2.22198E+01-7.99817E-02 2.12866E-03-8.51610E-01 5.73404E-14 4.69535E-13
 -1      2459 2.17762E+01-7.68113E-02-3.70746E-03-1.02351E+00-5.61111E-14 1.89353E-13
 -1      2460 2.27808E+01-3.60232E-01-1.36109E-02-5.80432E-01-3.23882E-14 1.37129E-13
 -1      2461 2.26231E+01-2.49090E-01 2.68807E-03-7.11939E-01-8.32745E-14 2.54811E-13
 -1      2462 2.21579E+01-2.90792E-01-4.56453E-03-9.25002E-01-3.72152E-15 3.03189E-13
 -1      2463 2.31106E+01-5.98436E-01-1.92851E-02-1.60853E-01-1.14296E-13 1.08896E-13
 -1      2464 2.30192E+01-4.73592E-01 2.84624E-03-3.90269E-01-6.83988E-14 1.36584E-13
 -1      2465 2.25918E+01-5.83070E-01-4.72016E-03-6.45409E-01-2.36970E-14 1.73454E-13
 -1      2466 2.33381E+01-7.94566E-01-2.13525E-02 4.71598E-01-2.91234E-14 1.86241E-13
 -1      2467 2.33512E+01-7.06142E-01 1.26112E-03 1.51682E-01-1.57191E-13 7.94408E-14
 -1      2468 2.30550E+01-9.02200E-01-2.67385E-03-1.29255E-01-1.00766E-13 2.18380E-13
 -1      2469 2.33763E+01-7.99707E-01-1.54373E-02 1.23425E+00 7.78032E-14 3.59455E-13
 -1      2470 2.35236E+01-8.32281E-01-3.86637E-03 8.85045E-01 2.00734E-14 2.15363E-13
 -1      2471 2.34785E+01-1.11308E+00 3.15173E-03 6.30349E-01 2.70079E-14 3.55664E-13
 -1      2472 2.31387E+01-4.50248E-01-1.54867E-04 1.89045E+00 6.50591E-14 4.60196E-13
 -1      2473 2.34162E+01-6.80942E-01-1.36361E-02 1.64303E+00 1.04503E-13 4.65460E-13
 -1      2474 2.37262E+01-9.96998E-01 1.12971E-02 1.51606E+00 6.22073E-14 3.50094E-13
 -1      2475 2.26278E+01 2.67444E-01 1.70550E-02 2.07534E+00 1.77312E-13 3.76717E-13
 -1      2476 2.29716E+01-1.33585E-01-2.21080E-02 2.09243E+00 1.38997E-13 3.73451E-13
 -1      2477 2.36409E+01-3.78753E-01 1.22622E-02 2.20774E+00 1.03082E-13 3.03203E-13
 -1      2478 2.20217E+01 1.05878E+00 1.89022E-02 1.50748E+00 5.21735E-14 3.32012E-13
 -1      2479 2.23139E+01 6.83674E-01-2.25053E-02 1.86954E+00 1.43693E-13 4.35415E-13
 -1      2480 2.32067E+01 6.61483E-01 5.04277E-04 2.26246E+00 1.83790E-13 3.13654E-13
 -1      2481 2.16678E+01 1.40540E+00 3.06529E-03 3.16461E-01-5.55250E-14 2.35470E-13
 -1      2482 2.17906E+01 1.31897E+00-4.54766E-03 8.90848E-01 1.05985E-13 2.32799E-13
 -1      2483 2.26826E+01 1.61045E+00-1.98480E-02 1.39826E+00 1.46272E-13 2.62235E-13
 -1      2484 2.17760E+01 1.03972E+00-2.00766E-02-8.93775E-01-2.10080E-13 3.29957E-13
 -1      2485 2.17007E+01 1.30987E+00 1.55600E-02-4.02119E-01-2.03587E-13 2.64341E-13
 -1      2486 2.24793E+01 1.82787E+00-2.87557E-02-4.96732E-02-1.55487E-13 3.47045E-13
 -1      2487 2.21995E+01 2.37873E-01-2.60082E-02-1.49809E+00-1.15249E-13 1.11449E-13
 -1      2488 2.20050E+01 6.63418E-01 2.24775E-02-1.31823E+00-5.20296E-14 2.22850E-13
 -1      2489 2.27186E+01 1.16219E+00-1.19884E-02-1.27942E+00-6.72223E-14 2.18808E-13
 -1      2490 2.25641E+01-4.79751E-01-1.77774E-02-1.32851E+00-1.30539E-13 6.58839E-14
 -1      2491 2.23763E+01-1.56094E-01 9.82011E-03-1.47003E+00-2.83551E-13 9.17530E-14
 -1      2492 2.30826E+01 8.04798E-02 1.03042E-02-1.65795E+00-2.30613E-13 1.86254E-13
 -1      2493 2.26206E+01-8.09789E-01-5.98795E-03-6.61401E-01 3.47916E-14 2.66399E-13
 -1      2494 2.25378E+01-6.98581E-01-7.96749E-03-9.79000E-01-1.15498E-14 2.84654E-13
 -1      2495 2.31872E+01-7.86279E-01 1.32205E-02-1.20749E+00-1.69453E-13 3.15872E-13
 -1      2496 2.23565E+01-7.63180E-01 2.96472E-03 1.05421E-01 3.66049E-13 4.60508E-13
 -1      2497 2.24067E+01-8.27028E-01-1.81282E-02-2.24047E-01 1.64953E-13 3.64628E-13
 -1      2498 2.29198E+01-1.11488E+00 6.43029E-03-3.56231E-01 2.20310E-14 4.07240E-13
 -1      2499 2.18886E+01-4.99148E-01 7.30415E-03 6.95830E-01 2.46167E-13 5.45500E-13
 -1      2500 2.20478E+01-6.52007E-01-1.91237E-02 4.59492E-01 3.13394E-13 5.77460E-13
 -1      2501 2.23985E+01-9.75322E-01-1.40618E-03 4.65796E-01 2.62154E-13 6.95387E-13
 -1      2502 2.13441E+01-1.56220E-01 1.01679E-02 9.94072E-01 3.32465E-13 4.06528E-13
 -1      2503 2.15638E+01-3.36995E-01-1.52930E-02 8.93256E-01 3.03592E-13 5.76519E-13
 -1      2504 2.17868E+01-5.81291E-01-5.35457E-03 1.02136E+00 2.71358E-13 7.75275E-13
 -1      2505 2.08045E+01 1.79458E-01 9.29451E-03 9.79677E-01-7.28071E-14 4.23935E-13
 -1      2506 2.10404E+01 1.42299E-02-9.04368E-03 1.02011E+00 1.50905E-13 4.98811E-13
 -1      2507 2.11945E+01-9.82135E-02-2.87219E-03 1.23860E+00 2.49485E-13 6.63975E-13
 -1      2508 2.05461E+01 3.30428E-01-6.33622E-04 8.45076E-01-7.64573E-14 2.89656E-13
 -1      2509 1.97055E+01 2.02189E+00-1.78887E-02 2.11459E+00-1.21691E-13-4.39819E-13
 -1      2510 1.99733E+01 1.70210E+00 1.23494E-02 2.16857E+00 2.12308E-15-5.77211E-13
 -1      2511 1.91485E+01 2.65114E+00-2.53603E-02 1.70057E+00-6.52083E-15-2.89983E-13
 -1      2512 1.94324E+01 2.37871E+00 1.05640E-02 1.95373E+00-9.87285E-14-2.36595E-13
 -1      2513 1.94270E+01 1.67022E+00-1.39879E-03 2.32894E+00 8.71588E-14-3.18576E-13
 -1      2514 2.04993E+01 9.00666E-01 3.94658E-03 1.80754E+00 1.47468E-14 2.35361E-13
 -1      2515 2.05908E+01 6.35262E-01 5.32106E-03 1.61701E+00-6.42201E-14 3.75254E-13
 -1      2516 2.01895E+01 1.40362E+00-6.00352E-03 2.10698E+00-1.76664E-13-2.98767E-13
 -1      2517 2.03704E+01 1.10064E+00 9.90503E-03 2.00730E+00-1.64706E-13 2.54812E-13
 -1      2518 2.05686E+01 5.85690E-01-7.14087E-03 2.11895E+00-2.33373E-13 5.29553E-14
 -1      2519 2.00953E+01 1.05289E+00-7.87070E-03 2.41249E+00-6.44506E-14-3.70450E-13
 -1      2520 1.87222E+01 3.11464E+00-2.37056E-02 8.62504E-01 5.27370E-14-2.54073E-13
 -1      2521 1.89110E+01 2.95447E+00 1.63347E-03 1.28998E+00 5.07905E-14-3.85250E-13
 -1      2522 1.87327E+01 2.29773E+00 1.16952E-02 1.73115E+00 2.21235E-14-2.80827E-13
 -1      2523 1.86167E+01 3.24469E+00-1.31870E-02-2.19363E-01 7.02771E-14-2.46208E-13
 -1      2524 1.86233E+01 3.23983E+00-1.22542E-02 2.80912E-01 1.73158E-14-7.03786E-14
 -1      2525 1.82774E+01 2.70778E+00 2.25424E-02 6.66221E-01 1.02068E-13-2.02757E-13
 -1      2526 1.88834E+01 2.98032E+00-2.07799E-05-1.24271E+00 7.12707E-14-8.26999E-14
 -1      2527 1.87048E+01 3.13366E+00-2.34242E-02-8.07338E-01 6.46698E-14-1.01685E-13
 -1      2528 1.82613E+01 2.72182E+00 2.23716E-02-5.97646E-01 1.41219E-13-1.64495E-13
 -1      2529 1.93870E+01 2.42810E+00 9.60428E-03-1.92423E+00 1.82784E-13-1.16030E-13
 -1      2530 1.91114E+01 2.69058E+00-2.55964E-02-1.66128E+00 1.20349E-13-1.62668E-13
 -1      2531 1.86902E+01 2.33652E+00 1.22480E-02-1.67822E+00 1.53677E-13-1.00042E-13
 -1      2532 1.99346E+01 1.75307E+00 1.25642E-02-2.17427E+00 2.28091E-13 2.30109E-13
 -1      2533 1.96618E+01 2.07236E+00-1.85136E-02-2.10532E+00 2.34646E-13-8.88634E-14
 -1      2534 1.93696E+01 1.72292E+00-6.65053E-04-2.30805E+00 2.18074E-13-7.14005E-14
 -1      2535 2.03509E+01 1.13607E+00 1.04635E-02-2.03457E+00 3.24972E-13 1.03419E-13
 -1      2536 2.01583E+01 1.44650E+00-7.04221E-03-2.12626E+00 2.81288E-13 2.66645E-13
 -1      2537 2.00486E+01 1.09742E+00-8.12440E-03-2.42746E+00 2.49312E-13 2.01592E-13
 -1      2538 2.05939E+01 6.71191E-01 1.09863E-02-1.65072E+00-5.60887E-14-2.15074E-13
 -1      2539 2.04874E+01 9.27500E-01 2.99914E-03-1.83802E+00 1.25910E-13-2.83873E-13
 -1      2540 2.05556E+01 6.16302E-01-5.05918E-03-2.14978E+00 2.08793E-13-1.39166E-13
 -1      2541 2.05265E+01 5.26291E-01-4.80965E-03-1.13866E+00-2.57273E-13 2.43025E-13
 -1      2542 4.14875E+00-2.97650E+00 1.07439E-01-1.70571E+00 5.03243E-13 1.79856E-14
 -1      2543 5.32521E+00-3.67064E+00 8.60221E-02-4.08795E+00 6.35325E-13 1.14908E-13
 -1      2544 1.97037E+01 1.43231E-01 3.27439E-03 6.06274E-02 1.44964E-13 1.33102E-13
 -1      2545 1.97824E+01 1.98022E-01 1.23625E-02 1.46804E-01 1.73634E-13 1.54347E-13
 -1      2546 1.98484E+01 1.80954E-01-3.79653E-03 6.62585E-02 1.62581E-13 4.95229E-14
 -1      2547 1.72365E+01-6.04994E+00-9.98966E-03 7.41067E+00 1.46494E-13-5.68014E-13
 -1      2548 1.34865E+01-5.97126E+00 3.22911E-02 7.20332E+00 2.05780E-13-5.86642E-13
 -1      2549 7.75415E+00-4.39005E+00 8.55903E-02-5.64280E+00 8.73634E-13 2.07001E-13
 -1      2550 1.09208E+01-4.99130E+00 3.43512E-02-7.05147E+00 8.01581E-13 5.72514E-13
 -1      2551 2.05472E+01 1.95507E+00-1.37213E-02-1.89606E+00-3.33778E-13-2.47385E-13
 -1      2552 2.04092E+01 1.20894E+00-8.81708E-03-1.28976E+00-3.05020E-13-2.12114E-13
 -1      2553 2.03820E+01 1.38488E+00 9.19458E-03-1.23870E+00-2.87149E-13-2.50720E-13
 -1      2554 2.02949E+01 2.39748E+00 7.03212E-04-1.83633E+00-3.19280E-13-3.34248E-13
 -1      2555 2.43263E+01-5.54082E+00-8.58772E-02 5.55162E+00 1.13465E-13-5.64770E-13
 -1      2556 2.07687E+01-6.12953E+00 2.42607E-02 6.43756E+00 1.17906E-13-4.72622E-13
 -1      2557 2.01519E+01-6.07063E+00 9.46155E-02 6.65749E+00 7.93809E-14-6.54274E-13
 -1      2558 2.93850E+01-2.30585E+00-3.03301E-02-9.89171E-01 1.05582E-13-1.88266E-13
 -1      2559 3.15164E+01 1.83372E-01-9.54007E-02 2.62775E-01 1.75873E-13-2.21378E-13
 -1      2560 3.33563E+01 6.33059E+00-1.08069E-01 1.18762E+00 4.96270E-13-1.00614E-13
 -1      2561 3.39697E+01 7.31025E+00-9.20072E-02 8.47376E-01 4.42868E-13-5.14311E-14
 -1      2562 1.95196E+01 3.58445E+00-1.00940E-02-2.45397E-01 6.16489E-14-5.26875E-13
 -1      2563 1.95356E+01 3.56374E+00-9.67139E-03-4.26221E-01 2.36775E-14-5.29825E-13
 -1      2564 1.97120E+01 3.16316E+00-5.64702E-04-4.73548E-01 1.00748E-14-4.94822E-13
 -1      2565 1.96778E+01 3.22304E+00-9.13620E-04-1.52073E-01 6.68442E-14-4.89609E-13
 -1      2566 3.39220E+01 7.66543E+00-9.27586E-02 3.16522E-01 3.23963E-13-1.05471E-15
 -1      2567 3.36852E+01 7.27194E+00-9.79749E-02-1.29623E-01 2.88825E-13 6.08125E-14
 -1      2568 2.37077E+01-5.43032E+00-1.66134E-02-4.61260E+00 1.07969E-13-2.15439E-13
 -1      2569 2.66419E+01-4.54658E+00-1.00546E-01-3.15401E+00 5.66908E-14-1.40582E-13
 -1      2570 3.34380E+01 5.80069E+00-1.11147E-01-5.39561E-01 1.52156E-13 4.76286E-14
 -1      2571 3.26845E+01 4.08616E+00-8.38622E-02-6.40920E-01 4.99600E-14 1.11022E-13
 -1      2572 3.21517E+01 2.90325E+00-7.16418E-02 1.28949E+00 3.86552E-13-1.78302E-13
 -1      2573 3.29946E+01 4.54380E+00-1.09550E-01 1.34832E+00 5.40207E-13-6.28664E-14
 -1      2574 6.52731E+00-3.45056E+00 8.85042E-02 4.69844E+00 6.15064E-14-3.72369E-13
 -1      2575 4.01817E+00-3.49656E+00 8.96094E-02 2.69750E+00 8.27949E-14-4.16167E-13
 -1      2576 1.77929E+01-5.97679E+00 1.96222E-02-6.31825E+00 2.34868E-13-7.94087E-14
 -1      2577 2.11440E+01-5.71321E+00-1.27075E-02-5.91834E+00 1.97176E-13-1.72889E-13
 -1      2578 2.32272E+01-5.74625E+00 6.40040E-02-4.67007E+00 3.15026E-14-7.38160E-14
 -1      2579 9.92139E+00-4.83925E+00 7.95180E-02-6.23385E+00 1.36724E-13-1.94011E-13
 -1      2580 1.38121E+01-5.52048E+00 1.67686E-02-6.95563E+00 2.42195E-13-2.35922E-14
 -1      2581 1.72071E+01-5.46587E+00 1.05688E-01-6.36095E+00 8.88178E-14-4.34236E-14
 -1      2582 4.90317E+00-3.30652E+00 1.24991E-01-3.40751E+00 1.36308E-13-3.37230E-13
 -1      2583 6.80298E+00-3.58799E+00 1.00513E-01-5.06533E+00 1.46466E-13-4.29434E-13
 -1      2584 2.97081E+00-3.26848E+00 7.42815E-02 8.30727E-01 9.75331E-14-5.47506E-13
 -1      2585 3.39337E+00-3.03872E+00 1.04336E-01-1.65026E+00 1.29285E-13-4.54026E-13
 -1      2586 5.89375E+00-1.95572E+00 1.33942E-01-2.37578E+00 7.97348E-14-4.83252E-13
 -1      2587 5.52907E+00-1.84701E+00 1.59462E-01 1.63973E+00 2.16771E-14-5.52086E-13
 -1      2588 1.45404E+01-5.52886E+00 4.44177E-02 6.94485E+00-3.03979E-13-3.61391E-13
 -1      2589 1.07222E+01-4.77908E+00 9.66733E-02 6.35915E+00-1.57652E-13-3.76893E-13
 -1      2590 2.22812E+01-5.68403E+00-6.09766E-02 5.54952E+00-1.90736E-13-6.27526E-13
 -1      2591 1.82574E+01-5.98911E+00 2.98881E-02 6.21140E+00-2.94792E-13-3.89161E-13
 -1      2592 2.89253E+01-3.04956E+00-6.63637E-02 2.51037E+00-7.91034E-16-8.71581E-13
 -1      2593 2.59713E+01-4.56338E+00 4.27675E-03 3.48212E+00 9.96425E-15-8.39162E-13
 -1      2594 3.19978E+01 8.88075E-01-1.55095E-01-4.05504E-01-3.40283E-14-6.90115E-13
 -1      2595 3.05152E+01-1.09605E+00-4.54430E-02 8.19094E-01-4.83606E-14-7.13984E-13
 -1      2596 2.94754E+01-2.54588E+00 1.39210E-02 4.18403E-01-3.22884E-14-7.86066E-13
 -1      2597 3.23458E+01 5.17065E+00-1.77337E-01-1.66638E+00-2.79055E-13-2.79554E-13
 -1      2598 3.23985E+01 3.36016E+00-6.58822E-02-1.39095E+00-1.92929E-13-4.98934E-13
 -1      2599 3.37717E+01 7.70217E+00-3.96928E-02-3.98230E-01-5.19695E-13-3.25542E-13
 -1      2600 3.27209E+01 7.10146E+00-1.19293E-01-9.55489E-01-3.77920E-13-1.43358E-13
 -1      2601 3.38380E+01 6.14702E+00-6.97422E-02 3.80882E-01-2.50577E-13-4.16250E-13
 -1      2602 3.40208E+01 7.22721E+00-1.05429E-01 1.28674E-01-3.23686E-13-3.40242E-13
 -1      2603 3.23743E+01 2.01764E+00-4.70865E-02 8.65238E-02-3.31318E-13-6.88838E-13
 -1      2604 3.35126E+01 4.05242E+00-1.02423E-01 3.56702E-01-4.17194E-13-6.12621E-13
 -1      2605 2.89523E+01-3.11059E+00-1.55861E-02-2.66160E+00-2.13982E-13-5.01654E-13
 -1      2606 3.13028E+01-1.00943E+00-1.25143E-01-1.34763E+00-2.94733E-13-6.50924E-13
 -1      2607 2.30561E+01-5.83746E+00 3.93329E-02-5.64729E+00 2.33646E-13-2.77278E-13
 -1      2608 2.64794E+01-4.84580E+00-6.72578E-02-4.69509E+00-9.06775E-14-4.99878E-13
 -1      2609 1.48729E+01-5.91955E+00 7.03366E-02-7.20983E+00 7.32303E-13 3.75394E-13
 -1      2610 1.88724E+01-6.14232E+00-3.59286E-02-7.21722E+00 5.23859E-13-7.39166E-14
 -1      2611 5.06432E+00-4.06203E+00 6.46733E-02 4.15721E+00 7.39131E-14 2.95985E-13
 -1      2612 3.98973E+00-3.10650E+00 1.06533E-01 1.62055E+00 3.00496E-13 5.21805E-15
 -1      2613 2.04901E+01 8.74906E-01-7.31489E-03 1.22707E+00 3.46553E-13 2.77511E-13
 -1      2614 2.08407E+01 1.25692E+00-6.05117E-03 1.72776E+00 3.66498E-13 3.25236E-13
 -1      2615 2.06466E+01 1.71562E+00-1.57893E-02 1.92194E+00 3.98839E-13 1.79131E-13
 -1      2616 2.04488E+01 1.05796E+00-9.39071E-03 1.24189E+00 3.48508E-13 9.33218E-14
 -1      2617 3.00522E+01-2.49000E+00-6.75872E-02 2.38242E+00-1.17309E-13 1.26954E-13
 -1      2618 2.76751E+01-4.19728E+00 6.30819E-03 3.34110E+00 6.78069E-14-1.88849E-13
 -1      2619 3.00068E+01-2.17145E+00-5.93872E-04 5.87155E-01-1.67871E-13-1.09801E-13
 -1      2620 3.13507E+01 6.21551E+00-5.82736E-02-8.70202E-01 2.74614E-13 2.42528E-13
 -1      2621 1.99133E+01 2.81023E+00 1.12941E-03-1.09778E+00-1.46476E-13-4.90696E-13
 -1      2622 1.97803E+01 3.15607E+00-1.61816E-02-1.28748E+00-1.65219E-13-5.20685E-13
 -1      2623 1.98832E+01 3.01266E+00-1.85346E-02-1.47743E+00-2.17090E-13-4.89279E-13
 -1      2624 1.99943E+01 3.40178E-01-3.49880E-03 3.05288E-01 2.16755E-13 4.46019E-14
 -1      2625 2.04223E+01 2.11574E+00-1.27794E-02 1.87497E+00 4.10328E-13 9.15761E-15
 -1      2626 2.63924E+01-5.20878E+00 3.47450E-02 3.91961E+00-8.85403E-15-2.94514E-13
 -1      2627 8.48571E+00-2.97836E+00 1.52879E-01-4.91719E+00 6.60152E-13 1.02113E-13
 -1      2628 1.33631E+01-5.05521E+00 1.05690E-01 7.07069E+00 3.77753E-14-6.39155E-13
 -1      2629 2.06587E+01 3.38302E-01-3.78933E-04 1.11921E+00 1.72751E-15 6.95202E-13
 -1      2630 2.06605E+01 4.73539E-01 3.30947E-03 1.30812E+00 8.36332E-14 6.79344E-13
 -1      2631 7.87383E+00-3.33737E+00 1.27787E-01 4.94285E+00 2.23432E-14 1.58040E-13
 -1      2632 2.08219E+01 2.37071E-01 1.08079E-02-1.20395E+00-1.81767E-13 2.14984E-13
 -1      2633 2.06823E+01 4.99352E-01 3.48640E-03-1.46068E+00-1.96242E-13 4.62469E-14
 -1      2634 2.08430E+01 2.65125E-01-7.83683E-03-1.72565E+00-1.36345E-13-1.38652E-13
 -1      2635 2.10330E+01 4.49701E-02-9.52448E-03-1.27475E+00-1.22010E-13 2.72390E-13
 -1      2636 1.45297E+01-4.90211E+00 1.35480E-01-6.96554E+00 7.84955E-13 4.54484E-13
 -1      2637 2.21317E+01-5.99034E+00 7.80375E-02-5.96465E+00 4.13419E-13-1.52850E-13
 -1      2638 5.10325E+00-2.23352E+00 1.74668E-01 1.84595E-02 3.22729E-13-7.08877E-14
 -1      2639 6.77950E+00-1.39613E+00 1.65560E-01-1.33046E+00 2.98383E-13-6.84730E-14
 -1      2640 6.64979E+00-1.48593E+00 1.53777E-01 1.66049E+00 2.36165E-13-1.33615E-13
 -1      2641 2.04363E+01 1.80800E+00 1.25482E-02 1.56277E+00 3.72472E-13-3.33743E-14
 -1      2642 3.05882E+01 8.69846E-01-8.62837E-02 1.57019E+00 2.64885E-13-2.06529E-13
 -1      2643 2.80677E+01-4.39283E+00 2.61332E-02-2.70647E+00-1.90681E-14-5.13423E-13
 -1      2644 3.09050E+01-1.28652E-01-3.20831E-02 3.06161E-01-3.08878E-13-7.41379E-13
 -1      2645 3.13283E+01 5.22052E+00-6.47055E-02 1.94884E+00 4.74093E-13-3.88023E-14
 -1      2646 2.81913E+01-3.79793E+00-2.77033E-02-1.52112E+00-1.03237E-13-1.36890E-13
 -1      2647 2.85347E+01-2.90177E+00-1.19088E-01 2.52147E-01-7.58768E-14-1.60427E-13
 -1      2648 2.67317E+01-4.67986E+00 4.09188E-02-1.98941E+00-1.14263E-13 6.91114E-15
 -1      2649 3.16724E+01 4.71326E+00-4.56951E-02 1.20125E+00-2.79748E-13-2.51243E-13
 -1      2650 3.13786E+01 7.13523E+00-6.22982E-02 1.35774E-02-4.34042E-13-2.04184E-13
 -1      2651 3.08263E+01 1.51563E+00-4.19063E-02-1.73935E+00-1.21625E-13-6.19893E-13
 -1      2652 1.01805E+01-3.52851E+00 1.33767E-01-5.59073E+00-2.20934E-14-2.18242E-13
 -1      2653 9.63316E+00-3.58202E+00 1.54463E-01 5.61293E+00-5.37903E-14-4.45866E-13
 -1      2654 9.13855E+00-2.15090E+00 1.68924E-01 4.56634E+00-8.07687E-14-5.59885E-13
 -1      2655 1.28080E+01-3.63098E+00 8.26522E-02 5.89548E+00-2.09624E-13-5.16767E-13
 -1      2656 2.01188E+01 2.61286E+00-9.99974E-03-1.67663E+00-2.76857E-13-4.07542E-13
 -1      2657 3.16096E+01 7.25758E+00-5.75774E-02 7.09787E-01 4.52804E-13-1.00440E-13
 -1      2658 3.11688E+01 2.17733E+00-5.04143E-02-1.12690E+00-4.92384E-14 3.73035E-14
 -1      2659 1.78680E+01-5.55009E+00 8.55012E-02 6.22776E+00-4.34264E-13-5.08038E-13
 -1      2660 2.48664E+01-5.36296E+00 4.00680E-02 3.83447E+00-1.62675E-13-8.99253E-13
 -1      2661 3.12061E+01 5.73929E+00-1.51508E-01-1.68875E+00-3.52440E-13-1.72806E-13
 -1      2662 2.94275E+01 4.58682E+00-5.81616E-02-2.32574E+00-3.84082E-13-2.12247E-13
 -1      2663 2.91165E+01 6.17781E+00-2.25832E-01-1.46327E+00-5.46035E-13-2.30441E-14
 -1      2664 2.08365E+01 2.53144E-01-5.06896E-03 1.57531E+00-3.45031E-14 4.60370E-13
 -1      2665 2.11674E+01-6.62110E-02-7.78181E-04-1.52235E+00-1.69702E-13-2.36638E-15
 -1      2666 1.98456E+01 2.76453E+00-6.29309E-03 5.16510E-01 2.15095E-13-4.09758E-13
 -1      2667 1.98208E+01 2.81427E+00-5.70293E-03 3.65602E-01 1.84647E-13-4.24111E-13
 -1      2668 1.98040E+01 2.85173E+00-5.62218E-03 2.30026E-01 1.50237E-13-4.43620E-13
 -1      2669 1.97955E+01 2.86862E+00-5.43454E-03 7.53076E-02 1.16223E-13-4.41550E-13
 -1      2670 1.99504E+01 2.50041E+00 3.63301E-03 2.65454E-01 1.45515E-13-4.08308E-13
 -1      2671 2.00442E+01 2.32339E+00-1.07418E-02 1.04646E+00 3.28119E-13-3.06154E-13
 -1      2672 1.99799E+01 2.47247E+00-6.33978E-03 9.10680E-01 2.99126E-13-3.34744E-13
 -1      2673 2.02167E+01 1.90837E+00-1.19602E-02 1.22805E+00 3.30985E-13-2.16008E-13
 -1      2674 2.01246E+01 2.14608E+00-4.78767E-03 1.13478E+00 3.26716E-13-2.76832E-13
 -1      2675 2.01901E+01 1.88614E+00 6.49288E-03 9.27248E-01 3.02306E-13-2.85877E-13
 -1      2676 2.02124E+01 7.26684E-01-3.45720E-03 6.43384E-01 2.51941E-13-3.16798E-14
 -1      2677 2.03543E+01 9.51559E-01 9.17024E-03 9.07058E-01 2.75609E-13-2.64758E-14
 -1      2678 2.91362E+01-4.54597E-01-9.17813E-02 1.73047E+00 6.79456E-14 1.82077E-14
 -1      2679 2.95053E+01 1.75551E+00-1.74887E-01 2.35581E+00 2.34146E-13 9.64506E-14
 -1      2680 2.93035E+01-1.69867E+00-1.69546E-01-3.94965E-01-2.29483E-13-2.14120E-13
 -1      2681 2.87513E+01-3.15434E+00-4.34468E-05 5.57732E-01-1.79207E-13-2.97942E-13
 -1      2682 2.00700E+01 4.15372E-01-1.38827E-03 2.88921E-01 1.92093E-13-2.98724E-14
 -1      2683 2.01706E+01 5.53131E-01 1.02638E-02 4.51203E-01 2.24174E-13-2.86416E-14
 -1      2684 2.02536E+01 8.22229E-01 1.02918E-03 6.17895E-01 2.41295E-13-1.15919E-13
 -1      2685 2.90885E+01 6.05753E+00-2.01918E-01-5.76040E-01 3.08503E-13-6.86812E-14
 -1      2686 2.90504E+01 4.96211E+00-1.29617E-01-1.45071E+00 1.53461E-13 5.49560E-15
 -1      2687 2.03377E+01 1.50019E+00-1.89784E-03 1.26755E+00 3.37378E-13-6.80480E-14
 -1      2688 2.02152E+01 6.26699E-01 7.79782E-03-4.38123E-01-2.02611E-13-2.31952E-13
 -1      2689 2.01320E+01 4.75521E-01-3.16774E-03-2.79203E-01-1.73836E-13-2.28031E-13
 -1      2690 2.01058E+01 3.62218E-01 6.62887E-03-1.59616E-01-1.46216E-13-2.11471E-13
 -1      2691 2.00467E+01 2.67535E-01-1.73168E-03-6.19532E-02-1.19995E-13-2.24184E-13
 -1      2692 2.01954E+01 5.28323E-01-1.55713E-03-2.63057E-01-1.69710E-13-2.30313E-13
 -1      2693 2.00206E+01 1.97295E-01 4.55217E-03 1.32953E-02-1.11162E-13-2.27823E-13
 -1      2694 1.99847E+01 1.37809E-01-8.20094E-04 6.98377E-02-1.23430E-13-2.32098E-13
 -1      2695 2.01263E+01 2.98441E-01-2.02071E-03-5.65201E-02-1.31162E-13-2.44499E-13
 -1      2696 1.99637E+01 9.37690E-02 2.90312E-03 1.13206E-01-1.30335E-13-2.11439E-13
 -1      2697 1.99456E+01 5.66313E-02-2.84619E-04 1.42677E-01-1.39491E-13-2.11097E-13
 -1      2698 2.00698E+01 1.52357E-01-1.89452E-03 7.06727E-02-1.29199E-13-2.19006E-13
 -1      2699 1.99306E+01 2.93514E-02 1.73591E-03 1.64250E-01-1.43692E-13-2.05667E-13
 -1      2700 1.99248E+01 6.83696E-03 2.06974E-05 1.76287E-01-1.08980E-13-2.02863E-13
 -1      2701 2.00287E+01 6.03642E-02-1.52814E-03 1.41813E-01-1.33456E-13-2.04679E-13
 -1      2702 1.99151E+01-9.34894E-03 9.27740E-04 1.83611E-01-6.36118E-14-1.82684E-13
 -1      2703 1.99171E+01-2.20734E-02 1.89175E-04 1.84857E-01-5.05668E-14-1.75786E-13
 -1      2704 2.00016E+01 3.96553E-03-1.15272E-03 1.74948E-01-7.36555E-14-1.78577E-13
 -1      2705 1.99114E+01-3.07695E-02 3.84965E-04 1.83420E-01-7.70692E-14-1.56367E-13
 -1      2706 1.99182E+01-3.68573E-02 2.82742E-04 1.78469E-01-8.57837E-14-1.55523E-13
 -1      2707 1.99853E+01-2.84797E-02-8.38036E-04 1.83630E-01-6.02573E-14-1.01410E-13
 -1      2708 1.99155E+01-4.04407E-02 3.29969E-05 1.72197E-01-8.68907E-14-1.58268E-13
 -1      2709 1.99249E+01-4.19942E-02 3.38543E-04 1.64240E-01-5.38343E-14-1.61335E-13
 -1      2710 1.99770E+01-4.46171E-02-5.96177E-04 1.77695E-01-8.94210E-14-7.18693E-14
 -1      2711 1.99243E+01-4.20553E-02-1.85596E-04 1.55920E-01-8.00160E-14-1.56690E-13
 -1      2712 1.99350E+01-4.04754E-02 3.79470E-04 1.47188E-01-4.52705E-14-1.90628E-13
 -1      2713 1.99744E+01-4.95609E-02-4.20947E-04 1.64190E-01-6.64316E-14-1.18692E-13
 -1      2714 1.99359E+01-3.80656E-02-3.14257E-04 1.38804E-01-1.52943E-14-2.19211E-13
 -1      2715 1.99472E+01-3.42584E-02 4.20638E-04 1.30880E-01-3.10647E-14-2.19489E-13
 -1      2716 1.99758E+01-4.67313E-02-3.01075E-04 1.48145E-01-5.69719E-14-1.68327E-13
 -1      2717 1.99492E+01-3.00409E-02-3.85570E-04 1.23870E-01-3.55283E-14-2.41268E-13
 -1      2718 1.99607E+01-2.45493E-02 4.72925E-04 1.17916E-01-2.83542E-14-2.25447E-13
 -1      2719 1.99799E+01-3.83539E-02-2.25231E-04 1.33175E-01-3.24300E-14-1.25248E-13
 -1      2720 1.99635E+01-1.88985E-02-4.23811E-04 1.13370E-01-2.69648E-14-1.99518E-13
 -1      2721 1.99755E+01-1.19930E-02 5.44812E-04 1.10298E-01-4.91466E-14-1.73083E-13
 -1      2722 1.99861E+01-2.57795E-02-1.83525E-04 1.21955E-01-2.43455E-14-2.07232E-13
 -1      2723 1.99791E+01-5.06589E-03-4.47084E-04 1.09106E-01-7.42144E-14-1.25532E-13
 -1      2724 1.99918E+01 3.18821E-03 6.43285E-04 1.09706E-01-6.46423E-14-1.00238E-13
 -1      2725 1.99940E+01-9.70406E-03-1.67491E-04 1.16576E-01-4.07225E-14-1.18488E-13
 -1      2726 1.99960E+01 1.13973E-02-4.68936E-04 1.12676E-01-9.15058E-14-1.26727E-13
 -1      2727 2.00102E+01 2.10847E-02 7.74010E-04 1.17704E-01-8.55039E-14-9.06190E-14
 -1      2728 2.00034E+01 9.66759E-03-1.70112E-04 1.18824E-01-6.86093E-14-9.00698E-14
 -1      2729 2.00151E+01 3.06948E-02-4.99398E-04 1.25643E-01-9.38947E-14-9.03472E-14
 -1      2730 2.00314E+01 4.19980E-02 9.41195E-04 1.35892E-01-8.39408E-14-1.12360E-13
 -1      2731 2.00145E+01 3.24867E-02-1.85301E-04 1.30379E-01-1.11652E-13-8.11903E-14
 -1      2732 2.00372E+01 5.31916E-02-5.45677E-04 1.49657E-01-9.33117E-14-1.33282E-13
 -1      2733 2.00565E+01 6.63347E-02 1.14707E-03 1.65984E-01-8.85732E-14-9.32701E-14
 -1      2734 2.00275E+01 5.91333E-02-2.07397E-04 1.52959E-01-1.10548E-13-9.08828E-14
 -1      2735 2.00633E+01 7.92995E-02-6.12303E-04 1.86507E-01-6.26932E-14-8.24037E-14
 -1      2736 2.00867E+01 9.44768E-02 1.39101E-03 2.09835E-01 2.27762E-14-1.46063E-13
 -1      2737 2.00426E+01 9.00786E-02-2.30921E-04 1.88390E-01-7.69472E-14-9.90926E-14
 -1      2738 2.00945E+01 1.09327E-01-7.00556E-04 2.38109E-01 7.13743E-14-1.64468E-13
 -1      2739 2.01232E+01 1.26604E-01 1.66820E-03 2.69390E-01 6.86662E-14-1.89294E-13
 -1      2740 2.00604E+01 1.25712E-01-2.50734E-04 2.38621E-01-1.19874E-15-3.29473E-14
 -1      2741 2.01324E+01 1.43267E-01-8.06900E-04 3.06414E-01 1.05186E-13-2.65027E-13
 -1      2742 2.01676E+01 1.62431E-01 1.96782E-03 3.46522E-01 8.31657E-14-2.62941E-13
 -1      2743 2.00810E+01 1.66104E-01-2.62971E-04 3.05650E-01 2.95520E-14-2.40632E-13
 -1      2744 2.01783E+01 1.80470E-01-9.19878E-04 3.93194E-01 1.05632E-13-2.61332E-13
 -1      2745 2.02213E+01 2.00803E-01 2.27093E-03 4.42752E-01 6.95157E-14-1.95778E-13
 -1      2746 2.01052E+01 2.10648E-01-2.67462E-04 3.91363E-01 1.10853E-13-3.83587E-13
 -1      2747 2.02341E+01 2.19155E-01-1.01469E-03 4.99678E-01-3.21709E-14-1.24493E-13
 -1      2748 2.02862E+01 2.39088E-01 2.54812E-03 5.58765E-01-2.13596E-14-1.35391E-13
 -1      2749 2.01333E+01 2.57533E-01-2.72826E-04 4.97243E-01 5.01771E-14-1.60891E-13
 -1      2750 2.03019E+01 2.55662E-01-1.04437E-03 6.25983E-01-2.68453E-14-1.14900E-13
 -1      2751 2.03647E+01 2.72263E-01 2.75722E-03 6.93681E-01-5.32657E-14-1.96190E-13
 -1      2752 2.01666E+01 3.02937E-01-3.05962E-04 6.23918E-01-1.86471E-14-8.71122E-14
 -1      2753 2.03851E+01 2.83356E-01-9.26182E-04 7.70235E-01 1.05278E-14-1.77578E-13
 -1      2754 2.04605E+01 2.91614E-01 2.84103E-03 8.43971E-01 6.26488E-14-1.49000E-13
 -1      2755 2.02072E+01 3.39863E-01-4.28134E-04 7.70506E-01-1.56481E-14-7.71796E-14
 -1      2756 2.04893E+01 2.91136E-01-5.22237E-04 9.27308E-01 1.84534E-14-8.61093E-14
 -1      2757 2.05799E+01 2.83044E-01 2.72281E-03 1.00192E+00 3.02034E-15-1.27862E-13
 -1      2758 2.02595E+01 3.56512E-01-7.59539E-04 9.33693E-01 7.37266E-14-1.16673E-14
 -1      2759 2.06239E+01 2.61614E-01 3.84478E-04 1.08701E+00 3.36350E-14-1.33571E-13
 -1      2760 2.07338E+01 2.25231E-01 2.29183E-03 1.15350E+00 3.82766E-14-2.16795E-13
 -1      2761 2.03321E+01 3.34241E-01-1.51234E-03 1.10643E+00-6.67622E-15-4.69714E-14
 -1      2762 2.08053E+01 1.69494E-01 2.11165E-03 1.23148E+00 1.68848E-14-2.15941E-13
 -1      2763 2.09409E+01 8.85606E-02 1.35873E-03 1.27547E+00 2.65839E-14-1.18376E-13
 -1      2764 2.04415E+01 2.45489E-01-3.02381E-03 1.27601E+00 3.57886E-14-7.80193E-14
 -1      2765 2.10606E+01-1.83223E-02 5.05856E-03 1.33147E+00 2.00631E-13-3.43734E-14
 -1      2766 2.12312E+01-1.62706E-01-4.55856E-04 1.33146E+00 2.46715E-13 9.35230E-14
 -1      2767 2.06163E+01 5.29463E-02-5.75665E-03 1.42106E+00 1.76224E-13-1.75062E-14
 -1      2768 2.14299E+01-3.37234E-01 9.53550E-03 1.34103E+00 1.84552E-13 1.48168E-13
 -1      2769 2.16456E+01-5.59405E-01-3.69839E-03 1.26721E+00 1.89473E-13 1.37275E-13
 -1      2770 2.09031E+01-2.86633E-01-1.01846E-02 1.50611E+00 2.63255E-13 1.15644E-13
 -1      2771 2.19624E+01-8.06474E-01 1.55187E-02 1.19208E+00 2.62649E-14 1.17360E-13
 -1      2772 2.22272E+01-1.09969E+00-9.02326E-03 1.00822E+00-4.10327E-14 2.19512E-13
 -1      2773 2.13681E+01-8.05855E-01-1.61061E-02 1.47310E+00 1.22951E-13 1.17741E-13
 -1      2774 2.26967E+01-1.39035E+00 2.14649E-02 7.91891E-01-1.17172E-13 2.42675E-13
 -1      2775 2.29926E+01-1.69220E+00-1.64001E-02 4.64411E-01-1.74439E-14 1.72737E-13
 -1      2776 2.20873E+01-1.48954E+00-2.18787E-02 1.23111E+00-9.91720E-14 1.98424E-13
 -1      2777 2.36039E+01-1.92247E+00 2.12221E-02 4.42218E-02 8.06188E-14 1.14729E-13
 -1      2778 2.38739E+01-2.07103E+00-2.33920E-02-4.24567E-01 2.58647E-14 9.05452E-14
 -1      2779 2.31036E+01-2.18980E+00-2.31266E-02 6.53594E-01-4.91833E-14 7.92450E-14
 -1      2780 2.45008E+01-2.02454E+00 4.40123E-03-1.05602E+00 1.25638E-13 1.37355E-13
 -1      2781 2.46514E+01-1.76452E+00-2.14098E-02-1.55847E+00 7.60984E-14 2.72609E-13
 -1      2782 2.43220E+01-2.53004E+00-2.29484E-02-3.77901E-01 1.10619E-13 1.15431E-13
 -1      2783 2.50593E+01-1.21188E+00-3.28418E-02-2.22068E+00-7.43153E-14 3.94513E-13
 -1      2784 2.50340E+01-3.34126E-01 2.92139E-03-2.50915E+00-1.01369E-13 3.39081E-13
 -1      2785 2.54048E+01-1.90513E+00-3.78013E-02-1.73556E+00 4.38469E-14 2.24577E-13
 -1      2786 2.49452E+01 7.43759E-01-8.16658E-02-2.71893E+00-1.23904E-13 3.57320E-13
 -1      2787 2.47078E+01 1.80890E+00-1.37656E-02-2.40529E+00-2.05377E-13 4.02921E-13
 -1      2788 2.59289E+01 1.34051E-01-1.53431E-02-2.72178E+00-1.30888E-13 3.03608E-13
 -1      2789 2.55484E+01 3.32129E+00-9.32312E-02-2.11380E+00-2.93168E-13 2.24253E-13
 -1      2790 2.53789E+01 4.07420E+00-8.58291E-02-1.27892E+00-2.71505E-13 1.06413E-13
 -1      2791 2.45723E+01 2.04887E+00-2.53419E-03 1.63271E+00 4.65877E-14-1.74379E-13
 -1      2792 2.46721E+01 8.71388E-01-9.59456E-02 1.92270E+00-2.84460E-14-4.99028E-14
 -1      2793 2.47990E+01-1.72904E-01 2.62300E-03 1.80030E+00 3.71179E-14-5.47279E-14
 -1      2794 2.47820E+01-1.10112E+00-4.51121E-02 1.52978E+00 1.20003E-13 6.86291E-14
 -1      2795 2.57025E+01 4.01659E-01-1.98737E-02 1.98741E+00 8.19414E-14-1.21889E-13
 -1      2796 2.44474E+01-1.68380E+00-1.70005E-02 9.04196E-01 8.55717E-14-4.00565E-14
 -1      2797 2.42505E+01-1.99614E+00-2.10182E-03 3.89180E-01 1.44076E-13-2.65697E-13
 -1      2798 2.53180E+01-1.72094E+00-1.09707E-02 1.05597E+00 3.20959E-14-1.03331E-13
 -1      2799 2.36402E+01-2.04422E+00-2.33602E-02-2.49109E-01 1.39840E-13-4.17776E-13
 -1      2800 2.33224E+01-1.88813E+00 1.91846E-02-7.22203E-01 1.36115E-13-4.08146E-13
 -1      2801 2.42931E+01-2.44205E+00-1.61228E-02-2.79436E-01 9.89647E-14-5.03503E-13
 -1      2802 2.26961E+01-1.62902E+00-1.94710E-02-1.15125E+00 2.00488E-13-3.62183E-13
 -1      2803 2.23497E+01-1.26162E+00 2.28973E-02-1.45882E+00 1.80526E-13-3.91235E-13
 -1      2804 2.30807E+01-2.10272E+00-2.27894E-02-1.32443E+00 1.64265E-13-5.35601E-13
 -1      2805 2.18405E+01-8.90266E-01-1.19606E-02-1.65515E+00 1.34909E-13-4.69605E-13
 -1      2806 2.15223E+01-4.90904E-01 1.57186E-02-1.76946E+00 6.63480E-14-3.92652E-13
 -1      2807 2.20266E+01-1.27305E+00-2.01082E-02-1.89453E+00 1.68837E-13-6.18398E-13
 -1      2808 1.38682E+01-3.77265E+00 1.66442E-01-6.49910E+00 8.50459E-13 7.68802E-13
 -1      2809 1.70751E+01-5.07429E+00-1.36359E-02-6.96002E+00 6.68299E-13 3.94351E-13
 -1      2810 1.02230E+01-3.07643E+00 1.18427E-01 5.78920E+00-2.07057E-14-1.64424E-13
 -1      2811 8.37400E+00-2.10242E+00 1.56664E-01 4.16754E+00 1.46549E-14 2.00673E-13
 -1      2812 1.98911E+01 1.18424E-01-2.45112E-04-7.00226E-02 1.22641E-13-5.61462E-14
 -1      2813 1.99261E+01 1.70025E-01 4.95965E-03-1.48232E-02 1.55460E-13-3.53473E-14
 -1      2814 1.98424E+01-1.76118E-02 2.65265E-04-1.83718E-01 4.65575E-14 2.50653E-14
 -1      2815 1.98339E+01-6.77686E-03 8.81084E-04-1.83052E-01 6.71450E-14 2.37118E-14
 -1      2816 1.98539E+01-3.03159E-02 2.90152E-04-1.76808E-01 6.72164E-14-2.52210E-14
 -1      2817 1.98408E+01-2.50618E-02 2.95697E-04-1.82129E-01 6.73023E-14 8.62473E-16
 -1      2818 1.99202E+01-2.38009E-02-8.70759E-04-1.86998E-01 7.23581E-14-9.36867E-14
 -1      2819 1.98708E+01-3.49995E-02 3.03301E-04-1.62067E-01 1.18282E-13-3.64045E-14
 -1      2820 1.98556E+01-3.35236E-02-6.87236E-05-1.70294E-01 7.33223E-14-2.99582E-14
 -1      2821 1.99207E+01-3.81404E-02-5.78893E-04-1.80447E-01 1.19506E-13-8.04836E-14
 -1      2822 1.98902E+01-3.41939E-02 3.20303E-04-1.44411E-01 1.27276E-13 3.84368E-14
 -1      2823 1.98745E+01-3.53040E-02-2.82136E-04-1.53418E-01 1.32289E-13 3.28235E-14
 -1      2824 1.99268E+01-4.28903E-02-3.77869E-04-1.66067E-01 9.98904E-14-4.27025E-14
 -1      2825 1.99107E+01-2.95544E-02 3.50782E-04-1.27293E-01 7.52007E-14 9.24351E-14
 -1      2826 1.98952E+01-3.24792E-02-3.94530E-04-1.35588E-01 1.33310E-13 1.09581E-13
 -1      2827 1.99364E+01-4.10425E-02-2.49121E-04-1.48926E-01 1.12356E-13 7.67616E-14
 -1      2828 1.99317E+01-2.21087E-02 4.01823E-04-1.13197E-01-4.89340E-14 8.04249E-14
 -1      2829 1.99164E+01-2.63818E-02-4.42018E-04-1.19701E-01 1.41194E-14 9.09362E-14
 -1      2830 1.99481E+01-3.45418E-02-1.76215E-04-1.32628E-01 4.38035E-14 1.83538E-13
 -1      2831 1.99530E+01-1.24186E-02 4.79395E-04-1.04009E-01-2.15025E-14 1.06213E-13
 -1      2832 1.99379E+01-1.78011E-02-4.50713E-04-1.07887E-01-2.58842E-14 1.28987E-13
 -1      2833 1.99612E+01-2.45778E-02-1.46133E-04-1.19801E-01-3.72619E-14 1.29290E-13
 -1      2834 1.99753E+01-6.97491E-04 5.88995E-04-1.01288E-01 5.16812E-14 1.05865E-13
 -1      2835 1.99598E+01-7.12069E-03-4.39400E-04-1.01826E-01 1.10104E-14 1.33535E-13
 -1      2836 1.99755E+01-1.17798E-02-1.48930E-04-1.12477E-01-6.05579E-16 1.82801E-13
 -1      2837 1.99996E+01 1.31006E-02 7.35795E-04-1.06470E-01 5.09807E-14 1.58017E-13
 -1      2838 1.99829E+01 5.57968E-03-4.21604E-04-1.02990E-01 5.01223E-14 1.07722E-13
 -1      2839 1.99912E+01 3.64180E-03-1.76722E-04-1.12362E-01 4.54076E-14 1.38297E-13
 -1      2840 2.00272E+01 2.92010E-02 9.24237E-04-1.21018E-01 2.67781E-14 1.59971E-13
 -1      2841 2.00082E+01 2.04408E-02-4.07057E-04-1.12807E-01 6.85195E-14 1.46316E-13
 -1      2842 2.00088E+01 2.17827E-02-2.23279E-04-1.21051E-01 5.62400E-14 1.26102E-13
 -1      2843 2.00597E+01 4.79259E-02 1.15722E-03-1.46506E-01 3.92130E-14 7.28543E-14
 -1      2844 2.00371E+01 3.77444E-02-4.02544E-04-1.32790E-01 3.67498E-14 7.27683E-14
 -1      2845 2.00290E+01 4.29416E-02-2.83437E-04-1.40164E-01 6.39437E-14 5.68948E-14
 -1      2846 2.00989E+01 6.95930E-02 1.43494E-03-1.84654E-01 5.73418E-14-6.61705E-14
 -1      2847 2.00715E+01 5.78233E-02-4.12335E-04-1.64585E-01 4.58704E-14-2.69195E-14
 -1      2848 2.00528E+01 6.75087E-02-3.52328E-04-1.71436E-01 1.01804E-13-3.32078E-14
 -1      2849 2.01471E+01 9.43787E-02 1.75288E-03-2.37280E-01 1.12954E-13-1.23490E-13
 -1      2850 2.01132E+01 8.09463E-02-4.38056E-04-2.09977E-01 1.11149E-13-8.12640E-14
 -1      2851 2.00813E+01 9.58271E-02-4.25223E-04-2.16724E-01 9.92408E-14-1.51496E-13
 -1      2852 2.02066E+01 1.22114E-01 2.09914E-03-3.06162E-01 1.19972E-13-1.10733E-13
 -1      2853 2.01644E+01 1.07153E-01-4.77682E-04-2.70795E-01 1.35270E-13-1.21650E-13
 -1      2854 2.01158E+01 1.28000E-01-4.97879E-04-2.77950E-01 1.31395E-13-5.78050E-14
 -1      2855 2.02799E+01 1.51973E-01 2.45048E-03-3.92751E-01-3.45759E-14 3.07477E-15
 -1      2856 2.02277E+01 1.36003E-01-5.23227E-04-3.48714E-01 2.98960E-14-2.71925E-14
 -1      2857 2.01576E+01 1.63607E-01-5.68005E-04-3.56927E-01 5.33237E-14 9.24370E-14
 -1      2858 2.03697E+01 1.81993E-01 2.76731E-03-4.97701E-01-2.40726E-14-7.09048E-15
 -1      2859 2.03056E+01 1.66195E-01-5.56462E-04-4.44894E-01-2.23473E-14 5.02784E-14
 -1      2860 2.02082E+01 2.01267E-01-6.38800E-04-4.55054E-01-4.08113E-14 1.85728E-13
 -1      2861 2.04790E+01 2.08357E-01 2.98727E-03-6.20102E-01-8.63408E-14-5.10597E-14
 -1      2862 2.04013E+01 1.94978E-01-5.41669E-04-5.59380E-01-9.94503E-15 3.01346E-14
 -1      2863 2.02696E+01 2.37984E-01-7.25984E-04-5.72810E-01-4.92553E-14 2.23953E-13
 -1      2864 2.06113E+01 2.24364E-01 3.01762E-03-7.56339E-01-2.62601E-13 3.42602E-14
 -1      2865 2.05184E+01 2.17293E-01-4.14439E-04-6.90184E-01-1.82684E-13-1.92566E-14
 -1      2866 2.03445E+01 2.68177E-01-8.70109E-04-7.08996E-01-1.59340E-13 2.00555E-13
 -1      2867 2.07715E+01 2.19080E-01 2.72660E-03-8.98423E-01-1.10091E-13 1.20243E-13
 -1      2868 2.06617E+01 2.24578E-01-6.63327E-05-8.31910E-01-1.72173E-13 6.14708E-14
 -1      2869 2.04370E+01 2.82333E-01-1.15549E-03-8.59612E-01-2.04019E-13 1.48442E-13
 -1      2870 2.09663E+01 1.75900E-01 1.93388E-03-1.03171E+00-8.36601E-14 1.44807E-13
 -1      2871 2.08382E+01 2.03339E-01 6.71770E-04-9.73778E-01-1.01074E-13 1.36180E-13
 -1      2872 2.05542E+01 2.65327E-01-1.73408E-03-1.01626E+00-1.56690E-13 3.03020E-14
 -1      2873 2.12069E+01 7.17779E-02 3.91855E-04-1.13199E+00-6.13014E-14 1.07895E-13
 -1      2874 2.10588E+01 1.33886E-01 2.03611E-03-1.09694E+00-4.45234E-14 1.76490E-13
 -1      2875 2.07084E+01 1.94791E-01-2.84549E-03-1.16391E+00-9.41136E-14 2.51502E-13
 -1      2876 2.15096E+01-1.20939E-01-2.22027E-03-1.16223E+00-5.22120E-14 9.43212E-14
 -1      2877 2.13398E+01-9.50048E-03 4.28886E-03-1.17106E+00-4.96169E-14 5.96111E-14
 -1      2878 2.09203E+01 4.07102E-02-4.81087E-03-1.27782E+00-4.52789E-14 1.99051E-13
 -1      2879 2.18956E+01-4.25976E-01-6.26483E-03-1.07001E+00-8.43661E-15 1.15745E-13
 -1      2880 2.17042E+01-2.54120E-01 7.63044E-03-1.15057E+00-5.14833E-16 1.36226E-13
 -1      2881 2.12221E+01-2.31015E-01-7.89368E-03-1.31945E+00-2.40793E-14 1.54771E-13
 -1      2882 2.23838E+01-8.40807E-01-1.17375E-02-7.88504E-01-3.71133E-14 2.38837E-13
 -1      2883 2.21770E+01-6.14895E-01 1.17456E-02-9.72263E-01-2.30517E-14 2.65057E-13
 -1      2884 2.16575E+01-6.45100E-01-1.18624E-02-1.23134E+00-6.17192E-14 1.99416E-13
 -1      2885 2.29689E+01-1.29424E+00-1.77116E-02-2.50651E-01-5.00164E-15 1.76461E-13
 -1      2886 2.27679E+01-1.06217E+00 1.53026E-02-5.60436E-01-2.26104E-14 2.48603E-13
 -1      2887 2.22708E+01-1.18363E+00-1.50691E-02-9.34047E-01-1.82038E-14 2.06124E-13
 -1      2888 2.35856E+01-1.59226E+00-2.09990E-02 5.69944E-01 8.77263E-14 1.93151E-13
 -1      2889 2.34344E+01-1.47289E+00 1.38264E-02 1.45589E-01 1.03297E-15 1.80066E-13
 -1      2890 2.30720E+01-1.72817E+00-1.43245E-02-3.38164E-01-1.05690E-14 4.52253E-15
 -1      2891 2.40693E+01-1.40232E+00-1.67856E-02 1.56411E+00-2.50939E-16 2.63850E-13
 -1      2892 2.40322E+01-1.57951E+00 1.21958E-03 1.11829E+00 5.23949E-14 2.74009E-13
 -1      2893 2.39707E+01-1.99465E+00-7.84397E-03 6.02397E-01 4.22613E-14 1.57110E-13
 -1      2894 2.41955E+01-4.07503E-01 1.21513E-03 2.35584E+00 2.27868E-13 1.47458E-13
 -1      2895 2.43050E+01-1.00723E+00-2.47695E-02 2.10738E+00 2.20634E-13 2.74149E-13
 -1      2896 2.47058E+01-1.54614E+00-3.23375E-03 1.76295E+00 1.29392E-13 1.83544E-13
 -1      2897 2.38787E+01 1.21627E+00 7.58184E-03 2.37578E+00 1.85352E-13 2.63497E-13
 -1      2898 2.40890E+01 3.42090E-01-5.80234E-02 2.54518E+00 1.60237E-13 3.16107E-13
 -1      2899 2.49338E+01-3.97496E-02-1.38252E-02 2.63895E+00 2.10620E-13 2.83572E-13
 -1      2900 2.34207E+01 2.54994E+00-5.13000E-03 1.26089E+00 6.20858E-14 3.63232E-13
 -1      2901 2.35714E+01 1.98905E+00-6.00304E-02 1.89455E+00 1.71375E-13 2.86988E-13
 -1      2902 2.46172E+01 1.90863E+00-2.31442E-02 2.37825E+00 1.40426E-13 5.43936E-13
 -1      2903 2.32993E+01 2.53130E+00-5.13038E-02-4.62697E-01-9.85531E-14 3.05506E-13
 -1      2904 2.32989E+01 2.74350E+00-2.86175E-02 2.94960E-01-2.71658E-14 3.95828E-13
 -1      2905 2.42549E+01 3.30748E+00-5.11229E-02 8.82304E-01-1.61954E-14 5.60513E-13
 -1      2906 2.36295E+01 1.15537E+00-7.20106E-02-1.65314E+00-4.41591E-14 2.11098E-13
 -1      2907 2.35279E+01 1.97141E+00 5.25575E-03-1.23903E+00-3.86288E-14 1.97528E-13
 -1      2908 2.43570E+01 2.76980E+00-3.78517E-02-9.92794E-01-8.84882E-14 3.13104E-13
 -1      2909 2.39458E+01-4.72962E-01-4.58044E-02-1.69105E+00-2.87339E-13 3.02279E-13
 -1      2910 2.38773E+01 3.19425E-01 1.46687E-02-1.77369E+00-1.94062E-13 2.60852E-13
 -1      2911 2.47034E+01 8.91332E-01-7.78457E-03-1.90641E+00-1.95337E-13 3.42143E-13
 -1      2912 2.38003E+01-1.43980E+00-1.37906E-02-8.75736E-01-4.11333E-14 2.01061E-13
 -1      2913 2.38543E+01-1.05624E+00-6.57958E-03-1.27153E+00-1.76074E-13 2.92006E-13
 -1      2914 2.47154E+01-9.67398E-01 4.70667E-03-1.46048E+00-1.46274E-13 1.62309E-13
 -1      2915 2.32176E+01-1.57226E+00 1.08019E-02 1.56658E-01 1.12650E-13 9.06168E-14
 -1      2916 2.34023E+01-1.59653E+00-1.80506E-02-2.93893E-01 4.59238E-14 9.65911E-14
 -1      2917 2.41280E+01-1.90024E+00 4.84643E-04-3.57779E-01 8.02748E-14-1.16127E-14
 -1      2918 2.24446E+01-1.17438E+00 1.84778E-02 9.71534E-01 1.55978E-13 2.94373E-13
 -1      2919 2.27041E+01-1.42550E+00-1.89405E-02 6.26753E-01 6.61415E-14 1.59697E-13
 -1      2920 2.31955E+01-1.87105E+00-9.91156E-03 7.19594E-01 5.90149E-14-1.44075E-13
 -1      2921 2.16951E+01-5.76667E-01 1.59997E-02 1.41917E+00 2.47638E-13 3.99996E-13
 -1      2922 2.19694E+01-8.95027E-01-1.54032E-02 1.24062E+00 2.64073E-13 4.62090E-13
 -1      2923 2.22505E+01-1.28584E+00-1.42432E-02 1.43211E+00 3.37052E-14-1.22760E-13
 -1      2924 2.11057E+01-2.77274E-02 1.06992E-02 1.56071E+00 9.31904E-14 3.47316E-13
 -1      2925 2.13671E+01-3.40111E-01-1.08230E-02 1.55039E+00 2.12736E-13 3.35176E-13
 -1      2926 2.15254E+01-5.84408E-01-5.37968E-03 1.79419E+00 1.44422E-13 1.40397E-14
 -1      2927 2.09782E+01 9.11408E-02 1.00999E-03 1.90636E+00-6.28636E-14 3.81692E-14
 -1      2928 1.74834E+01 2.30761E+00-1.63414E-02 4.55672E-01 2.28017E-13 1.90820E-17
 -1      2929 1.76857E+01 2.22147E+00 6.83969E-03 1.10239E+00 1.49804E-13-1.77045E-13
 -1      2930 2.12548E+01-2.37955E-01-5.48219E-03-1.78927E+00-2.60909E-14-3.36101E-13
 -1      2931 2.10641E+01 1.92390E-02 9.11358E-03-1.77061E+00-1.11406E-13-2.15996E-13
 -1      2932 2.09134E+01 1.59056E-01-6.34310E-04-1.99502E+00 5.14280E-14-5.17828E-13
 -1      2933 2.13390E+01-4.74640E-01-8.57996E-03-2.05404E+00 1.36833E-13-8.84514E-13
 -1      2934 1.90311E+01 1.27133E+00-2.63522E-02 2.54492E+00 1.02293E-13-3.38686E-13
 -1      2935 1.95637E+01 1.00733E+00 2.46716E-02 2.70079E+00 9.42623E-14-4.29117E-13
 -1      2936 1.76474E+01 2.24398E+00 3.86808E-03-1.02463E+00 1.07461E-13-2.87791E-13
 -1      2937 1.74682E+01 2.31734E+00-1.69785E-02-3.68817E-01 2.02988E-13-3.39570E-13
 -1      2938 1.69102E+01 1.96780E+00 2.74206E-02 4.77981E-02 2.05273E-13-1.86951E-13
 -1      2939 1.80391E+01 1.91133E+00-2.91167E-02 1.77526E+00-9.65955E-14-3.77362E-13
 -1      2940 1.85188E+01 1.69892E+00 2.29578E-02 2.21748E+00 2.51665E-14-1.75644E-13
 -1      2941 1.85087E+01 9.84984E-01 4.28602E-03 2.68640E+00 3.32560E-14-4.13751E-13
 -1      2942 1.73907E+01 1.66868E+00 2.23664E-02 1.64908E+00 6.29241E-14-1.85301E-13
 -1      2943 1.57777E+01-4.97341E+00 2.51466E-02 7.09086E+00 4.79061E-14-6.01255E-13
 -1      2944 1.26674E+01-3.98445E+00 1.49856E-01 6.56076E+00 7.01383E-14-5.02931E-13
 -1      2945 1.29350E+01-2.98825E+00 1.52620E-01 5.89773E+00-5.77316E-15-2.93598E-13
 -1      2946 1.84418E+01 1.74880E+00 2.13431E-02-2.15751E+00 9.02069E-14-2.13376E-13
 -1      2947 1.79815E+01 1.95007E+00-2.97176E-02-1.70623E+00 7.51699E-14-7.46491E-14
 -1      2948 1.73184E+01 1.70559E+00 1.81065E-02-1.55993E+00 9.86370E-14-2.12451E-13
 -1      2949 1.94816E+01 1.06520E+00 2.49909E-02-2.69174E+00 1.67969E-13-8.72896E-14
 -1      2950 1.89477E+01 1.32724E+00-2.67673E-02-2.51307E+00 9.07227E-14-8.88721E-14
 -1      2951 1.84102E+01 1.04609E+00 5.29092E-03-2.63691E+00 3.40422E-14-1.52761E-13
 -1      2952 2.03668E+01 4.61556E-01 1.52539E-02-2.61644E+00 2.98412E-13 2.98422E-13
 -1      2953 1.99557E+01 7.05941E-01-1.43104E-02-2.69635E+00 2.62276E-13 9.23666E-14
 -1      2954 1.96555E+01 3.33174E-01-1.16077E-02-2.97247E+00 1.91379E-13 8.14910E-14
 -1      2955 2.08162E+01 1.82923E-01 7.08452E-03-2.22211E+00 1.27177E-13-3.88755E-13
 -1      2956 2.05748E+01 3.68864E-01-3.21390E-03-2.43739E+00 3.12335E-13-3.32232E-14
 -1      2957 2.05327E+01-3.95278E-02-6.92553E-03-2.73051E+00 2.09887E-13 2.35049E-13
 -1      2958 2.10016E+01-1.33519E-01 4.73082E-03-2.29742E+00 1.73476E-13-6.00460E-13
 -1      2959 1.99609E+01 2.31055E-01-6.23207E-04 6.38821E-02 1.62363E-13-4.21602E-14
 -1      2960 2.00255E+01 3.14342E-01 7.49751E-03 1.61050E-01 1.69074E-13-3.09299E-14
 -1      2961 2.01463E+01 4.78559E-01-1.21491E-03 2.81227E-01 1.94188E-13-1.28216E-13
 -1      2962 2.00562E+01 2.67025E-01-2.08736E-03 6.21330E-02 1.66402E-13-1.29921E-13
 -1      2963 2.08161E+01-5.63809E+00 1.38681E-01-6.13046E+00 4.38288E-13-6.76924E-14
 -1      2964 2.39979E+01-5.96922E+00-1.03236E-01-4.98033E+00 3.51205E-13-3.76251E-13
 -1      2965 2.03198E+01 1.70959E+00-9.82450E-03-1.33233E+00-2.72625E-13-3.29271E-13
 -1      2966 2.02871E+01 1.32799E+00-7.04516E-03-1.03524E+00-2.52075E-13-2.94913E-13
 -1      2967 9.88570E+00-2.36818E+00 1.28292E-01-4.84325E+00-7.99638E-14-2.87270E-13
 -1      2968 1.27817E+01-3.66565E+00 8.03814E-02-6.12222E+00-4.36595E-14-1.01197E-13
 -1      2969 2.68166E+01-5.03235E+00 8.60181E-02-2.96008E+00 1.83707E-13-5.69669E-13
 -1      2970 2.83430E+01-4.03496E+00-1.80534E-01-1.47045E+00 2.32418E-14-7.36203E-13
 -1      2971 1.98404E+01 6.93639E-03 2.01384E-04-1.75738E-01 5.85547E-14-3.14855E-14
 -1      2972 1.98403E+01 2.60985E-02 1.78869E-03-1.64583E-01 4.84573E-14-5.48990E-14
 -1      2973 1.99287E+01 4.64226E-03-1.27053E-03-1.78526E-01 3.45670E-14-5.72098E-14
 -1      2974 1.98540E+01 4.91854E-02 5.23519E-05-1.42687E-01 5.88101E-14-4.39947E-14
 -1      2975 1.98680E+01 8.09767E-02 3.14078E-03-1.14389E-01 9.45206E-14-3.98657E-14
 -1      2976 1.99505E+01 5.40578E-02-1.78071E-03-1.44806E-01 6.25199E-14-8.36813E-14
 -1      2977 2.03185E+01 1.03577E+00 5.04916E-03-8.34176E-01-2.21182E-13-2.68066E-13
 -1      2978 2.02246E+01 7.98559E-01-5.21994E-03-5.93841E-01-2.04575E-13-2.60963E-13
 -1      2979 2.02613E+01 8.77897E-01 1.97972E-03-5.54639E-01-1.94955E-13-2.62145E-13
 -1      2980 2.02794E+01 1.38593E+00 1.93049E-03-9.20558E-01-2.18805E-13-3.20567E-13
 -1      2981 1.61684E+01-4.65046E+00 1.33876E-01-6.16660E+00 6.49480E-15-8.32667E-15
 -1      2982 1.94991E+01-5.43839E+00 1.81894E-02-5.77392E+00 1.26982E-14 4.07174E-14
 -1      2983 2.19900E+01-5.91877E+00-5.58467E-02 5.87912E+00 1.42067E-13-6.18028E-13
 -1      2984 1.93298E+01-5.41572E+00 1.37225E-01 6.50062E+00 1.49533E-13-6.59854E-13
 -1      2985 2.95251E+01 6.45331E+00-1.76291E-01 1.24065E+00 4.48031E-13-7.48776E-14
 -1      2986 2.93761E+01 6.74367E+00-2.01630E-01 3.03075E-01 4.03094E-13-3.14037E-14
 -1      2987 1.99238E+01 2.59544E+00-7.93269E-03 7.94988E-01 2.85104E-13-3.52454E-13
 -1      2988 1.98803E+01 2.68752E+00-6.14224E-03 6.45891E-01 2.37833E-13-3.86277E-13
 -1      2989 1.99991E+01 2.38784E+00 4.33410E-03 5.17094E-01 2.18045E-13-3.65063E-13
 -1      2990 2.00806E+01 2.19026E+00 5.71971E-03 7.46272E-01 2.71524E-13-3.22631E-13
 -1      2991 1.98753E+01 2.69651E+00-6.00663E-03-6.35661E-01-4.04594E-14-4.74445E-13
 -1      2992 1.99180E+01 2.60699E+00-7.58393E-03-7.84792E-01-8.27183E-14-4.79049E-13
 -1      2993 2.99258E+01 3.40660E+00-8.32286E-02 1.74773E+00-1.81105E-13-3.84998E-13
 -1      2994 2.98250E+01 5.00517E+00-2.20173E-01 1.29025E+00-1.87905E-13-2.26319E-13
 -1      2995 2.01620E+01-5.61871E+00-2.08033E-02 5.62026E+00-3.46639E-13-5.91711E-13
 -1      2996 1.69739E+01-4.79026E+00 1.02869E-01 6.02096E+00-3.63487E-13-3.72008E-13
 -1      2997 2.00854E+01 2.52654E+00-2.10782E-03-1.45809E+00-2.40073E-13-4.15697E-13
 -1      2998 2.93134E+01 2.74469E+00-2.17895E-01-1.73296E+00-1.63314E-13-1.99146E-14
 -1      2999 2.94619E+01 5.66194E-01-7.66113E-02-1.46388E+00-3.01675E-13-1.18544E-13
 -1      3000 2.16735E+01-5.64299E+00 7.64061E-02-4.97743E+00 2.04836E-14 3.33926E-14
 -1      3001 2.36859E+01-5.50044E+00-1.25379E-02-3.94599E+00-1.02945E-13 1.11106E-13
 -1      3002 2.05999E+01-5.12875E+00 8.14249E-02-5.02264E+00-7.79932E-14 1.41651E-13
 -1      3003 8.56754E+00-1.80942E+00 1.68765E-01-3.86495E+00 4.90011E-13-1.05693E-13
 -1      3004 1.05999E+01-2.72527E+00 8.24548E-02-5.60314E+00 6.39669E-13 3.55244E-13
 -1      3005 2.62788E+01-5.09819E+00-1.21303E-01 2.44664E+00 2.88658E-15-9.37361E-13
 -1      3006 2.34548E+01-5.56795E+00 8.58490E-02 4.09942E+00-1.03237E-13-8.24701E-13
 -1      3007 2.89632E+01-2.10858E+00-1.89092E-01-7.32179E-01-5.56846E-15-7.59420E-13
 -1      3008 2.81941E+01-3.54096E+00 2.47717E-02 5.04075E-01-4.02681E-14-7.21145E-13
 -1      3009 2.91339E+01 1.74337E+00-2.33766E-01-2.47637E+00-2.36866E-13-1.93429E-13
 -1      3010 2.94309E+01-1.02130E-01-3.30644E-02-1.99876E+00-8.66807E-14-4.69652E-13
 -1      3011 2.96560E+01 6.19059E+00-1.67291E-01 7.05482E-01-3.61100E-13-3.30805E-13
 -1      3012 2.92004E+01 6.67723E+00-1.72516E-01-3.65590E-01-4.57634E-13-2.33083E-13
 -1      3013 2.82637E+01 4.99399E+00-1.18096E-01 1.18340E+00-2.29788E-13-4.30732E-13
 -1      3014 2.94968E+01 4.15825E+00-1.00930E-01 2.41002E+00 3.83582E-13 1.53613E-13
 -1      3015 2.96123E+01 5.47457E+00-2.10530E-01 1.87429E+00 4.77229E-13 4.85445E-14
 -1      3016 2.81156E+01 5.45339E+00-1.09093E-01 1.68726E+00 3.42365E-13 2.58238E-13
 -1      3017 2.95361E+01-1.58755E+00-2.80110E-03 3.79069E-01-1.42705E-13-8.85958E-13
 -1      3018 2.98562E+01 6.43992E-01-2.24001E-01 1.29532E+00-2.06904E-13-7.00134E-13
 -1      3019 2.72253E+01-4.86985E+00-1.35832E-01 2.49349E+00-3.03230E-14-2.37976E-13
 -1      3020 2.49350E+01-5.62629E+00 7.99015E-02 4.28798E+00 7.47596E-14-4.02373E-13
 -1      3021 2.39603E+01-5.39157E+00 7.58389E-02 4.41596E+00 1.05721E-13-4.24528E-13
 -1      3022 1.99725E+01 2.48922E+00-5.44251E-03-9.02092E-01-1.09750E-13-4.67853E-13
 -1      3023 2.00335E+01 2.35963E+00-6.75138E-03-1.03647E+00-1.58889E-13-4.45825E-13
 -1      3024 2.00736E+01 2.20472E+00 6.01243E-03-7.39981E-01-8.78773E-14-4.35379E-13
 -1      3025 1.99339E+01 2.53793E+00 3.43821E-03 4.61081E-03 9.81256E-14-4.08746E-13
 -1      3026 1.97948E+01 2.86947E+00-5.48191E-03-6.19286E-02 9.15088E-14-4.49720E-13
 -1      3027 1.98023E+01 2.85485E+00-5.53705E-03-2.16716E-01 5.27190E-14-4.67099E-13
 -1      3028 2.78515E+01 3.20604E+00-9.30888E-02-1.77542E+00-1.42206E-13-2.12802E-13
 -1      3029 2.84105E+01 2.44523E+00-9.94377E-02 2.63217E+00 1.99812E-13 4.35874E-13
 -1      3030 2.74562E+01-4.04782E+00-1.00103E-02 1.25303E+00-5.41303E-14-2.66509E-13
 -1      3031 2.76054E+01 5.65228E+00-1.22203E-01-1.96579E-01 3.81528E-13-4.05613E-14
 -1      3032 2.02902E+01 1.58757E+00-1.18827E-03 1.16643E+00 3.17429E-13-1.34678E-13
 -1      3033 1.55793E+01-3.69055E+00 1.30783E-01-5.67709E+00-5.08898E-14-2.65898E-14
 -1      3034 1.99096E+01-4.86966E+00 1.27587E-01-5.98474E+00 4.62394E-13 2.42088E-13
 -1      3035 2.42079E+01 3.61185E+00-6.72974E-02 1.20707E-01-1.63376E-13 1.58264E-13
 -1      3036 2.43577E+01 3.01434E+00-9.92639E-02 9.24609E-01-3.06699E-14-7.23284E-14
 -1      3037 1.97504E+01 2.83813E-01-9.59449E-03 2.96144E+00-1.55522E-14-3.21477E-13
 -1      3038 2.00172E+01 6.61752E-01-1.46012E-02 2.67909E+00-3.57347E-14-4.23985E-13
 -1      3039 2.04152E+01 4.26282E-01 1.58376E-02 2.59402E+00-2.26321E-13-1.27542E-13
 -1      3040 1.35940E+01-2.76551E+00 1.52083E-01-5.74317E+00 5.83672E-13 5.42455E-13
 -1      3041 1.04243E+01-1.17004E+00 1.40475E-01 3.64817E+00-1.38708E-13-9.37306E-14
 -1      3042 8.34405E+00-1.27906E+00 1.86592E-01 2.89206E+00 1.19023E-13-3.27516E-14
 -1      3043 8.75560E+00-5.62869E-01 1.34083E-01 1.47253E+00 6.22939E-14-4.65739E-14
 -1      3044 2.54035E+01-5.26994E+00 4.16445E-02-3.51730E+00 3.18856E-13-4.07674E-13
 -1      3045 1.99914E+01 1.35029E-01-2.28972E-03-7.13243E-02 1.15452E-13-9.28366E-14
 -1      3046 2.06539E+01 2.92223E-01-2.38751E-03 2.38520E+00-2.59964E-13-2.04351E-14
 -1      3047 2.08774E+01 1.25691E-01 1.01628E-02 2.16484E+00-1.56943E-13-9.34745E-15
 -1      3048 2.11028E+01-2.55541E-01-6.43319E-03 2.17793E+00-1.17745E-13-8.94059E-14
 -1      3049 2.06558E+01-1.22507E-01-6.68552E-03 2.67374E+00-1.77256E-13-2.57510E-14
 -1      3050 8.91590E+00-1.43677E+00 1.87133E-01-3.72269E+00 7.79238E-15-3.02036E-13
 -1      3051 1.12450E+01-1.66255E+00 1.22294E-01-4.31966E+00-4.33958E-14-2.22336E-13
 -1      3052 2.84000E+01-1.32630E+00-1.62175E-02-1.75038E+00-7.94781E-14-3.08864E-13
 -1      3053 2.68755E+01-4.31972E+00 1.68490E-03 1.08690E+00 4.02733E-14-6.43444E-13
 -1      3054 2.84268E+01-7.27030E-01-5.92299E-02-1.29135E+00-2.62179E-13-1.90542E-13
 -1      3055 2.24471E+01-5.25979E+00 6.41608E-02 4.20882E+00-1.63605E-13-6.72252E-13
 -1      3056 2.88818E+01 1.63166E+00-6.92262E-02 1.81856E+00-4.39232E-14-4.94507E-13
 -1      3057 2.54361E+01-5.17019E+00 2.74110E-02-2.64948E+00-1.05270E-13 1.17364E-13
 -1      3058 2.62545E+01-4.50441E+00-6.47364E-02-1.11883E+00-1.90018E-13-5.78218E-14
 -1      3059 2.39335E+01-5.11553E+00 4.35310E-02-3.15513E+00-8.52651E-14 1.17004E-13
 -1      3060 2.83911E+01-2.84134E+00-4.36728E-02-1.22401E-01-4.77127E-14-8.02053E-13
 -1      3061 7.34053E+00-1.11393E+00 1.39577E-01 2.40615E+00-4.86347E-14-5.10703E-13
 -1      3062 6.57830E+00-8.84910E-01 1.64299E-01 4.51149E-01-8.51459E-14-5.91777E-13
 -1      3063 1.53609E+01-3.89218E+00 1.22388E-01 5.93320E+00-2.49745E-13-4.39204E-13
 -1      3064 1.38541E+01-2.71282E+00 9.88614E-02 5.31622E+00-9.47922E-14-6.37948E-13
 -1      3065 1.76663E+01-3.98020E+00 6.71592E-02 5.29436E+00-2.33702E-13-3.79800E-13
 -1      3066 2.55571E+01 3.06286E+00-5.94546E-02 1.48968E+00-9.83658E-14-2.59931E-14
 -1      3067 2.01445E+01 2.17288E+00 5.25671E-04-1.20734E+00-2.10497E-13-4.13483E-13
 -1      3068 1.98179E+01 2.81937E+00-5.67980E-03-3.51973E-01 3.28769E-14-4.48198E-13
 -1      3069 1.98419E+01 2.77112E+00-6.16443E-03-5.05649E-01-1.32064E-14-4.58123E-13
 -1      3070 1.99950E+01 2.39563E+00 4.35246E-03-5.08136E-01-2.12165E-14-4.36502E-13
 -1      3071 1.99486E+01 2.50395E+00 3.65720E-03-2.55919E-01 4.43393E-14-4.31659E-13
 -1      3072 1.83572E+01-4.67495E+00 9.80197E-02 6.39189E+00 1.39888E-13-5.42691E-13
 -1      3073 2.02792E+01 1.36638E+00 2.09635E-03 9.20328E-01 2.80768E-13-1.78552E-13
 -1      3074 2.75785E+01-2.94068E+00-1.28919E-02 6.18138E-01-2.53315E-13 6.19366E-14
 -1      3075 2.86030E+01-1.96965E+00-9.49186E-02 1.26420E+00-1.12518E-13 5.81757E-14
 -1      3076 2.78612E+01-7.60267E-01-7.86751E-02 2.24204E+00-8.10116E-14 3.25157E-13
 -1      3077 8.35064E+00-1.04730E+00 1.73901E-01-2.50247E+00 3.37605E-13-2.47302E-13
 -1      3078 1.04194E+01-8.77316E-01 1.34784E-01-3.13844E+00 3.28515E-13-1.97023E-13
 -1      3079 8.67822E+00-4.33906E-01 1.18495E-01-9.00052E-01 1.80838E-13-1.25511E-13
 -1      3080 1.12898E+01-1.52609E+00 7.18516E-02 4.21406E+00-1.20865E-13-6.82718E-13
 -1      3081 9.18236E+00-1.21888E+00 1.85142E-01 3.42024E+00-2.11012E-14-5.44231E-13
 -1      3082 9.72665E+00-4.78700E-01 1.01364E-01 2.40290E+00-2.96811E-14-5.27273E-13
 -1      3083 6.74076E+00-8.14837E-01 2.07637E-01-7.61199E-01-6.11781E-14-6.94167E-13
 -1      3084 7.66064E+00-1.18651E+00 1.21127E-01-2.62361E+00 1.62301E-14-5.83034E-13
 -1      3085 9.10780E+00-5.78329E-01 8.86325E-02-2.32808E+00-4.87110E-14-5.11508E-13
 -1      3086 8.36184E+00-3.27394E-01 1.35393E-01 1.54859E-02-1.66551E-13-6.99885E-13
 -1      3087 2.80746E+01 5.91019E+00-9.61205E-02-9.95277E-01-4.10727E-13-2.96999E-13
 -1      3088 1.47767E+01-2.72068E+00 1.02738E-01-5.18086E+00-4.00374E-15-2.19824E-14
 -1      3089 1.75467E+01-3.88970E+00 2.07117E-02-5.33302E+00-2.72699E-14 1.29549E-13
 -1      3090 2.02401E+01 1.48117E+00-6.14326E-03 8.04624E-01 2.74737E-13-2.71004E-13
 -1      3091 2.02027E+01 1.66927E+00-1.96174E-05 7.48315E-01 2.68850E-13-2.97085E-13
 -1      3092 1.96913E+01-4.44892E+00-5.72476E-02 5.72834E+00 7.09918E-14-6.64933E-13
 -1      3093 1.71484E+01-3.53633E+00 1.34296E-01 6.04133E+00 1.29549E-14-5.26336E-13
 -1      3094 2.67977E+01 3.15711E+00-1.33590E-01-2.61941E+00-2.29469E-13 1.04777E-13
 -1      3095 2.02212E+01 4.22226E-01 4.09765E-03-1.21351E-01-1.38520E-13-2.36232E-13
 -1      3096 2.01819E+01 3.14484E-01-2.30211E-03-3.67332E-02-1.13162E-13-2.53495E-13
 -1      3097 2.01677E+01 2.31237E-01 3.21514E-03 2.47775E-02-1.28311E-13-2.38620E-13
 -1      3098 2.01374E+01 1.60747E-01-1.29709E-03 7.56807E-02-1.57411E-13-2.58768E-13
 -1      3099 2.02380E+01 3.31283E-01-8.64178E-04-2.76687E-02-1.26507E-13-2.42922E-13
 -1      3100 2.01208E+01 1.06868E-01 2.24194E-03 1.11557E-01-1.48992E-13-2.36002E-13
 -1      3101 2.00997E+01 6.19140E-02-6.16397E-04 1.38773E-01-1.09735E-13-2.18797E-13
 -1      3102 2.01975E+01 1.67262E-01-1.01306E-03 7.50450E-02-1.37612E-13-2.09665E-13
 -1      3103 2.00835E+01 2.82199E-02 1.46415E-03 1.56538E-01-4.20754E-14-2.02482E-13
 -1      3104 2.00700E+01 8.34884E-04-1.74224E-04 1.67945E-01-2.49970E-14-1.74328E-13
 -1      3105 2.01588E+01 6.13623E-02-9.75058E-04 1.33059E-01-5.86299E-14-2.00698E-13
 -1      3106 2.00557E+01-1.89791E-02 8.73258E-04 1.73665E-01-3.19673E-14-1.46949E-13
 -1      3107 2.00480E+01-3.42052E-02 1.03441E-04 1.75110E-01-4.65004E-14-1.05725E-13
 -1      3108 2.01251E+01-3.93823E-03-8.51399E-04 1.59943E-01-1.41732E-14-1.81784E-13
 -1      3109 2.00359E+01-4.44112E-02 4.44926E-04 1.73416E-01-7.58800E-14-5.27240E-14
 -1      3110 2.00323E+01-5.12004E-02 2.74819E-04 1.69144E-01-6.87795E-14-4.88292E-14
 -1      3111 2.00971E+01-4.09378E-02-7.08243E-04 1.66546E-01-4.05003E-14-1.12960E-13
 -1      3112 2.00224E+01-5.47288E-02 1.44012E-04 1.63467E-01-8.60695E-14-1.76168E-14
 -1      3113 2.00218E+01-5.56397E-02 3.80497E-04 1.56530E-01-6.05209E-14-5.67056E-14
 -1      3114 2.00747E+01-5.81818E-02-5.72941E-04 1.61099E-01-6.36209E-14 1.60014E-14
 -1      3115 2.00139E+01-5.44879E-02-6.37928E-05 1.49376E-01-6.37746E-14-5.61615E-14
 -1      3116 2.00153E+01-5.12454E-02 4.48754E-04 1.41965E-01-4.80813E-14-5.31024E-14
 -1      3117 2.00573E+01-6.15889E-02-4.55175E-04 1.49700E-01-5.14494E-14 5.90575E-14
 -1      3118 2.00091E+01-4.67331E-02-2.08447E-04 1.35160E-01-4.71635E-14-7.83743E-14
 -1      3119 2.00120E+01-4.04440E-02 4.99805E-04 1.28875E-01-4.77762E-14-8.65832E-14
 -1      3120 2.00441E+01-5.51754E-02-3.56267E-04 1.36810E-01-5.38383E-14-1.10440E-14
 -1      3121 2.00071E+01-3.33855E-02-3.14437E-04 1.23779E-01-6.72173E-14-1.11415E-13
 -1      3122 2.00112E+01-2.46921E-02 5.48202E-04 1.19832E-01-3.13385E-14-1.19994E-13
 -1      3123 2.00342E+01-4.15420E-02-2.74375E-04 1.25724E-01-5.97120E-14-7.02718E-14
 -1      3124 2.00072E+01-1.55209E-02-4.01245E-04 1.17510E-01-3.94781E-14-1.39545E-13
 -1      3125 2.00124E+01-4.71320E-03 6.04774E-04 1.16886E-01-6.71210E-14-1.60949E-13
 -1      3126 2.00269E+01-2.22208E-02-2.05378E-04 1.18948E-01-8.73729E-14-5.23421E-14
 -1      3127 2.00089E+01 6.42523E-03-4.84470E-04 1.18241E-01-8.44104E-14-1.71761E-13
 -1      3128 2.00151E+01 1.93201E-02 6.77367E-04 1.21816E-01-1.08168E-13-1.79344E-13
 -1      3129 2.00214E+01 2.06411E-03-1.44287E-04 1.18513E-01-9.28195E-14-2.34011E-13
 -1      3130 2.00117E+01 3.24896E-02-5.76357E-04 1.27691E-01-1.16918E-13-1.62887E-13
 -1      3131 2.00189E+01 4.76278E-02 7.71205E-04 1.36319E-01-1.32382E-13-1.68516E-13
 -1      3132 2.00168E+01 3.11903E-02-8.58784E-05 1.26203E-01-1.16209E-13-2.60372E-13
 -1      3133 2.00153E+01 6.30262E-02-6.86366E-04 1.47566E-01-1.57815E-13-1.88554E-13
 -1      3134 2.00237E+01 8.06672E-02 8.88998E-04 1.62131E-01-1.08572E-13-1.64289E-13
 -1      3135 2.00123E+01 6.54522E-02-2.44756E-05 1.43736E-01-1.36730E-13-2.85755E-13
 -1      3136 2.00191E+01 9.85473E-02-8.21364E-04 1.79654E-01-1.75379E-14-8.88092E-14
 -1      3137 2.00289E+01 1.18965E-01 1.03120E-03 2.01094E-01-5.36514E-16-5.63203E-14
 -1      3138 2.00071E+01 1.05375E-01 4.58836E-05 1.72872E-01-2.92415E-14-1.52387E-13
 -1      3139 2.00229E+01 1.39538E-01-9.85179E-04 2.25859E-01-5.73211E-14-5.50031E-14
 -1      3140 2.00343E+01 1.62904E-01 1.19595E-03 2.55149E-01-5.59758E-14-1.02547E-13
 -1      3141 2.00000E+01 1.51510E-01 1.30938E-04 2.15462E-01-1.27181E-14-1.44145E-13
 -1      3142 2.00262E+01 1.86210E-01-1.17752E-03 2.88166E-01-3.64657E-14-4.27572E-14
 -1      3143 2.00394E+01 2.12436E-01 1.37927E-03 3.26267E-01 2.65784E-14-9.98140E-14
 -1      3144 1.99899E+01 2.04170E-01 2.35159E-04 2.73445E-01-5.11416E-14-1.34599E-14
 -1      3145 2.00284E+01 2.38156E-01-1.39193E-03 3.68539E-01 9.03020E-14-8.91141E-14
 -1      3146 2.00437E+01 2.66659E-01 1.57608E-03 4.16286E-01 1.02063E-13-8.12909E-14
 -1      3147 1.99754E+01 2.63072E-01 3.59538E-04 3.48779E-01 7.31863E-14 1.66170E-13
 -1      3148 2.00292E+01 2.93838E-01-1.61224E-03 4.68722E-01 6.29206E-14-4.61801E-14
 -1      3149 2.00469E+01 3.23198E-01 1.78274E-03 5.26657E-01 3.32061E-14-1.80839E-15
 -1      3150 1.99552E+01 3.26820E-01 4.97318E-04 4.43312E-01 1.07697E-13 6.21169E-14
 -1      3151 2.00286E+01 3.49840E-01-1.80680E-03 5.89958E-01-1.29292E-14-1.09995E-14
 -1      3152 2.00494E+01 3.77301E-01 2.00181E-03 6.58080E-01-5.62802E-14-7.72138E-15
 -1      3153 1.99282E+01 3.92161E-01 6.26249E-04 5.58600E-01 5.64307E-15-3.58295E-14
 -1      3154 2.00277E+01 3.99779E-01-1.91919E-03 7.32583E-01-6.24003E-14-8.90983E-14
 -1      3155 2.00531E+01 4.20538E-01 2.24989E-03 8.10014E-01-3.63500E-15-5.29696E-14
 -1      3156 1.98940E+01 4.52913E-01 6.95295E-04 6.95688E-01-4.65647E-14-6.63656E-14
 -1      3157 2.00297E+01 4.32778E-01-1.85312E-03 8.95524E-01 2.45249E-14-4.40788E-14
 -1      3158 2.00628E+01 4.39033E-01 2.56771E-03 9.80050E-01 3.74069E-15-1.72876E-16
 -1      3159 1.98541E+01 4.98454E-01 6.03069E-04 8.54890E-01-2.73852E-15-1.28165E-13
 -1      3160 2.00423E+01 4.31467E-01-1.44628E-03 1.07562E+00-1.31428E-14-4.94644E-15
 -1      3161 2.00891E+01 4.11237E-01 3.02551E-03 1.16308E+00-3.42068E-14-1.55793E-14
 -1      3162 1.98137E+01 5.11709E-01 1.65506E-04 1.03558E+00-7.93228E-15-1.12181E-13
 -1      3163 2.00811E+01 3.69641E-01-4.26164E-04 1.26664E+00 7.27952E-15-9.68897E-16
 -1      3164 2.01526E+01 3.05581E-01 3.70239E-03 1.35003E+00 5.79963E-14 3.05121E-14
 -1      3165 1.97850E+01 4.66640E-01-9.31604E-04 1.23594E+00 1.14115E-14-7.76462E-14
 -1      3166 2.01749E+01 2.10237E-01 1.67470E-03 1.45749E+00 4.08580E-14 1.07214E-13
 -1      3167 2.02896E+01 7.91017E-02 4.58837E-03 1.52532E+00 2.42426E-13 1.80586E-13
 -1      3168 1.97919E+01 3.25548E-01-3.19658E-03 1.45228E+00 1.32430E-13 1.58964E-13
 -1      3169 2.03738E+01-9.44866E-02 5.61953E-03 1.62809E+00 1.78553E-13 8.36001E-14
 -1      3170 2.05593E+01-3.20043E-01 5.13662E-03 1.66152E+00 1.54804E-13 1.52539E-14
 -1      3171 1.98785E+01 3.73779E-02-7.38305E-03 1.67658E+00 1.78732E-13 1.22006E-13
 -1      3172 2.07574E+01-5.95637E-01 1.24016E-02 1.73900E+00 1.48865E-13 2.87881E-14
 -1      3173 2.10481E+01-9.35260E-01 4.80767E-03 1.70614E+00 5.29264E-14 1.43213E-14
 -1      3174 2.01205E+01-4.60225E-01-1.45964E-02 1.88839E+00 1.29921E-13-8.41683E-14
 -1      3175 2.14326E+01-1.32059E+00 2.33132E-02 1.71679E+00-5.42166E-14 5.44996E-14
 -1      3176 2.18562E+01-1.76718E+00 7.18690E-04 1.56693E+00-1.98218E-13 3.91321E-15
 -1      3177 2.06338E+01-1.21695E+00-2.46054E-02 2.03428E+00 8.96451E-15-1.57165E-13
 -1      3178 2.25157E+01-2.21352E+00 3.82027E-02 1.41678E+00-1.85054E-13 2.08366E-14
 -1      3179 2.30712E+01-2.65689E+00-4.10151E-03 1.07770E+00-5.60775E-14-3.29773E-14
 -1      3180 2.15829E+01-2.22251E+00-3.04586E-02 2.00636E+00-1.24852E-13-2.28503E-13
 -1      3181 2.40254E+01-2.99683E+00 4.01795E-02 6.56977E-01 1.03880E-13-8.02266E-15
 -1      3182 2.46725E+01-3.13595E+00-6.98390E-03 6.25079E-02 1.92890E-13 5.74983E-14
 -1      3183 2.30746E+01-3.23356E+00-2.97077E-02 1.56088E+00 6.03046E-14-1.84163E-13
 -1      3184 2.67421E+01-6.68131E-01-1.54699E-01-2.46329E+00-1.47136E-13 1.28193E-13
 -1      3185 2.69327E+01 1.08249E+00-6.20371E-02-2.83949E+00-1.54321E-13 1.15664E-13
 -1      3186 2.82881E+01 2.68727E+00-1.19410E-01-2.62189E+00-2.67342E-13-9.52849E-14
 -1      3187 2.66840E+01 5.04468E+00-1.15919E-01-6.81427E-01-3.24324E-13 9.09134E-14
 -1      3188 1.20142E+01-1.13385E+00 5.59908E-02-3.84578E+00-6.26617E-14-1.69711E-13
 -1      3189 1.33287E+01-1.93294E+00 1.01535E-01-4.79690E+00-1.44509E-13-1.92596E-13
 -1      3190 1.54664E+01-2.10944E+00 9.18211E-02-4.55244E+00-6.63011E-14-6.65232E-14
 -1      3191 2.61748E+01-2.15751E+00-3.88981E-02 8.18515E-01-3.84848E-14-3.21214E-13
 -1      3192 2.58164E+01-2.84058E+00-1.23898E-03 1.80543E-01-3.32737E-14-4.75529E-13
 -1      3193 2.48060E+01-3.08761E+00-2.48191E-02-6.70141E-01 6.30485E-14-4.05839E-13
 -1      3194 2.42461E+01-2.96485E+00 3.51469E-02-1.25417E+00 9.67212E-14-5.52361E-13
 -1      3195 2.55441E+01-3.58709E+00-3.53518E-02-9.18771E-01-4.38716E-14-5.77799E-13
 -1      3196 2.33067E+01-2.62863E+00-1.44758E-02-1.74279E+00 1.33709E-13-5.33243E-13
 -1      3197 2.27616E+01-2.13220E+00 3.74750E-02-2.09213E+00 2.40587E-13-5.15355E-13
 -1      3198 2.35921E+01-3.24337E+00-3.33486E-02-2.18247E+00 8.92264E-14-4.89039E-13
 -1      3199 2.20878E+01-1.60990E+00-5.41238E-03-2.25724E+00 1.96244E-13-4.28852E-13
 -1      3200 2.16345E+01-1.04762E+00 2.07783E-02-2.38751E+00 1.62217E-13-4.56225E-13
 -1      3201 2.20935E+01-2.09689E+00-3.35220E-02-2.69249E+00 2.42724E-13-3.79335E-13
 -1      3202 2.57663E+01 4.71444E+00-1.40585E-01 3.38257E-01 2.41668E-13 2.07302E-13
 -1      3203 2.55201E+01 4.28669E+00-1.00973E-01-6.72849E-01 3.60822E-14 1.42972E-13
 -1      3204 1.99926E+01-2.87895E-02 1.39338E-04-1.81221E-01 9.61876E-14-1.74855E-13
 -1      3205 1.99963E+01-1.46774E-02 9.04804E-04-1.79949E-01 5.42313E-14-1.38438E-13
 -1      3206 1.99816E+01-4.66321E-02 4.27720E-04-1.45484E-01 6.35209E-14 1.65783E-14
 -1      3207 1.99762E+01-4.90793E-02-1.08271E-04-1.53577E-01 5.93460E-14-9.49793E-14
 -1      3208 1.99851E+01-3.80062E-02 4.75833E-04-1.30829E-01-2.15232E-14 7.77682E-14
 -1      3209 1.99785E+01-4.31195E-02-2.47222E-04-1.37917E-01 7.29719E-14 1.07110E-13
 -1      3210 2.00157E+01-5.17039E-02-3.33913E-04-1.42943E-01-1.66095E-15-6.49005E-14
 -1      3211 1.99906E+01-2.51133E-02 5.27161E-04-1.19970E-01-6.14323E-14 9.00529E-14
 -1      3212 1.99832E+01-3.22943E-02-3.39398E-04-1.24852E-01-5.27520E-14 7.29177E-14
 -1      3213 2.00119E+01-4.05318E-02-2.56984E-04-1.30063E-01-2.07619E-14-7.67571E-15
 -1      3214 1.99980E+01-8.64467E-03 5.91562E-04-1.14953E-01 2.55110E-14 8.59874E-14
 -1      3215 1.99897E+01-1.76096E-02-4.06415E-04-1.16669E-01-2.87834E-14 8.40459E-14
 -1      3216 2.00106E+01-2.43622E-02-2.02284E-04-1.21318E-01-4.72815E-14 1.07374E-14
 -1      3217 2.00070E+01 1.11948E-02 6.76515E-04-1.17530E-01 5.71281E-14 8.26063E-14
 -1      3218 1.99977E+01 4.95772E-04-4.64732E-04-1.15235E-01 6.70530E-14 1.15727E-13
 -1      3219 2.00112E+01-3.91212E-03-1.63759E-04-1.18785E-01 4.36995E-14-3.69204E-14
 -1      3220 2.00178E+01 3.45541E-02 7.87536E-04-1.29355E-01 6.57663E-14 4.78167E-14
 -1      3221 2.00072E+01 2.20036E-02-5.27219E-04-1.22230E-01 7.38404E-14 6.80263E-14
 -1      3222 2.00131E+01 2.06480E-02-1.35008E-04-1.24267E-01 8.96383E-14 4.10784E-14
 -1      3223 2.00306E+01 6.18055E-02 9.27832E-04-1.52116E-01 5.31443E-14-1.62694E-14
 -1      3224 2.00183E+01 4.71867E-02-6.03637E-04-1.39314E-01 6.83073E-14 5.35914E-14
 -1      3225 2.00160E+01 4.95331E-02-1.10710E-04-1.39483E-01 5.64993E-14-3.64730E-14
 -1      3226 2.00457E+01 9.33996E-02 1.09837E-03-1.87606E-01 1.20908E-13-1.32973E-14
 -1      3227 2.00310E+01 7.64735E-02-7.00764E-04-1.68222E-01 8.99076E-14 3.94919E-14
 -1      3228 2.00195E+01 8.31852E-02-8.51998E-05-1.66186E-01 7.38230E-14-9.18030E-15
 -1      3229 2.00634E+01 1.29688E-01 1.29726E-03-2.37727E-01 6.32269E-14-1.83216E-14
 -1      3230 2.00458E+01 1.10290E-01-8.22330E-04-2.10812E-01 1.00528E-13 1.18637E-14
 -1      3231 2.00233E+01 1.22091E-01-5.31337E-05-2.06227E-01 1.04467E-13 1.20803E-13
 -1      3232 2.00840E+01 1.70679E-01 1.51924E-03-3.04413E-01 8.33855E-14 1.08200E-13
 -1      3233 2.00630E+01 1.48855E-01-9.67990E-04-2.69030E-01 6.66334E-14 5.22257E-14
 -1      3234 2.00267E+01 1.66553E-01-1.02665E-05-2.61548E-01 5.05665E-15 1.76455E-13
 -1      3235 2.01082E+01 2.15677E-01 1.75535E-03-3.89455E-01-6.76634E-14 3.06949E-13
 -1      3236 2.00829E+01 1.91884E-01-1.13120E-03-3.44792E-01-4.72396E-15 1.98284E-13
 -1      3237 2.00294E+01 2.16381E-01 4.48151E-05-3.34100E-01-5.68011E-14 2.68922E-13
 -1      3238 2.01364E+01 2.62756E-01 1.99319E-03-4.94209E-01-1.83819E-14 2.67730E-13
 -1      3239 2.01061E+01 2.38157E-01-1.29551E-03-4.39766E-01-1.29812E-14 2.81792E-13
 -1      3240 2.00310E+01 2.70430E-01 1.07027E-04-4.25683E-01-3.38357E-14 3.16896E-13
 -1      3241 2.01699E+01 3.07976E-01 2.21844E-03-6.19131E-01-1.01774E-13 3.20295E-13
 -1      3242 2.01336E+01 2.84875E-01-1.42840E-03-5.55017E-01-2.64029E-14 2.72926E-13
 -1      3243 2.00312E+01 3.25940E-01 1.57923E-04-5.37687E-01-4.54077E-14 2.61810E-13
 -1      3244 2.02109E+01 3.44245E-01 2.41771E-03-7.63129E-01-2.05363E-13 3.03184E-13
 -1      3245 2.01670E+01 3.26714E-01-1.47136E-03-6.90478E-01-1.27029E-13 2.82760E-13
 -1      3246 2.00306E+01 3.77565E-01 1.53712E-04-6.70730E-01-9.79929E-14 2.39128E-13
 -1      3247 2.02641E+01 3.59771E-01 2.58127E-03-9.22639E-01-1.80047E-13 1.61467E-13
 -1      3248 2.02101E+01 3.54495E-01-1.32462E-03-8.44206E-01-1.83501E-13 2.17443E-13
 -1      3249 2.00313E+01 4.16000E-01 5.66460E-06-8.24183E-01-1.27928E-13 2.05422E-13
 -1      3250 2.03385E+01 3.36135E-01 2.70051E-03-1.09035E+00-1.10571E-13 6.48968E-14
 -1      3251 2.02700E+01 3.53428E-01-8.24846E-04-1.01133E+00-1.24481E-13 7.65228E-14
 -1      3252 2.00390E+01 4.26142E-01-4.49298E-04-9.95535E-01-1.16752E-13 2.18991E-13
 -1      3253 2.04509E+01 2.46394E-01 2.74627E-03-1.25339E+00-2.18547E-13 2.19368E-13
 -1      3254 2.03600E+01 3.01132E-01 2.84312E-04-1.18251E+00-1.68519E-13 1.37977E-13
 -1      3255 2.00651E+01 3.84868E-01-1.48628E-03-1.17950E+00-2.03332E-13 1.52527E-13
 -1      3256 2.06300E+01 5.44087E-02 2.57235E-03-1.39053E+00 3.21486E-14 7.99913E-14
 -1      3257 2.05042E+01 1.66163E-01 2.38138E-03-1.34161E+00-7.40894E-14 1.94054E-13
 -1      3258 2.01316E+01 2.58971E-01-3.53245E-03-1.36648E+00-1.43748E-13 1.62149E-13
 -1      3259 2.09207E+01-2.81746E-01 1.78056E-03-1.46774E+00-9.87356E-14 2.16841E-13
 -1      3260 2.07419E+01-9.11275E-02 5.94702E-03-1.46181E+00-3.81214E-14 1.99918E-13
 -1      3261 2.02768E+01 4.70390E-03-7.21099E-03-1.53962E+00-4.89335E-14 1.67115E-13
 -1      3262 2.13851E+01-7.96069E-01-5.89077E-04-1.43073E+00-5.61552E-14 1.99857E-13
 -1      3263 2.11326E+01-5.10913E-01 1.17445E-02-1.49859E+00-6.14058E-14 1.78445E-13
 -1      3264 2.05626E+01-4.27893E-01-1.31468E-02-1.66827E+00-9.39191E-14 1.40265E-13
 -1      3265 2.20907E+01-1.47528E+00-5.21752E-03-1.19303E+00 2.65738E-14 7.44768E-14
 -1      3266 2.17519E+01-1.11151E+00 1.98391E-02-1.37754E+00 6.35516E-15 1.64996E-13
 -1      3267 2.10801E+01-1.07634E+00-2.12080E-02-1.69365E+00 5.04968E-14 3.63997E-14
 -1      3268 2.30695E+01-2.18802E+00-1.34253E-02-6.42129E-01-7.48446E-15-1.89097E-14
 -1      3269 2.26625E+01-1.83087E+00 2.92454E-02-9.86942E-01-2.54372E-14-1.00064E-14
 -1      3270 2.19357E+01-1.91001E+00-2.84631E-02-1.50881E+00 2.33340E-14 2.27873E-14
 -1      3271 2.42379E+01-2.56184E+00-2.22115E-02 3.25609E-01 3.26301E-15 2.57143E-14
 -1      3272 2.38419E+01-2.43543E+00 3.10788E-02-1.86606E-01 2.74746E-14 5.56031E-14
 -1      3273 2.32094E+01-2.72860E+00-2.74026E-02-9.38770E-01-2.67176E-14 3.73486E-14
 -1      3274 2.53290E+01-1.96777E+00-2.00944E-02 1.61004E+00 5.44418E-14 2.64466E-13
 -1      3275 2.50694E+01-2.40682E+00 1.65350E-02 1.04481E+00 1.63526E-14 1.60851E-13
 -1      3276 2.47590E+01-3.05197E+00-3.35459E-02 1.41759E-01-9.01722E-14 1.46324E-14
 -1      3277 2.62143E+01-3.21462E-01-3.57772E-02 2.42524E+00 5.62050E-15 5.77861E-13
 -1      3278 2.61512E+01-1.48895E+00-3.05158E-02 2.10643E+00-7.20084E-14 4.99035E-13
 -1      3279 2.60315E+01 3.74724E+00-8.86757E-02 2.15591E+00 1.55362E-13 5.25399E-13
 -1      3280 2.61336E+01 2.48852E+00-1.33043E-01 2.60061E+00 2.05863E-13 5.27375E-13
 -1      3281 2.56589E+01 3.32820E+00-1.50164E-01-1.43475E+00-6.17700E-14 1.13168E-13
 -1      3282 2.63137E+01 2.63933E-01-8.91927E-02-1.95982E+00-2.31634E-13 8.27914E-14
 -1      3283 2.62008E+01 1.82454E+00-5.55528E-02-1.95549E+00-1.92249E-13 4.93494E-14
 -1      3284 2.43696E+01-2.58396E+00 1.77103E-02 4.41503E-01 1.51841E-13 8.09932E-14
 -1      3285 2.47543E+01-2.46785E+00-2.39647E-02-1.48166E-01 5.48329E-14 4.59014E-14
 -1      3286 2.31093E+01-2.09083E+00 3.34359E-02 1.45709E+00 1.15558E-13-1.54342E-13
 -1      3287 2.35517E+01-2.42820E+00-1.82670E-02 1.03355E+00 1.57161E-13 5.91638E-14
 -1      3288 2.40786E+01-2.94181E+00-2.66059E-02 1.25648E+00 1.85163E-13 2.50246E-13
 -1      3289 2.20105E+01-1.20803E+00 2.30322E-02 1.96720E+00 9.53331E-14-2.92726E-13
 -1      3290 2.24240E+01-1.67088E+00-6.62044E-03 1.76668E+00 5.03096E-14-3.02202E-13
 -1      3291 2.26458E+01-2.19575E+00-3.87189E-02 2.06430E+00 1.96106E-13-1.28401E-13
 -1      3292 2.13726E+01-5.68125E-01 1.04170E-02 2.17310E+00 6.98926E-15-1.73328E-13
 -1      3293 2.16604E+01-9.33377E-01-7.47620E-03 2.06662E+00-1.01125E-14-3.50116E-13
 -1      3294 2.16940E+01-1.30661E+00-2.70164E-02 2.39294E+00 4.12790E-14-3.21675E-13
 -1      3295 2.11743E+01-5.50514E-01-2.73099E-03 2.44208E+00-2.09207E-13-1.83813E-13
 -1      3296 2.12420E+01-4.72455E-01 3.13287E-03-2.29760E+00 1.52969E-13-6.35112E-13
 -1      3297 2.00457E+01 2.15996E+00-4.32565E-03 2.93061E-01 1.68797E-13-3.57867E-13
 -1      3298 2.00328E+01 2.19866E+00-3.31891E-03 1.71181E-01 1.15633E-13-3.76523E-13
 -1      3299 1.85303E+01 4.10370E-01 4.86066E-02-3.17709E+00 5.98399E-14-2.11844E-14
 -1      3300 1.76314E+01 6.76766E-01-3.66743E-02-2.81120E+00 1.24098E-13-2.16533E-13
 -1      3301 1.59420E+01 1.66633E+00 2.06461E-02-3.56343E-01 1.01387E-13-1.57526E-13
 -1      3302 1.59585E+01 1.60672E+00 5.82159E-03 5.02423E-01 3.08106E-14 1.57886E-14
 -1      3303 2.00724E+01 1.50545E-01-1.07489E-03-7.53213E-02 9.64844E-14-1.44237E-13
 -1      3304 2.01038E+01 2.15594E-01 3.21603E-03-2.14937E-02 1.25645E-13-1.55205E-13
 -1      3305 2.01543E+01-3.55312E-01 3.38285E-02-3.23632E+00 2.38178E-13 2.99933E-13
 -1      3306 1.93717E+01-1.15086E-01-2.64061E-02-3.26099E+00 1.05910E-13 2.31004E-13
 -1      3307 1.88144E+01-4.31383E-01-7.06518E-04-3.57590E+00 2.29209E-13 1.92174E-13
 -1      3308 2.71074E+01-1.92920E+00 9.68297E-03-1.73714E+00-3.64014E-14-8.21218E-14
 -1      3309 1.99781E+01-4.41042E+00 9.04136E-02-4.78426E+00-9.53335E-14 6.89067E-14
 -1      3310 2.16420E+01-4.90659E+00-8.30646E-03-4.25964E+00-3.21340E-14 1.90854E-13
 -1      3311 2.42504E+01-5.02479E+00 1.18779E-01-3.88805E+00 4.55695E-13-1.94771E-13
 -1      3312 2.59549E+01-4.86745E+00-1.03468E-01-2.37675E+00 1.98688E-13-5.67265E-13
 -1      3313 2.00086E+01 3.49916E-03-9.93237E-05-1.73614E-01 3.01850E-14-1.30950E-13
 -1      3314 2.00189E+01 2.86837E-02 1.58266E-03-1.61977E-01 2.70276E-14-1.57232E-13
 -1      3315 2.00729E+01-4.73083E-04-9.69566E-04-1.68407E-01 5.42911E-14-1.97668E-13
 -1      3316 1.99809E+01-4.96450E-02 3.69360E-04-1.61333E-01 5.86224E-14-1.10116E-13
 -1      3317 1.99773E+01-4.84083E-02 1.05402E-04-1.68828E-01 7.72327E-14-1.26618E-13
 -1      3318 2.00226E+01-5.64245E-02-4.38934E-04-1.57360E-01 1.19870E-14-1.27167E-13
 -1      3319 1.88153E+01-4.00966E+00 1.50470E-01-5.91350E+00 6.06779E-13 2.47559E-13
 -1      3320 2.14529E+01-5.14207E+00-9.09982E-02-5.39218E+00 4.86014E-13-4.74933E-14
 -1      3321 1.99841E+01-4.48278E-02 2.82077E-04-1.74866E-01 8.55639E-14-1.41237E-13
 -1      3322 1.99833E+01-3.83286E-02 4.28714E-04-1.79542E-01 1.05120E-13-1.58278E-13
 -1      3323 2.00500E+01-3.54594E-02-7.56896E-04-1.75721E-01 8.16981E-14-2.43747E-13
 -1      3324 2.00336E+01-5.22591E-02-5.78669E-04-1.69863E-01 5.25160E-14-1.95551E-13
 -1      3325 1.68933E+01 1.20563E+00 3.83484E-02-2.20793E+00 1.61120E-13-3.13734E-13
 -1      3326 1.62369E+01 1.38868E+00-3.59023E-02-1.50346E+00 1.71817E-13-2.16821E-13
 -1      3327 1.69085E+01 5.00884E-01 4.20725E-02-2.84293E+00 8.56771E-14-1.84157E-13
 -1      3328 2.72313E+01 7.50239E-01-6.64806E-02 1.86126E+00-6.91114E-15-2.81476E-13
 -1      3329 2.71751E+01-9.97342E-01-8.06879E-02 1.59959E+00 2.52194E-14-3.31991E-13
 -1      3330 2.02696E+01 7.12500E-01 4.00847E-03-3.47169E-01-1.58135E-13-2.54893E-13
 -1      3331 2.02268E+01 5.51260E-01-3.24745E-03-2.15785E-01-1.45723E-13-2.45709E-13
 -1      3332 2.02739E+01 5.78738E-01 1.17539E-04-1.90589E-01-1.36382E-13-2.27523E-13
 -1      3333 1.30799E+01-1.59293E+00 1.04962E-01-4.86164E+00 3.03625E-13 3.19703E-13
 -1      3334 1.56154E+01-2.90618E+00-1.07113E-02-5.82434E+00 4.59834E-13 6.33285E-13
 -1      3335 2.00344E+01 5.94698E-02-4.93912E-04-1.42623E-01 3.64896E-14-1.47947E-13
 -1      3336 2.00543E+01 1.00824E-01 2.50570E-03-1.14391E-01 7.38641E-14-1.35579E-13
 -1      3337 2.01037E+01 6.08178E-02-1.19723E-03-1.38992E-01 3.95285E-14-1.99876E-13
 -1      3338 2.01971E+01 1.89088E+00 1.13859E-03-1.00750E+00-1.75592E-13-3.95947E-13
 -1      3339 2.37263E+01-5.16817E+00-7.55156E-02 3.13818E+00 5.59067E-14-7.71795E-13
 -1      3340 2.12317E+01-4.75248E+00 6.66737E-02 4.33706E+00-7.37674E-14-5.44544E-13
 -1      3341 2.71658E+01-3.85169E+00 4.13845E-02-7.80141E-01-5.15473E-14-7.30513E-13
 -1      3342 2.76445E+01-2.22778E+00-8.08212E-02 6.77613E-01-1.09648E-13-7.39020E-13
 -1      3343 2.02905E+01 9.88178E-01-7.29294E-04 6.90649E-01 2.44418E-13-1.71901E-13
 -1      3344 2.02669E+01 1.30709E+00 3.02042E-03 7.71740E-01 2.59048E-13-2.32526E-13
 -1      3345 2.02700E+01 1.12764E+00 2.02984E-04 5.93765E-01 2.45324E-13-2.50529E-13
 -1      3346 2.02314E+01 7.75043E-01-3.76449E-03 4.84886E-01 2.27983E-13-1.96823E-13
 -1      3347 2.68325E+01 2.59049E+00-1.95739E-01 1.94409E+00-9.78384E-14-2.12726E-13
 -1      3348 2.69483E+01-3.71564E+00-1.19091E-01-1.21902E-01 8.98821E-14-4.48981E-13
 -1      3349 2.58243E+01-4.53420E+00 7.45977E-02 1.44335E+00 1.04529E-13-6.17090E-13
 -1      3350 1.50845E+01-2.82663E+00 5.44927E-02 5.86001E+00 5.73847E-15-2.81830E-13
 -1      3351 1.30919E+01-1.80482E+00 1.13664E-01 5.02464E+00-1.39180E-13-2.09666E-13
 -1      3352 1.71133E+01-2.52787E+00 1.00797E-01 5.33150E+00-4.29171E-15-4.84099E-13
 -1      3353 2.72136E+01-3.33585E+00-8.47136E-02 2.10051E-01-7.94503E-14-3.30978E-13
 -1      3354 2.63920E+01-4.40487E+00 5.31459E-02 1.74462E+00 3.93800E-14-3.38347E-13
 -1      3355 2.46159E+01-5.11511E+00-1.05309E-01 3.42340E+00-4.29864E-14-2.82860E-13
 -1      3356 2.28192E+01-4.82800E+00 1.25935E-01 4.62635E+00 1.09981E-14-5.30104E-13
 -1      3357 2.68240E+01 4.29526E+00-1.04363E-01 1.28071E+00-1.84602E-13-1.16920E-13
 -1      3358 2.62032E+01-2.57688E+00-1.40758E-02-1.14836E+00 6.05262E-14 1.63966E-14
 -1      3359 2.55083E+01-1.21324E+00-1.81274E-02-1.39594E+00-1.46504E-13 1.69792E-13
 -1      3360 2.71003E+01-7.33018E-01-6.57252E-02-1.54694E+00-1.75936E-13-6.43582E-14
 -1      3361 2.72709E+01-2.46482E+00-3.00902E-02-7.33755E-01-1.77339E-13-4.71428E-14
 -1      3362 2.53495E+01-2.02795E+00-3.49165E-02-9.21592E-01-1.10379E-13 1.45960E-13
 -1      3363 2.00258E+01 2.21749E+00-3.65901E-03 6.60077E-02 1.04176E-13-3.86833E-13
 -1      3364 2.00253E+01 2.21839E+00-3.63140E-03-5.81718E-02 7.26000E-14-3.93328E-13
 -1      3365 2.01400E+01 1.92168E+00 5.03303E-03 1.01647E-01 1.07131E-13-3.55877E-13
 -1      3366 2.02580E+01 1.46017E+00 7.64732E-03 5.89557E-01 2.42884E-13-2.84578E-13
 -1      3367 2.01580E+01 1.79894E+00-7.85248E-03 6.84451E-01 2.60528E-13-3.15887E-13
 -1      3368 2.01229E+01 1.93005E+00-2.90377E-03 5.90921E-01 2.45334E-13-3.25027E-13
 -1      3369 2.52593E+01-4.29216E+00 2.96030E-02 2.15347E+00-8.57439E-14-4.21937E-13
 -1      3370 1.95039E+01-1.81944E-01-2.33499E-02 3.25276E+00-5.54435E-14-3.70854E-13
 -1      3371 2.02366E+01-4.16172E-01 2.43194E-02 3.19091E+00-7.54012E-14-1.18900E-13
 -1      3372 1.80320E+01-2.95010E+00 1.23697E-01-5.34934E+00 4.04975E-13 2.77438E-13
 -1      3373 2.49405E+01-3.94809E+00-6.28585E-02 7.92641E-01 1.86881E-13-3.10252E-13
 -1      3374 2.56629E+01-3.16848E+00 2.57221E-02-4.38112E-01 1.61624E-13-3.75047E-15
 -1      3375 2.32125E+01-4.64396E+00 3.27396E-02-3.00937E+00-6.75918E-14 9.11111E-14
 -1      3376 2.55694E+01-2.74619E+00-1.06042E-02-1.02947E-01-5.66214E-15 1.09751E-13
 -1      3377 1.13270E+01-3.54831E-01 1.25553E-01-2.86728E+00-8.47412E-14-3.20612E-13
 -1      3378 1.30799E+01-6.65762E-01 6.51962E-02-3.34646E+00-1.54718E-13-1.57721E-13
 -1      3379 2.11617E+01-7.52870E-01-1.69840E-03-2.68223E+00 1.24854E-13-2.43744E-13
 -1      3380 1.25748E+01-1.08580E+00 1.23291E-01 4.30265E+00-2.17160E-13-1.38223E-13
 -1      3381 1.22031E+01-2.92654E-01 1.15365E-01 3.11119E+00-7.15435E-14-3.18454E-13
 -1      3382 1.46253E+01-1.05456E+00 3.49848E-02 4.31500E+00-1.24827E-13-1.31346E-13
 -1      3383 1.52018E+01 1.20067E+00-1.27559E-03-1.06206E+00 2.82478E-14-2.25812E-13
 -1      3384 2.30011E+01-4.56288E+00 5.22200E-02-4.14326E+00 4.95083E-13-2.46377E-13
 -1      3385 2.64027E+01-2.53384E+00-4.40907E-02 1.25744E+00-1.79671E-13 2.27566E-13
 -1      3386 2.65097E+01 7.77293E-01-6.40353E-02 2.83211E+00 1.65701E-13 5.00079E-13
 -1      3387 2.02534E+01 8.91611E-01-5.63859E-03-4.63805E-01-1.65336E-13-2.85740E-13
 -1      3388 2.02866E+01 9.33009E-01 1.31038E-03-4.11207E-01-1.38152E-13-2.84883E-13
 -1      3389 2.02865E+01 1.10448E+00-8.95166E-06-6.32932E-01-1.63947E-13-3.13906E-13
 -1      3390 1.77507E+01 6.03219E-01-3.69021E-02 2.89066E+00-8.00809E-14-4.29018E-13
 -1      3391 1.86591E+01 3.13697E-01 4.21253E-02 3.22697E+00-2.47790E-14-3.94639E-13
 -1      3392 1.90468E+01-5.18103E-01 1.72328E-02 3.58625E+00-1.03782E-13-4.12035E-13
 -1      3393 2.00660E+01 2.10454E+00-3.08962E-03 3.91322E-01 1.94725E-13-3.55149E-13
 -1      3394 2.01624E+01 1.84720E+00 5.49349E-03 2.91468E-01 1.64537E-13-3.32387E-13
 -1      3395 2.00918E+01 2.02397E+00-5.36330E-03 5.04755E-01 2.29769E-13-3.32333E-13
 -1      3396 2.64614E+01 4.91859E+00-2.44989E-01 5.52020E-01-2.86215E-13-4.01484E-14
 -1      3397 2.01635E+01 4.57954E-01-2.66152E-03 2.03055E-01 1.71557E-13-1.89980E-13
 -1      3398 2.02201E+01 5.98965E-01 2.79429E-03 3.41194E-01 1.92867E-13-1.98910E-13
 -1      3399 2.02551E+01 7.57822E-01 1.80619E-03 4.03718E-01 2.07816E-13-2.37991E-13
 -1      3400 1.62991E+01 1.38420E+00-1.88692E-02 1.58772E+00 7.43784E-14-7.52315E-14
 -1      3401 1.69599E+01 1.14767E+00 3.63381E-02 2.30064E+00 4.78697E-14-2.97782E-13
 -1      3402 1.69971E+01 4.33972E-01 4.25262E-02 2.96256E+00 4.24422E-15-3.30224E-13
 -1      3403 1.54217E+01 1.17373E+00 3.30082E-02 1.19551E+00-5.79207E-14-2.74746E-14
 -1      3404 2.08689E+01-7.02858E-01-6.00439E-03-2.88217E+00 1.67955E-13 1.46341E-13
 -1      3405 2.01118E+01 2.74354E-01-1.69064E-03 3.19394E-02 1.43575E-13-1.68632E-13
 -1      3406 2.01557E+01 3.70473E-01 3.42042E-03 1.21200E-01 1.58766E-13-1.76874E-13
 -1      3407 2.02107E+01 4.71732E-01-6.06293E-04 1.70922E-01 1.51427E-13-2.25126E-13
 -1      3408 2.01792E+01 2.95097E-01-1.68518E-03 2.53210E-02 1.24658E-13-2.22109E-13
 -1      3409 1.90528E+01-3.63246E+00 6.34601E-02-4.57367E+00-3.80598E-14 1.14443E-13
 -1      3410 2.07819E+01-1.18117E+00-1.24874E-03-3.21426E+00 2.72587E-13 1.82538E-13
 -1      3411 2.01429E+01 1.60366E-01-1.41798E-03-7.55893E-02 7.23100E-14-1.96135E-13
 -1      3412 2.58992E+01-4.13475E+00-2.34692E-02-1.43776E+00 6.05731E-14-5.53561E-13
 -1      3413 2.02173E+01 1.56758E+00-2.12008E-03-8.08303E-01-1.57428E-13-3.76275E-13
 -1      3414 1.06277E+01-8.22865E-03 7.21525E-02 1.44764E+00-1.29226E-13-1.89682E-13
 -1      3415 9.65045E+00-1.32161E-01 1.85344E-01 2.75286E-01 4.94587E-14-9.25787E-14
 -1      3416 1.05472E+01 6.77885E-02 4.81566E-02-8.11922E-01 7.71926E-14-1.43205E-13
 -1      3417 1.96935E+01-4.23000E+00 5.38549E-02 4.78155E+00-1.82937E-13-3.62019E-13
 -1      3418 1.79945E+01-3.33463E+00 3.81532E-02 4.73866E+00-1.45051E-13-3.56465E-13
 -1      3419 2.13169E+01-4.07101E+00 5.29260E-02 3.71347E+00 3.27099E-14-3.52166E-13
 -1      3420 2.46067E+01-4.45223E+00 3.02482E-02 1.87514E+00 1.37036E-13-5.20691E-13
 -1      3421 9.95547E+00 1.75444E-01 1.65844E-01-9.93540E-01-1.17544E-13-6.70103E-13
 -1      3422 1.05128E+01-1.95506E-01 6.39485E-02-2.07985E+00-8.63476E-14-4.97227E-13
 -1      3423 1.15983E+01 1.51801E-01 2.10895E-02-1.75360E+00-1.36363E-13-4.84363E-13
 -1      3424 1.51627E+01-2.19610E+00 3.64786E-02 4.63943E+00 9.26689E-15-4.83086E-13
 -1      3425 1.32396E+01-1.81128E+00 1.32057E-01 4.62112E+00-5.40748E-14-6.56517E-13
 -1      3426 1.27751E+01-1.02699E+00 3.93630E-02 3.77509E+00-1.07171E-14-5.93241E-13
 -1      3427 1.24878E+01-8.86270E-01 1.35749E-01-4.07402E+00 1.21167E-13-7.45792E-14
 -1      3428 1.43497E+01-1.11653E+00-3.84088E-02-4.29406E+00 7.18696E-14 1.79565E-13
 -1      3429 1.20009E+01-5.43324E-02 1.47703E-01-2.71853E+00 4.84994E-14-2.47607E-13
 -1      3430 2.66092E+01-3.99027E+00-3.70800E-02-3.49715E-01-1.30104E-13 5.87030E-15
 -1      3431 2.66753E+01-3.07109E+00-2.08153E-02 7.55357E-01-2.24314E-13 2.63276E-13
 -1      3432 2.58096E+01-3.27450E+00 4.69366E-02 3.53105E-01-4.87613E-14 1.88124E-13
 -1      3433 2.54199E+01-4.22499E+00 3.76415E-03-1.10535E+00-1.64628E-13 3.17732E-14
 -1      3434 2.00634E+01 2.11045E+00-3.06629E-03-3.83928E-01 1.08164E-14-3.89214E-13
 -1      3435 2.00879E+01 2.03276E+00-5.17432E-03-4.98317E-01-4.00438E-14-4.00234E-13
 -1      3436 9.83810E+00 1.59434E-01 1.70403E-01 1.07137E+00-4.18589E-14-5.71890E-13
 -1      3437 9.66197E+00 9.12810E-02 8.16913E-02-1.07097E-01-3.46728E-15-6.50285E-13
 -1      3438 1.10529E+01 3.72314E-01 4.91169E-02-9.54545E-02-2.83246E-14-4.67945E-13
 -1      3439 2.13891E+01-4.02225E+00 6.83571E-02 4.73186E+00-6.39488E-14-5.79020E-13
 -1      3440 2.62651E+01-2.99518E+00-1.93294E-02-2.24238E-02-9.12048E-14-6.90038E-14
 -1      3441 1.09793E+01-1.12485E-01 6.62035E-02 2.00288E+00-1.55934E-14-5.29105E-13
 -1      3442 2.01196E+01 1.93911E+00-2.91836E-03-5.85105E-01-7.26379E-14-4.02383E-13
 -1      3443 2.01566E+01 1.81036E+00-6.83983E-03-6.82696E-01-1.06175E-13-4.11848E-13
 -1      3444 2.02006E+01 1.70212E+00 5.55390E-03-4.54712E-01-5.97123E-14-3.62578E-13
 -1      3445 1.73630E+01-1.89677E+00 1.56512E-01-5.00093E+00 3.37202E-13 1.99500E-13
 -1      3446 1.94763E+01-3.37177E+00-5.88294E-02-5.18509E+00 5.58602E-13-2.10557E-13
 -1      3447 2.35811E+01-4.08957E+00 4.63939E-02 2.16578E+00 1.48555E-13-4.15455E-13
 -1      3448 2.25185E+01-4.07359E+00 5.32018E-02-2.92890E+00-4.55799E-14 9.96568E-14
 -1      3449 2.43698E+01-4.47667E+00-2.35078E-02-1.94090E+00-1.15994E-13 1.02283E-13
 -1      3450 2.02679E+01 2.36755E-01 2.20424E-03 3.86205E-02-1.02732E-13-1.97623E-13
 -1      3451 2.02434E+01 1.61478E-01-1.28687E-03 7.93933E-02-9.76781E-14-1.52026E-13
 -1      3452 2.02287E+01 1.02891E-01 1.60589E-03 1.05466E-01-7.97886E-14-1.37241E-13
 -1      3453 2.02073E+01 5.45585E-02-6.41569E-04 1.27411E-01-1.51732E-14-1.17742E-13
 -1      3454 2.02853E+01 1.59119E-01-4.39686E-04 7.58484E-02-5.45116E-14-1.04636E-13
 -1      3455 2.01899E+01 1.79401E-02 1.11749E-03 1.39885E-01-1.69004E-14-1.31475E-13
 -1      3456 2.01723E+01-1.12594E-02-1.99792E-04 1.48996E-01-2.78525E-14-1.45841E-13
 -1      3457 2.02477E+01 4.93775E-02-5.92796E-04 1.17487E-01-3.66400E-14-8.98894E-14
 -1      3458 2.01546E+01-3.23294E-02 7.11629E-04 1.52381E-01-1.81858E-14-1.77611E-13
 -1      3459 2.01407E+01-4.79642E-02 9.13916E-05 1.53370E-01-1.20400E-14-1.52491E-13
 -1      3460 2.02095E+01-1.77834E-02-6.28654E-04 1.36078E-01-1.46049E-14-1.59098E-13
 -1      3461 2.01240E+01-5.80558E-02 3.96386E-04 1.51252E-01 4.59251E-15-1.19491E-13
 -1      3462 2.01134E+01-6.41069E-02 2.76478E-04 1.47669E-01-3.92996E-16-5.29230E-14
 -1      3463 2.01735E+01-5.44992E-02-5.99238E-04 1.39674E-01 2.43773E-14-1.77398E-13
 -1      3464 2.00982E+01-6.64461E-02 1.58093E-04 1.42777E-01-5.63527E-14-8.51668E-15
 -1      3465 2.00903E+01-6.57052E-02 3.89942E-04 1.37245E-01-6.00706E-14-1.36844E-14
 -1      3466 2.01412E+01-6.95647E-02-5.34546E-04 1.34600E-01-2.00586E-14-1.09748E-13
 -1      3467 2.00768E+01-6.25130E-02-2.28790E-05 1.31606E-01-8.84443E-14-5.37960E-14
 -1      3468 2.00712E+01-5.68626E-02 4.58689E-04 1.26054E-01-8.51648E-14-4.63259E-14
 -1      3469 2.01130E+01-6.92066E-02-4.51804E-04 1.25645E-01-1.09931E-13-9.75356E-14
 -1      3470 2.00593E+01-4.95899E-02-1.66562E-04 1.21176E-01-7.59144E-14-1.02362E-13
 -1      3471 2.00554E+01-4.02149E-02 5.02435E-04 1.17049E-01-8.75971E-14-1.03835E-13
 -1      3472 2.00887E+01-5.76569E-02-3.59264E-04 1.16380E-01-1.09252E-13-9.53959E-14
 -1      3473 2.00446E+01-2.97297E-02-2.89951E-04 1.14090E-01-8.86602E-14-7.27085E-14
 -1      3474 2.00420E+01-1.72854E-02 5.35573E-04 1.12516E-01-7.76264E-14-9.12743E-14
 -1      3475 2.00674E+01-3.76136E-02-2.62314E-04 1.09508E-01-5.14939E-14-1.43415E-13
 -1      3476 2.00319E+01-4.01095E-03-4.07843E-04 1.12409E-01-1.15766E-13-1.23723E-13
 -1      3477 2.00302E+01 1.12543E-02 5.68966E-04 1.14335E-01-1.19018E-13-1.30693E-13
 -1      3478 2.00483E+01-1.05907E-02-1.58714E-04 1.07144E-01-1.13462E-13-1.00090E-13
 -1      3479 2.00199E+01 2.72323E-02-5.32585E-04 1.17898E-01-1.19541E-13-1.73512E-13
 -1      3480 2.00186E+01 4.53663E-02 6.09741E-04 1.24189E-01-1.34238E-13-2.11558E-13
 -1      3481 2.00301E+01 2.27924E-02-4.65715E-05 1.11049E-01-9.78081E-14-6.78964E-14
 -1      3482 2.00074E+01 6.41919E-02-6.74280E-04 1.32212E-01-1.52282E-13-1.88062E-13
 -1      3483 2.00062E+01 8.54316E-02 6.61297E-04 1.43719E-01-1.11330E-13-1.19907E-13
 -1      3484 2.00111E+01 6.25753E-02 7.84220E-05 1.22829E-01-1.33864E-13-8.27097E-14
 -1      3485 1.99930E+01 1.07379E-01-8.41270E-04 1.57010E-01-1.40551E-15-6.26345E-14
 -1      3486 1.99913E+01 1.32044E-01 7.25058E-04 1.74611E-01 3.30912E-14-3.34527E-14
 -1      3487 1.99897E+01 1.09214E-01 2.21823E-04 1.44057E-01-4.06963E-14-4.76370E-14
 -1      3488 1.99751E+01 1.57406E-01-1.03967E-03 1.94027E-01-4.70182E-14 1.74449E-14
 -1      3489 1.99723E+01 1.85776E-01 8.00816E-04 2.18637E-01-4.61389E-14-2.95971E-14
 -1      3490 1.99638E+01 1.63345E-01 3.89691E-04 1.76350E-01 3.86216E-15 7.25045E-14
 -1      3491 1.99517E+01 2.14730E-01-1.27297E-03 2.45088E-01 9.64684E-15-6.90535E-14
 -1      3492 1.99473E+01 2.46882E-01 8.87661E-04 2.77643E-01 3.23601E-14-2.07396E-14
 -1      3493 1.99310E+01 2.25512E-01 5.87825E-04 2.21404E-01 4.76932E-15-6.24309E-14
 -1      3494 1.99208E+01 2.79302E-01-1.54137E-03 3.12087E-01 6.57530E-14 2.80380E-14
 -1      3495 1.99141E+01 3.14895E-01 9.86075E-04 3.53492E-01 1.66547E-13 8.80744E-14
 -1      3496 1.98886E+01 2.95822E-01 8.20219E-04 2.80994E-01 8.85976E-14-7.70181E-14
 -1      3497 1.98802E+01 3.50098E-01-1.84077E-03 3.96911E-01 1.45583E-13 4.18250E-14
 -1      3498 1.98705E+01 3.88069E-01 1.10198E-03 4.47975E-01 4.84077E-14 2.95180E-14
 -1      3499 1.98336E+01 3.73482E-01 1.08645E-03 3.56946E-01 1.07148E-13 3.61890E-15
 -1      3500 1.98277E+01 4.24456E-01-2.16117E-03 5.01361E-01-2.51586E-14-3.59723E-14
 -1      3501 1.98146E+01 4.62593E-01 1.25399E-03 5.62706E-01-4.41482E-14-9.41554E-14
 -1      3502 1.97630E+01 4.56176E-01 1.37726E-03 4.51111E-01-1.10929E-14-7.93409E-14
 -1      3503 1.97616E+01 4.97135E-01-2.48414E-03 6.27081E-01-7.05576E-14-6.54345E-14
 -1      3504 1.97453E+01 5.31486E-01 1.48535E-03 6.99066E-01-4.90989E-14-6.71545E-14
 -1      3505 1.96738E+01 5.39197E-01 1.66706E-03 5.65407E-01-4.38021E-14-9.75632E-14
 -1      3506 1.96815E+01 5.59025E-01-2.77763E-03 7.75592E-01-3.32302E-14-1.06328E-13
 -1      3507 1.96638E+01 5.83092E-01 1.88124E-03 8.58267E-01-2.02071E-15-1.48241E-13
 -1      3508 1.95639E+01 6.14272E-01 1.90122E-03 7.02005E-01-1.16731E-13-1.17369E-13
 -1      3509 1.95900E+01 5.95393E-01-2.98460E-03 9.48478E-01-1.72122E-14-1.57125E-13
 -1      3510 1.95752E+01 5.99077E-01 2.59324E-03 1.04160E+00-4.12125E-14-1.26188E-13
 -1      3511 1.94332E+01 6.67970E-01 1.97480E-03 8.63793E-01 1.76548E-14-1.27718E-13
 -1      3512 1.94951E+01 5.83642E-01-2.99278E-03 1.14783E+00-7.62305E-15-5.00678E-14
 -1      3513 1.94925E+01 5.51944E-01 3.86538E-03 1.25086E+00 8.28938E-14 3.01916E-14
 -1      3514 1.92854E+01 6.79625E-01 1.70082E-03 1.05526E+00 7.13733E-14-9.83193E-14
 -1      3515 1.94148E+01 4.90645E-01-2.56526E-03 1.37681E+00 1.80760E-13 2.91086E-14
 -1      3516 1.94417E+01 4.02137E-01 6.02994E-03 1.48872E+00 2.81175E-13 8.41154E-14
 -1      3517 1.91313E+01 6.18691E-01 7.53597E-04 1.28386E+00 1.53383E-13 1.87535E-14
 -1      3518 1.93845E+01 2.69891E-01-1.12365E-03 1.63957E+00 1.44228E-13 3.87027E-14
 -1      3519 1.94715E+01 9.55028E-02 9.58241E-03 1.75728E+00 9.29580E-14-5.90500E-14
 -1      3520 1.89950E+01 4.41107E-01-1.44101E-03 1.56161E+00 1.60422E-13-1.19124E-13
 -1      3521 1.94697E+01-1.40058E-01 2.59610E-03 1.93867E+00 3.30781E-14-2.25922E-13
 -1      3522 1.96665E+01-4.38573E-01 1.41696E-02 2.05217E+00 3.78647E-14-2.71420E-13
 -1      3523 1.89231E+01 8.59933E-02-5.78304E-03 1.90472E+00-2.42795E-14-1.98362E-13
 -1      3524 1.97899E+01-8.12947E-01 1.15741E-02 2.25897E+00 2.67104E-15-3.85123E-13
 -1      3525 2.01661E+01-1.26696E+00 2.11957E-02 2.34259E+00-7.29308E-14-4.44375E-13
 -1      3526 1.90013E+01-5.30596E-01-1.47320E-02 2.33153E+00-8.89676E-14-5.32937E-13
 -1      3527 2.05175E+01-1.80866E+00 2.70864E-02 2.51349E+00-7.50094E-14-3.93081E-13
 -1      3528 2.10985E+01-2.43254E+00 9.91972E-03 2.49955E+00-5.74471E-14-3.85704E-13
 -1      3529 1.94349E+01-1.54157E+00-3.60126E-02 2.82984E+00-4.28550E-14-4.95127E-13
 -1      3530 2.49055E+01-4.06492E+00 7.15782E-02-2.19930E+00 1.99067E-13-2.74562E-13
 -1      3531 2.36004E+01-3.67001E+00-9.74042E-03-2.66970E+00 1.14270E-13-3.93135E-14
 -1      3532 2.28335E+01-2.97129E+00 7.83894E-02-3.00418E+00 1.51015E-13-1.79908E-14
 -1      3533 2.35580E+01-4.20908E+00-6.20520E-02-3.23801E+00 2.29317E-13 6.73073E-16
 -1      3534 2.19074E+01-2.50507E+00-3.03469E-03-3.22183E+00 2.45192E-13 1.86815E-13
 -1      3535 2.13658E+01-1.73617E+00 4.18505E-02-3.24770E+00 2.97183E-13 1.51651E-13
 -1      3536 2.03527E+01-1.50763E+00-1.04992E-02-3.64756E+00 2.61804E-13 5.40601E-13
 -1      3537 2.16035E+01-2.91558E+00-4.99100E-02-3.69562E+00 2.65947E-13 4.82468E-13
 -1      3538 2.06189E+01-4.96966E-01-6.60774E-03 2.95392E+00-1.14740E-13-1.01302E-13
 -1      3539 2.09968E+01-5.97958E-01 9.44554E-03 2.72769E+00-1.02831E-13 6.10449E-15
 -1      3540 2.12415E+01-9.59791E-01 1.10825E-02 2.75289E+00-3.56256E-14-1.07374E-13
 -1      3541 2.04392E+01-9.53897E-01-6.07201E-03 3.32019E+00 6.29271E-16-1.66665E-13
 -1      3542 2.00482E+01-5.46861E-02 4.61992E-04-1.34149E-01-2.70280E-14-9.62841E-14
 -1      3543 2.00507E+01-5.92292E-02-3.84030E-05-1.40571E-01-1.12298E-14-1.38932E-13
 -1      3544 2.00242E+01 3.48707E-03 5.97525E-04-1.16713E-01 1.08021E-14-4.40980E-14
 -1      3545 2.00227E+01-9.72669E-03-4.05225E-04-1.15832E-01-1.06013E-14-8.95677E-14
 -1      3546 2.00192E+01 3.29377E-02 6.54252E-04-1.24680E-01 9.03905E-14-3.75821E-14
 -1      3547 2.00170E+01 1.72242E-02-5.12499E-04-1.19446E-01 8.74378E-14-3.60595E-14
 -1      3548 2.00280E+01 1.29668E-02-9.63094E-05-1.15782E-01 3.24304E-15-1.23858E-13
 -1      3549 2.00145E+01 6.75403E-02 7.26445E-04-1.42418E-01 2.23863E-14-5.31873E-14
 -1      3550 2.00117E+01 4.91330E-02-6.33417E-04-1.31972E-01 6.77524E-14-3.96285E-14
 -1      3551 2.00156E+01 4.78747E-02-2.63838E-06-1.26146E-01 7.81982E-14-9.23195E-14
 -1      3552 2.00089E+01 1.07807E-01 8.16335E-04-1.71656E-01 8.44927E-14-1.98861E-14
 -1      3553 2.00057E+01 8.64246E-02-7.76264E-04-1.55107E-01 4.45028E-14-8.13706E-14
 -1      3554 2.00021E+01 8.88213E-02 1.02069E-04-1.46291E-01 5.94139E-14-1.18909E-13
 -1      3555 2.00015E+01 1.54256E-01 9.23933E-04-2.14208E-01 3.14297E-14 1.80456E-13
 -1      3556 1.99982E+01 1.29641E-01-9.47001E-04-1.90629E-01 1.10230E-13 9.91814E-14
 -1      3557 1.99859E+01 1.36367E-01 2.23641E-04-1.77922E-01 2.67504E-14-1.88177E-15
 -1      3558 1.99911E+01 2.07146E-01 1.04780E-03-2.71968E-01-4.74888E-14 1.24245E-13
 -1      3559 1.99878E+01 1.79209E-01-1.14859E-03-2.40408E-01 1.01861E-15 1.07330E-13
 -1      3560 1.99652E+01 1.91017E-01 3.67172E-04-2.22823E-01 1.81710E-14-5.16268E-15
 -1      3561 1.99764E+01 2.66114E-01 1.18633E-03-3.46831E-01-3.61664E-14 9.94857E-14
 -1      3562 1.99734E+01 2.35130E-01-1.37981E-03-3.06378E-01-5.23614E-14 5.42722E-14
 -1      3563 1.99381E+01 2.52900E-01 5.35757E-04-2.82857E-01 8.54278E-15-5.30859E-16
 -1      3564 1.99561E+01 3.29665E-01 1.34042E-03-4.40560E-01-2.67035E-14 9.76327E-14
 -1      3565 1.99535E+01 2.96554E-01-1.63345E-03-3.90433E-01-4.59198E-14 1.40362E-13
 -1      3566 1.99025E+01 3.21343E-01 7.27765E-04-3.59907E-01-9.70550E-15-8.28693E-14
 -1      3567 1.99292E+01 3.94436E-01 1.51873E-03-5.54589E-01-2.97611E-14 7.73617E-14
 -1      3568 1.99271E+01 3.61165E-01-1.89345E-03-4.94281E-01-3.72489E-14 8.73435E-14
 -1      3569 1.98563E+01 3.94270E-01 9.32042E-04-4.55799E-01-6.12275E-14-6.04104E-14
 -1      3570 1.98958E+01 4.54163E-01 1.74657E-03-6.89797E-01-1.09406E-13 1.03154E-13
 -1      3571 1.98935E+01 4.24307E-01-2.13018E-03-6.19246E-01-2.23557E-14 1.13332E-13
 -1      3572 1.97975E+01 4.67370E-01 1.11971E-03-5.72223E-01-5.88316E-14-5.04432E-14
 -1      3573 1.98577E+01 4.98239E-01 2.07890E-03-8.46271E-01-1.36805E-13 3.73629E-14
 -1      3574 1.98534E+01 4.77758E-01-2.29211E-03-7.66073E-01-1.38621E-13 8.56786E-14
 -1      3575 1.97255E+01 5.32929E-01 1.23043E-03-7.10715E-01-1.02380E-13-1.16524E-13
 -1      3576 1.98211E+01 5.09791E-01 2.61359E-03-1.02307E+00-1.03517E-13 5.44639E-14
 -1      3577 1.98106E+01 5.08056E-01-2.28988E-03-9.34735E-01-1.24030E-13 1.18462E-13
 -1      3578 1.96416E+01 5.78239E-01 1.14934E-03-8.72775E-01-1.87373E-13-1.28725E-13
 -1      3579 1.97993E+01 4.63332E-01 3.49540E-03-1.21794E+00-2.56051E-13 1.36066E-13
 -1      3580 1.97742E+01 4.94355E-01-1.96589E-03-1.12424E+00-1.38647E-13 1.72911E-13
 -1      3581 1.95516E+01 5.83484E-01 6.68966E-04-1.06017E+00-1.72285E-13-5.72500E-14
 -1      3582 1.98179E+01 3.22404E-01 4.88744E-03-1.42644E+00-5.74324E-14 7.44127E-14
 -1      3583 1.97632E+01 4.06003E-01-1.03715E-03-1.33217E+00-1.79110E-13 9.65497E-14
 -1      3584 1.94690E+01 5.19118E-01-5.65003E-04-1.27534E+00-2.14202E-13-6.52382E-14
 -1      3585 1.99219E+01 3.84265E-02 6.77079E-03-1.63971E+00-7.57741E-14 5.29503E-14
 -1      3586 1.98126E+01 2.00712E-01 1.00044E-03-1.55325E+00-3.59702E-14 2.84059E-14
 -1      3587 1.94212E+01 3.43156E-01-3.13466E-03-1.52120E+00-7.59012E-14-1.00290E-13
 -1      3588 2.01850E+01-4.46134E-01 8.89675E-03-1.83784E+00-9.21309E-14 2.84865E-14
 -1      3589 1.99833E+01-1.75035E-01 4.94186E-03-1.77533E+00-7.12327E-14 2.02964E-14
 -1      3590 1.94578E+01-7.53928E-04-8.17315E-03-1.79900E+00-3.79737E-14-1.48038E-13
 -1      3591 2.07154E+01-1.18941E+00 8.26750E-03-1.97473E+00 2.49540E-15 6.65265E-14
 -1      3592 2.03758E+01-7.79334E-01 1.33527E-02-1.96843E+00-7.85011E-14 7.28126E-14
 -1      3593 1.96645E+01-5.85077E-01-1.78785E-02-2.10177E+00-1.01553E-13-5.78803E-14
 -1      3594 2.16621E+01-2.16334E+00 1.06943E-02-1.93098E+00-1.37824E-14 1.08833E-13
 -1      3595 2.11368E+01-1.64267E+00 2.91336E-02-2.04203E+00 1.16751E-13 1.75279E-13
 -1      3596 2.01929E+01-1.48303E+00-3.20772E-02-2.38203E+00 3.95972E-15 1.10286E-13
 -1      3597 2.47771E+01-3.51726E+00-2.39771E-03-4.80993E-01-1.27795E-13 1.81560E-13
 -1      3598 2.40248E+01-3.38725E+00 7.32199E-02-1.11335E+00-1.24340E-13 1.67007E-13
 -1      3599 2.49953E+01 4.20170E+00-5.57942E-02 4.26320E-01 8.45851E-14 3.82208E-13
 -1      3600 2.49836E+01 3.88777E+00-1.01948E-01 1.39748E+00 1.72334E-13 5.35343E-13
 -1      3601 1.34721E+01-2.63673E-01 1.06877E-02-2.84957E+00-2.29651E-13-1.67144E-13
 -1      3602 1.44398E+01-8.96745E-01 5.86511E-02-3.66676E+00-1.62516E-13-6.89518E-14
 -1      3603 2.18594E+01-3.74211E+00 1.03449E-01-4.35986E+00 4.26867E-13-3.07107E-14
 -1      3604 1.82287E+01-2.49310E+00-4.66808E-02 5.03200E+00-7.18349E-14-7.13284E-13
 -1      3605 1.69482E+01-1.53285E+00 1.20014E-01 4.75039E+00-1.11119E-13-3.46397E-13
 -1      3606 2.01982E+01 1.60688E-01-1.25478E-03-8.02834E-02 5.74911E-14-2.00005E-13
 -1      3607 2.02250E+01 2.33137E-01 2.53469E-03-3.54033E-02 7.02822E-14-2.13108E-13
 -1      3608 1.82402E+01-2.78387E+00 7.83671E-02-4.32706E+00-1.17979E-14 1.79128E-13
 -1      3609 2.01071E+01-3.65550E+00-4.30029E-02-3.99171E+00-8.61984E-14 6.43166E-14
 -1      3610 1.95328E+01-1.53930E+00 4.49966E-02-4.12900E+00 3.87346E-13 2.46652E-13
 -1      3611 1.81156E+01-1.13842E+00-2.71050E-02-4.15838E+00 3.86698E-13-1.47913E-13
 -1      3612 2.01292E+01-6.06471E-03-1.91281E-04-1.59165E-01 6.08687E-14-2.09750E-13
 -1      3613 2.01450E+01 2.22986E-02 1.26689E-03-1.49169E-01 2.36332E-14-2.11250E-13
 -1      3614 1.59893E+01-7.60765E-02 6.04553E-02-3.52492E+00 2.75249E-14-1.54946E-13
 -1      3615 1.48016E+01 3.97771E-01 3.01787E-02-2.76867E+00-1.35517E-14-2.02963E-13
 -1      3616 2.00618E+01-6.14803E-02 3.92118E-04-1.46933E-01 1.38851E-14-1.53902E-13
 -1      3617 2.00665E+01-6.14597E-02 1.55344E-04-1.53164E-01 2.53210E-14-1.44958E-13
 -1      3618 2.00901E+01-6.61363E-02-4.51049E-04-1.37367E-01-1.23956E-15-1.82691E-13
 -1      3619 2.25914E+01-3.99807E+00-5.89129E-02 3.79785E+00 3.07046E-14-4.17945E-13
 -1      3620 2.04650E+01-3.17743E+00 8.98947E-02 4.72313E+00 1.28779E-13-7.00912E-13
 -1      3621 2.00573E+01-2.39204E+00 4.39468E-02 4.29847E+00 3.32130E-14-5.33455E-13
 -1      3622 2.69440E+01 4.79001E+00-1.37478E-01 1.64314E+00 2.28290E-13 4.53496E-13
 -1      3623 2.00301E+01-2.11081E-02 5.52133E-04-1.16837E-01-2.14141E-14-8.77282E-14
 -1      3624 2.00297E+01-3.18290E-02-2.99955E-04-1.19431E-01-3.69039E-14-2.15830E-14
 -1      3625 2.00405E+01-1.62738E-02-1.84773E-04-1.13545E-01-8.48018E-15-1.82075E-13
 -1      3626 2.00315E+01 2.20106E+00-3.34319E-03-1.63092E-01 6.20122E-14-4.15601E-13
 -1      3627 2.00438E+01 2.16434E+00-4.23473E-03-2.84772E-01 3.18429E-14-4.14009E-13
 -1      3628 2.01603E+01 1.85170E+00 5.33086E-03-2.85295E-01 2.65143E-14-3.67628E-13
 -1      3629 2.01617E+01 5.75657E-02-6.35104E-04-1.34536E-01 4.65714E-14-1.98448E-13
 -1      3630 2.01828E+01 1.04295E-01 1.86955E-03-1.10433E-01 5.88479E-14-1.75924E-13
 -1      3631 2.02102E+01 5.43390E-02-7.38492E-04-1.26454E-01 5.76543E-14-2.08288E-13
 -1      3632 2.02195E+01 1.58102E+00 1.77586E-03-7.00383E-01-1.27544E-13-3.68605E-13
 -1      3633 2.00379E+01-4.07328E-02 5.10330E-04-1.23309E-01-7.75860E-14-5.27173E-14
 -1      3634 2.00387E+01-4.86877E-02-1.83094E-04-1.28404E-01-5.50446E-14-3.91276E-14
 -1      3635 2.00706E+01-5.69229E-02-3.60047E-04-1.26443E-01-3.64537E-14-1.32870E-13
 -1      3636 2.00543E+01-3.97935E-02-2.70607E-04-1.17733E-01-6.65265E-14-1.24935E-13
 -1      3637 2.03019E+01 4.38492E-01 2.92481E-03-7.41847E-02-1.03361E-13-2.37375E-13
 -1      3638 2.02756E+01 3.26344E-01-2.16330E-03-6.74943E-03-1.08946E-13-2.29887E-13
 -1      3639 2.03159E+01 3.28523E-01-7.90584E-05 1.50900E-03-8.34236E-14-1.71462E-13
 -1      3640 2.67292E+01 5.37574E+00-1.86576E-01 8.83280E-01 3.67623E-13 2.48436E-13
 -1      3641 2.56357E+01-3.53856E+00-2.68605E-02 7.49282E-01 1.11706E-13-1.04707E-13
 -1      3642 2.02851E+01 8.83922E-01-1.37907E-04 4.45819E-01 2.13292E-13-2.68199E-13
 -1      3643 2.02762E+01 1.05793E+00-2.26348E-03 4.85498E-01 2.30851E-13-2.80787E-13
 -1      3644 2.02604E+01 6.96876E-01-1.95916E-03 3.00719E-01 1.74281E-13-2.67962E-13
 -1      3645 2.03120E+01 7.31282E-01-3.90458E-04-2.45578E-01-1.13351E-13-2.82184E-13
 -1      3646 2.02939E+01 5.71848E-01-3.61924E-03-1.41227E-01-1.08734E-13-2.54778E-13
 -1      3647 2.03312E+01 5.72154E-01-1.36133E-03-1.14670E-01-9.07833E-14-2.45059E-13
 -1      3648 1.40399E+01 6.64803E-01 7.31941E-03-1.55375E+00-9.93372E-14-2.07195E-13
 -1      3649 1.21275E+01-1.79111E-01 1.26175E-01 2.81685E+00-2.05252E-14-5.18245E-13
 -1      3650 1.17980E+01 2.23401E-01 2.08801E-02 1.62791E+00 5.29542E-14-5.98854E-13
 -1      3651 1.35346E+01-6.25044E-01 3.53012E-02 3.23044E+00 6.75328E-14-5.16538E-13
 -1      3652 1.53174E+01-1.48809E+00 4.32169E-02-4.06008E+00-2.10826E-13-1.66450E-13
 -1      3653 1.66516E+01-2.30254E+00 1.10311E-02-4.42648E+00-7.00100E-14 1.13971E-13
 -1      3654 1.56919E+01-1.03754E+00 3.44479E-02-3.55505E+00-2.74709E-13-7.34413E-14
 -1      3655 2.45805E+01-3.87660E+00 1.94377E-02 2.09212E+00-4.71151E-15-2.19279E-13
 -1      3656 2.37735E+01-3.56063E+00 4.71501E-02 2.56391E+00 4.66885E-14-1.93710E-13
 -1      3657 2.27520E+01-2.97746E+00 6.99616E-03 2.85977E+00 1.74201E-13-1.35470E-13
 -1      3658 2.02714E+01 1.19496E+00 5.19823E-04 4.52654E-01 2.11816E-13-2.83016E-13
 -1      3659 2.02212E+01 1.54573E+00-5.00520E-03 2.83598E-01 1.55053E-13-3.24534E-13
 -1      3660 2.02110E+01 1.60570E+00-2.50235E-03 2.02467E-01 1.29159E-13-3.03826E-13
 -1      3661 2.30166E+01-3.53829E+00 2.21171E-02 1.99453E+00 3.97113E-14-4.26425E-13
 -1      3662 2.21769E+01-4.03694E+00-1.25308E-02 3.07854E+00 3.56208E-14-4.15182E-13
 -1      3663 2.16090E+01-3.50101E+00 1.71349E-02-2.98942E+00-1.19155E-13 2.00482E-13
 -1      3664 2.00823E+01-2.22315E+00 5.07677E-02-4.28948E+00 3.62651E-13 1.67914E-13
 -1      3665 2.21266E+01-2.97247E+00 5.87884E-02 2.33698E+00-6.25207E-14-4.05163E-13
 -1      3666 1.80664E+01-2.20834E+00 4.46908E-02-3.90304E+00-9.09186E-14 1.50846E-13
 -1      3667 1.62383E+01-8.85725E-01 7.34969E-02 4.15472E+00-1.51910E-13-1.50061E-13
 -1      3668 2.01392E+01 1.92326E+00 5.02238E-03-9.50402E-02 6.78150E-14-3.86160E-13
 -1      3669 2.02114E+01 1.60913E+00-2.09097E-03-1.97105E-01 4.94985E-14-3.53529E-13
 -1      3670 2.02215E+01 1.55224E+00-4.04717E-03-2.80584E-01 1.53851E-14-3.45178E-13
 -1      3671 2.31331E+01-3.21121E+00-4.53258E-03-1.49554E+00-9.11198E-14 1.30432E-13
 -1      3672 2.24115E+01-2.71791E+00 3.99968E-02-1.85147E+00-1.00503E-13 1.44936E-14
 -1      3673 2.02548E+01 1.36517E+00 1.10165E-03-5.38844E-01-1.09818E-13-3.68779E-13
 -1      3674 2.08864E+01-2.98913E+00 2.87803E-02-4.24592E+00 4.02477E-13 3.86388E-14
 -1      3675 2.20717E+01-2.33537E+00 2.57088E-02 3.02290E+00 2.47299E-13-2.40140E-13
 -1      3676 2.00794E+01-5.85673E-02 2.79846E-04-1.58490E-01 2.62772E-14-1.44633E-13
 -1      3677 2.00870E+01-5.21702E-02 4.21119E-04-1.62474E-01 4.72149E-14-1.73758E-13
 -1      3678 2.01136E+01-6.47858E-02-5.45240E-04-1.47543E-01 1.34113E-14-1.60620E-13
 -1      3679 2.02041E+01 1.69669E+00 6.59963E-03 4.60898E-01 2.13069E-13-3.12172E-13
 -1      3680 2.02821E+01 3.28453E-01-4.88450E-04 7.75883E-03 5.89163E-14-1.99403E-13
 -1      3681 2.02362E+01 3.22077E-01-1.48078E-03 1.78021E-02 6.86388E-14-2.23376E-13
 -1      3682 1.32711E+01 9.53463E-01 7.89759E-02 2.66953E-01-6.10484E-14-1.26635E-13
 -1      3683 1.36234E+01 7.09293E-01 3.13537E-02 1.50764E+00 2.89872E-15-2.01075E-13
 -1      3684 1.29320E+01 4.45579E-01-1.23170E-03 1.46969E+00 9.34575E-14-4.63230E-13
 -1      3685 1.23362E+01 6.76536E-01 1.01215E-01 7.45864E-01 4.70800E-14-4.16986E-13
 -1      3686 2.02552E+01 4.08957E-01 2.83616E-03 7.92146E-02 1.08061E-13-2.51113E-13
 -1      3687 2.15923E+01-1.35736E+00 6.75692E-03 2.68825E+00 1.39302E-13-8.16352E-14
 -1      3688 1.26359E+01 1.55739E-01 1.08800E-01 2.12941E+00-5.06505E-14-2.48926E-13
 -1      3689 2.07841E+01-3.42425E+00 1.66485E-02 3.46961E+00-3.09978E-14-3.32430E-13
 -1      3690 2.01017E+01-4.20167E-02 9.75825E-05-1.64518E-01 5.36448E-14-1.79894E-13
 -1      3691 2.01130E+01-2.65635E-02 7.83796E-04-1.63438E-01 7.15492E-14-1.97197E-13
 -1      3692 2.01416E+01-4.87318E-02-6.36991E-04-1.52990E-01 4.69998E-14-1.84434E-13
 -1      3693 1.70379E+01-2.51962E+00 8.59568E-02 4.54960E+00 9.55486E-15-3.98567E-13
 -1      3694 1.60258E+01-1.76344E+00 2.96628E-03 4.11131E+00 1.19208E-13-4.86677E-13
 -1      3695 1.87732E+01-2.81300E+00 3.46783E-02 4.02410E+00 5.65485E-14-3.77748E-13
 -1      3696 2.02999E+01 1.28904E+00 5.78266E-03-2.49603E-01 1.74700E-15-3.08269E-13
 -1      3697 2.02355E+01 1.48929E+00-1.20768E-03-3.42321E-01-8.54366E-15-3.19734E-13
 -1      3698 2.02498E+01 1.40458E+00-1.56815E-03-4.10458E-01-6.85200E-14-3.55747E-13
 -1      3699 1.79392E+01-8.66066E-01-4.64547E-02 4.00979E+00-1.88754E-13-4.53157E-13
 -1      3700 1.92487E+01-1.17279E+00 5.44071E-02 3.97405E+00-1.22272E-13-4.98530E-13
 -1      3701 2.02047E+01 1.63869E+00-3.20855E-03 1.30424E-01 1.22266E-13-3.15348E-13
 -1      3702 2.02002E+01 1.65865E+00-2.64219E-03 3.98390E-02 9.91955E-14-3.61275E-13
 -1      3703 2.02890E+01 1.38738E+00 6.21146E-03 1.35499E-01 1.14374E-13-2.98264E-13
 -1      3704 2.12802E+01-2.03712E+00 1.49106E-03 3.45636E+00 7.97123E-14-1.41142E-13
 -1      3705 2.01740E+01-1.19078E-02-7.12120E-04-1.48341E-01 4.40488E-14-1.88512E-13
 -1      3706 1.22276E+01 6.02503E-01 3.09602E-02-6.83301E-02-7.15309E-14-2.77132E-13
 -1      3707 2.03003E+01 9.75400E-01-1.08454E-03-3.07315E-01-7.46252E-14-3.20854E-13
 -1      3708 2.03231E+01 9.64965E-01 3.91948E-04-2.52045E-01-5.14282E-14-2.94177E-13
 -1      3709 2.06821E+01-2.71024E+00-1.56751E-02 2.94141E+00-4.90996E-14-4.40736E-13
 -1      3710 2.02480E+01 1.62042E-01-6.60358E-04-7.80900E-02 6.39741E-14-1.86162E-13
 -1      3711 2.27367E+01-3.67544E+00-5.13977E-02-2.22899E+00-1.68065E-13 1.54381E-13
 -1      3712 2.12443E+01-2.60530E+00-3.37684E-02-2.47276E+00-4.56028E-14 1.76994E-13
 -1      3713 2.02934E+01 1.18366E+00 1.19216E-03-4.24463E-01-8.21160E-14-3.55883E-13
 -1      3714 2.02396E+01 1.48055E+00-1.14946E-03 3.46231E-01 1.65049E-13-3.05113E-13
 -1      3715 2.03059E+01 1.28223E+00 6.53937E-03 2.56576E-01 1.30660E-13-2.87639E-13
 -1      3716 2.02546E+01 1.37885E+00-5.50005E-03 4.16750E-01 1.94569E-13-2.89600E-13
 -1      3717 1.33516E+01 7.51852E-01 1.46877E-02 1.67437E-02-1.78902E-14-1.16006E-13
 -1      3718 1.23902E+01 6.66523E-01 8.56505E-02-6.90815E-01-1.19801E-13-2.62311E-13
 -1      3719 1.27536E+01 4.25598E-01 2.60777E-02-1.44488E+00-1.81601E-13-2.58918E-13
 -1      3720 2.02849E+01 1.49962E-01-1.13800E-03-8.02223E-02 5.17784E-14-1.73957E-13
 -1      3721 2.03071E+01 2.24474E-01 1.75260E-03-4.62096E-02 6.20867E-14-2.08512E-13
 -1      3722 2.03004E+01 8.37982E-02 1.06175E-03 9.26187E-02-5.25687E-14-1.31927E-13
 -1      3723 2.02790E+01 3.62520E-02-5.02660E-04 1.08225E-01-4.24716E-14-1.46224E-13
 -1      3724 2.02598E+01 1.84212E-04 7.77153E-04 1.15357E-01-1.88544E-14-1.53564E-13
 -1      3725 2.02397E+01-2.78544E-02-1.25126E-04 1.21571E-01-7.42192E-15-1.56689E-13
 -1      3726 2.03037E+01 2.74199E-02-3.70180E-04 9.42566E-02-4.53876E-14-1.83999E-13
 -1      3727 2.02191E+01-4.77651E-02 5.23601E-04 1.22686E-01 2.33711E-14-1.50860E-13
 -1      3728 2.02011E+01-6.17619E-02 1.27293E-04 1.23020E-01 4.54449E-14-1.27134E-13
 -1      3729 2.02615E+01-3.52925E-02-4.90585E-04 1.04809E-01 1.61797E-14-1.66781E-13
 -1      3730 2.01809E+01-7.01059E-02 3.11366E-04 1.20647E-01 1.66962E-14-1.35885E-13
 -1      3731 2.01653E+01-7.40525E-02 2.85728E-04 1.17812E-01-4.77174E-14-1.47807E-13
 -1      3732 2.02196E+01-6.73512E-02-5.20039E-04 1.05702E-01 1.99048E-14-1.73251E-13
 -1      3733 2.01463E+01-7.41195E-02 1.36278E-04 1.13898E-01-9.09736E-14-1.15678E-13
 -1      3734 2.01331E+01-7.08357E-02 3.77062E-04 1.09939E-01-8.06794E-14-1.22339E-13
 -1      3735 2.01803E+01-7.73405E-02-4.88670E-04 1.01317E-01-2.95460E-14-1.73238E-13
 -1      3736 2.01155E+01-6.48867E-02-1.23097E-05 1.05936E-01-1.22323E-13-8.64580E-14
 -1      3737 2.01043E+01-5.62410E-02 4.25142E-04 1.02380E-01-1.21315E-13-7.92165E-14
 -1      3738 2.01443E+01-7.13857E-02-4.18449E-04 9.50085E-02-5.80478E-14-8.65708E-14
 -1      3739 2.00880E+01-4.57073E-02-1.46709E-04 9.94031E-02-6.46178E-14-5.70624E-14
 -1      3740 2.00783E+01-3.28471E-02 4.44991E-04 9.74361E-02-4.28985E-14-4.71051E-14
 -1      3741 2.01116E+01-5.35766E-02-3.21274E-04 8.93045E-02-7.01007E-14-4.12555E-14
 -1      3742 2.00628E+01-1.85671E-02-2.77206E-04 9.63535E-02-6.50074E-14-5.16475E-14
 -1      3743 2.00540E+01-2.07702E-03 4.50219E-04 9.69129E-02-1.01270E-13-3.31254E-14
 -1      3744 2.00813E+01-2.64439E-02-1.99136E-04 8.61861E-02-5.46020E-14-4.91326E-14
 -1      3745 2.00384E+01 1.56169E-02-4.14346E-04 9.84461E-02-1.16573E-13 4.67255E-14
 -1      3746 2.00299E+01 3.55897E-02 4.51136E-04 1.02351E-01-9.76666E-14-6.15983E-15
 -1      3747 2.00521E+01 8.66619E-03-5.84152E-05 8.72082E-02-7.02650E-14-1.46675E-14
 -1      3748 2.00132E+01 5.67065E-02-5.66274E-04 1.07168E-01-7.37904E-14-4.19048E-14
 -1      3749 2.00040E+01 8.03042E-02 4.50617E-04 1.15184E-01-5.33036E-14 2.86946E-14
 -1      3750 2.00222E+01 5.13762E-02 1.04279E-04 9.37363E-02-9.86019E-14 2.68916E-14
 -1      3751 1.99850E+01 1.05075E-01-7.41774E-04 1.23943E-01-3.76226E-14 4.18771E-14
 -1      3752 1.99742E+01 1.32609E-01 4.50621E-04 1.36830E-01 4.79157E-15 7.10383E-14
 -1      3753 1.99892E+01 1.01929E-01 2.93364E-04 1.07052E-01-1.00681E-14 1.00006E-13
 -1      3754 1.99514E+01 1.61367E-01-9.48172E-04 1.50211E-01 5.42505E-14 3.77522E-14
 -1      3755 1.99379E+01 1.93189E-01 4.51598E-04 1.68749E-01 2.23514E-14 8.30067E-14
 -1      3756 1.99504E+01 1.60927E-01 5.13943E-04 1.28425E-01 1.77731E-14 1.43349E-13
 -1      3757 1.99095E+01 2.26228E-01-1.19124E-03 1.87481E-01-3.14545E-14 9.53462E-14
 -1      3758 1.98920E+01 2.62571E-01 4.53161E-04 2.12479E-01 1.76063E-14 6.91897E-14
 -1      3759 1.99029E+01 2.29062E-01 7.72573E-04 1.59171E-01 8.41356E-15 1.66052E-13
 -1      3760 1.98562E+01 2.99971E-01-1.47577E-03 2.37347E-01 6.01014E-14 5.68919E-14
 -1      3761 1.98333E+01 3.40754E-01 4.56040E-04 2.69630E-01 9.95498E-14 1.07678E-13
 -1      3762 1.98428E+01 3.06779E-01 1.07588E-03 2.00679E-01 1.38221E-14 1.94239E-13
 -1      3763 1.97877E+01 3.82156E-01-1.80620E-03 3.01484E-01 7.79773E-14 2.90606E-14
 -1      3764 1.97579E+01 4.26728E-01 4.65507E-04 3.41884E-01 5.86884E-14 3.91579E-15
 -1      3765 1.97663E+01 3.93877E-01 1.42940E-03 2.54432E-01 4.20241E-14 1.08639E-13
 -1      3766 1.97002E+01 4.71036E-01-2.18804E-03 3.81663E-01 2.07736E-15-1.58825E-15
 -1      3767 1.96620E+01 5.17838E-01 4.97416E-04 4.31020E-01-7.28633E-15-4.78158E-15
 -1      3768 1.96686E+01 4.88991E-01 1.83618E-03 3.22038E-01 6.01274E-15-1.96355E-14
 -1      3769 1.95896E+01 5.62820E-01-2.63060E-03 4.79835E-01-5.20487E-14-7.60104E-14
 -1      3770 1.95417E+01 6.08945E-01 5.88583E-04 5.39051E-01-8.69639E-14-2.91036E-14
 -1      3771 1.95450E+01 5.88948E-01 2.29494E-03 4.05346E-01-6.97544E-14 3.40602E-14
 -1      3772 1.94520E+01 6.50707E-01-3.15132E-03 5.98375E-01-7.66224E-14-7.63549E-14
 -1      3773 1.93939E+01 6.91327E-01 8.13713E-04 6.68599E-01-6.24639E-14-6.79826E-14
 -1      3774 1.93903E+01 6.87938E-01 2.79745E-03 5.06734E-01-7.50981E-14-5.34873E-14
 -1      3775 1.92844E+01 7.23622E-01-3.77990E-03 7.40668E-01-1.77743E-14-6.78136E-14
 -1      3776 1.92173E+01 7.51243E-01 1.30855E-03 8.23659E-01 3.83531E-14-1.31377E-14
 -1      3777 1.91996E+01 7.76487E-01 3.32329E-03 6.29735E-01-3.86936E-14-7.66067E-14
 -1      3778 1.90860E+01 7.64575E-01-4.55754E-03 9.12184E-01 4.39462E-14-1.17173E-13
 -1      3779 1.90137E+01 7.68087E-01 2.30659E-03 1.01097E+00 7.73937E-14-1.13235E-13
 -1      3780 1.89686E+01 8.40130E-01 3.82815E-03 7.80247E-01-1.67519E-14-6.15926E-14
 -1      3781 1.88598E+01 7.48592E-01-5.51961E-03 1.12226E+00 1.19975E-13-1.67329E-13
 -1      3782 1.87918E+01 7.12110E-01 4.20371E-03 1.24207E+00 2.06516E-13-1.18702E-13
 -1      3783 1.86949E+01 8.57714E-01 4.23072E-03 9.68493E-01 1.29644E-13-2.21720E-13
 -1      3784 1.86166E+01 6.40101E-01-6.67038E-03 1.38704E+00 2.00195E-13-1.96418E-13
 -1      3785 1.85718E+01 5.41081E-01 7.66719E-03 1.53628E+00 1.10419E-13-2.25424E-13
 -1      3786 1.83791E+01 7.99683E-01 4.44769E-03 1.21243E+00 1.37238E-13-2.50227E-13
 -1      3787 1.83826E+01 3.87491E-01-7.83560E-03 1.73252E+00-7.15509E-14-3.40426E-13
 -1      3788 1.83911E+01 1.92840E-01 1.15737E-02 1.92265E+00-1.66940E-13-3.42822E-13
 -1      3789 1.80290E+01 6.23153E-01 4.10045E-03 1.54270E+00-2.79825E-14-4.21474E-13
 -1      3790 1.82131E+01-7.78296E-02-7.55237E-03 2.18783E+00-1.48984E-13-5.01318E-13
 -1      3791 1.83693E+01-4.18675E-01 1.57780E-02 2.42318E+00-1.08843E-13-6.36489E-13
 -1      3792 1.76867E+01 2.63707E-01 7.27275E-03 2.01079E+00-2.45758E-13-5.03893E-13
 -1      3793 2.02489E+01 4.86008E-01-1.07491E-03 1.36100E-01 1.38091E-13-2.71159E-13
 -1      3794 2.02708E+01 5.98652E-01 3.13946E-03 2.26054E-01 1.44633E-13-2.67213E-13
 -1      3795 2.02936E+01 7.09469E-01-3.26259E-03 2.61451E-01 1.61247E-13-2.79748E-13
 -1      3796 2.02919E+01 5.15780E-01-2.85180E-03 1.19673E-01 1.01242E-13-2.72324E-13
 -1      3797 2.01996E+01 1.65926E+00-2.73926E-03-3.47029E-02 8.04122E-14-3.81939E-13
 -1      3798 2.02032E+01 1.64065E+00-3.43303E-03-1.24954E-01 6.20401E-14-3.84714E-13
 -1      3799 2.02886E+01 1.38797E+00 5.79568E-03-1.31766E-01 3.91115E-14-3.48310E-13
 -1      3800 2.02825E+01 1.42048E+00 5.33386E-03 1.65621E-03 8.60256E-14-3.61443E-13
 -1      3801 1.99904E+01 1.10995E-01 5.62860E-04-1.42557E-01 2.81665E-14-1.43983E-13
 -1      3802 1.99968E+01 8.63188E-02-7.17064E-04-1.29949E-01 1.14911E-13-1.42256E-13
 -1      3803 2.00123E+01 6.42505E-02 5.37282E-04-1.21200E-01 6.67325E-14-1.78687E-13
 -1      3804 2.00178E+01 4.31174E-02-5.54888E-04-1.13704E-01 3.26573E-14-2.08789E-13
 -1      3805 2.00003E+01 8.41359E-02 1.95801E-04-1.16333E-01 5.71756E-14-2.18590E-13
 -1      3806 2.00316E+01 2.43239E-02 5.17557E-04-1.09214E-01 2.91926E-14-1.99307E-13
 -1      3807 2.00370E+01 6.46448E-03-4.13452E-04-1.06016E-01-1.28610E-14-1.78276E-13
 -1      3808 2.00270E+01 3.83854E-02 3.69244E-05-1.03136E-01 5.49284E-14-2.64373E-13
 -1      3809 1.99641E+01 1.65175E-01 5.95425E-04-1.74872E-01-7.67457E-15-8.87710E-14
 -1      3810 1.99720E+01 1.36633E-01-9.07207E-04-1.56318E-01-2.79688E-14-1.08516E-13
 -1      3811 1.99694E+01 1.37585E-01 3.80270E-04-1.38399E-01 1.51040E-14-2.02611E-13
 -1      3812 1.99307E+01 2.27291E-01 6.35063E-04-2.19816E-01 4.06778E-14-1.03094E-13
 -1      3813 1.99412E+01 1.94656E-01-1.13090E-03-1.94448E-01 7.08062E-14-7.63588E-14
 -1      3814 1.99317E+01 1.99367E-01 5.95994E-04-1.70817E-01 4.01803E-14-1.62701E-13
 -1      3815 1.98878E+01 2.97382E-01 6.82424E-04-2.79132E-01-4.85622E-14-4.59752E-14
 -1      3816 1.99019E+01 2.60705E-01-1.39162E-03-2.46068E-01 1.31179E-14-4.65139E-14
 -1      3817 1.98842E+01 2.69918E-01 8.48248E-04-2.15156E-01 1.50169E-14-1.44883E-13
 -1      3818 1.98324E+01 3.74561E-01 7.41714E-04-3.54606E-01-7.26544E-14-1.64412E-14
 -1      3819 1.98511E+01 3.34421E-01-1.69067E-03-3.12981E-01-4.28546E-14-3.48089E-14
 -1      3820 1.98234E+01 3.49084E-01 1.14028E-03-2.73078E-01-5.08713E-14 3.80493E-14
 -1      3821 1.97616E+01 4.56394E-01 8.26045E-04-4.48037E-01-8.71720E-14-4.13982E-14
 -1      3822 1.97859E+01 4.14232E-01-2.02724E-03-3.97036E-01-9.38527E-14-4.65330E-14
 -1      3823 1.97458E+01 4.35616E-01 1.47097E-03-3.46349E-01-9.35908E-14-2.65491E-14
 -1      3824 1.96728E+01 5.38056E-01 9.66731E-04-5.61261E-01-1.54536E-14-7.97350E-14
 -1      3825 1.97034E+01 4.96623E-01-2.39878E-03-5.00133E-01-2.50784E-14-5.86658E-14
 -1      3826 1.96473E+01 5.26500E-01 1.83117E-03-4.36893E-01-7.47556E-14-8.56405E-14
 -1      3827 1.95644E+01 6.11197E-01 1.22886E-03-6.96314E-01-1.42093E-13-1.90811E-13
 -1      3828 1.96012E+01 5.75151E-01-2.80163E-03-6.24324E-01-5.16480E-14-9.91125E-14
 -1      3829 1.95244E+01 6.16089E-01 2.19809E-03-5.46976E-01-3.27965E-14-7.92342E-14
 -1      3830 1.94371E+01 6.62434E-01 1.73566E-03-8.55870E-01-1.92719E-13-1.64768E-13
 -1      3831 1.94781E+01 6.39136E-01-3.22943E-03-7.72130E-01-1.51666E-13-1.68837E-13
 -1      3832 1.93741E+01 6.94965E-01 2.52600E-03-6.79642E-01-1.61652E-13-9.31477E-14
 -1      3833 1.92961E+01 6.71353E-01 2.69495E-03-1.04408E+00-2.13948E-13-1.96272E-13
 -1      3834 1.93363E+01 6.71923E-01-3.66133E-03-9.47231E-01-1.78145E-13-1.81048E-13
 -1      3835 1.91950E+01 7.48453E-01 2.72860E-03-8.39611E-01-1.38227E-13-1.53056E-13
 -1      3836 1.91544E+01 6.07922E-01 4.42418E-03-1.26774E+00-1.95944E-13-2.73576E-13
 -1      3837 1.91830E+01 6.48598E-01-4.02306E-03-1.15559E+00-2.20647E-13-2.34603E-13
 -1      3838 1.89893E+01 7.54566E-01 2.63750E-03-1.03486E+00-2.05310E-13-2.79096E-13
 -1      3839 1.90395E+01 4.29639E-01 7.43093E-03-1.53709E+00-6.56585E-14-2.10422E-13
 -1      3840 1.90365E+01 5.33173E-01-4.09529E-03-1.40668E+00-1.35824E-13-2.47924E-13
 -1      3841 1.87657E+01 6.81176E-01 1.95497E-03-1.27875E+00-1.39327E-13-3.92744E-13
 -1      3842 1.90021E+01 7.70418E-02 1.14265E-02-1.86620E+00-1.28472E-13-1.82257E-13
 -1      3843 1.89329E+01 2.75995E-01-3.30188E-03-1.71441E+00-3.46824E-14-1.97613E-13
 -1      3844 1.85449E+01 4.83207E-01 2.82428E-04-1.59259E+00-8.79328E-14-2.27114E-13
 -1      3845 1.91297E+01-5.21145E-01 1.71633E-02-2.26975E+00-1.19595E-13-1.49315E-13
 -1      3846 1.89413E+01-1.81900E-01 1.38826E-03-2.09202E+00-1.73598E-13-1.50195E-13
 -1      3847 1.83708E+01 9.50982E-02-4.16763E-03-2.00416E+00-1.36256E-13-2.22081E-13
 -1      3848 1.95763E+01-1.47405E+00 1.80946E-02-2.71569E+00-9.85921E-14 8.87988E-14
 -1      3849 1.91953E+01-9.32368E-01 1.61439E-02-2.54668E+00-1.41025E-13-6.03216E-14
 -1      3850 1.83235E+01-6.08814E-01-2.75863E-02-2.55573E+00-1.90140E-13-1.43297E-13
 -1      3851 2.46322E+01-4.01987E+00-5.16581E-02-1.08202E+00-1.42199E-13 2.52267E-13
 -1      3852 2.03610E+01 4.14587E-01 1.94741E-03-3.01350E-02-5.92114E-14-1.73916E-13
 -1      3853 2.03432E+01 3.05086E-01-1.87635E-03 1.82095E-02-3.76529E-14-1.45725E-13
 -1      3854 2.03359E+01 2.16542E-01 1.28164E-03 4.69982E-02-4.80025E-14-1.31037E-13
 -1      3855 2.03155E+01 1.42241E-01-1.03931E-03 7.63054E-02-4.94379E-14-1.26809E-13
 -1      3856 2.03713E+01 2.94255E-01 2.58646E-04 2.09357E-02-3.70312E-14-1.39831E-13
 -1      3857 1.40203E+01 3.05595E-01 8.13885E-02 2.19151E+00 1.48708E-13-6.11183E-13
 -1      3858 1.39610E+01 5.56536E-01-2.02388E-02 1.37976E+00 9.07629E-14-4.69347E-13
 -1      3859 1.22409E+01 2.07558E-01 6.66791E-02-1.69238E+00-2.41820E-14-2.46303E-13
 -1      3860 2.03147E+01 3.12894E-01-1.85796E-03-1.01018E-02 5.43301E-14-2.25943E-13
 -1      3861 2.03349E+01 4.24503E-01 2.54439E-03 4.43566E-02 4.85157E-14-2.29289E-13
 -1      3862 2.03476E+01 3.07586E-01 3.13828E-05-1.54915E-02 6.70205E-14-2.54023E-13
 -1      3863 1.49461E+01 2.47699E-01-8.09609E-03 2.96653E+00 4.34479E-14-1.25788E-13
 -1      3864 2.03271E+01 1.00703E+00-4.02489E-03-2.15957E-01-2.38290E-14-2.71867E-13
 -1      3865 2.03596E+01 7.88252E-01 5.09406E-03-1.70183E-01-4.19406E-14-2.61621E-13
 -1      3866 1.63840E+01-1.29360E+00 7.16164E-02-4.38557E+00 2.54005E-13 1.29646E-13
 -1      3867 1.39210E+01 6.91561E-01-1.61300E-02-1.07321E+00-2.08883E-13-1.54420E-13
 -1      3868 1.36222E+01 3.50422E-01 5.97461E-02-1.96643E+00-3.05022E-13-3.12497E-13
 -1      3869 1.46177E+01 1.17823E-01-4.31807E-04-2.32769E+00-2.84186E-13-1.56113E-13
 -1      3870 1.41401E+01 1.00012E+00 5.86362E-02 3.64467E-01-4.63488E-14-1.34107E-13
 -1      3871 1.41206E+01 9.60967E-01 3.09864E-02-2.33800E-01-8.42525E-14 4.89175E-14
 -1      3872 2.02116E+01-2.09079E-02-1.53462E-04-1.35359E-01 5.56728E-14-1.95924E-13
 -1      3873 2.02306E+01 7.58721E-03 9.24805E-04-1.28039E-01 5.32174E-14-1.93274E-13
 -1      3874 1.76174E+01-1.23286E+00 4.51545E-02-3.34142E+00-1.67399E-13 7.15426E-14
 -1      3875 1.87404E+01-1.85357E+00-2.53844E-02-3.32014E+00-1.39845E-13 8.12510E-14
 -1      3876 2.03096E+01 1.03413E+00 5.57985E-03 3.37881E-01 1.72955E-13-2.63198E-13
 -1      3877 1.98627E+01-2.77780E+00 2.46380E-02 3.58835E+00-4.21104E-14-3.55244E-13
 -1      3878 1.61959E+01-2.01056E-01 3.94344E-02 3.56705E+00-1.19162E-13-1.74990E-13
 -1      3879 2.03265E+01 1.07402E+00-2.13490E-03-1.71284E-01 8.54549E-15-2.82786E-13
 -1      3880 2.00502E+01-9.24133E-03 4.99742E-04-1.05055E-01-3.48591E-14-1.23339E-13
 -1      3881 2.00562E+01-2.39272E-02-2.85338E-04-1.05337E-01-1.57377E-15-1.58816E-13
 -1      3882 2.00518E+01-1.85030E-04-1.01907E-04-9.73720E-02 7.84541E-15-1.44071E-13
 -1      3883 2.02489E+01 4.38222E-02-5.61801E-04-1.18779E-01 5.19091E-14-2.05819E-13
 -1      3884 2.02702E+01 9.16223E-02 1.30591E-03-1.00615E-01 5.39068E-14-1.96965E-13
 -1      3885 2.02805E+01 3.64847E-02-4.41970E-04-1.06551E-01 5.89165E-14-2.12192E-13
 -1      3886 2.01158E+01-6.89047E-02 3.92301E-04-1.23033E-01-2.24805E-14-9.61419E-14
 -1      3887 2.01267E+01-7.10658E-02 1.47693E-04-1.27739E-01-3.77216E-15-1.28523E-13
 -1      3888 1.89102E+01-2.03869E+00 5.93931E-02 3.52797E+00 7.30986E-14-5.06829E-13
 -1      3889 1.52246E+01-9.19184E-01 9.09115E-02 3.68215E+00 1.01794E-13-4.07150E-13
 -1      3890 1.42245E+01-3.25768E-01 3.70153E-03 2.87724E+00 1.69420E-13-5.26426E-13
 -1      3891 1.52620E+01-1.15724E-01 8.59607E-03 2.63414E+00 1.29834E-13-4.79899E-13
 -1      3892 1.65862E+01-1.44771E+00-2.54071E-02 3.66736E+00 1.06480E-13-5.39006E-13
 -1      3893 1.55994E+01-2.16731E-01 5.59027E-02-2.83804E+00-2.95877E-13-1.56141E-13
 -1      3894 1.63507E+01-8.38414E-01 3.74604E-03-3.25039E+00-2.69190E-13-2.66332E-14
 -1      3895 1.74012E+01-5.73866E-01 1.66191E-02-2.78964E+00-2.09112E-13-5.35460E-14
 -1      3896 1.53230E+01 2.14351E-01-2.78018E-02-2.14226E+00-2.62367E-13-1.51351E-13
 -1      3897 2.06978E+01-2.04086E+00-1.42852E-02 3.75563E+00 5.58902E-14-3.47587E-13
 -1      3898 2.03536E+01 6.16818E-01-1.84075E-03-9.80016E-02-5.14449E-14-2.22882E-13
 -1      3899 2.03184E+01 1.43252E-01-2.52431E-04-7.43537E-02 5.83532E-14-2.48263E-13
 -1      3900 1.67549E+01-3.24022E-01 1.38767E-02 2.76578E+00-2.72308E-14-4.82694E-13
 -1      3901 1.76238E+01-8.25628E-01 1.13575E-02 2.95494E+00-9.71055E-15-5.65149E-13
 -1      3902 2.03279E+01 5.63644E-01-1.33359E-03 1.10261E-01 7.37842E-14-2.24472E-13
 -1      3903 2.03370E+01 6.65746E-01 4.54815E-03 1.74277E-01 1.11813E-13-2.48776E-13
 -1      3904 1.78753E+01-1.41454E+00 2.63025E-02 3.29635E+00 1.59074E-15-5.04887E-13
 -1      3905 2.03423E+01 1.32334E-01-1.42499E-04 6.85220E-02-6.17719E-14-1.60229E-13
 -1      3906 2.01313E+01-2.34414E+00 2.74540E-02-3.08799E+00-3.51412E-15 2.81490E-13
 -1      3907 2.03777E+01 5.98720E-01-4.22258E-05-7.30827E-02-2.66924E-14-1.87135E-13
 -1      3908 2.00912E+01-5.68740E-02 4.47855E-04-1.13847E-01-4.98193E-14-8.48288E-14
 -1      3909 2.01000E+01-6.41815E-02-1.73135E-05-1.18287E-01-2.21005E-14-9.08456E-14
 -1      3910 2.01320E+01-7.07786E-02-4.25112E-04-1.09527E-01-3.78813E-14-7.82282E-14
 -1      3911 2.00765E+01-3.17388E-02-2.28227E-04-9.75974E-02-2.41892E-14-1.04353E-13
 -1      3912 2.00697E+01-3.65113E-02 4.79417E-04-1.07171E-01-3.18720E-14-1.13785E-13
 -1      3913 2.00768E+01-4.78125E-02-1.56607E-04-1.10056E-01-4.88381E-14-8.54135E-14
 -1      3914 2.01440E+01-6.99923E-02 2.89991E-04-1.32164E-01 3.12755E-16-1.34661E-13
 -1      3915 2.01575E+01-6.51187E-02 3.51825E-04-1.35422E-01 2.32493E-14-1.65369E-13
 -1      3916 2.01646E+01-7.42972E-02-4.95794E-04-1.17107E-01-1.74618E-15-9.28102E-14
 -1      3917 2.03563E+01 5.56145E-01 5.81468E-04 8.56161E-02 7.46143E-14-2.30120E-13
 -1      3918 1.46481E+01 8.54406E-01 2.56982E-03-6.95647E-01-1.43458E-13 2.00161E-14
 -1      3919 2.03264E+01 1.15335E+00-1.91376E-03-7.92693E-02 2.69388E-14-3.55681E-13
 -1      3920 2.03274E+01 1.11699E+00-3.51879E-03-1.35864E-01 1.14722E-14-3.39209E-13
 -1      3921 2.03772E+01 8.83311E-01 4.42280E-03-1.11555E-01 3.75297E-15-3.03164E-13
 -1      3922 1.46891E+01 7.36220E-01-9.40820E-03 1.03776E+00-1.10849E-14-3.25958E-13
 -1      3923 2.03271E+01 1.14460E+00-3.06241E-03 1.37516E-01 1.06758E-13-2.88265E-13
 -1      3924 2.03219E+01 1.17929E+00-2.24345E-03 7.76978E-02 9.73248E-14-3.03984E-13
 -1      3925 2.01762E+01-5.60063E-02 1.18802E-04-1.37805E-01 2.11738E-14-1.88139E-13
 -1      3926 2.01924E+01-4.13016E-02 6.08757E-04-1.37312E-01 4.92916E-14-1.87193E-13
 -1      3927 2.02009E+01-6.21001E-02-5.36752E-04-1.22010E-01 4.95127E-15-1.16882E-13
 -1      3928 2.02402E+01-2.80466E-02-5.29366E-04-1.20230E-01 4.14938E-14-1.95374E-13
 -1      3929 2.03270E+01 1.01448E+00-1.74425E-03 1.89598E-01 1.12908E-13-2.65925E-13
 -1      3930 2.03663E+01 8.58331E-01 2.72452E-03 1.26134E-01 9.67317E-14-2.65951E-13
 -1      3931 1.62031E+01 1.52499E-01-2.37412E-02 2.23048E+00-6.90778E-14-5.50764E-13
 -1      3932 1.99889E+01 1.03273E-01 3.31975E-04-1.05424E-01 2.65507E-14-1.75307E-13
 -1      3933 2.00025E+01 7.67256E-02-5.73239E-04-9.69931E-02 6.75494E-14-1.84422E-13
 -1      3934 2.08901E+01-3.02869E+00 4.99783E-02-3.15880E+00-1.34030E-13 2.22789E-13
 -1      3935 2.03109E+01 8.95504E-01-9.75688E-04 2.55032E-01 1.45279E-13-2.62059E-13
 -1      3936 2.03260E+01 9.42174E-01-3.42939E-03 2.31080E-01 1.38812E-13-2.46198E-13
 -1      3937 2.02992E+01-2.18172E-02 4.90208E-04 8.36404E-02-3.67144E-15-1.94993E-13
 -1      3938 2.02772E+01-4.62029E-02 5.76881E-06 8.71816E-02 2.88283E-14-1.77406E-13
 -1      3939 2.02543E+01-6.29063E-02 3.62262E-04 8.66980E-02 2.27236E-14-1.65035E-13
 -1      3940 2.02334E+01-7.35953E-02 1.89149E-04 8.65610E-02 1.51595E-14-1.86228E-13
 -1      3941 2.02854E+01-5.35666E-02-5.02536E-04 6.75613E-02 1.54623E-15-1.53472E-13
 -1      3942 2.02108E+01-7.88647E-02 2.37610E-04 8.43616E-02 1.40165E-14-1.87060E-13
 -1      3943 2.01917E+01-7.96620E-02 2.95686E-04 8.23925E-02-2.22564E-14-1.52937E-13
 -1      3944 2.02394E+01-7.75981E-02-5.26657E-04 6.68964E-02 7.34890E-15-1.42733E-13
 -1      3945 2.01702E+01-7.66545E-02 1.17134E-04 7.96502E-02-3.08015E-14-1.40581E-13
 -1      3946 2.01530E+01-7.02448E-02 3.40929E-04 7.72605E-02-3.37997E-14-8.27381E-14
 -1      3947 2.01956E+01-8.04245E-02-4.79024E-04 6.37697E-02-1.00136E-14-1.15209E-13
 -1      3948 2.01327E+01-6.10634E-02 2.68226E-07 7.48135E-02-8.77056E-14-9.74920E-14
 -1      3949 2.01171E+01-4.91088E-02 3.51952E-04 7.30901E-02-6.91822E-14-9.67944E-14
 -1      3950 2.01545E+01-6.77324E-02-3.89048E-04 6.01539E-02-4.72668E-14-1.31637E-13
 -1      3951 2.00978E+01-3.51220E-02-1.22352E-04 7.16917E-02-4.61126E-14-9.46997E-14
 -1      3952 2.00833E+01-1.86908E-02 3.33940E-04 7.14449E-02-3.69283E-14-6.86943E-14
 -1      3953 2.01161E+01-4.31495E-02-2.62433E-04 5.74773E-02-9.14295E-14-2.03170E-13
 -1      3954 2.00641E+01-5.47727E-04-2.57189E-04 7.15712E-02-6.77021E-14-4.45585E-14
 -1      3955 2.00498E+01 1.99636E-02 3.04699E-04 7.35165E-02-8.53970E-14-4.62466E-14
 -1      3956 2.00791E+01-8.99879E-03-1.21750E-04 5.69815E-02-3.08904E-14-1.12864E-13
 -1      3957 2.00297E+01 4.20527E-02-4.04444E-04 7.56758E-02-7.83738E-14-8.27177E-15
 -1      3958 2.00145E+01 6.66164E-02 2.62341E-04 8.04380E-02-7.01487E-14-2.28392E-14
 -1      3959 2.00417E+01 3.39036E-02 5.52373E-05 5.95600E-02-6.34458E-14-3.83498E-14
 -1      3960 1.99923E+01 9.27671E-02-5.73198E-04 8.50887E-02-4.33901E-14 5.45751E-14
 -1      3961 1.99750E+01 1.21619E-01 2.09902E-04 9.32579E-02 2.20566E-14 1.11476E-13
 -1      3962 2.00016E+01 8.54161E-02 2.66802E-04 6.61481E-02-2.49410E-14 6.25686E-14
 -1      3963 1.99489E+01 1.52144E-01-7.71409E-04 1.00856E-01-6.51254E-15 1.08903E-13
 -1      3964 1.99281E+01 1.85653E-01 1.47894E-04 1.13023E-01 1.90723E-15 5.97335E-14
 -1      3965 1.99558E+01 1.45965E-01 5.14004E-04 7.75662E-02-1.34436E-14 8.27580E-14
 -1      3966 1.98962E+01 2.20917E-01-1.00478E-03 1.24057E-01 3.41211E-14 2.67483E-14
 -1      3967 1.98702E+01 2.59427E-01 7.51287E-05 1.40829E-01 4.88107E-14 7.25371E-14
 -1      3968 1.99008E+01 2.16275E-01 8.03974E-04 9.46549E-02 1.24581E-14-5.33880E-14
 -1      3969 1.98304E+01 2.99677E-01-1.27977E-03 1.55830E-01 2.25834E-14 1.08464E-13
 -1      3970 1.97972E+01 3.43325E-01-9.77876E-06 1.77840E-01 3.57072E-14 6.72414E-14
 -1      3971 1.98325E+01 2.97019E-01 1.14560E-03 1.18299E-01 6.05357E-14-7.42748E-15
 -1      3972 1.97468E+01 3.88493E-01-1.60437E-03 1.97395E-01-8.03434E-15 8.60925E-14
 -1      3973 1.97043E+01 4.36991E-01-1.06446E-04 2.25305E-01-2.49735E-15 1.09666E-14
 -1      3974 1.97464E+01 3.88459E-01 1.54889E-03 1.49447E-01 1.63861E-14-1.36448E-14
 -1      3975 1.96404E+01 4.86448E-01-1.99037E-03 2.50082E-01 7.56670E-15-4.48526E-14
 -1      3976 1.95863E+01 5.38817E-01-2.09611E-04 2.84615E-01-4.05854E-14-4.66887E-14
 -1      3977 1.96369E+01 4.90008E-01 2.02544E-03 1.89142E-01-5.85331E-14 2.02988E-14
 -1      3978 1.95057E+01 5.91071E-01-2.45830E-03 3.15425E-01-8.27682E-14-5.66197E-14
 -1      3979 1.94374E+01 6.45321E-01-3.03919E-04 3.57452E-01-1.38371E-13-4.45444E-16
 -1      3980 1.94983E+01 5.99732E-01 2.58998E-03 2.38603E-01-9.02881E-14-1.34327E-13
 -1      3981 1.93364E+01 6.97650E-01-3.04641E-03 3.95393E-01-1.01367E-13 9.37313E-15
 -1      3982 1.92514E+01 7.50411E-01-3.54875E-04 4.46134E-01-2.07559E-14-2.26966E-14
 -1      3983 1.93235E+01 7.13774E-01 3.26401E-03 2.99423E-01-8.65439E-14 3.23945E-14
 -1      3984 1.91255E+01 7.98424E-01-3.82555E-03 4.92892E-01-1.07378E-13-1.30588E-13
 -1      3985 1.90217E+01 8.44524E-01-2.91579E-04 5.54340E-01-8.25648E-14-1.40077E-13
 -1      3986 1.91049E+01 8.25739E-01 4.08315E-03 3.73983E-01-1.26852E-13-6.36319E-14
 -1      3987 1.88655E+01 8.81661E-01-4.91909E-03 6.12796E-01-1.18479E-14-1.90899E-13
 -1      3988 1.87416E+01 9.13654E-01 3.60278E-05 6.88488E-01-1.06592E-14-1.57982E-13
 -1      3989 1.88333E+01 9.26091E-01 5.11035E-03 4.66317E-01-7.60065E-14-2.91972E-13
 -1      3990 1.85477E+01 9.30440E-01-6.52335E-03 7.63889E-01 9.61666E-15-1.75785E-13
 -1      3991 1.84037E+01 9.37858E-01 7.49090E-04 8.60154E-01 1.13316E-13-2.00348E-13
 -1      3992 1.84971E+01 1.00157E+00 6.45503E-03 5.83832E-01-1.86361E-14-2.48291E-13
 -1      3993 1.81635E+01 9.21133E-01-8.80432E-03 9.61014E-01 1.42743E-13-3.27194E-13
 -1      3994 1.80017E+01 8.90603E-01 2.38203E-03 1.08840E+00 1.23444E-13-3.68873E-13
 -1      3995 1.80832E+01 1.03388E+00 8.76364E-03 7.40842E-01 5.14991E-14-3.72097E-13
 -1      3996 1.77001E+01 8.21232E-01-1.29020E-02 1.23221E+00-1.71625E-14-4.83286E-13
 -1      3997 1.75298E+01 7.32492E-01 4.92694E-03 1.40930E+00-2.50929E-13-6.56090E-13
 -1      3998 1.75704E+01 1.00491E+00 1.40701E-02 9.62323E-01-5.70174E-14-6.77496E-13
 -1      3999 1.71374E+01 5.85261E-01-2.14926E-02 1.61940E+00-2.71251E-13-5.93252E-13
 -1      4000 1.69915E+01 4.06339E-01 5.10868E-03 1.88435E+00-2.10521E-13-5.56749E-13
 -1      4001 1.69371E+01 8.82292E-01 2.55817E-02 1.28953E+00-2.26325E-13-8.15433E-13
 -1      4002 1.99496E+01 1.62129E-01 2.99720E-04-1.26857E-01 4.38265E-14-2.22176E-13
 -1      4003 1.99659E+01 1.31261E-01-7.63686E-04-1.13934E-01 4.21389E-14-1.89038E-13
 -1      4004 1.99711E+01 1.26748E-01 4.15742E-04-9.32975E-02 5.07739E-14-1.78159E-13
 -1      4005 2.03425E+01 5.39606E-02 6.23016E-04 7.13049E-02-5.55773E-14-1.70117E-13
 -1      4006 2.03207E+01 1.07083E-02-2.81434E-04 8.08819E-02-3.73889E-14-1.76924E-13
 -1      4007 2.03312E+01-3.21202E-04-3.78121E-04 6.32122E-02-1.72197E-14-1.38271E-13
 -1      4008 2.00224E+01 5.27805E-02 3.60556E-04-9.19738E-02 5.36843E-14-2.19659E-13
 -1      4009 2.00346E+01 3.02188E-02-4.09472E-04-8.73525E-02 4.28248E-14-2.05886E-13
 -1      4010 2.00114E+01 7.04930E-02 1.93928E-04-8.03398E-02 4.57275E-14-1.44993E-13
 -1      4011 1.98407E+01 3.07329E-01 2.24740E-04-1.98954E-01-5.36114E-14-7.29206E-14
 -1      4012 1.98666E+01 2.67007E-01-1.24998E-03-1.74902E-01 3.16276E-14-1.42028E-13
 -1      4013 1.97633E+01 3.93787E-01 1.84325E-04-2.52487E-01-6.04456E-14-6.26314E-14
 -1      4014 1.97967E+01 3.48906E-01-1.55817E-03-2.21734E-01-2.65145E-14-1.88559E-14
 -1      4015 1.97894E+01 3.52713E-01 1.34202E-03-1.78524E-01-5.98985E-14-2.77380E-14
 -1      4016 1.96651E+01 4.87912E-01 1.50625E-04-3.19790E-01-5.28460E-14-1.28667E-13
 -1      4017 1.97077E+01 4.39378E-01-1.91977E-03-2.81523E-01-5.84249E-14-7.77606E-14
 -1      4018 1.96946E+01 4.47639E-01 1.76401E-03-2.26486E-01-5.56410E-14-5.80003E-14
 -1      4019 1.95411E+01 5.86379E-01 1.43211E-04-4.02725E-01-9.65442E-14-6.67642E-14
 -1      4020 1.95949E+01 5.36102E-01-2.34756E-03-3.56033E-01-1.35906E-13-1.39949E-13
 -1      4021 1.95745E+01 5.50342E-01 2.25562E-03-2.86647E-01-7.20785E-14-1.13057E-13
 -1      4022 1.93868E+01 6.83201E-01 2.03181E-04-5.03668E-01-1.76903E-13 4.35533E-14
 -1      4023 1.94534E+01 6.34516E-01-2.86508E-03-4.47396E-01-7.01487E-14 1.55584E-14
 -1      4024 1.94234E+01 6.57049E-01 2.82469E-03-3.60941E-01-1.67177E-13 1.64267E-14
 -1      4025 1.91979E+01 7.68734E-01 4.10350E-04-6.26101E-01-1.14905E-13-6.30784E-14
 -1      4026 1.92782E+01 7.26903E-01-3.51677E-03-5.58528E-01-1.20435E-13-3.24379E-14
 -1      4027 1.92350E+01 7.61296E-01 3.48086E-03-4.52080E-01-9.20654E-14 1.23477E-13
 -1      4028 1.89711E+01 8.28468E-01 9.20217E-04-7.75755E-01-1.01418E-13-1.61900E-13
 -1      4029 1.90647E+01 8.01281E-01-4.38237E-03-6.93976E-01-1.26123E-13-1.40921E-13
 -1      4030 1.90029E+01 8.53105E-01 4.23964E-03-5.64355E-01-1.22381E-13-1.74991E-13
 -1      4031 1.87054E+01 8.41397E-01 2.01676E-03-9.62673E-01-1.87734E-13-1.91762E-13
 -1      4032 1.88091E+01 8.40030E-01-5.58441E-03-8.61571E-01-1.49458E-13-1.12097E-13
 -1      4033 1.87198E+01 9.18078E-01 5.12600E-03-7.05166E-01-1.44325E-13-2.13128E-13
 -1      4034 1.84045E+01 7.77213E-01 4.03850E-03-1.20437E+00-6.49130E-14-2.62272E-13
 -1      4035 1.85101E+01 8.17753E-01-7.25447E-03-1.07525E+00-1.36090E-13-2.31170E-13
 -1      4036 1.83780E+01 9.35936E-01 6.13078E-03-8.88058E-01-1.09664E-13-1.28374E-13
 -1      4037 1.80822E+01 5.94954E-01 8.31846E-03-1.52707E+00-1.06600E-13-1.68719E-13
 -1      4038 1.81723E+01 6.97737E-01-9.47122E-03-1.35749E+00-1.12505E-13-2.88125E-13
 -1      4039 1.79714E+01 8.77147E-01 7.55648E-03-1.13693E+00-7.37701E-14-2.14653E-13
 -1      4040 1.77939E+01 2.28661E-01 1.59597E-02-1.96662E+00-2.12530E-13-2.58332E-13
 -1      4041 1.78092E+01 4.27025E-01-1.32459E-02-1.74896E+00-9.83870E-14-2.48951E-13
 -1      4042 1.74951E+01 7.07719E-01 1.20672E-02-1.49084E+00-1.53945E-13-3.00163E-13
 -1      4043 1.73491E+01-1.38979E-01 1.56316E-03-2.43628E+00-3.08939E-13-1.44125E-13
 -1      4044 2.03993E+01 3.62840E-01 8.68704E-05-2.14912E-03-3.98803E-14-2.06708E-13
 -1      4045 2.03877E+01 2.61238E-01-1.09583E-03 2.97262E-02-4.49824E-14-2.07031E-13
 -1      4046 2.03686E+01 2.79168E-01-1.54020E-03-2.77796E-02 6.13576E-14-2.55666E-13
 -1      4047 2.03837E+01 3.85431E-01 1.51413E-03 1.09806E-02 5.55353E-14-2.43025E-13
 -1      4048 1.99014E+01 2.30015E-01 2.63947E-04-1.57572E-01 4.24635E-14-1.60998E-13
 -1      4049 1.99217E+01 1.94496E-01-9.87248E-04-1.39452E-01 4.09488E-14-2.13710E-13
 -1      4050 1.99232E+01 1.92161E-01 6.75903E-04-1.13212E-01 6.43499E-14-2.09393E-13
 -1      4051 1.58062E+01 6.15114E-01 3.62081E-02 1.76004E+00-5.35238E-14-6.75301E-13
 -1      4052 2.02622E+01-3.87436E-02-4.18054E-05-1.03898E-01-2.09297E-14-1.59096E-13
 -1      4053 2.02834E+01-1.27960E-02 6.31729E-04-9.93808E-02 1.70443E-14-1.98347E-13
 -1      4054 2.00527E+01 1.00467E-02 3.83488E-04-8.52629E-02 7.96561E-14-2.59074E-13
 -1      4055 2.00646E+01-8.71334E-03-2.62787E-04-8.37716E-02 4.71361E-14-1.81197E-13
 -1      4056 2.00471E+01 2.27418E-02 4.86489E-06-7.32711E-02 3.61572E-14-2.01725E-13
 -1      4057 1.55568E+01 8.86549E-01-1.99120E-02 8.65015E-01-1.10432E-13-3.33823E-13
 -1      4058 2.03205E+01 1.19391E+00-2.72561E-03 3.21791E-02 8.94619E-14-3.30331E-13
 -1      4059 2.03205E+01 1.19342E+00-3.04948E-03-2.94432E-02 5.14661E-14-3.51476E-13
 -1      4060 2.03763E+01 9.94011E-01 4.59459E-03 4.17354E-02 7.24579E-14-3.06989E-13
 -1      4061 2.03907E+01 6.96120E-01-1.41553E-03-8.23393E-02-4.80215E-15-2.72093E-13
 -1      4062 2.03994E+01 4.83813E-01-2.34767E-04-2.20360E-02-2.41652E-14-2.32111E-13
 -1      4063 2.04154E+01 4.53914E-01 7.19211E-04-1.18744E-02-2.46585E-14-2.75362E-13
 -1      4064 2.03962E+01 7.42876E-01-2.91592E-04-5.97777E-02 1.56572E-14-3.31071E-13
 -1      4065 2.03038E+01 2.11223E-02-3.90025E-04-9.48915E-02 3.47236E-14-2.31495E-13
 -1      4066 2.03255E+01 6.61455E-02 8.28108E-04-8.29699E-02 4.65651E-14-2.65982E-13
 -1      4067 2.03207E+01 1.08277E-02-4.12514E-04-7.88278E-02 9.21264E-15-1.89737E-13
 -1      4068 2.03787E+01 1.77105E-01 6.66519E-04 4.47910E-02-7.27655E-14-1.93069E-13
 -1      4069 2.03597E+01 1.08298E-01-6.84881E-04 6.34195E-02-7.55862E-14-1.92266E-13
 -1      4070 2.03728E+01 9.31453E-02-5.41584E-05 5.07253E-02-5.06753E-14-1.75525E-13
 -1      4071 1.52212E+01 9.59387E-01-3.55711E-02-4.98671E-01-1.10910E-13 1.46071E-13
 -1      4072 1.53436E+01 8.87903E-01 5.97431E-02-1.24002E+00-2.04379E-13-1.04244E-13
 -1      4073 2.03415E+01 1.22171E-01-8.72774E-04-7.16571E-02 8.46925E-14-2.81021E-13
 -1      4074 2.03616E+01 1.93369E-01 1.14766E-03-4.85666E-02 8.03212E-14-2.49574E-13
 -1      4075 2.03900E+01 2.62306E-01-4.74242E-06-2.75136E-02 6.97830E-14-2.42322E-13
 -1      4076 2.03607E+01 1.09014E-01-1.76317E-04-6.11442E-02 4.73059E-14-2.66314E-13
 -1      4077 1.62551E+01 9.43980E-01-1.85906E-02 8.89427E-01-1.42630E-13-4.33697E-13
 -1      4078 1.56177E+01 1.14811E+00 4.73779E-02 1.97344E-01-7.21951E-14 1.01597E-13
 -1      4079 1.59508E+01 1.04478E+00-1.47601E-02-3.22149E-01-1.56226E-13 1.35840E-13
 -1      4080 1.66555E+01 1.02204E+00-2.16017E-02 7.16997E-01-1.82518E-13-4.92795E-13
 -1      4081 1.59459E+01 4.59546E-01-8.44316E-04-1.77917E+00-2.76278E-13-6.65952E-14
 -1      4082 1.67830E+01 2.63125E-01 1.72292E-02-2.12822E+00-3.21242E-13-1.68609E-13
 -1      4083 1.98640E+01 2.67386E-01 9.81977E-04-1.41215E-01 3.42377E-16-1.71162E-13
 -1      4084 2.01029E+01-5.57420E-02-3.39112E-04-1.02271E-01-1.93650E-14-5.97898E-14
 -1      4085 2.03993E+01 4.86702E-01 6.61008E-07 2.77469E-02 6.26106E-14-2.63562E-13
 -1      4086 2.03752E+01 5.09660E-01-2.72826E-03 4.28421E-02 6.09231E-14-2.66217E-13
 -1      4087 2.00822E+01-2.51934E-02 3.89173E-04-8.40263E-02 1.82414E-14-1.38725E-13
 -1      4088 2.00947E+01-4.01075E-02-1.37320E-04-8.49452E-02 1.28729E-14-9.11107E-14
 -1      4089 2.00810E+01-1.68117E-02-1.50914E-04-7.10321E-02 9.75315E-14-2.46771E-13
 -1      4090 2.01816E+01-7.76438E-02 3.04396E-04-9.90369E-02-5.05557E-14-1.16332E-13
 -1      4091 2.01992E+01-7.54923E-02 2.82013E-04-1.01483E-01-1.32707E-14-1.39647E-13
 -1      4092 2.04036E+01 2.40037E-01 2.74197E-04 2.62336E-02-4.99446E-14-2.38869E-13
 -1      4093 2.03787E+01 9.70245E-01 4.43694E-03-4.06385E-02 1.77631E-14-3.20014E-13
 -1      4094 2.02207E+01-6.89172E-02 1.73229E-04-1.03872E-01 8.49337E-15-1.70537E-13
 -1      4095 2.02404E+01-5.68011E-02 4.48962E-04-1.03953E-01-1.34173E-14-1.68947E-13
 -1      4096 2.02322E+01-7.37540E-02-5.28562E-04-8.51698E-02-2.34928E-14-2.59415E-13
 -1      4097 2.03742E+01 6.69659E-01-6.44651E-04 1.09534E-01 8.61701E-14-2.53977E-13
 -1      4098 2.03849E+01 7.96408E-01-3.57281E-04 7.82490E-02 7.45441E-14-2.80883E-13
 -1      4099 2.04153E+01 6.23552E-01 3.36580E-03 4.68418E-02 5.04224E-14-2.65236E-13
 -1      4100 2.03929E+01 7.81198E-01-2.04037E-03 4.99083E-02 5.97454E-14-2.60605E-13
 -1      4101 2.03953E+01 7.93811E-01-2.28153E-03 1.81746E-02 3.59716E-14-2.85107E-13
 -1      4102 2.02764E+01-4.63304E-02-5.04011E-04-8.54849E-02-7.76219E-15-1.87993E-13
 -1      4103 2.01456E+01-7.08552E-02 3.72823E-04-9.25999E-02-2.74409E-14-1.25451E-13
 -1      4104 2.01611E+01-7.59413E-02 1.34114E-04-9.57154E-02-3.15524E-14-7.88430E-14
 -1      4105 2.01902E+01-7.95956E-02-4.84374E-04-8.12758E-02-5.01379E-14-1.68110E-13
 -1      4106 2.03580E+01 1.92127E-02 3.09863E-04 4.08228E-02-1.29411E-14-1.22776E-13
 -1      4107 2.03358E+01-1.69078E-02 2.22548E-04 4.64870E-02 1.12852E-14-1.16216E-13
 -1      4108 2.03119E+01-4.40722E-02 3.03828E-04 4.56143E-02 3.74410E-15-9.88719E-14
 -1      4109 2.02887E+01-6.27813E-02 3.40474E-04 4.79638E-02 4.39620E-15-1.20765E-13
 -1      4110 2.03328E+01-2.92916E-02-1.08636E-03 2.49881E-02-2.60477E-15-1.09115E-13
 -1      4111 2.02641E+01-7.51059E-02 2.85006E-04 4.62776E-02-2.19319E-14-1.39541E-13
 -1      4112 2.02415E+01-8.12334E-02 3.93245E-04 4.66418E-02-1.81976E-14-1.59214E-13
 -1      4113 2.02843E+01-6.98565E-02-1.14570E-03 2.58624E-02-4.84537E-15-1.31645E-13
 -1      4114 2.02176E+01-8.28311E-02 2.21696E-04 4.46594E-02 3.96731E-15-1.55951E-13
 -1      4115 2.01963E+01-7.97718E-02 3.89042E-04 4.40758E-02-1.00806E-14-1.35954E-13
 -1      4116 2.02364E+01-8.38716E-02-1.04168E-03 2.53182E-02-1.13765E-14-2.29720E-13
 -1      4117 2.01735E+01-7.35308E-02 1.20947E-04 4.21962E-02-6.16217E-14-1.54868E-13
 -1      4118 2.01535E+01-6.36639E-02 2.56489E-04 4.13598E-02-8.65049E-14-1.89466E-13
 -1      4119 2.01910E+01-7.82331E-02-6.74088E-04 2.43087E-02-4.65250E-14-2.13205E-13
 -1      4120 2.01321E+01-5.11671E-02 5.64764E-05 4.04148E-02-8.83154E-14-1.17700E-13
 -1      4121 2.01135E+01-3.60572E-02 3.09494E-04 4.01685E-02-1.85032E-14-9.51604E-14
 -1      4122 2.01470E+01-5.81426E-02-4.38648E-04 2.32679E-02-4.50823E-14-8.44733E-14
 -1      4123 2.00923E+01-1.88406E-02-1.00279E-04 3.93830E-02 6.22167E-15-1.29510E-13
 -1      4124 2.00741E+01 1.02063E-03 2.43467E-04 4.02428E-02-3.90981E-14-9.54747E-14
 -1      4125 2.01063E+01-2.76877E-02-2.77095E-04 2.23974E-02-3.60031E-15-8.15559E-14
 -1      4126 2.00524E+01 2.26599E-02-2.29045E-04 4.04898E-02-2.81375E-14-1.98727E-14
 -1      4127 2.00335E+01 4.69028E-02 1.65590E-04 4.28224E-02-6.05195E-15 9.87432E-15
 -1      4128 2.00650E+01 1.31430E-02-2.11187E-05 2.30029E-02 1.25684E-14-3.03148E-14
 -1      4129 2.00101E+01 7.28416E-02-4.00368E-04 4.41978E-02 1.22356E-14 7.50049E-14
 -1      4130 1.99891E+01 1.01581E-01 7.08596E-05 4.83715E-02 2.61160E-14 9.58220E-14
 -1      4131 2.00221E+01 6.31486E-02 3.78617E-04 2.50074E-02 5.89454E-14-2.98730E-14
 -1      4132 1.99623E+01 1.32061E-01-6.02250E-04 5.10811E-02-5.25006E-14 8.37884E-14
 -1      4133 1.99378E+01 1.65634E-01-4.07792E-05 5.74494E-02-2.81186E-14 3.32587E-14
 -1      4134 1.99744E+01 1.22492E-01 8.56276E-04 2.87431E-02-1.10878E-14-5.35780E-15
 -1      4135 1.99057E+01 2.01020E-01-8.40059E-04 6.17268E-02-6.10721E-14 5.53172E-14
 -1      4136 1.98756E+01 2.39828E-01-1.73545E-04 7.06389E-02-8.66131E-15-6.65186E-15
 -1      4137 1.99185E+01 1.91821E-01 1.42345E-03 3.45561E-02-5.07537E-14-4.24664E-14
 -1      4138 1.98359E+01 2.80461E-01-1.12078E-03 7.67457E-02 3.62051E-14-8.07337E-14
 -1      4139 1.97981E+01 3.24795E-01-3.33254E-04 8.85502E-02 5.54133E-14-1.31569E-13
 -1      4140 1.98503E+01 2.71918E-01 2.10178E-03 4.27915E-02-4.69336E-14-1.21458E-13
 -1      4141 1.97482E+01 3.70814E-01-1.45326E-03 9.67855E-02 5.72632E-14-1.82559E-13
 -1      4142 1.97003E+01 4.20666E-01-5.26654E-04 1.11836E-01-1.37752E-14-1.75103E-13
 -1      4143 1.97650E+01 3.63363E-01 2.91904E-03 5.38077E-02 8.71753E-15-2.49671E-13
 -1      4144 1.96372E+01 4.71795E-01-1.85021E-03 1.22549E-01-3.03186E-14-8.95053E-14
 -1      4145 1.95762E+01 5.26629E-01-7.60837E-04 1.41221E-01-3.60201E-14-8.36104E-14
 -1      4146 1.96570E+01 4.66147E-01 3.91135E-03 6.79909E-02 2.18321E-14-2.12750E-13
 -1      4147 1.94965E+01 5.81930E-01-2.33263E-03 1.54839E-01-1.27817E-13-6.32482E-14
 -1      4148 1.94192E+01 6.40431E-01-1.04277E-03 1.77577E-01-1.23533E-13-5.66587E-14
 -1      4149 1.95203E+01 5.79245E-01 5.12909E-03 8.57805E-02-7.76561E-14-4.27797E-14
 -1      4150 1.93189E+01 6.98030E-01-2.93850E-03 1.94656E-01-7.36501E-14-6.37069E-14
 -1      4151 1.92216E+01 7.57844E-01-1.37962E-03 2.22094E-01-5.73242E-14-5.25600E-14
 -1      4152 1.93475E+01 7.00167E-01 6.64888E-03 1.07730E-01-1.48095E-13-5.06469E-14
 -1      4153 1.90957E+01 8.14644E-01-3.73915E-03 2.43440E-01-1.17736E-13-1.35761E-13
 -1      4154 1.89743E+01 8.72134E-01-1.78216E-03 2.76650E-01-2.09467E-13-1.99185E-13
 -1      4155 1.91301E+01 8.24525E-01 8.59489E-03 1.34634E-01-1.60250E-13-2.03419E-13
 -1      4156 1.88165E+01 9.23566E-01-4.87005E-03 3.03526E-01-2.00780E-13-1.61916E-13
 -1      4157 1.86659E+01 9.73642E-01-2.27790E-03 3.44528E-01-9.24504E-14-2.21128E-13
 -1      4158 1.88578E+01 9.45725E-01 1.11700E-02 1.67772E-01-1.63808E-13-3.24859E-13
 -1      4159 1.84672E+01 1.01351E+00-6.59487E-03 3.79046E-01-1.58340E-14-3.00435E-13
 -1      4160 1.82805E+01 1.04943E+00-3.02410E-03 4.31929E-01 2.07607E-14-3.50002E-13
 -1      4161 1.85166E+01 1.05486E+00 1.46711E-02 2.09280E-01-9.34564E-14-2.46846E-13
 -1      4162 1.80262E+01 1.07065E+00-9.44831E-03 4.77647E-01-5.65608E-14-3.95455E-13
 -1      4163 1.77890E+01 1.08194E+00-6.24362E-03 5.52190E-01-2.45374E-14-4.65871E-13
 -1      4164 1.80863E+01 1.14077E+00 1.93193E-02 2.62321E-01-1.20333E-13-2.81471E-13
 -1      4165 1.74411E+01 1.08336E+00-1.25635E-02 5.79508E-01-8.49133E-14-5.26300E-13
 -1      4166 1.71358E+01 1.05827E+00-9.46820E-03 6.88077E-01-1.85647E-13-6.39879E-13
 -1      4167 1.67423E+01 1.19740E+00 3.35858E-02 2.90278E-01-1.52428E-13-2.00238E-13
 -1      4168 1.75162E+01 1.19303E+00 2.52241E-02 2.96030E-01-1.71936E-13-2.16370E-13
 -1      4169 1.64445E+01 7.36831E-01-2.67686E-02-1.38338E+00-2.23710E-13 7.59896E-15
 -1      4170 1.94918E+01 5.96251E-01-7.47973E-04-2.36653E-01-1.23156E-13-4.99354E-14
 -1      4171 1.95589E+01 5.40740E-01-2.19063E-03-2.07399E-01-1.44858E-14-6.45798E-14
 -1      4172 2.00005E+01 8.65537E-02 1.30241E-04-6.45920E-02 3.86825E-14-1.13991E-13
 -1      4173 2.00192E+01 5.96251E-02-3.64056E-04-5.98190E-02 2.85127E-14-1.71408E-13
 -1      4174 1.96315E+01 4.88033E-01-5.59253E-04-1.87243E-01-4.74086E-14-3.91631E-14
 -1      4175 1.96847E+01 4.36167E-01-1.72057E-03-1.63470E-01-1.17786E-13-8.31554E-14
 -1      4176 1.95692E+01 5.43155E-01 4.29134E-03-1.39085E-01-5.74333E-14-7.02003E-14
 -1      4177 1.97421E+01 3.87546E-01-3.84998E-04-1.47680E-01-5.83706E-14-1.17847E-14
 -1      4178 1.97839E+01 3.40531E-01-1.33952E-03-1.28746E-01-2.35672E-14-2.75177E-14
 -1      4179 1.96945E+01 4.34662E-01 3.25030E-03-1.09680E-01-3.78601E-14-3.47601E-14
 -1      4180 1.93162E+01 7.08125E-01-9.40374E-04-2.97616E-01-2.26317E-13 2.63038E-15
 -1      4181 1.94002E+01 6.51225E-01-2.78469E-03-2.62027E-01-1.85182E-13-4.38076E-14
 -1      4182 1.94109E+01 6.59496E-01 5.56931E-03-1.75892E-01-1.48021E-13-1.44610E-14
 -1      4183 1.90973E+01 8.16940E-01-1.11630E-03-3.72651E-01-9.51066E-14 1.22532E-13
 -1      4184 1.92012E+01 7.62273E-01-3.56424E-03-3.29414E-01-1.73729E-13 7.29118E-14
 -1      4185 1.92120E+01 7.79401E-01 7.17025E-03-2.21609E-01-2.36181E-13-7.80062E-15
 -1      4186 1.88265E+01 9.12697E-01-1.24629E-03-4.65885E-01-7.27211E-14-3.21073E-14
 -1      4187 1.89536E+01 8.65538E-01-4.64058E-03-4.12731E-01-1.47388E-14 1.02418E-13
 -1      4188 1.89634E+01 8.96170E-01 9.23495E-03-2.78571E-01-9.16429E-14 1.96160E-13
 -1      4189 1.84933E+01 9.81553E-01-1.30255E-03-5.84515E-01-1.48323E-13-2.64338E-14
 -1      4190 1.86470E+01 9.49071E-01-6.21688E-03-5.17267E-01-1.25605E-13 2.23286E-15
 -1      4191 1.86539E+01 1.00037E+00 1.19908E-02-3.50622E-01-1.01129E-13 8.41106E-14
 -1      4192 1.80837E+01 1.00566E+00-9.80451E-04-7.41649E-01-4.56433E-14-1.43435E-13
 -1      4193 1.82672E+01 9.97094E-01-8.62160E-03-6.52307E-01-9.52226E-14-8.79644E-14
 -1      4194 1.82683E+01 1.07977E+00 1.57559E-02-4.44158E-01-8.24220E-14 1.59442E-14
 -1      4195 1.75720E+01 9.56147E-01-2.59063E-03-9.64821E-01-1.27289E-13-1.13598E-13
 -1      4196 1.77929E+01 9.88224E-01-1.27955E-02-8.36652E-01-5.85135E-14-8.71094E-14
 -1      4197 1.77803E+01 1.12028E+00 2.03097E-02-5.70557E-01-8.28643E-14 6.48847E-14
 -1      4198 1.69405E+01 8.20197E-01-4.60599E-03-1.24974E+00-2.15735E-13-2.94717E-14
 -1      4199 1.72085E+01 9.08102E-01-1.82321E-02-1.05784E+00-1.29608E-13-6.70145E-15
 -1      4200 1.71784E+01 1.11616E+00 2.93018E-02-7.13544E-01-1.42204E-13 2.14185E-13
 -1      4201 1.64000E+01 1.06907E+00 4.30177E-02-8.74944E-01-1.95508E-13 2.05842E-13
 -1      4202 1.98293E+01 2.96870E-01-2.29368E-04-1.16667E-01-5.40898E-14-2.19510E-16
 -1      4203 1.98622E+01 2.55156E-01-1.02626E-03-1.02018E-01 2.76209E-14-5.28218E-14
 -1      4204 1.97934E+01 3.36345E-01 2.39121E-03-8.65930E-02-2.68763E-14 7.78762E-14
 -1      4205 2.03305E+01-5.73203E-03-6.14214E-05-6.35849E-02 7.80501E-15-2.20143E-13
 -1      4206 2.03536E+01 3.36065E-02 7.79174E-04-5.58989E-02 2.75511E-14-2.24023E-13
 -1      4207 2.04123E+01 4.75454E-01-1.94843E-03 1.26182E-02 3.75913E-14-2.44605E-13
 -1      4208 2.04225E+01 2.91903E-01-5.19338E-05 9.38658E-03-2.80353E-14-2.49177E-13
 -1      4209 2.04108E+01 2.00861E-01-4.75906E-04 2.54483E-02-2.60752E-14-2.29864E-13
 -1      4210 1.98984E+01 2.16687E-01-9.26520E-05-9.31139E-02 4.00062E-14-9.06521E-14
 -1      4211 1.99247E+01 1.80233E-01-7.66444E-04-8.22404E-02 7.43143E-14-6.96034E-14
 -1      4212 1.98716E+01 2.49086E-01 1.67589E-03-6.89678E-02 8.65193E-17 5.67122E-14
 -1      4213 2.02393E+01-7.85283E-02 2.84619E-04-6.53554E-02-8.29900E-14-2.25527E-13
 -1      4214 2.02617E+01-7.03201E-02 4.77043E-04-6.51172E-02-5.07373E-14-2.54709E-13
 -1      4215 2.03984E+01 7.99099E-01-1.33620E-03-5.51281E-03 2.67876E-14-2.84301E-13
 -1      4216 2.03986E+01 7.59668E-01-2.66274E-03-4.05192E-02 7.55773E-15-3.15816E-13
 -1      4217 2.04243E+01 6.05128E-01 2.74341E-03-1.72094E-02 2.08742E-14-3.17273E-13
 -1      4218 2.04311E+01 6.20635E-01 4.11627E-03 1.19404E-02 6.44070E-15-2.69546E-13
 -1      4219 2.01127E+01-5.25897E-02 3.87203E-04-8.70172E-02-2.49928E-14-1.08922E-13
 -1      4220 2.01264E+01-6.30688E-02-6.50556E-06-8.95156E-02-2.10307E-14-9.81820E-14
 -1      4221 2.01512E+01-6.96895E-02-4.04151E-04-7.64307E-02-2.85353E-15-1.77857E-13
 -1      4222 2.00411E+01 3.52367E-02 2.18677E-04-5.79017E-02 7.91527E-15-1.56806E-13
 -1      4223 2.00582E+01 1.25954E-02-2.02620E-04-5.54709E-02 3.76604E-14-1.76697E-13
 -1      4224 2.00308E+01 5.05891E-02 1.37291E-04-4.18805E-02 3.44229E-14-1.64058E-13
 -1      4225 2.02850E+01-5.63715E-02 1.30622E-04-6.66812E-02 1.08231E-14-2.82115E-13
 -1      4226 2.03085E+01-3.50060E-02 6.11709E-04-6.37253E-02 2.28189E-14-2.60286E-13
 -1      4227 2.03337E+01-1.81080E-02-1.15910E-03-4.43624E-02 4.01283E-14-2.84346E-13
 -1      4228 2.02861E+01-6.40855E-02-1.26904E-03-4.63405E-02-2.42672E-14-2.70581E-13
 -1      4229 1.99541E+01 1.46797E-01 2.66369E-05-7.60517E-02 7.91102E-14-1.34635E-13
 -1      4230 1.99758E+01 1.15295E-01-5.48961E-04-6.84657E-02 5.79267E-14-1.27341E-13
 -1      4231 1.99862E+01 1.06888E-01 5.67733E-04-4.72466E-02 3.94612E-14-2.05366E-13
 -1      4232 1.99344E+01 1.72803E-01 1.07556E-03-5.60714E-02 5.54536E-14-7.78767E-14
 -1      4233 2.03974E+01 1.26183E-01 2.66997E-04 3.00375E-02-1.19569E-15-2.07913E-13
 -1      4234 2.03788E+01 6.59728E-02-1.61358E-04 3.99813E-02 2.20622E-15-1.76288E-13
 -1      4235 2.04137E+01 1.74487E-01 2.36574E-04 1.48822E-02 1.41190E-14-2.50406E-13
 -1      4236 2.04209E+01 3.46248E-01 1.96185E-03-2.45642E-03 4.62810E-14-2.28575E-13
 -1      4237 2.04257E+01 4.62018E-01-1.04817E-03 7.66243E-03 2.58933E-14-2.39326E-13
 -1      4238 1.63904E+01 1.08335E+00-2.32683E-02-2.77432E-01-1.50439E-13 2.33804E-13
 -1      4239 2.00788E+01-7.65441E-03 2.81494E-04-5.51928E-02 9.89802E-14-2.30399E-13
 -1      4240 2.00958E+01-2.59665E-02-1.10510E-05-5.46285E-02 7.79416E-14-2.53258E-13
 -1      4241 2.00716E+01 3.36824E-03-2.09690E-04-3.93679E-02 4.47159E-14-1.66979E-13
 -1      4242 2.01152E+01-4.80689E-02-3.06895E-04-7.25028E-02-4.48000E-15-1.60957E-13
 -1      4243 2.03766E+01 6.23671E-02-1.34471E-03-3.74490E-02 4.68186E-14-2.20964E-13
 -1      4244 2.03714E+01 8.27752E-02-7.30410E-04-5.31789E-02 3.64783E-14-2.29199E-13
 -1      4245 2.03908E+01 1.46705E-01 4.22838E-04-3.90054E-02 7.70288E-14-2.17588E-13
 -1      4246 2.03782E+01 4.80423E-02-6.47176E-04 2.12996E-02 3.16667E-14-1.68111E-13
 -1      4247 2.02162E+01-8.15654E-02 3.35785E-04-6.29927E-02-5.33316E-14-1.95449E-13
 -1      4248 2.02388E+01-8.23523E-02-1.21474E-03-4.54277E-02-8.61280E-14-1.76171E-13
 -1      4249 2.01955E+01-8.02273E-02 3.40518E-04-6.19045E-02-8.73929E-15-2.21602E-13
 -1      4250 2.04293E+01 4.65581E-01-1.46175E-03-8.61073E-04 1.22026E-14-2.62898E-13
 -1      4251 2.04247E+01 4.91465E-01-1.49734E-03-1.49904E-02 2.84835E-14-3.24778E-13
 -1      4252 2.04262E+01 3.73339E-01 1.62676E-04 4.22424E-03-2.96819E-15-2.72160E-13
 -1      4253 2.04312E+01 3.35027E-01 3.95005E-04 3.54583E-03 3.27120E-14-2.62925E-13
 -1      4254 2.04309E+01 5.09724E-01-1.02654E-03-4.38388E-03 2.85177E-14-3.06171E-13
 -1      4255 2.04075E+01 2.45635E-01-6.96406E-04-2.57741E-02 8.08189E-14-2.21889E-13
 -1      4256 2.04255E+01 2.09692E-01-2.63510E-04 4.81757E-06 3.61720E-14-2.91589E-13
 -1      4257 2.04118E+01 1.31809E-01-1.63046E-04 5.40164E-03 3.10773E-14-2.63268E-13
 -1      4258 2.02938E+01-6.60832E-02 7.04269E-04-9.60938E-03-3.82049E-14-1.80371E-13
 -1      4259 2.02691E+01-7.74693E-02 8.73084E-04-8.93338E-03-2.90539E-14-1.79416E-13
 -1      4260 2.02453E+01-8.21300E-02 6.99718E-04-9.08546E-03-3.95076E-14-2.02254E-13
 -1      4261 2.02211E+01-8.28983E-02 6.96629E-04-8.80321E-03-4.54233E-14-2.33953E-13
 -1      4262 2.01616E+01-6.46606E-02 2.81455E-04 4.92935E-03-1.17028E-14-1.68625E-13
 -1      4263 2.01401E+01-5.23297E-02 2.72142E-04 4.56145E-03 5.19452E-14-7.62767E-14
 -1      4264 2.01112E+01-3.13218E-02 1.26561E-04-8.28577E-03 7.00979E-15-1.55192E-13
 -1      4265 2.00906E+01-1.28608E-02 1.65797E-04-7.81256E-03 9.97793E-15-1.25926E-13
 -1      4266 2.00700E+01 7.91317E-03 4.31408E-05-8.60737E-03 3.84778E-14-1.04558E-13
 -1      4267 2.00483E+01 3.08302E-02-1.26106E-05-7.99535E-03 5.70573E-14-8.19064E-14
 -1      4268 2.00263E+01 5.59109E-02-2.24711E-04-9.66218E-03 3.76136E-14-1.32282E-13
 -1      4269 2.00028E+01 8.34363E-02-2.61584E-04-8.68221E-03 5.03758E-14-9.86959E-14
 -1      4270 1.99779E+01 1.12956E-01-5.61028E-04-1.14786E-02 3.31313E-14-8.37215E-14
 -1      4271 1.99510E+01 1.45387E-01-5.59489E-04-1.00190E-02 6.60555E-15-1.05262E-13
 -1      4272 1.99214E+01 1.79660E-01-9.60986E-04-1.41763E-02-1.90597E-14-8.31519E-14
 -1      4273 1.98892E+01 2.17403E-01-9.15495E-04-1.21556E-02-2.48537E-14-7.00600E-14
 -1      4274 1.98527E+01 2.56774E-01-1.43512E-03-1.79058E-02-6.60595E-14-4.45872E-14
 -1      4275 1.98129E+01 3.00196E-01-1.34661E-03-1.52567E-02-6.66757E-14-6.11829E-14
 -1      4276 1.97670E+01 3.44865E-01-1.99985E-03-2.28456E-02-3.13429E-14-2.87362E-14
 -1      4277 1.97169E+01 3.94116E-01-1.87537E-03-1.95108E-02 5.01221E-14-3.01388E-14
 -1      4278 1.96589E+01 4.43935E-01-2.67750E-03-2.92121E-02 2.61549E-14-8.85922E-14
 -1      4279 1.95955E+01 4.98734E-01-2.53200E-03-2.51422E-02-7.79235E-15-3.58404E-14
 -1      4280 1.95220E+01 5.52974E-01-3.50000E-03-3.72839E-02-7.72737E-14-2.78271E-14
 -1      4281 1.94417E+01 6.12380E-01-3.35993E-03-3.24281E-02-1.28982E-13-1.39931E-14
 -1      4282 1.93490E+01 6.69476E-01-4.51721E-03-4.74482E-02-2.06890E-13-2.81117E-14
 -1      4283 1.92478E+01 7.31646E-01-4.42628E-03-4.17316E-02-2.31824E-13-6.23132E-14
 -1      4284 1.91314E+01 7.88931E-01-5.81221E-03-6.02888E-02-2.26372E-13-5.04189E-14
 -1      4285 1.90040E+01 8.50912E-01-5.84022E-03-5.35672E-02-1.55321E-13-1.06038E-13
 -1      4286 1.88584E+01 9.04380E-01-7.52497E-03-7.67424E-02-1.37862E-13-5.53682E-14
 -1      4287 1.86984E+01 9.61970E-01-7.77814E-03-6.87368E-02-1.21809E-13-4.26374E-14
 -1      4288 1.85164E+01 1.00614E+00-9.86646E-03-9.83441E-02-9.59262E-14-5.50552E-14
 -1      4289 1.83148E+01 1.05392E+00-1.04724E-02-8.86230E-02-6.03515E-14-4.53024E-14
 -1      4290 1.80865E+01 1.08217E+00-1.29238E-02-1.27381E-01-4.03537E-14-1.29937E-14
 -1      4291 1.78311E+01 1.11318E+00-1.39720E-02-1.15392E-01-5.82633E-14 3.54812E-14
 -1      4292 1.75458E+01 1.12058E+00-1.49377E-02-1.66499E-01-1.85647E-13 1.48183E-13
 -1      4293 1.68524E+01 1.11169E+00-1.87760E-02-2.32082E-01-1.71538E-13 2.34872E-13
 -1      4294 1.71978E+01 1.12518E+00-1.89630E-02-1.93775E-01-1.77285E-13 1.80996E-13
 -1      4295 2.03180E+01-4.91702E-02 9.52278E-04-8.48652E-03-1.90726E-14-1.93823E-13
 -1      4296 2.04148E+01 2.20128E-01 2.07972E-04-1.86981E-02 6.64441E-14-2.02259E-13
 -1      4297 2.01544E+01-6.67067E-02 3.54557E-04-5.80218E-02 4.68483E-14-2.38799E-13
 -1      4298 2.01735E+01-7.51602E-02 2.30554E-04-5.93518E-02 5.44858E-14-2.29362E-13
 -1      4299 2.01940E+01-8.03982E-02-9.68121E-04-4.31718E-02 1.06040E-14-2.92950E-13
 -1      4300 2.03420E+01-2.32325E-02 5.56787E-04-9.86938E-03 7.50357E-15-1.88755E-13
 -1      4301 2.01158E+01-4.21028E-02 2.09814E-04-5.56063E-02 1.98168E-14-2.90283E-13
 -1      4302 2.01333E+01-5.58101E-02-1.22100E-05-5.64585E-02 1.26500E-14-2.71055E-13
 -1      4303 2.01512E+01-6.24546E-02-3.35954E-04-4.01177E-02 5.40724E-14-3.22844E-13
 -1      4304 2.01112E+01-3.47770E-02-2.24414E-04-3.90399E-02 5.48973E-14-3.29796E-13
 -1      4305 2.03856E+01 5.62320E-02 4.85615E-04-9.86349E-03 5.47949E-14-2.44986E-13
 -1      4306 2.03650E+01 1.02620E-02 8.00899E-04-6.80600E-03 4.87459E-14-2.20216E-13
 -1      4307 2.01984E+01-7.88687E-02 4.61040E-04-8.68903E-03-8.16626E-15-2.49396E-13
 -1      4308 2.01752E+01-7.15947E-02 3.98586E-04-8.50481E-03-7.70578E-15-2.24657E-13
 -1      4309 2.04099E+01 1.46101E-01 1.34251E-03-1.95778E-02 5.97061E-14-2.38358E-13
 -1      4310 2.04249E+01 2.44191E-01-7.93341E-04-1.02667E-02 6.62331E-14-2.65121E-13
 -1      4311 2.03896E+01 8.73837E-02-9.94242E-05-2.37885E-02 5.27207E-14-2.59821E-13
 -1      4312 2.04372E+01 3.75728E-01 1.64931E-03-1.26594E-03 3.81517E-14-2.86000E-13
 -1      4313 2.04324E+01 2.93649E-01 1.88378E-04 1.68225E-03 4.23970E-14-2.86128E-13
 -1      4314 2.01202E+01-3.93032E-02-2.13939E-04-2.63037E-02 3.11377E-14-2.25125E-13
 -1      4315 2.01618E+01-6.73295E-02-3.80711E-04-2.78445E-02 6.14616E-14-2.35281E-13
 -1      4316 2.01403E+01-5.42909E-02 1.28968E-04-2.69158E-02 4.95723E-14-2.77899E-13
 -3
    1PSTEP                         3           1           1          
  100CL  101 1.000000000        4316                     0    1           1
 -4  TOSTRAIN    6    1
 -5  EXX         1    4    1    1
 -5  EYY         1    4    2    2
 -5  EZZ         1    4    3    3
 -5  EXY         1    4    1    2
 -5  EYZ         1    4    2    3
 -5  EZX         1    4    3    1
 -1         1 3.50400E-05-1.09191E-04 2.00332E-05 1.54794E-05 6.53200E-18-5.00742E-20
 -1         2 3.96342E-05-1.21662E-04 2.22223E-05-2.43230E-07 8.27659E-18 8.05820E-19
 -1         3 9.50478E-05-2.87728E-05-2.82131E-05-2.24093E-07-1.98500E-18-2.47176E-18
 -1         4 9.50457E-05-2.87667E-05-2.81971E-05 2.07332E-07 1.49150E-18 4.94919E-20
 -1         5 1.43347E-04-2.14785E-05-4.25280E-05 3.85318E-05-2.55275E-19 1.73249E-17
 -1         6 1.45409E-04 2.57570E-10-4.41872E-05-5.35276E-05-1.11088E-18 1.42348E-17
 -1         7 9.06075E-05-5.11074E-07-3.90679E-05-2.92538E-05-1.61360E-19 1.32786E-18
 -1         8 8.51245E-05 8.62981E-08-3.63386E-05-2.02730E-05-1.65992E-19-2.32515E-18
 -1         9 8.28127E-05 7.65110E-08-3.53503E-05-1.56413E-05-1.25321E-19-4.15968E-18
 -1        10 8.17730E-05 3.91482E-08-3.48817E-05-1.20808E-05-7.01118E-20-4.94076E-18
 -1        11 8.12540E-05 1.91532E-08-3.46535E-05-9.01496E-06-6.78090E-20-5.24663E-18
 -1        12 8.09841E-05 9.17429E-09-3.45389E-05-6.28531E-06-2.78826E-20-5.31371E-18
 -1        13 8.08427E-05 4.61145E-09-3.44811E-05-3.68637E-06 1.23084E-21-5.21465E-18
 -1        14 8.07837E-05 2.72614E-09-3.44575E-05-1.18399E-06 1.99743E-20-5.08558E-18
 -1        15 8.07858E-05 2.71045E-09-3.44582E-05 1.28911E-06 6.34055E-20-4.90601E-18
 -1        16 8.08492E-05 4.50392E-09-3.44833E-05 3.79663E-06 7.10383E-20-4.76155E-18
 -1        17 8.09958E-05 8.39318E-09-3.45425E-05 6.40799E-06 1.02163E-19-4.46019E-18
 -1        18 8.12705E-05 1.81616E-08-3.46582E-05 9.15736E-06 1.22218E-19-3.93793E-18
 -1        19 8.17969E-05 3.81938E-08-3.48899E-05 1.22597E-05 1.78115E-19-3.12749E-18
 -1        20 8.28353E-05 8.15393E-08-3.53632E-05 1.58724E-05 2.28792E-19-1.68614E-18
 -1        21 8.50893E-05 1.69496E-07-3.63771E-05 2.04839E-05 2.42807E-19 9.66013E-19
 -1        22 9.16445E-05-9.96028E-08-3.87394E-05 2.80004E-05 2.84815E-20 6.18137E-18
 -1        23 1.12977E-04-3.81269E-05-3.53977E-05-4.40260E-06-7.33345E-19 1.04637E-17
 -1        24 9.28088E-05-2.76984E-05-2.90005E-05 3.91389E-07-1.91079E-19 7.33885E-18
 -1        25 8.91243E-05-2.68536E-05-2.69307E-05 3.75897E-07-1.18641E-19 4.20075E-18
 -1        26 8.80209E-05-2.64899E-05-2.63933E-05 2.04059E-07-2.87917E-20 1.91003E-18
 -1        27 8.80470E-05-2.64682E-05-2.63853E-05 1.39906E-07-9.08592E-20 5.67936E-19
 -1        28 8.85802E-05-2.66044E-05-2.65547E-05 1.00887E-07-1.58213E-20-5.76915E-19
 -1        29 8.93339E-05-2.68167E-05-2.67869E-05 7.51565E-08 5.96211E-21-1.13373E-18
 -1        30 9.01566E-05-2.70559E-05-2.70363E-05 5.67964E-08-1.53869E-20-1.78521E-18
 -1        31 9.09635E-05-2.72935E-05-2.72797E-05 4.29626E-08-1.35096E-19-2.83213E-18
 -1        32 9.17076E-05-2.75141E-05-2.75040E-05 3.22135E-08-1.02684E-19-3.79158E-18
 -1        33 9.23661E-05-2.77101E-05-2.77025E-05 2.37392E-08 3.17658E-19-3.34183E-18
 -1        34 9.29310E-05-2.78787E-05-2.78730E-05 1.70262E-08-2.22690E-19-3.58335E-18
 -1        35 9.34047E-05-2.80205E-05-2.80162E-05 1.17144E-08-1.24895E-19-4.59958E-18
 -1        36 9.37962E-05-2.81380E-05-2.81346E-05 7.53441E-09 1.60531E-19-4.17936E-18
 -1        37 9.41188E-05-2.82350E-05-2.82324E-05 4.28112E-09-2.43841E-20-3.79804E-18
 -1        38 9.43890E-05-2.83165E-05-2.83144E-05 1.80352E-09-2.84415E-19-4.18197E-18
 -1        39 9.46260E-05-2.83882E-05-2.83866E-05 2.93879E-12 9.20336E-20-5.36927E-18
 -1        40 9.48518E-05-2.84567E-05-2.84554E-05-1.16378E-09 1.12369E-19-5.32209E-18
 -1        41 9.50913E-05-2.85294E-05-2.85285E-05-1.67751E-09-6.32006E-20-5.66556E-18
 -1        42 9.53732E-05-2.86150E-05-2.86146E-05-1.44667E-09-2.41462E-19-6.72050E-18
 -1        43 9.57311E-05-2.87235E-05-2.87238E-05-2.93710E-10-1.05434E-19-6.16275E-18
 -1        44 9.62045E-05-2.88668E-05-2.88680E-05 2.06202E-09 2.11140E-19-5.21709E-18
 -1        45 9.68394E-05-2.90585E-05-2.90611E-05 6.02346E-09-1.04833E-19-4.86410E-18
 -1        46 9.76891E-05-2.93147E-05-2.93193E-05 1.21326E-08-2.16101E-20-5.28992E-18
 -1        47 9.88131E-05-2.96529E-05-2.96603E-05 2.10726E-08-1.94389E-19-4.07309E-18
 -1        48 1.00274E-04-3.00916E-05-3.01027E-05 3.36264E-08-2.30704E-19-5.34858E-18
 -1        49 1.02131E-04-3.06482E-05-3.06637E-05 5.05327E-08 2.34971E-19-5.97217E-18
 -1        50 1.04425E-04-3.13344E-05-3.13544E-05 7.21216E-08 4.84047E-20-6.56435E-18
 -1        51 1.07156E-04-3.21492E-05-3.21720E-05 9.75327E-08-9.08310E-20-5.22688E-18
 -1        52 1.10238E-04-3.30672E-05-3.30872E-05 1.23237E-07-4.70609E-20-3.58100E-18
 -1        53 1.13448E-04-3.40211E-05-3.40263E-05 1.40660E-07-2.26444E-19-2.91671E-18
 -1        54 1.16346E-04-3.48810E-05-3.48511E-05 1.33295E-07 5.97042E-20-2.62934E-18
 -1        55 1.18221E-04-3.54369E-05-3.53467E-05 7.54201E-08-5.71721E-19-2.26114E-18
 -1        56 1.18116E-04-3.54061E-05-3.52383E-05-6.20009E-08 1.25723E-19-2.03050E-18
 -1        57 1.15048E-04-3.44956E-05-3.42684E-05-2.89814E-07 1.37537E-19-1.39332E-18
 -1        58 1.08523E-04-3.25534E-05-3.23488E-05-5.62032E-07 1.88597E-19-2.04738E-18
 -1        59 9.92531E-05-2.97836E-05-2.97341E-05-7.49073E-07 1.06266E-19-1.10445E-18
 -1        60 8.95737E-05-2.68791E-05-2.70864E-05-6.84188E-07-9.41464E-20 1.43440E-19
 -1        61 8.28230E-05-2.48486E-05-2.52613E-05-3.07641E-07 5.63141E-19 1.46111E-18
 -1        62 8.15647E-05-2.44715E-05-2.48888E-05 2.17818E-07-3.34750E-19 3.24403E-18
 -1        63 8.58870E-05-2.57745E-05-2.59907E-05 6.11351E-07-1.03564E-18-9.56724E-19
 -1        64 9.33316E-05-2.80096E-05-2.79656E-05 6.93560E-07-5.54240E-19-4.17690E-18
 -1        65 1.00515E-04-3.01561E-05-2.99423E-05 5.08140E-07 9.54202E-20-3.00488E-18
 -1        66 1.04978E-04-3.14832E-05-3.12353E-05 2.19470E-07 6.42802E-20-8.22456E-19
 -1        67 1.05948E-04-3.17687E-05-3.15801E-05-3.26815E-08 2.49686E-19 5.32580E-21
 -1        68 1.04034E-04-3.11978E-05-3.11061E-05-1.87082E-07-3.57177E-20 3.08555E-18
 -1        69 1.00562E-04-3.01638E-05-3.01772E-05-2.32648E-07 5.38474E-19 2.83957E-18
 -1        70 9.71019E-05-2.91224E-05-2.92316E-05-1.40101E-07-4.80031E-19 1.04846E-18
 -1        71 9.51241E-05-2.84801E-05-2.86090E-05 5.69682E-08-2.73470E-19-1.33742E-18
 -1        72 1.02181E-04-3.05880E-05-3.41507E-05-1.92896E-06 2.46831E-19 1.59911E-17
 -1        73 9.25649E-05-2.75143E-05-2.89087E-05-3.33230E-07 1.19706E-19 1.26428E-17
 -1        74 8.91115E-05-2.67029E-05-2.69739E-05-1.25946E-07-2.03404E-21 1.00811E-17
 -1        75 8.80509E-05-2.64408E-05-2.64372E-05-9.56078E-08 7.68575E-20 8.39414E-18
 -1        76 8.80819E-05-2.64482E-05-2.64120E-05-7.65956E-08 2.21622E-20 6.70376E-18
 -1        77 8.86142E-05-2.65988E-05-2.65718E-05-6.25244E-08 7.76386E-20 5.30951E-18
 -1        78 8.93652E-05-2.68180E-05-2.67992E-05-5.17282E-08 4.77987E-20 4.99714E-18
 -1        79 9.01844E-05-2.70604E-05-2.70457E-05-4.28064E-08 9.47049E-20 4.45918E-18
 -1        80 9.09875E-05-2.72994E-05-2.72870E-05-3.51076E-08-2.78566E-19 3.59921E-18
 -1        81 9.17280E-05-2.75205E-05-2.75096E-05-2.83618E-08 2.06129E-19 2.93085E-18
 -1        82 9.23829E-05-2.77162E-05-2.77068E-05-2.24489E-08-4.84685E-20 2.45627E-18
 -1        83 9.29446E-05-2.78843E-05-2.78762E-05-1.72876E-08 9.29007E-20 2.32689E-18
 -1        84 9.34154E-05-2.80253E-05-2.80185E-05-1.28005E-08 1.79076E-19 1.49582E-18
 -1        85 9.38042E-05-2.81419E-05-2.81362E-05-8.90456E-09-6.24044E-20 5.48803E-19
 -1        86 9.41245E-05-2.82380E-05-2.82334E-05-5.51299E-09 1.00471E-19-2.83012E-19
 -1        87 9.43926E-05-2.83186E-05-2.83151E-05-2.54110E-09-2.00236E-19-8.46505E-19
 -1        88 9.46279E-05-2.83894E-05-2.83869E-05 8.52371E-11-5.18087E-20 1.91226E-19
 -1        89 9.48521E-05-2.84569E-05-2.84555E-05 2.41969E-09 1.82619E-19-4.27694E-19
 -1        90 9.50901E-05-2.85287E-05-2.85284E-05 4.48324E-09-3.62995E-20-1.66183E-18
 -1        91 9.53708E-05-2.86133E-05-2.86144E-05 6.24845E-09-3.50311E-19-7.84645E-19
 -1        92 9.57275E-05-2.87208E-05-2.87236E-05 7.61841E-09-8.05137E-20-1.59451E-19
 -1        93 9.61996E-05-2.88629E-05-2.88678E-05 8.39776E-09 2.47517E-19-2.91375E-19
 -1        94 9.68329E-05-2.90533E-05-2.90610E-05 8.25262E-09-4.25817E-19-2.68105E-18
 -1        95 9.76803E-05-2.93076E-05-2.93189E-05 6.65649E-09-9.01916E-21-1.23409E-18
 -1        96 9.88005E-05-2.96434E-05-2.96592E-05 2.82282E-09 1.86052E-19-7.93415E-19
 -1        97 1.00255E-04-3.00789E-05-3.01001E-05-4.36459E-09-4.27859E-19-1.98896E-19
 -1        98 1.02100E-04-3.06305E-05-3.06578E-05-1.63853E-08 1.39137E-19 1.24481E-19
 -1        99 1.04374E-04-3.13095E-05-3.13424E-05-3.49818E-08 1.06058E-19-2.11045E-18
 -1       100 1.07071E-04-3.21138E-05-3.21493E-05-6.17135E-08-2.66319E-19-1.02594E-18
 -1       101 1.10101E-04-3.30166E-05-3.30468E-05-9.67719E-08 1.53468E-19-1.07806E-18
 -1       102 1.13231E-04-3.39499E-05-3.39589E-05-1.36491E-07 2.76094E-19-1.24279E-18
 -1       103 1.16016E-04-3.47836E-05-3.47452E-05-1.69187E-07-1.60927E-19-5.03177E-19
 -1       104 1.17747E-04-3.53103E-05-3.51915E-05-1.70473E-07-2.61655E-19 2.44608E-18
 -1       105 1.17482E-04-3.52523E-05-3.50293E-05-1.03084E-07 1.80742E-19 2.70572E-18
 -1       106 1.14275E-04-3.43236E-05-3.40157E-05 6.78525E-08-2.77476E-19 1.24984E-18
 -1       107 1.07689E-04-3.23766E-05-3.20817E-05 3.35154E-07 5.42812E-20-1.43890E-19
 -1       108 9.84836E-05-2.96114E-05-2.94972E-05 6.03457E-07-5.19875E-19-1.91353E-18
 -1       109 8.89863E-05-2.67100E-05-2.69181E-05 7.01113E-07 7.52182E-19-7.84194E-19
 -1       110 8.24600E-05-2.46761E-05-2.51772E-05 4.99167E-07 5.06005E-19-4.22373E-18
 -1       111 8.13719E-05-2.43059E-05-2.48637E-05 6.05929E-08 4.27738E-19-3.51234E-18
 -1       112 8.57450E-05-2.56351E-05-2.59775E-05-3.73135E-07-8.55526E-19 5.23466E-19
 -1       113 9.31221E-05-2.79048E-05-2.79158E-05-5.84198E-07 6.13274E-19 5.17804E-18
 -1       114 1.00190E-04-3.00782E-05-2.98379E-05-5.33605E-07-5.33977E-19 5.90697E-18
 -1       115 1.04565E-04-3.14165E-05-3.10907E-05-3.27244E-07 7.45687E-19 3.17921E-18
 -1       116 1.05513E-04-3.17028E-05-3.14249E-05-9.32733E-08 1.92592E-19-2.08585E-18
 -1       117 1.03643E-04-3.11309E-05-3.09701E-05 9.26204E-08 2.11315E-19-5.15617E-18
 -1       118 1.00267E-04-3.00989E-05-3.00815E-05 2.00804E-07 7.20826E-20-4.59850E-18
 -1       119 9.69380E-05-2.90776E-05-2.91855E-05 2.01188E-07-5.49562E-20-2.51575E-18
 -1       120 9.51388E-05-2.84664E-05-2.86005E-05-1.71506E-09 1.49143E-18-2.55059E-18
 -1       121 9.52284E-05-2.85264E-05-2.86314E-05-8.72421E-08-3.57307E-18 5.32085E-19
 -1       122 9.46358E-05-2.66385E-05-2.92898E-05 8.80158E-08-1.55137E-18-5.04950E-19
 -1       123 9.34087E-05-2.25336E-05-3.05042E-05 2.12308E-07 2.66004E-18 8.16415E-19
 -1       124 9.16651E-05-1.66899E-05-3.22195E-05 3.10402E-07 2.23761E-18 5.16692E-19
 -1       125 8.95908E-05-9.72153E-06-3.42484E-05 3.77467E-07 4.80391E-18-4.50492E-19
 -1       126 8.75066E-05-2.70809E-06-3.62677E-05 3.80346E-07 4.53815E-18 1.00766E-18
 -1       127 8.57278E-05 3.26708E-06-3.79690E-05 2.90500E-07 1.37061E-18-4.48166E-19
 -1       128 8.46939E-05 6.74082E-06-3.89502E-05 1.13147E-07-4.44458E-18-2.32987E-19
 -1       129 8.46653E-05 6.83678E-06-3.89769E-05-1.01333E-07-8.20088E-18 7.76941E-19
 -1       130 8.56514E-05 3.52529E-06-3.80412E-05-2.82729E-07-6.25351E-18 1.15078E-18
 -1       131 8.74022E-05-2.35939E-06-3.63663E-05-3.81023E-07-8.34108E-18-1.09675E-18
 -1       132 8.94880E-05-9.37403E-06-3.43477E-05-3.81678E-07-1.06736E-17 1.41154E-18
 -1       133 9.15860E-05-1.64215E-05-3.22971E-05-3.18376E-07-7.21992E-18 6.90963E-19
 -1       134 9.33558E-05-2.23835E-05-3.05514E-05-2.37570E-07-5.07708E-18-9.53926E-19
 -1       135 9.46077E-05-2.65243E-05-2.93108E-05-1.67123E-07-8.39135E-19 5.71396E-19
 -1       136 9.51275E-05-2.84198E-05-2.86313E-05 1.87556E-07-1.40149E-18 3.19580E-19
 -1       137 2.92776E-05-9.80868E-05 1.77361E-05-2.48023E-05 1.17795E-17 2.71887E-18
 -1       138 1.03557E-05-4.52711E-05 6.13524E-06-2.34237E-05 8.37334E-18 3.18548E-18
 -1       139 7.73192E-06 7.15778E-06-1.09488E-05 1.28585E-05 5.34690E-18 3.09802E-18
 -1       140 4.54045E-05 2.97498E-05-3.16160E-05 6.94516E-05 2.66138E-18 2.24930E-18
 -1       141 1.22611E-04 9.78126E-06-5.11940E-05 1.11415E-04 1.18712E-18 2.16417E-18
 -1       142 2.17719E-04-3.77275E-05-6.74065E-05 1.12876E-04 9.81394E-19 2.49409E-18
 -1       143 2.93659E-04-8.29972E-05-7.78704E-05 6.60648E-05 4.07793E-19 2.92544E-18
 -1       144 3.15178E-04-9.73432E-05-8.03831E-05-1.38280E-05 7.27072E-19-2.70362E-18
 -1       145 2.70310E-04-7.04664E-05-7.43743E-05-8.37316E-05 1.31624E-18-6.48806E-18
 -1       146 1.82144E-04-2.09145E-05-6.13250E-05-1.13105E-04 5.25012E-18-8.59527E-18
 -1       147 8.73494E-05 1.85516E-05-4.23779E-05-9.24936E-05 5.75305E-18-8.91968E-18
 -1       148 2.18787E-05 2.23241E-05-2.11789E-05-4.03262E-05 5.45150E-18-4.58457E-18
 -1       149 5.53685E-06-1.43970E-05-2.80726E-06 6.62430E-06 6.21976E-18-3.53679E-18
 -1       150 1.77467E-05-6.91788E-05 1.20938E-05 2.79340E-05 6.93212E-18-1.86930E-18
 -1       151 3.56110E-05-1.10999E-04 2.04631E-05-1.36490E-05 1.29522E-18-2.40690E-19
 -1       152 1.74742E-05-6.86545E-05 1.19954E-05-2.76909E-05-3.13741E-18-8.17704E-19
 -1       153 5.25509E-06-1.01099E-05-4.16804E-06-3.39733E-06-2.95064E-18-1.61212E-18
 -1       154 3.00350E-05 2.57719E-05-2.52082E-05 5.13751E-05-2.54660E-18-2.04008E-18
 -1       155 1.02129E-04 1.49950E-05-4.62653E-05 1.01391E-04-4.59304E-18-7.67412E-18
 -1       156 2.06153E-04-3.35527E-05-6.51393E-05 1.11282E-04-5.22016E-18-1.27186E-17
 -1       157 2.91677E-04-8.31485E-05-7.72301E-05 6.37512E-05-2.47113E-18-1.36427E-17
 -1       158 3.15558E-04-9.71115E-05-8.05094E-05-2.14285E-05 8.75726E-19-1.07962E-17
 -1       159 2.64362E-04-6.48538E-05-7.40509E-05-9.41943E-05 5.08008E-19-3.18527E-18
 -1       160 1.64665E-04-9.01677E-06-5.90994E-05-1.18849E-04-2.64401E-18 5.70011E-18
 -1       161 6.29942E-05 2.82136E-05-3.71047E-05-8.37120E-05-5.85130E-18 6.56154E-18
 -1       162 1.11480E-05 1.51456E-05-1.49564E-05-2.31482E-05-9.88615E-18 6.88468E-18
 -1       163 8.68289E-06-4.01244E-05 4.85433E-06 2.18765E-05-4.11912E-18 2.90172E-18
 -1       164 2.87706E-05-9.70978E-05 1.75124E-05 2.57960E-05-2.54110E-21 1.01956E-18
 -1       165 9.48689E-05-1.23466E-05-3.55697E-05-2.23515E-05-2.31086E-18-4.46810E-19
 -1       166 8.92502E-05-8.45812E-06-3.47872E-05-1.73916E-05-1.97083E-18-2.62150E-18
 -1       167 8.65378E-05-6.49803E-06-3.44150E-05-1.35902E-05-1.47504E-18-3.81603E-18
 -1       168 8.51949E-05-5.51827E-06-3.42314E-05-1.03689E-05-9.92521E-19-4.31213E-18
 -1       169 8.44468E-05-4.94361E-06-3.41421E-05-7.54779E-06-5.25967E-19-4.42432E-18
 -1       170 8.40206E-05-4.59993E-06-3.40992E-05-4.90490E-06-1.79180E-19-4.44995E-18
 -1       171 8.38029E-05-4.41601E-06-3.40811E-05-2.39578E-06 2.09248E-19-4.33422E-18
 -1       172 8.37386E-05-4.36029E-06-3.40764E-05 5.11576E-08 5.72169E-19-4.21155E-18
 -1       173 8.38128E-05-4.42439E-06-3.40819E-05 2.50011E-06 9.23138E-19-4.07807E-18
 -1       174 8.40428E-05-4.61939E-06-3.41006E-05 5.01557E-06 1.21991E-18-3.88842E-18
 -1       175 8.44754E-05-4.97230E-06-3.41424E-05 7.62521E-06 1.55213E-18-3.50073E-18
 -1       176 8.52511E-05-5.57456E-06-3.42320E-05 1.05146E-05 1.97738E-18-2.91621E-18
 -1       177 8.66469E-05-6.60852E-06-3.44184E-05 1.37856E-05 2.35187E-18-1.90999E-18
 -1       178 8.93919E-05-8.59997E-06-3.47921E-05 1.76250E-05 2.50226E-18-1.13066E-19
 -1       179 9.57802E-05-1.36137E-05-3.54257E-05 2.18956E-05 2.28471E-18 3.11602E-18
 -1       180 1.05606E-04-2.61024E-05-3.52634E-05 1.86644E-05 1.62157E-18 7.28205E-18
 -1       181 1.03399E-04-2.73016E-05-3.26112E-05-1.21275E-05-2.02290E-18 2.47776E-18
 -1       182 9.71104E-05-2.82910E-05-2.95294E-05-4.73156E-06-1.77224E-18 1.45118E-18
 -1       183 9.35085E-05-2.76373E-05-2.81825E-05-1.77033E-06-1.36824E-18 8.02147E-19
 -1       184 9.19722E-05-2.74057E-05-2.76359E-05-4.22600E-07-9.39035E-19-1.92346E-19
 -1       185 9.13954E-05-2.73306E-05-2.74381E-05 2.41263E-07-6.69421E-19-6.75292E-19
 -1       186 9.13521E-05-2.73691E-05-2.74127E-05 5.66420E-07-5.25661E-19-1.09950E-18
 -1       187 9.15939E-05-2.74712E-05-2.74771E-05 7.04375E-07-3.32418E-19-1.53826E-18
 -1       188 9.19753E-05-2.76028E-05-2.75865E-05 7.34358E-07-5.44135E-19-1.72481E-18
 -1       189 9.24095E-05-2.77423E-05-2.77139E-05 7.02443E-07-4.73663E-19-1.50557E-18
 -1       190 9.28451E-05-2.78772E-05-2.78435E-05 6.37368E-07-3.02434E-20-1.66895E-18
 -1       191 9.32531E-05-2.80004E-05-2.79659E-05 5.57751E-07-3.47057E-19-2.46053E-18
 -1       192 9.36197E-05-2.81089E-05-2.80766E-05 4.75874E-07-4.08840E-19-2.49106E-18
 -1       193 9.39408E-05-2.82023E-05-2.81742E-05 3.99934E-07-5.49302E-20-2.48460E-18
 -1       194 9.42192E-05-2.82818E-05-2.82593E-05 3.35528E-07-4.00115E-20-2.50977E-18
 -1       195 9.44626E-05-2.83501E-05-2.83342E-05 2.86705E-07-2.73358E-19-2.61417E-18
 -1       196 9.46826E-05-2.84107E-05-2.84023E-05 2.56747E-07-6.08335E-19-2.28438E-18
 -1       197 9.48934E-05-2.84677E-05-2.84679E-05 2.48774E-07-1.61626E-19-2.57179E-18
 -1       198 9.51126E-05-2.85264E-05-2.85364E-05 2.66198E-07-1.06120E-19-3.33175E-18
 -1       199 9.53605E-05-2.85925E-05-2.86139E-05 3.13061E-07-8.06527E-19-3.27170E-18
 -1       200 9.56610E-05-2.86730E-05-2.87078E-05 3.94236E-07 3.67077E-19-3.35071E-18
 -1       201 9.60417E-05-2.87758E-05-2.88263E-05 5.15470E-07 2.18084E-19-2.74888E-18
 -1       202 9.65342E-05-2.89103E-05-2.89792E-05 6.83182E-07-2.82674E-19-3.17887E-18
 -1       203 9.71745E-05-2.90873E-05-2.91772E-05 9.03877E-07 2.72541E-19-2.68675E-18
 -1       204 9.80016E-05-2.93189E-05-2.94319E-05 1.18293E-06 4.69160E-19-2.50413E-18
 -1       205 9.90560E-05-2.96185E-05-2.97551E-05 1.52232E-06-5.12634E-19-2.16971E-18
 -1       206 1.00375E-04-2.99999E-05-3.01571E-05 1.91671E-06-3.44450E-19-1.70364E-18
 -1       207 1.01988E-04-3.04762E-05-3.06445E-05 2.34700E-06 6.42025E-20-2.58246E-18
 -1       208 1.03898E-04-3.10571E-05-3.12157E-05 2.77039E-06 8.93395E-19-2.80727E-18
 -1       209 1.06071E-04-3.17449E-05-3.18548E-05 3.10657E-06 7.79098E-19-1.81253E-18
 -1       210 1.08404E-04-3.25267E-05-3.25237E-05 3.22189E-06-3.08484E-19-1.52477E-18
 -1       211 1.10695E-04-3.33621E-05-3.31526E-05 2.91925E-06 1.21598E-19-1.09575E-18
 -1       212 1.12612E-04-3.41624E-05-3.36360E-05 1.95279E-06 5.82125E-19-1.15524E-18
 -1       213 1.13685E-04-3.47636E-05-3.38398E-05 1.02176E-07 2.33963E-19-3.26902E-21
 -1       214 1.13350E-04-3.49060E-05-3.36326E-05-2.65401E-06 5.64683E-19-3.12099E-19
 -1       215 1.11127E-04-3.42659E-05-3.29462E-05-5.87525E-06-3.85830E-19-1.37173E-18
 -1       216 1.06943E-04-3.26195E-05-3.18505E-05-8.46793E-06 5.76932E-19-1.61115E-18
 -1       217 1.01543E-04-3.01631E-05-3.05855E-05-8.93318E-06 1.42972E-19-1.99263E-18
 -1       218 9.65924E-05-2.77417E-05-2.95074E-05-6.30339E-06 9.00002E-19-2.42093E-19
 -1       219 9.40330E-05-2.65439E-05-2.89255E-05-1.26181E-06 2.34886E-19-9.77773E-19
 -1       220 9.47693E-05-2.71479E-05-2.89755E-05 3.85928E-06-1.98848E-18-1.87792E-18
 -1       221 9.80030E-05-2.90455E-05-2.95455E-05 6.67643E-06-1.66831E-18-2.25808E-18
 -1       222 1.01819E-04-3.10585E-05-3.03213E-05 6.35887E-06 1.95706E-18-9.29420E-19
 -1       223 1.04493E-04-3.22859E-05-3.09492E-05 3.80419E-06 9.21079E-19 1.35247E-18
 -1       224 1.05236E-04-3.24797E-05-3.11907E-05 5.77641E-07 1.29147E-18 2.81033E-18
 -1       225 1.04156E-04-3.18547E-05-3.09965E-05-2.06570E-06 1.35125E-18 3.58866E-18
 -1       226 1.01874E-04-3.07673E-05-3.04817E-05-3.48335E-06 7.91897E-19 2.75608E-18
 -1       227 9.91704E-05-2.95296E-05-2.98485E-05-3.49169E-06-8.05303E-19 2.49785E-18
 -1       228 9.67217E-05-2.84150E-05-2.92740E-05-2.20828E-06-1.00673E-18 2.28398E-18
 -1       229 9.95029E-05-2.85551E-05-3.05878E-05 7.21208E-06 1.69907E-18 6.28433E-18
 -1       230 9.44183E-05-2.77913E-05-2.85250E-05 2.74445E-06 1.31374E-18 5.00646E-18
 -1       231 9.20980E-05-2.74015E-05-2.76820E-05 9.30620E-07 9.84583E-19 3.91607E-18
 -1       232 9.11488E-05-2.72388E-05-2.73630E-05 6.88514E-08 8.53590E-19 3.11184E-18
 -1       233 9.09363E-05-2.72314E-05-2.72886E-05-3.58711E-07 6.33070E-19 2.60433E-18
 -1       234 9.11186E-05-2.73170E-05-2.73368E-05-5.59039E-07 9.38734E-20 2.23735E-18
 -1       235 9.15005E-05-2.74496E-05-2.74468E-05-6.31432E-07 3.81256E-19 2.12123E-18
 -1       236 9.19670E-05-2.75999E-05-2.75840E-05-6.30006E-07 4.34918E-19 1.67282E-18
 -1       237 9.24503E-05-2.77502E-05-2.77276E-05-5.87139E-07 5.89715E-19 9.24365E-19
 -1       238 9.29111E-05-2.78906E-05-2.78655E-05-5.23368E-07 9.07436E-20 1.05291E-18
 -1       239 9.33293E-05-2.80161E-05-2.79912E-05-4.52085E-07 5.07140E-19 9.44873E-19
 -1       240 9.36966E-05-2.81249E-05-2.81022E-05-3.82146E-07 5.06483E-19 5.13289E-19
 -1       241 9.40136E-05-2.82176E-05-2.81984E-05-3.19480E-07 4.97370E-19-4.30928E-19
 -1       242 9.42863E-05-2.82965E-05-2.82815E-05-2.68188E-07 2.00789E-19-7.54485E-19
 -1       243 9.45252E-05-2.83646E-05-2.83546E-05-2.31336E-07-1.74499E-19-9.39974E-21
 -1       244 9.47439E-05-2.84261E-05-2.84218E-05-2.11555E-07-2.72048E-19-4.07359E-19
 -1       245 9.49589E-05-2.84860E-05-2.84881E-05-2.11502E-07 3.80446E-19-3.24232E-19
 -1       246 9.51899E-05-2.85500E-05-2.85595E-05-2.34209E-07 1.64791E-19-1.08407E-19
 -1       247 9.54596E-05-2.86246E-05-2.86429E-05-2.83321E-07-3.28658E-19-4.37601E-19
 -1       248 9.57946E-05-2.87178E-05-2.87463E-05-3.63226E-07-5.88462E-19-8.61007E-19
 -1       249 9.62256E-05-2.88385E-05-2.88790E-05-4.79015E-07 5.96924E-19-2.84352E-19
 -1       250 9.67876E-05-2.89971E-05-2.90517E-05-6.36199E-07 6.38603E-19-4.09094E-19
 -1       251 9.75200E-05-2.92055E-05-2.92761E-05-8.40035E-07-2.05558E-19-1.59021E-18
 -1       252 9.84648E-05-2.94768E-05-2.95647E-05-1.09419E-06-3.09073E-19-1.55876E-18
 -1       253 9.96640E-05-2.98248E-05-2.99297E-05-1.39833E-06-4.50840E-19-4.38731E-19
 -1       254 1.01154E-04-3.02624E-05-3.03811E-05-1.74409E-06-4.23007E-19 6.31626E-19
 -1       255 1.02953E-04-3.07999E-05-3.09230E-05-2.10851E-06 9.53891E-19 1.88114E-18
 -1       256 1.05050E-04-3.14403E-05-3.15487E-05-2.44436E-06-3.94507E-19 1.65075E-19
 -1       257 1.07375E-04-3.21734E-05-3.22324E-05-2.66748E-06 2.31768E-19-3.24450E-19
 -1       258 1.09766E-04-3.29654E-05-3.29194E-05-2.64407E-06-1.52877E-19-5.62716E-19
 -1       259 1.11940E-04-3.37440E-05-3.35169E-05-2.18763E-06-9.63202E-19 9.26783E-19
 -1       260 1.13459E-04-3.43808E-05-3.38918E-05-1.08705E-06-5.23842E-19 8.55144E-19
 -1       261 1.13760E-04-3.46751E-05-3.38877E-05 8.00906E-07 5.23185E-19 3.68190E-19
 -1       262 1.12269E-04-3.43648E-05-3.33740E-05 3.36946E-06-1.39231E-20 1.02437E-18
 -1       263 1.08675E-04-3.32108E-05-3.23262E-05 6.03697E-06 4.95637E-19-1.88412E-19
 -1       264 1.03321E-04-3.11988E-05-3.09054E-05 7.69071E-06 3.16119E-19 7.72262E-19
 -1       265 9.74937E-05-2.87840E-05-2.94665E-05 7.12026E-06-2.60837E-19-6.59289E-19
 -1       266 9.31637E-05-2.68959E-05-2.84399E-05 3.95053E-06 1.26451E-18-4.93393E-19
 -1       267 9.19868E-05-2.64318E-05-2.81311E-05-6.46120E-07-7.04546E-19-2.32970E-19
 -1       268 9.41461E-05-2.75277E-05-2.85628E-05-4.48980E-06-2.20645E-18 2.33133E-20
 -1       269 9.82036E-05-2.94333E-05-2.94588E-05-5.93493E-06-7.04561E-19 5.09901E-19
 -1       270 1.02116E-04-3.11352E-05-3.03954E-05-4.86497E-06-1.08689E-18 1.40475E-18
 -1       271 1.04402E-04-3.20092E-05-3.10054E-05-2.35173E-06 1.94899E-18 2.29630E-18
 -1       272 1.04595E-04-3.19709E-05-3.11158E-05 3.08290E-07 2.34607E-18 1.08624E-18
 -1       273 1.03052E-04-3.12617E-05-3.07683E-05 2.23243E-06 1.67703E-18-1.55493E-19
 -1       274 1.00542E-04-3.02118E-05-3.01508E-05 3.02381E-06-3.88363E-19-1.86375E-18
 -1       275 9.79365E-05-2.91233E-05-2.95031E-05 2.59306E-06-5.03028E-19-2.16346E-18
 -1       276 9.59632E-05-2.83362E-05-2.89827E-05 1.17633E-06 1.66570E-19-1.45203E-18
 -1       277 9.53949E-05-2.70276E-05-2.92916E-05 2.24308E-06-3.38678E-19 1.46764E-18
 -1       278 9.45809E-05-2.45667E-05-2.99974E-05 4.16925E-06 1.72847E-19 2.51050E-18
 -1       279 9.34002E-05-2.10641E-05-3.09966E-05 5.83420E-06 1.68581E-18 8.36923E-19
 -1       280 9.18768E-05-1.66791E-05-3.22283E-05 6.92545E-06 2.03485E-18 1.98522E-18
 -1       281 9.01343E-05-1.19494E-05-3.35165E-05 7.06430E-06 7.84035E-19-9.15834E-19
 -1       282 8.83854E-05-7.45536E-06-3.46996E-05 5.91268E-06-1.29123E-18-3.23209E-18
 -1       283 8.70667E-05-4.20203E-06-3.55332E-05 3.43515E-06-1.08653E-18-2.15517E-18
 -1       284 8.65553E-05-2.96883E-06-3.58441E-05 9.49187E-08-5.62875E-19-1.10066E-18
 -1       285 8.70134E-05-4.07845E-06-3.55636E-05-3.27391E-06-6.94145E-19 1.20861E-19
 -1       286 8.82982E-05-7.24505E-06-3.47530E-05-5.82445E-06-2.15485E-18-1.46538E-18
 -1       287 9.00057E-05-1.16220E-05-3.36017E-05-7.05560E-06-2.31889E-18-1.70970E-18
 -1       288 9.17948E-05-1.64584E-05-3.22881E-05-6.99718E-06-1.82086E-18 2.13698E-18
 -1       289 9.33436E-05-2.08995E-05-3.10415E-05-5.94628E-06-2.52059E-18 1.10394E-18
 -1       290 9.45629E-05-2.44772E-05-3.00285E-05-4.22536E-06-2.07247E-18 1.90408E-18
 -1       291 9.56945E-05-2.67107E-05-2.95514E-05-3.53078E-06-3.30591E-18 3.93988E-19
 -1       292 1.31752E-05-4.98971E-05 1.26157E-05 8.89754E-06 2.55031E-18 2.88118E-18
 -1       293 2.69565E-05-4.92842E-05 6.45679E-06 2.05689E-05 5.23593E-18-5.62218E-19
 -1       294 5.04672E-05-4.13865E-05-5.97390E-06 3.35380E-05 3.81673E-18 8.43857E-19
 -1       295 8.50835E-05-3.42941E-05-2.23817E-05 4.44680E-05 2.31685E-18-4.53163E-19
 -1       296 1.26455E-04-3.13133E-05-3.98544E-05 4.90961E-05 9.82558E-19-8.79644E-19
 -1       297 1.66868E-04-3.21112E-05-5.54275E-05 4.51404E-05-1.11512E-18 1.42513E-19
 -1       298 1.96293E-04-3.37974E-05-6.65808E-05 2.88346E-05-1.39549E-19-9.53971E-19
 -1       299 2.12189E-04-3.52336E-05-7.22972E-05 9.16854E-06 2.03838E-18-1.84251E-18
 -1       300 2.11853E-04-3.72578E-05-7.11501E-05-1.39968E-05 1.96438E-18-2.06750E-18
 -1       301 1.87909E-04-3.48335E-05-6.28242E-05-3.24315E-05 3.38374E-18-3.26976E-18
 -1       302 1.52045E-04-3.76354E-05-4.80149E-05-3.32847E-05 2.31362E-18-2.38037E-18
 -1       303 1.07809E-04-3.42630E-05-3.14330E-05-4.42406E-05 1.99752E-18-3.77057E-18
 -1       304 6.55439E-05-3.56786E-05-1.41629E-05-3.74087E-05 3.84405E-18-3.57755E-18
 -1       305 3.85128E-05-4.29374E-05-2.21768E-07-2.90397E-05 4.42808E-18-2.18699E-18
 -1       306 1.79694E-05-4.95761E-05 1.03233E-05-1.29897E-05 3.30936E-18-1.87597E-18
 -1       307 1.15293E-05-5.31422E-05 1.41725E-05-5.06228E-07 1.40644E-18-2.47842E-18
 -1       308 1.72043E-05-4.82464E-05 1.02714E-05 1.34541E-05 5.78100E-20-2.25935E-18
 -1       309 3.98287E-05-4.29433E-05-7.29730E-07 2.94469E-05-1.15959E-18-5.36430E-19
 -1       310 7.28866E-05-3.67590E-05-1.65744E-05 3.91791E-05-1.95919E-18-8.49256E-19
 -1       311 1.13545E-04-3.13439E-05-3.48757E-05 4.58915E-05-7.33107E-19-5.17791E-18
 -1       312 1.59645E-04-3.26582E-05-5.24424E-05 4.35156E-05-1.46341E-18-7.00539E-18
 -1       313 1.97438E-04-3.60218E-05-6.59556E-05 2.83794E-05-1.47082E-18-7.69127E-18
 -1       314 2.12857E-04-3.58157E-05-7.22786E-05 4.42796E-06-2.37879E-18-6.69400E-18
 -1       315 2.12160E-04-3.70329E-05-7.12515E-05-2.06176E-05-2.24612E-18-5.42482E-18
 -1       316 1.84940E-04-3.34606E-05-6.19495E-05-4.02100E-05-2.33408E-18-4.06322E-18
 -1       317 1.42256E-04-3.24542E-05-4.56796E-05-4.72043E-05-8.38457E-19-1.45796E-18
 -1       318 9.40345E-05-3.29681E-05-2.64564E-05-4.63642E-05-2.90681E-18 2.15782E-19
 -1       319 5.45306E-05-4.01814E-05-8.08985E-06-3.52982E-05 3.27802E-19 3.77046E-18
 -1       320 2.77817E-05-4.89942E-05 5.95862E-06-2.14657E-05 2.35009E-18 1.54806E-18
 -1       321 1.36291E-05-5.22035E-05 1.31088E-05-8.11198E-06 3.49105E-18 2.65915E-18
 -1       322 9.16512E-05-1.43977E-05-3.31716E-05-1.30655E-05-2.01457E-18-2.34837E-18
 -1       323 9.57010E-05-1.91009E-05-3.28918E-05-1.46327E-05-2.38111E-18-1.13418E-18
 -1       324 8.79989E-05-1.03722E-05-3.33238E-05-8.16429E-06-9.12310E-19-3.46441E-18
 -1       325 8.71917E-05-9.45693E-06-3.33634E-05-5.72077E-06-4.91030E-19-3.57504E-18
 -1       326 8.67321E-05-8.92650E-06-3.33902E-05-3.36797E-06 2.41624E-20-3.41556E-18
 -1       327 8.65272E-05-8.68659E-06-3.34037E-05-1.07280E-06 5.17842E-19-3.32298E-18
 -1       328 8.65357E-05-8.69601E-06-3.34034E-05 1.20380E-06 9.26916E-19-3.20981E-18
 -1       329 8.67592E-05-8.95670E-06-3.33891E-05 3.50092E-06 1.34421E-18-3.14183E-18
 -1       330 8.72306E-05-9.50033E-06-3.33617E-05 5.81627E-06 1.66787E-18-2.85139E-18
 -1       331 8.80691E-05-1.04514E-05-3.33201E-05 8.25589E-06 2.16255E-18-2.35515E-18
 -1       332 8.94832E-05-1.20338E-05-3.32592E-05 1.07653E-05 2.53429E-18-1.62722E-18
 -1       333 9.19023E-05-1.47223E-05-3.31583E-05 1.31706E-05 2.79422E-18-5.77339E-19
 -1       334 9.58055E-05-1.94575E-05-3.28283E-05 1.43772E-05 2.61496E-18 1.45491E-18
 -1       335 9.87928E-05-2.44447E-05-3.19516E-05 1.18992E-05 2.30517E-18 3.35437E-18
 -1       336 9.63916E-05-2.68128E-05-2.97900E-05 5.74237E-06 1.92580E-18 2.66751E-18
 -1       337 9.64385E-05-2.60295E-05-3.01308E-05-6.35239E-06-1.84349E-18-7.10520E-19
 -1       338 9.49180E-05-2.70278E-05-2.90704E-05-2.83769E-06-1.57027E-18-6.58307E-19
 -1       339 9.39418E-05-2.74258E-05-2.84921E-05-9.24462E-07-1.09463E-18-7.22224E-19
 -1       340 9.34218E-05-2.76386E-05-2.81861E-05 1.34170E-07-7.93163E-19-1.05562E-18
 -1       341 9.32285E-05-2.77914E-05-2.80416E-05 6.97671E-07-6.55941E-19-8.68082E-19
 -1       342 9.32439E-05-2.79205E-05-2.79948E-05 9.64278E-07-6.50145E-19-1.21634E-18
 -1       343 9.33815E-05-2.80346E-05-2.80058E-05 1.05125E-06-5.54164E-19-1.62951E-18
 -1       344 9.35818E-05-2.81348E-05-2.80491E-05 1.03177E-06-4.43350E-19-1.76025E-18
 -1       345 9.38065E-05-2.82209E-05-2.81088E-05 9.53348E-07-3.16870E-19-1.76662E-18
 -1       346 9.40322E-05-2.82932E-05-2.81746E-05 8.47598E-07-5.55005E-19-1.72084E-18
 -1       347 9.42459E-05-2.83523E-05-2.82408E-05 7.35861E-07-4.45417E-19-1.90008E-18
 -1       348 9.44426E-05-2.83998E-05-2.83046E-05 6.32776E-07 1.26114E-19-1.52298E-18
 -1       349 9.46225E-05-2.84375E-05-2.83654E-05 5.48707E-07-3.56907E-20-1.56144E-18
 -1       350 9.47899E-05-2.84677E-05-2.84241E-05 4.91494E-07-4.86763E-19-1.84519E-18
 -1       351 9.49520E-05-2.84927E-05-2.84826E-05 4.67749E-07-6.76546E-19-2.01182E-18
 -1       352 9.51189E-05-2.85153E-05-2.85442E-05 4.83828E-07-7.64805E-19-1.84184E-18
 -1       353 9.53028E-05-2.85386E-05-2.86127E-05 5.46546E-07-4.33286E-19-2.08780E-18
 -1       354 9.55185E-05-2.85661E-05-2.86930E-05 6.63629E-07-5.79789E-19-1.74521E-18
 -1       355 9.57829E-05-2.86021E-05-2.87905E-05 8.43897E-07 3.31745E-19-2.53572E-18
 -1       356 9.61157E-05-2.86518E-05-2.89113E-05 1.09708E-06 2.07796E-19-1.93901E-18
 -1       357 9.65389E-05-2.87219E-05-2.90622E-05 1.43314E-06 3.72589E-19-7.81247E-19
 -1       358 9.70768E-05-2.88207E-05-2.92498E-05 1.86073E-06 2.28858E-19-7.77965E-19
 -1       359 9.77554E-05-2.89598E-05-2.94805E-05 2.38449E-06 4.52236E-20-1.50312E-18
 -1       360 9.86014E-05-2.91549E-05-2.97591E-05 3.00042E-06 3.04515E-19-1.14921E-18
 -1       361 9.96408E-05-2.94278E-05-3.00875E-05 3.68835E-06-1.86808E-19-4.94498E-19
 -1       362 1.00897E-04-2.98099E-05-3.04625E-05 4.40068E-06 9.06406E-20 2.28829E-19
 -1       363 1.02386E-04-3.03445E-05-3.08732E-05 5.04625E-06 8.85776E-19-8.22122E-19
 -1       364 1.04116E-04-3.10882E-05-3.12986E-05 5.47027E-06 4.30503E-19-1.48246E-18
 -1       365 1.06071E-04-3.21033E-05-3.17063E-05 5.43520E-06-7.21459E-20-1.20683E-18
 -1       366 1.08197E-04-3.34280E-05-3.20559E-05 4.61741E-06 7.01599E-19 1.11852E-19
 -1       367 1.10351E-04-3.50058E-05-3.23091E-05 2.65130E-06 4.25064E-19-3.60111E-19
 -1       368 1.12220E-04-3.65575E-05-3.24496E-05-7.25541E-07 2.22679E-19-1.04150E-18
 -1       369 1.13240E-04-3.74439E-05-3.25065E-05-5.36443E-06-5.06273E-19-8.28687E-20
 -1       370 1.12653E-04-3.67165E-05-3.25574E-05-1.02767E-05-6.70185E-19 6.74946E-20
 -1       371 1.09944E-04-3.36752E-05-3.26916E-05-1.34031E-05 4.12522E-19 1.19053E-18
 -1       372 1.05740E-04-2.89869E-05-3.28972E-05-1.23416E-05 3.74978E-19 1.90417E-19
 -1       373 1.02138E-04-2.51081E-05-3.30290E-05-6.29797E-06 8.05072E-19-1.24682E-18
 -1       374 1.01484E-04-2.48320E-05-3.28520E-05 2.07892E-06 1.28193E-19-4.18169E-19
 -1       375 1.03831E-04-2.81942E-05-3.24126E-05 8.38757E-06-2.32436E-18 1.18634E-18
 -1       376 1.07004E-04-3.26256E-05-3.18784E-05 9.77906E-06-6.43580E-20 2.24529E-18
 -1       377 1.08806E-04-3.55233E-05-3.14200E-05 6.81580E-06 2.85650E-18 8.09116E-19
 -1       378 1.08473E-04-3.60251E-05-3.10699E-05 1.92600E-06 1.69552E-18 1.62851E-18
 -1       379 1.06469E-04-3.47184E-05-3.07703E-05-2.62260E-06 1.87088E-18 1.89384E-18
 -1       380 1.03598E-04-3.25357E-05-3.04683E-05-5.57070E-06-2.91994E-19 2.68866E-18
 -1       381 1.00506E-04-3.01316E-05-3.01640E-05-6.51393E-06-5.03372E-19 2.60917E-18
 -1       382 9.79474E-05-2.82113E-05-2.98754E-05-5.61603E-06-1.58502E-18 3.05263E-18
 -1       383 9.43713E-05-2.73417E-05-2.86888E-05 2.47023E-06 1.42336E-18 2.13503E-18
 -1       384 9.31642E-05-2.74613E-05-2.81366E-05 7.45841E-07 1.17467E-18 1.67757E-18
 -1       385 9.26089E-05-2.75385E-05-2.78774E-05-1.74680E-07 8.23735E-19 1.44652E-18
 -1       386 9.24656E-05-2.76307E-05-2.77822E-05-6.49686E-07 3.72030E-19 1.04912E-18
 -1       387 9.25661E-05-2.77395E-05-2.77813E-05-8.66620E-07 3.24080E-19 5.35566E-19
 -1       388 9.27992E-05-2.78550E-05-2.78329E-05-9.30717E-07 7.44565E-19 7.21672E-19
 -1       389 9.30932E-05-2.79682E-05-2.79110E-05-9.05443E-07 6.77318E-19 5.77274E-19
 -1       390 9.34035E-05-2.80730E-05-2.79994E-05-8.31225E-07 1.09704E-19 8.51464E-19
 -1       391 9.37040E-05-2.81660E-05-2.80885E-05-7.34592E-07 6.37148E-19 5.28873E-19
 -1       392 9.39810E-05-2.82461E-05-2.81729E-05-6.33265E-07 9.60865E-19-1.27696E-20
 -1       393 9.42297E-05-2.83137E-05-2.82504E-05-5.39254E-07 1.13850E-18-3.04158E-19
 -1       394 9.44515E-05-2.83704E-05-2.83210E-05-4.60933E-07 2.72269E-19-3.92501E-20
 -1       395 9.46521E-05-2.84185E-05-2.83861E-05-4.04518E-07-5.82033E-19-1.42742E-19
 -1       396 9.48406E-05-2.84610E-05-2.84485E-05-3.75161E-07-9.74110E-20 2.99551E-19
 -1       397 9.50292E-05-2.85014E-05-2.85117E-05-3.77777E-07 4.90301E-19 9.29274E-20
 -1       398 9.52325E-05-2.85436E-05-2.85805E-05-4.17650E-07 4.25046E-19-1.58223E-19
 -1       399 9.54681E-05-2.85924E-05-2.86601E-05-5.00846E-07-5.08615E-20-3.69605E-19
 -1       400 9.57562E-05-2.86534E-05-2.87571E-05-6.34407E-07-3.78875E-19-2.97893E-19
 -1       401 9.61202E-05-2.87330E-05-2.88785E-05-8.26271E-07 5.94890E-20-7.03526E-19
 -1       402 9.65866E-05-2.88391E-05-2.90324E-05-1.08477E-06 1.18077E-18-4.07227E-19
 -1       403 9.71847E-05-2.89810E-05-2.92273E-05-1.41752E-06 1.71355E-19-1.00246E-18
 -1       404 9.79457E-05-2.91699E-05-2.94720E-05-1.82929E-06-3.26695E-19-1.51068E-18
 -1       405 9.89009E-05-2.94194E-05-2.97741E-05-2.31832E-06-9.82863E-19-9.68110E-19
 -1       406 1.00079E-04-2.97458E-05-3.01389E-05-2.87030E-06-1.36731E-18-6.47889E-19
 -1       407 1.01498E-04-3.01688E-05-3.05666E-05-3.44898E-06 5.29247E-19 4.74637E-19
 -1       408 1.03163E-04-3.07115E-05-3.10491E-05-3.98271E-06 3.25673E-19 1.76227E-18
 -1       409 1.05049E-04-3.13988E-05-3.15655E-05-4.34727E-06 3.91245E-20 2.65769E-18
 -1       410 1.07085E-04-3.22506E-05-3.20773E-05-4.34918E-06 3.15229E-19 3.20298E-18
 -1       411 1.09133E-04-3.32626E-05-3.25268E-05-3.72160E-06-9.46961E-19 1.30821E-18
 -1       412 1.10957E-04-3.43654E-05-3.28408E-05-2.15998E-06-5.94774E-19 6.27134E-19
 -1       413 1.12187E-04-3.53545E-05-3.29474E-05 5.58710E-07-5.65681E-19 2.83278E-19
 -1       414 1.12322E-04-3.58193E-05-3.28052E-05 4.33407E-06 2.07301E-19 1.38572E-18
 -1       415 1.10837E-04-3.51766E-05-3.24385E-05 8.41063E-06 9.20500E-19 2.34331E-18
 -1       416 1.07532E-04-3.29996E-05-3.19457E-05 1.12183E-05 5.86271E-19 2.95633E-18
 -1       417 1.03076E-04-2.96444E-05-3.14687E-05 1.08767E-05 1.02096E-18 2.38206E-18
 -1       418 9.91916E-05-2.65967E-05-3.11071E-05 6.54817E-06 5.10973E-19 1.29921E-18
 -1       419 9.78042E-05-2.57044E-05-3.08899E-05-2.39606E-07-1.37284E-18 9.34975E-19
 -1       420 9.94060E-05-2.74759E-05-3.08151E-05-6.15733E-06-1.06365E-18 1.64020E-18
 -1       421 1.02589E-04-3.05647E-05-3.08586E-05-8.51516E-06-1.40853E-18-4.79219E-19
 -1       422 1.05323E-04-3.30915E-05-3.09584E-05-7.01671E-06-6.27534E-19 5.06183E-19
 -1       423 1.06372E-04-3.40663E-05-3.10027E-05-3.27344E-06 8.50663E-19 7.18820E-19
 -1       424 1.05620E-04-3.35830E-05-3.08919E-05 7.34196E-07 2.84801E-18 1.89099E-18
 -1       425 1.03589E-04-3.22189E-05-3.06029E-05 3.66997E-06 1.38043E-18 1.80040E-18
 -1       426 1.00925E-04-3.04933E-05-3.01923E-05 4.95642E-06 1.04472E-18 1.09892E-18
 -1       427 9.82221E-05-2.87962E-05-2.97540E-05 4.51006E-06-7.23174E-19 2.80421E-19
 -1       428 9.66850E-05-2.77948E-05-2.95182E-05 3.61536E-06-1.10723E-18 1.58677E-19
 -1       429 9.46172E-05-2.24310E-05-3.09296E-05 1.05732E-05 8.76298E-19 2.28546E-18
 -1       430 9.59980E-05-2.51745E-05-3.03410E-05 8.32240E-06 7.12952E-20 3.68661E-18
 -1       431 9.64152E-05-2.65601E-05-2.99258E-05 5.94254E-06-7.89478E-20 2.87468E-18
 -1       432 9.25740E-05-1.89929E-05-3.15369E-05 1.17099E-05-3.11639E-19-2.79621E-18
 -1       433 8.99562E-05-1.50935E-05-3.20960E-05 1.10200E-05-1.69111E-18-2.04854E-18
 -1       434 8.73988E-05-1.15764E-05-3.25151E-05 8.02829E-06-2.93260E-20-2.63078E-18
 -1       435 8.57674E-05-9.42906E-06-3.27411E-05 3.05290E-06 1.40050E-19-1.51873E-18
 -1       436 8.57141E-05-9.36325E-06-3.27468E-05-2.74451E-06-5.19343E-20-1.62105E-18
 -1       437 8.72671E-05-1.14071E-05-3.25324E-05-7.81189E-06-1.50674E-19-7.84359E-19
 -1       438 8.97458E-05-1.48069E-05-3.21294E-05-1.09117E-05 5.40299E-19-1.29774E-18
 -1       439 9.23900E-05-1.87153E-05-3.15776E-05-1.17764E-05 1.74610E-18 2.06073E-18
 -1       440 9.45270E-05-2.22648E-05-3.09621E-05-1.07320E-05 1.37381E-18-1.56624E-19
 -1       441 9.59742E-05-2.50613E-05-3.03736E-05-8.51279E-06-1.29226E-18-3.61915E-19
 -1       442 5.63534E-05-4.44433E-05-5.37908E-06 4.39675E-05 2.57657E-18-1.68528E-18
 -1       443 1.56129E-05-2.21526E-05 3.02607E-06-1.34826E-06 2.63075E-18 2.04664E-19
 -1       444 2.77787E-05-3.36936E-05 2.19540E-06 2.99540E-05 9.15537E-19 1.06260E-18
 -1       445 9.45483E-05-5.49884E-05-1.70821E-05 4.51644E-05 1.21009E-18-2.05784E-18
 -1       446 1.31101E-04-5.93228E-05-3.07810E-05 3.16935E-05 1.20019E-18-2.21340E-18
 -1       447 8.94242E-05-1.19266E-05-3.32758E-05-1.07617E-05-1.48325E-18-3.08234E-18
 -1       448 1.59207E-04-3.28407E-05-5.40868E-05 3.12032E-06 5.30031E-19 1.04609E-18
 -1       449 1.63107E-04-1.77658E-05-6.20261E-05 1.00544E-06 1.24090E-18-4.19758E-19
 -1       450 1.64075E-04-1.43238E-05-6.38807E-05 2.98328E-06 2.42770E-18-1.22793E-19
 -1       451 1.60418E-04-2.22480E-05-5.91349E-05 4.30449E-06 3.04635E-18-7.04308E-19
 -1       452 1.56775E-04-3.73195E-05-5.11289E-05 1.09714E-07 1.79079E-18-9.98122E-19
 -1       453 1.41277E-04-5.68624E-05-3.62765E-05-1.76347E-05 6.39933E-19-1.10866E-18
 -1       454 1.10924E-04-5.61230E-05-2.35902E-05-3.69052E-05 1.69798E-18-1.41814E-18
 -1       455 7.74015E-05-4.95758E-05-1.20522E-05-4.31544E-05 2.39128E-18-1.10641E-18
 -1       456 3.78052E-05-3.39717E-05-1.63890E-06-3.57620E-05 1.81329E-18-2.71358E-18
 -1       457 1.69224E-05-2.56953E-05 3.71817E-06-1.71022E-05 1.12698E-18-2.31526E-18
 -1       458 1.34095E-05-2.68978E-05 5.44949E-06 1.19069E-05 6.93482E-19-2.63163E-18
 -1       459 4.02944E-05-3.39830E-05-2.52337E-06 3.69268E-05 1.71630E-19-1.38225E-18
 -1       460 7.95786E-05-5.04856E-05-1.25644E-05 4.31662E-05-1.34604E-18-9.04422E-19
 -1       461 1.20321E-04-5.78472E-05-2.68145E-05 3.26958E-05-2.08370E-19-3.98111E-18
 -1       462 1.46205E-04-4.97098E-05-4.12558E-05 1.85908E-05-1.32772E-19-5.34933E-18
 -1       463 1.59056E-04-3.48859E-05-5.31319E-05 2.67450E-07-5.69100E-19-4.10769E-18
 -1       464 1.56634E-04-1.72934E-05-5.98405E-05-6.64408E-06-1.71418E-18-2.04956E-18
 -1       465 1.64465E-04-1.42479E-05-6.40401E-05-2.10606E-06-2.95149E-18-3.17399E-18
 -1       466 1.64604E-04-2.42443E-05-5.98096E-05-2.77590E-06-1.99127E-18-5.05160E-18
 -1       467 1.57447E-04-4.16308E-05-4.94541E-05-9.97915E-06-1.81162E-18-5.25160E-18
 -1       468 1.36739E-04-5.60865E-05-3.45660E-05-2.91495E-05-1.27108E-18-3.00496E-18
 -1       469 1.04401E-04-5.80637E-05-1.98951E-05-4.33852E-05 2.16417E-18-1.07610E-18
 -1       470 6.26306E-05-4.56224E-05-7.30346E-06-4.60143E-05 5.29819E-18 4.14469E-18
 -1       471 2.84568E-05-3.13804E-05 1.21954E-06-3.02381E-05 5.49978E-18 6.68733E-19
 -1       472 1.51696E-04-4.82439E-05-4.42261E-05 1.75212E-05-3.71636E-19 1.86834E-18
 -1       473 9.58198E-05-2.51486E-05-3.02734E-05 6.01949E-06 1.87716E-18 3.59703E-19
 -1       474 8.95419E-05-1.34037E-05-3.26496E-05-3.92521E-06-1.90181E-19-3.09732E-18
 -1       475 9.02499E-05-1.43677E-05-3.25412E-05-5.88069E-06-6.48112E-19-3.19362E-18
 -1       476 8.90447E-05-1.27238E-05-3.27267E-05 5.47094E-08 6.69239E-19-2.90804E-18
 -1       477 8.91797E-05-1.29070E-05-3.27063E-05 2.04647E-06 1.12566E-18-2.90012E-18
 -1       478 8.95741E-05-1.34442E-05-3.26462E-05 3.99970E-06 1.44891E-18-2.72646E-18
 -1       479 9.02970E-05-1.44304E-05-3.25354E-05 5.95374E-06 1.89733E-18-2.32233E-18
 -1       480 9.14455E-05-1.60093E-05-3.23529E-05 7.78251E-06 2.20296E-18-1.82776E-18
 -1       481 9.32321E-05-1.84789E-05-3.20572E-05 9.29788E-06 2.28675E-18-1.10870E-18
 -1       482 9.51125E-05-2.65786E-05-2.93538E-05 2.87630E-06 1.56984E-18 2.99741E-19
 -1       483 9.54809E-05-2.44341E-05-3.04388E-05-5.82241E-06-1.61697E-18-1.44824E-18
 -1       484 1.46897E-04-4.58126E-05-4.37496E-05-3.88814E-06-1.23929E-18-5.23519E-19
 -1       485 9.52724E-05-2.62236E-05-2.95842E-05-2.89927E-06-1.35897E-18-1.31306E-18
 -1       486 9.49165E-05-2.71622E-05-2.90337E-05-1.03566E-06-9.98429E-19-1.19720E-18
 -1       487 9.46400E-05-2.76935E-05-2.86897E-05 8.70690E-08-6.54080E-19-1.16394E-18
 -1       488 9.44831E-05-2.80195E-05-2.84838E-05 7.21502E-07-8.54028E-19-1.43475E-18
 -1       489 9.44275E-05-2.82304E-05-2.83701E-05 1.03921E-06-9.76889E-19-1.47964E-18
 -1       490 9.44430E-05-2.83701E-05-2.83171E-05 1.15567E-06-5.35448E-19-1.51441E-18
 -1       491 9.45027E-05-2.84625E-05-2.83032E-05 1.14931E-06-4.75476E-19-1.44644E-18
 -1       492 9.45864E-05-2.85214E-05-2.83139E-05 1.07386E-06-4.61634E-19-1.54902E-18
 -1       493 9.46805E-05-2.85560E-05-2.83394E-05 9.66362E-07-3.46584E-19-1.25112E-18
 -1       494 9.47769E-05-2.85724E-05-2.83736E-05 8.52570E-07 5.42301E-21-1.39160E-18
 -1       495 9.48717E-05-2.85750E-05-2.84131E-05 7.50653E-07-2.55559E-19-1.98700E-18
 -1       496 9.49643E-05-2.85668E-05-2.84562E-05 6.73929E-07-3.07778E-19-1.64508E-18
 -1       497 9.50564E-05-2.85499E-05-2.85028E-05 6.32871E-07-5.86894E-19-1.25266E-18
 -1       498 9.51517E-05-2.85257E-05-2.85540E-05 6.36616E-07-4.87192E-19-6.41965E-19
 -1       499 9.52555E-05-2.84951E-05-2.86114E-05 6.94068E-07-4.96811E-19-3.27775E-19
 -1       500 9.53744E-05-2.84588E-05-2.86778E-05 8.14664E-07-7.06887E-19-7.91069E-19
 -1       501 9.55164E-05-2.84177E-05-2.87562E-05 1.00878E-06-4.36321E-19-5.48223E-19
 -1       502 9.56910E-05-2.83732E-05-2.88498E-05 1.28776E-06 5.73351E-19-1.51412E-18
 -1       503 9.59086E-05-2.83281E-05-2.89622E-05 1.66340E-06 6.69078E-19-1.28256E-18
 -1       504 9.61818E-05-2.82875E-05-2.90965E-05 2.14676E-06 4.85500E-19-8.18431E-19
 -1       505 9.65250E-05-2.82606E-05-2.92548E-05 2.74594E-06-1.88180E-19-4.24818E-19
 -1       506 9.69556E-05-2.82637E-05-2.94378E-05 3.46240E-06-3.62097E-20-5.57914E-19
 -1       507 9.74964E-05-2.83240E-05-2.96436E-05 4.28515E-06-3.59672E-20-1.16171E-18
 -1       508 9.81793E-05-2.84868E-05-2.98666E-05 5.18197E-06 2.48740E-19-1.07906E-18
 -1       509 9.90521E-05-2.88235E-05-3.00967E-05 6.08688E-06 1.47777E-19-1.20077E-18
 -1       510 1.00188E-04-2.94412E-05-3.03194E-05 6.88287E-06 2.69182E-19-1.82203E-18
 -1       511 1.01694E-04-3.04863E-05-3.05188E-05 7.38001E-06 1.48709E-19-1.39433E-18
 -1       512 1.03715E-04-3.21264E-05-3.06847E-05 7.29180E-06 1.07380E-18-8.84276E-20
 -1       513 1.06394E-04-3.44794E-05-3.08278E-05 6.22281E-06 6.53163E-19 7.92253E-19
 -1       514 1.09765E-04-3.74468E-05-3.10040E-05 3.69911E-06-5.65618E-19 1.34179E-18
 -1       515 1.13505E-04-4.04060E-05-3.13417E-05-6.76569E-07 9.07111E-19 7.69774E-19
 -1       516 1.16622E-04-4.19027E-05-3.20417E-05-6.76494E-06 3.66697E-20 1.42854E-18
 -1       517 1.17506E-04-3.99038E-05-3.32814E-05-1.31048E-05 1.39998E-19 2.73898E-18
 -1       518 1.14814E-04-3.32082E-05-3.50263E-05-1.63327E-05-7.61866E-19 1.72529E-18
 -1       519 1.10014E-04-2.47540E-05-3.65885E-05-1.28811E-05-1.27976E-18 1.82834E-18
 -1       520 1.06694E-04-1.97968E-05-3.73665E-05-2.82164E-06-7.68616E-20-4.00739E-19
 -1       521 1.09011E-04-2.37703E-05-3.66091E-05 7.57288E-06 2.81361E-19-1.49063E-18
 -1       522 1.13332E-04-3.22828E-05-3.47850E-05 1.17151E-05-4.06270E-19 4.56190E-19
 -1       523 1.15727E-04-3.91440E-05-3.28493E-05 8.84549E-06 8.27569E-19 1.54770E-18
 -1       524 1.14565E-04-4.13054E-05-3.14157E-05 2.53224E-06 1.71867E-18-6.54552E-19
 -1       525 1.10915E-04-3.95604E-05-3.05940E-05-3.58791E-06 8.09211E-19-1.20330E-18
 -1       526 1.06445E-04-3.59287E-05-3.02300E-05-7.73637E-06 1.08395E-18-8.82336E-19
 -1       527 1.02209E-04-3.18842E-05-3.01411E-05-9.46629E-06-6.66754E-19 4.58542E-19
 -1       528 5.29597E-05-3.41321E-05-7.61990E-06 4.04477E-05 2.40822E-19-1.70582E-18
 -1       529 9.41402E-05-2.76853E-05-2.84771E-05-1.16205E-07 9.65629E-19 2.25042E-19
 -1       530 9.39640E-05-2.79326E-05-2.82979E-05-7.25205E-07 6.35354E-19-1.83457E-19
 -1       531 9.39335E-05-2.81035E-05-2.82126E-05-1.02294E-06 2.96254E-19-2.56925E-19
 -1       532 9.39967E-05-2.82286E-05-2.81865E-05-1.12663E-06 6.44415E-19 1.72166E-19
 -1       533 9.41133E-05-2.83220E-05-2.81967E-05-1.11337E-06 2.74147E-19 3.56921E-19
 -1       534 9.42552E-05-2.83915E-05-2.82278E-05-1.03476E-06 2.24479E-19 3.18096E-20
 -1       535 9.44043E-05-2.84419E-05-2.82701E-05-9.25865E-07 1.08112E-18 1.45298E-19
 -1       536 9.45506E-05-2.84771E-05-2.83177E-05-8.10752E-07 1.00336E-18 2.46255E-19
 -1       537 9.46895E-05-2.85000E-05-2.83673E-05-7.06202E-07 3.89559E-19 1.78340E-19
 -1       538 9.48207E-05-2.85131E-05-2.84178E-05-6.24337E-07-2.83413E-19 6.18228E-19
 -1       539 9.49471E-05-2.85186E-05-2.84695E-05-5.74546E-07-2.26999E-19 5.07004E-19
 -1       540 9.50742E-05-2.85184E-05-2.85239E-05-5.64909E-07 4.29215E-19 4.89309E-19
 -1       541 9.52095E-05-2.85143E-05-2.85835E-05-6.03255E-07 4.67680E-19 9.18164E-19
 -1       542 9.53622E-05-2.85082E-05-2.86513E-05-6.97897E-07 5.12158E-20 6.57908E-19
 -1       543 9.55436E-05-2.85022E-05-2.87314E-05-8.58062E-07 1.17639E-19 4.74546E-19
 -1       544 9.57666E-05-2.84992E-05-2.88280E-05-1.09395E-06 3.38456E-19-4.02126E-19
 -1       545 9.60461E-05-2.85031E-05-2.89457E-05-1.41635E-06 7.37538E-19-1.23763E-18
 -1       546 9.63986E-05-2.85197E-05-2.90894E-05-1.83554E-06 6.71006E-19-1.10354E-18
 -1       547 9.68429E-05-2.85578E-05-2.92631E-05-2.35929E-06-1.03143E-19-5.87073E-19
 -1       548 9.73997E-05-2.86311E-05-2.94700E-05-2.98936E-06-2.98262E-19-7.54830E-19
 -1       549 9.80922E-05-2.87611E-05-2.97109E-05-3.71586E-06-8.15860E-19-1.45584E-18
 -1       550 9.89475E-05-2.89813E-05-2.99832E-05-4.50866E-06-1.24198E-18-8.87347E-19
 -1       551 9.99984E-05-2.93427E-05-3.02792E-05-5.30486E-06-2.08923E-19 1.17026E-19
 -1       552 1.01287E-04-2.99197E-05-3.05854E-05-5.99184E-06-7.07232E-19 4.90471E-19
 -1       553 1.02866E-04-3.08112E-05-3.08823E-05-6.38714E-06-5.49748E-19 4.10961E-19
 -1       554 1.04795E-04-3.21271E-05-3.11485E-05-6.22025E-06-6.71981E-21 1.76258E-18
 -1       555 1.07112E-04-3.39367E-05-3.13700E-05-5.13128E-06 6.27086E-21 1.38393E-18
 -1       556 1.09750E-04-3.61463E-05-3.15577E-05-2.72180E-06-4.82128E-19 1.31796E-18
 -1       557 1.12390E-04-3.82988E-05-3.17694E-05 1.27534E-06-4.39476E-19 1.68475E-18
 -1       558 1.14282E-04-3.93757E-05-3.21181E-05 6.63217E-06 4.56102E-19 1.93437E-18
 -1       559 1.14276E-04-3.79432E-05-3.27328E-05 1.20551E-05 3.43721E-19 2.64014E-18
 -1       560 1.11676E-04-3.32813E-05-3.36163E-05 1.49014E-05 9.99767E-19 1.66370E-18
 -1       561 1.07292E-04-2.67615E-05-3.45477E-05 1.24347E-05 9.40458E-19 1.51641E-18
 -1       562 1.04236E-04-2.26438E-05-3.49992E-05 4.45093E-06 4.18831E-19 1.97436E-18
 -1       563 1.04810E-04-2.40230E-05-3.46659E-05-4.91093E-06-1.14319E-18 1.74936E-18
 -1       564 1.08201E-04-2.97691E-05-3.36387E-05-1.02871E-05-1.79139E-19 1.03468E-18
 -1       565 1.11156E-04-3.55094E-05-3.24367E-05-9.68957E-06-1.95400E-18 1.61707E-18
 -1       566 1.11640E-04-3.82842E-05-3.14542E-05-5.03864E-06-3.18370E-19 2.43399E-18
 -1       567 1.09689E-04-3.78349E-05-3.08079E-05 5.74714E-07 1.02799E-18 2.85639E-18
 -1       568 1.06415E-04-3.54321E-05-3.04333E-05 5.01694E-06 1.68767E-18 4.94471E-18
 -1       569 1.02827E-04-3.23259E-05-3.02201E-05 7.43264E-06 2.16286E-18 4.25451E-18
 -1       570 9.94154E-05-2.92278E-05-3.00778E-05 7.74213E-06 4.40131E-19 4.71006E-18
 -1       571 9.24006E-05-2.18989E-05-3.02192E-05 1.52674E-05 2.80459E-19-3.47721E-18
 -1       572 8.78679E-05-1.77205E-05-3.00689E-05 1.32408E-05 4.26718E-19-8.67997E-19
 -1       573 9.81905E-05-2.76418E-05-3.02284E-05 1.17722E-05-6.32045E-19 8.02535E-19
 -1       574 9.60148E-05-2.53662E-05-3.02763E-05 1.43852E-05-1.98504E-18-3.83883E-20
 -1       575 8.39313E-05-1.41603E-05-2.99086E-05 7.88695E-06 1.05676E-19-2.40148E-18
 -1       576 8.22936E-05-1.26891E-05-2.98394E-05 2.31701E-07 9.91781E-19-8.52353E-19
 -1       577 8.37491E-05-1.39954E-05-2.99042E-05-7.51161E-06 7.70484E-19-1.35495E-19
 -1       578 8.75169E-05-1.73991E-05-3.00575E-05-1.29764E-05 1.09732E-18-9.43896E-19
 -1       579 9.20535E-05-2.15711E-05-3.02111E-05-1.52735E-05 1.57821E-18 1.12957E-19
 -1       580 9.58096E-05-2.51476E-05-3.02841E-05-1.45507E-05 2.20909E-18 1.24507E-18
 -1       581 9.81206E-05-2.75237E-05-3.02506E-05-1.19758E-05 8.76117E-20-2.75691E-18
 -1       582 3.25606E-05-1.90405E-05-5.14831E-06-1.96202E-05 2.83229E-18-6.88638E-19
 -1       583 9.45188E-05-2.72932E-05-2.88023E-05 9.87218E-07 1.04387E-18 2.77210E-19
 -1       584 8.83023E-05-5.17739E-05-1.53424E-05 4.58516E-05 3.40719E-19-4.71853E-18
 -1       585 5.68118E-05-3.35455E-05-9.46830E-06-4.04837E-05 5.19337E-18 3.41635E-18
 -1       586 9.46293E-05-2.07701E-05-3.16750E-05-9.51767E-06-1.91740E-18-1.85076E-18
 -1       587 1.19541E-04-6.30345E-05-2.41426E-05 3.60186E-05 5.52477E-19-3.80035E-18
 -1       588 1.44197E-04-4.99234E-05-4.08278E-05 4.89164E-06 4.17230E-19-1.32280E-18
 -1       589 1.40069E-04-1.25071E-05-5.52271E-05 9.32730E-06 3.26658E-18-5.99143E-19
 -1       590 8.91599E-05-1.28821E-05-3.27085E-05-1.93759E-06 2.59734E-19-3.08571E-18
 -1       591 1.38451E-04-9.18487E-06-5.59682E-05-7.82094E-07 2.42728E-18 3.44372E-19
 -1       592 1.28741E-04-6.24876E-05-2.83944E-05-2.15246E-05-2.00482E-19 2.03606E-19
 -1       593 1.40999E-04-2.18188E-05-5.16017E-05-9.38121E-06 6.43586E-19 1.19029E-18
 -1       594 1.42264E-04-2.75912E-05-4.96106E-05 1.40981E-05 2.89346E-18-6.35116E-19
 -1       595 3.37163E-05-1.88859E-05-5.68497E-06 2.19808E-05 3.80106E-20-2.94000E-18
 -1       596 1.07638E-04-5.83509E-05-2.08936E-05-3.59590E-05 6.68415E-19-3.05918E-19
 -1       597 7.03088E-05-4.17352E-05-1.18075E-05-4.19117E-05 2.18376E-19-1.34149E-19
 -1       598 3.75237E-05-2.08742E-05-6.51409E-06-2.60937E-05 3.20602E-19-2.51039E-18
 -1       599 2.45585E-05-1.42496E-05-3.71576E-06-2.43770E-06 1.58435E-19-3.71286E-18
 -1       600 7.50591E-05-4.35069E-05-1.31080E-05 4.13954E-05-2.27259E-18-2.60553E-18
 -1       601 1.10204E-04-5.95392E-05-2.15966E-05 3.47294E-05-2.17529E-18-4.19171E-18
 -1       602 1.39619E-04-6.08166E-05-3.38340E-05 1.18734E-05-1.46087E-19-6.06756E-18
 -1       603 1.46348E-04-4.72832E-05-4.28289E-05-6.42248E-06 9.37560E-20-4.86880E-18
 -1       604 1.39974E-04-2.56580E-05-4.95695E-05-1.46826E-05-1.88920E-18-2.04590E-18
 -1       605 1.35369E-04-8.27679E-06-5.50671E-05-4.76015E-06-3.40465E-18-2.43588E-19
 -1       606 1.41187E-04-1.38679E-05-5.51070E-05 5.50824E-06-1.61794E-18-1.12481E-18
 -1       607 1.45591E-04-3.21871E-05-4.90438E-05 8.66839E-06-2.39287E-18-3.20745E-18
 -1       608 1.46433E-04-5.62965E-05-3.89102E-05-5.62758E-06-1.19552E-18-4.38530E-18
 -1       609 1.30986E-04-6.45903E-05-2.83951E-05-2.79354E-05 1.04100E-18-2.67353E-18
 -1       610 9.48799E-05-5.42672E-05-1.71214E-05-4.47353E-05 4.00414E-18 6.44552E-19
 -1       611 3.18562E-05-1.97787E-05-4.55124E-06 2.05936E-05 1.14114E-18 1.07298E-18
 -1       612 9.61599E-05-2.31903E-05-3.12762E-05 9.58435E-06 2.33681E-18 7.44408E-19
 -1       613 1.43623E-04-6.03424E-05-3.58018E-05 1.13741E-05-8.30410E-19-6.79691E-19
 -1       614 9.13391E-05-1.59047E-05-3.23638E-05-7.67299E-06-1.17732E-18-2.93018E-18
 -1       615 9.96526E-05-2.92842E-05-3.01542E-05-9.34818E-06-1.24823E-18 2.90882E-20
 -1       616 3.62733E-05-1.42907E-05-8.77626E-06 1.50110E-06 1.08733E-18-4.61209E-19
 -1       617 1.37206E-04-5.86375E-05-3.38324E-05-2.46887E-06-1.33643E-18-6.84376E-19
 -1       618 5.87257E-05-2.81739E-05-1.25892E-05 3.25946E-05-9.30492E-19-4.15020E-18
 -1       619 1.26095E-04-1.51635E-05-4.80354E-05-1.38129E-05-2.63941E-18-5.68465E-19
 -1       620 9.15554E-05-1.68523E-05-3.20213E-05 2.44136E-06 1.18943E-18-2.37215E-18
 -1       621 9.12981E-05-1.64512E-05-3.20826E-05 8.41166E-07 7.13704E-19-2.56438E-18
 -1       622 9.28950E-05-1.90022E-05-3.16739E-05 5.26444E-06 1.81008E-18-1.92915E-18
 -1       623 9.39844E-05-2.09301E-05-3.13170E-05 6.14697E-06 1.84534E-18-1.57050E-18
 -1       624 9.52717E-05-2.40953E-05-3.04938E-05 5.15032E-06 1.61550E-18-6.52176E-19
 -1       625 1.34505E-04-3.81632E-05-4.16928E-05 1.64303E-05 5.14281E-19 1.99855E-18
 -1       626 1.39169E-04-5.33179E-05-3.70662E-05-2.64655E-06-1.20453E-18-1.85085E-18
 -1       627 9.53364E-05-2.59443E-05-2.97357E-05 2.60392E-06 1.31699E-18-7.94979E-19
 -1       628 1.22722E-04-1.49998E-05-4.67052E-05-7.45880E-06 8.90602E-19-9.04128E-19
 -1       629 9.54150E-05-2.57049E-05-2.98742E-05-2.44744E-06-1.15493E-18-1.52671E-18
 -1       630 9.54740E-05-2.69462E-05-2.93682E-05-8.71713E-07-9.09354E-19-1.43824E-18
 -1       631 9.54199E-05-2.77076E-05-2.90193E-05 1.28996E-07-6.77204E-19-1.44912E-18
 -1       632 9.53434E-05-2.81786E-05-2.87849E-05 7.16772E-07-9.17742E-19-1.42493E-18
 -1       633 9.52790E-05-2.84681E-05-2.86333E-05 1.01942E-06-6.67042E-19-1.18023E-18
 -1       634 9.52341E-05-2.86392E-05-2.85408E-05 1.13411E-06-2.77642E-19-8.44838E-19
 -1       635 9.52072E-05-2.87313E-05-2.84898E-05 1.13199E-06-4.88341E-19-4.27423E-19
 -1       636 9.51944E-05-2.87698E-05-2.84678E-05 1.06424E-06-4.71793E-19-5.40066E-19
 -1       637 9.51916E-05-2.87714E-05-2.84659E-05 9.67369E-07-4.38949E-19-8.84593E-19
 -1       638 9.51958E-05-2.87470E-05-2.84782E-05 8.67440E-07-2.22442E-19-9.01059E-19
 -1       639 9.52050E-05-2.87035E-05-2.85007E-05 7.83397E-07-2.70820E-19-1.04680E-18
 -1       640 9.52178E-05-2.86449E-05-2.85313E-05 7.29590E-07-9.85149E-21-1.03647E-18
 -1       641 9.52337E-05-2.85729E-05-2.85689E-05 7.17716E-07-3.70221E-19-5.24218E-19
 -1       642 9.52526E-05-2.84874E-05-2.86136E-05 7.58284E-07-6.07313E-19-6.38573E-19
 -1       643 9.52747E-05-2.83872E-05-2.86660E-05 8.61673E-07-7.51830E-19-5.35053E-19
 -1       644 9.53007E-05-2.82705E-05-2.87271E-05 1.03879E-06-6.17591E-19-6.92960E-19
 -1       645 9.53315E-05-2.81356E-05-2.87981E-05 1.30137E-06-2.89745E-19-1.51463E-19
 -1       646 9.53684E-05-2.79816E-05-2.88798E-05 1.66175E-06 5.44089E-20-7.54466E-19
 -1       647 9.54135E-05-2.78099E-05-2.89727E-05 2.13224E-06 5.43662E-19-2.08882E-18
 -1       648 9.54708E-05-2.76262E-05-2.90759E-05 2.72375E-06 7.48329E-19-1.80325E-18
 -1       649 9.55477E-05-2.74439E-05-2.91869E-05 3.44348E-06-6.51021E-20-6.54399E-19
 -1       650 9.56583E-05-2.72891E-05-2.93005E-05 4.29166E-06-3.04632E-19-4.87987E-19
 -1       651 9.58301E-05-2.72084E-05-2.94087E-05 5.25667E-06 4.11495E-19-3.06892E-19
 -1       652 9.61137E-05-2.72800E-05-2.94995E-05 6.30841E-06 4.93690E-20 1.23976E-20
 -1       653 9.65992E-05-2.76279E-05-2.95586E-05 7.38876E-06 1.01328E-20-3.16478E-19
 -1       654 9.74388E-05-2.84367E-05-2.95721E-05 8.39724E-06 1.15434E-19-2.86384E-19
 -1       655 9.88721E-05-2.99579E-05-2.95350E-05 9.16683E-06 2.07496E-18 7.44177E-19
 -1       656 1.01238E-04-3.24814E-05-2.94685E-05 9.42006E-06 1.43231E-18 7.98081E-19
 -1       657 1.04922E-04-3.62151E-05-2.94481E-05 8.71061E-06 1.92432E-20 9.91316E-19
 -1       658 1.10182E-04-4.10091E-05-2.96471E-05 6.34399E-06-1.12807E-18 1.08471E-18
 -1       659 1.16683E-04-4.57609E-05-3.03995E-05 1.45736E-06 7.72663E-20 3.88808E-19
 -1       660 1.22688E-04-4.75898E-05-3.22150E-05-6.42138E-06 1.15815E-18 9.39088E-19
 -1       661 1.24930E-04-4.26661E-05-3.53752E-05-1.51321E-05-5.72283E-19 2.22228E-18
 -1       662 1.20649E-04-2.93798E-05-3.93313E-05-1.78063E-05-9.17760E-19 2.14463E-18
 -1       663 1.19358E-04-2.81395E-05-3.93914E-05 1.29478E-05-6.90464E-20-6.29352E-19
 -1       664 1.23800E-04-4.15137E-05-3.53625E-05 1.06048E-05 5.10314E-19-4.81062E-19
 -1       665 1.22172E-04-4.70666E-05-3.22313E-05 2.33791E-06 2.88130E-19-1.84545E-18
 -1       666 1.16495E-04-4.54661E-05-3.04558E-05-5.53760E-06 5.89728E-19-3.81121E-18
 -1       667 1.09846E-04-4.03869E-05-2.97736E-05-1.05544E-05 1.37375E-18-3.33775E-18
 -1       668 1.04017E-04-3.45845E-05-2.97587E-05-1.26163E-05 1.04816E-18-4.66845E-18
 -1       669 8.43642E-05-4.27475E-05-1.74542E-05-4.06429E-05 4.48782E-18 4.21145E-18
 -1       670 5.37044E-05-2.49302E-05-1.17944E-05 3.09234E-05-1.00662E-18-3.57977E-19
 -1       671 9.50880E-05-2.77033E-05-2.88783E-05-1.21728E-07 9.17413E-19-6.63330E-19
 -1       672 9.48997E-05-2.85244E-05-2.84467E-05-1.15628E-06 2.56006E-19-2.56158E-19
 -1       673 9.49088E-05-2.86158E-05-2.84115E-05-1.15132E-06 6.80892E-19-5.98354E-19
 -1       674 9.49366E-05-2.86629E-05-2.84032E-05-1.07885E-06 6.55889E-19-4.59978E-19
 -1       675 9.49752E-05-2.86789E-05-2.84128E-05-9.75872E-07 6.42169E-19-5.59184E-20
 -1       676 9.50193E-05-2.86729E-05-2.84343E-05-8.68482E-07 7.03737E-19 1.17495E-18
 -1       677 9.50661E-05-2.86506E-05-2.84639E-05-7.75429E-07-2.83720E-19 8.01937E-19
 -1       678 9.51148E-05-2.86154E-05-2.84998E-05-7.10720E-07-2.04510E-19 1.04398E-18
 -1       679 9.51658E-05-2.85694E-05-2.85413E-05-6.85621E-07 2.89548E-19 1.15804E-18
 -1       680 9.52210E-05-2.85132E-05-2.85890E-05-7.10125E-07 2.59284E-19 7.31350E-19
 -1       681 9.52829E-05-2.84467E-05-2.86440E-05-7.94036E-07 3.79293E-19 8.44810E-19
 -1       682 9.53551E-05-2.83693E-05-2.87080E-05-9.47673E-07 4.70760E-19 1.54356E-19
 -1       683 9.54417E-05-2.82806E-05-2.87831E-05-1.18218E-06 6.35316E-19-7.70651E-19
 -1       684 9.55480E-05-2.81808E-05-2.88713E-05-1.50940E-06 7.01810E-19-6.25859E-19
 -1       685 9.56801E-05-2.80723E-05-2.89743E-05-1.94118E-06 8.44257E-19-1.46602E-19
 -1       686 9.58460E-05-2.79608E-05-2.90930E-05-2.48797E-06-1.83514E-19 1.15372E-18
 -1       687 9.60565E-05-2.78581E-05-2.92271E-05-3.15636E-06-8.27034E-20 1.17910E-18
 -1       688 9.63277E-05-2.77864E-05-2.93740E-05-3.94532E-06-4.73629E-19 1.40037E-18
 -1       689 9.66854E-05-2.77843E-05-2.95281E-05-4.84044E-06-1.57498E-18 1.43766E-18
 -1       690 9.71722E-05-2.79157E-05-2.96805E-05-5.80575E-06-1.06863E-18 4.81591E-19
 -1       691 9.78594E-05-2.82808E-05-2.98187E-05-6.77208E-06-7.09241E-19 7.32983E-19
 -1       692 9.88622E-05-2.90271E-05-2.99292E-05-7.62091E-06-6.20005E-19 1.80232E-18
 -1       693 1.00356E-04-3.03511E-05-3.00029E-05-8.16236E-06-5.92364E-20 6.55772E-19
 -1       694 1.02575E-04-3.24706E-05-3.00473E-05-8.10569E-06-1.53578E-19 8.31839E-19
 -1       695 1.05770E-04-3.55251E-05-3.01095E-05-7.02586E-06-4.38285E-19 1.71067E-18
 -1       696 1.10032E-04-3.93284E-05-3.03063E-05-4.36710E-06 2.18536E-20 6.78858E-19
 -1       697 1.14958E-04-4.29745E-05-3.08586E-05 4.05887E-07 1.14680E-19 2.51221E-19
 -1       698 1.19200E-04-4.44122E-05-3.20717E-05 7.25070E-06 3.29458E-20 1.04393E-18
 -1       699 1.20440E-04-4.06881E-05-3.42115E-05 1.44955E-05 1.44171E-18 1.50378E-18
 -1       700 1.16640E-04-3.08827E-05-3.69110E-05 1.74904E-05 1.10578E-18 2.94580E-18
 -1       701 1.11597E-04-2.06063E-05-3.91821E-05 1.15215E-05 6.52970E-19 3.54914E-18
 -1       702 1.09747E-04-1.76513E-05-3.96715E-05-8.57072E-07-4.32582E-19 2.49277E-18
 -1       703 1.13549E-04-2.52793E-05-3.80155E-05-1.07532E-05-5.50241E-19 1.70080E-18
 -1       704 1.18580E-04-3.67002E-05-3.51406E-05-1.17248E-05-1.57215E-18 1.83668E-18
 -1       705 1.19289E-04-4.32372E-05-3.26377E-05-5.96599E-06-3.20437E-19 6.67354E-19
 -1       706 1.15926E-04-4.37415E-05-3.09424E-05 1.45346E-06 7.27112E-19-6.61223E-19
 -1       707 1.10605E-04-4.02709E-05-3.01428E-05 7.19455E-06-5.66569E-20-1.51105E-18
 -1       708 1.05336E-04-3.54678E-05-2.99425E-05 1.02800E-05 9.00260E-19-3.57355E-19
 -1       709 1.01551E-04-3.16059E-05-2.99750E-05 1.17849E-05 5.99603E-19 3.41042E-20
 -1       710 7.77421E-05-1.50423E-05-2.68612E-05 5.66040E-06 1.29283E-18 8.66339E-20
 -1       711 1.00750E-04-3.08581E-05-2.99595E-05-1.27423E-05 5.20137E-19-4.45485E-18
 -1       712 9.04523E-05-2.45024E-05-2.82568E-05 1.84116E-05 4.48219E-19-2.64130E-18
 -1       713 7.75485E-05-1.49063E-05-2.68513E-05-5.05961E-06 1.10477E-18-2.19223E-18
 -1       714 8.29999E-05-1.90069E-05-2.74136E-05 1.43428E-05-3.37966E-19-2.15003E-18
 -1       715 7.77876E-05-4.06805E-05-1.55024E-05 4.14818E-05 4.03055E-19-2.60293E-18
 -1       716 8.24807E-05-1.86093E-05-2.73636E-05-1.38487E-05 5.93978E-19-1.67109E-18
 -1       717 8.98487E-05-2.40500E-05-2.81917E-05-1.82913E-05 1.48926E-19-1.41321E-19
 -1       718 9.64733E-05-2.87323E-05-2.90190E-05-1.80900E-05 1.54313E-18 2.11406E-18
 -1       719 9.93907E-05-3.03264E-05-2.95980E-05-1.57468E-05 1.25755E-18-1.72926E-18
 -1       720 9.52265E-05-2.70383E-05-2.92212E-05 9.28721E-07 1.06633E-18-8.20743E-19
 -1       721 1.17427E-04-5.99852E-05-2.44845E-05-3.24322E-05 2.50981E-18-8.76863E-19
 -1       722 9.41761E-05-2.09784E-05-3.13701E-05-7.06482E-06-1.46552E-18-2.17146E-18
 -1       723 6.29440E-05-3.01790E-05-1.36199E-05-3.35358E-05-5.90726E-19-1.10170E-18
 -1       724 1.37522E-04-6.16348E-05-3.26454E-05-1.08427E-05 6.09963E-19-4.49205E-18
 -1       725 9.49201E-05-2.83683E-05-2.85222E-05-1.04117E-06 2.10363E-19-5.37029E-19
 -1       726 9.49820E-05-2.81150E-05-2.86571E-05-7.31339E-07 5.30277E-19-4.82842E-19
 -1       727 9.50838E-05-2.38610E-05-3.05246E-05-4.48147E-06-1.18570E-18-1.86483E-18
 -1       728 9.52269E-05-4.92678E-05-1.93898E-05-3.51354E-05-5.62853E-19 4.82716E-19
 -1       729 1.09275E-04-5.59406E-05-2.26373E-05 3.58524E-05 1.09765E-18-3.96867E-18
 -1       730 1.23777E-04-1.03019E-05-4.92654E-05 5.26715E-06 2.77329E-18 3.89999E-19
 -1       731 9.20816E-05-1.76809E-05-3.18919E-05 3.95295E-06 1.57255E-18-2.09764E-18
 -1       732 9.20391E-05-1.76217E-05-3.18988E-05-3.90062E-06-3.44277E-19-2.72749E-18
 -1       733 1.30165E-04-2.19205E-05-4.68864E-05 1.16139E-05-5.71430E-19-2.25096E-18
 -1       734 9.95627E-05-5.14318E-05-2.04133E-05 3.36014E-05-1.88986E-18-2.64426E-18
 -1       735 1.32248E-04-3.43102E-05-4.23651E-05-1.31729E-05-1.96067E-18-1.28606E-18
 -1       736 1.14239E-04-5.78241E-05-2.40406E-05-2.71403E-05-3.98000E-19 9.88911E-19
 -1       737 5.33087E-05-2.32229E-05-1.23924E-05-2.87860E-05 2.48199E-18 5.42630E-19
 -1       738 1.27561E-04-6.15967E-05-2.82627E-05 1.72125E-05 2.55870E-19-5.37305E-18
 -1       739 1.38638E-04-5.47843E-05-3.61377E-05-4.25862E-06 7.88932E-20-3.38636E-18
 -1       740 1.33827E-04-3.87847E-05-4.11472E-05-1.68713E-05-1.11913E-18 2.26317E-20
 -1       741 1.24687E-04-1.15741E-05-4.91207E-05 2.10874E-06-2.10038E-18-2.62954E-18
 -1       742 1.27348E-04-1.82794E-05-4.72322E-05 1.49376E-05 1.79973E-18 2.64454E-18
 -1       743 1.38868E-04-4.48914E-05-4.06066E-05 9.09308E-06-5.25187E-19-4.62890E-18
 -1       744 1.32058E-04-6.26779E-05-2.97607E-05 1.84595E-05 3.03741E-19-1.26119E-18
 -1       745 9.28621E-05-1.89183E-05-3.16942E-05-5.28986E-06-7.54983E-19-2.66361E-18
 -1       746 9.12910E-05-1.64416E-05-3.20836E-05-7.83984E-07 4.42103E-19-2.65541E-18
 -1       747 1.14414E-04-1.54973E-05-4.29075E-05 4.68434E-06-1.17354E-18 1.34624E-18
 -1       748 9.68888E-05-2.90474E-05-2.90797E-05 1.78828E-05-1.06091E-18-9.93920E-19
 -1       749 4.87744E-05-1.64737E-05-1.34053E-05 1.55722E-05-4.38148E-19-1.15244E-18
 -1       750 1.00120E-04-3.09535E-05-2.96408E-05 1.51285E-05-1.32487E-18-2.57588E-19
 -1       751 4.91842E-05-1.85237E-05-1.27321E-05-2.06252E-05-3.45034E-20-1.74963E-18
 -1       752 1.27152E-04-5.92130E-05-2.90900E-05-1.18197E-05-9.12086E-19 1.13039E-19
 -1       753 3.98697E-05-1.34463E-05-1.07899E-05 8.08972E-06-7.74532E-19-3.52075E-18
 -1       754 8.09302E-05-3.76253E-05-1.82772E-05 3.24297E-05-7.29414E-19-2.63942E-18
 -1       755 9.15340E-05-1.68217E-05-3.20250E-05-2.38120E-06 9.90612E-20-2.60395E-18
 -1       756 1.33634E-04-4.88790E-05-3.65018E-05 1.08955E-05-1.87400E-18 2.39931E-18
 -1       757 4.79098E-05-1.51643E-05-1.36602E-05-1.16741E-05 1.14873E-18-1.58723E-18
 -1       758 5.41600E-05-1.90742E-05-1.46957E-05 2.04674E-05-3.31316E-19-3.55561E-18
 -1       759 3.99965E-05-1.32317E-05-1.09610E-05-7.18499E-06-5.83876E-19-4.71522E-18
 -1       760 8.42764E-05-3.80194E-05-1.96120E-05-3.05240E-05 2.70740E-19 1.07744E-18
 -1       761 9.46335E-05-2.27212E-05-3.08167E-05 3.92313E-06 1.58338E-18-1.71037E-18
 -1       762 9.38697E-05-4.27149E-05-2.17617E-05 3.44129E-05 5.33763E-20-4.87710E-18
 -1       763 9.58710E-05-2.68901E-05-2.95635E-05-5.89512E-07-7.56649E-19-1.48514E-18
 -1       764 9.59634E-05-2.77757E-05-2.92233E-05 2.13766E-07-8.55664E-19-1.51881E-18
 -1       765 9.59527E-05-2.83356E-05-2.89788E-05 6.92082E-07-7.87931E-19-1.22838E-18
 -1       766 9.58927E-05-2.86739E-05-2.88081E-05 9.39160E-07 1.70707E-20-1.15064E-18
 -1       767 9.58123E-05-2.88616E-05-2.86932E-05 1.03068E-06-1.29453E-19-1.00845E-18
 -1       768 9.57269E-05-2.89469E-05-2.86200E-05 1.02519E-06-2.97807E-19-3.54809E-19
 -1       769 9.56441E-05-2.89623E-05-2.85779E-05 9.66396E-07-4.11136E-19 3.18162E-19
 -1       770 9.55672E-05-2.89299E-05-2.85589E-05 8.86346E-07-3.19742E-19 2.31567E-19
 -1       771 9.54968E-05-2.88637E-05-2.85571E-05 8.08496E-07-3.50329E-19-2.62571E-19
 -1       772 9.54319E-05-2.87720E-05-2.85685E-05 7.50364E-07-5.47353E-19-2.77186E-19
 -1       773 9.53701E-05-2.86589E-05-2.85905E-05 7.25647E-07-4.62713E-19-9.10376E-19
 -1       774 9.53081E-05-2.85250E-05-2.86214E-05 7.45884E-07-7.09516E-19-1.45755E-18
 -1       775 9.52420E-05-2.83685E-05-2.86600E-05 8.21740E-07-7.96209E-19-1.80135E-18
 -1       776 9.51666E-05-2.81861E-05-2.87059E-05 9.63871E-07-6.47945E-19-1.39015E-18
 -1       777 9.50765E-05-2.79735E-05-2.87584E-05 1.18343E-06 1.23653E-19-6.82771E-19
 -1       778 9.49654E-05-2.77267E-05-2.88166E-05 1.49218E-06-3.48242E-19-6.94091E-19
 -1       779 9.48272E-05-2.74433E-05-2.88788E-05 1.90232E-06-5.60385E-20 5.97107E-19
 -1       780 9.46561E-05-2.71247E-05-2.89420E-05 2.42584E-06 9.92878E-19 8.64718E-19
 -1       781 9.44490E-05-2.67789E-05-2.90014E-05 3.07352E-06 2.56243E-19 2.10071E-19
 -1       782 9.42080E-05-2.64257E-05-2.90494E-05 3.85371E-06-3.19597E-19-2.53912E-19
 -1       783 9.39464E-05-2.61032E-05-2.90755E-05 4.77088E-06-9.42834E-20-5.00940E-19
 -1       784 9.36977E-05-2.58786E-05-2.90651E-05 5.82435E-06-1.85984E-20-7.25238E-19
 -1       785 9.35310E-05-2.58622E-05-2.90006E-05 7.00700E-06-2.38197E-19-5.69518E-19
 -1       786 9.35744E-05-2.62258E-05-2.88633E-05 8.30334E-06 5.29644E-19 1.81782E-19
 -1       787 9.40499E-05-2.72249E-05-2.86387E-05 9.68246E-06 1.28857E-18 1.40438E-18
 -1       788 9.53218E-05-2.92159E-05-2.83300E-05 1.10738E-05 7.07648E-19-2.54364E-19
 -1       789 9.79557E-05-3.26469E-05-2.79875E-05 1.22743E-05 6.88178E-19-6.71999E-19
 -1       790 1.02628E-04-3.78712E-05-2.77476E-05 1.28514E-05-6.64462E-19-1.45955E-18
 -1       791 1.10098E-04-4.48693E-05-2.79123E-05 1.17673E-05-5.85248E-19-1.24381E-18
 -1       792 1.20106E-04-5.18853E-05-2.92376E-05 7.10178E-06 1.18066E-18-1.41453E-18
 -1       793 6.85867E-05-2.65607E-05-1.77601E-05-2.60964E-05-1.02308E-18-9.76894E-19
 -1       794 1.31682E-04-5.39078E-05-3.34051E-05-2.74271E-07-7.91082E-19-4.38197E-18
 -1       795 1.22470E-04-5.26739E-05-2.99003E-05-1.05870E-05 5.12815E-19-2.73223E-18
 -1       796 1.12560E-04-4.54765E-05-2.87178E-05-1.59142E-05 1.11604E-18-2.92927E-18
 -1       797 1.04782E-04-3.75749E-05-2.87919E-05-1.72979E-05 1.25658E-18-1.38514E-18
 -1       798 9.55679E-05-2.87668E-05-2.86291E-05-1.08707E-06 5.28974E-19-1.42166E-18
 -1       799 9.54101E-05-2.88633E-05-2.85201E-05-9.29457E-07 4.35279E-20-7.78542E-19
 -1       800 9.53724E-05-2.88160E-05-2.85242E-05-8.41178E-07-3.76450E-20 1.13249E-20
 -1       801 9.53404E-05-2.87464E-05-2.85403E-05-7.71316E-07-2.94527E-19 1.40987E-19
 -1       802 9.53123E-05-2.86584E-05-2.85660E-05-7.33970E-07-1.73765E-20-2.01859E-19
 -1       803 9.52863E-05-2.85533E-05-2.85999E-05-7.40876E-07 4.65016E-19 2.29537E-19
 -1       804 9.52600E-05-2.84301E-05-2.86414E-05-8.02732E-07 5.36991E-19 1.62929E-20
 -1       805 9.52311E-05-2.82865E-05-2.86905E-05-9.30165E-07 2.77879E-19-1.45779E-19
 -1       806 9.51969E-05-2.81196E-05-2.87473E-05-1.13430E-06 7.66979E-19 2.89101E-19
 -1       807 9.51546E-05-2.79266E-05-2.88119E-05-1.42693E-06 2.54874E-19 1.03960E-18
 -1       808 9.51018E-05-2.77061E-05-2.88837E-05-1.82025E-06-1.76286E-19 1.28939E-18
 -1       809 9.50367E-05-2.74599E-05-2.89613E-05-2.32613E-06-5.91127E-19 2.20023E-18
 -1       810 9.49602E-05-2.71959E-05-2.90416E-05-2.95485E-06-8.10402E-20 1.72260E-18
 -1       811 9.48780E-05-2.69321E-05-2.91194E-05-3.71315E-06-2.55748E-19 1.64163E-18
 -1       812 9.48057E-05-2.67029E-05-2.91866E-05-4.60170E-06-9.40010E-19 1.66585E-18
 -1       813 9.47772E-05-2.65687E-05-2.92319E-05-5.61170E-06-8.49517E-19 1.34663E-18
 -1       814 9.48576E-05-2.66285E-05-2.92407E-05-6.72047E-06-5.74744E-19 9.68499E-19
 -1       815 9.51643E-05-2.70362E-05-2.91974E-05-7.88456E-06-1.61762E-18 1.08784E-18
 -1       816 9.58940E-05-2.80160E-05-2.90903E-05-9.02742E-06-1.45990E-20 7.27596E-19
 -1       817 9.73549E-05-2.98686E-05-2.89230E-05-1.00139E-05-6.02867E-19 1.32935E-18
 -1       818 9.99894E-05-3.29416E-05-2.87350E-05-1.05934E-05-3.57404E-19 6.27183E-19
 -1       819 1.04328E-04-3.74945E-05-2.86430E-05-1.02655E-05 6.85065E-19 5.01789E-19
 -1       820 1.10757E-04-4.33071E-05-2.88971E-05-8.20910E-06-3.37033E-19-3.67792E-19
 -1       821 1.18856E-04-4.88041E-05-2.99860E-05-3.10577E-06-2.48265E-19 2.05120E-19
 -1       822 1.26295E-04-5.04454E-05-3.25226E-05 5.30777E-06-2.98550E-19 7.39304E-19
 -1       823 1.23318E-04-5.07630E-05-3.11520E-05 4.27185E-06 1.08833E-18 7.69106E-19
 -1       824 1.15325E-04-4.62219E-05-2.96220E-05 1.10715E-05 1.31468E-18 7.08956E-19
 -1       825 1.07574E-04-3.93710E-05-2.92587E-05 1.42192E-05 1.34117E-18-1.79764E-18
 -1       826 1.03340E-04-3.49631E-05-2.93249E-05 1.52372E-05-6.35615E-19-2.25607E-18
 -1       827 9.32093E-05-1.97819E-05-3.14699E-05 1.23714E-06 8.25780E-19-2.00379E-18
 -1       828 8.45798E-05-2.52133E-05-2.53987E-05-2.13546E-05 8.91100E-19-1.02648E-18
 -1       829 6.90349E-05-1.47098E-05-2.32035E-05 7.37957E-07-4.10950E-19-2.36615E-19
 -1       830 9.57312E-05-2.77491E-05-2.91355E-05-1.89361E-07 5.63303E-19-1.31485E-18
 -1       831 9.60057E-05-3.25382E-05-2.71931E-05-2.21240E-05 1.48192E-18 3.13577E-18
 -1       832 1.06586E-04-5.06099E-05-2.39062E-05-2.51566E-05-3.79438E-19 4.51134E-19
 -1       833 1.25871E-04-5.82907E-05-2.89135E-05-1.74678E-05 2.01382E-18-2.01114E-18
 -1       834 9.56329E-05-2.85866E-05-2.87341E-05-9.86630E-07 1.59097E-19-1.25796E-18
 -1       835 9.54549E-05-2.88806E-05-2.85319E-05-1.01792E-06 1.82255E-19-9.64625E-19
 -1       836 1.04229E-04-4.97816E-05-2.31787E-05-3.35121E-05 3.81227E-18-7.41346E-19
 -1       837 9.55076E-05-2.88549E-05-2.85655E-05-1.08183E-06 4.17968E-19-1.33205E-18
 -1       838 7.40451E-05-1.81510E-05-2.38914E-05-1.36113E-05 7.29276E-19-1.54468E-18
 -1       839 9.55800E-05-2.55050E-05-3.00317E-05-1.82040E-06-8.41233E-19-1.59584E-18
 -1       840 7.49919E-05-3.00253E-05-1.90974E-05-3.11686E-05 1.32103E-18 3.15000E-18
 -1       841 9.56940E-05-2.82701E-05-2.88959E-05-7.16412E-07 3.32416E-19-1.13361E-18
 -1       842 1.15038E-04-5.48143E-05-2.57614E-05 2.04932E-05 6.76680E-19-3.29263E-18
 -1       843 9.52163E-05-2.44880E-05-3.03123E-05 3.41969E-06 1.45082E-18-1.42761E-18
 -1       844 1.30265E-04-5.65533E-05-3.16370E-05 1.99764E-06 1.06305E-18-2.28324E-18
 -1       845 7.53899E-05-3.02148E-05-1.90640E-05 3.11617E-05-3.32944E-19-1.55352E-18
 -1       846 1.31160E-04-5.58062E-05-3.22949E-05 4.62414E-06 1.74390E-19-2.30394E-18
 -1       847 1.20211E-04-5.61741E-05-2.73641E-05 2.23599E-05-8.68189E-19-2.84769E-18
 -1       848 1.27942E-04-4.81812E-05-3.42700E-05-5.66282E-06-8.89921E-19 9.22267E-19
 -1       849 9.30982E-05-1.95820E-05-3.15081E-05 1.96162E-08 5.35633E-19-2.34227E-18
 -1       850 9.40472E-05-2.13703E-05-3.11473E-05 3.32232E-06 1.42803E-18-1.89099E-18
 -1       851 9.65390E-05-3.28507E-05-2.72587E-05 2.19172E-05-3.87759E-19-1.78021E-18
 -1       852 5.84387E-05-1.76974E-05-1.72798E-05-1.52617E-05-1.32180E-18-2.18558E-18
 -1       853 6.77593E-05-2.16881E-05-1.94804E-05 2.27118E-05-4.74577E-19-6.39033E-19
 -1       854 9.49998E-05-2.36139E-05-3.05915E-05-3.33555E-06-8.21786E-19-2.01401E-18
 -1       855 8.56326E-05-2.60791E-05-2.55131E-05 2.18412E-05-8.08371E-19-2.64065E-18
 -1       856 9.35228E-05-2.03644E-05-3.13545E-05 2.35829E-06 1.19206E-18-2.05017E-18
 -1       857 9.55242E-05-2.61768E-05-2.97205E-05 1.60783E-06 1.02448E-18-1.47900E-18
 -1       858 7.43394E-05-1.83895E-05-2.39399E-05 1.44066E-05 4.83913E-19-9.10316E-19
 -1       859 9.56584E-05-2.70923E-05-2.93850E-05 5.34547E-07 9.03910E-19-1.40445E-18
 -1       860 5.31421E-05-1.41986E-05-1.63730E-05 2.36519E-06-3.91926E-19-1.29480E-18
 -1       861 9.96688E-05-4.53324E-05-2.31467E-05 2.56953E-05-3.85592E-19-1.64809E-18
 -1       862 5.24544E-05-1.40234E-05-1.62227E-05-5.66943E-06-8.51714E-19-3.09115E-18
 -1       863 7.07135E-05-2.70901E-05-1.85177E-05 2.54949E-05 4.73379E-19-3.08393E-18
 -1       864 6.56107E-05-2.06051E-05-1.90596E-05-2.18583E-05-5.45933E-19-7.24451E-19
 -1       865 1.28185E-04-5.50560E-05-3.13381E-05-1.37601E-06-6.89537E-19 1.29313E-18
 -1       866 9.35022E-05-2.03308E-05-3.13599E-05-2.32766E-06-4.53492E-20-2.18057E-18
 -1       867 5.17463E-05-1.37541E-05-1.60082E-05 5.06242E-06 3.83449E-19-3.46213E-18
 -1       868 9.39803E-05-2.12940E-05-3.11570E-05-3.27223E-06-5.98375E-19-2.39648E-18
 -1       869 9.35567E-05-3.80871E-05-2.35602E-05-3.02694E-05 3.28478E-18-5.54436E-19
 -1       870 1.18654E-04-5.30231E-05-2.81328E-05-1.16465E-05-7.95599E-19 1.43064E-18
 -1       871 9.63695E-05-2.79252E-05-2.93333E-05 2.88071E-07-3.99221E-19-8.21413E-19
 -1       872 9.63908E-05-2.85147E-05-2.90898E-05 6.33782E-07-2.83539E-19-5.41206E-19
 -1       873 9.63265E-05-2.88637E-05-2.89127E-05 8.08796E-07-1.41407E-19-7.57599E-19
 -1       874 9.62169E-05-2.90452E-05-2.87879E-05 8.68264E-07-4.46533E-21-1.13162E-18
 -1       875 9.60864E-05-2.91108E-05-2.87038E-05 8.56629E-07 2.49669E-19-8.69702E-19
 -1       876 9.59496E-05-2.90967E-05-2.86513E-05 8.07924E-07-5.51069E-19-5.70286E-19
 -1       877 9.58139E-05-2.90271E-05-2.86229E-05 7.47584E-07-7.44191E-19-5.91094E-19
 -1       878 9.56817E-05-2.89173E-05-2.86133E-05 6.94602E-07-5.47119E-19-7.85780E-19
 -1       879 9.55518E-05-2.87757E-05-2.86183E-05 6.63581E-07-3.51515E-19-6.62420E-19
 -1       880 9.54199E-05-2.86056E-05-2.86347E-05 6.66224E-07-8.37066E-19-2.09549E-19
 -1       881 9.52798E-05-2.84059E-05-2.86603E-05 7.12755E-07-6.62494E-19-7.54400E-19
 -1       882 9.51231E-05-2.81729E-05-2.86929E-05 8.12884E-07-7.33732E-19-2.42347E-19
 -1       883 9.49396E-05-2.79009E-05-2.87308E-05 9.76410E-07 2.90788E-19-5.55483E-21
 -1       884 9.47177E-05-2.75837E-05-2.87717E-05 1.21357E-06-3.15295E-19 2.87326E-19
 -1       885 9.44447E-05-2.72156E-05-2.88125E-05 1.53513E-06 3.26917E-19-5.81712E-19
 -1       886 9.41072E-05-2.67935E-05-2.88487E-05 1.95228E-06 7.62781E-19-2.64174E-22
 -1       887 9.36924E-05-2.63196E-05-2.88741E-05 2.47640E-06 4.29426E-19-1.49453E-19
 -1       888 9.31904E-05-2.58050E-05-2.88795E-05 3.11905E-06-2.74031E-19-7.79460E-19
 -1       889 9.25973E-05-2.52751E-05-2.88524E-05 3.89249E-06-5.65029E-19-4.45462E-19
 -1       890 9.19217E-05-2.47772E-05-2.87762E-05 4.81156E-06-2.80931E-19-7.39112E-19
 -1       891 9.11941E-05-2.43914E-05-2.86297E-05 5.89765E-06 1.52364E-19-7.57683E-19
 -1       892 9.04829E-05-2.42450E-05-2.83875E-05 7.18575E-06 5.01441E-19-1.22163E-19
 -1       893 8.99194E-05-2.45329E-05-2.80224E-05 8.73462E-06 1.69114E-18-2.38119E-19
 -1       894 8.97420E-05-2.55478E-05-2.75106E-05 1.06342E-05 3.01218E-19-7.58325E-19
 -1       895 9.03436E-05-2.77028E-05-2.68445E-05 1.30096E-05-5.78999E-19-2.14880E-18
 -1       896 9.26311E-05-3.17388E-05-2.61089E-05 1.59088E-05-4.35620E-19-3.81853E-18
 -1       897 9.75594E-05-3.82489E-05-2.53707E-05 1.90572E-05-2.71150E-19-2.78023E-18
 -1       898 1.12664E-04-4.89916E-05-2.72329E-05-2.19027E-05 1.30912E-18 1.79901E-18
 -1       899 1.02622E-04-4.02321E-05-2.67559E-05-2.33945E-05 1.65711E-18 3.55950E-18
 -1       900 1.01330E-04-3.47934E-05-2.84960E-05 1.89752E-05-2.38509E-20-1.16600E-19
 -1       901 9.57131E-05-2.89880E-05-2.85965E-05-8.15377E-07-1.18316E-19-9.65730E-19
 -1       902 9.54067E-05-2.86343E-05-2.86167E-05-7.00421E-07-2.27187E-19-8.53070E-19
 -1       903 9.53022E-05-2.84647E-05-2.86447E-05-7.37295E-07 3.66194E-19-7.52079E-19
 -1       904 9.51873E-05-2.82668E-05-2.86802E-05-8.29581E-07 5.31200E-19-4.93324E-19
 -1       905 9.50541E-05-2.80363E-05-2.87219E-05-9.87597E-07 1.05971E-19-6.33807E-19
 -1       906 9.48941E-05-2.77679E-05-2.87684E-05-1.22212E-06 2.94745E-19 3.00552E-19
 -1       907 9.46977E-05-2.74571E-05-2.88174E-05-1.54448E-06 1.11370E-19-5.79595E-21
 -1       908 9.44553E-05-2.71016E-05-2.88658E-05-1.96636E-06-1.30601E-19-5.38486E-19
 -1       909 9.41581E-05-2.67041E-05-2.89088E-05-2.49935E-06-2.78086E-19-3.42736E-19
 -1       910 9.38007E-05-2.62755E-05-2.89393E-05-3.15442E-06-3.37949E-19-3.62768E-19
 -1       911 9.33842E-05-2.58408E-05-2.89471E-05-3.94150E-06-3.53000E-19-2.92437E-19
 -1       912 9.29231E-05-2.54463E-05-2.89185E-05-4.86972E-06-1.05900E-18-1.04482E-18
 -1       913 9.24550E-05-2.51705E-05-2.88360E-05-5.94872E-06-1.06180E-18-6.06680E-19
 -1       914 9.20582E-05-2.51398E-05-2.86791E-05-7.19114E-06-1.35791E-18 1.42841E-20
 -1       915 9.18775E-05-2.55478E-05-2.84265E-05-8.61459E-06-8.96305E-19-5.73485E-19
 -1       916 9.21632E-05-2.66782E-05-2.80642E-05-1.02375E-05-6.29068E-20-6.67498E-19
 -1       917 9.33247E-05-2.89247E-05-2.76005E-05-1.20522E-05-7.65397E-19-6.00463E-19
 -1       918 9.60197E-05-3.28159E-05-2.70873E-05-1.39800E-05-4.05008E-19-1.83469E-21
 -1       919 1.01270E-04-3.88899E-05-2.67264E-05-1.53565E-05 4.43451E-19 1.64494E-18
 -1       920 1.16022E-04-1.36709E-05-4.43776E-05 5.63283E-06 1.49200E-18 2.46046E-18
 -1       921 7.09818E-05-2.32613E-05-2.03464E-05-1.93884E-05-1.65708E-18-4.80023E-19
 -1       922 8.88326E-05-3.32403E-05-2.37183E-05 2.78901E-05-1.17615E-18-3.18187E-18
 -1       923 9.61974E-05-2.78654E-05-2.92850E-05-2.72993E-07 4.01771E-19-1.28557E-18
 -1       924 9.66273E-05-4.12723E-05-2.36225E-05-2.37199E-05-4.65041E-19 1.29553E-18
 -1       925 9.61437E-05-2.87837E-05-2.88686E-05-8.78042E-07 2.56767E-19-1.31037E-18
 -1       926 9.58232E-05-2.90411E-05-2.86209E-05-8.85054E-07 7.36044E-20-1.08901E-18
 -1       927 1.08250E-04-4.62162E-05-2.65272E-05 2.42531E-05 1.15654E-18-2.22996E-18
 -1       928 9.55070E-05-2.87787E-05-2.85979E-05-7.08726E-07-1.08119E-19-9.78096E-19
 -1       929 9.31973E-05-1.97639E-05-3.14725E-05-1.19359E-06 3.33752E-19-2.43953E-18
 -1       930 9.62052E-05-2.84399E-05-2.90423E-05-6.73770E-07 3.94086E-19-1.01359E-18
 -1       931 9.56081E-05-2.88977E-05-2.85902E-05-7.51305E-07-5.08229E-19-6.57691E-19
 -1       932 9.62133E-05-2.70126E-05-2.96587E-05-2.97016E-07-5.84632E-19-1.31511E-18
 -1       933 9.54727E-05-2.50707E-05-3.01747E-05 2.14656E-06 1.18191E-18-1.76347E-18
 -1       934 9.57974E-05-2.55903E-05-3.00883E-05-1.18683E-06-5.30599E-19-1.75329E-18
 -1       935 6.07627E-05-1.78545E-05-1.82372E-05 1.47222E-05 7.09278E-19-3.69494E-18
 -1       936 8.13479E-05-3.14374E-05-2.12896E-05-2.43168E-05-1.41724E-18 3.44412E-19
 -1       937 9.47100E-05-2.26263E-05-3.08923E-05 1.24346E-06 7.46670E-19-1.82452E-18
 -1       938 1.08349E-04-4.70036E-05-2.62287E-05 1.74139E-05-2.96677E-19-2.86441E-18
 -1       939 9.46887E-05-2.26019E-05-3.08940E-05-1.20728E-06 1.57081E-19-2.01900E-18
 -1       940 1.09566E-04-4.69132E-05-2.69021E-05-1.52440E-05-9.44342E-19 6.44109E-19
 -1       941 9.59365E-05-2.90421E-05-2.86690E-05-9.39311E-07 1.53692E-19-1.08520E-18
 -1       942 9.60549E-05-2.69519E-05-2.96163E-05 4.01069E-07 3.44031E-19-1.43818E-18
 -1       943 6.21804E-05-1.52015E-05-2.00553E-05 4.15454E-06 3.05722E-19-1.65993E-18
 -1       944 9.60472E-05-2.89678E-05-2.87483E-05-9.49712E-07 3.23871E-19-1.11431E-18
 -1       945 8.73201E-05-3.53177E-05-2.21995E-05 2.44811E-05 9.25642E-19-3.18508E-18
 -1       946 9.49380E-05-2.32267E-05-3.07332E-05-1.88223E-06-1.62534E-19-1.97149E-18
 -1       947 9.45473E-05-2.22727E-05-3.09746E-05 4.28469E-07 6.77319E-19-2.01969E-18
 -1       948 9.49762E-05-2.32842E-05-3.07227E-05 1.91914E-06 9.63031E-19-1.65945E-18
 -1       949 6.24361E-05-1.52611E-05-2.01350E-05-3.44926E-06-5.88765E-19-3.34866E-19
 -1       950 9.65488E-05-2.80566E-05-2.93538E-05-3.18193E-07 4.05225E-19-1.44953E-18
 -1       951 9.66954E-05-2.87122E-05-2.91357E-05 5.27328E-07-3.69093E-19-1.08043E-18
 -1       952 9.66126E-05-2.90359E-05-2.89614E-05 6.31790E-07-1.11650E-19-1.14389E-18
 -1       953 9.64728E-05-2.91886E-05-2.88361E-05 6.60879E-07 2.88335E-19-8.97022E-19
 -1       954 9.63045E-05-2.92217E-05-2.87498E-05 6.45142E-07 5.21651E-20-1.25899E-18
 -1       955 9.61248E-05-2.91715E-05-2.86943E-05 6.08334E-07-3.24754E-19-8.54619E-19
 -1       956 9.59424E-05-2.90624E-05-2.86629E-05 5.68293E-07-6.10813E-19-3.14964E-19
 -1       957 9.57595E-05-2.89087E-05-2.86503E-05 5.38782E-07-2.19252E-19-1.77409E-19
 -1       958 9.55734E-05-2.87179E-05-2.86524E-05 5.30448E-07-3.61986E-19-1.89751E-19
 -1       959 9.53775E-05-2.84912E-05-2.86656E-05 5.52135E-07-6.51615E-19 2.56321E-19
 -1       960 9.51620E-05-2.82258E-05-2.86869E-05 6.11934E-07-3.80539E-19 2.30944E-19
 -1       961 9.49143E-05-2.79159E-05-2.87136E-05 7.17651E-07 6.63253E-20 1.09318E-18
 -1       962 9.46195E-05-2.75539E-05-2.87424E-05 8.77228E-07 2.40296E-19 6.57353E-19
 -1       963 9.42605E-05-2.71317E-05-2.87695E-05 1.09902E-06-1.64621E-20 1.35447E-18
 -1       964 9.38184E-05-2.66430E-05-2.87895E-05 1.39189E-06 2.93257E-19 1.16287E-18
 -1       965 9.32736E-05-2.60844E-05-2.87955E-05 1.76532E-06 2.47054E-19 2.19006E-20
 -1       966 9.26062E-05-2.54592E-05-2.87774E-05 2.22980E-06-1.86265E-19 2.95339E-19
 -1       967 9.17983E-05-2.47804E-05-2.87221E-05 2.79786E-06-8.02124E-19-9.37678E-20
 -1       968 9.08360E-05-2.40759E-05-2.86117E-05 3.48669E-06-2.45074E-19-3.43398E-19
 -1       969 8.97134E-05-2.33938E-05-2.84229E-05 4.32349E-06-1.05373E-19-1.31534E-19
 -1       970 8.84382E-05-2.28117E-05-2.81259E-05 5.35509E-06 1.25328E-19-9.14235E-19
 -1       971 8.70401E-05-2.24455E-05-2.76837E-05 6.66322E-06 1.13194E-18-1.37662E-18
 -1       972 8.55861E-05-2.24659E-05-2.70519E-05 8.39132E-06 8.58611E-19-1.71705E-18
 -1       973 8.42164E-05-2.31410E-05-2.61781E-05 1.07868E-05-1.60933E-18-3.10507E-18
 -1       974 8.34578E-05-2.49514E-05-2.50657E-05 1.42318E-05-1.14398E-18-3.52504E-18
 -1       975 9.58161E-05-2.61279E-05-2.98674E-05 1.14868E-06 8.18163E-19-1.78254E-18
 -1       976 9.45491E-05-2.22721E-05-3.09754E-05-4.10419E-07 3.76987E-19-2.35335E-18
 -1       977 9.50144E-05-2.80337E-05-2.87060E-05-7.76094E-07 2.89623E-19-1.20385E-18
 -1       978 9.52212E-05-2.83091E-05-2.86766E-05-6.68813E-07 3.49090E-19-1.60041E-18
 -1       979 9.54030E-05-2.85453E-05-2.86533E-05-6.11962E-07 2.95943E-19-1.47780E-18
 -1       980 9.47700E-05-2.77123E-05-2.87390E-05-9.42770E-07 4.75313E-21-1.23613E-18
 -1       981 9.44737E-05-2.73381E-05-2.87724E-05-1.17826E-06 4.63908E-19-8.63848E-19
 -1       982 9.41097E-05-2.69052E-05-2.88019E-05-1.49257E-06-2.46609E-19-2.24272E-19
 -1       983 9.36616E-05-2.64113E-05-2.88216E-05-1.89627E-06-4.93632E-19 8.37743E-21
 -1       984 9.31142E-05-2.58601E-05-2.88232E-05-2.40067E-06-6.87685E-19-5.01877E-19
 -1       985 9.24548E-05-2.52655E-05-2.87954E-05-3.01836E-06 9.50742E-20-4.71358E-19
 -1       986 9.16773E-05-2.46570E-05-2.87231E-05-3.76500E-06-8.75396E-19-6.32684E-19
 -1       987 9.07873E-05-2.40862E-05-2.85863E-05-4.66307E-06-9.34400E-19-6.33401E-19
 -1       988 8.98105E-05-2.36374E-05-2.83600E-05-5.74942E-06-9.40856E-19-1.16471E-18
 -1       989 8.88082E-05-2.34419E-05-2.80141E-05-7.08724E-06-1.26072E-18-2.15230E-18
 -1       990 8.79013E-05-2.36984E-05-2.75151E-05-8.78054E-06-5.61669E-19-2.20214E-18
 -1       991 8.73117E-05-2.47015E-05-2.68318E-05-1.10000E-05-5.27716E-19-1.15797E-18
 -1       992 8.74798E-05-2.68821E-05-2.59718E-05-1.38976E-05-1.32397E-18-1.48417E-18
 -1       993 8.91157E-05-3.09477E-05-2.49045E-05-1.77392E-05-1.15560E-18-3.80900E-19
 -1       994 9.65044E-05-2.72556E-05-2.96771E-05-6.55958E-08-1.97760E-19-9.09617E-19
 -1       995 9.66777E-05-2.81473E-05-2.93703E-05 3.09621E-07-3.15671E-19-9.20495E-19
 -1       996 7.03026E-05-1.94178E-05-2.17668E-05 1.26513E-05 5.48853E-19-3.81214E-18
 -1       997 9.63754E-05-2.71511E-05-2.96674E-05 1.42082E-07 3.23569E-19-1.53908E-18
 -1       998 9.58245E-05-2.51829E-05-3.02747E-05-8.68650E-07-6.00527E-20-1.48963E-18
 -1       999 6.87868E-05-1.78956E-05-2.17860E-05-9.54737E-06-1.63703E-18-1.29130E-18
 -1      1000 6.87732E-05-1.59536E-05-2.25908E-05 5.81312E-07-4.19234E-19 9.00913E-19
 -1      1001 9.64945E-05-2.89647E-05-2.89413E-05-7.21024E-07 3.39603E-19-1.31403E-18
 -1      1002 9.55706E-05-2.87469E-05-2.86387E-05-5.96694E-07-1.14137E-19-6.34806E-19
 -1      1003 9.65688E-05-2.86307E-05-2.91163E-05-5.88653E-07 3.85499E-19-1.54163E-18
 -1      1004 9.60552E-05-2.91424E-05-2.86769E-05-7.02755E-07-1.66102E-19-3.93122E-19
 -1      1005 7.61408E-05-2.58461E-05-2.14975E-05 2.04425E-05 6.42120E-19-2.77342E-18
 -1      1006 7.75074E-05-2.37107E-05-2.30243E-05-1.62106E-05-2.12111E-18-8.58225E-19
 -1      1007 9.59198E-05-2.56983E-05-3.00936E-05 9.86639E-07 6.35556E-19-1.41068E-18
 -1      1008 9.58929E-05-2.90505E-05-2.86467E-05-6.53523E-07-1.90629E-19-4.39875E-19
 -1      1009 9.57321E-05-2.89162E-05-2.86354E-05-6.14020E-07-1.78864E-19-3.87907E-19
 -1      1010 9.62164E-05-2.91770E-05-2.87311E-05-7.45826E-07 1.18369E-19-6.15310E-19
 -1      1011 9.57247E-05-2.47496E-05-3.04178E-05-5.10564E-07 3.55196E-20-2.15203E-18
 -1      1012 9.56104E-05-2.44765E-05-3.04871E-05 5.01496E-07 5.43780E-19-1.75980E-18
 -1      1013 9.63682E-05-2.91298E-05-2.88164E-05-7.61369E-07 1.45139E-20-9.06410E-19
 -1      1014 9.50628E-05-2.81021E-05-2.86975E-05-5.29197E-07 2.65484E-19-7.95964E-19
 -1      1015 9.67675E-05-2.91802E-05-2.89661E-05 4.13311E-07 5.80458E-20-8.92432E-19
 -1      1016 9.65972E-05-2.92864E-05-2.88475E-05 4.20930E-07 3.53791E-20-9.11480E-19
 -1      1017 9.63976E-05-2.92778E-05-2.87656E-05 4.06315E-07 3.49343E-20-8.64122E-19
 -1      1018 9.61851E-05-2.91882E-05-2.87130E-05 3.83348E-07-1.16160E-19-6.42812E-19
 -1      1019 9.59677E-05-2.90399E-05-2.86834E-05 3.61893E-07-6.87213E-19-1.15566E-18
 -1      1020 9.57457E-05-2.88451E-05-2.86717E-05 3.50986E-07-1.09384E-19-9.02089E-19
 -1      1021 9.55141E-05-2.86090E-05-2.86736E-05 3.56158E-07-4.63117E-19-5.03826E-19
 -1      1022 9.52630E-05-2.83303E-05-2.86855E-05 3.83472E-07-2.91902E-19 4.83603E-20
 -1      1023 9.49797E-05-2.80043E-05-2.87038E-05 4.38159E-07-6.95035E-20 6.76954E-19
 -1      1024 9.46477E-05-2.76233E-05-2.87249E-05 5.25306E-07-1.05859E-19 2.10770E-19
 -1      1025 9.42480E-05-2.71783E-05-2.87443E-05 6.50234E-07 4.15325E-19-3.26385E-19
 -1      1026 9.37587E-05-2.66602E-05-2.87567E-05 8.18585E-07 4.34415E-19-1.34305E-19
 -1      1027 9.31560E-05-2.60622E-05-2.87547E-05 1.03646E-06-3.40418E-19 4.88280E-20
 -1      1028 9.24145E-05-2.53816E-05-2.87287E-05 1.31071E-06-4.13373E-19-3.81384E-19
 -1      1029 9.15072E-05-2.46224E-05-2.86653E-05 1.64968E-06-6.15479E-19-4.79822E-19
 -1      1030 9.04064E-05-2.37979E-05-2.85470E-05 2.06493E-06-3.17749E-19 5.89759E-20
 -1      1031 8.90829E-05-2.29333E-05-2.83505E-05 2.57481E-06-1.18174E-18-9.81776E-19
 -1      1032 8.75036E-05-2.20681E-05-2.80447E-05 3.21171E-06-5.77546E-20-1.80831E-18
 -1      1033 8.56271E-05-2.12573E-05-2.75885E-05 4.03735E-06 6.16130E-20-1.74048E-18
 -1      1034 8.33969E-05-2.05710E-05-2.69260E-05 5.16623E-06 5.13795E-19-3.28024E-18
 -1      1035 8.07205E-05-2.00997E-05-2.59804E-05 6.79912E-06-1.34964E-18-5.05662E-18
 -1      1036 7.74711E-05-1.99501E-05-2.46542E-05 9.26821E-06-1.16908E-18-4.59544E-18
 -1      1037 9.47674E-05-2.77519E-05-2.87210E-05-6.29534E-07 4.70858E-19-1.15353E-18
 -1      1038 9.68806E-05-2.89105E-05-2.91301E-05 3.65349E-07-2.76579E-19-8.87148E-19
 -1      1039 9.53170E-05-2.84021E-05-2.86778E-05-4.68563E-07 1.24429E-19-1.08641E-18
 -1      1040 9.39815E-05-2.68671E-05-2.87634E-05-9.76862E-07-3.12609E-19-5.48102E-19
 -1      1041 9.34503E-05-2.63181E-05-2.87711E-05-1.23897E-06-4.50191E-19-3.30294E-19
 -1      1042 9.27975E-05-2.56935E-05-2.87590E-05-1.57148E-06-2.34080E-20-4.89479E-19
 -1      1043 9.20005E-05-2.49981E-05-2.87155E-05-1.98483E-06-1.01253E-18-5.22939E-19
 -1      1044 9.10380E-05-2.42469E-05-2.86250E-05-2.49270E-06-1.06278E-18 5.64795E-19
 -1      1045 8.98907E-05-2.34688E-05-2.84669E-05-3.11540E-06-3.38588E-19 3.86487E-21
 -1      1046 8.85430E-05-2.27111E-05-2.82142E-05-3.88647E-06-7.62650E-19-1.40972E-18
 -1      1047 8.69826E-05-2.20434E-05-2.78319E-05-4.86563E-06-9.88229E-19-7.54939E-19
 -1      1048 8.52064E-05-2.15692E-05-2.72743E-05-6.16327E-06-2.03034E-19-1.01057E-18
 -1      1049 8.32241E-05-2.14392E-05-2.64808E-05-7.96301E-06-9.39789E-19-1.53119E-18
 -1      1050 8.11032E-05-2.18805E-05-2.53885E-05-1.05913E-05-1.29285E-18-1.58907E-18
 -1      1051 9.67439E-05-2.75914E-05-2.96365E-05 5.70535E-08-2.90727E-19-1.56584E-18
 -1      1052 9.66511E-05-2.74599E-05-2.96536E-05-2.09064E-08 2.97595E-19-1.49478E-18
 -1      1053 9.44135E-05-2.73429E-05-2.87446E-05-7.76343E-07 2.50758E-19-1.28769E-18
 -1      1054 9.67083E-05-2.91232E-05-2.89650E-05-5.20098E-07-7.41822E-20-1.08837E-18
 -1      1055 9.55446E-05-2.86587E-05-2.86654E-05-4.41170E-07 5.99034E-19-1.63186E-18
 -1      1056 9.55817E-05-2.43578E-05-3.05250E-05 1.44985E-08 3.20527E-19-1.96534E-18
 -1      1057 9.63943E-05-2.64224E-05-2.99888E-05-1.99283E-07 3.34217E-20-1.96079E-18
 -1      1058 9.68085E-05-2.88315E-05-2.91332E-05-4.50042E-07 1.19124E-19-1.49453E-18
 -1      1059 9.68925E-05-2.84100E-05-2.93497E-05 2.55570E-07-3.85228E-19-1.31818E-18
 -1      1060 7.39464E-05-1.79228E-05-2.39857E-05-6.08237E-06-1.19730E-18 6.10717E-19
 -1      1061 9.68096E-05-2.83066E-05-2.93588E-05-2.96791E-07 5.79149E-19-1.57323E-18
 -1      1062 7.54156E-05-1.76579E-05-2.47552E-05 1.77760E-06-7.92640E-19-2.15809E-19
 -1      1063 9.62418E-05-2.61747E-05-3.00301E-05 4.02877E-07 4.09904E-19-1.74254E-18
 -1      1064 9.57569E-05-2.88756E-05-2.86634E-05-4.40042E-07 2.63538E-19-1.15412E-18
 -1      1065 9.63645E-05-2.92581E-05-2.87599E-05-5.17989E-07-3.88641E-19-1.26838E-18
 -1      1066 9.65510E-05-2.92491E-05-2.88436E-05-5.34701E-07-3.60935E-20-1.50010E-18
 -1      1067 9.63867E-05-2.62869E-05-3.00421E-05 1.61870E-07 1.46478E-19-1.54484E-18
 -1      1068 9.61655E-05-2.91848E-05-2.87060E-05-4.87941E-07-3.94342E-20-9.74129E-19
 -1      1069 9.69534E-05-2.90820E-05-2.90873E-05 1.52519E-07 9.82325E-20-7.32821E-19
 -1      1070 9.68057E-05-2.92809E-05-2.89389E-05 1.62920E-07-5.57517E-20-7.03096E-19
 -1      1071 9.66084E-05-2.93320E-05-2.88325E-05 1.61962E-07-8.16871E-20-1.13464E-18
 -1      1072 9.63862E-05-2.92790E-05-2.87600E-05 1.55304E-07-1.17087E-19-1.38727E-18
 -1      1073 9.61481E-05-2.91490E-05-2.87140E-05 1.47372E-07-4.95603E-19-1.19414E-18
 -1      1074 9.59112E-05-2.89690E-05-2.86895E-05 1.40471E-07-6.44711E-20-1.47596E-19
 -1      1075 9.56634E-05-2.87389E-05-2.86818E-05 1.39733E-07-1.43363E-20-4.97436E-19
 -1      1076 9.53974E-05-2.84638E-05-2.86857E-05 1.47269E-07 2.29522E-19-1.86172E-19
 -1      1077 9.51028E-05-2.81412E-05-2.86977E-05 1.64390E-07 3.70748E-19 1.48368E-19
 -1      1078 9.47633E-05-2.77639E-05-2.87139E-05 1.93265E-07-3.35301E-19-2.27151E-19
 -1      1079 9.43597E-05-2.73228E-05-2.87300E-05 2.35964E-07-4.45379E-19-2.45705E-19
 -1      1080 9.38693E-05-2.68080E-05-2.87404E-05 2.94593E-07-2.01161E-19-1.18849E-18
 -1      1081 9.32671E-05-2.62104E-05-2.87384E-05 3.71366E-07 2.88557E-19-1.62823E-18
 -1      1082 9.25252E-05-2.55236E-05-2.87147E-05 4.68708E-07-4.57806E-20-6.10184E-19
 -1      1083 9.16136E-05-2.47461E-05-2.86572E-05 5.89479E-07-9.92356E-19-9.96433E-20
 -1      1084 9.04988E-05-2.38829E-05-2.85493E-05 7.37502E-07-8.88952E-19-7.65101E-19
 -1      1085 8.91428E-05-2.29467E-05-2.83693E-05 9.18634E-07-1.04927E-18-1.99045E-18
 -1      1086 8.74983E-05-2.19581E-05-2.80881E-05 1.14265E-06-9.17688E-19-1.26478E-18
 -1      1087 8.54984E-05-2.09424E-05-2.76664E-05 1.42604E-06-2.56952E-19-1.64449E-18
 -1      1088 8.30355E-05-1.99198E-05-2.70508E-05 1.79943E-06-9.70373E-19-1.54785E-18
 -1      1089 7.97581E-05-1.88285E-05-2.61163E-05 1.82193E-06-1.11497E-18-1.44360E-18
 -1      1090 9.19403E-05-2.50066E-05-2.86861E-05-9.66764E-07-5.37257E-19-1.99668E-19
 -1      1091 9.51725E-05-2.82214E-05-2.86933E-05-2.71201E-07 1.84445E-19-1.14321E-18
 -1      1092 9.27824E-05-2.57438E-05-2.87310E-05-7.62507E-07-3.41377E-19-4.04210E-19
 -1      1093 9.34680E-05-2.63944E-05-2.87459E-05-6.00606E-07 1.29937E-20 3.83228E-19
 -1      1094 9.09118E-05-2.41877E-05-2.85963E-05-1.22115E-06-1.50746E-18-1.98500E-19
 -1      1095 8.96643E-05-2.33015E-05-2.84416E-05-1.53704E-06-1.06624E-18 4.54383E-19
 -1      1096 8.81602E-05-2.23721E-05-2.81955E-05-1.93264E-06-3.46094E-19 1.10322E-18
 -1      1097 8.63515E-05-2.14334E-05-2.78229E-05-2.43839E-06-6.50818E-19 6.82428E-19
 -1      1098 8.41651E-05-2.05218E-05-2.72767E-05-3.10343E-06-6.08985E-20 3.58910E-20
 -1      1099 8.14829E-05-1.96719E-05-2.64903E-05-4.02996E-06-9.70486E-19 1.07148E-18
 -1      1100 7.82528E-05-1.88499E-05-2.54522E-05-4.89219E-06-1.02629E-18 1.89829E-18
 -1      1101 9.40250E-05-2.69600E-05-2.87422E-05-4.75156E-07-2.74155E-19 5.02536E-19
 -1      1102 9.69373E-05-2.90243E-05-2.91064E-05-2.52516E-07 3.16205E-19-1.56204E-18
 -1      1103 9.69201E-05-2.79803E-05-2.95456E-05 6.02937E-08 6.22831E-20-1.66377E-18
 -1      1104 9.44794E-05-2.74470E-05-2.87282E-05-3.81250E-07 1.29262E-19-1.68214E-20
 -1      1105 9.66155E-05-2.93195E-05-2.88412E-05-2.82991E-07-5.01817E-19-1.33147E-18
 -1      1106 9.63997E-05-2.62576E-05-3.00602E-05-2.72742E-08 4.31602E-20-1.76432E-18
 -1      1107 9.59625E-05-2.90529E-05-2.86755E-05-4.58926E-07-8.61845E-20-1.06419E-18
 -1      1108 9.54505E-05-2.85269E-05-2.86816E-05-2.47374E-07 2.44847E-19-8.27622E-19
 -1      1109 9.68024E-05-2.92453E-05-2.89531E-05-2.80736E-07 1.14342E-19-1.82917E-18
 -1      1110 9.48548E-05-2.78643E-05-2.87103E-05-3.14578E-07 3.72581E-19-9.38839E-19
 -1      1111 9.70104E-05-2.86808E-05-2.92844E-05 1.20052E-07 2.15486E-19-1.34790E-18
 -1      1112 9.68360E-05-2.76385E-05-2.96558E-05-3.01112E-08 2.96627E-19-1.50490E-18
 -1      1113 9.57034E-05-2.87879E-05-2.86782E-05-2.39195E-07 2.94280E-19-1.52768E-18
 -1      1114 9.69617E-05-2.85667E-05-2.93112E-05-1.96704E-07 3.53509E-19-1.22744E-18
 -1      1115 9.64018E-05-2.92851E-05-2.87644E-05-2.72453E-07-3.28668E-19-1.38450E-18
 -1      1116 9.67240E-05-2.72304E-05-2.97839E-05-1.06167E-08 2.82280E-19-1.87132E-18
 -1      1117 9.70017E-05-2.83770E-05-2.94099E-05-5.64882E-08 3.40289E-19-1.76418E-18
 -1      1118 9.60397E-05-2.90698E-05-2.87009E-05-8.72659E-08 3.64654E-19-1.07281E-18
 -1      1119 9.61755E-05-2.91737E-05-2.87154E-05-2.56391E-07 4.00139E-19-1.77124E-18
 -1      1120 9.59358E-05-2.89989E-05-2.86873E-05-2.44186E-07 2.34064E-19-2.28900E-18
 -1      1121 1.16857E-04 2.57570E-10-4.18558E-05-4.14668E-05-3.31613E-19 7.61588E-18
 -1      1122 8.86505E-05 7.19187E-11-3.72511E-05-2.41692E-05-1.54160E-19-9.01561E-20
 -1      1123 8.40758E-05 4.14564E-11-3.57661E-05-1.78793E-05-9.60853E-20-3.14731E-18
 -1      1124 8.23338E-05 3.20116E-11-3.50723E-05-1.38385E-05-5.56395E-20-4.45813E-18
 -1      1125 8.15316E-05 2.73438E-11-3.47386E-05-1.05353E-05-3.71503E-20-5.01830E-18
 -1      1126 8.11299E-05 2.46060E-11-3.45736E-05-7.64156E-06-2.06597E-20-5.18415E-18
 -1      1127 8.09207E-05 2.29536E-11-3.44901E-05-4.98067E-06-9.46295E-21-5.17844E-18
 -1      1128 8.08191E-05 2.20621E-11-3.44509E-05-2.43275E-06 4.35924E-21-5.06502E-18
 -1      1129 8.07903E-05 2.17921E-11-3.44399E-05 5.24342E-08 1.58943E-20-4.90078E-18
 -1      1130 8.08235E-05 2.21062E-11-3.44524E-05 2.54014E-06 3.32527E-20-4.75675E-18
 -1      1131 8.09297E-05 2.30553E-11-3.44930E-05 5.09652E-06 3.97212E-20-4.51976E-18
 -1      1132 8.11451E-05 2.47708E-11-3.45775E-05 7.77396E-06 5.36344E-20-4.12329E-18
 -1      1133 8.15533E-05 2.76426E-11-3.47447E-05 1.06950E-05 7.02243E-20-3.43033E-18
 -1      1134 8.23575E-05 3.24999E-11-3.50824E-05 1.40445E-05 9.23266E-20-2.30871E-18
 -1      1135 8.40729E-05 4.19230E-11-3.57865E-05 1.81310E-05 1.26314E-19-2.79415E-19
 -1      1136 8.83480E-05 6.67416E-11-3.73213E-05 2.40117E-05 1.28961E-19 3.60990E-18
 -1      1137 1.06620E-04 1.63923E-10-4.06344E-05 3.61932E-05 2.46910E-19 1.13361E-17
 -1      1138 1.30224E-04-2.57568E-05-4.02743E-05-2.61066E-05-1.25541E-18 1.24107E-17
 -1      1139 9.74579E-05-2.88630E-05-3.15781E-05-6.80329E-07-3.82197E-19 9.59900E-18
 -1      1140 9.01594E-05-2.70264E-05-2.78930E-05 3.87073E-07-1.68718E-19 5.73472E-18
 -1      1141 8.82466E-05-2.65716E-05-2.66429E-05 2.50731E-07-1.13029E-19 2.98412E-18
 -1      1142 8.78856E-05-2.64441E-05-2.63858E-05 1.65828E-07-5.16277E-20 1.21917E-18
 -1      1143 8.82421E-05-2.65199E-05-2.64699E-05 1.18008E-07-1.14373E-19 3.67665E-20
 -1      1144 8.89251E-05-2.67034E-05-2.66715E-05 8.73662E-08 1.42151E-21-8.77235E-19
 -1      1145 8.97353E-05-2.69339E-05-2.69128E-05 6.60867E-08-4.08178E-20-1.54476E-18
 -1      1146 9.05626E-05-2.71749E-05-2.71594E-05 5.03202E-08-1.07315E-19-2.27355E-18
 -1      1147 9.13450E-05-2.74054E-05-2.73933E-05 3.81493E-08-7.98790E-20-3.42545E-18
 -1      1148 9.20496E-05-2.76144E-05-2.76047E-05 2.85552E-08 9.54618E-20-3.87963E-18
 -1      1149 9.26623E-05-2.77969E-05-2.77891E-05 2.09300E-08 2.99741E-20-3.20558E-18
 -1      1150 9.31811E-05-2.79521E-05-2.79458E-05 1.48655E-08-1.54315E-19-4.23202E-18
 -1      1151 9.36122E-05-2.80814E-05-2.80764E-05 1.00634E-08 7.71425E-20-4.53498E-18
 -1      1152 9.39669E-05-2.81882E-05-2.81843E-05 6.29664E-09 9.29141E-21-4.26063E-18
 -1      1153 9.42604E-05-2.82769E-05-2.82740E-05 3.39414E-09-1.89441E-19-3.74291E-18
 -1      1154 9.45108E-05-2.83529E-05-2.83508E-05 1.23634E-09-9.02107E-20-4.94751E-18
 -1      1155 9.47384E-05-2.84223E-05-2.84211E-05-2.43151E-10 1.55637E-19-5.38030E-18
 -1      1156 9.49666E-05-2.84921E-05-2.84918E-05-1.05205E-09-4.12961E-20-5.57235E-18
 -1      1157 9.52222E-05-2.85703E-05-2.85710E-05-1.13071E-09-8.15209E-20-6.20691E-18
 -1      1158 9.55362E-05-2.86662E-05-2.86682E-05-3.40448E-10-1.27028E-19-6.83777E-18
 -1      1159 9.59448E-05-2.87908E-05-2.87944E-05 1.55118E-09 2.86293E-20-5.61639E-18
 -1      1160 9.64910E-05-2.89569E-05-2.89626E-05 4.88707E-09 1.12836E-19-4.55386E-18
 -1      1161 9.72242E-05-2.91792E-05-2.91876E-05 1.01359E-08-1.60658E-19-5.31650E-18
 -1      1162 9.82014E-05-2.94747E-05-2.94864E-05 1.78971E-08 1.12042E-21-4.72700E-18
 -1      1163 9.94844E-05-2.98616E-05-2.98773E-05 2.88739E-08-3.14767E-19-4.27638E-18
 -1      1164 1.01136E-04-3.03581E-05-3.03783E-05 4.37709E-08 2.32827E-19-5.90862E-18
 -1      1165 1.03209E-04-3.09796E-05-3.10037E-05 6.30285E-08 6.53878E-20-6.35891E-18
 -1      1166 1.05728E-04-3.17324E-05-3.17580E-05 8.62436E-08-5.92617E-20-5.96450E-18
 -1      1167 1.08660E-04-3.26049E-05-3.26259E-05 1.11052E-07 1.67301E-20-4.42106E-18
 -1      1168 1.11858E-04-3.35522E-05-3.35569E-05 1.31263E-07 1.17604E-20-3.54195E-18
 -1      1169 1.15001E-04-3.44769E-05-3.44460E-05 1.34355E-07-3.21492E-20-2.85650E-18
 -1      1170 1.17517E-04-3.52076E-05-3.51172E-05 9.95786E-08-1.47213E-19-2.66028E-18
 -1      1171 1.18552E-04-3.54920E-05-3.53246E-05 3.41545E-10-2.09796E-19-2.20404E-18
 -1      1172 1.17081E-04-3.50304E-05-3.47969E-05-1.82529E-07 1.59103E-19-1.12621E-18
 -1      1173 1.12270E-04-3.35865E-05-3.33522E-05-4.31476E-07 2.22942E-19-1.61354E-18
 -1      1174 1.04140E-04-3.11840E-05-3.10646E-05-6.60075E-07 2.40174E-19-1.95590E-18
 -1      1175 9.42262E-05-2.82864E-05-2.83930E-05-7.20787E-07 6.50280E-20-1.92700E-19
 -1      1176 8.55518E-05-2.57747E-05-2.61139E-05-4.99429E-07 8.94083E-20 6.13728E-19
 -1      1177 8.13402E-05-2.45533E-05-2.49954E-05-4.59772E-08 2.60436E-19 2.75213E-18
 -1      1178 8.30567E-05-2.50315E-05-2.53773E-05 4.15683E-07-5.48513E-19 1.78735E-18
 -1      1179 8.93949E-05-2.68455E-05-2.69584E-05 6.54620E-07-5.85442E-19-2.27471E-18
 -1      1180 9.71601E-05-2.90954E-05-2.89763E-05 6.03347E-07-1.39974E-19-4.56731E-18
 -1      1181 1.03230E-04-3.08790E-05-3.06333E-05 3.67726E-07-1.02008E-20-8.56774E-19
 -1      1182 1.05956E-04-3.17005E-05-3.14523E-05 9.90370E-08-2.14809E-19-3.50367E-19
 -1      1183 1.05333E-04-3.15417E-05-3.13735E-05-1.03383E-07-6.12742E-20 1.40196E-18
 -1      1184 1.02418E-04-3.07039E-05-3.06519E-05-2.04129E-07 1.68677E-19 2.53268E-18
 -1      1185 9.87194E-05-2.96306E-05-2.96930E-05-1.89605E-07 1.76079E-19 3.19726E-18
 -1      1186 9.58767E-05-2.88383E-05-2.88948E-05-3.33759E-08-1.81335E-19-1.61883E-18
 -1      1187 9.49718E-05-2.84750E-05-2.84074E-05 9.59100E-08 3.66133E-19-3.26233E-19
 -1      1188 1.31058E-04-3.77393E-05-3.86597E-05 1.21748E-05-2.01012E-19 1.75933E-17
 -1      1189 9.65594E-05-2.81896E-05-3.13305E-05 8.01495E-07 1.23508E-19 1.44255E-17
 -1      1190 9.03732E-05-2.69291E-05-2.78739E-05 1.20175E-07 4.87772E-20 1.15222E-17
 -1      1191 8.83330E-05-2.64988E-05-2.66792E-05 9.00919E-09 4.21035E-20 9.31307E-18
 -1      1192 8.79263E-05-2.64067E-05-2.64129E-05-2.52715E-08 1.90566E-20 7.71631E-18
 -1      1193 8.82641E-05-2.65026E-05-2.64857E-05-3.42888E-08 6.59635E-20 6.00057E-18
 -1      1194 8.89381E-05-2.66966E-05-2.66818E-05-3.54602E-08 8.69284E-20 5.13883E-18
 -1      1195 8.97434E-05-2.69326E-05-2.69201E-05-3.37175E-08 2.24685E-20 4.99679E-18
 -1      1196 9.05679E-05-2.71765E-05-2.71650E-05-3.06152E-08-6.46232E-20 4.08381E-18
 -1      1197 9.13484E-05-2.74085E-05-2.73975E-05-2.68558E-08-1.97154E-20 3.50707E-18
 -1      1198 9.20519E-05-2.76181E-05-2.76079E-05-2.28484E-08 1.39474E-19 2.38008E-18
 -1      1199 9.26638E-05-2.78008E-05-2.77915E-05-1.88469E-08-6.65848E-20 2.63869E-18
 -1      1200 9.31821E-05-2.79557E-05-2.79475E-05-1.49991E-08 1.53125E-19 2.00132E-18
 -1      1201 9.36129E-05-2.80847E-05-2.80776E-05-1.13766E-08-2.73248E-20 1.11424E-18
 -1      1202 9.39675E-05-2.81911E-05-2.81851E-05-7.99645E-09 5.54758E-20 1.99369E-19
 -1      1203 9.42610E-05-2.82793E-05-2.82746E-05-4.83836E-09 1.19264E-19-6.45953E-19
 -1      1204 9.45114E-05-2.83548E-05-2.83512E-05-1.85956E-09-7.03737E-20-4.61837E-19
 -1      1205 9.47391E-05-2.84237E-05-2.84213E-05 9.91596E-10-4.14275E-21 1.20047E-19
 -1      1206 9.49675E-05-2.84930E-05-2.84919E-05 3.76176E-09 1.38227E-19-9.39282E-19
 -1      1207 9.52233E-05-2.85708E-05-2.85711E-05 6.47676E-09-1.63692E-19-1.52085E-18
 -1      1208 9.55372E-05-2.86662E-05-2.86684E-05 9.12162E-09 2.06178E-20-4.66346E-19
 -1      1209 9.59457E-05-2.87903E-05-2.87946E-05 1.16132E-08-1.52781E-19 2.73563E-19
 -1      1210 9.64910E-05-2.89556E-05-2.89627E-05 1.37614E-08 2.09996E-19-1.51305E-18
 -1      1211 9.72222E-05-2.91768E-05-2.91874E-05 1.52124E-08-3.20157E-19-2.28919E-18
 -1      1212 9.81953E-05-2.94705E-05-2.94856E-05 1.53692E-08 5.35062E-20-9.90890E-19
 -1      1213 9.94704E-05-2.98544E-05-2.98749E-05 1.32850E-08-5.67458E-20-4.91425E-19
 -1      1214 1.01108E-04-3.03460E-05-3.03728E-05 7.54118E-09-1.25610E-19 1.99377E-19
 -1      1215 1.03157E-04-3.09591E-05-3.09925E-05-3.84473E-09 2.87100E-19-1.46554E-18
 -1      1216 1.05639E-04-3.16987E-05-3.17370E-05-2.33495E-08-1.87855E-19-1.26467E-18
 -1      1217 1.08513E-04-3.25510E-05-3.25892E-05-5.34220E-08-3.15880E-20-9.50649E-19
 -1      1218 1.11627E-04-3.34695E-05-3.34961E-05-9.49707E-08 1.94172E-19-1.42828E-18
 -1      1219 1.14656E-04-3.43572E-05-3.43514E-05-1.44149E-07 1.03661E-19-1.13468E-18
 -1      1220 1.17033E-04-3.50483E-05-3.49792E-05-1.87217E-07-1.94114E-19 8.34724E-19
 -1      1221 1.17925E-04-3.53031E-05-3.51385E-05-1.95561E-07-2.58047E-19 2.87957E-18
 -1      1222 1.16349E-04-3.48412E-05-3.45696E-05-1.28127E-07-6.34084E-20 2.50124E-18
 -1      1223 1.11530E-04-3.34400E-05-3.31070E-05 4.68706E-08-1.15299E-19 6.79215E-19
 -1      1224 1.03529E-04-3.11064E-05-3.08388E-05 3.08338E-07 1.98556E-19-1.32402E-18
 -1      1225 9.38521E-05-2.82521E-05-2.82234E-05 5.48598E-07-6.29154E-20-1.12221E-18
 -1      1226 8.54060E-05-2.57045E-05-2.60173E-05 6.10862E-07 6.71869E-19-2.57212E-18
 -1      1227 8.12853E-05-2.43961E-05-2.49558E-05 4.11628E-07 4.00329E-19-4.36897E-18
 -1      1228 8.29143E-05-2.48134E-05-2.53523E-05 3.58379E-08 9.73823E-20-2.25570E-18
 -1      1229 8.90478E-05-2.66340E-05-2.69031E-05-3.13976E-07-4.85408E-19 3.34049E-18
 -1      1230 9.66124E-05-2.89337E-05-2.88682E-05-4.80332E-07-6.62969E-20 4.99432E-18
 -1      1231 1.02584E-04-3.07685E-05-3.04828E-05-4.42440E-07 2.85116E-19 5.16177E-18
 -1      1232 1.05339E-04-3.16252E-05-3.12883E-05-2.79167E-07 1.33322E-19 2.91512E-19
 -1      1233 1.04841E-04-3.14904E-05-3.12261E-05-8.43937E-08 3.04350E-19-4.01920E-18
 -1      1234 1.02095E-04-3.06738E-05-3.05423E-05 8.10711E-08 2.50698E-19-5.34975E-18
 -1      1235 9.85653E-05-2.96176E-05-2.96302E-05 1.78328E-07-5.69183E-21-2.96154E-18
 -1      1236 9.58079E-05-2.87842E-05-2.88716E-05 1.42834E-07 5.12693E-19-2.66794E-18
 -1      1237 9.50053E-05-2.84920E-05-2.84113E-05-8.03806E-08 2.78451E-19-2.79020E-18
 -1      1238 9.53214E-05-2.88025E-05-2.84297E-05-7.63610E-08-2.85287E-18-1.09347E-19
 -1      1239 9.49961E-05-2.79513E-05-2.89310E-05-2.09606E-08-3.51857E-18 4.61666E-20
 -1      1240 9.40772E-05-2.48883E-05-2.98717E-05 1.53046E-07 9.37295E-19 1.31988E-19
 -1      1241 9.25715E-05-1.98398E-05-3.13427E-05 2.63174E-07 2.43525E-18-1.39744E-20
 -1      1242 9.06384E-05-1.33060E-05-3.32252E-05 3.43919E-07 4.43454E-18-4.53237E-20
 -1      1243 8.85265E-05-6.12933E-06-3.52626E-05 3.76228E-07 3.46161E-18-8.78879E-20
 -1      1244 8.65668E-05 5.77637E-07-3.71407E-05 3.34883E-07 4.71665E-18-1.29398E-19
 -1      1245 8.51384E-05 5.48357E-06-3.84969E-05 2.01030E-07-1.58980E-18-4.86766E-19
 -1      1246 8.45986E-05 7.34188E-06-3.90069E-05 5.87320E-09-6.81955E-18-4.14914E-19
 -1      1247 8.50846E-05 5.66917E-06-3.85471E-05-1.91496E-07-8.13091E-18 5.26716E-19
 -1      1248 8.64734E-05 8.94565E-07-3.72268E-05-3.30177E-07-6.68568E-18-6.19525E-20
 -1      1249 8.84264E-05-5.77370E-06-3.53630E-05-3.79943E-07-1.02269E-17 1.93659E-19
 -1      1250 9.05443E-05-1.29888E-05-3.33137E-05-3.50936E-07-9.47978E-18 4.46162E-19
 -1      1251 9.25087E-05-1.96281E-05-3.14055E-05-2.74398E-07-5.47469E-18-4.40598E-19
 -1      1252 9.40741E-05-2.48641E-05-2.99020E-05-2.08287E-07-3.69486E-18 8.51232E-19
 -1      1253 9.48896E-05-2.78270E-05-2.89448E-05 6.33663E-08-7.78837E-19-1.03306E-18
 -1      1254 9.53405E-05-2.88293E-05-2.84198E-05 8.09739E-08-1.10247E-19 7.99435E-19
 -1      1255 3.70862E-05-1.17679E-04 2.02585E-05-1.44220E-05 1.11910E-17 1.97036E-18
 -1      1256 2.06807E-05-7.67182E-05 1.21035E-05-2.83273E-05 1.02355E-17 2.78123E-18
 -1      1257 7.32184E-06-1.96199E-05-2.27415E-06-8.87628E-06 7.15404E-18 3.37712E-18
 -1      1258 2.36478E-05 2.12465E-05-2.12408E-05 4.02507E-05 4.30293E-18 2.83417E-18
 -1      1259 8.27870E-05 2.30543E-05-4.14712E-05 9.31782E-05 1.84823E-18 1.51111E-18
 -1      1260 1.73057E-04-1.25660E-05-5.94346E-05 1.17198E-04 1.43996E-18 2.37339E-18
 -1      1261 2.62917E-04-6.16034E-05-7.28449E-05 9.39859E-05 7.11296E-19 2.55719E-18
 -1      1262 3.15017E-04-9.40456E-05-7.94344E-05 2.75385E-05 6.19313E-19 1.11215E-18
 -1      1263 3.02149E-04-8.70716E-05-7.76053E-05-5.15976E-05 9.32636E-19-5.57432E-18
 -1      1264 2.32257E-04-4.65474E-05-6.80632E-05-1.03893E-04 3.52620E-18-7.91129E-18
 -1      1265 1.35283E-04 1.76147E-06-5.19976E-05-1.06591E-04 5.74712E-18-9.44950E-18
 -1      1266 5.21970E-05 2.43354E-05-3.17372E-05-6.80005E-05 4.99919E-18-6.18673E-18
 -1      1267 1.09850E-05 5.20892E-06-1.19175E-05-1.41058E-05 6.49505E-18-4.71797E-18
 -1      1268 1.06960E-05-4.39542E-05 4.83018E-06 2.11035E-05 6.20960E-18-2.78123E-18
 -1      1269 2.83665E-05-9.53484E-05 1.62625E-05 2.49505E-05 7.33361E-18-1.19358E-18
 -1      1270 3.87310E-05-1.18068E-04 2.05056E-05 1.21200E-06 4.35756E-18 9.24854E-20
 -1      1271 2.89411E-05-9.65830E-05 1.65176E-05-2.40816E-05-1.41624E-18-9.63076E-19
 -1      1272 1.04294E-05-4.17068E-05 4.12001E-06-2.00117E-05-2.99850E-18-8.16540E-19
 -1      1273 1.44561E-05 9.82541E-06-1.46146E-05 2.15792E-05-2.95445E-18-1.98290E-18
 -1      1274 6.37663E-05 2.38409E-05-3.57735E-05 7.81181E-05-2.81723E-18-4.44862E-18
 -1      1275 1.55793E-04-7.44214E-06-5.58573E-05 1.11269E-04-5.60143E-18-1.14536E-17
 -1      1276 2.56177E-04-6.01144E-05-7.14076E-05 9.24537E-05-3.77099E-18-1.33797E-17
 -1      1277 3.14239E-04-9.41940E-05-7.92201E-05 2.25217E-05-7.77047E-19-1.24052E-17
 -1      1278 2.99747E-04-8.44934E-05-7.75438E-05-6.10879E-05 9.50265E-19-7.72875E-18
 -1      1279 2.20019E-04-3.74549E-05-6.68192E-05-1.12173E-04-1.27817E-18 1.76013E-18
 -1      1280 1.13486E-04 1.28672E-05-4.82416E-05-1.05572E-04-3.72271E-18 5.57348E-18
 -1      1281 3.39244E-05 2.51860E-05-2.59898E-05-5.33785E-05-8.55503E-18 8.40595E-18
 -1      1282 7.72331E-06-1.23065E-05-4.88560E-06 3.17493E-06-8.03326E-18 4.99749E-18
 -1      1283 1.96118E-05-7.34073E-05 1.13835E-05 2.81971E-05-1.78809E-18 1.37855E-18
 -1      1284 3.75998E-05-1.18029E-04 2.01671E-05 1.47215E-05 4.46895E-18 1.08341E-18
 -1      1285 1.04444E-04-2.20196E-05-3.78926E-05-1.72762E-05-4.83021E-19 5.76575E-18
 -1      1286 9.03191E-05-6.68111E-06-3.60170E-05-2.04740E-05-1.15938E-18-1.55240E-18
 -1      1287 9.26557E-05-6.73972E-06-3.72222E-05-2.57620E-05-1.54012E-18 6.94567E-20
 -1      1288 8.59018E-05-4.09681E-06-3.51289E-05-1.64344E-05-1.05800E-18-3.73414E-18
 -1      1289 8.71556E-05-4.09001E-06-3.55987E-05-1.88554E-05-1.24567E-18-2.81726E-18
 -1      1290 9.21337E-05-1.04635E-05-3.50932E-05-1.90381E-05-1.99929E-18-1.34646E-18
 -1      1291 8.40939E-05-3.18932E-06-3.46860E-05-1.28213E-05-7.80925E-19-4.73583E-18
 -1      1292 8.47026E-05-3.15893E-06-3.49100E-05-1.46340E-05-9.25198E-19-4.31714E-18
 -1      1293 8.78607E-05-7.39415E-06-3.45724E-05-1.54122E-05-1.63321E-18-3.17542E-18
 -1      1294 8.31859E-05-2.72848E-06-3.44701E-05-9.68772E-06-5.27788E-19-5.13966E-18
 -1      1295 8.35001E-05-2.71185E-06-3.45792E-05-1.12358E-05-6.09123E-19-4.96754E-18
 -1      1296 8.58627E-05-5.98420E-06-3.43046E-05-1.19621E-05-1.17656E-18-4.02775E-18
 -1      1297 8.26924E-05-2.45684E-06-3.43636E-05-6.91658E-06-2.58941E-19-5.22437E-18
 -1      1298 8.28622E-05-2.44855E-06-3.44182E-05-8.28748E-06-3.57329E-19-5.17030E-18
 -1      1299 8.48203E-05-5.21651E-06-3.41730E-05-8.94402E-06-7.45217E-19-4.31653E-18
 -1      1300 8.24175E-05-2.29197E-06-3.43105E-05-4.29650E-06-6.50925E-20-5.17693E-18
 -1      1301 8.25084E-05-2.28803E-06-3.43378E-05-5.59804E-06-1.36422E-19-5.23472E-18
 -1      1302 8.42335E-05-4.76127E-06-3.41092E-05-6.21877E-06-3.32007E-19-4.43978E-18
 -1      1303 8.22853E-05-2.20284E-06-3.42882E-05-1.79072E-06 1.61362E-19-5.05605E-18
 -1      1304 8.23242E-05-2.20124E-06-3.42993E-05-3.04218E-06 8.09347E-20-5.11645E-18
 -1      1305 8.39120E-05-4.49862E-06-3.40801E-05-3.64615E-06-8.43228E-21-4.33948E-18
 -1      1306 8.22593E-05-2.17535E-06-3.42855E-05 6.70008E-07 3.63431E-19-4.89782E-18
 -1      1307 8.22579E-05-2.17539E-06-3.42852E-05-5.66320E-07 2.82895E-19-4.99560E-18
 -1      1308 8.37709E-05-4.37916E-06-3.40692E-05-1.17105E-06 3.90471E-19-4.25203E-18
 -1      1309 8.23328E-05-2.20555E-06-3.43008E-05 3.14946E-06 5.72434E-19-4.74303E-18
 -1      1310 8.22910E-05-2.20719E-06-3.42890E-05 1.89540E-06 4.99254E-19-4.84364E-18
 -1      1311 8.37758E-05-4.38333E-06-3.40696E-05 1.27416E-06 6.94678E-19-4.12248E-18
 -1      1312 8.25258E-05-2.29848E-06-3.43404E-05 5.71449E-06 7.41647E-19-4.49687E-18
 -1      1313 8.24314E-05-2.30186E-06-3.43124E-05 4.40697E-06 6.68076E-19-4.66613E-18
 -1      1314 8.39276E-05-4.51213E-06-3.40811E-05 3.75338E-06 1.03295E-18-3.94184E-18
 -1      1315 8.28852E-05-2.46409E-06-3.44206E-05 8.39673E-06 9.41464E-19-4.02809E-18
 -1      1316 8.27125E-05-2.47278E-06-3.43656E-05 7.01673E-06 8.62551E-19-4.30819E-18
 -1      1317 8.42599E-05-4.78504E-06-3.41102E-05 6.31253E-06 1.31132E-18-3.66265E-18
 -1      1318 8.35430E-05-2.74127E-06-3.45840E-05 1.13973E-05 1.21221E-18-3.30856E-18
 -1      1319 8.32218E-05-2.75837E-06-3.44732E-05 9.83222E-06 1.09256E-18-3.74326E-18
 -1      1320 8.48624E-05-5.25801E-06-3.41733E-05 9.05605E-06 1.67828E-18-3.17036E-18
 -1      1321 8.47639E-05-3.20328E-06-3.49186E-05 1.48461E-05 1.46375E-18-2.05718E-18
 -1      1322 8.41516E-05-3.24002E-06-3.46919E-05 1.30058E-05 1.31859E-18-2.81575E-18
 -1      1323 8.59453E-05-6.06286E-06-3.43060E-05 1.21249E-05 2.04466E-18-2.37177E-18
 -1      1324 8.72544E-05-4.09022E-06-3.56204E-05 1.90933E-05 1.56791E-18 1.64060E-19
 -1      1325 8.59710E-05-4.15411E-06-3.51371E-05 1.66954E-05 1.43519E-18-1.18921E-18
 -1      1326 8.79900E-05-7.51702E-06-3.45753E-05 1.56527E-05 2.32390E-18-9.70144E-19
 -1      1327 9.34684E-05-6.79234E-06-3.71175E-05 2.50980E-05 1.27246E-18 4.30716E-18
 -1      1328 9.01341E-05-6.43785E-06-3.60395E-05 2.11508E-05 1.26695E-18 1.79672E-18
 -1      1329 9.23625E-05-1.06981E-05-3.50783E-05 1.96784E-05 2.28826E-18 1.58051E-18
 -1      1330 1.23631E-04-2.49244E-05-3.90162E-05 2.83678E-05 5.66877E-19 1.18618E-17
 -1      1331 1.00084E-04-1.44245E-05-3.73552E-05 2.40517E-05 6.02876E-19 6.65789E-18
 -1      1332 1.01682E-04-1.93430E-05-3.54033E-05 2.14001E-05 2.05566E-18 5.31407E-18
 -1      1333 1.02609E-04-2.78064E-05-3.47591E-05 7.32963E-06 1.08751E-18 1.14947E-17
 -1      1334 1.05151E-04-3.02314E-05-3.35267E-05-7.95991E-06-1.26949E-18 6.32945E-18
 -1      1335 9.82646E-05-2.78441E-05-3.07633E-05-4.98860E-06-1.16044E-18 4.84847E-18
 -1      1336 9.55067E-05-2.78504E-05-2.92557E-05-2.49015E-06-9.34383E-19 4.20374E-18
 -1      1337 9.32739E-05-2.75594E-05-2.82162E-05-2.04351E-06-8.80888E-19 2.81988E-18
 -1      1338 9.94882E-05-2.80536E-05-3.09838E-05-7.88719E-06-2.03711E-18 2.01025E-18
 -1      1339 9.15838E-05-2.72013E-05-2.75817E-05-8.38942E-07-7.77378E-19 2.43702E-18
 -1      1340 9.08665E-05-2.71057E-05-2.72793E-05-7.28784E-07-6.76660E-19 1.35480E-18
 -1      1341 9.47208E-05-2.77708E-05-2.88172E-05-3.12174E-06-1.58655E-18 1.18978E-18
 -1      1342 9.01159E-05-2.69227E-05-2.70359E-05-1.74665E-07-5.18722E-19 8.64132E-19
 -1      1343 9.00426E-05-2.69493E-05-2.70009E-05-1.16592E-07-5.10450E-19 1.10697E-19
 -1      1344 9.25205E-05-2.75001E-05-2.78960E-05-1.05474E-06-1.18471E-18 3.78293E-19
 -1      1345 8.97828E-05-2.68818E-05-2.69265E-05 1.53454E-07-3.99811E-19-8.23210E-20
 -1      1346 8.99964E-05-2.69716E-05-2.69878E-05 1.82053E-07-3.29909E-19-5.94988E-19
 -1      1347 9.15611E-05-2.73561E-05-2.75288E-05-7.16582E-08-8.18343E-19-5.49394E-19
 -1      1348 8.99995E-05-2.69746E-05-2.69941E-05 3.12780E-07-2.63541E-19-9.00224E-19
 -1      1349 9.03404E-05-2.70938E-05-2.70928E-05 3.24405E-07-2.31089E-19-1.13982E-18
 -1      1350 9.13068E-05-2.73439E-05-2.74205E-05 4.14868E-07-6.02563E-19-8.37990E-19
 -1      1351 9.04814E-05-2.71353E-05-2.71397E-05 3.78554E-07-1.51729E-19-1.34837E-18
 -1      1352 9.08672E-05-2.72629E-05-2.72511E-05 3.80132E-07-1.72386E-19-1.63086E-18
 -1      1353 9.14380E-05-2.74171E-05-2.74422E-05 6.42169E-07-4.37999E-19-1.36311E-18
 -1      1354 9.10740E-05-2.73229E-05-2.73172E-05 3.90284E-07-2.56499E-19-1.64889E-18
 -1      1355 9.14589E-05-2.74468E-05-2.74287E-05 3.85986E-07-3.61645E-19-2.15287E-18
 -1      1356 9.17684E-05-2.75353E-05-2.75304E-05 7.23633E-07-4.36029E-19-1.65970E-18
 -1      1357 9.16887E-05-2.75130E-05-2.75012E-05 3.71048E-07-2.92845E-19-2.20327E-18
 -1      1358 9.20474E-05-2.76265E-05-2.76055E-05 3.63570E-07-2.49195E-19-2.53166E-18
 -1      1359 9.21874E-05-2.76716E-05-2.76496E-05 7.21052E-07-5.47369E-19-1.72025E-18
 -1      1360 9.22751E-05-2.76919E-05-2.76770E-05 3.35315E-07-1.48129E-19-2.61630E-18
 -1      1361 9.25947E-05-2.77917E-05-2.77703E-05 3.26442E-07 1.36731E-19-2.61518E-18
 -1      1362 9.26289E-05-2.78091E-05-2.77786E-05 6.71462E-07-3.15020E-19-1.54867E-18
 -1      1363 9.28065E-05-2.78525E-05-2.78366E-05 2.92480E-07 7.58607E-21-2.76685E-18
 -1      1364 9.30822E-05-2.79377E-05-2.79175E-05 2.83397E-07-3.14727E-19-3.08292E-18
 -1      1365 9.30542E-05-2.79384E-05-2.79049E-05 5.98356E-07-1.03238E-19-2.10471E-18
 -1      1366 9.32713E-05-2.79918E-05-2.79766E-05 2.48738E-07-3.58488E-19-3.04113E-18
 -1      1367 9.35038E-05-2.80629E-05-2.80449E-05 2.40233E-07-3.15752E-19-3.50125E-18
 -1      1368 9.34431E-05-2.80544E-05-2.80216E-05 5.17075E-07-3.91640E-19-2.60842E-18
 -1      1369 9.36686E-05-2.81100E-05-2.80964E-05 2.08213E-07-4.45650E-20-3.39442E-18
 -1      1370 9.38616E-05-2.81684E-05-2.81534E-05 2.00810E-07 1.55593E-19-3.24177E-18
 -1      1371 9.37871E-05-2.81554E-05-2.81258E-05 4.37787E-07-2.61703E-19-2.56656E-18
 -1      1372 9.40039E-05-2.82090E-05-2.81978E-05 1.73701E-07-2.71003E-20-3.19195E-18
 -1      1373 9.41639E-05-2.82569E-05-2.82452E-05 1.67761E-07-6.56248E-20-3.18535E-18
 -1      1374 9.40860E-05-2.82420E-05-2.82171E-05 3.67338E-07-6.51796E-20-2.52346E-18
 -1      1375 9.42877E-05-2.82921E-05-2.82838E-05 1.47206E-07-1.44420E-19-3.17603E-18
 -1      1376 9.44226E-05-2.83320E-05-2.83240E-05 1.43006E-07-3.92639E-19-3.34275E-18
 -1      1377 9.43454E-05-2.83159E-05-2.82970E-05 3.10510E-07-7.18932E-20-2.60949E-18
 -1      1378 9.45340E-05-2.83635E-05-2.83586E-05 1.30340E-07-3.88857E-19-3.42582E-18
 -1      1379 9.46530E-05-2.83983E-05-2.83943E-05 1.28131E-07-3.08869E-19-3.82263E-18
 -1      1380 9.45751E-05-2.83803E-05-2.83684E-05 2.70941E-07-5.12090E-19-2.48273E-18
 -1      1381 9.47594E-05-2.84283E-05-2.84274E-05 1.24629E-07 1.26482E-20-3.91862E-18
 -1      1382 9.48735E-05-2.84612E-05-2.84617E-05 1.24683E-07-4.39389E-20-3.94148E-18
 -1      1383 9.47880E-05-2.84391E-05-2.84351E-05 2.51807E-07-3.51564E-19-2.34260E-18
 -1      1384 9.49838E-05-2.84923E-05-2.84960E-05 1.31751E-07-5.09781E-20-4.39239E-18
 -1      1385 9.51051E-05-2.85271E-05-2.85325E-05 1.34401E-07-1.64374E-19-4.42163E-18
 -1      1386 9.50000E-05-2.84969E-05-2.85020E-05 2.56358E-07-2.03858E-19-3.12762E-18
 -1      1387 9.52297E-05-2.85622E-05-2.85713E-05 1.53713E-07-3.01090E-19-4.43984E-18
 -1      1388 9.53725E-05-2.86032E-05-2.86143E-05 1.59378E-07-5.35155E-19-5.07943E-18
 -1      1389 9.52300E-05-2.85593E-05-2.85747E-05 2.88310E-07-3.55849E-19-3.16706E-18
 -1      1390 9.55237E-05-2.86458E-05-2.86614E-05 1.92961E-07 6.57121E-20-5.05965E-18
 -1      1391 9.57045E-05-2.86980E-05-2.87157E-05 2.02162E-07 1.74900E-19-4.88353E-18
 -1      1392 9.55001E-05-2.86325E-05-2.86601E-05 3.52117E-07-3.58990E-19-3.55234E-18
 -1      1393 9.58965E-05-2.87522E-05-2.87755E-05 2.52418E-07 1.31039E-19-4.23845E-18
 -1      1394 9.61346E-05-2.88215E-05-2.88469E-05 2.65778E-07 2.95943E-19-3.95218E-18
 -1      1395 9.58360E-05-2.87241E-05-2.87660E-05 4.53095E-07 3.36864E-19-3.15010E-18
 -1      1396 9.63836E-05-2.88919E-05-2.89244E-05 3.35396E-07 2.25142E-20-4.20196E-18
 -1      1397 9.67017E-05-2.89853E-05-2.90196E-05 3.53614E-07-1.92715E-19-4.14129E-18
 -1      1398 9.62672E-05-2.88427E-05-2.89014E-05 5.97347E-07-3.56010E-20-2.79538E-18
 -1      1399 9.70261E-05-2.90772E-05-2.91206E-05 4.45330E-07 5.23572E-20-4.15440E-18
 -1      1400 9.74502E-05-2.92027E-05-2.92470E-05 4.69118E-07 6.47434E-21-4.23857E-18
 -1      1401 9.68277E-05-2.89985E-05-2.90765E-05 7.91375E-07-4.56049E-20-2.90019E-18
 -1      1402 9.78703E-05-2.93221E-05-2.93778E-05 5.85204E-07 1.95733E-19-3.86140E-18
 -1      1403 9.84291E-05-2.94887E-05-2.95440E-05 6.15143E-07 2.04662E-19-3.42607E-18
 -1      1404 9.75552E-05-2.92029E-05-2.93024E-05 1.04120E-06 3.45243E-19-2.67384E-18
 -1      1405 9.89657E-05-2.96418E-05-2.97109E-05 7.56463E-07-3.44506E-19-3.11282E-18
 -1      1406 9.96894E-05-2.98594E-05-2.99256E-05 7.92737E-07-3.90604E-19-3.64379E-18
 -1      1407 9.84899E-05-2.94687E-05-2.95910E-05 1.35063E-06 1.56784E-20-2.50172E-18
 -1      1408 1.00362E-04-3.00524E-05-3.01345E-05 9.57094E-07-2.26702E-19-3.69310E-18
 -1      1409 1.01278E-04-3.03305E-05-3.04054E-05 9.99026E-07 2.60396E-21-4.16688E-18
 -1      1410 9.96720E-05-2.98095E-05-2.99533E-05 1.71821E-06-4.67618E-19-1.69812E-18
 -1      1411 1.02102E-04-3.05685E-05-3.06604E-05 1.17843E-06-2.86850E-20-4.30564E-18
 -1      1412 1.03229E-04-3.09142E-05-3.09924E-05 1.22369E-06-5.74849E-20-4.72483E-18
 -1      1413 1.01136E-04-3.02390E-05-3.03979E-05 2.13208E-06-1.20553E-19-2.27071E-18
 -1      1414 1.04205E-04-3.11999E-05-3.12932E-05 1.40018E-06 5.40133E-19-4.53954E-18
 -1      1415 1.05540E-04-3.16150E-05-3.16844E-05 1.44350E-06 3.53116E-19-4.11854E-18
 -1      1416 1.02900E-04-3.07686E-05-3.09274E-05 2.56183E-06 6.06128E-19-3.01394E-18
 -1      1417 1.06651E-04-3.19460E-05-3.20235E-05 1.58326E-06 1.38123E-19-3.35139E-18
 -1      1418 1.08149E-04-3.24204E-05-3.24593E-05 1.61468E-06 2.77254E-19-2.85627E-18
 -1      1419 1.04953E-04-3.14044E-05-3.15334E-05 2.94660E-06 6.25449E-19-2.17101E-18
 -1      1420 1.09340E-04-3.27858E-05-3.28167E-05 1.66132E-06-3.90065E-20-2.42331E-18
 -1      1421 1.10888E-04-3.32889E-05-3.32619E-05 1.66407E-06-1.21117E-19-2.41226E-18
 -1      1422 1.07232E-04-3.21410E-05-3.21890E-05 3.18013E-06 3.75483E-19-1.77580E-18
 -1      1423 1.12053E-04-3.36640E-05-3.36004E-05 1.53441E-06-6.19823E-20-1.78394E-18
 -1      1424 1.13435E-04-3.41326E-05-3.39900E-05 1.48360E-06 1.90759E-19-1.65992E-18
 -1      1425 1.09587E-04-3.29511E-05-3.28406E-05 3.09722E-06-1.18108E-19-1.53774E-18
 -1      1426 1.14399E-04-3.44715E-05-3.42511E-05 1.07409E-06 2.77264E-19-1.81122E-18
 -1      1427 1.15273E-04-3.47980E-05-3.44856E-05 9.39218E-07 1.58739E-19-2.10182E-18
 -1      1428 1.11755E-04-3.37690E-05-3.34006E-05 2.47475E-06 2.74316E-19-1.06166E-18
 -1      1429 1.15788E-04-3.50272E-05-3.45925E-05 1.57823E-07-2.94106E-19-9.74468E-19
 -1      1430 1.15705E-04-3.50574E-05-3.45464E-05-8.55881E-08-1.76686E-21-1.42987E-18
 -1      1431 1.13327E-04-3.44660E-05-3.37487E-05 1.07402E-06 6.07759E-19-5.36741E-19
 -1      1432 1.15482E-04-3.50737E-05-3.44204E-05-1.24541E-06 3.41566E-19-1.04463E-18
 -1      1433 1.13992E-04-3.46346E-05-3.39784E-05-1.58918E-06 2.59735E-19-8.26651E-19
 -1      1434 1.13766E-04-3.48281E-05-3.37510E-05-1.23744E-06 2.76609E-19-3.41263E-19
 -1      1435 1.12790E-04-3.43236E-05-3.35727E-05-2.93784E-06-3.04661E-19-1.52201E-18
 -1      1436 1.09687E-04-3.33039E-05-3.26989E-05-3.30345E-06-2.63381E-19-1.59745E-18
 -1      1437 1.12514E-04-3.45645E-05-3.33056E-05-4.26519E-06 3.16049E-20-6.41773E-19
 -1      1438 1.07486E-04-3.26024E-05-3.20453E-05-4.37867E-06 6.84545E-19-1.92806E-18
 -1      1439 1.03130E-04-3.10858E-05-3.08590E-05-4.60218E-06 5.29032E-19-1.32550E-18
 -1      1440 1.09247E-04-3.34087E-05-3.24107E-05-7.24709E-06 8.51996E-20-1.82092E-18
 -1      1441 1.00327E-04-3.00902E-05-3.00959E-05-4.78017E-06 2.08519E-19-1.62270E-18
 -1      1442 9.58110E-05-2.84568E-05-2.88972E-05-4.67655E-06 4.80757E-20-9.76205E-19
 -1      1443 1.04280E-04-3.13660E-05-3.12207E-05-8.85688E-06 4.23381E-19-1.94767E-18
 -1      1444 9.32623E-05-2.74953E-05-2.82429E-05-3.56471E-06 4.81790E-19-4.72750E-20
 -1      1445 9.01177E-05-2.63424E-05-2.74153E-05-3.08468E-06 6.92251E-19 5.35457E-19
 -1      1446 9.88624E-05-2.89602E-05-3.00356E-05-7.79365E-06 5.19694E-19-1.06178E-18
 -1      1447 8.88049E-05-2.58566E-05-2.70728E-05-9.77591E-07 4.95779E-19 1.38953E-19
 -1      1448 8.81923E-05-2.56625E-05-2.68953E-05-3.22038E-07-3.72522E-19 3.19451E-19
 -1      1449 9.49265E-05-2.71969E-05-2.91959E-05-3.86376E-06 7.34960E-19-2.70137E-19
 -1      1450 8.85716E-05-2.58660E-05-2.69544E-05 1.81834E-06-9.37745E-19 6.36334E-20
 -1      1451 9.05318E-05-2.66471E-05-2.74376E-05 2.31859E-06-1.78409E-18-1.94749E-18
 -1      1452 9.40076E-05-2.68978E-05-2.89290E-05 1.36873E-06-8.64715E-19-1.57317E-18
 -1      1453 9.21999E-05-2.73513E-05-2.78217E-05 3.50682E-06-1.18531E-18-2.04315E-18
 -1      1454 9.56179E-05-2.86492E-05-2.86982E-05 3.63308E-06-7.14866E-19-3.06425E-18
 -1      1455 9.61667E-05-2.81105E-05-2.92488E-05 5.43979E-06-2.17482E-18-2.06926E-18
 -1      1456 9.76063E-05-2.94174E-05-2.92038E-05 3.51613E-06 5.32761E-19-2.63973E-18
 -1      1457 1.00934E-04-3.06257E-05-3.00842E-05 3.30143E-06 1.12546E-18-2.11176E-18
 -1      1458 9.99324E-05-3.00272E-05-2.99350E-05 6.67800E-06 8.77242E-20-1.67215E-18
 -1      1459 1.02358E-04-3.11118E-05-3.04909E-05 2.24218E-06 5.38925E-19-6.08117E-19
 -1      1460 1.04449E-04-3.18237E-05-3.10653E-05 1.87044E-06 6.83304E-19 5.59174E-19
 -1      1461 1.03358E-04-3.16364E-05-3.06470E-05 5.16133E-06 1.67517E-18 1.98470E-19
 -1      1462 1.04888E-04-3.19145E-05-3.12337E-05 5.19361E-07 6.22490E-19 3.95803E-19
 -1      1463 1.05361E-04-3.20322E-05-3.13798E-05 1.69153E-07 7.51901E-19 1.27230E-18
 -1      1464 1.05129E-04-3.23571E-05-3.10851E-05 2.18937E-06 1.01152E-18 1.96212E-18
 -1      1465 1.04856E-04-3.17925E-05-3.12873E-05-9.43913E-07 9.51615E-19 1.47535E-18
 -1      1466 1.03974E-04-3.14415E-05-3.10612E-05-1.17286E-06 7.07312E-19 3.13529E-18
 -1      1467 1.04918E-04-3.21559E-05-3.11064E-05-7.94061E-07 1.36000E-18 3.28934E-18
 -1      1468 1.02840E-04-3.10049E-05-3.07796E-05-1.77284E-06 3.19970E-19 2.76485E-18
 -1      1469 1.01218E-04-3.04083E-05-3.03458E-05-1.84769E-06 2.68420E-19 2.51088E-18
 -1      1470 1.03137E-04-3.13106E-05-3.07459E-05-2.84300E-06 1.13202E-18 2.81217E-18
 -1      1471 9.98651E-05-2.99096E-05-2.99944E-05-1.85370E-06-2.29873E-19 2.26262E-18
 -1      1472 9.82319E-05-2.93139E-05-2.95516E-05-1.76841E-06-7.93486E-19 1.68999E-18
 -1      1473 1.00533E-04-3.01605E-05-3.01642E-05-3.55695E-06-1.90655E-19 2.52826E-18
 -1      1474 9.70294E-05-2.88600E-05-2.92411E-05-1.20303E-06-9.03930E-19 1.64319E-18
 -1      1475 9.60561E-05-2.85460E-05-2.89394E-05-1.00244E-06-5.58120E-19 8.22148E-19
 -1      1476 9.78831E-05-2.89860E-05-2.95572E-05-2.90637E-06-8.05048E-19 2.44082E-18
 -1      1477 9.52251E-05-2.84423E-05-2.86293E-05-2.31164E-09-8.88207E-19 4.25158E-19
 -1      1478 9.56942E-05-2.81839E-05-2.89556E-05-9.84239E-07-9.58831E-19 1.43512E-18
 -1      1479 9.65811E-05-2.83648E-05-2.97736E-05 2.99615E-06 9.70435E-19 9.33616E-18
 -1      1480 1.02540E-04-2.93997E-05-3.21571E-05 4.46329E-06 8.72285E-19 1.07793E-17
 -1      1481 1.02330E-04-2.67191E-05-3.27069E-05 1.27840E-05 1.69094E-18 7.20444E-18
 -1      1482 9.20338E-05-2.74302E-05-2.77627E-05 1.15239E-06 6.96857E-19 7.47766E-18
 -1      1483 9.39809E-05-2.75855E-05-2.86770E-05 1.47435E-06 6.86825E-19 8.59027E-18
 -1      1484 9.64899E-05-2.80312E-05-2.95347E-05 4.86847E-06 1.46312E-18 5.74557E-18
 -1      1485 9.02001E-05-2.70051E-05-2.70635E-05 3.32285E-07 5.42624E-19 6.06722E-18
 -1      1486 9.08156E-05-2.70228E-05-2.73363E-05 4.95131E-07 4.71605E-19 6.82997E-18
 -1      1487 9.30443E-05-2.75795E-05-2.80994E-05 1.85268E-06 1.14889E-18 4.61265E-18
 -1      1488 8.96813E-05-2.68865E-05-2.68874E-05-5.43705E-08 4.67867E-19 4.85817E-18
 -1      1489 8.97194E-05-2.68244E-05-2.69158E-05 3.47066E-08 4.21606E-19 5.62110E-18
 -1      1490 9.14900E-05-2.73080E-05-2.75153E-05 5.19028E-07 8.83369E-19 3.57866E-18
 -1      1491 8.98111E-05-2.69383E-05-2.69285E-05-2.41405E-07 3.57220E-19 3.84344E-18
 -1      1492 8.95837E-05-2.68312E-05-2.68638E-05-1.91216E-07 3.52620E-19 4.48851E-18
 -1      1493 9.09567E-05-2.72266E-05-2.73186E-05-1.30406E-07 8.03934E-19 2.91794E-18
 -1      1494 9.02610E-05-2.70799E-05-2.70659E-05-3.24247E-07 1.28589E-19 3.45302E-18
 -1      1495 8.99155E-05-2.69532E-05-2.69649E-05-2.96656E-07 1.01689E-19 3.67047E-18
 -1      1496 9.09721E-05-2.72690E-05-2.73071E-05-4.48641E-07 3.17639E-19 2.48299E-18
 -1      1497 9.08516E-05-2.72611E-05-2.72442E-05-3.48361E-07 2.60925E-19 3.24968E-18
 -1      1498 9.04660E-05-2.71313E-05-2.71313E-05-3.34767E-07 1.75930E-19 3.50513E-18
 -1      1499 9.12738E-05-2.73802E-05-2.73878E-05-5.88188E-07 2.07227E-19 2.21978E-18
 -1      1500 9.14805E-05-2.74519E-05-2.74336E-05-3.38802E-07 7.33548E-20 2.52693E-18
 -1      1501 9.10982E-05-2.73290E-05-2.73214E-05-3.33997E-07 2.66454E-19 2.95108E-18
 -1      1502 9.17110E-05-2.75229E-05-2.75127E-05-6.25936E-07 4.27961E-19 2.03845E-18
 -1      1503 9.20887E-05-2.76352E-05-2.76169E-05-3.10727E-07 3.81038E-19 1.97404E-18
 -1      1504 9.17339E-05-2.75246E-05-2.75124E-05-3.11336E-07 1.79938E-19 2.23421E-18
 -1      1505 9.21946E-05-2.76741E-05-2.76539E-05-6.05383E-07 5.30565E-19 1.36117E-18
 -1      1506 9.26446E-05-2.78020E-05-2.77847E-05-2.73808E-07 1.03996E-19 1.71826E-18
 -1      1507 9.23293E-05-2.77057E-05-2.76916E-05-2.77562E-07 1.88159E-19 1.86475E-18
 -1      1508 9.26725E-05-2.78200E-05-2.77953E-05-5.53177E-07 3.98428E-19 8.66549E-19
 -1      1509 9.31335E-05-2.79480E-05-2.79325E-05-2.34359E-07 3.63008E-19 1.47220E-18
 -1      1510 9.28620E-05-2.78666E-05-2.78521E-05-2.39701E-07 1.64317E-19 1.71765E-18
 -1      1511 9.31159E-05-2.79533E-05-2.79276E-05-4.86409E-07 2.03128E-19 1.10409E-18
 -1      1512 9.35523E-05-2.80727E-05-2.80594E-05-1.96539E-07 3.83300E-19 1.02037E-18
 -1      1513 9.33239E-05-2.80051E-05-2.79915E-05-2.02386E-07 2.83354E-19 1.30604E-18
 -1      1514 9.35112E-05-2.80706E-05-2.80462E-05-4.16291E-07 5.35339E-19 7.55263E-19
 -1      1515 9.39055E-05-2.81774E-05-2.81666E-05-1.63122E-07 1.11908E-19 6.12494E-20
 -1      1516 9.37160E-05-2.81220E-05-2.81101E-05-1.68702E-07 2.85705E-19 4.80642E-19
 -1      1517 9.38547E-05-2.81715E-05-2.81500E-05-3.50273E-07 5.68377E-19 1.60116E-19
 -1      1518 9.42026E-05-2.82650E-05-2.82570E-05-1.36020E-07 4.25961E-20-5.01286E-19
 -1      1519 9.40457E-05-2.82196E-05-2.82100E-05-1.40757E-07 1.22488E-19-1.60267E-19
 -1      1520 9.41502E-05-2.82574E-05-2.82398E-05-2.93405E-07 3.75747E-19-5.37164E-19
 -1      1521 9.44570E-05-2.83398E-05-2.83346E-05-1.16675E-07-1.86473E-19-3.97369E-19
 -1      1522 9.43247E-05-2.83016E-05-2.82948E-05-1.20100E-07 1.01592E-20-2.77800E-19
 -1      1523 9.44060E-05-2.83309E-05-2.83179E-05-2.49292E-07-5.14128E-20-5.20167E-19
 -1      1524 9.46852E-05-2.84065E-05-2.84043E-05-1.06353E-07-1.61477E-19-1.87610E-19
 -1      1525 9.45681E-05-2.83725E-05-2.83689E-05-1.08033E-07-2.29430E-19-6.12371E-19
 -1      1526 9.46341E-05-2.83957E-05-2.83881E-05-2.20788E-07-1.58218E-19-1.15883E-19
 -1      1527 9.49063E-05-2.84708E-05-2.84720E-05-1.06371E-07 2.65173E-19-4.32108E-19
 -1      1528 9.47936E-05-2.84376E-05-2.84377E-05-1.05850E-07 1.48078E-19-1.29258E-19
 -1      1529 9.48497E-05-2.84563E-05-2.84548E-05-2.10535E-07-1.93257E-20-4.33983E-19
 -1      1530 9.51426E-05-2.85395E-05-2.85443E-05-1.18277E-07-4.77871E-20-7.51495E-19
 -1      1531 9.50220E-05-2.85031E-05-2.85075E-05-1.15022E-07 2.12287E-19-3.73717E-19
 -1      1532 9.50708E-05-2.85181E-05-2.85236E-05-2.21364E-07 4.08833E-19-1.65627E-19
 -1      1533 9.54200E-05-2.86201E-05-2.86291E-05-1.43966E-07-3.42982E-19-5.62256E-19
 -1      1534 9.52773E-05-2.85761E-05-2.85856E-05-1.37331E-07-1.69039E-19-8.95197E-19
 -1      1535 9.53187E-05-2.85873E-05-2.86008E-05-2.56592E-07-1.49637E-19-1.01042E-19
 -1      1536 9.57685E-05-2.87216E-05-2.87355E-05-1.85749E-07-2.67387E-19-5.12869E-19
 -1      1537 9.55870E-05-2.86647E-05-2.86802E-05-1.74941E-07-2.43851E-19-7.04637E-19
 -1      1538 9.56178E-05-2.86710E-05-2.86939E-05-3.20211E-07-1.61359E-19-7.99981E-19
 -1      1539 9.62232E-05-2.88545E-05-2.88741E-05-2.46333E-07 3.75142E-19-3.61153E-19
 -1      1540 9.59836E-05-2.87784E-05-2.88013E-05-2.30399E-07 5.43904E-20-3.64375E-19
 -1      1541 9.59966E-05-2.87777E-05-2.88117E-05-4.16936E-07-2.70364E-19-6.10902E-19
 -1      1542 9.68247E-05-2.90308E-05-2.90570E-05-3.28675E-07 8.65673E-20-1.29338E-18
 -1      1543 9.65043E-05-2.89285E-05-2.89600E-05-3.06518E-07 5.43311E-19-5.01442E-19
 -1      1544 9.64880E-05-2.89170E-05-2.89640E-05-5.52052E-07 8.22911E-19-1.81408E-19
 -1      1545 9.76189E-05-2.92646E-05-2.92980E-05-4.35626E-07-5.76115E-20-1.58986E-18
 -1      1546 9.71919E-05-2.91276E-05-2.91692E-05-4.06074E-07-2.89921E-19-1.92705E-18
 -1      1547 9.71291E-05-2.91002E-05-2.91620E-05-7.30953E-07 1.85748E-19-8.10096E-19
 -1      1548 9.86561E-05-2.95710E-05-2.96122E-05-5.69226E-07-1.32365E-19-1.04226E-18
 -1      1549 9.80939E-05-2.93902E-05-2.94431E-05-5.31195E-07-1.75517E-19-1.35743E-18
 -1      1550 9.79607E-05-2.93396E-05-2.94178E-05-9.58158E-07-3.12537E-19-2.01229E-18
 -1      1551 9.99875E-05-2.99659E-05-3.00146E-05-7.29420E-07-4.25433E-19-2.24407E-19
 -1      1552 9.92608E-05-2.97319E-05-2.97967E-05-6.82247E-07-8.26411E-20-5.02770E-19
 -1      1553 9.90250E-05-2.96486E-05-2.97439E-05-1.23550E-06-2.98348E-19-1.05198E-18
 -1      1554 1.01659E-04-3.04643E-05-3.05182E-05-9.11857E-07-6.57956E-20 4.74802E-19
 -1      1555 1.00741E-04-3.01685E-05-3.02442E-05-8.55916E-07-4.74310E-19-3.28986E-20
 -1      1556 1.00362E-04-3.00407E-05-3.01513E-05-1.55894E-06-5.21250E-19-1.25731E-21
 -1      1557 1.03697E-04-3.10761E-05-3.11301E-05-1.10433E-06 4.12928E-19-2.36905E-21
 -1      1558 1.02572E-04-3.07135E-05-3.07958E-05-1.04210E-06 5.19786E-19 7.06829E-19
 -1      1559 1.02001E-04-3.05274E-05-3.06473E-05-1.91342E-06 4.07026E-19 1.30001E-18
 -1      1560 1.06091E-04-3.18009E-05-3.18446E-05-1.28144E-06-3.54630E-19-6.43745E-19
 -1      1561 1.04765E-04-3.13740E-05-3.14532E-05-1.21920E-06-2.68614E-19-8.04106E-19
 -1      1562 1.03948E-04-3.11154E-05-3.12307E-05-2.26482E-06 1.78158E-19 1.42559E-18
 -1      1563 1.08756E-04-3.26184E-05-3.26329E-05-1.39750E-06 2.02349E-19-5.10973E-19
 -1      1564 1.07278E-04-3.21439E-05-3.22011E-05-1.34778E-06-9.47870E-20-6.89452E-19
 -1      1565 1.06165E-04-3.18012E-05-3.18856E-05-2.54890E-06-1.62364E-19-1.43592E-19
 -1      1566 1.11491E-04-3.34741E-05-3.34302E-05-1.37942E-06 1.19183E-19-7.67650E-19
 -1      1567 1.09982E-04-3.29927E-05-3.29959E-05-1.36379E-06 1.15147E-19-8.11405E-19
 -1      1568 1.08545E-04-3.25630E-05-3.25724E-05-2.65851E-06 2.15055E-19-5.68266E-19
 -1      1569 1.13927E-04-3.42624E-05-3.41208E-05-1.12486E-06-5.80586E-19 1.70386E-19
 -1      1570 1.12609E-04-3.38497E-05-3.37522E-05-1.17552E-06-1.92720E-19-3.37000E-19
 -1      1571 1.10869E-04-3.33483E-05-3.32180E-05-2.43500E-06-4.27275E-19-6.75707E-20
 -1      1572 1.15492E-04-3.48101E-05-3.45329E-05-5.18002E-07-4.47703E-19 1.54001E-18
 -1      1573 1.14711E-04-3.45848E-05-3.43318E-05-6.74241E-07-5.73286E-19 4.24694E-19
 -1      1574 1.12783E-04-3.40579E-05-3.37100E-05-1.67913E-06-9.62454E-19 1.06720E-18
 -1      1575 1.15443E-04-3.48765E-05-3.44560E-05 5.18214E-07 4.87831E-19 1.19554E-18
 -1      1576 1.15646E-04-3.49939E-05-3.45469E-05 2.25199E-07 1.25956E-19 1.17645E-18
 -1      1577 1.13783E-04-3.45294E-05-3.39035E-05-2.08621E-07-6.78090E-20 5.16900E-19
 -1      1578 1.13049E-04-3.41985E-05-3.37045E-05 1.91942E-06-7.99123E-20 1.31147E-18
 -1      1579 1.14666E-04-3.48087E-05-3.41953E-05 1.49906E-06 8.07262E-20 1.60869E-18
 -1      1580 1.13279E-04-3.45342E-05-3.36530E-05 2.00717E-06 1.68176E-19 8.17115E-19
 -1      1581 1.07976E-04-3.26134E-05-3.22293E-05 3.35600E-06 1.87022E-19-5.26219E-20
 -1      1582 1.11176E-04-3.37712E-05-3.31422E-05 2.89928E-06 1.20239E-20 5.74897E-19
 -1      1583 1.10787E-04-3.38226E-05-3.28772E-05 4.64069E-06 3.92679E-19 8.14713E-19
 -1      1584 1.00809E-04-3.02590E-05-3.02388E-05 4.20941E-06-1.19288E-19-8.25592E-19
 -1      1585 1.05185E-04-3.18031E-05-3.14379E-05 3.89939E-06 3.58245E-19-1.83171E-19
 -1      1586 1.06275E-04-3.22590E-05-3.16398E-05 6.85305E-06 6.89994E-19 7.22625E-20
 -1      1587 9.33334E-05-2.77265E-05-2.82294E-05 3.82423E-06 3.27425E-19-6.09440E-19
 -1      1588 9.77605E-05-2.92259E-05-2.94065E-05 3.85956E-06-6.63402E-19-7.63177E-19
 -1      1589 1.00534E-04-3.00463E-05-3.01981E-05 7.46108E-06-1.75124E-19 5.87259E-19
 -1      1590 8.80809E-05-2.59363E-05-2.68300E-05 2.02591E-06 6.96202E-19-2.09580E-18
 -1      1591 9.10419E-05-2.68282E-05-2.76070E-05 2.46592E-06 8.91383E-19-4.99591E-19
 -1      1592 9.52398E-05-2.78584E-05-2.89499E-05 5.62620E-06 6.54929E-19-1.01743E-18
 -1      1593 8.70059E-05-2.56277E-05-2.64949E-05-5.08453E-07-1.51685E-19-1.89023E-18
 -1      1594 8.74029E-05-2.55522E-05-2.66146E-05 1.54619E-07 9.95264E-21-2.34355E-18
 -1      1595 9.23124E-05-2.66240E-05-2.82701E-05 1.71613E-06 3.15957E-19-5.75120E-19
 -1      1596 9.01794E-05-2.68157E-05-2.72475E-05-2.57459E-06-1.49118E-18 4.82544E-19
 -1      1597 8.80655E-05-2.58840E-05-2.67232E-05-2.01169E-06-6.70969E-19-1.43789E-18
 -1      1598 9.27596E-05-2.69041E-05-2.83276E-05-2.56513E-06-1.17112E-18-4.04405E-19
 -1      1599 9.57222E-05-2.87766E-05-2.86561E-05-3.29542E-06-1.12236E-19 3.10215E-18
 -1      1600 9.22721E-05-2.74929E-05-2.77703E-05-3.06272E-06-1.17922E-18 1.19495E-18
 -1      1601 9.59522E-05-2.84164E-05-2.89947E-05-5.25146E-06-1.93798E-18 2.71103E-19
 -1      1602 1.01058E-04-3.05760E-05-3.00884E-05-2.64776E-06-7.41270E-19 3.49618E-18
 -1      1603 9.78045E-05-2.94959E-05-2.92242E-05-2.75607E-06-4.67192E-20 3.39051E-18
 -1      1604 1.00077E-04-3.02599E-05-2.99180E-05-5.44173E-06-4.44533E-19 1.12984E-18
 -1      1605 1.04313E-04-3.15981E-05-3.10297E-05-1.24602E-06 1.62240E-18 3.24853E-18
 -1      1606 1.02339E-04-3.10439E-05-3.04806E-05-1.55009E-06 8.29093E-19 4.40290E-18
 -1      1607 1.03297E-04-3.15835E-05-3.06988E-05-3.63157E-06 8.62650E-20 1.49395E-18
 -1      1608 1.04888E-04-3.17035E-05-3.12639E-05 1.98407E-07 1.15056E-18-4.94116E-19
 -1      1609 1.04515E-04-3.17091E-05-3.11377E-05-1.32863E-07 1.40952E-18 2.07785E-18
 -1      1610 1.04602E-04-3.20179E-05-3.10641E-05-1.02594E-06 2.11967E-18 2.17979E-18
 -1      1611 1.03238E-04-3.10895E-05-3.08728E-05 1.21789E-06 7.40969E-19-2.36448E-18
 -1      1612 1.04168E-04-3.15008E-05-3.11048E-05 9.72895E-07 9.26393E-19-1.17883E-18
 -1      1613 1.03935E-04-3.16455E-05-3.09475E-05 1.27940E-06 2.09293E-18 1.41177E-19
 -1      1614 1.00380E-04-3.01008E-05-3.01253E-05 1.61291E-06-2.55825E-19-3.51711E-18
 -1      1615 1.01988E-04-3.06866E-05-3.05490E-05 1.51110E-06 6.81101E-21-3.43463E-18
 -1      1616 1.01868E-04-3.07597E-05-3.04630E-05 2.65009E-06 8.25768E-19-1.16258E-18
 -1      1617 9.75039E-05-2.91220E-05-2.93505E-05 1.34465E-06-3.53898E-19-2.24259E-18
 -1      1618 9.90555E-05-2.96296E-05-2.97706E-05 1.41291E-06-5.03396E-19-3.08930E-18
 -1      1619 9.92373E-05-2.96798E-05-2.98248E-05 2.84974E-06-8.46992E-19-2.21521E-18
 -1      1620 9.56730E-05-2.85131E-05-2.87904E-05 5.48446E-07 5.20009E-19-1.99816E-18
 -1      1621 9.64967E-05-2.87197E-05-2.90695E-05 7.56994E-07 2.80639E-19-2.08331E-18
 -1      1622 9.68691E-05-2.87065E-05-2.92404E-05 1.92360E-06 4.31772E-19-1.76296E-18
 -1      1623 9.52552E-05-2.84487E-05-2.86273E-05 4.10329E-08-8.08003E-19-5.95176E-19
 -1      1624 9.49521E-05-2.66916E-05-2.92815E-05 1.24337E-06-1.08540E-18 7.27906E-19
 -1      1625 9.52574E-05-2.76927E-05-2.89545E-05 9.93266E-07-2.09919E-18 5.52401E-19
 -1      1626 9.39362E-05-2.34370E-05-3.02307E-05 2.25526E-06 1.25141E-18 1.81310E-18
 -1      1627 9.45749E-05-2.54375E-05-2.96536E-05 2.06221E-06-3.09577E-19 6.62916E-19
 -1      1628 9.49943E-05-2.59679E-05-2.96339E-05 3.20369E-06-1.66961E-19 1.62344E-18
 -1      1629 9.24833E-05-1.88232E-05-3.15805E-05 3.10414E-06 1.71725E-18-4.55247E-20
 -1      1630 9.33912E-05-2.16409E-05-3.07728E-05 2.94914E-06 1.98613E-18 7.26734E-19
 -1      1631 9.39789E-05-2.29654E-05-3.04861E-05 5.02396E-06 1.08259E-18 1.99632E-18
 -1      1632 9.06880E-05-1.32269E-05-3.32052E-05 3.64126E-06 3.50415E-18 6.14597E-19
 -1      1633 9.17813E-05-1.65674E-05-3.22537E-05 3.55917E-06 2.34816E-18 1.71884E-18
 -1      1634 9.26281E-05-1.89700E-05-3.16069E-05 6.41961E-06 1.98653E-18 1.23527E-18
 -1      1635 8.87873E-05-7.45427E-06-3.48575E-05 3.65918E-06 2.16343E-18 1.82476E-21
 -1      1636 8.99033E-05-1.07969E-05-3.39144E-05 3.69639E-06 2.61797E-18-1.10203E-18
 -1      1637 9.09927E-05-1.43115E-05-3.28726E-05 7.05343E-06 1.46149E-18-4.98833E-19
 -1      1638 8.70509E-05-2.30928E-06-3.63067E-05 2.98617E-06-1.48098E-19-1.72697E-18
 -1      1639 8.80159E-05-5.14557E-06-3.55141E-05 3.17600E-06 1.69629E-18-3.87299E-19
 -1      1640 8.92581E-05-9.57390E-06-3.41164E-05 6.56317E-06-2.96931E-19-1.32730E-18
 -1      1641 8.59141E-05 1.00191E-06-3.72282E-05 1.62975E-06-2.28406E-18-7.71488E-19
 -1      1642 8.64802E-05-6.42020E-07-3.67719E-05 1.95199E-06-5.08008E-19-1.11200E-18
 -1      1643 8.77372E-05-5.57432E-06-3.51319E-05 4.73716E-06-1.26755E-18-3.06976E-18
 -1      1644 8.56788E-05 1.67849E-06-3.74147E-05-1.39075E-07-3.78223E-18-1.81139E-19
 -1      1645 8.56947E-05 1.63336E-06-3.74023E-05 2.38130E-07-2.76927E-18-8.34023E-19
 -1      1646 8.68324E-05-3.25031E-06-3.57089E-05 1.79102E-06-9.67894E-19-1.26177E-18
 -1      1647 8.64149E-05-4.57130E-07-3.68226E-05-1.87093E-06-3.73078E-18 8.84871E-19
 -1      1648 8.58757E-05 1.11027E-06-3.72577E-05-1.54259E-06-4.13999E-18 6.19585E-19
 -1      1649 8.68063E-05-3.18590E-06-3.57242E-05-1.61268E-06-3.49644E-19-9.26231E-19
 -1      1650 8.79204E-05-4.87297E-06-3.55895E-05-3.13448E-06-5.20303E-18-1.82891E-18
 -1      1651 8.69722E-05-2.08006E-06-3.63700E-05-2.93600E-06-3.77152E-18-2.28302E-20
 -1      1652 8.76659E-05-5.39932E-06-3.51740E-05-4.61122E-06-1.37198E-18 3.74997E-19
 -1      1653 8.97889E-05-1.04605E-05-3.40081E-05-3.69760E-06-6.44349E-18 2.66180E-19
 -1      1654 8.86722E-05-7.11926E-06-3.49504E-05-3.65142E-06-5.01618E-18-2.15261E-18
 -1      1655 8.91547E-05-9.30024E-06-3.41856E-05-6.51182E-06-2.77066E-18-2.55727E-18
 -1      1656 9.17029E-05-1.63259E-05-3.23228E-05-3.60005E-06-4.54068E-18 9.36107E-19
 -1      1657 9.05947E-05-1.29487E-05-3.32839E-05-3.67650E-06-5.88143E-18 1.57378E-18
 -1      1658 9.08894E-05-1.40318E-05-3.29457E-05-7.08987E-06-2.66970E-18 1.51782E-18
 -1      1659 9.33426E-05-2.14791E-05-3.08198E-05-3.01513E-06-3.33622E-18-1.10726E-19
 -1      1660 9.24148E-05-1.86107E-05-3.16415E-05-3.16147E-06-4.67274E-18 1.56433E-18
 -1      1661 9.25578E-05-1.87734E-05-3.16595E-05-6.51171E-06-2.58050E-18 1.43757E-18
 -1      1662 9.45481E-05-2.52972E-05-2.96797E-05-2.14164E-06-2.02949E-18 1.92050E-18
 -1      1663 9.38743E-05-2.32878E-05-3.02691E-05-2.30702E-06-3.29415E-18 6.40231E-19
 -1      1664 9.39475E-05-2.28432E-05-3.05232E-05-5.12818E-06-1.48898E-18 3.11589E-19
 -1      1665 9.53572E-05-2.74310E-05-2.90872E-05-1.51646E-06-2.17279E-18-3.02543E-19
 -1      1666 9.50388E-05-2.64026E-05-2.94255E-05-1.89622E-06-1.98239E-18 1.99480E-19
 -1      1667 9.51203E-05-2.57239E-05-2.97877E-05-3.85032E-06-3.51529E-18 1.72438E-18
 -1      1668 9.62189E-05-2.76594E-05-2.94106E-05-2.87469E-06-1.77656E-18 8.32031E-19
 -1      1669 2.23626E-05-7.22358E-05 1.52725E-05-5.74528E-06 6.84996E-18 2.25671E-18
 -1      1670 2.54293E-05-8.17738E-05 1.73909E-05 2.29620E-06 5.33292E-18 1.84759E-18
 -1      1671 2.08005E-05-4.72340E-05 6.45812E-06-4.25852E-07 6.67208E-18 1.45086E-18
 -1      1672 2.60844E-05-6.93980E-05 1.19895E-05-2.19925E-06 7.84607E-18 1.39218E-18
 -1      1673 3.12322E-05-1.79329E-05-8.23665E-06 2.22883E-05 4.48250E-18 1.88126E-18
 -1      1674 2.86035E-05-4.03674E-05-1.00473E-07 6.74110E-06 5.75898E-18 2.15019E-18
 -1      1675 6.53068E-05-2.12291E-06-2.67439E-05 5.46074E-05 2.25141E-18 1.19178E-18
 -1      1676 4.54831E-05-1.27110E-05-1.68858E-05 3.11277E-05 3.48385E-18 1.41116E-18
 -1      1677 1.22251E-04-9.46156E-06-4.53128E-05 7.77685E-05 8.47880E-19 4.27752E-19
 -1      1678 8.63517E-05-2.49845E-06-3.59877E-05 6.09811E-05 1.79486E-18 6.24263E-19
 -1      1679 1.87530E-04-3.25127E-05-6.12454E-05 7.79596E-05-3.89635E-20 1.26462E-18
 -1      1680 1.45293E-04-1.40355E-05-5.35174E-05 7.83579E-05 1.45266E-19 1.31968E-18
 -1      1681 2.39489E-04-5.62657E-05-7.21216E-05 4.82084E-05 1.70042E-19 5.00173E-19
 -1      1682 2.06617E-04-3.86091E-05-6.71586E-05 6.84918E-05 5.21825E-19 8.55503E-19
 -1      1683 2.59627E-04-6.57020E-05-7.63586E-05 3.71737E-07 1.50581E-18-1.38088E-18
 -1      1684 2.50214E-04-6.00739E-05-7.51629E-05 3.44465E-05 1.07573E-18 4.81538E-19
 -1      1685 2.39453E-04-5.55642E-05-7.28665E-05-4.62017E-05 1.25816E-18-4.13437E-18
 -1      1686 2.59049E-04-6.62364E-05-7.57303E-05-1.60584E-05 1.33217E-18-2.74206E-18
 -1      1687 1.84824E-04-3.04603E-05-6.22595E-05-7.20805E-05 4.17968E-18-6.00208E-18
 -1      1688 2.24261E-04-5.00131E-05-6.85018E-05-5.86004E-05 2.36582E-18-5.10168E-18
 -1      1689 1.22326E-04-1.37406E-05-4.55308E-05-6.32427E-05 4.00816E-18-5.63785E-18
 -1      1690 1.63559E-04-2.79724E-05-5.43949E-05-6.97507E-05 3.70789E-18-5.16944E-18
 -1      1691 6.44884E-05-6.43519E-06-2.65333E-05-4.46251E-05 3.47961E-18-4.22246E-18
 -1      1692 9.55161E-05-6.98437E-06-3.66375E-05-6.55998E-05 3.55584E-18-5.97751E-18
 -1      1693 3.39692E-05-2.28066E-05-8.67031E-06-1.74561E-05 5.15081E-18-3.53382E-18
 -1      1694 4.47071E-05-6.86229E-06-1.74446E-05-3.70964E-05 4.78150E-18-3.69476E-18
 -1      1695 2.63117E-05-5.24092E-05 5.75382E-06-1.95143E-06 5.57941E-18-1.82790E-18
 -1      1696 2.49986E-05-2.98658E-05-1.28902E-06-1.14184E-05 5.04493E-18-2.80093E-18
 -1      1697 2.48970E-05-7.59062E-05 1.51357E-05 2.36836E-06 4.73746E-18-1.49141E-18
 -1      1698 1.95889E-05-5.87741E-05 1.13433E-05 6.08289E-06 5.33292E-18-2.00112E-18
 -1      1699 2.38483E-05-7.98553E-05 1.73437E-05-5.08766E-06 1.48008E-18-1.30909E-18
 -1      1700 2.36250E-05-7.90099E-05 1.71387E-05 5.35882E-06 3.94294E-18-1.06832E-18
 -1      1701 1.93167E-05-5.79867E-05 1.12852E-05-5.29407E-06-1.48231E-18-1.68591E-18
 -1      1702 2.48418E-05-7.59144E-05 1.53226E-05-1.12630E-06 5.42101E-19-1.32624E-18
 -1      1703 2.54565E-05-2.76367E-05-2.21378E-06 1.28944E-05-1.89905E-18-1.09691E-18
 -1      1704 2.64831E-05-5.18266E-05 5.43604E-06 2.02614E-06-1.97443E-18-6.42580E-19
 -1      1705 5.26175E-05-5.88081E-06-2.06245E-05 4.31633E-05-2.28191E-18-1.72371E-18
 -1      1706 3.77754E-05-2.14647E-05-1.06109E-05 2.04521E-05-2.45724E-18-1.35864E-18
 -1      1707 1.06081E-04-6.87451E-06-4.03399E-05 7.10363E-05-2.49028E-18-6.00462E-18
 -1      1708 7.17789E-05-3.57631E-06-3.02971E-05 5.08415E-05-1.69152E-18-3.48808E-18
 -1      1709 1.78403E-04-3.04414E-05-5.85868E-05 7.63707E-05-3.62445E-18-9.46813E-18
 -1      1710 1.31826E-04-1.16766E-05-4.95792E-05 7.32378E-05-3.36230E-18-7.42170E-18
 -1      1711 2.39263E-04-5.73362E-05-7.14790E-05 4.76563E-05-2.01959E-18-1.09843E-17
 -1      1712 2.01946E-04-3.78575E-05-6.57161E-05 6.83397E-05-3.00485E-18-1.00577E-17
 -1      1713 2.60537E-04-6.62066E-05-7.64090E-05-5.58203E-06-7.21249E-19-8.84673E-18
 -1      1714 2.50082E-04-6.07426E-05-7.48515E-05 3.04420E-05-2.42611E-18-1.00412E-17
 -1      1715 2.36975E-04-5.29336E-05-7.27512E-05-5.45900E-05-9.14796E-19-4.74931E-18
 -1      1716 2.59123E-04-6.57867E-05-7.58285E-05-2.34056E-05-6.53909E-19-7.94644E-18
 -1      1717 1.75457E-04-2.46083E-05-6.07317E-05-7.85685E-05-2.78589E-18 7.12355E-19
 -1      1718 2.19587E-04-4.65574E-05-6.78646E-05-6.73412E-05-1.36076E-18-2.91718E-18
 -1      1719 1.03883E-04-4.87488E-06-4.16774E-05-6.70551E-05-2.79860E-18 1.89397E-18
 -1      1720 1.49784E-04-1.86292E-05-5.21331E-05-8.06434E-05-1.86135E-18 2.07523E-18
 -1      1721 5.16398E-05-8.44887E-06-2.09596E-05-3.71588E-05-5.51418E-18 3.53552E-18
 -1      1722 7.76943E-05-1.73029E-06-3.15211E-05-6.21917E-05-4.63496E-18 3.24329E-18
 -1      1723 2.93387E-05-3.70817E-05-1.80795E-06-8.14396E-06-2.19297E-18 3.66384E-18
 -1      1724 3.46341E-05-1.31162E-05-1.12645E-05-2.76710E-05-5.19401E-18 4.89162E-18
 -1      1725 2.61810E-05-6.89014E-05 1.16190E-05 2.55368E-06 8.08069E-19 9.83604E-19
 -1      1726 2.07980E-05-4.49101E-05 5.58855E-06-5.20374E-07-8.14846E-19 2.28191E-18
 -1      1727 2.58795E-05-8.33171E-05 1.76631E-05-2.11530E-06 5.51842E-18 1.62207E-18
 -1      1728 2.24858E-05-7.33078E-05 1.54281E-05 6.63115E-06 1.89354E-18 2.37741E-18
 -1      1729 1.06272E-04-3.23445E-05-3.11309E-05 4.71557E-05 2.08285E-18-4.30293E-19
 -1      1730 6.73416E-05-3.83678E-05-1.40888E-05 3.87255E-05 3.14588E-18 7.45389E-20
 -1      1731 9.54572E-05-2.82767E-05-2.88160E-05 5.24172E-07-1.81065E-18-8.67015E-19
 -1      1732 9.56717E-05-2.77360E-05-2.91416E-05 1.68096E-06-4.38306E-19 1.95246E-19
 -1      1733 1.97005E-05-5.30342E-05 9.76308E-06 1.40267E-05 3.91117E-18 7.08755E-19
 -1      1734 3.79850E-05-4.71026E-05 3.74596E-07 2.64554E-05 4.72475E-18 5.90197E-19
 -1      1735 1.26954E-05-5.43840E-05 1.30839E-05 4.62189E-07 3.43895E-18 2.68891E-18
 -1      1736 1.48542E-04-3.08354E-05-4.77361E-05 4.84374E-05-2.85027E-19-4.87891E-19
 -1      1737 1.85257E-04-3.21964E-05-6.11785E-05 3.81098E-05-4.53110E-19-4.72644E-19
 -1      1738 2.08844E-04-3.39653E-05-6.96535E-05 1.96934E-05 4.49774E-19-1.99773E-18
 -1      1739 2.17148E-04-3.59456E-05-7.19624E-05-2.41859E-06 2.49959E-18-1.44229E-18
 -1      1740 2.04199E-04-3.54806E-05-6.71945E-05-2.42803E-05 2.35793E-18-2.79944E-18
 -1      1741 1.70975E-04-3.47578E-05-5.53960E-05-3.30385E-05 3.02798E-18-3.22381E-18
 -1      1742 1.32517E-04-3.56375E-05-3.99206E-05-4.04957E-05 1.95919E-18-3.16113E-18
 -1      1743 8.65743E-05-3.45788E-05-2.27823E-05-4.15090E-05 3.22296E-18-3.51942E-18
 -1      1744 5.15203E-05-4.09849E-05-7.00261E-06-3.19890E-05 3.90059E-18-3.36357E-18
 -1      1745 2.73163E-05-4.79131E-05 5.15232E-06-2.08176E-05 4.57991E-18-1.57146E-18
 -1      1746 1.41941E-05-5.45246E-05 1.24562E-05-6.15786E-06 2.46656E-18-2.30732E-18
 -1      1747 1.40301E-05-5.40251E-05 1.24643E-05 6.06715E-06 7.21037E-19-2.08794E-18
 -1      1748 2.77091E-05-4.75348E-05 4.92694E-06 2.12035E-05-7.22519E-19-1.46050E-18
 -1      1749 5.58711E-05-4.13264E-05-8.48897E-06 3.35713E-05-1.59581E-18-7.37766E-19
 -1      1750 9.32229E-05-3.41584E-05-2.56683E-05 4.23433E-05-1.36372E-18-3.24837E-18
 -1      1751 1.38054E-04-3.13930E-05-4.37450E-05 4.58218E-05-1.07997E-18-6.40696E-18
 -1      1752 1.81994E-04-3.36535E-05-5.93637E-05 3.70437E-05-1.73059E-18-7.28702E-18
 -1      1753 2.09812E-04-3.51844E-05-6.93804E-05 1.68126E-05-2.06443E-18-7.34335E-18
 -1      1754 2.17643E-04-3.60929E-05-7.20330E-05-8.06642E-06-2.08667E-18-6.25894E-18
 -1      1755 2.02680E-04-3.46081E-05-6.68217E-05-3.14491E-05-2.34628E-18-4.91025E-18
 -1      1756 1.65781E-04-3.19577E-05-5.39306E-05-4.44315E-05-1.60852E-18-2.54703E-18
 -1      1757 1.19419E-04-3.22817E-05-3.61708E-05-4.79870E-05-2.26835E-18-8.60585E-19
 -1      1758 7.40587E-05-3.69812E-05-1.71925E-05-4.07155E-05-1.39422E-18 2.55253E-18
 -1      1759 4.04132E-05-4.64584E-05-8.93795E-07-2.76860E-05 1.50602E-18 3.34472E-18
 -1      1760 2.02404E-05-5.41423E-05 9.78236E-06-1.41568E-05 3.13402E-18 2.04982E-18
 -1      1761 1.06054E-04-2.31708E-05-3.56048E-05-1.68545E-05-1.56898E-18 4.57250E-18
 -1      1762 8.91413E-05-1.05808E-05-3.37946E-05-1.33246E-05-1.69713E-18-2.77758E-18
 -1      1763 9.04852E-05-1.16349E-05-3.39354E-05-1.51384E-05-2.02615E-18-2.20607E-18
 -1      1764 9.24905E-05-1.38744E-05-3.38543E-05-1.60044E-05-2.10576E-18-1.50158E-18
 -1      1765 9.42073E-05-1.58206E-05-3.40985E-05-1.76659E-05-2.31834E-18-5.08855E-19
 -1      1766 9.34144E-05-1.63447E-05-3.30456E-05-1.37824E-05-2.19464E-18-1.71453E-18
 -1      1767 8.62076E-05-7.67068E-06-3.37302E-05-7.86853E-06-7.22395E-19-3.58515E-18
 -1      1768 8.66102E-05-7.97121E-06-3.37644E-05-9.25690E-06-9.83041E-19-3.53619E-18
 -1      1769 8.55952E-05-7.03780E-06-3.37269E-05-5.32373E-06-3.25368E-19-3.65643E-18
 -1      1770 8.58285E-05-7.21524E-06-3.37422E-05-6.62848E-06-5.22609E-19-3.64736E-18
 -1      1771 8.75938E-05-9.86943E-06-3.33430E-05-6.93665E-06-7.05180E-19-3.52873E-18
 -1      1772 8.52612E-05-6.67962E-06-3.37302E-05-2.89045E-06 1.10968E-19-3.52554E-18
 -1      1773 8.53817E-05-6.77398E-06-3.37361E-05-4.13069E-06-9.41150E-20-3.57345E-18
 -1      1774 8.69604E-05-9.15828E-06-3.33763E-05-4.54058E-06-2.21495E-19-3.51762E-18
 -1      1775 8.51307E-05-6.53156E-06-3.37337E-05-5.17828E-07 5.66418E-19-3.41083E-18
 -1      1776 8.51662E-05-6.56005E-06-3.37351E-05-1.72802E-06 3.57425E-19-3.48845E-18
 -1      1777 8.66287E-05-8.77919E-06-3.33965E-05-2.21861E-06 2.51054E-19-3.38394E-18
 -1      1778 8.51759E-05-6.56894E-06-3.37353E-05 1.84596E-06 9.37098E-19-3.31110E-18
 -1      1779 8.51343E-05-6.53606E-06-3.37336E-05 6.34808E-07 7.45102E-19-3.37065E-18
 -1      1780 8.65307E-05-8.66561E-06-3.34031E-05 6.54269E-08 7.03650E-19-3.27420E-18
 -1      1781 8.54067E-05-6.79893E-06-3.37362E-05 4.25290E-06 1.30234E-18-3.16712E-18
 -1      1782 8.52789E-05-6.69835E-06-3.37302E-05 3.00961E-06 1.15436E-18-3.29108E-18
 -1      1783 8.66461E-05-8.79850E-06-3.33958E-05 2.35053E-06 1.12632E-18-3.20726E-18
 -1      1784 8.58631E-05-7.25180E-06-3.37415E-05 6.71492E-06 1.62840E-18-2.85045E-18
 -1      1785 8.56253E-05-7.06971E-06-3.37267E-05 5.42734E-06 1.45030E-18-3.03407E-18
 -1      1786 8.69938E-05-9.19514E-06-3.33748E-05 4.65484E-06 1.46978E-18-2.98024E-18
 -1      1787 8.66760E-05-8.04121E-06-3.37622E-05 9.37714E-06 2.09297E-18-2.33831E-18
 -1      1788 8.62553E-05-7.72478E-06-3.37285E-05 7.95607E-06 1.85772E-18-2.63835E-18
 -1      1789 8.76454E-05-9.92730E-06-3.33405E-05 7.03075E-06 1.88317E-18-2.60070E-18
 -1      1790 8.80879E-05-9.38844E-06-3.38175E-05 1.22564E-05 2.45963E-18-1.51656E-18
 -1      1791 8.73480E-05-8.83073E-06-3.37454E-05 1.06633E-05 2.23941E-18-2.01046E-18
 -1      1792 8.87661E-05-1.11616E-05-3.32898E-05 9.50552E-06 2.29863E-18-1.99317E-18
 -1      1793 9.06316E-05-1.18402E-05-3.39276E-05 1.53046E-05 2.67775E-18-1.35711E-19
 -1      1794 8.92512E-05-1.07410E-05-3.37877E-05 1.35150E-05 2.53125E-18-9.73135E-19
 -1      1795 9.06629E-05-1.32236E-05-3.32069E-05 1.19777E-05 2.60611E-18-1.06004E-18
 -1      1796 9.58767E-05-1.70347E-05-3.39934E-05 1.76920E-05 2.46761E-18 2.46148E-18
 -1      1797 9.28569E-05-1.43433E-05-3.38271E-05 1.61954E-05 2.49875E-18 8.98914E-19
 -1      1798 9.39702E-05-1.68873E-05-3.30242E-05 1.38963E-05 2.67173E-18 4.18117E-19
 -1      1799 1.01926E-04-2.50948E-05-3.33597E-05 1.44236E-05 2.02923E-18 5.50730E-18
 -1      1800 9.80775E-05-1.96168E-05-3.36256E-05 1.69655E-05 2.26861E-18 3.51206E-18
 -1      1801 9.73300E-05-2.18545E-05-3.24278E-05 1.32499E-05 2.46505E-18 2.41637E-18
 -1      1802 9.87534E-05-2.61357E-05-3.13428E-05 9.43599E-06 2.05609E-18 4.87314E-18
 -1      1803 1.00156E-04-1.95630E-05-3.42187E-05-1.88707E-05-2.05904E-18 1.41179E-18
 -1      1804 9.53117E-05-2.72859E-05-2.91854E-05 4.06799E-06 1.63520E-18 3.85327E-18
 -1      1805 9.77425E-05-2.73912E-05-3.01947E-05 6.40199E-06 1.73748E-18 4.43581E-18
 -1      1806 9.75772E-05-2.56151E-05-3.08329E-05 8.76121E-06 2.08971E-18 3.04166E-18
 -1      1807 9.98150E-05-2.25400E-05-3.28368E-05-1.44690E-05-2.16576E-18 6.66721E-19
 -1      1808 9.69620E-05-2.69805E-05-2.98770E-05-5.70632E-06-1.75497E-18 3.70050E-19
 -1      1809 9.51523E-05-2.70352E-05-2.91662E-05-3.90015E-06-1.50526E-18 2.08450E-21
 -1      1810 9.43320E-05-2.72354E-05-2.86587E-05-2.42465E-06-1.47922E-18 5.65328E-20
 -1      1811 9.35593E-05-2.73155E-05-2.83534E-05-1.57136E-06-1.22336E-18-3.56101E-19
 -1      1812 9.55060E-05-2.65449E-05-2.95750E-05-4.47775E-06-1.71678E-18-6.97647E-19
 -1      1813 9.30342E-05-2.73663E-05-2.80844E-05-7.44733E-07-9.76067E-19-4.25723E-19
 -1      1814 9.27319E-05-2.74298E-05-2.79620E-05-3.06981E-07-7.98888E-19-7.22512E-19
 -1      1815 9.42943E-05-2.72203E-05-2.87662E-05-1.83319E-06-1.41702E-18-6.58505E-19
 -1      1816 9.24551E-05-2.74570E-05-2.78256E-05 1.47336E-07-7.63254E-19-7.94629E-19
 -1      1817 9.24223E-05-2.75327E-05-2.77953E-05 3.70598E-07-6.40403E-19-1.00711E-18
 -1      1818 9.35921E-05-2.75274E-05-2.83298E-05-3.68510E-07-9.39525E-19-8.68510E-19
 -1      1819 9.23176E-05-2.75637E-05-2.77367E-05 6.09280E-07-6.26091E-19-9.47806E-19
 -1      1820 9.24304E-05-2.76482E-05-2.77552E-05 7.12287E-07-5.28354E-19-1.20827E-18
 -1      1821 9.32685E-05-2.77114E-05-2.81081E-05 4.31706E-07-7.06179E-19-9.86855E-19
 -1      1822 9.24342E-05-2.76857E-05-2.77428E-05 8.22174E-07-4.99918E-19-1.35087E-18
 -1      1823 9.26193E-05-2.77716E-05-2.77868E-05 8.54871E-07-4.84454E-19-1.49104E-18
 -1      1824 9.32020E-05-2.78536E-05-2.80147E-05 8.40578E-07-7.54379E-19-1.03371E-18
 -1      1825 9.26861E-05-2.78125E-05-2.78010E-05 8.87192E-07-5.67074E-19-1.67671E-18
 -1      1826 9.28993E-05-2.78942E-05-2.78564E-05 8.78837E-07-4.81686E-19-1.56259E-18
 -1      1827 9.32933E-05-2.79759E-05-2.79982E-05 1.01359E-06-5.97057E-19-1.37735E-18
 -1      1828 9.29987E-05-2.79350E-05-2.78850E-05 8.65504E-07-4.39261E-19-1.62151E-18
 -1      1829 9.32139E-05-2.80090E-05-2.79434E-05 8.34429E-07-1.69854E-19-1.61317E-18
 -1      1830 9.34718E-05-2.80836E-05-2.80263E-05 1.04491E-06-4.99885E-19-1.82584E-18
 -1      1831 9.33261E-05-2.80472E-05-2.79786E-05 7.96120E-07-1.45560E-19-1.74060E-18
 -1      1832 9.35283E-05-2.81119E-05-2.80349E-05 7.54256E-07-2.85684E-19-1.95608E-18
 -1      1833 9.36904E-05-2.81771E-05-2.80784E-05 9.94337E-07-4.45032E-19-1.74118E-18
 -1      1834 9.36414E-05-2.81462E-05-2.80719E-05 7.04697E-07-4.70692E-19-1.97011E-18
 -1      1835 9.38236E-05-2.82010E-05-2.81237E-05 6.59966E-07-3.71640E-19-1.93651E-18
 -1      1836 9.39191E-05-2.82565E-05-2.81415E-05 9.01154E-07-3.86737E-19-1.68936E-18
 -1      1837 9.39309E-05-2.82309E-05-2.81598E-05 6.08402E-07-3.70077E-19-2.22798E-18
 -1      1838 9.40908E-05-2.82765E-05-2.82060E-05 5.66131E-07-2.40437E-19-2.20452E-18
 -1      1839 9.41407E-05-2.83224E-05-2.82077E-05 7.91658E-07-5.10028E-19-1.95728E-18
 -1      1840 9.41898E-05-2.83020E-05-2.82401E-05 5.18887E-07-1.71439E-20-2.23888E-18
 -1      1841 9.43286E-05-2.83395E-05-2.82809E-05 4.82740E-07 8.97082E-20-2.16142E-18
 -1      1842 9.43465E-05-2.83758E-05-2.82728E-05 6.83720E-07-1.61809E-19-1.65243E-18
 -1      1843 9.44193E-05-2.83611E-05-2.83128E-05 4.44285E-07 3.24792E-21-2.15402E-18
 -1      1844 9.45410E-05-2.83921E-05-2.83491E-05 4.16920E-07-8.77999E-20-1.92116E-18
 -1      1845 9.45346E-05-2.84185E-05-2.83351E-05 5.89758E-07 1.14032E-19-1.53849E-18
 -1      1846 9.46255E-05-2.84107E-05-2.83794E-05 3.90637E-07-3.68929E-19-2.16402E-18
 -1      1847 9.47356E-05-2.84371E-05-2.84128E-05 3.74194E-07-5.34773E-19-1.90436E-18
 -1      1848 9.47073E-05-2.84525E-05-2.83948E-05 5.18810E-07-3.75380E-19-1.66473E-18
 -1      1849 9.48175E-05-2.84539E-05-2.84427E-05 3.62947E-07-5.14000E-19-1.99823E-18
 -1      1850 9.49233E-05-2.84778E-05-2.84752E-05 3.59411E-07-3.14261E-19-2.10148E-18
 -1      1851 9.48706E-05-2.84800E-05-2.84533E-05 4.78055E-07-5.60135E-19-1.95863E-18
 -1      1852 9.50077E-05-2.84942E-05-2.85063E-05 3.65980E-07-4.84547E-19-2.30891E-18
 -1      1853 9.51177E-05-2.85181E-05-2.85404E-05 3.77462E-07-3.22823E-19-2.66074E-18
 -1      1854 9.50332E-05-2.85038E-05-2.85132E-05 4.73940E-07-7.74984E-19-1.87460E-18
 -1      1855 9.52109E-05-2.85357E-05-2.85750E-05 4.04854E-07-1.52310E-19-2.75563E-18
 -1      1856 9.53353E-05-2.85624E-05-2.86136E-05 4.33792E-07-6.53579E-19-2.50560E-18
 -1      1857 9.52063E-05-2.85268E-05-2.85780E-05 5.13027E-07-4.55873E-19-2.09799E-18
 -1      1858 9.54445E-05-2.85832E-05-2.86541E-05 4.85446E-07-6.92274E-19-2.33328E-18
 -1      1859 9.55953E-05-2.86160E-05-2.87008E-05 5.34718E-07-2.17468E-20-2.34964E-18
 -1      1860 9.54034E-05-2.85522E-05-2.86522E-05 6.02572E-07-6.58489E-19-1.86651E-18
 -1      1861 9.57291E-05-2.86421E-05-2.87501E-05 6.14590E-07 2.82961E-19-2.73657E-18
 -1      1862 9.59199E-05-2.86850E-05-2.88089E-05 6.87534E-07 2.48133E-19-2.87149E-18
 -1      1863 9.56403E-05-2.85840E-05-2.87409E-05 7.50846E-07-1.55784E-19-2.04717E-18
 -1      1864 9.60882E-05-2.87190E-05-2.88704E-05 8.00022E-07 6.09777E-20-2.54653E-18
 -1      1865 9.63350E-05-2.87767E-05-2.89457E-05 9.00300E-07-5.10879E-20-2.40077E-18
 -1      1866 9.59355E-05-2.86269E-05-2.88498E-05 9.67144E-07 2.75874E-19-2.41488E-18
 -1      1867 9.65488E-05-2.88220E-05-2.90229E-05 1.04994E-06-5.75536E-20-1.81387E-18
 -1      1868 9.68692E-05-2.88998E-05-2.91199E-05 1.18118E-06 2.31616E-19-1.27178E-18
 -1      1869 9.63097E-05-2.86868E-05-2.89853E-05 1.26135E-06 3.50722E-19-1.27109E-18
 -1      1870 9.71406E-05-2.89603E-05-2.92166E-05 1.37196E-06 3.12084E-19-1.41948E-18
 -1      1871 9.75541E-05-2.90650E-05-2.93406E-05 1.53703E-06 5.43396E-19-1.48816E-18
 -1      1872 9.67863E-05-2.87713E-05-2.91543E-05 1.64287E-06 1.20190E-19-6.21759E-19
 -1      1873 9.78961E-05-2.91456E-05-2.94605E-05 1.77121E-06 2.88729E-19-1.98725E-18
 -1      1874 9.84228E-05-2.92849E-05-2.96168E-05 1.97089E-06-1.17053E-19-1.60603E-18
 -1      1875 9.73908E-05-2.88905E-05-2.93632E-05 2.11849E-06 2.23826E-19-1.48059E-18
 -1      1876 9.88484E-05-2.93919E-05-2.97627E-05 2.24686E-06-1.91372E-19-1.70031E-18
 -1      1877 9.95070E-05-2.95748E-05-2.99560E-05 2.47757E-06-5.61862E-20-9.64729E-19
 -1      1878 9.81499E-05-2.90577E-05-2.96177E-05 2.68880E-06 1.92237E-19-1.48846E-18
 -1      1879 1.00029E-04-2.97162E-05-3.01295E-05 2.78646E-06-3.84489E-19-1.05380E-18
 -1      1880 1.00833E-04-2.99530E-05-3.03622E-05 3.03668E-06 1.63989E-20-1.08635E-18
 -1      1881 9.90907E-05-2.92920E-05-2.99213E-05 3.34211E-06-1.05932E-19-6.53345E-19
 -1      1882 1.01461E-04-3.01398E-05-3.05623E-05 3.35714E-06 1.07323E-19-9.34615E-19
 -1      1883 1.02414E-04-3.04410E-05-3.08330E-05 3.60186E-06 4.78634E-19-1.17242E-18
 -1      1884 1.00239E-04-2.96199E-05-3.02733E-05 4.04516E-06 1.30597E-19-3.05742E-19
 -1      1885 1.03156E-04-3.06878E-05-3.10546E-05 3.89256E-06 8.13572E-19-1.67495E-18
 -1      1886 1.04240E-04-3.10630E-05-3.13551E-05 4.08587E-06 1.01576E-18-1.35280E-18
 -1      1887 1.01615E-04-3.00786E-05-3.06668E-05 4.72943E-06 3.59472E-19-3.80013E-19
 -1      1888 1.05097E-04-3.13883E-05-3.15874E-05 4.27604E-06 7.61748E-19-1.56280E-18
 -1      1889 1.06261E-04-3.18421E-05-3.18992E-05 4.34275E-06-8.05751E-22-1.24046E-18
 -1      1890 1.03232E-04-3.07180E-05-3.10858E-05 5.27295E-06 7.24888E-19-1.24988E-18
 -1      1891 1.07224E-04-3.22656E-05-3.21247E-05 4.32305E-06-4.27319E-19-1.56677E-18
 -1      1892 1.08369E-04-3.27887E-05-3.24151E-05 4.15379E-06 1.68492E-19-1.15791E-18
 -1      1893 1.05087E-04-3.15975E-05-3.15038E-05 5.48042E-06 1.20038E-19-1.64728E-18
 -1      1894 1.09408E-04-3.33212E-05-3.26102E-05 3.77454E-06 1.18075E-19-7.14443E-19
 -1      1895 1.10370E-04-3.38729E-05-3.28316E-05 3.23437E-06 5.85042E-19-1.37850E-19
 -1      1896 1.07148E-04-3.27672E-05-3.18839E-05 5.07097E-06 3.83188E-19-4.73156E-19
 -1      1897 1.11414E-04-3.44916E-05-3.29704E-05 2.32635E-06 5.06962E-19-4.89413E-19
 -1      1898 1.11958E-04-3.49715E-05-3.30652E-05 1.29484E-06 6.79929E-19-4.11092E-20
 -1      1899 1.09314E-04-3.42183E-05-3.21862E-05 3.69666E-06 6.08639E-19 4.74421E-20
 -1      1900 1.12858E-04-3.55740E-05-3.31291E-05-2.61063E-07 8.40416E-22-3.14324E-19
 -1      1901 1.12699E-04-3.57912E-05-3.30451E-05-1.79751E-06 3.05666E-19-4.64699E-19
 -1      1902 1.11360E-04-3.57825E-05-3.23827E-05 1.03374E-06 3.56356E-19-9.83476E-19
 -1      1903 1.13190E-04-3.61450E-05-3.30355E-05-3.92442E-06 1.45478E-19-3.78134E-19
 -1      1904 1.12081E-04-3.58258E-05-3.27525E-05-5.73088E-06-1.20385E-19-5.14642E-19
 -1      1905 1.12844E-04-3.69988E-05-3.24797E-05-2.99420E-06-3.06487E-20-6.83093E-19
 -1      1906 1.11806E-04-3.55829E-05-3.26983E-05-7.95942E-06-3.00472E-19-1.03235E-18
 -1      1907 1.09705E-04-3.44915E-05-3.22570E-05-9.44075E-06-2.89288E-19-6.16488E-19
 -1      1908 1.13092E-04-3.70729E-05-3.25317E-05-7.84255E-06-5.88880E-19 2.85113E-20
 -1      1909 1.08424E-04-3.33925E-05-3.22045E-05-1.08196E-05 1.89811E-19-2.68377E-19
 -1      1910 1.05705E-04-3.16147E-05-3.17094E-05-1.11346E-05-3.24991E-20-5.57791E-19
 -1      1911 1.11428E-04-3.51733E-05-3.26242E-05-1.19920E-05 4.58407E-20 6.23694E-19
 -1      1912 1.03716E-04-2.98985E-05-3.16810E-05-1.05973E-05 4.10897E-19-6.38398E-19
 -1      1913 1.01220E-04-2.80755E-05-3.12672E-05-9.17296E-06 5.85062E-19-1.69910E-19
 -1      1914 1.07885E-04-3.13198E-05-3.27983E-05-1.31375E-05 3.95852E-19 1.00625E-18
 -1      1915 9.95053E-05-2.66428E-05-3.12375E-05-6.40437E-06 7.71488E-19-4.18461E-19
 -1      1916 9.82269E-05-2.57653E-05-3.10027E-05-3.58313E-06 6.20809E-19-5.24993E-19
 -1      1917 1.03837E-04-2.70422E-05-3.29717E-05-9.56377E-06 4.35375E-19-7.05330E-19
 -1      1918 9.78998E-05-2.56441E-05-3.09079E-05 2.14713E-07 8.09181E-20-9.28403E-20
 -1      1919 9.82765E-05-2.61920E-05-3.08942E-05 3.07799E-06-9.80573E-19-1.47794E-19
 -1      1920 1.01656E-04-2.50226E-05-3.29501E-05-2.12247E-06 4.94363E-19-1.17899E-18
 -1      1921 9.93566E-05-2.73902E-05-3.07505E-05 5.96078E-06-2.04124E-18 3.25790E-19
 -1      1922 1.00996E-04-2.89407E-05-3.09263E-05 7.49708E-06-2.19468E-18-4.55545E-20
 -1      1923 1.02553E-04-2.65368E-05-3.26414E-05 5.46151E-06-1.11519E-18 3.31491E-19
 -1      1924 1.02470E-04-3.05249E-05-3.07772E-05 8.18271E-06-1.15262E-18 4.14245E-19
 -1      1925 1.04401E-04-3.20977E-05-3.10401E-05 7.95411E-06 1.01940E-18 5.70377E-19
 -1      1926 1.05442E-04-3.03944E-05-3.21491E-05 9.35273E-06-1.18843E-18 1.81162E-18
 -1      1927 1.05224E-04-3.31063E-05-3.09186E-05 6.64862E-06 2.43812E-18 1.94685E-19
 -1      1928 1.06574E-04-3.40036E-05-3.11378E-05 5.19234E-06 1.96637E-18 1.00874E-18
 -1      1929 1.08028E-04-3.40535E-05-3.16486E-05 8.46012E-06 1.33155E-18 1.14506E-18
 -1      1930 1.06387E-04-3.41281E-05-3.10302E-05 2.97279E-06 1.09650E-18 1.89566E-18
 -1      1931 1.06759E-04-3.42152E-05-3.11049E-05 1.17205E-06 1.54994E-18 2.98997E-18
 -1      1932 1.08778E-04-3.57634E-05-3.12431E-05 4.39734E-06 2.51925E-18 1.38007E-18
 -1      1933 1.05780E-04-3.36779E-05-3.09779E-05-9.18979E-07 1.62498E-18 3.29827E-18
 -1      1934 1.05234E-04-3.31746E-05-3.08789E-05-2.37816E-06 1.41008E-18 3.47842E-18
 -1      1935 1.07571E-04-3.53686E-05-3.09189E-05-4.07577E-07 1.86224E-18 1.65288E-18
 -1      1936 1.03843E-04-3.23199E-05-3.07168E-05-3.74636E-06 4.86845E-19 3.47358E-18
 -1      1937 1.02691E-04-3.15162E-05-3.04857E-05-4.51948E-06 6.41723E-19 3.05381E-18
 -1      1938 1.05081E-04-3.36277E-05-3.06188E-05-4.18981E-06 6.55206E-19 1.98016E-18
 -1      1939 1.01197E-04-3.05880E-05-3.03014E-05-4.97594E-06 4.66507E-19 2.03518E-18
 -1      1940 9.98224E-05-2.97083E-05-3.00210E-05-4.97429E-06-3.23738E-19 2.98645E-18
 -1      1941 1.02063E-04-3.13524E-05-3.03125E-05-6.14037E-06-4.61559E-19 1.72523E-18
 -1      1942 9.85614E-05-2.89560E-05-2.98515E-05-4.53869E-06-9.20609E-19 3.18431E-18
 -1      1943 9.73392E-05-2.82090E-05-2.95870E-05-3.87151E-06-1.15833E-18 2.14241E-18
 -1      1944 9.68611E-05-2.75304E-05-2.97167E-05-4.64046E-06-2.36170E-18 1.71866E-18
 -1      1945 9.91743E-05-2.91120E-05-3.00246E-05-6.12562E-06-9.38469E-19 3.76237E-18
 -1      1946 9.32112E-05-2.73627E-05-2.81929E-05 1.60680E-06 1.25822E-18 3.05477E-18
 -1      1947 9.44063E-05-2.74681E-05-2.86297E-05 2.67759E-06 1.37602E-18 3.57337E-18
 -1      1948 9.52301E-05-2.70473E-05-2.92266E-05 4.05559E-06 1.69457E-18 2.46235E-18
 -1      1949 9.21578E-05-2.73488E-05-2.77507E-05 3.50775E-07 1.04230E-18 2.38348E-18
 -1      1950 9.26529E-05-2.73813E-05-2.79234E-05 8.98514E-07 1.05891E-18 2.77120E-18
 -1      1951 9.36247E-05-2.73682E-05-2.84025E-05 1.58762E-06 1.28868E-18 1.94108E-18
 -1      1952 9.17805E-05-2.73859E-05-2.75820E-05-3.01636E-07 7.74168E-19 2.10108E-18
 -1      1953 9.18965E-05-2.73595E-05-2.76293E-05-9.60228E-09 8.36382E-19 2.33901E-18
 -1      1954 9.27921E-05-2.74830E-05-2.79996E-05 2.75922E-07 1.01805E-18 1.63531E-18
 -1      1955 9.18015E-05-2.74757E-05-2.75581E-05-6.26155E-07 1.97661E-19 1.71790E-18
 -1      1956 9.17151E-05-2.74142E-05-2.75422E-05-4.73953E-07 4.47392E-19 1.97327E-18
 -1      1957 9.24762E-05-2.75755E-05-2.78247E-05-4.16314E-07 6.04742E-19 1.24134E-18
 -1      1958 9.20424E-05-2.75967E-05-2.76126E-05-7.62482E-07 3.38915E-19 1.33616E-18
 -1      1959 9.18535E-05-2.75186E-05-2.75645E-05-6.91957E-07 1.80468E-19 1.50215E-18
 -1      1960 9.24771E-05-2.76800E-05-2.77784E-05-7.59695E-07 3.49452E-19 8.17320E-19
 -1      1961 9.23912E-05-2.77297E-05-2.77070E-05-7.88365E-07 5.75071E-19 1.19832E-18
 -1      1962 9.21583E-05-2.76471E-05-2.76443E-05-7.66835E-07 5.29049E-19 1.47412E-18
 -1      1963 9.26585E-05-2.77943E-05-2.78049E-05-8.98911E-07 5.31647E-19 6.41129E-19
 -1      1964 9.27787E-05-2.78613E-05-2.78180E-05-7.50705E-07 6.29608E-19 6.71957E-19
 -1      1965 9.25365E-05-2.77816E-05-2.77511E-05-7.58197E-07 6.26366E-19 1.10478E-18
 -1      1966 9.29318E-05-2.79099E-05-2.78707E-05-9.17640E-07 7.64101E-19 6.78183E-19
 -1      1967 9.31631E-05-2.79836E-05-2.79313E-05-6.79379E-07 6.06468E-20 8.73227E-19
 -1      1968 9.29316E-05-2.79109E-05-2.78664E-05-7.02987E-07 3.60982E-19 8.17869E-19
 -1      1969 9.32403E-05-2.80197E-05-2.79545E-05-8.67540E-07 3.65989E-19 6.96348E-19
 -1      1970 9.35213E-05-2.80925E-05-2.80389E-05-5.93973E-07 5.70803E-19 7.95854E-19
 -1      1971 9.33109E-05-2.80286E-05-2.79792E-05-6.25103E-07 2.76220E-19 8.16447E-19
 -1      1972 9.35498E-05-2.81190E-05-2.80436E-05-7.81934E-07 3.47536E-19 7.25158E-19
 -1      1973 9.38426E-05-2.81866E-05-2.81367E-05-5.07530E-07 6.78909E-19 2.92260E-19
 -1      1974 9.36575E-05-2.81320E-05-2.80837E-05-5.40355E-07 7.04354E-19 5.66766E-19
 -1      1975 9.38411E-05-2.82058E-05-2.81305E-05-6.82864E-07 7.74375E-19 2.12547E-19
 -1      1976 9.41248E-05-2.82665E-05-2.82238E-05-4.28857E-07 9.57010E-19-4.09940E-19
 -1      1977 9.39649E-05-2.82205E-05-2.81775E-05-4.59352E-07 8.80827E-19-1.16503E-21
 -1      1978 9.41053E-05-2.82798E-05-2.82116E-05-5.85141E-07 1.02994E-18-3.05488E-19
 -1      1979 9.43715E-05-2.83339E-05-2.83008E-05-3.64084E-07 2.90026E-19-4.39558E-19
 -1      1980 9.42337E-05-2.82954E-05-2.82605E-05-3.89366E-07 3.83705E-19-3.54629E-19
 -1      1981 9.43410E-05-2.83421E-05-2.82857E-05-4.98918E-07 7.07598E-19-4.08410E-20
 -1      1982 9.45909E-05-2.83917E-05-2.83701E-05-3.17792E-07-4.16330E-19-1.99676E-19
 -1      1983 9.44701E-05-2.83588E-05-2.83343E-05-3.35632E-07-1.49765E-19-5.13814E-19
 -1      1984 9.45519E-05-2.83945E-05-2.83536E-05-4.31456E-07-1.06801E-19-1.48387E-19
 -1      1985 9.47944E-05-2.84434E-05-2.84350E-05-2.93842E-07-2.66955E-19-1.64105E-19
 -1      1986 9.46837E-05-2.84140E-05-2.84018E-05-3.02304E-07-2.40151E-19 1.48562E-19
 -1      1987 9.47456E-05-2.84398E-05-2.84172E-05-3.88416E-07-3.46455E-19-1.64663E-20
 -1      1988 9.49965E-05-2.84932E-05-2.85000E-05-2.96019E-07 2.69876E-19-2.60845E-19
 -1      1989 9.48875E-05-2.84648E-05-2.84668E-05-2.93169E-07-2.04512E-20-7.37533E-20
 -1      1990 9.49329E-05-2.84812E-05-2.84799E-05-3.74805E-07 2.45150E-19 3.42642E-19
 -1      1991 9.52141E-05-2.85461E-05-2.85702E-05-3.28499E-07 2.28071E-19-1.77898E-19
 -1      1992 9.50970E-05-2.85157E-05-2.85342E-05-3.12187E-07 3.96303E-19-1.10740E-19
 -1      1993 9.51270E-05-2.85224E-05-2.85457E-05-3.95701E-07 4.41702E-19-1.85438E-19
 -1      1994 9.54676E-05-2.86076E-05-2.86519E-05-3.96172E-07-4.00930E-19-5.28648E-19
 -1      1995 9.53309E-05-2.85719E-05-2.86097E-05-3.63875E-07 4.66149E-20-2.16657E-19
 -1      1996 9.53442E-05-2.85678E-05-2.86197E-05-4.56757E-07 2.85986E-19-1.51648E-19
 -1      1997 9.57804E-05-2.86845E-05-2.87522E-05-5.04797E-07-4.77918E-19-6.87446E-19
 -1      1998 9.56107E-05-2.86395E-05-2.86999E-05-4.53535E-07-1.42785E-19-4.78413E-19
 -1      1999 9.56033E-05-2.86226E-05-2.87077E-05-5.64514E-07-1.10157E-19-4.50684E-19
 -1      2000 9.61796E-05-2.87846E-05-2.88794E-05-6.60928E-07 4.49256E-19-5.20301E-19
 -1      2001 9.59615E-05-2.87256E-05-2.88125E-05-5.87273E-07-5.48021E-19-7.77482E-19
 -1      2002 9.59261E-05-2.86928E-05-2.88166E-05-7.26453E-07-4.20496E-19-5.86992E-19
 -1      2003 9.66960E-05-2.89171E-05-2.90428E-05-8.71512E-07 9.69999E-19-4.64310E-19
 -1      2004 9.64119E-05-2.88387E-05-2.89561E-05-7.71756E-07 1.03912E-18-2.53056E-19
 -1      2005 9.63375E-05-2.87856E-05-2.89539E-05-9.50721E-07 8.35662E-19-4.82666E-19
 -1      2006 9.73639E-05-2.90927E-05-2.92526E-05-1.14296E-06-7.72595E-20-1.15884E-18
 -1      2007 9.69942E-05-2.89886E-05-2.91405E-05-1.01352E-06 3.90341E-19-9.46773E-19
 -1      2008 9.68656E-05-2.89095E-05-2.91279E-05-1.24534E-06 6.15102E-19-7.81954E-19
 -1      2009 9.82199E-05-2.93236E-05-2.95192E-05-1.47938E-06-3.97232E-19-1.46018E-18
 -1      2010 9.77435E-05-2.91868E-05-2.93758E-05-1.31762E-06-4.65544E-19-1.69973E-18
 -1      2011 9.75407E-05-2.90750E-05-2.93473E-05-1.61659E-06-4.70103E-20-1.26124E-18
 -1      2012 9.93002E-05-2.96236E-05-2.98527E-05-1.87946E-06-8.32623E-19-7.21542E-19
 -1      2013 9.86966E-05-2.94463E-05-2.96723E-05-1.68516E-06-6.36990E-19-1.48555E-18
 -1      2014 9.83945E-05-2.92943E-05-2.96202E-05-2.06621E-06-5.99137E-19-1.26498E-18
 -1      2015 1.00636E-04-3.00076E-05-3.02604E-05-2.33131E-06-9.10987E-19 2.78809E-19
 -1      2016 9.98881E-05-2.97821E-05-3.00386E-05-2.10918E-06-9.72323E-19-3.30543E-19
 -1      2017 9.94573E-05-2.95826E-05-2.99533E-05-2.58651E-06-1.22346E-18-7.15168E-19
 -1      2018 1.02247E-04-3.04906E-05-3.07445E-05-2.80437E-06 7.05040E-19 1.35102E-18
 -1      2019 1.01345E-04-3.02101E-05-3.04801E-05-2.56807E-06-1.09914E-19 8.73083E-19
 -1      2020 1.00754E-04-2.99579E-05-3.03495E-05-3.15285E-06-4.31758E-19-5.30554E-21
 -1      2021 1.04126E-04-3.10860E-05-3.12975E-05-3.23762E-06 9.37857E-21 1.13416E-18
 -1      2022 1.03079E-04-3.07464E-05-3.09946E-05-3.01578E-06 8.13851E-19 1.66186E-18
 -1      2023 1.02298E-04-3.04416E-05-3.08049E-05-3.71223E-06 6.91142E-19 9.73827E-19
 -1      2024 1.06223E-04-3.18006E-05-3.18958E-05-3.52458E-06 4.62851E-20 1.10685E-18
 -1      2025 1.05068E-04-3.14045E-05-3.15680E-05-3.36858E-06-4.09441E-19 1.30961E-18
 -1      2026 1.04081E-04-3.10578E-05-3.13052E-05-4.16803E-06-2.28459E-19 2.25358E-18
 -1      2027 1.08420E-04-3.26264E-05-3.24929E-05-3.49859E-06-1.89246E-19 1.14665E-18
 -1      2028 1.07239E-04-3.21890E-05-3.21675E-05-3.49059E-06 2.26628E-19 1.05003E-18
 -1      2029 1.06056E-04-3.18285E-05-3.18210E-05-4.36286E-06 4.75111E-19 2.99793E-18
 -1      2030 1.10504E-04-3.35229E-05-3.30138E-05-2.93000E-06-9.80295E-19 1.26544E-18
 -1      2031 1.09441E-04-3.30820E-05-3.27356E-05-3.18521E-06-6.99375E-19 3.29152E-19
 -1      2032 1.08123E-04-3.27611E-05-3.23044E-05-4.06739E-06-2.42619E-19 2.03871E-18
 -1      2033 1.12140E-04-3.43869E-05-3.33564E-05-1.56006E-06-4.64194E-19 6.28260E-19
 -1      2034 1.11412E-04-3.40172E-05-3.31874E-05-2.21042E-06-1.06751E-18 9.46718E-19
 -1      2035 1.10094E-04-3.38178E-05-3.26899E-05-2.99419E-06-9.35978E-19 8.54660E-19
 -1      2036 1.12872E-04-3.50105E-05-3.34081E-05 7.89469E-07 2.45970E-20 6.29384E-19
 -1      2037 1.12752E-04-3.48372E-05-3.34181E-05-3.49494E-07-7.11375E-20 4.43878E-19
 -1      2038 1.11665E-04-3.48601E-05-3.29042E-05-8.72004E-07-3.15262E-19 5.45833E-19
 -1      2039 1.12180E-04-3.50545E-05-3.30850E-05 3.99908E-06-1.32746E-19 1.33521E-18
 -1      2040 1.12940E-04-3.52492E-05-3.33270E-05 2.42742E-06 2.99942E-19 1.34206E-18
 -1      2041 1.12391E-04-3.55796E-05-3.28897E-05 2.37676E-06-2.00078E-19 1.01901E-18
 -1      2042 1.09666E-04-3.41158E-05-3.23881E-05 7.37211E-06 6.99676E-19 1.05141E-18
 -1      2043 1.11443E-04-3.48365E-05-3.28629E-05 5.71339E-06 3.17611E-19 1.40551E-18
 -1      2044 1.11740E-04-3.54790E-05-3.26361E-05 6.34636E-06 4.09732E-19 1.75040E-18
 -1      2045 1.05399E-04-3.19961E-05-3.14446E-05 9.54274E-06 3.84859E-19 1.90126E-18
 -1      2046 1.08023E-04-3.32451E-05-3.20709E-05 8.47053E-06 3.39495E-19 1.16079E-18
 -1      2047 1.09326E-04-3.40652E-05-3.22039E-05 9.88001E-06 7.77391E-19 2.74433E-18
 -1      2048 1.00321E-04-2.91318E-05-3.04964E-05 8.97437E-06 2.63156E-19 7.49995E-19
 -1      2049 1.03178E-04-3.05897E-05-3.11155E-05 9.22105E-06 4.66407E-19 1.46734E-18
 -1      2050 1.05369E-04-3.13105E-05-3.17126E-05 1.12088E-05 9.67239E-19 2.71892E-18
 -1      2051 9.62324E-05-2.67343E-05-2.98014E-05 5.12535E-06 1.21081E-18 2.98659E-19
 -1      2052 9.83838E-05-2.77880E-05-3.02367E-05 6.90683E-06 2.14511E-19 5.19946E-19
 -1      2053 1.01097E-04-2.81540E-05-3.12861E-05 8.88432E-06 5.89442E-19 2.36122E-18
 -1      2054 9.49221E-05-2.61341E-05-2.95270E-05-5.93641E-07-1.50597E-18 5.98978E-19
 -1      2055 9.55535E-05-2.62496E-05-2.96597E-05 2.00740E-06-1.90477E-19-6.08904E-20
 -1      2056 9.83870E-05-2.62076E-05-3.09901E-05 3.20358E-06-4.41542E-19 1.87380E-19
 -1      2057 9.67702E-05-2.76035E-05-2.96882E-05-5.42769E-06-1.65901E-18 3.52710E-19
 -1      2058 9.57629E-05-2.67859E-05-2.95147E-05-3.27529E-06-8.07567E-19 7.66830E-19
 -1      2059 9.84980E-05-2.66287E-05-3.08437E-05-3.30990E-06-1.15711E-18 1.72408E-18
 -1      2060 1.00392E-04-3.00854E-05-3.01436E-05-7.26040E-06-9.74984E-19-5.41320E-19
 -1      2061 9.84145E-05-2.88731E-05-2.97772E-05-6.45391E-06-1.84137E-18-4.38419E-19
 -1      2062 1.00944E-04-2.90020E-05-3.08307E-05-7.51030E-06-1.30093E-18 5.13401E-19
 -1      2063 1.03740E-04-3.21587E-05-3.06550E-05-5.92095E-06-1.14611E-18 1.24830E-18
 -1      2064 1.01790E-04-3.11719E-05-3.02713E-05-6.48457E-06-5.30405E-19 4.45870E-19
 -1      2065 1.03962E-04-3.17820E-05-3.09070E-05-7.88563E-06-9.21840E-19-4.95971E-19
 -1      2066 1.05428E-04-3.30453E-05-3.09835E-05-2.76271E-06 1.34668E-18 1.11689E-18
 -1      2067 1.04255E-04-3.26053E-05-3.07394E-05-4.09801E-06-4.09269E-19 7.08212E-19
 -1      2068 1.05887E-04-3.35401E-05-3.09829E-05-5.17229E-06-1.25778E-19 7.97217E-19
 -1      2069 1.05152E-04-3.27599E-05-3.09905E-05 5.77002E-07 2.64908E-18 9.24847E-19
 -1      2070 1.05009E-04-3.28588E-05-3.09625E-05-8.37085E-07 2.59216E-18 1.84017E-18
 -1      2071 1.06044E-04-3.38073E-05-3.09514E-05-1.23171E-06 2.19808E-18 2.06228E-18
 -1      2072 1.03359E-04-3.17101E-05-3.06814E-05 2.99302E-06 1.66651E-18 3.36524E-19
 -1      2073 1.04084E-04-3.21757E-05-3.08524E-05 1.96708E-06 1.86274E-18 1.20028E-18
 -1      2074 1.04643E-04-3.29021E-05-3.07511E-05 2.26567E-06 1.86177E-18 1.86797E-18
 -1      2075 1.00767E-04-3.03181E-05-3.01753E-05 4.00050E-06 1.56991E-19-2.38294E-20
 -1      2076 1.01987E-04-3.09558E-05-3.04620E-05 3.58603E-06 1.43043E-18 2.66630E-19
 -1      2077 1.02275E-04-3.13676E-05-3.03992E-05 4.38432E-06 1.26248E-18 1.02352E-18
 -1      2078 9.81117E-05-2.89235E-05-2.96364E-05 3.52329E-06-4.67712E-19-9.59007E-19
 -1      2079 9.93953E-05-2.95644E-05-2.99341E-05 3.78977E-06-5.06216E-19-4.28142E-19
 -1      2080 9.95664E-05-2.96629E-05-2.99727E-05 4.80806E-06 1.36888E-19 8.04728E-19
 -1      2081 9.63128E-05-2.79992E-05-2.92557E-05 2.35001E-06-4.76084E-19-3.32310E-19
 -1      2082 9.73515E-05-2.85044E-05-2.95075E-05 3.10254E-06-5.03318E-19-8.78853E-19
 -1      2083 9.74628E-05-2.83616E-05-2.96332E-05 4.06437E-06-9.09168E-19 9.37609E-20
 -1      2084 9.60482E-05-2.73945E-05-2.94148E-05 2.93205E-06-7.71998E-19 1.04332E-18
 -1      2085 9.31651E-05-1.95222E-05-3.15527E-05 8.77173E-06 1.89395E-18 1.96739E-18
 -1      2086 9.40739E-05-2.17104E-05-3.09928E-05 8.14304E-06 1.15443E-18 1.95962E-18
 -1      2087 9.46557E-05-2.30690E-05-3.06540E-05 7.13834E-06 9.17026E-19 2.14715E-18
 -1      2088 9.53203E-05-2.48168E-05-3.01963E-05 6.19191E-06 1.84245E-19 3.45852E-18
 -1      2089 9.52959E-05-2.38814E-05-3.06334E-05 9.48466E-06 1.20545E-19 2.50606E-18
 -1      2090 9.54789E-05-2.54891E-05-2.99669E-05 5.06684E-06-1.65453E-19 2.54970E-18
 -1      2091 9.59212E-05-2.67477E-05-2.96251E-05 4.01134E-06-1.25977E-19 1.33902E-18
 -1      2092 9.65572E-05-2.71795E-05-2.97228E-05 4.73179E-06-3.74103E-19 9.55337E-19
 -1      2093 9.62012E-05-2.58948E-05-3.01353E-05 7.11716E-06-6.66236E-20 3.97393E-18
 -1      2094 9.12307E-05-1.54768E-05-3.24921E-05 9.35896E-06 2.78250E-19-1.69692E-18
 -1      2095 9.23318E-05-1.78340E-05-3.19126E-05 9.27606E-06 5.30001E-19 1.32327E-19
 -1      2096 9.35833E-05-2.07565E-05-3.12332E-05 1.12095E-05 2.77314E-19-2.86876E-19
 -1      2097 8.90315E-05-1.13331E-05-3.33599E-05 8.37638E-06-1.30666E-18-3.17709E-18
 -1      2098 9.01860E-05-1.35685E-05-3.28340E-05 9.04017E-06-8.11113E-19-6.53900E-19
 -1      2099 9.12582E-05-1.70167E-05-3.18204E-05 1.14716E-05-7.33974E-19-2.24176E-18
 -1      2100 8.71282E-05-7.99950E-06-3.39917E-05 5.59265E-06-7.59530E-19-2.79967E-18
 -1      2101 8.80254E-05-9.61804E-06-3.36240E-05 7.02680E-06-4.11579E-19-2.93627E-18
 -1      2102 8.86803E-05-1.32123E-05-3.23126E-05 9.63872E-06-8.65153E-19-2.19994E-18
 -1      2103 8.61369E-05-6.34048E-06-3.42737E-05 1.42257E-06-4.99930E-19-1.42035E-18
 -1      2104 8.64902E-05-6.95384E-06-3.41372E-05 3.36039E-06-8.20629E-20-2.20242E-18
 -1      2105 8.65989E-05-1.02948E-05-3.26376E-05 5.61750E-06 6.27188E-19-2.64154E-18
 -1      2106 8.64318E-05-6.86046E-06-3.41543E-05-3.12890E-06-3.51618E-19-1.25758E-18
 -1      2107 8.61164E-05-6.30857E-06-3.42775E-05-1.17431E-06-5.17960E-20-9.82466E-19
 -1      2108 8.57626E-05-9.15239E-06-3.27544E-05 1.56751E-07-4.26476E-19-1.65648E-18
 -1      2109 8.79106E-05-9.43049E-06-3.36585E-05-6.87784E-06-9.17585E-19-6.12074E-19
 -1      2110 8.70398E-05-7.85511E-06-3.40159E-05-5.40305E-06-6.64193E-19 6.20253E-20
 -1      2111 8.65044E-05-1.01715E-05-3.26491E-05-5.35251E-06-2.87300E-19-1.29400E-18
 -1      2112 9.00163E-05-1.32671E-05-3.28924E-05-8.98398E-06-9.58510E-19-1.52235E-18
 -1      2113 8.88863E-05-1.10878E-05-3.34042E-05-8.27417E-06-1.27334E-18-1.28790E-18
 -1      2114 8.85157E-05-1.29813E-05-3.23381E-05-9.47145E-06 1.87671E-19-1.01023E-18
 -1      2115 9.22048E-05-1.75862E-05-3.19643E-05-9.34672E-06 1.62558E-19 2.94855E-18
 -1      2116 9.10708E-05-1.51786E-05-3.25540E-05-9.38424E-06 5.23705E-20 5.96734E-19
 -1      2117 9.10594E-05-1.67267E-05-3.18574E-05-1.14535E-05 9.94407E-19 3.74349E-20
 -1      2118 9.40083E-05-2.15482E-05-3.10318E-05-8.27597E-06-7.67577E-19 6.03359E-19
 -1      2119 9.30730E-05-1.93309E-05-3.15978E-05-8.88308E-06-1.46553E-19 9.56368E-19
 -1      2120 9.34483E-05-2.05327E-05-3.12701E-05-1.13265E-05 1.49486E-18 1.33282E-18
 -1      2121 9.53188E-05-2.47494E-05-3.02273E-05-6.34172E-06-1.77466E-18 3.12760E-19
 -1      2122 9.45918E-05-2.29337E-05-3.06893E-05-7.27919E-06-1.86414E-18-1.79842E-19
 -1      2123 9.52417E-05-2.37549E-05-3.06646E-05-9.65434E-06 8.24368E-20-4.55767E-19
 -1      2124 5.42391E-05-4.30581E-05-5.53035E-06 3.96332E-05 3.48978E-18-2.30896E-19
 -1      2125 4.12101E-05-4.56625E-05 2.71683E-07 3.21625E-05 3.98360E-18-8.07011E-19
 -1      2126 1.42000E-05-3.45723E-05 7.77305E-06 5.23893E-06 2.25925E-18 1.78173E-18
 -1      2127 1.45124E-05-3.56077E-05 7.94347E-06-6.44687E-06 2.84772E-18 1.04820E-18
 -1      2128 2.83500E-05-4.13659E-05 4.27308E-06 2.66684E-05 3.47919E-18-7.17649E-19
 -1      2129 1.97748E-05-4.02584E-05 7.27816E-06 1.87307E-05 1.32815E-18 2.00959E-18
 -1      2130 4.19211E-05-4.00640E-05-1.54055E-06 3.70779E-05 2.29249E-18-5.21349E-19
 -1      2131 9.02212E-05-4.49919E-05-1.95264E-05 4.48424E-05 1.85839E-18-1.13291E-18
 -1      2132 7.22491E-05-4.77809E-05-1.17913E-05 3.93705E-05 2.60632E-18-7.05155E-19
 -1      2133 1.28658E-04-4.57917E-05-3.49739E-05 3.98007E-05 1.26123E-18-1.32307E-18
 -1      2134 1.09354E-04-4.81316E-05-2.69142E-05 3.81739E-05 1.74658E-18-1.01475E-18
 -1      2135 8.72678E-05-8.72472E-06-3.37497E-05-1.05247E-05-1.23153E-18-3.36070E-18
 -1      2136 8.79634E-05-9.25350E-06-3.38200E-05-1.21117E-05-1.52498E-18-3.08590E-18
 -1      2137 9.04689E-05-1.30774E-05-3.32341E-05-1.19231E-05-1.68260E-18-2.75490E-18
 -1      2138 8.86686E-05-1.10343E-05-3.32955E-05-9.41241E-06-1.17491E-18-3.30332E-18
 -1      2139 1.75164E-04-3.25071E-05-6.00425E-05 1.64740E-05 2.92650E-19 4.59939E-19
 -1      2140 1.63386E-04-3.41845E-05-5.48573E-05 2.19789E-05-5.96629E-20 4.56551E-19
 -1      2141 1.85499E-04-2.59337E-05-6.69888E-05 6.68618E-06 1.42640E-18-1.73885E-18
 -1      2142 1.78609E-04-2.63346E-05-6.42970E-05 1.28637E-05 4.92126E-19-5.20925E-20
 -1      2143 1.86191E-04-2.57679E-05-6.74338E-05-3.37639E-06 2.66815E-18-1.25488E-18
 -1      2144 1.86151E-04-2.46419E-05-6.79875E-05 4.19209E-06 2.46741E-18-6.72650E-19
 -1      2145 1.73628E-04-2.97077E-05-6.10498E-05-1.17437E-05 2.91739E-18-1.42556E-18
 -1      2146 1.83369E-04-2.87221E-05-6.49147E-05-5.77014E-06 2.26793E-18-1.49353E-18
 -1      2147 1.53663E-04-3.75778E-05-4.97673E-05-1.57173E-05 2.29400E-18-1.47638E-18
 -1      2148 1.70838E-04-3.55762E-05-5.66785E-05-1.59968E-05 2.94524E-18-1.71821E-18
 -1      2149 1.59842E-04-2.92393E-05-5.51976E-05 2.27679E-06 2.37000E-18-7.44965E-19
 -1      2150 1.25864E-04-4.71500E-05-3.40895E-05-3.01466E-05 1.28071E-18-2.22304E-18
 -1      2151 1.44549E-04-4.65217E-05-4.18196E-05-2.60157E-05 1.46537E-18-1.49755E-18
 -1      2152 8.82751E-05-4.61723E-05-1.91355E-05-3.71392E-05 2.68806E-18-2.62263E-18
 -1      2153 1.08825E-04-4.52671E-05-2.72307E-05-4.01935E-05 1.99984E-18-1.98756E-18
 -1      2154 5.71468E-05-4.50096E-05-6.35772E-06-3.58968E-05 3.14080E-18-2.01994E-18
 -1      2155 7.25921E-05-4.30206E-05-1.30287E-05-4.07518E-05 2.95149E-18-2.87292E-18
 -1      2156 9.45367E-05-5.32559E-05-1.78367E-05-3.99939E-05 2.02017E-18-1.60216E-18
 -1      2157 2.75619E-05-4.02711E-05 4.02761E-06-2.42251E-05 2.39414E-18-2.04834E-18
 -1      2158 3.86377E-05-3.81797E-05-7.90755E-07-3.34916E-05 3.45716E-18-2.44157E-18
 -1      2159 1.35560E-05-3.77384E-05 8.85043E-06-7.62123E-06 1.28410E-18-2.89262E-18
 -1      2160 1.79837E-05-3.67060E-05 6.94773E-06-1.65440E-05 1.95156E-18-1.88719E-18
 -1      2161 2.74032E-05-3.08761E-05 1.01007E-06-2.65480E-05 1.31523E-18-2.37762E-18
 -1      2162 1.54510E-05-3.68221E-05 7.85362E-06 1.37588E-05 3.50248E-19-2.08116E-18
 -1      2163 1.22148E-05-3.89299E-05 9.73690E-06 4.23779E-06 9.11355E-19-2.61437E-18
 -1      2164 4.06827E-05-3.84670E-05-1.44488E-06 3.45163E-05-6.11981E-19-5.35748E-19
 -1      2165 2.83284E-05-3.95628E-05 3.59796E-06 2.47822E-05 3.85400E-20-1.68877E-18
 -1      2166 7.68308E-05-4.37814E-05-1.44151E-05 4.16819E-05-1.61995E-18-4.57186E-19
 -1      2167 5.89483E-05-4.55715E-05-6.89385E-06 3.60201E-05-1.23074E-18-5.22738E-19
 -1      2168 1.17349E-04-4.51835E-05-3.05379E-05 3.89772E-05-4.56551E-19-4.69849E-18
 -1      2169 9.72551E-05-4.77378E-05-2.20539E-05 3.62013E-05-1.37897E-18-2.31833E-18
 -1      2170 1.51190E-04-4.03947E-05-4.65905E-05 3.09652E-05-5.28760E-19-6.35444E-18
 -1      2171 1.29880E-04-4.12981E-05-3.82669E-05 3.18101E-05-4.80268E-19-5.48284E-18
 -1      2172 1.75082E-04-3.44642E-05-5.92248E-05 1.44151E-05-1.13312E-18-5.52435E-18
 -1      2173 1.59634E-04-3.53351E-05-5.29581E-05 1.97252E-05-8.01664E-19-5.45659E-18
 -1      2174 1.81556E-04-2.54947E-05-6.58823E-05 7.47361E-07-2.24845E-18-4.27900E-18
 -1      2175 1.75886E-04-2.72103E-05-6.29567E-05 7.76260E-06-1.52720E-18-4.80564E-18
 -1      2176 1.86783E-04-2.57108E-05-6.75688E-05-8.86956E-06-2.33442E-18-4.03717E-18
 -1      2177 1.86051E-04-2.45527E-05-6.80495E-05-5.98026E-07-2.65206E-18-4.86319E-18
 -1      2178 1.74220E-04-2.99294E-05-6.09460E-05-1.92346E-05-1.69195E-18-5.18681E-18
 -1      2179 1.85689E-04-2.96726E-05-6.53138E-05-1.28985E-05-1.90201E-18-5.04535E-18
 -1      2180 1.50377E-04-3.85114E-05-4.77893E-05-2.71214E-05-1.28781E-18-3.44615E-18
 -1      2181 1.69023E-04-3.66977E-05-5.53777E-05-2.52133E-05-1.73171E-18-5.19824E-18
 -1      2182 1.15844E-04-4.53537E-05-3.07566E-05-3.74724E-05-2.18704E-18-1.51661E-18
 -1      2183 1.38093E-04-4.36495E-05-3.98293E-05-3.81652E-05-1.01983E-18-2.08455E-18
 -1      2184 8.00223E-05-4.90766E-05-1.43636E-05-4.00381E-05 1.42556E-18 9.56300E-19
 -1      2185 9.99670E-05-4.63545E-05-2.28554E-05-4.48902E-05-6.17911E-19-2.83756E-19
 -1      2186 4.47220E-05-4.57223E-05-9.99669E-07-3.40424E-05 4.43125E-18 2.83290E-18
 -1      2187 5.97518E-05-4.33537E-05-7.51583E-06-4.18402E-05 3.07092E-18 3.85141E-18
 -1      2188 2.03060E-05-3.97084E-05 6.96459E-06-1.85401E-05 4.31860E-18 1.39464E-18
 -1      2189 2.86982E-05-3.95557E-05 3.61456E-06-2.76601E-05 4.26058E-18 9.80017E-19
 -1      2190 1.57529E-04-3.94824E-05-4.95823E-05 3.11157E-05-6.77309E-19 1.28241E-18
 -1      2191 1.39097E-04-4.08048E-05-4.22404E-05 3.25267E-05 3.56177E-19 4.23516E-19
 -1      2192 1.42346E-04-5.40012E-05-3.74330E-05 2.42809E-05 6.88638E-19-2.32511E-19
 -1      2193 9.71871E-05-2.43140E-05-3.13053E-05-1.00031E-05-2.09964E-18 1.45398E-19
 -1      2194 1.57618E-04-4.04467E-05-4.93421E-05 1.08351E-05 1.54266E-19 1.02830E-18
 -1      2195 9.63465E-05-2.30981E-05-3.14554E-05-1.03855E-05-2.17784E-18-8.24984E-19
 -1      2196 2.03939E-05-2.89880E-05 3.09537E-06 1.43636E-05 9.73664E-19 1.08463E-18
 -1      2197 7.55070E-05-5.05013E-05-1.10875E-05 4.47613E-05 2.12648E-18-2.10895E-18
 -1      2198 9.58717E-05-2.58501E-05-2.99852E-05-5.93764E-06-2.53754E-18 1.54895E-19
 -1      2199 2.12064E-05-2.79934E-05 2.40121E-06-1.57968E-05 4.07783E-18 4.50622E-19
 -1      2200 1.13763E-04-5.75246E-05-2.40227E-05 3.93905E-05 8.26704E-19-1.80460E-18
 -1      2201 4.51971E-05-3.95611E-05-2.89730E-06-3.84633E-05 6.07323E-18 1.89799E-18
 -1      2202 8.38942E-05-5.28445E-05-1.34918E-05-4.51428E-05 3.41608E-18 1.78807E-18
 -1      2203 1.21328E-04-5.77850E-05-2.70862E-05-3.60445E-05 2.04135E-19-2.12266E-18
 -1      2204 1.49173E-04-4.92961E-05-4.21985E-05-2.00448E-05-1.54107E-18-3.33943E-18
 -1      2205 1.62677E-04-3.24633E-05-5.47648E-05-6.19869E-06-1.80164E-18-5.66114E-18
 -1      2206 1.66814E-04-1.86539E-05-6.21589E-05-2.49275E-06-2.13241E-18-3.84489E-18
 -1      2207 1.62703E-04-1.51169E-05-6.22922E-05-4.23426E-06-2.75455E-18-2.54057E-18
 -1      2208 1.60422E-04-2.56597E-05-5.67442E-05-3.16358E-06-1.25657E-18-3.50523E-18
 -1      2209 1.55089E-04-4.23711E-05-4.74470E-05 9.99206E-06-4.30769E-19-4.47911E-18
 -1      2210 1.33908E-04-5.41327E-05-3.39146E-05 2.51772E-05 3.79047E-20-4.84842E-18
 -1      2211 1.00679E-04-5.49101E-05-1.97124E-05 3.86592E-05-8.38563E-19-2.36957E-18
 -1      2212 5.95388E-05-4.37007E-05-7.14558E-06 4.01296E-05-7.75882E-19-1.08717E-18
 -1      2213 1.42066E-05-2.75770E-05 4.93762E-06-2.78030E-06 1.04487E-18-2.93158E-18
 -1      2214 5.73061E-05-4.31394E-05-6.43961E-06-3.95761E-05 2.51315E-18-1.76776E-18
 -1      2215 1.50750E-04-4.78313E-05-4.38601E-05-8.96983E-06 1.13937E-18-1.27478E-18
 -1      2216 1.64355E-04-1.77406E-05-6.16808E-05 3.62803E-06 2.95826E-18-9.06749E-19
 -1      2217 1.63114E-04-2.48862E-05-5.82248E-05 2.03610E-06 1.00755E-18 7.73341E-19
 -1      2218 1.65901E-04-1.55306E-05-6.32243E-05 2.05258E-06 1.38744E-18-2.40557E-19
 -1      2219 1.27408E-04-5.62532E-05-3.00579E-05-2.84096E-05 1.23730E-18-1.36393E-18
 -1      2220 2.59745E-05-3.08053E-05 1.62325E-06 2.50777E-05 4.45116E-19-1.64113E-18
 -1      2221 9.52125E-05-2.63764E-05-2.94880E-05 4.19889E-06 1.60856E-18 1.30767E-18
 -1      2222 9.61877E-05-2.58619E-05-3.00661E-05 6.00390E-06 1.89243E-18 1.57503E-18
 -1      2223 8.81376E-05-1.11859E-05-3.30186E-05-3.66289E-06-6.10947E-20-3.25214E-18
 -1      2224 8.83714E-05-1.14566E-05-3.30007E-05-4.80510E-06-3.33654E-19-3.37842E-18
 -1      2225 8.87240E-05-1.19416E-05-3.29520E-05-5.82215E-06-5.57222E-19-3.42049E-18
 -1      2226 8.91289E-05-1.24123E-05-3.29237E-05-6.99785E-06-7.96825E-19-3.33813E-18
 -1      2227 8.98913E-05-1.38252E-05-3.25987E-05-4.90420E-06-4.26460E-19-3.18755E-18
 -1      2228 8.77925E-05-1.07274E-05-3.30619E-05 6.15984E-07 8.18442E-19-3.05276E-18
 -1      2229 8.77881E-05-1.07225E-05-3.30622E-05-4.95688E-07 5.82248E-19-3.12922E-18
 -1      2230 8.79730E-05-1.09520E-05-3.30434E-05 2.75936E-06 1.25751E-18-3.04062E-18
 -1      2231 8.78584E-05-1.08191E-05-3.30527E-05 1.63938E-06 1.02440E-18-3.08856E-18
 -1      2232 8.91105E-05-1.27741E-05-3.27188E-05 1.05054E-06 8.99984E-19-2.91427E-18
 -1      2233 8.84064E-05-1.14985E-05-3.29981E-05 4.88984E-06 1.57929E-18-2.80633E-18
 -1      2234 8.81674E-05-1.12221E-05-3.30162E-05 3.76613E-06 1.39036E-18-2.97299E-18
 -1      2235 8.93758E-05-1.31296E-05-3.26787E-05 3.02301E-06 1.28129E-18-2.84897E-18
 -1      2236 8.91847E-05-1.24803E-05-3.29192E-05 7.07790E-06 2.05257E-18-2.37110E-18
 -1      2237 8.87672E-05-1.19941E-05-3.29483E-05 5.90594E-06 1.75570E-18-2.64727E-18
 -1      2238 8.99318E-05-1.38768E-05-3.25941E-05 4.97832E-06 1.64448E-18-2.50330E-18
 -1      2239 9.04534E-05-1.40886E-05-3.27921E-05 9.22733E-06 2.41955E-18-1.71237E-18
 -1      2240 8.97736E-05-1.32781E-05-3.28375E-05 8.04813E-06 2.15589E-18-2.10191E-18
 -1      2241 9.08661E-05-1.51357E-05-3.24491E-05 6.87483E-06 2.00860E-18-2.08407E-18
 -1      2242 9.24493E-05-1.66590E-05-3.25820E-05 1.11115E-05 2.59814E-18-8.72239E-19
 -1      2243 9.13715E-05-1.53196E-05-3.26541E-05 1.00315E-05 2.38819E-18-1.37350E-18
 -1      2244 9.22883E-05-1.70884E-05-3.22078E-05 8.52124E-06 2.21996E-18-1.43787E-18
 -1      2245 9.42313E-05-2.71165E-05-2.87468E-05 1.76970E-06 1.39099E-18 9.95090E-19
 -1      2246 9.48325E-05-2.68932E-05-2.90455E-05 2.74211E-06 1.47371E-18 1.23401E-18
 -1      2247 9.53365E-05-2.58474E-05-2.97889E-05 4.36581E-06 1.72717E-18 3.59612E-19
 -1      2248 9.59091E-05-2.50904E-05-3.03030E-05-6.19041E-06-1.71403E-18-1.09422E-18
 -1      2249 9.52493E-05-2.58498E-05-2.97592E-05-4.28493E-06-1.53782E-18-1.11559E-18
 -1      2250 1.51857E-04-3.95054E-05-4.86737E-05 2.04124E-07-4.57610E-19 2.64698E-19
 -1      2251 1.49601E-04-4.72778E-05-4.40749E-05 5.95386E-06-6.98776E-19 4.33681E-19
 -1      2252 9.51339E-05-2.65350E-05-2.93422E-05-2.94255E-06-1.43152E-18-9.33412E-19
 -1      2253 9.46654E-05-2.69080E-05-2.90386E-05-1.88192E-06-1.24322E-18-1.01159E-18
 -1      2254 9.53343E-05-2.53527E-05-2.99946E-05-4.29892E-06-1.51516E-18-1.38064E-18
 -1      2255 9.44685E-05-2.72374E-05-2.87749E-05-1.03271E-06-1.10366E-18-9.43778E-19
 -1      2256 9.42096E-05-2.74506E-05-2.86085E-05-4.31586E-07-8.63026E-19-1.10487E-18
 -1      2257 9.50308E-05-2.67006E-05-2.92972E-05-1.92688E-06-1.23920E-18-1.25646E-18
 -1      2258 9.40604E-05-2.76309E-05-2.84471E-05 7.57452E-08-6.94161E-19-1.04990E-18
 -1      2259 9.39611E-05-2.77741E-05-2.83633E-05 4.04965E-07-6.15612E-19-9.95058E-19
 -1      2260 9.47236E-05-2.74273E-05-2.88541E-05-4.48631E-07-7.73597E-19-1.12934E-18
 -1      2261 9.38759E-05-2.78835E-05-2.82698E-05 6.87107E-07-7.45550E-19-1.20235E-18
 -1      2262 9.38806E-05-2.79900E-05-2.82367E-05 8.50752E-07-7.25486E-19-1.33159E-18
 -1      2263 9.45216E-05-2.78552E-05-2.85817E-05 4.20775E-07-8.37726E-19-1.40848E-18
 -1      2264 9.38487E-05-2.80617E-05-2.81879E-05 9.87719E-07-8.54240E-19-1.41151E-18
 -1      2265 9.39149E-05-2.81449E-05-2.81854E-05 1.04980E-06-7.14669E-19-1.56808E-18
 -1      2266 9.44279E-05-2.81237E-05-2.84236E-05 8.90915E-07-9.06998E-19-1.34978E-18
 -1      2267 9.39202E-05-2.81940E-05-2.81655E-05 1.09515E-06-5.05064E-19-1.67093E-18
 -1      2268 9.40184E-05-2.82599E-05-2.81808E-05 1.09611E-06-4.50150E-19-1.75107E-18
 -1      2269 9.44173E-05-2.82993E-05-2.83414E-05 1.10403E-06-7.81836E-19-1.49796E-18
 -1      2270 9.40468E-05-2.82940E-05-2.81792E-05 1.08604E-06-4.77055E-19-1.64924E-18
 -1      2271 9.41577E-05-2.83458E-05-2.82040E-05 1.05236E-06-4.42280E-19-1.59875E-18
 -1      2272 9.44617E-05-2.84156E-05-2.83088E-05 1.15638E-06-4.31581E-19-1.51033E-18
 -1      2273 9.41988E-05-2.83690E-05-2.82136E-05 1.01156E-06-3.70650E-19-1.71902E-18
 -1      2274 9.43105E-05-2.84091E-05-2.82426E-05 9.60991E-07-3.88016E-19-1.76568E-18
 -1      2275 9.45380E-05-2.84914E-05-2.83077E-05 1.11361E-06-5.85307E-19-1.46743E-18
 -1      2276 9.43573E-05-2.84241E-05-2.82586E-05 9.06459E-07-4.79453E-19-1.62156E-18
 -1      2277 9.44634E-05-2.84544E-05-2.82888E-05 8.51051E-07-3.92138E-19-1.58060E-18
 -1      2278 9.46299E-05-2.85383E-05-2.83261E-05 1.02085E-06-3.61484E-19-1.48690E-18
 -1      2279 9.45116E-05-2.84631E-05-2.83084E-05 7.94543E-07-2.81450E-19-1.44018E-18
 -1      2280 9.46095E-05-2.84852E-05-2.83381E-05 7.42616E-07 8.73976E-20-1.31680E-18
 -1      2281 9.47269E-05-2.85639E-05-2.83562E-05 9.09304E-07-2.67950E-19-1.18165E-18
 -1      2282 9.46572E-05-2.84891E-05-2.83597E-05 6.92413E-07-6.54348E-20-1.68016E-18
 -1      2283 9.47469E-05-2.85045E-05-2.83886E-05 6.49881E-07-1.26117E-19-1.81086E-18
 -1      2284 9.48233E-05-2.85735E-05-2.83932E-05 8.00800E-07-4.82717E-20-1.71997E-18
 -1      2285 9.47936E-05-2.85045E-05-2.84114E-05 6.12043E-07-3.03054E-19-1.79205E-18
 -1      2286 9.48771E-05-2.85148E-05-2.84397E-05 5.83377E-07-4.24768E-19-1.87175E-18
 -1      2287 9.49172E-05-2.85707E-05-2.84345E-05 7.10989E-07-3.09971E-19-1.93409E-18
 -1      2288 9.49237E-05-2.85117E-05-2.84639E-05 5.62683E-07-5.09901E-19-1.78038E-18
 -1      2289 9.50047E-05-2.85183E-05-2.84925E-05 5.51620E-07-6.97689E-19-1.72194E-18
 -1      2290 9.50092E-05-2.85582E-05-2.84794E-05 6.51691E-07-4.63072E-19-1.45660E-18
 -1      2291 9.50531E-05-2.85127E-05-2.85187E-05 5.52265E-07-6.13649E-19-1.33963E-18
 -1      2292 9.51366E-05-2.85169E-05-2.85490E-05 5.62345E-07-6.10638E-19-9.37360E-19
 -1      2293 9.51021E-05-2.85377E-05-2.85282E-05 6.32659E-07-5.40202E-19-9.58658E-19
 -1      2294 9.51893E-05-2.85093E-05-2.85782E-05 5.88461E-07-6.53744E-19-1.00121E-18
 -1      2295 9.52813E-05-2.85126E-05-2.86121E-05 6.23403E-07-4.01253E-19-1.16540E-18
 -1      2296 9.52006E-05-2.85103E-05-2.85824E-05 6.62873E-07-5.35876E-19-3.89758E-19
 -1      2297 9.53417E-05-2.85034E-05-2.86458E-05 6.79417E-07-6.67173E-19-1.33648E-18
 -1      2298 9.54496E-05-2.85075E-05-2.86855E-05 7.43370E-07-8.45674E-19-1.39021E-18
 -1      2299 9.53105E-05-2.84769E-05-2.86442E-05 7.51478E-07-5.59938E-19-6.35157E-19
 -1      2300 9.55218E-05-2.84974E-05-2.87254E-05 8.34202E-07-6.07805E-19-1.30101E-18
 -1      2301 9.56541E-05-2.85042E-05-2.87734E-05 9.31827E-07 4.70492E-20-1.74758E-18
 -1      2302 9.54394E-05-2.84382E-05-2.87164E-05 9.08374E-07-7.28395E-19-5.10131E-19
 -1      2303 9.57426E-05-2.84939E-05-2.88213E-05 1.06290E-06 4.62793E-19-1.91802E-18
 -1      2304 9.59090E-05-2.85060E-05-2.88805E-05 1.19928E-06 4.59104E-19-1.67541E-18
 -1      2305 9.55959E-05-2.83954E-05-2.88022E-05 1.14443E-06 7.73558E-20-1.15208E-18
 -1      2306 9.60192E-05-2.84969E-05-2.89384E-05 1.37630E-06 4.35647E-19-1.34183E-18
 -1      2307 9.62307E-05-2.85177E-05-2.90118E-05 1.55652E-06 6.95836E-19-1.11647E-18
 -1      2308 9.57902E-05-2.83507E-05-2.89051E-05 1.47124E-06 6.08790E-19-1.46945E-18
 -1      2309 9.63688E-05-2.85121E-05-2.90816E-05 1.78491E-06 5.49427E-19-9.65395E-19
 -1      2310 9.66375E-05-2.85464E-05-2.91723E-05 2.01332E-06 3.62048E-19-7.38803E-19
 -1      2311 9.60337E-05-2.83079E-05-2.90283E-05 1.90031E-06 6.03121E-19-1.06166E-18
 -1      2312 9.68106E-05-2.85482E-05-2.92554E-05 2.29715E-06-1.16252E-20-6.81271E-19
 -1      2313 9.71496E-05-2.86027E-05-2.93661E-05 2.57587E-06-1.09239E-19-9.18188E-19
 -1      2314 9.63401E-05-2.82742E-05-2.91745E-05 2.44134E-06 1.06966E-19-5.19617E-19
 -1      2315 9.73663E-05-2.86184E-05-2.94632E-05 2.91607E-06-1.15142E-19-9.44666E-19
 -1      2316 9.77889E-05-2.87030E-05-2.95959E-05 3.24265E-06 3.16943E-19-9.49842E-19
 -1      2317 9.67255E-05-2.82623E-05-2.93452E-05 3.09932E-06-1.30362E-19-3.70805E-19
 -1      2318 9.80603E-05-2.87438E-05-2.97066E-05 3.63414E-06 2.97670E-19-1.07362E-18
 -1      2319 9.85797E-05-2.88727E-05-2.98616E-05 3.99776E-06-7.05312E-20-3.57212E-19
 -1      2320 9.72099E-05-2.82940E-05-2.95398E-05 3.86978E-06 9.58384E-20-1.12802E-18
 -1      2321 9.89215E-05-2.89570E-05-2.99835E-05 4.42512E-06 2.21356E-19-8.80054E-19
 -1      2322 9.95496E-05-2.91513E-05-3.01589E-05 4.80094E-06 4.47907E-19-3.03093E-19
 -1      2323 9.78207E-05-2.84055E-05-2.97545E-05 4.73157E-06 5.04702E-20-1.07447E-18
 -1      2324 9.99850E-05-2.93082E-05-3.02874E-05 5.23195E-06 1.26388E-19-6.76414E-19
 -1      2325 1.00731E-04-2.95976E-05-3.04773E-05 5.57331E-06 4.72786E-19-7.91655E-19
 -1      2326 9.85970E-05-2.86549E-05-2.99815E-05 5.63624E-06 1.47616E-19-1.20784E-18
 -1      2327 1.01296E-04-2.98712E-05-3.06052E-05 5.95005E-06 8.06615E-19-1.28744E-18
 -1      2328 1.02165E-04-3.02952E-05-3.07994E-05 6.17888E-06 3.58916E-19-1.32442E-18
 -1      2329 9.95981E-05-2.91315E-05-3.02085E-05 6.49319E-06 3.84290E-19-1.44801E-18
 -1      2330 1.02912E-04-3.07461E-05-3.09180E-05 6.40629E-06 1.14215E-19-1.75643E-18
 -1      2331 1.03898E-04-3.13498E-05-3.11016E-05 6.40412E-06 8.22606E-20-1.47514E-18
 -1      2332 1.00913E-04-2.99620E-05-3.04201E-05 7.15002E-06-4.59747E-20-1.52032E-18
 -1      2333 1.04897E-04-3.20478E-05-3.12042E-05 6.33801E-06 4.93705E-19-1.13261E-18
 -1      2334 1.05974E-04-3.28630E-05-3.13599E-05 5.94445E-06 1.05789E-18-3.63696E-19
 -1      2335 1.02665E-04-3.13038E-05-3.06026E-05 7.36968E-06 7.67638E-19-9.27860E-19
 -1      2336 1.07296E-04-3.38576E-05-3.14479E-05 5.38641E-06 8.09909E-19 3.97841E-19
 -1      2337 1.08389E-04-3.48581E-05-3.15622E-05 4.41989E-06 4.58849E-19 4.73447E-19
 -1      2338 1.04999E-04-3.33006E-05-3.07554E-05 6.81147E-06 9.97014E-19 5.73478E-19
 -1      2339 1.10051E-04-3.61088E-05-3.16567E-05 3.13690E-06-3.01008E-19 4.16199E-19
 -1      2340 1.10999E-04-3.71257E-05-3.17306E-05 1.46084E-06 7.21004E-20-2.76884E-19
 -1      2341 1.08010E-04-3.59650E-05-3.09109E-05 5.03904E-06-1.92018E-19 1.20427E-18
 -1      2342 1.12840E-04-3.83761E-05-3.18850E-05-7.25374E-07 8.45534E-19-1.76577E-19
 -1      2343 1.13349E-04-3.89952E-05-3.19459E-05-3.05854E-06 2.33900E-19 1.79705E-20
 -1      2344 1.11573E-04-3.89378E-05-3.11609E-05 1.60614E-06 2.04982E-19 8.57371E-19
 -1      2345 1.14887E-04-3.96524E-05-3.22457E-05-6.03356E-06-4.95230E-19 8.98212E-19
 -1      2346 1.14565E-04-3.92237E-05-3.23457E-05-8.56667E-06-4.95719E-19 9.44208E-19
 -1      2347 1.15054E-04-4.11723E-05-3.16728E-05-3.64716E-06 4.58684E-19 9.49457E-19
 -1      2348 1.15016E-04-3.84649E-05-3.28681E-05-1.15631E-05-1.57872E-19 1.57092E-18
 -1      2349 1.13604E-04-3.64441E-05-3.30580E-05-1.32869E-05 5.71274E-19 1.92711E-18
 -1      2350 1.17147E-04-4.09238E-05-3.26429E-05-9.96016E-06 1.93394E-19 2.36328E-18
 -1      2351 1.12342E-04-3.38258E-05-3.37844E-05-1.46676E-05-1.60691E-19 1.67927E-18
 -1      2352 1.10176E-04-3.06083E-05-3.40331E-05-1.42777E-05-5.48044E-19 1.34621E-18
 -1      2353 1.16310E-04-3.65157E-05-3.41520E-05-1.49878E-05-2.60506E-19 1.73242E-18
 -1      2354 1.07901E-04-2.72248E-05-3.47327E-05-1.24846E-05-4.49801E-19 6.00702E-19
 -1      2355 1.06027E-04-2.44364E-05-3.49197E-05-9.53134E-06-7.39036E-20-1.14785E-19
 -1      2356 1.12581E-04-2.89271E-05-3.58911E-05-1.50022E-05-1.10370E-18 1.78746E-18
 -1      2357 1.04535E-04-2.27119E-05-3.51957E-05-4.42727E-06 8.99946E-19-1.55866E-18
 -1      2358 1.04389E-04-2.26138E-05-3.51076E-05-2.02052E-07 6.82576E-19-1.20560E-18
 -1      2359 1.08305E-04-2.21014E-05-3.70105E-05-8.26166E-06-6.99596E-19 6.17328E-19
 -1      2360 1.05230E-04-2.40070E-05-3.47550E-05 4.70725E-06 2.90215E-19-1.37363E-18
 -1      2361 1.06459E-04-2.64234E-05-3.44435E-05 7.89195E-06-1.13954E-18-1.61711E-19
 -1      2362 1.08206E-04-2.19521E-05-3.70571E-05 2.56382E-06 6.46657E-20-1.35828E-18
 -1      2363 1.08490E-04-2.97429E-05-3.36637E-05 9.99588E-06-1.48224E-18 5.81333E-19
 -1      2364 1.10139E-04-3.28545E-05-3.32616E-05 1.05631E-05 2.40726E-20 1.36900E-18
 -1      2365 1.11294E-04-2.79947E-05-3.57304E-05 1.00722E-05-2.63388E-19-1.37001E-19
 -1      2366 1.11263E-04-3.55358E-05-3.24305E-05 9.34803E-06 3.49103E-19 1.64680E-18
 -1      2367 1.12215E-04-3.75158E-05-3.20891E-05 7.70621E-06 1.57397E-18 9.40687E-19
 -1      2368 1.14697E-04-3.56975E-05-3.38146E-05 1.05533E-05 3.28027E-19 1.13151E-18
 -1      2369 1.11627E-04-3.83218E-05-3.14622E-05 4.73478E-06 2.43368E-18 1.51192E-19
 -1      2370 1.11480E-04-3.86451E-05-3.12236E-05 2.20663E-06 1.93789E-18 1.60986E-20
 -1      2371 1.15252E-04-4.02421E-05-3.21125E-05 5.73991E-06 1.34013E-18 8.52307E-19
 -1      2372 1.09688E-04-3.78794E-05-3.08504E-05-7.83286E-07 1.06047E-18-4.80491E-19
 -1      2373 1.08678E-04-3.70145E-05-3.06824E-05-3.06557E-06 1.36747E-18 1.63883E-19
 -1      2374 1.12738E-04-4.04520E-05-3.09831E-05-6.02455E-07 1.15505E-18-1.11773E-18
 -1      2375 1.06484E-04-3.54838E-05-3.04992E-05-5.14798E-06 1.65968E-18 4.35119E-19
 -1      2376 1.05024E-04-3.40756E-05-3.03611E-05-6.59297E-06 4.97008E-19 9.06573E-19
 -1      2377 1.08615E-04-3.77546E-05-3.03964E-05-5.77151E-06 9.42930E-19-9.37156E-19
 -1      2378 1.02931E-04-3.23738E-05-3.02890E-05-7.52361E-06-5.89207E-19 1.83482E-18
 -1      2379 1.01358E-04-3.08870E-05-3.01664E-05-7.93706E-06-9.46250E-19 1.71262E-18
 -1      2380 1.04249E-04-3.39187E-05-3.01731E-05-8.72421E-06 3.31070E-19-2.82864E-19
 -1      2381 5.43612E-05-3.91409E-05-6.45694E-06 4.26303E-05 1.27542E-18-1.94415E-18
 -1      2382 4.05493E-05-3.34286E-05-2.95425E-06 3.47923E-05 6.43957E-19 1.84653E-19
 -1      2383 9.33335E-05-2.76898E-05-2.81257E-05-4.04738E-07 6.75616E-19 5.73528E-19
 -1      2384 9.34122E-05-2.75850E-05-2.81873E-05-1.19124E-07 8.49752E-19 7.99554E-19
 -1      2385 9.32809E-05-2.78541E-05-2.80353E-05-8.10556E-07 4.14588E-19 9.23487E-20
 -1      2386 9.32368E-05-2.77634E-05-2.80470E-05-6.71520E-07 5.09870E-19 3.69449E-19
 -1      2387 9.40061E-05-2.78072E-05-2.83821E-05-4.36942E-07 8.42394E-19-2.25349E-20
 -1      2388 9.33733E-05-2.79891E-05-2.80187E-05-9.86357E-07 5.09768E-19 2.18646E-19
 -1      2389 9.32613E-05-2.79088E-05-2.80018E-05-9.35460E-07 3.47405E-19 6.23432E-20
 -1      2390 9.39184E-05-2.80164E-05-2.82518E-05-8.84283E-07 4.57851E-19-1.91173E-19
 -1      2391 9.35465E-05-2.81032E-05-2.80451E-05-1.02202E-06 6.84499E-19 4.19324E-19
 -1      2392 9.34028E-05-2.80329E-05-2.80131E-05-1.02365E-06 7.25359E-19 3.66021E-19
 -1      2393 9.39462E-05-2.81648E-05-2.81974E-05-1.08108E-06 4.55766E-19-1.45790E-19
 -1      2394 9.37569E-05-2.81992E-05-2.80949E-05-9.75869E-07 1.70267E-19 5.59021E-19
 -1      2395 9.36041E-05-2.81390E-05-2.80562E-05-1.00714E-06 4.13866E-19 4.66495E-19
 -1      2396 9.40440E-05-2.82744E-05-2.81903E-05-1.12373E-06 5.21125E-19 3.14576E-19
 -1      2397 9.39765E-05-2.82784E-05-2.81556E-05-8.86695E-07 3.73590E-19 2.67942E-19
 -1      2398 9.38279E-05-2.82281E-05-2.81152E-05-9.32428E-07 2.41679E-19 4.24740E-19
 -1      2399 9.41784E-05-2.83561E-05-2.82115E-05-1.07605E-06 3.11167E-19 1.26533E-19
 -1      2400 9.41891E-05-2.83424E-05-2.82195E-05-7.80680E-07 1.06821E-18 1.69309E-19
 -1      2401 9.40516E-05-2.83015E-05-2.81803E-05-8.30651E-07 9.31678E-19 2.98762E-19
 -1      2402 9.43272E-05-2.84162E-05-2.82486E-05-9.81088E-07 6.10824E-19 2.64209E-20
 -1      2403 9.43867E-05-2.83931E-05-2.82825E-05-6.75711E-07 9.35286E-19-1.49064E-20
 -1      2404 9.42630E-05-2.83603E-05-2.82460E-05-7.22924E-07 1.09029E-18 7.45782E-20
 -1      2405 9.44768E-05-2.84592E-05-2.82938E-05-8.68245E-07 1.04499E-18 2.50594E-19
 -1      2406 9.45677E-05-2.84325E-05-2.83431E-05-5.84268E-07 3.32185E-19 2.20123E-19
 -1      2407 9.44571E-05-2.84066E-05-2.83093E-05-6.23795E-07 7.42578E-19 9.71477E-20
 -1      2408 9.46202E-05-2.84883E-05-2.83425E-05-7.57814E-07 6.86088E-19 1.34296E-19
 -1      2409 9.47345E-05-2.84629E-05-2.84013E-05-5.15461E-07-4.46041E-19 4.13901E-19
 -1      2410 9.46343E-05-2.84425E-05-2.83697E-05-5.43620E-07 2.13028E-20 4.40055E-19
 -1      2411 9.47552E-05-2.85064E-05-2.83925E-05-6.64158E-07-1.21249E-21 4.73729E-19
 -1      2412 9.48932E-05-2.84867E-05-2.84586E-05-4.76529E-07-2.24268E-19 4.42108E-19
 -1      2413 9.47989E-05-2.84701E-05-2.84280E-05-4.90271E-07-4.33191E-19 2.67252E-19
 -1      2414 9.48835E-05-2.85157E-05-2.84436E-05-5.97964E-07-1.47906E-19 5.07400E-19
 -1      2415 9.50524E-05-2.85067E-05-2.85177E-05-4.73962E-07 5.68179E-19 5.29501E-19
 -1      2416 9.49581E-05-2.84921E-05-2.84864E-05-4.70413E-07 2.61981E-19 5.94521E-19
 -1      2417 9.50092E-05-2.85184E-05-2.84965E-05-5.67916E-07-2.25405E-21 4.52674E-19
 -1      2418 9.52233E-05-2.85255E-05-2.85821E-05-5.14325E-07 4.52095E-19 1.91086E-19
 -1      2419 9.51216E-05-2.85111E-05-2.85480E-05-4.90449E-07 6.01857E-19 6.97277E-19
 -1      2420 9.51390E-05-2.85163E-05-2.85534E-05-5.81932E-07 4.89676E-19 8.71357E-19
 -1      2421 9.54191E-05-2.85467E-05-2.86560E-05-6.04825E-07 1.04656E-19 2.33131E-19
 -1      2422 9.53014E-05-2.85301E-05-2.86164E-05-5.57200E-07 4.03846E-19 2.89057E-19
 -1      2423 9.52812E-05-2.85112E-05-2.86169E-05-6.48057E-07 2.66187E-19 6.37830E-19
 -1      2424 9.56557E-05-2.85739E-05-2.87445E-05-7.53613E-07-1.95278E-19 9.00121E-20
 -1      2425 9.55119E-05-2.85525E-05-2.86966E-05-6.78326E-07 1.28258E-19 1.59415E-19
 -1      2426 9.54461E-05-2.85051E-05-2.86907E-05-7.75052E-07 3.51644E-20 4.73466E-19
 -1      2427 9.59511E-05-2.86119E-05-2.88535E-05-9.69765E-07 5.48495E-20-8.21896E-19
 -1      2428 9.57697E-05-2.85826E-05-2.87937E-05-8.62468E-07-2.02435E-19-3.06273E-19
 -1      2429 9.56460E-05-2.85006E-05-2.87788E-05-9.72637E-07 1.71209E-19 1.61261E-19
 -1      2430 9.63259E-05-2.86666E-05-2.89891E-05-1.26281E-06 8.90464E-19-8.01167E-19
 -1      2431 9.60939E-05-2.86254E-05-2.89138E-05-1.11900E-06 4.94127E-19-1.04196E-18
 -1      2432 9.58946E-05-2.85011E-05-2.88858E-05-1.25133E-06 5.34962E-19-1.06592E-18
 -1      2433 9.68031E-05-2.87458E-05-2.91579E-05-1.64161E-06 4.36535E-19-9.53103E-19
 -1      2434 9.65058E-05-2.86876E-05-2.90632E-05-1.45726E-06 8.86714E-19-8.43340E-19
 -1      2435 9.62079E-05-2.85114E-05-2.90163E-05-1.62174E-06 7.36679E-19-1.06459E-18
 -1      2436 9.74072E-05-2.88597E-05-2.93664E-05-2.11225E-06-1.22622E-19-1.11635E-18
 -1      2437 9.70294E-05-2.87782E-05-2.92483E-05-1.88496E-06 6.47368E-20-8.09762E-19
 -1      2438 9.66036E-05-2.85388E-05-2.91748E-05-2.09299E-06 1.98368E-19-8.83084E-19
 -1      2439 9.81641E-05-2.90224E-05-2.96197E-05-2.67438E-06-6.91157E-19-9.44234E-19
 -1      2440 9.76901E-05-2.89090E-05-2.94750E-05-2.40540E-06-4.58919E-19-1.09439E-18
 -1      2441 9.71017E-05-2.85946E-05-2.93651E-05-2.67004E-06-2.95644E-19-5.91582E-19
 -1      2442 9.90992E-05-2.92532E-05-2.99209E-05-3.31535E-06-1.18217E-18-1.53754E-18
 -1      2443 9.85149E-05-2.90971E-05-2.97474E-05-3.01276E-06-8.65434E-19-1.08624E-18
 -1      2444 9.77245E-05-2.86964E-05-2.95890E-05-3.34912E-06-5.22596E-19-9.28327E-19
 -1      2445 1.00235E-04-2.95798E-05-3.02687E-05-4.00109E-06-3.27189E-19-6.71418E-19
 -1      2446 9.95306E-05-2.93663E-05-3.00669E-05-3.68478E-06-1.19705E-18-1.22852E-18
 -1      2447 9.84972E-05-2.88717E-05-2.98458E-05-4.11068E-06-1.03818E-18-1.39990E-18
 -1      2448 1.01591E-04-3.00405E-05-3.06552E-05-4.66309E-06 1.49336E-19 6.81565E-19
 -1      2449 1.00763E-04-2.97509E-05-3.04297E-05-4.37169E-06 4.56897E-19-1.30390E-19
 -1      2450 9.94501E-05-2.91625E-05-3.01304E-05-4.90883E-06-5.82813E-19-2.52345E-19
 -1      2451 1.03173E-04-3.06861E-05-3.10635E-05-5.18135E-06-5.32094E-19 1.59005E-18
 -1      2452 1.02233E-04-3.02980E-05-3.08245E-05-4.98098E-06-4.55591E-19 1.32123E-18
 -1      2453 1.00621E-04-2.96317E-05-3.04321E-05-5.65668E-06-4.19273E-19 3.44395E-19
 -1      2454 1.04974E-04-3.15770E-05-3.14654E-05-5.36617E-06-5.65026E-20 2.43090E-18
 -1      2455 1.03954E-04-3.10682E-05-3.12308E-05-5.35864E-06-4.59534E-20 1.86466E-18
 -1      2456 1.02056E-04-3.03657E-05-3.07345E-05-6.20765E-06-7.14246E-19 1.33521E-19
 -1      2457 1.06955E-04-3.27642E-05-3.18227E-05-4.94753E-06-1.87001E-19 1.95565E-18
 -1      2458 1.05920E-04-3.21264E-05-3.16181E-05-5.27187E-06 3.54964E-19 2.90665E-18
 -1      2459 1.03811E-04-3.14693E-05-3.10167E-05-6.33599E-06-3.47355E-19 1.17218E-18
 -1      2460 1.09014E-04-3.42400E-05-3.20942E-05-3.59315E-06-2.00495E-19 8.48891E-19
 -1      2461 1.08081E-04-3.35086E-05-3.19500E-05-4.40724E-06-5.15509E-19 1.57740E-18
 -1      2462 1.05936E-04-3.30324E-05-3.12605E-05-5.72620E-06-2.30386E-20 1.87688E-18
 -1      2463 1.10933E-04-3.58373E-05-3.22521E-05-9.95758E-07-7.07554E-19 6.74118E-19
 -1      2464 1.10288E-04-3.51439E-05-3.21945E-05-2.41595E-06-4.23424E-19 8.45514E-19
 -1      2465 1.08420E-04-3.50437E-05-3.14635E-05-3.99539E-06-1.46694E-19 1.07376E-18
 -1      2466 1.12300E-04-3.70934E-05-3.23068E-05 2.91942E-06-1.80279E-19 1.15292E-18
 -1      2467 1.12203E-04-3.67232E-05-3.23441E-05 9.38981E-07-9.73082E-19 4.91779E-19
 -1      2468 1.11078E-04-3.72281E-05-3.16596E-05-8.00151E-07-6.23790E-19 1.35187E-18
 -1      2469 1.12480E-04-3.71808E-05-3.23258E-05 7.64062E-06 4.81637E-19 2.22520E-18
 -1      2470 1.13211E-04-3.75628E-05-3.24345E-05 5.47885E-06 1.24262E-19 1.33320E-18
 -1      2471 1.13388E-04-3.88455E-05-3.19356E-05 3.90216E-06 1.67190E-19 2.20173E-18
 -1      2472 1.10828E-04-3.51991E-05-3.24128E-05 1.17028E-05 4.02753E-19 2.84884E-18
 -1      2473 1.12498E-04-3.66748E-05-3.25439E-05 1.01711E-05 6.46921E-19 2.88141E-18
 -1      2474 1.14390E-04-3.86584E-05-3.24165E-05 9.38511E-06 3.85094E-19 2.16725E-18
 -1      2475 1.07345E-04-3.10763E-05-3.26263E-05 1.28474E-05 1.09765E-18 2.33207E-18
 -1      2476 1.09611E-04-3.34211E-05-3.27310E-05 1.29532E-05 8.60460E-19 2.31185E-18
 -1      2477 1.13099E-04-3.55938E-05-3.31732E-05 1.36670E-05 6.38132E-19 1.87697E-18
 -1      2478 1.03325E-04-2.64447E-05-3.28820E-05 9.33199E-06 3.22958E-19 2.05532E-18
 -1      2479 1.05312E-04-2.85893E-05-3.29609E-05 1.15733E-05 8.89524E-19 2.69543E-18
 -1      2480 1.09562E-04-3.00032E-05-3.40950E-05 1.40057E-05 1.13773E-18 1.94167E-18
 -1      2481 1.01168E-04-2.42660E-05-3.29471E-05 1.95904E-06-3.43723E-19 1.45767E-18
 -1      2482 1.01887E-04-2.48421E-05-3.30354E-05 5.51477E-06 6.56120E-19 1.44114E-18
 -1      2483 1.05740E-04-2.47066E-05-3.47989E-05 8.65588E-06 9.05478E-19 1.62336E-18
 -1      2484 1.02239E-04-2.61288E-05-3.26895E-05-5.53289E-06-1.30051E-18 2.04259E-18
 -1      2485 1.01443E-04-2.47857E-05-3.27982E-05-2.48931E-06-1.26031E-18 1.63640E-18
 -1      2486 1.04474E-04-2.33681E-05-3.48615E-05-3.07501E-07-9.62521E-19 2.14837E-18
 -1      2487 1.05409E-04-3.05436E-05-3.21772E-05-9.27390E-06-7.13443E-19 6.89922E-19
 -1      2488 1.03806E-04-2.83087E-05-3.22765E-05-8.16050E-06-3.22104E-19 1.37954E-18
 -1      2489 1.06540E-04-2.69037E-05-3.41725E-05-7.92024E-06-4.16131E-19 1.35452E-18
 -1      2490 1.08159E-04-3.44935E-05-3.16337E-05-8.22410E-06-8.08103E-19 4.07856E-19
 -1      2491 1.06763E-04-3.27235E-05-3.16964E-05-9.10018E-06-1.75531E-18 5.67989E-19
 -1      2492 1.09787E-04-3.26066E-05-3.30410E-05-1.02635E-05-1.42760E-18 1.15300E-18
 -1      2493 1.08882E-04-3.61627E-05-3.11868E-05-4.09439E-06 2.15381E-19 1.64913E-18
 -1      2494 1.08332E-04-3.55120E-05-3.12368E-05-6.06047E-06-7.14982E-20 1.76215E-18
 -1      2495 1.11519E-04-3.68876E-05-3.19383E-05-7.47494E-06-1.04900E-18 1.95540E-18
 -1      2496 1.07545E-04-3.55763E-05-3.08335E-05 6.52607E-07 2.26602E-18 2.85076E-18
 -1      2497 1.07906E-04-3.59219E-05-3.09144E-05-1.38696E-06 1.02114E-18 2.25722E-18
 -1      2498 1.10726E-04-3.80607E-05-3.11193E-05-2.20524E-06 1.36379E-19 2.52101E-18
 -1      2499 1.04934E-04-3.36567E-05-3.05215E-05 4.30752E-06 1.52389E-18 3.37690E-18
 -1      2500 1.05948E-04-3.45743E-05-3.06564E-05 2.84447E-06 1.94006E-18 3.57476E-18
 -1      2501 1.08055E-04-3.66403E-05-3.06113E-05 2.88350E-06 1.62286E-18 4.30478E-18
 -1      2502 1.01847E-04-3.12500E-05-3.02200E-05 6.15378E-06 2.05811E-18 2.51661E-18
 -1      2503 1.03188E-04-3.23883E-05-3.03968E-05 5.52968E-06 1.87938E-18 3.56892E-18
 -1      2504 1.04585E-04-3.38844E-05-3.03191E-05 6.32269E-06 1.67984E-18 4.79932E-18
 -1      2505 9.87993E-05-2.88794E-05-2.99328E-05 6.06466E-06-4.50710E-19 2.62436E-18
 -1      2506 1.00185E-04-2.99770E-05-3.01211E-05 6.31497E-06 9.34173E-19 3.08788E-18
 -1      2507 1.01071E-04-3.07415E-05-3.01513E-05 7.66754E-06 1.54443E-18 4.11032E-18
 -1      2508 9.73675E-05-2.77772E-05-2.98266E-05 5.23142E-06-4.73307E-19 1.79311E-18
 -1      2509 9.09730E-05-1.84972E-05-3.11243E-05 1.30903E-05-7.53326E-19-2.72269E-18
 -1      2510 9.26617E-05-2.04457E-05-3.09060E-05 1.34245E-05 1.31464E-20-3.57321E-18
 -1      2511 8.74323E-05-1.46943E-05-3.12631E-05 1.05274E-05-4.03672E-20-1.79513E-18
 -1      2512 8.91221E-05-1.64485E-05-3.11085E-05 1.20945E-05-6.11177E-19-1.46463E-18
 -1      2513 9.01253E-05-1.97974E-05-3.01455E-05 1.44172E-05 5.39555E-19-1.97214E-18
 -1      2514 9.63236E-05-2.50015E-05-3.05526E-05 1.11895E-05 9.12893E-20 1.45700E-18
 -1      2515 9.71365E-05-2.63980E-05-3.02977E-05 1.00100E-05-3.97553E-19 2.32300E-18
 -1      2516 9.41437E-05-2.21496E-05-3.08759E-05 1.30432E-05-1.09363E-18-1.84951E-18
 -1      2517 9.54156E-05-2.38736E-05-3.06258E-05 1.24261E-05-1.01961E-18 1.57740E-18
 -1      2518 9.71193E-05-2.65845E-05-3.02544E-05 1.31173E-05-1.44469E-18 3.27817E-19
 -1      2519 9.41991E-05-2.36826E-05-3.02492E-05 1.49344E-05-3.98979E-19-2.29326E-18
 -1      2520 8.47377E-05-1.18805E-05-3.13084E-05 5.33931E-06 3.26466E-19-1.57284E-18
 -1      2521 8.58295E-05-1.29492E-05-3.12287E-05 7.98559E-06 3.14418E-19-2.38489E-18
 -1      2522 8.59042E-05-1.58361E-05-2.99878E-05 1.07167E-05 1.36956E-19-1.73845E-18
 -1      2523 8.40345E-05-1.11255E-05-3.12934E-05-1.35796E-06 4.35048E-19-1.52414E-18
 -1      2524 8.40714E-05-1.11594E-05-3.12913E-05 1.73898E-06 1.07193E-19-4.35679E-19
 -1      2525 8.31346E-05-1.32485E-05-2.98714E-05 4.12423E-06 6.31852E-19-1.25516E-18
 -1      2526 8.56636E-05-1.27843E-05-3.12341E-05-7.69299E-06 4.41200E-19-5.11949E-19
 -1      2527 8.46274E-05-1.17655E-05-3.13094E-05-4.99781E-06 4.00339E-19-6.29478E-19
 -1      2528 8.30383E-05-1.31585E-05-2.98694E-05-3.69971E-06 8.74215E-19-1.01830E-18
 -1      2529 8.88368E-05-1.61471E-05-3.11188E-05-1.19119E-05 1.13152E-18-7.18282E-19
 -1      2530 8.71994E-05-1.44531E-05-3.12675E-05-1.02841E-05 7.45013E-19-1.00700E-18
 -1      2531 8.56456E-05-1.55915E-05-2.99799E-05-1.03890E-05 9.51335E-19-6.19310E-19
 -1      2532 9.24045E-05-2.01481E-05-3.09226E-05-1.34598E-05 1.41200E-18 1.42449E-18
 -1      2533 9.06937E-05-1.81935E-05-3.11370E-05-1.30330E-05 1.45257E-18-5.50104E-19
 -1      2534 8.97758E-05-1.94655E-05-3.01353E-05-1.42879E-05 1.34998E-18-4.42000E-19
 -1      2535 9.52710E-05-2.36778E-05-3.06458E-05-1.25950E-05 2.01173E-18 6.40210E-19
 -1      2536 9.39354E-05-2.18994E-05-3.08975E-05-1.31625E-05 1.74131E-18 1.65066E-18
 -1      2537 9.39136E-05-2.34035E-05-3.02473E-05-1.50271E-05 1.54336E-18 1.24795E-18
 -1      2538 9.70918E-05-2.62395E-05-3.03264E-05-1.02187E-05-3.47215E-19-1.33141E-18
 -1      2539 9.62296E-05-2.48553E-05-3.05784E-05-1.13782E-05 7.79442E-19-1.75731E-18
 -1      2540 9.70106E-05-2.64231E-05-3.02697E-05-1.33082E-05 1.29253E-18-8.61506E-19
 -1      2541 9.70005E-05-2.68106E-05-3.00984E-05-7.04886E-06-1.59264E-18 1.50444E-18
 -1      2542 2.38546E-05-2.02541E-05-1.16303E-06-1.05591E-05 3.11528E-18 1.12232E-19
 -1      2543 3.04790E-05-2.52096E-05-1.95404E-06-2.53064E-05 3.93320E-18 7.11508E-19
 -1      2544 9.36180E-05-2.74708E-05-2.83372E-05 3.75312E-07 8.97393E-19 8.23965E-19
 -1      2545 9.39012E-05-2.73352E-05-2.84845E-05 9.08787E-07 1.07487E-18 9.55481E-19
 -1      2546 9.42632E-05-2.74878E-05-2.86315E-05 4.10171E-07 1.00645E-18 3.06572E-19
 -1      2547 9.07357E-05-5.34186E-05-1.60284E-05 4.58756E-05 9.07172E-19-3.51640E-18
 -1      2548 7.27055E-05-4.77471E-05-1.05822E-05 4.45920E-05 1.27415E-18-3.63165E-18
 -1      2549 4.30738E-05-3.21046E-05-4.39828E-06-3.49316E-05 5.40788E-18 1.28156E-18
 -1      2550 5.90854E-05-3.94184E-05-8.30720E-06-4.36520E-05 4.96192E-18 3.54399E-18
 -1      2551 9.50707E-05-2.00237E-05-3.22115E-05-1.17375E-05-2.06623E-18-1.53145E-18
 -1      2552 9.54720E-05-2.33865E-05-3.09250E-05-7.98423E-06-1.88822E-18-1.31309E-18
 -1      2553 9.50655E-05-2.25356E-05-3.10517E-05-7.66815E-06-1.77759E-18-1.55208E-18
 -1      2554 9.32166E-05-1.75772E-05-3.24144E-05-1.13677E-05-1.97650E-18-2.06913E-18
 -1      2555 1.23878E-04-6.10141E-05-2.72454E-05 3.43672E-05 7.02614E-19-3.49592E-18
 -1      2556 1.07620E-04-5.88924E-05-2.07975E-05 3.98515E-05 7.30354E-19-2.92586E-18
 -1      2557 1.04499E-04-5.78313E-05-1.96656E-05 4.12131E-05 4.91067E-19-4.05033E-18
 -1      2558 1.43266E-04-5.29154E-05-3.88289E-05-6.12344E-06 6.53592E-19-1.16552E-18
 -1      2559 1.49952E-04-4.40139E-05-4.57396E-05 1.62670E-06 1.08875E-18-1.37092E-18
 -1      2560 1.49950E-04-1.73518E-05-5.72102E-05 7.35196E-06 3.07198E-18-6.22781E-19
 -1      2561 1.51449E-04-1.35860E-05-5.94094E-05 5.24566E-06 2.74100E-18-3.18379E-19
 -1      2562 8.78444E-05-1.08020E-05-3.30539E-05-1.51912E-06 3.81636E-19-3.26159E-18
 -1      2563 8.79496E-05-1.09240E-05-3.30452E-05-2.63851E-06 1.46575E-19-3.27988E-18
 -1      2564 8.93489E-05-1.30966E-05-3.26815E-05-2.93149E-06 6.23678E-20-3.06319E-18
 -1      2565 8.91008E-05-1.27620E-05-3.27199E-05-9.41402E-07 4.13798E-19-3.03091E-18
 -1      2566 1.50715E-04-1.18255E-05-5.98524E-05 1.95942E-06 2.00577E-18-6.59098E-21
 -1      2567 1.50157E-04-1.33535E-05-5.89768E-05-8.02431E-07 1.78809E-18 3.76612E-19
 -1      2568 1.20675E-04-5.97031E-05-2.61897E-05-2.85542E-05 6.68309E-19-1.33387E-18
 -1      2569 1.33505E-04-5.95666E-05-3.20435E-05-1.95248E-05 3.50989E-19-8.70326E-19
 -1      2570 1.51101E-04-1.99874E-05-5.65845E-05-3.34014E-06 9.42324E-19 2.94979E-19
 -1      2571 1.49923E-04-2.71144E-05-5.29288E-05-3.96760E-06 3.09591E-19 6.86944E-19
 -1      2572 1.49058E-04-3.20037E-05-5.04196E-05 7.98258E-06 2.39266E-18-1.10390E-18
 -1      2573 1.50783E-04-2.53416E-05-5.41480E-05 8.34677E-06 3.34387E-18-3.89212E-19
 -1      2574 3.58854E-05-2.58824E-05-3.97391E-06 2.90856E-05 3.80530E-19-2.30499E-18
 -1      2575 2.40012E-05-2.25185E-05-3.18443E-07 1.66988E-05 5.12243E-19-2.57646E-18
 -1      2576 9.32382E-05-5.39073E-05-1.67867E-05-3.91129E-05 1.45372E-18-4.91597E-19
 -1      2577 1.08866E-04-5.73933E-05-2.21045E-05-3.66373E-05 1.22100E-18-1.07023E-18
 -1      2578 1.18723E-04-6.06363E-05-2.46680E-05-2.89100E-05 1.94818E-19-4.56974E-19
 -1      2579 5.40444E-05-3.73311E-05-6.88155E-06-3.85905E-05 8.46398E-19-1.20152E-18
 -1      2580 7.36344E-05-4.60436E-05-1.17653E-05-4.30586E-05 1.49904E-18-1.46007E-19
 -1      2581 8.95961E-05-5.07606E-05-1.62699E-05-3.93773E-05 5.49724E-19-2.68827E-19
 -1      2582 2.78935E-05-2.29284E-05-1.68574E-06-2.10941E-05 8.43751E-19-2.08751E-18
 -1      2583 3.73772E-05-2.69478E-05-4.11420E-06-3.13568E-05 9.06749E-19-2.65820E-18
 -1      2584 1.87098E-05-1.99143E-05 7.78964E-07 5.14260E-06 6.03829E-19-3.38983E-18
 -1      2585 2.03509E-05-1.94668E-05-9.79120E-09-1.02159E-05 8.00340E-19-2.81046E-18
 -1      2586 3.06680E-05-1.79239E-05-4.98794E-06-1.47072E-05 4.93714E-19-2.99151E-18
 -1      2587 2.87397E-05-1.69218E-05-4.50073E-06 1.01507E-05 1.34149E-19-3.41757E-18
 -1      2588 7.70750E-05-4.71634E-05-1.26621E-05 4.29919E-05-1.88168E-18-2.23744E-18
 -1      2589 5.77471E-05-3.82130E-05-8.02980E-06 3.93662E-05-9.75782E-19-2.33336E-18
 -1      2590 1.14308E-04-5.88100E-05-2.40006E-05 3.43542E-05-1.18098E-18-3.88481E-18
 -1      2591 9.54530E-05-5.46442E-05-1.73837E-05 3.84515E-05-1.82493E-18-2.40899E-18
 -1      2592 1.42191E-04-5.57488E-05-3.72814E-05 1.55404E-05-4.87044E-21-5.39560E-18
 -1      2593 1.30186E-04-5.88384E-05-3.05624E-05 2.15560E-05 6.16216E-20-5.19485E-18
 -1      2594 1.51323E-04-4.12607E-05-4.77184E-05-2.51026E-06-2.10699E-19-4.27201E-18
 -1      2595 1.46941E-04-4.87475E-05-4.22437E-05 5.07058E-06-2.99373E-19-4.41961E-18
 -1      2596 1.43976E-04-5.42508E-05-3.84045E-05 2.59011E-06-1.99926E-19-4.86578E-18
 -1      2597 1.46895E-04-2.13329E-05-5.44394E-05-1.03157E-05-1.72731E-18-1.73059E-18
 -1      2598 1.49573E-04-3.01888E-05-5.13976E-05-8.61062E-06-1.19389E-18-3.08849E-18
 -1      2599 1.49871E-04-1.15116E-05-5.94374E-05-2.46523E-06-3.21703E-18-2.01522E-18
 -1      2600 1.45839E-04-1.27573E-05-5.74572E-05-5.91493E-06-2.33993E-18-8.87691E-19
 -1      2601 1.52451E-04-1.89688E-05-5.74535E-05 2.35784E-06-1.55092E-18-2.57710E-18
 -1      2602 1.51830E-04-1.40353E-05-5.94278E-05 7.96552E-07-2.00323E-18-2.10615E-18
 -1      2603 1.51348E-04-3.65739E-05-4.93555E-05 5.35624E-07-2.05109E-18-4.26439E-18
 -1      2604 1.53941E-04-2.84316E-05-5.41521E-05 2.20815E-06-2.58218E-18-3.79238E-18
 -1      2605 1.42334E-04-5.61506E-05-3.69910E-05-1.64766E-05-1.32455E-18-3.10565E-18
 -1      2606 1.50682E-04-4.93464E-05-4.38722E-05-8.34246E-06-1.82455E-18-4.02997E-18
 -1      2607 1.18074E-04-6.07908E-05-2.44107E-05-3.49594E-05 1.44610E-18-1.71662E-18
 -1      2608 1.33111E-04-6.08069E-05-3.12254E-05-2.90649E-05-5.60948E-19-3.09463E-18
 -1      2609 7.91795E-05-4.95359E-05-1.24556E-05-4.46323E-05 4.53290E-18 2.32405E-18
 -1      2610 9.86947E-05-5.61584E-05-1.83569E-05-4.46780E-05 3.24244E-18-4.57543E-19
 -1      2611 2.98263E-05-2.66701E-05-1.12386E-06 2.57351E-05 4.57821E-19 1.83256E-18
 -1      2612 2.32844E-05-2.06446E-05-7.54460E-07 1.00320E-05 1.86030E-18 3.30343E-20
 -1      2613 9.63325E-05-2.50949E-05-3.05563E-05 7.59615E-06 2.14532E-18 1.71793E-18
 -1      2614 9.74545E-05-2.37784E-05-3.15969E-05 1.06956E-05 2.26880E-18 2.01337E-18
 -1      2615 9.58888E-05-2.13030E-05-3.20212E-05 1.18977E-05 2.46900E-18 1.10892E-18
 -1      2616 9.58771E-05-2.41612E-05-3.07686E-05 7.68792E-06 2.15743E-18 5.77706E-19
 -1      2617 1.46760E-04-5.46923E-05-3.96965E-05 1.47483E-05-7.26225E-19 7.85411E-19
 -1      2618 1.37774E-04-5.95320E-05-3.35098E-05 2.06830E-05 4.19811E-19-1.16891E-18
 -1      2619 1.45993E-04-5.32063E-05-3.97677E-05 3.63477E-06-1.03918E-18-6.79744E-19
 -1      2620 1.40493E-04-1.51058E-05-5.39435E-05-5.38696E-06 1.70021E-18 1.50137E-18
 -1      2621 9.08092E-05-1.50672E-05-3.24569E-05-6.79581E-06-9.06756E-19-3.03764E-18
 -1      2622 8.97064E-05-1.32055E-05-3.28433E-05-7.97012E-06-1.02278E-18-3.22330E-18
 -1      2623 9.04045E-05-1.40321E-05-3.27966E-05-9.14601E-06-1.34389E-18-3.02887E-18
 -1      2624 9.47300E-05-2.69384E-05-2.90659E-05 1.88988E-06 1.34182E-18 2.76113E-19
 -1      2625 9.42446E-05-1.90814E-05-3.22580E-05 1.16070E-05 2.54013E-18 5.66983E-20
 -1      2626 1.33069E-04-6.25567E-05-3.00968E-05 2.42643E-05-5.47395E-20-1.82313E-18
 -1      2627 4.44445E-05-2.65235E-05-7.13965E-06-3.04397E-05 4.08683E-18 6.31887E-19
 -1      2628 7.07044E-05-4.33135E-05-1.13651E-05 4.37709E-05 2.33781E-19-3.95639E-18
 -1      2629 9.78920E-05-2.79009E-05-2.99975E-05 6.92845E-06 1.06938E-20 4.30363E-18
 -1      2630 9.77021E-05-2.72648E-05-3.01757E-05 8.09787E-06 5.17730E-19 4.20547E-18
 -1      2631 4.20795E-05-2.73231E-05-5.87215E-06 3.05986E-05 1.38596E-19 9.78535E-19
 -1      2632 9.87978E-05-2.86321E-05-3.00328E-05-7.45300E-06-1.12523E-18 1.33085E-18
 -1      2633 9.77686E-05-2.71732E-05-3.02428E-05-9.04233E-06-1.21483E-18 2.86287E-19
 -1      2634 9.88849E-05-2.85020E-05-3.01918E-05-1.06826E-05-8.44037E-19-8.58322E-19
 -1      2635 1.00107E-04-2.98194E-05-3.01567E-05-7.89133E-06-7.55299E-19 1.68622E-18
 -1      2636 7.59988E-05-4.42937E-05-1.31086E-05-4.31200E-05 4.85900E-18 2.81342E-18
 -1      2637 1.13835E-04-6.02536E-05-2.26874E-05-3.69240E-05 2.55931E-18-9.46136E-19
 -1      2638 2.72424E-05-1.81757E-05-3.26786E-06 1.14273E-07 1.99787E-18-4.39187E-19
 -1      2639 3.40413E-05-1.65697E-05-6.90215E-06-8.23616E-06 1.84710E-18-4.23940E-19
 -1      2640 3.35687E-05-1.67953E-05-6.64466E-06 1.02792E-05 1.46198E-18-8.26704E-19
 -1      2641 9.47148E-05-2.06031E-05-3.17178E-05 9.67427E-06 2.30579E-18-2.06603E-19
 -1      2642 1.44539E-04-3.94321E-05-4.53510E-05 9.72020E-06 1.63986E-18-1.27796E-18
 -1      2643 1.39894E-04-6.10523E-05-3.36968E-05-1.67543E-05-1.17896E-19-3.17849E-18
 -1      2644 1.47396E-04-4.47168E-05-4.41190E-05 1.89528E-06-1.91202E-18-4.58922E-18
 -1      2645 1.41817E-04-1.98027E-05-5.25207E-05 1.20643E-05 2.93497E-18-2.40134E-19
 -1      2646 1.39709E-04-5.83191E-05-3.49796E-05-9.41649E-06-6.39033E-19-8.47668E-19
 -1      2647 1.40195E-04-5.44117E-05-3.71856E-05 1.56091E-06-4.69653E-19-9.93146E-19
 -1      2648 1.33921E-04-6.05317E-05-3.13078E-05-1.23154E-05-7.07325E-19 4.28281E-20
 -1      2649 1.44153E-04-2.27369E-05-5.21971E-05 7.43633E-06-1.73176E-18-1.55494E-18
 -1      2650 1.39318E-04-1.07603E-05-5.53164E-05 8.40506E-08-2.68679E-18-1.26398E-18
 -1      2651 1.44686E-04-3.67603E-05-4.64023E-05-1.07674E-05-7.52906E-19-3.83748E-18
 -1      2652 5.33280E-05-3.15370E-05-8.86580E-06-3.46093E-05-1.36690E-19-1.35081E-18
 -1      2653 5.07687E-05-3.10396E-05-7.90895E-06 3.47467E-05-3.32884E-19-2.76006E-18
 -1      2654 4.63483E-05-2.35388E-05-9.17796E-06 2.82678E-05-5.00067E-19-3.46606E-18
 -1      2655 6.60597E-05-3.57056E-05-1.27165E-05 3.64959E-05-1.29765E-18-3.19903E-18
 -1      2656 9.20856E-05-1.62847E-05-3.25215E-05-1.03791E-05-1.71388E-18-2.52287E-18
 -1      2657 1.40236E-04-1.05144E-05-5.57987E-05 4.39392E-06 2.80262E-18-6.21775E-19
 -1      2658 1.45385E-04-3.40867E-05-4.78775E-05-6.97602E-06-3.04720E-19 2.30816E-19
 -1      2659 9.28925E-05-5.20769E-05-1.71899E-05 3.85528E-05-2.68785E-18-3.14498E-18
 -1      2660 1.26016E-04-6.11186E-05-2.76713E-05 2.37372E-05-1.00712E-18-5.56702E-18
 -1      2661 1.40618E-04-1.70338E-05-5.35006E-05-1.04542E-05-2.18196E-18-1.06980E-18
 -1      2662 1.33662E-04-2.01142E-05-4.88689E-05-1.43975E-05-2.37741E-18-1.31396E-18
 -1      2663 1.30147E-04-1.18542E-05-5.14958E-05-9.05833E-06-3.38051E-18-1.42672E-19
 -1      2664 9.88672E-05-2.85538E-05-3.01522E-05 9.75193E-06-2.13590E-19 2.84991E-18
 -1      2665 1.00893E-04-3.05534E-05-3.01483E-05-9.42408E-06-1.05054E-18-1.46477E-20
 -1      2666 9.05626E-05-1.51775E-05-3.23302E-05 3.19744E-06 1.33154E-18-2.53660E-18
 -1      2667 9.03725E-05-1.49060E-05-3.23630E-05 2.26325E-06 1.14305E-18-2.62545E-18
 -1      2668 9.02387E-05-1.47037E-05-3.23921E-05 1.42397E-06 9.30040E-19-2.74622E-18
 -1      2669 9.01739E-05-1.46114E-05-3.24031E-05 4.66190E-07 7.19474E-19-2.73341E-18
 -1      2670 9.14248E-05-1.65991E-05-3.20553E-05 1.64329E-06 9.00806E-19-2.52762E-18
 -1      2671 9.21450E-05-1.75555E-05-3.20049E-05 6.47806E-06 2.03121E-18-1.89524E-18
 -1      2672 9.16191E-05-1.67599E-05-3.21049E-05 5.63755E-06 1.85173E-18-2.07223E-18
 -1      2673 9.35608E-05-1.97764E-05-3.16642E-05 7.60219E-06 2.04895E-18-1.33719E-18
 -1      2674 9.27725E-05-1.85232E-05-3.18381E-05 7.02483E-06 2.02253E-18-1.71372E-18
 -1      2675 9.34394E-05-1.98706E-05-3.15065E-05 5.74011E-06 1.87142E-18-1.76971E-18
 -1      2676 9.52162E-05-2.54095E-05-2.99294E-05 3.98285E-06 1.55964E-18-1.96113E-19
 -1      2677 9.55530E-05-2.45595E-05-3.03933E-05 5.61512E-06 1.70615E-18-1.63899E-19
 -1      2678 1.39524E-04-4.36567E-05-4.14107E-05 1.07124E-05 4.20605E-19 1.13079E-19
 -1      2679 1.38243E-04-3.35410E-05-4.54911E-05 1.45836E-05 1.44970E-18 5.97158E-19
 -1      2680 1.42210E-04-4.97089E-05-4.02429E-05-2.44502E-06-1.42063E-18-1.32539E-18
 -1      2681 1.41417E-04-5.60940E-05-3.65674E-05 3.45262E-06-1.10940E-18-1.84441E-18
 -1      2682 9.49799E-05-2.66915E-05-2.92714E-05 1.78856E-06 1.18915E-18-1.84923E-19
 -1      2683 9.52456E-05-2.61958E-05-2.95564E-05 2.79316E-06 1.38775E-18-1.77305E-19
 -1      2684 9.52695E-05-2.50198E-05-3.01034E-05 3.82506E-06 1.49373E-18-7.17592E-19
 -1      2685 1.30152E-04-1.24212E-05-5.11702E-05-3.56596E-06 1.90985E-18-4.25158E-19
 -1      2686 1.31432E-04-1.76863E-05-4.92065E-05-8.98061E-06 9.50159E-19 3.40931E-20
 -1      2687 9.47058E-05-2.19074E-05-3.12060E-05 7.84671E-06 2.08853E-18-4.21250E-19
 -1      2688 9.53566E-05-2.59058E-05-2.97370E-05-2.71219E-06-1.25426E-18-1.43589E-18
 -1      2689 9.51919E-05-2.64911E-05-2.94544E-05-1.72840E-06-1.07613E-18-1.41162E-18
 -1      2690 9.52151E-05-2.70072E-05-2.92085E-05-9.88101E-07-9.05147E-19-1.30911E-18
 -1      2691 9.50805E-05-2.73616E-05-2.90285E-05-3.83520E-07-7.42828E-19-1.38780E-18
 -1      2692 9.54161E-05-2.63325E-05-2.96127E-05-1.62845E-06-1.05059E-18-1.42575E-18
 -1      2693 9.50477E-05-2.76678E-05-2.88610E-05 8.23041E-08-6.88146E-19-1.41033E-18
 -1      2694 9.49694E-05-2.78921E-05-2.87503E-05 4.32329E-07-7.64089E-19-1.43680E-18
 -1      2695 9.54162E-05-2.73279E-05-2.91879E-05-3.49886E-07-8.11952E-19-1.51357E-18
 -1      2696 9.49272E-05-2.80772E-05-2.86397E-05 7.00797E-07-8.06834E-19-1.30891E-18
 -1      2697 9.48984E-05-2.82236E-05-2.85759E-05 8.83236E-07-8.63517E-19-1.30679E-18
 -1      2698 9.53554E-05-2.79429E-05-2.88978E-05 4.37497E-07-7.99802E-19-1.35575E-18
 -1      2699 9.48634E-05-2.83351E-05-2.85060E-05 1.01678E-06-8.89520E-19-1.27318E-18
 -1      2700 9.48700E-05-2.84314E-05-2.84736E-05 1.09130E-06-6.74638E-19-1.25582E-18
 -1      2701 9.52909E-05-2.83229E-05-2.87060E-05 8.77888E-07-8.26155E-19-1.26706E-18
 -1      2702 9.48457E-05-2.84959E-05-2.84323E-05 1.13664E-06-3.93788E-19-1.13090E-18
 -1      2703 9.48744E-05-2.85583E-05-2.84205E-05 1.14435E-06-3.13032E-19-1.08820E-18
 -1      2704 9.52416E-05-2.85532E-05-2.85848E-05 1.08301E-06-4.55963E-19-1.10547E-18
 -1      2705 9.48598E-05-2.85920E-05-2.83991E-05 1.13546E-06-4.77095E-19-9.67984E-19
 -1      2706 9.49007E-05-2.86304E-05-2.84005E-05 1.10481E-06-5.31042E-19-9.62759E-19
 -1      2707 9.52100E-05-2.86849E-05-2.85137E-05 1.13676E-06-3.73022E-19-6.27778E-19
 -1      2708 9.48936E-05-2.86434E-05-2.83928E-05 1.06598E-06-5.37895E-19-9.79753E-19
 -1      2709 9.49399E-05-2.86646E-05-2.84025E-05 1.01672E-06-3.33260E-19-9.98738E-19
 -1      2710 9.51933E-05-2.87502E-05-2.84777E-05 1.10001E-06-5.53559E-19-4.44905E-19
 -1      2711 9.49381E-05-2.86633E-05-2.84041E-05 9.65218E-07-4.95337E-19-9.69985E-19
 -1      2712 9.49858E-05-2.86718E-05-2.84189E-05 9.11164E-07-2.80246E-19-1.18008E-18
 -1      2713 9.51878E-05-2.87703E-05-2.84661E-05 1.01642E-06-4.11243E-19-7.34759E-19
 -1      2714 9.49878E-05-2.86607E-05-2.84270E-05 8.59264E-07-9.46792E-20-1.35702E-18
 -1      2715 9.50348E-05-2.86597E-05-2.84450E-05 8.10209E-07-1.92305E-19-1.35874E-18
 -1      2716 9.51900E-05-2.87589E-05-2.84715E-05 9.17089E-07-3.52683E-19-1.04203E-18
 -1      2717 9.50395E-05-2.86413E-05-2.84577E-05 7.66816E-07-2.19937E-19-1.49356E-18
 -1      2718 9.50854E-05-2.86329E-05-2.84780E-05 7.29958E-07-1.75526E-19-1.39562E-18
 -1      2719 9.51977E-05-2.87251E-05-2.84890E-05 8.24419E-07-2.00757E-19-7.75343E-19
 -1      2720 9.50921E-05-2.86087E-05-2.84944E-05 7.01813E-07-1.66925E-19-1.23511E-18
 -1      2721 9.51379E-05-2.85944E-05-2.85167E-05 6.82799E-07-3.04241E-19-1.07147E-18
 -1      2722 9.52091E-05-2.86741E-05-2.85157E-05 7.54959E-07-1.50710E-19-1.28287E-18
 -1      2723 9.51462E-05-2.85650E-05-2.85364E-05 6.75419E-07-4.59422E-19-7.77102E-19
 -1      2724 9.51937E-05-2.85455E-05-2.85612E-05 6.79131E-07-4.00167E-19-6.20522E-19
 -1      2725 9.52236E-05-2.86088E-05-2.85498E-05 7.21661E-07-2.52092E-19-7.33497E-19
 -1      2726 9.52036E-05-2.85108E-05-2.85843E-05 6.97516E-07-5.66465E-19-7.84500E-19
 -1      2727 9.52553E-05-2.84867E-05-2.86124E-05 7.28647E-07-5.29310E-19-5.60975E-19
 -1      2728 9.52409E-05-2.85301E-05-2.85910E-05 7.35575E-07-4.24724E-19-5.57575E-19
 -1      2729 9.52670E-05-2.84462E-05-2.86393E-05 7.77790E-07-5.81253E-19-5.59292E-19
 -1      2730 9.53263E-05-2.84176E-05-2.86718E-05 8.41236E-07-5.19634E-19-6.95561E-19
 -1      2731 9.52611E-05-2.84372E-05-2.86395E-05 8.07109E-07-6.91177E-19-5.02606E-19
 -1      2732 9.53399E-05-2.83705E-05-2.87031E-05 9.26447E-07-5.77644E-19-8.25077E-19
 -1      2733 9.54107E-05-2.83379E-05-2.87414E-05 1.02752E-06-5.48310E-19-5.77386E-19
 -1      2734 9.52848E-05-2.83288E-05-2.86962E-05 9.46889E-07-6.84345E-19-5.62608E-19
 -1      2735 9.54269E-05-2.82833E-05-2.87780E-05 1.15456E-06-3.88100E-19-5.10118E-19
 -1      2736 9.55139E-05-2.82473E-05-2.88236E-05 1.29898E-06 1.40995E-19-9.04197E-19
 -1      2737 9.53128E-05-2.82031E-05-2.87621E-05 1.16623E-06-4.76340E-19-6.13430E-19
 -1      2738 9.55331E-05-2.81849E-05-2.88660E-05 1.47401E-06 4.41841E-19-1.01814E-18
 -1      2739 9.56416E-05-2.81470E-05-2.89204E-05 1.66765E-06 4.25077E-19-1.17182E-18
 -1      2740 9.53463E-05-2.80587E-05-2.88384E-05 1.47718E-06-7.42074E-21-2.03960E-19
 -1      2741 9.56650E-05-2.80772E-05-2.89691E-05 1.89685E-06 6.51153E-19-1.64064E-18
 -1      2742 9.58011E-05-2.80401E-05-2.90335E-05 2.14514E-06 5.14835E-19-1.62773E-18
 -1      2743 9.53871E-05-2.78959E-05-2.89258E-05 1.89212E-06 1.82941E-19-1.48962E-18
 -1      2744 9.58307E-05-2.79655E-05-2.90884E-05 2.43406E-06 6.53909E-19-1.61777E-18
 -1      2745 9.60017E-05-2.79346E-05-2.91636E-05 2.74085E-06 4.30336E-19-1.21196E-18
 -1      2746 9.54383E-05-2.77182E-05-2.90239E-05 2.42272E-06 6.86233E-19-2.37459E-18
 -1      2747 9.60410E-05-2.78607E-05-2.92237E-05 3.09325E-06-1.99154E-19-7.70674E-19
 -1      2748 9.62557E-05-2.78454E-05-2.93097E-05 3.45902E-06-1.32226E-19-8.38132E-19
 -1      2749 9.55055E-05-2.75352E-05-2.91311E-05 3.07817E-06 3.10620E-19-9.95993E-19
 -1      2750 9.63119E-05-2.77838E-05-2.93729E-05 3.87513E-06-1.66185E-19-7.11288E-19
 -1      2751 9.65820E-05-2.77999E-05-2.94683E-05 4.29421E-06-3.29740E-19-1.21451E-18
 -1      2752 9.55993E-05-2.73665E-05-2.92437E-05 3.86235E-06-1.15435E-19-5.39266E-19
 -1      2753 9.66686E-05-2.77710E-05-2.95308E-05 4.76812E-06 6.51720E-20-1.09929E-18
 -1      2754 9.70105E-05-2.78448E-05-2.96324E-05 5.22458E-06 3.87826E-19-9.22383E-19
 -1      2755 9.57401E-05-2.72485E-05-2.93551E-05 4.76980E-06-9.68693E-20-4.77778E-19
 -1      2756 9.71530E-05-2.78833E-05-2.96888E-05 5.74048E-06 1.14236E-19-5.33057E-19
 -1      2757 9.75912E-05-2.80559E-05-2.97912E-05 6.20237E-06 1.86976E-20-7.91526E-19
 -1      2758 9.59657E-05-2.72434E-05-2.94551E-05 5.78000E-06 4.56403E-19-7.22261E-20
 -1      2759 9.78347E-05-2.82175E-05-2.98346E-05 6.72910E-06 2.08217E-19-8.26869E-19
 -1      2760 9.84071E-05-2.85504E-05-2.99305E-05 7.14074E-06 2.36950E-19-1.34206E-18
 -1      2761 9.63444E-05-2.74521E-05-2.95306E-05 6.84930E-06-4.13289E-20-2.90775E-19
 -1      2762 9.88278E-05-2.89178E-05-2.99540E-05 7.62346E-06 1.04525E-19-1.33678E-18
 -1      2763 9.95903E-05-2.94959E-05-3.00357E-05 7.89576E-06 1.64567E-19-7.32805E-19
 -1      2764 9.69940E-05-2.80288E-05-2.95672E-05 7.89912E-06 2.21548E-19-4.82976E-19
 -1      2765 1.00308E-04-3.01811E-05-3.00363E-05 8.24245E-06 1.24200E-18-2.12788E-19
 -1      2766 1.01334E-04-3.11044E-05-3.01000E-05 8.24237E-06 1.52728E-18 5.78952E-19
 -1      2767 9.81054E-05-2.91915E-05-2.95549E-05 8.79701E-06 1.09091E-18-1.08371E-19
 -1      2768 1.02515E-04-3.22337E-05-3.00870E-05 8.30164E-06 1.14247E-18 9.17230E-19
 -1      2769 1.03879E-04-3.35808E-05-3.01407E-05 7.84465E-06 1.17293E-18 8.49799E-19
 -1      2770 9.99627E-05-3.12120E-05-2.95006E-05 9.32353E-06 1.62967E-18 7.15890E-19
 -1      2771 1.05713E-04-3.52374E-05-3.01489E-05 7.37952E-06 1.62593E-19 7.26515E-19
 -1      2772 1.07428E-04-3.69768E-05-3.02251E-05 6.24138E-06-2.54011E-19 1.35888E-18
 -1      2773 1.02927E-04-3.43403E-05-2.94514E-05 9.11917E-06 7.61125E-19 7.28874E-19
 -1      2774 1.10035E-04-3.90752E-05-3.03354E-05 4.90218E-06-7.25351E-19 1.50227E-18
 -1      2775 1.11929E-04-4.08812E-05-3.05072E-05 2.87493E-06-1.07987E-19 1.06932E-18
 -1      2776 1.07337E-04-3.86150E-05-2.95295E-05 7.62113E-06-6.13919E-19 1.22834E-18
 -1      2777 1.15116E-04-4.29048E-05-3.08724E-05 2.73754E-07 4.99067E-19 7.10227E-19
 -1      2778 1.16677E-04-4.39342E-05-3.12584E-05-2.62828E-06 1.60112E-19 5.60521E-19
 -1      2779 1.13178E-04-4.33997E-05-2.99870E-05 4.04606E-06-3.04474E-19 4.90564E-19
 -1      2780 1.19557E-04-4.46482E-05-3.20880E-05-6.53725E-06 7.77762E-19 8.50289E-19
 -1      2781 1.19939E-04-4.35882E-05-3.27975E-05-9.64770E-06 4.71076E-19 1.68758E-18
 -1      2782 1.19466E-04-4.67607E-05-3.12406E-05-2.33938E-06 6.84780E-19 7.14565E-19
 -1      2783 1.21108E-04-4.15229E-05-3.42241E-05-1.37471E-05-4.60046E-19 2.44223E-18
 -1      2784 1.19683E-04-3.73582E-05-3.52717E-05-1.55328E-05-6.27506E-19 2.09907E-18
 -1      2785 1.23751E-04-4.53106E-05-3.37510E-05-1.07439E-05 2.71421E-19 1.39023E-18
 -1      2786 1.17841E-04-3.19776E-05-3.70874E-05-1.68315E-05-7.67015E-19 2.21201E-18
 -1      2787 1.15092E-04-2.66634E-05-3.79466E-05-1.48899E-05-1.27142E-18 2.49426E-18
 -1      2788 1.23302E-04-3.63811E-05-3.73059E-05-1.68491E-05-8.10266E-19 1.87949E-18
 -1      2789 1.17048E-04-2.05489E-05-4.16864E-05-1.30854E-05-1.81493E-18 1.38823E-18
 -1      2790 1.15154E-04-1.67321E-05-4.24846E-05-7.91713E-06-1.68073E-18 6.58747E-19
 -1      2791 1.14087E-04-2.53431E-05-3.80423E-05 1.01072E-05 2.88468E-19-1.07951E-18
 -1      2792 1.16379E-04-3.09594E-05-3.69476E-05 1.19024E-05-1.76103E-19-3.08935E-19
 -1      2793 1.18334E-04-3.62543E-05-3.51677E-05 1.11447E-05 2.29771E-19-3.38793E-19
 -1      2794 1.19647E-04-4.05819E-05-3.40447E-05 9.47006E-06 7.42868E-19 4.24853E-19
 -1      2795 1.21847E-04-3.47767E-05-3.73862E-05 1.23030E-05 5.07240E-19-7.54495E-19
 -1      2796 1.18846E-04-4.29186E-05-3.26003E-05 5.59740E-06 5.29726E-19-2.47979E-19
 -1      2797 1.18333E-04-4.41461E-05-3.18020E-05 2.40921E-06 8.91899E-19-1.64479E-18
 -1      2798 1.23036E-04-4.43479E-05-3.37624E-05 6.53697E-06 1.98682E-19-6.39682E-19
 -1      2799 1.15526E-04-4.34728E-05-3.09627E-05-1.54211E-06 8.65674E-19-2.58624E-18
 -1      2800 1.13729E-04-4.23362E-05-3.05290E-05-4.47078E-06 8.42619E-19-2.52662E-18
 -1      2801 1.19193E-04-4.63103E-05-3.12926E-05-1.72984E-06 6.12641E-19-3.11693E-18
 -1      2802 1.10432E-04-4.01524E-05-3.01885E-05-7.12680E-06 1.24112E-18-2.24209E-18
 -1      2803 1.08197E-04-3.79686E-05-3.00168E-05-9.03080E-06 1.11754E-18-2.42193E-18
 -1      2804 1.12945E-04-4.29528E-05-3.00771E-05-8.19886E-06 1.01688E-18-3.31563E-18
 -1      2805 1.05291E-04-3.54230E-05-2.99859E-05-1.02462E-05 8.35150E-19-2.90707E-18
 -1      2806 1.03166E-04-3.31062E-05-2.99700E-05-1.09538E-05 4.10725E-19-2.43070E-18
 -1      2807 1.06736E-04-3.75000E-05-2.97436E-05-1.17280E-05 1.04518E-18-3.82818E-18
 -1      2808 7.11909E-05-3.80146E-05-1.36297E-05-4.02325E-05 5.26473E-18 4.75927E-18
 -1      2809 8.85787E-05-4.85369E-05-1.72090E-05-4.30858E-05 4.13712E-18 2.44125E-18
 -1      2810 5.29065E-05-2.94231E-05-9.64541E-06 3.58379E-05-1.28008E-19-1.01771E-18
 -1      2811 4.26558E-05-2.21982E-05-8.21338E-06 2.57991E-05 9.05266E-20 1.24217E-18
 -1      2812 9.45507E-05-2.78516E-05-2.85862E-05-4.33473E-07 7.59209E-19-3.47572E-19
 -1      2813 9.46360E-05-2.76632E-05-2.86851E-05-9.17628E-08 9.62369E-19-2.18817E-19
 -1      2814 9.45123E-05-2.84305E-05-2.83198E-05-1.13730E-06 2.88213E-19 1.55166E-19
 -1      2815 9.44555E-05-2.83677E-05-2.83203E-05-1.13318E-06 4.15660E-19 1.46788E-19
 -1      2816 9.45854E-05-2.85075E-05-2.83181E-05-1.09453E-06 4.16101E-19-1.56130E-19
 -1      2817 9.45156E-05-2.84638E-05-2.83069E-05-1.12746E-06 4.16633E-19 5.33904E-21
 -1      2818 9.48934E-05-2.85695E-05-2.84276E-05-1.15761E-06 4.47931E-19-5.79966E-19
 -1      2819 9.46723E-05-2.85539E-05-2.83354E-05-1.00327E-06 7.32224E-19-2.25361E-19
 -1      2820 9.45986E-05-2.85247E-05-2.83176E-05-1.05420E-06 4.53900E-19-1.85456E-19
 -1      2821 9.49156E-05-2.86389E-05-2.84064E-05-1.11705E-06 7.39799E-19-4.98232E-19
 -1      2822 9.47638E-05-2.85779E-05-2.83642E-05-8.93974E-07 7.87899E-19 2.37942E-19
 -1      2823 9.46913E-05-2.85598E-05-2.83430E-05-9.49729E-07 8.18930E-19 2.03193E-19
 -1      2824 9.49514E-05-2.86706E-05-2.84074E-05-1.02803E-06 6.18369E-19-2.64349E-19
 -1      2825 9.48548E-05-2.85852E-05-2.84000E-05-7.88003E-07 4.65528E-19 5.72217E-19
 -1      2826 9.47858E-05-2.85758E-05-2.83771E-05-8.39355E-07 8.25254E-19 6.78357E-19
 -1      2827 9.49943E-05-2.86757E-05-2.84231E-05-9.21923E-07 6.95535E-19 4.75191E-19
 -1      2828 9.49437E-05-2.85797E-05-2.84403E-05-7.00745E-07-3.02924E-19 4.97868E-19
 -1      2829 9.48784E-05-2.85770E-05-2.84164E-05-7.41007E-07 8.74056E-20 5.62938E-19
 -1      2830 9.50406E-05-2.86615E-05-2.84488E-05-8.21028E-07 2.71165E-19 1.13619E-18
 -1      2831 9.50314E-05-2.85641E-05-2.84843E-05-6.43867E-07-1.33111E-19 6.57508E-19
 -1      2832 9.49684E-05-2.85668E-05-2.84594E-05-6.67869E-07-1.60236E-19 7.98488E-19
 -1      2833 9.50887E-05-2.86328E-05-2.84816E-05-7.41627E-07-2.30669E-19 8.00368E-19
 -1      2834 9.51209E-05-2.85404E-05-2.85324E-05-6.27020E-07 3.19931E-19 6.55355E-19
 -1      2835 9.50574E-05-2.85473E-05-2.85059E-05-6.30352E-07 6.81594E-20 8.26648E-19
 -1      2836 9.51385E-05-2.85923E-05-2.85203E-05-6.96284E-07-3.74881E-21 1.13162E-18
 -1      2837 9.52166E-05-2.85096E-05-2.85861E-05-6.59102E-07 3.15595E-19 9.78202E-19
 -1      2838 9.51491E-05-2.85198E-05-2.85569E-05-6.37554E-07 3.10281E-19 6.66850E-19
 -1      2839 9.51912E-05-2.85412E-05-2.85649E-05-6.95575E-07 2.81095E-19 8.56126E-19
 -1      2840 9.53246E-05-2.84726E-05-2.86476E-05-7.49158E-07 1.65769E-19 9.90298E-19
 -1      2841 9.52483E-05-2.84852E-05-2.86142E-05-6.98332E-07 4.24169E-19 9.05764E-19
 -1      2842 9.52491E-05-2.84799E-05-2.86161E-05-7.49363E-07 3.48152E-19 7.80629E-19
 -1      2843 9.54521E-05-2.84301E-05-2.87196E-05-9.06941E-07 2.42747E-19 4.51003E-19
 -1      2844 9.53615E-05-2.84441E-05-2.86803E-05-8.22031E-07 2.27499E-19 4.50471E-19
 -1      2845 9.53153E-05-2.84080E-05-2.86756E-05-8.67685E-07 3.95842E-19 3.52206E-19
 -1      2846 9.56077E-05-2.83834E-05-2.88053E-05-1.14309E-06 3.54973E-19-4.09627E-19
 -1      2847 9.54964E-05-2.83976E-05-2.87581E-05-1.01886E-06 2.83959E-19-1.66645E-19
 -1      2848 9.53937E-05-2.83249E-05-2.87450E-05-1.06127E-06 6.30214E-19-2.05572E-19
 -1      2849 9.58013E-05-2.83347E-05-2.89081E-05-1.46888E-06 6.99240E-19-7.64461E-19
 -1      2850 9.56619E-05-2.83470E-05-2.88508E-05-1.29986E-06 6.88065E-19-5.03063E-19
 -1      2851 9.54891E-05-2.82307E-05-2.88266E-05-1.34162E-06 6.14348E-19-9.37835E-19
 -1      2852 9.60445E-05-2.82881E-05-2.90310E-05-1.89529E-06 7.42681E-19-6.85492E-19
 -1      2853 9.58686E-05-2.82954E-05-2.89616E-05-1.67635E-06 8.37385E-19-7.53071E-19
 -1      2854 9.56073E-05-2.81266E-05-2.89221E-05-1.72064E-06 8.13398E-19-3.57840E-19
 -1      2855 9.63503E-05-2.82511E-05-2.91767E-05-2.43132E-06-2.14041E-19 1.90345E-20
 -1      2856 9.61287E-05-2.82483E-05-2.90934E-05-2.15871E-06 1.85071E-19-1.68334E-19
 -1      2857 9.57555E-05-2.80166E-05-2.90329E-05-2.20955E-06 3.30099E-19 5.72229E-19
 -1      2858 9.67346E-05-2.82369E-05-2.93464E-05-3.08101E-06-1.49021E-19-4.38934E-20
 -1      2859 9.64568E-05-2.82158E-05-2.92481E-05-2.75411E-06-1.38341E-19 3.11247E-19
 -1      2860 9.59429E-05-2.79095E-05-2.91594E-05-2.81700E-06-2.52642E-19 1.14975E-18
 -1      2861 9.72171E-05-2.82678E-05-2.95391E-05-3.83873E-06-5.34491E-19-3.16084E-19
 -1      2862 9.68714E-05-2.82155E-05-2.94259E-05-3.46283E-06-6.15646E-20 1.86548E-19
 -1      2863 9.61831E-05-2.78223E-05-2.93001E-05-3.54597E-06-3.04914E-19 1.38638E-18
 -1      2864 9.78244E-05-2.83807E-05-2.97509E-05-4.68210E-06-1.62563E-18 2.12087E-19
 -1      2865 9.73968E-05-2.82767E-05-2.96244E-05-4.27257E-06-1.13090E-18-1.19207E-19
 -1      2866 9.64967E-05-2.77853E-05-2.94508E-05-4.38903E-06-9.86393E-19 1.24153E-18
 -1      2867 9.85948E-05-2.86342E-05-2.99735E-05-5.56167E-06-6.81518E-19 7.44361E-19
 -1      2868 9.80683E-05-2.84472E-05-2.98378E-05-5.14992E-06-1.06583E-18 3.80534E-19
 -1      2869 9.69173E-05-2.78496E-05-2.96045E-05-5.32141E-06-1.26297E-18 9.18927E-19
 -1      2870 9.95857E-05-2.91171E-05-3.01940E-05-6.38677E-06-5.17896E-19 8.96424E-19
 -1      2871 9.89381E-05-2.88015E-05-3.00561E-05-6.02815E-06-6.25694E-19 8.43019E-19
 -1      2872 9.75004E-05-2.80971E-05-2.97504E-05-6.29112E-06-9.69987E-19 1.87584E-19
 -1      2873 1.00882E-04-2.99544E-05-3.03963E-05-7.00754E-06-3.79485E-19 6.67919E-19
 -1      2874 1.00086E-04-2.94493E-05-3.02655E-05-6.79057E-06-2.75621E-19 1.09256E-18
 -1      2875 9.83370E-05-2.86517E-05-2.98752E-05-7.20513E-06-5.82608E-19 1.55692E-18
 -1      2876 1.02603E-04-3.13008E-05-3.05659E-05-7.19473E-06-3.23218E-19 5.83893E-19
 -1      2877 1.01626E-04-3.05368E-05-3.04514E-05-7.24941E-06-3.07152E-19 3.69021E-19
 -1      2878 9.95690E-05-2.96854E-05-2.99672E-05-7.91034E-06-2.80298E-19 1.23222E-18
 -1      2879 1.04882E-04-3.32990E-05-3.07008E-05-6.62384E-06-5.22274E-20 7.16518E-19
 -1      2880 1.03706E-04-3.22271E-05-3.06067E-05-7.12258E-06-3.18713E-21 8.43301E-19
 -1      2881 1.01399E-04-3.14060E-05-3.00248E-05-8.16800E-06-1.49061E-19 9.58106E-19
 -1      2882 1.07808E-04-3.59640E-05-3.08316E-05-4.88122E-06-2.29748E-19 1.47852E-18
 -1      2883 1.06467E-04-3.46263E-05-3.07471E-05-6.01877E-06-1.42700E-19 1.64083E-18
 -1      2884 1.04070E-04-3.39943E-05-3.00742E-05-7.62257E-06-3.82070E-19 1.23448E-18
 -1      2885 1.11250E-04-3.89505E-05-3.10482E-05-1.55165E-06-3.09630E-20 1.09238E-18
 -1      2886 1.09914E-04-3.76054E-05-3.09353E-05-3.46937E-06-1.39968E-19 1.53897E-18
 -1      2887 1.07764E-04-3.74303E-05-3.01963E-05-5.78220E-06-1.12693E-19 1.27601E-18
 -1      2888 1.14617E-04-4.12459E-05-3.15191E-05 3.52822E-06 5.43067E-19 1.19570E-18
 -1      2889 1.13677E-04-4.05113E-05-3.13078E-05 9.01267E-07 6.39617E-21 1.11470E-18
 -1      2890 1.12356E-04-4.11688E-05-3.05593E-05-2.09340E-06-6.54304E-20 2.79976E-20
 -1      2891 1.16643E-04-4.10384E-05-3.24613E-05 9.68256E-06-1.55407E-21 1.63336E-18
 -1      2892 1.16694E-04-4.18549E-05-3.20695E-05 6.92276E-06 3.24352E-19 1.69625E-18
 -1      2893 1.17007E-04-4.37310E-05-3.14317E-05 3.72912E-06 2.61620E-19 9.72591E-19
 -1      2894 1.15797E-04-3.65072E-05-3.39770E-05 1.45838E-05 1.41061E-18 9.12847E-19
 -1      2895 1.17212E-04-3.94823E-05-3.34004E-05 1.30457E-05 1.36583E-18 1.69712E-18
 -1      2896 1.19860E-04-4.26520E-05-3.31006E-05 1.09135E-05 8.00992E-19 1.13623E-18
 -1      2897 1.11960E-04-2.83316E-05-3.58139E-05 1.47072E-05 1.14741E-18 1.63118E-18
 -1      2898 1.14304E-04-3.27009E-05-3.51778E-05 1.57559E-05 9.91942E-19 1.95686E-18
 -1      2899 1.18809E-04-3.57892E-05-3.56287E-05 1.63364E-05 1.30380E-18 1.75546E-18
 -1      2900 1.07892E-04-2.13083E-05-3.71254E-05 7.80552E-06 3.84368E-19 2.24858E-18
 -1      2901 1.09489E-04-2.41160E-05-3.68008E-05 1.17282E-05 1.06091E-18 1.77660E-18
 -1      2902 1.14531E-04-2.60456E-05-3.80042E-05 1.47225E-05 8.69307E-19 3.36725E-18
 -1      2903 1.07406E-04-2.11575E-05-3.71451E-05-2.86431E-06-6.10075E-19 1.89122E-18
 -1      2904 1.07069E-04-2.01790E-05-3.73397E-05 1.82594E-06-1.68163E-19 2.45036E-18
 -1      2905 1.10848E-04-1.88270E-05-3.96183E-05 5.46188E-06-1.00241E-19 3.46984E-18
 -1      2906 1.10974E-04-2.81517E-05-3.57498E-05-1.02337E-05-2.73393E-19 1.30679E-18
 -1      2907 1.09214E-04-2.42311E-05-3.64025E-05-7.67016E-06-2.39128E-19 1.22279E-18
 -1      2908 1.12083E-04-2.15522E-05-3.89329E-05-6.14587E-06-5.47766E-19 1.93826E-18
 -1      2909 1.14769E-04-3.63950E-05-3.37507E-05-1.04684E-05-1.77876E-18 1.87126E-18
 -1      2910 1.13224E-04-3.26104E-05-3.44969E-05-1.09800E-05-1.20133E-18 1.61479E-18
 -1      2911 1.16373E-04-3.10350E-05-3.66010E-05-1.18016E-05-1.20921E-18 2.11801E-18
 -1      2912 1.15411E-04-4.08369E-05-3.20092E-05-5.42122E-06-2.54629E-19 1.24466E-18
 -1      2913 1.15110E-04-3.90978E-05-3.26000E-05-7.87136E-06-1.08997E-18 1.80766E-18
 -1      2914 1.19067E-04-3.99210E-05-3.39032E-05-9.04108E-06-9.05518E-19 1.00477E-18
 -1      2915 1.12791E-04-4.06705E-05-3.08705E-05 9.69787E-07 6.97356E-19 5.60962E-19
 -1      2916 1.13746E-04-4.10087E-05-3.12371E-05-1.81934E-06 2.84289E-19 5.97944E-19
 -1      2917 1.17609E-04-4.35180E-05-3.17517E-05-2.21482E-06 4.96944E-19-7.18919E-20
 -1      2918 1.08530E-04-3.76824E-05-3.02980E-05 6.01426E-06 9.65581E-19 1.82231E-18
 -1      2919 1.10178E-04-3.91955E-05-3.04882E-05 3.87990E-06 4.09444E-19 9.88603E-19
 -1      2920 1.13142E-04-4.20320E-05-3.05106E-05 4.45463E-06 3.65326E-19-8.91893E-19
 -1      2921 1.04111E-04-3.37619E-05-3.00930E-05 8.78537E-06 1.53300E-18 2.47616E-18
 -1      2922 1.05917E-04-3.56250E-05-3.01797E-05 7.68003E-06 1.63474E-18 2.86056E-18
 -1      2923 1.07812E-04-3.78890E-05-3.00173E-05 8.86545E-06 2.08651E-19-7.59940E-19
 -1      2924 1.00528E-04-3.02984E-05-3.00605E-05 9.66154E-06 5.76893E-19 2.15005E-18
 -1      2925 1.02250E-04-3.21286E-05-3.00902E-05 9.59768E-06 1.31694E-18 2.07490E-18
 -1      2926 1.03345E-04-3.35258E-05-2.99413E-05 1.11069E-05 8.94042E-19 8.69127E-20
 -1      2927 9.97647E-05-2.95364E-05-3.00943E-05 1.18013E-05-3.89156E-19 2.36286E-19
 -1      2928 7.99810E-05-1.39643E-05-2.83507E-05 2.82083E-06 1.41153E-18 1.12497E-22
 -1      2929 8.10343E-05-1.46966E-05-2.84062E-05 6.82431E-06 9.27359E-19-1.09599E-18
 -1      2930 1.01561E-04-3.14894E-05-3.00502E-05-1.10764E-05-1.61515E-19-2.08062E-18
 -1      2931 1.00265E-04-3.00130E-05-3.00757E-05-1.09609E-05-6.89655E-19-1.33711E-18
 -1      2932 9.93612E-05-2.91180E-05-3.01065E-05-1.23501E-05 3.18364E-19-3.20560E-18
 -1      2933 1.02304E-04-3.27322E-05-2.98470E-05-1.27155E-05 8.47062E-19-5.47556E-18
 -1      2934 8.88456E-05-2.10956E-05-2.91289E-05 1.57542E-05 6.33242E-19-2.09663E-18
 -1      2935 9.16864E-05-2.31867E-05-2.92698E-05 1.67192E-05 5.83529E-19-2.65644E-18
 -1      2936 8.08242E-05-1.45305E-05-2.83979E-05-6.34294E-06 6.65237E-19-1.78156E-18
 -1      2937 7.98958E-05-1.38954E-05-2.83459E-05-2.28315E-06 1.25659E-18-2.10210E-18
 -1      2938 7.76746E-05-1.48262E-05-2.68381E-05 2.95893E-07 1.27074E-18-1.15732E-18
 -1      2939 8.32118E-05-1.66270E-05-2.86393E-05 1.09897E-05-5.97972E-19-2.33605E-18
 -1      2940 8.57251E-05-1.83982E-05-2.87732E-05 1.37272E-05 1.55791E-19-1.08732E-18
 -1      2941 8.67234E-05-2.17567E-05-2.78277E-05 1.66301E-05 2.05870E-19-2.56132E-18
 -1      2942 8.03969E-05-1.69297E-05-2.71211E-05 1.02086E-05 3.89530E-19-1.14710E-18
 -1      2943 8.22010E-05-4.62585E-05-1.53150E-05 4.38958E-05 2.96462E-19-3.72218E-18
 -1      2944 6.57987E-05-3.72839E-05-1.16906E-05 4.06142E-05 4.34104E-19-3.11316E-18
 -1      2945 6.56463E-05-3.29264E-05-1.34829E-05 3.65098E-05-3.57871E-20-1.81752E-18
 -1      2946 8.52893E-05-1.80483E-05-2.87421E-05-1.33560E-05 5.58420E-19-1.32090E-18
 -1      2947 8.28827E-05-1.63593E-05-2.86152E-05-1.05624E-05 4.65337E-19-4.62106E-19
 -1      2948 8.00062E-05-1.66446E-05-2.70909E-05-9.65668E-06 6.10610E-19-1.31517E-18
 -1      2949 9.12121E-05-2.27942E-05-2.92336E-05-1.66632E-05 1.03981E-18-5.40362E-19
 -1      2950 8.83694E-05-2.07097E-05-2.90917E-05-1.55571E-05 5.61615E-19-5.50163E-19
 -1      2951 8.61657E-05-2.13265E-05-2.77695E-05-1.63237E-05 2.10737E-19-9.45663E-19
 -1      2952 9.63035E-05-2.69193E-05-2.96821E-05-1.61970E-05 1.84732E-18 1.84738E-18
 -1      2953 9.40390E-05-2.51260E-05-2.95847E-05-1.66917E-05 1.62361E-18 5.71795E-19
 -1      2954 9.31381E-05-2.64761E-05-2.86105E-05-1.84010E-05 1.18472E-18 5.04471E-19
 -1      2955 9.88533E-05-2.88765E-05-2.99650E-05-1.37559E-05 7.87288E-19-2.40658E-18
 -1      2956 9.74528E-05-2.76315E-05-2.99348E-05-1.50886E-05 1.93350E-18-2.05668E-19
 -1      2957 9.78411E-05-2.95108E-05-2.93089E-05-1.69031E-05 1.29930E-18 1.45507E-18
 -1      2958 1.00192E-04-3.06449E-05-2.97891E-05-1.42221E-05 1.07390E-18-3.71713E-18
 -1      2959 9.47226E-05-2.74144E-05-2.88486E-05 3.95461E-07 1.00510E-18-2.60993E-19
 -1      2960 9.48996E-05-2.71216E-05-2.90212E-05 9.96974E-07 1.04665E-18-1.91471E-19
 -1      2961 9.52530E-05-2.64999E-05-2.94699E-05 1.74093E-06 1.20211E-18-7.93720E-19
 -1      2962 9.51273E-05-2.73772E-05-2.90432E-05 3.84633E-07 1.03011E-18-8.04273E-19
 -1      2963 1.06981E-04-5.67835E-05-2.10225E-05-3.79505E-05 2.71305E-18-4.19030E-19
 -1      2964 1.22951E-04-6.25601E-05-2.62468E-05-3.08306E-05 2.17412E-18-2.32913E-18
 -1      2965 9.43327E-05-2.08733E-05-3.15173E-05-8.24776E-06-1.68768E-18-2.03834E-18
 -1      2966 9.47182E-05-2.26478E-05-3.09123E-05-6.40862E-06-1.56046E-18-1.82565E-18
 -1      2967 5.02746E-05-2.55828E-05-1.01284E-05-2.99820E-05-4.94932E-19-1.77835E-18
 -1      2968 6.59872E-05-3.58299E-05-1.26402E-05-3.78995E-05-2.70204E-19-6.26593E-19
 -1      2969 1.34764E-04-6.23959E-05-3.07108E-05-1.83243E-05 1.13714E-18-3.52662E-18
 -1      2970 1.40989E-04-5.94461E-05-3.55854E-05-9.10280E-06 1.43837E-19-4.55735E-18
 -1      2971 9.44678E-05-2.83107E-05-2.83524E-05-1.08790E-06 3.62481E-19-1.94910E-19
 -1      2972 9.44380E-05-2.82216E-05-2.83721E-05-1.01885E-06 2.99974E-19-3.39851E-19
 -1      2973 9.48938E-05-2.84457E-05-2.84823E-05-1.10516E-06 2.13987E-19-3.54156E-19
 -1      2974 9.44723E-05-2.81287E-05-2.84328E-05-8.83300E-07 3.64063E-19-2.72348E-19
 -1      2975 9.44891E-05-2.80017E-05-2.84835E-05-7.08123E-07 5.85127E-19-2.46788E-19
 -1      2976 9.49279E-05-2.82408E-05-2.85865E-05-8.96416E-07 3.87028E-19-5.18027E-19
 -1      2977 9.52677E-05-2.41013E-05-3.04820E-05-5.16395E-06-1.36922E-18-1.65945E-18
 -1      2978 9.51742E-05-2.50822E-05-3.00579E-05-3.67616E-06-1.26642E-18-1.61549E-18
 -1      2979 9.52254E-05-2.47671E-05-3.01894E-05-3.43348E-06-1.20687E-18-1.62281E-18
 -1      2980 9.45858E-05-2.23736E-05-3.09412E-05-5.69869E-06-1.35451E-18-1.98447E-18
 -1      2981 8.34445E-05-4.54340E-05-1.58166E-05-3.81742E-05 4.03399E-20-5.15631E-20
 -1      2982 1.00596E-04-5.37790E-05-2.00001E-05-3.57433E-05 7.85623E-20 2.52072E-19
 -1      2983 1.13250E-04-5.95192E-05-2.32249E-05 3.63945E-05 8.79432E-19-3.82588E-18
 -1      2984 9.95875E-05-5.35992E-05-1.92238E-05 4.02420E-05 9.25701E-19-4.08474E-18
 -1      2985 1.31628E-04-1.11968E-05-5.22372E-05 7.68019E-06 2.77361E-18-4.63433E-19
 -1      2986 1.30540E-04-9.56505E-06-5.25598E-05 1.87618E-06 2.49515E-18-1.94407E-19
 -1      2987 9.11790E-05-1.60920E-05-3.22082E-05 4.92136E-06 1.76493E-18-2.18186E-18
 -1      2988 9.08375E-05-1.55939E-05-3.22690E-05 3.99837E-06 1.47230E-18-2.39124E-18
 -1      2989 9.18163E-05-1.72056E-05-3.19607E-05 3.20106E-06 1.34980E-18-2.25992E-18
 -1      2990 9.24849E-05-1.82650E-05-3.17883E-05 4.61978E-06 1.68086E-18-1.99724E-18
 -1      2991 9.08007E-05-1.55442E-05-3.22740E-05-3.93504E-06-2.50463E-19-2.93704E-18
 -1      2992 9.11343E-05-1.60292E-05-3.22147E-05-4.85824E-06-5.12065E-19-2.96554E-18
 -1      2993 1.37756E-04-2.64103E-05-4.80140E-05 1.08193E-05-1.12062E-18-2.38344E-18
 -1      2994 1.35188E-04-1.84585E-05-5.08059E-05 7.98724E-06-1.16340E-18-1.40089E-18
 -1      2995 1.04066E-04-5.55289E-05-2.08752E-05 3.47921E-05-2.14575E-18-3.66294E-18
 -1      2996 8.75246E-05-4.72062E-05-1.69154E-05 3.72726E-05-2.25004E-18-2.30292E-18
 -1      2997 9.20384E-05-1.66593E-05-3.23128E-05-9.02628E-06-1.48617E-18-2.57337E-18
 -1      2998 1.35978E-04-2.84951E-05-4.68349E-05-1.07278E-05-1.01104E-18-1.23349E-19
 -1      2999 1.39595E-04-3.92829E-05-4.32621E-05-9.06212E-06-1.86760E-18-7.33742E-19
 -1      3000 1.11159E-04-5.79427E-05-2.25369E-05-3.08127E-05 1.26737E-19 2.06709E-19
 -1      3001 1.20666E-04-6.00117E-05-2.60390E-05-2.44275E-05-6.37286E-19 6.87791E-19
 -1      3002 1.05305E-04-5.39674E-05-2.17140E-05-3.10925E-05-4.82809E-19 8.76838E-19
 -1      3003 4.31416E-05-2.10967E-05-8.85080E-06-2.39259E-05 3.03333E-18-6.54333E-19
 -1      3004 5.42513E-05-2.82380E-05-1.08569E-05-3.46861E-05 3.95988E-18 2.19890E-18
 -1      3005 1.32593E-04-6.16449E-05-3.08356E-05 1.51459E-05 1.79995E-20-5.80271E-18
 -1      3006 1.19521E-04-6.01436E-05-2.51438E-05 2.53774E-05-6.39086E-19-5.10528E-18
 -1      3007 1.41202E-04-5.11467E-05-3.92642E-05-4.53254E-06-3.45166E-20-4.70124E-18
 -1      3008 1.39281E-04-5.71744E-05-3.51008E-05 3.12046E-06-2.49292E-19-4.46418E-18
 -1      3009 1.36576E-04-3.29841E-05-4.52235E-05-1.53299E-05-1.46632E-18-1.19749E-18
 -1      3010 1.40340E-04-4.24833E-05-4.20557E-05-1.23733E-05-5.36595E-19-2.90744E-18
 -1      3011 1.32614E-04-1.26477E-05-5.20060E-05 4.36727E-06-2.23532E-18-2.04776E-18
 -1      3012 1.29757E-04-9.67200E-06-5.20752E-05-2.26318E-06-2.83311E-18-1.44284E-18
 -1      3013 1.27623E-04-1.64271E-05-4.80733E-05 7.32580E-06-1.42238E-18-2.66641E-18
 -1      3014 1.34665E-04-2.21929E-05-4.85592E-05 1.49192E-05 2.37466E-18 9.51112E-19
 -1      3015 1.33491E-04-1.59332E-05-5.11266E-05 1.16027E-05 2.95445E-18 3.00538E-19
 -1      3016 1.26249E-04-1.40408E-05-4.84752E-05 1.04449E-05 2.11928E-18 1.59862E-18
 -1      3017 1.42920E-04-4.97503E-05-3.99399E-05 2.34662E-06-8.83455E-19-5.48422E-18
 -1      3018 1.41572E-04-3.92651E-05-4.46384E-05 8.01864E-06-1.28082E-18-4.33427E-18
 -1      3019 1.36795E-04-6.18891E-05-3.25832E-05 1.54359E-05-1.87618E-19-1.47325E-18
 -1      3020 1.26661E-04-6.25274E-05-2.72033E-05 2.65446E-05 4.62851E-19-2.49075E-18
 -1      3021 1.21690E-04-6.00115E-05-2.61656E-05 2.73369E-05 6.54439E-19-2.62800E-18
 -1      3022 9.15590E-05-1.66710E-05-3.21141E-05-5.58438E-06-6.79405E-19-2.89623E-18
 -1      3023 9.20363E-05-1.73733E-05-3.20223E-05-6.41625E-06-9.83602E-19-2.75987E-18
 -1      3024 9.24302E-05-1.81865E-05-3.17975E-05-4.58083E-06-5.44003E-19-2.69521E-18
 -1      3025 9.12930E-05-1.63966E-05-3.20863E-05 2.85431E-08 6.07445E-19-2.53033E-18
 -1      3026 9.01696E-05-1.46063E-05-3.24037E-05-3.83368E-07 5.66483E-19-2.78398E-18
 -1      3027 9.02261E-05-1.46866E-05-3.23937E-05-1.34157E-06 3.26356E-19-2.89157E-18
 -1      3028 1.28179E-04-2.43880E-05-4.48112E-05-1.09907E-05-8.80067E-19-1.31740E-18
 -1      3029 1.31937E-04-2.88004E-05-4.45531E-05 1.62944E-05 1.23688E-18 2.69833E-18
 -1      3030 1.36541E-04-5.84842E-05-3.34883E-05 7.75683E-06-3.35107E-19-1.64991E-18
 -1      3031 1.23554E-04-1.23461E-05-4.80929E-05-1.21691E-06 2.36163E-18-2.51092E-19
 -1      3032 9.43536E-05-2.14244E-05-3.12596E-05 7.22073E-06 1.96504E-18-8.33719E-19
 -1      3033 7.92725E-05-4.00170E-05-1.63611E-05-3.51439E-05-3.15096E-19-1.64748E-19
 -1      3034 1.01582E-04-5.18134E-05-2.08781E-05-3.70484E-05 2.86255E-18 1.49861E-18
 -1      3035 1.10212E-04-1.72873E-05-4.00629E-05 7.47231E-07-1.01146E-18 9.79713E-19
 -1      3036 1.11825E-04-2.03009E-05-3.95756E-05 5.72377E-06-1.89894E-19-4.47763E-19
 -1      3037 9.36579E-05-2.68497E-05-2.86660E-05 1.83327E-05-9.62822E-20-1.99010E-18
 -1      3038 9.43955E-05-2.54239E-05-2.96109E-05 1.65849E-05-2.21216E-19-2.62467E-18
 -1      3039 9.65835E-05-2.71572E-05-2.96981E-05 1.60582E-05-1.40103E-18-7.89546E-19
 -1      3040 6.84667E-05-3.28063E-05-1.47450E-05-3.55530E-05 3.61323E-18 3.35806E-18
 -1      3041 5.11102E-05-2.06641E-05-1.25514E-05 2.25839E-05-8.58706E-19-5.80218E-19
 -1      3042 4.12942E-05-1.82774E-05-9.20431E-06 1.79032E-05 7.36707E-19-2.02864E-19
 -1      3043 4.23059E-05-1.53799E-05-1.10654E-05 9.11567E-06 3.85612E-19-2.88097E-19
 -1      3044 1.28438E-04-6.14451E-05-2.85639E-05-2.17738E-05 1.97375E-18-2.52373E-18
 -1      3045 9.50075E-05-2.79129E-05-2.87630E-05-4.41531E-07 7.14703E-19-5.74703E-19
 -1      3046 9.79378E-05-2.81106E-05-2.99344E-05 1.47655E-05-1.60930E-18-1.26503E-19
 -1      3047 9.92223E-05-2.92409E-05-2.99561E-05 1.34014E-05-9.71549E-19-5.78654E-20
 -1      3048 1.00864E-04-3.13545E-05-2.98124E-05 1.34824E-05-7.28899E-19-5.53465E-19
 -1      3049 9.85457E-05-3.00821E-05-2.93652E-05 1.65517E-05-1.09730E-18-1.59409E-19
 -1      3050 4.42419E-05-1.98461E-05-9.79337E-06-2.30452E-05 4.82809E-20-1.86961E-18
 -1      3051 5.57479E-05-2.41559E-05-1.31068E-05-2.67407E-05-2.68642E-19-1.37643E-18
 -1      3052 1.37156E-04-4.68639E-05-3.87539E-05-1.08357E-05-4.91994E-19-1.91207E-18
 -1      3053 1.34147E-04-5.89660E-05-3.22145E-05 6.72843E-06 2.49187E-19-3.98333E-18
 -1      3054 1.36489E-04-4.39871E-05-3.98531E-05-7.99406E-06-1.62310E-18-1.17960E-18
 -1      3055 1.14313E-04-5.72055E-05-2.42477E-05 2.60546E-05-1.01284E-18-4.16153E-18
 -1      3056 1.35300E-04-3.33910E-05-4.39203E-05 1.12578E-05-2.72109E-19-3.06139E-18
 -1      3057 1.28471E-04-6.09964E-05-2.88208E-05-1.64015E-05-6.51686E-19 7.26595E-19
 -1      3058 1.31549E-04-5.88635E-05-3.13798E-05-6.92609E-06-1.17632E-18-3.57871E-19
 -1      3059 1.21215E-04-5.86126E-05-2.66755E-05-1.95318E-05-5.27807E-19 7.24332E-19
 -1      3060 1.39317E-04-5.40264E-05-3.67076E-05-7.57718E-07-2.95433E-19-4.96510E-18
 -1      3061 3.63469E-05-1.59903E-05-8.23049E-06 1.48952E-05-3.01094E-19-3.16134E-18
 -1      3062 3.23547E-05-1.38461E-05-7.35105E-06 2.79283E-06-5.27099E-19-3.66342E-18
 -1      3063 7.85326E-05-4.06532E-05-1.58011E-05 3.67294E-05-1.54584E-18-2.71887E-18
 -1      3064 6.97060E-05-3.28510E-05-1.54453E-05 3.29099E-05-5.86888E-19-3.94919E-18
 -1      3065 8.97151E-05-4.42868E-05-1.92317E-05 3.27746E-05-1.44673E-18-2.35126E-18
 -1      3066 1.17410E-04-2.18401E-05-4.11687E-05 9.22182E-06-6.08858E-19-1.60936E-19
 -1      3067 9.28212E-05-1.84315E-05-3.18794E-05-7.47404E-06-1.30308E-18-2.55966E-18
 -1      3068 9.03512E-05-1.48775E-05-3.23660E-05-2.17888E-06 2.03523E-19-2.77456E-18
 -1      3069 9.05355E-05-1.51410E-05-3.23337E-05-3.13021E-06-8.17540E-20-2.83600E-18
 -1      3070 9.17856E-05-1.71627E-05-3.19658E-05-3.14561E-06-1.31340E-19-2.70216E-18
 -1      3071 9.14109E-05-1.65796E-05-3.20576E-05-1.58426E-06 2.74482E-19-2.67217E-18
 -1      3072 9.39538E-05-4.86263E-05-1.90793E-05 3.95688E-05 8.66091E-19-3.35944E-18
 -1      3073 9.46127E-05-2.24667E-05-3.09123E-05 5.69727E-06 1.73809E-18-1.10533E-18
 -1      3074 1.35545E-04-5.33826E-05-3.52582E-05 3.82657E-06-1.56815E-18 3.83388E-19
 -1      3075 1.39154E-04-5.01050E-05-3.84996E-05 7.82599E-06-6.96526E-19 3.60201E-19
 -1      3076 1.33871E-04-4.33097E-05-3.90903E-05 1.38793E-05-5.01602E-19 2.01292E-18
 -1      3077 4.10127E-05-1.71650E-05-9.60524E-06-1.54915E-05 2.08995E-18-1.53144E-18
 -1      3078 5.06768E-05-1.92550E-05-1.29897E-05-1.94285E-05 2.03365E-18-1.21973E-18
 -1      3079 4.17755E-05-1.46330E-05-1.12133E-05-5.57175E-06 1.11949E-18-7.76941E-19
 -1      3080 5.58385E-05-2.34980E-05-1.36060E-05 2.60870E-05-7.48195E-19-4.22648E-18
 -1      3081 4.52023E-05-1.91863E-05-1.04948E-05 2.11729E-05-1.30655E-19-3.36907E-18
 -1      3082 4.68564E-05-1.63195E-05-1.27287E-05 1.48751E-05-1.83700E-19-3.26404E-18
 -1      3083 3.29663E-05-1.38065E-05-7.47685E-06-4.71218E-06-3.78723E-19-4.29721E-18
 -1      3084 3.80012E-05-1.67669E-05-8.67196E-06-1.62414E-05 1.00532E-19-3.60900E-18
 -1      3085 4.40701E-05-1.58917E-05-1.17629E-05-1.44119E-05-3.01570E-19-3.16663E-18
 -1      3086 4.00926E-05-1.36979E-05-1.08330E-05 9.58648E-08-1.03103E-18-4.33268E-18
 -1      3087 1.25383E-04-1.18255E-05-4.90074E-05-6.16124E-06-2.54216E-18-1.83864E-18
 -1      3088 7.41052E-05-3.42120E-05-1.67337E-05-3.20720E-05-2.47757E-20-1.35949E-19
 -1      3089 8.90829E-05-4.36187E-05-1.94114E-05-3.30139E-05-1.68877E-19 8.02034E-19
 -1      3090 9.42745E-05-2.18525E-05-3.10597E-05 4.98101E-06 1.70076E-18-1.67764E-18
 -1      3091 9.38185E-05-2.09120E-05-3.12457E-05 4.63243E-06 1.66431E-18-1.83910E-18
 -1      3092 1.00206E-04-4.92340E-05-2.20475E-05 3.54611E-05 4.39504E-19-4.11626E-18
 -1      3093 8.65189E-05-4.15292E-05-1.88063E-05 3.73987E-05 8.02564E-20-3.25827E-18
 -1      3094 1.23289E-04-2.30578E-05-4.34288E-05-1.62154E-05-1.42047E-18 6.48563E-19
 -1      3095 9.56824E-05-2.68827E-05-2.94711E-05-7.51219E-07-8.57508E-19-1.46239E-18
 -1      3096 9.56583E-05-2.73305E-05-2.92915E-05-2.27396E-07-7.00529E-19-1.56926E-18
 -1      3097 9.57019E-05-2.77145E-05-2.91261E-05 1.53385E-07-7.94309E-19-1.47717E-18
 -1      3098 9.56646E-05-2.80004E-05-2.90035E-05 4.68500E-07-9.74451E-19-1.60190E-18
 -1      3099 9.58996E-05-2.73327E-05-2.93889E-05-1.71283E-07-7.83142E-19-1.50380E-18
 -1      3100 9.56573E-05-2.82383E-05-2.88859E-05 6.90591E-07-9.22331E-19-1.46096E-18
 -1      3101 9.56251E-05-2.84181E-05-2.88052E-05 8.59074E-07-6.79313E-19-1.35446E-18
 -1      3102 9.59413E-05-2.80557E-05-2.90974E-05 4.64564E-07-8.51882E-19-1.29793E-18
 -1      3103 9.55934E-05-2.85585E-05-2.87241E-05 9.69046E-07-2.60467E-19-1.25346E-18
 -1      3104 9.55706E-05-2.86672E-05-2.86735E-05 1.03966E-06-1.54744E-19-1.07918E-18
 -1      3105 9.59082E-05-2.85047E-05-2.88906E-05 8.23699E-07-3.62947E-19-1.24242E-18
 -1      3106 9.55292E-05-2.87426E-05-2.86197E-05 1.07507E-06-1.97893E-19-9.09683E-19
 -1      3107 9.55152E-05-2.88030E-05-2.85906E-05 1.08401E-06-2.87860E-19-6.54487E-19
 -1      3108 9.58405E-05-2.87676E-05-2.87485E-05 9.90126E-07-8.77391E-20-1.12533E-18
 -1      3109 9.54716E-05-2.88348E-05-2.85571E-05 1.07353E-06-4.69734E-19-3.26387E-19
 -1      3110 9.54647E-05-2.88618E-05-2.85431E-05 1.04708E-06-4.25778E-19-3.02276E-19
 -1      3111 9.57600E-05-2.89041E-05-2.86550E-05 1.03100E-06-2.50716E-19-6.99273E-19
 -1      3112 9.54227E-05-2.88642E-05-2.85245E-05 1.01194E-06-5.32811E-19-1.09056E-19
 -1      3113 9.54208E-05-2.88681E-05-2.85213E-05 9.68995E-07-3.74653E-19-3.51035E-19
 -1      3114 9.56779E-05-2.89544E-05-2.85978E-05 9.97282E-07-3.93844E-19 9.90561E-20
 -1      3115 9.53820E-05-2.88506E-05-2.85137E-05 9.24710E-07-3.94795E-19-3.47666E-19
 -1      3116 9.53837E-05-2.88380E-05-2.85180E-05 8.78834E-07-2.97646E-19-3.28729E-19
 -1      3117 9.55998E-05-2.89460E-05-2.85675E-05 9.26713E-07-3.18496E-19 3.65594E-19
 -1      3118 9.53484E-05-2.88066E-05-2.85186E-05 8.36706E-07-2.91964E-19-4.85174E-19
 -1      3119 9.53525E-05-2.87819E-05-2.85285E-05 7.97798E-07-2.95757E-19-5.35991E-19
 -1      3120 9.55274E-05-2.88967E-05-2.85573E-05 8.46921E-07-3.33285E-19-6.83674E-20
 -1      3121 9.53201E-05-2.87401E-05-2.85354E-05 7.66250E-07-4.16107E-19-6.89713E-19
 -1      3122 9.53261E-05-2.87058E-05-2.85496E-05 7.41818E-07-1.94000E-19-7.42823E-19
 -1      3123 9.54608E-05-2.88177E-05-2.85623E-05 7.78289E-07-3.69646E-19-4.35016E-19
 -1      3124 9.52953E-05-2.86551E-05-2.85615E-05 7.27444E-07-2.44388E-19-8.63849E-19
 -1      3125 9.53029E-05-2.86124E-05-2.85795E-05 7.23581E-07-4.15511E-19-9.96353E-19
 -1      3126 9.53982E-05-2.87154E-05-2.85791E-05 7.36348E-07-5.40880E-19-3.24022E-19
 -1      3127 9.52721E-05-2.85529E-05-2.85957E-05 7.31971E-07-5.22541E-19-1.06328E-18
 -1      3128 9.52812E-05-2.85019E-05-2.86173E-05 7.54100E-07-6.69610E-19-1.11023E-18
 -1      3129 9.53370E-05-2.85919E-05-2.86056E-05 7.33651E-07-5.74597E-19-1.44864E-18
 -1      3130 9.52484E-05-2.84327E-05-2.86373E-05 7.90470E-07-7.23775E-19-1.00835E-18
 -1      3131 9.52591E-05-2.83728E-05-2.86628E-05 8.43876E-07-8.19506E-19-1.04319E-18
 -1      3132 9.52736E-05-2.84468E-05-2.86404E-05 7.81256E-07-7.19392E-19-1.61183E-18
 -1      3133 9.52217E-05-2.82921E-05-2.86865E-05 9.13505E-07-9.76948E-19-1.16724E-18
 -1      3134 9.52343E-05-2.82224E-05-2.87162E-05 1.00367E-06-6.72115E-19-1.01703E-18
 -1      3135 9.52034E-05-2.82773E-05-2.86827E-05 8.89795E-07-8.46426E-19-1.76896E-18
 -1      3136 9.51896E-05-2.81283E-05-2.87434E-05 1.11215E-06-1.08568E-19-5.49771E-19
 -1      3137 9.52044E-05-2.80477E-05-2.87778E-05 1.24487E-06-3.32127E-21-3.48650E-19
 -1      3138 9.51213E-05-2.80799E-05-2.87319E-05 1.07016E-06-1.81019E-19-9.43349E-19
 -1      3139 9.51493E-05-2.79383E-05-2.88082E-05 1.39817E-06-3.54845E-19-3.40495E-19
 -1      3140 9.51671E-05-2.78464E-05-2.88475E-05 1.57949E-06-3.46517E-19-6.34814E-19
 -1      3141 9.50216E-05-2.78502E-05-2.87873E-05 1.33381E-06-7.87310E-20-8.92326E-19
 -1      3142 9.50984E-05-2.77204E-05-2.88804E-05 1.78388E-06-2.25740E-19-2.64687E-19
 -1      3143 9.51202E-05-2.76181E-05-2.89246E-05 2.01975E-06 1.64533E-19-6.17896E-19
 -1      3144 9.48981E-05-2.75851E-05-2.88476E-05 1.69275E-06-3.16591E-19-8.33232E-20
 -1      3145 9.50350E-05-2.74759E-05-2.89588E-05 2.28143E-06 5.59012E-19-5.51659E-19
 -1      3146 9.50628E-05-2.73662E-05-2.90072E-05 2.57701E-06 6.31819E-19-5.03229E-19
 -1      3147 9.47448E-05-2.72841E-05-2.89104E-05 2.15911E-06 4.53058E-19 1.02867E-18
 -1      3148 9.49597E-05-2.72116E-05-2.90406E-05 2.90161E-06 3.89509E-19-2.85877E-19
 -1      3149 9.49971E-05-2.71019E-05-2.90916E-05 3.26026E-06 2.05561E-19-1.11946E-20
 -1      3150 9.45574E-05-2.69519E-05-2.89720E-05 2.74431E-06 6.66695E-19 3.84533E-19
 -1      3151 9.48771E-05-2.69438E-05-2.91207E-05 3.65212E-06-8.00376E-20-6.80923E-20
 -1      3152 9.49316E-05-2.68482E-05-2.91715E-05 4.07383E-06-3.48402E-19-4.77989E-20
 -1      3153 9.43351E-05-2.66023E-05-2.90261E-05 3.45800E-06 3.49335E-20-2.21802E-19
 -1      3154 9.48015E-05-2.67045E-05-2.91912E-05 4.53504E-06-3.86288E-19-5.51561E-19
 -1      3155 9.48870E-05-2.66479E-05-2.92374E-05 5.01437E-06-2.25025E-20-3.27908E-19
 -1      3156 9.40854E-05-2.62643E-05-2.90637E-05 4.30664E-06-2.88258E-19-4.10835E-19
 -1      3157 9.47639E-05-2.65504E-05-2.92409E-05 5.54372E-06 1.51821E-19-2.72869E-19
 -1      3158 9.49063E-05-2.65742E-05-2.92761E-05 6.06698E-06 2.31566E-20-1.07006E-21
 -1      3159 9.38305E-05-2.59903E-05-2.90722E-05 5.29218E-06-1.69525E-20-7.93404E-19
 -1      3160 9.48253E-05-2.65752E-05-2.92551E-05 6.65859E-06-8.13600E-20-3.06208E-20
 -1      3161 9.50706E-05-2.67448E-05-2.92718E-05 7.20004E-06-2.11756E-19-9.64431E-20
 -1      3162 9.36199E-05-2.58689E-05-2.90356E-05 6.41073E-06-4.91046E-20-6.94455E-19
 -1      3163 9.50966E-05-2.69264E-05-2.92173E-05 7.84111E-06 4.50637E-20-5.99789E-21
 -1      3164 9.55227E-05-2.73395E-05-2.92083E-05 8.35730E-06 3.59025E-19 1.88885E-19
 -1      3165 9.35487E-05-2.60408E-05-2.89353E-05 7.65106E-06 7.06424E-20-4.80667E-19
 -1      3166 9.57682E-05-2.78225E-05-2.91136E-05 9.02253E-06 2.52930E-19 6.63703E-19
 -1      3167 9.64976E-05-2.86150E-05-2.90763E-05 9.44248E-06 1.50073E-18 1.11791E-18
 -1      3168 9.37865E-05-2.67193E-05-2.87544E-05 8.99030E-06 8.19806E-19 9.84065E-19
 -1      3169 9.71453E-05-2.95635E-05-2.89438E-05 1.00787E-05 1.10533E-18 5.17524E-19
 -1      3170 9.83512E-05-3.09017E-05-2.88887E-05 1.02856E-05 9.58314E-19 9.44297E-20
 -1      3171 9.46169E-05-2.82094E-05-2.84865E-05 1.03788E-05 1.10644E-18 7.55276E-19
 -1      3172 9.96779E-05-3.25075E-05-2.87434E-05 1.07652E-05 9.21547E-19 1.78212E-19
 -1      3173 1.01558E-04-3.45292E-05-2.87097E-05 1.05618E-05 3.27640E-19 8.86547E-20
 -1      3174 9.64904E-05-3.09143E-05-2.81557E-05 1.16900E-05 8.04271E-19-5.21041E-19
 -1      3175 1.03913E-04-3.69398E-05-2.86204E-05 1.06277E-05-3.35624E-19 3.37379E-19
 -1      3176 1.06601E-04-3.96393E-05-2.86952E-05 9.70006E-06-1.22707E-18 2.42289E-20
 -1      3177 1.00030E-04-3.52368E-05-2.78556E-05 1.25932E-05 5.54939E-20-9.72920E-19
 -1      3178 1.10325E-04-4.27605E-05-2.88213E-05 8.77055E-06-1.14558E-18 1.28992E-19
 -1      3179 1.13664E-04-4.56048E-05-2.91828E-05 6.67145E-06-3.47158E-19-2.04150E-19
 -1      3180 1.05994E-04-4.13725E-05-2.78027E-05 1.24203E-05-7.72901E-19-1.41454E-18
 -1      3181 1.18630E-04-4.86500E-05-2.98494E-05 4.06700E-06 6.43070E-19-4.96755E-20
 -1      3182 1.21978E-04-5.01696E-05-3.07998E-05 3.86954E-07 1.19406E-18 3.55933E-19
 -1      3183 1.14541E-04-4.83191E-05-2.84858E-05 9.66257E-06 3.73310E-19-1.14005E-18
 -1      3184 1.28519E-04-4.11636E-05-3.79852E-05-1.52490E-05-9.10799E-19 7.93564E-19
 -1      3185 1.26793E-04-3.32320E-05-4.03172E-05-1.75778E-05-9.55241E-19 7.15955E-19
 -1      3186 1.31037E-04-2.74445E-05-4.48191E-05-1.62308E-05-1.65500E-18-5.89747E-19
 -1      3187 1.20025E-04-1.39321E-05-4.58786E-05-4.21836E-06-2.00757E-18 5.62800E-19
 -1      3188 5.87504E-05-2.26425E-05-1.52768E-05-2.38072E-05-3.87888E-19-1.05053E-18
 -1      3189 6.60861E-05-2.83905E-05-1.57961E-05-2.96951E-05-8.94626E-19-1.19230E-18
 -1      3190 7.65320E-05-3.22710E-05-1.86442E-05-2.81818E-05-4.10414E-19-4.11764E-19
 -1      3191 1.27780E-04-4.76109E-05-3.44957E-05 5.06700E-06-2.38241E-19-1.98847E-18
 -1      3192 1.26995E-04-5.04053E-05-3.28285E-05 1.11765E-06-2.05994E-19-2.94376E-18
 -1      3193 1.22570E-04-5.01046E-05-3.11444E-05-4.14849E-06 3.90307E-19-2.51233E-18
 -1      3194 1.19643E-04-4.88058E-05-3.02344E-05-7.76390E-06 5.98753E-19-3.41938E-18
 -1      3195 1.26814E-04-5.35225E-05-3.15355E-05-5.68763E-06-2.71583E-19-3.57686E-18
 -1      3196 1.14760E-04-4.57920E-05-2.96091E-05-1.07887E-05 8.27723E-19-3.30104E-18
 -1      3197 1.11381E-04-4.27234E-05-2.92921E-05-1.29513E-05 1.48935E-18-3.19030E-18
 -1      3198 1.17024E-04-4.90999E-05-2.92284E-05-1.35105E-05 5.52342E-19-3.02739E-18
 -1      3199 1.07488E-04-3.92124E-05-2.92799E-05-1.39734E-05 1.21485E-18-2.65480E-18
 -1      3200 1.04488E-04-3.59247E-05-2.93109E-05-1.47798E-05 1.00420E-18-2.82425E-18
 -1      3201 1.08251E-04-4.14995E-05-2.87263E-05-1.66678E-05 1.50259E-18-2.34826E-18
 -1      3202 1.16163E-04-1.41585E-05-4.42134E-05 2.09397E-06 1.49607E-18 1.28330E-18
 -1      3203 1.15545E-04-1.59002E-05-4.30620E-05-4.16526E-06 2.23405E-19 8.85083E-19
 -1      3204 9.52440E-05-2.86982E-05-2.85191E-05-1.12185E-06 5.95447E-19-1.08244E-18
 -1      3205 9.52402E-05-2.86373E-05-2.85409E-05-1.11397E-06 3.35718E-19-8.56999E-19
 -1      3206 9.52166E-05-2.87678E-05-2.84765E-05-9.00617E-07 3.93224E-19 1.02627E-19
 -1      3207 9.51951E-05-2.87710E-05-2.84678E-05-9.50715E-07 3.67380E-19-5.87967E-19
 -1      3208 9.52206E-05-2.87318E-05-2.84935E-05-8.09896E-07-1.33239E-19 4.81422E-19
 -1      3209 9.51976E-05-2.87457E-05-2.84803E-05-8.53770E-07 4.51731E-19 6.63061E-19
 -1      3210 9.53870E-05-2.88395E-05-2.85215E-05-8.84884E-07-1.02821E-20-4.01765E-19
 -1      3211 9.52287E-05-2.86784E-05-2.85197E-05-7.42672E-07-3.80295E-19 5.57470E-19
 -1      3212 9.52047E-05-2.87007E-05-2.85029E-05-7.72896E-07-3.26560E-19 4.51395E-19
 -1      3213 9.53531E-05-2.87811E-05-2.85318E-05-8.05151E-07-1.28526E-19-4.75163E-20
 -1      3214 9.52401E-05-2.86106E-05-2.85534E-05-7.11611E-07 1.57925E-19 5.32303E-19
 -1      3215 9.52148E-05-2.86400E-05-2.85335E-05-7.22235E-07-1.78183E-19 5.20284E-19
 -1      3216 9.53237E-05-2.87023E-05-2.85528E-05-7.51015E-07-2.92695E-19 6.64698E-20
 -1      3217 9.52546E-05-2.85291E-05-2.85942E-05-7.27566E-07 3.53650E-19 5.11372E-19
 -1      3218 9.52273E-05-2.85652E-05-2.85711E-05-7.13357E-07 4.15090E-19 7.16408E-19
 -1      3219 9.52971E-05-2.86058E-05-2.85826E-05-7.35334E-07 2.70521E-19-2.28555E-19
 -1      3220 9.52725E-05-2.84335E-05-2.86425E-05-8.00769E-07 4.07125E-19 2.96008E-19
 -1      3221 9.52418E-05-2.84762E-05-2.86157E-05-7.56665E-07 4.57107E-19 4.21115E-19
 -1      3222 9.52712E-05-2.84916E-05-2.86203E-05-7.69274E-07 5.54904E-19 2.54295E-19
 -1      3223 9.52943E-05-2.83222E-05-2.86990E-05-9.41670E-07 3.28988E-19-1.00715E-19
 -1      3224 9.52585E-05-2.83720E-05-2.86678E-05-8.62418E-07 4.22855E-19 3.31756E-19
 -1      3225 9.52438E-05-2.83583E-05-2.86656E-05-8.63464E-07 3.49757E-19-2.25785E-19
 -1      3226 9.53206E-05-2.81935E-05-2.87649E-05-1.16137E-06 7.48480E-19-8.23166E-20
 -1      3227 9.52777E-05-2.82506E-05-2.87284E-05-1.04137E-06 5.56571E-19 2.44473E-19
 -1      3228 9.52124E-05-2.82031E-05-2.87186E-05-1.02877E-06 4.57000E-19-5.68304E-20
 -1      3229 9.53527E-05-2.80462E-05-2.88410E-05-1.47165E-06 3.91404E-19-1.13419E-19
 -1      3230 9.53000E-05-2.81106E-05-2.87984E-05-1.30503E-06 6.22318E-19 7.34418E-20
 -1      3231 9.51745E-05-2.80232E-05-2.87793E-05-1.27664E-06 6.46700E-19 7.47826E-19
 -1      3232 9.53923E-05-2.78809E-05-2.89281E-05-1.88446E-06 5.16196E-19 6.69808E-19
 -1      3233 9.53269E-05-2.79512E-05-2.88787E-05-1.66542E-06 4.12492E-19 3.23302E-19
 -1      3234 9.51273E-05-2.78164E-05-2.88476E-05-1.61911E-06 3.13031E-20 1.09234E-18
 -1      3235 9.54427E-05-2.77015E-05-2.90257E-05-2.41091E-06-4.18868E-19 1.90016E-18
 -1      3236 9.53604E-05-2.77745E-05-2.89694E-05-2.13442E-06-2.92435E-20 1.22747E-18
 -1      3237 9.50690E-05-2.75831E-05-2.89224E-05-2.06824E-06-3.51626E-19 1.66476E-18
 -1      3238 9.55096E-05-2.75180E-05-2.91322E-05-3.05939E-06-1.13793E-19 1.65738E-18
 -1      3239 9.54051E-05-2.75871E-05-2.90694E-05-2.72236E-06-8.03599E-20 1.74443E-18
 -1      3240 9.49990E-05-2.73280E-05-2.90015E-05-2.63518E-06-2.09459E-19 1.96174E-18
 -1      3241 9.56041E-05-2.73508E-05-2.92436E-05-3.83272E-06-6.30032E-19 1.98278E-18
 -1      3242 9.54692E-05-2.74036E-05-2.91760E-05-3.43582E-06-1.63446E-19 1.68954E-18
 -1      3243 9.49206E-05-2.70641E-05-2.90808E-05-3.32854E-06-2.81096E-19 1.62073E-18
 -1      3244 9.57474E-05-2.72370E-05-2.93530E-05-4.72413E-06-1.27130E-18 1.87685E-18
 -1      3245 9.55688E-05-2.72521E-05-2.92838E-05-4.27439E-06-7.86373E-19 1.75042E-18
 -1      3246 9.48440E-05-2.68174E-05-2.91537E-05-4.15214E-06-6.06623E-19 1.48032E-18
 -1      3247 9.59782E-05-2.72392E-05-2.94504E-05-5.71157E-06-1.11457E-18 9.99558E-19
 -1      3248 9.57341E-05-2.71816E-05-2.93843E-05-5.22604E-06-1.13596E-18 1.34607E-18
 -1      3249 9.47931E-05-2.66353E-05-2.92105E-05-5.10208E-06-7.91937E-19 1.27166E-18
 -1      3250 9.63662E-05-2.74583E-05-2.95224E-05-6.74980E-06-6.84485E-19 4.01742E-19
 -1      3251 9.60199E-05-2.72729E-05-2.94659E-05-6.26060E-06-7.70599E-19 4.73713E-19
 -1      3252 9.48158E-05-2.65973E-05-2.92381E-05-6.16284E-06-7.22749E-19 1.35566E-18
 -1      3253 9.70295E-05-2.80463E-05-2.95545E-05-7.75905E-06-1.35291E-18 1.35799E-18
 -1      3254 9.65220E-05-2.76522E-05-2.95146E-05-7.32029E-06-1.04321E-18 8.54145E-19
 -1      3255 9.50006E-05-2.68296E-05-2.92214E-05-7.30166E-06-1.25872E-18 9.44216E-19
 -1      3256 9.81566E-05-2.92160E-05-2.95369E-05-8.60805E-06 1.99015E-19 4.95184E-19
 -1      3257 9.73984E-05-2.85039E-05-2.95178E-05-8.30521E-06-4.58649E-19 1.20129E-18
 -1      3258 9.54999E-05-2.75212E-05-2.91462E-05-8.45917E-06-8.89870E-19 1.00378E-18
 -1      3259 1.00023E-04-3.12310E-05-2.94758E-05-9.08602E-06-6.11220E-19 1.34235E-18
 -1      3260 9.88928E-05-3.00738E-05-2.94728E-05-9.04931E-06-2.35989E-19 1.23759E-18
 -1      3261 9.65596E-05-2.89341E-05-2.90079E-05-9.53096E-06-3.02922E-19 1.03452E-18
 -1      3262 1.02972E-04-3.43401E-05-2.94157E-05-8.85690E-06-3.47628E-19 1.23721E-18
 -1      3263 1.01345E-04-3.26391E-05-2.94036E-05-9.27700E-06-3.80130E-19 1.10466E-18
 -1      3264 9.85473E-05-3.13940E-05-2.88265E-05-1.03274E-05-5.81404E-19 8.68308E-19
 -1      3265 1.07309E-04-3.85758E-05-2.94754E-05-7.38540E-06 1.64506E-19 4.61043E-19
 -1      3266 1.05140E-04-3.63954E-05-2.93918E-05-8.52761E-06 3.93391E-20 1.02141E-18
 -1      3267 1.01949E-04-3.52096E-05-2.86778E-05-1.04845E-05 3.12601E-19 2.25334E-19
 -1      3268 1.12999E-04-4.33563E-05-2.98946E-05-3.97508E-06-4.63320E-20-1.17058E-19
 -1      3269 1.10490E-04-4.11352E-05-2.96202E-05-6.10964E-06-1.57465E-19-6.19467E-20
 -1      3270 1.07225E-04-4.03914E-05-2.87437E-05-9.34023E-06 1.44451E-19 1.41071E-19
 -1      3271 1.19110E-04-4.67931E-05-3.10716E-05 2.01568E-06 2.01998E-20 1.59181E-19
 -1      3272 1.16968E-04-4.57015E-05-3.04327E-05-1.15518E-06 1.70082E-19 3.44210E-19
 -1      3273 1.14458E-04-4.61104E-05-2.93887E-05-5.81143E-06-1.65390E-19 2.31207E-19
 -1      3274 1.23454E-04-4.55260E-05-3.34689E-05 9.96690E-06 3.37024E-19 1.63717E-18
 -1      3275 1.22793E-04-4.72981E-05-3.22965E-05 6.46789E-06 1.01230E-19 9.95750E-19
 -1      3276 1.22308E-04-4.98552E-05-3.11698E-05 8.77553E-07-5.58196E-19 9.05664E-20
 -1      3277 1.25340E-04-3.89287E-05-3.71602E-05 1.50134E-05 3.48078E-20 3.57727E-18
 -1      3278 1.26700E-04-4.44055E-05-3.53770E-05 1.30398E-05-4.45778E-19 3.08929E-18
 -1      3279 1.18733E-04-1.92172E-05-4.29633E-05 1.33461E-05 9.61700E-19 3.25250E-18
 -1      3280 1.21081E-04-2.52935E-05-4.15222E-05 1.60990E-05 1.27447E-18 3.26470E-18
 -1      3281 1.17645E-04-2.05926E-05-4.21253E-05-8.88180E-06-3.82488E-19 7.00536E-19
 -1      3282 1.25054E-04-3.62068E-05-3.83928E-05-1.21322E-05-1.43397E-18 5.12508E-19
 -1      3283 1.22238E-04-2.86620E-05-4.03007E-05-1.21054E-05-1.19003E-18 3.05461E-19
 -1      3284 1.19712E-04-4.71436E-05-3.10380E-05 2.73311E-06 9.39970E-19 5.01382E-19
 -1      3285 1.21437E-04-4.70807E-05-3.19519E-05-9.17220E-07 3.39439E-19 2.84150E-19
 -1      3286 1.12984E-04-4.30175E-05-2.98672E-05 9.02006E-06 7.15361E-19-9.55449E-19
 -1      3287 1.15646E-04-4.51820E-05-3.02634E-05 6.39814E-06 9.72903E-19 3.66252E-19
 -1      3288 1.18900E-04-4.83686E-05-3.03221E-05 7.77818E-06 1.14625E-18 1.54914E-18
 -1      3289 1.06505E-04-3.72291E-05-2.96082E-05 1.21779E-05 5.90155E-19-1.81212E-18
 -1      3290 1.09177E-04-3.99813E-05-2.96788E-05 1.09366E-05 3.11434E-19-1.87077E-18
 -1      3291 1.11029E-04-4.27518E-05-2.93987E-05 1.27790E-05 1.21398E-18-7.94864E-19
 -1      3292 1.02571E-04-3.32525E-05-2.96710E-05 1.34525E-05 4.32669E-20-1.07298E-18
 -1      3293 1.04489E-04-3.53774E-05-2.96457E-05 1.27934E-05-6.25994E-20-2.16739E-18
 -1      3294 1.05210E-04-3.71748E-05-2.92535E-05 1.48135E-05 2.55538E-19-1.99132E-18
 -1      3295 1.01621E-04-3.28667E-05-2.94756E-05 1.51177E-05-1.29509E-18-1.13789E-18
 -1      3296 1.01823E-04-3.26000E-05-2.96559E-05-1.42232E-05 9.46950E-19-3.93165E-18
 -1      3297 9.23760E-05-1.83450E-05-3.17429E-05 1.81418E-06 1.04493E-18-2.21537E-18
 -1      3298 9.22581E-05-1.81437E-05-3.17750E-05 1.05969E-06 7.15824E-19-2.33086E-18
 -1      3299 8.75839E-05-2.45872E-05-2.68267E-05-1.96677E-05 3.70436E-19-1.31145E-19
 -1      3300 8.30446E-05-2.19126E-05-2.63292E-05-1.74026E-05 7.68232E-19-1.34044E-18
 -1      3301 7.35044E-05-1.48689E-05-2.50565E-05-2.20593E-06 6.27632E-19-9.75167E-19
 -1      3302 7.36893E-05-1.51551E-05-2.50655E-05 3.11023E-06 1.90731E-19 9.77430E-20
 -1      3303 9.53692E-05-2.79564E-05-2.88950E-05-4.66275E-07 5.97285E-19-8.92896E-19
 -1      3304 9.54198E-05-2.76977E-05-2.90124E-05-1.33056E-07 7.77805E-19-9.60793E-19
 -1      3305 9.64322E-05-3.05322E-05-2.81232E-05-2.00344E-05 1.47443E-18 1.85673E-18
 -1      3306 9.24483E-05-2.81842E-05-2.76352E-05-2.01871E-05 6.55634E-19 1.43002E-18
 -1      3307 9.02095E-05-2.89309E-05-2.62648E-05-2.21365E-05 1.41891E-18 1.18963E-18
 -1      3308 1.31825E-04-4.79254E-05-3.59228E-05-1.07537E-05-2.25311E-19-5.08273E-19
 -1      3309 1.01305E-04-4.96713E-05-2.18090E-05-2.96168E-05-5.90223E-19 4.26587E-19
 -1      3310 1.10078E-04-5.42700E-05-2.39472E-05-2.63692E-05-1.98947E-19 1.18148E-18
 -1      3311 1.22487E-04-5.87407E-05-2.68995E-05-2.40689E-05 2.82107E-18-1.20572E-18
 -1      3312 1.30696E-04-6.01090E-05-3.06177E-05-1.47132E-05 1.22992E-18-3.51164E-18
 -1      3313 9.52742E-05-2.85669E-05-2.85892E-05-1.07475E-06 1.86860E-19-8.10645E-19
 -1      3314 9.52851E-05-2.84642E-05-2.86319E-05-1.00272E-06 1.67314E-19-9.73342E-19
 -1      3315 9.55872E-05-2.86764E-05-2.86795E-05-1.04252E-06 3.36088E-19-1.22366E-18
 -1      3316 9.52178E-05-2.87811E-05-2.84715E-05-9.98726E-07 3.62901E-19-6.81668E-19
 -1      3317 9.51991E-05-2.87697E-05-2.84694E-05-1.04513E-06 4.78107E-19-7.83826E-19
 -1      3318 9.54269E-05-2.88718E-05-2.85252E-05-9.74136E-07 7.42049E-20-7.87225E-19
 -1      3319 9.51098E-05-4.61876E-05-2.04344E-05-3.66074E-05 3.75627E-18 1.53255E-18
 -1      3320 1.09633E-04-5.50031E-05-2.37345E-05-3.33802E-05 3.00877E-18-2.94000E-19
 -1      3321 9.52261E-05-2.87626E-05-2.84833E-05-1.08250E-06 5.29681E-19-8.74322E-19
 -1      3322 9.52129E-05-2.87307E-05-2.84908E-05-1.11145E-06 6.50743E-19-9.79816E-19
 -1      3323 9.55277E-05-2.88106E-05-2.85957E-05-1.08779E-06 5.05750E-19-1.50891E-18
 -1      3324 9.54737E-05-2.88675E-05-2.85476E-05-1.05154E-06 3.25099E-19-1.21056E-18
 -1      3325 7.86670E-05-1.84469E-05-2.56729E-05-1.36681E-05 9.97410E-19-1.94217E-18
 -1      3326 7.53859E-05-1.65315E-05-2.53503E-05-9.30710E-06 1.06363E-18-1.34223E-18
 -1      3327 7.97408E-05-2.18299E-05-2.46701E-05-1.75991E-05 5.30368E-19-1.14002E-18
 -1      3328 1.28696E-04-3.52343E-05-4.02902E-05 1.15221E-05-4.28281E-20-1.74245E-18
 -1      3329 1.30945E-04-4.34555E-05-3.77810E-05 9.90225E-06 1.56145E-19-2.05511E-18
 -1      3330 9.54983E-05-2.55694E-05-2.99553E-05-2.14914E-06-9.78929E-19-1.57791E-18
 -1      3331 9.55354E-05-2.62658E-05-2.96985E-05-1.33581E-06-9.02094E-19-1.52105E-18
 -1      3332 9.57153E-05-2.62069E-05-2.97889E-05-1.17984E-06-8.44267E-19-1.40847E-18
 -1      3333 6.44109E-05-2.64209E-05-1.59101E-05-3.00959E-05 1.87962E-18 1.97909E-18
 -1      3334 7.85259E-05-3.61314E-05-1.82070E-05-3.60555E-05 2.84656E-18 3.92028E-18
 -1      3335 9.53178E-05-2.83367E-05-2.87079E-05-8.82906E-07 2.25888E-19-9.15864E-19
 -1      3336 9.53492E-05-2.81725E-05-2.87811E-05-7.08135E-07 4.57254E-19-8.39297E-19
 -1      3337 9.56467E-05-2.84283E-05-2.88122E-05-8.60425E-07 2.44700E-19-1.23733E-18
 -1      3338 9.34738E-05-1.98505E-05-3.15488E-05-6.23692E-06-1.08700E-18-2.45110E-18
 -1      3339 1.20473E-04-5.83972E-05-2.68712E-05 1.94268E-05 3.46013E-19-4.77776E-18
 -1      3340 1.07797E-04-5.30571E-05-2.32243E-05 2.68485E-05-4.56710E-19-3.37099E-18
 -1      3341 1.34804E-04-5.72087E-05-3.31088E-05-4.82944E-06-3.19067E-19-4.52215E-18
 -1      3342 1.34938E-04-4.99851E-05-3.66944E-05 4.19475E-06-6.78765E-19-4.57482E-18
 -1      3343 9.52108E-05-2.42798E-05-3.04016E-05 4.27545E-06 1.51306E-18-1.06415E-18
 -1      3344 9.46373E-05-2.27328E-05-3.08056E-05 4.77744E-06 1.60363E-18-1.43945E-18
 -1      3345 9.49124E-05-2.35877E-05-3.05670E-05 3.67569E-06 1.51867E-18-1.55090E-18
 -1      3346 9.52381E-05-2.52059E-05-3.00271E-05 3.00168E-06 1.41132E-18-1.21843E-18
 -1      3347 1.24353E-04-2.57169E-05-4.29649E-05 1.20349E-05-6.05681E-19-1.31692E-18
 -1      3348 1.33803E-04-5.60209E-05-3.37566E-05-7.54631E-07 5.56408E-19-2.77943E-18
 -1      3349 1.29344E-04-5.85899E-05-3.00592E-05 8.93500E-06 6.47074E-19-3.82007E-18
 -1      3350 7.57913E-05-3.50873E-05-1.72518E-05 3.62763E-05 3.55754E-20-1.74468E-18
 -1      3351 6.47581E-05-2.74594E-05-1.55831E-05 3.11049E-05-8.61591E-19-1.29797E-18
 -1      3352 8.49592E-05-3.66290E-05-2.03564E-05 3.30045E-05-2.65227E-20-2.99675E-18
 -1      3353 1.34475E-04-5.46406E-05-3.45145E-05 1.30032E-06-4.91858E-19-2.04887E-18
 -1      3354 1.31893E-04-5.87544E-05-3.11572E-05 1.08000E-05 2.43767E-19-2.09455E-18
 -1      3355 1.24676E-04-5.93728E-05-2.83597E-05 2.11925E-05-2.66101E-19-1.75102E-18
 -1      3356 1.15380E-04-5.57692E-05-2.51020E-05 2.86393E-05 6.81067E-20-3.28158E-18
 -1      3357 1.21746E-04-1.77173E-05-4.49530E-05 7.92818E-06-1.14265E-18-7.23816E-19
 -1      3358 1.28479E-04-4.96840E-05-3.38190E-05-7.10891E-06 3.74686E-19 1.01525E-19
 -1      3359 1.23227E-04-4.21919E-05-3.47935E-05-8.64156E-06-9.06921E-19 1.05109E-18
 -1      3360 1.30190E-04-4.21113E-05-3.79805E-05-9.57630E-06-1.08918E-18-3.98423E-19
 -1      3361 1.33426E-04-5.06527E-05-3.55806E-05-4.54229E-06-1.09782E-18-2.91856E-19
 -1      3362 1.23659E-04-4.58206E-05-3.34827E-05-5.70509E-06-6.83291E-19 9.03572E-19
 -1      3363 9.21981E-05-1.80435E-05-3.17935E-05 4.08619E-07 6.44897E-19-2.39468E-18
 -1      3364 9.21946E-05-1.80386E-05-3.17940E-05-3.60111E-07 4.49429E-19-2.43489E-18
 -1      3365 9.31525E-05-1.96278E-05-3.14928E-05 6.29245E-07 6.63195E-19-2.20305E-18
 -1      3366 9.43699E-05-2.19978E-05-3.09896E-05 3.64964E-06 1.50356E-18-1.76168E-18
 -1      3367 9.34317E-05-2.02195E-05-3.14044E-05 4.23708E-06 1.61279E-18-1.95549E-18
 -1      3368 9.30703E-05-1.95522E-05-3.15180E-05 3.65808E-06 1.51874E-18-2.01207E-18
 -1      3369 1.26372E-04-5.65659E-05-2.98121E-05 1.33310E-05-5.30812E-19-2.61198E-18
 -1      3370 9.31690E-05-2.86958E-05-2.77140E-05 2.01361E-05-3.43227E-19-2.29577E-18
 -1      3371 9.69245E-05-3.09259E-05-2.81991E-05 1.97533E-05-4.66772E-19-7.36052E-19
 -1      3372 8.99044E-05-3.99848E-05-2.09565E-05-3.31149E-05 2.50695E-18 1.71739E-18
 -1      3373 1.24494E-04-5.43400E-05-3.02885E-05 4.90683E-06 1.15688E-18-1.92061E-18
 -1      3374 1.26694E-04-5.17861E-05-3.20125E-05-2.71212E-06 1.00052E-18-2.32405E-20
 -1      3375 1.17123E-04-5.53216E-05-2.63706E-05-1.86295E-05-4.18355E-19 5.64018E-19
 -1      3376 1.25697E-04-4.95896E-05-3.26551E-05-6.37292E-07-3.50526E-20 6.79421E-19
 -1      3377 5.42654E-05-1.80504E-05-1.50766E-05-1.77498E-05-5.24605E-19-1.98476E-18
 -1      3378 6.31432E-05-2.19490E-05-1.74240E-05-2.07162E-05-9.57769E-19-9.76364E-19
 -1      3379 1.01848E-04-3.38136E-05-2.91635E-05-1.66043E-05 7.72904E-19-1.50889E-18
 -1      3380 6.12548E-05-2.33106E-05-1.58257E-05 2.66355E-05-1.34427E-18-8.55503E-19
 -1      3381 5.83631E-05-1.89913E-05-1.64655E-05 1.92597E-05-4.42892E-19-1.97126E-18
 -1      3382 7.11006E-05-2.59649E-05-1.92201E-05 2.67119E-05-7.72746E-19-8.13099E-19
 -1      3383 7.06762E-05-1.59976E-05-2.34382E-05-6.57468E-06 1.74856E-19-1.39790E-18
 -1      3384 1.15973E-04-5.46613E-05-2.60917E-05-2.56488E-05 3.06483E-18-1.52518E-18
 -1      3385 1.29410E-04-4.97211E-05-3.43084E-05 7.78416E-06-1.11224E-18 1.40876E-18
 -1      3386 1.25218E-04-3.40781E-05-3.92863E-05 1.75321E-05 1.02565E-18 3.09572E-18
 -1      3387 9.51793E-05-2.46797E-05-3.02341E-05-2.87117E-06-1.02351E-18-1.76887E-18
 -1      3388 9.52681E-05-2.45398E-05-3.03075E-05-2.54557E-06-8.55228E-19-1.76356E-18
 -1      3389 9.50244E-05-2.37212E-05-3.05585E-05-3.91815E-06-1.01491E-18-1.94323E-18
 -1      3390 8.37184E-05-2.24330E-05-2.63957E-05 1.78945E-05-4.95746E-19-2.65582E-18
 -1      3391 8.83447E-05-2.52223E-05-2.69034E-05 1.99765E-05-1.53399E-19-2.44301E-18
 -1      3392 9.14148E-05-2.97015E-05-2.63876E-05 2.22006E-05-6.42458E-19-2.55069E-18
 -1      3393 9.25503E-05-1.86397E-05-3.16869E-05 2.42247E-06 1.20544E-18-2.19854E-18
 -1      3394 9.33649E-05-2.00151E-05-3.14162E-05 1.80433E-06 1.01856E-18-2.05764E-18
 -1      3395 9.27914E-05-1.90569E-05-3.16195E-05 3.12467E-06 1.42238E-18-2.05730E-18
 -1      3396 1.19330E-04-1.40301E-05-4.59952E-05 3.41727E-06-1.77178E-18-2.48445E-19
 -1      3397 9.53664E-05-2.66205E-05-2.94719E-05 1.25701E-06 1.06202E-18-1.17607E-18
 -1      3398 9.54267E-05-2.60377E-05-2.97283E-05 2.11216E-06 1.19394E-18-1.23135E-18
 -1      3399 9.53674E-05-2.53297E-05-3.00098E-05 2.49921E-06 1.28648E-18-1.47328E-18
 -1      3400 7.56642E-05-1.66660E-05-2.53517E-05 9.82873E-06 4.60435E-19-4.65716E-19
 -1      3401 7.90701E-05-1.88153E-05-2.56950E-05 1.42421E-05 2.96326E-19-1.84341E-18
 -1      3402 8.02578E-05-2.22758E-05-2.46990E-05 1.83397E-05 2.62729E-20-2.04423E-18
 -1      3403 7.17129E-05-1.64890E-05-2.35506E-05 7.40076E-06-3.58555E-19-1.70088E-19
 -1      3404 1.00388E-04-3.31511E-05-2.88372E-05-1.78420E-05 1.03972E-18 9.05919E-19
 -1      3405 9.53811E-05-2.74223E-05-2.91312E-05 1.97720E-07 8.88795E-19-1.04392E-18
 -1      3406 9.54452E-05-2.70345E-05-2.93068E-05 7.50283E-07 9.82835E-19-1.09494E-18
 -1      3407 9.55685E-05-2.66253E-05-2.95493E-05 1.05809E-06 9.37407E-19-1.39364E-18
 -1      3408 9.56724E-05-2.74198E-05-2.92571E-05 1.56749E-07 7.71694E-19-1.37496E-18
 -1      3409 9.58262E-05-4.46063E-05-2.17269E-05-2.83132E-05-2.35634E-19 7.08490E-19
 -1      3410 1.00651E-04-3.53113E-05-2.80070E-05-1.98978E-05 1.68744E-18 1.13000E-18
 -1      3411 9.56915E-05-2.80099E-05-2.90114E-05-4.67934E-07 4.47633E-19-1.21417E-18
 -1      3412 1.29270E-04-5.66547E-05-3.12039E-05-8.90045E-06 3.74984E-19-3.42683E-18
 -1      3413 9.40364E-05-2.14141E-05-3.11313E-05-5.00378E-06-9.74554E-19-2.32932E-18
 -1      3414 5.05170E-05-1.53248E-05-1.48272E-05 8.96159E-06-7.99956E-19-1.17420E-18
 -1      3415 4.58786E-05-1.46805E-05-1.27150E-05 1.70415E-06 3.06186E-19-5.72806E-19
 -1      3416 5.00589E-05-1.48134E-05-1.49349E-05-5.02618E-06 4.77849E-19-8.86420E-19
 -1      3417 9.97446E-05-4.83534E-05-2.18343E-05 2.96001E-05-1.13248E-18-2.24109E-18
 -1      3418 9.03975E-05-4.16402E-05-2.07610E-05 2.93346E-05-8.97987E-19-2.20663E-18
 -1      3419 1.07249E-04-4.99141E-05-2.43850E-05 2.29882E-05 2.02494E-19-2.18005E-18
 -1      3420 1.23492E-04-5.63967E-05-2.86481E-05 1.16080E-05 8.48303E-19-3.22338E-18
 -1      3421 4.69194E-05-1.36236E-05-1.36830E-05-6.15049E-06-7.27646E-19-4.14834E-18
 -1      3422 5.02488E-05-1.60406E-05-1.44344E-05-1.28753E-05-5.34537E-19-3.07828E-18
 -1      3423 5.49829E-05-1.58762E-05-1.66854E-05-1.08556E-05-8.44161E-19-2.99850E-18
 -1      3424 7.52886E-05-3.21708E-05-1.83500E-05 2.87203E-05 5.73335E-20-2.99045E-18
 -1      3425 6.54446E-05-2.77275E-05-1.56973E-05 2.86069E-05-3.34737E-19-4.06422E-18
 -1      3426 6.22448E-05-2.31968E-05-1.65956E-05 2.33696E-05-6.63597E-20-3.67231E-18
 -1      3427 6.05380E-05-2.22540E-05-1.59272E-05-2.52201E-05 7.50074E-19-4.61898E-19
 -1      3428 6.99816E-05-2.57615E-05-1.90874E-05-2.65823E-05 4.44904E-19 1.11162E-18
 -1      3429 5.70138E-05-1.76139E-05-1.63632E-05-1.68290E-05 3.00194E-19-1.53276E-18
 -1      3430 1.32464E-04-5.69615E-05-3.24893E-05-2.16490E-06-8.05396E-19 3.63695E-20
 -1      3431 1.31442E-04-5.27020E-05-3.38194E-05 4.67602E-06-1.38863E-18 1.62980E-18
 -1      3432 1.27514E-04-5.25307E-05-3.19695E-05 2.18589E-06-3.01861E-19 1.16459E-18
 -1      3433 1.27077E-04-5.64385E-05-3.02605E-05-6.84265E-06-1.01913E-18 1.96670E-19
 -1      3434 9.25293E-05-1.86078E-05-3.16915E-05-2.37670E-06 6.69585E-20-2.40942E-18
 -1      3435 9.27602E-05-1.90098E-05-3.16256E-05-3.08482E-06-2.47891E-19-2.47764E-18
 -1      3436 4.63769E-05-1.35387E-05-1.34708E-05 6.63227E-06-2.59086E-19-3.54017E-18
 -1      3437 4.57623E-05-1.34848E-05-1.35442E-05-6.62983E-07-2.14604E-20-4.02552E-18
 -1      3438 5.20307E-05-1.40871E-05-1.60878E-05-5.90909E-07-1.75342E-19-2.89680E-18
 -1      3439 1.07501E-04-4.98071E-05-2.44843E-05 2.92925E-05-3.95882E-19-3.58442E-18
 -1      3440 1.29379E-04-5.17568E-05-3.33348E-05-1.38814E-07-5.64614E-19-4.27176E-19
 -1      3441 5.23487E-05-1.63150E-05-1.52088E-05 1.23988E-05-9.65287E-20-3.27537E-18
 -1      3442 9.30415E-05-1.95042E-05-3.15263E-05-3.62208E-06-4.49663E-19-2.49094E-18
 -1      3443 9.34075E-05-2.01646E-05-3.14140E-05-4.22621E-06-6.57274E-19-2.54954E-18
 -1      3444 9.37537E-05-2.07606E-05-3.12631E-05-2.81488E-06-3.69648E-19-2.24453E-18
 -1      3445 8.51671E-05-3.40602E-05-2.13493E-05-3.09582E-05 2.08741E-18 1.23500E-18
 -1      3446 9.76454E-05-4.37954E-05-2.32867E-05-3.20982E-05 3.45799E-18-1.30348E-18
 -1      3447 1.18067E-04-5.32277E-05-2.76241E-05 1.34072E-05 9.19646E-19-2.57187E-18
 -1      3448 1.12975E-04-5.16434E-05-2.60966E-05-1.81313E-05-2.82155E-19 6.16918E-19
 -1      3449 1.22476E-04-5.60979E-05-2.85307E-05-1.20151E-05-7.18072E-19 6.33184E-19
 -1      3450 9.61727E-05-2.78300E-05-2.92819E-05 2.39079E-07-6.35960E-19-1.22338E-18
 -1      3451 9.61682E-05-2.81483E-05-2.91559E-05 4.91483E-07-6.04674E-19-9.41113E-19
 -1      3452 9.61778E-05-2.84105E-05-2.90375E-05 6.52887E-07-4.93929E-19-8.49588E-19
 -1      3453 9.61483E-05-2.86069E-05-2.89486E-05 7.88732E-07-9.39294E-20-7.28878E-19
 -1      3454 9.63699E-05-2.82206E-05-2.92084E-05 4.69538E-07-3.37453E-19-6.47745E-19
 -1      3455 9.61153E-05-2.87589E-05-2.88631E-05 8.65956E-07-1.04621E-19-8.13892E-19
 -1      3456 9.60751E-05-2.88710E-05-2.88025E-05 9.22356E-07-1.72420E-19-9.02827E-19
 -1      3457 9.63481E-05-2.86894E-05-2.89987E-05 7.27301E-07-2.26819E-19-5.56458E-19
 -1      3458 9.60196E-05-2.89473E-05-2.87428E-05 9.43308E-07-1.12579E-19-1.09950E-18
 -1      3459 9.59766E-05-2.90010E-05-2.87035E-05 9.49431E-07-7.45330E-20-9.43991E-19
 -1      3460 9.62619E-05-2.89545E-05-2.88483E-05 8.42390E-07-9.04114E-20-9.84892E-19
 -1      3461 9.59109E-05-2.90256E-05-2.86637E-05 9.36321E-07 2.84298E-20-7.39706E-19
 -1      3462 9.58691E-05-2.90390E-05-2.86405E-05 9.14144E-07-2.43282E-21-3.27619E-19
 -1      3463 9.61430E-05-2.90780E-05-2.87443E-05 8.64650E-07 1.50907E-19-1.09818E-18
 -1      3464 9.58003E-05-2.90283E-05-2.86160E-05 8.83858E-07-3.48850E-19-5.27223E-20
 -1      3465 9.57615E-05-2.90139E-05-2.86047E-05 8.49614E-07-3.71866E-19-8.47128E-20
 -1      3466 9.60107E-05-2.91037E-05-2.86763E-05 8.33239E-07-1.24172E-19-6.79393E-19
 -1      3467 9.56934E-05-2.89789E-05-2.85920E-05 8.14704E-07-5.47512E-19-3.33023E-19
 -1      3468 9.56577E-05-2.89446E-05-2.85897E-05 7.80332E-07-5.27211E-19-2.86779E-19
 -1      3469 9.58758E-05-2.90618E-05-2.86362E-05 7.77801E-07-6.80523E-19-6.03792E-19
 -1      3470 9.55915E-05-2.88920E-05-2.85861E-05 7.50137E-07-4.69946E-19-6.33667E-19
 -1      3471 9.55586E-05-2.88428E-05-2.85907E-05 7.24587E-07-5.42268E-19-6.42791E-19
 -1      3472 9.57431E-05-2.89721E-05-2.86174E-05 7.20447E-07-6.76323E-19-5.90546E-19
 -1      3473 9.54935E-05-2.87763E-05-2.85941E-05 7.06269E-07-5.48849E-19-4.50100E-19
 -1      3474 9.54622E-05-2.87145E-05-2.86042E-05 6.96530E-07-4.80544E-19-5.65032E-19
 -1      3475 9.56132E-05-2.88465E-05-2.86153E-05 6.77906E-07-3.18772E-19-8.87809E-19
 -1      3476 9.53962E-05-2.86355E-05-2.86132E-05 6.95863E-07-7.16645E-19-7.65902E-19
 -1      3477 9.53648E-05-2.85617E-05-2.86279E-05 7.07787E-07-7.36775E-19-8.09052E-19
 -1      3478 9.54835E-05-2.86907E-05-2.86261E-05 6.63270E-07-7.02386E-19-6.19607E-19
 -1      3479 9.52947E-05-2.84694E-05-2.86413E-05 7.29847E-07-7.40016E-19-1.07412E-18
 -1      3480 9.52611E-05-2.83829E-05-2.86600E-05 7.68787E-07-8.30999E-19-1.30964E-18
 -1      3481 9.53487E-05-2.85058E-05-2.86472E-05 6.87445E-07-6.05479E-19-4.20311E-19
 -1      3482 9.51828E-05-2.82754E-05-2.86770E-05 8.18457E-07-9.42700E-19-1.16419E-18
 -1      3483 9.51445E-05-2.81744E-05-2.86992E-05 8.89687E-07-6.89186E-19-7.42284E-19
 -1      3484 9.52016E-05-2.82895E-05-2.86763E-05 7.60371E-07-8.28684E-19-5.12012E-19
 -1      3485 9.50528E-05-2.80490E-05-2.87189E-05 9.71969E-07-8.70078E-21-3.87738E-19
 -1      3486 9.50070E-05-2.79313E-05-2.87442E-05 1.08093E-06 2.04850E-19-2.07088E-19
 -1      3487 9.50329E-05-2.80370E-05-2.87117E-05 8.91783E-07-2.51930E-19-2.94896E-19
 -1      3488 9.48961E-05-2.77848E-05-2.87657E-05 1.20112E-06-2.91065E-19 1.07992E-19
 -1      3489 9.48398E-05-2.76484E-05-2.87935E-05 1.35347E-06-2.85622E-19-1.83220E-19
 -1      3490 9.48319E-05-2.77425E-05-2.87512E-05 1.09169E-06 2.39085E-20 4.48838E-19
 -1      3491 9.47033E-05-2.74781E-05-2.88153E-05 1.51721E-06 5.97186E-20-4.27474E-19
 -1      3492 9.46332E-05-2.73218E-05-2.88446E-05 1.71874E-06 2.00325E-19-1.28388E-19
 -1      3493 9.45865E-05-2.73998E-05-2.87922E-05 1.37060E-06 2.95244E-20-3.86477E-19
 -1      3494 9.44644E-05-2.71261E-05-2.88647E-05 1.93197E-06 4.07042E-19 1.73568E-19
 -1      3495 9.43777E-05-2.69506E-05-2.88938E-05 2.18829E-06 1.03101E-18 5.45223E-19
 -1      3496 9.42838E-05-2.70048E-05-2.88310E-05 1.73949E-06 5.48461E-19-4.76779E-19
 -1      3497 9.41703E-05-2.67306E-05-2.89092E-05 2.45707E-06 9.01227E-19 2.58917E-19
 -1      3498 9.40654E-05-2.65400E-05-2.89356E-05 2.77318E-06 2.99667E-19 1.82730E-19
 -1      3499 9.39107E-05-2.65568E-05-2.88621E-05 2.20966E-06 6.63299E-19 2.24026E-20
 -1      3500 9.38144E-05-2.63010E-05-2.89420E-05 3.10366E-06-1.55744E-19-2.22686E-19
 -1      3501 9.36925E-05-2.61055E-05-2.89614E-05 3.48342E-06-2.73298E-19-5.82867E-19
 -1      3502 9.34558E-05-2.60625E-05-2.88780E-05 2.79259E-06-6.86705E-20-4.91158E-19
 -1      3503 9.33962E-05-2.58600E-05-2.89529E-05 3.88193E-06-4.36785E-19-4.05071E-19
 -1      3504 9.32640E-05-2.56788E-05-2.89598E-05 4.32755E-06-3.03946E-19-4.15718E-19
 -1      3505 9.29120E-05-2.55402E-05-2.88677E-05 3.50014E-06-2.71156E-19-6.03963E-19
 -1      3506 9.29269E-05-2.54505E-05-2.89283E-05 4.80128E-06-2.05711E-19-6.58222E-19
 -1      3507 9.28014E-05-2.53172E-05-2.89152E-05 5.31308E-06-1.25092E-20-9.17684E-19
 -1      3508 9.22812E-05-2.50261E-05-2.88169E-05 4.34574E-06-7.22624E-19-7.26569E-19
 -1      3509 9.24395E-05-2.51463E-05-2.88505E-05 5.87153E-06-1.06551E-19-9.72679E-19
 -1      3510 9.23558E-05-2.51156E-05-2.88081E-05 6.44798E-06-2.55125E-19-7.81166E-19
 -1      3511 9.15819E-05-2.45837E-05-2.87065E-05 5.34729E-06 1.09291E-19-7.90637E-19
 -1      3512 9.20043E-05-2.50666E-05-2.86982E-05 7.10560E-06-4.71901E-20-3.09943E-19
 -1      3513 9.20273E-05-2.52236E-05-2.86165E-05 7.74344E-06 5.13152E-19 1.86900E-19
 -1      3514 9.08617E-05-2.43166E-05-2.85133E-05 6.53254E-06 4.41834E-19-6.08643E-19
 -1      3515 9.17540E-05-2.53953E-05-2.84485E-05 8.52310E-06 1.11899E-18 1.80196E-19
 -1      3516 9.19963E-05-2.58675E-05-2.83196E-05 9.21591E-06 1.74061E-18 5.20715E-19
 -1      3517 9.02166E-05-2.43854E-05-2.82107E-05 7.94771E-06 9.49514E-19 1.16093E-19
 -1      3518 9.19233E-05-2.64054E-05-2.80831E-05 1.01497E-05 8.92842E-19 2.39588E-19
 -1      3519 9.25712E-05-2.73753E-05-2.79072E-05 1.08784E-05 5.75455E-19-3.65548E-19
 -1      3520 8.98245E-05-2.50332E-05-2.77728E-05 9.66709E-06 9.93089E-19-7.37433E-19
 -1      3521 9.29092E-05-2.84845E-05-2.76014E-05 1.20013E-05 2.04770E-19-1.39856E-18
 -1      3522 9.42563E-05-3.02037E-05-2.74010E-05 1.27039E-05 2.34401E-19-1.68022E-18
 -1      3523 8.99952E-05-2.66152E-05-2.71833E-05 1.17911E-05-1.50301E-19-1.22796E-18
 -1      3524 9.53824E-05-3.21590E-05-2.70548E-05 1.39841E-05 1.65337E-20-2.38409E-18
 -1      3525 9.78087E-05-3.48721E-05-2.68978E-05 1.45017E-05-4.51479E-19-2.75090E-18
 -1      3526 9.12615E-05-2.96503E-05-2.64569E-05 1.44333E-05-5.50752E-19-3.29913E-18
 -1      3527 1.00248E-04-3.79621E-05-2.65980E-05 1.55597E-05-4.64345E-19-2.43336E-18
 -1      3528 1.03930E-04-4.17384E-05-2.66184E-05 1.54734E-05-3.55641E-19-2.38769E-18
 -1      3529 9.48007E-05-3.50535E-05-2.57333E-05 1.75181E-05-2.65300E-19-3.06507E-18
 -1      3530 1.24302E-04-5.50383E-05-2.94314E-05-1.36147E-05 1.23232E-18-1.69966E-18
 -1      3531 1.17640E-04-5.11772E-05-2.85183E-05-1.65267E-05 7.07392E-19-2.43360E-19
 -1      3532 1.12863E-04-4.68802E-05-2.80012E-05-1.85973E-05 9.34848E-19-1.11365E-19
 -1      3533 1.18283E-04-5.36089E-05-2.79368E-05-2.00448E-05 1.41957E-18 4.18223E-21
 -1      3534 1.07904E-04-4.32208E-05-2.77320E-05-1.99447E-05 1.51786E-18 1.15647E-18
 -1      3535 1.04162E-04-3.88498E-05-2.78431E-05-2.01048E-05 1.83972E-18 9.38793E-19
 -1      3536 9.90863E-05-3.62395E-05-2.69715E-05-2.25802E-05 1.62070E-18 3.34658E-18
 -1      3537 1.07110E-04-4.46745E-05-2.69347E-05-2.28776E-05 1.64633E-18 2.98672E-18
 -1      3538 9.89045E-05-3.18126E-05-2.87770E-05 1.82862E-05-7.10293E-19-6.27106E-19
 -1      3539 1.00825E-04-3.28563E-05-2.90962E-05 1.68857E-05-6.36580E-19 3.77906E-20
 -1      3540 1.02505E-04-3.49313E-05-2.89211E-05 1.70417E-05-2.20540E-19-6.64694E-19
 -1      3541 9.87008E-05-3.37325E-05-2.78650E-05 2.05536E-05 3.89933E-21-1.03173E-18
 -1      3542 9.55451E-05-2.89013E-05-2.85600E-05-8.30446E-07-1.67316E-19-5.96045E-19
 -1      3543 9.55643E-05-2.89259E-05-2.85595E-05-8.70201E-07-6.95179E-20-8.60053E-19
 -1      3544 9.53474E-05-2.85902E-05-2.86081E-05-7.22511E-07 6.68700E-20-2.72987E-19
 -1      3545 9.53608E-05-2.86496E-05-2.85919E-05-7.17056E-07-6.56272E-20-5.54467E-19
 -1      3546 9.52817E-05-2.84430E-05-2.86428E-05-7.71828E-07 5.59560E-19-2.32651E-19
 -1      3547 9.52952E-05-2.85130E-05-2.86228E-05-7.39430E-07 5.41282E-19-2.23225E-19
 -1      3548 9.53528E-05-2.85495E-05-2.86303E-05-7.16748E-07 2.00760E-20-7.66742E-19
 -1      3549 9.52094E-05-2.82715E-05-2.86851E-05-8.81637E-07 1.38582E-19-3.29255E-19
 -1      3550 9.52243E-05-2.83532E-05-2.86613E-05-8.16967E-07 4.19420E-19-2.45320E-19
 -1      3551 9.52441E-05-2.83658E-05-2.86621E-05-7.80901E-07 4.84084E-19-5.71502E-19
 -1      3552 9.51253E-05-2.80719E-05-2.87343E-05-1.06263E-06 5.23050E-19-1.23105E-19
 -1      3553 9.51430E-05-2.81669E-05-2.87068E-05-9.60188E-07 2.75494E-19-5.03723E-19
 -1      3554 9.51211E-05-2.81516E-05-2.87008E-05-9.05613E-07 3.67800E-19-7.36104E-19
 -1      3555 9.50237E-05-2.78404E-05-2.87896E-05-1.32605E-06 1.94565E-19 1.11711E-18
 -1      3556 9.50455E-05-2.79501E-05-2.87585E-05-1.18008E-06 6.82376E-19 6.13980E-19
 -1      3557 9.49757E-05-2.79022E-05-2.87450E-05-1.10142E-06 1.65597E-19-1.16490E-20
 -1      3558 9.48984E-05-2.75738E-05-2.88497E-05-1.68361E-06-2.93978E-19 7.69136E-19
 -1      3559 9.49256E-05-2.76990E-05-2.88155E-05-1.48824E-06 6.30568E-21 6.64427E-19
 -1      3560 9.47990E-05-2.76126E-05-2.87929E-05-1.37938E-06 1.12487E-19-3.19595E-20
 -1      3561 9.47439E-05-2.72722E-05-2.89122E-05-2.14705E-06-2.23887E-19 6.15864E-19
 -1      3562 9.47774E-05-2.74118E-05-2.88759E-05-1.89663E-06-3.24142E-19 3.35971E-19
 -1      3563 9.45814E-05-2.72795E-05-2.88418E-05-1.75102E-06 5.28839E-20-3.28623E-21
 -1      3564 9.45562E-05-2.69408E-05-2.89733E-05-2.72728E-06-1.65308E-19 6.04393E-19
 -1      3565 9.45955E-05-2.70905E-05-2.89365E-05-2.41697E-06-2.84265E-19 8.68910E-19
 -1      3566 9.43138E-05-2.69030E-05-2.88878E-05-2.22799E-06-6.00818E-20-5.13001E-19
 -1      3567 9.43355E-05-2.65942E-05-2.90266E-05-3.43317E-06-1.84235E-19 4.78906E-19
 -1      3568 9.43777E-05-2.67447E-05-2.89922E-05-3.05983E-06-2.30588E-19 5.40698E-19
 -1      3569 9.39890E-05-2.64899E-05-2.89249E-05-2.82161E-06-3.79027E-19-3.73969E-19
 -1      3570 9.40905E-05-2.62624E-05-2.90630E-05-4.27017E-06-6.77278E-19 6.38575E-19
 -1      3571 9.41276E-05-2.63957E-05-2.90355E-05-3.83343E-06-1.38392E-19 7.01581E-19
 -1      3572 9.36047E-05-2.60582E-05-2.89445E-05-3.54233E-06-3.64196E-19-3.12267E-19
 -1      3573 9.38459E-05-2.59986E-05-2.90701E-05-5.23882E-06-8.46890E-19 2.31294E-19
 -1      3574 9.38607E-05-2.60837E-05-2.90554E-05-4.74236E-06-8.58131E-19 5.30392E-19
 -1      3575 9.31680E-05-2.56433E-05-2.89348E-05-4.39967E-06-6.33783E-19-7.21340E-19
 -1      3576 9.36544E-05-2.58921E-05-2.90317E-05-6.33332E-06-6.40822E-19 3.37157E-19
 -1      3577 9.36136E-05-2.58783E-05-2.90375E-05-5.78646E-06-7.67804E-19 7.33333E-19
 -1      3578 9.27039E-05-2.53076E-05-2.88801E-05-5.40289E-06-1.15993E-18-7.96868E-19
 -1      3579 9.36155E-05-2.60834E-05-2.89300E-05-7.53961E-06-1.58508E-18 8.42314E-19
 -1      3580 9.34595E-05-2.58920E-05-2.89645E-05-6.95958E-06-8.58292E-19 1.07040E-18
 -1      3581 9.22682E-05-2.51533E-05-2.87612E-05-6.56299E-06-1.06653E-18-3.54405E-19
 -1      3582 9.39032E-05-2.67829E-05-2.87485E-05-8.83032E-06-3.55534E-19 4.60650E-19
 -1      3583 9.35317E-05-2.62983E-05-2.88180E-05-8.24675E-06-1.10877E-18 5.97688E-19
 -1      3584 9.19686E-05-2.53400E-05-2.85571E-05-7.89496E-06-1.32601E-18-4.03856E-19
 -1      3585 9.48016E-05-2.82865E-05-2.84825E-05-1.01506E-05-4.69077E-19 3.27787E-19
 -1      3586 9.40576E-05-2.73494E-05-2.85857E-05-9.61539E-06-2.22672E-19 1.75845E-19
 -1      3587 9.19959E-05-2.61060E-05-2.82497E-05-9.41697E-06-4.69865E-19-6.20844E-19
 -1      3588 9.67439E-05-3.09729E-05-2.81561E-05-1.13771E-05-5.70335E-19 1.76345E-19
 -1      3589 9.54016E-05-2.93881E-05-2.82740E-05-1.09901E-05-4.40964E-19 1.25645E-19
 -1      3590 9.26690E-05-2.77888E-05-2.78347E-05-1.11366E-05-2.35076E-19-9.16424E-19
 -1      3591 1.00332E-04-3.52691E-05-2.78549E-05-1.22245E-05 1.54468E-20 4.11828E-19
 -1      3592 9.81218E-05-3.28385E-05-2.79314E-05-1.21855E-05-4.85960E-19 4.50745E-19
 -1      3593 9.45019E-05-3.08527E-05-2.73415E-05-1.30110E-05-6.28662E-19-3.58307E-19
 -1      3594 1.06228E-04-4.12628E-05-2.78045E-05-1.19537E-05-8.53154E-20 6.73721E-19
 -1      3595 1.02957E-04-3.80593E-05-2.77101E-05-1.26412E-05 7.22744E-19 1.08506E-18
 -1      3596 9.83212E-05-3.58633E-05-2.68812E-05-1.47459E-05 2.45127E-20 6.82718E-19
 -1      3597 1.23014E-04-5.21413E-05-3.03827E-05-2.97758E-06-7.91116E-19 1.12396E-18
 -1      3598 1.19138E-04-5.05555E-05-2.91335E-05-6.89219E-06-7.69718E-19 1.03387E-18
 -1      3599 1.13103E-04-1.56198E-05-4.19757E-05 2.63913E-06 5.23678E-19 2.36605E-18
 -1      3600 1.13561E-04-1.70321E-05-4.17303E-05 8.65104E-06 1.06684E-18 3.31404E-18
 -1      3601 6.45145E-05-2.05168E-05-1.88183E-05-1.76402E-05-1.42165E-18-1.03470E-18
 -1      3602 6.99583E-05-2.49823E-05-1.90679E-05-2.26990E-05-1.00606E-18-4.26799E-19
 -1      3603 1.09291E-04-4.91952E-05-2.53893E-05-2.69896E-05 2.64250E-18-1.90136E-19
 -1      3604 9.04314E-05-3.78461E-05-2.27017E-05 3.11505E-05-4.44719E-19-4.41556E-18
 -1      3605 8.27243E-05-3.16825E-05-2.14505E-05 2.94072E-05-6.87897E-19-2.14437E-18
 -1      3606 9.59543E-05-2.80877E-05-2.90902E-05-4.96993E-07 3.55897E-19-1.23812E-18
 -1      3607 9.59731E-05-2.77864E-05-2.92139E-05-2.19163E-07 4.35080E-19-1.31924E-18
 -1      3608 9.07229E-05-3.94259E-05-2.17073E-05-2.67866E-05-7.30434E-20 1.10892E-18
 -1      3609 1.01032E-04-4.60702E-05-2.37071E-05-2.47106E-05-5.33604E-19 3.98185E-19
 -1      3610 9.51480E-05-3.52983E-05-2.54907E-05-2.55605E-05 2.39786E-18 1.52689E-18
 -1      3611 8.79297E-05-3.12617E-05-2.43822E-05-2.57423E-05 2.39385E-18-9.15696E-19
 -1      3612 9.58621E-05-2.87846E-05-2.87482E-05-9.85305E-07 3.76806E-19-1.29845E-18
 -1      3613 9.58947E-05-2.86741E-05-2.88043E-05-9.23425E-07 1.46301E-19-1.30774E-18
 -1      3614 7.61618E-05-2.32905E-05-2.24453E-05-2.18209E-05 1.70412E-19-9.59199E-19
 -1      3615 6.98725E-05-1.92941E-05-2.15697E-05-1.71394E-05-8.39158E-20-1.25647E-18
 -1      3616 9.56197E-05-2.89530E-05-2.85700E-05-9.09588E-07 8.59556E-20-9.52728E-19
 -1      3617 9.56425E-05-2.89594E-05-2.85779E-05-9.48156E-07 1.56749E-19-8.97360E-19
 -1      3618 9.57622E-05-2.90144E-05-2.86078E-05-8.50369E-07-7.67353E-21-1.13095E-18
 -1      3619 1.13374E-04-5.12278E-05-2.68425E-05 2.35105E-05 1.90073E-19-2.58726E-18
 -1      3620 1.01863E-04-4.44948E-05-2.42685E-05 2.92384E-05 7.97204E-19-4.33898E-18
 -1      3621 9.88655E-05-4.01068E-05-2.50269E-05 2.66096E-05 2.05604E-19-3.30234E-18
 -1      3622 1.21658E-04-1.54855E-05-4.59890E-05 1.01718E-05 1.41306E-18 2.80735E-18
 -1      3623 9.54110E-05-2.87158E-05-2.85817E-05-7.23279E-07-1.32563E-19-5.43079E-19
 -1      3624 9.54254E-05-2.87650E-05-2.85698E-05-7.39336E-07-2.28453E-19-1.33609E-19
 -1      3625 9.54543E-05-2.87065E-05-2.86069E-05-7.02895E-07-5.24963E-20-1.12713E-18
 -1      3626 9.22486E-05-1.81304E-05-3.17768E-05-1.00962E-06 3.83885E-19-2.57277E-18
 -1      3627 9.23608E-05-1.83216E-05-3.17461E-05-1.76288E-06 1.97123E-19-2.56292E-18
 -1      3628 9.33483E-05-1.99904E-05-3.14203E-05-1.76611E-06 1.64136E-19-2.27579E-18
 -1      3629 9.59267E-05-2.85274E-05-2.88877E-05-8.32845E-07 2.88299E-19-1.22849E-18
 -1      3630 9.59569E-05-2.83386E-05-2.89727E-05-6.83634E-07 3.64297E-19-1.08906E-18
 -1      3631 9.61623E-05-2.86119E-05-2.89528E-05-7.82812E-07 3.56908E-19-1.28940E-18
 -1      3632 9.40222E-05-2.13589E-05-3.11351E-05-4.33571E-06-7.89558E-19-2.28184E-18
 -1      3633 9.54760E-05-2.88203E-05-2.85649E-05-7.63339E-07-4.80294E-19-3.26345E-19
 -1      3634 9.54924E-05-2.88584E-05-2.85581E-05-7.94881E-07-3.40753E-19-2.42218E-19
 -1      3635 9.56559E-05-2.89428E-05-2.85926E-05-7.82741E-07-2.25666E-19-8.22530E-19
 -1      3636 9.55540E-05-2.88381E-05-2.85935E-05-7.28826E-07-4.11831E-19-7.73407E-19
 -1      3637 9.60452E-05-2.69189E-05-2.96152E-05-4.59239E-07-6.39854E-19-1.46946E-18
 -1      3638 9.60875E-05-2.74081E-05-2.94417E-05-4.17822E-08-6.74429E-19-1.42311E-18
 -1      3639 9.62734E-05-2.74583E-05-2.94925E-05 9.34140E-09-5.16432E-19-1.06143E-18
 -1      3640 1.19869E-04-1.23192E-05-4.67526E-05 5.46793E-06 2.27577E-18 1.53794E-18
 -1      3641 1.27168E-04-5.34344E-05-3.16953E-05 4.63841E-06 6.91504E-19-6.48205E-19
 -1      3642 9.53331E-05-2.47693E-05-3.02421E-05 2.75983E-06 1.32038E-18-1.66028E-18
 -1      3643 9.50452E-05-2.39250E-05-3.04881E-05 3.00546E-06 1.42908E-18-1.73821E-18
 -1      3644 9.54853E-05-2.56222E-05-2.99483E-05 1.86160E-06 1.07888E-18-1.65881E-18
 -1      3645 9.56797E-05-2.55343E-05-3.00637E-05-1.52025E-06-7.01698E-19-1.74685E-18
 -1      3646 9.58261E-05-2.62631E-05-2.98255E-05-8.74260E-07-6.73112E-19-1.57719E-18
 -1      3647 9.59997E-05-2.63181E-05-2.98684E-05-7.09864E-07-5.61992E-19-1.51703E-18
 -1      3648 6.58963E-05-1.69017E-05-2.09718E-05-9.61846E-06-6.14953E-19-1.28257E-18
 -1      3649 5.78257E-05-1.83582E-05-1.64683E-05 1.74376E-05-1.27081E-19-3.20803E-18
 -1      3650 5.58320E-05-1.58203E-05-1.70740E-05 1.00776E-05 3.27802E-19-3.70720E-18
 -1      3651 6.52931E-05-2.23620E-05-1.82742E-05 1.99979E-05 4.18064E-19-3.19763E-18
 -1      3652 7.50043E-05-2.90299E-05-1.95504E-05-2.51338E-05-1.30515E-18-1.03034E-18
 -1      3653 8.25669E-05-3.47683E-05-2.04461E-05-2.74020E-05-4.33416E-19 7.05578E-19
 -1      3654 7.61561E-05-2.74068E-05-2.07707E-05-2.20074E-05-1.70058E-18-4.54645E-19
 -1      3655 1.22560E-04-5.36027E-05-2.94844E-05 1.29512E-05-2.91532E-20-1.35745E-18
 -1      3656 1.18226E-04-5.09849E-05-2.86510E-05 1.58719E-05 2.89020E-19-1.19915E-18
 -1      3657 1.12586E-04-4.66912E-05-2.82160E-05 1.77033E-05 1.07839E-18-8.38619E-19
 -1      3658 9.48224E-05-2.32695E-05-3.06637E-05 2.80215E-06 1.31124E-18-1.75200E-18
 -1      3659 9.40904E-05-2.15197E-05-3.11195E-05 1.75561E-06 9.59853E-19-2.00902E-18
 -1      3660 9.39524E-05-2.12230E-05-3.11786E-05 1.25337E-06 7.99554E-19-1.88083E-18
 -1      3661 1.14626E-04-4.97615E-05-2.77209E-05 1.23471E-05 2.45851E-19-2.63977E-18
 -1      3662 1.11389E-04-5.08869E-05-2.59739E-05 1.90576E-05 2.20520E-19-2.57018E-18
 -1      3663 1.07877E-04-4.75660E-05-2.57870E-05-1.85059E-05-7.37660E-19 1.24108E-18
 -1      3664 9.87336E-05-3.93480E-05-2.52714E-05-2.65539E-05 2.24497E-18 1.03947E-18
 -1      3665 1.09527E-04-4.58481E-05-2.70831E-05 1.44670E-05-3.87034E-19-2.50815E-18
 -1      3666 8.91213E-05-3.63889E-05-2.24415E-05-2.41617E-05-5.62840E-19 9.33801E-19
 -1      3667 7.84857E-05-2.75203E-05-2.15823E-05 2.57197E-05-9.40418E-19-9.28983E-19
 -1      3668 9.31464E-05-1.96191E-05-3.14939E-05-5.88344E-07 4.19807E-19-2.39052E-18
 -1      3669 9.39491E-05-2.12079E-05-3.11822E-05-1.22017E-06 3.06419E-19-2.18851E-18
 -1      3670 9.40810E-05-2.14904E-05-3.11246E-05-1.73695E-06 9.52410E-20-2.13681E-18
 -1      3671 1.14751E-04-4.83322E-05-2.84814E-05-9.25810E-06-5.64084E-19 8.07442E-19
 -1      3672 1.10547E-04-4.50160E-05-2.79432E-05-1.14615E-05-6.22161E-19 8.97110E-20
 -1      3673 9.44997E-05-2.24362E-05-3.08805E-05-3.33570E-06-6.79825E-19-2.28292E-18
 -1      3674 1.03688E-04-4.41127E-05-2.54304E-05-2.62843E-05 2.49149E-18 2.39154E-19
 -1      3675 1.08403E-04-4.26886E-05-2.80724E-05 1.87132E-05 1.53089E-18-1.48659E-18
 -1      3676 9.56996E-05-2.89642E-05-2.85999E-05-9.81126E-07 1.62669E-19-8.95350E-19
 -1      3677 9.57264E-05-2.89448E-05-2.86192E-05-1.00579E-06 2.92283E-19-1.07565E-18
 -1      3678 9.58725E-05-2.90415E-05-2.86438E-05-9.13360E-07 8.30223E-20-9.94315E-19
 -1      3679 9.37765E-05-2.07929E-05-3.12554E-05 2.85318E-06 1.31900E-18-1.93250E-18
 -1      3680 9.61127E-05-2.74096E-05-2.94459E-05 4.80309E-08 3.64720E-19-1.23440E-18
 -1      3681 9.59051E-05-2.73731E-05-2.93761E-05 1.10204E-07 4.24907E-19-1.38281E-18
 -1      3682 6.17207E-05-1.45312E-05-1.99447E-05 1.65257E-06-3.77909E-19-7.83903E-19
 -1      3683 6.38154E-05-1.61292E-05-2.03260E-05 9.33299E-06 1.79465E-20-1.24477E-18
 -1      3684 6.09462E-05-1.63507E-05-1.91167E-05 9.09811E-06 5.78559E-19-2.86763E-18
 -1      3685 5.76325E-05-1.45461E-05-1.81076E-05 4.61725E-06 2.91450E-19-2.58139E-18
 -1      3686 9.58649E-05-2.69926E-05-2.95067E-05 4.90376E-07 6.68947E-19-1.55451E-18
 -1      3687 1.04750E-04-3.73194E-05-2.88749E-05 1.66415E-05 8.62342E-19-5.05361E-19
 -1      3688 5.97929E-05-1.74651E-05-1.77556E-05 1.31821E-05-3.13561E-19-1.54107E-18
 -1      3689 1.03840E-04-4.60213E-05-2.47205E-05 2.14785E-05-1.91879E-19-2.05789E-18
 -1      3690 9.57824E-05-2.89170E-05-2.86563E-05-1.01844E-06 3.32087E-19-1.11363E-18
 -1      3691 9.58129E-05-2.88604E-05-2.86911E-05-1.01176E-06 4.42924E-19-1.22074E-18
 -1      3692 9.59829E-05-2.90048E-05-2.87071E-05-9.47080E-07 2.90951E-19-1.14173E-18
 -1      3693 8.46096E-05-3.64609E-05-2.03311E-05 2.81642E-05 5.91335E-20-2.46735E-18
 -1      3694 7.88284E-05-3.12956E-05-2.03607E-05 2.54510E-05 7.37951E-19-3.01276E-18
 -1      3695 9.33651E-05-4.02636E-05-2.26351E-05 2.49111E-05 3.50050E-19-2.33842E-18
 -1      3696 9.48167E-05-2.28699E-05-3.08139E-05-1.54516E-06 1.08153E-20-1.90833E-18
 -1      3697 9.42338E-05-2.18143E-05-3.10412E-05-2.11913E-06-5.28892E-20-1.97930E-18
 -1      3698 9.44235E-05-2.22376E-05-3.09423E-05-2.54093E-06-4.24172E-19-2.20224E-18
 -1      3699 8.67282E-05-2.96851E-05-2.46114E-05 2.48225E-05-1.16847E-18-2.80524E-18
 -1      3700 9.32584E-05-3.31607E-05-2.55637E-05 2.46012E-05-7.56914E-19-3.08614E-18
 -1      3701 9.38766E-05-2.10560E-05-3.12202E-05 8.07389E-07 7.56886E-19-1.95215E-18
 -1      3702 9.38258E-05-2.09554E-05-3.12395E-05 2.46622E-07 6.14068E-19-2.23646E-18
 -1      3703 9.46236E-05-2.23866E-05-3.09367E-05 8.38805E-07 7.08030E-19-1.84640E-18
 -1      3704 1.04242E-04-4.01030E-05-2.74831E-05 2.13965E-05 4.93456E-19-8.73728E-19
 -1      3705 9.60848E-05-2.88757E-05-2.88064E-05-9.18303E-07 2.72683E-19-1.16698E-18
 -1      3706 5.73218E-05-1.46432E-05-1.81813E-05-4.22996E-07-4.42811E-19-1.71551E-18
 -1      3707 9.52764E-05-2.43542E-05-3.03991E-05-1.90242E-06-4.61966E-19-1.98624E-18
 -1      3708 9.53976E-05-2.44385E-05-3.04097E-05-1.56028E-06-3.18365E-19-1.82109E-18
 -1      3709 1.02381E-04-4.24294E-05-2.57488E-05 1.82087E-05-3.03959E-19-2.72836E-18
 -1      3710 9.61883E-05-2.81531E-05-2.91603E-05-4.83414E-07 3.96030E-19-1.15243E-18
 -1      3711 1.13594E-04-4.99097E-05-2.74751E-05-1.37985E-05-1.04042E-18 9.55688E-19
 -1      3712 1.04933E-04-4.27070E-05-2.67879E-05-1.53075E-05-2.82315E-19 1.09568E-18
 -1      3713 9.49425E-05-2.33558E-05-3.06758E-05-2.62763E-06-5.08337E-19-2.20308E-18
 -1      3714 9.42659E-05-2.18619E-05-3.10343E-05 2.14334E-06 1.02173E-18-1.88879E-18
 -1      3715 9.48536E-05-2.29119E-05-3.08090E-05 1.58833E-06 8.08845E-19-1.78062E-18
 -1      3716 9.44885E-05-2.23613E-05-3.09311E-05 2.57988E-06 1.20447E-18-1.79276E-18
 -1      3717 6.24842E-05-1.55145E-05-2.00779E-05 1.03652E-07-1.10740E-19-7.18152E-19
 -1      3718 5.79265E-05-1.46487E-05-1.82446E-05-4.27648E-06-7.41630E-19-1.62382E-18
 -1      3719 6.00861E-05-1.62300E-05-1.87032E-05-8.94449E-06-1.12419E-18-1.60280E-18
 -1      3720 9.63824E-05-2.82628E-05-2.91981E-05-4.96614E-07 3.20533E-19-1.07688E-18
 -1      3721 9.63775E-05-2.79438E-05-2.93225E-05-2.86059E-07 3.84346E-19-1.29079E-18
 -1      3722 9.65473E-05-2.86030E-05-2.91152E-05 5.73354E-07-3.25425E-19-8.16690E-19
 -1      3723 9.65158E-05-2.87967E-05-2.90242E-05 6.69962E-07-2.62920E-19-9.05198E-19
 -1      3724 9.64740E-05-2.89429E-05-2.89392E-05 7.14118E-07-1.16718E-19-9.50637E-19
 -1      3725 9.64194E-05-2.90463E-05-2.88746E-05 7.52585E-07-4.59452E-20-9.69980E-19
 -1      3726 9.66457E-05-2.88742E-05-2.90463E-05 5.83493E-07-2.80971E-19-1.13904E-18
 -1      3727 9.63491E-05-2.91127E-05-2.88138E-05 7.59487E-07 1.44678E-19-9.33895E-19
 -1      3728 9.62838E-05-2.91530E-05-2.87699E-05 7.61550E-07 2.81326E-19-7.87020E-19
 -1      3729 9.65344E-05-2.91123E-05-2.88969E-05 6.48820E-07 1.00160E-19-1.03245E-18
 -1      3730 9.61993E-05-2.91642E-05-2.87282E-05 7.46861E-07 1.03357E-19-8.41194E-19
 -1      3731 9.61307E-05-2.91606E-05-2.87004E-05 7.29315E-07-2.95393E-19-9.14997E-19
 -1      3732 9.63809E-05-2.92052E-05-2.87914E-05 6.54344E-07 1.23220E-19-1.07251E-18
 -1      3733 9.60405E-05-2.91336E-05-2.86739E-05 7.05081E-07-5.63170E-19-7.16099E-19
 -1      3734 9.59723E-05-2.90994E-05-2.86585E-05 6.80573E-07-4.99444E-19-7.57335E-19
 -1      3735 9.62078E-05-2.91966E-05-2.87208E-05 6.27198E-07-1.82904E-19-1.07243E-18
 -1      3736 9.58809E-05-2.90454E-05-2.86438E-05 6.55792E-07-7.57240E-19-5.35216E-19
 -1      3737 9.58144E-05-2.89888E-05-2.86380E-05 6.33783E-07-7.51000E-19-4.90388E-19
 -1      3738 9.60280E-05-2.91170E-05-2.86776E-05 5.88148E-07-3.59343E-19-5.35914E-19
 -1      3739 9.57227E-05-2.89146E-05-2.86325E-05 6.15352E-07-4.00015E-19-3.53244E-19
 -1      3740 9.56572E-05-2.88403E-05-2.86342E-05 6.03176E-07-2.65562E-19-2.91603E-19
 -1      3741 9.58466E-05-2.89856E-05-2.86559E-05 5.52837E-07-4.33957E-19-2.55391E-19
 -1      3742 9.55640E-05-2.87491E-05-2.86359E-05 5.96474E-07-4.02427E-19-3.19723E-19
 -1      3743 9.54976E-05-2.86591E-05-2.86435E-05 5.99937E-07-6.26911E-19-2.05062E-19
 -1      3744 9.56635E-05-2.88133E-05-2.86508E-05 5.33533E-07-3.38013E-19-3.04154E-19
 -1      3745 9.53994E-05-2.85514E-05-2.86506E-05 6.09428E-07-7.21643E-19 2.89253E-19
 -1      3746 9.53288E-05-2.84453E-05-2.86628E-05 6.33601E-07-6.04603E-19-3.81323E-20
 -1      3747 9.54741E-05-2.86046E-05-2.86586E-05 5.39860E-07-4.34974E-19-9.07986E-20
 -1      3748 9.52208E-05-2.83195E-05-2.86740E-05 6.63423E-07-4.56797E-19-2.59411E-19
 -1      3749 9.51418E-05-2.81954E-05-2.86897E-05 7.13046E-07-3.29974E-19 1.77633E-19
 -1      3750 9.52701E-05-2.83586E-05-2.86760E-05 5.80272E-07-6.10393E-19 1.66472E-19
 -1      3751 9.50177E-05-2.80486E-05-2.87037E-05 7.67268E-07-2.32901E-19 2.59239E-19
 -1      3752 9.49252E-05-2.79038E-05-2.87219E-05 8.47041E-07 2.96621E-20 4.39761E-19
 -1      3753 9.50404E-05-2.80710E-05-2.87001E-05 6.62705E-07-6.23264E-20 6.19087E-19
 -1      3754 9.47775E-05-2.77322E-05-2.87371E-05 9.29879E-07 3.35837E-19 2.33704E-19
 -1      3755 9.46657E-05-2.75634E-05-2.87565E-05 1.04464E-06 1.38366E-19 5.13851E-19
 -1      3756 9.47714E-05-2.77350E-05-2.87281E-05 7.95014E-07 1.10024E-19 8.87396E-19
 -1      3757 9.44858E-05-2.73632E-05-2.87711E-05 1.16060E-06-1.94719E-19 5.90238E-19
 -1      3758 9.43483E-05-2.71675E-05-2.87902E-05 1.31534E-06 1.08991E-19 4.28317E-19
 -1      3759 9.44472E-05-2.73430E-05-2.87562E-05 9.85342E-07 5.20840E-20 1.02794E-18
 -1      3760 9.41268E-05-2.69354E-05-2.88015E-05 1.46929E-06 3.72056E-19 3.52188E-19
 -1      3761 9.39568E-05-2.67113E-05-2.88179E-05 1.66914E-06 6.16261E-19 6.66576E-19
 -1      3762 9.40499E-05-2.68876E-05-2.87800E-05 1.24230E-06 8.55652E-20 1.20243E-18
 -1      3763 9.36839E-05-2.64458E-05-2.88227E-05 1.86633E-06 4.82717E-19 1.79899E-19
 -1      3764 9.34750E-05-2.61942E-05-2.88330E-05 2.11643E-06 3.63309E-19 2.42404E-20
 -1      3765 9.35604E-05-2.63640E-05-2.87934E-05 1.57505E-06 2.60149E-19 6.72525E-19
 -1      3766 9.31408E-05-2.58970E-05-2.88265E-05 2.36268E-06 1.28599E-20-9.83223E-21
 -1      3767 9.28880E-05-2.56234E-05-2.88260E-05 2.66822E-06-4.51060E-20-2.96003E-20
 -1      3768 9.29590E-05-2.57721E-05-2.87879E-05 1.99357E-06 3.72216E-20-1.21553E-19
 -1      3769 9.24835E-05-2.53013E-05-2.88017E-05 2.97040E-06-3.22206E-19-4.70541E-19
 -1      3770 9.21849E-05-2.50178E-05-2.87838E-05 3.33699E-06-5.38348E-19-1.80165E-19
 -1      3771 9.22268E-05-2.51202E-05-2.87519E-05 2.50929E-06-4.31813E-19 2.10849E-19
 -1      3772 9.17035E-05-2.46855E-05-2.87332E-05 3.70423E-06-4.74329E-19-4.72674E-19
 -1      3773 9.13632E-05-2.44147E-05-2.86893E-05 4.13895E-06-3.86681E-19-4.20844E-19
 -1      3774 9.13481E-05-2.44285E-05-2.86699E-05 3.13692E-06-4.64893E-19-3.31112E-19
 -1      3775 9.08022E-05-2.40980E-05-2.86009E-05 4.58509E-06-1.10031E-19-4.19798E-19
 -1      3776 9.04357E-05-2.38777E-05-2.85202E-05 5.09884E-06 2.37424E-19-8.13288E-20
 -1      3777 9.03127E-05-2.37352E-05-2.85215E-05 3.89836E-06-2.39531E-19-4.74231E-19
 -1      3778 8.97998E-05-2.36183E-05-2.83796E-05 5.64685E-06 2.72048E-19-7.25355E-19
 -1      3779 8.94410E-05-2.35082E-05-2.82487E-05 6.25837E-06 4.79103E-19-7.00981E-19
 -1      3780 8.91212E-05-2.31029E-05-2.82800E-05 4.83010E-06-1.03702E-19-3.81287E-19
 -1      3781 8.87469E-05-2.33699E-05-2.80382E-05 6.94733E-06 7.42705E-19-1.03585E-18
 -1      3782 8.84614E-05-2.34604E-05-2.78427E-05 7.68898E-06 1.27843E-18-7.34821E-19
 -1      3783 8.77919E-05-2.26287E-05-2.79121E-05 5.99543E-06 8.02558E-19-1.37255E-18
 -1      3784 8.77454E-05-2.35375E-05-2.75413E-05 8.58641E-06 1.23930E-18-1.21592E-18
 -1      3785 8.76533E-05-2.39655E-05-2.72676E-05 9.51032E-06 6.83547E-19-1.39548E-18
 -1      3786 8.63710E-05-2.24543E-05-2.73771E-05 7.50555E-06 8.49568E-19-1.54903E-18
 -1      3787 8.69940E-05-2.44045E-05-2.68518E-05 1.07251E-05-4.42934E-19-2.10740E-18
 -1      3788 8.72845E-05-2.53712E-05-2.64933E-05 1.19021E-05-1.03344E-18-2.12223E-18
 -1      3789 8.49565E-05-2.27942E-05-2.66265E-05 9.55004E-06-1.73227E-19-2.60912E-18
 -1      3790 8.68509E-05-2.63785E-05-2.59435E-05 1.35437E-05-9.22278E-19-3.10340E-18
 -1      3791 8.80485E-05-2.82581E-05-2.55686E-05 1.50006E-05-6.73785E-19-3.94017E-18
 -1      3792 8.38355E-05-2.40214E-05-2.56089E-05 1.24478E-05-1.52136E-18-3.11934E-18
 -1      3793 9.57305E-05-2.66111E-05-2.96264E-05 8.42521E-07 8.54850E-19-1.67860E-18
 -1      3794 9.56680E-05-2.61121E-05-2.97986E-05 1.39938E-06 8.95348E-19-1.65417E-18
 -1      3795 9.56275E-05-2.56078E-05-3.00200E-05 1.61851E-06 9.98197E-19-1.73177E-18
 -1      3796 9.58956E-05-2.65283E-05-2.97389E-05 7.40831E-07 6.26735E-19-1.68581E-18
 -1      3797 9.38221E-05-2.09514E-05-3.12400E-05-2.14827E-07 4.97790E-19-2.36438E-18
 -1      3798 9.38668E-05-2.10442E-05-3.12218E-05-7.73527E-07 3.84058E-19-2.38156E-18
 -1      3799 9.46211E-05-2.23826E-05-3.09389E-05-8.15695E-07 2.42118E-19-2.15620E-18
 -1      3800 9.45463E-05-2.22184E-05-3.09788E-05 1.02527E-08 5.32540E-19-2.23750E-18
 -1      3801 9.50332E-05-2.80300E-05-2.87137E-05-8.82495E-07 1.74364E-19-8.91323E-19
 -1      3802 9.51004E-05-2.81548E-05-2.86935E-05-8.04449E-07 7.11355E-19-8.80633E-19
 -1      3803 9.52039E-05-2.82838E-05-2.86782E-05-7.50286E-07 4.13106E-19-1.10616E-18
 -1      3804 9.52620E-05-2.83907E-05-2.86611E-05-7.03881E-07 2.02164E-19-1.29250E-18
 -1      3805 9.51190E-05-2.81715E-05-2.86911E-05-7.20159E-07 3.53944E-19-1.35318E-18
 -1      3806 9.53531E-05-2.85015E-05-2.86489E-05-6.76085E-07 1.80716E-19-1.23380E-18
 -1      3807 9.54058E-05-2.85930E-05-2.86355E-05-6.56292E-07-7.96160E-20-1.10361E-18
 -1      3808 9.53117E-05-2.84272E-05-2.86646E-05-6.38460E-07 3.40033E-19-1.63659E-18
 -1      3809 9.48301E-05-2.77344E-05-2.87532E-05-1.08254E-06-4.75092E-20-5.49535E-19
 -1      3810 9.49109E-05-2.78795E-05-2.87309E-05-9.67684E-07-1.73140E-19-6.71766E-19
 -1      3811 9.48954E-05-2.78731E-05-2.87225E-05-8.56757E-07 9.35007E-20-1.25426E-18
 -1      3812 9.45826E-05-2.73910E-05-2.87941E-05-1.36077E-06 2.51815E-19-6.38199E-19
 -1      3813 9.46818E-05-2.75589E-05-2.87709E-05-1.20373E-06 4.38324E-19-4.72697E-19
 -1      3814 9.46273E-05-2.75254E-05-2.87558E-05-1.05744E-06 2.48735E-19-1.00720E-18
 -1      3815 9.42780E-05-2.69960E-05-2.88327E-05-1.72796E-06-3.00623E-19-2.84608E-19
 -1      3816 9.44004E-05-2.71878E-05-2.88103E-05-1.52328E-06 8.12063E-20-2.87943E-19
 -1      3817 9.42998E-05-2.71219E-05-2.87875E-05-1.33192E-06 9.29618E-20-8.96895E-19
 -1      3818 9.39039E-05-2.65494E-05-2.88636E-05-2.19518E-06-4.49765E-19-1.01779E-19
 -1      3819 9.40538E-05-2.67638E-05-2.88445E-05-1.93750E-06-2.65291E-19-2.15484E-19
 -1      3820 9.38969E-05-2.66585E-05-2.88124E-05-1.69048E-06-3.14918E-19 2.35544E-19
 -1      3821 9.34497E-05-2.60587E-05-2.88789E-05-2.77356E-06-5.39637E-19-2.56274E-19
 -1      3822 9.36299E-05-2.62902E-05-2.88670E-05-2.45784E-06-5.80993E-19-2.88061E-19
 -1      3823 9.34030E-05-2.61360E-05-2.88235E-05-2.14406E-06-5.79371E-19-1.64352E-19
 -1      3824 9.29099E-05-2.55432E-05-2.88680E-05-3.47447E-06-9.56652E-20-4.93598E-19
 -1      3825 9.31198E-05-2.57794E-05-2.88686E-05-3.09606E-06-1.55247E-19-3.63169E-19
 -1      3826 9.28039E-05-2.55631E-05-2.88110E-05-2.70458E-06-4.62773E-19-5.30155E-19
 -1      3827 9.22889E-05-2.50404E-05-2.88164E-05-4.31051E-06-8.79627E-19-1.18121E-18
 -1      3828 9.25212E-05-2.52588E-05-2.88366E-05-3.86486E-06-3.19726E-19-6.13553E-19
 -1      3829 9.20902E-05-2.49614E-05-2.87617E-05-3.38604E-06-2.03026E-19-4.90497E-19
 -1      3830 9.16089E-05-2.46153E-05-2.87054E-05-5.29824E-06-1.19302E-18-1.01999E-18
 -1      3831 9.18446E-05-2.47778E-05-2.87543E-05-4.77985E-06-9.38884E-19-1.04518E-18
 -1      3832 9.12613E-05-2.43716E-05-2.86581E-05-4.20731E-06-1.00070E-18-5.76629E-19
 -1      3833 9.09231E-05-2.43727E-05-2.85120E-05-6.46336E-06-1.32444E-18-1.21502E-18
 -1      3834 9.11227E-05-2.44184E-05-2.86005E-05-5.86381E-06-1.10280E-18-1.12077E-18
 -1      3835 9.03318E-05-2.38613E-05-2.84777E-05-5.19759E-06-8.55693E-19-9.47488E-19
 -1      3836 9.03365E-05-2.44748E-05-2.82108E-05-7.84791E-06-1.21299E-18-1.69357E-18
 -1      3837 9.04270E-05-2.43100E-05-2.83501E-05-7.15362E-06-1.36591E-18-1.45231E-18
 -1      3838 8.93435E-05-2.35382E-05-2.81930E-05-6.40625E-06-1.27097E-18-1.72773E-18
 -1      3839 9.00397E-05-2.51639E-05-2.77776E-05-9.51530E-06-4.06458E-19-1.30262E-18
 -1      3840 8.98940E-05-2.46502E-05-2.79761E-05-8.70800E-06-8.40815E-19-1.53477E-18
 -1      3841 8.83843E-05-2.35672E-05-2.77719E-05-7.91609E-06-8.62502E-19-2.43127E-18
 -1      3842 9.03599E-05-2.67953E-05-2.72015E-05-1.15527E-05-7.95306E-19-1.12826E-18
 -1      3843 8.97672E-05-2.57281E-05-2.74570E-05-1.06130E-05-2.14701E-19-1.22332E-18
 -1      3844 8.76185E-05-2.41922E-05-2.71817E-05-9.85891E-06-5.44346E-19-1.40595E-18
 -1      3845 9.18136E-05-2.98343E-05-2.65019E-05-1.40508E-05-7.40354E-19-9.24333E-19
 -1      3846 9.04545E-05-2.79272E-05-2.67925E-05-1.29506E-05-1.07466E-18-9.29779E-19
 -1      3847 8.73499E-05-2.57851E-05-2.63996E-05-1.24067E-05-8.43493E-19-1.37479E-18
 -1      3848 9.53005E-05-3.50113E-05-2.57742E-05-1.68114E-05-6.10334E-19 5.49701E-19
 -1      3849 9.27151E-05-3.18848E-05-2.60130E-05-1.57651E-05-8.73011E-19-3.73422E-19
 -1      3850 8.81639E-05-2.90361E-05-2.54380E-05-1.58212E-05-1.17705E-18-8.87075E-19
 -1      3851 1.23113E-04-5.42573E-05-2.96921E-05-6.69823E-06-8.80279E-19 1.56165E-18
 -1      3852 9.63623E-05-2.71158E-05-2.96702E-05-1.86550E-07-3.66547E-19-1.07662E-18
 -1      3853 9.64390E-05-2.76062E-05-2.95064E-05 1.12726E-07-2.33089E-19-9.02106E-19
 -1      3854 9.65266E-05-2.80220E-05-2.93546E-05 2.90941E-07-2.97159E-19-8.11180E-19
 -1      3855 9.65388E-05-2.83433E-05-2.92303E-05 4.72367E-07-3.06044E-19-7.85010E-19
 -1      3856 9.65856E-05-2.77011E-05-2.95210E-05 1.29602E-07-2.29241E-19-8.65618E-19
 -1      3857 6.62103E-05-1.86900E-05-2.00779E-05 1.35665E-05 9.20584E-19-3.78351E-18
 -1      3858 6.57150E-05-1.72653E-05-2.08358E-05 8.54137E-06 5.61867E-19-2.90547E-18
 -1      3859 5.78982E-05-1.65939E-05-1.74660E-05-1.04766E-05-1.49687E-19-1.52466E-18
 -1      3860 9.62924E-05-2.75284E-05-2.94769E-05-6.25347E-08 3.36329E-19-1.39870E-18
 -1      3861 9.62228E-05-2.70321E-05-2.96442E-05 2.74589E-07 3.00335E-19-1.41941E-18
 -1      3862 9.64540E-05-2.76034E-05-2.95073E-05-9.58999E-08 4.14889E-19-1.57252E-18
 -1      3863 7.08296E-05-2.01605E-05-2.17440E-05 1.83643E-05 2.68959E-19-7.78688E-19
 -1      3864 9.53627E-05-2.42375E-05-3.04964E-05-1.33688E-06-1.47513E-19-1.68298E-18
 -1      3865 9.58170E-05-2.53388E-05-3.01869E-05-1.05351E-06-2.59632E-19-1.61956E-18
 -1      3866 7.97646E-05-2.96680E-05-2.12166E-05-2.71487E-05 1.57241E-18 8.02537E-19
 -1      3867 6.53256E-05-1.65710E-05-2.09519E-05-6.64371E-06-1.29309E-18-9.55916E-19
 -1      3868 6.42819E-05-1.78770E-05-1.96764E-05-1.21731E-05-1.88823E-18-1.93450E-18
 -1      3869 6.94405E-05-2.03208E-05-2.10528E-05-1.44095E-05-1.75925E-18-9.66385E-19
 -1      3870 6.58211E-05-1.55214E-05-2.13496E-05 2.25622E-06-2.86906E-19-8.30192E-19
 -1      3871 6.58237E-05-1.56405E-05-2.13975E-05-1.44733E-06-5.21564E-19 3.02811E-19
 -1      3872 9.62759E-05-2.89731E-05-2.88446E-05-8.37937E-07 3.44641E-19-1.21286E-18
 -1      3873 9.63241E-05-2.88661E-05-2.89073E-05-7.92621E-07 3.29441E-19-1.19646E-18
 -1      3874 8.55891E-05-3.11030E-05-2.31915E-05-2.06850E-05-1.03629E-18 4.42872E-19
 -1      3875 9.19242E-05-3.55623E-05-2.42449E-05-2.05532E-05-8.65731E-19 5.02992E-19
 -1      3876 9.52272E-05-2.40973E-05-3.04645E-05 2.09164E-06 1.07067E-18-1.62932E-18
 -1      3877 9.85174E-05-4.16381E-05-2.42897E-05 2.22136E-05-2.60701E-19-2.19914E-18
 -1      3878 7.73543E-05-2.41508E-05-2.26620E-05 2.20817E-05-7.37653E-19-1.08328E-18
 -1      3879 9.52618E-05-2.39205E-05-3.05824E-05-1.06033E-06 5.29007E-20-1.75058E-18
 -1      3880 9.54897E-05-2.86879E-05-2.86276E-05-6.50342E-07-2.15794E-19-7.63526E-19
 -1      3881 9.55404E-05-2.87653E-05-2.86189E-05-6.52089E-07-9.74240E-21-9.83144E-19
 -1      3882 9.54849E-05-2.86461E-05-2.86456E-05-6.02779E-07 4.85668E-20-8.91868E-19
 -1      3883 9.63617E-05-2.87176E-05-2.89923E-05-7.35297E-07 3.21342E-19-1.27412E-18
 -1      3884 9.63920E-05-2.85230E-05-2.90821E-05-6.22856E-07 3.33709E-19-1.21931E-18
 -1      3885 9.65225E-05-2.87978E-05-2.90264E-05-6.59600E-07 3.64721E-19-1.31357E-18
 -1      3886 9.58872E-05-2.90655E-05-2.86365E-05-7.61634E-07-1.39165E-19-5.95164E-19
 -1      3887 9.59426E-05-2.90910E-05-2.86502E-05-7.90763E-07-2.33515E-20-7.95621E-19
 -1      3888 9.28761E-05-3.68074E-05-2.38193E-05 2.18398E-05 4.52527E-19-3.13752E-18
 -1      3889 7.36812E-05-2.62563E-05-2.00033E-05 2.27943E-05 6.30179E-19-2.52047E-18
 -1      3890 6.81957E-05-2.18772E-05-1.98377E-05 1.78115E-05 1.04881E-18-3.25883E-18
 -1      3891 7.28294E-05-2.23663E-05-2.15967E-05 1.63066E-05 8.03745E-19-2.97081E-18
 -1      3892 8.10862E-05-3.05521E-05-2.17473E-05 2.27027E-05 6.59177E-19-3.33665E-18
 -1      3893 7.45124E-05-2.33967E-05-2.17090E-05-1.75688E-05-1.83163E-18-9.66577E-19
 -1      3894 7.90526E-05-2.73559E-05-2.21425E-05-2.01215E-05-1.66642E-18-1.64907E-19
 -1      3895 8.36589E-05-2.76153E-05-2.39599E-05-1.72692E-05-1.29450E-18-3.31473E-19
 -1      3896 7.27003E-05-2.08296E-05-2.23287E-05-1.32616E-05-1.62418E-18-9.36938E-19
 -1      3897 1.01497E-04-3.92662E-05-2.67207E-05 2.32491E-05 3.45990E-19-2.15173E-18
 -1      3898 9.60432E-05-2.61367E-05-2.99665E-05-6.06677E-07-3.18468E-19-1.37975E-18
 -1      3899 9.65501E-05-2.83438E-05-2.92322E-05-4.60285E-07 3.61234E-19-1.53686E-18
 -1      3900 8.02285E-05-2.54984E-05-2.34067E-05 1.71215E-05-1.68569E-19-2.98811E-18
 -1      3901 8.50860E-05-2.91246E-05-2.39433E-05 1.82925E-05-6.01162E-20-3.49854E-18
 -1      3902 9.59964E-05-2.63540E-05-2.98515E-05 6.82567E-07 4.56759E-19-1.38959E-18
 -1      3903 9.58853E-05-2.58892E-05-2.99823E-05 1.07886E-06 6.92177E-19-1.54004E-18
 -1      3904 8.71036E-05-3.23096E-05-2.33901E-05 2.04060E-05 9.87323E-21-3.12548E-18
 -1      3905 9.66794E-05-2.84301E-05-2.92502E-05 4.24184E-07-3.82397E-19-9.91894E-19
 -1      3906 9.91730E-05-3.99608E-05-2.52795E-05-1.91161E-05-2.17664E-20 1.74256E-18
 -1      3907 9.61813E-05-2.62599E-05-2.99665E-05-4.52417E-07-1.65239E-19-1.15845E-18
 -1      3908 9.57529E-05-2.89731E-05-2.86183E-05-7.04767E-07-3.08405E-19-5.25131E-19
 -1      3909 9.58058E-05-2.90198E-05-2.86226E-05-7.32253E-07-1.36813E-19-5.62377E-19
 -1      3910 9.59683E-05-2.90964E-05-2.86609E-05-6.78023E-07-2.34503E-19-4.84270E-19
 -1      3911 9.56481E-05-2.88316E-05-2.86365E-05-6.04174E-07-1.49743E-19-6.45997E-19
 -1      3912 9.56213E-05-2.88455E-05-2.86165E-05-6.63438E-07-1.97303E-19-7.04386E-19
 -1      3913 9.56723E-05-2.89086E-05-2.86136E-05-6.81296E-07-3.02331E-19-5.28750E-19
 -1      3914 9.60235E-05-2.91109E-05-2.86758E-05-8.18156E-07 1.93612E-21-8.33617E-19
 -1      3915 9.60804E-05-2.91070E-05-2.87017E-05-8.38325E-07 1.43924E-19-1.02371E-18
 -1      3916 9.61288E-05-2.91597E-05-2.87028E-05-7.24949E-07-1.08098E-20-5.74539E-19
 -1      3917 9.61395E-05-2.64330E-05-2.98722E-05 5.30005E-07 4.61898E-19-1.42455E-18
 -1      3918 6.85286E-05-1.68609E-05-2.21342E-05-4.30639E-06-8.88073E-19 1.23908E-19
 -1      3919 9.51474E-05-2.35428E-05-3.06944E-05-4.90715E-07 1.66764E-19-2.20183E-18
 -1      3920 9.52063E-05-2.37151E-05-3.06516E-05-8.41061E-07 7.10183E-20-2.09987E-18
 -1      3921 9.57661E-05-2.49104E-05-3.03511E-05-6.90578E-07 2.32326E-20-1.87673E-18
 -1      3922 6.89097E-05-1.74652E-05-2.20809E-05 6.42422E-06-6.86031E-20-2.01782E-18
 -1      3923 9.51650E-05-2.35838E-05-3.06885E-05 8.51292E-07 6.60883E-19-1.78450E-18
 -1      3924 9.50893E-05-2.34124E-05-3.07266E-05 4.80986E-07 6.02487E-19-1.88180E-18
 -1      3925 9.61567E-05-2.90899E-05-2.87425E-05-8.53079E-07 1.31076E-19-1.16467E-18
 -1      3926 9.62123E-05-2.90438E-05-2.87843E-05-8.50024E-07 3.05139E-19-1.15881E-18
 -1      3927 9.62843E-05-2.91534E-05-2.87723E-05-7.55300E-07 3.06508E-20-7.23554E-19
 -1      3928 9.64225E-05-2.90473E-05-2.88770E-05-7.44283E-07 2.56866E-19-1.20946E-18
 -1      3929 9.53483E-05-2.42052E-05-3.04961E-05 1.17370E-06 6.98956E-19-1.64620E-18
 -1      3930 9.57524E-05-2.50113E-05-3.03080E-05 7.80832E-07 5.98815E-19-1.64636E-18
 -1      3931 7.69739E-05-2.23873E-05-2.34783E-05 1.38077E-05-4.27626E-19-3.40949E-18
 -1      3932 9.50372E-05-2.80643E-05-2.87015E-05-6.52628E-07 1.64361E-19-1.08524E-18
 -1      3933 9.51413E-05-2.82089E-05-2.86874E-05-6.00433E-07 4.18163E-19-1.14166E-18
 -1      3934 1.03732E-04-4.43367E-05-2.52783E-05-1.95545E-05-8.29708E-19 1.37916E-18
 -1      3935 9.54407E-05-2.47499E-05-3.02995E-05 1.57877E-06 8.99347E-19-1.62227E-18
 -1      3936 9.54492E-05-2.45456E-05-3.03994E-05 1.43049E-06 8.59315E-19-1.52408E-18
 -1      3937 9.66936E-05-2.91035E-05-2.89654E-05 5.17774E-07-2.27280E-20-1.20710E-18
 -1      3938 9.66240E-05-2.91874E-05-2.89014E-05 5.39696E-07 1.78461E-19-1.09823E-18
 -1      3939 9.65386E-05-2.92348E-05-2.88432E-05 5.36702E-07 1.40670E-19-1.02165E-18
 -1      3940 9.64545E-05-2.92556E-05-2.87988E-05 5.35854E-07 9.38444E-20-1.15284E-18
 -1      3941 9.66744E-05-2.92335E-05-2.89050E-05 4.18237E-07 9.57184E-21-9.50066E-19
 -1      3942 9.63544E-05-2.92485E-05-2.87588E-05 5.22238E-07 8.67691E-20-1.15799E-18
 -1      3943 9.62644E-05-2.92251E-05-2.87301E-05 5.10049E-07-1.37778E-19-9.46753E-19
 -1      3944 9.64899E-05-2.92823E-05-2.88051E-05 4.14121E-07 4.54932E-20-8.83587E-19
 -1      3945 9.61579E-05-2.91798E-05-2.87045E-05 4.93072E-07-1.90676E-19-8.70266E-19
 -1      3946 9.60665E-05-2.91250E-05-2.86880E-05 4.78279E-07-2.09236E-19-5.12188E-19
 -1      3947 9.62849E-05-2.92331E-05-2.87382E-05 3.94765E-07-6.19891E-20-7.13197E-19
 -1      3948 9.59574E-05-2.90518E-05-2.86738E-05 4.63131E-07-5.42939E-19-6.03522E-19
 -1      3949 9.58655E-05-2.89731E-05-2.86669E-05 4.52463E-07-4.28271E-19-5.99203E-19
 -1      3950 9.60712E-05-2.91142E-05-2.86973E-05 3.72381E-07-2.92604E-19-8.14894E-19
 -1      3951 9.57543E-05-2.88783E-05-2.86616E-05 4.43806E-07-2.85459E-19-5.86236E-19
 -1      3952 9.56608E-05-2.87799E-05-2.86621E-05 4.42278E-07-2.28604E-19-4.25250E-19
 -1      3953 9.58529E-05-2.89424E-05-2.86769E-05 3.55812E-07-5.65992E-19-1.25772E-18
 -1      3954 9.55446E-05-2.86653E-05-2.86635E-05 4.43060E-07-4.19109E-19-2.75838E-19
 -1      3955 9.54461E-05-2.85479E-05-2.86696E-05 4.55102E-07-5.28648E-19-2.86288E-19
 -1      3956 9.56279E-05-2.87271E-05-2.86722E-05 3.52743E-07-1.91226E-19-6.98682E-19
 -1      3957 9.53202E-05-2.84131E-05-2.86759E-05 4.68469E-07-4.85171E-19-5.12062E-20
 -1      3958 9.52118E-05-2.82754E-05-2.86861E-05 4.97950E-07-4.34254E-19-1.41386E-19
 -1      3959 9.53884E-05-2.84697E-05-2.86792E-05 3.68705E-07-3.92760E-19-2.37403E-19
 -1      3960 9.50697E-05-2.81178E-05-2.86957E-05 5.26740E-07-2.68605E-19 3.37846E-19
 -1      3961 9.49451E-05-2.79569E-05-2.87085E-05 5.77311E-07 1.36541E-19 6.90088E-19
 -1      3962 9.51234E-05-2.81674E-05-2.86945E-05 4.09488E-07-1.54397E-19 3.87329E-19
 -1      3963 9.47786E-05-2.77729E-05-2.87195E-05 6.24347E-07-4.03157E-20 6.74159E-19
 -1      3964 9.46304E-05-2.75849E-05-2.87333E-05 6.99664E-07 1.18066E-20 3.69779E-19
 -1      3965 9.48183E-05-2.78139E-05-2.87143E-05 4.80171E-07-8.32226E-20 5.12311E-19
 -1      3966 9.44299E-05-2.73698E-05-2.87436E-05 7.67971E-07 2.11226E-19 1.65585E-19
 -1      3967 9.42494E-05-2.71508E-05-2.87563E-05 8.71798E-07 3.02161E-19 4.49039E-19
 -1      3968 9.44555E-05-2.74010E-05-2.87348E-05 5.85959E-07 7.71214E-20-3.30497E-19
 -1      3969 9.40040E-05-2.69002E-05-2.87633E-05 9.64664E-07 1.39802E-19 6.71443E-19
 -1      3970 9.37818E-05-2.66468E-05-2.87722E-05 1.10091E-06 2.21045E-19 4.16256E-19
 -1      3971 9.40147E-05-2.69194E-05-2.87510E-05 7.32329E-07 3.74745E-19-4.59796E-20
 -1      3972 9.34796E-05-2.63574E-05-2.87723E-05 1.22197E-06-4.97363E-20 5.32953E-19
 -1      3973 9.32058E-05-2.60679E-05-2.87737E-05 1.39474E-06-1.54599E-20 6.78885E-20
 -1      3974 9.34731E-05-2.63615E-05-2.87566E-05 9.25148E-07 1.01438E-19-8.44682E-20
 -1      3975 9.28339E-05-2.57385E-05-2.87622E-05 1.54812E-06 4.68415E-20-2.77659E-19
 -1      3976 9.24985E-05-2.54143E-05-2.87511E-05 1.76190E-06-2.51243E-19-2.89025E-19
 -1      3977 9.28063E-05-2.57223E-05-2.87431E-05 1.17088E-06-3.62348E-19 1.25659E-19
 -1      3978 9.20436E-05-2.50472E-05-2.87214E-05 1.95263E-06-5.12374E-19-3.50503E-19
 -1      3979 9.16375E-05-2.46943E-05-2.86910E-05 2.21280E-06-8.56586E-19-2.75746E-21
 -1      3980 9.19884E-05-2.50025E-05-2.86991E-05 1.47707E-06-5.58926E-19-8.31551E-19
 -1      3981 9.10857E-05-2.42969E-05-2.86346E-05 2.44767E-06-6.27509E-19 5.80242E-20
 -1      3982 9.06018E-05-2.39281E-05-2.85757E-05 2.76178E-06-1.28489E-19-1.40503E-19
 -1      3983 9.09925E-05-2.42108E-05-2.86092E-05 1.85357E-06-5.35748E-19 2.00537E-19
 -1      3984 8.99387E-05-2.35147E-05-2.84810E-05 3.05123E-06-6.64721E-19-8.08400E-19
 -1      3985 8.93737E-05-2.31520E-05-2.83818E-05 3.43163E-06-5.11116E-19-8.67141E-19
 -1      3986 8.97905E-05-2.33665E-05-2.84530E-05 2.31513E-06-7.85274E-19-3.93913E-19
 -1      3987 8.85831E-05-2.27452E-05-2.82336E-05 3.79350E-06-7.33441E-20-1.18175E-18
 -1      3988 8.79403E-05-2.24230E-05-2.80787E-05 4.26207E-06-6.59863E-20-9.77983E-19
 -1      3989 8.83522E-05-2.25021E-05-2.82034E-05 2.88672E-06-4.70517E-19-1.80744E-18
 -1      3990 8.70026E-05-2.20568E-05-2.78570E-05 4.72884E-06 5.95320E-20-1.08819E-18
 -1      3991 8.62956E-05-2.18260E-05-2.76272E-05 5.32476E-06 7.01478E-19-1.24025E-18
 -1      3992 8.66415E-05-2.16643E-05-2.78245E-05 3.61420E-06-1.15366E-19-1.53704E-18
 -1      3993 8.51894E-05-2.15489E-05-2.73057E-05 5.94914E-06 8.83648E-19-2.02548E-18
 -1      3994 8.44465E-05-2.14791E-05-2.69776E-05 6.73771E-06 7.64179E-19-2.28350E-18
 -1      3995 8.46209E-05-2.09224E-05-2.72684E-05 4.58617E-06 3.18804E-19-2.30346E-18
 -1      3996 8.31313E-05-2.13567E-05-2.65204E-05 7.62799E-06-1.06245E-19-2.99177E-18
 -1      3997 8.24216E-05-2.15615E-05-2.60655E-05 8.72424E-06-1.55337E-18-4.06151E-18
 -1      3998 8.22130E-05-2.03354E-05-2.64692E-05 5.95724E-06-3.52964E-19-4.19402E-18
 -1      3999 8.08012E-05-2.16643E-05-2.54204E-05 1.00249E-05-1.67917E-18-3.67251E-18
 -1      4000 8.03242E-05-2.23459E-05-2.48297E-05 1.16650E-05-1.30322E-18-3.44654E-18
 -1      4001 7.93558E-05-2.00310E-05-2.53344E-05 7.98279E-06-1.40106E-18-5.04792E-18
 -1      4002 9.47662E-05-2.77279E-05-2.87297E-05-7.85305E-07 2.71307E-19-1.37537E-18
 -1      4003 9.48892E-05-2.78965E-05-2.87138E-05-7.05304E-07 2.60860E-19-1.17024E-18
 -1      4004 9.49187E-05-2.79271E-05-2.87092E-05-5.77556E-07 3.14315E-19-1.10289E-18
 -1      4005 9.67911E-05-2.88047E-05-2.91349E-05 4.41411E-07-3.44050E-19-1.05310E-18
 -1      4006 9.67503E-05-2.89782E-05-2.90462E-05 5.00698E-07-2.31455E-19-1.09524E-18
 -1      4007 9.68165E-05-2.90456E-05-2.90460E-05 3.91314E-07-1.06598E-19-8.55961E-19
 -1      4008 9.52687E-05-2.83526E-05-2.86771E-05-5.69361E-07 3.32331E-19-1.35979E-18
 -1      4009 9.53603E-05-2.84764E-05-2.86660E-05-5.40753E-07 2.65106E-19-1.27453E-18
 -1      4010 9.51912E-05-2.82522E-05-2.86874E-05-4.97341E-07 2.83075E-19-8.97577E-19
 -1      4011 9.40400E-05-2.68807E-05-2.87818E-05-1.23162E-06-3.31880E-19-4.51413E-19
 -1      4012 9.42232E-05-2.71076E-05-2.87682E-05-1.08273E-06 1.95790E-19-8.79218E-19
 -1      4013 9.35484E-05-2.63584E-05-2.87950E-05-1.56302E-06-3.74187E-19-3.87718E-19
 -1      4014 9.37738E-05-2.66173E-05-2.87869E-05-1.37264E-06-1.64137E-19-1.16727E-19
 -1      4015 9.37293E-05-2.65929E-05-2.87680E-05-1.10515E-06-3.70800E-19-1.71712E-19
 -1      4016 9.29459E-05-2.57698E-05-2.87892E-05-1.97965E-06-3.27142E-19-7.96509E-19
 -1      4017 9.32213E-05-2.60588E-05-2.87907E-05-1.74276E-06-3.61678E-19-4.81375E-19
 -1      4018 9.31420E-05-2.60061E-05-2.87663E-05-1.40205E-06-3.44444E-19-3.59050E-19
 -1      4019 9.22150E-05-2.51238E-05-2.87529E-05-2.49306E-06-5.97655E-19-4.13302E-19
 -1      4020 9.25467E-05-2.54365E-05-2.87698E-05-2.20401E-06-8.41325E-19-8.66349E-19
 -1      4021 9.24227E-05-2.53462E-05-2.87391E-05-1.77448E-06-4.46201E-19-6.99877E-19
 -1      4022 9.13418E-05-2.44424E-05-2.86705E-05-3.11794E-06-1.09511E-18 2.69616E-19
 -1      4023 9.17330E-05-2.47650E-05-2.87107E-05-2.76959E-06-4.34255E-19 9.63140E-20
 -1      4024 9.15497E-05-2.46229E-05-2.86729E-05-2.23439E-06-1.03490E-18 1.01689E-19
 -1      4025 9.03196E-05-2.37655E-05-2.85218E-05-3.87587E-06-7.11316E-19-3.90485E-19
 -1      4026 9.07676E-05-2.40738E-05-2.85955E-05-3.45755E-06-7.45549E-19-2.00806E-19
 -1      4027 9.05029E-05-2.38584E-05-2.85496E-05-2.79859E-06-5.69928E-19 7.64384E-19
 -1      4028 8.91536E-05-2.31577E-05-2.82807E-05-4.80229E-06-6.27829E-19-1.00224E-18
 -1      4029 8.96458E-05-2.34134E-05-2.84008E-05-4.29604E-06-7.80760E-19-8.72370E-19
 -1      4030 8.92652E-05-2.30906E-05-2.83455E-05-3.49362E-06-7.57598E-19-1.08328E-18
 -1      4031 8.78687E-05-2.27183E-05-2.79145E-05-5.95940E-06-1.16216E-18-1.18710E-18
 -1      4032 8.83750E-05-2.28620E-05-2.80967E-05-5.33354E-06-9.25217E-19-6.93933E-19
 -1      4033 8.78233E-05-2.23782E-05-2.80298E-05-4.36531E-06-8.93444E-19-1.31936E-18
 -1      4034 8.65246E-05-2.25969E-05-2.73833E-05-7.45563E-06-4.01843E-19-1.62359E-18
 -1      4035 8.69853E-05-2.25385E-05-2.76457E-05-6.65629E-06-8.42464E-19-1.43105E-18
 -1      4036 8.61685E-05-2.18062E-05-2.75621E-05-5.49750E-06-6.78870E-19-7.94697E-19
 -1      4037 8.52440E-05-2.30105E-05-2.66421E-05-9.45327E-06-6.59906E-19-1.04445E-18
 -1      4038 8.55515E-05-2.26243E-05-2.70023E-05-8.40352E-06-6.96457E-19-1.78363E-18
 -1      4039 8.43141E-05-2.15073E-05-2.68905E-05-7.03816E-06-4.56673E-19-1.32881E-18
 -1      4040 8.43833E-05-2.43538E-05-2.56705E-05-1.21743E-05-1.31567E-18-1.59920E-18
 -1      4041 8.42146E-05-2.33893E-05-2.61148E-05-1.08269E-05-6.09063E-19-1.54113E-18
 -1      4042 8.22816E-05-2.16401E-05-2.59465E-05-9.22900E-06-9.52991E-19-1.85815E-18
 -1      4043 8.28111E-05-2.54485E-05-2.45785E-05-1.50817E-05-1.91248E-18-8.92202E-19
 -1      4044 9.66211E-05-2.74142E-05-2.96598E-05-1.33041E-08-2.46878E-19-1.27962E-18
 -1      4045 9.67126E-05-2.78797E-05-2.95037E-05 1.84019E-07-2.78462E-19-1.28162E-18
 -1      4046 9.65967E-05-2.77664E-05-2.95041E-05-1.71969E-07 3.79833E-19-1.58270E-18
 -1      4047 9.65126E-05-2.72864E-05-2.96630E-05 6.79752E-08 3.43790E-19-1.50444E-18
 -1      4048 9.44396E-05-2.73357E-05-2.87579E-05-9.75446E-07 2.62869E-19-9.96656E-19
 -1      4049 9.45888E-05-2.75320E-05-2.87421E-05-8.63274E-07 2.53492E-19-1.32297E-18
 -1      4050 9.45967E-05-2.75476E-05-2.87330E-05-7.00839E-07 3.98356E-19-1.29624E-18
 -1      4051 7.43372E-05-1.97029E-05-2.32866E-05 1.08955E-05-3.31334E-19-4.18043E-18
 -1      4052 9.65422E-05-2.91305E-05-2.88909E-05-6.43176E-07-1.29565E-19-9.84883E-19
 -1      4053 9.66052E-05-2.90382E-05-2.89551E-05-6.15215E-07 1.05512E-19-1.22786E-18
 -1      4054 9.54743E-05-2.85995E-05-2.86593E-05-5.27818E-07 4.93109E-19-1.60379E-18
 -1      4055 9.55586E-05-2.87049E-05-2.86525E-05-5.18586E-07 2.91795E-19-1.12169E-18
 -1      4056 9.54301E-05-2.85305E-05-2.86712E-05-4.53583E-07 2.23830E-19-1.24877E-18
 -1      4057 7.28418E-05-1.79738E-05-2.35853E-05 5.35485E-06-6.83625E-19-2.06652E-18
 -1      4058 9.50625E-05-2.33401E-05-3.07478E-05 1.99204E-07 5.53812E-19-2.04491E-18
 -1      4059 9.50637E-05-2.33420E-05-3.07487E-05-1.82267E-07 3.18600E-19-2.17580E-18
 -1      4060 9.56035E-05-2.43822E-05-3.05072E-05 2.58362E-07 4.48549E-19-1.90041E-18
 -1      4061 9.61062E-05-2.58127E-05-3.01308E-05-5.09719E-07-2.97275E-20-1.68439E-18
 -1      4062 9.64493E-05-2.68378E-05-2.98343E-05-1.36413E-07-1.49594E-19-1.43688E-18
 -1      4063 9.65666E-05-2.70044E-05-2.98098E-05-7.35085E-08-1.52648E-19-1.70462E-18
 -1      4064 9.60640E-05-2.55995E-05-3.02001E-05-3.70053E-07 9.69257E-20-2.04949E-18
 -1      4065 9.66553E-05-2.89043E-05-2.90375E-05-5.87423E-07 2.14956E-19-1.43306E-18
 -1      4066 9.66923E-05-2.87226E-05-2.91269E-05-5.13623E-07 2.88260E-19-1.64655E-18
 -1      4067 9.67501E-05-2.89774E-05-2.90469E-05-4.87982E-07 5.70306E-20-1.17456E-18
 -1      4068 9.67872E-05-2.82700E-05-2.93622E-05 2.77277E-07-4.50453E-19-1.19519E-18
 -1      4069 9.67971E-05-2.85686E-05-2.92432E-05 3.92597E-07-4.67915E-19-1.19021E-18
 -1      4070 9.68805E-05-2.86604E-05-2.92374E-05 3.14014E-07-3.13704E-19-1.08659E-18
 -1      4071 7.11623E-05-1.71253E-05-2.32845E-05-3.08701E-06-6.86583E-19 9.04241E-19
 -1      4072 7.17109E-05-1.77766E-05-2.29034E-05-7.67634E-06-1.26520E-18-6.45323E-19
 -1      4073 9.66909E-05-2.84762E-05-2.92379E-05-4.43592E-07 5.24287E-19-1.73966E-18
 -1      4074 9.66821E-05-2.81688E-05-2.93588E-05-3.00650E-07 4.97226E-19-1.54498E-18
 -1      4075 9.67207E-05-2.78795E-05-2.95034E-05-1.70323E-07 4.31990E-19-1.50009E-18
 -1      4076 9.68002E-05-2.85673E-05-2.92433E-05-3.78511E-07 2.92846E-19-1.64861E-18
 -1      4077 7.60832E-05-1.86998E-05-2.46586E-05 5.50598E-06-8.82948E-19-2.68479E-18
 -1      4078 7.26622E-05-1.69115E-05-2.37256E-05 1.22166E-06-4.46921E-19 6.28937E-19
 -1      4079 7.44846E-05-1.77906E-05-2.43497E-05-1.99426E-06-9.67113E-19 8.40912E-19
 -1      4080 7.78827E-05-1.88959E-05-2.53565E-05 4.43855E-06-1.12987E-18-3.05064E-18
 -1      4081 7.52777E-05-2.05904E-05-2.34404E-05-1.10139E-05-1.71029E-18-4.12260E-19
 -1      4082 7.95188E-05-2.27474E-05-2.42696E-05-1.31747E-05-1.98864E-18-1.04377E-18
 -1      4083 9.42070E-05-2.71053E-05-2.87544E-05-8.74186E-07 2.11944E-21-1.05957E-18
 -1      4084 9.58080E-05-2.89833E-05-2.86404E-05-6.33103E-07-1.19879E-19-3.70127E-19
 -1      4085 9.64442E-05-2.68242E-05-2.98371E-05 1.71767E-07 3.87589E-19-1.63157E-18
 -1      4086 9.63004E-05-2.66765E-05-2.98484E-05 2.65213E-07 3.77143E-19-1.64801E-18
 -1      4087 9.56651E-05-2.88094E-05-2.86510E-05-5.20163E-07 1.12923E-19-8.58775E-19
 -1      4088 9.57464E-05-2.88975E-05-2.86500E-05-5.25851E-07 7.96895E-20-5.64019E-19
 -1      4089 9.56482E-05-2.87670E-05-2.86639E-05-4.39723E-07 6.03766E-19-1.52763E-18
 -1      4090 9.62131E-05-2.92010E-05-2.87184E-05-6.13086E-07-3.12964E-19-7.20151E-19
 -1      4091 9.62940E-05-2.92158E-05-2.87468E-05-6.28226E-07-8.21516E-20-8.64483E-19
 -1      4092 9.68167E-05-2.80054E-05-2.94896E-05 1.62399E-07-3.09181E-19-1.47871E-18
 -1      4093 9.56491E-05-2.44986E-05-3.04774E-05-2.51571E-07 1.09962E-19-1.98104E-18
 -1      4094 9.63874E-05-2.92152E-05-2.87875E-05-6.43015E-07 5.25780E-20-1.05570E-18
 -1      4095 9.64634E-05-2.91860E-05-2.88316E-05-6.43518E-07-8.30592E-20-1.04586E-18
 -1      4096 9.64500E-05-2.92536E-05-2.88003E-05-5.27242E-07-1.45432E-19-1.60590E-18
 -1      4097 9.60645E-05-2.59163E-05-3.00658E-05 6.78066E-07 5.33434E-19-1.57224E-18
 -1      4098 9.59339E-05-2.53284E-05-3.02607E-05 4.84399E-07 4.61463E-19-1.73880E-18
 -1      4099 9.63201E-05-2.62002E-05-3.00395E-05 2.89973E-07 3.12139E-19-1.64194E-18
 -1      4100 9.59959E-05-2.54098E-05-3.02584E-05 3.08956E-07 3.69852E-19-1.61327E-18
 -1      4101 9.59896E-05-2.53528E-05-3.02810E-05 1.12510E-07 2.22681E-19-1.76495E-18
 -1      4102 9.66214E-05-2.91862E-05-2.89026E-05-5.29192E-07-4.80516E-20-1.16377E-18
 -1      4103 9.60320E-05-2.91173E-05-2.86764E-05-5.73238E-07-1.69872E-19-7.76604E-19
 -1      4104 9.61135E-05-2.91634E-05-2.86924E-05-5.92524E-07-1.95325E-19-4.88075E-19
 -1      4105 9.62583E-05-2.92215E-05-2.87318E-05-5.03136E-07-3.10378E-19-1.04068E-18
 -1      4106 9.69148E-05-2.89918E-05-2.91088E-05 2.52712E-07-8.01118E-20-7.60039E-19
 -1      4107 9.68610E-05-2.91320E-05-2.90259E-05 2.87776E-07 6.98608E-20-7.19430E-19
 -1      4108 9.67857E-05-2.92273E-05-2.89525E-05 2.82374E-07 2.31778E-20-6.12064E-19
 -1      4109 9.67021E-05-2.92833E-05-2.88926E-05 2.96919E-07 2.72146E-20-7.47590E-19
 -1      4110 9.68661E-05-2.91848E-05-2.90101E-05 1.54688E-07-1.61247E-20-6.75475E-19
 -1      4111 9.66026E-05-2.93068E-05-2.88401E-05 2.86480E-07-1.35769E-19-8.63823E-19
 -1      4112 9.65037E-05-2.93038E-05-2.87985E-05 2.88735E-07-1.12652E-19-9.85610E-19
 -1      4113 9.66935E-05-2.93086E-05-2.88833E-05 1.60101E-07-2.99953E-20-8.14948E-19
 -1      4114 9.63922E-05-2.92770E-05-2.87629E-05 2.76463E-07 2.45596E-20-9.65411E-19
 -1      4115 9.62864E-05-2.92323E-05-2.87361E-05 2.72850E-07-6.24036E-20-8.41618E-19
 -1      4116 9.64851E-05-2.93070E-05-2.87943E-05 1.56732E-07-7.04261E-20-1.42207E-18
 -1      4117 9.61694E-05-2.91697E-05-2.87137E-05 2.61214E-07-3.81468E-19-9.58709E-19
 -1      4118 9.60596E-05-2.90942E-05-2.86985E-05 2.56037E-07-5.35506E-19-1.17289E-18
 -1      4119 9.62602E-05-2.92158E-05-2.87357E-05 1.50482E-07-2.88012E-19-1.31984E-18
 -1      4120 9.59402E-05-2.90039E-05-2.86868E-05 2.50187E-07-5.46714E-19-7.28617E-19
 -1      4121 9.58298E-05-2.89058E-05-2.86806E-05 2.48662E-07-1.14544E-19-5.89088E-19
 -1      4122 9.60217E-05-2.90577E-05-2.87004E-05 1.44039E-07-2.79081E-19-5.22930E-19
 -1      4123 9.57048E-05-2.87929E-05-2.86769E-05 2.43799E-07 3.85152E-20-8.01727E-19
 -1      4124 9.55890E-05-2.86727E-05-2.86776E-05 2.49122E-07-2.42036E-19-5.91034E-19
 -1      4125 9.57842E-05-2.88547E-05-2.86850E-05 1.38651E-07-2.22876E-20-5.04870E-19
 -1      4126 9.54558E-05-2.85381E-05-2.86798E-05 2.50651E-07-1.74184E-19-1.23022E-19
 -1      4127 9.53303E-05-2.83961E-05-2.86855E-05 2.65091E-07-3.74645E-20 6.11268E-20
 -1      4128 9.55289E-05-2.86017E-05-2.86832E-05 1.42399E-07 7.78046E-20-1.87663E-19
 -1      4129 9.51827E-05-2.82384E-05-2.86918E-05 2.73606E-07 7.57445E-20 4.64316E-19
 -1      4130 9.50411E-05-2.80723E-05-2.87007E-05 2.99443E-07 1.61671E-19 5.93184E-19
 -1      4131 9.52525E-05-2.83028E-05-2.86914E-05 1.54808E-07 3.64900E-19-1.84928E-19
 -1      4132 9.48710E-05-2.78879E-05-2.87092E-05 3.16216E-07-3.25004E-19 5.18690E-19
 -1      4133 9.47053E-05-2.76938E-05-2.87194E-05 3.55639E-07-1.74068E-19 2.05887E-19
 -1      4134 9.49402E-05-2.79528E-05-2.87058E-05 1.77933E-07-6.86385E-20-3.31673E-20
 -1      4135 9.45029E-05-2.74782E-05-2.87278E-05 3.82118E-07-3.78065E-19 3.42440E-19
 -1      4136 9.43034E-05-2.72514E-05-2.87372E-05 4.37289E-07-5.36177E-20-4.11783E-20
 -1      4137 9.45742E-05-2.75437E-05-2.87223E-05 2.13919E-07-3.14190E-19-2.62887E-19
 -1      4138 9.40576E-05-2.69999E-05-2.87430E-05 4.75092E-07 2.24127E-19-4.99780E-19
 -1      4139 9.38134E-05-2.67360E-05-2.87486E-05 5.48168E-07 3.43035E-19-8.14477E-19
 -1      4140 9.41338E-05-2.70657E-05-2.87360E-05 2.64900E-07-2.90542E-19-7.51881E-19
 -1      4141 9.35116E-05-2.64439E-05-2.87484E-05 5.99148E-07 3.54487E-19-1.13013E-18
 -1      4142 9.32107E-05-2.61393E-05-2.87467E-05 6.92317E-07-8.52748E-20-1.08397E-18
 -1      4143 9.35956E-05-2.65095E-05-2.87408E-05 3.33095E-07 5.39659E-20-1.54558E-18
 -1      4144 9.28392E-05-2.58039E-05-2.87360E-05 7.58639E-07-1.87686E-19-5.54080E-19
 -1      4145 9.24687E-05-2.54571E-05-2.87219E-05 8.74224E-07-2.22981E-19-5.17588E-19
 -1      4146 9.29335E-05-2.58673E-05-2.87288E-05 4.20896E-07 1.35151E-19-1.31702E-18
 -1      4147 9.20125E-05-2.50777E-05-2.86946E-05 9.58524E-07-7.91251E-19-3.91537E-19
 -1      4148 9.15589E-05-2.46905E-05-2.86616E-05 1.09928E-06-7.64728E-19-3.50744E-19
 -1      4149 9.21190E-05-2.51352E-05-2.86892E-05 5.31022E-07-4.80727E-19-2.64826E-19
 -1      4150 9.10016E-05-2.42702E-05-2.86095E-05 1.20502E-06-4.55929E-19-3.94376E-19
 -1      4151 9.04507E-05-2.38487E-05-2.85486E-05 1.37487E-06-3.54864E-19-3.25371E-19
 -1      4152 9.11212E-05-2.43146E-05-2.86079E-05 6.66897E-07-9.16777E-19-3.13528E-19
 -1      4153 8.97736E-05-2.33950E-05-2.84612E-05 1.50701E-06-7.28840E-19-8.40427E-19
 -1      4154 8.91105E-05-2.29506E-05-2.83605E-05 1.71259E-06-1.29670E-18-1.23305E-18
 -1      4155 8.99057E-05-2.34147E-05-2.84657E-05 8.33446E-07-9.92022E-19-1.25926E-18
 -1      4156 8.82901E-05-2.24759E-05-2.82233E-05 1.87897E-06-1.24292E-18-1.00234E-18
 -1      4157 8.74974E-05-2.20259E-05-2.80673E-05 2.13279E-06-5.72311E-19-1.36889E-18
 -1      4158 8.84320E-05-2.24522E-05-2.82375E-05 1.03859E-06-1.01405E-18-2.01103E-18
 -1      4159 8.65006E-05-2.15461E-05-2.78610E-05 2.34647E-06-9.80203E-20-1.85984E-18
 -1      4160 8.55550E-05-2.11133E-05-2.76285E-05 2.67385E-06 1.28517E-19-2.16668E-18
 -1      4161 8.66466E-05-2.14502E-05-2.78894E-05 1.29554E-06-5.78540E-19-1.52809E-18
 -1      4162 8.43232E-05-2.06399E-05-2.73263E-05 2.95686E-06-3.50139E-19-2.44805E-18
 -1      4163 8.31730E-05-2.02519E-05-2.69883E-05 3.41832E-06-1.51897E-19-2.88396E-18
 -1      4164 8.44679E-05-2.04329E-05-2.73752E-05 1.62389E-06-7.44919E-19-1.74244E-18
 -1      4165 8.15231E-05-1.97390E-05-2.65233E-05 3.58743E-06-5.25652E-19-3.25805E-18
 -1      4166 8.01010E-05-1.94269E-05-2.60367E-05 4.25952E-06-1.14924E-18-3.96116E-18
 -1      4167 7.79669E-05-1.82637E-05-2.54683E-05 1.79696E-06-9.43601E-19-1.23957E-18
 -1      4168 8.16701E-05-1.93781E-05-2.66074E-05 1.83257E-06-1.06437E-18-1.33944E-18
 -1      4169 7.72927E-05-1.99452E-05-2.46722E-05-8.56380E-06-1.38487E-18 4.70500E-20
 -1      4170 9.19673E-05-2.50050E-05-2.87007E-05-1.46499E-06-7.62395E-19-3.09124E-19
 -1      4171 9.23682E-05-2.53632E-05-2.87242E-05-1.28390E-06-8.96740E-20-3.99780E-19
 -1      4172 9.51168E-05-2.81602E-05-2.86952E-05-3.99855E-07 2.39463E-19-7.05658E-19
 -1      4173 9.52448E-05-2.83144E-05-2.86858E-05-3.70308E-07 1.76507E-19-1.06110E-18
 -1      4174 9.27872E-05-2.57203E-05-2.87449E-05-1.15912E-06-2.93482E-19-2.42438E-19
 -1      4175 9.31158E-05-2.60415E-05-2.87522E-05-1.01196E-06-7.29150E-19-5.14772E-19
 -1      4176 9.24047E-05-2.53757E-05-2.87115E-05-8.61005E-07-3.55539E-19-4.34574E-19
 -1      4177 9.34568E-05-2.63570E-05-2.87584E-05-9.14212E-07-3.61342E-19-7.29526E-20
 -1      4178 9.37243E-05-2.66392E-05-2.87555E-05-7.96997E-07-1.45892E-19-1.70348E-19
 -1      4179 9.31577E-05-2.60698E-05-2.87405E-05-6.78969E-07-2.34372E-19-2.15182E-19
 -1      4180 9.09715E-05-2.42212E-05-2.86106E-05-1.84238E-06-1.40101E-18 1.62829E-20
 -1      4181 9.14555E-05-2.46095E-05-2.86581E-05-1.62207E-06-1.14636E-18-2.71190E-19
 -1      4182 9.14828E-05-2.45974E-05-2.86455E-05-1.08885E-06-9.16321E-19-8.95214E-20
 -1      4183 8.97740E-05-2.33900E-05-2.84542E-05-2.30689E-06-5.88755E-19 7.58532E-19
 -1      4184 9.03506E-05-2.37954E-05-2.85363E-05-2.03923E-06-1.07547E-18 4.51359E-19
 -1      4185 9.03618E-05-2.37445E-05-2.85249E-05-1.37186E-06-1.46207E-18-4.82891E-20
 -1      4186 8.83481E-05-2.25471E-05-2.82048E-05-2.88405E-06-4.50178E-19-1.98760E-19
 -1      4187 8.90255E-05-2.29484E-05-2.83352E-05-2.55500E-06-9.12402E-20 6.34013E-19
 -1      4188 8.90083E-05-2.28362E-05-2.83268E-05-1.72448E-06-5.67313E-19 1.21433E-18
 -1      4189 8.66628E-05-2.17430E-05-2.78274E-05-3.61842E-06-9.18190E-19-1.63639E-19
 -1      4190 8.74481E-05-2.21103E-05-2.80239E-05-3.20213E-06-7.77558E-19 1.38230E-20
 -1      4191 8.73819E-05-2.19019E-05-2.80204E-05-2.17051E-06-6.26039E-19 5.20685E-19
 -1      4192 8.46776E-05-2.10436E-05-2.72752E-05-4.59116E-06-2.82555E-19-8.87932E-19
 -1      4193 8.55746E-05-2.13356E-05-2.75615E-05-4.03809E-06-5.89473E-19-5.44542E-19
 -1      4194 8.54269E-05-2.09784E-05-2.75651E-05-2.74955E-06-5.10231E-19 9.87017E-20
 -1      4195 8.23139E-05-2.05461E-05-2.64811E-05-5.97270E-06-7.87981E-19-7.03221E-19
 -1      4196 8.33347E-05-2.06943E-05-2.68911E-05-5.17927E-06-3.62228E-19-5.39248E-19
 -1      4197 8.30389E-05-2.00948E-05-2.69042E-05-3.53202E-06-5.12974E-19 4.01667E-19
 -1      4198 7.95039E-05-2.02884E-05-2.53944E-05-7.73650E-06-1.33550E-18-1.82440E-19
 -1      4199 8.06738E-05-2.02332E-05-2.59676E-05-6.54853E-06-8.02337E-19-4.14839E-20
 -1      4200 8.01655E-05-1.92674E-05-2.59955E-05-4.41718E-06-8.80305E-19 1.32591E-18
 -1      4201 7.65065E-05-1.83992E-05-2.47509E-05-5.41632E-06-1.21029E-18 1.27426E-18
 -1      4202 9.40013E-05-2.69135E-05-2.87527E-05-7.22225E-07-3.34842E-19-1.35895E-21
 -1      4203 9.42189E-05-2.71581E-05-2.87440E-05-6.31542E-07 1.70987E-19-3.26992E-19
 -1      4204 9.37701E-05-2.66780E-05-2.87453E-05-5.36052E-07-1.66377E-19 4.82091E-19
 -1      4205 9.68203E-05-2.90708E-05-2.90357E-05-3.93621E-07 4.83167E-20-1.36279E-18
 -1      4206 9.68730E-05-2.89177E-05-2.91209E-05-3.46041E-07 1.70554E-19-1.38681E-18
 -1      4207 9.65250E-05-2.68936E-05-2.98489E-05 7.81125E-08 2.32708E-19-1.51422E-18
 -1      4208 9.68331E-05-2.77849E-05-2.95923E-05 5.81074E-08-1.73552E-19-1.54253E-18
 -1      4209 9.69078E-05-2.82011E-05-2.94474E-05 1.57537E-07-1.61418E-19-1.42297E-18
 -1      4210 9.44449E-05-2.73943E-05-2.87363E-05-5.76419E-07 2.47658E-19-5.61180E-19
 -1      4211 9.46232E-05-2.76045E-05-2.87250E-05-5.09107E-07 4.60041E-19-4.30878E-19
 -1      4212 9.42686E-05-2.72043E-05-2.87359E-05-4.26944E-07 5.35651E-22 3.51076E-19
 -1      4213 9.64894E-05-2.92876E-05-2.87998E-05-4.04581E-07-5.13747E-19-1.39612E-18
 -1      4214 9.65839E-05-2.92808E-05-2.88425E-05-4.03107E-07-3.14088E-19-1.57677E-18
 -1      4215 9.59957E-05-2.53335E-05-3.02885E-05-3.41269E-08 1.65828E-19-1.75996E-18
 -1      4216 9.60548E-05-2.55196E-05-3.02388E-05-2.50833E-07 4.67861E-20-1.95505E-18
 -1      4217 9.63900E-05-2.62999E-05-3.00289E-05-1.06534E-07 1.29221E-19-1.96407E-18
 -1      4218 9.63983E-05-2.62377E-05-3.00543E-05 7.39171E-08 3.98709E-20-1.66862E-18
 -1      4219 9.58494E-05-2.89834E-05-2.86555E-05-5.38678E-07-1.54717E-19-6.74282E-19
 -1      4220 9.59301E-05-2.90523E-05-2.86619E-05-5.54144E-07-1.30190E-19-6.07793E-19
 -1      4221 9.60584E-05-2.91188E-05-2.86899E-05-4.73143E-07-1.76648E-20-1.10102E-18
 -1      4222 9.53832E-05-2.84627E-05-2.86795E-05-3.58439E-07 4.89993E-20-9.70705E-19
 -1      4223 9.54977E-05-2.85944E-05-2.86736E-05-3.43391E-07 2.33136E-19-1.09384E-18
 -1      4224 9.53124E-05-2.83748E-05-2.86871E-05-2.59260E-07 2.13094E-19-1.01560E-18
 -1      4225 9.66757E-05-2.92472E-05-2.88975E-05-4.12788E-07 6.70001E-20-1.74643E-18
 -1      4226 9.67561E-05-2.91797E-05-2.89592E-05-3.94490E-07 1.41260E-19-1.61129E-18
 -1      4227 9.68544E-05-2.91326E-05-2.90277E-05-2.74624E-07 2.48413E-19-1.76024E-18
 -1      4228 9.66939E-05-2.92835E-05-2.88946E-05-2.86870E-07-1.50225E-19-1.67502E-18
 -1      4229 9.48099E-05-2.78069E-05-2.87155E-05-4.70796E-07 4.89730E-19-8.33456E-19
 -1      4230 9.49588E-05-2.79870E-05-2.87041E-05-4.23835E-07 3.58594E-19-7.88301E-19
 -1      4231 9.50189E-05-2.80435E-05-2.87017E-05-2.92479E-07 2.44284E-19-1.27131E-18
 -1      4232 9.46774E-05-2.76564E-05-2.87195E-05-3.47109E-07 3.43285E-19-4.82094E-19
 -1      4233 9.69500E-05-2.85387E-05-2.93182E-05 1.85947E-07-7.40192E-21-1.28708E-18
 -1      4234 9.69477E-05-2.87981E-05-2.92075E-05 2.47504E-07 1.36576E-20-1.09130E-18
 -1      4235 9.69583E-05-2.83318E-05-2.94105E-05 9.21281E-08 8.74031E-20-1.55013E-18
 -1      4236 9.67452E-05-2.75268E-05-2.96581E-05-1.52064E-08 2.86501E-19-1.41499E-18
 -1      4237 9.66068E-05-2.69780E-05-2.98446E-05 4.74341E-08 1.60292E-19-1.48154E-18
 -1      4238 7.65353E-05-1.82229E-05-2.50734E-05-1.71744E-06-9.31290E-19 1.44736E-18
 -1      4239 9.56240E-05-2.87209E-05-2.86718E-05-3.41670E-07 6.12735E-19-1.42628E-18
 -1      4240 9.57312E-05-2.88319E-05-2.86712E-05-3.38177E-07 4.82496E-19-1.56779E-18
 -1      4241 9.55744E-05-2.86573E-05-2.86795E-05-2.43706E-07 2.76813E-19-1.03368E-18
 -1      4242 9.58557E-05-2.89644E-05-2.86688E-05-4.48827E-07-2.77333E-20-9.96398E-19
 -1      4243 9.69443E-05-2.88105E-05-2.92050E-05-2.31827E-07 2.89829E-19-1.36787E-18
 -1      4244 9.68895E-05-2.87068E-05-2.92238E-05-3.29203E-07 2.25818E-19-1.41885E-18
 -1      4245 9.68891E-05-2.84318E-05-2.93373E-05-2.41462E-07 4.76845E-19-1.34697E-18
 -1      4246 9.69714E-05-2.88820E-05-2.91834E-05 1.31855E-07 1.96032E-19-1.04069E-18
 -1      4247 9.63837E-05-2.92692E-05-2.87622E-05-3.89955E-07-3.30148E-19-1.20992E-18
 -1      4248 9.64948E-05-2.93030E-05-2.88008E-05-2.81219E-07-5.33173E-19-1.09058E-18
 -1      4249 9.62833E-05-2.92333E-05-2.87345E-05-3.83218E-07-5.41004E-20-1.37182E-18
 -1      4250 9.66194E-05-2.69656E-05-2.98568E-05-5.33045E-09 7.55399E-20-1.62746E-18
 -1      4251 9.65606E-05-2.68357E-05-2.98874E-05-9.27978E-08 1.76327E-19-2.01053E-18
 -1      4252 9.67339E-05-2.74027E-05-2.97128E-05 2.61501E-08-1.83746E-20-1.68480E-18
 -1      4253 9.68123E-05-2.75926E-05-2.96642E-05 2.19504E-08 2.02503E-19-1.62763E-18
 -1      4254 9.65634E-05-2.67583E-05-2.99201E-05-2.71383E-08 1.76538E-19-1.89534E-18
 -1      4255 9.68285E-05-2.79828E-05-2.95078E-05-1.59554E-07 5.00307E-19-1.37360E-18
 -1      4256 9.69651E-05-2.81804E-05-2.94801E-05 2.98230E-11 2.23922E-19-1.80508E-18
 -1      4257 9.70112E-05-2.85319E-05-2.93488E-05 3.34387E-08 1.92384E-19-1.62976E-18
 -1      4258 9.67307E-05-2.93069E-05-2.88934E-05-5.94867E-08-2.36506E-19-1.11658E-18
 -1      4259 9.66288E-05-2.93259E-05-2.88410E-05-5.53019E-08-1.79858E-19-1.11067E-18
 -1      4260 9.65225E-05-2.93140E-05-2.88012E-05-5.62433E-08-2.44571E-19-1.25205E-18
 -1      4261 9.64082E-05-2.92830E-05-2.87655E-05-5.44961E-08-2.81192E-19-1.44828E-18
 -1      4262 9.60994E-05-2.91105E-05-2.87085E-05 3.05150E-08-7.24461E-20-1.04387E-18
 -1      4263 9.59796E-05-2.90212E-05-2.86955E-05 2.82375E-08 3.21565E-19-4.72189E-19
 -1      4264 9.58123E-05-2.88797E-05-2.86850E-05-5.12928E-08 4.33939E-20-9.60712E-19
 -1      4265 9.56875E-05-2.87623E-05-2.86817E-05-4.83634E-08 6.17682E-20-7.79544E-19
 -1      4266 9.55600E-05-2.86338E-05-2.86825E-05-5.32837E-08 2.38196E-19-6.47267E-19
 -1      4267 9.54241E-05-2.84936E-05-2.86845E-05-4.94950E-08 3.53212E-19-5.07039E-19
 -1      4268 9.52836E-05-2.83424E-05-2.86899E-05-5.98135E-08 2.32846E-19-8.18888E-19
 -1      4269 9.51327E-05-2.81778E-05-2.86959E-05-5.37470E-08 3.11850E-19-6.10974E-19
 -1      4270 9.49722E-05-2.80011E-05-2.87039E-05-7.10582E-08 2.05098E-19-5.18276E-19
 -1      4271 9.47980E-05-2.78083E-05-2.87118E-05-6.20223E-08 4.08916E-20-6.51625E-19
 -1      4272 9.46084E-05-2.76022E-05-2.87203E-05-8.77579E-08-1.17988E-19-5.14750E-19
 -1      4273 9.44011E-05-2.73766E-05-2.87281E-05-7.52492E-08-1.53857E-19-4.33705E-19
 -1      4274 9.41718E-05-2.71362E-05-2.87346E-05-1.10846E-07-4.08940E-19-2.76016E-19
 -1      4275 9.39200E-05-2.68726E-05-2.87393E-05-9.44460E-08-4.12754E-19-3.78751E-19
 -1      4276 9.36388E-05-2.65935E-05-2.87408E-05-1.41425E-07-1.94027E-19-1.77890E-19
 -1      4277 9.33297E-05-2.62876E-05-2.87390E-05-1.20781E-07 3.10280E-19-1.86574E-19
 -1      4278 9.29833E-05-2.59663E-05-2.87311E-05-1.80837E-07 1.61911E-19-5.48428E-19
 -1      4279 9.26029E-05-2.56150E-05-2.87181E-05-1.55642E-07-4.82381E-20-2.21870E-19
 -1      4280 9.21769E-05-2.52503E-05-2.86952E-05-2.30805E-07-4.78360E-19-1.72263E-19
 -1      4281 9.17096E-05-2.48530E-05-2.86647E-05-2.00745E-07-7.98462E-19-8.66242E-20
 -1      4282 9.11883E-05-2.44470E-05-2.86194E-05-2.93727E-07-1.28075E-18-1.74025E-19
 -1      4283 9.06171E-05-2.40065E-05-2.85631E-05-2.58339E-07-1.43510E-18-3.85748E-19
 -1      4284 8.99830E-05-2.35654E-05-2.84853E-05-3.73217E-07-1.40135E-18-3.12117E-19
 -1      4285 8.92881E-05-2.30883E-05-2.83920E-05-3.31607E-07-9.61512E-19-6.56429E-19
 -1      4286 8.85208E-05-2.26233E-05-2.82684E-05-4.75072E-07-8.53431E-19-3.42756E-19
 -1      4287 8.76771E-05-2.21201E-05-2.81233E-05-4.25513E-07-7.54058E-19-2.63945E-19
 -1      4288 8.67501E-05-2.16467E-05-2.79363E-05-6.08797E-07-5.93829E-19-3.40818E-19
 -1      4289 8.57228E-05-2.11304E-05-2.77195E-05-5.48619E-07-3.73604E-19-2.80443E-19
 -1      4290 8.45988E-05-2.06662E-05-2.74454E-05-7.88549E-07-2.49809E-19-8.04367E-20
 -1      4291 8.33395E-05-2.01521E-05-2.71297E-05-7.14329E-07-3.60677E-19 2.19645E-19
 -1      4292 8.19718E-05-1.97080E-05-2.67374E-05-1.03071E-06-1.14924E-18 9.17323E-19
 -1      4293 7.86884E-05-1.87543E-05-2.57524E-05-1.43670E-06-1.06190E-18 1.45397E-18
 -1      4294 8.03138E-05-1.91831E-05-2.62659E-05-1.19956E-06-1.09748E-18 1.12045E-18
 -1      4295 9.68215E-05-2.92613E-05-2.89510E-05-5.25356E-08-1.18068E-19-1.19986E-18
 -1      4296 9.68986E-05-2.81161E-05-2.94775E-05-1.15750E-07 4.11320E-19-1.25208E-18
 -1      4297 9.60682E-05-2.91102E-05-2.86950E-05-3.59183E-07 2.90014E-19-1.47828E-18
 -1      4298 9.61713E-05-2.91775E-05-2.87108E-05-3.67416E-07 3.37293E-19-1.41986E-18
 -1      4299 9.62781E-05-2.92300E-05-2.87383E-05-2.67254E-07 6.56438E-20-1.81350E-18
 -1      4300 9.68992E-05-2.91715E-05-2.90242E-05-6.10961E-08 4.64508E-20-1.16848E-18
 -1      4301 9.58492E-05-2.89376E-05-2.86757E-05-3.44230E-07 1.22675E-19-1.79699E-18
 -1      4302 9.59526E-05-2.90276E-05-2.86822E-05-3.49505E-07 7.83095E-20-1.67796E-18
 -1      4303 9.60478E-05-2.90844E-05-2.86998E-05-2.48348E-07 3.34734E-19-1.99856E-18
 -1      4304 9.58176E-05-2.88956E-05-2.86817E-05-2.41676E-07 3.39840E-19-2.04160E-18
 -1      4305 9.69932E-05-2.88552E-05-2.92003E-05-6.10597E-08 3.39207E-19-1.51658E-18
 -1      4306 9.69605E-05-2.90452E-05-2.91037E-05-4.21324E-08 3.01760E-19-1.36324E-18
 -1      4307 9.62947E-05-2.92310E-05-2.87399E-05-5.37892E-08-5.05531E-20-1.54388E-18
 -1      4308 9.61743E-05-2.91633E-05-2.87176E-05-5.26488E-08-4.77024E-20-1.39074E-18
 -1      4309 9.69792E-05-2.84632E-05-2.93593E-05-1.21196E-07 3.69609E-19-1.47555E-18
 -1      4310 9.69135E-05-2.80144E-05-2.95310E-05-6.35560E-08 4.10015E-19-1.64122E-18
 -1      4311 9.69685E-05-2.87117E-05-2.92533E-05-1.47262E-07 3.26366E-19-1.60842E-18
 -1      4312 9.67807E-05-2.74091E-05-2.97249E-05-7.83675E-09 2.36177E-19-1.77048E-18
 -1      4313 9.68774E-05-2.77911E-05-2.96077E-05 1.04139E-08 2.62457E-19-1.77127E-18
 -1      4314 9.58667E-05-2.89299E-05-2.86880E-05-1.62833E-07 1.92757E-19-1.39363E-18
 -1      4315 9.61052E-05-2.91226E-05-2.87082E-05-1.72371E-07 3.80477E-19-1.45650E-18
 -1      4316 9.59836E-05-2.90306E-05-2.86937E-05-1.66622E-07 3.06876E-19-1.72033E-18
 -3
    1PSTEP                         4           1           1          
  100CL  101 1.000000000        4316                     0    1           1
 -4  ERROR       1    1
 -5  STR(%)      1    1    0    0
 -1         1 2.39483E+01
 -1         2 2.49913E+01
 -1         3 1.22412E-01
 -1         4 1.53057E-01
 -1         5 1.40399E+01
 -1         6 1.31441E+01
 -1         7 1.31441E+01
 -1         8 3.66370E+00
 -1         9 1.82489E+00
 -1        10 1.28906E+00
 -1        11 1.04627E+00
 -1        12 8.99948E-01
 -1        13 8.08946E-01
 -1        14 7.54102E-01
 -1        15 7.56058E-01
 -1        16 8.13225E-01
 -1        17 9.00835E-01
 -1        18 1.05253E+00
 -1        19 1.30762E+00
 -1        20 1.83558E+00
 -1        21 3.50550E+00
 -1        22 8.64192E+00
 -1        23 1.31441E+01
 -1        24 4.31816E+00
 -1        25 3.34143E+00
 -1        26 2.11211E+00
 -1        27 1.36360E+00
 -1        28 1.01457E+00
 -1        29 7.75843E-01
 -1        30 5.96409E-01
 -1        31 4.56740E-01
 -1        32 3.49823E-01
 -1        33 2.71859E-01
 -1        34 2.09657E-01
 -1        35 1.61209E-01
 -1        36 1.24588E-01
 -1        37 9.80395E-02
 -1        38 8.00089E-02
 -1        39 6.91341E-02
 -1        40 7.20128E-02
 -1        41 8.24610E-02
 -1        42 9.65300E-02
 -1        43 1.26449E-01
 -1        44 1.67860E-01
 -1        45 2.20836E-01
 -1        46 2.85691E-01
 -1        47 3.61412E-01
 -1        48 4.44667E-01
 -1        49 5.28450E-01
 -1        50 6.60616E-01
 -1        51 8.38891E-01
 -1        52 1.05125E+00
 -1        53 1.27117E+00
 -1        54 1.41234E+00
 -1        55 1.41234E+00
 -1        56 1.50389E+00
 -1        57 1.50389E+00
 -1        58 1.96247E+00
 -1        59 3.10153E+00
 -1        60 4.34796E+00
 -1        61 4.42025E+00
 -1        62 4.42025E+00
 -1        63 4.31373E+00
 -1        64 3.27581E+00
 -1        65 1.76965E+00
 -1        66 1.07498E+00
 -1        67 8.59140E-01
 -1        68 8.59140E-01
 -1        69 8.42094E-01
 -1        70 8.23005E-01
 -1        71 7.01560E-01
 -1        72 1.40399E+01
 -1        73 3.39498E+00
 -1        74 2.41351E+00
 -1        75 1.66638E+00
 -1        76 1.14540E+00
 -1        77 9.06022E-01
 -1        78 7.31529E-01
 -1        79 5.88349E-01
 -1        80 4.69231E-01
 -1        81 3.70400E-01
 -1        82 2.96744E-01
 -1        83 2.36088E-01
 -1        84 1.86650E-01
 -1        85 1.47755E-01
 -1        86 1.18553E-01
 -1        87 9.81791E-02
 -1        88 8.58407E-02
 -1        89 9.00345E-02
 -1        90 1.04593E-01
 -1        91 1.25894E-01
 -1        92 1.53306E-01
 -1        93 1.85733E-01
 -1        94 2.21236E-01
 -1        95 2.83732E-01
 -1        96 3.58091E-01
 -1        97 4.39336E-01
 -1        98 5.20300E-01
 -1        99 5.88540E-01
 -1       100 6.24703E-01
 -1       101 6.93702E-01
 -1       102 9.11272E-01
 -1       103 1.09901E+00
 -1       104 1.19087E+00
 -1       105 1.54881E+00
 -1       106 1.63818E+00
 -1       107 1.92551E+00
 -1       108 2.23654E+00
 -1       109 3.34348E+00
 -1       110 3.71910E+00
 -1       111 4.05082E+00
 -1       112 4.05082E+00
 -1       113 3.37087E+00
 -1       114 2.06079E+00
 -1       115 1.03469E+00
 -1       116 8.79986E-01
 -1       117 8.79986E-01
 -1       118 8.29288E-01
 -1       119 7.76779E-01
 -1       120 4.83118E-01
 -1       121 2.87113E-01
 -1       122 2.92955E-01
 -1       123 2.92955E-01
 -1       124 2.66384E-01
 -1       125 1.90618E-01
 -1       126 2.13842E-01
 -1       127 4.20160E-01
 -1       128 5.03170E-01
 -1       129 5.03170E-01
 -1       130 4.29590E-01
 -1       131 2.25752E-01
 -1       132 1.85109E-01
 -1       133 2.67136E-01
 -1       134 2.89686E-01
 -1       135 4.20169E-01
 -1       136 4.42747E-01
 -1       137 2.49913E+01
 -1       138 3.10732E+01
 -1       139 3.10732E+01
 -1       140 2.49273E+01
 -1       141 1.16871E+01
 -1       142 1.25022E+01
 -1       143 1.25022E+01
 -1       144 1.21039E+01
 -1       145 1.20138E+01
 -1       146 1.19692E+01
 -1       147 1.59539E+01
 -1       148 4.07444E+01
 -1       149 4.07444E+01
 -1       150 2.40551E+01
 -1       151 2.45530E+01
 -1       152 2.55223E+01
 -1       153 3.64561E+01
 -1       154 3.64561E+01
 -1       155 1.37851E+01
 -1       156 1.21066E+01
 -1       157 1.21066E+01
 -1       158 1.20774E+01
 -1       159 1.20131E+01
 -1       160 1.20131E+01
 -1       161 2.08760E+01
 -1       162 4.85170E+01
 -1       163 4.85170E+01
 -1       164 2.43260E+01
 -1       165 6.07790E+00
 -1       166 2.29873E+00
 -1       167 1.50750E+00
 -1       168 1.15784E+00
 -1       169 9.73524E-01
 -1       170 8.64634E-01
 -1       171 7.96177E-01
 -1       172 7.56058E-01
 -1       173 7.99605E-01
 -1       174 8.67298E-01
 -1       175 9.80986E-01
 -1       176 1.17238E+00
 -1       177 1.52739E+00
 -1       178 2.26064E+00
 -1       179 3.93121E+00
 -1       180 1.40399E+01
 -1       181 4.31816E+00
 -1       182 3.34143E+00
 -1       183 2.11211E+00
 -1       184 1.44803E+00
 -1       185 1.02657E+00
 -1       186 7.75843E-01
 -1       187 5.96409E-01
 -1       188 4.69492E-01
 -1       189 3.70067E-01
 -1       190 2.92478E-01
 -1       191 2.36540E-01
 -1       192 1.89376E-01
 -1       193 1.50809E-01
 -1       194 1.20186E-01
 -1       195 9.66086E-02
 -1       196 7.90517E-02
 -1       197 6.64266E-02
 -1       198 7.20128E-02
 -1       199 8.24610E-02
 -1       200 1.04766E-01
 -1       201 1.35826E-01
 -1       202 1.75577E-01
 -1       203 2.24259E-01
 -1       204 2.85691E-01
 -1       205 3.77489E-01
 -1       206 4.96885E-01
 -1       207 6.30156E-01
 -1       208 7.65612E-01
 -1       209 8.82646E-01
 -1       210 1.05125E+00
 -1       211 1.27117E+00
 -1       212 1.41234E+00
 -1       213 1.36681E+00
 -1       214 1.50389E+00
 -1       215 1.39454E+00
 -1       216 1.96247E+00
 -1       217 3.10153E+00
 -1       218 4.34796E+00
 -1       219 4.42025E+00
 -1       220 4.31373E+00
 -1       221 3.27581E+00
 -1       222 2.12067E+00
 -1       223 1.25302E+00
 -1       224 7.74857E-01
 -1       225 8.59140E-01
 -1       226 8.42094E-01
 -1       227 8.23005E-01
 -1       228 7.01560E-01
 -1       229 3.39498E+00
 -1       230 2.41351E+00
 -1       231 1.66638E+00
 -1       232 1.14540E+00
 -1       233 9.06022E-01
 -1       234 7.31529E-01
 -1       235 5.88349E-01
 -1       236 4.69231E-01
 -1       237 3.70400E-01
 -1       238 2.96744E-01
 -1       239 2.36088E-01
 -1       240 1.89029E-01
 -1       241 1.51646E-01
 -1       242 1.22501E-01
 -1       243 1.01007E-01
 -1       244 8.65101E-02
 -1       245 8.38119E-02
 -1       246 9.26515E-02
 -1       247 1.06733E-01
 -1       248 1.25894E-01
 -1       249 1.53453E-01
 -1       250 1.97885E-01
 -1       251 2.51223E-01
 -1       252 3.12140E-01
 -1       253 3.77363E-01
 -1       254 4.41807E-01
 -1       255 5.20300E-01
 -1       256 5.88540E-01
 -1       257 6.24703E-01
 -1       258 7.75004E-01
 -1       259 9.11272E-01
 -1       260 1.09901E+00
 -1       261 1.19087E+00
 -1       262 1.54881E+00
 -1       263 1.63818E+00
 -1       264 1.92551E+00
 -1       265 2.35983E+00
 -1       266 3.34348E+00
 -1       267 3.71910E+00
 -1       268 4.05082E+00
 -1       269 3.37087E+00
 -1       270 2.06079E+00
 -1       271 1.05072E+00
 -1       272 6.20277E-01
 -1       273 8.79986E-01
 -1       274 8.29288E-01
 -1       275 7.76779E-01
 -1       276 5.14217E-01
 -1       277 3.94462E-01
 -1       278 4.97635E-01
 -1       279 4.97635E-01
 -1       280 4.79102E-01
 -1       281 3.32859E-01
 -1       282 7.07487E-01
 -1       283 9.70150E-01
 -1       284 9.74695E-01
 -1       285 9.74695E-01
 -1       286 7.29073E-01
 -1       287 3.59975E-01
 -1       288 4.78056E-01
 -1       289 5.09894E-01
 -1       290 5.09894E-01
 -1       291 5.13530E-01
 -1       292 3.18514E+01
 -1       293 3.12263E+01
 -1       294 3.12263E+01
 -1       295 2.68115E+01
 -1       296 1.16871E+01
 -1       297 1.15950E+01
 -1       298 1.25022E+01
 -1       299 1.21039E+01
 -1       300 1.20138E+01
 -1       301 1.19692E+01
 -1       302 1.12840E+01
 -1       303 1.61065E+01
 -1       304 4.07444E+01
 -1       305 3.48126E+01
 -1       306 2.63435E+01
 -1       307 2.64135E+01
 -1       308 2.64135E+01
 -1       309 3.38398E+01
 -1       310 3.64561E+01
 -1       311 1.37851E+01
 -1       312 1.13665E+01
 -1       313 1.21066E+01
 -1       314 1.20774E+01
 -1       315 1.19925E+01
 -1       316 1.20131E+01
 -1       317 1.17702E+01
 -1       318 2.26655E+01
 -1       319 4.85170E+01
 -1       320 3.06420E+01
 -1       321 3.18514E+01
 -1       322 1.04799E+00
 -1       323 2.47995E+00
 -1       324 7.95148E-01
 -1       325 6.94940E-01
 -1       326 6.31903E-01
 -1       327 5.87764E-01
 -1       328 5.90946E-01
 -1       329 6.34560E-01
 -1       330 7.01222E-01
 -1       331 7.96355E-01
 -1       332 9.31698E-01
 -1       333 1.15990E+00
 -1       334 1.32894E+00
 -1       335 2.20105E+00
 -1       336 1.91464E+00
 -1       337 1.72994E+00
 -1       338 1.26820E+00
 -1       339 9.08120E-01
 -1       340 6.57304E-01
 -1       341 5.39501E-01
 -1       342 4.42788E-01
 -1       343 3.57783E-01
 -1       344 2.92749E-01
 -1       345 2.38201E-01
 -1       346 1.91593E-01
 -1       347 1.55637E-01
 -1       348 1.26826E-01
 -1       349 1.02612E-01
 -1       350 8.26081E-02
 -1       351 6.64266E-02
 -1       352 6.16861E-02
 -1       353 6.57291E-02
 -1       354 8.16944E-02
 -1       355 1.04766E-01
 -1       356 1.35826E-01
 -1       357 1.91683E-01
 -1       358 2.64154E-01
 -1       359 3.53002E-01
 -1       360 4.57784E-01
 -1       361 5.74924E-01
 -1       362 6.95860E-01
 -1       363 8.04913E-01
 -1       364 9.02127E-01
 -1       365 1.01389E+00
 -1       366 1.07885E+00
 -1       367 1.00709E+00
 -1       368 8.01296E-01
 -1       369 8.69397E-01
 -1       370 1.30770E+00
 -1       371 1.97345E+00
 -1       372 2.58092E+00
 -1       373 2.78946E+00
 -1       374 2.63139E+00
 -1       375 2.57935E+00
 -1       376 2.07491E+00
 -1       377 1.64867E+00
 -1       378 1.27703E+00
 -1       379 9.41552E-01
 -1       380 8.34128E-01
 -1       381 6.54732E-01
 -1       382 7.15909E-01
 -1       383 1.13083E+00
 -1       384 8.92024E-01
 -1       385 7.04754E-01
 -1       386 5.46214E-01
 -1       387 4.38828E-01
 -1       388 3.72677E-01
 -1       389 3.09410E-01
 -1       390 2.54257E-01
 -1       391 2.09528E-01
 -1       392 1.70514E-01
 -1       393 1.37669E-01
 -1       394 1.12575E-01
 -1       395 9.36561E-02
 -1       396 8.04088E-02
 -1       397 7.31505E-02
 -1       398 7.51112E-02
 -1       399 8.22271E-02
 -1       400 1.01310E-01
 -1       401 1.29497E-01
 -1       402 1.66606E-01
 -1       403 2.34707E-01
 -1       404 3.19611E-01
 -1       405 4.21445E-01
 -1       406 5.37429E-01
 -1       407 6.60026E-01
 -1       408 7.74717E-01
 -1       409 8.73212E-01
 -1       410 9.49452E-01
 -1       411 9.49452E-01
 -1       412 9.33989E-01
 -1       413 7.67930E-01
 -1       414 7.35636E-01
 -1       415 1.03173E+00
 -1       416 1.80480E+00
 -1       417 2.22474E+00
 -1       418 2.25364E+00
 -1       419 2.15185E+00
 -1       420 2.27888E+00
 -1       421 2.18065E+00
 -1       422 1.58659E+00
 -1       423 1.19431E+00
 -1       424 8.41015E-01
 -1       425 7.37383E-01
 -1       426 7.18885E-01
 -1       427 6.23268E-01
 -1       428 5.14217E-01
 -1       429 6.73625E-01
 -1       430 6.73625E-01
 -1       431 6.12038E-01
 -1       432 6.64724E-01
 -1       433 8.61285E-01
 -1       434 1.39641E+00
 -1       435 1.46479E+00
 -1       436 1.46479E+00
 -1       437 1.41921E+00
 -1       438 9.01513E-01
 -1       439 6.80473E-01
 -1       440 6.77062E-01
 -1       441 7.15909E-01
 -1       442 3.12263E+01
 -1       443 3.18514E+01
 -1       444 2.65444E+01
 -1       445 1.84479E+01
 -1       446 1.05121E+01
 -1       447 9.10787E-01
 -1       448 9.10736E+00
 -1       449 1.03127E+01
 -1       450 1.03575E+01
 -1       451 1.04495E+01
 -1       452 7.84140E+00
 -1       453 7.88462E+00
 -1       454 1.43179E+01
 -1       455 2.36594E+01
 -1       456 2.38732E+01
 -1       457 3.65097E+01
 -1       458 3.65097E+01
 -1       459 2.65900E+01
 -1       460 2.25885E+01
 -1       461 1.30271E+01
 -1       462 7.80129E+00
 -1       463 9.28829E+00
 -1       464 1.11580E+01
 -1       465 1.04172E+01
 -1       466 1.00930E+01
 -1       467 7.81353E+00
 -1       468 9.43396E+00
 -1       469 1.71844E+01
 -1       470 3.06420E+01
 -1       471 2.75140E+01
 -1       472 6.93775E+00
 -1       473 1.04839E+00
 -1       474 4.86450E-01
 -1       475 5.14432E-01
 -1       476 4.31717E-01
 -1       477 4.57572E-01
 -1       478 4.87079E-01
 -1       479 5.11215E-01
 -1       480 5.11215E-01
 -1       481 6.08557E-01
 -1       482 8.92024E-01
 -1       483 8.03468E-01
 -1       484 4.15857E+00
 -1       485 7.02943E-01
 -1       486 5.89886E-01
 -1       487 4.77761E-01
 -1       488 3.79355E-01
 -1       489 3.24608E-01
 -1       490 2.75079E-01
 -1       491 2.28372E-01
 -1       492 1.89632E-01
 -1       493 1.56377E-01
 -1       494 1.27365E-01
 -1       495 1.02732E-01
 -1       496 8.26081E-02
 -1       497 6.61210E-02
 -1       498 5.49535E-02
 -1       499 5.17314E-02
 -1       500 6.21558E-02
 -1       501 7.87573E-02
 -1       502 1.18497E-01
 -1       503 1.68716E-01
 -1       504 2.31536E-01
 -1       505 3.08692E-01
 -1       506 4.01028E-01
 -1       507 5.07700E-01
 -1       508 6.25035E-01
 -1       509 7.45031E-01
 -1       510 8.53655E-01
 -1       511 9.36829E-01
 -1       512 1.06781E+00
 -1       513 1.19174E+00
 -1       514 1.25498E+00
 -1       515 1.42065E+00
 -1       516 1.65360E+00
 -1       517 1.93046E+00
 -1       518 2.08292E+00
 -1       519 4.01538E+00
 -1       520 5.82068E+00
 -1       521 3.03229E+00
 -1       522 2.20649E+00
 -1       523 2.01333E+00
 -1       524 1.64867E+00
 -1       525 1.44178E+00
 -1       526 1.12770E+00
 -1       527 8.34128E-01
 -1       528 2.04256E+01
 -1       529 5.46214E-01
 -1       530 4.38828E-01
 -1       531 3.72677E-01
 -1       532 3.09410E-01
 -1       533 2.54257E-01
 -1       534 2.09985E-01
 -1       535 1.71418E-01
 -1       536 1.38596E-01
 -1       537 1.11614E-01
 -1       538 9.03254E-02
 -1       539 7.24455E-02
 -1       540 6.05789E-02
 -1       541 5.38642E-02
 -1       542 6.40780E-02
 -1       543 7.97054E-02
 -1       544 1.07275E-01
 -1       545 1.55358E-01
 -1       546 2.16017E-01
 -1       547 2.90982E-01
 -1       548 3.80979E-01
 -1       549 4.84830E-01
 -1       550 5.98174E-01
 -1       551 7.11815E-01
 -1       552 8.10010E-01
 -1       553 8.94245E-01
 -1       554 9.69862E-01
 -1       555 1.03572E+00
 -1       556 1.02237E+00
 -1       557 1.08870E+00
 -1       558 1.23081E+00
 -1       559 1.54039E+00
 -1       560 1.92125E+00
 -1       561 2.57107E+00
 -1       562 2.62325E+00
 -1       563 2.79052E+00
 -1       564 2.18692E+00
 -1       565 1.89716E+00
 -1       566 1.72480E+00
 -1       567 1.25248E+00
 -1       568 1.06689E+00
 -1       569 7.55864E-01
 -1       570 7.18885E-01
 -1       571 1.32159E+00
 -1       572 1.68103E+00
 -1       573 7.98500E-01
 -1       574 9.36581E-01
 -1       575 2.30503E+00
 -1       576 2.34808E+00
 -1       577 2.34808E+00
 -1       578 1.74554E+00
 -1       579 1.33073E+00
 -1       580 9.70607E-01
 -1       581 6.91958E-01
 -1       582 2.75140E+01
 -1       583 7.04754E-01
 -1       584 1.38338E+01
 -1       585 1.96643E+01
 -1       586 8.72521E-01
 -1       587 8.75957E+00
 -1       588 3.32635E+00
 -1       589 7.39992E+00
 -1       590 4.57519E-01
 -1       591 7.89810E+00
 -1       592 6.34554E+00
 -1       593 6.71580E+00
 -1       594 5.51647E+00
 -1       595 2.65900E+01
 -1       596 1.05621E+01
 -1       597 1.74354E+01
 -1       598 2.38732E+01
 -1       599 3.65097E+01
 -1       600 1.67886E+01
 -1       601 1.04729E+01
 -1       602 7.59065E+00
 -1       603 3.93217E+00
 -1       604 5.92374E+00
 -1       605 8.00148E+00
 -1       606 7.50106E+00
 -1       607 5.78470E+00
 -1       608 5.04946E+00
 -1       609 8.94616E+00
 -1       610 1.28149E+01
 -1       611 2.65444E+01
 -1       612 1.32836E+00
 -1       613 6.88406E+00
 -1       614 5.31082E-01
 -1       615 7.15909E-01
 -1       616 1.80713E+01
 -1       617 4.14247E+00
 -1       618 1.56805E+01
 -1       619 7.17931E+00
 -1       620 3.58589E-01
 -1       621 3.42952E-01
 -1       622 3.61745E-01
 -1       623 3.37934E-01
 -1       624 5.44137E-01
 -1       625 4.25234E+00
 -1       626 3.57856E+00
 -1       627 5.15752E-01
 -1       628 5.72064E+00
 -1       629 3.97811E-01
 -1       630 3.85264E-01
 -1       631 3.44477E-01
 -1       632 2.95046E-01
 -1       633 2.45581E-01
 -1       634 2.14134E-01
 -1       635 1.81688E-01
 -1       636 1.50570E-01
 -1       637 1.23101E-01
 -1       638 1.00421E-01
 -1       639 8.09812E-02
 -1       640 6.43282E-02
 -1       641 4.97132E-02
 -1       642 3.61456E-02
 -1       643 4.08178E-02
 -1       644 5.94401E-02
 -1       645 9.27332E-02
 -1       646 1.34135E-01
 -1       647 1.85706E-01
 -1       648 2.49558E-01
 -1       649 3.27729E-01
 -1       650 4.21973E-01
 -1       651 5.33432E-01
 -1       652 6.62124E-01
 -1       653 8.06840E-01
 -1       654 9.58888E-01
 -1       655 1.10681E+00
 -1       656 1.32344E+00
 -1       657 1.63126E+00
 -1       658 1.93170E+00
 -1       659 2.20109E+00
 -1       660 2.27728E+00
 -1       661 2.77193E+00
 -1       662 4.00552E+00
 -1       663 3.72237E+00
 -1       664 3.16555E+00
 -1       665 2.54090E+00
 -1       666 2.15988E+00
 -1       667 1.54236E+00
 -1       668 1.12770E+00
 -1       669 1.07635E+01
 -1       670 1.46157E+01
 -1       671 3.97476E-01
 -1       672 2.35727E-01
 -1       673 1.99069E-01
 -1       674 1.65217E-01
 -1       675 1.36710E-01
 -1       676 1.11798E-01
 -1       677 9.03254E-02
 -1       678 7.19344E-02
 -1       679 5.74834E-02
 -1       680 4.51639E-02
 -1       681 4.67140E-02
 -1       682 5.64566E-02
 -1       683 8.83296E-02
 -1       684 1.29469E-01
 -1       685 1.80861E-01
 -1       686 2.44485E-01
 -1       687 3.22005E-01
 -1       688 4.14374E-01
 -1       689 5.21220E-01
 -1       690 6.39949E-01
 -1       691 7.64486E-01
 -1       692 8.83671E-01
 -1       693 9.88902E-01
 -1       694 1.16961E+00
 -1       695 1.36275E+00
 -1       696 1.51903E+00
 -1       697 1.82906E+00
 -1       698 2.19931E+00
 -1       699 2.23386E+00
 -1       700 4.25234E+00
 -1       701 4.56266E+00
 -1       702 5.27817E+00
 -1       703 4.62637E+00
 -1       704 3.18365E+00
 -1       705 1.99074E+00
 -1       706 2.04458E+00
 -1       707 1.57525E+00
 -1       708 1.06689E+00
 -1       709 7.55864E-01
 -1       710 3.22773E+00
 -1       711 6.67110E-01
 -1       712 2.31022E+00
 -1       713 3.22773E+00
 -1       714 3.08866E+00
 -1       715 1.12749E+01
 -1       716 3.07633E+00
 -1       717 2.33391E+00
 -1       718 1.83085E+00
 -1       719 1.54297E+00
 -1       720 4.64797E-01
 -1       721 8.02556E+00
 -1       722 5.31082E-01
 -1       723 1.39885E+01
 -1       724 5.58112E+00
 -1       725 2.74507E-01
 -1       726 3.29329E-01
 -1       727 4.02674E-01
 -1       728 9.24345E+00
 -1       729 8.72864E+00
 -1       730 5.97042E+00
 -1       731 3.61745E-01
 -1       732 3.58717E-01
 -1       733 4.66898E+00
 -1       734 8.83010E+00
 -1       735 4.62637E+00
 -1       736 5.56759E+00
 -1       737 1.42290E+01
 -1       738 6.66073E+00
 -1       739 4.32928E+00
 -1       740 3.08672E+00
 -1       741 5.99148E+00
 -1       742 4.56266E+00
 -1       743 3.72237E+00
 -1       744 5.82967E+00
 -1       745 3.78469E-01
 -1       746 3.42605E-01
 -1       747 5.82068E+00
 -1       748 1.78656E+00
 -1       749 1.02683E+01
 -1       750 9.03321E-01
 -1       751 9.35141E+00
 -1       752 4.42292E+00
 -1       753 1.31897E+01
 -1       754 9.00228E+00
 -1       755 3.57500E-01
 -1       756 3.18344E+00
 -1       757 9.65838E+00
 -1       758 1.03646E+01
 -1       759 1.25058E+01
 -1       760 8.08457E+00
 -1       761 2.44876E-01
 -1       762 6.30963E+00
 -1       763 2.56671E-01
 -1       764 2.49571E-01
 -1       765 2.27919E-01
 -1       766 1.99645E-01
 -1       767 1.72849E-01
 -1       768 1.51519E-01
 -1       769 1.28881E-01
 -1       770 1.06711E-01
 -1       771 8.58748E-02
 -1       772 6.65814E-02
 -1       773 4.85641E-02
 -1       774 3.12080E-02
 -1       775 2.68244E-02
 -1       776 3.97567E-02
 -1       777 6.73797E-02
 -1       778 1.02018E-01
 -1       779 1.47751E-01
 -1       780 2.05009E-01
 -1       781 2.75728E-01
 -1       782 3.61316E-01
 -1       783 4.62005E-01
 -1       784 5.75711E-01
 -1       785 7.11624E-01
 -1       786 9.02778E-01
 -1       787 1.14607E+00
 -1       788 1.46428E+00
 -1       789 1.80231E+00
 -1       790 2.20358E+00
 -1       791 3.18473E+00
 -1       792 2.83250E+00
 -1       793 8.47676E+00
 -1       794 3.16555E+00
 -1       795 2.90822E+00
 -1       796 2.58035E+00
 -1       797 2.27711E+00
 -1       798 1.90017E-01
 -1       799 1.13480E-01
 -1       800 9.08273E-02
 -1       801 7.02996E-02
 -1       802 5.34165E-02
 -1       803 3.84316E-02
 -1       804 2.71337E-02
 -1       805 3.60568E-02
 -1       806 6.29155E-02
 -1       807 9.57509E-02
 -1       808 1.36395E-01
 -1       809 1.86881E-01
 -1       810 2.49458E-01
 -1       811 3.26624E-01
 -1       812 4.24630E-01
 -1       813 5.44204E-01
 -1       814 6.85704E-01
 -1       815 8.47185E-01
 -1       816 1.03460E+00
 -1       817 1.24626E+00
 -1       818 1.49907E+00
 -1       819 1.92611E+00
 -1       820 2.43891E+00
 -1       821 2.71884E+00
 -1       822 2.86061E+00
 -1       823 2.41997E+00
 -1       824 2.53448E+00
 -1       825 1.57525E+00
 -1       826 8.30421E-01
 -1       827 2.88475E-01
 -1       828 5.98539E+00
 -1       829 7.98154E+00
 -1       830 2.86992E-01
 -1       831 3.26532E+00
 -1       832 5.68660E+00
 -1       833 5.41991E+00
 -1       834 2.18676E-01
 -1       835 1.38195E-01
 -1       836 7.38446E+00
 -1       837 1.64262E-01
 -1       838 5.98539E+00
 -1       839 2.33383E-01
 -1       840 9.08248E+00
 -1       841 2.55266E-01
 -1       842 5.30779E+00
 -1       843 2.82109E-01
 -1       844 4.29305E+00
 -1       845 8.25393E+00
 -1       846 3.59601E+00
 -1       847 6.30963E+00
 -1       848 3.18365E+00
 -1       849 2.81907E-01
 -1       850 2.79346E-01
 -1       851 3.13529E+00
 -1       852 6.20422E+00
 -1       853 8.46627E+00
 -1       854 2.63209E-01
 -1       855 5.73887E+00
 -1       856 2.88475E-01
 -1       857 2.40415E-01
 -1       858 7.98154E+00
 -1       859 2.75212E-01
 -1       860 9.55919E+00
 -1       861 5.63588E+00
 -1       862 6.87444E+00
 -1       863 6.99634E+00
 -1       864 8.67784E+00
 -1       865 3.18016E+00
 -1       866 2.89312E-01
 -1       867 7.02178E+00
 -1       868 2.81092E-01
 -1       869 8.67784E+00
 -1       870 4.81671E+00
 -1       871 1.83281E-01
 -1       872 1.76140E-01
 -1       873 1.60353E-01
 -1       874 1.40467E-01
 -1       875 1.23826E-01
 -1       876 1.06963E-01
 -1       877 8.95569E-02
 -1       878 7.25511E-02
 -1       879 5.62859E-02
 -1       880 4.06793E-02
 -1       881 3.94005E-02
 -1       882 4.35379E-02
 -1       883 6.36572E-02
 -1       884 9.70313E-02
 -1       885 1.39171E-01
 -1       886 1.92275E-01
 -1       887 2.58769E-01
 -1       888 3.41276E-01
 -1       889 4.42554E-01
 -1       890 5.65300E-01
 -1       891 7.11624E-01
 -1       892 8.81966E-01
 -1       893 1.09347E+00
 -1       894 1.43080E+00
 -1       895 2.06662E+00
 -1       896 4.22245E+00
 -1       897 5.77150E+00
 -1       898 4.74513E+00
 -1       899 2.85561E+00
 -1       900 2.32899E+00
 -1       901 9.69999E-02
 -1       902 4.38721E-02
 -1       903 3.32632E-02
 -1       904 3.60369E-02
 -1       905 5.39036E-02
 -1       906 8.41993E-02
 -1       907 1.23970E-01
 -1       908 1.73937E-01
 -1       909 2.36235E-01
 -1       910 3.12934E-01
 -1       911 4.05773E-01
 -1       912 5.15658E-01
 -1       913 6.41653E-01
 -1       914 7.78941E-01
 -1       915 9.83704E-01
 -1       916 1.26968E+00
 -1       917 1.70381E+00
 -1       918 2.25489E+00
 -1       919 2.96149E+00
 -1       920 4.56266E+00
 -1       921 4.86131E+00
 -1       922 6.96504E+00
 -1       923 2.10591E-01
 -1       924 4.81671E+00
 -1       925 1.76817E-01
 -1       926 1.16428E-01
 -1       927 4.63380E+00
 -1       928 6.06587E-02
 -1       929 2.89312E-01
 -1       930 1.97556E-01
 -1       931 7.83121E-02
 -1       932 1.76048E-01
 -1       933 1.63442E-01
 -1       934 1.38488E-01
 -1       935 5.43229E+00
 -1       936 4.63529E+00
 -1       937 2.16320E-01
 -1       938 3.63618E+00
 -1       939 2.18444E-01
 -1       940 3.71123E+00
 -1       941 1.35669E-01
 -1       942 2.06451E-01
 -1       943 5.13837E+00
 -1       944 1.53020E-01
 -1       945 5.77150E+00
 -1       946 2.05003E-01
 -1       947 2.16320E-01
 -1       948 2.10459E-01
 -1       949 4.45105E+00
 -1       950 1.56372E-01
 -1       951 1.35966E-01
 -1       952 1.27006E-01
 -1       953 1.13450E-01
 -1       954 9.84427E-02
 -1       955 8.56932E-02
 -1       956 7.22306E-02
 -1       957 5.89029E-02
 -1       958 4.67441E-02
 -1       959 4.75455E-02
 -1       960 5.13521E-02
 -1       961 5.87455E-02
 -1       962 8.31788E-02
 -1       963 1.18567E-01
 -1       964 1.63546E-01
 -1       965 2.20568E-01
 -1       966 2.92677E-01
 -1       967 3.83854E-01
 -1       968 4.99611E-01
 -1       969 6.47873E-01
 -1       970 8.39924E-01
 -1       971 1.09347E+00
 -1       972 1.43080E+00
 -1       973 1.93961E+00
 -1       974 3.91980E+00
 -1       975 1.84412E-01
 -1       976 2.18444E-01
 -1       977 5.21382E-02
 -1       978 4.62199E-02
 -1       979 4.35296E-02
 -1       980 7.59963E-02
 -1       981 1.10899E-01
 -1       982 1.55071E-01
 -1       983 2.10798E-01
 -1       984 2.80741E-01
 -1       985 3.68068E-01
 -1       986 4.76677E-01
 -1       987 6.11523E-01
 -1       988 7.78640E-01
 -1       989 9.83704E-01
 -1       990 1.23075E+00
 -1       991 1.63702E+00
 -1       992 2.69341E+00
 -1       993 3.25517E+00
 -1       994 1.24272E-01
 -1       995 1.36663E-01
 -1       996 4.26170E+00
 -1       997 1.47954E-01
 -1       998 1.50118E-01
 -1       999 3.86809E+00
 -1      1000 3.68147E+00
 -1      1001 1.41231E-01
 -1      1002 5.03135E-02
 -1      1003 1.52971E-01
 -1      1004 9.49651E-02
 -1      1005 5.77150E+00
 -1      1006 3.43546E+00
 -1      1007 1.26988E-01
 -1      1008 7.97419E-02
 -1      1009 6.47393E-02
 -1      1010 1.09479E-01
 -1      1011 1.62921E-01
 -1      1012 1.55722E-01
 -1      1013 1.25075E-01
 -1      1014 5.64212E-02
 -1      1015 9.81174E-02
 -1      1016 8.85899E-02
 -1      1017 7.70329E-02
 -1      1018 6.55307E-02
 -1      1019 5.56533E-02
 -1      1020 5.26702E-02
 -1      1021 5.20643E-02
 -1      1022 5.49112E-02
 -1      1023 6.14342E-02
 -1      1024 7.43466E-02
 -1      1025 9.39877E-02
 -1      1026 1.25799E-01
 -1      1027 1.69578E-01
 -1      1028 2.25588E-01
 -1      1029 2.97479E-01
 -1      1030 3.90739E-01
 -1      1031 5.14297E-01
 -1      1032 6.83844E-01
 -1      1033 9.18860E-01
 -1      1034 1.27440E+00
 -1      1035 2.04594E+00
 -1      1036 3.68147E+00
 -1      1037 6.67403E-02
 -1      1038 1.03607E-01
 -1      1039 5.13251E-02
 -1      1040 1.25419E-01
 -1      1041 1.70584E-01
 -1      1042 2.28109E-01
 -1      1043 3.01399E-01
 -1      1044 3.95251E-01
 -1      1045 5.16929E-01
 -1      1046 6.78311E-01
 -1      1047 8.99205E-01
 -1      1048 1.20271E+00
 -1      1049 1.63702E+00
 -1      1050 2.69341E+00
 -1      1051 8.96442E-02
 -1      1052 1.05851E-01
 -1      1053 9.00326E-02
 -1      1054 1.10711E-01
 -1      1055 4.96328E-02
 -1      1056 1.62921E-01
 -1      1057 9.55289E-02
 -1      1058 1.17626E-01
 -1      1059 1.02301E-01
 -1      1060 2.53355E+00
 -1      1061 1.17213E-01
 -1      1062 2.46334E+00
 -1      1063 1.08388E-01
 -1      1064 5.15718E-02
 -1      1065 8.61064E-02
 -1      1066 9.94596E-02
 -1      1067 1.11686E-01
 -1      1068 7.44130E-02
 -1      1069 8.62933E-02
 -1      1070 8.44208E-02
 -1      1071 7.81106E-02
 -1      1072 6.86738E-02
 -1      1073 5.90715E-02
 -1      1074 7.23200E-02
 -1      1075 5.26702E-02
 -1      1076 5.49112E-02
 -1      1077 6.14342E-02
 -1      1078 7.43466E-02
 -1      1079 9.39877E-02
 -1      1080 1.20411E-01
 -1      1081 1.54898E-01
 -1      1082 1.99045E-01
 -1      1083 2.54987E-01
 -1      1084 3.27728E-01
 -1      1085 4.22350E-01
 -1      1086 5.47386E-01
 -1      1087 7.15011E-01
 -1      1088 1.00237E+00
 -1      1089 1.44030E+00
 -1      1090 2.29752E-01
 -1      1091 5.64212E-02
 -1      1092 1.78908E-01
 -1      1093 1.38820E-01
 -1      1094 2.93823E-01
 -1      1095 3.77340E-01
 -1      1096 4.99953E-01
 -1      1097 6.71583E-01
 -1      1098 9.35843E-01
 -1      1099 1.24736E+00
 -1      1100 1.78893E+00
 -1      1101 1.07678E-01
 -1      1102 9.42213E-02
 -1      1103 6.53987E-02
 -1      1104 8.40518E-02
 -1      1105 8.44208E-02
 -1      1106 1.11686E-01
 -1      1107 6.28442E-02
 -1      1108 5.13251E-02
 -1      1109 8.62933E-02
 -1      1110 6.67403E-02
 -1      1111 8.39384E-02
 -1      1112 8.78323E-02
 -1      1113 7.23200E-02
 -1      1114 9.42213E-02
 -1      1115 7.81106E-02
 -1      1116 5.37540E-02
 -1      1117 9.42213E-02
 -1      1118 7.23200E-02
 -1      1119 6.86738E-02
 -1      1120 6.96193E-02
 -1      1121 1.31441E+01
 -1      1122 8.40392E+00
 -1      1123 2.74430E+00
 -1      1124 1.55698E+00
 -1      1125 1.16767E+00
 -1      1126 9.73108E-01
 -1      1127 8.54447E-01
 -1      1128 7.81524E-01
 -1      1129 7.55080E-01
 -1      1130 7.84641E-01
 -1      1131 8.57030E-01
 -1      1132 9.76681E-01
 -1      1133 1.18007E+00
 -1      1134 1.57160E+00
 -1      1135 2.67054E+00
 -1      1136 6.07371E+00
 -1      1137 1.13409E+01
 -1      1138 1.31441E+01
 -1      1139 8.73115E+00
 -1      1140 3.82979E+00
 -1      1141 2.72677E+00
 -1      1142 1.73785E+00
 -1      1143 1.18909E+00
 -1      1144 8.95209E-01
 -1      1145 6.86126E-01
 -1      1146 5.26575E-01
 -1      1147 4.03281E-01
 -1      1148 3.10841E-01
 -1      1149 2.40758E-01
 -1      1150 1.85433E-01
 -1      1151 1.42898E-01
 -1      1152 1.11314E-01
 -1      1153 8.90242E-02
 -1      1154 7.45715E-02
 -1      1155 7.05734E-02
 -1      1156 7.72369E-02
 -1      1157 8.94955E-02
 -1      1158 1.11490E-01
 -1      1159 1.47155E-01
 -1      1160 1.94348E-01
 -1      1161 2.53264E-01
 -1      1162 3.23552E-01
 -1      1163 4.03039E-01
 -1      1164 4.86558E-01
 -1      1165 5.94533E-01
 -1      1166 7.49753E-01
 -1      1167 9.45071E-01
 -1      1168 1.16121E+00
 -1      1169 1.34176E+00
 -1      1170 1.41234E+00
 -1      1171 1.45812E+00
 -1      1172 1.50389E+00
 -1      1173 1.73318E+00
 -1      1174 2.53200E+00
 -1      1175 3.72474E+00
 -1      1176 4.38410E+00
 -1      1177 4.42025E+00
 -1      1178 4.36699E+00
 -1      1179 3.79477E+00
 -1      1180 2.52273E+00
 -1      1181 1.42231E+00
 -1      1182 9.67058E-01
 -1      1183 8.59140E-01
 -1      1184 8.50617E-01
 -1      1185 8.32549E-01
 -1      1186 7.62282E-01
 -1      1187 4.27309E-01
 -1      1188 1.40399E+01
 -1      1189 8.71742E+00
 -1      1190 2.90425E+00
 -1      1191 2.03994E+00
 -1      1192 1.40589E+00
 -1      1193 1.02571E+00
 -1      1194 8.18776E-01
 -1      1195 6.59939E-01
 -1      1196 5.28790E-01
 -1      1197 4.19816E-01
 -1      1198 3.33572E-01
 -1      1199 2.66416E-01
 -1      1200 2.11369E-01
 -1      1201 1.67203E-01
 -1      1202 1.33154E-01
 -1      1203 1.08366E-01
 -1      1204 9.20099E-02
 -1      1205 8.79376E-02
 -1      1206 9.73138E-02
 -1      1207 1.15243E-01
 -1      1208 1.39600E-01
 -1      1209 1.69519E-01
 -1      1210 2.03485E-01
 -1      1211 2.52484E-01
 -1      1212 3.20912E-01
 -1      1213 3.98714E-01
 -1      1214 4.79818E-01
 -1      1215 5.54420E-01
 -1      1216 6.06622E-01
 -1      1217 6.59203E-01
 -1      1218 8.02487E-01
 -1      1219 1.00514E+00
 -1      1220 1.14494E+00
 -1      1221 1.36984E+00
 -1      1222 1.59350E+00
 -1      1223 1.78185E+00
 -1      1224 2.08102E+00
 -1      1225 2.79001E+00
 -1      1226 3.53129E+00
 -1      1227 3.88496E+00
 -1      1228 4.05082E+00
 -1      1229 3.71085E+00
 -1      1230 2.71583E+00
 -1      1231 1.54774E+00
 -1      1232 9.57340E-01
 -1      1233 8.79986E-01
 -1      1234 8.54637E-01
 -1      1235 8.03033E-01
 -1      1236 6.29949E-01
 -1      1237 3.02765E-01
 -1      1238 2.04763E-01
 -1      1239 2.90034E-01
 -1      1240 2.92955E-01
 -1      1241 2.79669E-01
 -1      1242 2.28501E-01
 -1      1243 2.02230E-01
 -1      1244 3.17001E-01
 -1      1245 4.61665E-01
 -1      1246 5.03170E-01
 -1      1247 4.66380E-01
 -1      1248 3.27671E-01
 -1      1249 2.05430E-01
 -1      1250 2.26122E-01
 -1      1251 2.78411E-01
 -1      1252 3.54927E-01
 -1      1253 4.31458E-01
 -1      1254 2.97902E-01
 -1      1255 2.49913E+01
 -1      1256 2.80323E+01
 -1      1257 3.10732E+01
 -1      1258 2.80002E+01
 -1      1259 1.83072E+01
 -1      1260 1.20946E+01
 -1      1261 1.25022E+01
 -1      1262 1.23030E+01
 -1      1263 1.20588E+01
 -1      1264 1.19915E+01
 -1      1265 1.39615E+01
 -1      1266 2.83492E+01
 -1      1267 4.07444E+01
 -1      1268 3.23998E+01
 -1      1269 2.40017E+01
 -1      1270 2.42506E+01
 -1      1271 2.50377E+01
 -1      1272 3.09892E+01
 -1      1273 3.64561E+01
 -1      1274 2.51206E+01
 -1      1275 1.29458E+01
 -1      1276 1.21066E+01
 -1      1277 1.20920E+01
 -1      1278 1.20453E+01
 -1      1279 1.20131E+01
 -1      1280 1.64446E+01
 -1      1281 3.46965E+01
 -1      1282 4.85170E+01
 -1      1283 3.64215E+01
 -1      1284 2.46587E+01
 -1      1285 1.31441E+01
 -1      1286 4.87080E+00
 -1      1287 9.61102E+00
 -1      1288 2.06181E+00
 -1      1289 2.98122E+00
 -1      1290 4.18832E+00
 -1      1291 1.39828E+00
 -1      1292 1.66619E+00
 -1      1293 1.90312E+00
 -1      1294 1.10205E+00
 -1      1295 1.22345E+00
 -1      1296 1.33267E+00
 -1      1297 9.36736E-01
 -1      1298 1.00990E+00
 -1      1299 1.06568E+00
 -1      1300 8.36790E-01
 -1      1301 8.82291E-01
 -1      1302 9.19079E-01
 -1      1303 7.75139E-01
 -1      1304 8.02561E-01
 -1      1305 8.30405E-01
 -1      1306 7.56058E-01
 -1      1307 7.55080E-01
 -1      1308 7.76117E-01
 -1      1309 8.06415E-01
 -1      1310 7.77832E-01
 -1      1311 7.77832E-01
 -1      1312 8.84066E-01
 -1      1313 8.40261E-01
 -1      1314 8.33452E-01
 -1      1315 1.01676E+00
 -1      1316 9.40910E-01
 -1      1317 9.24142E-01
 -1      1318 1.24000E+00
 -1      1319 1.11246E+00
 -1      1320 1.07668E+00
 -1      1321 1.68149E+00
 -1      1322 1.41751E+00
 -1      1323 1.34989E+00
 -1      1324 2.88307E+00
 -1      1325 2.04811E+00
 -1      1326 1.89402E+00
 -1      1327 6.28656E+00
 -1      1328 3.71835E+00
 -1      1329 3.09592E+00
 -1      1330 1.40399E+01
 -1      1331 1.13409E+01
 -1      1332 8.98553E+00
 -1      1333 1.40399E+01
 -1      1334 8.73115E+00
 -1      1335 4.31816E+00
 -1      1336 3.82979E+00
 -1      1337 3.34143E+00
 -1      1338 3.82979E+00
 -1      1339 2.72677E+00
 -1      1340 2.11211E+00
 -1      1341 2.72677E+00
 -1      1342 1.78007E+00
 -1      1343 1.40582E+00
 -1      1344 1.78007E+00
 -1      1345 1.19508E+00
 -1      1346 1.02057E+00
 -1      1347 1.23730E+00
 -1      1348 8.95209E-01
 -1      1349 7.75843E-01
 -1      1350 9.01205E-01
 -1      1351 6.86126E-01
 -1      1352 5.96409E-01
 -1      1353 6.86126E-01
 -1      1354 5.32951E-01
 -1      1355 4.63116E-01
 -1      1356 5.32951E-01
 -1      1357 4.13404E-01
 -1      1358 3.59945E-01
 -1      1359 4.19780E-01
 -1      1360 3.21150E-01
 -1      1361 2.82169E-01
 -1      1362 3.31273E-01
 -1      1363 2.54200E-01
 -1      1364 2.23099E-01
 -1      1365 2.64509E-01
 -1      1366 1.99517E-01
 -1      1367 1.75292E-01
 -1      1368 2.12958E-01
 -1      1369 1.56009E-01
 -1      1370 1.37698E-01
 -1      1371 1.70092E-01
 -1      1372 1.22387E-01
 -1      1373 1.09113E-01
 -1      1374 1.35498E-01
 -1      1375 9.73241E-02
 -1      1376 8.83087E-02
 -1      1377 1.08398E-01
 -1      1378 7.95303E-02
 -1      1379 7.40929E-02
 -1      1380 8.78301E-02
 -1      1381 6.77803E-02
 -1      1382 6.92197E-02
 -1      1383 7.27391E-02
 -1      1384 7.20128E-02
 -1      1385 7.72369E-02
 -1      1386 6.92197E-02
 -1      1387 8.24610E-02
 -1      1388 8.94955E-02
 -1      1389 7.72369E-02
 -1      1390 1.00648E-01
 -1      1391 1.15608E-01
 -1      1392 9.36137E-02
 -1      1393 1.31138E-01
 -1      1394 1.51843E-01
 -1      1395 1.20296E-01
 -1      1396 1.71719E-01
 -1      1397 1.98206E-01
 -1      1398 1.55702E-01
 -1      1399 2.22547E-01
 -1      1400 2.54975E-01
 -1      1401 1.99918E-01
 -1      1402 2.85691E-01
 -1      1403 3.23552E-01
 -1      1404 2.54975E-01
 -1      1405 3.69451E-01
 -1      1406 4.11078E-01
 -1      1407 3.31590E-01
 -1      1408 4.70776E-01
 -1      1409 5.12668E-01
 -1      1410 4.37187E-01
 -1      1411 5.79303E-01
 -1      1412 6.45386E-01
 -1      1413 5.63521E-01
 -1      1414 7.13114E-01
 -1      1415 8.02252E-01
 -1      1416 6.97884E-01
 -1      1417 8.60768E-01
 -1      1418 9.66948E-01
 -1      1419 8.24129E-01
 -1      1420 1.05125E+00
 -1      1421 1.16121E+00
 -1      1422 9.66948E-01
 -1      1423 1.27117E+00
 -1      1424 1.34176E+00
 -1      1425 1.16121E+00
 -1      1426 1.41234E+00
 -1      1427 1.41234E+00
 -1      1428 1.34176E+00
 -1      1429 1.38958E+00
 -1      1430 1.43535E+00
 -1      1431 1.38958E+00
 -1      1432 1.50389E+00
 -1      1433 1.50389E+00
 -1      1434 1.43535E+00
 -1      1435 1.44922E+00
 -1      1436 1.67851E+00
 -1      1437 1.44922E+00
 -1      1438 1.96247E+00
 -1      1439 2.53200E+00
 -1      1440 1.67851E+00
 -1      1441 3.10153E+00
 -1      1442 3.72474E+00
 -1      1443 2.53200E+00
 -1      1444 4.34796E+00
 -1      1445 4.38410E+00
 -1      1446 3.72474E+00
 -1      1447 4.42025E+00
 -1      1448 4.42025E+00
 -1      1449 4.38410E+00
 -1      1450 4.36699E+00
 -1      1451 4.31373E+00
 -1      1452 4.36699E+00
 -1      1453 3.79477E+00
 -1      1454 3.27581E+00
 -1      1455 3.79477E+00
 -1      1456 2.69824E+00
 -1      1457 1.94516E+00
 -1      1458 2.69824E+00
 -1      1459 1.51134E+00
 -1      1460 1.16400E+00
 -1      1461 1.68684E+00
 -1      1462 9.24917E-01
 -1      1463 8.16998E-01
 -1      1464 1.01394E+00
 -1      1465 8.59140E-01
 -1      1466 8.59140E-01
 -1      1467 8.16998E-01
 -1      1468 8.50617E-01
 -1      1469 8.42094E-01
 -1      1470 8.50617E-01
 -1      1471 8.32549E-01
 -1      1472 8.23005E-01
 -1      1473 8.32549E-01
 -1      1474 7.62282E-01
 -1      1475 7.01560E-01
 -1      1476 7.62282E-01
 -1      1477 5.72154E-01
 -1      1478 5.72154E-01
 -1      1479 3.39498E+00
 -1      1480 8.71742E+00
 -1      1481 8.71742E+00
 -1      1482 2.41351E+00
 -1      1483 2.90425E+00
 -1      1484 2.90425E+00
 -1      1485 1.66638E+00
 -1      1486 2.03994E+00
 -1      1487 2.03994E+00
 -1      1488 1.14540E+00
 -1      1489 1.40589E+00
 -1      1490 1.40589E+00
 -1      1491 9.06022E-01
 -1      1492 1.02571E+00
 -1      1493 1.02571E+00
 -1      1494 7.31529E-01
 -1      1495 8.18776E-01
 -1      1496 8.18776E-01
 -1      1497 5.88349E-01
 -1      1498 6.59939E-01
 -1      1499 6.59939E-01
 -1      1500 4.69231E-01
 -1      1501 5.28790E-01
 -1      1502 5.28790E-01
 -1      1503 3.70400E-01
 -1      1504 4.19816E-01
 -1      1505 4.19816E-01
 -1      1506 2.96744E-01
 -1      1507 3.33572E-01
 -1      1508 3.33572E-01
 -1      1509 2.36088E-01
 -1      1510 2.66416E-01
 -1      1511 2.66416E-01
 -1      1512 1.87839E-01
 -1      1513 2.12558E-01
 -1      1514 2.12558E-01
 -1      1515 1.49701E-01
 -1      1516 1.69148E-01
 -1      1517 1.70337E-01
 -1      1518 1.20527E-01
 -1      1519 1.35128E-01
 -1      1520 1.37074E-01
 -1      1521 9.95933E-02
 -1      1522 1.09780E-01
 -1      1523 1.11754E-01
 -1      1524 8.61754E-02
 -1      1525 9.23446E-02
 -1      1526 9.37588E-02
 -1      1527 8.69232E-02
 -1      1528 8.48263E-02
 -1      1529 8.51610E-02
 -1      1530 9.86223E-02
 -1      1531 9.13430E-02
 -1      1532 8.82317E-02
 -1      1533 1.16314E-01
 -1      1534 1.05663E-01
 -1      1535 9.96925E-02
 -1      1536 1.39600E-01
 -1      1537 1.25894E-01
 -1      1538 1.16314E-01
 -1      1539 1.69593E-01
 -1      1540 1.53379E-01
 -1      1541 1.39673E-01
 -1      1542 2.09561E-01
 -1      1543 1.91809E-01
 -1      1544 1.75669E-01
 -1      1545 2.67478E-01
 -1      1546 2.36230E-01
 -1      1547 2.24554E-01
 -1      1548 3.35115E-01
 -1      1549 2.97936E-01
 -1      1550 2.81681E-01
 -1      1551 4.08350E-01
 -1      1552 3.67727E-01
 -1      1553 3.44751E-01
 -1      1554 4.81054E-01
 -1      1555 4.40572E-01
 -1      1556 4.09585E-01
 -1      1557 5.54420E-01
 -1      1558 5.20300E-01
 -1      1559 4.81054E-01
 -1      1560 6.06622E-01
 -1      1561 5.88540E-01
 -1      1562 5.54420E-01
 -1      1563 6.59203E-01
 -1      1564 6.24703E-01
 -1      1565 6.06622E-01
 -1      1566 8.43138E-01
 -1      1567 7.34353E-01
 -1      1568 6.99854E-01
 -1      1569 1.00514E+00
 -1      1570 9.11272E-01
 -1      1571 8.43138E-01
 -1      1572 1.14494E+00
 -1      1573 1.09901E+00
 -1      1574 1.00514E+00
 -1      1575 1.36984E+00
 -1      1576 1.19087E+00
 -1      1577 1.14494E+00
 -1      1578 1.59350E+00
 -1      1579 1.54881E+00
 -1      1580 1.36984E+00
 -1      1581 1.78185E+00
 -1      1582 1.63818E+00
 -1      1583 1.59350E+00
 -1      1584 2.08102E+00
 -1      1585 1.92551E+00
 -1      1586 1.78185E+00
 -1      1587 2.85166E+00
 -1      1588 2.29818E+00
 -1      1589 2.14267E+00
 -1      1590 3.53129E+00
 -1      1591 3.34348E+00
 -1      1592 2.85166E+00
 -1      1593 3.88496E+00
 -1      1594 3.71910E+00
 -1      1595 3.53129E+00
 -1      1596 4.05082E+00
 -1      1597 4.05082E+00
 -1      1598 3.88496E+00
 -1      1599 3.37087E+00
 -1      1600 3.71085E+00
 -1      1601 3.71085E+00
 -1      1602 2.06079E+00
 -1      1603 2.71583E+00
 -1      1604 2.71583E+00
 -1      1605 1.04271E+00
 -1      1606 1.55575E+00
 -1      1607 1.55575E+00
 -1      1608 7.50132E-01
 -1      1609 8.27485E-01
 -1      1610 8.35497E-01
 -1      1611 8.79986E-01
 -1      1612 8.79986E-01
 -1      1613 7.50132E-01
 -1      1614 8.29288E-01
 -1      1615 8.54637E-01
 -1      1616 8.54637E-01
 -1      1617 7.76779E-01
 -1      1618 8.03033E-01
 -1      1619 8.03033E-01
 -1      1620 4.98668E-01
 -1      1621 6.45498E-01
 -1      1622 6.45498E-01
 -1      1623 3.85116E-01
 -1      1624 3.43709E-01
 -1      1625 3.40787E-01
 -1      1626 3.95295E-01
 -1      1627 3.95295E-01
 -1      1628 4.46049E-01
 -1      1629 3.82010E-01
 -1      1630 3.95295E-01
 -1      1631 4.97635E-01
 -1      1632 3.34860E-01
 -1      1633 3.72743E-01
 -1      1634 4.88369E-01
 -1      1635 2.73350E-01
 -1      1636 2.61738E-01
 -1      1637 4.05980E-01
 -1      1638 5.63823E-01
 -1      1639 4.60664E-01
 -1      1640 5.20173E-01
 -1      1641 7.36660E-01
 -1      1642 6.95155E-01
 -1      1643 8.38819E-01
 -1      1644 7.38932E-01
 -1      1645 7.38932E-01
 -1      1646 9.72422E-01
 -1      1647 7.02142E-01
 -1      1648 7.38932E-01
 -1      1649 9.74695E-01
 -1      1650 4.77412E-01
 -1      1651 5.79331E-01
 -1      1652 8.51884E-01
 -1      1653 2.72542E-01
 -1      1654 2.92863E-01
 -1      1655 5.44524E-01
 -1      1656 3.72596E-01
 -1      1657 3.31582E-01
 -1      1658 4.19015E-01
 -1      1659 3.99790E-01
 -1      1660 3.88515E-01
 -1      1661 4.93975E-01
 -1      1662 4.65032E-01
 -1      1663 3.99790E-01
 -1      1664 5.09894E-01
 -1      1665 4.78139E-01
 -1      1666 4.66850E-01
 -1      1667 5.11712E-01
 -1      1668 6.07545E-01
 -1      1669 2.84214E+01
 -1      1670 2.84214E+01
 -1      1671 3.11497E+01
 -1      1672 2.81088E+01
 -1      1673 3.11497E+01
 -1      1674 3.11497E+01
 -1      1675 2.58694E+01
 -1      1676 2.89423E+01
 -1      1677 1.16871E+01
 -1      1678 1.83072E+01
 -1      1679 1.20486E+01
 -1      1680 1.16411E+01
 -1      1681 1.25022E+01
 -1      1682 1.25022E+01
 -1      1683 1.21039E+01
 -1      1684 1.23030E+01
 -1      1685 1.20138E+01
 -1      1686 1.20588E+01
 -1      1687 1.19692E+01
 -1      1688 1.19915E+01
 -1      1689 1.36189E+01
 -1      1690 1.16266E+01
 -1      1691 2.84255E+01
 -1      1692 1.60302E+01
 -1      1693 4.07444E+01
 -1      1694 4.07444E+01
 -1      1695 2.94339E+01
 -1      1696 3.77785E+01
 -1      1697 2.51459E+01
 -1      1698 2.51993E+01
 -1      1699 2.54832E+01
 -1      1700 2.51809E+01
 -1      1701 2.59679E+01
 -1      1702 2.54832E+01
 -1      1703 3.51480E+01
 -1      1704 2.96811E+01
 -1      1705 3.64561E+01
 -1      1706 3.64561E+01
 -1      1707 1.37851E+01
 -1      1708 2.51206E+01
 -1      1709 1.17365E+01
 -1      1710 1.25758E+01
 -1      1711 1.21066E+01
 -1      1712 1.21066E+01
 -1      1713 1.20774E+01
 -1      1714 1.20920E+01
 -1      1715 1.20028E+01
 -1      1716 1.20349E+01
 -1      1717 1.20131E+01
 -1      1718 1.20131E+01
 -1      1719 1.63231E+01
 -1      1720 1.18917E+01
 -1      1721 3.55912E+01
 -1      1722 2.17707E+01
 -1      1723 4.85170E+01
 -1      1724 4.85170E+01
 -1      1725 2.74840E+01
 -1      1726 3.95795E+01
 -1      1727 2.84214E+01
 -1      1728 2.80887E+01
 -1      1729 1.92493E+01
 -1      1730 2.90189E+01
 -1      1731 4.00665E-01
 -1      1732 4.54339E-01
 -1      1733 3.15389E+01
 -1      1734 3.12263E+01
 -1      1735 3.18514E+01
 -1      1736 1.16411E+01
 -1      1737 1.20486E+01
 -1      1738 1.23030E+01
 -1      1739 1.20588E+01
 -1      1740 1.19915E+01
 -1      1741 1.16266E+01
 -1      1742 1.36952E+01
 -1      1743 2.84255E+01
 -1      1744 3.77785E+01
 -1      1745 3.05781E+01
 -1      1746 2.63785E+01
 -1      1747 2.64135E+01
 -1      1748 3.01267E+01
 -1      1749 3.51480E+01
 -1      1750 2.51206E+01
 -1      1751 1.25758E+01
 -1      1752 1.17365E+01
 -1      1753 1.20920E+01
 -1      1754 1.20349E+01
 -1      1755 1.20028E+01
 -1      1756 1.18917E+01
 -1      1757 1.72178E+01
 -1      1758 3.55912E+01
 -1      1759 3.95795E+01
 -1      1760 3.12467E+01
 -1      1761 9.61102E+00
 -1      1762 1.27774E+00
 -1      1763 1.67336E+00
 -1      1764 2.38934E+00
 -1      1765 4.27893E+00
 -1      1766 1.76397E+00
 -1      1767 8.84336E-01
 -1      1768 9.76494E-01
 -1      1769 7.79787E-01
 -1      1770 8.34232E-01
 -1      1771 7.45044E-01
 -1      1772 7.14040E-01
 -1      1773 7.48268E-01
 -1      1774 6.63422E-01
 -1      1775 6.71911E-01
 -1      1776 6.91970E-01
 -1      1777 6.09833E-01
 -1      1778 6.95275E-01
 -1      1779 6.73502E-01
 -1      1780 5.89355E-01
 -1      1781 7.50929E-01
 -1      1782 7.17083E-01
 -1      1783 6.12753E-01
 -1      1784 8.41104E-01
 -1      1785 7.84260E-01
 -1      1786 6.67891E-01
 -1      1787 9.84370E-01
 -1      1788 8.88671E-01
 -1      1789 7.48789E-01
 -1      1790 1.22955E+00
 -1      1791 1.05204E+00
 -1      1792 8.64027E-01
 -1      1793 1.71027E+00
 -1      1794 1.34365E+00
 -1      1795 1.04580E+00
 -1      1796 2.63008E+00
 -1      1797 1.79479E+00
 -1      1798 1.24442E+00
 -1      1799 8.12045E+00
 -1      1800 3.06613E+00
 -1      1801 1.76500E+00
 -1      1802 2.79802E+00
 -1      1803 5.19803E+00
 -1      1804 2.16407E+00
 -1      1805 2.65481E+00
 -1      1806 2.05785E+00
 -1      1807 3.39906E+00
 -1      1808 2.53568E+00
 -1      1809 1.92102E+00
 -1      1810 1.69015E+00
 -1      1811 1.35812E+00
 -1      1812 1.49907E+00
 -1      1813 1.17807E+00
 -1      1814 9.67343E-01
 -1      1815 1.08816E+00
 -1      1816 8.41935E-01
 -1      1817 7.16573E-01
 -1      1818 7.82712E-01
 -1      1819 6.57672E-01
 -1      1820 5.67955E-01
 -1      1821 5.98403E-01
 -1      1822 5.19598E-01
 -1      1823 4.56140E-01
 -1      1824 4.91144E-01
 -1      1825 4.13638E-01
 -1      1826 3.63925E-01
 -1      1827 4.00286E-01
 -1      1828 3.31408E-01
 -1      1829 2.92613E-01
 -1      1830 3.25266E-01
 -1      1831 2.65339E-01
 -1      1832 2.37371E-01
 -1      1833 2.65475E-01
 -1      1834 2.14067E-01
 -1      1835 1.90484E-01
 -1      1836 2.14897E-01
 -1      1837 1.72506E-01
 -1      1838 1.53223E-01
 -1      1839 1.73615E-01
 -1      1840 1.38818E-01
 -1      1841 1.23506E-01
 -1      1842 1.41232E-01
 -1      1843 1.11399E-01
 -1      1844 9.96102E-02
 -1      1845 1.14719E-01
 -1      1846 8.96084E-02
 -1      1847 8.08299E-02
 -1      1848 9.26099E-02
 -1      1849 7.27391E-02
 -1      1850 6.64266E-02
 -1      1851 7.45173E-02
 -1      1852 6.40563E-02
 -1      1853 6.68495E-02
 -1      1854 6.40563E-02
 -1      1855 6.88710E-02
 -1      1856 7.40951E-02
 -1      1857 6.37076E-02
 -1      1858 8.20777E-02
 -1      1859 9.32305E-02
 -1      1860 7.37118E-02
 -1      1861 1.04766E-01
 -1      1862 1.20296E-01
 -1      1863 9.32305E-02
 -1      1864 1.35826E-01
 -1      1865 1.55702E-01
 -1      1866 1.20296E-01
 -1      1867 1.83630E-01
 -1      1868 2.07971E-01
 -1      1869 1.63755E-01
 -1      1870 2.44207E-01
 -1      1871 2.74923E-01
 -1      1872 2.27919E-01
 -1      1873 3.19347E-01
 -1      1874 3.65245E-01
 -1      1875 3.08578E-01
 -1      1876 4.17636E-01
 -1      1877 4.77335E-01
 -1      1878 4.05393E-01
 -1      1879 5.35905E-01
 -1      1880 6.02540E-01
 -1      1881 5.16354E-01
 -1      1882 6.63008E-01
 -1      1883 7.30736E-01
 -1      1884 6.35392E-01
 -1      1885 7.85263E-01
 -1      1886 8.43779E-01
 -1      1887 7.50386E-01
 -1      1888 8.92386E-01
 -1      1889 9.76689E-01
 -1      1890 8.53520E-01
 -1      1891 1.03257E+00
 -1      1892 1.14253E+00
 -1      1893 9.58008E-01
 -1      1894 1.17501E+00
 -1      1895 1.24559E+00
 -1      1896 1.04637E+00
 -1      1897 1.20972E+00
 -1      1898 1.18695E+00
 -1      1899 1.04297E+00
 -1      1900 1.08405E+00
 -1      1901 1.15259E+00
 -1      1902 9.04194E-01
 -1      1903 1.18664E+00
 -1      1904 1.13197E+00
 -1      1905 8.35347E-01
 -1      1906 1.35112E+00
 -1      1907 1.63509E+00
 -1      1908 1.08855E+00
 -1      1909 1.96796E+00
 -1      1910 2.53749E+00
 -1      1911 1.64058E+00
 -1      1912 2.84123E+00
 -1      1913 3.46444E+00
 -1      1914 2.27719E+00
 -1      1915 3.56871E+00
 -1      1916 3.60485E+00
 -1      1917 2.68519E+00
 -1      1918 3.52582E+00
 -1      1919 3.47256E+00
 -1      1920 2.71042E+00
 -1      1921 3.44654E+00
 -1      1922 2.92758E+00
 -1      1923 2.60537E+00
 -1      1924 2.67536E+00
 -1      1925 2.09779E+00
 -1      1926 2.32713E+00
 -1      1927 1.88467E+00
 -1      1928 1.45085E+00
 -1      1929 1.86179E+00
 -1      1930 1.26502E+00
 -1      1931 1.02594E+00
 -1      1932 1.46285E+00
 -1      1933 8.58205E-01
 -1      1934 9.00346E-01
 -1      1935 1.10929E+00
 -1      1936 8.46634E-01
 -1      1937 8.38111E-01
 -1      1938 8.87840E-01
 -1      1939 7.48413E-01
 -1      1940 7.38868E-01
 -1      1941 7.44430E-01
 -1      1942 7.69457E-01
 -1      1943 7.08735E-01
 -1      1944 6.14720E-01
 -1      1945 6.85321E-01
 -1      1946 1.39861E+00
 -1      1947 1.77217E+00
 -1      1948 1.52273E+00
 -1      1949 1.01871E+00
 -1      1950 1.27920E+00
 -1      1951 1.01143E+00
 -1      1952 8.05388E-01
 -1      1953 9.25078E-01
 -1      1954 7.98389E-01
 -1      1955 6.38872E-01
 -1      1956 7.26118E-01
 -1      1957 6.25484E-01
 -1      1958 5.13588E-01
 -1      1959 5.85178E-01
 -1      1960 4.92521E-01
 -1      1961 4.20954E-01
 -1      1962 4.80513E-01
 -1      1963 4.05752E-01
 -1      1964 3.39905E-01
 -1      1965 3.89321E-01
 -1      1966 3.41044E-01
 -1      1967 2.75501E-01
 -1      1968 3.12329E-01
 -1      1969 2.81834E-01
 -1      1970 2.22808E-01
 -1      1971 2.53136E-01
 -1      1972 2.31893E-01
 -1      1973 1.79771E-01
 -1      1974 2.03301E-01
 -1      1975 1.90021E-01
 -1      1976 1.44658E-01
 -1      1977 1.63349E-01
 -1      1978 1.54091E-01
 -1      1979 1.17538E-01
 -1      1980 1.32111E-01
 -1      1981 1.25122E-01
 -1      1982 9.73318E-02
 -1      1983 1.08078E-01
 -1      1984 1.03115E-01
 -1      1985 8.34595E-02
 -1      1986 9.07081E-02
 -1      1987 8.70324E-02
 -1      1988 7.84812E-02
 -1      1989 7.98303E-02
 -1      1990 7.67796E-02
 -1      1991 8.38813E-02
 -1      1992 7.94615E-02
 -1      1993 7.41308E-02
 -1      1994 9.44803E-02
 -1      1995 8.74393E-02
 -1      1996 7.86691E-02
 -1      1997 1.13602E-01
 -1      1998 1.04022E-01
 -1      1999 9.17687E-02
 -1      2000 1.41475E-01
 -1      2001 1.27695E-01
 -1      2002 1.15404E-01
 -1      2003 1.82246E-01
 -1      2004 1.60030E-01
 -1      2005 1.48052E-01
 -1      2006 2.42965E-01
 -1      2007 2.16296E-01
 -1      2008 2.00657E-01
 -1      2009 3.15875E-01
 -1      2010 2.85417E-01
 -1      2011 2.77159E-01
 -1      2012 3.99404E-01
 -1      2013 3.66793E-01
 -1      2014 3.70528E-01
 -1      2015 4.89618E-01
 -1      2016 4.57396E-01
 -1      2017 4.79437E-01
 -1      2018 5.90163E-01
 -1      2019 5.50917E-01
 -1      2020 5.98728E-01
 -1      2021 6.81629E-01
 -1      2022 6.47509E-01
 -1      2023 7.17372E-01
 -1      2024 7.48958E-01
 -1      2025 7.30876E-01
 -1      2026 8.23964E-01
 -1      2027 8.62228E-01
 -1      2028 7.87078E-01
 -1      2029 9.11332E-01
 -1      2030 9.30362E-01
 -1      2031 8.62228E-01
 -1      2032 9.49452E-01
 -1      2033 1.01650E+00
 -1      2034 9.22631E-01
 -1      2035 9.41721E-01
 -1      2036 9.79401E-01
 -1      2037 9.33472E-01
 -1      2038 8.50959E-01
 -1      2039 1.14222E+00
 -1      2040 9.63254E-01
 -1      2041 7.51783E-01
 -1      2042 1.33496E+00
 -1      2043 1.29027E+00
 -1      2044 8.83685E-01
 -1      2045 1.86516E+00
 -1      2046 1.72149E+00
 -1      2047 1.41827E+00
 -1      2048 2.29229E+00
 -1      2049 2.07513E+00
 -1      2050 2.01477E+00
 -1      2051 2.79856E+00
 -1      2052 2.30674E+00
 -1      2053 2.23919E+00
 -1      2054 2.93548E+00
 -1      2055 2.74767E+00
 -1      2056 2.20275E+00
 -1      2057 3.16485E+00
 -1      2058 2.99899E+00
 -1      2059 2.21536E+00
 -1      2060 2.77576E+00
 -1      2061 3.11574E+00
 -1      2062 2.22976E+00
 -1      2063 1.82369E+00
 -1      2064 2.47873E+00
 -1      2065 1.88362E+00
 -1      2066 1.12251E+00
 -1      2067 1.62755E+00
 -1      2068 1.39045E+00
 -1      2069 7.30646E-01
 -1      2070 9.45865E-01
 -1      2071 1.01766E+00
 -1      2072 8.08685E-01
 -1      2073 6.78830E-01
 -1      2074 7.89199E-01
 -1      2075 7.74086E-01
 -1      2076 7.99436E-01
 -1      2077 7.28134E-01
 -1      2078 7.00023E-01
 -1      2079 7.26278E-01
 -1      2080 6.71076E-01
 -1      2081 5.14217E-01
 -1      2082 6.45498E-01
 -1      2083 5.68742E-01
 -1      2084 4.54339E-01
 -1      2085 5.76364E-01
 -1      2086 5.85630E-01
 -1      2087 5.85630E-01
 -1      2088 5.85630E-01
 -1      2089 6.73625E-01
 -1      2090 5.54836E-01
 -1      2091 5.03250E-01
 -1      2092 5.63127E-01
 -1      2093 6.42832E-01
 -1      2094 4.98791E-01
 -1      2095 5.71913E-01
 -1      2096 6.69175E-01
 -1      2097 7.84386E-01
 -1      2098 5.97072E-01
 -1      2099 7.63004E-01
 -1      2100 1.18328E+00
 -1      2101 1.05195E+00
 -1      2102 1.12885E+00
 -1      2103 1.21974E+00
 -1      2104 1.21747E+00
 -1      2105 1.43060E+00
 -1      2106 1.21974E+00
 -1      2107 1.21974E+00
 -1      2108 1.46479E+00
 -1      2109 1.07414E+00
 -1      2110 1.19695E+00
 -1      2111 1.44200E+00
 -1      2112 6.30744E-01
 -1      2113 8.15293E-01
 -1      2114 1.16036E+00
 -1      2115 5.79264E-01
 -1      2116 5.20224E-01
 -1      2117 7.90993E-01
 -1      2118 5.93478E-01
 -1      2119 5.77559E-01
 -1      2120 6.78768E-01
 -1      2121 6.12902E-01
 -1      2122 6.12902E-01
 -1      2123 6.96486E-01
 -1      2124 3.12263E+01
 -1      2125 3.12263E+01
 -1      2126 3.18514E+01
 -1      2127 3.18514E+01
 -1      2128 2.88853E+01
 -1      2129 2.91979E+01
 -1      2130 2.88853E+01
 -1      2131 2.26297E+01
 -1      2132 2.48371E+01
 -1      2133 1.10996E+01
 -1      2134 1.86618E+01
 -1      2135 1.03431E+00
 -1      2136 1.20914E+00
 -1      2137 9.79388E-01
 -1      2138 8.52968E-01
 -1      2139 1.08048E+01
 -1      2140 1.03512E+01
 -1      2141 1.12083E+01
 -1      2142 1.14075E+01
 -1      2143 1.11857E+01
 -1      2144 1.12307E+01
 -1      2145 1.12093E+01
 -1      2146 1.12316E+01
 -1      2147 9.56269E+00
 -1      2148 9.90528E+00
 -1      2149 9.14543E+00
 -1      2150 1.19956E+01
 -1      2151 9.58430E+00
 -1      2152 2.75312E+01
 -1      2153 1.52122E+01
 -1      2154 2.92360E+01
 -1      2155 3.22019E+01
 -1      2156 1.89886E+01
 -1      2157 2.51083E+01
 -1      2158 2.93429E+01
 -1      2159 3.14616E+01
 -1      2160 3.14266E+01
 -1      2161 3.01915E+01
 -1      2162 3.14616E+01
 -1      2163 3.14616E+01
 -1      2164 3.02149E+01
 -1      2165 2.65018E+01
 -1      2166 2.95223E+01
 -1      2167 2.82142E+01
 -1      2168 1.34061E+01
 -1      2169 2.47416E+01
 -1      2170 9.58391E+00
 -1      2171 1.07932E+01
 -1      2172 1.06974E+01
 -1      2173 1.03274E+01
 -1      2174 1.16177E+01
 -1      2175 1.16323E+01
 -1      2176 1.12048E+01
 -1      2177 1.12473E+01
 -1      2178 1.10531E+01
 -1      2179 1.10428E+01
 -1      2180 9.79187E+00
 -1      2181 9.91332E+00
 -1      2182 1.60497E+01
 -1      2183 1.06021E+01
 -1      2184 3.28507E+01
 -1      2185 1.99250E+01
 -1      2186 3.06420E+01
 -1      2187 3.95795E+01
 -1      2188 2.96827E+01
 -1      2189 2.90780E+01
 -1      2190 9.26640E+00
 -1      2191 9.31241E+00
 -1      2192 8.72490E+00
 -1      2193 2.91069E+00
 -1      2194 8.02255E+00
 -1      2195 2.10495E+00
 -1      2196 2.91979E+01
 -1      2197 2.48371E+01
 -1      2198 6.14720E-01
 -1      2199 2.96827E+01
 -1      2200 1.44800E+01
 -1      2201 2.90780E+01
 -1      2202 2.39132E+01
 -1      2203 1.33092E+01
 -1      2204 8.62375E+00
 -1      2205 8.95329E+00
 -1      2206 1.02551E+01
 -1      2207 1.07876E+01
 -1      2208 1.02231E+01
 -1      2209 8.54479E+00
 -1      2210 1.04142E+01
 -1      2211 1.78078E+01
 -1      2212 2.45892E+01
 -1      2213 3.65097E+01
 -1      2214 2.37663E+01
 -1      2215 7.86301E+00
 -1      2216 1.04035E+01
 -1      2217 9.71005E+00
 -1      2218 1.03351E+01
 -1      2219 1.11012E+01
 -1      2220 3.15499E+01
 -1      2221 1.08961E+00
 -1      2222 1.48151E+00
 -1      2223 5.59176E-01
 -1      2224 5.90695E-01
 -1      2225 6.04686E-01
 -1      2226 6.54790E-01
 -1      2227 5.00441E-01
 -1      2228 5.11331E-01
 -1      2229 5.09740E-01
 -1      2230 5.46066E-01
 -1      2231 5.24259E-01
 -1      2232 4.44644E-01
 -1      2233 5.94151E-01
 -1      2234 5.60820E-01
 -1      2235 4.72326E-01
 -1      2236 6.53785E-01
 -1      2237 6.06219E-01
 -1      2238 4.99147E-01
 -1      2239 7.21456E-01
 -1      2240 6.53785E-01
 -1      2241 5.11215E-01
 -1      2242 8.84229E-01
 -1      2243 7.70128E-01
 -1      2244 5.59886E-01
 -1      2245 8.92024E-01
 -1      2246 1.01143E+00
 -1      2247 9.70208E-01
 -1      2248 1.26670E+00
 -1      2249 1.03584E+00
 -1      2250 6.63296E+00
 -1      2251 5.54816E+00
 -1      2252 9.85573E-01
 -1      2253 8.05531E-01
 -1      2254 7.53205E-01
 -1      2255 7.49003E-01
 -1      2256 6.23595E-01
 -1      2257 6.46415E-01
 -1      2258 5.67532E-01
 -1      2259 5.08631E-01
 -1      2260 5.33823E-01
 -1      2261 4.59428E-01
 -1      2262 4.11071E-01
 -1      2263 4.28558E-01
 -1      2264 3.83698E-01
 -1      2265 3.41196E-01
 -1      2266 3.51981E-01
 -1      2267 3.16431E-01
 -1      2268 2.83914E-01
 -1      2269 2.99844E-01
 -1      2270 2.60560E-01
 -1      2271 2.33287E-01
 -1      2272 2.51726E-01
 -1      2273 2.13917E-01
 -1      2274 1.90612E-01
 -1      2275 2.09002E-01
 -1      2276 1.73985E-01
 -1      2277 1.56007E-01
 -1      2278 1.73005E-01
 -1      2279 1.41501E-01
 -1      2280 1.27096E-01
 -1      2281 1.41871E-01
 -1      2282 1.14779E-01
 -1      2283 1.02672E-01
 -1      2284 1.15049E-01
 -1      2285 9.26099E-02
 -1      2286 8.26081E-02
 -1      2287 9.26702E-02
 -1      2288 7.43645E-02
 -1      2289 6.62738E-02
 -1      2290 7.43645E-02
 -1      2291 6.06900E-02
 -1      2292 5.83198E-02
 -1      2293 6.05372E-02
 -1      2294 5.67088E-02
 -1      2295 5.87303E-02
 -1      2296 5.33424E-02
 -1      2297 6.39425E-02
 -1      2298 7.19251E-02
 -1      2299 5.69436E-02
 -1      2300 8.02259E-02
 -1      2301 9.17619E-02
 -1      2302 7.04566E-02
 -1      2303 1.11632E-01
 -1      2304 1.27162E-01
 -1      2305 9.86270E-02
 -1      2306 1.52271E-01
 -1      2307 1.80200E-01
 -1      2308 1.43606E-01
 -1      2309 2.11609E-01
 -1      2310 2.47845E-01
 -1      2311 2.00126E-01
 -1      2312 2.86423E-01
 -1      2313 3.30847E-01
 -1      2314 2.70114E-01
 -1      2315 3.77015E-01
 -1      2316 4.29406E-01
 -1      2317 3.54860E-01
 -1      2318 4.82742E-01
 -1      2319 5.41312E-01
 -1      2320 4.54364E-01
 -1      2321 5.99980E-01
 -1      2322 6.60448E-01
 -1      2323 5.66368E-01
 -1      2324 7.20446E-01
 -1      2325 7.74972E-01
 -1      2326 6.85033E-01
 -1      2327 8.29284E-01
 -1      2328 8.77891E-01
 -1      2329 7.99343E-01
 -1      2330 9.19478E-01
 -1      2331 9.75359E-01
 -1      2332 8.95242E-01
 -1      2333 1.04085E+00
 -1      2334 1.07333E+00
 -1      2335 1.00232E+00
 -1      2336 1.13529E+00
 -1      2337 1.09941E+00
 -1      2338 1.12977E+00
 -1      2339 1.13104E+00
 -1      2340 1.02814E+00
 -1      2341 1.22336E+00
 -1      2342 1.11097E+00
 -1      2343 1.14502E+00
 -1      2344 1.33782E+00
 -1      2345 1.26150E+00
 -1      2346 1.48065E+00
 -1      2347 1.53713E+00
 -1      2348 1.61908E+00
 -1      2349 1.95196E+00
 -1      2350 1.79203E+00
 -1      2351 2.02819E+00
 -1      2352 2.33192E+00
 -1      2353 2.00669E+00
 -1      2354 3.29815E+00
 -1      2355 3.40242E+00
 -1      2356 3.04915E+00
 -1      2357 4.30507E+00
 -1      2358 4.22603E+00
 -1      2359 4.91803E+00
 -1      2360 2.83184E+00
 -1      2361 2.80582E+00
 -1      2362 4.42649E+00
 -1      2363 2.39292E+00
 -1      2364 2.14070E+00
 -1      2365 2.61939E+00
 -1      2366 2.04412E+00
 -1      2367 1.83100E+00
 -1      2368 2.10991E+00
 -1      2369 1.64867E+00
 -1      2370 1.46285E+00
 -1      2371 1.83100E+00
 -1      2372 1.35940E+00
 -1      2373 1.19167E+00
 -1      2374 1.54523E+00
 -1      2375 1.03462E+00
 -1      2376 9.80911E-01
 -1      2377 1.28474E+00
 -1      2378 8.34128E-01
 -1      2379 7.44430E-01
 -1      2380 9.80911E-01
 -1      2381 2.58260E+01
 -1      2382 2.34850E+01
 -1      2383 5.46214E-01
 -1      2384 6.25484E-01
 -1      2385 4.38828E-01
 -1      2386 4.92521E-01
 -1      2387 4.92521E-01
 -1      2388 3.72677E-01
 -1      2389 4.05752E-01
 -1      2390 4.05752E-01
 -1      2391 3.09410E-01
 -1      2392 3.41044E-01
 -1      2393 3.41044E-01
 -1      2394 2.54257E-01
 -1      2395 2.81834E-01
 -1      2396 2.81834E-01
 -1      2397 2.09757E-01
 -1      2398 2.32121E-01
 -1      2399 2.32121E-01
 -1      2400 1.70966E-01
 -1      2401 1.90473E-01
 -1      2402 1.90702E-01
 -1      2403 1.38132E-01
 -1      2404 1.54555E-01
 -1      2405 1.55007E-01
 -1      2406 1.12095E-01
 -1      2407 1.24642E-01
 -1      2408 1.25105E-01
 -1      2409 9.19907E-02
 -1      2410 1.01450E-01
 -1      2411 1.00970E-01
 -1      2412 7.64271E-02
 -1      2413 8.30508E-02
 -1      2414 8.13855E-02
 -1      2415 6.68647E-02
 -1      2416 7.04938E-02
 -1      2417 6.65122E-02
 -1      2418 6.44877E-02
 -1      2419 6.35074E-02
 -1      2420 5.72216E-02
 -1      2421 7.31525E-02
 -1      2422 6.95946E-02
 -1      2423 5.89711E-02
 -1      2424 9.05079E-02
 -1      2425 8.09662E-02
 -1      2426 7.18917E-02
 -1      2427 1.18386E-01
 -1      2428 1.04293E-01
 -1      2429 9.34904E-02
 -1      2430 1.60982E-01
 -1      2431 1.42427E-01
 -1      2432 1.31317E-01
 -1      2433 2.25362E-01
 -1      2434 1.91312E-01
 -1      2435 1.85687E-01
 -1      2436 3.05297E-01
 -1      2437 2.62845E-01
 -1      2438 2.53500E-01
 -1      2439 4.01212E-01
 -1      2440 3.50295E-01
 -1      2441 3.35981E-01
 -1      2442 5.11130E-01
 -1      2443 4.53138E-01
 -1      2444 4.32904E-01
 -1      2445 6.29100E-01
 -1      2446 5.67802E-01
 -1      2447 5.41502E-01
 -1      2448 7.43266E-01
 -1      2449 6.85920E-01
 -1      2450 6.54994E-01
 -1      2451 8.41611E-01
 -1      2452 7.92363E-01
 -1      2453 7.60912E-01
 -1      2454 9.21849E-01
 -1      2455 8.83728E-01
 -1      2456 8.52127E-01
 -1      2457 9.59657E-01
 -1      2458 9.59657E-01
 -1      2459 9.32053E-01
 -1      2460 9.84855E-01
 -1      2461 9.92587E-01
 -1      2462 1.00279E+00
 -1      2463 8.95148E-01
 -1      2464 9.78177E-01
 -1      2465 1.02904E+00
 -1      2466 9.12168E-01
 -1      2467 9.28315E-01
 -1      2468 1.05553E+00
 -1      2469 1.13127E+00
 -1      2470 9.83221E-01
 -1      2471 1.15975E+00
 -1      2472 1.67260E+00
 -1      2473 1.28606E+00
 -1      2474 1.38560E+00
 -1      2475 2.07300E+00
 -1      2476 1.86303E+00
 -1      2477 1.73082E+00
 -1      2478 2.41235E+00
 -1      2479 2.39790E+00
 -1      2480 2.24616E+00
 -1      2481 2.38755E+00
 -1      2482 2.43844E+00
 -1      2483 2.59716E+00
 -1      2484 2.53470E+00
 -1      2485 2.47118E+00
 -1      2486 2.70688E+00
 -1      2487 2.18379E+00
 -1      2488 2.23290E+00
 -1      2489 2.48872E+00
 -1      2490 1.74188E+00
 -1      2491 2.03891E+00
 -1      2492 2.04204E+00
 -1      2493 1.45955E+00
 -1      2494 1.65569E+00
 -1      2495 1.81098E+00
 -1      2496 1.04675E+00
 -1      2497 1.22339E+00
 -1      2498 1.48864E+00
 -1      2499 9.02137E-01
 -1      2500 9.53952E-01
 -1      2501 1.15968E+00
 -1      2502 7.37375E-01
 -1      2503 7.46624E-01
 -1      2504 9.11377E-01
 -1      2505 6.71076E-01
 -1      2506 7.18885E-01
 -1      2507 7.37375E-01
 -1      2508 6.17653E-01
 -1      2509 1.09144E+00
 -1      2510 9.93156E-01
 -1      2511 1.53872E+00
 -1      2512 1.27115E+00
 -1      2513 1.50131E+00
 -1      2514 7.36063E-01
 -1      2515 7.36063E-01
 -1      2516 8.00652E-01
 -1      2517 8.05103E-01
 -1      2518 8.67541E-01
 -1      2519 1.12908E+00
 -1      2520 1.88491E+00
 -1      2521 1.85072E+00
 -1      2522 1.99303E+00
 -1      2523 1.90643E+00
 -1      2524 1.90643E+00
 -1      2525 2.32655E+00
 -1      2526 1.88364E+00
 -1      2527 1.90643E+00
 -1      2528 2.34808E+00
 -1      2529 1.32353E+00
 -1      2530 1.58237E+00
 -1      2531 2.04681E+00
 -1      2532 1.00560E+00
 -1      2533 1.11612E+00
 -1      2534 1.53814E+00
 -1      2535 8.23835E-01
 -1      2536 8.25540E-01
 -1      2537 1.15067E+00
 -1      2538 7.03934E-01
 -1      2539 6.84510E-01
 -1      2540 8.31283E-01
 -1      2541 7.15909E-01
 -1      2542 2.96827E+01
 -1      2543 2.75140E+01
 -1      2544 7.04754E-01
 -1      2545 7.98389E-01
 -1      2546 6.25484E-01
 -1      2547 1.61408E+01
 -1      2548 2.25300E+01
 -1      2549 2.35891E+01
 -1      2550 2.51531E+01
 -1      2551 1.67624E+00
 -1      2552 1.30123E+00
 -1      2553 8.37994E-01
 -1      2554 9.60254E-01
 -1      2555 9.63581E+00
 -1      2556 1.36037E+01
 -1      2557 1.12967E+01
 -1      2558 5.60549E+00
 -1      2559 5.58387E+00
 -1      2560 8.92469E+00
 -1      2561 8.87873E+00
 -1      2562 5.22641E-01
 -1      2563 5.44711E-01
 -1      2564 4.71984E-01
 -1      2565 4.44618E-01
 -1      2566 9.12782E+00
 -1      2567 9.10542E+00
 -1      2568 1.03317E+01
 -1      2569 7.11508E+00
 -1      2570 8.51427E+00
 -1      2571 7.91158E+00
 -1      2572 6.67893E+00
 -1      2573 7.98297E+00
 -1      2574 2.65900E+01
 -1      2575 3.15499E+01
 -1      2576 1.71108E+01
 -1      2577 1.24400E+01
 -1      2578 8.45384E+00
 -1      2579 2.06543E+01
 -1      2580 2.05474E+01
 -1      2581 1.39988E+01
 -1      2582 3.01915E+01
 -1      2583 2.38732E+01
 -1      2584 3.65097E+01
 -1      2585 3.65097E+01
 -1      2586 3.01915E+01
 -1      2587 3.15499E+01
 -1      2588 1.96885E+01
 -1      2589 2.16893E+01
 -1      2590 1.17500E+01
 -1      2591 1.65307E+01
 -1      2592 7.69597E+00
 -1      2593 1.03089E+01
 -1      2594 6.61023E+00
 -1      2595 5.86673E+00
 -1      2596 5.76141E+00
 -1      2597 8.54086E+00
 -1      2598 7.60601E+00
 -1      2599 9.20934E+00
 -1      2600 9.57973E+00
 -1      2601 8.79706E+00
 -1      2602 8.95913E+00
 -1      2603 6.79912E+00
 -1      2604 7.93887E+00
 -1      2605 7.24171E+00
 -1      2606 6.43150E+00
 -1      2607 1.30653E+01
 -1      2608 9.19006E+00
 -1      2609 2.17284E+01
 -1      2610 1.49997E+01
 -1      2611 2.65444E+01
 -1      2612 2.91979E+01
 -1      2613 1.62150E+00
 -1      2614 1.76471E+00
 -1      2615 1.32865E+00
 -1      2616 1.18838E+00
 -1      2617 6.91090E+00
 -1      2618 8.69806E+00
 -1      2619 5.52131E+00
 -1      2620 7.30695E+00
 -1      2621 5.22757E-01
 -1      2622 6.63115E-01
 -1      2623 7.20934E-01
 -1      2624 7.98389E-01
 -1      2625 1.24413E+00
 -1      2626 7.82182E+00
 -1      2627 2.35891E+01
 -1      2628 1.71297E+01
 -1      2629 6.65461E-01
 -1      2630 6.96255E-01
 -1      2631 2.34850E+01
 -1      2632 7.15909E-01
 -1      2633 7.15909E-01
 -1      2634 7.03934E-01
 -1      2635 6.85321E-01
 -1      2636 1.62396E+01
 -1      2637 1.08805E+01
 -1      2638 2.49614E+01
 -1      2639 2.27927E+01
 -1      2640 2.23078E+01
 -1      2641 9.68459E-01
 -1      2642 4.42141E+00
 -1      2643 6.99781E+00
 -1      2644 5.41708E+00
 -1      2645 6.45819E+00
 -1      2646 6.01355E+00
 -1      2647 3.73441E+00
 -1      2648 5.24401E+00
 -1      2649 6.64288E+00
 -1      2650 7.75127E+00
 -1      2651 4.92796E+00
 -1      2652 2.06543E+01
 -1      2653 2.11353E+01
 -1      2654 2.11353E+01
 -1      2655 1.62346E+01
 -1      2656 8.91654E-01
 -1      2657 7.64901E+00
 -1      2658 5.43719E+00
 -1      2659 1.36307E+01
 -1      2660 9.03176E+00
 -1      2661 9.16865E+00
 -1      2662 6.55152E+00
 -1      2663 7.59039E+00
 -1      2664 7.58693E-01
 -1      2665 7.75018E-01
 -1      2666 4.22834E-01
 -1      2667 4.08080E-01
 -1      2668 4.00262E-01
 -1      2669 3.87334E-01
 -1      2670 3.50770E-01
 -1      2671 4.36480E-01
 -1      2672 4.36480E-01
 -1      2673 4.73246E-01
 -1      2674 4.24574E-01
 -1      2675 3.49840E-01
 -1      2676 7.18081E-01
 -1      2677 7.96264E-01
 -1      2678 3.78934E+00
 -1      2679 4.88440E+00
 -1      2680 3.86857E+00
 -1      2681 5.23131E+00
 -1      2682 6.10253E-01
 -1      2683 7.03888E-01
 -1      2684 5.29944E-01
 -1      2685 6.80937E+00
 -1      2686 6.21822E+00
 -1      2687 8.28474E-01
 -1      2688 5.50377E-01
 -1      2689 4.93848E-01
 -1      2690 4.87575E-01
 -1      2691 4.31512E-01
 -1      2692 3.91537E-01
 -1      2693 4.11119E-01
 -1      2694 3.61916E-01
 -1      2695 3.64870E-01
 -1      2696 3.37200E-01
 -1      2697 3.09827E-01
 -1      2698 3.19762E-01
 -1      2699 2.85095E-01
 -1      2700 2.60330E-01
 -1      2701 2.70314E-01
 -1      2702 2.44607E-01
 -1      2703 2.21253E-01
 -1      2704 2.29858E-01
 -1      2705 2.05030E-01
 -1      2706 1.85660E-01
 -1      2707 1.97911E-01
 -1      2708 1.70101E-01
 -1      2709 1.53474E-01
 -1      2710 1.66129E-01
 -1      2711 1.39739E-01
 -1      2712 1.25233E-01
 -1      2713 1.36836E-01
 -1      2714 1.13893E-01
 -1      2715 1.01577E-01
 -1      2716 1.11761E-01
 -1      2717 9.18567E-02
 -1      2718 8.17946E-02
 -1      2719 9.07010E-02
 -1      2720 7.34682E-02
 -1      2721 6.52246E-02
 -1      2722 7.26547E-02
 -1      2723 5.79171E-02
 -1      2724 5.23333E-02
 -1      2725 5.70207E-02
 -1      2726 4.55495E-02
 -1      2727 4.39385E-02
 -1      2728 4.29294E-02
 -1      2729 4.62746E-02
 -1      2730 5.14868E-02
 -1      2731 3.84817E-02
 -1      2732 6.07980E-02
 -1      2733 6.90987E-02
 -1      2734 5.01289E-02
 -1      2735 8.57453E-02
 -1      2736 1.05615E-01
 -1      2737 7.60867E-02
 -1      2738 1.26316E-01
 -1      2739 1.51426E-01
 -1      2740 1.13434E-01
 -1      2741 1.77211E-01
 -1      2742 2.08621E-01
 -1      2743 1.59920E-01
 -1      2744 2.40547E-01
 -1      2745 2.79125E-01
 -1      2746 2.17632E-01
 -1      2747 3.18210E-01
 -1      2748 3.64378E-01
 -1      2749 2.88643E-01
 -1      2750 4.11500E-01
 -1      2751 4.64836E-01
 -1      2752 3.74851E-01
 -1      2753 5.20566E-01
 -1      2754 5.79233E-01
 -1      2755 4.77702E-01
 -1      2756 6.43580E-01
 -1      2757 7.03578E-01
 -1      2758 5.97778E-01
 -1      2759 7.75935E-01
 -1      2760 8.30248E-01
 -1      2761 7.34482E-01
 -1      2762 9.06272E-01
 -1      2763 9.47858E-01
 -1      2764 8.82864E-01
 -1      2765 1.02182E+00
 -1      2766 1.08731E+00
 -1      2767 1.03285E+00
 -1      2768 1.19562E+00
 -1      2769 1.25759E+00
 -1      2770 1.21512E+00
 -1      2771 1.41150E+00
 -1      2772 1.44312E+00
 -1      2773 1.47735E+00
 -1      2774 1.59334E+00
 -1      2775 1.67617E+00
 -1      2776 1.78148E+00
 -1      2777 1.81087E+00
 -1      2778 1.92735E+00
 -1      2779 2.06640E+00
 -1      2780 1.96544E+00
 -1      2781 2.10387E+00
 -1      2782 2.23919E+00
 -1      2783 2.35120E+00
 -1      2784 2.42742E+00
 -1      2785 2.52460E+00
 -1      2786 3.04422E+00
 -1      2787 4.01045E+00
 -1      2788 3.38873E+00
 -1      2789 5.59735E+00
 -1      2790 6.50000E+00
 -1      2791 3.37733E+00
 -1      2792 2.96443E+00
 -1      2793 2.68602E+00
 -1      2794 2.58944E+00
 -1      2795 3.44396E+00
 -1      2796 2.27711E+00
 -1      2797 2.09479E+00
 -1      2798 2.85322E+00
 -1      2799 1.90428E+00
 -1      2800 1.80083E+00
 -1      2801 2.35039E+00
 -1      2802 1.49207E+00
 -1      2803 1.33503E+00
 -1      2804 1.85112E+00
 -1      2805 1.12770E+00
 -1      2806 9.80911E-01
 -1      2807 1.33503E+00
 -1      2808 1.52139E+01
 -1      2809 1.17892E+01
 -1      2810 1.75206E+01
 -1      2811 2.05800E+01
 -1      2812 4.18152E-01
 -1      2813 4.71845E-01
 -1      2814 2.44992E-01
 -1      2815 2.72568E-01
 -1      2816 2.04527E-01
 -1      2817 2.26663E-01
 -1      2818 2.17398E-01
 -1      2819 1.68318E-01
 -1      2820 1.87601E-01
 -1      2821 1.82143E-01
 -1      2822 1.37653E-01
 -1      2823 1.54064E-01
 -1      2824 1.50964E-01
 -1      2825 1.11706E-01
 -1      2826 1.25197E-01
 -1      2827 1.24254E-01
 -1      2828 9.03254E-02
 -1      2829 1.00970E-01
 -1      2830 1.01062E-01
 -1      2831 7.21899E-02
 -1      2832 8.11299E-02
 -1      2833 8.11299E-02
 -1      2834 5.90311E-02
 -1      2835 6.49644E-02
 -1      2836 6.47089E-02
 -1      2837 4.95141E-02
 -1      2838 5.28714E-02
 -1      2839 5.13237E-02
 -1      2840 5.53960E-02
 -1      2841 5.02891E-02
 -1      2842 4.59390E-02
 -1      2843 6.80810E-02
 -1      2844 6.02673E-02
 -1      2845 5.15853E-02
 -1      2846 9.78025E-02
 -1      2847 8.40175E-02
 -1      2848 7.23931E-02
 -1      2849 1.42413E-01
 -1      2850 1.18372E-01
 -1      2851 1.08899E-01
 -1      2852 1.98439E-01
 -1      2853 1.68109E-01
 -1      2854 1.55165E-01
 -1      2855 2.67734E-01
 -1      2856 2.30251E-01
 -1      2857 2.12673E-01
 -1      2858 3.51492E-01
 -1      2859 3.06494E-01
 -1      2860 2.83245E-01
 -1      2861 4.49602E-01
 -1      2862 3.97676E-01
 -1      2863 3.68190E-01
 -1      2864 5.59697E-01
 -1      2865 5.03025E-01
 -1      2866 4.67797E-01
 -1      2867 6.75882E-01
 -1      2868 6.19061E-01
 -1      2869 5.80584E-01
 -1      2870 7.87248E-01
 -1      2871 7.38150E-01
 -1      2872 7.02217E-01
 -1      2873 8.88958E-01
 -1      2874 8.46840E-01
 -1      2875 8.24078E-01
 -1      2876 9.79382E-01
 -1      2877 9.41574E-01
 -1      2878 9.36287E-01
 -1      2879 1.10267E+00
 -1      2880 1.06974E+00
 -1      2881 1.07926E+00
 -1      2882 1.19256E+00
 -1      2883 1.19924E+00
 -1      2884 1.26618E+00
 -1      2885 1.30387E+00
 -1      2886 1.27070E+00
 -1      2887 1.44089E+00
 -1      2888 1.52993E+00
 -1      2889 1.45888E+00
 -1      2890 1.67405E+00
 -1      2891 1.86985E+00
 -1      2892 1.71506E+00
 -1      2893 2.01418E+00
 -1      2894 2.07755E+00
 -1      2895 1.88713E+00
 -1      2896 2.21658E+00
 -1      2897 3.41170E+00
 -1      2898 3.08679E+00
 -1      2899 3.24310E+00
 -1      2900 3.59295E+00
 -1      2901 3.56686E+00
 -1      2902 4.40750E+00
 -1      2903 4.03434E+00
 -1      2904 3.95071E+00
 -1      2905 4.92042E+00
 -1      2906 3.40664E+00
 -1      2907 3.70844E+00
 -1      2908 4.95227E+00
 -1      2909 2.54040E+00
 -1      2910 2.68528E+00
 -1      2911 3.90501E+00
 -1      2912 1.85777E+00
 -1      2913 1.94395E+00
 -1      2914 2.58720E+00
 -1      2915 1.64853E+00
 -1      2916 1.88469E+00
 -1      2917 2.01766E+00
 -1      2918 1.32107E+00
 -1      2919 1.41386E+00
 -1      2920 1.80991E+00
 -1      2921 9.11377E-01
 -1      2922 1.06689E+00
 -1      2923 1.32107E+00
 -1      2924 7.37375E-01
 -1      2925 7.55864E-01
 -1      2926 9.11377E-01
 -1      2927 7.77182E-01
 -1      2928 2.78790E+00
 -1      2929 2.76638E+00
 -1      2930 7.50619E-01
 -1      2931 6.91510E-01
 -1      2932 6.79534E-01
 -1      2933 8.97403E-01
 -1      2934 1.99562E+00
 -1      2935 1.81590E+00
 -1      2936 2.78790E+00
 -1      2937 2.78790E+00
 -1      2938 3.22773E+00
 -1      2939 2.69685E+00
 -1      2940 2.38484E+00
 -1      2941 2.69944E+00
 -1      2942 3.15820E+00
 -1      2943 1.25543E+01
 -1      2944 1.58503E+01
 -1      2945 1.29453E+01
 -1      2946 2.41093E+00
 -1      2947 2.71220E+00
 -1      2948 3.15203E+00
 -1      2949 1.83232E+00
 -1      2950 2.03973E+00
 -1      2951 2.70512E+00
 -1      2952 1.40073E+00
 -1      2953 1.58079E+00
 -1      2954 2.08238E+00
 -1      2955 1.11747E+00
 -1      2956 1.25679E+00
 -1      2957 1.68691E+00
 -1      2958 1.10504E+00
 -1      2959 5.05505E-01
 -1      2960 5.84775E-01
 -1      2961 4.90274E-01
 -1      2962 4.31136E-01
 -1      2963 1.04202E+01
 -1      2964 8.48586E+00
 -1      2965 7.01801E-01
 -1      2966 6.67275E-01
 -1      2967 1.89309E+01
 -1      2968 1.57120E+01
 -1      2969 7.26364E+00
 -1      2970 5.31529E+00
 -1      2971 2.91959E-01
 -1      2972 3.23592E-01
 -1      2973 2.55117E-01
 -1      2974 3.51003E-01
 -1      2975 3.84079E-01
 -1      2976 3.01918E-01
 -1      2977 6.03071E-01
 -1      2978 5.52808E-01
 -1      2979 4.00242E-01
 -1      2980 4.66878E-01
 -1      2981 1.33394E+01
 -1      2982 9.90279E+00
 -1      2983 8.74411E+00
 -1      2984 1.12812E+01
 -1      2985 6.68517E+00
 -1      2986 6.93426E+00
 -1      2987 4.36480E-01
 -1      2988 4.24412E-01
 -1      2989 3.60167E-01
 -1      2990 3.61745E-01
 -1      2991 4.22583E-01
 -1      2992 4.36574E-01
 -1      2993 5.22684E+00
 -1      2994 6.08502E+00
 -1      2995 9.65149E+00
 -1      2996 1.28093E+01
 -1      2997 7.20934E-01
 -1      2998 5.67108E+00
 -1      2999 4.39247E+00
 -1      3000 8.06486E+00
 -1      3001 5.95657E+00
 -1      3002 7.40552E+00
 -1      3003 2.08715E+01
 -1      3004 1.69467E+01
 -1      3005 7.12569E+00
 -1      3006 8.56680E+00
 -1      3007 4.13073E+00
 -1      3008 5.95996E+00
 -1      3009 4.50523E+00
 -1      3010 3.50945E+00
 -1      3011 6.74627E+00
 -1      3012 6.99648E+00
 -1      3013 5.33023E+00
 -1      3014 5.03957E+00
 -1      3015 5.98129E+00
 -1      3016 5.26654E+00
 -1      3017 4.38591E+00
 -1      3018 4.75353E+00
 -1      3019 6.35686E+00
 -1      3020 7.29462E+00
 -1      3021 7.27916E+00
 -1      3022 4.46450E-01
 -1      3023 4.54775E-01
 -1      3024 3.68593E-01
 -1      3025 3.42778E-01
 -1      3026 3.87161E-01
 -1      3027 4.00062E-01
 -1      3028 5.17350E+00
 -1      3029 4.40750E+00
 -1      3030 4.70412E+00
 -1      3031 5.84553E+00
 -1      3032 5.76347E-01
 -1      3033 1.16160E+01
 -1      3034 9.39454E+00
 -1      3035 5.82068E+00
 -1      3036 4.42649E+00
 -1      3037 2.04839E+00
 -1      3038 1.55407E+00
 -1      3039 1.36157E+00
 -1      3040 1.24963E+01
 -1      3041 1.24420E+01
 -1      3042 1.84063E+01
 -1      3043 1.41698E+01
 -1      3044 6.80334E+00
 -1      3045 3.63403E-01
 -1      3046 9.19951E-01
 -1      3047 8.50911E-01
 -1      3048 8.29593E-01
 -1      3049 1.34494E+00
 -1      3050 1.66123E+01
 -1      3051 1.16700E+01
 -1      3052 3.70800E+00
 -1      3053 5.49501E+00
 -1      3054 4.10247E+00
 -1      3055 7.74542E+00
 -1      3056 4.19567E+00
 -1      3057 5.38423E+00
 -1      3058 4.28270E+00
 -1      3059 4.99525E+00
 -1      3060 4.65174E+00
 -1      3061 1.98898E+01
 -1      3062 2.48497E+01
 -1      3063 1.28954E+01
 -1      3064 1.23414E+01
 -1      3065 8.91619E+00
 -1      3066 4.77152E+00
 -1      3067 5.31082E-01
 -1      3068 4.07510E-01
 -1      3069 4.21975E-01
 -1      3070 3.58108E-01
 -1      3071 3.50052E-01
 -1      3072 1.00018E+01
 -1      3073 4.41036E-01
 -1      3074 3.66296E+00
 -1      3075 3.25489E+00
 -1      3076 3.71789E+00
 -1      3077 1.85862E+01
 -1      3078 1.19437E+01
 -1      3079 1.38648E+01
 -1      3080 1.30225E+01
 -1      3081 1.84773E+01
 -1      3082 1.17771E+01
 -1      3083 2.45078E+01
 -1      3084 1.81895E+01
 -1      3085 1.09286E+01
 -1      3086 1.28477E+01
 -1      3087 6.58540E+00
 -1      3088 1.10366E+01
 -1      3089 8.66401E+00
 -1      3090 2.91405E-01
 -1      3091 3.03311E-01
 -1      3092 7.51913E+00
 -1      3093 8.79228E+00
 -1      3094 5.59242E+00
 -1      3095 3.20967E-01
 -1      3096 3.00574E-01
 -1      3097 2.97024E-01
 -1      3098 2.72309E-01
 -1      3099 2.53121E-01
 -1      3100 2.61483E-01
 -1      3101 2.36750E-01
 -1      3102 2.38745E-01
 -1      3103 2.22613E-01
 -1      3104 2.06889E-01
 -1      3105 2.13782E-01
 -1      3106 1.93492E-01
 -1      3107 1.77269E-01
 -1      3108 1.86247E-01
 -1      3109 1.66603E-01
 -1      3110 1.51045E-01
 -1      3111 1.62184E-01
 -1      3112 1.39725E-01
 -1      3113 1.25991E-01
 -1      3114 1.40200E-01
 -1      3115 1.14906E-01
 -1      3116 1.03566E-01
 -1      3117 1.17796E-01
 -1      3118 9.31478E-02
 -1      3119 8.34280E-02
 -1      3120 9.62929E-02
 -1      3121 7.37813E-02
 -1      3122 6.54548E-02
 -1      3123 7.62281E-02
 -1      3124 5.64462E-02
 -1      3125 4.91386E-02
 -1      3126 5.75727E-02
 -1      3127 4.04606E-02
 -1      3128 3.36768E-02
 -1      3129 3.98861E-02
 -1      3130 3.14850E-02
 -1      3131 3.38211E-02
 -1      3132 2.90162E-02
 -1      3133 4.02873E-02
 -1      3134 4.95984E-02
 -1      3135 3.32906E-02
 -1      3136 6.34099E-02
 -1      3137 8.00565E-02
 -1      3138 5.35682E-02
 -1      3139 9.73756E-02
 -1      3140 1.18077E-01
 -1      3141 8.46988E-02
 -1      3142 1.40943E-01
 -1      3143 1.66728E-01
 -1      3144 1.24884E-01
 -1      3145 1.95357E-01
 -1      3146 2.27283E-01
 -1      3147 1.76380E-01
 -1      3148 2.62643E-01
 -1      3149 3.01728E-01
 -1      3150 2.40369E-01
 -1      3151 3.44523E-01
 -1      3152 3.91644E-01
 -1      3153 3.18522E-01
 -1      3154 4.41989E-01
 -1      3155 4.97718E-01
 -1      3156 4.11661E-01
 -1      3157 5.54572E-01
 -1      3158 6.18918E-01
 -1      3159 5.18858E-01
 -1      3160 6.86874E-01
 -1      3161 7.59232E-01
 -1      3162 6.43668E-01
 -1      3163 8.54809E-01
 -1      3164 9.30833E-01
 -1      3165 8.07201E-01
 -1      3166 1.05248E+00
 -1      3167 1.12644E+00
 -1      3168 1.02443E+00
 -1      3169 1.28554E+00
 -1      3170 1.39386E+00
 -1      3171 1.30518E+00
 -1      3172 1.56287E+00
 -1      3173 1.71678E+00
 -1      3174 1.63329E+00
 -1      3175 1.91742E+00
 -1      3176 2.06764E+00
 -1      3177 2.00294E+00
 -1      3178 2.55821E+00
 -1      3179 2.69291E+00
 -1      3180 2.69415E+00
 -1      3181 2.51680E+00
 -1      3182 2.55489E+00
 -1      3183 3.00861E+00
 -1      3184 2.92933E+00
 -1      3185 3.54612E+00
 -1      3186 5.13302E+00
 -1      3187 6.50000E+00
 -1      3188 8.91409E+00
 -1      3189 1.12327E+01
 -1      3190 8.28067E+00
 -1      3191 3.16555E+00
 -1      3192 2.85322E+00
 -1      3193 2.72456E+00
 -1      3194 2.53405E+00
 -1      3195 3.03688E+00
 -1      3196 2.37011E+00
 -1      3197 2.06135E+00
 -1      3198 2.74428E+00
 -1      3199 1.90974E+00
 -1      3200 1.70240E+00
 -1      3201 2.42873E+00
 -1      3202 5.62429E+00
 -1      3203 5.49940E+00
 -1      3204 1.94543E-01
 -1      3205 2.12872E-01
 -1      3206 1.12639E-01
 -1      3207 1.25095E-01
 -1      3208 9.05764E-02
 -1      3209 1.01313E-01
 -1      3210 1.02154E-01
 -1      3211 7.11170E-02
 -1      3212 8.03125E-02
 -1      3213 8.05635E-02
 -1      3214 5.54499E-02
 -1      3215 6.26755E-02
 -1      3216 6.18581E-02
 -1      3217 4.17978E-02
 -1      3218 4.79575E-02
 -1      3219 4.59241E-02
 -1      3220 3.69238E-02
 -1      3221 3.61488E-02
 -1      3222 3.27826E-02
 -1      3223 4.62567E-02
 -1      3224 4.13854E-02
 -1      3225 3.15953E-02
 -1      3226 7.56225E-02
 -1      3227 5.96861E-02
 -1      3228 4.94862E-02
 -1      3229 1.12610E-01
 -1      3230 9.20402E-02
 -1      3231 7.93332E-02
 -1      3232 1.58628E-01
 -1      3233 1.32932E-01
 -1      3234 1.16073E-01
 -1      3235 2.15683E-01
 -1      3236 1.83871E-01
 -1      3237 1.61638E-01
 -1      3238 2.85732E-01
 -1      3239 2.46972E-01
 -1      3240 2.18170E-01
 -1      3241 3.70499E-01
 -1      3242 3.24315E-01
 -1      3243 2.88041E-01
 -1      3244 4.72925E-01
 -1      3245 4.19502E-01
 -1      3246 3.75627E-01
 -1      3247 5.92077E-01
 -1      3248 5.32712E-01
 -1      3249 4.84417E-01
 -1      3250 7.25094E-01
 -1      3251 6.62826E-01
 -1      3252 6.14954E-01
 -1      3253 8.65428E-01
 -1      3254 8.05835E-01
 -1      3255 7.66444E-01
 -1      3256 1.01175E+00
 -1      3257 9.59136E-01
 -1      3258 9.40893E-01
 -1      3259 1.20794E+00
 -1      3260 1.11758E+00
 -1      3261 1.14043E+00
 -1      3262 1.43091E+00
 -1      3263 1.33434E+00
 -1      3264 1.37267E+00
 -1      3265 1.72257E+00
 -1      3266 1.64443E+00
 -1      3267 1.71259E+00
 -1      3268 2.13399E+00
 -1      3269 1.97897E+00
 -1      3270 2.18251E+00
 -1      3271 2.45907E+00
 -1      3272 2.27395E+00
 -1      3273 2.57888E+00
 -1      3274 2.54723E+00
 -1      3275 2.52996E+00
 -1      3276 2.78972E+00
 -1      3277 3.71789E+00
 -1      3278 2.70865E+00
 -1      3279 4.56266E+00
 -1      3280 4.40750E+00
 -1      3281 5.17350E+00
 -1      3282 3.90501E+00
 -1      3283 4.62637E+00
 -1      3284 2.23227E+00
 -1      3285 2.20536E+00
 -1      3286 2.05486E+00
 -1      3287 2.28953E+00
 -1      3288 2.47722E+00
 -1      3289 1.32107E+00
 -1      3290 1.57525E+00
 -1      3291 2.05486E+00
 -1      3292 7.93142E-01
 -1      3293 9.48656E-01
 -1      3294 1.20283E+00
 -1      3295 8.66871E-01
 -1      3296 1.33533E+00
 -1      3297 3.23532E-01
 -1      3298 3.15713E-01
 -1      3299 4.15965E+00
 -1      3300 4.53086E+00
 -1      3301 5.60463E+00
 -1      3302 5.60463E+00
 -1      3303 3.08161E-01
 -1      3304 3.42234E-01
 -1      3305 2.54809E+00
 -1      3306 2.79962E+00
 -1      3307 4.62536E+00
 -1      3308 3.55060E+00
 -1      3309 7.46502E+00
 -1      3310 5.62709E+00
 -1      3311 6.72273E+00
 -1      3312 5.50052E+00
 -1      3313 2.27202E-01
 -1      3314 2.46592E-01
 -1      3315 2.04347E-01
 -1      3316 1.37453E-01
 -1      3317 1.51706E-01
 -1      3318 1.25838E-01
 -1      3319 9.07399E+00
 -1      3320 7.70501E+00
 -1      3321 1.64739E-01
 -1      3322 1.81666E-01
 -1      3323 1.77139E-01
 -1      3324 1.51228E-01
 -1      3325 4.53086E+00
 -1      3326 4.60656E+00
 -1      3327 5.98539E+00
 -1      3328 3.72237E+00
 -1      3329 3.44396E+00
 -1      3330 3.15597E-01
 -1      3331 3.09323E-01
 -1      3332 2.45027E-01
 -1      3333 1.16558E+01
 -1      3334 9.92300E+00
 -1      3335 2.64886E-01
 -1      3336 2.92298E-01
 -1      3337 2.36971E-01
 -1      3338 4.54775E-01
 -1      3339 5.98426E+00
 -1      3340 7.06894E+00
 -1      3341 4.37333E+00
 -1      3342 3.44396E+00
 -1      3343 4.13123E-01
 -1      3344 3.10022E-01
 -1      3345 2.63493E-01
 -1      3346 3.98931E-01
 -1      3347 4.19567E+00
 -1      3348 4.31117E+00
 -1      3349 5.47689E+00
 -1      3350 9.76443E+00
 -1      3351 1.14348E+01
 -1      3352 7.28178E+00
 -1      3353 3.58729E+00
 -1      3354 4.71284E+00
 -1      3355 6.06965E+00
 -1      3356 7.51913E+00
 -1      3357 5.24483E+00
 -1      3358 3.53249E+00
 -1      3359 3.18365E+00
 -1      3360 3.90501E+00
 -1      3361 3.38111E+00
 -1      3362 2.58720E+00
 -1      3363 3.12429E-01
 -1      3364 3.12256E-01
 -1      3365 2.85191E-01
 -1      3366 2.62111E-01
 -1      3367 3.20546E-01
 -1      3368 3.20546E-01
 -1      3369 4.95282E+00
 -1      3370 2.72276E+00
 -1      3371 2.46092E+00
 -1      3372 8.23347E+00
 -1      3373 3.56278E+00
 -1      3374 3.28517E+00
 -1      3375 5.05476E+00
 -1      3376 2.80181E+00
 -1      3377 7.77782E+00
 -1      3378 7.34049E+00
 -1      3379 1.91004E+00
 -1      3380 1.15410E+01
 -1      3381 9.36728E+00
 -1      3382 8.36010E+00
 -1      3383 6.98346E+00
 -1      3384 6.40218E+00
 -1      3385 3.02202E+00
 -1      3386 4.25234E+00
 -1      3387 3.30510E-01
 -1      3388 2.48296E-01
 -1      3389 3.32941E-01
 -1      3390 4.41377E+00
 -1      3391 4.02454E+00
 -1      3392 4.43708E+00
 -1      3393 3.23532E-01
 -1      3394 2.88475E-01
 -1      3395 3.25110E-01
 -1      3396 5.90608E+00
 -1      3397 3.52606E-01
 -1      3398 3.78084E-01
 -1      3399 2.61262E-01
 -1      3400 5.60463E+00
 -1      3401 5.53510E+00
 -1      3402 6.86020E+00
 -1      3403 7.98154E+00
 -1      3404 2.05398E+00
 -1      3405 3.36344E-01
 -1      3406 3.70004E-01
 -1      3407 2.57813E-01
 -1      3408 2.81102E-01
 -1      3409 6.88558E+00
 -1      3410 2.77122E+00
 -1      3411 2.71129E-01
 -1      3412 4.29273E+00
 -1      3413 3.90571E-01
 -1      3414 9.91374E+00
 -1      3415 1.38152E+01
 -1      3416 9.60878E+00
 -1      3417 7.23299E+00
 -1      3418 7.31908E+00
 -1      3419 5.47183E+00
 -1      3420 4.80042E+00
 -1      3421 9.69013E+00
 -1      3422 8.11293E+00
 -1      3423 6.53933E+00
 -1      3424 7.99931E+00
 -1      3425 1.13384E+01
 -1      3426 8.68045E+00
 -1      3427 1.14534E+01
 -1      3428 8.88016E+00
 -1      3429 9.16811E+00
 -1      3430 3.66132E+00
 -1      3431 3.18180E+00
 -1      3432 3.02038E+00
 -1      3433 3.80154E+00
 -1      3434 3.23406E-01
 -1      3435 3.24015E-01
 -1      3436 1.01057E+01
 -1      3437 9.76379E+00
 -1      3438 6.94811E+00
 -1      3439 6.30963E+00
 -1      3440 3.38983E+00
 -1      3441 8.69317E+00
 -1      3442 3.19904E-01
 -1      3443 3.29781E-01
 -1      3444 2.85202E-01
 -1      3445 8.88016E+00
 -1      3446 8.03115E+00
 -1      3447 4.07015E+00
 -1      3448 5.25166E+00
 -1      3449 4.61982E+00
 -1      3450 2.16426E-01
 -1      3451 2.05600E-01
 -1      3452 2.02030E-01
 -1      3453 1.87892E-01
 -1      3454 1.79711E-01
 -1      3455 1.79999E-01
 -1      3456 1.66601E-01
 -1      3457 1.68247E-01
 -1      3458 1.56658E-01
 -1      3459 1.45993E-01
 -1      3460 1.50410E-01
 -1      3461 1.37673E-01
 -1      3462 1.26353E-01
 -1      3463 1.32146E-01
 -1      3464 1.17922E-01
 -1      3465 1.06837E-01
 -1      3466 1.15394E-01
 -1      3467 9.81340E-02
 -1      3468 8.77158E-02
 -1      3469 9.82597E-02
 -1      3470 7.92129E-02
 -1      3471 6.95663E-02
 -1      3472 8.10540E-02
 -1      3473 6.14336E-02
 -1      3474 5.24250E-02
 -1      3475 6.44185E-02
 -1      3476 4.46217E-02
 -1      3477 3.59437E-02
 -1      3478 4.84826E-02
 -1      3479 3.53043E-02
 -1      3480 3.31124E-02
 -1      3481 4.00399E-02
 -1      3482 3.51811E-02
 -1      3483 4.16473E-02
 -1      3484 4.14692E-02
 -1      3485 5.17070E-02
 -1      3486 6.55185E-02
 -1      3487 5.35976E-02
 -1      3488 8.22055E-02
 -1      3489 9.95246E-02
 -1      3490 8.03443E-02
 -1      3491 1.20594E-01
 -1      3492 1.43461E-01
 -1      3493 1.18101E-01
 -1      3494 1.70013E-01
 -1      3495 1.98642E-01
 -1      3496 1.65723E-01
 -1      3497 2.31889E-01
 -1      3498 2.67249E-01
 -1      3499 2.25522E-01
 -1      3500 3.08502E-01
 -1      3501 3.51296E-01
 -1      3502 3.00023E-01
 -1      3503 4.01935E-01
 -1      3504 4.52279E-01
 -1      3505 3.91915E-01
 -1      3506 5.13652E-01
 -1      3507 5.70506E-01
 -1      3508 5.03927E-01
 -1      3509 6.43668E-01
 -1      3510 7.11624E-01
 -1      3511 6.38462E-01
 -1      3512 7.96795E-01
 -1      3513 8.92372E-01
 -1      3514 7.96795E-01
 -1      3515 9.98126E-01
 -1      3516 1.11977E+00
 -1      3517 9.87720E-01
 -1      3518 1.28844E+00
 -1      3519 1.44754E+00
 -1      3520 1.26214E+00
 -1      3521 1.76545E+00
 -1      3522 1.93446E+00
 -1      3523 1.74871E+00
 -1      3524 3.01238E+00
 -1      3525 3.21301E+00
 -1      3526 3.14453E+00
 -1      3527 3.98754E+00
 -1      3528 4.47811E+00
 -1      3529 4.99697E+00
 -1      3530 4.16406E+00
 -1      3531 3.82667E+00
 -1      3532 3.66274E+00
 -1      3533 5.08252E+00
 -1      3534 2.71798E+00
 -1      3535 2.56636E+00
 -1      3536 3.06047E+00
 -1      3537 3.80037E+00
 -1      3538 2.05777E+00
 -1      3539 1.61616E+00
 -1      3540 1.57970E+00
 -1      3541 2.73214E+00
 -1      3542 9.39136E-02
 -1      3543 1.05240E-01
 -1      3544 4.11519E-02
 -1      3545 4.86443E-02
 -1      3546 3.01984E-02
 -1      3547 3.58474E-02
 -1      3548 3.85677E-02
 -1      3549 3.60469E-02
 -1      3550 3.15853E-02
 -1      3551 3.46500E-02
 -1      3552 5.84095E-02
 -1      3553 4.49802E-02
 -1      3554 4.49702E-02
 -1      3555 8.99751E-02
 -1      3556 7.35574E-02
 -1      3557 6.90514E-02
 -1      3558 1.30182E-01
 -1      3559 1.09860E-01
 -1      3560 1.04085E-01
 -1      3561 1.80409E-01
 -1      3562 1.55166E-01
 -1      3563 1.48953E-01
 -1      3564 2.42847E-01
 -1      3565 2.11558E-01
 -1      3566 2.05086E-01
 -1      3567 3.19779E-01
 -1      3568 2.81196E-01
 -1      3569 2.74584E-01
 -1      3570 4.15202E-01
 -1      3571 3.66199E-01
 -1      3572 3.59354E-01
 -1      3573 5.29931E-01
 -1      3574 4.70144E-01
 -1      3575 4.60716E-01
 -1      3576 6.63678E-01
 -1      3577 5.92929E-01
 -1      3578 5.78656E-01
 -1      3579 8.13063E-01
 -1      3580 7.32322E-01
 -1      3581 7.10297E-01
 -1      3582 1.00915E+00
 -1      3583 9.15444E-01
 -1      3584 8.81323E-01
 -1      3585 1.25797E+00
 -1      3586 1.15214E+00
 -1      3587 1.12669E+00
 -1      3588 1.60144E+00
 -1      3589 1.47504E+00
 -1      3590 1.48674E+00
 -1      3591 2.09050E+00
 -1      3592 1.87698E+00
 -1      3593 1.97935E+00
 -1      3594 2.70020E+00
 -1      3595 2.44380E+00
 -1      3596 2.60819E+00
 -1      3597 3.83866E+00
 -1      3598 3.76778E+00
 -1      3599 4.92042E+00
 -1      3600 4.56266E+00
 -1      3601 5.53276E+00
 -1      3602 6.66904E+00
 -1      3603 6.06479E+00
 -1      3604 6.63733E+00
 -1      3605 7.60949E+00
 -1      3606 2.32928E-01
 -1      3607 2.48792E-01
 -1      3608 6.45064E+00
 -1      3609 5.25166E+00
 -1      3610 5.97158E+00
 -1      3611 7.33162E+00
 -1      3612 1.83417E-01
 -1      3613 1.97747E-01
 -1      3614 7.33162E+00
 -1      3615 7.33162E+00
 -1      3616 1.14954E-01
 -1      3617 1.27312E-01
 -1      3618 1.06714E-01
 -1      3619 5.47172E+00
 -1      3620 5.47172E+00
 -1      3621 5.79942E+00
 -1      3622 4.56266E+00
 -1      3623 5.70376E-02
 -1      3624 6.54792E-02
 -1      3625 5.22654E-02
 -1      3626 3.15959E-01
 -1      3627 3.23406E-01
 -1      3628 2.89312E-01
 -1      3629 2.08116E-01
 -1      3630 2.26411E-01
 -1      3631 1.87186E-01
 -1      3632 3.20839E-01
 -1      3633 7.43058E-02
 -1      3634 8.45697E-02
 -1      3635 8.76560E-02
 -1      3636 6.94854E-02
 -1      3637 2.16359E-01
 -1      3638 2.12810E-01
 -1      3639 1.79665E-01
 -1      3640 5.26654E+00
 -1      3641 3.00799E+00
 -1      3642 2.22776E-01
 -1      3643 2.04159E-01
 -1      3644 2.01929E-01
 -1      3645 1.85935E-01
 -1      3646 1.97579E-01
 -1      3647 1.57268E-01
 -1      3648 8.32969E+00
 -1      3649 7.89843E+00
 -1      3650 6.22703E+00
 -1      3651 6.21431E+00
 -1      3652 6.55603E+00
 -1      3653 6.35993E+00
 -1      3654 4.74830E+00
 -1      3655 4.36480E+00
 -1      3656 4.42205E+00
 -1      3657 3.58414E+00
 -1      3658 2.21394E-01
 -1      3659 2.52398E-01
 -1      3660 2.52398E-01
 -1      3661 3.23434E+00
 -1      3662 4.47198E+00
 -1      3663 4.81671E+00
 -1      3664 5.76673E+00
 -1      3665 3.41045E+00
 -1      3666 4.72600E+00
 -1      3667 7.71565E+00
 -1      3668 2.85610E-01
 -1      3669 2.53878E-01
 -1      3670 2.53878E-01
 -1      3671 3.21503E+00
 -1      3672 3.07507E+00
 -1      3673 2.72150E-01
 -1      3674 6.71148E+00
 -1      3675 3.10453E+00
 -1      3676 1.36932E-01
 -1      3677 1.49965E-01
 -1      3678 1.26049E-01
 -1      3679 2.83910E-01
 -1      3680 2.08521E-01
 -1      3681 2.46722E-01
 -1      3682 8.77036E+00
 -1      3683 8.77036E+00
 -1      3684 5.28533E+00
 -1      3685 6.08007E+00
 -1      3686 2.40832E-01
 -1      3687 1.95212E+00
 -1      3688 9.01273E+00
 -1      3689 4.63603E+00
 -1      3690 1.58641E-01
 -1      3691 1.71518E-01
 -1      3692 1.44344E-01
 -1      3693 7.38689E+00
 -1      3694 6.38392E+00
 -1      3695 5.70369E+00
 -1      3696 2.11724E-01
 -1      3697 2.47158E-01
 -1      3698 2.43048E-01
 -1      3699 6.35195E+00
 -1      3700 5.05017E+00
 -1      3701 2.52398E-01
 -1      3702 2.49114E-01
 -1      3703 2.16320E-01
 -1      3704 3.48140E+00
 -1      3705 1.64918E-01
 -1      3706 6.00641E+00
 -1      3707 2.19193E-01
 -1      3708 1.71746E-01
 -1      3709 4.70384E+00
 -1      3710 2.04074E-01
 -1      3711 4.26397E+00
 -1      3712 3.33636E+00
 -1      3713 2.34106E-01
 -1      3714 2.49467E-01
 -1      3715 2.13389E-01
 -1      3716 2.44902E-01
 -1      3717 4.79471E+00
 -1      3718 5.66274E+00
 -1      3719 5.32763E+00
 -1      3720 1.76964E-01
 -1      3721 1.83481E-01
 -1      3722 1.56053E-01
 -1      3723 1.48160E-01
 -1      3724 1.43680E-01
 -1      3725 1.33737E-01
 -1      3726 1.31486E-01
 -1      3727 1.26958E-01
 -1      3728 1.18638E-01
 -1      3729 1.20228E-01
 -1      3730 1.11134E-01
 -1      3731 1.02703E-01
 -1      3732 1.05946E-01
 -1      3733 9.63278E-02
 -1      3734 8.76250E-02
 -1      3735 9.20679E-02
 -1      3736 8.08938E-02
 -1      3737 7.23909E-02
 -1      3738 7.89619E-02
 -1      3739 6.57270E-02
 -1      3740 5.75944E-02
 -1      3741 6.55667E-02
 -1      3742 5.15150E-02
 -1      3743 4.37117E-02
 -1      3744 5.28235E-02
 -1      3745 4.41124E-02
 -1      3746 4.34730E-02
 -1      3747 4.71448E-02
 -1      3748 4.53763E-02
 -1      3749 4.74450E-02
 -1      3750 4.94488E-02
 -1      3751 5.11417E-02
 -1      3752 6.12014E-02
 -1      3753 5.50488E-02
 -1      3754 7.34181E-02
 -1      3755 9.01051E-02
 -1      3756 7.09622E-02
 -1      3757 1.07799E-01
 -1      3758 1.28869E-01
 -1      3759 1.00873E-01
 -1      3760 1.51359E-01
 -1      3761 1.77911E-01
 -1      3762 1.41057E-01
 -1      3763 2.06422E-01
 -1      3764 2.39668E-01
 -1      3765 1.92057E-01
 -1      3766 2.75723E-01
 -1      3767 3.16976E-01
 -1      3768 2.56622E-01
 -1      3769 3.62565E-01
 -1      3770 4.13204E-01
 -1      3771 3.38265E-01
 -1      3772 4.71082E-01
 -1      3773 5.32456E-01
 -1      3774 4.41733E-01
 -1      3775 6.06586E-01
 -1      3776 6.79748E-01
 -1      3777 5.73742E-01
 -1      3778 7.75774E-01
 -1      3779 8.60945E-01
 -1      3780 7.43898E-01
 -1      3781 9.87720E-01
 -1      3782 1.09347E+00
 -1      3783 9.66699E-01
 -1      3784 1.26214E+00
 -1      3785 1.43080E+00
 -1      3786 1.26214E+00
 -1      3787 1.68520E+00
 -1      3788 2.00311E+00
 -1      3789 1.68520E+00
 -1      3790 2.99321E+00
 -1      3791 4.07112E+00
 -1      3792 2.92970E+00
 -1      3793 2.29812E-01
 -1      3794 2.12414E-01
 -1      3795 1.73927E-01
 -1      3796 1.95432E-01
 -1      3797 2.50175E-01
 -1      3798 2.53878E-01
 -1      3799 2.18444E-01
 -1      3800 2.17382E-01
 -1      3801 5.30209E-02
 -1      3802 4.40875E-02
 -1      3803 4.11284E-02
 -1      3804 3.97415E-02
 -1      3805 4.91790E-02
 -1      3806 3.83964E-02
 -1      3807 4.37009E-02
 -1      3808 4.48748E-02
 -1      3809 8.00978E-02
 -1      3810 6.49499E-02
 -1      3811 6.40672E-02
 -1      3812 1.17435E-01
 -1      3813 9.75493E-02
 -1      3814 9.34478E-02
 -1      3815 1.64504E-01
 -1      3816 1.39520E-01
 -1      3817 1.32985E-01
 -1      3818 2.23516E-01
 -1      3819 1.92367E-01
 -1      3820 1.82934E-01
 -1      3821 2.96838E-01
 -1      3822 2.58488E-01
 -1      3823 2.45769E-01
 -1      3824 3.86920E-01
 -1      3825 3.40501E-01
 -1      3826 3.24404E-01
 -1      3827 4.96168E-01
 -1      3828 4.41225E-01
 -1      3829 4.22372E-01
 -1      3830 6.26588E-01
 -1      3831 5.63590E-01
 -1      3832 5.44100E-01
 -1      3833 7.78791E-01
 -1      3834 7.10146E-01
 -1      3835 6.95081E-01
 -1      3836 9.83704E-01
 -1      3837 8.81323E-01
 -1      3838 8.81172E-01
 -1      3839 1.25021E+00
 -1      3840 1.10723E+00
 -1      3841 1.10723E+00
 -1      3842 1.67042E+00
 -1      3843 1.45335E+00
 -1      3844 1.43389E+00
 -1      3845 2.47415E+00
 -1      3846 2.19861E+00
 -1      3847 2.16522E+00
 -1      3848 3.10833E+00
 -1      3849 2.75503E+00
 -1      3850 2.97429E+00
 -1      3851 3.99844E+00
 -1      3852 1.50160E-01
 -1      3853 1.53777E-01
 -1      3854 1.59972E-01
 -1      3855 1.56401E-01
 -1      3856 1.30467E-01
 -1      3857 4.84700E+00
 -1      3858 4.70004E+00
 -1      3859 9.11851E+00
 -1      3860 1.79272E-01
 -1      3861 1.77203E-01
 -1      3862 1.52163E-01
 -1      3863 8.22390E+00
 -1      3864 1.77561E-01
 -1      3865 1.44303E-01
 -1      3866 8.67784E+00
 -1      3867 4.15957E+00
 -1      3868 5.03616E+00
 -1      3869 4.36470E+00
 -1      3870 4.40992E+00
 -1      3871 4.06626E+00
 -1      3872 1.47126E-01
 -1      3873 1.59024E-01
 -1      3874 3.94523E+00
 -1      3875 4.03594E+00
 -1      3876 1.86950E-01
 -1      3877 5.70369E+00
 -1      3878 7.10257E+00
 -1      3879 1.84281E-01
 -1      3880 4.70928E-02
 -1      3881 5.54861E-02
 -1      3882 4.69216E-02
 -1      3883 1.64894E-01
 -1      3884 1.75264E-01
 -1      3885 1.47101E-01
 -1      3886 9.59825E-02
 -1      3887 1.05697E-01
 -1      3888 5.77150E+00
 -1      3889 6.38392E+00
 -1      3890 5.60189E+00
 -1      3891 5.01660E+00
 -1      3892 5.77150E+00
 -1      3893 4.14838E+00
 -1      3894 4.03538E+00
 -1      3895 3.34532E+00
 -1      3896 3.65178E+00
 -1      3897 3.88455E+00
 -1      3898 1.63083E-01
 -1      3899 1.54671E-01
 -1      3900 4.84565E+00
 -1      3901 4.99697E+00
 -1      3902 1.66720E-01
 -1      3903 1.55700E-01
 -1      3904 5.77150E+00
 -1      3905 1.36315E-01
 -1      3906 3.88910E+00
 -1      3907 1.37195E-01
 -1      3908 7.90270E-02
 -1      3909 8.83709E-02
 -1      3910 8.73535E-02
 -1      3911 5.75264E-02
 -1      3912 6.26990E-02
 -1      3913 7.15257E-02
 -1      3914 1.12954E-01
 -1      3915 1.22574E-01
 -1      3916 1.02222E-01
 -1      3917 1.37471E-01
 -1      3918 3.77478E+00
 -1      3919 1.90682E-01
 -1      3920 1.90682E-01
 -1      3921 1.56520E-01
 -1      3922 3.97159E+00
 -1      3923 1.86021E-01
 -1      3924 1.86021E-01
 -1      3925 1.30372E-01
 -1      3926 1.39047E-01
 -1      3927 1.17277E-01
 -1      3928 1.33153E-01
 -1      3929 1.71654E-01
 -1      3930 1.41355E-01
 -1      3931 4.09075E+00
 -1      3932 5.42797E-02
 -1      3933 5.13206E-02
 -1      3934 4.26397E+00
 -1      3935 1.97435E-01
 -1      3936 1.68723E-01
 -1      3937 1.12562E-01
 -1      3938 1.05784E-01
 -1      3939 1.01020E-01
 -1      3940 9.35163E-02
 -1      3941 9.33537E-02
 -1      3942 8.77378E-02
 -1      3943 8.13631E-02
 -1      3944 8.28114E-02
 -1      3945 7.56120E-02
 -1      3946 6.88807E-02
 -1      3947 7.12818E-02
 -1      3948 6.39420E-02
 -1      3949 5.72781E-02
 -1      3950 6.05920E-02
 -1      3951 5.57865E-02
 -1      3952 4.97071E-02
 -1      3953 5.41617E-02
 -1      3954 4.94042E-02
 -1      3955 4.98049E-02
 -1      3956 5.23672E-02
 -1      3957 5.12284E-02
 -1      3958 5.31317E-02
 -1      3959 5.34878E-02
 -1      3960 5.63931E-02
 -1      3961 6.00898E-02
 -1      3962 5.81727E-02
 -1      3963 6.65460E-02
 -1      3964 7.87627E-02
 -1      3965 6.78904E-02
 -1      3966 8.85833E-02
 -1      3967 1.06277E-01
 -1      3968 8.41671E-02
 -1      3969 1.22183E-01
 -1      3970 1.44673E-01
 -1      3971 1.09893E-01
 -1      3972 1.66562E-01
 -1      3973 1.95073E-01
 -1      3974 1.47689E-01
 -1      3975 2.23078E-01
 -1      3976 2.59132E-01
 -1      3977 1.97583E-01
 -1      3978 2.95078E-01
 -1      3979 3.40666E-01
 -1      3980 2.61533E-01
 -1      3981 3.87296E-01
 -1      3982 4.45175E-01
 -1      3983 3.44109E-01
 -1      3984 5.06954E-01
 -1      3985 5.81085E-01
 -1      3986 4.52518E-01
 -1      3987 6.65859E-01
 -1      3988 7.61884E-01
 -1      3989 5.99071E-01
 -1      3990 8.79392E-01
 -1      3991 1.00617E+00
 -1      3992 8.01352E-01
 -1      3993 1.18394E+00
 -1      3994 1.35260E+00
 -1      3995 1.09663E+00
 -1      3996 1.73837E+00
 -1      3997 1.99277E+00
 -1      3998 1.66017E+00
 -1      3999 2.81054E+00
 -1      4000 3.80064E+00
 -1      4001 2.86371E+00
 -1      4002 7.13683E-02
 -1      4003 5.94392E-02
 -1      4004 6.15808E-02
 -1      4005 1.19787E-01
 -1      4006 1.15307E-01
 -1      4007 1.00862E-01
 -1      4008 4.87725E-02
 -1      4009 4.74274E-02
 -1      4010 5.38732E-02
 -1      4011 1.40245E-01
 -1      4012 1.18159E-01
 -1      4013 1.90691E-01
 -1      4014 1.62828E-01
 -1      4015 1.48002E-01
 -1      4016 2.54425E-01
 -1      4017 2.19453E-01
 -1      4018 1.99347E-01
 -1      4019 3.34733E-01
 -1      4020 2.91070E-01
 -1      4021 2.64754E-01
 -1      4022 4.35964E-01
 -1      4023 3.81659E-01
 -1      4024 3.48325E-01
 -1      4025 5.64226E-01
 -1      4026 4.96803E-01
 -1      4027 4.56090E-01
 -1      4028 7.28475E-01
 -1      4029 6.44917E-01
 -1      4030 5.97620E-01
 -1      4031 9.41454E-01
 -1      4032 8.38922E-01
 -1      4033 7.88758E-01
 -1      4034 1.21673E+00
 -1      4035 1.09321E+00
 -1      4036 1.05096E+00
 -1      4037 1.63702E+00
 -1      4038 1.43389E+00
 -1      4039 1.41987E+00
 -1      4040 2.69341E+00
 -1      4041 2.16522E+00
 -1      4042 2.16522E+00
 -1      4043 3.06443E+00
 -1      4044 1.06958E-01
 -1      4045 1.13153E-01
 -1      4046 1.31111E-01
 -1      4047 1.26902E-01
 -1      4048 1.00466E-01
 -1      4049 8.30145E-02
 -1      4050 7.83865E-02
 -1      4051 3.97159E+00
 -1      4052 1.17893E-01
 -1      4053 1.25971E-01
 -1      4054 4.65812E-02
 -1      4055 4.99732E-02
 -1      4056 5.04790E-02
 -1      4057 3.68147E+00
 -1      4058 1.89621E-01
 -1      4059 1.90682E-01
 -1      4060 1.59321E-01
 -1      4061 1.22824E-01
 -1      4062 1.09901E-01
 -1      4063 9.25866E-02
 -1      4064 1.29225E-01
 -1      4065 1.29429E-01
 -1      4066 1.35299E-01
 -1      4067 1.14169E-01
 -1      4068 1.19482E-01
 -1      4069 1.19134E-01
 -1      4070 1.02954E-01
 -1      4071 3.10751E+00
 -1      4072 3.20082E+00
 -1      4073 1.35092E-01
 -1      4074 1.36792E-01
 -1      4075 1.11532E-01
 -1      4076 1.17420E-01
 -1      4077 3.07240E+00
 -1      4078 3.07240E+00
 -1      4079 2.49844E+00
 -1      4080 2.25464E+00
 -1      4081 2.98451E+00
 -1      4082 3.06443E+00
 -1      4083 1.07726E-01
 -1      4084 7.22406E-02
 -1      4085 1.07119E-01
 -1      4086 1.28171E-01
 -1      4087 5.09426E-02
 -1      4088 5.81555E-02
 -1      4089 5.06023E-02
 -1      4090 9.05358E-02
 -1      4091 9.77928E-02
 -1      4092 9.59727E-02
 -1      4093 1.62921E-01
 -1      4094 1.04469E-01
 -1      4095 1.12267E-01
 -1      4096 9.27830E-02
 -1      4097 1.17688E-01
 -1      4098 1.32055E-01
 -1      4099 1.10037E-01
 -1      4100 1.33704E-01
 -1      4101 1.37303E-01
 -1      4102 1.05085E-01
 -1      4103 7.70774E-02
 -1      4104 8.46890E-02
 -1      4105 8.02597E-02
 -1      4106 9.49503E-02
 -1      4107 9.22053E-02
 -1      4108 9.12691E-02
 -1      4109 8.65054E-02
 -1      4110 8.53570E-02
 -1      4111 8.33503E-02
 -1      4112 7.75718E-02
 -1      4113 8.12657E-02
 -1      4114 7.28534E-02
 -1      4115 6.71023E-02
 -1      4116 7.33922E-02
 -1      4117 6.23011E-02
 -1      4118 5.73624E-02
 -1      4119 6.38727E-02
 -1      4120 6.39866E-02
 -1      4121 6.24951E-02
 -1      4122 6.56957E-02
 -1      4123 5.26702E-02
 -1      4124 5.23672E-02
 -1      4125 6.24951E-02
 -1      4126 5.34878E-02
 -1      4127 5.49112E-02
 -1      4128 5.37907E-02
 -1      4129 5.81727E-02
 -1      4130 6.14342E-02
 -1      4131 5.81727E-02
 -1      4132 6.78904E-02
 -1      4133 7.43466E-02
 -1      4134 6.78904E-02
 -1      4135 8.41671E-02
 -1      4136 9.39877E-02
 -1      4137 8.41671E-02
 -1      4138 1.07199E-01
 -1      4139 1.23105E-01
 -1      4140 1.07199E-01
 -1      4141 1.40348E-01
 -1      4142 1.62238E-01
 -1      4143 1.37654E-01
 -1      4144 1.84312E-01
 -1      4145 2.12316E-01
 -1      4146 1.76971E-01
 -1      4147 2.40288E-01
 -1      4148 2.76233E-01
 -1      4149 2.27016E-01
 -1      4150 3.12604E-01
 -1      4151 3.59233E-01
 -1      4152 2.91358E-01
 -1      4153 4.06544E-01
 -1      4154 4.68324E-01
 -1      4155 3.75039E-01
 -1      4156 5.30842E-01
 -1      4157 6.15615E-01
 -1      4158 4.84868E-01
 -1      4159 6.99427E-01
 -1      4160 8.16935E-01
 -1      4161 6.31198E-01
 -1      4162 9.60613E-01
 -1      4163 1.13839E+00
 -1      4164 8.58688E-01
 -1      4165 1.35735E+00
 -1      4166 1.74312E+00
 -1      4167 1.95182E+00
 -1      4168 1.22133E+00
 -1      4169 2.61348E+00
 -1      4170 2.65576E-01
 -1      4171 2.28931E-01
 -1      4172 5.64212E-02
 -1      4173 5.38732E-02
 -1      4174 2.03509E-01
 -1      4175 1.74746E-01
 -1      4176 2.04330E-01
 -1      4177 1.54702E-01
 -1      4178 1.32120E-01
 -1      4179 1.58864E-01
 -1      4180 3.44537E-01
 -1      4181 2.97611E-01
 -1      4182 2.61788E-01
 -1      4183 4.47135E-01
 -1      4184 3.86296E-01
 -1      4185 3.35582E-01
 -1      4186 5.89132E-01
 -1      4187 5.08441E-01
 -1      4188 4.38647E-01
 -1      4189 7.85394E-01
 -1      4190 6.74947E-01
 -1      4191 5.85768E-01
 -1      4192 1.06928E+00
 -1      4193 9.17524E-01
 -1      4194 8.03713E-01
 -1      4195 1.44219E+00
 -1      4196 1.22504E+00
 -1      4197 1.09160E+00
 -1      4198 2.24117E+00
 -1      4199 1.71298E+00
 -1      4200 1.51815E+00
 -1      4201 2.16124E+00
 -1      4202 1.16549E-01
 -1      4203 9.88555E-02
 -1      4204 1.23249E-01
 -1      4205 1.02466E-01
 -1      4206 1.05924E-01
 -1      4207 1.08768E-01
 -1      4208 7.75214E-02
 -1      4209 8.38500E-02
 -1      4210 8.70422E-02
 -1      4211 7.53960E-02
 -1      4212 9.58651E-02
 -1      4213 8.52636E-02
 -1      4214 9.19402E-02
 -1      4215 1.37303E-01
 -1      4216 1.37303E-01
 -1      4217 1.03607E-01
 -1      4218 1.11686E-01
 -1      4219 6.37917E-02
 -1      4220 7.12930E-02
 -1      4221 6.86286E-02
 -1      4222 5.13251E-02
 -1      4223 5.04790E-02
 -1      4224 5.38732E-02
 -1      4225 9.28764E-02
 -1      4226 9.85021E-02
 -1      4227 9.02573E-02
 -1      4228 8.53570E-02
 -1      4229 6.67403E-02
 -1      4230 6.15808E-02
 -1      4231 6.15808E-02
 -1      4232 7.53960E-02
 -1      4233 9.31198E-02
 -1      4234 9.37729E-02
 -1      4235 7.46686E-02
 -1      4236 9.68416E-02
 -1      4237 9.97590E-02
 -1      4238 2.12613E+00
 -1      4239 6.09764E-02
 -1      4240 6.19459E-02
 -1      4241 6.18226E-02
 -1      4242 5.72080E-02
 -1      4243 9.42213E-02
 -1      4244 1.05924E-01
 -1      4245 1.05717E-01
 -1      4246 8.51158E-02
 -1      4247 8.21085E-02
 -1      4248 8.12657E-02
 -1      4249 7.62618E-02
 -1      4250 9.97590E-02
 -1      4251 7.46415E-02
 -1      4252 7.16991E-02
 -1      4253 5.95763E-02
 -1      4254 8.27198E-02
 -1      4255 1.02523E-01
 -1      4256 7.98100E-02
 -1      4257 8.90798E-02
 -1      4258 8.44208E-02
 -1      4259 8.12657E-02
 -1      4260 7.81106E-02
 -1      4261 7.33922E-02
 -1      4262 6.56957E-02
 -1      4263 7.23200E-02
 -1      4264 7.23200E-02
 -1      4265 6.24951E-02
 -1      4266 5.19977E-02
 -1      4267 5.31182E-02
 -1      4268 5.56662E-02
 -1      4269 5.89277E-02
 -1      4270 6.40872E-02
 -1      4271 7.05434E-02
 -1      4272 7.91992E-02
 -1      4273 8.90197E-02
 -1      4274 1.00833E-01
 -1      4275 1.14044E-01
 -1      4276 1.29615E-01
 -1      4277 1.46859E-01
 -1      4278 1.66903E-01
 -1      4279 1.88977E-01
 -1      4280 2.14399E-01
 -1      4281 2.42370E-01
 -1      4282 2.74405E-01
 -1      4283 3.10776E-01
 -1      4284 3.52534E-01
 -1      4285 3.99845E-01
 -1      4286 4.61152E-01
 -1      4287 5.23670E-01
 -1      4288 6.09485E-01
 -1      4289 6.93297E-01
 -1      4290 8.25427E-01
 -1      4291 9.69104E-01
 -1      4292 1.12486E+00
 -1      4293 1.61461E+00
 -1      4294 1.34383E+00
 -1      4295 8.53570E-02
 -1      4296 9.10268E-02
 -1      4297 6.57590E-02
 -1      4298 7.15434E-02
 -1      4299 7.33922E-02
 -1      4300 8.62933E-02
 -1      4301 6.05955E-02
 -1      4302 6.62317E-02
 -1      4303 6.91465E-02
 -1      4304 7.09696E-02
 -1      4305 8.90798E-02
 -1      4306 9.02573E-02
 -1      4307 6.86738E-02
 -1      4308 6.38727E-02
 -1      4309 9.42213E-02
 -1      4310 9.10268E-02
 -1      4311 9.42213E-02
 -1      4312 7.07931E-02
 -1      4313 7.66155E-02
 -1      4314 7.23200E-02
 -1      4315 7.04969E-02
 -1      4316 7.09696E-02
 -3
 9999
