    1C
    1UUSER                                                              
    1UDATE              26.october.2022                                 
    1UTIME              23:37:11                                        
    1UHOST                                                              
    1UPGM               CalculiX                                        
    1UVERSION           Version 2.17                             
    1UCOMPILETIME       Thu Jul 23 21:43:50 CEST 2020                    
    1UDIR                                                               
    1UDBN                                                               
    1UMAT    1SOLIDMATERIAL                                             
    2C                          4313                                     1
 -1         1 9.81494E+01 3.22466E+01 0.00000E+00
 -1         2 9.94962E+01 2.81185E+01 0.00000E+00
 -1         3 1.50000E+02 0.00000E+00 0.00000E+00
 -1         4 1.50000E+02 5.00000E+01 0.00000E+00
 -1         5 0.00000E+00 0.00000E+00 0.00000E+00
 -1         6 0.00000E+00 5.00000E+01 0.00000E+00
 -1         7 0.00000E+00 4.70500E+01 0.00000E+00
 -1         8 0.00000E+00 4.41000E+01 0.00000E+00
 -1         9 0.00000E+00 4.11500E+01 0.00000E+00
 -1        10 0.00000E+00 3.82000E+01 0.00000E+00
 -1        11 0.00000E+00 3.52500E+01 0.00000E+00
 -1        12 0.00000E+00 3.23500E+01 0.00000E+00
 -1        13 0.00000E+00 2.94000E+01 0.00000E+00
 -1        14 0.00000E+00 2.64500E+01 0.00000E+00
 -1        15 0.00000E+00 2.35000E+01 0.00000E+00
 -1        16 0.00000E+00 2.05500E+01 0.00000E+00
 -1        17 0.00000E+00 1.76000E+01 0.00000E+00
 -1        18 0.00000E+00 1.47000E+01 0.00000E+00
 -1        19 0.00000E+00 1.17500E+01 0.00000E+00
 -1        20 0.00000E+00 8.80000E+00 0.00000E+00
 -1        21 0.00000E+00 5.85000E+00 0.00000E+00
 -1        22 0.00000E+00 2.90000E+00 0.00000E+00
 -1        23 3.15000E+00 5.00000E+01 0.00000E+00
 -1        24 6.15000E+00 5.00000E+01 0.00000E+00
 -1        25 9.15000E+00 5.00000E+01 0.00000E+00
 -1        26 1.21500E+01 5.00000E+01 0.00000E+00
 -1        27 1.51500E+01 5.00000E+01 0.00000E+00
 -1        28 1.81500E+01 5.00000E+01 0.00000E+00
 -1        29 2.11500E+01 5.00000E+01 0.00000E+00
 -1        30 2.41500E+01 5.00000E+01 0.00000E+00
 -1        31 2.71500E+01 5.00000E+01 0.00000E+00
 -1        32 3.01500E+01 5.00000E+01 0.00000E+00
 -1        33 3.31500E+01 5.00000E+01 0.00000E+00
 -1        34 3.61500E+01 5.00000E+01 0.00000E+00
 -1        35 3.91500E+01 5.00000E+01 0.00000E+00
 -1        36 4.21500E+01 5.00000E+01 0.00000E+00
 -1        37 4.51500E+01 5.00000E+01 0.00000E+00
 -1        38 4.81500E+01 5.00000E+01 0.00000E+00
 -1        39 5.11500E+01 5.00000E+01 0.00000E+00
 -1        40 5.41500E+01 5.00000E+01 0.00000E+00
 -1        41 5.71500E+01 5.00000E+01 0.00000E+00
 -1        42 6.01500E+01 5.00000E+01 0.00000E+00
 -1        43 6.31500E+01 5.00000E+01 0.00000E+00
 -1        44 6.61500E+01 5.00000E+01 0.00000E+00
 -1        45 6.91500E+01 5.00000E+01 0.00000E+00
 -1        46 7.21500E+01 5.00000E+01 0.00000E+00
 -1        47 7.51500E+01 5.00000E+01 0.00000E+00
 -1        48 7.81500E+01 5.00000E+01 0.00000E+00
 -1        49 8.11500E+01 5.00000E+01 0.00000E+00
 -1        50 8.41500E+01 5.00000E+01 0.00000E+00
 -1        51 8.71500E+01 5.00000E+01 0.00000E+00
 -1        52 9.01500E+01 5.00000E+01 0.00000E+00
 -1        53 9.31500E+01 5.00000E+01 0.00000E+00
 -1        54 9.61500E+01 5.00000E+01 0.00000E+00
 -1        55 9.91500E+01 5.00000E+01 0.00000E+00
 -1        56 1.02150E+02 5.00000E+01 0.00000E+00
 -1        57 1.05150E+02 5.00000E+01 0.00000E+00
 -1        58 1.08150E+02 5.00000E+01 0.00000E+00
 -1        59 1.11150E+02 5.00000E+01 0.00000E+00
 -1        60 1.14150E+02 5.00000E+01 0.00000E+00
 -1        61 1.17150E+02 5.00000E+01 0.00000E+00
 -1        62 1.20150E+02 5.00000E+01 0.00000E+00
 -1        63 1.23150E+02 5.00000E+01 0.00000E+00
 -1        64 1.26150E+02 5.00000E+01 0.00000E+00
 -1        65 1.29150E+02 5.00000E+01 0.00000E+00
 -1        66 1.32150E+02 5.00000E+01 0.00000E+00
 -1        67 1.35150E+02 5.00000E+01 0.00000E+00
 -1        68 1.38150E+02 5.00000E+01 0.00000E+00
 -1        69 1.41150E+02 5.00000E+01 0.00000E+00
 -1        70 1.44150E+02 5.00000E+01 0.00000E+00
 -1        71 1.47150E+02 5.00000E+01 0.00000E+00
 -1        72 3.15000E+00 0.00000E+00 0.00000E+00
 -1        73 6.15000E+00 0.00000E+00 0.00000E+00
 -1        74 9.15000E+00 0.00000E+00 0.00000E+00
 -1        75 1.21500E+01 0.00000E+00 0.00000E+00
 -1        76 1.51500E+01 0.00000E+00 0.00000E+00
 -1        77 1.81500E+01 0.00000E+00 0.00000E+00
 -1        78 2.11500E+01 0.00000E+00 0.00000E+00
 -1        79 2.41500E+01 0.00000E+00 0.00000E+00
 -1        80 2.71500E+01 0.00000E+00 0.00000E+00
 -1        81 3.01500E+01 0.00000E+00 0.00000E+00
 -1        82 3.31500E+01 0.00000E+00 0.00000E+00
 -1        83 3.61500E+01 0.00000E+00 0.00000E+00
 -1        84 3.91500E+01 0.00000E+00 0.00000E+00
 -1        85 4.21500E+01 0.00000E+00 0.00000E+00
 -1        86 4.51500E+01 0.00000E+00 0.00000E+00
 -1        87 4.81500E+01 0.00000E+00 0.00000E+00
 -1        88 5.11500E+01 0.00000E+00 0.00000E+00
 -1        89 5.41500E+01 0.00000E+00 0.00000E+00
 -1        90 5.71500E+01 0.00000E+00 0.00000E+00
 -1        91 6.01500E+01 0.00000E+00 0.00000E+00
 -1        92 6.31500E+01 0.00000E+00 0.00000E+00
 -1        93 6.61500E+01 0.00000E+00 0.00000E+00
 -1        94 6.91500E+01 0.00000E+00 0.00000E+00
 -1        95 7.21500E+01 0.00000E+00 0.00000E+00
 -1        96 7.51500E+01 0.00000E+00 0.00000E+00
 -1        97 7.81500E+01 0.00000E+00 0.00000E+00
 -1        98 8.11500E+01 0.00000E+00 0.00000E+00
 -1        99 8.41500E+01 0.00000E+00 0.00000E+00
 -1       100 8.71500E+01 0.00000E+00 0.00000E+00
 -1       101 9.01500E+01 0.00000E+00 0.00000E+00
 -1       102 9.31500E+01 0.00000E+00 0.00000E+00
 -1       103 9.61500E+01 0.00000E+00 0.00000E+00
 -1       104 9.91500E+01 0.00000E+00 0.00000E+00
 -1       105 1.02150E+02 0.00000E+00 0.00000E+00
 -1       106 1.05150E+02 0.00000E+00 0.00000E+00
 -1       107 1.08150E+02 0.00000E+00 0.00000E+00
 -1       108 1.11150E+02 0.00000E+00 0.00000E+00
 -1       109 1.14150E+02 0.00000E+00 0.00000E+00
 -1       110 1.17150E+02 0.00000E+00 0.00000E+00
 -1       111 1.20150E+02 0.00000E+00 0.00000E+00
 -1       112 1.23150E+02 0.00000E+00 0.00000E+00
 -1       113 1.26150E+02 0.00000E+00 0.00000E+00
 -1       114 1.29150E+02 0.00000E+00 0.00000E+00
 -1       115 1.32150E+02 0.00000E+00 0.00000E+00
 -1       116 1.35150E+02 0.00000E+00 0.00000E+00
 -1       117 1.38150E+02 0.00000E+00 0.00000E+00
 -1       118 1.41150E+02 0.00000E+00 0.00000E+00
 -1       119 1.44150E+02 0.00000E+00 0.00000E+00
 -1       120 1.47150E+02 0.00000E+00 0.00000E+00
 -1       121 1.50000E+02 2.95000E+00 0.00000E+00
 -1       122 1.50000E+02 5.90000E+00 0.00000E+00
 -1       123 1.50000E+02 8.85000E+00 0.00000E+00
 -1       124 1.50000E+02 1.18000E+01 0.00000E+00
 -1       125 1.50000E+02 1.47500E+01 0.00000E+00
 -1       126 1.50000E+02 1.76500E+01 0.00000E+00
 -1       127 1.50000E+02 2.06000E+01 0.00000E+00
 -1       128 1.50000E+02 2.35500E+01 0.00000E+00
 -1       129 1.50000E+02 2.65000E+01 0.00000E+00
 -1       130 1.50000E+02 2.94500E+01 0.00000E+00
 -1       131 1.50000E+02 3.24000E+01 0.00000E+00
 -1       132 1.50000E+02 3.53000E+01 0.00000E+00
 -1       133 1.50000E+02 3.82500E+01 0.00000E+00
 -1       134 1.50000E+02 4.12000E+01 0.00000E+00
 -1       135 1.50000E+02 4.41500E+01 0.00000E+00
 -1       136 1.50000E+02 4.71000E+01 0.00000E+00
 -1       137 9.93173E+01 2.65460E+01 0.00000E+00
 -1       138 9.87872E+01 2.50489E+01 0.00000E+00
 -1       139 9.80449E+01 2.38510E+01 0.00000E+00
 -1       140 9.70106E+01 2.27687E+01 0.00000E+00
 -1       141 9.57038E+01 2.18967E+01 0.00000E+00
 -1       142 9.42501E+01 2.13418E+01 0.00000E+00
 -1       143 9.26782E+01 2.11209E+01 0.00000E+00
 -1       144 9.12250E+01 2.12349E+01 0.00000E+00
 -1       145 8.97901E+01 2.16627E+01 0.00000E+00
 -1       146 8.84851E+01 2.23817E+01 0.00000E+00
 -1       147 8.74315E+01 2.32864E+01 0.00000E+00
 -1       148 8.65069E+01 2.44953E+01 0.00000E+00
 -1       149 8.58686E+01 2.58656E+01 0.00000E+00
 -1       150 8.55453E+01 2.72909E+01 0.00000E+00
 -1       151 8.55234E+01 2.87347E+01 0.00000E+00
 -1       152 8.58328E+01 3.02632E+01 0.00000E+00
 -1       153 8.64461E+01 3.16393E+01 0.00000E+00
 -1       154 8.72935E+01 3.28017E+01 0.00000E+00
 -1       155 8.85766E+01 3.39183E+01 0.00000E+00
 -1       156 8.98186E+01 3.45862E+01 0.00000E+00
 -1       157 9.14412E+01 3.50386E+01 0.00000E+00
 -1       158 9.29467E+01 3.51040E+01 0.00000E+00
 -1       159 9.44566E+01 3.48384E+01 0.00000E+00
 -1       160 9.57682E+01 3.43067E+01 0.00000E+00
 -1       161 9.70316E+01 3.34505E+01 0.00000E+00
 -1       162 9.89068E+01 3.09299E+01 0.00000E+00
 -1       163 9.93481E+01 2.95506E+01 0.00000E+00
 -1       164 2.59800E+00 4.55750E+01 0.00000E+00
 -1       165 2.59800E+00 4.26250E+01 0.00000E+00
 -1       166 2.59800E+00 3.96750E+01 0.00000E+00
 -1       167 2.59800E+00 3.67250E+01 0.00000E+00
 -1       168 2.59800E+00 3.38250E+01 0.00000E+00
 -1       169 2.59800E+00 3.08750E+01 0.00000E+00
 -1       170 2.59800E+00 2.79250E+01 0.00000E+00
 -1       171 2.59800E+00 2.49750E+01 0.00000E+00
 -1       172 2.59800E+00 2.20250E+01 0.00000E+00
 -1       173 2.59800E+00 1.90750E+01 0.00000E+00
 -1       174 2.59800E+00 1.61750E+01 0.00000E+00
 -1       175 2.59800E+00 1.32250E+01 0.00000E+00
 -1       176 2.59800E+00 1.02750E+01 0.00000E+00
 -1       177 2.59800E+00 7.32500E+00 0.00000E+00
 -1       178 2.59800E+00 4.37500E+00 0.00000E+00
 -1       179 2.87400E+00 2.18750E+00 0.00000E+00
 -1       180 4.65000E+00 4.74020E+01 0.00000E+00
 -1       181 7.65000E+00 4.74020E+01 0.00000E+00
 -1       182 1.06500E+01 4.74020E+01 0.00000E+00
 -1       183 1.36500E+01 4.74020E+01 0.00000E+00
 -1       184 1.66500E+01 4.74020E+01 0.00000E+00
 -1       185 1.96500E+01 4.74020E+01 0.00000E+00
 -1       186 2.26500E+01 4.74020E+01 0.00000E+00
 -1       187 2.56500E+01 4.74020E+01 0.00000E+00
 -1       188 2.86500E+01 4.74020E+01 0.00000E+00
 -1       189 3.16500E+01 4.74020E+01 0.00000E+00
 -1       190 3.46500E+01 4.74020E+01 0.00000E+00
 -1       191 3.76500E+01 4.74020E+01 0.00000E+00
 -1       192 4.06500E+01 4.74020E+01 0.00000E+00
 -1       193 4.36500E+01 4.74020E+01 0.00000E+00
 -1       194 4.66500E+01 4.74020E+01 0.00000E+00
 -1       195 4.96500E+01 4.74020E+01 0.00000E+00
 -1       196 5.26500E+01 4.74020E+01 0.00000E+00
 -1       197 5.56500E+01 4.74020E+01 0.00000E+00
 -1       198 5.86500E+01 4.74020E+01 0.00000E+00
 -1       199 6.16500E+01 4.74020E+01 0.00000E+00
 -1       200 6.46500E+01 4.74020E+01 0.00000E+00
 -1       201 6.76500E+01 4.74020E+01 0.00000E+00
 -1       202 7.06500E+01 4.74020E+01 0.00000E+00
 -1       203 7.36500E+01 4.74020E+01 0.00000E+00
 -1       204 7.66500E+01 4.74020E+01 0.00000E+00
 -1       205 7.96500E+01 4.74020E+01 0.00000E+00
 -1       206 8.26500E+01 4.74020E+01 0.00000E+00
 -1       207 8.56500E+01 4.74020E+01 0.00000E+00
 -1       208 8.86500E+01 4.74020E+01 0.00000E+00
 -1       209 9.16500E+01 4.74020E+01 0.00000E+00
 -1       210 9.46500E+01 4.74020E+01 0.00000E+00
 -1       211 9.76500E+01 4.74020E+01 0.00000E+00
 -1       212 1.00650E+02 4.74020E+01 0.00000E+00
 -1       213 1.03650E+02 4.74020E+01 0.00000E+00
 -1       214 1.06650E+02 4.74020E+01 0.00000E+00
 -1       215 1.09650E+02 4.74020E+01 0.00000E+00
 -1       216 1.12650E+02 4.74020E+01 0.00000E+00
 -1       217 1.15650E+02 4.74020E+01 0.00000E+00
 -1       218 1.18650E+02 4.74020E+01 0.00000E+00
 -1       219 1.21650E+02 4.74020E+01 0.00000E+00
 -1       220 1.24650E+02 4.74020E+01 0.00000E+00
 -1       221 1.27650E+02 4.74020E+01 0.00000E+00
 -1       222 1.30650E+02 4.74020E+01 0.00000E+00
 -1       223 1.33650E+02 4.74020E+01 0.00000E+00
 -1       224 1.36650E+02 4.74020E+01 0.00000E+00
 -1       225 1.39650E+02 4.74020E+01 0.00000E+00
 -1       226 1.42650E+02 4.74020E+01 0.00000E+00
 -1       227 1.45650E+02 4.74020E+01 0.00000E+00
 -1       228 5.87400E+00 2.18750E+00 0.00000E+00
 -1       229 8.87400E+00 2.18750E+00 0.00000E+00
 -1       230 1.18740E+01 2.18750E+00 0.00000E+00
 -1       231 1.48740E+01 2.18750E+00 0.00000E+00
 -1       232 1.78740E+01 2.18750E+00 0.00000E+00
 -1       233 2.08740E+01 2.18750E+00 0.00000E+00
 -1       234 2.38740E+01 2.18750E+00 0.00000E+00
 -1       235 2.68740E+01 2.18750E+00 0.00000E+00
 -1       236 2.98740E+01 2.18750E+00 0.00000E+00
 -1       237 3.28740E+01 2.18750E+00 0.00000E+00
 -1       238 3.58740E+01 2.18750E+00 0.00000E+00
 -1       239 3.88740E+01 2.18750E+00 0.00000E+00
 -1       240 4.18740E+01 2.18750E+00 0.00000E+00
 -1       241 4.48740E+01 2.18750E+00 0.00000E+00
 -1       242 4.78740E+01 2.18750E+00 0.00000E+00
 -1       243 5.08740E+01 2.18750E+00 0.00000E+00
 -1       244 5.38740E+01 2.18750E+00 0.00000E+00
 -1       245 5.68740E+01 2.18750E+00 0.00000E+00
 -1       246 5.98740E+01 2.18750E+00 0.00000E+00
 -1       247 6.28740E+01 2.18750E+00 0.00000E+00
 -1       248 6.58740E+01 2.18750E+00 0.00000E+00
 -1       249 6.88740E+01 2.18750E+00 0.00000E+00
 -1       250 7.18740E+01 2.18750E+00 0.00000E+00
 -1       251 7.48740E+01 2.18750E+00 0.00000E+00
 -1       252 7.78740E+01 2.18750E+00 0.00000E+00
 -1       253 8.08740E+01 2.18750E+00 0.00000E+00
 -1       254 8.38740E+01 2.18750E+00 0.00000E+00
 -1       255 8.68740E+01 2.18750E+00 0.00000E+00
 -1       256 8.98740E+01 2.18750E+00 0.00000E+00
 -1       257 9.28740E+01 2.18750E+00 0.00000E+00
 -1       258 9.58740E+01 2.18750E+00 0.00000E+00
 -1       259 9.88740E+01 2.18750E+00 0.00000E+00
 -1       260 1.01874E+02 2.18750E+00 0.00000E+00
 -1       261 1.04874E+02 2.18750E+00 0.00000E+00
 -1       262 1.07874E+02 2.18750E+00 0.00000E+00
 -1       263 1.10874E+02 2.18750E+00 0.00000E+00
 -1       264 1.13874E+02 2.18750E+00 0.00000E+00
 -1       265 1.16874E+02 2.18750E+00 0.00000E+00
 -1       266 1.19874E+02 2.18750E+00 0.00000E+00
 -1       267 1.22874E+02 2.18750E+00 0.00000E+00
 -1       268 1.25874E+02 2.18750E+00 0.00000E+00
 -1       269 1.28874E+02 2.18750E+00 0.00000E+00
 -1       270 1.31874E+02 2.18750E+00 0.00000E+00
 -1       271 1.34874E+02 2.18750E+00 0.00000E+00
 -1       272 1.37874E+02 2.18750E+00 0.00000E+00
 -1       273 1.40874E+02 2.18750E+00 0.00000E+00
 -1       274 1.43874E+02 2.18750E+00 0.00000E+00
 -1       275 1.46874E+02 2.18750E+00 0.00000E+00
 -1       276 1.47402E+02 4.42500E+00 0.00000E+00
 -1       277 1.47402E+02 7.37500E+00 0.00000E+00
 -1       278 1.47402E+02 1.03250E+01 0.00000E+00
 -1       279 1.47402E+02 1.32750E+01 0.00000E+00
 -1       280 1.47402E+02 1.61750E+01 0.00000E+00
 -1       281 1.47402E+02 1.91250E+01 0.00000E+00
 -1       282 1.47402E+02 2.20750E+01 0.00000E+00
 -1       283 1.47402E+02 2.50250E+01 0.00000E+00
 -1       284 1.47402E+02 2.79750E+01 0.00000E+00
 -1       285 1.47402E+02 3.09250E+01 0.00000E+00
 -1       286 1.47402E+02 3.38250E+01 0.00000E+00
 -1       287 1.47402E+02 3.67750E+01 0.00000E+00
 -1       288 1.47402E+02 3.97250E+01 0.00000E+00
 -1       289 1.47402E+02 4.26750E+01 0.00000E+00
 -1       290 1.46526E+02 4.50385E+01 0.00000E+00
 -1       291 1.00756E+02 2.71787E+01 0.00000E+00
 -1       292 1.00353E+02 2.53369E+01 0.00000E+00
 -1       293 9.94466E+01 2.38113E+01 0.00000E+00
 -1       294 9.84042E+01 2.24722E+01 0.00000E+00
 -1       295 9.72162E+01 2.10454E+01 0.00000E+00
 -1       296 9.54392E+01 2.04083E+01 0.00000E+00
 -1       297 9.36796E+01 1.96989E+01 0.00000E+00
 -1       298 9.18567E+01 1.99692E+01 0.00000E+00
 -1       299 9.01132E+01 2.01264E+01 0.00000E+00
 -1       300 8.83909E+01 2.06668E+01 0.00000E+00
 -1       301 8.71684E+01 2.19143E+01 0.00000E+00
 -1       302 8.58731E+01 2.30524E+01 0.00000E+00
 -1       303 8.49368E+01 2.45978E+01 0.00000E+00
 -1       304 8.44429E+01 2.62915E+01 0.00000E+00
 -1       305 8.43221E+01 2.79944E+01 0.00000E+00
 -1       306 8.43256E+01 2.97728E+01 0.00000E+00
 -1       307 8.50320E+01 3.14448E+01 0.00000E+00
 -1       308 8.58901E+01 3.29347E+01 0.00000E+00
 -1       309 8.69192E+01 3.45274E+01 0.00000E+00
 -1       310 8.85837E+01 3.53938E+01 0.00000E+00
 -1       311 9.01918E+01 3.63838E+01 0.00000E+00
 -1       312 9.21413E+01 3.62825E+01 0.00000E+00
 -1       313 9.39262E+01 3.62478E+01 0.00000E+00
 -1       314 9.55679E+01 3.56961E+01 0.00000E+00
 -1       315 9.71271E+01 3.49516E+01 0.00000E+00
 -1       316 9.85859E+01 3.37727E+01 0.00000E+00
 -1       317 9.97055E+01 3.22655E+01 0.00000E+00
 -1       318 1.00341E+02 3.06286E+01 0.00000E+00
 -1       319 1.00690E+02 2.89656E+01 0.00000E+00
 -1       320 5.19600E+00 4.11500E+01 0.00000E+00
 -1       321 5.19600E+00 4.41000E+01 0.00000E+00
 -1       322 5.19600E+00 3.52750E+01 0.00000E+00
 -1       323 5.19600E+00 3.23250E+01 0.00000E+00
 -1       324 5.19600E+00 2.93750E+01 0.00000E+00
 -1       325 5.19600E+00 2.64250E+01 0.00000E+00
 -1       326 5.19600E+00 2.34750E+01 0.00000E+00
 -1       327 5.19600E+00 2.05250E+01 0.00000E+00
 -1       328 5.19600E+00 1.76250E+01 0.00000E+00
 -1       329 5.19600E+00 1.46750E+01 0.00000E+00
 -1       330 5.19600E+00 1.17250E+01 0.00000E+00
 -1       331 5.19600E+00 8.77500E+00 0.00000E+00
 -1       332 5.19600E+00 5.82500E+00 0.00000E+00
 -1       333 5.53500E+00 4.00625E+00 0.00000E+00
 -1       334 8.53500E+00 4.00625E+00 0.00000E+00
 -1       335 9.15000E+00 4.48040E+01 0.00000E+00
 -1       336 1.21500E+01 4.48040E+01 0.00000E+00
 -1       337 1.51500E+01 4.48040E+01 0.00000E+00
 -1       338 1.81500E+01 4.48040E+01 0.00000E+00
 -1       339 2.11500E+01 4.48040E+01 0.00000E+00
 -1       340 2.41500E+01 4.48040E+01 0.00000E+00
 -1       341 2.71500E+01 4.48040E+01 0.00000E+00
 -1       342 3.01500E+01 4.48040E+01 0.00000E+00
 -1       343 3.31500E+01 4.48040E+01 0.00000E+00
 -1       344 3.61500E+01 4.48040E+01 0.00000E+00
 -1       345 3.91500E+01 4.48040E+01 0.00000E+00
 -1       346 4.21500E+01 4.48040E+01 0.00000E+00
 -1       347 4.51500E+01 4.48040E+01 0.00000E+00
 -1       348 4.81500E+01 4.48040E+01 0.00000E+00
 -1       349 5.11500E+01 4.48040E+01 0.00000E+00
 -1       350 5.41500E+01 4.48040E+01 0.00000E+00
 -1       351 5.71500E+01 4.48040E+01 0.00000E+00
 -1       352 6.01500E+01 4.48040E+01 0.00000E+00
 -1       353 6.31500E+01 4.48040E+01 0.00000E+00
 -1       354 6.61500E+01 4.48040E+01 0.00000E+00
 -1       355 6.91500E+01 4.48040E+01 0.00000E+00
 -1       356 7.21500E+01 4.48040E+01 0.00000E+00
 -1       357 7.51500E+01 4.48040E+01 0.00000E+00
 -1       358 7.81500E+01 4.48040E+01 0.00000E+00
 -1       359 8.11500E+01 4.48040E+01 0.00000E+00
 -1       360 8.41500E+01 4.48040E+01 0.00000E+00
 -1       361 8.71500E+01 4.48040E+01 0.00000E+00
 -1       362 9.01500E+01 4.48040E+01 0.00000E+00
 -1       363 9.31500E+01 4.48040E+01 0.00000E+00
 -1       364 9.61500E+01 4.48040E+01 0.00000E+00
 -1       365 9.91500E+01 4.48040E+01 0.00000E+00
 -1       366 1.02150E+02 4.48040E+01 0.00000E+00
 -1       367 1.05150E+02 4.48040E+01 0.00000E+00
 -1       368 1.08150E+02 4.48040E+01 0.00000E+00
 -1       369 1.11150E+02 4.48040E+01 0.00000E+00
 -1       370 1.14150E+02 4.48040E+01 0.00000E+00
 -1       371 1.17150E+02 4.48040E+01 0.00000E+00
 -1       372 1.20150E+02 4.48040E+01 0.00000E+00
 -1       373 1.23150E+02 4.48040E+01 0.00000E+00
 -1       374 1.26150E+02 4.48040E+01 0.00000E+00
 -1       375 1.29150E+02 4.48040E+01 0.00000E+00
 -1       376 1.32150E+02 4.48040E+01 0.00000E+00
 -1       377 1.35150E+02 4.48040E+01 0.00000E+00
 -1       378 1.38150E+02 4.48040E+01 0.00000E+00
 -1       379 1.41150E+02 4.48040E+01 0.00000E+00
 -1       380 1.43838E+02 4.49212E+01 0.00000E+00
 -1       381 1.15350E+01 4.00625E+00 0.00000E+00
 -1       382 1.45350E+01 4.00625E+00 0.00000E+00
 -1       383 1.75350E+01 4.00625E+00 0.00000E+00
 -1       384 2.05350E+01 4.00625E+00 0.00000E+00
 -1       385 2.35350E+01 4.00625E+00 0.00000E+00
 -1       386 2.65350E+01 4.00625E+00 0.00000E+00
 -1       387 2.95350E+01 4.00625E+00 0.00000E+00
 -1       388 3.25350E+01 4.00625E+00 0.00000E+00
 -1       389 3.55350E+01 4.00625E+00 0.00000E+00
 -1       390 3.85350E+01 4.00625E+00 0.00000E+00
 -1       391 4.15350E+01 4.00625E+00 0.00000E+00
 -1       392 4.45350E+01 4.00625E+00 0.00000E+00
 -1       393 4.75350E+01 4.00625E+00 0.00000E+00
 -1       394 5.05350E+01 4.00625E+00 0.00000E+00
 -1       395 5.35350E+01 4.00625E+00 0.00000E+00
 -1       396 5.65350E+01 4.00625E+00 0.00000E+00
 -1       397 5.95350E+01 4.00625E+00 0.00000E+00
 -1       398 6.25350E+01 4.00625E+00 0.00000E+00
 -1       399 6.55350E+01 4.00625E+00 0.00000E+00
 -1       400 6.85350E+01 4.00625E+00 0.00000E+00
 -1       401 7.15350E+01 4.00625E+00 0.00000E+00
 -1       402 7.45350E+01 4.00625E+00 0.00000E+00
 -1       403 7.75350E+01 4.00625E+00 0.00000E+00
 -1       404 8.05350E+01 4.00625E+00 0.00000E+00
 -1       405 8.35350E+01 4.00625E+00 0.00000E+00
 -1       406 8.65350E+01 4.00625E+00 0.00000E+00
 -1       407 8.95350E+01 4.00625E+00 0.00000E+00
 -1       408 9.25350E+01 4.00625E+00 0.00000E+00
 -1       409 9.55350E+01 4.00625E+00 0.00000E+00
 -1       410 9.85350E+01 4.00625E+00 0.00000E+00
 -1       411 1.01535E+02 4.00625E+00 0.00000E+00
 -1       412 1.04535E+02 4.00625E+00 0.00000E+00
 -1       413 1.07535E+02 4.00625E+00 0.00000E+00
 -1       414 1.10535E+02 4.00625E+00 0.00000E+00
 -1       415 1.13535E+02 4.00625E+00 0.00000E+00
 -1       416 1.16535E+02 4.00625E+00 0.00000E+00
 -1       417 1.19535E+02 4.00625E+00 0.00000E+00
 -1       418 1.22535E+02 4.00625E+00 0.00000E+00
 -1       419 1.25535E+02 4.00625E+00 0.00000E+00
 -1       420 1.28535E+02 4.00625E+00 0.00000E+00
 -1       421 1.31535E+02 4.00625E+00 0.00000E+00
 -1       422 1.34535E+02 4.00625E+00 0.00000E+00
 -1       423 1.37535E+02 4.00625E+00 0.00000E+00
 -1       424 1.40535E+02 4.00625E+00 0.00000E+00
 -1       425 1.43535E+02 4.00625E+00 0.00000E+00
 -1       426 1.45469E+02 4.21562E+00 0.00000E+00
 -1       427 1.44804E+02 1.18000E+01 0.00000E+00
 -1       428 1.44804E+02 8.85000E+00 0.00000E+00
 -1       429 1.45136E+02 6.53281E+00 0.00000E+00
 -1       430 1.44804E+02 1.47000E+01 0.00000E+00
 -1       431 1.44804E+02 1.76500E+01 0.00000E+00
 -1       432 1.44804E+02 2.06000E+01 0.00000E+00
 -1       433 1.44804E+02 2.35500E+01 0.00000E+00
 -1       434 1.44804E+02 2.65000E+01 0.00000E+00
 -1       435 1.44804E+02 2.94500E+01 0.00000E+00
 -1       436 1.44804E+02 3.23500E+01 0.00000E+00
 -1       437 1.44804E+02 3.53000E+01 0.00000E+00
 -1       438 1.44804E+02 3.82500E+01 0.00000E+00
 -1       439 1.44804E+02 4.12000E+01 0.00000E+00
 -1       440 1.01086E+02 2.38692E+01 0.00000E+00
 -1       441 1.02248E+02 2.81288E+01 0.00000E+00
 -1       442 1.02209E+02 2.58957E+01 0.00000E+00
 -1       443 1.00279E+02 2.20882E+01 0.00000E+00
 -1       444 9.90908E+01 2.06615E+01 0.00000E+00
 -1       445 5.19600E+00 3.82125E+01 0.00000E+00
 -1       446 9.51380E+01 1.86183E+01 0.00000E+00
 -1       447 9.25657E+01 1.84690E+01 0.00000E+00
 -1       448 9.08222E+01 1.86262E+01 0.00000E+00
 -1       449 8.88390E+01 1.90799E+01 0.00000E+00
 -1       450 8.68539E+01 2.03833E+01 0.00000E+00
 -1       451 8.55585E+01 2.15215E+01 0.00000E+00
 -1       452 8.41530E+01 2.30666E+01 0.00000E+00
 -1       453 8.32846E+01 2.50349E+01 0.00000E+00
 -1       454 8.30895E+01 2.70512E+01 0.00000E+00
 -1       455 8.29438E+01 2.88863E+01 0.00000E+00
 -1       456 8.32533E+01 3.12111E+01 0.00000E+00
 -1       457 8.43378E+01 3.28366E+01 0.00000E+00
 -1       458 8.53159E+01 3.44345E+01 0.00000E+00
 -1       459 8.70369E+01 3.63333E+01 0.00000E+00
 -1       460 8.86450E+01 3.73233E+01 0.00000E+00
 -1       461 9.12468E+01 3.78786E+01 0.00000E+00
 -1       462 9.30317E+01 3.78438E+01 0.00000E+00
 -1       463 9.52934E+01 3.75977E+01 0.00000E+00
 -1       464 9.68526E+01 3.68532E+01 0.00000E+00
 -1       465 9.87238E+01 3.54355E+01 0.00000E+00
 -1       466 1.00491E+02 3.40183E+01 0.00000E+00
 -1       467 1.01446E+02 3.19995E+01 0.00000E+00
 -1       468 1.01927E+02 3.00929E+01 0.00000E+00
 -1       469 9.69150E+01 1.92554E+01 0.00000E+00
 -1       470 8.97000E+01 3.88181E+01 0.00000E+00
 -1       471 8.54337E+01 3.62404E+01 0.00000E+00
 -1       472 9.40242E+01 1.73884E+01 0.00000E+00
 -1       473 8.73019E+01 1.87964E+01 0.00000E+00
 -1       474 1.00350E+01 6.60425E+00 0.00000E+00
 -1       475 7.79400E+00 3.08500E+01 0.00000E+00
 -1       476 7.79400E+00 3.38000E+01 0.00000E+00
 -1       477 7.79400E+00 2.49500E+01 0.00000E+00
 -1       478 7.79400E+00 2.20000E+01 0.00000E+00
 -1       479 7.79400E+00 1.91000E+01 0.00000E+00
 -1       480 7.79400E+00 1.61500E+01 0.00000E+00
 -1       481 7.79400E+00 1.32000E+01 0.00000E+00
 -1       482 7.79400E+00 1.02500E+01 0.00000E+00
 -1       483 1.30350E+01 6.60425E+00 0.00000E+00
 -1       484 1.06500E+01 4.22060E+01 0.00000E+00
 -1       485 9.90247E+01 1.83772E+01 0.00000E+00
 -1       486 1.02928E+02 2.41731E+01 0.00000E+00
 -1       487 1.36500E+01 4.22060E+01 0.00000E+00
 -1       488 1.66500E+01 4.22060E+01 0.00000E+00
 -1       489 1.96500E+01 4.22060E+01 0.00000E+00
 -1       490 2.26500E+01 4.22060E+01 0.00000E+00
 -1       491 2.56500E+01 4.22060E+01 0.00000E+00
 -1       492 2.86500E+01 4.22060E+01 0.00000E+00
 -1       493 3.16500E+01 4.22060E+01 0.00000E+00
 -1       494 3.46500E+01 4.22060E+01 0.00000E+00
 -1       495 3.76500E+01 4.22060E+01 0.00000E+00
 -1       496 4.06500E+01 4.22060E+01 0.00000E+00
 -1       497 4.36500E+01 4.22060E+01 0.00000E+00
 -1       498 4.66500E+01 4.22060E+01 0.00000E+00
 -1       499 4.96500E+01 4.22060E+01 0.00000E+00
 -1       500 5.26500E+01 4.22060E+01 0.00000E+00
 -1       501 5.56500E+01 4.22060E+01 0.00000E+00
 -1       502 5.86500E+01 4.22060E+01 0.00000E+00
 -1       503 6.16500E+01 4.22060E+01 0.00000E+00
 -1       504 6.46500E+01 4.22060E+01 0.00000E+00
 -1       505 6.76500E+01 4.22060E+01 0.00000E+00
 -1       506 7.06500E+01 4.22060E+01 0.00000E+00
 -1       507 7.36500E+01 4.22060E+01 0.00000E+00
 -1       508 7.66500E+01 4.22060E+01 0.00000E+00
 -1       509 7.96500E+01 4.22060E+01 0.00000E+00
 -1       510 8.26500E+01 4.22060E+01 0.00000E+00
 -1       511 8.56500E+01 4.22060E+01 0.00000E+00
 -1       512 8.86500E+01 4.22060E+01 0.00000E+00
 -1       513 9.16500E+01 4.22060E+01 0.00000E+00
 -1       514 9.46500E+01 4.22060E+01 0.00000E+00
 -1       515 9.76500E+01 4.22060E+01 0.00000E+00
 -1       516 1.00650E+02 4.22060E+01 0.00000E+00
 -1       517 1.03650E+02 4.22060E+01 0.00000E+00
 -1       518 1.06650E+02 4.22060E+01 0.00000E+00
 -1       519 1.09650E+02 4.22060E+01 0.00000E+00
 -1       520 1.12650E+02 4.22060E+01 0.00000E+00
 -1       521 1.15650E+02 4.22060E+01 0.00000E+00
 -1       522 1.18650E+02 4.22060E+01 0.00000E+00
 -1       523 1.21650E+02 4.22060E+01 0.00000E+00
 -1       524 1.24650E+02 4.22060E+01 0.00000E+00
 -1       525 1.27650E+02 4.22060E+01 0.00000E+00
 -1       526 1.30650E+02 4.22060E+01 0.00000E+00
 -1       527 1.33650E+02 4.22060E+01 0.00000E+00
 -1       528 1.36650E+02 4.22060E+01 0.00000E+00
 -1       529 1.39650E+02 4.22060E+01 0.00000E+00
 -1       530 1.90350E+01 6.60425E+00 0.00000E+00
 -1       531 2.20350E+01 6.60425E+00 0.00000E+00
 -1       532 2.50350E+01 6.60425E+00 0.00000E+00
 -1       533 2.80350E+01 6.60425E+00 0.00000E+00
 -1       534 3.10350E+01 6.60425E+00 0.00000E+00
 -1       535 3.40350E+01 6.60425E+00 0.00000E+00
 -1       536 3.70350E+01 6.60425E+00 0.00000E+00
 -1       537 4.00350E+01 6.60425E+00 0.00000E+00
 -1       538 4.30350E+01 6.60425E+00 0.00000E+00
 -1       539 4.60350E+01 6.60425E+00 0.00000E+00
 -1       540 4.90350E+01 6.60425E+00 0.00000E+00
 -1       541 5.20350E+01 6.60425E+00 0.00000E+00
 -1       542 5.50350E+01 6.60425E+00 0.00000E+00
 -1       543 5.80350E+01 6.60425E+00 0.00000E+00
 -1       544 6.10350E+01 6.60425E+00 0.00000E+00
 -1       545 6.40350E+01 6.60425E+00 0.00000E+00
 -1       546 6.70350E+01 6.60425E+00 0.00000E+00
 -1       547 7.00350E+01 6.60425E+00 0.00000E+00
 -1       548 7.30350E+01 6.60425E+00 0.00000E+00
 -1       549 7.60350E+01 6.60425E+00 0.00000E+00
 -1       550 7.90350E+01 6.60425E+00 0.00000E+00
 -1       551 8.20350E+01 6.60425E+00 0.00000E+00
 -1       552 8.50350E+01 6.60425E+00 0.00000E+00
 -1       553 8.80350E+01 6.60425E+00 0.00000E+00
 -1       554 9.10350E+01 6.60425E+00 0.00000E+00
 -1       555 9.40350E+01 6.60425E+00 0.00000E+00
 -1       556 9.70350E+01 6.60425E+00 0.00000E+00
 -1       557 1.00035E+02 6.60425E+00 0.00000E+00
 -1       558 1.03035E+02 6.60425E+00 0.00000E+00
 -1       559 1.06035E+02 6.60425E+00 0.00000E+00
 -1       560 1.09035E+02 6.60425E+00 0.00000E+00
 -1       561 1.12035E+02 6.60425E+00 0.00000E+00
 -1       562 1.15035E+02 6.60425E+00 0.00000E+00
 -1       563 1.18035E+02 6.60425E+00 0.00000E+00
 -1       564 1.21035E+02 6.60425E+00 0.00000E+00
 -1       565 1.24035E+02 6.60425E+00 0.00000E+00
 -1       566 1.27035E+02 6.60425E+00 0.00000E+00
 -1       567 1.30035E+02 6.60425E+00 0.00000E+00
 -1       568 1.33035E+02 6.60425E+00 0.00000E+00
 -1       569 1.36035E+02 6.60425E+00 0.00000E+00
 -1       570 1.39035E+02 6.60425E+00 0.00000E+00
 -1       571 1.42035E+02 6.60425E+00 0.00000E+00
 -1       572 1.42206E+02 1.61750E+01 0.00000E+00
 -1       573 1.42206E+02 1.91250E+01 0.00000E+00
 -1       574 1.42206E+02 1.03250E+01 0.00000E+00
 -1       575 1.42206E+02 1.32500E+01 0.00000E+00
 -1       576 1.42206E+02 2.20750E+01 0.00000E+00
 -1       577 1.42206E+02 2.50250E+01 0.00000E+00
 -1       578 1.42206E+02 2.79750E+01 0.00000E+00
 -1       579 1.42206E+02 3.08750E+01 0.00000E+00
 -1       580 1.42206E+02 3.38250E+01 0.00000E+00
 -1       581 1.42206E+02 3.67750E+01 0.00000E+00
 -1       582 1.42206E+02 3.97250E+01 0.00000E+00
 -1       583 1.04089E+02 2.69798E+01 0.00000E+00
 -1       584 1.02121E+02 2.23921E+01 0.00000E+00
 -1       585 1.60350E+01 6.60425E+00 0.00000E+00
 -1       586 1.03676E+02 2.93704E+01 0.00000E+00
 -1       587 1.00874E+02 2.03846E+01 0.00000E+00
 -1       588 9.66054E+01 1.73224E+01 0.00000E+00
 -1       589 1.03311E+02 3.14563E+01 0.00000E+00
 -1       590 8.93734E+01 1.68544E+01 0.00000E+00
 -1       591 7.79400E+00 2.79000E+01 0.00000E+00
 -1       592 9.11169E+01 1.66972E+01 0.00000E+00
 -1       593 8.22263E+01 2.33922E+01 0.00000E+00
 -1       594 8.50741E+01 1.96640E+01 0.00000E+00
 -1       595 1.00667E+02 3.60480E+01 0.00000E+00
 -1       596 8.36686E+01 2.12091E+01 0.00000E+00
 -1       597 8.14799E+01 2.58779E+01 0.00000E+00
 -1       598 8.13343E+01 2.77130E+01 0.00000E+00
 -1       599 8.15645E+01 3.02529E+01 0.00000E+00
 -1       600 8.23688E+01 3.29758E+01 0.00000E+00
 -1       601 8.33469E+01 3.45736E+01 0.00000E+00
 -1       602 8.67661E+01 3.85742E+01 0.00000E+00
 -1       603 9.21710E+01 3.94922E+01 0.00000E+00
 -1       604 9.44326E+01 3.92461E+01 0.00000E+00
 -1       605 9.69471E+01 3.90560E+01 0.00000E+00
 -1       606 9.88184E+01 3.76383E+01 0.00000E+00
 -1       607 1.02483E+02 3.37254E+01 0.00000E+00
 -1       608 7.92300E+00 4.16780E+01 0.00000E+00
 -1       609 7.61550E+00 6.21462E+00 0.00000E+00
 -1       610 9.25753E+01 1.56166E+01 0.00000E+00
 -1       611 7.79400E+00 3.67375E+01 0.00000E+00
 -1       612 7.85850E+00 3.92077E+01 0.00000E+00
 -1       613 1.04808E+02 2.52572E+01 0.00000E+00
 -1       614 1.02659E+02 3.57550E+01 0.00000E+00
 -1       615 8.78363E+01 1.65710E+01 0.00000E+00
 -1       616 9.54915E+01 1.60925E+01 0.00000E+00
 -1       617 8.06801E+01 3.20176E+01 0.00000E+00
 -1       618 1.41678E+02 4.22645E+01 0.00000E+00
 -1       619 1.03920E+01 2.05500E+01 0.00000E+00
 -1       620 1.03920E+01 2.35000E+01 0.00000E+00
 -1       621 1.03920E+01 1.46750E+01 0.00000E+00
 -1       622 1.03920E+01 1.17250E+01 0.00000E+00
 -1       623 1.15350E+01 9.20225E+00 0.00000E+00
 -1       624 8.00500E+01 2.40936E+01 0.00000E+00
 -1       625 1.01334E+02 1.81053E+01 0.00000E+00
 -1       626 1.51500E+01 3.96080E+01 0.00000E+00
 -1       627 1.81500E+01 3.96080E+01 0.00000E+00
 -1       628 2.11500E+01 3.96080E+01 0.00000E+00
 -1       629 2.41500E+01 3.96080E+01 0.00000E+00
 -1       630 2.71500E+01 3.96080E+01 0.00000E+00
 -1       631 3.01500E+01 3.96080E+01 0.00000E+00
 -1       632 3.31500E+01 3.96080E+01 0.00000E+00
 -1       633 3.61500E+01 3.96080E+01 0.00000E+00
 -1       634 3.91500E+01 3.96080E+01 0.00000E+00
 -1       635 4.21500E+01 3.96080E+01 0.00000E+00
 -1       636 4.51500E+01 3.96080E+01 0.00000E+00
 -1       637 4.81500E+01 3.96080E+01 0.00000E+00
 -1       638 5.11500E+01 3.96080E+01 0.00000E+00
 -1       639 5.41500E+01 3.96080E+01 0.00000E+00
 -1       640 5.71500E+01 3.96080E+01 0.00000E+00
 -1       641 6.01500E+01 3.96080E+01 0.00000E+00
 -1       642 6.31500E+01 3.96080E+01 0.00000E+00
 -1       643 6.61500E+01 3.96080E+01 0.00000E+00
 -1       644 6.91500E+01 3.96080E+01 0.00000E+00
 -1       645 7.21500E+01 3.96080E+01 0.00000E+00
 -1       646 7.51500E+01 3.96080E+01 0.00000E+00
 -1       647 7.81500E+01 3.96080E+01 0.00000E+00
 -1       648 8.11500E+01 3.96080E+01 0.00000E+00
 -1       649 8.41500E+01 3.96080E+01 0.00000E+00
 -1       650 1.02150E+02 3.96080E+01 0.00000E+00
 -1       651 1.05150E+02 3.96080E+01 0.00000E+00
 -1       652 1.08150E+02 3.96080E+01 0.00000E+00
 -1       653 1.11150E+02 3.96080E+01 0.00000E+00
 -1       654 1.14150E+02 3.96080E+01 0.00000E+00
 -1       655 1.17150E+02 3.96080E+01 0.00000E+00
 -1       656 1.20150E+02 3.96080E+01 0.00000E+00
 -1       657 1.23150E+02 3.96080E+01 0.00000E+00
 -1       658 1.26150E+02 3.96080E+01 0.00000E+00
 -1       659 1.29150E+02 3.96080E+01 0.00000E+00
 -1       660 1.32150E+02 3.96080E+01 0.00000E+00
 -1       661 1.35150E+02 3.96080E+01 0.00000E+00
 -1       662 1.38150E+02 3.96080E+01 0.00000E+00
 -1       663 2.35350E+01 9.20225E+00 0.00000E+00
 -1       664 1.40178E+02 3.96665E+01 0.00000E+00
 -1       665 2.05350E+01 9.20225E+00 0.00000E+00
 -1       666 2.95350E+01 9.20225E+00 0.00000E+00
 -1       667 3.25350E+01 9.20225E+00 0.00000E+00
 -1       668 3.55350E+01 9.20225E+00 0.00000E+00
 -1       669 3.85350E+01 9.20225E+00 0.00000E+00
 -1       670 4.15350E+01 9.20225E+00 0.00000E+00
 -1       671 4.45350E+01 9.20225E+00 0.00000E+00
 -1       672 4.75350E+01 9.20225E+00 0.00000E+00
 -1       673 5.05350E+01 9.20225E+00 0.00000E+00
 -1       674 5.35350E+01 9.20225E+00 0.00000E+00
 -1       675 5.65350E+01 9.20225E+00 0.00000E+00
 -1       676 5.95350E+01 9.20225E+00 0.00000E+00
 -1       677 6.25350E+01 9.20225E+00 0.00000E+00
 -1       678 6.55350E+01 9.20225E+00 0.00000E+00
 -1       679 6.85350E+01 9.20225E+00 0.00000E+00
 -1       680 7.15350E+01 9.20225E+00 0.00000E+00
 -1       681 7.45350E+01 9.20225E+00 0.00000E+00
 -1       682 7.75350E+01 9.20225E+00 0.00000E+00
 -1       683 8.05350E+01 9.20225E+00 0.00000E+00
 -1       684 8.35350E+01 9.20225E+00 0.00000E+00
 -1       685 8.65350E+01 9.20225E+00 0.00000E+00
 -1       686 8.95350E+01 9.20225E+00 0.00000E+00
 -1       687 9.25350E+01 9.20225E+00 0.00000E+00
 -1       688 9.55350E+01 9.20225E+00 0.00000E+00
 -1       689 9.85350E+01 9.20225E+00 0.00000E+00
 -1       690 1.01535E+02 9.20225E+00 0.00000E+00
 -1       691 1.04535E+02 9.20225E+00 0.00000E+00
 -1       692 1.07535E+02 9.20225E+00 0.00000E+00
 -1       693 1.10535E+02 9.20225E+00 0.00000E+00
 -1       694 1.13535E+02 9.20225E+00 0.00000E+00
 -1       695 1.16535E+02 9.20225E+00 0.00000E+00
 -1       696 1.19535E+02 9.20225E+00 0.00000E+00
 -1       697 1.22535E+02 9.20225E+00 0.00000E+00
 -1       698 1.25535E+02 9.20225E+00 0.00000E+00
 -1       699 1.28535E+02 9.20225E+00 0.00000E+00
 -1       700 1.31535E+02 9.20225E+00 0.00000E+00
 -1       701 1.34535E+02 9.20225E+00 0.00000E+00
 -1       702 1.37535E+02 9.20225E+00 0.00000E+00
 -1       703 1.39870E+02 9.76363E+00 0.00000E+00
 -1       704 1.02954E+02 2.04836E+01 0.00000E+00
 -1       705 1.39608E+02 2.35500E+01 0.00000E+00
 -1       706 9.85675E+01 1.61240E+01 0.00000E+00
 -1       707 1.39608E+02 1.76500E+01 0.00000E+00
 -1       708 1.39608E+02 2.65000E+01 0.00000E+00
 -1       709 1.39608E+02 2.06000E+01 0.00000E+00
 -1       710 1.39608E+02 2.94000E+01 0.00000E+00
 -1       711 1.39608E+02 3.23500E+01 0.00000E+00
 -1       712 1.39608E+02 3.53000E+01 0.00000E+00
 -1       713 1.05162E+02 3.07052E+01 0.00000E+00
 -1       714 1.04086E+02 2.25744E+01 0.00000E+00
 -1       715 1.75350E+01 9.20225E+00 0.00000E+00
 -1       716 7.97413E+01 2.91378E+01 0.00000E+00
 -1       717 8.33199E+01 3.67471E+01 0.00000E+00
 -1       718 1.05716E+02 2.84920E+01 0.00000E+00
 -1       719 2.65350E+01 9.20225E+00 0.00000E+00
 -1       720 1.21500E+01 3.96080E+01 0.00000E+00
 -1       721 1.04960E+02 3.33437E+01 0.00000E+00
 -1       722 1.03920E+01 1.76125E+01 0.00000E+00
 -1       723 1.00956E+02 3.82538E+01 0.00000E+00
 -1       724 1.45350E+01 9.20225E+00 0.00000E+00
 -1       725 8.55048E+01 1.74759E+01 0.00000E+00
 -1       726 1.03920E+01 3.23250E+01 0.00000E+00
 -1       727 9.00761E+01 1.49007E+01 0.00000E+00
 -1       728 8.31026E+01 1.92825E+01 0.00000E+00
 -1       729 8.15864E+01 2.14015E+01 0.00000E+00
 -1       730 7.93633E+01 2.66332E+01 0.00000E+00
 -1       731 8.13951E+01 3.46702E+01 0.00000E+00
 -1       732 1.00042E+01 3.94079E+01 0.00000E+00
 -1       733 9.97342E+01 3.99222E+01 0.00000E+00
 -1       734 1.03920E+01 3.52625E+01 0.00000E+00
 -1       735 1.03920E+01 2.64500E+01 0.00000E+00
 -1       736 8.35333E+01 1.70944E+01 0.00000E+00
 -1       737 1.00877E+02 1.58521E+01 0.00000E+00
 -1       738 1.39870E+02 1.26886E+01 0.00000E+00
 -1       739 9.74536E+01 1.48941E+01 0.00000E+00
 -1       740 1.05136E+02 3.53733E+01 0.00000E+00
 -1       741 7.88568E+01 3.09025E+01 0.00000E+00
 -1       742 1.06435E+02 2.67694E+01 0.00000E+00
 -1       743 1.38879E+02 3.74540E+01 0.00000E+00
 -1       744 8.85391E+01 1.46173E+01 0.00000E+00
 -1       745 1.39739E+02 1.51693E+01 0.00000E+00
 -1       746 1.03920E+01 2.93875E+01 0.00000E+00
 -1       747 9.18903E+01 1.32877E+01 0.00000E+00
 -1       748 1.29900E+01 1.32000E+01 0.00000E+00
 -1       749 1.01981E+01 3.73352E+01 0.00000E+00
 -1       750 1.96500E+01 3.70100E+01 0.00000E+00
 -1       751 2.26500E+01 3.70100E+01 0.00000E+00
 -1       752 2.56500E+01 3.70100E+01 0.00000E+00
 -1       753 2.86500E+01 3.70100E+01 0.00000E+00
 -1       754 3.16500E+01 3.70100E+01 0.00000E+00
 -1       755 3.46500E+01 3.70100E+01 0.00000E+00
 -1       756 3.76500E+01 3.70100E+01 0.00000E+00
 -1       757 4.06500E+01 3.70100E+01 0.00000E+00
 -1       758 4.36500E+01 3.70100E+01 0.00000E+00
 -1       759 4.66500E+01 3.70100E+01 0.00000E+00
 -1       760 4.96500E+01 3.70100E+01 0.00000E+00
 -1       761 5.26500E+01 3.70100E+01 0.00000E+00
 -1       762 5.56500E+01 3.70100E+01 0.00000E+00
 -1       763 5.86500E+01 3.70100E+01 0.00000E+00
 -1       764 6.16500E+01 3.70100E+01 0.00000E+00
 -1       765 6.46500E+01 3.70100E+01 0.00000E+00
 -1       766 6.76500E+01 3.70100E+01 0.00000E+00
 -1       767 7.06500E+01 3.70100E+01 0.00000E+00
 -1       768 7.36500E+01 3.70100E+01 0.00000E+00
 -1       769 7.66500E+01 3.70100E+01 0.00000E+00
 -1       770 7.96500E+01 3.70100E+01 0.00000E+00
 -1       771 7.78892E+01 2.48719E+01 0.00000E+00
 -1       772 7.78564E+01 2.81414E+01 0.00000E+00
 -1       773 1.36500E+01 3.70100E+01 0.00000E+00
 -1       774 1.06650E+02 3.70100E+01 0.00000E+00
 -1       775 1.09650E+02 3.70100E+01 0.00000E+00
 -1       776 1.12650E+02 3.70100E+01 0.00000E+00
 -1       777 1.15650E+02 3.70100E+01 0.00000E+00
 -1       778 1.18650E+02 3.70100E+01 0.00000E+00
 -1       779 1.21650E+02 3.70100E+01 0.00000E+00
 -1       780 1.24650E+02 3.70100E+01 0.00000E+00
 -1       781 1.27650E+02 3.70100E+01 0.00000E+00
 -1       782 1.30650E+02 3.70100E+01 0.00000E+00
 -1       783 1.33650E+02 3.70100E+01 0.00000E+00
 -1       784 1.36264E+02 3.72320E+01 0.00000E+00
 -1       785 2.20350E+01 1.18003E+01 0.00000E+00
 -1       786 1.04116E+02 1.79514E+01 0.00000E+00
 -1       787 3.40350E+01 1.18003E+01 0.00000E+00
 -1       788 3.10350E+01 1.18003E+01 0.00000E+00
 -1       789 4.00350E+01 1.18003E+01 0.00000E+00
 -1       790 4.30350E+01 1.18003E+01 0.00000E+00
 -1       791 4.60350E+01 1.18003E+01 0.00000E+00
 -1       792 4.90350E+01 1.18003E+01 0.00000E+00
 -1       793 5.20350E+01 1.18003E+01 0.00000E+00
 -1       794 5.50350E+01 1.18003E+01 0.00000E+00
 -1       795 5.80350E+01 1.18003E+01 0.00000E+00
 -1       796 6.10350E+01 1.18003E+01 0.00000E+00
 -1       797 6.40350E+01 1.18003E+01 0.00000E+00
 -1       798 6.70350E+01 1.18003E+01 0.00000E+00
 -1       799 7.00350E+01 1.18003E+01 0.00000E+00
 -1       800 7.30350E+01 1.18003E+01 0.00000E+00
 -1       801 7.60350E+01 1.18003E+01 0.00000E+00
 -1       802 7.90350E+01 1.18003E+01 0.00000E+00
 -1       803 8.20350E+01 1.18003E+01 0.00000E+00
 -1       804 8.50350E+01 1.18003E+01 0.00000E+00
 -1       805 8.80350E+01 1.18003E+01 0.00000E+00
 -1       806 9.70350E+01 1.17552E+01 0.00000E+00
 -1       807 1.00035E+02 1.17552E+01 0.00000E+00
 -1       808 1.03035E+02 1.17552E+01 0.00000E+00
 -1       809 1.06035E+02 1.17552E+01 0.00000E+00
 -1       810 1.09035E+02 1.17552E+01 0.00000E+00
 -1       811 1.12035E+02 1.17552E+01 0.00000E+00
 -1       812 1.15035E+02 1.17552E+01 0.00000E+00
 -1       813 1.18035E+02 1.17552E+01 0.00000E+00
 -1       814 1.21035E+02 1.17552E+01 0.00000E+00
 -1       815 1.24035E+02 1.17552E+01 0.00000E+00
 -1       816 1.27035E+02 1.17552E+01 0.00000E+00
 -1       817 1.30035E+02 1.17552E+01 0.00000E+00
 -1       818 1.33035E+02 1.17552E+01 0.00000E+00
 -1       819 1.36035E+02 1.17552E+01 0.00000E+00
 -1       820 1.37953E+02 1.22219E+01 0.00000E+00
 -1       821 1.90350E+01 1.18003E+01 0.00000E+00
 -1       822 1.37010E+02 2.79500E+01 0.00000E+00
 -1       823 1.06265E+02 2.34267E+01 0.00000E+00
 -1       824 1.37010E+02 2.50000E+01 0.00000E+00
 -1       825 1.05176E+02 2.06327E+01 0.00000E+00
 -1       826 1.37010E+02 3.09000E+01 0.00000E+00
 -1       827 1.37010E+02 3.38500E+01 0.00000E+00
 -1       828 3.70350E+01 1.18003E+01 0.00000E+00
 -1       829 1.29900E+01 2.20250E+01 0.00000E+00
 -1       830 9.48065E+01 1.37636E+01 0.00000E+00
 -1       831 1.03803E+02 3.76319E+01 0.00000E+00
 -1       832 1.37625E+01 1.12011E+01 0.00000E+00
 -1       833 1.07244E+02 3.00510E+01 0.00000E+00
 -1       834 1.66500E+01 3.70100E+01 0.00000E+00
 -1       835 7.92198E+01 3.38338E+01 0.00000E+00
 -1       836 7.93286E+01 2.18974E+01 0.00000E+00
 -1       837 8.58681E+01 1.49559E+01 0.00000E+00
 -1       838 1.07043E+02 3.26896E+01 0.00000E+00
 -1       839 8.06771E+01 1.91489E+01 0.00000E+00
 -1       840 1.29900E+01 2.49750E+01 0.00000E+00
 -1       841 8.11079E+01 1.69608E+01 0.00000E+00
 -1       842 1.29900E+01 1.61375E+01 0.00000E+00
 -1       843 9.97629E+01 1.46222E+01 0.00000E+00
 -1       844 2.80350E+01 1.18003E+01 0.00000E+00
 -1       845 7.63823E+01 2.63802E+01 0.00000E+00
 -1       846 7.71678E+01 2.26758E+01 0.00000E+00
 -1       847 1.29900E+01 3.37938E+01 0.00000E+00
 -1       848 1.03658E+02 1.56982E+01 0.00000E+00
 -1       849 1.37010E+02 1.91250E+01 0.00000E+00
 -1       850 1.07893E+02 2.49389E+01 0.00000E+00
 -1       851 1.29900E+01 3.08563E+01 0.00000E+00
 -1       852 1.37010E+02 2.20625E+01 0.00000E+00
 -1       853 1.07219E+02 3.47192E+01 0.00000E+00
 -1       854 2.50350E+01 1.18003E+01 0.00000E+00
 -1       855 1.37141E+02 1.66443E+01 0.00000E+00
 -1       856 1.29900E+01 1.90875E+01 0.00000E+00
 -1       857 1.63988E+01 1.15007E+01 0.00000E+00
 -1       858 7.69719E+01 2.99061E+01 0.00000E+00
 -1       859 1.07963E+02 2.83284E+01 0.00000E+00
 -1       860 1.36637E+02 3.55410E+01 0.00000E+00
 -1       861 1.06708E+02 1.84764E+01 0.00000E+00
 -1       862 2.11500E+01 3.44120E+01 0.00000E+00
 -1       863 2.41500E+01 3.44120E+01 0.00000E+00
 -1       864 2.71500E+01 3.44120E+01 0.00000E+00
 -1       865 3.01500E+01 3.44120E+01 0.00000E+00
 -1       866 3.31500E+01 3.44120E+01 0.00000E+00
 -1       867 3.61500E+01 3.44120E+01 0.00000E+00
 -1       868 3.91500E+01 3.44120E+01 0.00000E+00
 -1       869 4.21500E+01 3.44120E+01 0.00000E+00
 -1       870 4.51500E+01 3.44120E+01 0.00000E+00
 -1       871 4.81500E+01 3.44120E+01 0.00000E+00
 -1       872 5.11500E+01 3.44120E+01 0.00000E+00
 -1       873 5.41500E+01 3.44120E+01 0.00000E+00
 -1       874 5.71500E+01 3.44120E+01 0.00000E+00
 -1       875 6.01500E+01 3.44120E+01 0.00000E+00
 -1       876 6.31500E+01 3.44120E+01 0.00000E+00
 -1       877 6.61500E+01 3.44120E+01 0.00000E+00
 -1       878 6.91500E+01 3.44120E+01 0.00000E+00
 -1       879 7.21500E+01 3.44120E+01 0.00000E+00
 -1       880 7.51500E+01 3.44120E+01 0.00000E+00
 -1       881 1.07797E+02 2.12704E+01 0.00000E+00
 -1       882 1.11150E+02 3.44120E+01 0.00000E+00
 -1       883 1.14150E+02 3.44120E+01 0.00000E+00
 -1       884 1.17150E+02 3.44120E+01 0.00000E+00
 -1       885 1.20150E+02 3.44120E+01 0.00000E+00
 -1       886 1.23150E+02 3.44120E+01 0.00000E+00
 -1       887 1.26150E+02 3.44120E+01 0.00000E+00
 -1       888 1.29150E+02 3.44120E+01 0.00000E+00
 -1       889 1.32150E+02 3.44120E+01 0.00000E+00
 -1       890 4.45350E+01 1.43982E+01 0.00000E+00
 -1       891 4.15350E+01 1.43982E+01 0.00000E+00
 -1       892 5.05350E+01 1.43982E+01 0.00000E+00
 -1       893 5.35350E+01 1.43982E+01 0.00000E+00
 -1       894 5.65350E+01 1.43982E+01 0.00000E+00
 -1       895 5.95350E+01 1.43982E+01 0.00000E+00
 -1       896 6.25350E+01 1.43982E+01 0.00000E+00
 -1       897 6.55350E+01 1.43982E+01 0.00000E+00
 -1       898 6.85350E+01 1.43982E+01 0.00000E+00
 -1       899 7.15350E+01 1.43982E+01 0.00000E+00
 -1       900 7.45350E+01 1.43982E+01 0.00000E+00
 -1       901 7.75350E+01 1.43982E+01 0.00000E+00
 -1       902 8.35350E+01 1.43982E+01 0.00000E+00
 -1       903 1.07535E+02 1.43532E+01 0.00000E+00
 -1       904 1.10535E+02 1.43532E+01 0.00000E+00
 -1       905 1.13535E+02 1.43532E+01 0.00000E+00
 -1       906 1.16535E+02 1.43532E+01 0.00000E+00
 -1       907 1.19535E+02 1.43532E+01 0.00000E+00
 -1       908 1.22535E+02 1.43532E+01 0.00000E+00
 -1       909 1.25535E+02 1.43532E+01 0.00000E+00
 -1       910 1.28535E+02 1.43532E+01 0.00000E+00
 -1       911 1.31535E+02 1.43532E+01 0.00000E+00
 -1       912 1.34535E+02 1.43532E+01 0.00000E+00
 -1       913 2.05350E+01 1.43982E+01 0.00000E+00
 -1       914 1.29900E+01 2.79188E+01 0.00000E+00
 -1       915 1.34412E+02 3.23750E+01 0.00000E+00
 -1       916 1.34412E+02 2.94250E+01 0.00000E+00
 -1       917 1.34412E+02 2.64750E+01 0.00000E+00
 -1       918 1.51500E+01 3.44120E+01 0.00000E+00
 -1       919 1.09667E+02 3.15630E+01 0.00000E+00
 -1       920 3.25350E+01 1.43982E+01 0.00000E+00
 -1       921 1.81500E+01 3.44120E+01 0.00000E+00
 -1       922 7.80118E+01 1.95462E+01 0.00000E+00
 -1       923 4.75350E+01 1.43982E+01 0.00000E+00
 -1       924 7.70036E+01 3.26201E+01 0.00000E+00
 -1       925 1.37547E+02 1.44331E+01 0.00000E+00
 -1       926 7.84425E+01 1.73581E+01 0.00000E+00
 -1       927 1.55880E+01 1.46687E+01 0.00000E+00
 -1       928 2.95350E+01 1.43982E+01 0.00000E+00
 -1       929 7.54979E+01 2.81449E+01 0.00000E+00
 -1       930 7.56609E+01 2.41840E+01 0.00000E+00
 -1       931 1.34412E+02 2.05938E+01 0.00000E+00
 -1       932 1.34394E+02 3.49765E+01 0.00000E+00
 -1       933 3.85350E+01 1.43982E+01 0.00000E+00
 -1       934 8.00714E+01 1.43805E+01 0.00000E+00
 -1       935 1.55880E+01 2.05562E+01 0.00000E+00
 -1       936 1.09425E+02 2.27826E+01 0.00000E+00
 -1       937 1.75351E+01 1.43983E+01 0.00000E+00
 -1       938 2.35350E+01 1.43982E+01 0.00000E+00
 -1       939 1.09420E+02 2.64979E+01 0.00000E+00
 -1       940 1.34412E+02 2.35375E+01 0.00000E+00
 -1       941 1.55880E+01 2.35063E+01 0.00000E+00
 -1       942 1.10386E+02 2.98404E+01 0.00000E+00
 -1       943 1.59934E+01 1.30847E+01 0.00000E+00
 -1       944 1.51500E+01 3.14745E+01 0.00000E+00
 -1       945 1.34543E+02 1.81131E+01 0.00000E+00
 -1       946 3.55350E+01 1.43982E+01 0.00000E+00
 -1       947 2.56500E+01 3.18140E+01 0.00000E+00
 -1       948 2.86500E+01 3.18140E+01 0.00000E+00
 -1       949 3.16500E+01 3.18140E+01 0.00000E+00
 -1       950 3.46500E+01 3.18140E+01 0.00000E+00
 -1       951 3.76500E+01 3.18140E+01 0.00000E+00
 -1       952 4.06500E+01 3.18140E+01 0.00000E+00
 -1       953 4.36500E+01 3.18140E+01 0.00000E+00
 -1       954 4.66500E+01 3.18140E+01 0.00000E+00
 -1       955 4.96500E+01 3.18140E+01 0.00000E+00
 -1       956 5.26500E+01 3.18140E+01 0.00000E+00
 -1       957 5.56500E+01 3.18140E+01 0.00000E+00
 -1       958 5.86500E+01 3.18140E+01 0.00000E+00
 -1       959 6.16500E+01 3.18140E+01 0.00000E+00
 -1       960 6.46500E+01 3.18140E+01 0.00000E+00
 -1       961 6.76500E+01 3.18140E+01 0.00000E+00
 -1       962 7.06500E+01 3.18140E+01 0.00000E+00
 -1       963 7.36500E+01 3.18140E+01 0.00000E+00
 -1       964 1.12650E+02 3.18140E+01 0.00000E+00
 -1       965 1.09673E+02 1.89297E+01 0.00000E+00
 -1       966 7.55295E+01 3.08589E+01 0.00000E+00
 -1       967 1.15650E+02 3.18140E+01 0.00000E+00
 -1       968 1.18650E+02 3.18140E+01 0.00000E+00
 -1       969 1.21650E+02 3.18140E+01 0.00000E+00
 -1       970 1.24650E+02 3.18140E+01 0.00000E+00
 -1       971 1.27650E+02 3.18140E+01 0.00000E+00
 -1       972 1.30650E+02 3.18140E+01 0.00000E+00
 -1       973 1.55880E+01 2.64500E+01 0.00000E+00
 -1       974 5.50350E+01 1.69963E+01 0.00000E+00
 -1       975 5.20350E+01 1.69963E+01 0.00000E+00
 -1       976 6.10350E+01 1.69963E+01 0.00000E+00
 -1       977 6.40350E+01 1.69963E+01 0.00000E+00
 -1       978 6.70350E+01 1.69963E+01 0.00000E+00
 -1       979 7.00350E+01 1.69963E+01 0.00000E+00
 -1       980 7.30350E+01 1.69963E+01 0.00000E+00
 -1       981 7.57388E+01 1.71772E+01 0.00000E+00
 -1       982 1.90351E+01 1.69963E+01 0.00000E+00
 -1       983 1.18035E+02 1.69512E+01 0.00000E+00
 -1       984 1.21035E+02 1.69512E+01 0.00000E+00
 -1       985 1.24035E+02 1.69512E+01 0.00000E+00
 -1       986 1.27035E+02 1.69512E+01 0.00000E+00
 -1       987 1.30035E+02 1.69512E+01 0.00000E+00
 -1       988 1.53690E+01 2.89622E+01 0.00000E+00
 -1       989 1.31814E+02 2.79500E+01 0.00000E+00
 -1       990 7.52867E+01 2.04899E+01 0.00000E+00
 -1       991 1.15035E+02 1.69512E+01 0.00000E+00
 -1       992 1.96500E+01 3.18140E+01 0.00000E+00
 -1       993 1.12354E+02 1.79405E+01 0.00000E+00
 -1       994 1.55880E+01 1.76125E+01 0.00000E+00
 -1       995 5.80350E+01 1.69963E+01 0.00000E+00
 -1       996 4.30350E+01 1.69963E+01 0.00000E+00
 -1       997 2.26500E+01 3.18140E+01 0.00000E+00
 -1       998 2.65350E+01 1.43982E+01 0.00000E+00
 -1       999 3.10350E+01 1.69963E+01 0.00000E+00
 -1      1000 7.37554E+01 2.60266E+01 0.00000E+00
 -1      1001 1.11301E+02 2.04419E+01 0.00000E+00
 -1      1002 1.31814E+02 2.20656E+01 0.00000E+00
 -1      1003 1.31945E+02 1.95849E+01 0.00000E+00
 -1      1004 4.00350E+01 1.69963E+01 0.00000E+00
 -1      1005 1.81860E+01 1.90844E+01 0.00000E+00
 -1      1006 1.81860E+01 2.20344E+01 0.00000E+00
 -1      1007 4.90350E+01 1.69963E+01 0.00000E+00
 -1      1008 2.20351E+01 1.69963E+01 0.00000E+00
 -1      1009 1.10952E+02 2.43416E+01 0.00000E+00
 -1      1010 1.31814E+02 2.50078E+01 0.00000E+00
 -1      1011 7.37798E+01 2.19982E+01 0.00000E+00
 -1      1012 4.60350E+01 1.69963E+01 0.00000E+00
 -1      1013 3.40350E+01 1.69963E+01 0.00000E+00
 -1      1014 7.18742E+01 2.38407E+01 0.00000E+00
 -1      1015 3.01500E+01 2.92160E+01 0.00000E+00
 -1      1016 3.31500E+01 2.92160E+01 0.00000E+00
 -1      1017 3.61500E+01 2.92160E+01 0.00000E+00
 -1      1018 3.91500E+01 2.92160E+01 0.00000E+00
 -1      1019 4.21500E+01 2.92160E+01 0.00000E+00
 -1      1020 4.51500E+01 2.92160E+01 0.00000E+00
 -1      1021 4.81500E+01 2.92160E+01 0.00000E+00
 -1      1022 5.11500E+01 2.92160E+01 0.00000E+00
 -1      1023 5.41500E+01 2.92160E+01 0.00000E+00
 -1      1024 5.71500E+01 2.92160E+01 0.00000E+00
 -1      1025 6.01500E+01 2.92160E+01 0.00000E+00
 -1      1026 6.31500E+01 2.92160E+01 0.00000E+00
 -1      1027 6.61500E+01 2.92160E+01 0.00000E+00
 -1      1028 6.91500E+01 2.92160E+01 0.00000E+00
 -1      1029 7.21500E+01 2.92160E+01 0.00000E+00
 -1      1030 1.14150E+02 2.92160E+01 0.00000E+00
 -1      1031 1.17150E+02 2.92160E+01 0.00000E+00
 -1      1032 1.20150E+02 2.92160E+01 0.00000E+00
 -1      1033 1.23150E+02 2.92160E+01 0.00000E+00
 -1      1034 1.26150E+02 2.92160E+01 0.00000E+00
 -1      1035 1.28982E+02 2.85830E+01 0.00000E+00
 -1      1036 1.81860E+01 2.49781E+01 0.00000E+00
 -1      1037 1.25535E+02 1.95492E+01 0.00000E+00
 -1      1038 5.35350E+01 1.95942E+01 0.00000E+00
 -1      1039 6.55350E+01 1.95942E+01 0.00000E+00
 -1      1040 6.25350E+01 1.95942E+01 0.00000E+00
 -1      1041 7.15350E+01 1.95942E+01 0.00000E+00
 -1      1042 1.12174E+02 2.75129E+01 0.00000E+00
 -1      1043 1.22535E+02 1.95492E+01 0.00000E+00
 -1      1044 5.95350E+01 1.95942E+01 0.00000E+00
 -1      1045 2.41500E+01 2.92160E+01 0.00000E+00
 -1      1046 1.19535E+02 1.95492E+01 0.00000E+00
 -1      1047 1.28535E+02 1.95492E+01 0.00000E+00
 -1      1048 6.85350E+01 1.95942E+01 0.00000E+00
 -1      1049 2.11860E+01 1.90844E+01 0.00000E+00
 -1      1050 1.16535E+02 1.95492E+01 0.00000E+00
 -1      1051 3.70350E+01 1.69963E+01 0.00000E+00
 -1      1052 2.50351E+01 1.69963E+01 0.00000E+00
 -1      1053 2.11500E+01 2.92160E+01 0.00000E+00
 -1      1054 2.80350E+01 1.69963E+01 0.00000E+00
 -1      1055 5.65350E+01 1.95942E+01 0.00000E+00
 -1      1056 2.71500E+01 2.92160E+01 0.00000E+00
 -1      1057 1.29216E+02 2.35367E+01 0.00000E+00
 -1      1058 4.15350E+01 1.95942E+01 0.00000E+00
 -1      1059 4.45350E+01 1.95942E+01 0.00000E+00
 -1      1060 1.75954E+01 2.90536E+01 0.00000E+00
 -1      1061 7.05121E+01 2.65284E+01 0.00000E+00
 -1      1062 5.05350E+01 1.95942E+01 0.00000E+00
 -1      1063 1.12828E+02 2.20009E+01 0.00000E+00
 -1      1064 1.29099E+02 2.60599E+01 0.00000E+00
 -1      1065 2.95350E+01 1.95943E+01 0.00000E+00
 -1      1066 3.25350E+01 1.95943E+01 0.00000E+00
 -1      1067 2.41860E+01 1.90844E+01 0.00000E+00
 -1      1068 3.46500E+01 2.66180E+01 0.00000E+00
 -1      1069 3.76500E+01 2.66180E+01 0.00000E+00
 -1      1070 4.06500E+01 2.66180E+01 0.00000E+00
 -1      1071 4.36500E+01 2.66180E+01 0.00000E+00
 -1      1072 4.66500E+01 2.66180E+01 0.00000E+00
 -1      1073 4.96500E+01 2.66180E+01 0.00000E+00
 -1      1074 5.26500E+01 2.66180E+01 0.00000E+00
 -1      1075 5.56500E+01 2.66180E+01 0.00000E+00
 -1      1076 5.86500E+01 2.66180E+01 0.00000E+00
 -1      1077 6.16500E+01 2.66180E+01 0.00000E+00
 -1      1078 6.46500E+01 2.66180E+01 0.00000E+00
 -1      1079 6.75811E+01 2.65732E+01 0.00000E+00
 -1      1080 2.15076E+01 2.24118E+01 0.00000E+00
 -1      1081 5.80350E+01 2.21922E+01 0.00000E+00
 -1      1082 5.50350E+01 2.21922E+01 0.00000E+00
 -1      1083 1.18650E+02 2.66180E+01 0.00000E+00
 -1      1084 1.21650E+02 2.66180E+01 0.00000E+00
 -1      1085 1.24650E+02 2.66180E+01 0.00000E+00
 -1      1086 1.26874E+02 2.63389E+01 0.00000E+00
 -1      1087 1.14050E+02 2.51722E+01 0.00000E+00
 -1      1088 3.85350E+01 1.95942E+01 0.00000E+00
 -1      1089 2.26500E+01 2.66180E+01 0.00000E+00
 -1      1090 6.10350E+01 2.21922E+01 0.00000E+00
 -1      1091 2.68605E+01 1.93393E+01 0.00000E+00
 -1      1092 1.21035E+02 2.21472E+01 0.00000E+00
 -1      1093 6.95236E+01 2.30613E+01 0.00000E+00
 -1      1094 6.65236E+01 2.30613E+01 0.00000E+00
 -1      1095 1.24035E+02 2.21472E+01 0.00000E+00
 -1      1096 2.56500E+01 2.66180E+01 0.00000E+00
 -1      1097 6.37793E+01 2.26268E+01 0.00000E+00
 -1      1098 1.15600E+02 2.71941E+01 0.00000E+00
 -1      1099 1.18035E+02 2.21472E+01 0.00000E+00
 -1      1100 2.86500E+01 2.66180E+01 0.00000E+00
 -1      1101 3.16500E+01 2.66180E+01 0.00000E+00
 -1      1102 4.75350E+01 1.95942E+01 0.00000E+00
 -1      1103 3.55350E+01 1.95943E+01 0.00000E+00
 -1      1104 5.20350E+01 2.21922E+01 0.00000E+00
 -1      1105 4.30350E+01 2.21922E+01 0.00000E+00
 -1      1106 1.26992E+02 2.38158E+01 0.00000E+00
 -1      1107 4.00350E+01 2.21922E+01 0.00000E+00
 -1      1108 1.27035E+02 2.21472E+01 0.00000E+00
 -1      1109 2.79512E+01 2.20531E+01 0.00000E+00
 -1      1110 3.09512E+01 2.20531E+01 0.00000E+00
 -1      1111 3.91500E+01 2.40200E+01 0.00000E+00
 -1      1112 4.81500E+01 2.40200E+01 0.00000E+00
 -1      1113 2.52767E+01 2.17981E+01 0.00000E+00
 -1      1114 1.15035E+02 2.21472E+01 0.00000E+00
 -1      1115 3.61500E+01 2.40200E+01 0.00000E+00
 -1      1116 4.60350E+01 2.21922E+01 0.00000E+00
 -1      1117 1.15739E+02 2.43094E+01 0.00000E+00
 -1      1118 3.31500E+01 2.40200E+01 0.00000E+00
 -1      1119 4.90350E+01 2.21922E+01 0.00000E+00
 -1      1120 0.00000E+00 4.85250E+01 0.00000E+00
 -1      1121 0.00000E+00 4.55750E+01 0.00000E+00
 -1      1122 0.00000E+00 4.26250E+01 0.00000E+00
 -1      1123 0.00000E+00 3.96750E+01 0.00000E+00
 -1      1124 0.00000E+00 3.67250E+01 0.00000E+00
 -1      1125 0.00000E+00 3.38000E+01 0.00000E+00
 -1      1126 0.00000E+00 3.08750E+01 0.00000E+00
 -1      1127 0.00000E+00 2.79250E+01 0.00000E+00
 -1      1128 0.00000E+00 2.49750E+01 0.00000E+00
 -1      1129 0.00000E+00 2.20250E+01 0.00000E+00
 -1      1130 0.00000E+00 1.90750E+01 0.00000E+00
 -1      1131 0.00000E+00 1.61500E+01 0.00000E+00
 -1      1132 0.00000E+00 1.32250E+01 0.00000E+00
 -1      1133 0.00000E+00 1.02750E+01 0.00000E+00
 -1      1134 0.00000E+00 7.32500E+00 0.00000E+00
 -1      1135 0.00000E+00 4.37500E+00 0.00000E+00
 -1      1136 0.00000E+00 1.45000E+00 0.00000E+00
 -1      1137 1.57500E+00 5.00000E+01 0.00000E+00
 -1      1138 4.65000E+00 5.00000E+01 0.00000E+00
 -1      1139 7.65000E+00 5.00000E+01 0.00000E+00
 -1      1140 1.06500E+01 5.00000E+01 0.00000E+00
 -1      1141 1.36500E+01 5.00000E+01 0.00000E+00
 -1      1142 1.66500E+01 5.00000E+01 0.00000E+00
 -1      1143 1.96500E+01 5.00000E+01 0.00000E+00
 -1      1144 2.26500E+01 5.00000E+01 0.00000E+00
 -1      1145 2.56500E+01 5.00000E+01 0.00000E+00
 -1      1146 2.86500E+01 5.00000E+01 0.00000E+00
 -1      1147 3.16500E+01 5.00000E+01 0.00000E+00
 -1      1148 3.46500E+01 5.00000E+01 0.00000E+00
 -1      1149 3.76500E+01 5.00000E+01 0.00000E+00
 -1      1150 4.06500E+01 5.00000E+01 0.00000E+00
 -1      1151 4.36500E+01 5.00000E+01 0.00000E+00
 -1      1152 4.66500E+01 5.00000E+01 0.00000E+00
 -1      1153 4.96500E+01 5.00000E+01 0.00000E+00
 -1      1154 5.26500E+01 5.00000E+01 0.00000E+00
 -1      1155 5.56500E+01 5.00000E+01 0.00000E+00
 -1      1156 5.86500E+01 5.00000E+01 0.00000E+00
 -1      1157 6.16500E+01 5.00000E+01 0.00000E+00
 -1      1158 6.46500E+01 5.00000E+01 0.00000E+00
 -1      1159 6.76500E+01 5.00000E+01 0.00000E+00
 -1      1160 7.06500E+01 5.00000E+01 0.00000E+00
 -1      1161 7.36500E+01 5.00000E+01 0.00000E+00
 -1      1162 7.66500E+01 5.00000E+01 0.00000E+00
 -1      1163 7.96500E+01 5.00000E+01 0.00000E+00
 -1      1164 8.26500E+01 5.00000E+01 0.00000E+00
 -1      1165 8.56500E+01 5.00000E+01 0.00000E+00
 -1      1166 8.86500E+01 5.00000E+01 0.00000E+00
 -1      1167 9.16500E+01 5.00000E+01 0.00000E+00
 -1      1168 9.46500E+01 5.00000E+01 0.00000E+00
 -1      1169 9.76500E+01 5.00000E+01 0.00000E+00
 -1      1170 1.00650E+02 5.00000E+01 0.00000E+00
 -1      1171 1.03650E+02 5.00000E+01 0.00000E+00
 -1      1172 1.06650E+02 5.00000E+01 0.00000E+00
 -1      1173 1.09650E+02 5.00000E+01 0.00000E+00
 -1      1174 1.12650E+02 5.00000E+01 0.00000E+00
 -1      1175 1.15650E+02 5.00000E+01 0.00000E+00
 -1      1176 1.18650E+02 5.00000E+01 0.00000E+00
 -1      1177 1.21650E+02 5.00000E+01 0.00000E+00
 -1      1178 1.24650E+02 5.00000E+01 0.00000E+00
 -1      1179 1.27650E+02 5.00000E+01 0.00000E+00
 -1      1180 1.30650E+02 5.00000E+01 0.00000E+00
 -1      1181 1.33650E+02 5.00000E+01 0.00000E+00
 -1      1182 1.36650E+02 5.00000E+01 0.00000E+00
 -1      1183 1.39650E+02 5.00000E+01 0.00000E+00
 -1      1184 1.42650E+02 5.00000E+01 0.00000E+00
 -1      1185 1.45650E+02 5.00000E+01 0.00000E+00
 -1      1186 1.48575E+02 5.00000E+01 0.00000E+00
 -1      1187 1.57500E+00 0.00000E+00 0.00000E+00
 -1      1188 4.65000E+00 0.00000E+00 0.00000E+00
 -1      1189 7.65000E+00 0.00000E+00 0.00000E+00
 -1      1190 1.06500E+01 0.00000E+00 0.00000E+00
 -1      1191 1.36500E+01 0.00000E+00 0.00000E+00
 -1      1192 1.66500E+01 0.00000E+00 0.00000E+00
 -1      1193 1.96500E+01 0.00000E+00 0.00000E+00
 -1      1194 2.26500E+01 0.00000E+00 0.00000E+00
 -1      1195 2.56500E+01 0.00000E+00 0.00000E+00
 -1      1196 2.86500E+01 0.00000E+00 0.00000E+00
 -1      1197 3.16500E+01 0.00000E+00 0.00000E+00
 -1      1198 3.46500E+01 0.00000E+00 0.00000E+00
 -1      1199 3.76500E+01 0.00000E+00 0.00000E+00
 -1      1200 4.06500E+01 0.00000E+00 0.00000E+00
 -1      1201 4.36500E+01 0.00000E+00 0.00000E+00
 -1      1202 4.66500E+01 0.00000E+00 0.00000E+00
 -1      1203 4.96500E+01 0.00000E+00 0.00000E+00
 -1      1204 5.26500E+01 0.00000E+00 0.00000E+00
 -1      1205 5.56500E+01 0.00000E+00 0.00000E+00
 -1      1206 5.86500E+01 0.00000E+00 0.00000E+00
 -1      1207 6.16500E+01 0.00000E+00 0.00000E+00
 -1      1208 6.46500E+01 0.00000E+00 0.00000E+00
 -1      1209 6.76500E+01 0.00000E+00 0.00000E+00
 -1      1210 7.06500E+01 0.00000E+00 0.00000E+00
 -1      1211 7.36500E+01 0.00000E+00 0.00000E+00
 -1      1212 7.66500E+01 0.00000E+00 0.00000E+00
 -1      1213 7.96500E+01 0.00000E+00 0.00000E+00
 -1      1214 8.26500E+01 0.00000E+00 0.00000E+00
 -1      1215 8.56500E+01 0.00000E+00 0.00000E+00
 -1      1216 8.86500E+01 0.00000E+00 0.00000E+00
 -1      1217 9.16500E+01 0.00000E+00 0.00000E+00
 -1      1218 9.46500E+01 0.00000E+00 0.00000E+00
 -1      1219 9.76500E+01 0.00000E+00 0.00000E+00
 -1      1220 1.00650E+02 0.00000E+00 0.00000E+00
 -1      1221 1.03650E+02 0.00000E+00 0.00000E+00
 -1      1222 1.06650E+02 0.00000E+00 0.00000E+00
 -1      1223 1.09650E+02 0.00000E+00 0.00000E+00
 -1      1224 1.12650E+02 0.00000E+00 0.00000E+00
 -1      1225 1.15650E+02 0.00000E+00 0.00000E+00
 -1      1226 1.18650E+02 0.00000E+00 0.00000E+00
 -1      1227 1.21650E+02 0.00000E+00 0.00000E+00
 -1      1228 1.24650E+02 0.00000E+00 0.00000E+00
 -1      1229 1.27650E+02 0.00000E+00 0.00000E+00
 -1      1230 1.30650E+02 0.00000E+00 0.00000E+00
 -1      1231 1.33650E+02 0.00000E+00 0.00000E+00
 -1      1232 1.36650E+02 0.00000E+00 0.00000E+00
 -1      1233 1.39650E+02 0.00000E+00 0.00000E+00
 -1      1234 1.42650E+02 0.00000E+00 0.00000E+00
 -1      1235 1.45650E+02 0.00000E+00 0.00000E+00
 -1      1236 1.48575E+02 0.00000E+00 0.00000E+00
 -1      1237 1.50000E+02 1.47500E+00 0.00000E+00
 -1      1238 1.50000E+02 4.42500E+00 0.00000E+00
 -1      1239 1.50000E+02 7.37500E+00 0.00000E+00
 -1      1240 1.50000E+02 1.03250E+01 0.00000E+00
 -1      1241 1.50000E+02 1.32750E+01 0.00000E+00
 -1      1242 1.50000E+02 1.62000E+01 0.00000E+00
 -1      1243 1.50000E+02 1.91250E+01 0.00000E+00
 -1      1244 1.50000E+02 2.20750E+01 0.00000E+00
 -1      1245 1.50000E+02 2.50250E+01 0.00000E+00
 -1      1246 1.50000E+02 2.79750E+01 0.00000E+00
 -1      1247 1.50000E+02 3.09250E+01 0.00000E+00
 -1      1248 1.50000E+02 3.38500E+01 0.00000E+00
 -1      1249 1.50000E+02 3.67750E+01 0.00000E+00
 -1      1250 1.50000E+02 3.97250E+01 0.00000E+00
 -1      1251 1.50000E+02 4.26750E+01 0.00000E+00
 -1      1252 1.50000E+02 4.56250E+01 0.00000E+00
 -1      1253 1.50000E+02 4.85500E+01 0.00000E+00
 -1      1254 9.94513E+01 2.73272E+01 0.00000E+00
 -1      1255 9.90949E+01 2.57824E+01 0.00000E+00
 -1      1256 9.84463E+01 2.44312E+01 0.00000E+00
 -1      1257 9.75567E+01 2.32821E+01 0.00000E+00
 -1      1258 9.63817E+01 2.22959E+01 0.00000E+00
 -1      1259 9.49924E+01 2.15787E+01 0.00000E+00
 -1      1260 9.34705E+01 2.11866E+01 0.00000E+00
 -1      1261 9.19486E+01 2.11400E+01 0.00000E+00
 -1      1262 9.04961E+01 2.14103E+01 0.00000E+00
 -1      1263 8.91184E+01 2.19874E+01 0.00000E+00
 -1      1264 8.79358E+01 2.28079E+01 0.00000E+00
 -1      1265 8.69362E+01 2.38656E+01 0.00000E+00
 -1      1266 8.61507E+01 2.51632E+01 0.00000E+00
 -1      1267 8.56697E+01 2.65698E+01 0.00000E+00
 -1      1268 8.54970E+01 2.80122E+01 0.00000E+00
 -1      1269 8.56354E+01 2.95076E+01 0.00000E+00
 -1      1270 8.61023E+01 3.09678E+01 0.00000E+00
 -1      1271 8.68398E+01 3.22423E+01 0.00000E+00
 -1      1272 8.79010E+01 3.33991E+01 0.00000E+00
 -1      1273 8.91808E+01 3.42836E+01 0.00000E+00
 -1      1274 9.06162E+01 3.48613E+01 0.00000E+00
 -1      1275 9.21922E+01 3.51119E+01 0.00000E+00
 -1      1276 9.37089E+01 3.50127E+01 0.00000E+00
 -1      1277 9.51259E+01 3.46058E+01 0.00000E+00
 -1      1278 9.64233E+01 3.39131E+01 0.00000E+00
 -1      1279 9.76259E+01 3.28815E+01 0.00000E+00
 -1      1280 9.85639E+01 3.16088E+01 0.00000E+00
 -1      1281 9.91632E+01 3.02517E+01 0.00000E+00
 -1      1282 9.94591E+01 2.88384E+01 0.00000E+00
 -1      1283 1.57500E+00 4.85250E+01 0.00000E+00
 -1      1284 1.29900E+00 4.48375E+01 0.00000E+00
 -1      1285 1.29900E+00 4.63125E+01 0.00000E+00
 -1      1286 1.29900E+00 4.18875E+01 0.00000E+00
 -1      1287 1.29900E+00 4.33625E+01 0.00000E+00
 -1      1288 2.59800E+00 4.41000E+01 0.00000E+00
 -1      1289 1.29900E+00 3.89375E+01 0.00000E+00
 -1      1290 1.29900E+00 4.04125E+01 0.00000E+00
 -1      1291 2.59800E+00 4.11500E+01 0.00000E+00
 -1      1292 1.29900E+00 3.59875E+01 0.00000E+00
 -1      1293 1.29900E+00 3.74625E+01 0.00000E+00
 -1      1294 2.59800E+00 3.82000E+01 0.00000E+00
 -1      1295 1.29900E+00 3.30875E+01 0.00000E+00
 -1      1296 1.29900E+00 3.45375E+01 0.00000E+00
 -1      1297 2.59800E+00 3.52750E+01 0.00000E+00
 -1      1298 1.29900E+00 3.01375E+01 0.00000E+00
 -1      1299 1.29900E+00 3.16125E+01 0.00000E+00
 -1      1300 2.59800E+00 3.23500E+01 0.00000E+00
 -1      1301 1.29900E+00 2.71875E+01 0.00000E+00
 -1      1302 1.29900E+00 2.86625E+01 0.00000E+00
 -1      1303 2.59800E+00 2.94000E+01 0.00000E+00
 -1      1304 1.29900E+00 2.42375E+01 0.00000E+00
 -1      1305 1.29900E+00 2.57125E+01 0.00000E+00
 -1      1306 2.59800E+00 2.64500E+01 0.00000E+00
 -1      1307 1.29900E+00 2.12875E+01 0.00000E+00
 -1      1308 1.29900E+00 2.27625E+01 0.00000E+00
 -1      1309 2.59800E+00 2.35000E+01 0.00000E+00
 -1      1310 1.29900E+00 1.83375E+01 0.00000E+00
 -1      1311 1.29900E+00 1.98125E+01 0.00000E+00
 -1      1312 2.59800E+00 2.05500E+01 0.00000E+00
 -1      1313 1.29900E+00 1.54375E+01 0.00000E+00
 -1      1314 1.29900E+00 1.68875E+01 0.00000E+00
 -1      1315 2.59800E+00 1.76250E+01 0.00000E+00
 -1      1316 1.29900E+00 1.24875E+01 0.00000E+00
 -1      1317 1.29900E+00 1.39625E+01 0.00000E+00
 -1      1318 2.59800E+00 1.47000E+01 0.00000E+00
 -1      1319 1.29900E+00 9.53750E+00 0.00000E+00
 -1      1320 1.29900E+00 1.10125E+01 0.00000E+00
 -1      1321 2.59800E+00 1.17500E+01 0.00000E+00
 -1      1322 1.29900E+00 6.58750E+00 0.00000E+00
 -1      1323 1.29900E+00 8.06250E+00 0.00000E+00
 -1      1324 2.59800E+00 8.80000E+00 0.00000E+00
 -1      1325 1.29900E+00 3.63750E+00 0.00000E+00
 -1      1326 1.29900E+00 5.11250E+00 0.00000E+00
 -1      1327 2.59800E+00 5.85000E+00 0.00000E+00
 -1      1328 1.43700E+00 1.09375E+00 0.00000E+00
 -1      1329 1.43700E+00 2.54375E+00 0.00000E+00
 -1      1330 2.73600E+00 3.28125E+00 0.00000E+00
 -1      1331 3.01200E+00 1.09375E+00 0.00000E+00
 -1      1332 3.90000E+00 4.87010E+01 0.00000E+00
 -1      1333 5.40000E+00 4.87010E+01 0.00000E+00
 -1      1334 6.90000E+00 4.87010E+01 0.00000E+00
 -1      1335 8.40000E+00 4.87010E+01 0.00000E+00
 -1      1336 6.15000E+00 4.74020E+01 0.00000E+00
 -1      1337 9.90000E+00 4.87010E+01 0.00000E+00
 -1      1338 1.14000E+01 4.87010E+01 0.00000E+00
 -1      1339 9.15000E+00 4.74020E+01 0.00000E+00
 -1      1340 1.29000E+01 4.87010E+01 0.00000E+00
 -1      1341 1.44000E+01 4.87010E+01 0.00000E+00
 -1      1342 1.21500E+01 4.74020E+01 0.00000E+00
 -1      1343 1.59000E+01 4.87010E+01 0.00000E+00
 -1      1344 1.74000E+01 4.87010E+01 0.00000E+00
 -1      1345 1.51500E+01 4.74020E+01 0.00000E+00
 -1      1346 1.89000E+01 4.87010E+01 0.00000E+00
 -1      1347 2.04000E+01 4.87010E+01 0.00000E+00
 -1      1348 1.81500E+01 4.74020E+01 0.00000E+00
 -1      1349 2.19000E+01 4.87010E+01 0.00000E+00
 -1      1350 2.34000E+01 4.87010E+01 0.00000E+00
 -1      1351 2.11500E+01 4.74020E+01 0.00000E+00
 -1      1352 2.49000E+01 4.87010E+01 0.00000E+00
 -1      1353 2.64000E+01 4.87010E+01 0.00000E+00
 -1      1354 2.41500E+01 4.74020E+01 0.00000E+00
 -1      1355 2.79000E+01 4.87010E+01 0.00000E+00
 -1      1356 2.94000E+01 4.87010E+01 0.00000E+00
 -1      1357 2.71500E+01 4.74020E+01 0.00000E+00
 -1      1358 3.09000E+01 4.87010E+01 0.00000E+00
 -1      1359 3.24000E+01 4.87010E+01 0.00000E+00
 -1      1360 3.01500E+01 4.74020E+01 0.00000E+00
 -1      1361 3.39000E+01 4.87010E+01 0.00000E+00
 -1      1362 3.54000E+01 4.87010E+01 0.00000E+00
 -1      1363 3.31500E+01 4.74020E+01 0.00000E+00
 -1      1364 3.69000E+01 4.87010E+01 0.00000E+00
 -1      1365 3.84000E+01 4.87010E+01 0.00000E+00
 -1      1366 3.61500E+01 4.74020E+01 0.00000E+00
 -1      1367 3.99000E+01 4.87010E+01 0.00000E+00
 -1      1368 4.14000E+01 4.87010E+01 0.00000E+00
 -1      1369 3.91500E+01 4.74020E+01 0.00000E+00
 -1      1370 4.29000E+01 4.87010E+01 0.00000E+00
 -1      1371 4.44000E+01 4.87010E+01 0.00000E+00
 -1      1372 4.21500E+01 4.74020E+01 0.00000E+00
 -1      1373 4.59000E+01 4.87010E+01 0.00000E+00
 -1      1374 4.74000E+01 4.87010E+01 0.00000E+00
 -1      1375 4.51500E+01 4.74020E+01 0.00000E+00
 -1      1376 4.89000E+01 4.87010E+01 0.00000E+00
 -1      1377 5.04000E+01 4.87010E+01 0.00000E+00
 -1      1378 4.81500E+01 4.74020E+01 0.00000E+00
 -1      1379 5.19000E+01 4.87010E+01 0.00000E+00
 -1      1380 5.34000E+01 4.87010E+01 0.00000E+00
 -1      1381 5.11500E+01 4.74020E+01 0.00000E+00
 -1      1382 5.49000E+01 4.87010E+01 0.00000E+00
 -1      1383 5.64000E+01 4.87010E+01 0.00000E+00
 -1      1384 5.41500E+01 4.74020E+01 0.00000E+00
 -1      1385 5.79000E+01 4.87010E+01 0.00000E+00
 -1      1386 5.94000E+01 4.87010E+01 0.00000E+00
 -1      1387 5.71500E+01 4.74020E+01 0.00000E+00
 -1      1388 6.09000E+01 4.87010E+01 0.00000E+00
 -1      1389 6.24000E+01 4.87010E+01 0.00000E+00
 -1      1390 6.01500E+01 4.74020E+01 0.00000E+00
 -1      1391 6.39000E+01 4.87010E+01 0.00000E+00
 -1      1392 6.54000E+01 4.87010E+01 0.00000E+00
 -1      1393 6.31500E+01 4.74020E+01 0.00000E+00
 -1      1394 6.69000E+01 4.87010E+01 0.00000E+00
 -1      1395 6.84000E+01 4.87010E+01 0.00000E+00
 -1      1396 6.61500E+01 4.74020E+01 0.00000E+00
 -1      1397 6.99000E+01 4.87010E+01 0.00000E+00
 -1      1398 7.14000E+01 4.87010E+01 0.00000E+00
 -1      1399 6.91500E+01 4.74020E+01 0.00000E+00
 -1      1400 7.29000E+01 4.87010E+01 0.00000E+00
 -1      1401 7.44000E+01 4.87010E+01 0.00000E+00
 -1      1402 7.21500E+01 4.74020E+01 0.00000E+00
 -1      1403 7.59000E+01 4.87010E+01 0.00000E+00
 -1      1404 7.74000E+01 4.87010E+01 0.00000E+00
 -1      1405 7.51500E+01 4.74020E+01 0.00000E+00
 -1      1406 7.89000E+01 4.87010E+01 0.00000E+00
 -1      1407 8.04000E+01 4.87010E+01 0.00000E+00
 -1      1408 7.81500E+01 4.74020E+01 0.00000E+00
 -1      1409 8.19000E+01 4.87010E+01 0.00000E+00
 -1      1410 8.34000E+01 4.87010E+01 0.00000E+00
 -1      1411 8.11500E+01 4.74020E+01 0.00000E+00
 -1      1412 8.49000E+01 4.87010E+01 0.00000E+00
 -1      1413 8.64000E+01 4.87010E+01 0.00000E+00
 -1      1414 8.41500E+01 4.74020E+01 0.00000E+00
 -1      1415 8.79000E+01 4.87010E+01 0.00000E+00
 -1      1416 8.94000E+01 4.87010E+01 0.00000E+00
 -1      1417 8.71500E+01 4.74020E+01 0.00000E+00
 -1      1418 9.09000E+01 4.87010E+01 0.00000E+00
 -1      1419 9.24000E+01 4.87010E+01 0.00000E+00
 -1      1420 9.01500E+01 4.74020E+01 0.00000E+00
 -1      1421 9.39000E+01 4.87010E+01 0.00000E+00
 -1      1422 9.54000E+01 4.87010E+01 0.00000E+00
 -1      1423 9.31500E+01 4.74020E+01 0.00000E+00
 -1      1424 9.69000E+01 4.87010E+01 0.00000E+00
 -1      1425 9.84000E+01 4.87010E+01 0.00000E+00
 -1      1426 9.61500E+01 4.74020E+01 0.00000E+00
 -1      1427 9.99000E+01 4.87010E+01 0.00000E+00
 -1      1428 1.01400E+02 4.87010E+01 0.00000E+00
 -1      1429 9.91500E+01 4.74020E+01 0.00000E+00
 -1      1430 1.02900E+02 4.87010E+01 0.00000E+00
 -1      1431 1.04400E+02 4.87010E+01 0.00000E+00
 -1      1432 1.02150E+02 4.74020E+01 0.00000E+00
 -1      1433 1.05900E+02 4.87010E+01 0.00000E+00
 -1      1434 1.07400E+02 4.87010E+01 0.00000E+00
 -1      1435 1.05150E+02 4.74020E+01 0.00000E+00
 -1      1436 1.08900E+02 4.87010E+01 0.00000E+00
 -1      1437 1.10400E+02 4.87010E+01 0.00000E+00
 -1      1438 1.08150E+02 4.74020E+01 0.00000E+00
 -1      1439 1.11900E+02 4.87010E+01 0.00000E+00
 -1      1440 1.13400E+02 4.87010E+01 0.00000E+00
 -1      1441 1.11150E+02 4.74020E+01 0.00000E+00
 -1      1442 1.14900E+02 4.87010E+01 0.00000E+00
 -1      1443 1.16400E+02 4.87010E+01 0.00000E+00
 -1      1444 1.14150E+02 4.74020E+01 0.00000E+00
 -1      1445 1.17900E+02 4.87010E+01 0.00000E+00
 -1      1446 1.19400E+02 4.87010E+01 0.00000E+00
 -1      1447 1.17150E+02 4.74020E+01 0.00000E+00
 -1      1448 1.20900E+02 4.87010E+01 0.00000E+00
 -1      1449 1.22400E+02 4.87010E+01 0.00000E+00
 -1      1450 1.20150E+02 4.74020E+01 0.00000E+00
 -1      1451 1.23900E+02 4.87010E+01 0.00000E+00
 -1      1452 1.25400E+02 4.87010E+01 0.00000E+00
 -1      1453 1.23150E+02 4.74020E+01 0.00000E+00
 -1      1454 1.26900E+02 4.87010E+01 0.00000E+00
 -1      1455 1.28400E+02 4.87010E+01 0.00000E+00
 -1      1456 1.26150E+02 4.74020E+01 0.00000E+00
 -1      1457 1.29900E+02 4.87010E+01 0.00000E+00
 -1      1458 1.31400E+02 4.87010E+01 0.00000E+00
 -1      1459 1.29150E+02 4.74020E+01 0.00000E+00
 -1      1460 1.32900E+02 4.87010E+01 0.00000E+00
 -1      1461 1.34400E+02 4.87010E+01 0.00000E+00
 -1      1462 1.32150E+02 4.74020E+01 0.00000E+00
 -1      1463 1.35900E+02 4.87010E+01 0.00000E+00
 -1      1464 1.37400E+02 4.87010E+01 0.00000E+00
 -1      1465 1.35150E+02 4.74020E+01 0.00000E+00
 -1      1466 1.38900E+02 4.87010E+01 0.00000E+00
 -1      1467 1.40400E+02 4.87010E+01 0.00000E+00
 -1      1468 1.38150E+02 4.74020E+01 0.00000E+00
 -1      1469 1.41900E+02 4.87010E+01 0.00000E+00
 -1      1470 1.43400E+02 4.87010E+01 0.00000E+00
 -1      1471 1.41150E+02 4.74020E+01 0.00000E+00
 -1      1472 1.44900E+02 4.87010E+01 0.00000E+00
 -1      1473 1.46400E+02 4.87010E+01 0.00000E+00
 -1      1474 1.44150E+02 4.74020E+01 0.00000E+00
 -1      1475 1.48575E+02 4.85500E+01 0.00000E+00
 -1      1476 1.47825E+02 4.72510E+01 0.00000E+00
 -1      1477 6.01200E+00 1.09375E+00 0.00000E+00
 -1      1478 4.51200E+00 1.09375E+00 0.00000E+00
 -1      1479 4.37400E+00 2.18750E+00 0.00000E+00
 -1      1480 9.01200E+00 1.09375E+00 0.00000E+00
 -1      1481 7.51200E+00 1.09375E+00 0.00000E+00
 -1      1482 7.37400E+00 2.18750E+00 0.00000E+00
 -1      1483 1.20120E+01 1.09375E+00 0.00000E+00
 -1      1484 1.05120E+01 1.09375E+00 0.00000E+00
 -1      1485 1.03740E+01 2.18750E+00 0.00000E+00
 -1      1486 1.50120E+01 1.09375E+00 0.00000E+00
 -1      1487 1.35120E+01 1.09375E+00 0.00000E+00
 -1      1488 1.33740E+01 2.18750E+00 0.00000E+00
 -1      1489 1.80120E+01 1.09375E+00 0.00000E+00
 -1      1490 1.65120E+01 1.09375E+00 0.00000E+00
 -1      1491 1.63740E+01 2.18750E+00 0.00000E+00
 -1      1492 2.10120E+01 1.09375E+00 0.00000E+00
 -1      1493 1.95120E+01 1.09375E+00 0.00000E+00
 -1      1494 1.93740E+01 2.18750E+00 0.00000E+00
 -1      1495 2.40120E+01 1.09375E+00 0.00000E+00
 -1      1496 2.25120E+01 1.09375E+00 0.00000E+00
 -1      1497 2.23740E+01 2.18750E+00 0.00000E+00
 -1      1498 2.70120E+01 1.09375E+00 0.00000E+00
 -1      1499 2.55120E+01 1.09375E+00 0.00000E+00
 -1      1500 2.53740E+01 2.18750E+00 0.00000E+00
 -1      1501 3.00120E+01 1.09375E+00 0.00000E+00
 -1      1502 2.85120E+01 1.09375E+00 0.00000E+00
 -1      1503 2.83740E+01 2.18750E+00 0.00000E+00
 -1      1504 3.30120E+01 1.09375E+00 0.00000E+00
 -1      1505 3.15120E+01 1.09375E+00 0.00000E+00
 -1      1506 3.13740E+01 2.18750E+00 0.00000E+00
 -1      1507 3.60120E+01 1.09375E+00 0.00000E+00
 -1      1508 3.45120E+01 1.09375E+00 0.00000E+00
 -1      1509 3.43740E+01 2.18750E+00 0.00000E+00
 -1      1510 3.90120E+01 1.09375E+00 0.00000E+00
 -1      1511 3.75120E+01 1.09375E+00 0.00000E+00
 -1      1512 3.73740E+01 2.18750E+00 0.00000E+00
 -1      1513 4.20120E+01 1.09375E+00 0.00000E+00
 -1      1514 4.05120E+01 1.09375E+00 0.00000E+00
 -1      1515 4.03740E+01 2.18750E+00 0.00000E+00
 -1      1516 4.50120E+01 1.09375E+00 0.00000E+00
 -1      1517 4.35120E+01 1.09375E+00 0.00000E+00
 -1      1518 4.33740E+01 2.18750E+00 0.00000E+00
 -1      1519 4.80120E+01 1.09375E+00 0.00000E+00
 -1      1520 4.65120E+01 1.09375E+00 0.00000E+00
 -1      1521 4.63740E+01 2.18750E+00 0.00000E+00
 -1      1522 5.10120E+01 1.09375E+00 0.00000E+00
 -1      1523 4.95120E+01 1.09375E+00 0.00000E+00
 -1      1524 4.93740E+01 2.18750E+00 0.00000E+00
 -1      1525 5.40120E+01 1.09375E+00 0.00000E+00
 -1      1526 5.25120E+01 1.09375E+00 0.00000E+00
 -1      1527 5.23740E+01 2.18750E+00 0.00000E+00
 -1      1528 5.70120E+01 1.09375E+00 0.00000E+00
 -1      1529 5.55120E+01 1.09375E+00 0.00000E+00
 -1      1530 5.53740E+01 2.18750E+00 0.00000E+00
 -1      1531 6.00120E+01 1.09375E+00 0.00000E+00
 -1      1532 5.85120E+01 1.09375E+00 0.00000E+00
 -1      1533 5.83740E+01 2.18750E+00 0.00000E+00
 -1      1534 6.30120E+01 1.09375E+00 0.00000E+00
 -1      1535 6.15120E+01 1.09375E+00 0.00000E+00
 -1      1536 6.13740E+01 2.18750E+00 0.00000E+00
 -1      1537 6.60120E+01 1.09375E+00 0.00000E+00
 -1      1538 6.45120E+01 1.09375E+00 0.00000E+00
 -1      1539 6.43740E+01 2.18750E+00 0.00000E+00
 -1      1540 6.90120E+01 1.09375E+00 0.00000E+00
 -1      1541 6.75120E+01 1.09375E+00 0.00000E+00
 -1      1542 6.73740E+01 2.18750E+00 0.00000E+00
 -1      1543 7.20120E+01 1.09375E+00 0.00000E+00
 -1      1544 7.05120E+01 1.09375E+00 0.00000E+00
 -1      1545 7.03740E+01 2.18750E+00 0.00000E+00
 -1      1546 7.50120E+01 1.09375E+00 0.00000E+00
 -1      1547 7.35120E+01 1.09375E+00 0.00000E+00
 -1      1548 7.33740E+01 2.18750E+00 0.00000E+00
 -1      1549 7.80120E+01 1.09375E+00 0.00000E+00
 -1      1550 7.65120E+01 1.09375E+00 0.00000E+00
 -1      1551 7.63740E+01 2.18750E+00 0.00000E+00
 -1      1552 8.10120E+01 1.09375E+00 0.00000E+00
 -1      1553 7.95120E+01 1.09375E+00 0.00000E+00
 -1      1554 7.93740E+01 2.18750E+00 0.00000E+00
 -1      1555 8.40120E+01 1.09375E+00 0.00000E+00
 -1      1556 8.25120E+01 1.09375E+00 0.00000E+00
 -1      1557 8.23740E+01 2.18750E+00 0.00000E+00
 -1      1558 8.70120E+01 1.09375E+00 0.00000E+00
 -1      1559 8.55120E+01 1.09375E+00 0.00000E+00
 -1      1560 8.53740E+01 2.18750E+00 0.00000E+00
 -1      1561 9.00120E+01 1.09375E+00 0.00000E+00
 -1      1562 8.85120E+01 1.09375E+00 0.00000E+00
 -1      1563 8.83740E+01 2.18750E+00 0.00000E+00
 -1      1564 9.30120E+01 1.09375E+00 0.00000E+00
 -1      1565 9.15120E+01 1.09375E+00 0.00000E+00
 -1      1566 9.13740E+01 2.18750E+00 0.00000E+00
 -1      1567 9.60120E+01 1.09375E+00 0.00000E+00
 -1      1568 9.45120E+01 1.09375E+00 0.00000E+00
 -1      1569 9.43740E+01 2.18750E+00 0.00000E+00
 -1      1570 9.90120E+01 1.09375E+00 0.00000E+00
 -1      1571 9.75120E+01 1.09375E+00 0.00000E+00
 -1      1572 9.73740E+01 2.18750E+00 0.00000E+00
 -1      1573 1.02012E+02 1.09375E+00 0.00000E+00
 -1      1574 1.00512E+02 1.09375E+00 0.00000E+00
 -1      1575 1.00374E+02 2.18750E+00 0.00000E+00
 -1      1576 1.05012E+02 1.09375E+00 0.00000E+00
 -1      1577 1.03512E+02 1.09375E+00 0.00000E+00
 -1      1578 1.03374E+02 2.18750E+00 0.00000E+00
 -1      1579 1.08012E+02 1.09375E+00 0.00000E+00
 -1      1580 1.06512E+02 1.09375E+00 0.00000E+00
 -1      1581 1.06374E+02 2.18750E+00 0.00000E+00
 -1      1582 1.11012E+02 1.09375E+00 0.00000E+00
 -1      1583 1.09512E+02 1.09375E+00 0.00000E+00
 -1      1584 1.09374E+02 2.18750E+00 0.00000E+00
 -1      1585 1.14012E+02 1.09375E+00 0.00000E+00
 -1      1586 1.12512E+02 1.09375E+00 0.00000E+00
 -1      1587 1.12374E+02 2.18750E+00 0.00000E+00
 -1      1588 1.17012E+02 1.09375E+00 0.00000E+00
 -1      1589 1.15512E+02 1.09375E+00 0.00000E+00
 -1      1590 1.15374E+02 2.18750E+00 0.00000E+00
 -1      1591 1.20012E+02 1.09375E+00 0.00000E+00
 -1      1592 1.18512E+02 1.09375E+00 0.00000E+00
 -1      1593 1.18374E+02 2.18750E+00 0.00000E+00
 -1      1594 1.23012E+02 1.09375E+00 0.00000E+00
 -1      1595 1.21512E+02 1.09375E+00 0.00000E+00
 -1      1596 1.21374E+02 2.18750E+00 0.00000E+00
 -1      1597 1.26012E+02 1.09375E+00 0.00000E+00
 -1      1598 1.24512E+02 1.09375E+00 0.00000E+00
 -1      1599 1.24374E+02 2.18750E+00 0.00000E+00
 -1      1600 1.29012E+02 1.09375E+00 0.00000E+00
 -1      1601 1.27512E+02 1.09375E+00 0.00000E+00
 -1      1602 1.27374E+02 2.18750E+00 0.00000E+00
 -1      1603 1.32012E+02 1.09375E+00 0.00000E+00
 -1      1604 1.30512E+02 1.09375E+00 0.00000E+00
 -1      1605 1.30374E+02 2.18750E+00 0.00000E+00
 -1      1606 1.35012E+02 1.09375E+00 0.00000E+00
 -1      1607 1.33512E+02 1.09375E+00 0.00000E+00
 -1      1608 1.33374E+02 2.18750E+00 0.00000E+00
 -1      1609 1.38012E+02 1.09375E+00 0.00000E+00
 -1      1610 1.36512E+02 1.09375E+00 0.00000E+00
 -1      1611 1.36374E+02 2.18750E+00 0.00000E+00
 -1      1612 1.41012E+02 1.09375E+00 0.00000E+00
 -1      1613 1.39512E+02 1.09375E+00 0.00000E+00
 -1      1614 1.39374E+02 2.18750E+00 0.00000E+00
 -1      1615 1.44012E+02 1.09375E+00 0.00000E+00
 -1      1616 1.42512E+02 1.09375E+00 0.00000E+00
 -1      1617 1.42374E+02 2.18750E+00 0.00000E+00
 -1      1618 1.47012E+02 1.09375E+00 0.00000E+00
 -1      1619 1.45512E+02 1.09375E+00 0.00000E+00
 -1      1620 1.45374E+02 2.18750E+00 0.00000E+00
 -1      1621 1.48575E+02 1.47500E+00 0.00000E+00
 -1      1622 1.48701E+02 5.16250E+00 0.00000E+00
 -1      1623 1.48701E+02 3.68750E+00 0.00000E+00
 -1      1624 1.48701E+02 8.11250E+00 0.00000E+00
 -1      1625 1.48701E+02 6.63750E+00 0.00000E+00
 -1      1626 1.47402E+02 5.90000E+00 0.00000E+00
 -1      1627 1.48701E+02 1.10625E+01 0.00000E+00
 -1      1628 1.48701E+02 9.58750E+00 0.00000E+00
 -1      1629 1.47402E+02 8.85000E+00 0.00000E+00
 -1      1630 1.48701E+02 1.40125E+01 0.00000E+00
 -1      1631 1.48701E+02 1.25375E+01 0.00000E+00
 -1      1632 1.47402E+02 1.18000E+01 0.00000E+00
 -1      1633 1.48701E+02 1.69125E+01 0.00000E+00
 -1      1634 1.48701E+02 1.54625E+01 0.00000E+00
 -1      1635 1.47402E+02 1.47250E+01 0.00000E+00
 -1      1636 1.48701E+02 1.98625E+01 0.00000E+00
 -1      1637 1.48701E+02 1.83875E+01 0.00000E+00
 -1      1638 1.47402E+02 1.76500E+01 0.00000E+00
 -1      1639 1.48701E+02 2.28125E+01 0.00000E+00
 -1      1640 1.48701E+02 2.13375E+01 0.00000E+00
 -1      1641 1.47402E+02 2.06000E+01 0.00000E+00
 -1      1642 1.48701E+02 2.57625E+01 0.00000E+00
 -1      1643 1.48701E+02 2.42875E+01 0.00000E+00
 -1      1644 1.47402E+02 2.35500E+01 0.00000E+00
 -1      1645 1.48701E+02 2.87125E+01 0.00000E+00
 -1      1646 1.48701E+02 2.72375E+01 0.00000E+00
 -1      1647 1.47402E+02 2.65000E+01 0.00000E+00
 -1      1648 1.48701E+02 3.16625E+01 0.00000E+00
 -1      1649 1.48701E+02 3.01875E+01 0.00000E+00
 -1      1650 1.47402E+02 2.94500E+01 0.00000E+00
 -1      1651 1.48701E+02 3.45625E+01 0.00000E+00
 -1      1652 1.48701E+02 3.31125E+01 0.00000E+00
 -1      1653 1.47402E+02 3.23750E+01 0.00000E+00
 -1      1654 1.48701E+02 3.75125E+01 0.00000E+00
 -1      1655 1.48701E+02 3.60375E+01 0.00000E+00
 -1      1656 1.47402E+02 3.53000E+01 0.00000E+00
 -1      1657 1.48701E+02 4.04625E+01 0.00000E+00
 -1      1658 1.48701E+02 3.89875E+01 0.00000E+00
 -1      1659 1.47402E+02 3.82500E+01 0.00000E+00
 -1      1660 1.48701E+02 4.34125E+01 0.00000E+00
 -1      1661 1.48701E+02 4.19375E+01 0.00000E+00
 -1      1662 1.47402E+02 4.12000E+01 0.00000E+00
 -1      1663 1.48263E+02 4.60692E+01 0.00000E+00
 -1      1664 1.48263E+02 4.45942E+01 0.00000E+00
 -1      1665 1.46964E+02 4.38568E+01 0.00000E+00
 -1      1666 1.46088E+02 4.62202E+01 0.00000E+00
 -1      1667 1.00037E+02 2.68624E+01 0.00000E+00
 -1      1668 1.00126E+02 2.76486E+01 0.00000E+00
 -1      1669 9.95702E+01 2.51929E+01 0.00000E+00
 -1      1670 9.98352E+01 2.59415E+01 0.00000E+00
 -1      1671 9.87458E+01 2.38312E+01 0.00000E+00
 -1      1672 9.91169E+01 2.44301E+01 0.00000E+00
 -1      1673 9.77074E+01 2.26204E+01 0.00000E+00
 -1      1674 9.82246E+01 2.31616E+01 0.00000E+00
 -1      1675 9.64600E+01 2.14710E+01 0.00000E+00
 -1      1676 9.71133E+01 2.19071E+01 0.00000E+00
 -1      1677 9.48447E+01 2.08750E+01 0.00000E+00
 -1      1678 9.55715E+01 2.11525E+01 0.00000E+00
 -1      1679 9.31789E+01 2.04099E+01 0.00000E+00
 -1      1680 9.39649E+01 2.05203E+01 0.00000E+00
 -1      1681 9.15409E+01 2.06021E+01 0.00000E+00
 -1      1682 9.22675E+01 2.05450E+01 0.00000E+00
 -1      1683 8.99517E+01 2.08946E+01 0.00000E+00
 -1      1684 9.06691E+01 2.06806E+01 0.00000E+00
 -1      1685 8.84380E+01 2.15242E+01 0.00000E+00
 -1      1686 8.90905E+01 2.11647E+01 0.00000E+00
 -1      1687 8.73000E+01 2.26003E+01 0.00000E+00
 -1      1688 8.78268E+01 2.21480E+01 0.00000E+00
 -1      1689 8.61900E+01 2.37739E+01 0.00000E+00
 -1      1690 8.66523E+01 2.31694E+01 0.00000E+00
 -1      1691 8.54027E+01 2.52317E+01 0.00000E+00
 -1      1692 8.57218E+01 2.45465E+01 0.00000E+00
 -1      1693 8.49941E+01 2.67912E+01 0.00000E+00
 -1      1694 8.51558E+01 2.60786E+01 0.00000E+00
 -1      1695 8.49227E+01 2.83645E+01 0.00000E+00
 -1      1696 8.49337E+01 2.76427E+01 0.00000E+00
 -1      1697 8.50792E+01 3.00180E+01 0.00000E+00
 -1      1698 8.49245E+01 2.92537E+01 0.00000E+00
 -1      1699 8.57391E+01 3.15421E+01 0.00000E+00
 -1      1700 8.54324E+01 3.08540E+01 0.00000E+00
 -1      1701 8.65918E+01 3.28682E+01 0.00000E+00
 -1      1702 8.61681E+01 3.22870E+01 0.00000E+00
 -1      1703 8.77479E+01 3.42228E+01 0.00000E+00
 -1      1704 8.71063E+01 3.36645E+01 0.00000E+00
 -1      1705 8.92012E+01 3.49900E+01 0.00000E+00
 -1      1706 8.85802E+01 3.46560E+01 0.00000E+00
 -1      1707 9.08165E+01 3.57112E+01 0.00000E+00
 -1      1708 9.00052E+01 3.54850E+01 0.00000E+00
 -1      1709 9.25440E+01 3.56933E+01 0.00000E+00
 -1      1710 9.17912E+01 3.56605E+01 0.00000E+00
 -1      1711 9.41914E+01 3.55431E+01 0.00000E+00
 -1      1712 9.34364E+01 3.56759E+01 0.00000E+00
 -1      1713 9.56681E+01 3.50014E+01 0.00000E+00
 -1      1714 9.50123E+01 3.52673E+01 0.00000E+00
 -1      1715 9.70794E+01 3.42010E+01 0.00000E+00
 -1      1716 9.64477E+01 3.46291E+01 0.00000E+00
 -1      1717 9.83676E+01 3.30097E+01 0.00000E+00
 -1      1718 9.78087E+01 3.36116E+01 0.00000E+00
 -1      1719 9.93062E+01 3.15977E+01 0.00000E+00
 -1      1720 9.89274E+01 3.22561E+01 0.00000E+00
 -1      1721 9.98447E+01 3.00896E+01 0.00000E+00
 -1      1722 9.96241E+01 3.07792E+01 0.00000E+00
 -1      1723 1.00093E+02 2.85421E+01 0.00000E+00
 -1      1724 1.00019E+02 2.92581E+01 0.00000E+00
 -1      1725 9.78102E+01 2.17588E+01 0.00000E+00
 -1      1726 9.89254E+01 2.31417E+01 0.00000E+00
 -1      1727 1.48437E+02 2.56875E+00 0.00000E+00
 -1      1728 1.47138E+02 3.30625E+00 0.00000E+00
 -1      1729 1.00555E+02 2.62578E+01 0.00000E+00
 -1      1730 9.98999E+01 2.45741E+01 0.00000E+00
 -1      1731 1.00723E+02 2.80722E+01 0.00000E+00
 -1      1732 9.63277E+01 2.07269E+01 0.00000E+00
 -1      1733 9.45594E+01 2.00536E+01 0.00000E+00
 -1      1734 9.27682E+01 1.98340E+01 0.00000E+00
 -1      1735 9.09850E+01 2.00478E+01 0.00000E+00
 -1      1736 8.92521E+01 2.03966E+01 0.00000E+00
 -1      1737 8.77797E+01 2.12905E+01 0.00000E+00
 -1      1738 8.65208E+01 2.24833E+01 0.00000E+00
 -1      1739 8.54050E+01 2.38251E+01 0.00000E+00
 -1      1740 8.46898E+01 2.54447E+01 0.00000E+00
 -1      1741 8.43825E+01 2.71430E+01 0.00000E+00
 -1      1742 8.43238E+01 2.88836E+01 0.00000E+00
 -1      1743 8.46788E+01 3.06088E+01 0.00000E+00
 -1      1744 8.54611E+01 3.21898E+01 0.00000E+00
 -1      1745 8.64046E+01 3.37311E+01 0.00000E+00
 -1      1746 8.77514E+01 3.49606E+01 0.00000E+00
 -1      1747 8.93877E+01 3.58888E+01 0.00000E+00
 -1      1748 9.11665E+01 3.63331E+01 0.00000E+00
 -1      1749 9.30337E+01 3.62652E+01 0.00000E+00
 -1      1750 9.47471E+01 3.59720E+01 0.00000E+00
 -1      1751 9.63475E+01 3.53239E+01 0.00000E+00
 -1      1752 9.78565E+01 3.43622E+01 0.00000E+00
 -1      1753 9.91457E+01 3.30191E+01 0.00000E+00
 -1      1754 1.00023E+02 3.14470E+01 0.00000E+00
 -1      1755 1.00516E+02 2.97971E+01 0.00000E+00
 -1      1756 2.87400E+00 4.77875E+01 0.00000E+00
 -1      1757 3.89700E+00 4.04125E+01 0.00000E+00
 -1      1758 3.89700E+00 4.18875E+01 0.00000E+00
 -1      1759 3.89700E+00 4.33625E+01 0.00000E+00
 -1      1760 3.89700E+00 4.48375E+01 0.00000E+00
 -1      1761 5.19600E+00 4.26250E+01 0.00000E+00
 -1      1762 3.89700E+00 3.45500E+01 0.00000E+00
 -1      1763 3.89700E+00 3.60000E+01 0.00000E+00
 -1      1764 3.89700E+00 3.16000E+01 0.00000E+00
 -1      1765 3.89700E+00 3.30750E+01 0.00000E+00
 -1      1766 5.19600E+00 3.38000E+01 0.00000E+00
 -1      1767 3.89700E+00 2.86500E+01 0.00000E+00
 -1      1768 3.89700E+00 3.01250E+01 0.00000E+00
 -1      1769 5.19600E+00 3.08500E+01 0.00000E+00
 -1      1770 3.89700E+00 2.57000E+01 0.00000E+00
 -1      1771 3.89700E+00 2.71750E+01 0.00000E+00
 -1      1772 5.19600E+00 2.79000E+01 0.00000E+00
 -1      1773 3.89700E+00 2.27500E+01 0.00000E+00
 -1      1774 3.89700E+00 2.42250E+01 0.00000E+00
 -1      1775 5.19600E+00 2.49500E+01 0.00000E+00
 -1      1776 3.89700E+00 1.98000E+01 0.00000E+00
 -1      1777 3.89700E+00 2.12750E+01 0.00000E+00
 -1      1778 5.19600E+00 2.20000E+01 0.00000E+00
 -1      1779 3.89700E+00 1.69000E+01 0.00000E+00
 -1      1780 3.89700E+00 1.83500E+01 0.00000E+00
 -1      1781 5.19600E+00 1.90750E+01 0.00000E+00
 -1      1782 3.89700E+00 1.39500E+01 0.00000E+00
 -1      1783 3.89700E+00 1.54250E+01 0.00000E+00
 -1      1784 5.19600E+00 1.61500E+01 0.00000E+00
 -1      1785 3.89700E+00 1.10000E+01 0.00000E+00
 -1      1786 3.89700E+00 1.24750E+01 0.00000E+00
 -1      1787 5.19600E+00 1.32000E+01 0.00000E+00
 -1      1788 3.89700E+00 8.05000E+00 0.00000E+00
 -1      1789 3.89700E+00 9.52500E+00 0.00000E+00
 -1      1790 5.19600E+00 1.02500E+01 0.00000E+00
 -1      1791 3.89700E+00 5.10000E+00 0.00000E+00
 -1      1792 3.89700E+00 6.57500E+00 0.00000E+00
 -1      1793 5.19600E+00 7.30000E+00 0.00000E+00
 -1      1794 4.20450E+00 3.09687E+00 0.00000E+00
 -1      1795 4.06650E+00 4.19063E+00 0.00000E+00
 -1      1796 5.36550E+00 4.91563E+00 0.00000E+00
 -1      1797 5.70450E+00 3.09687E+00 0.00000E+00
 -1      1798 3.62400E+00 4.64885E+01 0.00000E+00
 -1      1799 8.70450E+00 3.09687E+00 0.00000E+00
 -1      1800 7.20450E+00 3.09687E+00 0.00000E+00
 -1      1801 7.03500E+00 4.00625E+00 0.00000E+00
 -1      1802 4.92300E+00 4.57510E+01 0.00000E+00
 -1      1803 8.40000E+00 4.61030E+01 0.00000E+00
 -1      1804 9.90000E+00 4.61030E+01 0.00000E+00
 -1      1805 1.14000E+01 4.61030E+01 0.00000E+00
 -1      1806 1.29000E+01 4.61030E+01 0.00000E+00
 -1      1807 1.06500E+01 4.48040E+01 0.00000E+00
 -1      1808 1.44000E+01 4.61030E+01 0.00000E+00
 -1      1809 1.59000E+01 4.61030E+01 0.00000E+00
 -1      1810 1.36500E+01 4.48040E+01 0.00000E+00
 -1      1811 1.74000E+01 4.61030E+01 0.00000E+00
 -1      1812 1.89000E+01 4.61030E+01 0.00000E+00
 -1      1813 1.66500E+01 4.48040E+01 0.00000E+00
 -1      1814 2.04000E+01 4.61030E+01 0.00000E+00
 -1      1815 2.19000E+01 4.61030E+01 0.00000E+00
 -1      1816 1.96500E+01 4.48040E+01 0.00000E+00
 -1      1817 2.34000E+01 4.61030E+01 0.00000E+00
 -1      1818 2.49000E+01 4.61030E+01 0.00000E+00
 -1      1819 2.26500E+01 4.48040E+01 0.00000E+00
 -1      1820 2.64000E+01 4.61030E+01 0.00000E+00
 -1      1821 2.79000E+01 4.61030E+01 0.00000E+00
 -1      1822 2.56500E+01 4.48040E+01 0.00000E+00
 -1      1823 2.94000E+01 4.61030E+01 0.00000E+00
 -1      1824 3.09000E+01 4.61030E+01 0.00000E+00
 -1      1825 2.86500E+01 4.48040E+01 0.00000E+00
 -1      1826 3.24000E+01 4.61030E+01 0.00000E+00
 -1      1827 3.39000E+01 4.61030E+01 0.00000E+00
 -1      1828 3.16500E+01 4.48040E+01 0.00000E+00
 -1      1829 3.54000E+01 4.61030E+01 0.00000E+00
 -1      1830 3.69000E+01 4.61030E+01 0.00000E+00
 -1      1831 3.46500E+01 4.48040E+01 0.00000E+00
 -1      1832 3.84000E+01 4.61030E+01 0.00000E+00
 -1      1833 3.99000E+01 4.61030E+01 0.00000E+00
 -1      1834 3.76500E+01 4.48040E+01 0.00000E+00
 -1      1835 4.14000E+01 4.61030E+01 0.00000E+00
 -1      1836 4.29000E+01 4.61030E+01 0.00000E+00
 -1      1837 4.06500E+01 4.48040E+01 0.00000E+00
 -1      1838 4.44000E+01 4.61030E+01 0.00000E+00
 -1      1839 4.59000E+01 4.61030E+01 0.00000E+00
 -1      1840 4.36500E+01 4.48040E+01 0.00000E+00
 -1      1841 4.74000E+01 4.61030E+01 0.00000E+00
 -1      1842 4.89000E+01 4.61030E+01 0.00000E+00
 -1      1843 4.66500E+01 4.48040E+01 0.00000E+00
 -1      1844 5.04000E+01 4.61030E+01 0.00000E+00
 -1      1845 5.19000E+01 4.61030E+01 0.00000E+00
 -1      1846 4.96500E+01 4.48040E+01 0.00000E+00
 -1      1847 5.34000E+01 4.61030E+01 0.00000E+00
 -1      1848 5.49000E+01 4.61030E+01 0.00000E+00
 -1      1849 5.26500E+01 4.48040E+01 0.00000E+00
 -1      1850 5.64000E+01 4.61030E+01 0.00000E+00
 -1      1851 5.79000E+01 4.61030E+01 0.00000E+00
 -1      1852 5.56500E+01 4.48040E+01 0.00000E+00
 -1      1853 5.94000E+01 4.61030E+01 0.00000E+00
 -1      1854 6.09000E+01 4.61030E+01 0.00000E+00
 -1      1855 5.86500E+01 4.48040E+01 0.00000E+00
 -1      1856 6.24000E+01 4.61030E+01 0.00000E+00
 -1      1857 6.39000E+01 4.61030E+01 0.00000E+00
 -1      1858 6.16500E+01 4.48040E+01 0.00000E+00
 -1      1859 6.54000E+01 4.61030E+01 0.00000E+00
 -1      1860 6.69000E+01 4.61030E+01 0.00000E+00
 -1      1861 6.46500E+01 4.48040E+01 0.00000E+00
 -1      1862 6.84000E+01 4.61030E+01 0.00000E+00
 -1      1863 6.99000E+01 4.61030E+01 0.00000E+00
 -1      1864 6.76500E+01 4.48040E+01 0.00000E+00
 -1      1865 7.14000E+01 4.61030E+01 0.00000E+00
 -1      1866 7.29000E+01 4.61030E+01 0.00000E+00
 -1      1867 7.06500E+01 4.48040E+01 0.00000E+00
 -1      1868 7.44000E+01 4.61030E+01 0.00000E+00
 -1      1869 7.59000E+01 4.61030E+01 0.00000E+00
 -1      1870 7.36500E+01 4.48040E+01 0.00000E+00
 -1      1871 7.74000E+01 4.61030E+01 0.00000E+00
 -1      1872 7.89000E+01 4.61030E+01 0.00000E+00
 -1      1873 7.66500E+01 4.48040E+01 0.00000E+00
 -1      1874 8.04000E+01 4.61030E+01 0.00000E+00
 -1      1875 8.19000E+01 4.61030E+01 0.00000E+00
 -1      1876 7.96500E+01 4.48040E+01 0.00000E+00
 -1      1877 8.34000E+01 4.61030E+01 0.00000E+00
 -1      1878 8.49000E+01 4.61030E+01 0.00000E+00
 -1      1879 8.26500E+01 4.48040E+01 0.00000E+00
 -1      1880 8.64000E+01 4.61030E+01 0.00000E+00
 -1      1881 8.79000E+01 4.61030E+01 0.00000E+00
 -1      1882 8.56500E+01 4.48040E+01 0.00000E+00
 -1      1883 8.94000E+01 4.61030E+01 0.00000E+00
 -1      1884 9.09000E+01 4.61030E+01 0.00000E+00
 -1      1885 8.86500E+01 4.48040E+01 0.00000E+00
 -1      1886 9.24000E+01 4.61030E+01 0.00000E+00
 -1      1887 9.39000E+01 4.61030E+01 0.00000E+00
 -1      1888 9.16500E+01 4.48040E+01 0.00000E+00
 -1      1889 9.54000E+01 4.61030E+01 0.00000E+00
 -1      1890 9.69000E+01 4.61030E+01 0.00000E+00
 -1      1891 9.46500E+01 4.48040E+01 0.00000E+00
 -1      1892 9.84000E+01 4.61030E+01 0.00000E+00
 -1      1893 9.99000E+01 4.61030E+01 0.00000E+00
 -1      1894 9.76500E+01 4.48040E+01 0.00000E+00
 -1      1895 1.01400E+02 4.61030E+01 0.00000E+00
 -1      1896 1.02900E+02 4.61030E+01 0.00000E+00
 -1      1897 1.00650E+02 4.48040E+01 0.00000E+00
 -1      1898 1.04400E+02 4.61030E+01 0.00000E+00
 -1      1899 1.05900E+02 4.61030E+01 0.00000E+00
 -1      1900 1.03650E+02 4.48040E+01 0.00000E+00
 -1      1901 1.07400E+02 4.61030E+01 0.00000E+00
 -1      1902 1.08900E+02 4.61030E+01 0.00000E+00
 -1      1903 1.06650E+02 4.48040E+01 0.00000E+00
 -1      1904 1.10400E+02 4.61030E+01 0.00000E+00
 -1      1905 1.11900E+02 4.61030E+01 0.00000E+00
 -1      1906 1.09650E+02 4.48040E+01 0.00000E+00
 -1      1907 1.13400E+02 4.61030E+01 0.00000E+00
 -1      1908 1.14900E+02 4.61030E+01 0.00000E+00
 -1      1909 1.12650E+02 4.48040E+01 0.00000E+00
 -1      1910 1.16400E+02 4.61030E+01 0.00000E+00
 -1      1911 1.17900E+02 4.61030E+01 0.00000E+00
 -1      1912 1.15650E+02 4.48040E+01 0.00000E+00
 -1      1913 1.19400E+02 4.61030E+01 0.00000E+00
 -1      1914 1.20900E+02 4.61030E+01 0.00000E+00
 -1      1915 1.18650E+02 4.48040E+01 0.00000E+00
 -1      1916 1.22400E+02 4.61030E+01 0.00000E+00
 -1      1917 1.23900E+02 4.61030E+01 0.00000E+00
 -1      1918 1.21650E+02 4.48040E+01 0.00000E+00
 -1      1919 1.25400E+02 4.61030E+01 0.00000E+00
 -1      1920 1.26900E+02 4.61030E+01 0.00000E+00
 -1      1921 1.24650E+02 4.48040E+01 0.00000E+00
 -1      1922 1.28400E+02 4.61030E+01 0.00000E+00
 -1      1923 1.29900E+02 4.61030E+01 0.00000E+00
 -1      1924 1.27650E+02 4.48040E+01 0.00000E+00
 -1      1925 1.31400E+02 4.61030E+01 0.00000E+00
 -1      1926 1.32900E+02 4.61030E+01 0.00000E+00
 -1      1927 1.30650E+02 4.48040E+01 0.00000E+00
 -1      1928 1.34400E+02 4.61030E+01 0.00000E+00
 -1      1929 1.35900E+02 4.61030E+01 0.00000E+00
 -1      1930 1.33650E+02 4.48040E+01 0.00000E+00
 -1      1931 1.37400E+02 4.61030E+01 0.00000E+00
 -1      1932 1.38900E+02 4.61030E+01 0.00000E+00
 -1      1933 1.36650E+02 4.48040E+01 0.00000E+00
 -1      1934 1.40400E+02 4.61030E+01 0.00000E+00
 -1      1935 1.41900E+02 4.61030E+01 0.00000E+00
 -1      1936 1.39650E+02 4.48040E+01 0.00000E+00
 -1      1937 1.43244E+02 4.61616E+01 0.00000E+00
 -1      1938 1.44744E+02 4.61616E+01 0.00000E+00
 -1      1939 1.45182E+02 4.49799E+01 0.00000E+00
 -1      1940 1.42494E+02 4.48626E+01 0.00000E+00
 -1      1941 1.17045E+01 3.09687E+00 0.00000E+00
 -1      1942 1.02045E+01 3.09687E+00 0.00000E+00
 -1      1943 1.00350E+01 4.00625E+00 0.00000E+00
 -1      1944 1.47045E+01 3.09687E+00 0.00000E+00
 -1      1945 1.32045E+01 3.09687E+00 0.00000E+00
 -1      1946 1.30350E+01 4.00625E+00 0.00000E+00
 -1      1947 1.77045E+01 3.09687E+00 0.00000E+00
 -1      1948 1.62045E+01 3.09687E+00 0.00000E+00
 -1      1949 1.60350E+01 4.00625E+00 0.00000E+00
 -1      1950 2.07045E+01 3.09687E+00 0.00000E+00
 -1      1951 1.92045E+01 3.09687E+00 0.00000E+00
 -1      1952 1.90350E+01 4.00625E+00 0.00000E+00
 -1      1953 2.37045E+01 3.09687E+00 0.00000E+00
 -1      1954 2.22045E+01 3.09687E+00 0.00000E+00
 -1      1955 2.20350E+01 4.00625E+00 0.00000E+00
 -1      1956 2.67045E+01 3.09687E+00 0.00000E+00
 -1      1957 2.52045E+01 3.09687E+00 0.00000E+00
 -1      1958 2.50350E+01 4.00625E+00 0.00000E+00
 -1      1959 2.97045E+01 3.09687E+00 0.00000E+00
 -1      1960 2.82045E+01 3.09687E+00 0.00000E+00
 -1      1961 2.80350E+01 4.00625E+00 0.00000E+00
 -1      1962 3.27045E+01 3.09687E+00 0.00000E+00
 -1      1963 3.12045E+01 3.09687E+00 0.00000E+00
 -1      1964 3.10350E+01 4.00625E+00 0.00000E+00
 -1      1965 3.57045E+01 3.09687E+00 0.00000E+00
 -1      1966 3.42045E+01 3.09687E+00 0.00000E+00
 -1      1967 3.40350E+01 4.00625E+00 0.00000E+00
 -1      1968 3.87045E+01 3.09687E+00 0.00000E+00
 -1      1969 3.72045E+01 3.09687E+00 0.00000E+00
 -1      1970 3.70350E+01 4.00625E+00 0.00000E+00
 -1      1971 4.17045E+01 3.09687E+00 0.00000E+00
 -1      1972 4.02045E+01 3.09687E+00 0.00000E+00
 -1      1973 4.00350E+01 4.00625E+00 0.00000E+00
 -1      1974 4.47045E+01 3.09687E+00 0.00000E+00
 -1      1975 4.32045E+01 3.09687E+00 0.00000E+00
 -1      1976 4.30350E+01 4.00625E+00 0.00000E+00
 -1      1977 4.77045E+01 3.09687E+00 0.00000E+00
 -1      1978 4.62045E+01 3.09687E+00 0.00000E+00
 -1      1979 4.60350E+01 4.00625E+00 0.00000E+00
 -1      1980 5.07045E+01 3.09687E+00 0.00000E+00
 -1      1981 4.92045E+01 3.09687E+00 0.00000E+00
 -1      1982 4.90350E+01 4.00625E+00 0.00000E+00
 -1      1983 5.37045E+01 3.09687E+00 0.00000E+00
 -1      1984 5.22045E+01 3.09687E+00 0.00000E+00
 -1      1985 5.20350E+01 4.00625E+00 0.00000E+00
 -1      1986 5.67045E+01 3.09687E+00 0.00000E+00
 -1      1987 5.52045E+01 3.09687E+00 0.00000E+00
 -1      1988 5.50350E+01 4.00625E+00 0.00000E+00
 -1      1989 5.97045E+01 3.09687E+00 0.00000E+00
 -1      1990 5.82045E+01 3.09687E+00 0.00000E+00
 -1      1991 5.80350E+01 4.00625E+00 0.00000E+00
 -1      1992 6.27045E+01 3.09687E+00 0.00000E+00
 -1      1993 6.12045E+01 3.09687E+00 0.00000E+00
 -1      1994 6.10350E+01 4.00625E+00 0.00000E+00
 -1      1995 6.57045E+01 3.09687E+00 0.00000E+00
 -1      1996 6.42045E+01 3.09687E+00 0.00000E+00
 -1      1997 6.40350E+01 4.00625E+00 0.00000E+00
 -1      1998 6.87045E+01 3.09687E+00 0.00000E+00
 -1      1999 6.72045E+01 3.09687E+00 0.00000E+00
 -1      2000 6.70350E+01 4.00625E+00 0.00000E+00
 -1      2001 7.17045E+01 3.09687E+00 0.00000E+00
 -1      2002 7.02045E+01 3.09687E+00 0.00000E+00
 -1      2003 7.00350E+01 4.00625E+00 0.00000E+00
 -1      2004 7.47045E+01 3.09687E+00 0.00000E+00
 -1      2005 7.32045E+01 3.09687E+00 0.00000E+00
 -1      2006 7.30350E+01 4.00625E+00 0.00000E+00
 -1      2007 7.77045E+01 3.09687E+00 0.00000E+00
 -1      2008 7.62045E+01 3.09687E+00 0.00000E+00
 -1      2009 7.60350E+01 4.00625E+00 0.00000E+00
 -1      2010 8.07045E+01 3.09687E+00 0.00000E+00
 -1      2011 7.92045E+01 3.09687E+00 0.00000E+00
 -1      2012 7.90350E+01 4.00625E+00 0.00000E+00
 -1      2013 8.37045E+01 3.09687E+00 0.00000E+00
 -1      2014 8.22045E+01 3.09687E+00 0.00000E+00
 -1      2015 8.20350E+01 4.00625E+00 0.00000E+00
 -1      2016 8.67045E+01 3.09687E+00 0.00000E+00
 -1      2017 8.52045E+01 3.09687E+00 0.00000E+00
 -1      2018 8.50350E+01 4.00625E+00 0.00000E+00
 -1      2019 8.97045E+01 3.09687E+00 0.00000E+00
 -1      2020 8.82045E+01 3.09687E+00 0.00000E+00
 -1      2021 8.80350E+01 4.00625E+00 0.00000E+00
 -1      2022 9.27045E+01 3.09687E+00 0.00000E+00
 -1      2023 9.12045E+01 3.09687E+00 0.00000E+00
 -1      2024 9.10350E+01 4.00625E+00 0.00000E+00
 -1      2025 9.57045E+01 3.09687E+00 0.00000E+00
 -1      2026 9.42045E+01 3.09687E+00 0.00000E+00
 -1      2027 9.40350E+01 4.00625E+00 0.00000E+00
 -1      2028 9.87045E+01 3.09687E+00 0.00000E+00
 -1      2029 9.72045E+01 3.09687E+00 0.00000E+00
 -1      2030 9.70350E+01 4.00625E+00 0.00000E+00
 -1      2031 1.01704E+02 3.09687E+00 0.00000E+00
 -1      2032 1.00204E+02 3.09687E+00 0.00000E+00
 -1      2033 1.00035E+02 4.00625E+00 0.00000E+00
 -1      2034 1.04704E+02 3.09687E+00 0.00000E+00
 -1      2035 1.03204E+02 3.09687E+00 0.00000E+00
 -1      2036 1.03035E+02 4.00625E+00 0.00000E+00
 -1      2037 1.07704E+02 3.09687E+00 0.00000E+00
 -1      2038 1.06204E+02 3.09687E+00 0.00000E+00
 -1      2039 1.06035E+02 4.00625E+00 0.00000E+00
 -1      2040 1.10704E+02 3.09687E+00 0.00000E+00
 -1      2041 1.09204E+02 3.09687E+00 0.00000E+00
 -1      2042 1.09035E+02 4.00625E+00 0.00000E+00
 -1      2043 1.13704E+02 3.09687E+00 0.00000E+00
 -1      2044 1.12204E+02 3.09687E+00 0.00000E+00
 -1      2045 1.12035E+02 4.00625E+00 0.00000E+00
 -1      2046 1.16704E+02 3.09687E+00 0.00000E+00
 -1      2047 1.15204E+02 3.09687E+00 0.00000E+00
 -1      2048 1.15035E+02 4.00625E+00 0.00000E+00
 -1      2049 1.19704E+02 3.09687E+00 0.00000E+00
 -1      2050 1.18204E+02 3.09687E+00 0.00000E+00
 -1      2051 1.18035E+02 4.00625E+00 0.00000E+00
 -1      2052 1.22704E+02 3.09687E+00 0.00000E+00
 -1      2053 1.21204E+02 3.09687E+00 0.00000E+00
 -1      2054 1.21035E+02 4.00625E+00 0.00000E+00
 -1      2055 1.25704E+02 3.09687E+00 0.00000E+00
 -1      2056 1.24204E+02 3.09687E+00 0.00000E+00
 -1      2057 1.24035E+02 4.00625E+00 0.00000E+00
 -1      2058 1.28704E+02 3.09687E+00 0.00000E+00
 -1      2059 1.27204E+02 3.09687E+00 0.00000E+00
 -1      2060 1.27035E+02 4.00625E+00 0.00000E+00
 -1      2061 1.31704E+02 3.09687E+00 0.00000E+00
 -1      2062 1.30204E+02 3.09687E+00 0.00000E+00
 -1      2063 1.30035E+02 4.00625E+00 0.00000E+00
 -1      2064 1.34704E+02 3.09687E+00 0.00000E+00
 -1      2065 1.33204E+02 3.09687E+00 0.00000E+00
 -1      2066 1.33035E+02 4.00625E+00 0.00000E+00
 -1      2067 1.37704E+02 3.09687E+00 0.00000E+00
 -1      2068 1.36204E+02 3.09687E+00 0.00000E+00
 -1      2069 1.36035E+02 4.00625E+00 0.00000E+00
 -1      2070 1.40704E+02 3.09687E+00 0.00000E+00
 -1      2071 1.39204E+02 3.09687E+00 0.00000E+00
 -1      2072 1.39035E+02 4.00625E+00 0.00000E+00
 -1      2073 1.43704E+02 3.09687E+00 0.00000E+00
 -1      2074 1.42204E+02 3.09687E+00 0.00000E+00
 -1      2075 1.42035E+02 4.00625E+00 0.00000E+00
 -1      2076 1.46171E+02 3.20156E+00 0.00000E+00
 -1      2077 1.44671E+02 3.20156E+00 0.00000E+00
 -1      2078 1.44502E+02 4.11094E+00 0.00000E+00
 -1      2079 1.46435E+02 4.32031E+00 0.00000E+00
 -1      2080 1.46103E+02 1.25375E+01 0.00000E+00
 -1      2081 1.46103E+02 1.10625E+01 0.00000E+00
 -1      2082 1.46103E+02 9.58750E+00 0.00000E+00
 -1      2083 1.46103E+02 8.11250E+00 0.00000E+00
 -1      2084 1.44804E+02 1.03250E+01 0.00000E+00
 -1      2085 1.46269E+02 6.95391E+00 0.00000E+00
 -1      2086 1.46269E+02 5.47891E+00 0.00000E+00
 -1      2087 1.45302E+02 5.37422E+00 0.00000E+00
 -1      2088 1.44970E+02 7.69141E+00 0.00000E+00
 -1      2089 1.46103E+02 1.54375E+01 0.00000E+00
 -1      2090 1.46103E+02 1.39875E+01 0.00000E+00
 -1      2091 1.44804E+02 1.32500E+01 0.00000E+00
 -1      2092 1.46103E+02 1.83875E+01 0.00000E+00
 -1      2093 1.46103E+02 1.69125E+01 0.00000E+00
 -1      2094 1.44804E+02 1.61750E+01 0.00000E+00
 -1      2095 1.46103E+02 2.13375E+01 0.00000E+00
 -1      2096 1.46103E+02 1.98625E+01 0.00000E+00
 -1      2097 1.44804E+02 1.91250E+01 0.00000E+00
 -1      2098 1.46103E+02 2.42875E+01 0.00000E+00
 -1      2099 1.46103E+02 2.28125E+01 0.00000E+00
 -1      2100 1.44804E+02 2.20750E+01 0.00000E+00
 -1      2101 1.46103E+02 2.72375E+01 0.00000E+00
 -1      2102 1.46103E+02 2.57625E+01 0.00000E+00
 -1      2103 1.44804E+02 2.50250E+01 0.00000E+00
 -1      2104 1.46103E+02 3.01875E+01 0.00000E+00
 -1      2105 1.46103E+02 2.87125E+01 0.00000E+00
 -1      2106 1.44804E+02 2.79750E+01 0.00000E+00
 -1      2107 1.46103E+02 3.30875E+01 0.00000E+00
 -1      2108 1.46103E+02 3.16375E+01 0.00000E+00
 -1      2109 1.44804E+02 3.09000E+01 0.00000E+00
 -1      2110 1.46103E+02 3.60375E+01 0.00000E+00
 -1      2111 1.46103E+02 3.45625E+01 0.00000E+00
 -1      2112 1.44804E+02 3.38250E+01 0.00000E+00
 -1      2113 1.46103E+02 3.89875E+01 0.00000E+00
 -1      2114 1.46103E+02 3.75125E+01 0.00000E+00
 -1      2115 1.44804E+02 3.67750E+01 0.00000E+00
 -1      2116 1.46103E+02 4.19375E+01 0.00000E+00
 -1      2117 1.46103E+02 4.04625E+01 0.00000E+00
 -1      2118 1.44804E+02 3.97250E+01 0.00000E+00
 -1      2119 1.00266E+02 2.38403E+01 0.00000E+00
 -1      2120 1.00720E+02 2.46031E+01 0.00000E+00
 -1      2121 1.01502E+02 2.76538E+01 0.00000E+00
 -1      2122 1.01469E+02 2.85472E+01 0.00000E+00
 -1      2123 1.01281E+02 2.56163E+01 0.00000E+00
 -1      2124 1.01483E+02 2.65372E+01 0.00000E+00
 -1      2125 9.93415E+01 2.22802E+01 0.00000E+00
 -1      2126 9.98627E+01 2.29498E+01 0.00000E+00
 -1      2127 9.81535E+01 2.08534E+01 0.00000E+00
 -1      2128 9.87475E+01 2.15668E+01 0.00000E+00
 -1      2129 9.96848E+01 2.13748E+01 0.00000E+00
 -1      2130 3.89700E+00 3.74688E+01 0.00000E+00
 -1      2131 3.89700E+00 3.89437E+01 0.00000E+00
 -1      2132 5.19600E+00 3.96813E+01 0.00000E+00
 -1      2133 5.19600E+00 3.67438E+01 0.00000E+00
 -1      2134 9.44088E+01 1.91586E+01 0.00000E+00
 -1      2135 9.52886E+01 1.95133E+01 0.00000E+00
 -1      2136 9.22112E+01 1.92191E+01 0.00000E+00
 -1      2137 9.31226E+01 1.90839E+01 0.00000E+00
 -1      2138 9.04677E+01 1.93763E+01 0.00000E+00
 -1      2139 9.13395E+01 1.92977E+01 0.00000E+00
 -1      2140 9.16940E+01 1.85476E+01 0.00000E+00
 -1      2141 8.86149E+01 1.98733E+01 0.00000E+00
 -1      2142 8.94761E+01 1.96031E+01 0.00000E+00
 -1      2143 8.70111E+01 2.11488E+01 0.00000E+00
 -1      2144 8.76224E+01 2.05250E+01 0.00000E+00
 -1      2145 8.57158E+01 2.22870E+01 0.00000E+00
 -1      2146 8.63635E+01 2.17179E+01 0.00000E+00
 -1      2147 8.62062E+01 2.09524E+01 0.00000E+00
 -1      2148 8.45449E+01 2.38322E+01 0.00000E+00
 -1      2149 8.50131E+01 2.30595E+01 0.00000E+00
 -1      2150 8.38638E+01 2.56632E+01 0.00000E+00
 -1      2151 8.41107E+01 2.48164E+01 0.00000E+00
 -1      2152 8.37058E+01 2.75228E+01 0.00000E+00
 -1      2153 8.37662E+01 2.66714E+01 0.00000E+00
 -1      2154 8.36347E+01 2.93296E+01 0.00000E+00
 -1      2155 8.36329E+01 2.84404E+01 0.00000E+00
 -1      2156 8.41427E+01 3.13280E+01 0.00000E+00
 -1      2157 8.37894E+01 3.04920E+01 0.00000E+00
 -1      2158 8.51140E+01 3.28857E+01 0.00000E+00
 -1      2159 8.46849E+01 3.21407E+01 0.00000E+00
 -1      2160 8.61175E+01 3.44809E+01 0.00000E+00
 -1      2161 8.56030E+01 3.36846E+01 0.00000E+00
 -1      2162 8.78103E+01 3.58635E+01 0.00000E+00
 -1      2163 8.69780E+01 3.54303E+01 0.00000E+00
 -1      2164 8.94184E+01 3.68535E+01 0.00000E+00
 -1      2165 8.86143E+01 3.63585E+01 0.00000E+00
 -1      2166 8.78410E+01 3.68283E+01 0.00000E+00
 -1      2167 9.16940E+01 3.70806E+01 0.00000E+00
 -1      2168 9.07193E+01 3.71312E+01 0.00000E+00
 -1      2169 9.34790E+01 3.70458E+01 0.00000E+00
 -1      2170 9.25865E+01 3.70632E+01 0.00000E+00
 -1      2171 9.21392E+01 3.78612E+01 0.00000E+00
 -1      2172 9.54306E+01 3.66469E+01 0.00000E+00
 -1      2173 9.46098E+01 3.69228E+01 0.00000E+00
 -1      2174 9.69898E+01 3.59024E+01 0.00000E+00
 -1      2175 9.62102E+01 3.62747E+01 0.00000E+00
 -1      2176 9.60730E+01 3.72255E+01 0.00000E+00
 -1      2177 9.86549E+01 3.46041E+01 0.00000E+00
 -1      2178 9.79255E+01 3.51935E+01 0.00000E+00
 -1      2179 1.00098E+02 3.31419E+01 0.00000E+00
 -1      2180 9.95384E+01 3.38955E+01 0.00000E+00
 -1      2181 1.00894E+02 3.13141E+01 0.00000E+00
 -1      2182 1.00576E+02 3.21325E+01 0.00000E+00
 -1      2183 1.01308E+02 2.95292E+01 0.00000E+00
 -1      2184 1.01134E+02 3.03607E+01 0.00000E+00
 -1      2185 9.61771E+01 1.98319E+01 0.00000E+00
 -1      2186 9.70656E+01 2.01504E+01 0.00000E+00
 -1      2187 9.60265E+01 1.89369E+01 0.00000E+00
 -1      2188 6.42300E+00 4.57510E+01 0.00000E+00
 -1      2189 9.80029E+01 1.99585E+01 0.00000E+00
 -1      2190 7.17300E+00 4.44520E+01 0.00000E+00
 -1      2191 1.01648E+02 2.48825E+01 0.00000E+00
 -1      2192 1.02228E+02 2.70123E+01 0.00000E+00
 -1      2193 1.45665E+02 4.31193E+01 0.00000E+00
 -1      2194 1.00683E+02 2.29787E+01 0.00000E+00
 -1      2195 1.02087E+02 2.91109E+01 0.00000E+00
 -1      2196 1.01686E+02 3.10462E+01 0.00000E+00
 -1      2197 1.00968E+02 3.30089E+01 0.00000E+00
 -1      2198 9.77882E+01 3.61443E+01 0.00000E+00
 -1      2199 9.41625E+01 3.77208E+01 0.00000E+00
 -1      2200 8.99459E+01 3.76009E+01 0.00000E+00
 -1      2201 8.91725E+01 3.80707E+01 0.00000E+00
 -1      2202 9.04734E+01 3.83484E+01 0.00000E+00
 -1      2203 8.61764E+01 3.53839E+01 0.00000E+00
 -1      2204 8.53748E+01 3.53375E+01 0.00000E+00
 -1      2205 8.62353E+01 3.62869E+01 0.00000E+00
 -1      2206 8.48269E+01 3.36356E+01 0.00000E+00
 -1      2207 8.37956E+01 3.20239E+01 0.00000E+00
 -1      2208 8.30986E+01 3.00487E+01 0.00000E+00
 -1      2209 8.30167E+01 2.79688E+01 0.00000E+00
 -1      2210 8.31871E+01 2.60430E+01 0.00000E+00
 -1      2211 8.48558E+01 2.22941E+01 0.00000E+00
 -1      2212 8.98306E+01 1.88530E+01 0.00000E+00
 -1      2213 9.38519E+01 1.85436E+01 0.00000E+00
 -1      2214 9.45811E+01 1.80033E+01 0.00000E+00
 -1      2215 9.32949E+01 1.79287E+01 0.00000E+00
 -1      2216 8.78464E+01 1.97316E+01 0.00000E+00
 -1      2217 8.80704E+01 1.89382E+01 0.00000E+00
 -1      2218 8.70779E+01 1.95899E+01 0.00000E+00
 -1      2219 8.37188E+01 2.40508E+01 0.00000E+00
 -1      2220 9.96074E+01 3.47269E+01 0.00000E+00
 -1      2221 1.07850E+01 5.30525E+00 0.00000E+00
 -1      2222 9.28500E+00 5.30525E+00 0.00000E+00
 -1      2223 6.49500E+00 3.01125E+01 0.00000E+00
 -1      2224 6.49500E+00 3.15875E+01 0.00000E+00
 -1      2225 6.49500E+00 3.30625E+01 0.00000E+00
 -1      2226 6.49500E+00 3.45375E+01 0.00000E+00
 -1      2227 7.79400E+00 3.23250E+01 0.00000E+00
 -1      2228 6.49500E+00 2.42125E+01 0.00000E+00
 -1      2229 6.49500E+00 2.56875E+01 0.00000E+00
 -1      2230 6.49500E+00 2.12625E+01 0.00000E+00
 -1      2231 6.49500E+00 2.27375E+01 0.00000E+00
 -1      2232 7.79400E+00 2.34750E+01 0.00000E+00
 -1      2233 6.49500E+00 1.83625E+01 0.00000E+00
 -1      2234 6.49500E+00 1.98125E+01 0.00000E+00
 -1      2235 7.79400E+00 2.05500E+01 0.00000E+00
 -1      2236 6.49500E+00 1.54125E+01 0.00000E+00
 -1      2237 6.49500E+00 1.68875E+01 0.00000E+00
 -1      2238 7.79400E+00 1.76250E+01 0.00000E+00
 -1      2239 6.49500E+00 1.24625E+01 0.00000E+00
 -1      2240 6.49500E+00 1.39375E+01 0.00000E+00
 -1      2241 7.79400E+00 1.46750E+01 0.00000E+00
 -1      2242 6.49500E+00 9.51250E+00 0.00000E+00
 -1      2243 6.49500E+00 1.09875E+01 0.00000E+00
 -1      2244 7.79400E+00 1.17250E+01 0.00000E+00
 -1      2245 1.37850E+01 5.30525E+00 0.00000E+00
 -1      2246 1.22850E+01 5.30525E+00 0.00000E+00
 -1      2247 1.15350E+01 6.60425E+00 0.00000E+00
 -1      2248 9.90000E+00 4.35050E+01 0.00000E+00
 -1      2249 1.14000E+01 4.35050E+01 0.00000E+00
 -1      2250 9.79699E+01 1.88163E+01 0.00000E+00
 -1      2251 9.90577E+01 1.95193E+01 0.00000E+00
 -1      2252 1.02007E+02 2.40212E+01 0.00000E+00
 -1      2253 1.02568E+02 2.50344E+01 0.00000E+00
 -1      2254 1.29000E+01 4.35050E+01 0.00000E+00
 -1      2255 1.44000E+01 4.35050E+01 0.00000E+00
 -1      2256 1.21500E+01 4.22060E+01 0.00000E+00
 -1      2257 1.59000E+01 4.35050E+01 0.00000E+00
 -1      2258 1.74000E+01 4.35050E+01 0.00000E+00
 -1      2259 1.51500E+01 4.22060E+01 0.00000E+00
 -1      2260 1.89000E+01 4.35050E+01 0.00000E+00
 -1      2261 2.04000E+01 4.35050E+01 0.00000E+00
 -1      2262 1.81500E+01 4.22060E+01 0.00000E+00
 -1      2263 2.19000E+01 4.35050E+01 0.00000E+00
 -1      2264 2.34000E+01 4.35050E+01 0.00000E+00
 -1      2265 2.11500E+01 4.22060E+01 0.00000E+00
 -1      2266 2.49000E+01 4.35050E+01 0.00000E+00
 -1      2267 2.64000E+01 4.35050E+01 0.00000E+00
 -1      2268 2.41500E+01 4.22060E+01 0.00000E+00
 -1      2269 2.79000E+01 4.35050E+01 0.00000E+00
 -1      2270 2.94000E+01 4.35050E+01 0.00000E+00
 -1      2271 2.71500E+01 4.22060E+01 0.00000E+00
 -1      2272 3.09000E+01 4.35050E+01 0.00000E+00
 -1      2273 3.24000E+01 4.35050E+01 0.00000E+00
 -1      2274 3.01500E+01 4.22060E+01 0.00000E+00
 -1      2275 3.39000E+01 4.35050E+01 0.00000E+00
 -1      2276 3.54000E+01 4.35050E+01 0.00000E+00
 -1      2277 3.31500E+01 4.22060E+01 0.00000E+00
 -1      2278 3.69000E+01 4.35050E+01 0.00000E+00
 -1      2279 3.84000E+01 4.35050E+01 0.00000E+00
 -1      2280 3.61500E+01 4.22060E+01 0.00000E+00
 -1      2281 3.99000E+01 4.35050E+01 0.00000E+00
 -1      2282 4.14000E+01 4.35050E+01 0.00000E+00
 -1      2283 3.91500E+01 4.22060E+01 0.00000E+00
 -1      2284 4.29000E+01 4.35050E+01 0.00000E+00
 -1      2285 4.44000E+01 4.35050E+01 0.00000E+00
 -1      2286 4.21500E+01 4.22060E+01 0.00000E+00
 -1      2287 4.59000E+01 4.35050E+01 0.00000E+00
 -1      2288 4.74000E+01 4.35050E+01 0.00000E+00
 -1      2289 4.51500E+01 4.22060E+01 0.00000E+00
 -1      2290 4.89000E+01 4.35050E+01 0.00000E+00
 -1      2291 5.04000E+01 4.35050E+01 0.00000E+00
 -1      2292 4.81500E+01 4.22060E+01 0.00000E+00
 -1      2293 5.19000E+01 4.35050E+01 0.00000E+00
 -1      2294 5.34000E+01 4.35050E+01 0.00000E+00
 -1      2295 5.11500E+01 4.22060E+01 0.00000E+00
 -1      2296 5.49000E+01 4.35050E+01 0.00000E+00
 -1      2297 5.64000E+01 4.35050E+01 0.00000E+00
 -1      2298 5.41500E+01 4.22060E+01 0.00000E+00
 -1      2299 5.79000E+01 4.35050E+01 0.00000E+00
 -1      2300 5.94000E+01 4.35050E+01 0.00000E+00
 -1      2301 5.71500E+01 4.22060E+01 0.00000E+00
 -1      2302 6.09000E+01 4.35050E+01 0.00000E+00
 -1      2303 6.24000E+01 4.35050E+01 0.00000E+00
 -1      2304 6.01500E+01 4.22060E+01 0.00000E+00
 -1      2305 6.39000E+01 4.35050E+01 0.00000E+00
 -1      2306 6.54000E+01 4.35050E+01 0.00000E+00
 -1      2307 6.31500E+01 4.22060E+01 0.00000E+00
 -1      2308 6.69000E+01 4.35050E+01 0.00000E+00
 -1      2309 6.84000E+01 4.35050E+01 0.00000E+00
 -1      2310 6.61500E+01 4.22060E+01 0.00000E+00
 -1      2311 6.99000E+01 4.35050E+01 0.00000E+00
 -1      2312 7.14000E+01 4.35050E+01 0.00000E+00
 -1      2313 6.91500E+01 4.22060E+01 0.00000E+00
 -1      2314 7.29000E+01 4.35050E+01 0.00000E+00
 -1      2315 7.44000E+01 4.35050E+01 0.00000E+00
 -1      2316 7.21500E+01 4.22060E+01 0.00000E+00
 -1      2317 7.59000E+01 4.35050E+01 0.00000E+00
 -1      2318 7.74000E+01 4.35050E+01 0.00000E+00
 -1      2319 7.51500E+01 4.22060E+01 0.00000E+00
 -1      2320 7.89000E+01 4.35050E+01 0.00000E+00
 -1      2321 8.04000E+01 4.35050E+01 0.00000E+00
 -1      2322 7.81500E+01 4.22060E+01 0.00000E+00
 -1      2323 8.19000E+01 4.35050E+01 0.00000E+00
 -1      2324 8.34000E+01 4.35050E+01 0.00000E+00
 -1      2325 8.11500E+01 4.22060E+01 0.00000E+00
 -1      2326 8.49000E+01 4.35050E+01 0.00000E+00
 -1      2327 8.64000E+01 4.35050E+01 0.00000E+00
 -1      2328 8.41500E+01 4.22060E+01 0.00000E+00
 -1      2329 8.79000E+01 4.35050E+01 0.00000E+00
 -1      2330 8.94000E+01 4.35050E+01 0.00000E+00
 -1      2331 8.71500E+01 4.22060E+01 0.00000E+00
 -1      2332 9.09000E+01 4.35050E+01 0.00000E+00
 -1      2333 9.24000E+01 4.35050E+01 0.00000E+00
 -1      2334 9.01500E+01 4.22060E+01 0.00000E+00
 -1      2335 9.39000E+01 4.35050E+01 0.00000E+00
 -1      2336 9.54000E+01 4.35050E+01 0.00000E+00
 -1      2337 9.31500E+01 4.22060E+01 0.00000E+00
 -1      2338 9.69000E+01 4.35050E+01 0.00000E+00
 -1      2339 9.84000E+01 4.35050E+01 0.00000E+00
 -1      2340 9.61500E+01 4.22060E+01 0.00000E+00
 -1      2341 9.99000E+01 4.35050E+01 0.00000E+00
 -1      2342 1.01400E+02 4.35050E+01 0.00000E+00
 -1      2343 9.91500E+01 4.22060E+01 0.00000E+00
 -1      2344 1.02900E+02 4.35050E+01 0.00000E+00
 -1      2345 1.04400E+02 4.35050E+01 0.00000E+00
 -1      2346 1.02150E+02 4.22060E+01 0.00000E+00
 -1      2347 1.05900E+02 4.35050E+01 0.00000E+00
 -1      2348 1.07400E+02 4.35050E+01 0.00000E+00
 -1      2349 1.05150E+02 4.22060E+01 0.00000E+00
 -1      2350 1.08900E+02 4.35050E+01 0.00000E+00
 -1      2351 1.10400E+02 4.35050E+01 0.00000E+00
 -1      2352 1.08150E+02 4.22060E+01 0.00000E+00
 -1      2353 1.11900E+02 4.35050E+01 0.00000E+00
 -1      2354 1.13400E+02 4.35050E+01 0.00000E+00
 -1      2355 1.11150E+02 4.22060E+01 0.00000E+00
 -1      2356 1.14900E+02 4.35050E+01 0.00000E+00
 -1      2357 1.16400E+02 4.35050E+01 0.00000E+00
 -1      2358 1.14150E+02 4.22060E+01 0.00000E+00
 -1      2359 1.17900E+02 4.35050E+01 0.00000E+00
 -1      2360 1.19400E+02 4.35050E+01 0.00000E+00
 -1      2361 1.17150E+02 4.22060E+01 0.00000E+00
 -1      2362 1.20900E+02 4.35050E+01 0.00000E+00
 -1      2363 1.22400E+02 4.35050E+01 0.00000E+00
 -1      2364 1.20150E+02 4.22060E+01 0.00000E+00
 -1      2365 1.23900E+02 4.35050E+01 0.00000E+00
 -1      2366 1.25400E+02 4.35050E+01 0.00000E+00
 -1      2367 1.23150E+02 4.22060E+01 0.00000E+00
 -1      2368 1.26900E+02 4.35050E+01 0.00000E+00
 -1      2369 1.28400E+02 4.35050E+01 0.00000E+00
 -1      2370 1.26150E+02 4.22060E+01 0.00000E+00
 -1      2371 1.29900E+02 4.35050E+01 0.00000E+00
 -1      2372 1.31400E+02 4.35050E+01 0.00000E+00
 -1      2373 1.29150E+02 4.22060E+01 0.00000E+00
 -1      2374 1.32900E+02 4.35050E+01 0.00000E+00
 -1      2375 1.34400E+02 4.35050E+01 0.00000E+00
 -1      2376 1.32150E+02 4.22060E+01 0.00000E+00
 -1      2377 1.35900E+02 4.35050E+01 0.00000E+00
 -1      2378 1.37400E+02 4.35050E+01 0.00000E+00
 -1      2379 1.35150E+02 4.22060E+01 0.00000E+00
 -1      2380 1.38900E+02 4.35050E+01 0.00000E+00
 -1      2381 1.40400E+02 4.35050E+01 0.00000E+00
 -1      2382 1.38150E+02 4.22060E+01 0.00000E+00
 -1      2383 1.97850E+01 5.30525E+00 0.00000E+00
 -1      2384 1.82850E+01 5.30525E+00 0.00000E+00
 -1      2385 2.27850E+01 5.30525E+00 0.00000E+00
 -1      2386 2.12850E+01 5.30525E+00 0.00000E+00
 -1      2387 2.05350E+01 6.60425E+00 0.00000E+00
 -1      2388 2.57850E+01 5.30525E+00 0.00000E+00
 -1      2389 2.42850E+01 5.30525E+00 0.00000E+00
 -1      2390 2.35350E+01 6.60425E+00 0.00000E+00
 -1      2391 2.87850E+01 5.30525E+00 0.00000E+00
 -1      2392 2.72850E+01 5.30525E+00 0.00000E+00
 -1      2393 2.65350E+01 6.60425E+00 0.00000E+00
 -1      2394 3.17850E+01 5.30525E+00 0.00000E+00
 -1      2395 3.02850E+01 5.30525E+00 0.00000E+00
 -1      2396 2.95350E+01 6.60425E+00 0.00000E+00
 -1      2397 3.47850E+01 5.30525E+00 0.00000E+00
 -1      2398 3.32850E+01 5.30525E+00 0.00000E+00
 -1      2399 3.25350E+01 6.60425E+00 0.00000E+00
 -1      2400 3.77850E+01 5.30525E+00 0.00000E+00
 -1      2401 3.62850E+01 5.30525E+00 0.00000E+00
 -1      2402 3.55350E+01 6.60425E+00 0.00000E+00
 -1      2403 4.07850E+01 5.30525E+00 0.00000E+00
 -1      2404 3.92850E+01 5.30525E+00 0.00000E+00
 -1      2405 3.85350E+01 6.60425E+00 0.00000E+00
 -1      2406 4.37850E+01 5.30525E+00 0.00000E+00
 -1      2407 4.22850E+01 5.30525E+00 0.00000E+00
 -1      2408 4.15350E+01 6.60425E+00 0.00000E+00
 -1      2409 4.67850E+01 5.30525E+00 0.00000E+00
 -1      2410 4.52850E+01 5.30525E+00 0.00000E+00
 -1      2411 4.45350E+01 6.60425E+00 0.00000E+00
 -1      2412 4.97850E+01 5.30525E+00 0.00000E+00
 -1      2413 4.82850E+01 5.30525E+00 0.00000E+00
 -1      2414 4.75350E+01 6.60425E+00 0.00000E+00
 -1      2415 5.27850E+01 5.30525E+00 0.00000E+00
 -1      2416 5.12850E+01 5.30525E+00 0.00000E+00
 -1      2417 5.05350E+01 6.60425E+00 0.00000E+00
 -1      2418 5.57850E+01 5.30525E+00 0.00000E+00
 -1      2419 5.42850E+01 5.30525E+00 0.00000E+00
 -1      2420 5.35350E+01 6.60425E+00 0.00000E+00
 -1      2421 5.87850E+01 5.30525E+00 0.00000E+00
 -1      2422 5.72850E+01 5.30525E+00 0.00000E+00
 -1      2423 5.65350E+01 6.60425E+00 0.00000E+00
 -1      2424 6.17850E+01 5.30525E+00 0.00000E+00
 -1      2425 6.02850E+01 5.30525E+00 0.00000E+00
 -1      2426 5.95350E+01 6.60425E+00 0.00000E+00
 -1      2427 6.47850E+01 5.30525E+00 0.00000E+00
 -1      2428 6.32850E+01 5.30525E+00 0.00000E+00
 -1      2429 6.25350E+01 6.60425E+00 0.00000E+00
 -1      2430 6.77850E+01 5.30525E+00 0.00000E+00
 -1      2431 6.62850E+01 5.30525E+00 0.00000E+00
 -1      2432 6.55350E+01 6.60425E+00 0.00000E+00
 -1      2433 7.07850E+01 5.30525E+00 0.00000E+00
 -1      2434 6.92850E+01 5.30525E+00 0.00000E+00
 -1      2435 6.85350E+01 6.60425E+00 0.00000E+00
 -1      2436 7.37850E+01 5.30525E+00 0.00000E+00
 -1      2437 7.22850E+01 5.30525E+00 0.00000E+00
 -1      2438 7.15350E+01 6.60425E+00 0.00000E+00
 -1      2439 7.67850E+01 5.30525E+00 0.00000E+00
 -1      2440 7.52850E+01 5.30525E+00 0.00000E+00
 -1      2441 7.45350E+01 6.60425E+00 0.00000E+00
 -1      2442 7.97850E+01 5.30525E+00 0.00000E+00
 -1      2443 7.82850E+01 5.30525E+00 0.00000E+00
 -1      2444 7.75350E+01 6.60425E+00 0.00000E+00
 -1      2445 8.27850E+01 5.30525E+00 0.00000E+00
 -1      2446 8.12850E+01 5.30525E+00 0.00000E+00
 -1      2447 8.05350E+01 6.60425E+00 0.00000E+00
 -1      2448 8.57850E+01 5.30525E+00 0.00000E+00
 -1      2449 8.42850E+01 5.30525E+00 0.00000E+00
 -1      2450 8.35350E+01 6.60425E+00 0.00000E+00
 -1      2451 8.87850E+01 5.30525E+00 0.00000E+00
 -1      2452 8.72850E+01 5.30525E+00 0.00000E+00
 -1      2453 8.65350E+01 6.60425E+00 0.00000E+00
 -1      2454 9.17850E+01 5.30525E+00 0.00000E+00
 -1      2455 9.02850E+01 5.30525E+00 0.00000E+00
 -1      2456 8.95350E+01 6.60425E+00 0.00000E+00
 -1      2457 9.47850E+01 5.30525E+00 0.00000E+00
 -1      2458 9.32850E+01 5.30525E+00 0.00000E+00
 -1      2459 9.25350E+01 6.60425E+00 0.00000E+00
 -1      2460 9.77850E+01 5.30525E+00 0.00000E+00
 -1      2461 9.62850E+01 5.30525E+00 0.00000E+00
 -1      2462 9.55350E+01 6.60425E+00 0.00000E+00
 -1      2463 1.00785E+02 5.30525E+00 0.00000E+00
 -1      2464 9.92850E+01 5.30525E+00 0.00000E+00
 -1      2465 9.85350E+01 6.60425E+00 0.00000E+00
 -1      2466 1.03785E+02 5.30525E+00 0.00000E+00
 -1      2467 1.02285E+02 5.30525E+00 0.00000E+00
 -1      2468 1.01535E+02 6.60425E+00 0.00000E+00
 -1      2469 1.06785E+02 5.30525E+00 0.00000E+00
 -1      2470 1.05285E+02 5.30525E+00 0.00000E+00
 -1      2471 1.04535E+02 6.60425E+00 0.00000E+00
 -1      2472 1.09785E+02 5.30525E+00 0.00000E+00
 -1      2473 1.08285E+02 5.30525E+00 0.00000E+00
 -1      2474 1.07535E+02 6.60425E+00 0.00000E+00
 -1      2475 1.12785E+02 5.30525E+00 0.00000E+00
 -1      2476 1.11285E+02 5.30525E+00 0.00000E+00
 -1      2477 1.10535E+02 6.60425E+00 0.00000E+00
 -1      2478 1.15785E+02 5.30525E+00 0.00000E+00
 -1      2479 1.14285E+02 5.30525E+00 0.00000E+00
 -1      2480 1.13535E+02 6.60425E+00 0.00000E+00
 -1      2481 1.18785E+02 5.30525E+00 0.00000E+00
 -1      2482 1.17285E+02 5.30525E+00 0.00000E+00
 -1      2483 1.16535E+02 6.60425E+00 0.00000E+00
 -1      2484 1.21785E+02 5.30525E+00 0.00000E+00
 -1      2485 1.20285E+02 5.30525E+00 0.00000E+00
 -1      2486 1.19535E+02 6.60425E+00 0.00000E+00
 -1      2487 1.24785E+02 5.30525E+00 0.00000E+00
 -1      2488 1.23285E+02 5.30525E+00 0.00000E+00
 -1      2489 1.22535E+02 6.60425E+00 0.00000E+00
 -1      2490 1.27785E+02 5.30525E+00 0.00000E+00
 -1      2491 1.26285E+02 5.30525E+00 0.00000E+00
 -1      2492 1.25535E+02 6.60425E+00 0.00000E+00
 -1      2493 1.30785E+02 5.30525E+00 0.00000E+00
 -1      2494 1.29285E+02 5.30525E+00 0.00000E+00
 -1      2495 1.28535E+02 6.60425E+00 0.00000E+00
 -1      2496 1.33785E+02 5.30525E+00 0.00000E+00
 -1      2497 1.32285E+02 5.30525E+00 0.00000E+00
 -1      2498 1.31535E+02 6.60425E+00 0.00000E+00
 -1      2499 1.36785E+02 5.30525E+00 0.00000E+00
 -1      2500 1.35285E+02 5.30525E+00 0.00000E+00
 -1      2501 1.34535E+02 6.60425E+00 0.00000E+00
 -1      2502 1.39785E+02 5.30525E+00 0.00000E+00
 -1      2503 1.38285E+02 5.30525E+00 0.00000E+00
 -1      2504 1.37535E+02 6.60425E+00 0.00000E+00
 -1      2505 1.42785E+02 5.30525E+00 0.00000E+00
 -1      2506 1.41285E+02 5.30525E+00 0.00000E+00
 -1      2507 1.40535E+02 6.60425E+00 0.00000E+00
 -1      2508 1.44336E+02 5.26953E+00 0.00000E+00
 -1      2509 1.43505E+02 1.69125E+01 0.00000E+00
 -1      2510 1.43505E+02 1.54375E+01 0.00000E+00
 -1      2511 1.43505E+02 1.98625E+01 0.00000E+00
 -1      2512 1.43505E+02 1.83875E+01 0.00000E+00
 -1      2513 1.42206E+02 1.76500E+01 0.00000E+00
 -1      2514 1.43505E+02 1.10625E+01 0.00000E+00
 -1      2515 1.43505E+02 9.58750E+00 0.00000E+00
 -1      2516 1.43505E+02 1.39750E+01 0.00000E+00
 -1      2517 1.43505E+02 1.25250E+01 0.00000E+00
 -1      2518 1.42206E+02 1.17875E+01 0.00000E+00
 -1      2519 1.42206E+02 1.47125E+01 0.00000E+00
 -1      2520 1.43505E+02 2.28125E+01 0.00000E+00
 -1      2521 1.43505E+02 2.13375E+01 0.00000E+00
 -1      2522 1.42206E+02 2.06000E+01 0.00000E+00
 -1      2523 1.43505E+02 2.57625E+01 0.00000E+00
 -1      2524 1.43505E+02 2.42875E+01 0.00000E+00
 -1      2525 1.42206E+02 2.35500E+01 0.00000E+00
 -1      2526 1.43505E+02 2.87125E+01 0.00000E+00
 -1      2527 1.43505E+02 2.72375E+01 0.00000E+00
 -1      2528 1.42206E+02 2.65000E+01 0.00000E+00
 -1      2529 1.43505E+02 3.16125E+01 0.00000E+00
 -1      2530 1.43505E+02 3.01625E+01 0.00000E+00
 -1      2531 1.42206E+02 2.94250E+01 0.00000E+00
 -1      2532 1.43505E+02 3.45625E+01 0.00000E+00
 -1      2533 1.43505E+02 3.30875E+01 0.00000E+00
 -1      2534 1.42206E+02 3.23500E+01 0.00000E+00
 -1      2535 1.43505E+02 3.75125E+01 0.00000E+00
 -1      2536 1.43505E+02 3.60375E+01 0.00000E+00
 -1      2537 1.42206E+02 3.53000E+01 0.00000E+00
 -1      2538 1.43505E+02 4.04625E+01 0.00000E+00
 -1      2539 1.43505E+02 3.89875E+01 0.00000E+00
 -1      2540 1.42206E+02 3.82500E+01 0.00000E+00
 -1      2541 1.03149E+02 2.64378E+01 0.00000E+00
 -1      2542 1.03168E+02 2.75543E+01 0.00000E+00
 -1      2543 1.01200E+02 2.22402E+01 0.00000E+00
 -1      2544 1.01603E+02 2.31307E+01 0.00000E+00
 -1      2545 1.02524E+02 2.32826E+01 0.00000E+00
 -1      2546 1.67850E+01 5.30525E+00 0.00000E+00
 -1      2547 1.52850E+01 5.30525E+00 0.00000E+00
 -1      2548 1.75350E+01 6.60425E+00 0.00000E+00
 -1      2549 1.44321E+02 4.30606E+01 0.00000E+00
 -1      2550 1.02962E+02 2.87496E+01 0.00000E+00
 -1      2551 1.02801E+02 2.97316E+01 0.00000E+00
 -1      2552 9.99824E+01 2.05230E+01 0.00000E+00
 -1      2553 1.00576E+02 2.12364E+01 0.00000E+00
 -1      2554 9.58717E+01 1.79703E+01 0.00000E+00
 -1      2555 9.67602E+01 1.82889E+01 0.00000E+00
 -1      2556 1.02619E+02 3.07746E+01 0.00000E+00
 -1      2557 1.02378E+02 3.17279E+01 0.00000E+00
 -1      2558 8.91062E+01 1.79671E+01 0.00000E+00
 -1      2559 9.00978E+01 1.77403E+01 0.00000E+00
 -1      2560 6.49500E+00 2.71625E+01 0.00000E+00
 -1      2561 6.49500E+00 2.86375E+01 0.00000E+00
 -1      2562 7.79400E+00 2.93750E+01 0.00000E+00
 -1      2563 7.79400E+00 2.64250E+01 0.00000E+00
 -1      2564 9.09695E+01 1.76617E+01 0.00000E+00
 -1      2565 9.18413E+01 1.75831E+01 0.00000E+00
 -1      2566 9.02451E+01 1.67758E+01 0.00000E+00
 -1      2567 8.27555E+01 2.42136E+01 0.00000E+00
 -1      2568 8.31897E+01 2.32294E+01 0.00000E+00
 -1      2569 8.53163E+01 2.05928E+01 0.00000E+00
 -1      2570 8.59640E+01 2.00237E+01 0.00000E+00
 -1      2571 1.00579E+02 3.50332E+01 0.00000E+00
 -1      2572 9.96953E+01 3.57417E+01 0.00000E+00
 -1      2573 8.39108E+01 2.21379E+01 0.00000E+00
 -1      2574 8.46136E+01 2.13653E+01 0.00000E+00
 -1      2575 8.43714E+01 2.04366E+01 0.00000E+00
 -1      2576 8.22847E+01 2.64645E+01 0.00000E+00
 -1      2577 8.23823E+01 2.54564E+01 0.00000E+00
 -1      2578 8.21390E+01 2.82997E+01 0.00000E+00
 -1      2579 8.22119E+01 2.73821E+01 0.00000E+00
 -1      2580 8.14071E+01 2.67954E+01 0.00000E+00
 -1      2581 8.24089E+01 3.07320E+01 0.00000E+00
 -1      2582 8.22542E+01 2.95696E+01 0.00000E+00
 -1      2583 8.33533E+01 3.29062E+01 0.00000E+00
 -1      2584 8.28111E+01 3.20934E+01 0.00000E+00
 -1      2585 8.43314E+01 3.45041E+01 0.00000E+00
 -1      2586 8.38424E+01 3.37051E+01 0.00000E+00
 -1      2587 8.28579E+01 3.37747E+01 0.00000E+00
 -1      2588 8.77056E+01 3.79487E+01 0.00000E+00
 -1      2589 8.69015E+01 3.74538E+01 0.00000E+00
 -1      2590 9.26014E+01 3.86680E+01 0.00000E+00
 -1      2591 9.17089E+01 3.86854E+01 0.00000E+00
 -1      2592 9.48630E+01 3.84219E+01 0.00000E+00
 -1      2593 9.37322E+01 3.85450E+01 0.00000E+00
 -1      2594 9.33018E+01 3.93692E+01 0.00000E+00
 -1      2595 9.68998E+01 3.79546E+01 0.00000E+00
 -1      2596 9.61202E+01 3.83269E+01 0.00000E+00
 -1      2597 9.87711E+01 3.65369E+01 0.00000E+00
 -1      2598 9.78355E+01 3.72457E+01 0.00000E+00
 -1      2599 9.78827E+01 3.83472E+01 0.00000E+00
 -1      2600 1.01964E+02 3.28625E+01 0.00000E+00
 -1      2601 1.01487E+02 3.38719E+01 0.00000E+00
 -1      2602 6.55950E+00 4.28890E+01 0.00000E+00
 -1      2603 8.53650E+00 4.32410E+01 0.00000E+00
 -1      2604 9.28650E+00 4.19420E+01 0.00000E+00
 -1      2605 6.55950E+00 4.14140E+01 0.00000E+00
 -1      2606 8.07525E+00 5.11044E+00 0.00000E+00
 -1      2607 6.57525E+00 5.11044E+00 0.00000E+00
 -1      2608 6.40575E+00 6.01981E+00 0.00000E+00
 -1      2609 8.82525E+00 6.40944E+00 0.00000E+00
 -1      2610 9.18461E+01 1.61569E+01 0.00000E+00
 -1      2611 9.25705E+01 1.70428E+01 0.00000E+00
 -1      2612 9.32997E+01 1.65025E+01 0.00000E+00
 -1      2613 7.79400E+00 3.52687E+01 0.00000E+00
 -1      2614 6.49500E+00 3.60062E+01 0.00000E+00
 -1      2615 6.49500E+00 3.74750E+01 0.00000E+00
 -1      2616 1.45350E+01 6.60425E+00 0.00000E+00
 -1      2617 6.40575E+00 7.49481E+00 0.00000E+00
 -1      2618 6.52725E+00 3.87101E+01 0.00000E+00
 -1      2619 6.52725E+00 4.01789E+01 0.00000E+00
 -1      2620 7.89075E+00 4.04429E+01 0.00000E+00
 -1      2621 7.82625E+00 3.79726E+01 0.00000E+00
 -1      2622 9.97426E+01 3.68431E+01 0.00000E+00
 -1      2623 9.56899E+01 3.91511E+01 0.00000E+00
 -1      2624 9.99494E+01 1.93809E+01 0.00000E+00
 -1      2625 1.03868E+02 2.47152E+01 0.00000E+00
 -1      2626 1.03509E+02 2.55765E+01 0.00000E+00
 -1      2627 1.04449E+02 2.61185E+01 0.00000E+00
 -1      2628 1.03494E+02 3.04134E+01 0.00000E+00
 -1      2629 8.43903E+01 3.54070E+01 0.00000E+00
 -1      2630 1.43586E+02 6.56853E+00 0.00000E+00
 -1      2631 1.01497E+02 2.13883E+01 0.00000E+00
 -1      2632 1.43419E+02 7.72713E+00 0.00000E+00
 -1      2633 8.60999E+01 3.74073E+01 0.00000E+00
 -1      2634 1.03883E+02 2.81751E+01 0.00000E+00
 -1      2635 8.14494E+01 2.89829E+01 0.00000E+00
 -1      2636 8.29475E+01 2.23007E+01 0.00000E+00
 -1      2637 1.01575E+02 3.48867E+01 0.00000E+00
 -1      2638 1.01663E+02 3.59015E+01 0.00000E+00
 -1      2639 1.02571E+02 3.47402E+01 0.00000E+00
 -1      2640 1.42120E+02 8.46463E+00 0.00000E+00
 -1      2641 9.78151E+01 1.78498E+01 0.00000E+00
 -1      2642 1.02897E+02 3.25909E+01 0.00000E+00
 -1      2643 8.83376E+01 1.78254E+01 0.00000E+00
 -1      2644 8.86049E+01 1.67127E+01 0.00000E+00
 -1      2645 8.75691E+01 1.76837E+01 0.00000E+00
 -1      2646 9.09355E+01 3.91552E+01 0.00000E+00
 -1      2647 9.53148E+01 1.73554E+01 0.00000E+00
 -1      2648 9.60485E+01 1.67075E+01 0.00000E+00
 -1      2649 9.47579E+01 1.67405E+01 0.00000E+00
 -1      2650 7.70475E+00 8.23231E+00 0.00000E+00
 -1      2651 8.18531E+01 2.46351E+01 0.00000E+00
 -1      2652 8.61880E+01 1.92302E+01 0.00000E+00
 -1      2653 8.19667E+01 3.16143E+01 0.00000E+00
 -1      2654 8.11223E+01 3.11352E+01 0.00000E+00
 -1      2655 8.15245E+01 3.24967E+01 0.00000E+00
 -1      2656 8.82330E+01 3.86962E+01 0.00000E+00
 -1      2657 1.42758E+02 4.35929E+01 0.00000E+00
 -1      2658 1.43241E+02 4.17323E+01 0.00000E+00
 -1      2659 1.41942E+02 4.09948E+01 0.00000E+00
 -1      2660 1.41414E+02 4.35342E+01 0.00000E+00
 -1      2661 1.40664E+02 4.22352E+01 0.00000E+00
 -1      2662 9.09300E+00 1.98250E+01 0.00000E+00
 -1      2663 9.09300E+00 2.12750E+01 0.00000E+00
 -1      2664 9.09300E+00 2.27500E+01 0.00000E+00
 -1      2665 9.09300E+00 2.42250E+01 0.00000E+00
 -1      2666 1.03920E+01 2.20250E+01 0.00000E+00
 -1      2667 9.09300E+00 1.39375E+01 0.00000E+00
 -1      2668 9.09300E+00 1.54125E+01 0.00000E+00
 -1      2669 9.09300E+00 1.09875E+01 0.00000E+00
 -1      2670 9.09300E+00 1.24625E+01 0.00000E+00
 -1      2671 1.03920E+01 1.32000E+01 0.00000E+00
 -1      2672 1.22850E+01 7.90325E+00 0.00000E+00
 -1      2673 1.07850E+01 7.90325E+00 0.00000E+00
 -1      2674 8.07650E+01 2.49857E+01 0.00000E+00
 -1      2675 8.11382E+01 2.37429E+01 0.00000E+00
 -1      2676 8.91450E+00 8.42712E+00 0.00000E+00
 -1      2677 1.00179E+02 1.82412E+01 0.00000E+00
 -1      2678 1.01104E+02 1.92449E+01 0.00000E+00
 -1      2679 1.44000E+01 4.09070E+01 0.00000E+00
 -1      2680 1.59000E+01 4.09070E+01 0.00000E+00
 -1      2681 1.74000E+01 4.09070E+01 0.00000E+00
 -1      2682 1.89000E+01 4.09070E+01 0.00000E+00
 -1      2683 1.66500E+01 3.96080E+01 0.00000E+00
 -1      2684 2.04000E+01 4.09070E+01 0.00000E+00
 -1      2685 2.19000E+01 4.09070E+01 0.00000E+00
 -1      2686 1.96500E+01 3.96080E+01 0.00000E+00
 -1      2687 2.34000E+01 4.09070E+01 0.00000E+00
 -1      2688 2.49000E+01 4.09070E+01 0.00000E+00
 -1      2689 2.26500E+01 3.96080E+01 0.00000E+00
 -1      2690 2.64000E+01 4.09070E+01 0.00000E+00
 -1      2691 2.79000E+01 4.09070E+01 0.00000E+00
 -1      2692 2.56500E+01 3.96080E+01 0.00000E+00
 -1      2693 2.94000E+01 4.09070E+01 0.00000E+00
 -1      2694 3.09000E+01 4.09070E+01 0.00000E+00
 -1      2695 2.86500E+01 3.96080E+01 0.00000E+00
 -1      2696 3.24000E+01 4.09070E+01 0.00000E+00
 -1      2697 3.39000E+01 4.09070E+01 0.00000E+00
 -1      2698 3.16500E+01 3.96080E+01 0.00000E+00
 -1      2699 3.54000E+01 4.09070E+01 0.00000E+00
 -1      2700 3.69000E+01 4.09070E+01 0.00000E+00
 -1      2701 3.46500E+01 3.96080E+01 0.00000E+00
 -1      2702 3.84000E+01 4.09070E+01 0.00000E+00
 -1      2703 3.99000E+01 4.09070E+01 0.00000E+00
 -1      2704 3.76500E+01 3.96080E+01 0.00000E+00
 -1      2705 4.14000E+01 4.09070E+01 0.00000E+00
 -1      2706 4.29000E+01 4.09070E+01 0.00000E+00
 -1      2707 4.06500E+01 3.96080E+01 0.00000E+00
 -1      2708 4.44000E+01 4.09070E+01 0.00000E+00
 -1      2709 4.59000E+01 4.09070E+01 0.00000E+00
 -1      2710 4.36500E+01 3.96080E+01 0.00000E+00
 -1      2711 4.74000E+01 4.09070E+01 0.00000E+00
 -1      2712 4.89000E+01 4.09070E+01 0.00000E+00
 -1      2713 4.66500E+01 3.96080E+01 0.00000E+00
 -1      2714 5.04000E+01 4.09070E+01 0.00000E+00
 -1      2715 5.19000E+01 4.09070E+01 0.00000E+00
 -1      2716 4.96500E+01 3.96080E+01 0.00000E+00
 -1      2717 5.34000E+01 4.09070E+01 0.00000E+00
 -1      2718 5.49000E+01 4.09070E+01 0.00000E+00
 -1      2719 5.26500E+01 3.96080E+01 0.00000E+00
 -1      2720 5.64000E+01 4.09070E+01 0.00000E+00
 -1      2721 5.79000E+01 4.09070E+01 0.00000E+00
 -1      2722 5.56500E+01 3.96080E+01 0.00000E+00
 -1      2723 5.94000E+01 4.09070E+01 0.00000E+00
 -1      2724 6.09000E+01 4.09070E+01 0.00000E+00
 -1      2725 5.86500E+01 3.96080E+01 0.00000E+00
 -1      2726 6.24000E+01 4.09070E+01 0.00000E+00
 -1      2727 6.39000E+01 4.09070E+01 0.00000E+00
 -1      2728 6.16500E+01 3.96080E+01 0.00000E+00
 -1      2729 6.54000E+01 4.09070E+01 0.00000E+00
 -1      2730 6.69000E+01 4.09070E+01 0.00000E+00
 -1      2731 6.46500E+01 3.96080E+01 0.00000E+00
 -1      2732 6.84000E+01 4.09070E+01 0.00000E+00
 -1      2733 6.99000E+01 4.09070E+01 0.00000E+00
 -1      2734 6.76500E+01 3.96080E+01 0.00000E+00
 -1      2735 7.14000E+01 4.09070E+01 0.00000E+00
 -1      2736 7.29000E+01 4.09070E+01 0.00000E+00
 -1      2737 7.06500E+01 3.96080E+01 0.00000E+00
 -1      2738 7.44000E+01 4.09070E+01 0.00000E+00
 -1      2739 7.59000E+01 4.09070E+01 0.00000E+00
 -1      2740 7.36500E+01 3.96080E+01 0.00000E+00
 -1      2741 7.74000E+01 4.09070E+01 0.00000E+00
 -1      2742 7.89000E+01 4.09070E+01 0.00000E+00
 -1      2743 7.66500E+01 3.96080E+01 0.00000E+00
 -1      2744 8.04000E+01 4.09070E+01 0.00000E+00
 -1      2745 8.19000E+01 4.09070E+01 0.00000E+00
 -1      2746 7.96500E+01 3.96080E+01 0.00000E+00
 -1      2747 8.34000E+01 4.09070E+01 0.00000E+00
 -1      2748 8.49000E+01 4.09070E+01 0.00000E+00
 -1      2749 8.26500E+01 3.96080E+01 0.00000E+00
 -1      2750 8.62081E+01 4.03901E+01 0.00000E+00
 -1      2751 8.77081E+01 4.03901E+01 0.00000E+00
 -1      2752 8.91750E+01 4.05121E+01 0.00000E+00
 -1      2753 9.06750E+01 4.05121E+01 0.00000E+00
 -1      2754 9.30413E+01 4.07261E+01 0.00000E+00
 -1      2755 9.45413E+01 4.07261E+01 0.00000E+00
 -1      2756 9.57985E+01 4.06310E+01 0.00000E+00
 -1      2757 9.72985E+01 4.06310E+01 0.00000E+00
 -1      2758 1.01400E+02 4.09070E+01 0.00000E+00
 -1      2759 1.02900E+02 4.09070E+01 0.00000E+00
 -1      2760 1.04400E+02 4.09070E+01 0.00000E+00
 -1      2761 1.05900E+02 4.09070E+01 0.00000E+00
 -1      2762 1.03650E+02 3.96080E+01 0.00000E+00
 -1      2763 1.07400E+02 4.09070E+01 0.00000E+00
 -1      2764 1.08900E+02 4.09070E+01 0.00000E+00
 -1      2765 1.06650E+02 3.96080E+01 0.00000E+00
 -1      2766 1.10400E+02 4.09070E+01 0.00000E+00
 -1      2767 1.11900E+02 4.09070E+01 0.00000E+00
 -1      2768 1.09650E+02 3.96080E+01 0.00000E+00
 -1      2769 1.13400E+02 4.09070E+01 0.00000E+00
 -1      2770 1.14900E+02 4.09070E+01 0.00000E+00
 -1      2771 1.12650E+02 3.96080E+01 0.00000E+00
 -1      2772 1.16400E+02 4.09070E+01 0.00000E+00
 -1      2773 1.17900E+02 4.09070E+01 0.00000E+00
 -1      2774 1.15650E+02 3.96080E+01 0.00000E+00
 -1      2775 1.19400E+02 4.09070E+01 0.00000E+00
 -1      2776 1.20900E+02 4.09070E+01 0.00000E+00
 -1      2777 1.18650E+02 3.96080E+01 0.00000E+00
 -1      2778 1.22400E+02 4.09070E+01 0.00000E+00
 -1      2779 1.23900E+02 4.09070E+01 0.00000E+00
 -1      2780 1.21650E+02 3.96080E+01 0.00000E+00
 -1      2781 1.25400E+02 4.09070E+01 0.00000E+00
 -1      2782 1.26900E+02 4.09070E+01 0.00000E+00
 -1      2783 1.24650E+02 3.96080E+01 0.00000E+00
 -1      2784 1.28400E+02 4.09070E+01 0.00000E+00
 -1      2785 1.29900E+02 4.09070E+01 0.00000E+00
 -1      2786 1.27650E+02 3.96080E+01 0.00000E+00
 -1      2787 1.31400E+02 4.09070E+01 0.00000E+00
 -1      2788 1.32900E+02 4.09070E+01 0.00000E+00
 -1      2789 1.30650E+02 3.96080E+01 0.00000E+00
 -1      2790 1.34400E+02 4.09070E+01 0.00000E+00
 -1      2791 1.35900E+02 4.09070E+01 0.00000E+00
 -1      2792 1.33650E+02 3.96080E+01 0.00000E+00
 -1      2793 1.37400E+02 4.09070E+01 0.00000E+00
 -1      2794 1.38900E+02 4.09070E+01 0.00000E+00
 -1      2795 1.36650E+02 3.96080E+01 0.00000E+00
 -1      2796 2.42850E+01 7.90325E+00 0.00000E+00
 -1      2797 2.27850E+01 7.90325E+00 0.00000E+00
 -1      2798 1.39914E+02 4.09362E+01 0.00000E+00
 -1      2799 1.40928E+02 4.09655E+01 0.00000E+00
 -1      2800 1.39164E+02 3.96372E+01 0.00000E+00
 -1      2801 2.12850E+01 7.90325E+00 0.00000E+00
 -1      2802 1.97850E+01 7.90325E+00 0.00000E+00
 -1      2803 2.20350E+01 9.20225E+00 0.00000E+00
 -1      2804 3.02850E+01 7.90325E+00 0.00000E+00
 -1      2805 2.87850E+01 7.90325E+00 0.00000E+00
 -1      2806 3.32850E+01 7.90325E+00 0.00000E+00
 -1      2807 3.17850E+01 7.90325E+00 0.00000E+00
 -1      2808 3.10350E+01 9.20225E+00 0.00000E+00
 -1      2809 3.62850E+01 7.90325E+00 0.00000E+00
 -1      2810 3.47850E+01 7.90325E+00 0.00000E+00
 -1      2811 3.40350E+01 9.20225E+00 0.00000E+00
 -1      2812 3.92850E+01 7.90325E+00 0.00000E+00
 -1      2813 3.77850E+01 7.90325E+00 0.00000E+00
 -1      2814 3.70350E+01 9.20225E+00 0.00000E+00
 -1      2815 4.22850E+01 7.90325E+00 0.00000E+00
 -1      2816 4.07850E+01 7.90325E+00 0.00000E+00
 -1      2817 4.00350E+01 9.20225E+00 0.00000E+00
 -1      2818 4.52850E+01 7.90325E+00 0.00000E+00
 -1      2819 4.37850E+01 7.90325E+00 0.00000E+00
 -1      2820 4.30350E+01 9.20225E+00 0.00000E+00
 -1      2821 4.82850E+01 7.90325E+00 0.00000E+00
 -1      2822 4.67850E+01 7.90325E+00 0.00000E+00
 -1      2823 4.60350E+01 9.20225E+00 0.00000E+00
 -1      2824 5.12850E+01 7.90325E+00 0.00000E+00
 -1      2825 4.97850E+01 7.90325E+00 0.00000E+00
 -1      2826 4.90350E+01 9.20225E+00 0.00000E+00
 -1      2827 5.42850E+01 7.90325E+00 0.00000E+00
 -1      2828 5.27850E+01 7.90325E+00 0.00000E+00
 -1      2829 5.20350E+01 9.20225E+00 0.00000E+00
 -1      2830 5.72850E+01 7.90325E+00 0.00000E+00
 -1      2831 5.57850E+01 7.90325E+00 0.00000E+00
 -1      2832 5.50350E+01 9.20225E+00 0.00000E+00
 -1      2833 6.02850E+01 7.90325E+00 0.00000E+00
 -1      2834 5.87850E+01 7.90325E+00 0.00000E+00
 -1      2835 5.80350E+01 9.20225E+00 0.00000E+00
 -1      2836 6.32850E+01 7.90325E+00 0.00000E+00
 -1      2837 6.17850E+01 7.90325E+00 0.00000E+00
 -1      2838 6.10350E+01 9.20225E+00 0.00000E+00
 -1      2839 6.62850E+01 7.90325E+00 0.00000E+00
 -1      2840 6.47850E+01 7.90325E+00 0.00000E+00
 -1      2841 6.40350E+01 9.20225E+00 0.00000E+00
 -1      2842 6.92850E+01 7.90325E+00 0.00000E+00
 -1      2843 6.77850E+01 7.90325E+00 0.00000E+00
 -1      2844 6.70350E+01 9.20225E+00 0.00000E+00
 -1      2845 7.22850E+01 7.90325E+00 0.00000E+00
 -1      2846 7.07850E+01 7.90325E+00 0.00000E+00
 -1      2847 7.00350E+01 9.20225E+00 0.00000E+00
 -1      2848 7.52850E+01 7.90325E+00 0.00000E+00
 -1      2849 7.37850E+01 7.90325E+00 0.00000E+00
 -1      2850 7.30350E+01 9.20225E+00 0.00000E+00
 -1      2851 7.82850E+01 7.90325E+00 0.00000E+00
 -1      2852 7.67850E+01 7.90325E+00 0.00000E+00
 -1      2853 7.60350E+01 9.20225E+00 0.00000E+00
 -1      2854 8.12850E+01 7.90325E+00 0.00000E+00
 -1      2855 7.97850E+01 7.90325E+00 0.00000E+00
 -1      2856 7.90350E+01 9.20225E+00 0.00000E+00
 -1      2857 8.42850E+01 7.90325E+00 0.00000E+00
 -1      2858 8.27850E+01 7.90325E+00 0.00000E+00
 -1      2859 8.20350E+01 9.20225E+00 0.00000E+00
 -1      2860 8.72850E+01 7.90325E+00 0.00000E+00
 -1      2861 8.57850E+01 7.90325E+00 0.00000E+00
 -1      2862 8.50350E+01 9.20225E+00 0.00000E+00
 -1      2863 9.02850E+01 7.90325E+00 0.00000E+00
 -1      2864 8.87850E+01 7.90325E+00 0.00000E+00
 -1      2865 8.80350E+01 9.20225E+00 0.00000E+00
 -1      2866 9.32850E+01 7.90325E+00 0.00000E+00
 -1      2867 9.17850E+01 7.90325E+00 0.00000E+00
 -1      2868 9.10350E+01 9.20225E+00 0.00000E+00
 -1      2869 9.62850E+01 7.90325E+00 0.00000E+00
 -1      2870 9.47850E+01 7.90325E+00 0.00000E+00
 -1      2871 9.40350E+01 9.20225E+00 0.00000E+00
 -1      2872 9.92850E+01 7.90325E+00 0.00000E+00
 -1      2873 9.77850E+01 7.90325E+00 0.00000E+00
 -1      2874 9.70350E+01 9.20225E+00 0.00000E+00
 -1      2875 1.02285E+02 7.90325E+00 0.00000E+00
 -1      2876 1.00785E+02 7.90325E+00 0.00000E+00
 -1      2877 1.00035E+02 9.20225E+00 0.00000E+00
 -1      2878 1.05285E+02 7.90325E+00 0.00000E+00
 -1      2879 1.03785E+02 7.90325E+00 0.00000E+00
 -1      2880 1.03035E+02 9.20225E+00 0.00000E+00
 -1      2881 1.08285E+02 7.90325E+00 0.00000E+00
 -1      2882 1.06785E+02 7.90325E+00 0.00000E+00
 -1      2883 1.06035E+02 9.20225E+00 0.00000E+00
 -1      2884 1.11285E+02 7.90325E+00 0.00000E+00
 -1      2885 1.09785E+02 7.90325E+00 0.00000E+00
 -1      2886 1.09035E+02 9.20225E+00 0.00000E+00
 -1      2887 1.14285E+02 7.90325E+00 0.00000E+00
 -1      2888 1.12785E+02 7.90325E+00 0.00000E+00
 -1      2889 1.12035E+02 9.20225E+00 0.00000E+00
 -1      2890 1.17285E+02 7.90325E+00 0.00000E+00
 -1      2891 1.15785E+02 7.90325E+00 0.00000E+00
 -1      2892 1.15035E+02 9.20225E+00 0.00000E+00
 -1      2893 1.20285E+02 7.90325E+00 0.00000E+00
 -1      2894 1.18785E+02 7.90325E+00 0.00000E+00
 -1      2895 1.18035E+02 9.20225E+00 0.00000E+00
 -1      2896 1.23285E+02 7.90325E+00 0.00000E+00
 -1      2897 1.21785E+02 7.90325E+00 0.00000E+00
 -1      2898 1.21035E+02 9.20225E+00 0.00000E+00
 -1      2899 1.26285E+02 7.90325E+00 0.00000E+00
 -1      2900 1.24785E+02 7.90325E+00 0.00000E+00
 -1      2901 1.24035E+02 9.20225E+00 0.00000E+00
 -1      2902 1.29285E+02 7.90325E+00 0.00000E+00
 -1      2903 1.27785E+02 7.90325E+00 0.00000E+00
 -1      2904 1.27035E+02 9.20225E+00 0.00000E+00
 -1      2905 1.32285E+02 7.90325E+00 0.00000E+00
 -1      2906 1.30785E+02 7.90325E+00 0.00000E+00
 -1      2907 1.30035E+02 9.20225E+00 0.00000E+00
 -1      2908 1.35285E+02 7.90325E+00 0.00000E+00
 -1      2909 1.33785E+02 7.90325E+00 0.00000E+00
 -1      2910 1.33035E+02 9.20225E+00 0.00000E+00
 -1      2911 1.38285E+02 7.90325E+00 0.00000E+00
 -1      2912 1.36785E+02 7.90325E+00 0.00000E+00
 -1      2913 1.36035E+02 9.20225E+00 0.00000E+00
 -1      2914 1.40953E+02 8.18394E+00 0.00000E+00
 -1      2915 1.39453E+02 8.18394E+00 0.00000E+00
 -1      2916 1.38703E+02 9.48294E+00 0.00000E+00
 -1      2917 1.41038E+02 1.00443E+01 0.00000E+00
 -1      2918 1.01914E+02 2.04341E+01 0.00000E+00
 -1      2919 1.02537E+02 2.14379E+01 0.00000E+00
 -1      2920 1.40907E+02 2.42875E+01 0.00000E+00
 -1      2921 1.40907E+02 2.28125E+01 0.00000E+00
 -1      2922 9.75864E+01 1.67232E+01 0.00000E+00
 -1      2923 9.87961E+01 1.72506E+01 0.00000E+00
 -1      2924 1.40907E+02 1.83875E+01 0.00000E+00
 -1      2925 1.40907E+02 1.69125E+01 0.00000E+00
 -1      2926 1.40907E+02 2.72375E+01 0.00000E+00
 -1      2927 1.40907E+02 2.57625E+01 0.00000E+00
 -1      2928 1.39608E+02 2.50250E+01 0.00000E+00
 -1      2929 1.40907E+02 2.13375E+01 0.00000E+00
 -1      2930 1.40907E+02 1.98625E+01 0.00000E+00
 -1      2931 1.39608E+02 1.91250E+01 0.00000E+00
 -1      2932 1.39608E+02 2.20750E+01 0.00000E+00
 -1      2933 1.40907E+02 3.01375E+01 0.00000E+00
 -1      2934 1.40907E+02 2.86875E+01 0.00000E+00
 -1      2935 1.39608E+02 2.79500E+01 0.00000E+00
 -1      2936 1.40907E+02 3.30875E+01 0.00000E+00
 -1      2937 1.40907E+02 3.16125E+01 0.00000E+00
 -1      2938 1.39608E+02 3.08750E+01 0.00000E+00
 -1      2939 1.40907E+02 3.60375E+01 0.00000E+00
 -1      2940 1.40907E+02 3.45625E+01 0.00000E+00
 -1      2941 1.39608E+02 3.38250E+01 0.00000E+00
 -1      2942 1.04419E+02 3.00378E+01 0.00000E+00
 -1      2943 1.04236E+02 3.10808E+01 0.00000E+00
 -1      2944 1.03103E+02 2.24833E+01 0.00000E+00
 -1      2945 1.03507E+02 2.33738E+01 0.00000E+00
 -1      2946 1.82850E+01 7.90325E+00 0.00000E+00
 -1      2947 1.67850E+01 7.90325E+00 0.00000E+00
 -1      2948 1.90350E+01 9.20225E+00 0.00000E+00
 -1      2949 8.06529E+01 2.96954E+01 0.00000E+00
 -1      2950 8.05378E+01 2.84254E+01 0.00000E+00
 -1      2951 8.43768E+01 3.64938E+01 0.00000E+00
 -1      2952 8.33334E+01 3.56604E+01 0.00000E+00
 -1      2953 1.04903E+02 2.77359E+01 0.00000E+00
 -1      2954 1.04696E+02 2.89312E+01 0.00000E+00
 -1      2955 2.72850E+01 7.90325E+00 0.00000E+00
 -1      2956 2.57850E+01 7.90325E+00 0.00000E+00
 -1      2957 2.50350E+01 9.20225E+00 0.00000E+00
 -1      2958 2.80350E+01 9.20225E+00 0.00000E+00
 -1      2959 1.14000E+01 4.09070E+01 0.00000E+00
 -1      2960 1.29000E+01 4.09070E+01 0.00000E+00
 -1      2961 1.36500E+01 3.96080E+01 0.00000E+00
 -1      2962 1.04136E+02 3.24000E+01 0.00000E+00
 -1      2963 1.03722E+02 3.35346E+01 0.00000E+00
 -1      2964 9.09300E+00 1.68813E+01 0.00000E+00
 -1      2965 9.09300E+00 1.83563E+01 0.00000E+00
 -1      2966 1.03920E+01 1.90812E+01 0.00000E+00
 -1      2967 1.03920E+01 1.61437E+01 0.00000E+00
 -1      2968 1.00812E+02 3.71509E+01 0.00000E+00
 -1      2969 9.98873E+01 3.79461E+01 0.00000E+00
 -1      2970 1.52850E+01 7.90325E+00 0.00000E+00
 -1      2971 1.37850E+01 7.90325E+00 0.00000E+00
 -1      2972 1.30350E+01 9.20225E+00 0.00000E+00
 -1      2973 1.60350E+01 9.20225E+00 0.00000E+00
 -1      2974 8.52895E+01 1.85699E+01 0.00000E+00
 -1      2975 8.64034E+01 1.81362E+01 0.00000E+00
 -1      2976 9.09300E+00 3.15875E+01 0.00000E+00
 -1      2977 9.09300E+00 3.30625E+01 0.00000E+00
 -1      2978 8.97247E+01 1.58776E+01 0.00000E+00
 -1      2979 9.05965E+01 1.57990E+01 0.00000E+00
 -1      2980 8.33856E+01 2.02458E+01 0.00000E+00
 -1      2981 8.40883E+01 1.94733E+01 0.00000E+00
 -1      2982 8.19063E+01 2.23969E+01 0.00000E+00
 -1      2983 8.26275E+01 2.13053E+01 0.00000E+00
 -1      2984 8.03488E+01 2.71731E+01 0.00000E+00
 -1      2985 8.04216E+01 2.62555E+01 0.00000E+00
 -1      2986 8.23710E+01 3.46219E+01 0.00000E+00
 -1      2987 8.18820E+01 3.38230E+01 0.00000E+00
 -1      2988 1.41192E+02 3.96958E+01 0.00000E+00
 -1      2989 8.96362E+00 4.05429E+01 0.00000E+00
 -1      2990 1.03271E+01 4.08069E+01 0.00000E+00
 -1      2991 1.10771E+01 3.95079E+01 0.00000E+00
 -1      2992 8.93137E+00 3.93078E+01 0.00000E+00
 -1      2993 8.54581E+01 3.90911E+01 0.00000E+00
 -1      2994 9.83406E+01 3.94891E+01 0.00000E+00
 -1      2995 9.86921E+01 4.10641E+01 0.00000E+00
 -1      2996 1.00192E+02 4.10641E+01 0.00000E+00
 -1      2997 9.92763E+01 3.87802E+01 0.00000E+00
 -1      2998 9.09300E+00 3.45313E+01 0.00000E+00
 -1      2999 9.09300E+00 3.60000E+01 0.00000E+00
 -1      3000 1.03920E+01 3.37938E+01 0.00000E+00
 -1      3001 1.03920E+01 2.49750E+01 0.00000E+00
 -1      3002 9.09300E+00 2.57000E+01 0.00000E+00
 -1      3003 9.09300E+00 2.71750E+01 0.00000E+00
 -1      3004 8.43037E+01 1.83792E+01 0.00000E+00
 -1      3005 8.45191E+01 1.72851E+01 0.00000E+00
 -1      3006 8.33180E+01 1.81884E+01 0.00000E+00
 -1      3007 8.08182E+01 2.27475E+01 0.00000E+00
 -1      3008 9.66450E+00 9.72612E+00 0.00000E+00
 -1      3009 9.13257E+01 1.52587E+01 0.00000E+00
 -1      3010 9.99508E+01 1.71146E+01 0.00000E+00
 -1      3011 1.01105E+02 1.69787E+01 0.00000E+00
 -1      3012 9.97221E+01 1.59880E+01 0.00000E+00
 -1      3013 1.04447E+02 2.39158E+01 0.00000E+00
 -1      3014 1.00345E+02 3.90880E+01 0.00000E+00
 -1      3015 8.23575E+01 3.57086E+01 0.00000E+00
 -1      3016 1.00942E+02 3.97651E+01 0.00000E+00
 -1      3017 8.47918E+01 3.79242E+01 0.00000E+00
 -1      3018 8.37350E+01 3.81776E+01 0.00000E+00
 -1      3019 7.95523E+01 2.78855E+01 0.00000E+00
 -1      3020 1.02144E+02 1.92944E+01 0.00000E+00
 -1      3021 1.41038E+02 1.15068E+01 0.00000E+00
 -1      3022 1.39870E+02 1.12261E+01 0.00000E+00
 -1      3023 1.41038E+02 1.29693E+01 0.00000E+00
 -1      3024 1.03520E+02 2.15290E+01 0.00000E+00
 -1      3025 9.70295E+01 1.61083E+01 0.00000E+00
 -1      3026 9.80106E+01 1.55091E+01 0.00000E+00
 -1      3027 9.64726E+01 1.54933E+01 0.00000E+00
 -1      3028 1.05061E+02 3.20244E+01 0.00000E+00
 -1      3029 1.05439E+02 2.95986E+01 0.00000E+00
 -1      3030 1.41192E+02 3.82207E+01 0.00000E+00
 -1      3031 8.66706E+01 1.70234E+01 0.00000E+00
 -1      3032 1.03810E+02 3.45494E+01 0.00000E+00
 -1      3033 1.03898E+02 3.55642E+01 0.00000E+00
 -1      3034 1.05048E+02 3.43585E+01 0.00000E+00
 -1      3035 8.02107E+01 3.05777E+01 0.00000E+00
 -1      3036 7.92991E+01 3.00201E+01 0.00000E+00
 -1      3037 7.97685E+01 3.14600E+01 0.00000E+00
 -1      3038 1.05622E+02 2.60133E+01 0.00000E+00
 -1      3039 1.05262E+02 2.68746E+01 0.00000E+00
 -1      3040 1.06076E+02 2.76307E+01 0.00000E+00
 -1      3041 1.09635E+01 1.04636E+01 0.00000E+00
 -1      3042 1.01808E+02 3.70044E+01 0.00000E+00
 -1      3043 9.19105E+01 4.08491E+01 0.00000E+00
 -1      3044 1.39529E+02 3.85602E+01 0.00000E+00
 -1      3045 1.40542E+02 3.71145E+01 0.00000E+00
 -1      3046 1.39243E+02 3.63770E+01 0.00000E+00
 -1      3047 1.38514E+02 3.85310E+01 0.00000E+00
 -1      3048 9.40334E+01 1.58546E+01 0.00000E+00
 -1      3049 8.23445E+01 2.03420E+01 0.00000E+00
 -1      3050 8.89562E+01 1.57358E+01 0.00000E+00
 -1      3051 8.93076E+01 1.47590E+01 0.00000E+00
 -1      3052 8.81877E+01 1.55941E+01 0.00000E+00
 -1      3053 1.40973E+02 1.56722E+01 0.00000E+00
 -1      3054 1.40973E+02 1.42097E+01 0.00000E+00
 -1      3055 1.39805E+02 1.39290E+01 0.00000E+00
 -1      3056 1.39674E+02 1.64097E+01 0.00000E+00
 -1      3057 9.09300E+00 2.86437E+01 0.00000E+00
 -1      3058 9.09300E+00 3.01187E+01 0.00000E+00
 -1      3059 1.03920E+01 3.08563E+01 0.00000E+00
 -1      3060 1.03920E+01 2.79188E+01 0.00000E+00
 -1      3061 8.10376E+01 3.33439E+01 0.00000E+00
 -1      3062 7.97066E+01 2.53634E+01 0.00000E+00
 -1      3063 9.09832E+01 1.40942E+01 0.00000E+00
 -1      3064 9.22328E+01 1.44522E+01 0.00000E+00
 -1      3065 1.16910E+01 1.24625E+01 0.00000E+00
 -1      3066 1.16910E+01 1.39375E+01 0.00000E+00
 -1      3067 8.99606E+00 3.70363E+01 0.00000E+00
 -1      3068 9.02831E+00 3.82715E+01 0.00000E+00
 -1      3069 1.01012E+01 3.83715E+01 0.00000E+00
 -1      3070 1.02951E+01 3.62988E+01 0.00000E+00
 -1      3071 1.89000E+01 3.83090E+01 0.00000E+00
 -1      3072 2.04000E+01 3.83090E+01 0.00000E+00
 -1      3073 2.19000E+01 3.83090E+01 0.00000E+00
 -1      3074 2.34000E+01 3.83090E+01 0.00000E+00
 -1      3075 2.11500E+01 3.70100E+01 0.00000E+00
 -1      3076 2.49000E+01 3.83090E+01 0.00000E+00
 -1      3077 2.64000E+01 3.83090E+01 0.00000E+00
 -1      3078 2.41500E+01 3.70100E+01 0.00000E+00
 -1      3079 2.79000E+01 3.83090E+01 0.00000E+00
 -1      3080 2.94000E+01 3.83090E+01 0.00000E+00
 -1      3081 2.71500E+01 3.70100E+01 0.00000E+00
 -1      3082 3.09000E+01 3.83090E+01 0.00000E+00
 -1      3083 3.24000E+01 3.83090E+01 0.00000E+00
 -1      3084 3.01500E+01 3.70100E+01 0.00000E+00
 -1      3085 3.39000E+01 3.83090E+01 0.00000E+00
 -1      3086 3.54000E+01 3.83090E+01 0.00000E+00
 -1      3087 3.31500E+01 3.70100E+01 0.00000E+00
 -1      3088 3.69000E+01 3.83090E+01 0.00000E+00
 -1      3089 3.84000E+01 3.83090E+01 0.00000E+00
 -1      3090 3.61500E+01 3.70100E+01 0.00000E+00
 -1      3091 3.99000E+01 3.83090E+01 0.00000E+00
 -1      3092 4.14000E+01 3.83090E+01 0.00000E+00
 -1      3093 3.91500E+01 3.70100E+01 0.00000E+00
 -1      3094 4.29000E+01 3.83090E+01 0.00000E+00
 -1      3095 4.44000E+01 3.83090E+01 0.00000E+00
 -1      3096 4.21500E+01 3.70100E+01 0.00000E+00
 -1      3097 4.59000E+01 3.83090E+01 0.00000E+00
 -1      3098 4.74000E+01 3.83090E+01 0.00000E+00
 -1      3099 4.51500E+01 3.70100E+01 0.00000E+00
 -1      3100 4.89000E+01 3.83090E+01 0.00000E+00
 -1      3101 5.04000E+01 3.83090E+01 0.00000E+00
 -1      3102 4.81500E+01 3.70100E+01 0.00000E+00
 -1      3103 5.19000E+01 3.83090E+01 0.00000E+00
 -1      3104 5.34000E+01 3.83090E+01 0.00000E+00
 -1      3105 5.11500E+01 3.70100E+01 0.00000E+00
 -1      3106 5.49000E+01 3.83090E+01 0.00000E+00
 -1      3107 5.64000E+01 3.83090E+01 0.00000E+00
 -1      3108 5.41500E+01 3.70100E+01 0.00000E+00
 -1      3109 5.79000E+01 3.83090E+01 0.00000E+00
 -1      3110 5.94000E+01 3.83090E+01 0.00000E+00
 -1      3111 5.71500E+01 3.70100E+01 0.00000E+00
 -1      3112 6.09000E+01 3.83090E+01 0.00000E+00
 -1      3113 6.24000E+01 3.83090E+01 0.00000E+00
 -1      3114 6.01500E+01 3.70100E+01 0.00000E+00
 -1      3115 6.39000E+01 3.83090E+01 0.00000E+00
 -1      3116 6.54000E+01 3.83090E+01 0.00000E+00
 -1      3117 6.31500E+01 3.70100E+01 0.00000E+00
 -1      3118 6.69000E+01 3.83090E+01 0.00000E+00
 -1      3119 6.84000E+01 3.83090E+01 0.00000E+00
 -1      3120 6.61500E+01 3.70100E+01 0.00000E+00
 -1      3121 6.99000E+01 3.83090E+01 0.00000E+00
 -1      3122 7.14000E+01 3.83090E+01 0.00000E+00
 -1      3123 6.91500E+01 3.70100E+01 0.00000E+00
 -1      3124 7.29000E+01 3.83090E+01 0.00000E+00
 -1      3125 7.44000E+01 3.83090E+01 0.00000E+00
 -1      3126 7.21500E+01 3.70100E+01 0.00000E+00
 -1      3127 7.59000E+01 3.83090E+01 0.00000E+00
 -1      3128 7.74000E+01 3.83090E+01 0.00000E+00
 -1      3129 7.51500E+01 3.70100E+01 0.00000E+00
 -1      3130 7.89000E+01 3.83090E+01 0.00000E+00
 -1      3131 8.04000E+01 3.83090E+01 0.00000E+00
 -1      3132 7.81500E+01 3.70100E+01 0.00000E+00
 -1      3133 8.22350E+01 3.81776E+01 0.00000E+00
 -1      3134 8.14850E+01 3.68786E+01 0.00000E+00
 -1      3135 8.05225E+01 3.58401E+01 0.00000E+00
 -1      3136 7.86263E+01 2.57525E+01 0.00000E+00
 -1      3137 7.89696E+01 2.44828E+01 0.00000E+00
 -1      3138 7.87988E+01 2.86396E+01 0.00000E+00
 -1      3139 7.86098E+01 2.73873E+01 0.00000E+00
 -1      3140 1.29000E+01 3.83090E+01 0.00000E+00
 -1      3141 1.44000E+01 3.83090E+01 0.00000E+00
 -1      3142 1.05900E+02 3.83090E+01 0.00000E+00
 -1      3143 1.07400E+02 3.83090E+01 0.00000E+00
 -1      3144 1.08900E+02 3.83090E+01 0.00000E+00
 -1      3145 1.10400E+02 3.83090E+01 0.00000E+00
 -1      3146 1.08150E+02 3.70100E+01 0.00000E+00
 -1      3147 1.11900E+02 3.83090E+01 0.00000E+00
 -1      3148 1.13400E+02 3.83090E+01 0.00000E+00
 -1      3149 1.11150E+02 3.70100E+01 0.00000E+00
 -1      3150 1.14900E+02 3.83090E+01 0.00000E+00
 -1      3151 1.16400E+02 3.83090E+01 0.00000E+00
 -1      3152 1.14150E+02 3.70100E+01 0.00000E+00
 -1      3153 1.17900E+02 3.83090E+01 0.00000E+00
 -1      3154 1.19400E+02 3.83090E+01 0.00000E+00
 -1      3155 1.17150E+02 3.70100E+01 0.00000E+00
 -1      3156 1.20900E+02 3.83090E+01 0.00000E+00
 -1      3157 1.22400E+02 3.83090E+01 0.00000E+00
 -1      3158 1.20150E+02 3.70100E+01 0.00000E+00
 -1      3159 1.23900E+02 3.83090E+01 0.00000E+00
 -1      3160 1.25400E+02 3.83090E+01 0.00000E+00
 -1      3161 1.23150E+02 3.70100E+01 0.00000E+00
 -1      3162 1.26900E+02 3.83090E+01 0.00000E+00
 -1      3163 1.28400E+02 3.83090E+01 0.00000E+00
 -1      3164 1.26150E+02 3.70100E+01 0.00000E+00
 -1      3165 1.29900E+02 3.83090E+01 0.00000E+00
 -1      3166 1.31400E+02 3.83090E+01 0.00000E+00
 -1      3167 1.29150E+02 3.70100E+01 0.00000E+00
 -1      3168 1.32900E+02 3.83090E+01 0.00000E+00
 -1      3169 1.34400E+02 3.83090E+01 0.00000E+00
 -1      3170 1.32150E+02 3.70100E+01 0.00000E+00
 -1      3171 1.35707E+02 3.84200E+01 0.00000E+00
 -1      3172 1.37207E+02 3.84200E+01 0.00000E+00
 -1      3173 1.37572E+02 3.73430E+01 0.00000E+00
 -1      3174 1.34957E+02 3.71210E+01 0.00000E+00
 -1      3175 2.27850E+01 1.05013E+01 0.00000E+00
 -1      3176 2.12850E+01 1.05013E+01 0.00000E+00
 -1      3177 1.02725E+02 1.80283E+01 0.00000E+00
 -1      3178 1.03535E+02 1.92175E+01 0.00000E+00
 -1      3179 3.47850E+01 1.05013E+01 0.00000E+00
 -1      3180 3.32850E+01 1.05013E+01 0.00000E+00
 -1      3181 3.17850E+01 1.05013E+01 0.00000E+00
 -1      3182 3.02850E+01 1.05013E+01 0.00000E+00
 -1      3183 3.25350E+01 1.18003E+01 0.00000E+00
 -1      3184 4.07850E+01 1.05013E+01 0.00000E+00
 -1      3185 3.92850E+01 1.05013E+01 0.00000E+00
 -1      3186 4.37850E+01 1.05013E+01 0.00000E+00
 -1      3187 4.22850E+01 1.05013E+01 0.00000E+00
 -1      3188 4.15350E+01 1.18003E+01 0.00000E+00
 -1      3189 4.67850E+01 1.05013E+01 0.00000E+00
 -1      3190 4.52850E+01 1.05013E+01 0.00000E+00
 -1      3191 4.45350E+01 1.18003E+01 0.00000E+00
 -1      3192 4.97850E+01 1.05013E+01 0.00000E+00
 -1      3193 4.82850E+01 1.05013E+01 0.00000E+00
 -1      3194 4.75350E+01 1.18003E+01 0.00000E+00
 -1      3195 5.27850E+01 1.05013E+01 0.00000E+00
 -1      3196 5.12850E+01 1.05013E+01 0.00000E+00
 -1      3197 5.05350E+01 1.18003E+01 0.00000E+00
 -1      3198 5.57850E+01 1.05013E+01 0.00000E+00
 -1      3199 5.42850E+01 1.05013E+01 0.00000E+00
 -1      3200 5.35350E+01 1.18003E+01 0.00000E+00
 -1      3201 5.87850E+01 1.05013E+01 0.00000E+00
 -1      3202 5.72850E+01 1.05013E+01 0.00000E+00
 -1      3203 5.65350E+01 1.18003E+01 0.00000E+00
 -1      3204 6.17850E+01 1.05013E+01 0.00000E+00
 -1      3205 6.02850E+01 1.05013E+01 0.00000E+00
 -1      3206 5.95350E+01 1.18003E+01 0.00000E+00
 -1      3207 6.47850E+01 1.05013E+01 0.00000E+00
 -1      3208 6.32850E+01 1.05013E+01 0.00000E+00
 -1      3209 6.25350E+01 1.18003E+01 0.00000E+00
 -1      3210 6.77850E+01 1.05013E+01 0.00000E+00
 -1      3211 6.62850E+01 1.05013E+01 0.00000E+00
 -1      3212 6.55350E+01 1.18003E+01 0.00000E+00
 -1      3213 7.07850E+01 1.05013E+01 0.00000E+00
 -1      3214 6.92850E+01 1.05013E+01 0.00000E+00
 -1      3215 6.85350E+01 1.18003E+01 0.00000E+00
 -1      3216 7.37850E+01 1.05013E+01 0.00000E+00
 -1      3217 7.22850E+01 1.05013E+01 0.00000E+00
 -1      3218 7.15350E+01 1.18003E+01 0.00000E+00
 -1      3219 7.67850E+01 1.05013E+01 0.00000E+00
 -1      3220 7.52850E+01 1.05013E+01 0.00000E+00
 -1      3221 7.45350E+01 1.18003E+01 0.00000E+00
 -1      3222 7.97850E+01 1.05013E+01 0.00000E+00
 -1      3223 7.82850E+01 1.05013E+01 0.00000E+00
 -1      3224 7.75350E+01 1.18003E+01 0.00000E+00
 -1      3225 8.27850E+01 1.05013E+01 0.00000E+00
 -1      3226 8.12850E+01 1.05013E+01 0.00000E+00
 -1      3227 8.05350E+01 1.18003E+01 0.00000E+00
 -1      3228 8.57850E+01 1.05013E+01 0.00000E+00
 -1      3229 8.42850E+01 1.05013E+01 0.00000E+00
 -1      3230 8.35350E+01 1.18003E+01 0.00000E+00
 -1      3231 8.87850E+01 1.05013E+01 0.00000E+00
 -1      3232 8.72850E+01 1.05013E+01 0.00000E+00
 -1      3233 8.65350E+01 1.18003E+01 0.00000E+00
 -1      3234 9.22126E+01 1.12450E+01 0.00000E+00
 -1      3235 9.07126E+01 1.12450E+01 0.00000E+00
 -1      3236 9.77850E+01 1.04787E+01 0.00000E+00
 -1      3237 9.62850E+01 1.04787E+01 0.00000E+00
 -1      3238 1.00785E+02 1.04787E+01 0.00000E+00
 -1      3239 9.92850E+01 1.04787E+01 0.00000E+00
 -1      3240 9.85350E+01 1.17552E+01 0.00000E+00
 -1      3241 1.03785E+02 1.04787E+01 0.00000E+00
 -1      3242 1.02285E+02 1.04787E+01 0.00000E+00
 -1      3243 1.01535E+02 1.17552E+01 0.00000E+00
 -1      3244 1.06785E+02 1.04787E+01 0.00000E+00
 -1      3245 1.05285E+02 1.04787E+01 0.00000E+00
 -1      3246 1.04535E+02 1.17552E+01 0.00000E+00
 -1      3247 1.09785E+02 1.04787E+01 0.00000E+00
 -1      3248 1.08285E+02 1.04787E+01 0.00000E+00
 -1      3249 1.07535E+02 1.17552E+01 0.00000E+00
 -1      3250 1.12785E+02 1.04787E+01 0.00000E+00
 -1      3251 1.11285E+02 1.04787E+01 0.00000E+00
 -1      3252 1.10535E+02 1.17552E+01 0.00000E+00
 -1      3253 1.15785E+02 1.04787E+01 0.00000E+00
 -1      3254 1.14285E+02 1.04787E+01 0.00000E+00
 -1      3255 1.13535E+02 1.17552E+01 0.00000E+00
 -1      3256 1.18785E+02 1.04787E+01 0.00000E+00
 -1      3257 1.17285E+02 1.04787E+01 0.00000E+00
 -1      3258 1.16535E+02 1.17552E+01 0.00000E+00
 -1      3259 1.21785E+02 1.04787E+01 0.00000E+00
 -1      3260 1.20285E+02 1.04787E+01 0.00000E+00
 -1      3261 1.19535E+02 1.17552E+01 0.00000E+00
 -1      3262 1.24785E+02 1.04787E+01 0.00000E+00
 -1      3263 1.23285E+02 1.04787E+01 0.00000E+00
 -1      3264 1.22535E+02 1.17552E+01 0.00000E+00
 -1      3265 1.27785E+02 1.04787E+01 0.00000E+00
 -1      3266 1.26285E+02 1.04787E+01 0.00000E+00
 -1      3267 1.25535E+02 1.17552E+01 0.00000E+00
 -1      3268 1.30785E+02 1.04787E+01 0.00000E+00
 -1      3269 1.29285E+02 1.04787E+01 0.00000E+00
 -1      3270 1.28535E+02 1.17552E+01 0.00000E+00
 -1      3271 1.33785E+02 1.04787E+01 0.00000E+00
 -1      3272 1.32285E+02 1.04787E+01 0.00000E+00
 -1      3273 1.31535E+02 1.17552E+01 0.00000E+00
 -1      3274 1.36785E+02 1.04787E+01 0.00000E+00
 -1      3275 1.35285E+02 1.04787E+01 0.00000E+00
 -1      3276 1.34535E+02 1.17552E+01 0.00000E+00
 -1      3277 1.38912E+02 1.09928E+01 0.00000E+00
 -1      3278 1.37744E+02 1.07121E+01 0.00000E+00
 -1      3279 1.36994E+02 1.19886E+01 0.00000E+00
 -1      3280 1.38912E+02 1.24553E+01 0.00000E+00
 -1      3281 1.97850E+01 1.05013E+01 0.00000E+00
 -1      3282 1.82850E+01 1.05013E+01 0.00000E+00
 -1      3283 2.05350E+01 1.18003E+01 0.00000E+00
 -1      3284 1.38309E+02 2.86750E+01 0.00000E+00
 -1      3285 1.38309E+02 2.72250E+01 0.00000E+00
 -1      3286 1.05176E+02 2.30006E+01 0.00000E+00
 -1      3287 1.05537E+02 2.43420E+01 0.00000E+00
 -1      3288 1.38309E+02 2.57500E+01 0.00000E+00
 -1      3289 1.38309E+02 2.42750E+01 0.00000E+00
 -1      3290 1.37010E+02 2.64750E+01 0.00000E+00
 -1      3291 1.04065E+02 2.05581E+01 0.00000E+00
 -1      3292 1.04631E+02 2.16035E+01 0.00000E+00
 -1      3293 1.38309E+02 3.16250E+01 0.00000E+00
 -1      3294 1.38309E+02 3.01500E+01 0.00000E+00
 -1      3295 1.37010E+02 2.94250E+01 0.00000E+00
 -1      3296 1.38309E+02 3.45750E+01 0.00000E+00
 -1      3297 1.38309E+02 3.31000E+01 0.00000E+00
 -1      3298 1.37010E+02 3.23750E+01 0.00000E+00
 -1      3299 3.77850E+01 1.05013E+01 0.00000E+00
 -1      3300 3.62850E+01 1.05013E+01 0.00000E+00
 -1      3301 3.55350E+01 1.18003E+01 0.00000E+00
 -1      3302 3.85350E+01 1.18003E+01 0.00000E+00
 -1      3303 1.16910E+01 2.12875E+01 0.00000E+00
 -1      3304 1.16910E+01 2.27625E+01 0.00000E+00
 -1      3305 1.01553E+02 3.89309E+01 0.00000E+00
 -1      3306 9.36909E+01 1.46901E+01 0.00000E+00
 -1      3307 9.51490E+01 1.49281E+01 0.00000E+00
 -1      3308 9.33484E+01 1.35256E+01 0.00000E+00
 -1      3309 1.02977E+02 3.86200E+01 0.00000E+00
 -1      3310 1.04477E+02 3.86200E+01 0.00000E+00
 -1      3311 1.05227E+02 3.73210E+01 0.00000E+00
 -1      3312 1.02380E+02 3.79429E+01 0.00000E+00
 -1      3313 1.26488E+01 1.02017E+01 0.00000E+00
 -1      3314 1.20772E+01 1.14631E+01 0.00000E+00
 -1      3315 1.33763E+01 1.22006E+01 0.00000E+00
 -1      3316 1.41488E+01 1.02017E+01 0.00000E+00
 -1      3317 1.06480E+02 2.92715E+01 0.00000E+00
 -1      3318 1.06203E+02 3.03781E+01 0.00000E+00
 -1      3319 1.59000E+01 3.83090E+01 0.00000E+00
 -1      3320 1.74000E+01 3.83090E+01 0.00000E+00
 -1      3321 1.81500E+01 3.70100E+01 0.00000E+00
 -1      3322 8.03074E+01 3.42520E+01 0.00000E+00
 -1      3323 7.99499E+01 3.29257E+01 0.00000E+00
 -1      3324 7.96893E+01 2.29955E+01 0.00000E+00
 -1      3325 8.04575E+01 2.16494E+01 0.00000E+00
 -1      3326 8.56865E+01 1.62159E+01 0.00000E+00
 -1      3327 8.68522E+01 1.57634E+01 0.00000E+00
 -1      3328 1.06102E+02 3.16974E+01 0.00000E+00
 -1      3329 1.06001E+02 3.30166E+01 0.00000E+00
 -1      3330 1.07143E+02 3.13703E+01 0.00000E+00
 -1      3331 1.03231E+02 3.66935E+01 0.00000E+00
 -1      3332 8.11318E+01 2.02752E+01 0.00000E+00
 -1      3333 8.18899E+01 1.92157E+01 0.00000E+00
 -1      3334 1.16910E+01 2.42375E+01 0.00000E+00
 -1      3335 1.16910E+01 2.57125E+01 0.00000E+00
 -1      3336 1.29900E+01 2.35000E+01 0.00000E+00
 -1      3337 8.21052E+01 1.81216E+01 0.00000E+00
 -1      3338 8.23206E+01 1.70276E+01 0.00000E+00
 -1      3339 8.08925E+01 1.80548E+01 0.00000E+00
 -1      3340 1.29900E+01 1.46687E+01 0.00000E+00
 -1      3341 1.16910E+01 1.54063E+01 0.00000E+00
 -1      3342 1.16910E+01 1.68750E+01 0.00000E+00
 -1      3343 9.91652E+01 1.53731E+01 0.00000E+00
 -1      3344 1.00320E+02 1.52371E+01 0.00000E+00
 -1      3345 9.86083E+01 1.47582E+01 0.00000E+00
 -1      3346 2.87850E+01 1.05013E+01 0.00000E+00
 -1      3347 2.72850E+01 1.05013E+01 0.00000E+00
 -1      3348 2.95350E+01 1.18003E+01 0.00000E+00
 -1      3349 7.78728E+01 2.65067E+01 0.00000E+00
 -1      3350 7.71358E+01 2.56261E+01 0.00000E+00
 -1      3351 7.71193E+01 2.72608E+01 0.00000E+00
 -1      3352 7.75285E+01 2.37738E+01 0.00000E+00
 -1      3353 7.86089E+01 2.33847E+01 0.00000E+00
 -1      3354 7.82482E+01 2.22866E+01 0.00000E+00
 -1      3355 1.51500E+01 3.70100E+01 0.00000E+00
 -1      3356 1.16910E+01 3.30594E+01 0.00000E+00
 -1      3357 1.16910E+01 3.45281E+01 0.00000E+00
 -1      3358 1.05721E+02 2.20297E+01 0.00000E+00
 -1      3359 1.02496E+02 1.69017E+01 0.00000E+00
 -1      3360 1.03887E+02 1.68248E+01 0.00000E+00
 -1      3361 1.02268E+02 1.57751E+01 0.00000E+00
 -1      3362 1.11741E+01 3.84716E+01 0.00000E+00
 -1      3363 1.04646E+02 1.92920E+01 0.00000E+00
 -1      3364 8.99626E+01 1.25440E+01 0.00000E+00
 -1      3365 9.36708E+01 1.14829E+01 0.00000E+00
 -1      3366 9.51708E+01 1.14829E+01 0.00000E+00
 -1      3367 1.38309E+02 1.98625E+01 0.00000E+00
 -1      3368 1.38309E+02 1.83875E+01 0.00000E+00
 -1      3369 1.07079E+02 2.41828E+01 0.00000E+00
 -1      3370 1.06350E+02 2.50980E+01 0.00000E+00
 -1      3371 1.07164E+02 2.58541E+01 0.00000E+00
 -1      3372 1.16910E+01 3.01219E+01 0.00000E+00
 -1      3373 1.16910E+01 3.15906E+01 0.00000E+00
 -1      3374 1.29900E+01 3.23250E+01 0.00000E+00
 -1      3375 1.38309E+02 2.28062E+01 0.00000E+00
 -1      3376 1.38309E+02 2.13312E+01 0.00000E+00
 -1      3377 1.37010E+02 2.05938E+01 0.00000E+00
 -1      3378 1.37010E+02 2.35313E+01 0.00000E+00
 -1      3379 9.61301E+01 1.43289E+01 0.00000E+00
 -1      3380 8.47007E+01 1.60251E+01 0.00000E+00
 -1      3381 1.06089E+02 3.40314E+01 0.00000E+00
 -1      3382 1.06177E+02 3.50462E+01 0.00000E+00
 -1      3383 1.07131E+02 3.37044E+01 0.00000E+00
 -1      3384 7.90383E+01 3.23682E+01 0.00000E+00
 -1      3385 7.94349E+01 3.54219E+01 0.00000E+00
 -1      3386 1.04470E+02 3.65026E+01 0.00000E+00
 -1      3387 2.42850E+01 1.05013E+01 0.00000E+00
 -1      3388 2.35350E+01 1.18003E+01 0.00000E+00
 -1      3389 2.57850E+01 1.05013E+01 0.00000E+00
 -1      3390 1.38375E+02 1.71472E+01 0.00000E+00
 -1      3391 1.38440E+02 1.59068E+01 0.00000E+00
 -1      3392 1.37076E+02 1.78847E+01 0.00000E+00
 -1      3393 1.16910E+01 1.98188E+01 0.00000E+00
 -1      3394 1.29900E+01 2.05562E+01 0.00000E+00
 -1      3395 1.16910E+01 1.83500E+01 0.00000E+00
 -1      3396 1.69669E+01 1.03515E+01 0.00000E+00
 -1      3397 1.54669E+01 1.03515E+01 0.00000E+00
 -1      3398 1.50806E+01 1.13509E+01 0.00000E+00
 -1      3399 1.77169E+01 1.16505E+01 0.00000E+00
 -1      3400 7.79144E+01 3.04043E+01 0.00000E+00
 -1      3401 7.83566E+01 2.95220E+01 0.00000E+00
 -1      3402 7.74141E+01 2.90238E+01 0.00000E+00
 -1      3403 8.72036E+01 1.47866E+01 0.00000E+00
 -1      3404 1.19241E+01 3.71726E+01 0.00000E+00
 -1      3405 8.00029E+01 2.05232E+01 0.00000E+00
 -1      3406 1.07199E+02 2.75489E+01 0.00000E+00
 -1      3407 1.06840E+02 2.84102E+01 0.00000E+00
 -1      3408 1.07604E+02 2.91897E+01 0.00000E+00
 -1      3409 8.90555E+01 1.33505E+01 0.00000E+00
 -1      3410 1.37758E+02 3.64975E+01 0.00000E+00
 -1      3411 1.38123E+02 3.54205E+01 0.00000E+00
 -1      3412 1.36824E+02 3.46955E+01 0.00000E+00
 -1      3413 1.36451E+02 3.63865E+01 0.00000E+00
 -1      3414 1.05412E+02 1.82139E+01 0.00000E+00
 -1      3415 1.05942E+02 1.95545E+01 0.00000E+00
 -1      3416 2.04000E+01 3.57110E+01 0.00000E+00
 -1      3417 2.19000E+01 3.57110E+01 0.00000E+00
 -1      3418 2.34000E+01 3.57110E+01 0.00000E+00
 -1      3419 2.49000E+01 3.57110E+01 0.00000E+00
 -1      3420 2.26500E+01 3.44120E+01 0.00000E+00
 -1      3421 2.64000E+01 3.57110E+01 0.00000E+00
 -1      3422 2.79000E+01 3.57110E+01 0.00000E+00
 -1      3423 2.56500E+01 3.44120E+01 0.00000E+00
 -1      3424 2.94000E+01 3.57110E+01 0.00000E+00
 -1      3425 3.09000E+01 3.57110E+01 0.00000E+00
 -1      3426 2.86500E+01 3.44120E+01 0.00000E+00
 -1      3427 3.24000E+01 3.57110E+01 0.00000E+00
 -1      3428 3.39000E+01 3.57110E+01 0.00000E+00
 -1      3429 3.16500E+01 3.44120E+01 0.00000E+00
 -1      3430 3.54000E+01 3.57110E+01 0.00000E+00
 -1      3431 3.69000E+01 3.57110E+01 0.00000E+00
 -1      3432 3.46500E+01 3.44120E+01 0.00000E+00
 -1      3433 3.84000E+01 3.57110E+01 0.00000E+00
 -1      3434 3.99000E+01 3.57110E+01 0.00000E+00
 -1      3435 3.76500E+01 3.44120E+01 0.00000E+00
 -1      3436 4.14000E+01 3.57110E+01 0.00000E+00
 -1      3437 4.29000E+01 3.57110E+01 0.00000E+00
 -1      3438 4.06500E+01 3.44120E+01 0.00000E+00
 -1      3439 4.44000E+01 3.57110E+01 0.00000E+00
 -1      3440 4.59000E+01 3.57110E+01 0.00000E+00
 -1      3441 4.36500E+01 3.44120E+01 0.00000E+00
 -1      3442 4.74000E+01 3.57110E+01 0.00000E+00
 -1      3443 4.89000E+01 3.57110E+01 0.00000E+00
 -1      3444 4.66500E+01 3.44120E+01 0.00000E+00
 -1      3445 5.04000E+01 3.57110E+01 0.00000E+00
 -1      3446 5.19000E+01 3.57110E+01 0.00000E+00
 -1      3447 4.96500E+01 3.44120E+01 0.00000E+00
 -1      3448 5.34000E+01 3.57110E+01 0.00000E+00
 -1      3449 5.49000E+01 3.57110E+01 0.00000E+00
 -1      3450 5.26500E+01 3.44120E+01 0.00000E+00
 -1      3451 5.64000E+01 3.57110E+01 0.00000E+00
 -1      3452 5.79000E+01 3.57110E+01 0.00000E+00
 -1      3453 5.56500E+01 3.44120E+01 0.00000E+00
 -1      3454 5.94000E+01 3.57110E+01 0.00000E+00
 -1      3455 6.09000E+01 3.57110E+01 0.00000E+00
 -1      3456 5.86500E+01 3.44120E+01 0.00000E+00
 -1      3457 6.24000E+01 3.57110E+01 0.00000E+00
 -1      3458 6.39000E+01 3.57110E+01 0.00000E+00
 -1      3459 6.16500E+01 3.44120E+01 0.00000E+00
 -1      3460 6.54000E+01 3.57110E+01 0.00000E+00
 -1      3461 6.69000E+01 3.57110E+01 0.00000E+00
 -1      3462 6.46500E+01 3.44120E+01 0.00000E+00
 -1      3463 6.84000E+01 3.57110E+01 0.00000E+00
 -1      3464 6.99000E+01 3.57110E+01 0.00000E+00
 -1      3465 6.76500E+01 3.44120E+01 0.00000E+00
 -1      3466 7.14000E+01 3.57110E+01 0.00000E+00
 -1      3467 7.29000E+01 3.57110E+01 0.00000E+00
 -1      3468 7.06500E+01 3.44120E+01 0.00000E+00
 -1      3469 7.44000E+01 3.57110E+01 0.00000E+00
 -1      3470 7.59000E+01 3.57110E+01 0.00000E+00
 -1      3471 7.36500E+01 3.44120E+01 0.00000E+00
 -1      3472 7.79349E+01 3.54219E+01 0.00000E+00
 -1      3473 1.06487E+02 2.09515E+01 0.00000E+00
 -1      3474 1.07031E+02 2.23486E+01 0.00000E+00
 -1      3475 1.07253E+02 1.98734E+01 0.00000E+00
 -1      3476 1.10400E+02 3.57110E+01 0.00000E+00
 -1      3477 1.11900E+02 3.57110E+01 0.00000E+00
 -1      3478 1.13400E+02 3.57110E+01 0.00000E+00
 -1      3479 1.14900E+02 3.57110E+01 0.00000E+00
 -1      3480 1.12650E+02 3.44120E+01 0.00000E+00
 -1      3481 1.16400E+02 3.57110E+01 0.00000E+00
 -1      3482 1.17900E+02 3.57110E+01 0.00000E+00
 -1      3483 1.15650E+02 3.44120E+01 0.00000E+00
 -1      3484 1.19400E+02 3.57110E+01 0.00000E+00
 -1      3485 1.20900E+02 3.57110E+01 0.00000E+00
 -1      3486 1.18650E+02 3.44120E+01 0.00000E+00
 -1      3487 1.22400E+02 3.57110E+01 0.00000E+00
 -1      3488 1.23900E+02 3.57110E+01 0.00000E+00
 -1      3489 1.21650E+02 3.44120E+01 0.00000E+00
 -1      3490 1.25400E+02 3.57110E+01 0.00000E+00
 -1      3491 1.26900E+02 3.57110E+01 0.00000E+00
 -1      3492 1.24650E+02 3.44120E+01 0.00000E+00
 -1      3493 1.28400E+02 3.57110E+01 0.00000E+00
 -1      3494 1.29900E+02 3.57110E+01 0.00000E+00
 -1      3495 1.27650E+02 3.44120E+01 0.00000E+00
 -1      3496 1.31400E+02 3.57110E+01 0.00000E+00
 -1      3497 1.32900E+02 3.57110E+01 0.00000E+00
 -1      3498 1.30650E+02 3.44120E+01 0.00000E+00
 -1      3499 4.52850E+01 1.30992E+01 0.00000E+00
 -1      3500 4.37850E+01 1.30992E+01 0.00000E+00
 -1      3501 4.22850E+01 1.30992E+01 0.00000E+00
 -1      3502 4.07850E+01 1.30992E+01 0.00000E+00
 -1      3503 4.30350E+01 1.43982E+01 0.00000E+00
 -1      3504 5.12850E+01 1.30992E+01 0.00000E+00
 -1      3505 4.97850E+01 1.30992E+01 0.00000E+00
 -1      3506 5.42850E+01 1.30992E+01 0.00000E+00
 -1      3507 5.27850E+01 1.30992E+01 0.00000E+00
 -1      3508 5.20350E+01 1.43982E+01 0.00000E+00
 -1      3509 5.72850E+01 1.30992E+01 0.00000E+00
 -1      3510 5.57850E+01 1.30992E+01 0.00000E+00
 -1      3511 5.50350E+01 1.43982E+01 0.00000E+00
 -1      3512 6.02850E+01 1.30992E+01 0.00000E+00
 -1      3513 5.87850E+01 1.30992E+01 0.00000E+00
 -1      3514 5.80350E+01 1.43982E+01 0.00000E+00
 -1      3515 6.32850E+01 1.30992E+01 0.00000E+00
 -1      3516 6.17850E+01 1.30992E+01 0.00000E+00
 -1      3517 6.10350E+01 1.43982E+01 0.00000E+00
 -1      3518 6.62850E+01 1.30992E+01 0.00000E+00
 -1      3519 6.47850E+01 1.30992E+01 0.00000E+00
 -1      3520 6.40350E+01 1.43982E+01 0.00000E+00
 -1      3521 6.92850E+01 1.30992E+01 0.00000E+00
 -1      3522 6.77850E+01 1.30992E+01 0.00000E+00
 -1      3523 6.70350E+01 1.43982E+01 0.00000E+00
 -1      3524 7.22850E+01 1.30992E+01 0.00000E+00
 -1      3525 7.07850E+01 1.30992E+01 0.00000E+00
 -1      3526 7.00350E+01 1.43982E+01 0.00000E+00
 -1      3527 7.52850E+01 1.30992E+01 0.00000E+00
 -1      3528 7.37850E+01 1.30992E+01 0.00000E+00
 -1      3529 7.30350E+01 1.43982E+01 0.00000E+00
 -1      3530 7.82850E+01 1.30992E+01 0.00000E+00
 -1      3531 7.67850E+01 1.30992E+01 0.00000E+00
 -1      3532 7.60350E+01 1.43982E+01 0.00000E+00
 -1      3533 8.42850E+01 1.30992E+01 0.00000E+00
 -1      3534 8.27850E+01 1.30992E+01 0.00000E+00
 -1      3535 8.69516E+01 1.33781E+01 0.00000E+00
 -1      3536 8.54516E+01 1.33781E+01 0.00000E+00
 -1      3537 9.59208E+01 1.27594E+01 0.00000E+00
 -1      3538 9.98990E+01 1.31887E+01 0.00000E+00
 -1      3539 9.83990E+01 1.31887E+01 0.00000E+00
 -1      3540 1.08285E+02 1.30542E+01 0.00000E+00
 -1      3541 1.06785E+02 1.30542E+01 0.00000E+00
 -1      3542 1.11285E+02 1.30542E+01 0.00000E+00
 -1      3543 1.09785E+02 1.30542E+01 0.00000E+00
 -1      3544 1.09035E+02 1.43532E+01 0.00000E+00
 -1      3545 1.14285E+02 1.30542E+01 0.00000E+00
 -1      3546 1.12785E+02 1.30542E+01 0.00000E+00
 -1      3547 1.12035E+02 1.43532E+01 0.00000E+00
 -1      3548 1.17285E+02 1.30542E+01 0.00000E+00
 -1      3549 1.15785E+02 1.30542E+01 0.00000E+00
 -1      3550 1.15035E+02 1.43532E+01 0.00000E+00
 -1      3551 1.20285E+02 1.30542E+01 0.00000E+00
 -1      3552 1.18785E+02 1.30542E+01 0.00000E+00
 -1      3553 1.18035E+02 1.43532E+01 0.00000E+00
 -1      3554 1.23285E+02 1.30542E+01 0.00000E+00
 -1      3555 1.21785E+02 1.30542E+01 0.00000E+00
 -1      3556 1.21035E+02 1.43532E+01 0.00000E+00
 -1      3557 1.26285E+02 1.30542E+01 0.00000E+00
 -1      3558 1.24785E+02 1.30542E+01 0.00000E+00
 -1      3559 1.24035E+02 1.43532E+01 0.00000E+00
 -1      3560 1.29285E+02 1.30542E+01 0.00000E+00
 -1      3561 1.27785E+02 1.30542E+01 0.00000E+00
 -1      3562 1.27035E+02 1.43532E+01 0.00000E+00
 -1      3563 1.32285E+02 1.30542E+01 0.00000E+00
 -1      3564 1.30785E+02 1.30542E+01 0.00000E+00
 -1      3565 1.30035E+02 1.43532E+01 0.00000E+00
 -1      3566 1.35285E+02 1.30542E+01 0.00000E+00
 -1      3567 1.33785E+02 1.30542E+01 0.00000E+00
 -1      3568 1.33035E+02 1.43532E+01 0.00000E+00
 -1      3569 2.12850E+01 1.30992E+01 0.00000E+00
 -1      3570 1.97850E+01 1.30992E+01 0.00000E+00
 -1      3571 1.16910E+01 2.71844E+01 0.00000E+00
 -1      3572 1.16910E+01 2.86531E+01 0.00000E+00
 -1      3573 1.29900E+01 2.93875E+01 0.00000E+00
 -1      3574 1.35711E+02 3.31125E+01 0.00000E+00
 -1      3575 1.35711E+02 3.16375E+01 0.00000E+00
 -1      3576 1.35711E+02 3.01625E+01 0.00000E+00
 -1      3577 1.35711E+02 2.86875E+01 0.00000E+00
 -1      3578 1.34412E+02 3.09000E+01 0.00000E+00
 -1      3579 1.35711E+02 2.72125E+01 0.00000E+00
 -1      3580 1.35711E+02 2.57375E+01 0.00000E+00
 -1      3581 1.34412E+02 2.79500E+01 0.00000E+00
 -1      3582 1.44000E+01 3.57110E+01 0.00000E+00
 -1      3583 1.59000E+01 3.57110E+01 0.00000E+00
 -1      3584 1.08456E+02 3.08070E+01 0.00000E+00
 -1      3585 1.08355E+02 3.21263E+01 0.00000E+00
 -1      3586 1.04847E+02 1.37267E+01 0.00000E+00
 -1      3587 1.03347E+02 1.37267E+01 0.00000E+00
 -1      3588 1.01399E+02 1.31887E+01 0.00000E+00
 -1      3589 3.32850E+01 1.30992E+01 0.00000E+00
 -1      3590 3.17850E+01 1.30992E+01 0.00000E+00
 -1      3591 1.74000E+01 3.57110E+01 0.00000E+00
 -1      3592 1.89000E+01 3.57110E+01 0.00000E+00
 -1      3593 1.66500E+01 3.44120E+01 0.00000E+00
 -1      3594 1.05893E+02 3.61917E+01 0.00000E+00
 -1      3595 1.20210E+01 3.61362E+01 0.00000E+00
 -1      3596 7.86702E+01 2.07218E+01 0.00000E+00
 -1      3597 7.93445E+01 1.93476E+01 0.00000E+00
 -1      3598 8.35342E+01 1.57463E+01 0.00000E+00
 -1      3599 8.47016E+01 1.46771E+01 0.00000E+00
 -1      3600 4.82850E+01 1.30992E+01 0.00000E+00
 -1      3601 4.67850E+01 1.30992E+01 0.00000E+00
 -1      3602 4.60350E+01 1.43982E+01 0.00000E+00
 -1      3603 4.90350E+01 1.43982E+01 0.00000E+00
 -1      3604 7.81117E+01 3.32270E+01 0.00000E+00
 -1      3605 7.79302E+01 3.17613E+01 0.00000E+00
 -1      3606 1.38643E+02 1.48012E+01 0.00000E+00
 -1      3607 1.38709E+02 1.35609E+01 0.00000E+00
 -1      3608 1.37750E+02 1.33275E+01 0.00000E+00
 -1      3609 1.37344E+02 1.55387E+01 0.00000E+00
 -1      3610 1.06934E+02 3.58646E+01 0.00000E+00
 -1      3611 7.95598E+01 1.82535E+01 0.00000E+00
 -1      3612 7.97752E+01 1.71594E+01 0.00000E+00
 -1      3613 7.82271E+01 1.84522E+01 0.00000E+00
 -1      3614 1.42890E+01 1.39344E+01 0.00000E+00
 -1      3615 1.42890E+01 1.54031E+01 0.00000E+00
 -1      3616 7.71849E+01 3.41229E+01 0.00000E+00
 -1      3617 3.02850E+01 1.30992E+01 0.00000E+00
 -1      3618 2.87850E+01 1.30992E+01 0.00000E+00
 -1      3619 3.10350E+01 1.43982E+01 0.00000E+00
 -1      3620 7.66771E+01 2.81432E+01 0.00000E+00
 -1      3621 7.59401E+01 2.72625E+01 0.00000E+00
 -1      3622 7.62349E+01 2.90255E+01 0.00000E+00
 -1      3623 8.82870E+01 1.32088E+01 0.00000E+00
 -1      3624 7.67751E+01 2.45280E+01 0.00000E+00
 -1      3625 7.64144E+01 2.34299E+01 0.00000E+00
 -1      3626 7.60216E+01 2.52821E+01 0.00000E+00
 -1      3627 1.29900E+01 2.64469E+01 0.00000E+00
 -1      3628 7.75898E+01 2.11110E+01 0.00000E+00
 -1      3629 1.35711E+02 2.13281E+01 0.00000E+00
 -1      3630 1.35711E+02 1.98594E+01 0.00000E+00
 -1      3631 1.08434E+02 3.58646E+01 0.00000E+00
 -1      3632 1.09184E+02 3.45656E+01 0.00000E+00
 -1      3633 7.69878E+01 3.12631E+01 0.00000E+00
 -1      3634 1.34022E+02 3.59933E+01 0.00000E+00
 -1      3635 1.35329E+02 3.61043E+01 0.00000E+00
 -1      3636 1.35515E+02 3.52588E+01 0.00000E+00
 -1      3637 1.33272E+02 3.46942E+01 0.00000E+00
 -1      3638 8.23214E+01 1.56795E+01 0.00000E+00
 -1      3639 4.00350E+01 1.43982E+01 0.00000E+00
 -1      3640 3.92850E+01 1.30992E+01 0.00000E+00
 -1      3641 3.77850E+01 1.30992E+01 0.00000E+00
 -1      3642 8.18032E+01 1.43894E+01 0.00000E+00
 -1      3643 8.10532E+01 1.30904E+01 0.00000E+00
 -1      3644 7.95532E+01 1.30904E+01 0.00000E+00
 -1      3645 8.05897E+01 1.56706E+01 0.00000E+00
 -1      3646 7.88032E+01 1.43894E+01 0.00000E+00
 -1      3647 9.72443E+01 1.33247E+01 0.00000E+00
 -1      3648 1.42890E+01 1.98219E+01 0.00000E+00
 -1      3649 1.42890E+01 2.12906E+01 0.00000E+00
 -1      3650 1.07845E+02 2.31046E+01 0.00000E+00
 -1      3651 1.08659E+02 2.38607E+01 0.00000E+00
 -1      3652 1.08611E+02 2.20265E+01 0.00000E+00
 -1      3653 1.05597E+02 1.50257E+01 0.00000E+00
 -1      3654 1.90350E+01 1.43983E+01 0.00000E+00
 -1      3655 1.82850E+01 1.30993E+01 0.00000E+00
 -1      3656 2.27850E+01 1.30992E+01 0.00000E+00
 -1      3657 2.20350E+01 1.43982E+01 0.00000E+00
 -1      3658 2.42850E+01 1.30992E+01 0.00000E+00
 -1      3659 1.36791E+02 1.30942E+01 0.00000E+00
 -1      3660 1.08656E+02 2.57184E+01 0.00000E+00
 -1      3661 1.07928E+02 2.66336E+01 0.00000E+00
 -1      3662 1.08692E+02 2.74132E+01 0.00000E+00
 -1      3663 1.34412E+02 2.50063E+01 0.00000E+00
 -1      3664 1.35711E+02 2.42687E+01 0.00000E+00
 -1      3665 1.35711E+02 2.28000E+01 0.00000E+00
 -1      3666 1.55880E+01 2.20313E+01 0.00000E+00
 -1      3667 1.42890E+01 2.27656E+01 0.00000E+00
 -1      3668 1.42890E+01 2.42406E+01 0.00000E+00
 -1      3669 1.35702E+02 3.44132E+01 0.00000E+00
 -1      3670 1.08815E+02 2.99457E+01 0.00000E+00
 -1      3671 1.10027E+02 3.07017E+01 0.00000E+00
 -1      3672 1.09175E+02 2.90844E+01 0.00000E+00
 -1      3673 1.33200E+01 3.54019E+01 0.00000E+00
 -1      3674 1.40700E+01 3.41029E+01 0.00000E+00
 -1      3675 1.48779E+01 1.21429E+01 0.00000E+00
 -1      3676 1.44917E+01 1.31424E+01 0.00000E+00
 -1      3677 1.57907E+01 1.38767E+01 0.00000E+00
 -1      3678 1.61961E+01 1.22927E+01 0.00000E+00
 -1      3679 1.29900E+01 1.76125E+01 0.00000E+00
 -1      3680 1.40700E+01 3.11654E+01 0.00000E+00
 -1      3681 1.40700E+01 3.26341E+01 0.00000E+00
 -1      3682 1.51500E+01 3.29432E+01 0.00000E+00
 -1      3683 2.65350E+01 1.18003E+01 0.00000E+00
 -1      3684 1.35777E+02 1.86190E+01 0.00000E+00
 -1      3685 1.35842E+02 1.73787E+01 0.00000E+00
 -1      3686 1.34478E+02 1.93534E+01 0.00000E+00
 -1      3687 3.62850E+01 1.30992E+01 0.00000E+00
 -1      3688 3.47850E+01 1.30992E+01 0.00000E+00
 -1      3689 3.40350E+01 1.43982E+01 0.00000E+00
 -1      3690 3.70350E+01 1.43982E+01 0.00000E+00
 -1      3691 1.96500E+01 3.44120E+01 0.00000E+00
 -1      3692 1.69669E+01 1.29495E+01 0.00000E+00
 -1      3693 1.36041E+02 1.43932E+01 0.00000E+00
 -1      3694 1.34403E+02 3.36758E+01 0.00000E+00
 -1      3695 7.60768E+01 3.35160E+01 0.00000E+00
 -1      3696 2.49000E+01 3.31130E+01 0.00000E+00
 -1      3697 2.64000E+01 3.31130E+01 0.00000E+00
 -1      3698 2.79000E+01 3.31130E+01 0.00000E+00
 -1      3699 2.94000E+01 3.31130E+01 0.00000E+00
 -1      3700 2.71500E+01 3.18140E+01 0.00000E+00
 -1      3701 3.09000E+01 3.31130E+01 0.00000E+00
 -1      3702 3.24000E+01 3.31130E+01 0.00000E+00
 -1      3703 3.01500E+01 3.18140E+01 0.00000E+00
 -1      3704 3.39000E+01 3.31130E+01 0.00000E+00
 -1      3705 3.54000E+01 3.31130E+01 0.00000E+00
 -1      3706 3.31500E+01 3.18140E+01 0.00000E+00
 -1      3707 3.69000E+01 3.31130E+01 0.00000E+00
 -1      3708 3.84000E+01 3.31130E+01 0.00000E+00
 -1      3709 3.61500E+01 3.18140E+01 0.00000E+00
 -1      3710 3.99000E+01 3.31130E+01 0.00000E+00
 -1      3711 4.14000E+01 3.31130E+01 0.00000E+00
 -1      3712 3.91500E+01 3.18140E+01 0.00000E+00
 -1      3713 4.29000E+01 3.31130E+01 0.00000E+00
 -1      3714 4.44000E+01 3.31130E+01 0.00000E+00
 -1      3715 4.21500E+01 3.18140E+01 0.00000E+00
 -1      3716 4.59000E+01 3.31130E+01 0.00000E+00
 -1      3717 4.74000E+01 3.31130E+01 0.00000E+00
 -1      3718 4.51500E+01 3.18140E+01 0.00000E+00
 -1      3719 4.89000E+01 3.31130E+01 0.00000E+00
 -1      3720 5.04000E+01 3.31130E+01 0.00000E+00
 -1      3721 4.81500E+01 3.18140E+01 0.00000E+00
 -1      3722 5.19000E+01 3.31130E+01 0.00000E+00
 -1      3723 5.34000E+01 3.31130E+01 0.00000E+00
 -1      3724 5.11500E+01 3.18140E+01 0.00000E+00
 -1      3725 5.49000E+01 3.31130E+01 0.00000E+00
 -1      3726 5.64000E+01 3.31130E+01 0.00000E+00
 -1      3727 5.41500E+01 3.18140E+01 0.00000E+00
 -1      3728 5.79000E+01 3.31130E+01 0.00000E+00
 -1      3729 5.94000E+01 3.31130E+01 0.00000E+00
 -1      3730 5.71500E+01 3.18140E+01 0.00000E+00
 -1      3731 6.09000E+01 3.31130E+01 0.00000E+00
 -1      3732 6.24000E+01 3.31130E+01 0.00000E+00
 -1      3733 6.01500E+01 3.18140E+01 0.00000E+00
 -1      3734 6.39000E+01 3.31130E+01 0.00000E+00
 -1      3735 6.54000E+01 3.31130E+01 0.00000E+00
 -1      3736 6.31500E+01 3.18140E+01 0.00000E+00
 -1      3737 6.69000E+01 3.31130E+01 0.00000E+00
 -1      3738 6.84000E+01 3.31130E+01 0.00000E+00
 -1      3739 6.61500E+01 3.18140E+01 0.00000E+00
 -1      3740 6.99000E+01 3.31130E+01 0.00000E+00
 -1      3741 7.14000E+01 3.31130E+01 0.00000E+00
 -1      3742 6.91500E+01 3.18140E+01 0.00000E+00
 -1      3743 7.29000E+01 3.31130E+01 0.00000E+00
 -1      3744 7.44000E+01 3.31130E+01 0.00000E+00
 -1      3745 7.21500E+01 3.18140E+01 0.00000E+00
 -1      3746 1.11900E+02 3.31130E+01 0.00000E+00
 -1      3747 1.13400E+02 3.31130E+01 0.00000E+00
 -1      3748 1.08191E+02 1.87030E+01 0.00000E+00
 -1      3749 1.08735E+02 2.01000E+01 0.00000E+00
 -1      3750 1.34412E+02 2.20656E+01 0.00000E+00
 -1      3751 7.62666E+01 3.17395E+01 0.00000E+00
 -1      3752 7.62507E+01 3.03825E+01 0.00000E+00
 -1      3753 7.55137E+01 2.95019E+01 0.00000E+00
 -1      3754 1.33281E+02 3.33935E+01 0.00000E+00
 -1      3755 1.01956E+02 1.38036E+01 0.00000E+00
 -1      3756 7.92570E+01 1.58693E+01 0.00000E+00
 -1      3757 7.79888E+01 1.58782E+01 0.00000E+00
 -1      3758 1.14900E+02 3.31130E+01 0.00000E+00
 -1      3759 1.16400E+02 3.31130E+01 0.00000E+00
 -1      3760 1.14150E+02 3.18140E+01 0.00000E+00
 -1      3761 1.17900E+02 3.31130E+01 0.00000E+00
 -1      3762 1.19400E+02 3.31130E+01 0.00000E+00
 -1      3763 1.17150E+02 3.18140E+01 0.00000E+00
 -1      3764 1.20900E+02 3.31130E+01 0.00000E+00
 -1      3765 1.22400E+02 3.31130E+01 0.00000E+00
 -1      3766 1.20150E+02 3.18140E+01 0.00000E+00
 -1      3767 1.23900E+02 3.31130E+01 0.00000E+00
 -1      3768 1.25400E+02 3.31130E+01 0.00000E+00
 -1      3769 1.23150E+02 3.18140E+01 0.00000E+00
 -1      3770 1.26900E+02 3.31130E+01 0.00000E+00
 -1      3771 1.28400E+02 3.31130E+01 0.00000E+00
 -1      3772 1.26150E+02 3.18140E+01 0.00000E+00
 -1      3773 1.29900E+02 3.31130E+01 0.00000E+00
 -1      3774 1.31400E+02 3.31130E+01 0.00000E+00
 -1      3775 1.29150E+02 3.18140E+01 0.00000E+00
 -1      3776 1.42890E+01 2.57125E+01 0.00000E+00
 -1      3777 1.42890E+01 2.71844E+01 0.00000E+00
 -1      3778 1.55880E+01 2.49781E+01 0.00000E+00
 -1      3779 5.57850E+01 1.56973E+01 0.00000E+00
 -1      3780 5.42850E+01 1.56973E+01 0.00000E+00
 -1      3781 5.27850E+01 1.56973E+01 0.00000E+00
 -1      3782 5.12850E+01 1.56973E+01 0.00000E+00
 -1      3783 5.35350E+01 1.69963E+01 0.00000E+00
 -1      3784 6.17850E+01 1.56973E+01 0.00000E+00
 -1      3785 6.02850E+01 1.56973E+01 0.00000E+00
 -1      3786 6.47850E+01 1.56973E+01 0.00000E+00
 -1      3787 6.32850E+01 1.56973E+01 0.00000E+00
 -1      3788 6.25350E+01 1.69963E+01 0.00000E+00
 -1      3789 6.77850E+01 1.56973E+01 0.00000E+00
 -1      3790 6.62850E+01 1.56973E+01 0.00000E+00
 -1      3791 6.55350E+01 1.69963E+01 0.00000E+00
 -1      3792 7.07850E+01 1.56973E+01 0.00000E+00
 -1      3793 6.92850E+01 1.56973E+01 0.00000E+00
 -1      3794 6.85350E+01 1.69963E+01 0.00000E+00
 -1      3795 7.37850E+01 1.56973E+01 0.00000E+00
 -1      3796 7.22850E+01 1.56973E+01 0.00000E+00
 -1      3797 7.15350E+01 1.69963E+01 0.00000E+00
 -1      3798 7.66369E+01 1.57877E+01 0.00000E+00
 -1      3799 7.51369E+01 1.57877E+01 0.00000E+00
 -1      3800 7.43869E+01 1.70867E+01 0.00000E+00
 -1      3801 7.70906E+01 1.72676E+01 0.00000E+00
 -1      3802 1.97850E+01 1.56973E+01 0.00000E+00
 -1      3803 1.82851E+01 1.56973E+01 0.00000E+00
 -1      3804 1.35838E+02 1.54988E+01 0.00000E+00
 -1      3805 1.10104E+02 1.66414E+01 0.00000E+00
 -1      3806 1.08604E+02 1.66414E+01 0.00000E+00
 -1      3807 1.18785E+02 1.56522E+01 0.00000E+00
 -1      3808 1.17285E+02 1.56522E+01 0.00000E+00
 -1      3809 1.21785E+02 1.56522E+01 0.00000E+00
 -1      3810 1.20285E+02 1.56522E+01 0.00000E+00
 -1      3811 1.19535E+02 1.69512E+01 0.00000E+00
 -1      3812 1.24785E+02 1.56522E+01 0.00000E+00
 -1      3813 1.23285E+02 1.56522E+01 0.00000E+00
 -1      3814 1.22535E+02 1.69512E+01 0.00000E+00
 -1      3815 1.27785E+02 1.56522E+01 0.00000E+00
 -1      3816 1.26285E+02 1.56522E+01 0.00000E+00
 -1      3817 1.25535E+02 1.69512E+01 0.00000E+00
 -1      3818 1.30785E+02 1.56522E+01 0.00000E+00
 -1      3819 1.29285E+02 1.56522E+01 0.00000E+00
 -1      3820 1.28535E+02 1.69512E+01 0.00000E+00
 -1      3821 1.41795E+01 2.84405E+01 0.00000E+00
 -1      3822 1.41795E+01 2.99093E+01 0.00000E+00
 -1      3823 1.52595E+01 3.02184E+01 0.00000E+00
 -1      3824 1.54785E+01 2.77061E+01 0.00000E+00
 -1      3825 1.05825E+02 1.61523E+01 0.00000E+00
 -1      3826 7.53268E+01 3.22170E+01 0.00000E+00
 -1      3827 1.66500E+01 3.29432E+01 0.00000E+00
 -1      3828 1.33113E+02 2.86875E+01 0.00000E+00
 -1      3829 1.33113E+02 2.72125E+01 0.00000E+00
 -1      3830 1.07122E+02 1.64148E+01 0.00000E+00
 -1      3831 1.09096E+02 3.35508E+01 0.00000E+00
 -1      3832 7.62272E+01 2.15828E+01 0.00000E+00
 -1      3833 7.66492E+01 2.00181E+01 0.00000E+00
 -1      3834 1.10409E+02 3.29875E+01 0.00000E+00
 -1      3835 1.15785E+02 1.56522E+01 0.00000E+00
 -1      3836 1.14285E+02 1.56522E+01 0.00000E+00
 -1      3837 1.16535E+02 1.69512E+01 0.00000E+00
 -1      3838 1.89000E+01 3.31130E+01 0.00000E+00
 -1      3839 2.04000E+01 3.31130E+01 0.00000E+00
 -1      3840 1.12945E+02 1.61468E+01 0.00000E+00
 -1      3841 1.11445E+02 1.61468E+01 0.00000E+00
 -1      3842 1.11014E+02 1.84351E+01 0.00000E+00
 -1      3843 1.13695E+02 1.74458E+01 0.00000E+00
 -1      3844 1.42890E+01 1.68750E+01 0.00000E+00
 -1      3845 1.42890E+01 1.83500E+01 0.00000E+00
 -1      3846 1.55880E+01 1.90844E+01 0.00000E+00
 -1      3847 1.55880E+01 1.61406E+01 0.00000E+00
 -1      3848 5.87850E+01 1.56973E+01 0.00000E+00
 -1      3849 5.72850E+01 1.56973E+01 0.00000E+00
 -1      3850 5.95350E+01 1.69963E+01 0.00000E+00
 -1      3851 4.37850E+01 1.56973E+01 0.00000E+00
 -1      3852 4.22850E+01 1.56973E+01 0.00000E+00
 -1      3853 2.19000E+01 3.31130E+01 0.00000E+00
 -1      3854 2.34000E+01 3.31130E+01 0.00000E+00
 -1      3855 2.11500E+01 3.18140E+01 0.00000E+00
 -1      3856 1.32531E+02 3.20945E+01 0.00000E+00
 -1      3857 1.34539E+02 1.62331E+01 0.00000E+00
 -1      3858 1.11159E+02 3.16885E+01 0.00000E+00
 -1      3859 2.72850E+01 1.30992E+01 0.00000E+00
 -1      3860 2.57850E+01 1.30992E+01 0.00000E+00
 -1      3861 2.50350E+01 1.43982E+01 0.00000E+00
 -1      3862 2.41500E+01 3.18140E+01 0.00000E+00
 -1      3863 2.80350E+01 1.43982E+01 0.00000E+00
 -1      3864 3.17850E+01 1.56973E+01 0.00000E+00
 -1      3865 3.02850E+01 1.56973E+01 0.00000E+00
 -1      3866 7.50688E+01 2.62034E+01 0.00000E+00
 -1      3867 7.47081E+01 2.51053E+01 0.00000E+00
 -1      3868 1.33039E+02 1.62331E+01 0.00000E+00
 -1      3869 1.10487E+02 1.96858E+01 0.00000E+00
 -1      3870 1.09549E+02 2.08561E+01 0.00000E+00
 -1      3871 1.10363E+02 2.16122E+01 0.00000E+00
 -1      3872 1.33113E+02 2.28016E+01 0.00000E+00
 -1      3873 1.33113E+02 2.13297E+01 0.00000E+00
 -1      3874 1.31880E+02 2.08253E+01 0.00000E+00
 -1      3875 1.33179E+02 2.00893E+01 0.00000E+00
 -1      3876 1.33244E+02 1.88490E+01 0.00000E+00
 -1      3877 4.15350E+01 1.69963E+01 0.00000E+00
 -1      3878 4.07850E+01 1.56973E+01 0.00000E+00
 -1      3879 3.92850E+01 1.56973E+01 0.00000E+00
 -1      3880 1.68870E+01 1.83484E+01 0.00000E+00
 -1      3881 1.68870E+01 1.98203E+01 0.00000E+00
 -1      3882 1.74000E+01 3.16443E+01 0.00000E+00
 -1      3883 1.81860E+01 2.05594E+01 0.00000E+00
 -1      3884 1.68870E+01 2.12953E+01 0.00000E+00
 -1      3885 1.68870E+01 2.27703E+01 0.00000E+00
 -1      3886 5.05350E+01 1.69963E+01 0.00000E+00
 -1      3887 4.97850E+01 1.56973E+01 0.00000E+00
 -1      3888 4.82850E+01 1.56973E+01 0.00000E+00
 -1      3889 2.12850E+01 1.56973E+01 0.00000E+00
 -1      3890 2.05351E+01 1.69963E+01 0.00000E+00
 -1      3891 2.27850E+01 1.56973E+01 0.00000E+00
 -1      3892 1.10189E+02 2.35621E+01 0.00000E+00
 -1      3893 1.09423E+02 2.46402E+01 0.00000E+00
 -1      3894 1.10186E+02 2.54198E+01 0.00000E+00
 -1      3895 7.46266E+01 2.70857E+01 0.00000E+00
 -1      3896 1.32531E+02 3.06195E+01 0.00000E+00
 -1      3897 1.32289E+02 1.75321E+01 0.00000E+00
 -1      3898 1.33113E+02 2.57414E+01 0.00000E+00
 -1      3899 1.33113E+02 2.42727E+01 0.00000E+00
 -1      3900 1.31814E+02 2.35367E+01 0.00000E+00
 -1      3901 1.31814E+02 2.64789E+01 0.00000E+00
 -1      3902 7.68753E+01 1.83617E+01 0.00000E+00
 -1      3903 1.09903E+02 2.81692E+01 0.00000E+00
 -1      3904 1.31232E+02 2.98820E+01 0.00000E+00
 -1      3905 7.54738E+01 2.23370E+01 0.00000E+00
 -1      3906 7.45332E+01 2.12440E+01 0.00000E+00
 -1      3907 7.47203E+01 2.30911E+01 0.00000E+00
 -1      3908 5.65350E+01 1.69963E+01 0.00000E+00
 -1      3909 7.55127E+01 1.88335E+01 0.00000E+00
 -1      3910 4.52850E+01 1.56973E+01 0.00000E+00
 -1      3911 4.45350E+01 1.69963E+01 0.00000E+00
 -1      3912 4.67850E+01 1.56973E+01 0.00000E+00
 -1      3913 1.11518E+02 3.08272E+01 0.00000E+00
 -1      3914 3.47850E+01 1.56973E+01 0.00000E+00
 -1      3915 3.32850E+01 1.56973E+01 0.00000E+00
 -1      3916 3.25350E+01 1.69963E+01 0.00000E+00
 -1      3917 7.28148E+01 2.49336E+01 0.00000E+00
 -1      3918 7.37676E+01 2.40124E+01 0.00000E+00
 -1      3919 7.28270E+01 2.29194E+01 0.00000E+00
 -1      3920 2.94000E+01 3.05150E+01 0.00000E+00
 -1      3921 3.09000E+01 3.05150E+01 0.00000E+00
 -1      3922 3.24000E+01 3.05150E+01 0.00000E+00
 -1      3923 3.39000E+01 3.05150E+01 0.00000E+00
 -1      3924 3.16500E+01 2.92160E+01 0.00000E+00
 -1      3925 3.54000E+01 3.05150E+01 0.00000E+00
 -1      3926 3.69000E+01 3.05150E+01 0.00000E+00
 -1      3927 3.46500E+01 2.92160E+01 0.00000E+00
 -1      3928 3.84000E+01 3.05150E+01 0.00000E+00
 -1      3929 3.99000E+01 3.05150E+01 0.00000E+00
 -1      3930 3.76500E+01 2.92160E+01 0.00000E+00
 -1      3931 4.14000E+01 3.05150E+01 0.00000E+00
 -1      3932 4.29000E+01 3.05150E+01 0.00000E+00
 -1      3933 4.06500E+01 2.92160E+01 0.00000E+00
 -1      3934 4.44000E+01 3.05150E+01 0.00000E+00
 -1      3935 4.59000E+01 3.05150E+01 0.00000E+00
 -1      3936 4.36500E+01 2.92160E+01 0.00000E+00
 -1      3937 4.74000E+01 3.05150E+01 0.00000E+00
 -1      3938 4.89000E+01 3.05150E+01 0.00000E+00
 -1      3939 4.66500E+01 2.92160E+01 0.00000E+00
 -1      3940 5.04000E+01 3.05150E+01 0.00000E+00
 -1      3941 5.19000E+01 3.05150E+01 0.00000E+00
 -1      3942 4.96500E+01 2.92160E+01 0.00000E+00
 -1      3943 5.34000E+01 3.05150E+01 0.00000E+00
 -1      3944 5.49000E+01 3.05150E+01 0.00000E+00
 -1      3945 5.26500E+01 2.92160E+01 0.00000E+00
 -1      3946 5.64000E+01 3.05150E+01 0.00000E+00
 -1      3947 5.79000E+01 3.05150E+01 0.00000E+00
 -1      3948 5.56500E+01 2.92160E+01 0.00000E+00
 -1      3949 5.94000E+01 3.05150E+01 0.00000E+00
 -1      3950 6.09000E+01 3.05150E+01 0.00000E+00
 -1      3951 5.86500E+01 2.92160E+01 0.00000E+00
 -1      3952 6.24000E+01 3.05150E+01 0.00000E+00
 -1      3953 6.39000E+01 3.05150E+01 0.00000E+00
 -1      3954 6.16500E+01 2.92160E+01 0.00000E+00
 -1      3955 6.54000E+01 3.05150E+01 0.00000E+00
 -1      3956 6.69000E+01 3.05150E+01 0.00000E+00
 -1      3957 6.46500E+01 2.92160E+01 0.00000E+00
 -1      3958 6.84000E+01 3.05150E+01 0.00000E+00
 -1      3959 6.99000E+01 3.05150E+01 0.00000E+00
 -1      3960 6.76500E+01 2.92160E+01 0.00000E+00
 -1      3961 7.14000E+01 3.05150E+01 0.00000E+00
 -1      3962 7.29000E+01 3.05150E+01 0.00000E+00
 -1      3963 7.06500E+01 2.92160E+01 0.00000E+00
 -1      3964 7.45898E+01 3.13364E+01 0.00000E+00
 -1      3965 1.13400E+02 3.05150E+01 0.00000E+00
 -1      3966 1.14900E+02 3.05150E+01 0.00000E+00
 -1      3967 1.73115E+01 1.73044E+01 0.00000E+00
 -1      3968 1.86105E+01 1.80403E+01 0.00000E+00
 -1      3969 1.16400E+02 3.05150E+01 0.00000E+00
 -1      3970 1.17900E+02 3.05150E+01 0.00000E+00
 -1      3971 1.15650E+02 2.92160E+01 0.00000E+00
 -1      3972 1.19400E+02 3.05150E+01 0.00000E+00
 -1      3973 1.20900E+02 3.05150E+01 0.00000E+00
 -1      3974 1.18650E+02 2.92160E+01 0.00000E+00
 -1      3975 1.22400E+02 3.05150E+01 0.00000E+00
 -1      3976 1.23900E+02 3.05150E+01 0.00000E+00
 -1      3977 1.21650E+02 2.92160E+01 0.00000E+00
 -1      3978 1.25400E+02 3.05150E+01 0.00000E+00
 -1      3979 1.26900E+02 3.05150E+01 0.00000E+00
 -1      3980 1.24650E+02 2.92160E+01 0.00000E+00
 -1      3981 1.28316E+02 3.01985E+01 0.00000E+00
 -1      3982 1.29816E+02 3.01985E+01 0.00000E+00
 -1      3983 1.30398E+02 2.82665E+01 0.00000E+00
 -1      3984 1.27566E+02 2.88995E+01 0.00000E+00
 -1      3985 1.68870E+01 2.42422E+01 0.00000E+00
 -1      3986 1.68870E+01 2.57141E+01 0.00000E+00
 -1      3987 1.81860E+01 2.35063E+01 0.00000E+00
 -1      3988 1.26285E+02 1.82502E+01 0.00000E+00
 -1      3989 1.24785E+02 1.82502E+01 0.00000E+00
 -1      3990 5.42850E+01 1.82952E+01 0.00000E+00
 -1      3991 5.27850E+01 1.82952E+01 0.00000E+00
 -1      3992 6.62850E+01 1.82952E+01 0.00000E+00
 -1      3993 6.47850E+01 1.82952E+01 0.00000E+00
 -1      3994 6.32850E+01 1.82952E+01 0.00000E+00
 -1      3995 6.17850E+01 1.82952E+01 0.00000E+00
 -1      3996 6.40350E+01 1.95942E+01 0.00000E+00
 -1      3997 7.22850E+01 1.82952E+01 0.00000E+00
 -1      3998 7.07850E+01 1.82952E+01 0.00000E+00
 -1      3999 7.41608E+01 1.87431E+01 0.00000E+00
 -1      4000 1.10797E+02 2.70054E+01 0.00000E+00
 -1      4001 1.11280E+02 2.86766E+01 0.00000E+00
 -1      4002 1.23285E+02 1.82502E+01 0.00000E+00
 -1      4003 1.21785E+02 1.82502E+01 0.00000E+00
 -1      4004 1.24035E+02 1.95492E+01 0.00000E+00
 -1      4005 6.02850E+01 1.82952E+01 0.00000E+00
 -1      4006 5.87850E+01 1.82952E+01 0.00000E+00
 -1      4007 6.10350E+01 1.95942E+01 0.00000E+00
 -1      4008 2.34000E+01 3.05150E+01 0.00000E+00
 -1      4009 2.49000E+01 3.05150E+01 0.00000E+00
 -1      4010 1.73115E+01 1.58325E+01 0.00000E+00
 -1      4011 1.20285E+02 1.82502E+01 0.00000E+00
 -1      4012 1.18785E+02 1.82502E+01 0.00000E+00
 -1      4013 1.21035E+02 1.95492E+01 0.00000E+00
 -1      4014 1.29285E+02 1.82502E+01 0.00000E+00
 -1      4015 1.27785E+02 1.82502E+01 0.00000E+00
 -1      4016 1.27035E+02 1.95492E+01 0.00000E+00
 -1      4017 7.38239E+01 2.86804E+01 0.00000E+00
 -1      4018 7.29527E+01 2.76213E+01 0.00000E+00
 -1      4019 6.92850E+01 1.82952E+01 0.00000E+00
 -1      4020 6.77850E+01 1.82952E+01 0.00000E+00
 -1      4021 6.70350E+01 1.95942E+01 0.00000E+00
 -1      4022 1.67642E+01 1.37415E+01 0.00000E+00
 -1      4023 1.65615E+01 1.45335E+01 0.00000E+00
 -1      4024 7.38398E+01 3.00374E+01 0.00000E+00
 -1      4025 2.01105E+01 1.80403E+01 0.00000E+00
 -1      4026 1.96860E+01 1.90844E+01 0.00000E+00
 -1      4027 2.16105E+01 1.80403E+01 0.00000E+00
 -1      4028 7.34108E+01 2.00421E+01 0.00000E+00
 -1      4029 1.17285E+02 1.82502E+01 0.00000E+00
 -1      4030 1.15785E+02 1.82502E+01 0.00000E+00
 -1      4031 1.18035E+02 1.95492E+01 0.00000E+00
 -1      4032 3.77850E+01 1.56973E+01 0.00000E+00
 -1      4033 3.62850E+01 1.56973E+01 0.00000E+00
 -1      4034 3.55350E+01 1.69963E+01 0.00000E+00
 -1      4035 3.85350E+01 1.69963E+01 0.00000E+00
 -1      4036 2.57850E+01 1.56973E+01 0.00000E+00
 -1      4037 2.42850E+01 1.56973E+01 0.00000E+00
 -1      4038 2.35351E+01 1.69963E+01 0.00000E+00
 -1      4039 2.04000E+01 3.05150E+01 0.00000E+00
 -1      4040 2.19000E+01 3.05150E+01 0.00000E+00
 -1      4041 2.26500E+01 2.92160E+01 0.00000E+00
 -1      4042 2.87850E+01 1.56973E+01 0.00000E+00
 -1      4043 2.72850E+01 1.56973E+01 0.00000E+00
 -1      4044 2.65350E+01 1.69963E+01 0.00000E+00
 -1      4045 2.95350E+01 1.69963E+01 0.00000E+00
 -1      4046 1.12268E+02 2.95282E+01 0.00000E+00
 -1      4047 5.72850E+01 1.82952E+01 0.00000E+00
 -1      4048 5.57850E+01 1.82952E+01 0.00000E+00
 -1      4049 5.50350E+01 1.95942E+01 0.00000E+00
 -1      4050 2.64000E+01 3.05150E+01 0.00000E+00
 -1      4051 2.79000E+01 3.05150E+01 0.00000E+00
 -1      4052 2.56500E+01 2.92160E+01 0.00000E+00
 -1      4053 7.26574E+01 2.07962E+01 0.00000E+00
 -1      4054 2.86500E+01 2.92160E+01 0.00000E+00
 -1      4055 1.30515E+02 2.42723E+01 0.00000E+00
 -1      4056 1.30515E+02 2.28012E+01 0.00000E+00
 -1      4057 1.11827E+02 1.91912E+01 0.00000E+00
 -1      4058 7.00350E+01 1.95942E+01 0.00000E+00
 -1      4059 4.22850E+01 1.82952E+01 0.00000E+00
 -1      4060 4.07850E+01 1.82952E+01 0.00000E+00
 -1      4061 4.52850E+01 1.82952E+01 0.00000E+00
 -1      4062 4.37850E+01 1.82952E+01 0.00000E+00
 -1      4063 4.30350E+01 1.95942E+01 0.00000E+00
 -1      4064 1.63727E+01 3.02641E+01 0.00000E+00
 -1      4065 1.86227E+01 3.04338E+01 0.00000E+00
 -1      4066 7.13311E+01 2.78722E+01 0.00000E+00
 -1      4067 7.21337E+01 2.62775E+01 0.00000E+00
 -1      4068 7.11932E+01 2.51845E+01 0.00000E+00
 -1      4069 6.98311E+01 2.78722E+01 0.00000E+00
 -1      4070 1.96860E+01 2.05594E+01 0.00000E+00
 -1      4071 5.12850E+01 1.82952E+01 0.00000E+00
 -1      4072 4.97850E+01 1.82952E+01 0.00000E+00
 -1      4073 5.20350E+01 1.95942E+01 0.00000E+00
 -1      4074 1.11563E+02 2.59272E+01 0.00000E+00
 -1      4075 1.11127E+02 2.23917E+01 0.00000E+00
 -1      4076 1.11890E+02 2.31713E+01 0.00000E+00
 -1      4077 1.12064E+02 2.12214E+01 0.00000E+00
 -1      4078 1.14445E+02 1.87448E+01 0.00000E+00
 -1      4079 1.13162E+02 2.83644E+01 0.00000E+00
 -1      4080 1.64822E+01 2.90079E+01 0.00000E+00
 -1      4081 1.30456E+02 2.70049E+01 0.00000E+00
 -1      4082 1.30456E+02 2.55338E+01 0.00000E+00
 -1      4083 1.29158E+02 2.47983E+01 0.00000E+00
 -1      4084 1.29040E+02 2.73214E+01 0.00000E+00
 -1      4085 1.65917E+01 2.77518E+01 0.00000E+00
 -1      4086 4.75350E+01 1.69963E+01 0.00000E+00
 -1      4087 1.28876E+02 2.15430E+01 0.00000E+00
 -1      4088 1.30174E+02 2.08074E+01 0.00000E+00
 -1      4089 1.30990E+02 1.82681E+01 0.00000E+00
 -1      4090 5.80350E+01 1.95942E+01 0.00000E+00
 -1      4091 1.93727E+01 2.91348E+01 0.00000E+00
 -1      4092 1.30240E+02 1.95671E+01 0.00000E+00
 -1      4093 3.02850E+01 1.82953E+01 0.00000E+00
 -1      4094 2.87850E+01 1.82953E+01 0.00000E+00
 -1      4095 3.32850E+01 1.82953E+01 0.00000E+00
 -1      4096 3.17850E+01 1.82953E+01 0.00000E+00
 -1      4097 3.10350E+01 1.95943E+01 0.00000E+00
 -1      4098 1.78907E+01 2.70159E+01 0.00000E+00
 -1      4099 7.17046E+01 2.17175E+01 0.00000E+00
 -1      4100 2.31105E+01 1.80403E+01 0.00000E+00
 -1      4101 2.26860E+01 1.90844E+01 0.00000E+00
 -1      4102 2.46105E+01 1.80403E+01 0.00000E+00
 -1      4103 3.39000E+01 2.79170E+01 0.00000E+00
 -1      4104 3.54000E+01 2.79170E+01 0.00000E+00
 -1      4105 3.69000E+01 2.79170E+01 0.00000E+00
 -1      4106 3.84000E+01 2.79170E+01 0.00000E+00
 -1      4107 3.61500E+01 2.66180E+01 0.00000E+00
 -1      4108 3.99000E+01 2.79170E+01 0.00000E+00
 -1      4109 4.14000E+01 2.79170E+01 0.00000E+00
 -1      4110 3.91500E+01 2.66180E+01 0.00000E+00
 -1      4111 4.29000E+01 2.79170E+01 0.00000E+00
 -1      4112 4.44000E+01 2.79170E+01 0.00000E+00
 -1      4113 4.21500E+01 2.66180E+01 0.00000E+00
 -1      4114 4.59000E+01 2.79170E+01 0.00000E+00
 -1      4115 4.74000E+01 2.79170E+01 0.00000E+00
 -1      4116 4.51500E+01 2.66180E+01 0.00000E+00
 -1      4117 4.89000E+01 2.79170E+01 0.00000E+00
 -1      4118 5.04000E+01 2.79170E+01 0.00000E+00
 -1      4119 4.81500E+01 2.66180E+01 0.00000E+00
 -1      4120 5.19000E+01 2.79170E+01 0.00000E+00
 -1      4121 5.34000E+01 2.79170E+01 0.00000E+00
 -1      4122 5.11500E+01 2.66180E+01 0.00000E+00
 -1      4123 5.49000E+01 2.79170E+01 0.00000E+00
 -1      4124 5.64000E+01 2.79170E+01 0.00000E+00
 -1      4125 5.41500E+01 2.66180E+01 0.00000E+00
 -1      4126 5.79000E+01 2.79170E+01 0.00000E+00
 -1      4127 5.94000E+01 2.79170E+01 0.00000E+00
 -1      4128 5.71500E+01 2.66180E+01 0.00000E+00
 -1      4129 6.09000E+01 2.79170E+01 0.00000E+00
 -1      4130 6.24000E+01 2.79170E+01 0.00000E+00
 -1      4131 6.01500E+01 2.66180E+01 0.00000E+00
 -1      4132 6.39000E+01 2.79170E+01 0.00000E+00
 -1      4133 6.54000E+01 2.79170E+01 0.00000E+00
 -1      4134 6.31500E+01 2.66180E+01 0.00000E+00
 -1      4135 6.68655E+01 2.78946E+01 0.00000E+00
 -1      4136 6.83655E+01 2.78946E+01 0.00000E+00
 -1      4137 6.90466E+01 2.65508E+01 0.00000E+00
 -1      4138 6.61155E+01 2.65956E+01 0.00000E+00
 -1      4139 2.13468E+01 2.07481E+01 0.00000E+00
 -1      4140 1.98468E+01 2.22231E+01 0.00000E+00
 -1      4141 5.87850E+01 2.08932E+01 0.00000E+00
 -1      4142 5.72850E+01 2.08932E+01 0.00000E+00
 -1      4143 5.57850E+01 2.08932E+01 0.00000E+00
 -1      4144 5.42850E+01 2.08932E+01 0.00000E+00
 -1      4145 5.65350E+01 2.21922E+01 0.00000E+00
 -1      4146 1.17900E+02 2.79170E+01 0.00000E+00
 -1      4147 1.19400E+02 2.79170E+01 0.00000E+00
 -1      4148 1.20900E+02 2.79170E+01 0.00000E+00
 -1      4149 1.22400E+02 2.79170E+01 0.00000E+00
 -1      4150 1.20150E+02 2.66180E+01 0.00000E+00
 -1      4151 1.23900E+02 2.79170E+01 0.00000E+00
 -1      4152 1.25400E+02 2.79170E+01 0.00000E+00
 -1      4153 1.23150E+02 2.66180E+01 0.00000E+00
 -1      4154 1.26512E+02 2.77775E+01 0.00000E+00
 -1      4155 1.27928E+02 2.74610E+01 0.00000E+00
 -1      4156 1.27987E+02 2.61994E+01 0.00000E+00
 -1      4157 1.25762E+02 2.64785E+01 0.00000E+00
 -1      4158 1.12501E+02 2.47569E+01 0.00000E+00
 -1      4159 1.13112E+02 2.63425E+01 0.00000E+00
 -1      4160 1.13439E+02 2.35865E+01 0.00000E+00
 -1      4161 4.00350E+01 1.95942E+01 0.00000E+00
 -1      4162 3.92850E+01 1.82952E+01 0.00000E+00
 -1      4163 3.77850E+01 1.82952E+01 0.00000E+00
 -1      4164 2.19000E+01 2.79170E+01 0.00000E+00
 -1      4165 2.34000E+01 2.79170E+01 0.00000E+00
 -1      4166 6.17850E+01 2.08932E+01 0.00000E+00
 -1      4167 6.02850E+01 2.08932E+01 0.00000E+00
 -1      4168 5.95350E+01 2.21922E+01 0.00000E+00
 -1      4169 2.74478E+01 1.81678E+01 0.00000E+00
 -1      4170 2.59478E+01 1.81678E+01 0.00000E+00
 -1      4171 2.55233E+01 1.92118E+01 0.00000E+00
 -1      4172 2.81978E+01 1.94668E+01 0.00000E+00
 -1      4173 1.21785E+02 2.08482E+01 0.00000E+00
 -1      4174 1.20285E+02 2.08482E+01 0.00000E+00
 -1      4175 7.06989E+01 2.34510E+01 0.00000E+00
 -1      4176 7.05293E+01 2.13278E+01 0.00000E+00
 -1      4177 6.90293E+01 2.13278E+01 0.00000E+00
 -1      4178 7.00178E+01 2.47948E+01 0.00000E+00
 -1      4179 6.75293E+01 2.13278E+01 0.00000E+00
 -1      4180 6.60293E+01 2.13278E+01 0.00000E+00
 -1      4181 6.80236E+01 2.30613E+01 0.00000E+00
 -1      4182 1.24785E+02 2.08482E+01 0.00000E+00
 -1      4183 1.23285E+02 2.08482E+01 0.00000E+00
 -1      4184 1.22535E+02 2.21472E+01 0.00000E+00
 -1      4185 2.49000E+01 2.79170E+01 0.00000E+00
 -1      4186 2.64000E+01 2.79170E+01 0.00000E+00
 -1      4187 2.41500E+01 2.66180E+01 0.00000E+00
 -1      4188 6.46571E+01 2.11105E+01 0.00000E+00
 -1      4189 6.31571E+01 2.11105E+01 0.00000E+00
 -1      4190 6.24071E+01 2.24095E+01 0.00000E+00
 -1      4191 6.51514E+01 2.28440E+01 0.00000E+00
 -1      4192 1.13887E+02 2.73535E+01 0.00000E+00
 -1      4193 1.14875E+02 2.82050E+01 0.00000E+00
 -1      4194 1.16375E+02 2.82050E+01 0.00000E+00
 -1      4195 1.14825E+02 2.61831E+01 0.00000E+00
 -1      4196 1.18785E+02 2.08482E+01 0.00000E+00
 -1      4197 1.17285E+02 2.08482E+01 0.00000E+00
 -1      4198 1.19535E+02 2.21472E+01 0.00000E+00
 -1      4199 1.96680E+01 2.70971E+01 0.00000E+00
 -1      4200 2.79000E+01 2.79170E+01 0.00000E+00
 -1      4201 2.94000E+01 2.79170E+01 0.00000E+00
 -1      4202 2.71500E+01 2.66180E+01 0.00000E+00
 -1      4203 3.09000E+01 2.79170E+01 0.00000E+00
 -1      4204 3.24000E+01 2.79170E+01 0.00000E+00
 -1      4205 3.31500E+01 2.66180E+01 0.00000E+00
 -1      4206 3.01500E+01 2.66180E+01 0.00000E+00
 -1      4207 4.82850E+01 1.82952E+01 0.00000E+00
 -1      4208 4.67850E+01 1.82952E+01 0.00000E+00
 -1      4209 4.60350E+01 1.95942E+01 0.00000E+00
 -1      4210 4.90350E+01 1.95942E+01 0.00000E+00
 -1      4211 2.04180E+01 2.57981E+01 0.00000E+00
 -1      4212 1.98468E+01 2.36950E+01 0.00000E+00
 -1      4213 2.28468E+01 2.07481E+01 0.00000E+00
 -1      4214 1.13918E+02 1.99955E+01 0.00000E+00
 -1      4215 3.62850E+01 1.82953E+01 0.00000E+00
 -1      4216 3.47850E+01 1.82953E+01 0.00000E+00
 -1      4217 3.40350E+01 1.95943E+01 0.00000E+00
 -1      4218 3.70350E+01 1.95943E+01 0.00000E+00
 -1      4219 5.35350E+01 2.21922E+01 0.00000E+00
 -1      4220 5.27850E+01 2.08932E+01 0.00000E+00
 -1      4221 5.12850E+01 2.08932E+01 0.00000E+00
 -1      4222 4.37850E+01 2.08932E+01 0.00000E+00
 -1      4223 4.22850E+01 2.08932E+01 0.00000E+00
 -1      4224 1.17125E+02 2.69060E+01 0.00000E+00
 -1      4225 1.28045E+02 2.49378E+01 0.00000E+00
 -1      4226 1.28104E+02 2.36763E+01 0.00000E+00
 -1      4227 1.26933E+02 2.50774E+01 0.00000E+00
 -1      4228 4.15350E+01 2.21922E+01 0.00000E+00
 -1      4229 4.07850E+01 2.08932E+01 0.00000E+00
 -1      4230 3.92850E+01 2.08932E+01 0.00000E+00
 -1      4231 2.20788E+01 2.45149E+01 0.00000E+00
 -1      4232 1.27785E+02 2.08482E+01 0.00000E+00
 -1      4233 1.26285E+02 2.08482E+01 0.00000E+00
 -1      4234 2.87431E+01 2.08237E+01 0.00000E+00
 -1      4235 2.74059E+01 2.06962E+01 0.00000E+00
 -1      4236 1.25535E+02 2.21472E+01 0.00000E+00
 -1      4237 1.28126E+02 2.28420E+01 0.00000E+00
 -1      4238 1.27013E+02 2.29815E+01 0.00000E+00
 -1      4239 3.17431E+01 2.08237E+01 0.00000E+00
 -1      4240 3.02431E+01 2.08237E+01 0.00000E+00
 -1      4241 2.94512E+01 2.20531E+01 0.00000E+00
 -1      4242 3.84000E+01 2.53190E+01 0.00000E+00
 -1      4243 3.99000E+01 2.53190E+01 0.00000E+00
 -1      4244 4.18425E+01 2.44051E+01 0.00000E+00
 -1      4245 4.33425E+01 2.44051E+01 0.00000E+00
 -1      4246 4.74000E+01 2.53190E+01 0.00000E+00
 -1      4247 4.89000E+01 2.53190E+01 0.00000E+00
 -1      4248 5.08425E+01 2.44051E+01 0.00000E+00
 -1      4249 5.23425E+01 2.44051E+01 0.00000E+00
 -1      4250 5.38425E+01 2.44051E+01 0.00000E+00
 -1      4251 5.53425E+01 2.44051E+01 0.00000E+00
 -1      4252 5.68425E+01 2.44051E+01 0.00000E+00
 -1      4253 5.83425E+01 2.44051E+01 0.00000E+00
 -1      4254 5.98425E+01 2.44051E+01 0.00000E+00
 -1      4255 6.13425E+01 2.44051E+01 0.00000E+00
 -1      4256 6.27146E+01 2.46224E+01 0.00000E+00
 -1      4257 6.42146E+01 2.46224E+01 0.00000E+00
 -1      4258 2.60686E+01 2.05687E+01 0.00000E+00
 -1      4259 2.47314E+01 2.04412E+01 0.00000E+00
 -1      4260 2.66140E+01 2.19256E+01 0.00000E+00
 -1      4261 1.16535E+02 2.21472E+01 0.00000E+00
 -1      4262 1.15785E+02 2.08482E+01 0.00000E+00
 -1      4263 3.54000E+01 2.53190E+01 0.00000E+00
 -1      4264 3.69000E+01 2.53190E+01 0.00000E+00
 -1      4265 3.76500E+01 2.40200E+01 0.00000E+00
 -1      4266 4.52850E+01 2.08932E+01 0.00000E+00
 -1      4267 4.45350E+01 2.21922E+01 0.00000E+00
 -1      4268 4.67850E+01 2.08932E+01 0.00000E+00
 -1      4269 1.19842E+02 2.43826E+01 0.00000E+00
 -1      4270 1.21342E+02 2.43826E+01 0.00000E+00
 -1      4271 1.22842E+02 2.43826E+01 0.00000E+00
 -1      4272 1.24342E+02 2.43826E+01 0.00000E+00
 -1      4273 1.14895E+02 2.47408E+01 0.00000E+00
 -1      4274 1.15670E+02 2.57518E+01 0.00000E+00
 -1      4275 1.17195E+02 2.54637E+01 0.00000E+00
 -1      4276 1.14284E+02 2.31552E+01 0.00000E+00
 -1      4277 1.13168E+02 2.12945E+01 0.00000E+00
 -1      4278 1.25842E+02 2.43826E+01 0.00000E+00
 -1      4279 6.85523E+01 2.48172E+01 0.00000E+00
 -1      4280 2.39634E+01 2.42081E+01 0.00000E+00
 -1      4281 2.54634E+01 2.42081E+01 0.00000E+00
 -1      4282 2.33921E+01 2.21050E+01 0.00000E+00
 -1      4283 2.68006E+01 2.43355E+01 0.00000E+00
 -1      4284 2.83006E+01 2.43355E+01 0.00000E+00
 -1      4285 6.70523E+01 2.48172E+01 0.00000E+00
 -1      4286 4.48425E+01 2.44051E+01 0.00000E+00
 -1      4287 2.98006E+01 2.43355E+01 0.00000E+00
 -1      4288 3.24000E+01 2.53190E+01 0.00000E+00
 -1      4289 3.39000E+01 2.53190E+01 0.00000E+00
 -1      4290 3.46500E+01 2.40200E+01 0.00000E+00
 -1      4291 3.73425E+01 2.18071E+01 0.00000E+00
 -1      4292 3.58425E+01 2.18071E+01 0.00000E+00
 -1      4293 3.13006E+01 2.43355E+01 0.00000E+00
 -1      4294 4.97850E+01 2.08932E+01 0.00000E+00
 -1      4295 4.82850E+01 2.08932E+01 0.00000E+00
 -1      4296 4.75350E+01 2.21922E+01 0.00000E+00
 -1      4297 5.05350E+01 2.21922E+01 0.00000E+00
 -1      4298 4.63425E+01 2.44051E+01 0.00000E+00
 -1      4299 6.55868E+01 2.48397E+01 0.00000E+00
 -1      4300 1.18387E+02 2.32283E+01 0.00000E+00
 -1      4301 3.43425E+01 2.18071E+01 0.00000E+00
 -1      4302 3.28425E+01 2.18071E+01 0.00000E+00
 -1      4303 4.10925E+01 2.31061E+01 0.00000E+00
 -1      4304 3.20506E+01 2.30365E+01 0.00000E+00
 -1      4305 3.80925E+01 2.31061E+01 0.00000E+00
 -1      4306 5.00925E+01 2.31061E+01 0.00000E+00
 -1      4307 1.16887E+02 2.32283E+01 0.00000E+00
 -1      4308 1.15387E+02 2.32283E+01 0.00000E+00
 -1      4309 1.25821E+02 2.52169E+01 0.00000E+00
 -1      4310 4.70925E+01 2.31061E+01 0.00000E+00
 -1      4311 1.13520E+02 2.23757E+01 0.00000E+00
 -1      4312 3.95925E+01 2.31061E+01 0.00000E+00
 -1      4313 4.85925E+01 2.31061E+01 0.00000E+00
 -3
    3C                          2075                                     1
 -1       164    8    0    1
 -2         6         7        23      1120      1283      1137
 -1       165    8    0    1
 -2         7         8       164      1121      1284      1285
 -1       166    8    0    1
 -2         8         9       165      1122      1286      1287
 -1       167    8    0    1
 -2         8       165       164      1287      1288      1284
 -1       168    8    0    1
 -2         9        10       166      1123      1289      1290
 -1       169    8    0    1
 -2         9       166       165      1290      1291      1286
 -1       170    8    0    1
 -2        10        11       167      1124      1292      1293
 -1       171    8    0    1
 -2        10       167       166      1293      1294      1289
 -1       172    8    0    1
 -2        11        12       168      1125      1295      1296
 -1       173    8    0    1
 -2        11       168       167      1296      1297      1292
 -1       174    8    0    1
 -2        12        13       169      1126      1298      1299
 -1       175    8    0    1
 -2        12       169       168      1299      1300      1295
 -1       176    8    0    1
 -2        13        14       170      1127      1301      1302
 -1       177    8    0    1
 -2        13       170       169      1302      1303      1298
 -1       178    8    0    1
 -2        14        15       171      1128      1304      1305
 -1       179    8    0    1
 -2        14       171       170      1305      1306      1301
 -1       180    8    0    1
 -2        15        16       172      1129      1307      1308
 -1       181    8    0    1
 -2        15       172       171      1308      1309      1304
 -1       182    8    0    1
 -2        16        17       173      1130      1310      1311
 -1       183    8    0    1
 -2        16       173       172      1311      1312      1307
 -1       184    8    0    1
 -2        17        18       174      1131      1313      1314
 -1       185    8    0    1
 -2        17       174       173      1314      1315      1310
 -1       186    8    0    1
 -2        18        19       175      1132      1316      1317
 -1       187    8    0    1
 -2        18       175       174      1317      1318      1313
 -1       188    8    0    1
 -2        19        20       176      1133      1319      1320
 -1       189    8    0    1
 -2        19       176       175      1320      1321      1316
 -1       190    8    0    1
 -2        20        21       177      1134      1322      1323
 -1       191    8    0    1
 -2        20       177       176      1323      1324      1319
 -1       192    8    0    1
 -2        21        22       178      1135      1325      1326
 -1       193    8    0    1
 -2        21       178       177      1326      1327      1322
 -1       194    8    0    1
 -2        22         5       179      1136      1328      1329
 -1       195    8    0    1
 -2       178        22       179      1325      1329      1330
 -1       196    8    0    1
 -2         5        72       179      1187      1331      1328
 -1       197    8    0    1
 -2        24        23       180      1138      1332      1333
 -1       198    8    0    1
 -2        25        24       181      1139      1334      1335
 -1       199    8    0    1
 -2        24       180       181      1333      1336      1334
 -1       200    8    0    1
 -2        26        25       182      1140      1337      1338
 -1       201    8    0    1
 -2        25       181       182      1335      1339      1337
 -1       202    8    0    1
 -2        27        26       183      1141      1340      1341
 -1       203    8    0    1
 -2        26       182       183      1338      1342      1340
 -1       204    8    0    1
 -2        28        27       184      1142      1343      1344
 -1       205    8    0    1
 -2        27       183       184      1341      1345      1343
 -1       206    8    0    1
 -2        29        28       185      1143      1346      1347
 -1       207    8    0    1
 -2        28       184       185      1344      1348      1346
 -1       208    8    0    1
 -2        30        29       186      1144      1349      1350
 -1       209    8    0    1
 -2        29       185       186      1347      1351      1349
 -1       210    8    0    1
 -2        31        30       187      1145      1352      1353
 -1       211    8    0    1
 -2        30       186       187      1350      1354      1352
 -1       212    8    0    1
 -2        32        31       188      1146      1355      1356
 -1       213    8    0    1
 -2        31       187       188      1353      1357      1355
 -1       214    8    0    1
 -2        33        32       189      1147      1358      1359
 -1       215    8    0    1
 -2        32       188       189      1356      1360      1358
 -1       216    8    0    1
 -2        34        33       190      1148      1361      1362
 -1       217    8    0    1
 -2        33       189       190      1359      1363      1361
 -1       218    8    0    1
 -2        35        34       191      1149      1364      1365
 -1       219    8    0    1
 -2        34       190       191      1362      1366      1364
 -1       220    8    0    1
 -2        36        35       192      1150      1367      1368
 -1       221    8    0    1
 -2        35       191       192      1365      1369      1367
 -1       222    8    0    1
 -2        37        36       193      1151      1370      1371
 -1       223    8    0    1
 -2        36       192       193      1368      1372      1370
 -1       224    8    0    1
 -2        38        37       194      1152      1373      1374
 -1       225    8    0    1
 -2        37       193       194      1371      1375      1373
 -1       226    8    0    1
 -2        39        38       195      1153      1376      1377
 -1       227    8    0    1
 -2        38       194       195      1374      1378      1376
 -1       228    8    0    1
 -2        40        39       196      1154      1379      1380
 -1       229    8    0    1
 -2        39       195       196      1377      1381      1379
 -1       230    8    0    1
 -2        41        40       197      1155      1382      1383
 -1       231    8    0    1
 -2        40       196       197      1380      1384      1382
 -1       232    8    0    1
 -2        42        41       198      1156      1385      1386
 -1       233    8    0    1
 -2        41       197       198      1383      1387      1385
 -1       234    8    0    1
 -2        43        42       199      1157      1388      1389
 -1       235    8    0    1
 -2        42       198       199      1386      1390      1388
 -1       236    8    0    1
 -2        44        43       200      1158      1391      1392
 -1       237    8    0    1
 -2        43       199       200      1389      1393      1391
 -1       238    8    0    1
 -2        45        44       201      1159      1394      1395
 -1       239    8    0    1
 -2        44       200       201      1392      1396      1394
 -1       240    8    0    1
 -2        46        45       202      1160      1397      1398
 -1       241    8    0    1
 -2        45       201       202      1395      1399      1397
 -1       242    8    0    1
 -2        47        46       203      1161      1400      1401
 -1       243    8    0    1
 -2        46       202       203      1398      1402      1400
 -1       244    8    0    1
 -2        48        47       204      1162      1403      1404
 -1       245    8    0    1
 -2        47       203       204      1401      1405      1403
 -1       246    8    0    1
 -2        49        48       205      1163      1406      1407
 -1       247    8    0    1
 -2        48       204       205      1404      1408      1406
 -1       248    8    0    1
 -2        50        49       206      1164      1409      1410
 -1       249    8    0    1
 -2        49       205       206      1407      1411      1409
 -1       250    8    0    1
 -2        51        50       207      1165      1412      1413
 -1       251    8    0    1
 -2        50       206       207      1410      1414      1412
 -1       252    8    0    1
 -2        52        51       208      1166      1415      1416
 -1       253    8    0    1
 -2        51       207       208      1413      1417      1415
 -1       254    8    0    1
 -2        53        52       209      1167      1418      1419
 -1       255    8    0    1
 -2        52       208       209      1416      1420      1418
 -1       256    8    0    1
 -2        54        53       210      1168      1421      1422
 -1       257    8    0    1
 -2        53       209       210      1419      1423      1421
 -1       258    8    0    1
 -2        55        54       211      1169      1424      1425
 -1       259    8    0    1
 -2        54       210       211      1422      1426      1424
 -1       260    8    0    1
 -2        56        55       212      1170      1427      1428
 -1       261    8    0    1
 -2        55       211       212      1425      1429      1427
 -1       262    8    0    1
 -2        57        56       213      1171      1430      1431
 -1       263    8    0    1
 -2        56       212       213      1428      1432      1430
 -1       264    8    0    1
 -2        58        57       214      1172      1433      1434
 -1       265    8    0    1
 -2        57       213       214      1431      1435      1433
 -1       266    8    0    1
 -2        59        58       215      1173      1436      1437
 -1       267    8    0    1
 -2        58       214       215      1434      1438      1436
 -1       268    8    0    1
 -2        60        59       216      1174      1439      1440
 -1       269    8    0    1
 -2        59       215       216      1437      1441      1439
 -1       270    8    0    1
 -2        61        60       217      1175      1442      1443
 -1       271    8    0    1
 -2        60       216       217      1440      1444      1442
 -1       272    8    0    1
 -2        62        61       218      1176      1445      1446
 -1       273    8    0    1
 -2        61       217       218      1443      1447      1445
 -1       274    8    0    1
 -2        63        62       219      1177      1448      1449
 -1       275    8    0    1
 -2        62       218       219      1446      1450      1448
 -1       276    8    0    1
 -2        64        63       220      1178      1451      1452
 -1       277    8    0    1
 -2        63       219       220      1449      1453      1451
 -1       278    8    0    1
 -2        65        64       221      1179      1454      1455
 -1       279    8    0    1
 -2        64       220       221      1452      1456      1454
 -1       280    8    0    1
 -2        66        65       222      1180      1457      1458
 -1       281    8    0    1
 -2        65       221       222      1455      1459      1457
 -1       282    8    0    1
 -2        67        66       223      1181      1460      1461
 -1       283    8    0    1
 -2        66       222       223      1458      1462      1460
 -1       284    8    0    1
 -2        68        67       224      1182      1463      1464
 -1       285    8    0    1
 -2        67       223       224      1461      1465      1463
 -1       286    8    0    1
 -2        69        68       225      1183      1466      1467
 -1       287    8    0    1
 -2        68       224       225      1464      1468      1466
 -1       288    8    0    1
 -2        70        69       226      1184      1469      1470
 -1       289    8    0    1
 -2        69       225       226      1467      1471      1469
 -1       290    8    0    1
 -2        71        70       227      1185      1472      1473
 -1       291    8    0    1
 -2        70       226       227      1470      1474      1472
 -1       292    8    0    1
 -2         4        71       136      1186      1475      1253
 -1       293    8    0    1
 -2       136        71       227      1475      1473      1476
 -1       294    8    0    1
 -2        72        73       228      1188      1477      1478
 -1       295    8    0    1
 -2        72       228       179      1478      1479      1331
 -1       296    8    0    1
 -2        73        74       229      1189      1480      1481
 -1       297    8    0    1
 -2        73       229       228      1481      1482      1477
 -1       298    8    0    1
 -2        74        75       230      1190      1483      1484
 -1       299    8    0    1
 -2        74       230       229      1484      1485      1480
 -1       300    8    0    1
 -2        75        76       231      1191      1486      1487
 -1       301    8    0    1
 -2        75       231       230      1487      1488      1483
 -1       302    8    0    1
 -2        76        77       232      1192      1489      1490
 -1       303    8    0    1
 -2        76       232       231      1490      1491      1486
 -1       304    8    0    1
 -2        77        78       233      1193      1492      1493
 -1       305    8    0    1
 -2        77       233       232      1493      1494      1489
 -1       306    8    0    1
 -2        78        79       234      1194      1495      1496
 -1       307    8    0    1
 -2        78       234       233      1496      1497      1492
 -1       308    8    0    1
 -2        79        80       235      1195      1498      1499
 -1       309    8    0    1
 -2        79       235       234      1499      1500      1495
 -1       310    8    0    1
 -2        80        81       236      1196      1501      1502
 -1       311    8    0    1
 -2        80       236       235      1502      1503      1498
 -1       312    8    0    1
 -2        81        82       237      1197      1504      1505
 -1       313    8    0    1
 -2        81       237       236      1505      1506      1501
 -1       314    8    0    1
 -2        82        83       238      1198      1507      1508
 -1       315    8    0    1
 -2        82       238       237      1508      1509      1504
 -1       316    8    0    1
 -2        83        84       239      1199      1510      1511
 -1       317    8    0    1
 -2        83       239       238      1511      1512      1507
 -1       318    8    0    1
 -2        84        85       240      1200      1513      1514
 -1       319    8    0    1
 -2        84       240       239      1514      1515      1510
 -1       320    8    0    1
 -2        85        86       241      1201      1516      1517
 -1       321    8    0    1
 -2        85       241       240      1517      1518      1513
 -1       322    8    0    1
 -2        86        87       242      1202      1519      1520
 -1       323    8    0    1
 -2        86       242       241      1520      1521      1516
 -1       324    8    0    1
 -2        87        88       243      1203      1522      1523
 -1       325    8    0    1
 -2        87       243       242      1523      1524      1519
 -1       326    8    0    1
 -2        88        89       244      1204      1525      1526
 -1       327    8    0    1
 -2        88       244       243      1526      1527      1522
 -1       328    8    0    1
 -2        89        90       245      1205      1528      1529
 -1       329    8    0    1
 -2        89       245       244      1529      1530      1525
 -1       330    8    0    1
 -2        90        91       246      1206      1531      1532
 -1       331    8    0    1
 -2        90       246       245      1532      1533      1528
 -1       332    8    0    1
 -2        91        92       247      1207      1534      1535
 -1       333    8    0    1
 -2        91       247       246      1535      1536      1531
 -1       334    8    0    1
 -2        92        93       248      1208      1537      1538
 -1       335    8    0    1
 -2        92       248       247      1538      1539      1534
 -1       336    8    0    1
 -2        93        94       249      1209      1540      1541
 -1       337    8    0    1
 -2        93       249       248      1541      1542      1537
 -1       338    8    0    1
 -2        94        95       250      1210      1543      1544
 -1       339    8    0    1
 -2        94       250       249      1544      1545      1540
 -1       340    8    0    1
 -2        95        96       251      1211      1546      1547
 -1       341    8    0    1
 -2        95       251       250      1547      1548      1543
 -1       342    8    0    1
 -2        96        97       252      1212      1549      1550
 -1       343    8    0    1
 -2        96       252       251      1550      1551      1546
 -1       344    8    0    1
 -2        97        98       253      1213      1552      1553
 -1       345    8    0    1
 -2        97       253       252      1553      1554      1549
 -1       346    8    0    1
 -2        98        99       254      1214      1555      1556
 -1       347    8    0    1
 -2        98       254       253      1556      1557      1552
 -1       348    8    0    1
 -2        99       100       255      1215      1558      1559
 -1       349    8    0    1
 -2        99       255       254      1559      1560      1555
 -1       350    8    0    1
 -2       100       101       256      1216      1561      1562
 -1       351    8    0    1
 -2       100       256       255      1562      1563      1558
 -1       352    8    0    1
 -2       101       102       257      1217      1564      1565
 -1       353    8    0    1
 -2       101       257       256      1565      1566      1561
 -1       354    8    0    1
 -2       102       103       258      1218      1567      1568
 -1       355    8    0    1
 -2       102       258       257      1568      1569      1564
 -1       356    8    0    1
 -2       103       104       259      1219      1570      1571
 -1       357    8    0    1
 -2       103       259       258      1571      1572      1567
 -1       358    8    0    1
 -2       104       105       260      1220      1573      1574
 -1       359    8    0    1
 -2       104       260       259      1574      1575      1570
 -1       360    8    0    1
 -2       105       106       261      1221      1576      1577
 -1       361    8    0    1
 -2       105       261       260      1577      1578      1573
 -1       362    8    0    1
 -2       106       107       262      1222      1579      1580
 -1       363    8    0    1
 -2       106       262       261      1580      1581      1576
 -1       364    8    0    1
 -2       107       108       263      1223      1582      1583
 -1       365    8    0    1
 -2       107       263       262      1583      1584      1579
 -1       366    8    0    1
 -2       108       109       264      1224      1585      1586
 -1       367    8    0    1
 -2       108       264       263      1586      1587      1582
 -1       368    8    0    1
 -2       109       110       265      1225      1588      1589
 -1       369    8    0    1
 -2       109       265       264      1589      1590      1585
 -1       370    8    0    1
 -2       110       111       266      1226      1591      1592
 -1       371    8    0    1
 -2       110       266       265      1592      1593      1588
 -1       372    8    0    1
 -2       111       112       267      1227      1594      1595
 -1       373    8    0    1
 -2       111       267       266      1595      1596      1591
 -1       374    8    0    1
 -2       112       113       268      1228      1597      1598
 -1       375    8    0    1
 -2       112       268       267      1598      1599      1594
 -1       376    8    0    1
 -2       113       114       269      1229      1600      1601
 -1       377    8    0    1
 -2       113       269       268      1601      1602      1597
 -1       378    8    0    1
 -2       114       115       270      1230      1603      1604
 -1       379    8    0    1
 -2       114       270       269      1604      1605      1600
 -1       380    8    0    1
 -2       115       116       271      1231      1606      1607
 -1       381    8    0    1
 -2       115       271       270      1607      1608      1603
 -1       382    8    0    1
 -2       116       117       272      1232      1609      1610
 -1       383    8    0    1
 -2       116       272       271      1610      1611      1606
 -1       384    8    0    1
 -2       117       118       273      1233      1612      1613
 -1       385    8    0    1
 -2       117       273       272      1613      1614      1609
 -1       386    8    0    1
 -2       118       119       274      1234      1615      1616
 -1       387    8    0    1
 -2       118       274       273      1616      1617      1612
 -1       388    8    0    1
 -2       119       120       275      1235      1618      1619
 -1       389    8    0    1
 -2       119       275       274      1619      1620      1615
 -1       390    8    0    1
 -2       120         3       121      1236      1237      1621
 -1       391    8    0    1
 -2       121       122       276      1238      1622      1623
 -1       392    8    0    1
 -2       122       123       277      1239      1624      1625
 -1       393    8    0    1
 -2       122       277       276      1625      1626      1622
 -1       394    8    0    1
 -2       123       124       278      1240      1627      1628
 -1       395    8    0    1
 -2       123       278       277      1628      1629      1624
 -1       396    8    0    1
 -2       124       125       279      1241      1630      1631
 -1       397    8    0    1
 -2       124       279       278      1631      1632      1627
 -1       398    8    0    1
 -2       125       126       280      1242      1633      1634
 -1       399    8    0    1
 -2       125       280       279      1634      1635      1630
 -1       400    8    0    1
 -2       126       127       281      1243      1636      1637
 -1       401    8    0    1
 -2       126       281       280      1637      1638      1633
 -1       402    8    0    1
 -2       127       128       282      1244      1639      1640
 -1       403    8    0    1
 -2       127       282       281      1640      1641      1636
 -1       404    8    0    1
 -2       128       129       283      1245      1642      1643
 -1       405    8    0    1
 -2       128       283       282      1643      1644      1639
 -1       406    8    0    1
 -2       129       130       284      1246      1645      1646
 -1       407    8    0    1
 -2       129       284       283      1646      1647      1642
 -1       408    8    0    1
 -2       130       131       285      1247      1648      1649
 -1       409    8    0    1
 -2       130       285       284      1649      1650      1645
 -1       410    8    0    1
 -2       131       132       286      1248      1651      1652
 -1       411    8    0    1
 -2       131       286       285      1652      1653      1648
 -1       412    8    0    1
 -2       132       133       287      1249      1654      1655
 -1       413    8    0    1
 -2       132       287       286      1655      1656      1651
 -1       414    8    0    1
 -2       133       134       288      1250      1657      1658
 -1       415    8    0    1
 -2       133       288       287      1658      1659      1654
 -1       416    8    0    1
 -2       134       135       289      1251      1660      1661
 -1       417    8    0    1
 -2       134       289       288      1661      1662      1657
 -1       418    8    0    1
 -2       135       136       290      1252      1663      1664
 -1       419    8    0    1
 -2       289       135       290      1660      1664      1665
 -1       420    8    0    1
 -2       136       227       290      1476      1666      1663
 -1       421    8    0    1
 -2         2       137       291      1254      1667      1668
 -1       422    8    0    1
 -2       137       138       292      1255      1669      1670
 -1       423    8    0    1
 -2       138       139       293      1256      1671      1672
 -1       424    8    0    1
 -2       139       140       294      1257      1673      1674
 -1       425    8    0    1
 -2       140       141       295      1258      1675      1676
 -1       426    8    0    1
 -2       141       142       296      1259      1677      1678
 -1       427    8    0    1
 -2       142       143       297      1260      1679      1680
 -1       428    8    0    1
 -2       143       144       298      1261      1681      1682
 -1       429    8    0    1
 -2       144       145       299      1262      1683      1684
 -1       430    8    0    1
 -2       145       146       300      1263      1685      1686
 -1       431    8    0    1
 -2       146       147       301      1264      1687      1688
 -1       432    8    0    1
 -2       147       148       302      1265      1689      1690
 -1       433    8    0    1
 -2       148       149       303      1266      1691      1692
 -1       434    8    0    1
 -2       149       150       304      1267      1693      1694
 -1       435    8    0    1
 -2       150       151       305      1268      1695      1696
 -1       436    8    0    1
 -2       151       152       306      1269      1697      1698
 -1       437    8    0    1
 -2       152       153       307      1270      1699      1700
 -1       438    8    0    1
 -2       153       154       308      1271      1701      1702
 -1       439    8    0    1
 -2       154       155       309      1272      1703      1704
 -1       440    8    0    1
 -2       155       156       310      1273      1705      1706
 -1       441    8    0    1
 -2       156       157       311      1274      1707      1708
 -1       442    8    0    1
 -2       157       158       312      1275      1709      1710
 -1       443    8    0    1
 -2       158       159       313      1276      1711      1712
 -1       444    8    0    1
 -2       159       160       314      1277      1713      1714
 -1       445    8    0    1
 -2       160       161       315      1278      1715      1716
 -1       446    8    0    1
 -2       161         1       316      1279      1717      1718
 -1       447    8    0    1
 -2         1       162       317      1280      1719      1720
 -1       448    8    0    1
 -2       162       163       318      1281      1721      1722
 -1       449    8    0    1
 -2       163         2       319      1282      1723      1724
 -1       450    8    0    1
 -2       294       140       295      1673      1676      1725
 -1       451    8    0    1
 -2       293       139       294      1671      1674      1726
 -1       452    8    0    1
 -2       120       121       275      1621      1727      1618
 -1       453    8    0    1
 -2       121       276       275      1623      1728      1727
 -1       454    8    0    1
 -2       291       137       292      1667      1670      1729
 -1       455    8    0    1
 -2       292       138       293      1669      1672      1730
 -1       456    8    0    1
 -2         2       291       319      1668      1731      1723
 -1       457    8    0    1
 -2       141       296       295      1678      1732      1675
 -1       458    8    0    1
 -2       142       297       296      1680      1733      1677
 -1       459    8    0    1
 -2       143       298       297      1682      1734      1679
 -1       460    8    0    1
 -2       144       299       298      1684      1735      1681
 -1       461    8    0    1
 -2       145       300       299      1686      1736      1683
 -1       462    8    0    1
 -2       146       301       300      1688      1737      1685
 -1       463    8    0    1
 -2       147       302       301      1690      1738      1687
 -1       464    8    0    1
 -2       148       303       302      1692      1739      1689
 -1       465    8    0    1
 -2       149       304       303      1694      1740      1691
 -1       466    8    0    1
 -2       150       305       304      1696      1741      1693
 -1       467    8    0    1
 -2       151       306       305      1698      1742      1695
 -1       468    8    0    1
 -2       152       307       306      1700      1743      1697
 -1       469    8    0    1
 -2       153       308       307      1702      1744      1699
 -1       470    8    0    1
 -2       154       309       308      1704      1745      1701
 -1       471    8    0    1
 -2       155       310       309      1706      1746      1703
 -1       472    8    0    1
 -2       156       311       310      1708      1747      1705
 -1       473    8    0    1
 -2       157       312       311      1710      1748      1707
 -1       474    8    0    1
 -2       158       313       312      1712      1749      1709
 -1       475    8    0    1
 -2       159       314       313      1714      1750      1711
 -1       476    8    0    1
 -2       160       315       314      1716      1751      1713
 -1       477    8    0    1
 -2       161       316       315      1718      1752      1715
 -1       478    8    0    1
 -2         1       317       316      1720      1753      1717
 -1       479    8    0    1
 -2       162       318       317      1722      1754      1719
 -1       480    8    0    1
 -2       163       319       318      1724      1755      1721
 -1       481    8    0    1
 -2        23         7       164      1283      1285      1756
 -1       482    8    0    1
 -2       165       166       320      1291      1757      1758
 -1       483    8    0    1
 -2       164       165       321      1288      1759      1760
 -1       484    8    0    1
 -2       165       320       321      1758      1761      1759
 -1       485    8    0    1
 -2       167       168       322      1297      1762      1763
 -1       486    8    0    1
 -2       168       169       323      1300      1764      1765
 -1       487    8    0    1
 -2       168       323       322      1765      1766      1762
 -1       488    8    0    1
 -2       169       170       324      1303      1767      1768
 -1       489    8    0    1
 -2       169       324       323      1768      1769      1764
 -1       490    8    0    1
 -2       170       171       325      1306      1770      1771
 -1       491    8    0    1
 -2       170       325       324      1771      1772      1767
 -1       492    8    0    1
 -2       171       172       326      1309      1773      1774
 -1       493    8    0    1
 -2       171       326       325      1774      1775      1770
 -1       494    8    0    1
 -2       172       173       327      1312      1776      1777
 -1       495    8    0    1
 -2       172       327       326      1777      1778      1773
 -1       496    8    0    1
 -2       173       174       328      1315      1779      1780
 -1       497    8    0    1
 -2       173       328       327      1780      1781      1776
 -1       498    8    0    1
 -2       174       175       329      1318      1782      1783
 -1       499    8    0    1
 -2       174       329       328      1783      1784      1779
 -1       500    8    0    1
 -2       175       176       330      1321      1785      1786
 -1       501    8    0    1
 -2       175       330       329      1786      1787      1782
 -1       502    8    0    1
 -2       176       177       331      1324      1788      1789
 -1       503    8    0    1
 -2       176       331       330      1789      1790      1785
 -1       504    8    0    1
 -2       177       178       332      1327      1791      1792
 -1       505    8    0    1
 -2       177       332       331      1792      1793      1788
 -1       506    8    0    1
 -2       178       179       333      1330      1794      1795
 -1       507    8    0    1
 -2       332       178       333      1791      1795      1796
 -1       508    8    0    1
 -2       179       228       333      1479      1797      1794
 -1       509    8    0    1
 -2       180        23       164      1332      1756      1798
 -1       510    8    0    1
 -2       228       229       334      1482      1799      1800
 -1       511    8    0    1
 -2       228       334       333      1800      1801      1797
 -1       512    8    0    1
 -2       180       164       321      1798      1760      1802
 -1       513    8    0    1
 -2       182       181       335      1339      1803      1804
 -1       514    8    0    1
 -2       183       182       336      1342      1805      1806
 -1       515    8    0    1
 -2       182       335       336      1804      1807      1805
 -1       516    8    0    1
 -2       184       183       337      1345      1808      1809
 -1       517    8    0    1
 -2       183       336       337      1806      1810      1808
 -1       518    8    0    1
 -2       185       184       338      1348      1811      1812
 -1       519    8    0    1
 -2       184       337       338      1809      1813      1811
 -1       520    8    0    1
 -2       186       185       339      1351      1814      1815
 -1       521    8    0    1
 -2       185       338       339      1812      1816      1814
 -1       522    8    0    1
 -2       187       186       340      1354      1817      1818
 -1       523    8    0    1
 -2       186       339       340      1815      1819      1817
 -1       524    8    0    1
 -2       188       187       341      1357      1820      1821
 -1       525    8    0    1
 -2       187       340       341      1818      1822      1820
 -1       526    8    0    1
 -2       189       188       342      1360      1823      1824
 -1       527    8    0    1
 -2       188       341       342      1821      1825      1823
 -1       528    8    0    1
 -2       190       189       343      1363      1826      1827
 -1       529    8    0    1
 -2       189       342       343      1824      1828      1826
 -1       530    8    0    1
 -2       191       190       344      1366      1829      1830
 -1       531    8    0    1
 -2       190       343       344      1827      1831      1829
 -1       532    8    0    1
 -2       192       191       345      1369      1832      1833
 -1       533    8    0    1
 -2       191       344       345      1830      1834      1832
 -1       534    8    0    1
 -2       193       192       346      1372      1835      1836
 -1       535    8    0    1
 -2       192       345       346      1833      1837      1835
 -1       536    8    0    1
 -2       194       193       347      1375      1838      1839
 -1       537    8    0    1
 -2       193       346       347      1836      1840      1838
 -1       538    8    0    1
 -2       195       194       348      1378      1841      1842
 -1       539    8    0    1
 -2       194       347       348      1839      1843      1841
 -1       540    8    0    1
 -2       196       195       349      1381      1844      1845
 -1       541    8    0    1
 -2       195       348       349      1842      1846      1844
 -1       542    8    0    1
 -2       197       196       350      1384      1847      1848
 -1       543    8    0    1
 -2       196       349       350      1845      1849      1847
 -1       544    8    0    1
 -2       198       197       351      1387      1850      1851
 -1       545    8    0    1
 -2       197       350       351      1848      1852      1850
 -1       546    8    0    1
 -2       199       198       352      1390      1853      1854
 -1       547    8    0    1
 -2       198       351       352      1851      1855      1853
 -1       548    8    0    1
 -2       200       199       353      1393      1856      1857
 -1       549    8    0    1
 -2       199       352       353      1854      1858      1856
 -1       550    8    0    1
 -2       201       200       354      1396      1859      1860
 -1       551    8    0    1
 -2       200       353       354      1857      1861      1859
 -1       552    8    0    1
 -2       202       201       355      1399      1862      1863
 -1       553    8    0    1
 -2       201       354       355      1860      1864      1862
 -1       554    8    0    1
 -2       203       202       356      1402      1865      1866
 -1       555    8    0    1
 -2       202       355       356      1863      1867      1865
 -1       556    8    0    1
 -2       204       203       357      1405      1868      1869
 -1       557    8    0    1
 -2       203       356       357      1866      1870      1868
 -1       558    8    0    1
 -2       205       204       358      1408      1871      1872
 -1       559    8    0    1
 -2       204       357       358      1869      1873      1871
 -1       560    8    0    1
 -2       206       205       359      1411      1874      1875
 -1       561    8    0    1
 -2       205       358       359      1872      1876      1874
 -1       562    8    0    1
 -2       207       206       360      1414      1877      1878
 -1       563    8    0    1
 -2       206       359       360      1875      1879      1877
 -1       564    8    0    1
 -2       208       207       361      1417      1880      1881
 -1       565    8    0    1
 -2       207       360       361      1878      1882      1880
 -1       566    8    0    1
 -2       209       208       362      1420      1883      1884
 -1       567    8    0    1
 -2       208       361       362      1881      1885      1883
 -1       568    8    0    1
 -2       210       209       363      1423      1886      1887
 -1       569    8    0    1
 -2       209       362       363      1884      1888      1886
 -1       570    8    0    1
 -2       211       210       364      1426      1889      1890
 -1       571    8    0    1
 -2       210       363       364      1887      1891      1889
 -1       572    8    0    1
 -2       212       211       365      1429      1892      1893
 -1       573    8    0    1
 -2       211       364       365      1890      1894      1892
 -1       574    8    0    1
 -2       213       212       366      1432      1895      1896
 -1       575    8    0    1
 -2       212       365       366      1893      1897      1895
 -1       576    8    0    1
 -2       214       213       367      1435      1898      1899
 -1       577    8    0    1
 -2       213       366       367      1896      1900      1898
 -1       578    8    0    1
 -2       215       214       368      1438      1901      1902
 -1       579    8    0    1
 -2       214       367       368      1899      1903      1901
 -1       580    8    0    1
 -2       216       215       369      1441      1904      1905
 -1       581    8    0    1
 -2       215       368       369      1902      1906      1904
 -1       582    8    0    1
 -2       217       216       370      1444      1907      1908
 -1       583    8    0    1
 -2       216       369       370      1905      1909      1907
 -1       584    8    0    1
 -2       218       217       371      1447      1910      1911
 -1       585    8    0    1
 -2       217       370       371      1908      1912      1910
 -1       586    8    0    1
 -2       219       218       372      1450      1913      1914
 -1       587    8    0    1
 -2       218       371       372      1911      1915      1913
 -1       588    8    0    1
 -2       220       219       373      1453      1916      1917
 -1       589    8    0    1
 -2       219       372       373      1914      1918      1916
 -1       590    8    0    1
 -2       221       220       374      1456      1919      1920
 -1       591    8    0    1
 -2       220       373       374      1917      1921      1919
 -1       592    8    0    1
 -2       222       221       375      1459      1922      1923
 -1       593    8    0    1
 -2       221       374       375      1920      1924      1922
 -1       594    8    0    1
 -2       223       222       376      1462      1925      1926
 -1       595    8    0    1
 -2       222       375       376      1923      1927      1925
 -1       596    8    0    1
 -2       224       223       377      1465      1928      1929
 -1       597    8    0    1
 -2       223       376       377      1926      1930      1928
 -1       598    8    0    1
 -2       225       224       378      1468      1931      1932
 -1       599    8    0    1
 -2       224       377       378      1929      1933      1931
 -1       600    8    0    1
 -2       226       225       379      1471      1934      1935
 -1       601    8    0    1
 -2       225       378       379      1932      1936      1934
 -1       602    8    0    1
 -2       227       226       380      1474      1937      1938
 -1       603    8    0    1
 -2       290       227       380      1666      1938      1939
 -1       604    8    0    1
 -2       226       379       380      1935      1940      1937
 -1       605    8    0    1
 -2       229       230       381      1485      1941      1942
 -1       606    8    0    1
 -2       229       381       334      1942      1943      1799
 -1       607    8    0    1
 -2       230       231       382      1488      1944      1945
 -1       608    8    0    1
 -2       230       382       381      1945      1946      1941
 -1       609    8    0    1
 -2       231       232       383      1491      1947      1948
 -1       610    8    0    1
 -2       231       383       382      1948      1949      1944
 -1       611    8    0    1
 -2       232       233       384      1494      1950      1951
 -1       612    8    0    1
 -2       232       384       383      1951      1952      1947
 -1       613    8    0    1
 -2       233       234       385      1497      1953      1954
 -1       614    8    0    1
 -2       233       385       384      1954      1955      1950
 -1       615    8    0    1
 -2       234       235       386      1500      1956      1957
 -1       616    8    0    1
 -2       234       386       385      1957      1958      1953
 -1       617    8    0    1
 -2       235       236       387      1503      1959      1960
 -1       618    8    0    1
 -2       235       387       386      1960      1961      1956
 -1       619    8    0    1
 -2       236       237       388      1506      1962      1963
 -1       620    8    0    1
 -2       236       388       387      1963      1964      1959
 -1       621    8    0    1
 -2       237       238       389      1509      1965      1966
 -1       622    8    0    1
 -2       237       389       388      1966      1967      1962
 -1       623    8    0    1
 -2       238       239       390      1512      1968      1969
 -1       624    8    0    1
 -2       238       390       389      1969      1970      1965
 -1       625    8    0    1
 -2       239       240       391      1515      1971      1972
 -1       626    8    0    1
 -2       239       391       390      1972      1973      1968
 -1       627    8    0    1
 -2       240       241       392      1518      1974      1975
 -1       628    8    0    1
 -2       240       392       391      1975      1976      1971
 -1       629    8    0    1
 -2       241       242       393      1521      1977      1978
 -1       630    8    0    1
 -2       241       393       392      1978      1979      1974
 -1       631    8    0    1
 -2       242       243       394      1524      1980      1981
 -1       632    8    0    1
 -2       242       394       393      1981      1982      1977
 -1       633    8    0    1
 -2       243       244       395      1527      1983      1984
 -1       634    8    0    1
 -2       243       395       394      1984      1985      1980
 -1       635    8    0    1
 -2       244       245       396      1530      1986      1987
 -1       636    8    0    1
 -2       244       396       395      1987      1988      1983
 -1       637    8    0    1
 -2       245       246       397      1533      1989      1990
 -1       638    8    0    1
 -2       245       397       396      1990      1991      1986
 -1       639    8    0    1
 -2       246       247       398      1536      1992      1993
 -1       640    8    0    1
 -2       246       398       397      1993      1994      1989
 -1       641    8    0    1
 -2       247       248       399      1539      1995      1996
 -1       642    8    0    1
 -2       247       399       398      1996      1997      1992
 -1       643    8    0    1
 -2       248       249       400      1542      1998      1999
 -1       644    8    0    1
 -2       248       400       399      1999      2000      1995
 -1       645    8    0    1
 -2       249       250       401      1545      2001      2002
 -1       646    8    0    1
 -2       249       401       400      2002      2003      1998
 -1       647    8    0    1
 -2       250       251       402      1548      2004      2005
 -1       648    8    0    1
 -2       250       402       401      2005      2006      2001
 -1       649    8    0    1
 -2       251       252       403      1551      2007      2008
 -1       650    8    0    1
 -2       251       403       402      2008      2009      2004
 -1       651    8    0    1
 -2       252       253       404      1554      2010      2011
 -1       652    8    0    1
 -2       252       404       403      2011      2012      2007
 -1       653    8    0    1
 -2       253       254       405      1557      2013      2014
 -1       654    8    0    1
 -2       253       405       404      2014      2015      2010
 -1       655    8    0    1
 -2       254       255       406      1560      2016      2017
 -1       656    8    0    1
 -2       254       406       405      2017      2018      2013
 -1       657    8    0    1
 -2       255       256       407      1563      2019      2020
 -1       658    8    0    1
 -2       255       407       406      2020      2021      2016
 -1       659    8    0    1
 -2       256       257       408      1566      2022      2023
 -1       660    8    0    1
 -2       256       408       407      2023      2024      2019
 -1       661    8    0    1
 -2       257       258       409      1569      2025      2026
 -1       662    8    0    1
 -2       257       409       408      2026      2027      2022
 -1       663    8    0    1
 -2       258       259       410      1572      2028      2029
 -1       664    8    0    1
 -2       258       410       409      2029      2030      2025
 -1       665    8    0    1
 -2       259       260       411      1575      2031      2032
 -1       666    8    0    1
 -2       259       411       410      2032      2033      2028
 -1       667    8    0    1
 -2       260       261       412      1578      2034      2035
 -1       668    8    0    1
 -2       260       412       411      2035      2036      2031
 -1       669    8    0    1
 -2       261       262       413      1581      2037      2038
 -1       670    8    0    1
 -2       261       413       412      2038      2039      2034
 -1       671    8    0    1
 -2       262       263       414      1584      2040      2041
 -1       672    8    0    1
 -2       262       414       413      2041      2042      2037
 -1       673    8    0    1
 -2       263       264       415      1587      2043      2044
 -1       674    8    0    1
 -2       263       415       414      2044      2045      2040
 -1       675    8    0    1
 -2       264       265       416      1590      2046      2047
 -1       676    8    0    1
 -2       264       416       415      2047      2048      2043
 -1       677    8    0    1
 -2       265       266       417      1593      2049      2050
 -1       678    8    0    1
 -2       265       417       416      2050      2051      2046
 -1       679    8    0    1
 -2       266       267       418      1596      2052      2053
 -1       680    8    0    1
 -2       266       418       417      2053      2054      2049
 -1       681    8    0    1
 -2       267       268       419      1599      2055      2056
 -1       682    8    0    1
 -2       267       419       418      2056      2057      2052
 -1       683    8    0    1
 -2       268       269       420      1602      2058      2059
 -1       684    8    0    1
 -2       268       420       419      2059      2060      2055
 -1       685    8    0    1
 -2       269       270       421      1605      2061      2062
 -1       686    8    0    1
 -2       269       421       420      2062      2063      2058
 -1       687    8    0    1
 -2       270       271       422      1608      2064      2065
 -1       688    8    0    1
 -2       270       422       421      2065      2066      2061
 -1       689    8    0    1
 -2       271       272       423      1611      2067      2068
 -1       690    8    0    1
 -2       271       423       422      2068      2069      2064
 -1       691    8    0    1
 -2       272       273       424      1614      2070      2071
 -1       692    8    0    1
 -2       272       424       423      2071      2072      2067
 -1       693    8    0    1
 -2       273       274       425      1617      2073      2074
 -1       694    8    0    1
 -2       273       425       424      2074      2075      2070
 -1       695    8    0    1
 -2       274       275       426      1620      2076      2077
 -1       696    8    0    1
 -2       425       274       426      2073      2077      2078
 -1       697    8    0    1
 -2       275       276       426      1728      2079      2076
 -1       698    8    0    1
 -2       278       279       427      1632      2080      2081
 -1       699    8    0    1
 -2       277       278       428      1629      2082      2083
 -1       700    8    0    1
 -2       278       427       428      2081      2084      2082
 -1       701    8    0    1
 -2       276       277       429      1626      2085      2086
 -1       702    8    0    1
 -2       426       276       429      2079      2086      2087
 -1       703    8    0    1
 -2       277       428       429      2083      2088      2085
 -1       704    8    0    1
 -2       279       280       430      1635      2089      2090
 -1       705    8    0    1
 -2       279       430       427      2090      2091      2080
 -1       706    8    0    1
 -2       280       281       431      1638      2092      2093
 -1       707    8    0    1
 -2       280       431       430      2093      2094      2089
 -1       708    8    0    1
 -2       281       282       432      1641      2095      2096
 -1       709    8    0    1
 -2       281       432       431      2096      2097      2092
 -1       710    8    0    1
 -2       282       283       433      1644      2098      2099
 -1       711    8    0    1
 -2       282       433       432      2099      2100      2095
 -1       712    8    0    1
 -2       283       284       434      1647      2101      2102
 -1       713    8    0    1
 -2       283       434       433      2102      2103      2098
 -1       714    8    0    1
 -2       284       285       435      1650      2104      2105
 -1       715    8    0    1
 -2       284       435       434      2105      2106      2101
 -1       716    8    0    1
 -2       285       286       436      1653      2107      2108
 -1       717    8    0    1
 -2       285       436       435      2108      2109      2104
 -1       718    8    0    1
 -2       286       287       437      1656      2110      2111
 -1       719    8    0    1
 -2       286       437       436      2111      2112      2107
 -1       720    8    0    1
 -2       287       288       438      1659      2113      2114
 -1       721    8    0    1
 -2       287       438       437      2114      2115      2110
 -1       722    8    0    1
 -2       288       289       439      1662      2116      2117
 -1       723    8    0    1
 -2       288       439       438      2117      2118      2113
 -1       724    8    0    1
 -2       292       293       440      1730      2119      2120
 -1       725    8    0    1
 -2       319       291       441      1731      2121      2122
 -1       726    8    0    1
 -2       291       292       442      1729      2123      2124
 -1       727    8    0    1
 -2       293       294       443      1726      2125      2126
 -1       728    8    0    1
 -2       294       295       444      1725      2127      2128
 -1       729    8    0    1
 -2       294       444       443      2128      2129      2125
 -1       730    8    0    1
 -2       166       167       445      1294      2130      2131
 -1       731    8    0    1
 -2       320       166       445      1757      2131      2132
 -1       732    8    0    1
 -2       167       322       445      1763      2133      2130
 -1       733    8    0    1
 -2       296       297       446      1733      2134      2135
 -1       734    8    0    1
 -2       297       298       447      1734      2136      2137
 -1       735    8    0    1
 -2       298       299       448      1735      2138      2139
 -1       736    8    0    1
 -2       298       448       447      2139      2140      2136
 -1       737    8    0    1
 -2       299       300       449      1736      2141      2142
 -1       738    8    0    1
 -2       300       301       450      1737      2143      2144
 -1       739    8    0    1
 -2       301       302       451      1738      2145      2146
 -1       740    8    0    1
 -2       301       451       450      2146      2147      2143
 -1       741    8    0    1
 -2       302       303       452      1739      2148      2149
 -1       742    8    0    1
 -2       303       304       453      1740      2150      2151
 -1       743    8    0    1
 -2       304       305       454      1741      2152      2153
 -1       744    8    0    1
 -2       305       306       455      1742      2154      2155
 -1       745    8    0    1
 -2       306       307       456      1743      2156      2157
 -1       746    8    0    1
 -2       307       308       457      1744      2158      2159
 -1       747    8    0    1
 -2       308       309       458      1745      2160      2161
 -1       748    8    0    1
 -2       309       310       459      1746      2162      2163
 -1       749    8    0    1
 -2       310       311       460      1747      2164      2165
 -1       750    8    0    1
 -2       310       460       459      2165      2166      2162
 -1       751    8    0    1
 -2       311       312       461      1748      2167      2168
 -1       752    8    0    1
 -2       312       313       462      1749      2169      2170
 -1       753    8    0    1
 -2       312       462       461      2170      2171      2167
 -1       754    8    0    1
 -2       313       314       463      1750      2172      2173
 -1       755    8    0    1
 -2       314       315       464      1751      2174      2175
 -1       756    8    0    1
 -2       314       464       463      2175      2176      2172
 -1       757    8    0    1
 -2       315       316       465      1752      2177      2178
 -1       758    8    0    1
 -2       316       317       466      1753      2179      2180
 -1       759    8    0    1
 -2       317       318       467      1754      2181      2182
 -1       760    8    0    1
 -2       318       319       468      1755      2183      2184
 -1       761    8    0    1
 -2       295       296       469      1732      2185      2186
 -1       762    8    0    1
 -2       296       446       469      2135      2187      2185
 -1       763    8    0    1
 -2       180       321       181      1802      2188      1336
 -1       764    8    0    1
 -2       444       295       469      2127      2186      2189
 -1       765    8    0    1
 -2       181       321       335      2188      2190      1803
 -1       766    8    0    1
 -2       442       292       440      2123      2120      2191
 -1       767    8    0    1
 -2       441       291       442      2121      2124      2192
 -1       768    8    0    1
 -2       439       289       290      2116      1665      2193
 -1       769    8    0    1
 -2       440       293       443      2119      2126      2194
 -1       770    8    0    1
 -2       319       441       468      2122      2195      2183
 -1       771    8    0    1
 -2       467       318       468      2181      2184      2196
 -1       772    8    0    1
 -2       466       317       467      2179      2182      2197
 -1       773    8    0    1
 -2       464       315       465      2174      2178      2198
 -1       774    8    0    1
 -2       462       313       463      2169      2173      2199
 -1       775    8    0    1
 -2       460       311       470      2164      2200      2201
 -1       776    8    0    1
 -2       311       461       470      2168      2202      2200
 -1       777    8    0    1
 -2       458       309       471      2160      2203      2204
 -1       778    8    0    1
 -2       309       459       471      2163      2205      2203
 -1       779    8    0    1
 -2       457       308       458      2158      2161      2206
 -1       780    8    0    1
 -2       456       307       457      2156      2159      2207
 -1       781    8    0    1
 -2       455       306       456      2154      2157      2208
 -1       782    8    0    1
 -2       454       305       455      2152      2155      2209
 -1       783    8    0    1
 -2       453       304       454      2150      2153      2210
 -1       784    8    0    1
 -2       451       302       452      2145      2149      2211
 -1       785    8    0    1
 -2       448       299       449      2138      2142      2212
 -1       786    8    0    1
 -2       446       297       472      2134      2213      2214
 -1       787    8    0    1
 -2       297       447       472      2137      2215      2213
 -1       788    8    0    1
 -2       449       300       473      2141      2216      2217
 -1       789    8    0    1
 -2       300       450       473      2144      2218      2216
 -1       790    8    0    1
 -2       452       303       453      2148      2151      2219
 -1       791    8    0    1
 -2       465       316       466      2177      2180      2220
 -1       792    8    0    1
 -2       334       381       474      1943      2221      2222
 -1       793    8    0    1
 -2       323       324       475      1769      2223      2224
 -1       794    8    0    1
 -2       322       323       476      1766      2225      2226
 -1       795    8    0    1
 -2       323       475       476      2224      2227      2225
 -1       796    8    0    1
 -2       325       326       477      1775      2228      2229
 -1       797    8    0    1
 -2       326       327       478      1778      2230      2231
 -1       798    8    0    1
 -2       326       478       477      2231      2232      2228
 -1       799    8    0    1
 -2       327       328       479      1781      2233      2234
 -1       800    8    0    1
 -2       327       479       478      2234      2235      2230
 -1       801    8    0    1
 -2       328       329       480      1784      2236      2237
 -1       802    8    0    1
 -2       328       480       479      2237      2238      2233
 -1       803    8    0    1
 -2       329       330       481      1787      2239      2240
 -1       804    8    0    1
 -2       329       481       480      2240      2241      2236
 -1       805    8    0    1
 -2       330       331       482      1790      2242      2243
 -1       806    8    0    1
 -2       330       482       481      2243      2244      2239
 -1       807    8    0    1
 -2       381       382       483      1946      2245      2246
 -1       808    8    0    1
 -2       381       483       474      2246      2247      2221
 -1       809    8    0    1
 -2       336       335       484      1807      2248      2249
 -1       810    8    0    1
 -2       444       469       485      2189      2250      2251
 -1       811    8    0    1
 -2       442       440       486      2191      2252      2253
 -1       812    8    0    1
 -2       337       336       487      1810      2254      2255
 -1       813    8    0    1
 -2       336       484       487      2249      2256      2254
 -1       814    8    0    1
 -2       338       337       488      1813      2257      2258
 -1       815    8    0    1
 -2       337       487       488      2255      2259      2257
 -1       816    8    0    1
 -2       339       338       489      1816      2260      2261
 -1       817    8    0    1
 -2       338       488       489      2258      2262      2260
 -1       818    8    0    1
 -2       340       339       490      1819      2263      2264
 -1       819    8    0    1
 -2       339       489       490      2261      2265      2263
 -1       820    8    0    1
 -2       341       340       491      1822      2266      2267
 -1       821    8    0    1
 -2       340       490       491      2264      2268      2266
 -1       822    8    0    1
 -2       342       341       492      1825      2269      2270
 -1       823    8    0    1
 -2       341       491       492      2267      2271      2269
 -1       824    8    0    1
 -2       343       342       493      1828      2272      2273
 -1       825    8    0    1
 -2       342       492       493      2270      2274      2272
 -1       826    8    0    1
 -2       344       343       494      1831      2275      2276
 -1       827    8    0    1
 -2       343       493       494      2273      2277      2275
 -1       828    8    0    1
 -2       345       344       495      1834      2278      2279
 -1       829    8    0    1
 -2       344       494       495      2276      2280      2278
 -1       830    8    0    1
 -2       346       345       496      1837      2281      2282
 -1       831    8    0    1
 -2       345       495       496      2279      2283      2281
 -1       832    8    0    1
 -2       347       346       497      1840      2284      2285
 -1       833    8    0    1
 -2       346       496       497      2282      2286      2284
 -1       834    8    0    1
 -2       348       347       498      1843      2287      2288
 -1       835    8    0    1
 -2       347       497       498      2285      2289      2287
 -1       836    8    0    1
 -2       349       348       499      1846      2290      2291
 -1       837    8    0    1
 -2       348       498       499      2288      2292      2290
 -1       838    8    0    1
 -2       350       349       500      1849      2293      2294
 -1       839    8    0    1
 -2       349       499       500      2291      2295      2293
 -1       840    8    0    1
 -2       351       350       501      1852      2296      2297
 -1       841    8    0    1
 -2       350       500       501      2294      2298      2296
 -1       842    8    0    1
 -2       352       351       502      1855      2299      2300
 -1       843    8    0    1
 -2       351       501       502      2297      2301      2299
 -1       844    8    0    1
 -2       353       352       503      1858      2302      2303
 -1       845    8    0    1
 -2       352       502       503      2300      2304      2302
 -1       846    8    0    1
 -2       354       353       504      1861      2305      2306
 -1       847    8    0    1
 -2       353       503       504      2303      2307      2305
 -1       848    8    0    1
 -2       355       354       505      1864      2308      2309
 -1       849    8    0    1
 -2       354       504       505      2306      2310      2308
 -1       850    8    0    1
 -2       356       355       506      1867      2311      2312
 -1       851    8    0    1
 -2       355       505       506      2309      2313      2311
 -1       852    8    0    1
 -2       357       356       507      1870      2314      2315
 -1       853    8    0    1
 -2       356       506       507      2312      2316      2314
 -1       854    8    0    1
 -2       358       357       508      1873      2317      2318
 -1       855    8    0    1
 -2       357       507       508      2315      2319      2317
 -1       856    8    0    1
 -2       359       358       509      1876      2320      2321
 -1       857    8    0    1
 -2       358       508       509      2318      2322      2320
 -1       858    8    0    1
 -2       360       359       510      1879      2323      2324
 -1       859    8    0    1
 -2       359       509       510      2321      2325      2323
 -1       860    8    0    1
 -2       361       360       511      1882      2326      2327
 -1       861    8    0    1
 -2       360       510       511      2324      2328      2326
 -1       862    8    0    1
 -2       362       361       512      1885      2329      2330
 -1       863    8    0    1
 -2       361       511       512      2327      2331      2329
 -1       864    8    0    1
 -2       363       362       513      1888      2332      2333
 -1       865    8    0    1
 -2       362       512       513      2330      2334      2332
 -1       866    8    0    1
 -2       364       363       514      1891      2335      2336
 -1       867    8    0    1
 -2       363       513       514      2333      2337      2335
 -1       868    8    0    1
 -2       365       364       515      1894      2338      2339
 -1       869    8    0    1
 -2       364       514       515      2336      2340      2338
 -1       870    8    0    1
 -2       366       365       516      1897      2341      2342
 -1       871    8    0    1
 -2       365       515       516      2339      2343      2341
 -1       872    8    0    1
 -2       367       366       517      1900      2344      2345
 -1       873    8    0    1
 -2       366       516       517      2342      2346      2344
 -1       874    8    0    1
 -2       368       367       518      1903      2347      2348
 -1       875    8    0    1
 -2       367       517       518      2345      2349      2347
 -1       876    8    0    1
 -2       369       368       519      1906      2350      2351
 -1       877    8    0    1
 -2       368       518       519      2348      2352      2350
 -1       878    8    0    1
 -2       370       369       520      1909      2353      2354
 -1       879    8    0    1
 -2       369       519       520      2351      2355      2353
 -1       880    8    0    1
 -2       371       370       521      1912      2356      2357
 -1       881    8    0    1
 -2       370       520       521      2354      2358      2356
 -1       882    8    0    1
 -2       372       371       522      1915      2359      2360
 -1       883    8    0    1
 -2       371       521       522      2357      2361      2359
 -1       884    8    0    1
 -2       373       372       523      1918      2362      2363
 -1       885    8    0    1
 -2       372       522       523      2360      2364      2362
 -1       886    8    0    1
 -2       374       373       524      1921      2365      2366
 -1       887    8    0    1
 -2       373       523       524      2363      2367      2365
 -1       888    8    0    1
 -2       375       374       525      1924      2368      2369
 -1       889    8    0    1
 -2       374       524       525      2366      2370      2368
 -1       890    8    0    1
 -2       376       375       526      1927      2371      2372
 -1       891    8    0    1
 -2       375       525       526      2369      2373      2371
 -1       892    8    0    1
 -2       377       376       527      1930      2374      2375
 -1       893    8    0    1
 -2       376       526       527      2372      2376      2374
 -1       894    8    0    1
 -2       378       377       528      1933      2377      2378
 -1       895    8    0    1
 -2       377       527       528      2375      2379      2377
 -1       896    8    0    1
 -2       379       378       529      1936      2380      2381
 -1       897    8    0    1
 -2       378       528       529      2378      2382      2380
 -1       898    8    0    1
 -2       383       384       530      1952      2383      2384
 -1       899    8    0    1
 -2       384       385       531      1955      2385      2386
 -1       900    8    0    1
 -2       384       531       530      2386      2387      2383
 -1       901    8    0    1
 -2       385       386       532      1958      2388      2389
 -1       902    8    0    1
 -2       385       532       531      2389      2390      2385
 -1       903    8    0    1
 -2       386       387       533      1961      2391      2392
 -1       904    8    0    1
 -2       386       533       532      2392      2393      2388
 -1       905    8    0    1
 -2       387       388       534      1964      2394      2395
 -1       906    8    0    1
 -2       387       534       533      2395      2396      2391
 -1       907    8    0    1
 -2       388       389       535      1967      2397      2398
 -1       908    8    0    1
 -2       388       535       534      2398      2399      2394
 -1       909    8    0    1
 -2       389       390       536      1970      2400      2401
 -1       910    8    0    1
 -2       389       536       535      2401      2402      2397
 -1       911    8    0    1
 -2       390       391       537      1973      2403      2404
 -1       912    8    0    1
 -2       390       537       536      2404      2405      2400
 -1       913    8    0    1
 -2       391       392       538      1976      2406      2407
 -1       914    8    0    1
 -2       391       538       537      2407      2408      2403
 -1       915    8    0    1
 -2       392       393       539      1979      2409      2410
 -1       916    8    0    1
 -2       392       539       538      2410      2411      2406
 -1       917    8    0    1
 -2       393       394       540      1982      2412      2413
 -1       918    8    0    1
 -2       393       540       539      2413      2414      2409
 -1       919    8    0    1
 -2       394       395       541      1985      2415      2416
 -1       920    8    0    1
 -2       394       541       540      2416      2417      2412
 -1       921    8    0    1
 -2       395       396       542      1988      2418      2419
 -1       922    8    0    1
 -2       395       542       541      2419      2420      2415
 -1       923    8    0    1
 -2       396       397       543      1991      2421      2422
 -1       924    8    0    1
 -2       396       543       542      2422      2423      2418
 -1       925    8    0    1
 -2       397       398       544      1994      2424      2425
 -1       926    8    0    1
 -2       397       544       543      2425      2426      2421
 -1       927    8    0    1
 -2       398       399       545      1997      2427      2428
 -1       928    8    0    1
 -2       398       545       544      2428      2429      2424
 -1       929    8    0    1
 -2       399       400       546      2000      2430      2431
 -1       930    8    0    1
 -2       399       546       545      2431      2432      2427
 -1       931    8    0    1
 -2       400       401       547      2003      2433      2434
 -1       932    8    0    1
 -2       400       547       546      2434      2435      2430
 -1       933    8    0    1
 -2       401       402       548      2006      2436      2437
 -1       934    8    0    1
 -2       401       548       547      2437      2438      2433
 -1       935    8    0    1
 -2       402       403       549      2009      2439      2440
 -1       936    8    0    1
 -2       402       549       548      2440      2441      2436
 -1       937    8    0    1
 -2       403       404       550      2012      2442      2443
 -1       938    8    0    1
 -2       403       550       549      2443      2444      2439
 -1       939    8    0    1
 -2       404       405       551      2015      2445      2446
 -1       940    8    0    1
 -2       404       551       550      2446      2447      2442
 -1       941    8    0    1
 -2       405       406       552      2018      2448      2449
 -1       942    8    0    1
 -2       405       552       551      2449      2450      2445
 -1       943    8    0    1
 -2       406       407       553      2021      2451      2452
 -1       944    8    0    1
 -2       406       553       552      2452      2453      2448
 -1       945    8    0    1
 -2       407       408       554      2024      2454      2455
 -1       946    8    0    1
 -2       407       554       553      2455      2456      2451
 -1       947    8    0    1
 -2       408       409       555      2027      2457      2458
 -1       948    8    0    1
 -2       408       555       554      2458      2459      2454
 -1       949    8    0    1
 -2       409       410       556      2030      2460      2461
 -1       950    8    0    1
 -2       409       556       555      2461      2462      2457
 -1       951    8    0    1
 -2       410       411       557      2033      2463      2464
 -1       952    8    0    1
 -2       410       557       556      2464      2465      2460
 -1       953    8    0    1
 -2       411       412       558      2036      2466      2467
 -1       954    8    0    1
 -2       411       558       557      2467      2468      2463
 -1       955    8    0    1
 -2       412       413       559      2039      2469      2470
 -1       956    8    0    1
 -2       412       559       558      2470      2471      2466
 -1       957    8    0    1
 -2       413       414       560      2042      2472      2473
 -1       958    8    0    1
 -2       413       560       559      2473      2474      2469
 -1       959    8    0    1
 -2       414       415       561      2045      2475      2476
 -1       960    8    0    1
 -2       414       561       560      2476      2477      2472
 -1       961    8    0    1
 -2       415       416       562      2048      2478      2479
 -1       962    8    0    1
 -2       415       562       561      2479      2480      2475
 -1       963    8    0    1
 -2       416       417       563      2051      2481      2482
 -1       964    8    0    1
 -2       416       563       562      2482      2483      2478
 -1       965    8    0    1
 -2       417       418       564      2054      2484      2485
 -1       966    8    0    1
 -2       417       564       563      2485      2486      2481
 -1       967    8    0    1
 -2       418       419       565      2057      2487      2488
 -1       968    8    0    1
 -2       418       565       564      2488      2489      2484
 -1       969    8    0    1
 -2       419       420       566      2060      2490      2491
 -1       970    8    0    1
 -2       419       566       565      2491      2492      2487
 -1       971    8    0    1
 -2       420       421       567      2063      2493      2494
 -1       972    8    0    1
 -2       420       567       566      2494      2495      2490
 -1       973    8    0    1
 -2       421       422       568      2066      2496      2497
 -1       974    8    0    1
 -2       421       568       567      2497      2498      2493
 -1       975    8    0    1
 -2       422       423       569      2069      2499      2500
 -1       976    8    0    1
 -2       422       569       568      2500      2501      2496
 -1       977    8    0    1
 -2       423       424       570      2072      2502      2503
 -1       978    8    0    1
 -2       423       570       569      2503      2504      2499
 -1       979    8    0    1
 -2       424       425       571      2075      2505      2506
 -1       980    8    0    1
 -2       424       571       570      2506      2507      2502
 -1       981    8    0    1
 -2       425       426       429      2078      2087      2508
 -1       982    8    0    1
 -2       430       431       572      2094      2509      2510
 -1       983    8    0    1
 -2       431       432       573      2097      2511      2512
 -1       984    8    0    1
 -2       431       573       572      2512      2513      2509
 -1       985    8    0    1
 -2       428       427       574      2084      2514      2515
 -1       986    8    0    1
 -2       427       430       575      2091      2516      2517
 -1       987    8    0    1
 -2       574       427       575      2514      2517      2518
 -1       988    8    0    1
 -2       430       572       575      2510      2519      2516
 -1       989    8    0    1
 -2       432       433       576      2100      2520      2521
 -1       990    8    0    1
 -2       432       576       573      2521      2522      2511
 -1       991    8    0    1
 -2       433       434       577      2103      2523      2524
 -1       992    8    0    1
 -2       433       577       576      2524      2525      2520
 -1       993    8    0    1
 -2       434       435       578      2106      2526      2527
 -1       994    8    0    1
 -2       434       578       577      2527      2528      2523
 -1       995    8    0    1
 -2       435       436       579      2109      2529      2530
 -1       996    8    0    1
 -2       435       579       578      2530      2531      2526
 -1       997    8    0    1
 -2       436       437       580      2112      2532      2533
 -1       998    8    0    1
 -2       436       580       579      2533      2534      2529
 -1       999    8    0    1
 -2       437       438       581      2115      2535      2536
 -1      1000    8    0    1
 -2       437       581       580      2536      2537      2532
 -1      1001    8    0    1
 -2       438       439       582      2118      2538      2539
 -1      1002    8    0    1
 -2       438       582       581      2539      2540      2535
 -1      1003    8    0    1
 -2       441       442       583      2192      2541      2542
 -1      1004    8    0    1
 -2       440       443       584      2194      2543      2544
 -1      1005    8    0    1
 -2       440       584       486      2544      2545      2252
 -1      1006    8    0    1
 -2       382       383       585      1949      2546      2547
 -1      1007    8    0    1
 -2       383       530       585      2384      2548      2546
 -1      1008    8    0    1
 -2       439       290       380      2193      1939      2549
 -1      1009    8    0    1
 -2       468       441       586      2195      2550      2551
 -1      1010    8    0    1
 -2       443       444       587      2129      2552      2553
 -1      1011    8    0    1
 -2       469       446       588      2187      2554      2555
 -1      1012    8    0    1
 -2       467       468       589      2196      2556      2557
 -1      1013    8    0    1
 -2       448       449       590      2212      2558      2559
 -1      1014    8    0    1
 -2       324       325       591      1772      2560      2561
 -1      1015    8    0    1
 -2       475       324       591      2223      2561      2562
 -1      1016    8    0    1
 -2       325       477       591      2229      2563      2560
 -1      1017    8    0    1
 -2       447       448       592      2140      2564      2565
 -1      1018    8    0    1
 -2       448       590       592      2559      2566      2564
 -1      1019    8    0    1
 -2       452       453       593      2219      2567      2568
 -1      1020    8    0    1
 -2       450       451       594      2147      2569      2570
 -1      1021    8    0    1
 -2       465       466       595      2220      2571      2572
 -1      1022    8    0    1
 -2       451       452       596      2211      2573      2574
 -1      1023    8    0    1
 -2       451       596       594      2574      2575      2569
 -1      1024    8    0    1
 -2       453       454       597      2210      2576      2577
 -1      1025    8    0    1
 -2       454       455       598      2209      2578      2579
 -1      1026    8    0    1
 -2       454       598       597      2579      2580      2576
 -1      1027    8    0    1
 -2       455       456       599      2208      2581      2582
 -1      1028    8    0    1
 -2       456       457       600      2207      2583      2584
 -1      1029    8    0    1
 -2       457       458       601      2206      2585      2586
 -1      1030    8    0    1
 -2       457       601       600      2586      2587      2583
 -1      1031    8    0    1
 -2       459       460       602      2166      2588      2589
 -1      1032    8    0    1
 -2       461       462       603      2171      2590      2591
 -1      1033    8    0    1
 -2       462       463       604      2199      2592      2593
 -1      1034    8    0    1
 -2       462       604       603      2593      2594      2590
 -1      1035    8    0    1
 -2       463       464       605      2176      2595      2596
 -1      1036    8    0    1
 -2       464       465       606      2198      2597      2598
 -1      1037    8    0    1
 -2       464       606       605      2598      2599      2595
 -1      1038    8    0    1
 -2       466       467       607      2197      2600      2601
 -1      1039    8    0    1
 -2       335       321       608      2190      2602      2603
 -1      1040    8    0    1
 -2       484       335       608      2248      2603      2604
 -1      1041    8    0    1
 -2       321       320       608      1761      2605      2602
 -1      1042    8    0    1
 -2       333       334       609      1801      2606      2607
 -1      1043    8    0    1
 -2       332       333       609      1796      2607      2608
 -1      1044    8    0    1
 -2       334       474       609      2222      2609      2606
 -1      1045    8    0    1
 -2       447       592       610      2565      2610      2611
 -1      1046    8    0    1
 -2       447       610       472      2611      2612      2215
 -1      1047    8    0    1
 -2       322       476       611      2226      2613      2614
 -1      1048    8    0    1
 -2       322       611       445      2614      2615      2133
 -1      1049    8    0    1
 -2       483       382       585      2245      2547      2616
 -1      1050    8    0    1
 -2       331       332       609      1793      2608      2617
 -1      1051    8    0    1
 -2       320       445       612      2132      2618      2619
 -1      1052    8    0    1
 -2       608       320       612      2605      2619      2620
 -1      1053    8    0    1
 -2       445       611       612      2615      2621      2618
 -1      1054    8    0    1
 -2       606       465       595      2597      2572      2622
 -1      1055    8    0    1
 -2       604       463       605      2592      2596      2623
 -1      1056    8    0    1
 -2       444       485       587      2251      2624      2552
 -1      1057    8    0    1
 -2       442       486       613      2253      2625      2626
 -1      1058    8    0    1
 -2       442       613       583      2626      2627      2541
 -1      1059    8    0    1
 -2       468       586       589      2551      2628      2556
 -1      1060    8    0    1
 -2       601       458       471      2585      2204      2629
 -1      1061    8    0    1
 -2       425       429       571      2508      2630      2505
 -1      1062    8    0    1
 -2       584       443       587      2543      2553      2631
 -1      1063    8    0    1
 -2       429       428       571      2088      2632      2630
 -1      1064    8    0    1
 -2       459       602       471      2589      2633      2205
 -1      1065    8    0    1
 -2       441       583       586      2542      2634      2550
 -1      1066    8    0    1
 -2       598       455       599      2578      2582      2635
 -1      1067    8    0    1
 -2       596       452       593      2573      2568      2636
 -1      1068    8    0    1
 -2       595       466       614      2571      2637      2638
 -1      1069    8    0    1
 -2       466       607       614      2601      2639      2637
 -1      1070    8    0    1
 -2       571       428       574      2632      2515      2640
 -1      1071    8    0    1
 -2       469       588       485      2555      2641      2250
 -1      1072    8    0    1
 -2       467       589       607      2557      2642      2600
 -1      1073    8    0    1
 -2       590       449       615      2558      2643      2644
 -1      1074    8    0    1
 -2       449       473       615      2217      2645      2643
 -1      1075    8    0    1
 -2       470       461       603      2202      2591      2646
 -1      1076    8    0    1
 -2       588       446       616      2554      2647      2648
 -1      1077    8    0    1
 -2       446       472       616      2214      2649      2647
 -1      1078    8    0    1
 -2       331       609       482      2617      2650      2242
 -1      1079    8    0    1
 -2       453       597       593      2577      2651      2567
 -1      1080    8    0    1
 -2       473       450       594      2218      2570      2652
 -1      1081    8    0    1
 -2       599       456       617      2581      2653      2654
 -1      1082    8    0    1
 -2       456       600       617      2584      2655      2653
 -1      1083    8    0    1
 -2       602       460       470      2588      2201      2656
 -1      1084    8    0    1
 -2       439       380       618      2549      2657      2658
 -1      1085    8    0    1
 -2       582       439       618      2538      2658      2659
 -1      1086    8    0    1
 -2       380       379       618      1940      2660      2657
 -1      1087    8    0    1
 -2       618       379       529      2660      2381      2661
 -1      1088    8    0    1
 -2       478       479       619      2235      2662      2663
 -1      1089    8    0    1
 -2       477       478       620      2232      2664      2665
 -1      1090    8    0    1
 -2       478       619       620      2663      2666      2664
 -1      1091    8    0    1
 -2       480       481       621      2241      2667      2668
 -1      1092    8    0    1
 -2       481       482       622      2244      2669      2670
 -1      1093    8    0    1
 -2       481       622       621      2670      2671      2667
 -1      1094    8    0    1
 -2       474       483       623      2247      2672      2673
 -1      1095    8    0    1
 -2       593       597       624      2651      2674      2675
 -1      1096    8    0    1
 -2       609       474       482      2609      2676      2650
 -1      1097    8    0    1
 -2       587       485       625      2624      2677      2678
 -1      1098    8    0    1
 -2       488       487       626      2259      2679      2680
 -1      1099    8    0    1
 -2       489       488       627      2262      2681      2682
 -1      1100    8    0    1
 -2       488       626       627      2680      2683      2681
 -1      1101    8    0    1
 -2       490       489       628      2265      2684      2685
 -1      1102    8    0    1
 -2       489       627       628      2682      2686      2684
 -1      1103    8    0    1
 -2       491       490       629      2268      2687      2688
 -1      1104    8    0    1
 -2       490       628       629      2685      2689      2687
 -1      1105    8    0    1
 -2       492       491       630      2271      2690      2691
 -1      1106    8    0    1
 -2       491       629       630      2688      2692      2690
 -1      1107    8    0    1
 -2       493       492       631      2274      2693      2694
 -1      1108    8    0    1
 -2       492       630       631      2691      2695      2693
 -1      1109    8    0    1
 -2       494       493       632      2277      2696      2697
 -1      1110    8    0    1
 -2       493       631       632      2694      2698      2696
 -1      1111    8    0    1
 -2       495       494       633      2280      2699      2700
 -1      1112    8    0    1
 -2       494       632       633      2697      2701      2699
 -1      1113    8    0    1
 -2       496       495       634      2283      2702      2703
 -1      1114    8    0    1
 -2       495       633       634      2700      2704      2702
 -1      1115    8    0    1
 -2       497       496       635      2286      2705      2706
 -1      1116    8    0    1
 -2       496       634       635      2703      2707      2705
 -1      1117    8    0    1
 -2       498       497       636      2289      2708      2709
 -1      1118    8    0    1
 -2       497       635       636      2706      2710      2708
 -1      1119    8    0    1
 -2       499       498       637      2292      2711      2712
 -1      1120    8    0    1
 -2       498       636       637      2709      2713      2711
 -1      1121    8    0    1
 -2       500       499       638      2295      2714      2715
 -1      1122    8    0    1
 -2       499       637       638      2712      2716      2714
 -1      1123    8    0    1
 -2       501       500       639      2298      2717      2718
 -1      1124    8    0    1
 -2       500       638       639      2715      2719      2717
 -1      1125    8    0    1
 -2       502       501       640      2301      2720      2721
 -1      1126    8    0    1
 -2       501       639       640      2718      2722      2720
 -1      1127    8    0    1
 -2       503       502       641      2304      2723      2724
 -1      1128    8    0    1
 -2       502       640       641      2721      2725      2723
 -1      1129    8    0    1
 -2       504       503       642      2307      2726      2727
 -1      1130    8    0    1
 -2       503       641       642      2724      2728      2726
 -1      1131    8    0    1
 -2       505       504       643      2310      2729      2730
 -1      1132    8    0    1
 -2       504       642       643      2727      2731      2729
 -1      1133    8    0    1
 -2       506       505       644      2313      2732      2733
 -1      1134    8    0    1
 -2       505       643       644      2730      2734      2732
 -1      1135    8    0    1
 -2       507       506       645      2316      2735      2736
 -1      1136    8    0    1
 -2       506       644       645      2733      2737      2735
 -1      1137    8    0    1
 -2       508       507       646      2319      2738      2739
 -1      1138    8    0    1
 -2       507       645       646      2736      2740      2738
 -1      1139    8    0    1
 -2       509       508       647      2322      2741      2742
 -1      1140    8    0    1
 -2       508       646       647      2739      2743      2741
 -1      1141    8    0    1
 -2       510       509       648      2325      2744      2745
 -1      1142    8    0    1
 -2       509       647       648      2742      2746      2744
 -1      1143    8    0    1
 -2       511       510       649      2328      2747      2748
 -1      1144    8    0    1
 -2       510       648       649      2745      2749      2747
 -1      1145    8    0    1
 -2       512       511       602      2331      2750      2751
 -1      1146    8    0    1
 -2       513       512       470      2334      2752      2753
 -1      1147    8    0    1
 -2       514       513       604      2337      2754      2755
 -1      1148    8    0    1
 -2       515       514       605      2340      2756      2757
 -1      1149    8    0    1
 -2       517       516       650      2346      2758      2759
 -1      1150    8    0    1
 -2       518       517       651      2349      2760      2761
 -1      1151    8    0    1
 -2       517       650       651      2759      2762      2760
 -1      1152    8    0    1
 -2       519       518       652      2352      2763      2764
 -1      1153    8    0    1
 -2       518       651       652      2761      2765      2763
 -1      1154    8    0    1
 -2       520       519       653      2355      2766      2767
 -1      1155    8    0    1
 -2       519       652       653      2764      2768      2766
 -1      1156    8    0    1
 -2       521       520       654      2358      2769      2770
 -1      1157    8    0    1
 -2       520       653       654      2767      2771      2769
 -1      1158    8    0    1
 -2       522       521       655      2361      2772      2773
 -1      1159    8    0    1
 -2       521       654       655      2770      2774      2772
 -1      1160    8    0    1
 -2       523       522       656      2364      2775      2776
 -1      1161    8    0    1
 -2       522       655       656      2773      2777      2775
 -1      1162    8    0    1
 -2       524       523       657      2367      2778      2779
 -1      1163    8    0    1
 -2       523       656       657      2776      2780      2778
 -1      1164    8    0    1
 -2       525       524       658      2370      2781      2782
 -1      1165    8    0    1
 -2       524       657       658      2779      2783      2781
 -1      1166    8    0    1
 -2       526       525       659      2373      2784      2785
 -1      1167    8    0    1
 -2       525       658       659      2782      2786      2784
 -1      1168    8    0    1
 -2       527       526       660      2376      2787      2788
 -1      1169    8    0    1
 -2       526       659       660      2785      2789      2787
 -1      1170    8    0    1
 -2       528       527       661      2379      2790      2791
 -1      1171    8    0    1
 -2       527       660       661      2788      2792      2790
 -1      1172    8    0    1
 -2       529       528       662      2382      2793      2794
 -1      1173    8    0    1
 -2       528       661       662      2791      2795      2793
 -1      1174    8    0    1
 -2       531       532       663      2390      2796      2797
 -1      1175    8    0    1
 -2       618       529       664      2661      2798      2799
 -1      1176    8    0    1
 -2       529       662       664      2794      2800      2798
 -1      1177    8    0    1
 -2       530       531       665      2387      2801      2802
 -1      1178    8    0    1
 -2       531       663       665      2797      2803      2801
 -1      1179    8    0    1
 -2       533       534       666      2396      2804      2805
 -1      1180    8    0    1
 -2       534       535       667      2399      2806      2807
 -1      1181    8    0    1
 -2       534       667       666      2807      2808      2804
 -1      1182    8    0    1
 -2       535       536       668      2402      2809      2810
 -1      1183    8    0    1
 -2       535       668       667      2810      2811      2806
 -1      1184    8    0    1
 -2       536       537       669      2405      2812      2813
 -1      1185    8    0    1
 -2       536       669       668      2813      2814      2809
 -1      1186    8    0    1
 -2       537       538       670      2408      2815      2816
 -1      1187    8    0    1
 -2       537       670       669      2816      2817      2812
 -1      1188    8    0    1
 -2       538       539       671      2411      2818      2819
 -1      1189    8    0    1
 -2       538       671       670      2819      2820      2815
 -1      1190    8    0    1
 -2       539       540       672      2414      2821      2822
 -1      1191    8    0    1
 -2       539       672       671      2822      2823      2818
 -1      1192    8    0    1
 -2       540       541       673      2417      2824      2825
 -1      1193    8    0    1
 -2       540       673       672      2825      2826      2821
 -1      1194    8    0    1
 -2       541       542       674      2420      2827      2828
 -1      1195    8    0    1
 -2       541       674       673      2828      2829      2824
 -1      1196    8    0    1
 -2       542       543       675      2423      2830      2831
 -1      1197    8    0    1
 -2       542       675       674      2831      2832      2827
 -1      1198    8    0    1
 -2       543       544       676      2426      2833      2834
 -1      1199    8    0    1
 -2       543       676       675      2834      2835      2830
 -1      1200    8    0    1
 -2       544       545       677      2429      2836      2837
 -1      1201    8    0    1
 -2       544       677       676      2837      2838      2833
 -1      1202    8    0    1
 -2       545       546       678      2432      2839      2840
 -1      1203    8    0    1
 -2       545       678       677      2840      2841      2836
 -1      1204    8    0    1
 -2       546       547       679      2435      2842      2843
 -1      1205    8    0    1
 -2       546       679       678      2843      2844      2839
 -1      1206    8    0    1
 -2       547       548       680      2438      2845      2846
 -1      1207    8    0    1
 -2       547       680       679      2846      2847      2842
 -1      1208    8    0    1
 -2       548       549       681      2441      2848      2849
 -1      1209    8    0    1
 -2       548       681       680      2849      2850      2845
 -1      1210    8    0    1
 -2       549       550       682      2444      2851      2852
 -1      1211    8    0    1
 -2       549       682       681      2852      2853      2848
 -1      1212    8    0    1
 -2       550       551       683      2447      2854      2855
 -1      1213    8    0    1
 -2       550       683       682      2855      2856      2851
 -1      1214    8    0    1
 -2       551       552       684      2450      2857      2858
 -1      1215    8    0    1
 -2       551       684       683      2858      2859      2854
 -1      1216    8    0    1
 -2       552       553       685      2453      2860      2861
 -1      1217    8    0    1
 -2       552       685       684      2861      2862      2857
 -1      1218    8    0    1
 -2       553       554       686      2456      2863      2864
 -1      1219    8    0    1
 -2       553       686       685      2864      2865      2860
 -1      1220    8    0    1
 -2       554       555       687      2459      2866      2867
 -1      1221    8    0    1
 -2       554       687       686      2867      2868      2863
 -1      1222    8    0    1
 -2       555       556       688      2462      2869      2870
 -1      1223    8    0    1
 -2       555       688       687      2870      2871      2866
 -1      1224    8    0    1
 -2       556       557       689      2465      2872      2873
 -1      1225    8    0    1
 -2       556       689       688      2873      2874      2869
 -1      1226    8    0    1
 -2       557       558       690      2468      2875      2876
 -1      1227    8    0    1
 -2       557       690       689      2876      2877      2872
 -1      1228    8    0    1
 -2       558       559       691      2471      2878      2879
 -1      1229    8    0    1
 -2       558       691       690      2879      2880      2875
 -1      1230    8    0    1
 -2       559       560       692      2474      2881      2882
 -1      1231    8    0    1
 -2       559       692       691      2882      2883      2878
 -1      1232    8    0    1
 -2       560       561       693      2477      2884      2885
 -1      1233    8    0    1
 -2       560       693       692      2885      2886      2881
 -1      1234    8    0    1
 -2       561       562       694      2480      2887      2888
 -1      1235    8    0    1
 -2       561       694       693      2888      2889      2884
 -1      1236    8    0    1
 -2       562       563       695      2483      2890      2891
 -1      1237    8    0    1
 -2       562       695       694      2891      2892      2887
 -1      1238    8    0    1
 -2       563       564       696      2486      2893      2894
 -1      1239    8    0    1
 -2       563       696       695      2894      2895      2890
 -1      1240    8    0    1
 -2       564       565       697      2489      2896      2897
 -1      1241    8    0    1
 -2       564       697       696      2897      2898      2893
 -1      1242    8    0    1
 -2       565       566       698      2492      2899      2900
 -1      1243    8    0    1
 -2       565       698       697      2900      2901      2896
 -1      1244    8    0    1
 -2       566       567       699      2495      2902      2903
 -1      1245    8    0    1
 -2       566       699       698      2903      2904      2899
 -1      1246    8    0    1
 -2       567       568       700      2498      2905      2906
 -1      1247    8    0    1
 -2       567       700       699      2906      2907      2902
 -1      1248    8    0    1
 -2       568       569       701      2501      2908      2909
 -1      1249    8    0    1
 -2       568       701       700      2909      2910      2905
 -1      1250    8    0    1
 -2       569       570       702      2504      2911      2912
 -1      1251    8    0    1
 -2       569       702       701      2912      2913      2908
 -1      1252    8    0    1
 -2       570       571       703      2507      2914      2915
 -1      1253    8    0    1
 -2       702       570       703      2911      2915      2916
 -1      1254    8    0    1
 -2       571       574       703      2640      2917      2914
 -1      1255    8    0    1
 -2       584       587       704      2631      2918      2919
 -1      1256    8    0    1
 -2       576       577       705      2525      2920      2921
 -1      1257    8    0    1
 -2       485       588       706      2641      2922      2923
 -1      1258    8    0    1
 -2       572       573       707      2513      2924      2925
 -1      1259    8    0    1
 -2       577       578       708      2528      2926      2927
 -1      1260    8    0    1
 -2       577       708       705      2927      2928      2920
 -1      1261    8    0    1
 -2       573       576       709      2522      2929      2930
 -1      1262    8    0    1
 -2       707       573       709      2924      2930      2931
 -1      1263    8    0    1
 -2       576       705       709      2921      2932      2929
 -1      1264    8    0    1
 -2       578       579       710      2531      2933      2934
 -1      1265    8    0    1
 -2       578       710       708      2934      2935      2926
 -1      1266    8    0    1
 -2       579       580       711      2534      2936      2937
 -1      1267    8    0    1
 -2       579       711       710      2937      2938      2933
 -1      1268    8    0    1
 -2       580       581       712      2537      2939      2940
 -1      1269    8    0    1
 -2       580       712       711      2940      2941      2936
 -1      1270    8    0    1
 -2       589       586       713      2628      2942      2943
 -1      1271    8    0    1
 -2       486       584       714      2545      2944      2945
 -1      1272    8    0    1
 -2       585       530       715      2548      2946      2947
 -1      1273    8    0    1
 -2       530       665       715      2802      2948      2946
 -1      1274    8    0    1
 -2       598       599       716      2635      2949      2950
 -1      1275    8    0    1
 -2       605       514       604      2756      2755      2623
 -1      1276    8    0    1
 -2       601       471       717      2629      2951      2952
 -1      1277    8    0    1
 -2       586       583       718      2634      2953      2954
 -1      1278    8    0    1
 -2       470       512       602      2752      2751      2656
 -1      1279    8    0    1
 -2       532       533       719      2393      2955      2956
 -1      1280    8    0    1
 -2       663       532       719      2796      2956      2957
 -1      1281    8    0    1
 -2       533       666       719      2805      2958      2955
 -1      1282    8    0    1
 -2       487       484       720      2256      2959      2960
 -1      1283    8    0    1
 -2       487       720       626      2960      2961      2679
 -1      1284    8    0    1
 -2       607       589       721      2642      2962      2963
 -1      1285    8    0    1
 -2       479       480       722      2238      2964      2965
 -1      1286    8    0    1
 -2       619       479       722      2662      2965      2966
 -1      1287    8    0    1
 -2       480       621       722      2668      2967      2964
 -1      1288    8    0    1
 -2       606       595       723      2622      2968      2969
 -1      1289    8    0    1
 -2       483       585       724      2616      2970      2971
 -1      1290    8    0    1
 -2       623       483       724      2672      2971      2972
 -1      1291    8    0    1
 -2       585       715       724      2947      2973      2970
 -1      1292    8    0    1
 -2       473       594       725      2652      2974      2975
 -1      1293    8    0    1
 -2       476       475       726      2227      2976      2977
 -1      1294    8    0    1
 -2       592       590       727      2566      2978      2979
 -1      1295    8    0    1
 -2       594       596       728      2575      2980      2981
 -1      1296    8    0    1
 -2       596       593       729      2636      2982      2983
 -1      1297    8    0    1
 -2       597       598       730      2580      2984      2985
 -1      1298    8    0    1
 -2       600       601       731      2587      2986      2987
 -1      1299    8    0    1
 -2       582       618       664      2659      2799      2988
 -1      1300    8    0    1
 -2       484       608       732      2604      2989      2990
 -1      1301    8    0    1
 -2       720       484       732      2959      2990      2991
 -1      1302    8    0    1
 -2       608       612       732      2620      2992      2989
 -1      1303    8    0    1
 -2       602       511       649      2750      2748      2993
 -1      1304    8    0    1
 -2       515       605       733      2757      2994      2995
 -1      1305    8    0    1
 -2       516       515       733      2343      2995      2996
 -1      1306    8    0    1
 -2       605       606       733      2599      2997      2994
 -1      1307    8    0    1
 -2       611       476       734      2613      2998      2999
 -1      1308    8    0    1
 -2       476       726       734      2977      3000      2998
 -1      1309    8    0    1
 -2       477       620       735      2665      3001      3002
 -1      1310    8    0    1
 -2       477       735       591      3002      3003      2563
 -1      1311    8    0    1
 -2       725       594       736      2974      3004      3005
 -1      1312    8    0    1
 -2       594       728       736      2981      3006      3004
 -1      1313    8    0    1
 -2       593       624       729      2675      3007      2982
 -1      1314    8    0    1
 -2       482       474       623      2676      2673      3008
 -1      1315    8    0    1
 -2       610       592       727      2610      2979      3009
 -1      1316    8    0    1
 -2       625       485       737      2677      3010      3011
 -1      1317    8    0    1
 -2       485       706       737      2923      3012      3010
 -1      1318    8    0    1
 -2       613       486       714      2625      2945      3013
 -1      1319    8    0    1
 -2       606       723       733      2969      3014      2997
 -1      1320    8    0    1
 -2       731       601       717      2986      2952      3015
 -1      1321    8    0    1
 -2       516       733       650      2996      3016      2758
 -1      1322    8    0    1
 -2       717       471       649      2951      3017      3018
 -1      1323    8    0    1
 -2       598       716       730      2950      3019      2984
 -1      1324    8    0    1
 -2       704       587       625      2918      2678      3020
 -1      1325    8    0    1
 -2       703       574       738      2917      3021      3022
 -1      1326    8    0    1
 -2       574       575       738      2518      3023      3021
 -1      1327    8    0    1
 -2       714       584       704      2944      2919      3024
 -1      1328    8    0    1
 -2       706       588       739      2922      3025      3026
 -1      1329    8    0    1
 -2       588       616       739      2648      3027      3025
 -1      1330    8    0    1
 -2       589       713       721      2943      3028      2962
 -1      1331    8    0    1
 -2       713       586       718      2942      2954      3029
 -1      1332    8    0    1
 -2       581       582       664      2540      2988      3030
 -1      1333    8    0    1
 -2       473       725       615      2975      3031      2645
 -1      1334    8    0    1
 -2       614       607       740      2639      3032      3033
 -1      1335    8    0    1
 -2       607       721       740      2963      3034      3032
 -1      1336    8    0    1
 -2       716       599       741      2949      3035      3036
 -1      1337    8    0    1
 -2       599       617       741      2654      3037      3035
 -1      1338    8    0    1
 -2       583       613       742      2627      3038      3039
 -1      1339    8    0    1
 -2       583       742       718      3039      3040      2953
 -1      1340    8    0    1
 -2       482       623       622      3008      3041      2669
 -1      1341    8    0    1
 -2       595       614       723      2638      3042      2968
 -1      1342    8    0    1
 -2       604       513       603      2754      3043      2594
 -1      1343    8    0    1
 -2       581       664       743      3030      3044      3045
 -1      1344    8    0    1
 -2       712       581       743      2939      3045      3046
 -1      1345    8    0    1
 -2       664       662       743      2800      3047      3044
 -1      1346    8    0    1
 -2       616       472       610      2649      2612      3048
 -1      1347    8    0    1
 -2       728       596       729      2980      2983      3049
 -1      1348    8    0    1
 -2       471       602       649      2633      2993      3017
 -1      1349    8    0    1
 -2       727       590       744      2978      3050      3051
 -1      1350    8    0    1
 -2       590       615       744      2644      3052      3050
 -1      1351    8    0    1
 -2       575       572       745      2519      3053      3054
 -1      1352    8    0    1
 -2       738       575       745      3023      3054      3055
 -1      1353    8    0    1
 -2       572       707       745      2925      3056      3053
 -1      1354    8    0    1
 -2       475       591       746      2562      3057      3058
 -1      1355    8    0    1
 -2       726       475       746      2976      3058      3059
 -1      1356    8    0    1
 -2       591       735       746      3003      3060      3057
 -1      1357    8    0    1
 -2       617       600       731      2655      2987      3061
 -1      1358    8    0    1
 -2       470       603       513      2646      3043      2753
 -1      1359    8    0    1
 -2       597       730       624      2985      3062      2674
 -1      1360    8    0    1
 -2       610       727       747      3009      3063      3064
 -1      1361    8    0    1
 -2       621       622       748      2671      3065      3066
 -1      1362    8    0    1
 -2       612       611       749      2621      3067      3068
 -1      1363    8    0    1
 -2       732       612       749      2992      3068      3069
 -1      1364    8    0    1
 -2       611       734       749      2999      3070      3067
 -1      1365    8    0    1
 -2       628       627       750      2686      3071      3072
 -1      1366    8    0    1
 -2       629       628       751      2689      3073      3074
 -1      1367    8    0    1
 -2       628       750       751      3072      3075      3073
 -1      1368    8    0    1
 -2       630       629       752      2692      3076      3077
 -1      1369    8    0    1
 -2       629       751       752      3074      3078      3076
 -1      1370    8    0    1
 -2       631       630       753      2695      3079      3080
 -1      1371    8    0    1
 -2       630       752       753      3077      3081      3079
 -1      1372    8    0    1
 -2       632       631       754      2698      3082      3083
 -1      1373    8    0    1
 -2       631       753       754      3080      3084      3082
 -1      1374    8    0    1
 -2       633       632       755      2701      3085      3086
 -1      1375    8    0    1
 -2       632       754       755      3083      3087      3085
 -1      1376    8    0    1
 -2       634       633       756      2704      3088      3089
 -1      1377    8    0    1
 -2       633       755       756      3086      3090      3088
 -1      1378    8    0    1
 -2       635       634       757      2707      3091      3092
 -1      1379    8    0    1
 -2       634       756       757      3089      3093      3091
 -1      1380    8    0    1
 -2       636       635       758      2710      3094      3095
 -1      1381    8    0    1
 -2       635       757       758      3092      3096      3094
 -1      1382    8    0    1
 -2       637       636       759      2713      3097      3098
 -1      1383    8    0    1
 -2       636       758       759      3095      3099      3097
 -1      1384    8    0    1
 -2       638       637       760      2716      3100      3101
 -1      1385    8    0    1
 -2       637       759       760      3098      3102      3100
 -1      1386    8    0    1
 -2       639       638       761      2719      3103      3104
 -1      1387    8    0    1
 -2       638       760       761      3101      3105      3103
 -1      1388    8    0    1
 -2       640       639       762      2722      3106      3107
 -1      1389    8    0    1
 -2       639       761       762      3104      3108      3106
 -1      1390    8    0    1
 -2       641       640       763      2725      3109      3110
 -1      1391    8    0    1
 -2       640       762       763      3107      3111      3109
 -1      1392    8    0    1
 -2       642       641       764      2728      3112      3113
 -1      1393    8    0    1
 -2       641       763       764      3110      3114      3112
 -1      1394    8    0    1
 -2       643       642       765      2731      3115      3116
 -1      1395    8    0    1
 -2       642       764       765      3113      3117      3115
 -1      1396    8    0    1
 -2       644       643       766      2734      3118      3119
 -1      1397    8    0    1
 -2       643       765       766      3116      3120      3118
 -1      1398    8    0    1
 -2       645       644       767      2737      3121      3122
 -1      1399    8    0    1
 -2       644       766       767      3119      3123      3121
 -1      1400    8    0    1
 -2       646       645       768      2740      3124      3125
 -1      1401    8    0    1
 -2       645       767       768      3122      3126      3124
 -1      1402    8    0    1
 -2       647       646       769      2743      3127      3128
 -1      1403    8    0    1
 -2       646       768       769      3125      3129      3127
 -1      1404    8    0    1
 -2       648       647       770      2746      3130      3131
 -1      1405    8    0    1
 -2       647       769       770      3128      3132      3130
 -1      1406    8    0    1
 -2       649       648       717      2749      3133      3018
 -1      1407    8    0    1
 -2       731       717       770      3015      3134      3135
 -1      1408    8    0    1
 -2       624       730       771      3062      3136      3137
 -1      1409    8    0    1
 -2       730       716       772      3019      3138      3139
 -1      1410    8    0    1
 -2       626       720       773      2961      3140      3141
 -1      1411    8    0    1
 -2       652       651       774      2765      3142      3143
 -1      1412    8    0    1
 -2       653       652       775      2768      3144      3145
 -1      1413    8    0    1
 -2       652       774       775      3143      3146      3144
 -1      1414    8    0    1
 -2       654       653       776      2771      3147      3148
 -1      1415    8    0    1
 -2       653       775       776      3145      3149      3147
 -1      1416    8    0    1
 -2       655       654       777      2774      3150      3151
 -1      1417    8    0    1
 -2       654       776       777      3148      3152      3150
 -1      1418    8    0    1
 -2       656       655       778      2777      3153      3154
 -1      1419    8    0    1
 -2       655       777       778      3151      3155      3153
 -1      1420    8    0    1
 -2       657       656       779      2780      3156      3157
 -1      1421    8    0    1
 -2       656       778       779      3154      3158      3156
 -1      1422    8    0    1
 -2       658       657       780      2783      3159      3160
 -1      1423    8    0    1
 -2       657       779       780      3157      3161      3159
 -1      1424    8    0    1
 -2       659       658       781      2786      3162      3163
 -1      1425    8    0    1
 -2       658       780       781      3160      3164      3162
 -1      1426    8    0    1
 -2       660       659       782      2789      3165      3166
 -1      1427    8    0    1
 -2       659       781       782      3163      3167      3165
 -1      1428    8    0    1
 -2       661       660       783      2792      3168      3169
 -1      1429    8    0    1
 -2       660       782       783      3166      3170      3168
 -1      1430    8    0    1
 -2       662       661       784      2795      3171      3172
 -1      1431    8    0    1
 -2       743       662       784      3047      3172      3173
 -1      1432    8    0    1
 -2       661       783       784      3169      3174      3171
 -1      1433    8    0    1
 -2       665       663       785      2803      3175      3176
 -1      1434    8    0    1
 -2       704       625       786      3020      3177      3178
 -1      1435    8    0    1
 -2       667       668       787      2811      3179      3180
 -1      1436    8    0    1
 -2       666       667       788      2808      3181      3182
 -1      1437    8    0    1
 -2       667       787       788      3180      3183      3181
 -1      1438    8    0    1
 -2       669       670       789      2817      3184      3185
 -1      1439    8    0    1
 -2       670       671       790      2820      3186      3187
 -1      1440    8    0    1
 -2       670       790       789      3187      3188      3184
 -1      1441    8    0    1
 -2       671       672       791      2823      3189      3190
 -1      1442    8    0    1
 -2       671       791       790      3190      3191      3186
 -1      1443    8    0    1
 -2       672       673       792      2826      3192      3193
 -1      1444    8    0    1
 -2       672       792       791      3193      3194      3189
 -1      1445    8    0    1
 -2       673       674       793      2829      3195      3196
 -1      1446    8    0    1
 -2       673       793       792      3196      3197      3192
 -1      1447    8    0    1
 -2       674       675       794      2832      3198      3199
 -1      1448    8    0    1
 -2       674       794       793      3199      3200      3195
 -1      1449    8    0    1
 -2       675       676       795      2835      3201      3202
 -1      1450    8    0    1
 -2       675       795       794      3202      3203      3198
 -1      1451    8    0    1
 -2       676       677       796      2838      3204      3205
 -1      1452    8    0    1
 -2       676       796       795      3205      3206      3201
 -1      1453    8    0    1
 -2       677       678       797      2841      3207      3208
 -1      1454    8    0    1
 -2       677       797       796      3208      3209      3204
 -1      1455    8    0    1
 -2       678       679       798      2844      3210      3211
 -1      1456    8    0    1
 -2       678       798       797      3211      3212      3207
 -1      1457    8    0    1
 -2       679       680       799      2847      3213      3214
 -1      1458    8    0    1
 -2       679       799       798      3214      3215      3210
 -1      1459    8    0    1
 -2       680       681       800      2850      3216      3217
 -1      1460    8    0    1
 -2       680       800       799      3217      3218      3213
 -1      1461    8    0    1
 -2       681       682       801      2853      3219      3220
 -1      1462    8    0    1
 -2       681       801       800      3220      3221      3216
 -1      1463    8    0    1
 -2       682       683       802      2856      3222      3223
 -1      1464    8    0    1
 -2       682       802       801      3223      3224      3219
 -1      1465    8    0    1
 -2       683       684       803      2859      3225      3226
 -1      1466    8    0    1
 -2       683       803       802      3226      3227      3222
 -1      1467    8    0    1
 -2       684       685       804      2862      3228      3229
 -1      1468    8    0    1
 -2       684       804       803      3229      3230      3225
 -1      1469    8    0    1
 -2       685       686       805      2865      3231      3232
 -1      1470    8    0    1
 -2       685       805       804      3232      3233      3228
 -1      1471    8    0    1
 -2       686       687       747      2868      3234      3235
 -1      1472    8    0    1
 -2       688       689       806      2874      3236      3237
 -1      1473    8    0    1
 -2       689       690       807      2877      3238      3239
 -1      1474    8    0    1
 -2       689       807       806      3239      3240      3236
 -1      1475    8    0    1
 -2       690       691       808      2880      3241      3242
 -1      1476    8    0    1
 -2       690       808       807      3242      3243      3238
 -1      1477    8    0    1
 -2       691       692       809      2883      3244      3245
 -1      1478    8    0    1
 -2       691       809       808      3245      3246      3241
 -1      1479    8    0    1
 -2       692       693       810      2886      3247      3248
 -1      1480    8    0    1
 -2       692       810       809      3248      3249      3244
 -1      1481    8    0    1
 -2       693       694       811      2889      3250      3251
 -1      1482    8    0    1
 -2       693       811       810      3251      3252      3247
 -1      1483    8    0    1
 -2       694       695       812      2892      3253      3254
 -1      1484    8    0    1
 -2       694       812       811      3254      3255      3250
 -1      1485    8    0    1
 -2       695       696       813      2895      3256      3257
 -1      1486    8    0    1
 -2       695       813       812      3257      3258      3253
 -1      1487    8    0    1
 -2       696       697       814      2898      3259      3260
 -1      1488    8    0    1
 -2       696       814       813      3260      3261      3256
 -1      1489    8    0    1
 -2       697       698       815      2901      3262      3263
 -1      1490    8    0    1
 -2       697       815       814      3263      3264      3259
 -1      1491    8    0    1
 -2       698       699       816      2904      3265      3266
 -1      1492    8    0    1
 -2       698       816       815      3266      3267      3262
 -1      1493    8    0    1
 -2       699       700       817      2907      3268      3269
 -1      1494    8    0    1
 -2       699       817       816      3269      3270      3265
 -1      1495    8    0    1
 -2       700       701       818      2910      3271      3272
 -1      1496    8    0    1
 -2       700       818       817      3272      3273      3268
 -1      1497    8    0    1
 -2       701       702       819      2913      3274      3275
 -1      1498    8    0    1
 -2       701       819       818      3275      3276      3271
 -1      1499    8    0    1
 -2       702       703       820      2916      3277      3278
 -1      1500    8    0    1
 -2       819       702       820      3274      3278      3279
 -1      1501    8    0    1
 -2       703       738       820      3022      3280      3277
 -1      1502    8    0    1
 -2       715       665       821      2948      3281      3282
 -1      1503    8    0    1
 -2       665       785       821      3176      3283      3281
 -1      1504    8    0    1
 -2       708       710       822      2935      3284      3285
 -1      1505    8    0    1
 -2       613       714       823      3013      3286      3287
 -1      1506    8    0    1
 -2       705       708       824      2928      3288      3289
 -1      1507    8    0    1
 -2       708       822       824      3285      3290      3288
 -1      1508    8    0    1
 -2       714       704       825      3024      3291      3292
 -1      1509    8    0    1
 -2       710       711       826      2938      3293      3294
 -1      1510    8    0    1
 -2       710       826       822      3294      3295      3284
 -1      1511    8    0    1
 -2       711       712       827      2941      3296      3297
 -1      1512    8    0    1
 -2       711       827       826      3297      3298      3293
 -1      1513    8    0    1
 -2       668       669       828      2814      3299      3300
 -1      1514    8    0    1
 -2       787       668       828      3179      3300      3301
 -1      1515    8    0    1
 -2       669       789       828      3185      3302      3299
 -1      1516    8    0    1
 -2       620       619       829      2666      3303      3304
 -1      1517    8    0    1
 -2       733       723       650      3014      3305      3016
 -1      1518    8    0    1
 -2       616       610       830      3048      3306      3307
 -1      1519    8    0    1
 -2       610       747       830      3064      3308      3306
 -1      1520    8    0    1
 -2       651       650       831      2762      3309      3310
 -1      1521    8    0    1
 -2       774       651       831      3142      3310      3311
 -1      1522    8    0    1
 -2       650       723       831      3305      3312      3309
 -1      1523    8    0    1
 -2       622       623       832      3041      3313      3314
 -1      1524    8    0    1
 -2       748       622       832      3065      3314      3315
 -1      1525    8    0    1
 -2       623       724       832      2972      3316      3313
 -1      1526    8    0    1
 -2       713       718       833      3029      3317      3318
 -1      1527    8    0    1
 -2       627       626       834      2683      3319      3320
 -1      1528    8    0    1
 -2       627       834       750      3320      3321      3071
 -1      1529    8    0    1
 -2       617       731       835      3061      3322      3323
 -1      1530    8    0    1
 -2       729       624       836      3007      3324      3325
 -1      1531    8    0    1
 -2       615       725       837      3031      3326      3327
 -1      1532    8    0    1
 -2       721       713       838      3028      3328      3329
 -1      1533    8    0    1
 -2       713       833       838      3318      3330      3328
 -1      1534    8    0    1
 -2       723       614       831      3042      3331      3312
 -1      1535    8    0    1
 -2       728       729       839      3049      3332      3333
 -1      1536    8    0    1
 -2       717       648       770      3133      3131      3134
 -1      1537    8    0    1
 -2       735       620       840      3001      3334      3335
 -1      1538    8    0    1
 -2       620       829       840      3304      3336      3334
 -1      1539    8    0    1
 -2       736       728       841      3006      3337      3338
 -1      1540    8    0    1
 -2       728       839       841      3333      3339      3337
 -1      1541    8    0    1
 -2       621       748       842      3066      3340      3341
 -1      1542    8    0    1
 -2       621       842       722      3341      3342      2967
 -1      1543    8    0    1
 -2       737       706       843      3012      3343      3344
 -1      1544    8    0    1
 -2       706       739       843      3026      3345      3343
 -1      1545    8    0    1
 -2       719       666       844      2958      3346      3347
 -1      1546    8    0    1
 -2       666       788       844      3182      3348      3346
 -1      1547    8    0    1
 -2       771       730       845      3136      3349      3350
 -1      1548    8    0    1
 -2       730       772       845      3139      3351      3349
 -1      1549    8    0    1
 -2       624       771       846      3137      3352      3353
 -1      1550    8    0    1
 -2       624       846       836      3353      3354      3324
 -1      1551    8    0    1
 -2       626       773       834      3141      3355      3319
 -1      1552    8    0    1
 -2       734       726       847      3000      3356      3357
 -1      1553    8    0    1
 -2       714       825       823      3292      3358      3286
 -1      1554    8    0    1
 -2       786       625       848      3177      3359      3360
 -1      1555    8    0    1
 -2       625       737       848      3011      3361      3359
 -1      1556    8    0    1
 -2       720       732       749      2991      3069      3362
 -1      1557    8    0    1
 -2       704       786       825      3178      3363      3291
 -1      1558    8    0    1
 -2       686       747       805      3235      3364      3231
 -1      1559    8    0    1
 -2       747       687       830      3234      3365      3308
 -1      1560    8    0    1
 -2       687       688       830      2871      3366      3365
 -1      1561    8    0    1
 -2       707       709       849      2931      3367      3368
 -1      1562    8    0    1
 -2       613       823       850      3287      3369      3370
 -1      1563    8    0    1
 -2       613       850       742      3370      3371      3038
 -1      1564    8    0    1
 -2       726       746       851      3059      3372      3373
 -1      1565    8    0    1
 -2       726       851       847      3373      3374      3356
 -1      1566    8    0    1
 -2       709       705       852      2932      3375      3376
 -1      1567    8    0    1
 -2       849       709       852      3367      3376      3377
 -1      1568    8    0    1
 -2       705       824       852      3289      3378      3375
 -1      1569    8    0    1
 -2       739       616       830      3027      3307      3379
 -1      1570    8    0    1
 -2       837       725       736      3326      3005      3380
 -1      1571    8    0    1
 -2       740       721       853      3034      3381      3382
 -1      1572    8    0    1
 -2       721       838       853      3329      3383      3381
 -1      1573    8    0    1
 -2       741       617       835      3037      3323      3384
 -1      1574    8    0    1
 -2       731       770       835      3135      3385      3322
 -1      1575    8    0    1
 -2       614       740       831      3033      3386      3331
 -1      1576    8    0    1
 -2       785       663       854      3175      3387      3388
 -1      1577    8    0    1
 -2       663       719       854      2957      3389      3387
 -1      1578    8    0    1
 -2       745       707       855      3056      3390      3391
 -1      1579    8    0    1
 -2       707       849       855      3368      3392      3390
 -1      1580    8    0    1
 -2       829       619       856      3303      3393      3394
 -1      1581    8    0    1
 -2       619       722       856      2966      3395      3393
 -1      1582    8    0    1
 -2       724       715       857      2973      3396      3397
 -1      1583    8    0    1
 -2       832       724       857      3316      3397      3398
 -1      1584    8    0    1
 -2       715       821       857      3282      3399      3396
 -1      1585    8    0    1
 -2       716       741       858      3036      3400      3401
 -1      1586    8    0    1
 -2       716       858       772      3401      3402      3138
 -1      1587    8    0    1
 -2       744       615       837      3052      3327      3403
 -1      1588    8    0    1
 -2       773       720       749      3140      3362      3404
 -1      1589    8    0    1
 -2       729       836       839      3325      3405      3332
 -1      1590    8    0    1
 -2       718       742       859      3040      3406      3407
 -1      1591    8    0    1
 -2       718       859       833      3407      3408      3317
 -1      1592    8    0    1
 -2       747       727       805      3063      3409      3364
 -1      1593    8    0    1
 -2       712       743       860      3046      3410      3411
 -1      1594    8    0    1
 -2       827       712       860      3296      3411      3412
 -1      1595    8    0    1
 -2       743       784       860      3173      3413      3410
 -1      1596    8    0    1
 -2       825       786       861      3363      3414      3415
 -1      1597    8    0    1
 -2       751       750       862      3075      3416      3417
 -1      1598    8    0    1
 -2       752       751       863      3078      3418      3419
 -1      1599    8    0    1
 -2       751       862       863      3417      3420      3418
 -1      1600    8    0    1
 -2       753       752       864      3081      3421      3422
 -1      1601    8    0    1
 -2       752       863       864      3419      3423      3421
 -1      1602    8    0    1
 -2       754       753       865      3084      3424      3425
 -1      1603    8    0    1
 -2       753       864       865      3422      3426      3424
 -1      1604    8    0    1
 -2       755       754       866      3087      3427      3428
 -1      1605    8    0    1
 -2       754       865       866      3425      3429      3427
 -1      1606    8    0    1
 -2       756       755       867      3090      3430      3431
 -1      1607    8    0    1
 -2       755       866       867      3428      3432      3430
 -1      1608    8    0    1
 -2       757       756       868      3093      3433      3434
 -1      1609    8    0    1
 -2       756       867       868      3431      3435      3433
 -1      1610    8    0    1
 -2       758       757       869      3096      3436      3437
 -1      1611    8    0    1
 -2       757       868       869      3434      3438      3436
 -1      1612    8    0    1
 -2       759       758       870      3099      3439      3440
 -1      1613    8    0    1
 -2       758       869       870      3437      3441      3439
 -1      1614    8    0    1
 -2       760       759       871      3102      3442      3443
 -1      1615    8    0    1
 -2       759       870       871      3440      3444      3442
 -1      1616    8    0    1
 -2       761       760       872      3105      3445      3446
 -1      1617    8    0    1
 -2       760       871       872      3443      3447      3445
 -1      1618    8    0    1
 -2       762       761       873      3108      3448      3449
 -1      1619    8    0    1
 -2       761       872       873      3446      3450      3448
 -1      1620    8    0    1
 -2       763       762       874      3111      3451      3452
 -1      1621    8    0    1
 -2       762       873       874      3449      3453      3451
 -1      1622    8    0    1
 -2       764       763       875      3114      3454      3455
 -1      1623    8    0    1
 -2       763       874       875      3452      3456      3454
 -1      1624    8    0    1
 -2       765       764       876      3117      3457      3458
 -1      1625    8    0    1
 -2       764       875       876      3455      3459      3457
 -1      1626    8    0    1
 -2       766       765       877      3120      3460      3461
 -1      1627    8    0    1
 -2       765       876       877      3458      3462      3460
 -1      1628    8    0    1
 -2       767       766       878      3123      3463      3464
 -1      1629    8    0    1
 -2       766       877       878      3461      3465      3463
 -1      1630    8    0    1
 -2       768       767       879      3126      3466      3467
 -1      1631    8    0    1
 -2       767       878       879      3464      3468      3466
 -1      1632    8    0    1
 -2       769       768       880      3129      3469      3470
 -1      1633    8    0    1
 -2       768       879       880      3467      3471      3469
 -1      1634    8    0    1
 -2       770       769       835      3132      3472      3385
 -1      1635    8    0    1
 -2       823       825       881      3358      3473      3474
 -1      1636    8    0    1
 -2       825       861       881      3415      3475      3473
 -1      1637    8    0    1
 -2       776       775       882      3149      3476      3477
 -1      1638    8    0    1
 -2       777       776       883      3152      3478      3479
 -1      1639    8    0    1
 -2       776       882       883      3477      3480      3478
 -1      1640    8    0    1
 -2       778       777       884      3155      3481      3482
 -1      1641    8    0    1
 -2       777       883       884      3479      3483      3481
 -1      1642    8    0    1
 -2       779       778       885      3158      3484      3485
 -1      1643    8    0    1
 -2       778       884       885      3482      3486      3484
 -1      1644    8    0    1
 -2       780       779       886      3161      3487      3488
 -1      1645    8    0    1
 -2       779       885       886      3485      3489      3487
 -1      1646    8    0    1
 -2       781       780       887      3164      3490      3491
 -1      1647    8    0    1
 -2       780       886       887      3488      3492      3490
 -1      1648    8    0    1
 -2       782       781       888      3167      3493      3494
 -1      1649    8    0    1
 -2       781       887       888      3491      3495      3493
 -1      1650    8    0    1
 -2       783       782       889      3170      3496      3497
 -1      1651    8    0    1
 -2       782       888       889      3494      3498      3496
 -1      1652    8    0    1
 -2       790       791       890      3191      3499      3500
 -1      1653    8    0    1
 -2       789       790       891      3188      3501      3502
 -1      1654    8    0    1
 -2       790       890       891      3500      3503      3501
 -1      1655    8    0    1
 -2       792       793       892      3197      3504      3505
 -1      1656    8    0    1
 -2       793       794       893      3200      3506      3507
 -1      1657    8    0    1
 -2       793       893       892      3507      3508      3504
 -1      1658    8    0    1
 -2       794       795       894      3203      3509      3510
 -1      1659    8    0    1
 -2       794       894       893      3510      3511      3506
 -1      1660    8    0    1
 -2       795       796       895      3206      3512      3513
 -1      1661    8    0    1
 -2       795       895       894      3513      3514      3509
 -1      1662    8    0    1
 -2       796       797       896      3209      3515      3516
 -1      1663    8    0    1
 -2       796       896       895      3516      3517      3512
 -1      1664    8    0    1
 -2       797       798       897      3212      3518      3519
 -1      1665    8    0    1
 -2       797       897       896      3519      3520      3515
 -1      1666    8    0    1
 -2       798       799       898      3215      3521      3522
 -1      1667    8    0    1
 -2       798       898       897      3522      3523      3518
 -1      1668    8    0    1
 -2       799       800       899      3218      3524      3525
 -1      1669    8    0    1
 -2       799       899       898      3525      3526      3521
 -1      1670    8    0    1
 -2       800       801       900      3221      3527      3528
 -1      1671    8    0    1
 -2       800       900       899      3528      3529      3524
 -1      1672    8    0    1
 -2       801       802       901      3224      3530      3531
 -1      1673    8    0    1
 -2       801       901       900      3531      3532      3527
 -1      1674    8    0    1
 -2       803       804       902      3230      3533      3534
 -1      1675    8    0    1
 -2       804       805       837      3233      3535      3536
 -1      1676    8    0    1
 -2       688       806       830      3237      3537      3366
 -1      1677    8    0    1
 -2       806       807       843      3240      3538      3539
 -1      1678    8    0    1
 -2       809       810       903      3249      3540      3541
 -1      1679    8    0    1
 -2       810       811       904      3252      3542      3543
 -1      1680    8    0    1
 -2       810       904       903      3543      3544      3540
 -1      1681    8    0    1
 -2       811       812       905      3255      3545      3546
 -1      1682    8    0    1
 -2       811       905       904      3546      3547      3542
 -1      1683    8    0    1
 -2       812       813       906      3258      3548      3549
 -1      1684    8    0    1
 -2       812       906       905      3549      3550      3545
 -1      1685    8    0    1
 -2       813       814       907      3261      3551      3552
 -1      1686    8    0    1
 -2       813       907       906      3552      3553      3548
 -1      1687    8    0    1
 -2       814       815       908      3264      3554      3555
 -1      1688    8    0    1
 -2       814       908       907      3555      3556      3551
 -1      1689    8    0    1
 -2       815       816       909      3267      3557      3558
 -1      1690    8    0    1
 -2       815       909       908      3558      3559      3554
 -1      1691    8    0    1
 -2       816       817       910      3270      3560      3561
 -1      1692    8    0    1
 -2       816       910       909      3561      3562      3557
 -1      1693    8    0    1
 -2       817       818       911      3273      3563      3564
 -1      1694    8    0    1
 -2       817       911       910      3564      3565      3560
 -1      1695    8    0    1
 -2       818       819       912      3276      3566      3567
 -1      1696    8    0    1
 -2       818       912       911      3567      3568      3563
 -1      1697    8    0    1
 -2       821       785       913      3283      3569      3570
 -1      1698    8    0    1
 -2       746       735       914      3060      3571      3572
 -1      1699    8    0    1
 -2       746       914       851      3572      3573      3372
 -1      1700    8    0    1
 -2       826       827       915      3298      3574      3575
 -1      1701    8    0    1
 -2       822       826       916      3295      3576      3577
 -1      1702    8    0    1
 -2       826       915       916      3575      3578      3576
 -1      1703    8    0    1
 -2       824       822       917      3290      3579      3580
 -1      1704    8    0    1
 -2       822       916       917      3577      3581      3579
 -1      1705    8    0    1
 -2       834       773       918      3355      3582      3583
 -1      1706    8    0    1
 -2       838       833       919      3330      3584      3585
 -1      1707    8    0    1
 -2       808       809       848      3246      3586      3587
 -1      1708    8    0    1
 -2       807       808       843      3243      3588      3538
 -1      1709    8    0    1
 -2       788       787       920      3183      3589      3590
 -1      1710    8    0    1
 -2       750       834       921      3321      3591      3592
 -1      1711    8    0    1
 -2       834       918       921      3583      3593      3591
 -1      1712    8    0    1
 -2       831       740       774      3386      3594      3311
 -1      1713    8    0    1
 -2       749       734       773      3070      3595      3404
 -1      1714    8    0    1
 -2       839       836       922      3405      3596      3597
 -1      1715    8    0    1
 -2       837       736       902      3380      3598      3599
 -1      1716    8    0    1
 -2       791       792       923      3194      3600      3601
 -1      1717    8    0    1
 -2       890       791       923      3499      3601      3602
 -1      1718    8    0    1
 -2       792       892       923      3505      3603      3600
 -1      1719    8    0    1
 -2       741       835       924      3384      3604      3605
 -1      1720    8    0    1
 -2       738       745       925      3055      3606      3607
 -1      1721    8    0    1
 -2       820       738       925      3280      3607      3608
 -1      1722    8    0    1
 -2       745       855       925      3391      3609      3606
 -1      1723    8    0    1
 -2       804       837       902      3536      3599      3533
 -1      1724    8    0    1
 -2       774       740       853      3594      3382      3610
 -1      1725    8    0    1
 -2       841       839       926      3339      3611      3612
 -1      1726    8    0    1
 -2       839       922       926      3597      3613      3611
 -1      1727    8    0    1
 -2       842       748       927      3340      3614      3615
 -1      1728    8    0    1
 -2       835       769       880      3472      3470      3616
 -1      1729    8    0    1
 -2       844       788       928      3348      3617      3618
 -1      1730    8    0    1
 -2       788       920       928      3590      3619      3617
 -1      1731    8    0    1
 -2       845       772       929      3351      3620      3621
 -1      1732    8    0    1
 -2       772       858       929      3402      3622      3620
 -1      1733    8    0    1
 -2       727       744       805      3051      3623      3409
 -1      1734    8    0    1
 -2       846       771       930      3352      3624      3625
 -1      1735    8    0    1
 -2       771       845       930      3350      3626      3624
 -1      1736    8    0    1
 -2       735       840       914      3335      3627      3571
 -1      1737    8    0    1
 -2       836       846       922      3354      3628      3596
 -1      1738    8    0    1
 -2       849       852       931      3377      3629      3630
 -1      1739    8    0    1
 -2       882       775       853      3476      3631      3632
 -1      1740    8    0    1
 -2       741       924       858      3605      3633      3400
 -1      1741    8    0    1
 -2       784       783       932      3174      3634      3635
 -1      1742    8    0    1
 -2       860       784       932      3413      3635      3636
 -1      1743    8    0    1
 -2       783       889       932      3497      3637      3634
 -1      1744    8    0    1
 -2       736       841       902      3338      3638      3598
 -1      1745    8    0    1
 -2       789       891       933      3502      3639      3640
 -1      1746    8    0    1
 -2       789       933       828      3640      3641      3302
 -1      1747    8    0    1
 -2       803       902       934      3534      3642      3643
 -1      1748    8    0    1
 -2       802       803       934      3227      3643      3644
 -1      1749    8    0    1
 -2       902       841       934      3638      3645      3642
 -1      1750    8    0    1
 -2       901       802       934      3530      3644      3646
 -1      1751    8    0    1
 -2       774       853       775      3610      3631      3146
 -1      1752    8    0    1
 -2       830       806       739      3537      3647      3379
 -1      1753    8    0    1
 -2       829       856       935      3394      3648      3649
 -1      1754    8    0    1
 -2       850       823       936      3369      3650      3651
 -1      1755    8    0    1
 -2       823       881       936      3474      3652      3650
 -1      1756    8    0    1
 -2       848       809       903      3586      3541      3653
 -1      1757    8    0    1
 -2       821       913       937      3570      3654      3655
 -1      1758    8    0    1
 -2       913       785       938      3569      3656      3657
 -1      1759    8    0    1
 -2       785       854       938      3388      3658      3656
 -1      1760    8    0    1
 -2       819       820       925      3279      3608      3659
 -1      1761    8    0    1
 -2       742       850       939      3371      3660      3661
 -1      1762    8    0    1
 -2       742       939       859      3661      3662      3406
 -1      1763    8    0    1
 -2       824       917       940      3580      3663      3664
 -1      1764    8    0    1
 -2       824       940       852      3664      3665      3378
 -1      1765    8    0    1
 -2       829       935       941      3649      3666      3667
 -1      1766    8    0    1
 -2       829       941       840      3667      3668      3336
 -1      1767    8    0    1
 -2       827       860       932      3412      3636      3669
 -1      1768    8    0    1
 -2       919       833       942      3584      3670      3671
 -1      1769    8    0    1
 -2       833       859       942      3408      3672      3670
 -1      1770    8    0    1
 -2       918       773       847      3582      3673      3674
 -1      1771    8    0    1
 -2       748       832       943      3315      3675      3676
 -1      1772    8    0    1
 -2       927       748       943      3614      3676      3677
 -1      1773    8    0    1
 -2       832       857       943      3398      3678      3675
 -1      1774    8    0    1
 -2       806       843       739      3539      3345      3647
 -1      1775    8    0    1
 -2       722       842       856      3342      3679      3395
 -1      1776    8    0    1
 -2       847       851       944      3374      3680      3681
 -1      1777    8    0    1
 -2       847       944       918      3681      3682      3674
 -1      1778    8    0    1
 -2       734       847       773      3357      3673      3595
 -1      1779    8    0    1
 -2       854       719       844      3389      3347      3683
 -1      1780    8    0    1
 -2       855       849       945      3392      3684      3685
 -1      1781    8    0    1
 -2       849       931       945      3630      3686      3684
 -1      1782    8    0    1
 -2       787       828       946      3301      3687      3688
 -1      1783    8    0    1
 -2       920       787       946      3589      3688      3689
 -1      1784    8    0    1
 -2       828       933       946      3641      3690      3687
 -1      1785    8    0    1
 -2       750       921       862      3592      3691      3416
 -1      1786    8    0    1
 -2       857       821       937      3399      3655      3692
 -1      1787    8    0    1
 -2       819       925       912      3659      3693      3566
 -1      1788    8    0    1
 -2       837       805       744      3535      3623      3403
 -1      1789    8    0    1
 -2       827       932       915      3669      3694      3574
 -1      1790    8    0    1
 -2       835       880       924      3616      3695      3604
 -1      1791    8    0    1
 -2       864       863       947      3423      3696      3697
 -1      1792    8    0    1
 -2       865       864       948      3426      3698      3699
 -1      1793    8    0    1
 -2       864       947       948      3697      3700      3698
 -1      1794    8    0    1
 -2       866       865       949      3429      3701      3702
 -1      1795    8    0    1
 -2       865       948       949      3699      3703      3701
 -1      1796    8    0    1
 -2       867       866       950      3432      3704      3705
 -1      1797    8    0    1
 -2       866       949       950      3702      3706      3704
 -1      1798    8    0    1
 -2       868       867       951      3435      3707      3708
 -1      1799    8    0    1
 -2       867       950       951      3705      3709      3707
 -1      1800    8    0    1
 -2       869       868       952      3438      3710      3711
 -1      1801    8    0    1
 -2       868       951       952      3708      3712      3710
 -1      1802    8    0    1
 -2       870       869       953      3441      3713      3714
 -1      1803    8    0    1
 -2       869       952       953      3711      3715      3713
 -1      1804    8    0    1
 -2       871       870       954      3444      3716      3717
 -1      1805    8    0    1
 -2       870       953       954      3714      3718      3716
 -1      1806    8    0    1
 -2       872       871       955      3447      3719      3720
 -1      1807    8    0    1
 -2       871       954       955      3717      3721      3719
 -1      1808    8    0    1
 -2       873       872       956      3450      3722      3723
 -1      1809    8    0    1
 -2       872       955       956      3720      3724      3722
 -1      1810    8    0    1
 -2       874       873       957      3453      3725      3726
 -1      1811    8    0    1
 -2       873       956       957      3723      3727      3725
 -1      1812    8    0    1
 -2       875       874       958      3456      3728      3729
 -1      1813    8    0    1
 -2       874       957       958      3726      3730      3728
 -1      1814    8    0    1
 -2       876       875       959      3459      3731      3732
 -1      1815    8    0    1
 -2       875       958       959      3729      3733      3731
 -1      1816    8    0    1
 -2       877       876       960      3462      3734      3735
 -1      1817    8    0    1
 -2       876       959       960      3732      3736      3734
 -1      1818    8    0    1
 -2       878       877       961      3465      3737      3738
 -1      1819    8    0    1
 -2       877       960       961      3735      3739      3737
 -1      1820    8    0    1
 -2       879       878       962      3468      3740      3741
 -1      1821    8    0    1
 -2       878       961       962      3738      3742      3740
 -1      1822    8    0    1
 -2       880       879       963      3471      3743      3744
 -1      1823    8    0    1
 -2       879       962       963      3741      3745      3743
 -1      1824    8    0    1
 -2       883       882       964      3480      3746      3747
 -1      1825    8    0    1
 -2       881       861       965      3475      3748      3749
 -1      1826    8    0    1
 -2       931       852       940      3629      3665      3750
 -1      1827    8    0    1
 -2       858       924       966      3633      3751      3752
 -1      1828    8    0    1
 -2       858       966       929      3752      3753      3622
 -1      1829    8    0    1
 -2       932       889       915      3637      3754      3694
 -1      1830    8    0    1
 -2       848       737       808      3361      3755      3587
 -1      1831    8    0    1
 -2       901       934       926      3646      3756      3757
 -1      1832    8    0    1
 -2       884       883       967      3483      3758      3759
 -1      1833    8    0    1
 -2       883       964       967      3747      3760      3758
 -1      1834    8    0    1
 -2       885       884       968      3486      3761      3762
 -1      1835    8    0    1
 -2       884       967       968      3759      3763      3761
 -1      1836    8    0    1
 -2       886       885       969      3489      3764      3765
 -1      1837    8    0    1
 -2       885       968       969      3762      3766      3764
 -1      1838    8    0    1
 -2       887       886       970      3492      3767      3768
 -1      1839    8    0    1
 -2       886       969       970      3765      3769      3767
 -1      1840    8    0    1
 -2       888       887       971      3495      3770      3771
 -1      1841    8    0    1
 -2       887       970       971      3768      3772      3770
 -1      1842    8    0    1
 -2       889       888       972      3498      3773      3774
 -1      1843    8    0    1
 -2       888       971       972      3771      3775      3773
 -1      1844    8    0    1
 -2       914       840       973      3627      3776      3777
 -1      1845    8    0    1
 -2       840       941       973      3668      3778      3776
 -1      1846    8    0    1
 -2       934       841       926      3645      3612      3756
 -1      1847    8    0    1
 -2       893       894       974      3511      3779      3780
 -1      1848    8    0    1
 -2       892       893       975      3508      3781      3782
 -1      1849    8    0    1
 -2       893       974       975      3780      3783      3781
 -1      1850    8    0    1
 -2       895       896       976      3517      3784      3785
 -1      1851    8    0    1
 -2       896       897       977      3520      3786      3787
 -1      1852    8    0    1
 -2       896       977       976      3787      3788      3784
 -1      1853    8    0    1
 -2       897       898       978      3523      3789      3790
 -1      1854    8    0    1
 -2       897       978       977      3790      3791      3786
 -1      1855    8    0    1
 -2       898       899       979      3526      3792      3793
 -1      1856    8    0    1
 -2       898       979       978      3793      3794      3789
 -1      1857    8    0    1
 -2       899       900       980      3529      3795      3796
 -1      1858    8    0    1
 -2       899       980       979      3796      3797      3792
 -1      1859    8    0    1
 -2       900       901       981      3532      3798      3799
 -1      1860    8    0    1
 -2       980       900       981      3795      3799      3800
 -1      1861    8    0    1
 -2       901       926       981      3757      3801      3798
 -1      1862    8    0    1
 -2       937       913       982      3654      3802      3803
 -1      1863    8    0    1
 -2       912       925       855      3693      3609      3804
 -1      1864    8    0    1
 -2       903       904       965      3544      3805      3806
 -1      1865    8    0    1
 -2       906       907       983      3553      3807      3808
 -1      1866    8    0    1
 -2       907       908       984      3556      3809      3810
 -1      1867    8    0    1
 -2       907       984       983      3810      3811      3807
 -1      1868    8    0    1
 -2       908       909       985      3559      3812      3813
 -1      1869    8    0    1
 -2       908       985       984      3813      3814      3809
 -1      1870    8    0    1
 -2       909       910       986      3562      3815      3816
 -1      1871    8    0    1
 -2       909       986       985      3816      3817      3812
 -1      1872    8    0    1
 -2       910       911       987      3565      3818      3819
 -1      1873    8    0    1
 -2       910       987       986      3819      3820      3815
 -1      1874    8    0    1
 -2       851       914       988      3573      3821      3822
 -1      1875    8    0    1
 -2       944       851       988      3680      3822      3823
 -1      1876    8    0    1
 -2       914       973       988      3777      3824      3821
 -1      1877    8    0    1
 -2       786       848       903      3360      3653      3825
 -1      1878    8    0    1
 -2       924       880       963      3695      3744      3826
 -1      1879    8    0    1
 -2       921       918       944      3593      3682      3827
 -1      1880    8    0    1
 -2       917       916       989      3581      3828      3829
 -1      1881    8    0    1
 -2       861       786       903      3414      3825      3830
 -1      1882    8    0    1
 -2       853       838       882      3383      3831      3632
 -1      1883    8    0    1
 -2       922       846       990      3628      3832      3833
 -1      1884    8    0    1
 -2       838       919       882      3585      3834      3831
 -1      1885    8    0    1
 -2       905       906       991      3550      3835      3836
 -1      1886    8    0    1
 -2       906       983       991      3808      3837      3835
 -1      1887    8    0    1
 -2       862       921       992      3691      3838      3839
 -1      1888    8    0    1
 -2       904       905       993      3547      3840      3841
 -1      1889    8    0    1
 -2       965       904       993      3805      3841      3842
 -1      1890    8    0    1
 -2       905       991       993      3836      3843      3840
 -1      1891    8    0    1
 -2       856       842       994      3679      3844      3845
 -1      1892    8    0    1
 -2       935       856       994      3648      3845      3846
 -1      1893    8    0    1
 -2       842       927       994      3615      3847      3844
 -1      1894    8    0    1
 -2       894       895       995      3514      3848      3849
 -1      1895    8    0    1
 -2       895       976       995      3785      3850      3848
 -1      1896    8    0    1
 -2       891       890       996      3503      3851      3852
 -1      1897    8    0    1
 -2       863       862       997      3420      3853      3854
 -1      1898    8    0    1
 -2       862       992       997      3839      3855      3853
 -1      1899    8    0    1
 -2       915       889       972      3754      3774      3856
 -1      1900    8    0    1
 -2       912       855       945      3804      3685      3857
 -1      1901    8    0    1
 -2       861       903       965      3830      3806      3748
 -1      1902    8    0    1
 -2       882       919       964      3834      3858      3746
 -1      1903    8    0    1
 -2       808       737       843      3755      3344      3588
 -1      1904    8    0    1
 -2       854       844       998      3683      3859      3860
 -1      1905    8    0    1
 -2       854       998       938      3860      3861      3658
 -1      1906    8    0    1
 -2       947       863       997      3696      3854      3862
 -1      1907    8    0    1
 -2       844       928       998      3618      3863      3859
 -1      1908    8    0    1
 -2       928       920       999      3619      3864      3865
 -1      1909    8    0    1
 -2       930       845      1000      3626      3866      3867
 -1      1910    8    0    1
 -2       912       945       911      3857      3868      3568
 -1      1911    8    0    1
 -2       881       965      1001      3749      3869      3870
 -1      1912    8    0    1
 -2       881      1001       936      3870      3871      3652
 -1      1913    8    0    1
 -2       931       940      1002      3750      3872      3873
 -1      1914    8    0    1
 -2       931      1002      1003      3873      3874      3875
 -1      1915    8    0    1
 -2       931      1003       945      3875      3876      3686
 -1      1916    8    0    1
 -2       891       996      1004      3852      3877      3878
 -1      1917    8    0    1
 -2       891      1004       933      3878      3879      3639
 -1      1918    8    0    1
 -2       935       994      1005      3846      3880      3881
 -1      1919    8    0    1
 -2       921       944       992      3827      3882      3838
 -1      1920    8    0    1
 -2       935      1005      1006      3881      3883      3884
 -1      1921    8    0    1
 -2       935      1006       941      3884      3885      3666
 -1      1922    8    0    1
 -2       892       975      1007      3782      3886      3887
 -1      1923    8    0    1
 -2       892      1007       923      3887      3888      3603
 -1      1924    8    0    1
 -2       982       913      1008      3802      3889      3890
 -1      1925    8    0    1
 -2       913       938      1008      3657      3891      3889
 -1      1926    8    0    1
 -2       850       936      1009      3651      3892      3893
 -1      1927    8    0    1
 -2       850      1009       939      3893      3894      3660
 -1      1928    8    0    1
 -2       845       929      1000      3621      3895      3866
 -1      1929    8    0    1
 -2       915       972       916      3856      3896      3578
 -1      1930    8    0    1
 -2       987       911       945      3818      3868      3897
 -1      1931    8    0    1
 -2       940       917      1010      3663      3898      3899
 -1      1932    8    0    1
 -2      1002       940      1010      3872      3899      3900
 -1      1933    8    0    1
 -2       917       989      1010      3829      3901      3898
 -1      1934    8    0    1
 -2       926       922       981      3613      3902      3801
 -1      1935    8    0    1
 -2       942       859       939      3672      3662      3903
 -1      1936    8    0    1
 -2       989       916       972      3828      3896      3904
 -1      1937    8    0    1
 -2       990       846      1011      3832      3905      3906
 -1      1938    8    0    1
 -2       846       930      1011      3625      3907      3905
 -1      1939    8    0    1
 -2       974       894       995      3779      3849      3908
 -1      1940    8    0    1
 -2       981       922       990      3902      3833      3909
 -1      1941    8    0    1
 -2       996       890      1012      3851      3910      3911
 -1      1942    8    0    1
 -2       890       923      1012      3602      3912      3910
 -1      1943    8    0    1
 -2       919       942       964      3671      3913      3858
 -1      1944    8    0    1
 -2       920       946      1013      3689      3914      3915
 -1      1945    8    0    1
 -2       920      1013       999      3915      3916      3864
 -1      1946    8    0    1
 -2       930      1000      1014      3867      3917      3918
 -1      1947    8    0    1
 -2       930      1014      1011      3918      3919      3907
 -1      1948    8    0    1
 -2       949       948      1015      3703      3920      3921
 -1      1949    8    0    1
 -2       950       949      1016      3706      3922      3923
 -1      1950    8    0    1
 -2       949      1015      1016      3921      3924      3922
 -1      1951    8    0    1
 -2       951       950      1017      3709      3925      3926
 -1      1952    8    0    1
 -2       950      1016      1017      3923      3927      3925
 -1      1953    8    0    1
 -2       952       951      1018      3712      3928      3929
 -1      1954    8    0    1
 -2       951      1017      1018      3926      3930      3928
 -1      1955    8    0    1
 -2       953       952      1019      3715      3931      3932
 -1      1956    8    0    1
 -2       952      1018      1019      3929      3933      3931
 -1      1957    8    0    1
 -2       954       953      1020      3718      3934      3935
 -1      1958    8    0    1
 -2       953      1019      1020      3932      3936      3934
 -1      1959    8    0    1
 -2       955       954      1021      3721      3937      3938
 -1      1960    8    0    1
 -2       954      1020      1021      3935      3939      3937
 -1      1961    8    0    1
 -2       956       955      1022      3724      3940      3941
 -1      1962    8    0    1
 -2       955      1021      1022      3938      3942      3940
 -1      1963    8    0    1
 -2       957       956      1023      3727      3943      3944
 -1      1964    8    0    1
 -2       956      1022      1023      3941      3945      3943
 -1      1965    8    0    1
 -2       958       957      1024      3730      3946      3947
 -1      1966    8    0    1
 -2       957      1023      1024      3944      3948      3946
 -1      1967    8    0    1
 -2       959       958      1025      3733      3949      3950
 -1      1968    8    0    1
 -2       958      1024      1025      3947      3951      3949
 -1      1969    8    0    1
 -2       960       959      1026      3736      3952      3953
 -1      1970    8    0    1
 -2       959      1025      1026      3950      3954      3952
 -1      1971    8    0    1
 -2       961       960      1027      3739      3955      3956
 -1      1972    8    0    1
 -2       960      1026      1027      3953      3957      3955
 -1      1973    8    0    1
 -2       962       961      1028      3742      3958      3959
 -1      1974    8    0    1
 -2       961      1027      1028      3956      3960      3958
 -1      1975    8    0    1
 -2       963       962      1029      3745      3961      3962
 -1      1976    8    0    1
 -2       962      1028      1029      3959      3963      3961
 -1      1977    8    0    1
 -2       966       924       963      3751      3826      3964
 -1      1978    8    0    1
 -2       967       964      1030      3760      3965      3966
 -1      1979    8    0    1
 -2      1005       994       982      3880      3967      3968
 -1      1980    8    0    1
 -2       968       967      1031      3763      3969      3970
 -1      1981    8    0    1
 -2       967      1030      1031      3966      3971      3969
 -1      1982    8    0    1
 -2       969       968      1032      3766      3972      3973
 -1      1983    8    0    1
 -2       968      1031      1032      3970      3974      3972
 -1      1984    8    0    1
 -2       970       969      1033      3769      3975      3976
 -1      1985    8    0    1
 -2       969      1032      1033      3973      3977      3975
 -1      1986    8    0    1
 -2       971       970      1034      3772      3978      3979
 -1      1987    8    0    1
 -2       970      1033      1034      3976      3980      3978
 -1      1988    8    0    1
 -2       972       971      1035      3775      3981      3982
 -1      1989    8    0    1
 -2       989       972      1035      3904      3982      3983
 -1      1990    8    0    1
 -2       971      1034      1035      3979      3984      3981
 -1      1991    8    0    1
 -2       973       941      1036      3778      3985      3986
 -1      1992    8    0    1
 -2       941      1006      1036      3885      3987      3985
 -1      1993    8    0    1
 -2       985       986      1037      3817      3988      3989
 -1      1994    8    0    1
 -2       975       974      1038      3783      3990      3991
 -1      1995    8    0    1
 -2       977       978      1039      3791      3992      3993
 -1      1996    8    0    1
 -2       976       977      1040      3788      3994      3995
 -1      1997    8    0    1
 -2       977      1039      1040      3993      3996      3994
 -1      1998    8    0    1
 -2       979       980      1041      3797      3997      3998
 -1      1999    8    0    1
 -2       980       981       990      3800      3909      3999
 -1      2000    8    0    1
 -2       942       939      1042      3903      4000      4001
 -1      2001    8    0    1
 -2       984       985      1043      3814      4002      4003
 -1      2002    8    0    1
 -2       985      1037      1043      3989      4004      4002
 -1      2003    8    0    1
 -2       995       976      1044      3850      4005      4006
 -1      2004    8    0    1
 -2       976      1040      1044      3995      4007      4005
 -1      2005    8    0    1
 -2       947       997      1045      3862      4008      4009
 -1      2006    8    0    1
 -2       994       927       982      3847      4010      3967
 -1      2007    8    0    1
 -2       983       984      1046      3811      4011      4012
 -1      2008    8    0    1
 -2       984      1043      1046      4003      4013      4011
 -1      2009    8    0    1
 -2       986       987      1047      3820      4014      4015
 -1      2010    8    0    1
 -2       986      1047      1037      4015      4016      3988
 -1      2011    8    0    1
 -2      1000       929      1029      3895      4017      4018
 -1      2012    8    0    1
 -2       978       979      1048      3794      4019      4020
 -1      2013    8    0    1
 -2       978      1048      1039      4020      4021      3992
 -1      2014    8    0    1
 -2       927       943       937      3677      4022      4023
 -1      2015    8    0    1
 -2       966       963      1029      3964      3962      4024
 -1      2016    8    0    1
 -2      1005       982      1049      3968      4025      4026
 -1      2017    8    0    1
 -2       982      1008      1049      3890      4027      4025
 -1      2018    8    0    1
 -2       980       990      1041      3999      4028      3997
 -1      2019    8    0    1
 -2       927       937       982      4023      3803      4010
 -1      2020    8    0    1
 -2       991       983      1050      3837      4029      4030
 -1      2021    8    0    1
 -2       983      1046      1050      4012      4031      4029
 -1      2022    8    0    1
 -2       946       933      1051      3690      4032      4033
 -1      2023    8    0    1
 -2      1013       946      1051      3914      4033      4034
 -1      2024    8    0    1
 -2       933      1004      1051      3879      4035      4032
 -1      2025    8    0    1
 -2       938       998      1052      3861      4036      4037
 -1      2026    8    0    1
 -2       938      1052      1008      4037      4038      3891
 -1      2027    8    0    1
 -2       997       992      1053      3855      4039      4040
 -1      2028    8    0    1
 -2       997      1053      1045      4040      4041      4008
 -1      2029    8    0    1
 -2       998       928      1054      3863      4042      4043
 -1      2030    8    0    1
 -2      1052       998      1054      4036      4043      4044
 -1      2031    8    0    1
 -2       928       999      1054      3865      4045      4042
 -1      2032    8    0    1
 -2       929       966      1029      3753      4024      4017
 -1      2033    8    0    1
 -2       964       942      1030      3913      4046      3965
 -1      2034    8    0    1
 -2       974       995      1055      3908      4047      4048
 -1      2035    8    0    1
 -2       974      1055      1038      4048      4049      3990
 -1      2036    8    0    1
 -2       857       937       943      3692      4022      3678
 -1      2037    8    0    1
 -2       948       947      1056      3700      4050      4051
 -1      2038    8    0    1
 -2       947      1045      1056      4009      4052      4050
 -1      2039    8    0    1
 -2       990      1011      1041      3906      4053      4028
 -1      2040    8    0    1
 -2      1015       948      1056      3920      4051      4054
 -1      2041    8    0    1
 -2      1002      1010      1057      3900      4055      4056
 -1      2042    8    0    1
 -2      1001       965       993      3869      3842      4057
 -1      2043    8    0    1
 -2      1048       979      1041      4019      3998      4058
 -1      2044    8    0    1
 -2      1004       996      1058      3877      4059      4060
 -1      2045    8    0    1
 -2       996      1012      1059      3911      4061      4062
 -1      2046    8    0    1
 -2       996      1059      1058      4062      4063      4059
 -1      2047    8    0    1
 -2       992       944      1060      3882      4064      4065
 -1      2048    8    0    1
 -2      1000      1029      1061      4018      4066      4067
 -1      2049    8    0    1
 -2      1014      1000      1061      3917      4067      4068
 -1      2050    8    0    1
 -2      1029      1028      1061      3963      4069      4066
 -1      2051    8    0    1
 -2      1006      1005      1049      3883      4026      4070
 -1      2052    8    0    1
 -2      1007       975      1062      3886      4071      4072
 -1      2053    8    0    1
 -2       975      1038      1062      3991      4073      4071
 -1      2054    8    0    1
 -2      1042       939      1009      4000      3894      4074
 -1      2055    8    0    1
 -2      1009       936      1063      3892      4075      4076
 -1      2056    8    0    1
 -2       936      1001      1063      3871      4077      4075
 -1      2057    8    0    1
 -2       991      1050       993      4030      4078      3843
 -1      2058    8    0    1
 -2      1030       942      1042      4046      4001      4079
 -1      2059    8    0    1
 -2       944       988      1060      3823      4080      4064
 -1      2060    8    0    1
 -2      1010       989      1064      3901      4081      4082
 -1      2061    8    0    1
 -2      1057      1010      1064      4055      4082      4083
 -1      2062    8    0    1
 -2       989      1035      1064      3983      4084      4081
 -1      2063    8    0    1
 -2       988       973      1060      3824      4085      4080
 -1      2064    8    0    1
 -2       923      1007      1012      3888      4086      3912
 -1      2065    8    0    1
 -2      1002      1057      1047      4056      4087      4088
 -1      2066    8    0    1
 -2       987       945      1003      3897      3876      4089
 -1      2067    8    0    1
 -2       995      1044      1055      4006      4090      4047
 -1      2068    8    0    1
 -2      1053       992      1060      4039      4065      4091
 -1      2069    8    0    1
 -2      1002      1047      1003      4088      4092      3874
 -1      2070    8    0    1
 -2      1054       999      1065      4045      4093      4094
 -1      2071    8    0    1
 -2       999      1013      1066      3916      4095      4096
 -1      2072    8    0    1
 -2       999      1066      1065      4096      4097      4093
 -1      2073    8    0    1
 -2       973      1036      1060      3986      4098      4085
 -1      2074    8    0    1
 -2       987      1003      1047      4089      4092      4014
 -1      2075    8    0    1
 -2      1011      1014      1041      3919      4099      4053
 -1      2076    8    0    1
 -2      1049      1008      1067      4027      4100      4101
 -1      2077    8    0    1
 -2      1008      1052      1067      4038      4102      4100
 -1      2078    8    0    1
 -2      1017      1016      1068      3927      4103      4104
 -1      2079    8    0    1
 -2      1018      1017      1069      3930      4105      4106
 -1      2080    8    0    1
 -2      1017      1068      1069      4104      4107      4105
 -1      2081    8    0    1
 -2      1019      1018      1070      3933      4108      4109
 -1      2082    8    0    1
 -2      1018      1069      1070      4106      4110      4108
 -1      2083    8    0    1
 -2      1020      1019      1071      3936      4111      4112
 -1      2084    8    0    1
 -2      1019      1070      1071      4109      4113      4111
 -1      2085    8    0    1
 -2      1021      1020      1072      3939      4114      4115
 -1      2086    8    0    1
 -2      1020      1071      1072      4112      4116      4114
 -1      2087    8    0    1
 -2      1022      1021      1073      3942      4117      4118
 -1      2088    8    0    1
 -2      1021      1072      1073      4115      4119      4117
 -1      2089    8    0    1
 -2      1023      1022      1074      3945      4120      4121
 -1      2090    8    0    1
 -2      1022      1073      1074      4118      4122      4120
 -1      2091    8    0    1
 -2      1024      1023      1075      3948      4123      4124
 -1      2092    8    0    1
 -2      1023      1074      1075      4121      4125      4123
 -1      2093    8    0    1
 -2      1025      1024      1076      3951      4126      4127
 -1      2094    8    0    1
 -2      1024      1075      1076      4124      4128      4126
 -1      2095    8    0    1
 -2      1026      1025      1077      3954      4129      4130
 -1      2096    8    0    1
 -2      1025      1076      1077      4127      4131      4129
 -1      2097    8    0    1
 -2      1027      1026      1078      3957      4132      4133
 -1      2098    8    0    1
 -2      1026      1077      1078      4130      4134      4132
 -1      2099    8    0    1
 -2      1028      1027      1079      3960      4135      4136
 -1      2100    8    0    1
 -2      1061      1028      1079      4069      4136      4137
 -1      2101    8    0    1
 -2      1027      1078      1079      4133      4138      4135
 -1      2102    8    0    1
 -2      1006      1049      1080      4070      4139      4140
 -1      2103    8    0    1
 -2      1055      1044      1081      4090      4141      4142
 -1      2104    8    0    1
 -2      1038      1055      1082      4049      4143      4144
 -1      2105    8    0    1
 -2      1055      1081      1082      4142      4145      4143
 -1      2106    8    0    1
 -2      1032      1031      1083      3974      4146      4147
 -1      2107    8    0    1
 -2      1033      1032      1084      3977      4148      4149
 -1      2108    8    0    1
 -2      1032      1083      1084      4147      4150      4148
 -1      2109    8    0    1
 -2      1034      1033      1085      3980      4151      4152
 -1      2110    8    0    1
 -2      1033      1084      1085      4149      4153      4151
 -1      2111    8    0    1
 -2      1035      1034      1086      3984      4154      4155
 -1      2112    8    0    1
 -2      1064      1035      1086      4084      4155      4156
 -1      2113    8    0    1
 -2      1034      1085      1086      4152      4157      4154
 -1      2114    8    0    1
 -2      1042      1009      1087      4074      4158      4159
 -1      2115    8    0    1
 -2      1009      1063      1087      4076      4160      4158
 -1      2116    8    0    1
 -2      1004      1058      1088      4060      4161      4162
 -1      2117    8    0    1
 -2      1004      1088      1051      4162      4163      4035
 -1      2118    8    0    1
 -2      1045      1053      1089      4041      4164      4165
 -1      2119    8    0    1
 -2      1044      1040      1090      4007      4166      4167
 -1      2120    8    0    1
 -2      1044      1090      1081      4167      4168      4141
 -1      2121    8    0    1
 -2      1052      1054      1091      4044      4169      4170
 -1      2122    8    0    1
 -2      1067      1052      1091      4102      4170      4171
 -1      2123    8    0    1
 -2      1054      1065      1091      4094      4172      4169
 -1      2124    8    0    1
 -2      1046      1043      1092      4013      4173      4174
 -1      2125    8    0    1
 -2      1041      1014      1093      4099      4175      4176
 -1      2126    8    0    1
 -2      1048      1041      1093      4058      4176      4177
 -1      2127    8    0    1
 -2      1014      1061      1093      4068      4178      4175
 -1      2128    8    0    1
 -2      1039      1048      1094      4021      4179      4180
 -1      2129    8    0    1
 -2      1048      1093      1094      4177      4181      4179
 -1      2130    8    0    1
 -2      1043      1037      1095      4004      4182      4183
 -1      2131    8    0    1
 -2      1043      1095      1092      4183      4184      4173
 -1      2132    8    0    1
 -2      1056      1045      1096      4052      4185      4186
 -1      2133    8    0    1
 -2      1045      1089      1096      4165      4187      4185
 -1      2134    8    0    1
 -2      1040      1039      1097      3996      4188      4189
 -1      2135    8    0    1
 -2      1090      1040      1097      4166      4189      4190
 -1      2136    8    0    1
 -2      1039      1094      1097      4180      4191      4188
 -1      2137    8    0    1
 -2      1030      1042      1098      4079      4192      4193
 -1      2138    8    0    1
 -2      1031      1030      1098      3971      4193      4194
 -1      2139    8    0    1
 -2      1042      1087      1098      4159      4195      4192
 -1      2140    8    0    1
 -2      1050      1046      1099      4031      4196      4197
 -1      2141    8    0    1
 -2      1046      1092      1099      4174      4198      4196
 -1      2142    8    0    1
 -2      1060      1036      1053      4098      4199      4091
 -1      2143    8    0    1
 -2      1015      1056      1100      4054      4200      4201
 -1      2144    8    0    1
 -2      1056      1096      1100      4186      4202      4200
 -1      2145    8    0    1
 -2      1016      1015      1101      3924      4203      4204
 -1      2146    8    0    1
 -2      1068      1016      1101      4103      4204      4205
 -1      2147    8    0    1
 -2      1015      1100      1101      4201      4206      4203
 -1      2148    8    0    1
 -2      1012      1007      1102      4086      4207      4208
 -1      2149    8    0    1
 -2      1059      1012      1102      4061      4208      4209
 -1      2150    8    0    1
 -2      1007      1062      1102      4072      4210      4207
 -1      2151    8    0    1
 -2      1053      1036      1089      4199      4211      4164
 -1      2152    8    0    1
 -2      1036      1006      1080      3987      4140      4212
 -1      2153    8    0    1
 -2      1080      1049      1067      4139      4101      4213
 -1      2154    8    0    1
 -2      1001       993      1050      4057      4078      4214
 -1      2155    8    0    1
 -2      1013      1051      1103      4034      4215      4216
 -1      2156    8    0    1
 -2      1066      1013      1103      4095      4216      4217
 -1      2157    8    0    1
 -2      1051      1088      1103      4163      4218      4215
 -1      2158    8    0    1
 -2      1038      1082      1104      4144      4219      4220
 -1      2159    8    0    1
 -2      1038      1104      1062      4220      4221      4073
 -1      2160    8    0    1
 -2      1058      1059      1105      4063      4222      4223
 -1      2161    8    0    1
 -2      1083      1031      1098      4146      4194      4224
 -1      2162    8    0    1
 -2      1057      1064      1106      4083      4225      4226
 -1      2163    8    0    1
 -2      1064      1086      1106      4156      4227      4225
 -1      2164    8    0    1
 -2      1058      1105      1107      4223      4228      4229
 -1      2165    8    0    1
 -2      1058      1107      1088      4229      4230      4161
 -1      2166    8    0    1
 -2      1036      1080      1089      4212      4231      4211
 -1      2167    8    0    1
 -2      1037      1047      1108      4016      4232      4233
 -1      2168    8    0    1
 -2      1091      1065      1109      4172      4234      4235
 -1      2169    8    0    1
 -2      1095      1037      1108      4182      4233      4236
 -1      2170    8    0    1
 -2      1047      1057      1108      4087      4237      4232
 -1      2171    8    0    1
 -2      1108      1057      1106      4237      4226      4238
 -1      2172    8    0    1
 -2      1065      1066      1110      4097      4239      4240
 -1      2173    8    0    1
 -2      1065      1110      1109      4240      4241      4234
 -1      2174    8    0    1
 -2      1070      1069      1111      4110      4242      4243
 -1      2175    8    0    1
 -2      1071      1070      1105      4113      4244      4245
 -1      2176    8    0    1
 -2      1073      1072      1112      4119      4246      4247
 -1      2177    8    0    1
 -2      1074      1073      1104      4122      4248      4249
 -1      2178    8    0    1
 -2      1075      1074      1082      4125      4250      4251
 -1      2179    8    0    1
 -2      1076      1075      1081      4128      4252      4253
 -1      2180    8    0    1
 -2      1077      1076      1090      4131      4254      4255
 -1      2181    8    0    1
 -2      1078      1077      1097      4134      4256      4257
 -1      2182    8    0    1
 -2      1067      1091      1113      4171      4258      4259
 -1      2183    8    0    1
 -2      1091      1109      1113      4235      4260      4258
 -1      2184    8    0    1
 -2      1050      1099      1114      4197      4261      4262
 -1      2185    8    0    1
 -2      1069      1068      1115      4107      4263      4264
 -1      2186    8    0    1
 -2      1069      1115      1111      4264      4265      4242
 -1      2187    8    0    1
 -2      1105      1059      1116      4222      4266      4267
 -1      2188    8    0    1
 -2      1059      1102      1116      4209      4268      4266
 -1      2189    8    0    1
 -2      1084      1083      1092      4150      4269      4270
 -1      2190    8    0    1
 -2      1085      1084      1095      4153      4271      4272
 -1      2191    8    0    1
 -2      1098      1087      1117      4195      4273      4274
 -1      2192    8    0    1
 -2      1083      1098      1117      4224      4274      4275
 -1      2193    8    0    1
 -2      1087      1063      1117      4160      4276      4273
 -1      2194    8    0    1
 -2      1081      1090      1076      4168      4254      4253
 -1      2195    8    0    1
 -2      1001      1050      1114      4214      4262      4277
 -1      2196    8    0    1
 -2      1095      1108      1085      4236      4278      4272
 -1      2197    8    0    1
 -2      1093      1061      1079      4178      4137      4279
 -1      2198    8    0    1
 -2      1092      1095      1084      4184      4271      4270
 -1      2199    8    0    1
 -2      1096      1089      1113      4187      4280      4281
 -1      2200    8    0    1
 -2      1082      1081      1075      4145      4252      4251
 -1      2201    8    0    1
 -2      1080      1067      1113      4213      4259      4282
 -1      2202    8    0    1
 -2      1100      1096      1109      4202      4283      4284
 -1      2203    8    0    1
 -2      1094      1093      1079      4181      4279      4285
 -1      2204    8    0    1
 -2      1082      1074      1104      4250      4249      4219
 -1      2205    8    0    1
 -2      1071      1105      1116      4245      4267      4286
 -1      2206    8    0    1
 -2      1077      1090      1097      4255      4190      4256
 -1      2207    8    0    1
 -2      1100      1109      1110      4284      4241      4287
 -1      2208    8    0    1
 -2      1068      1101      1118      4205      4288      4289
 -1      2209    8    0    1
 -2      1068      1118      1115      4289      4290      4263
 -1      2210    8    0    1
 -2      1103      1088      1115      4218      4291      4292
 -1      2211    8    0    1
 -2      1100      1110      1101      4287      4293      4206
 -1      2212    8    0    1
 -2      1102      1062      1119      4210      4294      4295
 -1      2213    8    0    1
 -2      1116      1102      1119      4268      4295      4296
 -1      2214    8    0    1
 -2      1062      1104      1119      4221      4297      4294
 -1      2215    8    0    1
 -2      1072      1071      1116      4116      4286      4298
 -1      2216    8    0    1
 -2      1080      1113      1089      4282      4280      4231
 -1      2217    8    0    1
 -2      1078      1097      1094      4257      4191      4299
 -1      2218    8    0    1
 -2      1079      1078      1094      4138      4299      4285
 -1      2219    8    0    1
 -2      1092      1083      1117      4269      4275      4300
 -1      2220    8    0    1
 -2      1066      1103      1118      4217      4301      4302
 -1      2221    8    0    1
 -2      1105      1070      1111      4244      4243      4303
 -1      2222    8    0    1
 -2      1110      1066      1118      4239      4302      4304
 -1      2223    8    0    1
 -2      1109      1096      1113      4283      4281      4260
 -1      2224    8    0    1
 -2      1115      1088      1107      4291      4230      4305
 -1      2225    8    0    1
 -2      1073      1112      1104      4247      4306      4248
 -1      2226    8    0    1
 -2      1114      1099      1117      4261      4307      4308
 -1      2227    8    0    1
 -2      1118      1103      1115      4301      4292      4290
 -1      2228    8    0    1
 -2      1106      1086      1085      4227      4157      4309
 -1      2229    8    0    1
 -2      1072      1116      1112      4298      4310      4246
 -1      2230    8    0    1
 -2      1101      1110      1118      4293      4304      4288
 -1      2231    8    0    1
 -2      1001      1114      1117      4277      4308      4311
 -1      2232    8    0    1
 -2      1107      1105      1111      4228      4303      4312
 -1      2233    8    0    1
 -2      1112      1116      1119      4310      4296      4313
 -1      2234    8    0    1
 -2      1117      1099      1092      4307      4198      4300
 -1      2235    8    0    1
 -2      1111      1115      1107      4265      4305      4312
 -1      2236    8    0    1
 -2      1104      1112      1119      4306      4313      4297
 -1      2237    8    0    1
 -2      1106      1085      1108      4309      4278      4238
 -1      2238    8    0    1
 -2      1001      1117      1063      4311      4276      4077
 -3
    1PSTEP                         1           1           1          
  100CL  101 1.000000000        4313                     0    1           1
 -4  DISP        4    1
 -5  D1          1    2    1    0
 -5  D2          1    2    2    0
 -5  D3          1    2    3    0
 -5  ALL         1    2    0    0    1ALL
 -1         1 1.10848E-02-7.76391E-04-2.45870E-14
 -1         2 1.14576E-02-2.89654E-04-2.53875E-14
 -1         3 1.48104E-02-1.63320E-04-6.18682E-14
 -1         4 1.55407E-02-1.51080E-03-5.98687E-14
 -1         5 0.00000E+00 0.00000E+00 0.00000E+00
 -1         6 0.00000E+00 0.00000E+00 0.00000E+00
 -1         7 0.00000E+00 0.00000E+00 0.00000E+00
 -1         8 0.00000E+00 0.00000E+00 0.00000E+00
 -1         9 0.00000E+00 0.00000E+00 0.00000E+00
 -1        10 0.00000E+00 0.00000E+00 0.00000E+00
 -1        11 0.00000E+00 0.00000E+00 0.00000E+00
 -1        12 0.00000E+00 0.00000E+00 0.00000E+00
 -1        13 0.00000E+00 0.00000E+00 0.00000E+00
 -1        14 0.00000E+00 0.00000E+00 0.00000E+00
 -1        15 0.00000E+00 0.00000E+00 0.00000E+00
 -1        16 0.00000E+00 0.00000E+00 0.00000E+00
 -1        17 0.00000E+00 0.00000E+00 0.00000E+00
 -1        18 0.00000E+00 0.00000E+00 0.00000E+00
 -1        19 0.00000E+00 0.00000E+00 0.00000E+00
 -1        20 0.00000E+00 0.00000E+00 0.00000E+00
 -1        21 0.00000E+00 0.00000E+00 0.00000E+00
 -1        22 0.00000E+00 0.00000E+00 0.00000E+00
 -1        23 4.11029E-04-2.60601E-04 2.04406E-17
 -1        24 7.02674E-04-4.00700E-04-3.12047E-18
 -1        25 9.72375E-04-4.97819E-04-7.09272E-17
 -1        26 1.23647E-03-5.66160E-04-1.83837E-16
 -1        27 1.49960E-03-6.14833E-04-3.42479E-16
 -1        28 1.76385E-03-6.49176E-04-5.48491E-16
 -1        29 2.03022E-03-6.72847E-04-8.04180E-16
 -1        30 2.29911E-03-6.88477E-04-1.10734E-15
 -1        31 2.57064E-03-6.98012E-04-1.45991E-15
 -1        32 2.84477E-03-7.02900E-04-1.86440E-15
 -1        33 3.12144E-03-7.04214E-04-2.31892E-15
 -1        34 3.40056E-03-7.02739E-04-2.81944E-15
 -1        35 3.68217E-03-6.99056E-04-3.36656E-15
 -1        36 3.96637E-03-6.93604E-04-3.96039E-15
 -1        37 4.25347E-03-6.86753E-04-4.59784E-15
 -1        38 4.54397E-03-6.78883E-04-5.27741E-15
 -1        39 4.83861E-03-6.70468E-04-5.99745E-15
 -1        40 5.13843E-03-6.62199E-04-6.75227E-15
 -1        41 5.44476E-03-6.55131E-04-7.55129E-15
 -1        42 5.75928E-03-6.50878E-04-8.39285E-15
 -1        43 6.08391E-03-6.51866E-04-9.28562E-15
 -1        44 6.42063E-03-6.61610E-04-1.02297E-14
 -1        45 6.77100E-03-6.84957E-04-1.12275E-14
 -1        46 7.13534E-03-7.28078E-04-1.22796E-14
 -1        47 7.51135E-03-7.97788E-04-1.33818E-14
 -1        48 7.89251E-03-8.99545E-04-1.45329E-14
 -1        49 8.26698E-03-1.03348E-03-1.57354E-14
 -1        50 8.61915E-03-1.18899E-03-1.69961E-14
 -1        51 8.93565E-03-1.34106E-03-1.83237E-14
 -1        52 9.21482E-03-1.45450E-03-1.97271E-14
 -1        53 9.47257E-03-1.49876E-03-2.12019E-14
 -1        54 9.73657E-03-1.46567E-03-2.27354E-14
 -1        55 1.00310E-02-1.37480E-03-2.43413E-14
 -1        56 1.03640E-02-1.26110E-03-2.60113E-14
 -1        57 1.07277E-02-1.15660E-03-2.77589E-14
 -1        58 1.11066E-02-1.07989E-03-2.95625E-14
 -1        59 1.14863E-02-1.03624E-03-3.14178E-14
 -1        60 1.18573E-02-1.02255E-03-3.33022E-14
 -1        61 1.22151E-02-1.03236E-03-3.52275E-14
 -1        62 1.25588E-02-1.05895E-03-3.72139E-14
 -1        63 1.28893E-02-1.09664E-03-3.92702E-14
 -1        64 1.32084E-02-1.14108E-03-4.13937E-14
 -1        65 1.35181E-02-1.18918E-03-4.35767E-14
 -1        66 1.38204E-02-1.23878E-03-4.58046E-14
 -1        67 1.41168E-02-1.28838E-03-4.80850E-14
 -1        68 1.44087E-02-1.33696E-03-5.03993E-14
 -1        69 1.46974E-02-1.38385E-03-5.27531E-14
 -1        70 1.49839E-02-1.42863E-03-5.51337E-14
 -1        71 1.52695E-02-1.47135E-03-5.75468E-14
 -1        72 4.13474E-04 2.61302E-04 2.40828E-17
 -1        73 7.02498E-04 4.03398E-04 5.51927E-18
 -1        74 9.72916E-04 4.99584E-04-5.57720E-17
 -1        75 1.23731E-03 5.67865E-04-1.61482E-16
 -1        76 1.50057E-03 6.16588E-04-3.13687E-16
 -1        77 1.76491E-03 6.51027E-04-5.13217E-16
 -1        78 2.03133E-03 6.74818E-04-7.62912E-16
 -1        79 2.30027E-03 6.90590E-04-1.05818E-15
 -1        80 2.57186E-03 7.00291E-04-1.39601E-15
 -1        81 2.84605E-03 7.05379E-04-1.77986E-15
 -1        82 3.12278E-03 7.06943E-04-2.21071E-15
 -1        83 3.40198E-03 7.05797E-04-2.68582E-15
 -1        84 3.68364E-03 7.02562E-04-3.20610E-15
 -1        85 3.96785E-03 6.97734E-04-3.77705E-15
 -1        86 4.25485E-03 6.91761E-04-4.40424E-15
 -1        87 4.54499E-03 6.85116E-04-5.08866E-15
 -1        88 4.83878E-03 6.78383E-04-5.82411E-15
 -1        89 5.13687E-03 6.72341E-04-6.60353E-15
 -1        90 5.43999E-03 6.68066E-04-7.42963E-15
 -1        91 5.74885E-03 6.67014E-04-8.30430E-15
 -1        92 6.06396E-03 6.71077E-04-9.23249E-15
 -1        93 6.38542E-03 6.82558E-04-1.02092E-14
 -1        94 6.71249E-03 7.03989E-04-1.12427E-14
 -1        95 7.04324E-03 7.37686E-04-1.23287E-14
 -1        96 7.37411E-03 7.84927E-04-1.34713E-14
 -1        97 7.69998E-03 8.44759E-04-1.46691E-14
 -1        98 8.01470E-03 9.12659E-04-1.59297E-14
 -1        99 8.31276E-03 9.79713E-04-1.72688E-14
 -1       100 8.59162E-03 1.03327E-03-1.86799E-14
 -1       101 8.85382E-03 1.05979E-03-2.01702E-14
 -1       102 9.10734E-03 1.04926E-03-2.17325E-14
 -1       103 9.36331E-03 9.99207E-04-2.33669E-14
 -1       104 9.63195E-03 9.15714E-04-2.50691E-14
 -1       105 9.91904E-03 8.10886E-04-2.68345E-14
 -1       106 1.02247E-02 6.98355E-04-2.86838E-14
 -1       107 1.05448E-02 5.89350E-04-3.06158E-14
 -1       108 1.08733E-02 4.90836E-04-3.26262E-14
 -1       109 1.12043E-02 4.05619E-04-3.46996E-14
 -1       110 1.15333E-02 3.33483E-04-3.68228E-14
 -1       111 1.18575E-02 2.72523E-04-3.89954E-14
 -1       112 1.21755E-02 2.20185E-04-4.12213E-14
 -1       113 1.24869E-02 1.73916E-04-4.34843E-14
 -1       114 1.27922E-02 1.31475E-04-4.57665E-14
 -1       115 1.30921E-02 9.10400E-05-4.80789E-14
 -1       116 1.33872E-02 5.11913E-05-5.04023E-14
 -1       117 1.36786E-02 1.08540E-05-5.27222E-14
 -1       118 1.39671E-02-3.07557E-05-5.50570E-14
 -1       119 1.42536E-02-7.41322E-05-5.73799E-14
 -1       120 1.45392E-02-1.19346E-04-5.96830E-14
 -1       121 1.48561E-02-2.47779E-04-6.17348E-14
 -1       122 1.49029E-02-3.32177E-04-6.16061E-14
 -1       123 1.49513E-02-4.15619E-04-6.14763E-14
 -1       124 1.50010E-02-4.97281E-04-6.13331E-14
 -1       125 1.50511E-02-5.76719E-04-6.11998E-14
 -1       126 1.50998E-02-6.52595E-04-6.10907E-14
 -1       127 1.51479E-02-7.27834E-04-6.09898E-14
 -1       128 1.51937E-02-8.01715E-04-6.08872E-14
 -1       129 1.52368E-02-8.75049E-04-6.07871E-14
 -1       130 1.52773E-02-9.48743E-04-6.06650E-14
 -1       131 1.53154E-02-1.02367E-03-6.05616E-14
 -1       132 1.53513E-02-1.09921E-03-6.05051E-14
 -1       133 1.53872E-02-1.17837E-03-6.04345E-14
 -1       134 1.54235E-02-1.25990E-03-6.03213E-14
 -1       135 1.54613E-02-1.34335E-03-6.01815E-14
 -1       136 1.55007E-02-1.42773E-03-6.00310E-14
 -1       137 1.13842E-02-1.06330E-04-2.52882E-14
 -1       138 1.12034E-02 7.06554E-05-2.49939E-14
 -1       139 1.09607E-02 2.16706E-04-2.45818E-14
 -1       140 1.06278E-02 3.52321E-04-2.40097E-14
 -1       141 1.02148E-02 4.67504E-04-2.32918E-14
 -1       142 9.75467E-03 5.45844E-04-2.25079E-14
 -1       143 9.26522E-03 5.84937E-04-2.16831E-14
 -1       144 8.80960E-03 5.81397E-04-2.09493E-14
 -1       145 8.36484E-03 5.38949E-04-2.02381E-14
 -1       146 7.96400E-03 4.60736E-04-1.96007E-14
 -1       147 7.63988E-03 3.60621E-04-1.90975E-14
 -1       148 7.35853E-03 2.25076E-04-1.86696E-14
 -1       149 7.16601E-03 7.08453E-05-1.83819E-14
 -1       150 7.07049E-03-9.16095E-05-1.82350E-14
 -1       151 7.06793E-03-2.60196E-04-1.82143E-14
 -1       152 7.16848E-03-4.42074E-04-1.83397E-14
 -1       153 7.36391E-03-6.14731E-04-1.86076E-14
 -1       154 7.63440E-03-7.67912E-04-1.89979E-14
 -1       155 8.04444E-03-9.25414E-04-1.96051E-14
 -1       156 8.44602E-03-1.02656E-03-2.02102E-14
 -1       157 8.96581E-03-1.10412E-03-2.10201E-14
 -1       158 9.45358E-03-1.12440E-03-2.17918E-14
 -1       159 9.93649E-03-1.09679E-03-2.25785E-14
 -1       160 1.03522E-02-1.03138E-03-2.32742E-14
 -1       161 1.07453E-02-9.24224E-04-2.39618E-14
 -1       162 1.13070E-02-6.19000E-04-2.50273E-14
 -1       163 1.14284E-02-4.56744E-04-2.52928E-14
 -1       164 2.40254E-04-1.25502E-04-3.54399E-18
 -1       165 2.25196E-04-9.46266E-05-1.08386E-17
 -1       166 2.19522E-04-7.27982E-05-1.51822E-17
 -1       167 2.16764E-04-5.51179E-05-1.77369E-17
 -1       168 2.15311E-04-3.99735E-05-1.89837E-17
 -1       169 2.14504E-04-2.59172E-05-1.95800E-17
 -1       170 2.14102E-04-1.26435E-05-1.97393E-17
 -1       171 2.13985E-04 2.74185E-07-1.98036E-17
 -1       172 2.14120E-04 1.32040E-05-1.95427E-17
 -1       173 2.14544E-04 2.65167E-05-1.89939E-17
 -1       174 2.15360E-04 4.04004E-05-1.80587E-17
 -1       175 2.16867E-04 5.59255E-05-1.64663E-17
 -1       176 2.19668E-04 7.38305E-05-1.38575E-17
 -1       177 2.25372E-04 9.60259E-05-9.21911E-18
 -1       178 2.39183E-04 1.27580E-04-1.24344E-18
 -1       179 2.97466E-04 1.85435E-04 7.39629E-18
 -1       180 4.68248E-04-2.63432E-04-1.16145E-17
 -1       181 7.66129E-04-3.81830E-04-6.81082E-17
 -1       182 1.04971E-03-4.64385E-04-1.66628E-16
 -1       183 1.32685E-03-5.22670E-04-3.09821E-16
 -1       184 1.60121E-03-5.63663E-04-4.98113E-16
 -1       185 1.87489E-03-5.91999E-04-7.33537E-16
 -1       186 2.14908E-03-6.10918E-04-1.01646E-15
 -1       187 2.42442E-03-6.22769E-04-1.34721E-15
 -1       188 2.70125E-03-6.29278E-04-1.72791E-15
 -1       189 2.97975E-03-6.31713E-04-2.15860E-15
 -1       190 3.26004E-03-6.30994E-04-2.63697E-15
 -1       191 3.54222E-03-6.27785E-04-3.16115E-15
 -1       192 3.82644E-03-6.22560E-04-3.73333E-15
 -1       193 4.11293E-03-6.15683E-04-4.34944E-15
 -1       194 4.40204E-03-6.07473E-04-5.00978E-15
 -1       195 4.69428E-03-5.98292E-04-5.71106E-15
 -1       196 4.99031E-03-5.88645E-04-6.45170E-15
 -1       197 5.29101E-03-5.79316E-04-7.23163E-15
 -1       198 5.59743E-03-5.71543E-04-8.05780E-15
 -1       199 5.91078E-03-5.67259E-04-8.92795E-15
 -1       200 6.23234E-03-5.69380E-04-9.85116E-15
 -1       201 6.56325E-03-5.82132E-04-1.08294E-14
 -1       202 6.90421E-03-6.11275E-04-1.18613E-14
 -1       203 7.25486E-03-6.63934E-04-1.29443E-14
 -1       204 7.61314E-03-7.47448E-04-1.40766E-14
 -1       205 7.97446E-03-8.66406E-04-1.52605E-14
 -1       206 8.33155E-03-1.01736E-03-1.64976E-14
 -1       207 8.67589E-03-1.18260E-03-1.77966E-14
 -1       208 9.00183E-03-1.32843E-03-1.91680E-14
 -1       209 9.31185E-03-1.41517E-03-2.06119E-14
 -1       210 9.61761E-03-1.41844E-03-2.21215E-14
 -1       211 9.93354E-03-1.34543E-03-2.36975E-14
 -1       212 1.02677E-02-1.23006E-03-2.53404E-14
 -1       213 1.06184E-02-1.11161E-03-2.70515E-14
 -1       214 1.09782E-02-1.01718E-03-2.88301E-14
 -1       215 1.13387E-02-9.57608E-04-3.06628E-14
 -1       216 1.16938E-02-9.32035E-04-3.25380E-14
 -1       217 1.20400E-02-9.34134E-04-3.44477E-14
 -1       218 1.23761E-02-9.56381E-04-3.64108E-14
 -1       219 1.27024E-02-9.92124E-04-3.84353E-14
 -1       220 1.30196E-02-1.03621E-03-4.05239E-14
 -1       221 1.33292E-02-1.08492E-03-4.26711E-14
 -1       222 1.36324E-02-1.13570E-03-4.48693E-14
 -1       223 1.39304E-02-1.18679E-03-4.71136E-14
 -1       224 1.42243E-02-1.23703E-03-4.94032E-14
 -1       225 1.45150E-02-1.28561E-03-5.17332E-14
 -1       226 1.48035E-02-1.33200E-03-5.40954E-14
 -1       227 1.50903E-02-1.37600E-03-5.64908E-14
 -1       228 6.04052E-04 3.30834E-04-1.85263E-17
 -1       229 8.92870E-04 4.32203E-04-8.44458E-17
 -1       230 1.17148E-03 5.03560E-04-1.93164E-16
 -1       231 1.44556E-03 5.54078E-04-3.47382E-16
 -1       232 1.71813E-03 5.89534E-04-5.47864E-16
 -1       233 1.99083E-03 6.13854E-04-7.96289E-16
 -1       234 2.26457E-03 6.29847E-04-1.09137E-15
 -1       235 2.53980E-03 6.39573E-04-1.43034E-15
 -1       236 2.81677E-03 6.44559E-04-1.81428E-15
 -1       237 3.09558E-03 6.45934E-04-2.24309E-15
 -1       238 3.37631E-03 6.44533E-04-2.71742E-15
 -1       239 3.65904E-03 6.40976E-04-3.23704E-15
 -1       240 3.94391E-03 6.35751E-04-3.80661E-15
 -1       241 4.23113E-03 6.29280E-04-4.42965E-15
 -1       242 4.52101E-03 6.22005E-04-5.10770E-15
 -1       243 4.81395E-03 6.14466E-04-5.83727E-15
 -1       244 5.11044E-03 6.07402E-04-6.61395E-15
 -1       245 5.41100E-03 6.01848E-04-7.43759E-15
 -1       246 5.71615E-03 5.99233E-04-8.30951E-15
 -1       247 6.02625E-03 6.01460E-04-9.23567E-15
 -1       248 6.34135E-03 6.10905E-04-1.02110E-14
 -1       249 6.66096E-03 6.30274E-04-1.12399E-14
 -1       250 6.98381E-03 6.62187E-04-1.23176E-14
 -1       251 7.30763E-03 7.08381E-04-1.34504E-14
 -1       252 7.62912E-03 7.68464E-04-1.46435E-14
 -1       253 7.94434E-03 8.38413E-04-1.58991E-14
 -1       254 8.24967E-03 9.09464E-04-1.72264E-14
 -1       255 8.54316E-03 9.68471E-04-1.86278E-14
 -1       256 8.82602E-03 1.00067E-03-2.01062E-14
 -1       257 9.10291E-03 9.94565E-04-2.16559E-14
 -1       258 9.38069E-03 9.46565E-04-2.32782E-14
 -1       259 9.66587E-03 8.62591E-04-2.49727E-14
 -1       260 9.96229E-03 7.55479E-04-2.67349E-14
 -1       261 1.02703E-02 6.39950E-04-2.85732E-14
 -1       262 1.05873E-02 5.28161E-04-3.04908E-14
 -1       263 1.09094E-02 4.27604E-04-3.24835E-14
 -1       264 1.12330E-02 3.41229E-04-3.45373E-14
 -1       265 1.15548E-02 2.68725E-04-3.66448E-14
 -1       266 1.18729E-02 2.07990E-04-3.88009E-14
 -1       267 1.21862E-02 1.56260E-04-4.10078E-14
 -1       268 1.24944E-02 1.10808E-04-4.32517E-14
 -1       269 1.27977E-02 6.92668E-05-4.55221E-14
 -1       270 1.30966E-02 2.97312E-05-4.78152E-14
 -1       271 1.33915E-02-9.26948E-06-5.01230E-14
 -1       272 1.36834E-02-4.88424E-05-5.24305E-14
 -1       273 1.39727E-02-8.97974E-05-5.47501E-14
 -1       274 1.42602E-02-1.32665E-04-5.70642E-14
 -1       275 1.45465E-02-1.77591E-04-5.93710E-14
 -1       276 1.46319E-02-2.49381E-04-5.96765E-14
 -1       277 1.46798E-02-3.32629E-04-5.95494E-14
 -1       278 1.47294E-02-4.14603E-04-5.94216E-14
 -1       279 1.47799E-02-4.94979E-04-5.92917E-14
 -1       280 1.48295E-02-5.72325E-04-5.91675E-14
 -1       281 1.48789E-02-6.49434E-04-5.90492E-14
 -1       282 1.49262E-02-7.25306E-04-5.89323E-14
 -1       283 1.49709E-02-8.00463E-04-5.88221E-14
 -1       284 1.50126E-02-8.75535E-04-5.87088E-14
 -1       285 1.50515E-02-9.51176E-04-5.86002E-14
 -1       286 1.50877E-02-1.02666E-03-5.85019E-14
 -1       287 1.51232E-02-1.10500E-03-5.83985E-14
 -1       288 1.51586E-02-1.18512E-03-5.82823E-14
 -1       289 1.51950E-02-1.26693E-03-5.81499E-14
 -1       290 1.51421E-02-1.32126E-03-5.73237E-14
 -1       291 1.14551E-02-2.55868E-04-2.61509E-14
 -1       292 1.12781E-02-1.47010E-04-2.59335E-14
 -1       293 1.10015E-02 3.14421E-06-2.54125E-14
 -1       294 1.06597E-02 1.67288E-04-2.48191E-14
 -1       295 1.02336E-02 3.42795E-04-2.41556E-14
 -1       296 9.84275E-03 5.22586E-04-2.31689E-14
 -1       297 9.43239E-03 6.43376E-04-2.22258E-14
 -1       298 9.06048E-03 6.58870E-04-2.12794E-14
 -1       299 8.69650E-03 6.05030E-04-2.04119E-14
 -1       300 8.32983E-03 4.75410E-04-1.95819E-14
 -1       301 7.94165E-03 3.27983E-04-1.90027E-14
 -1       302 7.60505E-03 1.62141E-04-1.84149E-14
 -1       303 7.30116E-03 1.99352E-05-1.79979E-14
 -1       304 7.10120E-03-8.57567E-05-1.77782E-14
 -1       305 7.03108E-03-1.75745E-04-1.77180E-14
 -1       306 7.09617E-03-2.66751E-04-1.77104E-14
 -1       307 7.30033E-03-3.97930E-04-1.80014E-14
 -1       308 7.60013E-03-5.51543E-04-1.83696E-14
 -1       309 8.01634E-03-7.30269E-04-1.88253E-14
 -1       310 8.41512E-03-9.45084E-04-1.95956E-14
 -1       311 8.84572E-03-1.11543E-03-2.03566E-14
 -1       312 9.23873E-03-1.19441E-03-2.13367E-14
 -1       313 9.62802E-03-1.18196E-03-2.22507E-14
 -1       314 1.00140E-02-1.07888E-03-2.31232E-14
 -1       315 1.03924E-02-9.22508E-04-2.39750E-14
 -1       316 1.07879E-02-7.31920E-04-2.48062E-14
 -1       317 1.11334E-02-5.63025E-04-2.54677E-14
 -1       318 1.13683E-02-4.42626E-04-2.58620E-14
 -1       319 1.14786E-02-3.46030E-04-2.60901E-14
 -1       320 4.55220E-04-1.64678E-04-5.39933E-17
 -1       321 4.74031E-04-2.12891E-04-4.15656E-17
 -1       322 4.40595E-04-9.39651E-05-6.69800E-17
 -1       323 4.37699E-04-6.48686E-05-6.97244E-17
 -1       324 4.36121E-04-3.78756E-05-7.10593E-17
 -1       325 4.35430E-04-1.20051E-05-7.15370E-17
 -1       326 4.35460E-04 1.35282E-05-7.12694E-17
 -1       327 4.36215E-04 3.94555E-05-6.98972E-17
 -1       328 4.37838E-04 6.60985E-05-6.76237E-17
 -1       329 4.40825E-04 9.53650E-05-6.40492E-17
 -1       330 4.46115E-04 1.28271E-04-5.86824E-17
 -1       331 4.55822E-04 1.67239E-04-5.00495E-17
 -1       332 4.75659E-04 2.16953E-04-3.65207E-17
 -1       333 5.31654E-04 2.69832E-04-2.99917E-17
 -1       334 8.23929E-04 3.73134E-04-9.84354E-17
 -1       335 8.62794E-04-3.57000E-04-1.42525E-16
 -1       336 1.14900E-03-4.25349E-04-2.70857E-16
 -1       337 1.43165E-03-4.73931E-04-4.43141E-16
 -1       338 1.71229E-03-5.07840E-04-6.59686E-16
 -1       339 1.99204E-03-5.30815E-04-9.23049E-16
 -1       340 2.27173E-03-5.45605E-04-1.23353E-15
 -1       341 2.55186E-03-5.54241E-04-1.59088E-15
 -1       342 2.83278E-03-5.58216E-04-1.99813E-15
 -1       343 3.11470E-03-5.58618E-04-2.45422E-15
 -1       344 3.39780E-03-5.56223E-04-2.95715E-15
 -1       345 3.68222E-03-5.51582E-04-3.50614E-15
 -1       346 3.96815E-03-5.45087E-04-4.10103E-15
 -1       347 4.25580E-03-5.37043E-04-4.74089E-15
 -1       348 4.54549E-03-5.27749E-04-5.42325E-15
 -1       349 4.83760E-03-5.17585E-04-6.14671E-15
 -1       350 5.13261E-03-5.07125E-04-6.90886E-15
 -1       351 5.43114E-03-4.97290E-04-7.71671E-15
 -1       352 5.73393E-03-4.89543E-04-8.56979E-15
 -1       353 6.04182E-03-4.86148E-04-9.47176E-15
 -1       354 6.35583E-03-4.90478E-04-1.04276E-14
 -1       355 6.67712E-03-5.07336E-04-1.14381E-14
 -1       356 7.00698E-03-5.43131E-04-1.25023E-14
 -1       357 7.34666E-03-6.05583E-04-1.36146E-14
 -1       358 7.69671E-03-7.02281E-04-1.47790E-14
 -1       359 8.05562E-03-8.37072E-04-1.59943E-14
 -1       360 8.41796E-03-1.00331E-03-1.72660E-14
 -1       361 8.77448E-03-1.17565E-03-1.86092E-14
 -1       362 9.11786E-03-1.30941E-03-2.00195E-14
 -1       363 9.45134E-03-1.35946E-03-2.14984E-14
 -1       364 9.78783E-03-1.31275E-03-2.30455E-14
 -1       365 1.01373E-02-1.19981E-03-2.46628E-14
 -1       366 1.04975E-02-1.06945E-03-2.63458E-14
 -1       367 1.08592E-02-9.58892E-04-2.80949E-14
 -1       368 1.12145E-02-8.84470E-04-2.99042E-14
 -1       369 1.15599E-02-8.47227E-04-3.17618E-14
 -1       370 1.18950E-02-8.41029E-04-3.36642E-14
 -1       371 1.22207E-02-8.57906E-04-3.56041E-14
 -1       372 1.25384E-02-8.90570E-04-3.76013E-14
 -1       373 1.28493E-02-9.33251E-04-3.96614E-14
 -1       374 1.31545E-02-9.81717E-04-4.17788E-14
 -1       375 1.34550E-02-1.03301E-03-4.39479E-14
 -1       376 1.37516E-02-1.08512E-03-4.61590E-14
 -1       377 1.40450E-02-1.13669E-03-4.84166E-14
 -1       378 1.43359E-02-1.18680E-03-5.07200E-14
 -1       379 1.46249E-02-1.23483E-03-5.30606E-14
 -1       380 1.48839E-02-1.27910E-03-5.51788E-14
 -1       381 1.10921E-03 4.47081E-04-2.08401E-16
 -1       382 1.38978E-03 4.99595E-04-3.62398E-16
 -1       383 1.66794E-03 5.36437E-04-5.62321E-16
 -1       384 1.94526E-03 5.61673E-04-8.08429E-16
 -1       385 2.22270E-03 5.78247E-04-1.10148E-15
 -1       386 2.50085E-03 5.88320E-04-1.43896E-15
 -1       387 2.78008E-03 5.93490E-04-1.82065E-15
 -1       388 3.06060E-03 5.94934E-04-2.24787E-15
 -1       389 3.34255E-03 5.93514E-04-2.71945E-15
 -1       390 3.62605E-03 5.89867E-04-3.23582E-15
 -1       391 3.91126E-03 5.84476E-04-3.80207E-15
 -1       392 4.19838E-03 5.77754E-04-4.42001E-15
 -1       393 4.48765E-03 5.70116E-04-5.09196E-15
 -1       394 4.77942E-03 5.62067E-04-5.81521E-15
 -1       395 5.07407E-03 5.54296E-04-6.58747E-15
 -1       396 5.37204E-03 5.47780E-04-7.40765E-15
 -1       397 5.67379E-03 5.43892E-04-8.27624E-15
 -1       398 5.97969E-03 5.44482E-04-9.19723E-15
 -1       399 6.28997E-03 5.51910E-04-1.01691E-14
 -1       400 6.60455E-03 5.68943E-04-1.11924E-14
 -1       401 6.92286E-03 5.98403E-04-1.22638E-14
 -1       402 7.24363E-03 6.42442E-04-1.33877E-14
 -1       403 7.56471E-03 7.01335E-04-1.45714E-14
 -1       404 7.88314E-03 7.71878E-04-1.58171E-14
 -1       405 8.19562E-03 8.45951E-04-1.71338E-14
 -1       406 8.49966E-03 9.10333E-04-1.85233E-14
 -1       407 8.79513E-03 9.49112E-04-1.99894E-14
 -1       408 9.08515E-03 9.48842E-04-2.15273E-14
 -1       409 9.37523E-03 9.04325E-04-2.31387E-14
 -1       410 9.67087E-03 8.20995E-04-2.48235E-14
 -1       411 9.97509E-03 7.12452E-04-2.65773E-14
 -1       412 1.02877E-02 5.94603E-04-2.84044E-14
 -1       413 1.06061E-02 4.80548E-04-3.03073E-14
 -1       414 1.09270E-02 3.78256E-04-3.22839E-14
 -1       415 1.12475E-02 2.90788E-04-3.43238E-14
 -1       416 1.15654E-02 2.17763E-04-3.64155E-14
 -1       417 1.18795E-02 1.56946E-04-3.85576E-14
 -1       418 1.21893E-02 1.05440E-04-4.07494E-14
 -1       419 1.24946E-02 6.04082E-05-4.29773E-14
 -1       420 1.27958E-02 1.93997E-05-4.52337E-14
 -1       421 1.30933E-02-1.95486E-05-4.75127E-14
 -1       422 1.33875E-02-5.79450E-05-4.98079E-14
 -1       423 1.36791E-02-9.69201E-05-5.21049E-14
 -1       424 1.39684E-02-1.37303E-04-5.44141E-14
 -1       425 1.42561E-02-1.79653E-04-5.67218E-14
 -1       426 1.44442E-02-2.14079E-04-5.82015E-14
 -1       427 1.45080E-02-4.15645E-04-5.73777E-14
 -1       428 1.44572E-02-3.34489E-04-5.74962E-14
 -1       429 1.44500E-02-2.74639E-04-5.78493E-14
 -1       430 1.45585E-02-4.93906E-04-5.72570E-14
 -1       431 1.46091E-02-5.72032E-04-5.71268E-14
 -1       432 1.46580E-02-6.48891E-04-5.69967E-14
 -1       433 1.47044E-02-7.24866E-04-5.68737E-14
 -1       434 1.47476E-02-8.00455E-04-5.67555E-14
 -1       435 1.47877E-02-8.76217E-04-5.66382E-14
 -1       436 1.48244E-02-9.51400E-04-5.65243E-14
 -1       437 1.48598E-02-1.02906E-03-5.64033E-14
 -1       438 1.48944E-02-1.10824E-03-5.62753E-14
 -1       439 1.49295E-02-1.18908E-03-5.61381E-14
 -1       440 1.11087E-02-1.38612E-04-2.63929E-14
 -1       441 1.15049E-02-3.15046E-04-2.70322E-14
 -1       442 1.13937E-02-2.58527E-04-2.70436E-14
 -1       443 1.07730E-02 1.98142E-07-2.59296E-14
 -1       444 1.04220E-02 1.74152E-04-2.52435E-14
 -1       445 4.45733E-04-1.26433E-04-6.22197E-17
 -1       446 9.61296E-03 5.94536E-04-2.30243E-14
 -1       447 9.19763E-03 6.95726E-04-2.16579E-14
 -1       448 8.91607E-03 6.72809E-04-2.07746E-14
 -1       449 8.57782E-03 5.61309E-04-1.98095E-14
 -1       450 8.14669E-03 3.58773E-04-1.88737E-14
 -1       451 7.82587E-03 2.00549E-04-1.82881E-14
 -1       452 7.46831E-03 3.42713E-05-1.76717E-14
 -1       453 7.17985E-03-8.01345E-05-1.72963E-14
 -1       454 7.03343E-03-1.45355E-04-1.72067E-14
 -1       455 7.02680E-03-1.93147E-04-1.71367E-14
 -1       456 7.20140E-03-2.71078E-04-1.72492E-14
 -1       457 7.47424E-03-3.98079E-04-1.76953E-14
 -1       458 7.81714E-03-5.57801E-04-1.81045E-14
 -1       459 8.32416E-03-8.25147E-04-1.88544E-14
 -1       460 8.67549E-03-1.02190E-03-1.95851E-14
 -1       461 9.12741E-03-1.21055E-03-2.08347E-14
 -1       462 9.41502E-03-1.23945E-03-2.17345E-14
 -1       463 9.78904E-03-1.15749E-03-2.29120E-14
 -1       464 1.00901E-02-1.02164E-03-2.37656E-14
 -1       465 1.05307E-02-7.93439E-04-2.48371E-14
 -1       466 1.09328E-02-5.85597E-04-2.58781E-14
 -1       467 1.12640E-02-4.44588E-04-2.64805E-14
 -1       468 1.14506E-02-3.66872E-04-2.68045E-14
 -1       469 9.93849E-03 4.37792E-04-2.40058E-14
 -1       470 8.92988E-03-1.14846E-03-2.00476E-14
 -1       471 8.08654E-03-6.70907E-04-1.81289E-14
 -1       472 9.39371E-03 6.73678E-04-2.24328E-14
 -1       473 8.37022E-03 4.65019E-04-1.90891E-14
 -1       474 9.30889E-04 3.45541E-04-1.78412E-16
 -1       475 6.66197E-04-7.50163E-05-1.53011E-16
 -1       476 6.70076E-04-1.15732E-04-1.49013E-16
 -1       477 6.63583E-04 1.10741E-06-1.54794E-16
 -1       478 6.64286E-04 3.87081E-05-1.53086E-16
 -1       479 6.66379E-04 7.67080E-05-1.49745E-16
 -1       480 6.70388E-04 1.17576E-04-1.44267E-16
 -1       481 6.77271E-04 1.62161E-04-1.36338E-16
 -1       482 6.89012E-04 2.12497E-04-1.24585E-16
 -1       483 1.21668E-03 4.05577E-04-3.17763E-16
 -1       484 9.76055E-04-3.28092E-04-2.27432E-16
 -1       485 1.01600E-02 2.99174E-04-2.52219E-14
 -1       486 1.12580E-02-2.25411E-04-2.75002E-14
 -1       487 1.26191E-03-3.82484E-04-3.83919E-16
 -1       488 1.54691E-03-4.21542E-04-5.83450E-16
 -1       489 1.83105E-03-4.48647E-04-8.27880E-16
 -1       490 2.11467E-03-4.66632E-04-1.11855E-15
 -1       491 2.39811E-03-4.77706E-04-1.45423E-15
 -1       492 2.68166E-03-4.83546E-04-1.83826E-15
 -1       493 2.96553E-03-4.85395E-04-2.27111E-15
 -1       494 3.24987E-03-4.84154E-04-2.75248E-15
 -1       495 3.53483E-03-4.80460E-04-3.28032E-15
 -1       496 3.82050E-03-4.74762E-04-3.85340E-15
 -1       497 4.10702E-03-4.67384E-04-4.47115E-15
 -1       498 4.39452E-03-4.58603E-04-5.13273E-15
 -1       499 4.68317E-03-4.48718E-04-5.83734E-15
 -1       500 4.97315E-03-4.38152E-04-6.58275E-15
 -1       501 5.26473E-03-4.27567E-04-7.37173E-15
 -1       502 5.55824E-03-4.18010E-04-8.20676E-15
 -1       503 5.85414E-03-4.11109E-04-9.09007E-15
 -1       504 6.15315E-03-4.09310E-04-1.00244E-14
 -1       505 6.45645E-03-4.16165E-04-1.10126E-14
 -1       506 6.76596E-03-4.36634E-04-1.20555E-14
 -1       507 7.08472E-03-4.77354E-04-1.31495E-14
 -1       508 7.41692E-03-5.46632E-04-1.42932E-14
 -1       509 7.76688E-03-6.53468E-04-1.54855E-14
 -1       510 8.13582E-03-8.03811E-04-1.67314E-14
 -1       511 8.51697E-03-9.90272E-04-1.80422E-14
 -1       512 8.89484E-03-1.17469E-03-1.94229E-14
 -1       513 9.25898E-03-1.28999E-03-2.08715E-14
 -1       514 9.61810E-03-1.28462E-03-2.23888E-14
 -1       515 9.98824E-03-1.17403E-03-2.39765E-14
 -1       516 1.03697E-02-1.02550E-03-2.56334E-14
 -1       517 1.07470E-02-8.96207E-04-2.73566E-14
 -1       518 1.11078E-02-8.08822E-04-2.91417E-14
 -1       519 1.14495E-02-7.63159E-04-3.09802E-14
 -1       520 1.17752E-02-7.51133E-04-3.28667E-14
 -1       521 1.20894E-02-7.63773E-04-3.47933E-14
 -1       522 1.23958E-02-7.93424E-04-3.67703E-14
 -1       523 1.26969E-02-8.34150E-04-3.88009E-14
 -1       524 1.29943E-02-8.81569E-04-4.08925E-14
 -1       525 1.32889E-02-9.32557E-04-4.30316E-14
 -1       526 1.35814E-02-9.84939E-04-4.52141E-14
 -1       527 1.38721E-02-1.03723E-03-4.74416E-14
 -1       528 1.41613E-02-1.08841E-03-4.97151E-14
 -1       529 1.44494E-02-1.13779E-03-5.20304E-14
 -1       530 1.78345E-03 4.78589E-04-7.29333E-16
 -1       531 2.06548E-03 4.98728E-04-1.00347E-15
 -1       532 2.34738E-03 5.11447E-04-1.32281E-15
 -1       533 2.62951E-03 5.18572E-04-1.68630E-15
 -1       534 2.91217E-03 5.21464E-04-2.09505E-15
 -1       535 3.19553E-03 5.21120E-04-2.54841E-15
 -1       536 3.47974E-03 5.18267E-04-3.04555E-15
 -1       537 3.76495E-03 5.13439E-04-3.58967E-15
 -1       538 4.05130E-03 5.07054E-04-4.18417E-15
 -1       539 4.33898E-03 4.99487E-04-4.83038E-15
 -1       540 4.62819E-03 4.91153E-04-5.52879E-15
 -1       541 4.91923E-03 4.82590E-04-6.27822E-15
 -1       542 5.21243E-03 4.74561E-04-7.07562E-15
 -1       543 5.50822E-03 4.68158E-04-7.92163E-15
 -1       544 5.80707E-03 4.64906E-04-8.81988E-15
 -1       545 6.10956E-03 4.66845E-04-9.76788E-15
 -1       546 6.41627E-03 4.76540E-04-1.07658E-14
 -1       547 6.72773E-03 4.96957E-04-1.18130E-14
 -1       548 7.04423E-03 5.31062E-04-1.29083E-14
 -1       549 7.36539E-03 5.80980E-04-1.40593E-14
 -1       550 7.68971E-03 6.46551E-04-1.52690E-14
 -1       551 8.01417E-03 7.23312E-04-1.65468E-14
 -1       552 8.33463E-03 8.00591E-04-1.78906E-14
 -1       553 8.64766E-03 8.61518E-04-1.93121E-14
 -1       554 8.95315E-03 8.87187E-04-2.08102E-14
 -1       555 9.25548E-03 8.64711E-04-2.23804E-14
 -1       556 9.56108E-03 7.94225E-04-2.40258E-14
 -1       557 9.87431E-03 6.88946E-04-2.57445E-14
 -1       558 1.01949E-02 5.67816E-04-2.75311E-14
 -1       559 1.05193E-02 4.47544E-04-2.93928E-14
 -1       560 1.08435E-02 3.38608E-04-3.13234E-14
 -1       561 1.11644E-02 2.45317E-04-3.33223E-14
 -1       562 1.14806E-02 1.67730E-04-3.53792E-14
 -1       563 1.17918E-02 1.03642E-04-3.74851E-14
 -1       564 1.20981E-02 5.00199E-05-3.96378E-14
 -1       565 1.24003E-02 3.83617E-06-4.18326E-14
 -1       566 1.26988E-02-3.75533E-05-4.40586E-14
 -1       567 1.29943E-02-7.62864E-05-4.63163E-14
 -1       568 1.32873E-02-1.14011E-04-4.85895E-14
 -1       569 1.35781E-02-1.51964E-04-5.08702E-14
 -1       570 1.38673E-02-1.91061E-04-5.31600E-14
 -1       571 1.41550E-02-2.31971E-04-5.54641E-14
 -1       572 1.43387E-02-4.95986E-04-5.52167E-14
 -1       573 1.43893E-02-5.73338E-04-5.50816E-14
 -1       574 1.42354E-02-3.38096E-04-5.54528E-14
 -1       575 1.42871E-02-4.17842E-04-5.53401E-14
 -1       576 1.44376E-02-6.49540E-04-5.49461E-14
 -1       577 1.44827E-02-7.25034E-04-5.48148E-14
 -1       578 1.45242E-02-8.00362E-04-5.46881E-14
 -1       579 1.45618E-02-8.74814E-04-5.45649E-14
 -1       580 1.45973E-02-9.51506E-04-5.44334E-14
 -1       581 1.46312E-02-1.02962E-03-5.42959E-14
 -1       582 1.46648E-02-1.10947E-03-5.41545E-14
 -1       583 1.15156E-02-3.12006E-04-2.81685E-14
 -1       584 1.09905E-02-1.23068E-04-2.70298E-14
 -1       585 1.50072E-03 4.48599E-04-5.00956E-16
 -1       586 1.15258E-02-3.44931E-04-2.78679E-14
 -1       587 1.06097E-02 5.30528E-05-2.62970E-14
 -1       588 9.74973E-03 5.27850E-04-2.38475E-14
 -1       589 1.14104E-02-3.91061E-04-2.75971E-14
 -1       590 8.75711E-03 6.49007E-04-2.00756E-14
 -1       591 6.64179E-04-3.64579E-05-1.54919E-16
 -1       592 8.99196E-03 7.06940E-04-2.09345E-14
 -1       593 7.28492E-03-4.16810E-05-1.68558E-14
 -1       594 7.98571E-03 2.69580E-04-1.80801E-14
 -1       595 1.07116E-02-6.92231E-04-2.59120E-14
 -1       596 7.65261E-03 1.07910E-04-1.74680E-14
 -1       597 7.04631E-03-1.23755E-04-1.65415E-14
 -1       598 6.98336E-03-1.56237E-04-1.64747E-14
 -1       599 7.05906E-03-2.01317E-04-1.65532E-14
 -1       600 7.34843E-03-3.04938E-04-1.68570E-14
 -1       601 7.62688E-03-4.25939E-04-1.72465E-14
 -1       602 8.49401E-03-9.11343E-04-1.86764E-14
 -1       603 9.29604E-03-1.25895E-03-2.12395E-14
 -1       604 9.60900E-03-1.23378E-03-2.24006E-14
 -1       605 9.96860E-03-1.10099E-03-2.37349E-14
 -1       606 1.03180E-02-9.06306E-04-2.48115E-14
 -1       607 1.11516E-02-4.89491E-04-2.70411E-14
 -1       608 7.12540E-04-2.51632E-04-1.25452E-16
 -1       609 7.03501E-04 2.90646E-04-9.35429E-17
 -1       610 9.17602E-03 7.24216E-04-2.16814E-14
 -1       611 6.76749E-04-1.59883E-04-1.42281E-16
 -1       612 6.91841E-04-2.02688E-04-1.35793E-16
 -1       613 1.14506E-02-2.88306E-04-2.86361E-14
 -1       614 1.09766E-02-5.89371E-04-2.70740E-14
 -1       615 8.55903E-03 5.81307E-04-1.93436E-14
 -1       616 9.55121E-03 6.26497E-04-2.32353E-14
 -1       617 7.14515E-03-2.30711E-04-1.61696E-14
 -1       618 1.46442E-02-1.17151E-03-5.36125E-14
 -1       619 9.00266E-04 7.39275E-05-2.64064E-16
 -1       620 8.98214E-04 2.51176E-05-2.68157E-16
 -1       621 9.12127E-04 1.77852E-04-2.47398E-16
 -1       622 9.24306E-04 2.36352E-04-2.33178E-16
 -1       623 1.04877E-03 3.13281E-04-2.68848E-16
 -1       624 7.08393E-03-7.95656E-05-1.59550E-14
 -1       625 1.04458E-02 1.55346E-04-2.65846E-14
 -1       626 1.38332E-03-3.35799E-04-5.05350E-16
 -1       627 1.66955E-03-3.65942E-04-7.31941E-16
 -1       628 1.95581E-03-3.86666E-04-1.00291E-15
 -1       629 2.24191E-03-4.00053E-04-1.31810E-15
 -1       630 2.52786E-03-4.07810E-04-1.67949E-15
 -1       631 2.81371E-03-4.11262E-04-2.08974E-15
 -1       632 3.09950E-03-4.11397E-04-2.54821E-15
 -1       633 3.38529E-03-4.08932E-04-3.05336E-15
 -1       634 3.67112E-03-4.04376E-04-3.60478E-15
 -1       635 3.95701E-03-3.98089E-04-4.20186E-15
 -1       636 4.24296E-03-3.90348E-04-4.84198E-15
 -1       637 4.52895E-03-3.81416E-04-5.52570E-15
 -1       638 4.81498E-03-3.71613E-04-6.25370E-15
 -1       639 5.10099E-03-3.61412E-04-7.02386E-15
 -1       640 5.38699E-03-3.51536E-04-7.84008E-15
 -1       641 5.67302E-03-3.43087E-04-8.70345E-15
 -1       642 5.95934E-03-3.37696E-04-9.61913E-15
 -1       643 6.24662E-03-3.37701E-04-1.05845E-14
 -1       644 6.53636E-03-3.46380E-04-1.16044E-14
 -1       645 6.83149E-03-3.68311E-04-1.26785E-14
 -1       646 7.13720E-03-4.10046E-04-1.38011E-14
 -1       647 7.46133E-03-4.81159E-04-1.49712E-14
 -1       648 7.81325E-03-5.95281E-04-1.61925E-14
 -1       649 8.19772E-03-7.66221E-04-1.74719E-14
 -1       650 1.06555E-02-8.25437E-04-2.66134E-14
 -1       651 1.10261E-02-7.24353E-04-2.83745E-14
 -1       652 1.13650E-02-6.74678E-04-3.01936E-14
 -1       653 1.16799E-02-6.61553E-04-3.20626E-14
 -1       654 1.19802E-02-6.73084E-04-3.39775E-14
 -1       655 1.22725E-02-7.01157E-04-3.59315E-14
 -1       656 1.25609E-02-7.40150E-04-3.79412E-14
 -1       657 1.28476E-02-7.86052E-04-4.00061E-14
 -1       658 1.31338E-02-8.35952E-04-4.21193E-14
 -1       659 1.34197E-02-8.87750E-04-4.42784E-14
 -1       660 1.37057E-02-9.39951E-04-4.64811E-14
 -1       661 1.39916E-02-9.91504E-04-4.87213E-14
 -1       662 1.42774E-02-1.04166E-03-5.10061E-14
 -1       663 2.19066E-03 4.33166E-04-1.20368E-15
 -1       664 1.44711E-02-1.07608E-03-5.25713E-14
 -1       665 1.90559E-03 4.17768E-04-9.02835E-16
 -1       666 2.76047E-03 4.46985E-04-1.93815E-15
 -1       667 3.04549E-03 4.47991E-04-2.37317E-15
 -1       668 3.33073E-03 4.46243E-04-2.85178E-15
 -1       669 3.61630E-03 4.42331E-04-3.37498E-15
 -1       670 3.90228E-03 4.36691E-04-3.94868E-15
 -1       671 4.18878E-03 4.29678E-04-4.57230E-15
 -1       672 4.47593E-03 4.21630E-04-5.24567E-15
 -1       673 4.76390E-03 4.12952E-04-5.96969E-15
 -1       674 5.05293E-03 4.04195E-04-6.74427E-15
 -1       675 5.34337E-03 3.96155E-04-7.56791E-15
 -1       676 5.63573E-03 3.89967E-04-8.44131E-15
 -1       677 5.93071E-03 3.87213E-04-9.36637E-15
 -1       678 6.22930E-03 3.90011E-04-1.03396E-14
 -1       679 6.53279E-03 4.01054E-04-1.13613E-14
 -1       680 6.84269E-03 4.23553E-04-1.24317E-14
 -1       681 7.16042E-03 4.60912E-04-1.35524E-14
 -1       682 7.48654E-03 5.15888E-04-1.47308E-14
 -1       683 7.81963E-03 5.88728E-04-1.59697E-14
 -1       684 8.15529E-03 6.74104E-04-1.72726E-14
 -1       685 8.48679E-03 7.57442E-04-1.86469E-14
 -1       686 8.80909E-03 8.15247E-04-2.00992E-14
 -1       687 9.12368E-03 8.22546E-04-2.16266E-14
 -1       688 9.43777E-03 7.69955E-04-2.32330E-14
 -1       689 9.76043E-03 6.67558E-04-2.49166E-14
 -1       690 1.00921E-02 5.40209E-04-2.66677E-14
 -1       691 1.04278E-02 4.11347E-04-2.84891E-14
 -1       692 1.07607E-02 2.95230E-04-3.03777E-14
 -1       693 1.10866E-02 1.96961E-04-3.23309E-14
 -1       694 1.14040E-02 1.16210E-04-3.43493E-14
 -1       695 1.17137E-02 5.01511E-05-3.64206E-14
 -1       696 1.20170E-02-4.68653E-06-3.85398E-14
 -1       697 1.23154E-02-5.15548E-05-4.07017E-14
 -1       698 1.26102E-02-9.32065E-05-4.29003E-14
 -1       699 1.29024E-02-1.31838E-04-4.51313E-14
 -1       700 1.31927E-02-1.69134E-04-4.73864E-14
 -1       701 1.34816E-02-2.06355E-04-4.96516E-14
 -1       702 1.37694E-02-2.44442E-04-5.19277E-14
 -1       703 1.40028E-02-2.90720E-04-5.36905E-14
 -1       704 1.08590E-02-5.98662E-05-2.75465E-14
 -1       705 1.42180E-02-6.50304E-04-5.29041E-14
 -1       706 9.95325E-03 4.34282E-04-2.49678E-14
 -1       707 1.41200E-02-4.99053E-04-5.31788E-14
 -1       708 1.42615E-02-7.24792E-04-5.27683E-14
 -1       709 1.41706E-02-5.75242E-04-5.30430E-14
 -1       710 1.43003E-02-7.98085E-04-5.26334E-14
 -1       711 1.43362E-02-8.73375E-04-5.24965E-14
 -1       712 1.43695E-02-9.50017E-04-5.23507E-14
 -1       713 1.15402E-02-3.74508E-04-2.87327E-14
 -1       714 1.11768E-02-1.94269E-04-2.82220E-14
 -1       715 1.62020E-03 3.94302E-04-6.47154E-16
 -1       716 6.94759E-03-1.63768E-04-1.58145E-14
 -1       717 7.86496E-03-5.49182E-04-1.71909E-14
 -1       718 1.16025E-02-3.45138E-04-2.91309E-14
 -1       719 2.47557E-03 4.42412E-04-1.54849E-15
 -1       720 1.09775E-03-2.93922E-04-3.22272E-16
 -1       721 1.13825E-02-4.44068E-04-2.85279E-14
 -1       722 9.04637E-04 1.24326E-04-2.57227E-16
 -1       723 1.05722E-02-8.07552E-04-2.59901E-14
 -1       724 1.33449E-03 3.60390E-04-4.36164E-16
 -1       725 8.20548E-03 4.11635E-04-1.82711E-14
 -1       726 9.04272E-04-1.21910E-04-2.64024E-16
 -1       727 8.87220E-03 7.09163E-04-2.04195E-14
 -1       728 7.76830E-03 1.94202E-04-1.72205E-14
 -1       729 7.41875E-03 3.60191E-05-1.65854E-14
 -1       730 6.93430E-03-1.28746E-04-1.56731E-14
 -1       731 7.44457E-03-3.48433E-04-1.64219E-14
 -1       732 8.93511E-04-2.51390E-04-2.18829E-16
 -1       733 1.03216E-02-9.65768E-04-2.52275E-14
 -1       734 9.11533E-04-1.75220E-04-2.55750E-16
 -1       735 8.98153E-04-2.30888E-05-2.69333E-16
 -1       736 7.96606E-03 3.33367E-04-1.73929E-14
 -1       737 1.02392E-02 3.00202E-04-2.63177E-14
 -1       738 1.40556E-02-3.70812E-04-5.35871E-14
 -1       739 9.76203E-03 5.47114E-04-2.43343E-14
 -1       740 1.12613E-02-5.22729E-04-2.85572E-14
 -1       741 6.97337E-03-1.84634E-04-1.54416E-14
 -1       742 1.16006E-02-3.28667E-04-2.96114E-14
 -1       743 1.43239E-02-9.95432E-04-5.16806E-14
 -1       744 8.68756E-03 6.67570E-04-1.96716E-14
 -1       745 1.40881E-02-4.35564E-04-5.33889E-14
 -1       746 9.00065E-04-7.16356E-05-2.68137E-16
 -1       747 9.08116E-03 7.54155E-04-2.13271E-14
 -1       748 1.16180E-03 2.42896E-04-3.76215E-16
 -1       749 9.01155E-04-2.12433E-04-2.38338E-16
 -1       750 1.79762E-03-3.07208E-04-8.87613E-16
 -1       751 2.08526E-03-3.22176E-04-1.18311E-15
 -1       752 2.37299E-03-3.31482E-04-1.52359E-15
 -1       753 2.66054E-03-3.36398E-04-1.91083E-15
 -1       754 2.94777E-03-3.37922E-04-2.34606E-15
 -1       755 3.23459E-03-3.36807E-04-2.82926E-15
 -1       756 3.52094E-03-3.33599E-04-3.35801E-15
 -1       757 3.80672E-03-3.28692E-04-3.93324E-15
 -1       758 4.09183E-03-3.22374E-04-4.55225E-15
 -1       759 4.37613E-03-3.14894E-04-5.21520E-15
 -1       760 4.65944E-03-3.06516E-04-5.92194E-15
 -1       761 4.94151E-03-2.97587E-04-6.67259E-15
 -1       762 5.22205E-03-2.88609E-04-7.47099E-15
 -1       763 5.50077E-03-2.80317E-04-8.31583E-15
 -1       764 5.77740E-03-2.73752E-04-9.20946E-15
 -1       765 6.05190E-03-2.70341E-04-1.01544E-14
 -1       766 6.32469E-03-2.71976E-04-1.11515E-14
 -1       767 6.59720E-03-2.81190E-04-1.22020E-14
 -1       768 6.87268E-03-3.01632E-04-1.33039E-14
 -1       769 7.15764E-03-3.39646E-04-1.44536E-14
 -1       770 7.46404E-03-4.06782E-04-1.56510E-14
 -1       771 6.91404E-03-8.85864E-05-1.50832E-14
 -1       772 6.85343E-03-1.38059E-04-1.50625E-14
 -1       773 1.22481E-03-2.54160E-04-4.27193E-16
 -1       774 1.13175E-02-5.79634E-04-2.94026E-14
 -1       775 1.16127E-02-5.71143E-04-3.12526E-14
 -1       776 1.18927E-02-5.85487E-04-3.31512E-14
 -1       777 1.21664E-02-6.14136E-04-3.50924E-14
 -1       778 1.24389E-02-6.52112E-04-3.70820E-14
 -1       779 1.27124E-02-6.96315E-04-3.91200E-14
 -1       780 1.29879E-02-7.44465E-04-4.12115E-14
 -1       781 1.32656E-02-7.94811E-04-4.33522E-14
 -1       782 1.35451E-02-8.46013E-04-4.55306E-14
 -1       783 1.38263E-02-8.97073E-04-4.77486E-14
 -1       784 1.40746E-02-9.46719E-04-4.96990E-14
 -1       785 2.03293E-03 3.54345E-04-1.08325E-15
 -1       786 1.07745E-02 2.85698E-05-2.82661E-14
 -1       787 3.18000E-03 3.73628E-04-2.65542E-15
 -1       788 2.89355E-03 3.74093E-04-2.19540E-15
 -1       789 3.75227E-03 3.66326E-04-3.71205E-15
 -1       790 4.03810E-03 3.60285E-04-4.31360E-15
 -1       791 4.32378E-03 3.53048E-04-4.96454E-15
 -1       792 4.60937E-03 3.44905E-04-5.66493E-15
 -1       793 4.89499E-03 3.36224E-04-6.41526E-15
 -1       794 5.18085E-03 3.27519E-04-7.21362E-15
 -1       795 5.46736E-03 3.19537E-04-8.06387E-15
 -1       796 5.75517E-03 3.13351E-04-8.96368E-15
 -1       797 6.04529E-03 3.10470E-04-9.91371E-15
 -1       798 6.33931E-03 3.12962E-04-1.09110E-14
 -1       799 6.63941E-03 3.23621E-04-1.19558E-14
 -1       800 6.94838E-03 3.46118E-04-1.30508E-14
 -1       801 7.26915E-03 3.84974E-04-1.41973E-14
 -1       802 7.60348E-03 4.44918E-04-1.54024E-14
 -1       803 7.94981E-03 5.27965E-04-1.66692E-14
 -1       804 8.30121E-03 6.28178E-04-1.80004E-14
 -1       805 8.64645E-03 7.22589E-04-1.94041E-14
 -1       806 9.63842E-03 6.55960E-04-2.40907E-14
 -1       807 9.98340E-03 5.17474E-04-2.58088E-14
 -1       808 1.03347E-02 3.73986E-04-2.75951E-14
 -1       809 1.06805E-02 2.47826E-04-2.94457E-14
 -1       810 1.10144E-02 1.44619E-04-3.13577E-14
 -1       811 1.13350E-02 6.22834E-05-3.33342E-14
 -1       812 1.16439E-02-3.80722E-06-3.53658E-14
 -1       813 1.19439E-02-5.82738E-05-3.74533E-14
 -1       814 1.22380E-02-1.04778E-04-3.95845E-14
 -1       815 1.25282E-02-1.46147E-04-4.17538E-14
 -1       816 1.28161E-02-1.84521E-04-4.39599E-14
 -1       817 1.31027E-02-2.21497E-04-4.61922E-14
 -1       818 1.33885E-02-2.58247E-04-4.84434E-14
 -1       819 1.36740E-02-2.95653E-04-5.07079E-14
 -1       820 1.38651E-02-3.32914E-04-5.21454E-14
 -1       821 1.74588E-03 3.36885E-04-8.00944E-16
 -1       822 1.40406E-02-7.22833E-04-5.07364E-14
 -1       823 1.14113E-02-2.58827E-04-2.95590E-14
 -1       824 1.39992E-02-6.49765E-04-5.08754E-14
 -1       825 1.10998E-02-1.37142E-04-2.89049E-14
 -1       826 1.40773E-02-7.96308E-04-5.05948E-14
 -1       827 1.41102E-02-8.71004E-04-5.04459E-14
 -1       828 3.46624E-03 3.70887E-04-3.16025E-15
 -1       829 1.13886E-03 5.88308E-05-4.10347E-16
 -1       830 9.41688E-03 6.97519E-04-2.28668E-14
 -1       831 1.09702E-02-6.58366E-04-2.76674E-14
 -1       832 1.24631E-03 2.99892E-04-4.07545E-16
 -1       833 1.16620E-02-3.78275E-04-3.00308E-14
 -1       834 1.51051E-03-2.85059E-04-6.36054E-16
 -1       835 7.18346E-03-2.65378E-04-1.55463E-14
 -1       836 7.17655E-03-7.64609E-06-1.56547E-14
 -1       837 8.34897E-03 5.42321E-04-1.84216E-14
 -1       838 1.15686E-02-4.29085E-04-2.98172E-14
 -1       839 7.49619E-03 1.31879E-04-1.61929E-14
 -1       840 1.13751E-03 1.20055E-06-4.14308E-16
 -1       841 7.67231E-03 2.55206E-04-1.63519E-14
 -1       842 1.15024E-03 1.78504E-04-3.91905E-16
 -1       843 1.00416E-02 4.21248E-04-2.56637E-14
 -1       844 2.60687E-03 3.71654E-04-1.77982E-15
 -1       845 6.78717E-03-1.04179E-04-1.44886E-14
 -1       846 6.95960E-03-3.09620E-05-1.47915E-14
 -1       847 1.14969E-03-1.75517E-04-4.02629E-16
 -1       848 1.05776E-02 1.63883E-04-2.79879E-14
 -1       849 1.39032E-02-5.02345E-04-5.11519E-14
 -1       850 1.16054E-02-3.09305E-04-3.05537E-14
 -1       851 1.14259E-03-1.14760E-04-4.10889E-16
 -1       852 1.39533E-02-5.76607E-04-5.10161E-14
 -1       853 1.14873E-02-4.89851E-04-2.98494E-14
 -1       854 2.31998E-03 3.65451E-04-1.40951E-15
 -1       855 1.38707E-02-4.40063E-04-5.13582E-14
 -1       856 1.14291E-03 1.17376E-04-4.02829E-16
 -1       857 1.49573E-03 3.22629E-04-5.87119E-16
 -1       858 6.83550E-03-1.56225E-04-1.47006E-14
 -1       859 1.17053E-02-3.60847E-04-3.05267E-14
 -1       860 1.40928E-02-9.08581E-04-5.00743E-14
 -1       861 1.10958E-02-7.79579E-05-2.98694E-14
 -1       862 1.92994E-03-2.45384E-04-1.05060E-15
 -1       863 2.21856E-03-2.55389E-04-1.37031E-15
 -1       864 2.50730E-03-2.61262E-04-1.73558E-15
 -1       865 2.79575E-03-2.63906E-04-2.14810E-15
 -1       866 3.08364E-03-2.64038E-04-2.60807E-15
 -1       867 3.37073E-03-2.62200E-04-3.11431E-15
 -1       868 3.65686E-03-2.58788E-04-3.66592E-15
 -1       869 3.94180E-03-2.54100E-04-4.26464E-15
 -1       870 4.22533E-03-2.48375E-04-4.90649E-15
 -1       871 4.50715E-03-2.41845E-04-5.59162E-15
 -1       872 4.78689E-03-2.34783E-04-6.32239E-15
 -1       873 5.06408E-03-2.27557E-04-7.09912E-15
 -1       874 5.33818E-03-2.20679E-04-7.92278E-15
 -1       875 5.60854E-03-2.14835E-04-8.79577E-15
 -1       876 5.87448E-03-2.10907E-04-9.71926E-15
 -1       877 6.13540E-03-2.09959E-04-1.06945E-14
 -1       878 6.39090E-03-2.13214E-04-1.17234E-14
 -1       879 6.64120E-03-2.22133E-04-1.28025E-14
 -1       880 6.88818E-03-2.39104E-04-1.39285E-14
 -1       881 1.13856E-02-2.10060E-04-3.05386E-14
 -1       882 1.18264E-02-5.03104E-04-3.23170E-14
 -1       883 1.20745E-02-5.33674E-04-3.42460E-14
 -1       884 1.23271E-02-5.71033E-04-3.62211E-14
 -1       885 1.25852E-02-6.13267E-04-3.82417E-14
 -1       886 1.28486E-02-6.59009E-04-4.03099E-14
 -1       887 1.31167E-02-7.07046E-04-4.24300E-14
 -1       888 1.33888E-02-7.56323E-04-4.45888E-14
 -1       889 1.36644E-02-8.05954E-04-4.67862E-14
 -1       890 4.17258E-03 2.84870E-04-4.68410E-15
 -1       891 3.88773E-03 2.90874E-04-4.05456E-15
 -1       892 4.73967E-03 2.69977E-04-6.08786E-15
 -1       893 5.02194E-03 2.61590E-04-6.86239E-15
 -1       894 5.30358E-03 2.53080E-04-7.68674E-15
 -1       895 5.58500E-03 2.45049E-04-8.56132E-15
 -1       896 5.86698E-03 2.38377E-04-9.48714E-15
 -1       897 6.15084E-03 2.34345E-04-1.04613E-14
 -1       898 6.43871E-03 2.34848E-04-1.14822E-14
 -1       899 6.73380E-03 2.42781E-04-1.25512E-14
 -1       900 7.04041E-03 2.62594E-04-1.36701E-14
 -1       901 7.36370E-03 3.01026E-04-1.48438E-14
 -1       902 8.07138E-03 4.66909E-04-1.73669E-14
 -1       903 1.09576E-02 8.27304E-05-3.03977E-14
 -1       904 1.12812E-02 6.67522E-07-3.23343E-14
 -1       905 1.15875E-02-6.26093E-05-3.43272E-14
 -1       906 1.18825E-02-1.14334E-04-3.63774E-14
 -1       907 1.21706E-02-1.58801E-04-3.84773E-14
 -1       908 1.24547E-02-1.98876E-04-4.06200E-14
 -1       909 1.27369E-02-2.36526E-04-4.27973E-14
 -1       910 1.30185E-02-2.73106E-04-4.50070E-14
 -1       911 1.33002E-02-3.09586E-04-4.72375E-14
 -1       912 1.35824E-02-3.46645E-04-4.94844E-14
 -1       913 1.87624E-03 2.76366E-04-9.63398E-16
 -1       914 1.13871E-03-5.62857E-05-4.14579E-16
 -1       915 1.38536E-02-7.92261E-04-4.85734E-14
 -1       916 1.38205E-02-7.19975E-04-4.87235E-14
 -1       917 1.37821E-02-6.48604E-04-4.88672E-14
 -1       918 1.35587E-03-2.08679E-04-5.41579E-16
 -1       919 1.17817E-02-4.26530E-04-3.14949E-14
 -1       920 3.02853E-03 3.00394E-04-2.45849E-15
 -1       921 1.64208E-03-2.30184E-04-7.74534E-16
 -1       922 7.19544E-03 8.06446E-05-1.51053E-14
 -1       923 4.45657E-03 2.77832E-04-5.36246E-15
 -1       924 6.94320E-03-2.07353E-04-1.46806E-14
 -1       925 1.38679E-02-3.87104E-04-5.17567E-14
 -1       926 7.34964E-03 1.81538E-04-1.52558E-14
 -1       927 1.40166E-03 2.35959E-04-5.53916E-16
 -1       928 2.74087E-03 2.99609E-04-2.01822E-15
 -1       929 6.72703E-03-1.23284E-04-1.41392E-14
 -1       930 6.79303E-03-5.96263E-05-1.42076E-14
 -1       931 1.36886E-02-5.05047E-04-4.91428E-14
 -1       932 1.38776E-02-8.57227E-04-4.84196E-14
 -1       933 3.60205E-03 2.95637E-04-3.47456E-15
 -1       934 7.65391E-03 3.55485E-04-1.58812E-14
 -1       935 1.38479E-03 9.94443E-05-5.81918E-16
 -1       936 1.16046E-02-2.73310E-04-3.15547E-14
 -1       937 1.58872E-03 2.58155E-04-6.99466E-16
 -1       938 2.16445E-03 2.88541E-04-1.27074E-15
 -1       939 1.17545E-02-3.47331E-04-3.14876E-14
 -1       940 1.37381E-02-5.77425E-04-4.90093E-14
 -1       941 1.38166E-03 3.37917E-05-5.89305E-16
 -1       942 1.18482E-02-4.04454E-04-3.20102E-14
 -1       943 1.44787E-03 2.78498E-04-5.71297E-16
 -1       944 1.34708E-03-1.41280E-04-5.52648E-16
 -1       945 1.36555E-02-4.44362E-04-4.93449E-14
 -1       946 3.31563E-03 2.98919E-04-2.94366E-15
 -1       947 2.35513E-03-1.86556E-04-1.56393E-15
 -1       948 2.64443E-03-1.89743E-04-1.95368E-15
 -1       949 2.93323E-03-1.90767E-04-2.39012E-15
 -1       950 3.22117E-03-1.90103E-04-2.87301E-15
 -1       951 3.50793E-03-1.88112E-04-3.40191E-15
 -1       952 3.79324E-03-1.85069E-04-3.97745E-15
 -1       953 4.07677E-03-1.81199E-04-4.59804E-15
 -1       954 4.35819E-03-1.76705E-04-5.26366E-15
 -1       955 4.63704E-03-1.71813E-04-5.97248E-15
 -1       956 4.91279E-03-1.66812E-04-6.72729E-15
 -1       957 5.18476E-03-1.62084E-04-7.53014E-15
 -1       958 5.45215E-03-1.58128E-04-8.38028E-15
 -1       959 5.71395E-03-1.55565E-04-9.28122E-15
 -1       960 5.96891E-03-1.55093E-04-1.02343E-14
 -1       961 6.21550E-03-1.57423E-04-1.12413E-14
 -1       962 6.45173E-03-1.63160E-04-1.22982E-14
 -1       963 6.67497E-03-1.72968E-04-1.34010E-14
 -1       964 1.19900E-02-4.62457E-04-3.33900E-14
 -1       965 1.14178E-02-1.55879E-04-3.17461E-14
 -1       966 6.77541E-03-1.63920E-04-1.41286E-14
 -1       967 1.22195E-02-4.98204E-04-3.53516E-14
 -1       968 1.24608E-02-5.37601E-04-3.73567E-14
 -1       969 1.27115E-02-5.80085E-04-3.94116E-14
 -1       970 1.29698E-02-6.24940E-04-4.15120E-14
 -1       971 1.32344E-02-6.71402E-04-4.36521E-14
 -1       972 1.35040E-02-7.18730E-04-4.58270E-14
 -1       973 1.38157E-03-3.12087E-05-5.91883E-16
 -1       974 5.14554E-03 1.89601E-04-7.31183E-15
 -1       975 4.86747E-03 1.97432E-04-6.51272E-15
 -1       976 5.69702E-03 1.73092E-04-9.06017E-15
 -1       977 5.97153E-03 1.65330E-04-1.00092E-14
 -1       978 6.24687E-03 1.58985E-04-1.10086E-14
 -1       979 6.52547E-03 1.55616E-04-1.20535E-14
 -1       980 6.81124E-03 1.58153E-04-1.31474E-14
 -1       981 7.07356E-03 1.62695E-04-1.41782E-14
 -1       982 1.72218E-03 2.00893E-04-8.44807E-16
 -1       983 1.21125E-02-2.12173E-04-3.73837E-14
 -1       984 1.23882E-02-2.49806E-04-3.94967E-14
 -1       985 1.26630E-02-2.86174E-04-4.16469E-14
 -1       986 1.29384E-02-3.22220E-04-4.38299E-14
 -1       987 1.32150E-02-3.58550E-04-4.60399E-14
 -1       988 1.36320E-03-8.62425E-05-5.73973E-16
 -1       989 1.35661E-02-6.45813E-04-4.68790E-14
 -1       990 6.89888E-03 4.13927E-05-1.40425E-14
 -1       991 1.18334E-02-1.71554E-04-3.53173E-14
 -1       992 1.77725E-03-1.71174E-04-9.20583E-16
 -1       993 1.16222E-02-1.63936E-04-3.35050E-14
 -1       994 1.39126E-03 1.66456E-04-5.70256E-16
 -1       995 5.42194E-03 1.81369E-04-8.15989E-15
 -1       996 4.02288E-03 2.16558E-04-4.40398E-15
 -1       997 2.06584E-03-1.80608E-04-1.22026E-15
 -1       998 2.45277E-03 2.95937E-04-1.62235E-15
 -1       999 2.87725E-03 2.26698E-04-2.26211E-15
 -1      1000 6.62705E-03-8.11281E-05-1.34822E-14
 -1      1001 1.16427E-02-2.28035E-04-3.27859E-14
 -1      1002 1.34768E-02-5.06877E-04-4.71559E-14
 -1      1003 1.34435E-02-4.48187E-04-4.73559E-14
 -1      1004 3.73825E-03 2.21052E-04-3.79618E-15
 -1      1005 1.63499E-03 1.44694E-04-7.82286E-16
 -1      1006 1.62983E-03 7.25667E-05-7.94215E-16
 -1      1007 4.58762E-03 2.04634E-04-5.76310E-15
 -1      1008 2.01046E-03 2.12845E-04-1.13331E-15
 -1      1009 1.17856E-02-3.21530E-04-3.25101E-14
 -1      1010 1.35249E-02-5.76795E-04-4.70229E-14
 -1      1011 6.71898E-03 2.65209E-06-1.34787E-14
 -1      1012 4.30606E-03 2.11047E-04-5.06049E-15
 -1      1013 3.16525E-03 2.26369E-04-2.72735E-15
 -1      1014 6.52538E-03-2.92460E-05-1.27798E-14
 -1      1015 2.78407E-03-1.17309E-04-2.17585E-15
 -1      1016 3.07279E-03-1.17408E-04-2.63539E-15
 -1      1017 3.36033E-03-1.16566E-04-3.14125E-15
 -1      1018 3.64633E-03-1.15002E-04-3.69256E-15
 -1      1019 3.93044E-03-1.12894E-04-4.29089E-15
 -1      1020 4.21227E-03-1.10413E-04-4.93549E-15
 -1      1021 4.49138E-03-1.07740E-04-5.62478E-15
 -1      1022 4.76722E-03-1.05100E-04-6.35801E-15
 -1      1023 5.03914E-03-1.02800E-04-7.13720E-15
 -1      1024 5.30630E-03-1.01224E-04-7.96561E-15
 -1      1025 5.56769E-03-1.00866E-04-8.84291E-15
 -1      1026 5.82195E-03-1.02299E-04-9.77173E-15
 -1      1027 6.06730E-03-1.06132E-04-1.07553E-14
 -1      1028 6.30115E-03-1.12929E-04-1.17910E-14
 -1      1029 6.51954E-03-1.23068E-04-1.28722E-14
 -1      1030 1.21054E-02-4.34285E-04-3.44690E-14
 -1      1031 1.23314E-02-4.69327E-04-3.64643E-14
 -1      1032 1.25709E-02-5.07489E-04-3.85034E-14
 -1      1033 1.28207E-02-5.48344E-04-4.05921E-14
 -1      1034 1.30784E-02-5.91248E-04-4.27172E-14
 -1      1035 1.33204E-02-6.18721E-04-4.47853E-14
 -1      1036 1.62807E-03 1.41740E-06-7.99599E-16
 -1      1037 1.28613E-02-3.68289E-04-4.26598E-14
 -1      1038 4.99371E-03 1.27781E-04-6.94014E-15
 -1      1039 6.06951E-03 9.49732E-05-1.05328E-14
 -1      1040 5.80455E-03 1.04284E-04-9.55794E-15
 -1      1041 6.59741E-03 7.66149E-05-1.26261E-14
 -1      1042 1.19509E-02-3.86850E-04-3.32295E-14
 -1      1043 1.25935E-02-3.32826E-04-4.05040E-14
 -1      1044 5.53714E-03 1.12932E-04-8.63580E-15
 -1      1045 2.20491E-03-1.13136E-04-1.39617E-15
 -1      1046 1.23281E-02-2.98145E-04-3.83842E-14
 -1      1047 1.31319E-02-4.04685E-04-4.48480E-14
 -1      1048 6.33301E-03 8.53575E-05-1.15576E-14
 -1      1049 1.92286E-03 1.54821E-04-1.06006E-15
 -1      1050 1.20640E-02-2.63782E-04-3.63066E-14
 -1      1051 3.45231E-03 2.24390E-04-3.23811E-15
 -1      1052 2.29948E-03 2.20582E-04-1.46570E-15
 -1      1053 1.91572E-03-1.08299E-04-1.07380E-15
 -1      1054 2.58856E-03 2.24957E-04-1.84171E-15
 -1      1055 5.26690E-03 1.20772E-04-7.76264E-15
 -1      1056 2.49460E-03-1.16000E-04-1.76293E-15
 -1      1057 1.32682E-02-5.07418E-04-4.51903E-14
 -1      1058 3.87501E-03 1.47639E-04-4.12491E-15
 -1      1059 4.15809E-03 1.43890E-04-4.75872E-15
 -1      1060 1.57478E-03-9.56070E-05-7.47720E-16
 -1      1061 6.39547E-03-7.21171E-05-1.22890E-14
 -1      1062 4.71770E-03 1.33964E-04-6.16655E-15
 -1      1063 1.18383E-02-2.85766E-04-3.37733E-14
 -1      1064 1.32976E-02-5.63428E-04-4.49923E-14
 -1      1065 2.72698E-03 1.52877E-04-2.06660E-15
 -1      1066 3.01579E-03 1.53346E-04-2.51208E-15
 -1      1067 2.21198E-03 1.61573E-04-1.38143E-15
 -1      1068 3.21432E-03-4.42273E-05-2.88419E-15
 -1      1069 3.50116E-03-4.38045E-05-3.41204E-15
 -1      1070 3.78618E-03-4.32019E-05-3.98668E-15
 -1      1071 4.06896E-03-4.25388E-05-4.60844E-15
 -1      1072 4.34910E-03-4.19284E-05-5.27608E-15
 -1      1073 4.62619E-03-4.15201E-05-5.98978E-15
 -1      1074 4.89948E-03-4.15895E-05-6.74704E-15
 -1      1075 5.16840E-03-4.23886E-05-7.55207E-15
 -1      1076 5.43204E-03-4.43258E-05-8.40446E-15
 -1      1077 5.68929E-03-4.78976E-05-9.30934E-15
 -1      1078 5.93878E-03-5.36466E-05-1.02676E-14
 -1      1079 6.17319E-03-6.11518E-05-1.12543E-14
 -1      1080 1.94810E-03 6.83878E-05-1.10677E-15
 -1      1081 5.38765E-03 5.55373E-05-8.21500E-15
 -1      1082 5.11974E-03 6.14056E-05-7.36872E-15
 -1      1083 1.24194E-02-4.39513E-04-3.75811E-14
 -1      1084 1.26638E-02-4.76129E-04-3.96541E-14
 -1      1085 1.29171E-02-5.15031E-04-4.17683E-14
 -1      1086 1.31057E-02-5.39047E-04-4.33724E-14
 -1      1087 1.20363E-02-3.64881E-04-3.45240E-14
 -1      1088 3.59009E-03 1.50532E-04-3.53955E-15
 -1      1089 2.05725E-03-4.19297E-05-1.23256E-15
 -1      1090 5.65110E-03 4.83584E-05-9.11000E-15
 -1      1091 2.46950E-03 1.58179E-04-1.70647E-15
 -1      1092 1.25262E-02-3.75532E-04-3.93690E-14
 -1      1093 6.35492E-03-7.41862E-07-1.19311E-14
 -1      1094 6.11051E-03 1.19370E-05-1.08888E-14
 -1      1095 1.27853E-02-4.10683E-04-4.14944E-14
 -1      1096 2.34690E-03-4.33631E-05-1.57685E-15
 -1      1097 5.88421E-03 3.08120E-05-9.97743E-15
 -1      1098 1.21915E-02-4.16027E-04-3.55009E-14
 -1      1099 1.22724E-02-3.42390E-04-3.72879E-14
 -1      1100 2.63671E-03-4.41302E-05-1.96653E-15
 -1      1101 2.92603E-03-4.43752E-05-2.40260E-15
 -1      1102 4.43907E-03 1.39330E-04-5.44004E-15
 -1      1103 3.30360E-03 1.52489E-04-3.00306E-15
 -1      1104 4.84785E-03 6.61971E-05-6.57112E-15
 -1      1105 4.01265E-03 7.58177E-05-4.45835E-15
 -1      1106 1.30759E-02-4.84749E-04-4.35624E-14
 -1      1107 3.72909E-03 7.77782E-05-3.84719E-15
 -1      1108 1.30491E-02-4.47479E-04-4.36562E-14
 -1      1109 2.57045E-03 8.32768E-05-1.86228E-15
 -1      1110 2.85987E-03 8.40128E-05-2.28575E-15
 -1      1111 3.64376E-03 2.79040E-05-3.68604E-15
 -1      1112 4.48827E-03 2.43454E-05-5.62063E-15
 -1      1113 2.31240E-03 8.87215E-05-1.52276E-15
 -1      1114 1.20242E-02-3.11566E-04-3.52453E-14
 -1      1115 3.35775E-03 2.84268E-05-3.13638E-15
 -1      1116 4.29386E-03 7.32753E-05-5.11766E-15
 -1      1117 1.21432E-02-3.63982E-04-3.56780E-14
 -1      1118 3.07011E-03 2.86755E-05-2.63342E-15
 -1      1119 4.57241E-03 7.01215E-05-5.82202E-15
 -1      1120 0.00000E+00 0.00000E+00 0.00000E+00
 -1      1121 0.00000E+00 0.00000E+00 0.00000E+00
 -1      1122 0.00000E+00 0.00000E+00 0.00000E+00
 -1      1123 0.00000E+00 0.00000E+00 0.00000E+00
 -1      1124 0.00000E+00 0.00000E+00 0.00000E+00
 -1      1125 0.00000E+00 0.00000E+00 0.00000E+00
 -1      1126 0.00000E+00 0.00000E+00 0.00000E+00
 -1      1127 0.00000E+00 0.00000E+00 0.00000E+00
 -1      1128 0.00000E+00 0.00000E+00 0.00000E+00
 -1      1129 0.00000E+00 0.00000E+00 0.00000E+00
 -1      1130 0.00000E+00 0.00000E+00 0.00000E+00
 -1      1131 0.00000E+00 0.00000E+00 0.00000E+00
 -1      1132 0.00000E+00 0.00000E+00 0.00000E+00
 -1      1133 0.00000E+00 0.00000E+00 0.00000E+00
 -1      1134 0.00000E+00 0.00000E+00 0.00000E+00
 -1      1135 0.00000E+00 0.00000E+00 0.00000E+00
 -1      1136 0.00000E+00 0.00000E+00 0.00000E+00
 -1      1137 2.11492E-04-1.48266E-04 9.36480E-18
 -1      1138 5.51109E-04-3.37337E-04 2.75116E-18
 -1      1139 8.32569E-04-4.58632E-04-4.25414E-17
 -1      1140 1.10176E-03-5.39987E-04-1.33181E-16
 -1      1141 1.36678E-03-5.96748E-04-2.69763E-16
 -1      1142 1.63119E-03-6.36770E-04-4.52410E-16
 -1      1143 1.89686E-03-6.64652E-04-6.83630E-16
 -1      1144 2.16468E-03-6.83455E-04-9.63246E-16
 -1      1145 2.43499E-03-6.95394E-04-1.29080E-15
 -1      1146 2.70789E-03-7.02115E-04-1.66884E-15
 -1      1147 2.98334E-03-7.04841E-04-2.09869E-15
 -1      1148 3.26127E-03-7.04471E-04-2.57685E-15
 -1      1149 3.54167E-03-7.01663E-04-3.09968E-15
 -1      1150 3.82462E-03-6.96898E-04-3.67050E-15
 -1      1151 4.11034E-03-6.90553E-04-4.28665E-15
 -1      1152 4.39922E-03-6.82968E-04-4.94441E-15
 -1      1153 4.69188E-03-6.74530E-04-5.64273E-15
 -1      1154 4.98922E-03-6.65772E-04-6.38015E-15
 -1      1155 5.29241E-03-6.57504E-04-7.15682E-15
 -1      1156 5.60295E-03-6.50985E-04-7.97904E-15
 -1      1157 5.92260E-03-6.48161E-04-8.84691E-15
 -1      1158 6.25328E-03-6.51949E-04-9.76872E-15
 -1      1159 6.59669E-03-6.66561E-04-1.07383E-14
 -1      1160 6.95376E-03-6.97726E-04-1.17612E-14
 -1      1161 7.32354E-03-7.52505E-04-1.28383E-14
 -1      1162 7.70182E-03-8.38072E-04-1.39664E-14
 -1      1163 8.07968E-03-9.58605E-04-1.51428E-14
 -1      1164 8.44356E-03-1.10993E-03-1.63727E-14
 -1      1165 8.77859E-03-1.27367E-03-1.76703E-14
 -1      1166 9.07650E-03-1.41662E-03-1.90364E-14
 -1      1167 9.34406E-03-1.50126E-03-2.04725E-14
 -1      1168 9.60371E-03-1.50515E-03-2.19781E-14
 -1      1169 9.88241E-03-1.43491E-03-2.35440E-14
 -1      1170 1.01966E-02-1.32200E-03-2.51819E-14
 -1      1171 1.05456E-02-1.20418E-03-2.68933E-14
 -1      1172 1.09172E-02-1.10875E-03-2.86698E-14
 -1      1173 1.12964E-02-1.04731E-03-3.04960E-14
 -1      1174 1.16714E-02-1.01961E-03-3.23672E-14
 -1      1175 1.20355E-02-1.01961E-03-3.42731E-14
 -1      1176 1.23860E-02-1.03989E-03-3.62278E-14
 -1      1177 1.27230E-02-1.07385E-03-3.82495E-14
 -1      1178 1.30478E-02-1.11635E-03-4.03411E-14
 -1      1179 1.33624E-02-1.16370E-03-4.24960E-14
 -1      1180 1.36685E-02-1.21333E-03-4.47012E-14
 -1      1181 1.39680E-02-1.26348E-03-4.69515E-14
 -1      1182 1.42623E-02-1.31295E-03-4.92473E-14
 -1      1183 1.45527E-02-1.36093E-03-5.15826E-14
 -1      1184 1.48404E-02-1.40685E-03-5.39481E-14
 -1      1185 1.51264E-02-1.45052E-03-5.63442E-14
 -1      1186 1.54048E-02-1.49138E-03-5.87131E-14
 -1      1187 2.28240E-04 1.60637E-04 1.22786E-17
 -1      1188 5.53281E-04 3.41963E-04 1.02051E-17
 -1      1189 8.33501E-04 4.60791E-04-3.00053E-17
 -1      1190 1.10267E-03 5.41666E-04-1.14451E-16
 -1      1191 1.36770E-03 5.98423E-04-2.44081E-16
 -1      1192 1.63217E-03 6.38536E-04-4.20061E-16
 -1      1193 1.89791E-03 6.66530E-04-6.44870E-16
 -1      1194 2.16579E-03 6.85464E-04-9.17262E-16
 -1      1195 2.43616E-03 6.97557E-04-1.23389E-15
 -1      1196 2.70912E-03 7.04459E-04-1.59424E-15
 -1      1197 2.98463E-03 7.07406E-04-2.00146E-15
 -1      1198 3.26263E-03 7.07319E-04-2.45472E-15
 -1      1199 3.54309E-03 7.04887E-04-2.95361E-15
 -1      1200 3.82606E-03 7.00642E-04-3.49983E-15
 -1      1201 4.11171E-03 6.95030E-04-4.09851E-15
 -1      1202 4.40032E-03 6.88480E-04-4.75515E-15
 -1      1203 4.69233E-03 6.81491E-04-5.46350E-15
 -1      1204 4.98832E-03 6.74713E-04-6.22092E-15
 -1      1205 5.28896E-03 6.69050E-04-7.02467E-15
 -1      1206 5.59496E-03 6.65750E-04-7.87605E-15
 -1      1207 5.90691E-03 6.66500E-04-8.77668E-15
 -1      1208 6.22510E-03 6.73459E-04-9.72794E-15
 -1      1209 6.54921E-03 6.89180E-04-1.07324E-14
 -1      1210 6.87791E-03 7.16324E-04-1.17940E-14
 -1      1211 7.20851E-03 7.57027E-04-1.29112E-14
 -1      1212 7.53673E-03 8.11832E-04-1.40816E-14
 -1      1213 7.85700E-03 8.78274E-04-1.53088E-14
 -1      1214 8.16349E-03 9.49558E-04-1.66083E-14
 -1      1215 8.45211E-03 1.01427E-03-1.79834E-14
 -1      1216 8.72273E-03 1.05814E-03-1.94355E-14
 -1      1217 8.98060E-03 1.06811E-03-2.09614E-14
 -1      1218 9.23532E-03 1.03720E-03-2.25617E-14
 -1      1219 9.49766E-03 9.67421E-04-2.42290E-14
 -1      1220 9.77565E-03 8.68953E-04-2.59624E-14
 -1      1221 1.00722E-02 7.55996E-04-2.77691E-14
 -1      1222 1.03851E-02 6.41951E-04-2.96589E-14
 -1      1223 1.07093E-02 5.36274E-04-3.16262E-14
 -1      1224 1.10389E-02 4.43715E-04-3.36718E-14
 -1      1225 1.13686E-02 3.65210E-04-3.57715E-14
 -1      1226 1.16950E-02 2.99314E-04-3.79161E-14
 -1      1227 1.20160E-02 2.43504E-04-4.01137E-14
 -1      1228 1.23307E-02 1.95038E-04-4.23568E-14
 -1      1229 1.26391E-02 1.51426E-04-4.46281E-14
 -1      1230 1.29417E-02 1.10602E-04-4.69262E-14
 -1      1231 1.32392E-02 7.09447E-05-4.92397E-14
 -1      1232 1.35326E-02 3.12151E-05-5.15597E-14
 -1      1233 1.38226E-02-9.51381E-06-5.38918E-14
 -1      1234 1.41101E-02-5.18958E-05-5.62217E-14
 -1      1235 1.43962E-02-9.62474E-05-5.85325E-14
 -1      1236 1.46745E-02-1.41052E-04-6.07765E-14
 -1      1237 1.48330E-02-2.05305E-04-6.18027E-14
 -1      1238 1.48791E-02-2.89786E-04-6.16699E-14
 -1      1239 1.49267E-02-3.73740E-04-6.15420E-14
 -1      1240 1.49759E-02-4.56293E-04-6.14055E-14
 -1      1241 1.50261E-02-5.36841E-04-6.12630E-14
 -1      1242 1.50758E-02-6.14501E-04-6.11483E-14
 -1      1243 1.51245E-02-6.90099E-04-6.10464E-14
 -1      1244 1.51716E-02-7.64709E-04-6.09425E-14
 -1      1245 1.52162E-02-8.38376E-04-6.08452E-14
 -1      1246 1.52579E-02-9.11950E-04-6.07253E-14
 -1      1247 1.52970E-02-9.86311E-04-6.06036E-14
 -1      1248 1.53337E-02-1.06159E-03-6.05276E-14
 -1      1249 1.53693E-02-1.13895E-03-6.04744E-14
 -1      1250 1.54051E-02-1.21929E-03-6.03792E-14
 -1      1251 1.54419E-02-1.30179E-03-6.02490E-14
 -1      1252 1.54805E-02-1.38575E-03-6.01081E-14
 -1      1253 1.55204E-02-1.46954E-03-5.99585E-14
 -1      1254 1.14724E-02-2.12053E-04-2.53613E-14
 -1      1255 1.13271E-02-5.23032E-05-2.51602E-14
 -1      1256 1.10869E-02 1.03542E-04-2.48078E-14
 -1      1257 1.07753E-02 2.55512E-04-2.43261E-14
 -1      1258 1.03873E-02 4.04138E-04-2.36871E-14
 -1      1259 9.95225E-03 5.29488E-04-2.29370E-14
 -1      1260 9.49433E-03 6.07107E-04-2.21308E-14
 -1      1261 9.04555E-03 6.27904E-04-2.13488E-14
 -1      1262 8.61594E-03 5.90493E-04-2.06208E-14
 -1      1263 8.20041E-03 5.05319E-04-1.99374E-14
 -1      1264 7.83052E-03 3.91468E-04-1.93565E-14
 -1      1265 7.50564E-03 2.56607E-04-1.88792E-14
 -1      1266 7.24136E-03 1.09341E-04-1.85156E-14
 -1      1267 7.07493E-03-3.56064E-05-1.82974E-14
 -1      1268 7.01617E-03-1.77651E-04-1.82086E-14
 -1      1269 7.07092E-03-3.27913E-04-1.82543E-14
 -1      1270 7.24079E-03-4.89162E-04-1.84553E-14
 -1      1271 7.50192E-03-6.51868E-04-1.87959E-14
 -1      1272 7.86368E-03-8.25051E-04-1.92997E-14
 -1      1273 8.28211E-03-9.82237E-04-1.99189E-14
 -1      1274 8.73318E-03-1.09900E-03-2.06282E-14
 -1      1275 9.21586E-03-1.16220E-03-2.14267E-14
 -1      1276 9.67640E-03-1.15271E-03-2.22143E-14
 -1      1277 1.01099E-02-1.08481E-03-2.29579E-14
 -1      1278 1.05156E-02-9.70968E-04-2.36515E-14
 -1      1279 1.09010E-02-8.19064E-04-2.43113E-14
 -1      1280 1.12081E-02-6.56569E-04-2.48371E-14
 -1      1281 1.14047E-02-5.05032E-04-2.51849E-14
 -1      1282 1.14943E-02-3.61277E-04-2.53627E-14
 -1      1283 1.66558E-04-1.10314E-04 2.71051E-18
 -1      1284 1.12478E-04-5.69948E-05-6.36969E-18
 -1      1285 1.17539E-04-6.75917E-05-3.97089E-18
 -1      1286 1.08390E-04-4.35235E-05-1.02457E-17
 -1      1287 1.10234E-04-4.96319E-05-8.99888E-18
 -1      1288 2.26213E-04-1.07646E-04-2.13723E-17
 -1      1289 1.06854E-04-3.36515E-05-1.26039E-17
 -1      1290 1.07682E-04-3.83773E-05-1.18720E-17
 -1      1291 2.19063E-04-8.25102E-05-2.85416E-17
 -1      1292 1.06100E-04-2.53748E-05-1.41217E-17
 -1      1293 1.06520E-04-2.94095E-05-1.37016E-17
 -1      1294 2.15910E-04-6.33208E-05-3.31630E-17
 -1      1295 1.05710E-04-1.81098E-05-1.49078E-17
 -1      1296 1.05932E-04-2.16802E-05-1.47723E-17
 -1      1297 2.14289E-04-4.72160E-05-3.60091E-17
 -1      1298 1.05504E-04-1.12503E-05-1.53821E-17
 -1      1299 1.05621E-04-1.46379E-05-1.53144E-17
 -1      1300 2.13405E-04-3.27722E-05-3.75947E-17
 -1      1301 1.05411E-04-4.69356E-06-1.55583E-17
 -1      1302 1.05461E-04-7.94875E-06-1.55583E-17
 -1      1303 2.12932E-04-1.91997E-05-3.84079E-17
 -1      1304 1.05401E-04 1.74455E-06-1.55583E-17
 -1      1305 1.05399E-04-1.47047E-06-1.56125E-17
 -1      1306 2.12728E-04-6.16224E-06-3.87738E-17
 -1      1307 1.05469E-04 8.23237E-06-1.53686E-17
 -1      1308 1.05415E-04 4.97082E-06-1.54228E-17
 -1      1309 2.12736E-04 6.71330E-06-3.85705E-17
 -1      1310 1.05636E-04 1.49464E-05-1.49213E-17
 -1      1311 1.05514E-04 1.15443E-05-1.50704E-17
 -1      1312 2.12956E-04 1.97763E-05-3.78522E-17
 -1      1313 1.05954E-04 2.19726E-05-1.40811E-17
 -1      1314 1.05727E-04 1.83790E-05-1.43115E-17
 -1      1315 2.13445E-04 3.32874E-05-3.64563E-17
 -1      1316 1.06555E-04 2.98465E-05-1.28749E-17
 -1      1317 1.06128E-04 2.57674E-05-1.32544E-17
 -1      1318 2.14351E-04 4.78252E-05-3.43421E-17
 -1      1319 1.07716E-04 3.89496E-05-1.10318E-17
 -1      1320 1.06880E-04 3.41554E-05-1.18043E-17
 -1      1321 2.16006E-04 6.42469E-05-3.13334E-17
 -1      1322 1.10221E-04 5.03733E-05-7.87402E-18
 -1      1323 1.08401E-04 4.41929E-05-9.31059E-18
 -1      1324 2.19170E-04 8.37469E-05-2.64816E-17
 -1      1325 1.16855E-04 6.76281E-05-2.75116E-18
 -1      1326 1.12125E-04 5.77950E-05-5.23128E-18
 -1      1327 2.26208E-04 1.09469E-04-1.88109E-17
 -1      1328 1.57444E-04 1.09826E-04 5.23128E-18
 -1      1329 1.35552E-04 8.60841E-05 2.43945E-19
 -1      1330 2.55845E-04 1.52078E-04-9.55453E-18
 -1      1331 3.34787E-04 2.20658E-04 3.90313E-18
 -1      1332 4.21162E-04-2.61636E-04-5.46167E-18
 -1      1333 5.74103E-04-3.36624E-04-1.97054E-17
 -1      1334 7.21134E-04-3.97128E-04-4.54958E-17
 -1      1335 8.64143E-04-4.46296E-04-8.21825E-17
 -1      1336 6.11560E-04-3.30711E-04-4.61057E-17
 -1      1337 1.00401E-03-4.87206E-04-1.29562E-16
 -1      1338 1.14169E-03-5.20994E-04-1.88109E-16
 -1      1339 9.04527E-04-4.31152E-04-1.23707E-16
 -1      1340 1.27802E-03-5.49524E-04-2.57986E-16
 -1      1341 1.41350E-03-5.73270E-04-3.39640E-16
 -1      1342 1.18670E-03-5.00170E-04-2.44975E-16
 -1      1343 1.54859E-03-5.93290E-04-4.32570E-16
 -1      1344 1.68353E-03-6.09913E-04-5.37032E-16
 -1      1345 1.46338E-03-5.48358E-04-4.11035E-16
 -1      1346 1.81858E-03-6.23759E-04-6.53774E-16
 -1      1347 1.95384E-03-6.35114E-04-7.82523E-16
 -1      1348 1.73785E-03-5.81847E-04-6.22955E-16
 -1      1349 2.08945E-03-6.44369E-04-9.22846E-16
 -1      1350 2.22545E-03-6.51768E-04-1.07576E-15
 -1      1351 2.01201E-03-6.04560E-04-8.82391E-16
 -1      1352 2.36192E-03-6.57573E-04-1.24082E-15
 -1      1353 2.49886E-03-6.61981E-04-1.41753E-15
 -1      1354 2.28689E-03-6.19239E-04-1.18960E-15
 -1      1355 2.63632E-03-6.65174E-04-1.60734E-15
 -1      1356 2.77430E-03-6.67308E-04-1.81003E-15
 -1      1357 2.56304E-03-6.27875E-04-1.54526E-15
 -1      1358 2.91280E-03-6.68506E-04-2.02441E-15
 -1      1359 3.05183E-03-6.68892E-04-2.25148E-15
 -1      1360 2.84075E-03-6.31928E-04-1.95057E-15
 -1      1361 3.19140E-03-6.68544E-04-2.49043E-15
 -1      1362 3.33151E-03-6.67563E-04-2.74128E-15
 -1      1363 3.12018E-03-6.32463E-04-2.40454E-15
 -1      1364 3.47218E-03-6.65994E-04-3.00338E-15
 -1      1365 3.61342E-03-6.63919E-04-3.27661E-15
 -1      1366 3.40144E-03-6.30246E-04-2.90610E-15
 -1      1367 3.75525E-03-6.61363E-04-3.56258E-15
 -1      1368 3.89771E-03-6.58397E-04-3.85973E-15
 -1      1369 3.68468E-03-6.25819E-04-3.45448E-15
 -1      1370 4.04082E-03-6.55030E-04-4.16735E-15
 -1      1371 4.18464E-03-6.51336E-04-4.48656E-15
 -1      1372 3.97009E-03-6.19576E-04-4.04867E-15
 -1      1373 4.32923E-03-6.47316E-04-4.81578E-15
 -1      1374 4.47465E-03-6.43055E-04-5.15447E-15
 -1      1375 4.25796E-03-6.11826E-04-4.68591E-15
 -1      1376 4.62099E-03-6.38559E-04-5.50417E-15
 -1      1377 4.76836E-03-6.33938E-04-5.86445E-15
 -1      1378 4.54873E-03-6.02875E-04-5.36597E-15
 -1      1379 4.91685E-03-6.29215E-04-6.23420E-15
 -1      1380 5.06661E-03-6.24539E-04-6.61270E-15
 -1      1381 4.84298E-03-5.93113E-04-6.08708E-15
 -1      1382 5.21777E-03-6.19973E-04-7.00300E-15
 -1      1383 5.37049E-03-6.15726E-04-7.40422E-15
 -1      1384 5.14149E-03-5.83130E-04-6.84774E-15
 -1      1385 5.52494E-03-6.11927E-04-7.81559E-15
 -1      1386 5.68131E-03-6.08870E-04-8.23853E-15
 -1      1387 5.44520E-03-5.73870E-04-7.65119E-15
 -1      1388 5.83978E-03-6.06795E-04-8.67419E-15
 -1      1389 6.00053E-03-6.06105E-04-9.12337E-15
 -1      1390 5.75522E-03-5.66845E-04-8.50105E-15
 -1      1391 6.16377E-03-6.07207E-04-9.58383E-15
 -1      1392 6.32965E-03-6.10642E-04-1.00575E-14
 -1      1393 6.07276E-03-5.64409E-04-9.39845E-15
 -1      1394 6.49830E-03-6.17048E-04-1.05457E-14
 -1      1395 6.66979E-03-6.27113E-04-1.10450E-14
 -1      1396 6.39897E-03-5.70108E-04-1.03499E-14
 -1      1397 6.84415E-03-6.41756E-04-1.15585E-14
 -1      1398 7.02124E-03-6.61775E-04-1.20853E-14
 -1      1399 6.73471E-03-5.89021E-04-1.13550E-14
 -1      1400 7.20086E-03-6.88334E-04-1.26247E-14
 -1      1401 7.38256E-03-7.22202E-04-1.31778E-14
 -1      1402 7.08009E-03-6.27921E-04-1.24110E-14
 -1      1403 7.56579E-03-7.64532E-04-1.37429E-14
 -1      1404 7.74966E-03-8.15728E-04-1.43205E-14
 -1      1405 7.43398E-03-6.94780E-04-1.35184E-14
 -1      1406 7.93323E-03-8.76318E-04-1.49109E-14
 -1      1407 8.11515E-03-9.45722E-04-1.55128E-14
 -1      1408 7.79326E-03-7.96813E-04-1.46759E-14
 -1      1409 8.29421E-03-1.02288E-03-1.61299E-14
 -1      1410 8.46894E-03-1.10548E-03-1.67645E-14
 -1      1411 8.15237E-03-9.36091E-04-1.58867E-14
 -1      1412 8.63826E-03-1.19009E-03-1.74143E-14
 -1      1413 8.80130E-03-1.27233E-03-1.80817E-14
 -1      1414 8.50358E-03-1.10283E-03-1.71563E-14
 -1      1415 8.95786E-03-1.34687E-03-1.87666E-14
 -1      1416 9.10859E-03-1.40866E-03-1.94665E-14
 -1      1417 8.83935E-03-1.26970E-03-1.84927E-14
 -1      1418 9.25462E-03-1.45282E-03-2.01859E-14
 -1      1419 9.39824E-03-1.47627E-03-2.09243E-14
 -1      1420 9.15734E-03-1.39545E-03-1.98994E-14
 -1      1421 9.54150E-03-1.47768E-03-2.16791E-14
 -1      1422 9.68719E-03-1.45795E-03-2.24473E-14
 -1      1423 9.46457E-03-1.44295E-03-2.13759E-14
 -1      1424 9.83708E-03-1.42024E-03-2.32334E-14
 -1      1425 9.99284E-03-1.36887E-03-2.40344E-14
 -1      1426 9.77495E-03-1.40207E-03-2.29178E-14
 -1      1427 1.01550E-02-1.30932E-03-2.48540E-14
 -1      1428 1.03235E-02-1.24663E-03-2.56936E-14
 -1      1429 1.01003E-02-1.29689E-03-2.45272E-14
 -1      1430 1.04975E-02-1.18549E-03-2.65504E-14
 -1      1431 1.06760E-02-1.12942E-03-2.74231E-14
 -1      1432 1.04435E-02-1.16942E-03-2.62049E-14
 -1      1433 1.08575E-02-1.08076E-03-2.83096E-14
 -1      1434 1.10408E-02-1.04099E-03-2.92095E-14
 -1      1435 1.07990E-02-1.05622E-03-2.79502E-14
 -1      1436 1.12246E-02-1.01035E-03-3.01254E-14
 -1      1437 1.14078E-02-9.88885E-04-3.10514E-14
 -1      1438 1.11588E-02-9.76615E-04-2.97528E-14
 -1      1439 1.15896E-02-9.75702E-04-3.19853E-14
 -1      1440 1.17693E-02-9.70171E-04-3.29330E-14
 -1      1441 1.15160E-02-9.34318E-04-3.16062E-14
 -1      1442 1.19465E-02-9.71079E-04-3.38885E-14
 -1      1443 1.21210E-02-9.77614E-04-3.48526E-14
 -1      1444 1.18661E-02-9.24283E-04-3.34989E-14
 -1      1445 1.22926E-02-9.88696E-04-3.58352E-14
 -1      1446 1.24614E-02-1.00356E-03-3.68308E-14
 -1      1447 1.22070E-02-9.38552E-04-3.54387E-14
 -1      1448 1.26273E-02-1.02140E-03-3.78410E-14
 -1      1449 1.27906E-02-1.04160E-03-3.88704E-14
 -1      1450 1.25380E-02-9.69498E-04-3.74325E-14
 -1      1451 1.29513E-02-1.06359E-03-3.99147E-14
 -1      1452 1.31097E-02-1.08690E-03-4.09741E-14
 -1      1453 1.28598E-02-1.01101E-03-3.94885E-14
 -1      1454 1.32659E-02-1.11119E-03-4.20490E-14
 -1      1455 1.34202E-02-1.13609E-03-4.31395E-14
 -1      1456 1.31734E-02-1.05864E-03-4.16063E-14
 -1      1457 1.35728E-02-1.16140E-03-4.42396E-14
 -1      1458 1.37237E-02-1.18684E-03-4.53487E-14
 -1      1459 1.34799E-02-1.10928E-03-4.37791E-14
 -1      1460 1.38733E-02-1.21231E-03-4.64725E-14
 -1      1461 1.40216E-02-1.23759E-03-4.76088E-14
 -1      1462 1.37807E-02-1.16087E-03-4.59978E-14
 -1      1463 1.41688E-02-1.26263E-03-4.87568E-14
 -1      1464 1.43151E-02-1.28728E-03-4.99109E-14
 -1      1465 1.40768E-02-1.21199E-03-4.82653E-14
 -1      1466 1.44606E-02-1.31149E-03-5.10757E-14
 -1      1467 1.46053E-02-1.33516E-03-5.22519E-14
 -1      1468 1.43692E-02-1.26171E-03-5.05748E-14
 -1      1469 1.47495E-02-1.35828E-03-5.34351E-14
 -1      1470 1.48932E-02-1.38078E-03-5.46225E-14
 -1      1471 1.46589E-02-1.30938E-03-5.29188E-14
 -1      1472 1.50365E-02-1.40269E-03-5.58194E-14
 -1      1473 1.51796E-02-1.42401E-03-5.70258E-14
 -1      1474 1.49467E-02-1.35462E-03-5.52964E-14
 -1      1475 1.53847E-02-1.44996E-03-5.87954E-14
 -1      1476 1.52953E-02-1.40252E-03-5.82594E-14
 -1      1477 6.42467E-04 3.71787E-04-1.78622E-17
 -1      1478 4.92499E-04 3.03548E-04-1.68051E-18
 -1      1479 4.44501E-04 2.65791E-04-1.17907E-17
 -1      1480 9.27730E-04 4.71498E-04-8.23045E-17
 -1      1481 7.87029E-04 4.26149E-04-4.47233E-17
 -1      1482 7.44085E-04 3.90423E-04-5.71646E-17
 -1      1483 1.20229E-03 5.40524E-04-1.90847E-16
 -1      1484 1.06579E-03 5.09061E-04-1.30931E-16
 -1      1485 1.02985E-03 4.75550E-04-1.45188E-16
 -1      1486 1.47251E-03 5.89147E-04-3.44058E-16
 -1      1487 1.33762E-03 5.67000E-04-2.61672E-16
 -1      1488 1.30749E-03 5.34903E-04-2.77041E-16
 -1      1489 1.74173E-03 6.23247E-04-5.44825E-16
 -1      1490 1.60707E-03 6.07774E-04-4.38221E-16
 -1      1491 1.58147E-03 5.76521E-04-4.54511E-16
 -1      1492 2.01167E-03 6.46636E-04-7.93189E-16
 -1      1493 1.87652E-03 6.36111E-04-6.63261E-16
 -1      1494 1.85442E-03 6.05328E-04-6.78968E-16
 -1      1495 2.28319E-03 6.62000E-04-1.08767E-15
 -1      1496 2.14720E-03 6.55194E-04-9.34758E-16
 -1      1497 2.12780E-03 6.24650E-04-9.50764E-16
 -1      1498 2.55668E-03 6.71308E-04-1.42635E-15
 -1      1499 2.41968E-03 6.67313E-04-1.25156E-15
 -1      1500 2.40237E-03 6.36866E-04-1.26719E-15
 -1      1501 2.83230E-03 6.76028E-04-1.80998E-15
 -1      1502 2.69422E-03 6.74167E-04-1.61241E-15
 -1      1503 2.67852E-03 6.43724E-04-1.62828E-15
 -1      1504 3.11009E-03 6.77246E-04-2.23968E-15
 -1      1505 2.97092E-03 6.77017E-04-2.01922E-15
 -1      1506 2.95644E-03 6.46519E-04-2.03472E-15
 -1      1507 3.39008E-03 6.75767E-04-2.71511E-15
 -1      1508 3.24981E-03 6.76798E-04-2.47149E-15
 -1      1509 3.23623E-03 6.46204E-04-2.48667E-15
 -1      1510 3.67233E-03 6.72194E-04-3.23667E-15
 -1      1511 3.53092E-03 6.74205E-04-2.97005E-15
 -1      1512 3.51799E-03 6.43478E-04-2.98419E-15
 -1      1513 3.95695E-03 6.66999E-04-3.80817E-15
 -1      1514 3.81433E-03 6.69765E-04-3.51574E-15
 -1      1515 3.80182E-03 6.38871E-04-3.52950E-15
 -1      1516 4.24419E-03 6.60599E-04-4.43329E-15
 -1      1517 4.10023E-03 6.63913E-04-4.11340E-15
 -1      1518 4.08791E-03 6.32810E-04-4.12580E-15
 -1      1519 4.53436E-03 6.53430E-04-5.11361E-15
 -1      1520 4.38889E-03 6.57067E-04-4.76701E-15
 -1      1521 4.37651E-03 6.25700E-04-4.77694E-15
 -1      1522 4.82793E-03 6.46035E-04-5.84442E-15
 -1      1523 4.68069E-03 6.49705E-04-5.47326E-15
 -1      1524 4.66797E-03 6.18003E-04-5.47999E-15
 -1      1525 5.12542E-03 6.39155E-04-6.62266E-15
 -1      1526 4.97615E-03 6.42457E-04-6.22785E-15
 -1      1527 4.96275E-03 6.10329E-04-6.23346E-15
 -1      1528 5.42744E-03 6.33834E-04-7.44921E-15
 -1      1529 5.27583E-03 6.36203E-04-7.02980E-15
 -1      1530 5.26132E-03 6.03538E-04-7.03367E-15
 -1      1531 5.73454E-03 6.31518E-04-8.32478E-15
 -1      1532 5.58032E-03 6.32179E-04-7.88021E-15
 -1      1533 5.56421E-03 5.98847E-04-7.88260E-15
 -1      1534 6.04708E-03 6.34133E-04-9.24778E-15
 -1      1535 5.89011E-03 6.32067E-04-8.78029E-15
 -1      1536 5.87181E-03 5.97931E-04-8.78116E-15
 -1      1537 6.36503E-03 6.44094E-04-1.02262E-14
 -1      1538 6.20539E-03 6.38044E-04-9.73015E-15
 -1      1539 6.18432E-03 6.02978E-04-9.73094E-15
 -1      1540 6.68770E-03 6.64147E-04-1.12543E-14
 -1      1541 6.52584E-03 6.52726E-04-1.07333E-14
 -1      1542 6.50150E-03 6.16647E-04-1.07318E-14
 -1      1543 7.01343E-03 6.96957E-04-1.23410E-14
 -1      1544 6.85032E-03 6.78891E-04-1.17911E-14
 -1      1545 6.82246E-03 6.41817E-04-1.17862E-14
 -1      1546 7.33938E-03 7.44264E-04-1.34808E-14
 -1      1547 7.17660E-03 7.18866E-04-1.29041E-14
 -1      1548 7.14547E-03 6.80981E-04-1.28944E-14
 -1      1549 7.66157E-03 8.05596E-04-1.46757E-14
 -1      1550 7.50124E-03 7.73460E-04-1.40708E-14
 -1      1551 7.46781E-03 7.35192E-04-1.40585E-14
 -1      1552 7.97537E-03 8.76724E-04-1.59354E-14
 -1      1553 7.81983E-03 8.40492E-04-1.52972E-14
 -1      1554 7.78596E-03 8.02553E-04-1.52821E-14
 -1      1555 8.27672E-03 9.48557E-04-1.72682E-14
 -1      1556 8.12783E-03 9.13361E-04-1.65922E-14
 -1      1557 8.09620E-03 8.76688E-04-1.65737E-14
 -1      1558 8.56376E-03 1.00761E-03-1.86756E-14
 -1      1559 8.42205E-03 9.80585E-04-1.79625E-14
 -1      1560 8.39576E-03 9.46114E-04-1.79379E-14
 -1      1561 8.83831E-03 1.03893E-03-2.01582E-14
 -1      1562 8.70233E-03 1.02746E-03-1.94071E-14
 -1      1563 8.68420E-03 9.95764E-04-1.93773E-14
 -1      1564 9.10614E-03 1.03113E-03-2.17153E-14
 -1      1565 8.97256E-03 1.04018E-03-2.09281E-14
 -1      1566 8.96436E-03 1.01114E-03-2.08909E-14
 -1      1567 9.37539E-03 9.81006E-04-2.33447E-14
 -1      1568 9.24002E-03 1.01103E-03-2.25216E-14
 -1      1569 9.24198E-03 9.83812E-04-2.24787E-14
 -1      1570 9.65365E-03 8.94914E-04-2.50409E-14
 -1      1571 9.51297E-03 9.41651E-04-2.41840E-14
 -1      1572 9.52375E-03 9.15040E-04-2.41371E-14
 -1      1573 9.94547E-03 7.86069E-04-2.68083E-14
 -1      1574 9.79771E-03 8.42368E-04-2.59152E-14
 -1      1575 9.81479E-03 8.15238E-04-2.58655E-14
 -1      1576 1.02513E-02 6.69411E-04-2.86511E-14
 -1      1577 1.00967E-02 7.27893E-04-2.77197E-14
 -1      1578 1.01171E-02 6.99565E-04-2.76658E-14
 -1      1579 1.05683E-02 5.57117E-04-3.05731E-14
 -1      1580 1.04086E-02 6.12197E-04-2.96024E-14
 -1      1581 1.04295E-02 5.82499E-04-2.95432E-14
 -1      1582 1.08920E-02 4.56538E-04-3.25705E-14
 -1      1583 1.07296E-02 5.05146E-04-3.15621E-14
 -1      1584 1.07488E-02 4.74272E-04-3.14954E-14
 -1      1585 1.12179E-02 3.70427E-04-3.46348E-14
 -1      1586 1.10549E-02 4.11681E-04-3.35958E-14
 -1      1587 1.10713E-02 3.79998E-04-3.35192E-14
 -1      1588 1.15424E-02 2.98290E-04-3.67509E-14
 -1      1589 1.13805E-02 3.32744E-04-3.56866E-14
 -1      1590 1.13937E-02 3.00644E-04-3.56000E-14
 -1      1591 1.18631E-02 2.37895E-04-3.89116E-14
 -1      1592 1.17033E-02 2.66804E-04-3.78261E-14
 -1      1593 1.17134E-02 2.34621E-04-3.77318E-14
 -1      1594 1.21786E-02 1.86413E-04-4.11273E-14
 -1      1595 1.20215E-02 2.11219E-04-4.00131E-14
 -1      1596 1.20290E-02 1.79194E-04-3.99128E-14
 -1      1597 1.24885E-02 1.41094E-04-4.33733E-14
 -1      1598 1.23342E-02 1.63139E-04-4.22470E-14
 -1      1599 1.23397E-02 1.31427E-04-4.21358E-14
 -1      1600 1.27930E-02 9.95837E-05-4.56520E-14
 -1      1601 1.26414E-02 1.19989E-04-4.45089E-14
 -1      1602 1.26454E-02 8.86716E-05-4.43909E-14
 -1      1603 1.30926E-02 5.99962E-05-4.79508E-14
 -1      1604 1.29434E-02 7.96471E-05-4.67986E-14
 -1      1605 1.29466E-02 4.87531E-05-4.66706E-14
 -1      1606 1.33880E-02 2.08840E-05-5.02591E-14
 -1      1607 1.32408E-02 4.04537E-05-4.91049E-14
 -1      1608 1.32436E-02 9.97852E-06-4.89694E-14
 -1      1609 1.36799E-02-1.88431E-05-5.25804E-14
 -1      1610 1.35343E-02 1.15005E-06-5.14187E-14
 -1      1611 1.35370E-02-2.89324E-05-5.12777E-14
 -1      1612 1.39691E-02-5.99872E-05-5.49049E-14
 -1      1613 1.38248E-02-3.92038E-05-5.37410E-14
 -1      1614 1.38277E-02-6.89329E-05-5.35925E-14
 -1      1615 1.42564E-02-1.03072E-04-5.72209E-14
 -1      1616 1.41129E-02-8.12735E-05-5.60641E-14
 -1      1617 1.41162E-02-1.10700E-04-5.59089E-14
 -1      1618 1.45425E-02-1.48206E-04-5.95269E-14
 -1      1619 1.43996E-02-1.25408E-04-5.83755E-14
 -1      1620 1.44031E-02-1.54603E-04-5.82187E-14
 -1      1621 1.46973E-02-1.83192E-04-6.07087E-14
 -1      1622 1.47671E-02-2.90249E-04-6.06406E-14
 -1      1623 1.47437E-02-2.48307E-04-6.07050E-14
 -1      1624 1.48153E-02-3.73408E-04-6.05121E-14
 -1      1625 1.47910E-02-3.31977E-04-6.05761E-14
 -1      1626 1.46553E-02-2.90842E-04-5.96106E-14
 -1      1627 1.48651E-02-4.55138E-04-6.03757E-14
 -1      1628 1.48401E-02-4.14481E-04-6.04463E-14
 -1      1629 1.47042E-02-3.73443E-04-5.94822E-14
 -1      1630 1.49157E-02-5.35082E-04-6.02464E-14
 -1      1631 1.48904E-02-4.95346E-04-6.03101E-14
 -1      1632 1.47545E-02-4.54602E-04-5.93544E-14
 -1      1633 1.49651E-02-6.11847E-04-6.01329E-14
 -1      1634 1.49405E-02-5.73686E-04-6.01878E-14
 -1      1635 1.48049E-02-5.33456E-04-5.92302E-14
 -1      1636 1.50139E-02-6.88269E-04-6.00194E-14
 -1      1637 1.49897E-02-6.50247E-04-6.00762E-14
 -1      1638 1.48547E-02-6.10717E-04-5.91105E-14
 -1      1639 1.50606E-02-7.63449E-04-5.99124E-14
 -1      1640 1.50376E-02-7.25980E-04-5.99647E-14
 -1      1641 1.49033E-02-6.87258E-04-5.89928E-14
 -1      1642 1.51045E-02-8.38011E-04-5.98064E-14
 -1      1643 1.50829E-02-8.00766E-04-5.98596E-14
 -1      1644 1.49494E-02-7.62840E-04-5.88796E-14
 -1      1645 1.51455E-02-9.12677E-04-5.96858E-14
 -1      1646 1.51254E-02-8.75287E-04-5.97493E-14
 -1      1647 1.49926E-02-8.38029E-04-5.87672E-14
 -1      1648 1.51839E-02-9.88166E-04-5.95764E-14
 -1      1649 1.51650E-02-9.50278E-04-5.96282E-14
 -1      1650 1.50328E-02-9.13456E-04-5.86518E-14
 -1      1651 1.52196E-02-1.06377E-03-5.94936E-14
 -1      1652 1.52019E-02-1.02577E-03-5.95316E-14
 -1      1653 1.50701E-02-9.89078E-04-5.85445E-14
 -1      1654 1.52551E-02-1.14250E-03-5.94110E-14
 -1      1655 1.52374E-02-1.10289E-03-5.94552E-14
 -1      1656 1.51056E-02-1.06601E-03-5.84487E-14
 -1      1657 1.52907E-02-1.22317E-03-5.92986E-14
 -1      1658 1.52728E-02-1.18259E-03-5.93607E-14
 -1      1659 1.51407E-02-1.14525E-03-5.83449E-14
 -1      1660 1.53277E-02-1.30558E-03-5.91633E-14
 -1      1661 1.53090E-02-1.26418E-03-5.92339E-14
 -1      1662 1.51764E-02-1.22621E-03-5.82214E-14
 -1      1663 1.53210E-02-1.37490E-03-5.86772E-14
 -1      1664 1.53014E-02-1.33304E-03-5.87499E-14
 -1      1665 1.51681E-02-1.29438E-03-5.77407E-14
 -1      1666 1.51157E-02-1.34889E-03-5.69126E-14
 -1      1667 1.14584E-02-2.22565E-04-2.57187E-14
 -1      1668 1.15048E-02-2.70127E-04-2.57674E-14
 -1      1669 1.12507E-02-1.00060E-04-2.54611E-14
 -1      1670 1.13631E-02-1.60056E-04-2.56072E-14
 -1      1671 1.09610E-02 5.33599E-05-2.50022E-14
 -1      1672 1.11022E-02-1.52528E-05-2.52064E-14
 -1      1673 1.06010E-02 2.26195E-04-2.44296E-14
 -1      1674 1.07762E-02 1.42797E-04-2.47131E-14
 -1      1675 1.01706E-02 4.04464E-04-2.37475E-14
 -1      1676 1.03613E-02 3.15840E-04-2.41074E-14
 -1      1677 9.76953E-03 5.70070E-04-2.28686E-14
 -1      1678 9.95886E-03 5.02188E-04-2.32586E-14
 -1      1679 9.35531E-03 6.68512E-04-2.19892E-14
 -1      1680 9.53708E-03 6.34623E-04-2.24015E-14
 -1      1681 8.97534E-03 6.64896E-04-2.11496E-14
 -1      1682 9.14767E-03 6.73927E-04-2.15182E-14
 -1      1683 8.59896E-03 5.91152E-04-2.03572E-14
 -1      1684 8.77433E-03 6.36282E-04-2.07122E-14
 -1      1685 8.22210E-03 4.51498E-04-1.96185E-14
 -1      1686 8.39697E-03 5.21526E-04-1.99367E-14
 -1      1687 7.83940E-03 3.03491E-04-1.90689E-14
 -1      1688 8.00128E-03 3.74947E-04-1.93218E-14
 -1      1689 7.50044E-03 1.37738E-04-1.85557E-14
 -1      1690 7.65819E-03 2.10858E-04-1.87689E-14
 -1      1691 7.21556E-03-4.66158E-07-1.81966E-14
 -1      1692 7.33489E-03 5.89403E-05-1.83407E-14
 -1      1693 7.04301E-03-1.06277E-04-1.80104E-14
 -1      1694 7.10652E-03-5.95420E-05-1.80845E-14
 -1      1695 7.00183E-03-2.00615E-04-1.79644E-14
 -1      1696 7.00447E-03-1.57217E-04-1.79769E-14
 -1      1697 7.10150E-03-3.03138E-04-1.80222E-14
 -1      1698 7.03631E-03-2.52450E-04-1.79608E-14
 -1      1699 7.33041E-03-4.44884E-04-1.83058E-14
 -1      1700 7.21017E-03-3.78869E-04-1.81706E-14
 -1      1701 7.64644E-03-6.07356E-04-1.86925E-14
 -1      1702 7.49253E-03-5.29002E-04-1.84981E-14
 -1      1703 8.08461E-03-8.03886E-04-1.92274E-14
 -1      1704 7.87820E-03-6.99195E-04-1.89287E-14
 -1      1705 8.47682E-03-1.00143E-03-1.99219E-14
 -1      1706 8.29982E-03-9.21262E-04-1.96224E-14
 -1      1707 8.92351E-03-1.15946E-03-2.07068E-14
 -1      1708 8.72306E-03-1.09220E-03-2.03087E-14
 -1      1709 9.32376E-03-1.21272E-03-2.15855E-14
 -1      1710 9.14002E-03-1.19864E-03-2.12012E-14
 -1      1711 9.72484E-03-1.17493E-03-2.24404E-14
 -1      1712 9.53952E-03-1.20537E-03-2.20442E-14
 -1      1713 1.01142E-02-1.05983E-03-2.32250E-14
 -1      1714 9.93955E-03-1.11933E-03-2.28765E-14
 -1      1715 1.05064E-02-8.92216E-04-2.39947E-14
 -1      1716 1.03211E-02-9.74828E-04-2.36467E-14
 -1      1717 1.09049E-02-7.00183E-04-2.47173E-14
 -1      1718 1.07224E-02-7.88476E-04-2.44007E-14
 -1      1719 1.12272E-02-5.38532E-04-2.52572E-14
 -1      1720 1.10926E-02-6.06777E-04-2.50380E-14
 -1      1721 1.14351E-02-4.20520E-04-2.55840E-14
 -1      1722 1.13551E-02-4.72092E-04-2.54500E-14
 -1      1723 1.15166E-02-3.22359E-04-2.57423E-14
 -1      1724 1.14950E-02-3.65422E-04-2.56929E-14
 -1      1725 1.04097E-02 2.31213E-04-2.45047E-14
 -1      1726 1.08189E-02 4.37922E-05-2.51236E-14
 -1      1727 1.47011E-02-2.12293E-04-6.05544E-14
 -1      1728 1.45888E-02-2.13256E-04-5.95223E-14
 -1      1729 1.14106E-02-2.29760E-04-2.60403E-14
 -1      1730 1.11571E-02-1.16878E-04-2.56728E-14
 -1      1731 1.15204E-02-3.01180E-04-2.61227E-14
 -1      1732 1.00011E-02 4.40044E-04-2.36850E-14
 -1      1733 9.60322E-03 6.16521E-04-2.27247E-14
 -1      1734 9.25019E-03 6.97840E-04-2.17829E-14
 -1      1735 8.89723E-03 6.71485E-04-2.08753E-14
 -1      1736 8.54929E-03 5.57780E-04-2.00215E-14
 -1      1737 8.17943E-03 3.89394E-04-1.93121E-14
 -1      1738 7.79608E-03 2.10603E-04-1.87221E-14
 -1      1739 7.44915E-03 4.60380E-05-1.82146E-14
 -1      1740 7.16941E-03-6.99257E-05-1.78924E-14
 -1      1741 7.01643E-03-1.45746E-04-1.77493E-14
 -1      1742 7.01148E-03-2.11336E-04-1.77125E-14
 -1      1743 7.16158E-03-2.94088E-04-1.78549E-14
 -1      1744 7.44102E-03-4.28958E-04-1.81893E-14
 -1      1745 7.82935E-03-6.03420E-04-1.86078E-14
 -1      1746 8.25199E-03-8.26394E-04-1.92237E-14
 -1      1747 8.67540E-03-1.04900E-03-1.99959E-14
 -1      1748 9.05272E-03-1.20085E-03-2.08647E-14
 -1      1749 9.42639E-03-1.23587E-03-2.18145E-14
 -1      1750 9.78714E-03-1.16143E-03-2.27105E-14
 -1      1751 1.01630E-02-1.00492E-03-2.35737E-14
 -1      1752 1.05598E-02-8.01848E-04-2.44112E-14
 -1      1753 1.09554E-02-6.02952E-04-2.51501E-14
 -1      1754 1.12743E-02-4.59776E-04-2.56738E-14
 -1      1755 1.14684E-02-3.68323E-04-2.59824E-14
 -1      1756 2.85001E-04-1.76191E-04-7.58942E-18
 -1      1757 3.32122E-04-1.16800E-04-4.63361E-17
 -1      1758 3.36171E-04-1.32999E-04-4.22026E-17
 -1      1759 3.42065E-04-1.51993E-04-3.73101E-17
 -1      1760 3.51566E-04-1.73987E-04-3.06694E-17
 -1      1761 4.58154E-04-1.88011E-04-6.14201E-17
 -1      1762 3.24691E-04-6.53828E-05-5.58500E-17
 -1      1763 3.25807E-04-7.66794E-05-5.43050E-17
 -1      1764 3.23253E-04-4.38842E-05-5.80184E-17
 -1      1765 3.23882E-04-5.43750E-05-5.72188E-17
 -1      1766 4.36700E-04-7.92522E-05-8.40121E-17
 -1      1767 3.22500E-04-2.37656E-05-5.88586E-17
 -1      1768 3.22819E-04-3.36785E-05-5.84927E-17
 -1      1769 4.34766E-04-5.12852E-05-8.64651E-17
 -1      1770 3.22219E-04-4.33415E-06-5.92381E-17
 -1      1771 3.22312E-04-1.39845E-05-5.91432E-17
 -1      1772 4.33780E-04-2.49042E-05-8.75493E-17
 -1      1773 3.22336E-04 1.49797E-05-5.88180E-17
 -1      1774 3.22227E-04 5.31940E-06-5.91839E-17
 -1      1775 4.33493E-04 7.59734E-07-8.77797E-17
 -1      1776 3.22879E-04 3.47262E-05-5.74627E-17
 -1      1777 3.22542E-04 2.47813E-05-5.81810E-17
 -1      1778 4.33836E-04 2.64521E-05-8.67362E-17
 -1      1779 3.23968E-04 5.51642E-05-5.51181E-17
 -1      1780 3.23327E-04 4.48010E-05-5.64598E-17
 -1      1781 4.34877E-04 5.26934E-05-8.43509E-17
 -1      1782 3.25963E-04 7.78185E-05-5.18113E-17
 -1      1783 3.24798E-04 6.62360E-05-5.36545E-17
 -1      1784 4.36871E-04 8.05638E-05-8.10441E-17
 -1      1785 3.29569E-04 1.03658E-04-4.68646E-17
 -1      1786 3.27465E-04 9.03078E-05-4.96836E-17
 -1      1787 4.40431E-04 1.11528E-04-7.60432E-17
 -1      1788 3.36498E-04 1.35109E-04-3.88686E-17
 -1      1789 3.32371E-04 1.18616E-04-4.33952E-17
 -1      1790 4.46782E-04 1.47291E-04-6.82912E-17
 -1      1791 3.52100E-04 1.77576E-04-2.64003E-17
 -1      1792 3.42669E-04 1.54748E-04-3.33663E-17
 -1      1793 4.59167E-04 1.91395E-04-5.62023E-17
 -1      1794 4.07380E-04 2.33608E-04-1.74828E-17
 -1      1795 3.77835E-04 2.02613E-04-2.32426E-17
 -1      1796 4.95560E-04 2.43895E-04-4.50757E-17
 -1      1797 5.58106E-04 3.02347E-04-3.55618E-17
 -1      1798 3.39770E-04-1.90869E-04-1.89871E-17
 -1      1799 8.52887E-04 4.06715E-04-1.03541E-16
 -1      1800 7.06603E-04 3.59112E-04-6.44558E-17
 -1      1801 6.72932E-04 3.28579E-04-7.04325E-17
 -1      1802 4.58651E-04-2.36638E-04-3.90313E-17
 -1      1803 8.06657E-04-3.73774E-04-1.16118E-16
 -1      1804 9.51820E-04-4.14793E-04-1.67699E-16
 -1      1805 1.09456E-03-4.49274E-04-2.30122E-16
 -1      1806 1.23613E-03-4.77921E-04-3.03604E-16
 -1      1807 1.00337E-03-3.97337E-04-2.13927E-16
 -1      1808 1.37645E-03-5.02107E-04-3.87995E-16
 -1      1809 1.51606E-03-5.22128E-04-4.83961E-16
 -1      1810 1.28892E-03-4.54801E-04-3.64170E-16
 -1      1811 1.65515E-03-5.38893E-04-5.91663E-16
 -1      1812 1.79394E-03-5.52634E-04-7.10423E-16
 -1      1813 1.57123E-03-4.95040E-04-5.58852E-16
 -1      1814 1.93263E-03-5.63950E-04-8.40894E-16
 -1      1815 2.07128E-03-5.73036E-04-9.83290E-16
 -1      1816 1.85181E-03-5.22612E-04-7.98921E-16
 -1      1817 2.21005E-03-5.80299E-04-1.13778E-15
 -1      1818 2.34896E-03-5.85902E-04-1.30404E-15
 -1      1819 2.13175E-03-5.40785E-04-1.08569E-15
 -1      1820 2.48812E-03-5.90124E-04-1.48267E-15
 -1      1821 2.62751E-03-5.93101E-04-1.67353E-15
 -1      1822 2.41180E-03-5.51933E-04-1.41960E-15
 -1      1823 2.76722E-03-5.95024E-04-1.87678E-15
 -1      1824 2.90724E-03-5.96000E-04-2.09194E-15
 -1      1825 2.69242E-03-5.57792E-04-1.80245E-15
 -1      1826 3.04762E-03-5.96161E-04-2.31939E-15
 -1      1827 3.18835E-03-5.95588E-04-2.55850E-15
 -1      1828 2.97391E-03-5.59629E-04-2.23396E-15
 -1      1829 3.32948E-03-5.94368E-04-2.80914E-15
 -1      1830 3.47101E-03-5.92567E-04-3.07195E-15
 -1      1831 3.25647E-03-5.58354E-04-2.71267E-15
 -1      1832 3.61296E-03-5.90236E-04-3.34632E-15
 -1      1833 3.75536E-03-5.87430E-04-3.63240E-15
 -1      1834 3.54028E-03-5.54607E-04-3.23882E-15
 -1      1835 3.89824E-03-5.84178E-04-3.92981E-15
 -1      1836 4.04164E-03-5.80532E-04-4.23840E-15
 -1      1837 3.82551E-03-5.48834E-04-3.81097E-15
 -1      1838 4.18558E-03-5.76509E-04-4.55704E-15
 -1      1839 4.33013E-03-5.72162E-04-4.88676E-15
 -1      1840 4.11236E-03-5.41358E-04-4.42780E-15
 -1      1841 4.47531E-03-5.67510E-04-5.22763E-15
 -1      1842 4.62122E-03-5.62619E-04-5.57768E-15
 -1      1843 4.40110E-03-5.32451E-04-5.08828E-15
 -1      1844 4.76789E-03-5.57522E-04-5.93938E-15
 -1      1845 4.91546E-03-5.52310E-04-6.31044E-15
 -1      1846 4.69208E-03-5.22415E-04-5.79089E-15
 -1      1847 5.06393E-03-5.47050E-04-6.69115E-15
 -1      1848 5.21349E-03-5.41871E-04-7.08312E-15
 -1      1849 4.98572E-03-5.11681E-04-6.53419E-15
 -1      1850 5.36414E-03-5.36905E-04-7.48624E-15
 -1      1851 5.51613E-03-5.32338E-04-7.90011E-15
 -1      1852 5.28258E-03-5.00943E-04-7.31930E-15
 -1      1853 5.66941E-03-5.28402E-04-8.32564E-15
 -1      1854 5.82428E-03-5.25366E-04-8.76400E-15
 -1      1855 5.58330E-03-4.91330E-04-8.15046E-15
 -1      1856 5.98070E-03-5.23614E-04-9.21491E-15
 -1      1857 6.13897E-03-5.23530E-04-9.67733E-15
 -1      1858 5.88865E-03-4.84640E-04-9.02902E-15
 -1      1859 6.29905E-03-5.25705E-04-1.01553E-14
 -1      1860 6.46118E-03-5.30678E-04-1.06462E-14
 -1      1861 6.19951E-03-4.83645E-04-9.96002E-15
 -1      1862 6.62542E-03-5.39288E-04-1.11494E-14
 -1      1863 6.79180E-03-5.52269E-04-1.16659E-14
 -1      1864 6.51694E-03-4.92441E-04-1.09430E-14
 -1      1865 6.96056E-03-5.70687E-04-1.21948E-14
 -1      1866 7.13135E-03-5.95476E-04-1.27365E-14
 -1      1867 6.84216E-03-5.16778E-04-1.19786E-14
 -1      1868 7.30470E-03-6.27758E-04-1.32925E-14
 -1      1869 7.47963E-03-6.68542E-04-1.38606E-14
 -1      1870 7.17653E-03-5.64122E-04-1.30650E-14
 -1      1871 7.65704E-03-7.18586E-04-1.44410E-14
 -1      1872 7.83507E-03-7.78533E-04-1.50341E-14
 -1      1873 7.52128E-03-6.42968E-04-1.42040E-14
 -1      1874 8.01488E-03-8.48041E-04-1.56417E-14
 -1      1875 8.19373E-03-9.26431E-04-1.62618E-14
 -1      1876 7.87645E-03-7.60444E-04-1.53943E-14
 -1      1877 8.37255E-03-1.01139E-03-1.68981E-14
 -1      1878 8.54860E-03-1.09968E-03-1.75515E-14
 -1      1879 8.23891E-03-9.16867E-04-1.66394E-14
 -1      1880 8.72189E-03-1.18675E-03-1.82194E-14
 -1      1881 8.89145E-03-1.26636E-03-1.89067E-14
 -1      1882 8.60058E-03-1.09703E-03-1.79464E-14
 -1      1883 9.05611E-03-1.33293E-03-1.96114E-14
 -1      1884 9.21884E-03-1.38043E-03-2.03321E-14
 -1      1885 8.95084E-03-1.26287E-03-1.93221E-14
 -1      1886 9.37762E-03-1.40530E-03-2.10721E-14
 -1      1887 9.53835E-03-1.40571E-03-2.18288E-14
 -1      1888 9.28595E-03-1.36264E-03-2.07677E-14
 -1      1889 9.69888E-03-1.38275E-03-2.26029E-14
 -1      1890 9.86425E-03-1.34050E-03-2.33914E-14
 -1      1891 9.61638E-03-1.36207E-03-2.22837E-14
 -1      1892 1.00327E-02-1.28380E-03-2.41966E-14
 -1      1893 1.02054E-02-1.21950E-03-2.50195E-14
 -1      1894 9.95760E-03-1.27115E-03-2.38646E-14
 -1      1895 1.03816E-02-1.15300E-03-2.58592E-14
 -1      1896 1.05594E-02-1.08924E-03-2.67175E-14
 -1      1897 1.03139E-02-1.13683E-03-2.55139E-14
 -1      1898 1.07391E-02-1.03193E-03-2.75905E-14
 -1      1899 1.09179E-02-9.82980E-04-2.84772E-14
 -1      1900 1.06772E-02-1.00767E-03-2.72282E-14
 -1      1901 1.10968E-02-9.43777E-04-2.93810E-14
 -1      1902 1.12736E-02-9.14281E-04-3.02972E-14
 -1      1903 1.10370E-02-9.11309E-04-2.90080E-14
 -1      1904 1.14493E-02-8.94244E-04-3.12232E-14
 -1      1905 1.16224E-02-8.82772E-04-3.21608E-14
 -1      1906 1.13876E-02-8.55028E-04-3.08403E-14
 -1      1907 1.17936E-02-8.78873E-04-3.31096E-14
 -1      1908 1.19623E-02-8.81539E-04-3.40688E-14
 -1      1909 1.17275E-02-8.34645E-04-3.27191E-14
 -1      1910 1.21289E-02-8.89631E-04-3.50401E-14
 -1      1911 1.22932E-02-9.02293E-04-3.60246E-14
 -1      1912 1.20575E-02-8.41943E-04-3.46407E-14
 -1      1913 1.24554E-02-9.18539E-04-3.70239E-14
 -1      1914 1.26156E-02-9.37718E-04-3.80366E-14
 -1      1915 1.23789E-02-8.68669E-04-3.66122E-14
 -1      1916 1.27738E-02-9.59090E-04-3.90644E-14
 -1      1917 1.29304E-02-9.82181E-04-4.01082E-14
 -1      1918 1.26931E-02-9.08024E-04-3.86418E-14
 -1      1919 1.30851E-02-1.00648E-03-4.11666E-14
 -1      1920 1.32384E-02-1.03165E-03-4.22393E-14
 -1      1921 1.30011E-02-9.54936E-04-4.07291E-14
 -1      1922 1.33903E-02-1.05736E-03-4.33234E-14
 -1      1923 1.35410E-02-1.08337E-03-4.44189E-14
 -1      1924 1.33040E-02-1.00583E-03-4.28696E-14
 -1      1925 1.36904E-02-1.10947E-03-4.55305E-14
 -1      1926 1.38389E-02-1.13548E-03-4.66490E-14
 -1      1927 1.36026E-02-1.05828E-03-4.50612E-14
 -1      1928 1.39864E-02-1.16129E-03-4.77789E-14
 -1      1929 1.41331E-02-1.18675E-03-4.89221E-14
 -1      1930 1.38978E-02-1.11066E-03-4.72984E-14
 -1      1931 1.42790E-02-1.21181E-03-5.00738E-14
 -1      1932 1.44243E-02-1.23635E-03-5.12354E-14
 -1      1933 1.41901E-02-1.16189E-03-4.95753E-14
 -1      1934 1.45691E-02-1.26034E-03-5.24084E-14
 -1      1935 1.47134E-02-1.28370E-03-5.35883E-14
 -1      1936 1.44801E-02-1.21122E-03-5.18983E-14
 -1      1937 1.48430E-02-1.30578E-03-5.46467E-14
 -1      1938 1.49866E-02-1.32791E-03-5.58408E-14
 -1      1939 1.50127E-02-1.30072E-03-5.62533E-14
 -1      1940 1.47541E-02-1.25746E-03-5.41270E-14
 -1      1941 1.13770E-03 4.79294E-04-2.13900E-16
 -1      1942 9.96051E-04 4.46255E-04-1.53157E-16
 -1      1943 9.63799E-04 4.16843E-04-1.60015E-16
 -1      1944 1.41660E-03 5.30212E-04-3.68154E-16
 -1      1945 1.27755E-03 5.07070E-04-2.85389E-16
 -1      1946 1.24809E-03 4.78985E-04-2.92233E-16
 -1      1947 1.69280E-03 5.65720E-04-5.68759E-16
 -1      1948 1.55485E-03 5.49650E-04-4.62737E-16
 -1      1949 1.52820E-03 5.22542E-04-4.69527E-16
 -1      1950 1.96825E-03 5.89941E-04-8.15889E-16
 -1      1951 1.83052E-03 5.79075E-04-6.86341E-16
 -1      1952 1.80633E-03 5.52617E-04-6.92412E-16
 -1      1953 2.24407E-03 6.05764E-04-1.10902E-15
 -1      1954 2.10606E-03 5.98781E-04-9.56944E-16
 -1      1955 2.08392E-03 5.72741E-04-9.61755E-16
 -1      1956 2.52090E-03 6.15290E-04-1.44718E-15
 -1      1957 2.38234E-03 6.11224E-04-1.27241E-15
 -1      1958 2.36185E-03 5.85446E-04-1.27644E-15
 -1      1959 2.79906E-03 6.20067E-04-1.82973E-15
 -1      1960 2.65980E-03 6.18205E-04-1.63271E-15
 -1      1961 2.64062E-03 5.92579E-04-1.63557E-15
 -1      1962 3.07877E-03 6.21230E-04-2.25781E-15
 -1      1963 2.93872E-03 6.21050E-04-2.03816E-15
 -1      1964 2.92055E-03 5.95503E-04-2.03998E-15
 -1      1965 3.36015E-03 6.19614E-04-2.73064E-15
 -1      1966 3.21925E-03 6.20731E-04-2.48860E-15
 -1      1967 3.20182E-03 5.95210E-04-2.48934E-15
 -1      1968 3.64332E-03 6.15830E-04-3.25091E-15
 -1      1969 3.50151E-03 6.17962E-04-2.98515E-15
 -1      1970 3.48458E-03 5.92427E-04-2.98417E-15
 -1      1971 3.92843E-03 6.10348E-04-3.81940E-15
 -1      1972 3.78563E-03 6.13275E-04-3.52845E-15
 -1      1973 3.76897E-03 5.87688E-04-3.52627E-15
 -1      1974 4.21570E-03 6.03569E-04-4.44074E-15
 -1      1975 4.07178E-03 6.07093E-04-4.12356E-15
 -1      1976 4.05517E-03 5.81417E-04-4.11883E-15
 -1      1977 4.50540E-03 5.95902E-04-5.11468E-15
 -1      1978 4.36022E-03 5.99814E-04-4.77132E-15
 -1      1979 4.34341E-03 5.74002E-04-4.76451E-15
 -1      1980 4.79789E-03 5.87854E-04-5.84094E-15
 -1      1981 4.65126E-03 5.91883E-04-5.47141E-15
 -1      1982 4.63398E-03 5.65874E-04-5.46121E-15
 -1      1983 5.09359E-03 5.80125E-04-6.61443E-15
 -1      1984 4.94530E-03 5.83892E-04-6.22215E-15
 -1      1985 4.92723E-03 5.57604E-04-6.20988E-15
 -1      1986 5.39298E-03 5.73712E-04-7.43736E-15
 -1      1987 5.24278E-03 5.76676E-04-7.01980E-15
 -1      1988 5.22357E-03 5.49999E-04-7.00506E-15
 -1      1989 5.69648E-03 5.70023E-04-8.30995E-15
 -1      1990 5.54418E-03 5.71425E-04-7.86709E-15
 -1      1991 5.52343E-03 5.44218E-04-7.85027E-15
 -1      1992 6.00443E-03 5.70965E-04-9.23102E-15
 -1      1993 5.84987E-03 5.69788E-04-8.76441E-15
 -1      1994 5.82721E-03 5.41876E-04-8.74553E-15
 -1      1995 6.31690E-03 5.78974E-04-1.02058E-14
 -1      1996 6.16010E-03 5.73940E-04-9.71241E-15
 -1      1997 6.13520E-03 5.45122E-04-9.69225E-15
 -1      1998 6.63357E-03 5.96899E-04-1.12284E-14
 -1      1999 6.47476E-03 5.86550E-04-1.07103E-14
 -1      2000 6.44747E-03 5.56622E-04-1.06878E-14
 -1      2001 6.95350E-03 6.27633E-04-1.23062E-14
 -1      2002 6.79325E-03 6.10556E-04-1.17606E-14
 -1      2003 6.76370E-03 5.79363E-04-1.17347E-14
 -1      2004 7.27497E-03 6.73321E-04-1.34388E-14
 -1      2005 7.11425E-03 6.48600E-04-1.28651E-14
 -1      2006 7.08303E-03 6.16130E-04-1.28347E-14
 -1      2007 7.59542E-03 7.34072E-04-1.46266E-14
 -1      2008 7.43562E-03 7.01994E-04-1.40254E-14
 -1      2009 7.40384E-03 6.68513E-04-1.39911E-14
 -1      2010 7.91162E-03 8.06306E-04-1.58805E-14
 -1      2011 7.75438E-03 7.69206E-04-1.52456E-14
 -1      2012 7.72367E-03 7.35391E-04-1.52073E-14
 -1      2013 8.22034E-03 8.81363E-04-1.72009E-14
 -1      2014 8.06718E-03 8.44228E-04-1.65317E-14
 -1      2015 8.03938E-03 8.11196E-04-1.64887E-14
 -1      2016 8.51954E-03 9.45542E-04-1.85985E-14
 -1      2017 8.37119E-03 9.15727E-04-1.78906E-14
 -1      2018 8.34795E-03 8.84811E-04-1.78409E-14
 -1      2019 8.80970E-03 9.82826E-04-2.00675E-14
 -1      2020 8.66552E-03 9.68344E-04-1.93235E-14
 -1      2021 8.64781E-03 9.40576E-04-1.92681E-14
 -1      2022 9.09450E-03 9.80182E-04-2.16127E-14
 -1      2023 8.95227E-03 9.86841E-04-2.08306E-14
 -1      2024 8.94034E-03 9.62389E-04-2.07694E-14
 -1      2025 9.37970E-03 9.33073E-04-2.32302E-14
 -1      2026 9.23646E-03 9.61915E-04-2.24116E-14
 -1      2027 9.23001E-03 9.39944E-04-2.23444E-14
 -1      2028 9.67093E-03 8.47445E-04-2.49175E-14
 -1      2029 9.52412E-03 8.94289E-04-2.40652E-14
 -1      2030 9.52264E-03 8.73391E-04-2.39917E-14
 -1      2031 9.97142E-03 7.37109E-04-2.66771E-14
 -1      2032 9.81987E-03 7.94403E-04-2.57880E-14
 -1      2033 9.82267E-03 7.73276E-04-2.57101E-14
 -1      2034 1.02812E-02 6.18031E-04-2.85126E-14
 -1      2035 1.01253E-02 6.77853E-04-2.75864E-14
 -1      2036 1.01314E-02 6.55757E-04-2.75028E-14
 -1      2037 1.05980E-02 5.03290E-04-3.04202E-14
 -1      2038 1.04390E-02 5.59624E-04-2.94572E-14
 -1      2039 1.04471E-02 5.36388E-04-2.93695E-14
 -1      2040 1.09186E-02 4.00764E-04-3.24000E-14
 -1      2041 1.07581E-02 4.50312E-04-3.14013E-14
 -1      2042 1.07668E-02 4.26109E-04-3.13066E-14
 -1      2043 1.12397E-02 3.13398E-04-3.44461E-14
 -1      2044 1.10793E-02 3.55215E-04-3.34162E-14
 -1      2045 1.10874E-02 3.30336E-04-3.33131E-14
 -1      2046 1.15589E-02 2.40669E-04-3.65455E-14
 -1      2047 1.13997E-02 2.75346E-04-3.54888E-14
 -1      2048 1.14064E-02 2.50078E-04-3.53788E-14
 -1      2049 1.18746E-02 1.80214E-04-3.86944E-14
 -1      2050 1.17173E-02 2.09087E-04-3.76143E-14
 -1      2051 1.17222E-02 1.83664E-04-3.74958E-14
 -1      2052 1.21860E-02 1.29050E-04-4.08907E-14
 -1      2053 1.20309E-02 1.53644E-04-3.97869E-14
 -1      2054 1.20340E-02 1.28239E-04-3.96615E-14
 -1      2055 1.24928E-02 8.42850E-05-4.31209E-14
 -1      2056 1.23400E-02 1.06013E-04-4.20021E-14
 -1      2057 1.23415E-02 8.07474E-05-4.18683E-14
 -1      2058 1.27952E-02 4.34529E-05-4.53849E-14
 -1      2059 1.26446E-02 6.34921E-05-4.42496E-14
 -1      2060 1.26447E-02 3.84429E-05-4.41079E-14
 -1      2061 1.30936E-02 4.59050E-06-4.76682E-14
 -1      2062 1.29449E-02 2.38617E-05-4.65237E-14
 -1      2063 1.29441E-02-9.25530E-07-4.63769E-14
 -1      2064 1.33884E-02-3.38010E-05-4.99646E-14
 -1      2065 1.32414E-02-1.46009E-05-4.88160E-14
 -1      2066 1.32400E-02-3.91034E-05-4.86620E-14
 -1      2067 1.36803E-02-7.28432E-05-5.22719E-14
 -1      2068 1.35347E-02-5.31950E-05-5.11169E-14
 -1      2069 1.35329E-02-7.74045E-05-5.09586E-14
 -1      2070 1.39699E-02-1.13360E-04-5.45842E-14
 -1      2071 1.38254E-02-9.28859E-05-5.34275E-14
 -1      2072 1.38235E-02-1.16803E-04-5.32619E-14
 -1      2073 1.42577E-02-1.55904E-04-5.68936E-14
 -1      2074 1.41140E-02-1.34364E-04-5.57402E-14
 -1      2075 1.41121E-02-1.57998E-04-5.55722E-14
 -1      2076 1.44950E-02-1.95542E-04-5.87868E-14
 -1      2077 1.43517E-02-1.73076E-04-5.76322E-14
 -1      2078 1.43499E-02-1.96493E-04-5.74639E-14
 -1      2079 1.45378E-02-2.31352E-04-5.89382E-14
 -1      2080 1.46440E-02-4.54711E-04-5.83372E-14
 -1      2081 1.46185E-02-4.14541E-04-5.83982E-14
 -1      2082 1.45932E-02-3.73969E-04-5.84584E-14
 -1      2083 1.45682E-02-3.33047E-04-5.85219E-14
 -1      2084 1.44824E-02-3.74991E-04-5.74381E-14
 -1      2085 1.45647E-02-3.03151E-04-5.86978E-14
 -1      2086 1.45406E-02-2.61649E-04-5.87599E-14
 -1      2087 1.44467E-02-2.44167E-04-5.80239E-14
 -1      2088 1.44533E-02-3.04397E-04-5.76716E-14
 -1      2089 1.46942E-02-5.32568E-04-5.82126E-14
 -1      2090 1.46692E-02-4.93826E-04-5.82726E-14
 -1      2091 1.45333E-02-4.54694E-04-5.73182E-14
 -1      2092 1.47444E-02-6.10315E-04-5.80880E-14
 -1      2093 1.47195E-02-5.71605E-04-5.81499E-14
 -1      2094 1.45841E-02-5.32901E-04-5.71911E-14
 -1      2095 1.47926E-02-6.86869E-04-5.79671E-14
 -1      2096 1.47688E-02-6.48706E-04-5.80280E-14
 -1      2097 1.46342E-02-6.10409E-04-5.70654E-14
 -1      2098 1.48382E-02-7.62655E-04-5.78519E-14
 -1      2099 1.48158E-02-7.24811E-04-5.79097E-14
 -1      2100 1.46820E-02-6.86849E-04-5.69421E-14
 -1      2101 1.48806E-02-8.38207E-04-5.77336E-14
 -1      2102 1.48598E-02-8.00408E-04-5.77911E-14
 -1      2103 1.47268E-02-7.62659E-04-5.68207E-14
 -1      2104 1.49200E-02-9.14101E-04-5.76187E-14
 -1      2105 1.49006E-02-8.76061E-04-5.76774E-14
 -1      2106 1.47684E-02-8.38361E-04-5.67007E-14
 -1      2107 1.49562E-02-9.89566E-04-5.75095E-14
 -1      2108 1.49384E-02-9.51688E-04-5.75622E-14
 -1      2109 1.48066E-02-9.13857E-04-5.65837E-14
 -1      2110 1.49915E-02-1.06763E-03-5.74003E-14
 -1      2111 1.49740E-02-1.02841E-03-5.74554E-14
 -1      2112 1.48424E-02-9.90286E-04-5.64675E-14
 -1      2113 1.50263E-02-1.14727E-03-5.72791E-14
 -1      2114 1.50088E-02-1.10725E-03-5.73403E-14
 -1      2115 1.48771E-02-1.06871E-03-5.63442E-14
 -1      2116 1.50619E-02-1.22855E-03-5.71448E-14
 -1      2117 1.50439E-02-1.18772E-03-5.72148E-14
 -1      2118 1.49116E-02-1.14873E-03-5.62133E-14
 -1      2119 1.10504E-02-1.22018E-04-2.59066E-14
 -1      2120 1.12026E-02-1.83835E-04-2.61651E-14
 -1      2121 1.15180E-02-3.01570E-04-2.65954E-14
 -1      2122 1.15296E-02-3.16628E-04-2.65646E-14
 -1      2123 1.13588E-02-2.47055E-04-2.64893E-14
 -1      2124 1.14557E-02-2.75529E-04-2.65993E-14
 -1      2125 1.06854E-02 3.58413E-05-2.53856E-14
 -1      2126 1.08622E-02-4.79906E-05-2.56812E-14
 -1      2127 1.02883E-02 2.35391E-04-2.47181E-14
 -1      2128 1.04886E-02 1.32648E-04-2.50490E-14
 -1      2129 1.05740E-02 5.56941E-05-2.56009E-14
 -1      2130 3.27269E-04-8.89857E-05-5.23534E-17
 -1      2131 3.29334E-04-1.02164E-04-4.96565E-17
 -1      2132 4.46336E-04-1.45089E-04-7.23976E-17
 -1      2133 4.40149E-04-1.09918E-04-7.94720E-17
 -1      2134 9.50688E-03 6.52067E-04-2.26533E-14
 -1      2135 9.67379E-03 5.78700E-04-2.31259E-14
 -1      2136 9.14626E-03 7.18157E-04-2.15027E-14
 -1      2137 9.29371E-03 7.08457E-04-2.19740E-14
 -1      2138 8.84924E-03 6.67877E-04-2.06248E-14
 -1      2139 8.99600E-03 7.05023E-04-2.10609E-14
 -1      2140 9.06719E-03 7.22473E-04-2.12444E-14
 -1      2141 8.50872E-03 5.23654E-04-1.97205E-14
 -1      2142 8.67019E-03 6.02715E-04-2.01360E-14
 -1      2143 8.09891E-03 3.17298E-04-1.89604E-14
 -1      2144 8.27890E-03 4.07783E-04-1.92494E-14
 -1      2145 7.74868E-03 1.38911E-04-1.83686E-14
 -1      2146 7.92176E-03 2.28213E-04-1.86622E-14
 -1      2147 8.01842E-03 2.55309E-04-1.85992E-14
 -1      2148 7.39013E-03-1.91978E-05-1.78438E-14
 -1      2149 7.55224E-03 4.63426E-05-1.80531E-14
 -1      2150 7.11842E-03-1.14609E-04-1.75417E-14
 -1      2151 7.22826E-03-7.97012E-05-1.76514E-14
 -1      2152 6.99415E-03-1.64542E-04-1.74630E-14
 -1      2153 7.03373E-03-1.45437E-04-1.74950E-14
 -1      2154 7.02571E-03-2.04206E-04-1.74235E-14
 -1      2155 6.99056E-03-1.86672E-04-1.74276E-14
 -1      2156 7.23710E-03-2.82900E-04-1.76262E-14
 -1      2157 7.12218E-03-2.40384E-04-1.74815E-14
 -1      2158 7.54841E-03-4.21266E-04-1.80389E-14
 -1      2159 7.38636E-03-3.51665E-04-1.78542E-14
 -1      2160 7.94741E-03-6.06761E-04-1.84741E-14
 -1      2161 7.73965E-03-5.08034E-04-1.82494E-14
 -1      2162 8.41555E-03-8.76553E-04-1.92389E-14
 -1      2163 8.22399E-03-7.54869E-04-1.88559E-14
 -1      2164 8.79178E-03-1.08913E-03-1.99865E-14
 -1      2165 8.60992E-03-9.87029E-04-1.96113E-14
 -1      2166 8.53882E-03-9.26206E-04-1.92330E-14
 -1      2167 9.18420E-03-1.24450E-03-2.11071E-14
 -1      2168 9.02622E-03-1.19657E-03-2.06192E-14
 -1      2169 9.48899E-03-1.25062E-03-2.20135E-14
 -1      2170 9.33883E-03-1.26130E-03-2.15564E-14
 -1      2171 9.27424E-03-1.26650E-03-2.13035E-14
 -1      2172 9.84170E-03-1.13699E-03-2.30428E-14
 -1      2173 9.68679E-03-1.20231E-03-2.26029E-14
 -1      2174 1.01772E-02-9.63282E-04-2.38996E-14
 -1      2175 1.00072E-02-1.05865E-03-2.34709E-14
 -1      2176 9.90252E-03-1.10601E-03-2.33620E-14
 -1      2177 1.06143E-02-7.26337E-04-2.48434E-14
 -1      2178 1.04188E-02-8.34229E-04-2.44264E-14
 -1      2179 1.10149E-02-5.24994E-04-2.56854E-14
 -1      2180 1.08342E-02-6.08368E-04-2.53535E-14
 -1      2181 1.13297E-02-4.03731E-04-2.61813E-14
 -1      2182 1.12018E-02-4.49302E-04-2.59809E-14
 -1      2183 1.14990E-02-3.41048E-04-2.64557E-14
 -1      2184 1.14361E-02-3.64256E-04-2.63404E-14
 -1      2185 9.85001E-03 4.90525E-04-2.36132E-14
 -1      2186 1.00273E-02 3.83368E-04-2.41069E-14
 -1      2187 9.74156E-03 5.33510E-04-2.35387E-14
 -1      2188 6.07475E-04-2.97962E-04-6.74374E-17
 -1      2189 1.01444E-02 2.98129E-04-2.46416E-14
 -1      2190 6.63261E-04-2.92219E-04-9.65482E-17
 -1      2191 1.12832E-02-2.37816E-04-2.67234E-14
 -1      2192 1.14973E-02-2.99747E-04-2.70450E-14
 -1      2193 1.50350E-02-1.25528E-03-5.67358E-14
 -1      2194 1.09394E-02-1.10192E-04-2.61698E-14
 -1      2195 1.15242E-02-3.27544E-04-2.69271E-14
 -1      2196 1.13889E-02-3.72485E-04-2.66526E-14
 -1      2197 1.11069E-02-4.72106E-04-2.61889E-14
 -1      2198 1.02716E-02-8.99272E-04-2.43226E-14
 -1      2199 9.58361E-03-1.23997E-03-2.23403E-14
 -1      2200 8.93097E-03-1.15582E-03-2.02245E-14
 -1      2201 8.84126E-03-1.10442E-03-1.98349E-14
 -1      2202 9.04205E-03-1.20755E-03-2.04605E-14
 -1      2203 8.10441E-03-6.65541E-04-1.84912E-14
 -1      2204 7.98696E-03-5.84785E-04-1.81312E-14
 -1      2205 8.23525E-03-7.29096E-04-1.85028E-14
 -1      2206 7.65378E-03-4.35980E-04-1.79082E-14
 -1      2207 7.31770E-03-2.91287E-04-1.74765E-14
 -1      2208 7.06696E-03-2.08510E-04-1.71964E-14
 -1      2209 6.98375E-03-1.72581E-04-1.71743E-14
 -1      2210 7.06783E-03-1.37543E-04-1.72552E-14
 -1      2211 7.65657E-03 7.69707E-05-1.79914E-14
 -1      2212 8.77501E-03 6.44929E-04-2.03150E-14
 -1      2213 9.39046E-03 6.91592E-04-2.23638E-14
 -1      2214 9.47545E-03 6.60955E-04-2.27569E-14
 -1      2215 9.29481E-03 7.17387E-04-2.20746E-14
 -1      2216 8.40596E-03 4.64119E-04-1.93603E-14
 -1      2217 8.50595E-03 5.17440E-04-1.94700E-14
 -1      2218 8.30451E-03 4.03807E-04-1.90045E-14
 -1      2219 7.30661E-03-6.37600E-05-1.74907E-14
 -1      2220 1.07149E-02-6.53153E-04-2.53704E-14
 -1      2221 1.01604E-03 3.99209E-04-2.06473E-16
 -1      2222 8.71648E-04 3.63013E-04-1.49105E-16
 -1      2223 5.48111E-04-5.52435E-05-1.24006E-16
 -1      2224 5.49121E-04-7.19483E-05-1.23003E-16
 -1      2225 5.50504E-04-8.92626E-05-1.21444E-16
 -1      2226 5.52325E-04-1.07233E-04-1.18991E-16
 -1      2227 6.65624E-04-9.53626E-05-1.66601E-16
 -1      2228 5.46766E-04 8.85070E-06-1.25009E-16
 -1      2229 5.46747E-04-6.96994E-06-1.25388E-16
 -1      2230 5.47501E-04 4.08296E-05-1.23125E-16
 -1      2231 5.47014E-04 2.47707E-05-1.24277E-16
 -1      2232 6.61764E-04 1.99041E-05-1.69651E-16
 -1      2233 5.49281E-04 7.34253E-05-1.19981E-16
 -1      2234 5.48244E-04 5.69451E-05-1.21851E-16
 -1      2235 6.63060E-04 5.77052E-05-1.67076E-16
 -1      2236 5.52595E-04 1.08879E-04-1.14885E-16
 -1      2237 5.50714E-04 9.08126E-05-1.17677E-16
 -1      2238 6.65860E-04 9.71283E-05-1.62373E-16
 -1      2239 5.58361E-04 1.48199E-04-1.07485E-16
 -1      2240 5.55104E-04 1.27981E-04-1.11564E-16
 -1      2241 6.70849E-04 1.39864E-04-1.55285E-16
 -1      2242 5.68536E-04 1.93782E-04-9.61958E-17
 -1      2243 5.62779E-04 1.70073E-04-1.02430E-16
 -1      2244 6.79353E-04 1.87381E-04-1.44904E-16
 -1      2245 1.30137E-03 4.55644E-04-3.53396E-16
 -1      2246 1.15911E-03 4.29979E-04-2.74371E-16
 -1      2247 1.07136E-03 3.80645E-04-2.55303E-16
 -1      2248 9.14814E-04-3.45924E-04-1.96634E-16
 -1      2249 1.05886E-03-3.79037E-04-2.62621E-16
 -1      2250 1.00182E-02 3.61924E-04-2.46333E-14
 -1      2251 1.02453E-02 2.22331E-04-2.52534E-14
 -1      2252 1.11915E-02-2.22250E-04-2.69519E-14
 -1      2253 1.13439E-02-2.68024E-04-2.72793E-14
 -1      2254 1.20207E-03-4.07169E-04-3.39355E-16
 -1      2255 1.34484E-03-4.30746E-04-4.26891E-16
 -1      2256 1.11670E-03-3.59753E-04-3.13484E-16
 -1      2257 1.48699E-03-4.50612E-04-5.25418E-16
 -1      2258 1.62875E-03-4.67034E-04-6.35641E-16
 -1      2259 1.40299E-03-4.05928E-04-4.91713E-16
 -1      2260 1.77017E-03-4.80677E-04-7.56502E-16
 -1      2261 1.91136E-03-4.91749E-04-8.89059E-16
 -1      2262 1.68812E-03-4.38338E-04-7.13446E-16
 -1      2263 2.05243E-03-5.00733E-04-1.03324E-15
 -1      2264 2.19341E-03-5.07797E-04-1.18911E-15
 -1      2265 1.97237E-03-4.60256E-04-9.80702E-16
 -1      2266 2.33440E-03-5.13286E-04-1.35687E-15
 -1      2267 2.47543E-03-5.17338E-04-1.53663E-15
 -1      2268 2.25613E-03-4.74249E-04-1.29400E-15
 -1      2269 2.61656E-03-5.20195E-04-1.72837E-15
 -1      2270 2.75779E-03-5.21967E-04-1.93222E-15
 -1      2271 2.53979E-03-4.82264E-04-1.65428E-15
 -1      2272 2.89920E-03-5.22823E-04-2.14824E-15
 -1      2273 3.04076E-03-5.22847E-04-2.37649E-15
 -1      2274 2.82362E-03-4.85750E-04-2.06287E-15
 -1      2275 3.18254E-03-5.22155E-04-2.61633E-15
 -1      2276 3.32453E-03-5.20810E-04-2.86789E-15
 -1      2277 3.10781E-03-4.85763E-04-2.51977E-15
 -1      2278 3.46676E-03-5.18886E-04-3.13104E-15
 -1      2279 3.60925E-03-5.16435E-04-3.40606E-15
 -1      2280 3.39253E-03-4.83055E-04-3.02351E-15
 -1      2281 3.75202E-03-5.13501E-04-3.69247E-15
 -1      2282 3.89508E-03-5.10126E-04-3.99027E-15
 -1      2283 3.67791E-03-4.78148E-04-3.57386E-15
 -1      2284 4.03846E-03-5.06340E-04-4.29791E-15
 -1      2285 4.18220E-03-5.02180E-04-4.61735E-15
 -1      2286 3.96407E-03-4.71406E-04-4.16849E-15
 -1      2287 4.32630E-03-4.97672E-04-4.94854E-15
 -1      2288 4.47083E-03-4.92859E-04-5.28963E-15
 -1      2289 4.25114E-03-4.63105E-04-4.80775E-15
 -1      2290 4.61577E-03-4.87773E-04-5.64129E-15
 -1      2291 4.76123E-03-4.82473E-04-6.00377E-15
 -1      2292 4.53926E-03-4.53502E-04-5.49120E-15
 -1      2293 4.90718E-03-4.77016E-04-6.37599E-15
 -1      2294 5.05374E-03-4.71486E-04-6.75810E-15
 -1      2295 4.82863E-03-4.42922E-04-6.21644E-15
 -1      2296 5.20088E-03-4.65989E-04-7.15225E-15
 -1      2297 5.34876E-03-4.60649E-04-7.55746E-15
 -1      2298 5.11945E-03-4.31865E-04-6.98408E-15
 -1      2299 5.49733E-03-4.55649E-04-7.97443E-15
 -1      2300 5.64680E-03-4.51176E-04-8.40231E-15
 -1      2301 5.41199E-03-4.21134E-04-7.79693E-15
 -1      2302 5.79711E-03-4.47526E-04-8.84278E-15
 -1      2303 5.94850E-03-4.44981E-04-9.29683E-15
 -1      2304 5.70663E-03-4.12011E-04-8.65657E-15
 -1      2305 6.10095E-03-4.43986E-04-9.76283E-15
 -1      2306 6.25473E-03-4.44968E-04-1.02426E-14
 -1      2307 6.00392E-03-4.06481E-04-9.56494E-15
 -1      2308 6.40988E-03-4.48550E-04-1.07363E-14
 -1      2309 6.56669E-03-4.55378E-04-1.12416E-14
 -1      2310 6.30477E-03-4.07501E-04-1.05269E-14
 -1      2311 6.72540E-03-4.66242E-04-1.17610E-14
 -1      2312 6.88619E-03-4.82102E-04-1.22926E-14
 -1      2313 6.61073E-03-4.19332E-04-1.15421E-14
 -1      2314 7.04966E-03-5.03827E-04-1.28378E-14
 -1      2315 7.21574E-03-5.32780E-04-1.33956E-14
 -1      2316 6.92437E-03-4.47865E-04-1.26092E-14
 -1      2317 7.38549E-03-5.69686E-04-1.39662E-14
 -1      2318 7.55829E-03-6.16226E-04-1.45494E-14
 -1      2319 7.24964E-03-5.00894E-04-1.37274E-14
 -1      2320 7.73566E-03-6.72615E-04-1.51459E-14
 -1      2321 7.91580E-03-7.40186E-04-1.57557E-14
 -1      2322 7.59151E-03-5.87921E-04-1.48965E-14
 -1      2323 8.10026E-03-8.18070E-04-1.63796E-14
 -1      2324 8.28573E-03-9.05383E-04-1.70180E-14
 -1      2325 7.95369E-03-7.18358E-04-1.61179E-14
 -1      2326 8.47284E-03-9.99330E-04-1.76711E-14
 -1      2327 8.65770E-03-1.09433E-03-1.83421E-14
 -1      2328 8.33340E-03-8.94337E-04-1.73946E-14
 -1      2329 8.83975E-03-1.18533E-03-1.90330E-14
 -1      2330 9.01745E-03-1.26159E-03-1.97388E-14
 -1      2331 8.71689E-03-1.09536E-03-1.87409E-14
 -1      2332 9.18835E-03-1.31742E-03-2.04627E-14
 -1      2333 9.35947E-03-1.34519E-03-2.12039E-14
 -1      2334 9.08500E-03-1.26332E-03-2.01566E-14
 -1      2335 9.52696E-03-1.34324E-03-2.19622E-14
 -1      2336 9.70015E-03-1.31339E-03-2.27382E-14
 -1      2337 9.43574E-03-1.32370E-03-2.16405E-14
 -1      2338 9.87598E-03-1.25994E-03-2.35313E-14
 -1      2339 1.00573E-02-1.19348E-03-2.43395E-14
 -1      2340 9.79293E-03-1.25295E-03-2.31937E-14
 -1      2341 1.02423E-02-1.11952E-03-2.51651E-14
 -1      2342 1.04284E-02-1.04742E-03-2.60080E-14
 -1      2343 1.01693E-02-1.10486E-03-2.48161E-14
 -1      2344 1.06153E-02-9.81166E-04-2.68674E-14
 -1      2345 1.07988E-02-9.23698E-04-2.77421E-14
 -1      2346 1.05533E-02-9.53788E-04-2.65033E-14
 -1      2347 1.09805E-02-8.77010E-04-2.86331E-14
 -1      2348 1.11574E-02-8.40725E-04-2.95381E-14
 -1      2349 1.09265E-02-8.40920E-04-2.82583E-14
 -1      2350 1.13313E-02-8.15172E-04-3.04552E-14
 -1      2351 1.15010E-02-7.98702E-04-3.13841E-14
 -1      2352 1.12796E-02-7.74131E-04-3.00684E-14
 -1      2353 1.16677E-02-7.90815E-04-3.23246E-14
 -1      2354 1.18313E-02-7.89942E-04-3.32767E-14
 -1      2355 1.16135E-02-7.46897E-04-3.19299E-14
 -1      2356 1.19924E-02-7.95251E-04-3.42388E-14
 -1      2357 1.21512E-02-8.05553E-04-3.52126E-14
 -1      2358 1.19331E-02-7.49285E-04-3.38355E-14
 -1      2359 1.23082E-02-8.19989E-04-3.62024E-14
 -1      2360 1.24634E-02-8.37744E-04-3.72055E-14
 -1      2361 1.22428E-02-7.72428E-04-3.57894E-14
 -1      2362 1.26172E-02-8.58086E-04-3.82193E-14
 -1      2363 1.27698E-02-8.80467E-04-3.92482E-14
 -1      2364 1.25462E-02-8.09330E-04-3.77966E-14
 -1      2365 1.29211E-02-9.04331E-04-4.02914E-14
 -1      2366 1.30715E-02-9.29313E-04-4.13487E-14
 -1      2367 1.28452E-02-8.54789E-04-3.98550E-14
 -1      2368 1.32209E-02-9.55018E-04-4.24191E-14
 -1      2369 1.33695E-02-9.81202E-04-4.35010E-14
 -1      2370 1.31411E-02-9.05069E-04-4.19681E-14
 -1      2371 1.35174E-02-1.00760E-03-4.45934E-14
 -1      2372 1.36645E-02-1.03404E-03-4.57002E-14
 -1      2373 1.34347E-02-9.57569E-04-4.41303E-14
 -1      2374 1.38110E-02-1.06036E-03-4.68177E-14
 -1      2375 1.39570E-02-1.08643E-03-4.79429E-14
 -1      2376 1.37263E-02-1.01051E-03-4.63364E-14
 -1      2377 1.41025E-02-1.11215E-03-4.90793E-14
 -1      2378 1.42475E-02-1.13742E-03-5.02279E-14
 -1      2379 1.40164E-02-1.06269E-03-4.85864E-14
 -1      2380 1.43921E-02-1.16218E-03-5.13871E-14
 -1      2381 1.45363E-02-1.18637E-03-5.25564E-14
 -1      2382 1.43051E-02-1.11330E-03-5.08803E-14
 -1      2383 1.86439E-03 5.22427E-04-7.82238E-16
 -1      2384 1.72418E-03 5.10215E-04-6.57894E-16
 -1      2385 2.14451E-03 5.40365E-04-1.06534E-15
 -1      2386 2.00449E-03 5.32419E-04-9.18197E-16
 -1      2387 1.92403E-03 4.91542E-04-8.73474E-16
 -1      2388 2.42474E-03 5.51388E-04-1.39328E-15
 -1      2389 2.28459E-03 5.46639E-04-1.22355E-15
 -1      2390 2.20623E-03 5.07365E-04-1.17031E-15
 -1      2391 2.70553E-03 5.57216E-04-1.76564E-15
 -1      2392 2.56506E-03 5.54874E-04-1.57379E-15
 -1      2393 2.48839E-03 5.16793E-04-1.51111E-15
 -1      2394 2.98716E-03 5.59111E-04-2.18342E-15
 -1      2395 2.84624E-03 5.58597E-04-1.96864E-15
 -1      2396 2.77089E-03 5.21404E-04-1.89672E-15
 -1      2397 3.26984E-03 5.57992E-04-2.64575E-15
 -1      2398 3.12837E-03 5.58884E-04-2.40933E-15
 -1      2399 3.05397E-03 5.22357E-04-2.32770E-15
 -1      2400 3.55372E-03 5.54526E-04-3.15384E-15
 -1      2401 3.41162E-03 5.56519E-04-2.89368E-15
 -1      2402 3.33782E-03 5.20496E-04-2.80322E-15
 -1      2403 3.83894E-03 5.49208E-04-3.70983E-15
 -1      2404 3.69615E-03 5.52071E-04-3.42602E-15
 -1      2405 3.62258E-03 5.16429E-04-3.32427E-15
 -1      2406 4.12570E-03 5.42435E-04-4.31747E-15
 -1      2407 3.98211E-03 5.45978E-04-4.00697E-15
 -1      2408 3.90840E-03 5.10611E-04-3.89501E-15
 -1      2409 4.41420E-03 5.34584E-04-4.97559E-15
 -1      2410 4.26971E-03 5.38617E-04-4.64034E-15
 -1      2411 4.19545E-03 5.03415E-04-4.51614E-15
 -1      2412 4.70472E-03 5.26099E-04-5.68668E-15
 -1      2413 4.55918E-03 5.30387E-04-5.32463E-15
 -1      2414 4.48392E-03 4.95212E-04-5.18871E-15
 -1      2415 4.99758E-03 5.17577E-04-6.44589E-15
 -1      2416 4.85082E-03 5.21796E-04-6.06007E-15
 -1      2417 4.77407E-03 4.86453E-04-5.91135E-15
 -1      2418 5.29316E-03 5.09883E-04-7.25522E-15
 -1      2419 5.14499E-03 5.13563E-04-6.84464E-15
 -1      2420 5.06619E-03 4.77765E-04-6.68435E-15
 -1      2421 5.59188E-03 5.04251E-04-8.11447E-15
 -1      2422 5.44209E-03 5.06720E-04-7.67812E-15
 -1      2423 5.36065E-03 4.70057E-04-7.50692E-15
 -1      2424 5.89415E-03 5.02398E-04-9.02273E-15
 -1      2425 5.74254E-03 5.02734E-04-8.56242E-15
 -1      2426 5.65791E-03 4.64629E-04-8.37881E-15
 -1      2427 6.20038E-03 5.06590E-04-9.98298E-15
 -1      2428 6.04676E-03 5.03589E-04-9.49632E-15
 -1      2429 5.95847E-03 4.63279E-04-9.30145E-15
 -1      2430 6.51083E-03 5.19613E-04-1.09915E-14
 -1      2431 6.35510E-03 5.11822E-04-1.04817E-14
 -1      2432 6.26292E-03 4.68364E-04-1.02740E-14
 -1      2433 6.82554E-03 5.44543E-04-1.20517E-14
 -1      2434 6.66774E-03 5.30408E-04-1.15146E-14
 -1      2435 6.57185E-03 4.82768E-04-1.12964E-14
 -1      2436 7.14409E-03 5.84176E-04-1.31654E-14
 -1      2437 6.98449E-03 5.62384E-04-1.26012E-14
 -1      2438 6.88574E-03 5.09666E-04-1.23688E-14
 -1      2439 7.46531E-03 6.39944E-04-1.43312E-14
 -1      2440 7.30462E-03 6.10038E-04-1.37406E-14
 -1      2441 7.20467E-03 5.51923E-04-1.34922E-14
 -1      2442 7.78701E-03 7.10268E-04-1.55640E-14
 -1      2443 7.62644E-03 6.73543E-04-1.49399E-14
 -1      2444 7.52784E-03 6.10938E-04-1.46745E-14
 -1      2445 8.10595E-03 7.88627E-04-1.68590E-14
 -1      2446 7.94716E-03 7.49077E-04-1.62035E-14
 -1      2447 7.85301E-03 6.84791E-04-1.59197E-14
 -1      2448 8.41863E-03 8.62425E-04-1.82289E-14
 -1      2449 8.26326E-03 8.27125E-04-1.75353E-14
 -1      2450 8.17633E-03 7.65995E-04-1.72322E-14
 -1      2451 8.72311E-03 9.14332E-04-1.96714E-14
 -1      2452 8.57174E-03 8.92279E-04-1.89412E-14
 -1      2453 8.49343E-03 8.40088E-04-1.86155E-14
 -1      2454 9.02094E-03 9.27446E-04-2.11885E-14
 -1      2455 8.87232E-03 9.26554E-04-2.04199E-14
 -1      2456 8.80202E-03 8.87578E-04-2.00742E-14
 -1      2457 9.31719E-03 8.92897E-04-2.27800E-14
 -1      2458 9.16855E-03 9.16237E-04-2.19746E-14
 -1      2459 9.10432E-03 8.90751E-04-2.16064E-14
 -1      2460 9.61788E-03 8.13895E-04-2.44439E-14
 -1      2461 9.46643E-03 8.58247E-04-2.36026E-14
 -1      2462 9.40665E-03 8.42644E-04-2.32149E-14
 -1      2463 9.92656E-03 7.04475E-04-2.61792E-14
 -1      2464 9.77110E-03 7.61842E-04-2.53028E-14
 -1      2465 9.71540E-03 7.50477E-04-2.48971E-14
 -1      2466 1.02428E-02 5.82657E-04-2.79904E-14
 -1      2467 1.00839E-02 6.44060E-04-2.70748E-14
 -1      2468 1.00327E-02 6.32289E-04-2.66500E-14
 -1      2469 1.05634E-02 4.63648E-04-2.98696E-14
 -1      2470 1.04029E-02 5.22092E-04-2.89209E-14
 -1      2471 1.03560E-02 5.07464E-04-2.84746E-14
 -1      2472 1.08851E-02 3.56786E-04-3.18200E-14
 -1      2473 1.07245E-02 4.08367E-04-3.08371E-14
 -1      2474 1.06811E-02 3.90222E-04-3.03697E-14
 -1      2475 1.12050E-02 2.65751E-04-3.38384E-14
 -1      2476 1.10455E-02 3.09241E-04-3.28209E-14
 -1      2477 1.10041E-02 2.87877E-04-3.23326E-14
 -1      2478 1.15214E-02 1.90268E-04-3.59085E-14
 -1      2479 1.13637E-02 2.26174E-04-3.48663E-14
 -1      2480 1.13227E-02 2.02226E-04-3.43582E-14
 -1      2481 1.18337E-02 1.27969E-04-3.80340E-14
 -1      2482 1.16781E-02 1.57643E-04-3.69655E-14
 -1      2483 1.16363E-02 1.31781E-04-3.64372E-14
 -1      2484 1.21416E-02 7.57492E-05-4.02036E-14
 -1      2485 1.19882E-02 1.00779E-04-3.91129E-14
 -1      2486 1.19450E-02 7.36023E-05-3.85675E-14
 -1      2487 1.24454E-02 3.05671E-05-4.24100E-14
 -1      2488 1.22940E-02 5.24396E-05-4.13033E-14
 -1      2489 1.22491E-02 2.44555E-05-4.07403E-14
 -1      2490 1.27454E-02-1.01982E-05-4.46516E-14
 -1      2491 1.25959E-02 9.76496E-06-4.35262E-14
 -1      2492 1.25493E-02-1.86114E-05-4.29491E-14
 -1      2493 1.30422E-02-4.86404E-05-4.69180E-14
 -1      2494 1.28942E-02-2.96057E-05-4.57830E-14
 -1      2495 1.28463E-02-5.80437E-05-4.51912E-14
 -1      2496 1.33360E-02-8.63589E-05-4.91974E-14
 -1      2497 1.31894E-02-6.75104E-05-4.80559E-14
 -1      2498 1.31405E-02-9.57513E-05-4.74546E-14
 -1      2499 1.36275E-02-1.24547E-04-5.14895E-14
 -1      2500 1.34820E-02-1.05333E-04-5.03426E-14
 -1      2501 1.34324E-02-1.33174E-04-4.97318E-14
 -1      2502 1.39170E-02-1.64086E-04-5.37907E-14
 -1      2503 1.37725E-02-1.44100E-04-5.26390E-14
 -1      2504 1.37225E-02-1.71377E-04-5.20186E-14
 -1      2505 1.42049E-02-2.05597E-04-5.60917E-14
 -1      2506 1.40611E-02-1.84559E-04-5.49394E-14
 -1      2507 1.40109E-02-2.11149E-04-5.43146E-14
 -1      2508 1.43526E-02-2.26932E-04-5.72861E-14
 -1      2509 1.44742E-02-5.33661E-04-5.61719E-14
 -1      2510 1.44486E-02-4.94581E-04-5.62366E-14
 -1      2511 1.45241E-02-6.10850E-04-5.60419E-14
 -1      2512 1.44994E-02-5.72395E-04-5.61063E-14
 -1      2513 1.43645E-02-5.34725E-04-5.51515E-14
 -1      2514 1.43717E-02-3.76469E-04-5.64166E-14
 -1      2515 1.43460E-02-3.35882E-04-5.64729E-14
 -1      2516 1.44229E-02-4.55479E-04-5.62967E-14
 -1      2517 1.43974E-02-4.16340E-04-5.63570E-14
 -1      2518 1.42611E-02-3.78029E-04-5.53948E-14
 -1      2519 1.43130E-02-4.56980E-04-5.52783E-14
 -1      2520 1.45714E-02-6.87051E-04-5.59157E-14
 -1      2521 1.45481E-02-6.49036E-04-5.59793E-14
 -1      2522 1.44142E-02-6.11485E-04-5.50197E-14
 -1      2523 1.46155E-02-7.62723E-04-5.57907E-14
 -1      2524 1.45939E-02-7.24907E-04-5.58546E-14
 -1      2525 1.44610E-02-6.87308E-04-5.48911E-14
 -1      2526 1.46563E-02-8.38398E-04-5.56672E-14
 -1      2527 1.46363E-02-8.00511E-04-5.57277E-14
 -1      2528 1.45043E-02-7.62689E-04-5.47626E-14
 -1      2529 1.46932E-02-9.13327E-04-5.55452E-14
 -1      2530 1.46751E-02-8.75752E-04-5.56061E-14
 -1      2531 1.45437E-02-8.37549E-04-5.46340E-14
 -1      2532 1.47285E-02-9.90593E-04-5.54221E-14
 -1      2533 1.47111E-02-9.51794E-04-5.54843E-14
 -1      2534 1.45800E-02-9.13086E-04-5.45079E-14
 -1      2535 1.47626E-02-1.06930E-03-5.52896E-14
 -1      2536 1.47456E-02-1.02975E-03-5.53571E-14
 -1      2537 1.46144E-02-9.90469E-04-5.43754E-14
 -1      2538 1.47968E-02-1.14970E-03-5.51503E-14
 -1      2539 1.47796E-02-1.10929E-03-5.52193E-14
 -1      2540 1.46478E-02-1.06946E-03-5.42359E-14
 -1      2541 1.14834E-02-3.06221E-04-2.76093E-14
 -1      2542 1.15376E-02-3.16038E-04-2.76031E-14
 -1      2543 1.08743E-02-1.01912E-04-2.64896E-14
 -1      2544 1.10419E-02-1.68471E-04-2.67199E-14
 -1      2545 1.11344E-02-2.07300E-04-2.72756E-14
 -1      2546 1.58369E-03 4.95246E-04-5.45178E-16
 -1      2547 1.44280E-03 4.77313E-04-4.43574E-16
 -1      2548 1.64129E-03 4.67199E-04-6.22400E-16
 -1      2549 1.49060E-02-1.23409E-03-5.56693E-14
 -1      2550 1.15459E-02-3.26896E-04-2.74572E-14
 -1      2551 1.15157E-02-3.34998E-04-2.73433E-14
 -1      2552 1.04909E-02 8.49815E-05-2.57853E-14
 -1      2553 1.06636E-02-5.06060E-06-2.61282E-14
 -1      2554 9.65664E-03 5.76344E-04-2.34609E-14
 -1      2555 9.80126E-03 4.91370E-04-2.39533E-14
 -1      2556 1.14489E-02-3.54793E-04-2.72108E-14
 -1      2557 1.13531E-02-3.80450E-04-2.70441E-14
 -1      2558 8.70980E-03 6.22756E-04-1.99660E-14
 -1      2559 8.85380E-03 6.83912E-04-2.04516E-14
 -1      2560 5.46955E-04-2.28735E-05-1.25293E-16
 -1      2561 5.47400E-04-3.88990E-05-1.24927E-16
 -1      2562 6.62916E-04-5.57295E-05-1.69664E-16
 -1      2563 6.61714E-04-1.76733E-05-1.70694E-16
 -1      2564 8.97590E-03 7.17104E-04-2.08867E-14
 -1      2565 9.09145E-03 7.33979E-04-2.13260E-14
 -1      2566 8.89015E-03 7.03539E-04-2.05271E-14
 -1      2567 7.22603E-03-9.32683E-05-1.70834E-14
 -1      2568 7.37432E-03-4.54091E-05-1.72714E-14
 -1      2569 7.94448E-03 2.07971E-04-1.82047E-14
 -1      2570 8.09955E-03 2.91809E-04-1.84961E-14
 -1      2571 1.07957E-02-6.07020E-04-2.59083E-14
 -1      2572 1.05927E-02-7.11467E-04-2.53879E-14
 -1      2573 7.57824E-03 3.51633E-05-1.75825E-14
 -1      2574 7.76028E-03 1.16659E-04-1.78915E-14
 -1      2575 7.83745E-03 1.62682E-04-1.77885E-14
 -1      2576 7.01609E-03-1.50182E-04-1.68794E-14
 -1      2577 7.08981E-03-1.33259E-04-1.69238E-14
 -1      2578 6.97284E-03-1.68743E-04-1.68092E-14
 -1      2579 6.97976E-03-1.62877E-04-1.68442E-14
 -1      2580 6.98057E-03-1.51790E-04-1.65165E-14
 -1      2581 7.10409E-03-2.05541E-04-1.69049E-14
 -1      2582 7.01513E-03-1.85291E-04-1.68493E-14
 -1      2583 7.41191E-03-3.06958E-04-1.72818E-14
 -1      2584 7.26641E-03-2.55183E-04-1.70600E-14
 -1      2585 7.73836E-03-4.50097E-04-1.76839E-14
 -1      2586 7.56696E-03-3.72011E-04-1.74817E-14
 -1      2587 7.48394E-03-3.30124E-04-1.70612E-14
 -1      2588 8.61561E-03-9.68477E-04-1.91434E-14
 -1      2589 8.45539E-03-8.62641E-04-1.87827E-14
 -1      2590 9.34813E-03-1.28238E-03-2.15059E-14
 -1      2591 9.22701E-03-1.26681E-03-2.10592E-14
 -1      2592 9.66750E-03-1.22161E-03-2.26764E-14
 -1      2593 9.50761E-03-1.26880E-03-2.20861E-14
 -1      2594 9.44626E-03-1.28454E-03-2.18344E-14
 -1      2595 9.98393E-03-1.06792E-03-2.37784E-14
 -1      2596 9.85266E-03-1.14296E-03-2.33448E-14
 -1      2597 1.03757E-02-8.33657E-04-2.48471E-14
 -1      2598 1.01717E-02-9.57427E-04-2.43094E-14
 -1      2599 1.01106E-02-1.00933E-03-2.42918E-14
 -1      2600 1.12055E-02-4.31167E-04-2.67722E-14
 -1      2601 1.10394E-02-4.95548E-04-2.64665E-14
 -1      2602 5.88325E-04-2.37863E-04-9.11543E-17
 -1      2603 7.81016E-04-3.04546E-04-1.47994E-16
 -1      2604 8.40574E-04-2.93251E-04-1.85710E-16
 -1      2605 5.78859E-04-2.10046E-04-9.92045E-17
 -1      2606 7.57449E-04 3.33928E-04-1.08691E-16
 -1      2607 6.11118E-04 2.84690E-04-7.02292E-17
 -1      2608 5.84473E-04 2.57947E-04-7.35360E-17
 -1      2609 8.13369E-04 3.22548E-04-1.44700E-16
 -1      2610 9.09247E-03 7.43265E-04-2.13353E-14
 -1      2611 9.18613E-03 7.37892E-04-2.17034E-14
 -1      2612 9.27044E-03 7.27728E-04-2.20866E-14
 -1      2613 6.70444E-04-1.37812E-04-1.60882E-16
 -1      2614 5.54748E-04-1.26133E-04-1.16091E-16
 -1      2615 5.57895E-04-1.46102E-04-1.12432E-16
 -1      2616 1.35730E-03 4.31495E-04-4.16686E-16
 -1      2617 5.72077E-04 2.27769E-04-8.33209E-17
 -1      2618 5.64329E-04-1.64860E-04-1.09437E-16
 -1      2619 5.69684E-04-1.87920E-04-1.03921E-16
 -1      2620 6.97769E-04-2.27552E-04-1.44551E-16
 -1      2621 6.80799E-04-1.81494E-04-1.53482E-16
 -1      2622 1.04893E-02-7.81266E-04-2.53754E-14
 -1      2623 9.76901E-03-1.19321E-03-2.30832E-14
 -1      2624 1.03574E-02 1.60013E-04-2.57750E-14
 -1      2625 1.13744E-02-2.82296E-04-2.80746E-14
 -1      2626 1.14340E-02-2.96421E-04-2.78422E-14
 -1      2627 1.15067E-02-3.12381E-04-2.84071E-14
 -1      2628 1.15018E-02-3.47959E-04-2.77410E-14
 -1      2629 7.86716E-03-5.13850E-04-1.76963E-14
 -1      2630 1.43024E-02-2.52752E-04-5.66530E-14
 -1      2631 1.07917E-02-6.71392E-05-2.66768E-14
 -1      2632 1.43060E-02-2.82888E-04-5.64808E-14
 -1      2633 8.32962E-03-7.84817E-04-1.84180E-14
 -1      2634 1.15628E-02-3.26748E-04-2.80246E-14
 -1      2635 6.97522E-03-1.70050E-04-1.65219E-14
 -1      2636 7.46281E-03-3.80869E-06-1.71717E-14
 -1      2637 1.09297E-02-5.50032E-04-2.64875E-14
 -1      2638 1.08339E-02-6.11447E-04-2.65025E-14
 -1      2639 1.10553E-02-5.11601E-04-2.70714E-14
 -1      2640 1.41946E-02-2.85182E-04-5.54560E-14
 -1      2641 9.92520E-03 4.20211E-04-2.45517E-14
 -1      2642 1.13009E-02-4.06650E-04-2.73285E-14
 -1      2643 8.60724E-03 5.78488E-04-1.95989E-14
 -1      2644 8.67824E-03 6.28630E-04-1.97269E-14
 -1      2645 8.50512E-03 5.30181E-04-1.92375E-14
 -1      2646 9.12900E-03-1.24312E-03-2.06584E-14
 -1      2647 9.55109E-03 6.29025E-04-2.31588E-14
 -1      2648 9.62540E-03 5.94898E-04-2.35668E-14
 -1      2649 9.46033E-03 6.71472E-04-2.28613E-14
 -1      2650 6.89383E-04 2.51030E-04-1.23260E-16
 -1      2651 7.13578E-03-1.12568E-04-1.67076E-14
 -1      2652 8.20551E-03 3.55950E-04-1.85996E-14
 -1      2653 7.16717E-03-2.18431E-04-1.67122E-14
 -1      2654 7.08397E-03-1.96147E-04-1.63692E-14
 -1      2655 7.23176E-03-2.37430E-04-1.65198E-14
 -1      2656 8.73552E-03-1.04697E-03-1.93708E-14
 -1      2657 1.47633E-02-1.22558E-03-5.44028E-14
 -1      2658 1.47867E-02-1.18086E-03-5.48795E-14
 -1      2659 1.46541E-02-1.14049E-03-5.38925E-14
 -1      2660 1.46339E-02-1.20320E-03-5.33482E-14
 -1      2661 1.45465E-02-1.15489E-03-5.28283E-14
 -1      2662 7.80639E-04 7.71896E-05-2.18236E-16
 -1      2663 7.79404E-04 5.53667E-05-2.20500E-16
 -1      2664 7.78575E-04 3.34969E-05-2.21990E-16
 -1      2665 7.78161E-04 1.18769E-05-2.23183E-16
 -1      2666 8.97031E-04 4.95580E-05-2.81716E-16
 -1      2667 7.91769E-04 1.72868E-04-2.02055E-16
 -1      2668 7.87835E-04 1.47477E-04-2.07232E-16
 -1      2669 8.03444E-04 2.28025E-04-1.88150E-16
 -1      2670 7.96923E-04 1.99653E-04-1.95820E-16
 -1      2671 9.15054E-04 2.07425E-04-2.55099E-16
 -1      2672 1.12954E-03 3.61187E-04-3.06707E-16
 -1      2673 9.85962E-04 3.32343E-04-2.35163E-16
 -1      2674 7.05185E-03-1.20533E-04-1.62593E-14
 -1      2675 7.17077E-03-8.90383E-05-1.64138E-14
 -1      2676 8.02923E-04 2.77921E-04-1.64839E-16
 -1      2677 1.02841E-02 2.12467E-04-2.59174E-14
 -1      2678 1.04989E-02 8.71410E-05-2.64575E-14
 -1      2679 1.32001E-03-3.61638E-04-4.57195E-16
 -1      2680 1.46324E-03-3.80278E-04-5.58378E-16
 -1      2681 1.60629E-03-3.95953E-04-6.70484E-16
 -1      2682 1.74924E-03-4.08890E-04-7.93758E-16
 -1      2683 1.52502E-03-3.53806E-04-6.27184E-16
 -1      2684 1.89204E-03-4.19544E-04-9.28172E-16
 -1      2685 2.03474E-03-4.28098E-04-1.07385E-15
 -1      2686 1.81175E-03-3.78786E-04-8.75507E-16
 -1      2687 2.17735E-03-4.34912E-04-1.23119E-15
 -1      2688 2.31989E-03-4.40132E-04-1.40011E-15
 -1      2689 2.09828E-03-3.95393E-04-1.16863E-15
 -1      2690 2.46240E-03-4.44031E-04-1.58079E-15
 -1      2691 2.60488E-03-4.46723E-04-1.77343E-15
 -1      2692 2.38455E-03-4.05565E-04-1.50746E-15
 -1      2693 2.74738E-03-4.48408E-04-1.97800E-15
 -1      2694 2.88989E-03-4.49171E-04-2.19474E-15
 -1      2695 2.67063E-03-4.10829E-04-1.89345E-15
 -1      2696 3.03245E-03-4.49155E-04-2.42337E-15
 -1      2697 3.17506E-03-4.48424E-04-2.66380E-15
 -1      2698 2.95658E-03-4.12338E-04-2.32740E-15
 -1      2699 3.31773E-03-4.47076E-04-2.91604E-15
 -1      2700 3.46048E-03-4.45157E-04-3.17975E-15
 -1      2701 3.24248E-03-4.10934E-04-2.80886E-15
 -1      2702 3.60332E-03-4.42732E-04-3.45485E-15
 -1      2703 3.74626E-03-4.39836E-04-3.74202E-15
 -1      2704 3.52837E-03-4.07215E-04-3.33665E-15
 -1      2705 3.88930E-03-4.36513E-04-4.04029E-15
 -1      2706 4.03247E-03-4.32791E-04-4.34831E-15
 -1      2707 3.81430E-03-4.01598E-04-3.91031E-15
 -1      2708 4.17574E-03-4.28705E-04-4.66817E-15
 -1      2709 4.31917E-03-4.24280E-04-4.99927E-15
 -1      2710 4.10027E-03-3.94382E-04-4.52936E-15
 -1      2711 4.46271E-03-4.19556E-04-5.34071E-15
 -1      2712 4.60643E-03-4.14562E-04-5.69350E-15
 -1      2713 4.38629E-03-3.85812E-04-5.19035E-15
 -1      2714 4.75028E-03-4.09356E-04-6.05706E-15
 -1      2715 4.89433E-03-4.03982E-04-6.43051E-15
 -1      2716 4.67233E-03-3.76153E-04-5.89651E-15
 -1      2717 5.03853E-03-3.98530E-04-6.81524E-15
 -1      2718 5.18296E-03-3.93069E-04-7.21172E-15
 -1      2719 4.95836E-03-3.65767E-04-6.64608E-15
 -1      2720 5.32756E-03-3.87747E-04-7.61846E-15
 -1      2721 5.47246E-03-3.82671E-04-8.03753E-15
 -1      2722 5.24433E-03-3.55215E-04-7.43977E-15
 -1      2723 5.61756E-03-3.78067E-04-8.46824E-15
 -1      2724 5.76306E-03-3.74107E-04-8.91176E-15
 -1      2725 5.53023E-03-3.45365E-04-8.27979E-15
 -1      2726 5.90887E-03-3.71116E-04-9.36764E-15
 -1      2727 6.05525E-03-3.69370E-04-9.83619E-15
 -1      2728 5.81620E-03-3.37536E-04-9.16895E-15
 -1      2729 6.20218E-03-3.69307E-04-1.03189E-14
 -1      2730 6.35002E-03-3.71374E-04-1.08149E-14
 -1      2731 6.10264E-03-3.33659E-04-1.01103E-14
 -1      2732 6.49888E-03-3.76107E-04-1.13232E-14
 -1      2733 6.64925E-03-3.84248E-04-1.18442E-14
 -1      2734 6.39062E-03-3.36478E-04-1.11028E-14
 -1      2735 6.80153E-03-3.96379E-04-1.23798E-14
 -1      2736 6.95634E-03-4.13736E-04-1.29275E-14
 -1      2737 6.68238E-03-3.49834E-04-1.21490E-14
 -1      2738 7.11455E-03-4.36826E-04-1.34869E-14
 -1      2739 7.27677E-03-4.67713E-04-1.40595E-14
 -1      2740 6.98216E-03-3.79147E-04-1.32462E-14
 -1      2741 7.44452E-03-5.06635E-04-1.46443E-14
 -1      2742 7.61783E-03-5.56655E-04-1.52419E-14
 -1      2743 7.29715E-03-4.32506E-04-1.43918E-14
 -1      2744 7.79894E-03-6.17740E-04-1.58536E-14
 -1      2745 7.98577E-03-6.92886E-04-1.64790E-14
 -1      2746 7.63731E-03-5.22269E-04-1.55882E-14
 -1      2747 8.18136E-03-7.80606E-04-1.71186E-14
 -1      2748 8.37905E-03-8.81183E-04-1.77738E-14
 -1      2749 8.01216E-03-6.65251E-04-1.68398E-14
 -1      2750 8.53439E-03-9.52257E-04-1.83784E-14
 -1      2751 8.73629E-03-1.06556E-03-1.90681E-14
 -1      2752 8.93293E-03-1.17493E-03-1.97568E-14
 -1      2753 9.12492E-03-1.25257E-03-2.04804E-14
 -1      2754 9.41294E-03-1.30173E-03-2.16475E-14
 -1      2755 9.59965E-03-1.27829E-03-2.24164E-14
 -1      2756 9.75844E-03-1.22439E-03-2.30803E-14
 -1      2757 9.95456E-03-1.14577E-03-2.38815E-14
 -1      2758 1.04955E-02-9.23502E-04-2.61408E-14
 -1      2759 1.06893E-02-8.55289E-04-2.70039E-14
 -1      2760 1.08789E-02-8.01185E-04-2.78812E-14
 -1      2761 1.10598E-02-7.59471E-04-2.87746E-14
 -1      2762 1.08376E-02-7.58578E-04-2.75044E-14
 -1      2763 1.12348E-02-7.30838E-04-2.96820E-14
 -1      2764 1.14028E-02-7.11806E-04-3.06020E-14
 -1      2765 1.11967E-02-6.84637E-04-2.92936E-14
 -1      2766 1.15659E-02-7.02331E-04-3.15348E-14
 -1      2767 1.17244E-02-6.99807E-04-3.24783E-14
 -1      2768 1.15247E-02-6.56456E-04-3.11367E-14
 -1      2769 1.18796E-02-7.03846E-04-3.34320E-14
 -1      2770 1.20322E-02-7.12770E-04-3.43964E-14
 -1      2771 1.18320E-02-6.58492E-04-3.30282E-14
 -1      2772 1.21827E-02-7.26020E-04-3.53758E-14
 -1      2773 1.23318E-02-7.42602E-04-3.63695E-14
 -1      2774 1.21276E-02-6.80566E-04-3.49616E-14
 -1      2775 1.24796E-02-7.61939E-04-3.73718E-14
 -1      2776 1.26267E-02-7.83428E-04-3.83870E-14
 -1      2777 1.24173E-02-7.15865E-04-3.69464E-14
 -1      2778 1.27730E-02-8.06562E-04-3.94195E-14
 -1      2779 1.29190E-02-8.30973E-04-4.04621E-14
 -1      2780 1.27045E-02-7.59698E-04-3.89809E-14
 -1      2781 1.30644E-02-8.56258E-04-4.15195E-14
 -1      2782 1.32096E-02-8.82182E-04-4.25890E-14
 -1      2783 1.29906E-02-8.08677E-04-4.10709E-14
 -1      2784 1.33544E-02-9.08450E-04-4.36673E-14
 -1      2785 1.34991E-02-9.34909E-04-4.47583E-14
 -1      2786 1.32765E-02-8.60357E-04-4.32083E-14
 -1      2787 1.36434E-02-9.61350E-04-4.58614E-14
 -1      2788 1.37877E-02-9.87669E-04-4.69749E-14
 -1      2789 1.35624E-02-9.12989E-04-4.53891E-14
 -1      2790 1.39316E-02-1.01373E-03-4.80988E-14
 -1      2791 1.40755E-02-1.03944E-03-4.92313E-14
 -1      2792 1.38484E-02-9.65345E-04-4.76120E-14
 -1      2793 1.42191E-02-1.06473E-03-5.03747E-14
 -1      2794 1.43626E-02-1.08952E-03-5.15300E-14
 -1      2795 1.41343E-02-1.01656E-03-4.98749E-14
 -1      2796 2.26903E-03 4.73731E-04-1.27598E-15
 -1      2797 2.12714E-03 4.67692E-04-1.11579E-15
 -1      2798 1.44599E-02-1.10678E-03-5.23146E-14
 -1      2799 1.45570E-02-1.12377E-03-5.31022E-14
 -1      2800 1.43741E-02-1.05895E-03-5.18024E-14
 -1      2801 1.98517E-03 4.59928E-04-9.66539E-16
 -1      2802 1.84310E-03 4.50281E-04-8.28480E-16
 -1      2803 2.04758E-03 4.27737E-04-1.06081E-15
 -1      2804 2.83671E-03 4.85161E-04-2.02923E-15
 -1      2805 2.69472E-03 4.83904E-04-1.82401E-15
 -1      2806 3.12098E-03 4.85275E-04-2.47294E-15
 -1      2807 2.97880E-03 4.85594E-04-2.24534E-15
 -1      2808 2.90296E-03 4.48601E-04-2.16273E-15
 -1      2809 3.40576E-03 4.82771E-04-2.96094E-15
 -1      2810 3.26330E-03 4.84315E-04-2.71137E-15
 -1      2811 3.18819E-03 4.47966E-04-2.61899E-15
 -1      2812 3.69117E-03 4.78201E-04-3.49655E-15
 -1      2813 3.54838E-03 4.80718E-04-3.22268E-15
 -1      2814 3.47366E-03 4.44911E-04-3.12042E-15
 -1      2815 3.97734E-03 4.71981E-04-4.08167E-15
 -1      2816 3.83415E-03 4.75276E-04-3.78288E-15
 -1      2817 3.75949E-03 4.39930E-04-3.67002E-15
 -1      2818 4.26442E-03 4.64460E-04-4.71579E-15
 -1      2819 4.12076E-03 4.68362E-04-4.39199E-15
 -1      2820 4.04577E-03 4.33401E-04-4.26878E-15
 -1      2821 4.55258E-03 4.56000E-04-5.40200E-15
 -1      2822 4.40835E-03 4.60323E-04-5.05278E-15
 -1      2823 4.33262E-03 4.25649E-04-4.91732E-15
 -1      2824 4.84205E-03 4.47059E-04-6.13774E-15
 -1      2825 4.69712E-03 4.51557E-04-5.76440E-15
 -1      2826 4.62018E-03 4.17025E-04-5.61647E-15
 -1      2827 5.13310E-03 4.38283E-04-6.92365E-15
 -1      2828 4.98734E-03 4.42603E-04-6.52371E-15
 -1      2829 4.90866E-03 4.07984E-04-6.36541E-15
 -1      2830 5.42614E-03 4.30609E-04-7.75959E-15
 -1      2831 5.27934E-03 4.34239E-04-7.33566E-15
 -1      2832 5.19834E-03 3.99179E-04-7.16392E-15
 -1      2833 5.72165E-03 4.25381E-04-8.64532E-15
 -1      2834 5.57354E-03 4.27591E-04-8.19603E-15
 -1      2835 5.48965E-03 3.91560E-04-8.01266E-15
 -1      2836 6.02031E-03 4.24443E-04-9.57974E-15
 -1      2837 5.87054E-03 4.24240E-04-9.10598E-15
 -1      2838 5.78317E-03 3.86481E-04-8.91129E-15
 -1      2839 6.32295E-03 4.30214E-04-1.05658E-14
 -1      2840 6.17109E-03 4.26312E-04-1.00667E-14
 -1      2841 6.07977E-03 3.85806E-04-9.85927E-15
 -1      2842 6.63058E-03 4.45663E-04-1.15992E-14
 -1      2843 6.47612E-03 4.36510E-04-1.10764E-14
 -1      2844 6.38062E-03 3.91987E-04-1.08568E-14
 -1      2845 6.94420E-03 4.74094E-04-1.26856E-14
 -1      2846 6.78666E-03 4.58017E-04-1.21362E-14
 -1      2847 6.68721E-03 4.08083E-04-1.19032E-14
 -1      2848 7.26446E-03 5.18563E-04-1.38206E-14
 -1      2849 7.10362E-03 4.94124E-04-1.32464E-14
 -1      2850 7.00116E-03 4.37608E-04-1.30007E-14
 -1      2851 7.59088E-03 5.80661E-04-1.50183E-14
 -1      2852 7.42716E-03 5.47372E-04-1.44109E-14
 -1      2853 7.32367E-03 4.84014E-04-1.41509E-14
 -1      2854 7.92100E-03 6.58398E-04-1.62770E-14
 -1      2855 7.75592E-03 6.17923E-04-1.56394E-14
 -1      2856 7.65453E-03 5.49402E-04-1.53603E-14
 -1      2857 8.24993E-03 7.43336E-04-1.76038E-14
 -1      2858 8.08610E-03 7.00909E-04-1.69318E-14
 -1      2859 7.99069E-03 6.31919E-04-1.66344E-14
 -1      2860 8.57202E-03 8.18648E-04-1.90018E-14
 -1      2861 8.41212E-03 7.83742E-04-1.82934E-14
 -1      2862 8.32581E-03 7.21861E-04-1.79749E-14
 -1      2863 8.88455E-03 8.61642E-04-2.04744E-14
 -1      2864 8.72924E-03 8.45734E-04-1.97285E-14
 -1      2865 8.65275E-03 7.98747E-04-1.93873E-14
 -1      2866 9.19063E-03 8.53400E-04-2.20257E-14
 -1      2867 9.03732E-03 8.64706E-04-2.12414E-14
 -1      2868 8.96850E-03 8.36065E-04-2.08762E-14
 -1      2869 9.49875E-03 7.89563E-04-2.36509E-14
 -1      2870 9.34336E-03 8.27996E-04-2.28284E-14
 -1      2871 9.27859E-03 8.13738E-04-2.24441E-14
 -1      2872 9.81601E-03 6.82857E-04-2.53496E-14
 -1      2873 9.65597E-03 7.39962E-04-2.44905E-14
 -1      2874 9.59453E-03 7.31153E-04-2.40862E-14
 -1      2875 1.01422E-02 5.56136E-04-2.71204E-14
 -1      2876 9.97827E-03 6.20431E-04-2.62257E-14
 -1      2877 9.92160E-03 6.09736E-04-2.58032E-14
 -1      2878 1.04723E-02 4.29750E-04-2.89598E-14
 -1      2879 1.03073E-02 4.91930E-04-2.80317E-14
 -1      2880 1.02568E-02 4.76198E-04-2.75907E-14
 -1      2881 1.08009E-02 3.15859E-04-3.08689E-14
 -1      2882 1.06373E-02 3.70793E-04-2.99063E-14
 -1      2883 1.05928E-02 3.50394E-04-2.94453E-14
 -1      2884 1.11242E-02 2.19291E-04-3.28435E-14
 -1      2885 1.09635E-02 2.65395E-04-3.18480E-14
 -1      2886 1.09234E-02 2.41724E-04-3.13669E-14
 -1      2887 1.14409E-02 1.39770E-04-3.48758E-14
 -1      2888 1.12835E-02 1.77573E-04-3.38534E-14
 -1      2889 1.12457E-02 1.51996E-04-3.33505E-14
 -1      2890 1.17512E-02 7.46668E-05-3.69642E-14
 -1      2891 1.15968E-02 1.05645E-04-3.59123E-14
 -1      2892 1.15594E-02 7.90241E-05-3.53925E-14
 -1      2893 1.20559E-02 2.06257E-05-3.90968E-14
 -1      2894 1.19042E-02 4.64824E-05-3.80250E-14
 -1      2895 1.18658E-02 1.92717E-05-3.74854E-14
 -1      2896 1.23562E-02-2.55865E-05-4.12740E-14
 -1      2897 1.22066E-02-3.27351E-06-4.01826E-14
 -1      2898 1.21664E-02-3.08244E-05-3.96247E-14
 -1      2899 1.26530E-02-6.67416E-05-4.34860E-14
 -1      2900 1.25050E-02-4.66493E-05-4.23756E-14
 -1      2901 1.24629E-02-7.43668E-05-4.18060E-14
 -1      2902 1.29470E-02-1.05056E-04-4.57282E-14
 -1      2903 1.28003E-02-8.61422E-05-4.46031E-14
 -1      2904 1.27563E-02-1.13878E-04-4.40196E-14
 -1      2905 1.32389E-02-1.42226E-04-4.79876E-14
 -1      2906 1.30932E-02-1.23701E-04-4.68560E-14
 -1      2907 1.30474E-02-1.51313E-04-4.62599E-14
 -1      2908 1.35289E-02-1.79517E-04-5.02610E-14
 -1      2909 1.33841E-02-1.60794E-04-4.91233E-14
 -1      2910 1.33370E-02-1.88140E-04-4.85192E-14
 -1      2911 1.38176E-02-2.17862E-04-5.25486E-14
 -1      2912 1.36734E-02-1.98511E-04-5.14033E-14
 -1      2913 1.36253E-02-2.25449E-04-5.07916E-14
 -1      2914 1.40781E-02-2.61276E-04-5.45737E-14
 -1      2915 1.39345E-02-2.41103E-04-5.34311E-14
 -1      2916 1.38860E-02-2.67494E-04-5.28134E-14
 -1      2917 1.41190E-02-3.14162E-04-5.45726E-14
 -1      2918 1.07245E-02-3.12954E-05-2.69352E-14
 -1      2919 1.09112E-02-1.18151E-04-2.73025E-14
 -1      2920 1.43507E-02-6.87523E-04-5.38678E-14
 -1      2921 1.43281E-02-6.49933E-04-5.39345E-14
 -1      2922 9.83055E-03 4.84867E-04-2.44274E-14
 -1      2923 1.00232E-02 3.68475E-04-2.51158E-14
 -1      2924 1.42550E-02-5.35986E-04-5.41323E-14
 -1      2925 1.42294E-02-4.97391E-04-5.41984E-14
 -1      2926 1.43931E-02-7.62484E-04-5.37347E-14
 -1      2927 1.43724E-02-7.24998E-04-5.38021E-14
 -1      2928 1.42406E-02-6.87568E-04-5.28475E-14
 -1      2929 1.43045E-02-6.12205E-04-5.39988E-14
 -1      2930 1.42801E-02-5.74228E-04-5.40640E-14
 -1      2931 1.41460E-02-5.37324E-04-5.31136E-14
 -1      2932 1.41951E-02-6.12880E-04-5.29813E-14
 -1      2933 1.44312E-02-8.36415E-04-5.36034E-14
 -1      2934 1.44126E-02-7.99370E-04-5.36691E-14
 -1      2935 1.42817E-02-7.61364E-04-5.27124E-14
 -1      2936 1.44667E-02-9.12471E-04-5.34716E-14
 -1      2937 1.44493E-02-8.74290E-04-5.35386E-14
 -1      2938 1.43189E-02-8.35558E-04-5.25777E-14
 -1      2939 1.45001E-02-9.89927E-04-5.33326E-14
 -1      2940 1.44836E-02-9.50987E-04-5.34030E-14
 -1      2941 1.43532E-02-9.11449E-04-5.24396E-14
 -1      2942 1.15526E-02-3.47714E-04-2.83100E-14
 -1      2943 1.14949E-02-3.61340E-04-2.81716E-14
 -1      2944 1.10862E-02-1.89275E-04-2.76357E-14
 -1      2945 1.12195E-02-2.35142E-04-2.78715E-14
 -1      2946 1.70087E-03 4.38345E-04-7.01709E-16
 -1      2947 1.55841E-03 4.23922E-04-5.86459E-16
 -1      2948 1.76201E-03 4.08827E-04-7.82929E-16
 -1      2949 6.97868E-03-1.68740E-04-1.61898E-14
 -1      2950 6.93986E-03-1.59433E-04-1.61511E-14
 -1      2951 7.99489E-03-5.83950E-04-1.76705E-14
 -1      2952 7.76566E-03-4.61512E-04-1.72338E-14
 -1      2953 1.15849E-02-3.32735E-04-2.86538E-14
 -1      2954 1.15859E-02-3.37961E-04-2.85036E-14
 -1      2955 2.55279E-03 4.81664E-04-1.63008E-15
 -1      2956 2.41091E-03 4.78347E-04-1.44761E-15
 -1      2957 2.33281E-03 4.39603E-04-1.38329E-15
 -1      2958 2.61788E-03 4.46129E-04-1.75057E-15
 -1      2959 1.03357E-03-3.13631E-04-2.87192E-16
 -1      2960 1.17681E-03-3.39503E-04-3.66758E-16
 -1      2961 1.23843E-03-3.18137E-04-4.22459E-16
 -1      2962 1.14013E-02-3.94291E-04-2.80716E-14
 -1      2963 1.12754E-02-4.35279E-04-2.77892E-14
 -1      2964 7.84748E-04 1.23249E-04-2.11460E-16
 -1      2965 7.82408E-04 9.98440E-05-2.15065E-16
 -1      2966 9.00087E-04 9.92130E-05-2.75970E-16
 -1      2967 9.05722E-04 1.51260E-04-2.67351E-16
 -1      2968 1.06128E-02-7.32694E-04-2.59671E-14
 -1      2969 1.04242E-02-8.41726E-04-2.54161E-14
 -1      2970 1.41574E-03 4.06487E-04-4.82036E-16
 -1      2971 1.27271E-03 3.85782E-04-3.88944E-16
 -1      2972 1.18954E-03 3.40630E-04-3.60375E-16
 -1      2973 1.47597E-03 3.80693E-04-5.49460E-16
 -1      2974 8.12983E-03 3.31892E-04-1.81968E-14
 -1      2975 8.31689E-03 4.30634E-04-1.87006E-14
 -1      2976 7.82146E-04-9.77836E-05-2.20079E-16
 -1      2977 7.84410E-04-1.21106E-04-2.17464E-16
 -1      2978 8.83513E-03 6.98105E-04-2.02704E-14
 -1      2979 8.94081E-03 7.27554E-04-2.07041E-14
 -1      2980 7.73266E-03 1.28036E-04-1.73597E-14
 -1      2981 7.89484E-03 2.09311E-04-1.76652E-14
 -1      2982 7.35552E-03-3.00366E-05-1.67320E-14
 -1      2983 7.54018E-03 4.04787E-05-1.70368E-14
 -1      2984 6.93852E-03-1.47588E-04-1.60811E-14
 -1      2985 6.96925E-03-1.40529E-04-1.61148E-14
 -1      2986 7.53882E-03-3.55446E-04-1.68421E-14
 -1      2987 7.39956E-03-2.98835E-04-1.66497E-14
 -1      2988 1.45678E-02-1.09301E-03-5.33720E-14
 -1      2989 7.99354E-04-2.54902E-04-1.82783E-16
 -1      2990 9.30625E-04-2.90325E-04-2.37616E-16
 -1      2991 9.92853E-04-2.74928E-04-2.81879E-16
 -1      2992 7.89286E-04-2.28960E-04-1.88570E-16
 -1      2993 8.36426E-03-8.29378E-04-1.80840E-14
 -1      2994 1.01272E-02-1.03322E-03-2.44958E-14
 -1      2995 1.01317E-02-1.08037E-03-2.46186E-14
 -1      2996 1.03298E-02-9.94821E-04-2.54498E-14
 -1      2997 1.02886E-02-9.30586E-04-2.50403E-14
 -1      2998 7.87398E-04-1.45227E-04-2.13900E-16
 -1      2999 7.91194E-04-1.70378E-04-2.09346E-16
 -1      3000 9.05258E-04-1.48729E-04-2.75076E-16
 -1      3001 8.96025E-04 1.01407E-06-2.84359E-16
 -1      3002 7.78133E-04-9.69535E-06-2.23820E-16
 -1      3003 7.78489E-04-3.12990E-05-2.23806E-16
 -1      3004 8.00853E-03 2.86684E-04-1.77579E-14
 -1      3005 8.10305E-03 3.63110E-04-1.78492E-14
 -1      3006 7.88914E-03 2.52304E-04-1.73238E-14
 -1      3007 7.23244E-03-5.21772E-05-1.62818E-14
 -1      3008 8.64795E-04 2.66176E-04-2.02881E-16
 -1      3009 9.02674E-03 7.45592E-04-2.10702E-14
 -1      3010 1.01723E-02 2.91112E-04-2.57880E-14
 -1      3011 1.03199E-02 2.22574E-04-2.64676E-14
 -1      3012 1.00808E-02 3.64376E-04-2.56569E-14
 -1      3013 1.13367E-02-2.66159E-04-2.84397E-14
 -1      3014 1.04250E-02-8.80565E-04-2.56254E-14
 -1      3015 7.65544E-03-4.18553E-04-1.68167E-14
 -1      3016 1.04762E-02-8.86562E-04-2.59344E-14
 -1      3017 8.18694E-03-7.05220E-04-1.78201E-14
 -1      3018 8.05924E-03-6.46453E-04-1.73497E-14
 -1      3019 6.90700E-03-1.47083E-04-1.57548E-14
 -1      3020 1.06382E-02 2.72199E-05-2.70794E-14
 -1      3021 1.41451E-02-3.54348E-04-5.45149E-14
 -1      3022 1.40290E-02-3.30973E-04-5.36384E-14
 -1      3023 1.41714E-02-3.94097E-04-5.44586E-14
 -1      3024 1.10208E-02-1.53659E-04-2.78980E-14
 -1      3025 9.73144E-03 5.45428E-04-2.41163E-14
 -1      3026 9.83721E-03 4.98988E-04-2.46715E-14
 -1      3027 9.64280E-03 5.99110E-04-2.38061E-14
 -1      3028 1.14834E-02-3.88037E-04-2.86420E-14
 -1      3029 1.16015E-02-3.50500E-04-2.89408E-14
 -1      3030 1.45513E-02-1.05288E-03-5.34470E-14
 -1      3031 8.40713E-03 5.01211E-04-1.88203E-14
 -1      3032 1.11962E-02-4.78885E-04-2.78069E-14
 -1      3033 1.11210E-02-5.29405E-04-2.78226E-14
 -1      3034 1.13252E-02-4.63271E-04-2.85543E-14
 -1      3035 7.00558E-03-1.77164E-04-1.60005E-14
 -1      3036 6.93989E-03-1.64853E-04-1.56362E-14
 -1      3037 7.03995E-03-1.89370E-04-1.58109E-14
 -1      3038 1.15489E-02-3.20163E-04-2.91315E-14
 -1      3039 1.15731E-02-3.27372E-04-2.88930E-14
 -1      3040 1.16248E-02-3.38897E-04-2.93789E-14
 -1      3041 9.82954E-04 2.75266E-04-2.64911E-16
 -1      3042 1.07588E-02-6.76027E-04-2.65458E-14
 -1      3043 9.27919E-03-1.29845E-03-2.10758E-14
 -1      3044 1.43971E-02-1.03559E-03-5.21406E-14
 -1      3045 1.44775E-02-1.01289E-03-5.29977E-14
 -1      3046 1.43468E-02-9.72573E-04-5.20338E-14
 -1      3047 1.43006E-02-1.01833E-03-5.13609E-14
 -1      3048 9.35184E-03 7.11214E-04-2.24760E-14
 -1      3049 7.59939E-03 8.92180E-05-1.69147E-14
 -1      3050 8.74061E-03 6.70429E-04-1.98958E-14
 -1      3051 8.79090E-03 7.04465E-04-2.00646E-14
 -1      3052 8.64602E-03 6.37732E-04-1.95263E-14
 -1      3053 1.42136E-02-4.65553E-04-5.43018E-14
 -1      3054 1.41875E-02-4.26580E-04-5.43608E-14
 -1      3055 1.40719E-02-4.03347E-04-5.34853E-14
 -1      3056 1.41044E-02-4.67466E-04-5.32845E-14
 -1      3057 7.79253E-04-5.30423E-05-2.23115E-16
 -1      3058 7.80445E-04-7.51926E-05-2.21882E-16
 -1      3059 8.99812E-04-9.68571E-05-2.81527E-16
 -1      3060 8.96906E-04-4.73986E-05-2.84291E-16
 -1      3061 7.27938E-03-2.60702E-04-1.63070E-14
 -1      3062 6.97947E-03-1.20806E-04-1.58270E-14
 -1      3063 8.98636E-03 7.53878E-04-2.08939E-14
 -1      3064 9.12770E-03 7.57651E-04-2.15342E-14
 -1      3065 1.04046E-03 2.42698E-04-3.14459E-16
 -1      3066 1.03394E-03 2.11014E-04-3.22930E-16
 -1      3067 7.85607E-04-1.87246E-04-2.01702E-16
 -1      3068 7.93379E-04-2.10770E-04-1.97569E-16
 -1      3069 8.94282E-04-2.32862E-04-2.42970E-16
 -1      3070 9.03666E-04-1.94549E-04-2.61726E-16
 -1      3071 1.73190E-03-3.38296E-04-8.22950E-16
 -1      3072 1.87559E-03-3.47990E-04-9.58692E-16
 -1      3073 2.01926E-03-3.55883E-04-1.10612E-15
 -1      3074 2.16292E-03-3.62122E-04-1.26472E-15
 -1      3075 1.94051E-03-3.16545E-04-1.04396E-15
 -1      3076 2.30653E-03-3.66972E-04-1.43472E-15
 -1      3077 2.45009E-03-3.70550E-04-1.61636E-15
 -1      3078 2.22851E-03-3.28361E-04-1.36237E-15
 -1      3079 2.59358E-03-3.73064E-04-1.80970E-15
 -1      3080 2.73701E-03-3.74602E-04-2.01491E-15
 -1      3081 2.51639E-03-3.35176E-04-1.72635E-15
 -1      3082 2.88038E-03-3.75322E-04-2.23187E-15
 -1      3083 3.02367E-03-3.75288E-04-2.46098E-15
 -1      3084 2.80397E-03-3.38137E-04-2.13718E-15
 -1      3085 3.16691E-03-3.74616E-04-2.70214E-15
 -1      3086 3.31007E-03-3.73348E-04-2.95484E-15
 -1      3087 3.09114E-03-3.38119E-04-2.59607E-15
 -1      3088 3.45317E-03-3.71569E-04-3.21910E-15
 -1      3089 3.59620E-03-3.69307E-04-3.49433E-15
 -1      3090 3.37783E-03-3.35764E-04-3.10166E-15
 -1      3091 3.73916E-03-3.66623E-04-3.78132E-15
 -1      3092 3.88204E-03-3.63534E-04-4.08023E-15
 -1      3093 3.66398E-03-3.31527E-04-3.65312E-15
 -1      3094 4.02482E-03-3.60089E-04-4.38945E-15
 -1      3095 4.16752E-03-3.56301E-04-4.70963E-15
 -1      3096 3.94949E-03-3.25736E-04-4.25026E-15
 -1      3097 4.31010E-03-3.52216E-04-5.04112E-15
 -1      3098 4.45258E-03-3.47846E-04-5.38308E-15
 -1      3099 4.23425E-03-3.18642E-04-4.89132E-15
 -1      3100 4.59490E-03-3.43250E-04-5.73616E-15
 -1      3101 4.73708E-03-3.38442E-04-6.10044E-15
 -1      3102 4.51808E-03-3.10479E-04-5.57662E-15
 -1      3103 4.87907E-03-3.33507E-04-6.47593E-15
 -1      3104 5.02088E-03-3.28471E-04-6.86284E-15
 -1      3105 4.80076E-03-3.01528E-04-6.30552E-15
 -1      3106 5.16244E-03-3.23457E-04-7.26003E-15
 -1      3107 5.30380E-03-3.18511E-04-7.66935E-15
 -1      3108 5.08202E-03-2.92187E-04-7.08010E-15
 -1      3109 5.44485E-03-3.13811E-04-8.09124E-15
 -1      3110 5.58568E-03-3.09435E-04-8.52443E-15
 -1      3111 5.36153E-03-2.83044E-04-7.90103E-15
 -1      3112 5.72618E-03-3.05629E-04-8.96941E-15
 -1      3113 5.86650E-03-3.02520E-04-9.42792E-15
 -1      3114 5.63898E-03-2.74951E-04-8.76989E-15
 -1      3115 6.00654E-03-3.00427E-04-9.89939E-15
 -1      3116 6.14658E-03-2.99567E-04-1.03844E-14
 -1      3117 5.91418E-03-2.69098E-04-9.68850E-15
 -1      3118 6.28655E-03-3.00312E-04-1.08827E-14
 -1      3119 6.42694E-03-3.03048E-04-1.13928E-14
 -1      3120 6.18727E-03-2.67074E-04-1.06598E-14
 -1      3121 6.56783E-03-3.08157E-04-1.19165E-14
 -1      3122 6.71003E-03-3.16377E-04-1.24539E-14
 -1      3123 6.45914E-03-2.70956E-04-1.16841E-14
 -1      3124 6.85387E-03-3.28014E-04-1.30031E-14
 -1      3125 7.00068E-03-3.44523E-04-1.35641E-14
 -1      3126 6.73218E-03-2.83559E-04-1.27585E-14
 -1      3127 7.15130E-03-3.66053E-04-1.41379E-14
 -1      3128 7.30752E-03-3.95652E-04-1.47239E-14
 -1      3129 7.01153E-03-3.09118E-04-1.38831E-14
 -1      3130 7.47131E-03-4.33125E-04-1.53224E-14
 -1      3131 7.64379E-03-4.84270E-04-1.59352E-14
 -1      3132 7.30754E-03-3.55982E-04-1.50570E-14
 -1      3133 7.86197E-03-5.57404E-04-1.67058E-14
 -1      3134 7.66545E-03-4.48370E-04-1.64235E-14
 -1      3135 7.46510E-03-3.58709E-04-1.60471E-14
 -1      3136 6.90947E-03-1.17577E-04-1.53891E-14
 -1      3137 6.98457E-03-9.91777E-05-1.55294E-14
 -1      3138 6.88313E-03-1.47770E-04-1.54469E-14
 -1      3139 6.87264E-03-1.37115E-04-1.53782E-14
 -1      3140 1.15863E-03-2.76171E-04-3.87602E-16
 -1      3141 1.30153E-03-2.95689E-04-4.80288E-16
 -1      3142 1.11708E-02-6.35821E-04-2.89020E-14
 -1      3143 1.13353E-02-6.17371E-04-2.98127E-14
 -1      3144 1.14923E-02-6.09677E-04-3.07380E-14
 -1      3145 1.16437E-02-6.08435E-04-3.16726E-14
 -1      3146 1.14691E-02-5.61106E-04-3.03355E-14
 -1      3147 1.17908E-02-6.13594E-04-3.26187E-14
 -1      3148 1.19351E-02-6.22977E-04-3.35763E-14
 -1      3149 1.17562E-02-5.68590E-04-3.22089E-14
 -1      3150 1.20774E-02-6.36324E-04-3.45451E-14
 -1      3151 1.22186E-02-6.52563E-04-3.55279E-14
 -1      3152 1.20319E-02-5.93082E-04-3.41282E-14
 -1      3153 1.23589E-02-6.71335E-04-3.65221E-14
 -1      3154 1.24990E-02-6.92084E-04-3.75254E-14
 -1      3155 1.23041E-02-6.28280E-04-3.60945E-14
 -1      3156 1.26390E-02-7.14414E-04-3.85454E-14
 -1      3157 1.27791E-02-7.38023E-04-3.95773E-14
 -1      3158 1.25764E-02-6.70725E-04-3.81101E-14
 -1      3159 1.29194E-02-7.62548E-04-4.06237E-14
 -1      3160 1.30599E-02-7.87808E-04-4.16816E-14
 -1      3161 1.28505E-02-7.17925E-04-4.01759E-14
 -1      3162 1.32007E-02-8.13502E-04-4.27480E-14
 -1      3163 1.33418E-02-8.39519E-04-4.38265E-14
 -1      3164 1.31268E-02-7.67965E-04-4.22908E-14
 -1      3165 1.34831E-02-8.65626E-04-4.49186E-14
 -1      3166 1.36246E-02-8.91751E-04-4.60191E-14
 -1      3167 1.34052E-02-8.19352E-04-4.44495E-14
 -1      3168 1.37664E-02-9.17726E-04-4.71287E-14
 -1      3169 1.39083E-02-9.43494E-04-4.82487E-14
 -1      3170 1.36856E-02-8.70956E-04-4.66490E-14
 -1      3171 1.40331E-02-9.68649E-04-4.92268E-14
 -1      3172 1.41754E-02-9.93785E-04-5.03648E-14
 -1      3173 1.41990E-02-9.71035E-04-5.07030E-14
 -1      3174 1.39502E-02-9.21599E-04-4.87345E-14
 -1      3175 2.11120E-03 3.94944E-04-1.15650E-15
 -1      3176 1.96795E-03 3.87691E-04-1.00577E-15
 -1      3177 1.06028E-02 7.34948E-05-2.74341E-14
 -1      3178 1.07992E-02-3.11716E-05-2.79208E-14
 -1      3179 3.25559E-03 4.10477E-04-2.76649E-15
 -1      3180 3.11262E-03 4.11433E-04-2.52633E-15
 -1      3181 2.96965E-03 4.11754E-04-2.29675E-15
 -1      3182 2.82666E-03 4.11386E-04-2.07894E-15
 -1      3183 3.03673E-03 3.74719E-04-2.43299E-15
 -1      3184 3.82755E-03 4.01695E-04-3.84545E-15
 -1      3185 3.68453E-03 4.04540E-04-3.55706E-15
 -1      3186 4.11370E-03 3.94964E-04-4.45736E-15
 -1      3187 3.97060E-03 3.98495E-04-4.14553E-15
 -1      3188 3.89536E-03 3.63579E-04-4.02131E-15
 -1      3189 4.40006E-03 3.87087E-04-5.11925E-15
 -1      3190 4.25684E-03 3.91153E-04-4.78137E-15
 -1      3191 4.18114E-03 3.56751E-04-4.64685E-15
 -1      3192 4.68676E-03 3.78395E-04-5.83217E-15
 -1      3193 4.54335E-03 3.82822E-04-5.46987E-15
 -1      3194 4.46678E-03 3.48847E-04-5.32274E-15
 -1      3195 4.97398E-03 3.69334E-04-6.59335E-15
 -1      3196 4.83028E-03 3.73880E-04-6.20696E-15
 -1      3197 4.75235E-03 3.40177E-04-6.04834E-15
 -1      3198 5.26200E-03 3.60546E-04-7.40484E-15
 -1      3199 5.11785E-03 3.64859E-04-6.99213E-15
 -1      3200 5.03803E-03 3.31161E-04-6.82226E-15
 -1      3201 5.55128E-03 3.52967E-04-8.26706E-15
 -1      3202 5.40643E-03 3.56535E-04-7.82974E-15
 -1      3203 5.32410E-03 3.22413E-04-7.64650E-15
 -1      3204 5.84255E-03 3.47931E-04-9.17776E-15
 -1      3205 5.69660E-03 3.50028E-04-8.71643E-15
 -1      3206 5.61108E-03 3.14824E-04-8.52127E-15
 -1      3207 6.13687E-03 3.47280E-04-1.01394E-14
 -1      3208 5.98925E-03 3.46908E-04-9.65212E-15
 -1      3209 5.89982E-03 3.09671E-04-9.44573E-15
 -1      3210 6.43580E-03 3.53470E-04-1.11484E-14
 -1      3211 6.28566E-03 3.49311E-04-1.06381E-14
 -1      3212 6.19164E-03 3.08736E-04-1.04191E-14
 -1      3213 6.74135E-03 3.69659E-04-1.22079E-14
 -1      3214 6.58764E-03 3.60035E-04-1.16714E-14
 -1      3215 6.48847E-03 3.14459E-04-1.14406E-14
 -1      3216 7.05586E-03 3.99665E-04-1.33160E-14
 -1      3217 6.89743E-03 3.82594E-04-1.27556E-14
 -1      3218 6.79298E-03 3.30134E-04-1.25111E-14
 -1      3219 7.38124E-03 4.47570E-04-1.44801E-14
 -1      3220 7.21727E-03 4.21037E-04-1.38911E-14
 -1      3221 7.10828E-03 3.60037E-04-1.36324E-14
 -1      3222 7.71758E-03 5.16342E-04-1.57040E-14
 -1      3223 7.54839E-03 4.79195E-04-1.50845E-14
 -1      3224 7.43712E-03 4.09264E-04-1.48105E-14
 -1      3225 8.06122E-03 6.04809E-04-1.69903E-14
 -1      3226 7.88920E-03 5.58613E-04-1.63388E-14
 -1      3227 7.77986E-03 4.82322E-04-1.60469E-14
 -1      3228 8.40381E-03 7.01558E-04-1.83445E-14
 -1      3229 8.23347E-03 6.53660E-04-1.76582E-14
 -1      3230 8.13190E-03 5.78756E-04-1.73460E-14
 -1      3231 8.73608E-03 7.81525E-04-1.97713E-14
 -1      3232 8.57149E-03 7.46186E-04-1.90500E-14
 -1      3233 8.48232E-03 6.84773E-04-1.87141E-14
 -1      3234 9.10462E-03 7.98593E-04-2.15063E-14
 -1      3235 8.94442E-03 7.95424E-04-2.07377E-14
 -1      3236 9.69458E-03 6.67642E-04-2.45226E-14
 -1      3237 9.53011E-03 7.25312E-04-2.36823E-14
 -1      3238 1.00327E-02 5.31123E-04-2.62572E-14
 -1      3239 9.86241E-03 6.00889E-04-2.53810E-14
 -1      3240 9.80266E-03 5.95425E-04-2.49609E-14
 -1      3241 1.03768E-02 3.92886E-04-2.80613E-14
 -1      3242 1.02049E-02 4.60670E-04-2.71514E-14
 -1      3243 1.01527E-02 4.46026E-04-2.67125E-14
 -1      3244 1.07175E-02 2.70413E-04-2.99289E-14
 -1      3245 1.05485E-02 3.29184E-04-2.89873E-14
 -1      3246 1.05045E-02 3.06880E-04-2.85321E-14
 -1      3247 1.10481E-02 1.68859E-04-3.18641E-14
 -1      3248 1.08843E-02 2.17048E-04-3.08897E-14
 -1      3249 1.08469E-02 1.90733E-04-3.04135E-14
 -1      3250 1.13677E-02 8.70168E-05-3.38555E-14
 -1      3251 1.12094E-02 1.25798E-04-3.28522E-14
 -1      3252 1.11753E-02 9.79711E-05-3.23582E-14
 -1      3253 1.16773E-02 2.09093E-05-3.59062E-14
 -1      3254 1.15237E-02 5.23323E-05-3.48749E-14
 -1      3255 1.14904E-02 2.45689E-05-3.43599E-14
 -1      3256 1.19792E-02-3.35965E-05-3.80050E-14
 -1      3257 1.18291E-02-7.52079E-06-3.69498E-14
 -1      3258 1.17948E-02-3.47910E-05-3.64176E-14
 -1      3259 1.22755E-02-8.00209E-05-4.01524E-14
 -1      3260 1.21279E-02-5.76078E-05-3.90734E-14
 -1      3261 1.20916E-02-8.44234E-05-3.85263E-14
 -1      3262 1.25681E-02-1.21211E-04-4.23354E-14
 -1      3263 1.24222E-02-1.01113E-04-4.12394E-14
 -1      3264 1.23835E-02-1.27607E-04-4.06758E-14
 -1      3265 1.28583E-02-1.59377E-04-4.45504E-14
 -1      3266 1.27134E-02-1.40558E-04-4.34388E-14
 -1      3267 1.26724E-02-1.66841E-04-4.28624E-14
 -1      3268 1.31468E-02-1.96187E-04-4.67912E-14
 -1      3269 1.30027E-02-1.77869E-04-4.56685E-14
 -1      3270 1.29594E-02-2.03990E-04-4.50790E-14
 -1      3271 1.34344E-02-2.32873E-04-4.90489E-14
 -1      3272 1.32907E-02-2.14485E-04-4.79182E-14
 -1      3273 1.32456E-02-2.40428E-04-4.73190E-14
 -1      3274 1.37211E-02-2.70351E-04-5.13206E-14
 -1      3275 1.35778E-02-2.51470E-04-5.01822E-14
 -1      3276 1.35312E-02-2.77158E-04-4.95751E-14
 -1      3277 1.39335E-02-3.11918E-04-5.29173E-14
 -1      3278 1.38170E-02-2.89039E-04-5.20394E-14
 -1      3279 1.37695E-02-3.14366E-04-5.14253E-14
 -1      3280 1.39603E-02-3.51818E-04-5.28618E-14
 -1      3281 1.82464E-03 3.78600E-04-8.65641E-16
 -1      3282 1.68127E-03 3.67507E-04-7.36824E-16
 -1      3283 1.88848E-03 3.47727E-04-9.50439E-16
 -1      3284 1.41706E-02-7.60244E-04-5.16931E-14
 -1      3285 1.41514E-02-7.23931E-04-5.17625E-14
 -1      3286 1.13058E-02-2.47945E-04-2.88982E-14
 -1      3287 1.14398E-02-2.88760E-04-2.91042E-14
 -1      3288 1.41307E-02-6.87072E-04-5.18315E-14
 -1      3289 1.41089E-02-6.50150E-04-5.18999E-14
 -1      3290 1.40209E-02-6.86255E-04-5.08182E-14
 -1      3291 1.09787E-02-1.20829E-04-2.82377E-14
 -1      3292 1.11345E-02-1.84778E-04-2.85768E-14
 -1      3293 1.42068E-02-8.34634E-04-5.15536E-14
 -1      3294 1.41892E-02-7.97306E-04-5.16235E-14
 -1      3295 1.40599E-02-7.59356E-04-5.06783E-14
 -1      3296 1.42396E-02-9.10345E-04-5.14089E-14
 -1      3297 1.42235E-02-8.72272E-04-5.14815E-14
 -1      3298 1.40944E-02-8.33285E-04-5.05335E-14
 -1      3299 3.54154E-03 4.06978E-04-3.28161E-15
 -1      3300 3.39856E-03 4.08979E-04-3.01790E-15
 -1      3301 3.32317E-03 3.72902E-04-2.91560E-15
 -1      3302 3.60937E-03 3.69062E-04-3.44406E-15
 -1      3303 1.01713E-03 6.79956E-05-3.48652E-16
 -1      3304 1.01598E-03 4.10973E-05-3.51051E-16
 -1      3305 1.05978E-02-8.05913E-04-2.63199E-14
 -1      3306 9.29652E-03 7.34219E-04-2.22963E-14
 -1      3307 9.46798E-03 6.79964E-04-2.30781E-14
 -1      3308 9.24534E-03 7.53096E-04-2.21126E-14
 -1      3309 1.08033E-02-7.26918E-04-2.71572E-14
 -1      3310 1.09887E-02-6.79666E-04-2.80377E-14
 -1      3311 1.11473E-02-5.97845E-04-2.85427E-14
 -1      3312 1.07656E-02-7.10060E-04-2.68388E-14
 -1      3313 1.14499E-03 3.09796E-04-3.48395E-16
 -1      3314 1.08246E-03 2.70983E-04-3.27809E-16
 -1      3315 1.20163E-03 2.72216E-04-4.06007E-16
 -1      3316 1.28817E-03 3.31499E-04-4.35592E-16
 -1      3317 1.16500E-02-3.57195E-04-2.95872E-14
 -1      3318 1.16170E-02-3.65957E-04-2.93875E-14
 -1      3319 1.44476E-03-3.12391E-04-5.83762E-16
 -1      3320 1.58829E-03-3.26486E-04-6.98009E-16
 -1      3321 1.65270E-03-2.98304E-04-7.70542E-16
 -1      3322 7.30460E-03-2.81677E-04-1.59905E-14
 -1      3323 7.15995E-03-2.28701E-04-1.58654E-14
 -1      3324 7.12491E-03-6.18495E-05-1.58191E-14
 -1      3325 7.29273E-03-9.37993E-06-1.61288E-14
 -1      3326 8.30508E-03 4.79777E-04-1.83673E-14
 -1      3327 8.47182E-03 5.64397E-04-1.88990E-14
 -1      3328 1.15631E-02-3.87610E-04-2.92871E-14
 -1      3329 1.14872E-02-4.18148E-04-2.91804E-14
 -1      3330 1.16361E-02-3.91338E-04-2.99359E-14
 -1      3331 1.09596E-02-6.05201E-04-2.73873E-14
 -1      3332 7.46926E-03 6.52291E-05-1.64025E-14
 -1      3333 7.63869E-03 1.41574E-04-1.67164E-14
 -1      3334 1.01539E-03 1.44080E-05-3.52447E-16
 -1      3335 1.01536E-03-1.21809E-05-3.53341E-16
 -1      3336 1.13611E-03 3.00538E-05-4.28192E-16
 -1      3337 7.73933E-03 2.10648E-04-1.68013E-14
 -1      3338 7.82811E-03 2.81920E-04-1.68851E-14
 -1      3339 7.59513E-03 1.81524E-04-1.62876E-14
 -1      3340 1.15343E-03 2.11141E-04-3.99230E-16
 -1      3341 1.02870E-03 1.80685E-04-3.30045E-16
 -1      3342 1.02459E-03 1.51413E-04-3.35913E-16
 -1      3343 9.98017E-03 4.28660E-04-2.53337E-14
 -1      3344 1.01245E-02 3.61513E-04-2.60067E-14
 -1      3345 9.88777E-03 4.89445E-04-2.50137E-14
 -1      3346 2.68365E-03 4.10201E-04-1.87231E-15
 -1      3347 2.54061E-03 4.08123E-04-1.67666E-15
 -1      3348 2.75002E-03 3.73981E-04-1.99519E-15
 -1      3349 6.85129E-03-1.21618E-04-1.50867E-14
 -1      3350 6.83447E-03-1.03497E-04-1.47971E-14
 -1      3351 6.80446E-03-1.23434E-04-1.47868E-14
 -1      3352 6.92712E-03-7.12774E-05-1.49511E-14
 -1      3353 7.02120E-03-6.97817E-05-1.53824E-14
 -1      3354 7.05926E-03-3.43977E-05-1.52327E-14
 -1      3355 1.36574E-03-2.72006E-04-5.40339E-16
 -1      3356 1.02413E-03-1.48682E-04-3.44437E-16
 -1      3357 1.02811E-03-1.77871E-04-3.39450E-16
 -1      3358 1.12674E-02-2.19660E-04-2.92450E-14
 -1      3359 1.04944E-02 1.48381E-04-2.73004E-14
 -1      3360 1.06642E-02 8.80016E-05-2.81437E-14
 -1      3361 1.03999E-02 2.22823E-04-2.71640E-14
 -1      3362 9.95958E-04-2.53497E-04-2.93453E-16
 -1      3363 1.09320E-02-7.18606E-05-2.86000E-14
 -1      3364 8.86714E-03 7.61841E-04-2.03756E-14
 -1      3365 9.25973E-03 7.77332E-04-2.22732E-14
 -1      3366 9.42204E-03 7.41028E-04-2.30796E-14
 -1      3367 1.40373E-02-5.38664E-04-5.21003E-14
 -1      3368 1.40116E-02-5.00773E-04-5.21659E-14
 -1      3369 1.15241E-02-2.96733E-04-3.00648E-14
 -1      3370 1.15359E-02-3.10674E-04-2.95965E-14
 -1      3371 1.16173E-02-3.26310E-04-3.00904E-14
 -1      3372 1.01865E-03-9.26994E-05-3.50645E-16
 -1      3373 1.02099E-03-1.20342E-04-3.48110E-16
 -1      3374 1.14380E-03-1.45373E-04-4.21673E-16
 -1      3375 1.40860E-02-6.13283E-04-5.19693E-14
 -1      3376 1.40621E-02-5.76025E-04-5.20346E-14
 -1      3377 1.39291E-02-5.39733E-04-5.10922E-14
 -1      3378 1.39772E-02-6.13306E-04-5.09577E-14
 -1      3379 9.57368E-03 6.44006E-04-2.36161E-14
 -1      3380 8.18019E-03 4.38570E-04-1.79197E-14
 -1      3381 1.14351E-02-4.50300E-04-2.91969E-14
 -1      3382 1.13814E-02-4.88058E-04-2.92120E-14
 -1      3383 1.15362E-02-4.45370E-04-2.98469E-14
 -1      3384 7.05705E-03-2.05555E-04-1.55038E-14
 -1      3385 7.32079E-03-3.15140E-04-1.56106E-14
 -1      3386 1.11156E-02-5.69063E-04-2.81256E-14
 -1      3387 2.25439E-03 4.00663E-04-1.31897E-15
 -1      3388 2.17586E-03 3.61637E-04-1.25460E-15
 -1      3389 2.39752E-03 4.04977E-04-1.49242E-15
 -1      3390 1.39956E-02-4.69482E-04-5.22703E-14
 -1      3391 1.39793E-02-4.37853E-04-5.23726E-14
 -1      3392 1.38874E-02-4.71497E-04-5.12595E-14
 -1      3393 1.01891E-03 9.51787E-05-3.45332E-16
 -1      3394 1.13873E-03 8.82287E-05-4.22581E-16
 -1      3395 1.02134E-03 1.22877E-04-3.41036E-16
 -1      3396 1.55634E-03 3.59801E-04-6.31114E-16
 -1      3397 1.41296E-03 3.44004E-04-5.22951E-16
 -1      3398 1.36924E-03 3.13909E-04-5.06648E-16
 -1      3399 1.61947E-03 3.32062E-04-7.03512E-16
 -1      3400 6.88834E-03-1.61782E-04-1.50771E-14
 -1      3401 6.88131E-03-1.53862E-04-1.52620E-14
 -1      3402 6.82667E-03-1.43918E-04-1.48921E-14
 -1      3403 8.53377E-03 6.15974E-04-1.90579E-14
 -1      3404 1.06018E-03-2.36447E-04-3.40046E-16
 -1      3405 7.33323E-03 3.99542E-05-1.59357E-14
 -1      3406 1.16718E-02-3.46922E-04-3.00780E-14
 -1      3407 1.16669E-02-3.51551E-04-2.98329E-14
 -1      3408 1.17028E-02-3.65686E-04-3.02875E-14
 -1      3409 8.76658E-03 7.26007E-04-1.99358E-14
 -1      3410 1.42080E-02-9.51719E-04-5.08888E-14
 -1      3411 1.42311E-02-9.29363E-04-5.12230E-14
 -1      3412 1.41018E-02-8.89512E-04-5.02727E-14
 -1      3413 1.40838E-02-9.27314E-04-4.99004E-14
 -1      3414 1.09352E-02-4.03913E-05-2.90777E-14
 -1      3415 1.10906E-02-1.20089E-04-2.94010E-14
 -1      3416 1.86228E-03-2.77635E-04-9.82179E-16
 -1      3417 2.00648E-03-2.84442E-04-1.13066E-15
 -1      3418 2.15074E-03-2.89896E-04-1.29021E-15
 -1      3419 2.29502E-03-2.94107E-04-1.46125E-15
 -1      3420 2.07335E-03-2.51714E-04-1.21901E-15
 -1      3421 2.43926E-03-2.97266E-04-1.64412E-15
 -1      3422 2.58344E-03-2.99457E-04-1.83826E-15
 -1      3423 2.36233E-03-2.59424E-04-1.56202E-15
 -1      3424 2.72752E-03-3.00835E-04-2.04375E-15
 -1      3425 2.87148E-03-3.01464E-04-2.26129E-15
 -1      3426 2.65116E-03-2.63469E-04-1.95114E-15
 -1      3427 3.01531E-03-3.01464E-04-2.49110E-15
 -1      3428 3.15897E-03-3.00876E-04-2.73209E-15
 -1      3429 2.93951E-03-2.64667E-04-2.38680E-15
 -1      3430 3.30246E-03-2.99793E-04-2.98503E-15
 -1      3431 3.44576E-03-2.98241E-04-3.24945E-15
 -1      3432 3.22714E-03-2.63644E-04-2.86912E-15
 -1      3433 3.58886E-03-2.96289E-04-3.52547E-15
 -1      3434 3.73173E-03-2.93952E-04-3.81307E-15
 -1      3435 3.51386E-03-2.60865E-04-3.39811E-15
 -1      3436 3.87436E-03-2.91287E-04-4.11158E-15
 -1      3437 4.01673E-03-2.88298E-04-4.42093E-15
 -1      3438 3.79948E-03-2.56666E-04-3.97307E-15
 -1      3439 4.15879E-03-2.85040E-04-4.74177E-15
 -1      3440 4.30055E-03-2.81512E-04-5.07373E-15
 -1      3441 4.08377E-03-2.51301E-04-4.59297E-15
 -1      3442 4.44193E-03-2.77776E-04-5.41596E-15
 -1      3443 4.58294E-03-2.73829E-04-5.76984E-15
 -1      3444 4.36648E-03-2.44993E-04-5.25625E-15
 -1      3445 4.72349E-03-2.69751E-04-6.13553E-15
 -1      3446 4.86358E-03-2.65540E-04-6.51202E-15
 -1      3447 4.64725E-03-2.37975E-04-5.96523E-15
 -1      3448 5.00310E-03-2.61307E-04-6.89906E-15
 -1      3449 5.14206E-03-2.57055E-04-7.29821E-15
 -1      3450 4.92567E-03-2.30552E-04-6.71884E-15
 -1      3451 5.28033E-03-2.52937E-04-7.71040E-15
 -1      3452 5.41792E-03-2.48962E-04-8.13431E-15
 -1      3453 5.20120E-03-2.23141E-04-7.51900E-15
 -1      3454 5.55468E-03-2.45334E-04-8.56934E-15
 -1      3455 5.69066E-03-2.42074E-04-9.01666E-15
 -1      3456 5.47322E-03-2.16320E-04-8.36771E-15
 -1      3457 5.82569E-03-2.39438E-04-9.47700E-15
 -1      3458 5.95988E-03-2.37463E-04-9.95071E-15
 -1      3459 5.74104E-03-2.10845E-04-9.26509E-15
 -1      3460 6.09303E-03-2.36452E-04-1.04376E-14
 -1      3461 6.22542E-03-2.36473E-04-1.09384E-14
 -1      3462 6.00395E-03-2.07645E-04-1.02146E-14
 -1      3463 6.35681E-03-2.37851E-04-1.14510E-14
 -1      3464 6.48779E-03-2.40740E-04-1.19763E-14
 -1      3465 6.26138E-03-2.07773E-04-1.12165E-14
 -1      3466 6.61807E-03-2.45434E-04-1.25142E-14
 -1      3467 6.74889E-03-2.52406E-04-1.30646E-14
 -1      3468 6.51315E-03-2.12333E-04-1.22691E-14
 -1      3469 6.87981E-03-2.61948E-04-1.36276E-14
 -1      3470 7.01329E-03-2.74978E-04-1.42026E-14
 -1      3471 6.76015E-03-2.22711E-04-1.33708E-14
 -1      3472 7.17977E-03-2.88540E-04-1.50074E-14
 -1      3473 1.12492E-02-1.90531E-04-2.97307E-14
 -1      3474 1.13994E-02-2.47250E-04-3.00582E-14
 -1      3475 1.12443E-02-1.59331E-04-3.02178E-14
 -1      3476 1.17287E-02-5.25005E-04-3.17969E-14
 -1      3477 1.18605E-02-5.36949E-04-3.27462E-14
 -1      3478 1.19909E-02-5.51605E-04-3.37093E-14
 -1      3479 1.21216E-02-5.68421E-04-3.46839E-14
 -1      3480 1.19542E-02-5.11786E-04-3.32888E-14
 -1      3481 1.22523E-02-5.87109E-04-3.56678E-14
 -1      3482 1.23839E-02-6.07364E-04-3.66646E-14
 -1      3483 1.22032E-02-5.47798E-04-3.52404E-14
 -1      3484 1.25161E-02-6.28869E-04-3.76751E-14
 -1      3485 1.26493E-02-6.51519E-04-3.86964E-14
 -1      3486 1.24576E-02-5.88870E-04-3.72380E-14
 -1      3487 1.27834E-02-6.74985E-04-3.97284E-14
 -1      3488 1.29184E-02-6.99209E-04-4.07767E-14
 -1      3489 1.27177E-02-6.33763E-04-3.92846E-14
 -1      3490 1.30543E-02-7.23897E-04-4.18361E-14
 -1      3491 1.31911E-02-7.49011E-04-4.29024E-14
 -1      3492 1.29830E-02-6.81348E-04-4.13787E-14
 -1      3493 1.33286E-02-7.74306E-04-4.39809E-14
 -1      3494 1.34668E-02-7.99757E-04-4.50721E-14
 -1      3495 1.32529E-02-7.30549E-04-4.35170E-14
 -1      3496 1.36057E-02-8.25169E-04-4.61694E-14
 -1      3497 1.37451E-02-8.50532E-04-4.72781E-14
 -1      3498 1.35266E-02-7.80440E-04-4.56932E-14
 -1      3499 4.24815E-03 3.18849E-04-4.83825E-15
 -1      3500 4.10560E-03 3.22402E-04-4.51269E-15
 -1      3501 3.96294E-03 3.25662E-04-4.19905E-15
 -1      3502 3.82013E-03 3.28621E-04-3.89744E-15
 -1      3503 4.03030E-03 2.88023E-04-4.37797E-15
 -1      3504 4.81704E-03 3.02469E-04-6.26483E-15
 -1      3505 4.67498E-03 3.06824E-04-5.89027E-15
 -1      3506 5.10092E-03 2.93561E-04-7.05152E-15
 -1      3507 4.95900E-03 2.98034E-04-6.65256E-15
 -1      3508 4.88088E-03 2.65329E-04-6.48219E-15
 -1      3509 5.38477E-03 2.84863E-04-7.88920E-15
 -1      3510 5.24281E-03 2.89146E-04-7.46378E-15
 -1      3511 5.16271E-03 2.56575E-04-7.28195E-15
 -1      3512 5.66915E-03 2.77194E-04-8.77644E-15
 -1      3513 5.52683E-03 2.80836E-04-8.32685E-15
 -1      3514 5.44406E-03 2.47914E-04-8.13169E-15
 -1      3515 5.95501E-03 2.71736E-04-9.71335E-15
 -1      3516 5.81180E-03 2.74088E-04-9.23834E-15
 -1      3517 5.72550E-03 2.40061E-04-9.03112E-15
 -1      3518 6.24391E-03 2.70171E-04-1.06986E-14
 -1      3519 6.09894E-03 2.70310E-04-1.01999E-14
 -1      3520 6.00810E-03 2.34058E-04-9.98092E-15
 -1      3521 6.53820E-03 2.74891E-04-1.17318E-14
 -1      3522 6.39020E-03 2.71502E-04-1.12090E-14
 -1      3523 6.29363E-03 2.31442E-04-1.09782E-14
 -1      3524 6.84119E-03 2.89339E-04-1.28139E-14
 -1      3525 6.68839E-03 2.80523E-04-1.22672E-14
 -1      3526 6.58483E-03 2.34522E-04-1.20235E-14
 -1      3527 7.15692E-03 3.18372E-04-1.39494E-14
 -1      3528 6.99728E-03 3.01495E-04-1.33752E-14
 -1      3529 6.88573E-03 2.46956E-04-1.31188E-14
 -1      3530 7.48930E-03 3.68480E-04-1.51404E-14
 -1      3531 7.32105E-03 3.40132E-04-1.45374E-14
 -1      3532 7.20150E-03 2.74374E-04-1.42664E-14
 -1      3533 8.20196E-03 5.52528E-04-1.77021E-14
 -1      3534 8.02058E-03 4.96578E-04-1.70379E-14
 -1      3535 8.52072E-03 6.49375E-04-1.89290E-14
 -1      3536 8.34004E-03 5.88869E-04-1.82325E-14
 -1      3537 9.52222E-03 6.88318E-04-2.34969E-14
 -1      3538 9.99797E-03 4.73579E-04-2.57563E-14
 -1      3539 9.81766E-03 5.55308E-04-2.48898E-14
 -1      3540 1.09816E-02 1.10915E-04-3.08970E-14
 -1      3541 1.08135E-02 1.60941E-04-2.99409E-14
 -1      3542 1.13052E-02 2.86471E-05-3.28506E-14
 -1      3543 1.11456E-02 6.72787E-05-3.18673E-14
 -1      3544 1.11201E-02 3.42452E-05-3.13784E-14
 -1      3545 1.16139E-02-3.58283E-05-3.48625E-14
 -1      3546 1.14612E-02-5.21553E-06-3.38494E-14
 -1      3547 1.14356E-02-3.66043E-05-3.33424E-14
 -1      3548 1.19121E-02-8.86515E-05-3.69269E-14
 -1      3549 1.17641E-02-6.33354E-05-3.58881E-14
 -1      3550 1.17364E-02-9.26436E-05-3.53629E-14
 -1      3551 1.22035E-02-1.33823E-04-3.90421E-14
 -1      3552 1.20584E-02-1.11954E-04-3.79790E-14
 -1      3553 1.20277E-02-1.39663E-04-3.74366E-14
 -1      3554 1.24908E-02-1.74214E-04-4.11966E-14
 -1      3555 1.23475E-02-1.54454E-04-4.01154E-14
 -1      3556 1.23135E-02-1.81070E-04-3.95564E-14
 -1      3557 1.27759E-02-2.11894E-04-4.33848E-14
 -1      3558 1.26335E-02-1.93285E-04-4.22856E-14
 -1      3559 1.25963E-02-2.19269E-04-4.17138E-14
 -1      3560 1.30601E-02-2.48353E-04-4.56014E-14
 -1      3561 1.29180E-02-2.30203E-04-4.44889E-14
 -1      3562 1.28780E-02-2.55866E-04-4.39029E-14
 -1      3563 1.33439E-02-2.84672E-04-4.78414E-14
 -1      3564 1.32020E-02-2.66482E-04-4.67200E-14
 -1      3565 1.31595E-02-2.91984E-04-4.61220E-14
 -1      3566 1.36279E-02-3.21631E-04-5.00980E-14
 -1      3567 1.34859E-02-3.03030E-04-4.89690E-14
 -1      3568 1.34413E-02-3.28406E-04-4.83615E-14
 -1      3569 1.95347E-03 3.16182E-04-1.03723E-15
 -1      3570 1.80949E-03 3.08121E-04-8.95402E-16
 -1      3571 1.01588E-03-3.88004E-05-3.53287E-16
 -1      3572 1.01695E-03-6.55589E-05-3.52433E-16
 -1      3573 1.13849E-03-8.56455E-05-4.28029E-16
 -1      3574 1.39817E-02-8.31195E-04-4.95162E-14
 -1      3575 1.39659E-02-7.94256E-04-4.95917E-14
 -1      3576 1.39490E-02-7.57743E-04-4.96659E-14
 -1      3577 1.39309E-02-7.21477E-04-4.97381E-14
 -1      3578 1.38380E-02-7.55671E-04-4.86582E-14
 -1      3579 1.39116E-02-6.85396E-04-4.98099E-14
 -1      3580 1.38910E-02-6.49332E-04-4.98806E-14
 -1      3581 1.38025E-02-6.84109E-04-4.88059E-14
 -1      3582 1.28812E-03-2.33139E-04-4.97418E-16
 -1      3583 1.43102E-03-2.47182E-04-6.02722E-16
 -1      3584 1.17291E-02-3.95113E-04-3.07692E-14
 -1      3585 1.16880E-02-4.16389E-04-3.06628E-14
 -1      3586 1.06169E-02 2.03588E-04-2.87323E-14
 -1      3587 1.04380E-02 2.70035E-04-2.78133E-14
 -1      3588 1.01796E-02 3.93463E-04-2.66401E-14
 -1      3589 3.10419E-03 3.37532E-04-2.57060E-15
 -1      3590 2.96065E-03 3.37839E-04-2.33929E-15
 -1      3591 1.57443E-03-2.59174E-04-7.18596E-16
 -1      3592 1.71825E-03-2.69254E-04-8.45041E-16
 -1      3593 1.49720E-03-2.21111E-04-6.66730E-16
 -1      3594 1.12858E-02-5.36575E-04-2.89914E-14
 -1      3595 1.06484E-03-2.15357E-04-3.50726E-16
 -1      3596 7.19036E-03 2.29432E-05-1.53943E-14
 -1      3597 7.34373E-03 8.87088E-05-1.56583E-14
 -1      3598 8.03966E-03 3.98156E-04-1.74012E-14
 -1      3599 8.22184E-03 5.02859E-04-1.79078E-14
 -1      3600 4.53283E-03 3.11026E-04-5.52741E-15
 -1      3601 4.39055E-03 3.15054E-04-5.17576E-15
 -1      3602 4.31473E-03 2.81334E-04-5.03109E-15
 -1      3603 4.59825E-03 2.73691E-04-5.73204E-15
 -1      3604 7.04938E-03-2.19333E-04-1.51201E-14
 -1      3605 6.95026E-03-1.84334E-04-1.50686E-14
 -1      3606 1.39782E-02-4.11280E-04-5.25699E-14
 -1      3607 1.39615E-02-3.78996E-04-5.26675E-14
 -1      3608 1.38664E-02-3.60262E-04-5.19496E-14
 -1      3609 1.38695E-02-4.13865E-04-5.15587E-14
 -1      3610 1.14066E-02-5.19253E-04-2.96390E-14
 -1      3611 7.43091E-03 1.44971E-04-1.57361E-14
 -1      3612 7.51280E-03 2.05341E-04-1.58141E-14
 -1      3613 7.27510E-03 1.20065E-04-1.51963E-14
 -1      3614 1.27962E-03 2.41975E-04-4.75070E-16
 -1      3615 1.27358E-03 2.07869E-04-4.84150E-16
 -1      3616 7.03262E-03-2.36803E-04-1.47364E-14
 -1      3617 2.81700E-03 3.37491E-04-2.12004E-15
 -1      3618 2.67324E-03 3.36435E-04-1.91222E-15
 -1      3619 2.88450E-03 3.00818E-04-2.24677E-15
 -1      3620 6.78027E-03-1.30110E-04-1.46096E-14
 -1      3621 6.74153E-03-1.15253E-04-1.43264E-14
 -1      3622 6.76526E-03-1.36957E-04-1.44300E-14
 -1      3623 8.67905E-03 7.04819E-04-1.95614E-14
 -1      3624 6.84694E-03-8.17133E-05-1.46545E-14
 -1      3625 6.86438E-03-5.50408E-05-1.45110E-14
 -1      3626 6.77702E-03-8.81751E-05-1.43607E-14
 -1      3627 1.13603E-03-2.75799E-05-4.29913E-16
 -1      3628 7.06969E-03 8.54783E-06-1.49636E-14
 -1      3629 1.38214E-02-5.40726E-04-5.00860E-14
 -1      3630 1.37959E-02-5.03923E-04-5.01493E-14
 -1      3631 1.15468E-02-5.19629E-04-3.05633E-14
 -1      3632 1.16643E-02-4.82927E-04-3.10835E-14
 -1      3633 6.87032E-03-1.71146E-04-1.47021E-14
 -1      3634 1.38523E-02-8.76600E-04-4.80953E-14
 -1      3635 1.39757E-02-9.01344E-04-4.90681E-14
 -1      3636 1.39851E-02-8.82597E-04-4.92540E-14
 -1      3637 1.37709E-02-8.31081E-04-4.76082E-14
 -1      3638 7.88718E-03 3.54777E-04-1.68714E-14
 -1      3639 3.74500E-03 2.93561E-04-3.77304E-15
 -1      3640 3.67720E-03 3.31228E-04-3.60799E-15
 -1      3641 3.53413E-03 3.33472E-04-3.33080E-15
 -1      3642 7.86785E-03 4.02219E-04-1.66323E-14
 -1      3643 7.81200E-03 4.39654E-04-1.62908E-14
 -1      3644 7.63589E-03 3.97932E-04-1.56609E-14
 -1      3645 7.67510E-03 3.00063E-04-1.61347E-14
 -1      3646 7.51102E-03 3.20644E-04-1.53752E-14
 -1      3647 9.68329E-03 6.12858E-04-2.42363E-14
 -1      3648 1.26173E-03 1.10061E-04-5.03544E-16
 -1      3649 1.25955E-03 7.87104E-05-5.07813E-16
 -1      3650 1.15112E-02-2.76776E-04-3.05597E-14
 -1      3651 1.16120E-02-2.99746E-04-3.10623E-14
 -1      3652 1.15044E-02-2.52801E-04-3.10569E-14
 -1      3653 1.07655E-02 1.12561E-04-2.92000E-14
 -1      3654 1.73117E-03 2.69077E-04-8.40379E-16
 -1      3655 1.66564E-03 2.98259E-04-7.64254E-16
 -1      3656 2.09748E-03 3.22702E-04-1.18982E-15
 -1      3657 2.01944E-03 2.84003E-04-1.12573E-15
 -1      3658 2.24150E-03 3.27808E-04-1.35376E-15
 -1      3659 1.37712E-02-3.41701E-04-5.12329E-14
 -1      3660 1.16950E-02-3.33961E-04-3.10297E-14
 -1      3661 1.16858E-02-3.41780E-04-3.05537E-14
 -1      3662 1.17447E-02-3.55687E-04-3.10163E-14
 -1      3663 1.37613E-02-6.13088E-04-4.89473E-14
 -1      3664 1.38691E-02-6.13378E-04-4.99493E-14
 -1      3665 1.38459E-02-5.77217E-04-5.00188E-14
 -1      3666 1.38127E-03 6.67340E-05-6.01163E-16
 -1      3667 1.25811E-03 4.75699E-05-5.10998E-16
 -1      3668 1.25738E-03 1.66503E-05-5.13085E-16
 -1      3669 1.39942E-02-8.63996E-04-4.94400E-14
 -1      3670 1.17629E-02-3.86431E-04-3.10236E-14
 -1      3671 1.18276E-02-4.10042E-04-3.17640E-14
 -1      3672 1.17874E-02-3.79879E-04-3.12772E-14
 -1      3673 1.18445E-03-2.14732E-04-4.30008E-16
 -1      3674 1.25068E-03-1.93024E-04-4.83717E-16
 -1      3675 1.34504E-03 2.91769E-04-5.00061E-16
 -1      3676 1.30275E-03 2.63004E-04-4.82551E-16
 -1      3677 1.42299E-03 2.58105E-04-5.77175E-16
 -1      3678 1.47011E-03 3.01701E-04-5.93438E-16
 -1      3679 1.14425E-03 1.48185E-04-4.12986E-16
 -1      3680 1.24276E-03-1.28482E-04-4.93786E-16
 -1      3681 1.24623E-03-1.60401E-04-4.89531E-16
 -1      3682 1.34936E-03-1.75351E-04-5.62267E-16
 -1      3683 2.46306E-03 3.69953E-04-1.60278E-15
 -1      3684 1.37797E-02-4.73377E-04-5.02506E-14
 -1      3685 1.37630E-02-4.42449E-04-5.03524E-14
 -1      3686 1.36727E-02-4.75101E-04-4.92486E-14
 -1      3687 3.39094E-03 3.35294E-04-3.06578E-15
 -1      3688 3.24763E-03 3.36673E-04-2.81247E-15
 -1      3689 3.17202E-03 3.00284E-04-2.70925E-15
 -1      3690 3.45888E-03 2.97738E-04-3.21764E-15
 -1      3691 1.78472E-03-2.39335E-04-9.21314E-16
 -1      3692 1.54018E-03 2.91845E-04-6.57040E-16
 -1      3693 1.37252E-02-3.66911E-04-5.06181E-14
 -1      3694 1.38661E-02-8.24165E-04-4.85060E-14
 -1      3695 6.91202E-03-2.13389E-04-1.43134E-14
 -1      3696 2.28575E-03-2.21787E-04-1.48079E-15
 -1      3697 2.43042E-03-2.24326E-04-1.66445E-15
 -1      3698 2.57503E-03-2.26125E-04-1.85958E-15
 -1      3699 2.71953E-03-2.27238E-04-2.06557E-15
 -1      3700 2.49922E-03-1.88874E-04-1.76797E-15
 -1      3701 2.86388E-03-2.27777E-04-2.28328E-15
 -1      3702 3.00804E-03-2.27780E-04-2.51300E-15
 -1      3703 2.78849E-03-1.90834E-04-2.18079E-15
 -1      3704 3.15198E-03-2.27338E-04-2.75433E-15
 -1      3705 3.29567E-03-2.26471E-04-3.00705E-15
 -1      3706 3.07704E-03-1.90881E-04-2.63992E-15
 -1      3707 3.43907E-03-2.25253E-04-3.27124E-15
 -1      3708 3.58216E-03-2.23693E-04-3.54714E-15
 -1      3709 3.36452E-03-1.89432E-04-3.14568E-15
 -1      3710 3.72490E-03-2.21853E-04-3.83527E-15
 -1      3711 3.86727E-03-2.19732E-04-4.13379E-15
 -1      3712 3.65066E-03-1.86799E-04-3.69726E-15
 -1      3713 4.00922E-03-2.17390E-04-4.44379E-15
 -1      3714 4.15073E-03-2.14817E-04-4.76553E-15
 -1      3715 3.93515E-03-1.83223E-04-4.29527E-15
 -1      3716 4.29173E-03-2.12077E-04-5.09746E-15
 -1      3717 4.43220E-03-2.09157E-04-5.44068E-15
 -1      3718 4.21766E-03-1.78910E-04-4.93853E-15
 -1      3719 4.57204E-03-2.06134E-04-5.79487E-15
 -1      3720 4.71125E-03-2.02991E-04-6.16143E-15
 -1      3721 4.49780E-03-1.74063E-04-5.62593E-15
 -1      3722 4.84969E-03-1.99831E-04-6.53893E-15
 -1      3723 4.98735E-03-1.96633E-04-6.92717E-15
 -1      3724 4.77506E-03-1.68925E-04-6.35810E-15
 -1      3725 5.12409E-03-1.93534E-04-7.32759E-15
 -1      3726 5.25987E-03-1.90509E-04-7.74072E-15
 -1      3727 5.04883E-03-1.63823E-04-7.13722E-15
 -1      3728 5.39452E-03-1.87735E-04-8.16606E-15
 -1      3729 5.52801E-03-1.85179E-04-8.60293E-15
 -1      3730 5.31833E-03-1.59184E-04-7.96361E-15
 -1      3731 5.66012E-03-1.83069E-04-9.05270E-15
 -1      3732 5.79085E-03-1.81345E-04-9.51457E-15
 -1      3733 5.58263E-03-1.55557E-04-8.83943E-15
 -1      3734 5.91992E-03-1.80289E-04-9.99065E-15
 -1      3735 6.04736E-03-1.79795E-04-1.04802E-14
 -1      3736 5.84056E-03-1.53584E-04-9.76643E-15
 -1      3737 6.17279E-03-1.80201E-04-1.09808E-14
 -1      3738 6.29637E-03-1.81320E-04-1.14949E-14
 -1      3739 6.09066E-03-1.53931E-04-1.07453E-14
 -1      3740 6.41754E-03-1.83563E-04-1.20233E-14
 -1      3741 6.53674E-03-1.86582E-04-1.25626E-14
 -1      3742 6.33106E-03-1.57174E-04-1.17758E-14
 -1      3743 6.65306E-03-1.90967E-04-1.31134E-14
 -1      3744 6.76756E-03-1.96189E-04-1.36765E-14
 -1      3745 6.55922E-03-1.63538E-04-1.28555E-14
 -1      3746 1.19201E-02-4.74866E-04-3.28640E-14
 -1      3747 1.20368E-02-4.92457E-04-3.38308E-14
 -1      3748 1.12604E-02-1.28941E-04-3.08184E-14
 -1      3749 1.13987E-02-1.91614E-04-3.11554E-14
 -1      3750 1.37144E-02-5.41535E-04-4.90831E-14
 -1      3751 6.84426E-03-1.75955E-04-1.44140E-14
 -1      3752 6.79525E-03-1.54399E-04-1.44232E-14
 -1      3753 6.73230E-03-1.39523E-04-1.41474E-14
 -1      3754 1.37598E-02-7.98824E-04-4.76874E-14
 -1      3755 1.02704E-02 3.35685E-04-2.69747E-14
 -1      3756 7.50936E-03 2.59317E-04-1.55836E-14
 -1      3757 7.36512E-03 2.35897E-04-1.50669E-14
 -1      3758 1.21554E-02-5.10934E-04-3.48097E-14
 -1      3759 1.22766E-02-5.30581E-04-3.57983E-14
 -1      3760 1.21081E-02-4.76528E-04-3.43748E-14
 -1      3761 1.23999E-02-5.50963E-04-3.67996E-14
 -1      3762 1.25253E-02-5.72354E-04-3.78144E-14
 -1      3763 1.23422E-02-5.15194E-04-3.63607E-14
 -1      3764 1.26525E-02-5.94372E-04-3.88383E-14
 -1      3765 1.27816E-02-6.17157E-04-3.98742E-14
 -1      3766 1.25874E-02-5.56826E-04-3.83900E-14
 -1      3767 1.29121E-02-6.40385E-04-4.09230E-14
 -1      3768 1.30442E-02-6.64138E-04-4.19827E-14
 -1      3769 1.28414E-02-6.01026E-04-4.04683E-14
 -1      3770 1.31776E-02-6.88145E-04-4.30532E-14
 -1      3771 1.33122E-02-7.12441E-04-4.41316E-14
 -1      3772 1.31024E-02-6.47108E-04-4.25887E-14
 -1      3773 1.34479E-02-7.36822E-04-4.52176E-14
 -1      3774 1.35845E-02-7.61307E-04-4.63146E-14
 -1      3775 1.33693E-02-6.94359E-04-4.47453E-14
 -1      3776 1.25734E-03-1.41382E-05-5.14169E-16
 -1      3777 1.25798E-03-4.49777E-05-5.14129E-16
 -1      3778 1.37969E-03 1.29551E-06-6.05879E-16
 -1      3779 5.22356E-03 2.20295E-04-7.51298E-15
 -1      3780 5.08391E-03 2.24614E-04-7.10098E-15
 -1      3781 4.94399E-03 2.28843E-04-6.70097E-15
 -1      3782 4.80373E-03 2.32969E-04-6.31312E-15
 -1      3783 5.00646E-03 1.93063E-04-6.91997E-15
 -1      3784 5.78026E-03 2.03540E-04-9.28639E-15
 -1      3785 5.64117E-03 2.07493E-04-8.82444E-15
 -1      3786 6.05910E-03 1.96785E-04-1.02487E-14
 -1      3787 5.91947E-03 1.99907E-04-9.76190E-15
 -1      3788 5.83346E-03 1.67625E-04-9.54220E-15
 -1      3789 6.34052E-03 1.92748E-04-1.12573E-14
 -1      3790 6.19929E-03 1.94273E-04-1.07469E-14
 -1      3791 6.10796E-03 1.59863E-04-1.05158E-14
 -1      3792 6.62762E-03 1.93615E-04-1.23152E-14
 -1      3793 6.48307E-03 1.92295E-04-1.17799E-14
 -1      3794 6.38446E-03 1.53957E-04-1.15371E-14
 -1      3795 6.92510E-03 2.03234E-04-1.34248E-14
 -1      3796 6.77464E-03 1.96800E-04-1.28643E-14
 -1      3797 6.66623E-03 1.51883E-04-1.26088E-14
 -1      3798 7.22018E-03 2.22562E-04-1.45267E-14
 -1      3799 7.06124E-03 2.08113E-04-1.39411E-14
 -1      3800 6.94085E-03 1.53662E-04-1.36749E-14
 -1      3801 7.21095E-03 1.62643E-04-1.47269E-14
 -1      3802 1.79770E-03 2.39029E-04-9.18157E-16
 -1      3803 1.65370E-03 2.30899E-04-7.85586E-16
 -1      3804 1.37272E-02-3.93532E-04-5.04261E-14
 -1      3805 1.13414E-02-8.36853E-05-3.20604E-14
 -1      3806 1.11865E-02-5.09721E-05-3.10937E-14
 -1      3807 1.21411E-02-1.87814E-04-3.79436E-14
 -1      3808 1.19997E-02-1.67359E-04-3.68968E-14
 -1      3809 1.24213E-02-2.26230E-04-4.00672E-14
 -1      3810 1.22815E-02-2.07312E-04-3.89983E-14
 -1      3811 1.22516E-02-2.33223E-04-3.84478E-14
 -1      3812 1.26999E-02-2.62858E-04-4.22288E-14
 -1      3813 1.25606E-02-2.44679E-04-4.11443E-14
 -1      3814 1.25264E-02-2.69518E-04-4.05753E-14
 -1      3815 1.29784E-02-2.98840E-04-4.44197E-14
 -1      3816 1.28390E-02-2.80877E-04-4.33214E-14
 -1      3817 1.28012E-02-3.05216E-04-4.27405E-14
 -1      3818 1.32576E-02-3.34953E-04-4.66390E-14
 -1      3819 1.31178E-02-3.16843E-04-4.55267E-14
 -1      3820 1.30770E-02-3.41027E-04-4.49350E-14
 -1      3821 1.24881E-03-7.10844E-05-5.05956E-16
 -1      3822 1.25077E-03-1.02195E-04-5.03747E-16
 -1      3823 1.35324E-03-1.14154E-04-5.78395E-16
 -1      3824 1.37053E-03-5.89825E-05-5.97965E-16
 -1      3825 1.08526E-02 4.84322E-05-2.93400E-14
 -1      3826 6.79964E-03-1.80785E-04-1.40437E-14
 -1      3827 1.49211E-03-1.85294E-04-6.73994E-16
 -1      3828 1.36936E-02-6.82384E-04-4.78067E-14
 -1      3829 1.36745E-02-6.47295E-04-4.78794E-14
 -1      3830 1.10146E-02-4.29548E-06-3.01520E-14
 -1      3831 1.16946E-02-4.55301E-04-3.10712E-14
 -1      3832 6.92954E-03-3.81035E-06-1.44288E-14
 -1      3833 7.04067E-03 4.82689E-05-1.45826E-14
 -1      3834 1.18101E-02-4.55998E-04-3.19194E-14
 -1      3835 1.18571E-02-1.45790E-04-3.58614E-14
 -1      3836 1.17124E-02-1.22474E-04-3.48416E-14
 -1      3837 1.19747E-02-1.95178E-04-3.63605E-14
 -1      3838 1.70800E-03-2.01922E-04-8.60965E-16
 -1      3839 1.85213E-03-2.08552E-04-9.99404E-16
 -1      3840 1.16019E-02-1.17218E-04-3.39353E-14
 -1      3841 1.14532E-02-9.05909E-05-3.29402E-14
 -1      3842 1.15206E-02-1.65680E-04-3.26392E-14
 -1      3843 1.17285E-02-1.71311E-04-3.44244E-14
 -1      3844 1.26864E-03 1.74578E-04-4.91713E-16
 -1      3845 1.26475E-03 1.41971E-04-4.98259E-16
 -1      3846 1.38599E-03 1.33213E-04-5.91636E-16
 -1      3847 1.39431E-03 2.01664E-04-5.77582E-16
 -1      3848 5.50212E-03 2.11667E-04-8.37501E-15
 -1      3849 5.36292E-03 2.15965E-04-7.93770E-15
 -1      3850 5.55901E-03 1.76142E-04-8.61775E-15
 -1      3851 4.09752E-03 2.50732E-04-4.55856E-15
 -1      3852 3.95531E-03 2.53576E-04-4.24334E-15
 -1      3853 1.99652E-03-2.14012E-04-1.14851E-15
 -1      3854 2.14110E-03-2.18374E-04-1.30916E-15
 -1      3855 1.92036E-03-1.76932E-04-1.07909E-15
 -1      3856 1.36784E-02-7.54946E-04-4.72017E-14
 -1      3857 1.36196E-02-3.96271E-04-4.94196E-14
 -1      3858 1.18904E-02-4.38572E-04-3.24476E-14
 -1      3859 2.52940E-03 3.34536E-04-1.71476E-15
 -1      3860 2.38548E-03 3.31719E-04-1.52887E-15
 -1      3861 2.30800E-03 2.93521E-04-1.45495E-15
 -1      3862 2.20964E-03-1.84463E-04-1.40080E-15
 -1      3863 2.59645E-03 2.98807E-04-1.82889E-15
 -1      3864 2.95255E-03 2.63993E-04-2.37436E-15
 -1      3865 2.80844E-03 2.63704E-04-2.15373E-15
 -1      3866 6.70039E-03-9.53069E-05-1.39927E-14
 -1      3867 6.69715E-03-7.55032E-05-1.38548E-14
 -1      3868 1.34796E-02-3.77575E-04-4.82965E-14
 -1      3869 1.15352E-02-2.00229E-04-3.22877E-14
 -1      3870 1.15153E-02-2.27288E-04-3.16715E-14
 -1      3871 1.16246E-02-2.57394E-04-3.21861E-14
 -1      3872 1.36080E-02-5.42031E-04-4.80874E-14
 -1      3873 1.35828E-02-5.06298E-04-4.81514E-14
 -1      3874 1.34612E-02-4.78020E-04-4.72617E-14
 -1      3875 1.35665E-02-4.76701E-04-4.82522E-14
 -1      3876 1.35495E-02-4.46653E-04-4.83507E-14
 -1      3877 3.88067E-03 2.18989E-04-4.10914E-15
 -1      3878 3.81282E-03 2.56122E-04-3.94060E-15
 -1      3879 3.67005E-03 2.58376E-04-3.64932E-15
 -1      3880 1.51133E-03 1.57232E-04-6.86978E-16
 -1      3881 1.50798E-03 1.22078E-04-6.93645E-16
 -1      3882 1.56002E-03-1.57845E-04-7.39087E-16
 -1      3883 1.63063E-03 1.08850E-04-8.03638E-16
 -1      3884 1.50549E-03 8.72610E-05-6.98904E-16
 -1      3885 1.50385E-03 5.27372E-05-7.02739E-16
 -1      3886 4.72761E-03 2.00790E-04-6.14499E-15
 -1      3887 4.66316E-03 2.36926E-04-5.93830E-15
 -1      3888 4.52224E-03 2.40715E-04-5.57531E-15
 -1      3889 1.94194E-03 2.45757E-04-1.06157E-15
 -1      3890 1.86511E-03 2.08132E-04-9.97940E-16
 -1      3891 2.08636E-03 2.51194E-04-1.21580E-15
 -1      3892 1.17054E-02-3.04199E-04-3.20453E-14
 -1      3893 1.17002E-02-3.20899E-04-3.15373E-14
 -1      3894 1.17797E-02-3.39108E-04-3.20112E-14
 -1      3895 6.66540E-03-1.03962E-04-1.38223E-14
 -1      3896 1.36631E-02-7.19486E-04-4.72795E-14
 -1      3897 1.34358E-02-4.01512E-04-4.76910E-14
 -1      3898 1.36540E-02-6.12368E-04-4.79498E-14
 -1      3899 1.36318E-02-5.77337E-04-4.80183E-14
 -1      3900 1.35023E-02-5.42129E-04-4.70958E-14
 -1      3901 1.35471E-02-6.11250E-04-4.69572E-14
 -1      3902 7.13987E-03 1.14086E-04-1.46561E-14
 -1      3903 1.18236E-02-3.75450E-04-3.17647E-14
 -1      3904 1.35373E-02-6.81998E-04-4.63625E-14
 -1      3905 6.83693E-03-2.17806E-05-1.41406E-14
 -1      3906 6.80212E-03 1.38585E-05-1.37726E-14
 -1      3907 6.75219E-03-3.50748E-05-1.38547E-14
 -1      3908 5.28353E-03 1.84759E-04-7.74463E-15
 -1      3909 6.98494E-03 9.16990E-05-1.41280E-14
 -1      3910 4.23941E-03 2.47638E-04-4.88571E-15
 -1      3911 4.16460E-03 2.13863E-04-4.74006E-15
 -1      3912 4.38099E-03 2.44283E-04-5.22409E-15
 -1      3913 1.19255E-02-4.28689E-04-3.27110E-14
 -1      3914 3.24021E-03 2.63015E-04-2.84947E-15
 -1      3915 3.09647E-03 2.63754E-04-2.60619E-15
 -1      3916 3.02107E-03 2.27095E-04-2.50352E-15
 -1      3917 6.57013E-03-5.87456E-05-1.31426E-14
 -1      3918 6.65644E-03-4.83693E-05-1.34968E-14
 -1      3919 6.61359E-03-1.87077E-05-1.31401E-14
 -1      3920 2.71346E-03-1.53909E-04-2.07953E-15
 -1      3921 2.85804E-03-1.54290E-04-2.29686E-15
 -1      3922 3.00241E-03-1.54318E-04-2.52657E-15
 -1      3923 3.14651E-03-1.54006E-04-2.76802E-15
 -1      3924 2.92814E-03-1.17675E-04-2.41455E-15
 -1      3925 3.29030E-03-1.53422E-04-3.02108E-15
 -1      3926 3.43375E-03-1.52567E-04-3.28516E-15
 -1      3927 3.21643E-03-1.17222E-04-2.89718E-15
 -1      3928 3.57680E-03-1.51504E-04-3.56108E-15
 -1      3929 3.71942E-03-1.50224E-04-3.84854E-15
 -1      3930 3.50333E-03-1.15942E-04-3.42566E-15
 -1      3931 3.86157E-03-1.48786E-04-4.14725E-15
 -1      3932 4.00321E-03-1.47178E-04-4.45775E-15
 -1      3933 3.78847E-03-1.14027E-04-3.99995E-15
 -1      3934 4.14427E-03-1.45461E-04-4.77946E-15
 -1      3935 4.28472E-03-1.43617E-04-5.11262E-15
 -1      3936 4.07149E-03-1.11647E-04-4.62084E-15
 -1      3937 4.42448E-03-1.41716E-04-5.45600E-15
 -1      3938 4.56350E-03-1.39736E-04-5.81142E-15
 -1      3939 4.35198E-03-1.08976E-04-5.28694E-15
 -1      3940 4.70169E-03-1.37768E-04-6.17842E-15
 -1      3941 4.83899E-03-1.35788E-04-6.55650E-15
 -1      3942 4.62943E-03-1.06200E-04-5.99881E-15
 -1      3943 4.97529E-03-1.33914E-04-6.94633E-15
 -1      3944 5.11050E-03-1.32109E-04-7.34734E-15
 -1      3945 4.90323E-03-1.03590E-04-6.75556E-15
 -1      3946 5.24448E-03-1.30532E-04-7.76132E-15
 -1      3947 5.37714E-03-1.29129E-04-8.18752E-15
 -1      3948 5.17262E-03-1.01483E-04-7.55982E-15
 -1      3949 5.50830E-03-1.28110E-04-8.62610E-15
 -1      3950 5.63784E-03-1.27388E-04-9.07721E-15
 -1      3951 5.43665E-03-1.00314E-04-8.41249E-15
 -1      3952 5.76551E-03-1.27231E-04-9.54114E-15
 -1      3953 5.89118E-03-1.27489E-04-1.00191E-14
 -1      3954 5.69410E-03-1.00626E-04-9.31601E-15
 -1      3955 6.01449E-03-1.28514E-04-1.05090E-14
 -1      3956 6.13528E-03-1.30024E-04-1.10115E-14
 -1      3957 5.94334E-03-1.03006E-04-1.02711E-14
 -1      3958 6.25303E-03-1.32505E-04-1.15273E-14
 -1      3959 6.36752E-03-1.35448E-04-1.20560E-14
 -1      3960 6.18210E-03-1.08030E-04-1.12786E-14
 -1      3961 6.47794E-03-1.39598E-04-1.25961E-14
 -1      3962 6.58401E-03-1.43756E-04-1.31472E-14
 -1      3963 6.40699E-03-1.16205E-04-1.23351E-14
 -1      3964 6.71861E-03-1.62843E-04-1.37737E-14
 -1      3965 1.20588E-02-4.45009E-04-3.39374E-14
 -1      3966 1.21690E-02-4.63166E-04-3.49216E-14
 -1      3967 1.55485E-03 1.84898E-04-7.15397E-16
 -1      3968 1.67702E-03 1.73060E-04-8.28344E-16
 -1      3969 1.22830E-02-4.81590E-04-3.59171E-14
 -1      3970 1.24006E-02-5.01084E-04-3.69231E-14
 -1      3971 1.22212E-02-4.50160E-04-3.54703E-14
 -1      3972 1.25211E-02-5.21070E-04-3.79396E-14
 -1      3973 1.26443E-02-5.41916E-04-3.89689E-14
 -1      3974 1.24529E-02-4.87047E-04-3.74855E-14
 -1      3975 1.27698E-02-5.63200E-04-4.00096E-14
 -1      3976 1.28974E-02-5.85133E-04-4.10612E-14
 -1      3977 1.26968E-02-5.26857E-04-3.95492E-14
 -1      3978 1.30268E-02-6.07400E-04-4.21226E-14
 -1      3979 1.31578E-02-6.30101E-04-4.31928E-14
 -1      3980 1.29501E-02-5.68968E-04-4.16540E-14
 -1      3981 1.32798E-02-6.44616E-04-4.42305E-14
 -1      3982 1.34135E-02-6.67612E-04-4.53138E-14
 -1      3983 1.34436E-02-6.32045E-04-4.58372E-14
 -1      3984 1.32000E-02-6.04566E-04-4.37538E-14
 -1      3985 1.50301E-03 1.84655E-05-7.05219E-16
 -1      3986 1.50297E-03-1.57354E-05-7.06439E-16
 -1      3987 1.62721E-03 3.70598E-05-8.12040E-16
 -1      3988 1.29003E-02-3.46500E-04-4.32506E-14
 -1      3989 1.27643E-02-3.28751E-04-4.21621E-14
 -1      3990 5.06848E-03 1.58068E-04-7.14034E-15
 -1      3991 4.93040E-03 1.61816E-04-6.74023E-15
 -1      3992 6.15479E-03 1.23629E-04-1.07839E-14
 -1      3993 6.02000E-03 1.28012E-04-1.02844E-14
 -1      3994 5.88531E-03 1.32523E-04-9.79785E-15
 -1      3995 5.75029E-03 1.37023E-04-9.32308E-15
 -1      3996 5.93589E-03 9.82619E-05-1.00530E-14
 -1      3997 6.69995E-03 1.10172E-04-1.29027E-14
 -1      3998 6.56163E-03 1.12335E-04-1.23536E-14
 -1      3999 6.86019E-03 9.38232E-05-1.36090E-14
 -1      4000 1.18608E-02-3.67741E-04-3.23653E-14
 -1      4001 1.19127E-02-3.94217E-04-3.26307E-14
 -1      4002 1.26288E-02-3.11120E-04-4.10828E-14
 -1      4003 1.24936E-02-2.93584E-04-4.00115E-14
 -1      4004 1.27281E-02-3.51438E-04-4.15847E-14
 -1      4005 5.61498E-03 1.41472E-04-8.86104E-15
 -1      4006 5.47915E-03 1.45841E-04-8.41241E-15
 -1      4007 5.67013E-03 1.07695E-04-9.10516E-15
 -1      4008 2.13412E-03-1.47602E-04-1.32179E-15
 -1      4009 2.27897E-03-1.50008E-04-1.49385E-15
 -1      4010 1.55993E-03 2.21370E-04-7.06371E-16
 -1      4011 1.23587E-02-2.76081E-04-3.89480E-14
 -1      4012 1.22237E-02-2.58490E-04-3.78978E-14
 -1      4013 1.24620E-02-3.16848E-04-3.94486E-14
 -1      4014 1.31738E-02-3.82553E-04-4.54437E-14
 -1      4015 1.30368E-02-3.64437E-04-4.43429E-14
 -1      4016 1.29970E-02-3.87026E-04-4.37539E-14
 -1      4017 6.61806E-03-1.21139E-04-1.35092E-14
 -1      4018 6.55797E-03-1.02215E-04-1.31891E-14
 -1      4019 6.42525E-03 1.15602E-04-1.18169E-14
 -1      4020 6.28961E-03 1.19350E-04-1.12941E-14
 -1      4021 6.19958E-03 8.80871E-05-1.10517E-14
 -1      4022 1.51669E-03 2.69914E-04-6.48150E-16
 -1      4023 1.49360E-03 2.48336E-04-6.38961E-16
 -1      4024 6.63775E-03-1.39451E-04-1.35031E-14
 -1      4025 1.82105E-03 1.79153E-04-9.64154E-16
 -1      4026 1.77748E-03 1.50663E-04-9.30408E-16
 -1      4027 1.96543E-03 1.84181E-04-1.11109E-15
 -1      4028 6.74701E-03 5.33774E-05-1.33388E-14
 -1      4029 1.20886E-02-2.40705E-04-3.68582E-14
 -1      4030 1.19529E-02-2.22599E-04-3.58277E-14
 -1      4031 1.21978E-02-2.83062E-04-3.73520E-14
 -1      4032 3.52701E-03 2.60288E-04-3.37100E-15
 -1      4033 3.38372E-03 2.61855E-04-3.10450E-15
 -1      4034 3.30873E-03 2.25806E-04-2.99142E-15
 -1      4035 3.59532E-03 2.23023E-04-3.52634E-15
 -1      4036 2.37535E-03 2.58785E-04-1.55774E-15
 -1      4037 2.23084E-03 2.55504E-04-1.38110E-15
 -1      4038 2.15411E-03 2.17790E-04-1.30801E-15
 -1      4039 1.84496E-03-1.40670E-04-1.01058E-15
 -1      4040 1.98942E-03-1.44504E-04-1.16049E-15
 -1      4041 2.05924E-03-1.11317E-04-1.24362E-15
 -1      4042 2.66419E-03 2.62786E-04-1.94370E-15
 -1      4043 2.51981E-03 2.61188E-04-1.74506E-15
 -1      4044 2.44344E-03 2.23659E-04-1.66192E-15
 -1      4045 2.73255E-03 2.26542E-04-2.06032E-15
 -1      4046 1.19811E-02-4.16775E-04-3.32387E-14
 -1      4047 5.34284E-03 1.50066E-04-7.97562E-15
 -1      4048 5.20594E-03 1.54162E-04-7.55159E-15
 -1      4049 5.13015E-03 1.23904E-04-7.35974E-15
 -1      4050 2.42385E-03-1.51827E-04-1.67719E-15
 -1      4051 2.56871E-03-1.53097E-04-1.87263E-15
 -1      4052 2.34900E-03-1.15065E-04-1.58800E-15
 -1      4053 6.65777E-03 3.49323E-05-1.30638E-14
 -1      4054 2.63884E-03-1.17059E-04-1.97819E-15
 -1      4055 1.33973E-02-5.41878E-04-4.61086E-14
 -1      4056 1.33728E-02-5.07526E-04-4.61744E-14
 -1      4057 1.16330E-02-2.01493E-04-3.31660E-14
 -1      4058 6.46276E-03 7.76240E-05-1.20992E-14
 -1      4059 3.94860E-03 1.82213E-04-4.27876E-15
 -1      4060 3.80643E-03 1.84237E-04-3.97492E-15
 -1      4061 4.23164E-03 1.77472E-04-4.92347E-15
 -1      4062 4.09035E-03 1.79967E-04-4.59566E-15
 -1      4063 4.01665E-03 1.45863E-04-4.45049E-15
 -1      4064 1.45895E-03-1.20195E-04-6.61431E-16
 -1      4065 1.67415E-03-1.33011E-04-8.47046E-16
 -1      4066 6.44752E-03-9.76377E-05-1.25904E-14
 -1      4067 6.50694E-03-7.71574E-05-1.28901E-14
 -1      4068 6.45037E-03-5.31555E-05-1.25462E-14
 -1      4069 6.33979E-03-9.18028E-05-1.20502E-14
 -1      4070 1.77441E-03 1.13022E-04-9.37171E-16
 -1      4071 4.79176E-03 1.65351E-04-6.35277E-15
 -1      4072 4.65253E-03 1.68708E-04-5.97763E-15
 -1      4073 4.85570E-03 1.30662E-04-6.56127E-15
 -1      4074 1.18850E-02-3.57789E-04-3.28874E-14
 -1      4075 1.17232E-02-2.84555E-04-3.26671E-14
 -1      4076 1.18159E-02-3.08611E-04-3.31555E-14
 -1      4077 1.17463E-02-2.62462E-04-3.32988E-14
 -1      4078 1.18502E-02-2.20185E-04-3.49126E-14
 -1      4079 1.20355E-02-4.09289E-04-3.38596E-14
 -1      4080 1.46725E-03-9.13901E-05-6.72490E-16
 -1      4081 1.34325E-02-6.04008E-04-4.59390E-14
 -1      4082 1.34116E-02-5.70203E-04-4.60083E-14
 -1      4083 1.32846E-02-5.35625E-04-4.50949E-14
 -1      4084 1.33107E-02-5.90910E-04-4.48956E-14
 -1      4085 1.47614E-03-6.25836E-05-6.82654E-16
 -1      4086 4.44696E-03 2.07763E-04-5.41905E-15
 -1      4087 1.32027E-02-4.56894E-04-4.50226E-14
 -1      4088 1.33059E-02-4.55878E-04-4.60052E-14
 -1      4089 1.33306E-02-4.03913E-04-4.67028E-14
 -1      4090 5.40163E-03 1.16257E-04-8.20715E-15
 -1      4091 1.74362E-03-1.02630E-04-9.17682E-16
 -1      4092 1.32879E-02-4.26674E-04-4.61006E-14
 -1      4093 2.80153E-03 1.90108E-04-2.17870E-15
 -1      4094 2.65696E-03 1.89408E-04-1.96761E-15
 -1      4095 3.09008E-03 1.90158E-04-2.63389E-15
 -1      4096 2.94591E-03 1.90352E-04-2.40072E-15
 -1      4097 2.87107E-03 1.53552E-04-2.29824E-15
 -1      4098 1.59927E-03-4.75354E-05-7.89286E-16
 -1      4099 6.55374E-03 1.61993E-05-1.27208E-14
 -1      4100 2.11004E-03 1.88246E-04-1.26877E-15
 -1      4101 2.06636E-03 1.59000E-04-1.22930E-15
 -1      4102 2.25478E-03 1.91449E-04-1.43748E-15
 -1      4103 3.14297E-03-8.08746E-05-2.77401E-15
 -1      4104 3.28682E-03-8.05607E-05-3.02648E-15
 -1      4105 3.43028E-03-8.01344E-05-3.29069E-15
 -1      4106 3.57331E-03-7.95813E-05-3.56636E-15
 -1      4107 3.35766E-03-4.40802E-05-3.15679E-15
 -1      4108 3.71586E-03-7.89513E-05-3.85342E-15
 -1      4109 3.85788E-03-7.82250E-05-4.15225E-15
 -1      4110 3.64370E-03-4.35345E-05-3.70765E-15
 -1      4111 3.99931E-03-7.74625E-05-4.46312E-15
 -1      4112 4.14012E-03-7.66393E-05-4.78495E-15
 -1      4113 3.92767E-03-4.28624E-05-4.30569E-15
 -1      4114 4.28024E-03-7.58189E-05-5.11802E-15
 -1      4115 4.41962E-03-7.49795E-05-5.46300E-15
 -1      4116 4.20916E-03-4.21804E-05-4.94956E-15
 -1      4117 4.55818E-03-7.41850E-05-5.81851E-15
 -1      4118 4.69585E-03-7.34193E-05-6.18642E-15
 -1      4119 4.48776E-03-4.16177E-05-5.63957E-15
 -1      4120 4.83251E-03-7.27942E-05-6.56566E-15
 -1      4121 4.96812E-03-7.22616E-05-6.95543E-15
 -1      4122 4.76289E-03-4.14047E-05-6.37499E-15
 -1      4123 5.10253E-03-7.19524E-05-7.35794E-15
 -1      4124 5.23567E-03-7.18221E-05-7.77293E-15
 -1      4125 5.03386E-03-4.17743E-05-7.15675E-15
 -1      4126 5.36736E-03-7.20482E-05-8.20024E-15
 -1      4127 5.49749E-03-7.25533E-05-8.63941E-15
 -1      4128 5.29993E-03-4.30819E-05-7.98724E-15
 -1      4129 5.62585E-03-7.35848E-05-9.09010E-15
 -1      4130 5.75228E-03-7.50043E-05-9.55537E-15
 -1      4131 5.56006E-03-4.57842E-05-8.86577E-15
 -1      4132 5.87653E-03-7.71381E-05-1.00346E-14
 -1      4133 5.99831E-03-7.97644E-05-1.05254E-14
 -1      4134 5.81297E-03-5.04089E-05-9.79613E-15
 -1      4135 6.11452E-03-8.28538E-05-1.10177E-14
 -1      4136 6.23032E-03-8.69523E-05-1.15341E-14
 -1      4137 6.28155E-03-6.65421E-05-1.17769E-14
 -1      4138 6.05419E-03-5.71024E-05-1.07684E-14
 -1      4139 1.93383E-03 1.11940E-04-1.09885E-15
 -1      4140 1.78744E-03 7.11315E-05-9.58570E-16
 -1      4141 5.46023E-03 8.34305E-05-8.43870E-15
 -1      4142 5.32642E-03 8.71861E-05-8.00247E-15
 -1      4143 5.19174E-03 9.06342E-05-7.57933E-15
 -1      4144 5.05611E-03 9.38366E-05-7.16850E-15
 -1      4145 5.25343E-03 5.83127E-05-7.79886E-15
 -1      4146 1.23811E-02-4.54332E-04-3.70293E-14
 -1      4147 1.24999E-02-4.72702E-04-3.80510E-14
 -1      4148 1.26215E-02-4.91674E-04-3.90881E-14
 -1      4149 1.27455E-02-5.11442E-04-4.01316E-14
 -1      4150 1.25430E-02-4.57515E-04-3.86193E-14
 -1      4151 1.28718E-02-5.31607E-04-4.11854E-14
 -1      4152 1.30001E-02-5.52386E-04-4.22508E-14
 -1      4153 1.27914E-02-4.95199E-04-4.07143E-14
 -1      4154 1.30946E-02-5.65002E-04-4.30523E-14
 -1      4155 1.32144E-02-5.78184E-04-4.40863E-14
 -1      4156 1.32023E-02-5.51102E-04-4.41847E-14
 -1      4157 1.30123E-02-5.26852E-04-4.25739E-14
 -1      4158 1.19171E-02-3.45595E-04-3.35223E-14
 -1      4159 1.20014E-02-3.77381E-04-3.38851E-14
 -1      4160 1.19490E-02-3.30610E-04-3.41638E-14
 -1      4161 3.73260E-03 1.49263E-04-3.84099E-15
 -1      4162 3.66385E-03 1.85991E-04-3.68298E-15
 -1      4163 3.52090E-03 1.87494E-04-3.40286E-15
 -1      4164 1.98509E-03-7.57567E-05-1.16687E-15
 -1      4165 2.12983E-03-7.74089E-05-1.32813E-15
 -1      4166 5.72484E-03 7.49745E-05-9.34819E-15
 -1      4167 5.59298E-03 7.93847E-05-8.88749E-15
 -1      4168 5.51882E-03 5.16475E-05-8.67011E-15
 -1      4169 2.52828E-03 1.91903E-04-1.78784E-15
 -1      4170 2.38351E-03 1.90113E-04-1.59843E-15
 -1      4171 2.33998E-03 1.60538E-04-1.55338E-15
 -1      4172 2.59771E-03 1.56053E-04-1.89632E-15
 -1      4173 1.25613E-02-3.55847E-04-3.99445E-14
 -1      4174 1.24311E-02-3.39018E-04-3.88884E-14
 -1      4175 6.43727E-03-1.73646E-05-1.23634E-14
 -1      4176 6.46568E-03 3.12754E-05-1.22914E-14
 -1      4177 6.34014E-03 3.81924E-05-1.17558E-14
 -1      4178 6.36675E-03-3.95379E-05-1.21212E-14
 -1      4179 6.21411E-03 4.46320E-05-1.12355E-14
 -1      4180 6.08679E-03 5.06337E-05-1.07260E-14
 -1      4181 6.23043E-03 4.24955E-06-1.14158E-14
 -1      4182 1.28244E-02-3.90725E-04-4.20849E-14
 -1      4183 1.26924E-02-3.73106E-04-4.10110E-14
 -1      4184 1.26567E-02-3.93714E-04-4.04367E-14
 -1      4185 2.27475E-03-7.87046E-05-1.50036E-15
 -1      4186 2.41975E-03-7.96781E-05-1.68377E-15
 -1      4187 2.20114E-03-4.28217E-05-1.41396E-15
 -1      4188 5.97203E-03 6.05796E-05-1.02681E-14
 -1      4189 5.84239E-03 6.57078E-05-9.78280E-15
 -1      4190 5.76678E-03 3.89928E-05-9.55238E-15
 -1      4191 5.99601E-03 2.05306E-05-1.04411E-14
 -1      4192 1.20741E-02-4.00935E-04-3.43655E-14
 -1      4193 1.21555E-02-4.24758E-04-3.49894E-14
 -1      4194 1.22670E-02-4.41669E-04-3.59903E-14
 -1      4195 1.21212E-02-3.91062E-04-3.50206E-14
 -1      4196 1.23020E-02-3.22558E-04-3.78416E-14
 -1      4197 1.21735E-02-3.06497E-04-3.68098E-14
 -1      4198 1.24009E-02-3.60044E-04-3.83315E-14
 -1      4199 1.76953E-03-5.18530E-05-9.47335E-16
 -1      4200 2.56473E-03-8.03693E-05-1.87858E-15
 -1      4201 2.70960E-03-8.07991E-05-2.08552E-15
 -1      4202 2.49116E-03-4.38963E-05-1.78075E-15
 -1      4203 2.85431E-03-8.10143E-05-2.30333E-15
 -1      4204 2.99879E-03-8.10254E-05-2.53297E-15
 -1      4205 3.06994E-03-4.43980E-05-2.65232E-15
 -1      4206 2.78096E-03-4.43720E-05-2.19358E-15
 -1      4207 4.51276E-03 1.71836E-04-5.61393E-15
 -1      4208 4.37245E-03 1.74771E-04-5.26243E-15
 -1      4209 4.29869E-03 1.41621E-04-5.10730E-15
 -1      4210 4.57846E-03 1.36562E-04-5.81040E-15
 -1      4211 1.84088E-03-1.94361E-05-1.01884E-15
 -1      4212 1.78623E-03 3.38860E-05-9.62053E-16
 -1      4213 2.07847E-03 1.14601E-04-1.25530E-15
 -1      4214 1.18536E-02-2.49330E-04-3.45432E-14
 -1      4215 3.37760E-03 1.88699E-04-3.13498E-15
 -1      4216 3.23399E-03 1.89607E-04-2.87867E-15
 -1      4217 3.15953E-03 1.53254E-04-2.76615E-15
 -1      4218 3.44681E-03 1.51764E-04-3.28008E-15
 -1      4219 4.98372E-03 6.37291E-05-6.97718E-15
 -1      4220 4.91964E-03 9.67711E-05-6.76901E-15
 -1      4221 4.78232E-03 9.94938E-05-6.38183E-15
 -1      4222 4.08489E-03 1.09977E-04-4.62304E-15
 -1      4223 3.94352E-03 1.11525E-04-4.30518E-15
 -1      4224 1.23076E-02-4.27589E-04-3.65395E-14
 -1      4225 1.31883E-02-5.23845E-04-4.42839E-14
 -1      4226 1.31727E-02-4.96234E-04-4.43785E-14
 -1      4227 1.30929E-02-5.12115E-04-4.34753E-14
 -1      4228 3.87094E-03 7.68810E-05-4.16130E-15
 -1      4229 3.80163E-03 1.12873E-04-4.00064E-15
 -1      4230 3.65923E-03 1.14061E-04-3.70796E-15
 -1      4231 2.00073E-03 1.37831E-05-1.18526E-15
 -1      4232 1.30914E-02-4.26988E-04-4.42549E-14
 -1      4233 1.29574E-02-4.08713E-04-4.31677E-14
 -1      4234 2.64794E-03 1.18231E-04-1.97882E-15
 -1      4235 2.51899E-03 1.21089E-04-1.79896E-15
 -1      4236 1.29177E-02-4.29409E-04-4.25816E-14
 -1      4237 1.31598E-02-4.77554E-04-4.44276E-14
 -1      4238 1.30640E-02-4.66542E-04-4.36169E-14
 -1      4239 2.93724E-03 1.18873E-04-2.41284E-15
 -1      4240 2.79269E-03 1.18714E-04-2.19014E-15
 -1      4241 2.71470E-03 8.39076E-05-2.08327E-15
 -1      4242 3.57200E-03-7.80624E-06-3.56343E-15
 -1      4243 3.71453E-03-7.81266E-06-3.84992E-15
 -1      4244 3.89842E-03 1.67936E-05-4.23586E-15
 -1      4245 4.03968E-03 1.64230E-05-4.55026E-15
 -1      4246 4.41808E-03-8.50018E-06-5.46114E-15
 -1      4247 4.55655E-03-8.85843E-06-5.81715E-15
 -1      4248 4.73501E-03 1.29021E-05-6.29263E-15
 -1      4249 4.87149E-03 1.17813E-05-6.67616E-15
 -1      4250 5.00692E-03 1.03838E-05-7.07110E-15
 -1      4251 5.14122E-03 8.80229E-06-7.47777E-15
 -1      4252 5.27432E-03 6.84420E-06-7.89620E-15
 -1      4253 5.40608E-03 4.63153E-06-8.32861E-15
 -1      4254 5.53645E-03 1.91024E-06-8.77256E-15
 -1      4255 5.66525E-03-1.13953E-06-9.22794E-15
 -1      4256 5.78075E-03-9.05603E-06-9.65764E-15
 -1      4257 5.90593E-03-1.30900E-05-1.01396E-14
 -1      4258 2.38999E-03 1.23565E-04-1.62802E-15
 -1      4259 2.26100E-03 1.25642E-04-1.46617E-15
 -1      4260 2.44072E-03 8.63329E-05-1.70305E-15
 -1      4261 1.21506E-02-3.28745E-04-3.62701E-14
 -1      4262 1.20458E-02-2.90841E-04-3.57865E-14
 -1      4263 3.28550E-03-7.81973E-06-3.02404E-15
 -1      4264 3.42897E-03-7.80016E-06-3.28760E-15
 -1      4265 3.50073E-03 2.82389E-05-3.41953E-15
 -1      4266 4.22568E-03 1.08264E-04-4.95182E-15
 -1      4267 4.15336E-03 7.46084E-05-4.79590E-15
 -1      4268 4.36587E-03 1.06350E-04-5.29126E-15
 -1      4269 1.24779E-02-4.10159E-04-3.84826E-14
 -1      4270 1.26022E-02-4.27436E-04-3.95282E-14
 -1      4271 1.27286E-02-4.45244E-04-4.05832E-14
 -1      4272 1.28566E-02-4.63781E-04-4.16461E-14
 -1      4273 1.20937E-02-3.66082E-04-3.51050E-14
 -1      4274 1.21756E-02-3.91626E-04-3.55956E-14
 -1      4275 1.22872E-02-4.02340E-04-3.66330E-14
 -1      4276 1.20006E-02-3.29698E-04-3.47317E-14
 -1      4277 1.18414E-02-2.75607E-04-3.40233E-14
 -1      4278 1.29864E-02-4.82708E-04-4.27180E-14
 -1      4279 6.25388E-03-3.31389E-05-1.16040E-14
 -1      4280 2.18277E-03 2.24472E-05-1.39023E-15
 -1      4281 2.32776E-03 2.28171E-05-1.56655E-15
 -1      4282 2.12915E-03 7.88460E-05-1.32083E-15
 -1      4283 2.45702E-03 1.95157E-05-1.73375E-15
 -1      4284 2.60202E-03 1.96983E-05-1.93128E-15
 -1      4285 6.13555E-03-2.66486E-05-1.10866E-14
 -1      4286 4.18028E-03 1.59348E-05-4.87604E-15
 -1      4287 2.74691E-03 1.97939E-05-2.14028E-15
 -1      4288 2.99741E-03-7.84841E-06-2.53213E-15
 -1      4289 3.14163E-03-7.82825E-06-2.77235E-15
 -1      4290 3.21379E-03 2.86323E-05-2.89310E-15
 -1      4291 3.47304E-03 8.98307E-05-3.35215E-15
 -1      4292 3.32966E-03 9.04330E-05-3.08603E-15
 -1      4293 2.89160E-03 1.98562E-05-2.36095E-15
 -1      4294 4.64423E-03 1.01976E-04-6.00687E-15
 -1      4295 4.50539E-03 1.04275E-04-5.64297E-15
 -1      4296 4.43322E-03 7.17030E-05-5.47679E-15
 -1      4297 4.71017E-03 6.81247E-05-6.20314E-15
 -1      4298 4.32019E-03 1.53963E-05-5.21318E-15
 -1      4299 6.01749E-03-2.18774E-05-1.05923E-14
 -1      4300 1.23327E-02-3.70801E-04-3.75102E-14
 -1      4301 3.18590E-03 9.08365E-05-2.83195E-15
 -1      4302 3.04179E-03 9.10827E-05-2.58929E-15
 -1      4303 3.82825E-03 5.22803E-05-4.07706E-15
 -1      4304 2.96447E-03 5.64641E-05-2.47128E-15
 -1      4305 3.54339E-03 5.34580E-05-3.49713E-15
 -1      4306 4.66792E-03 4.57861E-05-6.09964E-15
 -1      4307 1.22103E-02-3.55143E-04-3.64837E-14
 -1      4308 1.20901E-02-3.40971E-04-3.54690E-14
 -1      4309 1.29982E-02-5.00544E-04-4.26692E-14
 -1      4310 4.39088E-03 4.85378E-05-5.37965E-15
 -1      4311 1.19123E-02-3.05284E-04-3.42393E-14
 -1      4312 3.68609E-03 5.29258E-05-3.78155E-15
 -1      4313 4.52981E-03 4.72377E-05-5.73368E-15
 -3
    1PSTEP                         2           1           1          
  100CL  101 1.000000000        4313                     0    1           1
 -4  STRESS      6    1
 -5  SXX         1    4    1    1
 -5  SYY         1    4    2    2
 -5  SZZ         1    4    3    3
 -5  SXY         1    4    1    2
 -5  SYZ         1    4    2    3
 -5  SZX         1    4    3    1
 -1         1 2.47742E+00 2.50757E+00-1.26543E+00-2.93615E+00-1.78352E-12 1.20209E-12
 -1         2-7.55220E-01-2.44339E+01-3.35600E+00-7.35250E-02-1.67595E-12-2.62883E-13
 -1         3 1.99964E+01-3.68432E-03 1.37314E-02-3.73166E-03-3.10860E-13-1.90319E-13
 -1         4 1.99963E+01-3.65553E-03 1.55790E-02 3.78113E-03 2.06669E-13 5.16049E-14
 -1         5 3.27412E+01 6.13747E+00 2.74050E+00 6.22112E+00-1.36488E-14 1.05657E-12
 -1         6 3.57245E+01 1.22541E+01 5.12218E+00-8.64202E+00-4.90719E-14 1.03018E-12
 -1         7 2.08022E+01 6.09502E+00-1.28970E-01-4.72519E+00-8.89566E-15 3.03091E-13
 -1         8 1.96619E+01 5.93199E+00 5.06897E-02-3.27620E+00-1.12063E-14 5.51100E-14
 -1         9 1.91336E+01 5.77090E+00 4.90749E-02-2.52883E+00-1.03251E-14-8.84496E-14
 -1        10 1.88981E+01 5.69287E+00 5.13937E-02-1.95314E+00-7.99621E-15-1.65149E-13
 -1        11 1.87803E+01 5.65324E+00 5.05716E-02-1.45747E+00-9.09949E-15-2.05184E-13
 -1        12 1.87199E+01 5.63246E+00 4.89442E-02-1.01612E+00-3.91354E-15-2.14847E-13
 -1        13 1.86885E+01 5.62166E+00 4.75682E-02-5.95871E-01-2.00718E-15-2.21306E-13
 -1        14 1.86755E+01 5.61713E+00 4.68319E-02-1.91334E-01 1.17441E-15-2.20497E-13
 -1        15 1.86759E+01 5.61728E+00 4.68706E-02 2.08426E-01 2.20581E-15-2.17830E-13
 -1        16 1.86900E+01 5.62212E+00 4.76981E-02 6.13772E-01 3.79460E-15-2.17086E-13
 -1        17 1.87226E+01 5.63318E+00 4.92231E-02 1.03596E+00 4.70088E-15-2.00559E-13
 -1        18 1.87842E+01 5.65426E+00 5.09749E-02 1.48049E+00 4.79955E-15-1.74488E-13
 -1        19 1.89031E+01 5.69433E+00 5.16632E-02 1.98201E+00 9.41001E-15-1.36271E-13
 -1        20 1.91391E+01 5.77344E+00 4.88514E-02 2.56575E+00 1.22367E-14-5.90708E-14
 -1        21 1.96577E+01 5.94669E+00 4.58455E-02 3.31030E+00 1.70558E-14 9.81819E-14
 -1        22 2.11851E+01 6.37675E+00 1.39364E-01 4.52290E+00 2.08167E-15 3.96381E-13
 -1        23 2.30050E+01-1.37798E+00-9.37753E-01-7.11454E-01-2.76411E-14 8.58300E-13
 -1        24 1.93410E+01-9.94554E-02-3.09763E-01 6.29940E-02-7.38472E-15 7.12146E-13
 -1        25 1.86509E+01-5.63559E-02-6.87792E-02 6.05715E-02-1.65579E-15 5.72438E-13
 -1        26 1.84471E+01-2.21658E-02-6.46202E-03 3.27716E-02 4.71606E-15 4.76482E-13
 -1        27 1.84577E+01-1.19337E-02 1.54165E-03 2.23427E-02 3.73790E-15 3.97741E-13
 -1        28 1.85724E+01-6.45379E-03 1.66071E-03 1.59938E-02-2.34880E-14 2.98837E-13
 -1        29 1.87352E+01-3.41086E-03 1.50204E-03 1.17975E-02 4.45417E-16 2.77546E-13
 -1        30 1.89163E+01-1.70874E-03 1.54113E-03 8.80150E-03 1.93533E-14 2.63805E-13
 -1        31 1.91001E+01-8.17049E-04 1.50121E-03 6.55897E-03-8.23713E-15 2.41646E-13
 -1        32 1.92795E+01-4.58176E-04 1.25817E-03 4.85251E-03-2.07561E-14 8.55563E-14
 -1        33 1.94535E+01-4.77354E-04 7.97810E-04 3.57309E-03 1.39119E-14 4.80362E-14
 -1        34 1.96254E+01-7.85368E-04 1.31193E-04 2.66904E-03 1.62209E-15 1.41082E-13
 -1        35 1.98020E+01-1.33042E-03-7.38935E-04 2.12661E-03-3.59658E-14 1.15446E-13
 -1        36 1.99931E+01-2.08199E-03-1.82527E-03 1.96512E-03 1.69996E-14 3.95875E-14
 -1        37 2.02116E+01-3.01829E-03-3.15355E-03 2.23994E-03-2.28295E-14 1.34974E-13
 -1        38 2.04732E+01-4.11188E-03-4.75381E-03 3.04992E-03-2.49351E-14 1.55900E-13
 -1        39 2.07965E+01-5.30826E-03-6.64034E-03 4.54698E-03 5.99666E-14 1.93608E-14
 -1        40 2.12028E+01-6.49108E-03-8.76712E-03 6.94197E-03-4.52525E-14 1.13409E-13
 -1        41 2.17147E+01-7.42642E-03-1.09345E-02 1.04920E-02-1.33600E-14-7.04051E-14
 -1        42 2.23529E+01-7.68077E-03-1.26089E-02 1.54346E-02 5.43662E-15 8.89306E-15
 -1        43 2.31295E+01-6.52263E-03-1.26164E-02 2.17954E-02-5.42380E-14 8.11642E-14
 -1        44 2.40349E+01-2.86299E-03-8.73668E-03 2.89399E-02 6.48517E-14 3.03051E-13
 -1        45 2.50158E+01 4.59975E-03 2.52082E-03 3.47070E-02-2.82505E-15 5.90514E-13
 -1        46 2.59433E+01 1.67074E-02 2.51244E-02 3.41167E-02-7.28334E-15 5.20681E-13
 -1        47 2.65806E+01 3.22543E-02 6.00582E-02 1.84289E-02 4.63063E-15 6.67954E-13
 -1        48 2.65830E+01 4.56563E-02 9.79159E-02-2.28130E-02 4.34227E-14 9.48731E-13
 -1        49 2.55949E+01 4.60645E-02 1.11812E-01-9.20353E-02 1.70714E-14 9.49438E-13
 -1        50 2.35060E+01 2.29817E-02 6.60796E-02-1.65982E-01-1.38388E-14 7.60572E-13
 -1        51 2.07857E+01-2.17237E-02-4.84735E-02-1.89265E-01 1.56120E-14 7.50726E-13
 -1        52 1.85447E+01-6.52522E-02-1.71546E-01-1.14361E-01-8.08758E-14 7.90673E-13
 -1        53 1.79587E+01-7.72680E-02-2.07589E-01 3.36714E-02 9.72226E-14 5.52508E-13
 -1        54 1.93688E+01-4.86415E-02-1.24417E-01 1.59937E-01-2.95554E-14 6.46490E-13
 -1        55 2.19793E+01-7.11969E-04 7.10581E-03 1.89626E-01-5.06798E-14 1.83617E-13
 -1        56 2.45261E+01 3.62582E-02 9.47175E-02 1.36064E-01-3.02449E-15-4.35728E-13
 -1        57 2.61481E+01 4.83392E-02 1.10928E-01 5.90093E-02 2.28116E-14-4.01772E-13
 -1        58 2.66643E+01 4.07283E-02 8.24241E-02 1.08560E-03 3.13196E-14-3.15353E-13
 -1        59 2.63329E+01 2.53381E-02 4.36860E-02-2.79621E-02 8.36462E-15-2.78745E-13
 -1        60 2.55259E+01 1.09077E-02 1.37997E-02-3.58407E-02 2.15709E-14 9.06480E-14
 -1        61 2.45455E+01 8.19310E-04-3.45412E-03-3.28884E-02 1.15584E-15 1.14964E-13
 -1        62 2.35785E+01-4.87514E-03-1.10191E-02-2.61965E-02-2.05048E-14-1.52850E-13
 -1        63 2.27172E+01-7.36501E-03-1.29012E-02-1.93465E-02-6.03293E-14-2.01146E-13
 -1        64 2.19933E+01-7.91541E-03-1.20678E-02-1.36901E-02-5.75097E-14-3.06849E-13
 -1        65 2.14063E+01-7.48020E-03-1.02706E-02-9.48079E-03 3.98830E-14 1.29216E-13
 -1        66 2.09420E+01-6.67620E-03-8.42878E-03-6.52846E-03-4.22929E-14 8.77172E-14
 -1        67 2.05825E+01-5.86875E-03-7.03049E-03-4.49005E-03 2.74693E-14-2.09602E-14
 -1        68 2.03126E+01-5.24787E-03-6.38200E-03-2.93499E-03 1.30496E-13 2.44229E-13
 -1        69 2.01226E+01-4.81316E-03-6.54267E-03-1.25604E-03-3.35207E-14 2.00081E-13
 -1        70 2.00111E+01-3.84158E-03-6.24067E-03 1.83501E-03 7.43807E-14 2.78060E-13
 -1        71 1.99821E+01 6.72102E-04 5.04039E-04 5.88704E-03-5.45652E-14 2.91446E-13
 -1        72 2.10185E+01-4.04576E-01-9.79927E-01-3.11008E-01 1.19037E-14 9.76053E-13
 -1        73 1.93057E+01-6.58845E-02-2.91071E-01-5.36739E-02 5.58364E-15 7.34298E-13
 -1        74 1.86606E+01-2.05457E-02-6.42776E-02-2.01856E-02 3.35084E-15 5.40462E-13
 -1        75 1.84565E+01-9.95205E-03-9.34488E-03-1.52330E-02-2.23324E-15 4.44004E-13
 -1        76 1.84672E+01-5.28533E-03 6.01385E-04-1.20929E-02 3.26616E-15 3.87163E-13
 -1        77 1.85814E+01-2.79949E-03 1.59206E-03-9.73120E-03 6.42417E-16 2.84591E-13
 -1        78 1.87437E+01-1.41668E-03 1.61645E-03-7.88435E-03-1.19549E-14 2.68176E-13
 -1        79 1.89243E+01-6.67314E-04 1.65266E-03-6.33366E-03-6.92798E-15 2.86525E-13
 -1        80 1.91077E+01-3.14584E-04 1.58213E-03-4.97681E-03 4.18177E-15 2.88454E-13
 -1        81 1.92870E+01-2.27554E-04 1.31440E-03-3.78040E-03 1.81115E-14 1.94341E-13
 -1        82 1.94608E+01-3.26748E-04 8.46770E-04-2.74145E-03 1.39518E-14 1.04240E-13
 -1        83 1.96318E+01-5.58670E-04 2.05665E-04-1.87308E-03 7.70658E-15 5.74762E-14
 -1        84 1.98059E+01-8.81020E-04-5.79209E-04-1.20201E-03-9.80842E-15 1.46216E-13
 -1        85 1.99911E+01-1.25199E-03-1.47570E-03-7.71444E-04 5.82099E-15 1.46984E-13
 -1        86 2.01969E+01-1.62026E-03-2.43845E-03-6.45800E-04-7.72902E-15 1.06486E-14
 -1        87 2.04338E+01-1.91416E-03-3.39031E-03-9.15160E-04-3.61766E-14 6.67500E-15
 -1        88 2.07117E+01-2.02985E-03-4.19494E-03-1.69586E-03 1.48902E-16 8.31149E-15
 -1        89 2.10384E+01-1.82032E-03-4.61924E-03-3.12067E-03 4.18289E-14-2.11792E-13
 -1        90 2.14168E+01-1.09134E-03-4.28774E-03-5.30624E-03-3.52021E-14-2.29505E-13
 -1        91 2.18406E+01 3.82341E-04-2.64446E-03-8.27717E-03-1.70931E-14-1.61156E-14
 -1        92 2.22886E+01 2.79692E-03 1.03296E-03-1.18189E-02 2.76958E-14-8.14453E-16
 -1        93 2.27175E+01 6.18375E-03 7.47229E-03-1.52392E-02-9.31132E-15-1.32242E-14
 -1        94 2.30559E+01 1.01785E-02 1.69560E-02-1.70742E-02 5.54256E-14-2.13966E-13
 -1        95 2.32031E+01 1.37469E-02 2.84752E-02-1.49189E-02-1.38344E-14-3.13649E-13
 -1        96 2.30412E+01 1.50757E-02 3.86698E-02-5.81733E-03 2.33895E-15 3.02178E-13
 -1        97 2.24701E+01 1.20352E-02 4.14315E-02 1.21838E-02-5.14877E-14 5.13178E-13
 -1        98 2.14677E+01 3.52509E-03 2.97419E-02 3.71986E-02 1.02888E-14 4.37594E-13
 -1        99 2.01587E+01-8.83667E-03 7.75199E-04 6.10016E-02-7.77959E-15 2.59202E-14
 -1       100 1.88407E+01-2.02884E-02-3.82717E-02 7.05682E-02 1.48153E-14-8.47065E-14
 -1       101 1.79133E+01-2.53416E-02-7.00158E-02 5.58127E-02-3.30215E-14-3.97914E-13
 -1       102 1.77034E+01-2.16049E-02-7.71337E-02 1.93526E-02-3.30476E-14-4.42953E-13
 -1       103 1.82893E+01-1.11893E-02-5.51048E-02-2.33351E-02 2.27455E-15 1.27311E-14
 -1       104 1.94555E+01 7.13443E-04-1.66785E-02-5.36432E-02 3.57534E-14 1.73736E-13
 -1       105 2.08135E+01 9.69837E-03 1.86821E-02-6.23565E-02 9.17177E-14 1.14943E-13
 -1       106 2.19966E+01 1.38441E-02 3.86160E-02-5.29589E-02-1.09338E-13-1.82094E-13
 -1       107 2.27899E+01 1.36630E-02 4.19184E-02-3.49842E-02-3.06341E-15-4.54284E-13
 -1       108 2.31477E+01 1.08478E-02 3.42572E-02-1.69232E-02 8.05079E-14-9.12348E-13
 -1       109 2.31386E+01 7.13981E-03 2.26224E-02-3.22308E-03 3.16809E-15-5.50645E-13
 -1       110 2.28774E+01 3.70060E-03 1.17598E-02 5.19117E-03-1.04975E-15-4.43484E-13
 -1       111 2.24763E+01 1.05725E-03 3.70717E-03 9.25652E-03 4.33676E-14-6.45494E-13
 -1       112 2.20227E+01-7.07790E-04-1.32929E-03 1.04279E-02-5.67105E-14-5.54982E-13
 -1       113 2.15746E+01-1.73936E-03-3.97407E-03 9.98565E-03 1.15969E-13-7.40186E-13
 -1       114 2.11651E+01-2.25785E-03-5.04166E-03 8.83380E-03-8.04504E-14-8.13231E-13
 -1       115 2.08103E+01-2.47727E-03-5.26113E-03 7.52330E-03-5.53659E-14-1.00503E-12
 -1       116 2.05157E+01-2.56610E-03-5.22573E-03 6.32325E-03 5.56648E-14-7.09798E-13
 -1       117 2.02827E+01-2.63679E-03-5.42121E-03 5.26965E-03 5.08317E-14-1.38318E-12
 -1       118 2.01128E+01-2.67972E-03-6.06439E-03 4.12171E-03-3.23470E-14-1.13858E-12
 -1       119 2.00110E+01-2.14579E-03-5.96294E-03 1.71905E-03-8.73468E-14-4.55584E-13
 -1       120 1.99852E+01 2.38165E-03 8.10636E-04-3.80641E-03 1.59493E-13-2.20357E-13
 -1       121 1.99999E+01-1.22399E-02 2.29469E-04-5.72881E-03-1.17488E-13 1.61644E-13
 -1       122 1.99969E+01 1.64373E-02-5.88750E-03 3.44158E-05 2.58327E-13-2.20392E-13
 -1       123 1.99976E+01 1.17351E-01-4.59155E-03 3.59493E-03 3.91972E-13 1.84078E-13
 -1       124 1.99989E+01 2.63686E-01-1.86732E-03 5.20149E-03 8.87221E-13 2.01077E-13
 -1       125 2.00005E+01 4.26956E-01 7.53113E-04 5.41280E-03-7.61522E-15-3.60120E-13
 -1       126 2.00019E+01 5.77918E-01 2.89734E-03 4.71975E-03-6.41548E-13 8.56991E-14
 -1       127 2.00030E+01 6.98248E-01 4.49362E-03 3.27118E-03-7.02424E-13 3.74709E-13
 -1       128 2.00037E+01 7.67314E-01 5.45669E-03 1.32018E-03-7.91997E-13-2.23661E-13
 -1       129 2.00038E+01 7.74267E-01 5.66865E-03-8.80058E-04 3.34223E-14 3.13030E-13
 -1       130 2.00034E+01 7.16839E-01 5.05098E-03-3.03465E-03 1.29358E-13-3.43183E-13
 -1       131 2.00023E+01 6.02206E-01 3.55640E-03-4.86688E-03-1.23831E-12-2.31243E-13
 -1       132 2.00009E+01 4.49602E-01 1.29471E-03-5.83647E-03-2.17693E-12 2.48134E-13
 -1       133 1.99991E+01 2.78601E-01-1.71060E-03-5.76182E-03-1.09051E-12-8.87630E-14
 -1       134 1.99971E+01 1.21824E-01-5.23220E-03-4.48108E-03-6.34813E-13-1.92876E-14
 -1       135 1.99974E+01 1.61526E-02-5.72129E-03-3.31627E-05-5.17209E-13-3.58427E-14
 -1       136 1.99974E+01-1.28873E-02 5.25628E-04 1.07003E-02-4.58758E-13 4.65064E-14
 -1       137-1.49236E+00-1.87966E+01-2.99370E+00-3.75904E+00-1.09812E-12 1.87142E-14
 -1       138-1.09196E+00-6.38217E+00-2.06133E+00-2.12533E+00 6.74294E-13 3.01259E-13
 -1       139 3.95377E+00 4.86534E+00-8.76143E-01 4.61477E+00 1.11999E-12 7.59115E-13
 -1       140 1.75365E+01 1.07029E+01 5.77795E-01 1.34826E+01 8.51930E-13 1.05427E-12
 -1       141 3.73294E+01 9.54788E+00 1.96283E+00 1.82181E+01 5.26912E-13 7.64611E-13
 -1       142 5.64487E+01 4.22903E+00 3.02753E+00 1.36450E+01 1.49603E-13 8.40827E-13
 -1       143 6.54349E+01 9.65907E-01 3.46579E+00 1.98419E+00 6.31266E-14 9.50032E-13
 -1       144 6.06138E+01 2.74280E+00 3.23522E+00-1.08850E+01 5.08309E-14 3.20577E-13
 -1       145 4.46634E+01 7.80321E+00 2.38034E+00-1.76848E+01 5.16781E-13-9.31588E-13
 -1       146 2.52788E+01 1.09273E+01 1.15914E+00-1.62260E+01 1.01352E-12-1.49136E-12
 -1       147 9.56211E+00 8.62516E+00-1.96013E-01-9.11696E+00 1.11189E-12-1.09712E-12
 -1       148 4.63143E-01-9.98442E-01-1.55933E+00-4.79552E-01 6.87672E-13-3.99958E-13
 -1       149-1.72973E+00-1.36085E+01-2.62589E+00 3.90506E+00-8.56537E-14 1.38500E-14
 -1       150-9.20918E-01-2.27457E+01-3.23319E+00 2.47561E+00 5.15699E-14-1.55986E-14
 -1       151-9.01774E-01-2.37836E+01-3.33110E+00-2.05941E+00-2.05502E-13-9.26169E-14
 -1       152-1.84466E+00-1.57934E+01-2.87413E+00-4.32590E+00-1.03384E-12-3.09378E-13
 -1       153-5.15607E-01-3.15225E+00-1.89619E+00-9.81878E-01-2.14867E-12-1.43252E-12
 -1       154 7.42266E+00 6.92139E+00-5.70282E-01 7.32766E+00-2.43944E-12-2.10937E-12
 -1       155 2.59454E+01 1.07812E+01 1.13504E+00 1.63469E+01-1.77136E-12-2.77683E-12
 -1       156 4.62070E+01 7.51634E+00 2.52236E+00 1.75394E+01-1.18319E-12-2.54691E-12
 -1       157 6.37680E+01 2.44294E+00 3.56321E+00 9.65956E+00-3.20287E-13-2.27449E-12
 -1       158 6.71008E+01 1.11458E+00 3.75161E+00-4.26427E+00 1.01370E-13-1.49319E-12
 -1       159 5.55475E+01 4.98944E+00 3.10121E+00-1.53483E+01-2.11872E-13 3.39895E-13
 -1       160 3.64664E+01 9.78519E+00 1.91225E+00-1.83550E+01-7.30888E-13 1.19016E-12
 -1       161 1.63138E+01 1.03054E+01 3.63966E-01-1.28483E+01-1.19510E-12 1.43741E-12
 -1       162-1.80554E+00-9.86395E+00-2.44543E+00 3.50247E+00-1.56430E-12 8.12961E-13
 -1       163-1.39478E+00-2.05471E+01-3.14781E+00 3.84736E+00-1.56844E-12 2.83679E-13
 -1       164 2.09995E+01 3.69224E+00-5.73770E-02-3.61061E+00-1.20758E-13 1.65822E-13
 -1       165 1.99833E+01 4.20731E+00-4.59126E-02-2.80932E+00-1.29174E-13 3.96905E-15
 -1       166 1.95099E+01 4.47636E+00-3.13054E-02-2.19682E+00-1.01460E-13-9.17270E-14
 -1       167 1.92725E+01 4.61618E+00-2.34702E-02-1.67534E+00-9.09169E-14-1.51263E-13
 -1       168 1.91457E+01 4.69895E+00-1.95118E-02-1.21946E+00-6.99207E-14-1.62257E-13
 -1       169 1.90746E+01 4.75085E+00-1.74119E-02-7.92210E-01-4.53461E-14-1.62973E-13
 -1       170 1.90390E+01 4.77933E+00-1.63980E-02-3.86887E-01-8.42948E-15-1.61649E-13
 -1       171 1.90285E+01 4.78809E+00-1.61056E-02 8.31804E-03 1.15672E-14-1.73210E-13
 -1       172 1.90406E+01 4.77807E+00-1.64385E-02 4.03849E-01 3.15573E-14-1.70985E-13
 -1       173 1.90782E+01 4.74792E+00-1.74923E-02 8.10200E-01 4.81938E-14-1.65330E-13
 -1       174 1.91501E+01 4.69459E+00-1.96596E-02 1.23188E+00 7.30815E-14-1.48033E-13
 -1       175 1.92818E+01 4.60633E+00-2.39768E-02 1.69883E+00 1.02979E-13-1.17902E-13
 -1       176 1.95235E+01 4.45940E+00-3.28176E-02 2.22740E+00 1.22016E-13-6.45508E-14
 -1       177 2.00066E+01 4.18276E+00-4.71773E-02 2.84764E+00 1.38668E-13 4.25597E-14
 -1       178 2.11209E+01 3.46231E+00-5.97668E-02 3.53715E+00 1.41869E-13 2.21261E-13
 -1       179 2.23993E+01 1.14334E+00-3.36303E-01 3.01508E+00 1.00030E-13 4.52513E-13
 -1       180 2.19526E+01 8.58071E-01 6.84787E-04-1.95991E+00-9.71619E-14 3.40276E-13
 -1       181 2.04280E+01 1.90420E-01-9.92574E-03-7.65125E-01-7.93914E-14 2.91262E-13
 -1       182 1.96526E+01 1.01786E-01 1.36188E-02-2.86276E-01-6.46948E-14 2.34399E-13
 -1       183 1.93137E+01 4.74926E-02 1.00508E-02-6.79119E-02-5.02825E-14 1.91028E-13
 -1       184 1.91862E+01 2.31502E-02 5.21415E-03 4.06937E-02-4.93796E-14 1.91382E-13
 -1       185 1.91771E+01 1.04963E-02 2.51711E-03 9.55421E-02-4.99124E-14 1.97180E-13
 -1       186 1.92334E+01 3.64240E-03 1.25234E-03 1.21413E-01 8.59680E-15 1.76313E-13
 -1       187 1.93253E+01 1.52745E-04 6.68037E-04 1.31560E-01-3.83297E-14 1.41793E-13
 -1       188 1.94360E+01-1.15168E-03 3.97364E-04 1.33994E-01-8.96858E-14 1.34411E-13
 -1       189 1.95572E+01-9.04921E-04 2.93268E-04 1.34066E-01-2.79699E-14 1.45800E-13
 -1       190 1.96862E+01 5.35064E-04 2.95921E-04 1.35661E-01 2.04708E-15 4.23179E-14
 -1       191 1.98241E+01 2.97292E-03 3.76811E-04 1.41832E-01-3.91617E-14-3.52166E-14
 -1       192 1.99756E+01 6.31812E-03 5.19123E-04 1.55175E-01-5.97968E-14-1.12328E-14
 -1       193 2.01476E+01 1.05449E-02 7.09779E-04 1.78065E-01 4.61969E-14 4.01866E-14
 -1       194 2.03496E+01 1.56489E-02 9.33812E-04 2.12765E-01-4.53202E-15 9.01578E-14
 -1       195 2.05928E+01 2.15820E-02 1.16762E-03 2.61391E-01-8.78116E-14 3.57730E-14
 -1       196 2.08900E+01 2.81339E-02 1.36948E-03 3.25636E-01-2.65109E-14-1.64305E-13
 -1       197 2.12542E+01 3.47170E-02 1.46724E-03 4.06083E-01-4.19630E-14-1.03755E-13
 -1       198 2.16974E+01 3.99862E-02 1.34630E-03 5.00794E-01-3.13406E-14-1.81080E-13
 -1       199 2.22266E+01 4.12255E-02 8.49550E-04 6.02739E-01 7.65470E-14-1.82722E-13
 -1       200 2.28387E+01 3.35108E-02-1.86427E-04 6.95584E-01 1.65534E-13 9.19575E-14
 -1       201 2.35112E+01 8.99509E-03-1.82058E-03 7.47823E-01 9.79099E-14 1.44816E-13
 -1       202 2.41914E+01-4.24373E-02-3.81069E-03 7.07085E-01 1.17505E-13 2.59986E-13
 -1       203 2.47836E+01-1.28178E-01-5.37425E-03 5.01139E-01 6.94228E-14 4.71307E-13
 -1       204 2.51452E+01-2.39318E-01-5.28044E-03 6.00758E-02 8.16968E-14 4.92368E-13
 -1       205 2.51056E+01-3.28088E-01-2.93027E-03-6.20574E-01 3.98527E-14 4.77698E-13
 -1       206 2.45352E+01-2.97832E-01-9.22097E-06-1.37694E+00-1.33295E-13 3.89448E-13
 -1       207 2.34802E+01-5.83253E-02 5.86890E-04-1.82084E+00 2.05700E-14 4.38280E-13
 -1       208 2.22985E+01 3.29721E-01-5.33387E-03-1.51313E+00-9.62772E-16 4.85658E-13
 -1       209 2.15942E+01 6.00971E-01-1.17133E-02-3.97330E-01-1.57907E-13 4.90119E-13
 -1       210 2.18005E+01 5.20403E-01-9.32039E-03 9.54809E-01-1.72966E-13 2.47947E-13
 -1       211 2.27870E+01 1.55608E-01-2.89450E-03 1.75629E+00-3.10467E-13-1.01360E-14
 -1       212 2.39765E+01-1.90827E-01 2.98568E-05 1.69485E+00-2.50988E-13-1.92315E-13
 -1       213 2.48409E+01-3.33151E-01-1.44467E-03 1.05502E+00 8.62583E-14-2.02346E-13
 -1       214 2.51683E+01-2.97547E-01-4.17345E-03 2.96386E-01-1.29731E-14-3.04039E-13
 -1       215 2.50088E+01-1.89973E-01-5.57762E-03-2.88201E-01-7.82434E-14-2.30191E-13
 -1       216 2.45222E+01-8.68788E-02-4.80550E-03-6.21141E-01 1.74385E-14-4.85062E-13
 -1       217 2.38722E+01-1.63484E-02-2.93471E-03-7.46153E-01 1.04746E-13-4.07767E-13
 -1       218 2.31814E+01 2.21954E-02-1.02764E-03-7.38944E-01-8.40213E-14-2.67857E-13
 -1       219 2.25261E+01 3.84385E-02 3.74134E-04-6.63920E-01-1.07758E-13-2.13903E-13
 -1       220 2.19448E+01 4.18346E-02 1.19103E-03-5.63510E-01-5.53529E-14-1.66543E-13
 -1       221 2.14516E+01 3.89984E-02 1.55131E-03-4.61290E-01 3.42482E-13 5.23122E-14
 -1       222 2.10459E+01 3.39192E-02 1.62698E-03-3.68108E-01-7.48967E-15 1.18207E-13
 -1       223 2.07206E+01 2.88307E-02 1.55156E-03-2.87168E-01 8.09370E-14 3.29809E-13
 -1       224 2.04665E+01 2.49834E-02 1.39125E-03-2.17346E-01 9.32735E-14 2.44437E-13
 -1       225 2.02751E+01 2.31140E-02 1.14519E-03-1.55102E-01 1.12118E-14 7.26977E-14
 -1       226 2.01394E+01 2.34137E-02 9.25684E-04-9.61246E-02 4.98844E-14 2.08164E-13
 -1       227 2.00503E+01 2.41614E-02 6.65770E-04-3.85123E-02 2.63366E-15 3.51530E-13
 -1       228 2.09433E+01 2.77029E-01-5.13196E-02 1.16565E+00 1.28463E-13 3.91955E-13
 -1       229 1.98483E+01 1.26890E-01 8.32036E-03 4.43908E-01 9.49189E-14 3.13682E-13
 -1       230 1.93421E+01 5.82056E-02 1.27566E-02 1.50491E-01 5.51035E-14 2.16424E-13
 -1       231 1.91335E+01 2.80106E-02 7.66386E-03 1.04234E-02 5.01745E-14 1.56091E-13
 -1       232 1.90865E+01 1.35766E-02 3.87431E-03-6.01009E-02 2.46001E-14 1.30583E-13
 -1       233 1.91278E+01 5.94723E-03 1.97653E-03-9.47868E-02 1.51413E-14 1.02452E-13
 -1       234 1.92163E+01 1.83746E-03 1.09716E-03-1.10012E-01 6.26818E-15 6.56823E-14
 -1       235 1.93292E+01-1.76712E-04 6.65584E-04-1.14885E-01 3.50739E-15 3.67436E-14
 -1       236 1.94541E+01-8.09951E-04 4.35982E-04-1.15087E-01 5.39239E-14 4.54183E-15
 -1       237 1.95855E+01-4.70188E-04 3.13033E-04-1.14450E-01 3.24866E-14 8.53861E-15
 -1       238 1.97223E+01 5.85728E-04 2.54594E-04-1.15703E-01 2.77704E-14 9.94043E-15
 -1       239 1.98669E+01 2.17791E-03 2.35619E-04-1.20843E-01-5.58291E-15 7.50097E-15
 -1       240 2.00238E+01 4.15562E-03 2.36356E-04-1.31307E-01 3.79151E-14-3.77988E-14
 -1       241 2.01990E+01 6.35477E-03 2.37918E-04-1.48008E-01-6.99419E-16-3.99303E-14
 -1       242 2.03993E+01 8.54979E-03 2.20195E-04-1.71212E-01 2.44096E-14 4.44855E-14
 -1       243 2.06309E+01 1.03932E-02 1.61387E-04-2.00270E-01 4.95948E-14-8.93443E-14
 -1       244 2.08983E+01 1.13403E-02 4.02425E-05-2.33139E-01 1.21196E-13-1.27244E-13
 -1       245 2.12024E+01 1.05663E-02-1.56814E-04-2.65686E-01-1.77438E-14-1.61346E-13
 -1       246 2.15370E+01 6.90311E-03-4.21095E-04-2.90805E-01-5.50760E-14-1.50923E-13
 -1       247 2.18862E+01-1.12344E-03-6.99699E-04-2.97543E-01-3.70359E-14-7.67554E-14
 -1       248 2.22200E+01-1.49988E-02-8.74099E-04-2.70771E-01 7.50918E-15 1.92817E-14
 -1       249 2.24914E+01-3.54135E-02-7.64254E-04-1.92507E-01 1.18649E-13-1.97587E-14
 -1       250 2.26373E+01-6.07105E-02-2.00783E-04-4.66728E-02-6.03855E-14 3.78451E-14
 -1       251 2.25868E+01-8.47301E-02 8.17472E-04 1.70925E-01-2.09421E-13 1.40663E-13
 -1       252 2.22812E+01-9.53991E-02 1.90079E-03 4.37629E-01-1.12551E-13 2.22300E-13
 -1       253 2.17077E+01-7.70980E-02 2.23398E-03 6.90447E-01 7.29362E-14 3.73815E-13
 -1       254 2.09373E+01-2.00781E-02 1.00237E-03 8.29481E-01 1.23984E-13 3.76462E-13
 -1       255 2.01418E+01 6.56016E-02-1.74415E-03 7.55706E-01 4.16418E-14 2.57403E-13
 -1       256 1.95579E+01 1.44874E-01-4.37044E-03 4.37322E-01 1.35823E-13 1.42889E-13
 -1       257 1.93903E+01 1.74844E-01-4.68337E-03-3.96764E-02 1.26492E-14-4.14595E-14
 -1       258 1.97016E+01 1.38700E-01-2.00042E-03-5.01416E-01-2.01425E-13-1.12670E-13
 -1       259 2.03772E+01 5.71813E-02 1.53760E-03-7.82047E-01 9.48050E-14-1.75386E-13
 -1       260 2.11883E+01-2.59149E-02 3.47236E-03-8.16078E-01 2.45587E-14-1.47044E-13
 -1       261 2.19094E+01-7.85392E-02 3.21706E-03-6.51293E-01 3.09024E-14 7.03595E-14
 -1       262 2.23994E+01-9.36198E-02 1.64684E-03-3.90563E-01 2.21022E-13-2.20062E-13
 -1       263 2.26172E+01-8.18182E-02-8.13857E-05-1.28723E-01 2.00402E-13-3.39454E-13
 -1       264 2.25945E+01-5.81075E-02-1.17554E-03 7.83735E-02-2.07160E-13-4.83589E-13
 -1       265 2.23970E+01-3.36607E-02-1.51234E-03 2.13261E-01-6.62231E-16-2.81618E-13
 -1       266 2.20951E+01-1.40566E-02-1.32094E-03 2.82616E-01 5.76987E-14 5.49801E-14
 -1       267 2.17475E+01-6.85619E-04-8.88756E-04 3.03005E-01-5.56694E-15 1.23071E-13
 -1       268 2.13963E+01 7.22993E-03-4.23697E-04 2.91730E-01 2.21676E-13-3.78005E-14
 -1       269 2.10684E+01 1.11927E-02-3.35523E-05 2.62713E-01-1.47553E-13-1.22234E-13
 -1       270 2.07785E+01 1.27185E-02 2.43841E-04 2.25441E-01 1.83801E-14-2.40224E-14
 -1       271 2.05333E+01 1.30879E-02 3.95634E-04 1.85313E-01 4.33681E-18-1.06004E-13
 -1       272 2.03352E+01 1.32860E-02 3.84396E-04 1.44425E-01 2.59307E-13-9.70619E-14
 -1       273 2.01848E+01 1.40673E-02 1.69590E-04 1.02539E-01-1.77423E-13-3.11503E-14
 -1       274 2.00820E+01 1.60555E-02 2.21161E-04 5.81461E-02-1.96815E-13 4.09272E-14
 -1       275 2.00228E+01 1.38526E-02 9.54268E-04 1.41592E-02 9.57324E-14-8.29957E-17
 -1       276 2.00215E+01 4.80394E-02 5.47850E-04 3.89034E-02 1.69265E-14 3.75768E-13
 -1       277 2.00176E+01 1.21762E-01 2.05537E-04 8.42433E-02 3.30050E-13 7.06609E-14
 -1       278 2.00091E+01 2.23067E-01 9.72888E-05 1.16220E-01 3.23764E-13 3.82722E-13
 -1       279 2.00006E+01 3.39511E-01-3.48991E-05 1.27967E-01 1.15698E-13-3.04699E-13
 -1       280 1.99928E+01 4.53473E-01-2.77932E-04 1.19839E-01 6.67536E-14-4.49709E-13
 -1       281 1.99863E+01 5.52973E-01-5.06199E-04 9.38257E-02-3.91132E-14-2.12984E-13
 -1       282 1.99818E+01 6.21771E-01-6.77277E-04 5.39352E-02-2.78493E-13 4.54127E-14
 -1       283 1.99797E+01 6.49925E-01-7.48482E-04 5.68279E-03-2.32003E-14 3.92290E-13
 -1       284 1.99804E+01 6.32827E-01-7.07133E-04-4.43025E-02-3.80721E-13-7.72775E-14
 -1       285 1.99841E+01 5.72125E-01-5.57306E-04-8.87921E-02-3.12562E-13-3.49649E-13
 -1       286 1.99904E+01 4.77792E-01-3.22610E-04-1.20216E-01-2.11591E-13-4.31589E-13
 -1       287 1.99991E+01 3.60011E-01-9.05454E-05-1.33464E-01-3.32837E-13 5.50221E-13
 -1       288 2.00091E+01 2.37830E-01 5.90141E-05-1.23621E-01-1.84804E-13 3.01881E-13
 -1       289 2.00194E+01 1.31162E-01 5.37483E-04-9.00252E-02-3.00792E-13 6.98358E-14
 -1       290 2.00386E+01 7.35561E-02 5.86129E-04-7.18278E-02-1.20683E-13 7.95430E-14
 -1       291-6.19578E-01-9.77224E+00-8.19901E-01 1.60974E+00-4.38982E-13 2.58765E-13
 -1       292 3.70099E+00-7.69810E+00-6.43547E-01 4.22337E+00-3.40894E-13 5.54071E-13
 -1       293 1.02101E+01-4.25868E+00-4.46739E-01 5.84611E+00-2.36478E-14 4.34722E-13
 -1       294 1.93722E+01-3.53131E-01-5.14179E-02 7.41699E+00 3.17829E-13 3.03785E-13
 -1       295 3.02616E+01 1.76850E+00 2.50217E-01 6.13902E+00 3.02161E-13 4.41397E-13
 -1       296 3.90871E+01 5.23125E+00 6.62054E-01 5.50445E+00 3.04954E-13 5.40762E-13
 -1       297 4.23769E+01 7.05736E+00 6.33367E-01 1.62716E+00 1.13132E-13 4.34555E-13
 -1       298 4.62432E+01 6.60807E+00 1.00169E+00-1.51262E+00 2.67120E-13 2.73011E-13
 -1       299 4.09157E+01 5.81461E+00 6.87542E-01-4.14658E+00 4.26270E-13 3.75894E-13
 -1       300 3.35422E+01 2.96896E+00 3.44619E-01-5.38020E+00 3.08857E-13 4.26409E-13
 -1       301 2.40411E+01 1.31028E+00 1.37422E-01-7.72961E+00 1.09218E-13-1.61121E-13
 -1       302 1.51023E+01-2.91504E+00-2.28818E-01-6.74565E+00-1.03806E-13-3.75491E-13
 -1       303 6.65074E+00-6.31434E+00-5.24592E-01-5.20960E+00-2.11914E-13-4.13111E-13
 -1       304 8.55802E-01-9.24786E+00-8.13077E-01-2.71855E+00-2.22850E-13 1.53627E-14
 -1       305-1.27510E+00-1.11034E+01-1.00330E+00-3.79266E-01-3.56076E-13-8.75411E-14
 -1       306 3.31690E-01-9.36875E+00-7.98203E-01 2.15246E+00-3.04312E-13-4.54081E-13
 -1       307 4.98975E+00-7.33435E+00-7.49932E-01 4.03495E+00-6.38684E-13-1.04548E-12
 -1       308 1.29982E+01-3.41132E+00-3.87893E-01 6.19041E+00-1.05993E-12-1.22208E-12
 -1       309 2.52522E+01-1.05379E+00 6.00495E-02 6.44522E+00-1.00384E-12-1.20445E-12
 -1       310 3.48032E+01 3.30850E+00 4.66615E-01 6.25276E+00-1.02830E-12-1.29413E-12
 -1       311 4.07027E+01 5.76207E+00 5.37634E-01 2.37041E+00-5.53224E-13-1.22341E-12
 -1       312 4.76403E+01 6.71550E+00 1.10005E+00 7.47860E-01-4.52305E-13-1.03371E-12
 -1       313 4.53708E+01 6.47237E+00 9.75253E-01-2.73645E+00-6.92640E-13-7.44182E-13
 -1       314 3.96532E+01 4.78511E+00 7.50968E-01-5.89725E+00-5.60480E-13-4.09478E-13
 -1       315 3.01210E+01 2.02882E+00 3.15837E-01-6.98419E+00-5.37598E-13 1.13742E-13
 -1       316 1.91966E+01-1.89155E+00-1.38381E-01-6.85761E+00-6.76931E-13 4.53249E-13
 -1       317 9.35123E+00-5.59189E+00-4.85979E-01-5.55877E+00-9.39138E-13 6.21364E-13
 -1       318 2.31623E+00-8.70007E+00-7.94760E-01-3.15634E+00-1.02168E-12 4.72074E-13
 -1       319-8.98308E-01-1.04631E+01-9.17568E-01-8.78660E-01-9.67580E-13-2.03726E-14
 -1       320 2.01332E+01 3.00097E+00-2.19938E-02-2.09723E+00-1.27327E-13-6.40980E-15
 -1       321 2.07462E+01 2.20793E+00-1.76642E-02-2.36493E+00-1.34205E-13 7.50736E-14
 -1       322 1.95906E+01 3.69399E+00-1.56155E-02-1.31659E+00-9.16782E-14-1.11348E-13
 -1       323 1.94706E+01 3.85217E+00-1.37119E-02-9.22936E-01-7.49195E-14-1.05190E-13
 -1       324 1.94035E+01 3.94405E+00-1.27134E-02-5.43281E-01-2.64774E-14-1.08312E-13
 -1       325 1.93738E+01 3.98593E+00-1.22914E-02-1.72986E-01 7.57825E-15-1.14153E-13
 -1       326 1.93751E+01 3.98433E+00-1.23084E-02 1.94244E-01 2.97123E-14-1.14242E-13
 -1       327 1.94075E+01 3.93889E+00-1.27542E-02 5.64871E-01 4.67104E-14-1.14270E-13
 -1       328 1.94764E+01 3.84465E+00-1.37626E-02 9.38655E-01 7.71521E-14-1.09736E-13
 -1       329 1.96002E+01 3.68116E+00-1.56481E-02 1.33276E+00 1.11016E-13-8.40595E-14
 -1       330 1.98113E+01 3.41120E+00-1.88217E-02 1.73835E+00 1.39926E-13-4.27141E-14
 -1       331 2.01760E+01 2.95543E+00-2.29217E-02 2.12731E+00 1.55847E-13 2.27067E-14
 -1       332 2.07385E+01 2.12922E+00-3.04471E-02 2.32269E+00 1.76206E-13 1.43078E-13
 -1       333 2.10802E+01 1.18760E+00-2.49063E-02 1.92269E+00 1.54963E-13 2.39916E-13
 -1       334 2.03770E+01 4.89512E-01 8.34638E-03 9.27963E-01 1.15545E-13 1.90071E-13
 -1       335 2.04471E+01 6.75843E-01 1.25923E-02-1.02517E+00-9.33346E-14 9.09413E-14
 -1       336 2.00268E+01 3.38031E-01 7.18641E-03-4.56965E-01-8.19581E-14 8.94518E-14
 -1       337 1.97751E+01 1.78702E-01 4.12792E-03-1.45816E-01-4.92106E-14 5.07383E-14
 -1       338 1.96438E+01 9.41096E-02 1.93242E-03 2.89554E-02-6.05316E-14 5.22227E-14
 -1       339 1.95951E+01 4.69934E-02 8.58448E-04 1.25689E-01-3.58563E-14 6.46980E-14
 -1       340 1.95999E+01 2.07704E-02 3.75675E-04 1.77159E-01-2.07410E-14 3.69646E-14
 -1       341 1.96391E+01 7.45560E-03 1.63332E-04 2.03170E-01-5.68286E-14 5.36645E-14
 -1       342 1.97004E+01 2.83210E-03 8.71215E-05 2.16613E-01-8.14027E-14 6.37113E-14
 -1       343 1.97771E+01 4.51520E-03 9.52392E-05 2.26477E-01-7.33159E-14 3.14885E-14
 -1       344 1.98664E+01 1.11216E-02 1.65268E-04 2.39449E-01-5.11801E-14 3.70534E-15
 -1       345 1.99685E+01 2.18700E-02 2.85860E-04 2.60834E-01 9.01871E-15 1.47508E-14
 -1       346 2.00857E+01 3.63474E-02 4.50325E-04 2.95112E-01 4.37363E-14 1.09340E-13
 -1       347 2.02224E+01 5.43195E-02 6.53126E-04 3.46251E-01 4.33545E-16 6.56980E-14
 -1       348 2.03840E+01 7.55048E-02 8.85975E-04 4.17781E-01-1.19167E-13-2.51154E-14
 -1       349 2.05771E+01 9.92240E-02 1.13180E-03 5.12575E-01-1.28997E-13 1.44433E-14
 -1       350 2.08085E+01 1.23803E-01 1.35516E-03 6.32166E-01-6.93657E-14 3.10661E-14
 -1       351 2.10853E+01 1.45557E-01 1.48813E-03 7.75331E-01-4.51914E-14 1.19052E-14
 -1       352 2.14139E+01 1.57151E-01 1.41271E-03 9.35506E-01 3.95253E-14-4.61613E-14
 -1       353 2.17994E+01 1.45288E-01 9.47678E-04 1.09653E+00 2.00594E-13-8.23134E-14
 -1       354 2.22458E+01 8.82263E-02-1.41173E-04 1.22639E+00 1.99962E-13-1.63547E-13
 -1       355 2.27553E+01-4.45331E-02-2.06079E-03 1.26949E+00 1.59148E-13 3.01784E-14
 -1       356 2.33258E+01-2.84252E-01-4.81810E-03 1.14125E+00 2.05946E-13 1.40849E-14
 -1       357 2.39417E+01-6.34856E-01-7.74608E-03 7.35266E-01 1.01659E-13 9.73668E-14
 -1       358 2.45475E+01-1.01431E+00-9.38445E-03-3.50863E-02 7.68812E-14 7.81555E-14
 -1       359 2.50029E+01-1.18072E+00-9.35396E-03-1.12865E+00-2.28901E-14 2.16290E-13
 -1       360 2.50815E+01-7.65726E-01-1.10775E-02-2.20209E+00 2.21929E-14 2.78472E-13
 -1       361 2.46601E+01 3.87107E-01-1.43648E-02-2.54458E+00 1.11792E-13 2.40029E-13
 -1       362 2.40098E+01 1.73006E+00-2.76499E-02-1.54381E+00-7.18991E-14 8.52287E-14
 -1       363 2.38041E+01 2.13418E+00-3.05553E-02 4.53140E-01-2.90941E-13 1.81776E-14
 -1       364 2.42819E+01 1.19242E+00-2.08843E-02 2.15241E+00-3.88276E-13 3.55401E-16
 -1       365 2.48932E+01-1.91523E-01-1.52777E-02 2.53330E+00-3.14266E-13 4.23142E-15
 -1       366 2.51009E+01-1.04108E+00-1.10155E-02 1.76994E+00-1.60140E-13 2.76951E-15
 -1       367 2.48274E+01-1.15749E+00-9.25193E-03 6.20011E-01-3.60059E-14-1.81389E-13
 -1       368 2.42805E+01-8.57697E-01-8.76669E-03-3.53852E-01-6.60758E-14-3.81869E-13
 -1       369 2.36565E+01-4.71951E-01-6.44317E-03-9.60725E-01-3.54038E-14-2.15975E-13
 -1       370 2.30540E+01-1.66201E-01-3.54690E-03-1.23325E+00 1.32415E-13 7.51542E-14
 -1       371 2.25067E+01 2.42004E-02-1.12410E-03-1.27520E+00 1.01062E-13-1.49718E-13
 -1       372 2.20225E+01 1.20535E-01 4.29930E-04-1.18561E+00 1.54404E-13 3.70410E-14
 -1       373 2.16015E+01 1.55867E-01 1.23720E-03-1.03572E+00-2.63482E-14 3.43601E-13
 -1       374 2.12412E+01 1.57427E-01 1.53550E-03-8.69186E-01 1.51749E-13 2.59139E-13
 -1       375 2.09381E+01 1.43408E-01 1.54719E-03-7.09211E-01 2.62747E-13 3.86857E-14
 -1       376 2.06875E+01 1.24743E-01 1.42987E-03-5.65702E-01 2.81180E-13 3.14438E-13
 -1       377 2.04841E+01 1.07634E-01 1.27494E-03-4.40560E-01 1.30399E-13 2.80680E-13
 -1       378 2.03222E+01 9.54399E-02 1.13025E-03-3.31298E-01-2.10820E-13 4.26194E-13
 -1       379 2.01964E+01 8.96290E-02 1.18685E-03-2.33354E-01 3.33128E-14 2.58143E-13
 -1       380 2.01090E+01 8.24698E-02 8.08421E-04-1.48886E-01 1.74057E-13 2.76382E-13
 -1       381 1.98763E+01 2.29083E-01 1.08131E-02 3.98583E-01 9.55637E-14 1.69382E-13
 -1       382 1.95895E+01 1.16504E-01 6.20439E-03 1.18401E-01 7.39226E-14 1.26730E-13
 -1       383 1.94584E+01 5.95739E-02 2.85385E-03-3.29596E-02 2.94166E-14 7.74421E-14
 -1       384 1.94245E+01 2.88086E-02 1.25004E-03-1.13813E-01 2.65981E-14 5.12294E-14
 -1       385 1.94497E+01 1.18736E-02 5.54454E-04-1.55021E-01 4.45467E-14 2.89811E-14
 -1       386 1.95102E+01 3.16256E-03 2.49555E-04-1.74152E-01 3.14436E-14-1.41253E-14
 -1       387 1.95918E+01-1.89019E-04 1.21049E-04-1.82185E-01 7.14743E-14-1.46694E-14
 -1       388 1.96868E+01 1.81075E-04 9.04476E-05-1.86466E-01 4.08735E-14 2.65477E-14
 -1       389 1.97920E+01 3.24318E-03 1.23768E-04-1.92160E-01 4.88694E-14-1.15009E-14
 -1       390 1.99074E+01 8.27715E-03 2.00466E-04-2.02987E-01 1.40034E-14-5.11442E-14
 -1       391 2.00351E+01 1.46872E-02 3.03532E-04-2.21586E-01 1.04306E-13-9.32465E-14
 -1       392 2.01789E+01 2.18480E-02 4.14976E-04-2.49608E-01-1.16241E-14-7.55382E-14
 -1       393 2.03432E+01 2.89409E-02 5.12344E-04-2.87585E-01 1.99083E-14-9.13737E-14
 -1       394 2.05325E+01 3.47597E-02 5.65303E-04-3.34531E-01 9.54908E-14-1.08643E-13
 -1       395 2.07502E+01 3.74797E-02 5.33010E-04-3.87269E-01 1.28025E-13-1.62528E-13
 -1       396 2.09974E+01 3.44181E-02 3.64101E-04-4.39445E-01 5.01915E-14-1.26447E-13
 -1       397 2.12713E+01 2.18814E-02 2.88644E-06-4.80296E-01-5.11795E-14-1.81460E-13
 -1       398 2.15631E+01-4.66143E-03-5.93167E-04-4.93473E-01-7.98422E-14-7.23849E-14
 -1       399 2.18558E+01-4.96112E-02-1.42141E-03-4.56629E-01-6.11041E-14-4.27832E-14
 -1       400 2.21215E+01-1.14762E-01-2.38623E-03-3.43263E-01 8.34208E-14 4.67212E-14
 -1       401 2.23211E+01-1.94683E-01-3.26112E-03-1.29196E-01-9.02826E-14 5.80369E-14
 -1       402 2.24051E+01-2.70420E-01-3.69110E-03 1.93736E-01-2.30453E-13 4.62334E-14
 -1       403 2.23224E+01-3.05198E-01-3.24768E-03 5.96472E-01-1.22168E-13 1.36741E-13
 -1       404 2.20394E+01-2.50958E-01-1.78985E-03 9.91452E-01-1.00848E-13 2.02844E-13
 -1       405 2.15723E+01-7.54327E-02 4.56695E-04 1.23218E+00 1.70030E-13 4.60427E-13
 -1       406 2.10209E+01 1.94366E-01 2.56175E-03 1.16210E+00 1.30996E-13 4.45093E-13
 -1       407 2.05644E+01 4.52695E-01 3.65273E-03 7.14503E-01 1.70158E-13 4.76306E-13
 -1       408 2.03919E+01 5.59595E-01 4.12852E-03 1.84015E-03 1.20237E-13 4.75492E-13
 -1       409 2.05807E+01 4.56008E-01 4.99617E-03-7.11921E-01-4.92054E-15 2.19063E-13
 -1       410 2.10478E+01 1.98273E-01 4.20097E-03-1.16035E+00 1.16271E-13-1.09518E-13
 -1       411 2.16000E+01-7.27843E-02 1.60088E-03-1.22960E+00-3.53519E-14-2.20597E-13
 -1       412 2.20590E+01-2.49991E-01-1.34036E-03-9.87322E-01-9.44707E-14-1.69095E-13
 -1       413 2.23293E+01-3.05837E-01-3.38664E-03-5.90631E-01 1.78668E-13 3.07325E-13
 -1       414 2.23981E+01-2.71977E-01-4.18088E-03-1.86436E-01 2.88611E-13 3.50017E-13
 -1       415 2.23016E+01-1.96380E-01-3.78577E-03 1.37540E-01-1.03395E-13 1.56067E-13
 -1       416 2.20922E+01-1.16036E-01-2.76826E-03 3.52086E-01-1.33477E-13 1.04422E-13
 -1       417 2.18195E+01-5.02174E-02-1.63396E-03 4.65297E-01-2.39381E-13 1.27490E-13
 -1       418 2.15227E+01-4.39078E-03-6.66606E-04 5.01199E-01 5.04896E-14 4.56770E-13
 -1       419 2.12294E+01 2.34059E-02 3.70819E-05 4.85820E-01 2.15810E-13 3.85554E-13
 -1       420 2.09573E+01 3.78210E-02 4.87070E-04 4.40689E-01 5.09870E-14 3.08001E-13
 -1       421 2.07160E+01 4.37383E-02 7.40195E-04 3.80966E-01 6.96763E-15 1.99088E-13
 -1       422 2.05101E+01 4.53282E-02 8.59474E-04 3.15749E-01 9.02273E-16 2.47730E-13
 -1       423 2.03408E+01 4.57711E-02 8.83926E-04 2.49223E-01 1.39866E-13 3.55185E-13
 -1       424 2.02072E+01 4.70488E-02 7.92713E-04 1.82310E-01-7.41257E-14 4.29394E-13
 -1       425 2.01069E+01 4.91896E-02 6.55503E-04 1.14861E-01-2.59799E-13 3.74009E-13
 -1       426 2.00589E+01 5.20121E-02 4.72964E-04 7.64848E-02-1.12545E-13 4.71080E-13
 -1       427 2.00171E+01 2.83358E-01 2.04460E-04 2.19865E-01-1.73020E-13-3.70103E-13
 -1       428 2.00481E+01 1.84190E-01 5.37690E-04 1.88677E-01 1.63944E-13 4.55184E-13
 -1       429 2.00602E+01 1.12426E-01 6.81271E-04 1.35957E-01 3.15290E-14 3.76695E-13
 -1       430 1.99861E+01 3.82005E-01-1.17777E-04 2.19520E-01-2.00269E-13-3.70159E-13
 -1       431 1.99579E+01 4.72978E-01-3.89566E-04 1.88267E-01 2.12018E-13-2.76474E-13
 -1       432 1.99360E+01 5.43790E-01-5.99913E-04 1.30405E-01 2.37854E-13-1.49710E-13
 -1       433 1.99227E+01 5.85574E-01-7.26123E-04 5.36114E-02-6.19269E-14 1.89308E-13
 -1       434 1.99198E+01 5.92525E-01-7.46449E-04-3.20139E-02-2.55960E-13 1.80753E-14
 -1       435 1.99284E+01 5.62981E-01-6.51643E-04-1.14781E-01-3.74870E-13-2.41981E-13
 -1       436 1.99479E+01 5.01304E-01-4.52581E-04-1.81608E-01-1.33718E-13-2.11645E-13
 -1       437 1.99774E+01 4.12558E-01-1.90900E-04-2.23896E-01 5.41833E-14 1.54680E-13
 -1       438 2.00132E+01 3.08473E-01 1.27806E-04-2.32003E-01 8.33197E-14 4.31243E-13
 -1       439 2.00509E+01 2.00873E-01 5.40198E-04-2.03279E-01-7.27572E-14 6.56952E-15
 -1       440 1.16404E+01-5.44392E+00-2.89346E-02 7.12911E+00-3.59768E-13 4.01654E-13
 -1       441 1.45642E+00-3.83807E+00-5.41391E-03 2.98069E-01-1.88065E-13 3.72313E-13
 -1       442 4.89630E+00-3.99638E+00 5.50462E-02 5.01798E+00-2.63720E-13 5.55611E-13
 -1       443 2.01567E+01-5.20853E+00 1.03084E-02 6.54394E+00-2.39739E-13-4.29518E-14
 -1       444 2.66209E+01-3.57573E+00-4.10136E-02 4.05301E+00-3.88647E-14 2.39586E-13
 -1       445 1.97932E+01 3.43440E+00-1.87076E-02-1.71964E+00-1.14569E-13-9.35701E-14
 -1       446 3.37521E+01 5.43587E+00-4.47357E-02-4.25931E-01 1.28383E-13 3.01356E-13
 -1       447 3.52451E+01 8.16344E+00 2.87433E-02 4.71202E-02 2.53519E-13 3.86284E-13
 -1       448 3.52086E+01 7.02970E+00 4.83496E-02 1.59858E-01 3.39950E-13 2.71963E-13
 -1       449 3.32034E+01 3.41228E+00-9.77057E-03-3.62332E-01 3.07615E-13 4.01720E-13
 -1       450 2.88987E+01-1.40300E+00-6.09135E-04-3.47319E+00-9.49865E-14 4.75980E-13
 -1       451 2.33689E+01-4.12194E+00 6.34424E-03-5.67164E+00-2.95694E-13 2.41973E-13
 -1       452 1.53552E+01-5.46402E+00-8.31699E-03-7.20662E+00-5.45522E-13-2.48102E-13
 -1       453 7.07539E+00-4.93000E+00-2.26322E-02-6.23335E+00-2.95375E-13-1.45550E-13
 -1       454 1.71682E+00-4.79717E+00-9.77013E-02-2.66458E+00-3.28577E-13 1.38084E-14
 -1       455 1.38691E+00-4.45372E+00-7.86091E-02 1.45193E+00-2.85189E-13-6.98330E-14
 -1       456 6.95602E+00-4.96602E+00 1.99825E-04 5.83868E+00-9.08024E-14-8.07923E-13
 -1       457 1.36465E+01-5.82203E+00-8.02960E-02 6.82061E+00-1.65618E-13-1.02641E-12
 -1       458 2.18646E+01-4.90669E+00-5.60921E-02 5.82780E+00-4.54553E-13-7.44627E-13
 -1       459 3.05725E+01-1.56101E+00-1.92731E-02 1.76550E+00-6.05118E-13-6.91391E-13
 -1       460 3.33762E+01 2.35822E+00-5.72364E-02-4.19751E-01-6.86867E-13-7.57519E-13
 -1       461 3.51463E+01 7.35853E+00 2.67065E-03-5.18836E-01-6.48703E-13-6.16923E-13
 -1       462 3.58628E+01 7.83992E+00 3.91655E-02 2.73464E-01-6.88727E-13-5.16403E-13
 -1       463 3.45185E+01 4.80769E+00-3.25531E-02 8.38927E-01-4.73913E-13-7.69537E-13
 -1       464 3.32823E+01 1.04434E+00 2.46496E-02-5.43329E-01-4.27668E-13-7.80487E-13
 -1       465 2.74198E+01-3.44427E+00-1.17612E-02-4.00232E+00-2.51771E-13-3.33802E-13
 -1       466 1.95476E+01-5.86800E+00 6.95089E-03-6.42056E+00-2.67592E-13-4.33577E-14
 -1       467 9.95751E+00-5.39507E+00-1.89789E-02-6.63747E+00-4.66932E-13 2.30899E-13
 -1       468 3.52015E+00-4.63963E+00-4.02392E-02-3.95848E+00-5.20389E-13 2.20060E-13
 -1       469 3.21581E+01 1.54188E+00 2.50576E-03 7.73462E-01 1.48659E-13 2.25944E-13
 -1       470 3.13469E+01 4.55470E+00-1.28232E-01-2.22299E+00-6.54268E-13-4.73122E-13
 -1       471 2.77725E+01-4.69939E+00-9.85765E-03 2.60769E+00-2.53242E-13-4.16084E-13
 -1       472 3.08352E+01 6.92452E+00-1.46914E-01-9.93418E-01 2.58571E-13 1.73084E-13
 -1       473 3.04388E+01-1.63294E-01-5.53490E-02-6.04832E-02 2.01793E-13 1.84214E-13
 -1       474 2.03663E+01 8.33252E-01 4.02533E-03 9.71220E-01 1.15039E-13 9.55532E-14
 -1       475 1.97440E+01 3.11080E+00-5.39709E-03-6.32244E-01-4.10492E-14-7.92815E-14
 -1       476 1.98380E+01 2.93578E+00-5.99484E-03-9.48591E-01-6.45865E-14-9.20741E-14
 -1       477 1.96778E+01 3.23490E+00-5.02522E-03 8.87716E-03 1.61327E-15-8.93773E-14
 -1       478 1.96959E+01 3.20150E+00-5.10366E-03 3.29538E-01 3.65778E-14-9.83491E-14
 -1       479 1.97484E+01 3.10366E+00-5.41229E-03 6.44261E-01 4.93788E-14-9.80446E-14
 -1       480 1.98447E+01 2.92429E+00-5.94949E-03 9.59569E-01 8.76580E-14-7.10946E-14
 -1       481 1.99966E+01 2.63747E+00-6.52047E-03 1.25499E+00 1.17785E-13-4.52811E-14
 -1       482 2.02338E+01 2.18977E+00-5.69740E-03 1.50035E+00 1.31891E-13-3.44234E-15
 -1       483 2.01063E+01 4.56236E-01 5.08373E-03 4.61499E-01 9.44737E-14 6.34182E-14
 -1       484 2.03395E+01 9.75382E-01 2.65778E-03-9.39963E-01-9.08916E-14 2.42874E-14
 -1       485 2.86553E+01-2.33330E+00-6.30170E-02 2.86628E-01 7.34183E-14 2.09777E-13
 -1       486 1.12026E+01-3.68105E+00 1.24262E-01 6.62325E+00-4.76730E-13 3.32172E-13
 -1       487 2.01701E+01 5.47794E-01 1.90439E-03-4.63531E-01-9.13282E-14 2.22039E-14
 -1       488 2.00259E+01 3.10272E-01 1.05965E-03-1.58297E-01-6.54615E-14 1.96293E-14
 -1       489 1.99298E+01 1.72015E-01 4.68599E-04 2.94866E-02-2.61782E-14 4.36928E-14
 -1       490 1.98779E+01 9.08475E-02 1.92144E-04 1.41571E-01-3.29345E-14 4.91768E-14
 -1       491 1.98602E+01 4.49652E-02 7.37949E-05 2.06529E-01-5.01688E-14 2.99641E-14
 -1       492 1.98677E+01 2.24694E-02 2.67697E-05 2.44209E-01-5.14115E-14 1.77663E-15
 -1       493 1.98934E+01 1.64770E-02 1.99415E-05 2.68735E-01-6.32021E-14 2.21888E-14
 -1       494 1.99331E+01 2.28607E-02 4.12974E-05 2.90514E-01-5.32730E-14 1.14939E-13
 -1       495 1.99844E+01 3.91290E-02 8.54080E-05 3.17545E-01-2.79150E-15 1.66671E-13
 -1       496 2.00464E+01 6.38044E-02 1.49346E-04 3.56259E-01 2.45591E-14 1.29958E-13
 -1       497 2.01197E+01 9.59920E-02 2.31238E-04 4.12049E-01-7.64651E-15 1.26562E-13
 -1       498 2.02055E+01 1.34964E-01 3.29174E-04 4.89535E-01-1.30914E-13 4.19272E-14
 -1       499 2.03054E+01 1.79622E-01 4.39310E-04 5.92560E-01-1.19773E-13 5.58018E-14
 -1       500 2.04218E+01 2.27661E-01 5.52716E-04 7.23839E-01-1.39473E-13 6.00252E-14
 -1       501 2.05572E+01 2.74197E-01 6.50366E-04 8.84120E-01-6.79801E-14-2.44102E-14
 -1       502 2.07158E+01 3.09561E-01 6.95597E-04 1.07063E+00-6.10605E-14 1.15064E-14
 -1       503 2.09049E+01 3.16013E-01 6.24352E-04 1.27447E+00 6.57243E-14-1.94253E-14
 -1       504 2.11392E+01 2.63533E-01 3.37276E-04 1.47653E+00 1.33657E-13-1.07255E-13
 -1       505 2.14472E+01 1.06282E-01-3.02241E-04 1.64141E+00 2.15950E-13-2.01896E-13
 -1       506 2.18792E+01-2.14868E-01-1.40845E-03 1.70874E+00 2.01023E-13-2.06560E-13
 -1       507 2.25101E+01-7.50466E-01-3.08162E-03 1.58223E+00 2.29967E-13-2.13914E-13
 -1       508 2.34165E+01-1.47547E+00-4.63160E-03 1.12609E+00 1.54829E-13-2.07088E-13
 -1       509 2.46017E+01-2.16348E+00-5.93483E-03 1.92648E-01 6.32298E-14-7.15550E-14
 -1       510 2.58389E+01-2.22291E+00-1.38317E-02-1.21537E+00 6.78630E-14 1.66047E-13
 -1       511 2.66330E+01-8.42432E-01-3.41006E-02-2.62460E+00 1.22177E-14 2.49143E-13
 -1       512 2.64576E+01 1.95339E+00-1.00514E-01-2.77223E+00-1.66856E-13-2.99500E-14
 -1       513 2.57651E+01 4.24553E+00-1.86623E-01-8.24113E-01-3.56298E-13-3.32255E-13
 -1       514 2.61989E+01 3.43576E+00-1.30553E-01 1.87505E+00-3.33483E-13-4.94688E-13
 -1       515 2.66674E+01 6.29219E-01-5.87063E-02 2.91097E+00-3.87515E-13-3.42859E-13
 -1       516 2.63473E+01-1.63542E+00-3.02348E-02 2.05131E+00-2.90185E-13-4.94420E-13
 -1       517 2.53146E+01-2.32356E+00-7.45619E-03 5.51240E-01-5.40347E-14-4.59968E-13
 -1       518 2.40545E+01-1.89862E+00-4.35044E-03-6.71579E-01-3.03920E-14-3.42642E-13
 -1       519 2.29786E+01-1.14638E+00-3.53539E-03-1.38432E+00 6.74036E-14-4.04379E-14
 -1       520 2.21978E+01-4.91185E-01-2.32443E-03-1.67883E+00 2.19680E-13-4.01263E-14
 -1       521 2.16629E+01-5.21265E-02-8.94146E-04-1.70696E+00-1.41310E-14-5.88951E-15
 -1       522 2.12921E+01 1.91196E-01 1.52383E-05-1.58766E+00 1.86936E-13 4.43096E-14
 -1       523 2.10207E+01 2.98217E-01 4.99405E-04-1.39967E+00 3.08588E-13 5.64861E-14
 -1       524 2.08093E+01 3.23794E-01 6.88877E-04-1.19054E+00-5.30471E-14 2.46830E-13
 -1       525 2.06365E+01 3.07202E-01 7.14163E-04-9.86708E-01 2.31400E-14 9.97593E-14
 -1       526 2.04920E+01 2.73360E-01 6.65150E-04-8.00964E-01 2.57758E-13 6.90347E-14
 -1       527 2.03700E+01 2.37060E-01 5.97496E-04-6.37523E-01 1.54668E-13 1.12545E-13
 -1       528 2.02674E+01 2.06404E-01 5.21220E-04-4.95440E-01-4.37948E-14 1.40441E-13
 -1       529 2.01815E+01 1.85607E-01 5.15933E-04-3.71109E-01-2.59469E-13 8.57267E-14
 -1       530 1.98117E+01 1.35890E-01 1.03442E-03-3.07514E-02 5.57317E-14-2.27233E-15
 -1       531 1.97608E+01 6.99922E-02 4.16591E-04-1.37034E-01 3.86597E-14-6.69213E-15
 -1       532 1.97521E+01 3.28461E-02 1.59811E-04-1.96359E-01 5.53686E-14-6.31662E-15
 -1       533 1.97726E+01 1.40362E-02 5.32073E-05-2.28616E-01 3.74177E-14-4.20284E-14
 -1       534 1.98133E+01 7.66744E-03 2.01632E-05-2.47301E-01 2.67657E-14-2.53764E-14
 -1       535 1.98685E+01 1.01117E-02 3.22247E-05-2.61899E-01 6.60674E-14-2.61759E-15
 -1       536 1.99356E+01 1.89401E-02 7.50332E-05-2.79234E-01 8.09634E-14-1.92891E-14
 -1       537 2.00140E+01 3.23184E-02 1.38255E-04-3.04211E-01 7.52243E-14-1.33027E-13
 -1       538 2.01046E+01 4.85789E-02 2.12082E-04-3.40177E-01 6.51278E-15-6.55968E-14
 -1       539 2.02095E+01 6.58296E-02 2.85042E-04-3.88949E-01-3.54974E-14 9.05052E-15
 -1       540 2.03312E+01 8.15279E-02 3.41813E-04-4.50549E-01 7.21747E-14 6.10297E-14
 -1       541 2.04729E+01 9.19900E-02 3.60947E-04-5.22600E-01 1.17808E-13 3.12810E-14
 -1       542 2.06376E+01 9.18615E-02 3.13173E-04-5.99370E-01 8.15948E-14 1.43991E-13
 -1       543 2.08284E+01 7.36722E-02 1.61433E-04-6.70486E-01-1.70991E-15 9.48009E-14
 -1       544 2.10473E+01 2.78179E-02-1.34758E-04-7.19443E-01-1.12087E-13 4.25653E-14
 -1       545 2.12955E+01-5.63026E-02-6.06042E-04-7.22344E-01 7.64372E-15 6.97345E-16
 -1       546 2.15711E+01-1.86721E-01-1.25042E-03-6.47881E-01 2.42621E-14-8.00635E-14
 -1       547 2.18660E+01-3.61206E-01-1.98325E-03-4.60572E-01-4.58658E-14 6.65102E-14
 -1       548 2.21595E+01-5.54630E-01-2.60799E-03-1.30638E-01-2.08361E-13 1.90633E-13
 -1       549 2.24094E+01-7.04312E-01-2.80156E-03 3.45302E-01-1.59816E-13 4.52049E-14
 -1       550 2.25482E+01-7.06326E-01-2.01757E-03 9.11326E-01-1.78904E-13-6.17823E-14
 -1       551 2.24993E+01-4.47823E-01-4.39097E-04 1.41908E+00-1.15306E-13 6.98025E-14
 -1       552 2.22347E+01 1.03264E-01 1.64611E-03 1.63262E+00 5.84786E-14 1.62947E-13
 -1       553 2.18488E+01 7.88880E-01 1.79376E-03 1.33612E+00 3.14280E-14 4.86085E-13
 -1       554 2.15519E+01 1.28208E+00-4.43671E-04 5.09122E-01 1.86054E-13 5.65385E-13
 -1       555 2.15572E+01 1.27599E+00 8.84159E-04-5.29907E-01 2.80594E-13 4.52812E-13
 -1       556 2.18561E+01 7.72740E-01 2.07981E-03-1.34639E+00 1.92693E-13 3.19346E-13
 -1       557 2.22409E+01 8.39677E-02 8.02769E-04-1.62750E+00-1.10179E-14 2.73311E-13
 -1       558 2.24988E+01-4.60038E-01-4.76591E-04-1.40175E+00-9.66693E-14 3.34285E-13
 -1       559 2.25405E+01-7.11175E-01-1.80915E-03-8.89226E-01-1.14470E-13 3.67724E-13
 -1       560 2.23960E+01-7.04275E-01-2.91095E-03-3.23257E-01 1.46124E-13 2.20184E-13
 -1       561 2.21424E+01-5.52416E-01-2.83370E-03 1.50494E-01 1.87214E-13 4.76954E-13
 -1       562 2.18463E+01-3.57994E-01-2.12246E-03 4.77457E-01 1.88918E-13 3.71365E-13
 -1       563 2.15498E+01-1.83157E-01-1.29908E-03 6.61470E-01-1.43640E-13 2.14467E-13
 -1       564 2.12738E+01-5.23387E-02-5.97345E-04 7.32567E-01-5.23682E-14 1.58288E-13
 -1       565 2.10262E+01 3.31008E-02-7.86573E-05 7.25685E-01 2.08703E-13 7.64544E-14
 -1       566 2.08093E+01 8.18254E-02 2.57411E-04 6.71046E-01 1.67888E-13 1.72092E-14
 -1       567 2.06225E+01 1.05043E-01 4.48247E-04 5.91150E-01-6.20067E-14 2.50838E-13
 -1       568 2.04642E+01 1.13144E-01 5.36767E-04 5.00744E-01-2.56345E-13 5.68617E-13
 -1       569 2.03322E+01 1.14354E-01 6.01251E-04 4.08143E-01 2.83327E-14 6.45742E-13
 -1       570 2.02238E+01 1.14740E-01 7.58390E-04 3.17270E-01-1.17941E-13 9.95970E-13
 -1       571 2.01346E+01 1.16044E-01 7.26379E-04 2.28296E-01-7.15851E-14 8.93610E-13
 -1       572 1.99382E+01 4.24729E-01-1.81973E-04 2.85644E-01 1.99976E-13 2.01242E-13
 -1       573 1.98855E+01 5.03708E-01-2.31494E-04 2.23229E-01 5.91182E-13-1.22817E-13
 -1       574 2.00630E+01 2.34426E-01 1.07627E-04 2.95480E-01-1.36491E-13-2.00718E-13
 -1       575 1.99997E+01 3.32400E-01-3.73413E-05 3.10553E-01-1.74516E-13-5.84316E-13
 -1       576 1.98481E+01 5.59855E-01-3.04503E-04 1.30487E-01 2.48146E-13-3.27012E-13
 -1       577 1.98305E+01 5.86408E-01-3.37066E-04 1.86436E-02-8.23516E-14 5.64673E-14
 -1       578 1.98359E+01 5.79376E-01-3.17198E-04-9.80565E-02-1.36055E-13-1.09613E-13
 -1       579 1.98646E+01 5.39372E-01-2.48178E-04-2.02205E-01-5.73480E-14 8.32376E-14
 -1       580 1.99156E+01 4.68329E-01-1.82930E-04-2.82124E-01 2.18231E-13-2.38447E-13
 -1       581 1.99825E+01 3.73919E-01-1.31818E-04-3.23207E-01 9.93884E-14 3.95988E-13
 -1       582 2.00581E+01 2.67229E-01 2.64025E-04-3.16960E-01-1.18928E-13 2.56532E-13
 -1       583 6.01830E+00-9.76571E-01 1.93992E-01 2.45969E+00-6.73836E-14 2.44291E-13
 -1       584 1.74381E+01-5.16259E+00 6.84817E-02 6.78809E+00-3.54973E-13 1.32937E-13
 -1       585 1.99220E+01 2.50713E-01 2.46629E-03 1.52742E-01 9.38349E-14 4.00432E-14
 -1       586 5.32215E+00-1.47083E+00 1.71274E-01-2.23908E+00 5.00225E-14 3.72993E-13
 -1       587 2.43323E+01-5.19621E+00 5.02442E-03 4.35671E+00-2.88471E-13 4.56420E-13
 -1       588 2.97085E+01 2.48951E+00-1.41082E-01-1.70165E+00 2.18617E-13 1.91520E-13
 -1       589 9.45191E+00-2.92835E+00 1.42094E-01-5.57185E+00-6.78277E-14-1.06859E-14
 -1       590 2.91922E+01 4.35740E+00-1.82766E-01 1.85381E+00 3.38743E-13 1.34788E-14
 -1       591 1.96931E+01 3.20590E+00-5.11254E-03-3.11883E-01-1.55875E-14-8.16509E-14
 -1       592 2.92230E+01 6.57618E+00-2.09687E-01 1.00695E+00 3.23894E-13-1.10981E-13
 -1       593 1.37650E+01-4.30380E+00 1.12232E-01-6.99588E+00-2.74079E-13 1.43358E-14
 -1       594 2.68493E+01-4.25236E+00-2.53005E-02-2.67242E+00-1.79613E-13 1.46924E-13
 -1       595 2.52856E+01-5.32082E+00-6.07240E-03-3.57472E+00-6.81885E-14-5.74762E-13
 -1       596 2.17872E+01-5.45340E+00 5.10518E-02-5.67111E+00-5.11320E-13 3.22797E-14
 -1       597 6.94312E+00-2.12009E+00 1.61506E-01-4.62062E+00-2.43638E-13-4.11476E-14
 -1       598 4.59052E+00-1.30999E+00 1.81844E-01-1.12346E+00-2.45633E-13 1.30437E-13
 -1       599 6.44083E+00-2.03792E+00 1.74509E-01 3.86218E+00-2.19203E-13-3.10335E-13
 -1       600 1.42069E+01-4.43412E+00 1.19604E-01 6.54818E+00 1.67776E-13-9.45646E-13
 -1       601 2.02922E+01-5.74414E+00 3.50702E-02 5.89592E+00 3.09544E-14-5.49347E-13
 -1       602 2.98302E+01-1.13456E+00-1.09205E-01-1.63779E+00-2.97637E-13-3.42046E-13
 -1       603 3.05809E+01 6.52640E+00-1.78049E-01-2.68157E-01-5.38250E-13-4.79225E-13
 -1       604 3.06246E+01 5.80434E+00-1.52397E-01 1.72255E+00-4.34611E-13-7.50393E-13
 -1       605 3.01029E+01 1.37165E+00-1.36609E-01 2.44372E+00-4.64538E-13-7.08426E-13
 -1       606 2.96063E+01-2.74566E+00-8.48278E-02 4.95840E-02-2.32006E-13-5.74291E-13
 -1       607 1.68419E+01-4.88476E+00 1.09441E-01-6.45383E+00 6.25888E-15-1.79048E-13
 -1       608 2.03867E+01 1.75807E+00-5.27407E-03-1.52353E+00-1.08073E-13 1.19340E-14
 -1       609 2.05762E+01 1.30568E+00-9.94581E-04 1.54805E+00 1.48641E-13 1.18640E-13
 -1       610 2.73234E+01 6.51486E+00-1.56778E-01-8.23438E-02 4.81622E-13-2.34490E-13
 -1       611 1.99838E+01 2.65682E+00-6.75371E-03-1.24221E+00-8.72345E-14-9.49254E-14
 -1       612 2.01644E+01 2.28467E+00-6.10246E-03-1.43446E+00-9.59390E-14-7.01266E-14
 -1       613 9.93155E+00-1.36543E+00 1.41942E-01 4.67691E+00-3.93078E-13 2.45595E-13
 -1       614 2.22110E+01-5.22565E+00 3.53298E-02-4.59922E+00-6.31786E-15-6.12756E-13
 -1       615 2.85034E+01 1.66534E+00-1.13294E-01 2.02809E+00 3.51559E-13 1.60223E-13
 -1       616 2.80570E+01 4.38964E+00-1.56923E-01-2.00944E+00 2.64483E-13 2.14835E-13
 -1       617 1.18161E+01-2.34948E+00 1.26343E-01 5.41285E+00-3.50969E-14-6.20164E-13
 -1       618 2.01315E+01 1.75294E-01 5.62393E-04-2.92689E-01-9.99431E-14 2.85371E-13
 -1       619 1.99712E+01 2.46105E+00-1.59089E-03 3.91788E-01 2.26972E-14-7.53210E-14
 -1       620 1.99398E+01 2.53701E+00-1.51995E-03 1.34929E-01 8.87446E-15-9.02791E-14
 -1       621 2.01275E+01 2.05362E+00-1.60759E-03 8.46578E-01 9.44360E-14-3.72923E-14
 -1       622 2.02424E+01 1.68072E+00-2.26083E-03 9.88805E-01 1.17390E-13-2.33800E-14
 -1       623 2.03190E+01 1.04048E+00 2.89769E-03 8.28394E-01 1.18523E-13 1.42886E-14
 -1       624 1.24407E+01-2.04413E+00 1.23894E-01-5.50815E+00-2.59587E-13-9.15726E-14
 -1       625 2.60216E+01-4.13192E+00-6.13208E-03 1.59967E+00-1.87983E-13 2.28923E-13
 -1       626 2.02446E+01 6.82396E-01 4.32289E-04-3.84984E-01-7.03645E-14 1.71048E-15
 -1       627 2.01745E+01 4.06076E-01 1.81593E-04-1.25589E-01-2.10720E-14 2.52584E-14
 -1       628 2.01125E+01 2.34002E-01 5.92250E-05 4.54820E-02-4.43817E-14 2.48318E-14
 -1       629 2.00670E+01 1.29483E-01 1.89194E-05 1.53685E-01-5.31140E-14-2.85741E-15
 -1       630 2.00381E+01 7.06481E-02 3.33106E-06 2.20906E-01-4.40012E-14 4.83476E-14
 -1       631 2.00234E+01 4.40236E-02-1.27635E-07 2.64246E-01-3.17012E-14 9.97116E-14
 -1       632 2.00201E+01 4.11478E-02 4.34654E-06 2.96832E-01-3.52254E-16 1.36518E-13
 -1       633 2.00256E+01 5.66483E-02 1.55478E-05 3.28816E-01-1.11393E-14 1.50937E-13
 -1       634 2.00377E+01 8.71298E-02 3.29997E-05 3.68204E-01-5.10835E-14 9.81457E-14
 -1       635 2.00547E+01 1.30443E-01 5.63176E-05 4.21476E-01-3.42989E-14 4.25672E-14
 -1       636 2.00748E+01 1.85072E-01 8.53690E-05 4.94000E-01-7.03264E-14 6.03542E-14
 -1       637 2.00966E+01 2.49458E-01 1.20171E-04 5.90226E-01-1.43073E-13 1.04590E-13
 -1       638 2.01181E+01 3.21105E-01 1.60104E-04 7.13680E-01-1.83094E-13 6.80156E-15
 -1       639 2.01380E+01 3.95195E-01 2.02821E-04 8.66750E-01-1.43100E-13 1.19766E-13
 -1       640 2.01558E+01 4.62410E-01 2.42746E-04 1.05024E+00-6.13965E-14 1.14317E-13
 -1       641 2.01750E+01 5.05615E-01 2.68510E-04 1.26265E+00-2.80941E-14 2.48710E-14
 -1       642 2.02066E+01 4.95157E-01 2.59303E-04 1.49910E+00 2.85511E-14 2.42942E-14
 -1       643 2.02785E+01 3.83121E-01 1.90553E-04 1.74949E+00 6.57841E-14-1.29198E-13
 -1       644 2.04480E+01 9.87128E-02 4.33959E-05 1.99409E+00 1.96877E-13-2.09316E-13
 -1       645 2.08202E+01-4.47997E-01 1.52703E-05 2.19232E+00 2.18576E-13-1.51362E-13
 -1       646 2.15646E+01-1.33424E+00 1.86720E-04 2.25079E+00 9.67060E-14-2.59573E-13
 -1       647 2.28831E+01-2.50846E+00 2.06249E-03 1.98680E+00 1.72051E-13-2.90436E-13
 -1       648 2.49093E+01-3.57649E+00-1.59653E-03 1.04650E+00 2.60165E-13-1.95889E-13
 -1       649 2.72944E+01-3.23666E+00-3.66028E-02-7.32489E-01 1.36328E-13-1.58300E-13
 -1       650 2.62198E+01-3.64438E+00-6.00919E-03-2.05495E-01 1.75554E-14-6.22902E-13
 -1       651 2.39309E+01-3.16291E+00 9.95466E-03-1.59447E+00 9.36057E-15-5.16467E-13
 -1       652 2.22227E+01-1.97786E+00 2.14488E-03-2.17341E+00 1.38681E-13-3.78873E-13
 -1       653 2.11795E+01-9.06346E-01-3.18998E-04-2.26111E+00 6.02133E-15-3.42766E-13
 -1       654 2.06235E+01-1.73782E-01-1.01191E-04-2.12628E+00 1.01438E-13-5.04042E-13
 -1       655 2.03564E+01 2.48702E-01 6.34416E-05-1.90072E+00 1.62296E-13-2.46002E-13
 -1       656 2.02399E+01 4.50475E-01 2.21792E-04-1.64923E+00 2.29992E-13-2.21737E-13
 -1       657 2.01916E+01 5.15353E-01 2.71043E-04-1.40063E+00 1.73427E-14-5.01040E-13
 -1       658 2.01691E+01 5.04552E-01 2.64389E-04-1.16876E+00 3.88698E-14-4.44897E-13
 -1       659 2.01530E+01 4.58179E-01 2.33607E-04-9.60140E-01 1.60537E-13-1.00096E-13
 -1       660 2.01360E+01 4.00923E-01 1.97149E-04-7.76828E-01 1.87925E-13-2.30187E-13
 -1       661 2.01163E+01 3.47247E-01 1.94865E-04-6.17735E-01 1.66126E-13-1.41058E-13
 -1       662 2.00935E+01 3.04979E-01 1.86917E-04-4.79771E-01-1.20968E-13 1.17543E-15
 -1       663 1.99876E+01 1.11248E-01 7.60835E-05-1.50709E-01 6.82776E-14 3.94677E-15
 -1       664 2.00770E+01 2.82846E-01 1.68698E-04-3.95799E-01 3.28238E-14 5.54139E-14
 -1       665 2.00355E+01 2.05444E-01 1.84917E-04-4.06796E-02 5.13862E-14 1.68958E-15
 -1       666 1.99587E+01 3.16268E-02 1.24893E-05-2.57143E-01 3.39937E-14 3.52821E-14
 -1       667 1.99682E+01 2.51618E-02 1.09626E-05-2.84926E-01 5.25403E-14 1.52551E-14
 -1       668 1.99893E+01 3.28249E-02 2.12452E-05-3.09989E-01 8.51408E-14-2.18974E-14
 -1       669 2.00200E+01 5.07337E-02 4.02668E-05-3.39575E-01 5.95813E-14-1.63270E-14
 -1       670 2.00595E+01 7.57065E-02 6.48170E-05-3.78921E-01 1.76644E-14 7.69117E-14
 -1       671 2.01082E+01 1.04596E-01 9.20047E-05-4.31515E-01-5.43630E-14 3.74248E-14
 -1       672 2.01674E+01 1.33630E-01 1.17660E-04-4.99072E-01-4.24632E-14-1.83127E-14
 -1       673 2.02392E+01 1.57664E-01 1.35981E-04-5.81200E-01 3.67686E-14 1.13548E-13
 -1       674 2.03275E+01 1.69366E-01 1.38342E-04-6.74748E-01 2.94903E-14 1.10562E-13
 -1       675 2.04379E+01 1.58400E-01 1.12923E-04-7.72805E-01 8.40902E-14 1.55217E-13
 -1       676 2.05790E+01 1.10888E-01 4.34216E-05-8.63351E-01 3.63394E-14 1.34127E-13
 -1       677 2.07630E+01 9.83608E-03-9.10644E-05-9.27570E-01-2.29528E-15 4.08258E-14
 -1       678 2.10063E+01-1.62109E-01-3.08854E-04-9.38049E-01 4.34654E-15 1.24407E-13
 -1       679 2.13271E+01-4.15199E-01-6.28284E-04-8.57509E-01-2.83050E-14 4.95988E-14
 -1       680 2.17381E+01-7.37214E-01-9.91236E-04-6.40395E-01-1.18958E-13 3.13075E-14
 -1       681 2.22303E+01-1.06936E+00-1.32683E-03-2.42020E-01-1.72353E-13 6.25636E-14
 -1       682 2.27458E+01-1.27759E+00-1.66580E-03 3.54030E-01-1.40067E-13 1.48644E-14
 -1       683 2.31621E+01-1.15515E+00-1.29720E-03 1.07979E+00-2.42533E-13 6.89506E-14
 -1       684 2.33065E+01-4.93981E-01-1.79961E-03 1.71344E+00-5.94298E-14 1.61960E-13
 -1       685 2.31059E+01 6.70583E-01-2.66778E-03 1.86835E+00-1.84478E-13 3.70849E-13
 -1       686 2.27107E+01 1.88725E+00-2.78795E-04 1.24916E+00 1.25476E-13 3.32847E-13
 -1       687 2.24582E+01 2.39508E+00-1.70905E-02 2.68520E-03 4.10127E-13 1.86511E-13
 -1       688 2.27411E+01 1.82577E+00-6.44432E-04-1.27534E+00 3.56836E-13 6.25357E-14
 -1       689 2.31132E+01 6.30227E-01-6.03745E-03-1.86940E+00 1.42500E-13 7.80644E-14
 -1       690 2.33047E+01-5.23065E-01-3.55376E-03-1.69340E+00-8.64980E-14-6.94724E-15
 -1       691 2.31535E+01-1.16688E+00 4.73395E-04-1.05204E+00-2.33259E-13 1.67446E-13
 -1       692 2.27292E+01-1.27639E+00-1.09475E-03-3.27119E-01 1.16500E-13 3.59506E-13
 -1       693 2.22133E+01-1.06427E+00-1.42871E-03 2.64566E-01 5.87903E-14 3.93705E-13
 -1       694 2.17220E+01-7.30453E-01-9.55491E-04 6.59445E-01 2.93294E-13 4.03301E-13
 -1       695 2.13127E+01-4.07892E-01-5.56838E-04 8.72201E-01 2.23595E-13 1.64258E-13
 -1       696 2.09946E+01-1.55127E-01-2.88903E-04 9.48775E-01-2.38597E-14 4.73006E-14
 -1       697 2.07540E+01 1.78971E-02-8.92964E-05 9.34343E-01 1.56146E-13-3.20226E-14
 -1       698 2.05726E+01 1.22449E-01 4.56234E-05 8.64814E-01 8.21488E-14 1.32764E-13
 -1       699 2.04344E+01 1.76600E-01 1.26267E-04 7.66267E-01-9.72034E-14 3.10067E-13
 -1       700 2.03273E+01 1.98177E-01 1.56728E-04 6.56125E-01-2.18011E-13 3.45877E-13
 -1       701 2.02423E+01 2.02321E-01 1.97087E-04 5.44669E-01-2.36576E-13 1.09306E-13
 -1       702 2.01732E+01 2.00125E-01 3.04329E-04 4.37238E-01-3.15684E-13 2.83057E-14
 -1       703 2.01109E+01 2.16711E-01 2.24028E-04 3.66921E-01-4.55424E-13-6.57258E-14
 -1       704 2.15365E+01-4.95482E+00 3.76066E-02 4.98011E+00-3.19175E-13 4.46002E-13
 -1       705 1.97250E+01 6.02078E-01-1.14903E-04 1.01867E-01 3.70927E-13-2.97111E-13
 -1       706 2.74360E+01-2.94392E-01-9.35510E-02-1.62532E+00 1.11713E-13 1.98033E-13
 -1       707 1.98484E+01 4.79730E-01-4.81526E-05 3.30159E-01 4.52107E-13 2.68677E-13
 -1       708 1.97134E+01 6.17207E-01-1.07476E-04-4.43879E-02-7.88950E-14-4.06081E-13
 -1       709 1.97722E+01 5.54121E-01-1.06551E-04 2.31889E-01 5.44606E-13-4.75410E-13
 -1       710 1.97400E+01 5.96841E-01-8.41058E-05-1.86203E-01-1.44127E-14 1.65048E-13
 -1       711 1.98055E+01 5.40587E-01-8.21544E-05-3.09232E-01 1.46846E-13-4.49681E-14
 -1       712 1.99044E+01 4.53029E-01-1.33478E-04-3.92481E-01 1.31759E-13-1.84882E-13
 -1       713 9.66728E+00-8.56078E-01 1.35510E-01-3.67354E+00 3.57627E-13 1.80467E-13
 -1       714 1.59723E+01-3.62167E+00 1.01869E-01 6.21093E+00-4.81393E-13 3.65402E-13
 -1       715 2.01098E+01 3.63443E-01 5.73336E-04 1.37515E-01 8.70810E-14 9.38380E-15
 -1       716 7.82059E+00-1.19518E-01 1.61137E-01 1.37972E+00-2.44345E-13-5.62397E-14
 -1       717 2.49865E+01-5.18221E+00 2.21290E-02 3.11281E+00 1.10755E-13-2.53007E-13
 -1       718 8.23040E+00 1.76612E-01 1.47388E-01-3.41803E-01 1.34880E-13 1.19960E-13
 -1       719 1.99637E+01 5.76139E-02 3.01906E-05-2.16834E-01 6.65868E-14 3.21377E-14
 -1       720 2.02948E+01 1.12135E+00-4.08480E-04-7.58961E-01-6.97554E-14-3.02520E-14
 -1       721 1.52009E+01-2.58846E+00 1.14028E-01-5.36835E+00 1.87624E-13-3.61034E-13
 -1       722 2.00337E+01 2.30464E+00-1.64940E-03 6.34517E-01 5.93772E-14-5.93433E-14
 -1       723 2.71456E+01-4.23480E+00-1.15067E-02-7.98069E-01-1.03498E-13-5.24084E-13
 -1       724 2.02072E+01 6.21581E-01 1.16124E-03 4.14133E-01 1.17972E-13-1.55022E-15
 -1       725 2.77469E+01-2.20096E+00-7.71932E-02 3.07827E-01-1.10851E-13 1.10911E-13
 -1       726 2.00285E+01 2.31499E+00-1.63879E-03-6.26023E-01-3.71700E-14-6.19377E-14
 -1       727 2.64664E+01 4.57933E+00-1.36802E-01 1.67538E+00 2.36852E-13-2.64525E-13
 -1       728 2.45039E+01-4.85632E+00 1.24986E-02-3.30334E+00-4.27082E-13-3.94042E-14
 -1       729 1.91466E+01-4.59828E+00 6.76184E-02-5.84501E+00-3.49065E-13 3.21479E-14
 -1       730 8.80944E+00-1.29288E-01 1.46438E-01-2.53453E+00-2.67857E-13-1.67158E-14
 -1       731 1.88220E+01-4.40790E+00 8.10381E-02 5.55144E+00 2.76838E-13-5.25607E-13
 -1       732 2.02716E+01 1.63095E+00 7.06193E-04-1.08631E+00-9.31096E-14-5.24215E-14
 -1       733 2.78560E+01-2.24591E+00-6.00012E-02 1.64400E+00-3.08704E-13-8.46467E-13
 -1       734 2.01248E+01 2.06559E+00-6.76283E-04-8.40274E-01-6.39422E-14-7.91929E-14
 -1       735 1.99389E+01 2.53870E+00-1.52117E-03-1.25551E-01-1.11870E-14-7.85707E-14
 -1       736 2.61160E+01-3.55860E+00-3.06596E-02-6.08869E-01-3.15184E-13 2.04435E-13
 -1       737 2.62382E+01-2.49654E+00-2.27576E-02-6.03436E-01-4.06016E-14 1.81433E-13
 -1       738 2.00139E+01 3.18107E-01-2.43814E-05 3.89706E-01-2.92447E-13-3.81462E-13
 -1       739 2.65964E+01 1.54064E+00-8.35280E-02-2.29350E+00 1.22499E-13 7.14706E-15
 -1       740 1.93295E+01-3.44968E+00 4.43320E-02-4.63945E+00 1.61969E-13-3.79819E-13
 -1       741 1.10299E+01-4.33718E-01 9.90515E-02 3.38600E+00-1.65945E-13-3.12184E-13
 -1       742 9.81591E+00 1.96364E-01 1.12343E-01 2.02944E+00-2.55564E-14-1.16362E-13
 -1       743 1.99854E+01 3.84709E-01-4.01841E-05-4.49700E-01-4.75556E-14 2.02108E-13
 -1       744 2.63960E+01 2.67587E+00-9.45597E-02 2.24893E+00 9.39734E-14-1.22249E-13
 -1       745 1.99293E+01 4.02271E-01-7.48026E-05 3.76455E-01 3.04582E-13 3.09547E-13
 -1       746 1.99683E+01 2.46671E+00-1.56998E-03-3.81923E-01-4.30908E-14-5.92569E-14
 -1       747 2.47654E+01 4.58219E+00-9.21530E-02 4.86675E-01 4.40818E-13 1.05279E-13
 -1       748 2.02720E+01 1.31356E+00-3.19659E-04 6.22715E-01 8.34117E-14 5.97932E-15
 -1       749 2.01947E+01 1.87663E+00-7.61048E-06-9.81496E-01-7.55070E-14-7.75159E-14
 -1       750 2.02704E+01 4.58759E-01 1.23808E-05-7.34785E-02-2.65476E-14-5.10037E-14
 -1       751 2.02309E+01 2.71946E-01-6.82360E-06 6.74065E-02-3.78886E-14-2.11739E-15
 -1       752 2.01896E+01 1.57302E-01-7.73230E-06 1.60585E-01-3.25654E-14 4.48771E-14
 -1       753 2.01514E+01 9.47832E-02-5.63995E-06 2.22056E-01 9.28499E-15 6.05527E-14
 -1       754 2.01175E+01 7.08658E-02-3.07042E-06 2.65427E-01 1.86424E-14 6.31042E-14
 -1       755 2.00872E+01 7.64455E-02-2.67076E-07 3.01748E-01-1.11404E-15 4.24298E-14
 -1       756 2.00588E+01 1.05430E-01 3.28558E-06 3.39839E-01-4.38649E-14 5.39298E-14
 -1       757 2.00300E+01 1.53777E-01 7.99260E-06 3.86728E-01-2.07572E-14 5.83266E-14
 -1       758 1.99977E+01 2.18725E-01 1.41835E-05 4.48077E-01-5.76076E-14 2.37218E-14
 -1       759 1.99580E+01 2.98010E-01 2.22246E-05 5.28472E-01-6.11995E-14 3.50050E-14
 -1       760 1.99067E+01 3.88978E-01 3.32856E-05 6.31595E-01-1.69639E-13 1.56635E-13
 -1       761 1.98387E+01 4.87433E-01 4.80110E-05 7.60394E-01-1.12649E-13 2.13002E-13
 -1       762 1.97490E+01 5.85840E-01 6.63553E-05 9.17344E-01-1.03771E-13 1.98060E-13
 -1       763 1.96339E+01 6.70695E-01 8.84206E-05 1.10495E+00-7.19445E-14 1.78581E-13
 -1       764 1.94942E+01 7.18703E-01 1.12782E-04 1.32682E+00 4.18455E-14 2.57471E-13
 -1       765 1.93407E+01 6.91413E-01 1.44663E-04 1.58961E+00-3.73839E-14 9.78788E-14
 -1       766 1.92045E+01 5.28312E-01 2.62493E-04 1.90531E+00 5.91449E-14 9.89836E-14
 -1       767 1.91562E+01 1.39219E-01 8.21463E-04 2.29106E+00 1.82315E-13-4.71396E-14
 -1       768 1.93322E+01-5.96091E-01 3.04706E-03 2.76062E+00 8.92913E-14-1.79686E-13
 -1       769 2.00389E+01-1.82808E+00 4.58999E-03 3.24613E+00 1.26042E-13-1.71352E-13
 -1       770 2.16510E+01-3.49964E+00 4.98205E-02 3.57706E+00 2.21156E-13-1.56227E-13
 -1       771 1.24058E+01-3.80735E-01 6.53488E-02-3.63585E+00-2.31401E-13-1.39389E-13
 -1       772 1.01404E+01 6.13251E-01 8.65718E-02-1.78292E-01-2.46420E-13 9.95523E-14
 -1       773 2.02885E+01 1.17365E+00-4.82781E-04-5.60650E-01-5.14553E-14-5.96351E-14
 -1       774 2.07742E+01-2.73204E+00 2.34168E-02-3.47614E+00 3.08187E-14-5.45581E-13
 -1       775 1.96479E+01-1.22461E+00 4.14812E-03-3.03966E+00 8.94185E-15-6.21295E-13
 -1       776 1.92191E+01-2.28181E-01 9.32000E-04-2.55828E+00-3.04482E-14-5.85583E-13
 -1       777 1.91654E+01 3.42526E-01 3.14602E-04-2.12328E+00 2.73332E-13-5.05859E-13
 -1       778 1.92660E+01 6.22593E-01 1.63864E-04-1.76942E+00 3.75815E-13-4.15991E-13
 -1       779 1.94171E+01 7.22130E-01 1.31296E-04-1.47682E+00 1.41103E-13-1.95765E-13
 -1       780 1.95684E+01 7.18223E-01 1.06959E-04-1.22921E+00 1.18032E-13-8.94219E-14
 -1       781 1.96990E+01 6.61601E-01 7.27469E-05-1.01642E+00 2.01590E-13-1.56207E-13
 -1       782 1.98030E+01 5.84473E-01 4.54514E-05-8.32539E-01 2.26628E-13-3.02452E-13
 -1       783 1.98820E+01 5.06433E-01 1.28176E-05-6.74304E-01 4.02263E-13 6.74744E-14
 -1       784 1.99473E+01 4.37925E-01 9.29836E-05-5.56204E-01-6.04560E-14 8.64766E-14
 -1       785 2.01802E+01 2.53953E-01 8.93735E-06-6.07012E-02 3.94588E-14 6.64562E-16
 -1       786 2.34108E+01-4.06705E+00 1.93306E-02 2.65221E+00-2.81851E-13 4.45224E-13
 -1       787 2.00624E+01 5.23538E-02 2.67159E-06-3.00062E-01 5.01023E-14 9.40352E-15
 -1       788 2.00794E+01 5.42689E-02-3.41323E-07-2.66552E-01 5.68554E-14 3.15427E-14
 -1       789 2.00460E+01 9.92455E-02 1.47437E-05-3.73209E-01 1.95118E-15 1.02824E-13
 -1       790 2.00447E+01 1.38297E-01 2.18149E-05-4.24713E-01-5.11534E-15 4.16906E-14
 -1       791 2.00479E+01 1.81386E-01 3.01549E-05-4.91271E-01-5.91436E-15 5.17924E-14
 -1       792 2.00566E+01 2.22487E-01 3.88342E-05-5.74698E-01-5.33157E-14-2.24848E-15
 -1       793 2.00736E+01 2.53325E-01 4.67868E-05-6.74917E-01-1.37200E-14 1.07572E-13
 -1       794 2.01045E+01 2.62312E-01 5.20922E-05-7.89446E-01 6.10852E-14 1.13878E-13
 -1       795 2.01593E+01 2.33459E-01 5.24240E-05-9.12590E-01 3.46843E-14 1.09750E-13
 -1       796 2.02543E+01 1.45795E-01 3.90333E-05-1.03411E+00 3.73658E-14 1.30652E-13
 -1       797 2.04142E+01-2.57905E-02-6.24866E-06-1.13711E+00-2.73949E-14 1.13115E-13
 -1       798 2.06742E+01-3.06372E-01-9.49291E-05-1.19455E+00-6.51614E-14 1.92912E-13
 -1       799 2.10777E+01-7.09423E-01-2.92434E-04-1.16352E+00-1.38220E-13 3.59046E-13
 -1       800 2.16644E+01-1.21145E+00-4.16107E-04-9.80991E-01-9.93482E-14 2.81114E-13
 -1       801 2.24443E+01-1.71271E+00-6.70334E-04-5.63281E-01-1.09224E-13 9.07681E-14
 -1       802 2.33345E+01-1.96423E+00-6.87724E-04 1.56626E-01-2.03948E-13 1.53394E-13
 -1       803 2.41212E+01-1.62087E+00-5.41816E-03 1.11546E+00-2.98401E-13 1.28673E-13
 -1       804 2.44757E+01-2.64185E-01-1.37779E-02 1.97611E+00-2.40519E-13 1.22315E-13
 -1       805 2.41473E+01 1.82069E+00-5.30021E-02 2.07659E+00-1.50120E-13 2.57759E-13
 -1       806 2.41967E+01 1.80094E+00-3.76340E-02-2.05191E+00 3.42372E-13 1.55682E-13
 -1       807 2.44315E+01-2.82725E-01-1.01509E-02-1.95768E+00-9.98680E-15-4.10245E-14
 -1       808 2.40410E+01-1.62694E+00-6.86239E-03-1.11318E+00-8.05743E-14-8.21971E-14
 -1       809 2.33174E+01-1.96776E+00-2.15207E-03-1.55503E-01-1.84313E-13-2.36087E-13
 -1       810 2.24289E+01-1.69580E+00-9.87207E-04 5.68394E-01 5.99768E-14-8.44798E-14
 -1       811 2.16576E+01-1.19943E+00-4.26788E-04 9.90866E-01 2.36111E-13-1.58894E-13
 -1       812 2.10745E+01-6.96032E-01-1.27565E-04 1.17008E+00 2.76690E-13-4.58891E-14
 -1       813 2.06780E+01-2.96507E-01-4.58885E-05 1.19845E+00 1.07307E-13 1.83877E-13
 -1       814 2.04223E+01-1.67236E-02 1.78259E-05 1.13993E+00 8.13853E-14 5.21631E-14
 -1       815 2.02647E+01 1.57929E-01 3.33135E-05 1.03415E+00 4.43625E-14 1.59722E-13
 -1       816 2.01711E+01 2.52755E-01 5.74883E-05 9.07203E-01-1.65914E-13 3.87275E-13
 -1       817 2.01166E+01 2.93646E-01 4.68060E-05 7.74932E-01-7.34276E-14 3.09557E-13
 -1       818 2.00845E+01 3.02934E-01 9.09516E-05 6.46983E-01-4.39690E-14 2.92536E-13
 -1       819 2.00638E+01 2.96823E-01 5.65263E-05 5.27153E-01-1.46454E-13 2.02163E-13
 -1       820 2.00331E+01 3.07307E-01-1.99660E-04 4.56955E-01-7.83365E-14-7.30730E-14
 -1       821 2.02283E+01 4.34098E-01-6.12794E-05 9.33316E-02 8.88319E-14 3.09011E-14
 -1       822 1.95793E+01 6.69570E-01-1.78494E-05-1.33704E-01 2.68825E-13 2.62932E-13
 -1       823 1.42456E+01-1.64666E+00 6.35888E-02 4.87970E+00-3.55735E-13 4.17430E-13
 -1       824 1.95710E+01 6.66642E-01-4.79103E-05 4.78199E-02 2.06114E-13-7.40574E-13
 -1       825 1.94230E+01-3.63249E+00 4.45255E-02 4.88683E+00-4.15617E-13 3.50484E-13
 -1       826 1.96456E+01 6.30911E-01-2.53556E-05-3.03725E-01 1.83706E-13 1.80905E-13
 -1       827 1.97672E+01 5.51696E-01-1.15887E-04-4.37293E-01 9.74318E-14-4.83335E-13
 -1       828 2.00516E+01 6.90701E-02 8.32717E-06-3.33338E-01 3.47074E-14 1.19071E-13
 -1       829 2.01485E+01 1.90769E+00-3.27894E-04 1.96480E-01-6.24988E-15-4.42406E-14
 -1       830 2.52646E+01 4.16849E+00-8.98780E-02-1.53154E+00 5.47909E-13 6.28161E-14
 -1       831 2.35985E+01-4.28454E+00 2.06950E-02-2.82590E+00 4.20887E-14-6.18500E-13
 -1       832 2.02819E+01 9.51677E-01 2.48071E-04 5.46175E-01 1.04393E-13 1.20929E-14
 -1       833 1.11720E+01 3.45839E-01 8.43893E-02-2.04262E+00 2.56487E-13 3.16622E-14
 -1       834 2.02967E+01 7.46268E-01-8.92290E-05-2.78875E-01-4.75389E-14-5.56556E-14
 -1       835 1.62321E+01-2.31955E+00 7.37895E-02 4.92242E+00 1.28274E-13-5.67298E-13
 -1       836 1.69610E+01-2.85702E+00 3.98792E-02-5.23324E+00-2.10011E-13 6.96283E-14
 -1       837 2.64939E+01-4.56013E-01-5.54848E-02 1.89153E+00-2.03455E-13 3.29233E-13
 -1       838 1.43863E+01-9.21378E-01 6.44132E-02-4.02367E+00 2.41933E-13-9.65963E-14
 -1       839 2.21044E+01-4.20046E+00 2.96197E-02-3.81255E+00-3.50022E-13-2.43698E-14
 -1       840 2.01368E+01 1.94673E+00-3.26789E-04 3.32659E-03-7.33435E-15-6.93872E-14
 -1       841 2.41096E+01-3.85075E+00-1.04002E-02-1.74193E+00-3.68576E-13 2.05455E-13
 -1       842 2.02274E+01 1.59593E+00-2.07040E-04 5.28089E-01 5.99949E-14-2.65400E-14
 -1       843 2.60564E+01-9.68991E-01-4.91770E-02-1.63497E+00 4.06433E-14 2.67193E-13
 -1       844 2.01042E+01 8.15139E-02-1.74926E-06-2.23810E-01 2.49588E-14 5.25097E-14
 -1       845 1.22908E+01 6.04173E-01 4.84145E-02-1.82502E+00-1.04031E-13-1.04170E-15
 -1       846 1.57604E+01-1.27657E+00 3.33354E-02-4.19555E+00-2.11098E-13-3.57561E-14
 -1       847 2.02235E+01 1.60735E+00-5.81636E-04-5.22312E-01-5.37678E-14-4.77925E-14
 -1       848 2.44777E+01-3.29018E+00-4.81681E-03 7.64205E-01 3.21856E-15 3.84225E-13
 -1       849 1.97118E+01 5.51747E-01-3.99238E-05 3.56207E-01 2.31330E-13 3.87633E-14
 -1       850 1.29650E+01-9.26160E-02 5.70897E-02 3.21493E+00-1.06998E-14-5.53342E-14
 -1       851 2.01764E+01 1.79979E+00-6.07984E-04-3.69754E-01-3.46709E-14-6.82100E-14
 -1       852 1.96180E+01 6.24987E-01-5.56542E-05 2.17363E-01 3.44853E-13-6.32373E-13
 -1       853 1.75286E+01-1.79186E+00 3.28047E-02-4.13078E+00 6.08003E-14-1.50571E-13
 -1       854 2.01378E+01 1.43468E-01-8.27629E-07-1.60151E-01 3.83529E-14 1.99231E-14
 -1       855 1.98202E+01 4.71362E-01 2.05712E-04 4.32910E-01 1.58065E-13 3.00463E-13
 -1       856 2.01806E+01 1.79231E+00-3.55576E-04 3.76356E-01 2.81759E-14-5.56077E-14
 -1       857 2.02548E+01 6.51814E-01 2.12725E-04 2.84197E-01 7.21514E-14 2.12502E-14
 -1       858 1.17766E+01 5.94192E-01 6.12840E-02 1.65400E+00-2.84838E-13 2.51847E-14
 -1       859 1.11046E+01 7.81650E-01 6.12667E-02-2.24094E-02 5.02419E-15-6.38135E-14
 -1       860 1.98493E+01 5.00198E-01 5.04139E-04-5.05139E-01-5.87451E-14-1.78044E-13
 -1       861 2.10317E+01-3.09661E+00 8.30761E-03 3.31593E+00-1.63557E-13 6.40486E-13
 -1       862 2.03352E+01 4.71527E-01 3.45900E-05-2.20433E-02-3.39749E-15-2.71180E-14
 -1       863 2.03053E+01 2.85910E-01-1.13080E-05 8.42849E-02 1.32819E-14-3.93261E-14
 -1       864 2.02627E+01 1.73449E-01-7.71975E-06 1.57117E-01 7.97027E-15-4.38972E-15
 -1       865 2.02134E+01 1.16388E-01-4.86683E-06 2.07770E-01 1.98134E-14 4.06116E-14
 -1       866 2.01601E+01 1.01836E-01-2.51056E-06 2.46472E-01 5.07376E-15-8.70708E-17
 -1       867 2.01032E+01 1.20602E-01-1.78693E-06 2.81727E-01-7.63519E-15-1.45462E-14
 -1       868 2.00410E+01 1.66258E-01-2.43993E-06 3.20365E-01-6.44978E-14 1.89347E-14
 -1       869 1.99705E+01 2.34325E-01-2.39847E-06 3.67761E-01-7.13327E-14-3.32919E-14
 -1       870 1.98872E+01 3.21487E-01-2.11896E-06 4.28131E-01-3.75300E-14 2.12842E-14
 -1       871 1.97851E+01 4.24605E-01-1.13176E-06 5.04726E-01-3.11965E-14-1.21785E-14
 -1       872 1.96573E+01 5.39873E-01 1.84556E-06 5.99975E-01-9.88375E-14 7.31217E-14
 -1       873 1.94953E+01 6.61580E-01 5.34335E-06 7.16089E-01-7.08593E-14 9.20362E-14
 -1       874 1.92897E+01 7.80179E-01 9.35129E-06 8.55847E-01-1.31092E-13 1.51216E-13
 -1       875 1.90312E+01 8.80016E-01 5.84712E-06 1.02428E+00 1.57242E-14 1.85969E-13
 -1       876 1.87115E+01 9.35946E-01-1.61639E-05 1.23202E+00-1.14647E-13 1.32830E-13
 -1       877 1.83276E+01 9.08554E-01-4.40561E-05 1.50074E+00 3.72570E-14 5.21725E-14
 -1       878 1.78881E+01 7.37083E-01 2.05681E-04 1.87172E+00 3.82181E-14 7.55454E-14
 -1       879 1.74310E+01 3.23369E-01 1.04674E-03 2.41556E+00 5.87969E-14 4.09456E-14
 -1       880 1.70899E+01-4.57030E-01 1.65260E-02 3.22059E+00-3.98787E-14-1.88841E-13
 -1       881 1.75421E+01-1.90715E+00 2.31530E-02 4.16529E+00-3.44762E-13 4.52017E-13
 -1       882 1.72421E+01-5.30029E-02 7.18755E-03-2.82891E+00 1.04137E-14-3.35221E-14
 -1       883 1.76365E+01 5.40788E-01 6.04373E-04-2.16124E+00 1.09092E-14-2.80118E-13
 -1       884 1.80974E+01 8.35228E-01 1.20168E-04-1.70159E+00 3.43389E-13-1.67589E-13
 -1       885 1.85172E+01 9.39117E-01 1.45328E-05-1.38101E+00 3.87286E-13-3.84009E-13
 -1       886 1.88749E+01 9.31880E-01 3.92744E-05-1.14010E+00 2.42731E-13-3.94535E-13
 -1       887 1.91681E+01 8.64429E-01 1.72179E-05-9.46900E-01 2.57131E-13-3.00151E-13
 -1       888 1.94027E+01 7.69768E-01 1.81331E-05-7.85069E-01 2.36435E-13 9.38810E-14
 -1       889 1.95863E+01 6.70282E-01 5.16380E-05-6.45739E-01 3.94932E-13 3.76053E-14
 -1       890 1.99753E+01 2.18206E-01 7.06324E-06-4.37773E-01-1.60988E-14 5.80590E-14
 -1       891 2.00189E+01 1.63334E-01 6.86395E-06-3.77842E-01 3.20939E-14 1.06894E-13
 -1       892 1.98842E+01 3.29702E-01 1.24509E-05-6.10389E-01-8.71351E-14 5.30054E-15
 -1       893 1.98413E+01 3.66648E-01 2.07282E-05-7.26973E-01 1.82269E-15 2.12670E-14
 -1       894 1.98086E+01 3.71632E-01 3.38292E-05-8.64398E-01 5.38265E-14 4.45630E-14
 -1       895 1.98002E+01 3.23217E-01 5.85443E-05-1.02116E+00 5.14821E-14-2.86925E-15
 -1       896 1.98395E+01 1.93555E-01 8.52658E-05-1.19290E+00 1.12726E-14 8.64899E-14
 -1       897 1.99636E+01-5.12571E-02 7.85486E-05-1.36996E+00-3.87784E-14 9.01679E-14
 -1       898 2.02287E+01-4.47250E-01 4.98338E-05-1.53111E+00-1.73269E-13 1.57377E-15
 -1       899 2.07142E+01-1.01937E+00 1.02771E-04-1.62786E+00-1.42844E-13 8.29602E-14
 -1       900 2.15026E+01-1.73917E+00 7.18831E-04-1.57368E+00-8.07616E-14 1.36489E-13
 -1       901 2.26643E+01-2.47624E+00-4.53301E-04-1.21222E+00-1.70006E-13 1.79664E-13
 -1       902 2.54854E+01-2.05803E+00-1.21410E-02 9.72205E-01-2.76446E-13 3.72030E-13
 -1       903 2.27199E+01-2.48493E+00 8.46282E-03 1.21657E+00-2.09985E-14 1.87757E-13
 -1       904 2.15080E+01-1.74132E+00-5.24258E-03 1.58503E+00 2.04843E-13 1.18414E-13
 -1       905 2.07138E+01-9.97034E-01-5.77806E-04 1.62411E+00 1.70805E-13 2.41331E-13
 -1       906 2.02421E+01-4.35959E-01 3.06264E-04 1.52607E+00 1.13602E-13 1.78690E-13
 -1       907 1.99816E+01-4.27600E-02 1.83239E-04 1.37038E+00 1.09847E-13 1.83046E-13
 -1       908 1.98591E+01 2.05545E-01 4.94676E-05 1.19300E+00-5.50336E-14 5.78299E-13
 -1       909 1.98210E+01 3.42593E-01 3.71974E-05 1.01812E+00-1.08294E-13 6.64221E-13
 -1       910 1.98295E+01 4.03239E-01 1.16890E-04 8.55687E-01-9.86866E-15 3.52323E-13
 -1       911 1.98566E+01 4.18164E-01 7.70578E-06 7.09357E-01-9.17477E-15 4.23554E-13
 -1       912 1.98961E+01 4.05671E-01 1.58692E-04 5.78984E-01-3.54785E-14 4.07141E-13
 -1       913 2.03071E+01 4.63638E-01 9.57602E-05 4.04900E-02 9.85105E-14 3.46090E-14
 -1       914 2.01465E+01 1.91093E+00-5.02080E-04-1.88805E-01-2.83368E-14-4.31744E-14
 -1       915 1.95666E+01 6.69947E-01-8.75160E-05-4.48072E-01-6.20159E-14-1.72650E-13
 -1       916 1.94356E+01 7.34878E-01-1.16896E-04-2.54860E-01 1.92443E-13-4.75100E-14
 -1       917 1.93899E+01 7.48181E-01-9.48824E-05-3.72634E-02 5.08192E-13-1.66029E-13
 -1       918 2.03023E+01 1.16775E+00 7.30196E-04-3.77186E-01-4.57866E-14-6.39090E-14
 -1       919 1.43018E+01 4.34744E-01 2.64473E-02-2.37224E+00-6.77153E-14-4.33889E-14
 -1       920 2.01454E+01 8.12015E-02-4.43497E-07-2.57477E-01 4.68260E-14 1.14475E-13
 -1       921 2.03424E+01 7.49925E-01-3.80589E-04-1.74491E-01-4.21199E-14-5.38582E-14
 -1       922 1.98672E+01-2.83025E+00 2.96265E-02-3.87266E+00-1.52992E-13 8.26349E-14
 -1       923 1.99301E+01 2.76438E-01 8.98663E-06-5.14441E-01-4.33908E-14 7.86460E-14
 -1       924 1.45511E+01-4.51242E-01 4.68166E-02 3.51714E+00-6.40048E-14-2.47552E-13
 -1       925 1.99297E+01 3.89427E-01-1.72183E-05 4.61636E-01 2.24021E-13 4.37835E-13
 -1       926 2.20039E+01-3.17978E+00 4.15836E-03-2.63671E+00-2.48000E-13 6.66734E-14
 -1       927 2.03093E+01 1.02058E+00-2.03429E-05 3.53298E-01 6.84474E-14-6.59763E-15
 -1       928 2.01886E+01 1.02980E-01-5.97989E-06-2.16874E-01 4.15334E-14 8.26389E-14
 -1       929 1.25401E+01 9.84045E-01 3.26434E-02-1.51180E-01-2.23271E-13-1.13396E-13
 -1       930 1.44639E+01-2.38721E-02 3.00939E-02-2.99533E+00-5.78628E-14-1.71355E-13
 -1       931 1.95261E+01 6.39761E-01-1.69078E-04 3.63389E-01 2.00805E-14-2.21612E-13
 -1       932 1.97374E+01 5.78493E-01 1.60172E-04-5.75987E-01 2.00049E-13-3.85994E-13
 -1       933 2.00612E+01 1.18231E-01 5.17157E-06-3.31134E-01 4.93853E-14 6.62495E-14
 -1       934 2.38957E+01-2.81550E+00 3.87640E-03-5.10737E-01-2.61596E-13 2.56871E-13
 -1       935 2.02924E+01 1.36442E+00-5.05611E-05 1.91292E-01-4.05218E-15-1.45025E-14
 -1       936 1.58942E+01-5.74613E-01 2.53146E-02 3.43495E+00 8.53657E-15 2.48576E-13
 -1       937 2.03183E+01 7.49816E-01-1.04362E-04 2.16594E-01 6.22662E-14 1.79798E-14
 -1       938 2.02734E+01 2.78059E-01-5.80456E-06-8.01845E-02 2.51503E-14 3.60644E-14
 -1       939 1.28518E+01 7.72392E-01 3.05407E-02 1.50323E+00-8.76994E-14 6.46601E-14
 -1       940 1.94226E+01 7.14461E-01-3.01573E-05 1.77738E-01 3.16952E-13-6.39162E-13
 -1       941 2.02820E+01 1.43487E+00 1.77591E-05 6.72937E-02-3.70822E-15-1.00482E-13
 -1       942 1.36541E+01 9.92637E-01 3.00487E-02-1.14567E+00-2.95951E-13-1.01850E-13
 -1       943 2.02961E+01 8.34211E-01 2.86379E-05 3.28825E-01 7.32933E-14 1.60173E-14
 -1       944 2.02897E+01 1.34886E+00 2.24528E-04-2.85422E-01-2.30302E-14-2.95585E-14
 -1       945 1.96557E+01 5.55753E-01-1.04641E-04 4.79006E-01-8.23501E-14 3.17619E-13
 -1       946 2.01031E+01 8.88042E-02 5.43892E-06-2.93019E-01 7.52377E-15 1.00289E-13
 -1       947 2.03466E+01 2.79703E-01-4.01719E-06 8.74609E-02 2.78502E-15-2.73461E-14
 -1       948 2.02967E+01 1.79578E-01-6.08837E-06 1.38094E-01 3.71417E-14-3.81453E-14
 -1       949 2.02339E+01 1.35549E-01-3.11915E-06 1.75071E-01-2.40102E-14-4.19721E-14
 -1       950 2.01611E+01 1.35522E-01-1.05435E-06 2.05350E-01-8.64328E-15-2.26166E-14
 -1       951 2.00785E+01 1.70525E-01-5.41844E-06 2.34667E-01 2.42585E-15-2.88936E-14
 -1       952 1.99841E+01 2.33998E-01-1.16632E-05 2.67531E-01-8.52914E-14-2.25742E-14
 -1       953 1.98737E+01 3.21198E-01-1.47623E-05 3.07212E-01-1.97087E-14 1.04953E-15
 -1       954 1.97416E+01 4.28285E-01-1.56336E-05 3.56138E-01-1.35927E-14-2.07866E-14
 -1       955 1.95801E+01 5.50924E-01-2.99288E-05 4.15647E-01-3.69372E-14 4.15195E-15
 -1       956 1.93792E+01 6.84595E-01-4.53138E-05 4.86422E-01-1.02886E-13 1.00199E-13
 -1       957 1.91271E+01 8.22358E-01-6.10934E-05 5.69432E-01-9.86750E-14-7.81303E-17
 -1       958 1.88088E+01 9.53864E-01-8.70883E-05 6.66588E-01-2.92203E-14 1.39945E-14
 -1       959 1.84050E+01 1.06443E+00-1.34935E-04 7.83601E-01 5.78494E-15 3.18740E-14
 -1       960 1.78904E+01 1.13245E+00-2.20859E-04 9.34385E-01-7.37550E-14 7.28325E-14
 -1       961 1.72294E+01 1.12749E+00-1.42564E-04 1.14843E+00 9.80590E-14 7.89558E-14
 -1       962 1.63688E+01 1.00637E+00 1.57550E-03 1.48704E+00 2.78927E-14 4.17153E-14
 -1       963 1.52305E+01 6.97232E-01 9.44194E-03 2.02591E+00-1.85160E-13 4.58305E-14
 -1       964 1.58041E+01 8.58943E-01 7.60369E-03-1.77333E+00-7.33144E-14-3.17261E-13
 -1       965 1.95233E+01-1.81161E+00 9.13406E-03 3.11513E+00 1.88613E-13 8.77440E-13
 -1       966 1.35890E+01 6.49315E-01 4.95420E-02 1.98045E+00-2.13875E-13 3.41871E-14
 -1       967 1.67899E+01 1.07523E+00 7.50342E-04-1.32353E+00 3.05144E-13 3.81063E-15
 -1       968 1.75563E+01 1.14381E+00-1.70033E-04-1.05013E+00 2.82841E-13 1.13934E-14
 -1       969 1.81500E+01 1.12039E+00-5.00044E-05-8.67504E-01 4.20060E-13-1.33319E-13
 -1       970 1.86142E+01 1.04137E+00-6.91503E-05-7.30973E-01 4.58049E-13 4.27008E-14
 -1       971 1.89770E+01 9.35175E-01-1.45067E-04-6.19187E-01 3.15573E-13 9.76199E-14
 -1       972 1.92613E+01 8.21381E-01-7.02572E-05-5.21881E-01 2.81403E-13-3.91668E-14
 -1       973 2.02815E+01 1.43698E+00 9.16002E-05-6.34598E-02 6.79060E-15-5.08848E-14
 -1       974 1.95495E+01 4.97637E-01-4.15607E-06-7.30852E-01 1.60847E-14 5.58033E-14
 -1       975 1.96597E+01 4.52735E-01-7.75887E-06-6.00311E-01-6.47449E-14 4.99430E-14
 -1       976 1.93499E+01 4.41159E-01 7.86379E-05-1.09142E+00 4.30972E-14 1.57895E-13
 -1       977 1.93018E+01 2.81131E-01 2.03109E-04-1.33304E+00 8.39490E-14 3.38791E-14
 -1       978 1.93425E+01-2.11366E-02 3.43317E-04-1.62193E+00-1.29711E-13 9.85743E-14
 -1       979 1.95418E+01-5.14477E-01 2.34671E-04-1.95239E+00-1.98362E-13 1.47688E-14
 -1       980 2.00464E+01-1.27150E+00-4.33588E-03-2.28111E+00-1.21135E-13-1.14967E-15
 -1       981 2.07813E+01-2.15195E+00-3.35505E-04-2.56084E+00-1.75592E-13 7.45520E-14
 -1       982 2.03626E+01 7.25991E-01 2.63447E-04 1.15922E-01 5.40344E-14 2.48763E-14
 -1       983 1.93680E+01-1.62943E-02-3.76309E-04 1.62257E+00 8.92179E-14 5.54997E-13
 -1       984 1.93296E+01 2.91119E-01-4.47148E-05 1.33248E+00-1.67131E-13 6.93044E-13
 -1       985 1.93783E+01 4.58555E-01-8.17391E-05 1.08964E+00 6.01716E-14 4.62847E-13
 -1       986 1.94690E+01 5.31822E-01 2.76173E-05 8.87727E-01-1.01401E-13 3.54534E-13
 -1       987 1.95716E+01 5.46350E-01-2.52866E-04 7.20311E-01-1.93856E-14 4.98579E-13
 -1       988 2.02799E+01 1.42480E+00 9.82538E-04-1.75850E-01-4.80827E-15-5.88450E-14
 -1       989 1.91881E+01 8.39970E-01 2.69823E-04-1.57968E-01 3.23950E-13-1.81416E-13
 -1       990 1.81422E+01-1.35043E+00 1.08808E-02-3.38382E+00-1.47007E-13 2.85180E-14
 -1       991 1.95883E+01-5.05429E-01 4.52913E-03 1.93751E+00 1.72248E-13 2.78380E-13
 -1       992 2.03805E+01 7.11534E-01 1.55225E-04-8.53316E-02-2.05547E-14-1.55211E-14
 -1       993 1.94902E+01-1.04389E+00-6.09858E-03 2.45144E+00 4.54163E-13 4.33277E-13
 -1       994 2.03063E+01 1.22480E+00-7.94026E-05 2.92434E-01 3.81562E-14 1.40852E-15
 -1       995 1.94412E+01 5.02343E-01 2.27649E-06-8.92709E-01 4.83426E-14 1.03622E-13
 -1       996 1.99473E+01 2.40287E-01 9.55565E-06-3.50751E-01 3.97732E-14 8.82682E-14
 -1       997 2.03771E+01 4.51814E-01 1.40476E-05 1.54868E-02 9.19846E-15 7.70179E-15
 -1       998 2.02320E+01 1.64114E-01-3.22771E-06-1.61652E-01-1.55685E-14 7.13541E-14
 -1       999 2.02277E+01 1.22150E-01-1.23991E-05-1.93567E-01 2.80483E-14 4.46210E-14
 -1      1000 1.42504E+01 8.86531E-01 1.60122E-02-1.41930E+00-1.72112E-13-1.44001E-13
 -1      1001 1.79425E+01-7.27595E-01 9.45195E-03 2.91582E+00 1.16595E-12 5.14299E-13
 -1      1002 1.92857E+01 7.44933E-01 1.73854E-04 3.49139E-01 7.52082E-14-2.19158E-13
 -1      1003 1.94447E+01 6.49371E-01 4.20653E-04 5.06587E-01-2.13518E-14 1.05590E-13
 -1      1004 2.00262E+01 1.78474E-01 4.75624E-06-3.01625E-01-1.08201E-14 5.04888E-14
 -1      1005 2.03649E+01 9.21683E-01 2.78454E-04 1.32568E-01 7.71467E-15 2.98164E-14
 -1      1006 2.03720E+01 1.00766E+00 2.71690E-04 7.45500E-02 5.49566E-15-5.42961E-14
 -1      1007 1.97643E+01 3.86474E-01-2.45961E-06-4.96105E-01-3.16672E-14 1.31368E-13
 -1      1008 2.03584E+01 4.57754E-01-3.87494E-05-3.93396E-03 1.92235E-14 1.06466E-13
 -1      1009 1.50417E+01 3.64325E-01 1.05057E-02 2.35888E+00 9.16073E-14 9.16890E-14
 -1      1010 1.91872E+01 8.17375E-01-9.31197E-05 1.08402E-01 4.66120E-13-2.27092E-13
 -1      1011 1.68438E+01-3.47212E-01 8.83328E-03-2.88159E+00-1.54897E-13 1.40109E-13
 -1      1012 1.98603E+01 3.12136E-01-1.85711E-06-4.14210E-01-5.30334E-14 1.18319E-13
 -1      1013 2.01659E+01 1.11801E-01-1.40770E-05-2.28627E-01 5.80035E-14 4.99201E-14
 -1      1014 1.60797E+01 5.43430E-01 1.10730E-03-1.95268E+00-2.08276E-13-3.04509E-14
 -1      1015 2.02993E+01 1.78152E-01-5.01116E-05 1.00210E-01-1.39095E-14-6.70638E-14
 -1      1016 2.02221E+01 1.52584E-01 7.44465E-07 1.22238E-01 1.07379E-14-4.86252E-14
 -1      1017 2.01311E+01 1.69866E-01 1.13460E-06 1.41074E-01-6.77014E-15-1.62580E-14
 -1      1018 2.00255E+01 2.21940E-01-7.06561E-06 1.59817E-01-1.43528E-14-2.28839E-14
 -1      1019 1.99031E+01 3.01719E-01-5.20331E-05 1.80418E-01-2.89866E-14 1.96055E-14
 -1      1020 1.97588E+01 4.04676E-01-4.42555E-05 2.03986E-01-1.07110E-13-6.50480E-14
 -1      1021 1.95850E+01 5.26407E-01-2.53969E-05 2.30925E-01 1.63138E-14-6.71492E-14
 -1      1022 1.93736E+01 6.60439E-01-1.04880E-04 2.59459E-01-2.38248E-14-1.11333E-13
 -1      1023 1.91116E+01 8.02924E-01-1.67669E-04 2.89046E-01-1.31313E-13-2.53143E-14
 -1      1024 1.87848E+01 9.44464E-01-2.03232E-04 3.17163E-01-1.28767E-14-2.33787E-14
 -1      1025 1.83722E+01 1.07515E+00-2.39314E-04 3.41905E-01 3.76566E-14 4.81689E-14
 -1      1026 1.78431E+01 1.18273E+00-2.78383E-04 3.64468E-01-4.96874E-14 1.39715E-13
 -1      1027 1.71496E+01 1.25163E+00-3.31589E-04 3.90353E-01-5.13177E-15 1.84427E-13
 -1      1028 1.62158E+01 1.26495E+00 9.14072E-04 4.33704E-01 2.11619E-14 8.72360E-14
 -1      1029 1.48911E+01 1.22448E+00 8.03208E-03 5.30294E-01-4.52967E-14-7.01856E-14
 -1      1030 1.55651E+01 1.23596E+00-2.08300E-04-4.79251E-01 1.79486E-13-2.80245E-15
 -1      1031 1.66843E+01 1.26682E+00-2.65836E-04-4.09073E-01 3.25276E-13-4.13954E-15
 -1      1032 1.74997E+01 1.23348E+00-9.10548E-05-3.81935E-01 3.55949E-13 9.00748E-14
 -1      1033 1.81132E+01 1.15730E+00-2.98405E-04-3.56033E-01 3.43788E-13 3.96480E-14
 -1      1034 1.85864E+01 1.05091E+00-7.82833E-04-3.31572E-01 3.47659E-13-5.74865E-13
 -1      1035 1.89144E+01 9.46135E-01-4.04612E-04-2.34483E-01 4.21238E-13-5.77435E-13
 -1      1036 2.03740E+01 1.03673E+00 2.65872E-04-1.01953E-03 1.12866E-14-1.08677E-13
 -1      1037 1.90403E+01 6.83890E-01-1.50210E-04 8.55639E-01 8.00872E-14 5.51196E-13
 -1      1038 1.93956E+01 5.88871E-01-2.61535E-05-5.36626E-01-3.12515E-14 1.41858E-13
 -1      1039 1.85961E+01 4.38690E-01-1.70420E-05-1.42189E+00 2.98706E-14 2.41717E-13
 -1      1040 1.87941E+01 6.02839E-01-1.49320E-04-1.09977E+00 5.70599E-14 2.25145E-13
 -1      1041 1.84580E+01-4.28019E-01 3.56521E-03-2.42239E+00-1.23250E-13-5.22858E-14
 -1      1042 1.44591E+01 1.15547E+00 1.22586E-02 4.34163E-01-1.03825E-13 2.38278E-13
 -1      1043 1.88308E+01 6.16825E-01-4.49588E-04 1.09596E+00 9.47842E-14 4.42507E-13
 -1      1044 1.90039E+01 6.61161E-01-1.42323E-04-8.57531E-01 2.26327E-15 2.17637E-13
 -1      1045 2.03988E+01 4.07411E-01-4.12250E-05 3.07614E-02-3.69317E-14-3.15664E-14
 -1      1046 1.86374E+01 4.43793E-01-7.59787E-04 1.41566E+00-4.47314E-14 7.59600E-13
 -1      1047 1.92366E+01 6.90299E-01 3.38521E-04 6.71386E-01 2.20594E-14 3.94742E-13
 -1      1048 1.84486E+01 1.15623E-01-9.17308E-04-1.85452E+00-6.27613E-14 9.03988E-14
 -1      1049 2.03924E+01 5.93055E-01-1.53642E-04 3.13795E-02 1.51864E-15 6.14846E-14
 -1      1050 1.84918E+01 1.35181E-01 2.09716E-03 1.82234E+00-4.11862E-13 3.01517E-13
 -1      1051 2.00988E+01 1.33246E-01-1.23791E-05-2.62682E-01 4.60080E-14 3.03627E-14
 -1      1052 2.03289E+01 2.80735E-01 5.36190E-05-9.00389E-02 9.86377E-15 9.74818E-14
 -1      1053 2.04078E+01 6.39966E-01-2.92263E-04-2.79274E-02 2.47169E-14-4.03839E-15
 -1      1054 2.02832E+01 1.74210E-01 1.76984E-05-1.50214E-01 4.39811E-14 1.25004E-14
 -1      1055 1.92079E+01 6.46898E-01-6.20573E-05-6.75165E-01 2.57220E-14 2.26447E-13
 -1      1056 2.03601E+01 2.58398E-01-6.41429E-05 7.11268E-02-1.16068E-14-6.64634E-14
 -1      1057 1.89894E+01 8.60309E-01 5.97480E-04 3.11513E-01 2.28578E-13-9.03002E-14
 -1      1058 1.99573E+01 2.46445E-01-7.49130E-06-2.43201E-01 3.50553E-14 8.98777E-14
 -1      1059 1.98424E+01 3.26137E-01 7.48645E-06-2.89420E-01-1.40112E-14 1.02936E-13
 -1      1060 2.03569E+01 1.06363E+00-3.84373E-04-1.14986E-01 9.85865E-15-2.30536E-14
 -1      1061 1.56861E+01 1.13284E+00-1.78489E-04-7.01605E-01-1.39610E-13-1.60250E-13
 -1      1062 1.95639E+01 5.06976E-01-2.75532E-05-4.31025E-01-7.52620E-14 8.61952E-14
 -1      1063 1.70360E+01-3.91005E-02-1.44543E-02 2.44443E+00 1.09945E-12 1.41058E-12
 -1      1064 1.89055E+01 9.24866E-01 2.50668E-04 4.78511E-02 6.41321E-13-1.98161E-15
 -1      1065 2.03001E+01 1.75493E-01-6.72236E-05-1.21673E-01 4.25174E-14-1.45775E-14
 -1      1066 2.02304E+01 1.40747E-01 3.67706E-05-1.52001E-01 5.48257E-14-4.76399E-14
 -1      1067 2.03785E+01 3.71048E-01-2.04904E-04-4.58233E-02 3.31862E-14 3.26446E-14
 -1      1068 2.01869E+01 1.67081E-01-2.97997E-05 4.95769E-02-1.25220E-14-1.97783E-14
 -1      1069 2.00815E+01 2.01905E-01-1.15458E-05 5.49682E-02-3.11424E-14-2.18524E-14
 -1      1070 1.99588E+01 2.69848E-01 2.35171E-04 5.97346E-02-7.31128E-14-4.09826E-14
 -1      1071 1.98139E+01 3.63515E-01 1.71661E-05 6.21231E-02-5.92582E-14-7.90860E-14
 -1      1072 1.96476E+01 4.74137E-01 1.44932E-04 6.14454E-02 1.18591E-15-2.41180E-14
 -1      1073 1.94448E+01 6.02824E-01 5.68027E-04 5.80607E-02 6.02404E-15-5.46074E-14
 -1      1074 1.91948E+01 7.39657E-01 1.18021E-04 4.44106E-02 2.71128E-14-4.43427E-14
 -1      1075 1.88932E+01 8.75155E-01 1.16479E-05 1.65627E-02-4.20606E-14 1.03847E-13
 -1      1076 1.85189E+01 1.00200E+00-1.39953E-04-3.20600E-02 7.76862E-14 1.84789E-13
 -1      1077 1.80525E+01 1.10547E+00-5.35566E-04-1.10847E-01 5.90004E-14 1.72898E-13
 -1      1078 1.74582E+01 1.17430E+00-6.38726E-04-2.31640E-01-8.04841E-14 9.34754E-14
 -1      1079 1.66933E+01 1.19769E+00 2.23872E-04-4.19202E-01-5.70565E-14 3.02465E-14
 -1      1080 2.04167E+01 6.34153E-01-3.90905E-04 1.64218E-02 1.21349E-16-7.73056E-14
 -1      1081 1.88252E+01 8.12227E-01-1.73585E-04-5.44282E-01 5.40609E-14-7.15951E-14
 -1      1082 1.91030E+01 7.34823E-01-1.24098E-04-4.10608E-01 7.33135E-15-7.52013E-15
 -1      1083 1.70780E+01 1.20131E+00 3.56777E-04 3.22528E-01 3.11203E-13 4.02865E-13
 -1      1084 1.77661E+01 1.16465E+00 1.61342E-04 1.81628E-01 1.63682E-13-4.79437E-14
 -1      1085 1.83051E+01 1.08629E+00 7.86472E-04 7.95358E-02-7.06866E-14-2.10039E-13
 -1      1086 1.86412E+01 1.00507E+00 1.82604E-03 5.92221E-02 7.57405E-14-1.34552E-13
 -1      1087 1.58363E+01 9.67102E-01 1.02653E-02 1.26423E+00 2.68950E-13 4.28498E-13
 -1      1088 2.00589E+01 1.84153E-01-8.51931E-05-2.07766E-01 1.18738E-14 1.03614E-13
 -1      1089 2.04232E+01 5.47256E-01 1.77407E-04 1.13361E-04-6.77856E-15-7.18880E-14
 -1      1090 1.85003E+01 8.50446E-01 9.06521E-05-7.29624E-01 2.50324E-14-1.44280E-13
 -1      1091 2.03463E+01 2.49373E-01-5.87865E-05-9.15894E-02 8.24589E-14-4.11674E-14
 -1      1092 1.81938E+01 8.25877E-01-8.97695E-04 9.99235E-01-4.94131E-14-1.18420E-14
 -1      1093 1.69717E+01 6.47368E-01 3.33809E-03-1.63960E+00-9.31556E-14-5.24269E-14
 -1      1094 1.75590E+01 8.35633E-01-1.08168E-04-1.15406E+00-2.88350E-14-7.93249E-14
 -1      1095 1.85439E+01 8.66641E-01 2.57230E-04 7.39701E-01 1.77370E-14 2.72572E-13
 -1      1096 2.04007E+01 3.50710E-01 1.14846E-04 2.07308E-02-4.99422E-16-1.53924E-14
 -1      1097 1.80854E+01 8.68405E-01 5.75233E-04-9.07622E-01-3.12741E-14-1.42761E-13
 -1      1098 1.61006E+01 1.20324E+00-1.14052E-03 3.27680E-01 3.21791E-13 3.68013E-13
 -1      1099 1.77561E+01 6.85960E-01-4.57431E-03 1.35856E+00-2.72366E-13 1.36691E-13
 -1      1100 2.03504E+01 2.29970E-01 8.92547E-05 3.37596E-02-9.61296E-15 1.12374E-14
 -1      1101 2.02767E+01 1.73876E-01 1.91498E-05 4.27392E-02 5.23008E-15-5.79107E-15
 -1      1102 1.97122E+01 4.15766E-01-3.62931E-05-3.50084E-01-6.06102E-14 9.38117E-14
 -1      1103 2.01502E+01 1.46535E-01 2.84496E-05-1.78832E-01 1.69256E-14 3.92288E-14
 -1      1104 1.93418E+01 6.34592E-01 1.13175E-04-3.11397E-01-5.13837E-14 7.30159E-14
 -1      1105 1.98657E+01 3.19121E-01-3.93102E-05-1.53602E-01 6.75560E-16 8.73314E-14
 -1      1106 1.87330E+01 9.19436E-01-2.24503E-03 3.57955E-01 2.36302E-13 1.71718E-13
 -1      1107 1.99952E+01 2.38270E-01 1.40499E-04-1.27001E-01 1.25252E-14-1.74410E-15
 -1      1108 1.88656E+01 8.42234E-01-1.02662E-03 5.53151E-01 1.11304E-13 1.30775E-13
 -1      1109 2.03575E+01 2.42976E-01 3.11849E-05-5.56347E-02 5.28377E-14-9.31658E-14
 -1      1110 2.02913E+01 1.74023E-01 5.46212E-05-7.66704E-02 2.63188E-14-4.15422E-14
 -1      1111 2.00237E+01 2.29063E-01 1.09562E-05-4.89218E-02-4.26863E-14 2.75815E-14
 -1      1112 1.95588E+01 5.17925E-01-1.49182E-03-1.12617E-01-5.32986E-14 2.87180E-14
 -1      1113 2.03977E+01 3.56217E-01 1.53216E-04-3.38796E-02 9.91722E-14-8.77424E-14
 -1      1114 1.72867E+01 3.30555E-01-1.67042E-02 1.91036E+00-1.70815E-13 7.73783E-13
 -1      1115 2.01373E+01 1.79207E-01-8.61305E-05-3.90788E-02 6.60287E-15-3.54074E-15
 -1      1116 1.97163E+01 4.17906E-01 4.29530E-05-1.92321E-01-3.64162E-14 1.40676E-13
 -1      1117 1.66218E+01 9.35576E-01 1.35616E-02 1.26722E+00 2.22869E-13 7.39705E-13
 -1      1118 2.02364E+01 1.65172E-01-2.77683E-05-3.24725E-02 4.32152E-15 1.48567E-14
 -1      1119 1.95514E+01 5.22649E-01 8.04046E-04-2.41456E-01-3.29292E-14 1.12759E-13
 -1      1120 2.79413E+01 9.07951E+00 2.32358E+00-6.69574E+00-1.40998E-14 6.57224E-13
 -1      1121 2.05341E+01 6.22303E+00 2.09271E-01-3.90488E+00-8.40994E-15 2.02428E-13
 -1      1122 1.94278E+01 5.85087E+00 7.51026E-02-2.89001E+00-6.89726E-15-1.00024E-14
 -1      1123 1.90255E+01 5.72580E+00 6.04728E-02-2.23742E+00-5.19029E-15-1.23723E-13
 -1      1124 1.88446E+01 5.67078E+00 5.80039E-02-1.70321E+00-3.70537E-15-1.79654E-13
 -1      1125 1.87542E+01 5.64300E+00 5.57665E-02-1.23544E+00-3.04531E-15-2.04540E-13
 -1      1126 1.87079E+01 5.62858E+00 5.39784E-02-8.05156E-01-1.06512E-15-2.13929E-13
 -1      1127 1.86855E+01 5.62148E+00 5.27249E-02-3.93205E-01-7.67832E-16-2.14388E-13
 -1      1128 1.86792E+01 5.61945E+00 5.23221E-02 8.52682E-03 4.99384E-16-2.13956E-13
 -1      1129 1.86865E+01 5.62181E+00 5.28356E-02 4.10656E-01 2.03136E-15-2.12276E-13
 -1      1130 1.87100E+01 5.62928E+00 5.42294E-02 8.23926E-01 1.77506E-15-2.05601E-13
 -1      1131 1.87580E+01 5.64434E+00 5.64372E-02 1.25681E+00 2.89872E-15-1.80812E-13
 -1      1132 1.88494E+01 5.67241E+00 5.86257E-02 1.72906E+00 4.11823E-15-1.48764E-13
 -1      1133 1.90309E+01 5.72742E+00 6.05117E-02 2.27042E+00 5.10009E-15-9.06627E-14
 -1      1134 1.94246E+01 5.84813E+00 6.91791E-02 2.93046E+00 7.41074E-15 2.59463E-14
 -1      1135 2.04404E+01 6.17802E+00 1.52935E-01 3.87950E+00 7.71605E-15 2.46702E-13
 -1      1136 2.51964E+01 7.98766E+00 1.42898E+00 5.84476E+00 1.45994E-14 7.04659E-13
 -1      1137 2.87873E+01 3.61402E+00 1.27055E+00-4.21529E+00-5.44842E-14 9.54681E-13
 -1      1138 2.02031E+01-1.77603E-01-6.16031E-01-1.10225E-01-1.85477E-14 8.25007E-13
 -1      1139 1.88067E+01-9.64091E-02-2.36347E-01 6.23450E-02-4.88672E-15 6.40462E-13
 -1      1140 1.84712E+01-4.81428E-02-5.96212E-02 4.03377E-02 4.04191E-16 5.25184E-13
 -1      1141 1.84149E+01-2.47788E-02-1.52952E-02 2.65631E-02-7.15573E-16 4.32373E-13
 -1      1142 1.84964E+01-1.33366E-02-5.20972E-03 1.87873E-02-1.11586E-14 3.75311E-13
 -1      1143 1.86449E+01-7.04958E-03-1.88347E-03 1.37985E-02-3.52995E-15 2.68095E-13
 -1      1144 1.88220E+01-3.50046E-03-8.64522E-05 1.03312E-02-1.78812E-15 2.88197E-13
 -1      1145 1.90072E+01-1.56415E-03 8.98447E-04 7.77268E-03 7.11074E-15 2.63277E-13
 -1      1146 1.91899E+01-6.63264E-04 1.19204E-03 5.82801E-03-9.65769E-15 1.63561E-13
 -1      1147 1.93666E+01-4.79639E-04 8.97554E-04 4.35202E-03-6.60689E-15 3.18044E-14
 -1      1148 1.95387E+01-8.30489E-04 1.09485E-04 3.27408E-03 7.70911E-15 9.42601E-14
 -1      1149 1.97115E+01-1.61000E-03-1.11136E-03 2.56728E-03-8.80161E-15 1.49841E-13
 -1      1150 1.98932E+01-2.75849E-03-2.74098E-03 2.23833E-03 6.61174E-15 5.50671E-14
 -1      1151 2.00953E+01-4.24192E-03-4.78362E-03 2.32726E-03-1.52806E-14 8.48514E-14
 -1      1152 2.03320E+01-6.03204E-03-7.25564E-03 2.91261E-03-1.95490E-14 1.76824E-13
 -1      1153 2.06207E+01-8.07954E-03-1.01565E-02 4.11914E-03-6.86083E-15 3.87403E-14
 -1      1154 2.09814E+01-1.02706E-02-1.34122E-02 6.12375E-03 2.66126E-14 1.50843E-13
 -1      1155 2.14366E+01-1.23540E-02-1.67647E-02 9.14908E-03-3.13392E-14-4.34947E-14
 -1      1156 2.20087E+01-1.38232E-02-1.95666E-02 1.34200E-02 1.00568E-14-7.49401E-15
 -1      1157 2.27160E+01-1.37435E-02-2.04336E-02 1.90305E-02 7.52003E-16 4.27644E-14
 -1      1158 2.35629E+01-1.05477E-02-1.67606E-02 2.56250E-02-2.58506E-15 1.80491E-13
 -1      1159 2.45228E+01-1.92835E-03-4.32317E-03 3.17592E-02 2.82906E-14 5.41137E-13
 -1      1160 2.55101E+01 1.47941E-02 2.22556E-02 3.38692E-02-2.39986E-14 5.32848E-13
 -1      1161 2.63449E+01 4.10734E-02 6.64687E-02 2.52274E-02 5.39239E-15 5.83755E-13
 -1      1162 2.67283E+01 7.33898E-02 1.22204E-01-3.51117E-03 3.41211E-14 7.98337E-13
 -1      1163 2.62798E+01 9.75479E-02 1.62823E-01-5.86650E-02 2.48117E-14 1.04564E-12
 -1      1164 2.47127E+01 8.66100E-02 1.40622E-01-1.30242E-01 7.74381E-15 7.98597E-13
 -1      1165 2.21665E+01 1.74038E-02 1.87550E-02-1.79305E-01 1.59511E-14 7.75630E-13
 -1      1166 1.94745E+01-9.36112E-02-1.66914E-01-1.53690E-01-3.82767E-15 8.21884E-13
 -1      1167 1.79185E+01-1.71111E-01-2.93021E-01-4.09611E-02-4.01918E-14 5.95406E-13
 -1      1168 1.83733E+01-1.47774E-01-2.55487E-01 9.81537E-02 8.72930E-14 6.77958E-13
 -1      1169 2.05764E+01-4.40240E-02-8.57574E-02 1.76741E-01-2.95606E-14 4.22329E-13
 -1      1170 2.33491E+01 5.51076E-02 8.36634E-02 1.64266E-01-2.82443E-14-1.14769E-13
 -1      1171 2.55246E+01 9.76742E-02 1.61043E-01 9.87134E-02 5.58234E-15-4.27894E-13
 -1      1172 2.65833E+01 8.96036E-02 1.49727E-01 3.13541E-02 3.24766E-14-2.77237E-13
 -1      1173 2.66175E+01 5.92615E-02 9.77732E-02-1.21966E-02 1.01447E-14-4.17579E-13
 -1      1174 2.59875E+01 2.85935E-02 4.52515E-02-3.10686E-02 2.66211E-14-6.37684E-14
 -1      1175 2.50497E+01 6.42295E-03 8.75792E-03-3.40487E-02-5.50254E-15 2.05658E-13
 -1      1176 2.40506E+01-6.50940E-03-1.10473E-02-2.96434E-02 2.04637E-14-3.88682E-14
 -1      1177 2.31249E+01-1.25329E-02-1.91276E-02-2.31171E-02-1.68869E-14-2.00784E-13
 -1      1178 2.23292E+01-1.42853E-02-2.05628E-02-1.69605E-02-5.27779E-14-2.43815E-13
 -1      1179 2.16750E+01-1.37850E-02-1.88961E-02-1.20275E-02 4.45807E-14-1.57530E-13
 -1      1180 2.11522E+01-1.23411E-02-1.62146E-02-8.39458E-03-4.00821E-14 2.69625E-13
 -1      1181 2.07434E+01-1.07318E-02-1.36617E-02-5.82430E-03-2.95176E-14-9.42996E-15
 -1      1182 2.04310E+01-9.39286E-03-1.18812E-02-3.94782E-03 1.03096E-13 2.10919E-13
 -1      1183 2.02024E+01-8.52858E-03-1.11793E-02-2.26774E-03 2.67099E-14 1.93054E-13
 -1      1184 2.00519E+01-7.94233E-03-1.10169E-02-7.50482E-06 2.45226E-14 3.51897E-13
 -1      1185 1.99837E+01-7.97594E-03-7.66710E-03 4.26356E-03 3.09995E-15 2.06810E-13
 -1      1186 1.99887E+01 3.97856E-03 8.78661E-03 3.89212E-03 7.16408E-14 2.12288E-13
 -1      1187 2.77677E+01 5.25412E-01 3.77007E-01 1.96581E+00-1.21222E-14 1.06976E-12
 -1      1188 2.00606E+01-6.62115E-02-5.73424E-01 1.29573E-01 2.45984E-15 8.70803E-13
 -1      1189 1.88817E+01-4.06233E-02-1.93199E-01 1.95328E-02 7.57033E-15 6.36928E-13
 -1      1190 1.85005E+01-2.14857E-02-5.05928E-02 1.61996E-03-1.95677E-15 4.91489E-13
 -1      1191 1.84282E+01-1.25400E-02-1.35091E-02-3.85038E-03 3.76370E-15 4.29622E-13
 -1      1192 1.85037E+01-7.63000E-03-4.86625E-03-5.21698E-03-3.30421E-15 3.35565E-13
 -1      1193 1.86495E+01-4.68942E-03-2.29324E-03-5.29111E-03-1.08332E-14 2.73290E-13
 -1      1194 1.88256E+01-2.90336E-03-9.32851E-04-4.87133E-03-6.93938E-15 2.85131E-13
 -1      1195 1.90105E+01-1.87825E-03-1.24253E-04-4.21032E-03-9.30254E-15 3.03537E-13
 -1      1196 1.91935E+01-1.39516E-03 1.71981E-04-3.42385E-03 1.58511E-14 2.63329E-13
 -1      1197 1.93708E+01-1.31935E-03-2.75995E-06-2.58516E-03 1.57114E-14 1.19337E-13
 -1      1198 1.95432E+01-1.56147E-03-5.81681E-04-1.74999E-03 1.78224E-15 7.26225E-14
 -1      1199 1.97152E+01-2.05519E-03-1.49983E-03-9.68061E-04 2.05463E-15 1.14763E-13
 -1      1200 1.98937E+01-2.74017E-03-2.69658E-03-2.92882E-04-1.06180E-14 1.53389E-13
 -1      1201 2.00877E+01-3.54471E-03-4.10076E-03 2.08319E-04 1.18057E-14 6.08988E-14
 -1      1202 2.03072E+01-4.36521E-03-5.60434E-03 4.44210E-04-1.82480E-14-5.82130E-15
 -1      1203 2.05626E+01-5.04010E-03-7.02410E-03 2.89585E-04-6.91331E-15-1.70350E-14
 -1      1204 2.08633E+01-5.31886E-03-8.04917E-03-4.20288E-04 2.26463E-15-8.21773E-14
 -1      1205 2.12150E+01-4.83103E-03-8.17579E-03-1.88309E-03 1.81036E-14-2.52387E-13
 -1      1206 2.16171E+01-3.07256E-03-6.64470E-03-4.29429E-03-1.53786E-14-1.08531E-13
 -1      1207 2.20570E+01 5.52284E-04-2.42865E-03-7.75577E-03 3.58398E-15 2.87756E-14
 -1      1208 2.25039E+01 6.56465E-03 5.62398E-03-1.20920E-02 2.59086E-15 2.03657E-14
 -1      1209 2.29020E+01 1.50325E-02 1.83142E-02-1.65537E-02 7.13058E-15-7.60104E-14
 -1      1210 2.31651E+01 2.49393E-02 3.51074E-02-1.94696E-02 3.84148E-14-3.19069E-13
 -1      1211 2.31813E+01 3.34899E-02 5.27033E-02-1.81038E-02-3.41224E-14-7.83974E-14
 -1      1212 2.28343E+01 3.59894E-02 6.39444E-02-9.25520E-03-1.05653E-14 4.24692E-13
 -1      1213 2.20517E+01 2.73992E-02 5.88770E-02 8.82322E-03-3.67627E-14 5.83658E-13
 -1      1214 2.08738E+01 6.07451E-03 2.99111E-02 3.34737E-02 3.02427E-15 1.07428E-13
 -1      1215 1.95106E+01-2.23850E-02-2.00649E-02 5.58766E-02-5.56825E-15 9.40914E-15
 -1      1216 1.83255E+01-4.55454E-02-7.31607E-02 6.38868E-02 2.54757E-14-2.03657E-13
 -1      1217 1.77090E+01-5.18957E-02-1.03973E-01 4.99232E-02-4.28537E-14-4.86064E-13
 -1      1218 1.78855E+01-3.94323E-02-9.66032E-02 1.79501E-02 4.08788E-15-2.79970E-13
 -1      1219 1.87879E+01-1.65664E-02-5.65927E-02-1.82206E-02-1.99493E-17 6.34215E-14
 -1      1220 2.00959E+01 4.84891E-03-6.35477E-03-4.37788E-02-6.41484E-15 1.56042E-13
 -1      1221 2.14090E+01 1.79152E-02 3.22081E-02-5.20230E-02 5.37721E-15-2.82135E-14
 -1      1222 2.24236E+01 2.19100E-02 4.97623E-02-4.56569E-02-2.70300E-14-2.69909E-13
 -1      1223 2.30081E+01 1.96681E-02 4.89830E-02-3.18721E-02 9.19980E-14-7.29247E-13
 -1      1224 2.31795E+01 1.46076E-02 3.79525E-02-1.72214E-02-6.65939E-15-7.42941E-13
 -1      1225 2.30358E+01 9.16712E-03 2.42116E-02-5.44358E-03 3.84616E-14-5.38260E-13
 -1      1226 2.26952E+01 4.59978E-03 1.22190E-02 2.36690E-03-3.04297E-14-4.92599E-13
 -1      1227 2.22598E+01 1.28536E-03 3.59195E-03 6.65311E-03 1.89786E-14-6.81169E-13
 -1      1228 2.18030E+01-8.65967E-04-1.75706E-03 8.41236E-03-1.05850E-14-5.91922E-13
 -1      1229 2.13702E+01-2.13534E-03-4.61482E-03 8.63174E-03-2.21498E-14-7.48514E-13
 -1      1230 2.09856E+01-2.84865E-03-5.89683E-03 8.07513E-03-1.67036E-14-9.35068E-13
 -1      1231 2.06594E+01-3.31062E-03-6.42854E-03 7.24961E-03-2.57086E-15-8.95848E-13
 -1      1232 2.03942E+01-3.76868E-03-6.90499E-03 6.42581E-03 5.33539E-14-9.67508E-13
 -1      1233 2.01910E+01-4.39978E-03-7.82626E-03 5.62981E-03 4.42321E-14-1.35572E-12
 -1      1234 2.00526E+01-4.94935E-03-8.80199E-03 4.35876E-03-5.69577E-14-8.20764E-13
 -1      1235 1.99869E+01-3.34131E-03-6.05514E-03 1.02766E-03 4.73965E-14-2.75801E-13
 -1      1236 1.99911E+01 3.10394E-03 7.96420E-03-3.16754E-03-2.39069E-14-1.70371E-13
 -1      1237 2.00027E+01-9.28377E-03 7.36366E-03-3.14725E-03-2.56191E-13-7.64294E-14
 -1      1238 1.99947E+01-1.11261E-02-6.84624E-03-3.09792E-03 9.44208E-14-5.54678E-15
 -1      1239 1.99946E+01 5.66514E-02-8.34578E-03 1.87441E-03 2.70725E-13 4.74577E-15
 -1      1240 1.99969E+01 1.84800E-01-4.94226E-03 4.38215E-03 8.95085E-13 5.13099E-14
 -1      1241 1.99997E+01 3.44896E-01-6.32649E-04 5.26476E-03 4.82421E-13-9.58216E-14
 -1      1242 2.00024E+01 5.06858E-01 3.27881E-03 4.98809E-03-4.32161E-13-2.45475E-14
 -1      1243 2.00047E+01 6.46533E-01 6.39901E-03 3.96699E-03-7.22576E-13 2.89580E-14
 -1      1244 2.00063E+01 7.44107E-01 8.59575E-03 2.27285E-03-6.22824E-13-1.57690E-14
 -1      1245 2.00070E+01 7.83418E-01 9.59894E-03 2.10140E-04-6.47524E-13 7.14777E-14
 -1      1246 2.00068E+01 7.57703E-01 9.24694E-03-1.95544E-03 3.98367E-13-5.89811E-14
 -1      1247 2.00054E+01 6.69323E-01 7.44924E-03-3.91023E-03-4.20448E-13-2.86508E-13
 -1      1248 2.00033E+01 5.31608E-01 4.32694E-03-5.31995E-03-2.05296E-12-4.65687E-14
 -1      1249 2.00003E+01 3.64543E-01 1.47643E-05-5.76303E-03-1.74669E-12-1.84419E-16
 -1      1250 1.99969E+01 1.94697E-01-5.06527E-03-4.96248E-03-8.06144E-13-1.05115E-13
 -1      1251 1.99944E+01 5.52505E-02-9.58050E-03-2.53882E-03-4.18275E-13-2.93842E-14
 -1      1252 1.99930E+01-1.04334E-02-6.45388E-03 6.31577E-03-5.75955E-13-6.92176E-14
 -1      1253 2.00035E+01-1.17223E-02 8.21855E-03 4.09533E-03-1.23710E-13 5.46292E-14
 -1      1254-1.14951E+00-2.34742E+01-3.67309E+00-2.25346E+00-1.58157E-12-1.68032E-13
 -1      1255-1.68619E+00-1.36304E+01-2.91022E+00-3.65108E+00-2.99760E-14 2.22100E-13
 -1      1256 8.65281E-01-8.83403E-01-1.66159E+00 7.20636E-01 9.43023E-13 5.85532E-13
 -1      1257 1.03928E+01 8.49889E+00-2.56668E-02 9.15279E+00 1.04627E-12 1.05427E-12
 -1      1258 2.77497E+01 1.10538E+01 1.62248E+00 1.64183E+01 7.37854E-13 8.75744E-13
 -1      1259 4.86987E+01 7.39884E+00 3.14130E+00 1.70473E+01 3.44280E-13 8.36886E-13
 -1      1260 6.31423E+01 2.98548E+00 3.95119E+00 8.21462E+00 8.15667E-14 8.75078E-13
 -1      1261 6.57992E+01 1.83575E+00 4.12405E+00-4.75418E+00 1.69309E-14 7.88702E-13
 -1      1262 5.44590E+01 5.76755E+00 3.44692E+00-1.51212E+01 2.13912E-13-3.70814E-13
 -1      1263 3.57277E+01 1.02594E+01 2.23733E+00-1.76444E+01 7.98250E-13-1.36180E-12
 -1      1264 1.74152E+01 1.06244E+01 7.29824E-01-1.31132E+01 1.15774E-12-1.36557E-12
 -1      1265 4.40174E+00 4.07690E+00-9.71759E-01-4.50643E+00 9.17044E-13-7.44960E-13
 -1      1266-1.13964E+00-7.93152E+00-2.39240E+00 2.40422E+00 2.44693E-13-1.94622E-13
 -1      1267-1.50674E+00-1.95998E+01-3.36037E+00 3.73420E+00-5.12923E-14 6.54754E-14
 -1      1268-8.61872E-01-2.51681E+01-3.78784E+00 2.72136E-01 4.37844E-14-6.31509E-14
 -1      1269-1.54740E+00-2.12991E+01-3.54640E+00-3.66022E+00-5.87641E-13-2.22711E-13
 -1      1270-1.62666E+00-1.02720E+01-2.72126E+00-3.39742E+00-1.55942E-12-8.37108E-13
 -1      1271 2.89789E+00 2.08168E+00-1.30915E+00 2.76079E+00-2.47291E-12-1.82188E-12
 -1      1272 1.64177E+01 9.67841E+00 4.43523E-01 1.21221E+01-2.08633E-12-2.47180E-12
 -1      1273 3.71548E+01 1.00702E+01 2.40683E+00 1.79653E+01-1.54043E-12-2.85638E-12
 -1      1274 5.68407E+01 5.58762E+00 3.70101E+00 1.43954E+01-7.39159E-13-2.36500E-12
 -1      1275 6.84516E+01 1.66365E+00 4.46214E+00 2.90007E+00-1.22055E-13-2.04498E-12
 -1      1276 6.35280E+01 3.32714E+00 4.10603E+00-1.03888E+01-7.53564E-15-6.48592E-13
 -1      1277 4.73228E+01 7.97652E+00 3.04320E+00-1.77299E+01-4.73066E-13 9.50129E-13
 -1      1278 2.66421E+01 1.08498E+01 1.42434E+00-1.62413E+01-1.00631E-12 1.32983E-12
 -1      1279 8.78279E+00 6.96055E+00-4.58064E-01-7.80357E+00-1.58185E-12 1.41842E-12
 -1      1280-2.63153E-01-4.03696E+00-2.10247E+00 9.56515E-01-1.73106E-12 1.06382E-12
 -1      1281-1.89516E+00-1.64577E+01-3.21357E+00 4.34928E+00-1.53166E-12 4.59799E-13
 -1      1282-1.13679E+00-2.43031E+01-3.76598E+00 2.17100E+00-1.66139E-12 8.15875E-14
 -1      1283 2.22463E+01 1.83714E+00-7.25513E-01-2.79060E+00-1.87905E-14 5.75318E-13
 -1      1284 2.03475E+01 4.68806E+00-4.86891E-02-3.30798E+00-6.54060E-14 1.01676E-13
 -1      1285 2.08515E+01 4.80767E+00-1.13505E-01-4.16148E+00-8.06577E-14 2.14197E-13
 -1      1286 1.95261E+01 4.99284E+00-1.96397E-02-2.65612E+00-7.06935E-14-5.91437E-14
 -1      1287 1.98210E+01 5.08827E+00-2.12156E-05-3.04674E+00-8.15389E-14 1.29827E-14
 -1      1288 2.05155E+01 3.95140E+00-2.60096E-02-3.07527E+00-1.20813E-13 9.68808E-14
 -1      1289 1.91860E+01 5.08430E+00-3.31214E-03-2.07234E+00-5.64375E-14-1.47601E-13
 -1      1290 1.93313E+01 5.13863E+00 1.05351E-02-2.36573E+00-6.53540E-14-1.06581E-13
 -1      1291 1.97513E+01 4.36651E+00-2.38335E-02-2.49146E+00-1.10247E-13-4.06064E-14
 -1      1292 1.90149E+01 5.13235E+00 3.54228E-03-1.56575E+00-5.05733E-14-1.95715E-13
 -1      1293 1.90907E+01 5.16138E+00 1.28617E-02-1.81589E+00-5.47288E-14-1.74919E-13
 -1      1294 1.93952E+01 4.55555E+00-1.94432E-02-1.93225E+00-9.00573E-14-1.20473E-13
 -1      1295 1.89247E+01 5.16303E+00 6.62551E-03-1.11784E+00-3.82450E-14-2.08040E-13
 -1      1296 1.89655E+01 5.17892E+00 1.28351E-02-1.33946E+00-4.54255E-14-2.00361E-13
 -1      1297 1.92124E+01 4.66305E+00-1.59876E-02-1.44530E+00-7.85374E-14-1.50099E-13
 -1      1298 1.88757E+01 5.18359E+00 8.24331E-03-6.94239E-01-2.40771E-14-2.12655E-13
 -1      1299 1.88976E+01 5.19213E+00 1.20671E-02-9.04607E-01-2.63461E-14-2.09992E-13
 -1      1300 1.91129E+01 4.72942E+00-1.39335E-02-1.00456E+00-5.34208E-14-1.64257E-13
 -1      1301 1.88531E+01 5.19597E+00 9.33661E-03-2.89292E-01-2.87051E-15-2.14613E-13
 -1      1302 1.88624E+01 5.19965E+00 1.11271E-02-4.91521E-01-9.75739E-15-2.12570E-13
 -1      1303 1.90593E+01 4.76915E+00-1.28542E-02-5.88868E-01-2.96734E-14-1.57006E-13
 -1      1304 1.88496E+01 5.20103E+00 1.02721E-02 1.08311E-01 7.95826E-15-2.13959E-13
 -1      1305 1.88493E+01 5.20090E+00 1.02025E-02-9.14516E-02 3.07176E-15-2.15180E-13
 -1      1306 1.90361E+01 4.78758E+00-1.24013E-02-1.89079E-01 2.78171E-15-1.66592E-13
 -1      1307 1.88641E+01 5.19929E+00 1.12175E-02 5.08952E-01 2.20336E-14-2.11935E-13
 -1      1308 1.88540E+01 5.19534E+00 9.27382E-03 3.06312E-01 1.54665E-14-2.12982E-13
 -1      1309 1.90369E+01 4.78696E+00-1.24185E-02 2.05843E-01 1.92147E-14-1.69455E-13
 -1      1310 1.89008E+01 5.19098E+00 1.21577E-02 9.23490E-01 3.07740E-14-2.02355E-13
 -1      1311 1.88781E+01 5.18227E+00 8.18349E-03 7.12176E-01 2.70782E-14-2.08993E-13
 -1      1312 1.90618E+01 4.76711E+00-1.29077E-02 6.06300E-01 4.01507E-14-1.66728E-13
 -1      1313 1.89697E+01 5.17705E+00 1.29632E-02 1.35704E+00 4.37220E-14-1.81473E-13
 -1      1314 1.89281E+01 5.16079E+00 6.50441E-03 1.13399E+00 4.10141E-14-1.93869E-13
 -1      1315 1.91171E+01 4.72591E+00-1.39350E-02 1.01976E+00 5.86504E-14-1.55802E-13
 -1      1316 1.90982E+01 5.15739E+00 1.28787E-02 1.84204E+00 6.40564E-14-1.44579E-13
 -1      1317 1.90210E+01 5.12770E+00 3.20899E-03 1.58909E+00 5.45926E-14-1.64306E-13
 -1      1318 1.92193E+01 4.65651E+00-1.60879E-02 1.46311E+00 8.22589E-14-1.29171E-13
 -1      1319 1.93416E+01 5.13278E+00 1.01903E-02 2.39934E+00 7.60364E-14-7.88779E-14
 -1      1320 1.91943E+01 5.07649E+00-4.30408E-03 2.10202E+00 6.81954E-14-1.19297E-13
 -1      1321 1.94074E+01 4.54292E+00-1.99378E-02 1.95904E+00 1.09025E-13-8.83356E-14
 -1      1322 1.98468E+01 5.09738E+00 6.00376E-03 3.08526E+00 8.86791E-14 5.32768E-14
 -1      1323 1.95381E+01 4.98334E+00-2.04697E-02 2.69810E+00 7.92560E-14-2.57606E-14
 -1      1324 1.97709E+01 4.34581E+00-2.45354E-02 2.52903E+00 1.26021E-13-8.09769E-15
 -1      1325 2.10876E+01 4.90408E+00 8.18301E-03 4.05428E+00 7.95475E-14 2.90004E-13
 -1      1326 2.03221E+01 4.73179E+00-4.79241E-02 3.41741E+00 7.81875E-14 1.47105E-13
 -1      1327 2.05538E+01 3.91459E+00-2.24275E-02 3.17919E+00 1.32571E-13 1.36835E-13
 -1      1328 2.71791E+01 3.20322E+00 9.28326E-01 4.58093E+00 3.40700E-14 7.27252E-13
 -1      1329 2.20015E+01 3.52029E+00-1.81894E-01 3.88500E+00 3.91354E-14 4.21024E-13
 -1      1330 2.20946E+01 2.56071E+00-3.26569E-02 3.45701E+00 1.32977E-13 3.43642E-13
 -1      1331 2.14047E+01 3.59649E-01-7.63215E-01 1.18456E+00 6.34354E-14 7.04992E-13
 -1      1332 2.19790E+01 1.31396E-01-4.00739E-01-1.28634E+00-5.92165E-14 5.86003E-13
 -1      1333 2.06556E+01 3.06726E-01-1.64775E-01-8.06420E-01-5.80647E-14 5.20771E-13
 -1      1334 2.00577E+01 1.53528E-01-7.34981E-02-4.02737E-01-3.39034E-14 4.87422E-13
 -1      1335 1.95871E+01 9.12752E-02-1.48865E-02-3.30529E-01-3.61169E-14 4.29733E-13
 -1      1336 2.09529E+01 3.69328E-01-1.04157E-01-1.27504E+00-9.59025E-14 3.22589E-13
 -1      1337 1.92297E+01 6.45602E-02 3.08611E-03-1.35765E-01-3.56685E-14 4.00520E-13
 -1      1338 1.90747E+01 4.13664E-02 1.32783E-02-1.17938E-01-3.40786E-14 3.58626E-13
 -1      1339 1.99020E+01 1.33969E-01-3.51363E-02-5.04823E-01-6.96214E-14 2.72060E-13
 -1      1340 1.89146E+01 3.16486E-02 1.33035E-02-2.81554E-02-2.22665E-14 3.26981E-13
 -1      1341 1.88949E+01 1.95926E-02 1.11200E-02-1.87081E-02-2.47289E-14 2.81259E-13
 -1      1342 1.94250E+01 5.55958E-02-8.54217E-03-1.70381E-01-6.38517E-14 2.15742E-13
 -1      1343 1.88398E+01 1.62568E-02 8.84336E-03 2.54687E-02-1.34942E-14 2.82383E-13
 -1      1344 1.88826E+01 9.43454E-03 6.50812E-03 3.02366E-02-3.81585E-14 2.43888E-13
 -1      1345 1.92173E+01 2.47035E-02-3.59012E-03-1.05807E-02-4.38304E-14 1.86070E-13
 -1      1346 1.88846E+01 8.27548E-03 4.75541E-03 5.23065E-02-3.48584E-14 2.28364E-13
 -1      1347 1.89567E+01 4.07290E-03 3.74514E-03 5.44302E-02-1.69261E-14 2.25715E-13
 -1      1348 1.91634E+01 1.07587E-02-2.35218E-03 6.98501E-02-5.94446E-14 2.00921E-13
 -1      1349 1.89898E+01 3.85205E-03 2.55070E-03 6.46520E-02 8.94998E-15 2.34875E-13
 -1      1350 1.90741E+01 1.19049E-03 2.35146E-03 6.52856E-02 9.45598E-15 2.15257E-13
 -1      1351 1.91952E+01 3.69035E-03-1.52572E-03 1.09505E-01-9.01536E-15 1.88307E-13
 -1      1352 1.91238E+01 1.44551E-03 1.46668E-03 6.91108E-02-1.28527E-15 2.04501E-13
 -1      1353 1.92114E+01-2.11903E-04 1.62473E-03 6.89770E-02-2.95760E-14 1.86556E-13
 -1      1354 1.92739E+01 1.02319E-04-8.55806E-04 1.27088E-01-1.66184E-14 1.78727E-13
 -1      1355 1.92696E+01 3.17952E-04 9.10030E-04 6.96970E-02-4.95455E-14 1.85948E-13
 -1      1356 1.93566E+01-6.34736E-04 1.21123E-03 6.92912E-02-6.55980E-14 1.19407E-13
 -1      1357 1.93777E+01-1.42727E-03-4.23325E-04 1.33092E-01-6.28480E-14 1.14396E-13
 -1      1358 1.94193E+01 7.73023E-05 6.03072E-04 6.91032E-02-2.93746E-14 1.22622E-13
 -1      1359 1.95047E+01-3.54277E-04 9.66515E-04 6.87893E-02-5.02825E-15 9.62108E-14
 -1      1360 1.94948E+01-1.58351E-03-2.36721E-04 1.34137E-01-7.14916E-14 1.48246E-13
 -1      1361 1.95708E+01 5.02860E-04 4.27217E-04 6.92888E-02 2.06302E-14 6.68888E-14
 -1      1362 1.96559E+01 4.70834E-04 8.29708E-04 6.93526E-02 4.76428E-15 7.82065E-14
 -1      1363 1.96200E+01-7.29454E-04-2.60526E-04 1.34811E-01 5.34010E-15 1.04527E-13
 -1      1364 1.97261E+01 1.47129E-03 3.25252E-04 7.17953E-02-2.60590E-14 8.85923E-14
 -1      1365 1.98142E+01 1.75259E-03 7.68828E-04 7.24792E-02-5.15718E-14 3.96744E-14
 -1      1366 1.97529E+01 9.39937E-04-4.56921E-04 1.38565E-01-2.25528E-14 1.38536E-14
 -1      1367 1.98910E+01 2.92042E-03 2.61188E-04 7.79372E-02-4.16749E-14 5.96914E-14
 -1      1368 1.99867E+01 3.44757E-03 7.60741E-04 7.94644E-02-1.15250E-14 2.60757E-14
 -1      1369 1.98964E+01 3.33186E-03-7.99028E-04 1.48211E-01-5.21798E-14-5.02267E-14
 -1      1370 2.00737E+01 4.82675E-03 2.04690E-04 8.89227E-02 2.80561E-14 2.45240E-14
 -1      1371 2.01834E+01 5.53662E-03 7.82420E-04 9.15134E-02 6.56506E-15 7.31086E-14
 -1      1372 2.00564E+01 6.41881E-03-1.27101E-03 1.66231E-01-6.53394E-15 4.44046E-15
 -1      1373 2.02855E+01 7.18474E-03 1.23346E-04 1.05915E-01-5.59893E-15 9.05536E-14
 -1      1374 2.04167E+01 8.00104E-03 8.04649E-04 1.09794E-01-1.35579E-14 1.18871E-13
 -1      1375 2.02413E+01 1.02071E-02-1.86418E-03 1.94940E-01 2.58761E-14 7.10156E-14
 -1      1376 2.05399E+01 9.97831E-03-2.29017E-05 1.30027E-01-6.58748E-14 7.42492E-14
 -1      1377 2.07016E+01 1.07852E-02 7.85620E-04 1.35413E-01-2.18397E-14 1.09240E-14
 -1      1378 2.04614E+01 1.46939E-02-2.57137E-03 2.36537E-01-6.68979E-14 8.16033E-14
 -1      1379 2.08524E+01 1.31317E-02-2.85667E-04 1.62192E-01 4.41773E-14-5.57076E-14
 -1      1380 2.10549E+01 1.37312E-02 6.65272E-04 1.69267E-01-2.58532E-14-3.35339E-14
 -1      1381 2.07289E+01 1.97919E-02-3.37812E-03 2.92944E-01-4.86293E-14-5.04622E-14
 -1      1382 2.12402E+01 1.64202E-02-7.26725E-04 2.02844E-01-6.11221E-14-2.36148E-14
 -1      1383 2.14940E+01 1.64634E-02 3.65682E-04 2.11667E-01-4.46422E-14-8.52617E-14
 -1      1384 2.10570E+01 2.51887E-02-4.24721E-03 3.65346E-01-4.05661E-14-1.50804E-13
 -1      1385 2.17203E+01 1.93111E-02-1.40101E-03 2.51232E-01-5.46286E-15-7.81137E-14
 -1      1386 2.20345E+01 1.81949E-02-1.88806E-04 2.61558E-01-1.09084E-14-1.05892E-13
 -1      1387 2.14587E+01 3.00917E-02-5.08969E-03 4.53148E-01-2.56496E-14-1.29141E-13
 -1      1388 2.23057E+01 2.07013E-02-2.30263E-03 3.04150E-01 2.66577E-14-7.86957E-14
 -1      1389 2.26849E+01 1.74375E-02-1.00584E-03 3.15094E-01-1.54284E-14-8.70536E-14
 -1      1390 2.19444E+01 3.27960E-02-5.71163E-03 5.52015E-01 1.53991E-14-1.76690E-13
 -1      1391 2.29996E+01 1.85403E-02-3.24147E-03 3.53799E-01 1.78564E-14 8.09647E-14
 -1      1392 2.34370E+01 1.16574E-02-1.88105E-03 3.63261E-01 1.01580E-13 1.64068E-13
 -1      1393 2.25176E+01 3.00481E-02-5.72420E-03 6.50503E-01 9.93719E-14-7.35822E-14
 -1      1394 2.37840E+01 9.44621E-03-3.62933E-03 3.84717E-01 1.18212E-13 2.05905E-13
 -1      1395 2.42508E+01-2.87245E-03-2.17942E-03 3.88550E-01 6.50299E-14 3.44749E-13
 -1      1396 2.31675E+01 1.63601E-02-4.41886E-03 7.25000E-01 1.61005E-13 1.14327E-13
 -1      1397 2.46025E+01-1.12362E-02-2.25465E-03 3.70526E-01 5.12047E-14 3.65988E-13
 -1      1398 2.50341E+01-3.02996E-02-6.73716E-04 3.61719E-01 3.78170E-14 4.18030E-13
 -1      1399 2.38592E+01-1.60042E-02-6.72736E-04 7.33803E-01 9.08299E-14 1.92179E-13
 -1      1400 2.53398E+01-4.77539E-02 2.63713E-03 2.73631E-01 4.27297E-14 4.99278E-13
 -1      1401 2.56232E+01-7.20510E-02 4.10739E-03 2.42583E-01 3.69487E-14 5.63785E-13
 -1      1402 2.45201E+01-7.44967E-02 6.88993E-03 6.14299E-01 7.94295E-14 4.10611E-13
 -1      1403 2.58062E+01-9.87101E-02 1.21703E-02 5.51409E-02 4.37046E-14 5.61198E-13
 -1      1404 2.57851E+01-1.19784E-01 1.22591E-02-6.51202E-03 4.39319E-14 6.63228E-13
 -1      1405 2.50292E+01-1.58029E-01 1.89747E-02 2.93590E-01 9.21208E-14 4.95221E-13
 -1      1406 2.57524E+01-1.47125E-01 2.38192E-02-2.94097E-01 6.37875E-14 6.98171E-13
 -1      1407 2.52776E+01-1.46256E-01 1.96014E-02-3.82788E-01 2.55872E-14 7.05234E-13
 -1      1408 2.52206E+01-2.40932E-01 3.32838E-02-2.70070E-01 6.91773E-14 5.10839E-13
 -1      1409 2.49575E+01-1.52672E-01 2.84940E-02-6.99500E-01-5.56118E-14 6.49064E-13
 -1      1410 2.40011E+01-1.07332E-01 1.68131E-02-7.84299E-01-1.05345E-13 5.82798E-13
 -1      1411 2.49231E+01-2.60106E-01 4.10557E-02-1.00324E+00-4.48443E-14 4.46206E-13
 -1      1412 2.34176E+01-6.81463E-02 1.46079E-02-9.66037E-01 5.45093E-15 5.96648E-13
 -1      1413 2.22057E+01 2.30050E-02-4.77137E-03-9.87010E-01 9.87535E-15 5.44648E-13
 -1      1414 2.40688E+01-1.39373E-01 2.76972E-02-1.62999E+00-4.98039E-14 4.13131E-13
 -1      1415 2.15546E+01 9.99912E-02-1.97213E-02-8.52889E-01-2.98060E-14 6.10262E-13
 -1      1416 2.05740E+01 1.92429E-01-3.82092E-02-7.64027E-01-5.70134E-14 6.07570E-13
 -1      1417 2.28541E+01 1.26127E-01-1.47127E-02-1.71804E+00-2.79377E-15 4.64778E-13
 -1      1418 2.01862E+01 2.49578E-01-5.14035E-02-2.95632E-01-1.22326E-13 6.44082E-13
 -1      1419 1.99318E+01 2.75991E-01-5.67247E-02-1.28055E-01-7.20465E-14 5.07852E-13
 -1      1420 2.18069E+01 3.90826E-01-6.80390E-02-9.91333E-01-6.24292E-14 4.87790E-13
 -1      1421 2.00455E+01 2.58953E-01-5.25327E-02 4.37327E-01-5.07580E-15 4.62533E-13
 -1      1422 2.06588E+01 1.96954E-01-4.05125E-02 5.81454E-01-8.53484E-14 4.44297E-13
 -1      1423 2.15274E+01 4.66283E-01-8.40103E-02 2.89479E-01-1.75863E-13 3.94088E-13
 -1      1424 2.12022E+01 1.21305E-01-2.42963E-02 9.20425E-01-1.79375E-13 2.95666E-13
 -1      1425 2.23518E+01 2.07279E-02-3.84029E-03 9.59486E-01-1.78376E-13 8.10324E-14
 -1      1426 2.21954E+01 2.90858E-01-4.64450E-02 1.40396E+00-2.33646E-13 1.02598E-13
 -1      1427 2.30081E+01-4.43591E-02 6.35275E-03 9.39263E-01-1.77764E-13-2.04559E-14
 -1      1428 2.41545E+01-1.18067E-01 2.29297E-02 8.82183E-01-1.50064E-13-3.86621E-13
 -1      1429 2.33936E+01-2.59068E-03 5.90522E-03 1.77074E+00-2.76935E-13-9.58018E-14
 -1      1430 2.46344E+01-1.35258E-01 1.96245E-02 6.16635E-01 2.61006E-14-3.27641E-13
 -1      1431 2.53894E+01-1.58953E-01 2.79033E-02 5.24101E-01 5.97751E-14-3.22638E-13
 -1      1432 2.44952E+01-2.12975E-01 3.64777E-02 1.39355E+00-1.03612E-13-2.37990E-13
 -1      1433 2.55779E+01-1.40053E-01 1.69258E-02 2.04968E-01-2.57259E-14-3.31818E-13
 -1      1434 2.58389E+01-1.28470E-01 1.89046E-02 1.26176E-01 5.85122E-15-3.17376E-13
 -1      1435 2.51086E+01-2.64986E-01 3.92706E-02 6.72047E-01 2.83645E-14-2.11588E-13
 -1      1436 2.57644E+01-9.96231E-02 8.45829E-03-1.21485E-01-1.41293E-15-3.34436E-13
 -1      1437 2.56295E+01-7.54688E-02 7.50206E-03-1.69286E-01-2.79481E-14-2.31426E-13
 -1      1438 2.51719E+01-2.08239E-01 2.72178E-02-8.38783E-03-9.70925E-15-3.72022E-13
 -1      1439 2.53800E+01-5.24554E-02 1.59079E-03-3.11113E-01 7.85318E-14-3.31540E-13
 -1      1440 2.50117E+01-2.98859E-02-1.14101E-05-3.31298E-01 4.95515E-14-2.26361E-13
 -1      1441 2.48159E+01-1.19672E-01 1.32571E-02-4.66790E-01-6.11074E-14-3.03006E-13
 -1      1442 2.46756E+01-1.66926E-02-1.60949E-03-3.85082E-01 3.42901E-14-1.65503E-13
 -1      1443 2.42141E+01-5.71895E-04-3.15051E-03-3.87395E-01 8.34120E-15-1.82566E-13
 -1      1444 2.42180E+01-4.57842E-02 3.08139E-03-6.92144E-01 4.46466E-14-4.37733E-13
 -1      1445 2.38572E+01 4.70722E-03-2.13282E-03-3.85067E-01-3.26064E-14-1.12018E-13
 -1      1446 2.33937E+01 1.45147E-02-3.54703E-03-3.78152E-01-7.59653E-14-2.53603E-13
 -1      1447 2.35269E+01 7.30876E-04-2.67714E-03-7.47450E-01 2.83493E-14-3.58187E-13
 -1      1448 2.30560E+01 1.49864E-02-1.44639E-03-3.47030E-01-3.30157E-14-2.12162E-13
 -1      1449 2.26379E+01 2.02040E-02-2.78528E-03-3.36557E-01-7.93582E-14-3.09459E-13
 -1      1450 2.28421E+01 2.40279E-02-5.21989E-03-7.03782E-01-7.12720E-14-2.23548E-13
 -1      1451 2.23394E+01 1.83417E-02-5.22837E-04-2.94653E-01-1.01710E-13-1.82009E-13
 -1      1452 2.19848E+01 2.07003E-02-1.78576E-03-2.83724E-01-7.88911E-14-2.41997E-13
 -1      1453 2.22185E+01 3.23295E-02-5.87779E-03-6.14545E-01-1.19442E-13-2.58662E-13
 -1      1454 2.17323E+01 1.80342E-02 2.17500E-04-2.41032E-01 1.18834E-13-1.56792E-13
 -1      1455 2.14428E+01 1.88135E-02-9.33643E-04-2.31070E-01 2.24648E-13-1.38570E-14
 -1      1456 2.16800E+01 3.25528E-02-5.59879E-03-5.12442E-01 1.27089E-13-5.02714E-14
 -1      1457 2.12357E+01 1.61617E-02 6.77980E-04-1.92175E-01-2.77165E-15 2.17341E-13
 -1      1458 2.10057E+01 1.61968E-02-3.29607E-04-1.83638E-01-3.89994E-14 1.48694E-13
 -1      1459 2.12314E+01 2.92396E-02-4.94754E-03-4.14405E-01 2.25188E-13 1.27128E-13
 -1      1460 2.08400E+01 1.39548E-02 8.81849E-04-1.49884E-01-3.22518E-14 1.62151E-13
 -1      1461 2.06614E+01 1.37602E-02 1.94472E-05-1.42706E-01 3.73594E-15 1.16685E-13
 -1      1462 2.08676E+01 2.50290E-02-4.23524E-03-3.27272E-01-2.89265E-15 1.79378E-13
 -1      1463 2.05323E+01 1.21188E-02 8.45758E-04-1.13602E-01 7.89598E-14 1.16085E-13
 -1      1464 2.03981E+01 1.20022E-02 9.93104E-05-1.07427E-01 1.04547E-13 2.08790E-13
 -1      1465 2.05797E+01 2.13875E-02-3.63631E-03-2.51969E-01 1.27172E-13 2.96582E-13
 -1      1466 2.03011E+01 1.10700E-02 5.27381E-04-8.14582E-02 7.64699E-14 1.34153E-13
 -1      1467 2.02065E+01 1.11484E-02-1.05295E-04-7.57354E-02-2.15169E-14 1.43363E-13
 -1      1468 2.03585E+01 1.91791E-02-3.24734E-03-1.86113E-01 3.99073E-14 1.08390E-13
 -1      1469 2.01382E+01 1.08960E-02-7.62294E-05-5.11143E-02 1.92726E-14 1.46022E-13
 -1      1470 2.00818E+01 1.09477E-02-2.93855E-04-4.51746E-02 6.73816E-14 2.57499E-13
 -1      1471 2.01963E+01 1.88040E-02-3.00467E-03-1.25676E-01 2.21518E-14 1.20001E-13
 -1      1472 2.00381E+01 1.22016E-02-1.74111E-04-2.07984E-02 3.19699E-14 1.89614E-13
 -1      1473 2.00191E+01 9.55978E-03 1.03810E-03-1.44307E-02-1.79379E-14 2.99232E-13
 -1      1474 2.00861E+01 1.97677E-02-2.59736E-03-6.77293E-02 1.07850E-14 3.14261E-13
 -1      1475 1.99958E+01-1.42493E-04 2.85256E-03 4.95807E-03-2.25541E-13 2.27403E-13
 -1      1476 2.00168E+01 1.03466E-02-3.32326E-04-1.15481E-02-2.10707E-13 2.47725E-13
 -1      1477 2.02360E+01 7.54948E-02-1.52083E-01 4.84417E-01 7.05096E-14 5.57353E-13
 -1      1478 2.15070E+01 2.16041E-01-2.29257E-01 7.21385E-01 6.17006E-14 6.64274E-13
 -1      1479 2.17083E+01 8.81632E-01-8.53844E-02 2.06544E+00 1.10897E-13 4.51292E-13
 -1      1480 1.93067E+01 3.24109E-02-2.13396E-02 1.86519E-01 5.30288E-14 4.20022E-13
 -1      1481 1.97282E+01 1.13603E-01-6.26955E-02 2.38518E-01 4.81351E-14 5.06852E-13
 -1      1482 2.02826E+01 1.87720E-01-5.51585E-02 7.87048E-01 1.10516E-13 3.60354E-13
 -1      1483 1.89242E+01 1.51724E-02 5.65999E-03 5.38335E-02 2.77348E-14 3.27297E-13
 -1      1484 1.90635E+01 5.16689E-02 9.84787E-04 8.01505E-02 2.93142E-14 3.73746E-13
 -1      1485 1.95373E+01 7.19251E-02-1.21455E-02 2.99655E-01 7.88918E-14 2.70041E-13
 -1      1486 1.88139E+01 7.24689E-03 6.96381E-03-9.05544E-03 3.30677E-14 2.72995E-13
 -1      1487 1.88288E+01 2.59805E-02 1.11079E-02 5.38923E-03 1.88989E-14 2.97633E-13
 -1      1488 1.92024E+01 3.12144E-02-2.46719E-03 8.35950E-02 4.60864E-14 1.85782E-13
 -1      1489 1.88417E+01 3.41997E-03 4.75768E-03-4.00055E-02 2.17643E-14 2.00952E-13
 -1      1490 1.87974E+01 1.40428E-02 8.55214E-03-3.17757E-02 1.63842E-14 2.45977E-13
 -1      1491 1.90875E+01 1.35855E-02-1.64284E-03-2.24529E-02 3.72671E-14 1.51045E-13
 -1      1492 1.89401E+01 1.38628E-03 3.24701E-03-5.45743E-02 2.74281E-15 1.75326E-13
 -1      1493 1.88678E+01 7.68314E-03 5.41290E-03-4.98882E-02 7.47178E-15 1.96166E-13
 -1      1494 1.90925E+01 5.06701E-03-1.69274E-03-7.57212E-02 1.74871E-14 1.29786E-13
 -1      1495 1.90728E+01 3.04833E-04 2.43237E-03-6.02837E-02 2.37288E-15 1.61798E-13
 -1      1496 1.89888E+01 4.08915E-03 3.49219E-03-5.77052E-02 2.07717E-15 1.62832E-13
 -1      1497 1.91623E+01 7.08707E-04-1.48988E-03-1.01154E-01 1.74148E-14 8.50977E-14
 -1      1498 1.92200E+01-1.82680E-04 1.92445E-03-6.13734E-02 4.87471E-15 1.61599E-13
 -1      1499 1.91328E+01 2.08326E-03 2.40946E-03-6.00057E-02-8.68880E-16 1.58754E-13
 -1      1500 1.92660E+01-1.41559E-03-1.19033E-03-1.11518E-01-1.31573E-15 4.78378E-14
 -1      1501 1.93715E+01-2.62079E-04 1.52291E-03-6.05285E-02 2.94872E-14 1.14128E-13
 -1      1502 1.92852E+01 1.10780E-03 1.75547E-03-5.97566E-02 2.59768E-14 1.25158E-13
 -1      1503 1.93868E+01-2.17193E-03-9.53612E-04-1.14246E-01 2.70662E-14 1.15749E-14
 -1      1504 1.95240E+01-4.47393E-05 1.15796E-03-5.95846E-02 3.08057E-14 5.46984E-14
 -1      1505 1.94394E+01 8.58939E-04 1.32372E-03-5.89576E-02 3.49133E-14 8.58055E-14
 -1      1506 1.95160E+01-2.01783E-03-8.33115E-04-1.14122E-01 4.70152E-14 2.26126E-14
 -1      1507 1.96781E+01 3.95218E-04 8.08538E-04-5.98615E-02 1.82966E-14 1.89213E-14
 -1      1508 1.95942E+01 1.15257E-03 1.02391E-03-5.90302E-02 2.36265E-14 5.84047E-14
 -1      1509 1.96504E+01-1.22564E-03-8.33412E-04-1.14446E-01 3.54535E-14 1.43483E-14
 -1      1510 1.98378E+01 1.00211E-03 4.67561E-04-6.23340E-02-4.67237E-15 8.38656E-14
 -1      1511 1.97520E+01 1.86558E-03 8.12257E-04-6.10163E-02 6.59122E-15 3.29010E-14
 -1      1512 1.97910E+01 2.60173E-05-9.46880E-04-1.17594E-01 1.32500E-14 5.88722E-15
 -1      1513 2.00095E+01 1.72449E-03 1.32326E-04-6.77102E-02 1.42399E-14 7.27779E-14
 -1      1514 1.99178E+01 2.90224E-03 6.61678E-04-6.56754E-02 8.09357E-17 4.67113E-14
 -1      1515 1.99412E+01 1.60322E-03-1.16417E-03-1.25294E-01 3.52339E-15-1.34671E-14
 -1      1516 2.02007E+01 2.50066E-03-1.95829E-04-7.64385E-02-1.30837E-14 1.13516E-15
 -1      1517 2.00987E+01 4.16691E-03 5.50979E-04-7.35075E-02 1.60095E-14 4.69403E-14
 -1      1518 2.01064E+01 3.38061E-03-1.47340E-03-1.38737E-01 3.28421E-14-3.39649E-14
 -1      1519 2.04199E+01 3.24127E-03-5.07738E-04-8.86411E-02-1.86877E-14 3.01495E-14
 -1      1520 2.03027E+01 5.53497E-03 4.60932E-04-8.47061E-02-3.44917E-15 2.21422E-14
 -1      1521 2.02930E+01 5.20549E-03-1.85445E-03-1.58530E-01-5.86163E-15-2.39500E-15
 -1      1522 2.06752E+01 3.80716E-03-7.78920E-04-1.03961E-01 1.21998E-14-5.07038E-14
 -1      1523 2.05382E+01 6.81656E-03 3.73495E-04-9.90310E-02 9.68821E-15-5.73851E-14
 -1      1524 2.05078E+01 6.85508E-03-2.26950E-03-1.84518E-01 5.84013E-14-3.10088E-14
 -1      1525 2.09726E+01 3.98267E-03-9.57195E-04-1.21304E-01 7.53553E-14-1.77821E-13
 -1      1526 2.08121E+01 7.71076E-03 2.73977E-04-1.15581E-01 5.38052E-14-5.97066E-14
 -1      1527 2.07563E+01 7.98295E-03-2.64902E-03-2.15406E-01 6.09208E-14-1.01950E-13
 -1      1528 2.13135E+01 3.44845E-03-9.44295E-04-1.38450E-01-4.24546E-14-2.10199E-13
 -1      1529 2.11286E+01 7.75204E-03 1.57770E-04-1.32456E-01 2.36717E-14-1.95510E-13
 -1      1530 2.10417E+01 8.05570E-03-2.87226E-03-2.48185E-01 8.45178E-14-1.49112E-13
 -1      1531 2.16914E+01 1.76760E-03-5.73841E-04-1.51573E-01-3.67686E-14-8.59989E-14
 -1      1532 2.14857E+01 6.26290E-03 4.38028E-05-1.46309E-01-5.20359E-14-1.58524E-13
 -1      1533 2.13618E+01 6.29268E-03-2.74439E-03-2.77348E-01-5.60881E-14-1.60350E-13
 -1      1534 2.20872E+01-1.58138E-03 4.01351E-04-1.54746E-01-4.05668E-15-3.01339E-14
 -1      1535 2.18714E+01 2.35168E-03-5.37016E-06-1.51887E-01-2.46856E-14-4.28329E-14
 -1      1536 2.17063E+01 1.64919E-03-1.97954E-03-2.94005E-01-4.06824E-14-1.24186E-13
 -1      1537 2.24638E+01-7.06188E-03 2.27783E-03-1.39755E-01 1.95764E-14-1.96241E-14
 -1      1538 2.22592E+01-4.96017E-03 1.34840E-04-1.41769E-01 1.41475E-14-3.39798E-14
 -1      1539 2.20533E+01-7.06509E-03-2.15850E-04-2.85244E-01-3.92928E-14-1.40682E-14
 -1      1540 2.27619E+01-1.47376E-02 5.26209E-03-9.68246E-02 6.59963E-14-1.33728E-13
 -1      1541 2.26031E+01-1.63429E-02 6.41724E-04-1.06850E-01 2.86559E-14-2.31291E-14
 -1      1542 2.23647E+01-2.07650E-02 2.88916E-03-2.34552E-01 6.99341E-14 4.73827E-14
 -1      1543 2.29006E+01-2.36732E-02 9.15301E-03-1.72580E-02-1.61425E-14-1.21718E-13
 -1      1544 2.28350E+01-3.13484E-02 1.66001E-03-3.84012E-02 3.96042E-14-1.11040E-13
 -1      1545 2.25857E+01-3.91591E-02 7.41709E-03-1.24698E-01 5.77862E-14-3.20139E-14
 -1      1546 2.27874E+01-3.12076E-02 1.28675E-02 1.00997E-01-1.29833E-13 2.15630E-13
 -1      1547 2.28693E+01-4.72086E-02 3.09751E-03 6.73189E-02-1.61427E-13-4.62278E-14
 -1      1548 2.26475E+01-5.92363E-02 1.27825E-02 5.50661E-02-1.66354E-13 9.82265E-14
 -1      1549 2.23465E+01-3.27017E-02 1.41023E-02 2.45067E-01-8.99992E-14 3.54182E-13
 -1      1550 2.26201E+01-5.78316E-02 4.33061E-03 2.01739E-01-4.08736E-14 2.69970E-13
 -1      1551 2.24814E+01-7.36595E-02 1.73302E-02 2.96599E-01-1.21779E-13 1.57234E-13
 -1      1552 2.15647E+01-2.29187E-02 9.82257E-03 3.79882E-01 5.82234E-14 4.51347E-13
 -1      1553 2.20366E+01-5.44901E-02 4.06974E-03 3.36543E-01-2.30944E-14 4.28477E-13
 -1      1554 2.20455E+01-7.08764E-02 1.83618E-02 5.58267E-01-9.78349E-14 2.85891E-13
 -1      1555 2.05412E+01 1.29755E-04-1.70501E-03 4.50618E-01 4.90237E-14 1.76963E-13
 -1      1556 2.11504E+01-3.00345E-02 8.61678E-04 4.23219E-01 8.08823E-14 3.41546E-13
 -1      1557 2.13630E+01-3.94868E-02 1.33603E-02 7.58970E-01 1.61465E-13 4.14460E-13
 -1      1558 1.95070E+01 3.06676E-02-1.80364E-02 4.04139E-01 2.21008E-14 8.68958E-14
 -1      1559 2.01152E+01 1.38670E-02-5.54077E-03 4.08708E-01 2.02473E-14 1.50359E-13
 -1      1560 2.05544E+01 2.18043E-02 2.17444E-03 7.97597E-01 4.31322E-14 3.08689E-13
 -1      1561 1.87712E+01 5.49656E-02-3.16046E-02 2.25526E-01 6.20823E-14-5.23540E-14
 -1      1562 1.91964E+01 6.20784E-02-1.27656E-02 2.67492E-01 6.79222E-14 2.85674E-14
 -1      1563 1.98312E+01 9.47552E-02-1.13393E-02 6.05490E-01 6.67470E-14 1.79509E-13
 -1      1564 1.85902E+01 5.94681E-02-3.39282E-02-3.56954E-02-2.22929E-14-2.59391E-13
 -1      1565 1.86850E+01 9.15864E-02-1.63459E-02 3.10516E-02 1.08004E-14-2.43031E-13
 -1      1566 1.94279E+01 1.44813E-01-2.06271E-02 2.07159E-01 1.39527E-13 8.23994E-14
 -1      1567 1.90315E+01 4.17636E-02-2.23856E-02-2.83640E-01-9.78419E-14-3.94303E-14
 -1      1568 1.87608E+01 8.74968E-02-1.31795E-02-2.17131E-01-1.12371E-13-2.61041E-13
 -1      1569 1.94888E+01 1.42691E-01-2.14625E-02-2.66275E-01-1.01657E-13-1.54867E-13
 -1      1570 1.99346E+01 1.18979E-02-3.29712E-03-4.29542E-01 5.78183E-14-9.71445E-16
 -1      1571 1.93960E+01 5.35841E-02-4.35578E-03-3.86693E-01 1.73390E-14-5.17295E-15
 -1      1572 1.99900E+01 8.79349E-02-1.48833E-02-6.42048E-01-4.25250E-14-9.53976E-14
 -1      1573 2.10001E+01-1.49732E-02 1.33381E-02-4.40845E-01 7.88888E-14-4.08007E-15
 -1      1574 2.03700E+01 9.23140E-03 5.20492E-03-4.30533E-01 3.05630E-14 4.06827E-14
 -1      1575 2.07523E+01 9.88865E-03-5.97363E-03-8.01514E-01 5.63331E-14-2.11497E-13
 -1      1576 2.19388E+01-2.97680E-02 2.15121E-02-3.46539E-01-5.26159E-14 2.00881E-15
 -1      1577 2.13858E+01-2.59066E-02 1.10460E-02-3.62423E-01 5.01192E-14 1.25816E-13
 -1      1578 2.15392E+01-5.41824E-02 1.17051E-03-7.36025E-01-4.72452E-15-4.61488E-14
 -1      1579 2.25749E+01-3.20115E-02 2.12191E-02-2.03816E-01 9.20201E-14-3.58043E-13
 -1      1580 2.22002E+01-4.29912E-02 1.19154E-02-2.32676E-01 8.24271E-14-1.77042E-13
 -1      1581 2.21607E+01-8.50028E-02 5.01692E-03-5.22255E-01 1.90879E-13-4.91430E-14
 -1      1582 2.28634E+01-2.62772E-02 1.58769E-02-6.36338E-02 1.33474E-13-6.02921E-13
 -1      1583 2.26913E+01-4.38714E-02 9.24382E-03-9.36307E-02 1.07779E-13-3.98983E-13
 -1      1584 2.25234E+01-8.46111E-02 5.96607E-03-2.60159E-01 1.96235E-13-3.04722E-13
 -1      1585 2.28516E+01-1.76357E-02 9.28712E-03 4.51722E-02-1.03249E-13-5.11039E-13
 -1      1586 2.28528E+01-3.52604E-02 5.30037E-03 2.09056E-02-9.02542E-14-6.44413E-13
 -1      1587 2.26235E+01-6.59526E-02 5.22159E-03-2.53380E-02-5.19116E-15-3.62450E-13
 -1      1588 2.26274E+01-9.47654E-03 3.75562E-03 1.14578E-01-3.75828E-15-3.38733E-13
 -1      1589 2.27496E+01-2.35711E-02 1.82887E-03 9.82270E-02 1.62214E-14-4.02513E-13
 -1      1590 2.25117E+01-4.19609E-02 3.86712E-03 1.45701E-01-6.76577E-14-4.41299E-13
 -1      1591 2.22805E+01-3.27635E-03 5.51444E-05 1.49135E-01 7.57561E-14-2.87808E-13
 -1      1592 2.24713E+01-1.28131E-02-4.59280E-04 1.40042E-01 2.63943E-14-2.19896E-13
 -1      1593 2.22584E+01-2.06387E-02 2.53129E-03 2.47774E-01-2.83146E-14-1.21222E-13
 -1      1594 2.18833E+01 7.65986E-04-1.96001E-03 1.58192E-01-4.73525E-16-2.56333E-13
 -1      1595 2.21011E+01-4.65128E-03-1.58422E-03 1.54567E-01 3.68637E-14-2.64137E-13
 -1      1596 2.19296E+01-5.09769E-03 1.46824E-03 2.92623E-01 4.09468E-14 1.47827E-13
 -1      1597 2.14860E+01 3.04367E-03-2.77155E-03 1.51108E-01 1.69959E-13-4.07098E-13
 -1      1598 2.17027E+01 7.44265E-04-1.87905E-03 1.51076E-01 5.13938E-14-2.19094E-13
 -1      1599 2.15766E+01 4.62246E-03 7.18547E-04 2.97213E-01 7.75787E-14 2.65248E-14
 -1      1600 2.11187E+01 4.10566E-03-2.86760E-03 1.35222E-01-9.29488E-14-4.94081E-13
 -1      1601 2.13177E+01 3.88998E-03-1.70575E-03 1.37278E-01 1.87746E-14-4.85246E-13
 -1      1602 2.12343E+01 9.79175E-03 2.27244E-04 2.77143E-01 6.05121E-14-1.31225E-13
 -1      1603 2.07971E+01 4.46248E-03-2.62909E-03 1.15419E-01-3.11878E-14-5.14719E-13
 -1      1604 2.09702E+01 5.49876E-03-1.33944E-03 1.18550E-01 1.56579E-14-4.48144E-13
 -1      1605 2.09234E+01 1.19391E-02-9.41050E-05 2.44105E-01-2.09784E-14-3.27691E-14
 -1      1606 2.05277E+01 4.52861E-03-2.33715E-03 9.43858E-02 2.06169E-14-4.13471E-13
 -1      1607 2.06718E+01 6.25931E-03-9.60849E-04 9.80464E-02-3.32565E-14-5.51927E-13
 -1      1608 2.06543E+01 1.24165E-02-3.45521E-04 2.05543E-01-2.51875E-14 2.58279E-15
 -1      1609 2.03125E+01 4.60841E-03-2.21445E-03 7.30590E-02 1.53769E-13-6.95136E-13
 -1      1610 2.04267E+01 6.75646E-03-7.00340E-04 7.71110E-02 1.71359E-13-4.47442E-13
 -1      1611 2.04315E+01 1.22899E-02-6.40781E-04 1.65216E-01 1.55098E-13-2.14714E-13
 -1      1612 2.01528E+01 4.91363E-03-2.34981E-03 5.11231E-02-1.39600E-13-5.85184E-13
 -1      1613 2.02362E+01 7.44716E-03-6.59598E-04 5.57715E-02-5.65523E-14-7.62349E-13
 -1      1614 2.02562E+01 1.23459E-02-1.09044E-03 1.24065E-01 5.70423E-14-9.24564E-14
 -1      1615 2.00506E+01 5.48588E-03-2.16163E-03 2.74780E-02-1.71486E-13-2.56009E-13
 -1      1616 2.01012E+01 8.58340E-03-7.31415E-04 3.33583E-02-1.54108E-13-5.03191E-13
 -1      1617 2.01284E+01 1.32643E-02-1.55553E-03 8.13284E-02-2.59731E-13 7.21271E-14
 -1      1618 2.00070E+01 5.25518E-03 1.02345E-03 4.40379E-03 9.60378E-14-1.95234E-13
 -1      1619 2.00223E+01 8.54910E-03-1.56210E-04 1.04810E-02 4.76299E-14-2.44982E-13
 -1      1620 2.00464E+01 1.34230E-02-1.46039E-03 3.65739E-02 3.98899E-14-1.43668E-14
 -1      1621 1.99978E+01 1.93083E-04 2.57754E-03-3.19249E-03-2.96497E-14-3.73124E-14
 -1      1622 2.00091E+01 3.73280E-02-1.23844E-03 2.11788E-02 1.02091E-13 2.52397E-15
 -1      1623 2.00092E+01 1.87621E-02 8.52382E-04 1.52305E-02 2.77547E-14 3.37780E-13
 -1      1624 2.00068E+01 1.23151E-01-9.91148E-04 4.50967E-02 2.69634E-13 8.31416E-14
 -1      1625 2.00086E+01 7.45733E-02-8.53466E-04 4.06640E-02 3.13061E-13-1.14305E-13
 -1      1626 2.00176E+01 7.91445E-02-1.72409E-03 6.16773E-02 1.31743E-13 2.75087E-14
 -1      1627 2.00030E+01 2.44075E-01-4.56388E-04 6.09002E-02 5.99575E-13 1.99639E-13
 -1      1628 2.00053E+01 1.74826E-01-6.92267E-04 5.85195E-02 3.87097E-13 3.41300E-13
 -1      1629 2.00110E+01 1.67890E-01-1.69683E-03 1.01191E-01 3.66505E-13 3.03710E-13
 -1      1630 1.99989E+01 3.81310E-01-8.51103E-05 6.60796E-02 1.00434E-13-3.80579E-13
 -1      1631 2.00013E+01 3.04061E-01-3.27088E-04 6.59239E-02 3.98966E-13 1.62022E-14
 -1      1632 2.00041E+01 2.79614E-01-6.20421E-04 1.23152E-01 2.06364E-13-5.67862E-15
 -1      1633 1.99954E+01 5.11589E-01 7.01860E-05 6.09702E-02-2.16144E-13-6.47088E-14
 -1      1634 1.99975E+01 4.40118E-01-1.01542E-04 6.27372E-02 3.40093E-15-3.35742E-13
 -1      1635 1.99975E+01 3.98327E-01 5.44115E-04 1.24841E-01 6.15496E-14-5.10267E-13
 -1      1636 1.99926E+01 6.20049E-01 1.36215E-04 4.67250E-02-3.48064E-13 8.99779E-14
 -1      1637 1.99942E+01 5.63064E-01 3.51467E-05 5.01650E-02-3.70007E-13-1.20925E-13
 -1      1638 1.99918E+01 5.08316E-01 1.55768E-03 1.07665E-01-7.31678E-14-3.23545E-13
 -1      1639 1.99908E+01 6.88285E-01 1.55001E-04 2.55424E-02-5.02518E-13-2.31542E-13
 -1      1640 1.99918E+01 6.55625E-01 1.10289E-04 3.01298E-02-5.25300E-13 2.26758E-13
 -1      1641 1.99874E+01 5.95044E-01 2.35548E-03 7.44576E-02-9.77698E-14 2.72195E-14
 -1      1642 1.99902E+01 7.06031E-01 1.56102E-04 3.41173E-04-1.13015E-13 3.68046E-13
 -1      1643 1.99904E+01 7.02833E-01 1.69501E-04 5.46607E-03-4.60822E-13 7.12843E-14
 -1      1644 1.99848E+01 6.45098E-01 2.84354E-03 3.00717E-02-1.67454E-13 7.19101E-14
 -1      1645 1.99910E+01 6.69859E-01 1.34129E-04-2.54062E-02-1.89272E-13-2.79136E-13
 -1      1646 1.99903E+01 6.97156E-01 2.11506E-04-2.04525E-02-1.01136E-13 1.63160E-13
 -1      1647 1.99843E+01 6.50948E-01 2.95823E-03-1.94094E-02-1.39691E-13 2.91901E-13
 -1      1648 1.99931E+01 5.84107E-01 6.73267E-05-4.79335E-02-6.39367E-13-3.34314E-13
 -1      1649 1.99916E+01 6.38426E-01 2.27347E-04-4.39036E-02-1.72249E-13-3.07914E-13
 -1      1650 1.99860E+01 6.11023E-01 2.65510E-03-6.70223E-02-3.74265E-13-2.38779E-13
 -1      1651 1.99964E+01 4.63192E-01-5.73863E-05-6.33609E-02-1.04921E-12 2.61483E-14
 -1      1652 1.99943E+01 5.35250E-01 1.44022E-04-6.09926E-02-7.11887E-13-3.37744E-13
 -1      1653 1.99901E+01 5.31079E-01 1.96945E-03-1.05302E-01-3.32849E-13-5.57050E-13
 -1      1654 2.00008E+01 3.21625E-01-3.37219E-04-6.90268E-02-7.25591E-13 2.16903E-13
 -1      1655 1.99981E+01 4.02247E-01-7.66867E-05-6.87956E-02-1.19611E-12 4.16559E-13
 -1      1656 1.99960E+01 4.21738E-01 8.86169E-04-1.27933E-01-3.39902E-13 2.01811E-13
 -1      1657 2.00053E+01 1.84897E-01-8.64744E-04-6.24992E-02-4.46088E-13 1.20863E-13
 -1      1658 2.00027E+01 2.58659E-01-5.27567E-04-6.47887E-02-6.38468E-13 1.41658E-13
 -1      1659 2.00037E+01 2.97823E-01-4.46408E-04-1.29818E-01-3.02623E-13 3.98493E-13
 -1      1660 2.00104E+01 7.94019E-02-3.47326E-04-4.38103E-02-3.68940E-13 7.12087E-14
 -1      1661 2.00069E+01 1.30335E-01-1.19367E-03-4.88112E-02-4.56968E-13 6.24184E-14
 -1      1662 2.00113E+01 1.79755E-01-1.72449E-03-1.08011E-01-2.41922E-13 1.20651E-13
 -1      1663 2.00165E+01 3.14213E-02 1.38718E-03-2.68608E-02-3.35033E-13 2.52612E-14
 -1      1664 2.00157E+01 5.23986E-02-1.04084E-03-3.61487E-02-3.50193E-13-1.15627E-14
 -1      1665 2.00276E+01 9.92563E-02-9.82683E-04-8.11083E-02-1.75136E-13 5.67586E-14
 -1      1666 2.00461E+01 4.91054E-02 9.44912E-04-5.57773E-02-9.37783E-14 2.59658E-13
 -1      1667-4.91537E-01-1.37607E+01-1.55357E+00-7.07388E-01-8.05134E-13 1.41859E-13
 -1      1668-5.31466E-01-1.62481E+01-1.78602E+00 4.91541E-01-1.04033E-12-5.89806E-14
 -1      1669 2.01340E+00-6.89005E+00-1.05171E+00 1.14808E+00 1.03362E-13 3.60989E-13
 -1      1670 9.93375E-01-1.22946E+01-1.59980E+00 2.60380E-01-6.28386E-13 3.61215E-13
 -1      1671 7.49316E+00 4.36660E-01-4.52470E-01 5.01213E+00 5.32907E-13 5.61773E-13
 -1      1672 4.32792E+00-4.77449E+00-1.19958E+00 2.14207E+00 2.30260E-13 3.50109E-13
 -1      1673 1.81006E+01 5.29458E+00 2.43255E-01 1.00252E+01 5.50671E-13 6.85563E-13
 -1      1674 1.13143E+01 2.23321E+00-6.17647E-01 6.34060E+00 6.83231E-13 5.47229E-13
 -1      1675 3.30226E+01 5.63143E+00 9.30675E-01 1.16353E+01 3.89355E-13 4.93383E-13
 -1      1676 2.40804E+01 5.40492E+00 1.49306E-01 9.99541E+00 5.13145E-13 6.74794E-13
 -1      1677 4.64920E+01 4.80577E+00 1.50857E+00 9.63205E+00 2.55199E-13 7.01661E-13
 -1      1678 3.78251E+01 6.59214E+00 9.13552E-01 1.17469E+01 4.29573E-13 7.00107E-13
 -1      1679 5.26348E+01 3.84342E+00 1.61179E+00 2.14645E+00 6.94445E-14 7.04325E-13
 -1      1680 4.87671E+01 4.89026E+00 1.36465E+00 7.06447E+00 8.14626E-14 6.29496E-13
 -1      1681 5.26051E+01 4.10592E+00 1.68421E+00-5.76389E+00 1.55181E-13 2.85605E-13
 -1      1682 5.47231E+01 3.42273E+00 1.78937E+00-1.34508E-01 1.72751E-13 5.37882E-13
 -1      1683 4.23209E+01 5.93970E+00 1.09295E+00-1.05994E+01 4.10116E-13-2.26152E-13
 -1      1684 4.95519E+01 4.37348E+00 1.64740E+00-7.57247E+00 2.51299E-13 2.57905E-13
 -1      1685 2.94450E+01 6.11474E+00 4.45186E-01-1.08221E+01 5.93525E-13-5.92637E-13
 -1      1686 3.80099E+01 5.40862E+00 1.08989E+00-1.11229E+01 4.88498E-13-2.66676E-13
 -1      1687 1.65726E+01 4.73031E+00-2.15061E-01-8.71407E+00 6.30163E-13-6.67022E-13
 -1      1688 2.41061E+01 6.19142E+00 5.45432E-01-1.15693E+01 5.77205E-13-8.20233E-13
 -1      1689 7.72819E+00-1.68121E+00-8.85245E-01-4.06848E+00 3.29292E-13-4.03455E-13
 -1      1690 1.26320E+01 2.79858E+00-8.46045E-02-7.56992E+00 4.90830E-13-6.77458E-13
 -1      1691 2.30901E+00-9.21058E+00-1.43282E+00-8.87611E-01-1.46438E-13-2.33452E-13
 -1      1692 4.19006E+00-3.61177E+00-7.87414E-01-2.80512E+00 2.05169E-13-4.16445E-13
 -1      1693-6.40819E-02-1.51284E+01-1.78758E+00-1.90167E-02-1.32394E-13-2.15383E-14
 -1      1694 1.73934E-01-1.10793E+01-1.40073E+00 3.43527E-01-1.23235E-13 2.21906E-14
 -1      1695-7.89936E-01-1.67174E+01-1.85626E+00-8.88987E-01-2.82205E-13-9.51461E-14
 -1      1696-7.58269E-01-1.62832E+01-1.81491E+00 7.36404E-01-1.50213E-13-7.18592E-14
 -1      1697-1.02509E-01-1.22010E+01-1.49520E+00-7.36678E-01-6.44595E-13-3.84581E-13
 -1      1698-2.34620E-01-1.56420E+01-1.78268E+00-9.61037E-02-3.16469E-13-2.50050E-13
 -1      1699 2.82825E+00-5.09625E+00-1.06281E+00 1.48317E+00-1.40155E-12-1.21247E-12
 -1      1700 1.38599E+00-1.07338E+01-1.65071E+00-7.63863E-02-8.98948E-13-6.50008E-13
 -1      1701 1.03396E+01 1.77638E+00-3.81428E-01 6.39635E+00-1.78302E-12-1.59772E-12
 -1      1702 5.94972E+00-2.96002E+00-1.17124E+00 2.92401E+00-1.61204E-12-1.36002E-12
 -1      1703 2.51595E+01 4.81244E+00 5.26219E-01 1.08072E+01-1.38711E-12-1.93401E-12
 -1      1704 1.64675E+01 2.65314E+00-3.75436E-01 7.41512E+00-1.65734E-12-1.69731E-12
 -1      1705 3.92570E+01 5.54618E+00 1.20454E+00 1.16815E+01-1.14475E-12-1.92135E-12
 -1      1706 3.00224E+01 6.38068E+00 4.50142E-01 1.14010E+01-1.35181E-12-2.07456E-12
 -1      1707 5.07230E+01 4.17150E+00 1.63375E+00 6.11873E+00-4.39426E-13-1.68343E-12
 -1      1708 4.31791E+01 5.67254E+00 1.08448E+00 9.52981E+00-7.83262E-13-1.77303E-12
 -1      1709 5.64053E+01 3.56052E+00 2.02049E+00-1.24551E+00-2.32259E-13-1.26627E-12
 -1      1710 5.47630E+01 3.94287E+00 1.84369E+00 4.77583E+00-3.80390E-13-1.63086E-12
 -1      1711 4.99083E+01 4.89452E+00 1.59010E+00-8.57864E+00-4.37900E-13-2.88214E-13
 -1      1712 5.50797E+01 3.62514E+00 1.97623E+00-3.86762E+00-2.76140E-13-1.08513E-12
 -1      1713 3.77499E+01 6.49249E+00 9.60789E-01-1.20619E+01-5.66713E-13 4.28990E-13
 -1      1714 4.64602E+01 5.06004E+00 1.66853E+00-1.06508E+01-4.04038E-13 2.97540E-14
 -1      1715 2.31733E+01 5.59164E+00 9.84734E-02-1.02039E+01-8.01914E-13 8.10019E-13
 -1      1716 3.26240E+01 6.07547E+00 1.01636E+00-1.23009E+01-6.67910E-13 6.05072E-13
 -1      1717 1.07239E+01 3.84938E-01-7.73202E-01-5.35170E+00-1.18683E-12 8.64864E-13
 -1      1718 1.77508E+01 4.26593E+00 1.89482E-01-9.37981E+00-9.36362E-13 8.97060E-13
 -1      1719 3.59679E+00-7.11621E+00-1.37534E+00-1.34908E+00-1.27520E-12 7.82097E-13
 -1      1720 6.49419E+00-1.51771E+00-6.35294E-01-4.07067E+00-1.33693E-12 8.63420E-13
 -1      1721 3.62837E-01-1.37627E+01-1.76204E+00 3.69833E-01-1.29008E-12 3.19911E-13
 -1      1722 9.14171E-01-9.01367E+00-1.30560E+00 2.11134E-02-1.27542E-12 5.82451E-13
 -1      1723-6.23775E-01-1.65974E+01-1.82353E+00-1.76327E-01-1.28071E-12-1.37584E-13
 -1      1724-6.61838E-01-1.49251E+01-1.69801E+00 1.15912E+00-1.18860E-12 1.19627E-13
 -1      1725 2.55133E+01 1.11149E+00 3.80243E-01 7.14840E+00 3.29070E-13 4.74065E-13
 -1      1726 1.47003E+01-2.34057E+00-2.71001E-01 6.62635E+00 2.39031E-13 4.12836E-13
 -1      1727 2.00082E+01 4.14032E-03 2.16243E-04 3.27114E-03-8.34651E-14 8.30097E-14
 -1      1728 2.00211E+01 3.02031E-02-9.60709E-06 2.58435E-02 6.62848E-14 3.75271E-13
 -1      1729 1.04816E+00-9.53483E+00-1.07511E+00 2.87608E+00-3.53828E-13 6.03073E-13
 -1      1730 6.60943E+00-6.60392E+00-7.92245E-01 4.85528E+00-2.47802E-13 3.81362E-13
 -1      1731-1.29410E+00-1.10964E+01-1.27351E+00 3.47431E-01-8.15126E-13 7.23865E-14
 -1      1732 3.52484E+01 4.03711E+00 7.89192E-01 5.86849E+00 3.14637E-13 4.92162E-13
 -1      1733 4.22652E+01 6.74350E+00 1.20445E+00 3.76174E+00 1.62120E-13 4.29767E-13
 -1      1734 4.56216E+01 7.44262E+00 1.33079E+00 1.71232E-01 1.97176E-13 3.84220E-13
 -1      1735 4.47874E+01 6.89602E+00 1.37090E+00-2.98987E+00 3.64708E-13 2.85938E-13
 -1      1736 3.79214E+01 4.90109E+00 8.55099E-01-4.88155E+00 3.78080E-13 3.91465E-13
 -1      1737 2.96267E+01 2.62822E+00 5.75881E-01-6.98044E+00 1.63591E-13 3.05311E-14
 -1      1738 1.95513E+01-7.80573E-01-2.22975E-02-7.16100E+00 2.81997E-14-2.57128E-13
 -1      1739 1.06719E+01-4.93027E+00-5.14778E-01-5.94550E+00-1.32117E-13-4.37594E-13
 -1      1740 3.34491E+00-8.35754E+00-9.33804E-01-3.90731E+00-1.73195E-13-1.73361E-13
 -1      1741-6.88640E-01-1.10291E+01-1.26581E+00-1.49804E+00-3.09641E-13-4.71290E-14
 -1      1742-9.80510E-01-1.10750E+01-1.26244E+00 8.40585E-01-3.65125E-13-2.58016E-13
 -1      1743 2.22588E+00-9.18184E+00-1.10142E+00 2.97976E+00-4.11893E-13-7.47430E-13
 -1      1744 8.68270E+00-5.71434E+00-7.35113E-01 5.01302E+00-8.61422E-13-1.21153E-12
 -1      1745 1.93399E+01-1.92015E+00-4.27500E-02 6.70503E+00-1.11233E-12-1.21703E-12
 -1      1746 3.02070E+01 1.41163E+00 4.25003E-01 6.32083E+00-9.78551E-13-1.35314E-12
 -1      1747 3.92815E+01 5.10544E+00 1.04614E+00 4.60494E+00-8.23834E-13-1.21891E-12
 -1      1748 4.52107E+01 6.96707E+00 1.29604E+00 1.73796E+00-4.96492E-13-1.19216E-12
 -1      1749 4.80660E+01 7.32210E+00 1.66419E+00-1.06482E+00-5.85698E-13-9.18876E-13
 -1      1750 4.38236E+01 6.30080E+00 1.41152E+00-4.47810E+00-6.81566E-13-6.01963E-13
 -1      1751 3.56009E+01 3.91622E+00 8.81268E-01-6.54900E+00-5.59719E-13-1.05138E-13
 -1      1752 2.49018E+01 2.38522E-01 2.12839E-01-6.99886E+00-5.85754E-13 3.36620E-13
 -1      1753 1.41443E+01-3.97664E+00-4.01765E-01-6.19352E+00-8.76632E-13 6.13509E-13
 -1      1754 5.43918E+00-7.64782E+00-8.80017E-01-4.29229E+00-9.65450E-13 5.91256E-13
 -1      1755 2.15184E-01-1.04559E+01-1.22486E+00-1.92493E+00-9.85823E-13 1.88238E-13
 -1      1756 2.28398E+01 1.98399E+00-2.36240E-02-2.72259E+00-7.34274E-14 4.83891E-13
 -1      1757 1.98203E+01 3.71852E+00-3.48778E-02-2.15561E+00-1.11591E-13-3.24463E-14
 -1      1758 2.00463E+01 3.56008E+00-4.29308E-02-2.44211E+00-1.34096E-13 1.60774E-14
 -1      1759 2.03566E+01 3.18167E+00-4.51450E-02-2.58578E+00-1.28493E-13 6.25194E-14
 -1      1760 2.05719E+01 2.80832E+00-1.42594E-01-2.85390E+00-1.26073E-13 1.40034E-13
 -1      1761 2.04231E+01 2.69093E+00-3.09322E-03-2.22176E+00-1.34567E-13 4.38850E-14
 -1      1762 1.93626E+01 4.19113E+00-2.02079E-02-1.27040E+00-8.18959E-14-1.14455E-13
 -1      1763 1.94340E+01 4.15090E+00-1.71785E-02-1.49490E+00-9.63704E-14-1.10134E-13
 -1      1764 1.92689E+01 4.29790E+00-1.68271E-02-8.59367E-01-5.86720E-14-1.14842E-13
 -1      1765 1.93103E+01 4.27352E+00-1.43584E-02-1.07018E+00-7.23141E-14-1.15198E-13
 -1      1766 1.95353E+01 3.78606E+00-9.27203E-03-1.11889E+00-7.97126E-14-1.07621E-13
 -1      1767 1.92191E+01 4.35912E+00-1.48268E-02-4.66509E-01-1.84171E-14-1.13597E-13
 -1      1768 1.92403E+01 4.34599E+00-1.33255E-02-6.66775E-01-3.93205E-14-1.15824E-13
 -1      1769 1.94408E+01 3.90756E+00-9.17155E-03-7.32502E-01-4.99236E-14-1.06772E-13
 -1      1770 1.92003E+01 4.38512E+00-1.36847E-02-8.35125E-02 1.21193E-14-1.25759E-13
 -1      1771 1.92065E+01 4.38110E+00-1.32255E-02-2.78876E-01 6.13320E-16-1.16674E-13
 -1      1772 1.93919E+01 3.97284E+00-9.10468E-03-3.57837E-01-1.03436E-14-1.10805E-13
 -1      1773 1.92081E+01 4.37974E+00-1.31775E-02 2.98032E-01 3.09623E-14-1.24737E-13
 -1      1774 1.92008E+01 4.38430E+00-1.37660E-02 1.02512E-01 2.31777E-14-1.26395E-13
 -1      1775 1.93775E+01 3.99254E+00-9.08277E-03 1.06180E-02 2.00668E-14-1.15033E-13
 -1      1776 1.92442E+01 4.34200E+00-1.33284E-02 6.86627E-01 4.87812E-14-1.18947E-13
 -1      1777 1.92217E+01 4.35597E+00-1.49334E-02 4.85872E-01 4.14282E-14-1.25414E-13
 -1      1778 1.93945E+01 3.96956E+00-9.12753E-03 3.79256E-01 3.52516E-14-1.13807E-13
 -1      1779 1.93155E+01 4.26768E+00-1.44032E-02 1.08429E+00 7.33508E-14-1.10467E-13
 -1      1780 1.92734E+01 4.29257E+00-1.69884E-02 8.76309E-01 5.98981E-14-1.18095E-13
 -1      1781 1.94458E+01 3.90130E+00-9.14096E-03 7.51144E-01 6.16742E-14-1.11525E-13
 -1      1782 1.94437E+01 4.13933E+00-1.73911E-02 1.51444E+00 1.11351E-13-8.26769E-14
 -1      1783 1.93691E+01 4.18244E+00-2.05085E-02 1.28485E+00 8.91756E-14-9.58279E-14
 -1      1784 1.95430E+01 3.77627E+00-9.20059E-03 1.13484E+00 8.77358E-14-9.91499E-14
 -1      1785 1.96682E+01 3.92162E+00-2.51791E-02 1.97976E+00 1.34047E-13-3.64084E-14
 -1      1786 1.95379E+01 3.99894E+00-2.68917E-02 1.72236E+00 1.18345E-13-6.51215E-14
 -1      1787 1.97127E+01 3.56792E+00-8.67322E-03 1.53472E+00 1.24911E-13-6.22714E-14
 -1      1788 2.00710E+01 3.52236E+00-4.51667E-02 2.47241E+00 1.49193E-13 4.60569E-14
 -1      1789 1.98340E+01 3.68329E+00-3.96837E-02 2.18330E+00 1.38087E-13-6.43929E-15
 -1      1790 2.00041E+01 3.22362E+00-5.26606E-03 1.93439E+00 1.48680E-13-7.19563E-15
 -1      1791 2.09092E+01 2.68108E+00-5.76228E-02 2.85816E+00 1.58626E-13 1.88197E-13
 -1      1792 2.04054E+01 3.09638E+00-5.03682E-02 2.61650E+00 1.50127E-13 1.10273E-13
 -1      1793 2.05109E+01 2.60988E+00 3.18496E-03 2.24478E+00 1.61399E-13 8.62678E-14
 -1      1794 2.17143E+01 1.21276E+00-1.22035E-01 2.33032E+00 1.33268E-13 3.59351E-13
 -1      1795 2.12606E+01 2.26238E+00 1.28719E-04 2.74088E+00 1.47084E-13 2.44776E-13
 -1      1796 2.09252E+01 1.68484E+00-2.29509E-02 2.14072E+00 1.65916E-13 1.88616E-13
 -1      1797 2.09355E+01 7.78600E-01-6.24445E-02 1.52487E+00 1.44475E-13 3.20209E-13
 -1      1798 2.17812E+01 2.45719E+00 9.09066E-02-3.04865E+00-1.00378E-13 2.74225E-13
 -1      1799 2.00848E+01 2.98116E-01-8.90465E-03 6.57596E-01 1.05617E-13 2.61109E-13
 -1      1800 2.06370E+01 4.40505E-01-1.24457E-02 1.03465E+00 1.19543E-13 2.87224E-13
 -1      1801 2.07306E+01 8.45168E-01 2.25046E-03 1.41572E+00 1.33914E-13 2.12807E-13
 -1      1802 2.14936E+01 1.74194E+00 7.95087E-02-2.33799E+00-1.09735E-13 2.04343E-13
 -1      1803 2.05064E+01 5.01073E-01 3.25150E-02-9.22121E-01-9.15309E-14 1.91068E-13
 -1      1804 2.00749E+01 3.52465E-01 7.70535E-03-6.29999E-01-7.38749E-14 1.56465E-13
 -1      1805 1.98812E+01 2.57891E-01 2.74755E-02-3.91171E-01-7.60329E-14 1.53840E-13
 -1      1806 1.96907E+01 1.78913E-01 1.05015E-02-2.52901E-01-7.01305E-14 1.43623E-13
 -1      1807 2.01889E+01 4.84126E-01-5.95456E-03-7.22306E-01-8.62539E-14 8.87498E-14
 -1      1808 1.95699E+01 1.33890E-01 1.67160E-02-1.18452E-01-4.51045E-14 1.28220E-13
 -1      1809 1.94929E+01 9.46300E-02 7.08918E-03-4.68397E-02-4.41149E-14 1.20258E-13
 -1      1810 1.98648E+01 2.45412E-01-5.88444E-03-2.93779E-01-7.11371E-14 7.80491E-14
 -1      1811 1.94301E+01 7.03632E-02 8.77631E-03 2.81922E-02-5.65750E-14 1.40239E-13
 -1      1812 1.94179E+01 4.92351E-02 4.32397E-03 6.57222E-02-5.57542E-14 1.42000E-13
 -1      1813 1.96853E+01 1.27900E-01-4.76486E-03-5.41931E-02-5.01526E-14 3.69056E-14
 -1      1814 1.93950E+01 3.54718E-02 4.37334E-03 1.06774E-01-5.19865E-14 1.44217E-13
 -1      1815 1.94187E+01 2.38260E-02 2.75548E-03 1.25649E-01-1.53846E-14 1.11868E-13
 -1      1816 1.96039E+01 6.51444E-02-3.63135E-03 7.97728E-02-5.47828E-14 6.17358E-14
 -1      1817 1.94219E+01 1.59766E-02 2.04714E-03 1.47088E-01-7.13714E-15 9.78599E-14
 -1      1818 1.94654E+01 9.88259E-03 1.91553E-03 1.55645E-01-2.51377E-14 9.76584E-14
 -1      1819 1.95876E+01 3.04788E-02-2.57192E-03 1.52842E-01-3.03088E-14 4.40986E-14
 -1      1820 1.94852E+01 5.74310E-03 8.15000E-04 1.66131E-01-5.10818E-14 8.44415E-14
 -1      1821 1.95395E+01 3.21675E-03 1.49189E-03 1.69433E-01-6.07219E-14 8.82506E-14
 -1      1822 1.96132E+01 1.19659E-02-1.75583E-03 1.90932E-01-3.90976E-14 4.55759E-14
 -1      1823 1.95699E+01 1.61224E-03 1.78415E-04 1.74600E-01-7.71678E-14 9.87037E-14
 -1      1824 1.96304E+01 1.57114E-03 1.34338E-03 1.76026E-01-5.87340E-14 1.04314E-13
 -1      1825 1.96655E+01 3.72837E-03-1.21637E-03 2.10216E-01-5.96619E-14 5.13185E-14
 -1      1826 1.96683E+01 1.82461E-03-1.05097E-04 1.79803E-01-4.49592E-14 7.13758E-14
 -1      1827 1.97332E+01 3.65411E-03 1.40869E-03 1.81793E-01-3.21646E-14 3.22932E-14
 -1      1828 1.97355E+01 2.60968E-03-9.14754E-04 2.21546E-01-8.72114E-14 5.25919E-14
 -1      1829 1.97773E+01 5.36258E-03-1.64018E-04 1.87108E-01-4.02259E-14 9.46922E-16
 -1      1830 1.98473E+01 8.71926E-03 1.65869E-03 1.91561E-01-2.71452E-14-2.95524E-14
 -1      1831 1.98188E+01 6.82118E-03-7.99515E-04 2.32714E-01-5.64000E-14 2.33760E-14
 -1      1832 1.98975E+01 1.16460E-02-7.53914E-05 2.00747E-01-1.24743E-14-3.44132E-14
 -1      1833 1.99747E+01 1.63550E-02 2.07819E-03 2.09255E-01-3.72719E-14 1.39697E-15
 -1      1834 1.99143E+01 1.53460E-02-8.26668E-04 2.49686E-01-2.16224E-14-6.66161E-16
 -1      1835 2.00323E+01 2.03654E-02 1.08914E-04 2.24294E-01-1.55138E-14 3.23491E-14
 -1      1836 2.01202E+01 2.63512E-02 2.65678E-03 2.38282E-01 4.31379E-14 9.45948E-14
 -1      1837 2.00232E+01 2.76335E-02-9.61827E-04 2.77337E-01 1.78613E-14 6.53701E-14
 -1      1838 2.01873E+01 3.13592E-02 3.49521E-04 2.60944E-01 2.58885E-14 7.74023E-14
 -1      1839 2.02905E+01 3.85772E-02 3.37990E-03 2.81737E-01 1.64269E-14 9.83743E-14
 -1      1840 2.01492E+01 4.33963E-02-1.17743E-03 3.19884E-01 2.21031E-14 8.40610E-14
 -1      1841 2.03699E+01 4.44799E-02 6.11630E-04 3.13617E-01-7.15467E-14 4.70589E-14
 -1      1842 2.04941E+01 5.28208E-02 4.21547E-03 3.42414E-01-1.01521E-13 2.68624E-14
 -1      1843 2.02970E+01 6.24098E-02-1.44952E-03 3.81077E-01-5.11488E-14-3.52664E-15
 -1      1844 2.05889E+01 5.93968E-02 8.59038E-04 3.84832E-01-9.62145E-14-1.40685E-14
 -1      1845 2.07403E+01 6.85266E-02 5.09199E-03 4.22547E-01-8.73446E-14-5.56004E-14
 -1      1846 2.04729E+01 8.42328E-02-1.75594E-03 4.64135E-01-1.29629E-13-3.36933E-14
 -1      1847 2.08540E+01 7.52605E-02 1.05006E-03 4.76238E-01-7.63395E-14-8.22220E-14
 -1      1848 2.10390E+01 8.43422E-02 5.86422E-03 5.23101E-01-4.66513E-14-4.46049E-14
 -1      1849 2.06838E+01 1.07742E-01-2.07722E-03 5.71304E-01-1.01035E-13 6.69613E-14
 -1      1850 2.11753E+01 9.01250E-02 1.13775E-03 5.87571E-01-2.18146E-14-8.35448E-14
 -1      1851 2.13994E+01 9.73510E-02 6.26404E-03 6.42335E-01-3.00844E-14-1.16218E-13
 -1      1852 2.09367E+01 1.30338E-01-2.40190E-03 7.02822E-01-5.07658E-14 9.54429E-15
 -1      1853 2.15617E+01 9.99930E-02 1.08032E-03 7.14664E-01-2.75329E-14-1.19889E-13
 -1      1854 2.18275E+01 1.01865E-01 5.84296E-03 7.73195E-01 6.52061E-14-1.09962E-13
 -1      1855 2.12387E+01 1.46621E-01-2.73858E-03 8.54946E-01-1.83731E-14 6.60363E-15
 -1      1856 2.20191E+01 9.73962E-02 8.71982E-04 8.46039E-01 1.63653E-13-1.01863E-13
 -1      1857 2.23238E+01 8.77948E-02 3.93342E-03 8.99065E-01 2.18114E-13 6.42281E-16
 -1      1858 2.15959E+01 1.46423E-01-3.13407E-03 1.01655E+00 1.09451E-13-7.03907E-14
 -1      1859 2.25475E+01 6.97014E-02 5.98590E-04 9.57666E-01 2.08298E-13 3.19634E-14
 -1      1860 2.28781E+01 3.91840E-02-2.96945E-04 9.87717E-01 1.30712E-13 3.66035E-14
 -1      1861 2.20131E+01 1.12381E-01-3.68488E-03 1.16390E+00 2.22243E-13-1.39119E-13
 -1      1862 2.31366E+01-1.72878E-03 4.93423E-04 1.00619E+00 8.84399E-14 1.81622E-13
 -1      1863 2.34644E+01-6.49796E-02-7.55699E-03 9.84768E-01 1.48954E-13 1.91133E-13
 -1      1864 2.24934E+01 1.84916E-02-4.49482E-03 1.25359E+00 1.71946E-13-6.56127E-14
 -1      1865 2.37587E+01-1.38224E-01 8.51354E-04 9.23384E-01 1.73836E-13 1.44450E-13
 -1      1866 2.40342E+01-2.42503E-01-1.76443E-02 8.11721E-01 1.40174E-13 2.43805E-13
 -1      1867 2.30370E+01-1.66088E-01-5.47572E-03 1.21575E+00 1.66649E-13 2.14206E-14
 -1      1868 2.43575E+01-3.49332E-01 1.65303E-03 6.20490E-01 6.26894E-14 2.76777E-13
 -1      1869 2.45105E+01-4.84037E-01-2.80421E-02 3.81246E-01 7.07108E-14 2.92405E-13
 -1      1870 2.36357E+01-4.58883E-01-5.81691E-03 9.54182E-01 1.86354E-13 1.03259E-13
 -1      1871 2.48325E+01-5.99265E-01 1.51930E-03 2.04233E-02 9.86867E-14 2.67667E-13
 -1      1872 2.47867E+01-7.09146E-01-3.25368E-02-3.50070E-01 3.72376E-14 2.76827E-13
 -1      1873 2.42561E+01-8.20492E-01-3.40982E-03 3.69525E-01 9.79598E-14 6.27582E-14
 -1      1874 2.50278E+01-7.57763E-01-3.55943E-03-8.56975E-01 7.30319E-16 3.25533E-13
 -1      1875 2.47386E+01-7.29599E-01-2.31219E-02-1.27460E+00-6.74565E-14 2.87520E-13
 -1      1876 2.48035E+01-1.08634E+00 4.25340E-03-5.68687E-01 1.57279E-14 1.59422E-13
 -1      1877 2.47706E+01-5.96632E-01-1.72350E-02-1.76071E+00-5.15742E-14 3.03885E-13
 -1      1878 2.42842E+01-3.20859E-01 1.58692E-03-2.01871E+00 1.89421E-14 3.72638E-13
 -1      1879 2.50901E+01-9.50653E-01 1.30584E-02-1.67902E+00-1.88963E-14 2.98475E-13
 -1      1880 2.40361E+01 4.32430E-02-3.09910E-02-2.15817E+00 8.85143E-14 3.93009E-13
 -1      1881 2.35250E+01 5.01187E-01 2.28409E-02-2.00730E+00 1.15023E-13 3.78378E-13
 -1      1882 2.49143E+01-1.64861E-01 7.23918E-03-2.43178E+00 8.19466E-14 2.32160E-13
 -1      1883 2.31566E+01 9.19880E-01-3.17175E-02-1.53658E+00-9.31893E-15 3.06106E-13
 -1      1884 2.28652E+01 1.24318E+00 1.11680E-02-9.25296E-01-1.06179E-13 2.71888E-13
 -1      1885 2.43410E+01 1.06537E+00-2.16468E-02-2.12965E+00 2.14065E-15 2.02470E-13
 -1      1886 2.27495E+01 1.36986E+00-5.44957E-03-1.37706E-02-2.40745E-13 2.02067E-13
 -1      1887 2.28316E+01 1.27308E+00-1.90709E-02 7.34528E-01-2.71921E-13 1.30444E-13
 -1      1888 2.38767E+01 1.89985E+00-5.46243E-02-5.71741E-01-1.58214E-13 2.71829E-14
 -1      1889 2.31012E+01 9.80793E-01 2.15996E-02 1.51585E+00-2.95455E-13 4.13150E-14
 -1      1890 2.35165E+01 5.47197E-01-3.44646E-02 1.94451E+00-3.17465E-13 2.82691E-14
 -1      1891 2.40211E+01 1.65325E+00-4.18153E-02 1.36745E+00-3.78437E-13 6.35820E-15
 -1      1892 2.38685E+01 1.11423E-01 1.42037E-02 2.13657E+00-3.50971E-13-6.21031E-15
 -1      1893 2.43974E+01-2.93254E-01-2.73739E-02 2.08443E+00-2.73693E-13-1.20806E-14
 -1      1894 2.46133E+01 5.18259E-01-7.48157E-03 2.42089E+00-3.37615E-13 1.36540E-14
 -1      1895 2.45246E+01-5.62027E-01-1.13924E-02 1.74802E+00-1.62628E-13-2.24577E-14
 -1      1896 2.49370E+01-7.22197E-01-1.09313E-02 1.38808E+00-4.67681E-15-6.91851E-14
 -1      1897 2.50484E+01-5.92333E-01 1.04717E-02 2.19006E+00-2.35793E-13 2.90018E-14
 -1      1898 2.47967E+01-7.61844E-01-2.94066E-02 8.60644E-01 1.20251E-14-1.64530E-13
 -1      1899 2.49772E+01-7.13399E-01-3.65444E-04 4.45231E-01-1.73438E-14-2.05028E-13
 -1      1900 2.50040E+01-1.08154E+00 9.50007E-03 1.19401E+00-8.55184E-14-9.79564E-14
 -1      1901 2.46863E+01-6.23182E-01-3.17313E-02-8.59648E-03 9.15240E-15-3.41363E-13
 -1      1902 2.46350E+01-4.91982E-01 1.92226E-03-3.26115E-01-2.09268E-14-2.52027E-13
 -1      1903 2.45740E+01-1.00003E+00 4.93450E-04 1.15329E-01-6.11672E-14-3.15146E-13
 -1      1904 2.43049E+01-3.74574E-01-2.37299E-02-6.11082E-01-9.74889E-14-1.76636E-13
 -1      1905 2.40868E+01-2.49589E-01 1.30919E-03-7.91670E-01-1.07045E-13-2.67860E-13
 -1      1906 2.39752E+01-6.62428E-01-4.83860E-03-6.75828E-01-1.54260E-14-3.44538E-13
 -1      1907 2.37730E+01-1.56344E-01-1.29698E-02-9.20505E-01 9.22001E-14-2.27387E-13
 -1      1908 2.34649E+01-7.01725E-02 6.01175E-04-9.88062E-01 1.72232E-13-6.96158E-14
 -1      1909 2.33545E+01-3.19554E-01-5.82210E-03-1.11052E+00 1.50019E-14-9.09581E-14
 -1      1910 2.31847E+01-1.18394E-02-3.98117E-03-1.00918E+00 1.45690E-13-2.24888E-13
 -1      1911 2.28485E+01 3.58561E-02 4.99181E-04-1.00413E+00 2.26718E-14-1.59968E-13
 -1      1912 2.27750E+01-7.35025E-02-5.07662E-03-1.26238E+00 1.07183E-13 1.71217E-14
 -1      1913 2.26043E+01 6.57904E-02 1.92674E-03-9.64143E-01 3.50299E-14-2.29148E-14
 -1      1914 2.22801E+01 8.61320E-02 7.65002E-04-9.21206E-01-1.08493E-14 5.93943E-14
 -1      1915 2.22562E+01 6.84475E-02-4.14991E-03-1.23451E+00 1.52538E-13-1.00412E-13
 -1      1916 2.20700E+01 9.76832E-02 5.07184E-03-8.53476E-01-9.97349E-14 1.37864E-13
 -1      1917 2.17795E+01 1.01864E-01 1.10871E-03-7.95907E-01 8.46979E-16 1.15315E-13
 -1      1918 2.18016E+01 1.33483E-01-3.48660E-03-1.11220E+00 3.67629E-14 1.98232E-13
 -1      1919 2.16010E+01 1.03215E-01 6.27828E-03-7.20687E-01 7.74548E-14 1.19289E-13
 -1      1920 2.13527E+01 9.93108E-02 1.37663E-03-6.61672E-01 2.23548E-13 2.18805E-13
 -1      1921 2.14100E+01 1.51666E-01-3.05605E-03-9.52561E-01 7.63419E-14 2.60153E-13
 -1      1922 2.12031E+01 9.58986E-02 6.32503E-03-5.89602E-01 3.21572E-13 7.92197E-14
 -1      1923 2.09980E+01 8.89380E-02 1.54782E-03-5.35382E-01 1.93222E-13 4.88674E-14
 -1      1924 2.10783E+01 1.45562E-01-2.74398E-03-7.88630E-01 1.75547E-13 8.98655E-14
 -1      1925 2.08746E+01 8.40244E-02 5.77854E-03-4.70923E-01 1.14814E-13 1.76914E-13
 -1      1926 2.07096E+01 7.68971E-02 1.66029E-03-4.23480E-01 2.37273E-13 5.02118E-13
 -1      1927 2.08021E+01 1.29573E-01-2.47106E-03-6.36669E-01 2.74309E-13 1.28533E-13
 -1      1928 2.06094E+01 7.23416E-02 4.98284E-03-3.67416E-01 1.59684E-13 4.17575E-13
 -1      1929 2.04803E+01 6.66433E-02 1.74907E-03-3.26291E-01 1.25433E-13 2.98779E-13
 -1      1930 2.05760E+01 1.12131E-01-2.20606E-03-5.02389E-01 1.98827E-13 3.99894E-13
 -1      1931 2.04004E+01 6.34815E-02 4.09986E-03-2.77381E-01-6.63651E-14 3.72613E-13
 -1      1932 2.03030E+01 6.00658E-02 1.81947E-03-2.40811E-01-9.16986E-14 1.98613E-13
 -1      1933 2.03944E+01 9.79513E-02-1.93035E-03-3.85356E-01-2.19972E-14 2.90831E-13
 -1      1934 2.02401E+01 5.86179E-02 3.13627E-03-1.96842E-01 4.77875E-14 9.58252E-14
 -1      1935 2.01712E+01 5.73119E-02 1.80226E-03-1.62651E-01 1.09193E-13 2.13837E-13
 -1      1936 2.02515E+01 8.94739E-02-1.55656E-03-2.81998E-01-1.10975E-13 2.95431E-13
 -1      1937 2.01274E+01 5.56476E-02 2.36698E-03-1.24038E-01 9.50511E-14 2.58595E-13
 -1      1938 2.00821E+01 5.43555E-02 1.88352E-03-9.23155E-02 8.15018E-14 3.81760E-13
 -1      1939 2.00714E+01 7.36446E-02-1.25723E-03-1.09967E-01 4.26663E-15 2.82425E-13
 -1      1940 2.01454E+01 8.28588E-02-1.97259E-03-1.90337E-01 1.65738E-13 2.01885E-13
 -1      1941 1.96028E+01 1.42470E-01 7.91037E-03 2.59384E-01 7.30214E-14 1.93675E-13
 -1      1942 1.98747E+01 2.04419E-01 1.64653E-02 4.32601E-01 9.56561E-14 2.39815E-13
 -1      1943 2.00889E+01 3.50952E-01-1.54505E-03 6.55102E-01 1.12436E-13 1.85985E-13
 -1      1944 1.93620E+01 7.27320E-02 6.99944E-03 5.52190E-02 6.52247E-14 1.34861E-13
 -1      1945 1.94764E+01 1.02459E-01 1.42514E-02 1.44221E-01 5.73300E-14 1.70787E-13
 -1      1946 1.96975E+01 1.66022E-01-1.98026E-03 2.55230E-01 7.78180E-14 1.57326E-13
 -1      1947 1.92748E+01 3.75018E-02 4.51742E-03-5.22692E-02 1.67748E-14 1.06924E-13
 -1      1948 1.93034E+01 5.30990E-02 8.42548E-03-4.20834E-03 3.69414E-14 1.15582E-13
 -1      1949 1.94999E+01 8.21500E-02-2.88131E-03 4.12055E-02 5.78218E-14 9.93676E-14
 -1      1950 1.92789E+01 1.83374E-02 2.99868E-03-1.07977E-01 1.89759E-14 8.52643E-14
 -1      1951 1.92608E+01 2.68960E-02 4.48416E-03-8.19590E-02 2.23401E-14 1.02248E-13
 -1      1952 1.94255E+01 3.98485E-02-2.92707E-03-7.39736E-02 2.10836E-14 6.81831E-14
 -1      1953 1.93358E+01 7.74840E-03 2.18923E-03-1.34924E-01 2.16359E-14 6.01051E-14
 -1      1954 1.92925E+01 1.23874E-02 2.33714E-03-1.21350E-01 3.71309E-14 6.64221E-14
 -1      1955 1.94265E+01 1.72726E-02-2.43753E-03-1.34554E-01 4.48317E-14 3.32627E-14
 -1      1956 1.94223E+01 2.32779E-03 1.73388E-03-1.46151E-01 1.32788E-14 7.85374E-15
 -1      1957 1.93660E+01 4.57161E-03 1.21224E-03-1.39507E-01 9.62105E-15 2.20793E-14
 -1      1958 1.94729E+01 5.35912E-03-1.86960E-03-1.64469E-01 3.24049E-14 4.34564E-15
 -1      1959 1.95254E+01 3.14668E-04 1.46496E-03-1.49825E-01 7.02961E-14-1.68544E-14
 -1      1960 1.94625E+01 1.01075E-03 6.31547E-04-1.46597E-01 4.24597E-14 9.94918E-15
 -1      1961 1.95461E+01-8.01401E-05-1.41552E-03-1.77886E-01 5.01801E-14-1.04170E-14
 -1      1962 1.96385E+01 6.90646E-04 1.32109E-03-1.51443E-01 2.04531E-14 1.65588E-14
 -1      1963 1.95720E+01 3.55820E-04 3.60996E-04-1.49215E-01 4.93921E-14 9.96078E-15
 -1      1964 1.96356E+01-1.23484E-03-1.11017E-03-1.83919E-01 5.97872E-14 2.09113E-15
 -1      1965 1.97596E+01 2.80776E-03 1.27655E-03-1.54894E-01 3.42579E-14 5.20829E-15
 -1      1966 1.96901E+01 1.78407E-03 2.85632E-04-1.51914E-01 4.04560E-14-4.30789E-15
 -1      1967 1.97363E+01 6.13450E-04-9.37079E-04-1.88799E-01 5.30878E-14 1.45484E-14
 -1      1968 1.98896E+01 6.20562E-03 1.31361E-03-1.62998E-01 1.11953E-14-1.04959E-14
 -1      1969 1.98162E+01 4.74253E-03 3.39749E-04-1.57955E-01 1.41975E-14-1.98775E-14
 -1      1970 1.98466E+01 4.63174E-03-8.72221E-04-1.96956E-01 1.83172E-14-4.56048E-14
 -1      1971 2.00322E+01 1.04939E-02 1.41249E-03-1.77761E-01 8.33429E-14-7.46493E-14
 -1      1972 1.99525E+01 8.80312E-03 4.77656E-04-1.69683E-01 3.83617E-14-4.28418E-14
 -1      1973 1.99679E+01 1.01970E-02-8.94505E-04-2.11568E-01 6.70593E-14-6.18965E-14
 -1      1974 2.01920E+01 1.52508E-02 1.54534E-03-2.00433E-01-5.08220E-15-7.25869E-14
 -1      1975 2.01032E+01 1.35531E-02 6.60528E-04-1.88672E-01 1.49691E-14-6.25004E-14
 -1      1976 2.01031E+01 1.67313E-02-9.85962E-04-2.34787E-01 4.60734E-14-7.72130E-14
 -1      1977 2.03746E+01 1.99131E-02 1.67001E-03-2.31371E-01 8.65605E-15-3.68375E-14
 -1      1978 2.02734E+01 1.84868E-02 8.48570E-04-2.15674E-01-1.71690E-14-7.14600E-14
 -1      1979 2.02565E+01 2.35487E-02-1.12947E-03-2.67718E-01 4.20323E-15-8.85642E-14
 -1      1980 2.05852E+01 2.36431E-02 1.72311E-03-2.69696E-01 8.44859E-14-6.49786E-14
 -1      1981 2.04686E+01 2.28801E-02 9.94865E-04-2.50380E-01 8.10839E-14-9.04837E-15
 -1      1982 2.04326E+01 2.96835E-02-1.30563E-03-3.10167E-01 6.28326E-14-1.14880E-13
 -1      1983 2.08278E+01 2.51730E-02 1.61381E-03-3.12705E-01 1.23204E-13-1.35833E-13
 -1      1984 2.06938E+01 2.56394E-02 1.04053E-03-2.90949E-01 8.48463E-14-7.29209E-14
 -1      1985 2.06356E+01 3.36862E-02-1.48883E-03-3.60101E-01 1.07899E-13-1.09137E-13
 -1      1986 2.11030E+01 2.26462E-02 1.22307E-03-3.55019E-01 2.24202E-14-1.05308E-13
 -1      1987 2.09514E+01 2.51354E-02 9.12685E-04-3.33297E-01 9.35418E-14-1.11803E-13
 -1      1988 2.08680E+01 3.33978E-02-1.64160E-03-4.12829E-01 1.02585E-13-1.91922E-13
 -1      1989 2.14060E+01 1.35288E-02 4.17221E-04-3.87512E-01-5.98638E-14-1.96225E-13
 -1      1990 2.12404E+01 1.90670E-02 5.28580E-04-3.70148E-01-5.02961E-14-1.91481E-13
 -1      1991 2.11294E+01 2.57629E-02-1.70603E-03-4.59889E-01-7.61977E-16-1.46598E-13
 -1      1992 2.17242E+01-5.23340E-03-9.10079E-04-3.96295E-01-5.06067E-14-9.86902E-14
 -1      1993 2.15529E+01 4.48246E-03-1.89178E-04-3.90008E-01-5.61203E-14-1.30390E-13
 -1      1994 2.14142E+01 6.84549E-03-1.59121E-03-4.87832E-01-6.39648E-14-1.24925E-13
 -1      1995 2.20338E+01-3.64814E-02-2.75243E-03-3.62382E-01-4.56505E-14-1.80789E-14
 -1      1996 2.18721E+01-2.17795E-02-1.28199E-03-3.76518E-01-7.02257E-14-8.79238E-14
 -1      1997 2.17100E+01-2.76070E-02-1.15880E-03-4.77378E-01-6.92826E-14-5.47774E-14
 -1      1998 2.22975E+01-8.10454E-02-4.86183E-03-2.63389E-01 1.14538E-13 4.09950E-14
 -1      1999 2.21688E+01-6.17871E-02-2.70747E-03-3.09146E-01 4.16936E-14 3.38080E-14
 -1      2000 2.19946E+01-8.04796E-02-2.18075E-04-4.04041E-01 2.23825E-14 4.22817E-15
 -1      2001 2.24653E+01-1.34511E-01-6.62895E-03-7.93548E-02-9.84035E-14 6.87319E-14
 -1      2002 2.23996E+01-1.13861E-01-4.28801E-03-1.66935E-01 4.54224E-14 2.70860E-14
 -1      2003 2.22344E+01-1.49837E-01 1.43863E-03-2.42117E-01 1.37607E-14 7.33521E-14
 -1      2004 2.24788E+01-1.83056E-01-7.10358E-03 1.95105E-01-1.96412E-13 8.22489E-14
 -1      2005 2.25087E+01-1.68542E-01-5.67825E-03 6.25643E-02-1.88672E-13 4.46034E-14
 -1      2006 2.23843E+01-2.23648E-01 3.90511E-03 2.54170E-02-1.78252E-13 4.37207E-14
 -1      2007 2.22857E+01-2.01188E-01-5.38348E-03 5.32480E-01-9.87812E-14 1.72942E-13
 -1      2008 2.24365E+01-2.04819E-01-6.35052E-03 3.68096E-01-1.37619E-13 1.09615E-13
 -1      2009 2.23921E+01-2.74860E-01 6.88648E-03 3.89470E-01-1.66925E-13 1.05765E-13
 -1      2010 2.18642E+01-1.57528E-01-1.53942E-03 8.55232E-01 7.57337E-15 2.94221E-13
 -1      2011 2.21389E+01-1.91548E-01-5.73320E-03 6.96791E-01-1.31987E-13 2.64946E-13
 -1      2012 2.22117E+01-2.62745E-01 9.33119E-03 7.93041E-01-1.45450E-13 1.54627E-13
 -1      2013 2.12561E+01-3.42980E-02 2.60827E-03 1.03858E+00 1.71995E-13 4.36012E-13
 -1      2014 2.16207E+01-1.00959E-01-3.30538E-03 9.46630E-01 1.60511E-13 4.36397E-13
 -1      2015 2.18306E+01-1.50025E-01 9.24559E-03 1.11886E+00 8.79670E-14 3.45775E-13
 -1      2016 2.05911E+01 1.44904E-01 4.01136E-03 9.55959E-01 4.91916E-14 3.40339E-13
 -1      2017 2.09685E+01 6.42282E-02 9.28467E-04 9.90386E-01 7.54678E-14 4.21215E-13
 -1      2018 2.13049E+01 6.38063E-02 4.89496E-03 1.21178E+00 1.31102E-13 4.64807E-13
 -1      2019 2.00716E+01 3.06632E-01 1.14634E-03 5.62512E-01 1.15791E-13 2.67157E-13
 -1      2020 2.03561E+01 2.49724E-01 6.03344E-03 7.42219E-01 9.75843E-14 3.67277E-13
 -1      2021 2.07787E+01 3.14427E-01-2.97526E-03 9.54435E-01 1.30389E-13 4.21690E-13
 -1      2022 1.98949E+01 3.63346E-01-3.15404E-03-3.69742E-02 5.08048E-14 2.70626E-13
 -1      2023 1.99913E+01 3.64205E-01 1.04178E-02 2.35533E-01 1.45951E-13 2.83720E-13
 -1      2024 2.04467E+01 4.85633E-01-9.95410E-03 3.65683E-01 1.74099E-13 4.33637E-13
 -1      2025 2.01381E+01 2.83884E-01-4.29266E-03-6.22491E-01-1.29111E-13-2.36963E-15
 -1      2026 2.00090E+01 3.44001E-01 1.20086E-02-3.58321E-01-3.00922E-14 1.16617E-13
 -1      2027 2.04518E+01 4.87688E-01-9.68997E-03-3.59844E-01 4.21295E-14 3.86875E-13
 -1      2028 2.07088E+01 1.12904E-01-1.46401E-03-9.80706E-01 1.28880E-13-2.11175E-13
 -1      2029 2.03970E+01 2.00584E-01 9.35137E-03-8.19187E-01-3.98501E-14-1.82385E-13
 -1      2030 2.07914E+01 3.18078E-01-3.25457E-03-9.49952E-01 4.52520E-14-1.26791E-14
 -1      2031 2.13954E+01-5.88495E-02 2.81650E-03-1.02555E+00-8.29198E-15-1.91819E-13
 -1      2032 2.10037E+01 1.41760E-02 3.24343E-03-1.00074E+00 6.49441E-14-2.53740E-13
 -1      2033 2.13168E+01 6.47117E-02 2.29707E-03-1.20829E+00 7.21857E-14-1.28214E-13
 -1      2034 2.19916E+01-1.66767E-01 5.68332E-03-8.16933E-01-6.47334E-14-7.53529E-14
 -1      2035 2.16300E+01-1.31057E-01-3.15702E-03-9.01096E-01-9.12399E-14-1.70232E-13
 -1      2036 2.18346E+01-1.53220E-01 4.21782E-03-1.11565E+00-8.98309E-14-2.11319E-13
 -1      2037 2.23749E+01-1.97186E-01 6.00925E-03-4.85420E-01 2.25206E-13 6.17351E-14
 -1      2038 2.21188E+01-1.97411E-01-7.37061E-03-6.22453E-01 1.44739E-13 1.11624E-13
 -1      2039 2.22053E+01-2.69231E-01 3.10635E-03-7.89611E-01 3.61152E-14-8.31366E-16
 -1      2040 2.25176E+01-1.72307E-01 4.40336E-03-1.51581E-01 2.25675E-13-9.05311E-14
 -1      2041 2.23943E+01-1.94053E-01-8.74564E-03-2.90808E-01 2.23863E-13 4.75774E-14
 -1      2042 2.23763E+01-2.82450E-01 1.12203E-03-3.85220E-01 2.49667E-13 4.37324E-13
 -1      2043 2.24552E+01-1.22752E-01 2.26373E-03 1.13398E-01-1.80094E-13-2.44495E-13
 -1      2044 2.24535E+01-1.51212E-01-7.90328E-03 1.85113E-03 6.11863E-14-1.90252E-13
 -1      2045 2.23613E+01-2.30201E-01-2.33388E-04-1.99463E-02 1.21558E-13 2.23909E-13
 -1      2046 2.22484E+01-7.14247E-02 4.84117E-04 2.86860E-01-2.26564E-14-1.15317E-13
 -1      2047 2.23377E+01-9.71059E-02-5.87431E-03 2.12757E-01-1.61255E-13-1.75721E-13
 -1      2048 2.22059E+01-1.54202E-01-7.33631E-04 2.48817E-01-1.44515E-13 1.40209E-13
 -1      2049 2.19582E+01-2.99202E-02-6.22627E-04 3.76712E-01-1.15386E-13 9.43616E-14
 -1      2050 2.21036E+01-4.88948E-02-3.57522E-03 3.37124E-01-1.39896E-13-3.29038E-14
 -1      2051 2.19620E+01-8.24330E-02-7.13898E-04 4.11551E-01-1.93476E-13 9.95376E-14
 -1      2052 2.16340E+01-1.28099E-03-1.11003E-03 4.03569E-01 5.85849E-16 3.31595E-13
 -1      2053 2.18055E+01-1.32635E-02-1.55715E-03 3.90230E-01 3.97684E-14 3.54415E-13
 -1      2054 2.16744E+01-2.74426E-02-5.34083E-04 4.84965E-01-1.07919E-13 2.97098E-13
 -1      2055 2.13108E+01 1.59514E-02-1.16903E-03 3.89237E-01 1.88465E-13 2.16194E-13
 -1      2056 2.14862E+01 9.59501E-03-3.88228E-05 3.93270E-01 7.63961E-14 2.29970E-13
 -1      2057 2.13770E+01 8.84074E-03-3.84027E-04 4.94348E-01 1.32195E-13 3.51794E-13
 -1      2058 2.10105E+01 2.48125E-02-9.84199E-04 3.51453E-01-1.01499E-13 1.39856E-13
 -1      2059 2.11754E+01 2.23146E-02 9.68815E-04 3.65576E-01 1.76239E-13 1.41596E-13
 -1      2060 2.10924E+01 2.96183E-02-3.11763E-04 4.63520E-01 1.55507E-13 3.23868E-13
 -1      2061 2.07450E+01 2.84327E-02-6.81814E-04 3.02485E-01 2.49517E-14 6.16015E-14
 -1      2062 2.08916E+01 2.81851E-02 1.55427E-03 3.21643E-01-1.11496E-13 1.26122E-13
 -1      2063 2.08343E+01 3.95896E-02-3.03778E-04 4.10788E-01-1.81385E-14 2.88532E-13
 -1      2064 2.05200E+01 2.94706E-02-3.38241E-04 2.49493E-01 2.03957E-14 6.44239E-14
 -1      2065 2.06443E+01 3.02023E-02 1.83425E-03 2.70767E-01-1.99847E-14 9.07765E-14
 -1      2066 2.06099E+01 4.32205E-02-3.37906E-04 3.48222E-01-8.48768E-15 1.74967E-13
 -1      2067 2.03370E+01 2.99446E-02-2.72765E-05 1.95524E-01 2.07401E-13 1.22515E-13
 -1      2068 2.04375E+01 3.07634E-02 1.90224E-03 2.17770E-01 8.23690E-14 3.05057E-14
 -1      2069 2.04218E+01 4.41530E-02-4.01421E-04 2.82412E-01 1.02144E-13 3.41718E-13
 -1      2070 2.01957E+01 3.11198E-02 1.55697E-04 1.40904E-01-1.41108E-13 1.67199E-13
 -1      2071 2.02722E+01 3.14891E-02 1.77942E-03 1.64189E-01 5.87492E-14 1.88635E-13
 -1      2072 2.02700E+01 4.48581E-02-5.34110E-04 2.15837E-01 7.65367E-14 3.40003E-13
 -1      2073 2.00955E+01 3.33016E-02 6.48835E-04 8.52056E-02-1.83091E-13 1.65950E-13
 -1      2074 2.01472E+01 3.28689E-02 1.40166E-03 1.09810E-01-2.28913E-13 2.38111E-13
 -1      2075 2.01531E+01 4.67310E-02-6.14090E-04 1.48769E-01-2.26257E-13 4.55583E-13
 -1      2076 2.00412E+01 3.33830E-02 1.20343E-03 4.39544E-02 1.34219E-14 3.55172E-13
 -1      2077 2.00725E+01 3.53396E-02 1.01633E-03 6.77928E-02-1.07995E-13 2.08756E-13
 -1      2078 2.00803E+01 4.96795E-02-5.82423E-04 9.55366E-02-1.70169E-13 2.91860E-13
 -1      2079 2.00400E+01 4.92207E-02 5.80021E-05 5.72633E-02-1.32209E-14 5.73694E-13
 -1      2080 2.00058E+01 3.10566E-01-5.68981E-04 1.73595E-01 1.33213E-14-3.07584E-13
 -1      2081 2.00165E+01 2.54846E-01 1.06325E-03 1.67164E-01 4.45681E-14 2.57026E-14
 -1      2082 2.00264E+01 2.03739E-01-2.56485E-05 1.53013E-01 2.75559E-13 3.01353E-13
 -1      2083 2.00358E+01 1.54681E-01 1.29025E-03 1.34783E-01 3.19170E-13 3.74183E-13
 -1      2084 2.00320E+01 2.32505E-01-2.03445E-04 2.06050E-01-7.94847E-14 4.82307E-15
 -1      2085 2.00380E+01 1.18077E-01 3.51244E-04 1.10317E-01 2.14580E-13 2.42546E-13
 -1      2086 2.00427E+01 8.01148E-02 1.11747E-03 8.53576E-02-1.16160E-14 3.50034E-13
 -1      2087 2.00608E+01 8.16084E-02 7.18501E-04 1.05727E-01-7.57865E-14 4.43434E-13
 -1      2088 2.00516E+01 1.46950E-01-5.50703E-04 1.62064E-01 1.55026E-13 4.18841E-13
 -1      2089 1.99861E+01 4.15620E-01-1.19597E-03 1.68610E-01-3.18134E-14-5.05381E-13
 -1      2090 1.99961E+01 3.61083E-01 3.42619E-04 1.73581E-01-5.12451E-14-2.68574E-13
 -1      2091 2.00018E+01 3.33467E-01 3.04825E-04 2.21173E-01-2.34696E-13-3.11181E-13
 -1      2092 1.99688E+01 5.09716E-01-1.76723E-03 1.39330E-01 5.84665E-14-3.19639E-13
 -1      2093 1.99773E+01 4.62203E-01-4.34104E-04 1.54725E-01 1.13912E-13-2.98173E-13
 -1      2094 1.99732E+01 4.30483E-01 8.76614E-04 2.05290E-01 6.43350E-14-2.72852E-13
 -1      2095 1.99560E+01 5.78784E-01-2.14131E-03 9.00170E-02-1.92552E-14-3.76495E-14
 -1      2096 1.99620E+01 5.45979E-01-1.16264E-03 1.13503E-01 1.65910E-13-1.56172E-13
 -1      2097 1.99491E+01 5.13419E-01 1.44564E-03 1.60424E-01 2.81283E-13-2.02672E-13
 -1      2098 1.99491E+01 6.13532E-01-2.24213E-03 2.73314E-02-7.51130E-15 1.93517E-13
 -1      2099 1.99519E+01 6.00222E-01-1.72809E-03 5.57215E-02-1.56779E-13 1.32810E-13
 -1      2100 1.99323E+01 5.71260E-01 1.88396E-03 9.26760E-02 4.31832E-14-9.75749E-15
 -1      2101 1.99491E+01 6.08815E-01-2.02680E-03-4.03239E-02-2.87545E-13-8.16589E-15
 -1      2102 1.99482E+01 6.17164E-01-2.06261E-03-1.09056E-02-1.31475E-13 3.86197E-13
 -1      2103 1.99245E+01 5.96386E-01 2.11201E-03 1.09476E-02-1.50832E-13 2.08361E-13
 -1      2104 1.99566E+01 5.64607E-01-1.50723E-03-1.03468E-01-3.23784E-13-1.98373E-13
 -1      2105 1.99518E+01 5.93784E-01-2.11541E-03-7.72690E-02-4.24221E-13-9.94530E-14
 -1      2106 1.99273E+01 5.84930E-01 2.08157E-03-7.38195E-02-3.47682E-13-2.16523E-13
 -1      2107 1.99709E+01 4.87956E-01-7.06517E-04-1.51857E-01-2.32705E-13-3.86377E-13
 -1      2108 1.99626E+01 5.33057E-01-1.91700E-03-1.33245E-01-2.52306E-13-2.06001E-13
 -1      2109 1.99410E+01 5.38112E-01 1.81996E-03-1.49143E-01-2.56285E-13-2.10997E-13
 -1      2110 1.99913E+01 3.86319E-01 2.34792E-04-1.78732E-01-1.10486E-13 4.10118E-13
 -1      2111 1.99801E+01 4.42471E-01-1.48293E-03-1.70620E-01-1.12556E-13-1.59426E-13
 -1      2112 1.99644E+01 4.61061E-01 1.26995E-03-2.04192E-01-4.76590E-14-1.51429E-13
 -1      2113 2.00151E+01 2.74606E-01 1.10007E-03-1.77024E-01 1.12019E-14 3.72876E-13
 -1      2114 2.00025E+01 3.32841E-01-9.05975E-04-1.82085E-01-6.80541E-14 4.86431E-13
 -1      2115 1.99959E+01 3.62178E-01 5.61377E-04-2.29657E-01 4.90477E-14 4.42730E-13
 -1      2116 2.00376E+01 1.64549E-01 4.52979E-04-1.45064E-01-1.81493E-13 1.60634E-14
 -1      2117 2.00266E+01 2.19359E-01-3.12502E-04-1.63515E-01-1.08832E-13 1.39738E-13
 -1      2118 2.00312E+01 2.54621E-01 4.46888E-05-2.19050E-01 9.26738E-15 2.17569E-13
 -1      2119 1.11482E+01-4.83741E+00-1.46142E-01 6.59871E+00-2.06168E-13 3.93185E-13
 -1      2120 7.58399E+00-6.30308E+00-3.29386E-01 5.63311E+00-3.07754E-13 3.53301E-13
 -1      2121 5.13447E-01-6.46356E+00-2.97907E-01 1.15520E+00-3.40145E-13 2.78999E-13
 -1      2122 4.06454E-01-6.85004E+00-3.54832E-01-5.29958E-01-6.39239E-13 1.45162E-13
 -1      2123 4.47988E+00-5.67551E+00-1.64891E-01 4.87210E+00-2.29150E-13 5.33434E-13
 -1      2124 2.17419E+00-6.48478E+00-2.98817E-01 3.18604E+00-2.53686E-13 4.15001E-13
 -1      2125 1.98512E+01-3.01189E+00 4.59261E-03 6.92235E+00 6.00076E-14 6.88338E-14
 -1      2126 1.52872E+01-4.80066E+00-2.83118E-01 6.28987E+00-8.80962E-14 1.93401E-13
 -1      2127 2.79819E+01-9.46806E-01 2.86132E-02 5.11468E+00 1.61399E-13 3.97071E-13
 -1      2128 2.32343E+01-2.33397E+00-1.32162E-01 5.66150E+00 1.18239E-13 2.85494E-13
 -1      2129 2.36753E+01-4.32305E+00 9.67832E-02 5.33770E+00-1.45384E-13 1.37779E-13
 -1      2130 1.95265E+01 4.01698E+00-2.56562E-02-1.70101E+00-1.04881E-13-1.08552E-13
 -1      2131 1.96523E+01 3.94291E+00-2.43325E-02-1.95625E+00-1.07911E-13-7.58213E-14
 -1      2132 1.99728E+01 3.25371E+00-8.03808E-03-1.90906E+00-1.12346E-13-5.20087E-14
 -1      2133 1.96984E+01 3.58486E+00-9.26985E-03-1.51713E+00-1.04104E-13-1.05497E-13
 -1      2134 3.74370E+01 6.19933E+00 1.27753E-01 7.88119E-01 1.63591E-13 4.04760E-13
 -1      2135 3.64379E+01 5.06893E+00 2.04430E-01 2.17293E+00 2.21406E-13 3.75588E-13
 -1      2136 4.07026E+01 7.29055E+00 4.75101E-01-3.41544E-01 2.56239E-13 3.75838E-13
 -1      2137 3.86048E+01 7.44609E+00 2.09237E-01 6.58814E-01 2.33369E-13 4.11282E-13
 -1      2138 3.77763E+01 6.10919E+00 1.67152E-01-1.73328E+00 3.85081E-13 3.60656E-13
 -1      2139 4.03263E+01 6.77353E+00 4.25637E-01-9.57119E-01 2.80886E-13 3.82111E-13
 -1      2140 3.59594E+01 8.03968E+00 3.39340E-01 3.74952E-02 2.99816E-13 3.54286E-13
 -1      2141 3.33531E+01 3.05823E+00 8.54027E-02-2.83505E+00 3.12167E-13 4.83669E-13
 -1      2142 3.69222E+01 4.74763E+00 3.79076E-01-2.52658E+00 4.02400E-13 5.11924E-13
 -1      2143 2.66749E+01-3.70682E-01-1.32961E-02-5.45095E+00-7.40519E-14 2.07279E-13
 -1      2144 3.07680E+01 8.01051E-01 9.47707E-02-4.40482E+00 9.73388E-14 4.37372E-13
 -1      2145 1.91256E+01-3.55023E+00-2.05408E-01-6.17763E+00-2.13884E-13-4.20775E-14
 -1      2146 2.36730E+01-1.46543E+00 1.04455E-01-6.66624E+00-7.97695E-14 1.01696E-13
 -1      2147 2.64416E+01-2.66206E+00 1.12223E-01-4.55820E+00-2.31121E-13 3.89910E-13
 -1      2148 1.10158E+01-5.78272E+00-2.94098E-01-6.18322E+00-4.05898E-13-2.82635E-13
 -1      2149 1.53359E+01-4.15025E+00-3.48623E-02-7.04798E+00-3.43170E-13-3.14304E-13
 -1      2150 3.97831E+00-6.86721E+00-4.01337E-01-4.38117E+00-2.70672E-13-9.19542E-14
 -1      2151 7.01220E+00-5.53520E+00-1.80287E-01-5.85483E+00-2.33369E-13-2.75890E-13
 -1      2152 2.78298E-01-7.70216E+00-4.85234E-01-1.31778E+00-3.57436E-13-3.07532E-14
 -1      2153 1.41124E+00-6.82732E+00-3.53474E-01-2.86079E+00-3.00981E-13-1.83742E-14
 -1      2154 9.65415E-01-6.65185E+00-3.34008E-01 1.97444E+00-2.99871E-13-2.64622E-13
 -1      2155 1.56957E-01-7.51970E+00-4.66722E-01 3.04375E-01-3.13524E-13-7.59948E-14
 -1      2156 6.28372E+00-6.09720E+00-2.43721E-01 5.18107E+00-2.97762E-13-9.48325E-13
 -1      2157 3.62820E+00-6.78923E+00-3.27095E-01 3.89986E+00-1.42941E-13-6.27998E-13
 -1      2158 1.34381E+01-4.60856E+00-1.51775E-01 6.54538E+00-6.30385E-13-1.08885E-12
 -1      2159 9.22016E+00-6.38235E+00-4.35310E-01 5.42816E+00-3.75366E-13-1.07371E-12
 -1      2160 2.31929E+01-3.00569E+00-5.75735E-02 6.01193E+00-7.71161E-13-9.30589E-13
 -1      2161 1.75840E+01-4.37912E+00-3.02882E-01 5.94603E+00-6.80456E-13-1.00348E-12
 -1      2162 3.25294E+01 8.58142E-01 2.49184E-01 4.06964E+00-8.44491E-13-9.74554E-13
 -1      2163 2.79472E+01-1.35810E+00-4.36001E-02 4.14465E+00-7.47902E-13-9.75608E-13
 -1      2164 3.63643E+01 3.98769E+00 8.46836E-02 1.03809E+00-6.35714E-13-1.02363E-12
 -1      2165 3.42967E+01 2.50446E+00 1.19843E-01 2.53111E+00-8.26283E-13-9.65339E-13
 -1      2166 3.25590E+01 5.61364E-01 1.60043E-01 6.45200E-01-6.77194E-13-6.86617E-13
 -1      2167 4.11449E+01 7.06815E+00 5.27557E-01 4.12801E-01-5.35461E-13-8.04135E-13
 -1      2168 3.77690E+01 6.40790E+00 1.60186E-01 7.89657E-01-6.20504E-13-9.56124E-13
 -1      2169 4.00072E+01 6.96097E+00 2.66438E-01-8.62932E-01-6.74072E-13-5.54418E-13
 -1      2170 4.11433E+01 7.07402E+00 3.61835E-01 1.31571E-01-5.55223E-13-6.86593E-13
 -1      2171 3.61541E+01 8.02013E+00 3.17526E-01-1.62801E-01-6.56697E-13-5.38500E-13
 -1      2172 3.67881E+01 4.36586E+00 1.24798E-01-2.08019E+00-5.45480E-13-6.62970E-13
 -1      2173 3.91734E+01 5.58442E+00 2.80244E-01-1.07001E+00-6.01075E-13-7.19980E-13
 -1      2174 3.17157E+01 1.19319E+00-3.99244E-03-3.55515E+00-5.11244E-13-3.82139E-13
 -1      2175 3.59921E+01 2.84576E+00 2.87245E-01-3.16953E+00-5.03302E-13-6.52589E-13
 -1      2176 3.44391E+01 3.26408E+00 2.49830E-01 1.52831E-01-4.51916E-13-8.18290E-13
 -1      2177 2.31880E+01-2.76376E+00-1.88346E-01-5.39021E+00-4.14502E-13-3.51386E-14
 -1      2178 2.85654E+01-6.61133E-01 1.58719E-01-5.51607E+00-3.67262E-13-2.00284E-13
 -1      2179 1.44886E+01-5.62832E+00-2.68933E-01-6.02609E+00-6.09401E-13 2.56184E-13
 -1      2180 1.94517E+01-3.93978E+00 9.77543E-03-6.68553E+00-5.25469E-13 9.82547E-14
 -1      2181 6.12012E+00-6.81852E+00-3.98866E-01-4.86108E+00-7.28639E-13 4.43479E-13
 -1      2182 9.80045E+00-5.41722E+00-1.54013E-01-6.21410E+00-6.98774E-13 4.20171E-13
 -1      2183 1.31682E+00-7.20234E+00-4.08825E-01-2.28512E+00-7.67969E-13 1.22236E-13
 -1      2184 3.12653E+00-6.47624E+00-2.92341E-01-3.76755E+00-8.05300E-13 3.15303E-13
 -1      2185 3.52181E+01 3.33001E+00 2.66736E-01 3.16485E+00 2.18617E-13 3.54161E-13
 -1      2186 3.10117E+01 1.48678E+00-2.65335E-02 3.25392E+00 2.15921E-13 2.89102E-13
 -1      2187 3.34875E+01 3.87451E+00 2.14798E-01 1.84784E-01 1.52156E-13 2.90157E-13
 -1      2188 2.07217E+01 1.10873E+00-2.05381E-02-1.61681E+00-1.13201E-13 1.74694E-13
 -1      2189 2.98879E+01-9.62449E-01 1.15954E-01 2.46144E+00 7.81042E-14 1.62037E-13
 -1      2190 2.06155E+01 1.32956E+00-1.88528E-02-1.67798E+00-1.20447E-13 9.26880E-14
 -1      2191 7.95562E+00-5.13673E+00-1.15503E-01 6.09546E+00-3.05811E-13 4.16583E-13
 -1      2192 2.87867E+00-4.20618E+00-9.73841E-02 2.70976E+00-2.15744E-13 5.50726E-13
 -1      2193 2.00489E+01 1.35168E-01 8.15771E-04-1.37951E-01-8.13044E-14 1.06116E-13
 -1      2194 1.59372E+01-5.40169E+00-3.33688E-02 6.97223E+00-3.34399E-13 2.60084E-13
 -1      2195 2.21360E+00-4.60054E+00-1.67020E-01-1.83042E+00-3.76324E-13 2.60403E-13
 -1      2196 6.56315E+00-5.26445E+00-1.25247E-01-5.34480E+00-4.90830E-13 2.37976E-13
 -1      2197 1.47615E+01-5.72064E+00-1.01700E-02-6.67525E+00-4.00624E-13 1.15123E-13
 -1      2198 3.09194E+01-1.08001E+00 1.53748E-01-2.35656E+00-3.45390E-13-5.19640E-13
 -1      2199 3.59728E+01 6.70679E+00 2.81873E-01 5.38844E-01-6.02740E-13-6.43097E-13
 -1      2200 3.55001E+01 4.94526E+00 8.00417E-02-1.71530E-01-6.34215E-13-9.07052E-13
 -1      2201 3.26553E+01 3.68086E+00 4.80489E-02-1.32862E+00-6.76070E-13-6.93556E-13
 -1      2202 3.29615E+01 5.73108E+00-1.94874E-01-1.35462E+00-6.71352E-13-5.46341E-13
 -1      2203 2.66969E+01-3.10918E+00 2.84397E-02 4.34836E+00-5.78815E-13-7.83207E-13
 -1      2204 2.51910E+01-4.53130E+00 1.32297E-01 4.30077E+00-4.03483E-13-5.59053E-13
 -1      2205 2.87085E+01-3.41975E+00-2.19004E-01 2.14500E+00-3.84984E-13-5.62772E-13
 -1      2206 1.79456E+01-5.45821E+00-3.92319E-02 6.38972E+00-3.19078E-13-8.49251E-13
 -1      2207 1.00500E+01-5.79651E+00-1.80801E-01 6.28670E+00-1.18072E-13-1.03487E-12
 -1      2208 3.85822E+00-4.97851E+00-1.34973E-01 3.70301E+00-1.78191E-13-4.26659E-13
 -1      2209 1.32147E+00-4.96234E+00-2.27664E-01-5.91538E-01-3.05464E-13-1.83187E-15
 -1      2210 4.17511E+00-5.10067E+00-1.61117E-01-4.52455E+00-3.35121E-13-1.06914E-13
 -1      2211 1.94372E+01-4.94370E+00 2.27960E-04-6.44270E+00-3.96738E-13-7.92422E-14
 -1      2212 3.48263E+01 5.48727E+00 2.28707E-01-1.10206E-01 3.74534E-13 3.61489E-13
 -1      2213 3.61638E+01 7.03996E+00 2.17055E-01 1.58578E-01 2.49800E-13 3.42781E-13
 -1      2214 3.25764E+01 6.31542E+00 1.65123E-02-6.79064E-01 1.79634E-13 2.63234E-13
 -1      2215 3.29859E+01 7.52533E+00-7.17424E-02-5.34507E-01 2.64677E-13 3.30985E-13
 -1      2216 3.18923E+01 1.22971E+00 1.10144E-01-2.44146E+00 2.12268E-13 3.98126E-13
 -1      2217 3.16119E+01 1.52674E+00-9.69781E-02-1.43404E-01 2.33105E-13 2.42750E-13
 -1      2218 2.99431E+01-6.08024E-01 7.59640E-02-1.76446E+00 9.97015E-14 3.12472E-13
 -1      2219 1.11924E+01-5.40433E+00-5.53986E-02-6.79902E+00-3.93852E-13-1.87156E-13
 -1      2220 2.34695E+01-4.87173E+00-1.78423E-02-5.18616E+00-3.05422E-13-2.01311E-13
 -1      2221 2.01377E+01 5.07543E-01 3.80285E-03 6.77430E-01 1.07274E-13 1.30536E-13
 -1      2222 2.04051E+01 7.00699E-01 2.08053E-02 9.69486E-01 1.15092E-13 1.44576E-13
 -1      2223 1.95715E+01 3.52172E+00-1.11705E-02-5.90456E-01-3.61231E-14-9.37332E-14
 -1      2224 1.96061E+01 3.47538E+00-1.05220E-02-7.74679E-01-6.50152E-14-9.38997E-14
 -1      2225 1.96516E+01 3.38650E+00-1.28444E-02-9.39140E-01-6.61219E-14-9.86112E-14
 -1      2226 1.97110E+01 3.30536E+00-1.28722E-02-1.12839E+00-7.68894E-14-1.01983E-13
 -1      2227 1.97968E+01 3.03952E+00 2.37708E-04-7.90460E-01-5.11619E-14-8.42416E-14
 -1      2228 1.95253E+01 3.60524E+00-9.64743E-03 9.93621E-02 1.64182E-14-1.03009E-13
 -1      2229 1.95247E+01 3.60606E+00-9.65451E-03-7.98426E-02 4.12565E-15-1.04085E-13
 -1      2230 1.95508E+01 3.56539E+00-9.73526E-03 4.44849E-01 4.41761E-14-1.06996E-13
 -1      2231 1.95338E+01 3.58820E+00-1.01766E-02 2.64249E-01 3.22585E-14-1.07831E-13
 -1      2232 1.96912E+01 3.22962E+00-8.28753E-04 1.69189E-01 1.95177E-14-9.25718E-14
 -1      2233 1.96111E+01 3.46788E+00-1.06104E-02 7.88485E-01 6.70251E-14-1.07421E-13
 -1      2234 1.95757E+01 3.51532E+00-1.12490E-02 6.07174E-01 4.91638E-14-1.14020E-13
 -1      2235 1.97272E+01 3.16537E+00-4.37108E-04 4.86877E-01 4.32578E-14-9.95549E-14
 -1      2236 1.97192E+01 3.29279E+00-1.29388E-02 1.14180E+00 9.89006E-14-7.92985E-14
 -1      2237 1.96580E+01 3.37668E+00-1.29119E-02 9.52526E-01 8.00989E-14-9.22448E-14
 -1      2238 1.98025E+01 3.03040E+00 3.18658E-04 8.02130E-01 6.36820E-14-8.72375E-14
 -1      2239 1.98945E+01 3.00576E+00-1.81482E-02 1.48913E+00 1.32165E-13-4.43152E-14
 -1      2240 1.97971E+01 3.14762E+00-1.52039E-02 1.29860E+00 1.14296E-13-6.58510E-14
 -1      2241 1.99289E+01 2.80359E+00 1.99126E-03 1.10837E+00 1.02765E-13-5.79085E-14
 -1      2242 2.01676E+01 2.54491E+00-2.83942E-02 1.79401E+00 1.46271E-13 1.07605E-14
 -1      2243 2.00192E+01 2.78478E+00-1.70943E-02 1.61934E+00 1.37018E-13-2.32592E-14
 -1      2244 2.01194E+01 2.45125E+00 5.86005E-03 1.37457E+00 1.26587E-13-2.03839E-14
 -1      2245 1.98626E+01 2.70335E-01 4.83959E-03 2.83129E-01 8.55154E-14 9.24595E-14
 -1      2246 2.00222E+01 3.69532E-01 2.01953E-02 4.41175E-01 9.39769E-14 1.18010E-13
 -1      2247 2.02044E+01 6.36513E-01-2.29778E-03 7.03168E-01 1.05147E-13 8.73277E-14
 -1      2248 2.03943E+01 8.55727E-01 1.32060E-02-9.99941E-01-8.43613E-14 5.58462E-14
 -1      2249 2.01828E+01 6.29038E-01-4.43420E-03-6.90029E-01-8.13238E-14 5.60224E-14
 -1      2250 3.00551E+01-6.24653E-01-1.41831E-01 6.34554E-01 9.36820E-14 2.62013E-13
 -1      2251 2.78636E+01-2.76921E+00 3.22991E-03 2.03974E+00 1.89085E-14 1.49242E-13
 -1      2252 1.13499E+01-4.64278E+00 3.03835E-02 6.94056E+00-4.02678E-13 3.79863E-13
 -1      2253 8.07205E+00-3.75799E+00 8.95724E-02 5.86568E+00-4.22440E-13 4.59549E-13
 -1      2254 2.01189E+01 4.71965E-01 1.62049E-02-4.72819E-01-8.12744E-14 5.64431E-14
 -1      2255 1.99789E+01 3.47867E-01 8.27869E-05-2.99959E-01-7.22694E-14 3.71408E-14
 -1      2256 2.02404E+01 7.48600E-01-2.27916E-03-6.90420E-01-9.38262E-14 2.40545E-14
 -1      2257 1.99171E+01 2.63732E-01 1.08452E-02-1.60608E-01-5.65634E-14 3.61417E-14
 -1      2258 1.98407E+01 1.93435E-01 8.77567E-04-6.14207E-02-6.20159E-14 2.99751E-14
 -1      2259 2.00798E+01 4.21533E-01-3.85636E-03-3.04389E-01-7.92785E-14 1.97935E-14
 -1      2260 1.97984E+01 1.45235E-01 6.40246E-03 2.34963E-02-4.77427E-14 4.55369E-14
 -1      2261 1.97669E+01 1.04587E-01 9.96508E-04 7.98527E-02-2.86635E-14 5.72018E-14
 -1      2262 1.99629E+01 2.35421E-01-3.78761E-03-6.03942E-02-4.29106E-14 2.64065E-14
 -1      2263 1.97442E+01 7.64509E-02 3.60604E-03 1.29866E-01-2.48753E-14 5.58542E-14
 -1      2264 1.97423E+01 5.32052E-02 1.01946E-03 1.60940E-01-2.81060E-14 5.38970E-14
 -1      2265 1.98927E+01 1.27334E-01-3.11234E-03 8.80444E-02-3.31422E-14 3.80950E-14
 -1      2266 1.97351E+01 3.73161E-02 1.89348E-03 1.89400E-01-3.23898E-14 4.06788E-14
 -1      2267 1.97522E+01 2.51199E-02 1.05344E-03 2.05990E-01-5.07683E-14 4.02554E-14
 -1      2268 1.98610E+01 6.50222E-02-2.35435E-03 1.75562E-01-4.20519E-14 5.94557E-14
 -1      2269 1.97565E+01 1.73244E-02 8.38849E-04 2.22109E-01-5.34831E-14 3.05639E-14
 -1      2270 1.97862E+01 1.26496E-02 1.13524E-03 2.31317E-01-5.88733E-14 2.82694E-14
 -1      2271 1.98582E+01 3.16753E-02-1.73310E-03 2.26185E-01-5.37678E-14 7.95994E-16
 -1      2272 1.97989E+01 1.05737E-02 1.93486E-04 2.41635E-01-8.25127E-14 5.70000E-14
 -1      2273 1.98373E+01 1.13598E-02 1.28916E-03 2.48435E-01-8.33744E-14 5.24696E-14
 -1      2274 1.98763E+01 1.79748E-02-1.29195E-03 2.56784E-01-5.04540E-14 2.91123E-15
 -1      2275 1.98564E+01 1.35855E-02-1.89566E-04 2.57767E-01-6.39388E-14 6.89144E-14
 -1      2276 1.99018E+01 1.86062E-02 1.53009E-03 2.65853E-01-4.09803E-14 6.47200E-14
 -1      2277 1.99099E+01 1.84792E-02-1.01191E-03 2.79557E-01-6.65871E-14 6.34728E-14
 -1      2278 1.99263E+01 2.42778E-02-4.04247E-04 2.77912E-01-2.95714E-14 8.85899E-14
 -1      2279 1.99788E+01 3.28163E-02 1.86660E-03 2.90197E-01 1.98183E-14 1.15734E-13
 -1      2280 1.99558E+01 2.99349E-02-8.58788E-04 3.03663E-01-2.98075E-14 1.20574E-13
 -1      2281 2.00082E+01 4.14259E-02-5.14972E-04 3.07983E-01 2.64740E-14 7.97207E-14
 -1      2282 2.00689E+01 5.30782E-02 2.30239E-03 3.26899E-01 4.30474E-14 1.52006E-13
 -1      2283 2.00126E+01 5.04038E-02-7.98220E-04 3.36288E-01 6.23765E-15 1.47382E-13
 -1      2284 2.01035E+01 6.43170E-02-5.67644E-04 3.52951E-01 2.18545E-14 1.28448E-13
 -1      2285 2.01744E+01 7.88331E-02 2.83464E-03 3.80614E-01-1.70995E-14 1.10614E-13
 -1      2286 2.00801E+01 7.87396E-02-7.99021E-04 3.83329E-01 2.08653E-14 1.62689E-13
 -1      2287 2.02149E+01 9.24452E-02-5.94504E-04 4.17137E-01-8.99137E-14 4.72817E-14
 -1      2288 2.02987E+01 1.09548E-01 3.44882E-03 4.55390E-01-1.20283E-13 1.99497E-14
 -1      2289 2.01593E+01 1.14167E-01-8.33291E-04 4.49786E-01-8.32872E-14 7.03967E-14
 -1      2290 2.03459E+01 1.25137E-01-6.14832E-04 5.04251E-01-1.28943E-13 2.73697E-14
 -1      2291 2.04457E+01 1.44256E-01 4.10891E-03 5.54547E-01-1.41821E-13 5.79441E-14
 -1      2292 2.02518E+01 1.55809E-01-8.77619E-04 5.39898E-01-1.20698E-13 3.80099E-14
 -1      2293 2.05008E+01 1.60978E-01-6.30408E-04 6.17101E-01-1.40309E-13 8.45264E-14
 -1      2294 2.06201E+01 1.80813E-01 4.74143E-03 6.80157E-01-9.88251E-14 8.42336E-14
 -1      2295 2.03597E+01 2.01997E-01-9.19452E-04 6.56968E-01-1.28891E-13 6.65130E-14
 -1      2296 2.06845E+01 1.96863E-01-6.13209E-04 7.56833E-01-5.02017E-14 2.23352E-15
 -1      2297 2.08265E+01 2.14662E-01 5.21245E-03 8.31920E-01-3.77328E-14 3.38649E-14
 -1      2298 2.04854E+01 2.49160E-01-9.71908E-04 8.02776E-01-1.26233E-13 1.54582E-15
 -1      2299 2.09026E+01 2.26444E-01-4.81805E-04 9.21423E-01-7.02295E-14 3.38899E-14
 -1      2300 2.10699E+01 2.36866E-01 5.29770E-03 1.00510E+00-4.22297E-15 1.25529E-14
 -1      2301 2.06321E+01 2.90018E-01-1.10307E-03 9.76397E-01-5.05123E-14-3.17770E-14
 -1      2302 2.11623E+01 2.37735E-01-6.28160E-05 1.10305E+00 8.33449E-14-5.66085E-14
 -1      2303 2.13568E+01 2.31253E-01 4.64958E-03 1.18714E+00 1.09977E-13-7.19225E-14
 -1      2304 2.08054E+01 3.10792E-01-1.48724E-03 1.17214E+00 3.07566E-15 1.12116E-14
 -1      2305 2.14740E+01 2.09923E-01 9.59270E-04 1.28386E+00 1.47605E-13-1.03228E-13
 -1      2306 2.16963E+01 1.71060E-01 2.76795E-03 1.35253E+00 1.63648E-13-1.90839E-13
 -1      2307 2.10155E+01 2.87375E-01-2.47622E-03 1.37621E+00 9.34239E-14-6.40374E-14
 -1      2308 2.18547E+01 1.10326E-01 3.06660E-03 1.42975E+00 1.95792E-13-2.31342E-13
 -1      2309 2.21038E+01 1.71225E-02-9.99948E-04 1.45603E+00 2.02302E-13-1.54608E-13
 -1      2310 2.12825E+01 1.81348E-01-4.65931E-03 1.56168E+00 1.67296E-13-1.45174E-13
 -1      2311 2.23315E+01-1.04840E-01 6.80914E-03 1.48214E+00 1.76097E-13-1.48928E-13
 -1      2312 2.26035E+01-2.76341E-01-7.38751E-03 1.42555E+00 1.84423E-13-1.00251E-13
 -1      2313 2.16439E+01-6.06621E-02-8.78652E-03 1.68113E+00 2.14918E-13-1.87581E-13
 -1      2314 2.29406E+01-4.76904E-01 1.22011E-02 1.35034E+00 2.31184E-13-9.29766E-14
 -1      2315 2.32240E+01-7.34710E-01-1.65400E-02 1.15988E+00 2.03875E-13-4.61037E-14
 -1      2316 2.21608E+01-4.94671E-01-1.52838E-02 1.65695E+00 2.26711E-13-1.98937E-13
 -1      2317 2.37085E+01-1.00055E+00 1.76620E-02 9.14553E-01 1.48715E-13-8.24614E-14
 -1      2318 2.39743E+01-1.29685E+00-2.66274E-02 5.47163E-01 1.39703E-13-1.73030E-14
 -1      2319 2.29113E+01-1.13368E+00-2.26399E-02 1.37308E+00 1.67115E-13-2.36113E-13
 -1      2320 2.45985E+01-1.53657E+00 1.71350E-02 6.41798E-02 8.52951E-14 2.47090E-14
 -1      2321 2.47870E+01-1.70432E+00-3.11468E-02-4.69278E-01 3.43406E-14 8.19744E-14
 -1      2322 2.39473E+01-1.84959E+00-2.58644E-02 6.87122E-01 1.28698E-13-1.12488E-13
 -1      2323 2.54115E+01-1.69527E+00-2.99440E-03-1.16806E+00 2.35207E-14 1.38856E-13
 -1      2324 2.54434E+01-1.44657E+00-2.35427E-02-1.71401E+00 1.92749E-14 2.71687E-13
 -1      2325 2.51771E+01-2.21749E+00-1.87092E-02-4.88588E-01 7.80604E-14-1.28977E-14
 -1      2326 2.57792E+01-8.99926E-01-4.93682E-02-2.35974E+00 3.72636E-14 2.09534E-13
 -1      2327 2.56261E+01-4.96804E-02-1.55269E-03-2.56416E+00 5.26801E-14 1.36290E-13
 -1      2328 2.62298E+01-1.55590E+00-2.09937E-02-1.93968E+00 1.43201E-14 2.96711E-13
 -1      2329 2.54943E+01 9.43394E-01-1.00368E-01-2.57627E+00-2.17534E-14 9.39799E-14
 -1      2330 2.52671E+01 2.02473E+00-1.05190E-02-2.12956E+00-1.23200E-13 4.02352E-14
 -1      2331 2.66230E+01 6.03664E-01-4.02946E-02-2.80489E+00-5.24927E-14 8.72635E-14
 -1      2332 2.49677E+01 2.76298E+00-1.14647E-01-1.12877E+00-2.15855E-13-1.22579E-13
 -1      2333 2.48822E+01 3.08968E+00-9.01786E-02-1.81583E-01-2.90101E-13-1.63623E-13
 -1      2334 2.63948E+01 3.21804E+00-3.26400E-02-1.91872E+00-2.94154E-13-1.12691E-13
 -1      2335 2.50324E+01 2.88755E+00-3.31381E-02 1.15109E+00-3.07795E-13-2.32633E-13
 -1      2336 2.51813E+01 2.10419E+00-1.09623E-01 1.95184E+00-4.07133E-13-1.72596E-13
 -1      2337 2.62776E+01 4.04847E+00-3.53359E-02 6.39149E-01-3.21354E-13-4.84271E-13
 -1      2338 2.54594E+01 1.11979E+00-3.37007E-03 2.51857E+00-3.93879E-13-1.39843E-13
 -1      2339 2.56942E+01 5.24593E-02-7.76941E-02 2.66268E+00-3.01715E-13-1.58118E-13
 -1      2340 2.65183E+01 2.16317E+00-4.96998E-02 2.51364E+00-3.99930E-13-3.56534E-13
 -1      2341 2.56061E+01-8.09519E-01-1.82445E-02 2.29737E+00-2.74088E-13-2.79785E-13
 -1      2342 2.56922E+01-1.39764E+00-2.82204E-02 1.88954E+00-2.67279E-13-2.83676E-13
 -1      2343 2.65507E+01-5.12913E-01-2.69310E-02 2.52626E+00-3.16674E-13-3.98185E-13
 -1      2344 2.51919E+01-1.67969E+00-2.84701E-02 1.16561E+00-1.30748E-13-2.84522E-13
 -1      2345 2.50812E+01-1.70886E+00 9.56679E-03 5.93618E-01-1.35838E-14-3.42924E-13
 -1      2346 2.58308E+01-2.00154E+00-1.01870E-02 1.29865E+00-1.95852E-13-5.02419E-13
 -1      2347 2.44292E+01-1.57449E+00-2.97035E-02-2.60769E-02-4.25146E-14-3.18054E-13
 -1      2348 2.41961E+01-1.32148E+00 1.91555E-02-4.95998E-01-8.44190E-14-3.64300E-13
 -1      2349 2.46308E+01-2.14078E+00-2.14717E-02-8.70295E-02-4.03562E-14-4.75056E-13
 -1      2350 2.36247E+01-1.05145E+00-2.21319E-02-8.70715E-01-4.07860E-14-2.34584E-13
 -1      2351 2.33447E+01-7.59791E-01 1.57545E-02-1.15819E+00 5.55693E-14-1.92908E-13
 -1      2352 2.34568E+01-1.54902E+00-2.46968E-02-1.05214E+00 1.84169E-14-1.29555E-13
 -1      2353 2.29269E+01-5.17009E-01-1.21839E-02-1.32060E+00 5.45332E-14-1.31638E-13
 -1      2354 2.26448E+01-2.95305E-01 9.67823E-03-1.44673E+00 7.67544E-14-1.54607E-16
 -1      2355 2.25439E+01-8.35462E-01-1.94252E-02-1.54703E+00 1.41415E-13-9.44688E-14
 -1      2356 2.23603E+01-1.29813E-01-4.24808E-03-1.47060E+00 4.02291E-14 4.27644E-14
 -1      2357 2.20962E+01 5.30219E-03 4.95052E-03-1.48550E+00 3.75728E-14-9.77465E-14
 -1      2358 2.19034E+01-2.80796E-01-1.22364E-02-1.70172E+00 1.06258E-13 3.60223E-14
 -1      2359 2.19026E+01 9.82511E-02 9.24616E-04-1.43221E+00 2.15806E-13-1.17004E-13
 -1      2360 2.16638E+01 1.65345E-01 2.02270E-03-1.38319E+00 2.65434E-13 9.87464E-15
 -1      2361 2.14624E+01 6.46064E-02-6.77074E-03-1.65175E+00 7.86572E-14-6.21821E-14
 -1      2362 2.15259E+01 2.07160E-01 3.79017E-03-1.29400E+00 2.28976E-13-5.69962E-14
 -1      2363 2.13150E+01 2.30611E-01 5.22128E-04-1.21529E+00 1.29865E-13 1.90028E-13
 -1      2364 2.11476E+01 2.41716E-01-3.58422E-03-1.49543E+00 2.33550E-13 1.12430E-13
 -1      2365 2.12103E+01 2.41740E-01 5.06370E-03-1.11502E+00 8.28406E-15 2.00005E-13
 -1      2366 2.10280E+01 2.41007E-01-9.87209E-05-1.02794E+00 1.26384E-13 2.12175E-13
 -1      2367 2.09090E+01 3.08722E-01-2.02668E-03-1.29534E+00 1.17816E-13 1.65123E-13
 -1      2368 2.09442E+01 2.36214E-01 5.33396E-03-9.30154E-01 1.26697E-13 1.33751E-13
 -1      2369 2.07896E+01 2.24267E-01-2.38672E-04-8.46270E-01 1.43860E-13 5.11826E-14
 -1      2370 2.07178E+01 3.13409E-01-1.38289E-03-1.08806E+00 1.56443E-14 1.68464E-13
 -1      2371 2.07203E+01 2.12911E-01 5.02869E-03-7.57385E-01 1.92507E-13 6.85959E-14
 -1      2372 2.05919E+01 1.97617E-01-1.35135E-04-6.81780E-01 2.54378E-13 5.78302E-14
 -1      2373 2.05594E+01 2.88235E-01-1.15743E-03-8.92935E-01 9.37084E-14 1.39211E-13
 -1      2374 2.05337E+01 1.85234E-01 4.43037E-03-6.03815E-01 1.86570E-13 9.77750E-14
 -1      2375 2.04292E+01 1.71092E-01 7.85337E-05-5.37594E-01 8.65986E-14 1.75418E-13
 -1      2376 2.04263E+01 2.53215E-01-1.06844E-03-7.18298E-01 2.23734E-13 5.71254E-14
 -1      2377 2.03800E+01 1.60743E-01 3.70011E-03-4.69967E-01 9.17411E-14 2.17604E-13
 -1      2378 2.02967E+01 1.50176E-01 3.44710E-04-4.12063E-01-6.32250E-14 2.91540E-13
 -1      2379 2.03143E+01 2.19865E-01-9.92306E-04-5.65622E-01 7.50014E-14 1.78857E-13
 -1      2380 2.02548E+01 1.43226E-01 2.87797E-03-3.52803E-01-2.10560E-13 3.18620E-13
 -1      2381 2.01912E+01 1.37499E-01 9.51161E-04-3.01229E-01-1.86688E-13 3.35669E-13
 -1      2382 2.02200E+01 1.94431E-01-8.40877E-04-4.32569E-01-1.60987E-13 7.13266E-14
 -1      2383 1.96239E+01 7.79700E-02 2.32098E-03-7.60078E-02 2.88930E-14 1.10112E-14
 -1      2384 1.96481E+01 1.08599E-01 6.97411E-03-2.75481E-02 4.47022E-14 3.88615E-14
 -1      2385 1.96087E+01 3.87611E-02 1.69407E-03-1.48708E-01 3.74792E-14 5.32113E-16
 -1      2386 1.96006E+01 5.62118E-02 3.77345E-03-1.22751E-01 3.85303E-14 1.31578E-14
 -1      2387 1.97734E+01 9.83218E-02-3.34833E-03-8.63790E-02 4.83729E-14-1.89924E-14
 -1      2388 1.96333E+01 1.71745E-02 1.36419E-03-1.87240E-01 4.59086E-14-1.30014E-14
 -1      2389 1.96056E+01 2.65105E-02 1.94245E-03-1.74063E-01 4.18828E-14 4.97920E-16
 -1      2390 1.97476E+01 4.83102E-02-2.51322E-03-1.68175E-01 3.99917E-14-9.83675E-15
 -1      2391 1.96837E+01 6.99515E-03 1.21530E-03-2.06962E-01 4.78826E-14-2.22430E-14
 -1      2392 1.96442E+01 1.09781E-02 8.85935E-04-2.00418E-01 4.17856E-14-1.03837E-14
 -1      2393 1.97563E+01 2.13301E-02-1.81370E-03-2.13305E-01 5.23828E-14-1.37845E-14
 -1      2394 1.97513E+01 4.65361E-03 1.20147E-03-2.18238E-01 3.64177E-14 7.36259E-15
 -1      2395 1.97041E+01 4.91246E-03 2.83944E-04-2.14181E-01 4.63104E-14-1.64742E-14
 -1      2396 1.97887E+01 9.36573E-03-1.32208E-03-2.38315E-01 3.51862E-14-3.76085E-14
 -1      2397 1.98315E+01 7.91855E-03 1.29868E-03-2.28348E-01 6.16333E-14 2.69066E-15
 -1      2398 1.97787E+01 5.49291E-03-3.14754E-05-2.23851E-01 6.16715E-14 2.79042E-14
 -1      2399 1.98376E+01 7.74677E-03-1.01837E-03-2.54625E-01 4.81644E-14-7.98535E-15
 -1      2400 1.99230E+01 1.52586E-02 1.48537E-03-2.42524E-01 3.60281E-14-6.15568E-14
 -1      2401 1.98647E+01 1.08791E-02-1.58701E-04-2.35475E-01 5.65808E-14-1.32825E-14
 -1      2402 1.98993E+01 1.35162E-02-8.63380E-04-2.70350E-01 7.97799E-14 1.70440E-15
 -1      2403 2.00265E+01 2.54653E-02 1.73526E-03-2.64503E-01 8.81927E-14-1.17504E-13
 -1      2404 1.99616E+01 1.97316E-02-1.61182E-04-2.53405E-01 4.48419E-14-9.94509E-14
 -1      2405 1.99721E+01 2.45989E-02-8.20265E-04-2.91335E-01 6.90788E-14-1.03516E-13
 -1      2406 2.01441E+01 3.73661E-02 2.01184E-03-2.96747E-01 8.02077E-15-6.24286E-14
 -1      2407 2.00711E+01 3.08926E-02-8.24782E-05-2.80662E-01 6.27619E-14-7.30324E-14
 -1      2408 2.00564E+01 3.92906E-02-8.58474E-04-3.21697E-01 4.48242E-14-1.02537E-13
 -1      2409 2.02790E+01 4.95444E-02 2.26161E-03-3.40380E-01 2.33557E-14-2.85866E-14
 -1      2410 2.01957E+01 4.31093E-02 4.65192E-05-3.19002E-01 2.65987E-15-1.06512E-14
 -1      2411 2.01537E+01 5.58529E-02-9.53127E-04-3.64024E-01-9.28595E-15-1.09319E-14
 -1      2412 2.04346E+01 6.00228E-02 2.40573E-03-3.94857E-01 5.73603E-14-4.09874E-14
 -1      2413 2.03391E+01 5.47405E-02 2.03928E-04-3.68714E-01 5.59403E-14-7.16684E-15
 -1      2414 2.02666E+01 7.21079E-02-1.08470E-03-4.19256E-01 2.53141E-14 9.55529E-15
 -1      2415 2.06140E+01 6.58981E-02 2.33168E-03-4.57310E-01 1.27074E-13-6.27713E-14
 -1      2416 2.05049E+01 6.34161E-02 3.75040E-04-4.28127E-01 1.16279E-13-4.59853E-14
 -1      2417 2.03979E+01 8.49831E-02-1.23876E-03-4.86248E-01 7.92328E-14 5.45099E-14
 -1      2418 2.08193E+01 6.29605E-02 1.88799E-03-5.21574E-01 7.02122E-14-4.60081E-14
 -1      2419 2.06962E+01 6.56568E-02 5.51955E-04-4.92788E-01 1.04744E-13-3.61907E-14
 -1      2420 2.05509E+01 9.00019E-02-1.40725E-03-5.60996E-01 1.00541E-13 8.50544E-14
 -1      2421 2.10502E+01 4.54204E-02 8.89019E-04-5.76933E-01-7.37924E-15-2.65643E-14
 -1      2422 2.09151E+01 5.65200E-02 7.33617E-04-5.54324E-01 2.56218E-14-4.76028E-14
 -1      2423 2.07286E+01 8.07944E-02-1.58890E-03-6.35510E-01 4.01785E-14 1.26984E-13
 -1      2424 2.13033E+01 6.06269E-03-8.57023E-04-6.06793E-01-1.03128E-13 1.00950E-15
 -1      2425 2.11610E+01 2.94736E-02 9.22980E-04-5.99078E-01-6.60118E-14-1.02561E-14
 -1      2426 2.09338E+01 4.88638E-02-1.78424E-03-6.96421E-01-5.38232E-14 6.52527E-14
 -1      2427 2.15706E+01-6.25358E-02-3.47676E-03-5.87887E-01-3.23249E-14-2.25937E-15
 -1      2428 2.14301E+01-2.30481E-02 1.11423E-03-6.06900E-01-5.08067E-14 5.41451E-15
 -1      2429 2.11681E+01-1.58543E-02-1.97621E-03-7.23575E-01-5.95392E-14 3.35251E-14
 -1      2430 2.18374E+01-1.64682E-01-6.88744E-03-4.91264E-01 3.94099E-14-3.94759E-14
 -1      2431 2.17127E+01-1.07574E-01 1.25513E-03-5.50967E-01-1.21647E-16-1.01509E-13
 -1      2432 2.14313E+01-1.22620E-01-2.08125E-03-6.89336E-01 2.83909E-14-7.72666E-14
 -1      2433 2.20807E+01-2.94995E-01-1.05707E-02-2.87283E-01-5.27924E-14 2.57253E-14
 -1      2434 2.19908E+01-2.24826E-01 1.18308E-03-4.00401E-01 1.02886E-14 1.49086E-14
 -1      2435 2.17188E+01-2.74208E-01-1.86317E-03-5.60076E-01-1.89988E-14 1.25960E-14
 -1      2436 2.22667E+01-4.28588E-01-1.33032E-02 4.24292E-02-2.07442E-13 1.00304E-13
 -1      2437 2.22342E+01-3.61425E-01 5.35705E-04-1.28559E-01-1.56881E-13 6.99353E-14
 -1      2438 2.20167E+01-4.56682E-01-8.54813E-04-3.02555E-01-1.29817E-13 1.60958E-13
 -1      2439 2.23506E+01-5.12000E-01-1.30531E-02 4.83760E-01-1.44214E-13 1.16076E-13
 -1      2440 2.23970E+01-4.79418E-01-1.23543E-03 2.69686E-01-2.00787E-13 1.10350E-13
 -1      2441 2.22943E+01-6.25605E-01 1.59013E-03 1.01045E-01-1.87150E-13 1.49471E-13
 -1      2442 2.22848E+01-4.66882E-01-7.66356E-03 9.63030E-01-1.34653E-13 4.92033E-14
 -1      2443 2.24207E+01-5.11125E-01-4.40852E-03 7.51244E-01-1.14205E-13 6.86983E-14
 -1      2444 2.24964E+01-6.97627E-01 5.72531E-03 6.26266E-01-1.43449E-13-2.57661E-15
 -1      2445 2.20405E+01-2.24581E-01 2.99722E-03 1.33067E+00 3.06090E-14 2.78935E-13
 -1      2446 2.22524E+01-3.75482E-01-8.47191E-03 1.19846E+00-1.13612E-13 1.32229E-13
 -1      2447 2.25482E+01-5.64776E-01 1.03976E-02 1.17253E+00-1.74468E-13-4.30077E-14
 -1      2448 2.16496E+01 2.03157E-01 1.44664E-02 1.39069E+00 1.31553E-13 3.07580E-13
 -1      2449 2.18903E+01-3.19536E-02-1.06679E-02 1.42310E+00 9.09110E-14 2.99195E-13
 -1      2450 2.23893E+01-1.59552E-01 1.12571E-02 1.54610E+00 7.69306E-15 1.63654E-13
 -1      2451 2.12398E+01 6.67978E-01 1.87052E-02 1.00771E+00 8.94475E-14 5.08190E-13
 -1      2452 2.14345E+01 4.42116E-01-7.90596E-03 1.24218E+00 1.17936E-13 4.72962E-13
 -1      2453 2.20475E+01 4.50735E-01 4.12550E-03 1.51250E+00 4.33665E-14 2.76216E-13
 -1      2454 2.10026E+01 9.27361E-01 1.08544E-02 2.36785E-01 1.54357E-13 5.50220E-13
 -1      2455 2.10784E+01 8.38487E-01 8.91678E-04 6.14623E-01 1.74259E-13 5.57656E-13
 -1      2456 2.16836E+01 1.02396E+00-9.73724E-03 9.46322E-01 9.04988E-14 5.02867E-13
 -1      2457 2.10793E+01 8.30824E-01-4.64237E-04-6.30895E-01 1.53831E-13 3.60895E-13
 -1      2458 2.10080E+01 9.27852E-01 1.31379E-02-2.54813E-01 1.83884E-13 5.14349E-13
 -1      2459 2.15300E+01 1.26018E+00-1.47441E-02-1.21369E-02 2.18075E-13 5.43204E-13
 -1      2460 2.14422E+01 4.29069E-01-8.42435E-03-1.24883E+00 1.44208E-13 1.27045E-13
 -1      2461 2.12488E+01 6.57936E-01 1.95766E-02-1.02036E+00 1.39811E-13 2.54189E-13
 -1      2462 2.16905E+01 1.01873E+00-6.85397E-03-9.62320E-01 2.66026E-13 3.52214E-13
 -1      2463 2.18978E+01-4.26492E-02-1.03422E-02-1.41751E+00-1.71638E-14 9.82591E-14
 -1      2464 2.16574E+01 1.89015E-01 1.37659E-02-1.38976E+00 6.54945E-14 1.61313E-13
 -1      2465 2.20557E+01 4.32210E-01 3.98575E-03-1.51512E+00 7.69718E-14 2.35667E-13
 -1      2466 2.22542E+01-3.79683E-01-7.08634E-03-1.18482E+00-7.11666E-14 9.65658E-14
 -1      2467 2.20428E+01-2.34778E-01 2.30034E-03-1.31705E+00-6.62443E-14 5.67120E-14
 -1      2468 2.23922E+01-1.75735E-01 1.06753E-02-1.53418E+00-3.28919E-14 3.01858E-13
 -1      2469 2.24151E+01-5.10341E-01-2.82953E-03-7.34681E-01-6.11759E-14 2.70131E-13
 -1      2470 2.22800E+01-4.70515E-01-7.80994E-03-9.42655E-01-1.02279E-13 1.18450E-13
 -1      2471 2.25432E+01-5.73399E-01 1.02546E-02-1.15237E+00-8.87884E-14 3.90760E-13
 -1      2472 2.23842E+01-4.76411E-01-1.74987E-04-2.53272E-01 2.49393E-13 3.57110E-13
 -1      2473 2.23395E+01-5.10623E-01-1.27731E-02-4.61945E-01 1.54244E-13 3.63968E-13
 -1      2474 2.24846E+01-7.00633E-01 5.19226E-03-6.03941E-01-1.74975E-14 2.13682E-13
 -1      2475 2.22153E+01-3.58207E-01 1.08598E-03 1.43625E-01 4.87904E-14 4.15224E-13
 -1      2476 2.22502E+01-4.24985E-01-1.28295E-02-2.24380E-02 2.47921E-13 4.07424E-13
 -1      2477 2.22779E+01-6.24839E-01 9.54123E-04-8.01180E-02 1.81274E-13 2.96414E-13
 -1      2478 2.19671E+01-2.22014E-01 1.39515E-03 4.13709E-01-7.81038E-15 2.20743E-13
 -1      2479 2.20596E+01-2.90992E-01-1.00646E-02 3.04185E-01 3.75537E-14 3.77233E-13
 -1      2480 2.19974E+01-4.54249E-01-1.37598E-03 3.20835E-01 2.07858E-13 4.76156E-13
 -1      2481 2.16856E+01-1.05218E-01 1.26190E-03 5.62266E-01-2.00491E-13 1.56268E-13
 -1      2482 2.18127E+01-1.61104E-01-6.45695E-03 5.04725E-01-1.58743E-13 1.32875E-13
 -1      2483 2.16977E+01-2.71017E-01-2.17208E-03 5.75194E-01 4.21036E-14 2.30915E-13
 -1      2484 2.14010E+01-2.06651E-02 1.04003E-03 6.15853E-01-4.30893E-14 2.72485E-13
 -1      2485 2.15433E+01-5.94462E-02-3.18922E-03 5.98007E-01-1.84987E-13 1.43101E-13
 -1      2486 2.14095E+01-1.18943E-01-2.20130E-03 7.01150E-01-1.33824E-13 1.97807E-13
 -1      2487 2.11317E+01 3.28659E-02 8.77773E-04 6.04779E-01 1.95118E-13 2.70091E-13
 -1      2488 2.12748E+01 9.33673E-03-7.06992E-04 6.13421E-01 1.44499E-13 2.16900E-13
 -1      2489 2.11465E+01-1.12922E-02-1.99457E-03 7.31790E-01 1.04594E-13 4.41989E-14
 -1      2490 2.08876E+01 6.22673E-02 8.02328E-04 5.54894E-01 1.09924E-13 1.06030E-13
 -1      2491 2.10220E+01 5.00709E-02 9.48071E-04 5.79051E-01 2.39155E-13 1.91388E-13
 -1      2492 2.09135E+01 5.54971E-02-1.76449E-03 6.99888E-01 2.00495E-13 1.06413E-13
 -1      2493 2.06737E+01 7.55245E-02 8.08192E-04 4.85040E-01-3.71923E-14 2.88768E-13
 -1      2494 2.07939E+01 7.05814E-02 1.90118E-03 5.16926E-01 1.62721E-14 2.58988E-13
 -1      2495 2.07112E+01 9.13161E-02-1.57260E-03 6.31832E-01 3.47123E-14 2.61069E-14
 -1      2496 2.04915E+01 7.97324E-02 8.76699E-04 4.07148E-01-1.40474E-13 4.71781E-13
 -1      2497 2.05947E+01 7.85767E-02 2.32548E-03 4.42042E-01-1.21964E-13 4.67062E-13
 -1      2498 2.05384E+01 1.06943E-01-1.41263E-03 5.46211E-01-1.92146E-13 4.86667E-13
 -1      2499 2.03406E+01 8.04548E-02 1.01746E-03 3.27481E-01 1.17594E-13 5.27916E-13
 -1      2500 2.04258E+01 8.04458E-02 2.39434E-03 3.63135E-01 3.48081E-14 5.27220E-13
 -1      2501 2.03933E+01 1.11644E-01-1.26553E-03 4.54446E-01-7.86573E-14 5.94147E-13
 -1      2502 2.02186E+01 8.12116E-02 1.06529E-03 2.48074E-01-7.43058E-15 7.15649E-13
 -1      2503 2.02862E+01 8.09216E-02 2.22261E-03 2.83997E-01 7.95182E-14 7.14503E-13
 -1      2504 2.02728E+01 1.12426E-01-1.17742E-03 3.62636E-01-5.60375E-14 7.81913E-13
 -1      2505 2.01228E+01 8.30828E-02 1.08273E-03 1.69897E-01-1.73836E-13 6.82004E-13
 -1      2506 2.01744E+01 8.21057E-02 1.91563E-03 2.05719E-01-5.76113E-14 7.92267E-13
 -1      2507 2.01742E+01 1.12801E-01-1.36188E-03 2.72219E-01-7.20243E-14 1.03316E-12
 -1      2508 2.00859E+01 8.11929E-02 1.34394E-03 1.26148E-01-1.39843E-13 4.19946E-13
 -1      2509 1.99434E+01 4.46075E-01-1.95849E-03 2.35512E-01 2.32308E-13-3.87079E-14
 -1      2510 1.99657E+01 4.03614E-01 6.02959E-04 2.52515E-01 7.32129E-15-8.20683E-14
 -1      2511 1.99068E+01 5.20384E-01-2.16867E-03 1.75071E-01 4.05528E-13-6.68360E-14
 -1      2512 1.99243E+01 4.87628E-01-1.99683E-05 2.06171E-01 4.07075E-13-2.03909E-13
 -1      2513 1.99129E+01 4.67598E-01 1.06843E-03 2.55972E-01 4.25147E-13-8.22836E-15
 -1      2514 2.00351E+01 2.57743E-01-1.08123E-03 2.56493E-01-1.43505E-13-4.19147E-13
 -1      2515 2.00590E+01 2.10984E-01 1.61244E-03 2.41950E-01-3.30726E-14 1.83810E-13
 -1      2516 1.99880E+01 3.55217E-01-1.53694E-03 2.63786E-01-2.79231E-13-4.24685E-13
 -1      2517 2.00123E+01 3.08846E-01 1.17763E-03 2.64748E-01-1.79453E-13-4.36181E-13
 -1      2518 2.00327E+01 2.84658E-01 8.14363E-04 3.04366E-01-1.25831E-13-5.84192E-13
 -1      2519 1.99700E+01 3.80868E-01 8.75684E-04 2.99706E-01-3.61062E-14-1.17502E-13
 -1      2520 1.98825E+01 5.69240E-01-2.12160E-03 9.02135E-02 9.73314E-14-6.46182E-14
 -1      2521 1.98933E+01 5.50071E-01-7.11734E-04 1.31458E-01 2.26122E-13-2.65694E-13
 -1      2522 1.98688E+01 5.36388E-01 1.58053E-03 1.78027E-01 3.76536E-13-2.94850E-13
 -1      2523 1.98737E+01 5.86315E-01-1.79692E-03-8.38987E-03-1.76454E-13 5.51963E-14
 -1      2524 1.98762E+01 5.83324E-01-1.35643E-03 3.76160E-02-6.88973E-14 2.49577E-13
 -1      2525 1.98417E+01 5.78684E-01 1.92266E-03 7.51293E-02 9.61070E-14-1.01326E-13
 -1      2526 1.98824E+01 5.68745E-01-1.22241E-03-1.07751E-01-2.24814E-13-2.53399E-13
 -1      2527 1.98758E+01 5.82661E-01-1.84444E-03-6.32287E-02-1.85593E-13-1.84963E-13
 -1      2528 1.98358E+01 5.88823E-01 2.06491E-03-3.98394E-02-1.45691E-13-1.07004E-13
 -1      2529 1.99083E+01 5.18958E-01-4.18456E-04-1.92699E-01-1.15025E-13-3.64558E-14
 -1      2530 1.98929E+01 5.47575E-01-2.14702E-03-1.56600E-01-1.89209E-13-1.47197E-13
 -1      2531 1.98528E+01 5.64893E-01 2.00482E-03-1.50956E-01-7.74911E-14-8.03257E-14
 -1      2532 1.99501E+01 4.40290E-01 4.34595E-04-2.53128E-01 1.14828E-13-5.31901E-14
 -1      2533 1.99269E+01 4.81398E-01-2.20704E-03-2.30055E-01 2.33094E-14-2.47968E-13
 -1      2534 1.98920E+01 5.08498E-01 1.64558E-03-2.43716E-01 5.54555E-14-9.18587E-14
 -1      2535 2.00031E+01 3.41776E-01 1.13027E-03-2.76872E-01 5.80355E-14 4.80719E-13
 -1      2536 1.99753E+01 3.90571E-01-1.88332E-03-2.72114E-01 6.39562E-14 3.63048E-13
 -1      2537 1.99502E+01 4.24414E-01 9.80487E-04-3.04653E-01 1.56054E-13 6.91356E-15
 -1      2538 2.00587E+01 2.34910E-01 1.53821E-03-2.58621E-01-8.67262E-14 1.29951E-13
 -1      2539 2.00310E+01 2.86079E-01-1.22559E-03-2.73885E-01-6.12671E-14 2.53729E-13
 -1      2540 2.00188E+01 3.21393E-01-1.71475E-04-3.21831E-01 3.37510E-14 3.41819E-13
 -1      2541 5.33953E+00-2.43475E+00 1.03417E-01 3.72385E+00-2.31981E-13 4.59743E-13
 -1      2542 3.84426E+00-2.31483E+00 1.26310E-01 1.34048E+00-1.00663E-13 3.36564E-13
 -1      2543 1.84791E+01-5.27575E+00-3.98158E-02 6.71642E+00-3.21076E-13 1.37390E-14
 -1      2544 1.47322E+01-5.21637E+00 4.79702E-02 6.86340E+00-3.72341E-13 2.99573E-13
 -1      2545 1.44257E+01-4.48225E+00 1.25282E-01 6.75298E+00-3.63182E-13 2.79693E-13
 -1      2546 1.96995E+01 1.46784E-01 3.43261E-03 5.47502E-02 6.96049E-14 6.08944E-14
 -1      2547 1.97761E+01 2.00854E-01 1.24259E-02 1.42444E-01 8.52872E-14 8.66750E-14
 -1      2548 1.98487E+01 1.86482E-01-3.98001E-03 5.69425E-02 7.69722E-14 2.22023E-14
 -1      2549 2.00817E+01 1.42227E-01 1.47694E-03-1.78764E-01 3.03069E-14 2.02532E-13
 -1      2550 3.35121E+00-2.58187E+00 7.12480E-02-9.25568E-01-6.99371E-14 3.71314E-13
 -1      2551 4.44261E+00-3.01567E+00 7.30367E-02-3.17582E+00-2.24570E-13 2.79554E-13
 -1      2552 2.51183E+01-4.50880E+00-1.22340E-01 4.31850E+00-1.50269E-13 4.18138E-13
 -1      2553 2.23814E+01-5.07988E+00 5.42342E-02 5.29569E+00-2.71089E-13 2.33411E-13
 -1      2554 3.13964E+01 3.86011E+00-1.87622E-01-9.35705E-01 1.42747E-13 2.03171E-13
 -1      2555 3.08635E+01 2.11318E+00-8.65492E-02-6.54859E-01 1.65951E-13 2.08611E-13
 -1      2556 6.59698E+00-3.66320E+00 7.55739E-02-4.69921E+00-2.67869E-13 1.46910E-13
 -1      2557 9.53172E+00-4.18759E+00 1.97332E-02-6.15987E+00-2.45276E-13 1.04472E-13
 -1      2558 3.11388E+01 3.83916E+00-1.57488E-01 9.24430E-01 2.80054E-13 2.05058E-13
 -1      2559 3.19135E+01 5.60713E+00-1.30017E-01 9.61285E-01 3.46334E-13 8.83460E-14
 -1      2560 1.95318E+01 3.59122E+00-1.01372E-02-2.44740E-01-4.70682E-15-1.03879E-13
 -1      2561 1.95475E+01 3.57028E+00-9.68972E-03-4.25233E-01-1.96589E-14-9.67126E-14
 -1      2562 1.97234E+01 3.17109E+00-5.29904E-04-4.72059E-01-2.36688E-14-7.64228E-14
 -1      2563 1.96898E+01 3.23173E+00-8.48180E-04-1.51486E-01-7.77823E-15-9.22253E-14
 -1      2564 3.19327E+01 6.70134E+00-1.66194E-01 7.45899E-01 3.58491E-13 6.43652E-14
 -1      2565 3.19321E+01 7.35800E+00-1.65559E-01 4.05268E-01 3.23463E-13 1.49290E-13
 -1      2566 2.95529E+01 5.61133E+00-6.93466E-02 1.42954E+00 3.29042E-13-5.57471E-14
 -1      2567 1.06068E+01-4.48266E+00 8.90497E-02-6.54182E+00-2.56128E-13-4.62963E-14
 -1      2568 1.43529E+01-4.97225E+00-1.37800E-02-7.18327E+00-4.04066E-13-1.43524E-13
 -1      2569 2.52348E+01-4.12350E+00-2.79753E-04-4.09321E+00-2.39253E-13 2.60347E-13
 -1      2570 2.77154E+01-2.93201E+00-4.44780E-02-3.19400E+00-1.33921E-13 3.47777E-13
 -1      2571 2.25299E+01-5.44889E+00 2.10568E-02-5.01161E+00-1.18711E-13-3.46750E-13
 -1      2572 2.62072E+01-4.56351E+00-4.36812E-02-3.89991E+00-1.97176E-13-3.70814E-13
 -1      2573 1.87314E+01-5.33516E+00 5.49371E-02-6.36211E+00-5.23526E-13-9.27175E-14
 -1      2574 2.23993E+01-4.91894E+00-2.86065E-02-5.72982E+00-3.90410E-13 1.47687E-13
 -1      2575 2.45036E+01-4.85136E+00 6.24552E-02-4.21377E+00-3.14457E-13 1.19627E-13
 -1      2576 4.46814E+00-3.30478E+00 7.12697E-02-3.58170E+00-2.89685E-13-6.55032E-15
 -1      2577 6.83041E+00-3.50361E+00 4.13743E-02-5.48207E+00-2.95208E-13-6.88893E-14
 -1      2578 2.95024E+00-2.74875E+00 6.14327E-02 2.09143E-01-2.78909E-13 3.23075E-14
 -1      2579 3.23833E+00-2.94445E+00 6.74405E-02-1.99099E+00-2.78638E-13 7.79377E-14
 -1      2580 5.82475E+00-1.82488E+00 1.57934E-01-2.87799E+00-2.14218E-13 4.90719E-14
 -1      2581 6.53019E+00-3.55492E+00 4.42550E-02 4.83535E+00-1.32921E-13-5.17864E-13
 -1      2582 3.94212E+00-3.18604E+00 6.56286E-02 2.61553E+00-2.45776E-13-1.48992E-13
 -1      2583 1.39565E+01-5.15874E+00 3.75874E-02 6.79494E+00 6.21725E-15-1.01154E-12
 -1      2584 1.06564E+01-4.53200E+00 7.64967E-02 6.25866E+00 1.26843E-14-8.83210E-13
 -1      2585 2.09627E+01-5.43605E+00-3.38376E-02 5.97961E+00-2.40974E-13-6.57266E-13
 -1      2586 1.71911E+01-5.65949E+00 1.27572E-02 6.33241E+00-5.19584E-14-7.86078E-13
 -1      2587 1.73622E+01-5.15996E+00 9.89239E-02 6.24544E+00 1.01585E-13-7.62772E-13
 -1      2588 3.13549E+01 3.15582E-01-1.76126E-01-7.91964E-01-5.12701E-13-4.95298E-13
 -1      2589 3.05734E+01-1.40328E+00 3.10964E-03-6.23378E-02-4.64365E-13-4.66072E-13
 -1      2590 3.30296E+01 7.12060E+00-1.04718E-01 1.84506E-01-5.85532E-13-5.55403E-13
 -1      2591 3.27966E+01 6.91788E+00-1.09320E-01-6.75069E-01-5.84255E-13-5.49921E-13
 -1      2592 3.25222E+01 5.21970E+00-1.43860E-01 1.36713E+00-4.07563E-13-7.83207E-13
 -1      2593 3.30687E+01 6.61924E+00-1.41592E-01 8.07988E-01-5.32352E-13-6.97040E-13
 -1      2594 3.08545E+01 6.50630E+00-1.59427E-02 8.09725E-01-4.68237E-13-5.98618E-13
 -1      2595 3.16018E+01 1.14113E+00-9.53710E-02 1.12126E+00-4.71692E-13-7.32303E-13
 -1      2596 3.19705E+01 2.82818E+00-1.90785E-01 1.45929E+00-4.44700E-13-7.13651E-13
 -1      2597 2.87307E+01-3.03259E+00-3.56099E-02-1.79615E+00-2.17923E-13-4.57134E-13
 -1      2598 3.10567E+01-9.92469E-01-1.29946E-01-3.14544E-01-3.30295E-13-6.15646E-13
 -1      2599 3.01694E+01-6.55712E-01-3.31772E-02 1.18764E+00-4.61887E-13-5.79786E-13
 -1      2600 1.35732E+01-5.08874E+00 6.77920E-02-6.46209E+00-2.15494E-13-3.99680E-15
 -1      2601 1.78675E+01-5.47858E+00-2.34633E-02-6.42531E+00-1.44995E-13-6.17909E-14
 -1      2602 2.05401E+01 1.95575E+00-1.36593E-02-1.90192E+00-1.18594E-13 4.07036E-14
 -1      2603 2.04032E+01 1.21755E+00-6.31556E-03-1.28757E+00-1.00737E-13 5.16280E-14
 -1      2604 2.03701E+01 1.37762E+00 3.91620E-03-1.23091E+00-9.99027E-14 1.89267E-14
 -1      2605 2.02837E+01 2.36552E+00-7.75659E-03-1.82614E+00-1.14761E-13 4.45130E-15
 -1      2606 2.04786E+01 8.75344E-01-7.26921E-03 1.22712E+00 1.32117E-13 1.49427E-13
 -1      2607 2.08288E+01 1.25706E+00-6.03321E-03 1.72793E+00 1.49269E-13 1.77743E-13
 -1      2608 2.06370E+01 1.71573E+00-1.57948E-02 1.92196E+00 1.64734E-13 1.33296E-13
 -1      2609 2.04410E+01 1.05884E+00-9.43065E-03 1.24124E+00 1.35662E-13 1.08543E-13
 -1      2610 2.83840E+01 6.66148E+00-1.16338E-01 4.72173E-01 4.10338E-13-1.39916E-13
 -1      2611 3.09170E+01 7.20061E+00-1.19487E-01-6.58229E-02 3.71814E-13 1.01380E-13
 -1      2612 2.89935E+01 6.75096E+00-1.78707E-01-5.49692E-01 3.83360E-13-4.62339E-14
 -1      2613 1.99189E+01 2.81783E+00 1.16120E-03-1.09719E+00-7.69890E-14-9.14355E-14
 -1      2614 1.97879E+01 3.16447E+00-1.47626E-02-1.28555E+00-8.57336E-14-1.09745E-13
 -1      2615 1.98821E+01 3.02804E+00-1.71387E-02-1.47525E+00-1.01010E-13-9.69841E-14
 -1      2616 1.99907E+01 3.43589E-01-3.66509E-03 3.00342E-01 9.49651E-14 5.14749E-14
 -1      2617 2.04164E+01 2.11615E+00-1.27457E-02 1.87471E+00 1.50035E-13 7.01834E-14
 -1      2618 1.99881E+01 2.84097E+00-1.50723E-02-1.58573E+00-9.99563E-14-8.06039E-14
 -1      2619 2.01306E+01 2.61493E+00-2.19884E-02-1.75246E+00-1.08523E-13-4.34722E-14
 -1      2620 2.02785E+01 2.05195E+00 1.32036E-03-1.48476E+00-1.04521E-13-2.37163E-14
 -1      2621 2.00857E+01 2.49590E+00 2.58650E-03-1.34026E+00-9.00137E-14-8.29892E-14
 -1      2622 2.78016E+01-4.09478E+00 2.86685E-02-1.74854E+00-1.55542E-13-5.51337E-13
 -1      2623 3.07220E+01 3.81733E+00 3.33026E-03 2.26815E+00-4.07840E-13-7.75213E-13
 -1      2624 2.68640E+01-3.76556E+00 4.05856E-02 2.32992E+00-5.72736E-14 2.74170E-13
 -1      2625 1.03070E+01-2.59038E+00 5.63547E-02 5.63447E+00-4.73288E-13 2.86798E-13
 -1      2626 7.76465E+00-2.53160E+00 1.58799E-01 4.79822E+00-3.61072E-13 3.77282E-13
 -1      2627 7.97352E+00-1.18990E+00 1.49974E-01 3.65851E+00-2.26569E-13 2.38448E-13
 -1      2628 7.34223E+00-2.25124E+00 1.57326E-01-3.95900E+00-2.70894E-14 1.63980E-13
 -1      2629 2.40802E+01-5.37668E+00 3.96445E-02 4.34496E+00-1.52822E-13-4.75342E-13
 -1      2630 2.00951E+01 1.14386E-01 3.23515E-04 1.81666E-01-4.60151E-14 5.10430E-13
 -1      2631 2.10082E+01-5.22023E+00 7.41885E-02 5.69143E+00-3.66679E-13 2.22551E-13
 -1      2632 2.00876E+01 1.49657E-01 7.43485E-05 2.09041E-01-5.21290E-15 5.79109E-13
 -1      2633 2.92605E+01-2.75591E+00 4.15319E-02 5.75192E-01-3.00197E-13-3.85025E-13
 -1      2634 5.49702E+00-1.29437E+00 1.62170E-01 1.73711E-01 3.87988E-14 2.83246E-13
 -1      2635 5.25676E+00-1.74251E+00 1.62274E-01 1.40366E+00-2.58640E-13-8.61533E-14
 -1      2636 1.78795E+01-4.99079E+00 1.06331E-01-6.42457E+00-4.33098E-13-7.66748E-15
 -1      2637 2.11663E+01-5.49432E+00 8.35988E-02-5.41549E+00-6.81677E-14-3.32796E-13
 -1      2638 2.34775E+01-5.50589E+00-1.11210E-01-4.11334E+00 1.32810E-14-6.93029E-13
 -1      2639 1.96921E+01-4.93747E+00 1.24900E-01-5.59775E+00-3.61239E-14-4.20650E-13
 -1      2640 2.01008E+01 1.75360E-01 8.72280E-04 2.64562E-01-9.91884E-14 3.94413E-13
 -1      2641 2.94228E+01 1.33215E-01-4.70062E-02-7.69781E-01 1.45980E-13 1.81466E-13
 -1      2642 1.32034E+01-3.99506E+00 1.50931E-01-6.14363E+00-2.36478E-14-5.70516E-14
 -1      2643 3.07215E+01 2.37771E+00-9.16976E-02 9.87354E-01 2.95333E-13 2.13329E-13
 -1      2644 2.88943E+01 3.04453E+00-1.17399E-01 1.95618E+00 3.34566E-13 1.39680E-13
 -1      2645 2.94919E+01 9.46051E-01-5.71260E-02 9.91517E-01 3.04520E-13 2.08389E-13
 -1      2646 3.13106E+01 5.82131E+00-3.91724E-02-1.29986E+00-6.25194E-13-4.40870E-13
 -1      2647 3.08460E+01 4.85655E+00-7.75549E-02-1.26476E+00 1.29174E-13 2.29150E-13
 -1      2648 2.90282E+01 3.57980E+00-6.56618E-02-1.79548E+00 2.27873E-13 2.82593E-13
 -1      2649 2.92427E+01 5.53048E+00-2.44653E-01-1.46998E+00 2.22211E-13 1.76054E-13
 -1      2650 2.04323E+01 1.80920E+00 1.25424E-02 1.56186E+00 1.35086E-13 5.63447E-14
 -1      2651 1.02916E+01-3.25738E+00 1.51443E-01-5.93218E+00-2.47913E-13-2.39808E-14
 -1      2652 2.86834E+01-2.34128E+00-5.33562E-02-1.32594E+00 1.21014E-14 1.72029E-13
 -1      2653 9.75156E+00-3.49536E+00 1.37263E-01 5.60855E+00-8.17124E-14-6.59583E-13
 -1      2654 9.23730E+00-2.09732E+00 1.77343E-01 4.75108E+00-1.31686E-13-4.79949E-13
 -1      2655 1.27199E+01-3.56576E+00 3.85755E-03 5.96729E+00 9.66172E-14-7.76879E-13
 -1      2656 3.07552E+01 1.74996E+00-6.08257E-02-2.12749E+00-4.01262E-13-4.08007E-13
 -1      2657 2.01242E+01 1.29604E-01 1.71119E-03-2.19977E-01 8.37864E-14 2.90262E-13
 -1      2658 2.00851E+01 1.86590E-01-1.13166E-03-2.47386E-01-5.73925E-14 8.66583E-14
 -1      2659 2.00959E+01 2.22125E-01 9.81008E-04-3.06142E-01-1.17707E-13 2.56632E-13
 -1      2660 2.01688E+01 1.34696E-01 2.77127E-03-2.63909E-01-8.83623E-14 3.65868E-13
 -1      2661 2.01524E+01 1.77573E-01-1.49173E-03-3.30894E-01-2.01933E-13 2.04504E-13
 -1      2662 1.98560E+01 2.77419E+00-6.30411E-03 5.14272E-01 3.32031E-14-8.72108E-14
 -1      2663 1.98317E+01 2.82441E+00-5.75773E-03 3.63838E-01 2.79912E-14-8.84787E-14
 -1      2664 1.98151E+01 2.86248E+00-5.64272E-03 2.28964E-01 2.06277E-14-9.72987E-14
 -1      2665 1.98067E+01 2.87955E+00-5.48371E-03 7.49205E-02 6.82151E-15-8.69259E-14
 -1      2666 1.99610E+01 2.51354E+00 3.73041E-03 2.63623E-01 1.54727E-14-8.51742E-14
 -1      2667 2.00500E+01 2.32948E+00-1.06906E-02 1.04331E+00 1.08885E-13-4.56581E-14
 -1      2668 1.99874E+01 2.47922E+00-6.37152E-03 9.07713E-01 9.06452E-14-5.34811E-14
 -1      2669 2.02188E+01 1.91185E+00-1.19584E-02 1.22524E+00 1.26675E-13-1.46098E-14
 -1      2670 2.01287E+01 2.15046E+00-4.86872E-03 1.13161E+00 1.13309E-13-2.96499E-14
 -1      2671 2.01947E+01 1.89286E+00 6.37306E-03 9.23081E-01 1.08696E-13-2.61495E-14
 -1      2672 2.02102E+01 7.30267E-01-3.38382E-03 6.39918E-01 1.10423E-13 4.64407E-14
 -1      2673 2.03512E+01 9.54159E-01 9.17140E-03 9.04707E-01 1.14271E-13 5.90176E-14
 -1      2674 9.78855E+00-1.99586E+00 1.69674E-01-5.03309E+00-2.60347E-13-5.06539E-14
 -1      2675 1.27908E+01-3.25532E+00 2.58703E-02-6.31601E+00-2.67786E-13 2.80054E-14
 -1      2676 2.03348E+01 1.50202E+00-1.85022E-03 1.26606E+00 1.23874E-13 4.15011E-14
 -1      2677 2.70425E+01-3.37836E+00-1.21425E-01 1.00107E+00-2.51609E-14 2.19713E-13
 -1      2678 2.54701E+01-4.51647E+00 8.45644E-02 2.83170E+00-1.88155E-13 2.86715E-13
 -1      2679 2.02184E+01 6.34276E-01 8.56001E-03-4.30702E-01-8.32320E-14 1.34102E-14
 -1      2680 2.01356E+01 4.83638E-01-3.22114E-03-2.70062E-01-6.95563E-14 7.84588E-15
 -1      2681 2.01106E+01 3.72752E-01 6.54046E-03-1.47521E-01-3.95513E-14 2.35728E-14
 -1      2682 2.00541E+01 2.80665E-01-1.54924E-03-4.64468E-02-1.67997E-14 3.03550E-14
 -1      2683 2.02010E+01 5.40395E-01-1.72493E-03-2.50773E-01-5.15424E-14 1.79635E-14
 -1      2684 2.00294E+01 2.13260E-01 4.44052E-03 3.32624E-02-2.52677E-14 3.44001E-14
 -1      2685 1.99974E+01 1.57265E-01-5.21127E-04 9.48845E-02-3.50728E-14 3.50783E-14
 -1      2686 2.01350E+01 3.16636E-01-2.19132E-03-3.67838E-02-3.04307E-14 2.00210E-14
 -1      2687 1.99784E+01 1.16920E-01 2.78572E-03 1.44598E-01-4.55200E-14 3.30922E-14
 -1      2688 1.99657E+01 8.43692E-02 1.33505E-04 1.81237E-01-5.78312E-14 2.53810E-14
 -1      2689 2.00825E+01 1.78980E-01-2.02353E-03 1.01762E-01-4.74788E-14 2.24198E-14
 -1      2690 1.99533E+01 6.19222E-02 1.57425E-03 2.11608E-01-5.76322E-14 4.10606E-14
 -1      2691 1.99549E+01 4.53686E-02 5.72571E-04 2.33519E-01-5.90025E-14 3.55510E-14
 -1      2692 2.00467E+01 9.79094E-02-1.67194E-03 1.88634E-01-5.20391E-14 2.20489E-14
 -1      2693 1.99483E+01 3.54030E-02 7.05548E-04 2.52792E-01-4.33632E-14 5.51550E-14
 -1      2694 1.99603E+01 3.03085E-02 9.04185E-04 2.67354E-01-3.78315E-14 4.76040E-14
 -1      2695 2.00262E+01 5.56842E-02-1.31671E-03 2.43281E-01-3.60009E-14 7.55123E-14
 -1      2696 1.99585E+01 2.95046E-02 8.22970E-05 2.81826E-01-2.62776E-14 6.13814E-14
 -1      2697 1.99785E+01 3.30450E-02 1.19426E-03 2.94503E-01-2.61000E-14 1.25366E-13
 -1      2698 2.00183E+01 4.13168E-02-1.01801E-03 2.80759E-01-2.33966E-14 1.16367E-13
 -1      2699 1.99803E+01 3.93300E-02-3.74685E-04 3.09037E-01-4.63391E-14 1.46355E-13
 -1      2700 2.00070E+01 4.97439E-02 1.48196E-03 3.24026E-01-1.74995E-14 1.37232E-13
 -1      2701 2.00201E+01 4.79072E-02-7.82516E-04 3.12667E-01 7.62248E-16 1.51447E-13
 -1      2702 2.00115E+01 6.18251E-02-7.27943E-04 3.42471E-01-2.98601E-14 1.53443E-13
 -1      2703 2.00442E+01 7.80286E-02 1.78996E-03 3.63126E-01-3.36410E-14 1.00340E-13
 -1      2704 2.00295E+01 7.10992E-02-5.95934E-04 3.48053E-01-2.55324E-14 1.21380E-13
 -1      2705 2.00506E+01 9.50986E-02-1.02592E-03 3.88619E-01-7.73101E-15 7.81033E-14
 -1      2706 2.00895E+01 1.16407E-01 2.12939E-03 4.17718E-01-1.82740E-15 6.07843E-14
 -1      2707 2.00445E+01 1.08152E-01-4.36671E-04 3.94136E-01-5.47254E-14 6.49968E-14
 -1      2708 2.00970E+01 1.37897E-01-1.30387E-03 4.52891E-01-4.78241E-14 4.25526E-14
 -1      2709 2.01426E+01 1.63756E-01 2.50163E-03 4.92775E-01-1.01240E-13 3.52103E-14
 -1      2710 2.00635E+01 1.57264E-01-2.81794E-04 4.56829E-01-4.30966E-14 4.17274E-14
 -1      2711 2.01504E+01 1.89064E-01-1.58279E-03 5.39846E-01-1.42981E-13 6.34819E-14
 -1      2712 2.02036E+01 2.18719E-01 2.89901E-03 5.92415E-01-1.30141E-13 7.02180E-14
 -1      2713 2.00849E+01 2.16930E-01-1.10079E-04 5.41037E-01-1.12975E-13 7.60705E-14
 -1      2714 2.02109E+01 2.46827E-01-1.86497E-03 6.53184E-01-1.29882E-13 2.73933E-14
 -1      2715 2.02726E+01 2.78830E-01 3.30475E-03 7.19733E-01-1.27864E-13 3.38588E-14
 -1      2716 2.01071E+01 2.85152E-01 9.11337E-05 6.50753E-01-1.65602E-13 4.27309E-14
 -1      2717 2.02787E+01 3.07712E-01-2.12201E-03 7.95454E-01-1.41125E-13 4.09284E-14
 -1      2718 2.03503E+01 3.39131E-01 3.69378E-03 8.76281E-01-1.44594E-13 4.67634E-14
 -1      2719 2.01285E+01 3.58283E-01 3.09492E-04 7.88949E-01-1.26325E-13 4.95832E-14
 -1      2720 2.03553E+01 3.64796E-01-2.27298E-03 9.67389E-01-7.31299E-14 2.63204E-14
 -1      2721 2.04386E+01 3.89975E-01 4.03758E-03 1.06109E+00-5.01270E-14 2.07865E-14
 -1      2722 2.01480E+01 4.29230E-01 4.81063E-04 9.57246E-01-1.27114E-13 1.58018E-13
 -1      2723 2.04446E+01 4.04998E-01-2.14753E-03 1.16673E+00-4.87232E-14 4.98812E-14
 -1      2724 2.05430E+01 4.13718E-01 4.31090E-03 1.26906E+00-6.92924E-15 8.24205E-15
 -1      2725 2.01667E+01 4.84658E-01 4.40346E-04 1.15533E+00-2.71014E-14 8.06625E-14
 -1      2726 2.05567E+01 4.05174E-01-1.42592E-03 1.38631E+00 5.55545E-14 1.78011E-14
 -1      2727 2.06771E+01 3.80219E-01 4.48825E-03 1.48847E+00 1.12644E-13-4.26633E-14
 -1      2728 2.01910E+01 5.00898E-01-1.62776E-04 1.38007E+00-1.34341E-14-1.04504E-14
 -1      2729 2.07138E+01 3.27305E-01 4.54251E-04 1.61095E+00 1.15967E-13-7.43459E-14
 -1      2730 2.08699E+01 2.42054E-01 4.48038E-03 1.69709E+00 1.32939E-13-1.50929E-13
 -1      2731 2.02386E+01 4.38589E-01-1.97447E-03 1.62405E+00 6.16976E-14-5.51459E-14
 -1      2732 2.09609E+01 1.14688E-01 4.40284E-03 1.81210E+00 1.92418E-13-1.74630E-13
 -1      2733 2.11763E+01-6.69474E-02 3.94092E-03 1.85570E+00 1.91692E-13-2.03891E-13
 -1      2734 2.03489E+01 2.37309E-01-6.04679E-03 1.87259E+00 1.17789E-13-1.63546E-13
 -1      2735 2.13777E+01-3.04482E-01 1.17820E-02 1.93764E+00 2.29528E-13-2.00818E-13
 -1      2736 2.16861E+01-6.19795E-01 1.54857E-03 1.89707E+00 2.30514E-13-1.50637E-13
 -1      2737 2.05985E+01-1.85076E-01-1.37547E-02 2.09618E+00 2.35492E-13-2.28873E-13
 -1      2738 2.20862E+01-9.90884E-01 2.35078E-02 1.89206E+00 1.72660E-13-2.80830E-13
 -1      2739 2.25186E+01-1.44318E+00-4.32329E-03 1.70625E+00 1.26372E-13-2.67150E-13
 -1      2740 2.11195E+01-9.15534E-01-2.64634E-02 2.23093E+00 1.38568E-13-1.69732E-13
 -1      2741 2.32202E+01-1.90903E+00 3.83615E-02 1.51608E+00 1.52078E-13-2.78551E-13
 -1      2742 2.37704E+01-2.39856E+00-1.59624E-02 1.11508E+00 9.30809E-14-2.24450E-13
 -1      2743 2.20991E+01-1.96868E+00-4.26532E-02 2.13934E+00 1.28941E-13-2.65856E-13
 -1      2744 2.48160E+01-2.75753E+00 4.28468E-02 5.83630E-01 1.23223E-13-1.90769E-13
 -1      2745 2.53996E+01-2.91924E+00-2.09450E-02-5.41579E-02 1.66330E-13-2.87895E-14
 -1      2746 2.37147E+01-3.11529E+00-5.81314E-02 1.56797E+00 1.97720E-13-2.86686E-13
 -1      2747 2.65680E+01-2.70853E+00-8.04412E-04-9.44105E-01 1.45205E-13 4.33126E-14
 -1      2748 2.70258E+01-2.00599E+00-2.39626E-02-1.61393E+00 6.34492E-14 1.30146E-13
 -1      2749 2.59044E+01-3.48906E+00-7.12452E-02 1.71468E-01 2.46138E-13-1.59945E-13
 -1      2750 2.80673E+01-1.03431E+00-1.03330E-01-2.22415E+00-1.32158E-13-6.45525E-14
 -1      2751 2.81303E+01 7.35773E-01-1.08803E-01-2.35765E+00-2.19186E-13-2.22794E-13
 -1      2752 2.85859E+01 2.99803E+00-2.12911E-01-2.42299E+00-4.12725E-13-2.44978E-13
 -1      2753 2.83842E+01 4.67170E+00-1.53983E-01-1.50692E+00-5.14006E-13-3.34656E-13
 -1      2754 2.80294E+01 5.21780E+00-1.81011E-01 4.21293E-01-4.05065E-13-5.44228E-13
 -1      2755 2.81663E+01 4.37787E+00-2.42516E-01 1.73905E+00-3.94101E-13-6.59854E-13
 -1      2756 2.80958E+01 2.71681E+00-1.49883E-01 2.22141E+00-3.21049E-13-6.86541E-13
 -1      2757 2.82412E+01 9.11169E-01-1.34301E-01 2.70402E+00-3.94032E-13-5.92845E-13
 -1      2758 2.63350E+01-2.63727E+00-3.68881E-02 9.51253E-01-1.41703E-13-5.61443E-13
 -1      2759 2.58188E+01-2.92735E+00 2.32318E-02 2.21608E-01-3.23617E-14-5.10449E-13
 -1      2760 2.46509E+01-2.80750E+00-2.15639E-02-5.31612E-01-6.08957E-14-4.48360E-13
 -1      2761 2.40740E+01-2.44156E+00 4.47534E-02-1.07702E+00-2.14685E-14-4.12525E-13
 -1      2762 2.49401E+01-3.47047E+00-3.14825E-02-9.51618E-01-1.56229E-14-5.66176E-13
 -1      2763 2.31693E+01-1.99222E+00-9.33413E-03-1.44359E+00 9.19447E-14-2.72802E-13
 -1      2764 2.26639E+01-1.49371E+00 3.26283E-02-1.74410E+00 9.03767E-14-1.27775E-13
 -1      2765 2.29396E+01-2.63143E+00-4.26114E-02-1.91618E+00 1.27855E-13-4.91652E-13
 -1      2766 2.21052E+01-1.05616E+00-8.54265E-04-1.83668E+00 3.59565E-15-2.04633E-13
 -1      2767 2.17284E+01-6.59671E-01 1.77568E-02-1.95119E+00 1.56932E-13-2.21130E-13
 -1      2768 2.16008E+01-1.47798E+00-3.50554E-02-2.23182E+00 8.32624E-15-3.27920E-13
 -1      2769 2.14277E+01-3.47070E-01 2.86941E-03-1.90957E+00 2.53565E-13-2.32817E-13
 -1      2770 2.11639E+01-9.33018E-02 8.02501E-03-1.90738E+00 3.39647E-14-2.18694E-13
 -1      2771 2.08476E+01-5.57878E-01-2.05614E-02-2.19949E+00 1.05209E-13-3.87579E-13
 -1      2772 2.10196E+01 9.25003E-02 4.25660E-03-1.80672E+00 5.37972E-14-1.86656E-13
 -1      2773 2.08334E+01 2.28109E-01 2.37290E-03-1.74036E+00 1.21444E-13-1.55555E-13
 -1      2774 2.04651E+01 3.05393E-02-9.98902E-03-2.01535E+00 9.49595E-14-3.62557E-13
 -1      2775 2.07715E+01 3.19833E-01 4.50305E-03-1.61953E+00 1.56154E-13-4.17047E-14
 -1      2776 2.06333E+01 3.76308E-01-4.72555E-04-1.52316E+00 2.90274E-13-1.42647E-13
 -1      2777 2.02891E+01 3.47603E-01-3.98405E-03-1.77528E+00 1.89745E-13-1.75654E-13
 -1      2778 2.06097E+01 4.08472E-01 4.39521E-03-1.40071E+00 2.52885E-13-1.14105E-13
 -1      2779 2.05007E+01 4.18385E-01-1.69805E-03-1.29530E+00-3.38986E-14-6.84063E-14
 -1      2780 2.02139E+01 4.82913E-01-1.04140E-03-1.52448E+00 1.76196E-13-3.92180E-13
 -1      2781 2.04920E+01 4.17320E-01 4.13837E-03-1.18024E+00-8.49913E-14-5.03627E-14
 -1      2782 2.04021E+01 4.03301E-01-2.03525E-03-1.07773E+00 4.50123E-14-1.85772E-13
 -1      2783 2.01810E+01 5.10489E-01 1.35321E-04-1.28386E+00-2.20000E-14-4.69072E-13
 -1      2784 2.03975E+01 3.86470E-01 3.77963E-03-9.74190E-01-1.44047E-14 7.62211E-14
 -1      2785 2.03217E+01 3.62822E-01-1.92061E-03-8.80533E-01 1.86317E-13 1.14222E-14
 -1      2786 2.01621E+01 4.81821E-01 4.36702E-04-1.06343E+00 1.23146E-13-1.90066E-13
 -1      2787 2.03166E+01 3.40966E-01 3.33894E-03-7.89802E-01 2.85331E-13-6.11484E-14
 -1      2788 2.02525E+01 3.16247E-01-1.59814E-03-7.07054E-01 1.84800E-13-1.33483E-14
 -1      2789 2.01451E+01 4.29737E-01 3.79832E-04-8.67440E-01 1.77711E-13-1.97125E-13
 -1      2790 2.02454E+01 2.95805E-01 2.89112E-03-6.28581E-01 1.64952E-13 2.87836E-14
 -1      2791 2.01915E+01 2.74688E-01-1.13920E-03-5.56233E-01 1.01717E-14-4.56474E-14
 -1      2792 2.01260E+01 3.74086E-01 2.42561E-04-6.96337E-01 1.60687E-13-2.05409E-13
 -1      2793 2.01818E+01 2.58615E-01 2.24776E-03-4.88708E-01-1.78266E-13 2.62808E-14
 -1      2794 2.01378E+01 2.44523E-01-3.16069E-04-4.25387E-01-2.10196E-13-4.36093E-14
 -1      2795 2.01035E+01 3.25274E-01-2.59621E-04-5.47743E-01 2.18436E-14-8.96851E-14
 -1      2796 1.98725E+01 6.92636E-02 4.55488E-04-1.74818E-01 6.21890E-14 1.54974E-14
 -1      2797 1.98809E+01 9.77600E-02 3.11573E-03-1.40519E-01 5.19499E-14 1.63640E-14
 -1      2798 2.01325E+01 2.36858E-01 1.95211E-03-3.84645E-01-1.31097E-13 9.22546E-15
 -1      2799 2.01062E+01 2.29026E-01 2.40411E-04-3.44865E-01-2.35138E-14 1.36156E-13
 -1      2800 2.00837E+01 2.92740E-01-6.77996E-04-4.36922E-01-8.14723E-14 4.54441E-14
 -1      2801 1.99013E+01 1.32639E-01 4.19540E-05-9.05332E-02 3.83132E-14 5.07781E-15
 -1      2802 1.99331E+01 1.81664E-01 5.16650E-03-3.08409E-02 5.98670E-14 9.09160E-15
 -1      2803 2.00027E+01 1.55069E-01-2.48729E-03-9.80240E-02 5.94364E-14-8.70839E-15
 -1      2804 1.98879E+01 1.96023E-02 9.49349E-04-2.53069E-01 3.68004E-14 1.44954E-15
 -1      2805 1.98686E+01 2.52035E-02 7.91840E-04-2.41379E-01 4.24599E-14-1.94880E-14
 -1      2806 1.99202E+01 1.84508E-02 1.15002E-03-2.74193E-01 5.80807E-14 3.88982E-15
 -1      2807 1.98926E+01 1.73811E-02 1.79323E-04-2.65119E-01 3.52737E-14-1.18784E-14
 -1      2808 1.99597E+01 2.70275E-02-1.14343E-03-2.71332E-01 3.65477E-14 2.32255E-14
 -1      2809 1.99643E+01 2.73600E-02 1.35856E-03-2.95394E-01 8.66400E-14-1.29880E-14
 -1      2810 1.99300E+01 2.14418E-02-2.15662E-04-2.85268E-01 6.85973E-14-2.52645E-14
 -1      2811 1.99758E+01 2.79127E-02-9.02910E-04-2.97401E-01 7.96167E-14 1.14285E-14
 -1      2812 2.00190E+01 4.35130E-02 1.58021E-03-3.22724E-01 8.45137E-14-6.12001E-14
 -1      2813 1.99785E+01 3.41263E-02-4.59264E-04-3.08908E-01 9.01477E-14-8.36781E-15
 -1      2814 2.00021E+01 4.08589E-02-7.56990E-04-3.24466E-01 6.89086E-14-2.97018E-14
 -1      2815 2.00842E+01 6.44884E-02 1.80583E-03-3.60451E-01-6.38351E-15-1.29014E-14
 -1      2816 2.00373E+01 5.28696E-02-5.94290E-04-3.41147E-01 5.75773E-14-3.66937E-14
 -1      2817 2.00375E+01 6.23644E-02-6.87674E-04-3.58749E-01 4.48010E-14 1.48336E-14
 -1      2818 2.01612E+01 8.77348E-02 2.01244E-03-4.11203E-01-7.48976E-14 3.49180E-15
 -1      2819 2.01069E+01 7.52485E-02-6.43530E-04-3.85425E-01-3.86288E-14-2.21424E-14
 -1      2820 2.00817E+01 8.92905E-02-6.80829E-04-4.04609E-01-1.81194E-14 6.44135E-14
 -1      2821 2.02517E+01 1.10025E-01 2.15983E-03-4.75824E-01 3.63934E-14 1.02501E-14
 -1      2822 2.01890E+01 9.84563E-02-6.10581E-04-4.43524E-01-4.17029E-14-1.85561E-14
 -1      2823 2.01355E+01 1.18194E-01-7.30949E-04-4.64654E-01-4.36488E-14-2.46752E-14
 -1      2824 2.03585E+01 1.26833E-01 2.18708E-03-5.52903E-01 6.41376E-14 1.00458E-13
 -1      2825 2.02860E+01 1.18721E-01-4.77751E-04-5.15260E-01 6.59851E-14 1.17909E-13
 -1      2826 2.02008E+01 1.44622E-01-8.45471E-04-5.39568E-01-8.71156E-15 4.92359E-14
 -1      2827 2.04849E+01 1.31664E-01 2.00880E-03-6.37978E-01 5.35809E-14 1.04199E-13
 -1      2828 2.04014E+01 1.30656E-01-2.03594E-04-5.97857E-01 7.15837E-14 7.96624E-14
 -1      2829 2.02804E+01 1.62329E-01-1.04819E-03-6.27614E-01 3.01269E-14 1.32122E-13
 -1      2830 2.06351E+01 1.15424E-01 1.51196E-03-7.22395E-01 4.68875E-14 1.63229E-13
 -1      2831 2.05396E+01 1.26585E-01 2.80341E-04-6.84965E-01 8.93010E-14 1.52231E-13
 -1      2832 2.03791E+01 1.62446E-01-1.38764E-03-7.23812E-01 4.73361E-14 8.52483E-14
 -1      2833 2.08145E+01 6.61688E-02 5.55727E-04-7.91897E-01-2.92791E-14 6.24712E-14
 -1      2834 2.07066E+01 9.60428E-02 1.06712E-03-7.65333E-01 1.62058E-14 1.12243E-13
 -1      2835 2.05038E+01 1.32801E-01-1.93789E-03-8.18764E-01 5.74052E-14 1.70107E-13
 -1      2836 2.10297E+01-3.00598E-02-1.02023E-03-8.25153E-01-2.99701E-16-5.12131E-14
 -1      2837 2.09096E+01 2.59253E-02 2.25563E-03-8.21234E-01-6.42693E-14 9.27249E-15
 -1      2838 2.06646E+01 5.78576E-02-2.78919E-03-8.97133E-01 2.89290E-14 1.07321E-13
 -1      2839 2.12878E+01-1.85926E-01-3.36324E-03-7.92826E-01 5.44286E-15 1.74661E-14
 -1      2840 2.11575E+01-9.76882E-02 3.89652E-03-8.26962E-01 2.76900E-14 1.14840E-14
 -1      2841 2.08757E+01-7.96768E-02-4.00054E-03-9.35887E-01 2.18731E-15 5.95658E-14
 -1      2842 2.15938E+01-4.04876E-01-6.48721E-03-6.58501E-01-3.29287E-14 6.00029E-14
 -1      2843 2.14580E+01-2.84320E-01 5.85508E-03-7.48308E-01-9.46292E-16 5.82519E-14
 -1      2844 2.11544E+01-2.93644E-01-5.47657E-03-9.02736E-01-1.83837E-14 1.23985E-13
 -1      2845 2.19433E+01-6.66583E-01-1.00320E-02-3.84394E-01-1.50701E-13 1.25944E-13
 -1      2846 2.18126E+01-5.28100E-01 7.61194E-03-5.45168E-01-6.06248E-14 1.09608E-13
 -1      2847 2.15172E+01-5.82784E-01-6.72904E-03-7.56122E-01-6.85806E-14 1.01588E-14
 -1      2848 2.23111E+01-9.06412E-01-1.27011E-02 5.38936E-02-1.46179E-13 3.30401E-14
 -1      2849 2.22044E+01-7.90168E-01 7.93507E-03-1.81379E-01-1.92161E-13 1.58685E-13
 -1      2850 2.19684E+01-9.10827E-01-6.66567E-03-4.50423E-01-1.75083E-13 5.77614E-14
 -1      2851 2.26364E+01-9.99526E-01-1.18566E-02 6.36288E-01-1.88244E-13-7.20860E-14
 -1      2852 2.25807E+01-9.77567E-01 4.80191E-03 3.51048E-01-1.25286E-13-3.38846E-14
 -1      2853 2.24788E+01-1.17900E+00-3.50128E-03 4.68610E-02-1.17753E-13 4.77792E-14
 -1      2854 2.28237E+01-7.80165E-01-3.99655E-03 1.25419E+00-1.88628E-13 2.34120E-14
 -1      2855 2.28448E+01-9.40140E-01-3.18309E-03 9.88989E-01-2.35858E-13-2.69717E-15
 -1      2856 2.29601E+01-1.21640E+00 3.29716E-03 7.12620E-01-2.17787E-13 7.44486E-14
 -1      2857 2.27769E+01-1.35981E-01 1.03583E-02 1.67392E+00 4.08602E-14 2.03335E-13
 -1      2858 2.28765E+01-5.18269E-01-1.58182E-02 1.54890E+00-4.95914E-14 1.66372E-13
 -1      2859 2.32628E+01-8.11523E-01 1.30701E-02 1.40825E+00-1.57312E-13 8.61602E-14
 -1      2860 2.24987E+01 8.07998E-01 2.12760E-02 1.59474E+00-8.21591E-14 3.99888E-13
 -1      2861 2.26354E+01 3.08367E-01-2.52424E-02 1.73000E+00-8.64718E-14 2.93015E-13
 -1      2862 2.32438E+01 1.08704E-01 1.40646E-02 1.82411E+00-1.02739E-13 2.73649E-13
 -1      2863 2.21527E+01 1.63638E+00 1.16371E-02 8.70556E-01 1.69883E-13 3.69293E-13
 -1      2864 2.22629E+01 1.26257E+00-2.40520E-02 1.28515E+00 4.58574E-14 3.88201E-13
 -1      2865 2.29430E+01 1.29337E+00 3.40256E-03 1.60492E+00-4.28893E-14 3.59462E-13
 -1      2866 2.20188E+01 1.80090E+00-2.05582E-02-2.60370E-01 3.30862E-13 2.60984E-13
 -1      2867 2.20477E+01 1.81097E+00-9.24247E-03 2.51582E-01 3.06496E-13 3.24681E-13
 -1      2868 2.26389E+01 2.12682E+00-1.45628E-03 6.17343E-01 2.66894E-13 2.69533E-13
 -1      2869 2.22736E+01 1.23461E+00-2.44929E-02-1.30203E+00 2.61581E-13 1.91500E-13
 -1      2870 2.21749E+01 1.62821E+00 1.91505E-02-9.02481E-01 3.60563E-13 2.27126E-13
 -1      2871 2.26166E+01 2.16800E+00 9.82820E-04-6.78109E-01 4.03656E-13 8.70827E-14
 -1      2872 2.26419E+01 2.80862E-01-2.65485E-02-1.72697E+00 7.91135E-14 1.57481E-13
 -1      2873 2.25023E+01 7.81182E-01 1.90563E-02-1.59984E+00 1.69179E-13 2.54916E-13
 -1      2874 2.29525E+01 1.24827E+00-4.61454E-04-1.61220E+00 2.23774E-13 4.22162E-14
 -1      2875 2.28757E+01-5.37079E-01-1.61395E-02-1.52985E+00-1.13255E-13 1.61237E-13
 -1      2876 2.27790E+01-1.60934E-01 8.71912E-03-1.66135E+00-2.92379E-14 1.32060E-13
 -1      2877 2.32442E+01 6.92581E-02 9.70919E-03-1.81289E+00 6.45213E-14 1.90820E-15
 -1      2878 2.28358E+01-9.46614E-01-2.17271E-03-9.64257E-01-1.25556E-13 3.45138E-13
 -1      2879 2.28186E+01-7.91777E-01-3.39983E-03-1.23188E+00-1.94441E-13 2.68133E-13
 -1      2880 2.32566E+01-8.31971E-01 1.27518E-02-1.38472E+00-2.04336E-13 4.81143E-14
 -1      2881 2.25658E+01-9.76338E-01 5.06893E-03-3.26842E-01 9.01518E-14 2.54961E-13
 -1      2882 2.26244E+01-1.00145E+00-1.14035E-02-6.12103E-01 4.99188E-14 4.01634E-13
 -1      2883 2.29464E+01-1.22066E+00 4.57962E-03-6.84793E-01-1.88632E-14 3.12030E-13
 -1      2884 2.21874E+01-7.86232E-01 7.80166E-03 2.02546E-01 1.21643E-13 3.23376E-13
 -1      2885 2.22962E+01-9.03351E-01-1.25220E-02-3.19817E-02 1.20352E-13 2.93280E-13
 -1      2886 2.24623E+01-1.17556E+00-3.24049E-03-2.22641E-02 7.34304E-14 3.71316E-13
 -1      2887 2.17946E+01-5.22909E-01 7.53208E-03 5.63004E-01 2.39789E-13 3.57067E-13
 -1      2888 2.19268E+01-6.61741E-01-9.95917E-03 4.03599E-01 2.52756E-13 4.25292E-13
 -1      2889 2.19523E+01-9.04689E-01-6.51643E-03 4.71159E-01 1.58794E-13 3.22701E-13
 -1      2890 2.14402E+01-2.78889E-01 5.80944E-03 7.62366E-01 3.99217E-14 2.41061E-13
 -1      2891 2.15769E+01-3.99391E-01-6.37186E-03 6.74217E-01 2.00002E-13 3.10231E-13
 -1      2892 2.15020E+01-5.75689E-01-6.62518E-03 7.72973E-01 2.64788E-13 2.88519E-13
 -1      2893 2.11409E+01-9.22210E-02 3.89323E-03 8.37356E-01-2.20273E-14 1.63371E-13
 -1      2894 2.12716E+01-1.80540E-01-3.26299E-03 8.04933E-01-7.37447E-14 2.50650E-13
 -1      2895 2.11414E+01-2.86320E-01-5.33784E-03 9.15364E-01 1.02296E-13 1.11213E-13
 -1      2896 2.08949E+01 3.27185E-02 2.34171E-03 8.27622E-01 1.66032E-13 9.26704E-14
 -1      2897 2.10145E+01-2.41572E-02-9.85955E-04 8.33671E-01 8.99920E-14 8.33362E-14
 -1      2898 2.08653E+01-7.21085E-02-3.95030E-03 9.44649E-01 4.28841E-14-4.85466E-14
 -1      2899 2.06943E+01 1.06200E-01 1.26327E-03 7.66179E-01 8.80306E-14 8.42335E-14
 -1      2900 2.08009E+01 7.42797E-02 5.44946E-04 7.95825E-01 1.33312E-13 8.31292E-14
 -1      2901 2.06568E+01 6.76193E-02-2.81118E-03 9.01332E-01 1.30668E-13 6.12839E-14
 -1      2902 2.05309E+01 1.42797E-01 6.02959E-04 6.77363E-01-8.59314E-14 2.50147E-13
 -1      2903 2.06239E+01 1.28101E-01 1.45700E-03 7.19512E-01 2.29857E-14 1.22744E-13
 -1      2904 2.04986E+01 1.47578E-01-1.99514E-03 8.16374E-01-1.25210E-15 1.87248E-13
 -1      2905 2.03976E+01 1.56448E-01 2.60774E-04 5.77344E-01-2.71738E-13 3.33730E-13
 -1      2906 2.04772E+01 1.51965E-01 1.89048E-03 6.24658E-01-1.61163E-13 2.52811E-13
 -1      2907 2.03769E+01 1.85800E-01-1.46047E-03 7.11436E-01-1.76426E-13 4.08385E-13
 -1      2908 2.02889E+01 1.58645E-01 2.33419E-04 4.75464E-01-1.21453E-13 3.70395E-13
 -1      2909 2.03556E+01 1.58815E-01 1.98608E-03 5.23764E-01-2.02699E-13 3.03946E-13
 -1      2910 2.02815E+01 1.98857E-01-1.11525E-03 6.00307E-01-1.87246E-13 2.41179E-13
 -1      2911 2.02011E+01 1.57639E-01 8.48730E-04 3.76110E-01-2.74096E-13 4.89416E-13
 -1      2912 2.02549E+01 1.58299E-01 1.89911E-03 4.23136E-01-1.56400E-13 4.08202E-13
 -1      2913 2.02043E+01 1.99949E-01-9.77922E-04 4.90643E-01-2.95005E-13 6.91764E-14
 -1      2914 2.01272E+01 1.66913E-01 1.10306E-03 2.96927E-01-1.96525E-13 4.77807E-13
 -1      2915 2.01701E+01 1.67009E-01 1.84980E-03 3.43738E-01-3.09420E-13 4.57936E-13
 -1      2916 2.01359E+01 2.05717E-01-1.99594E-03 4.01414E-01-4.09229E-13-6.17263E-14
 -1      2917 2.00823E+01 2.22528E-01-1.92833E-03 3.30791E-01-3.25553E-13-8.35842E-15
 -1      2918 2.25692E+01-5.25173E+00-1.01541E-01 4.76063E+00-3.26780E-13 4.53018E-13
 -1      2919 1.97007E+01-4.90407E+00 1.28375E-01 5.79480E+00-3.41963E-13 2.64268E-13
 -1      2920 1.97754E+01 5.91190E-01-1.74651E-03 5.86999E-02 2.12423E-13-1.40131E-13
 -1      2921 1.97878E+01 5.79484E-01-3.90340E-04 1.17037E-01 3.58401E-13-2.41491E-13
 -1      2922 2.84787E+01 9.79631E-01-1.50067E-01-1.62484E+00 1.44273E-13 1.86504E-13
 -1      2923 2.80782E+01-1.14690E+00-5.44220E-02-7.57854E-01 7.48013E-14 1.83145E-13
 -1      2924 1.98619E+01 4.88583E-01-2.14781E-03 2.75296E-01 5.58089E-13 6.67184E-14
 -1      2925 1.98970E+01 4.52325E-01 6.61625E-04 3.07530E-01 3.65709E-13 2.29136E-13
 -1      2926 1.97743E+01 5.95898E-01-1.12754E-03-7.24864E-02-1.20864E-13-1.24246E-13
 -1      2927 1.97710E+01 5.99331E-01-1.14603E-03-1.15083E-02-7.80864E-14-2.34937E-13
 -1      2928 1.97214E+01 6.14658E-01 2.06173E-03 2.90846E-02 8.77261E-14-4.01815E-13
 -1      2929 1.98061E+01 5.53662E-01-2.13563E-03 1.79537E-01 3.86352E-13-4.06698E-13
 -1      2930 1.98319E+01 5.28496E-01 3.40115E-04 2.27871E-01 5.79584E-13-3.57276E-13
 -1      2931 1.98112E+01 5.20233E-01 1.24199E-03 2.82916E-01 4.66598E-13-1.42784E-13
 -1      2932 1.97505E+01 5.82377E-01 1.73263E-03 1.68004E-01 4.61524E-13-3.35346E-13
 -1      2933 1.98042E+01 5.66713E-01-2.88984E-04-1.95028E-01-6.11797E-14 3.06398E-14
 -1      2934 1.97850E+01 5.84790E-01-1.82413E-03-1.40453E-01-7.30963E-14 4.63270E-14
 -1      2935 1.97292E+01 6.12154E-01 2.18566E-03-1.15792E-01 2.33471E-14-3.01942E-14
 -1      2936 1.98643E+01 5.04170E-01 5.10518E-04-2.95923E-01 1.59923E-13-2.21427E-13
 -1      2937 1.98302E+01 5.36271E-01-2.32506E-03-2.53844E-01 6.02215E-14 6.40115E-14
 -1      2938 1.97749E+01 5.73584E-01 2.00946E-03-2.49186E-01 2.90228E-14 5.19454E-14
 -1      2939 1.99471E+01 4.13081E-01 3.20071E-04-3.56847E-01 9.87905E-14 2.38453E-14
 -1      2940 1.99042E+01 4.57450E-01-2.26912E-03-3.36069E-01 2.62532E-13-1.64600E-13
 -1      2941 1.98554E+01 5.01271E-01 1.41505E-03-3.53541E-01 1.43912E-13-1.41340E-13
 -1      2942 7.52471E+00-1.15518E+00 1.41180E-01-2.92372E+00 2.15224E-13 3.41366E-13
 -1      2943 9.38123E+00-1.94239E+00 7.36529E-02-4.62592E+00 1.27579E-13 4.83780E-14
 -1      2944 1.64423E+01-4.47624E+00-7.96420E-03 6.52818E+00-4.01512E-13 3.05145E-13
 -1      2945 1.37963E+01-3.55866E+00 1.73694E-01 6.35483E+00-4.82142E-13 3.48013E-13
 -1      2946 1.99649E+01 2.40314E-01-5.94042E-04 5.10852E-02 7.25922E-14 1.03973E-14
 -1      2947 2.00281E+01 3.22291E-01 7.82269E-03 1.51570E-01 9.06103E-14 2.08272E-14
 -1      2948 2.00625E+01 2.79125E-01-2.85193E-03 4.49438E-02 7.46905E-14-1.18552E-15
 -1      2949 7.04070E+00-1.10744E+00 1.42070E-01 2.60322E+00-2.41196E-13-2.09666E-13
 -1      2950 6.10580E+00-7.14936E-01 1.49682E-01 1.49193E-01-2.63138E-13 5.90361E-14
 -1      2951 2.59980E+01-5.09337E+00-1.06383E-01 2.86490E+00-7.50788E-14-3.59351E-13
 -1      2952 2.27718E+01-5.30970E+00 7.91253E-02 4.41834E+00 6.01880E-14-3.58123E-13
 -1      2953 6.99711E+00-4.29674E-01 1.30653E-01 1.00910E+00 6.26218E-14 1.29535E-13
 -1      2954 6.82921E+00-5.95248E-01 1.74255E-01-1.27188E+00 7.94260E-14 2.89546E-13
 -1      2955 1.98704E+01 3.46356E-02 7.33561E-04-2.23733E-01 4.93430E-14-1.28478E-14
 -1      2956 1.98624E+01 4.95813E-02 1.72026E-03-2.04338E-01 7.20190E-14 1.57921E-14
 -1      2957 1.99690E+01 8.19751E-02-1.96216E-03-1.85201E-01 6.43578E-14 1.57325E-14
 -1      2958 1.99562E+01 4.28058E-02-1.49636E-03-2.37765E-01 5.21432E-14 3.65881E-14
 -1      2959 2.03207E+01 1.06420E+00 5.89584E-03-8.53676E-01-8.13416E-14-1.92224E-15
 -1      2960 2.02282E+01 8.20298E-01-5.60432E-03-6.10232E-01-8.44845E-14-5.76245E-15
 -1      2961 2.02641E+01 9.00198E-01 9.73495E-07-5.65445E-01-7.20614E-14-1.86886E-14
 -1      2962 1.25399E+01-2.69829E+00 1.69013E-01-5.45202E+00 8.12128E-14-2.00145E-13
 -1      2963 1.57581E+01-3.81240E+00 4.13014E-02-5.90808E+00 1.13187E-13-2.45817E-13
 -1      2964 1.99328E+01 2.60343E+00-7.88181E-03 7.91894E-01 7.70284E-14-6.79016E-14
 -1      2965 1.98900E+01 2.69628E+00-6.17960E-03 6.43122E-01 5.19109E-14-7.34228E-14
 -1      2966 2.00088E+01 2.39946E+00 4.39656E-03 5.13897E-01 3.64383E-14-6.91581E-14
 -1      2967 2.00883E+01 2.19949E+00 5.62936E-03 7.42269E-01 7.54281E-14-4.28635E-14
 -1      2968 2.64922E+01-4.65376E+00 6.91062E-02-2.02360E+00-8.75966E-14-5.08912E-13
 -1      2969 2.80772E+01-3.59882E+00-1.24058E-01-4.37510E-01-1.51225E-13-5.28466E-13
 -1      2970 2.00697E+01 4.21550E-01-1.44247E-03 2.81493E-01 1.04640E-13 1.86982E-14
 -1      2971 2.01694E+01 5.58597E-01 1.04761E-02 4.46286E-01 1.02352E-13 3.39716E-14
 -1      2972 2.02544E+01 8.27153E-01 7.69373E-04 6.12850E-01 1.24414E-13 9.07624E-15
 -1      2973 2.01489E+01 4.86343E-01-1.99282E-03 2.71390E-01 1.02306E-13 2.86771E-15
 -1      2974 2.74146E+01-3.09742E+00-1.81516E-02-1.18452E+00-8.15042E-14 1.10828E-13
 -1      2975 2.89576E+01-1.30059E+00-1.00955E-01-1.01645E-02 5.80577E-14 7.33857E-14
 -1      2976 1.98852E+01 2.70497E+00-6.16029E-03-6.32844E-01-3.60282E-14-7.47646E-14
 -1      2977 1.99272E+01 2.61460E+00-7.72711E-03-7.81973E-01-5.16165E-14-8.03366E-14
 -1      2978 2.78434E+01 4.47604E+00-1.60777E-01 1.78212E+00 2.96846E-13-1.54786E-13
 -1      2979 2.78738E+01 5.46089E+00-1.90993E-01 1.29309E+00 2.44083E-13-2.22267E-13
 -1      2980 2.33206E+01-5.03063E+00 8.45179E-02-4.34325E+00-4.41730E-13 6.40321E-14
 -1      2981 2.53883E+01-4.63862E+00-8.53720E-02-3.03170E+00-3.09308E-13 7.51343E-14
 -1      2982 1.66558E+01-4.33481E+00 1.48635E-01-6.33802E+00-3.00968E-13 5.77871E-14
 -1      2983 2.01575E+01-5.18442E+00-5.23824E-02-5.82540E+00-4.49835E-13-2.44353E-14
 -1      2984 6.80731E+00-6.72872E-01 1.73026E-01-1.79846E+00-2.49977E-13 7.26363E-14
 -1      2985 7.77760E+00-1.11329E+00 1.13018E-01-3.57998E+00-2.47649E-13-4.33820E-14
 -1      2986 1.93204E+01-5.20041E+00-4.10382E-02 5.78639E+00 1.31728E-13-4.78895E-13
 -1      2987 1.67428E+01-4.29958E+00 1.78489E-01 5.96943E+00 2.28650E-13-7.19903E-13
 -1      2988 2.00672E+01 2.75178E-01 2.56921E-04-3.56230E-01 5.89725E-15 1.24844E-13
 -1      2989 2.03146E+01 1.69116E+00-6.77696E-03-1.29371E+00-9.62026E-14-2.12954E-14
 -1      2990 2.02971E+01 1.30552E+00-2.99500E-03-1.01832E+00-9.36245E-14-1.24365E-14
 -1      2991 2.02824E+01 1.37820E+00 5.83603E-04-9.20360E-01-8.58939E-14-3.41640E-14
 -1      2992 2.02245E+01 1.95573E+00-4.74617E-04-1.26423E+00-9.23064E-14-6.32515E-14
 -1      2993 2.82324E+01-2.34515E+00-1.45670E-01-1.16556E+00-9.70335E-14-2.72109E-13
 -1      2994 2.88744E+01-5.51881E-01-9.59010E-02 2.05603E+00-4.49085E-13-7.66512E-13
 -1      2995 2.73171E+01-7.58173E-01-6.62450E-02 2.26034E+00-3.70995E-13-6.18436E-13
 -1      2996 2.71143E+01-1.95497E+00-5.01628E-02 1.83065E+00-2.89137E-13-6.07819E-13
 -1      2997 2.87402E+01-2.46403E+00-4.86156E-02 9.43438E-01-2.65985E-13-7.01356E-13
 -1      2998 1.99806E+01 2.49377E+00-6.08237E-03-8.99488E-01-6.43772E-14-8.67665E-14
 -1      2999 2.00437E+01 2.34888E+00-8.96342E-03-1.03229E+00-7.51014E-14-8.51797E-14
 -1      3000 2.00826E+01 2.21352E+00 6.11095E-03-7.36032E-01-4.54640E-14-6.52844E-14
 -1      3001 1.99447E+01 2.55162E+00 3.51636E-03 4.67586E-03 5.61085E-15-7.51946E-14
 -1      3002 1.98061E+01 2.88039E+00-5.53643E-03-6.14431E-02-1.68994E-15-8.31785E-14
 -1      3003 1.98135E+01 2.86557E+00-5.57331E-03-2.15568E-01-1.78523E-14-8.26813E-14
 -1      3004 2.65564E+01-3.84430E+00 3.51461E-03-1.56076E+00-2.53339E-13 9.30089E-14
 -1      3005 2.67528E+01-3.01784E+00-1.31679E-01-1.65538E-01-2.16833E-13 1.59706E-13
 -1      3006 2.53959E+01-4.14070E+00 1.50244E-02-1.99829E+00-3.82423E-13 5.20486E-14
 -1      3007 1.57356E+01-3.37445E+00 1.16574E-01-5.84945E+00-2.85522E-13 1.23929E-14
 -1      3008 2.02903E+01 1.59055E+00-1.23886E-03 1.16389E+00 1.24147E-13 1.01915E-14
 -1      3009 2.69926E+01 5.65069E+00-1.22039E-01 9.13871E-01 3.57880E-13-2.41071E-13
 -1      3010 2.73728E+01-2.46069E+00-4.28216E-02-1.70067E-01 1.87081E-14 2.05114E-13
 -1      3011 2.61273E+01-3.24386E+00-1.70391E-02 5.34258E-01-1.46520E-13 1.84248E-13
 -1      3012 2.68203E+01-1.44236E+00-6.36532E-02-1.16797E+00 4.21746E-14 9.83588E-14
 -1      3013 1.28512E+01-2.51838E+00 1.34805E-01 5.60245E+00-5.00419E-13 3.58880E-13
 -1      3014 2.75224E+01-3.22044E+00-4.03515E-02 3.99637E-01-1.87442E-13-6.88158E-13
 -1      3015 2.20066E+01-4.95177E+00 6.22201E-02 4.39999E+00 1.51282E-13-3.38007E-13
 -1      3016 2.70201E+01-2.94701E+00-2.99799E-02 7.11697E-01-1.41796E-13-7.47041E-13
 -1      3017 2.77263E+01-3.80874E+00 2.52768E-02 7.09953E-01-5.99885E-14-3.01412E-13
 -1      3018 2.64931E+01-4.19410E+00 2.95631E-02 1.16085E+00 8.66945E-14-2.47156E-13
 -1      3019 8.16859E+00-1.12561E-01 1.61221E-01-6.11381E-01-2.65919E-13 4.92384E-14
 -1      3020 2.40350E+01-4.64204E+00 4.56066E-02 3.32873E+00-2.60514E-13 3.74811E-13
 -1      3021 2.00426E+01 2.76948E-01 8.87688E-04 3.41926E-01-2.37588E-13-3.26876E-13
 -1      3022 2.00652E+01 2.69775E-01 1.64815E-03 3.79967E-01-4.10148E-13-2.37214E-13
 -1      3023 2.00024E+01 3.22541E-01-1.93004E-03 3.49253E-01-1.96574E-13-5.70012E-13
 -1      3024 1.88691E+01-4.30405E+00 1.07708E-01 5.63610E+00-3.84068E-13 2.98300E-13
 -1      3025 2.81189E+01 1.96825E+00-9.35434E-02-2.01590E+00 1.39014E-13 1.68490E-13
 -1      3026 2.70710E+01 6.51155E-01-6.76395E-02-1.90438E+00 1.36439E-13 1.85581E-13
 -1      3027 2.71921E+01 2.88889E+00-1.57156E-01-2.13530E+00 1.72695E-13 1.15560E-13
 -1      3028 1.24896E+01-1.72735E+00 1.58282E-01-4.65092E+00 2.41099E-13-1.66270E-13
 -1      3029 8.91570E+00-3.20386E-01 1.68679E-01-1.97503E+00 2.69028E-13 2.64982E-13
 -1      3030 2.00264E+01 3.28807E-01 2.17373E-04-3.60051E-01 1.26217E-13 2.33586E-13
 -1      3031 2.83275E+01-3.41685E-01-7.44672E-02 1.25377E+00 9.72139E-14 1.49006E-13
 -1      3032 1.83341E+01-4.08841E+00 1.28126E-01-5.45409E+00 1.11675E-13-2.59140E-13
 -1      3033 2.04225E+01-4.39616E+00-5.25676E-02-4.60976E+00 3.33067E-14-4.35998E-13
 -1      3034 1.73463E+01-3.02035E+00 8.96527E-02-5.04850E+00 1.83936E-13-3.67234E-13
 -1      3035 9.06075E+00-1.16155E+00 1.84043E-01 3.58187E+00-1.76782E-13-3.10918E-13
 -1      3036 9.51247E+00-2.67765E-01 1.46303E-01 2.47438E+00-1.73542E-13-2.03837E-13
 -1      3037 1.11232E+01-1.46478E+00 1.37988E-02 4.32076E+00-1.12417E-13-4.04801E-13
 -1      3038 9.71921E+00-5.84393E-01 9.76552E-02 3.23359E+00-1.44870E-13 1.08746E-13
 -1      3039 8.17566E+00-3.54999E-01 2.02361E-01 2.21888E+00-9.05630E-14 4.61020E-14
 -1      3040 8.95287E+00 1.53968E-01 1.09908E-01 9.37428E-01 1.01395E-14-4.80588E-14
 -1      3041 2.02813E+01 1.37096E+00 2.13640E-03 9.16498E-01 1.19404E-13-1.26977E-14
 -1      3042 2.48887E+01-4.83181E+00 2.63686E-02-2.74676E+00-5.17086E-14-5.81347E-13
 -1      3043 2.76833E+01 5.14713E+00-3.65481E-01-5.81523E-01-4.33431E-13-3.93385E-13
 -1      3044 2.00297E+01 3.33153E-01-6.97727E-04-4.22037E-01-2.03520E-14 1.54589E-13
 -1      3045 1.99813E+01 3.78367E-01-5.44343E-04-3.85234E-01 6.67034E-14 3.00238E-13
 -1      3046 1.99471E+01 4.20771E-01 1.36773E-03-4.21600E-01 5.20531E-14 4.11381E-14
 -1      3047 2.00416E+01 3.47714E-01 1.71348E-03-4.65031E-01-8.61157E-14 6.94815E-14
 -1      3048 2.79377E+01 5.59846E+00-1.21807E-01-1.09121E+00 3.88495E-13-3.17107E-15
 -1      3049 2.20144E+01-4.80832E+00 7.31376E-02-4.61006E+00-4.08618E-13-2.10769E-14
 -1      3050 2.77752E+01 3.39813E+00-1.47792E-01 1.97792E+00 2.43722E-13-8.33916E-14
 -1      3051 2.65127E+01 3.55714E+00-9.98447E-02 1.92924E+00 1.57790E-13-1.56868E-13
 -1      3052 2.73739E+01 2.32253E+00-9.05894E-02 2.10482E+00 2.11955E-13-2.92752E-14
 -1      3053 1.99290E+01 4.10686E-01-2.02611E-03 3.29893E-01 2.11294E-13 2.63500E-13
 -1      3054 1.99680E+01 3.67847E-01 6.29880E-04 3.43092E-01 3.25586E-14-1.58308E-13
 -1      3055 1.99736E+01 3.62435E-01 1.29010E-03 3.84402E-01-1.81571E-15-1.74993E-14
 -1      3056 1.98903E+01 4.43376E-01 1.12717E-03 3.54913E-01 4.24617E-13 3.27132E-13
 -1      3057 1.98288E+01 2.82951E+00-5.76242E-03-3.50131E-01-2.46071E-14-6.22757E-14
 -1      3058 1.98525E+01 2.78076E+00-6.20507E-03-5.03327E-01-3.88113E-14-6.80892E-14
 -1      3059 2.00048E+01 2.40710E+00 4.33710E-03-5.04763E-01-4.52172E-14-6.03570E-14
 -1      3060 1.99592E+01 2.51700E+00 3.69281E-03-2.54001E-01-2.86446E-14-7.10593E-14
 -1      3061 1.53110E+01-3.37678E+00 1.31905E-01 5.63419E+00 1.51504E-13-6.54130E-13
 -1      3062 1.05209E+01-1.05757E+00 1.53558E-01-4.05744E+00-2.49405E-13-1.00170E-13
 -1      3063 2.56323E+01 4.76405E+00-8.30008E-02 1.06856E+00 3.35593E-13-1.54002E-13
 -1      3064 2.60469E+01 5.41491E+00-1.49924E-01 1.30471E-01 4.23980E-13-1.83022E-13
 -1      3065 2.02450E+01 1.48682E+00-6.69610E-03 7.97977E-01 9.97551E-14-8.21565E-15
 -1      3066 2.02075E+01 1.67825E+00-4.59900E-04 7.41334E-01 8.87741E-14-1.94277E-14
 -1      3067 2.00900E+01 2.25511E+00-6.11858E-03-1.11537E+00-8.18629E-14-8.22367E-14
 -1      3068 2.01664E+01 2.07138E+00-8.25209E-03-1.19799E+00-8.31687E-14-7.82458E-14
 -1      3069 2.02378E+01 1.77075E+00 5.81794E-03-1.03578E+00-8.42723E-14-7.09626E-14
 -1      3070 2.01734E+01 1.98685E+00 8.01972E-03-9.11976E-01-7.15075E-14-7.24655E-14
 -1      3071 2.02288E+01 4.42862E-01 4.04339E-03-1.03010E-01-2.91274E-14 1.18388E-15
 -1      3072 2.01914E+01 3.39441E-01-2.08792E-03-1.34458E-02-5.10322E-14-1.25612E-14
 -1      3073 2.01772E+01 2.60769E-01 2.99789E-03 5.35742E-02-5.55558E-14 1.03087E-14
 -1      3074 2.01498E+01 1.96201E-01-9.98741E-04 1.11266E-01-5.40585E-14 2.59481E-15
 -1      3075 2.02461E+01 3.63636E-01-8.52586E-04-6.04275E-04-3.92333E-14-3.85116E-14
 -1      3076 2.01326E+01 1.48711E-01 1.98571E-03 1.54919E-01-3.37347E-14 1.96579E-14
 -1      3077 2.01151E+01 1.11443E-01-2.26129E-04 1.91492E-01-2.18760E-14 3.48988E-14
 -1      3078 2.02059E+01 2.12936E-01-1.02857E-03 1.15683E-01-3.54640E-14 3.42858E-14
 -1      3079 2.00978E+01 8.59616E-02 1.12231E-03 2.19868E-01-1.48761E-14 4.16205E-14
 -1      3080 2.00888E+01 6.84060E-02 3.19967E-04 2.43883E-01-1.42094E-14 8.79528E-14
 -1      3081 2.01667E+01 1.24604E-01-9.63216E-04 1.92361E-01-9.74818E-15 3.68414E-14
 -1      3082 2.00725E+01 5.90208E-02 4.17785E-04 2.63728E-01-2.39175E-14 8.01942E-14
 -1      3083 2.00703E+01 5.61945E-02 7.19217E-04 2.81833E-01-5.83289E-15 8.42265E-14
 -1      3084 2.01313E+01 8.16682E-02-8.00209E-04 2.44256E-01 8.46592E-15 8.44647E-14
 -1      3085 2.00548E+01 5.90407E-02-1.55360E-04 2.98593E-01-3.24501E-15 7.60443E-14
 -1      3086 2.00579E+01 6.76591E-02 1.02784E-03 3.15952E-01 2.39973E-15 7.84469E-14
 -1      3087 2.01000E+01 7.27850E-02-5.97308E-04 2.83684E-01 1.26296E-14 4.21527E-14
 -1      3088 2.00426E+01 8.02072E-02-6.37216E-04 3.33969E-01-3.27071E-14 9.81264E-14
 -1      3089 2.00498E+01 9.81245E-02 1.28322E-03 3.54647E-01-4.49825E-14 7.29439E-14
 -1      3090 2.00714E+01 9.03501E-02-3.72501E-04 3.20560E-01-2.30020E-14 4.16903E-14
 -1      3091 2.00336E+01 1.18727E-01-1.06782E-03 3.77403E-01-4.08415E-14 6.69712E-14
 -1      3092 2.00438E+01 1.44542E-01 1.50886E-03 4.04662E-01-2.66393E-14 6.37290E-14
 -1      3093 2.00436E+01 1.29308E-01-1.23543E-04 3.62787E-01-3.35834E-14 5.49117E-14
 -1      3094 2.00252E+01 1.72088E-01-1.48172E-03 4.34989E-01-6.64738E-14 5.58640E-14
 -1      3095 2.00376E+01 2.04795E-01 1.71762E-03 4.71497E-01-7.03784E-14 7.36828E-14
 -1      3096 2.00139E+01 1.86280E-01 1.61999E-04 4.16694E-01-3.27838E-14 5.33852E-14
 -1      3097 2.00149E+01 2.38361E-01-1.90453E-03 5.11730E-01-5.67141E-14 6.22743E-14
 -1      3098 2.00284E+01 2.76975E-01 1.91625E-03 5.59649E-01-8.72832E-14 8.16490E-14
 -1      3099 1.99789E+01 2.58774E-01 4.98558E-04 4.87395E-01-5.80002E-14-1.27955E-14
 -1      3100 1.99994E+01 3.15423E-01-2.35168E-03 6.11714E-01-1.42340E-13 1.20087E-13
 -1      3101 2.00132E+01 3.58506E-01 2.11464E-03 6.72704E-01-1.97826E-13 6.12342E-14
 -1      3102 1.99347E+01 3.44363E-01 9.02592E-04 5.79022E-01-1.18882E-13 1.13851E-13
 -1      3103 1.99754E+01 3.99926E-01-2.82462E-03 7.38187E-01-1.72072E-13 1.20808E-13
 -1      3104 1.99887E+01 4.44885E-01 2.33577E-03 8.13328E-01-1.07628E-13 1.49215E-13
 -1      3105 1.98765E+01 4.39641E-01 1.37736E-03 6.94881E-01-1.46261E-13 1.85467E-13
 -1      3106 1.99397E+01 4.85713E-01-3.30013E-03 8.93568E-01-1.19695E-13 1.80846E-13
 -1      3107 1.99525E+01 5.27723E-01 2.63727E-03 9.83190E-01-9.72426E-14 1.83499E-13
 -1      3108 1.97992E+01 5.38737E-01 1.89317E-03 8.37670E-01-9.81780E-14 1.69957E-13
 -1      3109 1.98906E+01 5.61420E-01-3.71517E-03 1.07945E+00-6.06080E-14 1.22398E-13
 -1      3110 1.99045E+01 5.91816E-01 3.14848E-03 1.18290E+00-1.69630E-14 1.03900E-13
 -1      3111 1.96984E+01 6.31085E-01 2.36382E-03 1.00985E+00-1.05179E-13 1.61742E-13
 -1      3112 1.98305E+01 6.06931E-01-3.93318E-03 1.29671E+00 3.05721E-14 1.28990E-13
 -1      3113 1.98515E+01 6.10915E-01 4.11460E-03 1.41209E+00 3.13069E-14 1.44367E-13
 -1      3114 1.95722E+01 6.98132E-01 2.58266E-03 1.21441E+00-1.79507E-15 2.33552E-13
 -1      3115 1.97713E+01 5.88452E-01-3.66346E-03 1.54588E+00-1.82517E-14 8.42607E-14
 -1      3116 1.98139E+01 5.42111E-01 5.94026E-03 1.66951E+00 1.63318E-14-1.03622E-14
 -1      3117 1.94251E+01 7.08662E-01 2.13393E-03 1.45636E+00 2.27557E-15 1.61507E-13
 -1      3118 1.97441E+01 4.52538E-01-2.24787E-03 1.82709E+00 5.81804E-14-2.84115E-15
 -1      3119 1.98378E+01 3.19624E-01 9.11944E-03 1.95225E+00 1.40696E-13-3.30154E-14
 -1      3120 1.92757E+01 6.12508E-01 2.62974E-04 1.74486E+00 2.07304E-15 6.87657E-14
 -1      3121 1.98162E+01 1.20858E-01 1.80415E-03 2.13751E+00 1.87868E-13-1.24745E-13
 -1      3122 2.00140E+01-1.48127E-01 1.42406E-02 2.24993E+00 1.85662E-13-1.45162E-13
 -1      3123 1.91704E+01 3.32927E-01-4.29714E-03 2.09455E+00 1.25164E-13 5.22974E-14
 -1      3124 2.01162E+01-5.06670E-01 1.22737E-02 2.45988E+00 1.31483E-13-1.99546E-13
 -1      3125 2.04983E+01-9.70826E-01 1.92194E-02 2.52711E+00 7.15721E-14-1.74419E-13
 -1      3126 1.92061E+01-2.38596E-01-1.32883E-02 2.51981E+00 1.45559E-13-1.69833E-13
 -1      3127 2.08723E+01-1.51902E+00 3.71224E-02 2.71566E+00 8.46591E-14-1.96091E-13
 -1      3128 2.15348E+01-2.18881E+00 2.71322E-02 2.66787E+00 1.56710E-13-1.60204E-13
 -1      3129 1.95676E+01-1.24637E+00-3.24507E-02 3.00848E+00 1.01376E-13-1.91991E-13
 -1      3130 2.23975E+01-2.89856E+00 7.56369E-02 2.68509E+00 2.16473E-13-1.62333E-13
 -1      3131 2.33671E+01-3.63882E+00 2.15696E-02 2.36256E+00 2.22829E-13-1.45476E-13
 -1      3132 2.06255E+01-2.75968E+00-6.49315E-02 3.41903E+00 1.90582E-13-1.25816E-13
 -1      3133 2.51579E+01-4.28058E+00 7.75760E-02 1.96672E+00 2.10054E-13-1.90663E-13
 -1      3134 2.29387E+01-4.46259E+00-4.09748E-02 3.41889E+00 1.56777E-13-2.00853E-13
 -1      3135 2.05132E+01-3.82454E+00 1.57854E-01 4.44934E+00 2.32397E-13-3.75906E-13
 -1      3136 1.06478E+01-2.79145E-01 1.01524E-01-3.12685E+00-2.38455E-13-1.04416E-13
 -1      3137 1.22936E+01-1.20031E+00 6.16718E-02-4.51135E+00-2.32505E-13-1.35530E-13
 -1      3138 9.00023E+00 2.52331E-01 1.25640E-01 5.58582E-01-2.57106E-13 9.45077E-15
 -1      3139 9.37536E+00 2.21151E-01 9.07889E-02-1.29184E+00-2.58128E-13 1.02335E-13
 -1      3140 2.02978E+01 1.16297E+00 5.71919E-03-6.61280E-01-6.18928E-14-5.15873E-14
 -1      3141 2.02619E+01 9.19871E-01-4.71925E-03-4.72695E-01-6.66560E-14-4.07040E-14
 -1      3142 2.23901E+01-3.03550E+00 2.95651E-03-2.58897E+00 5.08829E-14-5.19033E-13
 -1      3143 2.16074E+01-2.27887E+00 5.24039E-02-2.76338E+00 1.06377E-13-5.62837E-13
 -1      3144 2.09858E+01-1.61470E+00 1.93799E-02-2.64332E+00 8.37863E-14-5.68065E-13
 -1      3145 2.04738E+01-1.02772E+00 2.48528E-02-2.62584E+00 3.50189E-14-5.02745E-13
 -1      3146 2.00627E+01-2.01808E+00-4.15202E-02-3.25878E+00 4.24396E-14-6.34569E-13
 -1      3147 2.02355E+01-5.67796E-01 1.53478E-02-2.42503E+00-1.07193E-14-5.04467E-13
 -1      3148 1.99485E+01-1.92449E-01 6.52348E-03-2.33152E+00-2.63388E-14-6.29654E-13
 -1      3149 1.93644E+01-7.59195E-01-2.49286E-02-2.80206E+00 1.25876E-15-6.10670E-13
 -1      3150 1.99132E+01 9.09641E-02 1.17140E-02-2.13013E+00 1.65946E-13-5.40007E-13
 -1      3151 1.97691E+01 2.94742E-01-4.88453E-04-2.00950E+00 2.36960E-13-4.03101E-13
 -1      3152 1.91685E+01 5.24356E-02-9.12670E-03-2.33525E+00 9.70468E-14-4.78623E-13
 -1      3153 1.98189E+01 4.41126E-01 7.48991E-03-1.83622E+00 2.67832E-13-3.17417E-13
 -1      3154 1.97529E+01 5.32584E-01-3.02200E-03-1.70999E+00 2.80440E-13-2.70581E-13
 -1      3155 1.92127E+01 4.83658E-01-1.98122E-03-1.94321E+00 3.30873E-13-5.50263E-13
 -1      3156 1.98310E+01 5.90516E-01 4.96636E-03-1.56249E+00 1.94984E-13-1.92683E-13
 -1      3157 1.98011E+01 6.13946E-01-3.76483E-03-1.44045E+00 2.68309E-14-4.12187E-13
 -1      3158 1.93471E+01 6.75565E-01 1.27808E-03-1.62096E+00 2.83169E-13-2.63031E-13
 -1      3159 1.98804E+01 6.20300E-01 3.54111E-03-1.31398E+00-5.29619E-14-4.54174E-13
 -1      3160 1.98647E+01 6.06570E-01-3.72835E-03-1.20083E+00 7.78011E-14-3.97418E-13
 -1      3161 1.95007E+01 7.23728E-01 2.42170E-03-1.35146E+00 5.27167E-14-1.78641E-13
 -1      3162 1.99339E+01 5.86296E-01 2.75631E-03-1.09180E+00 1.55992E-13-3.41618E-13
 -1      3163 1.99222E+01 5.55412E-01-3.35939E-03-9.89866E-01 2.63121E-13-3.15282E-13
 -1      3164 1.96413E+01 6.93038E-01 2.51842E-03-1.12156E+00 2.05066E-13 2.89515E-15
 -1      3165 1.99780E+01 5.24373E-01 2.27400E-03-8.95883E-01 1.78665E-13-2.59228E-13
 -1      3166 1.99663E+01 4.88709E-01-2.87138E-03-8.05932E-01 1.59277E-13-2.27030E-13
 -1      3167 1.97572E+01 6.25555E-01 2.19211E-03-9.23412E-01 1.81967E-13-3.98416E-13
 -1      3168 2.00086E+01 4.56774E-01 1.93435E-03-7.25286E-01 2.98403E-13-2.52634E-14
 -1      3169 1.99971E+01 4.23887E-01-2.03599E-03-6.46723E-01 3.08564E-13 4.68267E-14
 -1      3170 1.98467E+01 5.47608E-01 1.80581E-03-7.52432E-01 3.56183E-13-1.31594E-13
 -1      3171 2.00325E+01 3.95398E-01 1.77011E-03-5.87153E-01 1.24342E-13 7.71697E-14
 -1      3172 2.00199E+01 3.69413E-01-1.18499E-03-5.17723E-01-5.04299E-14 1.00299E-13
 -1      3173 1.99663E+01 4.09839E-01-4.97495E-04-5.02111E-01-1.24684E-13 8.30761E-14
 -1      3174 1.99170E+01 4.72381E-01 7.32577E-04-6.14703E-01 2.00641E-13 8.29691E-14
 -1      3175 2.00853E+01 1.77783E-01-8.30962E-04-1.06675E-01 5.20602E-14 9.33112E-15
 -1      3176 2.01145E+01 2.38511E-01 3.57846E-03-4.72733E-02 4.59879E-14 1.46601E-14
 -1      3177 2.44721E+01-4.23935E+00-6.77217E-02 2.16936E+00-2.49875E-13 3.76046E-13
 -1      3178 2.26930E+01-4.38086E+00 9.76223E-02 3.72991E+00-2.96645E-13 4.26565E-13
 -1      3179 2.00275E+01 4.35084E-02 1.04788E-03-3.05749E-01 8.10354E-14 4.14076E-15
 -1      3180 2.00168E+01 3.93531E-02 2.71869E-05-2.91658E-01 6.03639E-14-5.38916E-15
 -1      3181 2.00255E+01 3.97440E-02 7.65499E-04-2.76496E-01 5.83103E-14 1.46375E-14
 -1      3182 2.00214E+01 4.48652E-02 5.86922E-04-2.60588E-01 4.39814E-14 3.79206E-14
 -1      3183 2.00680E+01 5.22386E-02-8.22997E-04-2.83488E-01 5.17869E-14-4.43188E-15
 -1      3184 2.00545E+01 8.95623E-02 1.49508E-03-3.76771E-01-6.44139E-15 9.01599E-14
 -1      3185 2.00333E+01 7.38880E-02-6.90926E-04-3.56078E-01 8.81233E-15 2.31855E-14
 -1      3186 2.00783E+01 1.23855E-01 1.68360E-03-4.28820E-01-1.73597E-14 9.04161E-14
 -1      3187 2.00521E+01 1.05426E-01-9.04762E-04-4.01642E-01 1.43742E-14 9.86911E-14
 -1      3188 2.00440E+01 1.18266E-01-3.97831E-04-3.98389E-01-8.41121E-15 5.91101E-14
 -1      3189 2.01095E+01 1.60047E-01 1.84748E-03-4.95875E-01-2.76753E-14 3.27169E-14
 -1      3190 2.00779E+01 1.41180E-01-1.03047E-03-4.61289E-01-2.13723E-15 9.78636E-14
 -1      3191 2.00452E+01 1.59429E-01-3.48116E-04-4.57310E-01-2.43214E-15 5.15222E-14
 -1      3192 2.01499E+01 1.92503E-01 1.97220E-03-5.78649E-01-5.67489E-15 4.97121E-14
 -1      3193 2.01118E+01 1.76293E-01-1.04801E-03-5.36773E-01-5.22805E-14 2.94588E-14
 -1      3194 2.00512E+01 2.01553E-01-3.72209E-04-5.32265E-01-3.69360E-14 1.17354E-14
 -1      3195 2.02026E+01 2.13344E-01 2.03516E-03-6.75538E-01 2.49657E-15 1.38043E-13
 -1      3196 2.01565E+01 2.04147E-01-9.09752E-04-6.27832E-01 4.54926E-15 1.03539E-13
 -1      3197 2.00639E+01 2.37456E-01-5.11200E-04-6.24141E-01-3.22750E-14 5.46180E-14
 -1      3198 2.02735E+01 2.11500E-01 2.00209E-03-7.81881E-01 7.19891E-14 1.09722E-13
 -1      3199 2.02168E+01 2.15424E-01-5.35904E-04-7.31593E-01 6.07808E-14 1.38924E-13
 -1      3200 2.00872E+01 2.57145E-01-8.37002E-04-7.31683E-01 2.83299E-14 1.44562E-13
 -1      3201 2.03718E+01 1.71886E-01 1.81833E-03-8.88880E-01 1.23147E-14 1.21325E-13
 -1      3202 2.03006E+01 1.97179E-01 1.96200E-04-8.41659E-01 4.24383E-14 1.17748E-13
 -1      3203 2.01286E+01 2.46710E-01-1.46665E-03-8.50846E-01 3.54114E-14 6.92313E-14
 -1      3204 2.05120E+01 7.53081E-02 1.38466E-03-9.82097E-01 3.42325E-14 1.29958E-13
 -1      3205 2.04207E+01 1.32284E-01 1.45106E-03-9.46754E-01 3.69966E-14 1.40177E-13
 -1      3206 2.02009E+01 1.87504E-01-2.55943E-03-9.73727E-01 1.45466E-14 1.48683E-13
 -1      3207 2.07145E+01-9.97873E-02 5.09597E-04-1.03948E+00-2.61944E-14 1.03722E-13
 -1      3208 2.05960E+01 6.77315E-05 3.42217E-03-1.02884E+00-1.99305E-14 1.02565E-13
 -1      3209 2.03239E+01 5.62400E-02-4.32042E-03-1.08687E+00 3.12220E-14 1.05324E-13
 -1      3210 2.10057E+01-3.71466E-01-1.16284E-03-1.02890E+00-4.23690E-14 1.34712E-13
 -1      3211 2.08523E+01-2.20274E-01 6.27890E-03-1.06049E+00-1.66170E-14 1.46120E-13
 -1      3212 2.05271E+01-1.72478E-01-6.92551E-03-1.16851E+00-4.71323E-14 1.15457E-13
 -1      3213 2.14129E+01-7.40323E-01-4.02831E-03-9.05826E-01-1.41018E-13 1.96039E-13
 -1      3214 2.12200E+01-5.40559E-01 9.93084E-03-1.00168E+00-6.96476E-14 1.84685E-13
 -1      3215 2.08497E+01-5.18171E-01-1.03301E-02-1.18403E+00-8.85870E-14 2.67391E-13
 -1      3216 2.19499E+01-1.16441E+00-8.41636E-03-6.15947E-01-1.74307E-13 1.67372E-13
 -1      3217 2.17238E+01-9.44075E-01 1.37486E-02-7.98654E-01-1.48972E-13 1.89207E-13
 -1      3218 2.13347E+01-9.75184E-01-1.36992E-02-1.08052E+00-1.20869E-13 3.51900E-13
 -1      3219 2.25917E+01-1.52063E+00-1.32681E-02-1.07445E-01-1.16447E-13 8.65305E-14
 -1      3220 2.23600E+01-1.35559E+00 1.55649E-02-3.89485E-01-1.34579E-13 8.49102E-14
 -1      3221 2.20118E+01-1.48123E+00-1.52651E-02-7.85110E-01-1.00691E-13 1.67951E-13
 -1      3222 2.32340E+01-1.57313E+00-1.53387E-02 6.15938E-01-2.35081E-13 9.94126E-14
 -1      3223 2.30519E+01-1.59465E+00 1.16567E-02 2.62877E-01-1.80400E-13 1.06584E-13
 -1      3224 2.28534E+01-1.86058E+00-1.18425E-02-2.17934E-01-1.81621E-13 1.10751E-13
 -1      3225 2.36977E+01-1.01786E+00-7.79413E-03 1.42054E+00-2.41210E-13 1.11277E-13
 -1      3226 2.36303E+01-1.39046E+00-2.85656E-03 1.09179E+00-2.63601E-13 7.89937E-14
 -1      3227 2.37114E+01-1.81576E+00-7.91779E-03 6.19337E-01-2.21551E-13 1.41135E-13
 -1      3228 2.37795E+01 3.01004E-01 6.74258E-03 1.92138E+00-2.12908E-13 2.36535E-13
 -1      3229 2.38453E+01-4.49825E-01-2.95694E-02 1.81276E+00-1.73197E-13 1.76896E-13
 -1      3230 2.43294E+01-9.40256E-01 6.28458E-03 1.55926E+00-2.62972E-13 1.14464E-13
 -1      3231 2.34592E+01 1.96536E+00 8.39773E-03 1.64208E+00 3.41428E-14 3.59668E-13
 -1      3232 2.36147E+01 1.11317E+00-5.78226E-02 1.90474E+00-1.35113E-13 2.93997E-13
 -1      3233 2.44160E+01 8.38794E-01 3.93950E-04 2.06101E+00-2.30756E-13 8.83165E-14
 -1      3234 2.35233E+01 3.44501E+00-5.63789E-02 2.59016E-01 4.49221E-13 2.81348E-13
 -1      3235 2.36260E+01 3.12147E+00-6.23263E-02 9.05387E-01 3.04569E-13 3.11339E-13
 -1      3236 2.36174E+01 1.08695E+00-4.88008E-02-1.91041E+00 1.59180E-13 1.04979E-13
 -1      3237 2.34522E+01 1.85499E+00 1.81415E-03-1.58806E+00 2.85992E-13 1.43637E-13
 -1      3238 2.38247E+01-4.82333E-01-3.22544E-02-1.80123E+00-2.41352E-14-2.93845E-14
 -1      3239 2.37649E+01 2.59930E-01 2.99831E-03-1.90632E+00 7.70720E-14-3.27776E-15
 -1      3240 2.43721E+01 7.66454E-01-1.63146E-02-2.05251E+00 1.77663E-13 5.00919E-14
 -1      3241 2.36076E+01-1.40068E+00-3.38635E-03-1.06269E+00-2.02885E-13-3.29125E-14
 -1      3242 2.36980E+01-1.03534E+00-2.73827E-03-1.39052E+00-1.23218E-13-2.33335E-14
 -1      3243 2.42972E+01-1.02637E+00 3.52656E-03-1.53235E+00-7.66004E-14-4.38503E-14
 -1      3244 2.30275E+01-1.58717E+00 1.16454E-02-2.38474E-01-4.15864E-14 6.40889E-14
 -1      3245 2.32220E+01-1.57012E+00-1.10345E-02-5.90222E-01-2.25870E-13-2.65630E-14
 -1      3246 2.36865E+01-1.78739E+00-4.60610E-03-6.44119E-01-1.62067E-13-2.14733E-13
 -1      3247 2.23436E+01-1.34546E+00 1.53794E-02 4.05335E-01 5.16952E-14 1.79158E-13
 -1      3248 2.25736E+01-1.51058E+00-1.31669E-02 1.25163E-01 8.89909E-14 1.32090E-13
 -1      3249 2.28220E+01-1.85254E+00-1.74606E-02 2.24807E-01-4.40388E-14-1.52416E-13
 -1      3250 2.17112E+01-9.33987E-01 1.36333E-02 8.13398E-01 2.09751E-13 1.26721E-13
 -1      3251 2.19363E+01-1.15559E+00-8.83403E-03 6.32535E-01 8.55109E-14 1.64796E-13
 -1      3252 2.20022E+01-1.46952E+00-1.57080E-02 7.92233E-01 1.57850E-13-1.39734E-13
 -1      3253 2.12107E+01-5.30262E-01 9.85933E-03 1.01250E+00 3.01570E-13 4.78898E-14
 -1      3254 2.14026E+01-7.30242E-01-4.07217E-03 9.19049E-01 3.30298E-13 2.01011E-13
 -1      3255 2.13290E+01-9.62213E-01-1.37257E-02 1.08886E+00 2.48272E-13-1.72320E-13
 -1      3256 2.08480E+01-2.11891E-01 6.21522E-03 1.06793E+00 3.68547E-14 4.50359E-14
 -1      3257 2.10000E+01-3.62642E-01-1.11913E-03 1.03812E+00 2.05783E-13 1.36721E-13
 -1      3258 2.08504E+01-5.05742E-01-9.90585E-03 1.18897E+00 2.17097E-13 1.10152E-13
 -1      3259 2.05954E+01 8.88387E-03 3.44791E-03 1.03357E+00 9.37591E-14-1.77415E-14
 -1      3260 2.07123E+01-9.18372E-02 3.99831E-04 1.04618E+00 2.14753E-16-1.23988E-14
 -1      3261 2.05335E+01-1.62930E-01-6.71253E-03 1.17189E+00 9.64497E-14 1.16794E-13
 -1      3262 2.04228E+01 1.44546E-01 1.55054E-03 9.47341E-01 4.79361E-14 2.13005E-13
 -1      3263 2.05125E+01 8.51666E-02 1.24111E-03 9.85425E-01 1.03960E-13 6.28404E-14
 -1      3264 2.03333E+01 6.68299E-02-4.25044E-03 1.08840E+00 5.00647E-14 9.71777E-14
 -1      3265 2.03049E+01 2.16507E-01 3.85715E-04 8.35477E-01-1.35180E-13 3.68285E-13
 -1      3266 2.03744E+01 1.86938E-01 1.65630E-03 8.86819E-01-1.95197E-14 2.97645E-13
 -1      3267 2.02120E+01 2.03185E-01-2.53475E-03 9.71180E-01-4.90009E-14 1.99616E-13
 -1      3268 2.02230E+01 2.46149E-01-2.88543E-04 7.14792E-01-1.24022E-13 4.11581E-13
 -1      3269 2.02777E+01 2.35699E-01 1.78419E-03 7.71276E-01-1.06777E-13 3.55226E-13
 -1      3270 2.01406E+01 2.72000E-01-1.43358E-03 8.41117E-01-1.32071E-13 4.28534E-13
 -1      3271 2.01638E+01 2.52184E-01-5.25756E-04 5.95284E-01-1.24660E-13 2.78449E-13
 -1      3272 2.02078E+01 2.51720E-01 1.73756E-03 6.52128E-01-9.50144E-14 3.81390E-13
 -1      3273 2.00988E+01 2.97460E-01-7.62240E-04 7.10664E-01-2.16541E-14 2.77770E-13
 -1      3274 2.01207E+01 2.48539E-01 2.06976E-04 4.82076E-01-2.67850E-13 4.44397E-14
 -1      3275 2.01550E+01 2.50785E-01 1.59398E-03 5.36006E-01-2.14865E-13 1.17309E-13
 -1      3276 2.00731E+01 2.99691E-01-3.67702E-04 5.86519E-01-9.04172E-14 3.26863E-13
 -1      3277 2.00759E+01 2.62648E-01 8.13261E-04 4.11794E-01-2.67117E-13-9.18694E-14
 -1      3278 2.01062E+01 2.55356E-01 1.48739E-03 4.49007E-01-2.00539E-13-7.69611E-15
 -1      3279 2.00458E+01 3.01521E-01-7.51613E-04 4.91637E-01-1.38707E-13 1.50913E-13
 -1      3280 2.00194E+01 3.10571E-01-1.83843E-03 4.22346E-01-2.09931E-13-2.69983E-13
 -1      3281 2.01326E+01 3.12537E-01-1.78519E-03 2.52324E-02 6.78892E-14 1.67492E-14
 -1      3282 2.01760E+01 4.10056E-01 4.42363E-03 1.20039E-01 9.32944E-14 2.44007E-14
 -1      3283 2.01979E+01 3.41446E-01-1.49046E-03 1.31333E-02 6.63221E-14 1.00623E-14
 -1      3284 1.96607E+01 6.31501E-01-5.09584E-04-1.60857E-01 1.38648E-13 2.90097E-13
 -1      3285 1.96445E+01 6.40664E-01-1.33731E-03-8.76434E-02 1.05709E-13-3.20209E-14
 -1      3286 1.48359E+01-2.71444E+00 4.76278E-03 5.59540E+00-4.19199E-13 3.95434E-13
 -1      3287 1.21816E+01-1.45560E+00 1.27501E-01 4.77282E+00-3.78503E-13 3.01051E-13
 -1      3288 1.96405E+01 6.39320E-01-1.42327E-03 3.15299E-04 4.61249E-15-6.47856E-13
 -1      3289 1.96489E+01 6.32857E-01-3.83017E-04 7.56739E-02 2.50395E-13-5.72989E-13
 -1      3290 1.95773E+01 6.72991E-01 2.27325E-03-4.29376E-02 2.15607E-13-1.98690E-13
 -1      3291 2.01892E+01-4.39387E+00-5.79626E-02 4.97288E+00-3.95441E-13 4.58602E-13
 -1      3292 1.79155E+01-3.51964E+00 1.44271E-01 5.45460E+00-4.63116E-13 2.72157E-13
 -1      3293 1.97293E+01 5.85253E-01 4.98700E-04-3.06891E-01 2.00491E-13 1.09830E-13
 -1      3294 1.96884E+01 6.10159E-01-2.20284E-03-2.43008E-01 6.04185E-14 2.11836E-13
 -1      3295 1.96148E+01 6.55178E-01 2.33830E-03-2.19726E-01 1.84002E-13 9.32987E-14
 -1      3296 1.98392E+01 5.01843E-01 1.74537E-04-4.14736E-01 9.25318E-14-3.24890E-13
 -1      3297 1.97805E+01 5.42272E-01-2.51668E-03-3.71772E-01 1.18400E-13-1.51872E-13
 -1      3298 1.97075E+01 5.95913E-01 1.80012E-03-3.73484E-01 1.46657E-13-1.28455E-13
 -1      3299 2.00375E+01 6.14947E-02 1.28532E-03-3.37166E-01 3.00595E-14 5.39843E-14
 -1      3300 2.00212E+01 5.05585E-02-3.86939E-04-3.21135E-01 5.85078E-14 3.81323E-14
 -1      3301 2.00547E+01 5.98819E-02-6.40446E-04-3.16552E-01 4.46695E-14 4.53567E-14
 -1      3302 2.00470E+01 8.35157E-02-4.97037E-04-3.52878E-01 2.61581E-14 1.36298E-13
 -1      3303 2.00553E+01 2.17584E+00-4.31661E-03 2.90069E-01 1.20621E-14-5.40073E-14
 -1      3304 2.00422E+01 2.21510E+00-3.39460E-03 1.69229E-01-3.22690E-15-7.55367E-14
 -1      3305 2.67485E+01-3.86548E+00 4.35126E-02-4.90233E-01-1.32984E-14-5.71383E-13
 -1      3306 2.62419E+01 5.38948E+00-1.33953E-01-8.23931E-01 5.13450E-13-1.29244E-13
 -1      3307 2.67178E+01 4.29893E+00-1.18048E-01-1.79405E+00 4.44630E-13 2.08999E-14
 -1      3308 2.51001E+01 4.51363E+00-6.50644E-02-5.62381E-01 5.12604E-13 8.92324E-14
 -1      3309 2.48954E+01-4.07154E+00-2.82027E-02-1.58091E+00 4.95472E-14-6.23408E-13
 -1      3310 2.38990E+01-3.58053E+00 8.69889E-02-2.14908E+00 3.23261E-14-5.96529E-13
 -1      3311 2.19834E+01-3.57529E+00-3.51033E-02-3.20528E+00 4.44644E-14-5.83174E-13
 -1      3312 2.52016E+01-4.41843E+00-5.44412E-02-1.86339E+00-3.60822E-16-5.56270E-13
 -1      3313 2.02929E+01 9.94936E-01-6.28029E-04 6.85410E-01 1.13697E-13-2.94697E-15
 -1      3314 2.02715E+01 1.31495E+00 3.43220E-03 7.66789E-01 1.16748E-13-4.24297E-15
 -1      3315 2.02795E+01 1.13752E+00 1.56746E-03 5.88287E-01 9.73869E-14 1.56832E-14
 -1      3316 2.02357E+01 7.83967E-01-3.51268E-03 4.78338E-01 1.13556E-13 1.11052E-15
 -1      3317 9.64577E+00 2.20006E-01 8.74394E-02-1.21194E+00 1.85484E-13 7.77989E-14
 -1      3318 1.03565E+01-2.76567E-01 8.33312E-02-2.83913E+00 3.16917E-13 1.39833E-13
 -1      3319 2.02768E+01 7.26334E-01 4.57447E-03-3.35575E-01-5.57934E-14-2.32220E-14
 -1      3320 2.02341E+01 5.66728E-01-3.52493E-03-2.02110E-01-3.29117E-14-1.85706E-14
 -1      3321 2.02799E+01 6.01098E-01-3.37472E-04-1.72913E-01-3.16177E-14-3.98979E-14
 -1      3322 1.71531E+01-3.46997E+00-3.95346E-02 5.28020E+00 2.11352E-13-5.96002E-13
 -1      3323 1.42273E+01-2.21305E+00 1.89276E-01 5.12986E+00 1.49047E-14-6.12357E-13
 -1      3324 1.48559E+01-2.40399E+00 1.22037E-01-5.39504E+00-2.28630E-13-3.40700E-14
 -1      3325 1.78069E+01-3.80469E+00-1.83277E-02-5.59197E+00-2.59195E-13 5.29021E-14
 -1      3326 2.72627E+01-1.19199E+00-5.51721E-03 1.19670E+00-1.57652E-13 2.46553E-13
 -1      3327 2.73132E+01 4.17439E-01-1.54625E-01 1.83399E+00 1.02640E-13 2.24876E-13
 -1      3328 1.21474E+01-8.48471E-01 1.22685E-01-3.89272E+00 2.95437E-13 2.90185E-14
 -1      3329 1.45848E+01-1.84874E+00 1.43275E-02-4.67904E+00 1.93665E-13-1.90584E-13
 -1      3330 1.27618E+01-2.59563E-01 1.05006E-01-3.11778E+00 2.88065E-13 1.65978E-14
 -1      3331 2.30752E+01-4.58417E+00 1.12627E-01-3.63591E+00-8.18789E-15-5.23442E-13
 -1      3332 2.08724E+01-4.28647E+00 1.16290E-01-4.72455E+00-3.61405E-13 5.21371E-15
 -1      3333 2.30742E+01-4.63664E+00-5.13975E-02-3.59120E+00-4.10977E-13-9.57550E-14
 -1      3334 2.00352E+01 2.23427E+00-3.72608E-03 6.55416E-02 2.74344E-15-7.34481E-14
 -1      3335 2.00347E+01 2.23517E+00-3.70925E-03-5.75379E-02-9.11596E-15-6.63753E-14
 -1      3336 2.01484E+01 1.94206E+00 5.07376E-03 1.00164E-01-8.85948E-15-7.05655E-14
 -1      3337 2.44046E+01-4.25937E+00 4.88242E-02-2.43296E+00-3.92537E-13 3.96280E-14
 -1      3338 2.48986E+01-3.82832E+00-9.77462E-02-1.22819E+00-3.28329E-13 2.24919E-13
 -1      3339 2.31126E+01-3.99369E+00 9.59745E-03-2.79734E+00-3.69309E-13 6.54173E-14
 -1      3340 2.02582E+01 1.47308E+00 5.90932E-03 5.79306E-01 7.08765E-14-1.17268E-14
 -1      3341 2.01665E+01 1.81181E+00-6.94820E-03 6.80753E-01 7.43997E-14-3.19585E-14
 -1      3342 2.01325E+01 1.94243E+00-2.54316E-03 5.85348E-01 5.85716E-14-4.33817E-14
 -1      3343 2.68113E+01-7.31057E-01-6.53986E-02-1.61460E+00 1.05801E-13 2.04149E-13
 -1      3344 2.62031E+01-1.72818E+00-1.55528E-02-1.07461E+00 5.08274E-16 2.23446E-13
 -1      3345 2.63456E+01 2.84819E-01-6.54762E-02-1.98556E+00 1.35746E-13 9.11354E-14
 -1      3346 2.00331E+01 5.54224E-02 4.02543E-04-2.41290E-01 2.83342E-14 4.74879E-14
 -1      3347 2.00375E+01 7.32319E-02 1.33608E-03-2.18497E-01 5.78986E-14 4.40599E-14
 -1      3348 2.00881E+01 6.65142E-02-1.03902E-03-2.45796E-01 3.30268E-14 5.54651E-14
 -1      3349 1.07707E+01 2.36553E-01 1.14734E-01-2.15719E+00-1.99394E-13-1.48284E-14
 -1      3350 1.22818E+01 1.06726E-01 4.21582E-02-2.67032E+00-2.02664E-13-7.32747E-14
 -1      3351 1.11619E+01 5.94877E-01 4.43748E-02-1.07389E+00-1.53303E-13 9.61731E-14
 -1      3352 1.41265E+01-8.47963E-01 5.11617E-02-3.97800E+00-2.05457E-13-1.49984E-13
 -1      3353 1.43186E+01-1.63207E+00 9.22452E-02-4.75711E+00-2.33057E-13-1.04701E-13
 -1      3354 1.61934E+01-2.09971E+00-2.02932E-02-4.69081E+00-2.31360E-13 2.72490E-14
 -1      3355 2.02903E+01 9.59693E-01 2.33403E-04-4.15001E-01-4.97423E-14-6.33182E-14
 -1      3356 2.01291E+01 1.95113E+00-2.74864E-03-5.78477E-01-4.30444E-14-4.89191E-14
 -1      3357 2.01659E+01 1.82165E+00-6.42260E-03-6.77907E-01-5.91607E-14-6.45142E-14
 -1      3358 1.68254E+01-2.67326E+00 7.03008E-02 5.01912E+00-4.43659E-13 3.21985E-13
 -1      3359 2.52935E+01-3.70206E+00 2.50638E-02 1.17000E+00-1.39543E-13 2.27100E-13
 -1      3360 2.39879E+01-3.69437E+00 1.36035E-02 1.76201E+00-1.64757E-13 4.07436E-13
 -1      3361 2.53051E+01-2.94054E+00-3.28914E-02 6.06548E-02-3.26267E-14 2.99018E-13
 -1      3362 2.02422E+01 1.48889E+00-5.24839E-03-8.74201E-01-7.05192E-14-6.14711E-14
 -1      3363 2.15563E+01-3.92006E+00 3.78016E-02 3.82112E+00-3.45349E-13 4.14971E-13
 -1      3364 2.44949E+01 3.26952E+00-4.93552E-02 1.40082E+00 1.52309E-13 2.68341E-13
 -1      3365 2.37456E+01 3.35890E+00-4.28147E-02-7.09433E-01 4.92134E-13 2.54099E-13
 -1      3366 2.38884E+01 2.84357E+00-5.87436E-02-1.36111E+00 4.33271E-13 1.97997E-13
 -1      3367 1.97367E+01 5.49743E-01-2.28842E-03 2.92596E-01 3.90773E-13-1.95217E-13
 -1      3368 1.97841E+01 5.16227E-01 9.39045E-04 3.42976E-01 3.09823E-13 2.01890E-13
 -1      3369 1.35690E+01-8.34518E-01 6.88920E-02 3.95943E+00-1.54813E-13 1.66589E-13
 -1      3370 1.15767E+01-6.69980E-01 1.17964E-01 3.90772E+00-2.04472E-13 1.71030E-13
 -1      3371 1.13303E+01 2.91058E-02 5.54947E-02 2.69608E+00 1.08247E-14-1.50435E-14
 -1      3372 2.00729E+01 2.12513E+00-3.10848E-03-3.79822E-01-3.97031E-14-6.99214E-14
 -1      3373 2.00968E+01 2.04691E+00-5.09425E-03-4.94151E-01-3.97043E-14-6.56416E-14
 -1      3374 2.02054E+01 1.71738E+00 4.20534E-03-4.46816E-01-5.02391E-14-5.94935E-14
 -1      3375 1.96677E+01 6.10349E-01-2.07006E-03 1.58052E-01 3.37290E-13-4.31305E-13
 -1      3376 1.96981E+01 5.89275E-01 4.71326E-04 2.24851E-01 5.06639E-13-4.62511E-13
 -1      3377 1.96656E+01 5.91613E-01 1.34944E-03 2.88676E-01 3.36703E-13-3.33024E-13
 -1      3378 1.95964E+01 6.49975E-01 1.94174E-03 1.33628E-01 2.81886E-13-7.04342E-13
 -1      3379 2.61076E+01 2.87819E+00-7.41160E-02-1.94906E+00 3.28196E-13-6.01047E-14
 -1      3380 2.65100E+01-2.02087E+00-1.50963E-02 6.81178E-01-2.70263E-13 2.65760E-13
 -1      3381 1.65380E+01-2.13468E+00 1.18821E-01-4.67396E+00 8.36865E-14-2.94750E-13
 -1      3382 1.82223E+01-2.67016E+00-2.43410E-02-4.36598E+00 1.00177E-13-3.06755E-13
 -1      3383 1.60244E+01-1.37976E+00 5.97713E-02-4.14188E+00 7.90340E-14-1.44718E-13
 -1      3384 1.35853E+01-1.35527E+00 1.20265E-01 4.28198E+00-8.00957E-14-4.15418E-13
 -1      3385 1.91054E+01-2.98240E+00 7.37295E-02 4.33898E+00 2.03754E-13-3.97619E-13
 -1      3386 2.14998E+01-3.93521E+00 3.13316E-02-3.83430E+00 8.59313E-14-5.31743E-13
 -1      3387 2.00677E+01 1.33304E-01 2.31982E-03-1.52883E-01 4.92368E-14 2.06884E-14
 -1      3388 2.01535E+01 1.96563E-01-1.44732E-03-1.12333E-01 3.29516E-14 1.15521E-14
 -1      3389 2.00523E+01 9.78267E-02-1.00153E-04-1.89384E-01 4.83145E-14 3.75120E-14
 -1      3390 1.98303E+01 4.71987E-01-2.03539E-03 3.80165E-01 3.28874E-13 3.46561E-13
 -1      3391 1.98785E+01 4.37186E-01 8.20737E-04 4.03770E-01 3.06990E-13 3.63473E-13
 -1      3392 1.97689E+01 5.12906E-01 1.28482E-03 3.96908E-01 2.00966E-13 1.77968E-13
 -1      3393 2.00754E+01 2.11928E+00-3.14611E-03 3.87677E-01 2.38317E-14-6.05452E-14
 -1      3394 2.01707E+01 1.86582E+00 5.37381E-03 2.87179E-01 1.07712E-14-3.46241E-14
 -1      3395 2.01001E+01 2.03811E+00-5.42103E-03 5.00437E-01 4.44187E-14-5.89122E-14
 -1      3396 2.01813E+01 4.99079E-01-2.63605E-03 2.09118E-01 7.16442E-14 2.61596E-14
 -1      3397 2.02346E+01 6.45378E-01 3.73822E-03 3.51942E-01 8.82858E-14 1.74844E-15
 -1      3398 2.02654E+01 8.05405E-01 1.40232E-03 4.13139E-01 8.17318E-14 1.27616E-14
 -1      3399 2.02364E+01 5.39856E-01-1.57940E-03 1.85457E-01 8.98307E-14 4.59380E-14
 -1      3400 1.12505E+01 1.71169E-02 1.35098E-02 2.47199E+00-2.11831E-13-1.85255E-13
 -1      3401 1.00177E+01 2.57838E-01 1.30194E-01 1.49872E+00-2.26898E-13-5.99520E-15
 -1      3402 1.09869E+01 5.89453E-01 7.74669E-02 7.90707E-01-2.62427E-13 5.01266E-14
 -1      3403 2.64921E+01 1.17147E+00-5.28413E-02 2.13680E+00-4.27852E-14 1.34774E-13
 -1      3404 2.02384E+01 1.51139E+00-2.78314E-03-7.65012E-01-6.67026E-14-6.06292E-14
 -1      3405 1.96933E+01-3.60378E+00 6.90894E-02-4.61083E+00-2.46851E-13 5.35544E-14
 -1      3406 1.03628E+01 4.74479E-01 6.18510E-02 9.37217E-01-3.04691E-14-9.32587E-14
 -1      3407 9.83518E+00 5.01425E-01 1.36715E-01-1.91325E-01 7.60971E-14-3.72757E-14
 -1      3408 1.11580E+01 5.60255E-01 8.55931E-02-9.57117E-01 1.30581E-13-8.74648E-14
 -1      3409 2.52078E+01 2.99487E+00-1.25529E-01 1.86665E+00 4.28407E-14 2.89907E-14
 -1      3410 1.99175E+01 4.40154E-01-1.06033E-03-4.77407E-01-6.35408E-14 2.91625E-14
 -1      3411 1.98748E+01 4.73977E-01-1.14283E-03-4.47854E-01-1.50220E-14-1.73777E-13
 -1      3412 1.98095E+01 5.27730E-01 1.36436E-03-4.71783E-01 7.74994E-15-3.34526E-13
 -1      3413 1.98990E+01 4.71101E-01 1.22425E-03-5.30829E-01-7.28184E-14-5.56251E-14
 -1      3414 2.20851E+01-3.61312E+00-2.31545E-02 2.97194E+00-2.27164E-13 5.49931E-13
 -1      3415 2.04261E+01-3.26940E+00 9.39445E-02 4.04412E+00-2.16681E-13 4.82463E-13
 -1      3416 2.03068E+01 4.72356E-01 2.55264E-03-4.96691E-02-1.12566E-14-4.90104E-14
 -1      3417 2.02822E+01 3.66328E-01-1.95167E-03 2.27659E-02-1.54975E-14-1.00458E-14
 -1      3418 2.02715E+01 2.84380E-01 1.87306E-03 7.40044E-02-8.37839E-15-1.36580E-14
 -1      3419 2.02476E+01 2.18076E-01-1.02736E-03 1.22760E-01-2.87368E-14 1.69740E-14
 -1      3420 2.03183E+01 3.77950E-01 3.03901E-05 3.27984E-02-8.08008E-16-2.75409E-14
 -1      3421 2.02289E+01 1.69148E-01 1.24694E-03 1.57358E-01-2.01534E-14 3.20735E-14
 -1      3422 2.02077E+01 1.32162E-01-3.32125E-04 1.90040E-01 1.87843E-14 4.47470E-14
 -1      3423 2.02816E+01 2.28803E-01-2.94239E-04 1.21901E-01 4.15194E-15-2.94001E-14
 -1      3424 2.01844E+01 1.07803E-01 6.31328E-04 2.13809E-01 1.86913E-14 6.42250E-14
 -1      3425 2.01663E+01 9.29377E-02 1.73179E-04 2.37095E-01 3.08260E-14 7.59431E-14
 -1      3426 2.02358E+01 1.44086E-01-3.75610E-04 1.83159E-01 1.96567E-14 3.21479E-14
 -1      3427 2.01400E+01 8.72367E-02 7.50261E-05 2.55226E-01 1.75461E-14 3.51223E-14
 -1      3428 2.01246E+01 8.94284E-02 5.30923E-04 2.74585E-01-4.71257E-15 4.10768E-14
 -1      3429 2.01849E+01 1.08452E-01-3.07221E-04 2.27435E-01 1.41657E-14 1.48870E-14
 -1      3430 2.00956E+01 9.82923E-02-4.25683E-04 2.91378E-01-7.43065E-16 2.39484E-14
 -1      3431 2.00819E+01 1.14038E-01 7.78184E-04 3.11181E-01-1.14818E-14 2.87759E-14
 -1      3432 2.01305E+01 1.10815E-01-1.36018E-04 2.64090E-01-5.19839E-15-1.89622E-14
 -1      3433 2.00496E+01 1.34668E-01-8.90438E-04 3.30094E-01-5.30718E-14 5.32502E-14
 -1      3434 2.00363E+01 1.61575E-01 9.42947E-04 3.53811E-01-4.34717E-14 4.23777E-14
 -1      3435 2.00719E+01 1.43350E-01 1.17349E-04 3.00782E-01-3.60558E-14 1.69031E-14
 -1      3436 1.99991E+01 1.92057E-01-1.34413E-03 3.77596E-01-4.97718E-14 3.02602E-15
 -1      3437 1.99845E+01 2.28455E-01 1.04621E-03 4.07984E-01-4.27682E-14 9.93970E-15
 -1      3438 2.00066E+01 2.00612E-01 4.52508E-04 3.43602E-01-6.57612E-14-2.05940E-14
 -1      3439 1.99404E+01 2.67374E-01-1.81145E-03 4.38841E-01-4.15760E-14-1.25040E-14
 -1      3440 1.99225E+01 3.11897E-01 1.09785E-03 4.78093E-01-4.21119E-14 1.41203E-15
 -1      3441 1.99309E+01 2.78722E-01 8.77375E-04 3.97328E-01-5.85645E-14-4.14894E-15
 -1      3442 1.98687E+01 3.57888E-01-2.31336E-03 5.17768E-01-6.18618E-14 1.49372E-14
 -1      3443 1.98452E+01 4.09027E-01 1.11118E-03 5.67580E-01-1.32144E-13 8.46179E-14
 -1      3444 1.98398E+01 3.74463E-01 1.40044E-03 4.65700E-01 1.24464E-15 2.00591E-15
 -1      3445 1.97781E+01 4.60317E-01-2.87502E-03 6.17465E-01-1.32578E-13 1.25904E-13
 -1      3446 1.97465E+01 5.15898E-01 1.11698E-03 6.79128E-01-7.83210E-14 1.69012E-13
 -1      3447 1.97269E+01 4.84415E-01 2.04913E-03 5.51541E-01-1.03882E-13 4.30233E-15
 -1      3448 1.96618E+01 5.69632E-01-3.52332E-03 7.40521E-01-1.00888E-13 1.59081E-13
 -1      3449 1.96198E+01 6.25980E-01 1.17404E-03 8.15092E-01-1.03885E-13 1.55366E-13
 -1      3450 1.95843E+01 6.03818E-01 2.82068E-03 6.57137E-01-6.32503E-14 7.05882E-14
 -1      3451 1.95128E+01 6.77178E-01-4.29148E-03 8.89577E-01-1.33365E-13 1.53055E-13
 -1      3452 1.94586E+01 7.27977E-01 1.41734E-03 9.78156E-01-1.41126E-13 1.58322E-13
 -1      3453 1.94034E+01 7.25076E-01 3.71782E-03 7.84951E-01-9.81384E-14 1.17704E-13
 -1      3454 1.93245E+01 7.68149E-01-5.23439E-03 1.06839E+00-2.89131E-14 2.15503E-13
 -1      3455 1.92591E+01 8.02857E-01 2.10987E-03 1.17279E+00 3.03796E-14 2.10995E-13
 -1      3456 1.91745E+01 8.35592E-01 4.70703E-03 9.38780E-01-7.03093E-14 1.76760E-13
 -1      3457 1.90936E+01 8.17988E-01-6.41192E-03 1.28398E+00-3.37661E-14 2.00430E-13
 -1      3458 1.90233E+01 8.19562E-01 3.72872E-03 1.40791E+00-7.79135E-14 1.03118E-13
 -1      3459 1.88889E+01 9.14898E-01 5.67472E-03 1.12627E+00-1.72823E-14 1.41875E-13
 -1      3460 1.88245E+01 7.87359E-01-7.81016E-03 1.55030E+00-1.27431E-14 9.13835E-14
 -1      3461 1.87668E+01 7.29187E-01 7.14078E-03 1.70088E+00 5.03569E-14 5.27355E-14
 -1      3462 1.85403E+01 9.30582E-01 6.40572E-03 1.36324E+00-6.95886E-14 9.59981E-14
 -1      3463 1.85391E+01 6.15640E-01-8.90620E-03 1.89336E+00 3.81942E-14 8.12497E-14
 -1      3464 1.85318E+01 4.56907E-01 1.37317E-02 2.08217E+00 1.08703E-13 3.00590E-14
 -1      3465 1.81298E+01 8.32202E-01 6.51138E-03 1.68060E+00 5.86140E-14 3.54048E-14
 -1      3466 1.82969E+01 2.11307E-01-7.53828E-03 2.35508E+00 1.45317E-13 1.29091E-14
 -1      3467 1.84077E+01-1.10212E-01 2.39912E-02 2.59450E+00 8.11817E-14-2.06252E-14
 -1      3468 1.76762E+01 5.39750E-01 4.95973E-03 2.13345E+00 4.44163E-14 6.75248E-14
 -1      3469 1.82367E+01-5.36988E-01 1.04586E-02 2.98027E+00 2.00803E-14-1.31806E-13
 -1      3470 1.86283E+01-1.12615E+00 4.13805E-02 3.25914E+00 4.50547E-14-2.03132E-13
 -1      3471 1.72542E+01-8.50992E-02 1.23786E-03 2.80400E+00 3.02969E-15-3.53000E-14
 -1      3472 1.83659E+01-2.02888E+00 6.52822E-02 4.01302E+00 1.55416E-13-3.44903E-13
 -1      3473 1.82532E+01-2.84095E+00-3.24531E-02 4.56851E+00-2.82711E-13 3.58290E-13
 -1      3474 1.60147E+01-1.74844E+00 6.89611E-02 4.52350E+00-2.72664E-13 4.35093E-13
 -1      3475 1.93480E+01-2.57304E+00 2.49036E-02 3.85198E+00-2.34215E-13 5.17475E-13
 -1      3476 1.84511E+01-6.32410E-01 2.55067E-02-2.97374E+00-6.35382E-14-2.65339E-13
 -1      3477 1.82303E+01-1.51185E-01 3.03345E-03-2.69818E+00-2.35760E-14-2.92352E-13
 -1      3478 1.84471E+01 1.79566E-01 1.90748E-02-2.36213E+00 3.48418E-14-3.72165E-13
 -1      3479 1.83985E+01 4.21989E-01-8.79689E-03-2.14536E+00 1.36057E-13-3.62223E-13
 -1      3480 1.74342E+01 2.41613E-01 5.40050E-03-2.48812E+00-2.35875E-14-1.79219E-13
 -1      3481 1.86364E+01 6.03856E-01 1.03774E-02-1.91153E+00 3.18856E-13-3.77341E-13
 -1      3482 1.86730E+01 7.13962E-01-8.49763E-03-1.74060E+00 3.98335E-13-3.03725E-13
 -1      3483 1.78875E+01 6.97950E-01 6.19404E-03-1.92299E+00 1.57002E-13-2.71261E-13
 -1      3484 1.88903E+01 7.88985E-01 5.34087E-03-1.57257E+00 4.07496E-13-3.74271E-13
 -1      3485 1.89576E+01 8.19819E-01-7.09366E-03-1.43376E+00 3.32459E-13-2.09724E-13
 -1      3486 1.83290E+01 8.96111E-01 6.63529E-03-1.53701E+00 4.11974E-13-2.71281E-13
 -1      3487 1.91426E+01 8.31396E-01 2.82003E-03-1.30555E+00 1.52079E-13-2.79316E-13
 -1      3488 1.92130E+01 8.17072E-01-5.74898E-03-1.18879E+00 1.68404E-13-1.51351E-13
 -1      3489 1.87153E+01 9.43166E-01 6.15675E-03-1.25815E+00 3.02144E-13-3.35008E-13
 -1      3490 1.93647E+01 7.93941E-01 1.63496E-03-1.08548E+00 2.58333E-13-1.41448E-13
 -1      3491 1.94264E+01 7.56781E-01-4.69935E-03-9.84976E-01 2.13630E-13-7.74751E-14
 -1      3492 1.90376E+01 9.04362E-01 5.29664E-03-1.04206E+00 2.50497E-13-3.89380E-13
 -1      3493 1.95477E+01 7.17689E-01 1.10183E-03-8.98698E-01 1.31899E-13-2.61672E-14
 -1      3494 1.95970E+01 6.72407E-01-3.75864E-03-8.11457E-01 2.52840E-13-1.11571E-13
 -1      3495 1.92980E+01 8.21935E-01 4.29404E-03-8.64780E-01 1.92753E-13-8.76479E-14
 -1      3496 1.96917E+01 6.28582E-01 6.05106E-04-7.37565E-01 4.16022E-13-3.54551E-14
 -1      3497 1.97317E+01 5.84836E-01-2.32547E-03-6.62440E-01 4.12201E-13 2.69124E-14
 -1      3498 1.95037E+01 7.24743E-01 3.63541E-03-7.14611E-01 3.62188E-13 7.95826E-14
 -1      3499 2.00129E+01 2.02186E-01 1.50980E-03-4.64932E-01-2.87005E-14 4.09639E-14
 -1      3500 2.00093E+01 1.76241E-01-1.20375E-03-4.31413E-01-1.66499E-14 4.83155E-14
 -1      3501 2.00331E+01 1.52895E-01 1.33185E-03-4.01744E-01 1.35786E-14 6.59642E-14
 -1      3502 2.00322E+01 1.29786E-01-9.42144E-04-3.75502E-01 3.41884E-14 1.05488E-13
 -1      3503 1.99970E+01 1.90757E-01 2.91334E-05-4.07178E-01 1.15332E-14 8.73746E-14
 -1      3504 1.99804E+01 2.94119E-01 1.89912E-03-6.43028E-01-4.81758E-14 5.11812E-14
 -1      3505 1.99694E+01 2.73686E-01-1.46575E-03-5.92882E-01-8.09746E-14-4.21771E-15
 -1      3506 1.99748E+01 3.16978E-01 2.15811E-03-7.58684E-01 2.98373E-14 8.64318E-14
 -1      3507 1.99567E+01 3.07816E-01-1.37389E-03-7.01184E-01-3.85231E-17 6.46537E-14
 -1      3508 1.98631E+01 3.48408E-01-2.67793E-05-6.67816E-01-6.28405E-14 1.55139E-14
 -1      3509 1.99867E+01 3.04740E-01 2.49412E-03-8.89256E-01 4.36086E-14 6.72688E-14
 -1      3510 1.99567E+01 3.15496E-01-1.01669E-03-8.26821E-01 3.61919E-14 5.05362E-14
 -1      3511 1.98244E+01 3.69084E-01-4.63776E-04-7.94840E-01 5.38503E-14 3.05250E-14
 -1      3512 2.00314E+01 2.36102E-01 2.92219E-03-1.02899E+00 2.86029E-14 5.16136E-14
 -1      3513 1.99816E+01 2.78263E-01-2.32458E-04-9.66042E-01 6.31599E-14 5.99770E-14
 -1      3514 1.98018E+01 3.46634E-01-1.35940E-03-9.42042E-01 6.06461E-14 2.70119E-14
 -1      3515 2.01333E+01 8.43067E-02 3.38139E-03-1.16747E+00-3.19696E-15 1.43137E-13
 -1      3516 2.00517E+01 1.72116E-01 1.20982E-03-1.11131E+00 3.55652E-14 1.08815E-13
 -1      3517 1.98132E+01 2.56192E-01-2.95166E-03-1.10653E+00 1.96082E-14-5.82582E-16
 -1      3518 2.03288E+01-1.80815E-01 3.62352E-03-1.28650E+00-8.12521E-14 1.54386E-13
 -1      3519 2.01988E+01-3.17150E-02 3.65738E-03-1.24899E+00-3.29455E-14 1.18480E-13
 -1      3520 1.98878E+01 6.64325E-02-5.64079E-03-1.28145E+00-1.36645E-14 1.12016E-13
 -1      3521 2.06669E+01-5.85602E-01 2.83923E-03-1.35426E+00-1.61248E-13 1.74790E-13
 -1      3522 2.04690E+01-3.62528E-01 7.62240E-03-1.35440E+00-1.29278E-13 1.41796E-13
 -1      3523 2.00708E+01-2.58140E-01-9.86166E-03-1.45167E+00-1.13192E-13 6.83848E-14
 -1      3524 2.12058E+01-1.13046E+00 5.70832E-04-1.31414E+00-8.96400E-14 1.92986E-13
 -1      3525 2.09231E+01-8.37920E-01 1.34275E-02-1.38190E+00-1.42717E-13 2.37852E-13
 -1      3526 2.04284E+01-7.49250E-01-1.60408E-02-1.58407E+00-1.50043E-13 2.06456E-14
 -1      3527 2.19896E+01-1.75694E+00-5.31751E-03-1.08141E+00-9.62060E-14 1.29456E-13
 -1      3528 2.16204E+01-1.43365E+00 2.05814E-02-1.25713E+00-8.33229E-14 1.90578E-13
 -1      3529 2.10419E+01-1.40260E+00-2.29370E-02-1.60882E+00-1.15581E-13 9.60304E-14
 -1      3530 2.30099E+01-2.25924E+00-1.36472E-02-5.35356E-01-2.12362E-13 1.46658E-13
 -1      3531 2.25926E+01-2.03492E+00 2.66490E-02-8.61098E-01-1.42790E-13 1.07046E-13
 -1      3532 2.19906E+01-2.14670E+00-3.03478E-02-1.41377E+00-1.17698E-13 1.72707E-13
 -1      3533 2.49338E+01-1.14283E+00-3.52211E-02 1.45467E+00-2.57929E-13 2.53522E-13
 -1      3534 2.47912E+01-1.82093E+00 4.44374E-03 1.04326E+00-2.82408E-13 2.29914E-13
 -1      3535 2.53620E+01 8.92297E-01-3.32049E-02 2.02007E+00-2.30205E-13 2.13267E-13
 -1      3536 2.54148E+01-3.65154E-01-4.46884E-02 1.94122E+00-2.40519E-13 2.13761E-13
 -1      3537 2.47009E+01 2.90882E+00-6.62365E-02-1.81235E+00 4.36859E-13 8.74925E-14
 -1      3538 2.51915E+01-5.87117E-01-3.87836E-02-1.80912E+00-2.57259E-15 1.63251E-13
 -1      3539 2.52286E+01 5.54995E-01-3.60241E-02-1.97468E+00 2.55948E-13 2.27974E-13
 -1      3540 2.26038E+01-2.00429E+00 3.84875E-02 8.59650E-01 2.71267E-16-1.08134E-14
 -1      3541 2.30121E+01-2.24105E+00-1.49808E-03 5.43239E-01-1.15255E-13-4.19092E-14
 -1      3542 2.16088E+01-1.42294E+00 1.86474E-02 1.27035E+00 2.46074E-13 6.45924E-14
 -1      3543 2.19843E+01-1.74715E+00-5.16306E-03 1.09480E+00 7.50255E-14 4.98722E-14
 -1      3544 2.19904E+01-2.19341E+00-4.87260E-02 1.43213E+00 9.22192E-14 4.25081E-14
 -1      3545 2.09170E+01-8.21956E-01 1.21810E-02 1.38663E+00 1.56360E-13 8.65647E-14
 -1      3546 2.12058E+01-1.11235E+00 2.60071E-03 1.32085E+00 2.81606E-13 5.96515E-14
 -1      3547 2.10232E+01-1.39193E+00-2.98590E-02 1.61269E+00 2.59326E-13 1.97607E-13
 -1      3548 2.04770E+01-3.52479E-01 7.51427E-03 1.35442E+00 9.39611E-14 1.86834E-13
 -1      3549 2.06722E+01-5.71575E-01 3.63654E-03 1.35440E+00 1.62682E-13 1.15362E-13
 -1      3550 2.04302E+01-7.28957E-01-1.62207E-02 1.57834E+00 1.11027E-13 2.41013E-13
 -1      3551 2.02117E+01-2.26449E-02 3.75271E-03 1.25054E+00 1.33819E-13 1.39723E-13
 -1      3552 2.03391E+01-1.72092E-01 3.41185E-03 1.28858E+00 1.33506E-13 1.87560E-13
 -1      3553 2.00874E+01-2.49352E-01-9.70762E-03 1.45004E+00 1.46218E-13 1.46663E-13
 -1      3554 2.00670E+01 1.84484E-01 1.29719E-03 1.11133E+00-1.66430E-14 3.41806E-13
 -1      3555 2.01471E+01 9.44519E-02 3.23661E-03 1.16893E+00 3.02270E-14 2.83349E-13
 -1      3556 1.99065E+01 7.66062E-02-5.62885E-03 1.28185E+00 2.45084E-14 3.36899E-13
 -1      3557 1.99981E+01 2.97977E-01-1.04658E-04 9.61771E-01-1.55222E-13 4.29196E-13
 -1      3558 2.00469E+01 2.51483E-01 2.76809E-03 1.02752E+00 9.23263E-15 3.15998E-13
 -1      3559 1.98333E+01 2.71849E-01-2.97419E-03 1.10517E+00-7.74309E-14 6.14788E-13
 -1      3560 1.99731E+01 3.47600E-01-8.36868E-04 8.15129E-01-1.44472E-14 2.61091E-13
 -1      3561 2.00027E+01 3.29816E-01 2.33139E-03 8.82143E-01-7.67838E-14 3.20080E-13
 -1      3562 1.98224E+01 3.72123E-01-1.32801E-03 9.36210E-01-1.07929E-13 4.89465E-13
 -1      3563 1.99700E+01 3.57974E-01-1.76673E-03 6.78889E-01-5.92220E-14 2.42401E-13
 -1      3564 1.99895E+01 3.56723E-01 1.73000E-03 7.42389E-01-5.90076E-14 3.02134E-13
 -1      3565 1.98441E+01 4.09616E-01-4.22611E-04 7.81664E-01 1.44677E-14 3.88110E-13
 -1      3566 1.99809E+01 3.49701E-01-8.62469E-04 5.53000E-01-2.09811E-14 2.84395E-13
 -1      3567 1.99925E+01 3.56425E-01 1.76432E-03 6.11635E-01-1.55781E-14 2.81359E-13
 -1      3568 1.98784E+01 4.15954E-01 1.73227E-03 6.43178E-01-9.71335E-15 3.67776E-13
 -1      3569 2.02432E+01 3.52832E-01-1.92916E-03-1.03622E-02 6.34652E-14 1.60056E-14
 -1      3570 2.02729E+01 4.56916E-01 3.13198E-03 6.89505E-02 8.43207E-14 2.40278E-14
 -1      3571 2.00413E+01 2.21741E+00-3.36746E-03-1.60996E-01-2.10342E-14-6.11628E-14
 -1      3572 2.00535E+01 2.18037E+00-4.17365E-03-2.82022E-01-3.84673E-14-5.84779E-14
 -1      3573 2.01670E+01 1.86947E+00 4.41830E-03-2.79712E-01-2.91593E-14-6.72437E-14
 -1      3574 1.96718E+01 6.11796E-01 1.03196E-03-4.43095E-01 1.12954E-14-3.67838E-13
 -1      3575 1.96001E+01 6.45577E-01-2.92548E-03-3.74862E-01 7.95928E-14 3.49961E-14
 -1      3576 1.95441E+01 6.82533E-01 3.54869E-04-2.80277E-01 1.92059E-13 4.10444E-14
 -1      3577 1.95051E+01 6.98501E-01-1.89009E-03-1.92912E-01 2.72026E-13 6.03069E-14
 -1      3578 1.95016E+01 7.06096E-01 1.42066E-03-3.55012E-01 6.74151E-14-1.30976E-13
 -1      3579 1.94843E+01 7.06644E-01-1.07140E-03-8.66768E-02 4.10165E-13 9.58732E-14
 -1      3580 1.94805E+01 7.05584E-01-7.11621E-04 6.38522E-03 3.84882E-13-4.54708E-13
 -1      3581 1.94165E+01 7.46012E-01 2.60466E-03-1.46734E-01 3.26876E-13-5.38713E-14
 -1      3582 2.02928E+01 1.17602E+00-1.07242E-04-4.68707E-01-4.05322E-14-7.32991E-14
 -1      3583 2.02949E+01 9.48119E-01-3.99501E-03-3.26744E-01-5.13908E-14-6.87647E-14
 -1      3584 1.28100E+01 3.99485E-01 6.45022E-02-2.22263E+00 1.21321E-13 2.14481E-14
 -1      3585 1.42207E+01-2.20447E-01 2.37639E-02-3.15889E+00 1.38157E-13-4.72886E-14
 -1      3586 2.39042E+01-2.56837E+00 8.88403E-03 2.48962E-01-4.61289E-14 1.08756E-13
 -1      3587 2.43347E+01-2.41324E+00-8.42957E-03-2.27616E-01 2.79559E-14 1.64904E-13
 -1      3588 2.48957E+01-1.36995E+00-3.92775E-02-1.31430E+00-6.58978E-15 1.71490E-13
 -1      3589 2.01051E+01 6.69932E-02 6.23508E-04-2.79360E-01 4.59180E-14 6.87590E-14
 -1      3590 2.01140E+01 6.89886E-02 2.74094E-04-2.61102E-01 5.03477E-14 6.92406E-14
 -1      3591 2.03240E+01 7.58090E-01 3.21529E-03-2.28927E-01-5.22566E-14-5.90161E-14
 -1      3592 2.03029E+01 5.99602E-01-3.04343E-03-1.24149E-01-2.55113E-14-5.99574E-14
 -1      3593 2.03221E+01 9.51151E-01-1.04992E-03-2.71390E-01-4.56753E-14-5.89062E-14
 -1      3594 2.01764E+01-2.95074E+00 1.06028E-01-4.01867E+00 9.07711E-14-4.59020E-13
 -1      3595 2.02116E+01 1.60408E+00-2.79615E-03-7.05686E-01-5.90418E-14-6.17576E-14
 -1      3596 1.86304E+01-2.76739E+00 1.00751E-01-4.53154E+00-1.90008E-13 1.01134E-13
 -1      3597 2.07752E+01-3.59468E+00-3.47158E-02-3.86022E+00-2.19687E-13 3.92637E-14
 -1      3598 2.59445E+01-2.64768E+00 4.74365E-02 2.51646E-01-2.77868E-13 3.60611E-13
 -1      3599 2.58883E+01-1.32400E+00-6.50417E-02 1.39459E+00-2.66676E-13 4.05238E-13
 -1      3600 1.99947E+01 2.52031E-01 1.69279E-03-5.44944E-01-5.92643E-14-5.38821E-16
 -1      3601 1.99881E+01 2.26582E-01-1.38990E-03-5.03157E-01-3.02257E-14 1.23904E-14
 -1      3602 1.99530E+01 2.47489E-01 1.27027E-04-4.75349E-01-1.48759E-14 7.98589E-14
 -1      3603 1.99077E+01 3.03331E-01 1.27477E-04-5.61579E-01-6.94529E-14 5.07598E-14
 -1      3604 1.52359E+01-1.38486E+00 3.54132E-02 4.18353E+00 7.53217E-15-3.56930E-13
 -1      3605 1.29411E+01-3.92458E-01 1.22018E-01 3.46954E+00-1.29577E-13-2.90434E-13
 -1      3606 1.99255E+01 3.93600E-01-1.81128E-03 4.17813E-01 3.13296E-13 4.46307E-13
 -1      3607 1.99752E+01 3.53453E-01 3.82388E-04 4.24667E-01 2.13174E-15 9.28028E-14
 -1      3608 1.99825E+01 3.49018E-01 4.32295E-04 4.59602E-01 5.53394E-14 5.36175E-14
 -1      3609 1.98721E+01 4.31684E-01-2.97981E-04 4.48381E-01 1.53448E-13 4.29431E-13
 -1      3610 1.92034E+01-2.29419E+00 3.81912E-02-3.84758E+00 6.36713E-14-3.38601E-13
 -1      3611 2.21287E+01-3.60874E+00 5.87300E-02-3.16151E+00-2.92785E-13 4.58333E-14
 -1      3612 2.28882E+01-3.54572E+00-4.46450E-02-2.22673E+00-3.53887E-13 1.16523E-13
 -1      3613 2.09481E+01-3.02178E+00 1.31410E-02-3.27739E+00-1.47870E-13 6.75120E-14
 -1      3614 2.02831E+01 1.16022E+00-3.69022E-03 4.83673E-01 7.50363E-14-8.51944E-15
 -1      3615 2.02733E+01 1.30329E+00 1.03435E-04 4.46620E-01 6.41616E-14-2.32069E-14
 -1      3616 1.66177E+01-1.36831E+00 1.37414E-02 3.99828E+00 5.46577E-14-3.77493E-13
 -1      3617 2.01351E+01 7.77804E-02 2.38249E-04-2.42311E-01 3.17389E-14 7.10551E-14
 -1      3618 2.01488E+01 9.49370E-02 8.64490E-04-2.19016E-01 1.34310E-14 8.10615E-14
 -1      3619 2.01645E+01 9.11734E-02-5.68893E-04-2.37578E-01 3.50626E-14 8.65806E-14
 -1      3620 1.15013E+01 8.40566E-01 1.04002E-01-1.84317E-01-2.46798E-13-1.84991E-14
 -1      3621 1.23560E+01 7.97215E-01 3.40566E-02-9.48509E-01-1.62956E-13-8.65523E-14
 -1      3622 1.20077E+01 7.27347E-01-4.22849E-03 7.09050E-01-2.50929E-13 1.49464E-14
 -1      3623 2.51716E+01 2.21480E+00-9.82478E-02 2.14205E+00-4.35138E-14 9.00703E-14
 -1      3624 1.35751E+01-1.51375E-01 9.54734E-02-3.31976E+00-1.61990E-13-1.67543E-13
 -1      3625 1.50170E+01-6.48706E-01 1.93946E-02-3.55442E+00-1.34023E-13-1.65468E-13
 -1      3626 1.33032E+01 2.51994E-01 1.90449E-02-2.47289E+00-9.71497E-14-6.26998E-14
 -1      3627 2.01474E+01 1.94323E+00 4.82925E-03-9.29847E-02-1.58473E-14-4.75949E-14
 -1      3628 1.78405E+01-2.08155E+00 4.82350E-02-4.13950E+00-2.14932E-13 4.45824E-14
 -1      3629 1.95665E+01 6.29322E-01-2.45356E-03 2.88887E-01 1.49876E-13-4.59291E-13
 -1      3630 1.96230E+01 5.96501E-01 9.25315E-04 3.59403E-01 1.57234E-13-1.41968E-13
 -1      3631 1.86572E+01-1.45779E+00 3.64396E-02-3.52881E+00 4.61431E-14-3.06258E-13
 -1      3632 1.72354E+01-8.99612E-01-2.09314E-02-3.42942E+00 6.47087E-14-3.06560E-14
 -1      3633 1.31828E+01 7.87388E-02 8.29432E-02 2.68061E+00-1.74076E-13-1.79447E-13
 -1      3634 1.98083E+01 5.43750E-01 2.95706E-04-6.24674E-01 2.96200E-13-1.15420E-13
 -1      3635 1.98421E+01 5.06163E-01-1.28713E-03-5.67211E-01 1.06502E-13-1.31469E-13
 -1      3636 1.97952E+01 5.37766E-01 1.93615E-04-5.39150E-01 1.01346E-13-3.09014E-13
 -1      3637 1.96684E+01 6.26791E-01 2.45849E-03-6.11070E-01 2.66170E-13-1.89269E-13
 -1      3638 2.49519E+01-3.04280E+00-7.41067E-03-3.69468E-01-3.09515E-13 3.07233E-13
 -1      3639 2.00394E+01 1.40552E-01-1.14989E-04-3.54020E-01 4.90975E-14 7.92187E-14
 -1      3640 2.00549E+01 1.10375E-01 1.14123E-03-3.52691E-01 4.58430E-14 1.13331E-13
 -1      3641 2.00566E+01 9.28476E-02-6.13798E-04-3.31975E-01 3.89781E-14 1.24573E-13
 -1      3642 2.46016E+01-2.54410E+00-3.47006E-02 1.94760E-01-2.44843E-13 3.02076E-13
 -1      3643 2.40003E+01-2.26094E+00-2.28941E-02 2.97139E-01-2.75577E-13 2.37959E-13
 -1      3644 2.36583E+01-2.31313E+00 3.26314E-02-1.40803E-01-2.44835E-13 1.95845E-13
 -1      3645 2.41258E+01-3.22806E+00 5.60796E-02-1.10114E+00-3.07231E-13 2.63914E-13
 -1      3646 2.31812E+01-2.70164E+00-3.81306E-02-8.87548E-01-2.29615E-13 1.98565E-13
 -1      3647 2.53903E+01 1.73181E+00-5.92288E-02-2.19988E+00 3.06817E-13 5.85712E-14
 -1      3648 2.02301E+01 1.56908E+00-4.31402E-03 2.79389E-01 1.07802E-14-3.20227E-14
 -1      3649 2.02196E+01 1.62916E+00-2.17098E-03 1.97330E-01-2.70172E-15-2.62230E-14
 -1      3650 1.51384E+01-1.08200E+00 5.14460E-02 4.13066E+00-1.90530E-13 4.34968E-13
 -1      3651 1.43955E+01-3.78783E-01 1.60087E-02 3.36640E+00 2.05617E-14 3.27065E-14
 -1      3652 1.67172E+01-1.20828E+00 4.14671E-02 3.75456E+00-1.73077E-13 4.34583E-13
 -1      3653 2.33542E+01-2.88874E+00-4.51472E-02 1.00533E+00-4.72686E-14 3.58004E-13
 -1      3654 2.03110E+01 6.05446E-01 3.18698E-04 1.24734E-01 7.89107E-14 2.24861E-14
 -1      3655 2.02740E+01 5.85100E-01-2.19841E-03 1.55677E-01 7.14257E-14 1.42139E-14
 -1      3656 2.02311E+01 2.72354E-01 2.30681E-03-6.82056E-02 3.03283E-14 9.30083E-15
 -1      3657 2.02873E+01 3.69591E-01-3.30815E-04-2.17491E-02 6.28535E-14 5.26967E-14
 -1      3658 2.02060E+01 2.06808E-01-1.00663E-03-1.20662E-01 2.97436E-14 8.86814E-15
 -1      3659 1.99958E+01 3.44156E-01 7.10379E-04 4.95003E-01 2.53565E-14 2.14222E-13
 -1      3660 1.28621E+01 3.35479E-01 3.60189E-02 2.31591E+00-6.26296E-14-1.76074E-14
 -1      3661 1.15322E+01 5.08284E-01 1.05057E-01 1.77181E+00-2.39531E-14-2.00395E-14
 -1      3662 1.18828E+01 7.37752E-01 9.19169E-03 7.75140E-01-4.29353E-14 5.25274E-14
 -1      3663 1.94083E+01 7.35581E-01 2.19558E-03 7.11316E-02 4.16112E-13-4.66606E-13
 -1      3664 1.94935E+01 6.87357E-01-2.03861E-03 1.11284E-01 2.89913E-13-6.21496E-13
 -1      3665 1.95233E+01 6.69374E-01 4.47658E-04 1.97799E-01 2.94010E-13-6.62951E-13
 -1      3666 2.02930E+01 1.41417E+00 5.20281E-03 1.29770E-01-2.20864E-15-5.27091E-14
 -1      3667 2.02110E+01 1.66323E+00-3.36871E-03 1.27956E-01-5.67504E-15-6.49818E-14
 -1      3668 2.02070E+01 1.68361E+00-2.64159E-03 3.89970E-02-6.24063E-15-8.88654E-14
 -1      3669 1.97470E+01 5.62170E-01-1.93265E-03-5.04642E-01 1.41426E-13-5.66694E-13
 -1      3670 1.24874E+01 6.81871E-01 5.42774E-02-1.59041E+00 1.83499E-14-1.07102E-13
 -1      3671 1.40231E+01 6.91018E-01 3.85551E-02-1.71178E+00-1.94096E-13-6.62179E-14
 -1      3672 1.24087E+01 9.03240E-01 5.26143E-02-6.27380E-01-1.06126E-13-1.28706E-13
 -1      3673 2.02615E+01 1.40476E+00 3.20771E-03-5.47606E-01-4.81184E-14-5.38737E-14
 -1      3674 2.02647E+01 1.39258E+00 2.10514E-03-4.53870E-01-4.44973E-14-5.32397E-14
 -1      3675 2.02860E+01 8.92002E-01-1.12789E-03 4.36251E-01 8.33484E-14 1.79439E-14
 -1      3676 2.02870E+01 1.07180E+00 1.67858E-03 4.73892E-01 7.65085E-14 1.87416E-14
 -1      3677 2.03041E+01 9.33663E-01 2.12949E-03 3.41905E-01 6.97851E-14 6.10148E-15
 -1      3678 2.02738E+01 7.43488E-01-8.83001E-04 3.07578E-01 7.67514E-14 5.20585E-15
 -1      3679 2.02108E+01 1.71144E+00 5.85004E-03 4.54057E-01 4.67702E-14-4.47068E-14
 -1      3680 2.02306E+01 1.57378E+00-1.07291E-03-3.29810E-01-3.03453E-14-3.73997E-14
 -1      3681 2.02475E+01 1.47693E+00-3.48508E-03-3.97923E-01-4.68795E-14-5.08666E-14
 -1      3682 2.03000E+01 1.27067E+00 4.19434E-03-3.35312E-01-4.08203E-14-5.03252E-14
 -1      3683 2.01163E+01 1.10748E-01-1.26900E-03-1.93157E-01 3.93358E-14 3.79458E-14
 -1      3684 1.96807E+01 5.49377E-01-2.51812E-03 4.15576E-01 3.52333E-14 1.49542E-13
 -1      3685 1.97461E+01 5.15393E-01 2.31704E-03 4.55701E-01 8.54122E-14 2.19181E-13
 -1      3686 1.95952E+01 5.98137E-01 1.05283E-03 4.22368E-01-7.25989E-14 6.52207E-14
 -1      3687 2.00786E+01 7.99590E-02 9.13651E-04-3.13743E-01 1.36173E-14 1.08705E-13
 -1      3688 2.00836E+01 7.06795E-02-2.13029E-04-2.95983E-01 2.32550E-14 7.79231E-14
 -1      3689 2.01223E+01 8.43280E-02-4.24748E-04-2.75289E-01 3.87941E-14 9.87873E-14
 -1      3690 2.00809E+01 1.03066E-01-2.70312E-04-3.11836E-01 1.51564E-14 7.77167E-14
 -1      3691 2.03366E+01 6.14078E-01 9.99636E-04-9.52465E-02-2.02154E-14-3.28113E-14
 -1      3692 2.02899E+01 7.08792E-01 1.81436E-03 2.53620E-01 7.46276E-14 1.24310E-14
 -1      3693 1.99149E+01 3.98609E-01 9.16289E-04 5.19339E-01 3.76941E-14 4.38532E-13
 -1      3694 1.96491E+01 6.27255E-01 5.80563E-04-5.14462E-01 2.93291E-14-3.40139E-13
 -1      3695 1.57991E+01-4.50510E-01 1.21116E-02 3.33432E+00-5.88787E-14-2.29858E-13
 -1      3696 2.03279E+01 2.86321E-01 1.00351E-03 8.47953E-02 1.88194E-14-4.52023E-14
 -1      3697 2.03044E+01 2.24074E-01-8.82528E-04 1.22388E-01 1.28946E-15-4.83696E-14
 -1      3698 2.02813E+01 1.78876E-01 6.12767E-04 1.46691E-01 2.95273E-14-4.22088E-14
 -1      3699 2.02553E+01 1.46645E-01-3.32182E-04 1.73177E-01 2.86871E-14-6.55224E-15
 -1      3700 2.03207E+01 2.29292E-01 1.88607E-04 1.13522E-01 1.93015E-14-3.96968E-14
 -1      3701 2.02247E+01 1.27234E-01 1.93243E-04 1.90767E-01 3.93010E-15-2.78465E-15
 -1      3702 2.01974E+01 1.18280E-01 5.81590E-05 2.11049E-01 1.42223E-15-1.73696E-14
 -1      3703 2.02643E+01 1.57206E-01 6.58166E-05 1.57010E-01 8.94641E-15-2.20963E-14
 -1      3704 2.01610E+01 1.18959E-01-2.26393E-04 2.25559E-01-1.17568E-16-1.47563E-14
 -1      3705 2.01326E+01 1.28332E-01 3.08010E-04 2.43746E-01-7.88707E-15-7.61024E-15
 -1      3706 2.01969E+01 1.35309E-01 1.09634E-04 1.90364E-01-2.95448E-14-3.64837E-14
 -1      3707 2.00906E+01 1.44980E-01-6.42462E-04 2.58183E-01-5.82431E-15-6.17754E-15
 -1      3708 2.00599E+01 1.69117E-01 4.37215E-04 2.77574E-01-2.65048E-14 5.52116E-16
 -1      3709 2.01199E+01 1.53086E-01 3.01029E-04 2.19943E-01-5.36454E-15-2.55802E-14
 -1      3710 2.00115E+01 1.98796E-01-1.06142E-03 2.94301E-01-6.18648E-14-3.07794E-14
 -1      3711 1.99771E+01 2.35148E-01 4.66836E-04 3.17461E-01-7.50596E-14-2.86380E-14
 -1      3712 2.00324E+01 2.02709E-01 6.02962E-04 2.50875E-01-3.88194E-14-3.62795E-14
 -1      3713 1.99202E+01 2.75751E-01-1.49780E-03 3.38257E-01-5.97996E-14-4.89910E-14
 -1      3714 1.98796E+01 3.22428E-01 4.15191E-04 3.67146E-01-4.40935E-14 1.17510E-14
 -1      3715 1.99313E+01 2.78556E-01 1.02844E-03 2.87034E-01-5.44235E-14-9.14844E-15
 -1      3716 1.98114E+01 3.72229E-01-1.96863E-03 3.93379E-01-1.93892E-14 4.27802E-14
 -1      3717 1.97617E+01 4.27420E-01 2.76430E-04 4.29464E-01 9.93727E-15 1.99997E-14
 -1      3718 1.98118E+01 3.76357E-01 1.58824E-03 3.31240E-01-1.35094E-14 1.63221E-15
 -1      3719 1.96785E+01 4.84502E-01-2.50230E-03 4.62006E-01-3.91522E-14 3.99907E-14
 -1      3720 1.96159E+01 5.46171E-01 7.18440E-05 5.06251E-01-1.15077E-13 7.95685E-14
 -1      3721 1.96671E+01 4.92030E-01 2.28545E-03 3.85457E-01-1.97812E-14-4.67042E-14
 -1      3722 1.95127E+01 6.08244E-01-3.15075E-03 5.45714E-01-1.18020E-13 1.28186E-13
 -1      3723 1.94331E+01 6.73603E-01-1.70232E-04 5.98975E-01-8.33141E-14 1.01790E-13
 -1      3724 1.94885E+01 6.21198E-01 3.14731E-03 4.50566E-01-8.08201E-14 7.81694E-14
 -1      3725 1.93038E+01 7.37014E-01-3.97186E-03 6.46143E-01-6.91777E-14 5.38752E-14
 -1      3726 1.92027E+01 8.01621E-01-3.87733E-04 7.09472E-01-8.83215E-14 7.17903E-14
 -1      3727 1.92654E+01 7.58168E-01 4.22228E-03 5.27423E-01-1.00862E-13 3.73970E-14
 -1      3728 1.90396E+01 8.60576E-01-5.10793E-03 7.65734E-01-5.82248E-14 9.41726E-14
 -1      3729 1.89124E+01 9.17620E-01-4.35537E-04 8.41219E-01-3.06986E-14 1.25346E-13
 -1      3730 1.89845E+01 8.94421E-01 5.60406E-03 6.17415E-01-6.08338E-14-4.24836E-14
 -1      3731 1.87053E+01 9.63187E-01-6.80967E-03 9.09954E-01 2.34478E-14 1.14068E-13
 -1      3732 1.85487E+01 1.00228E+00-5.46684E-05 1.00243E+00-4.51118E-14 8.60124E-14
 -1      3733 1.86293E+01 1.01755E+00 7.39731E-03 7.24145E-01-2.17130E-15 4.47244E-14
 -1      3734 1.82839E+01 1.02064E+00-9.46595E-03 1.09127E+00-1.19258E-13 1.01355E-13
 -1      3735 1.80976E+01 1.02619E+00 1.25137E-03 1.21095E+00-1.34917E-14 6.63724E-14
 -1      3736 1.81780E+01 1.10966E+00 9.81527E-03 8.57231E-01-5.35300E-14 4.01565E-14
 -1      3737 1.77557E+01 9.96631E-01-1.35700E-02 1.33555E+00 5.74608E-14 6.95767E-14
 -1      3738 1.75465E+01 9.45724E-01 4.79310E-03 1.50217E+00 7.57375E-14 3.88181E-14
 -1      3739 1.76014E+01 1.14500E+00 1.32623E-02 1.03799E+00 1.02354E-14 1.05867E-13
 -1      3740 1.70995E+01 8.37884E-01-1.85897E-02 1.69377E+00 4.62039E-14 5.51915E-14
 -1      3741 1.68887E+01 6.89594E-01 1.20023E-02 1.94365E+00 2.33167E-14 4.96818E-14
 -1      3742 1.68567E+01 1.08691E+00 1.88561E-02 1.30957E+00 8.98910E-14 9.92088E-15
 -1      3743 1.63013E+01 4.74923E-01-1.63752E-02 2.25469E+00-7.39894E-14 3.76175E-15
 -1      3744 1.61308E+01 1.51852E-01 3.01461E-02 2.64861E+00-1.01246E-13-1.04961E-13
 -1      3745 1.58759E+01 8.61111E-01 2.32518E-02 1.74843E+00-8.57500E-14 9.53094E-14
 -1      3746 1.64765E+01 4.01383E-01 1.12579E-02-2.31197E+00-4.94789E-14-2.09746E-13
 -1      3747 1.66745E+01 6.58875E-01-2.08554E-02-1.98285E+00-4.84870E-14-2.97227E-13
 -1      3748 2.01073E+01-2.55681E+00-5.84063E-02 3.26326E+00-5.30739E-15 7.02285E-13
 -1      3749 1.86061E+01-1.78799E+00 4.73064E-02 3.59430E+00-2.34182E-13 6.53110E-13
 -1      3750 1.94749E+01 6.80455E-01 1.48875E-03 2.72671E-01 1.45649E-13-4.24569E-13
 -1      3751 1.39897E+01 5.86911E-02 2.59663E-02 2.75587E+00-1.22023E-13-1.55837E-13
 -1      3752 1.27580E+01 6.65426E-01 9.70690E-02 1.84549E+00-2.66898E-13 5.34642E-15
 -1      3753 1.30394E+01 8.33142E-01 5.39316E-02 9.70546E-01-2.13277E-13 1.33157E-14
 -1      3754 1.95690E+01 6.67936E-01-2.25632E-03-5.43625E-01 1.17367E-13-1.29706E-13
 -1      3755 2.50986E+01-2.01586E+00-2.83383E-03-8.88073E-01 2.77556E-15 1.19700E-13
 -1      3756 2.30383E+01-3.04988E+00 5.12866E-03-1.58216E+00-2.86829E-13 1.26748E-13
 -1      3757 2.24439E+01-2.75152E+00 4.29078E-02-1.87786E+00-2.08120E-13 1.28648E-13
 -1      3758 1.71997E+01 8.28146E-01 8.17766E-03-1.73347E+00 1.38624E-13-1.72965E-13
 -1      3759 1.74164E+01 9.27727E-01-1.63716E-02-1.52536E+00 2.84467E-13-6.75019E-14
 -1      3760 1.63575E+01 9.88743E-01 2.44016E-02-1.53443E+00 1.42603E-13-1.76945E-13
 -1      3761 1.78147E+01 9.98899E-01 2.88844E-03-1.36856E+00 3.15770E-13-7.55019E-14
 -1      3762 1.80167E+01 1.02430E+00-1.14733E-02-1.22513E+00 3.30361E-13-2.46663E-13
 -1      3763 1.72223E+01 1.12739E+00 1.60902E-02-1.18154E+00 3.07267E-13 6.91613E-14
 -1      3764 1.83230E+01 1.03331E+00 5.43762E-04-1.11820E+00 3.25459E-13-2.78106E-13
 -1      3765 1.84976E+01 1.01505E+00-8.01090E-03-1.01078E+00 3.75023E-13-2.75456E-13
 -1      3766 1.78891E+01 1.14548E+00 1.16893E-02-9.56424E-01 3.28744E-13-9.83120E-14
 -1      3767 1.87359E+01 9.87722E-01-2.99890E-04-9.30689E-01 4.07427E-13-2.24141E-13
 -1      3768 1.88799E+01 9.45286E-01-5.96010E-03-8.44189E-01 3.30904E-13-1.22288E-13
 -1      3769 1.84085E+01 1.09069E+00 8.73886E-03-7.97985E-01 5.02617E-13-3.42491E-14
 -1      3770 1.90669E+01 9.00117E-01-3.22080E-04-7.79725E-01 3.11627E-13-5.89682E-14
 -1      3771 1.91811E+01 8.46837E-01-4.80254E-03-7.06442E-01 3.35188E-13 1.66016E-13
 -1      3772 1.88169E+01 9.95078E-01 6.76935E-03-6.74181E-01 3.46833E-13 1.12950E-13
 -1      3773 1.93285E+01 7.94342E-01-5.40576E-04-6.50690E-01 3.18637E-13 7.92143E-14
 -1      3774 1.94217E+01 7.42636E-01-2.25038E-03-5.87689E-01 2.98669E-13-3.43277E-14
 -1      3775 1.91350E+01 8.84694E-01 5.47146E-03-5.70825E-01 3.04062E-13 5.32423E-14
 -1      3776 2.02065E+01 1.68406E+00-2.75285E-03-3.40284E-02 3.89581E-16-6.40380E-14
 -1      3777 2.02098E+01 1.66641E+00-3.07929E-03-1.22354E-01-1.30583E-14-4.00621E-14
 -1      3778 2.02882E+01 1.44944E+00 5.29293E-03 1.99745E-03 1.49067E-15-8.11621E-14
 -1      3779 1.96807E+01 4.38177E-01 2.44410E-03-7.97803E-01 2.83314E-14 5.56108E-14
 -1      3780 1.96934E+01 4.28555E-01-2.09225E-03-7.29821E-01 1.49261E-14 9.86083E-15
 -1      3781 1.97514E+01 4.12729E-01 1.88470E-03-6.63629E-01-4.34735E-14-2.28733E-15
 -1      3782 1.97699E+01 3.87870E-01-1.99581E-03-6.06279E-01-8.21566E-14 3.91044E-14
 -1      3783 1.96072E+01 4.76337E-01 7.03872E-04-6.64396E-01-2.33789E-14 9.32698E-15
 -1      3784 1.96002E+01 3.22352E-01 4.58594E-03-1.14379E+00-2.57014E-15 7.36453E-14
 -1      3785 1.95755E+01 3.79129E-01-1.46980E-03-1.05615E+00 2.11095E-14 1.03590E-13
 -1      3786 1.96426E+01 1.20485E-01 6.34215E-03-1.35490E+00 3.74070E-14 3.37603E-14
 -1      3787 1.95745E+01 2.35624E-01-3.14865E-04-1.26125E+00 6.34134E-14 5.74177E-14
 -1      3788 1.93211E+01 3.60130E-01-2.23974E-03-1.21012E+00 5.44749E-14 7.69257E-14
 -1      3789 1.98023E+01-2.29236E-01 8.44251E-03-1.58284E+00-1.54198E-13 2.12053E-14
 -1      3790 1.96631E+01-3.44588E-02 2.03129E-03-1.49120E+00-5.31874E-14 6.57097E-14
 -1      3791 1.93090E+01 1.26627E-01-5.16368E-03-1.47503E+00-1.63108E-14 5.09422E-14
 -1      3792 2.01551E+01-7.68476E-01 9.65841E-03-1.80272E+00-1.55647E-13 6.59704E-15
 -1      3793 1.99081E+01-4.72032E-01 6.86394E-03-1.73169E+00-1.50037E-13-3.38717E-14
 -1      3794 1.94153E+01-2.77134E-01-1.04491E-02-1.78391E+00-1.66185E-13 6.50545E-14
 -1      3795 2.08203E+01-1.50446E+00 1.48526E-02-1.94703E+00-1.22367E-13 5.83197E-14
 -1      3796 2.04146E+01-1.11402E+00 1.55960E-02-1.93903E+00-1.57684E-13 2.35137E-14
 -1      3797 1.97263E+01-9.10469E-01-2.28795E-02-2.12096E+00-1.56601E-13-1.49854E-14
 -1      3798 2.17780E+01-2.33444E+00 1.24339E-02-1.90491E+00-1.36910E-13 1.30056E-13
 -1      3799 2.12076E+01-1.90219E+00 2.76315E-02-2.03581E+00-1.16844E-13 1.38129E-13
 -1      3800 2.03201E+01-1.76681E+00-4.40746E-02-2.43144E+00-1.54466E-13 9.25622E-14
 -1      3801 2.12311E+01-2.69588E+00-4.87899E-02-2.61459E+00-1.79052E-13 7.80070E-14
 -1      3802 2.03335E+01 5.89755E-01-2.30470E-03 8.06652E-02 8.15191E-14 1.80857E-14
 -1      3803 2.03417E+01 7.47727E-01 2.81269E-03 1.65019E-01 5.84948E-14 2.01259E-14
 -1      3804 1.98504E+01 4.37259E-01-1.53299E-03 5.06233E-01-4.52697E-14 3.61779E-13
 -1      3805 2.06741E+01-1.77160E+00 2.99660E-02 2.34361E+00 2.83531E-13 4.63468E-13
 -1      3806 2.12548E+01-2.23734E+00 1.88258E-02 2.26367E+00 1.27561E-13 5.30048E-13
 -1      3807 1.96869E+01-2.70428E-02 2.41054E-03 1.49131E+00 9.62517E-14 3.79103E-13
 -1      3808 1.98210E+01-2.24742E-01 6.80437E-03 1.58143E+00 1.42878E-13 3.21477E-13
 -1      3809 1.95986E+01 2.47043E-01-2.64898E-04 1.26104E+00-1.10276E-13 6.81581E-13
 -1      3810 1.96656E+01 1.29535E-01 6.22474E-03 1.35492E+00-7.49593E-14 4.80295E-13
 -1      3811 1.93354E+01 1.33476E-01-5.88262E-03 1.47460E+00-5.85777E-14 6.81945E-13
 -1      3812 1.96003E+01 3.97850E-01-1.43118E-03 1.05373E+00-4.28481E-14 7.04470E-13
 -1      3813 1.96242E+01 3.36775E-01 4.37982E-03 1.14298E+00-3.67488E-14 6.45708E-13
 -1      3814 1.93490E+01 3.73466E-01-2.58559E-03 1.20914E+00-6.53145E-14 5.15261E-13
 -1      3815 1.96485E+01 4.64352E-01-1.70304E-03 8.72152E-01-8.20000E-14 4.36296E-13
 -1      3816 1.96479E+01 4.41025E-01 3.15238E-03 9.53566E-01-6.18874E-14 6.17111E-13
 -1      3817 1.94234E+01 4.95451E-01-6.41927E-04 9.87144E-01 1.45562E-14 4.19201E-13
 -1      3818 1.97120E+01 4.79589E-01-1.88401E-03 7.14440E-01 2.46378E-14 5.90612E-13
 -1      3819 1.97037E+01 4.78082E-01 2.65877E-03 7.87373E-01 5.16787E-15 5.32278E-13
 -1      3820 1.95225E+01 5.39500E-01 7.35262E-05 8.02905E-01-9.27665E-14 2.93482E-13
 -1      3821 2.02133E+01 1.65997E+00-1.72060E-03-1.84724E-01-1.27582E-14-5.42477E-14
 -1      3822 2.02240E+01 1.60455E+00-3.01444E-03-2.68517E-01-2.04351E-14-6.04280E-14
 -1      3823 2.02828E+01 1.39790E+00 2.42071E-03-2.28482E-01-1.54847E-14-3.99228E-14
 -1      3824 2.02833E+01 1.43960E+00 3.39832E-03-1.20871E-01 3.00817E-15-5.40556E-14
 -1      3825 2.30857E+01-3.22495E+00 2.65993E-02 1.85243E+00-1.09968E-13 4.12589E-13
 -1      3826 1.48548E+01 1.35778E-01 1.39863E-02 2.74719E+00-1.13248E-13-1.15147E-13
 -1      3827 2.03186E+01 1.03684E+00-2.79220E-03-2.36678E-01-2.88823E-14-4.02532E-14
 -1      3828 1.93120E+01 7.83686E-01-1.25246E-03-2.05449E-01 2.01575E-13-1.07523E-13
 -1      3829 1.92888E+01 7.91391E-01-9.88092E-04-9.70747E-02 4.20926E-13-1.27226E-13
 -1      3830 2.20515E+01-2.76136E+00 4.16762E-02 2.21454E+00-8.15728E-14 4.71906E-13
 -1      3831 1.59993E+01-4.40150E-01 6.00378E-02-3.32989E+00 1.76614E-13-8.90382E-14
 -1      3832 1.70219E+01-1.27647E+00 4.69675E-02-3.78445E+00-1.78400E-13 7.81371E-14
 -1      3833 1.88253E+01-2.14800E+00-3.24526E-02-3.65476E+00-1.69502E-13 9.81541E-14
 -1      3834 1.57819E+01 1.52034E-01 1.72809E-03-2.67601E+00 1.87229E-14-1.95330E-15
 -1      3835 1.99382E+01-4.64612E-01 8.27751E-03 1.72006E+00 1.24608E-13 2.43561E-13
 -1      3836 2.01851E+01-7.36692E-01 1.57418E-02 1.77910E+00 1.74928E-13 2.52440E-13
 -1      3837 1.94500E+01-2.82214E-01-1.19556E-02 1.78380E+00 1.06103E-13 3.72234E-13
 -1      3838 2.03645E+01 7.37444E-01 2.29425E-03-1.29700E-01-3.08012E-14-3.13977E-14
 -1      3839 2.03542E+01 5.86309E-01-3.11235E-03-5.40494E-02-1.20680E-14-2.47436E-14
 -1      3840 2.01868E+01-1.03237E+00 1.02092E-02 2.03351E+00 2.47200E-13 3.05067E-13
 -1      3841 2.06084E+01-1.39902E+00 2.31100E-02 2.02983E+00 3.34093E-13 3.06043E-13
 -1      3842 1.94402E+01-1.45901E+00-2.83476E-02 2.76694E+00 3.89461E-13 7.38980E-13
 -1      3843 1.95217E+01-7.53889E-01-1.23539E-03 2.18588E+00 3.07374E-13 3.05602E-13
 -1      3844 2.02587E+01 1.39978E+00-5.20163E-03 4.05365E-01 5.21749E-14-1.62032E-14
 -1      3845 2.02457E+01 1.50286E+00-1.12207E-03 3.37962E-01 3.43329E-14-3.08308E-14
 -1      3846 2.03051E+01 1.31068E+00 5.28250E-03 2.43556E-01 1.46252E-14-4.49746E-15
 -1      3847 2.03139E+01 1.13496E+00 4.17272E-03 3.25220E-01 5.65985E-14-9.95162E-15
 -1      3848 1.96237E+01 4.16957E-01 3.29180E-03-9.57623E-01 6.39255E-14 8.25792E-14
 -1      3849 1.96237E+01 4.33428E-01-1.97782E-03-8.79179E-01 7.24951E-14 8.61367E-14
 -1      3850 1.93952E+01 4.71938E-01-6.48937E-04-9.90399E-01 4.49429E-14 1.47411E-13
 -1      3851 1.99619E+01 2.31216E-01 1.10276E-03-3.94409E-01 1.42666E-14 6.10568E-14
 -1      3852 1.99821E+01 1.99904E-01-1.19211E-03-3.64635E-01 3.32158E-14 9.92968E-14
 -1      3853 2.03579E+01 4.66220E-01 1.29851E-03-4.38177E-03-2.56362E-15-3.20623E-14
 -1      3854 2.03401E+01 3.65010E-01-1.61472E-03 4.96696E-02 1.41005E-14-2.70289E-14
 -1      3855 2.03787E+01 5.84342E-01 1.33640E-03-3.38273E-02-7.73976E-15-5.37423E-15
 -1      3856 1.94270E+01 7.44896E-01 1.98308E-03-4.82844E-01 1.04601E-13-1.09374E-13
 -1      3857 1.97701E+01 4.79011E-01-1.56561E-03 5.34492E-01-1.96291E-14 4.11662E-13
 -1      3858 1.51229E+01 6.64605E-01 3.49487E-02-2.07858E+00-1.15533E-13-2.50884E-13
 -1      3859 2.01690E+01 1.20588E-01-2.85954E-04-1.93305E-01-4.00800E-15 6.32492E-14
 -1      3860 2.01883E+01 1.58207E-01 1.55927E-03-1.59105E-01 1.32121E-14 2.91215E-14
 -1      3861 2.02495E+01 2.19812E-01-6.12302E-04-1.22305E-01 2.57210E-15 3.55034E-14
 -1      3862 2.03614E+01 3.65702E-01 5.62934E-04 5.25317E-02 5.37436E-16 6.83359E-15
 -1      3863 2.02074E+01 1.32418E-01-6.46757E-04-1.90121E-01 1.62521E-14 8.38827E-14
 -1      3864 2.01872E+01 1.01205E-01 1.49988E-04-2.25938E-01 2.59522E-14 8.48275E-14
 -1      3865 2.02096E+01 1.14205E-01 3.87860E-04-2.04366E-01 4.07167E-14 5.87705E-14
 -1      3866 1.34067E+01 7.91444E-01 8.00357E-02-1.61881E+00-1.29649E-13-9.20444E-14
 -1      3867 1.42997E+01 4.31622E-01 1.52782E-02-2.18152E+00-1.02546E-13-1.12136E-13
 -1      3868 1.97470E+01 4.90525E-01 5.11547E-04 5.96317E-01 1.71540E-14 4.55272E-13
 -1      3869 1.87884E+01-1.24419E+00 3.77915E-02 2.98490E+00 5.94104E-13 7.36951E-13
 -1      3870 1.78028E+01-1.32170E+00 1.86434E-02 3.51511E+00 1.95091E-13 5.20883E-13
 -1      3871 1.69457E+01-6.69956E-01 8.44692E-03 3.17414E+00 5.09541E-13 4.18277E-13
 -1      3872 1.93500E+01 7.25137E-01-2.60574E-03 2.62151E-01 1.96616E-13-4.57115E-13
 -1      3873 1.94118E+01 6.93563E-01 1.50534E-03 3.55338E-01 4.07111E-14-2.32195E-13
 -1      3874 1.93607E+01 6.97625E-01-5.10053E-04 4.31221E-01 1.81019E-14-8.17865E-14
 -1      3875 1.94796E+01 6.40351E-01-2.83340E-03 4.35640E-01-5.36381E-15-1.38611E-15
 -1      3876 1.95532E+01 6.01119E-01-2.59787E-04 4.90197E-01-7.76950E-14 2.74652E-13
 -1      3877 1.99874E+01 2.09675E-01 3.56579E-04-3.25690E-01 1.82249E-14 5.91372E-14
 -1      3878 2.00233E+01 1.72467E-01 9.35470E-04-3.39985E-01 3.24378E-15 7.74332E-14
 -1      3879 2.00433E+01 1.47097E-01-8.55426E-04-3.16430E-01 1.73435E-14 4.32920E-14
 -1      3880 2.03303E+01 1.06404E+00-3.60175E-03 2.09784E-01 2.30243E-14 1.98278E-14
 -1      3881 2.03306E+01 1.13656E+00-9.79236E-04 1.65925E-01-2.00802E-15 7.71214E-15
 -1      3882 2.03412E+01 1.01648E+00 5.64397E-04-1.83081E-01-1.60800E-14-2.28019E-14
 -1      3883 2.03735E+01 9.77108E-01 4.45723E-03 1.05372E-01-2.17843E-15-5.18235E-15
 -1      3884 2.03265E+01 1.17883E+00-3.36469E-03 1.28288E-01 9.42511E-16-3.65458E-14
 -1      3885 2.03247E+01 1.21502E+00-2.09913E-03 7.38590E-02 2.69930E-15-9.25038E-14
 -1      3886 1.97146E+01 4.20706E-01 8.09958E-04-5.47227E-01-5.52550E-14 1.33223E-13
 -1      3887 1.98249E+01 3.60734E-01 1.52727E-03-5.53223E-01-4.53338E-14 5.51427E-14
 -1      3888 1.98453E+01 3.28453E-01-1.79068E-03-5.06063E-01-3.97637E-14 1.05006E-13
 -1      3889 2.03348E+01 4.65955E-01 1.41664E-03 2.01252E-02 6.29084E-14 6.96276E-14
 -1      3890 2.03593E+01 5.91891E-01 3.38469E-04 5.60414E-02 3.49097E-14 6.65385E-14
 -1      3891 2.03159E+01 3.63767E-01-1.45309E-03-4.14534E-02 2.75928E-14 8.21325E-14
 -1      3892 1.54525E+01-9.74426E-02 2.23083E-02 2.87421E+00 8.03753E-14-1.71044E-15
 -1      3893 1.41193E+01 1.42352E-01 5.47631E-02 2.77502E+00 6.07821E-14 1.14214E-14
 -1      3894 1.38663E+01 5.13099E-01-2.11800E-02 1.97995E+00 1.08741E-14 1.13673E-13
 -1      3895 1.33090E+01 8.95964E-01-1.35225E-02-8.20762E-01-1.84496E-13-1.70357E-13
 -1      3896 1.93434E+01 7.77571E-01-1.17165E-03-3.82309E-01 2.19469E-13-7.94790E-14
 -1      3897 1.96110E+01 5.54748E-01 2.30538E-04 5.96756E-01-4.84019E-14 4.27304E-13
 -1      3898 1.92855E+01 7.79369E-01-2.21226E-03 3.47242E-02 4.95137E-13-2.05243E-13
 -1      3899 1.93078E+01 7.65884E-01 4.78757E-04 1.43636E-01 4.11247E-13-4.83608E-13
 -1      3900 1.92395E+01 7.83448E-01 2.10724E-03 2.31597E-01 2.75442E-13-2.89604E-13
 -1      3901 1.91879E+01 8.32262E-01 1.75888E-03-2.48907E-02 4.33807E-13-1.74295E-13
 -1      3902 2.04353E+01-2.41078E+00 5.68927E-02-3.14776E+00-1.83229E-13 5.45176E-14
 -1      3903 1.31218E+01 9.20533E-01 3.76109E-02 1.34516E-01-2.06684E-13-6.22176E-14
 -1      3904 1.92148E+01 8.34730E-01 4.48016E-04-3.38862E-01 2.73231E-13-1.96777E-13
 -1      3905 1.63053E+01-7.86141E-01 1.97307E-02-3.51733E+00-1.65055E-13 6.45638E-14
 -1      3906 1.75242E+01-8.36370E-01 2.86217E-02-3.09787E+00-1.18204E-13 1.02526E-13
 -1      3907 1.56266E+01-2.12824E-01-6.62182E-03-2.95850E+00-1.23614E-13-5.40262E-14
 -1      3908 1.94972E+01 5.00953E-01 2.90811E-04-8.10359E-01 3.93003E-14 8.62492E-14
 -1      3909 1.95149E+01-1.77333E+00 1.58425E-02-3.03477E+00-1.78565E-13 1.27892E-14
 -1      3910 1.99163E+01 2.62678E-01-1.51408E-03-4.26581E-01-3.25718E-14 7.37924E-14
 -1      3911 1.99052E+01 2.76782E-01 5.52244E-04-3.81809E-01-3.18500E-15 1.09841E-13
 -1      3912 1.98958E+01 2.96626E-01 1.28942E-03-4.64357E-01-5.22373E-14 9.23578E-14
 -1      3913 1.47194E+01 8.79858E-01-5.55541E-03-1.47034E+00-2.17352E-13-1.05391E-13
 -1      3914 2.01353E+01 1.00747E-01 4.94919E-04-2.61207E-01 3.78158E-14 6.59790E-14
 -1      3915 2.01564E+01 9.70831E-02-5.35774E-05-2.42527E-01 5.40157E-14 8.33543E-14
 -1      3916 2.01954E+01 1.16478E-01-1.74485E-04-2.11346E-01 4.23149E-14 5.16193E-14
 -1      3917 1.51203E+01 6.77361E-01-2.23577E-02-1.69705E+00-2.07496E-13-1.02790E-13
 -1      3918 1.53787E+01 2.80758E-01 3.45865E-02-2.44525E+00-1.37328E-13-1.28344E-13
 -1      3919 1.64022E+01 8.67430E-02-8.78765E-03-2.42985E+00-2.04161E-13 6.86981E-14
 -1      3920 2.02987E+01 1.80171E-01 1.20885E-04 1.18664E-01 8.51980E-15-5.57176E-14
 -1      3921 2.02666E+01 1.56117E-01-3.01514E-04 1.37702E-01-1.95238E-14-6.80093E-14
 -1      3922 2.02283E+01 1.44595E-01-1.29646E-04 1.48324E-01-8.56601E-15-8.77029E-14
 -1      3923 2.01916E+01 1.43787E-01-6.82573E-05 1.63851E-01 6.68332E-15-5.91644E-14
 -1      3924 2.02605E+01 1.65222E-01 2.76776E-04 1.11352E-01-2.90917E-15-6.00692E-14
 -1      3925 2.01459E+01 1.52584E-01-4.16168E-04 1.73174E-01-2.78919E-15-2.65855E-14
 -1      3926 2.01046E+01 1.70283E-01 3.20767E-05 1.87795E-01-8.10333E-16-2.49287E-14
 -1      3927 2.01769E+01 1.61354E-01 4.32660E-04 1.31729E-01 1.92890E-15-1.98087E-14
 -1      3928 2.00512E+01 1.95482E-01-7.45075E-04 1.97513E-01-9.26308E-15-2.87673E-14
 -1      3929 2.00042E+01 2.28131E-01 4.69811E-06 2.13360E-01-5.52458E-14-1.22847E-14
 -1      3930 2.00795E+01 1.96359E-01 6.75722E-04 1.50358E-01-2.15797E-14-1.69577E-14
 -1      3931 1.99419E+01 2.66650E-01-1.10696E-03 2.24649E-01-6.86038E-14 3.44396E-14
 -1      3932 1.98871E+01 3.11628E-01-1.36680E-04 2.43170E-01-2.28737E-14 4.89443E-14
 -1      3933 1.99667E+01 2.62819E-01 1.04355E-03 1.70061E-01-9.73270E-15 1.69777E-14
 -1      3934 1.98136E+01 3.61257E-01-1.48996E-03 2.56722E-01-4.53955E-14 5.38221E-15
 -1      3935 1.97480E+01 4.16485E-01-3.50020E-04 2.78911E-01-6.88534E-14-4.40348E-14
 -1      3936 1.98347E+01 3.54725E-01 1.47017E-03 1.92089E-01-6.11650E-14-1.46701E-14
 -1      3937 1.96597E+01 4.75036E-01-1.90346E-03 2.95146E-01-1.44874E-14-6.55106E-14
 -1      3938 1.95793E+01 5.37911E-01-7.29647E-04 3.21496E-01 7.64200E-15-5.14585E-14
 -1      3939 1.96780E+01 4.67847E-01 2.21231E-03 2.17140E-01-5.48942E-14-8.74640E-14
 -1      3940 1.94718E+01 6.03022E-01-2.45152E-03 3.39875E-01-4.92404E-16-7.70423E-14
 -1      3941 1.93714E+01 6.71374E-01-1.23251E-03 3.70422E-01-4.71854E-14-2.15839E-14
 -1      3942 1.94881E+01 5.96711E-01 3.09244E-03 2.45292E-01 4.50199E-15-9.35376E-14
 -1      3943 1.92387E+01 7.40314E-01-3.13490E-03 3.90842E-01-1.22061E-13-1.92923E-14
 -1      3944 1.91125E+01 8.10587E-01-1.85327E-03 4.25701E-01-1.21294E-13-2.87113E-14
 -1      3945 1.92545E+01 7.36288E-01 4.07173E-03 2.74168E-01-9.76352E-14-5.90631E-14
 -1      3946 1.89469E+01 8.78986E-01-4.04390E-03 4.47526E-01-5.30256E-14-4.29685E-14
 -1      3947 1.87873E+01 9.46276E-01-2.60219E-03 4.87069E-01-2.05101E-14-4.88307E-14
 -1      3948 1.89648E+01 8.79915E-01 5.54165E-03 3.03212E-01-6.32276E-14-6.25464E-14
 -1      3949 1.85780E+01 1.00843E+00-5.44169E-03 5.10073E-01 1.06366E-14 1.51738E-14
 -1      3950 1.83754E+01 1.06654E+00-3.42204E-03 5.56269E-01 1.53396E-14 4.60027E-14
 -1      3951 1.86010E+01 1.01815E+00 7.45924E-03 3.29817E-01 2.38258E-14-5.38323E-15
 -1      3952 1.81065E+01 1.11439E+00-7.70947E-03 5.82201E-01-3.79885E-14 5.87346E-14
 -1      3953 1.78486E+01 1.15450E+00-4.29982E-03 6.40526E-01-5.87215E-14 8.53698E-14
 -1      3954 1.81388E+01 1.14041E+00 1.02571E-02 3.53287E-01-1.31458E-14 7.36975E-14
 -1      3955 1.74946E+01 1.17730E+00-1.14851E-02 6.74040E-01-4.97551E-14 1.17990E-13
 -1      3956 1.71639E+01 1.18804E+00-5.08237E-03 7.56955E-01 4.75212E-14 1.25809E-13
 -1      3957 1.75417E+01 1.23303E+00 1.46678E-02 3.77035E-01-3.67204E-14 1.70752E-13
 -1      3958 1.66837E+01 1.17152E+00-1.73849E-02 8.09167E-01 6.55437E-14 5.69840E-14
 -1      3959 1.62560E+01 1.13943E+00-3.52988E-03 9.40846E-01 3.72506E-14 2.87944E-14
 -1      3960 1.67500E+01 1.28073E+00 2.21181E-02 4.10970E-01-1.22056E-14 1.12137E-13
 -1      3961 1.55835E+01 1.07634E+00-1.75357E-02 1.04386E+00-3.09735E-15-1.68624E-14
 -1      3962 1.50381E+01 9.60756E-01 1.15820E-02 1.25455E+00-1.19156E-13 2.93472E-14
 -1      3963 1.56629E+01 1.26605E+00 3.67770E-02 4.77752E-01 1.58597E-14 2.99988E-14
 -1      3964 1.44034E+01 6.51067E-01 1.12656E-02 1.95408E+00-1.96212E-13 3.98657E-14
 -1      3965 1.56559E+01 1.06401E+00 7.61973E-03-1.10166E+00 8.97012E-14-1.58758E-13
 -1      3966 1.61205E+01 1.12353E+00-2.13429E-02-9.30136E-01 2.88198E-13-4.74002E-14
 -1      3967 2.03366E+01 9.68215E-01 7.67447E-05 2.04489E-01 4.02374E-14 1.55625E-14
 -1      3968 2.03645E+01 8.27506E-01 1.36664E-03 1.24328E-01 3.57233E-14 2.36001E-14
 -1      3969 1.67049E+01 1.17436E+00-3.62530E-03-8.54586E-01 3.48460E-13-2.34316E-14
 -1      3970 1.70840E+01 1.18659E+00-1.49981E-02-7.47325E-01 2.97339E-13 3.69392E-14
 -1      3971 1.61924E+01 1.27184E+00 2.22716E-02-4.44495E-01 2.71286E-13-5.04299E-14
 -1      3972 1.75056E+01 1.18675E+00-4.60641E-03-7.05176E-01 2.88569E-13 4.37218E-14
 -1      3973 1.78025E+01 1.16592E+00-9.43666E-03-6.34479E-01 3.94948E-13-2.98833E-14
 -1      3974 1.71426E+01 1.27101E+00 1.75777E-02-3.94450E-01 3.15782E-13 6.73890E-14
 -1      3975 1.81158E+01 1.13556E+00-3.90052E-03-6.04132E-01 4.24540E-13-1.06671E-13
 -1      3976 1.83486E+01 1.09170E+00-6.60954E-03-5.50441E-01 4.44866E-13-9.23563E-14
 -1      3977 1.78431E+01 1.20887E+00 1.20775E-02-3.69559E-01 3.30781E-13 1.02951E-13
 -1      3978 1.85898E+01 1.04467E+00-2.69968E-03-5.25504E-01 4.01101E-13-2.19270E-13
 -1      3979 1.87682E+01 9.87372E-01-6.06606E-03-4.78458E-01 3.08142E-13-1.82516E-13
 -1      3980 1.83775E+01 1.11260E+00 8.25271E-03-3.44198E-01 3.63161E-13-2.85315E-13
 -1      3981 1.89356E+01 9.41314E-01-1.36159E-03-4.22876E-01 3.13140E-13-2.77366E-13
 -1      3982 1.90757E+01 8.81415E-01-4.17405E-03-3.84169E-01 3.49847E-13-1.60734E-13
 -1      3983 1.90611E+01 8.96165E-01 3.15039E-03-1.96201E-01 3.74958E-13-3.09055E-13
 -1      3984 1.87674E+01 1.00582E+00 5.70717E-03-2.82390E-01 3.67031E-13-6.40072E-13
 -1      3985 2.03218E+01 1.23027E+00-2.91048E-03 3.01612E-02 5.41032E-15-1.09219E-13
 -1      3986 2.03236E+01 1.23572E+00-1.28626E-03-2.65011E-02 9.61656E-15-7.56538E-14
 -1      3987 2.03783E+01 1.03798E+00 5.91724E-03 3.91098E-02 2.09369E-14-9.36798E-14
 -1      3988 1.92505E+01 6.01834E-01-3.53359E-03 8.73674E-01-2.11155E-14 4.90645E-13
 -1      3989 1.92112E+01 5.77928E-01 3.76186E-03 9.72635E-01 1.29299E-13 4.52787E-13
 -1      3990 1.94725E+01 5.46710E-01 1.76532E-03-6.33144E-01-1.13685E-14 1.12052E-13
 -1      3991 1.95240E+01 5.16044E-01-2.75778E-03-5.70101E-01-4.92357E-14 8.71308E-14
 -1      3992 1.89866E+01 2.22336E-01 1.07505E-02-1.51967E+00-6.60557E-14 2.27193E-13
 -1      3993 1.89503E+01 3.48343E-01-4.78843E-03-1.37566E+00 4.22583E-14 1.82576E-13
 -1      3994 1.90551E+01 4.51413E-01 6.47089E-03-1.21564E+00 7.74790E-14 1.56187E-13
 -1      3995 1.90700E+01 5.13152E-01-4.10469E-03-1.09609E+00 9.39133E-14 1.73121E-13
 -1      3996 1.87043E+01 5.27832E-01 3.15998E-03-1.25619E+00 3.64413E-14 2.71201E-13
 -1      3997 1.92889E+01-8.37785E-01 1.53193E-02-2.34422E+00-9.20172E-14-3.96098E-14
 -1      3998 1.90181E+01-4.75093E-01 2.27561E-03-2.16206E+00-1.78488E-13-3.07175E-14
 -1      3999 1.91865E+01-1.29548E+00 1.65606E-02-2.81679E+00-1.22250E-13-9.53393E-15
 -1      4000 1.36937E+01 1.02431E+00 5.13884E-02 9.38978E-01-1.03652E-13 1.76798E-13
 -1      4001 1.39551E+01 1.06250E+00-4.99383E-04-3.11250E-01-2.27060E-13 3.75359E-14
 -1      4002 1.91016E+01 5.29808E-01-4.15381E-03 1.09441E+00 7.43912E-14 4.19693E-13
 -1      4003 1.90857E+01 4.63202E-01 5.84065E-03 1.21560E+00-3.06627E-14 4.55826E-13
 -1      4004 1.89407E+01 6.52973E-01 1.03331E-03 9.72517E-01 6.93893E-14 4.85513E-13
 -1      4005 1.91795E+01 5.57407E-01 3.94975E-03-9.74602E-01 2.73204E-14 1.89376E-13
 -1      4006 1.92187E+01 5.74530E-01-3.74233E-03-8.76960E-01 1.70922E-15 1.33709E-13
 -1      4007 1.89068E+01 6.35223E-01 1.91549E-03-9.75761E-01 3.68079E-14 2.30895E-13
 -1      4008 2.03887E+01 4.32485E-01 5.42400E-04 2.26656E-02-9.46437E-15 2.31433E-15
 -1      4009 2.03717E+01 3.41223E-01-1.18391E-03 5.87970E-02-1.77761E-14-7.25768E-15
 -1      4010 2.03305E+01 8.70838E-01-1.74908E-03 2.27226E-01 5.78124E-14 1.73860E-14
 -1      4011 1.89833E+01 3.59322E-01-3.98568E-03 1.37433E+00-6.68562E-14 7.27774E-13
 -1      4012 1.90127E+01 2.25975E-01 8.31649E-03 1.52158E+00 4.37936E-15 7.35133E-13
 -1      4013 1.87361E+01 5.32044E-01-6.82725E-04 1.25181E+00 8.73068E-14 5.49144E-13
 -1      4014 1.94029E+01 6.11034E-01-3.24551E-03 6.98566E-01-5.33196E-14 3.91072E-13
 -1      4015 1.93548E+01 6.13941E-01 2.35851E-03 7.78681E-01-7.00421E-14 3.68526E-13
 -1      4016 1.91457E+01 6.89295E-01 1.78235E-03 7.62052E-01 3.81108E-14 5.64134E-13
 -1      4017 1.38308E+01 1.15355E+00 5.10467E-02 2.02229E-01-1.30035E-13-9.82886E-14
 -1      4018 1.45125E+01 1.05977E+00 9.57956E-03-4.00170E-01-1.07186E-13-1.27724E-13
 -1      4019 1.90277E+01-1.87121E-01 1.42747E-02-1.89987E+00-1.74139E-13 4.51961E-14
 -1      4020 1.89037E+01 3.30556E-02-5.55529E-03-1.73212E+00-9.62485E-14 1.15990E-13
 -1      4021 1.85302E+01 2.91392E-01 4.22765E-03-1.62895E+00-3.52496E-15 1.84005E-13
 -1      4022 2.03036E+01 7.91850E-01-1.75342E-03 2.72795E-01 7.25271E-14 1.88881E-14
 -1      4023 2.03122E+01 8.80618E-01-1.27898E-03 2.83801E-01 6.51807E-14 1.93701E-14
 -1      4024 1.41830E+01 9.40480E-01 1.77476E-03 1.21913E+00-1.41683E-13 1.83013E-14
 -1      4025 2.03778E+01 6.60284E-01 1.20072E-04 7.32193E-02 2.74851E-14 6.40661E-14
 -1      4026 2.03782E+01 7.52363E-01-8.24690E-04 8.02250E-02 5.17707E-18 5.30049E-14
 -1      4027 2.03716E+01 5.27471E-01-7.95805E-04 1.17990E-02 1.61875E-14 8.83444E-14
 -1      4028 1.82754E+01-8.85351E-01-8.24511E-03-2.87363E+00-1.26570E-13-4.92249E-14
 -1      4029 1.89370E+01 5.06946E-02-7.04800E-04 1.72506E+00-1.49334E-13 5.23436E-13
 -1      4030 1.90012E+01-1.98602E-01-5.40539E-03 1.90491E+00-6.31921E-14 2.87798E-13
 -1      4031 1.85671E+01 2.78867E-01-2.17165E-03 1.61989E+00-2.57738E-13 6.76613E-13
 -1      4032 2.00808E+01 1.26830E-01 7.42735E-04-2.97227E-01 3.93287E-14 3.56521E-14
 -1      4033 2.01011E+01 1.10644E-01-4.76566E-04-2.77607E-01 3.11200E-14 4.27575E-14
 -1      4034 2.01314E+01 1.22274E-01-7.18143E-05-2.45559E-01 4.47649E-14 3.26459E-14
 -1      4035 2.00624E+01 1.55820E-01 1.22562E-04-2.81787E-01 1.71194E-14 6.03708E-14
 -1      4036 2.02808E+01 2.19438E-01-8.08416E-04-1.25923E-01-6.76192E-15 9.25939E-14
 -1      4037 2.03032E+01 2.83314E-01 1.13488E-03-8.36244E-02 1.63007E-14 6.96049E-14
 -1      4038 2.03430E+01 3.68031E-01 2.00357E-04-4.77668E-02 1.79694E-14 9.40324E-14
 -1      4039 2.03947E+01 6.81050E-01 9.96582E-04-5.69215E-02 7.08231E-15-7.69312E-15
 -1      4040 2.03894E+01 5.43240E-01-2.08404E-03-6.09244E-03 2.68495E-14 9.84470E-15
 -1      4041 2.04038E+01 5.26814E-01 1.63926E-03 2.55385E-03-6.48217E-16-3.03993E-14
 -1      4042 2.02364E+01 1.36910E-01-2.86945E-04-1.83904E-01 4.82141E-14 5.35090E-14
 -1      4043 2.02596E+01 1.71917E-01 8.14951E-04-1.54785E-01 1.16938E-14 5.21129E-14
 -1      4044 2.03048E+01 2.26355E-01-2.70020E-05-1.20837E-01 2.31482E-14 5.20596E-14
 -1      4045 2.02540E+01 1.47366E-01-1.66565E-04-1.72418E-01 3.93430E-14 3.27854E-14
 -1      4046 1.47068E+01 1.12111E+00 3.03062E-02-7.83477E-01-9.11987E-14 6.98226E-17
 -1      4047 1.93253E+01 5.79275E-01 2.61583E-03-7.83496E-01 2.54269E-14 1.73088E-13
 -1      4048 1.93747E+01 5.66378E-01-3.25508E-03-7.04850E-01 4.45347E-14 1.52367E-13
 -1      4049 1.93082E+01 6.20618E-01 2.04217E-03-6.04207E-01 1.17879E-14 1.86884E-13
 -1      4050 2.03541E+01 2.71063E-01 3.21674E-04 7.87223E-02 1.55446E-15-3.88078E-14
 -1      4051 2.03280E+01 2.17546E-01-6.75984E-04 1.04581E-01 5.69454E-15-4.92852E-14
 -1      4052 2.03795E+01 3.32923E-01 5.91962E-04 5.13731E-02-1.96784E-14-3.88158E-14
 -1      4053 1.77081E+01-3.75290E-01 2.24394E-02-2.64136E+00-1.34362E-13 4.40503E-14
 -1      4054 2.03293E+01 2.18160E-01 3.20022E-04 8.60070E-02-1.79911E-14-7.51769E-14
 -1      4055 1.90814E+01 8.34131E-01-3.73981E-03 2.08562E-01 3.39249E-13-1.15827E-13
 -1      4056 1.91437E+01 8.04262E-01 2.14011E-03 3.31585E-01 1.46563E-13-1.59949E-13
 -1      4057 1.86935E+01-9.37116E-01-2.43798E-02 2.69052E+00 8.74913E-13 3.69946E-13
 -1      4058 1.84620E+01-1.48973E-01 6.41655E-03-2.12238E+00-1.08382E-13-1.54731E-14
 -1      4059 1.99523E+01 2.44805E-01 6.58653E-04-2.96863E-01 2.06311E-14 7.88111E-14
 -1      4060 1.99907E+01 2.10927E-01-1.05712E-03-2.72840E-01 1.46056E-15 7.12557E-14
 -1      4061 1.98512E+01 3.20875E-01 7.75141E-04-3.51574E-01-2.23032E-14 1.42723E-13
 -1      4062 1.98931E+01 2.80945E-01-1.43902E-03-3.20788E-01 1.11978E-14 1.15345E-13
 -1      4063 1.99019E+01 2.87226E-01 8.47933E-04-2.65744E-01 4.54299E-15 7.98661E-14
 -1      4064 2.03235E+01 1.20620E+00 4.47894E-04-1.95254E-01-4.42872E-15-2.97633E-14
 -1      4065 2.03652E+01 8.82438E-01-2.37783E-03-1.00430E-01-9.62781E-15-2.38432E-14
 -1      4066 1.52163E+01 1.14119E+00-2.25425E-02-1.09564E-01-8.51697E-14-8.10142E-14
 -1      4067 1.50579E+01 1.05239E+00 3.79406E-02-1.04762E+00-1.77918E-13-1.23824E-13
 -1      4068 1.58290E+01 8.52670E-01-4.02655E-03-1.29620E+00-1.84495E-13-1.52399E-13
 -1      4069 1.59001E+01 1.19433E+00-1.23782E-02-1.03146E-01-3.09937E-14 1.73173E-14
 -1      4070 2.03834E+01 7.92527E-01-1.83279E-03 5.84234E-02-9.80214E-15 8.98814E-15
 -1      4071 1.96114E+01 4.82554E-01 1.26179E-03-5.15037E-01-6.41466E-14 1.05864E-13
 -1      4072 1.96610E+01 4.42988E-01-2.26520E-03-4.64935E-01-6.78907E-14 1.06562E-13
 -1      4073 1.94852E+01 5.50257E-01 1.83579E-03-4.82539E-01-4.57504E-14 1.22123E-13
 -1      4074 1.47014E+01 8.08101E-01 3.16077E-02 1.38477E+00-1.40333E-14 1.97067E-13
 -1      4075 1.65029E+01-3.35821E-01-4.76256E-03 2.93432E+00 5.74223E-13 7.06652E-13
 -1      4076 1.60336E+01 1.23132E-01-2.31596E-02 2.42048E+00 5.49752E-13 5.84133E-13
 -1      4077 1.73860E+01-4.25945E-01-3.97827E-02 2.69520E+00 1.23502E-12 1.11140E-12
 -1      4078 1.89278E+01-3.83063E-01 7.89737E-03 2.12026E+00 9.96641E-14 2.39004E-13
 -1      4079 1.49818E+01 1.17196E+00-1.43971E-02-4.33965E-02 2.08273E-14 1.75371E-13
 -1      4080 2.03186E+01 1.24350E+00 5.22767E-04-1.46412E-01 2.41732E-15-3.55444E-14
 -1      4081 1.90421E+01 8.79330E-01-2.83997E-03-5.74842E-02 5.09401E-13-1.88961E-13
 -1      4082 1.90515E+01 8.71065E-01 9.76480E-04 7.74327E-02 5.35731E-13-8.60847E-14
 -1      4083 1.89468E+01 8.93174E-01 9.31069E-04 1.80556E-01 4.39576E-13 9.52281E-14
 -1      4084 1.89097E+01 9.33862E-01-2.45849E-04-9.01649E-02 5.39550E-13-4.05050E-13
 -1      4085 2.03179E+01 1.24701E+00-2.12297E-03-9.37865E-02 1.63336E-14-3.32196E-14
 -1      4086 1.98144E+01 3.50178E-01 7.27612E-04-4.54296E-01-4.73066E-14 1.21408E-13
 -1      4087 1.91017E+01 7.77324E-01-1.01700E-04 4.97817E-01 1.42502E-13 4.76931E-14
 -1      4088 1.92499E+01 7.19187E-01-1.68402E-03 5.06422E-01 8.64215E-14 8.88688E-14
 -1      4089 1.95088E+01 6.01396E-01 2.06247E-03 6.12347E-01 1.01373E-17 2.95716E-13
 -1      4090 1.91130E+01 6.57175E-01 2.07772E-03-7.63995E-01 6.51527E-15 2.00761E-13
 -1      4091 2.03845E+01 8.51987E-01 1.30183E-03-6.79518E-02 7.58432E-15-1.62745E-14
 -1      4092 1.93487E+01 6.72270E-01 2.50256E-03 5.84765E-01-1.00042E-15 1.56908E-13
 -1      4093 2.02640E+01 1.47993E-01-2.72713E-04-1.57769E-01 3.93687E-14 1.21839E-14
 -1      4094 2.02927E+01 1.76595E-01 3.05626E-04-1.35354E-01 5.08932E-14 1.51303E-15
 -1      4095 2.01984E+01 1.25644E-01 3.24508E-05-1.90640E-01 6.26050E-14 3.46969E-15
 -1      4096 2.02298E+01 1.31986E-01 8.94340E-05-1.72217E-01 4.87302E-14-9.83609E-17
 -1      4097 2.02646E+01 1.57370E-01 1.58881E-04-1.37037E-01 4.97305E-14-3.44713E-14
 -1      4098 2.03661E+01 1.06389E+00 2.12067E-03-5.96354E-02 1.23487E-14-5.89228E-14
 -1      4099 1.72332E+01 9.73860E-03-1.25807E-02-2.25769E+00-1.59317E-13 3.25738E-14
 -1      4100 2.03696E+01 4.15120E-01 3.38214E-04-2.52171E-02 3.54927E-14 8.62758E-14
 -1      4101 2.03837E+01 4.80916E-01-4.46187E-04-1.05052E-02 3.14171E-14 4.75977E-14
 -1      4102 2.03512E+01 3.26979E-01-6.70313E-04-6.85859E-02 3.30702E-14 6.06479E-14
 -1      4103 2.02043E+01 1.59933E-01-2.90799E-04 8.58827E-02-5.61419E-15-2.06323E-14
 -1      4104 2.01586E+01 1.68235E-01-2.31920E-04 9.52417E-02-8.43469E-15-2.69986E-14
 -1      4105 2.01056E+01 1.85694E-01-4.61447E-04 9.82001E-02-2.44086E-14-2.30457E-14
 -1      4106 2.00527E+01 2.11691E-01-3.03573E-04 1.06980E-01-2.70196E-14-1.98734E-14
 -1      4107 2.01350E+01 1.84894E-01 5.75044E-04 5.23413E-02-9.49640E-15-3.59503E-14
 -1      4108 1.99913E+01 2.44846E-01-6.59125E-04 1.09762E-01-2.73457E-14-3.59727E-14
 -1      4109 1.99294E+01 2.84708E-01-6.21583E-04 1.18672E-01-2.89974E-14-5.04326E-14
 -1      4110 2.00229E+01 2.36515E-01 1.22873E-03 5.73264E-02-5.24698E-14 1.11587E-14
 -1      4111 1.98572E+01 3.30964E-01-1.09263E-03 1.21886E-01-4.83911E-14-7.67921E-14
 -1      4112 1.97850E+01 3.82530E-01-7.66863E-04 1.31704E-01-9.00339E-14-8.41137E-14
 -1      4113 1.98908E+01 3.19255E-01 2.14939E-03 6.10079E-02-6.50284E-14-6.77714E-14
 -1      4114 1.97000E+01 4.38199E-01-1.40633E-03 1.34620E-01-7.92515E-14-6.13583E-14
 -1      4115 1.96138E+01 4.98921E-01-9.25080E-04 1.45013E-01-1.18756E-14-4.54587E-14
 -1      4116 1.97364E+01 4.22067E-01 2.58291E-03 6.19198E-02-1.98638E-14-5.68221E-14
 -1      4117 1.95125E+01 5.61352E-01-1.60575E-03 1.44949E-01 1.53765E-14-6.10858E-14
 -1      4118 1.94039E+01 6.27323E-01-2.46272E-03 1.53957E-01-1.52389E-14-6.91169E-14
 -1      4119 1.95586E+01 5.39733E-01 3.78735E-03 5.99250E-02-5.44711E-15-3.80083E-14
 -1      4120 1.92821E+01 6.96269E-01-2.24437E-03 1.54263E-01-2.95791E-15-4.15675E-14
 -1      4121 1.91490E+01 7.65351E-01-3.13987E-03 1.61800E-01-4.18176E-14 4.71503E-14
 -1      4122 1.93347E+01 6.79411E-01 6.43087E-03 5.29402E-02 2.12415E-14-7.73239E-14
 -1      4123 1.89999E+01 8.33994E-01-2.99660E-03 1.56850E-01-6.84724E-14 8.34503E-14
 -1      4124 1.88331E+01 9.01418E-01-4.56226E-03 1.60654E-01-2.82361E-14 9.24795E-14
 -1      4125 1.90706E+01 8.18545E-01 9.85121E-03 3.32953E-02-2.10831E-14 2.99633E-14
 -1      4126 1.86488E+01 9.66936E-01-3.80527E-03 1.48853E-01 4.28294E-15 1.48729E-13
 -1      4127 1.84369E+01 1.02715E+00-6.46963E-03 1.47314E-01 3.95697E-14 1.54466E-13
 -1      4128 1.87423E+01 9.53901E-01 1.31947E-02-3.47780E-03 1.69030E-14 1.41459E-13
 -1      4129 1.82060E+01 1.08405E+00-4.90741E-03 1.25938E-01 3.62923E-14 1.77069E-13
 -1      4130 1.79355E+01 1.13096E+00-8.16314E-03 1.18835E-01-2.87574E-15 1.87343E-13
 -1      4131 1.83303E+01 1.07423E+00 1.63116E-02-6.63157E-02 8.31114E-14 1.98312E-13
 -1      4132 1.76379E+01 1.17052E+00-6.88878E-03 8.08234E-02-5.15892E-14 1.89500E-13
 -1      4133 1.72816E+01 1.19633E+00-1.16182E-02 6.85557E-02-7.48587E-15 1.98033E-13
 -1      4134 1.78139E+01 1.16390E+00 2.02868E-02-1.65448E-01-1.83265E-14 8.09398E-14
 -1      4135 1.68999E+01 1.21128E+00-9.81514E-03 3.81597E-03-3.78564E-14 1.48177E-13
 -1      4136 1.64140E+01 1.20595E+00-1.77207E-02-1.12559E-02-5.08521E-14 1.04320E-13
 -1      4137 1.62783E+01 1.21060E+00 3.45034E-02-5.53166E-01-1.00671E-13-3.61408E-14
 -1      4138 1.71556E+01 1.21382E+00 2.68053E-02-3.18042E-01-5.67300E-14 9.15077E-14
 -1      4139 2.04092E+01 6.25656E-01 3.52188E-03 2.65746E-02 2.93999E-15-3.05476E-14
 -1      4140 2.03929E+01 8.11924E-01-2.03211E-03 4.16854E-02 8.11400E-15-6.22596E-14
 -1      4141 1.89191E+01 7.39706E-01 2.04449E-03-6.96264E-01 2.06894E-14 6.79084E-14
 -1      4142 1.90131E+01 7.17419E-01-5.94793E-03-6.13027E-01 2.86018E-14 8.85760E-14
 -1      4143 1.91583E+01 6.92667E-01 1.27316E-03-5.39372E-01-1.54916E-15 1.13286E-13
 -1      4144 1.92465E+01 6.52835E-01-4.41987E-03-4.76286E-01-2.15940E-14 7.19011E-14
 -1      4145 1.89899E+01 7.85879E-01 9.52490E-03-4.73540E-01 3.34853E-14-2.40297E-14
 -1      4146 1.68665E+01 1.21401E+00-7.95429E-03-2.94140E-02 3.17414E-13 2.59432E-13
 -1      4147 1.72655E+01 1.19962E+00-1.00287E-02-5.22788E-02 3.68774E-13 2.76476E-13
 -1      4148 1.76111E+01 1.18771E+00-9.31012E-03-9.54130E-02 3.00249E-13 2.23115E-14
 -1      4149 1.79287E+01 1.15662E+00-4.68012E-03-1.01950E-01 2.59655E-13 1.20979E-13
 -1      4150 1.74645E+01 1.20228E+00 1.58132E-02 2.49737E-01 2.43902E-13 1.41141E-13
 -1      4151 1.81928E+01 1.11230E+00-7.21311E-03-1.34622E-01 1.10348E-13-7.77139E-14
 -1      4152 1.84339E+01 1.06251E+00-5.49695E-03-1.35571E-01 9.65197E-14-5.02692E-13
 -1      4153 1.80752E+01 1.13603E+00 1.23182E-02 1.25635E-01 2.00407E-14-9.62097E-14
 -1      4154 1.86030E+01 1.02727E+00-1.53325E-03-1.32039E-01 1.65939E-13-5.01519E-13
 -1      4155 1.87672E+01 9.71808E-01-3.88887E-03-9.09503E-02 3.16378E-13-4.76595E-13
 -1      4156 1.87825E+01 9.67760E-01 3.98318E-03 5.10689E-02 3.92295E-13 2.82432E-14
 -1      4157 1.84903E+01 1.04782E+00 5.34415E-03 6.91438E-02-7.26623E-14-2.14094E-13
 -1      4158 1.54532E+01 6.84840E-01 1.95329E-02 1.78610E+00 1.24869E-13 3.77261E-13
 -1      4159 1.51119E+01 1.02201E+00-1.20885E-02 8.81330E-01 5.53012E-14 3.66664E-13
 -1      4160 1.64562E+01 5.04897E-01 2.75739E-02 1.85076E+00 6.30583E-13 8.98868E-13
 -1      4161 2.00093E+01 2.15715E-01 5.61519E-04-2.25164E-01 2.20934E-14 1.19381E-13
 -1      4162 2.00429E+01 1.82327E-01 5.23828E-04-2.54741E-01 4.66275E-15 9.26011E-14
 -1      4163 2.00782E+01 1.57677E-01-8.12293E-04-2.35253E-01 3.12389E-14 7.05601E-14
 -1      4164 2.04117E+01 5.93377E-01-1.20427E-03-1.59732E-02 8.17178E-15-4.13403E-14
 -1      4165 2.04087E+01 4.76425E-01-8.66039E-04 1.66880E-02-1.98799E-14-6.07094E-14
 -1      4166 1.86479E+01 7.29204E-01 1.08437E-03-9.11100E-01 4.63286E-14 1.23964E-14
 -1      4167 1.87470E+01 7.39997E-01-7.95308E-03-7.97027E-01 5.81003E-14 6.52506E-14
 -1      4168 1.86968E+01 8.47215E-01 1.24601E-02-6.30804E-01 4.63494E-14-9.51346E-14
 -1      4169 2.03141E+01 2.10778E-01-5.65058E-04-1.21215E-01 7.11692E-14-1.56040E-14
 -1      4170 2.03387E+01 2.66411E-01 3.95824E-04-9.05435E-02 5.66075E-14 3.98431E-14
 -1      4171 2.03604E+01 3.12376E-01 3.00387E-04-6.99456E-02 5.59717E-14-1.68061E-14
 -1      4172 2.03222E+01 2.12851E-01 1.29830E-04-1.07409E-01 5.76614E-14-2.12287E-14
 -1      4173 1.84949E+01 7.06245E-01-8.88872E-03 1.04691E+00 1.51606E-13 2.64025E-13
 -1      4174 1.84154E+01 6.47759E-01 6.79620E-03 1.20306E+00 6.82335E-14 3.19644E-13
 -1      4175 1.65972E+01 6.46714E-01 3.79135E-02-1.79225E+00-1.21940E-13 1.13251E-14
 -1      4176 1.76496E+01 1.06730E-01-4.06796E-03-2.06003E+00-1.20715E-13 4.19790E-15
 -1      4177 1.76699E+01 3.37760E-01-2.38990E-02-1.76646E+00-8.58847E-14 2.07050E-14
 -1      4178 1.62701E+01 8.50887E-01-2.33442E-02-1.20705E+00-1.21584E-13-1.65202E-13
 -1      4179 1.79824E+01 4.94311E-01 3.95245E-03-1.51242E+00-3.11136E-14 3.49173E-14
 -1      4180 1.80565E+01 6.05913E-01-1.53487E-02-1.30523E+00 2.78484E-14 3.15336E-14
 -1      4181 1.73417E+01 7.73113E-01 2.77646E-02-1.37546E+00-7.26218E-14-4.19859E-14
 -1      4182 1.87860E+01 7.61880E-01-7.04079E-03 7.95981E-01 6.17501E-14 3.39386E-13
 -1      4183 1.86943E+01 7.48861E-01 4.46685E-03 9.10467E-01 1.36630E-13 3.30329E-13
 -1      4184 1.83882E+01 8.55405E-01 9.15618E-03 8.65166E-01 1.81935E-15 1.17588E-13
 -1      4185 2.03982E+01 3.78829E-01-3.92476E-04 2.41838E-02-2.08989E-14-2.40262E-14
 -1      4186 2.03798E+01 3.03004E-01-3.49684E-04 4.58610E-02-9.78380E-15-3.83539E-14
 -1      4187 2.04112E+01 4.48393E-01 4.85789E-04 1.05848E-02-2.97990E-15-4.75948E-14
 -1      4188 1.83302E+01 6.59510E-01 9.57454E-04-1.16595E+00 1.36692E-14 6.15620E-14
 -1      4189 1.84294E+01 7.14250E-01-1.02628E-02-1.01210E+00-1.72410E-15 3.99707E-14
 -1      4190 1.83399E+01 8.78707E-01 1.70383E-02-8.11507E-01-1.99695E-14-1.80229E-13
 -1      4191 1.78841E+01 8.77259E-01 2.21042E-02-1.02057E+00-2.07947E-14-8.63437E-14
 -1      4192 1.53758E+01 1.16904E+00 1.61928E-02 3.82973E-01 1.37287E-13 3.16081E-13
 -1      4193 1.58238E+01 1.21911E+00-2.20863E-03-5.31495E-02 1.98526E-13 2.29306E-13
 -1      4194 1.63570E+01 1.22469E+00-1.34287E-02-5.72502E-02 2.62958E-13 2.03388E-13
 -1      4195 1.59269E+01 1.07395E+00-9.24342E-03 7.95796E-01 3.50721E-13 3.63998E-13
 -1      4196 1.81861E+01 5.48938E-01-1.02820E-02 1.39045E+00-1.58204E-13 3.82430E-13
 -1      4197 1.81354E+01 4.24215E-01 1.18446E-02 1.60013E+00-3.78769E-13 3.29374E-13
 -1      4198 1.79875E+01 7.53959E-01-5.38309E-03 1.16210E+00-8.96017E-14-2.51686E-14
 -1      4199 2.03943E+01 8.36339E-01-5.34530E-04-2.21239E-02 3.30105E-15-4.69209E-14
 -1      4200 2.03543E+01 2.44300E-01-2.17382E-04 5.14194E-02-8.63627E-15-3.42751E-14
 -1      4201 2.03245E+01 2.03192E-01-1.40310E-04 6.71467E-02-6.94453E-15-2.98983E-14
 -1      4202 2.03749E+01 2.88840E-01 3.38498E-04 2.65397E-02 1.48517E-15 5.80834E-15
 -1      4203 2.02877E+01 1.75670E-01-3.24905E-04 7.08198E-02 4.11054E-15-2.27978E-14
 -1      4204 2.02492E+01 1.62545E-01-1.39795E-04 8.25327E-02 9.86806E-15-1.12079E-14
 -1      4205 2.02321E+01 1.69884E-01 4.62073E-04 4.63587E-02-8.86053E-15-1.65103E-14
 -1      4206 2.03132E+01 2.00840E-01 2.29927E-04 3.79051E-02-2.62047E-15 3.34948E-15
 -1      4207 1.97379E+01 4.03338E-01 9.59341E-04-4.22668E-01-5.11786E-14 1.03690E-13
 -1      4208 1.97839E+01 3.60886E-01-1.84830E-03-3.83253E-01-4.81160E-14 1.20108E-13
 -1      4209 1.97805E+01 3.72061E-01 1.13322E-03-3.19057E-01-2.37283E-14 1.03778E-13
 -1      4210 1.96423E+01 4.63215E-01 1.47421E-03-3.89671E-01-8.17663E-14 7.44853E-14
 -1      4211 2.04030E+01 7.82428E-01 7.73866E-04-5.80207E-03-2.34730E-16-9.04656E-14
 -1      4212 2.03928E+01 8.22815E-01-3.64165E-03 1.21523E-02 1.15914E-14-9.88106E-14
 -1      4213 2.03981E+01 4.98012E-01-1.65854E-03-1.17474E-02 1.19353E-14-3.66082E-14
 -1      4214 1.82529E+01-2.66841E-01 1.07064E-02 2.31085E+00 3.44435E-13 8.07770E-14
 -1      4215 2.01247E+01 1.40359E-01 4.19495E-04-2.20946E-01 1.90662E-14 3.94557E-14
 -1      4216 2.01581E+01 1.28974E-01-2.38757E-04-2.03219E-01 3.13824E-14 3.78026E-14
 -1      4217 2.01900E+01 1.43063E-01 9.46779E-05-1.65866E-01 3.63854E-14-3.64560E-15
 -1      4218 2.01045E+01 1.65863E-01 3.23340E-04-1.93633E-01 9.21908E-15 8.46569E-14
 -1      4219 1.92404E+01 6.93419E-01 6.86072E-03-3.59627E-01-2.38638E-14 1.75615E-14
 -1      4220 1.93695E+01 6.12804E-01 7.64903E-04-4.22115E-01-2.95128E-14 7.43687E-14
 -1      4221 1.94507E+01 5.63843E-01-3.05689E-03-3.73700E-01-3.88926E-14 7.38956E-14
 -1      4222 1.98538E+01 3.23713E-01 3.43160E-04-2.21292E-01-9.79160E-15 7.09352E-14
 -1      4223 1.99106E+01 2.80717E-01-1.11228E-03-1.99334E-01 3.24108E-14 8.63127E-14
 -1      4224 1.66512E+01 1.23277E+00 2.40161E-02 3.16768E-01 2.89680E-13 3.57315E-13
 -1      4225 1.88129E+01 9.23354E-01-2.36697E-03 1.98886E-01 4.02031E-13 1.59602E-13
 -1      4226 1.88701E+01 8.93333E-01 1.85517E-03 3.29951E-01 2.27440E-13 7.29974E-14
 -1      4227 1.86864E+01 9.60360E-01-5.09838E-04 2.09981E-01 1.55871E-13 1.67717E-13
 -1      4228 1.99320E+01 2.76286E-01-2.87383E-04-1.40044E-01 1.08540E-14 3.57577E-14
 -1      4229 1.99756E+01 2.43212E-01 1.38851E-04-1.85323E-01 3.86000E-14 5.82634E-14
 -1      4230 2.00261E+01 2.09892E-01-8.70342E-04-1.67489E-01 1.46841E-14 5.13583E-14
 -1      4231 2.04241E+01 6.00418E-01 2.66177E-03 7.31574E-03-5.07100E-15-6.36954E-14
 -1      4232 1.90561E+01 7.62460E-01-2.83953E-04 6.10675E-01 8.35003E-14 1.97782E-13
 -1      4233 1.89560E+01 7.67880E-01 2.37073E-03 6.94697E-01 1.16935E-13 3.54338E-13
 -1      4234 2.03273E+01 2.07405E-01-6.52186E-04-8.92299E-02 4.85732E-14-6.55565E-14
 -1      4235 2.03524E+01 2.48552E-01 7.68004E-04-7.29817E-02 5.35193E-14-6.82613E-14
 -1      4236 1.87233E+01 8.64055E-01 6.60178E-03 6.42115E-01 7.99260E-14 3.10749E-13
 -1      4237 1.89267E+01 8.50855E-01-5.95164E-04 4.31538E-01 1.31459E-13-9.48135E-14
 -1      4238 1.87871E+01 8.76778E-01-5.99787E-03 4.63401E-01 1.45022E-13 8.38602E-14
 -1      4239 2.02594E+01 1.56179E-01-4.78696E-04-1.14138E-01 3.81924E-14-5.34160E-14
 -1      4240 2.02955E+01 1.75222E-01 2.51454E-04-9.84694E-02 3.74198E-14-4.01810E-14
 -1      4241 2.03228E+01 2.07222E-01 6.65356E-05-6.73603E-02 4.66062E-14-8.67847E-14
 -1      4242 2.00514E+01 2.15441E-01-4.92593E-04 2.95883E-03-3.58702E-14 1.67833E-14
 -1      4243 1.99891E+01 2.48491E-01-7.96437E-04 5.62942E-03-6.63315E-14 1.21512E-14
 -1      4244 1.99077E+01 2.95713E-01-7.14313E-04-4.58413E-02-5.80194E-14 3.26761E-14
 -1      4245 1.98341E+01 3.41407E-01-1.48942E-03-4.75518E-02-3.06883E-14 3.69787E-14
 -1      4246 1.95973E+01 4.95001E-01-2.47822E-03-2.54541E-02-8.19197E-15-3.05197E-15
 -1      4247 1.94943E+01 5.58840E-01-2.67660E-03-2.72312E-02-3.59534E-14 1.27871E-15
 -1      4248 1.93760E+01 6.21610E-01-2.27662E-03-1.25187E-01-3.14186E-14 1.17712E-14
 -1      4249 1.92475E+01 6.82814E-01-5.23353E-03-1.39874E-01-2.39951E-14-3.79667E-14
 -1      4250 1.91240E+01 7.37027E-01-5.12745E-03-1.82119E-01 2.72531E-14-4.90861E-14
 -1      4251 1.89686E+01 7.98031E-01-7.98949E-03-2.04157E-01-6.10140E-15 1.07751E-14
 -1      4252 1.88243E+01 8.43968E-01-6.89804E-03-2.63714E-01 6.40037E-15-5.37981E-16
 -1      4253 1.86326E+01 8.96702E-01-1.09604E-02-2.98744E-01 9.44832E-14 1.40066E-14
 -1      4254 1.84649E+01 9.27314E-01-8.14502E-03-3.81477E-01 5.47450E-14 1.88338E-14
 -1      4255 1.82281E+01 9.63628E-01-1.36848E-02-4.36529E-01 2.01855E-14 1.31015E-15
 -1      4256 1.80167E+01 9.86497E-01-1.04388E-02-5.09099E-01 4.13574E-15-3.41567E-14
 -1      4257 1.77161E+01 1.00125E+00-1.77857E-02-5.88735E-01-7.19392E-14-9.61114E-14
 -1      4258 2.03699E+01 2.99658E-01-1.19717E-03-6.37377E-02 8.86575E-14-9.01566E-14
 -1      4259 2.03895E+01 3.66998E-01 1.30944E-03-3.94278E-02 5.83642E-14-4.18487E-14
 -1      4260 2.03761E+01 2.98937E-01 5.94991E-05-4.71436E-02 6.84422E-14-8.31331E-14
 -1      4261 1.75212E+01 5.17311E-01-1.09956E-02 1.63180E+00-2.72754E-13 5.20558E-13
 -1      4262 1.78986E+01 2.14837E-01-1.56347E-02 1.87231E+00-3.76778E-13 4.52847E-13
 -1      4263 2.01617E+01 1.73105E-01-3.34270E-04 4.99106E-03 2.45601E-15 1.41412E-14
 -1      4264 2.01092E+01 1.90258E-01-2.51636E-04 7.85101E-03-7.45224E-15-1.46328E-14
 -1      4265 2.00811E+01 2.01910E-01-1.86138E-04-4.38938E-02-1.51553E-14 9.03009E-15
 -1      4266 1.97776E+01 3.68174E-01-1.86320E-03-2.42199E-01-2.04647E-14 1.14736E-13
 -1      4267 1.97963E+01 3.71366E-01 2.19724E-03-1.72519E-01-1.34296E-14 1.16178E-13
 -1      4268 1.97140E+01 4.16499E-01 3.18717E-05-2.70659E-01-4.64630E-14 1.33435E-13
 -1      4269 1.76056E+01 9.99996E-01-1.20013E-02 7.02356E-01 9.91785E-15 1.67268E-13
 -1      4270 1.79318E+01 9.98744E-01-4.20438E-03 6.00447E-01-5.21220E-14-4.88300E-14
 -1      4271 1.81228E+01 9.99904E-01-1.12618E-02 4.81081E-01-9.35536E-15 1.12708E-13
 -1      4272 1.83939E+01 9.82468E-01-2.11649E-03 4.10877E-01-2.60490E-14 7.94781E-14
 -1      4273 1.62393E+01 9.51939E-01 1.45060E-02 1.28399E+00 2.95614E-13 3.77505E-13
 -1      4274 1.63357E+01 1.01573E+00-1.27308E-02 8.27437E-01 3.27609E-13 3.93009E-13
 -1      4275 1.68376E+01 1.03709E+00-1.12718E-02 7.73629E-01 2.64313E-13 4.38337E-13
 -1      4276 1.67706E+01 5.62185E-01 3.39842E-02 1.82692E+00 6.61142E-13 1.38719E-12
 -1      4277 1.75988E+01-9.33734E-02 3.30944E-02 2.37614E+00 5.55106E-13 6.79364E-13
 -1      4278 1.85653E+01 9.59443E-01-5.12566E-03 3.31008E-01 1.01282E-13 6.64994E-14
 -1      4279 1.67740E+01 9.31601E-01-5.72886E-03-1.01661E+00-5.60150E-14-8.82875E-14
 -1      4280 2.04120E+01 4.49274E-01-1.62505E-03-1.15215E-02 4.49381E-14-7.15099E-14
 -1      4281 2.04015E+01 3.59992E-01 7.24676E-04-4.28223E-03 4.57286E-14-5.23829E-14
 -1      4282 2.04073E+01 4.93652E-01 6.44315E-04-1.02403E-02 4.92327E-14-6.57974E-14
 -1      4283 2.03815E+01 2.95907E-01-7.54041E-04-1.43875E-02 3.89092E-14-4.22487E-14
 -1      4284 2.03563E+01 2.40034E-01 3.86307E-04-9.78843E-03 2.26241E-14-3.92156E-14
 -1      4285 1.70584E+01 9.84499E-01-2.58004E-02-8.07347E-01-3.37510E-14-8.78745E-14
 -1      4286 1.97585E+01 3.91275E-01-1.32598E-03-6.24601E-02-3.89647E-14 3.93693E-14
 -1      4287 2.03228E+01 2.01383E-01-4.62810E-04-1.95072E-02 6.21050E-15-2.18534E-14
 -1      4288 2.02558E+01 1.68661E-01-6.31611E-04 5.70521E-03 6.99250E-15-1.22937E-14
 -1      4289 2.02111E+01 1.65543E-01-2.37999E-04 8.94783E-03 2.99158E-15 1.20763E-14
 -1      4290 2.01871E+01 1.72255E-01 4.70271E-04-3.62475E-02 2.95199E-15 1.23655E-14
 -1      4291 2.00975E+01 1.82994E-01-3.29576E-06-1.23282E-01 1.17070E-14 2.31540E-14
 -1      4292 2.01439E+01 1.64519E-01-2.91730E-04-1.09658E-01 1.18262E-14 3.09536E-15
 -1      4293 2.02859E+01 1.77184E-01 3.20332E-04-1.67031E-02 3.21330E-16-1.81151E-14
 -1      4294 1.95543E+01 5.17149E-01 5.64147E-04-3.35602E-01-5.47693E-14 7.83233E-14
 -1      4295 1.96274E+01 4.66306E-01-1.79614E-03-2.97568E-01-5.50895E-14 9.96277E-14
 -1      4296 1.96391E+01 4.69333E-01 1.31009E-03-2.17036E-01-2.96762E-14 1.22894E-13
 -1      4297 1.94534E+01 5.77711E-01 1.19331E-03-2.73419E-01-4.07352E-14 1.12768E-13
 -1      4298 1.96747E+01 4.47405E-01-9.67567E-04-6.71785E-02 3.62427E-15 5.01074E-14
 -1      4299 1.74535E+01 1.00636E+00-1.10955E-02-6.88131E-01-8.87960E-14-5.32574E-14
 -1      4300 1.75359E+01 8.53723E-01 1.24878E-02 1.10794E+00 8.84058E-15 2.41134E-13
 -1      4301 2.01934E+01 1.55368E-01-2.94866E-04-1.04829E-01 7.01980E-15 7.24453E-15
 -1      4302 2.02347E+01 1.55820E-01 2.76746E-04-9.23330E-02 1.10805E-14-2.00604E-14
 -1      4303 1.99470E+01 2.74623E-01 9.94951E-04-9.89784E-02-1.78226E-14 5.73589E-14
 -1      4304 2.02638E+01 1.70652E-01 2.94924E-04-5.69654E-02 4.52993E-15-6.49884E-15
 -1      4305 2.00667E+01 2.07970E-01 4.42676E-04-8.14397E-02 7.57930E-15-1.01397E-14
 -1      4306 1.94572E+01 5.81333E-01 2.29506E-03-2.07231E-01-6.29768E-14 8.67343E-14
 -1      4307 1.72648E+01 8.10465E-01 1.55945E-02 1.30503E+00-6.93993E-14 3.80822E-13
 -1      4308 1.69070E+01 6.26682E-01-9.68788E-03 1.60197E+00 4.22167E-14 8.63817E-13
 -1      4309 1.85350E+01 1.00336E+00 3.58550E-03 2.28381E-01 1.36814E-13 6.07763E-14
 -1      4310 1.96421E+01 4.69026E-01 7.75366E-04-1.54318E-01-4.03155E-14 6.36091E-14
 -1      4311 1.70766E+01 1.65902E-01 3.75797E-03 2.13453E+00 8.03608E-13 1.13315E-12
 -1      4312 2.00107E+01 2.34465E-01 7.50774E-04-8.79406E-02-2.01237E-14 1.01356E-14
 -1      4313 1.95599E+01 5.19347E-01 6.41007E-04-1.76448E-01-3.12454E-14 8.23491E-14
 -3
    1PSTEP                         3           1           1          
  100CL  101 1.000000000        4313                     0    1           1
 -4  TOSTRAIN    6    1
 -5  EXX         1    4    1    1
 -5  EYY         1    4    2    2
 -5  EZZ         1    4    3    3
 -5  EXY         1    4    1    2
 -5  EYZ         1    4    2    3
 -5  EZX         1    4    3    1
 -1         1 1.00227E-05 1.02094E-05-1.31473E-05-1.81762E-05-1.10419E-17 7.44118E-18
 -1         2 3.61036E-05-1.10479E-04 2.00035E-05-4.55155E-07-1.03750E-17-1.62736E-18
 -1         3 9.52066E-05-2.86034E-05-2.84956E-05-2.31007E-08-1.92437E-18-1.17816E-18
 -1         4 9.52035E-05-2.86058E-05-2.84867E-05 2.34070E-08 1.27938E-18 3.19458E-19
 -1         5 1.43228E-04-2.14621E-05-4.24910E-05 3.85117E-05-8.47562E-20 6.53984E-18
 -1         6 1.45294E-04 2.57303E-10-4.41495E-05-5.34982E-05-3.03661E-19 6.37646E-18
 -1         7 9.05352E-05-5.09309E-07-3.90388E-05-2.92512E-05-5.44219E-20 1.87634E-18
 -1         8 8.50815E-05 8.66985E-08-3.63214E-05-2.02812E-05-6.93773E-20 3.41186E-19
 -1         9 8.27983E-05 7.65892E-08-3.53442E-05-1.56547E-05-6.39378E-20-5.47536E-19
 -1        10 8.17849E-05 3.81713E-08-3.48852E-05-1.20908E-05-4.95117E-20-1.02233E-18
 -1        11 8.12819E-05 1.88797E-08-3.46643E-05-9.02246E-06-5.63211E-20-1.27018E-18
 -1        12 8.10262E-05 8.57658E-09-3.45561E-05-6.29025E-06-2.42331E-20-1.33001E-18
 -1        13 8.08941E-05 3.95274E-09-3.45023E-05-3.68873E-06-1.24243E-20-1.36999E-18
 -1        14 8.08394E-05 2.09770E-09-3.44807E-05-1.18445E-06 7.27030E-21-1.36500E-18
 -1        15 8.08414E-05 2.08991E-09-3.44814E-05 1.29025E-06 1.36539E-20-1.34847E-18
 -1        16 8.09002E-05 3.88135E-09-3.45045E-05 3.79954E-06 2.34878E-20-1.34387E-18
 -1        17 8.10376E-05 7.77537E-09-3.45596E-05 6.41307E-06 2.91002E-20-1.24157E-18
 -1        18 8.12985E-05 1.75778E-08-3.46694E-05 9.16491E-06 2.97223E-20-1.08017E-18
 -1        19 8.18060E-05 3.76946E-08-3.48931E-05 1.22696E-05 5.82865E-20-8.43590E-19
 -1        20 8.28209E-05 8.12203E-08-3.53567E-05 1.58832E-05 7.57168E-20-3.65654E-19
 -1        21 8.50475E-05 1.69607E-07-3.63594E-05 2.04924E-05 1.05614E-19 6.07799E-19
 -1        22 9.15729E-05-9.81314E-08-3.87105E-05 2.79989E-05 1.31290E-20 2.45374E-18
 -1        23 1.12856E-04-3.80864E-05-3.53612E-05-4.40424E-06-1.71074E-19 5.31323E-18
 -1        24 9.26844E-05-2.76610E-05-2.89629E-05 3.89963E-07-4.56736E-20 4.40849E-18
 -1        25 8.89925E-05-2.68142E-05-2.68911E-05 3.74966E-07-1.02405E-20 3.54367E-18
 -1        26 8.78843E-05-2.64494E-05-2.63521E-05 2.02872E-07 2.92003E-20 2.94966E-18
 -1        27 8.79087E-05-2.64272E-05-2.63438E-05 1.38312E-07 2.31379E-20 2.46222E-18
 -1        28 8.84470E-05-2.65652E-05-2.65149E-05 9.90090E-08-1.45403E-19 1.84996E-18
 -1        29 8.92181E-05-2.67830E-05-2.67526E-05 7.30322E-08 2.75689E-21 1.71813E-18
 -1        30 9.00780E-05-2.70337E-05-2.70136E-05 5.44855E-08 1.19805E-19 1.63307E-18
 -1        31 9.09518E-05-2.72919E-05-2.72775E-05 4.06031E-08-5.09918E-20 1.49590E-18
 -1        32 9.18060E-05-2.75461E-05-2.75355E-05 3.00393E-08-1.28490E-19 5.29634E-19
 -1        33 9.26354E-05-2.77942E-05-2.77863E-05 2.21191E-08 8.61217E-20 2.97366E-19
 -1        34 9.34554E-05-2.80403E-05-2.80346E-05 1.65226E-08 1.00416E-20 8.73363E-19
 -1        35 9.42983E-05-2.82939E-05-2.82902E-05 1.31647E-08-2.22645E-19 7.14665E-19
 -1        36 9.52110E-05-2.85689E-05-2.85674E-05 1.21650E-08 1.05235E-19 2.45067E-19
 -1        37 9.62546E-05-2.88836E-05-2.88844E-05 1.38663E-08-1.41326E-19 8.35548E-19
 -1        38 9.75039E-05-2.92602E-05-2.92641E-05 1.88805E-08-1.54361E-19 9.65094E-19
 -1        39 9.90480E-05-2.97251E-05-2.97333E-05 2.81480E-08 3.71221E-19 1.19852E-19
 -1        40 1.00988E-04-3.03081E-05-3.03222E-05 4.29741E-08-2.80134E-19 7.02071E-19
 -1        41 1.03430E-04-3.10408E-05-3.10625E-05 6.49506E-08-8.27044E-20-4.35818E-19
 -1        42 1.06471E-04-3.19513E-05-3.19818E-05 9.55476E-08 3.36547E-20 5.50638E-20
 -1        43 1.10168E-04-3.30551E-05-3.30928E-05 1.34924E-07-3.35760E-19 5.02449E-19
 -1        44 1.14468E-04-3.43367E-05-3.43731E-05 1.79152E-07 4.01463E-19 1.87604E-18
 -1        45 1.19113E-04-3.57186E-05-3.57315E-05 2.14853E-07-1.74885E-20 3.65556E-18
 -1        46 1.23480E-04-3.70182E-05-3.69661E-05 2.11199E-07-4.50838E-20 3.22324E-18
 -1        47 1.26442E-04-3.79045E-05-3.77324E-05 1.14083E-07 2.86618E-20 4.13495E-18
 -1        48 1.26381E-04-3.78981E-05-3.75746E-05-1.41223E-07 2.68807E-19 5.87305E-18
 -1        49 1.21655E-04-3.65046E-05-3.60976E-05-5.69743E-07 1.05667E-19 5.87748E-18
 -1        50 1.11806E-04-3.35650E-05-3.32982E-05-1.02750E-06-8.56579E-20 4.70855E-18
 -1        51 9.90796E-05-2.97280E-05-2.98936E-05-1.17164E-06 9.66478E-20 4.64746E-18
 -1        52 8.86466E-05-2.65581E-05-2.72162E-05-7.07946E-07-5.00682E-19 4.89477E-18
 -1        53 8.59247E-05-2.57267E-05-2.65335E-05 2.08442E-07 6.01853E-19 3.42026E-18
 -1        54 9.24795E-05-2.77236E-05-2.81927E-05 9.90084E-07-1.82959E-19 4.00202E-18
 -1        55 1.04654E-04-3.14126E-05-3.13642E-05 1.17387E-06-3.13732E-19 1.13682E-18
 -1        56 1.16604E-04-3.50000E-05-3.46381E-05 8.42300E-07-1.87224E-20-2.69748E-18
 -1        57 1.24287E-04-3.72827E-05-3.68953E-05 3.65296E-07 1.41223E-19-2.48713E-18
 -1        58 1.26797E-04-3.80156E-05-3.77575E-05 6.72040E-09 1.93881E-19-1.95216E-18
 -1        59 1.25296E-04-3.75602E-05-3.74466E-05-1.73099E-07 5.17799E-20-1.72556E-18
 -1        60 1.21517E-04-3.64334E-05-3.64155E-05-2.21871E-07 1.33534E-19 5.61093E-19
 -1        61 1.16887E-04-3.50561E-05-3.50826E-05-2.03595E-07 7.15514E-21 7.11653E-19
 -1        62 1.12301E-04-3.36910E-05-3.37291E-05-1.62169E-07-1.26934E-19-9.46195E-19
 -1        63 1.08206E-04-3.24697E-05-3.25040E-05-1.19764E-07-3.73467E-19-1.24522E-18
 -1        64 1.04758E-04-3.14394E-05-3.14651E-05-8.47480E-08-3.56010E-19-1.89952E-18
 -1        65 1.01960E-04-3.06014E-05-3.06187E-05-5.86906E-08 2.46894E-19 7.99900E-19
 -1        66 9.97455E-05-2.99369E-05-2.99478E-05-4.04143E-08-2.61813E-19 5.43009E-19
 -1        67 9.80305E-05-2.94215E-05-2.94287E-05-2.77955E-08 1.70050E-19-1.29755E-19
 -1        68 9.67430E-05-2.90338E-05-2.90408E-05-1.81690E-08 8.07832E-19 1.51190E-18
 -1        69 9.58380E-05-2.87601E-05-2.87708E-05-7.77548E-09-2.07508E-19 1.23860E-18
 -1        70 9.53052E-05-2.85966E-05-2.86115E-05 1.13596E-08 4.60451E-19 1.72132E-18
 -1        71 9.51510E-05-2.85433E-05-2.85444E-05 3.64436E-08-3.37785E-19 1.80419E-18
 -1        72 1.02066E-04-3.05530E-05-3.41147E-05-1.92529E-06 7.36389E-20 6.04220E-18
 -1        73 9.24416E-05-2.74774E-05-2.88714E-05-3.32267E-07 3.45530E-20 4.54566E-18
 -1        74 8.89814E-05-2.66641E-05-2.69348E-05-1.24959E-07 2.07366E-20 3.34576E-18
 -1        75 8.79157E-05-2.64005E-05-2.63967E-05-9.42993E-08-1.38243E-20 2.74862E-18
 -1        76 8.79458E-05-2.64078E-05-2.63713E-05-7.48606E-08 2.02175E-20 2.39671E-18
 -1        77 8.84848E-05-2.65605E-05-2.65333E-05-6.02408E-08 3.97708E-21 1.76177E-18
 -1        78 8.92552E-05-2.67857E-05-2.67669E-05-4.88079E-08-7.40070E-20 1.66013E-18
 -1        79 9.01142E-05-2.70402E-05-2.70259E-05-3.92084E-08-4.28874E-20 1.77373E-18
 -1        80 9.09874E-05-2.73005E-05-2.72888E-05-3.08088E-08 2.58871E-20 1.78566E-18
 -1        81 9.18413E-05-2.75558E-05-2.75463E-05-2.34025E-08 1.12119E-19 1.20306E-18
 -1        82 9.26695E-05-2.78038E-05-2.77966E-05-1.69709E-08 8.63682E-20 6.45297E-19
 -1        83 9.34853E-05-2.80484E-05-2.80437E-05-1.15952E-08 4.77075E-20 3.55804E-19
 -1        84 9.43159E-05-2.82975E-05-2.82956E-05-7.44101E-09-6.07187E-20 9.05147E-19
 -1        85 9.51995E-05-2.85625E-05-2.85639E-05-4.77561E-09 3.60348E-20 9.09905E-19
 -1        86 9.61816E-05-2.88570E-05-2.88620E-05-3.99781E-09-4.78456E-20 6.59246E-20
 -1        87 9.73113E-05-2.91954E-05-2.92045E-05-5.66528E-09-2.23950E-19 4.13243E-20
 -1        88 9.86358E-05-2.95918E-05-2.96052E-05-1.04982E-08 9.21996E-22 5.14424E-20
 -1        89 1.00192E-04-3.00569E-05-3.00742E-05-1.93185E-08 2.58941E-19-1.31110E-18
 -1        90 1.01992E-04-3.05945E-05-3.06143E-05-3.28481E-08-2.17918E-19-1.42075E-18
 -1        91 1.04006E-04-3.11953E-05-3.12140E-05-5.12396E-08-1.05814E-19-9.97646E-20
 -1        92 1.06131E-04-3.18290E-05-3.18399E-05-7.31645E-08 1.71450E-19-5.03588E-21
 -1        93 1.08159E-04-3.24348E-05-3.24268E-05-9.43380E-08-5.76419E-20-8.18810E-20
 -1        94 1.09751E-04-3.29127E-05-3.28708E-05-1.05697E-07 3.43111E-19-1.32454E-18
 -1        95 1.10431E-04-3.31225E-05-3.30313E-05-9.23554E-08-8.56388E-20-1.94163E-18
 -1        96 1.09643E-04-3.28995E-05-3.27535E-05-3.60120E-08 1.44781E-20 1.87063E-18
 -1        97 1.06924E-04-3.21020E-05-3.19200E-05 7.54234E-08-3.18733E-19 3.17680E-18
 -1        98 1.02180E-04-3.06939E-05-3.05316E-05 2.30277E-07 6.36908E-20 2.70882E-18
 -1        99 9.60052E-05-2.88413E-05-2.87818E-05 3.77629E-07-4.81589E-20 1.60433E-19
 -1       100 8.98015E-05-2.69573E-05-2.70686E-05 4.36851E-07 9.17145E-20-5.24472E-19
 -1       101 8.54378E-05-2.56111E-05-2.58877E-05 3.45507E-07-2.04418E-19-2.46326E-18
 -1       102 8.44430E-05-2.52833E-05-2.56270E-05 1.19802E-07-2.04583E-19-2.74210E-18
 -1       103 8.71868E-05-2.61022E-05-2.63740E-05-1.44455E-07 1.40761E-20 7.88535E-20
 -1       104 9.26682E-05-2.77664E-05-2.78740E-05-3.32077E-07 2.21331E-19 1.07547E-18
 -1       105 9.90712E-05-2.97140E-05-2.96584E-05-3.86016E-07 5.67776E-19 7.11587E-19
 -1       106 1.04671E-04-3.14129E-05-3.12596E-05-3.27841E-07-6.76855E-19-1.12720E-18
 -1       107 1.08444E-04-3.25518E-05-3.23769E-05-2.16569E-07-1.89631E-20-2.81225E-18
 -1       108 1.10163E-04-3.30654E-05-3.29205E-05-1.04763E-07 4.98383E-19-5.64787E-18
 -1       109 1.10141E-04-3.30535E-05-3.29576E-05-1.99524E-08 1.96133E-20-3.40875E-18
 -1       110 1.08918E-04-3.26811E-05-3.26313E-05 3.21358E-08-6.49771E-21-2.74536E-18
 -1       111 1.07023E-04-3.21093E-05-3.20929E-05 5.73023E-08 2.68466E-19-3.99590E-18
 -1       112 1.04873E-04-3.14625E-05-3.14663E-05 6.45538E-08-3.51065E-19-3.43561E-18
 -1       113 1.02744E-04-3.08234E-05-3.08373E-05 6.18160E-08 7.17904E-19-4.58213E-18
 -1       114 1.00797E-04-3.02394E-05-3.02567E-05 5.46854E-08-4.98027E-19-5.03429E-18
 -1       115 9.91077E-05-2.97333E-05-2.97505E-05 4.65728E-08-3.42742E-19-6.22158E-18
 -1       116 9.77051E-05-2.93129E-05-2.93294E-05 3.91439E-08 3.44592E-19-4.39400E-18
 -1       117 9.65960E-05-2.89802E-05-2.89974E-05 3.26216E-08 3.14673E-19-8.56253E-18
 -1       118 9.57875E-05-2.87366E-05-2.87576E-05 2.55153E-08-2.00243E-19-7.04836E-18
 -1       119 9.53023E-05-2.85889E-05-2.86125E-05 1.06418E-08-5.40718E-19-2.82028E-18
 -1       120 9.51633E-05-2.85402E-05-2.85499E-05-2.35635E-08 9.87337E-19-1.36411E-18
 -1       121 9.52548E-05-2.86299E-05-2.85527E-05-3.54640E-08-7.27310E-19 1.00066E-18
 -1       122 9.52084E-05-2.84804E-05-2.86186E-05 2.13050E-10 1.59917E-18-1.36433E-18
 -1       123 9.50654E-05-2.80026E-05-2.87575E-05 2.22543E-08 2.42649E-18 1.13953E-18
 -1       124 9.48590E-05-2.73116E-05-2.89555E-05 3.21997E-08 5.49233E-18 1.24476E-18
 -1       125 9.46293E-05-2.65400E-05-2.91784E-05 3.35078E-08-4.71460E-20-2.22931E-18
 -1       126 9.44175E-05-2.58263E-05-2.93860E-05 2.92175E-08-3.97149E-18 5.30518E-19
 -1       127 9.42484E-05-2.52571E-05-2.95518E-05 2.02502E-08-4.34834E-18 2.31963E-18
 -1       128 9.41516E-05-2.49306E-05-2.96468E-05 8.17255E-09-4.90284E-18-1.38457E-18
 -1       129 9.41419E-05-2.48980E-05-2.96559E-05-5.44798E-09 2.06899E-19 1.93781E-18
 -1       130 9.42228E-05-2.51699E-05-2.95762E-05-1.87859E-08 8.00784E-19-2.12446E-18
 -1       131 9.43837E-05-2.57122E-05-2.94181E-05-3.01283E-08-7.66575E-18-1.43151E-18
 -1       132 9.45981E-05-2.64336E-05-2.92088E-05-3.61305E-08-1.34762E-17 1.53607E-18
 -1       133 9.48385E-05-2.72411E-05-2.89764E-05-3.56684E-08-6.75078E-18-5.49485E-19
 -1       134 9.50579E-05-2.79797E-05-2.87663E-05-2.77400E-08-3.92979E-18-1.19400E-19
 -1       135 9.52108E-05-2.84826E-05-2.86180E-05-2.05293E-10-3.20177E-18-2.21884E-19
 -1       136 9.52434E-05-2.86298E-05-2.85468E-05 6.62397E-08-2.83993E-18 2.87897E-19
 -1       137 2.40225E-05-8.30989E-05 1.47285E-05-2.32702E-05-6.79892E-18 1.15911E-19
 -1       138 6.86234E-06-2.58866E-05 8.61480E-07-1.31568E-05 4.17460E-18 1.86474E-18
 -1       139 1.31286E-05 1.87717E-05-1.67708E-05 2.85676E-05 6.93042E-18 4.69934E-18
 -1       140 6.73918E-05 2.50888E-05-3.75906E-05 8.34640E-05 5.27278E-18 6.52681E-18
 -1       141 1.61315E-04-1.06656E-05-5.76207E-05 1.12779E-04 3.26171E-18 4.73068E-18
 -1       142 2.58437E-04-6.48277E-05-7.22656E-05 8.44692E-05 9.26231E-19 5.20417E-18
 -1       143 3.05264E-04-9.38301E-05-7.83546E-05 1.22831E-05 3.90535E-19 5.88129E-18
 -1       144 2.80097E-04-7.81520E-05-7.51037E-05-6.73831E-05 3.14660E-19 1.98417E-18
 -1       145 1.98135E-04-3.00472E-05-6.36173E-05-1.09478E-04 3.19903E-18-5.77084E-18
 -1       146 1.03109E-04 1.42663E-05-4.62033E-05-1.00447E-04 6.27397E-18-9.23308E-18
 -1       147 3.34922E-05 2.76921E-05-2.69152E-05-5.64383E-05 6.88341E-18-6.79193E-18
 -1       148 5.85940E-06-3.18851E-06-6.66065E-06-2.96865E-06 4.25761E-18-2.47567E-18
 -1       149 1.49553E-05-5.85803E-05 9.40756E-06 2.41742E-05-5.30666E-19 8.56562E-20
 -1       150 3.27274E-05-1.02379E-04 1.84134E-05 1.53252E-05 3.19437E-19-9.65882E-20
 -1       151 3.44411E-05-1.07208E-04 1.94024E-05-1.27487E-05-1.27214E-18-5.73362E-19
 -1       152 1.78837E-05-6.84653E-05 1.15108E-05-2.67794E-05-6.40018E-18-1.91504E-18
 -1       153 4.75678E-06-1.15653E-05-3.78970E-06-6.07829E-06-1.33014E-17-8.86759E-18
 -1       154 2.62730E-05 2.31699E-05-2.32071E-05 4.53617E-05-1.51030E-17-1.30566E-17
 -1       155 1.06526E-04 1.26525E-05-4.70616E-05 1.01195E-04-1.09653E-17-1.71888E-17
 -1       156 2.05692E-04-3.38212E-05-6.47364E-05 1.08577E-04-7.32408E-18-1.57654E-17
 -1       157 2.95077E-04-8.45544E-05-7.76194E-05 5.97973E-05-1.98261E-18-1.40804E-17
 -1       158 3.12576E-04-9.59102E-05-7.95857E-05-2.63978E-05 6.27519E-19-9.24346E-18
 -1       159 2.52954E-04-6.00246E-05-7.17136E-05-9.50130E-05-1.31163E-18 2.10488E-18
 -1       160 1.56939E-04-8.23056E-06-5.69678E-05-1.13626E-04-4.52358E-18 7.36792E-18
 -1       161 6.24430E-05 2.52477E-05-3.62942E-05-7.95371E-05-7.39841E-18 8.89723E-18
 -1       162 8.98703E-06-4.08984E-05 5.02582E-06 2.16820E-05-9.68413E-18 5.03201E-18
 -1       163 2.72080E-05-9.13538E-05 1.63559E-05 2.38170E-05-9.70954E-18 1.75601E-18
 -1       164 9.48048E-05-1.23352E-05-3.55471E-05-2.23514E-05-7.47546E-19 1.02652E-18
 -1       165 8.92137E-05-8.44715E-06-3.47766E-05-1.73910E-05-7.99645E-19 2.44978E-20
 -1       166 8.65542E-05-6.51055E-06-3.44152E-05-1.35994E-05-6.28082E-19-5.67830E-19
 -1       167 8.52128E-05-5.51681E-06-3.42384E-05-1.03712E-05-5.62815E-19-9.36349E-19
 -1       168 8.44852E-05-4.94719E-06-3.41567E-05-7.54903E-06-4.32841E-19-1.00446E-18
 -1       169 8.40694E-05-4.60146E-06-3.41193E-05-4.90416E-06-2.80714E-19-1.00889E-18
 -1       170 8.38575E-05-4.41635E-06-3.41042E-05-2.39501E-06-5.21823E-20-1.00068E-18
 -1       171 8.37950E-05-4.36020E-06-3.41005E-05 5.14926E-08 7.16055E-20-1.07224E-18
 -1       172 8.38671E-05-4.42461E-06-3.41049E-05 2.50002E-06 1.95355E-19-1.05845E-18
 -1       173 8.40907E-05-4.62039E-06-3.41206E-05 5.01553E-06 2.98343E-19-1.02348E-18
 -1       174 8.45125E-05-4.97401E-06-3.41575E-05 7.62590E-06 4.52407E-19-9.16410E-19
 -1       175 8.52717E-05-5.57622E-06-3.42400E-05 1.05165E-05 6.37487E-19-7.29884E-19
 -1       176 8.66453E-05-6.60855E-06-3.44175E-05 1.37887E-05 7.55328E-19-3.99601E-19
 -1       177 8.93617E-05-8.59557E-06-3.47809E-05 1.76282E-05 8.58408E-19 2.63454E-19
 -1       178 9.57149E-05-1.36001E-05-3.54035E-05 2.18966E-05 8.78267E-19 1.36976E-18
 -1       179 1.05511E-04-2.60741E-05-3.52338E-05 1.86648E-05 6.19168E-19 2.80124E-18
 -1       180 1.03309E-04-2.72758E-05-3.25834E-05-1.21327E-05-6.01446E-19 2.10654E-18
 -1       181 9.70184E-05-2.82619E-05-2.95022E-05-4.73649E-06-4.91478E-19 1.80306E-18
 -1       182 9.34191E-05-2.76100E-05-2.81558E-05-1.77219E-06-4.00498E-19 1.45105E-18
 -1       183 9.18878E-05-2.73792E-05-2.76110E-05-4.20407E-07-3.11266E-19 1.18255E-18
 -1       184 9.13221E-05-2.73060E-05-2.74170E-05 2.51913E-07-3.05685E-19 1.18475E-18
 -1       185 9.13009E-05-2.73495E-05-2.73989E-05 5.91451E-07-3.08981E-19 1.22063E-18
 -1       186 9.15809E-05-2.74608E-05-2.74756E-05 7.51605E-07 5.32181E-20 1.09146E-18
 -1       187 9.20241E-05-2.76078E-05-2.76046E-05 8.14418E-07-2.37279E-19 8.77764E-19
 -1       188 9.25535E-05-2.77718E-05-2.77622E-05 8.29484E-07-5.55198E-19 8.32069E-19
 -1       189 9.31306E-05-2.79436E-05-2.79362E-05 8.29932E-07-1.73147E-19 9.02571E-19
 -1       190 9.37425E-05-2.81210E-05-2.81225E-05 8.39809E-07 1.26726E-20 2.61968E-19
 -1       191 9.43958E-05-2.83066E-05-2.83226E-05 8.78009E-07-2.42430E-19-2.18007E-19
 -1       192 9.51120E-05-2.85072E-05-2.85431E-05 9.60610E-07-3.70170E-19-6.95363E-20
 -1       193 9.59249E-05-2.87331E-05-2.87940E-05 1.10231E-06 2.85981E-19 2.48774E-19
 -1       194 9.68791E-05-2.89977E-05-2.90888E-05 1.31712E-06-2.80559E-20 5.58120E-19
 -1       195 9.80285E-05-2.93172E-05-2.94436E-05 1.61814E-06-5.43596E-19 2.21452E-19
 -1       196 9.94338E-05-2.97108E-05-2.98765E-05 2.01584E-06-1.64114E-19-1.01713E-18
 -1       197 1.01159E-04-3.01999E-05-3.04058E-05 2.51385E-06-2.59768E-19-6.42292E-19
 -1       198 1.03262E-04-3.08078E-05-3.10470E-05 3.10015E-06-1.94014E-19-1.12097E-18
 -1       199 1.05781E-04-3.15573E-05-3.18072E-05 3.73124E-06 4.73860E-19-1.13113E-18
 -1       200 1.08708E-04-3.24668E-05-3.26754E-05 4.30600E-06 1.02474E-18 5.69257E-19
 -1       201 1.11948E-04-3.35420E-05-3.36090E-05 4.62938E-06 6.06109E-19 8.96482E-19
 -1       202 1.15263E-04-3.47557E-05-3.45166E-05 4.37719E-06 7.27416E-19 1.60944E-18
 -1       203 1.18208E-04-3.60078E-05-3.52476E-05 3.10229E-06 4.29757E-19 2.91761E-18
 -1       204 1.20088E-04-3.70537E-05-3.56049E-05 3.71898E-07 5.05742E-19 3.04799E-18
 -1       205 1.20024E-04-3.74234E-05-3.54105E-05-3.84165E-06 2.46705E-19 2.95718E-18
 -1       206 1.17260E-04-3.64686E-05-3.46249E-05-8.52390E-06-8.25156E-19 2.41086E-18
 -1       207 1.11893E-04-3.38217E-05-3.34570E-05-1.12719E-05 1.27340E-19 2.71314E-18
 -1       208 1.05720E-04-3.02772E-05-3.23514E-05-9.36699E-06-5.97555E-21 3.00644E-18
 -1       209 1.01988E-04-2.79703E-05-3.17631E-05-2.45966E-06-9.77489E-19 3.03407E-18
 -1       210 1.03082E-04-2.86522E-05-3.19314E-05 5.91072E-06-1.07074E-18 1.53488E-18
 -1       211 1.08291E-04-3.18077E-05-3.27889E-05 1.08722E-05-1.92195E-18-6.27268E-20
 -1       212 1.14446E-04-3.51609E-05-3.39794E-05 1.04919E-05-1.55374E-18-1.19054E-18
 -1       213 1.18768E-04-3.70713E-05-3.50179E-05 6.53105E-06 5.33978E-19-1.25262E-18
 -1       214 1.20280E-04-3.73657E-05-3.55496E-05 1.83477E-06-8.03060E-20-1.88215E-18
 -1       215 1.19369E-04-3.66235E-05-3.54820E-05-1.78410E-06-4.84364E-19-1.42499E-18
 -1       216 1.16904E-04-3.54386E-05-3.49305E-05-3.84516E-06 1.07957E-19-3.00276E-18
 -1       217 1.13705E-04-3.41768E-05-3.40937E-05-4.61904E-06 6.48422E-19-2.52427E-18
 -1       218 1.10357E-04-3.30092E-05-3.31529E-05-4.57442E-06-5.20132E-19-1.65816E-18
 -1       219 1.07212E-04-3.19976E-05-3.22332E-05-4.10998E-06-6.67075E-19-1.32416E-18
 -1       220 1.04438E-04-3.11523E-05-3.14039E-05-3.48839E-06-3.42664E-19-1.03098E-18
 -1       221 1.02093E-04-3.04617E-05-3.06935E-05-2.85560E-06 2.12013E-18 3.23837E-19
 -1       222 1.00168E-04-2.99064E-05-3.01063E-05-2.27876E-06-4.63635E-20 7.31756E-19
 -1       223 9.86262E-05-2.94658E-05-2.96347E-05-1.77770E-06 5.01039E-19 2.04167E-18
 -1       224 9.74220E-05-2.91209E-05-2.92670E-05-1.34547E-06 5.77408E-19 1.51318E-18
 -1       225 9.65132E-05-2.88559E-05-2.89919E-05-9.60155E-07 6.94075E-20 4.50033E-19
 -1       226 9.58671E-05-2.86604E-05-2.87996E-05-5.95057E-07 3.08808E-19 1.28864E-18
 -1       227 9.54422E-05-2.85292E-05-2.86746E-05-2.38409E-07 1.63046E-20 2.17613E-18
 -1       228 9.94074E-05-2.85265E-05-3.05591E-05 7.21594E-06 7.95271E-19 2.42639E-18
 -1       229 9.43226E-05-2.77624E-05-2.84964E-05 2.74800E-06 5.87609E-19 1.94184E-18
 -1       230 9.20039E-05-2.73726E-05-2.76540E-05 9.31611E-07 3.41113E-19 1.33977E-18
 -1       231 9.10611E-05-2.72112E-05-2.73372E-05 6.45260E-08 3.10606E-19 9.66274E-19
 -1       232 9.08633E-05-2.72074E-05-2.72674E-05-3.72053E-07 1.52286E-19 8.08368E-19
 -1       233 9.10733E-05-2.72999E-05-2.73245E-05-5.86775E-07 9.37320E-20 6.34228E-19
 -1       234 9.15020E-05-2.74447E-05-2.74493E-05-6.81025E-07 3.88035E-20 4.06603E-19
 -1       235 9.20430E-05-2.76149E-05-2.76097E-05-7.11195E-07 2.17127E-20 2.27463E-19
 -1       236 9.26390E-05-2.77960E-05-2.77883E-05-7.12443E-07 3.33814E-19 2.81179E-20
 -1       237 9.32643E-05-2.79819E-05-2.79771E-05-7.08502E-07 2.01108E-19 5.28585E-20
 -1       238 9.39146E-05-2.81723E-05-2.81744E-05-7.16259E-07 1.71912E-19 6.15361E-20
 -1       239 9.46009E-05-2.83713E-05-2.83833E-05-7.48074E-07-3.45611E-20 4.64341E-20
 -1       240 9.53453E-05-2.85860E-05-2.86103E-05-8.12855E-07 2.34712E-19-2.33993E-19
 -1       241 9.61765E-05-2.88259E-05-2.88637E-05-9.16237E-07-4.32905E-21-2.47189E-19
 -1       242 9.71270E-05-2.91015E-05-2.91530E-05-1.05988E-06 1.51107E-19 2.75387E-19
 -1       243 9.82272E-05-2.94234E-05-2.94868E-05-1.23977E-06 3.07015E-19-5.53084E-19
 -1       244 9.94997E-05-2.98008E-05-2.98708E-05-1.44324E-06 7.50259E-19-7.87703E-19
 -1       245 1.00949E-04-3.02386E-05-3.03049E-05-1.64472E-06-1.09842E-19-9.98809E-19
 -1       246 1.02548E-04-3.07337E-05-3.07790E-05-1.80022E-06-3.40947E-19-9.34288E-19
 -1       247 1.04223E-04-3.12704E-05-3.12678E-05-1.84193E-06-2.29269E-19-4.75152E-19
 -1       248 1.05832E-04-3.18130E-05-3.17256E-05-1.67620E-06 4.64855E-20 1.19363E-19
 -1       249 1.07153E-04-3.22981E-05-3.20836E-05-1.19171E-06 7.34498E-19-1.22314E-19
 -1       250 1.07884E-04-3.26278E-05-3.22532E-05-2.88927E-07-3.73816E-19 2.34275E-19
 -1       251 1.07676E-04-3.26715E-05-3.21419E-05 1.05811E-06-1.29642E-18 8.70771E-19
 -1       252 1.06234E-04-3.22872E-05-3.16849E-05 2.70913E-06-6.96746E-19 1.37615E-18
 -1       253 1.03477E-04-3.13813E-05-3.08902E-05 4.27419E-06 4.51503E-19 2.31409E-18
 -1       254 9.97285E-05-3.00074E-05-2.98769E-05 5.13488E-06 7.67518E-19 2.33048E-18
 -1       255 9.58220E-05-2.84591E-05-2.88760E-05 4.67818E-06 2.57786E-19 1.59344E-18
 -1       256 9.29322E-05-2.72438E-05-2.81677E-05 2.70723E-06 8.40803E-19 8.84560E-19
 -1       257 9.20915E-05-2.68611E-05-2.79725E-05-2.45616E-07 7.83042E-20-2.56653E-19
 -1       258 9.36217E-05-2.74818E-05-2.83528E-05-3.10400E-06-1.24692E-18-6.97489E-19
 -1       259 9.69506E-05-2.88403E-05-2.91847E-05-4.84124E-06 5.86887E-19-1.08574E-18
 -1       260 1.00929E-04-3.03974E-05-3.02154E-05-5.05191E-06 1.52033E-19-9.10269E-19
 -1       261 1.04438E-04-3.16778E-05-3.11717E-05-4.03181E-06 1.91292E-19 4.35554E-19
 -1       262 1.06795E-04-3.24473E-05-3.18575E-05-2.41777E-06 1.36822E-18-1.36229E-18
 -1       263 1.07818E-04-3.26997E-05-3.21937E-05-7.96859E-07 1.24058E-18-2.10138E-18
 -1       264 1.07677E-04-3.25529E-05-3.22004E-05 4.85170E-07-1.28242E-18-2.99364E-18
 -1       265 1.06703E-04-3.21539E-05-3.19549E-05 1.32018E-06-4.09785E-21-1.74335E-18
 -1       266 1.05237E-04-3.16295E-05-3.15506E-05 1.74953E-06 3.57181E-19 3.40352E-19
 -1       267 1.03562E-04-3.10698E-05-3.10710E-05 1.87574E-06-3.44617E-20 7.61868E-19
 -1       268 1.01878E-04-3.05312E-05-3.05785E-05 1.80595E-06 1.37228E-18-2.34003E-19
 -1       269 1.00310E-04-3.00444E-05-3.01139E-05 1.62632E-06-9.13422E-19-7.56685E-19
 -1       270 9.89267E-05-2.96234E-05-2.97006E-05 1.39559E-06 1.13782E-19-1.48709E-19
 -1       271 9.77583E-05-2.92715E-05-2.93501E-05 1.14718E-06 2.68834E-23-6.56218E-19
 -1       272 9.68148E-05-2.89876E-05-2.90674E-05 8.94058E-07 1.60523E-18-6.00858E-19
 -1       273 9.60978E-05-2.87687E-05-2.88547E-05 6.34766E-07-1.09833E-18-1.92835E-19
 -1       274 9.56054E-05-2.86124E-05-2.87105E-05 3.59952E-07-1.21838E-18 2.53359E-19
 -1       275 9.53255E-05-2.85394E-05-2.86192E-05 8.76523E-08 5.92630E-19-5.14093E-22
 -1       276 9.52713E-05-2.83742E-05-2.86682E-05 2.40831E-07 1.04783E-19 2.32618E-18
 -1       277 9.51477E-05-2.80171E-05-2.87695E-05 5.21506E-07 2.04317E-18 4.37426E-19
 -1       278 9.49628E-05-2.75224E-05-2.89027E-05 7.19456E-07 2.00425E-18 2.36923E-18
 -1       279 9.47558E-05-2.69555E-05-2.90574E-05 7.92176E-07 7.16226E-19-1.88623E-18
 -1       280 9.45565E-05-2.64014E-05-2.92103E-05 7.41860E-07 4.13237E-19-2.78391E-18
 -1       281 9.43837E-05-2.59180E-05-2.93443E-05 5.80826E-07-2.42129E-19-1.31847E-18
 -1       282 9.42641E-05-2.55836E-05-2.94369E-05 3.33884E-07-1.72400E-18 2.81127E-19
 -1       283 9.42140E-05-2.54465E-05-2.94744E-05 3.51792E-08-1.43621E-19 2.42846E-18
 -1       284 9.42417E-05-2.55290E-05-2.94508E-05-2.74254E-07-2.35684E-18-4.78385E-19
 -1       285 9.43458E-05-2.58235E-05-2.93687E-05-5.49666E-07-1.93491E-18-2.16449E-18
 -1       286 9.45104E-05-2.62821E-05-2.92418E-05-7.44196E-07-1.30985E-18-2.67174E-18
 -1       287 9.47198E-05-2.68557E-05-2.90849E-05-8.26207E-07-2.06042E-18 3.40613E-18
 -1       288 9.49416E-05-2.74520E-05-2.89239E-05-7.65275E-07-1.14402E-18 1.86879E-18
 -1       289 9.51424E-05-2.79754E-05-2.87840E-05-5.57299E-07-1.86204E-18 4.32318E-19
 -1       290 9.53158E-05-2.82771E-05-2.87288E-05-4.44648E-07-7.47084E-19 4.92409E-19
 -1       291 1.21813E-05-4.44781E-05 1.09412E-05 9.96507E-06-2.71749E-18 1.60185E-18
 -1       292 2.95404E-05-4.10254E-05 2.64565E-06 2.61447E-05-2.11038E-18 3.43001E-18
 -1       293 5.53417E-05-3.42271E-05-1.06294E-05 3.61902E-05-1.46537E-19 2.69124E-18
 -1       294 9.28263E-05-2.92826E-05-2.74149E-05 4.59147E-05 1.96766E-18 1.88062E-18
 -1       295 1.41219E-04-3.51670E-05-4.45658E-05 3.80034E-05 1.87051E-18 2.73274E-18
 -1       296 1.77710E-04-3.18738E-05-6.01593E-05 3.40751E-05 1.88780E-18 3.34726E-18
 -1       297 1.90808E-04-2.78368E-05-6.76044E-05 1.00729E-05 7.00814E-19 2.69007E-18
 -1       298 2.09335E-04-3.60257E-05-7.07319E-05-9.36386E-06 1.65351E-18 1.68994E-18
 -1       299 1.85548E-04-3.17446E-05-6.34836E-05-2.56693E-05 2.63898E-18 2.32722E-18
 -1       300 1.54991E-04-3.42718E-05-5.05178E-05-3.33060E-05 1.91226E-18 2.63999E-18
 -1       301 1.12413E-04-2.83014E-05-3.55619E-05-4.78500E-05 6.75932E-19-9.98017E-19
 -1       302 7.64072E-05-3.51290E-05-1.85001E-05-4.17588E-05-6.41839E-19-2.32447E-18
 -1       303 4.14401E-05-3.88199E-05-2.97862E-06-3.22499E-05-1.31121E-18-2.55728E-18
 -1       304 1.84480E-05-4.40984E-05 8.11685E-06-1.68291E-05-1.37960E-18 9.53971E-20
 -1       305 1.12234E-05-4.96185E-05 1.29060E-05-2.34784E-06-2.20426E-18-5.42207E-19
 -1       306 1.61037E-05-4.39466E-05 9.10912E-06 1.33248E-05-1.88444E-18-2.81120E-18
 -1       307 3.53097E-05-4.09824E-05-2.21669E-07 2.49782E-05-3.95395E-18-6.47202E-18
 -1       308 6.73236E-05-3.42591E-05-1.55426E-05 3.83216E-05-6.56133E-18-7.56538E-18
 -1       309 1.21668E-04-4.11784E-05-3.42832E-05 3.98990E-05-6.21489E-18-7.45622E-18
 -1       310 1.60336E-04-3.46307E-05-5.22233E-05 3.87076E-05-6.36561E-18-8.01145E-18
 -1       311 1.84823E-04-3.14764E-05-6.38181E-05 1.46740E-05-3.42487E-18-7.57290E-18
 -1       312 2.15693E-04-3.76505E-05-7.24128E-05 4.62961E-06-2.79955E-18-6.39912E-18
 -1       313 2.05412E-04-3.53878E-05-6.94176E-05-1.69400E-05-4.28757E-18-4.60638E-18
 -1       314 1.80916E-04-3.49339E-05-5.99072E-05-3.65068E-05-3.46966E-18-2.53453E-18
 -1       315 1.40084E-04-3.38201E-05-4.44243E-05-4.32354E-05-3.32789E-18 7.04096E-19
 -1       316 9.43122E-05-3.62334E-05-2.53804E-05-4.24519E-05-4.19048E-18 2.80537E-18
 -1       317 5.32123E-05-3.92927E-05-7.68468E-06-3.44114E-05-5.81319E-18 3.84638E-18
 -1       318 2.45937E-05-4.36024E-05 5.33521E-06-1.95392E-05-6.32480E-18 2.92242E-18
 -1       319 1.19805E-05-4.72303E-05 1.18613E-05-5.43932E-06-5.98974E-18-1.26208E-19
 -1       320 9.16166E-05-1.44399E-05-3.31535E-05-1.29828E-05-7.88215E-19-3.96782E-20
 -1       321 9.56627E-05-1.90983E-05-3.28758E-05-1.46401E-05-8.30787E-19 4.64783E-19
 -1       322 8.80336E-05-1.03738E-05-3.33380E-05-8.15035E-06-5.67532E-19-6.89290E-19
 -1       323 8.72334E-05-9.45180E-06-3.33835E-05-5.71341E-06-4.63788E-19-6.51180E-19
 -1       324 8.67815E-05-8.91996E-06-3.34142E-05-3.36317E-06-1.63907E-19-6.70503E-19
 -1       325 8.65798E-05-8.67874E-06-3.34296E-05-1.07086E-06 4.69129E-20-7.06664E-19
 -1       326 8.65881E-05-8.68815E-06-3.34292E-05 1.20247E-06 1.83933E-19-7.07213E-19
 -1       327 8.68081E-05-8.95022E-06-3.34128E-05 3.49682E-06 2.89160E-19-7.07395E-19
 -1       328 8.72721E-05-9.49593E-06-3.33813E-05 5.81072E-06 4.77609E-19-6.79320E-19
 -1       329 8.80978E-05-1.04486E-05-3.33336E-05 8.25044E-06 6.87241E-19-5.20359E-19
 -1       330 8.94931E-05-1.20311E-05-3.32646E-05 1.07612E-05 8.66212E-19-2.64426E-19
 -1       331 9.18868E-05-1.47166E-05-3.31540E-05 1.31690E-05 9.64771E-19 1.40548E-19
 -1       332 9.57566E-05-1.94438E-05-3.28132E-05 1.43785E-05 1.09080E-18 8.85719E-19
 -1       333 9.87209E-05-2.44238E-05-3.19298E-05 1.19024E-05 9.59291E-19 1.48519E-18
 -1       334 9.63219E-05-2.67909E-05-2.97695E-05 5.74453E-06 7.15286E-19 1.17662E-18
 -1       335 9.63838E-05-2.60099E-05-3.01157E-05-6.34630E-06-5.77786E-19 5.62964E-19
 -1       336 9.48724E-05-2.70103E-05-2.90584E-05-2.82883E-06-5.07361E-19 5.53747E-19
 -1       337 9.39057E-05-2.74050E-05-2.84857E-05-9.02673E-07-3.04636E-19 3.14091E-19
 -1       338 9.34047E-05-2.76172E-05-2.81878E-05 1.79247E-07-3.74720E-19 3.23283E-19
 -1       339 9.32414E-05-2.77704E-05-2.80560E-05 7.78074E-07-2.21968E-19 4.00511E-19
 -1       340 9.33028E-05-2.79015E-05-2.80278E-05 1.09670E-06-1.28397E-19 2.28828E-19
 -1       341 9.35085E-05-2.80205E-05-2.80657E-05 1.25772E-06-3.51796E-19 3.32209E-19
 -1       342 9.38070E-05-2.81300E-05-2.81470E-05 1.34094E-06-5.03922E-19 3.94403E-19
 -1       343 9.41698E-05-2.82316E-05-2.82589E-05 1.40200E-06-4.53860E-19 1.94929E-19
 -1       344 9.45856E-05-2.83278E-05-2.83956E-05 1.48231E-06-3.16829E-19 2.29378E-20
 -1       345 9.50562E-05-2.84226E-05-2.85562E-05 1.61469E-06 5.58301E-20 9.13144E-20
 -1       346 9.55938E-05-2.85215E-05-2.87437E-05 1.82688E-06 2.70749E-19 6.76864E-19
 -1       347 9.62187E-05-2.86314E-05-2.89637E-05 2.14346E-06 2.68379E-21 4.06702E-19
 -1       348 9.69577E-05-2.87618E-05-2.92237E-05 2.58626E-06-7.37700E-19-1.55477E-19
 -1       349 9.78427E-05-2.89249E-05-2.95322E-05 3.17308E-06-7.98554E-19 8.94110E-20
 -1       350 9.89093E-05-2.91388E-05-2.98968E-05 3.91341E-06-4.29406E-19 1.92314E-19
 -1       351 1.00196E-04-2.94309E-05-3.03227E-05 4.79967E-06-2.79756E-19 7.36986E-20
 -1       352 1.01744E-04-2.98449E-05-3.08090E-05 5.79123E-06 2.44680E-19-2.85761E-19
 -1       353 1.03598E-04-3.04515E-05-3.13451E-05 6.78806E-06 1.24177E-18-5.09559E-19
 -1       354 1.05807E-04-3.13595E-05-3.19065E-05 7.59191E-06 1.23786E-18-1.01243E-18
 -1       355 1.08425E-04-3.27166E-05-3.24537E-05 7.85876E-06 9.85204E-19 1.86820E-19
 -1       356 1.11488E-04-3.46692E-05-3.29394E-05 7.06487E-06 1.27491E-18 8.71964E-20
 -1       357 1.14926E-04-3.72145E-05-3.33324E-05 4.55165E-06 6.29322E-19 6.02751E-19
 -1       358 1.18355E-04-3.98845E-05-3.36635E-05-2.17201E-07 4.75937E-19 4.83820E-19
 -1       359 1.20762E-04-4.13276E-05-3.40763E-05-6.98688E-06-1.41698E-19 1.33894E-18
 -1       360 1.20546E-04-3.94613E-05-3.47896E-05-1.36320E-05 1.37385E-19 1.72387E-18
 -1       361 1.16897E-04-3.33648E-05-3.58501E-05-1.57522E-05 6.92057E-19 1.48588E-18
 -1       362 1.11901E-04-2.60219E-05-3.69030E-05-9.55695E-06-4.45089E-19 5.27612E-19
 -1       363 1.10348E-04-2.37994E-05-3.72002E-05 2.80515E-06-1.80100E-18 1.12530E-19
 -1       364 1.13954E-04-2.89804E-05-3.64913E-05 1.33245E-05-2.40361E-18 2.20361E-21
 -1       365 1.18835E-04-3.64519E-05-3.53609E-05 1.56823E-05-1.94546E-18 2.61985E-20
 -1       366 1.21031E-04-4.08002E-05-3.44236E-05 1.09568E-05-9.91348E-19 1.71444E-20
 -1       367 1.19893E-04-4.09664E-05-3.38583E-05 3.83816E-06-2.22885E-19-1.12289E-18
 -1       368 1.16859E-04-3.87582E-05-3.35029E-05-2.19051E-06-4.09041E-19-2.36395E-18
 -1       369 1.13334E-04-3.60332E-05-3.31515E-05-5.94734E-06-2.19161E-19-1.33699E-18
 -1       370 1.10023E-04-3.37206E-05-3.27137E-05-7.63443E-06 8.19714E-19 4.65240E-19
 -1       371 1.07142E-04-3.20356E-05-3.21924E-05-7.89407E-06 6.25620E-19-9.26827E-19
 -1       372 1.04696E-04-3.08874E-05-3.16309E-05-7.33948E-06 9.55838E-19 2.29301E-19
 -1       373 1.02640E-04-3.01188E-05-3.10760E-05-6.41160E-06-1.63107E-19 2.12705E-18
 -1       374 1.00921E-04-2.95971E-05-3.05621E-05-5.38067E-06 9.39402E-19 1.60419E-18
 -1       375 9.94981E-05-2.92309E-05-3.01090E-05-4.39036E-06 1.62653E-18 2.39483E-19
 -1       376 9.83317E-05-2.89616E-05-2.97250E-05-3.50197E-06 1.74064E-18 1.94652E-18
 -1       377 9.73878E-05-2.87523E-05-2.94107E-05-2.72727E-06 8.07234E-19 1.73755E-18
 -1       378 9.66342E-05-2.85788E-05-2.91626E-05-2.05089E-06-1.30508E-18 2.63834E-18
 -1       379 9.60436E-05-2.84269E-05-2.89744E-05-1.44457E-06 2.06222E-19 1.59803E-18
 -1       380 9.56382E-05-2.83356E-05-2.88411E-05-9.21673E-07 1.07749E-18 1.71094E-18
 -1       381 9.43062E-05-2.73192E-05-2.86704E-05 2.46742E-06 5.91580E-19 1.04856E-18
 -1       382 9.31082E-05-2.74391E-05-2.81219E-05 7.32961E-07 4.57613E-19 7.84516E-19
 -1       383 9.25700E-05-2.75181E-05-2.78693E-05-2.04036E-07 1.82103E-19 4.79406E-19
 -1       384 9.24547E-05-2.76139E-05-2.77845E-05-7.04554E-07 1.64655E-19 3.17134E-19
 -1       385 9.26000E-05-2.77296E-05-2.77996E-05-9.59652E-07 2.75765E-19 1.79407E-19
 -1       386 9.29010E-05-2.78571E-05-2.78751E-05-1.07808E-06 1.94650E-19-8.74418E-20
 -1       387 9.32946E-05-2.79894E-05-2.79875E-05-1.12781E-06 4.42460E-19-9.08108E-20
 -1       388 9.37465E-05-2.81233E-05-2.81239E-05-1.15431E-06 2.53026E-19 1.64343E-19
 -1       389 9.42430E-05-2.82591E-05-2.82784E-05-1.18956E-06 3.02525E-19-7.11962E-20
 -1       390 9.47850E-05-2.84000E-05-2.84500E-05-1.25659E-06 8.66879E-20-3.16607E-19
 -1       391 9.53840E-05-2.85521E-05-2.86411E-05-1.37172E-06 6.45703E-19-5.77240E-19
 -1       392 9.60583E-05-2.87236E-05-2.88563E-05-1.54519E-06-7.19588E-20-4.67618E-19
 -1       393 9.68305E-05-2.89247E-05-2.91007E-05-1.78029E-06 1.23243E-19-5.65647E-19
 -1       394 9.77235E-05-2.91675E-05-2.93791E-05-2.07090E-06 5.91133E-19-6.72555E-19
 -1       395 9.87562E-05-2.94654E-05-2.96941E-05-2.39738E-06 7.92533E-19-1.00613E-18
 -1       396 9.99379E-05-2.98329E-05-3.00437E-05-2.72037E-06 3.10709E-19-7.82765E-19
 -1       397 1.01261E-04-3.02834E-05-3.04188E-05-2.97326E-06-3.16825E-19-1.12332E-18
 -1       398 1.02689E-04-3.08258E-05-3.08007E-05-3.05483E-06-4.94262E-19-4.48096E-19
 -1       399 1.04148E-04-3.14567E-05-3.11584E-05-2.82675E-06-3.78262E-19-2.64849E-19
 -1       400 1.05508E-04-3.21452E-05-3.14496E-05-2.12496E-06 5.16414E-19 2.89226E-19
 -1       401 1.06574E-04-3.28096E-05-3.16246E-05-7.99788E-07-5.58893E-19 3.59276E-19
 -1       402 1.07082E-04-3.32897E-05-3.16385E-05 1.19932E-06-1.42661E-18 2.86208E-19
 -1       403 1.06738E-04-3.33378E-05-3.14686E-05 3.69245E-06-7.56276E-19 8.46494E-19
 -1       404 1.05310E-04-3.26773E-05-3.11348E-05 6.13756E-06-6.24298E-19 1.25570E-18
 -1       405 1.02833E-04-3.11775E-05-3.07077E-05 7.62779E-06 1.05257E-18 2.85026E-18
 -1       406 9.98183E-05-2.91080E-05-3.02954E-05 7.19396E-06 8.10925E-19 2.75535E-18
 -1       407 9.72736E-05-2.72272E-05-3.00070E-05 4.42311E-06 1.05335E-18 2.94856E-18
 -1       408 9.62988E-05-2.64724E-05-2.99110E-05 1.13914E-08 7.44330E-19 2.94352E-18
 -1       409 9.73446E-05-2.72366E-05-3.00286E-05-4.40713E-06-3.04535E-20 1.35611E-18
 -1       410 9.99384E-05-2.91301E-05-3.03315E-05-7.18310E-06 7.19773E-19-6.77984E-19
 -1       411 1.02959E-04-3.12060E-05-3.07455E-05-7.61180E-06-2.18844E-19-1.36560E-18
 -1       412 1.05402E-04-3.27014E-05-3.11621E-05-6.11199E-06-5.84813E-19-1.04678E-18
 -1       413 1.06772E-04-3.33505E-05-3.14782E-05-3.65629E-06 1.10604E-18 1.90249E-18
 -1       414 1.07052E-04-3.32864E-05-3.16287E-05-1.15413E-06 1.78664E-18 2.16677E-18
 -1       415 1.06484E-04-3.27892E-05-3.15970E-05 8.51439E-07-6.40069E-19 9.66131E-19
 -1       416 1.05371E-04-3.21089E-05-3.14077E-05 2.17958E-06-8.26290E-19 6.46419E-19
 -1       417 1.03976E-04-3.14075E-05-3.11067E-05 2.88041E-06-1.48188E-18 7.89220E-19
 -1       418 1.02496E-04-3.07667E-05-3.07436E-05 3.10266E-06 3.12554E-19 2.82762E-18
 -1       419 1.01059E-04-3.02164E-05-3.03610E-05 3.00746E-06 1.33597E-18 2.38676E-18
 -1       420 9.97417E-05-2.97595E-05-2.99906E-05 2.72808E-06 3.15634E-19 1.90667E-18
 -1       421 9.85840E-05-2.93871E-05-2.96532E-05 2.35836E-06 4.31333E-20 1.23245E-18
 -1       422 9.76013E-05-2.90856E-05-2.93609E-05 1.95464E-06 5.58533E-21 1.53357E-18
 -1       423 9.67944E-05-2.88416E-05-2.91195E-05 1.54281E-06 8.65837E-19 2.19877E-18
 -1       424 9.61564E-05-2.86445E-05-2.89309E-05 1.12859E-06-4.58873E-19 2.65815E-18
 -1       425 9.56761E-05-2.84909E-05-2.87913E-05 7.11046E-07-1.60828E-18 2.31529E-18
 -1       426 9.54438E-05-2.84086E-05-2.87277E-05 4.73478E-07-6.96707E-19 2.91621E-18
 -1       427 9.49145E-05-2.72469E-05-2.89997E-05 1.36107E-06-1.07107E-18-2.29111E-18
 -1       428 9.52030E-05-2.77638E-05-2.89006E-05 1.16800E-06 1.01489E-18 2.81781E-18
 -1       429 9.53631E-05-2.81230E-05-2.88148E-05 8.41639E-07 1.95179E-19 2.33192E-18
 -1       430 9.46263E-05-2.67323E-05-2.90978E-05 1.35893E-06-1.23976E-18-2.29146E-18
 -1       431 9.43625E-05-2.62584E-05-2.91888E-05 1.16546E-06 1.31249E-18-1.71150E-18
 -1       432 9.41573E-05-2.58896E-05-2.92597E-05 8.07269E-07 1.47243E-18-9.26776E-19
 -1       433 9.40344E-05-2.56715E-05-2.93010E-05 3.31880E-07-3.83357E-19 1.17191E-18
 -1       434 9.40108E-05-2.56343E-05-2.93069E-05-1.98181E-07-1.58451E-18 1.11894E-19
 -1       435 9.40940E-05-2.57874E-05-2.92765E-05-7.10552E-07-2.32062E-18-1.49798E-18
 -1       436 9.42744E-05-2.61092E-05-2.92153E-05-1.12424E-06-8.27777E-19-1.31018E-18
 -1       437 9.45412E-05-2.65742E-05-2.91294E-05-1.38602E-06 3.35420E-19 9.57543E-19
 -1       438 9.48603E-05-2.71216E-05-2.90304E-05-1.43621E-06 5.15789E-19 2.66960E-18
 -1       439 9.51927E-05-2.76884E-05-2.89285E-05-1.25839E-06-4.50402E-19 4.06686E-20
 -1       440 6.32491E-05-4.25113E-05-8.98996E-06 4.41326E-05-2.22717E-18 2.48649E-18
 -1       441 1.24260E-05-2.03494E-05 3.37658E-06 1.84519E-06-1.16420E-18 2.30520E-18
 -1       442 2.89462E-05-2.61037E-05-1.02348E-06 3.10637E-05-1.63271E-18 3.43959E-18
 -1       443 1.03410E-04-5.36126E-05-2.13055E-05 4.05101E-05-1.48432E-18-2.65783E-19
 -1       444 1.31933E-04-5.49985E-05-3.31170E-05 2.50900E-05-2.40610E-19 1.48315E-18
 -1       445 8.93740E-05-1.18951E-05-3.32714E-05-1.06454E-05-7.09238E-19-5.79235E-19
 -1       446 1.53023E-04-2.22683E-05-5.61958E-05-2.63671E-06 7.94835E-19 1.86548E-18
 -1       447 1.56131E-04-1.15177E-05-6.18753E-05 2.91696E-07 1.56955E-18 2.39131E-18
 -1       448 1.57549E-04-1.68924E-05-6.01103E-05 9.89599E-07 2.10414E-18 1.68353E-18
 -1       449 1.53251E-04-3.11705E-05-5.23547E-05-2.24301E-06 1.90434E-18 2.48678E-18
 -1       450 1.39618E-04-4.79639E-05-3.92824E-05-2.15007E-05-5.87947E-19 2.94619E-18
 -1       451 1.17160E-04-5.30214E-05-2.74654E-05-3.51102E-05-1.83054E-18 1.49777E-18
 -1       452 8.09377E-05-4.79433E-05-1.41699E-05-4.46124E-05-3.37712E-18-1.53586E-18
 -1       453 4.07675E-05-3.35515E-05-3.17263E-06-3.85874E-05-1.82832E-18-9.00925E-19
 -1       454 1.51680E-05-2.51567E-05 3.93525E-06-1.64950E-05-2.03404E-18 8.57621E-20
 -1       455 1.30791E-05-2.30772E-05 4.00683E-06 8.98811E-06-1.76540E-18-4.32410E-19
 -1       456 4.02180E-05-3.35852E-05-2.84190E-06 3.61442E-05-5.62112E-19-5.00152E-18
 -1       457 7.34154E-05-4.71043E-05-1.15602E-05 4.22228E-05-1.02470E-18-6.35399E-18
 -1       458 1.11207E-04-5.45201E-05-2.44926E-05 3.60769E-05-2.81395E-18-4.60971E-18
 -1       459 1.47841E-04-5.10809E-05-4.15368E-05 1.09293E-05-3.74590E-18-4.27995E-18
 -1       460 1.55647E-04-3.63689E-05-5.13218E-05-2.59846E-06-4.25195E-18-4.68981E-18
 -1       461 1.56847E-04-1.51722E-05-6.07084E-05-3.21184E-06-4.01578E-18-3.81901E-18
 -1       462 1.59520E-04-1.39556E-05-6.22460E-05 1.69287E-06-4.26322E-18-3.19683E-18
 -1       463 1.57552E-04-2.63718E-05-5.63352E-05 5.19336E-06-2.93359E-18-4.76414E-18
 -1       464 1.56960E-04-4.26083E-05-4.89207E-05-3.36347E-06-2.64740E-18-4.83158E-18
 -1       465 1.35508E-04-5.55556E-05-3.43068E-05-2.47763E-05-1.55859E-18-2.06655E-18
 -1       466 1.01457E-04-5.58780E-05-1.95092E-05-3.97463E-05-1.65616E-18-2.68430E-19
 -1       467 5.51511E-05-3.98887E-05-6.60815E-06-4.10891E-05-2.89071E-18 1.42937E-18
 -1       468 2.34481E-05-2.70648E-05 1.40765E-06-2.45049E-05-3.22143E-18 1.36192E-18
 -1       469 1.50927E-04-3.86014E-05-4.81309E-05 4.78810E-06 9.20142E-19 1.39877E-18
 -1       470 1.42947E-04-2.29091E-05-5.18986E-05-1.37614E-05-4.05025E-18-2.92878E-18
 -1       471 1.38977E-04-6.20389E-05-3.30085E-05 1.61429E-05-1.56775E-18-2.57588E-18
 -1       472 1.37152E-04-1.08665E-05-5.46421E-05-6.14973E-06 1.60100E-18 1.07142E-18
 -1       473 1.45259E-04-4.41825E-05-4.35143E-05-3.74420E-07 1.24927E-18 1.14037E-18
 -1       474 9.57861E-05-2.51325E-05-3.02659E-05 6.01231E-06 7.12151E-19 5.91518E-19
 -1       475 8.95827E-05-1.33846E-05-3.26754E-05-3.91389E-06-2.54114E-19-4.90785E-19
 -1       476 9.02811E-05-1.43515E-05-3.25625E-05-5.87223E-06-3.99822E-19-5.69980E-19
 -1       477 8.90897E-05-1.26997E-05-3.27563E-05 5.49538E-08 9.98690E-21-5.53286E-19
 -1       478 8.92236E-05-1.28844E-05-3.27348E-05 2.04000E-06 2.26434E-19-6.08825E-19
 -1       479 8.96140E-05-1.34250E-05-3.26716E-05 3.98828E-06 3.05679E-19-6.06945E-19
 -1       480 9.03296E-05-1.44159E-05-3.25555E-05 5.94019E-06 5.42646E-19-4.40105E-19
 -1       481 9.14636E-05-1.59980E-05-3.23655E-05 7.76897E-06 7.29148E-19-2.80318E-19
 -1       482 9.32313E-05-1.84698E-05-3.20608E-05 9.28786E-06 8.16468E-19-2.13148E-20
 -1       483 9.50854E-05-2.65580E-05-2.93509E-05 2.85690E-06 5.84838E-19 3.92586E-19
 -1       484 9.54578E-05-2.44156E-05-3.04372E-05-5.81882E-06-5.62662E-19 1.50351E-19
 -1       485 1.39877E-04-5.19571E-05-3.79029E-05 1.77436E-06 4.54489E-19 1.29855E-18
 -1       486 5.84267E-05-3.37100E-05-1.01533E-05 4.10011E-05-2.95133E-18 2.05644E-18
 -1       487 9.52627E-05-2.62086E-05-2.95879E-05-2.86948E-06-5.65366E-19 1.37453E-19
 -1       488 9.49165E-05-2.71324E-05-2.90466E-05-9.79932E-07-4.05238E-19 1.21514E-19
 -1       489 9.46574E-05-2.76527E-05-2.87146E-05 1.82536E-07-1.62056E-19 2.70479E-19
 -1       490 9.45264E-05-2.79646E-05-2.85258E-05 8.76392E-07-2.03880E-19 3.04428E-19
 -1       491 9.45081E-05-2.81577E-05-2.84356E-05 1.27851E-06-3.10569E-19 1.85492E-19
 -1       492 9.45758E-05-2.82754E-05-2.84144E-05 1.51177E-06-3.18262E-19 1.09982E-20
 -1       493 9.47071E-05-2.83408E-05-2.84426E-05 1.66360E-06-3.91251E-19 1.37359E-19
 -1       494 9.48869E-05-2.83671E-05-2.85083E-05 1.79842E-06-3.29785E-19 7.11527E-19
 -1       495 9.51076E-05-2.83629E-05-2.86046E-05 1.96576E-06-1.72807E-20 1.03177E-18
 -1       496 9.53678E-05-2.83341E-05-2.87282E-05 2.20541E-06 1.52033E-19 8.04499E-19
 -1       497 9.56707E-05-2.82857E-05-2.88785E-05 2.55078E-06-4.73355E-20 7.83480E-19
 -1       498 9.60232E-05-2.82227E-05-2.90562E-05 3.03045E-06-8.10420E-19 2.59549E-19
 -1       499 9.64353E-05-2.81531E-05-2.92623E-05 3.66823E-06-7.41450E-19 3.45439E-19
 -1       500 9.69206E-05-2.80907E-05-2.94966E-05 4.48091E-06-8.63406E-19 3.71584E-19
 -1       501 9.74990E-05-2.80627E-05-2.97561E-05 5.47312E-06-4.20829E-19-1.51110E-19
 -1       502 9.82036E-05-2.81209E-05-3.00330E-05 6.62771E-06-3.77993E-19 7.12306E-20
 -1       503 9.90950E-05-2.83603E-05-3.03127E-05 7.88955E-06 4.06865E-19-1.20252E-19
 -1       504 1.00286E-04-2.89445E-05-3.05738E-05 9.14040E-06 8.27404E-19-6.63957E-19
 -1       505 1.01978E-04-3.01324E-05-3.07922E-05 1.01611E-05 1.33684E-18-1.24983E-18
 -1       506 1.04496E-04-3.22772E-05-3.09558E-05 1.05779E-05 1.24443E-18-1.27870E-18
 -1       507 1.08268E-04-3.57266E-05-3.10999E-05 9.79475E-06 1.42360E-18-1.32423E-18
 -1       508 1.13621E-04-4.04716E-05-3.13663E-05 6.97104E-06 9.58466E-19-1.28197E-18
 -1       509 1.20250E-04-4.54391E-05-3.20829E-05 1.19258E-06 3.91426E-19-4.42959E-19
 -1       510 1.26238E-04-4.74782E-05-3.38030E-05-7.52374E-06 4.20104E-19 1.02791E-18
 -1       511 1.28076E-04-4.20100E-05-3.70061E-05-1.62475E-05 7.56043E-20 1.54235E-18
 -1       512 1.23342E-04-2.83511E-05-4.10658E-05-1.71614E-05-1.03292E-18-1.85474E-19
 -1       513 1.16893E-04-1.63239E-05-4.37610E-05-5.10165E-06-2.20559E-18-2.05681E-18
 -1       514 1.20035E-04-2.08798E-05-4.29570E-05 1.16075E-05-2.06454E-18-3.06237E-18
 -1       515 1.26172E-04-3.50161E-05-3.92747E-05 1.80203E-05-2.39889E-18-2.12248E-18
 -1       516 1.27843E-04-4.53835E-05-3.54467E-05 1.26986E-05-1.79637E-18-3.06071E-18
 -1       517 1.23876E-04-4.72176E-05-3.28798E-05 3.41244E-06-3.34502E-19-2.84742E-18
 -1       518 1.17264E-04-4.33984E-05-3.16719E-05-4.15740E-06-1.88144E-19-2.12112E-18
 -1       519 1.11065E-04-3.82805E-05-3.12057E-05-8.56961E-06 4.17260E-19-2.50332E-19
 -1       520 1.06409E-04-3.40468E-05-3.10206E-05-1.03928E-05 1.35992E-18-2.48402E-19
 -1       521 1.03233E-04-3.11940E-05-3.08768E-05-1.05669E-05-8.74782E-20-3.64588E-20
 -1       522 1.01118E-04-2.95068E-05-3.06903E-05-9.82838E-06 1.15722E-18 2.74298E-19
 -1       523 9.96720E-05-2.86102E-05-3.04533E-05-8.66463E-06 1.91031E-18 3.49676E-19
 -1       524 9.86283E-05-2.81867E-05-3.01868E-05-7.37001E-06-3.28387E-19 1.52799E-18
 -1       525 9.78294E-05-2.80189E-05-2.99162E-05-6.10819E-06 1.43247E-19 6.17558E-19
 -1       526 9.71893E-05-2.79735E-05-2.96616E-05-4.95835E-06 1.59565E-18 4.27358E-19
 -1       527 9.66607E-05-2.79721E-05-2.94359E-05-3.94657E-06 9.57469E-19 6.96706E-19
 -1       528 9.62157E-05-2.79713E-05-2.92458E-05-3.06701E-06-2.71111E-19 8.69396E-19
 -1       529 9.58363E-05-2.79476E-05-2.90934E-05-2.29734E-06-1.60624E-18 5.30689E-19
 -1       530 9.41460E-05-2.76569E-05-2.84917E-05-1.90366E-07 3.45005E-19-1.40670E-20
 -1       531 9.39982E-05-2.78969E-05-2.83277E-05-8.48306E-07 2.39322E-19-4.14276E-20
 -1       532 9.40105E-05-2.80611E-05-2.82635E-05-1.21556E-06 3.42758E-19-3.91026E-20
 -1       533 9.41353E-05-2.81799E-05-2.82664E-05-1.41524E-06 2.31633E-19-2.60176E-19
 -1       534 9.43378E-05-2.82682E-05-2.83155E-05-1.53091E-06 1.65693E-19-1.57092E-19
 -1       535 9.45973E-05-2.83354E-05-2.83978E-05-1.62128E-06 4.08988E-19-1.62042E-20
 -1       536 9.49044E-05-2.83894E-05-2.85062E-05-1.72859E-06 5.01202E-19-1.19409E-19
 -1       537 9.52585E-05-2.84378E-05-2.86370E-05-1.88321E-06 4.65674E-19-8.23503E-19
 -1       538 9.56667E-05-2.84899E-05-2.87893E-05-2.10586E-06 4.03170E-20-4.06075E-19
 -1       539 9.61411E-05-2.85576E-05-2.89634E-05-2.40778E-06-2.19746E-19 5.60271E-20
 -1       540 9.66982E-05-2.86568E-05-2.91594E-05-2.78911E-06 4.46795E-19 3.77803E-19
 -1       541 9.73580E-05-2.88094E-05-2.93767E-05-3.23514E-06 7.29289E-19 1.93644E-19
 -1       542 9.81428E-05-2.90454E-05-2.96121E-05-3.71039E-06 5.05110E-19 8.91375E-19
 -1       543 9.90771E-05-2.94042E-05-2.98593E-05-4.15063E-06-1.05853E-20 5.86863E-19
 -1       544 1.00186E-04-2.99349E-05-3.01079E-05-4.45369E-06-6.93872E-19 2.63500E-19
 -1       545 1.01488E-04-3.06893E-05-3.03445E-05-4.47165E-06 4.73185E-20 4.31695E-21
 -1       546 1.02988E-04-3.17032E-05-3.05550E-05-4.01069E-06 1.50193E-19-4.95631E-19
 -1       547 1.04643E-04-3.29544E-05-3.07306E-05-2.85116E-06-2.83932E-19 4.11729E-19
 -1       548 1.06318E-04-3.42939E-05-3.08766E-05-8.08711E-07-1.28985E-18 1.18011E-18
 -1       549 1.07722E-04-3.53633E-05-3.10206E-05 2.13758E-06-9.89337E-19 2.79840E-19
 -1       550 1.08384E-04-3.55723E-05-3.12123E-05 5.64154E-06-1.10750E-18-3.82463E-19
 -1       551 1.07780E-04-3.42738E-05-3.15042E-05 8.78477E-06-7.13802E-19 4.32110E-19
 -1       552 1.05730E-04-3.12745E-05-3.19036E-05 1.01067E-05 3.62010E-19 1.00872E-18
 -1       553 1.02912E-04-2.74585E-05-3.23310E-05 8.27123E-06 1.94555E-19 3.00910E-18
 -1       554 1.00797E-04-2.46826E-05-3.26221E-05 3.15171E-06 1.15176E-18 3.50000E-18
 -1       555 1.00829E-04-2.47212E-05-3.26147E-05-3.28037E-06 1.73700E-18 2.80312E-18
 -1       556 1.02970E-04-2.75462E-05-3.23170E-05-8.33478E-06 1.19286E-18 1.97691E-18
 -1       557 1.05788E-04-3.13740E-05-3.18888E-05-1.00750E-05-6.82071E-20 1.69193E-18
 -1       558 1.07795E-04-3.43311E-05-3.14862E-05-8.67747E-06-5.98428E-19 2.06938E-18
 -1       559 1.08354E-04-3.55846E-05-3.11933E-05-5.50473E-06-7.08621E-19 2.27639E-18
 -1       560 1.07658E-04-3.53439E-05-3.10021E-05-2.00111E-06 9.04575E-19 1.36304E-18
 -1       561 1.06233E-04-3.42585E-05-3.08563E-05 9.31630E-07 1.15894E-18 2.95257E-18
 -1       562 1.04544E-04-3.29106E-05-3.07076E-05 2.95568E-06 1.16950E-18 2.29893E-18
 -1       563 1.02882E-04-3.16558E-05-3.05300E-05 4.09482E-06-8.89203E-19 1.32766E-18
 -1       564 1.01379E-04-3.06395E-05-3.03192E-05 4.53494E-06-3.24184E-19 9.79880E-19
 -1       565 1.00078E-04-2.98798E-05-3.00852E-05 4.49233E-06 1.29197E-18 4.73289E-19
 -1       566 9.89747E-05-2.93383E-05-2.98433E-05 4.15410E-06 1.03931E-18 1.06533E-19
 -1       567 9.80519E-05-2.89612E-05-2.96087E-05 3.65950E-06-3.83850E-19 1.55280E-18
 -1       568 9.72864E-05-2.86966E-05-2.93937E-05 3.09984E-06-1.58689E-18 3.52001E-18
 -1       569 9.66558E-05-2.85023E-05-2.92065E-05 2.52660E-06 1.75392E-19 3.99745E-18
 -1       570 9.61387E-05-2.83458E-05-2.90514E-05 1.96405E-06-7.30110E-19 6.16553E-18
 -1       571 9.57121E-05-2.82121E-05-2.89260E-05 1.41326E-06-4.43146E-19 5.53187E-18
 -1       572 9.43373E-05-2.64603E-05-2.90907E-05 1.76827E-06 1.23795E-18 1.24579E-18
 -1       573 9.39737E-05-2.60089E-05-2.91286E-05 1.38189E-06 3.65970E-18-7.60293E-19
 -1       574 9.52029E-05-2.75452E-05-2.89958E-05 1.82916E-06-8.44947E-19-1.24254E-18
 -1       575 9.47618E-05-2.69881E-05-2.90460E-05 1.92247E-06-1.08033E-18-3.61720E-18
 -1       576 9.37152E-05-2.56880E-05-2.91556E-05 8.07778E-07 1.53614E-18-2.02436E-18
 -1       577 9.35935E-05-2.55363E-05-2.91686E-05 1.15413E-07-5.09796E-19 3.49560E-19
 -1       578 9.36295E-05-2.55776E-05-2.91662E-05-6.07017E-07-8.42246E-19-6.78555E-19
 -1       579 9.38229E-05-2.58091E-05-2.91496E-05-1.25174E-06-3.55011E-19 5.15280E-19
 -1       580 9.41672E-05-2.62204E-05-2.91207E-05-1.74648E-06 1.35096E-18-1.47610E-18
 -1       581 9.46206E-05-2.67656E-05-2.90812E-05-2.00081E-06 6.15262E-19 2.45135E-18
 -1       582 9.51328E-05-2.73823E-05-2.90350E-05-1.96214E-06-7.36223E-19 1.58805E-18
 -1       583 2.97765E-05-1.35250E-05-6.27869E-06 1.52267E-05-4.17164E-19 1.51217E-18
 -1       584 9.03157E-05-4.95931E-05-1.72103E-05 4.20215E-05-2.19784E-18 8.22919E-19
 -1       585 9.45049E-05-2.72696E-05-2.88064E-05 9.45543E-07 5.80883E-19 2.47886E-19
 -1       586 2.72001E-05-1.48517E-05-4.68628E-06-1.38610E-05 3.09630E-19 2.30912E-18
 -1       587 1.23284E-04-5.95115E-05-2.73134E-05 2.69701E-05-1.78576E-18 2.82546E-18
 -1       588 1.38114E-04-3.03843E-05-4.66689E-05-1.05340E-05 1.35345E-18 1.18553E-18
 -1       589 4.89895E-05-2.76503E-05-8.64273E-06-3.44924E-05-4.19811E-19-6.63862E-20
 -1       590 1.33047E-04-2.06925E-05-4.87983E-05 1.14760E-05 2.09699E-18 8.34592E-20
 -1       591 8.92042E-05-1.28595E-05-3.27372E-05-1.93070E-06-9.64939E-20-5.05460E-19
 -1       592 1.30062E-04-1.01325E-05-5.21402E-05 6.23348E-06 2.00514E-18-6.87023E-19
 -1       593 7.15354E-05-4.03189E-05-1.29815E-05-4.33078E-05-1.69687E-18 8.88855E-20
 -1       594 1.33965E-04-5.85693E-05-3.24018E-05-1.65436E-05-1.11192E-18 9.09290E-19
 -1       595 1.28018E-04-6.14509E-05-2.85501E-05-2.21292E-05-4.22114E-19-3.55817E-18
 -1       596 1.11466E-04-5.71661E-05-2.30909E-05-3.51069E-05-3.16531E-18 1.99847E-19
 -1       597 3.58605E-05-2.02451E-05-6.12097E-06-2.86038E-05-1.50838E-18-2.54586E-19
 -1       598 2.34712E-05-1.30557E-05-3.82054E-06-6.95478E-06-1.52059E-18 8.07540E-19
 -1       599 3.33326E-05-1.91549E-05-5.45888E-06 2.39087E-05-1.35705E-18-1.92118E-18
 -1       600 7.38155E-05-4.15813E-05-1.33916E-05 4.05364E-05 1.03836E-18-5.85400E-18
 -1       601 1.04786E-04-5.63921E-05-2.06160E-05 3.64985E-05 1.91641E-19-3.40073E-18
 -1       602 1.43825E-04-4.78612E-05-4.15138E-05-1.01387E-05-1.84251E-18-2.11742E-18
 -1       603 1.36554E-04-1.23545E-05-5.38582E-05-1.66002E-06-3.33233E-18-2.96663E-18
 -1       604 1.37757E-04-1.58921E-05-5.27671E-05 1.06634E-05-2.69060E-18-4.64531E-18
 -1       605 1.41583E-04-3.62773E-05-4.56141E-05 1.51278E-05-2.87578E-18-4.38546E-18
 -1       606 1.45026E-04-5.52481E-05-3.87763E-05 3.06949E-07-1.43621E-18-3.55531E-18
 -1       607 8.70213E-05-4.74769E-05-1.65605E-05-3.99523E-05 3.85400E-20-1.10845E-18
 -1       608 9.45757E-05-2.07446E-05-3.16606E-05-9.43141E-06-6.69014E-19 7.38755E-20
 -1       609 9.61178E-05-2.31756E-05-3.12645E-05 9.58315E-06 9.20162E-19 7.34434E-19
 -1       610 1.21028E-04-7.78630E-06-4.90869E-05-5.09747E-07 2.98156E-18-1.45159E-18
 -1       611 9.13751E-05-1.58871E-05-3.23759E-05-7.68989E-06-5.40023E-19-5.87632E-19
 -1       612 9.27659E-05-1.79182E-05-3.20992E-05-8.87999E-06-5.93907E-19-4.34121E-19
 -1       613 4.90409E-05-2.08927E-05-1.15614E-05 2.89523E-05-2.43329E-18 1.52037E-18
 -1       614 1.13181E-04-5.66645E-05-2.40965E-05-2.84714E-05-3.91223E-20-3.79326E-18
 -1       615 1.33513E-04-3.26271E-05-4.36376E-05 1.25549E-05 2.17629E-18 9.91849E-19
 -1       616 1.27558E-04-1.89542E-05-4.70996E-05-1.24394E-05 1.63726E-18 1.32989E-18
 -1       617 5.94433E-05-2.82487E-05-1.29222E-05 3.35081E-05-2.17264E-19-3.83928E-18
 -1       618 9.56132E-05-2.79254E-05-2.90071E-05-1.81188E-06-6.18696E-19 1.76658E-18
 -1       619 9.15873E-05-1.68087E-05-3.20536E-05 2.42536E-06 1.40506E-19-4.66272E-19
 -1       620 9.13294E-05-1.64023E-05-3.21170E-05 8.35275E-07 5.49369E-20-5.58871E-19
 -1       621 9.29137E-05-1.89721E-05-3.16949E-05 5.24072E-06 5.84603E-19-2.30857E-19
 -1       622 9.39947E-05-2.09111E-05-3.13295E-05 6.12117E-06 7.26699E-19-1.44734E-19
 -1       623 9.52665E-05-2.40766E-05-3.04997E-05 5.12815E-06 7.33713E-19 8.84517E-20
 -1       624 6.19847E-05-2.76834E-05-1.42623E-05-3.40981E-05-1.60698E-18-5.66850E-19
 -1       625 1.29824E-04-5.68408E-05-3.13002E-05 9.90272E-06-1.16369E-18 1.41713E-18
 -1       626 9.54273E-05-2.56719E-05-2.98936E-05-2.38323E-06-4.35589E-19 1.05882E-20
 -1       627 9.54887E-05-2.68873E-05-2.94000E-05-7.77453E-07-1.30446E-19 1.56361E-19
 -1       628 9.54396E-05-2.76180E-05-2.90662E-05 2.81555E-07-2.74743E-19 1.53721E-19
 -1       629 9.53720E-05-2.80506E-05-2.88520E-05 9.51382E-07-3.28801E-19-1.76889E-20
 -1       630 9.53184E-05-2.82894E-05-2.87267E-05 1.36751E-06-2.72388E-19 2.99294E-19
 -1       631 9.52867E-05-2.83952E-05-2.86678E-05 1.63581E-06-1.96246E-19 6.17262E-19
 -1       632 9.52751E-05-2.84042E-05-2.86589E-05 1.83753E-06-2.18062E-21 8.45110E-19
 -1       633 9.52790E-05-2.83383E-05-2.86888E-05 2.03553E-06-6.89575E-20 9.34372E-19
 -1       634 9.52932E-05-2.82104E-05-2.87496E-05 2.27936E-06-3.16231E-19 6.07568E-19
 -1       635 9.53120E-05-2.80285E-05-2.88356E-05 2.60914E-06-2.12326E-19 2.63511E-19
 -1       636 9.53300E-05-2.77972E-05-2.89423E-05 3.05810E-06-4.35354E-19 3.73621E-19
 -1       637 9.53414E-05-2.75216E-05-2.90652E-05 3.65378E-06-8.85691E-19 6.47465E-19
 -1       638 9.53415E-05-2.72113E-05-2.91981E-05 4.41802E-06-1.13344E-18 4.21049E-20
 -1       639 9.53302E-05-2.68869E-05-2.93321E-05 5.36560E-06-8.85860E-19 7.41411E-19
 -1       640 9.53193E-05-2.65925E-05-2.94535E-05 6.50148E-06-3.80073E-19 7.07679E-19
 -1       641 9.53486E-05-2.64141E-05-2.95424E-05 7.81638E-06-1.73916E-19 1.53963E-19
 -1       642 9.55143E-05-2.65091E-05-2.95728E-05 9.28016E-06 1.76745E-19 1.50392E-19
 -1       643 9.60168E-05-2.71452E-05-2.95157E-05 1.08302E-05 4.07235E-19-7.99794E-19
 -1       644 9.72301E-05-2.87414E-05-2.93522E-05 1.23444E-05 1.21876E-18-1.29577E-18
 -1       645 9.97838E-05-3.18765E-05-2.91031E-05 1.35715E-05 1.35309E-18-9.37001E-19
 -1       646 1.04594E-04-3.71604E-05-2.88996E-05 1.39334E-05 5.98655E-19-1.60688E-18
 -1       647 1.12548E-04-4.46381E-05-2.90968E-05 1.22992E-05 1.06507E-18-1.79793E-18
 -1       648 1.23727E-04-5.26134E-05-3.04831E-05 6.47834E-06 1.61054E-18-1.21262E-18
 -1       649 1.34650E-04-5.43524E-05-3.45425E-05-4.53446E-06 8.43956E-19-9.79984E-19
 -1       650 1.30071E-04-5.48025E-05-3.22793E-05-1.27211E-06 1.08688E-19-3.85606E-18
 -1       651 1.18461E-04-4.92627E-05-2.96211E-05-9.87056E-06 5.79465E-20-3.19717E-18
 -1       652 1.08645E-04-4.11682E-05-2.89110E-05-1.34544E-05 8.58493E-19-2.34541E-18
 -1       653 1.02150E-04-3.45719E-05-2.89631E-05-1.39973E-05 3.72742E-20-2.12189E-18
 -1       654 9.84554E-05-3.02895E-05-2.92143E-05-1.31627E-05 6.27948E-19-3.12026E-18
 -1       655 9.65799E-05-2.78964E-05-2.94356E-05-1.17663E-05 1.00469E-18-1.52287E-18
 -1       656 9.57364E-05-2.67693E-05-2.95566E-05-1.02095E-05 1.42376E-18-1.37265E-18
 -1       657 9.54137E-05-2.63914E-05-2.95800E-05-8.67057E-06 1.07359E-19-3.10168E-18
 -1       658 9.53220E-05-2.64107E-05-2.95325E-05-7.23520E-06 2.40623E-19-2.75412E-18
 -1       659 9.53119E-05-2.66086E-05-2.94435E-05-5.94373E-06 9.93799E-19-6.19640E-19
 -1       660 9.53126E-05-2.68568E-05-2.93375E-05-4.80893E-06 1.16335E-18-1.42496E-18
 -1       661 9.52956E-05-2.70843E-05-2.92327E-05-3.82407E-06 1.02840E-18-8.73218E-19
 -1       662 9.52474E-05-2.72530E-05-2.91398E-05-2.97001E-06-7.48850E-19 7.27654E-21
 -1       663 9.50201E-05-2.80241E-05-2.87123E-05-9.32960E-07 4.22671E-19 2.44325E-20
 -1       664 9.52006E-05-2.73348E-05-2.90847E-05-2.45019E-06 2.03195E-19 3.43038E-19
 -1       665 9.51134E-05-2.76441E-05-2.89148E-05-2.51826E-07 3.18105E-19 1.04597E-20
 -1       666 9.49961E-05-2.83618E-05-2.85575E-05-1.59184E-06 2.10437E-19 2.18413E-19
 -1       667 9.50509E-05-2.84063E-05-2.85620E-05-1.76383E-06 3.25250E-19 9.44364E-20
 -1       668 9.51402E-05-2.83998E-05-2.86029E-05-1.91898E-06 5.27062E-19-1.35556E-19
 -1       669 9.52606E-05-2.83584E-05-2.86722E-05-2.10213E-06 3.68837E-19-1.01072E-19
 -1       670 9.54132E-05-2.82960E-05-2.87643E-05-2.34570E-06 1.09351E-19 4.76120E-19
 -1       671 9.56039E-05-2.82281E-05-2.88750E-05-2.67129E-06-3.36533E-19 2.31678E-19
 -1       672 9.58440E-05-2.81743E-05-2.90009E-05-3.08949E-06-2.62868E-19-1.13364E-19
 -1       673 9.61517E-05-2.81626E-05-2.91377E-05-3.59791E-06 2.27615E-19 7.02918E-19
 -1       674 9.65554E-05-2.82330E-05-2.92806E-05-4.17701E-06 1.82559E-19 6.84434E-19
 -1       675 9.70969E-05-2.84429E-05-2.94227E-05-4.78403E-06 5.20558E-19 9.60870E-19
 -1       676 9.78367E-05-2.88706E-05-2.95568E-05-5.34455E-06 2.24958E-19 8.30308E-19
 -1       677 9.88576E-05-2.96145E-05-2.96759E-05-5.74210E-06-1.42089E-20 2.52731E-19
 -1       678 1.00262E-04-3.07805E-05-2.97789E-05-5.80697E-06 2.69073E-20 7.70141E-19
 -1       679 1.02152E-04-3.24435E-05-2.98772E-05-5.30839E-06-1.75221E-19 3.07040E-19
 -1       680 1.04569E-04-3.45636E-05-3.00060E-05-3.96435E-06-7.36408E-19 1.93808E-19
 -1       681 1.07388E-04-3.68479E-05-3.02363E-05-1.49822E-06-1.06695E-18 3.87299E-19
 -1       682 1.10141E-04-3.85754E-05-3.06768E-05 2.19161E-06-8.67079E-19 9.20152E-20
 -1       683 1.11948E-04-3.85875E-05-3.14446E-05 6.68442E-06-1.50140E-18 4.26837E-19
 -1       684 1.11691E-04-3.56447E-05-3.25978E-05 1.06070E-05-3.67900E-19 1.00261E-18
 -1       685 1.09074E-04-2.98114E-05-3.39791E-05 1.15660E-05-1.14201E-18 2.29573E-18
 -1       686 1.05450E-04-2.34565E-05-3.51412E-05 7.73287E-06 7.76749E-19 2.06048E-18
 -1       687 1.03547E-04-2.06537E-05-3.55861E-05 1.66227E-08 2.53888E-18 1.15460E-18
 -1       688 1.05684E-04-2.37922E-05-3.50986E-05-7.89493E-06 2.20899E-18 3.87132E-19
 -1       689 1.09171E-04-3.00092E-05-3.39480E-05-1.15725E-05 8.82139E-19 4.83255E-19
 -1       690 1.11727E-04-3.57781E-05-3.25621E-05-1.04830E-05-5.35462E-19-4.30088E-20
 -1       691 1.11921E-04-3.86336E-05-3.14071E-05-6.51264E-06-1.44399E-18 1.03657E-18
 -1       692 1.10059E-04-3.85468E-05-3.06522E-05-2.02502E-06 7.21189E-19 2.22551E-18
 -1       693 1.07300E-04-3.67992E-05-3.02197E-05 1.63779E-06 3.63940E-19 2.43722E-18
 -1       694 1.04483E-04-3.45085E-05-2.99925E-05 4.08228E-06 1.81563E-18 2.49663E-18
 -1       695 1.02072E-04-3.23882E-05-2.98666E-05 5.39934E-06 1.38416E-18 1.01684E-18
 -1       696 1.00196E-04-3.07306E-05-2.97721E-05 5.87337E-06-1.47703E-19 2.92813E-19
 -1       697 9.88031E-05-2.95632E-05-2.96745E-05 5.78403E-06 9.66621E-19-1.98235E-19
 -1       698 9.77898E-05-2.88064E-05-2.95641E-05 5.35361E-06 5.08540E-19 8.21872E-19
 -1       699 9.70543E-05-2.83513E-05-2.94437E-05 4.74356E-06-6.01735E-19 1.91946E-18
 -1       700 9.65131E-05-2.80955E-05-2.93213E-05 4.06173E-06-1.34959E-18 2.14115E-18
 -1       701 9.61024E-05-2.79544E-05-2.92056E-05 3.37176E-06-1.46452E-18 6.76653E-19
 -1       702 9.57767E-05-2.78664E-05-2.91033E-05 2.70671E-06-1.95423E-18 1.75226E-19
 -1       703 9.54561E-05-2.76982E-05-2.90383E-05 2.27142E-06-2.81929E-18-4.06874E-19
 -1       704 1.09580E-04-5.44146E-05-2.35091E-05 3.08293E-05-1.97592E-18 2.76099E-18
 -1       705 9.30688E-05-2.53114E-05-2.90393E-05 6.30606E-07 2.29621E-18-1.83926E-18
 -1       706 1.31202E-04-4.04625E-05-3.92192E-05-1.00615E-05 6.91523E-19 1.22592E-18
 -1       707 9.38309E-05-2.60703E-05-2.90404E-05 2.04384E-06 2.79876E-18 1.66324E-18
 -1       708 9.29916E-05-2.52227E-05-2.90442E-05-2.74782E-07-4.88398E-19-2.51383E-18
 -1       709 9.33621E-05-2.56072E-05-2.90382E-05 1.43550E-06 3.37137E-18-2.94302E-18
 -1       710 9.31477E-05-2.53579E-05-2.90531E-05-1.15268E-06-8.92215E-20 1.02172E-18
 -1       711 9.35398E-05-2.57193E-05-2.90662E-05-1.91429E-06 9.09045E-19-2.78374E-19
 -1       712 9.41361E-05-2.62775E-05-2.90827E-05-2.42965E-06 8.15650E-19-1.14451E-18
 -1       713 4.70640E-05-1.80805E-05-1.19421E-05-2.27410E-05 2.21387E-18 1.11713E-18
 -1       714 8.10869E-05-4.02092E-05-1.71587E-05 3.84486E-05-2.98010E-18 2.26203E-18
 -1       715 9.52409E-05-2.69984E-05-2.92448E-05 8.51280E-07 5.39072E-19 5.80907E-20
 -1       716 3.71815E-05-1.19716E-05-1.02342E-05 8.54112E-06-1.51261E-18-3.48183E-19
 -1       717 1.26355E-04-6.04038E-05-2.81864E-05 1.92698E-05 6.85567E-19-1.56625E-18
 -1       718 3.87295E-05-1.11273E-05-1.13082E-05-2.11592E-06 8.34973E-19 7.42636E-19
 -1       719 9.49828E-05-2.82452E-05-2.86017E-05-1.34230E-06 4.12204E-19 1.98948E-19
 -1       720 9.50406E-05-2.36522E-05-3.05964E-05-4.69833E-06-4.31817E-19-1.87274E-19
 -1       721 7.59200E-05-3.42044E-05-1.74747E-05-3.32326E-05 1.16149E-18-2.23506E-18
 -1       722 9.21087E-05-1.76428E-05-3.19198E-05 3.92797E-06 3.67573E-19-3.67363E-19
 -1       723 1.35331E-04-5.89287E-05-3.27845E-05-4.94043E-06-6.40698E-19-3.24435E-18
 -1       724 9.53352E-05-2.59092E-05-2.97499E-05 2.56368E-06 7.30301E-19-9.59778E-21
 -1       725 1.35383E-04-5.00089E-05-3.68618E-05 1.90560E-06-6.86209E-19 6.86600E-19
 -1       726 9.20689E-05-1.75860E-05-3.19271E-05-3.87538E-06-2.30100E-19-3.83424E-19
 -1       727 1.19684E-04-1.58074E-05-4.50025E-05 1.03714E-05 1.46621E-18-1.63753E-18
 -1       728 1.23605E-04-5.81487E-05-2.80084E-05-2.04493E-05-2.64385E-18-2.43945E-19
 -1       729 9.76468E-05-4.93455E-05-2.04613E-05-3.61834E-05-2.16081E-18 1.99040E-19
 -1       730 4.19252E-05-1.34098E-05-1.17029E-05-1.56900E-05-1.65817E-18-1.03523E-19
 -1       731 9.58096E-05-4.79943E-05-2.02056E-05 3.43660E-05 1.71376E-18-3.25373E-18
 -1       732 9.42003E-05-2.11939E-05-3.12860E-05-6.72475E-06-5.76394E-19-3.24514E-19
 -1       733 1.35942E-04-5.04034E-05-3.68716E-05 1.01771E-05-1.91101E-18-5.24004E-18
 -1       734 9.28825E-05-1.89126E-05-3.17038E-05-5.20170E-06-3.95833E-19-4.90240E-19
 -1       735 9.13226E-05-1.63929E-05-3.21181E-05-7.77219E-07-6.92528E-20-4.86390E-19
 -1       736 1.29489E-04-5.42105E-05-3.23708E-05-3.76919E-06-1.95113E-18 1.26555E-18
 -1       737 1.28543E-04-4.93389E-05-3.40250E-05-3.73556E-06-2.51339E-19 1.12314E-18
 -1       738 9.48500E-05-2.70765E-05-2.90459E-05 2.41247E-06-1.81038E-18-2.36143E-18
 -1       739 1.24568E-04-3.05391E-05-4.05935E-05-1.41979E-05 7.58333E-19 4.42575E-20
 -1       740 9.69101E-05-4.41040E-05-2.24744E-05-2.87204E-05 1.00266E-18-2.35126E-18
 -1       741 5.30014E-05-1.79638E-05-1.46657E-05 2.09610E-05-1.02728E-18-1.93251E-18
 -1       742 4.63014E-05-1.32482E-05-1.37683E-05 1.25632E-05-1.58216E-19-7.20428E-19
 -1       743 9.46190E-05-2.67185E-05-2.91003E-05-2.78386E-06-2.94392E-19 1.25114E-18
 -1       744 1.22008E-04-2.48313E-05-4.19816E-05 1.39220E-05 5.81726E-19-7.56758E-19
 -1       745 9.43269E-05-2.65548E-05-2.90455E-05 2.33043E-06 1.88551E-18 1.91624E-18
 -1       746 9.15655E-05-1.67776E-05-3.20575E-05-2.36428E-06-2.66752E-19-3.66829E-19
 -1       747 1.11516E-04-1.34276E-05-4.23639E-05 3.01275E-06 2.72886E-18 6.51729E-19
 -1       748 9.46572E-05-2.27045E-05-3.08380E-05 3.85490E-06 5.16357E-19 3.70147E-20
 -1       749 9.34843E-05-1.99132E-05-3.15305E-05-6.07593E-06-4.67424E-19-4.79859E-19
 -1       750 9.58705E-05-2.67732E-05-2.96131E-05-4.54867E-07-1.64342E-19-3.15738E-19
 -1       751 9.59490E-05-2.76063E-05-2.92898E-05 4.17278E-07-2.34548E-19-1.31075E-20
 -1       752 9.59164E-05-2.80933E-05-2.90671E-05 9.94098E-07-2.01596E-19 2.77811E-19
 -1       753 9.58238E-05-2.83364E-05-2.89232E-05 1.37464E-06 5.74786E-20 3.74850E-19
 -1       754 9.56964E-05-2.84018E-05-2.88406E-05 1.64312E-06 1.15405E-19 3.90645E-19
 -1       755 9.55441E-05-2.83320E-05-2.88052E-05 1.86797E-06-6.89644E-21 2.62661E-19
 -1       756 9.53677E-05-2.81534E-05-2.88061E-05 2.10376E-06-2.71545E-19 3.33851E-19
 -1       757 9.51613E-05-2.78820E-05-2.88339E-05 2.39403E-06-1.28497E-19 3.61069E-19
 -1       758 9.49145E-05-2.75266E-05-2.88805E-05 2.77381E-06-3.56619E-19 1.46850E-19
 -1       759 9.46126E-05-2.70924E-05-2.89371E-05 3.27149E-06-3.78854E-19 2.16698E-19
 -1       760 9.42382E-05-2.65860E-05-2.89937E-05 3.90987E-06-1.05015E-18 9.69647E-19
 -1       761 9.37736E-05-2.60200E-05-2.90371E-05 4.70720E-06-6.97352E-19 1.31859E-18
 -1       762 9.32057E-05-2.54232E-05-2.90494E-05 5.67880E-06-6.42389E-19 1.22609E-18
 -1       763 9.25365E-05-2.48548E-05-2.90061E-05 6.84015E-06-4.45370E-19 1.10550E-18
 -1       764 9.18028E-05-2.44267E-05-2.88751E-05 8.21366E-06 2.59043E-19 1.59387E-18
 -1       765 9.11107E-05-2.43374E-05-2.86166E-05 9.84042E-06-2.31425E-19 6.05916E-19
 -1       766 9.06951E-05-2.49197E-05-2.81885E-05 1.17948E-05 3.66134E-19 6.12755E-19
 -1       767 9.10200E-05-2.67043E-05-2.75610E-05 1.41827E-05 1.12862E-18-2.91817E-19
 -1       768 9.29051E-05-3.04603E-05-2.67513E-05 1.70895E-05 5.52754E-19-1.11234E-18
 -1       769 9.80283E-05-3.73387E-05-2.59936E-05 2.00951E-05 7.80276E-19-1.06074E-18
 -1       770 1.08028E-04-4.76660E-05-2.56932E-05 2.21437E-05 1.36908E-18-9.67106E-19
 -1       771 5.95256E-05-1.96289E-05-1.68674E-05-2.25077E-05-1.43248E-18-8.62888E-19
 -1       772 4.72878E-05-1.16897E-05-1.49501E-05-1.10371E-06-1.52544E-18 6.16375E-19
 -1       773 9.49362E-05-2.33941E-05-3.06626E-05-3.47069E-06-3.18533E-19-3.69170E-19
 -1       774 1.02794E-04-4.27206E-05-2.56630E-05-2.15190E-05 1.90794E-19-3.37741E-18
 -1       775 9.53048E-05-3.39058E-05-2.62992E-05-1.88169E-05 5.53582E-20-3.84612E-18
 -1       776 9.18440E-05-2.85437E-05-2.71254E-05-1.58370E-05-1.88488E-19-3.62504E-18
 -1       777 9.07741E-05-2.57485E-05-2.78670E-05-1.31441E-05 1.69206E-18-3.13151E-18
 -1       778 9.08531E-05-2.45583E-05-2.84115E-05-1.09536E-05 2.32647E-18-2.57518E-18
 -1       779 9.14306E-05-2.43002E-05-2.87697E-05-9.14221E-06 8.73494E-19-1.21188E-18
 -1       780 9.21566E-05-2.45349E-05-2.89803E-05-7.60941E-06 7.30674E-19-5.53564E-19
 -1       781 9.28595E-05-2.49910E-05-2.90862E-05-6.29214E-06 1.24794E-18-9.66994E-19
 -1       782 9.34648E-05-2.55068E-05-2.91247E-05-5.15381E-06 1.40293E-18-1.87232E-18
 -1       783 9.39527E-05-2.59913E-05-2.91263E-05-4.17426E-06 2.49020E-18 4.17699E-19
 -1       784 9.43613E-05-2.64109E-05-2.91213E-05-3.44317E-06-3.74252E-19 5.35331E-19
 -1       785 9.57335E-05-2.76196E-05-2.91916E-05-3.75769E-07 2.44269E-19 4.11365E-21
 -1       786 1.17263E-04-5.28386E-05-2.75419E-05 1.64185E-05-1.74481E-18 2.75614E-18
 -1       787 9.54603E-05-2.84112E-05-2.87353E-05-1.85753E-06 3.10157E-19 5.82122E-20
 -1       788 9.55388E-05-2.84265E-05-2.87624E-05-1.65008E-06 3.51962E-19 1.95264E-19
 -1       789 9.53152E-05-2.81645E-05-2.87788E-05-2.31034E-06 1.20787E-20 6.36530E-19
 -1       790 9.52536E-05-2.79768E-05-2.88328E-05-2.62917E-06-3.16664E-20 2.58085E-19
 -1       791 9.52071E-05-2.77762E-05-2.88989E-05-3.04120E-06-3.66128E-20 3.20619E-19
 -1       792 9.51896E-05-2.75928E-05-2.89699E-05-3.55765E-06-3.30050E-19-1.39191E-20
 -1       793 9.52264E-05-2.74703E-05-2.90382E-05-4.17806E-06-8.49334E-20 6.65921E-19
 -1       794 9.53609E-05-2.74717E-05-2.90952E-05-4.88705E-06 3.78147E-19 7.04958E-19
 -1       795 9.56632E-05-2.76874E-05-2.91323E-05-5.64937E-06 2.14712E-19 6.79406E-19
 -1       796 9.62406E-05-2.82405E-05-2.91428E-05-6.40161E-06 2.31312E-19 8.08801E-19
 -1       797 9.72473E-05-2.92859E-05-2.91263E-05-7.03928E-06-1.69588E-19 7.00235E-19
 -1       798 9.88865E-05-3.09934E-05-2.90974E-05-7.39481E-06-4.03380E-19 1.19422E-18
 -1       799 1.01384E-04-3.34888E-05-2.90989E-05-7.20272E-06-8.55648E-19 2.22266E-18
 -1       800 1.04895E-04-3.67174E-05-2.92205E-05-6.07280E-06-6.15013E-19 1.74023E-18
 -1       801 1.09325E-04-4.02181E-05-2.96197E-05-3.48698E-06-6.76147E-19 5.61896E-19
 -1       802 1.13924E-04-4.26875E-05-3.05322E-05 9.69587E-07-1.26254E-18 9.49583E-19
 -1       803 1.17186E-04-4.21695E-05-3.21691E-05 6.90526E-06-1.84725E-18 7.96540E-19
 -1       804 1.16948E-04-3.62036E-05-3.46535E-05 1.22331E-05-1.48893E-18 7.57175E-19
 -1       805 1.12462E-04-2.57504E-05-3.73495E-05 1.28551E-05-9.29321E-19 1.59564E-18
 -1       806 1.12703E-04-2.59370E-05-3.73186E-05-1.27023E-05 2.11945E-18 9.63753E-19
 -1       807 1.16759E-04-3.62339E-05-3.45465E-05-1.21190E-05-6.18268E-20-2.53958E-19
 -1       808 1.16815E-04-4.20819E-05-3.20528E-05-6.89114E-06-4.98795E-19-5.08842E-19
 -1       809 1.13850E-04-4.26779E-05-3.05098E-05-9.62635E-07-1.14098E-18-1.46149E-18
 -1       810 1.09228E-04-4.01150E-05-2.96234E-05 3.51863E-06 3.71287E-19-5.22975E-19
 -1       811 1.04846E-04-3.66505E-05-2.92280E-05 6.13393E-06 1.46164E-18-9.83632E-19
 -1       812 1.01349E-04-3.34206E-05-2.91127E-05 7.24334E-06 1.71284E-18-2.84076E-19
 -1       813 9.88901E-05-3.09518E-05-2.91166E-05 7.41895E-06 6.64283E-19 1.13828E-18
 -1       814 9.72729E-05-2.92544E-05-2.91507E-05 7.05673E-06 5.03814E-19 3.22915E-19
 -1       815 9.62730E-05-2.81976E-05-2.91750E-05 6.40187E-06 2.74625E-19 9.88754E-19
 -1       816 9.56919E-05-2.76124E-05-2.91767E-05 5.61602E-06-1.02709E-18 2.39742E-18
 -1       817 9.53736E-05-2.73397E-05-2.91572E-05 4.79720E-06-4.54552E-19 1.91631E-18
 -1       818 9.52078E-05-2.72498E-05-2.91245E-05 4.00513E-06-2.72189E-19 1.81094E-18
 -1       819 9.51180E-05-2.72493E-05-2.90864E-05 3.26333E-06-9.06621E-19 1.25149E-18
 -1       820 9.49571E-05-2.71551E-05-2.90587E-05 2.82877E-06-4.84940E-19-4.52357E-19
 -1       821 9.57050E-05-2.68303E-05-2.95179E-05 5.77767E-07 5.49912E-19 1.91292E-19
 -1       822 9.22780E-05-2.47819E-05-2.89270E-05-8.27689E-07 1.66415E-18 1.62768E-18
 -1       823 7.00979E-05-2.82830E-05-1.76957E-05 3.02077E-05-2.20218E-18 2.58406E-18
 -1       824 9.22429E-05-2.47840E-05-2.89111E-05 2.96028E-07 1.27594E-18-4.58450E-18
 -1       825 9.76161E-05-4.51083E-05-2.23458E-05 3.02518E-05-2.57290E-18 2.16967E-18
 -1       826 9.26490E-05-2.50607E-05-2.89665E-05-1.88020E-06 1.13723E-18 1.11989E-18
 -1       827 9.33418E-05-2.56116E-05-2.90276E-05-2.70705E-06 6.03149E-19-2.99208E-18
 -1       828 9.53851E-05-2.83162E-05-2.87438E-05-2.06352E-06 2.14856E-19 7.37104E-19
 -1       829 9.32202E-05-1.96988E-05-3.15103E-05 1.21631E-06-3.86896E-20-2.73870E-19
 -1       830 1.14481E-04-1.61140E-05-4.24753E-05-9.48094E-06 3.39186E-18 3.88841E-19
 -1       831 1.18465E-04-5.41443E-05-2.74929E-05-1.74937E-05 2.60529E-19-3.82881E-18
 -1       832 9.52204E-05-2.44427E-05-3.03325E-05 3.38109E-06 6.46241E-19 7.48609E-20
 -1       833 5.25855E-05-1.44338E-05-1.60523E-05-1.26448E-05 1.58777E-18 1.95929E-19
 -1       834 9.55848E-05-2.54414E-05-3.00618E-05-1.72637E-06-2.94289E-19-3.44534E-19
 -1       835 8.05038E-05-3.43396E-05-1.95237E-05 3.04721E-05 7.94107E-19-3.51188E-18
 -1       836 8.47913E-05-3.78919E-05-1.99587E-05-3.23962E-05-1.30005E-18 4.30941E-19
 -1       837 1.26892E-04-3.99407E-05-3.74613E-05 1.17094E-05-1.25946E-18 2.03812E-18
 -1       838 6.97304E-05-2.50314E-05-1.89289E-05-2.49084E-05 1.49768E-18-5.97966E-19
 -1       839 1.11218E-04-5.16223E-05-2.54361E-05-2.36015E-05-2.16678E-18-1.50865E-19
 -1       840 9.31087E-05-1.94962E-05-3.15494E-05 2.05932E-08-4.54032E-20-4.29540E-19
 -1       841 1.20323E-04-5.27643E-05-2.89907E-05-1.07834E-05-2.28167E-18 1.27186E-18
 -1       842 9.40414E-05-2.12963E-05-3.11772E-05 3.26912E-06 3.71397E-19-1.64295E-19
 -1       843 1.25533E-04-4.17675E-05-3.60734E-05-1.01212E-05 2.51605E-19 1.65406E-18
 -1       844 9.56177E-05-2.83321E-05-2.88367E-05-1.38549E-06 1.54507E-19 3.25060E-19
 -1       845 5.75955E-05-1.47505E-05-1.81909E-05-1.12977E-05-6.43990E-19-6.44539E-21
 -1       846 7.68256E-05-2.86414E-05-2.05325E-05-2.59724E-05-1.30680E-18-2.21360E-19
 -1       847 9.40071E-05-2.12359E-05-3.11897E-05-3.23336E-06-3.32848E-19-2.95858E-19
 -1       848 1.21268E-04-5.06288E-05-3.02908E-05 4.73079E-06 1.99202E-20 2.37853E-18
 -1       849 9.30774E-05-2.55322E-05-2.89481E-05 2.20509E-06 1.43204E-18 2.39963E-19
 -1       850 6.17890E-05-1.90441E-05-1.81173E-05 1.99020E-05-6.62439E-20-3.42532E-19
 -1       851 9.35081E-05-2.02522E-05-3.13975E-05-2.28896E-06-2.14630E-19-4.22253E-19
 -1       852 9.25262E-05-2.50495E-05-2.89188E-05 1.34558E-06 2.13481E-18-3.91469E-18
 -1       853 8.59826E-05-3.36204E-05-2.23249E-05-2.55715E-05 3.76374E-19-9.32107E-19
 -1       854 9.56893E-05-2.80851E-05-2.89732E-05-9.91411E-07 2.37423E-19 1.23333E-19
 -1       855 9.37082E-05-2.60703E-05-2.89869E-05 2.67992E-06 9.78498E-19 1.86001E-18
 -1       856 9.35384E-05-2.02942E-05-3.13916E-05 2.32982E-06 1.74422E-19-3.44238E-19
 -1       857 9.55199E-05-2.58318E-05-2.98656E-05 1.75932E-06 4.46651E-19 1.31549E-19
 -1       858 5.51425E-05-1.40817E-05-1.73807E-05 1.02390E-05-1.76327E-18 1.55894E-19
 -1       859 5.16751E-05-1.22292E-05-1.66887E-05-1.38725E-07 3.10867E-20-3.94995E-19
 -1       860 9.38051E-05-2.59749E-05-2.90683E-05-3.12705E-06-3.63660E-19-1.10217E-18
 -1       861 1.04563E-04-4.48029E-05-2.55820E-05 2.05272E-05-1.01249E-18 3.96490E-18
 -1       862 9.61607E-05-2.68050E-05-2.97238E-05-1.36458E-07-2.10320E-20-1.67873E-19
 -1       863 9.62837E-05-2.76461E-05-2.94161E-05 5.21764E-07 8.22210E-20-2.43447E-19
 -1       864 9.62412E-05-2.81207E-05-2.91945E-05 9.72630E-07 4.93398E-20-2.71744E-20
 -1       865 9.60878E-05-2.83220E-05-2.90425E-05 1.28620E-06 1.22654E-19 2.51405E-19
 -1       866 9.58551E-05-2.83152E-05-2.89457E-05 1.52578E-06 3.14089E-20-5.38973E-22
 -1       867 9.55573E-05-2.81446E-05-2.88912E-05 1.74403E-06-4.72655E-20-9.00481E-20
 -1       868 9.51960E-05-2.78384E-05-2.88676E-05 1.98321E-06-3.99272E-19 1.17215E-19
 -1       869 9.47630E-05-2.74135E-05-2.88641E-05 2.27661E-06-4.41584E-19-2.06093E-19
 -1       870 9.42415E-05-2.68793E-05-2.88695E-05 2.65033E-06-2.32328E-19 1.31760E-19
 -1       871 9.36084E-05-2.62426E-05-2.88711E-05 3.12449E-06-1.93121E-19-7.53905E-20
 -1       872 9.28351E-05-2.55111E-05-2.88532E-05 3.71413E-06-6.11851E-19 4.52658E-19
 -1       873 9.18897E-05-2.47001E-05-2.87955E-05 4.43293E-06-4.38653E-19 5.69748E-19
 -1       874 9.07414E-05-2.38417E-05-2.86713E-05 5.29810E-06-8.11523E-19 9.36100E-19
 -1       875 8.93674E-05-2.29968E-05-2.84445E-05 6.34080E-06 9.73397E-20 1.15124E-18
 -1       876 8.77654E-05-2.22738E-05-2.80679E-05 7.62681E-06-7.09717E-19 8.22282E-19
 -1       877 8.59765E-05-2.18558E-05-2.74805E-05 9.29027E-06 2.30638E-19 3.22972E-19
 -1       878 8.41281E-05-2.20448E-05-2.66064E-05 1.15868E-05 2.36588E-19 4.67661E-19
 -1       879 8.25415E-05-2.33631E-05-2.53584E-05 1.49534E-05 3.63981E-19 2.53473E-19
 -1       880 8.20096E-05-2.66140E-05-2.36825E-05 1.99370E-05-2.46864E-19-1.16902E-18
 -1       881 8.62252E-05-3.41749E-05-2.22254E-05 2.57851E-05-2.13426E-18 2.79819E-18
 -1       882 8.21705E-05-2.48942E-05-2.45216E-05-1.75123E-05 6.44609E-20-2.07521E-19
 -1       883 8.32099E-05-2.26207E-05-2.59647E-05-1.33791E-05 6.75339E-20-1.73406E-18
 -1       884 8.49847E-05-2.18763E-05-2.70460E-05-1.05337E-05 2.12574E-18-1.03745E-18
 -1       885 8.68354E-05-2.19811E-05-2.77946E-05-8.54909E-06 2.39748E-18-2.37720E-18
 -1       886 8.85494E-05-2.25267E-05-2.82953E-05-7.05778E-06 1.50262E-18-2.44236E-18
 -1       887 9.00420E-05-2.32668E-05-2.86179E-05-5.86176E-06 1.59176E-18-1.85808E-18
 -1       888 9.12941E-05-2.40526E-05-2.88177E-05-4.85995E-06 1.46364E-18 5.81168E-19
 -1       889 9.23106E-05-2.47887E-05-2.89378E-05-3.99743E-06 2.44481E-18 2.32795E-19
 -1       890 9.48088E-05-2.74971E-05-2.88478E-05-2.71003E-06-9.96593E-20 3.59413E-19
 -1       891 9.50948E-05-2.78207E-05-2.88317E-05-2.33902E-06 1.98676E-19 6.61722E-19
 -1       892 9.42157E-05-2.68360E-05-2.88770E-05-3.77860E-06-5.39408E-19 3.28129E-20
 -1       893 9.39584E-05-2.65988E-05-2.88684E-05-4.50031E-06 1.12834E-20 1.31653E-19
 -1       894 9.37959E-05-2.65284E-05-2.88288E-05-5.35104E-06 3.33212E-19 2.75866E-19
 -1       895 9.38250E-05-2.67470E-05-2.87475E-05-6.32147E-06 3.18698E-19-1.77624E-20
 -1       896 9.41970E-05-2.74205E-05-2.86182E-05-7.38465E-06 6.97823E-20 5.35414E-19
 -1       897 9.51379E-05-2.87636E-05-2.84458E-05-8.48071E-06-2.40057E-19 5.58182E-19
 -1       898 9.69660E-05-3.10280E-05-2.82590E-05-9.47828E-06-1.07262E-18 9.74233E-21
 -1       899 1.00095E-04-3.44459E-05-2.81349E-05-1.00772E-05-8.84275E-19 5.13567E-19
 -1       900 1.04877E-04-3.90008E-05-2.82301E-05-9.74182E-06-4.99953E-19 8.44933E-19
 -1       901 1.11463E-04-4.41685E-05-2.88422E-05-7.50421E-06-1.05242E-18 1.11221E-18
 -1       902 1.24316E-04-4.61904E-05-3.35254E-05 6.01841E-06-1.71133E-18 2.30304E-18
 -1       903 1.11728E-04-4.43021E-05-2.88668E-05 7.53113E-06-1.29991E-19 1.16230E-18
 -1       904 1.04914E-04-3.90102E-05-2.82630E-05 9.81212E-06 1.26808E-18 7.33032E-19
 -1       905 1.00062E-04-3.43381E-05-2.81696E-05 1.00540E-05 1.05736E-18 1.49395E-18
 -1       906 9.70133E-05-3.09937E-05-2.82930E-05 9.44711E-06 7.03250E-19 1.10618E-18
 -1       907 9.52113E-05-2.87490E-05-2.84832E-05 8.48332E-06 6.80007E-19 1.13314E-18
 -1       908 9.42736E-05-2.73915E-05-2.86636E-05 7.38522E-06-3.40684E-19 3.57994E-18
 -1       909 9.38961E-05-2.66843E-05-2.88049E-05 6.30266E-06-6.70393E-19 4.11185E-18
 -1       910 9.38497E-05-2.64078E-05-2.89033E-05 5.29711E-06-6.10919E-20 2.18105E-18
 -1       911 9.39579E-05-2.63753E-05-2.89639E-05 4.39126E-06-5.67962E-20 2.62200E-18
 -1       912 9.41636E-05-2.64915E-05-2.90018E-05 3.58419E-06-2.19629E-19 2.52040E-18
 -1       913 9.60382E-05-2.68026E-05-2.96721E-05 2.50652E-07 6.09827E-19 2.14246E-19
 -1       914 9.32066E-05-1.96803E-05-3.15130E-05-1.16879E-06-1.75419E-19-2.67269E-19
 -1       915 9.22175E-05-2.47620E-05-2.89098E-05-2.77378E-06-3.83908E-19-1.06878E-18
 -1       916 9.15009E-05-2.42656E-05-2.88155E-05-1.57770E-06 1.19131E-18-2.94109E-19
 -1       917 9.12642E-05-2.41370E-05-2.87692E-05-2.30678E-07 3.14595E-18-1.02780E-18
 -1       918 9.50084E-05-2.34436E-05-3.06680E-05-2.33496E-06-2.83441E-19-3.95627E-19
 -1       919 6.74452E-05-1.83988E-05-2.09263E-05-1.46853E-05-4.19188E-19-2.68595E-19
 -1       920 9.58143E-05-2.83924E-05-2.88951E-05-1.59391E-06 2.89875E-19 7.08658E-19
 -1       921 9.57977E-05-2.54889E-05-3.01337E-05-1.08018E-06-2.60742E-19-3.33408E-19
 -1       922 9.86065E-05-4.19014E-05-2.41974E-05-2.39736E-05-9.47079E-19 5.11555E-19
 -1       923 9.45101E-05-2.71552E-05-2.88664E-05-3.18464E-06-2.68610E-19 4.86856E-19
 -1       924 6.98688E-05-2.30030E-05-1.99198E-05 2.17728E-05-3.96212E-19-1.53249E-18
 -1       925 9.43470E-05-2.66165E-05-2.90274E-05 2.85775E-06 1.38680E-18 2.71040E-18
 -1       926 1.09317E-04-4.65819E-05-2.68718E-05-1.63225E-05-1.53524E-18 4.12739E-19
 -1       927 9.52528E-05-2.41533E-05-3.04713E-05 2.18708E-06 4.23722E-19-4.08428E-20
 -1       928 9.59889E-05-2.83504E-05-2.89879E-05-1.34255E-06 2.57112E-19 5.11574E-19
 -1       929 5.82623E-05-1.32751E-05-1.91647E-05-9.35875E-07-1.38216E-18-7.02005E-19
 -1       930 6.88666E-05-2.08193E-05-2.04852E-05-1.85425E-05-3.58197E-19-1.06076E-18
 -1       931 9.20676E-05-2.48477E-05-2.88091E-05 2.24955E-06 1.24308E-19-1.37189E-18
 -1       932 9.31610E-05-2.54418E-05-2.90219E-05-3.56563E-06 1.23840E-18-2.38949E-18
 -1       933 9.53607E-05-2.80959E-05-2.88278E-05-2.04988E-06 3.05719E-19 4.10116E-19
 -1       934 1.17805E-04-4.75493E-05-3.00960E-05-3.16171E-06-1.61941E-18 1.59016E-18
 -1       935 9.46813E-05-2.24918E-05-3.09385E-05 1.18419E-06-2.50850E-20-8.97771E-20
 -1       936 7.64715E-05-2.54784E-05-2.17646E-05 2.12640E-05 5.28502E-20 1.53882E-18
 -1       937 9.56828E-05-2.54554E-05-3.00978E-05 1.34082E-06 3.85457E-19 1.11304E-19
 -1       938 9.61426E-05-2.76379E-05-2.93592E-05-4.96380E-07 1.55692E-19 2.23256E-19
 -1       939 6.00519E-05-1.47253E-05-1.93177E-05 9.30573E-06-5.42916E-19 4.00276E-19
 -1       940 9.14678E-05-2.43443E-05-2.87673E-05 1.10028E-06 1.96208E-18-3.95671E-18
 -1       941 9.45311E-05-2.21416E-05-3.10240E-05 4.16580E-07-2.29555E-20-6.22034E-19
 -1       942 6.35585E-05-1.48219E-05-2.07808E-05-7.09223E-06-1.83208E-18-6.30487E-19
 -1       943 9.54565E-05-2.50221E-05-3.01861E-05 2.03558E-06 4.53721E-19 9.91546E-20
 -1       944 9.46904E-05-2.25625E-05-3.09112E-05-1.76690E-06-1.42568E-19-1.82981E-19
 -1       945 9.28046E-05-2.54329E-05-2.88739E-05 2.96528E-06-5.09787E-19 1.96622E-18
 -1       946 9.56020E-05-2.82958E-05-2.88455E-05-1.81393E-06 4.65758E-20 6.20839E-19
 -1       947 9.64889E-05-2.77346E-05-2.94661E-05 5.41425E-07 1.72405E-20-1.69285E-19
 -1       948 9.63947E-05-2.81402E-05-2.92519E-05 8.54870E-07 2.29925E-19-2.36137E-19
 -1       949 9.61585E-05-2.82602E-05-2.90993E-05 1.08377E-06-1.48635E-19-2.59827E-19
 -1       950 9.58118E-05-2.81563E-05-2.89952E-05 1.27121E-06-5.35061E-20-1.40008E-19
 -1       951 9.53683E-05-2.78716E-05-2.89272E-05 1.45270E-06 1.50171E-20-1.78865E-19
 -1       952 9.48279E-05-2.74344E-05-2.88830E-05 1.65614E-06-5.27995E-19-1.39745E-19
 -1       953 9.41781E-05-2.68615E-05-2.88500E-05 1.90179E-06-1.22006E-19 6.49712E-21
 -1       954 9.33958E-05-2.61628E-05-2.88142E-05 2.20467E-06-8.41449E-20-1.28679E-19
 -1       955 9.24514E-05-2.53480E-05-2.87587E-05 2.57305E-06-2.28659E-19 2.57026E-20
 -1       956 9.13040E-05-2.44245E-05-2.86628E-05 3.01118E-06-6.36912E-19 6.20280E-19
 -1       957 8.99066E-05-2.34083E-05-2.84995E-05 3.52506E-06-6.10846E-19-4.83539E-22
 -1       958 8.82030E-05-2.23273E-05-2.82327E-05 4.12650E-06-1.80888E-19 8.66324E-20
 -1       959 8.61224E-05-2.12240E-05-2.78141E-05 4.85086E-06 3.58111E-20 1.97315E-19
 -1       960 8.35747E-05-2.01647E-05-2.71765E-05 5.78429E-06-4.56579E-19 4.50869E-19
 -1       961 8.04340E-05-1.92441E-05-2.62247E-05 7.10931E-06 6.07030E-19 4.88775E-19
 -1       962 7.65068E-05-1.85940E-05-2.48142E-05 9.20549E-06 1.72667E-19 2.58238E-19
 -1       963 7.15169E-05-1.84513E-05-2.27090E-05 1.25413E-05-1.14622E-18 2.83713E-19
 -1       964 7.40198E-05-1.84980E-05-2.37682E-05-1.09777E-05-4.53851E-19-1.96399E-18
 -1       965 9.55428E-05-3.65301E-05-2.52588E-05 1.92842E-05 1.16760E-18 5.43176E-18
 -1       966 6.37110E-05-1.63916E-05-2.01045E-05 1.22600E-05-1.32399E-18 2.11646E-19
 -1       967 7.84146E-05-1.88665E-05-2.55180E-05-8.19330E-06 1.88899E-18 2.35889E-20
 -1       968 8.19679E-05-1.96335E-05-2.67153E-05-6.50082E-06 1.75092E-18 7.05308E-20
 -1       969 8.48281E-05-2.05933E-05-2.75294E-05-5.37026E-06 2.60037E-18-8.25306E-19
 -1       970 8.71513E-05-2.16326E-05-2.80797E-05-4.52507E-06 2.83554E-18 2.64338E-19
 -1       971 8.90311E-05-2.26567E-05-2.84467E-05-3.83306E-06 1.95355E-18 6.04313E-19
 -1       972 9.05469E-05-2.36046E-05-2.86898E-05-3.23069E-06 1.74202E-18-2.42462E-19
 -1       973 9.45254E-05-2.21309E-05-3.10259E-05-3.92847E-07 4.20370E-20-3.15002E-19
 -1       974 9.23820E-05-2.55582E-05-2.86388E-05-4.52432E-06 9.95721E-20 3.45449E-19
 -1       975 9.29710E-05-2.59294E-05-2.87321E-05-3.71621E-06-4.00802E-19 3.09171E-19
 -1       976 9.15119E-05-2.55420E-05-2.82725E-05-6.75642E-06 2.66792E-19 9.77444E-19
 -1       977 9.15115E-05-2.62356E-05-2.79747E-05-8.25215E-06 5.19684E-19 2.09728E-19
 -1       978 9.21370E-05-2.77333E-05-2.76004E-05-1.00405E-05-8.02975E-19 6.10222E-19
 -1       979 9.37908E-05-3.03671E-05-2.71808E-05-1.20862E-05-1.22796E-18 9.14266E-20
 -1       980 9.72816E-05-3.46863E-05-2.68419E-05-1.41212E-05-7.49879E-19-7.11792E-21
 -1       981 1.02033E-04-3.99345E-05-2.66150E-05-1.58528E-05-1.08700E-18 4.61514E-19
 -1       982 9.59275E-05-2.56328E-05-3.01254E-05 7.17612E-07 3.34498E-19 1.53996E-19
 -1       983 9.22524E-05-2.77456E-05-2.76471E-05 1.00445E-05 5.52302E-19 3.43570E-18
 -1       984 9.16301E-05-2.62274E-05-2.80299E-05 8.24868E-06-1.03462E-18 4.29027E-18
 -1       985 9.16226E-05-2.54996E-05-2.83387E-05 6.74541E-06 3.72491E-19 2.86524E-18
 -1       986 9.19497E-05-2.52804E-05-2.85725E-05 5.49545E-06-6.27722E-19 2.19474E-18
 -1       987 9.24179E-05-2.53574E-05-2.87411E-05 4.45907E-06-1.20006E-19 3.08644E-18
 -1       988 9.45342E-05-2.21879E-05-3.10021E-05-1.08860E-06-2.97654E-20-3.64278E-19
 -1       989 9.01714E-05-2.34120E-05-2.86102E-05-9.77896E-07 2.00540E-18-1.12305E-18
 -1       990 8.83051E-05-3.23636E-05-2.39364E-05-2.09475E-05-9.10051E-19 1.76544E-19
 -1       991 9.39932E-05-3.03966E-05-2.72397E-05 1.19941E-05 1.06630E-18 1.72331E-18
 -1       992 9.60331E-05-2.57269E-05-3.01307E-05-5.28243E-07-1.27243E-19-9.60828E-20
 -1       993 9.43103E-05-3.28053E-05-2.63809E-05 1.51756E-05 2.81148E-18 2.68219E-18
 -1       994 9.49470E-05-2.31765E-05-3.07591E-05 1.81031E-06 2.36205E-19 8.71921E-21
 -1       995 9.18593E-05-2.53810E-05-2.84907E-05-5.52630E-06 2.99263E-19 6.41467E-19
 -1       996 9.46437E-05-2.73519E-05-2.88393E-05-2.17132E-06 2.46215E-19 5.46422E-19
 -1       997 9.63883E-05-2.69587E-05-2.97555E-05 9.58704E-08 5.69428E-20 4.76777E-20
 -1       998 9.61085E-05-2.81214E-05-2.91374E-05-1.00071E-06-9.63762E-20 4.41716E-19
 -1       999 9.61479E-05-2.83150E-05-2.90713E-05-1.19827E-06 1.73632E-19 2.76226E-19
 -1      1000 6.65699E-05-1.61591E-05-2.15480E-05-8.78617E-06-1.06546E-18-8.91443E-19
 -1      1001 8.64663E-05-2.91104E-05-2.45477E-05 1.80503E-05 7.21780E-18 3.18375E-18
 -1      1002 9.07721E-05-2.40039E-05-2.86143E-05 2.16133E-06 4.65574E-19-1.35669E-18
 -1      1003 9.16655E-05-2.46865E-05-2.87038E-05 3.13602E-06-1.32177E-19 6.53655E-19
 -1      1004 9.51080E-05-2.77590E-05-2.88638E-05-1.86720E-06-6.69812E-20 3.12550E-19
 -1      1005 9.56588E-05-2.47042E-05-3.04081E-05 8.20660E-07 4.77576E-20 1.84578E-19
 -1      1006 9.55695E-05-2.43048E-05-3.05410E-05 4.61500E-07 3.40206E-20-3.36119E-19
 -1      1007 9.35634E-05-2.63943E-05-2.87868E-05-3.07113E-06-1.96035E-19 8.13233E-19
 -1      1008 9.62911E-05-2.69037E-05-2.97376E-05-2.43531E-08 1.19003E-19 6.59074E-19
 -1      1009 7.10919E-05-1.97683E-05-2.19586E-05 1.46026E-05 5.67094E-19 5.67601E-19
 -1      1010 9.02000E-05-2.35179E-05-2.85784E-05 6.71061E-07 2.88551E-18-1.40581E-18
 -1      1011 8.06922E-05-2.57286E-05-2.35245E-05-1.78384E-05-9.58888E-19 8.67342E-19
 -1      1012 9.41270E-05-2.68855E-05-2.88178E-05-2.56416E-06-3.28302E-19 7.32448E-19
 -1      1013 9.58682E-05-2.82760E-05-2.89681E-05-1.41531E-06 3.59069E-19 3.09029E-19
 -1      1014 7.57921E-05-2.03848E-05-2.37420E-05-1.20880E-05-1.28933E-18-1.88502E-19
 -1      1015 9.64091E-05-2.81506E-05-2.92538E-05 6.20348E-07-8.61066E-20-4.15157E-19
 -1      1016 9.60777E-05-2.81621E-05-2.91067E-05 7.56713E-07 6.64724E-20-3.01013E-19
 -1      1017 9.56196E-05-2.79498E-05-2.90013E-05 8.73313E-07-4.19104E-20-1.00645E-19
 -1      1018 9.50426E-05-2.75510E-05-2.89250E-05 9.89344E-07-8.88509E-20-1.41662E-19
 -1      1019 9.43456E-05-2.69961E-05-2.88642E-05 1.11687E-06-1.79441E-19 1.21367E-19
 -1      1020 9.35113E-05-2.62997E-05-2.88051E-05 1.26277E-06-6.63062E-19-4.02678E-19
 -1      1021 9.25101E-05-2.54719E-05-2.87307E-05 1.42954E-06 1.00990E-19-4.15685E-19
 -1      1022 9.13121E-05-2.45315E-05-2.86206E-05 1.60617E-06-1.47487E-19-6.89206E-19
 -1      1023 8.98608E-05-2.34786E-05-2.84501E-05 1.78933E-06-8.12889E-19-1.56707E-19
 -1      1024 8.81025E-05-2.23377E-05-2.81856E-05 1.96339E-06-7.97133E-20-1.44725E-19
 -1      1025 8.59509E-05-2.11259E-05-2.77830E-05 2.11656E-06 2.33113E-19 2.98188E-19
 -1      1026 8.32778E-05-1.98577E-05-2.71811E-05 2.25623E-06-3.07588E-19 8.64902E-19
 -1      1027 7.98773E-05-1.85389E-05-2.62891E-05 2.41647E-06-3.17690E-20 1.14169E-18
 -1      1028 7.54095E-05-1.71431E-05-2.49681E-05 2.68483E-06 1.30999E-19 5.40032E-19
 -1      1029 6.91494E-05-1.54537E-05-2.29841E-05 3.28277E-06-2.80410E-19-4.34480E-19
 -1      1030 7.23543E-05-1.63501E-05-2.40026E-05-2.96679E-06 1.11111E-18-1.73485E-20
 -1      1031 7.76399E-05-1.78019E-05-2.56458E-05-2.53236E-06 2.01361E-18-2.56258E-20
 -1      1032 8.15697E-05-1.91256E-05-2.67621E-05-2.36436E-06 2.20350E-18 5.57605E-19
 -1      1033 8.46003E-05-2.03646E-05-2.75307E-05-2.20401E-06 2.12821E-18 2.45440E-19
 -1      1034 8.70063E-05-2.15465E-05-2.80570E-05-2.05259E-06 2.15217E-18-3.55869E-18
 -1      1035 8.87173E-05-2.25145E-05-2.83741E-05-1.45156E-06 2.60767E-18-3.57460E-18
 -1      1036 9.55377E-05-2.41693E-05-3.05855E-05-6.31136E-09 6.98689E-20-6.72765E-19
 -1      1037 8.96912E-05-2.39435E-05-2.81781E-05 5.29681E-06 4.95778E-19 3.41217E-18
 -1      1038 9.15190E-05-2.49039E-05-2.85494E-05-3.32197E-06-1.93462E-19 8.78170E-19
 -1      1039 8.79264E-05-2.44769E-05-2.71927E-05-8.80219E-06 1.84913E-19 1.49634E-18
 -1      1040 8.86349E-05-2.39779E-05-2.77107E-05-6.80808E-06 3.53228E-19 1.39375E-18
 -1      1041 8.85014E-05-2.84118E-05-2.57401E-05-1.49957E-05-7.62978E-19-3.23673E-19
 -1      1042 6.71848E-05-1.51712E-05-2.22482E-05 2.68768E-06-6.42719E-19 1.47505E-18
 -1      1043 8.87900E-05-2.39633E-05-2.77845E-05 6.78453E-06 5.86759E-19 2.73933E-18
 -1      1044 8.95503E-05-2.39998E-05-2.80936E-05-5.30853E-06 1.40104E-20 1.34728E-18
 -1      1045 9.65554E-05-2.72011E-05-2.97234E-05 1.90428E-07-2.28625E-19-1.95411E-19
 -1      1046 8.81164E-05-2.45104E-05-2.72624E-05 8.76359E-06-2.76908E-19 4.70228E-18
 -1      1047 9.06163E-05-2.41942E-05-2.84654E-05 4.15620E-06 1.36558E-19 2.44364E-18
 -1      1048 8.76864E-05-2.58032E-05-2.65246E-05-1.14804E-05-3.88522E-19 5.59613E-19
 -1      1049 9.62596E-05-2.63077E-05-2.99799E-05 1.94254E-07 9.40119E-21 3.80619E-19
 -1      1050 8.78599E-05-2.57761E-05-2.65999E-05 1.12812E-05-2.54962E-18 1.86653E-18
 -1      1051 9.55181E-05-2.80780E-05-2.89029E-05-1.62613E-06 2.84811E-19 1.87960E-19
 -1      1052 9.64030E-05-2.77045E-05-2.94420E-05-5.57384E-07 6.10615E-20 6.03459E-19
 -1      1053 9.62660E-05-2.61061E-05-3.00696E-05-1.72884E-07 1.53009E-19-2.49996E-20
 -1      1054 9.63377E-05-2.81464E-05-2.92248E-05-9.29896E-07 2.72264E-19 7.73836E-20
 -1      1055 9.05421E-05-2.43593E-05-2.83643E-05-4.17959E-06 1.59232E-19 1.40182E-18
 -1      1056 9.65837E-05-2.78553E-05-2.94553E-05 4.40309E-07-7.18513E-20-4.11440E-19
 -1      1057 8.91960E-05-2.30319E-05-2.83539E-05 1.92841E-06 1.41500E-18-5.59001E-19
 -1      1058 9.46829E-05-2.73369E-05-2.88626E-05-1.50553E-06 2.17009E-19 5.56386E-19
 -1      1059 9.40219E-05-2.67933E-05-2.88122E-05-1.79165E-06-8.67360E-20 6.37224E-19
 -1      1060 9.54186E-05-2.40158E-05-3.06026E-05-7.11815E-07 6.10297E-20-1.42712E-19
 -1      1061 7.30775E-05-1.70139E-05-2.40279E-05-4.34327E-06-8.64249E-19-9.92026E-19
 -1      1062 9.24372E-05-2.55342E-05-2.86728E-05-2.66825E-06-4.65908E-19 5.33590E-19
 -1      1063 8.12004E-05-2.45027E-05-2.43502E-05 1.51322E-05 6.80612E-18 8.73217E-18
 -1      1064 8.87047E-05-2.26041E-05-2.83279E-05 2.96221E-07 3.97008E-18-1.22665E-20
 -1      1065 9.64163E-05-2.81643E-05-2.92511E-05-7.53215E-07 2.63203E-19-9.02419E-20
 -1      1066 9.61344E-05-2.82305E-05-2.91015E-05-9.40958E-07 3.39397E-19-2.94914E-19
 -1      1067 9.65106E-05-2.73449E-05-2.96432E-05-2.83668E-07 2.05438E-19 2.02086E-19
 -1      1068 9.58896E-05-2.80428E-05-2.90773E-05 3.06904E-07-7.75171E-20-1.22437E-19
 -1      1069 9.53377E-05-2.77264E-05-2.89763E-05 3.40279E-07-1.92786E-19-1.35277E-19
 -1      1070 9.46561E-05-2.72279E-05-2.88970E-05 3.69785E-07-4.52603E-19-2.53702E-19
 -1      1071 9.38325E-05-2.65746E-05-2.88248E-05 3.84572E-07-3.66837E-19-4.89580E-19
 -1      1072 9.28826E-05-2.58105E-05-2.87447E-05 3.80377E-07 7.34141E-21-1.49302E-19
 -1      1073 9.17324E-05-2.49085E-05-2.86368E-05 3.59423E-07 3.72921E-20-3.38045E-19
 -1      1074 9.03470E-05-2.38992E-05-2.84773E-05 2.74923E-07 1.67841E-19-2.74503E-19
 -1      1075 8.87174E-05-2.28229E-05-2.82405E-05 1.02531E-07-2.60377E-19 6.42861E-19
 -1      1076 8.67540E-05-2.16839E-05-2.78877E-05-1.98467E-07 4.80914E-19 1.14393E-18
 -1      1077 8.43857E-05-2.05244E-05-2.73711E-05-6.86195E-07 3.65241E-19 1.07032E-18
 -1      1078 8.14579E-05-1.93475E-05-2.66210E-05-1.43396E-06-4.98234E-19 5.78657E-19
 -1      1079 7.77806E-05-1.81446E-05-2.55575E-05-2.59506E-06-3.53207E-19 1.87239E-19
 -1      1080 9.63168E-05-2.61463E-05-3.00744E-05 1.01659E-07 7.51183E-22-4.78558E-19
 -1      1081 8.84836E-05-2.30251E-05-2.80543E-05-3.36936E-06 3.34662E-19-4.43207E-19
 -1      1082 8.99171E-05-2.37907E-05-2.83403E-05-2.54186E-06 4.53844E-20-4.65537E-20
 -1      1083 7.96069E-05-1.86771E-05-2.61115E-05 1.99660E-06 1.92650E-18 2.49393E-18
 -1      1084 8.29362E-05-1.98344E-05-2.70431E-05 1.12436E-06 1.01327E-18-2.96794E-19
 -1      1085 8.56140E-05-2.09784E-05-2.76982E-05 4.92365E-07-4.37584E-19-1.30024E-18
 -1      1086 8.73294E-05-2.18469E-05-2.80575E-05 3.66613E-07 4.68869E-19-8.32943E-19
 -1      1087 7.40149E-05-1.80327E-05-2.39560E-05 7.82619E-06 1.66493E-18 2.65261E-18
 -1      1088 9.52555E-05-2.77785E-05-2.89190E-05-1.28617E-06 7.35041E-20 6.41418E-19
 -1      1089 9.64711E-05-2.65702E-05-2.99569E-05 7.01759E-10-4.19627E-20-4.45021E-19
 -1      1090 8.68817E-05-2.23794E-05-2.76435E-05-4.51672E-06 1.54962E-19-8.93164E-19
 -1      1091 9.65309E-05-2.78785E-05-2.94226E-05-5.66982E-07 5.10460E-19-2.54846E-19
 -1      1092 8.54587E-05-2.20572E-05-2.71753E-05 6.18574E-06-3.05891E-19-7.33085E-20
 -1      1093 7.98882E-05-2.11674E-05-2.51543E-05-1.01499E-05-5.76676E-19-3.24543E-19
 -1      1094 8.24209E-05-2.11050E-05-2.62786E-05-7.14419E-06-1.78502E-19-4.91060E-19
 -1      1095 8.70659E-05-2.23648E-05-2.77281E-05 4.57910E-06 1.09800E-19 1.68735E-18
 -1      1096 9.66451E-05-2.74740E-05-2.96443E-05 1.28334E-07-3.09165E-21-9.52861E-20
 -1      1097 8.48797E-05-2.17019E-05-2.70742E-05-5.61861E-06-1.93602E-19-8.83759E-19
 -1      1098 7.49521E-05-1.72695E-05-2.47252E-05 2.02849E-06 1.99203E-18 2.27818E-18
 -1      1099 8.35792E-05-2.20928E-05-2.63675E-05 8.41011E-06-1.68608E-18 8.46183E-19
 -1      1100 9.65780E-05-2.79770E-05-2.94001E-05 2.08988E-07-5.95088E-20 6.95648E-20
 -1      1101 9.63073E-05-2.81388E-05-2.92150E-05 2.64576E-07 3.23767E-20-3.58495E-20
 -1      1102 9.32737E-05-2.61804E-05-2.87544E-05-2.16718E-06-3.75206E-19 5.80739E-19
 -1      1103 9.57441E-05-2.80883E-05-2.89952E-05-1.10706E-06 1.04778E-19 2.42845E-19
 -1      1104 9.11969E-05-2.46094E-05-2.85371E-05-1.92769E-06-3.18090E-19 4.52002E-19
 -1      1105 9.41427E-05-2.68599E-05-2.88356E-05-9.50870E-07 4.18204E-21 5.40623E-19
 -1      1106 8.78947E-05-2.23800E-05-2.80857E-05 2.21591E-06 1.46282E-18 1.06301E-18
 -1      1107 9.48747E-05-2.74302E-05-2.89043E-05-7.86197E-07 7.75370E-20-1.07968E-20
 -1      1108 8.86345E-05-2.29388E-05-2.81589E-05 3.42427E-06 6.89024E-19 8.09560E-19
 -1      1109 9.65933E-05-2.79252E-05-2.94291E-05-3.44405E-07 3.27090E-19-5.76740E-19
 -1      1110 9.63765E-05-2.81590E-05-2.92359E-05-4.74626E-07 1.62926E-19-2.57166E-19
 -1      1111 9.50237E-05-2.75145E-05-2.89325E-05-3.02849E-07-2.64249E-19 1.70743E-19
 -1      1112 9.23993E-05-2.54727E-05-2.86881E-05-6.97154E-07-3.29945E-19 1.77778E-19
 -1      1113 9.66227E-05-2.74435E-05-2.96477E-05-2.09731E-07 6.13923E-19-5.43167E-19
 -1      1114 8.18691E-05-2.30973E-05-2.52470E-05 1.18261E-05-1.05743E-18 4.79009E-18
 -1      1115 9.56358E-05-2.79140E-05-2.90239E-05-2.41916E-07 4.08748E-20-2.19188E-20
 -1      1116 9.32902E-05-2.61762E-05-2.87630E-05-1.19056E-06-2.25434E-19 8.70849E-19
 -1      1117 7.77956E-05-1.93097E-05-2.50174E-05 7.84471E-06 1.37967E-18 4.57913E-18
 -1      1118 9.61278E-05-2.81225E-05-2.91452E-05-2.01020E-07 2.67522E-20 9.19702E-20
 -1      1119 9.23542E-05-2.54429E-05-2.86734E-05-1.49473E-06-2.03848E-19 6.98029E-19
 -1      1120 1.16764E-04 2.57303E-10-4.18222E-05-4.14498E-05-8.68209E-20 4.06809E-18
 -1      1121 8.85924E-05 7.18431E-11-3.72279E-05-2.41730E-05-5.19866E-20 1.25319E-18
 -1      1122 8.40475E-05 4.14134E-11-3.57547E-05-1.78906E-05-4.27222E-20-6.19128E-20
 -1      1123 8.23315E-05 3.20397E-11-3.50710E-05-1.38507E-05-3.21873E-20-7.65910E-19
 -1      1124 8.15521E-05 2.73536E-11-3.47457E-05-1.05437E-05-2.29361E-20-1.11214E-18
 -1      1125 8.11647E-05 2.46238E-11-3.45876E-05-7.64795E-06-1.88465E-20-1.26621E-18
 -1      1126 8.09675E-05 2.29667E-11-3.45094E-05-4.98430E-06-6.60090E-21-1.32434E-18
 -1      1127 8.08727E-05 2.20691E-11-3.44732E-05-2.43412E-06-4.75463E-21-1.32716E-18
 -1      1128 8.08459E-05 2.17967E-11-3.44632E-05 5.27851E-08 3.09117E-21-1.32449E-18
 -1      1129 8.08768E-05 2.21122E-11-3.44746E-05 2.54216E-06 1.25731E-20-1.31409E-18
 -1      1130 8.09761E-05 2.30653E-11-3.45122E-05 5.10050E-06 1.09916E-20-1.27278E-18
 -1      1131 8.11799E-05 2.47840E-11-3.45918E-05 7.78027E-06 1.79664E-20-1.11932E-18
 -1      1132 8.15718E-05 2.76551E-11-3.47520E-05 1.07037E-05 2.55169E-20-9.20923E-19
 -1      1133 8.23547E-05 3.25030E-11-3.50809E-05 1.40550E-05 3.16314E-20-5.61245E-19
 -1      1134 8.40447E-05 4.19012E-11-3.57744E-05 1.81409E-05 4.58457E-20 1.60619E-19
 -1      1135 8.82911E-05 6.66653E-11-3.72981E-05 2.40159E-05 4.78574E-20 1.52709E-18
 -1      1136 1.06531E-04 1.63736E-10-4.06011E-05 3.61819E-05 9.06325E-20 4.36201E-18
 -1      1137 1.30104E-04-2.57301E-05-4.02373E-05-2.60947E-05-3.37437E-19 5.90933E-18
 -1      1138 9.73388E-05-2.88272E-05-3.15413E-05-6.82345E-07-1.14773E-19 5.10708E-18
 -1      1139 9.00311E-05-2.69882E-05-2.78545E-05 3.85945E-07-3.02153E-20 3.96476E-18
 -1      1140 8.81119E-05-2.65315E-05-2.66025E-05 2.49710E-07 2.50801E-21 3.25110E-18
 -1      1141 8.77473E-05-2.64032E-05-2.63445E-05 1.64438E-07-4.43038E-21 2.67665E-18
 -1      1142 8.81046E-05-2.64795E-05-2.64292E-05 1.16303E-07-6.90787E-20 2.32333E-18
 -1      1143 8.87978E-05-2.66664E-05-2.66344E-05 8.54190E-08-2.18525E-20 1.65966E-18
 -1      1144 8.96339E-05-2.69052E-05-2.68840E-05 6.39553E-08-1.10702E-20 1.78408E-18
 -1      1145 9.05113E-05-2.71618E-05-2.71466E-05 4.81166E-08 4.40187E-20 1.62980E-18
 -1      1146 9.13795E-05-2.74189E-05-2.74075E-05 3.60781E-08-5.97857E-20 1.01252E-18
 -1      1147 9.22213E-05-2.76701E-05-2.76616E-05 2.69411E-08-4.08998E-20 1.96889E-19
 -1      1148 9.30426E-05-2.79166E-05-2.79108E-05 2.02681E-08 4.77232E-20 5.83516E-19
 -1      1149 9.38680E-05-2.81653E-05-2.81622E-05 1.58927E-08-5.44863E-20 9.27580E-19
 -1      1150 9.47373E-05-2.84281E-05-2.84279E-05 1.38563E-08 4.09295E-20 3.40891E-19
 -1      1151 9.57046E-05-2.87209E-05-2.87242E-05 1.44068E-08-9.45947E-20 5.25266E-19
 -1      1152 9.68381E-05-2.90641E-05-2.90717E-05 1.80305E-08-1.21019E-19 1.09462E-18
 -1      1153 9.82198E-05-2.94821E-05-2.94949E-05 2.54995E-08-4.24732E-20 2.39813E-19
 -1      1154 9.99453E-05-3.00032E-05-3.00226E-05 3.79089E-08 1.64745E-19 9.33801E-19
 -1      1155 1.02120E-04-3.06585E-05-3.06858E-05 5.66372E-08-1.94003E-19-2.69251E-19
 -1      1156 1.04851E-04-3.14788E-05-3.15144E-05 8.30762E-08 6.22561E-20-4.63618E-20
 -1      1157 1.08220E-04-3.24876E-05-3.25290E-05 1.17808E-07 4.65372E-21 2.64698E-19
 -1      1158 1.12243E-04-3.36876E-05-3.37260E-05 1.58631E-07-1.60026E-20 1.11729E-18
 -1      1159 1.16784E-04-3.50356E-05-3.50504E-05 1.96604E-07 1.75132E-19 3.34991E-18
 -1      1160 1.21424E-04-3.64044E-05-3.63582E-05 2.09667E-07-1.48560E-19 3.29856E-18
 -1      1161 1.25298E-04-3.75349E-05-3.73777E-05 1.56170E-07 3.33850E-20 3.61371E-18
 -1      1162 1.26998E-04-3.80084E-05-3.77062E-05-2.17358E-08 2.11216E-19 4.94208E-18
 -1      1163 1.24770E-04-3.73106E-05-3.69066E-05-3.63164E-07 1.53578E-19 6.47303E-18
 -1      1164 1.17355E-04-3.50923E-05-3.47580E-05-8.06262E-07 4.79434E-20 4.94392E-18
 -1      1165 1.05503E-04-3.16104E-05-3.16021E-05-1.10998E-06 9.87455E-20 4.80141E-18
 -1      1166 9.31081E-05-2.80281E-05-2.84819E-05-9.51413E-07-2.37037E-20 5.08792E-18
 -1      1167 8.59894E-05-2.59941E-05-2.67488E-05-2.53569E-07-2.48816E-19 3.68584E-18
 -1      1168 8.80678E-05-2.65862E-05-2.72530E-05 6.07618E-07 5.40354E-19 4.19684E-18
 -1      1169 9.81680E-05-2.94819E-05-2.97403E-05 1.09411E-06-1.82989E-19 2.61458E-18
 -1      1170 1.10988E-04-3.32130E-05-3.30362E-05 1.01688E-06-1.74849E-19-7.10555E-19
 -1      1171 1.21176E-04-3.62286E-05-3.58363E-05 6.11083E-07 3.45629E-20-2.64888E-18
 -1      1172 1.26245E-04-3.77634E-05-3.73912E-05 1.94097E-07 2.01058E-19-1.71619E-18
 -1      1173 1.26526E-04-3.78825E-05-3.76441E-05-7.55029E-08 6.27962E-20-2.58503E-18
 -1      1174 1.23644E-04-3.70534E-05-3.69503E-05-1.92330E-07 1.64798E-19-3.94770E-19
 -1      1175 1.19262E-04-3.57671E-05-3.57527E-05-2.10778E-07-3.40633E-20 1.27306E-18
 -1      1176 1.14552E-04-3.43731E-05-3.44012E-05-1.83507E-07 1.26680E-19-2.40584E-19
 -1      1177 1.10164E-04-3.30679E-05-3.31088E-05-1.43106E-07-1.04539E-19-1.24294E-18
 -1      1178 1.06379E-04-3.19375E-05-3.19764E-05-1.04993E-07-3.26721E-19-1.50935E-18
 -1      1179 1.03261E-04-3.10029E-05-3.10345E-05-7.44557E-08 2.75976E-19-9.75173E-19
 -1      1180 1.00766E-04-3.02531E-05-3.02770E-05-5.19665E-08-2.48128E-19 1.66910E-18
 -1      1181 9.88128E-05-2.96650E-05-2.96831E-05-3.60552E-08-1.82727E-19-5.83659E-20
 -1      1182 9.73210E-05-2.92149E-05-2.92304E-05-2.44389E-08 6.38214E-19 1.30569E-18
 -1      1183 9.62300E-05-2.88852E-05-2.89016E-05-1.40384E-08 1.65347E-19 1.19510E-18
 -1      1184 9.55121E-05-2.86676E-05-2.86866E-05-4.64584E-11 1.51807E-19 2.17841E-18
 -1      1185 9.51830E-05-2.85752E-05-2.85733E-05 2.63935E-08 1.91906E-20 1.28025E-18
 -1      1186 9.51661E-05-2.85489E-05-2.85192E-05 2.40941E-08 4.43491E-19 1.31417E-18
 -1      1187 1.30938E-04-3.77048E-05-3.86235E-05 1.21693E-05-7.50683E-20 6.62210E-18
 -1      1188 9.64404E-05-2.81541E-05-3.12940E-05 8.02120E-07 1.52466E-20 5.39052E-18
 -1      1189 9.02468E-05-2.68913E-05-2.78358E-05 1.20917E-07 4.68581E-20 3.94290E-18
 -1      1190 8.82006E-05-2.64593E-05-2.66395E-05 1.00283E-08-1.21165E-20 3.04257E-18
 -1      1191 8.77905E-05-2.63664E-05-2.63724E-05-2.38357E-08 2.33000E-20 2.65958E-18
 -1      1192 8.81308E-05-2.64633E-05-2.64462E-05-3.22956E-08-2.04545E-20 2.07732E-18
 -1      1193 8.88172E-05-2.66612E-05-2.66464E-05-3.27545E-08-6.70637E-20 1.69176E-18
 -1      1194 8.96512E-05-2.69062E-05-2.68940E-05-3.01559E-08-4.29582E-20 1.76510E-18
 -1      1195 9.05291E-05-2.71666E-05-2.71558E-05-2.60639E-08-5.75874E-20 1.87905E-18
 -1      1196 9.13995E-05-2.74262E-05-2.74165E-05-2.11952E-08 9.81256E-20 1.63014E-18
 -1      1197 9.22437E-05-2.76788E-05-2.76707E-05-1.60034E-08 9.72608E-20 7.38755E-19
 -1      1198 9.30659E-05-2.79255E-05-2.79194E-05-1.08333E-08 1.10330E-20 4.49569E-19
 -1      1199 9.38869E-05-2.81722E-05-2.81687E-05-5.99276E-09 1.27191E-20 7.10436E-19
 -1      1200 9.47397E-05-2.84288E-05-2.84285E-05-1.81308E-09-6.57307E-20 9.49550E-19
 -1      1201 9.56666E-05-2.87077E-05-2.87112E-05 1.28959E-09 7.30831E-20 3.76996E-19
 -1      1202 9.67152E-05-2.90231E-05-2.90307E-05 2.74987E-09-1.12964E-19-3.60254E-20
 -1      1203 9.79346E-05-2.93892E-05-2.94015E-05 1.79267E-09-4.27971E-20-1.05462E-19
 -1      1204 9.93681E-05-2.98185E-05-2.98354E-05-2.60178E-09 1.40199E-20-5.08723E-19
 -1      1205 1.01043E-04-3.03185E-05-3.03392E-05-1.16572E-08 1.12070E-19-1.56241E-18
 -1      1206 1.02952E-04-3.08867E-05-3.09088E-05-2.65837E-08-9.52015E-20-6.71863E-19
 -1      1207 1.05036E-04-3.15038E-05-3.15223E-05-4.80119E-08 2.21864E-20 1.78155E-19
 -1      1208 1.07144E-04-3.21252E-05-3.21310E-05-7.48554E-08 1.60390E-20 1.26062E-19
 -1      1209 1.09009E-04-3.26717E-05-3.26514E-05-1.02475E-07 4.41408E-20-4.70553E-19
 -1      1210 1.10224E-04-3.30244E-05-3.29615E-05-1.20526E-07 2.37804E-19-1.97519E-18
 -1      1211 1.10264E-04-3.30320E-05-3.29131E-05-1.12071E-07-2.11226E-19-4.85317E-19
 -1      1212 1.08592E-04-3.25405E-05-3.23674E-05-5.72941E-08-6.54068E-20 2.62903E-18
 -1      1213 1.04885E-04-3.14560E-05-3.12612E-05 5.46200E-08-2.27577E-19 3.61312E-18
 -1      1214 9.93479E-05-2.98336E-05-2.96860E-05 2.07218E-07 1.87224E-20 6.65027E-19
 -1      1215 9.29681E-05-2.79502E-05-2.79358E-05 3.45903E-07-3.44694E-20 5.81806E-20
 -1      1216 8.74338E-05-2.62916E-05-2.64626E-05 3.95490E-07 1.57707E-19-1.26081E-18
 -1      1217 8.45513E-05-2.53972E-05-2.57196E-05 3.09048E-07-2.65283E-19-3.00897E-18
 -1      1218 8.53636E-05-2.56005E-05-2.59545E-05 1.11120E-07 2.53084E-20-1.73316E-18
 -1      1219 8.95708E-05-2.68379E-05-2.70857E-05-1.12794E-07-1.25731E-22 3.92600E-19
 -1      1220 9.56967E-05-2.86762E-05-2.87455E-05-2.71011E-07-3.97113E-20 9.65988E-19
 -1      1221 1.01876E-04-3.05450E-05-3.04565E-05-3.22047E-07 3.32857E-20-1.74595E-19
 -1      1222 1.06677E-04-3.20005E-05-3.18280E-05-2.82638E-07-1.67335E-19-1.67088E-18
 -1      1223 1.09464E-04-3.28450E-05-3.26636E-05-1.97304E-07 5.69514E-19-4.51441E-18
 -1      1224 1.10303E-04-3.30982E-05-3.29537E-05-1.06608E-07-4.12250E-20-4.59916E-18
 -1      1225 1.09647E-04-3.28992E-05-3.28061E-05-3.36983E-08 2.38097E-19-3.33208E-18
 -1      1226 1.08048E-04-3.24172E-05-3.23701E-05 1.46522E-08-1.88374E-19-3.04942E-18
 -1      1227 1.05992E-04-3.17987E-05-3.17844E-05 4.11859E-08 1.17487E-19-4.21676E-18
 -1      1228 1.03827E-04-3.11487E-05-3.11542E-05 5.20765E-08-6.55266E-20-3.66429E-18
 -1      1229 1.01773E-04-3.05325E-05-3.05478E-05 5.34346E-08-1.37118E-19-4.63367E-18
 -1      1230 9.99441E-05-2.99846E-05-3.00035E-05 4.99889E-08-1.03403E-19-5.78852E-18
 -1      1231 9.83918E-05-2.95199E-05-2.95392E-05 4.48785E-08-1.59154E-20-5.54572E-18
 -1      1232 9.71307E-05-2.91427E-05-2.91621E-05 3.97788E-08 3.30286E-19-5.98934E-18
 -1      1233 9.61652E-05-2.88541E-05-2.88753E-05 3.48512E-08 2.73817E-19-8.39255E-18
 -1      1234 9.55082E-05-2.86576E-05-2.86814E-05 2.69828E-08-3.52594E-19-5.08092E-18
 -1      1235 9.51891E-05-2.85600E-05-2.85768E-05 6.36173E-09 2.93407E-19-1.70734E-18
 -1      1236 9.51801E-05-2.85554E-05-2.85253E-05-1.96086E-08-1.47994E-19-1.05468E-18
 -1      1237 9.52539E-05-2.86301E-05-2.85270E-05-1.94830E-08-1.58594E-18-4.73133E-19
 -1      1238 9.52386E-05-2.86071E-05-2.85806E-05-1.91776E-08 5.84507E-19-3.43375E-20
 -1      1239 9.51435E-05-2.82821E-05-2.86844E-05 1.16035E-08 1.67591E-18 2.93781E-20
 -1      1240 9.49662E-05-2.76799E-05-2.88545E-05 2.71276E-08 5.54101E-18 3.17633E-19
 -1      1241 9.47449E-05-2.69277E-05-2.90667E-05 3.25913E-08 2.98641E-18-5.93182E-19
 -1      1242 9.45207E-05-2.61659E-05-2.92833E-05 3.08787E-08-2.67528E-18-1.51961E-19
 -1      1243 9.43276E-05-2.55085E-05-2.94713E-05 2.45576E-08-4.47309E-18 1.79264E-19
 -1      1244 9.41928E-05-2.50494E-05-2.96025E-05 1.40700E-08-3.85557E-18-9.76181E-20
 -1      1245 9.41388E-05-2.48647E-05-2.96550E-05 1.30086E-09-4.00848E-18 4.42481E-19
 -1      1246 9.41748E-05-2.49862E-05-2.96195E-05-1.21051E-08 2.46608E-18-3.65121E-19
 -1      1247 9.42971E-05-2.54026E-05-2.94999E-05-2.42062E-08-2.60278E-18-1.77362E-18
 -1      1248 9.44881E-05-2.60508E-05-2.93150E-05-3.29330E-08-1.27088E-17-2.88283E-19
 -1      1249 9.47185E-05-2.68359E-05-2.90925E-05-3.56759E-08-1.08128E-17-1.14164E-21
 -1      1250 9.49526E-05-2.76327E-05-2.88693E-05-3.07201E-08-4.99042E-18-6.50709E-19
 -1      1251 9.51462E-05-2.82866E-05-2.86880E-05-1.57165E-08-2.58932E-18-1.81903E-19
 -1      1252 9.52288E-05-2.86019E-05-2.85772E-05 3.90976E-08-3.56544E-18-4.28490E-19
 -1      1253 9.52597E-05-2.86440E-05-2.85205E-05 2.53521E-08-7.65822E-19 3.38179E-19
 -1      1254 3.33080E-05-1.04893E-04 1.76859E-05-1.39500E-05-9.79043E-18-1.04010E-18
 -1      1255 1.56000E-05-5.83403E-05 8.02261E-06-2.26019E-05-1.87194E-19 1.37516E-18
 -1      1256 7.75609E-06-3.06910E-06-7.88645E-06 4.46108E-06 5.83606E-18 3.62361E-18
 -1      1257 3.73848E-05 2.56607E-05-2.71103E-05 5.66601E-05 6.47472E-18 6.52639E-18
 -1      1258 1.14033E-04 1.06767E-05-4.77075E-05 1.01637E-04 4.56720E-18 5.41762E-18
 -1      1259 2.16841E-04-3.88246E-05-6.51808E-05 1.05531E-04 2.13156E-18 5.17961E-18
 -1      1260 2.90768E-04-8.16313E-05-7.56530E-05 5.08524E-05 5.04990E-19 5.41762E-18
 -1      1261 3.04816E-04-9.11488E-05-7.69831E-05-2.94307E-05 1.04609E-19 4.88357E-18
 -1      1262 2.46165E-04-5.52583E-05-6.96241E-05-9.36076E-05 1.32391E-18-2.29715E-18
 -1      1263 1.52279E-04-5.38160E-06-5.50418E-05-1.09227E-04 4.94074E-18-8.43475E-18
 -1      1264 6.67094E-05 2.46709E-05-3.65813E-05-8.11770E-05 7.17098E-18-8.45169E-18
 -1      1265 1.65248E-05 1.45138E-05-1.67398E-05-2.78969E-05 5.67851E-18-4.61294E-18
 -1      1266 9.32160E-06-3.27234E-05 1.56642E-06 1.48833E-05 1.51449E-18-1.20363E-18
 -1      1267 2.56253E-05-8.63793E-05 1.41504E-05 2.31165E-05-3.16790E-19 4.05199E-19
 -1      1268 3.72615E-05-1.13206E-04 1.91483E-05 1.68465E-06 2.71580E-19-3.90853E-19
 -1      1269 2.81250E-05-9.41475E-05 1.57503E-05-2.26585E-05-3.63801E-18-1.37855E-18
 -1      1270 1.08158E-05-4.27029E-05 4.03969E-06-2.10316E-05-9.65618E-18-5.18257E-18
 -1      1271 1.26958E-05 7.64312E-06-1.33477E-05 1.70906E-05-1.53076E-17-1.12774E-17
 -1      1272 6.37194E-05 2.20003E-05-3.51681E-05 7.50415E-05-1.29139E-17-1.53008E-17
 -1      1273 1.59103E-04-8.56330E-06-5.60032E-05 1.11214E-04-9.53590E-18-1.76793E-17
 -1      1274 2.57401E-04-5.98805E-05-7.15595E-05 8.91147E-05-4.57588E-18-1.46401E-17
 -1      1275 3.17209E-04-9.62403E-05-7.89164E-05 1.79528E-05-7.55395E-19-1.26598E-17
 -1      1276 2.91895E-04-8.07765E-05-7.59547E-05-6.43118E-05-4.66398E-20-4.01663E-18
 -1      1277 2.09604E-04-3.39681E-05-6.45077E-05-1.09756E-04-2.92777E-18 5.88349E-18
 -1      1278 1.09333E-04 1.15708E-05-4.67774E-05-1.00541E-04-6.22739E-18 8.23147E-18
 -1      1279 3.25335E-05 2.12530E-05-2.46717E-05-4.83078E-05-9.79509E-18 8.78204E-18
 -1      1280 7.51751E-06-1.58442E-05-3.86876E-06 5.92129E-06-1.07167E-17 6.58399E-18
 -1      1281 1.90772E-05-7.10718E-05 1.09157E-05 2.69241E-05-9.48084E-18 2.84667E-18
 -1      1282 3.46854E-05-1.08725E-04 1.84095E-05 1.34395E-05-1.02847E-17 5.04885E-19
 -1      1283 1.04347E-04-2.19957E-05-3.78597E-05-1.72751E-05-1.15832E-19 3.56135E-18
 -1      1284 9.02654E-05-6.67428E-06-3.59970E-05-2.04780E-05-4.04776E-19 6.29345E-19
 -1      1285 9.25868E-05-6.73201E-06-3.71964E-05-2.57616E-05-4.98902E-19 1.32598E-18
 -1      1286 8.58770E-05-4.09097E-06-3.51206E-05-1.64426E-05-4.37651E-19-3.66130E-19
 -1      1287 8.71167E-05-4.08578E-06-3.55847E-05-1.88608E-05-5.04726E-19 8.03093E-20
 -1      1288 9.20850E-05-1.04545E-05-3.50765E-05-1.90374E-05-7.47877E-19 5.99699E-19
 -1      1289 8.41033E-05-3.19287E-06-3.46876E-05-1.28288E-05-3.49375E-19-9.13710E-19
 -1      1290 8.46977E-05-3.16148E-06-3.49068E-05-1.46450E-05-4.04564E-19-6.59786E-19
 -1      1291 8.78502E-05-7.38928E-06-3.45676E-05-1.54234E-05-6.82470E-19-2.51436E-19
 -1      1292 8.32101E-05-2.72944E-06-3.44792E-05-9.69276E-06-3.13065E-19-1.21156E-18
 -1      1293 8.35165E-05-2.71286E-06-3.45846E-05-1.12412E-05-3.38773E-19-1.08283E-18
 -1      1294 8.58781E-05-5.98658E-06-3.43080E-05-1.19615E-05-5.57500E-19-7.45786E-19
 -1      1295 8.27324E-05-2.45890E-06-3.43795E-05-6.91996E-06-2.36756E-19-1.28786E-18
 -1      1296 8.28950E-05-2.45037E-06-3.44309E-05-8.29187E-06-2.81202E-19-1.24033E-18
 -1      1297 8.48490E-05-5.21847E-06-3.41839E-05-8.94713E-06-4.86184E-19-9.29195E-19
 -1      1298 8.24675E-05-2.29333E-06-3.43312E-05-4.29767E-06-1.49045E-19-1.31645E-18
 -1      1299 8.25540E-05-2.28936E-06-3.43564E-05-5.59995E-06-1.63100E-19-1.29996E-18
 -1      1300 8.42772E-05-4.76315E-06-3.41268E-05-6.21872E-06-3.30700E-19-1.01684E-18
 -1      1301 8.23404E-05-2.20359E-06-3.43113E-05-1.79085E-06-1.77699E-20-1.32856E-18
 -1      1302 8.23772E-05-2.20202E-06-3.43214E-05-3.04275E-06-6.04024E-20-1.31591E-18
 -1      1303 8.39637E-05-4.49892E-06-3.41018E-05-3.64537E-06-1.83691E-19-9.71917E-19
 -1      1304 8.23153E-05-2.17588E-06-3.43091E-05 6.70499E-07 4.92644E-20-1.32448E-18
 -1      1305 8.23140E-05-2.17593E-06-3.43088E-05-5.66129E-07 1.90144E-20-1.33208E-18
 -1      1306 8.38264E-05-4.37870E-06-3.40929E-05-1.17049E-06 1.72200E-20-1.03128E-18
 -1      1307 8.23855E-05-2.20623E-06-3.43228E-05 3.15066E-06 1.36397E-19-1.31196E-18
 -1      1308 8.23459E-05-2.20786E-06-3.43121E-05 1.89621E-06 9.57441E-20-1.31843E-18
 -1      1309 8.38312E-05-4.38282E-06-3.40932E-05 1.27427E-06 1.18948E-19-1.04897E-18
 -1      1310 8.25707E-05-2.29956E-06-3.43589E-05 5.71684E-06 1.90510E-19-1.25267E-18
 -1      1311 8.24808E-05-2.30293E-06-3.43330E-05 4.40871E-06 1.67626E-19-1.29376E-18
 -1      1312 8.39787E-05-4.51219E-06-3.41028E-05 3.75329E-06 2.48553E-19-1.03212E-18
 -1      1313 8.29177E-05-2.46549E-06-3.44337E-05 8.40072E-06 2.70673E-19-1.12342E-18
 -1      1314 8.27519E-05-2.47421E-06-3.43817E-05 7.01993E-06 2.53898E-19-1.20015E-18
 -1      1315 8.43024E-05-4.78589E-06-3.41278E-05 6.31282E-06 3.63073E-19-9.64453E-19
 -1      1316 8.35579E-05-2.74258E-06-3.45896E-05 1.14031E-05 3.96531E-19-8.95009E-19
 -1      1317 8.32461E-05-2.75976E-06-3.44828E-05 9.83725E-06 3.37953E-19-1.01718E-18
 -1      1318 8.48913E-05-5.25928E-06-3.41849E-05 9.05734E-06 5.09219E-19-7.99652E-19
 -1      1319 8.47557E-05-3.20361E-06-3.49149E-05 1.48531E-05 4.70739E-19-4.88262E-19
 -1      1320 8.41554E-05-3.24052E-06-3.46930E-05 1.30125E-05 4.22167E-19-7.38507E-19
 -1      1321 8.59548E-05-6.06343E-06-3.43097E-05 1.21274E-05 6.74913E-19-5.46813E-19
 -1      1322 8.72181E-05-4.08794E-06-3.56060E-05 1.90992E-05 5.48930E-19 3.29813E-19
 -1      1323 8.59489E-05-4.15221E-06-3.51281E-05 1.67025E-05 4.90591E-19-1.59454E-19
 -1      1324 8.79741E-05-7.51481E-06-3.45693E-05 1.56559E-05 7.80104E-19-5.01602E-20
 -1      1325 9.33995E-05-6.78402E-06-3.70920E-05 2.50979E-05 4.92550E-19 1.79523E-18
 -1      1326 9.00809E-05-6.43084E-06-3.60195E-05 2.11554E-05 4.84185E-19 9.10719E-19
 -1      1327 9.23150E-05-1.06896E-05-3.50616E-05 1.96807E-05 8.20696E-19 8.47086E-19
 -1      1328 1.23522E-04-2.49001E-05-3.89827E-05 2.83581E-05 2.10699E-19 4.50198E-18
 -1      1329 1.00000E-04-1.44076E-05-3.73259E-05 2.40500E-05 2.42569E-19 2.60643E-18
 -1      1330 1.01601E-04-1.93232E-05-3.53774E-05 2.14005E-05 8.23184E-19 2.12732E-18
 -1      1331 1.02504E-04-2.77752E-05-3.47263E-05 7.33298E-06 3.92600E-19 4.36434E-18
 -1      1332 1.05046E-04-3.02003E-05-3.34945E-05-7.96307E-06-3.66554E-19 3.62784E-18
 -1      1333 9.81570E-05-2.78119E-05-3.07308E-05-4.99212E-06-3.59460E-19 3.22375E-18
 -1      1334 9.53985E-05-2.78178E-05-2.92232E-05-2.49314E-06-2.09879E-19 3.01739E-18
 -1      1335 9.31628E-05-2.75257E-05-2.81829E-05-2.04613E-06-2.23564E-19 2.66027E-18
 -1      1336 9.93971E-05-2.80253E-05-3.09564E-05-7.89309E-06-5.93717E-19 1.99699E-18
 -1      1337 9.14732E-05-2.71679E-05-2.75485E-05-8.40452E-07-2.20798E-19 2.47942E-18
 -1      1338 9.07540E-05-2.70716E-05-2.72455E-05-7.30092E-07-2.10964E-19 2.22007E-18
 -1      1339 9.46301E-05-2.77433E-05-2.87901E-05-3.12510E-06-4.30981E-19 1.68417E-18
 -1      1340 9.00055E-05-2.68892E-05-2.70028E-05-1.74295E-07-1.37838E-19 2.02420E-18
 -1      1341 8.99320E-05-2.69154E-05-2.69678E-05-1.15812E-07-1.53085E-19 1.74114E-18
 -1      1342 9.24327E-05-2.74730E-05-2.78701E-05-1.05474E-06-3.95253E-19 1.33557E-18
 -1      1343 8.96774E-05-2.68492E-05-2.68951E-05 1.57663E-07-8.35370E-20 1.74806E-18
 -1      1344 8.98944E-05-2.69395E-05-2.69576E-05 1.87179E-07-2.36220E-19 1.50978E-18
 -1      1345 9.14808E-05-2.73305E-05-2.75057E-05-6.54993E-08-2.71325E-19 1.15186E-18
 -1      1346 8.99081E-05-2.69454E-05-2.69672E-05 3.23802E-07-2.15792E-19 1.41369E-18
 -1      1347 9.02587E-05-2.70669E-05-2.70690E-05 3.36949E-07-1.04782E-19 1.39729E-18
 -1      1348 9.12424E-05-2.73217E-05-2.74029E-05 4.32406E-07-3.67993E-19 1.24380E-18
 -1      1349 9.04185E-05-2.71136E-05-2.71217E-05 4.00227E-07 5.54041E-20 1.45398E-18
 -1      1350 9.08240E-05-2.72464E-05-2.72392E-05 4.04149E-07 5.85371E-20 1.33254E-18
 -1      1351 9.14026E-05-2.74020E-05-2.74343E-05 6.77889E-07-5.58090E-20 1.16571E-18
 -1      1352 9.10614E-05-2.73149E-05-2.73148E-05 4.27829E-07-7.95644E-21 1.26596E-18
 -1      1353 9.14810E-05-2.74482E-05-2.74369E-05 4.27000E-07-1.83089E-19 1.15487E-18
 -1      1354 9.17817E-05-2.75325E-05-2.75384E-05 7.86735E-07-1.02876E-19 1.10641E-18
 -1      1355 9.17584E-05-2.75278E-05-2.75242E-05 4.31457E-07-3.06710E-19 1.15110E-18
 -1      1356 9.21734E-05-2.76570E-05-2.76456E-05 4.28945E-07-4.06083E-19 7.39185E-19
 -1      1357 9.22774E-05-2.76886E-05-2.76824E-05 8.23900E-07-3.89059E-19 7.08166E-19
 -1      1358 9.24720E-05-2.77424E-05-2.77391E-05 4.27781E-07-1.81843E-19 7.59090E-19
 -1      1359 9.28786E-05-2.78669E-05-2.78587E-05 4.25839E-07-3.11272E-20 5.95593E-19
 -1      1360 9.28349E-05-2.78569E-05-2.78486E-05 8.30370E-07-4.42567E-19 9.17714E-19
 -1      1361 9.31928E-05-2.79565E-05-2.79569E-05 4.28930E-07 1.27711E-19 4.14072E-19
 -1      1362 9.35977E-05-2.80788E-05-2.80766E-05 4.29326E-07 2.94932E-20 4.84136E-19
 -1      1363 9.34300E-05-2.80317E-05-2.80288E-05 8.34543E-07 3.30580E-20 6.47074E-19
 -1      1364 9.39314E-05-2.81736E-05-2.81807E-05 4.44447E-07-1.61318E-19 5.48427E-19
 -1      1365 9.43497E-05-2.82987E-05-2.83048E-05 4.48681E-07-3.19254E-19 2.45602E-19
 -1      1366 9.40605E-05-2.82132E-05-2.82219E-05 8.57781E-07-1.39613E-19 8.57603E-20
 -1      1367 9.47143E-05-2.84021E-05-2.84186E-05 4.82469E-07-2.57987E-19 3.69518E-19
 -1      1368 9.51688E-05-2.85371E-05-2.85537E-05 4.91923E-07-7.13456E-20 1.61423E-19
 -1      1369 9.47409E-05-2.84064E-05-2.84319E-05 9.17499E-07-3.23018E-19-3.10927E-19
 -1      1370 9.55820E-05-2.86541E-05-2.86827E-05 5.50474E-07 1.73681E-19 1.51816E-19
 -1      1371 9.61023E-05-2.88081E-05-2.88376E-05 5.66511E-07 4.06410E-20 4.52576E-19
 -1      1372 9.54993E-05-2.86196E-05-2.86672E-05 1.02905E-06-4.04491E-20 2.74880E-20
 -1      1373 9.65873E-05-2.89453E-05-2.89890E-05 6.55667E-07-3.46613E-20 5.60570E-19
 -1      1374 9.72099E-05-2.91298E-05-2.91743E-05 6.79675E-07-8.39299E-20 7.35868E-19
 -1      1375 9.63751E-05-2.88648E-05-2.89396E-05 1.20677E-06 1.60185E-19 4.39620E-19
 -1      1376 9.77946E-05-2.92951E-05-2.93570E-05 8.04927E-07-4.07798E-19 4.59636E-19
 -1      1377 9.85627E-05-2.95235E-05-2.95854E-05 8.38269E-07-1.35199E-19 6.76220E-20
 -1      1378 9.74178E-05-2.91569E-05-2.92638E-05 1.46427E-06-4.14131E-19 5.05164E-19
 -1      1379 9.92788E-05-2.97262E-05-2.98093E-05 1.00404E-06 2.73479E-19-3.44862E-19
 -1      1380 1.00241E-04-3.00140E-05-3.00949E-05 1.04784E-06-1.60045E-19-2.07589E-19
 -1      1381 9.86855E-05-2.95136E-05-2.96570E-05 1.81347E-06-3.01039E-19-3.12386E-19
 -1      1382 1.01122E-04-3.02640E-05-3.03701E-05 1.25570E-06-3.78376E-19-1.46176E-19
 -1      1383 1.02328E-04-3.06279E-05-3.07275E-05 1.31032E-06-2.76358E-19-5.27794E-19
 -1      1384 1.00241E-04-2.99554E-05-3.01376E-05 2.26167E-06-2.51122E-19-9.33547E-19
 -1      1385 1.03404E-04-3.09350E-05-3.10632E-05 1.55525E-06-3.38185E-20-4.83543E-19
 -1      1386 1.04901E-04-3.13910E-05-3.15048E-05 1.61917E-06-6.75294E-20-6.55511E-19
 -1      1387 1.02148E-04-3.05047E-05-3.07225E-05 2.80520E-06-1.58779E-19-7.99448E-19
 -1      1388 1.06191E-04-3.17634E-05-3.19058E-05 1.88283E-06 1.65024E-19-4.87156E-19
 -1      1389 1.08000E-04-3.23226E-05-3.24368E-05 1.95058E-06-9.55079E-20-5.38898E-19
 -1      1390 1.04458E-04-3.11848E-05-3.14232E-05 3.41724E-06 9.53259E-20-1.09379E-18
 -1      1391 1.09500E-04-3.27637E-05-3.28986E-05 2.19019E-06 1.10539E-19 5.01205E-19
 -1      1392 1.11591E-04-3.34233E-05-3.35071E-05 2.24876E-06 6.28828E-19 1.01563E-18
 -1      1393 1.07192E-04-3.20167E-05-3.22381E-05 4.02692E-06 6.15161E-19-4.55505E-19
 -1      1394 1.13249E-04-3.39270E-05-3.40079E-05 2.38158E-06 7.31789E-19 1.27467E-18
 -1      1395 1.15487E-04-3.46546E-05-3.46503E-05 2.40531E-06 4.02566E-19 2.13418E-18
 -1      1396 1.10304E-04-3.30122E-05-3.31409E-05 4.48810E-06 9.96696E-19 7.07732E-19
 -1      1397 1.17174E-04-3.51968E-05-3.51412E-05 2.29373E-06 3.16986E-19 2.26564E-18
 -1      1398 1.19254E-04-3.59064E-05-3.57230E-05 2.23921E-06 2.34109E-19 2.58782E-18
 -1      1399 1.13639E-04-3.41598E-05-3.40649E-05 4.54259E-06 5.62281E-19 1.18968E-18
 -1      1400 1.20730E-04-3.64309E-05-3.61190E-05 1.69391E-06 2.64526E-19 3.09074E-18
 -1      1401 1.22112E-04-3.69536E-05-3.64821E-05 1.50170E-06 2.28739E-19 3.49009E-18
 -1      1402 1.16859E-04-3.53933E-05-3.48894E-05 3.80280E-06 4.91703E-19 2.54187E-18
 -1      1403 1.23010E-04-3.73534E-05-3.66670E-05 3.41349E-07 2.70548E-19 3.47408E-18
 -1      1404 1.22940E-04-3.74238E-05-3.66064E-05-4.03125E-08 2.71964E-19 4.10570E-18
 -1      1405 1.19385E-04-3.65357E-05-3.54399E-05 1.81746E-06 5.70278E-19 3.06565E-18
 -1      1406 1.22807E-04-3.75238E-05-3.64655E-05-1.82060E-06 3.94863E-19 4.32201E-18
 -1      1407 1.20550E-04-3.68353E-05-3.58085E-05-2.36964E-06 1.58369E-19 4.36577E-18
 -1      1408 1.20395E-04-3.72242E-05-3.55267E-05-1.67186E-06 4.28241E-19 3.16233E-18
 -1      1409 1.19023E-04-3.64214E-05-3.52998E-05-4.33024E-06-3.44266E-19 4.01795E-18
 -1      1410 1.14420E-04-3.48225E-05-3.40539E-05-4.85518E-06-6.52129E-19 3.60788E-18
 -1      1411 1.18994E-04-3.69017E-05-3.50373E-05-6.21052E-06-2.77602E-19 2.76223E-18
 -1      1412 1.11589E-04-3.37991E-05-3.32868E-05-5.98023E-06 3.37473E-20 3.69349E-18
 -1      1413 1.05716E-04-3.16061E-05-3.17781E-05-6.11006E-06 6.11336E-20 3.37161E-18
 -1      1414 1.14773E-04-3.50872E-05-3.40530E-05-1.00904E-05-3.08294E-19 2.55748E-18
 -1      1415 1.02526E-04-3.02879E-05-3.10290E-05-5.27979E-06-1.84494E-19 3.77808E-18
 -1      1416 9.77510E-05-2.84205E-05-2.98482E-05-4.72969E-06-3.52948E-19 3.76120E-18
 -1      1417 1.08670E-04-3.20272E-05-3.28990E-05-1.06355E-05-1.73112E-20 2.87719E-18
 -1      1418 9.58419E-05-2.75756E-05-2.94388E-05-1.83010E-06-7.57247E-19 3.98714E-18
 -1      1419 9.46002E-05-2.70787E-05-2.91384E-05-7.92722E-07-4.45963E-19 3.14382E-18
 -1      1420 1.03381E-04-2.91944E-05-3.20350E-05-6.13682E-06-3.86459E-19 3.01965E-18
 -1      1421 9.51599E-05-2.73283E-05-2.92565E-05 2.70726E-06-3.14461E-20 2.86326E-18
 -1      1422 9.81516E-05-2.85168E-05-2.99868E-05 3.59947E-06-5.28337E-19 2.75042E-18
 -1      1423 1.01965E-04-2.84130E-05-3.18196E-05 1.79201E-06-1.08865E-18 2.43957E-18
 -1      1424 1.00824E-04-2.96764E-05-3.05778E-05 5.69787E-06-1.11042E-18 1.83033E-18
 -1      1425 1.06413E-04-3.18270E-05-3.19791E-05 5.93968E-06-1.10423E-18 5.01655E-19
 -1      1426 1.05343E-04-3.02564E-05-3.23444E-05 8.69120E-06-1.44636E-18 6.35103E-19
 -1      1427 1.09617E-04-3.30891E-05-3.27751E-05 5.81449E-06-1.10045E-18-1.26631E-19
 -1      1428 1.15157E-04-3.51014E-05-3.42285E-05 5.46113E-06-9.28970E-19-2.39345E-18
 -1      1429 1.11393E-04-3.34402E-05-3.33876E-05 1.09617E-05-1.71436E-18-5.93108E-19
 -1      1430 1.17472E-04-3.58641E-05-3.49053E-05 3.81726E-06 1.61572E-19-2.02827E-18
 -1      1431 1.21089E-04-3.70674E-05-3.59107E-05 3.24444E-06 3.70034E-19-1.99730E-18
 -1      1432 1.16896E-04-3.60594E-05-3.45152E-05 8.62671E-06-6.41416E-19-1.47327E-18
 -1      1433 1.21975E-04-3.72309E-05-3.62591E-05 1.26885E-06-1.59269E-19-2.05413E-18
 -1      1434 1.23199E-04-3.75514E-05-3.66391E-05 7.81091E-07 3.62371E-20-1.96471E-18
 -1      1435 1.19887E-04-3.71874E-05-3.53039E-05 4.16029E-06 1.75574E-19-1.30982E-18
 -1      1436 1.22818E-04-3.72928E-05-3.66237E-05-7.52047E-07-8.76150E-21-2.07032E-18
 -1      1437 1.22142E-04-3.69837E-05-3.64701E-05-1.04796E-06-1.73013E-19-1.43265E-18
 -1      1438 1.20125E-04-3.69904E-05-3.55328E-05-5.19247E-08-6.00996E-20-2.30300E-18
 -1      1439 1.20930E-04-3.65091E-05-3.61746E-05-1.92594E-06 4.86147E-19-2.05237E-18
 -1      1440 1.19146E-04-3.58733E-05-3.56884E-05-2.05089E-06 3.06745E-19-1.40131E-18
 -1      1441 1.18323E-04-3.60400E-05-3.52171E-05-2.88965E-06-3.78266E-19-1.87575E-18
 -1      1442 1.17529E-04-3.53280E-05-3.52346E-05-2.38384E-06 2.12270E-19-1.02457E-18
 -1      1443 1.15311E-04-3.45899E-05-3.46058E-05-2.39816E-06 5.16359E-20-1.13018E-18
 -1      1444 1.15385E-04-3.48195E-05-3.45170E-05-4.28470E-06 2.76384E-19-2.70976E-18
 -1      1445 1.13602E-04-3.40562E-05-3.40985E-05-2.38375E-06-2.01849E-19-6.93429E-19
 -1      1446 1.11383E-04-3.33454E-05-3.34572E-05-2.34094E-06-4.70260E-19-1.56990E-18
 -1      1447 1.12036E-04-3.36026E-05-3.36237E-05-4.62707E-06 1.75494E-19-2.21735E-18
 -1      1448 1.09771E-04-3.28637E-05-3.29654E-05-2.14828E-06-2.04380E-19-1.31338E-18
 -1      1449 1.07775E-04-3.22397E-05-3.23820E-05-2.08345E-06-4.91264E-19-1.91571E-18
 -1      1450 1.08745E-04-3.25096E-05-3.26907E-05-4.35675E-06-4.41205E-19-1.38387E-18
 -1      1451 1.06353E-04-3.18253E-05-3.19421E-05-1.82404E-06-6.29635E-19-1.12675E-18
 -1      1452 1.04662E-04-3.13057E-05-3.14449E-05-1.75639E-06-4.88372E-19-1.49807E-18
 -1      1453 1.05764E-04-3.15783E-05-3.18148E-05-3.80432E-06-7.39404E-19-1.60124E-18
 -1      1454 1.03461E-04-3.09605E-05-3.10708E-05-1.49210E-06 7.35638E-19-9.70614E-19
 -1      1455 1.02083E-04-3.05416E-05-3.06639E-05-1.43043E-06 1.39068E-18-8.57886E-20
 -1      1456 1.03199E-04-3.08083E-05-3.10445E-05-3.17226E-06 7.86743E-19-3.11205E-19
 -1      1457 1.01098E-04-3.02608E-05-3.03566E-05-1.18966E-06-1.71557E-20 1.34544E-18
 -1      1458 1.00004E-04-2.99305E-05-3.00328E-05-1.13681E-06-2.41424E-19 9.20483E-19
 -1      1459 1.01067E-04-3.01842E-05-3.03958E-05-2.56537E-06 1.39402E-18 7.86983E-19
 -1      1460 9.92171E-05-2.97063E-05-2.97872E-05-9.27852E-07-1.99653E-19 1.00379E-18
 -1      1461 9.83680E-05-2.94508E-05-2.95359E-05-8.83417E-07 2.31280E-20 7.22334E-19
 -1      1462 9.93398E-05-2.96856E-05-2.98668E-05-2.02597E-06-1.79035E-20 1.11044E-18
 -1      1463 9.77546E-05-2.92754E-05-2.93452E-05-7.03252E-07 4.88798E-19 7.18620E-19
 -1      1464 9.71164E-05-2.90831E-05-2.91568E-05-6.65027E-07 6.47195E-19 1.29251E-18
 -1      1465 9.79734E-05-2.92926E-05-2.94475E-05-1.55981E-06 7.87254E-19 1.83598E-18
 -1      1466 9.66553E-05-2.89496E-05-2.90149E-05-5.04265E-07 4.73386E-19 8.30468E-19
 -1      1467 9.62059E-05-2.88133E-05-2.88829E-05-4.68838E-07-1.33198E-19 8.87485E-19
 -1      1468 9.69227E-05-2.89877E-05-2.91265E-05-1.15213E-06 2.47046E-19 6.70984E-19
 -1      1469 9.58807E-05-2.87169E-05-2.87848E-05-3.16422E-07 1.19308E-19 9.03948E-19
 -1      1470 9.56122E-05-2.86357E-05-2.87053E-05-2.79652E-07 4.17124E-19 1.59404E-18
 -1      1471 9.61505E-05-2.87581E-05-2.88931E-05-7.77994E-07 1.37133E-19 7.42864E-19
 -1      1472 9.54025E-05-2.85675E-05-2.86442E-05-1.28752E-07 1.97909E-19 1.17380E-18
 -1      1473 9.53140E-05-2.85547E-05-2.86075E-05-8.93331E-08-1.11044E-19 1.85238E-18
 -1      1474 9.56236E-05-2.85966E-05-2.87350E-05-4.19276E-07 6.67659E-20 1.94542E-18
 -1      1475 9.52144E-05-2.85702E-05-2.85517E-05 3.06928E-08-1.39620E-18 1.40773E-18
 -1      1476 9.53037E-05-2.85457E-05-2.86118E-05-7.14885E-08-1.30438E-18 1.53353E-18
 -1      1477 9.64714E-05-2.83318E-05-2.97407E-05 2.99877E-06 4.36513E-19 3.45026E-18
 -1      1478 1.02433E-04-2.93680E-05-3.21246E-05 4.46572E-06 3.82118E-19 4.11213E-18
 -1      1479 1.02235E-04-2.66916E-05-3.26779E-05 1.27861E-05 6.86573E-19 2.79383E-18
 -1      1480 9.19209E-05-2.73962E-05-2.77289E-05 1.15464E-06 3.28291E-19 2.60013E-18
 -1      1481 9.38709E-05-2.75526E-05-2.86439E-05 1.47654E-06 2.97970E-19 3.13766E-18
 -1      1482 9.63946E-05-2.80025E-05-2.95060E-05 4.87220E-06 6.84138E-19 2.23078E-18
 -1      1483 9.00856E-05-2.69705E-05-2.70293E-05 3.33255E-07 1.71683E-19 2.02616E-18
 -1      1484 9.07031E-05-2.69889E-05-2.73026E-05 4.96170E-07 1.81457E-19 2.31367E-18
 -1      1485 9.29494E-05-2.75506E-05-2.80710E-05 1.85501E-06 4.88381E-19 1.67166E-18
 -1      1486 8.95698E-05-2.68525E-05-2.68542E-05-5.60575E-08 2.04704E-19 1.68996E-18
 -1      1487 8.96077E-05-2.67904E-05-2.68824E-05 3.33619E-08 1.16995E-19 1.84251E-18
 -1      1488 9.13988E-05-2.72798E-05-2.74883E-05 5.17493E-07 2.85298E-19 1.15010E-18
 -1      1489 8.97106E-05-2.69072E-05-2.68989E-05-2.47653E-07 1.34733E-19 1.24399E-18
 -1      1490 8.94790E-05-2.67987E-05-2.68327E-05-1.96707E-07 1.01427E-19 1.52270E-18
 -1      1491 9.08758E-05-2.72008E-05-2.72951E-05-1.38994E-07 2.30704E-19 9.35038E-19
 -1      1492 9.01846E-05-2.70554E-05-2.70439E-05-3.37841E-07 1.69804E-20 1.08535E-18
 -1      1493 8.98282E-05-2.69252E-05-2.69393E-05-3.08832E-07 4.62555E-20 1.21436E-18
 -1      1494 9.09118E-05-2.72484E-05-2.72903E-05-4.68750E-07 1.08253E-19 8.03431E-19
 -1      1495 9.08192E-05-2.72489E-05-2.72358E-05-3.73185E-07 1.46899E-20 1.00160E-18
 -1      1496 9.04122E-05-2.71124E-05-2.71161E-05-3.57223E-07 1.28585E-20 1.00800E-18
 -1      1497 9.12499E-05-2.73691E-05-2.73828E-05-6.26193E-07 1.07806E-19 5.26793E-19
 -1      1498 9.15211E-05-2.74607E-05-2.74477E-05-3.79930E-07 3.01766E-20 1.00038E-18
 -1      1499 9.11021E-05-2.73261E-05-2.73241E-05-3.71464E-07-5.37864E-21 9.82767E-19
 -1      1500 9.17467E-05-2.75279E-05-2.75265E-05-6.90351E-07-8.14483E-21 2.96139E-19
 -1      1501 9.22436E-05-2.76770E-05-2.76660E-05-3.74700E-07 1.82540E-19 7.06505E-19
 -1      1502 9.18300E-05-2.75475E-05-2.75435E-05-3.69922E-07 1.60808E-19 7.74787E-19
 -1      1503 9.23225E-05-2.77044E-05-2.76969E-05-7.07238E-07 1.67552E-19 7.16578E-20
 -1      1504 9.29697E-05-2.78933E-05-2.78858E-05-3.68857E-07 1.90702E-19 3.38608E-19
 -1      1505 9.25654E-05-2.77684E-05-2.77655E-05-3.64976E-07 2.16130E-19 5.31172E-19
 -1      1506 9.29372E-05-2.78884E-05-2.78810E-05-7.06472E-07 2.91047E-19 1.39984E-19
 -1      1507 9.37035E-05-2.81108E-05-2.81083E-05-3.70571E-07 1.13264E-19 1.17132E-19
 -1      1508 9.33025E-05-2.79877E-05-2.79885E-05-3.65425E-07 1.46259E-19 3.61554E-19
 -1      1509 9.35765E-05-2.80767E-05-2.80743E-05-7.08478E-07 2.19474E-19 8.88231E-20
 -1      1510 9.44638E-05-2.83357E-05-2.83390E-05-3.85877E-07-2.89240E-20 5.19167E-19
 -1      1511 9.40531E-05-2.82093E-05-2.82159E-05-3.77720E-07 4.08026E-20 2.03670E-19
 -1      1512 9.42444E-05-2.82714E-05-2.82775E-05-7.27962E-07 8.20241E-20 3.64441E-20
 -1      1513 9.52804E-05-2.85769E-05-2.85868E-05-4.19158E-07 8.81518E-20 4.50532E-19
 -1      1514 9.48415E-05-2.84411E-05-2.84550E-05-4.06562E-07 5.00858E-22 2.89164E-19
 -1      1515 9.49577E-05-2.84782E-05-2.84953E-05-7.75632E-07 2.18111E-20-8.33680E-20
 -1      1516 9.61903E-05-2.88459E-05-2.88626E-05-4.73191E-07-8.09942E-20 7.02607E-21
 -1      1517 9.57013E-05-2.86934E-05-2.87157E-05-4.55046E-07 9.91070E-20 2.90585E-19
 -1      1518 9.57421E-05-2.87053E-05-2.87353E-05-8.58845E-07 2.03309E-19-2.10260E-19
 -1      1519 9.72337E-05-2.91551E-05-2.91783E-05-5.48731E-07-1.15685E-19 1.86645E-19
 -1      1520 9.66711E-05-2.89782E-05-2.90096E-05-5.24371E-07-2.13512E-20 1.37075E-19
 -1      1521 9.66288E-05-2.89626E-05-2.90063E-05-9.81379E-07-3.62851E-20-1.48260E-20
 -1      1522 9.84491E-05-2.95168E-05-2.95452E-05-6.43571E-07 7.55224E-20-3.13885E-19
 -1      1523 9.77906E-05-2.93083E-05-2.93482E-05-6.13049E-07 5.99747E-20-3.55239E-19
 -1      1524 9.76496E-05-2.92610E-05-2.93174E-05-1.14226E-06 3.61533E-19-1.91960E-19
 -1      1525 9.98652E-05-2.99405E-05-2.99711E-05-7.50927E-07 4.66485E-19-1.10079E-18
 -1      1526 9.90940E-05-2.96953E-05-2.97413E-05-7.15503E-07 3.33079E-19-3.69614E-19
 -1      1527 9.88321E-05-2.96101E-05-2.96759E-05-1.33346E-06 3.77128E-19-6.31120E-19
 -1      1528 1.01489E-04-3.04301E-05-3.04573E-05-8.57071E-07-2.62814E-19-1.30123E-18
 -1      1529 1.00601E-04-3.01471E-05-3.01941E-05-8.19963E-07 1.46540E-19-1.21030E-18
 -1      1530 1.00191E-04-3.00171E-05-3.00847E-05-1.53638E-06 5.23207E-19-9.23077E-19
 -1      1531 1.03291E-04-3.09785E-05-3.09930E-05-9.38308E-07-2.27615E-19-5.32373E-19
 -1      1532 1.02304E-04-3.06640E-05-3.07025E-05-9.05725E-07-3.22127E-19-9.81327E-19
 -1      1533 1.01718E-04-3.04829E-05-3.05388E-05-1.71692E-06-3.47212E-19-9.92643E-19
 -1      1534 1.05179E-04-3.15612E-05-3.15489E-05-9.57953E-07-2.51126E-20-1.86539E-19
 -1      1535 1.04146E-04-3.12336E-05-3.12482E-05-9.40251E-07-1.52815E-19-2.65161E-19
 -1      1536 1.03364E-04-3.09984E-05-3.10209E-05-1.82003E-06-2.51843E-19-7.68768E-19
 -1      1537 1.06977E-04-3.21280E-05-3.20702E-05-8.65152E-07 1.21187E-19-1.21490E-19
 -1      1538 1.06003E-04-3.18227E-05-3.17912E-05-8.77616E-07 8.75802E-20-2.10349E-19
 -1      1539 1.05026E-04-3.15380E-05-3.14956E-05-1.76580E-06-2.43241E-19-8.70922E-20
 -1      1540 1.08404E-04-3.25947E-05-3.24709E-05-5.99390E-07 4.08545E-19-8.27849E-19
 -1      1541 1.07656E-04-3.23689E-05-3.22638E-05-6.61455E-07 1.77394E-19-1.43182E-19
 -1      1542 1.06524E-04-3.20526E-05-3.19062E-05-1.45199E-06 4.32926E-19 2.93315E-19
 -1      1543 1.09071E-04-3.28409E-05-3.26377E-05-1.06835E-07-9.99333E-20-7.53492E-19
 -1      1544 1.08781E-04-3.27731E-05-3.25687E-05-2.37722E-07 2.45166E-19-6.87387E-19
 -1      1545 1.07596E-04-3.24624E-05-3.21740E-05-7.71941E-07 3.57719E-19-1.98183E-19
 -1      1546 1.08537E-04-3.27204E-05-3.24475E-05 6.25223E-07-8.03728E-19 1.33485E-18
 -1      1547 1.08964E-04-3.28996E-05-3.25882E-05 4.16736E-07-9.99310E-19-2.86168E-19
 -1      1548 1.07912E-04-3.26540E-05-3.22081E-05 3.40885E-07-1.02982E-18 6.08064E-19
 -1      1549 1.06439E-04-3.20995E-05-3.18097E-05 1.51708E-06-5.57136E-19 2.19254E-18
 -1      1550 1.07791E-04-3.25961E-05-3.22113E-05 1.24886E-06-2.53025E-19 1.67125E-18
 -1      1551 1.07135E-04-3.24918E-05-3.19285E-05 1.83609E-06-7.53866E-19 9.73353E-19
 -1      1552 1.02708E-04-3.09299E-05-3.07272E-05 2.35165E-06 3.60432E-19 2.79402E-18
 -1      1553 1.05008E-04-3.17461E-05-3.13836E-05 2.08336E-06-1.42970E-19 2.65248E-18
 -1      1554 1.05053E-04-3.18573E-05-3.13048E-05 3.45594E-06-6.05648E-19 1.76981E-18
 -1      1555 9.78173E-05-2.93415E-05-2.93528E-05 2.78954E-06 3.03481E-19 1.09550E-18
 -1      1556 1.00758E-04-3.03591E-05-3.01678E-05 2.61993E-06 5.00699E-19 2.11430E-18
 -1      1557 1.01766E-04-3.07257E-05-3.03985E-05 4.69838E-06 9.99542E-19 2.56572E-18
 -1      1558 9.28723E-05-2.76953E-05-2.79968E-05 2.50182E-06 1.36812E-19 5.37866E-19
 -1      1559 9.57746E-05-2.86620E-05-2.87821E-05 2.53010E-06 1.25341E-19 9.30730E-19
 -1      1560 9.78438E-05-2.92627E-05-2.93842E-05 4.93751E-06 2.67011E-19 1.91093E-18
 -1      1561 8.93532E-05-2.65091E-05-2.70450E-05 1.39612E-06 3.84321E-19-3.24096E-19
 -1      1562 9.13409E-05-2.71096E-05-2.75729E-05 1.65590E-06 4.20472E-19 1.76792E-19
 -1      1563 9.43152E-05-2.78629E-05-2.85197E-05 3.74827E-06 4.13193E-19 1.11125E-18
 -1      1564 8.84885E-05-2.62258E-05-2.68040E-05-2.20972E-07-1.38000E-19-1.60575E-18
 -1      1565 8.88688E-05-2.62334E-05-2.69016E-05 1.92224E-07 6.68627E-20-1.50449E-18
 -1      1566 9.23362E-05-2.70350E-05-2.80592E-05 1.28242E-06 8.63735E-19 5.10089E-19
 -1      1567 9.05983E-05-2.69570E-05-2.73541E-05-1.75587E-06-6.05695E-19-2.44104E-19
 -1      1568 8.92308E-05-2.63656E-05-2.69889E-05-1.34415E-06-6.95613E-19-1.61598E-18
 -1      1569 9.26305E-05-2.71310E-05-2.81471E-05-1.64837E-06-6.29293E-19-9.58696E-19
 -1      1570 9.49146E-05-2.84167E-05-2.85108E-05-2.65907E-06 3.57924E-19-6.08805E-21
 -1      1571 9.22917E-05-2.74472E-05-2.78059E-05-2.39382E-06 1.07332E-19-3.20284E-20
 -1      1572 9.50859E-05-2.81171E-05-2.87536E-05-3.97458E-06-2.63255E-19-5.90541E-19
 -1      1573 1.00003E-04-3.00905E-05-2.99153E-05-2.72904E-06 4.88360E-19-2.52786E-20
 -1      1574 9.69795E-05-2.90635E-05-2.90884E-05-2.66521E-06 1.89199E-19 2.51754E-19
 -1      1575 9.88148E-05-2.95905E-05-2.96887E-05-4.96175E-06 3.48728E-19-1.30929E-18
 -1      1576 1.04483E-04-3.15137E-05-3.11963E-05-2.14524E-06-3.25721E-19 1.24408E-20
 -1      1577 1.01858E-04-3.06903E-05-3.04615E-05-2.24357E-06 3.10252E-19 7.78873E-19
 -1      1578 1.02643E-04-3.10299E-05-3.06872E-05-4.55634E-06-2.92491E-20-2.85662E-19
 -1      1579 1.07515E-04-3.24326E-05-3.21031E-05-1.26172E-06 5.69650E-19-2.21645E-18
 -1      1580 1.05760E-04-3.19363E-05-3.15964E-05-1.44037E-06 5.10258E-19-1.09595E-18
 -1      1581 1.05641E-04-3.20700E-05-3.15128E-05-3.23300E-06 1.18164E-18-3.04230E-19
 -1      1582 1.08888E-04-3.28098E-05-3.25488E-05-3.93923E-07 8.26267E-19-3.73238E-18
 -1      1583 1.08103E-04-3.26382E-05-3.23094E-05-5.79619E-07 6.67210E-19-2.46988E-18
 -1      1584 1.07367E-04-3.25877E-05-3.20270E-05-1.61051E-06 1.21478E-18-1.88638E-18
 -1      1585 1.08829E-04-3.27424E-05-3.25758E-05 2.79638E-07-6.39162E-19-3.16357E-18
 -1      1586 1.08866E-04-3.28223E-05-3.25712E-05 1.29416E-07-5.58714E-19-3.98922E-18
 -1      1587 1.07818E-04-3.26408E-05-3.22002E-05-1.56854E-07-3.21409E-20-2.24373E-18
 -1      1588 1.07758E-04-3.23753E-05-3.22934E-05 7.09292E-07-2.32636E-20-2.09692E-18
 -1      1589 1.08363E-04-3.26143E-05-3.24571E-05 6.08072E-07 1.00421E-19-2.49175E-18
 -1      1590 1.07253E-04-3.23650E-05-3.20813E-05 9.01959E-07-4.18835E-19-2.73185E-18
 -1      1591 1.06102E-04-3.18449E-05-3.18243E-05 9.23217E-07 4.68967E-19-1.78167E-18
 -1      1592 1.07025E-04-3.21622E-05-3.20857E-05 8.66928E-07 1.63392E-19-1.36125E-18
 -1      1593 1.06018E-04-3.18996E-05-3.17562E-05 1.53384E-06-1.75280E-19-7.50428E-19
 -1      1594 1.04208E-04-3.12554E-05-3.12723E-05 9.79281E-07-2.93132E-21-1.58682E-18
 -1      1595 1.05252E-04-3.15929E-05-3.15739E-05 9.56842E-07 2.28204E-19-1.63513E-18
 -1      1596 1.04432E-04-3.13543E-05-3.13137E-05 1.81148E-06 2.53480E-19 9.15113E-19
 -1      1597 1.02314E-04-3.06758E-05-3.07118E-05 9.35433E-07 1.05212E-18-2.52013E-18
 -1      1598 1.03348E-04-3.09976E-05-3.10138E-05 9.35232E-07 3.18152E-19-1.35631E-18
 -1      1599 1.02738E-04-3.08027E-05-3.08269E-05 1.83989E-06 4.80249E-19 1.64202E-19
 -1      1600 1.00564E-04-3.01460E-05-3.01891E-05 8.37090E-07-5.75397E-19-3.05860E-18
 -1      1601 1.01510E-04-3.04329E-05-3.04676E-05 8.49817E-07 1.16223E-19-3.00390E-18
 -1      1602 1.01101E-04-3.02884E-05-3.03476E-05 1.71565E-06 3.74598E-19-8.12346E-19
 -1      1603 9.90312E-05-2.96851E-05-2.97290E-05 7.14500E-07-1.93067E-19-3.18636E-18
 -1      1604 9.98524E-05-2.99294E-05-2.99717E-05 7.33878E-07 9.69307E-20-2.77423E-18
 -1      1605 9.96182E-05-2.98335E-05-2.99080E-05 1.51113E-06-1.29864E-19-2.02853E-19
 -1      1606 9.77477E-05-2.93003E-05-2.93428E-05 5.84293E-07 1.27627E-19-2.55958E-18
 -1      1607 9.84295E-05-2.94999E-05-2.95446E-05 6.06954E-07-2.05874E-19-3.41669E-18
 -1      1608 9.83367E-05-2.94466E-05-2.95256E-05 1.27241E-06-1.55921E-19 1.59894E-20
 -1      1609 9.67229E-05-2.89928E-05-2.90350E-05 4.52270E-07 9.51902E-19-4.30322E-18
 -1      1610 9.72612E-05-2.91478E-05-2.91939E-05 4.77354E-07 1.06079E-18-2.76988E-18
 -1      1611 9.72764E-05-2.91285E-05-2.92085E-05 1.02277E-06 9.60132E-19-1.32918E-18
 -1      1612 9.59623E-05-2.87630E-05-2.88080E-05 3.16476E-07-8.64192E-19-3.62257E-18
 -1      1613 9.63532E-05-2.88725E-05-2.89226E-05 3.45252E-07-3.50086E-19-4.71930E-18
 -1      1614 9.64421E-05-2.88771E-05-2.89603E-05 7.68020E-07 3.53120E-19-5.72349E-19
 -1      1615 9.54744E-05-2.86145E-05-2.86619E-05 1.70102E-07-1.06158E-18-1.58482E-18
 -1      1616 9.57087E-05-2.86741E-05-2.87317E-05 2.06504E-07-9.54005E-19-3.11499E-18
 -1      1617 9.58326E-05-2.86894E-05-2.87812E-05 5.03461E-07-1.60786E-18 4.46502E-19
 -1      1618 9.52623E-05-2.85578E-05-2.85840E-05 2.72616E-08 5.94520E-19-1.20859E-18
 -1      1619 9.53324E-05-2.85624E-05-2.86163E-05 6.48825E-08 2.94852E-19-1.51655E-18
 -1      1620 9.54418E-05-2.85717E-05-2.86638E-05 2.26410E-07 2.46938E-19-8.89368E-20
 -1      1621 9.52235E-05-2.85710E-05-2.85562E-05-1.97630E-08-1.83548E-19-2.30980E-19
 -1      1622 9.52298E-05-2.84049E-05-2.86436E-05 1.31107E-07 6.31991E-19 1.56246E-20
 -1      1623 9.52540E-05-2.84965E-05-2.86074E-05 9.42842E-08 1.71814E-19 2.09102E-18
 -1      1624 9.50961E-05-2.79933E-05-2.87618E-05 2.79170E-07 1.66916E-18 5.14687E-19
 -1      1625 9.51736E-05-2.82273E-05-2.86943E-05 2.51729E-07 1.93800E-18-7.07599E-19
 -1      1626 9.52113E-05-2.82172E-05-2.87178E-05 3.81812E-07 8.15549E-19 1.70293E-19
 -1      1627 9.49041E-05-2.74127E-05-2.89265E-05 3.77001E-07 3.71166E-18 1.23586E-18
 -1      1628 9.50146E-05-2.77455E-05-2.88321E-05 3.62264E-07 2.39631E-18 2.11281E-18
 -1      1629 9.50530E-05-2.77852E-05-2.88350E-05 6.26418E-07 2.26884E-18 1.88011E-18
 -1      1630 9.46885E-05-2.67540E-05-2.91151E-05 4.09064E-07 6.21729E-19-2.35597E-18
 -1      1631 9.48105E-05-2.71249E-05-2.90092E-05 4.08101E-07 2.46979E-18 1.00299E-19
 -1      1632 9.48591E-05-2.72449E-05-2.89797E-05 7.62370E-07 1.27749E-18-3.51531E-20
 -1      1633 9.44854E-05-2.61289E-05-2.92954E-05 3.77435E-07-1.33804E-18-4.00578E-19
 -1      1634 9.45976E-05-2.64719E-05-2.91971E-05 3.88373E-07 2.10501E-20-2.07840E-18
 -1      1635 9.46562E-05-2.66718E-05-2.91343E-05 7.72826E-07 3.81021E-19-3.15879E-18
 -1      1636 9.43167E-05-2.56084E-05-2.94459E-05 2.89250E-07-2.15468E-18 5.57005E-19
 -1      1637 9.44062E-05-2.58820E-05-2.93674E-05 3.10545E-07-2.29053E-18-7.48587E-19
 -1      1638 9.44707E-05-2.61414E-05-2.92785E-05 6.66500E-07-4.52943E-19-2.00290E-18
 -1      1639 9.42106E-05-2.52809E-05-2.95408E-05 1.58119E-07-3.11082E-18-1.43335E-18
 -1      1640 9.42621E-05-2.54378E-05-2.94957E-05 1.86518E-07-3.25186E-18 1.40374E-18
 -1      1641 9.43248E-05-2.57233E-05-2.93923E-05 4.60928E-07-6.05241E-19 1.68502E-19
 -1      1642 9.41825E-05-2.51956E-05-2.95653E-05 2.11202E-09-6.99619E-19 2.27838E-18
 -1      1643 9.41879E-05-2.52111E-05-2.95609E-05 3.38376E-08-2.85271E-18 4.41283E-19
 -1      1644 9.42401E-05-2.54819E-05-2.94577E-05 1.86158E-07-1.03662E-18 4.45157E-19
 -1      1645 9.42379E-05-2.53689E-05-2.95148E-05-1.57276E-07-1.17168E-18-1.72799E-18
 -1      1646 9.41955E-05-2.52380E-05-2.95524E-05-1.26611E-07-6.26083E-19 1.01003E-18
 -1      1647 9.42290E-05-2.54534E-05-2.94648E-05-1.20154E-07-8.64754E-19 1.80700E-18
 -1      1648 9.43707E-05-2.57802E-05-2.93957E-05-2.96731E-07-3.95798E-18-2.06956E-18
 -1      1649 9.42858E-05-2.55197E-05-2.94704E-05-2.71784E-07-1.06630E-18-1.90613E-18
 -1      1650 9.42947E-05-2.56456E-05-2.94117E-05-4.14900E-07-2.31688E-18-1.47815E-18
 -1      1651 9.45595E-05-2.63606E-05-2.92283E-05-3.92234E-07-6.49511E-18 1.61870E-19
 -1      1652 9.44459E-05-2.60146E-05-2.93272E-05-3.77573E-07-4.40692E-18-2.09079E-18
 -1      1653 9.44295E-05-2.60312E-05-2.93066E-05-6.51869E-07-2.06050E-18-3.44840E-18
 -1      1654 9.47829E-05-2.70405E-05-2.90336E-05-4.27309E-07-4.49176E-18 1.34273E-18
 -1      1655 9.46546E-05-2.66532E-05-2.91437E-05-4.25878E-07-7.40450E-18 2.57870E-18
 -1      1656 9.46155E-05-2.65588E-05-2.91640E-05-7.91964E-07-2.10415E-18 1.24931E-18
 -1      1657 9.50005E-05-2.76973E-05-2.88473E-05-3.86900E-07-2.76150E-18 7.48199E-19
 -1      1658 9.48823E-05-2.73429E-05-2.89473E-05-4.01073E-07-3.95242E-18 8.76932E-19
 -1      1659 9.48307E-05-2.71578E-05-2.90043E-05-8.03636E-07-1.87338E-18 2.46686E-18
 -1      1660 9.51745E-05-2.82076E-05-2.87013E-05-2.71207E-07-2.28392E-18 4.40815E-19
 -1      1661 9.50865E-05-2.79590E-05-2.87732E-05-3.02164E-07-2.82885E-18 3.86399E-19
 -1      1662 9.50377E-05-2.77292E-05-2.88526E-05-6.68639E-07-1.49761E-18 7.46887E-19
 -1      1663 9.52696E-05-2.84473E-05-2.86332E-05-1.66281E-07-2.07401E-18 1.56379E-19
 -1      1664 9.52397E-05-2.83429E-05-2.86737E-05-2.23778E-07-2.16786E-18-7.15778E-20
 -1      1665 9.52291E-05-2.81368E-05-2.87573E-05-5.02099E-07-1.08417E-18 3.51363E-19
 -1      1666 9.53861E-05-2.84048E-05-2.87029E-05-3.45288E-07-5.80532E-19 1.60741E-18
 -1      1667 1.95369E-05-6.26056E-05 1.29624E-05-4.37907E-06-4.98479E-18 8.77950E-19
 -1      1668 2.32323E-05-7.40613E-05 1.54659E-05 3.04287E-06-6.44042E-18-3.65495E-19
 -1      1669 2.09330E-05-3.41836E-05 1.95851E-06 7.10716E-06 6.40357E-19 2.23490E-18
 -1      1670 2.45795E-05-5.76794E-05 8.52651E-06 1.61188E-06-3.89127E-18 2.23599E-18
 -1      1671 3.57043E-05-7.97879E-06-1.34829E-05 3.10274E-05 3.29581E-18 3.47707E-18
 -1      1672 2.91435E-05-2.72047E-05-5.07434E-06 1.32604E-05 1.42556E-18 2.16756E-18
 -1      1673 7.82821E-05-9.93208E-07-3.22633E-05 6.20610E-05 3.40761E-18 4.24533E-18
 -1      1674 5.15694E-05-4.64653E-06-2.22947E-05 3.92513E-05 4.22924E-18 3.38728E-18
 -1      1675 1.47876E-04-2.16884E-05-5.07883E-05 7.20282E-05 2.40896E-18 3.05355E-18
 -1      1676 1.06734E-04-8.87624E-06-4.14110E-05 6.18764E-05 3.17468E-18 4.17841E-18
 -1      1677 2.12370E-04-4.56877E-05-6.60989E-05 5.96270E-05 1.57966E-18 4.34274E-18
 -1      1678 1.69397E-04-2.39498E-05-5.91029E-05 7.27192E-05 2.65884E-18 4.33257E-18
 -1      1679 2.42849E-04-5.91930E-05-7.30079E-05 1.32876E-05 4.30081E-19 4.36010E-18
 -1      1680 2.23289E-04-4.83298E-05-7.01550E-05 4.37324E-05 5.04620E-19 3.89720E-18
 -1      1681 2.42229E-04-5.80041E-05-7.29957E-05-3.56812E-05 9.60959E-19 1.76860E-18
 -1      1682 2.53140E-04-6.44334E-05-7.45446E-05-8.32667E-07 1.06938E-18 3.32958E-18
 -1      1683 1.91482E-04-3.37356E-05-6.37393E-05-6.56156E-05 2.53888E-18-1.40184E-18
 -1      1684 2.27360E-04-5.23158E-05-6.91915E-05-4.68772E-05 1.55589E-18 1.59666E-18
 -1      1685 1.30843E-04-1.35825E-05-4.86797E-05-6.69940E-05 3.67443E-18-3.66935E-18
 -1      1686 1.71716E-04-3.01015E-05-5.68366E-05-6.88559E-05 3.02412E-18-1.65256E-18
 -1      1687 7.24666E-05-8.42559E-07-3.14568E-05-5.39442E-05 3.90143E-18-4.13013E-18
 -1      1688 1.05167E-04-5.73361E-06-4.06849E-05-7.16193E-05 3.57448E-18-5.07712E-18
 -1      1689 4.04673E-05-1.77814E-05-1.28540E-05-2.51858E-05 2.03881E-18-2.49748E-18
 -1      1690 5.62753E-05-4.59829E-06-2.24466E-05-4.68614E-05 3.03831E-18-4.19281E-18
 -1      1691 2.62001E-05-4.51116E-05 3.03644E-06-5.49474E-06-9.05478E-19-1.44546E-18
 -1      1692 2.62372E-05-2.20599E-05-4.57572E-06-1.73650E-05 1.27140E-18-2.57752E-18
 -1      1693 2.38606E-05-6.93949E-05 1.31913E-05-1.17722E-07-8.19081E-19-1.33408E-19
 -1      1694 1.86569E-05-5.10062E-05 8.90899E-06 2.12660E-06-7.63177E-19 1.37643E-19
 -1      1695 2.27722E-05-7.58265E-05 1.61712E-05-5.50325E-06-1.74679E-18-5.88900E-19
 -1      1696 2.22437E-05-7.38631E-05 1.57025E-05 4.55869E-06-9.29830E-19-4.44692E-19
 -1      1697 1.90778E-05-5.58174E-05 1.04564E-05-4.56039E-06-3.99037E-18-2.38090E-18
 -1      1698 2.37752E-05-7.16040E-05 1.41919E-05-5.94928E-07-1.95919E-18-1.54795E-18
 -1      1699 2.22665E-05-2.67899E-05-1.82101E-06 9.18152E-06-8.67616E-18-7.50641E-18
 -1      1700 2.42920E-05-5.07350E-05 5.49346E-06-4.72868E-07-5.56416E-18-4.02351E-18
 -1      1701 4.72432E-05-5.76697E-06-1.91248E-05 3.95965E-05-1.10419E-17-9.89080E-18
 -1      1702 3.42338E-05-2.09217E-05-9.84833E-06 1.81010E-05-9.97890E-18-8.41951E-18
 -1      1703 1.12180E-04-1.37774E-05-4.03112E-05 6.69018E-05-8.58637E-18-1.19711E-17
 -1      1704 7.51630E-05-1.03547E-05-2.91031E-05 4.59031E-05-1.02601E-17-1.05057E-17
 -1      1705 1.77294E-04-3.13918E-05-5.82687E-05 7.23139E-05-7.08585E-18-1.18923E-17
 -1      1706 1.33205E-04-1.31480E-05-4.98609E-05 7.05774E-05-8.36869E-18-1.28419E-17
 -1      1707 2.33245E-04-5.49310E-05-7.06409E-05 3.78779E-05-2.72046E-18-1.04219E-17
 -1      1708 1.95962E-04-3.62217E-05-6.46239E-05 5.89941E-05-4.84905E-18-1.09759E-17
 -1      1709 2.60624E-04-6.65106E-05-7.60441E-05-7.71032E-06-1.43805E-18-7.83865E-18
 -1      1710 2.52510E-04-6.20912E-05-7.50861E-05 2.95647E-05-2.35433E-18-1.00962E-17
 -1      1711 2.28395E-04-5.02618E-05-7.07178E-05-5.31059E-05-2.71061E-18-1.78470E-18
 -1      1712 2.54282E-04-6.42459E-05-7.44534E-05-2.39424E-05-1.70952E-18-6.71697E-18
 -1      1713 1.69114E-04-2.43844E-05-5.86283E-05-7.46687E-05-3.50799E-18 2.65630E-18
 -1      1714 2.11627E-04-4.46600E-05-6.56550E-05-6.59338E-05-2.50129E-18 1.84653E-19
 -1      1715 1.02220E-04-6.61847E-06-4.06238E-05-6.31673E-05-4.96277E-18 5.01528E-18
 -1      1716 1.45221E-04-1.91269E-05-5.04452E-05-7.61485E-05-4.13521E-18 3.74643E-18
 -1      1717 5.16209E-05-1.23823E-05-1.95517E-05-3.31296E-05-7.34716E-18 5.35410E-18
 -1      1718 7.81626E-05-5.31499E-06-3.05501E-05-5.80655E-05-5.79625E-18 5.55315E-18
 -1      1719 2.92584E-05-3.70602E-05-1.52148E-06-8.35147E-06-7.89435E-18 4.84079E-18
 -1      1720 3.40005E-05-1.55971E-05-1.01345E-05-2.51994E-05-8.27721E-18 5.34435E-18
 -1      1721 2.39059E-05-6.35376E-05 1.07519E-05 2.28945E-06-7.98583E-18 1.98042E-18
 -1      1722 1.90950E-05-4.23631E-05 5.35356E-06 1.30702E-07-7.89689E-18 3.60571E-18
 -1      1723 2.33453E-05-7.55393E-05 1.59183E-05-1.09155E-06-7.92802E-18-8.51692E-19
 -1      1724 2.05956E-05-6.77006E-05 1.41813E-05 7.17549E-06-7.35818E-18 7.40519E-19
 -1      1725 1.19361E-04-3.16979E-05-3.62247E-05 4.42520E-05 2.03711E-18 2.93497E-18
 -1      1726 7.37324E-05-3.17589E-05-1.89473E-05 4.10203E-05 1.47977E-18 2.55507E-18
 -1      1727 9.52707E-05-2.85637E-05-2.85880E-05 2.02499E-08-5.16688E-19 5.13869E-19
 -1      1728 9.52956E-05-2.84578E-05-2.86448E-05 1.59983E-07 4.10335E-19 2.32311E-18
 -1      1729 2.01483E-05-4.53655E-05 7.00425E-06 1.78043E-05-2.19000E-18 3.73309E-18
 -1      1730 4.20394E-05-3.97575E-05-3.78047E-06 3.00565E-05-1.53398E-18 2.36084E-18
 -1      1731 1.15090E-05-4.91721E-05 1.16364E-05 2.15076E-06-5.04615E-18 4.48927E-19
 -1      1732 1.60955E-04-3.22580E-05-5.23642E-05 3.63288E-05 1.94775E-18 3.04678E-18
 -1      1733 1.89909E-04-2.99876E-05-6.42770E-05 2.32870E-05 1.00395E-18 2.66138E-18
 -1      1734 2.04712E-04-3.16338E-05-6.94689E-05 1.06001E-06 1.22100E-18 2.37836E-18
 -1      1735 2.01463E-04-3.31022E-05-6.73053E-05-1.85087E-05 2.25755E-18 1.77072E-18
 -1      1736 1.72355E-04-3.20565E-05-5.71031E-05-3.02191E-05 2.34046E-18 2.42378E-18
 -1      1737 1.36502E-04-3.06312E-05-4.33362E-05-4.32123E-05 1.01347E-18 1.89735E-19
 -1      1738 9.42484E-05-3.16156E-05-2.69215E-05-4.43300E-05 1.74489E-19-1.59157E-18
 -1      1739 5.85974E-05-3.79877E-05-1.06537E-05-3.68055E-05-8.18234E-19-2.70881E-18
 -1      1740 2.92015E-05-4.32423E-05 2.71422E-06-2.41881E-05-1.07234E-18-1.07298E-18
 -1      1741 1.42850E-05-4.97276E-05 1.07120E-05-9.27356E-06-1.91684E-18-2.91803E-19
 -1      1742 1.29558E-05-4.95339E-05 1.12105E-05 5.20362E-06-2.26052E-18-1.59708E-18
 -1      1743 2.52898E-05-4.53294E-05 4.69221E-06 1.84461E-05-2.55042E-18-4.62713E-18
 -1      1744 5.05597E-05-3.85648E-05-7.74105E-06 3.10330E-05-5.33123E-18-7.50005E-18
 -1      1745 9.48988E-05-3.67109E-05-2.50889E-05 4.15073E-05-6.88722E-18-7.53436E-18
 -1      1746 1.41219E-04-3.70380E-05-4.31456E-05 3.91290E-05-6.05798E-18-8.37631E-18
 -1      1747 1.78267E-04-3.32992E-05-5.84282E-05 2.85068E-05-5.10004E-18-7.54537E-18
 -1      1748 2.03485E-04-3.32617E-05-6.83681E-05 1.07588E-05-3.07431E-18-7.37935E-18
 -1      1749 2.16048E-04-3.61759E-05-7.12011E-05-6.59176E-06-3.62572E-18-5.68804E-18
 -1      1750 1.97666E-04-3.46178E-05-6.48848E-05-2.77216E-05-4.21907E-18-3.72737E-18
 -1      1751 1.62674E-04-3.34686E-05-5.22565E-05-4.05414E-05-3.46479E-18-6.50521E-19
 -1      1752 1.17935E-04-3.47423E-05-3.49013E-05-4.33263E-05-3.62530E-18 2.08285E-18
 -1      1753 7.36085E-05-3.85685E-05-1.64384E-05-3.83408E-05-5.42779E-18 3.79725E-18
 -1      1754 3.80835E-05-4.29313E-05-1.03535E-06-2.65713E-05-5.97836E-18 3.66011E-18
 -1      1755 1.77115E-05-4.83477E-05 8.79695E-06-1.19162E-05-6.10245E-18 1.16509E-18
 -1      1756 1.05961E-04-2.31470E-05-3.55751E-05-1.68542E-05-4.54513E-19 2.99596E-18
 -1      1757 8.91201E-05-1.05577E-05-3.37930E-05-1.33443E-05-6.90802E-19-2.00853E-19
 -1      1758 9.04341E-05-1.16235E-05-3.39278E-05-1.51178E-05-8.30112E-19 9.94470E-20
 -1      1759 9.24555E-05-1.38656E-05-3.38411E-05-1.60072E-05-7.95427E-19 3.87041E-19
 -1      1760 9.41530E-05-1.58117E-05-3.40793E-05-1.76670E-05-7.80461E-19 8.66938E-19
 -1      1761 9.34130E-05-1.63575E-05-3.30348E-05-1.37537E-05-8.33024E-19 2.71686E-19
 -1      1762 8.62442E-05-7.67416E-06-3.37444E-05-7.86435E-06-5.06974E-19-7.08530E-19
 -1      1763 8.66376E-05-7.97216E-06-3.37745E-05-9.25412E-06-5.96576E-19-6.81742E-19
 -1      1764 8.56406E-05-7.03671E-06-3.37469E-05-5.31989E-06-3.63208E-19-7.10952E-19
 -1      1765 8.58691E-05-7.21546E-06-3.37595E-05-6.62494E-06-4.47657E-19-7.13122E-19
 -1      1766 8.76297E-05-9.86542E-06-3.33603E-05-6.92645E-06-4.93458E-19-6.66218E-19
 -1      1767 8.53132E-05-6.67689E-06-3.37537E-05-2.88791E-06-1.14011E-19-7.03236E-19
 -1      1768 8.54308E-05-6.77187E-06-3.37581E-05-4.12765E-06-2.43412E-19-7.16987E-19
 -1      1769 8.70059E-05-9.15196E-06-3.33984E-05-4.53453E-06-3.09051E-19-6.60970E-19
 -1      1770 8.51852E-05-6.52794E-06-3.37587E-05-5.16982E-07 7.50242E-20-7.78516E-19
 -1      1771 8.52199E-05-6.55663E-06-3.37596E-05-1.72638E-06 3.79666E-21-7.22281E-19
 -1      1772 8.66797E-05-8.77135E-06-3.34215E-05-2.21518E-06-6.40318E-20-6.85938E-19
 -1      1773 8.52293E-05-6.56545E-06-3.37597E-05 1.84496E-06 1.91671E-19-7.72203E-19
 -1      1774 8.51887E-05-6.53243E-06-3.37585E-05 6.34598E-07 1.43481E-19-7.82447E-19
 -1      1775 8.65832E-05-8.65707E-06-3.34291E-05 6.57305E-08 1.24223E-19-7.12097E-19
 -1      1776 8.54552E-05-6.79649E-06-3.37580E-05 4.25055E-06 3.01978E-19-7.36336E-19
 -1      1777 8.53305E-05-6.69554E-06-3.37535E-05 3.00778E-06 2.56460E-19-7.76359E-19
 -1      1778 8.66968E-05-8.79067E-06-3.34206E-05 2.34778E-06 2.18224E-19-7.04526E-19
 -1      1779 8.59025E-05-7.25070E-06-3.37588E-05 6.71224E-06 4.54077E-19-6.83847E-19
 -1      1780 8.56700E-05-7.06830E-06-3.37465E-05 5.42477E-06 3.70796E-19-7.31042E-19
 -1      1781 8.70390E-05-9.18911E-06-3.33966E-05 4.64994E-06 3.81793E-19-6.90398E-19
 -1      1782 8.67006E-05-8.04079E-06-3.37729E-05 9.37512E-06 6.89316E-19-5.11780E-19
 -1      1783 8.62881E-05-7.72446E-06-3.37427E-05 7.95383E-06 5.52040E-19-5.93201E-19
 -1      1784 8.76805E-05-9.92321E-06-3.33571E-05 7.02520E-06 5.43128E-19-6.13781E-19
 -1      1785 8.80920E-05-9.38714E-06-3.38197E-05 1.22557E-05 8.29808E-19-2.25364E-19
 -1      1786 8.73633E-05-8.83032E-06-3.37521E-05 1.06622E-05 7.32604E-19-4.03135E-19
 -1      1787 8.87854E-05-1.11585E-05-3.32993E-05 9.50067E-06 7.73255E-19-3.85479E-19
 -1      1788 9.06086E-05-1.18351E-05-3.39198E-05 1.53054E-05 9.23570E-19 2.85080E-19
 -1      1789 8.92426E-05-1.07381E-05-3.37851E-05 1.35157E-05 8.54808E-19-3.98635E-20
 -1      1790 9.06600E-05-1.32192E-05-3.32075E-05 1.19748E-05 9.20401E-19-4.45619E-20
 -1      1791 9.58196E-05-1.70209E-05-3.39747E-05 1.76933E-05 9.81979E-19 1.16499E-18
 -1      1792 9.28174E-05-1.43340E-05-3.38139E-05 1.61974E-05 9.29357E-19 6.82603E-19
 -1      1793 9.39382E-05-1.68779E-05-3.30146E-05 1.38963E-05 9.99132E-19 5.34028E-19
 -1      1794 1.01843E-04-2.50710E-05-3.33340E-05 1.44258E-05 8.24904E-19 2.22452E-18
 -1      1795 9.80087E-05-1.95992E-05-3.36036E-05 1.69674E-05 9.10527E-19 1.51539E-18
 -1      1796 9.72697E-05-2.18373E-05-3.24093E-05 1.32521E-05 1.02711E-18 1.16763E-18
 -1      1797 9.86698E-05-2.61110E-05-3.13175E-05 9.43970E-06 8.94361E-19 1.98224E-18
 -1      1798 1.00080E-04-1.95450E-05-3.41934E-05-1.88726E-05-6.21365E-19 1.69777E-18
 -1      1799 9.52290E-05-2.72603E-05-2.91609E-05 4.07083E-06 6.53830E-19 1.61638E-18
 -1      1800 9.76599E-05-2.73660E-05-3.01700E-05 6.40495E-06 7.40016E-19 1.77805E-18
 -1      1801 9.75064E-05-2.55937E-05-3.08118E-05 8.76397E-06 8.29007E-19 1.31739E-18
 -1      1802 9.97483E-05-2.25237E-05-3.28150E-05-1.44733E-05-6.79320E-19 1.26504E-18
 -1      1803 9.68870E-05-2.69552E-05-2.98558E-05-5.70837E-06-5.66612E-19 1.18279E-18
 -1      1804 9.50804E-05-2.70111E-05-2.91453E-05-3.89999E-06-4.57318E-19 9.68595E-19
 -1      1805 9.42645E-05-2.72129E-05-2.86392E-05-2.42154E-06-4.70679E-19 9.52350E-19
 -1      1806 9.34945E-05-2.72926E-05-2.83351E-05-1.56558E-06-4.34144E-19 8.89090E-19
 -1      1807 9.54544E-05-2.65274E-05-2.95612E-05-4.47142E-06-5.33935E-19 5.49400E-19
 -1      1808 9.29747E-05-2.73433E-05-2.80686E-05-7.33277E-07-2.79220E-19 7.93739E-19
 -1      1809 9.26781E-05-2.74065E-05-2.79484E-05-2.89960E-07-2.73095E-19 7.44449E-19
 -1      1810 9.42520E-05-2.72012E-05-2.87569E-05-1.81863E-06-4.40371E-19 4.83163E-19
 -1      1811 9.24110E-05-2.74347E-05-2.78160E-05 1.74523E-07-3.50225E-19 8.68148E-19
 -1      1812 9.23895E-05-2.75115E-05-2.77895E-05 4.06852E-07-3.45144E-19 8.79044E-19
 -1      1813 9.35636E-05-2.75060E-05-2.83273E-05-3.35481E-07-3.10467E-19 2.28462E-19
 -1      1814 9.23000E-05-2.75444E-05-2.77369E-05 6.60984E-07-3.21822E-19 8.92772E-19
 -1      1815 9.24322E-05-2.76315E-05-2.77620E-05 7.77830E-07-9.52383E-20 6.92515E-19
 -1      1816 9.32640E-05-2.76902E-05-2.81159E-05 4.93831E-07-3.39134E-19 3.82174E-19
 -1      1817 9.24593E-05-2.76724E-05-2.77586E-05 9.10543E-07-4.41826E-20 6.05800E-19
 -1      1818 9.26757E-05-2.77634E-05-2.78128E-05 9.63519E-07-1.55615E-19 6.04553E-19
 -1      1819 9.32345E-05-2.78335E-05-2.80381E-05 9.46166E-07-1.87626E-19 2.72991E-19
 -1      1820 9.27771E-05-2.78098E-05-2.78403E-05 1.02843E-06-3.16220E-19 5.22733E-19
 -1      1821 9.30383E-05-2.79003E-05-2.79110E-05 1.04887E-06-3.75898E-19 5.46314E-19
 -1      1822 9.33815E-05-2.79593E-05-2.80443E-05 1.18196E-06-2.42033E-19 2.82137E-19
 -1      1823 9.31875E-05-2.79496E-05-2.79585E-05 1.08086E-06-4.77705E-19 6.11023E-19
 -1      1824 9.34738E-05-2.80378E-05-2.80392E-05 1.08968E-06-3.63591E-19 6.45754E-19
 -1      1825 9.36416E-05-2.80741E-05-2.81047E-05 1.30133E-06-3.69336E-19 3.17686E-19
 -1      1826 9.36560E-05-2.80887E-05-2.81006E-05 1.11307E-06-2.78319E-19 4.41850E-19
 -1      1827 9.39606E-05-2.81750E-05-2.81889E-05 1.12538E-06-1.99114E-19 1.99910E-19
 -1      1828 9.39764E-05-2.81799E-05-2.82017E-05 1.37148E-06-5.39880E-19 3.25569E-19
 -1      1829 9.41700E-05-2.82274E-05-2.82617E-05 1.15829E-06-2.49017E-19 5.86182E-21
 -1      1830 9.44960E-05-2.83141E-05-2.83578E-05 1.18586E-06-1.68042E-19-1.82944E-19
 -1      1831 9.43669E-05-2.82790E-05-2.83262E-05 1.44061E-06-3.49143E-19 1.44708E-19
 -1      1832 9.47333E-05-2.83694E-05-2.84420E-05 1.24272E-06-7.72217E-20-2.13034E-19
 -1      1833 9.50911E-05-2.84603E-05-2.85487E-05 1.29539E-06-2.30731E-19 8.64807E-21
 -1      1834 9.48091E-05-2.83747E-05-2.84748E-05 1.54567E-06-1.33853E-19-4.12391E-21
 -1      1835 9.53626E-05-2.85207E-05-2.86461E-05 1.38848E-06-9.60382E-20 2.00256E-19
 -1      1836 9.57690E-05-2.86214E-05-2.87681E-05 1.47508E-06 2.67045E-19 5.85587E-19
 -1      1837 9.53106E-05-2.84717E-05-2.86487E-05 1.71685E-06 1.10569E-19 4.04672E-19
 -1      1838 9.60846E-05-2.86901E-05-2.88821E-05 1.61537E-06 1.60263E-19 4.79157E-19
 -1      1839 9.65617E-05-2.88076E-05-2.90255E-05 1.74408E-06 1.01689E-19 6.08984E-19
 -1      1840 9.58881E-05-2.85762E-05-2.88521E-05 1.98023E-06 1.36828E-19 5.20378E-19
 -1      1841 9.69350E-05-2.88889E-05-2.91604E-05 1.94144E-06-4.42908E-19 2.91317E-19
 -1      1842 9.75094E-05-2.90318E-05-2.93327E-05 2.11971E-06-6.28462E-19 1.66291E-19
 -1      1843 9.65654E-05-2.86965E-05-2.90918E-05 2.35905E-06-3.16636E-19-2.18316E-20
 -1      1844 9.79561E-05-2.91311E-05-2.94934E-05 2.38229E-06-5.95615E-19-8.70911E-20
 -1      1845 9.86581E-05-2.93099E-05-2.97026E-05 2.61577E-06-5.40706E-19-3.44193E-19
 -1      1846 9.73722E-05-2.88434E-05-2.93757E-05 2.87322E-06-8.02462E-19-2.08578E-19
 -1      1847 9.91959E-05-2.94346E-05-2.98940E-05 2.94814E-06-4.72580E-19-5.08993E-19
 -1      1848 1.00057E-04-2.96625E-05-3.01483E-05 3.23824E-06-2.88792E-19-2.76125E-19
 -1      1849 9.83431E-05-2.90322E-05-2.97120E-05 3.53664E-06-6.25450E-19 4.14523E-19
 -1      1850 1.00705E-04-2.98229E-05-3.03738E-05 3.63734E-06-1.35042E-19-5.17182E-19
 -1      1851 1.01754E-04-3.01159E-05-3.06798E-05 3.97636E-06-1.86238E-19-7.19445E-19
 -1      1852 9.95159E-05-2.92855E-05-3.01072E-05 4.35081E-06-3.14265E-19 5.90838E-20
 -1      1853 1.02530E-04-3.03278E-05-3.09401E-05 4.42411E-06-1.70441E-19-7.42171E-19
 -1      1854 1.03787E-04-3.07055E-05-3.12999E-05 4.78645E-06 4.03654E-19-6.80715E-19
 -1      1855 1.00931E-04-2.96389E-05-3.05636E-05 5.29252E-06-1.13740E-19 4.08793E-20
 -1      1856 1.04712E-04-3.09933E-05-3.15908E-05 5.23738E-06 1.01309E-18-6.30575E-19
 -1      1857 1.06173E-04-3.14787E-05-3.19979E-05 5.56564E-06 1.35023E-18 3.97708E-21
 -1      1858 1.02633E-04-3.01496E-05-3.10754E-05 6.29296E-06 6.77556E-19-4.35752E-19
 -1      1859 1.07269E-04-3.18797E-05-3.23074E-05 5.92841E-06 1.28946E-18 1.97872E-19
 -1      1860 1.08888E-04-3.24960E-05-3.27405E-05 6.11444E-06 8.09172E-19 2.26588E-19
 -1      1861 1.04669E-04-3.09069E-05-3.16254E-05 7.20510E-06 1.37579E-18-8.61214E-19
 -1      1862 1.10176E-04-3.30613E-05-3.30475E-05 6.22879E-06 5.47485E-19 1.12432E-18
 -1      1863 1.11839E-04-3.38192E-05-3.34638E-05 6.09618E-06 9.22096E-19 1.18321E-18
 -1      1864 1.07091E-04-3.20390E-05-3.21813E-05 7.76031E-06 1.06443E-18-4.06172E-19
 -1      1865 1.13333E-04-3.46005E-05-3.37395E-05 5.71619E-06 1.07614E-18 8.94215E-19
 -1      1866 1.14820E-04-3.54641E-05-3.40721E-05 5.02494E-06 8.67755E-19 1.50928E-18
 -1      1867 1.09945E-04-3.36931E-05-3.26988E-05 7.52605E-06 1.03164E-18 1.32604E-19
 -1      1868 1.16485E-04-3.64623E-05-3.42895E-05 3.84113E-06 3.88087E-19 1.71338E-18
 -1      1869 1.17448E-04-3.72799E-05-3.44571E-05 2.36009E-06 4.37731E-19 1.81013E-18
 -1      1870 1.13215E-04-3.59422E-05-3.31375E-05 5.90684E-06 1.15362E-18 6.39220E-19
 -1      1871 1.19104E-04-3.83309E-05-3.46117E-05 1.26430E-07 6.10923E-19 1.65698E-18
 -1      1872 1.19091E-04-3.87399E-05-3.45514E-05-2.16710E-06 2.30525E-19 1.71369E-18
 -1      1873 1.16682E-04-3.85538E-05-3.34956E-05 2.28754E-06 6.06429E-19 3.88503E-19
 -1      1874 1.20268E-04-3.93573E-05-3.46884E-05-5.30509E-06 4.53295E-21 2.01520E-18
 -1      1875 1.18878E-04-3.87820E-05-3.44086E-05-7.89038E-06-4.17581E-19 1.77987E-18
 -1      1876 1.19658E-04-4.06127E-05-3.38614E-05-3.52045E-06 9.73691E-20 9.86896E-19
 -1      1877 1.18832E-04-3.82030E-05-3.46163E-05-1.08996E-05-3.19265E-19 1.88119E-18
 -1      1878 1.16095E-04-3.62219E-05-3.42258E-05-1.24968E-05 1.17262E-19 2.30681E-18
 -1      1879 1.20816E-04-4.03886E-05-3.44228E-05-1.03940E-05-1.16980E-19 1.84770E-18
 -1      1880 1.14440E-04-3.40871E-05-3.45466E-05-1.33601E-05 5.47954E-19 2.43292E-18
 -1      1881 1.11275E-04-3.12532E-05-3.42144E-05-1.24262E-05 7.12037E-19 2.34234E-18
 -1      1882 1.18865E-04-3.63872E-05-3.53219E-05-1.50539E-05 5.07293E-19 1.43718E-18
 -1      1883 1.09001E-04-2.86551E-05-3.45460E-05-9.51216E-06-5.77306E-20 1.89495E-18
 -1      1884 1.07090E-04-2.67606E-05-3.43873E-05-5.72802E-06-6.57271E-19 1.68312E-18
 -1      1885 1.14419E-04-2.96688E-05-3.63980E-05-1.31835E-05 1.32614E-20 1.25339E-18
 -1      1886 1.06382E-04-2.59684E-05-3.44822E-05-8.52468E-08-1.49030E-18 1.25090E-18
 -1      1887 1.06931E-04-2.65271E-05-3.45261E-05 4.54708E-06-1.68332E-18 8.07500E-19
 -1      1888 1.11062E-04-2.49846E-05-3.70837E-05-3.53935E-06-9.79408E-19 1.68273E-19
 -1      1889 1.08574E-04-2.83622E-05-3.43001E-05 9.38384E-06-1.82901E-18 2.55784E-19
 -1      1890 1.11251E-04-3.09401E-05-3.45409E-05 1.20374E-05-1.96526E-18 1.75005E-19
 -1      1891 1.12084E-04-2.63835E-05-3.68768E-05 8.46517E-06-2.34268E-18 3.93606E-20
 -1      1892 1.13480E-04-3.35875E-05-3.41893E-05 1.32264E-05-2.17267E-18-3.84474E-20
 -1      1893 1.16636E-04-3.62108E-05-3.45649E-05 1.29036E-05-1.69429E-18-7.47904E-20
 -1      1894 1.16477E-04-3.26833E-05-3.59379E-05 1.49864E-05-2.08999E-18 8.45279E-20
 -1      1895 1.17603E-04-3.76952E-05-3.42865E-05 1.08211E-05-1.00674E-18-1.39019E-19
 -1      1896 1.19795E-04-3.90478E-05-3.46447E-05 8.59286E-06-2.89712E-20-4.28301E-19
 -1      1897 1.20109E-04-3.86190E-05-3.48873E-05 1.35575E-05-1.45967E-18 1.79535E-19
 -1      1898 1.19210E-04-3.90097E-05-3.44755E-05 5.32780E-06 7.44330E-20-1.01852E-18
 -1      1899 1.19959E-04-3.90784E-05-3.46644E-05 2.75619E-06-1.07348E-19-1.26922E-18
 -1      1900 1.20598E-04-4.08837E-05-3.41297E-05 7.39148E-06-5.29406E-19-6.06397E-19
 -1      1901 1.18489E-04-3.81883E-05-3.45269E-05-5.32163E-08 5.66453E-20-2.11320E-18
 -1      1902 1.18010E-04-3.75384E-05-3.44809E-05-2.01881E-06-1.29556E-19-1.56016E-18
 -1      1903 1.18447E-04-3.98685E-05-3.36748E-05 7.13940E-07-3.78644E-19-1.95090E-18
 -1      1904 1.16307E-04-3.64710E-05-3.42992E-05-3.78289E-06-6.03498E-19-1.09346E-18
 -1      1905 1.15054E-04-3.56002E-05-3.40470E-05-4.90081E-06-6.62644E-19-1.65819E-18
 -1      1906 1.15121E-04-3.73978E-05-3.33270E-05-4.18369E-06-9.54897E-20-2.13286E-18
 -1      1907 1.13446E-04-3.46873E-05-3.37998E-05-5.69836E-06 5.70761E-19-1.40763E-18
 -1      1908 1.11837E-04-3.38562E-05-3.34181E-05-6.11657E-06 1.06619E-18-4.30954E-19
 -1      1909 1.11677E-04-3.48770E-05-3.29348E-05-6.87466E-06 9.28758E-20-5.63072E-19
 -1      1910 1.10426E-04-3.31717E-05-3.31230E-05-6.24733E-06 9.01888E-19-1.39216E-18
 -1      1911 1.08750E-04-3.24706E-05-3.26895E-05-6.21602E-06 1.40349E-19-9.90279E-19
 -1      1912 1.08565E-04-3.28785E-05-3.24549E-05-7.81476E-06 6.63518E-19 1.05993E-19
 -1      1913 1.07543E-04-3.19813E-05-3.23766E-05-5.96851E-06 2.16852E-19-1.41858E-19
 -1      1914 1.05972E-04-3.14197E-05-3.19482E-05-5.70271E-06-6.71638E-20 3.67678E-19
 -1      1915 1.05890E-04-3.14626E-05-3.19120E-05-7.64220E-06 9.44283E-19-6.21601E-19
 -1      1916 1.04948E-04-3.10707E-05-3.16440E-05-5.28342E-06-6.17409E-19 8.53442E-19
 -1      1917 1.03565E-04-3.06302E-05-3.12539E-05-4.92704E-06 5.24267E-21 7.13859E-19
 -1      1918 1.03631E-04-3.05045E-05-3.13524E-05-6.88506E-06 2.27580E-19 1.22715E-18
 -1      1919 1.02705E-04-3.03760E-05-3.09761E-05-4.46140E-06 4.79484E-19 7.38459E-19
 -1      1920 1.01536E-04-3.00330E-05-3.06392E-05-4.09607E-06 1.38387E-18 1.35451E-18
 -1      1921 1.01740E-04-2.98591E-05-3.08169E-05-5.89680E-06 4.72593E-19 1.61047E-18
 -1      1922 1.00821E-04-2.98426E-05-3.03971E-05-3.64992E-06 1.99068E-18 4.90409E-19
 -1      1923 9.98611E-05-2.95758E-05-3.01168E-05-3.31427E-06 1.19613E-18 3.02513E-19
 -1      1924 1.00169E-04-2.94148E-05-3.03329E-05-4.88199E-06 1.08672E-18 5.56310E-19
 -1      1925 9.92743E-05-2.94289E-05-2.99133E-05-2.91524E-06 7.10752E-19 1.09519E-18
 -1      1926 9.85047E-05-2.92213E-05-2.96870E-05-2.62154E-06 1.46883E-18 3.10835E-18
 -1      1927 9.88758E-05-2.90967E-05-2.99141E-05-3.94129E-06 1.69810E-18 7.95682E-19
 -1      1928 9.80294E-05-2.91046E-05-2.95216E-05-2.27448E-06 9.88519E-19 2.58499E-18
 -1      1929 9.74275E-05-2.89427E-05-2.93444E-05-2.01990E-06 7.76489E-19 1.84959E-18
 -1      1930 9.78239E-05-2.88572E-05-2.95650E-05-3.11003E-06 1.23084E-18 2.47554E-18
 -1      1931 9.70481E-05-2.88470E-05-2.92146E-05-1.71712E-06-4.10828E-19 2.30665E-18
 -1      1932 9.65928E-05-2.87209E-05-2.90815E-05-1.49074E-06-5.67659E-19 1.22951E-18
 -1      1933 9.69791E-05-2.86657E-05-2.92840E-05-2.38553E-06-1.36174E-19 1.80038E-18
 -1      1934 9.62934E-05-2.86398E-05-2.89833E-05-1.21854E-06 2.95826E-19 5.93203E-19
 -1      1935 9.59687E-05-2.85456E-05-2.88892E-05-1.00689E-06 6.75955E-19 1.32376E-18
 -1      1936 9.63100E-05-2.85024E-05-2.90659E-05-1.74570E-06-6.86986E-19 1.82886E-18
 -1      1937 9.57621E-05-2.84919E-05-2.88217E-05-7.67856E-07 5.88413E-19 1.60083E-18
 -1      1938 9.55488E-05-2.84326E-05-2.87574E-05-5.71477E-07 5.04535E-19 2.36327E-18
 -1      1939 9.54748E-05-2.83210E-05-2.87847E-05-6.80750E-07 2.64119E-20 1.74835E-18
 -1      1940 9.58149E-05-2.83818E-05-2.89069E-05-1.17827E-06 1.02599E-18 1.24977E-18
 -1      1941 9.31316E-05-2.73368E-05-2.81698E-05 1.60571E-06 4.52038E-19 1.19894E-18
 -1      1942 9.43258E-05-2.74425E-05-2.86060E-05 2.67801E-06 5.92155E-19 1.48457E-18
 -1      1943 9.51624E-05-2.70250E-05-2.92072E-05 4.05540E-06 6.96036E-19 1.15134E-18
 -1      1944 9.20861E-05-2.73237E-05-2.77306E-05 3.41832E-07 4.03773E-19 8.34844E-19
 -1      1945 9.25778E-05-2.73558E-05-2.79019E-05 8.92795E-07 3.54903E-19 1.05726E-18
 -1      1946 9.35635E-05-2.73459E-05-2.83860E-05 1.57999E-06 4.81710E-19 9.73916E-19
 -1      1947 9.17248E-05-2.73633E-05-2.75675E-05-3.23571E-07 1.03844E-19 6.61912E-19
 -1      1948 9.18333E-05-2.73355E-05-2.76121E-05-2.60516E-08 2.28689E-19 7.15511E-19
 -1      1949 9.27435E-05-2.74617E-05-2.79881E-05 2.55082E-07 3.57948E-19 6.15128E-19
 -1      1950 9.17739E-05-2.74583E-05-2.75532E-05-6.68429E-07 1.17469E-19 5.27829E-19
 -1      1951 9.16734E-05-2.73938E-05-2.75325E-05-5.07365E-07 1.38295E-19 6.32960E-19
 -1      1952 9.24496E-05-2.75568E-05-2.78216E-05-4.57932E-07 1.30520E-19 4.22087E-19
 -1      1953 9.20609E-05-2.75887E-05-2.76232E-05-8.35242E-07 1.33937E-19 3.72079E-19
 -1      1954 9.18480E-05-2.75051E-05-2.75673E-05-7.51214E-07 2.29857E-19 4.11183E-19
 -1      1955 9.24861E-05-2.76664E-05-2.77885E-05-8.32953E-07 2.77529E-19 2.05912E-19
 -1      1956 9.24814E-05-2.77375E-05-2.77412E-05-9.04743E-07 8.22019E-20 4.86192E-20
 -1      1957 9.22106E-05-2.76456E-05-2.76664E-05-8.63614E-07 5.95590E-20 1.36682E-19
 -1      1958 9.27229E-05-2.77902E-05-2.78349E-05-1.01814E-06 2.00602E-19 2.69024E-20
 -1      1959 9.29756E-05-2.78940E-05-2.78869E-05-9.27486E-07 4.35166E-19-1.04336E-19
 -1      1960 9.26762E-05-2.77997E-05-2.78020E-05-9.07506E-07 2.62846E-19 6.15910E-20
 -1      1961 9.30787E-05-2.79213E-05-2.79296E-05-1.10120E-06 3.10638E-19-6.44866E-20
 -1      1962 9.35139E-05-2.80536E-05-2.80497E-05-9.37503E-07 1.26614E-19 1.02507E-19
 -1      1963 9.31991E-05-2.79589E-05-2.79588E-05-9.23715E-07 3.05760E-19 6.16626E-20
 -1      1964 9.35063E-05-2.80552E-05-2.80544E-05-1.13855E-06 3.70111E-19 1.29453E-20
 -1      1965 9.40873E-05-2.82164E-05-2.82259E-05-9.58868E-07 2.12073E-19 3.22416E-20
 -1      1966 9.37595E-05-2.81206E-05-2.81299E-05-9.40421E-07 2.50442E-19-2.66679E-20
 -1      1967 9.39827E-05-2.81904E-05-2.82000E-05-1.16875E-06 3.28639E-19 9.00617E-20
 -1      1968 9.47018E-05-2.83861E-05-2.84164E-05-1.00904E-06 6.93039E-20-6.49748E-20
 -1      1969 9.43556E-05-2.82868E-05-2.83140E-05-9.77815E-07 8.78894E-20-1.23051E-19
 -1      1970 9.45024E-05-2.83290E-05-2.83631E-05-1.21925E-06 1.13392E-19-2.82315E-19
 -1      1971 9.53743E-05-2.85694E-05-2.86257E-05-1.10043E-06 5.15932E-19-4.62115E-19
 -1      1972 9.49988E-05-2.84624E-05-2.85139E-05-1.05042E-06 2.37477E-19-2.65211E-19
 -1      1973 9.50718E-05-2.84757E-05-2.85444E-05-1.30971E-06 4.15129E-19-3.83169E-19
 -1      1974 9.61282E-05-2.87753E-05-2.88601E-05-1.24078E-06-3.14610E-20-4.49348E-19
 -1      1975 9.57092E-05-2.86552E-05-2.87351E-05-1.16797E-06 9.26657E-20-3.86907E-19
 -1      1976 9.57065E-05-2.86376E-05-2.87473E-05-1.45344E-06 2.85217E-19-4.77985E-19
 -1      1977 9.69909E-05-2.90141E-05-2.91270E-05-1.43229E-06 5.35856E-20-2.28041E-19
 -1      1978 9.65123E-05-2.88752E-05-2.89843E-05-1.33513E-06-1.06283E-19-4.42371E-19
 -1      1979 9.64273E-05-2.88240E-05-2.89768E-05-1.65730E-06 2.60210E-20-5.48254E-19
 -1      1980 9.79887E-05-2.92974E-05-2.94331E-05-1.66954E-06 5.23007E-19-4.02249E-19
 -1      1981 9.74356E-05-2.91334E-05-2.92689E-05-1.54997E-06 5.01947E-19-5.60134E-20
 -1      1982 9.72575E-05-2.90462E-05-2.92380E-05-1.92008E-06 3.88963E-19-7.11164E-19
 -1      1983 9.91418E-05-2.96365E-05-2.97823E-05-1.93579E-06 7.62688E-19-8.40870E-19
 -1      1984 9.85036E-05-2.94419E-05-2.95942E-05-1.80111E-06 5.25238E-19-4.51415E-19
 -1      1985 9.82187E-05-2.93169E-05-2.95346E-05-2.22920E-06 6.67947E-19-6.75610E-19
 -1      1986 1.00456E-04-3.00410E-05-3.01736E-05-2.19774E-06 1.38792E-19-6.51907E-19
 -1      1987 9.97314E-05-2.98122E-05-2.99622E-05-2.06327E-06 5.79068E-19-6.92112E-19
 -1      1988 9.93261E-05-2.96501E-05-2.98670E-05-2.55561E-06 6.35049E-19-1.18809E-18
 -1      1989 1.01914E-04-3.05162E-05-3.05974E-05-2.39889E-06-3.70585E-19-1.21472E-18
 -1      1990 1.01117E-04-3.02533E-05-3.03681E-05-2.29139E-06-3.11357E-19-1.18536E-18
 -1      1991 1.00582E-04-3.00597E-05-3.02297E-05-2.84693E-06-4.71658E-21-9.07511E-19
 -1      1992 1.03457E-04-3.10582E-05-3.10315E-05-2.45326E-06-3.13279E-19-6.10939E-19
 -1      1993 1.02627E-04-3.07683E-05-3.07972E-05-2.41434E-06-3.47411E-19-8.07183E-19
 -1      1994 1.01965E-04-3.05568E-05-3.06091E-05-3.01991E-06-3.95973E-19-7.73347E-19
 -1      1995 1.04979E-04-3.16466E-05-3.14378E-05-2.24332E-06-2.82600E-19-1.11914E-19
 -1      1996 1.04186E-04-3.13478E-05-3.12209E-05-2.33083E-06-4.34730E-19-5.44291E-19
 -1      1997 1.03422E-04-3.11440E-05-3.09803E-05-2.95520E-06-4.28891E-19-3.39096E-19
 -1      1998 1.06301E-04-3.22326E-05-3.17610E-05-1.63050E-06 7.09048E-19 2.53779E-19
 -1      1999 1.05658E-04-3.19600E-05-3.15943E-05-1.91376E-06 2.58104E-19 2.09283E-19
 -1      2000 1.04851E-04-3.18037E-05-3.13069E-05-2.50120E-06 1.38561E-19 2.61736E-20
 -1      2001 1.07179E-04-3.27243E-05-3.19327E-05-4.91244E-07-6.09166E-19 4.25483E-19
 -1      2002 1.06833E-04-3.25355E-05-3.18572E-05-1.03341E-06 2.81188E-19 1.67676E-19
 -1      2003 1.06090E-04-3.24790E-05-3.15425E-05-1.49882E-06 8.51798E-20 4.54086E-19
 -1      2004 1.07313E-04-3.29741E-05-3.18849E-05 1.20779E-06-1.21589E-18 5.09161E-19
 -1      2005 1.07433E-04-3.29498E-05-3.19416E-05 3.87303E-07-1.16797E-18 2.76113E-19
 -1      2006 1.06906E-04-3.30482E-05-3.16395E-05 1.57344E-07-1.10346E-18 2.70653E-19
 -1      2007 1.06417E-04-3.27870E-05-3.15749E-05 3.29631E-06-6.11505E-19 1.07060E-18
 -1      2008 1.07142E-04-3.30183E-05-3.17897E-05 2.27869E-06-8.51936E-19 6.78563E-19
 -1      2009 1.07012E-04-3.33074E-05-3.15632E-05 2.41101E-06-1.03335E-18 6.54737E-19
 -1      2010 1.04343E-04-3.19826E-05-3.10169E-05 5.29430E-06 4.68846E-20 1.82138E-18
 -1      2011 1.05705E-04-3.25310E-05-3.13807E-05 4.31347E-06-8.17063E-19 1.64014E-18
 -1      2012 1.06132E-04-3.29955E-05-3.13113E-05 4.90930E-06-9.00403E-19 9.57213E-19
 -1      2013 1.01265E-04-3.05329E-05-3.03044E-05 6.42930E-06 1.06473E-18 2.69911E-18
 -1      2014 1.03105E-04-3.13628E-05-3.07583E-05 5.86009E-06 9.93642E-19 2.70151E-18
 -1      2015 1.04156E-04-3.19142E-05-3.09282E-05 6.92628E-06 5.44559E-19 2.14051E-18
 -1      2016 9.78403E-05-2.87316E-05-2.96038E-05 5.91784E-06 3.04525E-19 2.10686E-18
 -1      2017 9.97571E-05-2.96505E-05-3.00424E-05 6.13096E-06 4.67178E-19 2.60752E-18
 -1      2018 1.01354E-04-3.01388E-05-3.05035E-05 7.50148E-06 8.11584E-19 2.87738E-18
 -1      2019 9.51393E-05-2.72152E-05-2.91063E-05 3.48222E-06 7.16815E-19 1.65383E-18
 -1      2020 9.65684E-05-2.78996E-05-2.94081E-05 4.59469E-06 6.04093E-19 2.27363E-18
 -1      2021 9.85013E-05-2.81824E-05-3.01472E-05 5.90840E-06 8.07156E-19 2.61046E-18
 -1      2022 9.42231E-05-2.66866E-05-2.89554E-05-2.28888E-07 3.14507E-19 1.67530E-18
 -1      2023 9.46615E-05-2.68396E-05-2.90297E-05 1.45806E-06 9.03493E-19 1.75636E-18
 -1      2024 9.66855E-05-2.68827E-05-2.99507E-05 2.26375E-06 1.07776E-18 2.68442E-18
 -1      2025 9.54965E-05-2.74108E-05-2.91948E-05-3.85352E-06-7.99255E-19-1.46643E-20
 -1      2026 9.47725E-05-2.69634E-05-2.90186E-05-2.21818E-06-1.86268E-19 7.21917E-19
 -1      2027 9.67068E-05-2.68807E-05-2.99597E-05-2.22761E-06 2.60800E-19 2.39494E-18
 -1      2028 9.84540E-05-2.90442E-05-2.97522E-05-6.07104E-06 7.97832E-19-1.30729E-18
 -1      2029 9.68289E-05-2.81968E-05-2.93807E-05-5.07116E-06-2.46685E-19-1.12907E-18
 -1      2030 9.85570E-05-2.81827E-05-3.01719E-05-5.88065E-06 2.80130E-19-7.84895E-20
 -1      2031 1.01963E-04-3.08492E-05-3.04674E-05-6.34865E-06-5.13332E-20-1.18743E-18
 -1      2032 9.99929E-05-2.99425E-05-3.00102E-05-6.19505E-06 4.02035E-19-1.57078E-18
 -1      2033 1.01413E-04-3.01478E-05-3.05341E-05-7.47992E-06 4.46865E-19-7.93710E-19
 -1      2034 1.04952E-04-3.22188E-05-3.11513E-05-5.05720E-06-4.00729E-19-4.66477E-19
 -1      2035 1.03192E-04-3.15196E-05-3.07278E-05-5.57821E-06-5.64815E-19-1.05381E-18
 -1      2036 1.04187E-04-3.19279E-05-3.09533E-05-6.90640E-06-5.56090E-19-1.30817E-18
 -1      2037 1.06820E-04-3.29117E-05-3.16538E-05-3.00498E-06 1.39413E-18 3.82171E-19
 -1      2038 1.05620E-04-3.25278E-05-3.13514E-05-3.85328E-06 8.96002E-19 6.91010E-19
 -1      2039 1.06120E-04-3.30084E-05-3.13225E-05-4.88807E-06 2.23570E-19-5.14837E-21
 -1      2040 1.07467E-04-3.29948E-05-3.19009E-05-9.38362E-07 1.39704E-18-5.60431E-19
 -1      2041 1.06929E-04-3.29034E-05-3.17562E-05-1.80024E-06 1.38583E-18 2.94529E-19
 -1      2042 1.06956E-04-3.33128E-05-3.15573E-05-2.38470E-06 1.54557E-18 2.70724E-18
 -1      2043 1.07102E-04-3.26666E-05-3.18927E-05 7.01991E-07-1.11487E-18-1.51354E-18
 -1      2044 1.07149E-04-3.27852E-05-3.18981E-05 1.14594E-08 3.78763E-19-1.17775E-18
 -1      2045 1.06812E-04-3.30406E-05-3.16170E-05-1.23477E-07 7.52506E-19 1.38610E-18
 -1      2046 1.06046E-04-3.21242E-05-3.16791E-05 1.77580E-06-1.40253E-19-7.13863E-19
 -1      2047 1.06517E-04-3.23650E-05-3.18002E-05 1.31706E-06-9.98245E-19-1.08780E-18
 -1      2048 1.05964E-04-3.24560E-05-3.15060E-05 1.54029E-06-8.94619E-19 8.67961E-19
 -1      2049 1.04606E-04-3.15104E-05-3.13291E-05 2.33203E-06-7.14295E-19 5.84142E-19
 -1      2050 1.05330E-04-3.18043E-05-3.15238E-05 2.08696E-06-8.66023E-19-2.03690E-19
 -1      2051 1.04700E-04-3.17658E-05-3.12599E-05 2.54769E-06-1.19771E-18 6.16183E-19
 -1      2052 1.03023E-04-3.09103E-05-3.09092E-05 2.49828E-06 3.62677E-21 2.05273E-18
 -1      2053 1.03857E-04-3.12116E-05-3.11391E-05 2.41571E-06 2.46184E-19 2.19400E-18
 -1      2054 1.03252E-04-3.10934E-05-3.09268E-05 3.00216E-06-6.68068E-19 1.83918E-18
 -1      2055 1.01459E-04-3.03664E-05-3.04724E-05 2.40956E-06 1.16669E-18 1.33834E-18
 -1      2056 1.02301E-04-3.06488E-05-3.07084E-05 2.43453E-06 4.72928E-19 1.42362E-18
 -1      2057 1.01783E-04-3.04959E-05-3.05530E-05 3.06025E-06 8.18348E-19 2.17777E-18
 -1      2058 1.00016E-04-2.98954E-05-3.00551E-05 2.17566E-06-6.28326E-19 8.65775E-19
 -1      2059 1.00802E-04-3.01458E-05-3.02779E-05 2.26309E-06 1.09101E-18 8.76545E-19
 -1      2060 1.00398E-04-2.99905E-05-3.01758E-05 2.86941E-06 9.62662E-19 2.00489E-18
 -1      2061 9.87463E-05-2.94994E-05-2.96796E-05 1.87252E-06 1.54465E-19 3.81342E-19
 -1      2062 9.94413E-05-2.97131E-05-2.98780E-05 1.99112E-06-6.90211E-19 7.80757E-19
 -1      2063 9.91550E-05-2.95744E-05-2.98213E-05 2.54297E-06-1.12286E-19 1.78615E-18
 -1      2064 9.76727E-05-2.91735E-05-2.93580E-05 1.54448E-06 1.26259E-19 3.98816E-19
 -1      2065 9.82602E-05-2.93506E-05-2.95262E-05 1.67618E-06-1.23714E-19 5.61950E-19
 -1      2066 9.80811E-05-2.92364E-05-2.95061E-05 2.15566E-06-5.25417E-20 1.08313E-18
 -1      2067 9.68000E-05-2.89102E-05-2.90957E-05 1.21039E-06 1.28391E-18 7.58427E-19
 -1      2068 9.72747E-05-2.90526E-05-2.92313E-05 1.34810E-06 5.09901E-19 1.88845E-19
 -1      2069 9.71840E-05-2.89631E-05-2.92389E-05 1.74827E-06 6.32321E-19 2.11539E-18
 -1      2070 9.61255E-05-2.87031E-05-2.88948E-05 8.72262E-07-8.73527E-19 1.03504E-18
 -1      2071 9.64865E-05-2.88128E-05-2.89967E-05 1.01641E-06 3.63686E-19 1.16774E-18
 -1      2072 9.64605E-05-2.87428E-05-2.90238E-05 1.33613E-06 4.73799E-19 2.10478E-18
 -1      2073 9.56444E-05-2.85502E-05-2.87523E-05 5.27463E-07-1.13342E-18 1.02731E-18
 -1      2074 9.58900E-05-2.86272E-05-2.88220E-05 6.79775E-07-1.41708E-18 1.47402E-18
 -1      2075 9.59010E-05-2.85667E-05-2.88598E-05 9.20953E-07-1.40064E-18 2.82028E-18
 -1      2076 9.53850E-05-2.84731E-05-2.86723E-05 2.72099E-07 8.30876E-20 2.19868E-18
 -1      2077 9.55315E-05-2.85082E-05-2.87207E-05 4.19670E-07-6.68539E-19 1.29230E-18
 -1      2078 9.55504E-05-2.84488E-05-2.87599E-05 5.91417E-07-1.05342E-18 1.80676E-18
 -1      2079 9.53582E-05-2.83943E-05-2.86986E-05 3.54487E-07-8.18437E-20 3.55144E-18
 -1      2080 9.48227E-05-2.71000E-05-2.90260E-05 1.07464E-06 8.24649E-20-1.90409E-18
 -1      2081 9.49509E-05-2.73829E-05-2.89540E-05 1.03482E-06 2.75899E-19 1.59111E-19
 -1      2082 9.50727E-05-2.76389E-05-2.89003E-05 9.47223E-07 1.70584E-18 1.86552E-18
 -1      2083 9.51856E-05-2.78878E-05-2.88374E-05 8.34369E-07 1.97581E-18 2.31637E-18
 -1      2084 9.50585E-05-2.75097E-05-2.89502E-05 1.27555E-06-4.92048E-19 2.98569E-20
 -1      2085 9.52500E-05-2.80640E-05-2.87928E-05 6.82913E-07 1.32835E-18 1.50148E-18
 -1      2086 9.53253E-05-2.82525E-05-2.87415E-05 5.28404E-07-7.19084E-20 2.16687E-18
 -1      2087 9.54101E-05-2.82707E-05-2.87715E-05 6.54498E-07-4.69155E-19 2.74507E-18
 -1      2088 9.52748E-05-2.79446E-05-2.88577E-05 1.00326E-06 9.59686E-19 2.59283E-18
 -1      2089 9.45798E-05-2.65707E-05-2.91510E-05 1.04378E-06-1.96940E-19-3.12855E-18
 -1      2090 9.47032E-05-2.68469E-05-2.90800E-05 1.07455E-06-3.17232E-19-1.66260E-18
 -1      2091 9.47700E-05-2.69865E-05-2.90490E-05 1.36917E-06-1.45288E-18-1.92636E-18
 -1      2092 9.43637E-05-2.60971E-05-2.92634E-05 8.62519E-07 3.61935E-19-1.97872E-18
 -1      2093 9.44704E-05-2.63374E-05-2.92014E-05 9.57824E-07 7.05170E-19-1.84583E-18
 -1      2094 9.44945E-05-2.64845E-05-2.91440E-05 1.27084E-06 3.98265E-19-1.68908E-18
 -1      2095 9.42046E-05-2.57493E-05-2.93455E-05 5.57248E-07-1.19199E-19-2.33067E-19
 -1      2096 9.42788E-05-2.59156E-05-2.93026E-05 7.02637E-07 1.02706E-18-9.66777E-19
 -1      2097 9.42604E-05-2.60560E-05-2.92254E-05 9.93099E-07 1.74128E-18-1.25464E-18
 -1      2098 9.41222E-05-2.55739E-05-2.93858E-05 1.69194E-07-4.64986E-20 1.19796E-18
 -1      2099 9.41538E-05-2.56420E-05-2.93683E-05 3.44943E-07-9.70539E-19 8.22157E-19
 -1      2100 9.40967E-05-2.57571E-05-2.92818E-05 5.73708E-07 2.67325E-19-6.04028E-20
 -1      2101 9.41289E-05-2.55967E-05-2.93781E-05-2.49624E-07-1.78004E-18-5.05507E-20
 -1      2102 9.41127E-05-2.55556E-05-2.93889E-05-6.75106E-08-8.13895E-19 2.39074E-18
 -1      2103 9.40237E-05-2.56267E-05-2.93055E-05 6.77708E-08-9.33720E-19 1.28986E-18
 -1      2104 9.42268E-05-2.58186E-05-2.93231E-05-6.40515E-07-2.00438E-18-1.22802E-18
 -1      2105 9.41635E-05-2.56720E-05-2.93609E-05-4.78332E-07-2.62613E-18-6.15661E-19
 -1      2106 9.40532E-05-2.56851E-05-2.92933E-05-4.56978E-07-2.15232E-18-1.34038E-18
 -1      2107 9.44033E-05-2.62052E-05-2.92303E-05-9.40069E-07-1.44055E-18-2.39186E-18
 -1      2108 9.43014E-05-2.59769E-05-2.92887E-05-8.24850E-07-1.56189E-18-1.27524E-18
 -1      2109 9.41856E-05-2.59272E-05-2.92471E-05-9.23263E-07-1.58652E-18-1.30617E-18
 -1      2110 9.46445E-05-2.67197E-05-2.91098E-05-1.10644E-06-6.83964E-19 2.53883E-18
 -1      2111 9.45133E-05-2.64339E-05-2.91822E-05-1.05622E-06-6.96776E-19-9.86921E-19
 -1      2112 9.44080E-05-2.63268E-05-2.91732E-05-1.26405E-06-2.95032E-19-9.37418E-19
 -1      2113 9.49162E-05-2.72869E-05-2.89801E-05-1.09586E-06 6.93454E-20 2.30828E-18
 -1      2114 9.47756E-05-2.69887E-05-2.90547E-05-1.12719E-06-4.21287E-19 3.01124E-18
 -1      2115 9.47003E-05-2.68417E-05-2.90803E-05-1.42169E-06 3.03629E-19 2.74071E-18
 -1      2116 9.51814E-05-2.78422E-05-2.88580E-05-8.98013E-07-1.12353E-18 9.94403E-20
 -1      2117 9.50518E-05-2.75644E-05-2.89243E-05-1.01223E-06-6.73719E-19 8.65045E-19
 -1      2118 9.50228E-05-2.74036E-05-2.89795E-05-1.35603E-06 5.73695E-20 1.34686E-18
 -1      2119 6.02060E-05-3.87525E-05-9.71132E-06 4.08492E-05-1.27733E-18 2.43400E-18
 -1      2120 4.55892E-05-4.03784E-05-3.39838E-06 3.48716E-05-1.90498E-18 2.18725E-18
 -1      2121 1.21042E-05-3.10868E-05 7.08156E-06 7.15124E-06-2.10551E-18 1.72752E-18
 -1      2122 1.22282E-05-3.26930E-05 7.51545E-06-3.28069E-06-3.95723E-18 8.98702E-19
 -1      2123 2.96762E-05-3.31905E-05 9.22849E-07 3.01606E-05-1.41836E-18 3.30216E-18
 -1      2124 2.00442E-05-3.35590E-05 4.73505E-06 1.97231E-05-1.57061E-18 2.56905E-18
 -1      2125 9.88257E-05-4.27078E-05-2.40343E-05 4.28526E-05 3.71847E-19 4.25634E-19
 -1      2126 8.00590E-05-4.42947E-05-1.63290E-05 3.89373E-05-5.45489E-19 1.19728E-18
 -1      2127 1.34559E-04-4.45237E-05-3.84853E-05 3.16623E-05 9.98440E-19 2.45851E-18
 -1      2128 1.14163E-04-4.41172E-05-3.04870E-05 3.50474E-05 7.32260E-19 1.76776E-18
 -1      2129 1.18777E-04-5.45460E-05-2.71852E-05 3.30429E-05-8.99973E-19 8.53174E-19
 -1      2130 8.72815E-05-8.72991E-06-3.37557E-05-1.05301E-05-6.49264E-19-6.71962E-19
 -1      2131 8.79843E-05-9.26418E-06-3.38233E-05-1.21101E-05-6.68018E-19-4.69309E-19
 -1      2132 9.04718E-05-1.30272E-05-3.32190E-05-1.18180E-05-6.95477E-19-3.21952E-19
 -1      2133 8.86940E-05-1.10566E-05-3.33060E-05-9.39173E-06-6.44453E-19-6.53102E-19
 -1      2134 1.69233E-04-2.41433E-05-6.17292E-05 4.87883E-06 1.01305E-18 2.50574E-18
 -1      2135 1.65980E-04-2.82084E-05-5.83219E-05 1.34515E-05 1.37071E-18 2.32468E-18
 -1      2136 1.82728E-04-2.41084E-05-6.62992E-05-2.11432E-06 1.58565E-18 2.32664E-18
 -1      2137 1.72896E-04-1.99911E-05-6.47906E-05 4.07837E-06 1.44546E-18 2.54597E-18
 -1      2138 1.70921E-04-2.51135E-05-6.18976E-05-1.07298E-05 2.38376E-18 2.23278E-18
 -1      2139 1.81746E-04-2.59622E-05-6.52587E-05-5.92502E-06 1.73854E-18 2.36534E-18
 -1      2140 1.59265E-04-1.35711E-05-6.12399E-05 2.32113E-07 1.85585E-18 2.19297E-18
 -1      2141 1.54333E-04-3.32063E-05-5.16095E-05-1.75503E-05 1.93256E-18 2.99426E-18
 -1      2142 1.68496E-04-3.06798E-05-5.77233E-05-1.56408E-05 2.49070E-18 3.16875E-18
 -1      2143 1.27572E-04-3.98532E-05-3.76408E-05-3.37440E-05-4.58668E-19 1.28283E-18
 -1      2144 1.45234E-04-4.02751E-05-4.46473E-05-2.72679E-05 6.02558E-19 2.70754E-18
 -1      2145 9.64395E-05-4.39347E-05-2.32287E-05-3.82425E-05-1.32391E-18-2.60886E-19
 -1      2146 1.14673E-04-4.09461E-05-3.12278E-05-4.12672E-05-4.94244E-19 6.29769E-19
 -1      2147 1.29555E-04-5.06105E-05-3.34364E-05-2.82174E-05-1.43085E-18 2.41404E-18
 -1      2148 6.11373E-05-4.28535E-05-8.87629E-06-3.82771E-05-2.51230E-18-1.74963E-18
 -1      2149 7.90067E-05-4.16217E-05-1.61455E-05-4.36304E-05-2.12394E-18-1.94585E-18
 -1      2150 2.93280E-05-3.78110E-05 2.21586E-06-2.71215E-05-1.67585E-18-5.69206E-19
 -1      2151 4.15564E-05-3.61180E-05-2.96850E-06-3.62442E-05-1.44377E-18-1.70815E-18
 -1      2152 1.30215E-05-3.63813E-05 8.29488E-06-8.15770E-06-2.21277E-18-1.91429E-19
 -1      2153 1.69785E-05-3.40221E-05 6.05404E-06-1.77096E-05-1.86347E-18-1.13926E-19
 -1      2154 1.45770E-05-3.25775E-05 6.53297E-06 1.22227E-05-1.85606E-18-1.63901E-18
 -1      2155 1.21566E-05-3.53656E-05 8.29572E-06 1.88423E-06-1.94090E-18-4.70103E-19
 -1      2156 3.89809E-05-3.76628E-05-1.42704E-06 3.20733E-05-1.84272E-18-5.87079E-18
 -1      2157 2.74433E-05-3.70455E-05 2.95816E-06 2.41420E-05-8.85573E-19-3.88767E-18
 -1      2158 7.07913E-05-4.09259E-05-1.33363E-05 4.05190E-05-3.90143E-18-6.74069E-18
 -1      2159 5.36450E-05-4.29419E-05-6.12692E-06 3.36029E-05-2.32299E-18-6.64671E-18
 -1      2160 1.14818E-04-4.73632E-05-2.91130E-05 3.72167E-05-4.77472E-18-5.76025E-18
 -1      2161 9.04218E-05-4.55402E-05-2.03064E-05 3.68088E-05-4.21187E-18-6.21214E-18
 -1      2162 1.53320E-04-4.27401E-05-4.65098E-05 2.51930E-05-5.22768E-18-6.03299E-18
 -1      2163 1.35084E-04-4.63294E-05-3.81920E-05 2.56573E-05-4.63031E-18-6.03977E-18
 -1      2164 1.67346E-04-3.30810E-05-5.72425E-05 6.42626E-06-3.93510E-18-6.33708E-18
 -1      2165 1.59569E-04-3.72406E-05-5.20025E-05 1.56688E-05-5.11518E-18-5.97624E-18
 -1      2166 1.54012E-04-4.40683E-05-4.65527E-05 3.99409E-06-4.19212E-18-4.25126E-18
 -1      2167 1.85077E-04-2.58743E-05-6.63637E-05 2.55543E-06-3.31444E-18-4.97780E-18
 -1      2168 1.70470E-04-2.36708E-05-6.23471E-05 4.88836E-06-3.84045E-18-5.91822E-18
 -1      2169 1.80186E-04-2.43863E-05-6.58286E-05-5.34196E-06-4.17248E-18-3.43218E-18
 -1      2170 1.85298E-04-2.56073E-05-6.71589E-05 8.14485E-07-3.43641E-18-4.25038E-18
 -1      2171 1.60251E-04-1.39112E-05-6.15940E-05-1.00782E-06-4.06576E-18-3.33376E-18
 -1      2172 1.68766E-04-3.19429E-05-5.81971E-05-1.28774E-05-3.37691E-18-4.10430E-18
 -1      2173 1.78162E-04-2.97699E-05-6.26053E-05-6.62387E-06-3.72038E-18-4.45751E-18
 -1      2174 1.49328E-04-3.96206E-05-4.70318E-05-2.20080E-05-3.16457E-18-2.36576E-18
 -1      2175 1.66915E-04-3.82764E-05-5.41149E-05-1.96209E-05-3.11573E-18-4.04035E-18
 -1      2176 1.58976E-04-3.40124E-05-5.26720E-05 9.46097E-07-2.79775E-18-5.06568E-18
 -1      2177 1.14637E-04-4.60175E-05-3.00744E-05-3.33680E-05-2.56651E-18-2.17687E-19
 -1      2178 1.36743E-04-4.41827E-05-3.91074E-05-3.41471E-05-2.27344E-18-1.23963E-18
 -1      2179 7.74179E-05-4.71153E-05-1.39381E-05-3.73044E-05-3.77268E-18 1.58586E-18
 -1      2180 9.82414E-05-4.65630E-05-2.21133E-05-4.13866E-05-3.25345E-18 6.08170E-19
 -1      2181 3.94540E-05-4.06424E-05-9.01641E-07-3.00924E-05-4.51130E-18 2.74545E-18
 -1      2182 5.46277E-05-3.95769E-05-6.99515E-06-3.84683E-05-4.32664E-18 2.60119E-18
 -1      2183 1.71437E-05-3.55940E-05 6.46110E-06-1.41460E-05-4.75376E-18 7.56400E-19
 -1      2184 2.45576E-05-3.48881E-05 3.39321E-06-2.33229E-05-4.98564E-18 1.95199E-18
 -1      2185 1.62567E-04-3.48354E-05-5.37985E-05 1.95919E-05 1.35335E-18 2.19212E-18
 -1      2186 1.45589E-04-3.71847E-05-4.65528E-05 2.01433E-05 1.33659E-18 1.78978E-18
 -1      2187 1.53622E-04-2.96961E-05-5.23514E-05 1.14390E-06 9.41901E-19 1.79613E-18
 -1      2188 9.71203E-05-2.42935E-05-3.12842E-05-1.00088E-05-7.00708E-19 1.08148E-18
 -1      2189 1.43533E-04-4.74457E-05-4.07699E-05 1.52375E-05 4.83232E-19 1.00373E-18
 -1      2190 9.62965E-05-2.30925E-05-3.14398E-05-1.03875E-05-7.45640E-19 5.73785E-19
 -1      2191 4.53871E-05-3.56608E-05-4.57701E-06 3.77338E-05-1.89312E-18 2.57879E-18
 -1      2192 1.98559E-05-2.40027E-05 1.43271E-06 1.67747E-05-1.33556E-18 3.40931E-18
 -1      2193 9.52767E-05-2.79988E-05-2.88305E-05-8.53981E-07-5.03314E-19 6.56910E-19
 -1      2194 8.36558E-05-4.84421E-05-1.52096E-05 4.31614E-05-2.07015E-18 1.61021E-18
 -1      2195 1.73518E-05-2.48310E-05 2.61458E-06-1.13312E-05-2.32955E-18 1.61148E-18
 -1      2196 3.89527E-05-3.42658E-05-2.45170E-06-3.30868E-05-3.03873E-18 1.47341E-18
 -1      2197 7.84797E-05-4.83144E-05-1.29639E-05-4.13230E-05-2.47969E-18 7.12619E-19
 -1      2198 1.48558E-04-4.95330E-05-4.18955E-05-1.45882E-05-2.13833E-18-3.21661E-18
 -1      2199 1.61315E-04-1.98553E-05-5.96286E-05 3.33570E-06-3.73160E-18-3.98105E-18
 -1      2200 1.61869E-04-2.72799E-05-5.73979E-05-1.06185E-06-3.92579E-18-5.61477E-18
 -1      2201 1.50174E-04-2.91911E-05-5.16799E-05-8.22477E-06-4.18540E-18-4.29361E-18
 -1      2202 1.49050E-04-1.95185E-05-5.62030E-05-8.38577E-06-4.15597E-18-3.38199E-18
 -1      2203 1.31529E-04-5.29847E-05-3.35613E-05 2.69184E-05-3.58295E-18-4.84884E-18
 -1      2204 1.26242E-04-5.77538E-05-2.88839E-05 2.66238E-05-2.49769E-18-3.46076E-18
 -1      2205 1.41906E-04-5.69839E-05-3.71697E-05 1.32786E-05-2.38323E-18-3.48300E-18
 -1      2206 9.33089E-05-5.15721E-05-1.80260E-05 3.95554E-05-1.97528E-18-5.25732E-18
 -1      2207 5.63962E-05-4.17013E-05-6.93738E-06 3.89177E-05-7.30566E-19-6.40632E-18
 -1      2208 2.56775E-05-2.90261E-05 9.57692E-07 2.29234E-05-1.10305E-18-2.64190E-18
 -1      2209 1.37070E-05-2.51928E-05 4.11713E-06-3.66190E-06-1.89084E-18-1.10114E-20
 -1      2210 2.73983E-05-3.00232E-05 5.55005E-07-2.80091E-05-2.07481E-18-6.61744E-19
 -1      2211 9.96201E-05-5.13092E-05-2.07039E-05-3.98834E-05-2.45597E-18-4.90856E-19
 -1      2212 1.57674E-04-2.39488E-05-5.65018E-05-6.82229E-07 2.31833E-18 2.23765E-18
 -1      2213 1.61841E-04-1.84490E-05-6.06861E-05 9.81671E-07 1.54668E-18 2.12182E-18
 -1      2214 1.46080E-04-1.64879E-05-5.54811E-05-4.20373E-06 1.11173E-18 1.62990E-18
 -1      2215 1.46428E-04-1.11854E-05-5.82148E-05-3.30886E-06 1.63901E-18 2.04892E-18
 -1      2216 1.49954E-04-3.98621E-05-4.67927E-05-1.51138E-05 1.31407E-18 2.46487E-18
 -1      2217 1.48490E-04-3.77511E-05-4.78027E-05-8.87740E-07 1.44334E-18 1.50242E-18
 -1      2218 1.43346E-04-4.57798E-05-4.15456E-05-1.09228E-05 6.17262E-19 1.93420E-18
 -1      2219 6.10969E-05-4.16450E-05-8.53253E-06-4.20892E-05-2.43818E-18-1.15874E-18
 -1      2220 1.18745E-04-5.67011E-05-2.66532E-05-3.21048E-05-1.89058E-18-1.24662E-18
 -1      2221 9.51635E-05-2.63568E-05-2.94752E-05 4.19361E-06 6.64074E-19 8.08083E-19
 -1      2222 9.61363E-05-2.58432E-05-3.00520E-05 6.00158E-06 7.12461E-19 8.95003E-19
 -1      2223 8.81824E-05-1.11732E-05-3.30434E-05-3.65520E-06-2.23619E-19-5.80244E-19
 -1      2224 8.84126E-05-1.14442E-05-3.30237E-05-4.79563E-06-4.02475E-19-5.81283E-19
 -1      2225 8.87595E-05-1.19292E-05-3.29727E-05-5.81372E-06-4.09326E-19-6.10459E-19
 -1      2226 8.91582E-05-1.24003E-05-3.29418E-05-6.98527E-06-4.75982E-19-6.31317E-19
 -1      2227 8.99282E-05-1.38077E-05-3.26222E-05-4.89332E-06-3.16716E-19-5.21494E-19
 -1      2228 8.78412E-05-1.07117E-05-3.30896E-05 6.15099E-07 1.01637E-19-6.37670E-19
 -1      2229 8.78369E-05-1.07069E-05-3.30899E-05-4.94264E-07 2.55396E-20-6.44341E-19
 -1      2230 8.80195E-05-1.09378E-05-3.30695E-05 2.75383E-06 2.73471E-19-6.62367E-19
 -1      2231 8.79065E-05-1.08042E-05-3.30798E-05 1.63583E-06 1.99695E-19-6.67522E-19
 -1      2232 8.91549E-05-1.27499E-05-3.27479E-05 1.04736E-06 1.20824E-19-5.73064E-19
 -1      2233 8.84473E-05-1.14870E-05-3.30205E-05 4.88110E-06 4.14917E-19-6.64994E-19
 -1      2234 8.82117E-05-1.12096E-05-3.30407E-05 3.75870E-06 3.04347E-19-7.05843E-19
 -1      2235 8.94177E-05-1.31079E-05-3.27057E-05 3.01400E-06 2.67786E-19-6.16293E-19
 -1      2236 8.92154E-05-1.24718E-05-3.29359E-05 7.06826E-06 6.12241E-19-4.90889E-19
 -1      2237 8.88040E-05-1.19849E-05-3.29681E-05 5.89659E-06 4.95850E-19-5.71033E-19
 -1      2238 8.99681E-05-1.38593E-05-3.26169E-05 4.96557E-06 3.94222E-19-5.40040E-19
 -1      2239 9.04676E-05-1.40816E-05-3.28011E-05 9.21844E-06 8.18168E-19-2.74333E-19
 -1      2240 8.97969E-05-1.32712E-05-3.28505E-05 8.03894E-06 7.07549E-19-4.07654E-19
 -1      2241 9.08916E-05-1.51223E-05-3.24655E-05 6.86134E-06 6.36169E-19-3.58477E-19
 -1      2242 9.24411E-05-1.66517E-05-3.25816E-05 1.11058E-05 9.05484E-19 6.65980E-20
 -1      2243 9.13758E-05-1.53136E-05-3.26585E-05 1.00245E-05 8.48207E-19-1.43982E-19
 -1      2244 9.22967E-05-1.70778E-05-3.22159E-05 8.50922E-06 7.83635E-19-1.26188E-19
 -1      2245 9.41906E-05-2.70947E-05-2.87382E-05 1.75270E-06 5.29379E-19 5.72364E-19
 -1      2246 9.47871E-05-2.68723E-05-2.90349E-05 2.73109E-06 5.81766E-19 7.30539E-19
 -1      2247 9.53052E-05-2.58291E-05-2.97836E-05 4.35294E-06 6.50918E-19 5.40596E-19
 -1      2248 9.58746E-05-2.50788E-05-3.02944E-05-6.19011E-06-5.22236E-19 3.45715E-19
 -1      2249 9.52163E-05-2.58308E-05-2.97523E-05-4.27161E-06-5.03435E-19 3.46807E-19
 -1      2250 1.44214E-04-4.57078E-05-4.27189E-05 3.92819E-06 5.79873E-19 1.62207E-18
 -1      2251 1.36635E-04-5.29964E-05-3.58337E-05 1.26270E-05 1.17023E-19 9.23901E-19
 -1      2252 6.06362E-05-3.83660E-05-9.43689E-06 4.29654E-05-2.49303E-18 2.35158E-18
 -1      2253 4.36789E-05-2.95546E-05-5.73641E-06 3.63114E-05-2.61521E-18 2.84476E-18
 -1      2254 9.51070E-05-2.65170E-05-2.93384E-05-2.92698E-06-5.03129E-19 3.49412E-19
 -1      2255 9.46407E-05-2.68849E-05-2.90379E-05-1.85689E-06-4.47381E-19 2.29919E-19
 -1      2256 9.53169E-05-2.53469E-05-2.99952E-05-4.27403E-06-5.80833E-19 1.48910E-19
 -1      2257 9.44512E-05-2.72127E-05-2.87782E-05-9.94243E-07-3.50154E-19 2.23735E-19
 -1      2258 9.42018E-05-2.74240E-05-2.86160E-05-3.80224E-07-3.83908E-19 1.85560E-19
 -1      2259 9.50213E-05-2.66726E-05-2.93060E-05-1.88431E-06-4.90771E-19 1.22532E-19
 -1      2260 9.40616E-05-2.76010E-05-2.84605E-05 1.45453E-07-2.95550E-19 2.81896E-19
 -1      2261 9.39775E-05-2.77419E-05-2.83832E-05 4.94326E-07-1.77442E-19 3.54106E-19
 -1      2262 9.47306E-05-2.73920E-05-2.88728E-05-3.73869E-07-2.65637E-19 1.63469E-19
 -1      2263 9.39056E-05-2.78471E-05-2.82980E-05 8.03931E-07-1.53989E-19 3.45764E-19
 -1      2264 9.39334E-05-2.79514E-05-2.82744E-05 9.96294E-07-1.73990E-19 3.33648E-19
 -1      2265 9.45496E-05-2.78073E-05-2.86148E-05 5.45037E-07-2.05166E-19 2.35826E-19
 -1      2266 9.39205E-05-2.80180E-05-2.82373E-05 1.17248E-06-2.00508E-19 2.51821E-19
 -1      2267 9.40209E-05-2.80994E-05-2.82484E-05 1.27517E-06-3.14280E-19 2.49200E-19
 -1      2268 9.44868E-05-2.80599E-05-2.84770E-05 1.08681E-06-2.60321E-19 3.68059E-19
 -1      2269 9.40528E-05-2.81423E-05-2.82444E-05 1.37496E-06-3.31086E-19 1.89205E-19
 -1      2270 9.42002E-05-2.82073E-05-2.82786E-05 1.43197E-06-3.64454E-19 1.75001E-19
 -1      2271 9.45201E-05-2.82156E-05-2.84224E-05 1.40019E-06-3.32848E-19 4.92762E-21
 -1      2272 9.42650E-05-2.82340E-05-2.82983E-05 1.49583E-06-5.10793E-19 3.52857E-19
 -1      2273 9.44451E-05-2.82867E-05-2.83490E-05 1.53793E-06-5.16127E-19 3.24812E-19
 -1      2274 9.46253E-05-2.83073E-05-2.84266E-05 1.58961E-06-3.12334E-19 1.80220E-20
 -1      2275 9.45350E-05-2.83013E-05-2.83866E-05 1.59570E-06-3.95811E-19 4.26613E-19
 -1      2276 9.47419E-05-2.83448E-05-2.84505E-05 1.64576E-06-2.53687E-19 4.00648E-19
 -1      2277 9.47843E-05-2.83533E-05-2.84740E-05 1.73059E-06-4.12206E-19 3.92927E-19
 -1      2278 9.48530E-05-2.83499E-05-2.85027E-05 1.72041E-06-1.83061E-19 5.48414E-19
 -1      2279 9.50875E-05-2.83875E-05-2.85791E-05 1.79646E-06 1.22685E-19 7.16446E-19
 -1      2280 9.49862E-05-2.83646E-05-2.85552E-05 1.87982E-06-1.84523E-19 7.46412E-19
 -1      2281 9.52188E-05-2.83852E-05-2.86448E-05 1.90656E-06 1.63887E-19 4.93509E-19
 -1      2282 9.54870E-05-2.84204E-05-2.87347E-05 2.02366E-06 2.66483E-19 9.40991E-19
 -1      2283 9.52270E-05-2.83482E-05-2.86652E-05 2.08178E-06 3.86141E-20 9.12365E-19
 -1      2284 9.56401E-05-2.84123E-05-2.88139E-05 2.18493E-06 1.35290E-19 7.95157E-19
 -1      2285 9.59519E-05-2.84492E-05-2.89197E-05 2.35618E-06-1.05854E-19 6.84753E-19
 -1      2286 9.55081E-05-2.83097E-05-2.88021E-05 2.37299E-06 1.29166E-19 1.00712E-18
 -1      2287 9.61302E-05-2.84374E-05-2.90133E-05 2.58228E-06-5.56609E-19 2.92696E-19
 -1      2288 9.64989E-05-2.84814E-05-2.91382E-05 2.81908E-06-7.44608E-19 1.23498E-19
 -1      2289 9.58348E-05-2.82542E-05-2.89661E-05 2.78439E-06-5.15587E-19 4.35789E-19
 -1      2290 9.67072E-05-2.84688E-05-2.92472E-05 3.12155E-06-7.98218E-19 1.69431E-19
 -1      2291 9.71487E-05-2.85271E-05-2.93947E-05 3.43291E-06-8.77942E-19 3.58702E-19
 -1      2292 9.62160E-05-2.81880E-05-2.91580E-05 3.34223E-06-7.47176E-19 2.35299E-19
 -1      2293 9.73937E-05-2.85194E-05-2.95198E-05 3.82015E-06-8.68582E-19 5.23258E-19
 -1      2294 9.79258E-05-2.86030E-05-2.96930E-05 4.21050E-06-6.11775E-19 5.21445E-19
 -1      2295 9.66637E-05-2.81221E-05-2.93782E-05 4.06694E-06-7.97900E-19 4.11747E-19
 -1      2296 9.82172E-05-2.86109E-05-2.98334E-05 4.68516E-06-3.10773E-19 1.38265E-20
 -1      2297 9.88595E-05-2.87373E-05-3.00339E-05 5.14998E-06-2.33583E-19 2.09640E-19
 -1      2298 9.71948E-05-2.80769E-05-2.96254E-05 4.96956E-06-7.81443E-19 9.56926E-21
 -1      2299 9.92134E-05-2.87819E-05-3.01866E-05 5.70405E-06-4.34754E-19 2.09794E-19
 -1      2300 9.99871E-05-2.89795E-05-3.04131E-05 6.22206E-06-2.61422E-20 7.77077E-20
 -1      2301 9.78355E-05-2.80918E-05-2.98940E-05 6.04436E-06-3.12696E-19-1.96715E-19
 -1      2302 1.00433E-04-2.90996E-05-3.05717E-05 6.82839E-06 5.15946E-19-3.50434E-19
 -1      2303 1.01362E-04-2.94151E-05-3.08179E-05 7.34897E-06 6.80806E-19-4.45235E-19
 -1      2304 9.86315E-05-2.82399E-05-3.01731E-05 7.25608E-06 1.90392E-20 6.94049E-20
 -1      2305 1.01956E-04-2.96788E-05-3.09724E-05 7.94772E-06 9.13747E-19-6.39032E-19
 -1      2306 1.03067E-04-3.01841E-05-3.12259E-05 8.37282E-06 1.01306E-18-1.18138E-18
 -1      2307 9.96666E-05-2.86501E-05-3.04444E-05 8.51937E-06 5.78338E-19-3.96422E-19
 -1      2308 1.03908E-04-3.07000E-05-3.13640E-05 8.85081E-06 1.21205E-18-1.43212E-18
 -1      2309 1.05233E-04-3.14939E-05-3.16061E-05 9.01351E-06 1.25235E-18-9.57098E-19
 -1      2310 1.01093E-04-2.95333E-05-3.06848E-05 9.66754E-06 1.03564E-18-8.98697E-19
 -1      2311 1.06481E-04-3.24112E-05-3.17200E-05 9.17515E-06 1.09013E-18-9.21930E-19
 -1      2312 1.08041E-04-3.35961E-05-3.19311E-05 8.82486E-06 1.14167E-18-6.20597E-19
 -1      2313 1.03165E-04-3.11961E-05-3.08750E-05 1.04070E-05 1.33045E-18-1.16122E-18
 -1      2314 1.09905E-04-3.50607E-05-3.20329E-05 8.35925E-06 1.43114E-18-5.75569E-19
 -1      2315 1.11664E-04-3.66522E-05-3.22064E-05 7.18024E-06 1.26208E-18-2.85404E-19
 -1      2316 1.06256E-04-3.39920E-05-3.10243E-05 1.02573E-05 1.40345E-18-1.23151E-18
 -1      2317 1.14302E-04-3.86591E-05-3.23558E-05 5.66152E-06 9.20619E-19-5.10473E-19
 -1      2318 1.16054E-04-4.03864E-05-3.25231E-05 3.38720E-06 8.64834E-19-1.07117E-19
 -1      2319 1.10753E-04-3.80966E-05-3.12187E-05 8.50001E-06 1.03453E-18-1.46166E-18
 -1      2320 1.19306E-04-4.24822E-05-3.28640E-05 3.97303E-07 5.28019E-19 1.52962E-19
 -1      2321 1.20513E-04-4.34813E-05-3.31236E-05-2.90506E-06 2.12592E-19 5.07464E-19
 -1      2322 1.16714E-04-4.29810E-05-3.16913E-05 4.25361E-06 7.96706E-19-6.96355E-19
 -1      2323 1.23433E-04-4.43706E-05-3.38946E-05-7.23084E-06 1.45604E-19 8.59580E-19
 -1      2324 1.23259E-04-4.32025E-05-3.43933E-05-1.06105E-05 1.19322E-19 1.68186E-18
 -1      2325 1.23085E-04-4.65000E-05-3.28885E-05-3.02459E-06 4.83229E-19-7.98362E-20
 -1      2326 1.24114E-04-4.10422E-05-3.57769E-05-1.46079E-05 2.30684E-19 1.29710E-18
 -1      2327 1.22102E-04-3.68430E-05-3.65451E-05-1.58734E-05 3.26134E-19 8.43711E-19
 -1      2328 1.27156E-04-4.48501E-05-3.53483E-05-1.20075E-05 8.86473E-20 1.83682E-18
 -1      2329 1.20197E-04-3.17847E-05-3.82461E-05-1.59483E-05-1.34678E-19 5.81763E-19
 -1      2330 1.17442E-04-2.64392E-05-3.90384E-05-1.31830E-05-7.62753E-19 2.49094E-19
 -1      2331 1.25971E-04-3.51007E-05-3.90871E-05-1.73636E-05-3.24943E-19 5.40222E-19
 -1      2332 1.15110E-04-2.23473E-05-4.01611E-05-6.98763E-06-1.33635E-18-7.58812E-19
 -1      2333 1.14202E-04-2.07044E-05-4.03893E-05-1.12409E-06-1.79597E-18-1.01291E-18
 -1      2334 1.21139E-04-2.23363E-05-4.24595E-05-1.18778E-05-1.82101E-18-6.97611E-19
 -1      2335 1.15124E-04-2.19630E-05-4.00434E-05 7.12582E-06-1.90535E-18-1.44009E-18
 -1      2336 1.17062E-04-2.57967E-05-3.95013E-05 1.20828E-05-2.52040E-18-1.06845E-18
 -1      2337 1.19398E-04-1.82105E-05-4.34912E-05 3.95663E-06-1.98947E-18-2.99788E-18
 -1      2338 1.19640E-04-3.10334E-05-3.79863E-05 1.55911E-05-2.43832E-18-8.65707E-19
 -1      2339 1.22389E-04-3.63452E-05-3.71509E-05 1.64833E-05-1.86776E-18-9.78852E-19
 -1      2340 1.23258E-04-2.75115E-05-4.12102E-05 1.55606E-05-2.47572E-18-2.20713E-18
 -1      2341 1.23116E-04-4.04089E-05-3.55106E-05 1.42218E-05-1.69673E-18-1.73201E-18
 -1      2342 1.24381E-04-4.33183E-05-3.48409E-05 1.16971E-05-1.65459E-18-1.75609E-18
 -1      2343 1.27203E-04-4.03335E-05-3.73250E-05 1.56388E-05-1.96040E-18-2.46502E-18
 -1      2344 1.22402E-04-4.39462E-05-3.37244E-05 7.21565E-06-8.09396E-19-1.76133E-18
 -1      2345 1.21862E-04-4.39814E-05-3.33435E-05 3.67478E-06-8.40879E-20-2.12287E-18
 -1      2346 1.25878E-04-4.64177E-05-3.40903E-05 8.03927E-06-1.21242E-18-3.11021E-18
 -1      2347 1.18621E-04-4.23540E-05-3.27910E-05-1.61429E-07-2.63182E-19-1.96891E-18
 -1      2348 1.17080E-04-4.08860E-05-3.25868E-05-3.07046E-06-5.22599E-19-2.25519E-18
 -1      2349 1.20379E-04-4.53504E-05-3.22309E-05-5.38754E-07-2.49830E-19-2.94082E-18
 -1      2350 1.14032E-04-3.87249E-05-3.23529E-05-5.39014E-06-2.52489E-19-1.45219E-18
 -1      2351 1.12228E-04-3.69901E-05-3.21891E-05-7.16978E-06 3.44001E-19-1.19419E-18
 -1      2352 1.13947E-04-4.08507E-05-3.14144E-05-6.51327E-06 1.14009E-19-8.02008E-19
 -1      2353 1.09932E-04-3.51972E-05-3.20721E-05-8.17514E-06 3.37586E-19-8.14900E-19
 -1      2354 1.08241E-04-3.37698E-05-3.18818E-05-8.95594E-06 4.75147E-19-9.56221E-22
 -1      2355 1.08573E-04-3.61562E-05-3.11045E-05-9.57687E-06 8.75427E-19-5.84807E-19
 -1      2356 1.06669E-04-3.25553E-05-3.17780E-05-9.10369E-06 2.49038E-19 2.64733E-19
 -1      2357 1.05205E-04-3.15478E-05-3.15500E-05-9.19593E-06 2.32592E-19-6.05098E-19
 -1      2358 1.04721E-04-3.26103E-05-3.09478E-05-1.05345E-05 6.57786E-19 2.22995E-19
 -1      2359 1.04156E-04-3.08228E-05-3.14253E-05-8.86605E-06 1.33594E-18-7.24312E-19
 -1      2360 1.02922E-04-3.01638E-05-3.11748E-05-8.56259E-06 1.64316E-18 6.11282E-20
 -1      2361 1.02119E-04-3.03433E-05-3.07851E-05-1.02251E-05 4.86925E-19-3.84936E-19
 -1      2362 1.02203E-04-2.97702E-05-3.10291E-05-8.01050E-06 1.41747E-18-3.52834E-19
 -1      2363 1.01170E-04-2.93526E-05-3.07770E-05-7.52325E-06 8.03926E-19 1.17636E-18
 -1      2364 1.00363E-04-2.90548E-05-3.05733E-05-9.25745E-06 1.44578E-18 6.95994E-19
 -1      2365 1.00649E-04-2.91566E-05-3.06217E-05-6.90251E-06 5.12819E-20 1.23813E-18
 -1      2366 9.97892E-05-2.88922E-05-3.03848E-05-6.36345E-06 7.82377E-19 1.31346E-18
 -1      2367 9.91284E-05-2.83970E-05-3.03206E-05-8.01877E-06 7.29334E-19 1.02219E-18
 -1      2368 9.93890E-05-2.88030E-05-3.02323E-05-5.75810E-06 7.84318E-19 8.27980E-19
 -1      2369 9.86782E-05-2.86312E-05-3.00210E-05-5.23881E-06 8.90564E-19 3.16844E-19
 -1      2370 9.82105E-05-2.81025E-05-3.00512E-05-6.73560E-06 9.68451E-20 1.04287E-18
 -1      2371 9.83567E-05-2.85937E-05-2.98806E-05-4.68858E-06 1.19171E-18 4.24641E-19
 -1      2372 9.77746E-05-2.84758E-05-2.97000E-05-4.22054E-06 1.57472E-18 3.57996E-19
 -1      2373 9.74918E-05-2.79964E-05-2.97879E-05-5.52769E-06 5.80100E-19 8.61780E-19
 -1      2374 9.75085E-05-2.84581E-05-2.95774E-05-3.73791E-06 1.15496E-18 6.05273E-19
 -1      2375 9.70372E-05-2.83699E-05-2.94286E-05-3.32796E-06 5.36087E-19 1.08592E-18
 -1      2376 9.69079E-05-2.79731E-05-2.95473E-05-4.44661E-06 1.38502E-18 3.53633E-19
 -1      2377 9.68128E-05-2.83541E-05-2.93263E-05-2.90932E-06 5.67920E-19 1.34707E-18
 -1      2378 9.64361E-05-2.82807E-05-2.92082E-05-2.55087E-06-3.91395E-19 1.80477E-18
 -1      2379 9.64219E-05-2.79720E-05-2.93392E-05-3.50147E-06 4.64294E-19 1.10721E-18
 -1      2380 9.62428E-05-2.82575E-05-2.91263E-05-2.18402E-06-1.30347E-18 1.97241E-18
 -1      2381 9.59507E-05-2.81911E-05-2.90364E-05-1.86475E-06-1.15569E-18 2.07795E-18
 -1      2382 9.60093E-05-2.79587E-05-2.91675E-05-2.67781E-06-9.96584E-19 4.41545E-19
 -1      2383 9.33323E-05-2.76661E-05-2.81344E-05-4.70525E-07 1.78862E-19 6.81634E-20
 -1      2384 9.33971E-05-2.75615E-05-2.81906E-05-1.70536E-07 2.76729E-19 2.40570E-19
 -1      2385 9.33171E-05-2.78303E-05-2.80598E-05-9.20574E-07 2.32013E-19 3.29383E-21
 -1      2386 9.32504E-05-2.77386E-05-2.80632E-05-7.59884E-07 2.38521E-19 8.14529E-20
 -1      2387 9.40234E-05-2.77747E-05-2.84041E-05-5.34727E-07 2.99452E-19-1.17571E-19
 -1      2388 9.34655E-05-2.79678E-05-2.80656E-05-1.15911E-06 2.84196E-19-8.04845E-20
 -1      2389 9.33196E-05-2.78846E-05-2.80367E-05-1.07754E-06 2.59274E-19 3.08290E-21
 -1      2390 9.39708E-05-2.79772E-05-2.82918E-05-1.04109E-06 2.47567E-19-6.08937E-20
 -1      2391 9.37201E-05-2.80880E-05-2.81238E-05-1.28119E-06 2.96416E-19-1.37695E-19
 -1      2392 9.35267E-05-2.80121E-05-2.80746E-05-1.24068E-06 2.58673E-19-6.42799E-20
 -1      2393 9.40499E-05-2.81192E-05-2.82624E-05-1.32046E-06 3.24274E-19-8.53326E-20
 -1      2394 9.40452E-05-2.81956E-05-2.82170E-05-1.35100E-06 2.25443E-19 4.55780E-20
 -1      2395 9.38217E-05-2.81258E-05-2.81544E-05-1.32588E-06 2.86683E-19-1.01983E-19
 -1      2396 9.42203E-05-2.82230E-05-2.82892E-05-1.47528E-06 2.17819E-19-2.32815E-19
 -1      2397 9.44226E-05-2.82949E-05-2.83359E-05-1.41358E-06 3.81539E-19 1.66564E-20
 -1      2398 9.41763E-05-2.82290E-05-2.82632E-05-1.38574E-06 3.81776E-19 1.72740E-19
 -1      2399 9.44552E-05-2.83011E-05-2.83554E-05-1.57625E-06 2.98161E-19-4.94331E-20
 -1      2400 9.48476E-05-2.83909E-05-2.84762E-05-1.50134E-06 2.23031E-19-3.81066E-19
 -1      2401 9.45783E-05-2.83261E-05-2.83944E-05-1.45770E-06 3.50262E-19-8.22252E-20
 -1      2402 9.47403E-05-2.83619E-05-2.84509E-05-1.67360E-06 4.93876E-19 1.05511E-20
 -1      2403 9.53253E-05-2.84905E-05-2.86374E-05-1.63740E-06 5.45955E-19-7.27404E-19
 -1      2404 9.50275E-05-2.84224E-05-2.85456E-05-1.56870E-06 2.77593E-19-6.15649E-19
 -1      2405 9.50712E-05-2.84132E-05-2.85706E-05-1.80350E-06 4.27631E-19-6.40815E-19
 -1      2406 9.58679E-05-2.86022E-05-2.88210E-05-1.83700E-06 4.96528E-20-3.86463E-19
 -1      2407 9.55326E-05-2.85257E-05-2.87175E-05-1.73743E-06 3.88526E-19-4.52105E-19
 -1      2408 9.54517E-05-2.84636E-05-2.87122E-05-1.99146E-06 2.77483E-19-6.34756E-19
 -1      2409 9.64924E-05-2.87372E-05-2.90299E-05-2.10712E-06 1.44583E-19-1.76965E-19
 -1      2410 9.61086E-05-2.86458E-05-2.89124E-05-1.97477E-06 1.64659E-20-6.59360E-20
 -1      2411 9.58916E-05-2.85237E-05-2.88753E-05-2.25348E-06-5.74843E-20-6.76735E-20
 -1      2412 9.72183E-05-2.89099E-05-2.92665E-05-2.44435E-06 3.55087E-19-2.53732E-19
 -1      2413 9.67745E-05-2.87955E-05-2.91331E-05-2.28251E-06 3.46297E-19-4.43662E-20
 -1      2414 9.64059E-05-2.86073E-05-2.90604E-05-2.59540E-06 1.56706E-19 5.91518E-20
 -1      2415 9.80646E-05-2.91382E-05-2.95317E-05-2.83096E-06 7.86650E-19-3.88584E-19
 -1      2416 9.75513E-05-2.89913E-05-2.93815E-05-2.65031E-06 7.19825E-19-2.84671E-19
 -1      2417 9.70131E-05-2.87334E-05-2.92671E-05-3.01011E-06 4.90489E-19 3.37442E-19
 -1      2418 9.90468E-05-2.94447E-05-2.98228E-05-3.22879E-06 4.34646E-19-2.84812E-19
 -1      2419 9.84590E-05-2.92542E-05-2.96572E-05-3.05059E-06 6.48412E-19-2.24038E-19
 -1      2420 9.77347E-05-2.89278E-05-2.94937E-05-3.47283E-06 6.22396E-19 5.26527E-19
 -1      2421 1.00173E-04-2.98567E-05-3.01323E-05-3.57149E-06-4.56815E-20-1.64446E-19
 -1      2422 9.95138E-05-2.96106E-05-2.99559E-05-3.43153E-06 1.58611E-19-2.94684E-19
 -1      2423 9.85945E-05-2.92253E-05-2.97353E-05-3.93411E-06 2.48724E-19 7.86094E-19
 -1      2424 1.01437E-04-3.04032E-05-3.04460E-05-3.75634E-06-6.38413E-19 6.24935E-21
 -1      2425 1.00723E-04-3.00910E-05-3.02677E-05-3.70857E-06-4.08644E-19-6.34898E-20
 -1      2426 9.96174E-05-2.96702E-05-2.99837E-05-4.31118E-06-3.33191E-19 4.03945E-19
 -1      2427 1.02811E-04-3.11079E-05-3.07423E-05-3.63930E-06-2.00107E-19-1.39860E-20
 -1      2428 1.02079E-04-3.07257E-05-3.05761E-05-3.75700E-06-3.14518E-19 3.35190E-20
 -1      2429 1.00826E-04-3.03128E-05-3.02269E-05-4.47928E-06-3.68576E-19 2.07536E-19
 -1      2430 1.04233E-04-3.19707E-05-3.09939E-05-3.04116E-06 2.43967E-19-2.44376E-19
 -1      2431 1.03545E-04-3.15321E-05-3.08584E-05-3.41075E-06-7.52734E-22-6.28391E-19
 -1      2432 1.02232E-04-3.11971E-05-3.04509E-05-4.26732E-06 1.75753E-19-4.78317E-19
 -1      2433 1.05583E-04-3.29335E-05-3.11728E-05-1.77842E-06-3.26812E-19 1.59252E-19
 -1      2434 1.05037E-04-3.24877E-05-3.10886E-05-2.47867E-06 6.36929E-20 9.22885E-20
 -1      2435 1.03817E-04-3.23299E-05-3.06440E-05-3.46714E-06-1.17612E-19 7.79750E-20
 -1      2436 1.06663E-04-3.38314E-05-3.12606E-05 2.62657E-07-1.28416E-18 6.20928E-19
 -1      2437 1.06393E-04-3.34849E-05-3.12442E-05-7.95841E-07-9.71173E-19 4.32933E-19
 -1      2438 1.05495E-04-3.36259E-05-3.08041E-05-1.87296E-06-8.03629E-19 9.96408E-19
 -1      2439 1.07182E-04-3.43489E-05-3.12602E-05 2.99471E-06-8.92746E-19 7.18569E-19
 -1      2440 1.07339E-04-3.42769E-05-3.13167E-05 1.66948E-06-1.24297E-18 6.83119E-19
 -1      2441 1.07055E-04-3.48303E-05-3.09476E-05 6.25518E-07-1.15855E-18 9.25295E-19
 -1      2442 1.06796E-04-3.40477E-05-3.12049E-05 5.96161E-06-8.33560E-19 3.04593E-19
 -1      2443 1.07502E-04-3.44572E-05-3.13204E-05 4.65056E-06-7.06981E-19 4.25275E-19
 -1      2444 1.08114E-04-3.54680E-05-3.11139E-05 3.87688E-06-8.88016E-19-1.59505E-20
 -1      2445 1.05271E-04-3.25601E-05-3.11513E-05 8.23749E-06 1.89486E-19 1.72674E-18
 -1      2446 1.06512E-04-3.35650E-05-3.12931E-05 7.41903E-06-7.03307E-19 8.18565E-19
 -1      2447 1.08164E-04-3.49159E-05-3.13553E-05 7.25855E-06-1.08004E-18-2.66239E-19
 -1      2448 1.02782E-04-2.99812E-05-3.11493E-05 8.60906E-06 8.14375E-19 1.90406E-18
 -1      2449 1.04300E-04-3.14088E-05-3.12770E-05 8.80967E-06 5.62783E-19 1.85216E-18
 -1      2450 1.06828E-04-3.27606E-05-3.17032E-05 9.57111E-06 4.76258E-20 1.01309E-18
 -1      2451 1.00161E-04-2.71885E-05-3.12078E-05 6.23820E-06 5.53718E-19 3.14594E-18
 -1      2452 1.01449E-04-2.85041E-05-3.12899E-05 7.68966E-06 7.30083E-19 2.92786E-18
 -1      2453 1.04339E-04-2.93560E-05-3.21208E-05 9.36309E-06 2.68460E-19 1.70991E-18
 -1      2454 9.86719E-05-2.56032E-05-3.12768E-05 1.46581E-06 9.55552E-19 3.40612E-18
 -1      2455 9.91743E-05-2.61205E-05-3.13056E-05 3.80481E-06 1.07875E-18 3.45216E-18
 -1      2456 1.01806E-04-2.60867E-05-3.24858E-05 5.85819E-06 5.60230E-19 3.11298E-18
 -1      2457 9.91912E-05-2.61563E-05-3.13023E-05-3.90554E-06 9.52290E-19 2.23411E-18
 -1      2458 9.86938E-05-2.56119E-05-3.12744E-05-1.57742E-06 1.13833E-18 3.18407E-18
 -1      2459 1.00745E-04-2.47353E-05-3.26276E-05-7.51335E-08 1.34998E-18 3.36269E-18
 -1      2460 1.01505E-04-2.85765E-05-3.12848E-05-7.73087E-06 8.92720E-19 7.86460E-19
 -1      2461 1.00217E-04-2.72504E-05-3.12021E-05-6.31651E-06 8.65502E-19 1.57355E-18
 -1      2462 1.01843E-04-2.61256E-05-3.24744E-05-5.95722E-06 1.64682E-18 2.18037E-18
 -1      2463 1.04351E-04-3.14709E-05-3.12709E-05-8.77504E-06-1.06251E-19 6.08269E-19
 -1      2464 1.02841E-04-3.00587E-05-3.11436E-05-8.60326E-06 4.05441E-19 9.98596E-19
 -1      2465 1.04404E-04-2.94557E-05-3.21066E-05-9.37930E-06 4.76490E-19 1.45889E-18
 -1      2466 1.06525E-04-3.35897E-05-3.12831E-05-7.33458E-06-4.40556E-19 5.97789E-19
 -1      2467 1.05298E-04-3.26110E-05-3.11434E-05-8.15316E-06-4.10083E-19 3.51069E-19
 -1      2468 1.06865E-04-3.28409E-05-3.16869E-05-9.49730E-06-2.03617E-19 1.86864E-18
 -1      2469 1.07472E-04-3.44478E-05-3.13061E-05-4.54802E-06-3.78703E-19 1.67224E-18
 -1      2470 1.06779E-04-3.40580E-05-3.11937E-05-5.83548E-06-6.33157E-19 7.33256E-19
 -1      2471 1.08153E-04-3.49496E-05-3.13365E-05-7.13369E-06-5.49642E-19 2.41899E-18
 -1      2472 1.07272E-04-3.42457E-05-3.12976E-05-1.56788E-06 1.54386E-18 2.21068E-18
 -1      2473 1.07126E-04-3.43269E-05-3.12450E-05-2.85966E-06 9.54848E-19 2.25313E-18
 -1      2474 1.08063E-04-3.54646E-05-3.10952E-05-3.73868E-06-1.08321E-19 1.32279E-18
 -1      2475 1.06297E-04-3.34434E-05-3.12192E-05 8.89109E-07 3.02033E-19 2.57043E-18
 -1      2476 1.06579E-04-3.37913E-05-3.12399E-05-1.38902E-07 1.53475E-18 2.52215E-18
 -1      2477 1.06976E-04-3.48023E-05-3.09283E-05-4.95968E-07 1.12217E-18 1.83494E-18
 -1      2478 1.04920E-04-3.24407E-05-3.10577E-05 2.56105E-06-4.83504E-20 1.36651E-18
 -1      2479 1.05476E-04-3.28850E-05-3.11460E-05 1.88305E-06 2.32472E-19 2.33525E-18
 -1      2480 1.05400E-04-3.35860E-05-3.07825E-05 1.98612E-06 1.28674E-18 2.94764E-18
 -1      2481 1.03413E-04-3.14822E-05-3.08231E-05 3.48070E-06-1.24114E-18 9.67372E-19
 -1      2482 1.04109E-04-3.19189E-05-3.09616E-05 3.12449E-06-9.82692E-19 8.22558E-19
 -1      2483 1.03713E-04-3.22842E-05-3.06199E-05 3.56072E-06 2.60642E-19 1.42947E-18
 -1      2484 1.01938E-04-3.06728E-05-3.05384E-05 3.81242E-06-2.66743E-19 1.68681E-18
 -1      2485 1.02677E-04-3.10547E-05-3.07065E-05 3.70195E-06-1.14516E-18 8.85866E-19
 -1      2486 1.02123E-04-3.11483E-05-3.04256E-05 4.34045E-06-8.28438E-19 1.22452E-18
 -1      2487 1.00579E-04-3.00329E-05-3.02309E-05 3.74387E-06 1.20787E-18 1.67199E-18
 -1      2488 1.01296E-04-3.03471E-05-3.04093E-05 3.79737E-06 8.94520E-19 1.34271E-18
 -1      2489 1.00717E-04-3.02602E-05-3.02027E-05 4.53013E-06 6.47488E-19 2.73613E-19
 -1      2490 9.93748E-05-2.95441E-05-2.99246E-05 3.43506E-06 6.80485E-19 6.56376E-19
 -1      2491 1.00032E-04-2.97944E-05-3.00985E-05 3.58460E-06 1.48048E-18 1.18478E-18
 -1      2492 9.95113E-05-2.96096E-05-2.99641E-05 4.33264E-06 1.24116E-18 6.58746E-19
 -1      2493 9.83373E-05-2.91754E-05-2.96379E-05 3.00263E-06-2.30238E-19 1.78761E-18
 -1      2494 9.89151E-05-2.93722E-05-2.97974E-05 3.20002E-06 1.00732E-19 1.60326E-18
 -1      2495 9.84963E-05-2.91503E-05-2.97253E-05 3.91134E-06 2.14886E-19 1.61614E-19
 -1      2496 9.74636E-05-2.88952E-05-2.93834E-05 2.52044E-06-8.69601E-19 2.92055E-18
 -1      2497 9.79545E-05-2.90502E-05-2.95222E-05 2.73645E-06-7.55014E-19 2.89134E-18
 -1      2498 9.76513E-05-2.88293E-05-2.95001E-05 3.38131E-06-1.18947E-18 3.01270E-18
 -1      2499 9.67434E-05-2.86763E-05-2.91680E-05 2.02726E-06 7.27965E-19 3.26805E-18
 -1      2500 9.71472E-05-2.88000E-05-2.92832E-05 2.24798E-06 2.15478E-19 3.26374E-18
 -1      2501 9.69531E-05-2.85998E-05-2.92988E-05 2.81324E-06-4.86926E-19 3.67805E-18
 -1      2502 9.61615E-05-2.84985E-05-2.89946E-05 1.53569E-06-4.59983E-20 4.43021E-18
 -1      2503 9.64820E-05-2.85981E-05-2.90853E-05 1.75808E-06 4.92255E-19 4.42311E-18
 -1      2504 9.63781E-05-2.84241E-05-2.91273E-05 2.24489E-06-3.46899E-19 4.84041E-18
 -1      2505 9.57026E-05-2.83528E-05-2.88604E-05 1.05174E-06-1.07612E-18 4.22193E-18
 -1      2506 9.59484E-05-2.84323E-05-2.89287E-05 1.27350E-06-3.56641E-19 4.90451E-18
 -1      2507 9.59086E-05-2.82812E-05-2.89880E-05 1.68517E-06-4.45864E-19 6.39575E-18
 -1      2508 9.55293E-05-2.83095E-05-2.88038E-05 7.80919E-07-8.65694E-19 2.59966E-18
 -1      2509 9.43340E-05-2.63636E-05-2.91371E-05 1.45793E-06 1.43810E-18-2.39621E-19
 -1      2510 9.44973E-05-2.66013E-05-2.90962E-05 1.56319E-06 4.53224E-20-5.08042E-19
 -1      2511 9.40538E-05-2.59571E-05-2.91920E-05 1.08378E-06 2.51041E-18-4.13747E-19
 -1      2512 9.41813E-05-2.61413E-05-2.91601E-05 1.27630E-06 2.51999E-18-1.26229E-18
 -1      2513 9.41539E-05-2.62219E-05-2.91099E-05 1.58459E-06 2.63186E-18-5.09376E-20
 -1      2514 9.50384E-05-2.73926E-05-2.89949E-05 1.58781E-06-8.88364E-19-2.59472E-18
 -1      2515 9.52154E-05-2.76534E-05-2.89495E-05 1.49779E-06-2.04735E-19 1.13787E-18
 -1      2516 9.46755E-05-2.68605E-05-2.90690E-05 1.63296E-06-1.72857E-18-2.62900E-18
 -1      2517 9.48538E-05-2.71200E-05-2.90246E-05 1.63892E-06-1.11090E-18-2.70017E-18
 -1      2518 9.49861E-05-2.72638E-05-2.90210E-05 1.88417E-06-7.78952E-19-3.61643E-18
 -1      2519 9.45498E-05-2.67161E-05-2.90685E-05 1.85532E-06-2.23514E-19-7.27394E-19
 -1      2520 9.38682E-05-2.56898E-05-2.92268E-05 5.58465E-07 6.02528E-19-4.00017E-19
 -1      2521 9.39450E-05-2.57985E-05-2.92081E-05 8.13789E-07 1.39980E-18-1.64478E-18
 -1      2522 9.38449E-05-2.58320E-05-2.91428E-05 1.10207E-06 2.33093E-18-1.82526E-18
 -1      2523 9.38016E-05-2.55965E-05-2.92371E-05-5.19373E-08-1.09233E-18 3.41691E-19
 -1      2524 9.38170E-05-2.56148E-05-2.92343E-05 2.32861E-07-4.26507E-19 1.54500E-18
 -1      2525 9.36550E-05-2.55924E-05-2.91629E-05 4.65086E-07 5.94948E-19-6.27256E-19
 -1      2526 9.38675E-05-2.56934E-05-2.92218E-05-6.67030E-07-1.39171E-18-1.56866E-18
 -1      2527 9.38168E-05-2.56168E-05-2.92351E-05-3.91416E-07-1.14891E-18-1.14501E-18
 -1      2528 9.36120E-05-2.55359E-05-2.91682E-05-2.46625E-07-9.01898E-19-6.62408E-19
 -1      2529 9.40607E-05-2.59686E-05-2.91838E-05-1.19290E-06-7.12062E-19-2.25679E-19
 -1      2530 9.39490E-05-2.58079E-05-2.92109E-05-9.69429E-07-1.17130E-18-9.11219E-19
 -1      2531 9.37275E-05-2.56741E-05-2.91586E-05-9.34491E-07-4.79706E-19-4.97255E-19
 -1      2532 9.43711E-05-2.64042E-05-2.91271E-05-1.56698E-06 7.10841E-19-3.29273E-19
 -1      2533 9.42057E-05-2.61715E-05-2.91653E-05-1.42415E-06 1.44296E-19-1.53504E-18
 -1      2534 9.39951E-05-2.59981E-05-2.91358E-05-1.50872E-06 3.43296E-19-5.68649E-19
 -1      2535 9.47630E-05-2.69500E-05-2.90587E-05-1.71397E-06 3.59268E-19 2.97588E-18
 -1      2536 9.45650E-05-2.66735E-05-2.91030E-05-1.68451E-06 3.95919E-19 2.24744E-18
 -1      2537 9.43933E-05-2.64807E-05-2.91019E-05-1.88595E-06 9.66050E-19 4.27980E-20
 -1      2538 9.51799E-05-2.75389E-05-2.89835E-05-1.60099E-06-5.36876E-19 8.04461E-19
 -1      2539 9.49790E-05-2.72517E-05-2.90303E-05-1.69548E-06-3.79272E-19 1.57070E-18
 -1      2540 9.48686E-05-2.70676E-05-2.90582E-05-1.99228E-06 2.08935E-19 2.11602E-18
 -1      2541 2.87568E-05-1.93697E-05-3.65722E-06 2.30524E-05-1.43604E-18 2.84582E-18
 -1      2542 2.14325E-05-1.66952E-05-1.58342E-06 8.29820E-06-6.23152E-19 2.08370E-18
 -1      2543 9.55893E-05-5.14644E-05-1.90515E-05 4.15778E-05-1.98777E-18 8.49945E-20
 -1      2544 7.75370E-05-4.59545E-05-1.33657E-05 4.24877E-05-2.30520E-18 1.85447E-18
 -1      2545 7.49180E-05-4.21311E-05-1.36083E-05 4.18042E-05-2.24845E-18 1.73155E-18
 -1      2546 9.35925E-05-2.74481E-05-2.83355E-05 3.38930E-07 4.30888E-19 3.76965E-19
 -1      2547 9.38673E-05-2.73129E-05-2.84793E-05 8.81795E-07 5.27966E-19 5.36557E-19
 -1      2548 9.42570E-05-2.74616E-05-2.86407E-05 3.52501E-07 4.76494E-19 1.37444E-19
 -1      2549 9.54217E-05-2.80129E-05-2.88843E-05-1.10664E-06 1.87614E-19 1.25377E-18
 -1      2550 1.95447E-05-1.71839E-05-7.59771E-07-5.72971E-06-4.32940E-19 2.29842E-18
 -1      2551 2.53590E-05-2.08112E-05-1.69069E-06-1.96598E-05-1.39019E-18 1.73028E-18
 -1      2552 1.26227E-04-5.71790E-05-3.00248E-05 2.67336E-05-9.30360E-19 2.58843E-18
 -1      2553 1.13758E-04-5.62408E-05-2.44582E-05 3.27828E-05-1.67818E-18 1.44493E-18
 -1      2554 1.44260E-04-2.62025E-05-5.12599E-05-5.79246E-06 8.83879E-19 1.25742E-18
 -1      2555 1.44074E-04-3.39042E-05-4.75216E-05-4.05389E-06 1.02713E-18 1.29173E-18
 -1      2556 3.65394E-05-2.69760E-05-3.83125E-06-2.90904E-05-1.65828E-18 9.09713E-19
 -1      2557 5.13432E-05-3.35859E-05-7.54050E-06-3.81325E-05-1.51852E-18 6.46710E-19
 -1      2558 1.43021E-04-2.59773E-05-5.07185E-05 5.72266E-06 1.73388E-18 1.26928E-18
 -1      2559 1.44144E-04-1.87043E-05-5.42200E-05 5.95081E-06 2.14426E-18 5.46760E-19
 -1      2560 8.78928E-05-1.07871E-05-3.30812E-05-1.51506E-06-2.91373E-20-6.43063E-19
 -1      2561 8.79965E-05-1.09097E-05-3.30715E-05-2.63240E-06-1.21698E-19-5.98687E-19
 -1      2562 8.93914E-05-1.30750E-05-3.27089E-05-2.92227E-06-1.46521E-19-4.73094E-19
 -1      2563 8.91455E-05-1.27379E-05-3.27491E-05-9.37772E-07-4.81510E-20-5.70920E-19
 -1      2564 1.42725E-04-1.34696E-05-5.59829E-05 4.61747E-06 2.21901E-18 3.98529E-19
 -1      2565 1.41783E-04-1.03427E-05-5.69171E-05 2.50880E-06 2.00239E-18 9.24219E-19
 -1      2566 1.32811E-04-1.53986E-05-5.05648E-05 8.84953E-06 2.03690E-18-3.44954E-19
 -1      2567 5.67850E-05-3.66258E-05-8.32469E-06-4.04970E-05-1.58565E-18-2.86509E-19
 -1      2568 7.54700E-05-4.41618E-05-1.34665E-05-4.44678E-05-2.50171E-18-8.88432E-19
 -1      2569 1.26057E-04-5.56850E-05-3.01603E-05-2.53389E-05-1.48093E-18 1.61148E-18
 -1      2570 1.36230E-04-5.34919E-05-3.56167E-05-1.97724E-05-8.29033E-19 2.15273E-18
 -1      2571 1.15039E-04-5.81627E-05-2.43011E-05-3.10243E-05-7.34589E-19-2.14659E-18
 -1      2572 1.31378E-04-5.91074E-05-3.11275E-05-2.41423E-05-1.22036E-18-2.29588E-18
 -1      2573 9.67402E-05-5.22431E-05-1.88759E-05-3.93845E-05-3.24075E-18-5.73997E-19
 -1      2574 1.13731E-04-5.53817E-05-2.51082E-05-3.54703E-05-2.41701E-18 9.14054E-19
 -1      2575 1.23525E-04-5.81961E-05-2.77772E-05-2.60852E-05-1.94669E-18 7.40307E-19
 -1      2576 2.58962E-05-2.22219E-05-1.32256E-06-2.21725E-05-1.79327E-18-4.04458E-20
 -1      2577 3.74718E-05-2.65007E-05-4.55555E-06-3.39366E-05-1.82769E-18-4.26058E-19
 -1      2578 1.78878E-05-1.73917E-05 4.68766E-09 1.29470E-06-1.72657E-18 2.00747E-19
 -1      2579 1.95306E-05-1.87437E-05-9.86953E-08-1.23251E-05-1.72488E-18 4.83232E-19
 -1      2580 3.01183E-05-1.72366E-05-4.96204E-06-1.78161E-05-1.32614E-18 3.03661E-19
 -1      2581 3.61114E-05-2.63203E-05-4.03964E-06 2.99331E-05-8.23104E-19-3.20581E-18
 -1      2582 2.32297E-05-2.08970E-05-7.67609E-07 1.61914E-05-1.52148E-18-9.22419E-19
 -1      2583 7.37753E-05-4.45569E-05-1.23892E-05 4.20639E-05 3.85400E-20-6.26211E-18
 -1      2584 5.71100E-05-3.69138E-05-8.38493E-06 3.87441E-05 7.85623E-20-5.46739E-18
 -1      2585 1.07637E-04-5.57844E-05-2.23421E-05 3.70166E-05-1.49141E-18-4.06883E-18
 -1      2586 8.99291E-05-5.15269E-05-1.64130E-05 3.92006E-05-3.21661E-19-4.86617E-18
 -1      2587 8.99071E-05-4.95157E-05-1.69607E-05 3.86623E-05 6.28922E-19-4.72184E-18
 -1      2588 1.49110E-04-4.30384E-05-4.60823E-05-4.90263E-06-3.17378E-18-3.06605E-18
 -1      2589 1.47588E-04-5.03630E-05-4.16568E-05-3.85901E-07-2.87467E-18-2.88478E-18
 -1      2590 1.47261E-04-1.31279E-05-5.78561E-05 1.14218E-06-3.62445E-18-3.43816E-18
 -1      2591 1.46448E-04-1.37538E-05-5.72555E-05-4.17900E-06-3.61768E-18-3.40444E-18
 -1      2592 1.47616E-04-2.13990E-05-5.46020E-05 8.46316E-06-2.52268E-18-4.84884E-18
 -1      2593 1.48216E-04-1.55185E-05-5.73713E-05 5.00183E-06-3.29538E-18-4.31479E-18
 -1      2594 1.37654E-04-1.30727E-05-5.34485E-05 5.01258E-06-2.89918E-18-3.70566E-18
 -1      2595 1.48991E-04-3.95752E-05-4.72297E-05 6.94116E-06-2.91983E-18-4.53311E-18
 -1      2596 1.48473E-04-3.19320E-05-5.06209E-05 9.03368E-06-2.75286E-18-4.41791E-18
 -1      2597 1.41196E-04-5.54339E-05-3.68811E-05-1.11190E-05-1.34911E-18-2.82994E-18
 -1      2598 1.49492E-04-4.89071E-05-4.35677E-05-1.94718E-06-2.04463E-18-3.81122E-18
 -1      2599 1.44648E-04-4.61742E-05-4.23204E-05 7.35206E-06-2.85927E-18-3.58909E-18
 -1      2600 7.18071E-05-4.37192E-05-1.17978E-05-4.00034E-05-1.33408E-18-2.49875E-20
 -1      2601 9.29433E-05-5.15799E-05-1.78102E-05-3.97757E-05-8.97431E-19-3.82594E-19
 -1      2602 9.50358E-05-2.00105E-05-3.22020E-05-1.17738E-05-7.34166E-19 2.51966E-19
 -1      2603 9.54275E-05-2.33405E-05-3.09168E-05-7.97067E-06-6.23621E-19 3.19604E-19
 -1      2604 9.50268E-05-2.25456E-05-3.10495E-05-7.61993E-06-6.18440E-19 1.17168E-19
 -1      2605 9.32207E-05-1.77012E-05-3.23929E-05-1.13047E-05-7.10422E-19 2.75286E-20
 -1      2606 9.62769E-05-2.50764E-05-3.05402E-05 7.59648E-06 8.17863E-19 9.25023E-19
 -1      2607 9.73976E-05-2.37608E-05-3.15800E-05 1.06967E-05 9.24086E-19 1.10034E-18
 -1      2608 9.58430E-05-2.12888E-05-3.20077E-05 1.18978E-05 1.01977E-18 8.25182E-19
 -1      2609 9.58388E-05-2.41458E-05-3.07589E-05 7.68387E-06 8.39820E-19 6.71931E-19
 -1      2610 1.25812E-04-8.66104E-06-5.06190E-05 2.92298E-06 2.54025E-18-8.66118E-19
 -1      2611 1.37108E-04-9.70785E-06-5.50227E-05-4.07475E-07 2.30139E-18 6.27632E-19
 -1      2612 1.28676E-04-9.01663E-06-5.19146E-05-3.40285E-06 2.37381E-18-2.86191E-19
 -1      2613 9.08248E-05-1.50390E-05-3.24755E-05-6.79215E-06-4.76599E-19-5.66030E-19
 -1      2614 8.97287E-05-1.31785E-05-3.28595E-05-7.95818E-06-5.30731E-19-6.79373E-19
 -1      2615 9.03756E-05-1.39593E-05-3.28104E-05-9.13252E-06-6.25302E-19-6.00361E-19
 -1      2616 9.47080E-05-2.69167E-05-2.90664E-05 1.85926E-06 5.87881E-19 3.18651E-19
 -1      2617 9.42161E-05-1.90712E-05-3.22501E-05 1.16054E-05 9.28791E-19 4.34475E-19
 -1      2618 9.11442E-05-1.50044E-05-3.26847E-05-9.81640E-06-6.18777E-19-4.98962E-19
 -1      2619 9.21559E-05-1.62746E-05-3.25984E-05-1.08486E-05-6.71812E-19-2.69105E-19
 -1      2620 9.36312E-05-1.92001E-05-3.18944E-05-9.19138E-06-6.47032E-19-1.46811E-19
 -1      2621 9.20769E-05-1.68123E-05-3.22471E-05-8.29682E-06-5.57228E-19-5.13749E-19
 -1      2622 1.38197E-04-5.92565E-05-3.37304E-05-1.08243E-05-9.62865E-19-3.41333E-18
 -1      2623 1.40837E-04-2.57156E-05-4.93261E-05 1.40409E-05-2.52479E-18-4.79887E-18
 -1      2624 1.33245E-04-5.63664E-05-3.28045E-05 1.44233E-05-3.54536E-19 1.69724E-18
 -1      2625 5.27009E-05-2.71399E-05-1.07553E-05 3.48801E-05-2.92989E-18 1.77538E-18
 -1      2626 4.03642E-05-2.33744E-05-6.71960E-06 2.97033E-05-2.23511E-18 2.33548E-18
 -1      2627 3.94548E-05-1.72712E-05-8.97672E-06 2.26479E-05-1.40247E-18 1.47595E-18
 -1      2628 3.79543E-05-2.14338E-05-6.52368E-06-2.45081E-05-1.67713E-19 1.01453E-18
 -1      2629 1.22292E-04-6.00601E-05-2.65305E-05 2.68974E-05-9.45712E-19-2.94259E-18
 -1      2630 9.55270E-05-2.81630E-05-2.88691E-05 1.12460E-06-2.84855E-19 3.15980E-18
 -1      2631 1.07391E-04-5.49760E-05-2.22010E-05 3.52327E-05-2.27005E-18 1.37767E-18
 -1      2632 9.54413E-05-2.79840E-05-2.89100E-05 1.29406E-06-3.22702E-20 3.58496E-18
 -1      2633 1.43213E-04-5.49834E-05-3.76659E-05 3.56071E-06-1.85839E-18-2.38313E-18
 -1      2634 2.77937E-05-1.42482E-05-5.23155E-06 1.07535E-06 2.40187E-19 1.75378E-18
 -1      2635 2.72897E-05-1.60391E-05-4.24763E-06 8.68931E-06-1.60110E-18-5.33419E-19
 -1      2636 9.21181E-05-4.94597E-05-1.79060E-05-3.97712E-05-2.68107E-18-4.74868E-20
 -1      2637 1.08522E-04-5.65205E-05-2.19905E-05-3.35244E-05-4.21822E-19-2.06020E-18
 -1      2638 1.19822E-04-5.95990E-05-2.62033E-05-2.54635E-05 8.22681E-20-4.29022E-18
 -1      2639 1.00647E-04-5.18218E-05-2.04833E-05-3.46527E-05-2.23934E-19-2.60399E-18
 -1      2640 9.54665E-05-2.78817E-05-2.89618E-05 1.63776E-06-6.14023E-19 2.44161E-18
 -1      2641 1.39985E-04-4.13310E-05-4.24466E-05-4.76531E-06 9.03678E-19 1.12317E-18
 -1      2642 6.83651E-05-3.81018E-05-1.24361E-05-3.80320E-05-1.46325E-19-3.53213E-19
 -1      2643 1.43027E-04-3.24345E-05-4.77213E-05 6.11219E-06 1.82853E-18 1.32031E-18
 -1      2644 1.33410E-04-2.66121E-05-4.61859E-05 1.21097E-05 2.07142E-18 8.64715E-19
 -1      2645 1.39168E-04-3.75447E-05-4.37548E-05 6.13796E-06 1.88518E-18 1.29014E-18
 -1      2646 1.40838E-04-1.69530E-05-5.32322E-05-8.04675E-06-3.87073E-18-2.72903E-18
 -1      2647 1.40059E-04-2.08285E-05-5.13730E-05-7.82947E-06 8.00234E-19 1.41878E-18
 -1      2648 1.33209E-04-2.43284E-05-4.68955E-05-1.11149E-05 1.41063E-18 1.74923E-18
 -1      2649 1.31700E-04-1.50902E-05-5.08410E-05-9.09985E-06 1.37601E-18 1.09003E-18
 -1      2650 9.46941E-05-2.05917E-05-3.17138E-05 9.66866E-06 8.36240E-19 3.48792E-19
 -1      2651 5.34445E-05-3.04299E-05-9.32767E-06-3.67230E-05-1.53482E-18-1.48231E-19
 -1      2652 1.40008E-04-5.20490E-05-3.78856E-05-8.20821E-06 7.49095E-20 1.06514E-18
 -1      2653 5.12333E-05-3.07714E-05-8.28380E-06 3.47196E-05-5.05890E-19-4.08291E-18
 -1      2654 4.67300E-05-2.34367E-05-9.35548E-06 2.94114E-05-8.15163E-19-2.97097E-18
 -1      2655 6.56596E-05-3.51566E-05-1.30590E-05 3.69404E-05 5.97899E-19-4.80945E-18
 -1      2656 1.44040E-04-3.55159E-05-4.67255E-05-1.31702E-05-2.48392E-18-2.52585E-18
 -1      2657 9.56417E-05-2.81341E-05-2.89258E-05-1.36176E-06 5.18679E-19 1.79686E-18
 -1      2658 9.53786E-05-2.78029E-05-2.89650E-05-1.53144E-06-3.55286E-19 5.36456E-19
 -1      2659 9.53762E-05-2.76522E-05-2.90211E-05-1.89517E-06-7.28661E-19 1.58867E-18
 -1      2660 9.58455E-05-2.81751E-05-2.89918E-05-1.63372E-06-5.47004E-19 2.26490E-18
 -1      2661 9.57124E-05-2.79415E-05-2.90500E-05-2.04839E-06-1.25006E-18 1.26597E-18
 -1      2662 9.05985E-05-1.51463E-05-3.23589E-05 3.18359E-06 2.05543E-19-5.39879E-19
 -1      2663 9.04101E-05-1.48732E-05-3.23933E-05 2.25233E-06 1.73279E-19-5.47726E-19
 -1      2664 9.02765E-05-1.46684E-05-3.24235E-05 1.41739E-06 1.27695E-19-6.02323E-19
 -1      2665 9.02120E-05-1.45754E-05-3.24351E-05 4.63794E-07 4.22282E-20-5.38107E-19
 -1      2666 9.14565E-05-1.65519E-05-3.20888E-05 1.63195E-06 9.57831E-20-5.27270E-19
 -1      2667 9.21639E-05-1.75349E-05-3.20217E-05 6.45857E-06 6.74052E-19-2.82649E-19
 -1      2668 9.16455E-05-1.67385E-05-3.21255E-05 5.61917E-06 5.61137E-19-3.31076E-19
 -1      2669 9.35659E-05-1.97629E-05-3.16722E-05 7.58479E-06 7.84180E-19-9.04472E-20
 -1      2670 9.27860E-05-1.85081E-05-3.18506E-05 7.00520E-06 7.01436E-19-1.83555E-19
 -1      2671 9.34522E-05-1.98451E-05-3.15234E-05 5.71431E-06 6.72878E-19-1.61878E-19
 -1      2672 9.52006E-05-2.53894E-05-2.99310E-05 3.96140E-06 6.83575E-19 2.87489E-19
 -1      2673 9.55342E-05-2.45426E-05-3.03925E-05 5.60057E-06 7.07395E-19 3.65345E-19
 -1      2674 4.92210E-05-2.37301E-05-1.03244E-05-3.11572E-05-1.61174E-18-3.13614E-19
 -1      2675 6.55222E-05-3.38111E-05-1.34990E-05-3.90991E-05-1.65775E-18 1.73536E-19
 -1      2676 9.46891E-05-2.18946E-05-3.12042E-05 7.83751E-06 7.66853E-19 2.56912E-19
 -1      2677 1.33774E-04-5.45461E-05-3.43841E-05 6.19711E-06-1.55738E-19 1.36012E-18
 -1      2678 1.27617E-04-5.80136E-05-2.95310E-05 1.75296E-05-1.16472E-18 1.77475E-18
 -1      2679 9.53598E-05-2.58753E-05-2.97488E-05-2.66625E-06-5.15245E-19 8.30150E-20
 -1      2680 9.51977E-05-2.64576E-05-2.94714E-05-1.67181E-06-4.30586E-19 4.85689E-20
 -1      2681 9.52231E-05-2.69638E-05-2.92308E-05-9.13226E-07-2.44842E-19 1.45927E-19
 -1      2682 9.50969E-05-2.73100E-05-2.90570E-05-2.87528E-07-1.03998E-19 1.87912E-19
 -1      2683 9.54258E-05-2.62828E-05-2.96388E-05-1.55240E-06-3.19072E-19 1.11202E-19
 -1      2684 9.50672E-05-2.76043E-05-2.88970E-05 2.05910E-07-1.56418E-19 2.12953E-19
 -1      2685 9.50019E-05-2.78181E-05-2.87949E-05 5.87380E-07-2.17118E-19 2.17152E-19
 -1      2686 9.54315E-05-2.72533E-05-2.92270E-05-2.27709E-07-1.88380E-19 1.23940E-19
 -1      2687 9.49644E-05-2.79878E-05-2.86944E-05 8.95133E-07-2.81791E-19 2.04856E-19
 -1      2688 9.49543E-05-2.81209E-05-2.86424E-05 1.12194E-06-3.58003E-19 1.57120E-19
 -1      2689 9.53780E-05-2.78341E-05-2.89546E-05 6.29955E-07-2.93916E-19 1.38789E-19
 -1      2690 9.49250E-05-2.82121E-05-2.85857E-05 1.30995E-06-3.56771E-19 2.54185E-19
 -1      2691 9.49576E-05-2.82918E-05-2.85691E-05 1.44559E-06-3.65254E-19 2.20078E-19
 -1      2692 9.53230E-05-2.81695E-05-2.87860E-05 1.16774E-06-3.22147E-19 1.36493E-19
 -1      2693 9.49403E-05-2.83300E-05-2.85448E-05 1.56491E-06-2.68439E-19 3.41436E-19
 -1      2694 9.50047E-05-2.83717E-05-2.85538E-05 1.65505E-06-2.34195E-19 2.94691E-19
 -1      2695 9.52853E-05-2.83418E-05-2.86947E-05 1.50602E-06-2.22863E-19 4.67457E-19
 -1      2696 9.49982E-05-2.83718E-05-2.85539E-05 1.74464E-06-1.62671E-19 3.79980E-19
 -1      2697 9.50870E-05-2.83851E-05-2.85823E-05 1.82311E-06-1.61571E-19 7.76078E-19
 -1      2698 9.52676E-05-2.83993E-05-2.86614E-05 1.73803E-06-1.44836E-19 7.20368E-19
 -1      2699 9.50888E-05-2.83555E-05-2.86013E-05 1.91309E-06-2.86861E-19 9.06005E-19
 -1      2700 9.51981E-05-2.83466E-05-2.86454E-05 2.00588E-06-1.08330E-19 8.49529E-19
 -1      2701 9.52667E-05-2.83710E-05-2.86724E-05 1.93556E-06 4.71857E-21 9.37529E-19
 -1      2702 9.52055E-05-2.82924E-05-2.86796E-05 2.12006E-06-1.84848E-19 9.49888E-19
 -1      2703 9.53346E-05-2.82656E-05-2.87375E-05 2.24792E-06-2.08254E-19 6.21153E-19
 -1      2704 9.52779E-05-2.82742E-05-2.87180E-05 2.15461E-06-1.58058E-19 7.51397E-19
 -1      2705 9.53447E-05-2.81894E-05-2.87845E-05 2.40574E-06-4.78587E-20 4.83497E-19
 -1      2706 9.54950E-05-2.81480E-05-2.88555E-05 2.58588E-06-1.13123E-20 3.76284E-19
 -1      2707 9.52962E-05-2.81194E-05-2.87916E-05 2.43989E-06-3.38776E-19 4.02361E-19
 -1      2708 9.55049E-05-2.80515E-05-2.89132E-05 2.80361E-06-2.96054E-19 2.63421E-19
 -1      2709 9.56798E-05-2.79990E-05-2.89972E-05 3.05051E-06-6.26727E-19 2.17968E-19
 -1      2710 9.53163E-05-2.79129E-05-2.88882E-05 2.82799E-06-2.66788E-19 2.58312E-19
 -1      2711 9.56866E-05-2.78838E-05-2.90640E-05 3.34190E-06-8.85123E-19 3.92983E-19
 -1      2712 9.58911E-05-2.78249E-05-2.91610E-05 3.66733E-06-8.05637E-19 4.34683E-19
 -1      2713 9.53328E-05-2.76596E-05-2.90032E-05 3.34928E-06-6.99366E-19 4.70912E-19
 -1      2714 9.58924E-05-2.76947E-05-2.92342E-05 4.04352E-06-8.04030E-19 1.69578E-19
 -1      2715 9.61333E-05-2.76379E-05-2.93435E-05 4.45549E-06-7.91541E-19 2.09602E-19
 -1      2716 9.53407E-05-2.73667E-05-2.91314E-05 4.02847E-06-1.02516E-18 2.64525E-19
 -1      2717 9.61289E-05-2.75013E-05-2.94193E-05 4.92424E-06-8.73632E-19 2.53366E-19
 -1      2718 9.64164E-05-2.74622E-05-2.95387E-05 5.42460E-06-8.95105E-19 2.89488E-19
 -1      2719 9.53377E-05-2.70493E-05-2.92653E-05 4.88397E-06-7.82013E-19 3.06944E-19
 -1      2720 9.64123E-05-2.73387E-05-2.96110E-05 5.98860E-06-4.52709E-19 1.62936E-19
 -1      2721 9.67636E-05-2.73467E-05-2.97358E-05 6.56866E-06-3.10309E-19 1.28679E-19
 -1      2722 9.53290E-05-2.67396E-05-2.93938E-05 5.92581E-06-7.86895E-19 9.78209E-19
 -1      2723 9.67800E-05-2.72750E-05-2.97954E-05 7.22261E-06-3.01620E-19 3.08789E-19
 -1      2724 9.72265E-05-2.73832E-05-2.99176E-05 7.85611E-06-4.28955E-20 5.10227E-20
 -1      2725 9.53391E-05-2.65024E-05-2.94999E-05 7.15204E-06-1.67770E-19 4.99339E-19
 -1      2726 9.73122E-05-2.74353E-05-2.99523E-05 8.58191E-06 3.43909E-19 1.10197E-19
 -1      2727 9.79129E-05-2.77346E-05-3.00605E-05 9.21436E-06 6.97322E-19-2.64106E-19
 -1      2728 9.54324E-05-2.64589E-05-2.95607E-05 8.54327E-06-8.31633E-20-6.46933E-20
 -1      2729 9.81691E-05-2.80332E-05-3.00566E-05 9.97257E-06 7.17891E-19-4.60237E-19
 -1      2730 9.90284E-05-2.86679E-05-3.01386E-05 1.05058E-05 8.22954E-19-9.34321E-19
 -1      2731 9.57506E-05-2.68210E-05-2.95482E-05 1.00536E-05 3.81937E-19-3.41379E-19
 -1      2732 9.96435E-05-2.94043E-05-3.00870E-05 1.12177E-05 1.19116E-18-1.08104E-18
 -1      2733 1.00930E-04-3.05763E-05-3.01375E-05 1.14877E-05 1.18666E-18-1.26218E-18
 -1      2734 9.65692E-05-2.79312E-05-2.94377E-05 1.15922E-05 7.29171E-19-1.01243E-18
 -1      2735 1.02217E-04-3.20064E-05-3.00485E-05 1.19949E-05 1.42089E-18-1.24316E-18
 -1      2736 1.04150E-04-3.39337E-05-3.00873E-05 1.17438E-05 1.42699E-18-9.32517E-19
 -1      2737 9.83723E-05-3.02881E-05-2.92276E-05 1.29763E-05 1.45781E-18-1.41683E-18
 -1      2738 1.06554E-04-3.63038E-05-3.00243E-05 1.17127E-05 1.06884E-18-1.73848E-18
 -1      2739 1.09300E-04-3.90356E-05-3.01284E-05 1.05625E-05 7.82308E-19-1.65379E-18
 -1      2740 1.01915E-04-3.44926E-05-2.89888E-05 1.38105E-05 8.57802E-19-1.05072E-18
 -1      2741 1.13245E-04-4.23171E-05-3.02618E-05 9.38523E-06 9.41437E-19-1.72436E-18
 -1      2742 1.16642E-04-4.53566E-05-3.06072E-05 6.90288E-06 5.76214E-19-1.38945E-18
 -1      2743 1.08107E-04-4.08839E-05-2.89609E-05 1.32436E-05 7.98203E-19-1.64577E-18
 -1      2744 1.22050E-04-4.86437E-05-3.13081E-05 3.61295E-06 7.62809E-19-1.18096E-18
 -1      2745 1.25151E-04-5.01564E-05-3.22146E-05-3.35263E-07 1.02965E-18-1.78221E-19
 -1      2746 1.17460E-04-4.86298E-05-2.97045E-05 9.70646E-06 1.22398E-18-1.77472E-18
 -1      2747 1.30385E-04-5.08509E-05-3.40888E-05-5.84446E-06 8.98887E-19 2.68099E-19
 -1      2748 1.31594E-04-4.81264E-05-3.58567E-05-9.99098E-06 3.92759E-19 8.05700E-19
 -1      2749 1.28441E-04-5.35191E-05-3.23612E-05 1.06147E-06 1.52371E-18-9.90129E-19
 -1      2750 1.35279E-04-4.48738E-05-3.91106E-05-1.37686E-05-8.18128E-19-3.99588E-19
 -1      2751 1.33058E-04-3.65270E-05-4.17553E-05-1.45950E-05-1.35695E-18-1.37918E-18
 -1      2752 1.32145E-04-2.62565E-05-4.61338E-05-1.49995E-05-2.55497E-18-1.51656E-18
 -1      2753 1.28709E-04-1.80827E-05-4.79560E-05-9.32854E-06-3.18230E-18-2.07168E-18
 -1      2754 1.26278E-04-1.49367E-05-4.83579E-05 2.60801E-06-2.50785E-18-3.36901E-18
 -1      2755 1.28217E-04-1.90441E-05-4.76465E-05 1.07656E-05-2.43977E-18-4.08490E-18
 -1      2756 1.30123E-04-2.69856E-05-4.47318E-05 1.37516E-05-1.98756E-18-4.25004E-18
 -1      2757 1.33372E-04-3.58138E-05-4.22857E-05 1.67391E-05-2.43924E-18-3.67003E-18
 -1      2758 1.29225E-04-5.01272E-05-3.40295E-05 5.88871E-06-8.77208E-19-3.47560E-18
 -1      2759 1.27095E-04-5.08569E-05-3.25914E-05 1.37186E-06-2.00337E-19-3.15991E-18
 -1      2760 1.21427E-04-4.85538E-05-3.13075E-05-3.29093E-06-3.76983E-19-2.77555E-18
 -1      2761 1.18062E-04-4.60818E-05-3.06903E-05-6.66728E-06-1.32903E-19-2.55373E-18
 -1      2762 1.23765E-04-5.21098E-05-3.08208E-05-5.89097E-06-9.66941E-20-3.50490E-18
 -1      2763 1.13189E-04-4.25724E-05-3.02974E-05-8.93648E-06 5.69186E-19-1.68878E-18
 -1      2764 1.10011E-04-3.95365E-05-3.00877E-05-1.07968E-05 5.59475E-19-7.90994E-19
 -1      2765 1.13056E-04-4.52406E-05-2.92146E-05-1.18621E-05 7.91470E-19-3.04355E-18
 -1      2766 1.06773E-04-3.66069E-05-3.00741E-05-1.13699E-05 2.22578E-20-1.26677E-18
 -1      2767 1.04386E-04-3.42073E-05-3.00137E-05-1.20788E-05 9.71488E-19-1.36890E-18
 -1      2768 1.05023E-04-3.78462E-05-2.89139E-05-1.38160E-05 5.15416E-20-2.02998E-18
 -1      2769 1.02528E-04-3.22678E-05-3.01015E-05-1.18211E-05 1.56969E-18-1.44125E-18
 -1      2770 1.00902E-04-3.06899E-05-3.00627E-05-1.18076E-05 2.10258E-19-1.35382E-18
 -1      2771 1.00100E-04-3.24094E-05-2.90832E-05-1.36159E-05 6.51292E-19-2.39930E-18
 -1      2772 9.99550E-05-2.95936E-05-3.01399E-05-1.11845E-05 3.33030E-19-1.15549E-18
 -1      2773 9.88772E-05-2.86791E-05-3.00765E-05-1.07737E-05 7.51794E-19-9.62959E-19
 -1      2774 9.74235E-05-2.90762E-05-2.93271E-05-1.24760E-05 5.87844E-19-2.24440E-18
 -1      2775 9.84487E-05-2.81570E-05-3.01091E-05-1.00257E-05 9.66669E-19-2.58172E-19
 -1      2776 9.77168E-05-2.76835E-05-3.00159E-05-9.42911E-06 1.79693E-18-8.83055E-19
 -1      2777 9.61241E-05-2.73236E-05-2.95000E-05-1.09898E-05 1.17461E-18-1.08738E-18
 -1      2778 9.75516E-05-2.75036E-05-3.00050E-05-8.67104E-06 1.56548E-18-7.06367E-19
 -1      2779 9.70269E-05-2.72919E-05-2.98924E-05-8.01855E-06-2.09848E-19-4.23468E-19
 -1      2780 9.55682E-05-2.65759E-05-2.95718E-05-9.43728E-06 1.09074E-18-2.42778E-18
 -1      2781 9.69790E-05-2.72930E-05-2.98508E-05-7.30623E-06-5.26136E-19-3.11769E-19
 -1      2782 9.65796E-05-2.72225E-05-2.97317E-05-6.67169E-06 2.78648E-19-1.15002E-18
 -1      2783 9.53705E-05-2.63993E-05-2.95586E-05-7.94768E-06-1.36191E-19-2.90378E-18
 -1      2784 9.65732E-05-2.73043E-05-2.96733E-05-6.03070E-06-8.91709E-20 4.71845E-19
 -1      2785 9.62545E-05-2.73005E-05-2.95585E-05-5.45092E-06 1.15339E-18 7.07093E-20
 -1      2786 9.53209E-05-2.65092E-05-2.94892E-05-6.58315E-06 7.62331E-19-1.17660E-18
 -1      2787 9.62538E-05-2.74048E-05-2.94949E-05-4.88925E-06 1.76634E-18-3.78537E-19
 -1      2788 9.59909E-05-2.74239E-05-2.93915E-05-4.37700E-06 1.14400E-18-8.26324E-20
 -1      2789 9.53146E-05-2.67329E-05-2.93908E-05-5.36987E-06 1.10011E-18-1.22030E-18
 -1      2790 9.59800E-05-2.75175E-05-2.93308E-05-3.89122E-06 1.02113E-18 1.78184E-19
 -1      2791 9.57592E-05-2.75353E-05-2.92428E-05-3.44335E-06 6.29679E-20-2.82579E-19
 -1      2792 9.53031E-05-2.69704E-05-2.92846E-05-4.31066E-06 9.94732E-19-1.27158E-18
 -1      2793 9.57313E-05-2.76029E-05-2.91899E-05-3.02533E-06-1.10355E-18 1.62691E-19
 -1      2794 9.55456E-05-2.76035E-05-2.91192E-05-2.63335E-06-1.30121E-18-2.69963E-19
 -1      2795 9.52669E-05-2.71701E-05-2.91853E-05-3.39079E-06 1.35222E-19-5.55194E-19
 -1      2796 9.45313E-05-2.80601E-05-2.84860E-05-1.08220E-06 3.84979E-19 9.59360E-20
 -1      2797 9.45268E-05-2.79402E-05-2.85261E-05-8.69878E-07 3.21595E-19 1.01301E-19
 -1      2798 9.55279E-05-2.76356E-05-2.90898E-05-2.38114E-06-8.11550E-19 5.71102E-20
 -1      2799 9.54162E-05-2.76329E-05-2.90492E-05-2.13488E-06-1.45562E-19 8.42869E-19
 -1      2800 9.52192E-05-2.72960E-05-2.91124E-05-2.70475E-06-5.04352E-19 2.81321E-19
 -1      2801 9.45783E-05-2.77988E-05-2.86196E-05-5.60444E-07 2.37177E-19 3.14340E-20
 -1      2802 9.46527E-05-2.76182E-05-2.87108E-05-1.90920E-07 3.70605E-19 5.62821E-20
 -1      2803 9.50331E-05-2.78334E-05-2.88087E-05-6.06815E-07 3.67940E-19-5.39090E-20
 -1      2804 9.46749E-05-2.83193E-05-2.84348E-05-1.56662E-06 2.27812E-19 8.97328E-21
 -1      2805 9.45752E-05-2.82648E-05-2.84159E-05-1.49425E-06 2.62847E-19-1.20640E-19
 -1      2806 9.48301E-05-2.83712E-05-2.84783E-05-1.69738E-06 3.59547E-19 2.40797E-20
 -1      2807 9.47016E-05-2.83355E-05-2.84420E-05-1.64121E-06 2.18361E-19-7.35328E-20
 -1      2808 9.50090E-05-2.83835E-05-2.85579E-05-1.67968E-06 2.26247E-19 1.43777E-19
 -1      2809 9.50272E-05-2.83921E-05-2.85531E-05-1.82863E-06 5.36343E-19-8.04022E-20
 -1      2810 9.48747E-05-2.83691E-05-2.85032E-05-1.76594E-06 4.24650E-19-1.56400E-19
 -1      2811 9.50842E-05-2.84026E-05-2.85810E-05-1.84106E-06 4.92866E-19 7.07481E-20
 -1      2812 9.52640E-05-2.83936E-05-2.86532E-05-1.99782E-06 5.23180E-19-3.78857E-19
 -1      2813 9.50878E-05-2.83776E-05-2.85917E-05-1.91229E-06 5.58057E-19-5.18008E-20
 -1      2814 9.51909E-05-2.83788E-05-2.86364E-05-2.00860E-06 4.26577E-19-1.83868E-19
 -1      2815 9.55444E-05-2.83872E-05-2.87753E-05-2.23136E-06-3.95172E-20-7.98658E-20
 -1      2816 9.53410E-05-2.83721E-05-2.87031E-05-2.11186E-06 3.56431E-19-2.27151E-19
 -1      2817 9.53284E-05-2.83270E-05-2.87173E-05-2.22083E-06 2.77339E-19 9.18271E-20
 -1      2818 9.58773E-05-2.83867E-05-2.89174E-05-2.54554E-06-4.63652E-19 2.16159E-20
 -1      2819 9.56407E-05-2.83649E-05-2.88347E-05-2.38597E-06-2.39131E-19-1.37072E-19
 -1      2820 9.55004E-05-2.82619E-05-2.88189E-05-2.50472E-06-1.12168E-19 3.98750E-19
 -1      2821 9.62764E-05-2.84101E-05-2.90779E-05-2.94558E-06 2.25292E-19 6.34525E-20
 -1      2822 9.59982E-05-2.83717E-05-2.89850E-05-2.74562E-06-2.58161E-19-1.14871E-19
 -1      2823 9.57155E-05-2.82011E-05-2.89373E-05-2.87643E-06-2.70207E-19-1.52751E-19
 -1      2824 9.67608E-05-2.84827E-05-2.92543E-05-3.42274E-06 3.97042E-19 6.21883E-19
 -1      2825 9.64310E-05-2.84140E-05-2.91519E-05-3.18970E-06 4.08479E-19 7.29911E-19
 -1      2826 9.59887E-05-2.81684E-05-2.90689E-05-3.34018E-06-5.39287E-20 3.04794E-19
 -1      2827 9.73560E-05-2.86400E-05-2.94426E-05-3.94939E-06 3.31691E-19 6.45041E-19
 -1      2828 9.69631E-05-2.85224E-05-2.93325E-05-3.70102E-06 4.43138E-19 4.93149E-19
 -1      2829 9.63431E-05-2.81976E-05-2.92089E-05-3.88523E-06 1.86500E-19 8.17899E-19
 -1      2830 9.80952E-05-2.89312E-05-2.96364E-05-4.47197E-06 2.90256E-19 1.01046E-18
 -1      2831 9.76266E-05-2.87400E-05-2.95219E-05-4.24026E-06 5.52816E-19 9.42380E-19
 -1      2832 9.68135E-05-2.83375E-05-2.93517E-05-4.48074E-06 2.93033E-19 5.27728E-19
 -1      2833 9.90213E-05-2.94207E-05-2.98269E-05-4.90222E-06-1.81252E-19 3.86727E-19
 -1      2834 9.84641E-05-2.91250E-05-2.97130E-05-4.73778E-06 1.00322E-19 6.94837E-19
 -1      2835 9.74503E-05-2.86560E-05-2.94901E-05-5.06854E-06 3.55365E-19 1.05304E-18
 -1      2836 1.00186E-04-3.01841E-05-3.00044E-05-5.10809E-06-1.85526E-21-3.17034E-19
 -1      2837 9.95295E-05-2.97507E-05-2.98972E-05-5.08383E-06-3.97857E-19 5.74011E-20
 -1      2838 9.83243E-05-2.92414E-05-2.96168E-05-5.55368E-06 1.79085E-19 6.64369E-19
 -1      2839 1.01641E-04-3.12918E-05-3.01616E-05-4.90797E-06 3.36940E-20 1.08124E-19
 -1      2840 1.00884E-04-3.06957E-05-3.00668E-05-5.11929E-06 1.71414E-19 7.10920E-20
 -1      2841 9.95275E-05-3.01961E-05-2.97276E-05-5.79359E-06 1.35401E-20 3.68741E-19
 -1      2842 1.03415E-04-3.27670E-05-3.03008E-05-4.07644E-06-2.03845E-19 3.71446E-19
 -1      2843 1.02579E-04-3.20166E-05-3.02202E-05-4.63238E-06-5.85809E-21 3.60606E-19
 -1      2844 1.01162E-04-3.16110E-05-2.98271E-05-5.58836E-06-1.13803E-19 7.67524E-19
 -1      2845 1.05458E-04-3.45074E-05-3.04430E-05-2.37958E-06-9.32912E-19 7.79655E-19
 -1      2846 1.04613E-04-3.36865E-05-3.03702E-05-3.37485E-06-3.75297E-19 6.78528E-19
 -1      2847 1.03305E-04-3.35043E-05-2.99383E-05-4.68075E-06-4.24547E-19 6.28874E-20
 -1      2848 1.07556E-04-3.61711E-05-3.06386E-05 3.33627E-07-9.04919E-19 2.04535E-19
 -1      2849 1.06853E-04-3.54946E-05-3.05540E-05-1.12282E-06-1.18957E-18 9.82337E-19
 -1      2850 1.05922E-04-3.57111E-05-3.01140E-05-2.78834E-06-1.08385E-18 3.57570E-19
 -1      2851 1.09237E-04-3.70804E-05-3.09663E-05 3.93893E-06-1.16532E-18-4.46248E-19
 -1      2852 1.08917E-04-3.69201E-05-3.08388E-05 2.17315E-06-7.75579E-19-2.09761E-19
 -1      2853 1.08731E-04-3.77218E-05-3.04449E-05 2.90092E-07-7.28946E-19 2.95776E-19
 -1      2854 1.09805E-04-3.63146E-05-3.15098E-05 7.76403E-06-1.16770E-18 1.44930E-19
 -1      2855 1.10133E-04-3.71078E-05-3.13076E-05 6.12231E-06-1.46007E-18-1.66973E-20
 -1      2856 1.11067E-04-3.85972E-05-3.10467E-05 4.41145E-06-1.34821E-18 4.60872E-19
 -1      2857 1.08641E-04-3.32007E-05-3.22948E-05 1.03624E-05 2.52942E-19 1.25873E-18
 -1      2858 1.09699E-04-3.51260E-05-3.20156E-05 9.58843E-06-3.06995E-19 1.02992E-18
 -1      2859 1.11916E-04-3.71156E-05-3.20110E-05 8.71776E-06-9.73838E-19 5.33374E-19
 -1      2860 1.05952E-04-2.83239E-05-3.31940E-05 9.87220E-06-5.08600E-19 2.47549E-18
 -1      2861 1.07383E-04-3.08318E-05-3.28970E-05 1.07095E-05-5.35302E-19 1.81389E-18
 -1      2862 1.10509E-04-3.27079E-05-3.32938E-05 1.12921E-05-6.36008E-19 1.69402E-18
 -1      2863 1.03135E-04-2.38711E-05-3.39290E-05 5.38915E-06 1.05167E-18 2.28612E-18
 -1      2864 1.04245E-04-2.57576E-05-3.37224E-05 7.95568E-06 2.83882E-19 2.40314E-18
 -1      2865 1.07400E-04-2.66216E-05-3.46072E-05 9.93522E-06-2.65492E-19 2.22523E-18
 -1      2866 1.02308E-04-2.28503E-05-3.41260E-05-1.61181E-06 2.04819E-18 1.61562E-18
 -1      2867 1.02415E-04-2.28599E-05-3.41279E-05 1.55741E-06 1.89735E-18 2.00994E-18
 -1      2868 1.04768E-04-2.22115E-05-3.53865E-05 3.82165E-06 1.65220E-18 1.66854E-18
 -1      2869 1.04336E-04-2.59053E-05-3.36998E-05-8.06018E-06 1.61931E-18 1.18548E-18
 -1      2870 1.03241E-04-2.39524E-05-3.39132E-05-5.58679E-06 2.23205E-18 1.40602E-18
 -1      2871 1.04599E-04-2.19870E-05-3.54018E-05-4.19781E-06 2.49882E-18 5.39084E-19
 -1      2872 1.07455E-04-3.09702E-05-3.28732E-05-1.06908E-05 4.89750E-19 9.74887E-19
 -1      2873 1.06011E-04-2.84534E-05-3.31714E-05-9.90376E-06 1.04730E-18 1.57805E-18
 -1      2874 1.07515E-04-2.68444E-05-3.45747E-05-9.98026E-06 1.38527E-18 2.61333E-19
 -1      2875 1.09722E-04-3.52140E-05-3.19891E-05-9.47052E-06-7.01104E-19 9.98133E-19
 -1      2876 1.08689E-04-3.33202E-05-3.22700E-05-1.02845E-05-1.80990E-19 8.17520E-19
 -1      2877 1.10574E-04-3.28900E-05-3.32587E-05-1.12227E-05 3.99416E-19 1.18088E-20
 -1      2878 1.10098E-04-3.71272E-05-3.12807E-05-5.96921E-06-7.77252E-19 2.13657E-18
 -1      2879 1.09796E-04-3.63635E-05-3.14831E-05-7.62590E-06-1.20368E-18 1.65987E-18
 -1      2880 1.11916E-04-3.72036E-05-3.19744E-05-8.57210E-06-1.26494E-18 2.97848E-19
 -1      2881 1.08844E-04-3.68933E-05-3.08179E-05-2.02330E-06 5.58082E-19 1.57833E-18
 -1      2882 1.09182E-04-3.70730E-05-3.09442E-05-3.78921E-06 3.09025E-19 2.48630E-18
 -1      2883 1.11006E-04-3.85998E-05-3.10150E-05-4.23919E-06-1.16773E-19 1.93161E-18
 -1      2884 1.06766E-04-3.54513E-05-3.05359E-05 1.25386E-06 7.53032E-19 2.00185E-18
 -1      2885 1.07481E-04-3.61355E-05-3.06209E-05-1.97982E-07 7.45032E-19 1.81555E-18
 -1      2886 1.08647E-04-3.76823E-05-3.04250E-05-1.37825E-07 4.54569E-19 2.29863E-18
 -1      2887 1.04520E-04-3.36360E-05-3.03523E-05 3.48526E-06 1.48441E-18 2.21041E-18
 -1      2888 1.05373E-04-3.44609E-05-3.04261E-05 2.49847E-06 1.56468E-18 2.63276E-18
 -1      2889 1.05837E-04-3.56592E-05-3.00991E-05 2.91670E-06 9.83012E-19 1.99767E-18
 -1      2890 1.02486E-04-3.19652E-05-3.02028E-05 4.71941E-06 2.47134E-19 1.49229E-18
 -1      2891 1.03327E-04-3.27169E-05-3.02839E-05 4.17372E-06 1.23811E-18 1.92048E-18
 -1      2892 1.03222E-04-3.34490E-05-2.99263E-05 4.78507E-06 1.63916E-18 1.78607E-18
 -1      2893 1.00797E-04-3.06460E-05-3.00510E-05 5.18363E-06-1.36360E-19 1.01134E-18
 -1      2894 1.01556E-04-3.12430E-05-3.01456E-05 4.98292E-06-4.56515E-19 1.55164E-18
 -1      2895 1.01090E-04-3.15578E-05-2.98184E-05 5.66654E-06 6.33262E-19 6.88459E-19
 -1      2896 9.94493E-05-2.96974E-05-2.98854E-05 5.12337E-06 1.02782E-18 5.73674E-19
 -1      2897 1.00105E-04-3.01343E-05-2.99909E-05 5.16082E-06 5.57093E-19 5.15890E-19
 -1      2898 9.94673E-05-3.01453E-05-2.97234E-05 5.84783E-06 2.65473E-19-3.00527E-19
 -1      2899 9.83907E-05-2.90594E-05-2.97090E-05 4.74301E-06 5.44951E-19 5.21445E-19
 -1      2900 9.89450E-05-2.93626E-05-2.98191E-05 4.92654E-06 8.25267E-19 5.14609E-19
 -1      2901 9.82729E-05-2.91836E-05-2.96196E-05 5.57967E-06 8.08895E-19 3.79377E-19
 -1      2902 9.75613E-05-2.86507E-05-2.95310E-05 4.19320E-06-5.31956E-19 1.54853E-18
 -1      2903 9.80241E-05-2.88548E-05-2.96388E-05 4.45412E-06 1.42293E-19 7.59844E-19
 -1      2904 9.74044E-05-2.85781E-05-2.95040E-05 5.05375E-06-7.75120E-21 1.15915E-18
 -1      2905 9.69076E-05-2.83948E-05-2.93617E-05 3.57404E-06-1.68219E-18 2.06595E-18
 -1      2906 9.72909E-05-2.85323E-05-2.94613E-05 3.86693E-06-9.97677E-19 1.56502E-18
 -1      2907 9.67697E-05-2.82231E-05-2.93823E-05 4.40413E-06-1.09216E-18 2.52810E-18
 -1      2908 9.63866E-05-2.82290E-05-2.92096E-05 2.94335E-06-7.51851E-19 2.29292E-18
 -1      2909 9.67017E-05-2.83260E-05-2.92969E-05 3.24235E-06-1.25480E-18 1.88157E-18
 -1      2910 9.62960E-05-2.80250E-05-2.92630E-05 3.71619E-06-1.15914E-18 1.49301E-18
 -1      2911 9.59694E-05-2.81093E-05-2.90799E-05 2.32830E-06-1.69679E-18 3.02972E-18
 -1      2912 9.62229E-05-2.81844E-05-2.91526E-05 2.61941E-06-9.68188E-19 2.52697E-18
 -1      2913 9.59265E-05-2.79097E-05-2.91535E-05 3.03732E-06-1.82622E-18 4.28235E-19
 -1      2914 9.56040E-05-2.79599E-05-2.89864E-05 1.83812E-06-1.21659E-18 2.95785E-18
 -1      2915 9.58070E-05-2.80218E-05-2.90442E-05 2.12790E-06-1.91546E-18 2.83484E-18
 -1      2916 9.55943E-05-2.77832E-05-2.90690E-05 2.48494E-06-2.53332E-18-3.82115E-19
 -1      2917 9.53151E-05-2.76266E-05-2.90161E-05 2.04776E-06-2.01533E-18-5.17426E-20
 -1      2918 1.15120E-04-5.71048E-05-2.52227E-05 2.94706E-05-2.02282E-18 2.80443E-18
 -1      2919 1.00635E-04-5.16799E-05-2.05267E-05 3.58726E-05-2.11695E-18 1.63596E-18
 -1      2920 9.33265E-05-2.54329E-05-2.91034E-05 3.63380E-07 1.31500E-18-8.67475E-19
 -1      2921 9.34002E-05-2.55082E-05-2.90979E-05 7.24514E-07 2.21867E-18-1.49495E-18
 -1      2922 1.34428E-04-3.58046E-05-4.27980E-05-1.00586E-05 8.92984E-19 1.15440E-18
 -1      2923 1.35422E-04-4.54953E-05-3.87324E-05-4.69148E-06 4.63009E-19 1.13365E-18
 -1      2924 9.38855E-05-2.60445E-05-2.90823E-05 1.70421E-06 3.45484E-18 4.13019E-19
 -1      2925 9.41003E-05-2.62713E-05-2.90673E-05 1.90376E-06 2.26391E-18 1.41846E-18
 -1      2926 9.33135E-05-2.54097E-05-2.91056E-05-4.48726E-07-7.48207E-19-7.69144E-19
 -1      2927 9.32932E-05-2.53887E-05-2.91060E-05-7.12417E-08-4.83392E-19-1.45437E-18
 -1      2928 9.30305E-05-2.52495E-05-2.90417E-05 1.80047E-07 5.43066E-19-2.48743E-18
 -1      2929 9.35271E-05-2.56550E-05-2.90956E-05 1.11142E-06 2.39170E-18-2.51765E-18
 -1      2930 9.36821E-05-2.58151E-05-2.90846E-05 1.41063E-06 3.58790E-18-2.21171E-18
 -1      2931 9.35943E-05-2.58263E-05-2.90391E-05 1.75138E-06 2.88846E-18-8.83902E-19
 -1      2932 9.32156E-05-2.54443E-05-2.90387E-05 1.04002E-06 2.85705E-18-2.07595E-18
 -1      2933 9.34964E-05-2.55926E-05-2.91026E-05-1.20731E-06-3.78731E-19 1.89675E-19
 -1      2934 9.33817E-05-2.54770E-05-2.91085E-05-8.69469E-07-4.52501E-19 2.86786E-19
 -1      2935 9.30709E-05-2.52727E-05-2.90487E-05-7.16809E-07 1.44529E-19-1.86917E-19
 -1      2936 9.38712E-05-2.59776E-05-2.90955E-05-1.83190E-06 9.90002E-19-1.37074E-18
 -1      2937 9.36666E-05-2.57718E-05-2.91060E-05-1.57141E-06 3.72800E-19 3.96262E-19
 -1      2938 9.33440E-05-2.55214E-05-2.90597E-05-1.54258E-06 1.79665E-19 3.21567E-19
 -1      2939 9.43954E-05-2.65292E-05-2.90844E-05-2.20906E-06 6.11560E-19 1.47614E-19
 -1      2940 9.41317E-05-2.62530E-05-2.90989E-05-2.08043E-06 1.62520E-18-1.01895E-18
 -1      2941 9.38316E-05-2.59799E-05-2.90743E-05-2.18859E-06 8.90887E-19-8.74962E-19
 -1      2942 3.72805E-05-1.64521E-05-8.42705E-06-1.80992E-05 1.33228E-18 2.11292E-18
 -1      2943 4.73421E-05-2.27565E-05-1.02762E-05-2.86366E-05 7.89858E-19 2.99426E-19
 -1      2944 8.47028E-05-4.47931E-05-1.71323E-05 4.04125E-05-2.48562E-18 1.88910E-18
 -1      2945 7.05325E-05-3.69032E-05-1.37981E-05 3.93394E-05-2.98484E-18 2.15443E-18
 -1      2946 9.47285E-05-2.73761E-05-2.88674E-05 3.16242E-07 4.49380E-19 6.43648E-20
 -1      2947 9.49001E-05-2.70880E-05-2.90347E-05 9.38288E-07 5.60920E-19 1.28931E-19
 -1      2948 9.51410E-05-2.73274E-05-2.90730E-05 2.78223E-07 4.62369E-19-7.33875E-21
 -1      2949 3.49062E-05-1.55346E-05-7.79955E-06 1.61152E-05-1.49316E-18-1.29829E-18
 -1      2950 2.98827E-05-1.23409E-05-6.98846E-06 9.23575E-07-1.62894E-18 3.65495E-19
 -1      2951 1.31228E-04-6.12422E-05-3.03704E-05 1.77351E-05-4.64809E-19-2.22441E-18
 -1      2952 1.15910E-04-5.79285E-05-2.45691E-05 2.73517E-05 3.72483E-19-2.21699E-18
 -1      2953 3.37467E-05-1.22286E-05-8.75989E-06 6.24679E-06 3.87676E-19 8.01928E-19
 -1      2954 3.31215E-05-1.28395E-05-8.07587E-06-7.87357E-06 4.91676E-19 1.79275E-18
 -1      2955 9.45702E-05-2.82223E-05-2.84322E-05-1.38501E-06 3.05457E-19-7.95343E-20
 -1      2956 9.45096E-05-2.81412E-05-2.84375E-05-1.26495E-06 4.45832E-19 9.77604E-20
 -1      2957 9.49760E-05-2.81339E-05-2.86535E-05-1.14648E-06 3.98405E-19 9.73918E-20
 -1      2958 9.49703E-05-2.83028E-05-2.85771E-05-1.47188E-06 3.22791E-19 2.26498E-19
 -1      2959 9.52367E-05-2.39704E-05-3.05218E-05-5.28466E-06-5.03544E-19-1.18998E-20
 -1      2960 9.51610E-05-2.49833E-05-3.00960E-05-3.77763E-06-5.22998E-19-3.56724E-20
 -1      2961 9.52098E-05-2.46621E-05-3.02347E-05-3.50037E-06-4.46094E-19-1.15692E-19
 -1      2962 6.33271E-05-3.10046E-05-1.32546E-05-3.37506E-05 5.02767E-19-1.23910E-18
 -1      2963 8.04260E-05-4.07249E-05-1.68687E-05-3.65738E-05 7.00708E-19-1.52180E-18
 -1      2964 9.12102E-05-1.60669E-05-3.22321E-05 4.90220E-06 4.76843E-19-4.20343E-19
 -1      2965 9.08713E-05-1.55660E-05-3.22955E-05 3.98123E-06 3.21353E-19-4.54526E-19
 -1      2966 9.18458E-05-1.71642E-05-3.19908E-05 3.18127E-06 2.25571E-19-4.28121E-19
 -1      2967 9.25086E-05-1.82319E-05-3.18129E-05 4.59500E-06 4.66936E-19-2.65344E-19
 -1      2968 1.32703E-04-6.01055E-05-3.08687E-05-1.25271E-05-5.42286E-19-3.15054E-18
 -1      2969 1.39019E-04-5.70703E-05-3.55598E-05-2.70839E-06-9.36177E-19-3.27156E-18
 -1      2970 9.49698E-05-2.66615E-05-2.92801E-05 1.74258E-06 6.47771E-19 1.15749E-19
 -1      2971 9.52318E-05-2.61684E-05-2.95615E-05 2.76272E-06 6.33607E-19 2.10299E-19
 -1      2972 9.52666E-05-2.49971E-05-3.01128E-05 3.79383E-06 7.70184E-19 5.61856E-20
 -1      2973 9.52551E-05-2.64653E-05-2.94884E-05 1.68003E-06 6.33322E-19 1.77530E-20
 -1      2974 1.34996E-04-5.38873E-05-3.48252E-05-7.33274E-06-5.04534E-19 6.86203E-19
 -1      2975 1.39896E-04-4.74171E-05-3.99908E-05-6.29233E-08 3.59407E-19 4.54645E-19
 -1      2976 9.08361E-05-1.55178E-05-3.23010E-05-3.91761E-06-2.23032E-19-4.62827E-19
 -1      2977 9.11675E-05-1.60059E-05-3.22394E-05-4.84079E-06-3.19530E-19-4.97319E-19
 -1      2978 1.26423E-04-1.82321E-05-4.69363E-05 1.10322E-05 1.83743E-18-9.58100E-19
 -1      2979 1.25204E-04-1.35426E-05-4.85305E-05 8.00482E-06 1.51111E-18-1.37601E-18
 -1      2980 1.18117E-04-5.73913E-05-2.57261E-05-2.68868E-05-2.73438E-18 3.96464E-19
 -1      2981 1.27645E-04-5.82357E-05-3.00489E-05-1.87677E-05-1.91477E-18 4.64915E-19
 -1      2982 8.52937E-05-4.46483E-05-1.68937E-05-3.92354E-05-1.86305E-18 3.57766E-19
 -1      2983 1.03469E-04-5.34093E-05-2.16396E-05-3.60620E-05-2.78462E-18-1.51248E-19
 -1      2984 3.31298E-05-1.31761E-05-7.93955E-06-1.11333E-05-1.54749E-18 4.49774E-19
 -1      2985 3.84652E-05-1.65737E-05-8.98226E-06-2.21618E-05-1.53302E-18-2.68721E-19
 -1      2986 9.94896E-05-5.23058E-05-2.03668E-05 3.58205E-05 8.15375E-19-2.96459E-18
 -1      2987 8.56149E-05-4.46475E-05-1.69261E-05 3.69536E-05 1.41539E-18-4.45651E-18
 -1      2988 9.51648E-05-2.73575E-05-2.90594E-05-2.20523E-06 3.65068E-20 7.72845E-19
 -1      2989 9.43300E-05-2.09581E-05-3.14691E-05-8.00869E-06-5.95537E-19-1.31828E-19
 -1      2990 9.47919E-05-2.27748E-05-3.08751E-05-6.30391E-06-5.79581E-19-7.69874E-20
 -1      2991 9.46134E-05-2.24129E-05-3.09410E-05-5.69747E-06-5.31725E-19-2.11492E-19
 -1      2992 9.35138E-05-1.95784E-05-3.16883E-05-7.82618E-06-5.71421E-19-3.91558E-19
 -1      2993 1.37998E-04-5.12913E-05-3.76755E-05-7.21537E-06-6.00599E-19-1.68454E-18
 -1      2994 1.38423E-04-4.37402E-05-4.09175E-05 1.27278E-05-2.78007E-18-4.74508E-18
 -1      2995 1.31259E-04-4.25402E-05-3.82568E-05 1.39926E-05-2.29662E-18-3.82843E-18
 -1      2996 1.31980E-04-4.79725E-05-3.61808E-05 1.13326E-05-1.78991E-18-3.76268E-18
 -1      2997 1.40447E-04-5.27214E-05-3.77689E-05 5.84033E-06-1.64658E-18-4.34147E-18
 -1      2998 9.15918E-05-1.66599E-05-3.21352E-05-5.56826E-06-3.98527E-19-5.37125E-19
 -1      2999 9.21033E-05-1.74359E-05-3.20320E-05-6.39037E-06-4.64914E-19-5.27303E-19
 -1      3000 9.24606E-05-1.81576E-05-3.18225E-05-4.55639E-06-2.81444E-19-4.04141E-19
 -1      3001 9.13244E-05-1.63468E-05-3.21208E-05 2.89458E-08 3.47339E-20-4.65489E-19
 -1      3002 9.02079E-05-1.45704E-05-3.24357E-05-3.80362E-07-1.04616E-20-5.14913E-19
 -1      3003 9.02643E-05-1.46515E-05-3.24252E-05-1.33447E-06-1.10514E-19-5.11836E-19
 -1      3004 1.31946E-04-5.62490E-05-3.24292E-05-9.66182E-06-1.56826E-18 5.75877E-19
 -1      3005 1.31894E-04-5.24008E-05-3.45341E-05-1.02476E-06-1.34230E-18 9.88646E-19
 -1      3006 1.26827E-04-5.60190E-05-3.02931E-05-1.23704E-05-2.36740E-18 3.22190E-19
 -1      3007 7.95857E-05-3.87148E-05-1.71037E-05-3.62109E-05-1.76733E-18 7.66565E-20
 -1      3008 9.43498E-05-2.14102E-05-3.12642E-05 7.20506E-06 7.68532E-19 6.30874E-20
 -1      3009 1.20638E-04-1.14784E-05-4.72144E-05 5.65730E-06 2.21541E-18-1.49237E-18
 -1      3010 1.33923E-04-5.07604E-05-3.57926E-05-1.05280E-06 1.15805E-19 1.26970E-18
 -1      3011 1.29074E-04-5.27473E-05-3.27718E-05 3.30731E-06-9.07015E-19 1.14058E-18
 -1      3012 1.29867E-04-4.50921E-05-3.65573E-05-7.23027E-06 2.61098E-19 6.08911E-19
 -1      3013 6.46014E-05-3.05438E-05-1.41193E-05 3.46818E-05-3.09781E-18 2.22156E-18
 -1      3014 1.35717E-04-5.45955E-05-3.49093E-05 2.47394E-06-1.16033E-18-4.26005E-18
 -1      3015 1.11779E-04-5.51068E-05-2.40678E-05 2.72380E-05 9.36289E-19-2.09242E-18
 -1      3016 1.32920E-04-5.25907E-05-3.45328E-05 4.40575E-06-8.77751E-19-4.62459E-18
 -1      3017 1.37435E-04-5.77820E-05-3.40476E-05 4.39495E-06-3.71358E-19-1.86601E-18
 -1      3018 1.32107E-04-5.78614E-05-3.17149E-05 7.18621E-06 5.36675E-19-1.53003E-18
 -1      3019 3.88285E-05-1.24357E-05-1.07409E-05-3.78474E-06-1.64618E-18 3.04826E-19
 -1      3020 1.21019E-04-5.65059E-05-2.74871E-05 2.06065E-05-1.61275E-18 2.32024E-18
 -1      3021 9.50442E-05-2.73148E-05-2.90237E-05 2.11668E-06-1.47078E-18-2.02352E-18
 -1      3022 9.51606E-05-2.73822E-05-2.90421E-05 2.35217E-06-2.53901E-18-1.46847E-18
 -1      3023 9.47914E-05-2.70362E-05-2.90448E-05 2.16204E-06-1.21689E-18-3.52864E-18
 -1      3024 9.58479E-05-4.76053E-05-2.02944E-05 3.48901E-05-2.37762E-18 1.84666E-18
 -1      3025 1.31221E-04-3.06636E-05-4.34270E-05-1.24794E-05 8.60585E-19 1.04291E-18
 -1      3026 1.28076E-04-3.54755E-05-3.99251E-05-1.17890E-05 8.44598E-19 1.14889E-18
 -1      3027 1.25583E-04-2.48647E-05-4.37211E-05-1.32185E-05 1.06885E-18 7.15266E-19
 -1      3028 6.17157E-05-2.62938E-05-1.46209E-05-2.87914E-05 1.49252E-18-1.02925E-18
 -1      3029 4.26724E-05-1.45033E-05-1.14758E-05-1.22263E-05 1.66540E-18 1.64060E-18
 -1      3030 9.48938E-05-2.70437E-05-2.90778E-05-2.22889E-06 7.81345E-19 1.44601E-18
 -1      3031 1.35487E-04-4.19886E-05-4.03344E-05 7.76142E-06 6.01764E-19 9.22419E-19
 -1      3032 9.29626E-05-4.58432E-05-1.97408E-05-3.37634E-05 6.91232E-19-1.60425E-18
 -1      3033 1.03606E-04-5.00341E-05-2.31452E-05-2.85366E-05 2.06147E-19-2.69899E-18
 -1      3034 8.67883E-05-3.92912E-05-2.00388E-05-3.12526E-05 1.13862E-18-2.27328E-18
 -1      3035 4.45429E-05-1.87381E-05-1.04082E-05 2.21735E-05-1.09447E-18-1.92467E-18
 -1      3036 4.54710E-05-1.50733E-05-1.25100E-05 1.53176E-05-1.07433E-18-1.26208E-18
 -1      3037 5.50406E-05-2.28852E-05-1.37321E-05 2.67475E-05-6.95891E-19-2.50595E-18
 -1      3038 4.69773E-05-1.68069E-05-1.25847E-05 2.00175E-05-8.96796E-19 6.73285E-19
 -1      3039 3.91498E-05-1.36591E-05-1.02087E-05 1.37359E-05-5.60683E-19 2.85450E-19
 -1      3040 4.22557E-05-1.22136E-05-1.24864E-05 5.80313E-06 6.27466E-20-2.97626E-19
 -1      3041 9.46161E-05-2.24480E-05-3.09216E-05 5.67356E-06 7.39166E-19-7.86049E-20
 -1      3042 1.25382E-04-5.86015E-05-2.85271E-05-1.70038E-05-3.20073E-19-3.59886E-18
 -1      3043 1.24994E-04-1.45153E-05-4.86410E-05-3.59990E-06-2.68329E-18-2.43526E-18
 -1      3044 9.49045E-05-2.70264E-05-2.90931E-05-2.61261E-06-1.25988E-19 9.56977E-19
 -1      3045 9.46094E-05-2.67422E-05-2.90879E-05-2.38478E-06 4.12926E-19 1.85862E-18
 -1      3046 9.43831E-05-2.64941E-05-2.90904E-05-2.60991E-06 3.22234E-19 2.54664E-19
 -1      3047 9.49370E-05-2.69775E-05-2.91194E-05-2.87876E-06-5.33097E-19 4.30124E-19
 -1      3048 1.25213E-04-1.30777E-05-4.84889E-05-6.75512E-06 2.40473E-18-1.96406E-20
 -1      3049 1.11595E-04-5.44504E-05-2.42319E-05-2.85385E-05-2.52961E-18-1.30476E-19
 -1      3050 1.27620E-04-2.32862E-05-4.52372E-05 1.22443E-05 1.50878E-18-5.16161E-19
 -1      3051 1.21312E-04-2.07939E-05-4.34324E-05 1.19429E-05 9.76841E-19-9.71070E-19
 -1      3052 1.27163E-04-2.79164E-05-4.28548E-05 1.30298E-05 1.31216E-18-1.81159E-19
 -1      3053 9.43163E-05-2.65115E-05-2.90664E-05 2.04220E-06 1.30801E-18 1.63119E-18
 -1      3054 9.45593E-05-2.67750E-05-2.90482E-05 2.12390E-06 2.01554E-19-9.80004E-19
 -1      3055 9.45929E-05-2.68097E-05-2.90454E-05 2.37963E-06-1.12400E-20-1.08329E-19
 -1      3056 9.40809E-05-2.63051E-05-2.90428E-05 2.19708E-06 2.62858E-18 2.02510E-18
 -1      3057 9.03891E-05-1.48448E-05-3.23965E-05-2.16748E-06-1.52330E-19-3.85517E-19
 -1      3058 9.05722E-05-1.51102E-05-3.23628E-05-3.11583E-06-2.40260E-19-4.21508E-19
 -1      3059 9.18160E-05-1.71221E-05-3.19963E-05-3.12472E-06-2.79916E-19-3.73639E-19
 -1      3060 9.14426E-05-1.65326E-05-3.20912E-05-1.57239E-06-1.77324E-19-4.39891E-19
 -1      3061 7.75449E-05-3.81412E-05-1.64207E-05 3.48783E-05 9.37771E-19-4.04940E-18
 -1      3062 5.13909E-05-2.02853E-05-1.27878E-05-2.51175E-05-1.54398E-18-6.20240E-19
 -1      3063 1.15371E-04-1.38131E-05-4.38186E-05 6.61490E-06 2.07745E-18-9.53336E-19
 -1      3064 1.16511E-04-1.12103E-05-4.56593E-05 8.07679E-07 2.62474E-18-1.13298E-18
 -1      3065 9.42905E-05-2.18318E-05-3.10774E-05 4.93986E-06 6.17530E-19-5.08596E-20
 -1      3066 9.38292E-05-2.08755E-05-3.12675E-05 4.58921E-06 5.49554E-19-1.20267E-19
 -1      3067 9.24537E-05-1.79526E-05-3.19507E-05-6.90466E-06-5.06769E-19-5.09087E-19
 -1      3068 9.30833E-05-1.89337E-05-3.18076E-05-7.41616E-06-5.14855E-19-4.84380E-19
 -1      3069 9.38326E-05-2.04873E-05-3.14131E-05-6.41197E-06-5.21687E-19-4.39292E-19
 -1      3070 9.32139E-05-1.93694E-05-3.16193E-05-5.64557E-06-4.42666E-19-4.48595E-19
 -1      3071 9.56894E-05-2.67953E-05-2.95118E-05-6.37678E-07-1.80313E-19 7.32861E-21
 -1      3072 9.56678E-05-2.72256E-05-2.93398E-05-8.32359E-08-3.15914E-19-7.77598E-20
 -1      3073 9.57052E-05-2.75871E-05-2.91829E-05 3.31650E-07-3.43917E-19 6.38164E-20
 -1      3074 9.56724E-05-2.78497E-05-2.90704E-05 6.88789E-07-3.34648E-19 1.60633E-20
 -1      3075 9.58919E-05-2.71902E-05-2.94466E-05-3.74075E-09-2.42872E-19-2.38405E-19
 -1      3076 9.56541E-05-2.80555E-05-2.89638E-05 9.59022E-07-2.08834E-19 1.21692E-19
 -1      3077 9.56272E-05-2.82048E-05-2.88961E-05 1.18543E-06-1.35423E-19 2.16040E-19
 -1      3078 9.59156E-05-2.78501E-05-2.91746E-05 7.16132E-07-2.19539E-19 2.12245E-19
 -1      3079 9.55795E-05-2.83034E-05-2.88286E-05 1.36109E-06-9.20904E-20 2.57650E-19
 -1      3080 9.55630E-05-2.83731E-05-2.87945E-05 1.50975E-06-8.79628E-20 5.44469E-19
 -1      3081 9.58552E-05-2.82148E-05-2.89921E-05 1.19081E-06-6.03458E-20 2.28066E-19
 -1      3082 9.54983E-05-2.83945E-05-2.87573E-05 1.63260E-06-1.48061E-19 4.96441E-19
 -1      3083 9.54916E-05-2.84053E-05-2.87487E-05 1.74468E-06-3.61083E-20 5.21402E-19
 -1      3084 9.57480E-05-2.83690E-05-2.88796E-05 1.51206E-06 5.24080E-20 5.22877E-19
 -1      3085 9.54148E-05-2.83683E-05-2.87348E-05 1.84843E-06-2.00881E-20 4.70750E-19
 -1      3086 9.54158E-05-2.83335E-05-2.87459E-05 1.95589E-06 1.48553E-20 4.85624E-19
 -1      3087 9.56111E-05-2.83668E-05-2.88211E-05 1.75614E-06 7.81831E-20 2.60945E-19
 -1      3088 9.53272E-05-2.82494E-05-2.87499E-05 2.06743E-06-2.02473E-19 6.07449E-19
 -1      3089 9.53331E-05-2.81771E-05-2.87766E-05 2.19543E-06-2.78463E-19 4.51558E-19
 -1      3090 9.54496E-05-2.82427E-05-2.88043E-05 1.98442E-06-1.42393E-19 2.58083E-19
 -1      3091 9.52299E-05-2.80525E-05-2.87941E-05 2.33630E-06-2.52828E-19 4.14583E-19
 -1      3092 9.52380E-05-2.79478E-05-2.88333E-05 2.50505E-06-1.64910E-19 3.94513E-19
 -1      3093 9.52612E-05-2.80178E-05-2.88190E-05 2.24583E-06-2.07897E-19 3.39930E-19
 -1      3094 9.51146E-05-2.77859E-05-2.88604E-05 2.69279E-06-4.11504E-19 3.45825E-19
 -1      3095 9.51220E-05-2.76523E-05-2.89095E-05 2.91879E-06-4.35676E-19 4.56132E-19
 -1      3096 9.50379E-05-2.77045E-05-2.88566E-05 2.57953E-06-2.02947E-19 3.30480E-19
 -1      3097 9.49712E-05-2.74549E-05-2.89423E-05 3.16786E-06-3.51087E-19 3.85508E-19
 -1      3098 9.49750E-05-2.72958E-05-2.89986E-05 3.46449E-06-5.40324E-19 5.05446E-19
 -1      3099 9.47673E-05-2.73098E-05-2.89086E-05 3.01721E-06-3.59049E-19-7.92103E-20
 -1      3100 9.47879E-05-2.70652E-05-2.90324E-05 3.78680E-06-8.81152E-19 7.43399E-19
 -1      3101 9.47858E-05-2.68861E-05-2.90924E-05 4.16436E-06-1.22464E-18 3.79069E-19
 -1      3102 9.44338E-05-2.68396E-05-2.89658E-05 3.58442E-06-7.35937E-19 7.04790E-19
 -1      3103 9.45537E-05-2.66278E-05-2.91211E-05 4.56973E-06-1.06520E-18 7.47857E-19
 -1      3104 9.45455E-05-2.64402E-05-2.91798E-05 5.03489E-06-6.66269E-19 9.23712E-19
 -1      3105 9.40197E-05-2.63034E-05-2.90164E-05 4.30164E-06-9.05424E-19 1.14813E-18
 -1      3106 9.42620E-05-2.61677E-05-2.91949E-05 5.53161E-06-7.40971E-19 1.11952E-18
 -1      3107 9.42541E-05-2.59943E-05-2.92448E-05 6.08641E-06-6.01978E-19 1.13595E-18
 -1      3108 9.35096E-05-2.57219E-05-2.90452E-05 5.18558E-06-6.07769E-19 1.05212E-18
 -1      3109 9.39206E-05-2.57365E-05-2.92349E-05 6.68228E-06-3.75192E-19 7.57703E-19
 -1      3110 9.39334E-05-2.56213E-05-2.92655E-05 7.32271E-06-1.05009E-19 6.43187E-19
 -1      3111 9.28972E-05-2.51388E-05-2.90309E-05 6.25145E-06-6.51111E-19 1.00126E-18
 -1      3112 9.35696E-05-2.54335E-05-2.92151E-05 8.02726E-06 1.89256E-19 7.98511E-19
 -1      3113 9.36524E-05-2.54561E-05-2.92124E-05 8.74148E-06 1.93805E-19 8.93699E-19
 -1      3114 9.21999E-05-2.46395E-05-2.89453E-05 7.51777E-06-1.11121E-20 1.44580E-18
 -1      3115 9.33136E-05-2.54373E-05-2.91028E-05 9.56972E-06-1.12987E-19 5.21614E-19
 -1      3116 9.35689E-05-2.57326E-05-2.90517E-05 1.03351E-05 1.01102E-19-6.41468E-20
 -1      3117 9.14848E-05-2.43785E-05-2.87523E-05 9.01556E-06 1.40863E-20 9.99803E-19
 -1      3118 9.33765E-05-2.60478E-05-2.88631E-05 1.13106E-05 3.60164E-19-1.75879E-20
 -1      3119 9.39960E-05-2.68307E-05-2.87529E-05 1.20854E-05 8.70977E-19-2.04381E-19
 -1      3120 9.09135E-05-2.46203E-05-2.84104E-05 1.08015E-05 1.28329E-20 4.25692E-19
 -1      3121 9.41876E-05-2.77359E-05-2.84729E-05 1.32322E-05 1.16299E-18-7.72234E-19
 -1      3122 9.54961E-05-2.93172E-05-2.83120E-05 1.39281E-05 1.14934E-18-8.98624E-19
 -1      3123 9.08184E-05-2.57948E-05-2.78824E-05 1.29662E-05 7.74822E-19 3.23744E-19
 -1      3124 9.64977E-05-3.11677E-05-2.79552E-05 1.52278E-05 8.13942E-19-1.23528E-18
 -1      3125 9.89706E-05-3.39338E-05-2.78049E-05 1.56440E-05 4.43068E-19-1.07974E-18
 -1      3126 9.18176E-05-2.85545E-05-2.71597E-05 1.55988E-05 9.01083E-19-1.05135E-18
 -1      3127 1.01509E-04-3.71040E-05-2.74707E-05 1.68112E-05 5.24082E-19-1.21389E-18
 -1      3128 1.05635E-04-4.12256E-05-2.75079E-05 1.65154E-05 9.70104E-19-9.91726E-19
 -1      3129 9.50058E-05-3.38424E-05-2.63277E-05 1.86239E-05 6.27562E-19-1.18850E-18
 -1      3130 1.10687E-04-4.59071E-05-2.74954E-05 1.66220E-05 1.34006E-18-1.00493E-18
 -1      3131 1.16439E-04-5.07401E-05-2.80805E-05 1.46253E-05 1.37942E-18-9.00542E-19
 -1      3132 1.02252E-04-4.25136E-05-2.58319E-05 2.11654E-05 1.17984E-18-7.78847E-19
 -1      3133 1.25804E-04-5.64343E-05-2.94553E-05 1.21749E-05 1.30030E-18-1.18023E-18
 -1      3134 1.15666E-04-5.39615E-05-2.65896E-05 2.11646E-05 9.70514E-19-1.24342E-18
 -1      3135 1.02920E-04-4.77422E-05-2.30893E-05 2.75436E-05 1.43858E-18-2.32700E-18
 -1      3136 5.09575E-05-1.66854E-05-1.43289E-05-1.93567E-05-1.47617E-18-6.46498E-19
 -1      3137 6.01677E-05-2.33662E-05-1.55539E-05-2.79274E-05-1.43932E-18-8.39198E-19
 -1      3138 4.23183E-05-1.18354E-05-1.26197E-05 3.45789E-06-1.59161E-18 5.86570E-20
 -1      3139 4.41989E-05-1.24700E-05-1.32770E-05-7.99711E-06-1.59793E-18 6.33581E-19
 -1      3140 9.49865E-05-2.34671E-05-3.06310E-05-4.09364E-06-3.83146E-19-3.19350E-19
 -1      3141 9.51778E-05-2.45585E-05-3.02821E-05-2.92621E-06-4.12633E-19-2.51978E-19
 -1      3142 1.10952E-04-4.64449E-05-2.76354E-05-1.60270E-05 3.14977E-19-3.21304E-18
 -1      3143 1.06073E-04-4.17944E-05-2.73627E-05-1.71066E-05 6.58524E-19-3.48423E-18
 -1      3144 1.02212E-04-3.76965E-05-2.75808E-05-1.63634E-05 5.18682E-19-3.51660E-18
 -1      3145 9.89270E-05-3.41777E-05-2.76618E-05-1.62552E-05 2.16784E-19-3.11223E-18
 -1      3146 9.84787E-05-3.82115E-05-2.59757E-05-2.01734E-05 2.62729E-19-3.92827E-18
 -1      3147 9.71489E-05-3.16336E-05-2.80237E-05-1.50121E-05-6.63548E-20-3.12289E-18
 -1      3148 9.52585E-05-2.94236E-05-2.81919E-05-1.44332E-05-1.63048E-19-3.89786E-18
 -1      3149 9.33314E-05-3.12430E-05-2.66975E-05-1.73461E-05 7.79535E-21-3.78034E-18
 -1      3150 9.46781E-05-2.80310E-05-2.85216E-05-1.31865E-05 1.02728E-18-3.34290E-18
 -1      3151 9.37182E-05-2.68373E-05-2.86649E-05-1.24397E-05 1.46690E-18-2.49539E-18
 -1      3152 9.12166E-05-2.71208E-05-2.75019E-05-1.44563E-05 6.00766E-19-2.96290E-18
 -1      3153 9.37350E-05-2.62229E-05-2.89073E-05-1.13671E-05 1.65801E-18-1.96496E-18
 -1      3154 9.33051E-05-2.56781E-05-2.89937E-05-1.05857E-05 1.73606E-18-1.67503E-18
 -1      3155 9.08010E-05-2.51408E-05-2.81471E-05-1.20294E-05 2.04826E-18-3.40639E-18
 -1      3156 9.35826E-05-2.55251E-05-2.91499E-05-9.67256E-06 1.20704E-18-1.19280E-18
 -1      3157 9.34194E-05-2.53584E-05-2.91823E-05-8.91710E-06 1.66095E-19-2.55163E-18
 -1      3158 9.11622E-05-2.44236E-05-2.85977E-05-1.00345E-05 1.75295E-18-1.62829E-18
 -1      3159 9.37774E-05-2.54518E-05-2.92699E-05-8.13416E-06-3.27860E-19-2.81155E-18
 -1      3160 9.37326E-05-2.54844E-05-2.92624E-05-7.43369E-06 4.81626E-19-2.46021E-18
 -1      3161 9.18231E-05-2.44153E-05-2.88805E-05-8.36620E-06 3.26341E-19-1.10587E-18
 -1      3162 9.40820E-05-2.56891E-05-2.93015E-05-6.75874E-06 9.65666E-19-2.11478E-18
 -1      3163 9.40791E-05-2.58107E-05-2.92698E-05-6.12774E-06 1.62884E-18-1.95175E-18
 -1      3164 9.25364E-05-2.47624E-05-2.90371E-05-6.94301E-06 1.26946E-18 1.79225E-20
 -1      3165 9.43810E-05-2.60462E-05-2.92783E-05-5.54594E-06 1.10602E-18-1.60475E-18
 -1      3166 9.43838E-05-2.61921E-05-2.92352E-05-4.98910E-06 9.86000E-19-1.40543E-18
 -1      3167 9.31852E-05-2.52489E-05-2.91078E-05-5.71636E-06 1.12646E-18-2.46638E-18
 -1      3168 9.46239E-05-2.64114E-05-2.92271E-05-4.48986E-06 1.84726E-18-1.56393E-19
 -1      3169 9.46218E-05-2.65459E-05-2.91826E-05-4.00352E-06 1.91016E-18 2.89880E-19
 -1      3170 9.37234E-05-2.57474E-05-2.91262E-05-4.65792E-06 2.20494E-18-8.14631E-19
 -1      3171 9.48256E-05-2.67376E-05-2.91743E-05-3.63476E-06 7.69735E-19 4.77718E-19
 -1      3172 9.48068E-05-2.68391E-05-2.91332E-05-3.20495E-06-3.12185E-19 6.20898E-19
 -1      3173 9.44930E-05-2.65710E-05-2.91112E-05-3.10831E-06-7.71851E-19 5.14281E-19
 -1      3174 9.41670E-05-2.62045E-05-2.91242E-05-3.80531E-06 1.24206E-18 5.13618E-19
 -1      3175 9.53915E-05-2.78455E-05-2.89512E-05-6.60369E-07 3.22278E-19 5.77639E-20
 -1      3176 9.54377E-05-2.76044E-05-2.90587E-05-2.92644E-07 2.84687E-19 9.07528E-20
 -1      3177 1.22687E-04-5.50507E-05-2.92264E-05 1.34294E-05-1.54683E-18 2.32790E-18
 -1      3178 1.14181E-04-5.34193E-05-2.56953E-05 2.30899E-05-1.83645E-18 2.64065E-18
 -1      3179 9.53054E-05-2.84050E-05-2.86679E-05-1.89273E-06 5.01648E-19 2.56332E-20
 -1      3180 9.52617E-05-2.84080E-05-2.86515E-05-1.80550E-06 3.73681E-19-3.33615E-20
 -1      3181 9.53016E-05-2.84197E-05-2.86610E-05-1.71164E-06 3.60969E-19 9.06130E-20
 -1      3182 9.52751E-05-2.83892E-05-2.86633E-05-1.61317E-06 2.72266E-19 2.34746E-19
 -1      3183 9.54883E-05-2.84186E-05-2.87471E-05-1.75493E-06 3.20585E-19-2.74355E-20
 -1      3184 9.53675E-05-2.82249E-05-2.87701E-05-2.33239E-06-3.98752E-20 5.58133E-19
 -1      3185 9.52920E-05-2.82661E-05-2.87278E-05-2.20429E-06 5.45526E-20 1.43529E-19
 -1      3186 9.54317E-05-2.80959E-05-2.88522E-05-2.65460E-06-1.07465E-19 5.59719E-19
 -1      3187 9.53370E-05-2.81426E-05-2.88008E-05-2.48636E-06 8.89834E-20 6.10945E-19
 -1      3188 9.52792E-05-2.80705E-05-2.88051E-05-2.46622E-06-5.20695E-20 3.65920E-19
 -1      3189 9.55284E-05-2.79684E-05-2.89477E-05-3.06970E-06-1.71323E-19 2.02534E-19
 -1      3190 9.54089E-05-2.80090E-05-2.88893E-05-2.85560E-06-1.32304E-20 6.05822E-19
 -1      3191 9.52262E-05-2.78764E-05-2.88655E-05-2.83097E-06-1.50562E-20 3.18947E-19
 -1      3192 9.56739E-05-2.78717E-05-2.90511E-05-3.58211E-06-3.51302E-20 3.07741E-19
 -1      3193 9.55202E-05-2.78902E-05-2.89880E-05-3.32288E-06-3.23641E-19 1.82364E-19
 -1      3194 9.51946E-05-2.76843E-05-2.89343E-05-3.29497E-06-2.28651E-19 7.26479E-20
 -1      3195 9.58953E-05-2.78479E-05-2.91560E-05-4.18190E-06 1.54550E-20 8.54552E-19
 -1      3196 9.56930E-05-2.78216E-05-2.90910E-05-3.88658E-06 2.81621E-20 6.40957E-19
 -1      3197 9.52037E-05-2.75312E-05-2.90043E-05-3.86373E-06-1.99798E-19 3.38112E-19
 -1      3198 9.62355E-05-2.79579E-05-2.92548E-05-4.84022E-06 4.45647E-19 6.79232E-19
 -1      3199 9.59633E-05-2.78545E-05-2.91914E-05-4.52891E-06 3.76262E-19 8.60004E-19
 -1      3200 9.52871E-05-2.74703E-05-2.90673E-05-4.52947E-06 1.75376E-19 8.94909E-19
 -1      3201 9.67606E-05-2.82867E-05-2.93395E-05-5.50259E-06 7.62336E-20 7.51061E-19
 -1      3202 9.63877E-05-2.80622E-05-2.92816E-05-5.21027E-06 2.62713E-19 7.28914E-19
 -1      3203 9.55004E-05-2.75783E-05-2.91146E-05-5.26714E-06 2.19213E-19 4.28575E-19
 -1      3204 9.75665E-05-2.89462E-05-2.94038E-05-6.07965E-06 2.11915E-19 8.04503E-19
 -1      3205 9.70506E-05-2.85446E-05-2.93545E-05-5.86086E-06 2.29027E-19 8.67761E-19
 -1      3206 9.59306E-05-2.79619E-05-2.91385E-05-6.02783E-06 9.00500E-20 9.20420E-19
 -1      3207 9.87822E-05-3.00680E-05-2.94471E-05-6.43489E-06-1.62156E-19 6.42091E-19
 -1      3208 9.80712E-05-2.94274E-05-2.94067E-05-6.36901E-06-1.23380E-19 6.34929E-19
 -1      3209 9.67064E-05-2.87602E-05-2.91351E-05-6.72825E-06 1.93279E-19 6.52005E-19
 -1      3210 1.00559E-04-3.17754E-05-2.94830E-05-6.36936E-06-2.62285E-19 8.33933E-19
 -1      3211 9.96024E-05-3.08469E-05-2.94444E-05-6.56495E-06-1.02867E-19 9.04553E-19
 -1      3212 9.80044E-05-3.01358E-05-2.91110E-05-7.23362E-06-2.91771E-19 7.14733E-19
 -1      3213 1.03030E-04-3.41095E-05-2.95514E-05-5.60749E-06-8.72970E-19 1.21357E-18
 -1      3214 1.01806E-04-3.29026E-05-2.94948E-05-6.20088E-06-4.31153E-19 1.14329E-18
 -1      3215 1.00039E-04-3.22379E-05-2.90942E-05-7.32968E-06-5.48396E-19 1.65528E-18
 -1      3216 1.06199E-04-3.68898E-05-2.97336E-05-3.81300E-06-1.07905E-18 1.03611E-18
 -1      3217 1.04776E-04-3.55493E-05-2.96199E-05-4.94405E-06-9.22210E-19 1.17128E-18
 -1      3218 1.03007E-04-3.51024E-05-2.91503E-05-6.68892E-06-7.48237E-19 2.17843E-18
 -1      3219 1.09771E-04-3.94959E-05-3.01646E-05-6.65137E-07-7.20862E-19 5.35661E-19
 -1      3220 1.08390E-04-3.84203E-05-2.99321E-05-2.41110E-06-8.33110E-19 5.25635E-19
 -1      3221 1.06956E-04-3.84771E-05-2.94021E-05-4.86021E-06-6.23324E-19 1.03970E-18
 -1      3222 1.12907E-04-4.06606E-05-3.10171E-05 3.81295E-06-1.45527E-18 6.15411E-19
 -1      3223 1.12032E-04-4.05415E-05-3.05977E-05 1.62733E-06-1.11676E-18 6.59799E-19
 -1      3224 1.11501E-04-4.14907E-05-3.00461E-05-1.34911E-06-1.12432E-18 6.85600E-19
 -1      3225 1.14312E-04-3.86897E-05-3.24369E-05 8.79381E-06-1.49320E-18 6.88851E-19
 -1      3226 1.14516E-04-4.03748E-05-3.17848E-05 6.75870E-06-1.63182E-18 4.89008E-19
 -1      3227 1.15516E-04-4.25085E-05-3.13171E-05 3.83399E-06-1.37151E-18 8.73693E-19
 -1      3228 1.12796E-04-3.25470E-05-3.43687E-05 1.18942E-05-1.31800E-18 1.46425E-18
 -1      3229 1.14234E-04-3.61644E-05-3.35628E-05 1.12219E-05-1.07217E-18 1.09507E-18
 -1      3230 1.17188E-04-3.92426E-05-3.33831E-05 9.65259E-06-1.62792E-18 7.08589E-19
 -1      3231 1.08891E-04-2.41663E-05-3.62809E-05 1.01653E-05 2.11361E-19 2.22652E-18
 -1      3232 1.10943E-04-2.83519E-05-3.56009E-05 1.17912E-05-8.36419E-19 1.81998E-18
 -1      3233 1.15068E-04-3.08863E-05-3.60764E-05 1.27586E-05-1.42848E-18 5.46707E-19
 -1      3234 1.07175E-04-1.71194E-05-3.87947E-05 1.60343E-06 2.78089E-18 1.74169E-18
 -1      3235 1.08135E-04-1.87983E-05-3.85075E-05 5.60478E-06 1.88544E-18 1.92733E-18
 -1      3236 1.10981E-04-2.84935E-05-3.55244E-05-1.18263E-05 9.85404E-19 6.49873E-19
 -1      3237 1.09025E-04-2.46725E-05-3.61445E-05-9.83087E-06 1.77043E-18 8.89199E-19
 -1      3238 1.14186E-04-3.62860E-05-3.34998E-05-1.11505E-05-1.49402E-19-1.81900E-19
 -1      3239 1.12790E-04-3.27163E-05-3.43068E-05-1.18010E-05 4.77091E-19-2.02907E-20
 -1      3240 1.14986E-04-3.11442E-05-3.59899E-05-1.27060E-05 1.09979E-18 3.10067E-19
 -1      3241 1.14423E-04-4.03902E-05-3.17403E-05-6.57855E-06-1.25595E-18-2.03743E-19
 -1      3242 1.14331E-04-3.87806E-05-3.23883E-05-8.60797E-06-7.62782E-19-1.44446E-19
 -1      3243 1.17162E-04-3.96028E-05-3.32272E-05-9.48597E-06-4.74193E-19-2.71448E-19
 -1      3244 1.11905E-04-4.04709E-05-3.05735E-05-1.47627E-06-2.57440E-19 3.96742E-19
 -1      3245 1.12840E-04-4.06353E-05-3.09838E-05-3.65376E-06-1.39824E-18-1.64437E-19
 -1      3246 1.15353E-04-4.23427E-05-3.13064E-05-3.98740E-06-1.00327E-18-1.32930E-18
 -1      3247 1.08298E-04-3.83483E-05-2.99241E-05 2.50922E-06 3.20018E-19 1.10907E-18
 -1      3248 1.09670E-04-3.94224E-05-3.01527E-05 7.74817E-07 5.50896E-19 8.17702E-19
 -1      3249 1.11348E-04-4.13995E-05-3.00395E-05 1.39166E-06-2.72620E-19-9.43525E-19
 -1      3250 1.04702E-04-3.54831E-05-2.96168E-05 5.03532E-06 1.29846E-18 7.84464E-19
 -1      3251 1.06122E-04-3.68278E-05-2.97288E-05 3.91569E-06 5.29355E-19 1.02017E-18
 -1      3252 1.06894E-04-3.84070E-05-2.94072E-05 4.90430E-06 9.77172E-19-8.65017E-19
 -1      3253 1.01747E-04-3.28401E-05-2.94965E-05 6.26789E-06 1.86686E-18 2.96462E-19
 -1      3254 1.02966E-04-3.40467E-05-2.95513E-05 5.68935E-06 2.04470E-18 1.24436E-18
 -1      3255 1.02961E-04-3.50323E-05-2.91607E-05 6.74056E-06 1.53692E-18-1.06675E-18
 -1      3256 9.95701E-05-3.08008E-05-2.94506E-05 6.61102E-06 2.28148E-19 2.78793E-19
 -1      3257 1.00520E-04-3.17253E-05-2.94873E-05 6.42645E-06 1.27390E-18 8.46369E-19
 -1      3258 1.00024E-04-3.21805E-05-2.91110E-05 7.36027E-06 1.34393E-18 6.81897E-19
 -1      3259 9.80556E-05-2.93846E-05-2.94183E-05 6.39830E-06 5.80413E-19-1.09828E-19
 -1      3260 9.87606E-05-3.00269E-05-2.94559E-05 6.47636E-06 1.32949E-21-7.67548E-20
 -1      3261 9.80210E-05-3.00999E-05-2.91328E-05 7.25458E-06 5.97070E-19 7.23013E-19
 -1      3262 9.70427E-05-2.84893E-05-2.93745E-05 5.86449E-06 2.96747E-19 1.31860E-18
 -1      3263 9.75550E-05-2.88997E-05-2.94193E-05 6.10025E-06 6.43560E-19 3.89012E-19
 -1      3264 9.67358E-05-2.87233E-05-2.91633E-05 6.73770E-06 3.09925E-19 6.01576E-19
 -1      3265 9.63803E-05-2.79766E-05-2.93145E-05 5.17200E-06-8.36831E-19 2.27986E-18
 -1      3266 9.67516E-05-2.82185E-05-2.93655E-05 5.48983E-06-1.20836E-19 1.84256E-18
 -1      3267 9.59610E-05-2.79031E-05-2.91766E-05 6.01207E-06-3.03339E-19 1.23572E-18
 -1      3268 9.59486E-05-2.77174E-05-2.92430E-05 4.42491E-06-7.67754E-19 2.54788E-18
 -1      3269 9.62212E-05-2.78483E-05-2.92963E-05 4.77456E-06-6.61000E-19 2.19902E-18
 -1      3270 9.55209E-05-2.74749E-05-2.91676E-05 5.20691E-06-8.17582E-19 2.65283E-18
 -1      3271 9.56587E-05-2.76038E-05-2.91682E-05 3.68509E-06-7.71704E-19 1.72373E-18
 -1      3272 9.58654E-05-2.76721E-05-2.92196E-05 4.03699E-06-5.88185E-19 2.36099E-18
 -1      3273 9.52847E-05-2.72950E-05-2.91411E-05 4.39935E-06-1.34049E-19 1.71953E-18
 -1      3274 9.54574E-05-2.75606E-05-2.90979E-05 2.98428E-06-1.65812E-18 2.75103E-19
 -1      3275 9.56159E-05-2.76010E-05-2.91436E-05 3.31813E-06-1.33012E-18 7.26201E-19
 -1      3276 9.51584E-05-2.72482E-05-2.91057E-05 3.63083E-06-5.59726E-19 2.02344E-18
 -1      3277 9.52232E-05-2.74303E-05-2.90512E-05 2.54920E-06-1.65358E-18-5.68715E-19
 -1      3278 9.53771E-05-2.75094E-05-2.90809E-05 2.77956E-06-1.24143E-18-4.76427E-20
 -1      3279 9.50265E-05-2.72000E-05-2.90712E-05 3.04347E-06-8.58663E-19 9.34222E-19
 -1      3280 9.48893E-05-2.71176E-05-2.90515E-05 2.61453E-06-1.29957E-18-1.67132E-18
 -1      3281 9.54255E-05-2.72700E-05-2.92158E-05 1.56200E-07 4.20266E-19 1.03685E-19
 -1      3282 9.54839E-05-2.68765E-05-2.93875E-05 7.43101E-07 5.77537E-19 1.51051E-19
 -1      3283 9.56948E-05-2.72261E-05-2.93490E-05 8.13015E-08 4.10565E-19 6.22906E-20
 -1      3284 9.27208E-05-2.50788E-05-2.89912E-05-9.95784E-07 8.58296E-19 1.79584E-18
 -1      3285 9.26320E-05-2.50109E-05-2.89852E-05-5.42554E-07 6.54388E-19-1.98224E-19
 -1      3286 7.45182E-05-3.41269E-05-1.72937E-05 3.46382E-05-2.59515E-18 2.44782E-18
 -1      3287 5.99048E-05-2.45158E-05-1.47157E-05 2.95460E-05-2.34310E-18 1.86368E-18
 -1      3288 9.26151E-05-2.50115E-05-2.89780E-05 1.95185E-09 2.85536E-20-4.01054E-18
 -1      3289 9.26625E-05-2.50557E-05-2.89757E-05 4.68458E-07 1.55007E-18-3.54707E-18
 -1      3290 9.22608E-05-2.47662E-05-2.89182E-05-2.65804E-07 1.33471E-18-1.22998E-18
 -1      3291 1.02499E-04-4.96820E-05-2.28407E-05 3.07845E-05-2.44803E-18 2.83902E-18
 -1      3292 9.01339E-05-4.25599E-05-1.98785E-05 3.37665E-05-2.86699E-18 1.68480E-18
 -1      3293 9.31123E-05-2.53985E-05-2.90184E-05-1.89980E-06 1.24114E-18 6.79897E-19
 -1      3294 9.28860E-05-2.52177E-05-2.90085E-05-1.50434E-06 3.74019E-19 1.31137E-18
 -1      3295 9.24645E-05-2.49046E-05-2.89460E-05-1.36021E-06 1.13906E-18 5.77563E-19
 -1      3296 9.37553E-05-2.59523E-05-2.90578E-05-2.56741E-06 5.72816E-19-2.01123E-18
 -1      3297 9.34219E-05-2.56721E-05-2.90446E-05-2.30144E-06 7.32955E-19-9.40157E-19
 -1      3298 9.29915E-05-2.53185E-05-2.89964E-05-2.31204E-06 9.07874E-19-7.95200E-19
 -1      3299 9.53269E-05-2.83340E-05-2.87067E-05-2.08722E-06 1.86082E-19 3.34189E-19
 -1      3300 9.52676E-05-2.83605E-05-2.86758E-05-1.98798E-06 3.62191E-19 2.36057E-19
 -1      3301 9.54140E-05-2.83635E-05-2.87382E-05-1.95961E-06 2.76525E-19 2.80780E-19
 -1      3302 9.53435E-05-2.82402E-05-2.87603E-05-2.18448E-06 1.61931E-19 8.43749E-19
 -1      3303 9.23991E-05-1.82831E-05-3.17793E-05 1.79566E-06 7.46704E-20-3.34330E-19
 -1      3304 9.22796E-05-1.80788E-05-3.18123E-05 1.04761E-06-1.99761E-20-4.67609E-19
 -1      3305 1.32834E-04-5.66813E-05-3.24828E-05-3.03478E-06-8.23342E-20-3.53716E-18
 -1      3306 1.17454E-04-1.16329E-05-4.58256E-05-5.10052E-06 3.17849E-18-8.00102E-19
 -1      3307 1.21255E-04-1.75286E-05-4.48718E-05-1.11060E-05 2.75222E-18 1.29278E-19
 -1      3308 1.13169E-04-1.42708E-05-4.26151E-05-3.48140E-06 3.17336E-18 5.52385E-19
 -1      3309 1.24406E-04-5.49129E-05-2.98827E-05-9.78658E-06 3.06732E-19-3.85920E-18
 -1      3310 1.18795E-04-5.13158E-05-2.86121E-05-1.33038E-05 2.00115E-19-3.69280E-18
 -1      3311 1.09840E-04-4.83799E-05-2.64644E-05-1.98422E-05 2.75233E-19-3.61011E-18
 -1      3312 1.26397E-04-5.69646E-05-2.99494E-05-1.15353E-05-2.22346E-21-3.44357E-18
 -1      3313 9.52123E-05-2.42511E-05-3.04141E-05 4.24301E-06 7.03838E-19-1.82435E-20
 -1      3314 9.46477E-05-2.27026E-05-3.08215E-05 4.74679E-06 7.22728E-19-2.62655E-20
 -1      3315 9.49420E-05-2.35563E-05-3.05883E-05 3.64178E-06 6.02871E-19 9.70854E-20
 -1      3316 9.52454E-05-2.51699E-05-3.00448E-05 2.96114E-06 7.02968E-19 6.87470E-21
 -1      3317 4.54930E-05-1.28569E-05-1.36776E-05-7.50246E-06 1.14822E-18 4.81538E-19
 -1      3318 4.95928E-05-1.62310E-05-1.40031E-05-1.75756E-05 1.96186E-18 8.65774E-19
 -1      3319 9.55119E-05-2.55146E-05-2.99826E-05-2.07737E-06-3.45388E-19-1.43755E-19
 -1      3320 9.55482E-05-2.62021E-05-2.97322E-05-1.25116E-06-2.03739E-19-1.14961E-19
 -1      3321 9.57129E-05-2.61085E-05-2.98317E-05-1.07042E-06-1.95729E-19-2.46987E-19
 -1      3322 8.66948E-05-4.09716E-05-1.97355E-05 3.26870E-05 1.30830E-18-3.68952E-18
 -1      3323 7.06401E-05-3.11334E-05-1.62619E-05 3.17563E-05 9.22207E-20-3.79090E-18
 -1      3324 7.40024E-05-3.28446E-05-1.72073E-05-3.33978E-05-1.41534E-18-2.10911E-19
 -1      3325 9.02564E-05-4.35299E-05-2.00905E-05-3.46170E-05-1.60444E-18 3.27484E-19
 -1      3326 1.31533E-04-4.46149E-05-3.72701E-05 7.40817E-06-9.75888E-19 1.52614E-18
 -1      3327 1.29687E-04-3.68101E-05-4.03515E-05 1.13533E-05 6.35328E-19 1.39205E-18
 -1      3328 5.88818E-05-2.15691E-05-1.55572E-05-2.40978E-05 1.82888E-18 1.79677E-19
 -1      3329 7.20718E-05-2.96594E-05-1.81261E-05-2.89655E-05 1.19890E-18-1.17981E-18
 -1      3330 6.09914E-05-1.96172E-05-1.73604E-05-1.93006E-05 1.78324E-18 1.02703E-19
 -1      3331 1.16270E-04-5.49548E-05-2.58794E-05-2.25080E-05-5.07161E-20-3.24035E-18
 -1      3332 1.05350E-04-5.03956E-05-2.31404E-05-2.92472E-05-2.23736E-18 3.22733E-20
 -1      3333 1.16575E-04-5.49690E-05-2.65842E-05-2.22312E-05-2.54414E-18-5.92797E-19
 -1      3334 9.22193E-05-1.79770E-05-3.18313E-05 4.05733E-07 1.69829E-20-4.54678E-19
 -1      3335 9.22158E-05-1.79721E-05-3.18318E-05-3.56187E-07-5.64321E-20-4.10896E-19
 -1      3336 9.31633E-05-1.95428E-05-3.15337E-05 6.20066E-07-5.48442E-20-4.36834E-19
 -1      3337 1.22227E-04-5.52161E-05-2.85464E-05-1.50612E-05-2.43001E-18 2.45335E-19
 -1      3338 1.24174E-04-5.36600E-05-3.05659E-05-7.60309E-06-2.03252E-18 1.39235E-18
 -1      3339 1.15751E-04-5.20493E-05-2.72670E-05-1.73169E-05-2.28618E-18 4.04961E-19
 -1      3340 9.43546E-05-2.19340E-05-3.10165E-05 3.58618E-06 4.38759E-19-7.25942E-20
 -1      3341 9.34527E-05-2.01717E-05-3.14307E-05 4.21419E-06 4.60569E-19-1.97838E-19
 -1      3342 9.30979E-05-1.95074E-05-3.15477E-05 3.62358E-06 3.62586E-19-2.68553E-19
 -1      3343 1.28810E-04-4.16896E-05-3.75689E-05-9.99517E-06 6.54968E-19 1.26380E-18
 -1      3344 1.27268E-04-4.56402E-05-3.50382E-05-6.65236E-06 3.13667E-21 1.38323E-18
 -1      3345 1.25142E-04-3.61868E-05-3.83553E-05-1.22916E-05 8.40310E-19 5.64177E-19
 -1      3346 9.53158E-05-2.83553E-05-2.86959E-05-1.49370E-06 1.75402E-19 2.93973E-19
 -1      3347 9.53100E-05-2.82781E-05-2.87232E-05-1.35260E-06 3.58420E-19 2.72752E-19
 -1      3348 9.55639E-05-2.83790E-05-2.87972E-05-1.52159E-06 2.04452E-19 3.43355E-19
 -1      3349 5.07872E-05-1.44242E-05-1.51783E-05-1.33540E-05-1.23433E-18-9.17972E-20
 -1      3350 5.82722E-05-1.70975E-05-1.74972E-05-1.65305E-05-1.25458E-18-4.53692E-19
 -1      3351 5.22387E-05-1.31762E-05-1.65841E-05-6.64789E-06-9.49021E-19 5.95358E-19
 -1      3352 6.84072E-05-2.42917E-05-1.87257E-05-2.46257E-05-1.27185E-18-9.28533E-19
 -1      3353 7.03838E-05-2.83588E-05-1.76844E-05-2.94488E-05-1.44271E-18-6.48113E-19
 -1      3354 8.01400E-05-3.31030E-05-2.02305E-05-2.90383E-05-1.43221E-18 1.68639E-19
 -1      3355 9.52492E-05-2.44165E-05-3.03560E-05-2.56905E-06-3.07928E-19-3.91969E-19
 -1      3356 9.30697E-05-1.94609E-05-3.15563E-05-3.58105E-06-2.66465E-19-3.02833E-19
 -1      3357 9.34350E-05-2.01248E-05-3.14414E-05-4.19657E-06-3.66232E-19-3.99372E-19
 -1      3358 8.38394E-05-3.68665E-05-1.98826E-05 3.10708E-05-2.74645E-18 1.99320E-18
 -1      3359 1.25698E-04-5.37982E-05-3.07256E-05 7.24289E-06-8.63848E-19 1.40586E-18
 -1      3360 1.19486E-04-5.18801E-05-2.89259E-05 1.09077E-05-1.01993E-18 2.52221E-18
 -1      3361 1.24748E-04-5.01056E-05-3.21059E-05 3.75482E-07-2.01971E-19 1.85103E-18
 -1      3362 9.42720E-05-2.18200E-05-3.10694E-05-5.41172E-06-4.36548E-19-3.80535E-19
 -1      3363 1.08195E-04-4.95157E-05-2.50147E-05 2.36546E-05-2.13783E-18 2.56886E-18
 -1      3364 1.12042E-04-1.93531E-05-3.98985E-05 8.67174E-06 9.42854E-19 1.66111E-18
 -1      3365 1.08337E-04-1.78664E-05-3.89247E-05-4.39173E-06 3.04654E-18 1.57301E-18
 -1      3366 1.09776E-04-2.05015E-05-3.84682E-05-8.42590E-06 2.68216E-18 1.22571E-18
 -1      3367 9.32021E-05-2.55742E-05-2.89915E-05 1.81131E-06 2.41907E-18-1.20849E-18
 -1      3368 9.34712E-05-2.58061E-05-2.89960E-05 2.12318E-06 1.91795E-18 1.24980E-18
 -1      3369 6.57079E-05-2.34566E-05-1.78640E-05 2.45107E-05-9.58365E-19 1.03126E-18
 -1      3370 5.59155E-05-1.98970E-05-1.50192E-05 2.41906E-05-1.26581E-18 1.05869E-18
 -1      3371 5.38331E-05-1.61269E-05-1.59635E-05 1.66900E-05 6.69818E-20-9.31207E-20
 -1      3372 9.25539E-05-1.85515E-05-3.17263E-05-2.35128E-06-2.45781E-19-4.32847E-19
 -1      3373 9.27823E-05-1.89553E-05-3.16582E-05-3.05903E-06-2.45788E-19-4.06352E-19
 -1      3374 9.37568E-05-2.06929E-05-3.12982E-05-2.76600E-06-3.11004E-19-3.68294E-19
 -1      3375 9.27867E-05-2.51873E-05-2.89785E-05 9.78414E-07 2.08799E-18-2.66998E-18
 -1      3376 9.29582E-05-2.53348E-05-2.89798E-05 1.39194E-06 3.13634E-18-2.86316E-18
 -1      3377 9.27986E-05-2.52784E-05-2.89324E-05 1.78704E-06 2.08435E-18-2.06157E-18
 -1      3378 9.23850E-05-2.49025E-05-2.89142E-05 8.27219E-07 1.74501E-18-4.36021E-18
 -1      3379 1.20316E-04-2.34850E-05-4.17612E-05-1.20656E-05 2.03171E-18-3.72112E-19
 -1      3380 1.29146E-04-4.74730E-05-3.50563E-05 4.21681E-06-1.67304E-18 1.64515E-18
 -1      3381 8.16321E-05-3.39606E-05-2.00103E-05-2.89340E-05 5.18040E-19-1.82461E-18
 -1      3382 9.06219E-05-3.87121E-05-2.23332E-05-2.70275E-05 6.20187E-19-1.89897E-18
 -1      3383 7.81923E-05-2.95476E-05-2.06363E-05-2.56402E-05 4.89214E-19-8.95843E-19
 -1      3384 6.64561E-05-2.60330E-05-1.68988E-05 2.65075E-05-4.95832E-19-2.57149E-18
 -1      3385 9.51332E-05-4.16006E-05-2.26817E-05 2.68604E-05 1.26134E-18-2.46142E-18
 -1      3386 1.07957E-04-4.94978E-05-2.49430E-05-2.37361E-05 5.31884E-19-3.29172E-18
 -1      3387 9.53667E-05-2.80367E-05-2.88475E-05-9.46419E-07 3.04800E-19 1.28071E-19
 -1      3388 9.56901E-05-2.78526E-05-2.90783E-05-6.95394E-07 2.03986E-19 7.15132E-20
 -1      3389 9.53476E-05-2.81802E-05-2.87864E-05-1.17238E-06 2.99090E-19 2.32218E-19
 -1      3390 9.37585E-05-2.60785E-05-2.90129E-05 2.35340E-06 2.03588E-18 2.14538E-18
 -1      3391 9.40337E-05-2.63172E-05-2.90185E-05 2.49953E-06 1.90042E-18 2.25007E-18
 -1      3392 9.34032E-05-2.58007E-05-2.89679E-05 2.45705E-06 1.24408E-18 1.10171E-18
 -1      3393 9.25739E-05-1.85828E-05-3.17216E-05 2.39991E-06 1.47530E-19-3.74803E-19
 -1      3394 9.33780E-05-1.99381E-05-3.14552E-05 1.77777E-06 6.66791E-20-2.14340E-19
 -1      3395 9.28110E-05-1.90014E-05-3.16518E-05 3.09794E-06 2.74973E-19-3.64695E-19
 -1      3396 9.53921E-05-2.64501E-05-2.95559E-05 1.29454E-06 4.43511E-19 1.61940E-19
 -1      3397 9.54279E-05-2.58387E-05-2.98107E-05 2.17869E-06 5.46531E-19 1.08235E-20
 -1      3398 9.53492E-05-2.51173E-05-3.00944E-05 2.55753E-06 5.05959E-19 7.90005E-20
 -1      3399 9.55947E-05-2.63361E-05-2.96879E-05 1.14806E-06 5.56095E-19 2.84378E-19
 -1      3400 5.35299E-05-1.60099E-05-1.60322E-05 1.53028E-05-1.31131E-18-1.14672E-18
 -1      3401 4.71489E-05-1.32692E-05-1.40593E-05 9.27780E-06-1.40465E-18-3.71636E-20
 -1      3402 5.13660E-05-1.29994E-05-1.61688E-05 4.89485E-06-1.62456E-18 3.10385E-19
 -1      3403 1.24555E-04-3.21919E-05-3.97710E-05 1.32278E-05-2.64910E-19 8.34275E-19
 -1      3404 9.42180E-05-2.17108E-05-3.10843E-05-4.73579E-06-4.12922E-19-3.75324E-19
 -1      3405 9.88273E-05-4.53929E-05-2.26561E-05-2.85433E-05-1.52810E-18 3.31508E-19
 -1      3406 4.85804E-05-1.26329E-05-1.51873E-05 5.80182E-06-1.88627E-19-5.77359E-19
 -1      3407 4.59225E-05-1.18578E-05-1.41155E-05-1.18439E-06 4.71063E-19-2.30605E-19
 -1      3408 5.22106E-05-1.33944E-05-1.63327E-05-5.92501E-06 8.08347E-19-5.41413E-19
 -1      3409 1.15938E-04-2.15705E-05-4.08873E-05 1.15555E-05 2.65121E-19 1.79465E-19
 -1      3410 9.42178E-05-2.63560E-05-2.90873E-05-2.95538E-06-3.93348E-19 1.80529E-19
 -1      3411 9.39663E-05-2.61339E-05-2.90751E-05-2.77243E-06-9.29937E-20-1.07576E-18
 -1      3412 9.35752E-05-2.57883E-05-2.90467E-05-2.92056E-06 4.79758E-20-2.07087E-18
 -1      3413 9.40826E-05-2.61856E-05-2.90944E-05-3.28608E-06-4.50781E-19-3.44346E-19
 -1      3414 1.10362E-04-4.87224E-05-2.64988E-05 1.83977E-05-1.40626E-18 3.40432E-18
 -1      3415 1.01804E-04-4.48829E-05-2.40622E-05 2.50351E-05-1.34134E-18 2.98667E-18
 -1      3416 9.60208E-05-2.67641E-05-2.96724E-05-3.07475E-07-6.96838E-20-3.03398E-19
 -1      3417 9.60615E-05-2.72274E-05-2.95072E-05 1.40932E-07-9.59368E-20-6.21885E-20
 -1      3418 9.61222E-05-2.76078E-05-2.93567E-05 4.58123E-07-5.18664E-20-8.45497E-20
 -1      3419 9.61070E-05-2.78852E-05-2.92415E-05 7.59943E-07-1.77894E-19 1.05077E-19
 -1      3420 9.62140E-05-2.72265E-05-2.95660E-05 2.03038E-07-5.00212E-21-1.70491E-19
 -1      3421 9.60848E-05-2.80948E-05-2.91342E-05 9.74123E-07-1.24759E-19 1.98550E-19
 -1      3422 9.60387E-05-2.82383E-05-2.90585E-05 1.17644E-06 1.16284E-19 2.77005E-19
 -1      3423 9.62528E-05-2.78838E-05-2.93020E-05 7.54623E-07 2.57024E-20-1.82000E-19
 -1      3424 9.59611E-05-2.83224E-05-2.89858E-05 1.32358E-06 1.15708E-19 3.97583E-19
 -1      3425 9.58971E-05-2.83667E-05-2.89410E-05 1.46773E-06 1.90828E-19 4.70124E-19
 -1      3426 9.61555E-05-2.82216E-05-2.91159E-05 1.13384E-06 1.21684E-19 1.99011E-19
 -1      3427 9.57800E-05-2.83561E-05-2.88957E-05 1.57997E-06 1.08619E-19 2.17424E-19
 -1      3428 9.57031E-05-2.83244E-05-2.88747E-05 1.69981E-06-2.91731E-20 2.54285E-19
 -1      3429 9.59643E-05-2.83188E-05-2.89920E-05 1.40793E-06 8.76926E-20 9.21577E-20
 -1      3430 9.55536E-05-2.82393E-05-2.88505E-05 1.80377E-06-4.59985E-21 1.48252E-19
 -1      3431 9.54642E-05-2.81466E-05-2.88477E-05 1.92636E-06-7.10775E-20 1.78137E-19
 -1      3432 9.57016E-05-2.82300E-05-2.89169E-05 1.63485E-06-3.21806E-20-1.17385E-19
 -1      3433 9.52831E-05-2.79997E-05-2.88389E-05 2.04344E-06-3.28539E-19 3.29644E-19
 -1      3434 9.51786E-05-2.78552E-05-2.88496E-05 2.19026E-06-2.69110E-19 2.62338E-19
 -1      3435 9.53753E-05-2.79916E-05-2.88783E-05 1.86199E-06-2.23203E-19 1.04639E-19
 -1      3436 9.49615E-05-2.76537E-05-2.88510E-05 2.33750E-06-3.08111E-19 1.87325E-20
 -1      3437 9.48365E-05-2.74629E-05-2.88707E-05 2.52561E-06-2.64756E-19 6.15316E-20
 -1      3438 9.49822E-05-2.76262E-05-2.88653E-05 2.12706E-06-4.07093E-19-1.27487E-19
 -1      3439 9.45751E-05-2.72106E-05-2.88769E-05 2.71663E-06-2.57375E-19-7.74054E-20
 -1      3440 9.44221E-05-2.69771E-05-2.89011E-05 2.95962E-06-2.60693E-19 8.74097E-21
 -1      3441 9.45097E-05-2.71468E-05-2.88668E-05 2.45965E-06-3.62542E-19-2.56839E-20
 -1      3442 9.41049E-05-2.66763E-05-2.89061E-05 3.20523E-06-3.82954E-19 9.24685E-20
 -1      3443 9.39153E-05-2.64042E-05-2.89294E-05 3.51359E-06-8.18032E-19 5.23825E-19
 -1      3444 9.39384E-05-2.65614E-05-2.88709E-05 2.88290E-06 7.70508E-21 1.24175E-20
 -1      3445 9.35278E-05-2.60583E-05-2.89257E-05 3.82240E-06-8.20722E-19 7.79404E-19
 -1      3446 9.32926E-05-2.57543E-05-2.89410E-05 4.20413E-06-4.84844E-19 1.04626E-18
 -1      3447 9.32425E-05-2.58774E-05-2.88635E-05 3.41430E-06-6.43080E-19 2.66335E-20
 -1      3448 9.28190E-05-2.53708E-05-2.89189E-05 4.58418E-06-6.24548E-19 9.84786E-19
 -1      3449 9.25315E-05-2.50490E-05-2.89169E-05 5.04581E-06-6.43096E-19 9.61790E-19
 -1      3450 9.23920E-05-2.51063E-05-2.88268E-05 4.06799E-06-3.91550E-19 4.36974E-19
 -1      3451 9.19568E-05-2.46446E-05-2.88632E-05 5.50691E-06-8.25592E-19 9.47485E-19
 -1      3452 9.16180E-05-2.43335E-05-2.88312E-05 6.05525E-06-8.73636E-19 9.80088E-19
 -1      3453 9.13558E-05-2.42717E-05-2.87372E-05 4.85922E-06-6.07524E-19 7.28645E-19
 -1      3454 9.09316E-05-2.39411E-05-2.87287E-05 6.61382E-06-1.78986E-19 1.33407E-18
 -1      3455 9.05600E-05-2.36929E-05-2.86499E-05 7.26012E-06 1.88064E-19 1.30616E-18
 -1      3456 9.01069E-05-2.34199E-05-2.85635E-05 5.81150E-06-4.35248E-19 1.09423E-18
 -1      3457 8.97626E-05-2.33722E-05-2.84757E-05 7.94847E-06-2.09029E-19 1.24076E-18
 -1      3458 8.94112E-05-2.32788E-05-2.83292E-05 8.71561E-06-4.82322E-19 6.38352E-19
 -1      3459 8.86321E-05-2.26356E-05-2.82641E-05 6.97213E-06-1.06986E-19 8.78275E-19
 -1      3460 8.85271E-05-2.31317E-05-2.80542E-05 9.59708E-06-7.88855E-20 5.65707E-19
 -1      3461 8.83139E-05-2.33476E-05-2.78174E-05 1.05292E-05 3.11733E-19 3.26458E-19
 -1      3462 8.69484E-05-2.20639E-05-2.77850E-05 8.43912E-06-4.30786E-19 5.94274E-19
 -1      3463 8.74148E-05-2.35401E-05-2.74064E-05 1.17208E-05 2.36440E-19 5.02973E-19
 -1      3464 8.75743E-05-2.43178E-05-2.70613E-05 1.28896E-05 6.72925E-19 1.86080E-19
 -1      3465 8.51341E-05-2.19461E-05-2.70575E-05 1.04037E-05 3.62848E-19 2.19172E-19
 -1      3466 8.68368E-05-2.51214E-05-2.64761E-05 1.45791E-05 8.99584E-19 7.99131E-20
 -1      3467 8.77788E-05-2.68558E-05-2.60250E-05 1.60612E-05 5.02554E-19-1.27677E-19
 -1      3468 8.33940E-05-2.26885E-05-2.59991E-05 1.32070E-05 2.74956E-19 4.18011E-19
 -1      3469 8.75937E-05-2.86245E-05-2.52355E-05 1.84493E-05 1.24312E-19-8.15941E-19
 -1      3470 9.02558E-05-3.20336E-05-2.48060E-05 2.01756E-05 2.78909E-19-1.25748E-18
 -1      3471 8.22826E-05-2.50559E-05-2.45214E-05 1.73581E-05 1.87605E-20-2.18524E-19
 -1      3472 9.02619E-05-3.59916E-05-2.30278E-05 2.48425E-05 9.62090E-19-2.13511E-18
 -1      3473 9.10249E-05-3.95580E-05-2.21721E-05 2.82812E-05-1.75013E-18 2.21796E-18
 -1      3474 7.86597E-05-3.13025E-05-2.00520E-05 2.80026E-05-1.68790E-18 2.69343E-18
 -1      3475 9.57735E-05-3.99281E-05-2.38456E-05 2.38456E-05-1.44992E-18 3.20340E-18
 -1      3476 8.87294E-05-2.94066E-05-2.53338E-05-1.84089E-05-3.93338E-19-1.64258E-18
 -1      3477 8.70228E-05-2.67676E-05-2.58129E-05-1.67030E-05-1.45949E-19-1.80980E-18
 -1      3478 8.75594E-05-2.55251E-05-2.65186E-05-1.46227E-05 2.15688E-19-2.30388E-18
 -1      3479 8.70217E-05-2.42615E-05-2.69283E-05-1.32808E-05 8.42256E-19-2.24233E-18
 -1      3480 8.26673E-05-2.37632E-05-2.52255E-05-1.54026E-05-1.46017E-19-1.10946E-18
 -1      3481 8.78672E-05-2.37627E-05-2.74366E-05-1.18333E-05 1.97387E-18-2.33592E-18
 -1      3482 8.79111E-05-2.32637E-05-2.77361E-05-1.07751E-05 2.46589E-18-1.88020E-18
 -1      3483 8.41727E-05-2.22389E-05-2.65212E-05-1.19043E-05 9.71914E-19-1.67924E-18
 -1      3484 8.88191E-05-2.32367E-05-2.80879E-05-9.73498E-06 2.52259E-18-2.31691E-18
 -1      3485 8.91133E-05-2.31683E-05-2.82873E-05-8.87567E-06 2.05808E-18-1.29829E-18
 -1      3486 8.59913E-05-2.19266E-05-2.74328E-05-9.51485E-06 2.55031E-18-1.67936E-18
 -1      3487 8.99636E-05-2.33916E-05-2.85209E-05-8.08197E-06 9.41443E-19-1.72910E-18
 -1      3488 9.03317E-05-2.35482E-05-2.86418E-05-7.35921E-06 1.04250E-18-9.36932E-19
 -1      3489 8.77645E-05-2.22537E-05-2.80543E-05-7.78854E-06 1.87041E-18-2.07386E-18
 -1      3490 9.10764E-05-2.38855E-05-2.87903E-05-6.71967E-06 1.59921E-18-8.75632E-19
 -1      3491 9.14321E-05-2.41415E-05-2.88554E-05-6.09747E-06 1.32247E-18-4.79608E-19
 -1      3492 8.93556E-05-2.28976E-05-2.84632E-05-6.45087E-06 1.55070E-18-2.41045E-18
 -1      3493 9.20576E-05-2.45093E-05-2.89454E-05-5.56337E-06 8.16517E-19-1.61988E-19
 -1      3494 9.23637E-05-2.47884E-05-2.89742E-05-5.02330E-06 1.56520E-18-6.90679E-19
 -1      3495 9.07150E-05-2.36607E-05-2.87223E-05-5.35340E-06 1.19323E-18-5.42583E-19
 -1      3496 9.28712E-05-2.51386E-05-2.90261E-05-4.56588E-06 2.57537E-18-2.19484E-19
 -1      3497 9.31282E-05-2.53999E-05-2.90347E-05-4.10082E-06 2.55172E-18 1.66601E-19
 -1      3498 9.18342E-05-2.44164E-05-2.88804E-05-4.42378E-06 2.24212E-18 4.92654E-19
 -1      3499 9.50086E-05-2.76292E-05-2.88715E-05-2.87815E-06-1.77670E-19 2.53586E-19
 -1      3500 9.50326E-05-2.77438E-05-2.88423E-05-2.67065E-06-1.03071E-19 2.99096E-19
 -1      3501 9.51755E-05-2.78926E-05-2.88308E-05-2.48699E-06 8.40578E-20 4.08350E-19
 -1      3502 9.52072E-05-2.79980E-05-2.88073E-05-2.32454E-06 2.11642E-19 6.53019E-19
 -1      3503 9.49512E-05-2.76588E-05-2.88395E-05-2.52063E-06 7.13957E-20 5.40890E-19
 -1      3504 9.47219E-05-2.71456E-05-2.89546E-05-3.98065E-06-2.98231E-19 3.16836E-19
 -1      3505 9.47036E-05-2.72224E-05-2.89257E-05-3.67022E-06-5.01271E-19-2.61096E-20
 -1      3506 9.46622E-05-2.70291E-05-2.89780E-05-4.69662E-06 1.84707E-19 5.35054E-19
 -1      3507 9.45943E-05-2.70419E-05-2.89559E-05-4.34067E-06-2.38538E-22 4.00237E-19
 -1      3508 9.40885E-05-2.67167E-05-2.88737E-05-4.13410E-06-3.89012E-19 9.60387E-20
 -1      3509 9.47358E-05-2.71048E-05-2.89759E-05-5.50492E-06 2.69958E-19 4.16426E-19
 -1      3510 9.45827E-05-2.70058E-05-2.89651E-05-5.11842E-06 2.24045E-19 3.12843E-19
 -1      3511 9.38754E-05-2.65624E-05-2.88501E-05-4.92044E-06 3.33360E-19 1.88965E-19
 -1      3512 9.50462E-05-2.74962E-05-2.89397E-05-6.36994E-06 1.77065E-19 3.19513E-19
 -1      3513 9.47533E-05-2.72198E-05-2.89438E-05-5.98026E-06 3.90990E-19 3.71286E-19
 -1      3514 9.38010E-05-2.66357E-05-2.87900E-05-5.83169E-06 3.75428E-19 1.67217E-19
 -1      3515 9.57477E-05-2.83653E-05-2.88662E-05-7.22717E-06-1.97908E-20 8.86086E-19
 -1      3516 9.52368E-05-2.78274E-05-2.88854E-05-6.87956E-06 2.20165E-19 6.73619E-19
 -1      3517 9.39866E-05-2.70803E-05-2.86846E-05-6.84997E-06 1.21384E-19-3.60651E-21
 -1      3518 9.70569E-05-2.99073E-05-2.87656E-05-7.96407E-06-5.02989E-19 9.55725E-19
 -1      3519 9.62247E-05-2.90116E-05-2.87926E-05-7.73184E-06-2.03949E-19 7.33446E-19
 -1      3520 9.46168E-05-2.80867E-05-2.85328E-05-7.93282E-06-8.45898E-20 6.93432E-19
 -1      3521 9.92465E-05-3.23168E-05-2.86741E-05-8.38353E-06-9.98204E-19 1.08203E-18
 -1      3522 9.79785E-05-3.09787E-05-2.86873E-05-8.38441E-06-8.00293E-19 8.77786E-19
 -1      3523 9.59583E-05-2.98878E-05-2.83508E-05-8.98655E-06-7.00715E-19 4.23336E-19
 -1      3524 1.02594E-04-3.56780E-05-2.86764E-05-8.13517E-06-5.54914E-19 1.19468E-18
 -1      3525 1.00811E-04-3.38994E-05-2.86291E-05-8.55460E-06-8.83486E-19 1.47241E-18
 -1      3526 9.83715E-05-3.27284E-05-2.81895E-05-9.80614E-06-9.28837E-19 1.27807E-19
 -1      3527 1.07230E-04-3.97725E-05-2.89292E-05-6.69442E-06-5.95560E-19 8.01397E-19
 -1      3528 1.04973E-04-3.77427E-05-2.87402E-05-7.78226E-06-5.15808E-19 1.17977E-18
 -1      3529 1.02236E-04-3.67061E-05-2.81654E-05-9.95936E-06-7.15505E-19 5.94477E-19
 -1      3530 1.12818E-04-4.36102E-05-2.97088E-05-3.31411E-06-1.31463E-18 9.07880E-19
 -1      3531 1.10453E-04-4.20033E-05-2.92413E-05-5.33061E-06-8.83937E-19 6.62666E-19
 -1      3532 1.07827E-04-4.15942E-05-2.84929E-05-8.75193E-06-7.28604E-19 1.06915E-18
 -1      3533 1.20415E-04-4.10114E-05-3.41548E-05 9.00508E-06-1.59668E-18 1.56943E-18
 -1      3534 1.20648E-04-4.40934E-05-3.27935E-05 6.45827E-06-1.74824E-18 1.42327E-18
 -1      3535 1.19544E-04-3.19350E-05-3.76643E-05 1.25052E-05-1.42508E-18 1.32021E-18
 -1      3536 1.21608E-04-3.79818E-05-3.59980E-05 1.20170E-05-1.48893E-18 1.32328E-18
 -1      3537 1.13563E-04-2.13409E-05-3.97579E-05-1.12193E-05 2.70436E-18 5.41585E-19
 -1      3538 1.20854E-04-3.87283E-05-3.53339E-05-1.11993E-05-1.59083E-20 1.01061E-18
 -1      3539 1.19395E-04-3.33465E-05-3.70052E-05-1.22242E-05 1.58443E-18 1.41128E-18
 -1      3540 1.10446E-04-4.18904E-05-2.92446E-05 5.32164E-06 1.67421E-21-6.69487E-20
 -1      3541 1.12785E-04-4.35440E-05-2.96801E-05 3.36291E-06-7.13493E-19-2.59444E-19
 -1      3542 1.04905E-04-3.76723E-05-2.87482E-05 7.86407E-06 1.52332E-18 3.99855E-19
 -1      3543 1.07190E-04-3.97185E-05-2.89348E-05 6.77731E-06 4.64442E-19 3.08724E-19
 -1      3544 1.07919E-04-4.17900E-05-2.85134E-05 8.86558E-06 5.70884E-19 2.63139E-19
 -1      3545 1.00762E-04-3.38129E-05-2.86492E-05 8.58388E-06 9.67947E-19 5.35875E-19
 -1      3546 1.02565E-04-3.55946E-05-2.86926E-05 8.17667E-06 1.74328E-18 3.69265E-19
 -1      3547 1.02142E-04-3.66188E-05-2.81869E-05 9.98333E-06 1.60535E-18 1.22328E-18
 -1      3548 9.80024E-05-3.09421E-05-2.87136E-05 8.38448E-06 5.81663E-19 1.15659E-18
 -1      3549 9.92506E-05-3.22588E-05-2.86979E-05 8.38439E-06 1.00708E-18 7.14145E-19
 -1      3550 9.83512E-05-3.26341E-05-2.82219E-05 9.77070E-06 6.87311E-19 1.49199E-18
 -1      3551 9.62733E-05-2.89871E-05-2.88237E-05 7.74145E-06 8.28401E-19 8.64954E-19
 -1      3552 9.70938E-05-2.98802E-05-2.87938E-05 7.97695E-06 8.26464E-19 1.16108E-18
 -1      3553 9.60245E-05-2.98699E-05-2.83863E-05 8.97644E-06 9.05156E-19 9.07911E-19
 -1      3554 9.52915E-05-2.77904E-05-2.89245E-05 6.87969E-06-1.03028E-19 2.11594E-18
 -1      3555 9.57989E-05-2.83364E-05-2.89011E-05 7.23625E-06 1.87120E-19 1.75406E-18
 -1      3556 9.46914E-05-2.80650E-05-2.85741E-05 7.93527E-06 1.51719E-19 2.08556E-18
 -1      3557 9.48035E-05-2.71496E-05-2.89949E-05 5.95382E-06-9.60898E-19 2.65692E-18
 -1      3558 9.50981E-05-2.74448E-05-2.89845E-05 6.36081E-06 5.71543E-20 1.95618E-18
 -1      3559 9.40602E-05-2.70345E-05-2.87358E-05 6.84151E-06-4.79334E-19 3.80583E-18
 -1      3560 9.46148E-05-2.68766E-05-2.90336E-05 5.04604E-06-8.94352E-20 1.61628E-18
 -1      3561 9.47764E-05-2.70080E-05-2.90353E-05 5.46089E-06-4.75328E-19 1.98145E-18
 -1      3562 9.38628E-05-2.65438E-05-2.88557E-05 5.79559E-06-6.68132E-19 3.03002E-18
 -1      3563 9.45861E-05-2.68213E-05-2.90483E-05 4.20265E-06-3.66612E-19 1.50058E-18
 -1      3564 9.46762E-05-2.68603E-05-2.90579E-05 4.59574E-06-3.65285E-19 1.87035E-18
 -1      3565 9.39112E-05-2.63976E-05-2.89359E-05 4.83888E-06 8.95615E-20 2.40259E-18
 -1      3566 9.46488E-05-2.68777E-05-2.90478E-05 3.42334E-06-1.29883E-19 1.76054E-18
 -1      3567 9.46908E-05-2.68660E-05-2.90615E-05 3.78631E-06-9.64362E-20 1.74175E-18
 -1      3568 9.40624E-05-2.64195E-05-2.89837E-05 3.98158E-06-6.01302E-20 2.27671E-18
 -1      3569 9.58951E-05-2.72360E-05-2.94321E-05-6.41468E-08 3.92879E-19 9.90823E-20
 -1      3570 9.58802E-05-2.67899E-05-2.95990E-05 4.26837E-07 5.21985E-19 1.48744E-19
 -1      3571 9.22719E-05-1.80666E-05-3.18142E-05-9.96640E-07-1.30212E-19-3.78627E-19
 -1      3572 9.23840E-05-1.82592E-05-3.17826E-05-1.74585E-06-2.38131E-19-3.62005E-19
 -1      3573 9.33562E-05-1.99140E-05-3.14596E-05-1.73155E-06-1.80510E-19-4.16270E-19
 -1      3574 9.27999E-05-2.51908E-05-2.89717E-05-2.74297E-06 6.99237E-20-2.27709E-18
 -1      3575 9.24156E-05-2.49218E-05-2.89363E-05-2.32057E-06 4.92717E-19 2.16643E-19
 -1      3576 9.20918E-05-2.46706E-05-2.88936E-05-1.73505E-06 1.18894E-18 2.54085E-19
 -1      3577 9.18861E-05-2.45355E-05-2.88712E-05-1.19422E-06 1.68397E-18 3.73328E-19
 -1      3578 9.18538E-05-2.44990E-05-2.88613E-05-2.19770E-06 4.17332E-19-8.10805E-19
 -1      3579 9.17746E-05-2.44683E-05-2.88494E-05-5.36571E-07 2.53912E-18 5.93501E-19
 -1      3580 9.17574E-05-2.44684E-05-2.88407E-05 3.95275E-08 2.38260E-18-2.81486E-18
 -1      3581 9.13899E-05-2.41891E-05-2.87911E-05-9.08355E-07 2.02352E-18-3.33489E-19
 -1      3582 9.49523E-05-2.33894E-05-3.06702E-05-2.90152E-06-2.50914E-19-4.53756E-19
 -1      3583 9.52938E-05-2.44722E-05-3.03663E-05-2.02270E-06-3.18133E-19-4.25686E-19
 -1      3584 6.03372E-05-1.64899E-05-1.85636E-05-1.37591E-05 7.51034E-19 1.32746E-19
 -1      3585 6.79985E-05-2.13989E-05-1.98872E-05-1.95550E-05 8.55258E-19-2.92809E-19
 -1      3586 1.17486E-04-4.63919E-05-3.04375E-05 1.54119E-06-2.85563E-19 6.73244E-19
 -1      3587 1.19339E-04-4.62434E-05-3.13564E-05-1.40905E-06 1.73059E-19 1.02083E-18
 -1      3588 1.20564E-04-4.20328E-05-3.37953E-05-8.13617E-06-4.07974E-20 1.06161E-18
 -1      3589 9.56421E-05-2.84035E-05-2.88143E-05-1.72937E-06 2.84254E-19 4.25651E-19
 -1      3590 9.56820E-05-2.84062E-05-2.88315E-05-1.61635E-06 3.11676E-19 4.28632E-19
 -1      3591 9.56936E-05-2.54290E-05-3.01020E-05-1.41717E-06-3.23494E-19-3.65338E-19
 -1      3592 9.58283E-05-2.61446E-05-2.98752E-05-7.68543E-07-1.57927E-19-3.71165E-19
 -1      3593 9.54144E-05-2.45007E-05-3.03953E-05-1.68003E-06-2.82752E-19-3.64658E-19
 -1      3594 1.00142E-04-4.30261E-05-2.41032E-05-2.48775E-05 5.61927E-19-2.84156E-18
 -1      3595 9.39582E-05-2.12312E-05-3.11786E-05-4.36853E-06-3.65496E-19-3.82309E-19
 -1      3596 9.25256E-05-3.99368E-05-2.21816E-05-2.80524E-05-1.17620E-18 6.26076E-19
 -1      3597 1.04114E-04-4.67468E-05-2.47089E-05-2.38966E-05-1.35994E-18 2.43032E-19
 -1      3598 1.27260E-04-4.97394E-05-3.30553E-05 1.55781E-06-1.72015E-18 2.23233E-18
 -1      3599 1.25262E-04-4.31951E-05-3.54016E-05 8.63319E-06-1.65087E-18 2.50865E-18
 -1      3600 9.48502E-05-2.73661E-05-2.89158E-05-3.37346E-06-3.66874E-19-3.33561E-21
 -1      3601 9.48595E-05-2.74734E-05-2.88847E-05-3.11478E-06-1.87111E-19 7.67026E-20
 -1      3602 9.46606E-05-2.73259E-05-2.88572E-05-2.94264E-06-9.20891E-20 4.94365E-19
 -1      3603 9.43649E-05-2.69953E-05-2.88723E-05-3.47644E-06-4.29946E-19 3.14227E-19
 -1      3604 7.44796E-05-2.84107E-05-1.96185E-05 2.58980E-05 4.66398E-20-2.20964E-18
 -1      3605 6.20106E-05-2.05304E-05-1.73456E-05 2.14781E-05-8.02114E-19-1.79788E-18
 -1      3606 9.43235E-05-2.65881E-05-2.90359E-05 2.58646E-06 1.93945E-18 2.76286E-18
 -1      3607 9.46147E-05-2.68535E-05-2.90392E-05 2.62889E-06 1.31965E-20 5.74494E-19
 -1      3608 9.46554E-05-2.68850E-05-2.90429E-05 2.84516E-06 3.42577E-19 3.31918E-19
 -1      3609 9.40126E-05-2.63326E-05-2.90068E-05 2.77569E-06 9.49916E-19 2.65838E-18
 -1      3610 9.46677E-05-3.84127E-05-2.39742E-05-2.38184E-05 3.94188E-19-2.09612E-18
 -1      3611 1.10446E-04-4.88808E-05-2.61774E-05-1.95712E-05-1.81248E-18 2.83733E-19
 -1      3612 1.14120E-04-4.95180E-05-2.78447E-05-1.37845E-05-2.19072E-18 7.21337E-19
 -1      3613 1.04051E-04-4.43341E-05-2.55465E-05-2.02886E-05-9.15351E-19 4.17918E-19
 -1      3614 9.49340E-05-2.34457E-05-3.06509E-05 2.99416E-06 4.64511E-19-5.27402E-20
 -1      3615 9.46774E-05-2.27558E-05-3.08232E-05 2.76479E-06 3.97191E-19-1.43662E-19
 -1      3616 8.10668E-05-3.02749E-05-2.17194E-05 2.47513E-05 3.38337E-19-2.33686E-18
 -1      3617 9.57701E-05-2.83944E-05-2.88744E-05-1.50002E-06 1.96479E-19 4.39865E-19
 -1      3618 9.58099E-05-2.83332E-05-2.89155E-05-1.35582E-06 8.31443E-20 5.01809E-19
 -1      3619 9.58920E-05-2.83715E-05-2.89394E-05-1.47072E-06 2.17054E-19 5.35975E-19
 -1      3620 5.34188E-05-1.25763E-05-1.71360E-05-1.14101E-06-1.52778E-18-1.14455E-19
 -1      3621 5.76508E-05-1.39039E-05-1.86282E-05-5.87172E-06-1.00878E-18-5.35801E-19
 -1      3622 5.61463E-05-1.36842E-05-1.82130E-05 4.38935E-06-1.55336E-18 9.24854E-20
 -1      3623 1.16841E-04-2.52725E-05-3.95913E-05 1.32603E-05-2.69356E-19 5.57586E-19
 -1      3624 6.47233E-05-2.02503E-05-1.87222E-05-2.05509E-05-1.00279E-18-1.03717E-18
 -1      3625 7.24083E-05-2.45696E-05-2.04337E-05-2.20035E-05-8.29652E-19-1.02433E-18
 -1      3626 6.29616E-05-1.78319E-05-1.92739E-05-1.53084E-05-6.01393E-19-3.88153E-19
 -1      3627 9.31569E-05-1.95354E-05-3.15350E-05-5.75619E-07-9.81027E-20-2.94635E-19
 -1      3628 8.78597E-05-3.54675E-05-2.22832E-05-2.56255E-05-1.33053E-18 2.76000E-19
 -1      3629 9.22784E-05-2.49519E-05-2.88629E-05 1.78835E-06 9.27806E-19-2.84323E-18
 -1      3630 9.25893E-05-2.51937E-05-2.88806E-05 2.22488E-06 9.73351E-19-8.78848E-19
 -1      3631 9.08744E-05-3.36471E-05-2.43971E-05-2.18450E-05 2.85638E-19-1.89588E-18
 -1      3632 8.33882E-05-2.88759E-05-2.34364E-05-2.12297E-05 4.00561E-19-1.89788E-19
 -1      3633 6.25442E-05-1.85761E-05-1.85501E-05 1.65943E-05-1.07760E-18-1.11083E-18
 -1      3634 9.35483E-05-2.57088E-05-2.90730E-05-3.86703E-06 1.83362E-18-7.14502E-19
 -1      3635 9.37649E-05-2.59337E-05-2.90751E-05-3.51131E-06 6.59296E-19-8.13853E-19
 -1      3636 9.34942E-05-2.57183E-05-2.90461E-05-3.33760E-06 6.27381E-19-1.91295E-18
 -1      3637 9.27600E-05-2.51165E-05-2.89814E-05-3.78281E-06 1.64772E-18-1.17167E-18
 -1      3638 1.23176E-04-5.01245E-05-3.13340E-05-2.28718E-06-1.91605E-18 1.90191E-18
 -1      3639 9.52250E-05-2.79582E-05-2.88290E-05-2.19155E-06 3.03937E-19 4.90401E-19
 -1      3640 9.53402E-05-2.81259E-05-2.88021E-05-2.18332E-06 2.83790E-19 7.01573E-19
 -1      3641 9.53760E-05-2.82093E-05-2.87879E-05-2.05508E-06 2.41293E-19 7.71165E-19
 -1      3642 1.20834E-04-4.72103E-05-3.16759E-05 1.20566E-06-1.51571E-18 1.86999E-18
 -1      3643 1.17550E-04-4.50198E-05-3.11652E-05 1.83943E-06-1.70595E-18 1.47308E-18
 -1      3644 1.15916E-04-4.48591E-05-3.03377E-05-8.71635E-07-1.51565E-18 1.21237E-18
 -1      3645 1.19416E-04-4.99173E-05-2.95869E-05-6.81658E-06-1.90191E-18 1.63375E-18
 -1      3646 1.14301E-04-4.59265E-05-2.94381E-05-5.49434E-06-1.42143E-18 1.22921E-18
 -1      3647 1.18517E-04-2.79406E-05-3.90279E-05-1.36183E-05 1.89931E-18 3.62583E-19
 -1      3648 9.40986E-05-2.14222E-05-3.11623E-05 1.72955E-06 6.67340E-20-1.98236E-19
 -1      3649 9.39594E-05-2.11241E-05-3.12228E-05 1.22157E-06-1.67249E-20-1.62333E-19
 -1      3650 7.35597E-05-2.68521E-05-1.98356E-05 2.55707E-05-1.17947E-18 2.69266E-18
 -1      3651 6.90681E-05-2.23915E-05-1.99476E-05 2.08396E-05 1.27306E-19 2.02520E-19
 -1      3652 8.12726E-05-2.96947E-05-2.19581E-05 2.32425E-05-1.07143E-18 2.69028E-18
 -1      3653 1.15402E-04-4.70545E-05-2.94513E-05 6.22349E-06-2.92617E-19 2.21621E-18
 -1      3654 9.58537E-05-2.61331E-05-2.98791E-05 7.72165E-07 4.88495E-19 1.39200E-19
 -1      3655 9.57103E-05-2.61736E-05-2.98092E-05 9.63717E-07 4.42159E-19 8.79906E-20
 -1      3656 9.59460E-05-2.76079E-05-2.92796E-05-4.22225E-07 1.87746E-19 5.75768E-20
 -1      3657 9.60784E-05-2.72214E-05-2.95114E-05-1.34638E-07 3.89092E-19 3.26218E-19
 -1      3658 9.59251E-05-2.78795E-05-2.91660E-05-7.46953E-07 1.84127E-19 5.48983E-20
 -1      3659 9.47255E-05-2.69276E-05-2.90537E-05 3.06431E-06 1.56969E-19 1.32613E-18
 -1      3660 6.07175E-05-1.68284E-05-1.86822E-05 1.43366E-05-3.87719E-19-1.08976E-19
 -1      3661 5.40389E-05-1.42042E-05-1.67004E-05 1.09683E-05-1.48297E-19-1.24090E-19
 -1      3662 5.55175E-05-1.34754E-05-1.79855E-05 4.79848E-06-2.65803E-19 3.25155E-19
 -1      3663 9.13665E-05-2.42265E-05-2.87665E-05 4.40338E-07 2.57593E-18-2.88851E-18
 -1      3664 9.18470E-05-2.45718E-05-2.88395E-05 6.88899E-07 1.79470E-18-3.84736E-18
 -1      3665 9.20111E-05-2.47036E-05-2.88445E-05 1.22447E-06 1.82006E-18-4.10398E-18
 -1      3666 9.46055E-05-2.22632E-05-3.09854E-05 8.03340E-07-1.36727E-20-3.26294E-19
 -1      3667 9.38716E-05-2.09479E-05-3.12649E-05 7.92110E-07-3.51310E-20-4.02269E-19
 -1      3668 9.38225E-05-2.08462E-05-3.12849E-05 2.41410E-07-3.86324E-20-5.50119E-19
 -1      3669 9.32331E-05-2.55303E-05-2.90223E-05-3.12397E-06 8.75495E-19-3.50811E-18
 -1      3670 5.84122E-05-1.46697E-05-1.85548E-05-9.84540E-06 1.13588E-19-6.63015E-19
 -1      3671 6.57344E-05-1.67975E-05-2.08366E-05-1.05967E-05-1.20155E-18-4.09937E-19
 -1      3672 5.77236E-05-1.35008E-05-1.87665E-05-3.88378E-06-6.56973E-19-7.96793E-19
 -1      3673 9.44722E-05-2.22603E-05-3.09366E-05-3.38994E-06-2.97875E-19-3.33503E-19
 -1      3674 9.45060E-05-2.23212E-05-3.09289E-05-2.80967E-06-2.75460E-19-3.29579E-19
 -1      3675 9.53275E-05-2.47308E-05-3.02597E-05 2.70060E-06 5.15967E-19 1.11081E-19
 -1      3676 9.50711E-05-2.38800E-05-3.05045E-05 2.93362E-06 4.73624E-19 1.16019E-19
 -1      3677 9.53496E-05-2.45629E-05-3.03296E-05 2.11655E-06 4.32003E-19 3.77707E-20
 -1      3678 9.54810E-05-2.54209E-05-3.00289E-05 1.90405E-06 4.75128E-19 3.22267E-20
 -1      3679 9.37888E-05-2.07312E-05-3.12897E-05 2.81083E-06 2.89530E-19-2.76756E-19
 -1      3680 9.40894E-05-2.14051E-05-3.11542E-05-2.04168E-06-1.87852E-19-2.31522E-19
 -1      3681 9.43115E-05-2.18869E-05-3.10514E-05-2.46334E-06-2.90207E-19-3.14888E-19
 -1      3682 9.48456E-05-2.29553E-05-3.07953E-05-2.07574E-06-2.52697E-19-3.11536E-19
 -1      3683 9.56356E-05-2.82084E-05-2.89019E-05-1.19574E-06 2.43507E-19 2.34903E-19
 -1      3684 9.29366E-05-2.54957E-05-2.89122E-05 2.57261E-06 2.18111E-19 9.25736E-19
 -1      3685 9.32897E-05-2.57578E-05-2.89340E-05 2.82101E-06 5.28742E-19 1.35683E-18
 -1      3686 9.24546E-05-2.51464E-05-2.88427E-05 2.61466E-06-4.49422E-19 4.03747E-19
 -1      3687 9.54970E-05-2.83043E-05-2.87936E-05-1.94222E-06 8.42976E-20 6.72936E-19
 -1      3688 9.55354E-05-2.83539E-05-2.87928E-05-1.83228E-06 1.43959E-19 4.82381E-19
 -1      3689 9.57008E-05-2.83440E-05-2.88687E-05-1.70417E-06 2.40154E-19 6.11541E-19
 -1      3690 9.54764E-05-2.81958E-05-2.88355E-05-1.93041E-06 9.38255E-20 4.81103E-19
 -1      3691 9.59622E-05-2.61295E-05-2.99247E-05-5.89621E-07-1.25143E-19-2.03117E-19
 -1      3692 9.56033E-05-2.56129E-05-2.99895E-05 1.57003E-06 4.61980E-19 7.69537E-20
 -1      3693 9.42621E-05-2.65530E-05-2.90149E-05 3.21495E-06 2.33344E-19 2.71472E-18
 -1      3694 9.26703E-05-2.50841E-05-2.89635E-05-3.18477E-06 1.81561E-19-2.10562E-18
 -1      3695 7.58601E-05-2.47327E-05-2.18689E-05 2.06410E-05-3.64486E-19-1.42294E-18
 -1      3696 9.63889E-05-2.76778E-05-2.94441E-05 5.24923E-07 1.16501E-19-2.79824E-19
 -1      3697 9.63686E-05-2.79379E-05-2.93305E-05 7.57643E-07 7.98219E-21-2.99431E-19
 -1      3698 9.63211E-05-2.81223E-05-2.92259E-05 9.08084E-07 1.82788E-19-2.61292E-19
 -1      3699 9.62446E-05-2.82373E-05-2.91472E-05 1.07205E-06 1.77587E-19-4.05616E-20
 -1      3700 9.64373E-05-2.79379E-05-2.93562E-05 7.02754E-07 1.19485E-19-2.45742E-19
 -1      3701 9.61260E-05-2.82868E-05-2.90732E-05 1.18094E-06 2.43291E-20-1.72384E-20
 -1      3702 9.60093E-05-2.82903E-05-2.90222E-05 1.30649E-06 8.80430E-21-1.07526E-19
 -1      3703 9.62721E-05-2.82005E-05-2.91733E-05 9.71968E-07 5.53825E-20-1.36787E-19
 -1      3704 9.58353E-05-2.82347E-05-2.89725E-05 1.39631E-06-7.27919E-22-9.13482E-20
 -1      3705 9.56856E-05-2.81501E-05-2.89427E-05 1.50891E-06-4.88249E-20-4.71110E-20
 -1      3706 9.59823E-05-2.82085E-05-2.90455E-05 1.17845E-06-1.82897E-19-2.25851E-19
 -1      3707 9.54631E-05-2.80095E-05-2.89110E-05 1.59827E-06-3.60554E-20-3.82419E-20
 -1      3708 9.52813E-05-2.78524E-05-2.88966E-05 1.71832E-06-1.64078E-19 3.41791E-21
 -1      3709 9.55900E-05-2.80142E-05-2.89600E-05 1.36155E-06-3.32092E-20-1.58354E-19
 -1      3710 9.50103E-05-2.76397E-05-2.88769E-05 1.82186E-06-3.82973E-19-1.90539E-19
 -1      3711 9.47923E-05-2.74196E-05-2.88724E-05 1.96523E-06-4.64655E-19-1.77283E-19
 -1      3712 9.51019E-05-2.76533E-05-2.89044E-05 1.55304E-06-2.40310E-19-2.24587E-19
 -1      3713 9.44663E-05-2.71422E-05-2.88585E-05 2.09398E-06-3.70188E-19-3.03277E-19
 -1      3714 9.42036E-05-2.68647E-05-2.88581E-05 2.27281E-06-2.72960E-19 7.27444E-20
 -1      3715 9.45118E-05-2.71484E-05-2.88664E-05 1.77688E-06-3.36907E-19-5.66333E-20
 -1      3716 9.38113E-05-2.65267E-05-2.88432E-05 2.43520E-06-1.20028E-19 2.64829E-19
 -1      3717 9.34923E-05-2.61960E-05-2.88403E-05 2.65858E-06 6.15166E-20 1.23808E-19
 -1      3718 9.38020E-05-2.65127E-05-2.88327E-05 2.05053E-06-8.36297E-20 1.01043E-20
 -1      3719 9.30185E-05-2.58014E-05-2.88162E-05 2.86004E-06-2.42371E-19 2.47562E-19
 -1      3720 9.26289E-05-2.54221E-05-2.88027E-05 3.13393E-06-7.12385E-19 4.92567E-19
 -1      3721 9.29466E-05-2.57561E-05-2.87879E-05 2.38616E-06-1.22455E-19-2.89121E-19
 -1      3722 9.20533E-05-2.49744E-05-2.87592E-05 3.37823E-06-7.30600E-19 7.93535E-19
 -1      3723 9.15767E-05-2.45538E-05-2.87247E-05 3.70794E-06-5.15754E-19 6.30128E-19
 -1      3724 9.19107E-05-2.48872E-05-2.87132E-05 2.78922E-06-5.00315E-19 4.83906E-19
 -1      3725 9.08759E-05-2.40617E-05-2.86487E-05 3.99993E-06-4.28243E-19 3.33513E-19
 -1      3726 9.02967E-05-2.36146E-05-2.85794E-05 4.39197E-06-5.46753E-19 4.44416E-19
 -1      3727 9.06509E-05-2.39177E-05-2.85850E-05 3.26500E-06-6.24383E-19 2.31505E-19
 -1      3728 8.94426E-05-2.30941E-05-2.84531E-05 4.74026E-06-3.60440E-19 5.82973E-19
 -1      3729 8.87486E-05-2.26474E-05-2.83306E-05 5.20755E-06-1.90039E-19 7.75950E-19
 -1      3730 8.91168E-05-2.28696E-05-2.83718E-05 3.82210E-06-3.76591E-19-2.62994E-19
 -1      3731 8.77066E-05-2.21255E-05-2.81303E-05 5.63305E-06 1.45152E-19 7.06137E-19
 -1      3732 8.68954E-05-2.17253E-05-2.79302E-05 6.20552E-06-2.79264E-19 5.32458E-19
 -1      3733 8.72466E-05-2.17783E-05-2.80317E-05 4.48280E-06-1.34421E-20 2.76865E-19
 -1      3734 8.56218E-05-2.12462E-05-2.76230E-05 6.75547E-06-7.38263E-19 6.27438E-19
 -1      3735 8.47114E-05-2.09689E-05-2.73138E-05 7.49637E-06-8.35196E-20 4.10877E-19
 -1      3736 8.49627E-05-2.06985E-05-2.75071E-05 5.30667E-06-3.31377E-19 2.48588E-19
 -1      3737 8.31467E-05-2.06001E-05-2.68537E-05 8.26772E-06 3.55709E-19 4.30713E-19
 -1      3738 8.21969E-05-2.05698E-05-2.63947E-05 9.29915E-06 4.68850E-19 2.40301E-19
 -1      3739 8.21614E-05-1.97114E-05-2.67174E-05 6.42565E-06 6.33608E-20 6.55368E-19
 -1      3740 8.02557E-05-2.04114E-05-2.57133E-05 1.04852E-05 2.86024E-19 3.41659E-19
 -1      3741 7.94200E-05-2.08600E-05-2.50547E-05 1.20321E-05 1.44340E-19 3.07553E-19
 -1      3742 7.86905E-05-1.89322E-05-2.55440E-05 8.10685E-06 5.56467E-19 6.14165E-20
 -1      3743 7.69701E-05-2.10026E-05-2.40440E-05 1.39576E-05-4.58030E-19 2.32851E-20
 -1      3744 7.65531E-05-2.23639E-05-2.31173E-05 1.63961E-05-6.26765E-19-6.49760E-19
 -1      3745 7.43363E-05-1.86126E-05-2.37994E-05 1.08236E-05-5.30835E-19 5.90011E-19
 -1      3746 7.78700E-05-2.16426E-05-2.40576E-05-1.43122E-05-3.06298E-19-1.29843E-18
 -1      3747 7.84910E-05-2.06534E-05-2.48613E-05-1.22748E-05-3.00159E-19-1.83997E-18
 -1      3748 9.94853E-05-4.08166E-05-2.53503E-05 2.02011E-05-3.28490E-20 4.34746E-18
 -1      3749 9.10874E-05-3.51620E-05-2.38007E-05 2.22504E-05-1.44970E-18 4.04307E-18
 -1      3750 9.17636E-05-2.45832E-05-2.87863E-05 1.68796E-06 9.01635E-19-2.62828E-18
 -1      3751 6.64967E-05-1.97429E-05-1.99455E-05 1.70601E-05-7.55375E-19-9.64718E-19
 -1      3752 5.96630E-05-1.51957E-05-1.87141E-05 1.14245E-05-1.65222E-18 3.31402E-20
 -1      3753 6.08251E-05-1.47374E-05-1.95611E-05 6.00814E-06-1.32029E-18 8.24269E-20
 -1      3754 9.22345E-05-2.47718E-05-2.89206E-05-3.36530E-06 7.26555E-19-8.02942E-19
 -1      3755 1.22401E-04-4.54504E-05-3.29889E-05-5.49760E-06 1.71921E-20 7.40988E-19
 -1      3756 1.14056E-04-4.74424E-05-2.85305E-05-9.79433E-06-1.77561E-18 7.84630E-19
 -1      3757 1.10745E-04-4.52264E-05-2.79276E-05-1.16248E-05-1.28836E-18 7.96396E-19
 -1      3758 8.07084E-05-2.06391E-05-2.57151E-05-1.07310E-05 8.58151E-19-1.07074E-18
 -1      3759 8.16334E-05-2.04395E-05-2.62839E-05-9.44269E-06 1.76099E-18-4.17868E-19
 -1      3760 7.64454E-05-1.86944E-05-2.46641E-05-9.49882E-06 8.82780E-19-1.09537E-18
 -1      3761 8.34009E-05-2.06971E-05-2.68629E-05-8.47207E-06 1.95477E-18-4.67393E-19
 -1      3762 8.43470E-05-2.08442E-05-2.72561E-05-7.58412E-06 2.04509E-18-1.52696E-18
 -1      3763 8.03773E-05-1.92577E-05-2.61372E-05-7.31427E-06 1.90213E-18 4.28143E-19
 -1      3764 8.57752E-05-2.12559E-05-2.76492E-05-6.92222E-06 2.01475E-18-1.72161E-18
 -1      3765 8.66453E-05-2.15801E-05-2.79134E-05-6.25724E-06 2.32157E-18-1.70521E-18
 -1      3766 8.35329E-05-2.01178E-05-2.71365E-05-5.92072E-06 2.03508E-18-6.08596E-19
 -1      3767 8.78079E-05-2.20617E-05-2.81780E-05-5.76141E-06 2.52217E-18-1.38754E-18
 -1      3768 8.85622E-05-2.24614E-05-2.83500E-05-5.22593E-06 2.04845E-18-7.57020E-19
 -1      3769 8.60890E-05-2.11166E-05-2.78144E-05-4.93990E-06 3.11144E-18-2.12018E-19
 -1      3770 8.95094E-05-2.29517E-05-2.85259E-05-4.82687E-06 1.92912E-18-3.65041E-19
 -1      3771 9.01355E-05-2.33621E-05-2.86342E-05-4.37321E-06 2.07497E-18 1.02772E-18
 -1      3772 8.81731E-05-2.21525E-05-2.82706E-05-4.17350E-06 2.14706E-18 6.99213E-19
 -1      3773 9.09065E-05-2.38288E-05-2.87495E-05-4.02808E-06 1.97251E-18 4.90374E-19
 -1      3774 9.14266E-05-2.42057E-05-2.88169E-05-3.63808E-06 1.84891E-18-2.12505E-19
 -1      3775 8.98473E-05-2.31307E-05-2.85735E-05-3.53368E-06 1.88229E-18 3.29595E-19
 -1      3776 9.38198E-05-2.08432E-05-3.12854E-05-2.10652E-07 2.41165E-21-3.96425E-19
 -1      3777 9.38610E-05-2.09315E-05-3.12664E-05-7.57432E-07-8.08371E-20-2.48003E-19
 -1      3778 9.45321E-05-2.20885E-05-3.10285E-05 1.23651E-08 9.22798E-21-5.02432E-19
 -1      3779 9.30880E-05-2.60322E-05-2.87296E-05-4.93878E-06 1.75385E-19 3.44257E-19
 -1      3780 9.31690E-05-2.60897E-05-2.87556E-05-4.51794E-06 9.24000E-20 6.10433E-20
 -1      3781 9.34619E-05-2.62536E-05-2.87969E-05-4.10818E-06-2.69122E-19-1.41596E-20
 -1      3782 9.35911E-05-2.63928E-05-2.88063E-05-3.75316E-06-5.08589E-19 2.42075E-19
 -1      3783 9.26864E-05-2.57431E-05-2.86875E-05-4.11293E-06-1.44727E-19 5.77384E-20
 -1      3784 9.28674E-05-2.64719E-05-2.84390E-05-7.08061E-06-1.59105E-20 4.55900E-19
 -1      3785 9.26773E-05-2.61576E-05-2.85137E-05-6.53809E-06 1.30678E-19 6.41273E-19
 -1      3786 9.33551E-05-2.74962E-05-2.82028E-05-8.38746E-06 2.31566E-19 2.08992E-19
 -1      3787 9.28759E-05-2.68412E-05-2.83017E-05-7.80771E-06 3.92559E-19 3.55443E-19
 -1      3788 9.14942E-05-2.58835E-05-2.81268E-05-7.49125E-06 3.37225E-19 4.76207E-19
 -1      3789 9.46121E-05-2.93927E-05-2.79213E-05-9.79851E-06-9.54559E-19 1.31273E-19
 -1      3790 9.36801E-05-2.82571E-05-2.80312E-05-9.23125E-06-3.29256E-19 4.06775E-19
 -1      3791 9.17739E-05-2.69739E-05-2.77897E-05-9.13112E-06-1.00972E-19 3.15356E-19
 -1      3792 9.70607E-05-3.24662E-05-2.76492E-05-1.11597E-05-9.63531E-19 4.08396E-20
 -1      3793 9.54651E-05-3.06977E-05-2.77332E-05-1.07200E-05-9.28804E-19-2.09681E-19
 -1      3794 9.28646E-05-2.90409E-05-2.73900E-05-1.10433E-05-1.02876E-18 4.02720E-19
 -1      3795 1.01272E-04-3.69287E-05-2.75234E-05-1.20530E-05-7.57510E-19 3.61026E-19
 -1      3796 9.87816E-05-3.44909E-05-2.74980E-05-1.20035E-05-9.76141E-19 1.45566E-19
 -1      3797 9.52681E-05-3.24833E-05-2.69887E-05-1.31298E-05-9.69437E-19-9.27633E-20
 -1      3798 1.07022E-04-4.22455E-05-2.77173E-05-1.17923E-05-8.47542E-19 8.05111E-19
 -1      3799 1.03667E-04-3.93942E-05-2.74476E-05-1.26026E-05-7.23319E-19 8.55084E-19
 -1      3800 9.93496E-05-3.73792E-05-2.67146E-05-1.50518E-05-9.56216E-19 5.73001E-19
 -1      3801 1.05021E-04-4.30979E-05-2.67112E-05-1.61856E-05-1.10842E-18 4.82908E-19
 -1      3802 9.59870E-05-2.62362E-05-2.99014E-05 4.99356E-07 5.04642E-19 1.11959E-19
 -1      3803 9.57931E-05-2.55030E-05-3.01144E-05 1.02155E-06 3.62111E-19 1.24589E-19
 -1      3804 9.39030E-05-2.62733E-05-2.89896E-05 3.13382E-06-2.80241E-19 2.23958E-18
 -1      3805 1.00936E-04-3.80134E-05-2.68609E-05 1.45081E-05 1.75520E-18 2.86909E-18
 -1      3806 1.04383E-04-4.10449E-05-2.70782E-05 1.40132E-05 7.89680E-19 3.28124E-18
 -1      3807 9.37822E-05-2.82563E-05-2.80740E-05 9.23192E-06 5.95844E-19 2.34683E-18
 -1      3808 9.46969E-05-2.93956E-05-2.79622E-05 9.78980E-06 8.84486E-19 1.99009E-18
 -1      3809 9.29740E-05-2.68212E-05-2.83521E-05 7.80644E-06-6.82660E-19 4.21931E-18
 -1      3810 9.34517E-05-2.74858E-05-2.82491E-05 8.38761E-06-4.64034E-19 2.97325E-18
 -1      3811 9.18910E-05-2.69780E-05-2.78407E-05 9.12849E-06-3.62624E-19 4.22157E-18
 -1      3812 9.27685E-05-2.61039E-05-2.85756E-05 6.52308E-06-2.65250E-19 4.36100E-18
 -1      3813 9.29612E-05-2.64371E-05-2.84948E-05 7.07560E-06-2.27493E-19 3.99724E-18
 -1      3814 9.16083E-05-2.58593E-05-2.81873E-05 7.48514E-06-4.04328E-19 3.18971E-18
 -1      3815 9.29033E-05-2.58556E-05-2.87407E-05 5.39903E-06-5.07619E-19 2.70088E-18
 -1      3816 9.29270E-05-2.59728E-05-2.86835E-05 5.90303E-06-3.83113E-19 3.82021E-18
 -1      3817 9.17854E-05-2.53875E-05-2.84585E-05 6.11089E-06 9.01102E-20 2.59505E-18
 -1      3818 9.31841E-05-2.58735E-05-2.88541E-05 4.42272E-06 1.52519E-19 3.65617E-18
 -1      3819 9.31404E-05-2.58754E-05-2.88185E-05 4.87421E-06 3.19916E-20 3.29506E-18
 -1      3820 9.21934E-05-2.53203E-05-2.86596E-05 4.97036E-06-5.74269E-19 1.81679E-18
 -1      3821 9.38847E-05-2.09690E-05-3.12557E-05-1.14353E-06-7.89794E-20-3.35819E-19
 -1      3822 9.40168E-05-2.12464E-05-3.11980E-05-1.66225E-06-1.26503E-19-3.74078E-19
 -1      3823 9.45842E-05-2.23222E-05-3.09609E-05-1.41441E-06-9.58579E-20-2.47141E-19
 -1      3824 9.45256E-05-2.21257E-05-3.10165E-05-7.48246E-07 1.86219E-20-3.34630E-19
 -1      3825 1.14501E-04-4.83745E-05-2.82459E-05 1.14674E-05-6.80740E-19 2.55412E-18
 -1      3826 7.05232E-05-2.05946E-05-2.13485E-05 1.70064E-05-7.01059E-19-7.12778E-19
 -1      3827 9.52779E-05-2.40852E-05-3.05210E-05-1.46515E-06-1.78796E-19-2.49187E-19
 -1      3828 9.08441E-05-2.38549E-05-2.87141E-05-1.27183E-06 1.24785E-18-6.65621E-19
 -1      3829 9.07225E-05-2.37855E-05-2.86907E-05-6.00939E-07 2.60573E-18-7.87592E-19
 -1      3830 1.08892E-04-4.47110E-05-2.73589E-05 1.37090E-05-5.04977E-19 2.92131E-18
 -1      3831 7.67303E-05-2.50379E-05-2.19415E-05-2.06136E-05 1.09331E-18-5.51193E-19
 -1      3832 8.28132E-05-3.04625E-05-2.22698E-05-2.34276E-05-1.10439E-18 4.83722E-19
 -1      3833 9.27590E-05-3.70754E-05-2.39792E-05-2.26247E-05-1.04931E-18 6.07640E-19
 -1      3834 7.49323E-05-2.18241E-05-2.27546E-05-1.65658E-05 1.15898E-19-1.21232E-20
 -1      3835 9.55956E-05-3.07074E-05-2.77799E-05 1.06480E-05 7.71385E-19 1.50776E-18
 -1      3836 9.71496E-05-3.23664E-05-2.77085E-05 1.10135E-05 1.08289E-18 1.56272E-18
 -1      3837 9.30394E-05-2.91126E-05-2.74395E-05 1.10425E-05 6.56831E-19 2.30431E-18
 -1      3838 9.59169E-05-2.55838E-05-3.01347E-05-8.02905E-07-1.90674E-19-1.94367E-19
 -1      3839 9.60915E-05-2.62810E-05-2.99298E-05-3.34592E-07-7.47065E-20-1.53175E-19
 -1      3840 9.75879E-05-3.37690E-05-2.73149E-05 1.25884E-05 1.53028E-18 1.88851E-18
 -1      3841 1.00101E-04-3.61355E-05-2.73319E-05 1.25656E-05 2.06819E-18 1.89456E-18
 -1      3842 9.46973E-05-3.46789E-05-2.58224E-05 1.71287E-05 2.41095E-18 4.57463E-18
 -1      3843 9.40394E-05-3.14764E-05-2.68171E-05 1.35317E-05 1.90279E-18 1.89182E-18
 -1      3844 9.44775E-05-2.22679E-05-3.09654E-05 2.50941E-06 3.22987E-19-1.00306E-19
 -1      3845 9.42628E-05-2.17644E-05-3.10747E-05 2.09215E-06 2.12537E-19-1.90858E-19
 -1      3846 9.48108E-05-2.27735E-05-3.08545E-05 1.50773E-06 9.05368E-20-2.78410E-20
 -1      3847 9.51054E-05-2.36212E-05-3.06213E-05 2.01326E-06 3.50372E-19-6.16055E-20
 -1      3848 9.28458E-05-2.60530E-05-2.86138E-05-5.92814E-06 3.95729E-19 5.11204E-19
 -1      3849 9.28296E-05-2.59670E-05-2.86624E-05-5.44253E-06 4.48779E-19 5.33227E-19
 -1      3850 9.16849E-05-2.54592E-05-2.83848E-05-6.13104E-06 2.78218E-19 9.12546E-19
 -1      3851 9.47250E-05-2.74176E-05-2.88421E-05-2.44158E-06 8.83170E-20 3.77971E-19
 -1      3852 9.48690E-05-2.75922E-05-2.88371E-05-2.25726E-06 2.05622E-19 6.14695E-19
 -1      3853 9.62747E-05-2.68645E-05-2.97426E-05-2.71253E-08-1.58699E-20-1.98481E-19
 -1      3854 9.63384E-05-2.73168E-05-2.95864E-05 3.07479E-07 8.72889E-20-1.67322E-19
 -1      3855 9.62046E-05-2.63317E-05-2.99408E-05-2.09407E-07-4.79126E-20-3.32691E-20
 -1      3856 9.14424E-05-2.42085E-05-2.88075E-05-2.98904E-06 6.47532E-19-6.77077E-19
 -1      3857 9.34611E-05-2.59597E-05-2.89347E-05 3.30876E-06-1.21513E-19 2.54838E-18
 -1      3858 7.10143E-05-1.84892E-05-2.23871E-05-1.28674E-05-7.15204E-19-1.55309E-18
 -1      3859 9.58710E-05-2.82382E-05-2.89865E-05-1.19665E-06-2.48115E-20 3.91543E-19
 -1      3860 9.59065E-05-2.80893E-05-2.90590E-05-9.84937E-07 8.17890E-20 1.80276E-19
 -1      3861 9.61131E-05-2.78803E-05-2.92448E-05-7.57129E-07 1.59225E-20 2.19783E-19
 -1      3862 9.64358E-05-2.73471E-05-2.96075E-05 3.25196E-07 3.32692E-21 4.23033E-20
 -1      3863 9.60372E-05-2.82362E-05-2.90599E-05-1.17694E-06 1.00608E-19 5.19274E-19
 -1      3864 9.59849E-05-2.83572E-05-2.89828E-05-1.39867E-06 1.60656E-19 5.25123E-19
 -1      3865 9.60725E-05-2.83276E-05-2.90322E-05-1.26512E-06 2.52056E-19 3.63817E-19
 -1      3866 6.25964E-05-1.54980E-05-1.99019E-05-1.00212E-05-8.02587E-19-5.69788E-19
 -1      3867 6.74553E-05-1.83946E-05-2.09720E-05-1.35046E-05-6.34821E-19-6.94183E-19
 -1      3868 9.33318E-05-2.58749E-05-2.89083E-05 3.69149E-06 1.06191E-19 2.81835E-18
 -1      3869 9.11921E-05-3.28193E-05-2.48832E-05 1.84780E-05 3.67779E-18 4.56208E-18
 -1      3870 8.66368E-05-3.17530E-05-2.34557E-05 2.17602E-05 1.20771E-18 3.22450E-18
 -1      3871 8.16389E-05-2.74105E-05-2.32109E-05 1.96494E-05 3.15430E-18 2.58934E-18
 -1      3872 9.11107E-05-2.41861E-05-2.86912E-05 1.62284E-06 1.21715E-18-2.82976E-18
 -1      3873 9.14443E-05-2.44306E-05-2.87148E-05 2.19971E-06 2.52021E-19-1.43740E-18
 -1      3874 9.11982E-05-2.43355E-05-2.86572E-05 2.66946E-06 1.12059E-19-5.06297E-19
 -1      3875 9.18495E-05-2.47747E-05-2.87563E-05 2.69682E-06-3.32044E-20-8.58091E-21
 -1      3876 9.22520E-05-2.50703E-05-2.87931E-05 3.03455E-06-4.80969E-19 1.70022E-18
 -1      3877 9.48780E-05-2.75555E-05-2.88513E-05-2.01618E-06 1.12821E-19 3.66088E-19
 -1      3878 9.51015E-05-2.77848E-05-2.88467E-05-2.10467E-06 2.00806E-20 4.79349E-19
 -1      3879 9.52354E-05-2.79316E-05-2.88475E-05-1.95885E-06 1.07365E-19 2.67998E-19
 -1      3880 9.52960E-05-2.39713E-05-3.05805E-05 1.29866E-06 1.42532E-19 1.22744E-19
 -1      3881 9.51903E-05-2.36302E-05-3.06721E-05 1.02715E-06-1.24306E-20 4.77419E-20
 -1      3882 9.54098E-05-2.42192E-05-3.05082E-05-1.13336E-06-9.95428E-20-1.41155E-19
 -1      3883 9.56146E-05-2.44585E-05-3.04797E-05 6.52302E-07-1.34856E-20-3.20815E-20
 -1      3884 9.51134E-05-2.34195E-05-3.07379E-05 7.94161E-07 5.83431E-21-2.26236E-19
 -1      3885 9.50513E-05-2.32464E-05-3.07810E-05 4.57223E-07 1.67100E-20-5.72643E-19
 -1      3886 9.32768E-05-2.61615E-05-2.87608E-05-3.38760E-06-3.42055E-19 8.24716E-19
 -1      3887 9.38866E-05-2.66056E-05-2.88293E-05-3.42472E-06-2.80638E-19 3.41360E-19
 -1      3888 9.40347E-05-2.67838E-05-2.88281E-05-3.13277E-06-2.46156E-19 6.50034E-19
 -1      3889 9.61648E-05-2.68329E-05-2.97086E-05 1.24584E-07 3.89433E-19 4.31028E-19
 -1      3890 9.61029E-05-2.62666E-05-2.99286E-05 3.46923E-07 2.16108E-19 4.11905E-19
 -1      3891 9.62250E-05-2.72885E-05-2.95494E-05-2.56616E-07 1.70813E-19 5.08439E-19
 -1      3892 7.36908E-05-2.25709E-05-2.18296E-05 1.77927E-05 4.97558E-19-1.05813E-20
 -1      3893 6.69530E-05-1.95708E-05-2.01130E-05 1.71787E-05 3.76271E-19 7.07273E-20
 -1      3894 6.53273E-05-1.73354E-05-2.06429E-05 1.22569E-05 6.73193E-20 7.03673E-19
 -1      3895 6.21154E-05-1.47270E-05-2.03572E-05-5.08091E-06-1.14212E-18-1.05464E-18
 -1      3896 9.10021E-05-2.39290E-05-2.87498E-05-2.36668E-06 1.35862E-18-4.92013E-19
 -1      3897 9.25929E-05-2.53744E-05-2.88071E-05 3.69420E-06-2.99631E-19 2.64521E-18
 -1      3898 9.07256E-05-2.38363E-05-2.86747E-05 2.14960E-07 3.06513E-18-1.27055E-18
 -1      3899 9.08472E-05-2.39362E-05-2.86744E-05 8.89178E-07 2.54581E-18-2.99376E-18
 -1      3900 9.04943E-05-2.37573E-05-2.85941E-05 1.43370E-06 1.70512E-18-1.79279E-18
 -1      3901 9.01793E-05-2.34506E-05-2.85918E-05-1.54085E-07 2.68547E-18-1.07897E-18
 -1      3902 1.00674E-04-4.07545E-05-2.54784E-05-1.94861E-05-1.13427E-18 3.37496E-19
 -1      3903 6.11162E-05-1.44157E-05-1.98814E-05 8.32721E-07-1.27948E-18-3.85162E-19
 -1      3904 9.03060E-05-2.34755E-05-2.86401E-05-2.09771E-06 1.69143E-18-1.21814E-18
 -1      3905 7.87392E-05-2.70650E-05-2.20763E-05-2.17740E-05-1.02177E-18 3.99680E-19
 -1      3906 8.46024E-05-2.90582E-05-2.37034E-05-1.91773E-05-7.31737E-19 6.34679E-19
 -1      3907 7.47257E-05-2.33277E-05-2.20512E-05-1.83145E-05-7.65228E-19-3.34459E-19
 -1      3908 9.21278E-05-2.54681E-05-2.85674E-05-5.01651E-06 2.43287E-19 5.33924E-19
 -1      3909 9.54386E-05-3.63454E-05-2.52696E-05-1.87867E-05-1.10540E-18 7.91794E-20
 -1      3910 9.44665E-05-2.71989E-05-2.88343E-05-2.64074E-06-2.01635E-19 4.56810E-19
 -1      3911 9.43903E-05-2.71187E-05-2.88287E-05-2.36358E-06-1.97167E-20 6.79969E-19
 -1      3912 9.43162E-05-2.70119E-05-2.88401E-05-2.87459E-06-3.23374E-19 5.71739E-19
 -1      3913 6.88434E-05-1.68300E-05-2.23111E-05-9.10211E-06-1.34551E-18-6.52407E-19
 -1      3914 9.57376E-05-2.82856E-05-2.89062E-05-1.61700E-06 2.34098E-19 4.08442E-19
 -1      3915 9.58444E-05-2.83325E-05-2.89339E-05-1.50136E-06 3.34383E-19 5.16003E-19
 -1      3916 9.60026E-05-2.82957E-05-2.90179E-05-1.30833E-06 2.61949E-19 3.19548E-19
 -1      3917 7.10657E-05-1.83430E-05-2.26746E-05-1.05055E-05-1.28450E-18-6.36320E-19
 -1      3918 7.27814E-05-2.06820E-05-2.22059E-05-1.51373E-05-8.50132E-19-7.94504E-19
 -1      3919 7.79942E-05-2.30061E-05-2.35974E-05-1.50419E-05-1.26386E-18 4.25273E-19
 -1      3920 9.64027E-05-2.81403E-05-2.92549E-05 7.34585E-07 5.27416E-20-3.44919E-19
 -1      3921 9.62850E-05-2.82084E-05-2.91767E-05 8.52440E-07-1.20861E-19-4.21010E-19
 -1      3922 9.61189E-05-2.82088E-05-2.91048E-05 9.18195E-07-5.30277E-20-5.42922E-19
 -1      3923 9.59452E-05-2.81603E-05-2.90509E-05 1.01431E-06 4.13729E-20-3.66256E-19
 -1      3924 9.62419E-05-2.81571E-05-2.91782E-05 6.89320E-07-1.80090E-20-3.71857E-19
 -1      3925 9.57154E-05-2.80526E-05-2.89998E-05 1.07203E-06-1.72664E-20-1.64577E-19
 -1      3926 9.54928E-05-2.79100E-05-2.89639E-05 1.16254E-06-5.01623E-21-1.54320E-19
 -1      3927 9.58492E-05-2.80564E-05-2.90525E-05 8.15468E-07 1.19408E-20-1.22625E-19
 -1      3928 9.52036E-05-2.77126E-05-2.89274E-05 1.22270E-06-5.73428E-20-1.78083E-19
 -1      3929 9.49321E-05-2.74911E-05-2.89033E-05 1.32080E-06-3.41998E-19-7.60483E-20
 -1      3930 9.53351E-05-2.77509E-05-2.89623E-05 9.30788E-07-1.33589E-19-1.04976E-19
 -1      3931 9.45822E-05-2.72171E-05-2.88747E-05 1.39068E-06-4.24690E-19 2.13198E-19
 -1      3932 9.42556E-05-2.69260E-05-2.88560E-05 1.50534E-06-1.41599E-19 3.02988E-19
 -1      3933 9.47025E-05-2.72738E-05-2.88943E-05 1.05276E-06-6.02501E-20 1.05100E-19
 -1      3934 9.38367E-05-2.65828E-05-2.88284E-05 1.58923E-06-2.81020E-19 3.33184E-20
 -1      3935 9.34434E-05-2.62276E-05-2.88080E-05 1.72659E-06-4.26235E-19-2.72596E-19
 -1      3936 9.39421E-05-2.66482E-05-2.88350E-05 1.18912E-06-3.78641E-19-9.08150E-20
 -1      3937 9.29419E-05-2.58206E-05-2.87730E-05 1.82709E-06-8.96839E-20-4.05542E-19
 -1      3938 9.24672E-05-2.54079E-05-2.87423E-05 1.99021E-06 4.73075E-20-3.18553E-19
 -1      3939 9.30330E-05-2.58867E-05-2.87692E-05 1.34420E-06-3.39821E-19-5.41444E-19
 -1      3940 9.18650E-05-2.49418E-05-2.86900E-05 2.10399E-06-3.04816E-21-4.76929E-19
 -1      3941 9.12876E-05-2.44747E-05-2.86385E-05 2.29309E-06-2.92100E-19-1.33615E-19
 -1      3942 9.19437E-05-2.50031E-05-2.86779E-05 1.51848E-06 2.78696E-20-5.79043E-19
 -1      3943 9.05598E-05-2.39541E-05-2.85564E-05 2.41950E-06-7.55614E-19-1.19429E-19
 -1      3944 8.98565E-05-2.34410E-05-2.84703E-05 2.63530E-06-7.50870E-19-1.77737E-19
 -1      3945 9.06304E-05-2.40061E-05-2.85389E-05 1.69723E-06-6.04408E-19-3.65628E-19
 -1      3946 8.89736E-05-2.28756E-05-2.83420E-05 2.77040E-06-3.28254E-19-2.65996E-19
 -1      3947 8.81151E-05-2.23292E-05-2.82032E-05 3.01519E-06-1.26967E-19-3.02285E-19
 -1      3948 8.90434E-05-2.29103E-05-2.83231E-05 1.87703E-06-3.91410E-19-3.87192E-19
 -1      3949 8.70339E-05-2.17302E-05-2.80065E-05 3.15759E-06 6.58452E-20 9.39324E-20
 -1      3950 8.59833E-05-2.11670E-05-2.77905E-05 3.44357E-06 9.49612E-20 2.84778E-19
 -1      3951 8.71111E-05-2.17352E-05-2.79919E-05 2.04173E-06 1.47492E-19-3.33242E-20
 -1      3952 8.46402E-05-2.05487E-05-2.74951E-05 3.60410E-06-2.35166E-19 3.63594E-19
 -1      3953 8.33500E-05-1.99942E-05-2.71677E-05 3.96516E-06-3.63514E-19 5.28481E-19
 -1      3954 8.47315E-05-2.04967E-05-2.74929E-05 2.18701E-06-8.13780E-20 4.56222E-19
 -1      3955 8.16423E-05-1.93697E-05-2.67289E-05 4.17263E-06-3.08009E-19 7.30414E-19
 -1      3956 8.00430E-05-1.88553E-05-2.62413E-05 4.68591E-06 2.94179E-19 7.78816E-19
 -1      3957 8.17495E-05-1.92090E-05-2.67512E-05 2.33402E-06-2.27317E-19 1.05704E-18
 -1      3958 7.77976E-05-1.82304E-05-2.55903E-05 5.00913E-06 4.05745E-19 3.52760E-19
 -1      3959 7.57870E-05-1.77920E-05-2.48675E-05 5.82428E-06 2.30599E-19 1.78251E-19
 -1      3960 7.79009E-05-1.78615E-05-2.56529E-05 2.54410E-06-7.55588E-20 6.94175E-19
 -1      3961 7.26945E-05-1.71116E-05-2.38833E-05 6.46201E-06-1.91774E-20-1.04390E-19
 -1      3962 7.02209E-05-1.69245E-05-2.28004E-05 7.76627E-06-7.37632E-19 1.81672E-19
 -1      3963 7.27239E-05-1.63992E-05-2.40090E-05 2.95751E-06 9.81797E-20 1.85704E-19
 -1      3964 6.76414E-05-1.74920E-05-2.14527E-05 1.20967E-05-1.21465E-18 2.46804E-19
 -1      3965 7.30209E-05-1.73097E-05-2.38493E-05-6.81981E-06 5.55291E-19-9.82788E-19
 -1      3966 7.51899E-05-1.76487E-05-2.47360E-05-5.75799E-06 1.78409E-18-2.93431E-19
 -1      3967 9.54576E-05-2.44418E-05-3.04351E-05 1.26588E-06 2.49089E-19 9.63390E-20
 -1      3968 9.57897E-05-2.51536E-05-3.02678E-05 7.69648E-07 2.21144E-19 1.46096E-19
 -1      3969 7.78749E-05-1.82668E-05-2.55591E-05-5.29030E-06 2.15713E-18-1.45053E-19
 -1      3970 7.96785E-05-1.87338E-05-2.61722E-05-4.62630E-06 1.84067E-18 2.28670E-19
 -1      3971 7.52579E-05-1.71074E-05-2.48429E-05-2.75163E-06 1.67939E-18-3.12185E-19
 -1      3972 8.16713E-05-1.93503E-05-2.67253E-05-4.36538E-06 1.78638E-18 2.70656E-19
 -1      3973 8.31215E-05-1.98666E-05-2.71426E-05-3.92773E-06 2.44492E-18-1.84991E-19
 -1      3974 7.97904E-05-1.84621E-05-2.62214E-05-2.44183E-06 1.95484E-18 4.17170E-19
 -1      3975 8.46490E-05-2.04667E-05-2.75205E-05-3.73986E-06 2.62811E-18-6.60344E-19
 -1      3976 8.58244E-05-2.10043E-05-2.78034E-05-3.40749E-06 2.75393E-18-5.71730E-19
 -1      3977 8.32229E-05-1.97509E-05-2.71596E-05-2.28775E-06 2.04769E-18 6.37317E-19
 -1      3978 8.70344E-05-2.15784E-05-2.80621E-05-3.25312E-06 2.48301E-18-1.35738E-18
 -1      3979 8.79704E-05-2.21012E-05-2.82511E-05-2.96188E-06 1.90754E-18-1.12986E-18
 -1      3980 8.59108E-05-2.09673E-05-2.78037E-05-2.13075E-06 2.24814E-18-1.76623E-18
 -1      3981 8.88269E-05-2.25665E-05-2.84021E-05-2.61780E-06 1.93849E-18-1.71703E-18
 -1      3982 8.95832E-05-2.30478E-05-2.85300E-05-2.37819E-06 2.16572E-18-9.95017E-19
 -1      3983 8.94823E-05-2.29672E-05-2.84953E-05-1.21458E-06 2.32117E-18-1.91320E-18
 -1      3984 8.79237E-05-2.20291E-05-2.82203E-05-1.74813E-06 2.27210E-18-3.96235E-18
 -1      3985 9.50171E-05-2.31686E-05-3.08025E-05 1.86712E-07 3.34924E-20-6.76117E-19
 -1      3986 9.50155E-05-2.31475E-05-3.08051E-05-1.64054E-07 5.95314E-20-4.68333E-19
 -1      3987 9.55481E-05-2.41775E-05-3.05664E-05 2.42109E-07 1.29609E-19-5.79923E-19
 -1      3988 9.08142E-05-2.46297E-05-2.83772E-05 5.40846E-06-1.30715E-19 3.03733E-18
 -1      3989 9.06508E-05-2.46979E-05-2.82522E-05 6.02107E-06 8.00420E-19 2.80297E-18
 -1      3990 9.19426E-05-2.52170E-05-2.85905E-05-3.91946E-06-7.03762E-20 6.93657E-19
 -1      3991 9.22381E-05-2.54301E-05-2.86417E-05-3.52919E-06-3.04792E-19 5.39381E-19
 -1      3992 9.00796E-05-2.60804E-05-2.73902E-05-9.40746E-06-4.08916E-19 1.40643E-18
 -1      3993 8.97489E-05-2.54063E-05-2.75924E-05-8.51600E-06 2.61599E-19 1.13023E-18
 -1      3994 9.00846E-05-2.50813E-05-2.78357E-05-7.52539E-06 4.79632E-19 9.66872E-19
 -1      3995 9.00823E-05-2.47934E-05-2.79955E-05-6.78530E-06 5.81368E-19 1.07170E-18
 -1      3996 8.83093E-05-2.42114E-05-2.74594E-05-7.77644E-06 2.25590E-19 1.67886E-18
 -1      3997 9.30269E-05-3.15669E-05-2.62858E-05-1.45119E-05-5.69632E-19-2.45203E-19
 -1      3998 9.12380E-05-2.94344E-05-2.64792E-05-1.33842E-05-1.10493E-18-1.90152E-19
 -1      3999 9.31914E-05-3.36019E-05-2.54798E-05-1.74373E-05-7.56781E-19-5.90193E-20
 -1      4000 6.36713E-05-1.47581E-05-2.07810E-05 5.81272E-06-6.41654E-19 1.09446E-18
 -1      4001 6.49359E-05-1.48757E-05-2.14562E-05-1.92679E-06-1.40560E-18 2.32378E-19
 -1      4002 9.02089E-05-2.47591E-05-2.80646E-05 6.77492E-06 4.60517E-19 2.59810E-18
 -1      4003 9.02143E-05-2.50679E-05-2.78992E-05 7.52515E-06-1.89817E-19 2.82178E-18
 -1      4004 8.92597E-05-2.39503E-05-2.79861E-05 6.02034E-06 4.29553E-19 3.00556E-18
 -1      4005 9.05289E-05-2.47506E-05-2.81767E-05-6.03325E-06 1.69126E-19 1.17233E-18
 -1      4006 9.07024E-05-2.47141E-05-2.82939E-05-5.42880E-06 1.05810E-20 8.27720E-19
 -1      4007 8.91220E-05-2.39875E-05-2.79080E-05-6.04043E-06 2.27858E-19 1.42935E-18
 -1      4008 9.64704E-05-2.70680E-05-2.97420E-05 1.40311E-07-5.85889E-20 1.43269E-20
 -1      4009 9.65224E-05-2.74759E-05-2.95955E-05 3.63981E-07-1.10043E-19-4.49286E-20
 -1      4010 9.55702E-05-2.48942E-05-3.02959E-05 1.40664E-06 3.57886E-19 1.07628E-19
 -1      4011 8.98891E-05-2.54023E-05-2.76513E-05 8.50777E-06-4.13872E-19 4.50527E-18
 -1      4012 9.02018E-05-2.60968E-05-2.74442E-05 9.41931E-06 2.71106E-20 4.55082E-18
 -1      4013 8.84605E-05-2.42314E-05-2.75292E-05 7.74932E-06 5.40471E-19 3.39946E-18
 -1      4014 9.15264E-05-2.48041E-05-2.86068E-05 4.32446E-06-3.30074E-19 2.42092E-18
 -1      4015 9.12853E-05-2.47295E-05-2.85155E-05 4.82040E-06-4.33594E-19 2.28135E-18
 -1      4016 9.01829E-05-2.40712E-05-2.83273E-05 4.71747E-06 2.35924E-19 3.49226E-18
 -1      4017 6.41402E-05-1.43381E-05-2.11632E-05 1.25189E-06-8.04991E-19-6.08461E-19
 -1      4018 6.75795E-05-1.56993E-05-2.22005E-05-2.47724E-06-6.63538E-19-7.90672E-19
 -1      4019 9.08550E-05-2.80939E-05-2.68471E-05-1.17611E-05-1.07800E-18 2.79786E-19
 -1      4020 8.99783E-05-2.68399E-05-2.70790E-05-1.07227E-05-5.95824E-19 7.18036E-19
 -1      4021 8.78167E-05-2.50902E-05-2.68679E-05-1.00840E-05-2.18219E-20 1.13908E-18
 -1      4022 9.55553E-05-2.52320E-05-3.01448E-05 1.68873E-06 4.48977E-19 1.16927E-19
 -1      4023 9.54685E-05-2.48222E-05-3.02815E-05 1.75686E-06 4.03500E-19 1.19910E-19
 -1      4024 6.61921E-05-1.57855E-05-2.15965E-05 7.54698E-06-8.77089E-19 1.13304E-19
 -1      4025 9.60935E-05-2.59670E-05-3.00538E-05 4.53262E-07 1.70146E-19 3.96599E-19
 -1      4026 9.59653E-05-2.55278E-05-3.01904E-05 4.96631E-07 3.22083E-23 3.28125E-19
 -1      4027 9.62551E-05-2.65893E-05-2.98596E-05 7.30416E-08 1.00208E-19 5.46894E-19
 -1      4028 8.83025E-05-3.03119E-05-2.48822E-05-1.77891E-05-7.83529E-19-3.04723E-19
 -1      4029 9.01047E-05-2.68104E-05-2.71286E-05 1.06790E-05-9.24449E-19 3.24032E-18
 -1      4030 9.07735E-05-2.80826E-05-2.68866E-05 1.17923E-05-3.91187E-19 1.78161E-18
 -1      4031 8.80194E-05-2.51934E-05-2.69331E-05 1.00279E-05-1.59552E-18 4.18855E-18
 -1      4032 9.54407E-05-2.80840E-05-2.88645E-05-1.83997E-06 2.43463E-19 2.20704E-19
 -1      4033 9.55620E-05-2.81883E-05-2.88762E-05-1.71852E-06 1.92648E-19 2.64689E-19
 -1      4034 9.56894E-05-2.81768E-05-2.89342E-05-1.52013E-06 2.77116E-19 2.02093E-19
 -1      4035 9.53123E-05-2.79187E-05-2.88825E-05-1.74440E-06 1.05977E-19 3.73724E-19
 -1      4036 9.62629E-05-2.79265E-05-2.92899E-05-7.79523E-07-4.18592E-20 5.73200E-19
 -1      4037 9.62758E-05-2.76571E-05-2.94040E-05-5.17675E-07 1.00909E-19 4.30887E-19
 -1      4038 9.63455E-05-2.73092E-05-2.95863E-05-2.95700E-07 1.11239E-19 5.82105E-19
 -1      4039 9.61433E-05-2.58936E-05-3.01035E-05-3.52371E-07 4.38428E-20-4.76240E-20
 -1      4040 9.63192E-05-2.65378E-05-2.99137E-05-3.77151E-08 1.66211E-19 6.09435E-20
 -1      4041 9.64059E-05-2.66420E-05-2.98930E-05 1.58096E-08-4.01296E-21-1.88186E-19
 -1      4042 9.61687E-05-2.82568E-05-2.91061E-05-1.13845E-06 2.98468E-19 3.31246E-19
 -1      4043 9.62274E-05-2.81248E-05-2.91840E-05-9.58192E-07 7.23902E-20 3.22604E-19
 -1      4044 9.63660E-05-2.79289E-05-2.93303E-05-7.48037E-07 1.43298E-19 3.22273E-19
 -1      4045 9.62373E-05-2.82323E-05-2.91456E-05-1.06735E-06 2.43552E-19 2.02957E-19
 -1      4046 6.83875E-05-1.57144E-05-2.24670E-05-4.85010E-06-5.64567E-19 4.26825E-22
 -1      4047 9.11941E-05-2.48529E-05-2.84227E-05-4.85021E-06 1.57404E-19 1.07150E-18
 -1      4048 9.14559E-05-2.49764E-05-2.85027E-05-4.36336E-06 2.75691E-19 9.43226E-19
 -1      4049 9.10545E-05-2.46308E-05-2.84601E-05-3.74033E-06 7.29731E-20 1.15690E-18
 -1      4050 9.65366E-05-2.77870E-05-2.94630E-05 4.87329E-07 9.62275E-21-2.40239E-19
 -1      4051 9.64903E-05-2.80031E-05-2.93540E-05 6.47404E-07 3.52519E-20-3.05099E-19
 -1      4052 9.65688E-05-2.75291E-05-2.95863E-05 3.18024E-07-1.21819E-19-2.40289E-19
 -1      4053 8.48283E-05-2.71164E-05-2.46543E-05-1.63513E-05-8.31763E-19 2.72691E-19
 -1      4054 9.64942E-05-2.80035E-05-2.93520E-05 5.32424E-07-1.11373E-19-4.65381E-19
 -1      4055 8.96775E-05-2.32817E-05-2.84685E-05 1.29110E-06 2.10011E-18-7.17021E-19
 -1      4056 9.00085E-05-2.35214E-05-2.84869E-05 2.05267E-06 9.07294E-19-9.90162E-19
 -1      4057 9.03901E-05-3.11326E-05-2.54823E-05 1.66556E-05 5.41613E-18 2.29014E-18
 -1      4058 8.81180E-05-2.70929E-05-2.61309E-05-1.31385E-05-6.70936E-19-9.57867E-20
 -1      4059 9.46605E-05-2.73385E-05-2.88499E-05-1.83772E-06 1.27716E-19 4.87878E-19
 -1      4060 9.48938E-05-2.75522E-05-2.88644E-05-1.68901E-06 9.04170E-21 4.41106E-19
 -1      4061 9.40700E-05-2.68320E-05-2.88136E-05-2.17641E-06-1.38068E-19 8.83521E-19
 -1      4062 9.43295E-05-2.70788E-05-2.88268E-05-1.98583E-06 6.93194E-20 7.14040E-19
 -1      4063 9.43592E-05-2.70647E-05-2.88375E-05-1.64508E-06 2.81234E-20 4.94409E-19
 -1      4064 9.50546E-05-2.32903E-05-3.07545E-05-1.20872E-06-2.74159E-20-1.84249E-19
 -1      4065 9.57197E-05-2.48876E-05-3.03650E-05-6.21709E-07-5.96006E-20-1.47601E-19
 -1      4066 7.08604E-05-1.62711E-05-2.34752E-05-6.78255E-07-5.27238E-19-5.01523E-19
 -1      4067 7.01467E-05-1.65541E-05-2.28340E-05-6.48527E-06-1.10140E-18-7.66525E-19
 -1      4068 7.41638E-05-1.85468E-05-2.38501E-05-8.02408E-06-1.14211E-18-9.43419E-19
 -1      4069 7.40261E-05-1.70094E-05-2.44795E-05-6.38524E-07-1.91867E-19 1.07199E-19
 -1      4070 9.59342E-05-2.53426E-05-3.02600E-05 3.61669E-07-6.06798E-20 5.56409E-20
 -1      4071 9.26967E-05-2.57203E-05-2.86997E-05-3.18832E-06-3.97099E-19 6.55348E-19
 -1      4072 9.29941E-05-2.59744E-05-2.87307E-05-2.87817E-06-4.20276E-19 6.59667E-19
 -1      4073 9.19981E-05-2.52184E-05-2.86134E-05-2.98715E-06-2.83217E-19 7.56001E-19
 -1      4074 6.88072E-05-1.71991E-05-2.20060E-05 8.57239E-06-8.68730E-20 1.21995E-18
 -1      4075 7.90718E-05-2.51679E-05-2.31185E-05 1.81648E-05 3.55471E-18 4.37451E-18
 -1      4076 7.62077E-05-2.22857E-05-2.31914E-05 1.49839E-05 3.40323E-18 3.61606E-18
 -1      4077 8.34556E-05-2.68086E-05-2.44180E-05 1.66846E-05 7.64535E-18 6.88006E-18
 -1      4078 9.06684E-05-2.88751E-05-2.64549E-05 1.31254E-05 6.16970E-19 1.47955E-18
 -1      4079 6.96883E-05-1.58013E-05-2.31454E-05-2.68645E-07 1.28928E-19 1.08563E-18
 -1      4080 9.49782E-05-2.31059E-05-3.08005E-05-9.06358E-07 1.49643E-20-2.20037E-19
 -1      4081 8.94246E-05-2.30117E-05-2.84727E-05-3.55854E-07 3.15344E-18-1.16976E-18
 -1      4082 8.94759E-05-2.30700E-05-2.84562E-05 4.79345E-07 3.31643E-18-5.32906E-19
 -1      4083 8.89455E-05-2.28150E-05-2.83384E-05 1.11772E-06 2.72119E-18 5.89507E-19
 -1      4084 8.87123E-05-2.25665E-05-2.83491E-05-5.58164E-07 3.34007E-18-2.50745E-18
 -1      4085 9.49736E-05-2.30844E-05-3.08172E-05-5.80583E-07 1.01113E-19-2.05645E-19
 -1      4086 9.38529E-05-2.66398E-05-2.88030E-05-2.81231E-06-2.92851E-19 7.51574E-19
 -1      4087 8.98500E-05-2.35864E-05-2.83990E-05 3.08173E-06 8.82158E-19 2.95244E-19
 -1      4088 9.06414E-05-2.40728E-05-2.85353E-05 3.13499E-06 5.34990E-19 5.50141E-19
 -1      4089 9.20370E-05-2.50089E-05-2.87190E-05 3.79072E-06 6.28657E-23 1.83062E-18
 -1      4090 9.00727E-05-2.41779E-05-2.82333E-05-4.72949E-06 4.03322E-20 1.24281E-18
 -1      4091 9.58501E-05-2.50655E-05-3.03316E-05-4.20654E-07 4.69502E-20-1.00747E-19
 -1      4092 9.11729E-05-2.44433E-05-2.85895E-05 3.61997E-06-6.19300E-21 9.71334E-19
 -1      4093 9.62840E-05-2.82434E-05-2.91612E-05-9.76666E-07 2.43711E-19 7.54242E-20
 -1      4094 9.63792E-05-2.81491E-05-2.92404E-05-8.37904E-07 3.15053E-19 9.36637E-21
 -1      4095 9.60032E-05-2.82566E-05-2.90342E-05-1.18015E-06 3.87555E-19 2.14789E-20
 -1      4096 9.61438E-05-2.82714E-05-2.90879E-05-1.06611E-06 3.01663E-19-6.08857E-22
 -1      4097 9.62730E-05-2.82002E-05-2.91735E-05-8.48326E-07 3.07856E-19-2.13394E-19
 -1      4098 9.54588E-05-2.40314E-05-3.06042E-05-3.69171E-07 7.64446E-20-3.64760E-19
 -1      4099 8.20671E-05-2.45546E-05-2.46927E-05-1.39762E-05-9.86244E-19 2.01650E-19
 -1      4100 9.64046E-05-2.71232E-05-2.96909E-05-1.56106E-07 2.19716E-19 5.34088E-19
 -1      4101 9.63789E-05-2.68289E-05-2.98087E-05-6.50319E-08 1.94487E-19 2.94652E-19
 -1      4102 9.64442E-05-2.75151E-05-2.95434E-05-4.24579E-07 2.04720E-19 3.75439E-19
 -1      4103 9.59831E-05-2.81014E-05-2.90932E-05 5.31655E-07-3.47546E-20-1.27724E-19
 -1      4104 9.57535E-05-2.79966E-05-2.90395E-05 5.89592E-07-5.22148E-20-1.67134E-19
 -1      4105 9.54766E-05-2.78374E-05-2.89898E-05 6.07905E-07-1.51101E-19-1.42664E-19
 -1      4106 9.51870E-05-2.76382E-05-2.89506E-05 6.62257E-07-1.67264E-19-1.23026E-19
 -1      4107 9.56160E-05-2.78847E-05-2.90257E-05 3.24018E-07-5.87872E-20-2.22550E-19
 -1      4108 9.48476E-05-2.73921E-05-2.89119E-05 6.79482E-07-1.69283E-19-2.22688E-19
 -1      4109 9.44962E-05-2.71140E-05-2.88803E-05 7.34633E-07-1.79507E-19-3.12202E-19
 -1      4110 9.50077E-05-2.74797E-05-2.89362E-05 3.54878E-07-3.24813E-19 6.90775E-20
 -1      4111 9.40867E-05-2.67898E-05-2.88454E-05 7.54535E-07-2.99564E-19-4.75380E-19
 -1      4112 9.36691E-05-2.64417E-05-2.88145E-05 8.15309E-07-5.57353E-19-5.20704E-19
 -1      4113 9.42590E-05-2.68983E-05-2.88613E-05 3.77668E-07-4.02557E-19-4.19537E-19
 -1      4114 9.31855E-05-2.60542E-05-2.87755E-05 8.33363E-07-4.90604E-19-3.79837E-19
 -1      4115 9.26875E-05-2.56425E-05-2.87368E-05 8.97700E-07-7.35154E-20-2.81411E-19
 -1      4116 9.33764E-05-2.61888E-05-2.87856E-05 3.83313E-07-1.22966E-19-3.51755E-19
 -1      4117 9.21172E-05-2.51996E-05-2.86846E-05 8.97306E-07 9.51877E-20-3.78150E-19
 -1      4118 9.15070E-05-2.47291E-05-2.86278E-05 9.53068E-07-9.43356E-20-4.27866E-19
 -1      4119 9.23597E-05-2.53761E-05-2.86939E-05 3.70964E-07-3.37204E-20-2.35290E-19
 -1      4120 9.08281E-05-2.42271E-05-2.85512E-05 9.54961E-07-1.83107E-20-2.57323E-19
 -1      4121 9.00967E-05-2.37067E-05-2.84640E-05 1.00162E-06-2.58871E-19 2.91882E-19
 -1      4122 9.10903E-05-2.43949E-05-2.85610E-05 3.27725E-07 1.31496E-19-4.78671E-19
 -1      4123 8.92886E-05-2.31671E-05-2.83484E-05 9.70974E-07-4.23877E-19 5.16597E-19
 -1      4124 8.84000E-05-2.26054E-05-2.82138E-05 9.94527E-07-1.74795E-19 5.72491E-19
 -1      4125 8.96291E-05-2.33600E-05-2.83662E-05 2.06114E-07-1.30514E-19 1.85487E-19
 -1      4126 8.74279E-05-2.20312E-05-2.80406E-05 9.21473E-07 2.65132E-20 9.20702E-19
 -1      4127 8.63366E-05-2.14380E-05-2.78366E-05 9.11944E-07 2.44955E-19 9.56218E-19
 -1      4128 8.78677E-05-2.22512E-05-2.80746E-05-2.15293E-08 1.04637E-19 8.75699E-19
 -1      4129 8.51535E-05-2.08394E-05-2.75806E-05 7.79618E-07 2.24666E-19 1.09614E-18
 -1      4130 8.38030E-05-2.02249E-05-2.72766E-05 7.35646E-07-1.78018E-20 1.15974E-18
 -1      4131 8.57290E-05-2.10940E-05-2.76430E-05-4.10526E-07 5.14499E-19 1.22765E-18
 -1      4132 8.23278E-05-1.96133E-05-2.69020E-05 5.00335E-07-3.19361E-19 1.17309E-18
 -1      4133 8.06010E-05-1.89747E-05-2.64524E-05 4.24393E-07-4.63420E-20 1.22592E-18
 -1      4134 8.31362E-05-1.99350E-05-2.70145E-05-1.02420E-06-1.13449E-19 5.01056E-19
 -1      4135 7.87595E-05-1.83608E-05-2.59199E-05 2.36227E-08-2.34352E-19 9.17282E-19
 -1      4136 7.64646E-05-1.76807E-05-2.52558E-05-6.96795E-08-3.14800E-19 6.45790E-19
 -1      4137 7.57369E-05-1.75392E-05-2.48198E-05-3.42436E-06-6.23201E-19-2.23731E-19
 -1      4138 7.99211E-05-1.87662E-05-2.61144E-05-1.96883E-06-3.51182E-19 5.66478E-19
 -1      4139 9.62881E-05-2.61818E-05-3.00331E-05 1.64509E-07 1.82002E-20-1.89104E-19
 -1      4140 9.59520E-05-2.52635E-05-3.03023E-05 2.58053E-07 5.02296E-20-3.85416E-19
 -1      4141 8.90315E-05-2.35079E-05-2.80743E-05-4.31021E-06 1.28077E-19 4.20386E-19
 -1      4142 8.95223E-05-2.37368E-05-2.82148E-05-3.79493E-06 1.77059E-19 5.48328E-19
 -1      4143 9.02386E-05-2.40724E-05-2.83524E-05-3.33897E-06-9.58950E-21 7.01297E-19
 -1      4144 9.07238E-05-2.43800E-05-2.84487E-05-2.94843E-06-1.33677E-19 4.45103E-19
 -1      4145 8.92919E-05-2.33998E-05-2.82058E-05-2.93144E-06 2.07289E-19-1.48755E-19
 -1      4146 7.85939E-05-1.83027E-05-2.58672E-05-1.82087E-07 1.96494E-18 1.60601E-18
 -1      4147 8.05172E-05-1.89382E-05-2.64265E-05-3.23630E-07 2.28289E-18 1.71152E-18
 -1      4148 8.21788E-05-1.94896E-05-2.68997E-05-5.90652E-07 1.85868E-18 1.38119E-19
 -1      4149 8.37290E-05-2.00980E-05-2.72870E-05-6.31122E-07 1.60739E-18 7.48919E-19
 -1      4150 8.14242E-05-1.92467E-05-2.65915E-05 1.54599E-06 1.50987E-18 8.73728E-19
 -1      4151 8.50537E-05-2.06828E-05-2.76131E-05-8.33377E-07 6.83110E-19-4.81085E-19
 -1      4152 8.62706E-05-2.12667E-05-2.78782E-05-8.39250E-07 5.97504E-19-3.11190E-18
 -1      4153 8.44321E-05-2.04297E-05-2.73860E-05 7.77740E-07 1.24061E-19-5.95583E-19
 -1      4154 8.71205E-05-2.16818E-05-2.80506E-05-8.17382E-07 1.02724E-18-3.10464E-18
 -1      4155 8.79851E-05-2.21771E-05-2.82172E-05-5.63026E-07 1.95853E-18-2.95035E-18
 -1      4156 8.80525E-05-2.22295E-05-2.81958E-05 3.16141E-07 2.42849E-18 1.74840E-19
 -1      4157 8.65444E-05-2.14327E-05-2.78861E-05 4.28033E-07-4.49814E-19-1.32534E-18
 -1      4158 7.25806E-05-1.88428E-05-2.29614E-05 1.10568E-05 7.72999E-19 2.33542E-18
 -1      4159 7.05186E-05-1.67044E-05-2.31060E-05 5.45585E-06 3.42344E-19 2.26983E-18
 -1      4160 7.76022E-05-2.11440E-05-2.40988E-05 1.14571E-05 3.90361E-18 5.56442E-18
 -1      4161 9.49735E-05-2.75583E-05-2.88902E-05-1.39387E-06 1.36769E-19 7.39023E-19
 -1      4162 9.51810E-05-2.77652E-05-2.88906E-05-1.57697E-06 2.88645E-20 5.73245E-19
 -1      4163 9.53865E-05-2.79312E-05-2.89123E-05-1.45633E-06 1.93384E-19 4.36801E-19
 -1      4164 9.63528E-05-2.63323E-05-3.00130E-05-9.88817E-08 5.05871E-20-2.55916E-19
 -1      4165 9.65049E-05-2.68854E-05-2.98400E-05 1.03306E-07-1.23066E-19-3.75820E-19
 -1      4166 8.77562E-05-2.31690E-05-2.76764E-05-5.64014E-06 2.86797E-19 7.67384E-20
 -1      4167 8.82255E-05-2.32462E-05-2.78764E-05-4.93397E-06 3.59668E-19 4.03933E-19
 -1      4168 8.78042E-05-2.26931E-05-2.78607E-05-3.90497E-06 2.86925E-19-5.88927E-19
 -1      4169 9.64337E-05-2.80157E-05-2.93240E-05-7.50376E-07 4.40572E-19-9.65962E-20
 -1      4170 9.64697E-05-2.77872E-05-2.94340E-05-5.60507E-07 3.50427E-19 2.46648E-19
 -1      4171 9.65077E-05-2.75992E-05-2.95311E-05-4.32997E-07 3.46492E-19-1.04038E-19
 -1      4172 9.64683E-05-2.80184E-05-2.93352E-05-6.64911E-07 3.56952E-19-1.31416E-19
 -1      4173 8.70748E-05-2.30455E-05-2.74726E-05 6.48090E-06 9.38510E-19 1.63444E-18
 -1      4174 8.67573E-05-2.32329E-05-2.72007E-05 7.44751E-06 4.22396E-19 1.97875E-18
 -1      4175 7.80563E-05-2.06849E-05-2.44536E-05-1.10949E-05-7.54864E-19 7.01135E-20
 -1      4176 8.38992E-05-2.46997E-05-2.53856E-05-1.27526E-05-7.47287E-19 2.59877E-20
 -1      4177 8.36938E-05-2.36001E-05-2.58390E-05-1.09352E-05-5.31666E-19 1.28177E-19
 -1      4178 7.62946E-05-1.91578E-05-2.45698E-05-7.47224E-06-7.52658E-19-1.02268E-18
 -1      4179 8.49186E-05-2.33409E-05-2.63765E-05-9.36258E-06-1.92607E-19 2.16155E-19
 -1      4180 8.51399E-05-2.28878E-05-2.67337E-05-8.07998E-06 1.72394E-19 1.95208E-19
 -1      4181 8.14355E-05-2.11321E-05-2.57461E-05-8.51477E-06-4.49564E-19-2.59913E-19
 -1      4182 8.83790E-05-2.31992E-05-2.79591E-05 4.92750E-06 3.82262E-19 2.10096E-18
 -1      4183 8.79441E-05-2.31465E-05-2.77546E-05 5.63623E-06 8.45805E-19 2.04490E-18
 -1      4184 8.63276E-05-2.22085E-05-2.74472E-05 5.35579E-06 1.12612E-20 7.27926E-19
 -1      4185 9.65938E-05-2.73358E-05-2.96834E-05 1.49709E-07-1.29374E-19-1.48734E-19
 -1      4186 9.66141E-05-2.76706E-05-2.95485E-05 2.83901E-07-6.05663E-20-2.37429E-19
 -1      4187 9.65548E-05-2.70243E-05-2.97971E-05 6.55250E-08-1.84471E-20-2.94634E-19
 -1      4188 8.63433E-05-2.30469E-05-2.71237E-05-7.21777E-06 8.46189E-20 3.81098E-19
 -1      4189 8.67535E-05-2.29119E-05-2.73970E-05-6.26537E-06-1.06723E-20 2.47438E-19
 -1      4190 8.60532E-05-2.20399E-05-2.73740E-05-5.02361E-06-1.23621E-19-1.11571E-18
 -1      4191 8.38776E-05-2.14029E-05-2.66967E-05-6.31781E-06-1.28728E-19-5.34508E-19
 -1      4192 7.15247E-05-1.64216E-05-2.35583E-05 2.37078E-06 8.49869E-19 1.95669E-18
 -1      4193 7.36128E-05-1.67969E-05-2.43575E-05-3.29021E-07 1.22897E-18 1.41952E-18
 -1      4194 7.61601E-05-1.75161E-05-2.51806E-05-3.54406E-07 1.62783E-18 1.25907E-18
 -1      4195 7.43212E-05-1.76254E-05-2.43309E-05 4.92636E-06 2.17112E-18 2.25332E-18
 -1      4196 8.58311E-05-2.33515E-05-2.68133E-05 8.60757E-06-9.79358E-19 2.36742E-18
 -1      4197 8.57362E-05-2.39046E-05-2.64574E-05 9.90556E-06-2.34475E-18 2.03898E-18
 -1      4198 8.45852E-05-2.20984E-05-2.67991E-05 7.19398E-06-5.54678E-19-1.55806E-19
 -1      4199 9.59215E-05-2.51513E-05-3.03320E-05-1.36957E-07 2.04351E-20-2.90463E-19
 -1      4200 9.65766E-05-2.79139E-05-2.94276E-05 3.18311E-07-5.34625E-20-2.12179E-19
 -1      4201 9.64931E-05-2.80672E-05-2.93259E-05 4.15670E-07-4.29899E-20-1.85085E-19
 -1      4202 9.66100E-05-2.77320E-05-2.95179E-05 1.64293E-07 9.19388E-21 3.59565E-20
 -1      4203 9.63576E-05-2.81454E-05-2.92349E-05 4.38408E-07 2.54461E-20-1.41129E-19
 -1      4204 9.61929E-05-2.81532E-05-2.91603E-05 5.10917E-07 6.10880E-20-6.93821E-20
 -1      4205 9.61001E-05-2.80947E-05-2.91435E-05 2.86983E-07-5.48508E-20-1.02207E-19
 -1      4206 9.64424E-05-2.80628E-05-2.93047E-05 2.34651E-07-1.62219E-20 2.07349E-20
 -1      4207 9.34124E-05-2.62777E-05-2.87686E-05-2.61651E-06-3.16820E-19 6.41890E-19
 -1      4208 9.36959E-05-2.65415E-05-2.87870E-05-2.37252E-06-2.97861E-19 7.43527E-19
 -1      4209 9.36597E-05-2.64878E-05-2.87840E-05-1.97512E-06-1.46890E-19 6.42434E-19
 -1      4210 9.28710E-05-2.58568E-05-2.87152E-05-2.41225E-06-5.06172E-19 4.61100E-19
 -1      4211 9.60384E-05-2.54225E-05-3.02613E-05-3.59176E-08-1.45315E-21-5.60025E-19
 -1      4212 9.59383E-05-2.52092E-05-3.03253E-05 7.52288E-08 7.17561E-20-6.11684E-19
 -1      4213 9.64249E-05-2.67663E-05-2.98595E-05-7.27219E-08 7.38853E-20-2.26623E-19
 -1      4214 8.72846E-05-2.73616E-05-2.56434E-05 1.43053E-05 2.13221E-18 5.00044E-19
 -1      4215 9.56307E-05-2.80818E-05-2.89481E-05-1.36776E-06 1.18029E-19 2.44249E-19
 -1      4216 9.58072E-05-2.81828E-05-2.89827E-05-1.25802E-06 1.94272E-19 2.34016E-19
 -1      4217 9.59382E-05-2.81617E-05-2.90467E-05-1.02679E-06 2.25243E-19-2.25684E-20
 -1      4218 9.54984E-05-2.79314E-05-2.89562E-05-1.19868E-06 5.70704E-20 5.24066E-19
 -1      4219 9.06203E-05-2.41940E-05-2.84441E-05-2.22626E-06-1.47728E-19 1.08713E-19
 -1      4220 9.13591E-05-2.47537E-05-2.85425E-05-2.61309E-06-1.82699E-19 4.60378E-19
 -1      4221 9.18213E-05-2.50974E-05-2.86068E-05-2.31338E-06-2.40763E-19 4.57449E-19
 -1      4222 9.40792E-05-2.68216E-05-2.88235E-05-1.36990E-06-6.06147E-20 4.39123E-19
 -1      4223 9.44131E-05-2.71054E-05-2.88501E-05-1.23397E-06 2.00639E-19 5.34317E-19
 -1      4224 7.74959E-05-1.79514E-05-2.54341E-05 1.96094E-06 1.79325E-18 2.21195E-18
 -1      4225 8.82696E-05-2.24753E-05-2.82059E-05 1.23120E-06 2.48877E-18 9.88011E-19
 -1      4226 8.85787E-05-2.27059E-05-2.82246E-05 2.04255E-06 1.40796E-18 4.51888E-19
 -1      4227 8.76116E-05-2.21210E-05-2.80692E-05 1.29988E-06 9.64913E-19 1.03825E-18
 -1      4228 9.45202E-05-2.71583E-05-2.88704E-05-8.66941E-07 6.71914E-20 2.21357E-19
 -1      4229 9.47742E-05-2.73786E-05-2.88833E-05-1.14724E-06 2.38953E-19 3.60678E-19
 -1      4230 9.50637E-05-2.76080E-05-2.89127E-05-1.03683E-06 9.09012E-20 3.17933E-19
 -1      4231 9.63960E-05-2.63219E-05-3.00223E-05 4.52879E-08-3.13920E-20-3.94305E-19
 -1      4232 8.96544E-05-2.35918E-05-2.83135E-05 3.78037E-06 5.16907E-19 1.22436E-18
 -1      4233 8.91664E-05-2.34269E-05-2.81657E-05 4.30051E-06 7.23885E-19 2.19352E-18
 -1      4234 9.65011E-05-2.80504E-05-2.93383E-05-5.52376E-07 3.00691E-19-4.05826E-19
 -1      4235 9.65602E-05-2.78924E-05-2.94263E-05-4.51791E-07 3.31310E-19-4.22570E-19
 -1      4236 8.79146E-05-2.26424E-05-2.79505E-05 3.97500E-06 4.94780E-19 1.92369E-18
 -1      4237 8.89124E-05-2.29856E-05-2.82565E-05 2.67143E-06 8.13795E-19-5.86940E-19
 -1      4238 8.82185E-05-2.26550E-05-2.81198E-05 2.86867E-06 8.97755E-19 5.19136E-19
 -1      4239 9.62509E-05-2.81976E-05-2.91674E-05-7.06570E-07 2.36429E-19-3.30671E-19
 -1      4240 9.63944E-05-2.81595E-05-2.92426E-05-6.09573E-07 2.31647E-19-2.48740E-19
 -1      4241 9.64791E-05-2.80459E-05-2.93283E-05-4.16992E-07 2.88515E-19-5.37238E-19
 -1      4242 9.51759E-05-2.76183E-05-2.89550E-05 1.83166E-08-2.22054E-19 1.03897E-19
 -1      4243 9.48324E-05-2.73714E-05-2.89146E-05 3.48488E-08-4.10623E-19 7.52216E-20
 -1      4244 9.43773E-05-2.70305E-05-2.88655E-05-2.83780E-07-3.59168E-19 2.02281E-19
 -1      4245 9.39623E-05-2.67065E-05-2.88292E-05-2.94368E-07-1.89975E-19 2.28915E-19
 -1      4246 9.26167E-05-2.56354E-05-2.87150E-05-1.57573E-07-5.07124E-20-1.88924E-20
 -1      4247 9.20355E-05-2.51841E-05-2.86601E-05-1.68574E-07-2.22569E-19 7.91633E-21
 -1      4248 9.13821E-05-2.47168E-05-2.85789E-05-7.74969E-07-1.94496E-19 7.28699E-20
 -1      4249 9.06868E-05-2.42374E-05-2.84968E-05-8.65888E-07-1.48540E-19-2.35033E-19
 -1      4250 9.00210E-05-2.38030E-05-2.83973E-05-1.12740E-06 1.68710E-19-3.03868E-19
 -1      4251 8.91979E-05-2.32864E-05-2.82761E-05-1.26383E-06-3.77709E-20 6.67022E-20
 -1      4252 8.84438E-05-2.28631E-05-2.81304E-05-1.63251E-06 3.96199E-20-3.32940E-21
 -1      4253 8.74614E-05-2.23324E-05-2.79512E-05-1.84937E-06 5.84895E-19 8.67092E-20
 -1      4254 8.66149E-05-2.19510E-05-2.77419E-05-2.36153E-06 3.38897E-19 1.16591E-19
 -1      4255 8.54435E-05-2.14319E-05-2.74819E-05-2.70232E-06 1.24956E-19 8.11133E-21
 -1      4256 8.43992E-05-2.10256E-05-2.71971E-05-3.15156E-06 2.56012E-20-2.11447E-19
 -1      4257 8.29576E-05-2.05155E-05-2.68238E-05-3.64455E-06-4.45337E-19-5.94974E-19
 -1      4258 9.65733E-05-2.76712E-05-2.95337E-05-3.94567E-07 5.48832E-19-5.58112E-19
 -1      4259 9.65665E-05-2.73821E-05-2.96458E-05-2.44077E-07 3.61302E-19-2.59063E-19
 -1      4260 9.66018E-05-2.76853E-05-2.95355E-05-2.91841E-07 4.23690E-19-5.14634E-19
 -1      4261 8.27110E-05-2.25512E-05-2.58217E-05 1.01016E-05-1.68848E-18 3.22250E-18
 -1      4262 8.49467E-05-2.45240E-05-2.59507E-05 1.15905E-05-2.33243E-18 2.80333E-18
 -1      4263 9.57612E-05-2.79776E-05-2.90513E-05 3.08970E-08 1.52039E-20 8.75407E-20
 -1      4264 9.54867E-05-2.78211E-05-2.90004E-05 4.86015E-08-4.61329E-20-9.05837E-20
 -1      4265 9.53362E-05-2.77256E-05-2.89766E-05-2.71724E-07-9.38186E-20 5.59006E-20
 -1      4266 9.36558E-05-2.64979E-05-2.87886E-05-1.49933E-06-1.26686E-19 7.10268E-19
 -1      4267 9.37344E-05-2.65151E-05-2.88005E-05-1.06798E-06-8.31354E-20 7.19198E-19
 -1      4268 9.32811E-05-2.61796E-05-2.87577E-05-1.67551E-06-2.87628E-19 8.26029E-19
 -1      4269 8.24250E-05-2.03719E-05-2.66366E-05 4.34792E-06 6.13983E-20 1.03547E-18
 -1      4270 8.39689E-05-2.08550E-05-2.70637E-05 3.71705E-06-3.22660E-19-3.02281E-19
 -1      4271 8.48866E-05-2.11121E-05-2.73717E-05 2.97812E-06-5.79146E-20 6.97714E-19
 -1      4272 8.61896E-05-2.15956E-05-2.76906E-05 2.54352E-06-1.61256E-19 4.92007E-19
 -1      4273 7.59493E-05-1.86867E-05-2.44898E-05 7.94850E-06 1.82999E-18 2.33693E-18
 -1      4274 7.63562E-05-1.84817E-05-2.48484E-05 5.12223E-06 2.02806E-18 2.43292E-18
 -1      4275 7.87137E-05-1.90991E-05-2.55890E-05 4.78913E-06 1.63623E-18 2.71352E-18
 -1      4276 7.90081E-05-2.13294E-05-2.45992E-05 1.13095E-05 4.09279E-18 8.58738E-18
 -1      4277 8.38899E-05-2.56330E-05-2.48502E-05 1.47095E-05 3.43636E-18 4.20558E-18
 -1      4278 8.70430E-05-2.19458E-05-2.79169E-05 2.04909E-06 6.26982E-19 4.11663E-19
 -1      4279 7.85534E-05-1.95184E-05-2.53210E-05-6.29330E-06-3.46758E-19-5.46543E-19
 -1      4280 9.65603E-05-2.70182E-05-2.98095E-05-7.13235E-08 2.78188E-19-4.42680E-19
 -1      4281 9.66345E-05-2.74317E-05-2.96558E-05-2.65091E-08 2.83082E-19-3.24275E-19
 -1      4282 9.64714E-05-2.68034E-05-2.98554E-05-6.33925E-08 3.04774E-19-4.07317E-19
 -1      4283 9.66330E-05-2.77062E-05-2.95427E-05-8.90653E-08 2.40867E-19-2.61540E-19
 -1      4284 9.65914E-05-2.79380E-05-2.94215E-05-6.05950E-08 1.40054E-19-2.42763E-19
 -1      4285 7.98609E-05-1.96442E-05-2.58984E-05-4.99786E-06-2.08934E-19-5.43983E-19
 -1      4286 9.35308E-05-2.63613E-05-2.87916E-05-3.86658E-07-2.41210E-19 2.43714E-19
 -1      4287 9.64883E-05-2.80730E-05-2.93225E-05-1.20759E-07 3.84461E-20-1.35283E-19
 -1      4288 9.62163E-05-2.81329E-05-2.91809E-05 3.53180E-08 4.32869E-20-7.61041E-20
 -1      4289 9.60072E-05-2.80844E-05-2.91106E-05 5.53914E-08 1.85193E-20 7.47584E-20
 -1      4290 9.58824E-05-2.80191E-05-2.90826E-05-2.24389E-07 1.82741E-20 7.65483E-20
 -1      4291 9.54411E-05-2.78394E-05-2.89722E-05-7.63173E-07 7.24717E-20 1.43334E-19
 -1      4292 9.56887E-05-2.79932E-05-2.90134E-05-6.78837E-07 7.32097E-20 1.91618E-20
 -1      4293 9.63459E-05-2.81366E-05-2.92314E-05-1.03400E-07 1.98916E-21-1.12141E-19
 -1      4294 9.23763E-05-2.54729E-05-2.86709E-05-2.07753E-06-3.39048E-19 4.84859E-19
 -1      4295 9.28001E-05-2.58160E-05-2.87138E-05-1.84209E-06-3.41030E-19 6.16743E-19
 -1      4296 9.28470E-05-2.58228E-05-2.87200E-05-1.34355E-06-1.83710E-19 7.60774E-19
 -1      4297 9.18084E-05-2.50413E-05-2.86102E-05-1.69259E-06-2.52171E-19 6.98089E-19
 -1      4298 9.30515E-05-2.59749E-05-2.87505E-05-4.15867E-07 2.24358E-20 3.10189E-19
 -1      4299 8.16902E-05-2.01256E-05-2.64241E-05-4.25986E-06-5.49687E-19-3.29690E-19
 -1      4300 8.22670E-05-2.10038E-05-2.62115E-05 6.85867E-06 5.47279E-20 1.49274E-18
 -1      4301 9.59376E-05-2.81075E-05-2.90711E-05-6.48943E-07 4.34558E-20 4.48468E-20
 -1      4302 9.61326E-05-2.81651E-05-2.91279E-05-5.71585E-07 6.85931E-20-1.24183E-19
 -1      4303 9.45922E-05-2.71895E-05-2.88834E-05-6.12724E-07-1.10330E-19 3.55079E-19
 -1      4304 9.62502E-05-2.81361E-05-2.91907E-05-3.52643E-07 2.80424E-20-4.02311E-20
 -1      4305 9.52580E-05-2.76770E-05-2.89617E-05-5.04150E-07 4.69195E-20-6.27694E-20
 -1      4306 9.18196E-05-2.50310E-05-2.86155E-05-1.28286E-06-3.89856E-19 5.36927E-19
 -1      4307 8.10334E-05-2.08270E-05-2.57476E-05 8.07878E-06-4.29614E-19 2.35747E-18
 -1      4308 7.96281E-05-2.11548E-05-2.50942E-05 9.91693E-06 2.61341E-19 5.34744E-18
 -1      4309 8.68236E-05-2.17059E-05-2.78949E-05 1.41379E-06 8.46942E-19 3.76234E-19
 -1      4310 9.28626E-05-2.58278E-05-2.87265E-05-9.55301E-07-2.49572E-19 3.93771E-19
 -1      4311 8.10750E-05-2.36106E-05-2.46143E-05 1.32138E-05 4.97471E-18 7.01476E-18
 -1      4312 9.49530E-05-2.74713E-05-2.89181E-05-5.44394E-07-1.24575E-19 6.27439E-20
 -1      4313 9.23993E-05-2.54705E-05-2.86815E-05-1.09230E-06-1.93424E-19 5.09780E-19
 -3
    1PSTEP                         4           1           1          
  100CL  101 1.000000000        4313                     0    1           1
 -4  ERROR       1    1
 -5  STR(%)      1    1    0    0
 -1         1 4.88057E+01
 -1         2 2.53170E+01
 -1         3 2.77016E-02
 -1         4 3.49132E-02
 -1         5 1.40460E+01
 -1         6 1.31502E+01
 -1         7 1.31502E+01
 -1         8 3.65701E+00
 -1         9 1.81868E+00
 -1        10 1.28551E+00
 -1        11 1.03989E+00
 -1        12 8.96872E-01
 -1        13 8.06464E-01
 -1        14 7.53079E-01
 -1        15 7.54992E-01
 -1        16 8.10697E-01
 -1        17 8.97753E-01
 -1        18 1.04870E+00
 -1        19 1.30309E+00
 -1        20 1.82763E+00
 -1        21 3.49862E+00
 -1        22 8.64243E+00
 -1        23 1.31502E+01
 -1        24 4.32894E+00
 -1        25 3.35506E+00
 -1        26 2.12716E+00
 -1        27 1.38060E+00
 -1        28 1.03580E+00
 -1        29 8.02977E-01
 -1        30 6.31011E-01
 -1        31 5.00546E-01
 -1        32 4.02002E-01
 -1        33 3.29542E-01
 -1        34 2.78744E-01
 -1        35 2.45756E-01
 -1        36 2.62264E-01
 -1        37 3.13929E-01
 -1        38 3.84012E-01
 -1        39 4.72652E-01
 -1        40 5.77282E-01
 -1        41 6.90537E-01
 -1        42 8.57048E-01
 -1        43 1.10515E+00
 -1        44 1.38759E+00
 -1        45 1.71224E+00
 -1        46 1.92706E+00
 -1        47 1.92706E+00
 -1        48 1.92195E+00
 -1        49 1.92195E+00
 -1        50 2.71286E+00
 -1        51 4.87224E+00
 -1        52 5.47097E+00
 -1        53 5.47403E+00
 -1        54 5.47403E+00
 -1        55 4.04804E+00
 -1        56 2.32970E+00
 -1        57 1.92084E+00
 -1        58 1.93279E+00
 -1        59 1.93279E+00
 -1        60 1.85585E+00
 -1        61 1.57375E+00
 -1        62 1.24391E+00
 -1        63 9.84838E-01
 -1        64 7.63764E-01
 -1        65 6.50799E-01
 -1        66 5.36739E-01
 -1        67 4.31283E-01
 -1        68 3.36552E-01
 -1        69 2.59283E-01
 -1        70 2.26165E-01
 -1        71 1.39316E-01
 -1        72 1.40460E+01
 -1        73 3.40372E+00
 -1        74 2.42433E+00
 -1        75 1.67901E+00
 -1        76 1.16020E+00
 -1        77 9.25786E-01
 -1        78 7.57843E-01
 -1        79 6.23324E-01
 -1        80 5.15275E-01
 -1        81 4.30187E-01
 -1        82 3.65850E-01
 -1        83 3.20245E-01
 -1        84 2.91097E-01
 -1        85 2.75635E-01
 -1        86 2.77180E-01
 -1        87 3.20384E-01
 -1        88 3.67825E-01
 -1        89 4.12356E-01
 -1        90 4.42895E-01
 -1        91 4.53315E-01
 -1        92 5.27179E-01
 -1        93 6.61938E-01
 -1        94 7.55760E-01
 -1        95 8.83303E-01
 -1        96 1.07903E+00
 -1        97 1.07903E+00
 -1        98 1.34993E+00
 -1        99 1.51901E+00
 -1       100 2.29519E+00
 -1       101 2.61414E+00
 -1       102 2.95938E+00
 -1       103 2.95938E+00
 -1       104 2.79514E+00
 -1       105 2.04015E+00
 -1       106 1.22333E+00
 -1       107 8.60157E-01
 -1       108 7.60141E-01
 -1       109 8.92585E-01
 -1       110 8.92585E-01
 -1       111 8.83302E-01
 -1       112 7.91993E-01
 -1       113 6.65551E-01
 -1       114 5.51500E-01
 -1       115 4.31921E-01
 -1       116 3.43814E-01
 -1       117 2.83814E-01
 -1       118 2.18677E-01
 -1       119 1.43471E-01
 -1       120 9.62587E-02
 -1       121 4.16930E-02
 -1       122 4.16930E-02
 -1       123 3.78861E-02
 -1       124 2.24099E-02
 -1       125 1.52943E-02
 -1       126 2.93439E-02
 -1       127 3.90102E-02
 -1       128 4.31522E-02
 -1       129 4.31522E-02
 -1       130 4.18578E-02
 -1       131 3.38695E-02
 -1       132 2.04200E-02
 -1       133 2.30362E-02
 -1       134 4.10420E-02
 -1       135 6.08075E-02
 -1       136 6.55497E-02
 -1       137 2.53170E+01
 -1       138 4.59672E+01
 -1       139 4.59672E+01
 -1       140 1.90711E+01
 -1       141 1.26159E+01
 -1       142 1.33095E+01
 -1       143 1.33095E+01
 -1       144 1.27099E+01
 -1       145 1.27099E+01
 -1       146 1.27418E+01
 -1       147 3.13100E+01
 -1       148 3.13100E+01
 -1       149 2.74153E+01
 -1       150 2.50489E+01
 -1       151 2.56070E+01
 -1       152 2.56070E+01
 -1       153 3.92106E+01
 -1       154 3.92106E+01
 -1       155 1.55043E+01
 -1       156 1.38107E+01
 -1       157 1.38107E+01
 -1       158 1.24205E+01
 -1       159 1.24205E+01
 -1       160 1.19262E+01
 -1       161 2.30657E+01
 -1       162 4.88057E+01
 -1       163 2.50683E+01
 -1       164 6.07062E+00
 -1       165 2.29322E+00
 -1       166 1.50115E+00
 -1       167 1.15442E+00
 -1       168 9.69122E-01
 -1       169 8.62236E-01
 -1       170 7.94575E-01
 -1       171 7.54992E-01
 -1       172 7.97945E-01
 -1       173 8.65076E-01
 -1       174 9.78007E-01
 -1       175 1.16861E+00
 -1       176 1.52281E+00
 -1       177 2.25556E+00
 -1       178 3.92650E+00
 -1       179 1.40460E+01
 -1       180 4.32894E+00
 -1       181 3.35506E+00
 -1       182 2.12716E+00
 -1       183 1.46166E+00
 -1       184 1.04168E+00
 -1       185 8.02977E-01
 -1       186 6.31011E-01
 -1       187 5.01774E-01
 -1       188 4.09007E-01
 -1       189 3.35064E-01
 -1       190 2.78744E-01
 -1       191 2.45756E-01
 -1       192 2.27490E-01
 -1       193 2.62264E-01
 -1       194 3.13929E-01
 -1       195 3.84012E-01
 -1       196 4.75785E-01
 -1       197 6.40951E-01
 -1       198 8.30252E-01
 -1       199 1.02975E+00
 -1       200 1.20989E+00
 -1       201 1.41145E+00
 -1       202 1.71224E+00
 -1       203 1.92706E+00
 -1       204 1.84395E+00
 -1       205 1.92195E+00
 -1       206 1.91207E+00
 -1       207 2.91476E+00
 -1       208 4.87224E+00
 -1       209 5.47097E+00
 -1       210 5.47403E+00
 -1       211 4.04804E+00
 -1       212 2.32970E+00
 -1       213 1.72761E+00
 -1       214 1.92084E+00
 -1       215 1.93279E+00
 -1       216 1.85585E+00
 -1       217 1.57375E+00
 -1       218 1.30678E+00
 -1       219 1.12660E+00
 -1       220 9.29591E-01
 -1       221 7.27627E-01
 -1       222 5.43076E-01
 -1       223 4.31283E-01
 -1       224 3.36552E-01
 -1       225 2.59283E-01
 -1       226 2.26165E-01
 -1       227 1.39316E-01
 -1       228 3.40372E+00
 -1       229 2.42433E+00
 -1       230 1.67901E+00
 -1       231 1.16020E+00
 -1       232 9.25786E-01
 -1       233 7.57843E-01
 -1       234 6.23324E-01
 -1       235 5.15275E-01
 -1       236 4.30187E-01
 -1       237 3.65850E-01
 -1       238 3.20245E-01
 -1       239 2.91097E-01
 -1       240 2.75635E-01
 -1       241 2.70318E-01
 -1       242 2.79394E-01
 -1       243 3.20384E-01
 -1       244 3.67825E-01
 -1       245 4.12356E-01
 -1       246 4.42895E-01
 -1       247 4.55117E-01
 -1       248 5.44366E-01
 -1       249 6.61938E-01
 -1       250 7.55760E-01
 -1       251 8.83303E-01
 -1       252 1.07903E+00
 -1       253 1.06920E+00
 -1       254 1.34993E+00
 -1       255 1.67655E+00
 -1       256 2.29519E+00
 -1       257 2.61414E+00
 -1       258 2.95938E+00
 -1       259 2.79514E+00
 -1       260 2.04015E+00
 -1       261 1.22333E+00
 -1       262 8.60157E-01
 -1       263 7.41974E-01
 -1       264 7.60141E-01
 -1       265 8.92585E-01
 -1       266 8.83302E-01
 -1       267 7.91993E-01
 -1       268 6.65551E-01
 -1       269 5.51500E-01
 -1       270 4.43876E-01
 -1       271 3.43814E-01
 -1       272 2.83814E-01
 -1       273 2.18677E-01
 -1       274 1.47195E-01
 -1       275 9.62587E-02
 -1       276 5.86735E-02
 -1       277 6.07911E-02
 -1       278 6.07911E-02
 -1       279 3.09229E-02
 -1       280 5.20883E-02
 -1       281 7.19132E-02
 -1       282 8.23387E-02
 -1       283 8.34179E-02
 -1       284 8.34179E-02
 -1       285 7.85235E-02
 -1       286 6.30216E-02
 -1       287 3.68696E-02
 -1       288 6.57455E-02
 -1       289 6.57455E-02
 -1       290 8.40852E-02
 -1       291 3.14862E+01
 -1       292 2.70004E+01
 -1       293 4.59672E+01
 -1       294 1.95115E+01
 -1       295 1.09534E+01
 -1       296 1.26159E+01
 -1       297 1.33095E+01
 -1       298 1.19639E+01
 -1       299 1.27099E+01
 -1       300 1.20663E+01
 -1       301 1.27418E+01
 -1       302 3.13100E+01
 -1       303 3.11018E+01
 -1       304 2.54330E+01
 -1       305 2.86010E+01
 -1       306 2.86010E+01
 -1       307 3.60757E+01
 -1       308 3.92106E+01
 -1       309 1.60853E+01
 -1       310 1.20446E+01
 -1       311 1.38107E+01
 -1       312 1.18312E+01
 -1       313 1.24205E+01
 -1       314 1.19262E+01
 -1       315 1.15322E+01
 -1       316 2.42498E+01
 -1       317 4.88057E+01
 -1       318 3.04818E+01
 -1       319 3.14862E+01
 -1       320 1.06274E+00
 -1       321 2.47168E+00
 -1       322 7.85536E-01
 -1       323 6.92344E-01
 -1       324 6.29721E-01
 -1       325 5.85987E-01
 -1       326 5.89117E-01
 -1       327 6.32276E-01
 -1       328 6.98392E-01
 -1       329 7.93019E-01
 -1       330 9.27936E-01
 -1       331 1.15248E+00
 -1       332 1.32126E+00
 -1       333 2.20328E+00
 -1       334 1.91663E+00
 -1       335 1.74059E+00
 -1       336 1.27986E+00
 -1       337 9.20605E-01
 -1       338 6.70628E-01
 -1       339 5.62775E-01
 -1       340 4.71070E-01
 -1       341 3.91659E-01
 -1       342 3.25016E-01
 -1       343 2.70619E-01
 -1       344 2.27037E-01
 -1       345 1.92092E-01
 -1       346 2.13606E-01
 -1       347 2.52891E-01
 -1       348 3.05249E-01
 -1       349 4.30017E-01
 -1       350 5.78429E-01
 -1       351 7.48883E-01
 -1       352 9.32852E-01
 -1       353 1.11072E+00
 -1       354 1.24766E+00
 -1       355 1.38888E+00
 -1       356 1.50051E+00
 -1       357 1.52069E+00
 -1       358 1.38733E+00
 -1       359 1.62506E+00
 -1       360 1.89848E+00
 -1       361 2.59826E+00
 -1       362 3.51555E+00
 -1       363 3.72532E+00
 -1       364 3.02878E+00
 -1       365 2.26588E+00
 -1       366 1.62641E+00
 -1       367 1.57682E+00
 -1       368 1.47115E+00
 -1       369 1.51279E+00
 -1       370 1.46498E+00
 -1       371 1.31374E+00
 -1       372 1.18652E+00
 -1       373 1.02416E+00
 -1       374 8.37905E-01
 -1       375 6.55966E-01
 -1       376 4.93349E-01
 -1       377 3.56356E-01
 -1       378 2.54918E-01
 -1       379 1.86248E-01
 -1       380 1.21894E-01
 -1       381 1.13941E+00
 -1       382 9.01425E-01
 -1       383 7.14223E-01
 -1       384 5.55152E-01
 -1       385 4.57823E-01
 -1       386 3.94315E-01
 -1       387 3.35092E-01
 -1       388 2.93097E-01
 -1       389 2.59873E-01
 -1       390 2.35544E-01
 -1       391 2.19243E-01
 -1       392 2.13207E-01
 -1       393 2.43209E-01
 -1       394 3.00031E-01
 -1       395 3.84188E-01
 -1       396 4.65147E-01
 -1       397 5.32557E-01
 -1       398 5.96849E-01
 -1       399 6.16391E-01
 -1       400 6.16391E-01
 -1       401 5.60519E-01
 -1       402 4.43571E-01
 -1       403 5.00827E-01
 -1       404 8.73297E-01
 -1       405 1.34542E+00
 -1       406 1.60118E+00
 -1       407 1.60118E+00
 -1       408 1.56053E+00
 -1       409 1.71645E+00
 -1       410 1.79847E+00
 -1       411 1.48227E+00
 -1       412 1.00571E+00
 -1       413 6.33034E-01
 -1       414 3.89104E-01
 -1       415 5.53143E-01
 -1       416 6.11822E-01
 -1       417 6.58538E-01
 -1       418 6.31473E-01
 -1       419 5.62506E-01
 -1       420 4.96146E-01
 -1       421 4.12734E-01
 -1       422 3.25236E-01
 -1       423 2.57892E-01
 -1       424 2.04819E-01
 -1       425 1.47195E-01
 -1       426 8.65865E-02
 -1       427 6.53767E-02
 -1       428 1.13348E-01
 -1       429 1.13348E-01
 -1       430 6.77741E-02
 -1       431 9.72108E-02
 -1       432 1.15023E-01
 -1       433 1.17735E-01
 -1       434 1.19612E-01
 -1       435 1.19612E-01
 -1       436 1.11515E-01
 -1       437 8.66701E-02
 -1       438 7.12066E-02
 -1       439 1.09156E-01
 -1       440 2.70004E+01
 -1       441 3.20658E+01
 -1       442 3.20658E+01
 -1       443 1.57367E+01
 -1       444 8.02575E+00
 -1       445 9.09049E-01
 -1       446 9.18574E+00
 -1       447 1.03937E+01
 -1       448 1.04577E+01
 -1       449 7.95913E+00
 -1       450 6.00825E+00
 -1       451 1.18032E+01
 -1       452 2.02856E+01
 -1       453 2.56589E+01
 -1       454 3.66101E+01
 -1       455 3.66101E+01
 -1       456 2.81413E+01
 -1       457 2.42777E+01
 -1       458 1.35946E+01
 -1       459 7.51596E+00
 -1       460 7.90402E+00
 -1       461 1.08587E+01
 -1       462 1.12953E+01
 -1       463 1.03946E+01
 -1       464 7.17402E+00
 -1       465 1.00501E+01
 -1       466 1.74706E+01
 -1       467 3.04818E+01
 -1       468 3.19213E+01
 -1       469 7.60749E+00
 -1       470 8.62947E+00
 -1       471 7.89996E+00
 -1       472 9.37717E+00
 -1       473 4.51232E+00
 -1       474 1.05733E+00
 -1       475 4.84074E-01
 -1       476 5.08215E-01
 -1       477 4.29852E-01
 -1       478 4.55346E-01
 -1       479 4.84514E-01
 -1       480 5.08236E-01
 -1       481 5.08236E-01
 -1       482 5.98823E-01
 -1       483 9.01425E-01
 -1       484 8.02899E-01
 -1       485 5.66868E+00
 -1       486 1.88809E+01
 -1       487 7.11030E-01
 -1       488 5.97405E-01
 -1       489 4.84071E-01
 -1       490 3.88998E-01
 -1       491 3.42673E-01
 -1       492 2.93780E-01
 -1       493 2.46270E-01
 -1       494 2.01550E-01
 -1       495 1.59307E-01
 -1       496 1.50437E-01
 -1       497 1.76687E-01
 -1       498 2.46520E-01
 -1       499 3.55281E-01
 -1       500 4.85264E-01
 -1       501 6.38566E-01
 -1       502 8.14555E-01
 -1       503 1.00763E+00
 -1       504 1.20409E+00
 -1       505 1.37834E+00
 -1       506 1.55852E+00
 -1       507 1.88189E+00
 -1       508 2.19335E+00
 -1       509 2.36909E+00
 -1       510 2.97220E+00
 -1       511 2.66386E+00
 -1       512 4.66635E+00
 -1       513 7.58565E+00
 -1       514 5.44063E+00
 -1       515 2.99139E+00
 -1       516 2.28093E+00
 -1       517 2.82436E+00
 -1       518 2.33515E+00
 -1       519 2.06877E+00
 -1       520 1.73214E+00
 -1       521 1.44455E+00
 -1       522 1.29865E+00
 -1       523 1.10940E+00
 -1       524 9.10767E-01
 -1       525 7.23154E-01
 -1       526 5.56896E-01
 -1       527 4.15950E-01
 -1       528 3.00604E-01
 -1       529 2.09069E-01
 -1       530 5.55152E-01
 -1       531 4.57823E-01
 -1       532 3.94315E-01
 -1       533 3.33288E-01
 -1       534 2.77673E-01
 -1       535 2.28299E-01
 -1       536 1.84554E-01
 -1       537 1.55784E-01
 -1       538 1.75930E-01
 -1       539 2.00889E-01
 -1       540 2.59517E-01
 -1       541 3.39155E-01
 -1       542 4.18276E-01
 -1       543 4.88516E-01
 -1       544 5.52212E-01
 -1       545 5.96849E-01
 -1       546 6.27043E-01
 -1       547 6.16151E-01
 -1       548 5.95846E-01
 -1       549 6.75459E-01
 -1       550 8.19943E-01
 -1       551 1.12618E+00
 -1       552 1.37028E+00
 -1       553 1.60118E+00
 -1       554 1.69281E+00
 -1       555 1.72234E+00
 -1       556 1.59302E+00
 -1       557 1.37312E+00
 -1       558 1.11828E+00
 -1       559 8.09620E-01
 -1       560 6.73710E-01
 -1       561 5.93446E-01
 -1       562 6.09886E-01
 -1       563 6.17715E-01
 -1       564 5.83643E-01
 -1       565 5.36210E-01
 -1       566 4.73423E-01
 -1       567 4.02180E-01
 -1       568 3.23951E-01
 -1       569 2.48195E-01
 -1       570 1.79101E-01
 -1       571 1.34113E-01
 -1       572 1.16385E-01
 -1       573 1.47549E-01
 -1       574 1.08316E-01
 -1       575 9.46079E-02
 -1       576 1.58166E-01
 -1       577 1.58166E-01
 -1       578 1.61923E-01
 -1       579 1.61923E-01
 -1       580 1.45009E-01
 -1       581 1.28971E-01
 -1       582 1.28971E-01
 -1       583 3.20658E+01
 -1       584 1.15238E+01
 -1       585 7.14223E-01
 -1       586 3.19213E+01
 -1       587 8.89273E+00
 -1       588 5.23370E+00
 -1       589 2.10296E+01
 -1       590 7.02609E+00
 -1       591 4.55351E-01
 -1       592 8.29510E+00
 -1       593 1.58320E+01
 -1       594 6.24072E+00
 -1       595 8.58727E+00
 -1       596 1.07629E+01
 -1       597 2.56589E+01
 -1       598 3.66101E+01
 -1       599 2.81413E+01
 -1       600 1.73090E+01
 -1       601 1.09625E+01
 -1       602 4.66635E+00
 -1       603 7.81653E+00
 -1       604 7.13837E+00
 -1       605 5.44063E+00
 -1       606 5.20133E+00
 -1       607 1.34901E+01
 -1       608 8.79816E-01
 -1       609 1.32898E+00
 -1       610 8.19419E+00
 -1       611 5.08215E-01
 -1       612 4.60806E-01
 -1       613 1.48385E+01
 -1       614 8.58618E+00
 -1       615 4.30771E+00
 -1       616 6.95441E+00
 -1       617 1.57792E+01
 -1       618 1.21170E-01
 -1       619 3.57374E-01
 -1       620 3.41897E-01
 -1       621 3.60607E-01
 -1       622 3.36511E-01
 -1       623 5.42563E-01
 -1       624 1.38370E+01
 -1       625 5.99240E+00
 -1       626 4.02577E-01
 -1       627 3.87752E-01
 -1       628 3.43967E-01
 -1       629 2.89647E-01
 -1       630 2.41433E-01
 -1       631 2.07718E-01
 -1       632 1.69528E-01
 -1       633 1.28259E-01
 -1       634 8.68110E-02
 -1       635 1.02490E-01
 -1       636 1.74901E-01
 -1       637 2.63351E-01
 -1       638 3.69697E-01
 -1       639 4.98500E-01
 -1       640 6.55313E-01
 -1       641 8.50886E-01
 -1       642 1.08623E+00
 -1       643 1.36889E+00
 -1       644 1.70841E+00
 -1       645 2.07460E+00
 -1       646 2.63865E+00
 -1       647 3.48826E+00
 -1       648 4.60846E+00
 -1       649 4.32165E+00
 -1       650 4.39321E+00
 -1       651 4.03416E+00
 -1       652 3.11169E+00
 -1       653 2.27240E+00
 -1       654 1.90766E+00
 -1       655 1.54747E+00
 -1       656 1.22889E+00
 -1       657 9.67352E-01
 -1       658 7.49322E-01
 -1       659 5.74397E-01
 -1       660 4.32602E-01
 -1       661 3.18445E-01
 -1       662 2.09840E-01
 -1       663 3.27119E-01
 -1       664 1.32850E-01
 -1       665 3.99576E-01
 -1       666 2.42879E-01
 -1       667 2.01281E-01
 -1       668 1.59332E-01
 -1       669 1.17257E-01
 -1       670 1.17011E-01
 -1       671 1.39454E-01
 -1       672 2.09748E-01
 -1       673 2.86549E-01
 -1       674 3.68177E-01
 -1       675 4.50642E-01
 -1       676 5.26752E-01
 -1       677 5.88687E-01
 -1       678 6.84998E-01
 -1       679 7.73861E-01
 -1       680 8.24007E-01
 -1       681 9.50909E-01
 -1       682 1.14964E+00
 -1       683 1.23784E+00
 -1       684 1.48562E+00
 -1       685 1.53233E+00
 -1       686 2.51664E+00
 -1       687 4.13755E+00
 -1       688 2.73469E+00
 -1       689 1.55806E+00
 -1       690 1.40331E+00
 -1       691 1.23292E+00
 -1       692 1.10087E+00
 -1       693 9.40200E-01
 -1       694 8.06972E-01
 -1       695 7.53491E-01
 -1       696 6.63576E-01
 -1       697 5.75935E-01
 -1       698 5.08677E-01
 -1       699 4.32196E-01
 -1       700 3.52492E-01
 -1       701 2.75817E-01
 -1       702 2.04478E-01
 -1       703 1.54555E-01
 -1       704 7.59134E+00
 -1       705 2.02177E-01
 -1       706 2.28179E+00
 -1       707 1.77253E-01
 -1       708 2.10070E-01
 -1       709 2.02177E-01
 -1       710 2.11103E-01
 -1       711 2.11103E-01
 -1       712 1.73332E-01
 -1       713 1.46443E+01
 -1       714 1.21256E+01
 -1       715 4.69510E-01
 -1       716 1.44546E+01
 -1       717 7.21796E+00
 -1       718 1.22147E+01
 -1       719 2.82379E-01
 -1       720 4.01725E-01
 -1       721 1.12483E+01
 -1       722 3.60607E-01
 -1       723 6.38467E+00
 -1       724 5.21878E-01
 -1       725 3.31281E+00
 -1       726 3.59381E-01
 -1       727 4.41001E+00
 -1       728 6.70729E+00
 -1       729 9.94839E+00
 -1       730 1.44627E+01
 -1       731 1.15207E+01
 -1       732 3.63766E-01
 -1       733 2.99139E+00
 -1       734 3.59381E-01
 -1       735 3.41538E-01
 -1       736 3.27241E+00
 -1       737 3.23016E+00
 -1       738 1.33166E-01
 -1       739 3.82843E+00
 -1       740 6.90499E+00
 -1       741 1.05215E+01
 -1       742 9.09920E+00
 -1       743 1.70633E-01
 -1       744 3.14413E+00
 -1       745 1.36654E-01
 -1       746 3.56590E-01
 -1       747 4.13755E+00
 -1       748 2.39807E-01
 -1       749 2.67289E-01
 -1       750 2.54477E-01
 -1       751 2.43493E-01
 -1       752 2.15325E-01
 -1       753 1.77710E-01
 -1       754 1.49005E-01
 -1       755 1.14434E-01
 -1       756 7.90420E-02
 -1       757 8.56747E-02
 -1       758 1.34880E-01
 -1       759 2.16104E-01
 -1       760 3.18639E-01
 -1       761 4.44684E-01
 -1       762 5.99025E-01
 -1       763 7.85808E-01
 -1       764 1.00659E+00
 -1       765 1.26430E+00
 -1       766 1.66128E+00
 -1       767 2.29418E+00
 -1       768 3.26937E+00
 -1       769 4.73295E+00
 -1       770 7.50693E+00
 -1       771 8.93946E+00
 -1       772 9.53284E+00
 -1       773 2.53994E-01
 -1       774 4.54657E+00
 -1       775 3.25258E+00
 -1       776 2.79793E+00
 -1       777 1.95045E+00
 -1       778 1.46291E+00
 -1       779 1.13525E+00
 -1       780 8.96105E-01
 -1       781 6.89727E-01
 -1       782 5.17757E-01
 -1       783 3.77203E-01
 -1       784 2.63304E-01
 -1       785 2.83530E-01
 -1       786 5.21211E+00
 -1       787 1.29529E-01
 -1       788 1.67864E-01
 -1       789 5.85875E-02
 -1       790 9.11188E-02
 -1       791 1.53055E-01
 -1       792 2.23772E-01
 -1       793 3.04710E-01
 -1       794 3.97994E-01
 -1       795 4.98254E-01
 -1       796 6.01853E-01
 -1       797 7.05960E-01
 -1       798 8.51645E-01
 -1       799 1.04191E+00
 -1       800 1.21950E+00
 -1       801 1.39043E+00
 -1       802 1.61858E+00
 -1       803 2.16728E+00
 -1       804 2.25049E+00
 -1       805 3.01925E+00
 -1       806 3.19772E+00
 -1       807 1.79506E+00
 -1       808 2.56343E+00
 -1       809 2.02079E+00
 -1       810 1.40929E+00
 -1       811 1.21101E+00
 -1       812 1.02973E+00
 -1       813 8.37289E-01
 -1       814 6.92436E-01
 -1       815 5.89685E-01
 -1       816 4.84797E-01
 -1       817 3.86625E-01
 -1       818 3.00113E-01
 -1       819 2.22770E-01
 -1       820 1.77470E-01
 -1       821 3.06542E-01
 -1       822 2.78012E-01
 -1       823 9.44191E+00
 -1       824 2.59840E-01
 -1       825 7.56207E+00
 -1       826 2.78012E-01
 -1       827 2.61395E-01
 -1       828 9.04125E-02
 -1       829 2.87163E-01
 -1       830 4.38015E+00
 -1       831 5.65477E+00
 -1       832 2.80453E-01
 -1       833 8.36513E+00
 -1       834 2.35072E-01
 -1       835 1.01304E+01
 -1       836 8.49652E+00
 -1       837 2.39439E+00
 -1       838 8.78891E+00
 -1       839 6.53401E+00
 -1       840 2.80226E-01
 -1       841 3.28518E+00
 -1       842 2.79159E-01
 -1       843 2.56343E+00
 -1       844 2.00108E-01
 -1       845 6.98125E+00
 -1       846 6.05861E+00
 -1       847 2.80797E-01
 -1       848 3.41300E+00
 -1       849 2.43052E-01
 -1       850 7.77906E+00
 -1       851 2.87314E-01
 -1       852 2.59840E-01
 -1       853 5.38165E+00
 -1       854 2.45260E-01
 -1       855 2.40550E-01
 -1       856 2.87163E-01
 -1       857 2.73448E-01
 -1       858 9.53284E+00
 -1       859 7.20967E+00
 -1       860 2.36451E-01
 -1       861 4.74515E+00
 -1       862 1.70688E-01
 -1       863 1.73803E-01
 -1       864 1.59548E-01
 -1       865 1.34008E-01
 -1       866 1.14572E-01
 -1       867 1.02826E-01
 -1       868 1.13338E-01
 -1       869 1.27879E-01
 -1       870 1.96689E-01
 -1       871 2.86446E-01
 -1       872 3.98424E-01
 -1       873 5.39445E-01
 -1       874 7.19116E-01
 -1       875 9.51391E-01
 -1       876 1.25648E+00
 -1       877 1.66128E+00
 -1       878 2.21058E+00
 -1       879 3.11166E+00
 -1       880 4.27648E+00
 -1       881 5.69928E+00
 -1       882 4.81571E+00
 -1       883 2.65696E+00
 -1       884 1.94032E+00
 -1       885 1.46291E+00
 -1       886 1.10474E+00
 -1       887 8.33755E-01
 -1       888 6.26212E-01
 -1       889 4.63944E-01
 -1       890 1.38432E-01
 -1       891 9.42923E-02
 -1       892 2.75372E-01
 -1       893 3.52830E-01
 -1       894 4.49017E-01
 -1       895 5.65671E-01
 -1       896 7.23782E-01
 -1       897 9.20069E-01
 -1       898 1.13188E+00
 -1       899 1.45581E+00
 -1       900 1.78939E+00
 -1       901 2.46612E+00
 -1       902 2.60163E+00
 -1       903 4.04028E+00
 -1       904 2.41185E+00
 -1       905 1.68828E+00
 -1       906 1.08588E+00
 -1       907 9.03397E-01
 -1       908 7.12261E-01
 -1       909 5.53121E-01
 -1       910 4.40175E-01
 -1       911 3.38192E-01
 -1       912 3.23373E-01
 -1       913 2.05025E-01
 -1       914 2.87314E-01
 -1       915 3.82768E-01
 -1       916 3.82768E-01
 -1       917 3.36679E-01
 -1       918 1.43554E-01
 -1       919 5.74134E+00
 -1       920 1.28189E-01
 -1       921 1.42840E-01
 -1       922 5.97485E+00
 -1       923 2.03470E-01
 -1       924 7.18387E+00
 -1       925 1.89474E-01
 -1       926 3.16732E+00
 -1       927 1.65069E-01
 -1       928 1.51896E-01
 -1       929 5.29996E+00
 -1       930 4.89772E+00
 -1       931 3.14410E-01
 -1       932 3.28930E-01
 -1       933 8.99261E-02
 -1       934 2.69675E+00
 -1       935 2.15022E-01
 -1       936 5.17982E+00
 -1       937 1.80536E-01
 -1       938 2.02065E-01
 -1       939 6.16437E+00
 -1       940 3.19803E-01
 -1       941 2.15022E-01
 -1       942 5.74134E+00
 -1       943 1.16830E-01
 -1       944 1.71797E-01
 -1       945 3.36483E-01
 -1       946 9.79272E-02
 -1       947 1.26698E-01
 -1       948 1.19744E-01
 -1       949 1.04222E-01
 -1       950 1.13488E-01
 -1       951 1.26738E-01
 -1       952 1.42600E-01
 -1       953 1.68433E-01
 -1       954 2.34105E-01
 -1       955 3.22410E-01
 -1       956 4.34471E-01
 -1       957 5.79590E-01
 -1       958 7.74327E-01
 -1       959 1.04755E+00
 -1       960 1.45248E+00
 -1       961 2.08530E+00
 -1       962 3.11166E+00
 -1       963 3.46869E+00
 -1       964 4.04484E+00
 -1       965 4.04028E+00
 -1       966 4.69573E+00
 -1       967 2.57929E+00
 -1       968 1.76238E+00
 -1       969 1.24843E+00
 -1       970 9.09593E-01
 -1       971 6.73466E-01
 -1       972 5.29357E-01
 -1       973 2.11401E-01
 -1       974 4.49017E-01
 -1       975 3.52830E-01
 -1       976 7.00572E-01
 -1       977 8.93364E-01
 -1       978 1.23300E+00
 -1       979 1.66770E+00
 -1       980 2.37928E+00
 -1       981 3.58787E+00
 -1       982 1.21220E-01
 -1       983 1.25402E+00
 -1       984 8.82923E-01
 -1       985 6.93025E-01
 -1       986 5.43061E-01
 -1       987 4.40175E-01
 -1       988 2.02071E-01
 -1       989 4.08192E-01
 -1       990 4.08788E+00
 -1       991 1.51032E+00
 -1       992 1.35135E-01
 -1       993 2.39241E+00
 -1       994 2.03718E-01
 -1       995 5.54487E-01
 -1       996 1.34186E-01
 -1       997 1.18474E-01
 -1       998 1.82246E-01
 -1       999 1.15735E-01
 -1      1000 4.69570E+00
 -1      1001 2.99568E+00
 -1      1002 4.19531E-01
 -1      1003 4.04582E-01
 -1      1004 1.21449E-01
 -1      1005 1.39767E-01
 -1      1006 1.50626E-01
 -1      1007 2.68457E-01
 -1      1008 1.40006E-01
 -1      1009 4.34039E+00
 -1      1010 4.19531E-01
 -1      1011 3.62168E+00
 -1      1012 1.95901E-01
 -1      1013 1.01576E-01
 -1      1014 3.62168E+00
 -1      1015 1.02403E-01
 -1      1016 1.14754E-01
 -1      1017 1.28363E-01
 -1      1018 1.42600E-01
 -1      1019 1.68433E-01
 -1      1020 2.08935E-01
 -1      1021 2.61485E-01
 -1      1022 3.31844E-01
 -1      1023 4.26780E-01
 -1      1024 5.56582E-01
 -1      1025 7.36925E-01
 -1      1026 1.00276E+00
 -1      1027 1.41975E+00
 -1      1028 2.12710E+00
 -1      1029 4.69570E+00
 -1      1030 3.49444E+00
 -1      1031 1.79624E+00
 -1      1032 1.22000E+00
 -1      1033 8.72981E-01
 -1      1034 6.47939E-01
 -1      1035 5.29357E-01
 -1      1036 1.50626E-01
 -1      1037 6.93025E-01
 -1      1038 4.21067E-01
 -1      1039 1.44664E+00
 -1      1040 9.76390E-01
 -1      1041 3.62168E+00
 -1      1042 4.15641E+00
 -1      1043 8.82923E-01
 -1      1044 7.00572E-01
 -1      1045 8.65091E-02
 -1      1046 1.17945E+00
 -1      1047 5.33104E-01
 -1      1048 2.22573E+00
 -1      1049 1.01190E-01
 -1      1050 1.58279E+00
 -1      1051 1.12825E-01
 -1      1052 1.46014E-01
 -1      1053 9.83947E-02
 -1      1054 1.35932E-01
 -1      1055 5.47765E-01
 -1      1056 9.54979E-02
 -1      1057 4.53378E-01
 -1      1058 1.45760E-01
 -1      1059 1.78517E-01
 -1      1060 1.40704E-01
 -1      1061 2.96020E+00
 -1      1062 3.20182E-01
 -1      1063 3.16176E+00
 -1      1064 3.82351E-01
 -1      1065 1.03392E-01
 -1      1066 1.09245E-01
 -1      1067 8.54780E-02
 -1      1068 1.28409E-01
 -1      1069 1.42235E-01
 -1      1070 1.82270E-01
 -1      1071 2.02219E-01
 -1      1072 2.44227E-01
 -1      1073 3.01227E-01
 -1      1074 3.82889E-01
 -1      1075 4.88021E-01
 -1      1076 6.51810E-01
 -1      1077 9.37702E-01
 -1      1078 1.26984E+00
 -1      1079 1.72065E+00
 -1      1080 1.01190E-01
 -1      1081 6.51810E-01
 -1      1082 4.67593E-01
 -1      1083 2.11899E+00
 -1      1084 1.38228E+00
 -1      1085 9.08336E-01
 -1      1086 5.63929E-01
 -1      1087 3.16176E+00
 -1      1088 1.65177E-01
 -1      1089 1.00114E-01
 -1      1090 9.37702E-01
 -1      1091 9.76175E-02
 -1      1092 2.11899E+00
 -1      1093 2.84002E+00
 -1      1094 1.83370E+00
 -1      1095 1.24501E+00
 -1      1096 8.07293E-02
 -1      1097 1.26984E+00
 -1      1098 2.73545E+00
 -1      1099 1.74826E+00
 -1      1100 1.01463E-01
 -1      1101 1.14825E-01
 -1      1102 2.38022E-01
 -1      1103 1.21662E-01
 -1      1104 3.49886E-01
 -1      1105 1.83594E-01
 -1      1106 6.62090E-01
 -1      1107 1.83594E-01
 -1      1108 8.74127E-01
 -1      1109 9.25855E-02
 -1      1110 9.91471E-02
 -1      1111 1.83594E-01
 -1      1112 2.61584E-01
 -1      1113 7.95899E-02
 -1      1114 2.34448E+00
 -1      1115 1.67329E-01
 -1      1116 2.05737E-01
 -1      1117 2.34448E+00
 -1      1118 1.22215E-01
 -1      1119 2.61584E-01
 -1      1120 1.31502E+01
 -1      1121 8.40359E+00
 -1      1122 2.73785E+00
 -1      1123 1.55210E+00
 -1      1124 1.16270E+00
 -1      1125 9.68382E-01
 -1      1126 8.51668E-01
 -1      1127 7.79771E-01
 -1      1128 7.54036E-01
 -1      1129 7.82845E-01
 -1      1130 8.54225E-01
 -1      1131 9.73226E-01
 -1      1132 1.17589E+00
 -1      1133 1.56536E+00
 -1      1134 2.66312E+00
 -1      1135 6.07053E+00
 -1      1136 1.13442E+01
 -1      1137 1.31502E+01
 -1      1138 8.73955E+00
 -1      1139 3.84200E+00
 -1      1140 2.74111E+00
 -1      1141 1.75388E+00
 -1      1142 1.20820E+00
 -1      1143 9.19390E-01
 -1      1144 7.16994E-01
 -1      1145 5.65778E-01
 -1      1146 4.51274E-01
 -1      1147 3.65772E-01
 -1      1148 3.04143E-01
 -1      1149 2.62250E-01
 -1      1150 2.54010E-01
 -1      1151 2.88097E-01
 -1      1152 3.48971E-01
 -1      1153 4.28332E-01
 -1      1154 5.24967E-01
 -1      1155 6.33909E-01
 -1      1156 7.73792E-01
 -1      1157 9.81099E-01
 -1      1158 1.24637E+00
 -1      1159 1.54992E+00
 -1      1160 1.81965E+00
 -1      1161 1.92706E+00
 -1      1162 1.92451E+00
 -1      1163 1.92195E+00
 -1      1164 2.31741E+00
 -1      1165 3.79255E+00
 -1      1166 5.17161E+00
 -1      1167 5.47250E+00
 -1      1168 5.47403E+00
 -1      1169 4.76103E+00
 -1      1170 3.18887E+00
 -1      1171 2.12527E+00
 -1      1172 1.92682E+00
 -1      1173 1.93279E+00
 -1      1174 1.89432E+00
 -1      1175 1.71480E+00
 -1      1176 1.40883E+00
 -1      1177 1.11437E+00
 -1      1178 8.74301E-01
 -1      1179 7.07282E-01
 -1      1180 5.93769E-01
 -1      1181 4.84011E-01
 -1      1182 3.83918E-01
 -1      1183 2.97918E-01
 -1      1184 2.42724E-01
 -1      1185 1.82741E-01
 -1      1186 8.71144E-02
 -1      1187 1.40460E+01
 -1      1188 8.72487E+00
 -1      1189 2.91403E+00
 -1      1190 2.05167E+00
 -1      1191 1.41960E+00
 -1      1192 1.04299E+00
 -1      1193 8.41815E-01
 -1      1194 6.90583E-01
 -1      1195 5.69299E-01
 -1      1196 4.72731E-01
 -1      1197 3.98019E-01
 -1      1198 3.43048E-01
 -1      1199 3.05671E-01
 -1      1200 2.83366E-01
 -1      1201 2.76408E-01
 -1      1202 2.98782E-01
 -1      1203 3.44105E-01
 -1      1204 3.90091E-01
 -1      1205 4.27625E-01
 -1      1206 4.48105E-01
 -1      1207 4.90247E-01
 -1      1208 5.94558E-01
 -1      1209 7.08849E-01
 -1      1210 8.19532E-01
 -1      1211 9.81166E-01
 -1      1212 1.07903E+00
 -1      1213 1.21448E+00
 -1      1214 1.43447E+00
 -1      1215 1.90710E+00
 -1      1216 2.45467E+00
 -1      1217 2.78676E+00
 -1      1218 2.95938E+00
 -1      1219 2.87726E+00
 -1      1220 2.41764E+00
 -1      1221 1.63174E+00
 -1      1222 1.04174E+00
 -1      1223 8.10149E-01
 -1      1224 8.26363E-01
 -1      1225 8.92585E-01
 -1      1226 8.87944E-01
 -1      1227 8.37647E-01
 -1      1228 7.28772E-01
 -1      1229 6.08526E-01
 -1      1230 4.91711E-01
 -1      1231 3.87868E-01
 -1      1232 3.13814E-01
 -1      1233 2.51246E-01
 -1      1234 1.81074E-01
 -1      1235 1.19865E-01
 -1      1236 6.19802E-02
 -1      1237 3.46973E-02
 -1      1238 4.16930E-02
 -1      1239 3.97896E-02
 -1      1240 3.01480E-02
 -1      1241 1.88521E-02
 -1      1242 2.23191E-02
 -1      1243 3.41770E-02
 -1      1244 4.10812E-02
 -1      1245 4.31522E-02
 -1      1246 4.25050E-02
 -1      1247 3.78636E-02
 -1      1248 2.71448E-02
 -1      1249 2.17281E-02
 -1      1250 3.20391E-02
 -1      1251 5.09248E-02
 -1      1252 6.31786E-02
 -1      1253 5.02315E-02
 -1      1254 2.53170E+01
 -1      1255 3.56421E+01
 -1      1256 4.59672E+01
 -1      1257 3.25192E+01
 -1      1258 1.58435E+01
 -1      1259 1.29627E+01
 -1      1260 1.33095E+01
 -1      1261 1.30097E+01
 -1      1262 1.27099E+01
 -1      1263 1.27258E+01
 -1      1264 2.20259E+01
 -1      1265 3.13100E+01
 -1      1266 2.93626E+01
 -1      1267 2.62321E+01
 -1      1268 2.53280E+01
 -1      1269 2.56070E+01
 -1      1270 3.24088E+01
 -1      1271 3.92106E+01
 -1      1272 2.73574E+01
 -1      1273 1.46575E+01
 -1      1274 1.38107E+01
 -1      1275 1.31156E+01
 -1      1276 1.24205E+01
 -1      1277 1.21734E+01
 -1      1278 1.74959E+01
 -1      1279 3.59357E+01
 -1      1280 4.88057E+01
 -1      1281 3.69370E+01
 -1      1282 2.51926E+01
 -1      1283 1.31502E+01
 -1      1284 4.86382E+00
 -1      1285 9.61040E+00
 -1      1286 2.05595E+00
 -1      1287 2.97512E+00
 -1      1288 4.18192E+00
 -1      1289 1.39333E+00
 -1      1290 1.65992E+00
 -1      1291 1.89719E+00
 -1      1292 1.09715E+00
 -1      1293 1.21997E+00
 -1      1294 1.32778E+00
 -1      1295 9.32997E-01
 -1      1296 1.00451E+00
 -1      1297 1.06177E+00
 -1      1298 8.34350E-01
 -1      1299 8.79554E-01
 -1      1300 9.15679E-01
 -1      1301 7.73827E-01
 -1      1302 8.00520E-01
 -1      1303 8.28406E-01
 -1      1304 7.54992E-01
 -1      1305 7.54036E-01
 -1      1306 7.74784E-01
 -1      1307 8.04321E-01
 -1      1308 7.76469E-01
 -1      1309 7.76469E-01
 -1      1310 8.81414E-01
 -1      1311 8.37886E-01
 -1      1312 8.31510E-01
 -1      1313 1.01335E+00
 -1      1314 9.37880E-01
 -1      1315 9.21542E-01
 -1      1316 1.23585E+00
 -1      1317 1.10865E+00
 -1      1318 1.07331E+00
 -1      1319 1.67522E+00
 -1      1320 1.41295E+00
 -1      1321 1.34571E+00
 -1      1322 2.87709E+00
 -1      1323 2.04160E+00
 -1      1324 1.88919E+00
 -1      1325 6.28446E+00
 -1      1326 3.71256E+00
 -1      1327 3.09103E+00
 -1      1328 1.40460E+01
 -1      1329 1.13442E+01
 -1      1330 8.98626E+00
 -1      1331 1.40460E+01
 -1      1332 8.73955E+00
 -1      1333 4.32894E+00
 -1      1334 3.84200E+00
 -1      1335 3.35506E+00
 -1      1336 3.84200E+00
 -1      1337 2.74111E+00
 -1      1338 2.12716E+00
 -1      1339 2.74111E+00
 -1      1340 1.79441E+00
 -1      1341 1.42113E+00
 -1      1342 1.79441E+00
 -1      1343 1.21114E+00
 -1      1344 1.03874E+00
 -1      1345 1.25167E+00
 -1      1346 9.19390E-01
 -1      1347 8.02977E-01
 -1      1348 9.22327E-01
 -1      1349 7.16994E-01
 -1      1350 6.31011E-01
 -1      1351 7.16994E-01
 -1      1352 5.66392E-01
 -1      1353 5.01159E-01
 -1      1354 5.66392E-01
 -1      1355 4.54776E-01
 -1      1356 4.05504E-01
 -1      1357 4.55390E-01
 -1      1358 3.68533E-01
 -1      1359 3.32303E-01
 -1      1360 3.72036E-01
 -1      1361 3.04143E-01
 -1      1362 2.78744E-01
 -1      1363 3.06904E-01
 -1      1364 2.62250E-01
 -1      1365 2.45756E-01
 -1      1366 2.62250E-01
 -1      1367 2.36623E-01
 -1      1368 2.44877E-01
 -1      1369 2.36623E-01
 -1      1370 2.62264E-01
 -1      1371 2.88097E-01
 -1      1372 2.44877E-01
 -1      1373 3.13929E-01
 -1      1374 3.48971E-01
 -1      1375 2.88097E-01
 -1      1376 3.84012E-01
 -1      1377 4.28332E-01
 -1      1378 3.48971E-01
 -1      1379 4.74218E-01
 -1      1380 5.26533E-01
 -1      1381 4.29898E-01
 -1      1382 6.09116E-01
 -1      1383 6.65744E-01
 -1      1384 5.58368E-01
 -1      1385 7.60394E-01
 -1      1386 8.43650E-01
 -1      1387 7.35601E-01
 -1      1388 9.43400E-01
 -1      1389 1.06745E+00
 -1      1390 9.30002E-01
 -1      1391 1.15752E+00
 -1      1392 1.29874E+00
 -1      1393 1.11982E+00
 -1      1394 1.39952E+00
 -1      1395 1.56184E+00
 -1      1396 1.31067E+00
 -1      1397 1.71224E+00
 -1      1398 1.81965E+00
 -1      1399 1.56184E+00
 -1      1400 1.92706E+00
 -1      1401 1.92706E+00
 -1      1402 1.81965E+00
 -1      1403 1.88551E+00
 -1      1404 1.88295E+00
 -1      1405 1.88551E+00
 -1      1406 1.92195E+00
 -1      1407 1.92195E+00
 -1      1408 1.88295E+00
 -1      1409 1.91701E+00
 -1      1410 2.31246E+00
 -1      1411 1.91701E+00
 -1      1412 2.81381E+00
 -1      1413 3.89350E+00
 -1      1414 2.41341E+00
 -1      1415 4.87224E+00
 -1      1416 5.17161E+00
 -1      1417 3.89350E+00
 -1      1418 5.47097E+00
 -1      1419 5.47250E+00
 -1      1420 5.17161E+00
 -1      1421 5.47403E+00
 -1      1422 5.47403E+00
 -1      1423 5.47250E+00
 -1      1424 4.76103E+00
 -1      1425 4.04804E+00
 -1      1426 4.76103E+00
 -1      1427 3.18887E+00
 -1      1428 2.32970E+00
 -1      1429 3.18887E+00
 -1      1430 2.02865E+00
 -1      1431 1.82423E+00
 -1      1432 2.02865E+00
 -1      1433 1.92084E+00
 -1      1434 1.92682E+00
 -1      1435 1.82423E+00
 -1      1436 1.93279E+00
 -1      1437 1.93279E+00
 -1      1438 1.92682E+00
 -1      1439 1.89432E+00
 -1      1440 1.85585E+00
 -1      1441 1.89432E+00
 -1      1442 1.71480E+00
 -1      1443 1.57375E+00
 -1      1444 1.71480E+00
 -1      1445 1.44027E+00
 -1      1446 1.27535E+00
 -1      1447 1.44027E+00
 -1      1448 1.18525E+00
 -1      1449 1.05572E+00
 -1      1450 1.21669E+00
 -1      1451 9.57215E-01
 -1      1452 8.46678E-01
 -1      1453 1.02810E+00
 -1      1454 7.45696E-01
 -1      1455 6.89213E-01
 -1      1456 8.28609E-01
 -1      1457 5.96938E-01
 -1      1458 5.39908E-01
 -1      1459 6.35352E-01
 -1      1460 4.84011E-01
 -1      1461 4.31283E-01
 -1      1462 4.87180E-01
 -1      1463 3.83918E-01
 -1      1464 3.36552E-01
 -1      1465 3.83918E-01
 -1      1466 2.97918E-01
 -1      1467 2.59283E-01
 -1      1468 2.97918E-01
 -1      1469 2.42724E-01
 -1      1470 2.26165E-01
 -1      1471 2.42724E-01
 -1      1472 1.82741E-01
 -1      1473 1.39316E-01
 -1      1474 1.82741E-01
 -1      1475 1.02433E-01
 -1      1476 1.02433E-01
 -1      1477 3.40372E+00
 -1      1478 8.72487E+00
 -1      1479 8.72487E+00
 -1      1480 2.42433E+00
 -1      1481 2.91403E+00
 -1      1482 2.91403E+00
 -1      1483 1.67901E+00
 -1      1484 2.05167E+00
 -1      1485 2.05167E+00
 -1      1486 1.16020E+00
 -1      1487 1.41960E+00
 -1      1488 1.41960E+00
 -1      1489 9.25786E-01
 -1      1490 1.04299E+00
 -1      1491 1.04299E+00
 -1      1492 7.57843E-01
 -1      1493 8.41815E-01
 -1      1494 8.41815E-01
 -1      1495 6.23324E-01
 -1      1496 6.90583E-01
 -1      1497 6.90583E-01
 -1      1498 5.15275E-01
 -1      1499 5.69299E-01
 -1      1500 5.69299E-01
 -1      1501 4.30187E-01
 -1      1502 4.72731E-01
 -1      1503 4.72731E-01
 -1      1504 3.65850E-01
 -1      1505 3.98019E-01
 -1      1506 3.98019E-01
 -1      1507 3.20245E-01
 -1      1508 3.43048E-01
 -1      1509 3.43048E-01
 -1      1510 2.91097E-01
 -1      1511 3.05671E-01
 -1      1512 3.05671E-01
 -1      1513 2.75635E-01
 -1      1514 2.83366E-01
 -1      1515 2.83366E-01
 -1      1516 2.73749E-01
 -1      1517 2.72977E-01
 -1      1518 2.72977E-01
 -1      1519 2.99889E-01
 -1      1520 2.78287E-01
 -1      1521 2.74856E-01
 -1      1522 3.44105E-01
 -1      1523 3.20384E-01
 -1      1524 2.99889E-01
 -1      1525 3.90091E-01
 -1      1526 3.67825E-01
 -1      1527 3.44105E-01
 -1      1528 4.27625E-01
 -1      1529 4.12356E-01
 -1      1530 3.90091E-01
 -1      1531 4.48105E-01
 -1      1532 4.42895E-01
 -1      1533 4.27625E-01
 -1      1534 4.91148E-01
 -1      1535 4.54216E-01
 -1      1536 4.49006E-01
 -1      1537 6.03152E-01
 -1      1538 5.35773E-01
 -1      1539 4.99741E-01
 -1      1540 7.08849E-01
 -1      1541 6.61938E-01
 -1      1542 6.03152E-01
 -1      1543 8.19532E-01
 -1      1544 7.55760E-01
 -1      1545 7.08849E-01
 -1      1546 9.81166E-01
 -1      1547 8.83303E-01
 -1      1548 8.19532E-01
 -1      1549 1.07903E+00
 -1      1550 1.07903E+00
 -1      1551 9.81166E-01
 -1      1552 1.20956E+00
 -1      1553 1.07411E+00
 -1      1554 1.07411E+00
 -1      1555 1.43447E+00
 -1      1556 1.34993E+00
 -1      1557 1.20956E+00
 -1      1558 1.98587E+00
 -1      1559 1.59778E+00
 -1      1560 1.51324E+00
 -1      1561 2.45467E+00
 -1      1562 2.29519E+00
 -1      1563 1.98587E+00
 -1      1564 2.78676E+00
 -1      1565 2.61414E+00
 -1      1566 2.45467E+00
 -1      1567 2.95938E+00
 -1      1568 2.95938E+00
 -1      1569 2.78676E+00
 -1      1570 2.79514E+00
 -1      1571 2.87726E+00
 -1      1572 2.87726E+00
 -1      1573 2.04015E+00
 -1      1574 2.41764E+00
 -1      1575 2.41764E+00
 -1      1576 1.22333E+00
 -1      1577 1.63174E+00
 -1      1578 1.63174E+00
 -1      1579 8.60157E-01
 -1      1580 1.04174E+00
 -1      1581 1.04174E+00
 -1      1582 7.51058E-01
 -1      1583 8.01066E-01
 -1      1584 8.01066E-01
 -1      1585 8.26363E-01
 -1      1586 7.60141E-01
 -1      1587 7.51058E-01
 -1      1588 8.92585E-01
 -1      1589 8.92585E-01
 -1      1590 8.26363E-01
 -1      1591 8.83302E-01
 -1      1592 8.87944E-01
 -1      1593 8.87944E-01
 -1      1594 7.91993E-01
 -1      1595 8.37647E-01
 -1      1596 8.37647E-01
 -1      1597 6.65551E-01
 -1      1598 7.28772E-01
 -1      1599 7.28772E-01
 -1      1600 5.51500E-01
 -1      1601 6.08526E-01
 -1      1602 6.08526E-01
 -1      1603 4.37898E-01
 -1      1604 4.97688E-01
 -1      1605 4.97688E-01
 -1      1606 3.43814E-01
 -1      1607 3.87868E-01
 -1      1608 3.93845E-01
 -1      1609 2.83814E-01
 -1      1610 3.13814E-01
 -1      1611 3.13814E-01
 -1      1612 2.18677E-01
 -1      1613 2.51246E-01
 -1      1614 2.51246E-01
 -1      1615 1.45333E-01
 -1      1616 1.82936E-01
 -1      1617 1.82936E-01
 -1      1618 9.62587E-02
 -1      1619 1.19865E-01
 -1      1620 1.21727E-01
 -1      1621 6.89759E-02
 -1      1622 5.01833E-02
 -1      1623 5.01833E-02
 -1      1624 4.93386E-02
 -1      1625 5.12421E-02
 -1      1626 5.97323E-02
 -1      1627 4.16005E-02
 -1      1628 4.93386E-02
 -1      1629 6.07911E-02
 -1      1630 2.31086E-02
 -1      1631 2.66664E-02
 -1      1632 4.58570E-02
 -1      1633 4.07161E-02
 -1      1634 3.36913E-02
 -1      1635 4.15056E-02
 -1      1636 5.54617E-02
 -1      1637 5.06285E-02
 -1      1638 6.20007E-02
 -1      1639 6.27455E-02
 -1      1640 6.06744E-02
 -1      1641 7.71259E-02
 -1      1642 6.32851E-02
 -1      1643 6.32851E-02
 -1      1644 8.28783E-02
 -1      1645 6.26378E-02
 -1      1646 6.32851E-02
 -1      1647 8.34179E-02
 -1      1648 5.61965E-02
 -1      1649 6.01906E-02
 -1      1650 8.09707E-02
 -1      1651 4.17208E-02
 -1      1652 4.84456E-02
 -1      1653 7.07725E-02
 -1      1654 2.99529E-02
 -1      1655 2.86448E-02
 -1      1656 4.99456E-02
 -1      1657 5.33937E-02
 -1      1658 4.43908E-02
 -1      1659 5.13075E-02
 -1      1660 6.32765E-02
 -1      1661 5.33937E-02
 -1      1662 6.57455E-02
 -1      1663 7.48174E-02
 -1      1664 7.24463E-02
 -1      1665 7.49153E-02
 -1      1666 1.11700E-01
 -1      1667 2.84016E+01
 -1      1668 2.84016E+01
 -1      1669 3.64838E+01
 -1      1670 2.61587E+01
 -1      1671 4.59672E+01
 -1      1672 4.59672E+01
 -1      1673 1.92913E+01
 -1      1674 3.27393E+01
 -1      1675 1.17846E+01
 -1      1676 1.50122E+01
 -1      1677 1.29627E+01
 -1      1678 1.26159E+01
 -1      1679 1.33095E+01
 -1      1680 1.33095E+01
 -1      1681 1.23369E+01
 -1      1682 1.26367E+01
 -1      1683 1.27099E+01
 -1      1684 1.27099E+01
 -1      1685 1.24040E+01
 -1      1686 1.23881E+01
 -1      1687 2.20259E+01
 -1      1688 1.27418E+01
 -1      1689 3.13100E+01
 -1      1690 3.13100E+01
 -1      1691 2.92586E+01
 -1      1692 3.12059E+01
 -1      1693 2.52409E+01
 -1      1694 2.64241E+01
 -1      1695 2.71040E+01
 -1      1696 2.68249E+01
 -1      1697 2.71040E+01
 -1      1698 2.71040E+01
 -1      1699 3.76431E+01
 -1      1700 3.08413E+01
 -1      1701 3.92106E+01
 -1      1702 3.92106E+01
 -1      1703 1.57948E+01
 -1      1704 2.76479E+01
 -1      1705 1.29276E+01
 -1      1706 1.37744E+01
 -1      1707 1.38107E+01
 -1      1708 1.38107E+01
 -1      1709 1.21259E+01
 -1      1710 1.28209E+01
 -1      1711 1.24205E+01
 -1      1712 1.24205E+01
 -1      1713 1.19262E+01
 -1      1714 1.21734E+01
 -1      1715 1.72989E+01
 -1      1716 1.17292E+01
 -1      1717 3.65277E+01
 -1      1718 2.36577E+01
 -1      1719 4.88057E+01
 -1      1720 4.88057E+01
 -1      1721 2.77751E+01
 -1      1722 3.96438E+01
 -1      1723 2.84016E+01
 -1      1724 2.82773E+01
 -1      1725 1.52324E+01
 -1      1726 3.27393E+01
 -1      1727 6.89759E-02
 -1      1728 7.74661E-02
 -1      1729 2.92433E+01
 -1      1730 3.64838E+01
 -1      1731 3.14862E+01
 -1      1732 1.17846E+01
 -1      1733 1.29627E+01
 -1      1734 1.26367E+01
 -1      1735 1.23369E+01
 -1      1736 1.23881E+01
 -1      1737 1.24040E+01
 -1      1738 2.20259E+01
 -1      1739 3.12059E+01
 -1      1740 2.82674E+01
 -1      1741 2.70170E+01
 -1      1742 2.86010E+01
 -1      1743 3.23383E+01
 -1      1744 3.76431E+01
 -1      1745 2.76479E+01
 -1      1746 1.40649E+01
 -1      1747 1.29276E+01
 -1      1748 1.28209E+01
 -1      1749 1.21259E+01
 -1      1750 1.21734E+01
 -1      1751 1.17292E+01
 -1      1752 1.78910E+01
 -1      1753 3.65277E+01
 -1      1754 3.96438E+01
 -1      1755 3.09840E+01
 -1      1756 9.61040E+00
 -1      1757 1.28195E+00
 -1      1758 1.67798E+00
 -1      1759 2.38245E+00
 -1      1760 4.27115E+00
 -1      1761 1.76721E+00
 -1      1762 8.77329E-01
 -1      1763 9.69977E-01
 -1      1764 7.77290E-01
 -1      1765 8.30733E-01
 -1      1766 7.38940E-01
 -1      1767 7.12148E-01
 -1      1768 7.45978E-01
 -1      1769 6.61032E-01
 -1      1770 6.70490E-01
 -1      1771 6.90281E-01
 -1      1772 6.07854E-01
 -1      1773 6.93531E-01
 -1      1774 6.72055E-01
 -1      1775 5.87552E-01
 -1      1776 7.48676E-01
 -1      1777 7.15111E-01
 -1      1778 6.10697E-01
 -1      1779 8.38200E-01
 -1      1780 7.81734E-01
 -1      1781 6.65334E-01
 -1      1782 9.80815E-01
 -1      1783 8.85513E-01
 -1      1784 7.45706E-01
 -1      1785 1.22537E+00
 -1      1786 1.04827E+00
 -1      1787 8.60477E-01
 -1      1788 1.70402E+00
 -1      1789 1.33765E+00
 -1      1790 1.04021E+00
 -1      1791 2.62388E+00
 -1      1792 1.78841E+00
 -1      1793 1.23687E+00
 -1      1794 8.12465E+00
 -1      1795 3.06489E+00
 -1      1796 1.76227E+00
 -1      1797 2.80350E+00
 -1      1798 5.19978E+00
 -1      1799 2.17048E+00
 -1      1800 2.66017E+00
 -1      1801 2.05995E+00
 -1      1802 3.40031E+00
 -1      1803 2.54783E+00
 -1      1804 1.93387E+00
 -1      1805 1.70351E+00
 -1      1806 1.37076E+00
 -1      1807 1.51022E+00
 -1      1808 1.19113E+00
 -1      1809 9.81141E-01
 -1      1810 1.10023E+00
 -1      1811 8.56153E-01
 -1      1812 7.36803E-01
 -1      1813 7.95617E-01
 -1      1814 6.82876E-01
 -1      1815 5.96893E-01
 -1      1816 6.16702E-01
 -1      1817 5.51041E-01
 -1      1818 4.86422E-01
 -1      1819 5.16923E-01
 -1      1820 4.46716E-01
 -1      1821 4.00333E-01
 -1      1822 4.31365E-01
 -1      1823 3.67011E-01
 -1      1824 3.30040E-01
 -1      1825 3.58337E-01
 -1      1826 3.02842E-01
 -1      1827 2.74681E-01
 -1      1828 2.97817E-01
 -1      1829 2.52890E-01
 -1      1830 2.36396E-01
 -1      1831 2.48828E-01
 -1      1832 2.18924E-01
 -1      1833 2.09791E-01
 -1      1834 2.09564E-01
 -1      1835 2.20548E-01
 -1      1836 2.37935E-01
 -1      1837 2.02849E-01
 -1      1838 2.57578E-01
 -1      1839 2.83410E-01
 -1      1840 2.33249E-01
 -1      1841 3.09589E-01
 -1      1842 3.44631E-01
 -1      1843 2.79070E-01
 -1      1844 4.07015E-01
 -1      1845 4.52901E-01
 -1      1846 3.67633E-01
 -1      1847 5.27107E-01
 -1      1848 6.09690E-01
 -1      1849 5.04223E-01
 -1      1850 6.94917E-01
 -1      1851 7.89568E-01
 -1      1852 6.63656E-01
 -1      1853 8.81552E-01
 -1      1854 9.81302E-01
 -1      1855 8.40868E-01
 -1      1856 1.07023E+00
 -1      1857 1.16030E+00
 -1      1858 1.02178E+00
 -1      1859 1.22878E+00
 -1      1860 1.32955E+00
 -1      1861 1.17919E+00
 -1      1862 1.40016E+00
 -1      1863 1.55056E+00
 -1      1864 1.31827E+00
 -1      1865 1.60638E+00
 -1      1866 1.71379E+00
 -1      1867 1.44469E+00
 -1      1868 1.72388E+00
 -1      1869 1.68232E+00
 -1      1870 1.51060E+00
 -1      1871 1.61564E+00
 -1      1872 1.65464E+00
 -1      1873 1.45401E+00
 -1      1874 1.77351E+00
 -1      1875 1.76857E+00
 -1      1876 1.50620E+00
 -1      1877 1.90527E+00
 -1      1878 2.40662E+00
 -1      1879 1.76177E+00
 -1      1880 2.75651E+00
 -1      1881 3.73525E+00
 -1      1882 2.24837E+00
 -1      1883 4.19390E+00
 -1      1884 4.49326E+00
 -1      1885 3.05691E+00
 -1      1886 4.59815E+00
 -1      1887 4.59968E+00
 -1      1888 3.62044E+00
 -1      1889 4.25141E+00
 -1      1890 3.53841E+00
 -1      1891 3.37705E+00
 -1      1892 3.15696E+00
 -1      1893 2.29779E+00
 -1      1894 2.64733E+00
 -1      1895 1.97805E+00
 -1      1896 1.67701E+00
 -1      1897 1.94614E+00
 -1      1898 1.65221E+00
 -1      1899 1.74883E+00
 -1      1900 1.60161E+00
 -1      1901 1.69600E+00
 -1      1902 1.70197E+00
 -1      1903 1.52398E+00
 -1      1904 1.72279E+00
 -1      1905 1.68432E+00
 -1      1906 1.49197E+00
 -1      1907 1.66041E+00
 -1      1908 1.51936E+00
 -1      1909 1.48888E+00
 -1      1910 1.44374E+00
 -1      1911 1.31026E+00
 -1      1912 1.38936E+00
 -1      1913 1.24665E+00
 -1      1914 1.15656E+00
 -1      1915 1.25013E+00
 -1      1916 1.07538E+00
 -1      1917 9.76876E-01
 -1      1918 1.10534E+00
 -1      1919 8.83748E-01
 -1      1920 7.82766E-01
 -1      1921 9.31033E-01
 -1      1922 6.91796E-01
 -1      1923 5.99521E-01
 -1      1924 7.46935E-01
 -1      1925 5.18213E-01
 -1      1926 4.62316E-01
 -1      1927 5.74657E-01
 -1      1928 3.93820E-01
 -1      1929 3.46454E-01
 -1      1930 4.24852E-01
 -1      1931 2.95735E-01
 -1      1932 2.57101E-01
 -1      1933 3.05637E-01
 -1      1934 2.22766E-01
 -1      1935 2.06207E-01
 -1      1936 2.20583E-01
 -1      1937 1.74030E-01
 -1      1938 1.30605E-01
 -1      1939 1.02989E-01
 -1      1940 1.54071E-01
 -1      1941 1.40921E+00
 -1      1942 1.78187E+00
 -1      1943 1.52802E+00
 -1      1944 1.03081E+00
 -1      1945 1.29022E+00
 -1      1946 1.02042E+00
 -1      1947 8.20005E-01
 -1      1948 9.37210E-01
 -1      1949 8.07824E-01
 -1      1950 6.56498E-01
 -1      1951 7.40469E-01
 -1      1952 6.34687E-01
 -1      1953 5.40573E-01
 -1      1954 6.07833E-01
 -1      1955 5.06488E-01
 -1      1956 4.54795E-01
 -1      1957 5.08819E-01
 -1      1958 4.26069E-01
 -1      1959 3.82639E-01
 -1      1960 4.25183E-01
 -1      1961 3.64704E-01
 -1      1962 3.29474E-01
 -1      1963 3.61642E-01
 -1      1964 3.14094E-01
 -1      1965 2.90059E-01
 -1      1966 3.12862E-01
 -1      1967 2.76485E-01
 -1      1968 2.63320E-01
 -1      1969 2.77894E-01
 -1      1970 2.47709E-01
 -1      1971 2.47439E-01
 -1      1972 2.55170E-01
 -1      1973 2.27393E-01
 -1      1974 2.41763E-01
 -1      1975 2.44421E-01
 -1      1976 2.16225E-01
 -1      1977 2.61302E-01
 -1      1978 2.56764E-01
 -1      1979 2.28208E-01
 -1      1980 3.10208E-01
 -1      1981 2.89713E-01
 -1      1982 2.71620E-01
 -1      1983 3.76007E-01
 -1      1984 3.52286E-01
 -1      1985 3.42110E-01
 -1      1986 4.38752E-01
 -1      1987 4.16486E-01
 -1      1988 4.24668E-01
 -1      1989 4.87726E-01
 -1      1990 4.72457E-01
 -1      1991 4.98852E-01
 -1      1992 5.25983E-01
 -1      1993 5.19872E-01
 -1      1994 5.64703E-01
 -1      1995 5.80379E-01
 -1      1996 5.35754E-01
 -1      1997 6.06620E-01
 -1      1998 6.39165E-01
 -1      1999 5.80379E-01
 -1      2000 6.16391E-01
 -1      2001 6.58139E-01
 -1      2002 6.11228E-01
 -1      2003 5.88455E-01
 -1      2004 6.63437E-01
 -1      2005 5.99666E-01
 -1      2006 5.02045E-01
 -1      2007 7.89927E-01
 -1      2008 6.92065E-01
 -1      2009 4.72199E-01
 -1      2010 9.71247E-01
 -1      2011 9.76162E-01
 -1      2012 6.87062E-01
 -1      2013 1.34768E+00
 -1      2014 1.20731E+00
 -1      2015 1.10936E+00
 -1      2016 1.63887E+00
 -1      2017 1.47556E+00
 -1      2018 1.47330E+00
 -1      2019 1.94819E+00
 -1      2020 1.63887E+00
 -1      2021 1.60118E+00
 -1      2022 2.08734E+00
 -1      2023 1.92786E+00
 -1      2024 1.58086E+00
 -1      2025 2.33791E+00
 -1      2026 2.16530E+00
 -1      2027 1.63849E+00
 -1      2028 2.29680E+00
 -1      2029 2.37892E+00
 -1      2030 1.75746E+00
 -1      2031 1.76121E+00
 -1      2032 2.13870E+00
 -1      2033 1.64037E+00
 -1      2034 1.11452E+00
 -1      2035 1.52293E+00
 -1      2036 1.24399E+00
 -1      2037 7.46596E-01
 -1      2038 9.28183E-01
 -1      2039 8.19373E-01
 -1      2040 5.65539E-01
 -1      2041 6.24631E-01
 -1      2042 5.11069E-01
 -1      2043 6.56642E-01
 -1      2044 6.47558E-01
 -1      2045 4.71123E-01
 -1      2046 7.52204E-01
 -1      2047 6.85982E-01
 -1      2048 5.82483E-01
 -1      2049 7.70920E-01
 -1      2050 7.75562E-01
 -1      2051 6.35180E-01
 -1      2052 7.11733E-01
 -1      2053 7.57388E-01
 -1      2054 6.45006E-01
 -1      2055 6.14029E-01
 -1      2056 6.77249E-01
 -1      2057 5.96990E-01
 -1      2058 5.23823E-01
 -1      2059 5.80849E-01
 -1      2060 5.29326E-01
 -1      2061 4.28305E-01
 -1      2062 4.82117E-01
 -1      2063 4.54440E-01
 -1      2064 3.34525E-01
 -1      2065 3.84556E-01
 -1      2066 3.68985E-01
 -1      2067 2.70853E-01
 -1      2068 3.00853E-01
 -1      2069 2.91564E-01
 -1      2070 2.11748E-01
 -1      2071 2.44317E-01
 -1      2072 2.31356E-01
 -1      2073 1.47195E-01
 -1      2074 1.82936E-01
 -1      2075 1.76007E-01
 -1      2076 9.14226E-02
 -1      2077 1.16891E-01
 -1      2078 1.16891E-01
 -1      2079 7.26300E-02
 -1      2080 4.81498E-02
 -1      2081 6.30839E-02
 -1      2082 8.70694E-02
 -1      2083 8.70694E-02
 -1      2084 8.93622E-02
 -1      2085 8.70694E-02
 -1      2086 8.60106E-02
 -1      2087 9.99671E-02
 -1      2088 1.13348E-01
 -1      2089 5.99312E-02
 -1      2090 4.93485E-02
 -1      2091 6.65754E-02
 -1      2092 8.45620E-02
 -1      2093 7.46496E-02
 -1      2094 8.24925E-02
 -1      2095 9.86806E-02
 -1      2096 9.34679E-02
 -1      2097 1.06117E-01
 -1      2098 1.00576E-01
 -1      2099 1.00037E-01
 -1      2100 1.16379E-01
 -1      2101 1.01515E-01
 -1      2102 1.01515E-01
 -1      2103 1.18674E-01
 -1      2104 9.90680E-02
 -1      2105 1.01515E-01
 -1      2106 1.19612E-01
 -1      2107 8.72684E-02
 -1      2108 9.50194E-02
 -1      2109 1.15564E-01
 -1      2110 6.17698E-02
 -1      2111 7.48459E-02
 -1      2112 9.90927E-02
 -1      2113 6.84760E-02
 -1      2114 5.40381E-02
 -1      2115 7.89384E-02
 -1      2116 8.74510E-02
 -1      2117 8.74510E-02
 -1      2118 9.01815E-02
 -1      2119 3.64838E+01
 -1      2120 2.70004E+01
 -1      2121 3.17760E+01
 -1      2122 3.17760E+01
 -1      2123 2.95331E+01
 -1      2124 3.17760E+01
 -1      2125 1.76241E+01
 -1      2126 3.08520E+01
 -1      2127 9.48955E+00
 -1      2128 1.37686E+01
 -1      2129 1.18812E+01
 -1      2130 1.03173E+00
 -1      2131 1.20510E+00
 -1      2132 9.85895E-01
 -1      2133 8.47292E-01
 -1      2134 1.12476E+01
 -1      2135 1.09008E+01
 -1      2136 1.11788E+01
 -1      2137 1.18516E+01
 -1      2138 1.15838E+01
 -1      2139 1.12108E+01
 -1      2140 1.04257E+01
 -1      2141 1.00127E+01
 -1      2142 1.03345E+01
 -1      2143 9.37501E+00
 -1      2144 9.03726E+00
 -1      2145 2.15566E+01
 -1      2146 1.22725E+01
 -1      2147 8.90571E+00
 -1      2148 2.56937E+01
 -1      2149 2.57978E+01
 -1      2150 2.55459E+01
 -1      2151 2.83804E+01
 -1      2152 3.26055E+01
 -1      2153 3.10215E+01
 -1      2154 3.26055E+01
 -1      2155 3.26055E+01
 -1      2156 3.21085E+01
 -1      2157 2.83711E+01
 -1      2158 3.17442E+01
 -1      2159 3.01767E+01
 -1      2160 1.48400E+01
 -1      2161 2.64026E+01
 -1      2162 9.78027E+00
 -1      2163 1.18006E+01
 -1      2164 1.08573E+01
 -1      2165 9.97431E+00
 -1      2166 7.70999E+00
 -1      2167 1.13450E+01
 -1      2168 1.23347E+01
 -1      2169 1.18579E+01
 -1      2170 1.15632E+01
 -1      2171 1.10770E+01
 -1      2172 1.11604E+01
 -1      2173 1.14076E+01
 -1      2174 9.35312E+00
 -1      2175 9.55012E+00
 -1      2176 8.78431E+00
 -1      2177 1.71499E+01
 -1      2178 1.07912E+01
 -1      2179 3.31381E+01
 -1      2180 2.08602E+01
 -1      2181 3.04818E+01
 -1      2182 3.96438E+01
 -1      2183 3.17038E+01
 -1      2184 3.12016E+01
 -1      2185 1.01117E+01
 -1      2186 9.28042E+00
 -1      2187 8.39661E+00
 -1      2188 2.91337E+00
 -1      2189 7.81662E+00
 -1      2190 2.10613E+00
 -1      2191 2.95331E+01
 -1      2192 3.20658E+01
 -1      2193 9.66208E-02
 -1      2194 2.13686E+01
 -1      2195 3.19936E+01
 -1      2196 3.12016E+01
 -1      2197 2.39762E+01
 -1      2198 8.61206E+00
 -1      2199 1.08449E+01
 -1      2200 1.12201E+01
 -1      2201 8.26674E+00
 -1      2202 9.74408E+00
 -1      2203 1.19926E+01
 -1      2204 1.07473E+01
 -1      2205 7.70796E+00
 -1      2206 1.89362E+01
 -1      2207 2.62095E+01
 -1      2208 3.23757E+01
 -1      2209 3.66101E+01
 -1      2210 3.11345E+01
 -1      2211 1.60444E+01
 -1      2212 9.20841E+00
 -1      2213 1.13433E+01
 -1      2214 9.28145E+00
 -1      2215 9.88542E+00
 -1      2216 8.28930E+00
 -1      2217 6.23572E+00
 -1      2218 5.26028E+00
 -1      2219 2.29722E+01
 -1      2220 1.37603E+01
 -1      2221 1.09837E+00
 -1      2222 1.48698E+00
 -1      2223 5.56897E-01
 -1      2224 5.88209E-01
 -1      2225 6.00279E-01
 -1      2226 6.46875E-01
 -1      2227 4.96144E-01
 -1      2228 5.09485E-01
 -1      2229 5.07919E-01
 -1      2230 5.43811E-01
 -1      2231 5.22232E-01
 -1      2232 4.42599E-01
 -1      2233 5.91453E-01
 -1      2234 5.58395E-01
 -1      2235 4.69930E-01
 -1      2236 6.50628E-01
 -1      2237 6.03314E-01
 -1      2238 4.96375E-01
 -1      2239 7.18086E-01
 -1      2240 6.50628E-01
 -1      2241 5.08236E-01
 -1      2242 8.75654E-01
 -1      2243 7.63379E-01
 -1      2244 5.53529E-01
 -1      2245 9.01425E-01
 -1      2246 1.02042E+00
 -1      2247 9.79376E-01
 -1      2248 1.27174E+00
 -1      2249 1.04138E+00
 -1      2250 6.63808E+00
 -1      2251 6.84722E+00
 -1      2252 2.29407E+01
 -1      2253 2.54734E+01
 -1      2254 9.95443E-01
 -1      2255 8.15817E-01
 -1      2256 7.56964E-01
 -1      2257 7.59005E-01
 -1      2258 6.34017E-01
 -1      2259 6.54217E-01
 -1      2260 5.77350E-01
 -1      2261 5.23423E-01
 -1      2262 5.40738E-01
 -1      2263 4.75887E-01
 -1      2264 4.30034E-01
 -1      2265 4.36534E-01
 -1      2266 4.06871E-01
 -1      2267 3.67166E-01
 -1      2268 3.65835E-01
 -1      2269 3.42720E-01
 -1      2270 3.09398E-01
 -1      2271 3.18226E-01
 -1      2272 2.85643E-01
 -1      2273 2.58444E-01
 -1      2274 2.70025E-01
 -1      2275 2.36084E-01
 -1      2276 2.14293E-01
 -1      2277 2.23910E-01
 -1      2278 1.93172E-01
 -1      2279 1.75699E-01
 -1      2280 1.80428E-01
 -1      2281 1.71265E-01
 -1      2282 1.82022E-01
 -1      2283 1.54872E-01
 -1      2284 1.95147E-01
 -1      2285 2.14789E-01
 -1      2286 1.63562E-01
 -1      2287 2.49706E-01
 -1      2288 2.75885E-01
 -1      2289 2.11604E-01
 -1      2290 3.30265E-01
 -1      2291 3.92649E-01
 -1      2292 3.00901E-01
 -1      2293 4.57641E-01
 -1      2294 5.31847E-01
 -1      2295 4.20272E-01
 -1      2296 6.08498E-01
 -1      2297 6.93725E-01
 -1      2298 5.61915E-01
 -1      2299 7.81719E-01
 -1      2300 8.73704E-01
 -1      2301 7.26561E-01
 -1      2302 9.70240E-01
 -1      2303 1.05917E+00
 -1      2304 9.11092E-01
 -1      2305 1.15740E+00
 -1      2306 1.22588E+00
 -1      2307 1.10586E+00
 -1      2308 1.31300E+00
 -1      2309 1.38361E+00
 -1      2310 1.29122E+00
 -1      2311 1.47370E+00
 -1      2312 1.52951E+00
 -1      2313 1.46843E+00
 -1      2314 1.69120E+00
 -1      2315 1.70129E+00
 -1      2316 1.72021E+00
 -1      2317 1.85702E+00
 -1      2318 1.79034E+00
 -1      2319 2.03762E+00
 -1      2320 1.87821E+00
 -1      2321 1.99708E+00
 -1      2322 2.28122E+00
 -1      2323 2.29863E+00
 -1      2324 2.43534E+00
 -1      2325 2.67065E+00
 -1      2326 2.28117E+00
 -1      2327 2.63106E+00
 -1      2328 2.81803E+00
 -1      2329 3.63231E+00
 -1      2330 4.09095E+00
 -1      2331 3.66510E+00
 -1      2332 5.55060E+00
 -1      2333 5.65549E+00
 -1      2334 6.12600E+00
 -1      2335 4.58298E+00
 -1      2336 4.23471E+00
 -1      2337 6.51314E+00
 -1      2338 3.01009E+00
 -1      2339 2.62863E+00
 -1      2340 4.21601E+00
 -1      2341 2.27340E+00
 -1      2342 1.95367E+00
 -1      2343 2.63616E+00
 -1      2344 2.22539E+00
 -1      2345 2.20059E+00
 -1      2346 2.55265E+00
 -1      2347 1.95598E+00
 -1      2348 1.90315E+00
 -1      2349 2.57976E+00
 -1      2350 1.76996E+00
 -1      2351 1.79078E+00
 -1      2352 2.20196E+00
 -1      2353 1.62247E+00
 -1      2354 1.59856E+00
 -1      2355 1.90046E+00
 -1      2356 1.45477E+00
 -1      2357 1.37915E+00
 -1      2358 1.58835E+00
 -1      2359 1.30620E+00
 -1      2360 1.24258E+00
 -1      2361 1.37160E+00
 -1      2362 1.14796E+00
 -1      2363 1.06678E+00
 -1      2364 1.20402E+00
 -1      2365 9.67464E-01
 -1      2366 8.74336E-01
 -1      2367 1.01008E+00
 -1      2368 7.80530E-01
 -1      2369 6.89560E-01
 -1      2370 8.16961E-01
 -1      2371 6.06431E-01
 -1      2372 5.25122E-01
 -1      2373 6.40025E-01
 -1      2374 4.54649E-01
 -1      2375 3.86153E-01
 -1      2376 4.86423E-01
 -1      2377 3.28480E-01
 -1      2378 2.77761E-01
 -1      2379 3.58277E-01
 -1      2380 2.31994E-01
 -1      2381 1.97659E-01
 -1      2382 2.54837E-01
 -1      2383 5.55152E-01
 -1      2384 6.34687E-01
 -1      2385 4.57823E-01
 -1      2386 5.06488E-01
 -1      2387 5.06488E-01
 -1      2388 3.94315E-01
 -1      2389 4.26069E-01
 -1      2390 4.26069E-01
 -1      2391 3.34190E-01
 -1      2392 3.63802E-01
 -1      2393 3.63802E-01
 -1      2394 2.85385E-01
 -1      2395 3.06383E-01
 -1      2396 3.05480E-01
 -1      2397 2.44086E-01
 -1      2398 2.60698E-01
 -1      2399 2.52986E-01
 -1      2400 2.10049E-01
 -1      2401 2.22214E-01
 -1      2402 2.06427E-01
 -1      2403 1.87514E-01
 -1      2404 1.95664E-01
 -1      2405 1.70169E-01
 -1      2406 1.94568E-01
 -1      2407 1.97586E-01
 -1      2408 1.65857E-01
 -1      2409 2.22049E-01
 -1      2410 2.07048E-01
 -1      2411 1.88409E-01
 -1      2412 2.79774E-01
 -1      2413 2.51363E-01
 -1      2414 2.30203E-01
 -1      2415 3.61672E-01
 -1      2416 3.19593E-01
 -1      2417 2.99336E-01
 -1      2418 4.41712E-01
 -1      2419 4.01232E-01
 -1      2420 3.78716E-01
 -1      2421 5.10536E-01
 -1      2422 4.76831E-01
 -1      2423 4.53396E-01
 -1      2424 5.74530E-01
 -1      2425 5.42385E-01
 -1      2426 5.20364E-01
 -1      2427 6.06620E-01
 -1      2428 5.96849E-01
 -1      2429 5.74530E-01
 -1      2430 6.21717E-01
 -1      2431 6.21717E-01
 -1      2432 6.11946E-01
 -1      2433 5.88335E-01
 -1      2434 6.16271E-01
 -1      2435 6.21597E-01
 -1      2436 5.19709E-01
 -1      2437 5.78183E-01
 -1      2438 6.05999E-01
 -1      2439 5.88143E-01
 -1      2440 5.59515E-01
 -1      2441 6.35653E-01
 -1      2442 8.46620E-01
 -1      2443 6.60385E-01
 -1      2444 7.47701E-01
 -1      2445 1.23580E+00
 -1      2446 9.99739E-01
 -1      2447 9.73062E-01
 -1      2448 1.48573E+00
 -1      2449 1.35785E+00
 -1      2450 1.24823E+00
 -1      2451 1.60118E+00
 -1      2452 1.60118E+00
 -1      2453 1.48573E+00
 -1      2454 1.62667E+00
 -1      2455 1.64700E+00
 -1      2456 1.64700E+00
 -1      2457 1.71940E+00
 -1      2458 1.64144E+00
 -1      2459 1.70758E+00
 -1      2460 1.69575E+00
 -1      2461 1.65474E+00
 -1      2462 1.65768E+00
 -1      2463 1.42770E+00
 -1      2464 1.58580E+00
 -1      2465 1.48307E+00
 -1      2466 1.06199E+00
 -1      2467 1.30027E+00
 -1      2468 1.24570E+00
 -1      2469 7.21327E-01
 -1      2470 9.07665E-01
 -1      2471 9.63949E-01
 -1      2472 5.31407E-01
 -1      2473 6.53372E-01
 -1      2474 7.41665E-01
 -1      2475 5.73295E-01
 -1      2476 4.91275E-01
 -1      2477 6.33578E-01
 -1      2478 6.10854E-01
 -1      2479 5.81515E-01
 -1      2480 6.01666E-01
 -1      2481 6.38127E-01
 -1      2482 6.14769E-01
 -1      2483 6.13801E-01
 -1      2484 6.07558E-01
 -1      2485 6.21091E-01
 -1      2486 6.00679E-01
 -1      2487 5.49358E-01
 -1      2488 5.83842E-01
 -1      2489 5.59927E-01
 -1      2490 4.84785E-01
 -1      2491 5.17964E-01
 -1      2492 5.04816E-01
 -1      2493 4.07457E-01
 -1      2494 4.49163E-01
 -1      2495 4.37801E-01
 -1      2496 3.24594E-01
 -1      2497 3.68343E-01
 -1      2498 3.63065E-01
 -1      2499 2.53044E-01
 -1      2500 2.86716E-01
 -1      2501 2.86073E-01
 -1      2502 1.91960E-01
 -1      2503 2.18497E-01
 -1      2504 2.13648E-01
 -1      2505 1.40654E-01
 -1      2506 1.69466E-01
 -1      2507 1.56607E-01
 -1      2508 1.30271E-01
 -1      2509 1.06798E-01
 -1      2510 9.20795E-02
 -1      2511 1.31286E-01
 -1      2512 1.22380E-01
 -1      2513 1.31967E-01
 -1      2514 8.68464E-02
 -1      2515 1.10832E-01
 -1      2516 8.11910E-02
 -1      2517 7.99923E-02
 -1      2518 1.01462E-01
 -1      2519 1.05496E-01
 -1      2520 1.37950E-01
 -1      2521 1.36594E-01
 -1      2522 1.52857E-01
 -1      2523 1.38889E-01
 -1      2524 1.37950E-01
 -1      2525 1.58166E-01
 -1      2526 1.40767E-01
 -1      2527 1.40767E-01
 -1      2528 1.60044E-01
 -1      2529 1.36719E-01
 -1      2530 1.40767E-01
 -1      2531 1.61923E-01
 -1      2532 1.15840E-01
 -1      2533 1.28262E-01
 -1      2534 1.53466E-01
 -1      2535 1.00089E-01
 -1      2536 1.07821E-01
 -1      2537 1.36990E-01
 -1      2538 1.19064E-01
 -1      2539 1.00089E-01
 -1      2540 1.28971E-01
 -1      2541 3.20658E+01
 -1      2542 3.20658E+01
 -1      2543 1.36303E+01
 -1      2544 1.92621E+01
 -1      2545 1.52024E+01
 -1      2546 7.14223E-01
 -1      2547 8.07824E-01
 -1      2548 6.34687E-01
 -1      2549 1.15525E-01
 -1      2550 3.19936E+01
 -1      2551 3.19213E+01
 -1      2552 8.45924E+00
 -1      2553 1.23147E+01
 -1      2554 7.20972E+00
 -1      2555 6.42059E+00
 -1      2556 2.64755E+01
 -1      2557 2.57557E+01
 -1      2558 7.49261E+00
 -1      2559 8.74189E+00
 -1      2560 5.20669E-01
 -1      2561 5.42536E-01
 -1      2562 4.69712E-01
 -1      2563 4.42601E-01
 -1      2564 9.37640E+00
 -1      2565 9.34438E+00
 -1      2566 7.66059E+00
 -1      2567 2.07455E+01
 -1      2568 1.80588E+01
 -1      2569 9.02194E+00
 -1      2570 6.12448E+00
 -1      2571 1.30289E+01
 -1      2572 9.31868E+00
 -1      2573 1.55242E+01
 -1      2574 1.12830E+01
 -1      2575 8.50181E+00
 -1      2576 3.11345E+01
 -1      2577 2.56589E+01
 -1      2578 3.66101E+01
 -1      2579 3.66101E+01
 -1      2580 3.11345E+01
 -1      2581 2.81413E+01
 -1      2582 3.23757E+01
 -1      2583 2.07933E+01
 -1      2584 2.27251E+01
 -1      2585 1.22786E+01
 -1      2586 1.76201E+01
 -1      2587 1.41358E+01
 -1      2588 6.28518E+00
 -1      2589 6.09115E+00
 -1      2590 9.55590E+00
 -1      2591 9.33761E+00
 -1      2592 8.76649E+00
 -1      2593 9.21682E+00
 -1      2594 7.47745E+00
 -1      2595 6.30733E+00
 -1      2596 7.91762E+00
 -1      2597 7.62572E+00
 -1      2598 6.18768E+00
 -1      2599 5.32098E+00
 -1      2600 2.19860E+01
 -1      2601 1.54803E+01
 -1      2602 1.67575E+00
 -1      2603 1.31020E+00
 -1      2604 8.41357E-01
 -1      2605 9.71279E-01
 -1      2606 1.62281E+00
 -1      2607 1.76613E+00
 -1      2608 1.32512E+00
 -1      2609 1.19316E+00
 -1      2610 8.24464E+00
 -1      2611 9.29393E+00
 -1      2612 8.78568E+00
 -1      2613 5.08215E-01
 -1      2614 6.46875E-01
 -1      2615 7.08632E-01
 -1      2616 8.07824E-01
 -1      2617 1.24073E+00
 -1      2618 6.84927E-01
 -1      2619 7.61774E-01
 -1      2620 6.70311E-01
 -1      2621 4.84510E-01
 -1      2622 6.89430E+00
 -1      2623 6.28950E+00
 -1      2624 7.28071E+00
 -1      2625 1.68597E+01
 -1      2626 2.34522E+01
 -1      2627 2.34522E+01
 -1      2628 2.64755E+01
 -1      2629 9.43125E+00
 -1      2630 1.23730E-01
 -1      2631 1.02083E+01
 -1      2632 1.23730E-01
 -1      2633 6.28315E+00
 -1      2634 3.19936E+01
 -1      2635 3.23757E+01
 -1      2636 1.32975E+01
 -1      2637 1.30284E+01
 -1      2638 8.58673E+00
 -1      2639 1.10382E+01
 -1      2640 1.21215E-01
 -1      2641 5.45119E+00
 -1      2642 1.72598E+01
 -1      2643 6.13342E+00
 -1      2644 5.66690E+00
 -1      2645 4.41001E+00
 -1      2646 8.22300E+00
 -1      2647 8.07007E+00
 -1      2648 6.09405E+00
 -1      2649 8.16579E+00
 -1      2650 9.63904E-01
 -1      2651 2.07455E+01
 -1      2652 5.37652E+00
 -1      2653 2.19603E+01
 -1      2654 2.19603E+01
 -1      2655 1.65441E+01
 -1      2656 6.64791E+00
 -1      2657 1.21532E-01
 -1      2658 1.15163E-01
 -1      2659 1.25071E-01
 -1      2660 1.53709E-01
 -1      2661 1.65119E-01
 -1      2662 4.20944E-01
 -1      2663 4.06360E-01
 -1      2664 3.98622E-01
 -1      2665 3.85875E-01
 -1      2666 3.49635E-01
 -1      2667 4.34421E-01
 -1      2668 4.34421E-01
 -1      2669 4.67667E-01
 -1      2670 4.22373E-01
 -1      2671 3.48559E-01
 -1      2672 7.21994E-01
 -1      2673 7.99945E-01
 -1      2674 1.97479E+01
 -1      2675 1.48345E+01
 -1      2676 8.28075E-01
 -1      2677 5.83054E+00
 -1      2678 7.44257E+00
 -1      2679 5.56803E-01
 -1      2680 4.99991E-01
 -1      2681 4.92579E-01
 -1      2682 4.35911E-01
 -1      2683 3.95165E-01
 -1      2684 4.14019E-01
 -1      2685 3.66482E-01
 -1      2686 3.65860E-01
 -1      2687 3.39322E-01
 -1      2688 3.16160E-01
 -1      2689 3.16807E-01
 -1      2690 2.92053E-01
 -1      2691 2.67606E-01
 -1      2692 2.65540E-01
 -1      2693 2.50749E-01
 -1      2694 2.26994E-01
 -1      2695 2.24575E-01
 -1      2696 2.07899E-01
 -1      2697 1.85539E-01
 -1      2698 1.88623E-01
 -1      2699 1.64905E-01
 -1      2700 1.43783E-01
 -1      2701 1.48894E-01
 -1      2702 1.23059E-01
 -1      2703 1.18624E-01
 -1      2704 1.07535E-01
 -1      2705 1.26464E-01
 -1      2706 1.39589E-01
 -1      2707 9.46506E-02
 -1      2708 1.75794E-01
 -1      2709 2.10711E-01
 -1      2710 1.38696E-01
 -1      2711 2.54936E-01
 -1      2712 3.09316E-01
 -1      2713 2.19126E-01
 -1      2714 3.62489E-01
 -1      2715 4.27481E-01
 -1      2716 3.16524E-01
 -1      2717 4.91882E-01
 -1      2718 5.68533E-01
 -1      2719 4.34099E-01
 -1      2720 6.46940E-01
 -1      2721 7.34934E-01
 -1      2722 5.76907E-01
 -1      2723 8.32721E-01
 -1      2724 9.29257E-01
 -1      2725 7.53100E-01
 -1      2726 1.04693E+00
 -1      2727 1.14516E+00
 -1      2728 9.68558E-01
 -1      2729 1.28649E+00
 -1      2730 1.37362E+00
 -1      2731 1.22756E+00
 -1      2732 1.54338E+00
 -1      2733 1.63347E+00
 -1      2734 1.53865E+00
 -1      2735 1.81656E+00
 -1      2736 1.97824E+00
 -1      2737 1.89150E+00
 -1      2738 2.26027E+00
 -1      2739 2.41600E+00
 -1      2740 2.35662E+00
 -1      2741 2.84080E+00
 -1      2742 2.92868E+00
 -1      2743 3.06345E+00
 -1      2744 3.48878E+00
 -1      2745 3.79033E+00
 -1      2746 4.04836E+00
 -1      2747 3.64692E+00
 -1      2748 3.49275E+00
 -1      2749 4.46505E+00
 -1      2750 3.66510E+00
 -1      2751 4.66635E+00
 -1      2752 6.64791E+00
 -1      2753 8.10756E+00
 -1      2754 7.36201E+00
 -1      2755 6.28950E+00
 -1      2756 5.44063E+00
 -1      2757 4.21601E+00
 -1      2758 3.33707E+00
 -1      2759 3.60879E+00
 -1      2760 3.42926E+00
 -1      2761 3.18466E+00
 -1      2762 4.21369E+00
 -1      2763 2.72342E+00
 -1      2764 2.59023E+00
 -1      2765 3.57293E+00
 -1      2766 2.17058E+00
 -1      2767 2.00227E+00
 -1      2768 2.69204E+00
 -1      2769 1.81990E+00
 -1      2770 1.67611E+00
 -1      2771 2.09003E+00
 -1      2772 1.49601E+00
 -1      2773 1.42306E+00
 -1      2774 1.72756E+00
 -1      2775 1.26377E+00
 -1      2776 1.16914E+00
 -1      2777 1.38818E+00
 -1      2778 1.03837E+00
 -1      2779 9.39060E-01
 -1      2780 1.09812E+00
 -1      2781 8.30044E-01
 -1      2782 7.36238E-01
 -1      2783 8.58337E-01
 -1      2784 6.48776E-01
 -1      2785 5.65646E-01
 -1      2786 6.61860E-01
 -1      2787 4.94749E-01
 -1      2788 4.24276E-01
 -1      2789 5.03500E-01
 -1      2790 3.67197E-01
 -1      2791 3.09524E-01
 -1      2792 3.75523E-01
 -1      2793 2.55222E-01
 -1      2794 2.09455E-01
 -1      2795 2.64142E-01
 -1      2796 3.60717E-01
 -1      2797 3.92471E-01
 -1      2798 1.70960E-01
 -1      2799 1.27010E-01
 -1      2800 1.71345E-01
 -1      2801 4.28699E-01
 -1      2802 4.77364E-01
 -1      2803 3.63348E-01
 -1      2804 2.60276E-01
 -1      2805 2.88083E-01
 -1      2806 2.14790E-01
 -1      2807 2.39477E-01
 -1      2808 2.22080E-01
 -1      2809 1.71943E-01
 -1      2810 1.93815E-01
 -1      2811 1.80306E-01
 -1      2812 1.36520E-01
 -1      2813 1.50905E-01
 -1      2814 1.38294E-01
 -1      2815 1.46470E-01
 -1      2816 1.36398E-01
 -1      2817 1.17134E-01
 -1      2818 1.70172E-01
 -1      2819 1.57692E-01
 -1      2820 1.28233E-01
 -1      2821 2.34633E-01
 -1      2822 2.05319E-01
 -1      2823 1.74601E-01
 -1      2824 3.12852E-01
 -1      2825 2.73033E-01
 -1      2826 2.48149E-01
 -1      2827 3.93227E-01
 -1      2828 3.53666E-01
 -1      2829 3.27363E-01
 -1      2830 4.69579E-01
 -1      2831 4.34459E-01
 -1      2832 4.09410E-01
 -1      2833 5.39482E-01
 -1      2834 5.07634E-01
 -1      2835 4.88697E-01
 -1      2836 5.92768E-01
 -1      2837 5.70450E-01
 -1      2838 5.57719E-01
 -1      2839 6.56021E-01
 -1      2840 6.40924E-01
 -1      2841 6.36843E-01
 -1      2842 6.95006E-01
 -1      2843 7.00452E-01
 -1      2844 7.29430E-01
 -1      2845 7.09926E-01
 -1      2846 7.20079E-01
 -1      2847 7.98934E-01
 -1      2848 8.13184E-01
 -1      2849 7.73378E-01
 -1      2850 8.87458E-01
 -1      2851 9.84794E-01
 -1      2852 9.12551E-01
 -1      2853 1.05028E+00
 -1      2854 1.18201E+00
 -1      2855 1.02889E+00
 -1      2856 1.19374E+00
 -1      2857 1.42795E+00
 -1      2858 1.30590E+00
 -1      2859 1.36173E+00
 -1      2860 1.56676E+00
 -1      2861 1.45131E+00
 -1      2862 1.50898E+00
 -1      2863 2.10473E+00
 -1      2864 2.05891E+00
 -1      2865 2.02449E+00
 -1      2866 2.92994E+00
 -1      2867 2.91518E+00
 -1      2868 3.32709E+00
 -1      2869 2.16385E+00
 -1      2870 2.22852E+00
 -1      2871 3.43612E+00
 -1      2872 1.46559E+00
 -1      2873 1.57554E+00
 -1      2874 2.14637E+00
 -1      2875 1.26080E+00
 -1      2876 1.38822E+00
 -1      2877 1.48069E+00
 -1      2878 1.02127E+00
 -1      2879 1.17560E+00
 -1      2880 1.31812E+00
 -1      2881 8.87288E-01
 -1      2882 9.55243E-01
 -1      2883 1.16689E+00
 -1      2884 7.66823E-01
 -1      2885 8.06955E-01
 -1      2886 1.02053E+00
 -1      2887 7.08429E-01
 -1      2888 7.00209E-01
 -1      2889 8.73586E-01
 -1      2890 6.85603E-01
 -1      2891 6.81689E-01
 -1      2892 7.80232E-01
 -1      2893 6.23610E-01
 -1      2894 6.40646E-01
 -1      2895 7.08534E-01
 -1      2896 5.56072E-01
 -1      2897 5.79789E-01
 -1      2898 6.19756E-01
 -1      2899 4.91050E-01
 -1      2900 5.22443E-01
 -1      2901 5.42306E-01
 -1      2902 4.17188E-01
 -1      2903 4.52809E-01
 -1      2904 4.70437E-01
 -1      2905 3.38221E-01
 -1      2906 3.77336E-01
 -1      2907 3.92344E-01
 -1      2908 2.62006E-01
 -1      2909 2.99884E-01
 -1      2910 3.14154E-01
 -1      2911 1.91789E-01
 -1      2912 2.26337E-01
 -1      2913 2.40147E-01
 -1      2914 1.44334E-01
 -1      2915 1.66828E-01
 -1      2916 1.79516E-01
 -1      2917 1.31436E-01
 -1      2918 8.24203E+00
 -1      2919 9.55758E+00
 -1      2920 1.80171E-01
 -1      2921 1.80171E-01
 -1      2922 3.75775E+00
 -1      2923 3.97524E+00
 -1      2924 1.62401E-01
 -1      2925 1.46819E-01
 -1      2926 1.85996E-01
 -1      2927 1.84118E-01
 -1      2928 2.06123E-01
 -1      2929 1.80171E-01
 -1      2930 1.74863E-01
 -1      2931 1.89715E-01
 -1      2932 2.02177E-01
 -1      2933 1.86513E-01
 -1      2934 1.86513E-01
 -1      2935 2.10587E-01
 -1      2936 1.78056E-01
 -1      2937 1.86513E-01
 -1      2938 2.11103E-01
 -1      2939 1.51152E-01
 -1      2940 1.59171E-01
 -1      2941 1.92218E-01
 -1      2942 2.32828E+01
 -1      2943 1.78370E+01
 -1      2944 1.18247E+01
 -1      2945 1.55033E+01
 -1      2946 5.12331E-01
 -1      2947 5.91866E-01
 -1      2948 4.34543E-01
 -1      2949 2.12980E+01
 -1      2950 2.55323E+01
 -1      2951 7.55896E+00
 -1      2952 9.09025E+00
 -1      2953 2.21403E+01
 -1      2954 2.20680E+01
 -1      2955 3.07833E-01
 -1      2956 3.38347E-01
 -1      2957 3.04749E-01
 -1      2958 2.62629E-01
 -1      2959 6.02312E-01
 -1      2960 5.56377E-01
 -1      2961 4.02151E-01
 -1      2962 1.61389E+01
 -1      2963 1.23692E+01
 -1      2964 4.34421E-01
 -1      2965 4.22560E-01
 -1      2966 3.58990E-01
 -1      2967 3.60607E-01
 -1      2968 7.48597E+00
 -1      2969 5.79300E+00
 -1      2970 6.18050E-01
 -1      2971 7.11651E-01
 -1      2972 5.32220E-01
 -1      2973 4.95694E-01
 -1      2974 4.77676E+00
 -1      2975 3.91256E+00
 -1      2976 4.21727E-01
 -1      2977 4.33798E-01
 -1      2978 5.71805E+00
 -1      2979 6.35255E+00
 -1      2980 8.73510E+00
 -1      2981 6.47400E+00
 -1      2982 1.28902E+01
 -1      2983 1.03556E+01
 -1      2984 2.55364E+01
 -1      2985 2.00608E+01
 -1      2986 1.12416E+01
 -1      2987 1.44148E+01
 -1      2988 1.30911E-01
 -1      2989 6.21791E-01
 -1      2990 5.83332E-01
 -1      2991 3.82746E-01
 -1      2992 4.12286E-01
 -1      2993 4.49400E+00
 -1      2994 4.21601E+00
 -1      2995 2.99139E+00
 -1      2996 2.63616E+00
 -1      2997 4.09636E+00
 -1      2998 4.33798E-01
 -1      2999 4.33798E-01
 -1      3000 3.59381E-01
 -1      3001 3.41717E-01
 -1      3002 3.85695E-01
 -1      3003 3.98444E-01
 -1      3004 4.75657E+00
 -1      3005 3.29261E+00
 -1      3006 4.98985E+00
 -1      3007 1.18927E+01
 -1      3008 5.70693E-01
 -1      3009 6.30210E+00
 -1      3010 4.44942E+00
 -1      3011 4.61128E+00
 -1      3012 2.75597E+00
 -1      3013 1.34821E+01
 -1      3014 4.68803E+00
 -1      3015 9.36932E+00
 -1      3016 3.69230E+00
 -1      3017 6.11080E+00
 -1      3018 5.76980E+00
 -1      3019 1.44587E+01
 -1      3020 6.79187E+00
 -1      3021 1.20741E-01
 -1      3022 1.43860E-01
 -1      3023 1.13887E-01
 -1      3024 9.85846E+00
 -1      3025 4.53107E+00
 -1      3026 3.05511E+00
 -1      3027 5.39142E+00
 -1      3028 1.29463E+01
 -1      3029 1.34295E+01
 -1      3030 1.30911E-01
 -1      3031 3.81026E+00
 -1      3032 1.01976E+01
 -1      3033 7.74559E+00
 -1      3034 9.07664E+00
 -1      3035 1.93314E+01
 -1      3036 1.24881E+01
 -1      3037 1.31504E+01
 -1      3038 1.19689E+01
 -1      3039 2.05825E+01
 -1      3040 1.06570E+01
 -1      3041 4.39537E-01
 -1      3042 7.48543E+00
 -1      3043 7.70109E+00
 -1      3044 1.51742E-01
 -1      3045 1.49802E-01
 -1      3046 1.71983E-01
 -1      3047 1.90237E-01
 -1      3048 7.57430E+00
 -1      3049 8.32784E+00
 -1      3050 5.08511E+00
 -1      3051 3.77707E+00
 -1      3052 3.72592E+00
 -1      3053 1.26519E-01
 -1      3054 1.15631E-01
 -1      3055 1.34910E-01
 -1      3056 1.56953E-01
 -1      3057 4.05970E-01
 -1      3058 4.20332E-01
 -1      3059 3.57985E-01
 -1      3060 3.49064E-01
 -1      3061 1.36500E+01
 -1      3062 1.41498E+01
 -1      3063 4.27378E+00
 -1      3064 6.16587E+00
 -1      3065 2.88159E-01
 -1      3066 3.00207E-01
 -1      3067 3.87752E-01
 -1      3068 3.64047E-01
 -1      3069 3.15527E-01
 -1      3070 3.13335E-01
 -1      3071 3.21114E-01
 -1      3072 2.99222E-01
 -1      3073 2.93730E-01
 -1      3074 2.66570E-01
 -1      3075 2.48985E-01
 -1      3076 2.52486E-01
 -1      3077 2.28379E-01
 -1      3078 2.29409E-01
 -1      3079 2.09571E-01
 -1      3080 1.92714E-01
 -1      3081 1.96518E-01
 -1      3082 1.78361E-01
 -1      3083 1.59266E-01
 -1      3084 1.63357E-01
 -1      3085 1.41981E-01
 -1      3086 1.21347E-01
 -1      3087 1.31719E-01
 -1      3088 1.03651E-01
 -1      3089 8.29265E-02
 -1      3090 9.67382E-02
 -1      3091 8.62428E-02
 -1      3092 9.40825E-02
 -1      3093 8.23584E-02
 -1      3094 1.18685E-01
 -1      3095 1.54890E-01
 -1      3096 1.10277E-01
 -1      3097 1.95502E-01
 -1      3098 2.39728E-01
 -1      3099 1.75492E-01
 -1      3100 2.90995E-01
 -1      3101 3.44168E-01
 -1      3102 2.67372E-01
 -1      3103 4.07191E-01
 -1      3104 4.71592E-01
 -1      3105 3.81662E-01
 -1      3106 5.48763E-01
 -1      3107 6.27169E-01
 -1      3108 5.21855E-01
 -1      3109 7.20560E-01
 -1      3110 8.18347E-01
 -1      3111 6.92417E-01
 -1      3112 9.28740E-01
 -1      3113 1.04641E+00
 -1      3114 8.96201E-01
 -1      3115 1.17526E+00
 -1      3116 1.31659E+00
 -1      3117 1.13545E+00
 -1      3118 1.51508E+00
 -1      3119 1.68484E+00
 -1      3120 1.46279E+00
 -1      3121 2.00129E+00
 -1      3122 2.18439E+00
 -1      3123 1.97773E+00
 -1      3124 2.67198E+00
 -1      3125 2.95401E+00
 -1      3126 2.78177E+00
 -1      3127 3.68580E+00
 -1      3128 4.11061E+00
 -1      3129 4.00116E+00
 -1      3130 5.49759E+00
 -1      3131 6.05769E+00
 -1      3132 6.11994E+00
 -1      3133 5.91321E+00
 -1      3134 7.36244E+00
 -1      3135 9.51381E+00
 -1      3136 1.17011E+01
 -1      3137 1.13882E+01
 -1      3138 1.19937E+01
 -1      3139 1.19978E+01
 -1      3140 3.27860E-01
 -1      3141 3.28286E-01
 -1      3142 4.29037E+00
 -1      3143 3.82913E+00
 -1      3144 3.18214E+00
 -1      3145 2.76249E+00
 -1      3146 3.89958E+00
 -1      3147 2.53516E+00
 -1      3148 2.35279E+00
 -1      3149 3.02526E+00
 -1      3150 1.92905E+00
 -1      3151 1.74896E+00
 -1      3152 2.37419E+00
 -1      3153 1.50519E+00
 -1      3154 1.34590E+00
 -1      3155 1.70668E+00
 -1      3156 1.18207E+00
 -1      3157 1.05130E+00
 -1      3158 1.29908E+00
 -1      3159 9.31729E-01
 -1      3160 8.22714E-01
 -1      3161 1.01568E+00
 -1      3162 7.19525E-01
 -1      3163 6.32062E-01
 -1      3164 7.92916E-01
 -1      3165 5.46077E-01
 -1      3166 4.75180E-01
 -1      3167 6.03742E-01
 -1      3168 4.04903E-01
 -1      3169 3.47824E-01
 -1      3170 4.47480E-01
 -1      3171 2.90874E-01
 -1      3172 2.36572E-01
 -1      3173 2.16968E-01
 -1      3174 3.20253E-01
 -1      3175 3.05325E-01
 -1      3176 3.41553E-01
 -1      3177 5.60226E+00
 -1      3178 6.40172E+00
 -1      3179 1.44430E-01
 -1      3180 1.65405E-01
 -1      3181 1.84573E-01
 -1      3182 2.05372E-01
 -1      3183 1.48696E-01
 -1      3184 8.77992E-02
 -1      3185 8.79221E-02
 -1      3186 1.15287E-01
 -1      3187 1.04065E-01
 -1      3188 7.48531E-02
 -1      3189 1.81402E-01
 -1      3190 1.46255E-01
 -1      3191 1.22087E-01
 -1      3192 2.55161E-01
 -1      3193 2.16760E-01
 -1      3194 1.88414E-01
 -1      3195 3.36444E-01
 -1      3196 2.95630E-01
 -1      3197 2.64241E-01
 -1      3198 4.24318E-01
 -1      3199 3.83086E-01
 -1      3200 3.51352E-01
 -1      3201 5.12503E-01
 -1      3202 4.74448E-01
 -1      3203 4.48124E-01
 -1      3204 5.95270E-01
 -1      3205 5.64302E-01
 -1      3206 5.50053E-01
 -1      3207 6.95479E-01
 -1      3208 6.47324E-01
 -1      3209 6.53907E-01
 -1      3210 8.12753E-01
 -1      3211 7.68322E-01
 -1      3212 7.78803E-01
 -1      3213 9.32957E-01
 -1      3214 9.07884E-01
 -1      3215 9.46776E-01
 -1      3216 1.08520E+00
 -1      3217 1.02175E+00
 -1      3218 1.13070E+00
 -1      3219 1.27004E+00
 -1      3220 1.17067E+00
 -1      3221 1.30496E+00
 -1      3222 1.42821E+00
 -1      3223 1.38411E+00
 -1      3224 1.50451E+00
 -1      3225 1.82645E+00
 -1      3226 1.70256E+00
 -1      3227 1.89293E+00
 -1      3228 1.89141E+00
 -1      3229 1.86806E+00
 -1      3230 2.20888E+00
 -1      3231 2.76794E+00
 -1      3232 2.27579E+00
 -1      3233 2.63487E+00
 -1      3234 4.13755E+00
 -1      3235 3.32709E+00
 -1      3236 2.37789E+00
 -1      3237 2.96621E+00
 -1      3238 1.59919E+00
 -1      3239 1.67656E+00
 -1      3240 2.49639E+00
 -1      3241 1.89817E+00
 -1      3242 1.98337E+00
 -1      3243 2.17924E+00
 -1      3244 1.56083E+00
 -1      3245 1.62685E+00
 -1      3246 2.29211E+00
 -1      3247 1.17475E+00
 -1      3248 1.25508E+00
 -1      3249 1.71504E+00
 -1      3250 1.00899E+00
 -1      3251 1.07561E+00
 -1      3252 1.31015E+00
 -1      3253 8.91612E-01
 -1      3254 9.18353E-01
 -1      3255 1.12037E+00
 -1      3256 7.50433E-01
 -1      3257 7.95390E-01
 -1      3258 9.33511E-01
 -1      3259 6.34185E-01
 -1      3260 6.78006E-01
 -1      3261 7.64862E-01
 -1      3262 5.49181E-01
 -1      3263 5.82810E-01
 -1      3264 6.41060E-01
 -1      3265 4.58497E-01
 -1      3266 4.96737E-01
 -1      3267 5.37241E-01
 -1      3268 3.69558E-01
 -1      3269 4.09410E-01
 -1      3270 4.35711E-01
 -1      3271 2.87965E-01
 -1      3272 3.26302E-01
 -1      3273 3.43369E-01
 -1      3274 2.13624E-01
 -1      3275 2.49293E-01
 -1      3276 2.61441E-01
 -1      3277 1.66012E-01
 -1      3278 1.90974E-01
 -1      3279 2.00120E-01
 -1      3280 1.55318E-01
 -1      3281 3.53059E-01
 -1      3282 3.88026E-01
 -1      3283 2.95036E-01
 -1      3284 2.44557E-01
 -1      3285 2.44041E-01
 -1      3286 1.07837E+01
 -1      3287 1.21402E+01
 -1      3288 2.34955E-01
 -1      3289 2.31008E-01
 -1      3290 2.68926E-01
 -1      3291 7.57670E+00
 -1      3292 9.84382E+00
 -1      3293 2.44557E-01
 -1      3294 2.44557E-01
 -1      3295 2.78012E-01
 -1      3296 2.17364E-01
 -1      3297 2.36249E-01
 -1      3298 2.69704E-01
 -1      3299 1.03835E-01
 -1      3300 1.24872E-01
 -1      3301 1.09971E-01
 -1      3302 7.45000E-02
 -1      3303 3.22268E-01
 -1      3304 3.14530E-01
 -1      3305 5.38894E+00
 -1      3306 6.28717E+00
 -1      3307 5.66728E+00
 -1      3308 4.25885E+00
 -1      3309 5.02399E+00
 -1      3310 4.84447E+00
 -1      3311 5.10067E+00
 -1      3312 6.01972E+00
 -1      3313 4.11508E-01
 -1      3314 3.08482E-01
 -1      3315 2.60130E-01
 -1      3316 4.01165E-01
 -1      3317 1.02899E+01
 -1      3318 1.15047E+01
 -1      3319 3.18825E-01
 -1      3320 3.11412E-01
 -1      3321 2.44774E-01
 -1      3322 1.08256E+01
 -1      3323 1.29548E+01
 -1      3324 1.11667E+01
 -1      3325 9.22245E+00
 -1      3326 2.85360E+00
 -1      3327 3.35105E+00
 -1      3328 1.17166E+01
 -1      3329 1.00186E+01
 -1      3330 8.57702E+00
 -1      3331 7.12048E+00
 -1      3332 8.24120E+00
 -1      3333 6.62065E+00
 -1      3334 3.11061E-01
 -1      3335 3.10882E-01
 -1      3336 2.83694E-01
 -1      3337 4.99624E+00
 -1      3338 3.27880E+00
 -1      3339 4.90960E+00
 -1      3340 2.59483E-01
 -1      3341 3.19883E-01
 -1      3342 3.19883E-01
 -1      3343 2.42261E+00
 -1      3344 2.89679E+00
 -1      3345 3.19593E+00
 -1      3346 2.21494E-01
 -1      3347 2.41243E-01
 -1      3348 1.83986E-01
 -1      3349 1.07220E+01
 -1      3350 7.96035E+00
 -1      3351 8.25704E+00
 -1      3352 7.49903E+00
 -1      3353 9.94779E+00
 -1      3354 7.27756E+00
 -1      3355 2.44533E-01
 -1      3356 3.20089E-01
 -1      3357 3.20089E-01
 -1      3358 8.50199E+00
 -1      3359 4.70270E+00
 -1      3360 4.31255E+00
 -1      3361 3.32158E+00
 -1      3362 3.34507E-01
 -1      3363 6.38709E+00
 -1      3364 3.57840E+00
 -1      3365 4.25885E+00
 -1      3366 3.55742E+00
 -1      3367 2.22614E-01
 -1      3368 2.10152E-01
 -1      3369 8.61048E+00
 -1      3370 1.13088E+01
 -1      3371 8.43913E+00
 -1      3372 3.21952E-01
 -1      3373 3.23347E-01
 -1      3374 2.84056E-01
 -1      3375 2.31008E-01
 -1      3376 2.31008E-01
 -1      3377 2.51446E-01
 -1      3378 2.59840E-01
 -1      3379 4.10429E+00
 -1      3380 2.83340E+00
 -1      3381 8.31497E+00
 -1      3382 6.14332E+00
 -1      3383 7.08528E+00
 -1      3384 1.03260E+01
 -1      3385 8.81867E+00
 -1      3386 6.27988E+00
 -1      3387 2.86190E-01
 -1      3388 2.64395E-01
 -1      3389 2.63819E-01
 -1      3390 2.08901E-01
 -1      3391 1.88602E-01
 -1      3392 2.41801E-01
 -1      3393 3.22268E-01
 -1      3394 2.87163E-01
 -1      3395 3.23885E-01
 -1      3396 3.71479E-01
 -1      3397 3.97663E-01
 -1      3398 2.76950E-01
 -1      3399 2.89995E-01
 -1      3400 1.00272E+01
 -1      3401 1.19937E+01
 -1      3402 9.53284E+00
 -1      3403 2.76926E+00
 -1      3404 2.60642E-01
 -1      3405 7.51526E+00
 -1      3406 8.15443E+00
 -1      3407 9.71221E+00
 -1      3408 7.78740E+00
 -1      3409 3.71463E+00
 -1      3410 2.03542E-01
 -1      3411 2.04892E-01
 -1      3412 2.48923E-01
 -1      3413 2.49878E-01
 -1      3414 4.97863E+00
 -1      3415 6.15361E+00
 -1      3416 2.12582E-01
 -1      3417 2.07090E-01
 -1      3418 2.08648E-01
 -1      3419 1.94564E-01
 -1      3420 1.72245E-01
 -1      3421 1.87437E-01
 -1      3422 1.68629E-01
 -1      3423 1.66676E-01
 -1      3424 1.55859E-01
 -1      3425 1.41506E-01
 -1      3426 1.46778E-01
 -1      3427 1.31788E-01
 -1      3428 1.14503E-01
 -1      3429 1.24290E-01
 -1      3430 1.08630E-01
 -1      3431 9.09341E-02
 -1      3432 1.08699E-01
 -1      3433 9.61899E-02
 -1      3434 9.95062E-02
 -1      3435 1.08082E-01
 -1      3436 1.06777E-01
 -1      3437 1.31379E-01
 -1      3438 1.20608E-01
 -1      3439 1.65784E-01
 -1      3440 2.06397E-01
 -1      3441 1.62284E-01
 -1      3442 2.51275E-01
 -1      3443 3.02543E-01
 -1      3444 2.41567E-01
 -1      3445 3.58531E-01
 -1      3446 4.21554E-01
 -1      3447 3.42435E-01
 -1      3448 4.92065E-01
 -1      3449 5.69235E-01
 -1      3450 4.68934E-01
 -1      3451 6.59071E-01
 -1      3452 7.52462E-01
 -1      3453 6.29280E-01
 -1      3454 8.68599E-01
 -1      3455 9.78992E-01
 -1      3456 8.35253E-01
 -1      3457 1.13154E+00
 -1      3458 1.26039E+00
 -1      3459 1.10393E+00
 -1      3460 1.46279E+00
 -1      3461 1.66128E+00
 -1      3462 1.45888E+00
 -1      3463 1.93593E+00
 -1      3464 2.25238E+00
 -1      3465 1.93593E+00
 -1      3466 2.70292E+00
 -1      3467 3.19051E+00
 -1      3468 2.66112E+00
 -1      3469 3.77293E+00
 -1      3470 4.50472E+00
 -1      3471 3.69407E+00
 -1      3472 7.43168E+00
 -1      3473 6.63067E+00
 -1      3474 7.57059E+00
 -1      3475 5.22221E+00
 -1      3476 4.03415E+00
 -1      3477 3.80682E+00
 -1      3478 2.72744E+00
 -1      3479 2.30370E+00
 -1      3480 3.73634E+00
 -1      3481 1.94539E+00
 -1      3482 1.70162E+00
 -1      3483 2.29864E+00
 -1      3484 1.46291E+00
 -1      3485 1.29908E+00
 -1      3486 1.70162E+00
 -1      3487 1.12000E+00
 -1      3488 1.00043E+00
 -1      3489 1.28383E+00
 -1      3490 8.64930E-01
 -1      3491 7.61741E-01
 -1      3492 9.69250E-01
 -1      3493 6.57970E-01
 -1      3494 5.71985E-01
 -1      3495 7.29984E-01
 -1      3496 4.90851E-01
 -1      3497 4.20574E-01
 -1      3498 5.45078E-01
 -1      3499 1.45744E-01
 -1      3500 1.14776E-01
 -1      3501 9.27055E-02
 -1      3502 7.64399E-02
 -1      3503 1.16362E-01
 -1      3504 2.90041E-01
 -1      3505 2.49572E-01
 -1      3506 3.75412E-01
 -1      3507 3.28770E-01
 -1      3508 3.14101E-01
 -1      3509 4.73635E-01
 -1      3510 4.23506E-01
 -1      3511 4.00923E-01
 -1      3512 5.83762E-01
 -1      3513 5.31962E-01
 -1      3514 5.07344E-01
 -1      3515 7.14871E-01
 -1      3516 6.62818E-01
 -1      3517 6.44727E-01
 -1      3518 8.85857E-01
 -1      3519 8.13015E-01
 -1      3520 8.21926E-01
 -1      3521 1.08689E+00
 -1      3522 9.91761E-01
 -1      3523 1.02597E+00
 -1      3524 1.33766E+00
 -1      3525 1.24886E+00
 -1      3526 1.29385E+00
 -1      3527 1.58991E+00
 -1      3528 1.50444E+00
 -1      3529 1.62260E+00
 -1      3530 2.04235E+00
 -1      3531 1.92827E+00
 -1      3532 2.12775E+00
 -1      3533 2.42606E+00
 -1      3534 2.38445E+00
 -1      3535 2.70682E+00
 -1      3536 2.32244E+00
 -1      3537 3.78893E+00
 -1      3538 2.17924E+00
 -1      3539 2.88057E+00
 -1      3540 2.72479E+00
 -1      3541 3.03053E+00
 -1      3542 1.81143E+00
 -1      3543 1.91057E+00
 -1      3544 3.22606E+00
 -1      3545 1.35901E+00
 -1      3546 1.44965E+00
 -1      3547 2.05006E+00
 -1      3548 9.61587E-01
 -1      3549 1.05781E+00
 -1      3550 1.38708E+00
 -1      3551 7.97916E-01
 -1      3552 8.70343E-01
 -1      3553 9.94641E-01
 -1      3554 6.50973E-01
 -1      3555 7.02348E-01
 -1      3556 8.07829E-01
 -1      3557 5.18959E-01
 -1      3558 5.71403E-01
 -1      3559 6.32691E-01
 -1      3560 4.13400E-01
 -1      3561 4.62486E-01
 -1      3562 4.96648E-01
 -1      3563 3.19152E-01
 -1      3564 3.62408E-01
 -1      3565 3.89184E-01
 -1      3566 2.73072E-01
 -1      3567 3.11743E-01
 -1      3568 3.30782E-01
 -1      3569 2.44277E-01
 -1      3570 2.55783E-01
 -1      3571 3.14426E-01
 -1      3572 3.21952E-01
 -1      3573 2.87314E-01
 -1      3574 3.22082E-01
 -1      3575 3.30390E-01
 -1      3576 3.30390E-01
 -1      3577 3.30390E-01
 -1      3578 3.82768E-01
 -1      3579 3.07345E-01
 -1      3580 2.98260E-01
 -1      3581 3.59723E-01
 -1      3582 1.98774E-01
 -1      3583 1.89313E-01
 -1      3584 7.05324E+00
 -1      3585 7.26513E+00
 -1      3586 2.71689E+00
 -1      3587 2.98821E+00
 -1      3588 2.56343E+00
 -1      3589 1.28859E-01
 -1      3590 1.48027E-01
 -1      3591 1.88956E-01
 -1      3592 1.98659E-01
 -1      3593 1.43197E-01
 -1      3594 5.72578E+00
 -1      3595 3.06687E-01
 -1      3596 7.23568E+00
 -1      3597 6.25443E+00
 -1      3598 2.93702E+00
 -1      3599 2.49801E+00
 -1      3600 2.13621E-01
 -1      3601 1.78263E-01
 -1      3602 1.70951E-01
 -1      3603 2.39421E-01
 -1      3604 8.65714E+00
 -1      3605 8.85271E+00
 -1      3606 1.63064E-01
 -1      3607 1.61320E-01
 -1      3608 1.83472E-01
 -1      3609 2.15012E-01
 -1      3610 4.96411E+00
 -1      3611 4.85067E+00
 -1      3612 3.22625E+00
 -1      3613 4.57109E+00
 -1      3614 2.02438E-01
 -1      3615 2.22114E-01
 -1      3616 7.20345E+00
 -1      3617 1.59880E-01
 -1      3618 1.76002E-01
 -1      3619 1.40042E-01
 -1      3620 7.41640E+00
 -1      3621 6.14061E+00
 -1      3622 7.41640E+00
 -1      3623 3.08169E+00
 -1      3624 6.91859E+00
 -1      3625 5.47816E+00
 -1      3626 5.93949E+00
 -1      3627 2.83770E-01
 -1      3628 6.01673E+00
 -1      3629 2.87125E-01
 -1      3630 2.78731E-01
 -1      3631 4.31712E+00
 -1      3632 5.09868E+00
 -1      3633 8.35835E+00
 -1      3634 3.53067E-01
 -1      3635 2.96117E-01
 -1      3636 2.82691E-01
 -1      3637 3.96437E-01
 -1      3638 2.94341E+00
 -1      3639 9.21092E-02
 -1      3640 7.42568E-02
 -1      3641 9.01693E-02
 -1      3642 2.64919E+00
 -1      3643 2.43201E+00
 -1      3644 2.15767E+00
 -1      3645 2.99097E+00
 -1      3646 2.58144E+00
 -1      3647 3.51308E+00
 -1      3648 2.51092E-01
 -1      3649 2.51092E-01
 -1      3650 7.31086E+00
 -1      3651 6.47944E+00
 -1      3652 5.43955E+00
 -1      3653 3.72664E+00
 -1      3654 1.92781E-01
 -1      3655 2.43539E-01
 -1      3656 2.42797E-01
 -1      3657 2.03545E-01
 -1      3658 2.23662E-01
 -1      3659 2.06122E-01
 -1      3660 6.97172E+00
 -1      3661 7.63179E+00
 -1      3662 6.68702E+00
 -1      3663 3.28241E-01
 -1      3664 2.89822E-01
 -1      3665 2.89822E-01
 -1      3666 2.15022E-01
 -1      3667 2.51092E-01
 -1      3668 2.47624E-01
 -1      3669 2.95163E-01
 -1      3670 7.05324E+00
 -1      3671 5.74134E+00
 -1      3672 6.47551E+00
 -1      3673 2.67396E-01
 -1      3674 2.12176E-01
 -1      3675 1.98641E-01
 -1      3676 1.78318E-01
 -1      3677 1.40949E-01
 -1      3678 1.95139E-01
 -1      3679 2.83161E-01
 -1      3680 2.29556E-01
 -1      3681 2.26297E-01
 -1      3682 1.57675E-01
 -1      3683 2.22684E-01
 -1      3684 2.89767E-01
 -1      3685 2.88516E-01
 -1      3686 3.25446E-01
 -1      3687 9.41699E-02
 -1      3688 1.13728E-01
 -1      3689 1.13058E-01
 -1      3690 9.39267E-02
 -1      3691 1.56764E-01
 -1      3692 2.26992E-01
 -1      3693 2.56423E-01
 -1      3694 3.55849E-01
 -1      3695 5.73018E+00
 -1      3696 1.50251E-01
 -1      3697 1.43123E-01
 -1      3698 1.39646E-01
 -1      3699 1.26876E-01
 -1      3700 1.23221E-01
 -1      3701 1.19115E-01
 -1      3702 1.09397E-01
 -1      3703 1.11983E-01
 -1      3704 1.14030E-01
 -1      3705 1.08157E-01
 -1      3706 1.08855E-01
 -1      3707 1.14782E-01
 -1      3708 1.20038E-01
 -1      3709 1.20113E-01
 -1      3710 1.27969E-01
 -1      3711 1.35240E-01
 -1      3712 1.34669E-01
 -1      3713 1.48156E-01
 -1      3714 1.82561E-01
 -1      3715 1.55517E-01
 -1      3716 2.15397E-01
 -1      3717 2.60275E-01
 -1      3718 2.01269E-01
 -1      3719 3.04428E-01
 -1      3720 3.60417E-01
 -1      3721 2.78257E-01
 -1      3722 4.16447E-01
 -1      3723 4.86958E-01
 -1      3724 3.78440E-01
 -1      3725 5.59518E-01
 -1      3726 6.49353E-01
 -1      3727 5.07031E-01
 -1      3728 7.46721E-01
 -1      3729 8.62859E-01
 -1      3730 6.76958E-01
 -1      3731 9.99470E-01
 -1      3732 1.15201E+00
 -1      3733 9.10938E-01
 -1      3734 1.35448E+00
 -1      3735 1.55688E+00
 -1      3736 1.25002E+00
 -1      3737 1.87329E+00
 -1      3738 2.14794E+00
 -1      3739 1.76889E+00
 -1      3740 2.66112E+00
 -1      3741 3.11166E+00
 -1      3742 2.59848E+00
 -1      3743 3.29017E+00
 -1      3744 3.87259E+00
 -1      3745 3.29017E+00
 -1      3746 4.43027E+00
 -1      3747 3.35090E+00
 -1      3748 4.39271E+00
 -1      3749 4.86978E+00
 -1      3750 3.17107E-01
 -1      3751 5.93980E+00
 -1      3752 7.11428E+00
 -1      3753 4.99785E+00
 -1      3754 4.23356E-01
 -1      3755 2.89679E+00
 -1      3756 2.93204E+00
 -1      3757 2.81672E+00
 -1      3758 2.61812E+00
 -1      3759 2.25981E+00
 -1      3760 3.31206E+00
 -1      3761 1.85135E+00
 -1      3762 1.61264E+00
 -1      3763 2.17083E+00
 -1      3764 1.35567E+00
 -1      3765 1.17659E+00
 -1      3766 1.50540E+00
 -1      3767 1.00717E+00
 -1      3768 8.71674E-01
 -1      3769 1.07901E+00
 -1      3770 7.53611E-01
 -1      3771 6.49839E-01
 -1      3772 7.91530E-01
 -1      3773 5.77785E-01
 -1      3774 4.96650E-01
 -1      3775 6.01412E-01
 -1      3776 2.45813E-01
 -1      3777 2.49358E-01
 -1      3778 2.13211E-01
 -1      3779 4.49017E-01
 -1      3780 4.00923E-01
 -1      3781 3.52830E-01
 -1      3782 3.14101E-01
 -1      3783 4.00923E-01
 -1      3784 7.12177E-01
 -1      3785 6.33122E-01
 -1      3786 9.06717E-01
 -1      3787 8.08573E-01
 -1      3788 7.96968E-01
 -1      3789 1.18244E+00
 -1      3790 1.07654E+00
 -1      3791 1.06318E+00
 -1      3792 1.56176E+00
 -1      3793 1.39979E+00
 -1      3794 1.45035E+00
 -1      3795 2.08433E+00
 -1      3796 1.91755E+00
 -1      3797 2.02349E+00
 -1      3798 3.02700E+00
 -1      3799 2.68863E+00
 -1      3800 2.98358E+00
 -1      3801 3.37760E+00
 -1      3802 1.63122E-01
 -1      3803 1.50878E-01
 -1      3804 2.81961E-01
 -1      3805 3.22606E+00
 -1      3806 4.04028E+00
 -1      3807 1.07871E+00
 -1      3808 1.16995E+00
 -1      3809 7.97592E-01
 -1      3810 8.93160E-01
 -1      3811 1.06847E+00
 -1      3812 6.23073E-01
 -1      3813 7.02643E-01
 -1      3814 7.87974E-01
 -1      3815 4.91618E-01
 -1      3816 5.48091E-01
 -1      3817 6.18043E-01
 -1      3818 3.89184E-01
 -1      3819 4.40175E-01
 -1      3820 4.91618E-01
 -1      3821 2.44693E-01
 -1      3822 2.44693E-01
 -1      3823 1.86934E-01
 -1      3824 2.06736E-01
 -1      3825 4.62620E+00
 -1      3826 5.32628E+00
 -1      3827 1.57319E-01
 -1      3828 3.95480E-01
 -1      3829 3.72435E-01
 -1      3830 4.39271E+00
 -1      3831 6.80231E+00
 -1      3832 5.07324E+00
 -1      3833 5.03136E+00
 -1      3834 5.27853E+00
 -1      3835 1.29810E+00
 -1      3836 1.59930E+00
 -1      3837 1.38217E+00
 -1      3838 1.38988E-01
 -1      3839 1.52911E-01
 -1      3840 2.04035E+00
 -1      3841 2.40213E+00
 -1      3842 3.21635E+00
 -1      3843 1.95137E+00
 -1      3844 2.41438E-01
 -1      3845 2.45440E-01
 -1      3846 2.09370E-01
 -1      3847 1.84393E-01
 -1      3848 5.60079E-01
 -1      3849 5.01752E-01
 -1      3850 6.27530E-01
 -1      3851 1.36309E-01
 -1      3852 1.14239E-01
 -1      3853 1.44581E-01
 -1      3854 1.46139E-01
 -1      3855 1.26805E-01
 -1      3856 4.56062E-01
 -1      3857 3.29928E-01
 -1      3858 4.89309E+00
 -1      3859 1.91177E-01
 -1      3860 2.13753E-01
 -1      3861 1.92155E-01
 -1      3862 1.22586E-01
 -1      3863 1.67071E-01
 -1      3864 1.21962E-01
 -1      3865 1.33815E-01
 -1      3866 5.83847E+00
 -1      3867 4.79671E+00
 -1      3868 3.37337E-01
 -1      3869 3.51798E+00
 -1      3870 4.34748E+00
 -1      3871 4.08775E+00
 -1      3872 3.69667E-01
 -1      3873 3.66970E-01
 -1      3874 4.12056E-01
 -1      3875 3.59496E-01
 -1      3876 3.70532E-01
 -1      3877 1.27817E-01
 -1      3878 1.07871E-01
 -1      3879 1.05688E-01
 -1      3880 1.71743E-01
 -1      3881 1.77394E-01
 -1      3882 1.53466E-01
 -1      3883 1.45196E-01
 -1      3884 1.82824E-01
 -1      3885 1.82824E-01
 -1      3886 3.10643E-01
 -1      3887 2.71915E-01
 -1      3888 2.35963E-01
 -1      3889 1.72515E-01
 -1      3890 1.30613E-01
 -1      3891 1.71035E-01
 -1      3892 4.76010E+00
 -1      3893 6.05972E+00
 -1      3894 5.25238E+00
 -1      3895 4.99783E+00
 -1      3896 4.56062E-01
 -1      3897 3.88329E-01
 -1      3898 3.78105E-01
 -1      3899 3.69667E-01
 -1      3900 4.19531E-01
 -1      3901 4.13861E-01
 -1      3902 4.78136E+00
 -1      3903 5.95286E+00
 -1      3904 4.68774E-01
 -1      3905 4.84015E+00
 -1      3906 3.85478E+00
 -1      3907 4.25970E+00
 -1      3908 5.01752E-01
 -1      3909 3.83788E+00
 -1      3910 1.67167E-01
 -1      3911 1.65043E-01
 -1      3912 1.99685E-01
 -1      3913 4.89309E+00
 -1      3914 9.97516E-02
 -1      3915 1.14882E-01
 -1      3916 1.08655E-01
 -1      3917 4.15869E+00
 -1      3918 4.25970E+00
 -1      3919 3.62168E+00
 -1      3920 1.11074E-01
 -1      3921 1.03313E-01
 -1      3922 1.09488E-01
 -1      3923 1.14121E-01
 -1      3924 1.08578E-01
 -1      3925 1.20925E-01
 -1      3926 1.27550E-01
 -1      3927 1.21558E-01
 -1      3928 1.34669E-01
 -1      3929 1.42600E-01
 -1      3930 1.35481E-01
 -1      3931 1.55517E-01
 -1      3932 1.68433E-01
 -1      3933 1.55517E-01
 -1      3934 1.88684E-01
 -1      3935 2.21520E-01
 -1      3936 1.88684E-01
 -1      3937 2.47795E-01
 -1      3938 2.91947E-01
 -1      3939 2.35210E-01
 -1      3940 3.27127E-01
 -1      3941 3.83158E-01
 -1      3942 2.96665E-01
 -1      3943 4.30625E-01
 -1      3944 5.03185E-01
 -1      3945 3.79312E-01
 -1      3946 5.68086E-01
 -1      3947 6.65454E-01
 -1      3948 4.91681E-01
 -1      3949 7.55626E-01
 -1      3950 8.92238E-01
 -1      3951 6.46754E-01
 -1      3952 1.02515E+00
 -1      3953 1.22762E+00
 -1      3954 8.69842E-01
 -1      3955 1.43612E+00
 -1      3956 1.75252E+00
 -1      3957 1.21125E+00
 -1      3958 2.10620E+00
 -1      3959 2.61938E+00
 -1      3960 1.77342E+00
 -1      3961 3.90368E+00
 -1      3962 4.08219E+00
 -1      3963 3.41140E+00
 -1      3964 4.08221E+00
 -1      3965 3.76964E+00
 -1      3966 3.03686E+00
 -1      3967 1.62469E-01
 -1      3968 1.30494E-01
 -1      3969 2.18776E+00
 -1      3970 1.77931E+00
 -1      3971 2.64534E+00
 -1      3972 1.49119E+00
 -1      3973 1.23422E+00
 -1      3974 1.50812E+00
 -1      3975 1.06071E+00
 -1      3976 8.91287E-01
 -1      3977 1.04649E+00
 -1      3978 7.78766E-01
 -1      3979 6.60703E-01
 -1      3980 7.60460E-01
 -1      3981 6.01412E-01
 -1      3982 5.29357E-01
 -1      3983 4.68774E-01
 -1      3984 5.88648E-01
 -1      3985 1.82824E-01
 -1      3986 1.81013E-01
 -1      3987 1.50626E-01
 -1      3988 6.18043E-01
 -1      3989 6.93025E-01
 -1      3990 4.35042E-01
 -1      3991 3.86948E-01
 -1      3992 1.33982E+00
 -1      3993 1.17000E+00
 -1      3994 9.34877E-01
 -1      3995 8.38481E-01
 -1      3996 1.21151E+00
 -1      3997 3.00048E+00
 -1      3998 2.64469E+00
 -1      3999 3.23358E+00
 -1      4000 5.16039E+00
 -1      4001 4.94888E+00
 -1      4002 7.87974E-01
 -1      4003 8.82923E-01
 -1      4004 7.87974E-01
 -1      4005 7.00572E-01
 -1      4006 6.27530E-01
 -1      4007 8.38481E-01
 -1      4008 1.02492E-01
 -1      4009 1.06604E-01
 -1      4010 1.43144E-01
 -1      4011 1.03119E+00
 -1      4012 1.21674E+00
 -1      4013 1.03119E+00
 -1      4014 4.86640E-01
 -1      4015 5.38082E-01
 -1      4016 6.13065E-01
 -1      4017 4.99783E+00
 -1      4018 4.69570E+00
 -1      4019 1.94672E+00
 -1      4020 1.72937E+00
 -1      4021 1.83618E+00
 -1      4022 1.48683E-01
 -1      4023 1.72803E-01
 -1      4024 4.69571E+00
 -1      4025 1.11205E-01
 -1      4026 1.20479E-01
 -1      4027 1.20598E-01
 -1      4028 3.85478E+00
 -1      4029 1.41841E+00
 -1      4030 1.54656E+00
 -1      4031 1.38112E+00
 -1      4032 1.01376E-01
 -1      4033 1.05376E-01
 -1      4034 1.07201E-01
 -1      4035 1.17137E-01
 -1      4036 1.64130E-01
 -1      4037 1.74040E-01
 -1      4038 1.43010E-01
 -1      4039 1.16765E-01
 -1      4040 1.08435E-01
 -1      4041 9.24519E-02
 -1      4042 1.43914E-01
 -1      4043 1.59089E-01
 -1      4044 1.40973E-01
 -1      4045 1.25833E-01
 -1      4046 4.61789E+00
 -1      4047 5.51126E-01
 -1      4048 4.98391E-01
 -1      4049 4.84416E-01
 -1      4050 1.11098E-01
 -1      4051 1.07621E-01
 -1      4052 9.10035E-02
 -1      4053 3.62168E+00
 -1      4054 9.89503E-02
 -1      4055 4.36454E-01
 -1      4056 4.36454E-01
 -1      4057 2.69405E+00
 -1      4058 2.92371E+00
 -1      4059 1.39973E-01
 -1      4060 1.33605E-01
 -1      4061 1.87209E-01
 -1      4062 1.56351E-01
 -1      4063 1.62138E-01
 -1      4064 1.56251E-01
 -1      4065 1.37920E-01
 -1      4066 3.82795E+00
 -1      4067 3.82795E+00
 -1      4068 3.29094E+00
 -1      4069 2.54365E+00
 -1      4070 1.25908E-01
 -1      4071 3.36506E-01
 -1      4072 2.94320E-01
 -1      4073 3.70625E-01
 -1      4074 4.24840E+00
 -1      4075 4.17079E+00
 -1      4076 3.75107E+00
 -1      4077 3.07872E+00
 -1      4078 1.98760E+00
 -1      4079 3.82543E+00
 -1      4080 1.71388E-01
 -1      4081 3.95271E-01
 -1      4082 4.00941E-01
 -1      4083 4.17864E-01
 -1      4084 4.55854E-01
 -1      4085 1.76053E-01
 -1      4086 2.32179E-01
 -1      4087 4.93241E-01
 -1      4088 4.76318E-01
 -1      4089 4.22378E-01
 -1      4090 6.24169E-01
 -1      4091 1.19550E-01
 -1      4092 4.68843E-01
 -1      4093 1.09564E-01
 -1      4094 1.19662E-01
 -1      4095 1.05411E-01
 -1      4096 1.12490E-01
 -1      4097 1.06319E-01
 -1      4098 1.45665E-01
 -1      4099 3.62168E+00
 -1      4100 1.12742E-01
 -1      4101 9.33340E-02
 -1      4102 1.15746E-01
 -1      4103 1.21582E-01
 -1      4104 1.28386E-01
 -1      4105 1.35299E-01
 -1      4106 1.42418E-01
 -1      4107 1.35322E-01
 -1      4108 1.62435E-01
 -1      4109 1.75352E-01
 -1      4110 1.62253E-01
 -1      4111 1.85326E-01
 -1      4112 2.05577E-01
 -1      4113 1.92244E-01
 -1      4114 2.26581E-01
 -1      4115 2.52856E-01
 -1      4116 2.23223E-01
 -1      4117 2.81356E-01
 -1      4118 3.16536E-01
 -1      4119 2.72727E-01
 -1      4120 3.57367E-01
 -1      4121 4.04835E-01
 -1      4122 3.42058E-01
 -1      4123 4.57401E-01
 -1      4124 5.22302E-01
 -1      4125 4.35455E-01
 -1      4126 6.04196E-01
 -1      4127 6.94368E-01
 -1      4128 5.69916E-01
 -1      4129 8.37314E-01
 -1      4130 9.70231E-01
 -1      4131 7.94756E-01
 -1      4132 1.13630E+00
 -1      4133 1.34479E+00
 -1      4134 1.10377E+00
 -1      4135 1.57020E+00
 -1      4136 1.92388E+00
 -1      4137 2.34043E+00
 -1      4138 1.49525E+00
 -1      4139 1.01190E-01
 -1      4140 1.25908E-01
 -1      4141 6.76191E-01
 -1      4142 5.99788E-01
 -1      4143 5.07679E-01
 -1      4144 4.44330E-01
 -1      4145 5.59701E-01
 -1      4146 1.95761E+00
 -1      4147 1.66949E+00
 -1      4148 1.30114E+00
 -1      4149 1.12763E+00
 -1      4150 1.75063E+00
 -1      4151 8.90658E-01
 -1      4152 7.78137E-01
 -1      4153 1.14531E+00
 -1      4154 6.05934E-01
 -1      4155 5.46643E-01
 -1      4156 4.73140E-01
 -1      4157 7.36132E-01
 -1      4158 3.75107E+00
 -1      4159 3.65909E+00
 -1      4160 3.16176E+00
 -1      4161 1.55468E-01
 -1      4162 1.43313E-01
 -1      4163 1.39001E-01
 -1      4164 9.92543E-02
 -1      4165 9.33115E-02
 -1      4166 9.57046E-01
 -1      4167 8.19137E-01
 -1      4168 7.94756E-01
 -1      4169 1.16775E-01
 -1      4170 1.21816E-01
 -1      4171 9.15477E-02
 -1      4172 1.00505E-01
 -1      4173 1.50095E+00
 -1      4174 1.64922E+00
 -1      4175 3.23085E+00
 -1      4176 3.23085E+00
 -1      4177 2.53288E+00
 -1      4178 2.90011E+00
 -1      4179 2.02971E+00
 -1      4180 1.64017E+00
 -1      4181 2.33686E+00
 -1      4182 9.69016E-01
 -1      4183 1.06397E+00
 -1      4184 1.68200E+00
 -1      4185 8.36192E-02
 -1      4186 8.81136E-02
 -1      4187 9.04216E-02
 -1      4188 1.35824E+00
 -1      4189 1.12311E+00
 -1      4190 1.10377E+00
 -1      4191 1.55177E+00
 -1      4192 3.44593E+00
 -1      4193 3.11495E+00
 -1      4194 2.26585E+00
 -1      4195 2.94861E+00
 -1      4196 1.46386E+00
 -1      4197 1.66553E+00
 -1      4198 1.93362E+00
 -1      4199 1.24510E-01
 -1      4200 9.84806E-02
 -1      4201 1.01933E-01
 -1      4202 9.10963E-02
 -1      4203 1.08614E-01
 -1      4204 1.14789E-01
 -1      4205 1.21617E-01
 -1      4206 1.08144E-01
 -1      4207 2.53239E-01
 -1      4208 2.16961E-01
 -1      4209 2.08269E-01
 -1      4210 2.79102E-01
 -1      4211 1.25370E-01
 -1      4212 1.25908E-01
 -1      4213 9.33340E-02
 -1      4214 2.28924E+00
 -1      4215 1.17243E-01
 -1      4216 1.11619E-01
 -1      4217 1.15453E-01
 -1      4218 1.43419E-01
 -1      4219 4.08739E-01
 -1      4220 3.85476E-01
 -1      4221 3.35034E-01
 -1      4222 1.81056E-01
 -1      4223 1.64677E-01
 -1      4224 2.42722E+00
 -1      4225 5.22220E-01
 -1      4226 5.57734E-01
 -1      4227 6.13010E-01
 -1      4228 1.83594E-01
 -1      4229 1.64677E-01
 -1      4230 1.74385E-01
 -1      4231 1.00652E-01
 -1      4232 7.03615E-01
 -1      4233 7.83576E-01
 -1      4234 9.79889E-02
 -1      4235 9.51015E-02
 -1      4236 1.05957E+00
 -1      4237 6.63752E-01
 -1      4238 7.68108E-01
 -1      4239 1.04196E-01
 -1      4240 1.01270E-01
 -1      4241 9.58663E-02
 -1      4242 1.62915E-01
 -1      4243 1.82932E-01
 -1      4244 1.82932E-01
 -1      4245 1.92907E-01
 -1      4246 2.52906E-01
 -1      4247 2.81406E-01
 -1      4248 3.25557E-01
 -1      4249 3.66388E-01
 -1      4250 4.25241E-01
 -1      4251 4.77807E-01
 -1      4252 5.69916E-01
 -1      4253 6.51810E-01
 -1      4254 7.94756E-01
 -1      4255 9.37702E-01
 -1      4256 1.10377E+00
 -1      4257 1.26984E+00
 -1      4258 8.86037E-02
 -1      4259 8.25339E-02
 -1      4260 8.60877E-02
 -1      4261 2.04637E+00
 -1      4262 1.96364E+00
 -1      4263 1.47869E-01
 -1      4264 1.54782E-01
 -1      4265 1.75462E-01
 -1      4266 1.92127E-01
 -1      4267 1.94666E-01
 -1      4268 2.21880E-01
 -1      4269 2.11899E+00
 -1      4270 1.75063E+00
 -1      4271 1.31364E+00
 -1      4272 1.07667E+00
 -1      4273 2.75312E+00
 -1      4274 2.53997E+00
 -1      4275 2.23173E+00
 -1      4276 2.75312E+00
 -1      4277 2.67008E+00
 -1      4278 8.91231E-01
 -1      4279 2.28034E+00
 -1      4280 8.98519E-02
 -1      4281 8.01596E-02
 -1      4282 9.03900E-02
 -1      4283 8.66574E-02
 -1      4284 9.70243E-02
 -1      4285 1.77717E+00
 -1      4286 2.03978E-01
 -1      4287 1.00305E-01
 -1      4288 1.18520E-01
 -1      4289 1.25312E-01
 -1      4290 1.44772E-01
 -1      4291 1.66253E-01
 -1      4292 1.44495E-01
 -1      4293 1.06986E-01
 -1      4294 2.90883E-01
 -1      4295 2.49803E-01
 -1      4296 2.33661E-01
 -1      4297 3.05735E-01
 -1      4298 2.24982E-01
 -1      4299 1.55177E+00
 -1      4300 2.23173E+00
 -1      4301 1.21938E-01
 -1      4302 1.15730E-01
 -1      4303 1.83594E-01
 -1      4304 1.10681E-01
 -1      4305 1.75462E-01
 -1      4306 3.05735E-01
 -1      4307 2.04637E+00
 -1      4308 2.34448E+00
 -1      4309 7.85213E-01
 -1      4310 2.33661E-01
 -1      4311 2.67008E+00
 -1      4312 1.83594E-01
 -1      4313 2.61584E-01
 -3
 9999
