    1C
    1UUSER                                                              
    1UDATE              26.october.2022                                 
    1UTIME              23:38:11                                        
    1UHOST                                                              
    1UPGM               CalculiX                                        
    1UVERSION           Version 2.17                             
    1UCOMPILETIME       Thu Jul 23 21:43:50 CEST 2020                    
    1UDIR                                                               
    1UDBN                                                               
    1UMAT    1SOLIDMATERIAL                                             
    2C                          4281                                     1
 -1         1 1.23903E+02 3.54559E+01 0.00000E+00
 -1         2 1.32803E+02 2.87189E+01 0.00000E+00
 -1         3 1.50000E+02 0.00000E+00 0.00000E+00
 -1         4 1.50000E+02 5.00000E+01 0.00000E+00
 -1         5 0.00000E+00 0.00000E+00 0.00000E+00
 -1         6 0.00000E+00 5.00000E+01 0.00000E+00
 -1         7 0.00000E+00 4.70500E+01 0.00000E+00
 -1         8 0.00000E+00 4.41000E+01 0.00000E+00
 -1         9 0.00000E+00 4.11500E+01 0.00000E+00
 -1        10 0.00000E+00 3.82000E+01 0.00000E+00
 -1        11 0.00000E+00 3.52500E+01 0.00000E+00
 -1        12 0.00000E+00 3.23500E+01 0.00000E+00
 -1        13 0.00000E+00 2.94000E+01 0.00000E+00
 -1        14 0.00000E+00 2.64500E+01 0.00000E+00
 -1        15 0.00000E+00 2.35000E+01 0.00000E+00
 -1        16 0.00000E+00 2.05500E+01 0.00000E+00
 -1        17 0.00000E+00 1.76000E+01 0.00000E+00
 -1        18 0.00000E+00 1.47000E+01 0.00000E+00
 -1        19 0.00000E+00 1.17500E+01 0.00000E+00
 -1        20 0.00000E+00 8.80000E+00 0.00000E+00
 -1        21 0.00000E+00 5.85000E+00 0.00000E+00
 -1        22 0.00000E+00 2.90000E+00 0.00000E+00
 -1        23 3.15000E+00 5.00000E+01 0.00000E+00
 -1        24 6.15000E+00 5.00000E+01 0.00000E+00
 -1        25 9.15000E+00 5.00000E+01 0.00000E+00
 -1        26 1.21500E+01 5.00000E+01 0.00000E+00
 -1        27 1.51500E+01 5.00000E+01 0.00000E+00
 -1        28 1.81500E+01 5.00000E+01 0.00000E+00
 -1        29 2.11500E+01 5.00000E+01 0.00000E+00
 -1        30 2.41500E+01 5.00000E+01 0.00000E+00
 -1        31 2.71500E+01 5.00000E+01 0.00000E+00
 -1        32 3.01500E+01 5.00000E+01 0.00000E+00
 -1        33 3.31500E+01 5.00000E+01 0.00000E+00
 -1        34 3.61500E+01 5.00000E+01 0.00000E+00
 -1        35 3.91500E+01 5.00000E+01 0.00000E+00
 -1        36 4.21500E+01 5.00000E+01 0.00000E+00
 -1        37 4.51500E+01 5.00000E+01 0.00000E+00
 -1        38 4.81500E+01 5.00000E+01 0.00000E+00
 -1        39 5.11500E+01 5.00000E+01 0.00000E+00
 -1        40 5.41500E+01 5.00000E+01 0.00000E+00
 -1        41 5.71500E+01 5.00000E+01 0.00000E+00
 -1        42 6.01500E+01 5.00000E+01 0.00000E+00
 -1        43 6.31500E+01 5.00000E+01 0.00000E+00
 -1        44 6.61500E+01 5.00000E+01 0.00000E+00
 -1        45 6.91500E+01 5.00000E+01 0.00000E+00
 -1        46 7.21500E+01 5.00000E+01 0.00000E+00
 -1        47 7.51500E+01 5.00000E+01 0.00000E+00
 -1        48 7.81500E+01 5.00000E+01 0.00000E+00
 -1        49 8.11500E+01 5.00000E+01 0.00000E+00
 -1        50 8.41500E+01 5.00000E+01 0.00000E+00
 -1        51 8.71500E+01 5.00000E+01 0.00000E+00
 -1        52 9.01500E+01 5.00000E+01 0.00000E+00
 -1        53 9.31500E+01 5.00000E+01 0.00000E+00
 -1        54 9.61500E+01 5.00000E+01 0.00000E+00
 -1        55 9.91500E+01 5.00000E+01 0.00000E+00
 -1        56 1.02150E+02 5.00000E+01 0.00000E+00
 -1        57 1.05150E+02 5.00000E+01 0.00000E+00
 -1        58 1.08150E+02 5.00000E+01 0.00000E+00
 -1        59 1.11150E+02 5.00000E+01 0.00000E+00
 -1        60 1.14150E+02 5.00000E+01 0.00000E+00
 -1        61 1.17150E+02 5.00000E+01 0.00000E+00
 -1        62 1.20150E+02 5.00000E+01 0.00000E+00
 -1        63 1.23150E+02 5.00000E+01 0.00000E+00
 -1        64 1.26150E+02 5.00000E+01 0.00000E+00
 -1        65 1.29150E+02 5.00000E+01 0.00000E+00
 -1        66 1.32150E+02 5.00000E+01 0.00000E+00
 -1        67 1.35150E+02 5.00000E+01 0.00000E+00
 -1        68 1.38150E+02 5.00000E+01 0.00000E+00
 -1        69 1.41150E+02 5.00000E+01 0.00000E+00
 -1        70 1.44150E+02 5.00000E+01 0.00000E+00
 -1        71 1.47150E+02 5.00000E+01 0.00000E+00
 -1        72 3.15000E+00 0.00000E+00 0.00000E+00
 -1        73 6.15000E+00 0.00000E+00 0.00000E+00
 -1        74 9.15000E+00 0.00000E+00 0.00000E+00
 -1        75 1.21500E+01 0.00000E+00 0.00000E+00
 -1        76 1.51500E+01 0.00000E+00 0.00000E+00
 -1        77 1.81500E+01 0.00000E+00 0.00000E+00
 -1        78 2.11500E+01 0.00000E+00 0.00000E+00
 -1        79 2.41500E+01 0.00000E+00 0.00000E+00
 -1        80 2.71500E+01 0.00000E+00 0.00000E+00
 -1        81 3.01500E+01 0.00000E+00 0.00000E+00
 -1        82 3.31500E+01 0.00000E+00 0.00000E+00
 -1        83 3.61500E+01 0.00000E+00 0.00000E+00
 -1        84 3.91500E+01 0.00000E+00 0.00000E+00
 -1        85 4.21500E+01 0.00000E+00 0.00000E+00
 -1        86 4.51500E+01 0.00000E+00 0.00000E+00
 -1        87 4.81500E+01 0.00000E+00 0.00000E+00
 -1        88 5.11500E+01 0.00000E+00 0.00000E+00
 -1        89 5.41500E+01 0.00000E+00 0.00000E+00
 -1        90 5.71500E+01 0.00000E+00 0.00000E+00
 -1        91 6.01500E+01 0.00000E+00 0.00000E+00
 -1        92 6.31500E+01 0.00000E+00 0.00000E+00
 -1        93 6.61500E+01 0.00000E+00 0.00000E+00
 -1        94 6.91500E+01 0.00000E+00 0.00000E+00
 -1        95 7.21500E+01 0.00000E+00 0.00000E+00
 -1        96 7.51500E+01 0.00000E+00 0.00000E+00
 -1        97 7.81500E+01 0.00000E+00 0.00000E+00
 -1        98 8.11500E+01 0.00000E+00 0.00000E+00
 -1        99 8.41500E+01 0.00000E+00 0.00000E+00
 -1       100 8.71500E+01 0.00000E+00 0.00000E+00
 -1       101 9.01500E+01 0.00000E+00 0.00000E+00
 -1       102 9.31500E+01 0.00000E+00 0.00000E+00
 -1       103 9.61500E+01 0.00000E+00 0.00000E+00
 -1       104 9.91500E+01 0.00000E+00 0.00000E+00
 -1       105 1.02150E+02 0.00000E+00 0.00000E+00
 -1       106 1.05150E+02 0.00000E+00 0.00000E+00
 -1       107 1.08150E+02 0.00000E+00 0.00000E+00
 -1       108 1.11150E+02 0.00000E+00 0.00000E+00
 -1       109 1.14150E+02 0.00000E+00 0.00000E+00
 -1       110 1.17150E+02 0.00000E+00 0.00000E+00
 -1       111 1.20150E+02 0.00000E+00 0.00000E+00
 -1       112 1.23150E+02 0.00000E+00 0.00000E+00
 -1       113 1.26150E+02 0.00000E+00 0.00000E+00
 -1       114 1.29150E+02 0.00000E+00 0.00000E+00
 -1       115 1.32150E+02 0.00000E+00 0.00000E+00
 -1       116 1.35150E+02 0.00000E+00 0.00000E+00
 -1       117 1.38150E+02 0.00000E+00 0.00000E+00
 -1       118 1.41150E+02 0.00000E+00 0.00000E+00
 -1       119 1.44150E+02 0.00000E+00 0.00000E+00
 -1       120 1.47150E+02 0.00000E+00 0.00000E+00
 -1       121 1.50000E+02 2.95000E+00 0.00000E+00
 -1       122 1.50000E+02 5.90000E+00 0.00000E+00
 -1       123 1.50000E+02 8.85000E+00 0.00000E+00
 -1       124 1.50000E+02 1.18000E+01 0.00000E+00
 -1       125 1.50000E+02 1.47500E+01 0.00000E+00
 -1       126 1.50000E+02 1.76500E+01 0.00000E+00
 -1       127 1.50000E+02 2.06000E+01 0.00000E+00
 -1       128 1.50000E+02 2.35500E+01 0.00000E+00
 -1       129 1.50000E+02 2.65000E+01 0.00000E+00
 -1       130 1.50000E+02 2.94500E+01 0.00000E+00
 -1       131 1.50000E+02 3.24000E+01 0.00000E+00
 -1       132 1.50000E+02 3.53000E+01 0.00000E+00
 -1       133 1.50000E+02 3.82500E+01 0.00000E+00
 -1       134 1.50000E+02 4.12000E+01 0.00000E+00
 -1       135 1.50000E+02 4.41500E+01 0.00000E+00
 -1       136 1.50000E+02 4.71000E+01 0.00000E+00
 -1       137 1.32633E+02 2.71847E+01 0.00000E+00
 -1       138 1.32077E+02 2.56143E+01 0.00000E+00
 -1       139 1.31243E+02 2.43127E+01 0.00000E+00
 -1       140 1.30158E+02 2.32385E+01 0.00000E+00
 -1       141 1.28788E+02 2.23868E+01 0.00000E+00
 -1       142 1.27209E+02 2.18615E+01 0.00000E+00
 -1       143 1.25705E+02 2.17196E+01 0.00000E+00
 -1       144 1.24030E+02 2.19472E+01 0.00000E+00
 -1       145 1.22688E+02 2.24503E+01 0.00000E+00
 -1       146 1.21344E+02 2.33233E+01 0.00000E+00
 -1       147 1.20286E+02 2.44110E+01 0.00000E+00
 -1       148 1.19502E+02 2.56701E+01 0.00000E+00
 -1       149 1.18972E+02 2.71900E+01 0.00000E+00
 -1       150 1.18804E+02 2.86704E+01 0.00000E+00
 -1       151 1.18969E+02 3.02319E+01 0.00000E+00
 -1       152 1.19423E+02 3.15984E+01 0.00000E+00
 -1       153 1.20185E+02 3.28937E+01 0.00000E+00
 -1       154 1.21159E+02 3.39565E+01 0.00000E+00
 -1       155 1.22455E+02 3.48662E+01 0.00000E+00
 -1       156 1.25278E+02 3.56992E+01 0.00000E+00
 -1       157 1.26785E+02 3.56498E+01 0.00000E+00
 -1       158 1.28125E+02 3.53226E+01 0.00000E+00
 -1       159 1.29409E+02 3.47191E+01 0.00000E+00
 -1       160 1.30552E+02 3.38622E+01 0.00000E+00
 -1       161 1.31472E+02 3.28265E+01 0.00000E+00
 -1       162 1.32204E+02 3.15522E+01 0.00000E+00
 -1       163 1.32663E+02 3.01142E+01 0.00000E+00
 -1       164 2.59800E+00 4.55750E+01 0.00000E+00
 -1       165 2.59800E+00 4.26250E+01 0.00000E+00
 -1       166 2.59800E+00 3.96750E+01 0.00000E+00
 -1       167 2.59800E+00 3.67250E+01 0.00000E+00
 -1       168 2.59800E+00 3.38250E+01 0.00000E+00
 -1       169 2.59800E+00 3.08750E+01 0.00000E+00
 -1       170 2.59800E+00 2.79250E+01 0.00000E+00
 -1       171 2.59800E+00 2.49750E+01 0.00000E+00
 -1       172 2.59800E+00 2.20250E+01 0.00000E+00
 -1       173 2.59800E+00 1.90750E+01 0.00000E+00
 -1       174 2.59800E+00 1.61750E+01 0.00000E+00
 -1       175 2.59800E+00 1.32250E+01 0.00000E+00
 -1       176 2.59800E+00 1.02750E+01 0.00000E+00
 -1       177 2.59800E+00 7.32500E+00 0.00000E+00
 -1       178 2.59800E+00 4.37500E+00 0.00000E+00
 -1       179 2.87400E+00 2.18750E+00 0.00000E+00
 -1       180 4.65000E+00 4.74020E+01 0.00000E+00
 -1       181 7.65000E+00 4.74020E+01 0.00000E+00
 -1       182 1.06500E+01 4.74020E+01 0.00000E+00
 -1       183 1.36500E+01 4.74020E+01 0.00000E+00
 -1       184 1.66500E+01 4.74020E+01 0.00000E+00
 -1       185 1.96500E+01 4.74020E+01 0.00000E+00
 -1       186 2.26500E+01 4.74020E+01 0.00000E+00
 -1       187 2.56500E+01 4.74020E+01 0.00000E+00
 -1       188 2.86500E+01 4.74020E+01 0.00000E+00
 -1       189 3.16500E+01 4.74020E+01 0.00000E+00
 -1       190 3.46500E+01 4.74020E+01 0.00000E+00
 -1       191 3.76500E+01 4.74020E+01 0.00000E+00
 -1       192 4.06500E+01 4.74020E+01 0.00000E+00
 -1       193 4.36500E+01 4.74020E+01 0.00000E+00
 -1       194 4.66500E+01 4.74020E+01 0.00000E+00
 -1       195 4.96500E+01 4.74020E+01 0.00000E+00
 -1       196 5.26500E+01 4.74020E+01 0.00000E+00
 -1       197 5.56500E+01 4.74020E+01 0.00000E+00
 -1       198 5.86500E+01 4.74020E+01 0.00000E+00
 -1       199 6.16500E+01 4.74020E+01 0.00000E+00
 -1       200 6.46500E+01 4.74020E+01 0.00000E+00
 -1       201 6.76500E+01 4.74020E+01 0.00000E+00
 -1       202 7.06500E+01 4.74020E+01 0.00000E+00
 -1       203 7.36500E+01 4.74020E+01 0.00000E+00
 -1       204 7.66500E+01 4.74020E+01 0.00000E+00
 -1       205 7.96500E+01 4.74020E+01 0.00000E+00
 -1       206 8.26500E+01 4.74020E+01 0.00000E+00
 -1       207 8.56500E+01 4.74020E+01 0.00000E+00
 -1       208 8.86500E+01 4.74020E+01 0.00000E+00
 -1       209 9.16500E+01 4.74020E+01 0.00000E+00
 -1       210 9.46500E+01 4.74020E+01 0.00000E+00
 -1       211 9.76500E+01 4.74020E+01 0.00000E+00
 -1       212 1.00650E+02 4.74020E+01 0.00000E+00
 -1       213 1.03650E+02 4.74020E+01 0.00000E+00
 -1       214 1.06650E+02 4.74020E+01 0.00000E+00
 -1       215 1.09650E+02 4.74020E+01 0.00000E+00
 -1       216 1.12650E+02 4.74020E+01 0.00000E+00
 -1       217 1.15650E+02 4.74020E+01 0.00000E+00
 -1       218 1.18650E+02 4.74020E+01 0.00000E+00
 -1       219 1.21650E+02 4.74020E+01 0.00000E+00
 -1       220 1.24650E+02 4.74020E+01 0.00000E+00
 -1       221 1.27650E+02 4.74020E+01 0.00000E+00
 -1       222 1.30650E+02 4.74020E+01 0.00000E+00
 -1       223 1.33650E+02 4.74020E+01 0.00000E+00
 -1       224 1.36650E+02 4.74020E+01 0.00000E+00
 -1       225 1.39650E+02 4.74020E+01 0.00000E+00
 -1       226 1.42650E+02 4.74020E+01 0.00000E+00
 -1       227 1.45650E+02 4.74020E+01 0.00000E+00
 -1       228 5.87400E+00 2.18750E+00 0.00000E+00
 -1       229 8.87400E+00 2.18750E+00 0.00000E+00
 -1       230 1.18740E+01 2.18750E+00 0.00000E+00
 -1       231 1.48740E+01 2.18750E+00 0.00000E+00
 -1       232 1.78740E+01 2.18750E+00 0.00000E+00
 -1       233 2.08740E+01 2.18750E+00 0.00000E+00
 -1       234 2.38740E+01 2.18750E+00 0.00000E+00
 -1       235 2.68740E+01 2.18750E+00 0.00000E+00
 -1       236 2.98740E+01 2.18750E+00 0.00000E+00
 -1       237 3.28740E+01 2.18750E+00 0.00000E+00
 -1       238 3.58740E+01 2.18750E+00 0.00000E+00
 -1       239 3.88740E+01 2.18750E+00 0.00000E+00
 -1       240 4.18740E+01 2.18750E+00 0.00000E+00
 -1       241 4.48740E+01 2.18750E+00 0.00000E+00
 -1       242 4.78740E+01 2.18750E+00 0.00000E+00
 -1       243 5.08740E+01 2.18750E+00 0.00000E+00
 -1       244 5.38740E+01 2.18750E+00 0.00000E+00
 -1       245 5.68740E+01 2.18750E+00 0.00000E+00
 -1       246 5.98740E+01 2.18750E+00 0.00000E+00
 -1       247 6.28740E+01 2.18750E+00 0.00000E+00
 -1       248 6.58740E+01 2.18750E+00 0.00000E+00
 -1       249 6.88740E+01 2.18750E+00 0.00000E+00
 -1       250 7.18740E+01 2.18750E+00 0.00000E+00
 -1       251 7.48740E+01 2.18750E+00 0.00000E+00
 -1       252 7.78740E+01 2.18750E+00 0.00000E+00
 -1       253 8.08740E+01 2.18750E+00 0.00000E+00
 -1       254 8.38740E+01 2.18750E+00 0.00000E+00
 -1       255 8.68740E+01 2.18750E+00 0.00000E+00
 -1       256 8.98740E+01 2.18750E+00 0.00000E+00
 -1       257 9.28740E+01 2.18750E+00 0.00000E+00
 -1       258 9.58740E+01 2.18750E+00 0.00000E+00
 -1       259 9.88740E+01 2.18750E+00 0.00000E+00
 -1       260 1.01874E+02 2.18750E+00 0.00000E+00
 -1       261 1.04874E+02 2.18750E+00 0.00000E+00
 -1       262 1.07874E+02 2.18750E+00 0.00000E+00
 -1       263 1.10874E+02 2.18750E+00 0.00000E+00
 -1       264 1.13874E+02 2.18750E+00 0.00000E+00
 -1       265 1.16874E+02 2.18750E+00 0.00000E+00
 -1       266 1.19874E+02 2.18750E+00 0.00000E+00
 -1       267 1.22874E+02 2.18750E+00 0.00000E+00
 -1       268 1.25874E+02 2.18750E+00 0.00000E+00
 -1       269 1.28874E+02 2.18750E+00 0.00000E+00
 -1       270 1.31874E+02 2.18750E+00 0.00000E+00
 -1       271 1.34874E+02 2.18750E+00 0.00000E+00
 -1       272 1.37874E+02 2.18750E+00 0.00000E+00
 -1       273 1.40874E+02 2.18750E+00 0.00000E+00
 -1       274 1.43874E+02 2.18750E+00 0.00000E+00
 -1       275 1.46874E+02 2.18750E+00 0.00000E+00
 -1       276 1.47402E+02 4.42500E+00 0.00000E+00
 -1       277 1.47402E+02 7.37500E+00 0.00000E+00
 -1       278 1.47402E+02 1.03250E+01 0.00000E+00
 -1       279 1.47402E+02 1.32750E+01 0.00000E+00
 -1       280 1.47402E+02 1.61750E+01 0.00000E+00
 -1       281 1.47402E+02 1.91250E+01 0.00000E+00
 -1       282 1.47402E+02 2.20750E+01 0.00000E+00
 -1       283 1.47402E+02 2.50250E+01 0.00000E+00
 -1       284 1.47402E+02 2.79750E+01 0.00000E+00
 -1       285 1.47402E+02 3.09250E+01 0.00000E+00
 -1       286 1.47402E+02 3.38250E+01 0.00000E+00
 -1       287 1.47402E+02 3.67750E+01 0.00000E+00
 -1       288 1.47402E+02 3.97250E+01 0.00000E+00
 -1       289 1.47402E+02 4.26750E+01 0.00000E+00
 -1       290 1.46526E+02 4.50385E+01 0.00000E+00
 -1       291 1.34090E+02 2.77997E+01 0.00000E+00
 -1       292 1.33814E+02 2.58830E+01 0.00000E+00
 -1       293 1.32822E+02 2.42186E+01 0.00000E+00
 -1       294 1.31554E+02 2.29143E+01 0.00000E+00
 -1       295 1.30201E+02 2.16405E+01 0.00000E+00
 -1       296 1.28487E+02 2.06558E+01 0.00000E+00
 -1       297 1.26579E+02 2.05001E+01 0.00000E+00
 -1       298 1.24671E+02 2.03830E+01 0.00000E+00
 -1       299 1.22934E+02 2.10634E+01 0.00000E+00
 -1       300 1.21219E+02 2.16591E+01 0.00000E+00
 -1       301 1.19946E+02 2.30218E+01 0.00000E+00
 -1       302 1.18865E+02 2.43998E+01 0.00000E+00
 -1       303 1.17934E+02 2.59758E+01 0.00000E+00
 -1       304 1.17683E+02 2.77928E+01 0.00000E+00
 -1       305 1.17514E+02 2.95964E+01 0.00000E+00
 -1       306 1.17966E+02 3.13240E+01 0.00000E+00
 -1       307 1.18686E+02 3.29030E+01 0.00000E+00
 -1       308 1.19778E+02 3.42445E+01 0.00000E+00
 -1       309 1.21014E+02 3.55407E+01 0.00000E+00
 -1       310 1.22690E+02 3.63614E+01 0.00000E+00
 -1       311 1.24379E+02 3.67714E+01 0.00000E+00
 -1       312 1.26077E+02 3.70537E+01 0.00000E+00
 -1       313 1.27743E+02 3.66640E+01 0.00000E+00
 -1       314 1.29283E+02 3.61180E+01 0.00000E+00
 -1       315 1.30707E+02 3.52607E+01 0.00000E+00
 -1       316 1.31918E+02 3.41494E+01 0.00000E+00
 -1       317 1.32889E+02 3.27938E+01 0.00000E+00
 -1       318 1.33748E+02 3.12525E+01 0.00000E+00
 -1       319 1.33939E+02 2.95380E+01 0.00000E+00
 -1       320 5.19600E+00 4.11500E+01 0.00000E+00
 -1       321 5.19600E+00 4.41000E+01 0.00000E+00
 -1       322 5.19600E+00 3.52750E+01 0.00000E+00
 -1       323 5.19600E+00 3.23250E+01 0.00000E+00
 -1       324 5.19600E+00 2.93750E+01 0.00000E+00
 -1       325 5.19600E+00 2.64250E+01 0.00000E+00
 -1       326 5.19600E+00 2.34750E+01 0.00000E+00
 -1       327 5.19600E+00 2.05250E+01 0.00000E+00
 -1       328 5.19600E+00 1.76250E+01 0.00000E+00
 -1       329 5.19600E+00 1.46750E+01 0.00000E+00
 -1       330 5.19600E+00 1.17250E+01 0.00000E+00
 -1       331 5.19600E+00 8.77500E+00 0.00000E+00
 -1       332 5.19600E+00 5.82500E+00 0.00000E+00
 -1       333 5.53500E+00 4.00625E+00 0.00000E+00
 -1       334 8.53500E+00 4.00625E+00 0.00000E+00
 -1       335 9.15000E+00 4.48040E+01 0.00000E+00
 -1       336 1.21500E+01 4.48040E+01 0.00000E+00
 -1       337 1.51500E+01 4.48040E+01 0.00000E+00
 -1       338 1.81500E+01 4.48040E+01 0.00000E+00
 -1       339 2.11500E+01 4.48040E+01 0.00000E+00
 -1       340 2.41500E+01 4.48040E+01 0.00000E+00
 -1       341 2.71500E+01 4.48040E+01 0.00000E+00
 -1       342 3.01500E+01 4.48040E+01 0.00000E+00
 -1       343 3.31500E+01 4.48040E+01 0.00000E+00
 -1       344 3.61500E+01 4.48040E+01 0.00000E+00
 -1       345 3.91500E+01 4.48040E+01 0.00000E+00
 -1       346 4.21500E+01 4.48040E+01 0.00000E+00
 -1       347 4.51500E+01 4.48040E+01 0.00000E+00
 -1       348 4.81500E+01 4.48040E+01 0.00000E+00
 -1       349 5.11500E+01 4.48040E+01 0.00000E+00
 -1       350 5.41500E+01 4.48040E+01 0.00000E+00
 -1       351 5.71500E+01 4.48040E+01 0.00000E+00
 -1       352 6.01500E+01 4.48040E+01 0.00000E+00
 -1       353 6.31500E+01 4.48040E+01 0.00000E+00
 -1       354 6.61500E+01 4.48040E+01 0.00000E+00
 -1       355 6.91500E+01 4.48040E+01 0.00000E+00
 -1       356 7.21500E+01 4.48040E+01 0.00000E+00
 -1       357 7.51500E+01 4.48040E+01 0.00000E+00
 -1       358 7.81500E+01 4.48040E+01 0.00000E+00
 -1       359 8.11500E+01 4.48040E+01 0.00000E+00
 -1       360 8.41500E+01 4.48040E+01 0.00000E+00
 -1       361 8.71500E+01 4.48040E+01 0.00000E+00
 -1       362 9.01500E+01 4.48040E+01 0.00000E+00
 -1       363 9.31500E+01 4.48040E+01 0.00000E+00
 -1       364 9.61500E+01 4.48040E+01 0.00000E+00
 -1       365 9.91500E+01 4.48040E+01 0.00000E+00
 -1       366 1.02150E+02 4.48040E+01 0.00000E+00
 -1       367 1.05150E+02 4.48040E+01 0.00000E+00
 -1       368 1.08150E+02 4.48040E+01 0.00000E+00
 -1       369 1.11150E+02 4.48040E+01 0.00000E+00
 -1       370 1.14150E+02 4.48040E+01 0.00000E+00
 -1       371 1.17150E+02 4.48040E+01 0.00000E+00
 -1       372 1.20150E+02 4.48040E+01 0.00000E+00
 -1       373 1.23150E+02 4.48040E+01 0.00000E+00
 -1       374 1.26150E+02 4.48040E+01 0.00000E+00
 -1       375 1.29150E+02 4.48040E+01 0.00000E+00
 -1       376 1.32150E+02 4.48040E+01 0.00000E+00
 -1       377 1.35150E+02 4.48040E+01 0.00000E+00
 -1       378 1.38150E+02 4.48040E+01 0.00000E+00
 -1       379 1.41150E+02 4.48040E+01 0.00000E+00
 -1       380 1.43838E+02 4.49212E+01 0.00000E+00
 -1       381 1.15350E+01 4.00625E+00 0.00000E+00
 -1       382 1.45350E+01 4.00625E+00 0.00000E+00
 -1       383 1.75350E+01 4.00625E+00 0.00000E+00
 -1       384 2.05350E+01 4.00625E+00 0.00000E+00
 -1       385 2.35350E+01 4.00625E+00 0.00000E+00
 -1       386 2.65350E+01 4.00625E+00 0.00000E+00
 -1       387 2.95350E+01 4.00625E+00 0.00000E+00
 -1       388 3.25350E+01 4.00625E+00 0.00000E+00
 -1       389 3.55350E+01 4.00625E+00 0.00000E+00
 -1       390 3.85350E+01 4.00625E+00 0.00000E+00
 -1       391 4.15350E+01 4.00625E+00 0.00000E+00
 -1       392 4.45350E+01 4.00625E+00 0.00000E+00
 -1       393 4.75350E+01 4.00625E+00 0.00000E+00
 -1       394 5.05350E+01 4.00625E+00 0.00000E+00
 -1       395 5.35350E+01 4.00625E+00 0.00000E+00
 -1       396 5.65350E+01 4.00625E+00 0.00000E+00
 -1       397 5.95350E+01 4.00625E+00 0.00000E+00
 -1       398 6.25350E+01 4.00625E+00 0.00000E+00
 -1       399 6.55350E+01 4.00625E+00 0.00000E+00
 -1       400 6.85350E+01 4.00625E+00 0.00000E+00
 -1       401 7.15350E+01 4.00625E+00 0.00000E+00
 -1       402 7.45350E+01 4.00625E+00 0.00000E+00
 -1       403 7.75350E+01 4.00625E+00 0.00000E+00
 -1       404 8.05350E+01 4.00625E+00 0.00000E+00
 -1       405 8.35350E+01 4.00625E+00 0.00000E+00
 -1       406 8.65350E+01 4.00625E+00 0.00000E+00
 -1       407 8.95350E+01 4.00625E+00 0.00000E+00
 -1       408 9.25350E+01 4.00625E+00 0.00000E+00
 -1       409 9.55350E+01 4.00625E+00 0.00000E+00
 -1       410 9.85350E+01 4.00625E+00 0.00000E+00
 -1       411 1.01535E+02 4.00625E+00 0.00000E+00
 -1       412 1.04535E+02 4.00625E+00 0.00000E+00
 -1       413 1.07535E+02 4.00625E+00 0.00000E+00
 -1       414 1.10535E+02 4.00625E+00 0.00000E+00
 -1       415 1.13535E+02 4.00625E+00 0.00000E+00
 -1       416 1.16535E+02 4.00625E+00 0.00000E+00
 -1       417 1.19535E+02 4.00625E+00 0.00000E+00
 -1       418 1.22535E+02 4.00625E+00 0.00000E+00
 -1       419 1.25535E+02 4.00625E+00 0.00000E+00
 -1       420 1.28535E+02 4.00625E+00 0.00000E+00
 -1       421 1.31535E+02 4.00625E+00 0.00000E+00
 -1       422 1.34535E+02 4.00625E+00 0.00000E+00
 -1       423 1.37535E+02 4.00625E+00 0.00000E+00
 -1       424 1.40535E+02 4.00625E+00 0.00000E+00
 -1       425 1.43535E+02 4.00625E+00 0.00000E+00
 -1       426 1.45469E+02 4.21562E+00 0.00000E+00
 -1       427 1.44804E+02 1.18000E+01 0.00000E+00
 -1       428 1.44804E+02 8.85000E+00 0.00000E+00
 -1       429 1.45136E+02 6.53281E+00 0.00000E+00
 -1       430 1.44804E+02 1.47000E+01 0.00000E+00
 -1       431 1.44804E+02 1.76500E+01 0.00000E+00
 -1       432 1.44804E+02 2.06000E+01 0.00000E+00
 -1       433 1.44804E+02 2.35500E+01 0.00000E+00
 -1       434 1.44804E+02 2.65000E+01 0.00000E+00
 -1       435 1.44804E+02 2.94500E+01 0.00000E+00
 -1       436 1.44804E+02 3.23500E+01 0.00000E+00
 -1       437 1.44804E+02 3.53000E+01 0.00000E+00
 -1       438 1.44804E+02 3.82500E+01 0.00000E+00
 -1       439 1.44804E+02 4.12000E+01 0.00000E+00
 -1       440 1.34647E+02 2.42583E+01 0.00000E+00
 -1       441 1.35390E+02 2.87878E+01 0.00000E+00
 -1       442 1.35650E+02 2.65971E+01 0.00000E+00
 -1       443 1.33297E+02 2.24878E+01 0.00000E+00
 -1       444 1.31945E+02 2.12140E+01 0.00000E+00
 -1       445 5.19600E+00 3.82125E+01 0.00000E+00
 -1       446 1.27638E+02 1.92861E+01 0.00000E+00
 -1       447 1.25714E+02 1.89805E+01 0.00000E+00
 -1       448 1.23329E+02 1.95163E+01 0.00000E+00
 -1       449 1.21615E+02 2.01120E+01 0.00000E+00
 -1       450 1.19452E+02 2.12840E+01 0.00000E+00
 -1       451 1.18386E+02 2.29108E+01 0.00000E+00
 -1       452 1.17067E+02 2.44010E+01 0.00000E+00
 -1       453 1.16276E+02 2.66727E+01 0.00000E+00
 -1       454 1.16106E+02 2.84763E+01 0.00000E+00
 -1       455 1.16486E+02 3.07883E+01 0.00000E+00
 -1       456 1.17071E+02 3.26863E+01 0.00000E+00
 -1       457 1.18162E+02 3.44449E+01 0.00000E+00
 -1       458 1.19398E+02 3.58449E+01 0.00000E+00
 -1       459 1.21171E+02 3.73409E+01 0.00000E+00
 -1       460 1.23209E+02 3.79075E+01 0.00000E+00
 -1       461 1.24907E+02 3.81898E+01 0.00000E+00
 -1       462 1.27281E+02 3.84473E+01 0.00000E+00
 -1       463 1.28946E+02 3.76127E+01 0.00000E+00
 -1       464 1.30707E+02 3.68718E+01 0.00000E+00
 -1       465 1.32359E+02 3.58452E+01 0.00000E+00
 -1       466 1.33457E+02 3.42263E+01 0.00000E+00
 -1       467 1.34451E+02 3.26544E+01 0.00000E+00
 -1       468 1.35198E+02 3.05022E+01 0.00000E+00
 -1       469 1.30115E+02 1.98063E+01 0.00000E+00
 -1       470 1.29266E+02 1.84365E+01 0.00000E+00
 -1       471 1.35901E+02 3.19041E+01 0.00000E+00
 -1       472 1.19847E+02 1.97369E+01 0.00000E+00
 -1       473 1.24373E+02 1.81139E+01 0.00000E+00
 -1       474 1.00350E+01 6.60425E+00 0.00000E+00
 -1       475 7.79400E+00 3.08500E+01 0.00000E+00
 -1       476 7.79400E+00 3.38000E+01 0.00000E+00
 -1       477 7.79400E+00 2.49500E+01 0.00000E+00
 -1       478 7.79400E+00 2.20000E+01 0.00000E+00
 -1       479 7.79400E+00 1.91000E+01 0.00000E+00
 -1       480 7.79400E+00 1.61500E+01 0.00000E+00
 -1       481 7.79400E+00 1.32000E+01 0.00000E+00
 -1       482 7.79400E+00 1.02500E+01 0.00000E+00
 -1       483 1.30350E+01 6.60425E+00 0.00000E+00
 -1       484 1.06500E+01 4.22060E+01 0.00000E+00
 -1       485 1.32280E+02 1.88851E+01 0.00000E+00
 -1       486 1.36500E+01 4.22060E+01 0.00000E+00
 -1       487 1.66500E+01 4.22060E+01 0.00000E+00
 -1       488 1.96500E+01 4.22060E+01 0.00000E+00
 -1       489 2.26500E+01 4.22060E+01 0.00000E+00
 -1       490 2.56500E+01 4.22060E+01 0.00000E+00
 -1       491 2.86500E+01 4.22060E+01 0.00000E+00
 -1       492 3.16500E+01 4.22060E+01 0.00000E+00
 -1       493 3.46500E+01 4.22060E+01 0.00000E+00
 -1       494 3.76500E+01 4.22060E+01 0.00000E+00
 -1       495 4.06500E+01 4.22060E+01 0.00000E+00
 -1       496 4.36500E+01 4.22060E+01 0.00000E+00
 -1       497 4.66500E+01 4.22060E+01 0.00000E+00
 -1       498 4.96500E+01 4.22060E+01 0.00000E+00
 -1       499 5.26500E+01 4.22060E+01 0.00000E+00
 -1       500 5.56500E+01 4.22060E+01 0.00000E+00
 -1       501 5.86500E+01 4.22060E+01 0.00000E+00
 -1       502 6.16500E+01 4.22060E+01 0.00000E+00
 -1       503 6.46500E+01 4.22060E+01 0.00000E+00
 -1       504 6.76500E+01 4.22060E+01 0.00000E+00
 -1       505 7.06500E+01 4.22060E+01 0.00000E+00
 -1       506 7.36500E+01 4.22060E+01 0.00000E+00
 -1       507 7.66500E+01 4.22060E+01 0.00000E+00
 -1       508 7.96500E+01 4.22060E+01 0.00000E+00
 -1       509 8.26500E+01 4.22060E+01 0.00000E+00
 -1       510 8.56500E+01 4.22060E+01 0.00000E+00
 -1       511 8.86500E+01 4.22060E+01 0.00000E+00
 -1       512 9.16500E+01 4.22060E+01 0.00000E+00
 -1       513 9.46500E+01 4.22060E+01 0.00000E+00
 -1       514 9.76500E+01 4.22060E+01 0.00000E+00
 -1       515 1.00650E+02 4.22060E+01 0.00000E+00
 -1       516 1.03650E+02 4.22060E+01 0.00000E+00
 -1       517 1.06650E+02 4.22060E+01 0.00000E+00
 -1       518 1.09650E+02 4.22060E+01 0.00000E+00
 -1       519 1.12650E+02 4.22060E+01 0.00000E+00
 -1       520 1.15650E+02 4.22060E+01 0.00000E+00
 -1       521 1.18650E+02 4.22060E+01 0.00000E+00
 -1       522 1.21650E+02 4.22060E+01 0.00000E+00
 -1       523 1.24650E+02 4.22060E+01 0.00000E+00
 -1       524 1.27650E+02 4.22060E+01 0.00000E+00
 -1       525 1.30650E+02 4.22060E+01 0.00000E+00
 -1       526 1.33650E+02 4.22060E+01 0.00000E+00
 -1       527 1.36650E+02 4.22060E+01 0.00000E+00
 -1       528 1.39650E+02 4.22060E+01 0.00000E+00
 -1       529 1.90350E+01 6.60425E+00 0.00000E+00
 -1       530 2.20350E+01 6.60425E+00 0.00000E+00
 -1       531 2.50350E+01 6.60425E+00 0.00000E+00
 -1       532 2.80350E+01 6.60425E+00 0.00000E+00
 -1       533 3.10350E+01 6.60425E+00 0.00000E+00
 -1       534 3.40350E+01 6.60425E+00 0.00000E+00
 -1       535 3.70350E+01 6.60425E+00 0.00000E+00
 -1       536 4.00350E+01 6.60425E+00 0.00000E+00
 -1       537 4.30350E+01 6.60425E+00 0.00000E+00
 -1       538 4.60350E+01 6.60425E+00 0.00000E+00
 -1       539 4.90350E+01 6.60425E+00 0.00000E+00
 -1       540 5.20350E+01 6.60425E+00 0.00000E+00
 -1       541 5.50350E+01 6.60425E+00 0.00000E+00
 -1       542 5.80350E+01 6.60425E+00 0.00000E+00
 -1       543 6.10350E+01 6.60425E+00 0.00000E+00
 -1       544 6.40350E+01 6.60425E+00 0.00000E+00
 -1       545 6.70350E+01 6.60425E+00 0.00000E+00
 -1       546 7.00350E+01 6.60425E+00 0.00000E+00
 -1       547 7.30350E+01 6.60425E+00 0.00000E+00
 -1       548 7.60350E+01 6.60425E+00 0.00000E+00
 -1       549 7.90350E+01 6.60425E+00 0.00000E+00
 -1       550 8.20350E+01 6.60425E+00 0.00000E+00
 -1       551 8.50350E+01 6.60425E+00 0.00000E+00
 -1       552 8.80350E+01 6.60425E+00 0.00000E+00
 -1       553 9.10350E+01 6.60425E+00 0.00000E+00
 -1       554 9.40350E+01 6.60425E+00 0.00000E+00
 -1       555 9.70350E+01 6.60425E+00 0.00000E+00
 -1       556 1.00035E+02 6.60425E+00 0.00000E+00
 -1       557 1.03035E+02 6.60425E+00 0.00000E+00
 -1       558 1.06035E+02 6.60425E+00 0.00000E+00
 -1       559 1.09035E+02 6.60425E+00 0.00000E+00
 -1       560 1.12035E+02 6.60425E+00 0.00000E+00
 -1       561 1.15035E+02 6.60425E+00 0.00000E+00
 -1       562 1.18035E+02 6.60425E+00 0.00000E+00
 -1       563 1.21035E+02 6.60425E+00 0.00000E+00
 -1       564 1.24035E+02 6.60425E+00 0.00000E+00
 -1       565 1.27035E+02 6.60425E+00 0.00000E+00
 -1       566 1.30035E+02 6.60425E+00 0.00000E+00
 -1       567 1.33035E+02 6.60425E+00 0.00000E+00
 -1       568 1.36035E+02 6.60425E+00 0.00000E+00
 -1       569 1.39035E+02 6.60425E+00 0.00000E+00
 -1       570 1.42035E+02 6.60425E+00 0.00000E+00
 -1       571 1.42206E+02 1.61750E+01 0.00000E+00
 -1       572 1.42206E+02 1.91250E+01 0.00000E+00
 -1       573 1.42206E+02 1.03250E+01 0.00000E+00
 -1       574 1.42206E+02 1.32500E+01 0.00000E+00
 -1       575 1.42206E+02 2.20750E+01 0.00000E+00
 -1       576 1.42206E+02 2.50250E+01 0.00000E+00
 -1       577 1.42206E+02 2.79750E+01 0.00000E+00
 -1       578 1.42206E+02 3.08750E+01 0.00000E+00
 -1       579 1.42206E+02 3.38250E+01 0.00000E+00
 -1       580 1.42206E+02 3.67750E+01 0.00000E+00
 -1       581 1.42206E+02 3.97250E+01 0.00000E+00
 -1       582 1.37389E+02 2.79144E+01 0.00000E+00
 -1       583 1.35203E+02 2.24348E+01 0.00000E+00
 -1       584 1.60350E+01 6.60425E+00 0.00000E+00
 -1       585 1.33741E+02 2.06600E+01 0.00000E+00
 -1       586 1.37198E+02 2.96288E+01 0.00000E+00
 -1       587 1.21776E+02 3.91151E+01 0.00000E+00
 -1       588 1.14735E+02 2.48625E+01 0.00000E+00
 -1       589 1.26998E+02 1.71084E+01 0.00000E+00
 -1       590 7.79400E+00 2.79000E+01 0.00000E+00
 -1       591 1.17554E+02 2.12033E+01 0.00000E+00
 -1       592 1.21992E+02 1.84315E+01 0.00000E+00
 -1       593 1.15380E+02 3.21683E+01 0.00000E+00
 -1       594 1.16236E+02 2.26934E+01 0.00000E+00
 -1       595 1.14484E+02 2.74140E+01 0.00000E+00
 -1       596 1.29033E+02 3.98628E+01 0.00000E+00
 -1       597 1.14769E+02 2.98830E+01 0.00000E+00
 -1       598 1.16159E+02 3.44700E+01 0.00000E+00
 -1       599 1.17619E+02 3.61688E+01 0.00000E+00
 -1       600 1.19233E+02 3.78399E+01 0.00000E+00
 -1       601 1.23818E+02 3.94925E+01 0.00000E+00
 -1       602 1.25891E+02 4.01902E+01 0.00000E+00
 -1       603 1.30793E+02 3.91218E+01 0.00000E+00
 -1       604 1.32446E+02 3.80952E+01 0.00000E+00
 -1       605 1.34258E+02 3.59515E+01 0.00000E+00
 -1       606 1.35252E+02 3.43796E+01 0.00000E+00
 -1       607 7.92300E+00 4.16780E+01 0.00000E+00
 -1       608 7.61550E+00 6.21462E+00 0.00000E+00
 -1       609 1.36494E+02 2.48509E+01 0.00000E+00
 -1       610 1.17950E+02 1.96562E+01 0.00000E+00
 -1       611 7.79400E+00 3.67375E+01 0.00000E+00
 -1       612 1.37050E+02 2.30275E+01 0.00000E+00
 -1       613 7.85850E+00 3.92077E+01 0.00000E+00
 -1       614 1.36702E+02 3.36294E+01 0.00000E+00
 -1       615 1.19837E+02 3.96142E+01 0.00000E+00
 -1       616 1.38233E+02 2.61683E+01 0.00000E+00
 -1       617 1.25657E+02 1.62418E+01 0.00000E+00
 -1       618 1.31431E+02 1.75154E+01 0.00000E+00
 -1       619 1.20224E+02 1.80563E+01 0.00000E+00
 -1       620 1.41678E+02 4.22645E+01 0.00000E+00
 -1       621 1.03920E+01 2.05500E+01 0.00000E+00
 -1       622 1.03920E+01 2.35000E+01 0.00000E+00
 -1       623 1.03920E+01 1.46750E+01 0.00000E+00
 -1       624 1.03920E+01 1.17250E+01 0.00000E+00
 -1       625 1.15350E+01 9.20225E+00 0.00000E+00
 -1       626 1.51500E+01 3.96080E+01 0.00000E+00
 -1       627 1.81500E+01 3.96080E+01 0.00000E+00
 -1       628 2.11500E+01 3.96080E+01 0.00000E+00
 -1       629 2.41500E+01 3.96080E+01 0.00000E+00
 -1       630 2.71500E+01 3.96080E+01 0.00000E+00
 -1       631 3.01500E+01 3.96080E+01 0.00000E+00
 -1       632 3.31500E+01 3.96080E+01 0.00000E+00
 -1       633 3.61500E+01 3.96080E+01 0.00000E+00
 -1       634 3.91500E+01 3.96080E+01 0.00000E+00
 -1       635 4.21500E+01 3.96080E+01 0.00000E+00
 -1       636 4.51500E+01 3.96080E+01 0.00000E+00
 -1       637 4.81500E+01 3.96080E+01 0.00000E+00
 -1       638 5.11500E+01 3.96080E+01 0.00000E+00
 -1       639 5.41500E+01 3.96080E+01 0.00000E+00
 -1       640 5.71500E+01 3.96080E+01 0.00000E+00
 -1       641 6.01500E+01 3.96080E+01 0.00000E+00
 -1       642 6.31500E+01 3.96080E+01 0.00000E+00
 -1       643 6.61500E+01 3.96080E+01 0.00000E+00
 -1       644 6.91500E+01 3.96080E+01 0.00000E+00
 -1       645 7.21500E+01 3.96080E+01 0.00000E+00
 -1       646 7.51500E+01 3.96080E+01 0.00000E+00
 -1       647 7.81500E+01 3.96080E+01 0.00000E+00
 -1       648 8.11500E+01 3.96080E+01 0.00000E+00
 -1       649 8.41500E+01 3.96080E+01 0.00000E+00
 -1       650 8.71500E+01 3.96080E+01 0.00000E+00
 -1       651 9.01500E+01 3.96080E+01 0.00000E+00
 -1       652 9.31500E+01 3.96080E+01 0.00000E+00
 -1       653 9.61500E+01 3.96080E+01 0.00000E+00
 -1       654 9.91500E+01 3.96080E+01 0.00000E+00
 -1       655 1.02150E+02 3.96080E+01 0.00000E+00
 -1       656 1.05150E+02 3.96080E+01 0.00000E+00
 -1       657 1.08150E+02 3.96080E+01 0.00000E+00
 -1       658 1.11150E+02 3.96080E+01 0.00000E+00
 -1       659 1.14150E+02 3.96080E+01 0.00000E+00
 -1       660 1.35150E+02 3.96080E+01 0.00000E+00
 -1       661 1.38150E+02 3.96080E+01 0.00000E+00
 -1       662 2.35350E+01 9.20225E+00 0.00000E+00
 -1       663 1.39206E+02 1.03250E+01 0.00000E+00
 -1       664 2.05350E+01 9.20225E+00 0.00000E+00
 -1       665 2.95350E+01 9.20225E+00 0.00000E+00
 -1       666 3.25350E+01 9.20225E+00 0.00000E+00
 -1       667 3.55350E+01 9.20225E+00 0.00000E+00
 -1       668 3.85350E+01 9.20225E+00 0.00000E+00
 -1       669 4.15350E+01 9.20225E+00 0.00000E+00
 -1       670 4.45350E+01 9.20225E+00 0.00000E+00
 -1       671 4.75350E+01 9.20225E+00 0.00000E+00
 -1       672 5.05350E+01 9.20225E+00 0.00000E+00
 -1       673 5.35350E+01 9.20225E+00 0.00000E+00
 -1       674 5.65350E+01 9.20225E+00 0.00000E+00
 -1       675 5.95350E+01 9.20225E+00 0.00000E+00
 -1       676 6.25350E+01 9.20225E+00 0.00000E+00
 -1       677 6.55350E+01 9.20225E+00 0.00000E+00
 -1       678 6.85350E+01 9.20225E+00 0.00000E+00
 -1       679 7.15350E+01 9.20225E+00 0.00000E+00
 -1       680 7.45350E+01 9.20225E+00 0.00000E+00
 -1       681 7.75350E+01 9.20225E+00 0.00000E+00
 -1       682 8.05350E+01 9.20225E+00 0.00000E+00
 -1       683 8.35350E+01 9.20225E+00 0.00000E+00
 -1       684 8.65350E+01 9.20225E+00 0.00000E+00
 -1       685 8.95350E+01 9.20225E+00 0.00000E+00
 -1       686 9.25350E+01 9.20225E+00 0.00000E+00
 -1       687 9.55350E+01 9.20225E+00 0.00000E+00
 -1       688 9.85350E+01 9.20225E+00 0.00000E+00
 -1       689 1.01535E+02 9.20225E+00 0.00000E+00
 -1       690 1.04535E+02 9.20225E+00 0.00000E+00
 -1       691 1.07535E+02 9.20225E+00 0.00000E+00
 -1       692 1.10535E+02 9.20225E+00 0.00000E+00
 -1       693 1.13535E+02 9.20225E+00 0.00000E+00
 -1       694 1.16535E+02 9.20225E+00 0.00000E+00
 -1       695 1.19535E+02 9.20225E+00 0.00000E+00
 -1       696 1.22535E+02 9.20225E+00 0.00000E+00
 -1       697 1.25535E+02 9.20225E+00 0.00000E+00
 -1       698 1.28535E+02 9.20225E+00 0.00000E+00
 -1       699 1.31535E+02 9.20225E+00 0.00000E+00
 -1       700 1.34535E+02 9.20225E+00 0.00000E+00
 -1       701 1.36870E+02 9.76363E+00 0.00000E+00
 -1       702 1.39988E+02 2.35500E+01 0.00000E+00
 -1       703 1.40178E+02 3.96665E+01 0.00000E+00
 -1       704 1.39608E+02 1.76500E+01 0.00000E+00
 -1       705 1.39821E+02 2.65000E+01 0.00000E+00
 -1       706 1.39608E+02 2.06000E+01 0.00000E+00
 -1       707 1.39165E+02 2.89801E+01 0.00000E+00
 -1       708 1.39988E+02 3.53000E+01 0.00000E+00
 -1       709 1.34662E+02 3.81306E+01 0.00000E+00
 -1       710 1.32702E+02 4.03501E+01 0.00000E+00
 -1       711 1.13986E+02 3.39232E+01 0.00000E+00
 -1       712 1.75350E+01 9.20225E+00 0.00000E+00
 -1       713 2.65350E+01 9.20225E+00 0.00000E+00
 -1       714 1.38331E+02 3.17819E+01 0.00000E+00
 -1       715 1.21500E+01 3.96080E+01 0.00000E+00
 -1       716 1.29083E+02 1.61478E+01 0.00000E+00
 -1       717 1.12736E+02 2.59534E+01 0.00000E+00
 -1       718 1.45350E+01 9.20225E+00 0.00000E+00
 -1       719 1.03920E+01 1.76125E+01 0.00000E+00
 -1       720 1.13006E+02 2.88359E+01 0.00000E+00
 -1       721 1.13937E+02 2.27070E+01 0.00000E+00
 -1       722 1.03920E+01 3.23250E+01 0.00000E+00
 -1       723 1.15234E+02 2.04787E+01 0.00000E+00
 -1       724 1.22934E+02 1.64065E+01 0.00000E+00
 -1       725 1.13376E+02 3.16379E+01 0.00000E+00
 -1       726 1.15335E+02 3.66559E+01 0.00000E+00
 -1       727 1.16948E+02 3.83270E+01 0.00000E+00
 -1       728 1.00042E+01 3.94079E+01 0.00000E+00
 -1       729 1.36205E+02 3.60818E+01 0.00000E+00
 -1       730 1.03920E+01 3.52625E+01 0.00000E+00
 -1       731 1.03920E+01 2.64500E+01 0.00000E+00
 -1       732 1.27742E+02 1.52812E+01 0.00000E+00
 -1       733 1.36650E+02 2.10981E+01 0.00000E+00
 -1       734 1.39608E+02 1.47250E+01 0.00000E+00
 -1       735 1.39069E+02 3.74540E+01 0.00000E+00
 -1       736 1.34464E+02 1.85758E+01 0.00000E+00
 -1       737 1.18327E+02 1.79756E+01 0.00000E+00
 -1       738 1.11938E+02 2.37979E+01 0.00000E+00
 -1       739 1.03920E+01 2.93875E+01 0.00000E+00
 -1       740 1.21166E+02 1.60314E+01 0.00000E+00
 -1       741 1.33615E+02 1.72060E+01 0.00000E+00
 -1       742 1.29900E+01 1.32000E+01 0.00000E+00
 -1       743 1.31374E+02 1.49151E+01 0.00000E+00
 -1       744 1.01981E+01 3.73352E+01 0.00000E+00
 -1       745 1.96500E+01 3.70100E+01 0.00000E+00
 -1       746 2.26500E+01 3.70100E+01 0.00000E+00
 -1       747 2.56500E+01 3.70100E+01 0.00000E+00
 -1       748 2.86500E+01 3.70100E+01 0.00000E+00
 -1       749 3.16500E+01 3.70100E+01 0.00000E+00
 -1       750 3.46500E+01 3.70100E+01 0.00000E+00
 -1       751 3.76500E+01 3.70100E+01 0.00000E+00
 -1       752 4.06500E+01 3.70100E+01 0.00000E+00
 -1       753 4.36500E+01 3.70100E+01 0.00000E+00
 -1       754 4.66500E+01 3.70100E+01 0.00000E+00
 -1       755 4.96500E+01 3.70100E+01 0.00000E+00
 -1       756 5.26500E+01 3.70100E+01 0.00000E+00
 -1       757 5.56500E+01 3.70100E+01 0.00000E+00
 -1       758 5.86500E+01 3.70100E+01 0.00000E+00
 -1       759 6.16500E+01 3.70100E+01 0.00000E+00
 -1       760 6.46500E+01 3.70100E+01 0.00000E+00
 -1       761 6.76500E+01 3.70100E+01 0.00000E+00
 -1       762 7.06500E+01 3.70100E+01 0.00000E+00
 -1       763 7.36500E+01 3.70100E+01 0.00000E+00
 -1       764 7.66500E+01 3.70100E+01 0.00000E+00
 -1       765 7.96500E+01 3.70100E+01 0.00000E+00
 -1       766 8.26500E+01 3.70100E+01 0.00000E+00
 -1       767 8.56500E+01 3.70100E+01 0.00000E+00
 -1       768 8.86500E+01 3.70100E+01 0.00000E+00
 -1       769 9.16500E+01 3.70100E+01 0.00000E+00
 -1       770 9.46500E+01 3.70100E+01 0.00000E+00
 -1       771 9.76500E+01 3.70100E+01 0.00000E+00
 -1       772 1.00650E+02 3.70100E+01 0.00000E+00
 -1       773 1.03650E+02 3.70100E+01 0.00000E+00
 -1       774 1.06650E+02 3.70100E+01 0.00000E+00
 -1       775 1.09650E+02 3.70100E+01 0.00000E+00
 -1       776 1.12492E+02 3.68330E+01 0.00000E+00
 -1       777 1.10829E+02 2.75859E+01 0.00000E+00
 -1       778 2.20350E+01 1.18003E+01 0.00000E+00
 -1       779 1.90350E+01 1.18003E+01 0.00000E+00
 -1       780 3.40350E+01 1.18003E+01 0.00000E+00
 -1       781 3.10350E+01 1.18003E+01 0.00000E+00
 -1       782 4.00350E+01 1.18003E+01 0.00000E+00
 -1       783 4.30350E+01 1.18003E+01 0.00000E+00
 -1       784 4.60350E+01 1.18003E+01 0.00000E+00
 -1       785 4.90350E+01 1.18003E+01 0.00000E+00
 -1       786 5.20350E+01 1.18003E+01 0.00000E+00
 -1       787 5.50350E+01 1.18003E+01 0.00000E+00
 -1       788 5.80350E+01 1.18003E+01 0.00000E+00
 -1       789 6.10350E+01 1.18003E+01 0.00000E+00
 -1       790 6.40350E+01 1.18003E+01 0.00000E+00
 -1       791 6.70350E+01 1.18003E+01 0.00000E+00
 -1       792 7.00350E+01 1.18003E+01 0.00000E+00
 -1       793 7.30350E+01 1.18003E+01 0.00000E+00
 -1       794 7.60350E+01 1.18003E+01 0.00000E+00
 -1       795 7.90350E+01 1.18003E+01 0.00000E+00
 -1       796 8.20350E+01 1.18003E+01 0.00000E+00
 -1       797 8.50350E+01 1.18003E+01 0.00000E+00
 -1       798 8.80350E+01 1.18003E+01 0.00000E+00
 -1       799 9.10350E+01 1.18003E+01 0.00000E+00
 -1       800 9.40350E+01 1.18003E+01 0.00000E+00
 -1       801 9.70350E+01 1.18003E+01 0.00000E+00
 -1       802 1.00035E+02 1.18003E+01 0.00000E+00
 -1       803 1.03035E+02 1.18003E+01 0.00000E+00
 -1       804 1.06035E+02 1.18003E+01 0.00000E+00
 -1       805 1.09035E+02 1.18003E+01 0.00000E+00
 -1       806 1.12035E+02 1.18003E+01 0.00000E+00
 -1       807 1.15035E+02 1.18003E+01 0.00000E+00
 -1       808 1.18035E+02 1.18003E+01 0.00000E+00
 -1       809 1.21035E+02 1.18003E+01 0.00000E+00
 -1       810 1.24035E+02 1.18003E+01 0.00000E+00
 -1       811 1.27035E+02 1.18003E+01 0.00000E+00
 -1       812 1.30035E+02 1.18003E+01 0.00000E+00
 -1       813 1.33035E+02 1.18003E+01 0.00000E+00
 -1       814 1.29900E+01 2.20250E+01 0.00000E+00
 -1       815 1.37223E+02 1.91250E+01 0.00000E+00
 -1       816 1.38348E+02 2.42091E+01 0.00000E+00
 -1       817 1.38134E+02 3.51961E+01 0.00000E+00
 -1       818 1.15611E+02 1.87981E+01 0.00000E+00
 -1       819 3.70350E+01 1.18003E+01 0.00000E+00
 -1       820 1.36866E+02 3.77923E+01 0.00000E+00
 -1       821 1.11199E+02 3.03878E+01 0.00000E+00
 -1       822 1.24171E+02 1.42776E+01 0.00000E+00
 -1       823 1.36500E+01 3.70100E+01 0.00000E+00
 -1       824 1.37625E+01 1.12011E+01 0.00000E+00
 -1       825 1.11700E+02 3.33097E+01 0.00000E+00
 -1       826 1.12524E+02 2.03930E+01 0.00000E+00
 -1       827 1.66500E+01 3.70100E+01 0.00000E+00
 -1       828 1.29900E+01 2.49750E+01 0.00000E+00
 -1       829 1.30032E+02 1.40485E+01 0.00000E+00
 -1       830 1.19269E+02 1.59506E+01 0.00000E+00
 -1       831 1.37223E+02 1.62000E+01 0.00000E+00
 -1       832 2.50350E+01 1.18003E+01 0.00000E+00
 -1       833 1.29900E+01 1.61375E+01 0.00000E+00
 -1       834 1.63988E+01 1.15007E+01 0.00000E+00
 -1       835 2.80350E+01 1.18003E+01 0.00000E+00
 -1       836 1.35370E+02 1.23616E+01 0.00000E+00
 -1       837 1.29900E+01 1.90875E+01 0.00000E+00
 -1       838 1.37047E+02 1.29818E+01 0.00000E+00
 -1       839 1.10031E+02 2.54303E+01 0.00000E+00
 -1       840 1.12901E+02 1.87124E+01 0.00000E+00
 -1       841 1.29900E+01 3.08563E+01 0.00000E+00
 -1       842 1.29900E+01 3.37938E+01 0.00000E+00
 -1       843 1.25771E+02 1.37471E+01 0.00000E+00
 -1       844 1.09594E+02 3.21668E+01 0.00000E+00
 -1       845 3.25350E+01 1.43982E+01 0.00000E+00
 -1       846 2.11500E+01 3.44120E+01 0.00000E+00
 -1       847 1.34351E+02 1.42435E+01 0.00000E+00
 -1       848 2.41500E+01 3.44120E+01 0.00000E+00
 -1       849 2.71500E+01 3.44120E+01 0.00000E+00
 -1       850 3.01500E+01 3.44120E+01 0.00000E+00
 -1       851 3.31500E+01 3.44120E+01 0.00000E+00
 -1       852 3.61500E+01 3.44120E+01 0.00000E+00
 -1       853 3.91500E+01 3.44120E+01 0.00000E+00
 -1       854 4.21500E+01 3.44120E+01 0.00000E+00
 -1       855 4.51500E+01 3.44120E+01 0.00000E+00
 -1       856 4.81500E+01 3.44120E+01 0.00000E+00
 -1       857 5.11500E+01 3.44120E+01 0.00000E+00
 -1       858 5.41500E+01 3.44120E+01 0.00000E+00
 -1       859 5.71500E+01 3.44120E+01 0.00000E+00
 -1       860 6.01500E+01 3.44120E+01 0.00000E+00
 -1       861 6.31500E+01 3.44120E+01 0.00000E+00
 -1       862 6.61500E+01 3.44120E+01 0.00000E+00
 -1       863 6.91500E+01 3.44120E+01 0.00000E+00
 -1       864 7.21500E+01 3.44120E+01 0.00000E+00
 -1       865 7.51500E+01 3.44120E+01 0.00000E+00
 -1       866 7.81500E+01 3.44120E+01 0.00000E+00
 -1       867 8.11500E+01 3.44120E+01 0.00000E+00
 -1       868 8.41500E+01 3.44120E+01 0.00000E+00
 -1       869 8.71500E+01 3.44120E+01 0.00000E+00
 -1       870 9.01500E+01 3.44120E+01 0.00000E+00
 -1       871 9.31500E+01 3.44120E+01 0.00000E+00
 -1       872 9.61500E+01 3.44120E+01 0.00000E+00
 -1       873 9.91500E+01 3.44120E+01 0.00000E+00
 -1       874 1.02150E+02 3.44120E+01 0.00000E+00
 -1       875 1.05150E+02 3.44120E+01 0.00000E+00
 -1       876 1.08816E+02 2.92772E+01 0.00000E+00
 -1       877 4.45350E+01 1.43982E+01 0.00000E+00
 -1       878 4.15350E+01 1.43982E+01 0.00000E+00
 -1       879 5.05350E+01 1.43982E+01 0.00000E+00
 -1       880 5.35350E+01 1.43982E+01 0.00000E+00
 -1       881 5.65350E+01 1.43982E+01 0.00000E+00
 -1       882 5.95350E+01 1.43982E+01 0.00000E+00
 -1       883 6.25350E+01 1.43982E+01 0.00000E+00
 -1       884 6.55350E+01 1.43982E+01 0.00000E+00
 -1       885 6.85350E+01 1.43982E+01 0.00000E+00
 -1       886 7.15350E+01 1.43982E+01 0.00000E+00
 -1       887 7.45350E+01 1.43982E+01 0.00000E+00
 -1       888 7.75350E+01 1.43982E+01 0.00000E+00
 -1       889 8.05350E+01 1.43982E+01 0.00000E+00
 -1       890 8.35350E+01 1.43982E+01 0.00000E+00
 -1       891 8.65350E+01 1.43982E+01 0.00000E+00
 -1       892 8.95350E+01 1.43982E+01 0.00000E+00
 -1       893 9.25350E+01 1.43982E+01 0.00000E+00
 -1       894 9.55350E+01 1.43982E+01 0.00000E+00
 -1       895 9.85350E+01 1.43982E+01 0.00000E+00
 -1       896 1.01535E+02 1.43982E+01 0.00000E+00
 -1       897 1.04535E+02 1.43982E+01 0.00000E+00
 -1       898 1.07535E+02 1.43982E+01 0.00000E+00
 -1       899 1.10535E+02 1.43982E+01 0.00000E+00
 -1       900 1.13535E+02 1.43982E+01 0.00000E+00
 -1       901 1.16535E+02 1.43982E+01 0.00000E+00
 -1       902 1.16278E+02 1.61039E+01 0.00000E+00
 -1       903 1.21780E+02 1.43116E+01 0.00000E+00
 -1       904 4.75350E+01 1.43982E+01 0.00000E+00
 -1       905 1.51500E+01 3.44120E+01 0.00000E+00
 -1       906 1.29900E+01 2.79188E+01 0.00000E+00
 -1       907 1.35200E+02 1.56133E+01 0.00000E+00
 -1       908 1.09715E+02 2.16623E+01 0.00000E+00
 -1       909 1.81500E+01 3.44120E+01 0.00000E+00
 -1       910 2.05350E+01 1.43982E+01 0.00000E+00
 -1       911 1.08122E+02 3.45884E+01 0.00000E+00
 -1       912 3.55350E+01 1.43982E+01 0.00000E+00
 -1       913 2.95350E+01 1.43982E+01 0.00000E+00
 -1       914 2.35350E+01 1.43982E+01 0.00000E+00
 -1       915 1.55880E+01 1.46687E+01 0.00000E+00
 -1       916 1.78988E+01 1.40987E+01 0.00000E+00
 -1       917 1.55880E+01 2.35000E+01 0.00000E+00
 -1       918 3.85350E+01 1.43982E+01 0.00000E+00
 -1       919 1.55880E+01 2.05625E+01 0.00000E+00
 -1       920 1.08018E+02 2.71217E+01 0.00000E+00
 -1       921 1.55880E+01 2.93875E+01 0.00000E+00
 -1       922 1.10092E+02 1.99817E+01 0.00000E+00
 -1       923 1.53690E+01 3.18997E+01 0.00000E+00
 -1       924 2.56500E+01 3.18140E+01 0.00000E+00
 -1       925 2.86500E+01 3.18140E+01 0.00000E+00
 -1       926 3.16500E+01 3.18140E+01 0.00000E+00
 -1       927 3.46500E+01 3.18140E+01 0.00000E+00
 -1       928 3.76500E+01 3.18140E+01 0.00000E+00
 -1       929 4.06500E+01 3.18140E+01 0.00000E+00
 -1       930 4.36500E+01 3.18140E+01 0.00000E+00
 -1       931 4.66500E+01 3.18140E+01 0.00000E+00
 -1       932 4.96500E+01 3.18140E+01 0.00000E+00
 -1       933 5.26500E+01 3.18140E+01 0.00000E+00
 -1       934 5.56500E+01 3.18140E+01 0.00000E+00
 -1       935 5.86500E+01 3.18140E+01 0.00000E+00
 -1       936 6.16500E+01 3.18140E+01 0.00000E+00
 -1       937 6.46500E+01 3.18140E+01 0.00000E+00
 -1       938 6.76500E+01 3.18140E+01 0.00000E+00
 -1       939 7.06500E+01 3.18140E+01 0.00000E+00
 -1       940 7.36500E+01 3.18140E+01 0.00000E+00
 -1       941 7.66500E+01 3.18140E+01 0.00000E+00
 -1       942 7.96500E+01 3.18140E+01 0.00000E+00
 -1       943 8.26500E+01 3.18140E+01 0.00000E+00
 -1       944 8.56500E+01 3.18140E+01 0.00000E+00
 -1       945 8.86500E+01 3.18140E+01 0.00000E+00
 -1       946 9.16500E+01 3.18140E+01 0.00000E+00
 -1       947 9.46500E+01 3.18140E+01 0.00000E+00
 -1       948 9.76500E+01 3.18140E+01 0.00000E+00
 -1       949 1.00650E+02 3.18140E+01 0.00000E+00
 -1       950 1.03650E+02 3.18140E+01 0.00000E+00
 -1       951 4.30350E+01 1.69963E+01 0.00000E+00
 -1       952 1.06740E+02 3.13861E+01 0.00000E+00
 -1       953 2.65350E+01 1.43982E+01 0.00000E+00
 -1       954 5.50350E+01 1.69963E+01 0.00000E+00
 -1       955 5.20350E+01 1.69963E+01 0.00000E+00
 -1       956 6.10350E+01 1.69963E+01 0.00000E+00
 -1       957 6.40350E+01 1.69963E+01 0.00000E+00
 -1       958 6.70350E+01 1.69963E+01 0.00000E+00
 -1       959 7.00350E+01 1.69963E+01 0.00000E+00
 -1       960 7.30350E+01 1.69963E+01 0.00000E+00
 -1       961 7.60350E+01 1.69963E+01 0.00000E+00
 -1       962 7.90350E+01 1.69963E+01 0.00000E+00
 -1       963 8.20350E+01 1.69963E+01 0.00000E+00
 -1       964 8.50350E+01 1.69963E+01 0.00000E+00
 -1       965 8.80350E+01 1.69963E+01 0.00000E+00
 -1       966 9.10350E+01 1.69963E+01 0.00000E+00
 -1       967 9.40350E+01 1.69963E+01 0.00000E+00
 -1       968 9.70350E+01 1.69963E+01 0.00000E+00
 -1       969 1.00035E+02 1.69963E+01 0.00000E+00
 -1       970 1.03035E+02 1.69963E+01 0.00000E+00
 -1       971 1.06035E+02 1.69963E+01 0.00000E+00
 -1       972 1.09035E+02 1.69963E+01 0.00000E+00
 -1       973 2.26500E+01 3.18140E+01 0.00000E+00
 -1       974 5.80350E+01 1.69963E+01 0.00000E+00
 -1       975 1.55880E+01 2.64438E+01 0.00000E+00
 -1       976 1.96500E+01 3.18140E+01 0.00000E+00
 -1       977 1.55880E+01 1.76156E+01 0.00000E+00
 -1       978 1.07496E+02 2.37460E+01 0.00000E+00
 -1       979 3.10350E+01 1.69963E+01 0.00000E+00
 -1       980 1.89235E+01 1.68299E+01 0.00000E+00
 -1       981 4.00350E+01 1.69963E+01 0.00000E+00
 -1       982 4.60350E+01 1.69963E+01 0.00000E+00
 -1       983 1.05942E+02 2.92306E+01 0.00000E+00
 -1       984 2.19235E+01 1.68299E+01 0.00000E+00
 -1       985 1.81860E+01 2.20313E+01 0.00000E+00
 -1       986 4.90350E+01 1.69963E+01 0.00000E+00
 -1       987 1.81860E+01 2.79156E+01 0.00000E+00
 -1       988 1.06827E+02 2.08103E+01 0.00000E+00
 -1       989 3.40350E+01 1.69963E+01 0.00000E+00
 -1       990 1.81860E+01 2.49734E+01 0.00000E+00
 -1       991 3.01500E+01 2.92160E+01 0.00000E+00
 -1       992 3.31500E+01 2.92160E+01 0.00000E+00
 -1       993 3.61500E+01 2.92160E+01 0.00000E+00
 -1       994 3.91500E+01 2.92160E+01 0.00000E+00
 -1       995 4.21500E+01 2.92160E+01 0.00000E+00
 -1       996 4.51500E+01 2.92160E+01 0.00000E+00
 -1       997 4.81500E+01 2.92160E+01 0.00000E+00
 -1       998 5.11500E+01 2.92160E+01 0.00000E+00
 -1       999 5.41500E+01 2.92160E+01 0.00000E+00
 -1      1000 5.71500E+01 2.92160E+01 0.00000E+00
 -1      1001 6.01500E+01 2.92160E+01 0.00000E+00
 -1      1002 6.31500E+01 2.92160E+01 0.00000E+00
 -1      1003 6.61500E+01 2.92160E+01 0.00000E+00
 -1      1004 6.91500E+01 2.92160E+01 0.00000E+00
 -1      1005 7.21500E+01 2.92160E+01 0.00000E+00
 -1      1006 7.51500E+01 2.92160E+01 0.00000E+00
 -1      1007 7.81500E+01 2.92160E+01 0.00000E+00
 -1      1008 8.11500E+01 2.92160E+01 0.00000E+00
 -1      1009 8.41500E+01 2.92160E+01 0.00000E+00
 -1      1010 8.71500E+01 2.92160E+01 0.00000E+00
 -1      1011 9.01500E+01 2.92160E+01 0.00000E+00
 -1      1012 9.31500E+01 2.92160E+01 0.00000E+00
 -1      1013 9.61500E+01 2.92160E+01 0.00000E+00
 -1      1014 9.91500E+01 2.92160E+01 0.00000E+00
 -1      1015 1.02150E+02 2.92160E+01 0.00000E+00
 -1      1016 1.05189E+02 2.58305E+01 0.00000E+00
 -1      1017 2.80350E+01 1.69963E+01 0.00000E+00
 -1      1018 6.55350E+01 1.95942E+01 0.00000E+00
 -1      1019 6.25350E+01 1.95942E+01 0.00000E+00
 -1      1020 7.15350E+01 1.95942E+01 0.00000E+00
 -1      1021 7.45350E+01 1.95942E+01 0.00000E+00
 -1      1022 7.75350E+01 1.95942E+01 0.00000E+00
 -1      1023 8.05350E+01 1.95942E+01 0.00000E+00
 -1      1024 8.35350E+01 1.95942E+01 0.00000E+00
 -1      1025 8.65350E+01 1.95942E+01 0.00000E+00
 -1      1026 8.95350E+01 1.95942E+01 0.00000E+00
 -1      1027 9.25350E+01 1.95942E+01 0.00000E+00
 -1      1028 9.55350E+01 1.95942E+01 0.00000E+00
 -1      1029 9.85350E+01 1.95942E+01 0.00000E+00
 -1      1030 1.01535E+02 1.95942E+01 0.00000E+00
 -1      1031 1.04520E+02 2.28949E+01 0.00000E+00
 -1      1032 1.85548E+01 1.94306E+01 0.00000E+00
 -1      1033 3.70350E+01 1.69963E+01 0.00000E+00
 -1      1034 5.65350E+01 1.95942E+01 0.00000E+00
 -1      1035 5.95350E+01 1.95942E+01 0.00000E+00
 -1      1036 2.11860E+01 2.79156E+01 0.00000E+00
 -1      1037 5.05350E+01 1.95942E+01 0.00000E+00
 -1      1038 2.41860E+01 2.79156E+01 0.00000E+00
 -1      1039 2.50350E+01 1.69963E+01 0.00000E+00
 -1      1040 5.35350E+01 1.95942E+01 0.00000E+00
 -1      1041 6.85350E+01 1.95942E+01 0.00000E+00
 -1      1042 2.71680E+01 2.85658E+01 0.00000E+00
 -1      1043 1.03778E+02 1.99456E+01 0.00000E+00
 -1      1044 3.25350E+01 1.95942E+01 0.00000E+00
 -1      1045 4.15350E+01 1.95942E+01 0.00000E+00
 -1      1046 2.09427E+01 2.10956E+01 0.00000E+00
 -1      1047 4.45350E+01 1.95942E+01 0.00000E+00
 -1      1048 2.14331E+01 1.89627E+01 0.00000E+00
 -1      1049 2.95350E+01 1.95942E+01 0.00000E+00
 -1      1050 4.75350E+01 1.95942E+01 0.00000E+00
 -1      1051 2.09427E+01 2.40378E+01 0.00000E+00
 -1      1052 3.55350E+01 1.95942E+01 0.00000E+00
 -1      1053 3.85350E+01 1.95942E+01 0.00000E+00
 -1      1054 1.02278E+02 2.25436E+01 0.00000E+00
 -1      1055 3.46500E+01 2.66180E+01 0.00000E+00
 -1      1056 3.76500E+01 2.66180E+01 0.00000E+00
 -1      1057 4.06500E+01 2.66180E+01 0.00000E+00
 -1      1058 4.36500E+01 2.66180E+01 0.00000E+00
 -1      1059 4.66500E+01 2.66180E+01 0.00000E+00
 -1      1060 4.96500E+01 2.66180E+01 0.00000E+00
 -1      1061 5.26500E+01 2.66180E+01 0.00000E+00
 -1      1062 5.56500E+01 2.66180E+01 0.00000E+00
 -1      1063 5.86500E+01 2.66180E+01 0.00000E+00
 -1      1064 6.16500E+01 2.66180E+01 0.00000E+00
 -1      1065 6.46500E+01 2.66180E+01 0.00000E+00
 -1      1066 6.76500E+01 2.66180E+01 0.00000E+00
 -1      1067 7.06500E+01 2.66180E+01 0.00000E+00
 -1      1068 7.36500E+01 2.66180E+01 0.00000E+00
 -1      1069 7.66500E+01 2.66180E+01 0.00000E+00
 -1      1070 7.96500E+01 2.66180E+01 0.00000E+00
 -1      1071 8.26500E+01 2.66180E+01 0.00000E+00
 -1      1072 8.56500E+01 2.66180E+01 0.00000E+00
 -1      1073 8.86500E+01 2.66180E+01 0.00000E+00
 -1      1074 9.16500E+01 2.66180E+01 0.00000E+00
 -1      1075 9.46500E+01 2.66180E+01 0.00000E+00
 -1      1076 9.76500E+01 2.66180E+01 0.00000E+00
 -1      1077 1.00650E+02 2.66180E+01 0.00000E+00
 -1      1078 4.90350E+01 2.21922E+01 0.00000E+00
 -1      1079 6.70350E+01 2.21922E+01 0.00000E+00
 -1      1080 7.60350E+01 2.21922E+01 0.00000E+00
 -1      1081 7.30350E+01 2.21922E+01 0.00000E+00
 -1      1082 8.20350E+01 2.21922E+01 0.00000E+00
 -1      1083 8.50350E+01 2.21922E+01 0.00000E+00
 -1      1084 8.80350E+01 2.21922E+01 0.00000E+00
 -1      1085 9.10350E+01 2.21922E+01 0.00000E+00
 -1      1086 9.40350E+01 2.21922E+01 0.00000E+00
 -1      1087 9.70350E+01 2.21922E+01 0.00000E+00
 -1      1088 9.96563E+01 2.23679E+01 0.00000E+00
 -1      1089 2.45446E+01 1.91291E+01 0.00000E+00
 -1      1090 7.00350E+01 2.21922E+01 0.00000E+00
 -1      1091 3.16500E+01 2.66180E+01 0.00000E+00
 -1      1092 2.39427E+01 2.40378E+01 0.00000E+00
 -1      1093 7.90350E+01 2.21922E+01 0.00000E+00
 -1      1094 6.10350E+01 2.21922E+01 0.00000E+00
 -1      1095 5.80350E+01 2.21922E+01 0.00000E+00
 -1      1096 2.70398E+01 1.93617E+01 0.00000E+00
 -1      1097 5.50350E+01 2.21922E+01 0.00000E+00
 -1      1098 5.20350E+01 2.21922E+01 0.00000E+00
 -1      1099 6.40350E+01 2.21922E+01 0.00000E+00
 -1      1100 4.00350E+01 2.21922E+01 0.00000E+00
 -1      1101 3.40350E+01 2.21922E+01 0.00000E+00
 -1      1102 2.69247E+01 2.46880E+01 0.00000E+00
 -1      1103 4.60350E+01 2.21922E+01 0.00000E+00
 -1      1104 4.30350E+01 2.21922E+01 0.00000E+00
 -1      1105 3.10350E+01 2.21922E+01 0.00000E+00
 -1      1106 2.92873E+01 2.56530E+01 0.00000E+00
 -1      1107 2.40541E+01 2.12620E+01 0.00000E+00
 -1      1108 3.61500E+01 2.40200E+01 0.00000E+00
 -1      1109 2.65493E+01 2.14946E+01 0.00000E+00
 -1      1110 3.27187E+01 2.48365E+01 0.00000E+00
 -1      1111 2.87922E+01 2.18434E+01 0.00000E+00
 -1      1112 0.00000E+00 4.85250E+01 0.00000E+00
 -1      1113 0.00000E+00 4.55750E+01 0.00000E+00
 -1      1114 0.00000E+00 4.26250E+01 0.00000E+00
 -1      1115 0.00000E+00 3.96750E+01 0.00000E+00
 -1      1116 0.00000E+00 3.67250E+01 0.00000E+00
 -1      1117 0.00000E+00 3.38000E+01 0.00000E+00
 -1      1118 0.00000E+00 3.08750E+01 0.00000E+00
 -1      1119 0.00000E+00 2.79250E+01 0.00000E+00
 -1      1120 0.00000E+00 2.49750E+01 0.00000E+00
 -1      1121 0.00000E+00 2.20250E+01 0.00000E+00
 -1      1122 0.00000E+00 1.90750E+01 0.00000E+00
 -1      1123 0.00000E+00 1.61500E+01 0.00000E+00
 -1      1124 0.00000E+00 1.32250E+01 0.00000E+00
 -1      1125 0.00000E+00 1.02750E+01 0.00000E+00
 -1      1126 0.00000E+00 7.32500E+00 0.00000E+00
 -1      1127 0.00000E+00 4.37500E+00 0.00000E+00
 -1      1128 0.00000E+00 1.45000E+00 0.00000E+00
 -1      1129 1.57500E+00 5.00000E+01 0.00000E+00
 -1      1130 4.65000E+00 5.00000E+01 0.00000E+00
 -1      1131 7.65000E+00 5.00000E+01 0.00000E+00
 -1      1132 1.06500E+01 5.00000E+01 0.00000E+00
 -1      1133 1.36500E+01 5.00000E+01 0.00000E+00
 -1      1134 1.66500E+01 5.00000E+01 0.00000E+00
 -1      1135 1.96500E+01 5.00000E+01 0.00000E+00
 -1      1136 2.26500E+01 5.00000E+01 0.00000E+00
 -1      1137 2.56500E+01 5.00000E+01 0.00000E+00
 -1      1138 2.86500E+01 5.00000E+01 0.00000E+00
 -1      1139 3.16500E+01 5.00000E+01 0.00000E+00
 -1      1140 3.46500E+01 5.00000E+01 0.00000E+00
 -1      1141 3.76500E+01 5.00000E+01 0.00000E+00
 -1      1142 4.06500E+01 5.00000E+01 0.00000E+00
 -1      1143 4.36500E+01 5.00000E+01 0.00000E+00
 -1      1144 4.66500E+01 5.00000E+01 0.00000E+00
 -1      1145 4.96500E+01 5.00000E+01 0.00000E+00
 -1      1146 5.26500E+01 5.00000E+01 0.00000E+00
 -1      1147 5.56500E+01 5.00000E+01 0.00000E+00
 -1      1148 5.86500E+01 5.00000E+01 0.00000E+00
 -1      1149 6.16500E+01 5.00000E+01 0.00000E+00
 -1      1150 6.46500E+01 5.00000E+01 0.00000E+00
 -1      1151 6.76500E+01 5.00000E+01 0.00000E+00
 -1      1152 7.06500E+01 5.00000E+01 0.00000E+00
 -1      1153 7.36500E+01 5.00000E+01 0.00000E+00
 -1      1154 7.66500E+01 5.00000E+01 0.00000E+00
 -1      1155 7.96500E+01 5.00000E+01 0.00000E+00
 -1      1156 8.26500E+01 5.00000E+01 0.00000E+00
 -1      1157 8.56500E+01 5.00000E+01 0.00000E+00
 -1      1158 8.86500E+01 5.00000E+01 0.00000E+00
 -1      1159 9.16500E+01 5.00000E+01 0.00000E+00
 -1      1160 9.46500E+01 5.00000E+01 0.00000E+00
 -1      1161 9.76500E+01 5.00000E+01 0.00000E+00
 -1      1162 1.00650E+02 5.00000E+01 0.00000E+00
 -1      1163 1.03650E+02 5.00000E+01 0.00000E+00
 -1      1164 1.06650E+02 5.00000E+01 0.00000E+00
 -1      1165 1.09650E+02 5.00000E+01 0.00000E+00
 -1      1166 1.12650E+02 5.00000E+01 0.00000E+00
 -1      1167 1.15650E+02 5.00000E+01 0.00000E+00
 -1      1168 1.18650E+02 5.00000E+01 0.00000E+00
 -1      1169 1.21650E+02 5.00000E+01 0.00000E+00
 -1      1170 1.24650E+02 5.00000E+01 0.00000E+00
 -1      1171 1.27650E+02 5.00000E+01 0.00000E+00
 -1      1172 1.30650E+02 5.00000E+01 0.00000E+00
 -1      1173 1.33650E+02 5.00000E+01 0.00000E+00
 -1      1174 1.36650E+02 5.00000E+01 0.00000E+00
 -1      1175 1.39650E+02 5.00000E+01 0.00000E+00
 -1      1176 1.42650E+02 5.00000E+01 0.00000E+00
 -1      1177 1.45650E+02 5.00000E+01 0.00000E+00
 -1      1178 1.48575E+02 5.00000E+01 0.00000E+00
 -1      1179 1.57500E+00 0.00000E+00 0.00000E+00
 -1      1180 4.65000E+00 0.00000E+00 0.00000E+00
 -1      1181 7.65000E+00 0.00000E+00 0.00000E+00
 -1      1182 1.06500E+01 0.00000E+00 0.00000E+00
 -1      1183 1.36500E+01 0.00000E+00 0.00000E+00
 -1      1184 1.66500E+01 0.00000E+00 0.00000E+00
 -1      1185 1.96500E+01 0.00000E+00 0.00000E+00
 -1      1186 2.26500E+01 0.00000E+00 0.00000E+00
 -1      1187 2.56500E+01 0.00000E+00 0.00000E+00
 -1      1188 2.86500E+01 0.00000E+00 0.00000E+00
 -1      1189 3.16500E+01 0.00000E+00 0.00000E+00
 -1      1190 3.46500E+01 0.00000E+00 0.00000E+00
 -1      1191 3.76500E+01 0.00000E+00 0.00000E+00
 -1      1192 4.06500E+01 0.00000E+00 0.00000E+00
 -1      1193 4.36500E+01 0.00000E+00 0.00000E+00
 -1      1194 4.66500E+01 0.00000E+00 0.00000E+00
 -1      1195 4.96500E+01 0.00000E+00 0.00000E+00
 -1      1196 5.26500E+01 0.00000E+00 0.00000E+00
 -1      1197 5.56500E+01 0.00000E+00 0.00000E+00
 -1      1198 5.86500E+01 0.00000E+00 0.00000E+00
 -1      1199 6.16500E+01 0.00000E+00 0.00000E+00
 -1      1200 6.46500E+01 0.00000E+00 0.00000E+00
 -1      1201 6.76500E+01 0.00000E+00 0.00000E+00
 -1      1202 7.06500E+01 0.00000E+00 0.00000E+00
 -1      1203 7.36500E+01 0.00000E+00 0.00000E+00
 -1      1204 7.66500E+01 0.00000E+00 0.00000E+00
 -1      1205 7.96500E+01 0.00000E+00 0.00000E+00
 -1      1206 8.26500E+01 0.00000E+00 0.00000E+00
 -1      1207 8.56500E+01 0.00000E+00 0.00000E+00
 -1      1208 8.86500E+01 0.00000E+00 0.00000E+00
 -1      1209 9.16500E+01 0.00000E+00 0.00000E+00
 -1      1210 9.46500E+01 0.00000E+00 0.00000E+00
 -1      1211 9.76500E+01 0.00000E+00 0.00000E+00
 -1      1212 1.00650E+02 0.00000E+00 0.00000E+00
 -1      1213 1.03650E+02 0.00000E+00 0.00000E+00
 -1      1214 1.06650E+02 0.00000E+00 0.00000E+00
 -1      1215 1.09650E+02 0.00000E+00 0.00000E+00
 -1      1216 1.12650E+02 0.00000E+00 0.00000E+00
 -1      1217 1.15650E+02 0.00000E+00 0.00000E+00
 -1      1218 1.18650E+02 0.00000E+00 0.00000E+00
 -1      1219 1.21650E+02 0.00000E+00 0.00000E+00
 -1      1220 1.24650E+02 0.00000E+00 0.00000E+00
 -1      1221 1.27650E+02 0.00000E+00 0.00000E+00
 -1      1222 1.30650E+02 0.00000E+00 0.00000E+00
 -1      1223 1.33650E+02 0.00000E+00 0.00000E+00
 -1      1224 1.36650E+02 0.00000E+00 0.00000E+00
 -1      1225 1.39650E+02 0.00000E+00 0.00000E+00
 -1      1226 1.42650E+02 0.00000E+00 0.00000E+00
 -1      1227 1.45650E+02 0.00000E+00 0.00000E+00
 -1      1228 1.48575E+02 0.00000E+00 0.00000E+00
 -1      1229 1.50000E+02 1.47500E+00 0.00000E+00
 -1      1230 1.50000E+02 4.42500E+00 0.00000E+00
 -1      1231 1.50000E+02 7.37500E+00 0.00000E+00
 -1      1232 1.50000E+02 1.03250E+01 0.00000E+00
 -1      1233 1.50000E+02 1.32750E+01 0.00000E+00
 -1      1234 1.50000E+02 1.62000E+01 0.00000E+00
 -1      1235 1.50000E+02 1.91250E+01 0.00000E+00
 -1      1236 1.50000E+02 2.20750E+01 0.00000E+00
 -1      1237 1.50000E+02 2.50250E+01 0.00000E+00
 -1      1238 1.50000E+02 2.79750E+01 0.00000E+00
 -1      1239 1.50000E+02 3.09250E+01 0.00000E+00
 -1      1240 1.50000E+02 3.38500E+01 0.00000E+00
 -1      1241 1.50000E+02 3.67750E+01 0.00000E+00
 -1      1242 1.50000E+02 3.97250E+01 0.00000E+00
 -1      1243 1.50000E+02 4.26750E+01 0.00000E+00
 -1      1244 1.50000E+02 4.56250E+01 0.00000E+00
 -1      1245 1.50000E+02 4.85500E+01 0.00000E+00
 -1      1246 1.32761E+02 2.79471E+01 0.00000E+00
 -1      1247 1.32402E+02 2.63829E+01 0.00000E+00
 -1      1248 1.31696E+02 2.49404E+01 0.00000E+00
 -1      1249 1.30730E+02 2.37460E+01 0.00000E+00
 -1      1250 1.29498E+02 2.27730E+01 0.00000E+00
 -1      1251 1.28014E+02 2.20771E+01 0.00000E+00
 -1      1252 1.26461E+02 2.17499E+01 0.00000E+00
 -1      1253 1.24861E+02 2.17826E+01 0.00000E+00
 -1      1254 1.23346E+02 2.21643E+01 0.00000E+00
 -1      1255 1.21991E+02 2.28482E+01 0.00000E+00
 -1      1256 1.20785E+02 2.38384E+01 0.00000E+00
 -1      1257 1.19861E+02 2.50197E+01 0.00000E+00
 -1      1258 1.19194E+02 2.64148E+01 0.00000E+00
 -1      1259 1.18849E+02 2.79257E+01 0.00000E+00
 -1      1260 1.18842E+02 2.94558E+01 0.00000E+00
 -1      1261 1.19161E+02 3.09269E+01 0.00000E+00
 -1      1262 1.19769E+02 3.22665E+01 0.00000E+00
 -1      1263 1.20644E+02 3.34502E+01 0.00000E+00
 -1      1264 1.21781E+02 3.44481E+01 0.00000E+00
 -1      1265 1.23162E+02 3.52015E+01 0.00000E+00
 -1      1266 1.24584E+02 3.56120E+01 0.00000E+00
 -1      1267 1.26033E+02 3.57151E+01 0.00000E+00
 -1      1268 1.27463E+02 3.55193E+01 0.00000E+00
 -1      1269 1.28782E+02 3.50535E+01 0.00000E+00
 -1      1270 1.30002E+02 3.43199E+01 0.00000E+00
 -1      1271 1.31037E+02 3.33671E+01 0.00000E+00
 -1      1272 1.31872E+02 3.22086E+01 0.00000E+00
 -1      1273 1.32473E+02 3.08456E+01 0.00000E+00
 -1      1274 1.32768E+02 2.94201E+01 0.00000E+00
 -1      1275 1.57500E+00 4.85250E+01 0.00000E+00
 -1      1276 1.29900E+00 4.48375E+01 0.00000E+00
 -1      1277 1.29900E+00 4.63125E+01 0.00000E+00
 -1      1278 1.29900E+00 4.18875E+01 0.00000E+00
 -1      1279 1.29900E+00 4.33625E+01 0.00000E+00
 -1      1280 2.59800E+00 4.41000E+01 0.00000E+00
 -1      1281 1.29900E+00 3.89375E+01 0.00000E+00
 -1      1282 1.29900E+00 4.04125E+01 0.00000E+00
 -1      1283 2.59800E+00 4.11500E+01 0.00000E+00
 -1      1284 1.29900E+00 3.59875E+01 0.00000E+00
 -1      1285 1.29900E+00 3.74625E+01 0.00000E+00
 -1      1286 2.59800E+00 3.82000E+01 0.00000E+00
 -1      1287 1.29900E+00 3.30875E+01 0.00000E+00
 -1      1288 1.29900E+00 3.45375E+01 0.00000E+00
 -1      1289 2.59800E+00 3.52750E+01 0.00000E+00
 -1      1290 1.29900E+00 3.01375E+01 0.00000E+00
 -1      1291 1.29900E+00 3.16125E+01 0.00000E+00
 -1      1292 2.59800E+00 3.23500E+01 0.00000E+00
 -1      1293 1.29900E+00 2.71875E+01 0.00000E+00
 -1      1294 1.29900E+00 2.86625E+01 0.00000E+00
 -1      1295 2.59800E+00 2.94000E+01 0.00000E+00
 -1      1296 1.29900E+00 2.42375E+01 0.00000E+00
 -1      1297 1.29900E+00 2.57125E+01 0.00000E+00
 -1      1298 2.59800E+00 2.64500E+01 0.00000E+00
 -1      1299 1.29900E+00 2.12875E+01 0.00000E+00
 -1      1300 1.29900E+00 2.27625E+01 0.00000E+00
 -1      1301 2.59800E+00 2.35000E+01 0.00000E+00
 -1      1302 1.29900E+00 1.83375E+01 0.00000E+00
 -1      1303 1.29900E+00 1.98125E+01 0.00000E+00
 -1      1304 2.59800E+00 2.05500E+01 0.00000E+00
 -1      1305 1.29900E+00 1.54375E+01 0.00000E+00
 -1      1306 1.29900E+00 1.68875E+01 0.00000E+00
 -1      1307 2.59800E+00 1.76250E+01 0.00000E+00
 -1      1308 1.29900E+00 1.24875E+01 0.00000E+00
 -1      1309 1.29900E+00 1.39625E+01 0.00000E+00
 -1      1310 2.59800E+00 1.47000E+01 0.00000E+00
 -1      1311 1.29900E+00 9.53750E+00 0.00000E+00
 -1      1312 1.29900E+00 1.10125E+01 0.00000E+00
 -1      1313 2.59800E+00 1.17500E+01 0.00000E+00
 -1      1314 1.29900E+00 6.58750E+00 0.00000E+00
 -1      1315 1.29900E+00 8.06250E+00 0.00000E+00
 -1      1316 2.59800E+00 8.80000E+00 0.00000E+00
 -1      1317 1.29900E+00 3.63750E+00 0.00000E+00
 -1      1318 1.29900E+00 5.11250E+00 0.00000E+00
 -1      1319 2.59800E+00 5.85000E+00 0.00000E+00
 -1      1320 1.43700E+00 1.09375E+00 0.00000E+00
 -1      1321 1.43700E+00 2.54375E+00 0.00000E+00
 -1      1322 2.73600E+00 3.28125E+00 0.00000E+00
 -1      1323 3.01200E+00 1.09375E+00 0.00000E+00
 -1      1324 3.90000E+00 4.87010E+01 0.00000E+00
 -1      1325 5.40000E+00 4.87010E+01 0.00000E+00
 -1      1326 6.90000E+00 4.87010E+01 0.00000E+00
 -1      1327 8.40000E+00 4.87010E+01 0.00000E+00
 -1      1328 6.15000E+00 4.74020E+01 0.00000E+00
 -1      1329 9.90000E+00 4.87010E+01 0.00000E+00
 -1      1330 1.14000E+01 4.87010E+01 0.00000E+00
 -1      1331 9.15000E+00 4.74020E+01 0.00000E+00
 -1      1332 1.29000E+01 4.87010E+01 0.00000E+00
 -1      1333 1.44000E+01 4.87010E+01 0.00000E+00
 -1      1334 1.21500E+01 4.74020E+01 0.00000E+00
 -1      1335 1.59000E+01 4.87010E+01 0.00000E+00
 -1      1336 1.74000E+01 4.87010E+01 0.00000E+00
 -1      1337 1.51500E+01 4.74020E+01 0.00000E+00
 -1      1338 1.89000E+01 4.87010E+01 0.00000E+00
 -1      1339 2.04000E+01 4.87010E+01 0.00000E+00
 -1      1340 1.81500E+01 4.74020E+01 0.00000E+00
 -1      1341 2.19000E+01 4.87010E+01 0.00000E+00
 -1      1342 2.34000E+01 4.87010E+01 0.00000E+00
 -1      1343 2.11500E+01 4.74020E+01 0.00000E+00
 -1      1344 2.49000E+01 4.87010E+01 0.00000E+00
 -1      1345 2.64000E+01 4.87010E+01 0.00000E+00
 -1      1346 2.41500E+01 4.74020E+01 0.00000E+00
 -1      1347 2.79000E+01 4.87010E+01 0.00000E+00
 -1      1348 2.94000E+01 4.87010E+01 0.00000E+00
 -1      1349 2.71500E+01 4.74020E+01 0.00000E+00
 -1      1350 3.09000E+01 4.87010E+01 0.00000E+00
 -1      1351 3.24000E+01 4.87010E+01 0.00000E+00
 -1      1352 3.01500E+01 4.74020E+01 0.00000E+00
 -1      1353 3.39000E+01 4.87010E+01 0.00000E+00
 -1      1354 3.54000E+01 4.87010E+01 0.00000E+00
 -1      1355 3.31500E+01 4.74020E+01 0.00000E+00
 -1      1356 3.69000E+01 4.87010E+01 0.00000E+00
 -1      1357 3.84000E+01 4.87010E+01 0.00000E+00
 -1      1358 3.61500E+01 4.74020E+01 0.00000E+00
 -1      1359 3.99000E+01 4.87010E+01 0.00000E+00
 -1      1360 4.14000E+01 4.87010E+01 0.00000E+00
 -1      1361 3.91500E+01 4.74020E+01 0.00000E+00
 -1      1362 4.29000E+01 4.87010E+01 0.00000E+00
 -1      1363 4.44000E+01 4.87010E+01 0.00000E+00
 -1      1364 4.21500E+01 4.74020E+01 0.00000E+00
 -1      1365 4.59000E+01 4.87010E+01 0.00000E+00
 -1      1366 4.74000E+01 4.87010E+01 0.00000E+00
 -1      1367 4.51500E+01 4.74020E+01 0.00000E+00
 -1      1368 4.89000E+01 4.87010E+01 0.00000E+00
 -1      1369 5.04000E+01 4.87010E+01 0.00000E+00
 -1      1370 4.81500E+01 4.74020E+01 0.00000E+00
 -1      1371 5.19000E+01 4.87010E+01 0.00000E+00
 -1      1372 5.34000E+01 4.87010E+01 0.00000E+00
 -1      1373 5.11500E+01 4.74020E+01 0.00000E+00
 -1      1374 5.49000E+01 4.87010E+01 0.00000E+00
 -1      1375 5.64000E+01 4.87010E+01 0.00000E+00
 -1      1376 5.41500E+01 4.74020E+01 0.00000E+00
 -1      1377 5.79000E+01 4.87010E+01 0.00000E+00
 -1      1378 5.94000E+01 4.87010E+01 0.00000E+00
 -1      1379 5.71500E+01 4.74020E+01 0.00000E+00
 -1      1380 6.09000E+01 4.87010E+01 0.00000E+00
 -1      1381 6.24000E+01 4.87010E+01 0.00000E+00
 -1      1382 6.01500E+01 4.74020E+01 0.00000E+00
 -1      1383 6.39000E+01 4.87010E+01 0.00000E+00
 -1      1384 6.54000E+01 4.87010E+01 0.00000E+00
 -1      1385 6.31500E+01 4.74020E+01 0.00000E+00
 -1      1386 6.69000E+01 4.87010E+01 0.00000E+00
 -1      1387 6.84000E+01 4.87010E+01 0.00000E+00
 -1      1388 6.61500E+01 4.74020E+01 0.00000E+00
 -1      1389 6.99000E+01 4.87010E+01 0.00000E+00
 -1      1390 7.14000E+01 4.87010E+01 0.00000E+00
 -1      1391 6.91500E+01 4.74020E+01 0.00000E+00
 -1      1392 7.29000E+01 4.87010E+01 0.00000E+00
 -1      1393 7.44000E+01 4.87010E+01 0.00000E+00
 -1      1394 7.21500E+01 4.74020E+01 0.00000E+00
 -1      1395 7.59000E+01 4.87010E+01 0.00000E+00
 -1      1396 7.74000E+01 4.87010E+01 0.00000E+00
 -1      1397 7.51500E+01 4.74020E+01 0.00000E+00
 -1      1398 7.89000E+01 4.87010E+01 0.00000E+00
 -1      1399 8.04000E+01 4.87010E+01 0.00000E+00
 -1      1400 7.81500E+01 4.74020E+01 0.00000E+00
 -1      1401 8.19000E+01 4.87010E+01 0.00000E+00
 -1      1402 8.34000E+01 4.87010E+01 0.00000E+00
 -1      1403 8.11500E+01 4.74020E+01 0.00000E+00
 -1      1404 8.49000E+01 4.87010E+01 0.00000E+00
 -1      1405 8.64000E+01 4.87010E+01 0.00000E+00
 -1      1406 8.41500E+01 4.74020E+01 0.00000E+00
 -1      1407 8.79000E+01 4.87010E+01 0.00000E+00
 -1      1408 8.94000E+01 4.87010E+01 0.00000E+00
 -1      1409 8.71500E+01 4.74020E+01 0.00000E+00
 -1      1410 9.09000E+01 4.87010E+01 0.00000E+00
 -1      1411 9.24000E+01 4.87010E+01 0.00000E+00
 -1      1412 9.01500E+01 4.74020E+01 0.00000E+00
 -1      1413 9.39000E+01 4.87010E+01 0.00000E+00
 -1      1414 9.54000E+01 4.87010E+01 0.00000E+00
 -1      1415 9.31500E+01 4.74020E+01 0.00000E+00
 -1      1416 9.69000E+01 4.87010E+01 0.00000E+00
 -1      1417 9.84000E+01 4.87010E+01 0.00000E+00
 -1      1418 9.61500E+01 4.74020E+01 0.00000E+00
 -1      1419 9.99000E+01 4.87010E+01 0.00000E+00
 -1      1420 1.01400E+02 4.87010E+01 0.00000E+00
 -1      1421 9.91500E+01 4.74020E+01 0.00000E+00
 -1      1422 1.02900E+02 4.87010E+01 0.00000E+00
 -1      1423 1.04400E+02 4.87010E+01 0.00000E+00
 -1      1424 1.02150E+02 4.74020E+01 0.00000E+00
 -1      1425 1.05900E+02 4.87010E+01 0.00000E+00
 -1      1426 1.07400E+02 4.87010E+01 0.00000E+00
 -1      1427 1.05150E+02 4.74020E+01 0.00000E+00
 -1      1428 1.08900E+02 4.87010E+01 0.00000E+00
 -1      1429 1.10400E+02 4.87010E+01 0.00000E+00
 -1      1430 1.08150E+02 4.74020E+01 0.00000E+00
 -1      1431 1.11900E+02 4.87010E+01 0.00000E+00
 -1      1432 1.13400E+02 4.87010E+01 0.00000E+00
 -1      1433 1.11150E+02 4.74020E+01 0.00000E+00
 -1      1434 1.14900E+02 4.87010E+01 0.00000E+00
 -1      1435 1.16400E+02 4.87010E+01 0.00000E+00
 -1      1436 1.14150E+02 4.74020E+01 0.00000E+00
 -1      1437 1.17900E+02 4.87010E+01 0.00000E+00
 -1      1438 1.19400E+02 4.87010E+01 0.00000E+00
 -1      1439 1.17150E+02 4.74020E+01 0.00000E+00
 -1      1440 1.20900E+02 4.87010E+01 0.00000E+00
 -1      1441 1.22400E+02 4.87010E+01 0.00000E+00
 -1      1442 1.20150E+02 4.74020E+01 0.00000E+00
 -1      1443 1.23900E+02 4.87010E+01 0.00000E+00
 -1      1444 1.25400E+02 4.87010E+01 0.00000E+00
 -1      1445 1.23150E+02 4.74020E+01 0.00000E+00
 -1      1446 1.26900E+02 4.87010E+01 0.00000E+00
 -1      1447 1.28400E+02 4.87010E+01 0.00000E+00
 -1      1448 1.26150E+02 4.74020E+01 0.00000E+00
 -1      1449 1.29900E+02 4.87010E+01 0.00000E+00
 -1      1450 1.31400E+02 4.87010E+01 0.00000E+00
 -1      1451 1.29150E+02 4.74020E+01 0.00000E+00
 -1      1452 1.32900E+02 4.87010E+01 0.00000E+00
 -1      1453 1.34400E+02 4.87010E+01 0.00000E+00
 -1      1454 1.32150E+02 4.74020E+01 0.00000E+00
 -1      1455 1.35900E+02 4.87010E+01 0.00000E+00
 -1      1456 1.37400E+02 4.87010E+01 0.00000E+00
 -1      1457 1.35150E+02 4.74020E+01 0.00000E+00
 -1      1458 1.38900E+02 4.87010E+01 0.00000E+00
 -1      1459 1.40400E+02 4.87010E+01 0.00000E+00
 -1      1460 1.38150E+02 4.74020E+01 0.00000E+00
 -1      1461 1.41900E+02 4.87010E+01 0.00000E+00
 -1      1462 1.43400E+02 4.87010E+01 0.00000E+00
 -1      1463 1.41150E+02 4.74020E+01 0.00000E+00
 -1      1464 1.44900E+02 4.87010E+01 0.00000E+00
 -1      1465 1.46400E+02 4.87010E+01 0.00000E+00
 -1      1466 1.44150E+02 4.74020E+01 0.00000E+00
 -1      1467 1.48575E+02 4.85500E+01 0.00000E+00
 -1      1468 1.47825E+02 4.72510E+01 0.00000E+00
 -1      1469 6.01200E+00 1.09375E+00 0.00000E+00
 -1      1470 4.51200E+00 1.09375E+00 0.00000E+00
 -1      1471 4.37400E+00 2.18750E+00 0.00000E+00
 -1      1472 9.01200E+00 1.09375E+00 0.00000E+00
 -1      1473 7.51200E+00 1.09375E+00 0.00000E+00
 -1      1474 7.37400E+00 2.18750E+00 0.00000E+00
 -1      1475 1.20120E+01 1.09375E+00 0.00000E+00
 -1      1476 1.05120E+01 1.09375E+00 0.00000E+00
 -1      1477 1.03740E+01 2.18750E+00 0.00000E+00
 -1      1478 1.50120E+01 1.09375E+00 0.00000E+00
 -1      1479 1.35120E+01 1.09375E+00 0.00000E+00
 -1      1480 1.33740E+01 2.18750E+00 0.00000E+00
 -1      1481 1.80120E+01 1.09375E+00 0.00000E+00
 -1      1482 1.65120E+01 1.09375E+00 0.00000E+00
 -1      1483 1.63740E+01 2.18750E+00 0.00000E+00
 -1      1484 2.10120E+01 1.09375E+00 0.00000E+00
 -1      1485 1.95120E+01 1.09375E+00 0.00000E+00
 -1      1486 1.93740E+01 2.18750E+00 0.00000E+00
 -1      1487 2.40120E+01 1.09375E+00 0.00000E+00
 -1      1488 2.25120E+01 1.09375E+00 0.00000E+00
 -1      1489 2.23740E+01 2.18750E+00 0.00000E+00
 -1      1490 2.70120E+01 1.09375E+00 0.00000E+00
 -1      1491 2.55120E+01 1.09375E+00 0.00000E+00
 -1      1492 2.53740E+01 2.18750E+00 0.00000E+00
 -1      1493 3.00120E+01 1.09375E+00 0.00000E+00
 -1      1494 2.85120E+01 1.09375E+00 0.00000E+00
 -1      1495 2.83740E+01 2.18750E+00 0.00000E+00
 -1      1496 3.30120E+01 1.09375E+00 0.00000E+00
 -1      1497 3.15120E+01 1.09375E+00 0.00000E+00
 -1      1498 3.13740E+01 2.18750E+00 0.00000E+00
 -1      1499 3.60120E+01 1.09375E+00 0.00000E+00
 -1      1500 3.45120E+01 1.09375E+00 0.00000E+00
 -1      1501 3.43740E+01 2.18750E+00 0.00000E+00
 -1      1502 3.90120E+01 1.09375E+00 0.00000E+00
 -1      1503 3.75120E+01 1.09375E+00 0.00000E+00
 -1      1504 3.73740E+01 2.18750E+00 0.00000E+00
 -1      1505 4.20120E+01 1.09375E+00 0.00000E+00
 -1      1506 4.05120E+01 1.09375E+00 0.00000E+00
 -1      1507 4.03740E+01 2.18750E+00 0.00000E+00
 -1      1508 4.50120E+01 1.09375E+00 0.00000E+00
 -1      1509 4.35120E+01 1.09375E+00 0.00000E+00
 -1      1510 4.33740E+01 2.18750E+00 0.00000E+00
 -1      1511 4.80120E+01 1.09375E+00 0.00000E+00
 -1      1512 4.65120E+01 1.09375E+00 0.00000E+00
 -1      1513 4.63740E+01 2.18750E+00 0.00000E+00
 -1      1514 5.10120E+01 1.09375E+00 0.00000E+00
 -1      1515 4.95120E+01 1.09375E+00 0.00000E+00
 -1      1516 4.93740E+01 2.18750E+00 0.00000E+00
 -1      1517 5.40120E+01 1.09375E+00 0.00000E+00
 -1      1518 5.25120E+01 1.09375E+00 0.00000E+00
 -1      1519 5.23740E+01 2.18750E+00 0.00000E+00
 -1      1520 5.70120E+01 1.09375E+00 0.00000E+00
 -1      1521 5.55120E+01 1.09375E+00 0.00000E+00
 -1      1522 5.53740E+01 2.18750E+00 0.00000E+00
 -1      1523 6.00120E+01 1.09375E+00 0.00000E+00
 -1      1524 5.85120E+01 1.09375E+00 0.00000E+00
 -1      1525 5.83740E+01 2.18750E+00 0.00000E+00
 -1      1526 6.30120E+01 1.09375E+00 0.00000E+00
 -1      1527 6.15120E+01 1.09375E+00 0.00000E+00
 -1      1528 6.13740E+01 2.18750E+00 0.00000E+00
 -1      1529 6.60120E+01 1.09375E+00 0.00000E+00
 -1      1530 6.45120E+01 1.09375E+00 0.00000E+00
 -1      1531 6.43740E+01 2.18750E+00 0.00000E+00
 -1      1532 6.90120E+01 1.09375E+00 0.00000E+00
 -1      1533 6.75120E+01 1.09375E+00 0.00000E+00
 -1      1534 6.73740E+01 2.18750E+00 0.00000E+00
 -1      1535 7.20120E+01 1.09375E+00 0.00000E+00
 -1      1536 7.05120E+01 1.09375E+00 0.00000E+00
 -1      1537 7.03740E+01 2.18750E+00 0.00000E+00
 -1      1538 7.50120E+01 1.09375E+00 0.00000E+00
 -1      1539 7.35120E+01 1.09375E+00 0.00000E+00
 -1      1540 7.33740E+01 2.18750E+00 0.00000E+00
 -1      1541 7.80120E+01 1.09375E+00 0.00000E+00
 -1      1542 7.65120E+01 1.09375E+00 0.00000E+00
 -1      1543 7.63740E+01 2.18750E+00 0.00000E+00
 -1      1544 8.10120E+01 1.09375E+00 0.00000E+00
 -1      1545 7.95120E+01 1.09375E+00 0.00000E+00
 -1      1546 7.93740E+01 2.18750E+00 0.00000E+00
 -1      1547 8.40120E+01 1.09375E+00 0.00000E+00
 -1      1548 8.25120E+01 1.09375E+00 0.00000E+00
 -1      1549 8.23740E+01 2.18750E+00 0.00000E+00
 -1      1550 8.70120E+01 1.09375E+00 0.00000E+00
 -1      1551 8.55120E+01 1.09375E+00 0.00000E+00
 -1      1552 8.53740E+01 2.18750E+00 0.00000E+00
 -1      1553 9.00120E+01 1.09375E+00 0.00000E+00
 -1      1554 8.85120E+01 1.09375E+00 0.00000E+00
 -1      1555 8.83740E+01 2.18750E+00 0.00000E+00
 -1      1556 9.30120E+01 1.09375E+00 0.00000E+00
 -1      1557 9.15120E+01 1.09375E+00 0.00000E+00
 -1      1558 9.13740E+01 2.18750E+00 0.00000E+00
 -1      1559 9.60120E+01 1.09375E+00 0.00000E+00
 -1      1560 9.45120E+01 1.09375E+00 0.00000E+00
 -1      1561 9.43740E+01 2.18750E+00 0.00000E+00
 -1      1562 9.90120E+01 1.09375E+00 0.00000E+00
 -1      1563 9.75120E+01 1.09375E+00 0.00000E+00
 -1      1564 9.73740E+01 2.18750E+00 0.00000E+00
 -1      1565 1.02012E+02 1.09375E+00 0.00000E+00
 -1      1566 1.00512E+02 1.09375E+00 0.00000E+00
 -1      1567 1.00374E+02 2.18750E+00 0.00000E+00
 -1      1568 1.05012E+02 1.09375E+00 0.00000E+00
 -1      1569 1.03512E+02 1.09375E+00 0.00000E+00
 -1      1570 1.03374E+02 2.18750E+00 0.00000E+00
 -1      1571 1.08012E+02 1.09375E+00 0.00000E+00
 -1      1572 1.06512E+02 1.09375E+00 0.00000E+00
 -1      1573 1.06374E+02 2.18750E+00 0.00000E+00
 -1      1574 1.11012E+02 1.09375E+00 0.00000E+00
 -1      1575 1.09512E+02 1.09375E+00 0.00000E+00
 -1      1576 1.09374E+02 2.18750E+00 0.00000E+00
 -1      1577 1.14012E+02 1.09375E+00 0.00000E+00
 -1      1578 1.12512E+02 1.09375E+00 0.00000E+00
 -1      1579 1.12374E+02 2.18750E+00 0.00000E+00
 -1      1580 1.17012E+02 1.09375E+00 0.00000E+00
 -1      1581 1.15512E+02 1.09375E+00 0.00000E+00
 -1      1582 1.15374E+02 2.18750E+00 0.00000E+00
 -1      1583 1.20012E+02 1.09375E+00 0.00000E+00
 -1      1584 1.18512E+02 1.09375E+00 0.00000E+00
 -1      1585 1.18374E+02 2.18750E+00 0.00000E+00
 -1      1586 1.23012E+02 1.09375E+00 0.00000E+00
 -1      1587 1.21512E+02 1.09375E+00 0.00000E+00
 -1      1588 1.21374E+02 2.18750E+00 0.00000E+00
 -1      1589 1.26012E+02 1.09375E+00 0.00000E+00
 -1      1590 1.24512E+02 1.09375E+00 0.00000E+00
 -1      1591 1.24374E+02 2.18750E+00 0.00000E+00
 -1      1592 1.29012E+02 1.09375E+00 0.00000E+00
 -1      1593 1.27512E+02 1.09375E+00 0.00000E+00
 -1      1594 1.27374E+02 2.18750E+00 0.00000E+00
 -1      1595 1.32012E+02 1.09375E+00 0.00000E+00
 -1      1596 1.30512E+02 1.09375E+00 0.00000E+00
 -1      1597 1.30374E+02 2.18750E+00 0.00000E+00
 -1      1598 1.35012E+02 1.09375E+00 0.00000E+00
 -1      1599 1.33512E+02 1.09375E+00 0.00000E+00
 -1      1600 1.33374E+02 2.18750E+00 0.00000E+00
 -1      1601 1.38012E+02 1.09375E+00 0.00000E+00
 -1      1602 1.36512E+02 1.09375E+00 0.00000E+00
 -1      1603 1.36374E+02 2.18750E+00 0.00000E+00
 -1      1604 1.41012E+02 1.09375E+00 0.00000E+00
 -1      1605 1.39512E+02 1.09375E+00 0.00000E+00
 -1      1606 1.39374E+02 2.18750E+00 0.00000E+00
 -1      1607 1.44012E+02 1.09375E+00 0.00000E+00
 -1      1608 1.42512E+02 1.09375E+00 0.00000E+00
 -1      1609 1.42374E+02 2.18750E+00 0.00000E+00
 -1      1610 1.47012E+02 1.09375E+00 0.00000E+00
 -1      1611 1.45512E+02 1.09375E+00 0.00000E+00
 -1      1612 1.45374E+02 2.18750E+00 0.00000E+00
 -1      1613 1.48575E+02 1.47500E+00 0.00000E+00
 -1      1614 1.48701E+02 5.16250E+00 0.00000E+00
 -1      1615 1.48701E+02 3.68750E+00 0.00000E+00
 -1      1616 1.48701E+02 8.11250E+00 0.00000E+00
 -1      1617 1.48701E+02 6.63750E+00 0.00000E+00
 -1      1618 1.47402E+02 5.90000E+00 0.00000E+00
 -1      1619 1.48701E+02 1.10625E+01 0.00000E+00
 -1      1620 1.48701E+02 9.58750E+00 0.00000E+00
 -1      1621 1.47402E+02 8.85000E+00 0.00000E+00
 -1      1622 1.48701E+02 1.40125E+01 0.00000E+00
 -1      1623 1.48701E+02 1.25375E+01 0.00000E+00
 -1      1624 1.47402E+02 1.18000E+01 0.00000E+00
 -1      1625 1.48701E+02 1.69125E+01 0.00000E+00
 -1      1626 1.48701E+02 1.54625E+01 0.00000E+00
 -1      1627 1.47402E+02 1.47250E+01 0.00000E+00
 -1      1628 1.48701E+02 1.98625E+01 0.00000E+00
 -1      1629 1.48701E+02 1.83875E+01 0.00000E+00
 -1      1630 1.47402E+02 1.76500E+01 0.00000E+00
 -1      1631 1.48701E+02 2.28125E+01 0.00000E+00
 -1      1632 1.48701E+02 2.13375E+01 0.00000E+00
 -1      1633 1.47402E+02 2.06000E+01 0.00000E+00
 -1      1634 1.48701E+02 2.57625E+01 0.00000E+00
 -1      1635 1.48701E+02 2.42875E+01 0.00000E+00
 -1      1636 1.47402E+02 2.35500E+01 0.00000E+00
 -1      1637 1.48701E+02 2.87125E+01 0.00000E+00
 -1      1638 1.48701E+02 2.72375E+01 0.00000E+00
 -1      1639 1.47402E+02 2.65000E+01 0.00000E+00
 -1      1640 1.48701E+02 3.16625E+01 0.00000E+00
 -1      1641 1.48701E+02 3.01875E+01 0.00000E+00
 -1      1642 1.47402E+02 2.94500E+01 0.00000E+00
 -1      1643 1.48701E+02 3.45625E+01 0.00000E+00
 -1      1644 1.48701E+02 3.31125E+01 0.00000E+00
 -1      1645 1.47402E+02 3.23750E+01 0.00000E+00
 -1      1646 1.48701E+02 3.75125E+01 0.00000E+00
 -1      1647 1.48701E+02 3.60375E+01 0.00000E+00
 -1      1648 1.47402E+02 3.53000E+01 0.00000E+00
 -1      1649 1.48701E+02 4.04625E+01 0.00000E+00
 -1      1650 1.48701E+02 3.89875E+01 0.00000E+00
 -1      1651 1.47402E+02 3.82500E+01 0.00000E+00
 -1      1652 1.48701E+02 4.34125E+01 0.00000E+00
 -1      1653 1.48701E+02 4.19375E+01 0.00000E+00
 -1      1654 1.47402E+02 4.12000E+01 0.00000E+00
 -1      1655 1.48263E+02 4.60692E+01 0.00000E+00
 -1      1656 1.48263E+02 4.45942E+01 0.00000E+00
 -1      1657 1.46964E+02 4.38568E+01 0.00000E+00
 -1      1658 1.46088E+02 4.62202E+01 0.00000E+00
 -1      1659 1.33362E+02 2.74922E+01 0.00000E+00
 -1      1660 1.33447E+02 2.82593E+01 0.00000E+00
 -1      1661 1.32946E+02 2.57486E+01 0.00000E+00
 -1      1662 1.33224E+02 2.65339E+01 0.00000E+00
 -1      1663 1.32032E+02 2.42656E+01 0.00000E+00
 -1      1664 1.32449E+02 2.49164E+01 0.00000E+00
 -1      1665 1.30856E+02 2.30764E+01 0.00000E+00
 -1      1666 1.31398E+02 2.36135E+01 0.00000E+00
 -1      1667 1.29494E+02 2.20137E+01 0.00000E+00
 -1      1668 1.30180E+02 2.24395E+01 0.00000E+00
 -1      1669 1.27848E+02 2.12586E+01 0.00000E+00
 -1      1670 1.28637E+02 2.15213E+01 0.00000E+00
 -1      1671 1.26142E+02 2.11098E+01 0.00000E+00
 -1      1672 1.26894E+02 2.11808E+01 0.00000E+00
 -1      1673 1.24351E+02 2.11651E+01 0.00000E+00
 -1      1674 1.25188E+02 2.10513E+01 0.00000E+00
 -1      1675 1.22811E+02 2.17569E+01 0.00000E+00
 -1      1676 1.23482E+02 2.15053E+01 0.00000E+00
 -1      1677 1.21281E+02 2.24912E+01 0.00000E+00
 -1      1678 1.21954E+02 2.20547E+01 0.00000E+00
 -1      1679 1.20116E+02 2.37164E+01 0.00000E+00
 -1      1680 1.20645E+02 2.31725E+01 0.00000E+00
 -1      1681 1.19184E+02 2.50350E+01 0.00000E+00
 -1      1682 1.19575E+02 2.44054E+01 0.00000E+00
 -1      1683 1.18453E+02 2.65829E+01 0.00000E+00
 -1      1684 1.18718E+02 2.58230E+01 0.00000E+00
 -1      1685 1.18244E+02 2.82316E+01 0.00000E+00
 -1      1686 1.18328E+02 2.74914E+01 0.00000E+00
 -1      1687 1.18241E+02 2.99142E+01 0.00000E+00
 -1      1688 1.18159E+02 2.91334E+01 0.00000E+00
 -1      1689 1.18695E+02 3.14612E+01 0.00000E+00
 -1      1690 1.18467E+02 3.07780E+01 0.00000E+00
 -1      1691 1.19436E+02 3.28983E+01 0.00000E+00
 -1      1692 1.19055E+02 3.22507E+01 0.00000E+00
 -1      1693 1.20469E+02 3.41005E+01 0.00000E+00
 -1      1694 1.19981E+02 3.35691E+01 0.00000E+00
 -1      1695 1.21735E+02 3.52035E+01 0.00000E+00
 -1      1696 1.21087E+02 3.47486E+01 0.00000E+00
 -1      1697 1.23296E+02 3.59086E+01 0.00000E+00
 -1      1698 1.22572E+02 3.56138E+01 0.00000E+00
 -1      1699 1.24829E+02 3.62353E+01 0.00000E+00
 -1      1700 1.24141E+02 3.61136E+01 0.00000E+00
 -1      1701 1.26431E+02 3.63517E+01 0.00000E+00
 -1      1702 1.25678E+02 3.63765E+01 0.00000E+00
 -1      1703 1.27934E+02 3.59933E+01 0.00000E+00
 -1      1704 1.27264E+02 3.61569E+01 0.00000E+00
 -1      1705 1.29346E+02 3.54186E+01 0.00000E+00
 -1      1706 1.28704E+02 3.57203E+01 0.00000E+00
 -1      1707 1.30630E+02 3.45615E+01 0.00000E+00
 -1      1708 1.30058E+02 3.49899E+01 0.00000E+00
 -1      1709 1.31695E+02 3.34880E+01 0.00000E+00
 -1      1710 1.31235E+02 3.40058E+01 0.00000E+00
 -1      1711 1.32547E+02 3.21730E+01 0.00000E+00
 -1      1712 1.32180E+02 3.28101E+01 0.00000E+00
 -1      1713 1.33206E+02 3.06833E+01 0.00000E+00
 -1      1714 1.32976E+02 3.14023E+01 0.00000E+00
 -1      1715 1.33371E+02 2.91285E+01 0.00000E+00
 -1      1716 1.33301E+02 2.98261E+01 0.00000E+00
 -1      1717 1.30877E+02 2.22774E+01 0.00000E+00
 -1      1718 1.32188E+02 2.35664E+01 0.00000E+00
 -1      1719 1.48437E+02 2.56875E+00 0.00000E+00
 -1      1720 1.47138E+02 3.30625E+00 0.00000E+00
 -1      1721 1.33952E+02 2.68414E+01 0.00000E+00
 -1      1722 1.33318E+02 2.50508E+01 0.00000E+00
 -1      1723 1.34015E+02 2.86688E+01 0.00000E+00
 -1      1724 1.29344E+02 2.11482E+01 0.00000E+00
 -1      1725 1.27533E+02 2.05779E+01 0.00000E+00
 -1      1726 1.25625E+02 2.04415E+01 0.00000E+00
 -1      1727 1.23802E+02 2.07232E+01 0.00000E+00
 -1      1728 1.22076E+02 2.13613E+01 0.00000E+00
 -1      1729 1.20582E+02 2.23405E+01 0.00000E+00
 -1      1730 1.19405E+02 2.37108E+01 0.00000E+00
 -1      1731 1.18400E+02 2.51878E+01 0.00000E+00
 -1      1732 1.17809E+02 2.68843E+01 0.00000E+00
 -1      1733 1.17599E+02 2.86946E+01 0.00000E+00
 -1      1734 1.17740E+02 3.04602E+01 0.00000E+00
 -1      1735 1.18326E+02 3.21135E+01 0.00000E+00
 -1      1736 1.19232E+02 3.35737E+01 0.00000E+00
 -1      1737 1.20396E+02 3.48926E+01 0.00000E+00
 -1      1738 1.21852E+02 3.59511E+01 0.00000E+00
 -1      1739 1.23535E+02 3.65664E+01 0.00000E+00
 -1      1740 1.25228E+02 3.69126E+01 0.00000E+00
 -1      1741 1.26910E+02 3.68589E+01 0.00000E+00
 -1      1742 1.28513E+02 3.63910E+01 0.00000E+00
 -1      1743 1.29995E+02 3.56894E+01 0.00000E+00
 -1      1744 1.31313E+02 3.47051E+01 0.00000E+00
 -1      1745 1.32404E+02 3.34716E+01 0.00000E+00
 -1      1746 1.33319E+02 3.20231E+01 0.00000E+00
 -1      1747 1.33844E+02 3.03952E+01 0.00000E+00
 -1      1748 2.87400E+00 4.77875E+01 0.00000E+00
 -1      1749 3.89700E+00 4.04125E+01 0.00000E+00
 -1      1750 3.89700E+00 4.18875E+01 0.00000E+00
 -1      1751 3.89700E+00 4.33625E+01 0.00000E+00
 -1      1752 3.89700E+00 4.48375E+01 0.00000E+00
 -1      1753 5.19600E+00 4.26250E+01 0.00000E+00
 -1      1754 3.89700E+00 3.45500E+01 0.00000E+00
 -1      1755 3.89700E+00 3.60000E+01 0.00000E+00
 -1      1756 3.89700E+00 3.16000E+01 0.00000E+00
 -1      1757 3.89700E+00 3.30750E+01 0.00000E+00
 -1      1758 5.19600E+00 3.38000E+01 0.00000E+00
 -1      1759 3.89700E+00 2.86500E+01 0.00000E+00
 -1      1760 3.89700E+00 3.01250E+01 0.00000E+00
 -1      1761 5.19600E+00 3.08500E+01 0.00000E+00
 -1      1762 3.89700E+00 2.57000E+01 0.00000E+00
 -1      1763 3.89700E+00 2.71750E+01 0.00000E+00
 -1      1764 5.19600E+00 2.79000E+01 0.00000E+00
 -1      1765 3.89700E+00 2.27500E+01 0.00000E+00
 -1      1766 3.89700E+00 2.42250E+01 0.00000E+00
 -1      1767 5.19600E+00 2.49500E+01 0.00000E+00
 -1      1768 3.89700E+00 1.98000E+01 0.00000E+00
 -1      1769 3.89700E+00 2.12750E+01 0.00000E+00
 -1      1770 5.19600E+00 2.20000E+01 0.00000E+00
 -1      1771 3.89700E+00 1.69000E+01 0.00000E+00
 -1      1772 3.89700E+00 1.83500E+01 0.00000E+00
 -1      1773 5.19600E+00 1.90750E+01 0.00000E+00
 -1      1774 3.89700E+00 1.39500E+01 0.00000E+00
 -1      1775 3.89700E+00 1.54250E+01 0.00000E+00
 -1      1776 5.19600E+00 1.61500E+01 0.00000E+00
 -1      1777 3.89700E+00 1.10000E+01 0.00000E+00
 -1      1778 3.89700E+00 1.24750E+01 0.00000E+00
 -1      1779 5.19600E+00 1.32000E+01 0.00000E+00
 -1      1780 3.89700E+00 8.05000E+00 0.00000E+00
 -1      1781 3.89700E+00 9.52500E+00 0.00000E+00
 -1      1782 5.19600E+00 1.02500E+01 0.00000E+00
 -1      1783 3.89700E+00 5.10000E+00 0.00000E+00
 -1      1784 3.89700E+00 6.57500E+00 0.00000E+00
 -1      1785 5.19600E+00 7.30000E+00 0.00000E+00
 -1      1786 4.20450E+00 3.09687E+00 0.00000E+00
 -1      1787 4.06650E+00 4.19063E+00 0.00000E+00
 -1      1788 5.36550E+00 4.91563E+00 0.00000E+00
 -1      1789 5.70450E+00 3.09687E+00 0.00000E+00
 -1      1790 3.62400E+00 4.64885E+01 0.00000E+00
 -1      1791 8.70450E+00 3.09687E+00 0.00000E+00
 -1      1792 7.20450E+00 3.09687E+00 0.00000E+00
 -1      1793 7.03500E+00 4.00625E+00 0.00000E+00
 -1      1794 4.92300E+00 4.57510E+01 0.00000E+00
 -1      1795 8.40000E+00 4.61030E+01 0.00000E+00
 -1      1796 9.90000E+00 4.61030E+01 0.00000E+00
 -1      1797 1.14000E+01 4.61030E+01 0.00000E+00
 -1      1798 1.29000E+01 4.61030E+01 0.00000E+00
 -1      1799 1.06500E+01 4.48040E+01 0.00000E+00
 -1      1800 1.44000E+01 4.61030E+01 0.00000E+00
 -1      1801 1.59000E+01 4.61030E+01 0.00000E+00
 -1      1802 1.36500E+01 4.48040E+01 0.00000E+00
 -1      1803 1.74000E+01 4.61030E+01 0.00000E+00
 -1      1804 1.89000E+01 4.61030E+01 0.00000E+00
 -1      1805 1.66500E+01 4.48040E+01 0.00000E+00
 -1      1806 2.04000E+01 4.61030E+01 0.00000E+00
 -1      1807 2.19000E+01 4.61030E+01 0.00000E+00
 -1      1808 1.96500E+01 4.48040E+01 0.00000E+00
 -1      1809 2.34000E+01 4.61030E+01 0.00000E+00
 -1      1810 2.49000E+01 4.61030E+01 0.00000E+00
 -1      1811 2.26500E+01 4.48040E+01 0.00000E+00
 -1      1812 2.64000E+01 4.61030E+01 0.00000E+00
 -1      1813 2.79000E+01 4.61030E+01 0.00000E+00
 -1      1814 2.56500E+01 4.48040E+01 0.00000E+00
 -1      1815 2.94000E+01 4.61030E+01 0.00000E+00
 -1      1816 3.09000E+01 4.61030E+01 0.00000E+00
 -1      1817 2.86500E+01 4.48040E+01 0.00000E+00
 -1      1818 3.24000E+01 4.61030E+01 0.00000E+00
 -1      1819 3.39000E+01 4.61030E+01 0.00000E+00
 -1      1820 3.16500E+01 4.48040E+01 0.00000E+00
 -1      1821 3.54000E+01 4.61030E+01 0.00000E+00
 -1      1822 3.69000E+01 4.61030E+01 0.00000E+00
 -1      1823 3.46500E+01 4.48040E+01 0.00000E+00
 -1      1824 3.84000E+01 4.61030E+01 0.00000E+00
 -1      1825 3.99000E+01 4.61030E+01 0.00000E+00
 -1      1826 3.76500E+01 4.48040E+01 0.00000E+00
 -1      1827 4.14000E+01 4.61030E+01 0.00000E+00
 -1      1828 4.29000E+01 4.61030E+01 0.00000E+00
 -1      1829 4.06500E+01 4.48040E+01 0.00000E+00
 -1      1830 4.44000E+01 4.61030E+01 0.00000E+00
 -1      1831 4.59000E+01 4.61030E+01 0.00000E+00
 -1      1832 4.36500E+01 4.48040E+01 0.00000E+00
 -1      1833 4.74000E+01 4.61030E+01 0.00000E+00
 -1      1834 4.89000E+01 4.61030E+01 0.00000E+00
 -1      1835 4.66500E+01 4.48040E+01 0.00000E+00
 -1      1836 5.04000E+01 4.61030E+01 0.00000E+00
 -1      1837 5.19000E+01 4.61030E+01 0.00000E+00
 -1      1838 4.96500E+01 4.48040E+01 0.00000E+00
 -1      1839 5.34000E+01 4.61030E+01 0.00000E+00
 -1      1840 5.49000E+01 4.61030E+01 0.00000E+00
 -1      1841 5.26500E+01 4.48040E+01 0.00000E+00
 -1      1842 5.64000E+01 4.61030E+01 0.00000E+00
 -1      1843 5.79000E+01 4.61030E+01 0.00000E+00
 -1      1844 5.56500E+01 4.48040E+01 0.00000E+00
 -1      1845 5.94000E+01 4.61030E+01 0.00000E+00
 -1      1846 6.09000E+01 4.61030E+01 0.00000E+00
 -1      1847 5.86500E+01 4.48040E+01 0.00000E+00
 -1      1848 6.24000E+01 4.61030E+01 0.00000E+00
 -1      1849 6.39000E+01 4.61030E+01 0.00000E+00
 -1      1850 6.16500E+01 4.48040E+01 0.00000E+00
 -1      1851 6.54000E+01 4.61030E+01 0.00000E+00
 -1      1852 6.69000E+01 4.61030E+01 0.00000E+00
 -1      1853 6.46500E+01 4.48040E+01 0.00000E+00
 -1      1854 6.84000E+01 4.61030E+01 0.00000E+00
 -1      1855 6.99000E+01 4.61030E+01 0.00000E+00
 -1      1856 6.76500E+01 4.48040E+01 0.00000E+00
 -1      1857 7.14000E+01 4.61030E+01 0.00000E+00
 -1      1858 7.29000E+01 4.61030E+01 0.00000E+00
 -1      1859 7.06500E+01 4.48040E+01 0.00000E+00
 -1      1860 7.44000E+01 4.61030E+01 0.00000E+00
 -1      1861 7.59000E+01 4.61030E+01 0.00000E+00
 -1      1862 7.36500E+01 4.48040E+01 0.00000E+00
 -1      1863 7.74000E+01 4.61030E+01 0.00000E+00
 -1      1864 7.89000E+01 4.61030E+01 0.00000E+00
 -1      1865 7.66500E+01 4.48040E+01 0.00000E+00
 -1      1866 8.04000E+01 4.61030E+01 0.00000E+00
 -1      1867 8.19000E+01 4.61030E+01 0.00000E+00
 -1      1868 7.96500E+01 4.48040E+01 0.00000E+00
 -1      1869 8.34000E+01 4.61030E+01 0.00000E+00
 -1      1870 8.49000E+01 4.61030E+01 0.00000E+00
 -1      1871 8.26500E+01 4.48040E+01 0.00000E+00
 -1      1872 8.64000E+01 4.61030E+01 0.00000E+00
 -1      1873 8.79000E+01 4.61030E+01 0.00000E+00
 -1      1874 8.56500E+01 4.48040E+01 0.00000E+00
 -1      1875 8.94000E+01 4.61030E+01 0.00000E+00
 -1      1876 9.09000E+01 4.61030E+01 0.00000E+00
 -1      1877 8.86500E+01 4.48040E+01 0.00000E+00
 -1      1878 9.24000E+01 4.61030E+01 0.00000E+00
 -1      1879 9.39000E+01 4.61030E+01 0.00000E+00
 -1      1880 9.16500E+01 4.48040E+01 0.00000E+00
 -1      1881 9.54000E+01 4.61030E+01 0.00000E+00
 -1      1882 9.69000E+01 4.61030E+01 0.00000E+00
 -1      1883 9.46500E+01 4.48040E+01 0.00000E+00
 -1      1884 9.84000E+01 4.61030E+01 0.00000E+00
 -1      1885 9.99000E+01 4.61030E+01 0.00000E+00
 -1      1886 9.76500E+01 4.48040E+01 0.00000E+00
 -1      1887 1.01400E+02 4.61030E+01 0.00000E+00
 -1      1888 1.02900E+02 4.61030E+01 0.00000E+00
 -1      1889 1.00650E+02 4.48040E+01 0.00000E+00
 -1      1890 1.04400E+02 4.61030E+01 0.00000E+00
 -1      1891 1.05900E+02 4.61030E+01 0.00000E+00
 -1      1892 1.03650E+02 4.48040E+01 0.00000E+00
 -1      1893 1.07400E+02 4.61030E+01 0.00000E+00
 -1      1894 1.08900E+02 4.61030E+01 0.00000E+00
 -1      1895 1.06650E+02 4.48040E+01 0.00000E+00
 -1      1896 1.10400E+02 4.61030E+01 0.00000E+00
 -1      1897 1.11900E+02 4.61030E+01 0.00000E+00
 -1      1898 1.09650E+02 4.48040E+01 0.00000E+00
 -1      1899 1.13400E+02 4.61030E+01 0.00000E+00
 -1      1900 1.14900E+02 4.61030E+01 0.00000E+00
 -1      1901 1.12650E+02 4.48040E+01 0.00000E+00
 -1      1902 1.16400E+02 4.61030E+01 0.00000E+00
 -1      1903 1.17900E+02 4.61030E+01 0.00000E+00
 -1      1904 1.15650E+02 4.48040E+01 0.00000E+00
 -1      1905 1.19400E+02 4.61030E+01 0.00000E+00
 -1      1906 1.20900E+02 4.61030E+01 0.00000E+00
 -1      1907 1.18650E+02 4.48040E+01 0.00000E+00
 -1      1908 1.22400E+02 4.61030E+01 0.00000E+00
 -1      1909 1.23900E+02 4.61030E+01 0.00000E+00
 -1      1910 1.21650E+02 4.48040E+01 0.00000E+00
 -1      1911 1.25400E+02 4.61030E+01 0.00000E+00
 -1      1912 1.26900E+02 4.61030E+01 0.00000E+00
 -1      1913 1.24650E+02 4.48040E+01 0.00000E+00
 -1      1914 1.28400E+02 4.61030E+01 0.00000E+00
 -1      1915 1.29900E+02 4.61030E+01 0.00000E+00
 -1      1916 1.27650E+02 4.48040E+01 0.00000E+00
 -1      1917 1.31400E+02 4.61030E+01 0.00000E+00
 -1      1918 1.32900E+02 4.61030E+01 0.00000E+00
 -1      1919 1.30650E+02 4.48040E+01 0.00000E+00
 -1      1920 1.34400E+02 4.61030E+01 0.00000E+00
 -1      1921 1.35900E+02 4.61030E+01 0.00000E+00
 -1      1922 1.33650E+02 4.48040E+01 0.00000E+00
 -1      1923 1.37400E+02 4.61030E+01 0.00000E+00
 -1      1924 1.38900E+02 4.61030E+01 0.00000E+00
 -1      1925 1.36650E+02 4.48040E+01 0.00000E+00
 -1      1926 1.40400E+02 4.61030E+01 0.00000E+00
 -1      1927 1.41900E+02 4.61030E+01 0.00000E+00
 -1      1928 1.39650E+02 4.48040E+01 0.00000E+00
 -1      1929 1.43244E+02 4.61616E+01 0.00000E+00
 -1      1930 1.44744E+02 4.61616E+01 0.00000E+00
 -1      1931 1.45182E+02 4.49799E+01 0.00000E+00
 -1      1932 1.42494E+02 4.48626E+01 0.00000E+00
 -1      1933 1.17045E+01 3.09687E+00 0.00000E+00
 -1      1934 1.02045E+01 3.09687E+00 0.00000E+00
 -1      1935 1.00350E+01 4.00625E+00 0.00000E+00
 -1      1936 1.47045E+01 3.09687E+00 0.00000E+00
 -1      1937 1.32045E+01 3.09687E+00 0.00000E+00
 -1      1938 1.30350E+01 4.00625E+00 0.00000E+00
 -1      1939 1.77045E+01 3.09687E+00 0.00000E+00
 -1      1940 1.62045E+01 3.09687E+00 0.00000E+00
 -1      1941 1.60350E+01 4.00625E+00 0.00000E+00
 -1      1942 2.07045E+01 3.09687E+00 0.00000E+00
 -1      1943 1.92045E+01 3.09687E+00 0.00000E+00
 -1      1944 1.90350E+01 4.00625E+00 0.00000E+00
 -1      1945 2.37045E+01 3.09687E+00 0.00000E+00
 -1      1946 2.22045E+01 3.09687E+00 0.00000E+00
 -1      1947 2.20350E+01 4.00625E+00 0.00000E+00
 -1      1948 2.67045E+01 3.09687E+00 0.00000E+00
 -1      1949 2.52045E+01 3.09687E+00 0.00000E+00
 -1      1950 2.50350E+01 4.00625E+00 0.00000E+00
 -1      1951 2.97045E+01 3.09687E+00 0.00000E+00
 -1      1952 2.82045E+01 3.09687E+00 0.00000E+00
 -1      1953 2.80350E+01 4.00625E+00 0.00000E+00
 -1      1954 3.27045E+01 3.09687E+00 0.00000E+00
 -1      1955 3.12045E+01 3.09687E+00 0.00000E+00
 -1      1956 3.10350E+01 4.00625E+00 0.00000E+00
 -1      1957 3.57045E+01 3.09687E+00 0.00000E+00
 -1      1958 3.42045E+01 3.09687E+00 0.00000E+00
 -1      1959 3.40350E+01 4.00625E+00 0.00000E+00
 -1      1960 3.87045E+01 3.09687E+00 0.00000E+00
 -1      1961 3.72045E+01 3.09687E+00 0.00000E+00
 -1      1962 3.70350E+01 4.00625E+00 0.00000E+00
 -1      1963 4.17045E+01 3.09687E+00 0.00000E+00
 -1      1964 4.02045E+01 3.09687E+00 0.00000E+00
 -1      1965 4.00350E+01 4.00625E+00 0.00000E+00
 -1      1966 4.47045E+01 3.09687E+00 0.00000E+00
 -1      1967 4.32045E+01 3.09687E+00 0.00000E+00
 -1      1968 4.30350E+01 4.00625E+00 0.00000E+00
 -1      1969 4.77045E+01 3.09687E+00 0.00000E+00
 -1      1970 4.62045E+01 3.09687E+00 0.00000E+00
 -1      1971 4.60350E+01 4.00625E+00 0.00000E+00
 -1      1972 5.07045E+01 3.09687E+00 0.00000E+00
 -1      1973 4.92045E+01 3.09687E+00 0.00000E+00
 -1      1974 4.90350E+01 4.00625E+00 0.00000E+00
 -1      1975 5.37045E+01 3.09687E+00 0.00000E+00
 -1      1976 5.22045E+01 3.09687E+00 0.00000E+00
 -1      1977 5.20350E+01 4.00625E+00 0.00000E+00
 -1      1978 5.67045E+01 3.09687E+00 0.00000E+00
 -1      1979 5.52045E+01 3.09687E+00 0.00000E+00
 -1      1980 5.50350E+01 4.00625E+00 0.00000E+00
 -1      1981 5.97045E+01 3.09687E+00 0.00000E+00
 -1      1982 5.82045E+01 3.09687E+00 0.00000E+00
 -1      1983 5.80350E+01 4.00625E+00 0.00000E+00
 -1      1984 6.27045E+01 3.09687E+00 0.00000E+00
 -1      1985 6.12045E+01 3.09687E+00 0.00000E+00
 -1      1986 6.10350E+01 4.00625E+00 0.00000E+00
 -1      1987 6.57045E+01 3.09687E+00 0.00000E+00
 -1      1988 6.42045E+01 3.09687E+00 0.00000E+00
 -1      1989 6.40350E+01 4.00625E+00 0.00000E+00
 -1      1990 6.87045E+01 3.09687E+00 0.00000E+00
 -1      1991 6.72045E+01 3.09687E+00 0.00000E+00
 -1      1992 6.70350E+01 4.00625E+00 0.00000E+00
 -1      1993 7.17045E+01 3.09687E+00 0.00000E+00
 -1      1994 7.02045E+01 3.09687E+00 0.00000E+00
 -1      1995 7.00350E+01 4.00625E+00 0.00000E+00
 -1      1996 7.47045E+01 3.09687E+00 0.00000E+00
 -1      1997 7.32045E+01 3.09687E+00 0.00000E+00
 -1      1998 7.30350E+01 4.00625E+00 0.00000E+00
 -1      1999 7.77045E+01 3.09687E+00 0.00000E+00
 -1      2000 7.62045E+01 3.09687E+00 0.00000E+00
 -1      2001 7.60350E+01 4.00625E+00 0.00000E+00
 -1      2002 8.07045E+01 3.09687E+00 0.00000E+00
 -1      2003 7.92045E+01 3.09687E+00 0.00000E+00
 -1      2004 7.90350E+01 4.00625E+00 0.00000E+00
 -1      2005 8.37045E+01 3.09687E+00 0.00000E+00
 -1      2006 8.22045E+01 3.09687E+00 0.00000E+00
 -1      2007 8.20350E+01 4.00625E+00 0.00000E+00
 -1      2008 8.67045E+01 3.09687E+00 0.00000E+00
 -1      2009 8.52045E+01 3.09687E+00 0.00000E+00
 -1      2010 8.50350E+01 4.00625E+00 0.00000E+00
 -1      2011 8.97045E+01 3.09687E+00 0.00000E+00
 -1      2012 8.82045E+01 3.09687E+00 0.00000E+00
 -1      2013 8.80350E+01 4.00625E+00 0.00000E+00
 -1      2014 9.27045E+01 3.09687E+00 0.00000E+00
 -1      2015 9.12045E+01 3.09687E+00 0.00000E+00
 -1      2016 9.10350E+01 4.00625E+00 0.00000E+00
 -1      2017 9.57045E+01 3.09687E+00 0.00000E+00
 -1      2018 9.42045E+01 3.09687E+00 0.00000E+00
 -1      2019 9.40350E+01 4.00625E+00 0.00000E+00
 -1      2020 9.87045E+01 3.09687E+00 0.00000E+00
 -1      2021 9.72045E+01 3.09687E+00 0.00000E+00
 -1      2022 9.70350E+01 4.00625E+00 0.00000E+00
 -1      2023 1.01704E+02 3.09687E+00 0.00000E+00
 -1      2024 1.00204E+02 3.09687E+00 0.00000E+00
 -1      2025 1.00035E+02 4.00625E+00 0.00000E+00
 -1      2026 1.04704E+02 3.09687E+00 0.00000E+00
 -1      2027 1.03204E+02 3.09687E+00 0.00000E+00
 -1      2028 1.03035E+02 4.00625E+00 0.00000E+00
 -1      2029 1.07704E+02 3.09687E+00 0.00000E+00
 -1      2030 1.06204E+02 3.09687E+00 0.00000E+00
 -1      2031 1.06035E+02 4.00625E+00 0.00000E+00
 -1      2032 1.10704E+02 3.09687E+00 0.00000E+00
 -1      2033 1.09204E+02 3.09687E+00 0.00000E+00
 -1      2034 1.09035E+02 4.00625E+00 0.00000E+00
 -1      2035 1.13704E+02 3.09687E+00 0.00000E+00
 -1      2036 1.12204E+02 3.09687E+00 0.00000E+00
 -1      2037 1.12035E+02 4.00625E+00 0.00000E+00
 -1      2038 1.16704E+02 3.09687E+00 0.00000E+00
 -1      2039 1.15204E+02 3.09687E+00 0.00000E+00
 -1      2040 1.15035E+02 4.00625E+00 0.00000E+00
 -1      2041 1.19704E+02 3.09687E+00 0.00000E+00
 -1      2042 1.18204E+02 3.09687E+00 0.00000E+00
 -1      2043 1.18035E+02 4.00625E+00 0.00000E+00
 -1      2044 1.22704E+02 3.09687E+00 0.00000E+00
 -1      2045 1.21204E+02 3.09687E+00 0.00000E+00
 -1      2046 1.21035E+02 4.00625E+00 0.00000E+00
 -1      2047 1.25704E+02 3.09687E+00 0.00000E+00
 -1      2048 1.24204E+02 3.09687E+00 0.00000E+00
 -1      2049 1.24035E+02 4.00625E+00 0.00000E+00
 -1      2050 1.28704E+02 3.09687E+00 0.00000E+00
 -1      2051 1.27204E+02 3.09687E+00 0.00000E+00
 -1      2052 1.27035E+02 4.00625E+00 0.00000E+00
 -1      2053 1.31704E+02 3.09687E+00 0.00000E+00
 -1      2054 1.30204E+02 3.09687E+00 0.00000E+00
 -1      2055 1.30035E+02 4.00625E+00 0.00000E+00
 -1      2056 1.34704E+02 3.09687E+00 0.00000E+00
 -1      2057 1.33204E+02 3.09687E+00 0.00000E+00
 -1      2058 1.33035E+02 4.00625E+00 0.00000E+00
 -1      2059 1.37704E+02 3.09687E+00 0.00000E+00
 -1      2060 1.36204E+02 3.09687E+00 0.00000E+00
 -1      2061 1.36035E+02 4.00625E+00 0.00000E+00
 -1      2062 1.40704E+02 3.09687E+00 0.00000E+00
 -1      2063 1.39204E+02 3.09687E+00 0.00000E+00
 -1      2064 1.39035E+02 4.00625E+00 0.00000E+00
 -1      2065 1.43704E+02 3.09687E+00 0.00000E+00
 -1      2066 1.42204E+02 3.09687E+00 0.00000E+00
 -1      2067 1.42035E+02 4.00625E+00 0.00000E+00
 -1      2068 1.46171E+02 3.20156E+00 0.00000E+00
 -1      2069 1.44671E+02 3.20156E+00 0.00000E+00
 -1      2070 1.44502E+02 4.11094E+00 0.00000E+00
 -1      2071 1.46435E+02 4.32031E+00 0.00000E+00
 -1      2072 1.46103E+02 1.25375E+01 0.00000E+00
 -1      2073 1.46103E+02 1.10625E+01 0.00000E+00
 -1      2074 1.46103E+02 9.58750E+00 0.00000E+00
 -1      2075 1.46103E+02 8.11250E+00 0.00000E+00
 -1      2076 1.44804E+02 1.03250E+01 0.00000E+00
 -1      2077 1.46269E+02 6.95391E+00 0.00000E+00
 -1      2078 1.46269E+02 5.47891E+00 0.00000E+00
 -1      2079 1.45302E+02 5.37422E+00 0.00000E+00
 -1      2080 1.44970E+02 7.69141E+00 0.00000E+00
 -1      2081 1.46103E+02 1.54375E+01 0.00000E+00
 -1      2082 1.46103E+02 1.39875E+01 0.00000E+00
 -1      2083 1.44804E+02 1.32500E+01 0.00000E+00
 -1      2084 1.46103E+02 1.83875E+01 0.00000E+00
 -1      2085 1.46103E+02 1.69125E+01 0.00000E+00
 -1      2086 1.44804E+02 1.61750E+01 0.00000E+00
 -1      2087 1.46103E+02 2.13375E+01 0.00000E+00
 -1      2088 1.46103E+02 1.98625E+01 0.00000E+00
 -1      2089 1.44804E+02 1.91250E+01 0.00000E+00
 -1      2090 1.46103E+02 2.42875E+01 0.00000E+00
 -1      2091 1.46103E+02 2.28125E+01 0.00000E+00
 -1      2092 1.44804E+02 2.20750E+01 0.00000E+00
 -1      2093 1.46103E+02 2.72375E+01 0.00000E+00
 -1      2094 1.46103E+02 2.57625E+01 0.00000E+00
 -1      2095 1.44804E+02 2.50250E+01 0.00000E+00
 -1      2096 1.46103E+02 3.01875E+01 0.00000E+00
 -1      2097 1.46103E+02 2.87125E+01 0.00000E+00
 -1      2098 1.44804E+02 2.79750E+01 0.00000E+00
 -1      2099 1.46103E+02 3.30875E+01 0.00000E+00
 -1      2100 1.46103E+02 3.16375E+01 0.00000E+00
 -1      2101 1.44804E+02 3.09000E+01 0.00000E+00
 -1      2102 1.46103E+02 3.60375E+01 0.00000E+00
 -1      2103 1.46103E+02 3.45625E+01 0.00000E+00
 -1      2104 1.44804E+02 3.38250E+01 0.00000E+00
 -1      2105 1.46103E+02 3.89875E+01 0.00000E+00
 -1      2106 1.46103E+02 3.75125E+01 0.00000E+00
 -1      2107 1.44804E+02 3.67750E+01 0.00000E+00
 -1      2108 1.46103E+02 4.19375E+01 0.00000E+00
 -1      2109 1.46103E+02 4.04625E+01 0.00000E+00
 -1      2110 1.44804E+02 3.97250E+01 0.00000E+00
 -1      2111 1.33734E+02 2.42384E+01 0.00000E+00
 -1      2112 1.34231E+02 2.50707E+01 0.00000E+00
 -1      2113 1.34740E+02 2.82937E+01 0.00000E+00
 -1      2114 1.34665E+02 2.91629E+01 0.00000E+00
 -1      2115 1.34732E+02 2.62400E+01 0.00000E+00
 -1      2116 1.34870E+02 2.71984E+01 0.00000E+00
 -1      2117 1.32426E+02 2.27010E+01 0.00000E+00
 -1      2118 1.33059E+02 2.33532E+01 0.00000E+00
 -1      2119 1.31073E+02 2.14273E+01 0.00000E+00
 -1      2120 1.31749E+02 2.20641E+01 0.00000E+00
 -1      2121 1.32621E+02 2.18509E+01 0.00000E+00
 -1      2122 3.89700E+00 3.74688E+01 0.00000E+00
 -1      2123 3.89700E+00 3.89437E+01 0.00000E+00
 -1      2124 5.19600E+00 3.96813E+01 0.00000E+00
 -1      2125 5.19600E+00 3.67438E+01 0.00000E+00
 -1      2126 1.27109E+02 1.98931E+01 0.00000E+00
 -1      2127 1.28063E+02 1.99709E+01 0.00000E+00
 -1      2128 1.25193E+02 1.96817E+01 0.00000E+00
 -1      2129 1.26147E+02 1.97403E+01 0.00000E+00
 -1      2130 1.23132E+02 2.02899E+01 0.00000E+00
 -1      2131 1.24000E+02 1.99496E+01 0.00000E+00
 -1      2132 1.21417E+02 2.08856E+01 0.00000E+00
 -1      2133 1.22274E+02 2.05877E+01 0.00000E+00
 -1      2134 1.22472E+02 1.98142E+01 0.00000E+00
 -1      2135 1.19699E+02 2.21529E+01 0.00000E+00
 -1      2136 1.20335E+02 2.14716E+01 0.00000E+00
 -1      2137 1.18625E+02 2.36553E+01 0.00000E+00
 -1      2138 1.19166E+02 2.29663E+01 0.00000E+00
 -1      2139 1.17501E+02 2.51884E+01 0.00000E+00
 -1      2140 1.17966E+02 2.44004E+01 0.00000E+00
 -1      2141 1.16980E+02 2.72327E+01 0.00000E+00
 -1      2142 1.17105E+02 2.63242E+01 0.00000E+00
 -1      2143 1.16810E+02 2.90363E+01 0.00000E+00
 -1      2144 1.16895E+02 2.81345E+01 0.00000E+00
 -1      2145 1.16191E+02 2.75745E+01 0.00000E+00
 -1      2146 1.17226E+02 3.10562E+01 0.00000E+00
 -1      2147 1.17000E+02 3.01924E+01 0.00000E+00
 -1      2148 1.17879E+02 3.27946E+01 0.00000E+00
 -1      2149 1.17518E+02 3.20052E+01 0.00000E+00
 -1      2150 1.18970E+02 3.43447E+01 0.00000E+00
 -1      2151 1.18424E+02 3.36739E+01 0.00000E+00
 -1      2152 1.20206E+02 3.56928E+01 0.00000E+00
 -1      2153 1.19588E+02 3.50447E+01 0.00000E+00
 -1      2154 1.21931E+02 3.68511E+01 0.00000E+00
 -1      2155 1.21093E+02 3.64408E+01 0.00000E+00
 -1      2156 1.23794E+02 3.73394E+01 0.00000E+00
 -1      2157 1.22949E+02 3.71344E+01 0.00000E+00
 -1      2158 1.25492E+02 3.76217E+01 0.00000E+00
 -1      2159 1.24643E+02 3.74806E+01 0.00000E+00
 -1      2160 1.24058E+02 3.80486E+01 0.00000E+00
 -1      2161 1.27512E+02 3.75557E+01 0.00000E+00
 -1      2162 1.26679E+02 3.77505E+01 0.00000E+00
 -1      2163 1.29114E+02 3.68654E+01 0.00000E+00
 -1      2164 1.28344E+02 3.71384E+01 0.00000E+00
 -1      2165 1.30707E+02 3.60663E+01 0.00000E+00
 -1      2166 1.29995E+02 3.64949E+01 0.00000E+00
 -1      2167 1.32139E+02 3.49973E+01 0.00000E+00
 -1      2168 1.31533E+02 3.55530E+01 0.00000E+00
 -1      2169 1.33173E+02 3.35100E+01 0.00000E+00
 -1      2170 1.32688E+02 3.41878E+01 0.00000E+00
 -1      2171 1.34100E+02 3.19534E+01 0.00000E+00
 -1      2172 1.33670E+02 3.27241E+01 0.00000E+00
 -1      2173 1.34569E+02 3.00201E+01 0.00000E+00
 -1      2174 1.34473E+02 3.08773E+01 0.00000E+00
 -1      2175 1.35294E+02 2.96450E+01 0.00000E+00
 -1      2176 1.29301E+02 2.02310E+01 0.00000E+00
 -1      2177 1.30158E+02 2.07234E+01 0.00000E+00
 -1      2178 6.42300E+00 4.57510E+01 0.00000E+00
 -1      2179 1.31030E+02 2.05101E+01 0.00000E+00
 -1      2180 1.28452E+02 1.88613E+01 0.00000E+00
 -1      2181 1.28877E+02 1.95462E+01 0.00000E+00
 -1      2182 1.29691E+02 1.91214E+01 0.00000E+00
 -1      2183 7.17300E+00 4.44520E+01 0.00000E+00
 -1      2184 1.35148E+02 2.54277E+01 0.00000E+00
 -1      2185 1.35520E+02 2.76924E+01 0.00000E+00
 -1      2186 1.45665E+02 4.31193E+01 0.00000E+00
 -1      2187 1.33972E+02 2.33730E+01 0.00000E+00
 -1      2188 1.34825E+02 3.15783E+01 0.00000E+00
 -1      2189 1.35176E+02 3.22793E+01 0.00000E+00
 -1      2190 1.35550E+02 3.12032E+01 0.00000E+00
 -1      2191 1.33954E+02 3.34403E+01 0.00000E+00
 -1      2192 1.32908E+02 3.50357E+01 0.00000E+00
 -1      2193 1.31533E+02 3.63585E+01 0.00000E+00
 -1      2194 1.29826E+02 3.72422E+01 0.00000E+00
 -1      2195 1.26094E+02 3.83185E+01 0.00000E+00
 -1      2196 1.22190E+02 3.76242E+01 0.00000E+00
 -1      2197 1.20284E+02 3.65929E+01 0.00000E+00
 -1      2198 1.18780E+02 3.51449E+01 0.00000E+00
 -1      2199 1.17616E+02 3.35656E+01 0.00000E+00
 -1      2200 1.16296E+02 2.96323E+01 0.00000E+00
 -1      2201 1.16671E+02 2.55368E+01 0.00000E+00
 -1      2202 1.17726E+02 2.36559E+01 0.00000E+00
 -1      2203 1.20533E+02 2.06980E+01 0.00000E+00
 -1      2204 1.20731E+02 1.99245E+01 0.00000E+00
 -1      2205 1.19649E+02 2.05104E+01 0.00000E+00
 -1      2206 1.26676E+02 1.91333E+01 0.00000E+00
 -1      2207 1.24522E+02 1.92484E+01 0.00000E+00
 -1      2208 1.25044E+02 1.85472E+01 0.00000E+00
 -1      2209 1.23851E+02 1.88151E+01 0.00000E+00
 -1      2210 1.18919E+02 2.20974E+01 0.00000E+00
 -1      2211 1.16778E+02 3.17373E+01 0.00000E+00
 -1      2212 1.28114E+02 3.80300E+01 0.00000E+00
 -1      2213 1.07850E+01 5.30525E+00 0.00000E+00
 -1      2214 9.28500E+00 5.30525E+00 0.00000E+00
 -1      2215 6.49500E+00 3.01125E+01 0.00000E+00
 -1      2216 6.49500E+00 3.15875E+01 0.00000E+00
 -1      2217 6.49500E+00 3.30625E+01 0.00000E+00
 -1      2218 6.49500E+00 3.45375E+01 0.00000E+00
 -1      2219 7.79400E+00 3.23250E+01 0.00000E+00
 -1      2220 6.49500E+00 2.42125E+01 0.00000E+00
 -1      2221 6.49500E+00 2.56875E+01 0.00000E+00
 -1      2222 6.49500E+00 2.12625E+01 0.00000E+00
 -1      2223 6.49500E+00 2.27375E+01 0.00000E+00
 -1      2224 7.79400E+00 2.34750E+01 0.00000E+00
 -1      2225 6.49500E+00 1.83625E+01 0.00000E+00
 -1      2226 6.49500E+00 1.98125E+01 0.00000E+00
 -1      2227 7.79400E+00 2.05500E+01 0.00000E+00
 -1      2228 6.49500E+00 1.54125E+01 0.00000E+00
 -1      2229 6.49500E+00 1.68875E+01 0.00000E+00
 -1      2230 7.79400E+00 1.76250E+01 0.00000E+00
 -1      2231 6.49500E+00 1.24625E+01 0.00000E+00
 -1      2232 6.49500E+00 1.39375E+01 0.00000E+00
 -1      2233 7.79400E+00 1.46750E+01 0.00000E+00
 -1      2234 6.49500E+00 9.51250E+00 0.00000E+00
 -1      2235 6.49500E+00 1.09875E+01 0.00000E+00
 -1      2236 7.79400E+00 1.17250E+01 0.00000E+00
 -1      2237 1.37850E+01 5.30525E+00 0.00000E+00
 -1      2238 1.22850E+01 5.30525E+00 0.00000E+00
 -1      2239 1.15350E+01 6.60425E+00 0.00000E+00
 -1      2240 9.90000E+00 4.35050E+01 0.00000E+00
 -1      2241 1.14000E+01 4.35050E+01 0.00000E+00
 -1      2242 1.31197E+02 1.93457E+01 0.00000E+00
 -1      2243 1.32112E+02 2.00495E+01 0.00000E+00
 -1      2244 1.29000E+01 4.35050E+01 0.00000E+00
 -1      2245 1.44000E+01 4.35050E+01 0.00000E+00
 -1      2246 1.21500E+01 4.22060E+01 0.00000E+00
 -1      2247 1.59000E+01 4.35050E+01 0.00000E+00
 -1      2248 1.74000E+01 4.35050E+01 0.00000E+00
 -1      2249 1.51500E+01 4.22060E+01 0.00000E+00
 -1      2250 1.89000E+01 4.35050E+01 0.00000E+00
 -1      2251 2.04000E+01 4.35050E+01 0.00000E+00
 -1      2252 1.81500E+01 4.22060E+01 0.00000E+00
 -1      2253 2.19000E+01 4.35050E+01 0.00000E+00
 -1      2254 2.34000E+01 4.35050E+01 0.00000E+00
 -1      2255 2.11500E+01 4.22060E+01 0.00000E+00
 -1      2256 2.49000E+01 4.35050E+01 0.00000E+00
 -1      2257 2.64000E+01 4.35050E+01 0.00000E+00
 -1      2258 2.41500E+01 4.22060E+01 0.00000E+00
 -1      2259 2.79000E+01 4.35050E+01 0.00000E+00
 -1      2260 2.94000E+01 4.35050E+01 0.00000E+00
 -1      2261 2.71500E+01 4.22060E+01 0.00000E+00
 -1      2262 3.09000E+01 4.35050E+01 0.00000E+00
 -1      2263 3.24000E+01 4.35050E+01 0.00000E+00
 -1      2264 3.01500E+01 4.22060E+01 0.00000E+00
 -1      2265 3.39000E+01 4.35050E+01 0.00000E+00
 -1      2266 3.54000E+01 4.35050E+01 0.00000E+00
 -1      2267 3.31500E+01 4.22060E+01 0.00000E+00
 -1      2268 3.69000E+01 4.35050E+01 0.00000E+00
 -1      2269 3.84000E+01 4.35050E+01 0.00000E+00
 -1      2270 3.61500E+01 4.22060E+01 0.00000E+00
 -1      2271 3.99000E+01 4.35050E+01 0.00000E+00
 -1      2272 4.14000E+01 4.35050E+01 0.00000E+00
 -1      2273 3.91500E+01 4.22060E+01 0.00000E+00
 -1      2274 4.29000E+01 4.35050E+01 0.00000E+00
 -1      2275 4.44000E+01 4.35050E+01 0.00000E+00
 -1      2276 4.21500E+01 4.22060E+01 0.00000E+00
 -1      2277 4.59000E+01 4.35050E+01 0.00000E+00
 -1      2278 4.74000E+01 4.35050E+01 0.00000E+00
 -1      2279 4.51500E+01 4.22060E+01 0.00000E+00
 -1      2280 4.89000E+01 4.35050E+01 0.00000E+00
 -1      2281 5.04000E+01 4.35050E+01 0.00000E+00
 -1      2282 4.81500E+01 4.22060E+01 0.00000E+00
 -1      2283 5.19000E+01 4.35050E+01 0.00000E+00
 -1      2284 5.34000E+01 4.35050E+01 0.00000E+00
 -1      2285 5.11500E+01 4.22060E+01 0.00000E+00
 -1      2286 5.49000E+01 4.35050E+01 0.00000E+00
 -1      2287 5.64000E+01 4.35050E+01 0.00000E+00
 -1      2288 5.41500E+01 4.22060E+01 0.00000E+00
 -1      2289 5.79000E+01 4.35050E+01 0.00000E+00
 -1      2290 5.94000E+01 4.35050E+01 0.00000E+00
 -1      2291 5.71500E+01 4.22060E+01 0.00000E+00
 -1      2292 6.09000E+01 4.35050E+01 0.00000E+00
 -1      2293 6.24000E+01 4.35050E+01 0.00000E+00
 -1      2294 6.01500E+01 4.22060E+01 0.00000E+00
 -1      2295 6.39000E+01 4.35050E+01 0.00000E+00
 -1      2296 6.54000E+01 4.35050E+01 0.00000E+00
 -1      2297 6.31500E+01 4.22060E+01 0.00000E+00
 -1      2298 6.69000E+01 4.35050E+01 0.00000E+00
 -1      2299 6.84000E+01 4.35050E+01 0.00000E+00
 -1      2300 6.61500E+01 4.22060E+01 0.00000E+00
 -1      2301 6.99000E+01 4.35050E+01 0.00000E+00
 -1      2302 7.14000E+01 4.35050E+01 0.00000E+00
 -1      2303 6.91500E+01 4.22060E+01 0.00000E+00
 -1      2304 7.29000E+01 4.35050E+01 0.00000E+00
 -1      2305 7.44000E+01 4.35050E+01 0.00000E+00
 -1      2306 7.21500E+01 4.22060E+01 0.00000E+00
 -1      2307 7.59000E+01 4.35050E+01 0.00000E+00
 -1      2308 7.74000E+01 4.35050E+01 0.00000E+00
 -1      2309 7.51500E+01 4.22060E+01 0.00000E+00
 -1      2310 7.89000E+01 4.35050E+01 0.00000E+00
 -1      2311 8.04000E+01 4.35050E+01 0.00000E+00
 -1      2312 7.81500E+01 4.22060E+01 0.00000E+00
 -1      2313 8.19000E+01 4.35050E+01 0.00000E+00
 -1      2314 8.34000E+01 4.35050E+01 0.00000E+00
 -1      2315 8.11500E+01 4.22060E+01 0.00000E+00
 -1      2316 8.49000E+01 4.35050E+01 0.00000E+00
 -1      2317 8.64000E+01 4.35050E+01 0.00000E+00
 -1      2318 8.41500E+01 4.22060E+01 0.00000E+00
 -1      2319 8.79000E+01 4.35050E+01 0.00000E+00
 -1      2320 8.94000E+01 4.35050E+01 0.00000E+00
 -1      2321 8.71500E+01 4.22060E+01 0.00000E+00
 -1      2322 9.09000E+01 4.35050E+01 0.00000E+00
 -1      2323 9.24000E+01 4.35050E+01 0.00000E+00
 -1      2324 9.01500E+01 4.22060E+01 0.00000E+00
 -1      2325 9.39000E+01 4.35050E+01 0.00000E+00
 -1      2326 9.54000E+01 4.35050E+01 0.00000E+00
 -1      2327 9.31500E+01 4.22060E+01 0.00000E+00
 -1      2328 9.69000E+01 4.35050E+01 0.00000E+00
 -1      2329 9.84000E+01 4.35050E+01 0.00000E+00
 -1      2330 9.61500E+01 4.22060E+01 0.00000E+00
 -1      2331 9.99000E+01 4.35050E+01 0.00000E+00
 -1      2332 1.01400E+02 4.35050E+01 0.00000E+00
 -1      2333 9.91500E+01 4.22060E+01 0.00000E+00
 -1      2334 1.02900E+02 4.35050E+01 0.00000E+00
 -1      2335 1.04400E+02 4.35050E+01 0.00000E+00
 -1      2336 1.02150E+02 4.22060E+01 0.00000E+00
 -1      2337 1.05900E+02 4.35050E+01 0.00000E+00
 -1      2338 1.07400E+02 4.35050E+01 0.00000E+00
 -1      2339 1.05150E+02 4.22060E+01 0.00000E+00
 -1      2340 1.08900E+02 4.35050E+01 0.00000E+00
 -1      2341 1.10400E+02 4.35050E+01 0.00000E+00
 -1      2342 1.08150E+02 4.22060E+01 0.00000E+00
 -1      2343 1.11900E+02 4.35050E+01 0.00000E+00
 -1      2344 1.13400E+02 4.35050E+01 0.00000E+00
 -1      2345 1.11150E+02 4.22060E+01 0.00000E+00
 -1      2346 1.14900E+02 4.35050E+01 0.00000E+00
 -1      2347 1.16400E+02 4.35050E+01 0.00000E+00
 -1      2348 1.14150E+02 4.22060E+01 0.00000E+00
 -1      2349 1.17900E+02 4.35050E+01 0.00000E+00
 -1      2350 1.19400E+02 4.35050E+01 0.00000E+00
 -1      2351 1.17150E+02 4.22060E+01 0.00000E+00
 -1      2352 1.20900E+02 4.35050E+01 0.00000E+00
 -1      2353 1.22400E+02 4.35050E+01 0.00000E+00
 -1      2354 1.20150E+02 4.22060E+01 0.00000E+00
 -1      2355 1.23900E+02 4.35050E+01 0.00000E+00
 -1      2356 1.25400E+02 4.35050E+01 0.00000E+00
 -1      2357 1.23150E+02 4.22060E+01 0.00000E+00
 -1      2358 1.26900E+02 4.35050E+01 0.00000E+00
 -1      2359 1.28400E+02 4.35050E+01 0.00000E+00
 -1      2360 1.26150E+02 4.22060E+01 0.00000E+00
 -1      2361 1.29900E+02 4.35050E+01 0.00000E+00
 -1      2362 1.31400E+02 4.35050E+01 0.00000E+00
 -1      2363 1.29150E+02 4.22060E+01 0.00000E+00
 -1      2364 1.32900E+02 4.35050E+01 0.00000E+00
 -1      2365 1.34400E+02 4.35050E+01 0.00000E+00
 -1      2366 1.32150E+02 4.22060E+01 0.00000E+00
 -1      2367 1.35900E+02 4.35050E+01 0.00000E+00
 -1      2368 1.37400E+02 4.35050E+01 0.00000E+00
 -1      2369 1.35150E+02 4.22060E+01 0.00000E+00
 -1      2370 1.38900E+02 4.35050E+01 0.00000E+00
 -1      2371 1.40400E+02 4.35050E+01 0.00000E+00
 -1      2372 1.38150E+02 4.22060E+01 0.00000E+00
 -1      2373 1.97850E+01 5.30525E+00 0.00000E+00
 -1      2374 1.82850E+01 5.30525E+00 0.00000E+00
 -1      2375 2.27850E+01 5.30525E+00 0.00000E+00
 -1      2376 2.12850E+01 5.30525E+00 0.00000E+00
 -1      2377 2.05350E+01 6.60425E+00 0.00000E+00
 -1      2378 2.57850E+01 5.30525E+00 0.00000E+00
 -1      2379 2.42850E+01 5.30525E+00 0.00000E+00
 -1      2380 2.35350E+01 6.60425E+00 0.00000E+00
 -1      2381 2.87850E+01 5.30525E+00 0.00000E+00
 -1      2382 2.72850E+01 5.30525E+00 0.00000E+00
 -1      2383 2.65350E+01 6.60425E+00 0.00000E+00
 -1      2384 3.17850E+01 5.30525E+00 0.00000E+00
 -1      2385 3.02850E+01 5.30525E+00 0.00000E+00
 -1      2386 2.95350E+01 6.60425E+00 0.00000E+00
 -1      2387 3.47850E+01 5.30525E+00 0.00000E+00
 -1      2388 3.32850E+01 5.30525E+00 0.00000E+00
 -1      2389 3.25350E+01 6.60425E+00 0.00000E+00
 -1      2390 3.77850E+01 5.30525E+00 0.00000E+00
 -1      2391 3.62850E+01 5.30525E+00 0.00000E+00
 -1      2392 3.55350E+01 6.60425E+00 0.00000E+00
 -1      2393 4.07850E+01 5.30525E+00 0.00000E+00
 -1      2394 3.92850E+01 5.30525E+00 0.00000E+00
 -1      2395 3.85350E+01 6.60425E+00 0.00000E+00
 -1      2396 4.37850E+01 5.30525E+00 0.00000E+00
 -1      2397 4.22850E+01 5.30525E+00 0.00000E+00
 -1      2398 4.15350E+01 6.60425E+00 0.00000E+00
 -1      2399 4.67850E+01 5.30525E+00 0.00000E+00
 -1      2400 4.52850E+01 5.30525E+00 0.00000E+00
 -1      2401 4.45350E+01 6.60425E+00 0.00000E+00
 -1      2402 4.97850E+01 5.30525E+00 0.00000E+00
 -1      2403 4.82850E+01 5.30525E+00 0.00000E+00
 -1      2404 4.75350E+01 6.60425E+00 0.00000E+00
 -1      2405 5.27850E+01 5.30525E+00 0.00000E+00
 -1      2406 5.12850E+01 5.30525E+00 0.00000E+00
 -1      2407 5.05350E+01 6.60425E+00 0.00000E+00
 -1      2408 5.57850E+01 5.30525E+00 0.00000E+00
 -1      2409 5.42850E+01 5.30525E+00 0.00000E+00
 -1      2410 5.35350E+01 6.60425E+00 0.00000E+00
 -1      2411 5.87850E+01 5.30525E+00 0.00000E+00
 -1      2412 5.72850E+01 5.30525E+00 0.00000E+00
 -1      2413 5.65350E+01 6.60425E+00 0.00000E+00
 -1      2414 6.17850E+01 5.30525E+00 0.00000E+00
 -1      2415 6.02850E+01 5.30525E+00 0.00000E+00
 -1      2416 5.95350E+01 6.60425E+00 0.00000E+00
 -1      2417 6.47850E+01 5.30525E+00 0.00000E+00
 -1      2418 6.32850E+01 5.30525E+00 0.00000E+00
 -1      2419 6.25350E+01 6.60425E+00 0.00000E+00
 -1      2420 6.77850E+01 5.30525E+00 0.00000E+00
 -1      2421 6.62850E+01 5.30525E+00 0.00000E+00
 -1      2422 6.55350E+01 6.60425E+00 0.00000E+00
 -1      2423 7.07850E+01 5.30525E+00 0.00000E+00
 -1      2424 6.92850E+01 5.30525E+00 0.00000E+00
 -1      2425 6.85350E+01 6.60425E+00 0.00000E+00
 -1      2426 7.37850E+01 5.30525E+00 0.00000E+00
 -1      2427 7.22850E+01 5.30525E+00 0.00000E+00
 -1      2428 7.15350E+01 6.60425E+00 0.00000E+00
 -1      2429 7.67850E+01 5.30525E+00 0.00000E+00
 -1      2430 7.52850E+01 5.30525E+00 0.00000E+00
 -1      2431 7.45350E+01 6.60425E+00 0.00000E+00
 -1      2432 7.97850E+01 5.30525E+00 0.00000E+00
 -1      2433 7.82850E+01 5.30525E+00 0.00000E+00
 -1      2434 7.75350E+01 6.60425E+00 0.00000E+00
 -1      2435 8.27850E+01 5.30525E+00 0.00000E+00
 -1      2436 8.12850E+01 5.30525E+00 0.00000E+00
 -1      2437 8.05350E+01 6.60425E+00 0.00000E+00
 -1      2438 8.57850E+01 5.30525E+00 0.00000E+00
 -1      2439 8.42850E+01 5.30525E+00 0.00000E+00
 -1      2440 8.35350E+01 6.60425E+00 0.00000E+00
 -1      2441 8.87850E+01 5.30525E+00 0.00000E+00
 -1      2442 8.72850E+01 5.30525E+00 0.00000E+00
 -1      2443 8.65350E+01 6.60425E+00 0.00000E+00
 -1      2444 9.17850E+01 5.30525E+00 0.00000E+00
 -1      2445 9.02850E+01 5.30525E+00 0.00000E+00
 -1      2446 8.95350E+01 6.60425E+00 0.00000E+00
 -1      2447 9.47850E+01 5.30525E+00 0.00000E+00
 -1      2448 9.32850E+01 5.30525E+00 0.00000E+00
 -1      2449 9.25350E+01 6.60425E+00 0.00000E+00
 -1      2450 9.77850E+01 5.30525E+00 0.00000E+00
 -1      2451 9.62850E+01 5.30525E+00 0.00000E+00
 -1      2452 9.55350E+01 6.60425E+00 0.00000E+00
 -1      2453 1.00785E+02 5.30525E+00 0.00000E+00
 -1      2454 9.92850E+01 5.30525E+00 0.00000E+00
 -1      2455 9.85350E+01 6.60425E+00 0.00000E+00
 -1      2456 1.03785E+02 5.30525E+00 0.00000E+00
 -1      2457 1.02285E+02 5.30525E+00 0.00000E+00
 -1      2458 1.01535E+02 6.60425E+00 0.00000E+00
 -1      2459 1.06785E+02 5.30525E+00 0.00000E+00
 -1      2460 1.05285E+02 5.30525E+00 0.00000E+00
 -1      2461 1.04535E+02 6.60425E+00 0.00000E+00
 -1      2462 1.09785E+02 5.30525E+00 0.00000E+00
 -1      2463 1.08285E+02 5.30525E+00 0.00000E+00
 -1      2464 1.07535E+02 6.60425E+00 0.00000E+00
 -1      2465 1.12785E+02 5.30525E+00 0.00000E+00
 -1      2466 1.11285E+02 5.30525E+00 0.00000E+00
 -1      2467 1.10535E+02 6.60425E+00 0.00000E+00
 -1      2468 1.15785E+02 5.30525E+00 0.00000E+00
 -1      2469 1.14285E+02 5.30525E+00 0.00000E+00
 -1      2470 1.13535E+02 6.60425E+00 0.00000E+00
 -1      2471 1.18785E+02 5.30525E+00 0.00000E+00
 -1      2472 1.17285E+02 5.30525E+00 0.00000E+00
 -1      2473 1.16535E+02 6.60425E+00 0.00000E+00
 -1      2474 1.21785E+02 5.30525E+00 0.00000E+00
 -1      2475 1.20285E+02 5.30525E+00 0.00000E+00
 -1      2476 1.19535E+02 6.60425E+00 0.00000E+00
 -1      2477 1.24785E+02 5.30525E+00 0.00000E+00
 -1      2478 1.23285E+02 5.30525E+00 0.00000E+00
 -1      2479 1.22535E+02 6.60425E+00 0.00000E+00
 -1      2480 1.27785E+02 5.30525E+00 0.00000E+00
 -1      2481 1.26285E+02 5.30525E+00 0.00000E+00
 -1      2482 1.25535E+02 6.60425E+00 0.00000E+00
 -1      2483 1.30785E+02 5.30525E+00 0.00000E+00
 -1      2484 1.29285E+02 5.30525E+00 0.00000E+00
 -1      2485 1.28535E+02 6.60425E+00 0.00000E+00
 -1      2486 1.33785E+02 5.30525E+00 0.00000E+00
 -1      2487 1.32285E+02 5.30525E+00 0.00000E+00
 -1      2488 1.31535E+02 6.60425E+00 0.00000E+00
 -1      2489 1.36785E+02 5.30525E+00 0.00000E+00
 -1      2490 1.35285E+02 5.30525E+00 0.00000E+00
 -1      2491 1.34535E+02 6.60425E+00 0.00000E+00
 -1      2492 1.39785E+02 5.30525E+00 0.00000E+00
 -1      2493 1.38285E+02 5.30525E+00 0.00000E+00
 -1      2494 1.37535E+02 6.60425E+00 0.00000E+00
 -1      2495 1.42785E+02 5.30525E+00 0.00000E+00
 -1      2496 1.41285E+02 5.30525E+00 0.00000E+00
 -1      2497 1.40535E+02 6.60425E+00 0.00000E+00
 -1      2498 1.44336E+02 5.26953E+00 0.00000E+00
 -1      2499 1.43505E+02 1.69125E+01 0.00000E+00
 -1      2500 1.43505E+02 1.54375E+01 0.00000E+00
 -1      2501 1.43505E+02 1.98625E+01 0.00000E+00
 -1      2502 1.43505E+02 1.83875E+01 0.00000E+00
 -1      2503 1.42206E+02 1.76500E+01 0.00000E+00
 -1      2504 1.43505E+02 1.10625E+01 0.00000E+00
 -1      2505 1.43505E+02 9.58750E+00 0.00000E+00
 -1      2506 1.43505E+02 1.39750E+01 0.00000E+00
 -1      2507 1.43505E+02 1.25250E+01 0.00000E+00
 -1      2508 1.42206E+02 1.17875E+01 0.00000E+00
 -1      2509 1.42206E+02 1.47125E+01 0.00000E+00
 -1      2510 1.43505E+02 2.28125E+01 0.00000E+00
 -1      2511 1.43505E+02 2.13375E+01 0.00000E+00
 -1      2512 1.42206E+02 2.06000E+01 0.00000E+00
 -1      2513 1.43505E+02 2.57625E+01 0.00000E+00
 -1      2514 1.43505E+02 2.42875E+01 0.00000E+00
 -1      2515 1.42206E+02 2.35500E+01 0.00000E+00
 -1      2516 1.43505E+02 2.87125E+01 0.00000E+00
 -1      2517 1.43505E+02 2.72375E+01 0.00000E+00
 -1      2518 1.42206E+02 2.65000E+01 0.00000E+00
 -1      2519 1.43505E+02 3.16125E+01 0.00000E+00
 -1      2520 1.43505E+02 3.01625E+01 0.00000E+00
 -1      2521 1.42206E+02 2.94250E+01 0.00000E+00
 -1      2522 1.43505E+02 3.45625E+01 0.00000E+00
 -1      2523 1.43505E+02 3.30875E+01 0.00000E+00
 -1      2524 1.42206E+02 3.23500E+01 0.00000E+00
 -1      2525 1.43505E+02 3.75125E+01 0.00000E+00
 -1      2526 1.43505E+02 3.60375E+01 0.00000E+00
 -1      2527 1.42206E+02 3.53000E+01 0.00000E+00
 -1      2528 1.43505E+02 4.04625E+01 0.00000E+00
 -1      2529 1.43505E+02 3.89875E+01 0.00000E+00
 -1      2530 1.42206E+02 3.82500E+01 0.00000E+00
 -1      2531 1.36519E+02 2.72557E+01 0.00000E+00
 -1      2532 1.36389E+02 2.83511E+01 0.00000E+00
 -1      2533 1.34250E+02 2.24613E+01 0.00000E+00
 -1      2534 1.34925E+02 2.33465E+01 0.00000E+00
 -1      2535 1.67850E+01 5.30525E+00 0.00000E+00
 -1      2536 1.52850E+01 5.30525E+00 0.00000E+00
 -1      2537 1.75350E+01 6.60425E+00 0.00000E+00
 -1      2538 1.44321E+02 4.30606E+01 0.00000E+00
 -1      2539 1.32843E+02 2.09370E+01 0.00000E+00
 -1      2540 1.33519E+02 2.15739E+01 0.00000E+00
 -1      2541 1.34472E+02 2.15474E+01 0.00000E+00
 -1      2542 1.33011E+02 1.97725E+01 0.00000E+00
 -1      2543 1.36294E+02 2.92083E+01 0.00000E+00
 -1      2544 1.36198E+02 3.00655E+01 0.00000E+00
 -1      2545 1.37294E+02 2.87716E+01 0.00000E+00
 -1      2546 1.22492E+02 3.85113E+01 0.00000E+00
 -1      2547 1.21474E+02 3.82280E+01 0.00000E+00
 -1      2548 1.15506E+02 2.57676E+01 0.00000E+00
 -1      2549 1.15901E+02 2.46317E+01 0.00000E+00
 -1      2550 1.26356E+02 1.80445E+01 0.00000E+00
 -1      2551 1.27318E+02 1.81972E+01 0.00000E+00
 -1      2552 6.49500E+00 2.71625E+01 0.00000E+00
 -1      2553 6.49500E+00 2.86375E+01 0.00000E+00
 -1      2554 7.79400E+00 2.93750E+01 0.00000E+00
 -1      2555 7.79400E+00 2.64250E+01 0.00000E+00
 -1      2556 1.17970E+02 2.20570E+01 0.00000E+00
 -1      2557 1.18503E+02 2.12436E+01 0.00000E+00
 -1      2558 1.21803E+02 1.92717E+01 0.00000E+00
 -1      2559 1.22661E+02 1.89739E+01 0.00000E+00
 -1      2560 1.16225E+02 3.24273E+01 0.00000E+00
 -1      2561 1.15933E+02 3.14783E+01 0.00000E+00
 -1      2562 1.16651E+02 2.35472E+01 0.00000E+00
 -1      2563 1.17311E+02 2.28021E+01 0.00000E+00
 -1      2564 1.16895E+02 2.19484E+01 0.00000E+00
 -1      2565 1.15295E+02 2.79451E+01 0.00000E+00
 -1      2566 1.15380E+02 2.70433E+01 0.00000E+00
 -1      2567 1.28989E+02 3.87377E+01 0.00000E+00
 -1      2568 1.28157E+02 3.91550E+01 0.00000E+00
 -1      2569 1.15628E+02 3.03357E+01 0.00000E+00
 -1      2570 1.15438E+02 2.91797E+01 0.00000E+00
 -1      2571 1.17161E+02 3.44574E+01 0.00000E+00
 -1      2572 1.16615E+02 3.35782E+01 0.00000E+00
 -1      2573 1.18509E+02 3.60069E+01 0.00000E+00
 -1      2574 1.17891E+02 3.53068E+01 0.00000E+00
 -1      2575 1.20202E+02 3.75904E+01 0.00000E+00
 -1      2576 1.19315E+02 3.68424E+01 0.00000E+00
 -1      2577 1.24362E+02 3.88411E+01 0.00000E+00
 -1      2578 1.23513E+02 3.87000E+01 0.00000E+00
 -1      2579 1.26586E+02 3.93188E+01 0.00000E+00
 -1      2580 1.25399E+02 3.91900E+01 0.00000E+00
 -1      2581 1.30750E+02 3.79968E+01 0.00000E+00
 -1      2582 1.29870E+02 3.83673E+01 0.00000E+00
 -1      2583 1.29913E+02 3.94923E+01 0.00000E+00
 -1      2584 1.32403E+02 3.69702E+01 0.00000E+00
 -1      2585 1.31576E+02 3.74835E+01 0.00000E+00
 -1      2586 1.31620E+02 3.86085E+01 0.00000E+00
 -1      2587 1.33858E+02 3.50889E+01 0.00000E+00
 -1      2588 1.33309E+02 3.58983E+01 0.00000E+00
 -1      2589 1.34851E+02 3.35170E+01 0.00000E+00
 -1      2590 1.34355E+02 3.43029E+01 0.00000E+00
 -1      2591 1.34755E+02 3.51656E+01 0.00000E+00
 -1      2592 6.55950E+00 4.28890E+01 0.00000E+00
 -1      2593 8.53650E+00 4.32410E+01 0.00000E+00
 -1      2594 9.28650E+00 4.19420E+01 0.00000E+00
 -1      2595 6.55950E+00 4.14140E+01 0.00000E+00
 -1      2596 8.07525E+00 5.11044E+00 0.00000E+00
 -1      2597 6.57525E+00 5.11044E+00 0.00000E+00
 -1      2598 6.40575E+00 6.01981E+00 0.00000E+00
 -1      2599 8.82525E+00 6.40944E+00 0.00000E+00
 -1      2600 1.35570E+02 2.45546E+01 0.00000E+00
 -1      2601 1.36072E+02 2.57240E+01 0.00000E+00
 -1      2602 1.17752E+02 2.04297E+01 0.00000E+00
 -1      2603 1.18701E+02 2.04701E+01 0.00000E+00
 -1      2604 1.18898E+02 1.96965E+01 0.00000E+00
 -1      2605 7.79400E+00 3.52687E+01 0.00000E+00
 -1      2606 6.49500E+00 3.60062E+01 0.00000E+00
 -1      2607 6.49500E+00 3.74750E+01 0.00000E+00
 -1      2608 1.45350E+01 6.60425E+00 0.00000E+00
 -1      2609 6.40575E+00 7.49481E+00 0.00000E+00
 -1      2610 1.35848E+02 2.36429E+01 0.00000E+00
 -1      2611 1.36772E+02 2.39392E+01 0.00000E+00
 -1      2612 1.36126E+02 2.27312E+01 0.00000E+00
 -1      2613 6.52725E+00 3.87101E+01 0.00000E+00
 -1      2614 6.52725E+00 4.01789E+01 0.00000E+00
 -1      2615 7.89075E+00 4.04429E+01 0.00000E+00
 -1      2616 7.82625E+00 3.79726E+01 0.00000E+00
 -1      2617 1.28132E+02 1.77725E+01 0.00000E+00
 -1      2618 1.36549E+02 3.07665E+01 0.00000E+00
 -1      2619 1.35576E+02 3.31419E+01 0.00000E+00
 -1      2620 1.35977E+02 3.40045E+01 0.00000E+00
 -1      2621 1.36301E+02 3.27668E+01 0.00000E+00
 -1      2622 1.33352E+02 3.70234E+01 0.00000E+00
 -1      2623 1.43586E+02 6.56853E+00 0.00000E+00
 -1      2624 1.43419E+02 7.72713E+00 0.00000E+00
 -1      2625 1.20806E+02 3.93647E+01 0.00000E+00
 -1      2626 1.20504E+02 3.84775E+01 0.00000E+00
 -1      2627 1.19535E+02 3.87271E+01 0.00000E+00
 -1      2628 1.36941E+02 2.63827E+01 0.00000E+00
 -1      2629 1.37811E+02 2.70413E+01 0.00000E+00
 -1      2630 1.37363E+02 2.55096E+01 0.00000E+00
 -1      2631 1.24854E+02 3.98414E+01 0.00000E+00
 -1      2632 7.70475E+00 8.23231E+00 0.00000E+00
 -1      2633 1.25686E+02 1.76112E+01 0.00000E+00
 -1      2634 1.26327E+02 1.66751E+01 0.00000E+00
 -1      2635 1.25015E+02 1.71778E+01 0.00000E+00
 -1      2636 1.30349E+02 1.79759E+01 0.00000E+00
 -1      2637 1.30773E+02 1.86608E+01 0.00000E+00
 -1      2638 1.31856E+02 1.82002E+01 0.00000E+00
 -1      2639 1.14609E+02 2.61382E+01 0.00000E+00
 -1      2640 1.22797E+02 3.93038E+01 0.00000E+00
 -1      2641 1.18426E+02 3.70044E+01 0.00000E+00
 -1      2642 1.16889E+02 3.53194E+01 0.00000E+00
 -1      2643 1.15074E+02 3.10257E+01 0.00000E+00
 -1      2644 1.15485E+02 2.37780E+01 0.00000E+00
 -1      2645 1.15769E+02 3.33192E+01 0.00000E+00
 -1      2646 1.20919E+02 1.90842E+01 0.00000E+00
 -1      2647 1.21108E+02 1.82439E+01 0.00000E+00
 -1      2648 1.20036E+02 1.88966E+01 0.00000E+00
 -1      2649 1.23182E+02 1.82727E+01 0.00000E+00
 -1      2650 1.14626E+02 2.86485E+01 0.00000E+00
 -1      2651 1.42758E+02 4.35929E+01 0.00000E+00
 -1      2652 1.43241E+02 4.17323E+01 0.00000E+00
 -1      2653 1.41942E+02 4.09948E+01 0.00000E+00
 -1      2654 1.41414E+02 4.35342E+01 0.00000E+00
 -1      2655 1.42120E+02 8.46463E+00 0.00000E+00
 -1      2656 1.40664E+02 4.22352E+01 0.00000E+00
 -1      2657 9.09300E+00 1.98250E+01 0.00000E+00
 -1      2658 9.09300E+00 2.12750E+01 0.00000E+00
 -1      2659 9.09300E+00 2.27500E+01 0.00000E+00
 -1      2660 9.09300E+00 2.42250E+01 0.00000E+00
 -1      2661 1.03920E+01 2.20250E+01 0.00000E+00
 -1      2662 9.09300E+00 1.39375E+01 0.00000E+00
 -1      2663 9.09300E+00 1.54125E+01 0.00000E+00
 -1      2664 9.09300E+00 1.09875E+01 0.00000E+00
 -1      2665 9.09300E+00 1.24625E+01 0.00000E+00
 -1      2666 1.03920E+01 1.32000E+01 0.00000E+00
 -1      2667 1.22850E+01 7.90325E+00 0.00000E+00
 -1      2668 1.07850E+01 7.90325E+00 0.00000E+00
 -1      2669 8.91450E+00 8.42712E+00 0.00000E+00
 -1      2670 1.44000E+01 4.09070E+01 0.00000E+00
 -1      2671 1.59000E+01 4.09070E+01 0.00000E+00
 -1      2672 1.74000E+01 4.09070E+01 0.00000E+00
 -1      2673 1.89000E+01 4.09070E+01 0.00000E+00
 -1      2674 1.66500E+01 3.96080E+01 0.00000E+00
 -1      2675 2.04000E+01 4.09070E+01 0.00000E+00
 -1      2676 2.19000E+01 4.09070E+01 0.00000E+00
 -1      2677 1.96500E+01 3.96080E+01 0.00000E+00
 -1      2678 2.34000E+01 4.09070E+01 0.00000E+00
 -1      2679 2.49000E+01 4.09070E+01 0.00000E+00
 -1      2680 2.26500E+01 3.96080E+01 0.00000E+00
 -1      2681 2.64000E+01 4.09070E+01 0.00000E+00
 -1      2682 2.79000E+01 4.09070E+01 0.00000E+00
 -1      2683 2.56500E+01 3.96080E+01 0.00000E+00
 -1      2684 2.94000E+01 4.09070E+01 0.00000E+00
 -1      2685 3.09000E+01 4.09070E+01 0.00000E+00
 -1      2686 2.86500E+01 3.96080E+01 0.00000E+00
 -1      2687 3.24000E+01 4.09070E+01 0.00000E+00
 -1      2688 3.39000E+01 4.09070E+01 0.00000E+00
 -1      2689 3.16500E+01 3.96080E+01 0.00000E+00
 -1      2690 3.54000E+01 4.09070E+01 0.00000E+00
 -1      2691 3.69000E+01 4.09070E+01 0.00000E+00
 -1      2692 3.46500E+01 3.96080E+01 0.00000E+00
 -1      2693 3.84000E+01 4.09070E+01 0.00000E+00
 -1      2694 3.99000E+01 4.09070E+01 0.00000E+00
 -1      2695 3.76500E+01 3.96080E+01 0.00000E+00
 -1      2696 4.14000E+01 4.09070E+01 0.00000E+00
 -1      2697 4.29000E+01 4.09070E+01 0.00000E+00
 -1      2698 4.06500E+01 3.96080E+01 0.00000E+00
 -1      2699 4.44000E+01 4.09070E+01 0.00000E+00
 -1      2700 4.59000E+01 4.09070E+01 0.00000E+00
 -1      2701 4.36500E+01 3.96080E+01 0.00000E+00
 -1      2702 4.74000E+01 4.09070E+01 0.00000E+00
 -1      2703 4.89000E+01 4.09070E+01 0.00000E+00
 -1      2704 4.66500E+01 3.96080E+01 0.00000E+00
 -1      2705 5.04000E+01 4.09070E+01 0.00000E+00
 -1      2706 5.19000E+01 4.09070E+01 0.00000E+00
 -1      2707 4.96500E+01 3.96080E+01 0.00000E+00
 -1      2708 5.34000E+01 4.09070E+01 0.00000E+00
 -1      2709 5.49000E+01 4.09070E+01 0.00000E+00
 -1      2710 5.26500E+01 3.96080E+01 0.00000E+00
 -1      2711 5.64000E+01 4.09070E+01 0.00000E+00
 -1      2712 5.79000E+01 4.09070E+01 0.00000E+00
 -1      2713 5.56500E+01 3.96080E+01 0.00000E+00
 -1      2714 5.94000E+01 4.09070E+01 0.00000E+00
 -1      2715 6.09000E+01 4.09070E+01 0.00000E+00
 -1      2716 5.86500E+01 3.96080E+01 0.00000E+00
 -1      2717 6.24000E+01 4.09070E+01 0.00000E+00
 -1      2718 6.39000E+01 4.09070E+01 0.00000E+00
 -1      2719 6.16500E+01 3.96080E+01 0.00000E+00
 -1      2720 6.54000E+01 4.09070E+01 0.00000E+00
 -1      2721 6.69000E+01 4.09070E+01 0.00000E+00
 -1      2722 6.46500E+01 3.96080E+01 0.00000E+00
 -1      2723 6.84000E+01 4.09070E+01 0.00000E+00
 -1      2724 6.99000E+01 4.09070E+01 0.00000E+00
 -1      2725 6.76500E+01 3.96080E+01 0.00000E+00
 -1      2726 7.14000E+01 4.09070E+01 0.00000E+00
 -1      2727 7.29000E+01 4.09070E+01 0.00000E+00
 -1      2728 7.06500E+01 3.96080E+01 0.00000E+00
 -1      2729 7.44000E+01 4.09070E+01 0.00000E+00
 -1      2730 7.59000E+01 4.09070E+01 0.00000E+00
 -1      2731 7.36500E+01 3.96080E+01 0.00000E+00
 -1      2732 7.74000E+01 4.09070E+01 0.00000E+00
 -1      2733 7.89000E+01 4.09070E+01 0.00000E+00
 -1      2734 7.66500E+01 3.96080E+01 0.00000E+00
 -1      2735 8.04000E+01 4.09070E+01 0.00000E+00
 -1      2736 8.19000E+01 4.09070E+01 0.00000E+00
 -1      2737 7.96500E+01 3.96080E+01 0.00000E+00
 -1      2738 8.34000E+01 4.09070E+01 0.00000E+00
 -1      2739 8.49000E+01 4.09070E+01 0.00000E+00
 -1      2740 8.26500E+01 3.96080E+01 0.00000E+00
 -1      2741 8.64000E+01 4.09070E+01 0.00000E+00
 -1      2742 8.79000E+01 4.09070E+01 0.00000E+00
 -1      2743 8.56500E+01 3.96080E+01 0.00000E+00
 -1      2744 8.94000E+01 4.09070E+01 0.00000E+00
 -1      2745 9.09000E+01 4.09070E+01 0.00000E+00
 -1      2746 8.86500E+01 3.96080E+01 0.00000E+00
 -1      2747 9.24000E+01 4.09070E+01 0.00000E+00
 -1      2748 9.39000E+01 4.09070E+01 0.00000E+00
 -1      2749 9.16500E+01 3.96080E+01 0.00000E+00
 -1      2750 9.54000E+01 4.09070E+01 0.00000E+00
 -1      2751 9.69000E+01 4.09070E+01 0.00000E+00
 -1      2752 9.46500E+01 3.96080E+01 0.00000E+00
 -1      2753 9.84000E+01 4.09070E+01 0.00000E+00
 -1      2754 9.99000E+01 4.09070E+01 0.00000E+00
 -1      2755 9.76500E+01 3.96080E+01 0.00000E+00
 -1      2756 1.01400E+02 4.09070E+01 0.00000E+00
 -1      2757 1.02900E+02 4.09070E+01 0.00000E+00
 -1      2758 1.00650E+02 3.96080E+01 0.00000E+00
 -1      2759 1.04400E+02 4.09070E+01 0.00000E+00
 -1      2760 1.05900E+02 4.09070E+01 0.00000E+00
 -1      2761 1.03650E+02 3.96080E+01 0.00000E+00
 -1      2762 1.07400E+02 4.09070E+01 0.00000E+00
 -1      2763 1.08900E+02 4.09070E+01 0.00000E+00
 -1      2764 1.06650E+02 3.96080E+01 0.00000E+00
 -1      2765 1.10400E+02 4.09070E+01 0.00000E+00
 -1      2766 1.11900E+02 4.09070E+01 0.00000E+00
 -1      2767 1.09650E+02 3.96080E+01 0.00000E+00
 -1      2768 1.13400E+02 4.09070E+01 0.00000E+00
 -1      2769 1.14900E+02 4.09070E+01 0.00000E+00
 -1      2770 1.12650E+02 3.96080E+01 0.00000E+00
 -1      2771 1.19244E+02 4.09101E+01 0.00000E+00
 -1      2772 1.20744E+02 4.09101E+01 0.00000E+00
 -1      2773 1.25271E+02 4.11981E+01 0.00000E+00
 -1      2774 1.26771E+02 4.11981E+01 0.00000E+00
 -1      2775 1.28341E+02 4.10344E+01 0.00000E+00
 -1      2776 1.29841E+02 4.10344E+01 0.00000E+00
 -1      2777 1.34400E+02 4.09070E+01 0.00000E+00
 -1      2778 1.35900E+02 4.09070E+01 0.00000E+00
 -1      2779 1.37400E+02 4.09070E+01 0.00000E+00
 -1      2780 1.38900E+02 4.09070E+01 0.00000E+00
 -1      2781 1.36650E+02 3.96080E+01 0.00000E+00
 -1      2782 2.42850E+01 7.90325E+00 0.00000E+00
 -1      2783 2.27850E+01 7.90325E+00 0.00000E+00
 -1      2784 1.40706E+02 1.03250E+01 0.00000E+00
 -1      2785 1.40620E+02 8.46463E+00 0.00000E+00
 -1      2786 1.39120E+02 8.46463E+00 0.00000E+00
 -1      2787 2.12850E+01 7.90325E+00 0.00000E+00
 -1      2788 1.97850E+01 7.90325E+00 0.00000E+00
 -1      2789 2.20350E+01 9.20225E+00 0.00000E+00
 -1      2790 3.02850E+01 7.90325E+00 0.00000E+00
 -1      2791 2.87850E+01 7.90325E+00 0.00000E+00
 -1      2792 3.32850E+01 7.90325E+00 0.00000E+00
 -1      2793 3.17850E+01 7.90325E+00 0.00000E+00
 -1      2794 3.10350E+01 9.20225E+00 0.00000E+00
 -1      2795 3.62850E+01 7.90325E+00 0.00000E+00
 -1      2796 3.47850E+01 7.90325E+00 0.00000E+00
 -1      2797 3.40350E+01 9.20225E+00 0.00000E+00
 -1      2798 3.92850E+01 7.90325E+00 0.00000E+00
 -1      2799 3.77850E+01 7.90325E+00 0.00000E+00
 -1      2800 3.70350E+01 9.20225E+00 0.00000E+00
 -1      2801 4.22850E+01 7.90325E+00 0.00000E+00
 -1      2802 4.07850E+01 7.90325E+00 0.00000E+00
 -1      2803 4.00350E+01 9.20225E+00 0.00000E+00
 -1      2804 4.52850E+01 7.90325E+00 0.00000E+00
 -1      2805 4.37850E+01 7.90325E+00 0.00000E+00
 -1      2806 4.30350E+01 9.20225E+00 0.00000E+00
 -1      2807 4.82850E+01 7.90325E+00 0.00000E+00
 -1      2808 4.67850E+01 7.90325E+00 0.00000E+00
 -1      2809 4.60350E+01 9.20225E+00 0.00000E+00
 -1      2810 5.12850E+01 7.90325E+00 0.00000E+00
 -1      2811 4.97850E+01 7.90325E+00 0.00000E+00
 -1      2812 4.90350E+01 9.20225E+00 0.00000E+00
 -1      2813 5.42850E+01 7.90325E+00 0.00000E+00
 -1      2814 5.27850E+01 7.90325E+00 0.00000E+00
 -1      2815 5.20350E+01 9.20225E+00 0.00000E+00
 -1      2816 5.72850E+01 7.90325E+00 0.00000E+00
 -1      2817 5.57850E+01 7.90325E+00 0.00000E+00
 -1      2818 5.50350E+01 9.20225E+00 0.00000E+00
 -1      2819 6.02850E+01 7.90325E+00 0.00000E+00
 -1      2820 5.87850E+01 7.90325E+00 0.00000E+00
 -1      2821 5.80350E+01 9.20225E+00 0.00000E+00
 -1      2822 6.32850E+01 7.90325E+00 0.00000E+00
 -1      2823 6.17850E+01 7.90325E+00 0.00000E+00
 -1      2824 6.10350E+01 9.20225E+00 0.00000E+00
 -1      2825 6.62850E+01 7.90325E+00 0.00000E+00
 -1      2826 6.47850E+01 7.90325E+00 0.00000E+00
 -1      2827 6.40350E+01 9.20225E+00 0.00000E+00
 -1      2828 6.92850E+01 7.90325E+00 0.00000E+00
 -1      2829 6.77850E+01 7.90325E+00 0.00000E+00
 -1      2830 6.70350E+01 9.20225E+00 0.00000E+00
 -1      2831 7.22850E+01 7.90325E+00 0.00000E+00
 -1      2832 7.07850E+01 7.90325E+00 0.00000E+00
 -1      2833 7.00350E+01 9.20225E+00 0.00000E+00
 -1      2834 7.52850E+01 7.90325E+00 0.00000E+00
 -1      2835 7.37850E+01 7.90325E+00 0.00000E+00
 -1      2836 7.30350E+01 9.20225E+00 0.00000E+00
 -1      2837 7.82850E+01 7.90325E+00 0.00000E+00
 -1      2838 7.67850E+01 7.90325E+00 0.00000E+00
 -1      2839 7.60350E+01 9.20225E+00 0.00000E+00
 -1      2840 8.12850E+01 7.90325E+00 0.00000E+00
 -1      2841 7.97850E+01 7.90325E+00 0.00000E+00
 -1      2842 7.90350E+01 9.20225E+00 0.00000E+00
 -1      2843 8.42850E+01 7.90325E+00 0.00000E+00
 -1      2844 8.27850E+01 7.90325E+00 0.00000E+00
 -1      2845 8.20350E+01 9.20225E+00 0.00000E+00
 -1      2846 8.72850E+01 7.90325E+00 0.00000E+00
 -1      2847 8.57850E+01 7.90325E+00 0.00000E+00
 -1      2848 8.50350E+01 9.20225E+00 0.00000E+00
 -1      2849 9.02850E+01 7.90325E+00 0.00000E+00
 -1      2850 8.87850E+01 7.90325E+00 0.00000E+00
 -1      2851 8.80350E+01 9.20225E+00 0.00000E+00
 -1      2852 9.32850E+01 7.90325E+00 0.00000E+00
 -1      2853 9.17850E+01 7.90325E+00 0.00000E+00
 -1      2854 9.10350E+01 9.20225E+00 0.00000E+00
 -1      2855 9.62850E+01 7.90325E+00 0.00000E+00
 -1      2856 9.47850E+01 7.90325E+00 0.00000E+00
 -1      2857 9.40350E+01 9.20225E+00 0.00000E+00
 -1      2858 9.92850E+01 7.90325E+00 0.00000E+00
 -1      2859 9.77850E+01 7.90325E+00 0.00000E+00
 -1      2860 9.70350E+01 9.20225E+00 0.00000E+00
 -1      2861 1.02285E+02 7.90325E+00 0.00000E+00
 -1      2862 1.00785E+02 7.90325E+00 0.00000E+00
 -1      2863 1.00035E+02 9.20225E+00 0.00000E+00
 -1      2864 1.05285E+02 7.90325E+00 0.00000E+00
 -1      2865 1.03785E+02 7.90325E+00 0.00000E+00
 -1      2866 1.03035E+02 9.20225E+00 0.00000E+00
 -1      2867 1.08285E+02 7.90325E+00 0.00000E+00
 -1      2868 1.06785E+02 7.90325E+00 0.00000E+00
 -1      2869 1.06035E+02 9.20225E+00 0.00000E+00
 -1      2870 1.11285E+02 7.90325E+00 0.00000E+00
 -1      2871 1.09785E+02 7.90325E+00 0.00000E+00
 -1      2872 1.09035E+02 9.20225E+00 0.00000E+00
 -1      2873 1.14285E+02 7.90325E+00 0.00000E+00
 -1      2874 1.12785E+02 7.90325E+00 0.00000E+00
 -1      2875 1.12035E+02 9.20225E+00 0.00000E+00
 -1      2876 1.17285E+02 7.90325E+00 0.00000E+00
 -1      2877 1.15785E+02 7.90325E+00 0.00000E+00
 -1      2878 1.15035E+02 9.20225E+00 0.00000E+00
 -1      2879 1.20285E+02 7.90325E+00 0.00000E+00
 -1      2880 1.18785E+02 7.90325E+00 0.00000E+00
 -1      2881 1.18035E+02 9.20225E+00 0.00000E+00
 -1      2882 1.23285E+02 7.90325E+00 0.00000E+00
 -1      2883 1.21785E+02 7.90325E+00 0.00000E+00
 -1      2884 1.21035E+02 9.20225E+00 0.00000E+00
 -1      2885 1.26285E+02 7.90325E+00 0.00000E+00
 -1      2886 1.24785E+02 7.90325E+00 0.00000E+00
 -1      2887 1.24035E+02 9.20225E+00 0.00000E+00
 -1      2888 1.29285E+02 7.90325E+00 0.00000E+00
 -1      2889 1.27785E+02 7.90325E+00 0.00000E+00
 -1      2890 1.27035E+02 9.20225E+00 0.00000E+00
 -1      2891 1.32285E+02 7.90325E+00 0.00000E+00
 -1      2892 1.30785E+02 7.90325E+00 0.00000E+00
 -1      2893 1.30035E+02 9.20225E+00 0.00000E+00
 -1      2894 1.35285E+02 7.90325E+00 0.00000E+00
 -1      2895 1.33785E+02 7.90325E+00 0.00000E+00
 -1      2896 1.33035E+02 9.20225E+00 0.00000E+00
 -1      2897 1.37953E+02 8.18394E+00 0.00000E+00
 -1      2898 1.36453E+02 8.18394E+00 0.00000E+00
 -1      2899 1.35703E+02 9.48294E+00 0.00000E+00
 -1      2900 1.38038E+02 1.00443E+01 0.00000E+00
 -1      2901 1.41097E+02 2.42875E+01 0.00000E+00
 -1      2902 1.41097E+02 2.28125E+01 0.00000E+00
 -1      2903 1.39914E+02 4.09362E+01 0.00000E+00
 -1      2904 1.40928E+02 4.09655E+01 0.00000E+00
 -1      2905 1.39164E+02 3.96372E+01 0.00000E+00
 -1      2906 1.40907E+02 1.83875E+01 0.00000E+00
 -1      2907 1.40907E+02 1.69125E+01 0.00000E+00
 -1      2908 1.41013E+02 2.72375E+01 0.00000E+00
 -1      2909 1.41013E+02 2.57625E+01 0.00000E+00
 -1      2910 1.40907E+02 2.13375E+01 0.00000E+00
 -1      2911 1.40907E+02 1.98625E+01 0.00000E+00
 -1      2912 1.39608E+02 1.91250E+01 0.00000E+00
 -1      2913 1.38277E+02 2.84472E+01 0.00000E+00
 -1      2914 1.38181E+02 2.93045E+01 0.00000E+00
 -1      2915 1.27462E+02 4.00265E+01 0.00000E+00
 -1      2916 1.40685E+02 2.99276E+01 0.00000E+00
 -1      2917 1.40685E+02 2.84776E+01 0.00000E+00
 -1      2918 1.41097E+02 3.60375E+01 0.00000E+00
 -1      2919 1.41097E+02 3.45625E+01 0.00000E+00
 -1      2920 1.34460E+02 3.70411E+01 0.00000E+00
 -1      2921 1.33554E+02 3.81129E+01 0.00000E+00
 -1      2922 1.32574E+02 3.92226E+01 0.00000E+00
 -1      2923 1.31748E+02 3.97359E+01 0.00000E+00
 -1      2924 1.15073E+02 3.41966E+01 0.00000E+00
 -1      2925 1.14683E+02 3.30458E+01 0.00000E+00
 -1      2926 1.82850E+01 7.90325E+00 0.00000E+00
 -1      2927 1.67850E+01 7.90325E+00 0.00000E+00
 -1      2928 1.90350E+01 9.20225E+00 0.00000E+00
 -1      2929 2.72850E+01 7.90325E+00 0.00000E+00
 -1      2930 2.57850E+01 7.90325E+00 0.00000E+00
 -1      2931 2.50350E+01 9.20225E+00 0.00000E+00
 -1      2932 2.80350E+01 9.20225E+00 0.00000E+00
 -1      2933 1.37764E+02 3.07054E+01 0.00000E+00
 -1      2934 1.37116E+02 3.18430E+01 0.00000E+00
 -1      2935 1.14000E+01 4.09070E+01 0.00000E+00
 -1      2936 1.29000E+01 4.09070E+01 0.00000E+00
 -1      2937 1.36500E+01 3.96080E+01 0.00000E+00
 -1      2938 1.28041E+02 1.66281E+01 0.00000E+00
 -1      2939 1.29175E+02 1.72921E+01 0.00000E+00
 -1      2940 1.13610E+02 2.66837E+01 0.00000E+00
 -1      2941 1.13736E+02 2.54080E+01 0.00000E+00
 -1      2942 1.52850E+01 7.90325E+00 0.00000E+00
 -1      2943 1.37850E+01 7.90325E+00 0.00000E+00
 -1      2944 1.30350E+01 9.20225E+00 0.00000E+00
 -1      2945 1.60350E+01 9.20225E+00 0.00000E+00
 -1      2946 1.24234E+02 4.08493E+01 0.00000E+00
 -1      2947 9.09300E+00 1.68813E+01 0.00000E+00
 -1      2948 9.09300E+00 1.83563E+01 0.00000E+00
 -1      2949 1.03920E+01 1.90812E+01 0.00000E+00
 -1      2950 1.03920E+01 1.61437E+01 0.00000E+00
 -1      2951 1.13887E+02 2.93595E+01 0.00000E+00
 -1      2952 1.13745E+02 2.81250E+01 0.00000E+00
 -1      2953 1.14336E+02 2.37847E+01 0.00000E+00
 -1      2954 1.15086E+02 2.27002E+01 0.00000E+00
 -1      2955 9.09300E+00 3.15875E+01 0.00000E+00
 -1      2956 9.09300E+00 3.30625E+01 0.00000E+00
 -1      2957 1.15735E+02 2.15861E+01 0.00000E+00
 -1      2958 1.16394E+02 2.08410E+01 0.00000E+00
 -1      2959 1.22463E+02 1.74190E+01 0.00000E+00
 -1      2960 1.23653E+02 1.72602E+01 0.00000E+00
 -1      2961 1.41192E+02 3.96958E+01 0.00000E+00
 -1      2962 1.14378E+02 3.19031E+01 0.00000E+00
 -1      2963 1.14072E+02 3.07605E+01 0.00000E+00
 -1      2964 1.13681E+02 3.27806E+01 0.00000E+00
 -1      2965 1.16477E+02 3.64124E+01 0.00000E+00
 -1      2966 1.15747E+02 3.55630E+01 0.00000E+00
 -1      2967 1.18090E+02 3.80835E+01 0.00000E+00
 -1      2968 1.17284E+02 3.72479E+01 0.00000E+00
 -1      2969 1.16141E+02 3.74915E+01 0.00000E+00
 -1      2970 1.30722E+02 4.06639E+01 0.00000E+00
 -1      2971 8.96362E+00 4.05429E+01 0.00000E+00
 -1      2972 1.03271E+01 4.08069E+01 0.00000E+00
 -1      2973 1.10771E+01 3.95079E+01 0.00000E+00
 -1      2974 8.93137E+00 3.93078E+01 0.00000E+00
 -1      2975 1.35728E+02 3.52307E+01 0.00000E+00
 -1      2976 1.35232E+02 3.60166E+01 0.00000E+00
 -1      2977 9.09300E+00 3.45313E+01 0.00000E+00
 -1      2978 9.09300E+00 3.60000E+01 0.00000E+00
 -1      2979 1.03920E+01 3.37938E+01 0.00000E+00
 -1      2980 1.03920E+01 2.49750E+01 0.00000E+00
 -1      2981 9.09300E+00 2.57000E+01 0.00000E+00
 -1      2982 9.09300E+00 2.71750E+01 0.00000E+00
 -1      2983 9.66450E+00 9.72612E+00 0.00000E+00
 -1      2984 1.26699E+02 1.57615E+01 0.00000E+00
 -1      2985 1.27370E+02 1.61948E+01 0.00000E+00
 -1      2986 1.28413E+02 1.57145E+01 0.00000E+00
 -1      2987 1.35927E+02 2.17665E+01 0.00000E+00
 -1      2988 1.36850E+02 2.20628E+01 0.00000E+00
 -1      2989 1.30257E+02 1.68316E+01 0.00000E+00
 -1      2990 1.37516E+02 3.27057E+01 0.00000E+00
 -1      2991 1.12871E+02 2.73947E+01 0.00000E+00
 -1      2992 1.35196E+02 2.08790E+01 0.00000E+00
 -1      2993 1.15549E+02 3.89675E+01 0.00000E+00
 -1      2994 1.16299E+02 4.02665E+01 0.00000E+00
 -1      2995 1.17799E+02 4.02665E+01 0.00000E+00
 -1      2996 1.31676E+02 4.12780E+01 0.00000E+00
 -1      2997 1.33176E+02 4.12780E+01 0.00000E+00
 -1      2998 1.39608E+02 1.61875E+01 0.00000E+00
 -1      2999 1.40907E+02 1.54500E+01 0.00000E+00
 -1      3000 1.40907E+02 1.39875E+01 0.00000E+00
 -1      3001 1.38748E+02 3.03810E+01 0.00000E+00
 -1      3002 1.39798E+02 2.20750E+01 0.00000E+00
 -1      3003 1.39904E+02 2.50250E+01 0.00000E+00
 -1      3004 1.14660E+02 3.52896E+01 0.00000E+00
 -1      3005 1.13191E+02 3.02369E+01 0.00000E+00
 -1      3006 1.40706E+02 1.17875E+01 0.00000E+00
 -1      3007 1.38605E+02 2.72072E+01 0.00000E+00
 -1      3008 1.39493E+02 2.77401E+01 0.00000E+00
 -1      3009 1.21713E+02 4.06606E+01 0.00000E+00
 -1      3010 1.40268E+02 3.13285E+01 0.00000E+00
 -1      3011 1.39159E+02 3.35410E+01 0.00000E+00
 -1      3012 1.40268E+02 3.28035E+01 0.00000E+00
 -1      3013 1.33682E+02 3.92404E+01 0.00000E+00
 -1      3014 1.41192E+02 3.82207E+01 0.00000E+00
 -1      3015 1.09635E+01 1.04636E+01 0.00000E+00
 -1      3016 1.39624E+02 3.85602E+01 0.00000E+00
 -1      3017 1.40638E+02 3.71145E+01 0.00000E+00
 -1      3018 1.39529E+02 3.63770E+01 0.00000E+00
 -1      3019 1.38610E+02 3.85310E+01 0.00000E+00
 -1      3020 1.35433E+02 3.71062E+01 0.00000E+00
 -1      3021 1.36453E+02 3.48556E+01 0.00000E+00
 -1      3022 1.24295E+02 1.63242E+01 0.00000E+00
 -1      3023 1.33372E+02 1.87304E+01 0.00000E+00
 -1      3024 1.34103E+02 1.96179E+01 0.00000E+00
 -1      3025 1.33926E+02 3.99790E+01 0.00000E+00
 -1      3026 1.19087E+02 1.88562E+01 0.00000E+00
 -1      3027 1.19276E+02 1.80160E+01 0.00000E+00
 -1      3028 1.18138E+02 1.88159E+01 0.00000E+00
 -1      3029 1.12337E+02 2.48756E+01 0.00000E+00
 -1      3030 1.13336E+02 2.43302E+01 0.00000E+00
 -1      3031 1.12937E+02 2.32524E+01 0.00000E+00
 -1      3032 1.18392E+02 3.89706E+01 0.00000E+00
 -1      3033 9.09300E+00 2.86437E+01 0.00000E+00
 -1      3034 9.09300E+00 3.01187E+01 0.00000E+00
 -1      3035 1.03920E+01 3.08563E+01 0.00000E+00
 -1      3036 1.03920E+01 2.79188E+01 0.00000E+00
 -1      3037 1.21579E+02 1.72314E+01 0.00000E+00
 -1      3038 1.22050E+02 1.62190E+01 0.00000E+00
 -1      3039 1.20695E+02 1.70439E+01 0.00000E+00
 -1      3040 1.14585E+02 2.15928E+01 0.00000E+00
 -1      3041 1.32523E+02 1.73607E+01 0.00000E+00
 -1      3042 1.32948E+02 1.80456E+01 0.00000E+00
 -1      3043 1.34040E+02 1.78909E+01 0.00000E+00
 -1      3044 1.16592E+02 2.00674E+01 0.00000E+00
 -1      3045 1.22734E+02 4.08493E+01 0.00000E+00
 -1      3046 1.16910E+01 1.24625E+01 0.00000E+00
 -1      3047 1.16910E+01 1.39375E+01 0.00000E+00
 -1      3048 1.30229E+02 1.55315E+01 0.00000E+00
 -1      3049 1.31402E+02 1.62152E+01 0.00000E+00
 -1      3050 8.99606E+00 3.70363E+01 0.00000E+00
 -1      3051 9.02831E+00 3.82715E+01 0.00000E+00
 -1      3052 1.01012E+01 3.83715E+01 0.00000E+00
 -1      3053 1.02951E+01 3.62988E+01 0.00000E+00
 -1      3054 1.35557E+02 1.98369E+01 0.00000E+00
 -1      3055 1.14742E+02 3.81320E+01 0.00000E+00
 -1      3056 1.89000E+01 3.83090E+01 0.00000E+00
 -1      3057 2.04000E+01 3.83090E+01 0.00000E+00
 -1      3058 2.19000E+01 3.83090E+01 0.00000E+00
 -1      3059 2.34000E+01 3.83090E+01 0.00000E+00
 -1      3060 2.11500E+01 3.70100E+01 0.00000E+00
 -1      3061 2.49000E+01 3.83090E+01 0.00000E+00
 -1      3062 2.64000E+01 3.83090E+01 0.00000E+00
 -1      3063 2.41500E+01 3.70100E+01 0.00000E+00
 -1      3064 2.79000E+01 3.83090E+01 0.00000E+00
 -1      3065 2.94000E+01 3.83090E+01 0.00000E+00
 -1      3066 2.71500E+01 3.70100E+01 0.00000E+00
 -1      3067 3.09000E+01 3.83090E+01 0.00000E+00
 -1      3068 3.24000E+01 3.83090E+01 0.00000E+00
 -1      3069 3.01500E+01 3.70100E+01 0.00000E+00
 -1      3070 3.39000E+01 3.83090E+01 0.00000E+00
 -1      3071 3.54000E+01 3.83090E+01 0.00000E+00
 -1      3072 3.31500E+01 3.70100E+01 0.00000E+00
 -1      3073 3.69000E+01 3.83090E+01 0.00000E+00
 -1      3074 3.84000E+01 3.83090E+01 0.00000E+00
 -1      3075 3.61500E+01 3.70100E+01 0.00000E+00
 -1      3076 3.99000E+01 3.83090E+01 0.00000E+00
 -1      3077 4.14000E+01 3.83090E+01 0.00000E+00
 -1      3078 3.91500E+01 3.70100E+01 0.00000E+00
 -1      3079 4.29000E+01 3.83090E+01 0.00000E+00
 -1      3080 4.44000E+01 3.83090E+01 0.00000E+00
 -1      3081 4.21500E+01 3.70100E+01 0.00000E+00
 -1      3082 4.59000E+01 3.83090E+01 0.00000E+00
 -1      3083 4.74000E+01 3.83090E+01 0.00000E+00
 -1      3084 4.51500E+01 3.70100E+01 0.00000E+00
 -1      3085 4.89000E+01 3.83090E+01 0.00000E+00
 -1      3086 5.04000E+01 3.83090E+01 0.00000E+00
 -1      3087 4.81500E+01 3.70100E+01 0.00000E+00
 -1      3088 5.19000E+01 3.83090E+01 0.00000E+00
 -1      3089 5.34000E+01 3.83090E+01 0.00000E+00
 -1      3090 5.11500E+01 3.70100E+01 0.00000E+00
 -1      3091 5.49000E+01 3.83090E+01 0.00000E+00
 -1      3092 5.64000E+01 3.83090E+01 0.00000E+00
 -1      3093 5.41500E+01 3.70100E+01 0.00000E+00
 -1      3094 5.79000E+01 3.83090E+01 0.00000E+00
 -1      3095 5.94000E+01 3.83090E+01 0.00000E+00
 -1      3096 5.71500E+01 3.70100E+01 0.00000E+00
 -1      3097 6.09000E+01 3.83090E+01 0.00000E+00
 -1      3098 6.24000E+01 3.83090E+01 0.00000E+00
 -1      3099 6.01500E+01 3.70100E+01 0.00000E+00
 -1      3100 6.39000E+01 3.83090E+01 0.00000E+00
 -1      3101 6.54000E+01 3.83090E+01 0.00000E+00
 -1      3102 6.31500E+01 3.70100E+01 0.00000E+00
 -1      3103 6.69000E+01 3.83090E+01 0.00000E+00
 -1      3104 6.84000E+01 3.83090E+01 0.00000E+00
 -1      3105 6.61500E+01 3.70100E+01 0.00000E+00
 -1      3106 6.99000E+01 3.83090E+01 0.00000E+00
 -1      3107 7.14000E+01 3.83090E+01 0.00000E+00
 -1      3108 6.91500E+01 3.70100E+01 0.00000E+00
 -1      3109 7.29000E+01 3.83090E+01 0.00000E+00
 -1      3110 7.44000E+01 3.83090E+01 0.00000E+00
 -1      3111 7.21500E+01 3.70100E+01 0.00000E+00
 -1      3112 7.59000E+01 3.83090E+01 0.00000E+00
 -1      3113 7.74000E+01 3.83090E+01 0.00000E+00
 -1      3114 7.51500E+01 3.70100E+01 0.00000E+00
 -1      3115 7.89000E+01 3.83090E+01 0.00000E+00
 -1      3116 8.04000E+01 3.83090E+01 0.00000E+00
 -1      3117 7.81500E+01 3.70100E+01 0.00000E+00
 -1      3118 8.19000E+01 3.83090E+01 0.00000E+00
 -1      3119 8.34000E+01 3.83090E+01 0.00000E+00
 -1      3120 8.11500E+01 3.70100E+01 0.00000E+00
 -1      3121 8.49000E+01 3.83090E+01 0.00000E+00
 -1      3122 8.64000E+01 3.83090E+01 0.00000E+00
 -1      3123 8.41500E+01 3.70100E+01 0.00000E+00
 -1      3124 8.79000E+01 3.83090E+01 0.00000E+00
 -1      3125 8.94000E+01 3.83090E+01 0.00000E+00
 -1      3126 8.71500E+01 3.70100E+01 0.00000E+00
 -1      3127 9.09000E+01 3.83090E+01 0.00000E+00
 -1      3128 9.24000E+01 3.83090E+01 0.00000E+00
 -1      3129 9.01500E+01 3.70100E+01 0.00000E+00
 -1      3130 9.39000E+01 3.83090E+01 0.00000E+00
 -1      3131 9.54000E+01 3.83090E+01 0.00000E+00
 -1      3132 9.31500E+01 3.70100E+01 0.00000E+00
 -1      3133 9.69000E+01 3.83090E+01 0.00000E+00
 -1      3134 9.84000E+01 3.83090E+01 0.00000E+00
 -1      3135 9.61500E+01 3.70100E+01 0.00000E+00
 -1      3136 9.99000E+01 3.83090E+01 0.00000E+00
 -1      3137 1.01400E+02 3.83090E+01 0.00000E+00
 -1      3138 9.91500E+01 3.70100E+01 0.00000E+00
 -1      3139 1.02900E+02 3.83090E+01 0.00000E+00
 -1      3140 1.04400E+02 3.83090E+01 0.00000E+00
 -1      3141 1.02150E+02 3.70100E+01 0.00000E+00
 -1      3142 1.05900E+02 3.83090E+01 0.00000E+00
 -1      3143 1.07400E+02 3.83090E+01 0.00000E+00
 -1      3144 1.05150E+02 3.70100E+01 0.00000E+00
 -1      3145 1.08900E+02 3.83090E+01 0.00000E+00
 -1      3146 1.10400E+02 3.83090E+01 0.00000E+00
 -1      3147 1.08150E+02 3.70100E+01 0.00000E+00
 -1      3148 1.11821E+02 3.82205E+01 0.00000E+00
 -1      3149 1.13321E+02 3.82205E+01 0.00000E+00
 -1      3150 1.13913E+02 3.67444E+01 0.00000E+00
 -1      3151 1.11071E+02 3.69215E+01 0.00000E+00
 -1      3152 1.11918E+02 2.82109E+01 0.00000E+00
 -1      3153 1.11783E+02 2.67696E+01 0.00000E+00
 -1      3154 2.27850E+01 1.05013E+01 0.00000E+00
 -1      3155 2.12850E+01 1.05013E+01 0.00000E+00
 -1      3156 1.97850E+01 1.05013E+01 0.00000E+00
 -1      3157 1.82850E+01 1.05013E+01 0.00000E+00
 -1      3158 2.05350E+01 1.18003E+01 0.00000E+00
 -1      3159 3.47850E+01 1.05013E+01 0.00000E+00
 -1      3160 3.32850E+01 1.05013E+01 0.00000E+00
 -1      3161 3.17850E+01 1.05013E+01 0.00000E+00
 -1      3162 3.02850E+01 1.05013E+01 0.00000E+00
 -1      3163 3.25350E+01 1.18003E+01 0.00000E+00
 -1      3164 4.07850E+01 1.05013E+01 0.00000E+00
 -1      3165 3.92850E+01 1.05013E+01 0.00000E+00
 -1      3166 4.37850E+01 1.05013E+01 0.00000E+00
 -1      3167 4.22850E+01 1.05013E+01 0.00000E+00
 -1      3168 4.15350E+01 1.18003E+01 0.00000E+00
 -1      3169 4.67850E+01 1.05013E+01 0.00000E+00
 -1      3170 4.52850E+01 1.05013E+01 0.00000E+00
 -1      3171 4.45350E+01 1.18003E+01 0.00000E+00
 -1      3172 4.97850E+01 1.05013E+01 0.00000E+00
 -1      3173 4.82850E+01 1.05013E+01 0.00000E+00
 -1      3174 4.75350E+01 1.18003E+01 0.00000E+00
 -1      3175 5.27850E+01 1.05013E+01 0.00000E+00
 -1      3176 5.12850E+01 1.05013E+01 0.00000E+00
 -1      3177 5.05350E+01 1.18003E+01 0.00000E+00
 -1      3178 5.57850E+01 1.05013E+01 0.00000E+00
 -1      3179 5.42850E+01 1.05013E+01 0.00000E+00
 -1      3180 5.35350E+01 1.18003E+01 0.00000E+00
 -1      3181 5.87850E+01 1.05013E+01 0.00000E+00
 -1      3182 5.72850E+01 1.05013E+01 0.00000E+00
 -1      3183 5.65350E+01 1.18003E+01 0.00000E+00
 -1      3184 6.17850E+01 1.05013E+01 0.00000E+00
 -1      3185 6.02850E+01 1.05013E+01 0.00000E+00
 -1      3186 5.95350E+01 1.18003E+01 0.00000E+00
 -1      3187 6.47850E+01 1.05013E+01 0.00000E+00
 -1      3188 6.32850E+01 1.05013E+01 0.00000E+00
 -1      3189 6.25350E+01 1.18003E+01 0.00000E+00
 -1      3190 6.77850E+01 1.05013E+01 0.00000E+00
 -1      3191 6.62850E+01 1.05013E+01 0.00000E+00
 -1      3192 6.55350E+01 1.18003E+01 0.00000E+00
 -1      3193 7.07850E+01 1.05013E+01 0.00000E+00
 -1      3194 6.92850E+01 1.05013E+01 0.00000E+00
 -1      3195 6.85350E+01 1.18003E+01 0.00000E+00
 -1      3196 7.37850E+01 1.05013E+01 0.00000E+00
 -1      3197 7.22850E+01 1.05013E+01 0.00000E+00
 -1      3198 7.15350E+01 1.18003E+01 0.00000E+00
 -1      3199 7.67850E+01 1.05013E+01 0.00000E+00
 -1      3200 7.52850E+01 1.05013E+01 0.00000E+00
 -1      3201 7.45350E+01 1.18003E+01 0.00000E+00
 -1      3202 7.97850E+01 1.05013E+01 0.00000E+00
 -1      3203 7.82850E+01 1.05013E+01 0.00000E+00
 -1      3204 7.75350E+01 1.18003E+01 0.00000E+00
 -1      3205 8.27850E+01 1.05013E+01 0.00000E+00
 -1      3206 8.12850E+01 1.05013E+01 0.00000E+00
 -1      3207 8.05350E+01 1.18003E+01 0.00000E+00
 -1      3208 8.57850E+01 1.05013E+01 0.00000E+00
 -1      3209 8.42850E+01 1.05013E+01 0.00000E+00
 -1      3210 8.35350E+01 1.18003E+01 0.00000E+00
 -1      3211 8.87850E+01 1.05013E+01 0.00000E+00
 -1      3212 8.72850E+01 1.05013E+01 0.00000E+00
 -1      3213 8.65350E+01 1.18003E+01 0.00000E+00
 -1      3214 9.17850E+01 1.05013E+01 0.00000E+00
 -1      3215 9.02850E+01 1.05013E+01 0.00000E+00
 -1      3216 8.95350E+01 1.18003E+01 0.00000E+00
 -1      3217 9.47850E+01 1.05013E+01 0.00000E+00
 -1      3218 9.32850E+01 1.05013E+01 0.00000E+00
 -1      3219 9.25350E+01 1.18003E+01 0.00000E+00
 -1      3220 9.77850E+01 1.05013E+01 0.00000E+00
 -1      3221 9.62850E+01 1.05013E+01 0.00000E+00
 -1      3222 9.55350E+01 1.18003E+01 0.00000E+00
 -1      3223 1.00785E+02 1.05013E+01 0.00000E+00
 -1      3224 9.92850E+01 1.05013E+01 0.00000E+00
 -1      3225 9.85350E+01 1.18003E+01 0.00000E+00
 -1      3226 1.03785E+02 1.05013E+01 0.00000E+00
 -1      3227 1.02285E+02 1.05013E+01 0.00000E+00
 -1      3228 1.01535E+02 1.18003E+01 0.00000E+00
 -1      3229 1.06785E+02 1.05013E+01 0.00000E+00
 -1      3230 1.05285E+02 1.05013E+01 0.00000E+00
 -1      3231 1.04535E+02 1.18003E+01 0.00000E+00
 -1      3232 1.09785E+02 1.05013E+01 0.00000E+00
 -1      3233 1.08285E+02 1.05013E+01 0.00000E+00
 -1      3234 1.07535E+02 1.18003E+01 0.00000E+00
 -1      3235 1.12785E+02 1.05013E+01 0.00000E+00
 -1      3236 1.11285E+02 1.05013E+01 0.00000E+00
 -1      3237 1.10535E+02 1.18003E+01 0.00000E+00
 -1      3238 1.15785E+02 1.05013E+01 0.00000E+00
 -1      3239 1.14285E+02 1.05013E+01 0.00000E+00
 -1      3240 1.13535E+02 1.18003E+01 0.00000E+00
 -1      3241 1.18785E+02 1.05013E+01 0.00000E+00
 -1      3242 1.17285E+02 1.05013E+01 0.00000E+00
 -1      3243 1.16535E+02 1.18003E+01 0.00000E+00
 -1      3244 1.21785E+02 1.05013E+01 0.00000E+00
 -1      3245 1.20285E+02 1.05013E+01 0.00000E+00
 -1      3246 1.19535E+02 1.18003E+01 0.00000E+00
 -1      3247 1.24785E+02 1.05013E+01 0.00000E+00
 -1      3248 1.23285E+02 1.05013E+01 0.00000E+00
 -1      3249 1.22535E+02 1.18003E+01 0.00000E+00
 -1      3250 1.27785E+02 1.05013E+01 0.00000E+00
 -1      3251 1.26285E+02 1.05013E+01 0.00000E+00
 -1      3252 1.25535E+02 1.18003E+01 0.00000E+00
 -1      3253 1.30785E+02 1.05013E+01 0.00000E+00
 -1      3254 1.29285E+02 1.05013E+01 0.00000E+00
 -1      3255 1.28535E+02 1.18003E+01 0.00000E+00
 -1      3256 1.33785E+02 1.05013E+01 0.00000E+00
 -1      3257 1.32285E+02 1.05013E+01 0.00000E+00
 -1      3258 1.31535E+02 1.18003E+01 0.00000E+00
 -1      3259 1.16910E+01 2.12875E+01 0.00000E+00
 -1      3260 1.16910E+01 2.27625E+01 0.00000E+00
 -1      3261 1.38519E+02 2.32887E+01 0.00000E+00
 -1      3262 1.38329E+02 2.18138E+01 0.00000E+00
 -1      3263 1.13239E+02 3.53781E+01 0.00000E+00
 -1      3264 1.38415E+02 1.98625E+01 0.00000E+00
 -1      3265 1.38415E+02 1.83875E+01 0.00000E+00
 -1      3266 1.39027E+02 2.63341E+01 0.00000E+00
 -1      3267 1.37421E+02 2.45300E+01 0.00000E+00
 -1      3268 1.38291E+02 2.51887E+01 0.00000E+00
 -1      3269 1.37418E+02 3.44128E+01 0.00000E+00
 -1      3270 1.37170E+02 3.56390E+01 0.00000E+00
 -1      3271 1.15422E+02 1.96384E+01 0.00000E+00
 -1      3272 1.16780E+02 1.92271E+01 0.00000E+00
 -1      3273 1.16969E+02 1.83869E+01 0.00000E+00
 -1      3274 1.39111E+02 2.48591E+01 0.00000E+00
 -1      3275 3.77850E+01 1.05013E+01 0.00000E+00
 -1      3276 3.62850E+01 1.05013E+01 0.00000E+00
 -1      3277 3.55350E+01 1.18003E+01 0.00000E+00
 -1      3278 3.85350E+01 1.18003E+01 0.00000E+00
 -1      3279 1.34906E+02 3.88693E+01 0.00000E+00
 -1      3280 1.36008E+02 3.87002E+01 0.00000E+00
 -1      3281 1.37508E+02 3.87002E+01 0.00000E+00
 -1      3282 1.37967E+02 3.76232E+01 0.00000E+00
 -1      3283 1.35764E+02 3.79615E+01 0.00000E+00
 -1      3284 1.12288E+02 3.10129E+01 0.00000E+00
 -1      3285 1.12103E+02 2.96119E+01 0.00000E+00
 -1      3286 1.11014E+02 2.89869E+01 0.00000E+00
 -1      3287 1.23552E+02 1.53421E+01 0.00000E+00
 -1      3288 1.24914E+02 1.52597E+01 0.00000E+00
 -1      3289 1.29000E+01 3.83090E+01 0.00000E+00
 -1      3290 1.44000E+01 3.83090E+01 0.00000E+00
 -1      3291 1.37699E+02 2.36183E+01 0.00000E+00
 -1      3292 1.26488E+01 1.02017E+01 0.00000E+00
 -1      3293 1.20772E+01 1.14631E+01 0.00000E+00
 -1      3294 1.33763E+01 1.22006E+01 0.00000E+00
 -1      3295 1.41488E+01 1.02017E+01 0.00000E+00
 -1      3296 1.39407E+02 1.25250E+01 0.00000E+00
 -1      3297 1.12843E+02 3.36164E+01 0.00000E+00
 -1      3298 1.12538E+02 3.24738E+01 0.00000E+00
 -1      3299 1.13230E+02 2.15500E+01 0.00000E+00
 -1      3300 1.13879E+02 2.04358E+01 0.00000E+00
 -1      3301 1.59000E+01 3.83090E+01 0.00000E+00
 -1      3302 1.74000E+01 3.83090E+01 0.00000E+00
 -1      3303 1.81500E+01 3.70100E+01 0.00000E+00
 -1      3304 1.35843E+02 1.88504E+01 0.00000E+00
 -1      3305 1.36936E+02 2.01115E+01 0.00000E+00
 -1      3306 1.16910E+01 2.42375E+01 0.00000E+00
 -1      3307 1.16910E+01 2.57125E+01 0.00000E+00
 -1      3308 1.29900E+01 2.35000E+01 0.00000E+00
 -1      3309 1.28887E+02 1.46648E+01 0.00000E+00
 -1      3310 1.29558E+02 1.50981E+01 0.00000E+00
 -1      3311 1.30703E+02 1.44818E+01 0.00000E+00
 -1      3312 1.32495E+02 1.60606E+01 0.00000E+00
 -1      3313 1.19747E+02 1.70035E+01 0.00000E+00
 -1      3314 1.20218E+02 1.59910E+01 0.00000E+00
 -1      3315 1.18798E+02 1.69631E+01 0.00000E+00
 -1      3316 1.38415E+02 1.69250E+01 0.00000E+00
 -1      3317 1.38415E+02 1.54625E+01 0.00000E+00
 -1      3318 1.37223E+02 1.76625E+01 0.00000E+00
 -1      3319 2.42850E+01 1.05013E+01 0.00000E+00
 -1      3320 2.35350E+01 1.18003E+01 0.00000E+00
 -1      3321 2.57850E+01 1.05013E+01 0.00000E+00
 -1      3322 1.29900E+01 1.46687E+01 0.00000E+00
 -1      3323 1.16910E+01 1.54063E+01 0.00000E+00
 -1      3324 1.16910E+01 1.68750E+01 0.00000E+00
 -1      3325 1.69669E+01 1.03515E+01 0.00000E+00
 -1      3326 1.54669E+01 1.03515E+01 0.00000E+00
 -1      3327 1.50806E+01 1.13509E+01 0.00000E+00
 -1      3328 1.77169E+01 1.16505E+01 0.00000E+00
 -1      3329 1.11741E+01 3.84716E+01 0.00000E+00
 -1      3330 1.11450E+02 3.18488E+01 0.00000E+00
 -1      3331 1.19241E+01 3.71726E+01 0.00000E+00
 -1      3332 2.95350E+01 1.18003E+01 0.00000E+00
 -1      3333 2.87850E+01 1.05013E+01 0.00000E+00
 -1      3334 2.72850E+01 1.05013E+01 0.00000E+00
 -1      3335 1.34953E+02 1.07819E+01 0.00000E+00
 -1      3336 1.34203E+02 1.20809E+01 0.00000E+00
 -1      3337 1.36120E+02 1.10626E+01 0.00000E+00
 -1      3338 1.16910E+01 1.98188E+01 0.00000E+00
 -1      3339 1.29900E+01 2.05562E+01 0.00000E+00
 -1      3340 1.16910E+01 1.83500E+01 0.00000E+00
 -1      3341 1.36535E+02 3.69371E+01 0.00000E+00
 -1      3342 1.38129E+02 2.08491E+01 0.00000E+00
 -1      3343 1.12096E+02 3.50713E+01 0.00000E+00
 -1      3344 1.38327E+02 1.38534E+01 0.00000E+00
 -1      3345 1.38126E+02 1.16534E+01 0.00000E+00
 -1      3346 1.36959E+02 1.13727E+01 0.00000E+00
 -1      3347 1.37135E+02 1.45909E+01 0.00000E+00
 -1      3348 1.37500E+02 3.64942E+01 0.00000E+00
 -1      3349 1.11384E+02 2.56919E+01 0.00000E+00
 -1      3350 1.10984E+02 2.46141E+01 0.00000E+00
 -1      3351 1.10430E+02 2.65081E+01 0.00000E+00
 -1      3352 1.38602E+02 3.63251E+01 0.00000E+00
 -1      3353 1.39061E+02 3.52481E+01 0.00000E+00
 -1      3354 1.51500E+01 3.70100E+01 0.00000E+00
 -1      3355 1.12231E+02 2.20954E+01 0.00000E+00
 -1      3356 1.14067E+02 1.95955E+01 0.00000E+00
 -1      3357 1.14256E+02 1.87553E+01 0.00000E+00
 -1      3358 1.12712E+02 1.95527E+01 0.00000E+00
 -1      3359 1.35843E+02 1.73879E+01 0.00000E+00
 -1      3360 1.16910E+01 3.01219E+01 0.00000E+00
 -1      3361 1.16910E+01 3.15906E+01 0.00000E+00
 -1      3362 1.16910E+01 3.30594E+01 0.00000E+00
 -1      3363 1.16910E+01 3.45281E+01 0.00000E+00
 -1      3364 1.29900E+01 3.23250E+01 0.00000E+00
 -1      3365 1.25714E+02 1.49944E+01 0.00000E+00
 -1      3366 1.26757E+02 1.45141E+01 0.00000E+00
 -1      3367 1.10647E+02 3.27382E+01 0.00000E+00
 -1      3368 1.10397E+02 3.12773E+01 0.00000E+00
 -1      3369 3.32850E+01 1.30992E+01 0.00000E+00
 -1      3370 3.17850E+01 1.30992E+01 0.00000E+00
 -1      3371 2.04000E+01 3.57110E+01 0.00000E+00
 -1      3372 2.19000E+01 3.57110E+01 0.00000E+00
 -1      3373 1.32863E+02 1.45793E+01 0.00000E+00
 -1      3374 1.33983E+02 1.57248E+01 0.00000E+00
 -1      3375 2.34000E+01 3.57110E+01 0.00000E+00
 -1      3376 2.49000E+01 3.57110E+01 0.00000E+00
 -1      3377 2.26500E+01 3.44120E+01 0.00000E+00
 -1      3378 2.64000E+01 3.57110E+01 0.00000E+00
 -1      3379 2.79000E+01 3.57110E+01 0.00000E+00
 -1      3380 2.56500E+01 3.44120E+01 0.00000E+00
 -1      3381 2.94000E+01 3.57110E+01 0.00000E+00
 -1      3382 3.09000E+01 3.57110E+01 0.00000E+00
 -1      3383 2.86500E+01 3.44120E+01 0.00000E+00
 -1      3384 3.24000E+01 3.57110E+01 0.00000E+00
 -1      3385 3.39000E+01 3.57110E+01 0.00000E+00
 -1      3386 3.16500E+01 3.44120E+01 0.00000E+00
 -1      3387 3.54000E+01 3.57110E+01 0.00000E+00
 -1      3388 3.69000E+01 3.57110E+01 0.00000E+00
 -1      3389 3.46500E+01 3.44120E+01 0.00000E+00
 -1      3390 3.84000E+01 3.57110E+01 0.00000E+00
 -1      3391 3.99000E+01 3.57110E+01 0.00000E+00
 -1      3392 3.76500E+01 3.44120E+01 0.00000E+00
 -1      3393 4.14000E+01 3.57110E+01 0.00000E+00
 -1      3394 4.29000E+01 3.57110E+01 0.00000E+00
 -1      3395 4.06500E+01 3.44120E+01 0.00000E+00
 -1      3396 4.44000E+01 3.57110E+01 0.00000E+00
 -1      3397 4.59000E+01 3.57110E+01 0.00000E+00
 -1      3398 4.36500E+01 3.44120E+01 0.00000E+00
 -1      3399 4.74000E+01 3.57110E+01 0.00000E+00
 -1      3400 4.89000E+01 3.57110E+01 0.00000E+00
 -1      3401 4.66500E+01 3.44120E+01 0.00000E+00
 -1      3402 5.04000E+01 3.57110E+01 0.00000E+00
 -1      3403 5.19000E+01 3.57110E+01 0.00000E+00
 -1      3404 4.96500E+01 3.44120E+01 0.00000E+00
 -1      3405 5.34000E+01 3.57110E+01 0.00000E+00
 -1      3406 5.49000E+01 3.57110E+01 0.00000E+00
 -1      3407 5.26500E+01 3.44120E+01 0.00000E+00
 -1      3408 5.64000E+01 3.57110E+01 0.00000E+00
 -1      3409 5.79000E+01 3.57110E+01 0.00000E+00
 -1      3410 5.56500E+01 3.44120E+01 0.00000E+00
 -1      3411 5.94000E+01 3.57110E+01 0.00000E+00
 -1      3412 6.09000E+01 3.57110E+01 0.00000E+00
 -1      3413 5.86500E+01 3.44120E+01 0.00000E+00
 -1      3414 6.24000E+01 3.57110E+01 0.00000E+00
 -1      3415 6.39000E+01 3.57110E+01 0.00000E+00
 -1      3416 6.16500E+01 3.44120E+01 0.00000E+00
 -1      3417 6.54000E+01 3.57110E+01 0.00000E+00
 -1      3418 6.69000E+01 3.57110E+01 0.00000E+00
 -1      3419 6.46500E+01 3.44120E+01 0.00000E+00
 -1      3420 6.84000E+01 3.57110E+01 0.00000E+00
 -1      3421 6.99000E+01 3.57110E+01 0.00000E+00
 -1      3422 6.76500E+01 3.44120E+01 0.00000E+00
 -1      3423 7.14000E+01 3.57110E+01 0.00000E+00
 -1      3424 7.29000E+01 3.57110E+01 0.00000E+00
 -1      3425 7.06500E+01 3.44120E+01 0.00000E+00
 -1      3426 7.44000E+01 3.57110E+01 0.00000E+00
 -1      3427 7.59000E+01 3.57110E+01 0.00000E+00
 -1      3428 7.36500E+01 3.44120E+01 0.00000E+00
 -1      3429 7.74000E+01 3.57110E+01 0.00000E+00
 -1      3430 7.89000E+01 3.57110E+01 0.00000E+00
 -1      3431 7.66500E+01 3.44120E+01 0.00000E+00
 -1      3432 8.04000E+01 3.57110E+01 0.00000E+00
 -1      3433 8.19000E+01 3.57110E+01 0.00000E+00
 -1      3434 7.96500E+01 3.44120E+01 0.00000E+00
 -1      3435 8.34000E+01 3.57110E+01 0.00000E+00
 -1      3436 8.49000E+01 3.57110E+01 0.00000E+00
 -1      3437 8.26500E+01 3.44120E+01 0.00000E+00
 -1      3438 8.64000E+01 3.57110E+01 0.00000E+00
 -1      3439 8.79000E+01 3.57110E+01 0.00000E+00
 -1      3440 8.56500E+01 3.44120E+01 0.00000E+00
 -1      3441 8.94000E+01 3.57110E+01 0.00000E+00
 -1      3442 9.09000E+01 3.57110E+01 0.00000E+00
 -1      3443 8.86500E+01 3.44120E+01 0.00000E+00
 -1      3444 9.24000E+01 3.57110E+01 0.00000E+00
 -1      3445 9.39000E+01 3.57110E+01 0.00000E+00
 -1      3446 9.16500E+01 3.44120E+01 0.00000E+00
 -1      3447 9.54000E+01 3.57110E+01 0.00000E+00
 -1      3448 9.69000E+01 3.57110E+01 0.00000E+00
 -1      3449 9.46500E+01 3.44120E+01 0.00000E+00
 -1      3450 9.84000E+01 3.57110E+01 0.00000E+00
 -1      3451 9.99000E+01 3.57110E+01 0.00000E+00
 -1      3452 9.76500E+01 3.44120E+01 0.00000E+00
 -1      3453 1.01400E+02 3.57110E+01 0.00000E+00
 -1      3454 1.02900E+02 3.57110E+01 0.00000E+00
 -1      3455 1.00650E+02 3.44120E+01 0.00000E+00
 -1      3456 1.04400E+02 3.57110E+01 0.00000E+00
 -1      3457 1.05900E+02 3.57110E+01 0.00000E+00
 -1      3458 1.03650E+02 3.44120E+01 0.00000E+00
 -1      3459 1.10675E+02 3.51598E+01 0.00000E+00
 -1      3460 1.20210E+01 3.61362E+01 0.00000E+00
 -1      3461 1.10008E+02 2.98325E+01 0.00000E+00
 -1      3462 1.09823E+02 2.84315E+01 0.00000E+00
 -1      3463 4.52850E+01 1.30992E+01 0.00000E+00
 -1      3464 4.37850E+01 1.30992E+01 0.00000E+00
 -1      3465 4.22850E+01 1.30992E+01 0.00000E+00
 -1      3466 4.07850E+01 1.30992E+01 0.00000E+00
 -1      3467 4.30350E+01 1.43982E+01 0.00000E+00
 -1      3468 5.12850E+01 1.30992E+01 0.00000E+00
 -1      3469 4.97850E+01 1.30992E+01 0.00000E+00
 -1      3470 5.42850E+01 1.30992E+01 0.00000E+00
 -1      3471 5.27850E+01 1.30992E+01 0.00000E+00
 -1      3472 5.20350E+01 1.43982E+01 0.00000E+00
 -1      3473 5.72850E+01 1.30992E+01 0.00000E+00
 -1      3474 5.57850E+01 1.30992E+01 0.00000E+00
 -1      3475 5.50350E+01 1.43982E+01 0.00000E+00
 -1      3476 6.02850E+01 1.30992E+01 0.00000E+00
 -1      3477 5.87850E+01 1.30992E+01 0.00000E+00
 -1      3478 5.80350E+01 1.43982E+01 0.00000E+00
 -1      3479 6.32850E+01 1.30992E+01 0.00000E+00
 -1      3480 6.17850E+01 1.30992E+01 0.00000E+00
 -1      3481 6.10350E+01 1.43982E+01 0.00000E+00
 -1      3482 6.62850E+01 1.30992E+01 0.00000E+00
 -1      3483 6.47850E+01 1.30992E+01 0.00000E+00
 -1      3484 6.40350E+01 1.43982E+01 0.00000E+00
 -1      3485 6.92850E+01 1.30992E+01 0.00000E+00
 -1      3486 6.77850E+01 1.30992E+01 0.00000E+00
 -1      3487 6.70350E+01 1.43982E+01 0.00000E+00
 -1      3488 7.22850E+01 1.30992E+01 0.00000E+00
 -1      3489 7.07850E+01 1.30992E+01 0.00000E+00
 -1      3490 7.00350E+01 1.43982E+01 0.00000E+00
 -1      3491 7.52850E+01 1.30992E+01 0.00000E+00
 -1      3492 7.37850E+01 1.30992E+01 0.00000E+00
 -1      3493 7.30350E+01 1.43982E+01 0.00000E+00
 -1      3494 7.82850E+01 1.30992E+01 0.00000E+00
 -1      3495 7.67850E+01 1.30992E+01 0.00000E+00
 -1      3496 7.60350E+01 1.43982E+01 0.00000E+00
 -1      3497 8.12850E+01 1.30992E+01 0.00000E+00
 -1      3498 7.97850E+01 1.30992E+01 0.00000E+00
 -1      3499 7.90350E+01 1.43982E+01 0.00000E+00
 -1      3500 8.42850E+01 1.30992E+01 0.00000E+00
 -1      3501 8.27850E+01 1.30992E+01 0.00000E+00
 -1      3502 8.20350E+01 1.43982E+01 0.00000E+00
 -1      3503 8.72850E+01 1.30992E+01 0.00000E+00
 -1      3504 8.57850E+01 1.30992E+01 0.00000E+00
 -1      3505 8.50350E+01 1.43982E+01 0.00000E+00
 -1      3506 9.02850E+01 1.30992E+01 0.00000E+00
 -1      3507 8.87850E+01 1.30992E+01 0.00000E+00
 -1      3508 8.80350E+01 1.43982E+01 0.00000E+00
 -1      3509 9.32850E+01 1.30992E+01 0.00000E+00
 -1      3510 9.17850E+01 1.30992E+01 0.00000E+00
 -1      3511 9.10350E+01 1.43982E+01 0.00000E+00
 -1      3512 9.62850E+01 1.30992E+01 0.00000E+00
 -1      3513 9.47850E+01 1.30992E+01 0.00000E+00
 -1      3514 9.40350E+01 1.43982E+01 0.00000E+00
 -1      3515 9.92850E+01 1.30992E+01 0.00000E+00
 -1      3516 9.77850E+01 1.30992E+01 0.00000E+00
 -1      3517 9.70350E+01 1.43982E+01 0.00000E+00
 -1      3518 1.02285E+02 1.30992E+01 0.00000E+00
 -1      3519 1.00785E+02 1.30992E+01 0.00000E+00
 -1      3520 1.00035E+02 1.43982E+01 0.00000E+00
 -1      3521 1.05285E+02 1.30992E+01 0.00000E+00
 -1      3522 1.03785E+02 1.30992E+01 0.00000E+00
 -1      3523 1.03035E+02 1.43982E+01 0.00000E+00
 -1      3524 1.08285E+02 1.30992E+01 0.00000E+00
 -1      3525 1.06785E+02 1.30992E+01 0.00000E+00
 -1      3526 1.06035E+02 1.43982E+01 0.00000E+00
 -1      3527 1.11285E+02 1.30992E+01 0.00000E+00
 -1      3528 1.09785E+02 1.30992E+01 0.00000E+00
 -1      3529 1.09035E+02 1.43982E+01 0.00000E+00
 -1      3530 1.14285E+02 1.30992E+01 0.00000E+00
 -1      3531 1.12785E+02 1.30992E+01 0.00000E+00
 -1      3532 1.12035E+02 1.43982E+01 0.00000E+00
 -1      3533 1.17285E+02 1.30992E+01 0.00000E+00
 -1      3534 1.15785E+02 1.30992E+01 0.00000E+00
 -1      3535 1.15035E+02 1.43982E+01 0.00000E+00
 -1      3536 1.20152E+02 1.38754E+01 0.00000E+00
 -1      3537 1.18652E+02 1.38754E+01 0.00000E+00
 -1      3538 1.26403E+02 1.27737E+01 0.00000E+00
 -1      3539 1.24903E+02 1.27737E+01 0.00000E+00
 -1      3540 1.30034E+02 1.29244E+01 0.00000E+00
 -1      3541 1.28534E+02 1.29244E+01 0.00000E+00
 -1      3542 1.31534E+02 1.29244E+01 0.00000E+00
 -1      3543 1.27389E+02 1.35407E+01 0.00000E+00
 -1      3544 1.38345E+02 3.44647E+01 0.00000E+00
 -1      3545 1.15944E+02 1.74510E+01 0.00000E+00
 -1      3546 1.17302E+02 1.70397E+01 0.00000E+00
 -1      3547 1.39168E+02 2.38796E+01 0.00000E+00
 -1      3548 1.22357E+02 1.53590E+01 0.00000E+00
 -1      3549 1.22976E+02 1.42946E+01 0.00000E+00
 -1      3550 4.82850E+01 1.30992E+01 0.00000E+00
 -1      3551 4.67850E+01 1.30992E+01 0.00000E+00
 -1      3552 4.60350E+01 1.43982E+01 0.00000E+00
 -1      3553 4.90350E+01 1.43982E+01 0.00000E+00
 -1      3554 1.44000E+01 3.57110E+01 0.00000E+00
 -1      3555 1.59000E+01 3.57110E+01 0.00000E+00
 -1      3556 1.16910E+01 2.71844E+01 0.00000E+00
 -1      3557 1.16910E+01 2.86531E+01 0.00000E+00
 -1      3558 1.29900E+01 2.93875E+01 0.00000E+00
 -1      3559 1.34408E+02 1.64097E+01 0.00000E+00
 -1      3560 1.34832E+02 1.70945E+01 0.00000E+00
 -1      3561 1.34776E+02 1.49284E+01 0.00000E+00
 -1      3562 1.21473E+02 1.51715E+01 0.00000E+00
 -1      3563 1.24971E+02 1.40124E+01 0.00000E+00
 -1      3564 1.10826E+02 2.27301E+01 0.00000E+00
 -1      3565 1.11119E+02 2.10276E+01 0.00000E+00
 -1      3566 1.36211E+02 1.59066E+01 0.00000E+00
 -1      3567 1.74000E+01 3.57110E+01 0.00000E+00
 -1      3568 1.89000E+01 3.57110E+01 0.00000E+00
 -1      3569 1.66500E+01 3.44120E+01 0.00000E+00
 -1      3570 2.12850E+01 1.30992E+01 0.00000E+00
 -1      3571 1.97850E+01 1.30992E+01 0.00000E+00
 -1      3572 1.36123E+02 1.42975E+01 0.00000E+00
 -1      3573 1.08886E+02 3.57992E+01 0.00000E+00
 -1      3574 1.09911E+02 3.39490E+01 0.00000E+00
 -1      3575 1.08858E+02 3.33776E+01 0.00000E+00
 -1      3576 1.07386E+02 3.57992E+01 0.00000E+00
 -1      3577 1.24103E+02 1.30389E+01 0.00000E+00
 -1      3578 1.22908E+02 1.30559E+01 0.00000E+00
 -1      3579 1.06636E+02 3.45002E+01 0.00000E+00
 -1      3580 1.17773E+02 1.60273E+01 0.00000E+00
 -1      3581 1.96500E+01 3.44120E+01 0.00000E+00
 -1      3582 3.47850E+01 1.30992E+01 0.00000E+00
 -1      3583 3.40350E+01 1.43982E+01 0.00000E+00
 -1      3584 3.62850E+01 1.30992E+01 0.00000E+00
 -1      3585 3.10350E+01 1.43982E+01 0.00000E+00
 -1      3586 3.02850E+01 1.30992E+01 0.00000E+00
 -1      3587 2.87850E+01 1.30992E+01 0.00000E+00
 -1      3588 2.65350E+01 1.18003E+01 0.00000E+00
 -1      3589 1.20524E+02 1.51311E+01 0.00000E+00
 -1      3590 1.36209E+02 1.26717E+01 0.00000E+00
 -1      3591 2.42850E+01 1.30992E+01 0.00000E+00
 -1      3592 2.27850E+01 1.30992E+01 0.00000E+00
 -1      3593 2.20350E+01 1.43982E+01 0.00000E+00
 -1      3594 1.33200E+01 3.54019E+01 0.00000E+00
 -1      3595 1.40700E+01 3.41029E+01 0.00000E+00
 -1      3596 1.42890E+01 1.39344E+01 0.00000E+00
 -1      3597 1.42890E+01 1.54031E+01 0.00000E+00
 -1      3598 1.84669E+01 1.29495E+01 0.00000E+00
 -1      3599 1.71488E+01 1.27997E+01 0.00000E+00
 -1      3600 1.92169E+01 1.42485E+01 0.00000E+00
 -1      3601 1.09205E+02 3.07220E+01 0.00000E+00
 -1      3602 1.42890E+01 2.27625E+01 0.00000E+00
 -1      3603 1.42890E+01 2.42375E+01 0.00000E+00
 -1      3604 4.00350E+01 1.43982E+01 0.00000E+00
 -1      3605 3.92850E+01 1.30992E+01 0.00000E+00
 -1      3606 3.77850E+01 1.30992E+01 0.00000E+00
 -1      3607 1.21408E+02 1.30559E+01 0.00000E+00
 -1      3608 1.29900E+01 1.76125E+01 0.00000E+00
 -1      3609 1.42890E+01 1.98250E+01 0.00000E+00
 -1      3610 1.42890E+01 2.12938E+01 0.00000E+00
 -1      3611 1.55880E+01 2.20313E+01 0.00000E+00
 -1      3612 1.09423E+02 2.73538E+01 0.00000E+00
 -1      3613 1.09024E+02 2.62760E+01 0.00000E+00
 -1      3614 1.08417E+02 2.81994E+01 0.00000E+00
 -1      3615 1.42890E+01 2.86531E+01 0.00000E+00
 -1      3616 1.42890E+01 3.01219E+01 0.00000E+00
 -1      3617 1.34861E+02 1.33026E+01 0.00000E+00
 -1      3618 1.33693E+02 1.30219E+01 0.00000E+00
 -1      3619 1.11308E+02 2.01873E+01 0.00000E+00
 -1      3620 1.11496E+02 1.93471E+01 0.00000E+00
 -1      3621 1.09903E+02 2.08220E+01 0.00000E+00
 -1      3622 1.09873E+02 2.35463E+01 0.00000E+00
 -1      3623 1.41795E+01 3.13780E+01 0.00000E+00
 -1      3624 1.41795E+01 3.28467E+01 0.00000E+00
 -1      3625 1.52595E+01 3.31559E+01 0.00000E+00
 -1      3626 1.54785E+01 3.06436E+01 0.00000E+00
 -1      3627 1.29900E+01 2.64469E+01 0.00000E+00
 -1      3628 1.13218E+02 1.65553E+01 0.00000E+00
 -1      3629 1.14573E+02 1.65982E+01 0.00000E+00
 -1      3630 1.46944E+01 1.23503E+01 0.00000E+00
 -1      3631 1.59934E+01 1.30847E+01 0.00000E+00
 -1      3632 2.49000E+01 3.31130E+01 0.00000E+00
 -1      3633 2.64000E+01 3.31130E+01 0.00000E+00
 -1      3634 2.79000E+01 3.31130E+01 0.00000E+00
 -1      3635 2.94000E+01 3.31130E+01 0.00000E+00
 -1      3636 2.71500E+01 3.18140E+01 0.00000E+00
 -1      3637 3.09000E+01 3.31130E+01 0.00000E+00
 -1      3638 3.24000E+01 3.31130E+01 0.00000E+00
 -1      3639 3.01500E+01 3.18140E+01 0.00000E+00
 -1      3640 3.39000E+01 3.31130E+01 0.00000E+00
 -1      3641 3.54000E+01 3.31130E+01 0.00000E+00
 -1      3642 3.31500E+01 3.18140E+01 0.00000E+00
 -1      3643 3.69000E+01 3.31130E+01 0.00000E+00
 -1      3644 3.84000E+01 3.31130E+01 0.00000E+00
 -1      3645 3.61500E+01 3.18140E+01 0.00000E+00
 -1      3646 3.99000E+01 3.31130E+01 0.00000E+00
 -1      3647 4.14000E+01 3.31130E+01 0.00000E+00
 -1      3648 3.91500E+01 3.18140E+01 0.00000E+00
 -1      3649 4.29000E+01 3.31130E+01 0.00000E+00
 -1      3650 4.44000E+01 3.31130E+01 0.00000E+00
 -1      3651 4.21500E+01 3.18140E+01 0.00000E+00
 -1      3652 4.59000E+01 3.31130E+01 0.00000E+00
 -1      3653 4.74000E+01 3.31130E+01 0.00000E+00
 -1      3654 4.51500E+01 3.18140E+01 0.00000E+00
 -1      3655 4.89000E+01 3.31130E+01 0.00000E+00
 -1      3656 5.04000E+01 3.31130E+01 0.00000E+00
 -1      3657 4.81500E+01 3.18140E+01 0.00000E+00
 -1      3658 5.19000E+01 3.31130E+01 0.00000E+00
 -1      3659 5.34000E+01 3.31130E+01 0.00000E+00
 -1      3660 5.11500E+01 3.18140E+01 0.00000E+00
 -1      3661 5.49000E+01 3.31130E+01 0.00000E+00
 -1      3662 5.64000E+01 3.31130E+01 0.00000E+00
 -1      3663 5.41500E+01 3.18140E+01 0.00000E+00
 -1      3664 5.79000E+01 3.31130E+01 0.00000E+00
 -1      3665 5.94000E+01 3.31130E+01 0.00000E+00
 -1      3666 5.71500E+01 3.18140E+01 0.00000E+00
 -1      3667 6.09000E+01 3.31130E+01 0.00000E+00
 -1      3668 6.24000E+01 3.31130E+01 0.00000E+00
 -1      3669 6.01500E+01 3.18140E+01 0.00000E+00
 -1      3670 6.39000E+01 3.31130E+01 0.00000E+00
 -1      3671 6.54000E+01 3.31130E+01 0.00000E+00
 -1      3672 6.31500E+01 3.18140E+01 0.00000E+00
 -1      3673 6.69000E+01 3.31130E+01 0.00000E+00
 -1      3674 6.84000E+01 3.31130E+01 0.00000E+00
 -1      3675 6.61500E+01 3.18140E+01 0.00000E+00
 -1      3676 6.99000E+01 3.31130E+01 0.00000E+00
 -1      3677 7.14000E+01 3.31130E+01 0.00000E+00
 -1      3678 6.91500E+01 3.18140E+01 0.00000E+00
 -1      3679 7.29000E+01 3.31130E+01 0.00000E+00
 -1      3680 7.44000E+01 3.31130E+01 0.00000E+00
 -1      3681 7.21500E+01 3.18140E+01 0.00000E+00
 -1      3682 7.59000E+01 3.31130E+01 0.00000E+00
 -1      3683 7.74000E+01 3.31130E+01 0.00000E+00
 -1      3684 7.51500E+01 3.18140E+01 0.00000E+00
 -1      3685 7.89000E+01 3.31130E+01 0.00000E+00
 -1      3686 8.04000E+01 3.31130E+01 0.00000E+00
 -1      3687 7.81500E+01 3.18140E+01 0.00000E+00
 -1      3688 8.19000E+01 3.31130E+01 0.00000E+00
 -1      3689 8.34000E+01 3.31130E+01 0.00000E+00
 -1      3690 8.11500E+01 3.18140E+01 0.00000E+00
 -1      3691 8.49000E+01 3.31130E+01 0.00000E+00
 -1      3692 8.64000E+01 3.31130E+01 0.00000E+00
 -1      3693 8.41500E+01 3.18140E+01 0.00000E+00
 -1      3694 8.79000E+01 3.31130E+01 0.00000E+00
 -1      3695 8.94000E+01 3.31130E+01 0.00000E+00
 -1      3696 8.71500E+01 3.18140E+01 0.00000E+00
 -1      3697 9.09000E+01 3.31130E+01 0.00000E+00
 -1      3698 9.24000E+01 3.31130E+01 0.00000E+00
 -1      3699 9.01500E+01 3.18140E+01 0.00000E+00
 -1      3700 9.39000E+01 3.31130E+01 0.00000E+00
 -1      3701 9.54000E+01 3.31130E+01 0.00000E+00
 -1      3702 9.31500E+01 3.18140E+01 0.00000E+00
 -1      3703 9.69000E+01 3.31130E+01 0.00000E+00
 -1      3704 9.84000E+01 3.31130E+01 0.00000E+00
 -1      3705 9.61500E+01 3.18140E+01 0.00000E+00
 -1      3706 9.99000E+01 3.31130E+01 0.00000E+00
 -1      3707 1.01400E+02 3.31130E+01 0.00000E+00
 -1      3708 9.91500E+01 3.18140E+01 0.00000E+00
 -1      3709 1.02900E+02 3.31130E+01 0.00000E+00
 -1      3710 1.04400E+02 3.31130E+01 0.00000E+00
 -1      3711 1.02150E+02 3.18140E+01 0.00000E+00
 -1      3712 4.37850E+01 1.56973E+01 0.00000E+00
 -1      3713 4.22850E+01 1.56973E+01 0.00000E+00
 -1      3714 1.08167E+02 3.17764E+01 0.00000E+00
 -1      3715 1.07778E+02 3.03316E+01 0.00000E+00
 -1      3716 2.72850E+01 1.30992E+01 0.00000E+00
 -1      3717 2.57850E+01 1.30992E+01 0.00000E+00
 -1      3718 2.80350E+01 1.43982E+01 0.00000E+00
 -1      3719 5.57850E+01 1.56973E+01 0.00000E+00
 -1      3720 5.42850E+01 1.56973E+01 0.00000E+00
 -1      3721 5.27850E+01 1.56973E+01 0.00000E+00
 -1      3722 5.12850E+01 1.56973E+01 0.00000E+00
 -1      3723 5.35350E+01 1.69963E+01 0.00000E+00
 -1      3724 6.17850E+01 1.56973E+01 0.00000E+00
 -1      3725 6.02850E+01 1.56973E+01 0.00000E+00
 -1      3726 6.47850E+01 1.56973E+01 0.00000E+00
 -1      3727 6.32850E+01 1.56973E+01 0.00000E+00
 -1      3728 6.25350E+01 1.69963E+01 0.00000E+00
 -1      3729 6.77850E+01 1.56973E+01 0.00000E+00
 -1      3730 6.62850E+01 1.56973E+01 0.00000E+00
 -1      3731 6.55350E+01 1.69963E+01 0.00000E+00
 -1      3732 7.07850E+01 1.56973E+01 0.00000E+00
 -1      3733 6.92850E+01 1.56973E+01 0.00000E+00
 -1      3734 6.85350E+01 1.69963E+01 0.00000E+00
 -1      3735 7.37850E+01 1.56973E+01 0.00000E+00
 -1      3736 7.22850E+01 1.56973E+01 0.00000E+00
 -1      3737 7.15350E+01 1.69963E+01 0.00000E+00
 -1      3738 7.67850E+01 1.56973E+01 0.00000E+00
 -1      3739 7.52850E+01 1.56973E+01 0.00000E+00
 -1      3740 7.45350E+01 1.69963E+01 0.00000E+00
 -1      3741 7.97850E+01 1.56973E+01 0.00000E+00
 -1      3742 7.82850E+01 1.56973E+01 0.00000E+00
 -1      3743 7.75350E+01 1.69963E+01 0.00000E+00
 -1      3744 8.27850E+01 1.56973E+01 0.00000E+00
 -1      3745 8.12850E+01 1.56973E+01 0.00000E+00
 -1      3746 8.05350E+01 1.69963E+01 0.00000E+00
 -1      3747 8.57850E+01 1.56973E+01 0.00000E+00
 -1      3748 8.42850E+01 1.56973E+01 0.00000E+00
 -1      3749 8.35350E+01 1.69963E+01 0.00000E+00
 -1      3750 8.87850E+01 1.56973E+01 0.00000E+00
 -1      3751 8.72850E+01 1.56973E+01 0.00000E+00
 -1      3752 8.65350E+01 1.69963E+01 0.00000E+00
 -1      3753 9.17850E+01 1.56973E+01 0.00000E+00
 -1      3754 9.02850E+01 1.56973E+01 0.00000E+00
 -1      3755 8.95350E+01 1.69963E+01 0.00000E+00
 -1      3756 9.47850E+01 1.56973E+01 0.00000E+00
 -1      3757 9.32850E+01 1.56973E+01 0.00000E+00
 -1      3758 9.25350E+01 1.69963E+01 0.00000E+00
 -1      3759 9.77850E+01 1.56973E+01 0.00000E+00
 -1      3760 9.62850E+01 1.56973E+01 0.00000E+00
 -1      3761 9.55350E+01 1.69963E+01 0.00000E+00
 -1      3762 1.00785E+02 1.56973E+01 0.00000E+00
 -1      3763 9.92850E+01 1.56973E+01 0.00000E+00
 -1      3764 9.85350E+01 1.69963E+01 0.00000E+00
 -1      3765 1.03785E+02 1.56973E+01 0.00000E+00
 -1      3766 1.02285E+02 1.56973E+01 0.00000E+00
 -1      3767 1.01535E+02 1.69963E+01 0.00000E+00
 -1      3768 1.06785E+02 1.56973E+01 0.00000E+00
 -1      3769 1.05285E+02 1.56973E+01 0.00000E+00
 -1      3770 1.04535E+02 1.69963E+01 0.00000E+00
 -1      3771 1.09785E+02 1.56973E+01 0.00000E+00
 -1      3772 1.08285E+02 1.56973E+01 0.00000E+00
 -1      3773 1.07535E+02 1.69963E+01 0.00000E+00
 -1      3774 1.11718E+02 1.65553E+01 0.00000E+00
 -1      3775 1.17902E+02 1.51744E+01 0.00000E+00
 -1      3776 1.32204E+02 1.33577E+01 0.00000E+00
 -1      3777 2.19000E+01 3.31130E+01 0.00000E+00
 -1      3778 2.34000E+01 3.31130E+01 0.00000E+00
 -1      3779 2.41500E+01 3.18140E+01 0.00000E+00
 -1      3780 1.67434E+01 1.43837E+01 0.00000E+00
 -1      3781 5.87850E+01 1.56973E+01 0.00000E+00
 -1      3782 5.72850E+01 1.56973E+01 0.00000E+00
 -1      3783 5.95350E+01 1.69963E+01 0.00000E+00
 -1      3784 1.42890E+01 2.71812E+01 0.00000E+00
 -1      3785 1.55880E+01 2.79156E+01 0.00000E+00
 -1      3786 1.42890E+01 2.57094E+01 0.00000E+00
 -1      3787 1.89000E+01 3.31130E+01 0.00000E+00
 -1      3788 2.04000E+01 3.31130E+01 0.00000E+00
 -1      3789 2.11500E+01 3.18140E+01 0.00000E+00
 -1      3790 1.42890E+01 1.68766E+01 0.00000E+00
 -1      3791 1.42890E+01 1.83516E+01 0.00000E+00
 -1      3792 1.55880E+01 1.90891E+01 0.00000E+00
 -1      3793 1.55880E+01 1.61422E+01 0.00000E+00
 -1      3794 1.07431E+02 3.29872E+01 0.00000E+00
 -1      3795 1.35699E+02 1.36127E+01 0.00000E+00
 -1      3796 1.05945E+02 3.28990E+01 0.00000E+00
 -1      3797 1.67595E+01 3.31559E+01 0.00000E+00
 -1      3798 1.55880E+01 2.49719E+01 0.00000E+00
 -1      3799 1.08764E+02 2.45882E+01 0.00000E+00
 -1      3800 1.08605E+02 2.27041E+01 0.00000E+00
 -1      3801 1.16406E+02 1.52511E+01 0.00000E+00
 -1      3802 3.70350E+01 1.43982E+01 0.00000E+00
 -1      3803 3.17850E+01 1.56973E+01 0.00000E+00
 -1      3804 3.02850E+01 1.56973E+01 0.00000E+00
 -1      3805 1.97293E+01 1.56141E+01 0.00000E+00
 -1      3806 1.84111E+01 1.54643E+01 0.00000E+00
 -1      3807 1.05195E+02 3.16000E+01 0.00000E+00
 -1      3808 2.50350E+01 1.43982E+01 0.00000E+00
 -1      3809 4.15350E+01 1.69963E+01 0.00000E+00
 -1      3810 4.07850E+01 1.56973E+01 0.00000E+00
 -1      3811 3.92850E+01 1.56973E+01 0.00000E+00
 -1      3812 4.52850E+01 1.56973E+01 0.00000E+00
 -1      3813 4.45350E+01 1.69963E+01 0.00000E+00
 -1      3814 4.67850E+01 1.56973E+01 0.00000E+00
 -1      3815 1.06341E+02 3.03083E+01 0.00000E+00
 -1      3816 1.07379E+02 2.92539E+01 0.00000E+00
 -1      3817 1.06980E+02 2.81761E+01 0.00000E+00
 -1      3818 5.65350E+01 1.69963E+01 0.00000E+00
 -1      3819 1.07757E+02 2.54338E+01 0.00000E+00
 -1      3820 2.27293E+01 1.56141E+01 0.00000E+00
 -1      3821 2.12293E+01 1.56141E+01 0.00000E+00
 -1      3822 2.04235E+01 1.68299E+01 0.00000E+00
 -1      3823 1.10968E+02 1.78543E+01 0.00000E+00
 -1      3824 1.14906E+02 1.52511E+01 0.00000E+00
 -1      3825 1.09563E+02 1.84890E+01 0.00000E+00
 -1      3826 1.68870E+01 2.12969E+01 0.00000E+00
 -1      3827 1.68870E+01 2.27656E+01 0.00000E+00
 -1      3828 4.97850E+01 1.56973E+01 0.00000E+00
 -1      3829 4.82850E+01 1.56973E+01 0.00000E+00
 -1      3830 4.75350E+01 1.69963E+01 0.00000E+00
 -1      3831 1.68870E+01 2.71797E+01 0.00000E+00
 -1      3832 1.68870E+01 2.86516E+01 0.00000E+00
 -1      3833 1.07161E+02 2.22782E+01 0.00000E+00
 -1      3834 1.08271E+02 2.12363E+01 0.00000E+00
 -1      3835 1.75095E+01 3.18569E+01 0.00000E+00
 -1      3836 1.76190E+01 3.06007E+01 0.00000E+00
 -1      3837 1.72558E+01 1.57493E+01 0.00000E+00
 -1      3838 3.47850E+01 1.56973E+01 0.00000E+00
 -1      3839 3.32850E+01 1.56973E+01 0.00000E+00
 -1      3840 3.25350E+01 1.69963E+01 0.00000E+00
 -1      3841 1.68870E+01 2.42367E+01 0.00000E+00
 -1      3842 1.68870E+01 2.57086E+01 0.00000E+00
 -1      3843 1.81860E+01 2.64445E+01 0.00000E+00
 -1      3844 1.81860E+01 2.35023E+01 0.00000E+00
 -1      3845 1.89180E+01 2.98648E+01 0.00000E+00
 -1      3846 1.72558E+01 1.72227E+01 0.00000E+00
 -1      3847 5.05350E+01 1.69963E+01 0.00000E+00
 -1      3848 1.04796E+02 3.05223E+01 0.00000E+00
 -1      3849 2.94000E+01 3.05150E+01 0.00000E+00
 -1      3850 3.09000E+01 3.05150E+01 0.00000E+00
 -1      3851 3.24000E+01 3.05150E+01 0.00000E+00
 -1      3852 3.39000E+01 3.05150E+01 0.00000E+00
 -1      3853 3.16500E+01 2.92160E+01 0.00000E+00
 -1      3854 3.54000E+01 3.05150E+01 0.00000E+00
 -1      3855 3.69000E+01 3.05150E+01 0.00000E+00
 -1      3856 3.46500E+01 2.92160E+01 0.00000E+00
 -1      3857 3.84000E+01 3.05150E+01 0.00000E+00
 -1      3858 3.99000E+01 3.05150E+01 0.00000E+00
 -1      3859 3.76500E+01 2.92160E+01 0.00000E+00
 -1      3860 4.14000E+01 3.05150E+01 0.00000E+00
 -1      3861 4.29000E+01 3.05150E+01 0.00000E+00
 -1      3862 4.06500E+01 2.92160E+01 0.00000E+00
 -1      3863 4.44000E+01 3.05150E+01 0.00000E+00
 -1      3864 4.59000E+01 3.05150E+01 0.00000E+00
 -1      3865 4.36500E+01 2.92160E+01 0.00000E+00
 -1      3866 4.74000E+01 3.05150E+01 0.00000E+00
 -1      3867 4.89000E+01 3.05150E+01 0.00000E+00
 -1      3868 4.66500E+01 2.92160E+01 0.00000E+00
 -1      3869 5.04000E+01 3.05150E+01 0.00000E+00
 -1      3870 5.19000E+01 3.05150E+01 0.00000E+00
 -1      3871 4.96500E+01 2.92160E+01 0.00000E+00
 -1      3872 5.34000E+01 3.05150E+01 0.00000E+00
 -1      3873 5.49000E+01 3.05150E+01 0.00000E+00
 -1      3874 5.26500E+01 2.92160E+01 0.00000E+00
 -1      3875 5.64000E+01 3.05150E+01 0.00000E+00
 -1      3876 5.79000E+01 3.05150E+01 0.00000E+00
 -1      3877 5.56500E+01 2.92160E+01 0.00000E+00
 -1      3878 5.94000E+01 3.05150E+01 0.00000E+00
 -1      3879 6.09000E+01 3.05150E+01 0.00000E+00
 -1      3880 5.86500E+01 2.92160E+01 0.00000E+00
 -1      3881 6.24000E+01 3.05150E+01 0.00000E+00
 -1      3882 6.39000E+01 3.05150E+01 0.00000E+00
 -1      3883 6.16500E+01 2.92160E+01 0.00000E+00
 -1      3884 6.54000E+01 3.05150E+01 0.00000E+00
 -1      3885 6.69000E+01 3.05150E+01 0.00000E+00
 -1      3886 6.46500E+01 2.92160E+01 0.00000E+00
 -1      3887 6.84000E+01 3.05150E+01 0.00000E+00
 -1      3888 6.99000E+01 3.05150E+01 0.00000E+00
 -1      3889 6.76500E+01 2.92160E+01 0.00000E+00
 -1      3890 7.14000E+01 3.05150E+01 0.00000E+00
 -1      3891 7.29000E+01 3.05150E+01 0.00000E+00
 -1      3892 7.06500E+01 2.92160E+01 0.00000E+00
 -1      3893 7.44000E+01 3.05150E+01 0.00000E+00
 -1      3894 7.59000E+01 3.05150E+01 0.00000E+00
 -1      3895 7.36500E+01 2.92160E+01 0.00000E+00
 -1      3896 7.74000E+01 3.05150E+01 0.00000E+00
 -1      3897 7.89000E+01 3.05150E+01 0.00000E+00
 -1      3898 7.66500E+01 2.92160E+01 0.00000E+00
 -1      3899 8.04000E+01 3.05150E+01 0.00000E+00
 -1      3900 8.19000E+01 3.05150E+01 0.00000E+00
 -1      3901 7.96500E+01 2.92160E+01 0.00000E+00
 -1      3902 8.34000E+01 3.05150E+01 0.00000E+00
 -1      3903 8.49000E+01 3.05150E+01 0.00000E+00
 -1      3904 8.26500E+01 2.92160E+01 0.00000E+00
 -1      3905 8.64000E+01 3.05150E+01 0.00000E+00
 -1      3906 8.79000E+01 3.05150E+01 0.00000E+00
 -1      3907 8.56500E+01 2.92160E+01 0.00000E+00
 -1      3908 8.94000E+01 3.05150E+01 0.00000E+00
 -1      3909 9.09000E+01 3.05150E+01 0.00000E+00
 -1      3910 8.86500E+01 2.92160E+01 0.00000E+00
 -1      3911 9.24000E+01 3.05150E+01 0.00000E+00
 -1      3912 9.39000E+01 3.05150E+01 0.00000E+00
 -1      3913 9.16500E+01 2.92160E+01 0.00000E+00
 -1      3914 9.54000E+01 3.05150E+01 0.00000E+00
 -1      3915 9.69000E+01 3.05150E+01 0.00000E+00
 -1      3916 9.46500E+01 2.92160E+01 0.00000E+00
 -1      3917 9.84000E+01 3.05150E+01 0.00000E+00
 -1      3918 9.99000E+01 3.05150E+01 0.00000E+00
 -1      3919 9.76500E+01 2.92160E+01 0.00000E+00
 -1      3920 1.01400E+02 3.05150E+01 0.00000E+00
 -1      3921 1.02900E+02 3.05150E+01 0.00000E+00
 -1      3922 1.00650E+02 2.92160E+01 0.00000E+00
 -1      3923 1.06603E+02 2.64761E+01 0.00000E+00
 -1      3924 1.06343E+02 2.47882E+01 0.00000E+00
 -1      3925 2.95350E+01 1.69963E+01 0.00000E+00
 -1      3926 2.87850E+01 1.56973E+01 0.00000E+00
 -1      3927 2.72850E+01 1.56973E+01 0.00000E+00
 -1      3928 6.62850E+01 1.82952E+01 0.00000E+00
 -1      3929 6.47850E+01 1.82952E+01 0.00000E+00
 -1      3930 6.32850E+01 1.82952E+01 0.00000E+00
 -1      3931 6.17850E+01 1.82952E+01 0.00000E+00
 -1      3932 6.40350E+01 1.95942E+01 0.00000E+00
 -1      3933 7.22850E+01 1.82952E+01 0.00000E+00
 -1      3934 7.07850E+01 1.82952E+01 0.00000E+00
 -1      3935 7.52850E+01 1.82952E+01 0.00000E+00
 -1      3936 7.37850E+01 1.82952E+01 0.00000E+00
 -1      3937 7.30350E+01 1.95942E+01 0.00000E+00
 -1      3938 7.82850E+01 1.82952E+01 0.00000E+00
 -1      3939 7.67850E+01 1.82952E+01 0.00000E+00
 -1      3940 7.60350E+01 1.95942E+01 0.00000E+00
 -1      3941 8.12850E+01 1.82952E+01 0.00000E+00
 -1      3942 7.97850E+01 1.82952E+01 0.00000E+00
 -1      3943 7.90350E+01 1.95942E+01 0.00000E+00
 -1      3944 8.42850E+01 1.82952E+01 0.00000E+00
 -1      3945 8.27850E+01 1.82952E+01 0.00000E+00
 -1      3946 8.20350E+01 1.95942E+01 0.00000E+00
 -1      3947 8.72850E+01 1.82952E+01 0.00000E+00
 -1      3948 8.57850E+01 1.82952E+01 0.00000E+00
 -1      3949 8.50350E+01 1.95942E+01 0.00000E+00
 -1      3950 9.02850E+01 1.82952E+01 0.00000E+00
 -1      3951 8.87850E+01 1.82952E+01 0.00000E+00
 -1      3952 8.80350E+01 1.95942E+01 0.00000E+00
 -1      3953 9.32850E+01 1.82952E+01 0.00000E+00
 -1      3954 9.17850E+01 1.82952E+01 0.00000E+00
 -1      3955 9.10350E+01 1.95942E+01 0.00000E+00
 -1      3956 9.62850E+01 1.82952E+01 0.00000E+00
 -1      3957 9.47850E+01 1.82952E+01 0.00000E+00
 -1      3958 9.40350E+01 1.95942E+01 0.00000E+00
 -1      3959 9.92850E+01 1.82952E+01 0.00000E+00
 -1      3960 9.77850E+01 1.82952E+01 0.00000E+00
 -1      3961 9.70350E+01 1.95942E+01 0.00000E+00
 -1      3962 1.02285E+02 1.82952E+01 0.00000E+00
 -1      3963 1.00785E+02 1.82952E+01 0.00000E+00
 -1      3964 1.00035E+02 1.95942E+01 0.00000E+00
 -1      3965 1.07931E+02 1.89033E+01 0.00000E+00
 -1      3966 1.06431E+02 1.89033E+01 0.00000E+00
 -1      3967 1.06008E+02 2.33204E+01 0.00000E+00
 -1      3968 1.05673E+02 2.18526E+01 0.00000E+00
 -1      3969 1.04855E+02 2.43627E+01 0.00000E+00
 -1      3970 1.70714E+01 1.85231E+01 0.00000E+00
 -1      3971 1.70714E+01 1.99965E+01 0.00000E+00
 -1      3972 1.83704E+01 2.07309E+01 0.00000E+00
 -1      3973 1.87392E+01 1.81302E+01 0.00000E+00
 -1      3974 3.77850E+01 1.56973E+01 0.00000E+00
 -1      3975 3.62850E+01 1.56973E+01 0.00000E+00
 -1      3976 3.55350E+01 1.69963E+01 0.00000E+00
 -1      3977 3.85350E+01 1.69963E+01 0.00000E+00
 -1      3978 5.72850E+01 1.82952E+01 0.00000E+00
 -1      3979 5.57850E+01 1.82952E+01 0.00000E+00
 -1      3980 1.08459E+02 2.03960E+01 0.00000E+00
 -1      3981 6.02850E+01 1.82952E+01 0.00000E+00
 -1      3982 5.87850E+01 1.82952E+01 0.00000E+00
 -1      3983 5.80350E+01 1.95942E+01 0.00000E+00
 -1      3984 2.04180E+01 2.98648E+01 0.00000E+00
 -1      3985 2.19180E+01 2.98648E+01 0.00000E+00
 -1      3986 1.96860E+01 2.79156E+01 0.00000E+00
 -1      3987 5.12850E+01 1.82952E+01 0.00000E+00
 -1      3988 4.97850E+01 1.82952E+01 0.00000E+00
 -1      3989 2.34180E+01 2.98648E+01 0.00000E+00
 -1      3990 2.49180E+01 2.98648E+01 0.00000E+00
 -1      3991 2.26860E+01 2.79156E+01 0.00000E+00
 -1      3992 2.57850E+01 1.56973E+01 0.00000E+00
 -1      3993 2.42850E+01 1.56973E+01 0.00000E+00
 -1      3994 2.65350E+01 1.69963E+01 0.00000E+00
 -1      3995 5.42850E+01 1.82952E+01 0.00000E+00
 -1      3996 5.27850E+01 1.82952E+01 0.00000E+00
 -1      3997 5.50350E+01 1.95942E+01 0.00000E+00
 -1      3998 6.92850E+01 1.82952E+01 0.00000E+00
 -1      3999 6.77850E+01 1.82952E+01 0.00000E+00
 -1      4000 6.70350E+01 1.95942E+01 0.00000E+00
 -1      4001 2.64090E+01 3.01899E+01 0.00000E+00
 -1      4002 2.79090E+01 3.01899E+01 0.00000E+00
 -1      4003 2.86590E+01 2.88909E+01 0.00000E+00
 -1      4004 2.56770E+01 2.82407E+01 0.00000E+00
 -1      4005 1.05302E+02 2.03779E+01 0.00000E+00
 -1      4006 1.04906E+02 1.84709E+01 0.00000E+00
 -1      4007 1.03406E+02 1.84709E+01 0.00000E+00
 -1      4008 1.04149E+02 2.14202E+01 0.00000E+00
 -1      4009 1.96860E+01 2.64445E+01 0.00000E+00
 -1      4010 3.32850E+01 1.82952E+01 0.00000E+00
 -1      4011 3.17850E+01 1.82952E+01 0.00000E+00
 -1      4012 4.22850E+01 1.82952E+01 0.00000E+00
 -1      4013 4.07850E+01 1.82952E+01 0.00000E+00
 -1      4014 1.97487E+01 2.02631E+01 0.00000E+00
 -1      4015 1.95643E+01 2.15634E+01 0.00000E+00
 -1      4016 1.05565E+02 2.75305E+01 0.00000E+00
 -1      4017 1.04046E+02 2.92233E+01 0.00000E+00
 -1      4018 4.52850E+01 1.82952E+01 0.00000E+00
 -1      4019 4.37850E+01 1.82952E+01 0.00000E+00
 -1      4020 4.30350E+01 1.95942E+01 0.00000E+00
 -1      4021 2.34793E+01 1.69131E+01 0.00000E+00
 -1      4022 5.20350E+01 1.95942E+01 0.00000E+00
 -1      4023 6.10350E+01 1.95942E+01 0.00000E+00
 -1      4024 1.02656E+02 1.97699E+01 0.00000E+00
 -1      4025 2.01783E+01 1.78963E+01 0.00000E+00
 -1      4026 1.99939E+01 1.91967E+01 0.00000E+00
 -1      4027 2.11879E+01 2.00292E+01 0.00000E+00
 -1      4028 2.16783E+01 1.78963E+01 0.00000E+00
 -1      4029 3.02850E+01 1.82952E+01 0.00000E+00
 -1      4030 2.87850E+01 1.82952E+01 0.00000E+00
 -1      4031 3.10350E+01 1.95942E+01 0.00000E+00
 -1      4032 4.82850E+01 1.82952E+01 0.00000E+00
 -1      4033 4.67850E+01 1.82952E+01 0.00000E+00
 -1      4034 4.60350E+01 1.95942E+01 0.00000E+00
 -1      4035 4.90350E+01 1.95942E+01 0.00000E+00
 -1      4036 7.00350E+01 1.95942E+01 0.00000E+00
 -1      4037 1.95643E+01 2.30345E+01 0.00000E+00
 -1      4038 1.95643E+01 2.45056E+01 0.00000E+00
 -1      4039 2.09427E+01 2.25667E+01 0.00000E+00
 -1      4040 3.47850E+01 1.82952E+01 0.00000E+00
 -1      4041 3.40350E+01 1.95942E+01 0.00000E+00
 -1      4042 3.62850E+01 1.82952E+01 0.00000E+00
 -1      4043 4.00350E+01 1.95942E+01 0.00000E+00
 -1      4044 3.92850E+01 1.82952E+01 0.00000E+00
 -1      4045 3.77850E+01 1.82952E+01 0.00000E+00
 -1      4046 1.03399E+02 2.27192E+01 0.00000E+00
 -1      4047 1.03028E+02 2.12446E+01 0.00000E+00
 -1      4048 1.01906E+02 2.10689E+01 0.00000E+00
 -1      4049 1.03670E+02 2.75233E+01 0.00000E+00
 -1      4050 3.39000E+01 2.79170E+01 0.00000E+00
 -1      4051 3.54000E+01 2.79170E+01 0.00000E+00
 -1      4052 3.69000E+01 2.79170E+01 0.00000E+00
 -1      4053 3.84000E+01 2.79170E+01 0.00000E+00
 -1      4054 3.61500E+01 2.66180E+01 0.00000E+00
 -1      4055 3.99000E+01 2.79170E+01 0.00000E+00
 -1      4056 4.14000E+01 2.79170E+01 0.00000E+00
 -1      4057 3.91500E+01 2.66180E+01 0.00000E+00
 -1      4058 4.29000E+01 2.79170E+01 0.00000E+00
 -1      4059 4.44000E+01 2.79170E+01 0.00000E+00
 -1      4060 4.21500E+01 2.66180E+01 0.00000E+00
 -1      4061 4.59000E+01 2.79170E+01 0.00000E+00
 -1      4062 4.74000E+01 2.79170E+01 0.00000E+00
 -1      4063 4.51500E+01 2.66180E+01 0.00000E+00
 -1      4064 4.89000E+01 2.79170E+01 0.00000E+00
 -1      4065 5.04000E+01 2.79170E+01 0.00000E+00
 -1      4066 4.81500E+01 2.66180E+01 0.00000E+00
 -1      4067 5.19000E+01 2.79170E+01 0.00000E+00
 -1      4068 5.34000E+01 2.79170E+01 0.00000E+00
 -1      4069 5.11500E+01 2.66180E+01 0.00000E+00
 -1      4070 5.49000E+01 2.79170E+01 0.00000E+00
 -1      4071 5.64000E+01 2.79170E+01 0.00000E+00
 -1      4072 5.41500E+01 2.66180E+01 0.00000E+00
 -1      4073 5.79000E+01 2.79170E+01 0.00000E+00
 -1      4074 5.94000E+01 2.79170E+01 0.00000E+00
 -1      4075 5.71500E+01 2.66180E+01 0.00000E+00
 -1      4076 6.09000E+01 2.79170E+01 0.00000E+00
 -1      4077 6.24000E+01 2.79170E+01 0.00000E+00
 -1      4078 6.01500E+01 2.66180E+01 0.00000E+00
 -1      4079 6.39000E+01 2.79170E+01 0.00000E+00
 -1      4080 6.54000E+01 2.79170E+01 0.00000E+00
 -1      4081 6.31500E+01 2.66180E+01 0.00000E+00
 -1      4082 6.69000E+01 2.79170E+01 0.00000E+00
 -1      4083 6.84000E+01 2.79170E+01 0.00000E+00
 -1      4084 6.61500E+01 2.66180E+01 0.00000E+00
 -1      4085 6.99000E+01 2.79170E+01 0.00000E+00
 -1      4086 7.14000E+01 2.79170E+01 0.00000E+00
 -1      4087 6.91500E+01 2.66180E+01 0.00000E+00
 -1      4088 7.29000E+01 2.79170E+01 0.00000E+00
 -1      4089 7.44000E+01 2.79170E+01 0.00000E+00
 -1      4090 7.21500E+01 2.66180E+01 0.00000E+00
 -1      4091 7.59000E+01 2.79170E+01 0.00000E+00
 -1      4092 7.74000E+01 2.79170E+01 0.00000E+00
 -1      4093 7.51500E+01 2.66180E+01 0.00000E+00
 -1      4094 7.89000E+01 2.79170E+01 0.00000E+00
 -1      4095 8.04000E+01 2.79170E+01 0.00000E+00
 -1      4096 7.81500E+01 2.66180E+01 0.00000E+00
 -1      4097 8.19000E+01 2.79170E+01 0.00000E+00
 -1      4098 8.34000E+01 2.79170E+01 0.00000E+00
 -1      4099 8.11500E+01 2.66180E+01 0.00000E+00
 -1      4100 8.49000E+01 2.79170E+01 0.00000E+00
 -1      4101 8.64000E+01 2.79170E+01 0.00000E+00
 -1      4102 8.41500E+01 2.66180E+01 0.00000E+00
 -1      4103 8.79000E+01 2.79170E+01 0.00000E+00
 -1      4104 8.94000E+01 2.79170E+01 0.00000E+00
 -1      4105 8.71500E+01 2.66180E+01 0.00000E+00
 -1      4106 9.09000E+01 2.79170E+01 0.00000E+00
 -1      4107 9.24000E+01 2.79170E+01 0.00000E+00
 -1      4108 9.01500E+01 2.66180E+01 0.00000E+00
 -1      4109 9.39000E+01 2.79170E+01 0.00000E+00
 -1      4110 9.54000E+01 2.79170E+01 0.00000E+00
 -1      4111 9.31500E+01 2.66180E+01 0.00000E+00
 -1      4112 9.69000E+01 2.79170E+01 0.00000E+00
 -1      4113 9.84000E+01 2.79170E+01 0.00000E+00
 -1      4114 9.61500E+01 2.66180E+01 0.00000E+00
 -1      4115 9.99000E+01 2.79170E+01 0.00000E+00
 -1      4116 1.01400E+02 2.79170E+01 0.00000E+00
 -1      4117 9.91500E+01 2.66180E+01 0.00000E+00
 -1      4118 4.97850E+01 2.08932E+01 0.00000E+00
 -1      4119 4.82850E+01 2.08932E+01 0.00000E+00
 -1      4120 6.77850E+01 2.08932E+01 0.00000E+00
 -1      4121 6.62850E+01 2.08932E+01 0.00000E+00
 -1      4122 7.67850E+01 2.08932E+01 0.00000E+00
 -1      4123 7.52850E+01 2.08932E+01 0.00000E+00
 -1      4124 7.37850E+01 2.08932E+01 0.00000E+00
 -1      4125 7.22850E+01 2.08932E+01 0.00000E+00
 -1      4126 7.45350E+01 2.21922E+01 0.00000E+00
 -1      4127 8.27850E+01 2.08932E+01 0.00000E+00
 -1      4128 8.12850E+01 2.08932E+01 0.00000E+00
 -1      4129 8.57850E+01 2.08932E+01 0.00000E+00
 -1      4130 8.42850E+01 2.08932E+01 0.00000E+00
 -1      4131 8.35350E+01 2.21922E+01 0.00000E+00
 -1      4132 8.87850E+01 2.08932E+01 0.00000E+00
 -1      4133 8.72850E+01 2.08932E+01 0.00000E+00
 -1      4134 8.65350E+01 2.21922E+01 0.00000E+00
 -1      4135 9.17850E+01 2.08932E+01 0.00000E+00
 -1      4136 9.02850E+01 2.08932E+01 0.00000E+00
 -1      4137 8.95350E+01 2.21922E+01 0.00000E+00
 -1      4138 9.47850E+01 2.08932E+01 0.00000E+00
 -1      4139 9.32850E+01 2.08932E+01 0.00000E+00
 -1      4140 9.25350E+01 2.21922E+01 0.00000E+00
 -1      4141 9.77850E+01 2.08932E+01 0.00000E+00
 -1      4142 9.62850E+01 2.08932E+01 0.00000E+00
 -1      4143 9.55350E+01 2.21922E+01 0.00000E+00
 -1      4144 1.00596E+02 2.09811E+01 0.00000E+00
 -1      4145 9.90956E+01 2.09811E+01 0.00000E+00
 -1      4146 9.83456E+01 2.22801E+01 0.00000E+00
 -1      4147 1.00967E+02 2.24557E+01 0.00000E+00
 -1      4148 2.47898E+01 1.80627E+01 0.00000E+00
 -1      4149 2.32341E+01 1.79795E+01 0.00000E+00
 -1      4150 2.29888E+01 1.90459E+01 0.00000E+00
 -1      4151 2.10643E+01 2.59767E+01 0.00000E+00
 -1      4152 7.07850E+01 2.08932E+01 0.00000E+00
 -1      4153 6.92850E+01 2.08932E+01 0.00000E+00
 -1      4154 6.85350E+01 2.21922E+01 0.00000E+00
 -1      4155 3.09000E+01 2.79170E+01 0.00000E+00
 -1      4156 3.24000E+01 2.79170E+01 0.00000E+00
 -1      4157 3.31500E+01 2.66180E+01 0.00000E+00
 -1      4158 2.25643E+01 2.59767E+01 0.00000E+00
 -1      4159 2.40643E+01 2.59767E+01 0.00000E+00
 -1      4160 2.24427E+01 2.40378E+01 0.00000E+00
 -1      4161 7.97850E+01 2.08932E+01 0.00000E+00
 -1      4162 7.82850E+01 2.08932E+01 0.00000E+00
 -1      4163 8.05350E+01 2.21922E+01 0.00000E+00
 -1      4164 1.02920E+02 2.62243E+01 0.00000E+00
 -1      4165 6.17850E+01 2.08932E+01 0.00000E+00
 -1      4166 6.02850E+01 2.08932E+01 0.00000E+00
 -1      4167 5.87850E+01 2.08932E+01 0.00000E+00
 -1      4168 5.72850E+01 2.08932E+01 0.00000E+00
 -1      4169 5.95350E+01 2.21922E+01 0.00000E+00
 -1      4170 2.75374E+01 1.81790E+01 0.00000E+00
 -1      4171 2.60374E+01 1.81790E+01 0.00000E+00
 -1      4172 2.57922E+01 1.92454E+01 0.00000E+00
 -1      4173 2.82874E+01 1.94780E+01 0.00000E+00
 -1      4174 5.57850E+01 2.08932E+01 0.00000E+00
 -1      4175 5.42850E+01 2.08932E+01 0.00000E+00
 -1      4176 5.65350E+01 2.21922E+01 0.00000E+00
 -1      4177 5.27850E+01 2.08932E+01 0.00000E+00
 -1      4178 5.12850E+01 2.08932E+01 0.00000E+00
 -1      4179 5.05350E+01 2.21922E+01 0.00000E+00
 -1      4180 5.35350E+01 2.21922E+01 0.00000E+00
 -1      4181 1.02585E+02 2.47564E+01 0.00000E+00
 -1      4182 6.47850E+01 2.08932E+01 0.00000E+00
 -1      4183 6.32850E+01 2.08932E+01 0.00000E+00
 -1      4184 6.25350E+01 2.21922E+01 0.00000E+00
 -1      4185 4.07850E+01 2.08932E+01 0.00000E+00
 -1      4186 3.92850E+01 2.08932E+01 0.00000E+00
 -1      4187 3.47850E+01 2.08932E+01 0.00000E+00
 -1      4188 3.32850E+01 2.08932E+01 0.00000E+00
 -1      4189 2.54337E+01 2.43629E+01 0.00000E+00
 -1      4190 2.55553E+01 2.63018E+01 0.00000E+00
 -1      4191 2.70463E+01 2.66269E+01 0.00000E+00
 -1      4192 4.75350E+01 2.21922E+01 0.00000E+00
 -1      4193 4.67850E+01 2.08932E+01 0.00000E+00
 -1      4194 4.52850E+01 2.08932E+01 0.00000E+00
 -1      4195 6.55350E+01 2.21922E+01 0.00000E+00
 -1      4196 4.37850E+01 2.08932E+01 0.00000E+00
 -1      4197 4.22850E+01 2.08932E+01 0.00000E+00
 -1      4198 4.45350E+01 2.21922E+01 0.00000E+00
 -1      4199 7.15350E+01 2.21922E+01 0.00000E+00
 -1      4200 3.17850E+01 2.08932E+01 0.00000E+00
 -1      4201 3.02850E+01 2.08932E+01 0.00000E+00
 -1      4202 3.25350E+01 2.21922E+01 0.00000E+00
 -1      4203 7.75350E+01 2.21922E+01 0.00000E+00
 -1      4204 2.82277E+01 2.71094E+01 0.00000E+00
 -1      4205 2.97187E+01 2.74345E+01 0.00000E+00
 -1      4206 3.04687E+01 2.61355E+01 0.00000E+00
 -1      4207 2.81060E+01 2.51705E+01 0.00000E+00
 -1      4208 2.27436E+01 2.01124E+01 0.00000E+00
 -1      4209 2.24984E+01 2.11788E+01 0.00000E+00
 -1      4210 2.42993E+01 2.01956E+01 0.00000E+00
 -1      4211 2.24984E+01 2.26499E+01 0.00000E+00
 -1      4212 4.15350E+01 2.21922E+01 0.00000E+00
 -1      4213 7.78425E+01 2.44051E+01 0.00000E+00
 -1      4214 7.63425E+01 2.44051E+01 0.00000E+00
 -1      4215 3.54000E+01 2.53190E+01 0.00000E+00
 -1      4216 3.69000E+01 2.53190E+01 0.00000E+00
 -1      4217 4.18425E+01 2.44051E+01 0.00000E+00
 -1      4218 4.03425E+01 2.44051E+01 0.00000E+00
 -1      4219 3.70350E+01 1.95942E+01 0.00000E+00
 -1      4220 3.88425E+01 2.44051E+01 0.00000E+00
 -1      4221 4.33425E+01 2.44051E+01 0.00000E+00
 -1      4222 4.48425E+01 2.44051E+01 0.00000E+00
 -1      4223 4.63425E+01 2.44051E+01 0.00000E+00
 -1      4224 4.78425E+01 2.44051E+01 0.00000E+00
 -1      4225 4.93425E+01 2.44051E+01 0.00000E+00
 -1      4226 5.08425E+01 2.44051E+01 0.00000E+00
 -1      4227 5.23425E+01 2.44051E+01 0.00000E+00
 -1      4228 5.38425E+01 2.44051E+01 0.00000E+00
 -1      4229 5.53425E+01 2.44051E+01 0.00000E+00
 -1      4230 5.68425E+01 2.44051E+01 0.00000E+00
 -1      4231 5.83425E+01 2.44051E+01 0.00000E+00
 -1      4232 5.98425E+01 2.44051E+01 0.00000E+00
 -1      4233 6.13425E+01 2.44051E+01 0.00000E+00
 -1      4234 6.28425E+01 2.44051E+01 0.00000E+00
 -1      4235 6.43425E+01 2.44051E+01 0.00000E+00
 -1      4236 6.58425E+01 2.44051E+01 0.00000E+00
 -1      4237 6.73425E+01 2.44051E+01 0.00000E+00
 -1      4238 6.88425E+01 2.44051E+01 0.00000E+00
 -1      4239 7.03425E+01 2.44051E+01 0.00000E+00
 -1      4240 7.18425E+01 2.44051E+01 0.00000E+00
 -1      4241 7.33425E+01 2.44051E+01 0.00000E+00
 -1      4242 7.48425E+01 2.44051E+01 0.00000E+00
 -1      4243 7.93425E+01 2.44051E+01 0.00000E+00
 -1      4244 8.08425E+01 2.44051E+01 0.00000E+00
 -1      4245 8.23425E+01 2.44051E+01 0.00000E+00
 -1      4246 8.38425E+01 2.44051E+01 0.00000E+00
 -1      4247 8.53425E+01 2.44051E+01 0.00000E+00
 -1      4248 8.68425E+01 2.44051E+01 0.00000E+00
 -1      4249 8.83425E+01 2.44051E+01 0.00000E+00
 -1      4250 8.98425E+01 2.44051E+01 0.00000E+00
 -1      4251 9.13425E+01 2.44051E+01 0.00000E+00
 -1      4252 9.28425E+01 2.44051E+01 0.00000E+00
 -1      4253 9.43425E+01 2.44051E+01 0.00000E+00
 -1      4254 9.58425E+01 2.44051E+01 0.00000E+00
 -1      4255 9.73425E+01 2.44051E+01 0.00000E+00
 -1      4256 9.86531E+01 2.44930E+01 0.00000E+00
 -1      4257 1.00153E+02 2.44930E+01 0.00000E+00
 -1      4258 3.58425E+01 2.18071E+01 0.00000E+00
 -1      4259 3.50925E+01 2.31061E+01 0.00000E+00
 -1      4260 2.55469E+01 2.03119E+01 0.00000E+00
 -1      4261 2.53017E+01 2.13783E+01 0.00000E+00
 -1      4262 2.67946E+01 2.04281E+01 0.00000E+00
 -1      4263 2.39984E+01 2.26499E+01 0.00000E+00
 -1      4264 2.52460E+01 2.27662E+01 0.00000E+00
 -1      4265 3.21843E+01 2.57273E+01 0.00000E+00
 -1      4266 3.36843E+01 2.57273E+01 0.00000E+00
 -1      4267 3.44343E+01 2.44283E+01 0.00000E+00
 -1      4268 3.10030E+01 2.52448E+01 0.00000E+00
 -1      4269 3.80925E+01 2.31061E+01 0.00000E+00
 -1      4270 3.73425E+01 2.18071E+01 0.00000E+00
 -1      4271 1.01464E+02 2.45808E+01 0.00000E+00
 -1      4272 2.67370E+01 2.30913E+01 0.00000E+00
 -1      4273 3.33768E+01 2.35144E+01 0.00000E+00
 -1      4274 3.18768E+01 2.35144E+01 0.00000E+00
 -1      4275 2.91636E+01 2.07188E+01 0.00000E+00
 -1      4276 2.79160E+01 2.06026E+01 0.00000E+00
 -1      4277 2.76707E+01 2.16690E+01 0.00000E+00
 -1      4278 2.99136E+01 2.20178E+01 0.00000E+00
 -1      4279 3.01612E+01 2.39226E+01 0.00000E+00
 -1      4280 2.78584E+01 2.32657E+01 0.00000E+00
 -1      4281 2.90397E+01 2.37482E+01 0.00000E+00
 -3
    3C                          2059                                     1
 -1       164    8    0    1
 -2         6         7        23      1112      1275      1129
 -1       165    8    0    1
 -2         7         8       164      1113      1276      1277
 -1       166    8    0    1
 -2         8         9       165      1114      1278      1279
 -1       167    8    0    1
 -2         8       165       164      1279      1280      1276
 -1       168    8    0    1
 -2         9        10       166      1115      1281      1282
 -1       169    8    0    1
 -2         9       166       165      1282      1283      1278
 -1       170    8    0    1
 -2        10        11       167      1116      1284      1285
 -1       171    8    0    1
 -2        10       167       166      1285      1286      1281
 -1       172    8    0    1
 -2        11        12       168      1117      1287      1288
 -1       173    8    0    1
 -2        11       168       167      1288      1289      1284
 -1       174    8    0    1
 -2        12        13       169      1118      1290      1291
 -1       175    8    0    1
 -2        12       169       168      1291      1292      1287
 -1       176    8    0    1
 -2        13        14       170      1119      1293      1294
 -1       177    8    0    1
 -2        13       170       169      1294      1295      1290
 -1       178    8    0    1
 -2        14        15       171      1120      1296      1297
 -1       179    8    0    1
 -2        14       171       170      1297      1298      1293
 -1       180    8    0    1
 -2        15        16       172      1121      1299      1300
 -1       181    8    0    1
 -2        15       172       171      1300      1301      1296
 -1       182    8    0    1
 -2        16        17       173      1122      1302      1303
 -1       183    8    0    1
 -2        16       173       172      1303      1304      1299
 -1       184    8    0    1
 -2        17        18       174      1123      1305      1306
 -1       185    8    0    1
 -2        17       174       173      1306      1307      1302
 -1       186    8    0    1
 -2        18        19       175      1124      1308      1309
 -1       187    8    0    1
 -2        18       175       174      1309      1310      1305
 -1       188    8    0    1
 -2        19        20       176      1125      1311      1312
 -1       189    8    0    1
 -2        19       176       175      1312      1313      1308
 -1       190    8    0    1
 -2        20        21       177      1126      1314      1315
 -1       191    8    0    1
 -2        20       177       176      1315      1316      1311
 -1       192    8    0    1
 -2        21        22       178      1127      1317      1318
 -1       193    8    0    1
 -2        21       178       177      1318      1319      1314
 -1       194    8    0    1
 -2        22         5       179      1128      1320      1321
 -1       195    8    0    1
 -2       178        22       179      1317      1321      1322
 -1       196    8    0    1
 -2         5        72       179      1179      1323      1320
 -1       197    8    0    1
 -2        24        23       180      1130      1324      1325
 -1       198    8    0    1
 -2        25        24       181      1131      1326      1327
 -1       199    8    0    1
 -2        24       180       181      1325      1328      1326
 -1       200    8    0    1
 -2        26        25       182      1132      1329      1330
 -1       201    8    0    1
 -2        25       181       182      1327      1331      1329
 -1       202    8    0    1
 -2        27        26       183      1133      1332      1333
 -1       203    8    0    1
 -2        26       182       183      1330      1334      1332
 -1       204    8    0    1
 -2        28        27       184      1134      1335      1336
 -1       205    8    0    1
 -2        27       183       184      1333      1337      1335
 -1       206    8    0    1
 -2        29        28       185      1135      1338      1339
 -1       207    8    0    1
 -2        28       184       185      1336      1340      1338
 -1       208    8    0    1
 -2        30        29       186      1136      1341      1342
 -1       209    8    0    1
 -2        29       185       186      1339      1343      1341
 -1       210    8    0    1
 -2        31        30       187      1137      1344      1345
 -1       211    8    0    1
 -2        30       186       187      1342      1346      1344
 -1       212    8    0    1
 -2        32        31       188      1138      1347      1348
 -1       213    8    0    1
 -2        31       187       188      1345      1349      1347
 -1       214    8    0    1
 -2        33        32       189      1139      1350      1351
 -1       215    8    0    1
 -2        32       188       189      1348      1352      1350
 -1       216    8    0    1
 -2        34        33       190      1140      1353      1354
 -1       217    8    0    1
 -2        33       189       190      1351      1355      1353
 -1       218    8    0    1
 -2        35        34       191      1141      1356      1357
 -1       219    8    0    1
 -2        34       190       191      1354      1358      1356
 -1       220    8    0    1
 -2        36        35       192      1142      1359      1360
 -1       221    8    0    1
 -2        35       191       192      1357      1361      1359
 -1       222    8    0    1
 -2        37        36       193      1143      1362      1363
 -1       223    8    0    1
 -2        36       192       193      1360      1364      1362
 -1       224    8    0    1
 -2        38        37       194      1144      1365      1366
 -1       225    8    0    1
 -2        37       193       194      1363      1367      1365
 -1       226    8    0    1
 -2        39        38       195      1145      1368      1369
 -1       227    8    0    1
 -2        38       194       195      1366      1370      1368
 -1       228    8    0    1
 -2        40        39       196      1146      1371      1372
 -1       229    8    0    1
 -2        39       195       196      1369      1373      1371
 -1       230    8    0    1
 -2        41        40       197      1147      1374      1375
 -1       231    8    0    1
 -2        40       196       197      1372      1376      1374
 -1       232    8    0    1
 -2        42        41       198      1148      1377      1378
 -1       233    8    0    1
 -2        41       197       198      1375      1379      1377
 -1       234    8    0    1
 -2        43        42       199      1149      1380      1381
 -1       235    8    0    1
 -2        42       198       199      1378      1382      1380
 -1       236    8    0    1
 -2        44        43       200      1150      1383      1384
 -1       237    8    0    1
 -2        43       199       200      1381      1385      1383
 -1       238    8    0    1
 -2        45        44       201      1151      1386      1387
 -1       239    8    0    1
 -2        44       200       201      1384      1388      1386
 -1       240    8    0    1
 -2        46        45       202      1152      1389      1390
 -1       241    8    0    1
 -2        45       201       202      1387      1391      1389
 -1       242    8    0    1
 -2        47        46       203      1153      1392      1393
 -1       243    8    0    1
 -2        46       202       203      1390      1394      1392
 -1       244    8    0    1
 -2        48        47       204      1154      1395      1396
 -1       245    8    0    1
 -2        47       203       204      1393      1397      1395
 -1       246    8    0    1
 -2        49        48       205      1155      1398      1399
 -1       247    8    0    1
 -2        48       204       205      1396      1400      1398
 -1       248    8    0    1
 -2        50        49       206      1156      1401      1402
 -1       249    8    0    1
 -2        49       205       206      1399      1403      1401
 -1       250    8    0    1
 -2        51        50       207      1157      1404      1405
 -1       251    8    0    1
 -2        50       206       207      1402      1406      1404
 -1       252    8    0    1
 -2        52        51       208      1158      1407      1408
 -1       253    8    0    1
 -2        51       207       208      1405      1409      1407
 -1       254    8    0    1
 -2        53        52       209      1159      1410      1411
 -1       255    8    0    1
 -2        52       208       209      1408      1412      1410
 -1       256    8    0    1
 -2        54        53       210      1160      1413      1414
 -1       257    8    0    1
 -2        53       209       210      1411      1415      1413
 -1       258    8    0    1
 -2        55        54       211      1161      1416      1417
 -1       259    8    0    1
 -2        54       210       211      1414      1418      1416
 -1       260    8    0    1
 -2        56        55       212      1162      1419      1420
 -1       261    8    0    1
 -2        55       211       212      1417      1421      1419
 -1       262    8    0    1
 -2        57        56       213      1163      1422      1423
 -1       263    8    0    1
 -2        56       212       213      1420      1424      1422
 -1       264    8    0    1
 -2        58        57       214      1164      1425      1426
 -1       265    8    0    1
 -2        57       213       214      1423      1427      1425
 -1       266    8    0    1
 -2        59        58       215      1165      1428      1429
 -1       267    8    0    1
 -2        58       214       215      1426      1430      1428
 -1       268    8    0    1
 -2        60        59       216      1166      1431      1432
 -1       269    8    0    1
 -2        59       215       216      1429      1433      1431
 -1       270    8    0    1
 -2        61        60       217      1167      1434      1435
 -1       271    8    0    1
 -2        60       216       217      1432      1436      1434
 -1       272    8    0    1
 -2        62        61       218      1168      1437      1438
 -1       273    8    0    1
 -2        61       217       218      1435      1439      1437
 -1       274    8    0    1
 -2        63        62       219      1169      1440      1441
 -1       275    8    0    1
 -2        62       218       219      1438      1442      1440
 -1       276    8    0    1
 -2        64        63       220      1170      1443      1444
 -1       277    8    0    1
 -2        63       219       220      1441      1445      1443
 -1       278    8    0    1
 -2        65        64       221      1171      1446      1447
 -1       279    8    0    1
 -2        64       220       221      1444      1448      1446
 -1       280    8    0    1
 -2        66        65       222      1172      1449      1450
 -1       281    8    0    1
 -2        65       221       222      1447      1451      1449
 -1       282    8    0    1
 -2        67        66       223      1173      1452      1453
 -1       283    8    0    1
 -2        66       222       223      1450      1454      1452
 -1       284    8    0    1
 -2        68        67       224      1174      1455      1456
 -1       285    8    0    1
 -2        67       223       224      1453      1457      1455
 -1       286    8    0    1
 -2        69        68       225      1175      1458      1459
 -1       287    8    0    1
 -2        68       224       225      1456      1460      1458
 -1       288    8    0    1
 -2        70        69       226      1176      1461      1462
 -1       289    8    0    1
 -2        69       225       226      1459      1463      1461
 -1       290    8    0    1
 -2        71        70       227      1177      1464      1465
 -1       291    8    0    1
 -2        70       226       227      1462      1466      1464
 -1       292    8    0    1
 -2         4        71       136      1178      1467      1245
 -1       293    8    0    1
 -2       136        71       227      1467      1465      1468
 -1       294    8    0    1
 -2        72        73       228      1180      1469      1470
 -1       295    8    0    1
 -2        72       228       179      1470      1471      1323
 -1       296    8    0    1
 -2        73        74       229      1181      1472      1473
 -1       297    8    0    1
 -2        73       229       228      1473      1474      1469
 -1       298    8    0    1
 -2        74        75       230      1182      1475      1476
 -1       299    8    0    1
 -2        74       230       229      1476      1477      1472
 -1       300    8    0    1
 -2        75        76       231      1183      1478      1479
 -1       301    8    0    1
 -2        75       231       230      1479      1480      1475
 -1       302    8    0    1
 -2        76        77       232      1184      1481      1482
 -1       303    8    0    1
 -2        76       232       231      1482      1483      1478
 -1       304    8    0    1
 -2        77        78       233      1185      1484      1485
 -1       305    8    0    1
 -2        77       233       232      1485      1486      1481
 -1       306    8    0    1
 -2        78        79       234      1186      1487      1488
 -1       307    8    0    1
 -2        78       234       233      1488      1489      1484
 -1       308    8    0    1
 -2        79        80       235      1187      1490      1491
 -1       309    8    0    1
 -2        79       235       234      1491      1492      1487
 -1       310    8    0    1
 -2        80        81       236      1188      1493      1494
 -1       311    8    0    1
 -2        80       236       235      1494      1495      1490
 -1       312    8    0    1
 -2        81        82       237      1189      1496      1497
 -1       313    8    0    1
 -2        81       237       236      1497      1498      1493
 -1       314    8    0    1
 -2        82        83       238      1190      1499      1500
 -1       315    8    0    1
 -2        82       238       237      1500      1501      1496
 -1       316    8    0    1
 -2        83        84       239      1191      1502      1503
 -1       317    8    0    1
 -2        83       239       238      1503      1504      1499
 -1       318    8    0    1
 -2        84        85       240      1192      1505      1506
 -1       319    8    0    1
 -2        84       240       239      1506      1507      1502
 -1       320    8    0    1
 -2        85        86       241      1193      1508      1509
 -1       321    8    0    1
 -2        85       241       240      1509      1510      1505
 -1       322    8    0    1
 -2        86        87       242      1194      1511      1512
 -1       323    8    0    1
 -2        86       242       241      1512      1513      1508
 -1       324    8    0    1
 -2        87        88       243      1195      1514      1515
 -1       325    8    0    1
 -2        87       243       242      1515      1516      1511
 -1       326    8    0    1
 -2        88        89       244      1196      1517      1518
 -1       327    8    0    1
 -2        88       244       243      1518      1519      1514
 -1       328    8    0    1
 -2        89        90       245      1197      1520      1521
 -1       329    8    0    1
 -2        89       245       244      1521      1522      1517
 -1       330    8    0    1
 -2        90        91       246      1198      1523      1524
 -1       331    8    0    1
 -2        90       246       245      1524      1525      1520
 -1       332    8    0    1
 -2        91        92       247      1199      1526      1527
 -1       333    8    0    1
 -2        91       247       246      1527      1528      1523
 -1       334    8    0    1
 -2        92        93       248      1200      1529      1530
 -1       335    8    0    1
 -2        92       248       247      1530      1531      1526
 -1       336    8    0    1
 -2        93        94       249      1201      1532      1533
 -1       337    8    0    1
 -2        93       249       248      1533      1534      1529
 -1       338    8    0    1
 -2        94        95       250      1202      1535      1536
 -1       339    8    0    1
 -2        94       250       249      1536      1537      1532
 -1       340    8    0    1
 -2        95        96       251      1203      1538      1539
 -1       341    8    0    1
 -2        95       251       250      1539      1540      1535
 -1       342    8    0    1
 -2        96        97       252      1204      1541      1542
 -1       343    8    0    1
 -2        96       252       251      1542      1543      1538
 -1       344    8    0    1
 -2        97        98       253      1205      1544      1545
 -1       345    8    0    1
 -2        97       253       252      1545      1546      1541
 -1       346    8    0    1
 -2        98        99       254      1206      1547      1548
 -1       347    8    0    1
 -2        98       254       253      1548      1549      1544
 -1       348    8    0    1
 -2        99       100       255      1207      1550      1551
 -1       349    8    0    1
 -2        99       255       254      1551      1552      1547
 -1       350    8    0    1
 -2       100       101       256      1208      1553      1554
 -1       351    8    0    1
 -2       100       256       255      1554      1555      1550
 -1       352    8    0    1
 -2       101       102       257      1209      1556      1557
 -1       353    8    0    1
 -2       101       257       256      1557      1558      1553
 -1       354    8    0    1
 -2       102       103       258      1210      1559      1560
 -1       355    8    0    1
 -2       102       258       257      1560      1561      1556
 -1       356    8    0    1
 -2       103       104       259      1211      1562      1563
 -1       357    8    0    1
 -2       103       259       258      1563      1564      1559
 -1       358    8    0    1
 -2       104       105       260      1212      1565      1566
 -1       359    8    0    1
 -2       104       260       259      1566      1567      1562
 -1       360    8    0    1
 -2       105       106       261      1213      1568      1569
 -1       361    8    0    1
 -2       105       261       260      1569      1570      1565
 -1       362    8    0    1
 -2       106       107       262      1214      1571      1572
 -1       363    8    0    1
 -2       106       262       261      1572      1573      1568
 -1       364    8    0    1
 -2       107       108       263      1215      1574      1575
 -1       365    8    0    1
 -2       107       263       262      1575      1576      1571
 -1       366    8    0    1
 -2       108       109       264      1216      1577      1578
 -1       367    8    0    1
 -2       108       264       263      1578      1579      1574
 -1       368    8    0    1
 -2       109       110       265      1217      1580      1581
 -1       369    8    0    1
 -2       109       265       264      1581      1582      1577
 -1       370    8    0    1
 -2       110       111       266      1218      1583      1584
 -1       371    8    0    1
 -2       110       266       265      1584      1585      1580
 -1       372    8    0    1
 -2       111       112       267      1219      1586      1587
 -1       373    8    0    1
 -2       111       267       266      1587      1588      1583
 -1       374    8    0    1
 -2       112       113       268      1220      1589      1590
 -1       375    8    0    1
 -2       112       268       267      1590      1591      1586
 -1       376    8    0    1
 -2       113       114       269      1221      1592      1593
 -1       377    8    0    1
 -2       113       269       268      1593      1594      1589
 -1       378    8    0    1
 -2       114       115       270      1222      1595      1596
 -1       379    8    0    1
 -2       114       270       269      1596      1597      1592
 -1       380    8    0    1
 -2       115       116       271      1223      1598      1599
 -1       381    8    0    1
 -2       115       271       270      1599      1600      1595
 -1       382    8    0    1
 -2       116       117       272      1224      1601      1602
 -1       383    8    0    1
 -2       116       272       271      1602      1603      1598
 -1       384    8    0    1
 -2       117       118       273      1225      1604      1605
 -1       385    8    0    1
 -2       117       273       272      1605      1606      1601
 -1       386    8    0    1
 -2       118       119       274      1226      1607      1608
 -1       387    8    0    1
 -2       118       274       273      1608      1609      1604
 -1       388    8    0    1
 -2       119       120       275      1227      1610      1611
 -1       389    8    0    1
 -2       119       275       274      1611      1612      1607
 -1       390    8    0    1
 -2       120         3       121      1228      1229      1613
 -1       391    8    0    1
 -2       121       122       276      1230      1614      1615
 -1       392    8    0    1
 -2       122       123       277      1231      1616      1617
 -1       393    8    0    1
 -2       122       277       276      1617      1618      1614
 -1       394    8    0    1
 -2       123       124       278      1232      1619      1620
 -1       395    8    0    1
 -2       123       278       277      1620      1621      1616
 -1       396    8    0    1
 -2       124       125       279      1233      1622      1623
 -1       397    8    0    1
 -2       124       279       278      1623      1624      1619
 -1       398    8    0    1
 -2       125       126       280      1234      1625      1626
 -1       399    8    0    1
 -2       125       280       279      1626      1627      1622
 -1       400    8    0    1
 -2       126       127       281      1235      1628      1629
 -1       401    8    0    1
 -2       126       281       280      1629      1630      1625
 -1       402    8    0    1
 -2       127       128       282      1236      1631      1632
 -1       403    8    0    1
 -2       127       282       281      1632      1633      1628
 -1       404    8    0    1
 -2       128       129       283      1237      1634      1635
 -1       405    8    0    1
 -2       128       283       282      1635      1636      1631
 -1       406    8    0    1
 -2       129       130       284      1238      1637      1638
 -1       407    8    0    1
 -2       129       284       283      1638      1639      1634
 -1       408    8    0    1
 -2       130       131       285      1239      1640      1641
 -1       409    8    0    1
 -2       130       285       284      1641      1642      1637
 -1       410    8    0    1
 -2       131       132       286      1240      1643      1644
 -1       411    8    0    1
 -2       131       286       285      1644      1645      1640
 -1       412    8    0    1
 -2       132       133       287      1241      1646      1647
 -1       413    8    0    1
 -2       132       287       286      1647      1648      1643
 -1       414    8    0    1
 -2       133       134       288      1242      1649      1650
 -1       415    8    0    1
 -2       133       288       287      1650      1651      1646
 -1       416    8    0    1
 -2       134       135       289      1243      1652      1653
 -1       417    8    0    1
 -2       134       289       288      1653      1654      1649
 -1       418    8    0    1
 -2       135       136       290      1244      1655      1656
 -1       419    8    0    1
 -2       289       135       290      1652      1656      1657
 -1       420    8    0    1
 -2       136       227       290      1468      1658      1655
 -1       421    8    0    1
 -2         2       137       291      1246      1659      1660
 -1       422    8    0    1
 -2       137       138       292      1247      1661      1662
 -1       423    8    0    1
 -2       138       139       293      1248      1663      1664
 -1       424    8    0    1
 -2       139       140       294      1249      1665      1666
 -1       425    8    0    1
 -2       140       141       295      1250      1667      1668
 -1       426    8    0    1
 -2       141       142       296      1251      1669      1670
 -1       427    8    0    1
 -2       142       143       297      1252      1671      1672
 -1       428    8    0    1
 -2       143       144       298      1253      1673      1674
 -1       429    8    0    1
 -2       144       145       299      1254      1675      1676
 -1       430    8    0    1
 -2       145       146       300      1255      1677      1678
 -1       431    8    0    1
 -2       146       147       301      1256      1679      1680
 -1       432    8    0    1
 -2       147       148       302      1257      1681      1682
 -1       433    8    0    1
 -2       148       149       303      1258      1683      1684
 -1       434    8    0    1
 -2       149       150       304      1259      1685      1686
 -1       435    8    0    1
 -2       150       151       305      1260      1687      1688
 -1       436    8    0    1
 -2       151       152       306      1261      1689      1690
 -1       437    8    0    1
 -2       152       153       307      1262      1691      1692
 -1       438    8    0    1
 -2       153       154       308      1263      1693      1694
 -1       439    8    0    1
 -2       154       155       309      1264      1695      1696
 -1       440    8    0    1
 -2       155         1       310      1265      1697      1698
 -1       441    8    0    1
 -2         1       156       311      1266      1699      1700
 -1       442    8    0    1
 -2       156       157       312      1267      1701      1702
 -1       443    8    0    1
 -2       157       158       313      1268      1703      1704
 -1       444    8    0    1
 -2       158       159       314      1269      1705      1706
 -1       445    8    0    1
 -2       159       160       315      1270      1707      1708
 -1       446    8    0    1
 -2       160       161       316      1271      1709      1710
 -1       447    8    0    1
 -2       161       162       317      1272      1711      1712
 -1       448    8    0    1
 -2       162       163       318      1273      1713      1714
 -1       449    8    0    1
 -2       163         2       319      1274      1715      1716
 -1       450    8    0    1
 -2       294       140       295      1665      1668      1717
 -1       451    8    0    1
 -2       293       139       294      1663      1666      1718
 -1       452    8    0    1
 -2       120       121       275      1613      1719      1610
 -1       453    8    0    1
 -2       121       276       275      1615      1720      1719
 -1       454    8    0    1
 -2       291       137       292      1659      1662      1721
 -1       455    8    0    1
 -2       292       138       293      1661      1664      1722
 -1       456    8    0    1
 -2         2       291       319      1660      1723      1715
 -1       457    8    0    1
 -2       141       296       295      1670      1724      1667
 -1       458    8    0    1
 -2       142       297       296      1672      1725      1669
 -1       459    8    0    1
 -2       143       298       297      1674      1726      1671
 -1       460    8    0    1
 -2       144       299       298      1676      1727      1673
 -1       461    8    0    1
 -2       145       300       299      1678      1728      1675
 -1       462    8    0    1
 -2       146       301       300      1680      1729      1677
 -1       463    8    0    1
 -2       147       302       301      1682      1730      1679
 -1       464    8    0    1
 -2       148       303       302      1684      1731      1681
 -1       465    8    0    1
 -2       149       304       303      1686      1732      1683
 -1       466    8    0    1
 -2       150       305       304      1688      1733      1685
 -1       467    8    0    1
 -2       151       306       305      1690      1734      1687
 -1       468    8    0    1
 -2       152       307       306      1692      1735      1689
 -1       469    8    0    1
 -2       153       308       307      1694      1736      1691
 -1       470    8    0    1
 -2       154       309       308      1696      1737      1693
 -1       471    8    0    1
 -2       155       310       309      1698      1738      1695
 -1       472    8    0    1
 -2         1       311       310      1700      1739      1697
 -1       473    8    0    1
 -2       156       312       311      1702      1740      1699
 -1       474    8    0    1
 -2       157       313       312      1704      1741      1701
 -1       475    8    0    1
 -2       158       314       313      1706      1742      1703
 -1       476    8    0    1
 -2       159       315       314      1708      1743      1705
 -1       477    8    0    1
 -2       160       316       315      1710      1744      1707
 -1       478    8    0    1
 -2       161       317       316      1712      1745      1709
 -1       479    8    0    1
 -2       162       318       317      1714      1746      1711
 -1       480    8    0    1
 -2       163       319       318      1716      1747      1713
 -1       481    8    0    1
 -2        23         7       164      1275      1277      1748
 -1       482    8    0    1
 -2       165       166       320      1283      1749      1750
 -1       483    8    0    1
 -2       164       165       321      1280      1751      1752
 -1       484    8    0    1
 -2       165       320       321      1750      1753      1751
 -1       485    8    0    1
 -2       167       168       322      1289      1754      1755
 -1       486    8    0    1
 -2       168       169       323      1292      1756      1757
 -1       487    8    0    1
 -2       168       323       322      1757      1758      1754
 -1       488    8    0    1
 -2       169       170       324      1295      1759      1760
 -1       489    8    0    1
 -2       169       324       323      1760      1761      1756
 -1       490    8    0    1
 -2       170       171       325      1298      1762      1763
 -1       491    8    0    1
 -2       170       325       324      1763      1764      1759
 -1       492    8    0    1
 -2       171       172       326      1301      1765      1766
 -1       493    8    0    1
 -2       171       326       325      1766      1767      1762
 -1       494    8    0    1
 -2       172       173       327      1304      1768      1769
 -1       495    8    0    1
 -2       172       327       326      1769      1770      1765
 -1       496    8    0    1
 -2       173       174       328      1307      1771      1772
 -1       497    8    0    1
 -2       173       328       327      1772      1773      1768
 -1       498    8    0    1
 -2       174       175       329      1310      1774      1775
 -1       499    8    0    1
 -2       174       329       328      1775      1776      1771
 -1       500    8    0    1
 -2       175       176       330      1313      1777      1778
 -1       501    8    0    1
 -2       175       330       329      1778      1779      1774
 -1       502    8    0    1
 -2       176       177       331      1316      1780      1781
 -1       503    8    0    1
 -2       176       331       330      1781      1782      1777
 -1       504    8    0    1
 -2       177       178       332      1319      1783      1784
 -1       505    8    0    1
 -2       177       332       331      1784      1785      1780
 -1       506    8    0    1
 -2       178       179       333      1322      1786      1787
 -1       507    8    0    1
 -2       332       178       333      1783      1787      1788
 -1       508    8    0    1
 -2       179       228       333      1471      1789      1786
 -1       509    8    0    1
 -2       180        23       164      1324      1748      1790
 -1       510    8    0    1
 -2       228       229       334      1474      1791      1792
 -1       511    8    0    1
 -2       228       334       333      1792      1793      1789
 -1       512    8    0    1
 -2       180       164       321      1790      1752      1794
 -1       513    8    0    1
 -2       182       181       335      1331      1795      1796
 -1       514    8    0    1
 -2       183       182       336      1334      1797      1798
 -1       515    8    0    1
 -2       182       335       336      1796      1799      1797
 -1       516    8    0    1
 -2       184       183       337      1337      1800      1801
 -1       517    8    0    1
 -2       183       336       337      1798      1802      1800
 -1       518    8    0    1
 -2       185       184       338      1340      1803      1804
 -1       519    8    0    1
 -2       184       337       338      1801      1805      1803
 -1       520    8    0    1
 -2       186       185       339      1343      1806      1807
 -1       521    8    0    1
 -2       185       338       339      1804      1808      1806
 -1       522    8    0    1
 -2       187       186       340      1346      1809      1810
 -1       523    8    0    1
 -2       186       339       340      1807      1811      1809
 -1       524    8    0    1
 -2       188       187       341      1349      1812      1813
 -1       525    8    0    1
 -2       187       340       341      1810      1814      1812
 -1       526    8    0    1
 -2       189       188       342      1352      1815      1816
 -1       527    8    0    1
 -2       188       341       342      1813      1817      1815
 -1       528    8    0    1
 -2       190       189       343      1355      1818      1819
 -1       529    8    0    1
 -2       189       342       343      1816      1820      1818
 -1       530    8    0    1
 -2       191       190       344      1358      1821      1822
 -1       531    8    0    1
 -2       190       343       344      1819      1823      1821
 -1       532    8    0    1
 -2       192       191       345      1361      1824      1825
 -1       533    8    0    1
 -2       191       344       345      1822      1826      1824
 -1       534    8    0    1
 -2       193       192       346      1364      1827      1828
 -1       535    8    0    1
 -2       192       345       346      1825      1829      1827
 -1       536    8    0    1
 -2       194       193       347      1367      1830      1831
 -1       537    8    0    1
 -2       193       346       347      1828      1832      1830
 -1       538    8    0    1
 -2       195       194       348      1370      1833      1834
 -1       539    8    0    1
 -2       194       347       348      1831      1835      1833
 -1       540    8    0    1
 -2       196       195       349      1373      1836      1837
 -1       541    8    0    1
 -2       195       348       349      1834      1838      1836
 -1       542    8    0    1
 -2       197       196       350      1376      1839      1840
 -1       543    8    0    1
 -2       196       349       350      1837      1841      1839
 -1       544    8    0    1
 -2       198       197       351      1379      1842      1843
 -1       545    8    0    1
 -2       197       350       351      1840      1844      1842
 -1       546    8    0    1
 -2       199       198       352      1382      1845      1846
 -1       547    8    0    1
 -2       198       351       352      1843      1847      1845
 -1       548    8    0    1
 -2       200       199       353      1385      1848      1849
 -1       549    8    0    1
 -2       199       352       353      1846      1850      1848
 -1       550    8    0    1
 -2       201       200       354      1388      1851      1852
 -1       551    8    0    1
 -2       200       353       354      1849      1853      1851
 -1       552    8    0    1
 -2       202       201       355      1391      1854      1855
 -1       553    8    0    1
 -2       201       354       355      1852      1856      1854
 -1       554    8    0    1
 -2       203       202       356      1394      1857      1858
 -1       555    8    0    1
 -2       202       355       356      1855      1859      1857
 -1       556    8    0    1
 -2       204       203       357      1397      1860      1861
 -1       557    8    0    1
 -2       203       356       357      1858      1862      1860
 -1       558    8    0    1
 -2       205       204       358      1400      1863      1864
 -1       559    8    0    1
 -2       204       357       358      1861      1865      1863
 -1       560    8    0    1
 -2       206       205       359      1403      1866      1867
 -1       561    8    0    1
 -2       205       358       359      1864      1868      1866
 -1       562    8    0    1
 -2       207       206       360      1406      1869      1870
 -1       563    8    0    1
 -2       206       359       360      1867      1871      1869
 -1       564    8    0    1
 -2       208       207       361      1409      1872      1873
 -1       565    8    0    1
 -2       207       360       361      1870      1874      1872
 -1       566    8    0    1
 -2       209       208       362      1412      1875      1876
 -1       567    8    0    1
 -2       208       361       362      1873      1877      1875
 -1       568    8    0    1
 -2       210       209       363      1415      1878      1879
 -1       569    8    0    1
 -2       209       362       363      1876      1880      1878
 -1       570    8    0    1
 -2       211       210       364      1418      1881      1882
 -1       571    8    0    1
 -2       210       363       364      1879      1883      1881
 -1       572    8    0    1
 -2       212       211       365      1421      1884      1885
 -1       573    8    0    1
 -2       211       364       365      1882      1886      1884
 -1       574    8    0    1
 -2       213       212       366      1424      1887      1888
 -1       575    8    0    1
 -2       212       365       366      1885      1889      1887
 -1       576    8    0    1
 -2       214       213       367      1427      1890      1891
 -1       577    8    0    1
 -2       213       366       367      1888      1892      1890
 -1       578    8    0    1
 -2       215       214       368      1430      1893      1894
 -1       579    8    0    1
 -2       214       367       368      1891      1895      1893
 -1       580    8    0    1
 -2       216       215       369      1433      1896      1897
 -1       581    8    0    1
 -2       215       368       369      1894      1898      1896
 -1       582    8    0    1
 -2       217       216       370      1436      1899      1900
 -1       583    8    0    1
 -2       216       369       370      1897      1901      1899
 -1       584    8    0    1
 -2       218       217       371      1439      1902      1903
 -1       585    8    0    1
 -2       217       370       371      1900      1904      1902
 -1       586    8    0    1
 -2       219       218       372      1442      1905      1906
 -1       587    8    0    1
 -2       218       371       372      1903      1907      1905
 -1       588    8    0    1
 -2       220       219       373      1445      1908      1909
 -1       589    8    0    1
 -2       219       372       373      1906      1910      1908
 -1       590    8    0    1
 -2       221       220       374      1448      1911      1912
 -1       591    8    0    1
 -2       220       373       374      1909      1913      1911
 -1       592    8    0    1
 -2       222       221       375      1451      1914      1915
 -1       593    8    0    1
 -2       221       374       375      1912      1916      1914
 -1       594    8    0    1
 -2       223       222       376      1454      1917      1918
 -1       595    8    0    1
 -2       222       375       376      1915      1919      1917
 -1       596    8    0    1
 -2       224       223       377      1457      1920      1921
 -1       597    8    0    1
 -2       223       376       377      1918      1922      1920
 -1       598    8    0    1
 -2       225       224       378      1460      1923      1924
 -1       599    8    0    1
 -2       224       377       378      1921      1925      1923
 -1       600    8    0    1
 -2       226       225       379      1463      1926      1927
 -1       601    8    0    1
 -2       225       378       379      1924      1928      1926
 -1       602    8    0    1
 -2       227       226       380      1466      1929      1930
 -1       603    8    0    1
 -2       290       227       380      1658      1930      1931
 -1       604    8    0    1
 -2       226       379       380      1927      1932      1929
 -1       605    8    0    1
 -2       229       230       381      1477      1933      1934
 -1       606    8    0    1
 -2       229       381       334      1934      1935      1791
 -1       607    8    0    1
 -2       230       231       382      1480      1936      1937
 -1       608    8    0    1
 -2       230       382       381      1937      1938      1933
 -1       609    8    0    1
 -2       231       232       383      1483      1939      1940
 -1       610    8    0    1
 -2       231       383       382      1940      1941      1936
 -1       611    8    0    1
 -2       232       233       384      1486      1942      1943
 -1       612    8    0    1
 -2       232       384       383      1943      1944      1939
 -1       613    8    0    1
 -2       233       234       385      1489      1945      1946
 -1       614    8    0    1
 -2       233       385       384      1946      1947      1942
 -1       615    8    0    1
 -2       234       235       386      1492      1948      1949
 -1       616    8    0    1
 -2       234       386       385      1949      1950      1945
 -1       617    8    0    1
 -2       235       236       387      1495      1951      1952
 -1       618    8    0    1
 -2       235       387       386      1952      1953      1948
 -1       619    8    0    1
 -2       236       237       388      1498      1954      1955
 -1       620    8    0    1
 -2       236       388       387      1955      1956      1951
 -1       621    8    0    1
 -2       237       238       389      1501      1957      1958
 -1       622    8    0    1
 -2       237       389       388      1958      1959      1954
 -1       623    8    0    1
 -2       238       239       390      1504      1960      1961
 -1       624    8    0    1
 -2       238       390       389      1961      1962      1957
 -1       625    8    0    1
 -2       239       240       391      1507      1963      1964
 -1       626    8    0    1
 -2       239       391       390      1964      1965      1960
 -1       627    8    0    1
 -2       240       241       392      1510      1966      1967
 -1       628    8    0    1
 -2       240       392       391      1967      1968      1963
 -1       629    8    0    1
 -2       241       242       393      1513      1969      1970
 -1       630    8    0    1
 -2       241       393       392      1970      1971      1966
 -1       631    8    0    1
 -2       242       243       394      1516      1972      1973
 -1       632    8    0    1
 -2       242       394       393      1973      1974      1969
 -1       633    8    0    1
 -2       243       244       395      1519      1975      1976
 -1       634    8    0    1
 -2       243       395       394      1976      1977      1972
 -1       635    8    0    1
 -2       244       245       396      1522      1978      1979
 -1       636    8    0    1
 -2       244       396       395      1979      1980      1975
 -1       637    8    0    1
 -2       245       246       397      1525      1981      1982
 -1       638    8    0    1
 -2       245       397       396      1982      1983      1978
 -1       639    8    0    1
 -2       246       247       398      1528      1984      1985
 -1       640    8    0    1
 -2       246       398       397      1985      1986      1981
 -1       641    8    0    1
 -2       247       248       399      1531      1987      1988
 -1       642    8    0    1
 -2       247       399       398      1988      1989      1984
 -1       643    8    0    1
 -2       248       249       400      1534      1990      1991
 -1       644    8    0    1
 -2       248       400       399      1991      1992      1987
 -1       645    8    0    1
 -2       249       250       401      1537      1993      1994
 -1       646    8    0    1
 -2       249       401       400      1994      1995      1990
 -1       647    8    0    1
 -2       250       251       402      1540      1996      1997
 -1       648    8    0    1
 -2       250       402       401      1997      1998      1993
 -1       649    8    0    1
 -2       251       252       403      1543      1999      2000
 -1       650    8    0    1
 -2       251       403       402      2000      2001      1996
 -1       651    8    0    1
 -2       252       253       404      1546      2002      2003
 -1       652    8    0    1
 -2       252       404       403      2003      2004      1999
 -1       653    8    0    1
 -2       253       254       405      1549      2005      2006
 -1       654    8    0    1
 -2       253       405       404      2006      2007      2002
 -1       655    8    0    1
 -2       254       255       406      1552      2008      2009
 -1       656    8    0    1
 -2       254       406       405      2009      2010      2005
 -1       657    8    0    1
 -2       255       256       407      1555      2011      2012
 -1       658    8    0    1
 -2       255       407       406      2012      2013      2008
 -1       659    8    0    1
 -2       256       257       408      1558      2014      2015
 -1       660    8    0    1
 -2       256       408       407      2015      2016      2011
 -1       661    8    0    1
 -2       257       258       409      1561      2017      2018
 -1       662    8    0    1
 -2       257       409       408      2018      2019      2014
 -1       663    8    0    1
 -2       258       259       410      1564      2020      2021
 -1       664    8    0    1
 -2       258       410       409      2021      2022      2017
 -1       665    8    0    1
 -2       259       260       411      1567      2023      2024
 -1       666    8    0    1
 -2       259       411       410      2024      2025      2020
 -1       667    8    0    1
 -2       260       261       412      1570      2026      2027
 -1       668    8    0    1
 -2       260       412       411      2027      2028      2023
 -1       669    8    0    1
 -2       261       262       413      1573      2029      2030
 -1       670    8    0    1
 -2       261       413       412      2030      2031      2026
 -1       671    8    0    1
 -2       262       263       414      1576      2032      2033
 -1       672    8    0    1
 -2       262       414       413      2033      2034      2029
 -1       673    8    0    1
 -2       263       264       415      1579      2035      2036
 -1       674    8    0    1
 -2       263       415       414      2036      2037      2032
 -1       675    8    0    1
 -2       264       265       416      1582      2038      2039
 -1       676    8    0    1
 -2       264       416       415      2039      2040      2035
 -1       677    8    0    1
 -2       265       266       417      1585      2041      2042
 -1       678    8    0    1
 -2       265       417       416      2042      2043      2038
 -1       679    8    0    1
 -2       266       267       418      1588      2044      2045
 -1       680    8    0    1
 -2       266       418       417      2045      2046      2041
 -1       681    8    0    1
 -2       267       268       419      1591      2047      2048
 -1       682    8    0    1
 -2       267       419       418      2048      2049      2044
 -1       683    8    0    1
 -2       268       269       420      1594      2050      2051
 -1       684    8    0    1
 -2       268       420       419      2051      2052      2047
 -1       685    8    0    1
 -2       269       270       421      1597      2053      2054
 -1       686    8    0    1
 -2       269       421       420      2054      2055      2050
 -1       687    8    0    1
 -2       270       271       422      1600      2056      2057
 -1       688    8    0    1
 -2       270       422       421      2057      2058      2053
 -1       689    8    0    1
 -2       271       272       423      1603      2059      2060
 -1       690    8    0    1
 -2       271       423       422      2060      2061      2056
 -1       691    8    0    1
 -2       272       273       424      1606      2062      2063
 -1       692    8    0    1
 -2       272       424       423      2063      2064      2059
 -1       693    8    0    1
 -2       273       274       425      1609      2065      2066
 -1       694    8    0    1
 -2       273       425       424      2066      2067      2062
 -1       695    8    0    1
 -2       274       275       426      1612      2068      2069
 -1       696    8    0    1
 -2       425       274       426      2065      2069      2070
 -1       697    8    0    1
 -2       275       276       426      1720      2071      2068
 -1       698    8    0    1
 -2       278       279       427      1624      2072      2073
 -1       699    8    0    1
 -2       277       278       428      1621      2074      2075
 -1       700    8    0    1
 -2       278       427       428      2073      2076      2074
 -1       701    8    0    1
 -2       276       277       429      1618      2077      2078
 -1       702    8    0    1
 -2       426       276       429      2071      2078      2079
 -1       703    8    0    1
 -2       277       428       429      2075      2080      2077
 -1       704    8    0    1
 -2       279       280       430      1627      2081      2082
 -1       705    8    0    1
 -2       279       430       427      2082      2083      2072
 -1       706    8    0    1
 -2       280       281       431      1630      2084      2085
 -1       707    8    0    1
 -2       280       431       430      2085      2086      2081
 -1       708    8    0    1
 -2       281       282       432      1633      2087      2088
 -1       709    8    0    1
 -2       281       432       431      2088      2089      2084
 -1       710    8    0    1
 -2       282       283       433      1636      2090      2091
 -1       711    8    0    1
 -2       282       433       432      2091      2092      2087
 -1       712    8    0    1
 -2       283       284       434      1639      2093      2094
 -1       713    8    0    1
 -2       283       434       433      2094      2095      2090
 -1       714    8    0    1
 -2       284       285       435      1642      2096      2097
 -1       715    8    0    1
 -2       284       435       434      2097      2098      2093
 -1       716    8    0    1
 -2       285       286       436      1645      2099      2100
 -1       717    8    0    1
 -2       285       436       435      2100      2101      2096
 -1       718    8    0    1
 -2       286       287       437      1648      2102      2103
 -1       719    8    0    1
 -2       286       437       436      2103      2104      2099
 -1       720    8    0    1
 -2       287       288       438      1651      2105      2106
 -1       721    8    0    1
 -2       287       438       437      2106      2107      2102
 -1       722    8    0    1
 -2       288       289       439      1654      2108      2109
 -1       723    8    0    1
 -2       288       439       438      2109      2110      2105
 -1       724    8    0    1
 -2       292       293       440      1722      2111      2112
 -1       725    8    0    1
 -2       319       291       441      1723      2113      2114
 -1       726    8    0    1
 -2       291       292       442      1721      2115      2116
 -1       727    8    0    1
 -2       293       294       443      1718      2117      2118
 -1       728    8    0    1
 -2       294       295       444      1717      2119      2120
 -1       729    8    0    1
 -2       294       444       443      2120      2121      2117
 -1       730    8    0    1
 -2       166       167       445      1286      2122      2123
 -1       731    8    0    1
 -2       320       166       445      1749      2123      2124
 -1       732    8    0    1
 -2       167       322       445      1755      2125      2122
 -1       733    8    0    1
 -2       296       297       446      1725      2126      2127
 -1       734    8    0    1
 -2       297       298       447      1726      2128      2129
 -1       735    8    0    1
 -2       298       299       448      1727      2130      2131
 -1       736    8    0    1
 -2       299       300       449      1728      2132      2133
 -1       737    8    0    1
 -2       299       449       448      2133      2134      2130
 -1       738    8    0    1
 -2       300       301       450      1729      2135      2136
 -1       739    8    0    1
 -2       301       302       451      1730      2137      2138
 -1       740    8    0    1
 -2       302       303       452      1731      2139      2140
 -1       741    8    0    1
 -2       303       304       453      1732      2141      2142
 -1       742    8    0    1
 -2       304       305       454      1733      2143      2144
 -1       743    8    0    1
 -2       304       454       453      2144      2145      2141
 -1       744    8    0    1
 -2       305       306       455      1734      2146      2147
 -1       745    8    0    1
 -2       306       307       456      1735      2148      2149
 -1       746    8    0    1
 -2       307       308       457      1736      2150      2151
 -1       747    8    0    1
 -2       308       309       458      1737      2152      2153
 -1       748    8    0    1
 -2       309       310       459      1738      2154      2155
 -1       749    8    0    1
 -2       310       311       460      1739      2156      2157
 -1       750    8    0    1
 -2       311       312       461      1740      2158      2159
 -1       751    8    0    1
 -2       311       461       460      2159      2160      2156
 -1       752    8    0    1
 -2       312       313       462      1741      2161      2162
 -1       753    8    0    1
 -2       313       314       463      1742      2163      2164
 -1       754    8    0    1
 -2       314       315       464      1743      2165      2166
 -1       755    8    0    1
 -2       315       316       465      1744      2167      2168
 -1       756    8    0    1
 -2       316       317       466      1745      2169      2170
 -1       757    8    0    1
 -2       317       318       467      1746      2171      2172
 -1       758    8    0    1
 -2       318       319       468      1747      2173      2174
 -1       759    8    0    1
 -2       319       441       468      2114      2175      2173
 -1       760    8    0    1
 -2       295       296       469      1724      2176      2177
 -1       761    8    0    1
 -2       180       321       181      1794      2178      1328
 -1       762    8    0    1
 -2       444       295       469      2119      2177      2179
 -1       763    8    0    1
 -2       296       446       470      2127      2180      2181
 -1       764    8    0    1
 -2       296       470       469      2181      2182      2176
 -1       765    8    0    1
 -2       335       181       321      1795      2178      2183
 -1       766    8    0    1
 -2       442       292       440      2115      2112      2184
 -1       767    8    0    1
 -2       441       291       442      2113      2116      2185
 -1       768    8    0    1
 -2       439       289       290      2108      1657      2186
 -1       769    8    0    1
 -2       440       293       443      2111      2118      2187
 -1       770    8    0    1
 -2       467       318       471      2171      2188      2189
 -1       771    8    0    1
 -2       318       468       471      2174      2190      2188
 -1       772    8    0    1
 -2       466       317       467      2169      2172      2191
 -1       773    8    0    1
 -2       465       316       466      2167      2170      2192
 -1       774    8    0    1
 -2       464       315       465      2165      2168      2193
 -1       775    8    0    1
 -2       463       314       464      2163      2166      2194
 -1       776    8    0    1
 -2       461       312       462      2158      2162      2195
 -1       777    8    0    1
 -2       459       310       460      2154      2157      2196
 -1       778    8    0    1
 -2       458       309       459      2152      2155      2197
 -1       779    8    0    1
 -2       457       308       458      2150      2153      2198
 -1       780    8    0    1
 -2       456       307       457      2148      2151      2199
 -1       781    8    0    1
 -2       454       305       455      2143      2147      2200
 -1       782    8    0    1
 -2       452       303       453      2139      2142      2201
 -1       783    8    0    1
 -2       451       302       452      2137      2140      2202
 -1       784    8    0    1
 -2       449       300       472      2132      2203      2204
 -1       785    8    0    1
 -2       300       450       472      2136      2205      2203
 -1       786    8    0    1
 -2       446       297       447      2126      2129      2206
 -1       787    8    0    1
 -2       447       298       473      2128      2207      2208
 -1       788    8    0    1
 -2       298       448       473      2131      2209      2207
 -1       789    8    0    1
 -2       450       301       451      2135      2138      2210
 -1       790    8    0    1
 -2       455       306       456      2146      2149      2211
 -1       791    8    0    1
 -2       462       313       463      2161      2164      2212
 -1       792    8    0    1
 -2       334       381       474      1935      2213      2214
 -1       793    8    0    1
 -2       323       324       475      1761      2215      2216
 -1       794    8    0    1
 -2       322       323       476      1758      2217      2218
 -1       795    8    0    1
 -2       323       475       476      2216      2219      2217
 -1       796    8    0    1
 -2       325       326       477      1767      2220      2221
 -1       797    8    0    1
 -2       326       327       478      1770      2222      2223
 -1       798    8    0    1
 -2       326       478       477      2223      2224      2220
 -1       799    8    0    1
 -2       327       328       479      1773      2225      2226
 -1       800    8    0    1
 -2       327       479       478      2226      2227      2222
 -1       801    8    0    1
 -2       328       329       480      1776      2228      2229
 -1       802    8    0    1
 -2       328       480       479      2229      2230      2225
 -1       803    8    0    1
 -2       329       330       481      1779      2231      2232
 -1       804    8    0    1
 -2       329       481       480      2232      2233      2228
 -1       805    8    0    1
 -2       330       331       482      1782      2234      2235
 -1       806    8    0    1
 -2       330       482       481      2235      2236      2231
 -1       807    8    0    1
 -2       381       382       483      1938      2237      2238
 -1       808    8    0    1
 -2       381       483       474      2238      2239      2213
 -1       809    8    0    1
 -2       336       335       484      1799      2240      2241
 -1       810    8    0    1
 -2       444       469       485      2179      2242      2243
 -1       811    8    0    1
 -2       337       336       486      1802      2244      2245
 -1       812    8    0    1
 -2       336       484       486      2241      2246      2244
 -1       813    8    0    1
 -2       338       337       487      1805      2247      2248
 -1       814    8    0    1
 -2       337       486       487      2245      2249      2247
 -1       815    8    0    1
 -2       339       338       488      1808      2250      2251
 -1       816    8    0    1
 -2       338       487       488      2248      2252      2250
 -1       817    8    0    1
 -2       340       339       489      1811      2253      2254
 -1       818    8    0    1
 -2       339       488       489      2251      2255      2253
 -1       819    8    0    1
 -2       341       340       490      1814      2256      2257
 -1       820    8    0    1
 -2       340       489       490      2254      2258      2256
 -1       821    8    0    1
 -2       342       341       491      1817      2259      2260
 -1       822    8    0    1
 -2       341       490       491      2257      2261      2259
 -1       823    8    0    1
 -2       343       342       492      1820      2262      2263
 -1       824    8    0    1
 -2       342       491       492      2260      2264      2262
 -1       825    8    0    1
 -2       344       343       493      1823      2265      2266
 -1       826    8    0    1
 -2       343       492       493      2263      2267      2265
 -1       827    8    0    1
 -2       345       344       494      1826      2268      2269
 -1       828    8    0    1
 -2       344       493       494      2266      2270      2268
 -1       829    8    0    1
 -2       346       345       495      1829      2271      2272
 -1       830    8    0    1
 -2       345       494       495      2269      2273      2271
 -1       831    8    0    1
 -2       347       346       496      1832      2274      2275
 -1       832    8    0    1
 -2       346       495       496      2272      2276      2274
 -1       833    8    0    1
 -2       348       347       497      1835      2277      2278
 -1       834    8    0    1
 -2       347       496       497      2275      2279      2277
 -1       835    8    0    1
 -2       349       348       498      1838      2280      2281
 -1       836    8    0    1
 -2       348       497       498      2278      2282      2280
 -1       837    8    0    1
 -2       350       349       499      1841      2283      2284
 -1       838    8    0    1
 -2       349       498       499      2281      2285      2283
 -1       839    8    0    1
 -2       351       350       500      1844      2286      2287
 -1       840    8    0    1
 -2       350       499       500      2284      2288      2286
 -1       841    8    0    1
 -2       352       351       501      1847      2289      2290
 -1       842    8    0    1
 -2       351       500       501      2287      2291      2289
 -1       843    8    0    1
 -2       353       352       502      1850      2292      2293
 -1       844    8    0    1
 -2       352       501       502      2290      2294      2292
 -1       845    8    0    1
 -2       354       353       503      1853      2295      2296
 -1       846    8    0    1
 -2       353       502       503      2293      2297      2295
 -1       847    8    0    1
 -2       355       354       504      1856      2298      2299
 -1       848    8    0    1
 -2       354       503       504      2296      2300      2298
 -1       849    8    0    1
 -2       356       355       505      1859      2301      2302
 -1       850    8    0    1
 -2       355       504       505      2299      2303      2301
 -1       851    8    0    1
 -2       357       356       506      1862      2304      2305
 -1       852    8    0    1
 -2       356       505       506      2302      2306      2304
 -1       853    8    0    1
 -2       358       357       507      1865      2307      2308
 -1       854    8    0    1
 -2       357       506       507      2305      2309      2307
 -1       855    8    0    1
 -2       359       358       508      1868      2310      2311
 -1       856    8    0    1
 -2       358       507       508      2308      2312      2310
 -1       857    8    0    1
 -2       360       359       509      1871      2313      2314
 -1       858    8    0    1
 -2       359       508       509      2311      2315      2313
 -1       859    8    0    1
 -2       361       360       510      1874      2316      2317
 -1       860    8    0    1
 -2       360       509       510      2314      2318      2316
 -1       861    8    0    1
 -2       362       361       511      1877      2319      2320
 -1       862    8    0    1
 -2       361       510       511      2317      2321      2319
 -1       863    8    0    1
 -2       363       362       512      1880      2322      2323
 -1       864    8    0    1
 -2       362       511       512      2320      2324      2322
 -1       865    8    0    1
 -2       364       363       513      1883      2325      2326
 -1       866    8    0    1
 -2       363       512       513      2323      2327      2325
 -1       867    8    0    1
 -2       365       364       514      1886      2328      2329
 -1       868    8    0    1
 -2       364       513       514      2326      2330      2328
 -1       869    8    0    1
 -2       366       365       515      1889      2331      2332
 -1       870    8    0    1
 -2       365       514       515      2329      2333      2331
 -1       871    8    0    1
 -2       367       366       516      1892      2334      2335
 -1       872    8    0    1
 -2       366       515       516      2332      2336      2334
 -1       873    8    0    1
 -2       368       367       517      1895      2337      2338
 -1       874    8    0    1
 -2       367       516       517      2335      2339      2337
 -1       875    8    0    1
 -2       369       368       518      1898      2340      2341
 -1       876    8    0    1
 -2       368       517       518      2338      2342      2340
 -1       877    8    0    1
 -2       370       369       519      1901      2343      2344
 -1       878    8    0    1
 -2       369       518       519      2341      2345      2343
 -1       879    8    0    1
 -2       371       370       520      1904      2346      2347
 -1       880    8    0    1
 -2       370       519       520      2344      2348      2346
 -1       881    8    0    1
 -2       372       371       521      1907      2349      2350
 -1       882    8    0    1
 -2       371       520       521      2347      2351      2349
 -1       883    8    0    1
 -2       373       372       522      1910      2352      2353
 -1       884    8    0    1
 -2       372       521       522      2350      2354      2352
 -1       885    8    0    1
 -2       374       373       523      1913      2355      2356
 -1       886    8    0    1
 -2       373       522       523      2353      2357      2355
 -1       887    8    0    1
 -2       375       374       524      1916      2358      2359
 -1       888    8    0    1
 -2       374       523       524      2356      2360      2358
 -1       889    8    0    1
 -2       376       375       525      1919      2361      2362
 -1       890    8    0    1
 -2       375       524       525      2359      2363      2361
 -1       891    8    0    1
 -2       377       376       526      1922      2364      2365
 -1       892    8    0    1
 -2       376       525       526      2362      2366      2364
 -1       893    8    0    1
 -2       378       377       527      1925      2367      2368
 -1       894    8    0    1
 -2       377       526       527      2365      2369      2367
 -1       895    8    0    1
 -2       379       378       528      1928      2370      2371
 -1       896    8    0    1
 -2       378       527       528      2368      2372      2370
 -1       897    8    0    1
 -2       383       384       529      1944      2373      2374
 -1       898    8    0    1
 -2       384       385       530      1947      2375      2376
 -1       899    8    0    1
 -2       384       530       529      2376      2377      2373
 -1       900    8    0    1
 -2       385       386       531      1950      2378      2379
 -1       901    8    0    1
 -2       385       531       530      2379      2380      2375
 -1       902    8    0    1
 -2       386       387       532      1953      2381      2382
 -1       903    8    0    1
 -2       386       532       531      2382      2383      2378
 -1       904    8    0    1
 -2       387       388       533      1956      2384      2385
 -1       905    8    0    1
 -2       387       533       532      2385      2386      2381
 -1       906    8    0    1
 -2       388       389       534      1959      2387      2388
 -1       907    8    0    1
 -2       388       534       533      2388      2389      2384
 -1       908    8    0    1
 -2       389       390       535      1962      2390      2391
 -1       909    8    0    1
 -2       389       535       534      2391      2392      2387
 -1       910    8    0    1
 -2       390       391       536      1965      2393      2394
 -1       911    8    0    1
 -2       390       536       535      2394      2395      2390
 -1       912    8    0    1
 -2       391       392       537      1968      2396      2397
 -1       913    8    0    1
 -2       391       537       536      2397      2398      2393
 -1       914    8    0    1
 -2       392       393       538      1971      2399      2400
 -1       915    8    0    1
 -2       392       538       537      2400      2401      2396
 -1       916    8    0    1
 -2       393       394       539      1974      2402      2403
 -1       917    8    0    1
 -2       393       539       538      2403      2404      2399
 -1       918    8    0    1
 -2       394       395       540      1977      2405      2406
 -1       919    8    0    1
 -2       394       540       539      2406      2407      2402
 -1       920    8    0    1
 -2       395       396       541      1980      2408      2409
 -1       921    8    0    1
 -2       395       541       540      2409      2410      2405
 -1       922    8    0    1
 -2       396       397       542      1983      2411      2412
 -1       923    8    0    1
 -2       396       542       541      2412      2413      2408
 -1       924    8    0    1
 -2       397       398       543      1986      2414      2415
 -1       925    8    0    1
 -2       397       543       542      2415      2416      2411
 -1       926    8    0    1
 -2       398       399       544      1989      2417      2418
 -1       927    8    0    1
 -2       398       544       543      2418      2419      2414
 -1       928    8    0    1
 -2       399       400       545      1992      2420      2421
 -1       929    8    0    1
 -2       399       545       544      2421      2422      2417
 -1       930    8    0    1
 -2       400       401       546      1995      2423      2424
 -1       931    8    0    1
 -2       400       546       545      2424      2425      2420
 -1       932    8    0    1
 -2       401       402       547      1998      2426      2427
 -1       933    8    0    1
 -2       401       547       546      2427      2428      2423
 -1       934    8    0    1
 -2       402       403       548      2001      2429      2430
 -1       935    8    0    1
 -2       402       548       547      2430      2431      2426
 -1       936    8    0    1
 -2       403       404       549      2004      2432      2433
 -1       937    8    0    1
 -2       403       549       548      2433      2434      2429
 -1       938    8    0    1
 -2       404       405       550      2007      2435      2436
 -1       939    8    0    1
 -2       404       550       549      2436      2437      2432
 -1       940    8    0    1
 -2       405       406       551      2010      2438      2439
 -1       941    8    0    1
 -2       405       551       550      2439      2440      2435
 -1       942    8    0    1
 -2       406       407       552      2013      2441      2442
 -1       943    8    0    1
 -2       406       552       551      2442      2443      2438
 -1       944    8    0    1
 -2       407       408       553      2016      2444      2445
 -1       945    8    0    1
 -2       407       553       552      2445      2446      2441
 -1       946    8    0    1
 -2       408       409       554      2019      2447      2448
 -1       947    8    0    1
 -2       408       554       553      2448      2449      2444
 -1       948    8    0    1
 -2       409       410       555      2022      2450      2451
 -1       949    8    0    1
 -2       409       555       554      2451      2452      2447
 -1       950    8    0    1
 -2       410       411       556      2025      2453      2454
 -1       951    8    0    1
 -2       410       556       555      2454      2455      2450
 -1       952    8    0    1
 -2       411       412       557      2028      2456      2457
 -1       953    8    0    1
 -2       411       557       556      2457      2458      2453
 -1       954    8    0    1
 -2       412       413       558      2031      2459      2460
 -1       955    8    0    1
 -2       412       558       557      2460      2461      2456
 -1       956    8    0    1
 -2       413       414       559      2034      2462      2463
 -1       957    8    0    1
 -2       413       559       558      2463      2464      2459
 -1       958    8    0    1
 -2       414       415       560      2037      2465      2466
 -1       959    8    0    1
 -2       414       560       559      2466      2467      2462
 -1       960    8    0    1
 -2       415       416       561      2040      2468      2469
 -1       961    8    0    1
 -2       415       561       560      2469      2470      2465
 -1       962    8    0    1
 -2       416       417       562      2043      2471      2472
 -1       963    8    0    1
 -2       416       562       561      2472      2473      2468
 -1       964    8    0    1
 -2       417       418       563      2046      2474      2475
 -1       965    8    0    1
 -2       417       563       562      2475      2476      2471
 -1       966    8    0    1
 -2       418       419       564      2049      2477      2478
 -1       967    8    0    1
 -2       418       564       563      2478      2479      2474
 -1       968    8    0    1
 -2       419       420       565      2052      2480      2481
 -1       969    8    0    1
 -2       419       565       564      2481      2482      2477
 -1       970    8    0    1
 -2       420       421       566      2055      2483      2484
 -1       971    8    0    1
 -2       420       566       565      2484      2485      2480
 -1       972    8    0    1
 -2       421       422       567      2058      2486      2487
 -1       973    8    0    1
 -2       421       567       566      2487      2488      2483
 -1       974    8    0    1
 -2       422       423       568      2061      2489      2490
 -1       975    8    0    1
 -2       422       568       567      2490      2491      2486
 -1       976    8    0    1
 -2       423       424       569      2064      2492      2493
 -1       977    8    0    1
 -2       423       569       568      2493      2494      2489
 -1       978    8    0    1
 -2       424       425       570      2067      2495      2496
 -1       979    8    0    1
 -2       424       570       569      2496      2497      2492
 -1       980    8    0    1
 -2       425       426       429      2070      2079      2498
 -1       981    8    0    1
 -2       430       431       571      2086      2499      2500
 -1       982    8    0    1
 -2       431       432       572      2089      2501      2502
 -1       983    8    0    1
 -2       431       572       571      2502      2503      2499
 -1       984    8    0    1
 -2       428       427       573      2076      2504      2505
 -1       985    8    0    1
 -2       427       430       574      2083      2506      2507
 -1       986    8    0    1
 -2       573       427       574      2504      2507      2508
 -1       987    8    0    1
 -2       430       571       574      2500      2509      2506
 -1       988    8    0    1
 -2       432       433       575      2092      2510      2511
 -1       989    8    0    1
 -2       432       575       572      2511      2512      2501
 -1       990    8    0    1
 -2       433       434       576      2095      2513      2514
 -1       991    8    0    1
 -2       433       576       575      2514      2515      2510
 -1       992    8    0    1
 -2       434       435       577      2098      2516      2517
 -1       993    8    0    1
 -2       434       577       576      2517      2518      2513
 -1       994    8    0    1
 -2       435       436       578      2101      2519      2520
 -1       995    8    0    1
 -2       435       578       577      2520      2521      2516
 -1       996    8    0    1
 -2       436       437       579      2104      2522      2523
 -1       997    8    0    1
 -2       436       579       578      2523      2524      2519
 -1       998    8    0    1
 -2       437       438       580      2107      2525      2526
 -1       999    8    0    1
 -2       437       580       579      2526      2527      2522
 -1      1000    8    0    1
 -2       438       439       581      2110      2528      2529
 -1      1001    8    0    1
 -2       438       581       580      2529      2530      2525
 -1      1002    8    0    1
 -2       441       442       582      2185      2531      2532
 -1      1003    8    0    1
 -2       440       443       583      2187      2533      2534
 -1      1004    8    0    1
 -2       382       383       584      1941      2535      2536
 -1      1005    8    0    1
 -2       383       529       584      2374      2537      2535
 -1      1006    8    0    1
 -2       439       290       380      2186      1931      2538
 -1      1007    8    0    1
 -2       443       444       585      2121      2539      2540
 -1      1008    8    0    1
 -2       583       443       585      2533      2540      2541
 -1      1009    8    0    1
 -2       444       485       585      2243      2542      2539
 -1      1010    8    0    1
 -2       468       441       586      2175      2543      2544
 -1      1011    8    0    1
 -2       441       582       586      2532      2545      2543
 -1      1012    8    0    1
 -2       459       460       587      2196      2546      2547
 -1      1013    8    0    1
 -2       452       453       588      2201      2548      2549
 -1      1014    8    0    1
 -2       446       447       589      2206      2550      2551
 -1      1015    8    0    1
 -2       324       325       590      1764      2552      2553
 -1      1016    8    0    1
 -2       475       324       590      2215      2553      2554
 -1      1017    8    0    1
 -2       325       477       590      2221      2555      2552
 -1      1018    8    0    1
 -2       450       451       591      2210      2556      2557
 -1      1019    8    0    1
 -2       448       449       592      2134      2558      2559
 -1      1020    8    0    1
 -2       455       456       593      2211      2560      2561
 -1      1021    8    0    1
 -2       451       452       594      2202      2562      2563
 -1      1022    8    0    1
 -2       451       594       591      2563      2564      2556
 -1      1023    8    0    1
 -2       453       454       595      2145      2565      2566
 -1      1024    8    0    1
 -2       462       463       596      2212      2567      2568
 -1      1025    8    0    1
 -2       454       455       597      2200      2569      2570
 -1      1026    8    0    1
 -2       456       457       598      2199      2571      2572
 -1      1027    8    0    1
 -2       457       458       599      2198      2573      2574
 -1      1028    8    0    1
 -2       458       459       600      2197      2575      2576
 -1      1029    8    0    1
 -2       460       461       601      2160      2577      2578
 -1      1030    8    0    1
 -2       461       462       602      2195      2579      2580
 -1      1031    8    0    1
 -2       463       464       603      2194      2581      2582
 -1      1032    8    0    1
 -2       463       603       596      2582      2583      2567
 -1      1033    8    0    1
 -2       464       465       604      2193      2584      2585
 -1      1034    8    0    1
 -2       464       604       603      2585      2586      2581
 -1      1035    8    0    1
 -2       465       466       605      2192      2587      2588
 -1      1036    8    0    1
 -2       466       467       606      2191      2589      2590
 -1      1037    8    0    1
 -2       466       606       605      2590      2591      2587
 -1      1038    8    0    1
 -2       335       321       607      2183      2592      2593
 -1      1039    8    0    1
 -2       484       335       607      2240      2593      2594
 -1      1040    8    0    1
 -2       321       320       607      1753      2595      2592
 -1      1041    8    0    1
 -2       333       334       608      1793      2596      2597
 -1      1042    8    0    1
 -2       332       333       608      1788      2597      2598
 -1      1043    8    0    1
 -2       334       474       608      2214      2599      2596
 -1      1044    8    0    1
 -2       442       440       609      2184      2600      2601
 -1      1045    8    0    1
 -2       450       591       610      2557      2602      2603
 -1      1046    8    0    1
 -2       450       610       472      2603      2604      2205
 -1      1047    8    0    1
 -2       322       476       611      2218      2605      2606
 -1      1048    8    0    1
 -2       322       611       445      2606      2607      2125
 -1      1049    8    0    1
 -2       483       382       584      2237      2536      2608
 -1      1050    8    0    1
 -2       331       332       608      1785      2598      2609
 -1      1051    8    0    1
 -2       609       440       612      2600      2610      2611
 -1      1052    8    0    1
 -2       440       583       612      2534      2612      2610
 -1      1053    8    0    1
 -2       320       445       613      2124      2613      2614
 -1      1054    8    0    1
 -2       607       320       613      2595      2614      2615
 -1      1055    8    0    1
 -2       445       611       613      2607      2616      2613
 -1      1056    8    0    1
 -2       470       446       589      2180      2551      2617
 -1      1057    8    0    1
 -2       468       586       471      2544      2618      2190
 -1      1058    8    0    1
 -2       606       467       614      2589      2619      2620
 -1      1059    8    0    1
 -2       467       471       614      2189      2621      2619
 -1      1060    8    0    1
 -2       465       605       604      2588      2622      2584
 -1      1061    8    0    1
 -2       425       429       570      2498      2623      2495
 -1      1062    8    0    1
 -2       429       428       570      2080      2624      2623
 -1      1063    8    0    1
 -2       459       587       615      2547      2625      2626
 -1      1064    8    0    1
 -2       459       615       600      2626      2627      2575
 -1      1065    8    0    1
 -2       582       442       616      2531      2628      2629
 -1      1066    8    0    1
 -2       442       609       616      2601      2630      2628
 -1      1067    8    0    1
 -2       601       461       602      2577      2580      2631
 -1      1068    8    0    1
 -2       331       608       482      2609      2632      2234
 -1      1069    8    0    1
 -2       589       447       617      2550      2633      2634
 -1      1070    8    0    1
 -2       447       473       617      2208      2635      2633
 -1      1071    8    0    1
 -2       469       470       618      2182      2636      2637
 -1      1072    8    0    1
 -2       469       618       485      2637      2638      2242
 -1      1073    8    0    1
 -2       588       453       595      2548      2566      2639
 -1      1074    8    0    1
 -2       587       460       601      2546      2578      2640
 -1      1075    8    0    1
 -2       599       458       600      2573      2576      2641
 -1      1076    8    0    1
 -2       598       457       599      2571      2574      2642
 -1      1077    8    0    1
 -2       597       455       593      2569      2561      2643
 -1      1078    8    0    1
 -2       594       452       588      2562      2549      2644
 -1      1079    8    0    1
 -2       593       456       598      2560      2572      2645
 -1      1080    8    0    1
 -2       592       449       619      2558      2646      2647
 -1      1081    8    0    1
 -2       449       472       619      2204      2648      2646
 -1      1082    8    0    1
 -2       473       448       592      2209      2559      2649
 -1      1083    8    0    1
 -2       595       454       597      2565      2570      2650
 -1      1084    8    0    1
 -2       439       380       620      2538      2651      2652
 -1      1085    8    0    1
 -2       581       439       620      2528      2652      2653
 -1      1086    8    0    1
 -2       380       379       620      1932      2654      2651
 -1      1087    8    0    1
 -2       570       428       573      2624      2505      2655
 -1      1088    8    0    1
 -2       620       379       528      2654      2371      2656
 -1      1089    8    0    1
 -2       478       479       621      2227      2657      2658
 -1      1090    8    0    1
 -2       477       478       622      2224      2659      2660
 -1      1091    8    0    1
 -2       478       621       622      2658      2661      2659
 -1      1092    8    0    1
 -2       480       481       623      2233      2662      2663
 -1      1093    8    0    1
 -2       481       482       624      2236      2664      2665
 -1      1094    8    0    1
 -2       481       624       623      2665      2666      2662
 -1      1095    8    0    1
 -2       474       483       625      2239      2667      2668
 -1      1096    8    0    1
 -2       608       474       482      2599      2669      2632
 -1      1097    8    0    1
 -2       487       486       626      2249      2670      2671
 -1      1098    8    0    1
 -2       488       487       627      2252      2672      2673
 -1      1099    8    0    1
 -2       487       626       627      2671      2674      2672
 -1      1100    8    0    1
 -2       489       488       628      2255      2675      2676
 -1      1101    8    0    1
 -2       488       627       628      2673      2677      2675
 -1      1102    8    0    1
 -2       490       489       629      2258      2678      2679
 -1      1103    8    0    1
 -2       489       628       629      2676      2680      2678
 -1      1104    8    0    1
 -2       491       490       630      2261      2681      2682
 -1      1105    8    0    1
 -2       490       629       630      2679      2683      2681
 -1      1106    8    0    1
 -2       492       491       631      2264      2684      2685
 -1      1107    8    0    1
 -2       491       630       631      2682      2686      2684
 -1      1108    8    0    1
 -2       493       492       632      2267      2687      2688
 -1      1109    8    0    1
 -2       492       631       632      2685      2689      2687
 -1      1110    8    0    1
 -2       494       493       633      2270      2690      2691
 -1      1111    8    0    1
 -2       493       632       633      2688      2692      2690
 -1      1112    8    0    1
 -2       495       494       634      2273      2693      2694
 -1      1113    8    0    1
 -2       494       633       634      2691      2695      2693
 -1      1114    8    0    1
 -2       496       495       635      2276      2696      2697
 -1      1115    8    0    1
 -2       495       634       635      2694      2698      2696
 -1      1116    8    0    1
 -2       497       496       636      2279      2699      2700
 -1      1117    8    0    1
 -2       496       635       636      2697      2701      2699
 -1      1118    8    0    1
 -2       498       497       637      2282      2702      2703
 -1      1119    8    0    1
 -2       497       636       637      2700      2704      2702
 -1      1120    8    0    1
 -2       499       498       638      2285      2705      2706
 -1      1121    8    0    1
 -2       498       637       638      2703      2707      2705
 -1      1122    8    0    1
 -2       500       499       639      2288      2708      2709
 -1      1123    8    0    1
 -2       499       638       639      2706      2710      2708
 -1      1124    8    0    1
 -2       501       500       640      2291      2711      2712
 -1      1125    8    0    1
 -2       500       639       640      2709      2713      2711
 -1      1126    8    0    1
 -2       502       501       641      2294      2714      2715
 -1      1127    8    0    1
 -2       501       640       641      2712      2716      2714
 -1      1128    8    0    1
 -2       503       502       642      2297      2717      2718
 -1      1129    8    0    1
 -2       502       641       642      2715      2719      2717
 -1      1130    8    0    1
 -2       504       503       643      2300      2720      2721
 -1      1131    8    0    1
 -2       503       642       643      2718      2722      2720
 -1      1132    8    0    1
 -2       505       504       644      2303      2723      2724
 -1      1133    8    0    1
 -2       504       643       644      2721      2725      2723
 -1      1134    8    0    1
 -2       506       505       645      2306      2726      2727
 -1      1135    8    0    1
 -2       505       644       645      2724      2728      2726
 -1      1136    8    0    1
 -2       507       506       646      2309      2729      2730
 -1      1137    8    0    1
 -2       506       645       646      2727      2731      2729
 -1      1138    8    0    1
 -2       508       507       647      2312      2732      2733
 -1      1139    8    0    1
 -2       507       646       647      2730      2734      2732
 -1      1140    8    0    1
 -2       509       508       648      2315      2735      2736
 -1      1141    8    0    1
 -2       508       647       648      2733      2737      2735
 -1      1142    8    0    1
 -2       510       509       649      2318      2738      2739
 -1      1143    8    0    1
 -2       509       648       649      2736      2740      2738
 -1      1144    8    0    1
 -2       511       510       650      2321      2741      2742
 -1      1145    8    0    1
 -2       510       649       650      2739      2743      2741
 -1      1146    8    0    1
 -2       512       511       651      2324      2744      2745
 -1      1147    8    0    1
 -2       511       650       651      2742      2746      2744
 -1      1148    8    0    1
 -2       513       512       652      2327      2747      2748
 -1      1149    8    0    1
 -2       512       651       652      2745      2749      2747
 -1      1150    8    0    1
 -2       514       513       653      2330      2750      2751
 -1      1151    8    0    1
 -2       513       652       653      2748      2752      2750
 -1      1152    8    0    1
 -2       515       514       654      2333      2753      2754
 -1      1153    8    0    1
 -2       514       653       654      2751      2755      2753
 -1      1154    8    0    1
 -2       516       515       655      2336      2756      2757
 -1      1155    8    0    1
 -2       515       654       655      2754      2758      2756
 -1      1156    8    0    1
 -2       517       516       656      2339      2759      2760
 -1      1157    8    0    1
 -2       516       655       656      2757      2761      2759
 -1      1158    8    0    1
 -2       518       517       657      2342      2762      2763
 -1      1159    8    0    1
 -2       517       656       657      2760      2764      2762
 -1      1160    8    0    1
 -2       519       518       658      2345      2765      2766
 -1      1161    8    0    1
 -2       518       657       658      2763      2767      2765
 -1      1162    8    0    1
 -2       520       519       659      2348      2768      2769
 -1      1163    8    0    1
 -2       519       658       659      2766      2770      2768
 -1      1164    8    0    1
 -2       522       521       615      2354      2771      2772
 -1      1165    8    0    1
 -2       524       523       602      2360      2773      2774
 -1      1166    8    0    1
 -2       525       524       596      2363      2775      2776
 -1      1167    8    0    1
 -2       527       526       660      2369      2777      2778
 -1      1168    8    0    1
 -2       528       527       661      2372      2779      2780
 -1      1169    8    0    1
 -2       527       660       661      2778      2781      2779
 -1      1170    8    0    1
 -2       530       531       662      2380      2782      2783
 -1      1171    8    0    1
 -2       570       573       663      2655      2784      2785
 -1      1172    8    0    1
 -2       570       663       569      2785      2786      2497
 -1      1173    8    0    1
 -2       529       530       664      2377      2787      2788
 -1      1174    8    0    1
 -2       530       662       664      2783      2789      2787
 -1      1175    8    0    1
 -2       532       533       665      2386      2790      2791
 -1      1176    8    0    1
 -2       533       534       666      2389      2792      2793
 -1      1177    8    0    1
 -2       533       666       665      2793      2794      2790
 -1      1178    8    0    1
 -2       534       535       667      2392      2795      2796
 -1      1179    8    0    1
 -2       534       667       666      2796      2797      2792
 -1      1180    8    0    1
 -2       535       536       668      2395      2798      2799
 -1      1181    8    0    1
 -2       535       668       667      2799      2800      2795
 -1      1182    8    0    1
 -2       536       537       669      2398      2801      2802
 -1      1183    8    0    1
 -2       536       669       668      2802      2803      2798
 -1      1184    8    0    1
 -2       537       538       670      2401      2804      2805
 -1      1185    8    0    1
 -2       537       670       669      2805      2806      2801
 -1      1186    8    0    1
 -2       538       539       671      2404      2807      2808
 -1      1187    8    0    1
 -2       538       671       670      2808      2809      2804
 -1      1188    8    0    1
 -2       539       540       672      2407      2810      2811
 -1      1189    8    0    1
 -2       539       672       671      2811      2812      2807
 -1      1190    8    0    1
 -2       540       541       673      2410      2813      2814
 -1      1191    8    0    1
 -2       540       673       672      2814      2815      2810
 -1      1192    8    0    1
 -2       541       542       674      2413      2816      2817
 -1      1193    8    0    1
 -2       541       674       673      2817      2818      2813
 -1      1194    8    0    1
 -2       542       543       675      2416      2819      2820
 -1      1195    8    0    1
 -2       542       675       674      2820      2821      2816
 -1      1196    8    0    1
 -2       543       544       676      2419      2822      2823
 -1      1197    8    0    1
 -2       543       676       675      2823      2824      2819
 -1      1198    8    0    1
 -2       544       545       677      2422      2825      2826
 -1      1199    8    0    1
 -2       544       677       676      2826      2827      2822
 -1      1200    8    0    1
 -2       545       546       678      2425      2828      2829
 -1      1201    8    0    1
 -2       545       678       677      2829      2830      2825
 -1      1202    8    0    1
 -2       546       547       679      2428      2831      2832
 -1      1203    8    0    1
 -2       546       679       678      2832      2833      2828
 -1      1204    8    0    1
 -2       547       548       680      2431      2834      2835
 -1      1205    8    0    1
 -2       547       680       679      2835      2836      2831
 -1      1206    8    0    1
 -2       548       549       681      2434      2837      2838
 -1      1207    8    0    1
 -2       548       681       680      2838      2839      2834
 -1      1208    8    0    1
 -2       549       550       682      2437      2840      2841
 -1      1209    8    0    1
 -2       549       682       681      2841      2842      2837
 -1      1210    8    0    1
 -2       550       551       683      2440      2843      2844
 -1      1211    8    0    1
 -2       550       683       682      2844      2845      2840
 -1      1212    8    0    1
 -2       551       552       684      2443      2846      2847
 -1      1213    8    0    1
 -2       551       684       683      2847      2848      2843
 -1      1214    8    0    1
 -2       552       553       685      2446      2849      2850
 -1      1215    8    0    1
 -2       552       685       684      2850      2851      2846
 -1      1216    8    0    1
 -2       553       554       686      2449      2852      2853
 -1      1217    8    0    1
 -2       553       686       685      2853      2854      2849
 -1      1218    8    0    1
 -2       554       555       687      2452      2855      2856
 -1      1219    8    0    1
 -2       554       687       686      2856      2857      2852
 -1      1220    8    0    1
 -2       555       556       688      2455      2858      2859
 -1      1221    8    0    1
 -2       555       688       687      2859      2860      2855
 -1      1222    8    0    1
 -2       556       557       689      2458      2861      2862
 -1      1223    8    0    1
 -2       556       689       688      2862      2863      2858
 -1      1224    8    0    1
 -2       557       558       690      2461      2864      2865
 -1      1225    8    0    1
 -2       557       690       689      2865      2866      2861
 -1      1226    8    0    1
 -2       558       559       691      2464      2867      2868
 -1      1227    8    0    1
 -2       558       691       690      2868      2869      2864
 -1      1228    8    0    1
 -2       559       560       692      2467      2870      2871
 -1      1229    8    0    1
 -2       559       692       691      2871      2872      2867
 -1      1230    8    0    1
 -2       560       561       693      2470      2873      2874
 -1      1231    8    0    1
 -2       560       693       692      2874      2875      2870
 -1      1232    8    0    1
 -2       561       562       694      2473      2876      2877
 -1      1233    8    0    1
 -2       561       694       693      2877      2878      2873
 -1      1234    8    0    1
 -2       562       563       695      2476      2879      2880
 -1      1235    8    0    1
 -2       562       695       694      2880      2881      2876
 -1      1236    8    0    1
 -2       563       564       696      2479      2882      2883
 -1      1237    8    0    1
 -2       563       696       695      2883      2884      2879
 -1      1238    8    0    1
 -2       564       565       697      2482      2885      2886
 -1      1239    8    0    1
 -2       564       697       696      2886      2887      2882
 -1      1240    8    0    1
 -2       565       566       698      2485      2888      2889
 -1      1241    8    0    1
 -2       565       698       697      2889      2890      2885
 -1      1242    8    0    1
 -2       566       567       699      2488      2891      2892
 -1      1243    8    0    1
 -2       566       699       698      2892      2893      2888
 -1      1244    8    0    1
 -2       567       568       700      2491      2894      2895
 -1      1245    8    0    1
 -2       567       700       699      2895      2896      2891
 -1      1246    8    0    1
 -2       568       569       701      2494      2897      2898
 -1      1247    8    0    1
 -2       700       568       701      2894      2898      2899
 -1      1248    8    0    1
 -2       569       663       701      2786      2900      2897
 -1      1249    8    0    1
 -2       575       576       702      2515      2901      2902
 -1      1250    8    0    1
 -2       620       528       703      2656      2903      2904
 -1      1251    8    0    1
 -2       528       661       703      2780      2905      2903
 -1      1252    8    0    1
 -2       571       572       704      2503      2906      2907
 -1      1253    8    0    1
 -2       576       577       705      2518      2908      2909
 -1      1254    8    0    1
 -2       572       575       706      2512      2910      2911
 -1      1255    8    0    1
 -2       572       706       704      2911      2912      2906
 -1      1256    8    0    1
 -2       586       582       707      2545      2913      2914
 -1      1257    8    0    1
 -2       602       462       596      2579      2568      2915
 -1      1258    8    0    1
 -2       577       578       707      2521      2916      2917
 -1      1259    8    0    1
 -2       579       580       708      2527      2918      2919
 -1      1260    8    0    1
 -2       604       605       709      2622      2920      2921
 -1      1261    8    0    1
 -2       603       604       710      2586      2922      2923
 -1      1262    8    0    1
 -2       593       598       711      2645      2924      2925
 -1      1263    8    0    1
 -2       584       529       712      2537      2926      2927
 -1      1264    8    0    1
 -2       529       664       712      2788      2928      2926
 -1      1265    8    0    1
 -2       531       532       713      2383      2929      2930
 -1      1266    8    0    1
 -2       662       531       713      2782      2930      2931
 -1      1267    8    0    1
 -2       532       665       713      2791      2932      2929
 -1      1268    8    0    1
 -2       471       586       714      2618      2933      2934
 -1      1269    8    0    1
 -2       486       484       715      2246      2935      2936
 -1      1270    8    0    1
 -2       486       715       626      2936      2937      2670
 -1      1271    8    0    1
 -2       470       589       716      2617      2938      2939
 -1      1272    8    0    1
 -2       588       595       717      2639      2940      2941
 -1      1273    8    0    1
 -2       596       524       602      2775      2774      2915
 -1      1274    8    0    1
 -2       483       584       718      2608      2942      2943
 -1      1275    8    0    1
 -2       625       483       718      2667      2943      2944
 -1      1276    8    0    1
 -2       584       712       718      2927      2945      2942
 -1      1277    8    0    1
 -2       602       523       601      2773      2946      2631
 -1      1278    8    0    1
 -2       479       480       719      2230      2947      2948
 -1      1279    8    0    1
 -2       621       479       719      2657      2948      2949
 -1      1280    8    0    1
 -2       480       623       719      2663      2950      2947
 -1      1281    8    0    1
 -2       595       597       720      2650      2951      2952
 -1      1282    8    0    1
 -2       594       588       721      2644      2953      2954
 -1      1283    8    0    1
 -2       476       475       722      2219      2955      2956
 -1      1284    8    0    1
 -2       591       594       723      2564      2957      2958
 -1      1285    8    0    1
 -2       473       592       724      2649      2959      2960
 -1      1286    8    0    1
 -2       581       620       703      2653      2904      2961
 -1      1287    8    0    1
 -2       597       593       725      2643      2962      2963
 -1      1288    8    0    1
 -2       593       711       725      2925      2964      2962
 -1      1289    8    0    1
 -2       598       599       726      2642      2965      2966
 -1      1290    8    0    1
 -2       599       600       727      2641      2967      2968
 -1      1291    8    0    1
 -2       599       727       726      2968      2969      2965
 -1      1292    8    0    1
 -2       596       603       525      2583      2970      2776
 -1      1293    8    0    1
 -2       484       607       728      2594      2971      2972
 -1      1294    8    0    1
 -2       715       484       728      2935      2972      2973
 -1      1295    8    0    1
 -2       607       613       728      2615      2974      2971
 -1      1296    8    0    1
 -2       605       606       729      2591      2975      2976
 -1      1297    8    0    1
 -2       611       476       730      2605      2977      2978
 -1      1298    8    0    1
 -2       476       722       730      2956      2979      2977
 -1      1299    8    0    1
 -2       477       622       731      2660      2980      2981
 -1      1300    8    0    1
 -2       477       731       590      2981      2982      2555
 -1      1301    8    0    1
 -2       482       474       625      2669      2668      2983
 -1      1302    8    0    1
 -2       589       617       732      2634      2984      2985
 -1      1303    8    0    1
 -2       589       732       716      2985      2986      2938
 -1      1304    8    0    1
 -2       612       583       733      2612      2987      2988
 -1      1305    8    0    1
 -2       470       716       618      2939      2989      2636
 -1      1306    8    0    1
 -2       614       471       714      2621      2934      2990
 -1      1307    8    0    1
 -2       595       720       717      2952      2991      2940
 -1      1308    8    0    1
 -2       583       585       733      2541      2992      2987
 -1      1309    8    0    1
 -2       520       659       727      2769      2993      2994
 -1      1310    8    0    1
 -2       521       520       727      2351      2994      2995
 -1      1311    8    0    1
 -2       526       525       710      2366      2996      2997
 -1      1312    8    0    1
 -2       571       704       734      2907      2998      2999
 -1      1313    8    0    1
 -2       571       734       574      2999      3000      2509
 -1      1314    8    0    1
 -2       714       586       707      2933      2914      3001
 -1      1315    8    0    1
 -2       575       702       706      2902      3002      2910
 -1      1316    8    0    1
 -2       702       576       705      2901      2909      3003
 -1      1317    8    0    1
 -2       711       598       726      2924      2966      3004
 -1      1318    8    0    1
 -2       597       725       720      2963      3005      2951
 -1      1319    8    0    1
 -2       573       574       663      2508      3006      2784
 -1      1320    8    0    1
 -2       707       582       705      2913      3007      3008
 -1      1321    8    0    1
 -2       615       587       522      2625      3009      2772
 -1      1322    8    0    1
 -2       707       578       714      2916      3010      3001
 -1      1323    8    0    1
 -2       579       708       714      2919      3011      3012
 -1      1324    8    0    1
 -2       578       579       714      2524      3012      3010
 -1      1325    8    0    1
 -2       604       709       710      2921      3013      2922
 -1      1326    8    0    1
 -2       580       581       703      2530      2961      3014
 -1      1327    8    0    1
 -2       624       482       625      2664      2983      3015
 -1      1328    8    0    1
 -2       580       703       735      3014      3016      3017
 -1      1329    8    0    1
 -2       708       580       735      2918      3017      3018
 -1      1330    8    0    1
 -2       703       661       735      2905      3019      3016
 -1      1331    8    0    1
 -2       605       729       709      2976      3020      2920
 -1      1332    8    0    1
 -2       606       614       729      2620      3021      2975
 -1      1333    8    0    1
 -2       617       473       724      2635      2960      3022
 -1      1334    8    0    1
 -2       585       485       736      2542      3023      3024
 -1      1335    8    0    1
 -2       603       710       525      2923      2996      2970
 -1      1336    8    0    1
 -2       705       577       707      2908      2917      3008
 -1      1337    8    0    1
 -2       660       526       710      2777      2997      3025
 -1      1338    8    0    1
 -2       619       472       737      2648      3026      3027
 -1      1339    8    0    1
 -2       472       610       737      2604      3028      3026
 -1      1340    8    0    1
 -2       588       717       738      2941      3029      3030
 -1      1341    8    0    1
 -2       588       738       721      3030      3031      2953
 -1      1342    8    0    1
 -2       727       600       615      2967      2627      3032
 -1      1343    8    0    1
 -2       475       590       739      2554      3033      3034
 -1      1344    8    0    1
 -2       722       475       739      2955      3034      3035
 -1      1345    8    0    1
 -2       590       731       739      2982      3036      3033
 -1      1346    8    0    1
 -2       724       592       740      2959      3037      3038
 -1      1347    8    0    1
 -2       592       619       740      2647      3039      3037
 -1      1348    8    0    1
 -2       723       594       721      2957      2954      3040
 -1      1349    8    0    1
 -2       485       618       741      2638      3041      3042
 -1      1350    8    0    1
 -2       485       741       736      3042      3043      3023
 -1      1351    8    0    1
 -2       591       723       610      2958      3044      2602
 -1      1352    8    0    1
 -2       587       601       522      2640      3045      3009
 -1      1353    8    0    1
 -2       522       601       523      3045      2946      2357
 -1      1354    8    0    1
 -2       521       727       615      2995      3032      2771
 -1      1355    8    0    1
 -2       623       624       742      2666      3046      3047
 -1      1356    8    0    1
 -2       618       716       743      2989      3048      3049
 -1      1357    8    0    1
 -2       613       611       744      2616      3050      3051
 -1      1358    8    0    1
 -2       728       613       744      2974      3051      3052
 -1      1359    8    0    1
 -2       611       730       744      2978      3053      3050
 -1      1360    8    0    1
 -2       733       585       736      2992      3024      3054
 -1      1361    8    0    1
 -2       727       659       726      2993      3055      2969
 -1      1362    8    0    1
 -2       628       627       745      2677      3056      3057
 -1      1363    8    0    1
 -2       629       628       746      2680      3058      3059
 -1      1364    8    0    1
 -2       628       745       746      3057      3060      3058
 -1      1365    8    0    1
 -2       630       629       747      2683      3061      3062
 -1      1366    8    0    1
 -2       629       746       747      3059      3063      3061
 -1      1367    8    0    1
 -2       631       630       748      2686      3064      3065
 -1      1368    8    0    1
 -2       630       747       748      3062      3066      3064
 -1      1369    8    0    1
 -2       632       631       749      2689      3067      3068
 -1      1370    8    0    1
 -2       631       748       749      3065      3069      3067
 -1      1371    8    0    1
 -2       633       632       750      2692      3070      3071
 -1      1372    8    0    1
 -2       632       749       750      3068      3072      3070
 -1      1373    8    0    1
 -2       634       633       751      2695      3073      3074
 -1      1374    8    0    1
 -2       633       750       751      3071      3075      3073
 -1      1375    8    0    1
 -2       635       634       752      2698      3076      3077
 -1      1376    8    0    1
 -2       634       751       752      3074      3078      3076
 -1      1377    8    0    1
 -2       636       635       753      2701      3079      3080
 -1      1378    8    0    1
 -2       635       752       753      3077      3081      3079
 -1      1379    8    0    1
 -2       637       636       754      2704      3082      3083
 -1      1380    8    0    1
 -2       636       753       754      3080      3084      3082
 -1      1381    8    0    1
 -2       638       637       755      2707      3085      3086
 -1      1382    8    0    1
 -2       637       754       755      3083      3087      3085
 -1      1383    8    0    1
 -2       639       638       756      2710      3088      3089
 -1      1384    8    0    1
 -2       638       755       756      3086      3090      3088
 -1      1385    8    0    1
 -2       640       639       757      2713      3091      3092
 -1      1386    8    0    1
 -2       639       756       757      3089      3093      3091
 -1      1387    8    0    1
 -2       641       640       758      2716      3094      3095
 -1      1388    8    0    1
 -2       640       757       758      3092      3096      3094
 -1      1389    8    0    1
 -2       642       641       759      2719      3097      3098
 -1      1390    8    0    1
 -2       641       758       759      3095      3099      3097
 -1      1391    8    0    1
 -2       643       642       760      2722      3100      3101
 -1      1392    8    0    1
 -2       642       759       760      3098      3102      3100
 -1      1393    8    0    1
 -2       644       643       761      2725      3103      3104
 -1      1394    8    0    1
 -2       643       760       761      3101      3105      3103
 -1      1395    8    0    1
 -2       645       644       762      2728      3106      3107
 -1      1396    8    0    1
 -2       644       761       762      3104      3108      3106
 -1      1397    8    0    1
 -2       646       645       763      2731      3109      3110
 -1      1398    8    0    1
 -2       645       762       763      3107      3111      3109
 -1      1399    8    0    1
 -2       647       646       764      2734      3112      3113
 -1      1400    8    0    1
 -2       646       763       764      3110      3114      3112
 -1      1401    8    0    1
 -2       648       647       765      2737      3115      3116
 -1      1402    8    0    1
 -2       647       764       765      3113      3117      3115
 -1      1403    8    0    1
 -2       649       648       766      2740      3118      3119
 -1      1404    8    0    1
 -2       648       765       766      3116      3120      3118
 -1      1405    8    0    1
 -2       650       649       767      2743      3121      3122
 -1      1406    8    0    1
 -2       649       766       767      3119      3123      3121
 -1      1407    8    0    1
 -2       651       650       768      2746      3124      3125
 -1      1408    8    0    1
 -2       650       767       768      3122      3126      3124
 -1      1409    8    0    1
 -2       652       651       769      2749      3127      3128
 -1      1410    8    0    1
 -2       651       768       769      3125      3129      3127
 -1      1411    8    0    1
 -2       653       652       770      2752      3130      3131
 -1      1412    8    0    1
 -2       652       769       770      3128      3132      3130
 -1      1413    8    0    1
 -2       654       653       771      2755      3133      3134
 -1      1414    8    0    1
 -2       653       770       771      3131      3135      3133
 -1      1415    8    0    1
 -2       655       654       772      2758      3136      3137
 -1      1416    8    0    1
 -2       654       771       772      3134      3138      3136
 -1      1417    8    0    1
 -2       656       655       773      2761      3139      3140
 -1      1418    8    0    1
 -2       655       772       773      3137      3141      3139
 -1      1419    8    0    1
 -2       657       656       774      2764      3142      3143
 -1      1420    8    0    1
 -2       656       773       774      3140      3144      3142
 -1      1421    8    0    1
 -2       658       657       775      2767      3145      3146
 -1      1422    8    0    1
 -2       657       774       775      3143      3147      3145
 -1      1423    8    0    1
 -2       659       658       776      2770      3148      3149
 -1      1424    8    0    1
 -2       726       659       776      3055      3149      3150
 -1      1425    8    0    1
 -2       658       775       776      3146      3151      3148
 -1      1426    8    0    1
 -2       717       720       777      2991      3152      3153
 -1      1427    8    0    1
 -2       664       662       778      2789      3154      3155
 -1      1428    8    0    1
 -2       712       664       779      2928      3156      3157
 -1      1429    8    0    1
 -2       664       778       779      3155      3158      3156
 -1      1430    8    0    1
 -2       666       667       780      2797      3159      3160
 -1      1431    8    0    1
 -2       665       666       781      2794      3161      3162
 -1      1432    8    0    1
 -2       666       780       781      3160      3163      3161
 -1      1433    8    0    1
 -2       668       669       782      2803      3164      3165
 -1      1434    8    0    1
 -2       669       670       783      2806      3166      3167
 -1      1435    8    0    1
 -2       669       783       782      3167      3168      3164
 -1      1436    8    0    1
 -2       670       671       784      2809      3169      3170
 -1      1437    8    0    1
 -2       670       784       783      3170      3171      3166
 -1      1438    8    0    1
 -2       671       672       785      2812      3172      3173
 -1      1439    8    0    1
 -2       671       785       784      3173      3174      3169
 -1      1440    8    0    1
 -2       672       673       786      2815      3175      3176
 -1      1441    8    0    1
 -2       672       786       785      3176      3177      3172
 -1      1442    8    0    1
 -2       673       674       787      2818      3178      3179
 -1      1443    8    0    1
 -2       673       787       786      3179      3180      3175
 -1      1444    8    0    1
 -2       674       675       788      2821      3181      3182
 -1      1445    8    0    1
 -2       674       788       787      3182      3183      3178
 -1      1446    8    0    1
 -2       675       676       789      2824      3184      3185
 -1      1447    8    0    1
 -2       675       789       788      3185      3186      3181
 -1      1448    8    0    1
 -2       676       677       790      2827      3187      3188
 -1      1449    8    0    1
 -2       676       790       789      3188      3189      3184
 -1      1450    8    0    1
 -2       677       678       791      2830      3190      3191
 -1      1451    8    0    1
 -2       677       791       790      3191      3192      3187
 -1      1452    8    0    1
 -2       678       679       792      2833      3193      3194
 -1      1453    8    0    1
 -2       678       792       791      3194      3195      3190
 -1      1454    8    0    1
 -2       679       680       793      2836      3196      3197
 -1      1455    8    0    1
 -2       679       793       792      3197      3198      3193
 -1      1456    8    0    1
 -2       680       681       794      2839      3199      3200
 -1      1457    8    0    1
 -2       680       794       793      3200      3201      3196
 -1      1458    8    0    1
 -2       681       682       795      2842      3202      3203
 -1      1459    8    0    1
 -2       681       795       794      3203      3204      3199
 -1      1460    8    0    1
 -2       682       683       796      2845      3205      3206
 -1      1461    8    0    1
 -2       682       796       795      3206      3207      3202
 -1      1462    8    0    1
 -2       683       684       797      2848      3208      3209
 -1      1463    8    0    1
 -2       683       797       796      3209      3210      3205
 -1      1464    8    0    1
 -2       684       685       798      2851      3211      3212
 -1      1465    8    0    1
 -2       684       798       797      3212      3213      3208
 -1      1466    8    0    1
 -2       685       686       799      2854      3214      3215
 -1      1467    8    0    1
 -2       685       799       798      3215      3216      3211
 -1      1468    8    0    1
 -2       686       687       800      2857      3217      3218
 -1      1469    8    0    1
 -2       686       800       799      3218      3219      3214
 -1      1470    8    0    1
 -2       687       688       801      2860      3220      3221
 -1      1471    8    0    1
 -2       687       801       800      3221      3222      3217
 -1      1472    8    0    1
 -2       688       689       802      2863      3223      3224
 -1      1473    8    0    1
 -2       688       802       801      3224      3225      3220
 -1      1474    8    0    1
 -2       689       690       803      2866      3226      3227
 -1      1475    8    0    1
 -2       689       803       802      3227      3228      3223
 -1      1476    8    0    1
 -2       690       691       804      2869      3229      3230
 -1      1477    8    0    1
 -2       690       804       803      3230      3231      3226
 -1      1478    8    0    1
 -2       691       692       805      2872      3232      3233
 -1      1479    8    0    1
 -2       691       805       804      3233      3234      3229
 -1      1480    8    0    1
 -2       692       693       806      2875      3235      3236
 -1      1481    8    0    1
 -2       692       806       805      3236      3237      3232
 -1      1482    8    0    1
 -2       693       694       807      2878      3238      3239
 -1      1483    8    0    1
 -2       693       807       806      3239      3240      3235
 -1      1484    8    0    1
 -2       694       695       808      2881      3241      3242
 -1      1485    8    0    1
 -2       694       808       807      3242      3243      3238
 -1      1486    8    0    1
 -2       695       696       809      2884      3244      3245
 -1      1487    8    0    1
 -2       695       809       808      3245      3246      3241
 -1      1488    8    0    1
 -2       696       697       810      2887      3247      3248
 -1      1489    8    0    1
 -2       696       810       809      3248      3249      3244
 -1      1490    8    0    1
 -2       697       698       811      2890      3250      3251
 -1      1491    8    0    1
 -2       697       811       810      3251      3252      3247
 -1      1492    8    0    1
 -2       698       699       812      2893      3253      3254
 -1      1493    8    0    1
 -2       698       812       811      3254      3255      3250
 -1      1494    8    0    1
 -2       699       700       813      2896      3256      3257
 -1      1495    8    0    1
 -2       699       813       812      3257      3258      3253
 -1      1496    8    0    1
 -2       622       621       814      2661      3259      3260
 -1      1497    8    0    1
 -2       706       702       612      3002      3261      3262
 -1      1498    8    0    1
 -2       711       726       776      3004      3150      3263
 -1      1499    8    0    1
 -2       704       706       815      2912      3264      3265
 -1      1500    8    0    1
 -2       705       582       616      3007      2629      3266
 -1      1501    8    0    1
 -2       616       609       816      2630      3267      3268
 -1      1502    8    0    1
 -2       729       614       817      3021      3269      3270
 -1      1503    8    0    1
 -2       610       723       818      3044      3271      3272
 -1      1504    8    0    1
 -2       610       818       737      3272      3273      3028
 -1      1505    8    0    1
 -2       702       705       616      3003      3266      3274
 -1      1506    8    0    1
 -2       667       668       819      2800      3275      3276
 -1      1507    8    0    1
 -2       780       667       819      3159      3276      3277
 -1      1508    8    0    1
 -2       668       782       819      3165      3278      3275
 -1      1509    8    0    1
 -2       660       710       709      3025      3013      3279
 -1      1510    8    0    1
 -2       661       660       820      2781      3280      3281
 -1      1511    8    0    1
 -2       735       661       820      3019      3281      3282
 -1      1512    8    0    1
 -2       660       709       820      3279      3283      3280
 -1      1513    8    0    1
 -2       720       725       821      3005      3284      3285
 -1      1514    8    0    1
 -2       720       821       777      3285      3286      3152
 -1      1515    8    0    1
 -2       617       724       822      3022      3287      3288
 -1      1516    8    0    1
 -2       626       715       823      2937      3289      3290
 -1      1517    8    0    1
 -2       609       612       816      2611      3291      3267
 -1      1518    8    0    1
 -2       624       625       824      3015      3292      3293
 -1      1519    8    0    1
 -2       742       624       824      3046      3293      3294
 -1      1520    8    0    1
 -2       625       718       824      2944      3295      3292
 -1      1521    8    0    1
 -2       663       574       734      3006      3000      3296
 -1      1522    8    0    1
 -2       725       711       825      2964      3297      3298
 -1      1523    8    0    1
 -2       723       721       826      3040      3299      3300
 -1      1524    8    0    1
 -2       627       626       827      2674      3301      3302
 -1      1525    8    0    1
 -2       627       827       745      3302      3303      3056
 -1      1526    8    0    1
 -2       733       736       815      3054      3304      3305
 -1      1527    8    0    1
 -2       731       622       828      2980      3306      3307
 -1      1528    8    0    1
 -2       622       814       828      3260      3308      3306
 -1      1529    8    0    1
 -2       716       732       829      2986      3309      3310
 -1      1530    8    0    1
 -2       716       829       743      3310      3311      3048
 -1      1531    8    0    1
 -2       618       743       741      3049      3312      3041
 -1      1532    8    0    1
 -2       740       619       830      3039      3313      3314
 -1      1533    8    0    1
 -2       619       737       830      3027      3315      3313
 -1      1534    8    0    1
 -2       734       704       831      2998      3316      3317
 -1      1535    8    0    1
 -2       704       815       831      3265      3318      3316
 -1      1536    8    0    1
 -2       778       662       832      3154      3319      3320
 -1      1537    8    0    1
 -2       662       713       832      2931      3321      3319
 -1      1538    8    0    1
 -2       623       742       833      3047      3322      3323
 -1      1539    8    0    1
 -2       623       833       719      3323      3324      2950
 -1      1540    8    0    1
 -2       718       712       834      2945      3325      3326
 -1      1541    8    0    1
 -2       824       718       834      3295      3326      3327
 -1      1542    8    0    1
 -2       712       779       834      3157      3328      3325
 -1      1543    8    0    1
 -2       715       728       744      2973      3052      3329
 -1      1544    8    0    1
 -2       725       825       821      3298      3330      3284
 -1      1545    8    0    1
 -2       715       744       823      3329      3331      3289
 -1      1546    8    0    1
 -2       665       781       835      3162      3332      3333
 -1      1547    8    0    1
 -2       665       835       713      3333      3334      2932
 -1      1548    8    0    1
 -2       813       700       836      3256      3335      3336
 -1      1549    8    0    1
 -2       700       701       836      2899      3337      3335
 -1      1550    8    0    1
 -2       814       621       837      3259      3338      3339
 -1      1551    8    0    1
 -2       621       719       837      2949      3340      3338
 -1      1552    8    0    1
 -2       709       729       820      3020      3341      3283
 -1      1553    8    0    1
 -2       706       612       733      3262      2988      3342
 -1      1554    8    0    1
 -2       711       776       825      3263      3343      3297
 -1      1555    8    0    1
 -2       815       706       733      3264      3342      3305
 -1      1556    8    0    1
 -2       663       734       838      3296      3344      3345
 -1      1557    8    0    1
 -2       701       663       838      2900      3345      3346
 -1      1558    8    0    1
 -2       734       831       838      3317      3347      3344
 -1      1559    8    0    1
 -2       729       817       820      3270      3348      3341
 -1      1560    8    0    1
 -2       738       717       839      3029      3349      3350
 -1      1561    8    0    1
 -2       717       777       839      3153      3351      3349
 -1      1562    8    0    1
 -2       708       735       817      3018      3352      3353
 -1      1563    8    0    1
 -2       626       823       827      3290      3354      3301
 -1      1564    8    0    1
 -2       826       721       738      3299      3031      3355
 -1      1565    8    0    1
 -2       818       723       840      3271      3356      3357
 -1      1566    8    0    1
 -2       723       826       840      3300      3358      3356
 -1      1567    8    0    1
 -2       815       736       831      3304      3359      3318
 -1      1568    8    0    1
 -2       722       739       841      3035      3360      3361
 -1      1569    8    0    1
 -2       730       722       842      2979      3362      3363
 -1      1570    8    0    1
 -2       722       841       842      3361      3364      3362
 -1      1571    8    0    1
 -2       732       617       843      2984      3365      3366
 -1      1572    8    0    1
 -2       820       817       735      3348      3352      3282
 -1      1573    8    0    1
 -2       821       825       844      3330      3367      3368
 -1      1574    8    0    1
 -2       781       780       845      3163      3369      3370
 -1      1575    8    0    1
 -2       746       745       846      3060      3371      3372
 -1      1576    8    0    1
 -2       741       743       847      3312      3373      3374
 -1      1577    8    0    1
 -2       747       746       848      3063      3375      3376
 -1      1578    8    0    1
 -2       746       846       848      3372      3377      3375
 -1      1579    8    0    1
 -2       748       747       849      3066      3378      3379
 -1      1580    8    0    1
 -2       747       848       849      3376      3380      3378
 -1      1581    8    0    1
 -2       749       748       850      3069      3381      3382
 -1      1582    8    0    1
 -2       748       849       850      3379      3383      3381
 -1      1583    8    0    1
 -2       750       749       851      3072      3384      3385
 -1      1584    8    0    1
 -2       749       850       851      3382      3386      3384
 -1      1585    8    0    1
 -2       751       750       852      3075      3387      3388
 -1      1586    8    0    1
 -2       750       851       852      3385      3389      3387
 -1      1587    8    0    1
 -2       752       751       853      3078      3390      3391
 -1      1588    8    0    1
 -2       751       852       853      3388      3392      3390
 -1      1589    8    0    1
 -2       753       752       854      3081      3393      3394
 -1      1590    8    0    1
 -2       752       853       854      3391      3395      3393
 -1      1591    8    0    1
 -2       754       753       855      3084      3396      3397
 -1      1592    8    0    1
 -2       753       854       855      3394      3398      3396
 -1      1593    8    0    1
 -2       755       754       856      3087      3399      3400
 -1      1594    8    0    1
 -2       754       855       856      3397      3401      3399
 -1      1595    8    0    1
 -2       756       755       857      3090      3402      3403
 -1      1596    8    0    1
 -2       755       856       857      3400      3404      3402
 -1      1597    8    0    1
 -2       757       756       858      3093      3405      3406
 -1      1598    8    0    1
 -2       756       857       858      3403      3407      3405
 -1      1599    8    0    1
 -2       758       757       859      3096      3408      3409
 -1      1600    8    0    1
 -2       757       858       859      3406      3410      3408
 -1      1601    8    0    1
 -2       759       758       860      3099      3411      3412
 -1      1602    8    0    1
 -2       758       859       860      3409      3413      3411
 -1      1603    8    0    1
 -2       760       759       861      3102      3414      3415
 -1      1604    8    0    1
 -2       759       860       861      3412      3416      3414
 -1      1605    8    0    1
 -2       761       760       862      3105      3417      3418
 -1      1606    8    0    1
 -2       760       861       862      3415      3419      3417
 -1      1607    8    0    1
 -2       762       761       863      3108      3420      3421
 -1      1608    8    0    1
 -2       761       862       863      3418      3422      3420
 -1      1609    8    0    1
 -2       763       762       864      3111      3423      3424
 -1      1610    8    0    1
 -2       762       863       864      3421      3425      3423
 -1      1611    8    0    1
 -2       764       763       865      3114      3426      3427
 -1      1612    8    0    1
 -2       763       864       865      3424      3428      3426
 -1      1613    8    0    1
 -2       765       764       866      3117      3429      3430
 -1      1614    8    0    1
 -2       764       865       866      3427      3431      3429
 -1      1615    8    0    1
 -2       766       765       867      3120      3432      3433
 -1      1616    8    0    1
 -2       765       866       867      3430      3434      3432
 -1      1617    8    0    1
 -2       767       766       868      3123      3435      3436
 -1      1618    8    0    1
 -2       766       867       868      3433      3437      3435
 -1      1619    8    0    1
 -2       768       767       869      3126      3438      3439
 -1      1620    8    0    1
 -2       767       868       869      3436      3440      3438
 -1      1621    8    0    1
 -2       769       768       870      3129      3441      3442
 -1      1622    8    0    1
 -2       768       869       870      3439      3443      3441
 -1      1623    8    0    1
 -2       770       769       871      3132      3444      3445
 -1      1624    8    0    1
 -2       769       870       871      3442      3446      3444
 -1      1625    8    0    1
 -2       771       770       872      3135      3447      3448
 -1      1626    8    0    1
 -2       770       871       872      3445      3449      3447
 -1      1627    8    0    1
 -2       772       771       873      3138      3450      3451
 -1      1628    8    0    1
 -2       771       872       873      3448      3452      3450
 -1      1629    8    0    1
 -2       773       772       874      3141      3453      3454
 -1      1630    8    0    1
 -2       772       873       874      3451      3455      3453
 -1      1631    8    0    1
 -2       774       773       875      3144      3456      3457
 -1      1632    8    0    1
 -2       773       874       875      3454      3458      3456
 -1      1633    8    0    1
 -2       776       775       825      3151      3459      3343
 -1      1634    8    0    1
 -2       744       730       823      3053      3460      3331
 -1      1635    8    0    1
 -2       777       821       876      3286      3461      3462
 -1      1636    8    0    1
 -2       783       784       877      3171      3463      3464
 -1      1637    8    0    1
 -2       782       783       878      3168      3465      3466
 -1      1638    8    0    1
 -2       783       877       878      3464      3467      3465
 -1      1639    8    0    1
 -2       785       786       879      3177      3468      3469
 -1      1640    8    0    1
 -2       786       787       880      3180      3470      3471
 -1      1641    8    0    1
 -2       786       880       879      3471      3472      3468
 -1      1642    8    0    1
 -2       787       788       881      3183      3473      3474
 -1      1643    8    0    1
 -2       787       881       880      3474      3475      3470
 -1      1644    8    0    1
 -2       788       789       882      3186      3476      3477
 -1      1645    8    0    1
 -2       788       882       881      3477      3478      3473
 -1      1646    8    0    1
 -2       789       790       883      3189      3479      3480
 -1      1647    8    0    1
 -2       789       883       882      3480      3481      3476
 -1      1648    8    0    1
 -2       790       791       884      3192      3482      3483
 -1      1649    8    0    1
 -2       790       884       883      3483      3484      3479
 -1      1650    8    0    1
 -2       791       792       885      3195      3485      3486
 -1      1651    8    0    1
 -2       791       885       884      3486      3487      3482
 -1      1652    8    0    1
 -2       792       793       886      3198      3488      3489
 -1      1653    8    0    1
 -2       792       886       885      3489      3490      3485
 -1      1654    8    0    1
 -2       793       794       887      3201      3491      3492
 -1      1655    8    0    1
 -2       793       887       886      3492      3493      3488
 -1      1656    8    0    1
 -2       794       795       888      3204      3494      3495
 -1      1657    8    0    1
 -2       794       888       887      3495      3496      3491
 -1      1658    8    0    1
 -2       795       796       889      3207      3497      3498
 -1      1659    8    0    1
 -2       795       889       888      3498      3499      3494
 -1      1660    8    0    1
 -2       796       797       890      3210      3500      3501
 -1      1661    8    0    1
 -2       796       890       889      3501      3502      3497
 -1      1662    8    0    1
 -2       797       798       891      3213      3503      3504
 -1      1663    8    0    1
 -2       797       891       890      3504      3505      3500
 -1      1664    8    0    1
 -2       798       799       892      3216      3506      3507
 -1      1665    8    0    1
 -2       798       892       891      3507      3508      3503
 -1      1666    8    0    1
 -2       799       800       893      3219      3509      3510
 -1      1667    8    0    1
 -2       799       893       892      3510      3511      3506
 -1      1668    8    0    1
 -2       800       801       894      3222      3512      3513
 -1      1669    8    0    1
 -2       800       894       893      3513      3514      3509
 -1      1670    8    0    1
 -2       801       802       895      3225      3515      3516
 -1      1671    8    0    1
 -2       801       895       894      3516      3517      3512
 -1      1672    8    0    1
 -2       802       803       896      3228      3518      3519
 -1      1673    8    0    1
 -2       802       896       895      3519      3520      3515
 -1      1674    8    0    1
 -2       803       804       897      3231      3521      3522
 -1      1675    8    0    1
 -2       803       897       896      3522      3523      3518
 -1      1676    8    0    1
 -2       804       805       898      3234      3524      3525
 -1      1677    8    0    1
 -2       804       898       897      3525      3526      3521
 -1      1678    8    0    1
 -2       805       806       899      3237      3527      3528
 -1      1679    8    0    1
 -2       805       899       898      3528      3529      3524
 -1      1680    8    0    1
 -2       806       807       900      3240      3530      3531
 -1      1681    8    0    1
 -2       806       900       899      3531      3532      3527
 -1      1682    8    0    1
 -2       807       808       901      3243      3533      3534
 -1      1683    8    0    1
 -2       807       901       900      3534      3535      3530
 -1      1684    8    0    1
 -2       808       809       830      3246      3536      3537
 -1      1685    8    0    1
 -2       810       811       843      3252      3538      3539
 -1      1686    8    0    1
 -2       811       812       829      3255      3540      3541
 -1      1687    8    0    1
 -2       812       813       829      3258      3542      3540
 -1      1688    8    0    1
 -2       843       811       732      3538      3543      3366
 -1      1689    8    0    1
 -2       714       708       614      3011      3544      2990
 -1      1690    8    0    1
 -2       737       818       902      3273      3545      3546
 -1      1691    8    0    1
 -2       616       816       702      3268      3547      3274
 -1      1692    8    0    1
 -2       822       724       903      3287      3548      3549
 -1      1693    8    0    1
 -2       784       785       904      3174      3550      3551
 -1      1694    8    0    1
 -2       877       784       904      3463      3551      3552
 -1      1695    8    0    1
 -2       785       879       904      3469      3553      3550
 -1      1696    8    0    1
 -2       827       823       905      3354      3554      3555
 -1      1697    8    0    1
 -2       816       612       702      3291      3261      3547
 -1      1698    8    0    1
 -2       739       731       906      3036      3556      3557
 -1      1699    8    0    1
 -2       739       906       841      3557      3558      3360
 -1      1700    8    0    1
 -2       736       741       907      3043      3559      3560
 -1      1701    8    0    1
 -2       741       847       907      3374      3561      3559
 -1      1702    8    0    1
 -2       724       740       903      3038      3562      3548
 -1      1703    8    0    1
 -2       617       822       843      3288      3563      3365
 -1      1704    8    0    1
 -2       826       738       908      3355      3564      3565
 -1      1705    8    0    1
 -2       732       811       829      3543      3541      3309
 -1      1706    8    0    1
 -2       831       736       907      3359      3560      3566
 -1      1707    8    0    1
 -2       745       827       909      3303      3567      3568
 -1      1708    8    0    1
 -2       827       905       909      3555      3569      3567
 -1      1709    8    0    1
 -2       779       778       910      3158      3570      3571
 -1      1710    8    0    1
 -2       831       907       838      3566      3572      3347
 -1      1711    8    0    1
 -2       825       775       911      3459      3573      3574
 -1      1712    8    0    1
 -2       844       825       911      3367      3574      3575
 -1      1713    8    0    1
 -2       775       774       911      3147      3576      3573
 -1      1714    8    0    1
 -2       810       843       822      3539      3563      3577
 -1      1715    8    0    1
 -2       810       822       903      3577      3549      3578
 -1      1716    8    0    1
 -2       911       774       875      3576      3457      3579
 -1      1717    8    0    1
 -2       830       737       902      3315      3546      3580
 -1      1718    8    0    1
 -2       846       745       909      3371      3568      3581
 -1      1719    8    0    1
 -2       845       780       912      3369      3582      3583
 -1      1720    8    0    1
 -2       780       819       912      3277      3584      3582
 -1      1721    8    0    1
 -2       781       845       913      3370      3585      3586
 -1      1722    8    0    1
 -2       781       913       835      3586      3587      3332
 -1      1723    8    0    1
 -2       832       713       835      3321      3334      3588
 -1      1724    8    0    1
 -2       903       740       830      3562      3314      3589
 -1      1725    8    0    1
 -2       701       838       836      3346      3590      3337
 -1      1726    8    0    1
 -2       778       832       914      3320      3591      3592
 -1      1727    8    0    1
 -2       778       914       910      3592      3593      3570
 -1      1728    8    0    1
 -2       905       823       842      3554      3594      3595
 -1      1729    8    0    1
 -2       833       742       915      3322      3596      3597
 -1      1730    8    0    1
 -2       834       779       916      3328      3598      3599
 -1      1731    8    0    1
 -2       779       910       916      3571      3600      3598
 -1      1732    8    0    1
 -2       876       821       844      3461      3368      3601
 -1      1733    8    0    1
 -2       828       814       917      3308      3602      3603
 -1      1734    8    0    1
 -2       782       878       918      3466      3604      3605
 -1      1735    8    0    1
 -2       782       918       819      3605      3606      3278
 -1      1736    8    0    1
 -2       809       810       903      3249      3578      3607
 -1      1737    8    0    1
 -2       837       719       833      3340      3324      3608
 -1      1738    8    0    1
 -2       814       837       919      3339      3609      3610
 -1      1739    8    0    1
 -2       814       919       917      3610      3611      3602
 -1      1740    8    0    1
 -2       839       777       920      3351      3612      3613
 -1      1741    8    0    1
 -2       777       876       920      3462      3614      3612
 -1      1742    8    0    1
 -2       841       906       921      3558      3615      3616
 -1      1743    8    0    1
 -2       842       823       730      3594      3460      3363
 -1      1744    8    0    1
 -2       809       903       830      3607      3589      3536
 -1      1745    8    0    1
 -2       813       836       847      3336      3617      3618
 -1      1746    8    0    1
 -2       840       826       922      3358      3619      3620
 -1      1747    8    0    1
 -2       826       908       922      3565      3621      3619
 -1      1748    8    0    1
 -2       908       738       839      3564      3350      3622
 -1      1749    8    0    1
 -2       842       841       923      3364      3623      3624
 -1      1750    8    0    1
 -2       905       842       923      3595      3624      3625
 -1      1751    8    0    1
 -2       841       921       923      3616      3626      3623
 -1      1752    8    0    1
 -2       731       828       906      3307      3627      3556
 -1      1753    8    0    1
 -2       818       840       900      3357      3628      3629
 -1      1754    8    0    1
 -2       614       708       817      3544      3353      3269
 -1      1755    8    0    1
 -2       915       742       834      3596      3630      3631
 -1      1756    8    0    1
 -2       849       848       924      3380      3632      3633
 -1      1757    8    0    1
 -2       850       849       925      3383      3634      3635
 -1      1758    8    0    1
 -2       849       924       925      3633      3636      3634
 -1      1759    8    0    1
 -2       851       850       926      3386      3637      3638
 -1      1760    8    0    1
 -2       850       925       926      3635      3639      3637
 -1      1761    8    0    1
 -2       852       851       927      3389      3640      3641
 -1      1762    8    0    1
 -2       851       926       927      3638      3642      3640
 -1      1763    8    0    1
 -2       853       852       928      3392      3643      3644
 -1      1764    8    0    1
 -2       852       927       928      3641      3645      3643
 -1      1765    8    0    1
 -2       854       853       929      3395      3646      3647
 -1      1766    8    0    1
 -2       853       928       929      3644      3648      3646
 -1      1767    8    0    1
 -2       855       854       930      3398      3649      3650
 -1      1768    8    0    1
 -2       854       929       930      3647      3651      3649
 -1      1769    8    0    1
 -2       856       855       931      3401      3652      3653
 -1      1770    8    0    1
 -2       855       930       931      3650      3654      3652
 -1      1771    8    0    1
 -2       857       856       932      3404      3655      3656
 -1      1772    8    0    1
 -2       856       931       932      3653      3657      3655
 -1      1773    8    0    1
 -2       858       857       933      3407      3658      3659
 -1      1774    8    0    1
 -2       857       932       933      3656      3660      3658
 -1      1775    8    0    1
 -2       859       858       934      3410      3661      3662
 -1      1776    8    0    1
 -2       858       933       934      3659      3663      3661
 -1      1777    8    0    1
 -2       860       859       935      3413      3664      3665
 -1      1778    8    0    1
 -2       859       934       935      3662      3666      3664
 -1      1779    8    0    1
 -2       861       860       936      3416      3667      3668
 -1      1780    8    0    1
 -2       860       935       936      3665      3669      3667
 -1      1781    8    0    1
 -2       862       861       937      3419      3670      3671
 -1      1782    8    0    1
 -2       861       936       937      3668      3672      3670
 -1      1783    8    0    1
 -2       863       862       938      3422      3673      3674
 -1      1784    8    0    1
 -2       862       937       938      3671      3675      3673
 -1      1785    8    0    1
 -2       864       863       939      3425      3676      3677
 -1      1786    8    0    1
 -2       863       938       939      3674      3678      3676
 -1      1787    8    0    1
 -2       865       864       940      3428      3679      3680
 -1      1788    8    0    1
 -2       864       939       940      3677      3681      3679
 -1      1789    8    0    1
 -2       866       865       941      3431      3682      3683
 -1      1790    8    0    1
 -2       865       940       941      3680      3684      3682
 -1      1791    8    0    1
 -2       867       866       942      3434      3685      3686
 -1      1792    8    0    1
 -2       866       941       942      3683      3687      3685
 -1      1793    8    0    1
 -2       868       867       943      3437      3688      3689
 -1      1794    8    0    1
 -2       867       942       943      3686      3690      3688
 -1      1795    8    0    1
 -2       869       868       944      3440      3691      3692
 -1      1796    8    0    1
 -2       868       943       944      3689      3693      3691
 -1      1797    8    0    1
 -2       870       869       945      3443      3694      3695
 -1      1798    8    0    1
 -2       869       944       945      3692      3696      3694
 -1      1799    8    0    1
 -2       871       870       946      3446      3697      3698
 -1      1800    8    0    1
 -2       870       945       946      3695      3699      3697
 -1      1801    8    0    1
 -2       872       871       947      3449      3700      3701
 -1      1802    8    0    1
 -2       871       946       947      3698      3702      3700
 -1      1803    8    0    1
 -2       873       872       948      3452      3703      3704
 -1      1804    8    0    1
 -2       872       947       948      3701      3705      3703
 -1      1805    8    0    1
 -2       874       873       949      3455      3706      3707
 -1      1806    8    0    1
 -2       873       948       949      3704      3708      3706
 -1      1807    8    0    1
 -2       875       874       950      3458      3709      3710
 -1      1808    8    0    1
 -2       874       949       950      3707      3711      3709
 -1      1809    8    0    1
 -2       878       877       951      3467      3712      3713
 -1      1810    8    0    1
 -2       876       844       952      3601      3714      3715
 -1      1811    8    0    1
 -2       832       835       953      3588      3716      3717
 -1      1812    8    0    1
 -2       835       913       953      3587      3718      3716
 -1      1813    8    0    1
 -2       880       881       954      3475      3719      3720
 -1      1814    8    0    1
 -2       879       880       955      3472      3721      3722
 -1      1815    8    0    1
 -2       880       954       955      3720      3723      3721
 -1      1816    8    0    1
 -2       882       883       956      3481      3724      3725
 -1      1817    8    0    1
 -2       883       884       957      3484      3726      3727
 -1      1818    8    0    1
 -2       883       957       956      3727      3728      3724
 -1      1819    8    0    1
 -2       884       885       958      3487      3729      3730
 -1      1820    8    0    1
 -2       884       958       957      3730      3731      3726
 -1      1821    8    0    1
 -2       885       886       959      3490      3732      3733
 -1      1822    8    0    1
 -2       885       959       958      3733      3734      3729
 -1      1823    8    0    1
 -2       886       887       960      3493      3735      3736
 -1      1824    8    0    1
 -2       886       960       959      3736      3737      3732
 -1      1825    8    0    1
 -2       887       888       961      3496      3738      3739
 -1      1826    8    0    1
 -2       887       961       960      3739      3740      3735
 -1      1827    8    0    1
 -2       888       889       962      3499      3741      3742
 -1      1828    8    0    1
 -2       888       962       961      3742      3743      3738
 -1      1829    8    0    1
 -2       889       890       963      3502      3744      3745
 -1      1830    8    0    1
 -2       889       963       962      3745      3746      3741
 -1      1831    8    0    1
 -2       890       891       964      3505      3747      3748
 -1      1832    8    0    1
 -2       890       964       963      3748      3749      3744
 -1      1833    8    0    1
 -2       891       892       965      3508      3750      3751
 -1      1834    8    0    1
 -2       891       965       964      3751      3752      3747
 -1      1835    8    0    1
 -2       892       893       966      3511      3753      3754
 -1      1836    8    0    1
 -2       892       966       965      3754      3755      3750
 -1      1837    8    0    1
 -2       893       894       967      3514      3756      3757
 -1      1838    8    0    1
 -2       893       967       966      3757      3758      3753
 -1      1839    8    0    1
 -2       894       895       968      3517      3759      3760
 -1      1840    8    0    1
 -2       894       968       967      3760      3761      3756
 -1      1841    8    0    1
 -2       895       896       969      3520      3762      3763
 -1      1842    8    0    1
 -2       895       969       968      3763      3764      3759
 -1      1843    8    0    1
 -2       896       897       970      3523      3765      3766
 -1      1844    8    0    1
 -2       896       970       969      3766      3767      3762
 -1      1845    8    0    1
 -2       897       898       971      3526      3768      3769
 -1      1846    8    0    1
 -2       897       971       970      3769      3770      3765
 -1      1847    8    0    1
 -2       898       899       972      3529      3771      3772
 -1      1848    8    0    1
 -2       898       972       971      3772      3773      3768
 -1      1849    8    0    1
 -2       899       900       840      3532      3628      3774
 -1      1850    8    0    1
 -2       808       830       901      3537      3775      3533
 -1      1851    8    0    1
 -2       813       847       743      3618      3373      3776
 -1      1852    8    0    1
 -2       848       846       973      3377      3777      3778
 -1      1853    8    0    1
 -2       848       973       924      3778      3779      3632
 -1      1854    8    0    1
 -2       742       824       834      3294      3327      3630
 -1      1855    8    0    1
 -2       915       834       916      3631      3599      3780
 -1      1856    8    0    1
 -2       881       882       974      3478      3781      3782
 -1      1857    8    0    1
 -2       882       956       974      3725      3783      3781
 -1      1858    8    0    1
 -2       921       906       975      3615      3784      3785
 -1      1859    8    0    1
 -2       906       828       975      3627      3786      3784
 -1      1860    8    0    1
 -2       846       909       976      3581      3787      3788
 -1      1861    8    0    1
 -2       846       976       973      3788      3789      3777
 -1      1862    8    0    1
 -2       837       833       977      3608      3790      3791
 -1      1863    8    0    1
 -2       919       837       977      3609      3791      3792
 -1      1864    8    0    1
 -2       833       915       977      3597      3793      3790
 -1      1865    8    0    1
 -2       844       911       952      3575      3794      3714
 -1      1866    8    0    1
 -2       847       836       838      3617      3590      3795
 -1      1867    8    0    1
 -2       911       875       952      3579      3796      3794
 -1      1868    8    0    1
 -2       907       847       838      3561      3795      3572
 -1      1869    8    0    1
 -2       909       905       923      3569      3625      3797
 -1      1870    8    0    1
 -2       828       917       975      3603      3798      3786
 -1      1871    8    0    1
 -2       908       839       978      3622      3799      3800
 -1      1872    8    0    1
 -2       901       830       902      3775      3580      3801
 -1      1873    8    0    1
 -2       813       743       829      3776      3311      3542
 -1      1874    8    0    1
 -2       912       819       918      3584      3606      3802
 -1      1875    8    0    1
 -2       913       845       979      3585      3803      3804
 -1      1876    8    0    1
 -2       916       910       980      3600      3805      3806
 -1      1877    8    0    1
 -2       875       950       952      3710      3807      3796
 -1      1878    8    0    1
 -2       914       832       953      3591      3717      3808
 -1      1879    8    0    1
 -2       878       951       981      3713      3809      3810
 -1      1880    8    0    1
 -2       878       981       918      3810      3811      3604
 -1      1881    8    0    1
 -2       951       877       982      3712      3812      3813
 -1      1882    8    0    1
 -2       877       904       982      3552      3814      3812
 -1      1883    8    0    1
 -2       876       952       983      3715      3815      3816
 -1      1884    8    0    1
 -2       876       983       920      3816      3817      3614
 -1      1885    8    0    1
 -2       881       974       954      3782      3818      3719
 -1      1886    8    0    1
 -2       839       920       978      3613      3819      3799
 -1      1887    8    0    1
 -2       910       914       984      3593      3820      3821
 -1      1888    8    0    1
 -2       910       984       980      3821      3822      3805
 -1      1889    8    0    1
 -2       899       840       972      3774      3823      3771
 -1      1890    8    0    1
 -2       900       901       902      3535      3801      3824
 -1      1891    8    0    1
 -2       972       840       922      3823      3620      3825
 -1      1892    8    0    1
 -2       917       919       985      3611      3826      3827
 -1      1893    8    0    1
 -2       904       879       986      3553      3828      3829
 -1      1894    8    0    1
 -2       904       986       982      3829      3830      3814
 -1      1895    8    0    1
 -2       921       975       987      3785      3831      3832
 -1      1896    8    0    1
 -2       908       978       988      3800      3833      3834
 -1      1897    8    0    1
 -2       902       818       900      3545      3629      3824
 -1      1898    8    0    1
 -2       976       909       923      3787      3797      3835
 -1      1899    8    0    1
 -2       923       921       976      3626      3836      3835
 -1      1900    8    0    1
 -2       915       916       980      3780      3806      3837
 -1      1901    8    0    1
 -2       845       912       989      3583      3838      3839
 -1      1902    8    0    1
 -2       845       989       979      3839      3840      3803
 -1      1903    8    0    1
 -2       975       917       990      3798      3841      3842
 -1      1904    8    0    1
 -2       987       975       990      3831      3842      3843
 -1      1905    8    0    1
 -2       917       985       990      3827      3844      3841
 -1      1906    8    0    1
 -2       976       921       987      3836      3832      3845
 -1      1907    8    0    1
 -2       915       980       977      3837      3846      3793
 -1      1908    8    0    1
 -2       986       879       955      3828      3722      3847
 -1      1909    8    0    1
 -2       952       950       983      3807      3848      3815
 -1      1910    8    0    1
 -2       926       925       991      3639      3849      3850
 -1      1911    8    0    1
 -2       927       926       992      3642      3851      3852
 -1      1912    8    0    1
 -2       926       991       992      3850      3853      3851
 -1      1913    8    0    1
 -2       928       927       993      3645      3854      3855
 -1      1914    8    0    1
 -2       927       992       993      3852      3856      3854
 -1      1915    8    0    1
 -2       929       928       994      3648      3857      3858
 -1      1916    8    0    1
 -2       928       993       994      3855      3859      3857
 -1      1917    8    0    1
 -2       930       929       995      3651      3860      3861
 -1      1918    8    0    1
 -2       929       994       995      3858      3862      3860
 -1      1919    8    0    1
 -2       931       930       996      3654      3863      3864
 -1      1920    8    0    1
 -2       930       995       996      3861      3865      3863
 -1      1921    8    0    1
 -2       932       931       997      3657      3866      3867
 -1      1922    8    0    1
 -2       931       996       997      3864      3868      3866
 -1      1923    8    0    1
 -2       933       932       998      3660      3869      3870
 -1      1924    8    0    1
 -2       932       997       998      3867      3871      3869
 -1      1925    8    0    1
 -2       934       933       999      3663      3872      3873
 -1      1926    8    0    1
 -2       933       998       999      3870      3874      3872
 -1      1927    8    0    1
 -2       935       934      1000      3666      3875      3876
 -1      1928    8    0    1
 -2       934       999      1000      3873      3877      3875
 -1      1929    8    0    1
 -2       936       935      1001      3669      3878      3879
 -1      1930    8    0    1
 -2       935      1000      1001      3876      3880      3878
 -1      1931    8    0    1
 -2       937       936      1002      3672      3881      3882
 -1      1932    8    0    1
 -2       936      1001      1002      3879      3883      3881
 -1      1933    8    0    1
 -2       938       937      1003      3675      3884      3885
 -1      1934    8    0    1
 -2       937      1002      1003      3882      3886      3884
 -1      1935    8    0    1
 -2       939       938      1004      3678      3887      3888
 -1      1936    8    0    1
 -2       938      1003      1004      3885      3889      3887
 -1      1937    8    0    1
 -2       940       939      1005      3681      3890      3891
 -1      1938    8    0    1
 -2       939      1004      1005      3888      3892      3890
 -1      1939    8    0    1
 -2       941       940      1006      3684      3893      3894
 -1      1940    8    0    1
 -2       940      1005      1006      3891      3895      3893
 -1      1941    8    0    1
 -2       942       941      1007      3687      3896      3897
 -1      1942    8    0    1
 -2       941      1006      1007      3894      3898      3896
 -1      1943    8    0    1
 -2       943       942      1008      3690      3899      3900
 -1      1944    8    0    1
 -2       942      1007      1008      3897      3901      3899
 -1      1945    8    0    1
 -2       944       943      1009      3693      3902      3903
 -1      1946    8    0    1
 -2       943      1008      1009      3900      3904      3902
 -1      1947    8    0    1
 -2       945       944      1010      3696      3905      3906
 -1      1948    8    0    1
 -2       944      1009      1010      3903      3907      3905
 -1      1949    8    0    1
 -2       946       945      1011      3699      3908      3909
 -1      1950    8    0    1
 -2       945      1010      1011      3906      3910      3908
 -1      1951    8    0    1
 -2       947       946      1012      3702      3911      3912
 -1      1952    8    0    1
 -2       946      1011      1012      3909      3913      3911
 -1      1953    8    0    1
 -2       948       947      1013      3705      3914      3915
 -1      1954    8    0    1
 -2       947      1012      1013      3912      3916      3914
 -1      1955    8    0    1
 -2       949       948      1014      3708      3917      3918
 -1      1956    8    0    1
 -2       948      1013      1014      3915      3919      3917
 -1      1957    8    0    1
 -2       950       949      1015      3711      3920      3921
 -1      1958    8    0    1
 -2       949      1014      1015      3918      3922      3920
 -1      1959    8    0    1
 -2       978       920      1016      3819      3923      3924
 -1      1960    8    0    1
 -2       913       979      1017      3804      3925      3926
 -1      1961    8    0    1
 -2       913      1017       953      3926      3927      3718
 -1      1962    8    0    1
 -2       957       958      1018      3731      3928      3929
 -1      1963    8    0    1
 -2       956       957      1019      3728      3930      3931
 -1      1964    8    0    1
 -2       957      1018      1019      3929      3932      3930
 -1      1965    8    0    1
 -2       959       960      1020      3737      3933      3934
 -1      1966    8    0    1
 -2       960       961      1021      3740      3935      3936
 -1      1967    8    0    1
 -2       960      1021      1020      3936      3937      3933
 -1      1968    8    0    1
 -2       961       962      1022      3743      3938      3939
 -1      1969    8    0    1
 -2       961      1022      1021      3939      3940      3935
 -1      1970    8    0    1
 -2       962       963      1023      3746      3941      3942
 -1      1971    8    0    1
 -2       962      1023      1022      3942      3943      3938
 -1      1972    8    0    1
 -2       963       964      1024      3749      3944      3945
 -1      1973    8    0    1
 -2       963      1024      1023      3945      3946      3941
 -1      1974    8    0    1
 -2       964       965      1025      3752      3947      3948
 -1      1975    8    0    1
 -2       964      1025      1024      3948      3949      3944
 -1      1976    8    0    1
 -2       965       966      1026      3755      3950      3951
 -1      1977    8    0    1
 -2       965      1026      1025      3951      3952      3947
 -1      1978    8    0    1
 -2       966       967      1027      3758      3953      3954
 -1      1979    8    0    1
 -2       966      1027      1026      3954      3955      3950
 -1      1980    8    0    1
 -2       967       968      1028      3761      3956      3957
 -1      1981    8    0    1
 -2       967      1028      1027      3957      3958      3953
 -1      1982    8    0    1
 -2       968       969      1029      3764      3959      3960
 -1      1983    8    0    1
 -2       968      1029      1028      3960      3961      3956
 -1      1984    8    0    1
 -2       969       970      1030      3767      3962      3963
 -1      1985    8    0    1
 -2       969      1030      1029      3963      3964      3959
 -1      1986    8    0    1
 -2       971       972       988      3773      3965      3966
 -1      1987    8    0    1
 -2       988       978      1031      3833      3967      3968
 -1      1988    8    0    1
 -2       978      1016      1031      3924      3969      3967
 -1      1989    8    0    1
 -2       919       977      1032      3792      3970      3971
 -1      1990    8    0    1
 -2       985       919      1032      3826      3971      3972
 -1      1991    8    0    1
 -2       977       980      1032      3846      3973      3970
 -1      1992    8    0    1
 -2       912       918      1033      3802      3974      3975
 -1      1993    8    0    1
 -2       989       912      1033      3838      3975      3976
 -1      1994    8    0    1
 -2       918       981      1033      3811      3977      3974
 -1      1995    8    0    1
 -2       954       974      1034      3818      3978      3979
 -1      1996    8    0    1
 -2       908       988       922      3834      3980      3621
 -1      1997    8    0    1
 -2       974       956      1035      3783      3981      3982
 -1      1998    8    0    1
 -2       974      1035      1034      3982      3983      3978
 -1      1999    8    0    1
 -2       973       976      1036      3789      3984      3985
 -1      2000    8    0    1
 -2       976       987      1036      3845      3986      3984
 -1      2001    8    0    1
 -2       986       955      1037      3847      3987      3988
 -1      2002    8    0    1
 -2       924       973      1038      3779      3989      3990
 -1      2003    8    0    1
 -2       973      1036      1038      3985      3991      3989
 -1      2004    8    0    1
 -2       914       953      1039      3808      3992      3993
 -1      2005    8    0    1
 -2       953      1017      1039      3927      3994      3992
 -1      2006    8    0    1
 -2       955       954      1040      3723      3995      3996
 -1      2007    8    0    1
 -2       954      1034      1040      3979      3997      3995
 -1      2008    8    0    1
 -2       958       959      1041      3734      3998      3999
 -1      2009    8    0    1
 -2       958      1041      1018      3999      4000      3928
 -1      2010    8    0    1
 -2       972       922       988      3825      3980      3965
 -1      2011    8    0    1
 -2       925       924      1042      3636      4001      4002
 -1      2012    8    0    1
 -2       991       925      1042      3849      4002      4003
 -1      2013    8    0    1
 -2       924      1038      1042      3990      4004      4001
 -1      2014    8    0    1
 -2       971       988      1043      3966      4005      4006
 -1      2015    8    0    1
 -2       970       971      1043      3770      4006      4007
 -1      2016    8    0    1
 -2       988      1031      1043      3968      4008      4005
 -1      2017    8    0    1
 -2       987       990      1036      3843      4009      3986
 -1      2018    8    0    1
 -2       979       989      1044      3840      4010      4011
 -1      2019    8    0    1
 -2       981       951      1045      3809      4012      4013
 -1      2020    8    0    1
 -2       985      1032      1046      3972      4014      4015
 -1      2021    8    0    1
 -2      1016       920       983      3923      3817      4016
 -1      2022    8    0    1
 -2       950      1015       983      3921      4017      3848
 -1      2023    8    0    1
 -2       951       982      1047      3813      4018      4019
 -1      2024    8    0    1
 -2       951      1047      1045      4019      4020      4012
 -1      2025    8    0    1
 -2       984       914      1039      3820      3993      4021
 -1      2026    8    0    1
 -2       955      1040      1037      3996      4022      3987
 -1      2027    8    0    1
 -2       956      1019      1035      3931      4023      3981
 -1      2028    8    0    1
 -2      1030       970      1043      3962      4007      4024
 -1      2029    8    0    1
 -2      1032       980      1048      3973      4025      4026
 -1      2030    8    0    1
 -2      1046      1032      1048      4014      4026      4027
 -1      2031    8    0    1
 -2       980       984      1048      3822      4028      4025
 -1      2032    8    0    1
 -2      1017       979      1049      3925      4029      4030
 -1      2033    8    0    1
 -2       979      1044      1049      4011      4031      4029
 -1      2034    8    0    1
 -2       982       986      1050      3830      4032      4033
 -1      2035    8    0    1
 -2       982      1050      1047      4033      4034      4018
 -1      2036    8    0    1
 -2       986      1037      1050      3988      4035      4032
 -1      2037    8    0    1
 -2      1041       959      1020      3998      3934      4036
 -1      2038    8    0    1
 -2       990       985      1051      3844      4037      4038
 -1      2039    8    0    1
 -2       985      1046      1051      4015      4039      4037
 -1      2040    8    0    1
 -2      1044       989      1052      4010      4040      4041
 -1      2041    8    0    1
 -2       989      1033      1052      3976      4042      4040
 -1      2042    8    0    1
 -2       981      1045      1053      4013      4043      4044
 -1      2043    8    0    1
 -2       981      1053      1033      4044      4045      3977
 -1      2044    8    0    1
 -2      1043      1031      1054      4008      4046      4047
 -1      2045    8    0    1
 -2      1043      1054      1030      4047      4048      4024
 -1      2046    8    0    1
 -2      1016       983      1015      4016      4017      4049
 -1      2047    8    0    1
 -2       993       992      1055      3856      4050      4051
 -1      2048    8    0    1
 -2       994       993      1056      3859      4052      4053
 -1      2049    8    0    1
 -2       993      1055      1056      4051      4054      4052
 -1      2050    8    0    1
 -2       995       994      1057      3862      4055      4056
 -1      2051    8    0    1
 -2       994      1056      1057      4053      4057      4055
 -1      2052    8    0    1
 -2       996       995      1058      3865      4058      4059
 -1      2053    8    0    1
 -2       995      1057      1058      4056      4060      4058
 -1      2054    8    0    1
 -2       997       996      1059      3868      4061      4062
 -1      2055    8    0    1
 -2       996      1058      1059      4059      4063      4061
 -1      2056    8    0    1
 -2       998       997      1060      3871      4064      4065
 -1      2057    8    0    1
 -2       997      1059      1060      4062      4066      4064
 -1      2058    8    0    1
 -2       999       998      1061      3874      4067      4068
 -1      2059    8    0    1
 -2       998      1060      1061      4065      4069      4067
 -1      2060    8    0    1
 -2      1000       999      1062      3877      4070      4071
 -1      2061    8    0    1
 -2       999      1061      1062      4068      4072      4070
 -1      2062    8    0    1
 -2      1001      1000      1063      3880      4073      4074
 -1      2063    8    0    1
 -2      1000      1062      1063      4071      4075      4073
 -1      2064    8    0    1
 -2      1002      1001      1064      3883      4076      4077
 -1      2065    8    0    1
 -2      1001      1063      1064      4074      4078      4076
 -1      2066    8    0    1
 -2      1003      1002      1065      3886      4079      4080
 -1      2067    8    0    1
 -2      1002      1064      1065      4077      4081      4079
 -1      2068    8    0    1
 -2      1004      1003      1066      3889      4082      4083
 -1      2069    8    0    1
 -2      1003      1065      1066      4080      4084      4082
 -1      2070    8    0    1
 -2      1005      1004      1067      3892      4085      4086
 -1      2071    8    0    1
 -2      1004      1066      1067      4083      4087      4085
 -1      2072    8    0    1
 -2      1006      1005      1068      3895      4088      4089
 -1      2073    8    0    1
 -2      1005      1067      1068      4086      4090      4088
 -1      2074    8    0    1
 -2      1007      1006      1069      3898      4091      4092
 -1      2075    8    0    1
 -2      1006      1068      1069      4089      4093      4091
 -1      2076    8    0    1
 -2      1008      1007      1070      3901      4094      4095
 -1      2077    8    0    1
 -2      1007      1069      1070      4092      4096      4094
 -1      2078    8    0    1
 -2      1009      1008      1071      3904      4097      4098
 -1      2079    8    0    1
 -2      1008      1070      1071      4095      4099      4097
 -1      2080    8    0    1
 -2      1010      1009      1072      3907      4100      4101
 -1      2081    8    0    1
 -2      1009      1071      1072      4098      4102      4100
 -1      2082    8    0    1
 -2      1011      1010      1073      3910      4103      4104
 -1      2083    8    0    1
 -2      1010      1072      1073      4101      4105      4103
 -1      2084    8    0    1
 -2      1012      1011      1074      3913      4106      4107
 -1      2085    8    0    1
 -2      1011      1073      1074      4104      4108      4106
 -1      2086    8    0    1
 -2      1013      1012      1075      3916      4109      4110
 -1      2087    8    0    1
 -2      1012      1074      1075      4107      4111      4109
 -1      2088    8    0    1
 -2      1014      1013      1076      3919      4112      4113
 -1      2089    8    0    1
 -2      1013      1075      1076      4110      4114      4112
 -1      2090    8    0    1
 -2      1015      1014      1077      3922      4115      4116
 -1      2091    8    0    1
 -2      1014      1076      1077      4113      4117      4115
 -1      2092    8    0    1
 -2      1050      1037      1078      4035      4118      4119
 -1      2093    8    0    1
 -2      1018      1041      1079      4000      4120      4121
 -1      2094    8    0    1
 -2      1021      1022      1080      3940      4122      4123
 -1      2095    8    0    1
 -2      1020      1021      1081      3937      4124      4125
 -1      2096    8    0    1
 -2      1021      1080      1081      4123      4126      4124
 -1      2097    8    0    1
 -2      1023      1024      1082      3946      4127      4128
 -1      2098    8    0    1
 -2      1024      1025      1083      3949      4129      4130
 -1      2099    8    0    1
 -2      1024      1083      1082      4130      4131      4127
 -1      2100    8    0    1
 -2      1025      1026      1084      3952      4132      4133
 -1      2101    8    0    1
 -2      1025      1084      1083      4133      4134      4129
 -1      2102    8    0    1
 -2      1026      1027      1085      3955      4135      4136
 -1      2103    8    0    1
 -2      1026      1085      1084      4136      4137      4132
 -1      2104    8    0    1
 -2      1027      1028      1086      3958      4138      4139
 -1      2105    8    0    1
 -2      1027      1086      1085      4139      4140      4135
 -1      2106    8    0    1
 -2      1028      1029      1087      3961      4141      4142
 -1      2107    8    0    1
 -2      1028      1087      1086      4142      4143      4138
 -1      2108    8    0    1
 -2      1029      1030      1088      3964      4144      4145
 -1      2109    8    0    1
 -2      1087      1029      1088      4141      4145      4146
 -1      2110    8    0    1
 -2      1030      1054      1088      4048      4147      4144
 -1      2111    8    0    1
 -2       984      1039      1089      4021      4148      4149
 -1      2112    8    0    1
 -2       984      1089      1048      4149      4150      4028
 -1      2113    8    0    1
 -2      1036       990      1051      4009      4038      4151
 -1      2114    8    0    1
 -2      1041      1020      1090      4036      4152      4153
 -1      2115    8    0    1
 -2      1041      1090      1079      4153      4154      4120
 -1      2116    8    0    1
 -2       992       991      1091      3853      4155      4156
 -1      2117    8    0    1
 -2       992      1091      1055      4156      4157      4050
 -1      2118    8    0    1
 -2      1038      1036      1092      3991      4158      4159
 -1      2119    8    0    1
 -2      1036      1051      1092      4151      4160      4158
 -1      2120    8    0    1
 -2      1022      1023      1093      3943      4161      4162
 -1      2121    8    0    1
 -2      1023      1082      1093      4128      4163      4161
 -1      2122    8    0    1
 -2      1016      1015      1077      4049      4116      4164
 -1      2123    8    0    1
 -2      1035      1019      1094      4023      4165      4166
 -1      2124    8    0    1
 -2      1034      1035      1095      3983      4167      4168
 -1      2125    8    0    1
 -2      1035      1094      1095      4166      4169      4167
 -1      2126    8    0    1
 -2      1039      1017      1096      3994      4170      4171
 -1      2127    8    0    1
 -2      1089      1039      1096      4148      4171      4172
 -1      2128    8    0    1
 -2      1017      1049      1096      4030      4173      4170
 -1      2129    8    0    1
 -2      1040      1034      1097      3997      4174      4175
 -1      2130    8    0    1
 -2      1034      1095      1097      4168      4176      4174
 -1      2131    8    0    1
 -2      1037      1040      1098      4022      4177      4178
 -1      2132    8    0    1
 -2      1078      1037      1098      4118      4178      4179
 -1      2133    8    0    1
 -2      1040      1097      1098      4175      4180      4177
 -1      2134    8    0    1
 -2      1031      1016      1077      3969      4164      4181
 -1      2135    8    0    1
 -2      1019      1018      1099      3932      4182      4183
 -1      2136    8    0    1
 -2      1019      1099      1094      4183      4184      4165
 -1      2137    8    0    1
 -2      1053      1045      1100      4043      4185      4186
 -1      2138    8    0    1
 -2      1044      1052      1101      4041      4187      4188
 -1      2139    8    0    1
 -2      1038      1092      1102      4159      4189      4190
 -1      2140    8    0    1
 -2      1038      1102      1042      4190      4191      4004
 -1      2141    8    0    1
 -2      1050      1078      1103      4119      4192      4193
 -1      2142    8    0    1
 -2      1050      1103      1047      4193      4194      4034
 -1      2143    8    0    1
 -2      1018      1079      1099      4121      4195      4182
 -1      2144    8    0    1
 -2      1045      1047      1104      4020      4196      4197
 -1      2145    8    0    1
 -2      1047      1103      1104      4194      4198      4196
 -1      2146    8    0    1
 -2      1020      1081      1090      4125      4199      4152
 -1      2147    8    0    1
 -2      1049      1044      1105      4031      4200      4201
 -1      2148    8    0    1
 -2      1044      1101      1105      4188      4202      4200
 -1      2149    8    0    1
 -2      1022      1093      1080      4162      4203      4122
 -1      2150    8    0    1
 -2       991      1042      1106      4003      4204      4205
 -1      2151    8    0    1
 -2      1091       991      1106      4155      4205      4206
 -1      2152    8    0    1
 -2      1042      1102      1106      4191      4207      4204
 -1      2153    8    0    1
 -2      1046      1048      1107      4027      4208      4209
 -1      2154    8    0    1
 -2      1048      1089      1107      4150      4210      4208
 -1      2155    8    0    1
 -2      1051      1046      1107      4039      4209      4211
 -1      2156    8    0    1
 -2      1045      1104      1100      4197      4212      4185
 -1      2157    8    0    1
 -2      1080      1093      1069      4203      4213      4214
 -1      2158    8    0    1
 -2      1056      1055      1108      4054      4215      4216
 -1      2159    8    0    1
 -2      1100      1104      1057      4212      4217      4218
 -1      2160    8    0    1
 -2      1033      1053      1052      4045      4219      4042
 -1      2161    8    0    1
 -2      1057      1056      1100      4057      4220      4218
 -1      2162    8    0    1
 -2      1058      1057      1104      4060      4217      4221
 -1      2163    8    0    1
 -2      1059      1058      1103      4063      4222      4223
 -1      2164    8    0    1
 -2      1060      1059      1078      4066      4224      4225
 -1      2165    8    0    1
 -2      1061      1060      1098      4069      4226      4227
 -1      2166    8    0    1
 -2      1062      1061      1097      4072      4228      4229
 -1      2167    8    0    1
 -2      1063      1062      1095      4075      4230      4231
 -1      2168    8    0    1
 -2      1064      1063      1094      4078      4232      4233
 -1      2169    8    0    1
 -2      1065      1064      1099      4081      4234      4235
 -1      2170    8    0    1
 -2      1066      1065      1079      4084      4236      4237
 -1      2171    8    0    1
 -2      1067      1066      1090      4087      4238      4239
 -1      2172    8    0    1
 -2      1068      1067      1081      4090      4240      4241
 -1      2173    8    0    1
 -2      1069      1068      1080      4093      4242      4214
 -1      2174    8    0    1
 -2      1070      1069      1093      4096      4213      4243
 -1      2175    8    0    1
 -2      1071      1070      1082      4099      4244      4245
 -1      2176    8    0    1
 -2      1072      1071      1083      4102      4246      4247
 -1      2177    8    0    1
 -2      1073      1072      1084      4105      4248      4249
 -1      2178    8    0    1
 -2      1074      1073      1085      4108      4250      4251
 -1      2179    8    0    1
 -2      1075      1074      1086      4111      4252      4253
 -1      2180    8    0    1
 -2      1076      1075      1087      4114      4254      4255
 -1      2181    8    0    1
 -2      1077      1076      1088      4117      4256      4257
 -1      2182    8    0    1
 -2      1101      1052      1108      4187      4258      4259
 -1      2183    8    0    1
 -2      1087      1075      1086      4254      4253      4143
 -1      2184    8    0    1
 -2      1086      1074      1085      4252      4251      4140
 -1      2185    8    0    1
 -2      1085      1073      1084      4250      4249      4137
 -1      2186    8    0    1
 -2      1094      1099      1064      4184      4234      4233
 -1      2187    8    0    1
 -2      1084      1072      1083      4248      4247      4134
 -1      2188    8    0    1
 -2      1094      1063      1095      4232      4231      4169
 -1      2189    8    0    1
 -2      1082      1083      1071      4131      4246      4245
 -1      2190    8    0    1
 -2      1097      1095      1062      4176      4230      4229
 -1      2191    8    0    1
 -2      1081      1067      1090      4240      4239      4199
 -1      2192    8    0    1
 -2      1097      1061      1098      4228      4227      4180
 -1      2193    8    0    1
 -2      1090      1066      1079      4238      4237      4154
 -1      2194    8    0    1
 -2      1081      1080      1068      4126      4242      4241
 -1      2195    8    0    1
 -2      1107      1089      1109      4210      4260      4261
 -1      2196    8    0    1
 -2      1089      1096      1109      4172      4262      4260
 -1      2197    8    0    1
 -2      1092      1051      1107      4160      4211      4263
 -1      2198    8    0    1
 -2      1093      1082      1070      4163      4244      4243
 -1      2199    8    0    1
 -2      1099      1079      1065      4195      4236      4235
 -1      2200    8    0    1
 -2      1092      1107      1109      4263      4261      4264
 -1      2201    8    0    1
 -2      1055      1091      1110      4157      4265      4266
 -1      2202    8    0    1
 -2      1108      1055      1110      4215      4266      4267
 -1      2203    8    0    1
 -2      1091      1106      1110      4206      4268      4265
 -1      2204    8    0    1
 -2      1100      1056      1108      4220      4216      4269
 -1      2205    8    0    1
 -2      1058      1104      1103      4221      4198      4222
 -1      2206    8    0    1
 -2      1052      1053      1108      4219      4270      4258
 -1      2207    8    0    1
 -2      1078      1059      1103      4224      4223      4192
 -1      2208    8    0    1
 -2      1060      1078      1098      4225      4179      4226
 -1      2209    8    0    1
 -2      1076      1087      1088      4255      4146      4256
 -1      2210    8    0    1
 -2      1054      1031      1077      4046      4181      4271
 -1      2211    8    0    1
 -2      1108      1053      1100      4270      4186      4269
 -1      2212    8    0    1
 -2      1092      1109      1102      4264      4272      4189
 -1      2213    8    0    1
 -2      1077      1088      1054      4257      4147      4271
 -1      2214    8    0    1
 -2      1101      1108      1110      4259      4267      4273
 -1      2215    8    0    1
 -2      1105      1101      1110      4202      4273      4274
 -1      2216    8    0    1
 -2      1096      1049      1111      4173      4275      4276
 -1      2217    8    0    1
 -2      1109      1096      1111      4262      4276      4277
 -1      2218    8    0    1
 -2      1049      1105      1111      4201      4278      4275
 -1      2219    8    0    1
 -2      1105      1110      1106      4274      4268      4279
 -1      2220    8    0    1
 -2      1106      1102      1111      4207      4280      4281
 -1      2221    8    0    1
 -2      1105      1106      1111      4279      4281      4278
 -1      2222    8    0    1
 -2      1102      1109      1111      4272      4277      4280
 -3
    1PSTEP                         1           1           1          
  100CL  101 1.000000000        4281                     0    1           1
 -4  DISP        4    1
 -5  D1          1    2    1    0
 -5  D2          1    2    2    0
 -5  D3          1    2    3    0
 -5  ALL         1    2    0    0    1ALL
 -1         1 1.18905E-02-1.27369E-03-8.26847E-14
 -1         2 1.49825E-02-4.18293E-04-9.32491E-14
 -1         3 1.41801E-02-1.39144E-04-1.14832E-13
 -1         4 1.48306E-02-5.94023E-04-1.13337E-13
 -1         5 0.00000E+00 0.00000E+00 0.00000E+00
 -1         6 0.00000E+00 0.00000E+00 0.00000E+00
 -1         7 0.00000E+00 0.00000E+00 0.00000E+00
 -1         8 0.00000E+00 0.00000E+00 0.00000E+00
 -1         9 0.00000E+00 0.00000E+00 0.00000E+00
 -1        10 0.00000E+00 0.00000E+00 0.00000E+00
 -1        11 0.00000E+00 0.00000E+00 0.00000E+00
 -1        12 0.00000E+00 0.00000E+00 0.00000E+00
 -1        13 0.00000E+00 0.00000E+00 0.00000E+00
 -1        14 0.00000E+00 0.00000E+00 0.00000E+00
 -1        15 0.00000E+00 0.00000E+00 0.00000E+00
 -1        16 0.00000E+00 0.00000E+00 0.00000E+00
 -1        17 0.00000E+00 0.00000E+00 0.00000E+00
 -1        18 0.00000E+00 0.00000E+00 0.00000E+00
 -1        19 0.00000E+00 0.00000E+00 0.00000E+00
 -1        20 0.00000E+00 0.00000E+00 0.00000E+00
 -1        21 0.00000E+00 0.00000E+00 0.00000E+00
 -1        22 0.00000E+00 0.00000E+00 0.00000E+00
 -1        23 4.11416E-04-2.60742E-04 4.93922E-17
 -1        24 7.03438E-04-4.00994E-04-2.90871E-17
 -1        25 9.73548E-04-4.98383E-04-2.34435E-16
 -1        26 1.23809E-03-5.67145E-04-5.66269E-16
 -1        27 1.50167E-03-6.16430E-04-1.02280E-15
 -1        28 1.76640E-03-6.51625E-04-1.60052E-15
 -1        29 2.03321E-03-6.76441E-04-2.29992E-15
 -1        30 2.30249E-03-6.93579E-04-3.12007E-15
 -1        31 2.57427E-03-7.05062E-04-4.05845E-15
 -1        32 2.84842E-03-7.12421E-04-5.11572E-15
 -1        33 3.12470E-03-7.16813E-04-6.28771E-15
 -1        34 3.40284E-03-7.19104E-04-7.56562E-15
 -1        35 3.68253E-03-7.19930E-04-8.94979E-15
 -1        36 3.96351E-03-7.19747E-04-1.04338E-14
 -1        37 4.24553E-03-7.18867E-04-1.20141E-14
 -1        38 4.52838E-03-7.17493E-04-1.36993E-14
 -1        39 4.81187E-03-7.15740E-04-1.54805E-14
 -1        40 5.09589E-03-7.13656E-04-1.73575E-14
 -1        41 5.38036E-03-7.11235E-04-1.93219E-14
 -1        42 5.66523E-03-7.08434E-04-2.13663E-14
 -1        43 5.95055E-03-7.05181E-04-2.34996E-14
 -1        44 6.23641E-03-7.01390E-04-2.57166E-14
 -1        45 6.52298E-03-6.96970E-04-2.80188E-14
 -1        46 6.81053E-03-6.91843E-04-3.04072E-14
 -1        47 7.09945E-03-6.85968E-04-3.28795E-14
 -1        48 7.39030E-03-6.79371E-04-3.54307E-14
 -1        49 7.68378E-03-6.72195E-04-3.80597E-14
 -1        50 7.98087E-03-6.64765E-04-4.07682E-14
 -1        51 8.28280E-03-6.57687E-04-4.35492E-14
 -1        52 8.59112E-03-6.51995E-04-4.64041E-14
 -1        53 8.90773E-03-6.49346E-04-4.93240E-14
 -1        54 9.23482E-03-6.52293E-04-5.23035E-14
 -1        55 9.57473E-03-6.64621E-04-5.53434E-14
 -1        56 9.92949E-03-6.91685E-04-5.84355E-14
 -1        57 1.02999E-02-7.40556E-04-6.15676E-14
 -1        58 1.06842E-02-8.19540E-04-6.47471E-14
 -1        59 1.10758E-02-9.36260E-04-6.79736E-14
 -1        60 1.14614E-02-1.09336E-03-7.12298E-14
 -1        61 1.18219E-02-1.28177E-03-7.45104E-14
 -1        62 1.21381E-02-1.47468E-03-7.78250E-14
 -1        63 1.24026E-02-1.62949E-03-8.11973E-14
 -1        64 1.26288E-02-1.70392E-03-8.46160E-14
 -1        65 1.28475E-02-1.67933E-03-8.80962E-14
 -1        66 1.30885E-02-1.57121E-03-9.16263E-14
 -1        67 1.33632E-02-1.41623E-03-9.52149E-14
 -1        68 1.36631E-02-1.24858E-03-9.88391E-14
 -1        69 1.39705E-02-1.08518E-03-1.02482E-13
 -1        70 1.42708E-02-9.25442E-04-1.06125E-13
 -1        71 1.45601E-02-7.60402E-04-1.09807E-13
 -1        72 4.13859E-04 2.61447E-04 3.98410E-17
 -1        73 7.03258E-04 4.03697E-04-5.83267E-17
 -1        74 9.74083E-04 5.00152E-04-2.88920E-16
 -1        75 1.23891E-03 5.68856E-04-6.50670E-16
 -1        76 1.50263E-03 6.18190E-04-1.14209E-15
 -1        77 1.76742E-03 6.53475E-04-1.75927E-15
 -1        78 2.03427E-03 6.78402E-04-2.50060E-15
 -1        79 2.30357E-03 6.95661E-04-3.36172E-15
 -1        80 2.57537E-03 7.07271E-04-4.34219E-15
 -1        81 2.84953E-03 7.14761E-04-5.44174E-15
 -1        82 3.12582E-03 7.19285E-04-6.65672E-15
 -1        83 3.40396E-03 7.21709E-04-7.98103E-15
 -1        84 3.68366E-03 7.22669E-04-9.41297E-15
 -1        85 3.96465E-03 7.22619E-04-1.09494E-14
 -1        86 4.24667E-03 7.21873E-04-1.25882E-14
 -1        87 4.52953E-03 7.20636E-04-1.43271E-14
 -1        88 4.81304E-03 7.19022E-04-1.61593E-14
 -1        89 5.09709E-03 7.17084E-04-1.80842E-14
 -1        90 5.38158E-03 7.14823E-04-2.00991E-14
 -1        91 5.66651E-03 7.12203E-04-2.21898E-14
 -1        92 5.95189E-03 7.09170E-04-2.43583E-14
 -1        93 6.23782E-03 7.05658E-04-2.65981E-14
 -1        94 6.52448E-03 7.01613E-04-2.89225E-14
 -1        95 6.81210E-03 6.97007E-04-3.13291E-14
 -1        96 7.10104E-03 6.91872E-04-3.38197E-14
 -1        97 7.39176E-03 6.86332E-04-3.63958E-14
 -1        98 7.68482E-03 6.80648E-04-3.90517E-14
 -1        99 7.98090E-03 6.75283E-04-4.17696E-14
 -1       100 8.28074E-03 6.70966E-04-4.45683E-14
 -1       101 8.58515E-03 6.68771E-04-4.74530E-14
 -1       102 8.89480E-03 6.70183E-04-5.04014E-14
 -1       103 9.21015E-03 6.77133E-04-5.34059E-14
 -1       104 9.53110E-03 6.91948E-04-5.64586E-14
 -1       105 9.85667E-03 7.17134E-04-5.95768E-14
 -1       106 1.01846E-02 7.54907E-04-6.27673E-14
 -1       107 1.05109E-02 8.06351E-04-6.60264E-14
 -1       108 1.08299E-02 8.70224E-04-6.93445E-14
 -1       109 1.11351E-02 9.41635E-04-7.27111E-14
 -1       110 1.14202E-02 1.01120E-03-7.61164E-14
 -1       111 1.16819E-02 1.06560E-03-7.95435E-14
 -1       112 1.19217E-02 1.09010E-03-8.29979E-14
 -1       113 1.21466E-02 1.07283E-03-8.64733E-14
 -1       114 1.23671E-02 1.00867E-03-8.99635E-14
 -1       115 1.25934E-02 9.00665E-04-9.34739E-14
 -1       116 1.28324E-02 7.57995E-04-9.70110E-14
 -1       117 1.30857E-02 5.91916E-04-1.00584E-13
 -1       118 1.33516E-02 4.12188E-04-1.04182E-13
 -1       119 1.36269E-02 2.25766E-04-1.07790E-13
 -1       120 1.39090E-02 3.76620E-05-1.11405E-13
 -1       121 1.43615E-02-2.23776E-04-1.14742E-13
 -1       122 1.45417E-02-3.11931E-04-1.14666E-13
 -1       123 1.47271E-02-4.04668E-04-1.14564E-13
 -1       124 1.49250E-02-4.97378E-04-1.14462E-13
 -1       125 1.51390E-02-5.80024E-04-1.14368E-13
 -1       126 1.53607E-02-6.37931E-04-1.14292E-13
 -1       127 1.55823E-02-6.59141E-04-1.14217E-13
 -1       128 1.57734E-02-6.34234E-04-1.14140E-13
 -1       129 1.59020E-02-5.67715E-04-1.14048E-13
 -1       130 1.59434E-02-4.78917E-04-1.13960E-13
 -1       131 1.58912E-02-3.95909E-04-1.13870E-13
 -1       132 1.57637E-02-3.44321E-04-1.13789E-13
 -1       133 1.55849E-02-3.34771E-04-1.13712E-13
 -1       134 1.53862E-02-3.66932E-04-1.13638E-13
 -1       135 1.51889E-02-4.30462E-04-1.13563E-13
 -1       136 1.50028E-02-5.10242E-04-1.13457E-13
 -1       137 1.49095E-02-2.02090E-04-9.31236E-14
 -1       138 1.46943E-02 1.99015E-05-9.25602E-14
 -1       139 1.43834E-02 2.08227E-04-9.16730E-14
 -1       140 1.39900E-02 3.66847E-04-9.04866E-14
 -1       141 1.35058E-02 4.96547E-04-8.89497E-14
 -1       142 1.29647E-02 5.83027E-04-8.71529E-14
 -1       143 1.24556E-02 6.14439E-04-8.54359E-14
 -1       144 1.19030E-02 5.95848E-04-8.35200E-14
 -1       145 1.14632E-02 5.38292E-04-8.19699E-14
 -1       146 1.10311E-02 4.32337E-04-8.04030E-14
 -1       147 1.06927E-02 2.99185E-04-7.91568E-14
 -1       148 1.04443E-02 1.43364E-04-7.82126E-14
 -1       149 1.02768E-02-4.50550E-05-7.75373E-14
 -1       150 1.02234E-02-2.34384E-04-7.72776E-14
 -1       151 1.02756E-02-4.38967E-04-7.73815E-14
 -1       152 1.04200E-02-6.28234E-04-7.78195E-14
 -1       153 1.06644E-02-8.19531E-04-7.86075E-14
 -1       154 1.09811E-02-9.90124E-04-7.96485E-14
 -1       155 1.14071E-02-1.15206E-03-8.10658E-14
 -1       156 1.23577E-02-1.34020E-03-8.42481E-14
 -1       157 1.28719E-02-1.36060E-03-8.59865E-14
 -1       158 1.33368E-02-1.33125E-03-8.75540E-14
 -1       159 1.37854E-02-1.25568E-03-8.90652E-14
 -1       160 1.41886E-02-1.13937E-03-9.04251E-14
 -1       161 1.45157E-02-9.95312E-04-9.15332E-14
 -1       162 1.47770E-02-8.16245E-04-9.24271E-14
 -1       163 1.49387E-02-6.15585E-04-9.30185E-14
 -1       164 2.40424E-04-1.25509E-04-1.67306E-17
 -1       165 2.25279E-04-9.46059E-05-3.74965E-17
 -1       166 2.19530E-04-7.27706E-05-4.95955E-17
 -1       167 2.16710E-04-5.50940E-05-5.69477E-17
 -1       168 2.15211E-04-3.99571E-05-6.13489E-17
 -1       169 2.14372E-04-2.59083E-05-6.39645E-17
 -1       170 2.13951E-04-1.26405E-05-6.52656E-17
 -1       171 2.13828E-04 2.72772E-07-6.61600E-17
 -1       172 2.13970E-04 1.31985E-05-6.63295E-17
 -1       173 2.14413E-04 2.65061E-05-6.56586E-17
 -1       174 2.15261E-04 4.03834E-05-6.41949E-17
 -1       175 2.16815E-04 5.59021E-05-6.07661E-17
 -1       176 2.19677E-04 7.38045E-05-5.48471E-17
 -1       177 2.25456E-04 9.60079E-05-4.39644E-17
 -1       178 2.39354E-04 1.27590E-04-2.40490E-17
 -1       179 2.97735E-04 1.85500E-04-3.70662E-18
 -1       180 4.68670E-04-2.63550E-04-4.72882E-17
 -1       181 7.66844E-04-3.82150E-04-2.18900E-16
 -1       182 1.05073E-03-4.65042E-04-5.10317E-16
 -1       183 1.32815E-03-5.23837E-04-9.23032E-16
 -1       184 1.60279E-03-5.65557E-04-1.45612E-15
 -1       185 1.87672E-03-5.94892E-04-2.10853E-15
 -1       186 2.15107E-03-6.15149E-04-2.87932E-15
 -1       187 2.42644E-03-6.28756E-04-3.76712E-15
 -1       188 2.70307E-03-6.37528E-04-4.77071E-15
 -1       189 2.98104E-03-6.42829E-04-5.88887E-15
 -1       190 3.26029E-03-6.45679E-04-7.11659E-15
 -1       191 3.54070E-03-6.46826E-04-8.44972E-15
 -1       192 3.82214E-03-6.46812E-04-9.88611E-15
 -1       193 4.10444E-03-6.46013E-04-1.14224E-14
 -1       194 4.38746E-03-6.44676E-04-1.30589E-14
 -1       195 4.67109E-03-6.42949E-04-1.47925E-14
 -1       196 4.95522E-03-6.40901E-04-1.66188E-14
 -1       197 5.23980E-03-6.38542E-04-1.85387E-14
 -1       198 5.52480E-03-6.35833E-04-2.05423E-14
 -1       199 5.81022E-03-6.32703E-04-2.26295E-14
 -1       200 6.09615E-03-6.29055E-04-2.48066E-14
 -1       201 6.38270E-03-6.24781E-04-2.70663E-14
 -1       202 6.67006E-03-6.19772E-04-2.94108E-14
 -1       203 6.95851E-03-6.13937E-04-3.18380E-14
 -1       204 7.24844E-03-6.07231E-04-3.43482E-14
 -1       205 7.54034E-03-5.99690E-04-3.69393E-14
 -1       206 7.83486E-03-5.91488E-04-3.96047E-14
 -1       207 8.13282E-03-5.83016E-04-4.23440E-14
 -1       208 8.43523E-03-5.75007E-04-4.51565E-14
 -1       209 8.74327E-03-5.68705E-04-4.80400E-14
 -1       210 9.05832E-03-5.66114E-04-5.09860E-14
 -1       211 9.38183E-03-5.70328E-04-5.39920E-14
 -1       212 9.71515E-03-5.85925E-04-5.70514E-14
 -1       213 1.00592E-02-6.19329E-04-6.01564E-14
 -1       214 1.04139E-02-6.78843E-04-6.33070E-14
 -1       215 1.07771E-02-7.73714E-04-6.65078E-14
 -1       216 1.11440E-02-9.11183E-04-6.97434E-14
 -1       217 1.15062E-02-1.09052E-03-7.30094E-14
 -1       218 1.18528E-02-1.29483E-03-7.63062E-14
 -1       219 1.21746E-02-1.48621E-03-7.96488E-14
 -1       220 1.24710E-02-1.61418E-03-8.30401E-14
 -1       221 1.27535E-02-1.64089E-03-8.64853E-14
 -1       222 1.30385E-02-1.56522E-03-8.99857E-14
 -1       223 1.33366E-02-1.42111E-03-9.35358E-14
 -1       224 1.36466E-02-1.25158E-03-9.71295E-14
 -1       225 1.39602E-02-1.08467E-03-1.00754E-13
 -1       226 1.42685E-02-9.26685E-04-1.04401E-13
 -1       227 1.45669E-02-7.68790E-04-1.08069E-13
 -1       228 6.04622E-04 3.31038E-04-1.18215E-16
 -1       229 8.93749E-04 4.32660E-04-3.56794E-16
 -1       230 1.17267E-03 5.04421E-04-7.21272E-16
 -1       231 1.44706E-03 5.55531E-04-1.21099E-15
 -1       232 1.71992E-03 5.91814E-04-1.82497E-15
 -1       233 1.99286E-03 6.17251E-04-2.56131E-15
 -1       234 2.26673E-03 6.34719E-04-3.41735E-15
 -1       235 2.54193E-03 6.46354E-04-4.39116E-15
 -1       236 2.81860E-03 6.53761E-04-5.48026E-15
 -1       237 3.09671E-03 6.58147E-04-6.68418E-15
 -1       238 3.37616E-03 6.60410E-04-7.99776E-15
 -1       239 3.65678E-03 6.61207E-04-9.41727E-15
 -1       240 3.93842E-03 6.61007E-04-1.09410E-14
 -1       241 4.22091E-03 6.60130E-04-1.25655E-14
 -1       242 4.50411E-03 6.58782E-04-1.42890E-14
 -1       243 4.78789E-03 6.57078E-04-1.61059E-14
 -1       244 5.07216E-03 6.55068E-04-1.80164E-14
 -1       245 5.35688E-03 6.52745E-04-2.00146E-14
 -1       246 5.64202E-03 6.50068E-04-2.20935E-14
 -1       247 5.92763E-03 6.46971E-04-2.42535E-14
 -1       248 6.21378E-03 6.43376E-04-2.64871E-14
 -1       249 6.50061E-03 6.39210E-04-2.88026E-14
 -1       250 6.78835E-03 6.34427E-04-3.11988E-14
 -1       251 7.07726E-03 6.29031E-04-3.36764E-14
 -1       252 7.36772E-03 6.23113E-04-3.62405E-14
 -1       253 7.66015E-03 6.16900E-04-3.88837E-14
 -1       254 7.95509E-03 6.10814E-04-4.15949E-14
 -1       255 8.25309E-03 6.05545E-04-4.43839E-14
 -1       256 8.55472E-03 6.02132E-04-4.72554E-14
 -1       257 8.86047E-03 6.02050E-04-5.01947E-14
 -1       258 9.17064E-03 6.07255E-04-5.31883E-14
 -1       259 9.48513E-03 6.20165E-04-5.62345E-14
 -1       260 9.80325E-03 6.43484E-04-5.93432E-14
 -1       261 1.01234E-02 6.79758E-04-6.25218E-14
 -1       262 1.04431E-02 7.30550E-04-6.57671E-14
 -1       263 1.07585E-02 7.95198E-04-6.90672E-14
 -1       264 1.10653E-02 8.69327E-04-7.24117E-14
 -1       265 1.13594E-02 9.43745E-04-7.57956E-14
 -1       266 1.16382E-02 1.00469E-03-7.92070E-14
 -1       267 1.19023E-02 1.03633E-03-8.26528E-14
 -1       268 1.21557E-02 1.02532E-03-8.61161E-14
 -1       269 1.24048E-02 9.65370E-04-8.96022E-14
 -1       270 1.26563E-02 8.59233E-04-9.31062E-14
 -1       271 1.29147E-02 7.16638E-04-9.66374E-14
 -1       272 1.31814E-02 5.49750E-04-1.00195E-13
 -1       273 1.34554E-02 3.69033E-04-1.03781E-13
 -1       274 1.37347E-02 1.81665E-04-1.07387E-13
 -1       275 1.40177E-02-7.43216E-06-1.11003E-13
 -1       276 1.42033E-02-1.05590E-04-1.11571E-13
 -1       277 1.43839E-02-1.93271E-04-1.11477E-13
 -1       278 1.45746E-02-2.81414E-04-1.11375E-13
 -1       279 1.47826E-02-3.65465E-04-1.11278E-13
 -1       280 1.50047E-02-4.37194E-04-1.11186E-13
 -1       281 1.52394E-02-4.90736E-04-1.11103E-13
 -1       282 1.54603E-02-5.17664E-04-1.11020E-13
 -1       283 1.56340E-02-5.16436E-04-1.10931E-13
 -1       284 1.57266E-02-4.94366E-04-1.10839E-13
 -1       285 1.57191E-02-4.66837E-04-1.10746E-13
 -1       286 1.56197E-02-4.51344E-04-1.10660E-13
 -1       287 1.54516E-02-4.59147E-04-1.10570E-13
 -1       288 1.52501E-02-4.93765E-04-1.10481E-13
 -1       289 1.50435E-02-5.51018E-04-1.10391E-13
 -1       290 1.48009E-02-6.56246E-04-1.09234E-13
 -1       291 1.49882E-02-3.71544E-04-9.48152E-14
 -1       292 1.47847E-02-2.49487E-04-9.45769E-14
 -1       293 1.44333E-02-6.15175E-05-9.34986E-14
 -1       294 1.40255E-02 1.59618E-04-9.20946E-14
 -1       295 1.35492E-02 3.72951E-04-9.05922E-14
 -1       296 1.30667E-02 5.72705E-04-8.86579E-14
 -1       297 1.26506E-02 6.79985E-04-8.64767E-14
 -1       298 1.22295E-02 6.90270E-04-8.43023E-14
 -1       299 1.18077E-02 5.91141E-04-8.23036E-14
 -1       300 1.14187E-02 4.33089E-04-8.03391E-14
 -1       301 1.09924E-02 2.56612E-04-7.88481E-14
 -1       302 1.06427E-02 8.80801E-05-7.75738E-14
 -1       303 1.03681E-02-6.73614E-05-7.64655E-14
 -1       304 1.02144E-02-1.79474E-04-7.61001E-14
 -1       305 1.02094E-02-2.86089E-04-7.58306E-14
 -1       306 1.03543E-02-4.10469E-04-7.62487E-14
 -1       307 1.06171E-02-5.65766E-04-7.69719E-14
 -1       308 1.09611E-02-7.67383E-04-7.81209E-14
 -1       309 1.13849E-02-9.85068E-04-7.94420E-14
 -1       310 1.18167E-02-1.21551E-03-8.12873E-14
 -1       311 1.22193E-02-1.37187E-03-8.31865E-14
 -1       312 1.26145E-02-1.44555E-03-8.51187E-14
 -1       313 1.30088E-02-1.40644E-03-8.70559E-14
 -1       314 1.34041E-02-1.29210E-03-8.88634E-14
 -1       315 1.38154E-02-1.12078E-03-9.05563E-14
 -1       316 1.42127E-02-9.32876E-04-9.20145E-14
 -1       317 1.45737E-02-7.55014E-04-9.32021E-14
 -1       318 1.48562E-02-5.90458E-04-9.42731E-14
 -1       319 1.50011E-02-4.79068E-04-9.45642E-14
 -1       320 4.55309E-04-1.64725E-04-1.69363E-16
 -1       321 4.74292E-04-2.12967E-04-1.33811E-16
 -1       322 4.40433E-04-9.39990E-05-2.07401E-16
 -1       323 4.37460E-04-6.48988E-05-2.17081E-16
 -1       324 4.35832E-04-3.78978E-05-2.23064E-16
 -1       325 4.35119E-04-1.20148E-05-2.26317E-16
 -1       326 4.35150E-04 1.35333E-05-2.27835E-16
 -1       327 4.35930E-04 3.94741E-05-2.27093E-16
 -1       328 4.37603E-04 6.61265E-05-2.23769E-16
 -1       329 4.40669E-04 9.53986E-05-2.16847E-16
 -1       330 4.46068E-04 1.28309E-04-2.04789E-16
 -1       331 4.55917E-04 1.67290E-04-1.85012E-16
 -1       332 4.75923E-04 2.17036E-04-1.52246E-16
 -1       333 5.32061E-04 2.69967E-04-1.42010E-16
 -1       334 8.24568E-04 3.73505E-04-3.83425E-16
 -1       335 8.63342E-04-3.57404E-04-4.35636E-16
 -1       336 1.14972E-03-4.26169E-04-8.08127E-16
 -1       337 1.43253E-03-4.75362E-04-1.29882E-15
 -1       338 1.71327E-03-5.10129E-04-1.90652E-15
 -1       339 1.99308E-03-5.34271E-04-2.63045E-15
 -1       340 2.27270E-03-5.50614E-04-3.46999E-15
 -1       341 2.55262E-03-5.61277E-04-4.42291E-15
 -1       342 2.83307E-03-5.67853E-04-5.48937E-15
 -1       343 3.11419E-03-5.71536E-04-6.66751E-15
 -1       344 3.39598E-03-5.73209E-04-7.95132E-15
 -1       345 3.67843E-03-5.73511E-04-9.33889E-15
 -1       346 3.96148E-03-5.72895E-04-1.08292E-14
 -1       347 4.24505E-03-5.71665E-04-1.24188E-14
 -1       348 4.52908E-03-5.70009E-04-1.41055E-14
 -1       349 4.81350E-03-5.68028E-04-1.58858E-14
 -1       350 5.09829E-03-5.65752E-04-1.77569E-14
 -1       351 5.38341E-03-5.63159E-04-1.97177E-14
 -1       352 5.66887E-03-5.60185E-04-2.17640E-14
 -1       353 5.95472E-03-5.56734E-04-2.38982E-14
 -1       354 6.24102E-03-5.52692E-04-2.61160E-14
 -1       355 6.52789E-03-5.47936E-04-2.84171E-14
 -1       356 6.81551E-03-5.42349E-04-3.08037E-14
 -1       357 7.10409E-03-5.35841E-04-3.32702E-14
 -1       358 7.39394E-03-5.28379E-04-3.58186E-14
 -1       359 7.68542E-03-5.20032E-04-3.84461E-14
 -1       360 7.97901E-03-5.11036E-04-4.11466E-14
 -1       361 8.27526E-03-5.01889E-04-4.39210E-14
 -1       362 8.57483E-03-4.93492E-04-4.67636E-14
 -1       363 8.87852E-03-4.87347E-04-4.96737E-14
 -1       364 9.18721E-03-4.85834E-04-5.26445E-14
 -1       365 9.50195E-03-4.92562E-04-5.56733E-14
 -1       366 9.82394E-03-5.12774E-04-5.87523E-14
 -1       367 1.01546E-02-5.53674E-04-6.18783E-14
 -1       368 1.04953E-02-6.24348E-04-6.50489E-14
 -1       369 1.08471E-02-7.34562E-04-6.82614E-14
 -1       370 1.12090E-02-8.91179E-04-7.15144E-14
 -1       371 1.15759E-02-1.09055E-03-7.47925E-14
 -1       372 1.19367E-02-1.30790E-03-7.81084E-14
 -1       373 1.22805E-02-1.49135E-03-8.14693E-14
 -1       374 1.26072E-02-1.58004E-03-8.48819E-14
 -1       375 1.29307E-02-1.54592E-03-8.83533E-14
 -1       376 1.32639E-02-1.41575E-03-9.18729E-14
 -1       377 1.36058E-02-1.24440E-03-9.54362E-14
 -1       378 1.39451E-02-1.07398E-03-9.90386E-14
 -1       379 1.42719E-02-9.18652E-04-1.02670E-13
 -1       380 1.45428E-02-7.90354E-04-1.05941E-13
 -1       381 1.11008E-03 4.47836E-04-7.46602E-16
 -1       382 1.39086E-03 5.00918E-04-1.23185E-15
 -1       383 1.66920E-03 5.38560E-04-1.83948E-15
 -1       384 1.94664E-03 5.64886E-04-2.56816E-15
 -1       385 2.22410E-03 5.82906E-04-3.41540E-15
 -1       386 2.50212E-03 5.94861E-04-4.37930E-15
 -1       387 2.78097E-03 6.02432E-04-5.45723E-15
 -1       388 3.06075E-03 6.06880E-04-6.64839E-15
 -1       389 3.34146E-03 6.09143E-04-7.94892E-15
 -1       390 3.62304E-03 6.09906E-04-9.35470E-15
 -1       391 3.90539E-03 6.09654E-04-1.08644E-14
 -1       392 4.18841E-03 6.08722E-04-1.24748E-14
 -1       393 4.47200E-03 6.07324E-04-1.41826E-14
 -1       394 4.75609E-03 6.05578E-04-1.59839E-14
 -1       395 5.04060E-03 6.03535E-04-1.78788E-14
 -1       396 5.32550E-03 6.01190E-04-1.98621E-14
 -1       397 5.61078E-03 5.98497E-04-2.19296E-14
 -1       398 5.89648E-03 5.95384E-04-2.40770E-14
 -1       399 6.18266E-03 5.91767E-04-2.63026E-14
 -1       400 6.46944E-03 5.87562E-04-2.86069E-14
 -1       401 6.75698E-03 5.82706E-04-3.09924E-14
 -1       402 7.04551E-03 5.77183E-04-3.34587E-14
 -1       403 7.33532E-03 5.71058E-04-3.60103E-14
 -1       404 7.62675E-03 5.64525E-04-3.86401E-14
 -1       405 7.92020E-03 5.57961E-04-4.13419E-14
 -1       406 8.21613E-03 5.52008E-04-4.41186E-14
 -1       407 8.51501E-03 5.47651E-04-4.69787E-14
 -1       408 8.81727E-03 5.46308E-04-4.99061E-14
 -1       409 9.12324E-03 5.49897E-04-5.28911E-14
 -1       410 9.43303E-03 5.60835E-04-5.59289E-14
 -1       411 9.74640E-03 5.81909E-04-5.90285E-14
 -1       412 1.00625E-02 6.15889E-04-6.21948E-14
 -1       413 1.03799E-02 6.64777E-04-6.54264E-14
 -1       414 1.06960E-02 7.28587E-04-6.87094E-14
 -1       415 1.10074E-02 8.03768E-04-7.20381E-14
 -1       416 1.13106E-02 8.81784E-04-7.54031E-14
 -1       417 1.16027E-02 9.48875E-04-7.88028E-14
 -1       418 1.18829E-02 9.88192E-04-8.22383E-14
 -1       419 1.21539E-02 9.84577E-04-8.56943E-14
 -1       420 1.24209E-02 9.30103E-04-8.91711E-14
 -1       421 1.26893E-02 8.26924E-04-9.26698E-14
 -1       422 1.29629E-02 6.85360E-04-9.61896E-14
 -1       423 1.32420E-02 5.18660E-04-9.97393E-14
 -1       424 1.35250E-02 3.38081E-04-1.03319E-13
 -1       425 1.38099E-02 1.50876E-04-1.06919E-13
 -1       426 1.40064E-02 2.27055E-05-1.09245E-13
 -1       427 1.44211E-02-1.65501E-04-1.08193E-13
 -1       428 1.42246E-02-7.42659E-05-1.08292E-13
 -1       429 1.41135E-02-2.46664E-05-1.08770E-13
 -1       430 1.46353E-02-2.53870E-04-1.08100E-13
 -1       431 1.48728E-02-3.36644E-04-1.08001E-13
 -1       432 1.51156E-02-4.04154E-04-1.07909E-13
 -1       433 1.53329E-02-4.48779E-04-1.07814E-13
 -1       434 1.54829E-02-4.69318E-04-1.07725E-13
 -1       435 1.55296E-02-4.75866E-04-1.07629E-13
 -1       436 1.54661E-02-4.86257E-04-1.07538E-13
 -1       437 1.53130E-02-5.15676E-04-1.07441E-13
 -1       438 1.51108E-02-5.68424E-04-1.07346E-13
 -1       439 1.48962E-02-6.39346E-04-1.07249E-13
 -1       440 1.45762E-02-2.31420E-04-9.56281E-14
 -1       441 1.50378E-02-4.35152E-04-9.63181E-14
 -1       442 1.49353E-02-3.72902E-04-9.67118E-14
 -1       443 1.41339E-02-2.44275E-05-9.41291E-14
 -1       444 1.37292E-02 1.89136E-04-9.26162E-14
 -1       445 4.45680E-04-1.26470E-04-1.92405E-16
 -1       446 1.27766E-02 6.67182E-04-8.77282E-14
 -1       447 1.24398E-02 7.32013E-04-8.55354E-14
 -1       448 1.20220E-02 6.63272E-04-8.28054E-14
 -1       449 1.16925E-02 5.27904E-04-8.08448E-14
 -1       450 1.12268E-02 2.87484E-04-7.83683E-14
 -1       451 1.08568E-02 1.12311E-04-7.71123E-14
 -1       452 1.05280E-02-4.44976E-05-7.55855E-14
 -1       453 1.02520E-02-1.61528E-04-7.46166E-14
 -1       454 1.01741E-02-2.18788E-04-7.43532E-14
 -1       455 1.02628E-02-3.01169E-04-7.46653E-14
 -1       456 1.04938E-02-4.08946E-04-7.52249E-14
 -1       457 1.08477E-02-5.87898E-04-7.63441E-14
 -1       458 1.12229E-02-7.99217E-04-7.76463E-14
 -1       459 1.16992E-02-1.08713E-03-7.95553E-14
 -1       460 1.20931E-02-1.32112E-03-8.18216E-14
 -1       461 1.24028E-02-1.44310E-03-8.37359E-14
 -1       462 1.28095E-02-1.47064E-03-8.64523E-14
 -1       463 1.31453E-02-1.36898E-03-8.84132E-14
 -1       464 1.35273E-02-1.18782E-03-9.04950E-14
 -1       465 1.39338E-02-9.66999E-04-9.24719E-14
 -1       466 1.43508E-02-7.69378E-04-9.38265E-14
 -1       467 1.46944E-02-6.13443E-04-9.50592E-14
 -1       468 1.49728E-02-4.92441E-04-9.60270E-14
 -1       469 1.32398E-02 4.51949E-04-9.05594E-14
 -1       470 1.29778E-02 5.73613E-04-8.96260E-14
 -1       471 1.48744E-02-5.27271E-04-9.68120E-14
 -1       472 1.14546E-02 4.04711E-04-7.88674E-14
 -1       473 1.22263E-02 7.30466E-04-8.40359E-14
 -1       474 9.31311E-04 3.46029E-04-6.23230E-16
 -1       475 6.65801E-04-7.51267E-05-4.67644E-16
 -1       476 6.69772E-04-1.15882E-04-4.52892E-16
 -1       477 6.63124E-04 1.10465E-06-4.81182E-16
 -1       478 6.63846E-04 3.87634E-05-4.81684E-16
 -1       479 6.65991E-04 7.68142E-05-4.77737E-16
 -1       480 6.70091E-04 1.17724E-04-4.68474E-16
 -1       481 6.77111E-04 1.62340E-04-4.52041E-16
 -1       482 6.89041E-04 2.12704E-04-4.25593E-16
 -1       483 1.21721E-03 4.06531E-04-1.06367E-15
 -1       484 9.76352E-04-3.28634E-04-6.81326E-16
 -1       485 1.34716E-02 2.85439E-04-9.30919E-14
 -1       486 1.26227E-03-3.83524E-04-1.13076E-15
 -1       487 1.54731E-03-4.23297E-04-1.69551E-15
 -1       488 1.83145E-03-4.51389E-04-2.37482E-15
 -1       489 2.11500E-03-4.70704E-04-3.16784E-15
 -1       490 2.39829E-03-4.83535E-04-4.07300E-15
 -1       491 2.68155E-03-4.91654E-04-5.09007E-15
 -1       492 2.96494E-03-4.96407E-04-6.21763E-15
 -1       493 3.24857E-03-4.98805E-04-7.45285E-15
 -1       494 3.53246E-03-4.99588E-04-8.79272E-15
 -1       495 3.81664E-03-4.99287E-04-1.02363E-14
 -1       496 4.10108E-03-4.98268E-04-1.17791E-14
 -1       497 4.38577E-03-4.96766E-04-1.34187E-14
 -1       498 4.67068E-03-4.94919E-04-1.51530E-14
 -1       499 4.95581E-03-4.92785E-04-1.69786E-14
 -1       500 5.24114E-03-4.90362E-04-1.88948E-14
 -1       501 5.52668E-03-4.87604E-04-2.08987E-14
 -1       502 5.81244E-03-4.84427E-04-2.29908E-14
 -1       503 6.09845E-03-4.80722E-04-2.51680E-14
 -1       504 6.38477E-03-4.76366E-04-2.74267E-14
 -1       505 6.67148E-03-4.71234E-04-2.97712E-14
 -1       506 6.95866E-03-4.65215E-04-3.21979E-14
 -1       507 7.24645E-03-4.58240E-04-3.47036E-14
 -1       508 7.53500E-03-4.50309E-04-3.72911E-14
 -1       509 7.82449E-03-4.41550E-04-3.99529E-14
 -1       510 8.11511E-03-4.32288E-04-4.26883E-14
 -1       511 8.40713E-03-4.23147E-04-4.54963E-14
 -1       512 8.70084E-03-4.15197E-04-4.83704E-14
 -1       513 8.99665E-03-4.10145E-04-5.13049E-14
 -1       514 9.29519E-03-4.10600E-04-5.43006E-14
 -1       515 9.59749E-03-4.20386E-04-5.73513E-14
 -1       516 9.90541E-03-4.44919E-04-6.04513E-14
 -1       517 1.02220E-02-4.91583E-04-6.35966E-14
 -1       518 1.05521E-02-5.69962E-04-6.67865E-14
 -1       519 1.09013E-02-6.91308E-04-7.00166E-14
 -1       520 1.12727E-02-8.65451E-04-7.32769E-14
 -1       521 1.16624E-02-1.08884E-03-7.65716E-14
 -1       522 1.20522E-02-1.32641E-03-7.99024E-14
 -1       523 1.24264E-02-1.49749E-03-8.32839E-14
 -1       524 1.27901E-02-1.52416E-03-8.67251E-14
 -1       525 1.31621E-02-1.40767E-03-9.02192E-14
 -1       526 1.35453E-02-1.22432E-03-9.37534E-14
 -1       527 1.39226E-02-1.04422E-03-9.73323E-14
 -1       528 1.42774E-02-8.91954E-04-1.00940E-13
 -1       529 1.78411E-03 4.81147E-04-2.30060E-15
 -1       530 2.06612E-03 5.02542E-04-3.09610E-15
 -1       531 2.34788E-03 5.16916E-04-4.00705E-15
 -1       532 2.62974E-03 5.26182E-04-5.03113E-15
 -1       533 2.91190E-03 5.31788E-04-6.16799E-15
 -1       534 3.19446E-03 5.34821E-04-7.41440E-15
 -1       535 3.47746E-03 5.36079E-04-8.76662E-15
 -1       536 3.76089E-03 5.36138E-04-1.02224E-14
 -1       537 4.04473E-03 5.35400E-04-1.17787E-14
 -1       538 4.32894E-03 5.34129E-04-1.34342E-14
 -1       539 4.61348E-03 5.32483E-04-1.51841E-14
 -1       540 4.89831E-03 5.30540E-04-1.70260E-14
 -1       541 5.18341E-03 5.28315E-04-1.89586E-14
 -1       542 5.46878E-03 5.25775E-04-2.09796E-14
 -1       543 5.75443E-03 5.22855E-04-2.30838E-14
 -1       544 6.04039E-03 5.19467E-04-2.52678E-14
 -1       545 6.32674E-03 5.15517E-04-2.75291E-14
 -1       546 6.61357E-03 5.10917E-04-2.98720E-14
 -1       547 6.90100E-03 5.05612E-04-3.22959E-14
 -1       548 7.18921E-03 4.99602E-04-3.48030E-14
 -1       549 7.47840E-03 4.92986E-04-3.73888E-14
 -1       550 7.76884E-03 4.86010E-04-4.00515E-14
 -1       551 8.06085E-03 4.79133E-04-4.27868E-14
 -1       552 8.35479E-03 4.73103E-04-4.56025E-14
 -1       553 8.65109E-03 4.69051E-04-4.84914E-14
 -1       554 8.95021E-03 4.68570E-04-5.14431E-14
 -1       555 9.25268E-03 4.73781E-04-5.44500E-14
 -1       556 9.55898E-03 4.87314E-04-5.75150E-14
 -1       557 9.86951E-03 5.12150E-04-6.06436E-14
 -1       558 1.01843E-02 5.51177E-04-6.38365E-14
 -1       559 1.05028E-02 6.06317E-04-6.70871E-14
 -1       560 1.08231E-02 6.77075E-04-7.03774E-14
 -1       561 1.11420E-02 7.58559E-04-7.37086E-14
 -1       562 1.14553E-02 8.39678E-04-7.70797E-14
 -1       563 1.17591E-02 9.03060E-04-8.04855E-14
 -1       564 1.20529E-02 9.28740E-04-8.39229E-14
 -1       565 1.23405E-02 9.01589E-04-8.73777E-14
 -1       566 1.26283E-02 8.18357E-04-9.08568E-14
 -1       567 1.29208E-02 6.88448E-04-9.43560E-14
 -1       568 1.32184E-02 5.27843E-04-9.78835E-14
 -1       569 1.35179E-02 3.51091E-04-1.01445E-13
 -1       570 1.38152E-02 1.67108E-04-1.05033E-13
 -1       571 1.44828E-02-1.72190E-04-1.04921E-13
 -1       572 1.47360E-02-2.76426E-04-1.04819E-13
 -1       573 1.40569E-02 3.63472E-05-1.05116E-13
 -1       574 1.42565E-02-6.60245E-05-1.05018E-13
 -1       575 1.49938E-02-3.64842E-04-1.04719E-13
 -1       576 1.52119E-02-4.24993E-04-1.04620E-13
 -1       577 1.53314E-02-4.57069E-04-1.04522E-13
 -1       578 1.53163E-02-4.81389E-04-1.04426E-13
 -1       579 1.51784E-02-5.25439E-04-1.04324E-13
 -1       580 1.49685E-02-5.98281E-04-1.04224E-13
 -1       581 1.47407E-02-6.93066E-04-1.04124E-13
 -1       582 1.50727E-02-4.29113E-04-9.87338E-14
 -1       583 1.43431E-02-1.64012E-04-9.63571E-14
 -1       584 1.50134E-03 4.50225E-04-1.62285E-15
 -1       585 1.38999E-02 4.99965E-05-9.47209E-14
 -1       586 1.50736E-02-4.57038E-04-9.84444E-14
 -1       587 1.19476E-02-1.22884E-03-8.01661E-14
 -1       588 1.03308E-02-1.16253E-04-7.30109E-14
 -1       589 1.25846E-02 7.25120E-04-8.70635E-14
 -1       590 6.63733E-04-3.65181E-05-4.76758E-16
 -1       591 1.09882E-02 1.60252E-04-7.62549E-14
 -1       592 1.18631E-02 6.14727E-04-8.13261E-14
 -1       593 1.03445E-02-3.12400E-04-7.34113E-14
 -1       594 1.06700E-02 1.22096E-05-7.47392E-14
 -1       595 1.01618E-02-1.86714E-04-7.26378E-14
 -1       596 1.30248E-02-1.42660E-03-8.84259E-14
 -1       597 1.01690E-02-2.37296E-04-7.28440E-14
 -1       598 1.06628E-02-4.47104E-04-7.41640E-14
 -1       599 1.10413E-02-6.47945E-04-7.56865E-14
 -1       600 1.14593E-02-9.04737E-04-7.73923E-14
 -1       601 1.22702E-02-1.40776E-03-8.24495E-14
 -1       602 1.25768E-02-1.50086E-03-8.47831E-14
 -1       603 1.33220E-02-1.28294E-03-9.05092E-14
 -1       604 1.36567E-02-1.09500E-03-9.24887E-14
 -1       605 1.41743E-02-8.17839E-04-9.47128E-14
 -1       606 1.45094E-02-6.64723E-04-9.59490E-14
 -1       607 7.12720E-04-2.51865E-04-3.82249E-16
 -1       608 7.03859E-04 2.90888E-04-3.47104E-16
 -1       609 1.47905E-02-3.36315E-04-9.77820E-14
 -1       610 1.11912E-02 2.79737E-04-7.67478E-14
 -1       611 6.76581E-04-1.60062E-04-4.31282E-16
 -1       612 1.46109E-02-2.76123E-04-9.85148E-14
 -1       613 6.91827E-04-2.02892E-04-4.11810E-16
 -1       614 1.47382E-02-5.78982E-04-9.77041E-14
 -1       615 1.16923E-02-1.06483E-03-7.79903E-14
 -1       616 1.50174E-02-4.04563E-04-9.98056E-14
 -1       617 1.23882E-02 7.59249E-04-8.55547E-14
 -1       618 1.32274E-02 4.25213E-04-9.21568E-14
 -1       619 1.16205E-02 5.14035E-04-7.93447E-14
 -1       620 1.44976E-02-8.03533E-04-1.03398E-13
 -1       621 8.99734E-04 7.41142E-05-8.22167E-16
 -1       622 8.97640E-04 2.51795E-05-8.24624E-16
 -1       623 9.11822E-04 1.78233E-04-7.93992E-16
 -1       624 9.24212E-04 2.36797E-04-7.63319E-16
 -1       625 1.04892E-03 3.13931E-04-8.89544E-16
 -1       626 1.38332E-03-3.37082E-04-1.47837E-15
 -1       627 1.66952E-03-3.68027E-04-2.11399E-15
 -1       628 1.95573E-03-3.89845E-04-2.86210E-15
 -1       629 2.24178E-03-4.04690E-04-3.72054E-15
 -1       630 2.52763E-03-4.14356E-04-4.68977E-15
 -1       631 2.81335E-03-4.20262E-04-5.76891E-15
 -1       632 3.09897E-03-4.23499E-04-6.95563E-15
 -1       633 3.38454E-03-4.24886E-04-8.24731E-15
 -1       634 3.67009E-03-4.25020E-04-9.64265E-15
 -1       635 3.95565E-03-4.24320E-04-1.11402E-14
 -1       636 4.24122E-03-4.23069E-04-1.27329E-14
 -1       637 4.52681E-03-4.21440E-04-1.44206E-14
 -1       638 4.81244E-03-4.19524E-04-1.62021E-14
 -1       639 5.09811E-03-4.17344E-04-1.80743E-14
 -1       640 5.38381E-03-4.14874E-04-2.00355E-14
 -1       641 5.66956E-03-4.12052E-04-2.20852E-14
 -1       642 5.95536E-03-4.08783E-04-2.42209E-14
 -1       643 6.24122E-03-4.04957E-04-2.64404E-14
 -1       644 6.52713E-03-4.00455E-04-2.87403E-14
 -1       645 6.81310E-03-3.95165E-04-3.11268E-14
 -1       646 7.09913E-03-3.89002E-04-3.35922E-14
 -1       647 7.38519E-03-3.81933E-04-3.61383E-14
 -1       648 7.67124E-03-3.74019E-04-3.87625E-14
 -1       649 7.95724E-03-3.65462E-04-4.14604E-14
 -1       650 8.24310E-03-3.56687E-04-4.42319E-14
 -1       651 8.52873E-03-3.48426E-04-4.70700E-14
 -1       652 8.81406E-03-3.41852E-04-4.99726E-14
 -1       653 9.09920E-03-3.38720E-04-5.29348E-14
 -1       654 9.38458E-03-3.41560E-04-5.59548E-14
 -1       655 9.67142E-03-3.53909E-04-5.90250E-14
 -1       656 9.96241E-03-3.80669E-04-6.21482E-14
 -1       657 1.02627E-02-4.28805E-04-6.53170E-14
 -1       658 1.05808E-02-5.08646E-04-6.85232E-14
 -1       659 1.09284E-02-6.35634E-04-7.17631E-14
 -1       660 1.39095E-02-9.93280E-04-9.56363E-14
 -1       661 1.42937E-02-8.38949E-04-9.92251E-14
 -1       662 2.19073E-03 4.37577E-04-3.63540E-15
 -1       663 1.37398E-02 2.14639E-04-1.01526E-13
 -1       664 1.90573E-03 4.20778E-04-2.77576E-15
 -1       665 2.76018E-03 4.55581E-04-5.69044E-15
 -1       666 3.04486E-03 4.59551E-04-6.88373E-15
 -1       667 3.32960E-03 4.61462E-04-8.18259E-15
 -1       668 3.61445E-03 4.61973E-04-9.58528E-15
 -1       669 3.89942E-03 4.61549E-04-1.10893E-14
 -1       670 4.18450E-03 4.60508E-04-1.26922E-14
 -1       671 4.46971E-03 4.59048E-04-1.43908E-14
 -1       672 4.75504E-03 4.57280E-04-1.61822E-14
 -1       673 5.04047E-03 4.55245E-04-1.80646E-14
 -1       674 5.32602E-03 4.52929E-04-2.00368E-14
 -1       675 5.61169E-03 4.50279E-04-2.20955E-14
 -1       676 5.89749E-03 4.47217E-04-2.42374E-14
 -1       677 6.18345E-03 4.43647E-04-2.64568E-14
 -1       678 6.46961E-03 4.39472E-04-2.87563E-14
 -1       679 6.75600E-03 4.34608E-04-3.11370E-14
 -1       680 7.04272E-03 4.29009E-04-3.35989E-14
 -1       681 7.32986E-03 4.22696E-04-3.61436E-14
 -1       682 7.61755E-03 4.15797E-04-3.87661E-14
 -1       683 7.90599E-03 4.08596E-04-4.14633E-14
 -1       684 8.19544E-03 4.01602E-04-4.42337E-14
 -1       685 8.48626E-03 3.95624E-04-4.70827E-14
 -1       686 8.77897E-03 3.91858E-04-4.99992E-14
 -1       687 9.07428E-03 3.91974E-04-5.29745E-14
 -1       688 9.37317E-03 3.98185E-04-5.60085E-14
 -1       689 9.67687E-03 4.13262E-04-5.91025E-14
 -1       690 9.98676E-03 4.40425E-04-6.22570E-14
 -1       691 1.03041E-02 4.82972E-04-6.54708E-14
 -1       692 1.06291E-02 5.43370E-04-6.87308E-14
 -1       693 1.09602E-02 6.21399E-04-7.20285E-14
 -1       694 1.12928E-02 7.11169E-04-7.53680E-14
 -1       695 1.16202E-02 7.97900E-04-7.87487E-14
 -1       696 1.19371E-02 8.57822E-04-8.21593E-14
 -1       697 1.22442E-02 8.65244E-04-8.55939E-14
 -1       698 1.25489E-02 8.06469E-04-8.90534E-14
 -1       699 1.28593E-02 6.87742E-04-9.25335E-14
 -1       700 1.31774E-02 5.30070E-04-9.60379E-14
 -1       701 1.34558E-02 3.74566E-04-9.87713E-14
 -1       702 1.49247E-02-3.62482E-04-1.02005E-13
 -1       703 1.45250E-02-7.61886E-04-1.01666E-13
 -1       704 1.43190E-02-1.14462E-04-1.01758E-13
 -1       705 1.51295E-02-4.25289E-04-1.01698E-13
 -1       706 1.46015E-02-2.46145E-04-1.01652E-13
 -1       707 1.51629E-02-4.52939E-04-1.00823E-13
 -1       708 1.48721E-02-5.89826E-04-1.01588E-13
 -1       709 1.39738E-02-9.33720E-04-9.51112E-14
 -1       710 1.35197E-02-1.19851E-03-9.27050E-14
 -1       711 1.04234E-02-3.39391E-04-7.18339E-14
 -1       712 1.62037E-03 3.96265E-04-2.03114E-15
 -1       713 2.47550E-03 4.48656E-04-4.60713E-15
 -1       714 1.50227E-02-4.98275E-04-9.97229E-14
 -1       715 1.09776E-03-2.94636E-04-9.55819E-16
 -1       716 1.28255E-02 6.40185E-04-8.94886E-14
 -1       717 1.01497E-02-1.45172E-04-7.07974E-14
 -1       718 1.33466E-03 3.61575E-04-1.40224E-15
 -1       719 9.04191E-04 1.24620E-04-8.12484E-16
 -1       720 1.00945E-02-1.99286E-04-7.09805E-14
 -1       721 1.04546E-02-3.42095E-05-7.22174E-14
 -1       722 9.03815E-04-1.22209E-04-7.92098E-16
 -1       723 1.07763E-02 1.09561E-04-7.37113E-14
 -1       724 1.20371E-02 7.11964E-04-8.24494E-14
 -1       725 1.02053E-02-2.54624E-04-7.12689E-14
 -1       726 1.08251E-02-5.29125E-04-7.31794E-14
 -1       727 1.11861E-02-7.35410E-04-7.48680E-14
 -1       728 8.93507E-04-2.51808E-04-6.55441E-16
 -1       729 1.43975E-02-7.23442E-04-9.70237E-14
 -1       730 9.11215E-04-1.75602E-04-7.64966E-16
 -1       731 8.97577E-04-2.31580E-05-8.20650E-16
 -1       732 1.26247E-02 7.20327E-04-8.79728E-14
 -1       733 1.43283E-02-1.60366E-04-9.81168E-14
 -1       734 1.40771E-02 1.61596E-05-1.01858E-13
 -1       735 1.45865E-02-6.99252E-04-1.00405E-13
 -1       736 1.37534E-02 1.24156E-04-9.56433E-14
 -1       737 1.13561E-02 4.00148E-04-7.72195E-14
 -1       738 1.02159E-02-8.11641E-05-7.00084E-14
 -1       739 8.99524E-04-7.18279E-05-8.10123E-16
 -1       740 1.18081E-02 6.44422E-04-8.04597E-14
 -1       741 1.35110E-02 2.64310E-04-9.47039E-14
 -1       742 1.16153E-03 2.43642E-04-1.19429E-15
 -1       743 1.30638E-02 5.27189E-04-9.21760E-14
 -1       744 9.00978E-04-2.12838E-04-7.12724E-16
 -1       745 1.79729E-03-3.09555E-04-2.55391E-15
 -1       746 2.08495E-03-3.25671E-04-3.36744E-15
 -1       747 2.37274E-03-3.36491E-04-4.28994E-15
 -1       748 2.66044E-03-3.43368E-04-5.32106E-15
 -1       749 2.94794E-03-3.47390E-04-6.46014E-15
 -1       750 3.23520E-03-3.49398E-04-7.70461E-15
 -1       751 3.52222E-03-3.50024E-04-9.05195E-15
 -1       752 3.80902E-03-3.49720E-04-1.05024E-14
 -1       753 4.09561E-03-3.48802E-04-1.20492E-14
 -1       754 4.38203E-03-3.47473E-04-1.36914E-14
 -1       755 4.66829E-03-3.45851E-04-1.54270E-14
 -1       756 4.95442E-03-3.43986E-04-1.72539E-14
 -1       757 5.24041E-03-3.41877E-04-1.91738E-14
 -1       758 5.52627E-03-3.39482E-04-2.11816E-14
 -1       759 5.81199E-03-3.36731E-04-2.32765E-14
 -1       760 6.09755E-03-3.33533E-04-2.54537E-14
 -1       761 6.38290E-03-3.29786E-04-2.77139E-14
 -1       762 6.66797E-03-3.25392E-04-3.00576E-14
 -1       763 6.95267E-03-3.20267E-04-3.24841E-14
 -1       764 7.23686E-03-3.14368E-04-3.49905E-14
 -1       765 7.52036E-03-3.07720E-04-3.75762E-14
 -1       766 7.80293E-03-3.00454E-04-4.02364E-14
 -1       767 8.08425E-03-2.92859E-04-4.29698E-14
 -1       768 8.36395E-03-2.85441E-04-4.57732E-14
 -1       769 8.64160E-03-2.78998E-04-4.86429E-14
 -1       770 8.91677E-03-2.74690E-04-5.15737E-14
 -1       771 9.18914E-03-2.74111E-04-5.45646E-14
 -1       772 9.45880E-03-2.79355E-04-5.76063E-14
 -1       773 9.72672E-03-2.93147E-04-6.07014E-14
 -1       774 9.99558E-03-3.19199E-04-6.38474E-14
 -1       775 1.02712E-02-3.63443E-04-6.70354E-14
 -1       776 1.05360E-02-4.24648E-04-7.00953E-14
 -1       777 1.00060E-02-1.59919E-04-6.86828E-14
 -1       778 2.03274E-03 3.57734E-04-3.26523E-15
 -1       779 1.74569E-03 3.39143E-04-2.45697E-15
 -1       780 3.18001E-03 3.86009E-04-7.60370E-15
 -1       781 2.89344E-03 3.83385E-04-6.35701E-15
 -1       782 3.75269E-03 3.87042E-04-1.04058E-14
 -1       783 4.03884E-03 3.86325E-04-1.19569E-14
 -1       784 4.32490E-03 3.85141E-04-1.36037E-14
 -1       785 4.61087E-03 3.83631E-04-1.53457E-14
 -1       786 4.89679E-03 3.81862E-04-1.71792E-14
 -1       787 5.18264E-03 3.79845E-04-1.91014E-14
 -1       788 5.46844E-03 3.77546E-04-2.11126E-14
 -1       789 5.75419E-03 3.74900E-04-2.32102E-14
 -1       790 6.03988E-03 3.71821E-04-2.53878E-14
 -1       791 6.32552E-03 3.68213E-04-2.76457E-14
 -1       792 6.61108E-03 3.63981E-04-2.99832E-14
 -1       793 6.89657E-03 3.59048E-04-3.24023E-14
 -1       794 7.18199E-03 3.53378E-04-3.49016E-14
 -1       795 7.46737E-03 3.47002E-04-3.74844E-14
 -1       796 7.75276E-03 3.40056E-04-4.01446E-14
 -1       797 8.03830E-03 3.32829E-04-4.28741E-14
 -1       798 8.32424E-03 3.25820E-04-4.56821E-14
 -1       799 8.61099E-03 3.19812E-04-4.85625E-14
 -1       800 8.89926E-03 3.15953E-04-5.15046E-14
 -1       801 9.19013E-03 3.15854E-04-5.45064E-14
 -1       802 9.48522E-03 3.21705E-04-5.75679E-14
 -1       803 9.78671E-03 3.36402E-04-6.06856E-14
 -1       804 1.00973E-02 3.63641E-04-6.38635E-14
 -1       805 1.04197E-02 4.07798E-04-6.70913E-14
 -1       806 1.07554E-02 4.73099E-04-7.03586E-14
 -1       807 1.11025E-02 5.61000E-04-7.36686E-14
 -1       808 1.14542E-02 6.64910E-04-7.70203E-14
 -1       809 1.17989E-02 7.62180E-04-8.04039E-14
 -1       810 1.21310E-02 8.16794E-04-8.38163E-14
 -1       811 1.24546E-02 7.94394E-04-8.72557E-14
 -1       812 1.27825E-02 6.89736E-04-9.07199E-14
 -1       813 1.31230E-02 5.29295E-04-9.42025E-14
 -1       814 1.13822E-03 5.90601E-05-1.25247E-15
 -1       815 1.41745E-02-7.68170E-05-9.88662E-14
 -1       816 1.48546E-02-3.54202E-04-1.00017E-13
 -1       817 1.47021E-02-6.19233E-04-9.93626E-14
 -1       818 1.09452E-02 2.21766E-04-7.41765E-14
 -1       819 3.46642E-03 3.87056E-04-8.95435E-15
 -1       820 1.42957E-02-7.96039E-04-9.77504E-14
 -1       821 1.00441E-02-2.05984E-04-6.89737E-14
 -1       822 1.21799E-02 7.76710E-04-8.39109E-14
 -1       823 1.22455E-03-2.55039E-04-1.25890E-15
 -1       824 1.24622E-03 3.00869E-04-1.30115E-15
 -1       825 1.02109E-02-2.74576E-04-6.93934E-14
 -1       826 1.04848E-02 6.30606E-05-7.07447E-14
 -1       827 1.51021E-03-2.86553E-04-1.85080E-15
 -1       828 1.13685E-03 1.19741E-06-1.25135E-15
 -1       829 1.28603E-02 6.34549E-04-9.06504E-14
 -1       830 1.15597E-02 5.51557E-04-7.83262E-14
 -1       831 1.39055E-02 7.87588E-05-9.89696E-14
 -1       832 2.31979E-03 3.70334E-04-4.18618E-15
 -1       833 1.14979E-03 1.79127E-04-1.22564E-15
 -1       834 1.49561E-03 3.24177E-04-1.83421E-15
 -1       835 2.60670E-03 3.78476E-04-5.21719E-15
 -1       836 1.34225E-02 3.66925E-04-9.69182E-14
 -1       837 1.14234E-03 1.17819E-04-1.24423E-15
 -1       838 1.36563E-02 2.38863E-04-9.88730E-14
 -1       839 1.00115E-02-1.12708E-04-6.79007E-14
 -1       840 1.06239E-02 1.54208E-04-7.11965E-14
 -1       841 1.14200E-03-1.15210E-04-1.22216E-15
 -1       842 1.14922E-03-1.76145E-04-1.19192E-15
 -1       843 1.23560E-02 7.85419E-04-8.57535E-14
 -1       844 1.00130E-02-2.24364E-04-6.71831E-14
 -1       845 3.02939E-03 3.09855E-04-7.03024E-15
 -1       846 1.92951E-03-2.47834E-04-3.01522E-15
 -1       847 1.34048E-02 3.53500E-04-9.56602E-14
 -1       848 2.21830E-03-2.58956E-04-3.89125E-15
 -1       849 2.50737E-03-2.66289E-04-4.87604E-15
 -1       850 2.79638E-03-2.70805E-04-5.96726E-15
 -1       851 3.08514E-03-2.73291E-04-7.16465E-15
 -1       852 3.37355E-03-2.74358E-04-8.46537E-15
 -1       853 3.66159E-03-2.74457E-04-9.86689E-15
 -1       854 3.94925E-03-2.73912E-04-1.13681E-14
 -1       855 4.23656E-03-2.72939E-04-1.29645E-14
 -1       856 4.52354E-03-2.71672E-04-1.46555E-14
 -1       857 4.81021E-03-2.70184E-04-1.64388E-14
 -1       858 5.09660E-03-2.68493E-04-1.83138E-14
 -1       859 5.38270E-03-2.66582E-04-2.02790E-14
 -1       860 5.66850E-03-2.64405E-04-2.23327E-14
 -1       861 5.95395E-03-2.61896E-04-2.44694E-14
 -1       862 6.23900E-03-2.58976E-04-2.66901E-14
 -1       863 6.52352E-03-2.55569E-04-2.89934E-14
 -1       864 6.80738E-03-2.51605E-04-3.13806E-14
 -1       865 7.09037E-03-2.47048E-04-3.38471E-14
 -1       866 7.37222E-03-2.41908E-04-3.63924E-14
 -1       867 7.65258E-03-2.36280E-04-3.90168E-14
 -1       868 7.93101E-03-2.30370E-04-4.17137E-14
 -1       869 8.20696E-03-2.24546E-04-4.44820E-14
 -1       870 8.47975E-03-2.19374E-04-4.73189E-14
 -1       871 8.74861E-03-2.15657E-04-5.02201E-14
 -1       872 9.01266E-03-2.14444E-04-5.31801E-14
 -1       873 9.27098E-03-2.17006E-04-5.61947E-14
 -1       874 9.52276E-03-2.24771E-04-5.92614E-14
 -1       875 9.76760E-03-2.39324E-04-6.23833E-14
 -1       876 9.89507E-03-1.68269E-04-6.64663E-14
 -1       877 4.17924E-03 3.10666E-04-1.28246E-14
 -1       878 3.89223E-03 3.11506E-04-1.12287E-14
 -1       879 4.75248E-03 3.08054E-04-1.62997E-14
 -1       880 5.03875E-03 3.06404E-04-1.81747E-14
 -1       881 5.32481E-03 3.04524E-04-2.01377E-14
 -1       882 5.61064E-03 3.02368E-04-2.21889E-14
 -1       883 5.89624E-03 2.99867E-04-2.43253E-14
 -1       884 6.18156E-03 2.96934E-04-2.65419E-14
 -1       885 6.46655E-03 2.93477E-04-2.88369E-14
 -1       886 6.75116E-03 2.89407E-04-3.12121E-14
 -1       887 7.03530E-03 2.84653E-04-3.36686E-14
 -1       888 7.31891E-03 2.79178E-04-3.62083E-14
 -1       889 7.60192E-03 2.73006E-04-3.88286E-14
 -1       890 7.88432E-03 2.66247E-04-4.15218E-14
 -1       891 8.16620E-03 2.59141E-04-4.42894E-14
 -1       892 8.44777E-03 2.52097E-04-4.71303E-14
 -1       893 8.72952E-03 2.45763E-04-5.00381E-14
 -1       894 9.01235E-03 2.41101E-04-5.30089E-14
 -1       895 9.29770E-03 2.39518E-04-5.60373E-14
 -1       896 9.58786E-03 2.43061E-04-5.91213E-14
 -1       897 9.88612E-03 2.54786E-04-6.22643E-14
 -1       898 1.01969E-02 2.79263E-04-6.54591E-14
 -1       899 1.05245E-02 3.23132E-04-6.86962E-14
 -1       900 1.08736E-02 3.93874E-04-7.19759E-14
 -1       901 1.12414E-02 4.97810E-04-7.52992E-14
 -1       902 1.11620E-02 4.01799E-04-7.49800E-14
 -1       903 1.18957E-02 7.19114E-04-8.11964E-14
 -1       904 4.46598E-03 3.09485E-04-1.45159E-14
 -1       905 1.35540E-03-2.09667E-04-1.58919E-15
 -1       906 1.13806E-03-5.65199E-05-1.24139E-15
 -1       907 1.36024E-02 2.33685E-04-9.66085E-14
 -1       908 1.01471E-02-7.00718E-07-6.76723E-14
 -1       909 1.64159E-03-2.31788E-04-2.24748E-15
 -1       910 1.87588E-03 2.78810E-04-2.89955E-15
 -1       911 1.00121E-02-2.67129E-04-6.55128E-14
 -1       912 3.31732E-03 3.11419E-04-8.32903E-15
 -1       913 2.74116E-03 3.06626E-04-5.83628E-15
 -1       914 2.16419E-03 2.92125E-04-3.76922E-15
 -1       915 1.40127E-03 2.37097E-04-1.71400E-15
 -1       916 1.62452E-03 2.70126E-04-2.22319E-15
 -1       917 1.38099E-03 3.41145E-05-1.76549E-15
 -1       918 3.60493E-03 3.11843E-04-9.72896E-15
 -1       919 1.38414E-03 9.98478E-05-1.76097E-15
 -1       920 9.84930E-03-1.27669E-04-6.56926E-14
 -1       921 1.38384E-03-9.70648E-05-1.74041E-15
 -1       922 1.02617E-02 6.46299E-05-6.81195E-14
 -1       923 1.36829E-03-1.53070E-04-1.66902E-15
 -1       924 2.35523E-03-1.89829E-04-4.43297E-15
 -1       925 2.64522E-03-1.94278E-04-5.47688E-15
 -1       926 2.93512E-03-1.96900E-04-6.62654E-15
 -1       927 3.22470E-03-1.98216E-04-7.88041E-15
 -1       928 3.51385E-03-1.98628E-04-9.23541E-15
 -1       929 3.80251E-03-1.98427E-04-1.06890E-14
 -1       930 4.09069E-03-1.97819E-04-1.22402E-14
 -1       931 4.37840E-03-1.96939E-04-1.38877E-14
 -1       932 4.66567E-03-1.95865E-04-1.56271E-14
 -1       933 4.95252E-03-1.94630E-04-1.74573E-14
 -1       934 5.23896E-03-1.93237E-04-1.93798E-14
 -1       935 5.52497E-03-1.91662E-04-2.13896E-14
 -1       936 5.81050E-03-1.89864E-04-2.34865E-14
 -1       937 6.09549E-03-1.87793E-04-2.56672E-14
 -1       938 6.37981E-03-1.85394E-04-2.79315E-14
 -1       939 6.66329E-03-1.82624E-04-3.02787E-14
 -1       940 6.94570E-03-1.79458E-04-3.27070E-14
 -1       941 7.22673E-03-1.75910E-04-3.52133E-14
 -1       942 7.50599E-03-1.72055E-04-3.77983E-14
 -1       943 7.78300E-03-1.68056E-04-4.04600E-14
 -1       944 8.05713E-03-1.64193E-04-4.31922E-14
 -1       945 8.32764E-03-1.60897E-04-4.59972E-14
 -1       946 8.59359E-03-1.58771E-04-4.88683E-14
 -1       947 8.85388E-03-1.58589E-04-5.17994E-14
 -1       948 9.10710E-03-1.61263E-04-5.47851E-14
 -1       949 9.35148E-03-1.67734E-04-5.78257E-14
 -1       950 9.58473E-03-1.78892E-04-6.09234E-14
 -1       951 4.03303E-03 2.35588E-04-1.20535E-14
 -1       952 9.79916E-03-1.88115E-04-6.41819E-14
 -1       953 2.45271E-03 3.01021E-04-4.74879E-15
 -1       954 5.18091E-03 2.31095E-04-1.91707E-14
 -1       955 4.89450E-03 2.32505E-04-1.72540E-14
 -1       956 5.75263E-03 2.27610E-04-2.32679E-14
 -1       957 6.03786E-03 2.25418E-04-2.54414E-14
 -1       958 6.32257E-03 2.22825E-04-2.76952E-14
 -1       959 6.60666E-03 2.19745E-04-3.00282E-14
 -1       960 6.89001E-03 2.16094E-04-3.24432E-14
 -1       961 7.17245E-03 2.11801E-04-3.49384E-14
 -1       962 7.45384E-03 2.06815E-04-3.75176E-14
 -1       963 7.73401E-03 2.01125E-04-4.01747E-14
 -1       964 8.01287E-03 1.94775E-04-4.29025E-14
 -1       965 8.29040E-03 1.87891E-04-4.57022E-14
 -1       966 8.56678E-03 1.80711E-04-4.85755E-14
 -1       967 8.84246E-03 1.73630E-04-5.15122E-14
 -1       968 9.11840E-03 1.67288E-04-5.45091E-14
 -1       969 9.39625E-03 1.62739E-04-5.75613E-14
 -1       970 9.67871E-03 1.61676E-04-6.06702E-14
 -1       971 9.97006E-03 1.67312E-04-6.38306E-14
 -1       972 1.02772E-02 1.85581E-04-6.70385E-14
 -1       973 2.06553E-03-1.82904E-04-3.49569E-15
 -1       974 5.46697E-03 2.29480E-04-2.11754E-14
 -1       975 1.38089E-03-3.12586E-05-1.75890E-15
 -1       976 1.77674E-03-1.72745E-04-2.66602E-15
 -1       977 1.39070E-03 1.67264E-04-1.74461E-15
 -1       978 9.88558E-03-5.29729E-05-6.52433E-14
 -1       979 2.87857E-03 2.33334E-04-6.46446E-15
 -1       980 1.71155E-03 2.06220E-04-2.51131E-15
 -1       981 3.74506E-03 2.36062E-04-1.05074E-14
 -1       982 4.32057E-03 2.34779E-04-1.36939E-14
 -1       983 9.71262E-03-1.46702E-04-6.34202E-14
 -1       984 1.99992E-03 2.19366E-04-3.32441E-15
 -1       985 1.62924E-03 7.32027E-05-2.35990E-15
 -1       986 4.60772E-03 2.33736E-04-1.54277E-14
 -1       987 1.62906E-03-7.01672E-05-2.34327E-15
 -1       988 9.92461E-03 3.47542E-05-6.46060E-14
 -1       989 3.16781E-03 2.35242E-04-7.71071E-15
 -1       990 1.62748E-03 1.52678E-06-2.35825E-15
 -1       991 2.78590E-03-1.20700E-04-6.09164E-15
 -1       992 3.07632E-03-1.21915E-04-7.29794E-15
 -1       993 3.36634E-03-1.22429E-04-8.60678E-15
 -1       994 3.65585E-03-1.22460E-04-1.00149E-14
 -1       995 3.94479E-03-1.22167E-04-1.15194E-14
 -1       996 4.23318E-03-1.21660E-04-1.31213E-14
 -1       997 4.52102E-03-1.21004E-04-1.48173E-14
 -1       998 4.80835E-03-1.20237E-04-1.66050E-14
 -1       999 5.09516E-03-1.19369E-04-1.84837E-14
 -1      1000 5.38147E-03-1.18396E-04-2.04517E-14
 -1      1001 5.66722E-03-1.17299E-04-2.25055E-14
 -1      1002 5.95236E-03-1.16051E-04-2.46453E-14
 -1      1003 6.23675E-03-1.14627E-04-2.68701E-14
 -1      1004 6.52024E-03-1.13007E-04-2.91770E-14
 -1      1005 6.80259E-03-1.11185E-04-3.15668E-14
 -1      1006 7.08349E-03-1.09185E-04-3.40352E-14
 -1      1007 7.36258E-03-1.07075E-04-3.65826E-14
 -1      1008 7.63936E-03-1.04991E-04-3.92064E-14
 -1      1009 7.91324E-03-1.03154E-04-4.19057E-14
 -1      1010 8.18352E-03-1.01904E-04-4.46750E-14
 -1      1011 8.44930E-03-1.01715E-04-4.75160E-14
 -1      1012 8.70952E-03-1.03207E-04-5.04181E-14
 -1      1013 8.96280E-03-1.07135E-04-5.33771E-14
 -1      1014 9.20734E-03-1.14309E-04-5.63929E-14
 -1      1015 9.44070E-03-1.25421E-04-5.94640E-14
 -1      1016 9.67159E-03-8.19035E-05-6.27425E-14
 -1      1017 2.58903E-03 2.29818E-04-5.32249E-15
 -1      1018 6.17913E-03 1.51772E-04-2.65583E-14
 -1      1019 5.89444E-03 1.53471E-04-2.43461E-14
 -1      1020 6.74608E-03 1.47283E-04-3.12234E-14
 -1      1021 7.02796E-03 1.44334E-04-3.36791E-14
 -1      1022 7.30850E-03 1.40807E-04-3.62154E-14
 -1      1023 7.58741E-03 1.36619E-04-3.88326E-14
 -1      1024 7.86443E-03 1.31699E-04-4.15235E-14
 -1      1025 8.13934E-03 1.25983E-04-4.42855E-14
 -1      1026 8.41198E-03 1.19428E-04-4.71163E-14
 -1      1027 8.68234E-03 1.12028E-04-5.00197E-14
 -1      1028 8.95068E-03 1.03835E-04-5.29836E-14
 -1      1029 9.21772E-03 9.50327E-05-5.60031E-14
 -1      1030 9.48491E-03 8.61995E-05-5.90805E-14
 -1      1031 9.67174E-03-1.35016E-05-6.21237E-14
 -1      1032 1.66892E-03 1.38602E-04-2.44060E-15
 -1      1033 3.45665E-03 2.36030E-04-9.05858E-15
 -1      1034 5.32325E-03 1.56117E-04-2.01693E-14
 -1      1035 5.60912E-03 1.54899E-04-2.22164E-14
 -1      1036 1.91697E-03-7.54193E-05-3.12842E-15
 -1      1037 4.75005E-03 1.58084E-04-1.63416E-14
 -1      1038 2.20665E-03-7.91378E-05-4.02152E-15
 -1      1039 2.29943E-03 2.24057E-04-4.28656E-15
 -1      1040 5.03688E-03 1.57169E-04-1.82110E-14
 -1      1041 6.46306E-03 1.49735E-04-2.88508E-14
 -1      1042 2.49618E-03-1.00046E-04-5.00555E-15
 -1      1043 9.67765E-03 6.98535E-05-6.14082E-14
 -1      1044 3.01858E-03 1.58849E-04-7.10089E-15
 -1      1045 3.88664E-03 1.59949E-04-1.12900E-14
 -1      1046 1.89504E-03 1.02845E-04-3.07912E-15
 -1      1047 4.17495E-03 1.59509E-04-1.28804E-14
 -1      1048 1.94654E-03 1.60430E-04-3.20474E-15
 -1      1049 2.72836E-03 1.56944E-04-5.90622E-15
 -1      1050 4.46274E-03 1.58870E-04-1.45645E-14
 -1      1051 1.89215E-03 2.60131E-05-3.08224E-15
 -1      1052 3.30843E-03 1.59800E-04-8.39634E-15
 -1      1053 3.59781E-03 1.60100E-04-9.79442E-15
 -1      1054 9.49455E-03 7.46409E-06-5.97928E-14
 -1      1055 3.21963E-03-4.61460E-05-7.98078E-15
 -1      1056 3.50972E-03-4.62094E-05-9.34269E-15
 -1      1057 3.79925E-03-4.61095E-05-1.08033E-14
 -1      1058 4.08817E-03-4.59084E-05-1.23577E-14
 -1      1059 4.37650E-03-4.56361E-05-1.40093E-14
 -1      1060 4.66425E-03-4.53141E-05-1.57534E-14
 -1      1061 4.95144E-03-4.49524E-05-1.75891E-14
 -1      1062 5.23807E-03-4.45533E-05-1.95154E-14
 -1      1063 5.52411E-03-4.41146E-05-2.15287E-14
 -1      1064 5.80952E-03-4.36322E-05-2.36260E-14
 -1      1065 6.09419E-03-4.31035E-05-2.58114E-14
 -1      1066 6.37797E-03-4.25322E-05-2.80782E-14
 -1      1067 6.66064E-03-4.19342E-05-3.04265E-14
 -1      1068 6.94195E-03-4.13456E-05-3.28571E-14
 -1      1069 7.22154E-03-4.08340E-05-3.53676E-14
 -1      1070 7.49899E-03-4.05128E-05-3.79545E-14
 -1      1071 7.77378E-03-4.05584E-05-4.06154E-14
 -1      1072 8.04530E-03-4.12307E-05-4.33506E-14
 -1      1073 8.31282E-03-4.28931E-05-4.61594E-14
 -1      1074 8.57550E-03-4.60296E-05-4.90338E-14
 -1      1075 8.83229E-03-5.12506E-05-5.19664E-14
 -1      1076 9.08185E-03-5.93119E-05-5.49588E-14
 -1      1077 9.32238E-03-7.09199E-05-5.80048E-14
 -1      1078 4.60560E-03 8.31285E-05-1.54369E-14
 -1      1079 6.32023E-03 7.91055E-05-2.76767E-14
 -1      1080 7.16557E-03 7.43344E-05-3.49179E-14
 -1      1081 6.88518E-03 7.62891E-05-3.24232E-14
 -1      1082 7.72052E-03 6.88135E-05-4.01440E-14
 -1      1083 7.99431E-03 6.49607E-05-4.28691E-14
 -1      1084 8.26509E-03 6.01282E-05-4.56634E-14
 -1      1085 8.53248E-03 5.40719E-05-4.85287E-14
 -1      1086 8.79613E-03 4.65029E-05-5.14582E-14
 -1      1087 9.05586E-03 3.71121E-05-5.44473E-14
 -1      1088 9.27730E-03 2.30686E-05-5.70977E-14
 -1      1089 2.24646E-03 1.63468E-04-4.14902E-15
 -1      1090 6.60331E-03 7.78517E-05-3.00077E-14
 -1      1091 2.92905E-03-4.58571E-05-6.71979E-15
 -1      1092 2.18177E-03 2.73833E-05-3.97092E-15
 -1      1093 7.44414E-03 7.18850E-05-3.74945E-14
 -1      1094 5.75129E-03 8.09455E-05-2.32565E-14
 -1      1095 5.46573E-03 8.16314E-05-2.11708E-14
 -1      1096 2.48731E-03 1.60957E-04-4.99093E-15
 -1      1097 5.17957E-03 8.22101E-05-1.91698E-14
 -1      1098 4.89285E-03 8.27051E-05-1.72583E-14
 -1      1099 6.03616E-03 8.01183E-05-2.54254E-14
 -1      1100 3.74048E-03 8.38653E-05-1.05338E-14
 -1      1101 3.16086E-03 8.34496E-05-7.74281E-15
 -1      1102 2.47048E-03 9.92512E-06-4.95727E-15
 -1      1103 4.31780E-03 8.34789E-05-1.37090E-14
 -1      1104 4.02943E-03 8.37385E-05-1.20745E-14
 -1      1105 2.87032E-03 8.26730E-05-6.49900E-15
 -1      1106 2.69965E-03-1.76404E-05-5.80814E-15
 -1      1107 2.19511E-03 1.03688E-04-4.00470E-15
 -1      1108 3.36462E-03 3.00845E-05-8.67472E-15
 -1      1109 2.43635E-03 1.00006E-04-4.83059E-15
 -1      1110 3.03229E-03 6.00083E-06-7.17393E-15
 -1      1111 2.65328E-03 9.17171E-05-5.63553E-15
 -1      1112 0.00000E+00 0.00000E+00 0.00000E+00
 -1      1113 0.00000E+00 0.00000E+00 0.00000E+00
 -1      1114 0.00000E+00 0.00000E+00 0.00000E+00
 -1      1115 0.00000E+00 0.00000E+00 0.00000E+00
 -1      1116 0.00000E+00 0.00000E+00 0.00000E+00
 -1      1117 0.00000E+00 0.00000E+00 0.00000E+00
 -1      1118 0.00000E+00 0.00000E+00 0.00000E+00
 -1      1119 0.00000E+00 0.00000E+00 0.00000E+00
 -1      1120 0.00000E+00 0.00000E+00 0.00000E+00
 -1      1121 0.00000E+00 0.00000E+00 0.00000E+00
 -1      1122 0.00000E+00 0.00000E+00 0.00000E+00
 -1      1123 0.00000E+00 0.00000E+00 0.00000E+00
 -1      1124 0.00000E+00 0.00000E+00 0.00000E+00
 -1      1125 0.00000E+00 0.00000E+00 0.00000E+00
 -1      1126 0.00000E+00 0.00000E+00 0.00000E+00
 -1      1127 0.00000E+00 0.00000E+00 0.00000E+00
 -1      1128 0.00000E+00 0.00000E+00 0.00000E+00
 -1      1129 2.11679E-04-1.48332E-04 2.23075E-17
 -1      1130 5.51679E-04-3.37512E-04-6.74916E-18
 -1      1131 8.33534E-04-4.59006E-04-1.46489E-16
 -1      1132 1.10315E-03-5.40694E-04-4.15995E-16
 -1      1133 1.36861E-03-5.97957E-04-8.11241E-16
 -1      1134 1.63348E-03-6.38693E-04-1.32897E-15
 -1      1135 1.89960E-03-6.67552E-04-1.96754E-15
 -1      1136 2.16783E-03-6.87659E-04-2.72692E-15
 -1      1137 2.43845E-03-7.01301E-04-3.60539E-15
 -1      1138 2.71147E-03-7.10208E-04-4.60303E-15
 -1      1139 2.98670E-03-7.15690E-04-5.71796E-15
 -1      1140 3.26391E-03-7.18734E-04-6.94295E-15
 -1      1141 3.54282E-03-7.20072E-04-8.27383E-15
 -1      1142 3.82314E-03-7.20233E-04-9.70770E-15
 -1      1143 4.10463E-03-7.19591E-04-1.12390E-14
 -1      1144 4.38705E-03-7.18392E-04-1.28711E-14
 -1      1145 4.67021E-03-7.16787E-04-1.46041E-14
 -1      1146 4.95396E-03-7.14849E-04-1.64316E-14
 -1      1147 5.23820E-03-7.12595E-04-1.83518E-14
 -1      1148 5.52288E-03-7.09994E-04-2.03567E-14
 -1      1149 5.80799E-03-7.06984E-04-2.24473E-14
 -1      1150 6.09360E-03-7.03481E-04-2.46217E-14
 -1      1151 6.37984E-03-6.99387E-04-2.68803E-14
 -1      1152 6.66694E-03-6.94611E-04-2.92253E-14
 -1      1153 6.95524E-03-6.89080E-04-3.16561E-14
 -1      1154 7.24520E-03-6.82770E-04-3.41678E-14
 -1      1155 7.53746E-03-6.75740E-04-3.67562E-14
 -1      1156 7.83286E-03-6.68191E-04-3.94225E-14
 -1      1157 8.13250E-03-6.60541E-04-4.21694E-14
 -1      1158 8.43777E-03-6.53547E-04-4.49895E-14
 -1      1159 8.75037E-03-6.48474E-04-4.78752E-14
 -1      1160 9.07231E-03-6.47336E-04-5.08234E-14
 -1      1161 9.40583E-03-6.53222E-04-5.38283E-14
 -1      1162 9.75303E-03-6.70693E-04-5.68926E-14
 -1      1163 1.01153E-02-7.06144E-04-6.00080E-14
 -1      1164 1.04922E-02-7.67820E-04-6.31657E-14
 -1      1165 1.08796E-02-8.64825E-04-6.63672E-14
 -1      1166 1.12681E-02-1.00401E-03-6.96073E-14
 -1      1167 1.16416E-02-1.18379E-03-7.28784E-14
 -1      1168 1.19809E-02-1.38621E-03-7.61716E-14
 -1      1169 1.22714E-02-1.57345E-03-7.95132E-14
 -1      1170 1.25157E-02-1.69742E-03-8.29136E-14
 -1      1171 1.27364E-02-1.72314E-03-8.63671E-14
 -1      1172 1.29654E-02-1.64934E-03-8.98694E-14
 -1      1173 1.32238E-02-1.50703E-03-9.34278E-14
 -1      1174 1.35123E-02-1.33715E-03-9.70303E-14
 -1      1175 1.38168E-02-1.16788E-03-1.00666E-13
 -1      1176 1.41209E-02-1.00664E-03-1.04310E-13
 -1      1177 1.44151E-02-8.45712E-04-1.07969E-13
 -1      1178 1.46937E-02-6.80121E-04-1.11577E-13
 -1      1179 2.28438E-04 1.60711E-04 2.06812E-17
 -1      1180 5.53849E-04 3.42143E-04-2.51128E-17
 -1      1181 8.34462E-04 4.61170E-04-1.89071E-16
 -1      1182 1.10405E-03 5.42378E-04-4.86468E-16
 -1      1183 1.36951E-03 5.99637E-04-9.13752E-16
 -1      1184 1.63443E-03 6.40462E-04-1.46812E-15
 -1      1185 1.90061E-03 6.69427E-04-2.14764E-15
 -1      1186 2.16888E-03 6.89651E-04-2.94835E-15
 -1      1187 2.43953E-03 7.03421E-04-3.86907E-15
 -1      1188 2.71256E-03 7.12460E-04-4.90836E-15
 -1      1189 2.98781E-03 7.18076E-04-6.06526E-15
 -1      1190 3.26502E-03 7.21256E-04-7.33426E-15
 -1      1191 3.54394E-03 7.22729E-04-8.71231E-15
 -1      1192 3.82427E-03 7.23027E-04-1.01971E-14
 -1      1193 4.10576E-03 7.22521E-04-1.17829E-14
 -1      1194 4.38819E-03 7.21459E-04-1.34728E-14
 -1      1195 4.67137E-03 7.19992E-04-1.52580E-14
 -1      1196 4.95514E-03 7.18197E-04-1.71350E-14
 -1      1197 5.23941E-03 7.16095E-04-1.91057E-14
 -1      1198 5.52412E-03 7.13661E-04-2.11590E-14
 -1      1199 5.80929E-03 7.10846E-04-2.32857E-14
 -1      1200 6.09496E-03 7.07583E-04-2.54887E-14
 -1      1201 6.38128E-03 7.03804E-04-2.77692E-14
 -1      1202 6.66846E-03 6.99458E-04-3.01380E-14
 -1      1203 6.95678E-03 6.94534E-04-3.25873E-14
 -1      1204 7.24666E-03 6.89095E-04-3.51193E-14
 -1      1205 7.53861E-03 6.83315E-04-3.77354E-14
 -1      1206 7.83323E-03 6.77534E-04-4.04235E-14
 -1      1207 8.13124E-03 6.72324E-04-4.31816E-14
 -1      1208 8.43340E-03 6.68569E-04-4.60199E-14
 -1      1209 8.74042E-03 6.67542E-04-4.89348E-14
 -1      1210 9.05287E-03 6.70973E-04-5.19124E-14
 -1      1211 9.37091E-03 6.81060E-04-5.49402E-14
 -1      1212 9.69398E-03 7.00368E-04-5.80270E-14
 -1      1213 1.00205E-02 7.31501E-04-6.11819E-14
 -1      1214 1.03473E-02 7.76454E-04-6.44034E-14
 -1      1215 1.06698E-02 8.35530E-04-6.76877E-14
 -1      1216 1.09818E-02 9.05942E-04-7.10327E-14
 -1      1217 1.12770E-02 9.80506E-04-7.44213E-14
 -1      1218 1.15505E-02 1.04729E-03-7.78382E-14
 -1      1219 1.18013E-02 1.09118E-03-8.12749E-14
 -1      1220 1.20337E-02 1.09762E-03-8.47372E-14
 -1      1221 1.22564E-02 1.05730E-03-8.82242E-14
 -1      1222 1.24799E-02 9.69265E-04-9.17205E-14
 -1      1223 1.27128E-02 8.40539E-04-9.52372E-14
 -1      1224 1.29591E-02 6.82520E-04-9.87959E-14
 -1      1225 1.32189E-02 5.06531E-04-1.02387E-13
 -1      1226 1.34895E-02 3.21127E-04-1.05992E-13
 -1      1227 1.37681E-02 1.32166E-04-1.09599E-13
 -1      1228 1.40449E-02-5.10550E-05-1.13121E-13
 -1      1229 1.42714E-02-1.81426E-04-1.14787E-13
 -1      1230 1.44509E-02-2.67178E-04-1.14705E-13
 -1      1231 1.46317E-02-3.57167E-04-1.14617E-13
 -1      1232 1.48223E-02-4.49494E-04-1.14511E-13
 -1      1233 1.50292E-02-5.36894E-04-1.14417E-13
 -1      1234 1.52511E-02-6.07084E-04-1.14334E-13
 -1      1235 1.54800E-02-6.47221E-04-1.14260E-13
 -1      1236 1.56959E-02-6.46035E-04-1.14185E-13
 -1      1237 1.58647E-02-6.00788E-04-1.14096E-13
 -1      1238 1.59544E-02-5.23214E-04-1.14003E-13
 -1      1239 1.59476E-02-4.37301E-04-1.13912E-13
 -1      1240 1.58508E-02-3.70472E-04-1.13827E-13
 -1      1241 1.56887E-02-3.40392E-04-1.13749E-13
 -1      1242 1.54915E-02-3.52367E-04-1.13671E-13
 -1      1243 1.52875E-02-4.00486E-04-1.13601E-13
 -1      1244 1.50934E-02-4.72376E-04-1.13516E-13
 -1      1245 1.49145E-02-5.54802E-04-1.13406E-13
 -1      1246 1.50086E-02-3.26114E-04-9.32415E-14
 -1      1247 1.48442E-02-1.29706E-04-9.29007E-14
 -1      1248 1.45462E-02 7.06325E-05-9.21660E-14
 -1      1249 1.41644E-02 2.59433E-04-9.11311E-14
 -1      1250 1.37110E-02 4.32813E-04-8.97623E-14
 -1      1251 1.32030E-02 5.71591E-04-8.80802E-14
 -1      1252 1.26991E-02 6.47996E-04-8.63039E-14
 -1      1253 1.21950E-02 6.52197E-04-8.44753E-14
 -1      1254 1.17190E-02 5.92932E-04-8.27396E-14
 -1      1255 1.12839E-02 4.82269E-04-8.11623E-14
 -1      1256 1.08834E-02 3.36563E-04-7.97471E-14
 -1      1257 1.05638E-02 1.79575E-04-7.86537E-14
 -1      1258 1.03255E-02 1.33250E-05-7.78349E-14
 -1      1259 1.01971E-02-1.54709E-04-7.73729E-14
 -1      1260 1.01940E-02-3.23825E-04-7.72886E-14
 -1      1261 1.03096E-02-4.98040E-04-7.75672E-14
 -1      1262 1.05296E-02-6.79670E-04-7.81842E-14
 -1      1263 1.08390E-02-8.69194E-04-7.91065E-14
 -1      1264 1.12285E-02-1.06014E-03-8.03365E-14
 -1      1265 1.16861E-02-1.23478E-03-8.18701E-14
 -1      1266 1.21473E-02-1.35309E-03-8.34785E-14
 -1      1267 1.26130E-02-1.40488E-03-8.51343E-14
 -1      1268 1.30780E-02-1.39042E-03-8.67929E-14
 -1      1269 1.35217E-02-1.31444E-03-8.83413E-14
 -1      1270 1.39510E-02-1.18847E-03-8.97839E-14
 -1      1271 1.43353E-02-1.03354E-03-9.10205E-14
 -1      1272 1.46610E-02-8.62058E-04-9.20286E-14
 -1      1273 1.49035E-02-6.79954E-04-9.27734E-14
 -1      1274 1.50227E-02-5.03839E-04-9.31796E-14
 -1      1275 1.66712E-04-1.10339E-04 3.15774E-18
 -1      1276 1.12548E-04-5.69667E-05-2.15621E-17
 -1      1277 1.17631E-04-6.75762E-05-1.48536E-17
 -1      1278 1.08419E-04-4.34838E-05-3.28784E-17
 -1      1279 1.10283E-04-4.95960E-05-2.93412E-17
 -1      1280 2.26336E-04-1.07607E-04-6.86436E-17
 -1      1281 1.06848E-04-3.36126E-05-3.95734E-17
 -1      1282 1.07693E-04-3.83377E-05-3.75269E-17
 -1      1283 2.19104E-04-8.24566E-05-8.94060E-17
 -1      1284 1.06065E-04-2.53428E-05-4.39373E-17
 -1      1285 1.06499E-04-2.93747E-05-4.27447E-17
 -1      1286 2.15882E-04-6.32700E-05-1.02498E-16
 -1      1287 1.05655E-04-1.80866E-05-4.65258E-17
 -1      1288 1.05886E-04-2.16538E-05-4.58753E-17
 -1      1289 2.14207E-04-4.71760E-05-1.10955E-16
 -1      1290 1.05433E-04-1.12362E-05-4.85045E-17
 -1      1291 1.05557E-04-1.46208E-05-4.81521E-17
 -1      1292 2.13284E-04-3.27455E-05-1.16660E-16
 -1      1293 1.05333E-04-4.68785E-06-4.93448E-17
 -1      1294 1.05386E-04-7.94042E-06-4.91415E-17
 -1      1295 2.12785E-04-1.91855E-05-1.20089E-16
 -1      1296 1.05321E-04 1.74253E-06-4.99411E-17
 -1      1297 1.05319E-04-1.47012E-06-4.98055E-17
 -1      1298 2.12569E-04-6.15884E-06-1.21932E-16
 -1      1299 1.05394E-04 8.22262E-06-4.99140E-17
 -1      1300 1.05337E-04 4.96354E-06-4.99275E-17
 -1      1301 2.12577E-04 6.70688E-06-1.22799E-16
 -1      1302 1.05573E-04 1.49284E-05-4.93312E-17
 -1      1303 1.05445E-04 1.15291E-05-4.95345E-17
 -1      1304 2.12810E-04 1.97596E-05-1.22257E-16
 -1      1305 1.05909E-04 2.19461E-05-4.78946E-17
 -1      1306 1.05672E-04 1.83553E-05-4.83554E-17
 -1      1307 2.13325E-04 3.32594E-05-1.20224E-16
 -1      1308 1.06535E-04 2.98121E-05-4.52790E-17
 -1      1309 1.06095E-04 2.57354E-05-4.61599E-17
 -1      1310 2.14270E-04 4.77852E-05-1.16091E-16
 -1      1311 1.07728E-04 3.89110E-05-4.10777E-17
 -1      1312 1.06876E-04 3.41172E-05-4.27447E-17
 -1      1313 2.15980E-04 6.41972E-05-1.09233E-16
 -1      1314 1.10271E-04 5.03390E-05-3.34612E-17
 -1      1315 1.08431E-04 4.41546E-05-3.67680E-17
 -1      1316 2.19213E-04 8.36957E-05-9.78357E-17
 -1      1317 1.16947E-04 6.76143E-05-2.01526E-17
 -1      1318 1.12195E-04 5.77685E-05-2.66443E-17
 -1      1319 2.26332E-04 1.09434E-04-7.89028E-17
 -1      1320 1.57590E-04 1.09858E-04 1.17907E-18
 -1      1321 1.35672E-04 8.60870E-05-1.26445E-17
 -1      1322 2.56059E-04 1.52084E-04-5.58500E-17
 -1      1323 3.35109E-04 2.20733E-04-2.12910E-17
 -1      1324 4.21575E-04-2.61732E-04-2.81079E-17
 -1      1325 5.74687E-04-3.36791E-04-7.32650E-17
 -1      1326 7.21890E-04-3.97393E-04-1.51883E-16
 -1      1327 8.65075E-04-4.46689E-04-2.61794E-16
 -1      1328 6.12127E-04-3.30882E-04-1.50663E-16
 -1      1329 1.00512E-03-4.87764E-04-4.02022E-16
 -1      1330 1.14298E-03-5.21756E-04-5.73028E-16
 -1      1331 9.05389E-04-4.31580E-04-3.82114E-16
 -1      1332 1.27949E-03-5.50536E-04-7.74676E-16
 -1      1333 1.41516E-03-5.74582E-04-1.00760E-15
 -1      1334 1.18785E-03-5.01009E-04-7.34493E-16
 -1      1335 1.55043E-03-5.94959E-04-1.27010E-15
 -1      1336 1.68555E-03-6.12001E-04-1.56281E-15
 -1      1337 1.46482E-03-5.49799E-04-1.20764E-15
 -1      1338 1.82076E-03-6.26337E-04-1.88539E-15
 -1      1339 1.95617E-03-6.38259E-04-2.23785E-15
 -1      1340 1.73955E-03-5.84133E-04-1.80018E-15
 -1      1341 2.09191E-03-6.48171E-04-2.62011E-15
 -1      1342 2.22802E-03-6.56322E-04-3.03236E-15
 -1      1343 2.01390E-03-6.07993E-04-2.51130E-15
 -1      1344 2.36456E-03-6.62988E-04-3.47426E-15
 -1      1345 2.50153E-03-6.68374E-04-3.94464E-15
 -1      1346 2.28886E-03-6.24196E-04-3.34063E-15
 -1      1347 2.63895E-03-6.72677E-04-4.44546E-15
 -1      1348 2.77680E-03-6.76059E-04-4.97515E-15
 -1      1349 2.56491E-03-6.34819E-04-4.28657E-15
 -1      1350 2.91509E-03-6.78662E-04-5.53218E-15
 -1      1351 3.05379E-03-6.80614E-04-6.11804E-15
 -1      1352 2.84223E-03-6.41417E-04-5.34696E-15
 -1      1353 3.19288E-03-6.82015E-04-6.73096E-15
 -1      1354 3.33234E-03-6.82964E-04-7.37062E-15
 -1      1355 3.12084E-03-6.45157E-04-6.51908E-15
 -1      1356 3.47214E-03-6.83531E-04-8.03666E-15
 -1      1357 3.61226E-03-6.83789E-04-8.72849E-15
 -1      1358 3.40066E-03-6.46903E-04-7.79933E-15
 -1      1359 3.75267E-03-6.83785E-04-9.44591E-15
 -1      1360 3.89335E-03-6.83573E-04-1.01886E-14
 -1      1361 3.68156E-03-6.47285E-04-9.18420E-15
 -1      1362 4.03427E-03-6.83183E-04-1.09552E-14
 -1      1363 4.17541E-03-6.82653E-04-1.17468E-14
 -1      1364 3.96341E-03-6.46747E-04-1.06707E-14
 -1      1365 4.31675E-03-6.81999E-04-1.25634E-14
 -1      1366 4.45827E-03-6.81246E-04-1.34053E-14
 -1      1367 4.24606E-03-6.45589E-04-1.22556E-14
 -1      1368 4.59995E-03-6.80400E-04-1.42712E-14
 -1      1369 4.74177E-03-6.79476E-04-1.51613E-14
 -1      1370 4.52937E-03-6.44001E-04-1.39393E-14
 -1      1371 4.88373E-03-6.78471E-04-1.60753E-14
 -1      1372 5.02582E-03-6.77395E-04-1.70116E-14
 -1      1373 4.81324E-03-6.42083E-04-1.57186E-14
 -1      1374 5.16802E-03-6.76238E-04-1.79712E-14
 -1      1375 5.31033E-03-6.75002E-04-1.89523E-14
 -1      1376 5.09759E-03-6.39868E-04-1.75918E-14
 -1      1377 5.45275E-03-6.73673E-04-1.99543E-14
 -1      1378 5.59528E-03-6.72251E-04-2.09783E-14
 -1      1379 5.38238E-03-6.37338E-04-1.95530E-14
 -1      1380 5.73792E-03-6.70715E-04-2.20228E-14
 -1      1381 5.88069E-03-6.69065E-04-2.30898E-14
 -1      1382 5.66760E-03-6.34431E-04-2.15991E-14
 -1      1383 6.02360E-03-6.67276E-04-2.41772E-14
 -1      1384 6.16665E-03-6.65347E-04-2.52848E-14
 -1      1385 5.95329E-03-6.31058E-04-2.37320E-14
 -1      1386 6.30988E-03-6.63251E-04-2.64151E-14
 -1      1387 6.45331E-03-6.60990E-04-2.75661E-14
 -1      1388 6.23955E-03-6.27111E-04-2.59504E-14
 -1      1389 6.59698E-03-6.58534E-04-2.87381E-14
 -1      1390 6.74092E-03-6.55891E-04-2.99316E-14
 -1      1391 6.52654E-03-6.22472E-04-2.82522E-14
 -1      1392 6.88517E-03-6.53033E-04-3.11453E-14
 -1      1393 7.02980E-03-6.49974E-04-3.23822E-14
 -1      1394 6.81451E-03-6.17032E-04-3.06377E-14
 -1      1395 7.17486E-03-6.46689E-04-3.36382E-14
 -1      1396 7.32042E-03-6.43211E-04-3.49112E-14
 -1      1397 7.10377E-03-6.10709E-04-3.31061E-14
 -1      1398 7.46658E-03-6.39518E-04-3.62049E-14
 -1      1399 7.61342E-03-6.35668E-04-3.75192E-14
 -1      1400 7.39478E-03-6.03477E-04-3.56557E-14
 -1      1401 7.76104E-03-6.31652E-04-3.88525E-14
 -1      1402 7.90958E-03-6.27562E-04-4.02047E-14
 -1      1403 7.68811E-03-5.95414E-04-3.82824E-14
 -1      1404 8.05916E-03-6.23415E-04-4.15761E-14
 -1      1405 8.20993E-03-6.19353E-04-4.29678E-14
 -1      1406 7.98449E-03-5.86763E-04-4.09859E-14
 -1      1407 8.36206E-03-6.15432E-04-4.43758E-14
 -1      1408 8.51573E-03-6.11866E-04-4.57998E-14
 -1      1409 8.28483E-03-5.78034E-04-4.37631E-14
 -1      1410 8.67113E-03-6.08783E-04-4.72419E-14
 -1      1411 8.82848E-03-6.06492E-04-4.87006E-14
 -1      1412 8.59023E-03-5.70145E-04-4.66104E-14
 -1      1413 8.98798E-03-6.05235E-04-5.01740E-14
 -1      1414 9.14986E-03-6.05448E-04-5.16611E-14
 -1      1415 8.90194E-03-5.64636E-04-4.95241E-14
 -1      1416 9.31433E-03-6.07553E-04-5.31626E-14
 -1      1417 9.48161E-03-6.12144E-04-5.46778E-14
 -1      1418 9.22133E-03-5.63969E-04-5.24967E-14
 -1      1419 9.65185E-03-6.19906E-04-5.62089E-14
 -1      1420 9.82517E-03-6.31613E-04-5.77530E-14
 -1      1421 9.54975E-03-5.71921E-04-5.55274E-14
 -1      1422 1.00016E-02-6.48291E-04-5.93084E-14
 -1      1423 1.01812E-02-6.70877E-04-6.08753E-14
 -1      1424 9.88824E-03-5.94039E-04-5.86115E-14
 -1      1425 1.03635E-02-7.00742E-04-6.24529E-14
 -1      1426 1.05483E-02-7.38870E-04-6.40414E-14
 -1      1427 1.02371E-02-6.37980E-04-6.17411E-14
 -1      1428 1.07350E-02-7.86764E-04-6.56408E-14
 -1      1429 1.09225E-02-8.45115E-04-6.72488E-14
 -1      1430 1.05953E-02-7.13276E-04-6.49154E-14
 -1      1431 1.11099E-02-9.14921E-04-6.88672E-14
 -1      1432 1.12955E-02-9.95913E-04-7.04970E-14
 -1      1433 1.09597E-02-8.29580E-04-6.81315E-14
 -1      1434 1.14778E-02-1.08743E-03-7.21297E-14
 -1      1435 1.16550E-02-1.18717E-03-7.37686E-14
 -1      1436 1.13239E-02-9.92109E-04-7.13819E-14
 -1      1437 1.18254E-02-1.29167E-03-7.54196E-14
 -1      1438 1.19876E-02-1.39596E-03-7.70779E-14
 -1      1439 1.16787E-02-1.19351E-03-7.46646E-14
 -1      1440 1.21409E-02-1.49374E-03-7.87485E-14
 -1      1441 1.22856E-02-1.57851E-03-8.04337E-14
 -1      1442 1.20136E-02-1.40529E-03-7.79848E-14
 -1      1443 1.24223E-02-1.64368E-03-8.21314E-14
 -1      1444 1.25535E-02-1.68435E-03-8.38441E-14
 -1      1445 1.23228E-02-1.57828E-03-8.13522E-14
 -1      1446 1.26814E-02-1.69768E-03-8.55701E-14
 -1      1447 1.28093E-02-1.68346E-03-8.73068E-14
 -1      1448 1.26113E-02-1.66159E-03-8.47721E-14
 -1      1449 1.29393E-02-1.64438E-03-8.90563E-14
 -1      1450 1.30736E-02-1.58480E-03-9.08186E-14
 -1      1451 1.28941E-02-1.63267E-03-8.82452E-14
 -1      1452 1.32130E-02-1.51069E-03-9.25960E-14
 -1      1453 1.33573E-02-1.42759E-03-9.43864E-14
 -1      1454 1.31860E-02-1.51166E-03-9.17693E-14
 -1      1455 1.35061E-02-1.34068E-03-9.61845E-14
 -1      1456 1.36578E-02-1.25367E-03-9.79881E-14
 -1      1457 1.34910E-02-1.34390E-03-9.53405E-14
 -1      1458 1.38112E-02-1.16863E-03-9.98032E-14
 -1      1459 1.39645E-02-1.08657E-03-1.01626E-13
 -1      1460 1.38036E-02-1.16948E-03-9.89477E-14
 -1      1461 1.41169E-02-1.00670E-03-1.03448E-13
 -1      1462 1.42673E-02-9.28116E-04-1.05272E-13
 -1      1463 1.41147E-02-1.00604E-03-1.02582E-13
 -1      1464 1.44154E-02-8.48740E-04-1.07105E-13
 -1      1465 1.45613E-02-7.67219E-04-1.08947E-13
 -1      1466 1.44178E-02-8.50228E-04-1.06238E-13
 -1      1467 1.47786E-02-6.38974E-04-1.11637E-13
 -1      1468 1.47850E-02-6.46212E-04-1.10762E-13
 -1      1469 6.43132E-04 3.72003E-04-1.24006E-16
 -1      1470 4.92991E-04 3.03682E-04-5.57958E-17
 -1      1471 4.44919E-04 2.65883E-04-8.15049E-17
 -1      1472 9.28752E-04 4.71967E-04-3.59088E-16
 -1      1473 7.87871E-04 4.26475E-04-2.25392E-16
 -1      1474 7.44809E-04 3.90701E-04-2.55031E-16
 -1      1475 1.20368E-03 5.41397E-04-7.22553E-16
 -1      1476 1.06700E-03 5.09712E-04-5.24767E-16
 -1      1477 1.03089E-03 4.76145E-04-5.57009E-16
 -1      1478 1.47427E-03 5.90612E-04-1.21295E-15
 -1      1479 1.33920E-03 5.68143E-04-9.51930E-16
 -1      1480 1.30884E-03 5.35982E-04-9.84428E-16
 -1      1481 1.74385E-03 6.25536E-04-1.82818E-15
 -1      1482 1.60901E-03 6.09619E-04-1.50509E-15
 -1      1483 1.58310E-03 5.78292E-04-1.53638E-15
 -1      1484 2.01411E-03 6.50040E-04-2.56640E-15
 -1      1485 1.87881E-03 6.38918E-04-2.18190E-15
 -1      1486 1.85631E-03 6.08053E-04-2.21146E-15
 -1      1487 2.28584E-03 6.66872E-04-3.42398E-15
 -1      1488 2.14975E-03 6.59283E-04-2.98042E-15
 -1      1489 2.12987E-03 6.28652E-04-3.00718E-15
 -1      1490 2.55938E-03 6.78079E-04-4.40042E-15
 -1      1491 2.42237E-03 6.73078E-04-3.89733E-15
 -1      1492 2.40448E-03 6.42540E-04-3.92125E-15
 -1      1493 2.83476E-03 6.85204E-04-5.49445E-15
 -1      1494 2.69684E-03 6.82075E-04-4.93298E-15
 -1      1495 2.68044E-03 6.51546E-04-4.95220E-15
 -1      1496 3.11190E-03 6.89410E-04-6.70231E-15
 -1      1497 2.97312E-03 6.87614E-04-6.08466E-15
 -1      1498 2.95783E-03 6.57047E-04-6.09898E-15
 -1      1499 3.39061E-03 6.91565E-04-8.01965E-15
 -1      1500 3.25107E-03 6.90701E-04-7.34710E-15
 -1      1501 3.23660E-03 6.60070E-04-7.35653E-15
 -1      1502 3.67069E-03 6.92303E-04-9.44633E-15
 -1      1503 3.53049E-03 6.92079E-04-8.71961E-15
 -1      1504 3.51662E-03 6.61376E-04-8.72239E-15
 -1      1505 3.95193E-03 6.92076E-04-1.09746E-14
 -1      1506 3.81118E-03 6.92288E-04-1.01980E-14
 -1      1507 3.79774E-03 6.61512E-04-1.01946E-14
 -1      1508 4.23412E-03 6.91195E-04-1.26052E-14
 -1      1509 4.09292E-03 6.91703E-04-1.17771E-14
 -1      1510 4.07978E-03 6.60859E-04-1.17675E-14
 -1      1511 4.51709E-03 6.89856E-04-1.43358E-14
 -1      1512 4.37552E-03 6.90574E-04-1.34586E-14
 -1      1513 4.36261E-03 6.59671E-04-1.34416E-14
 -1      1514 4.80069E-03 6.88171E-04-1.61605E-14
 -1      1515 4.65882E-03 6.89053E-04-1.52368E-14
 -1      1516 4.64609E-03 6.58099E-04-1.52116E-14
 -1      1517 5.08483E-03 6.86183E-04-1.80760E-14
 -1      1518 4.94270E-03 6.87214E-04-1.71067E-14
 -1      1519 4.93010E-03 6.56219E-04-1.70746E-14
 -1      1520 5.36943E-03 6.83887E-04-2.00821E-14
 -1      1521 5.22707E-03 6.85075E-04-1.90683E-14
 -1      1522 5.21460E-03 6.54046E-04-1.90289E-14
 -1      1523 5.65448E-03 6.81240E-04-2.21669E-14
 -1      1524 5.51190E-03 6.82609E-04-2.11151E-14
 -1      1525 5.49953E-03 6.51550E-04-2.10680E-14
 -1      1526 5.94001E-03 6.78175E-04-2.43263E-14
 -1      1527 5.79718E-03 6.79762E-04-2.32364E-14
 -1      1528 5.78491E-03 6.48672E-04-2.31853E-14
 -1      1529 6.22612E-03 6.74617E-04-2.65661E-14
 -1      1530 6.08299E-03 6.76459E-04-2.54368E-14
 -1      1531 6.07081E-03 6.45333E-04-2.53816E-14
 -1      1532 6.51296E-03 6.70496E-04-2.88847E-14
 -1      1533 6.36944E-03 6.72626E-04-2.77149E-14
 -1      1534 6.35733E-03 6.41451E-04-2.76559E-14
 -1      1535 6.80076E-03 6.65765E-04-3.12886E-14
 -1      1536 6.65672E-03 6.68201E-04-3.00765E-14
 -1      1537 6.64465E-03 6.36956E-04-3.00127E-14
 -1      1538 7.08985E-03 6.60434E-04-3.37750E-14
 -1      1539 6.94512E-03 6.63163E-04-3.25213E-14
 -1      1540 6.93302E-03 6.31815E-04-3.24511E-14
 -1      1541 7.38063E-03 6.54599E-04-3.63407E-14
 -1      1542 7.23500E-03 6.57558E-04-3.50471E-14
 -1      1543 7.22276E-03 6.26062E-04-3.49721E-14
 -1      1544 7.67359E-03 6.48489E-04-3.89891E-14
 -1      1545 7.52680E-03 6.51544E-04-3.76562E-14
 -1      1546 7.51428E-03 6.19838E-04-3.75748E-14
 -1      1547 7.96933E-03 6.42534E-04-4.17071E-14
 -1      1548 7.82108E-03 6.45441E-04-4.03384E-14
 -1      1549 7.80803E-03 6.13446E-04-4.02526E-14
 -1      1550 8.26847E-03 6.37430E-04-4.45012E-14
 -1      1551 8.11844E-03 6.39803E-04-4.30938E-14
 -1      1552 8.10457E-03 6.07421E-04-4.30021E-14
 -1      1553 8.57166E-03 6.34229E-04-4.73719E-14
 -1      1554 8.41952E-03 6.35495E-04-4.59273E-14
 -1      1555 8.40443E-03 6.02609E-04-4.58312E-14
 -1      1556 8.87942E-03 6.34420E-04-5.03124E-14
 -1      1557 8.72494E-03 6.33779E-04-4.88339E-14
 -1      1558 8.70814E-03 6.00259E-04-4.87326E-14
 -1      1559 9.19205E-03 6.39985E-04-5.33124E-14
 -1      1560 9.03511E-03 6.36390E-04-5.18059E-14
 -1      1561 9.01606E-03 6.02103E-04-5.16978E-14
 -1      1562 9.50935E-03 6.53375E-04-5.63645E-14
 -1      1563 9.35014E-03 6.45555E-04-5.48314E-14
 -1      1564 9.32827E-03 6.10390E-04-5.47194E-14
 -1      1565 9.83041E-03 6.77332E-04-5.94814E-14
 -1      1566 9.66949E-03 6.63910E-04-5.79137E-14
 -1      1567 9.64437E-03 6.27809E-04-5.77990E-14
 -1      1568 1.01532E-02 7.14435E-04-6.26649E-14
 -1      1569 9.99176E-03 6.94190E-04-6.10644E-14
 -1      1570 9.96322E-03 6.57206E-04-6.09432E-14
 -1      1571 1.04746E-02 7.66245E-04-6.59088E-14
 -1      1572 1.03144E-02 7.38594E-04-6.42798E-14
 -1      1573 1.02828E-02 7.00960E-04-6.41524E-14
 -1      1574 1.07902E-02 8.32013E-04-6.92165E-14
 -1      1575 1.06335E-02 7.97698E-04-6.75558E-14
 -1      1576 1.05999E-02 7.59899E-04-6.74222E-14
 -1      1577 1.10948E-02 9.07163E-04-7.25739E-14
 -1      1578 1.09442E-02 8.69009E-04-7.08891E-14
 -1      1579 1.09108E-02 8.31822E-04-7.07450E-14
 -1      1580 1.13838E-02 9.82185E-04-7.59655E-14
 -1      1581 1.12415E-02 9.45547E-04-7.42659E-14
 -1      1582 1.12111E-02 9.09980E-04-7.41098E-14
 -1      1583 1.16547E-02 1.04298E-03-7.93880E-14
 -1      1584 1.15216E-02 1.01534E-03-7.76738E-14
 -1      1585 1.14976E-02 9.82424E-04-7.75084E-14
 -1      1586 1.19084E-02 1.07353E-03-8.28289E-14
 -1      1587 1.17835E-02 1.06288E-03-8.11057E-14
 -1      1588 1.17693E-02 1.03332E-03-8.09351E-14
 -1      1589 1.21501E-02 1.06056E-03-8.63005E-14
 -1      1590 1.20303E-02 1.07291E-03-8.45618E-14
 -1      1591 1.20283E-02 1.04677E-03-8.43872E-14
 -1      1592 1.23874E-02 9.98106E-04-8.97897E-14
 -1      1593 1.22687E-02 1.03538E-03-8.80421E-14
 -1      1594 1.22798E-02 1.01201E-03-8.78617E-14
 -1      1595 1.26280E-02 8.89357E-04-9.32928E-14
 -1      1596 1.25068E-02 9.48913E-04-9.15404E-14
 -1      1597 1.25305E-02 9.27238E-04-9.13554E-14
 -1      1598 1.28773E-02 7.44390E-04-9.68280E-14
 -1      1599 1.27513E-02 8.20593E-04-9.50576E-14
 -1      1600 1.27858E-02 7.99550E-04-9.48733E-14
 -1      1601 1.31370E-02 5.75568E-04-1.00398E-13
 -1      1602 1.30058E-02 6.62235E-04-9.86072E-14
 -1      1603 1.30486E-02 6.41131E-04-9.84188E-14
 -1      1604 1.34061E-02 3.93377E-04-1.03988E-13
 -1      1605 1.32705E-02 4.85633E-04-1.02190E-13
 -1      1606 1.33191E-02 4.64201E-04-1.01993E-13
 -1      1607 1.36826E-02 2.04948E-04-1.07593E-13
 -1      1608 1.35436E-02 2.99602E-04-1.05789E-13
 -1      1609 1.35956E-02 2.77814E-04-1.05588E-13
 -1      1610 1.39642E-02 1.53041E-05-1.11202E-13
 -1      1611 1.38229E-02 1.10020E-04-1.09398E-13
 -1      1612 1.38765E-02 8.78196E-05-1.09196E-13
 -1      1613 1.41358E-02-9.33100E-05-1.13074E-13
 -1      1614 1.43715E-02-2.08671E-04-1.13113E-13
 -1      1615 1.42824E-02-1.65196E-04-1.13158E-13
 -1      1616 1.45533E-02-2.97190E-04-1.13020E-13
 -1      1617 1.44615E-02-2.52765E-04-1.13069E-13
 -1      1618 1.42920E-02-1.48652E-04-1.11522E-13
 -1      1619 1.47477E-02-3.84864E-04-1.12918E-13
 -1      1620 1.46485E-02-3.41469E-04-1.12968E-13
 -1      1621 1.44759E-02-2.36076E-04-1.11426E-13
 -1      1622 1.49606E-02-4.65140E-04-1.12827E-13
 -1      1623 1.48517E-02-4.26474E-04-1.12873E-13
 -1      1624 1.46748E-02-3.21582E-04-1.11329E-13
 -1      1625 1.51869E-02-5.27778E-04-1.12743E-13
 -1      1626 1.50721E-02-4.99106E-04-1.12783E-13
 -1      1627 1.48921E-02-3.98949E-04-1.11237E-13
 -1      1628 1.54216E-02-5.65185E-04-1.12660E-13
 -1      1629 1.53049E-02-5.50350E-04-1.12702E-13
 -1      1630 1.51260E-02-4.61606E-04-1.11148E-13
 -1      1631 1.56348E-02-5.69475E-04-1.12581E-13
 -1      1632 1.55329E-02-5.71631E-04-1.12620E-13
 -1      1633 1.53627E-02-5.02330E-04-1.11062E-13
 -1      1634 1.57914E-02-5.41887E-04-1.12486E-13
 -1      1635 1.57223E-02-5.59181E-04-1.12536E-13
 -1      1636 1.55701E-02-5.15955E-04-1.10974E-13
 -1      1637 1.58599E-02-4.93968E-04-1.12398E-13
 -1      1638 1.58380E-02-5.19356E-04-1.12442E-13
 -1      1639 1.57110E-02-5.04942E-04-1.10883E-13
 -1      1640 1.58271E-02-4.44880E-04-1.12307E-13
 -1      1641 1.58560E-02-4.68249E-04-1.12354E-13
 -1      1642 1.57555E-02-4.80566E-04-1.10793E-13
 -1      1643 1.57077E-02-4.14128E-04-1.12221E-13
 -1      1644 1.57768E-02-4.26392E-04-1.12266E-13
 -1      1645 1.56970E-02-4.59674E-04-1.10705E-13
 -1      1646 1.55274E-02-4.12368E-04-1.12140E-13
 -1      1647 1.56229E-02-4.09190E-04-1.12179E-13
 -1      1648 1.55546E-02-4.56523E-04-1.10616E-13
 -1      1649 1.53215E-02-4.42257E-04-1.12055E-13
 -1      1650 1.54258E-02-4.23599E-04-1.12100E-13
 -1      1651 1.53603E-02-4.78504E-04-1.10528E-13
 -1      1652 1.51157E-02-4.97976E-04-1.11978E-13
 -1      1653 1.52175E-02-4.67462E-04-1.12016E-13
 -1      1654 1.51488E-02-5.24768E-04-1.10442E-13
 -1      1655 1.49002E-02-5.89027E-04-1.11348E-13
 -1      1656 1.49952E-02-5.51334E-04-1.11399E-13
 -1      1657 1.49213E-02-6.06095E-04-1.09821E-13
 -1      1658 1.46816E-02-7.14386E-04-1.08661E-13
 -1      1659 1.49975E-02-3.34878E-04-9.39771E-14
 -1      1660 1.50451E-02-3.91175E-04-9.40430E-14
 -1      1661 1.47520E-02-1.90221E-04-9.35754E-14
 -1      1662 1.48879E-02-2.64191E-04-9.38622E-14
 -1      1663 1.43827E-02 8.39627E-06-9.25962E-14
 -1      1664 1.45632E-02-8.16797E-05-9.30398E-14
 -1      1665 1.39599E-02 2.31692E-04-9.13041E-14
 -1      1666 1.41642E-02 1.31888E-04-9.18999E-14
 -1      1667 1.34772E-02 4.45084E-04-8.97800E-14
 -1      1668 1.36967E-02 3.44104E-04-9.05535E-14
 -1      1669 1.29918E-02 6.26585E-04-8.79130E-14
 -1      1670 1.32055E-02 5.51043E-04-8.88121E-14
 -1      1671 1.25707E-02 7.05361E-04-8.59605E-14
 -1      1672 1.27610E-02 6.80726E-04-8.68213E-14
 -1      1673 1.21280E-02 6.86667E-04-8.39165E-14
 -1      1674 1.23342E-02 7.11609E-04-8.48722E-14
 -1      1675 1.17083E-02 5.74977E-04-8.21466E-14
 -1      1676 1.18895E-02 6.31370E-04-8.29181E-14
 -1      1677 1.12984E-02 4.02564E-04-8.03739E-14
 -1      1678 1.14972E-02 4.89011E-04-8.11585E-14
 -1      1679 1.08804E-02 2.26154E-04-7.90041E-14
 -1      1680 1.10589E-02 3.10069E-04-7.96234E-14
 -1      1681 1.05443E-02 6.09895E-05-7.79024E-14
 -1      1682 1.06903E-02 1.34199E-04-7.83676E-14
 -1      1683 1.02885E-02-9.18899E-05-7.70115E-14
 -1      1684 1.03963E-02-2.82178E-05-7.73458E-14
 -1      1685 1.01680E-02-2.06676E-04-7.66985E-14
 -1      1686 1.02043E-02-1.54223E-04-7.68257E-14
 -1      1687 1.01987E-02-3.22456E-04-7.66133E-14
 -1      1688 1.01645E-02-2.68401E-04-7.65624E-14
 -1      1689 1.03688E-02-4.56798E-04-7.70430E-14
 -1      1690 1.02761E-02-3.93865E-04-7.68216E-14
 -1      1691 1.06572E-02-6.27229E-04-7.78017E-14
 -1      1692 1.05101E-02-5.43129E-04-7.74080E-14
 -1      1693 1.10147E-02-8.34769E-04-7.88955E-14
 -1      1694 1.08420E-02-7.38428E-04-7.83777E-14
 -1      1695 1.14532E-02-1.06112E-03-8.02666E-14
 -1      1696 1.12486E-02-9.49943E-04-7.95590E-14
 -1      1697 1.18941E-02-1.27886E-03-8.20036E-14
 -1      1698 1.16898E-02-1.18529E-03-8.11921E-14
 -1      1699 1.22966E-02-1.41296E-03-8.37365E-14
 -1      1700 1.21158E-02-1.36251E-03-8.29573E-14
 -1      1701 1.27070E-02-1.46046E-03-8.55687E-14
 -1      1702 1.25178E-02-1.45266E-03-8.47030E-14
 -1      1703 1.31098E-02-1.40450E-03-8.73172E-14
 -1      1704 1.29286E-02-1.43932E-03-8.65353E-14
 -1      1705 1.35196E-02-1.27433E-03-8.89789E-14
 -1      1706 1.33277E-02-1.34337E-03-8.82217E-14
 -1      1707 1.39391E-02-1.09504E-03-9.05060E-14
 -1      1708 1.37452E-02-1.18223E-03-8.98250E-14
 -1      1709 1.43326E-02-9.07060E-04-9.17864E-14
 -1      1710 1.41559E-02-9.92955E-04-9.12317E-14
 -1      1711 1.46855E-02-7.29496E-04-9.28278E-14
 -1      1712 1.45292E-02-8.09939E-04-9.23764E-14
 -1      1713 1.49428E-02-5.69409E-04-9.36506E-14
 -1      1714 1.48377E-02-6.34401E-04-9.33576E-14
 -1      1715 1.50508E-02-4.54151E-04-9.39137E-14
 -1      1716 1.50207E-02-5.06759E-04-9.37987E-14
 -1      1717 1.37478E-02 2.47042E-04-9.13573E-14
 -1      1718 1.42167E-02 4.90370E-06-9.28096E-14
 -1      1719 1.41896E-02-1.16193E-04-1.12876E-13
 -1      1720 1.41106E-02-5.60825E-05-1.11283E-13
 -1      1721 1.49421E-02-3.40930E-04-9.47086E-14
 -1      1722 1.46325E-02-2.06715E-04-9.40499E-14
 -1      1723 1.50602E-02-4.24243E-04-9.47009E-14
 -1      1724 1.32620E-02 4.88463E-04-8.96354E-14
 -1      1725 1.28390E-02 6.71440E-04-8.75729E-14
 -1      1726 1.24404E-02 7.37764E-04-8.53929E-14
 -1      1727 1.20560E-02 6.78261E-04-8.33084E-14
 -1      1728 1.16541E-02 5.22383E-04-8.13253E-14
 -1      1729 1.12452E-02 3.22029E-04-7.95942E-14
 -1      1730 1.08307E-02 1.29389E-04-7.82129E-14
 -1      1731 1.04876E-02-3.74668E-05-7.70259E-14
 -1      1732 1.02458E-02-1.52076E-04-7.62898E-14
 -1      1733 1.01551E-02-2.37597E-04-7.59723E-14
 -1      1734 1.02337E-02-3.19907E-04-7.60469E-14
 -1      1735 1.04613E-02-4.41891E-04-7.66199E-14
 -1      1736 1.07949E-02-6.18949E-04-7.75577E-14
 -1      1737 1.12063E-02-8.46167E-04-7.87935E-14
 -1      1738 1.16438E-02-1.10251E-03-8.03767E-14
 -1      1739 1.20530E-02-1.32840E-03-8.22519E-14
 -1      1740 1.24335E-02-1.46092E-03-8.41687E-14
 -1      1741 1.27910E-02-1.47641E-03-8.61002E-14
 -1      1742 1.31676E-02-1.38135E-03-8.79718E-14
 -1      1743 1.35640E-02-1.20831E-03-8.97237E-14
 -1      1744 1.39800E-02-9.98262E-04-9.12991E-14
 -1      1745 1.43868E-02-7.96696E-04-9.26204E-14
 -1      1746 1.47434E-02-6.22963E-04-9.37449E-14
 -1      1747 1.49843E-02-5.08009E-04-9.44248E-14
 -1      1748 2.85265E-04-1.76221E-04-3.07371E-17
 -1      1749 3.32156E-04-1.16768E-04-1.44036E-16
 -1      1750 3.36262E-04-1.32972E-04-1.32110E-16
 -1      1751 3.42220E-04-1.51976E-04-1.17921E-16
 -1      1752 3.51789E-04-1.73988E-04-9.88792E-17
 -1      1753 4.58320E-04-1.88038E-04-1.90820E-16
 -1      1754 3.24549E-04-6.53622E-05-1.72239E-16
 -1      1755 3.25699E-04-7.66540E-05-1.67225E-16
 -1      1756 3.23057E-04-4.38734E-05-1.79869E-16
 -1      1757 3.23710E-04-5.43596E-05-1.76332E-16
 -1      1758 4.36487E-04-7.92663E-05-2.57457E-16
 -1      1759 3.22271E-04-2.37621E-05-1.84152E-16
 -1      1760 3.22603E-04-3.36719E-05-1.82322E-16
 -1      1761 4.34489E-04-5.12997E-05-2.66727E-16
 -1      1762 3.21977E-04-4.33531E-06-1.86496E-16
 -1      1763 3.22074E-04-1.39838E-05-1.85385E-16
 -1      1764 4.33468E-04-2.49146E-05-2.72081E-16
 -1      1765 3.22100E-04 1.49749E-05-1.87106E-16
 -1      1766 3.21985E-04 5.31632E-06-1.87066E-16
 -1      1767 4.33170E-04 7.57199E-07-2.74899E-16
 -1      1768 3.22667E-04 3.47166E-05-1.85927E-16
 -1      1769 3.22315E-04 2.47743E-05-1.86781E-16
 -1      1770 4.33527E-04 2.64579E-05-2.75225E-16
 -1      1771 3.23798E-04 5.51474E-05-1.82268E-16
 -1      1772 3.23134E-04 4.47880E-05-1.84477E-16
 -1      1773 4.34605E-04 5.27046E-05-2.72568E-16
 -1      1774 3.25859E-04 7.77932E-05-1.75343E-16
 -1      1775 3.24659E-04 6.62148E-05-1.79435E-16
 -1      1776 4.36664E-04 8.05765E-05-2.66578E-16
 -1      1777 3.29553E-04 1.03628E-04-1.63891E-16
 -1      1778 3.27402E-04 9.02790E-05-1.70396E-16
 -1      1779 4.40318E-04 1.11540E-04-2.55668E-16
 -1      1780 3.36593E-04 1.35086E-04-1.45053E-16
 -1      1781 3.32408E-04 1.18587E-04-1.55895E-16
 -1      1782 4.46796E-04 1.47306E-04-2.37982E-16
 -1      1783 3.52325E-04 1.77583E-04-1.14194E-16
 -1      1784 3.42827E-04 1.54735E-04-1.31703E-16
 -1      1785 4.59339E-04 1.91428E-04-2.09549E-16
 -1      1786 4.07730E-04 2.33669E-04-9.44747E-17
 -1      1787 3.78117E-04 2.02642E-04-1.08163E-16
 -1      1788 4.95890E-04 2.43970E-04-1.84613E-16
 -1      1789 5.58591E-04 3.02482E-04-1.65924E-16
 -1      1790 3.40051E-04-1.90892E-04-6.52554E-17
 -1      1791 8.53641E-04 4.07089E-04-4.06223E-16
 -1      1792 7.07222E-04 3.59350E-04-2.70590E-16
 -1      1793 6.73452E-04 3.28781E-04-2.82394E-16
 -1      1794 4.58994E-04-2.36698E-04-1.26337E-16
 -1      1795 8.07298E-04-3.74091E-04-3.57299E-16
 -1      1796 9.52578E-04-4.15273E-04-5.08979E-16
 -1      1797 1.09543E-03-4.49959E-04-6.90054E-16
 -1      1798 1.23712E-03-4.78856E-04-9.01026E-16
 -1      1799 1.00400E-03-3.97885E-04-6.41902E-16
 -1      1800 1.37754E-03-5.03344E-04-1.14168E-15
 -1      1801 1.51725E-03-5.23722E-04-1.41228E-15
 -1      1802 1.28971E-03-4.55850E-04-1.07287E-15
 -1      1803 1.65643E-03-5.40910E-04-1.71217E-15
 -1      1804 1.79529E-03-5.55146E-04-2.04158E-15
 -1      1805 1.57215E-03-4.96809E-04-1.62144E-15
 -1      1806 1.93403E-03-5.67039E-04-2.40003E-15
 -1      1807 2.07270E-03-5.76791E-04-2.78771E-15
 -1      1808 1.85279E-03-5.25375E-04-2.28676E-15
 -1      1809 2.21147E-03-5.84823E-04-3.20504E-15
 -1      1810 2.35033E-03-5.91303E-04-3.65117E-15
 -1      1811 2.13273E-03-5.44889E-04-3.06793E-15
 -1      1812 2.48939E-03-5.96531E-04-4.12588E-15
 -1      1813 2.62863E-03-6.00644E-04-4.62945E-15
 -1      1814 2.41262E-03-5.57808E-04-3.96452E-15
 -1      1815 2.76811E-03-6.03858E-04-5.16121E-15
 -1      1816 2.90780E-03-6.06282E-04-5.72037E-15
 -1      1817 2.69288E-03-5.65966E-04-4.97425E-15
 -1      1818 3.04775E-03-6.08072E-04-6.30745E-15
 -1      1819 3.18791E-03-6.09313E-04-6.92178E-15
 -1      1820 2.97370E-03-5.70734E-04-6.09601E-15
 -1      1821 3.32832E-03-6.10114E-04-7.56257E-15
 -1      1822 3.46893E-03-6.10541E-04-8.22980E-15
 -1      1823 3.25518E-03-5.73135E-04-7.32613E-15
 -1      1824 3.60977E-03-6.10670E-04-8.92293E-15
 -1      1825 3.75079E-03-6.10549E-04-9.64181E-15
 -1      1826 3.53731E-03-5.73914E-04-8.66192E-15
 -1      1827 3.89200E-03-6.10228E-04-1.03852E-14
 -1      1828 4.03338E-03-6.09741E-04-1.11542E-14
 -1      1829 3.82005E-03-5.73604E-04-1.01003E-14
 -1      1830 4.17493E-03-6.09120E-04-1.19478E-14
 -1      1831 4.31661E-03-6.08387E-04-1.27657E-14
 -1      1832 4.10335E-03-5.72572E-04-1.16395E-14
 -1      1833 4.45844E-03-6.07558E-04-1.36075E-14
 -1      1834 4.60038E-03-6.06648E-04-1.44734E-14
 -1      1835 4.38715E-03-5.71057E-04-1.32761E-14
 -1      1836 4.74245E-03-6.05660E-04-1.53640E-14
 -1      1837 4.88463E-03-6.04603E-04-1.62771E-14
 -1      1838 4.67137E-03-5.69193E-04-1.50091E-14
 -1      1839 5.02691E-03-6.03471E-04-1.72132E-14
 -1      1840 5.16929E-03-6.02268E-04-1.81710E-14
 -1      1841 4.95597E-03-5.67042E-04-1.68349E-14
 -1      1842 5.31177E-03-6.00980E-04-1.91517E-14
 -1      1843 5.45434E-03-5.99607E-04-2.01536E-14
 -1      1844 5.24092E-03-5.64600E-04-1.87510E-14
 -1      1845 5.59702E-03-5.98130E-04-2.11765E-14
 -1      1846 5.73981E-03-5.96547E-04-2.22216E-14
 -1      1847 5.52622E-03-5.61819E-04-2.07546E-14
 -1      1848 5.88271E-03-5.94834E-04-2.32877E-14
 -1      1849 6.02573E-03-5.92988E-04-2.43755E-14
 -1      1850 5.81189E-03-5.58614E-04-2.28440E-14
 -1      1851 6.16890E-03-5.90981E-04-2.54851E-14
 -1      1852 6.31222E-03-5.88811E-04-2.66153E-14
 -1      1853 6.09799E-03-5.54875E-04-2.50205E-14
 -1      1854 6.45572E-03-5.86447E-04-2.77657E-14
 -1      1855 6.59943E-03-5.83891E-04-2.89373E-14
 -1      1856 6.38461E-03-5.50476E-04-2.72797E-14
 -1      1857 6.74336E-03-5.81111E-04-3.01296E-14
 -1      1858 6.88758E-03-5.78114E-04-3.13427E-14
 -1      1859 6.67189E-03-5.45288E-04-2.96232E-14
 -1      1860 7.03209E-03-5.74871E-04-3.25770E-14
 -1      1861 7.17698E-03-5.71398E-04-3.38316E-14
 -1      1862 6.96005E-03-5.39194E-04-3.20486E-14
 -1      1863 7.32226E-03-5.67672E-04-3.51069E-14
 -1      1864 7.46804E-03-5.63724E-04-3.63996E-14
 -1      1865 7.24933E-03-5.32117E-04-3.45571E-14
 -1      1866 7.61432E-03-5.59546E-04-3.77133E-14
 -1      1867 7.76124E-03-5.55189E-04-3.90456E-14
 -1      1868 7.54008E-03-5.24052E-04-3.71453E-14
 -1      1869 7.90882E-03-5.50670E-04-4.03961E-14
 -1      1870 8.05724E-03-5.46072E-04-4.17658E-14
 -1      1871 7.83270E-03-5.15121E-04-3.98080E-14
 -1      1872 8.20649E-03-5.41454E-04-4.31533E-14
 -1      1873 8.35680E-03-5.36944E-04-4.45584E-14
 -1      1874 8.12772E-03-5.05647E-04-4.25449E-14
 -1      1875 8.50814E-03-5.32673E-04-4.59811E-14
 -1      1876 8.66080E-03-5.28830E-04-4.74200E-14
 -1      1877 8.42573E-03-4.96275E-04-4.53533E-14
 -1      1878 8.81474E-03-5.25656E-04-4.88756E-14
 -1      1879 8.97029E-03-5.23431E-04-5.03470E-14
 -1      1880 8.72744E-03-4.88140E-04-4.82297E-14
 -1      1881 9.12738E-03-5.22560E-04-5.18340E-14
 -1      1882 9.28636E-03-5.23450E-04-5.33327E-14
 -1      1883 9.03365E-03-4.83106E-04-5.11701E-14
 -1      1884 9.44717E-03-5.26739E-04-5.48465E-14
 -1      1885 9.61011E-03-5.33006E-04-5.63742E-14
 -1      1886 9.34529E-03-4.84098E-04-5.41679E-14
 -1      1887 9.77519E-03-5.43187E-04-5.79141E-14
 -1      1888 9.94254E-03-5.58090E-04-5.94674E-14
 -1      1889 9.66341E-03-4.95522E-04-5.72202E-14
 -1      1890 1.01123E-02-5.78957E-04-6.10319E-14
 -1      1891 1.02843E-02-6.06862E-04-6.26066E-14
 -1      1892 9.98928E-03-5.23707E-04-6.03228E-14
 -1      1893 1.04589E-02-6.43211E-04-6.41937E-14
 -1      1894 1.06353E-02-6.89272E-04-6.57905E-14
 -1      1895 1.03244E-02-5.77171E-04-6.34719E-14
 -1      1896 1.08143E-02-7.46193E-04-6.73959E-14
 -1      1897 1.09941E-02-8.15017E-04-6.90122E-14
 -1      1898 1.06703E-02-6.66213E-04-6.66638E-14
 -1      1899 1.11759E-02-8.95783E-04-7.06367E-14
 -1      1900 1.13566E-02-9.88362E-04-7.22686E-14
 -1      1901 1.10277E-02-8.00716E-04-6.98923E-14
 -1      1902 1.15376E-02-1.09063E-03-7.39093E-14
 -1      1903 1.17150E-02-1.19928E-03-7.55600E-14
 -1      1904 1.13940E-02-9.84671E-04-7.31570E-14
 -1      1905 1.18893E-02-1.30926E-03-7.72206E-14
 -1      1906 1.20583E-02-1.41363E-03-7.88900E-14
 -1      1907 1.17608E-02-1.20532E-03-7.64545E-14
 -1      1908 1.22209E-02-1.50531E-03-8.05733E-14
 -1      1909 1.23793E-02-1.57596E-03-8.22676E-14
 -1      1910 1.21142E-02-1.42202E-03-7.97963E-14
 -1      1911 1.25312E-02-1.62020E-03-8.39776E-14
 -1      1912 1.26835E-02-1.63409E-03-8.57018E-14
 -1      1913 1.24459E-02-1.57076E-03-8.31850E-14
 -1      1914 1.28334E-02-1.61745E-03-8.74356E-14
 -1      1915 1.29873E-02-1.57425E-03-8.91829E-14
 -1      1916 1.27652E-02-1.59855E-03-8.66277E-14
 -1      1917 1.31431E-02-1.50934E-03-9.09459E-14
 -1      1918 1.33027E-02-1.43044E-03-9.27193E-14
 -1      1919 1.30907E-02-1.50535E-03-9.01235E-14
 -1      1920 1.34650E-02-1.34355E-03-9.44992E-14
 -1      1921 1.36277E-02-1.25445E-03-9.62914E-14
 -1      1922 1.34299E-02-1.34090E-03-9.36632E-14
 -1      1923 1.37915E-02-1.16687E-03-9.80934E-14
 -1      1924 1.39527E-02-1.08266E-03-9.99017E-14
 -1      1925 1.37737E-02-1.16105E-03-9.72421E-14
 -1      1926 1.41128E-02-1.00246E-03-1.01721E-13
 -1      1927 1.42690E-02-9.25220E-04-1.03544E-13
 -1      1928 1.41091E-02-9.95487E-04-1.00859E-13
 -1      1929 1.44031E-02-8.59330E-04-1.05178E-13
 -1      1930 1.45533E-02-7.82977E-04-1.07012E-13
 -1      1931 1.46728E-02-7.26991E-04-1.07591E-13
 -1      1932 1.44085E-02-8.55590E-04-1.04312E-13
 -1      1933 1.13872E-03 4.80054E-04-7.69933E-16
 -1      1934 9.96939E-04 4.46801E-04-5.72310E-16
 -1      1935 9.64548E-04 4.17344E-04-5.84344E-16
 -1      1936 1.41788E-03 5.31543E-04-1.25748E-15
 -1      1937 1.27870E-03 5.08090E-04-9.98279E-16
 -1      1938 1.24905E-03 4.79950E-04-1.00844E-15
 -1      1939 1.69429E-03 5.67856E-04-1.86812E-15
 -1      1940 1.55624E-03 5.51352E-04-1.54747E-15
 -1      1941 1.52935E-03 5.24176E-04-1.55515E-15
 -1      1942 1.96990E-03 5.93170E-04-2.59952E-15
 -1      1943 1.83210E-03 5.81718E-04-2.21858E-15
 -1      1944 1.80763E-03 5.55179E-04-2.22280E-15
 -1      1945 2.24578E-03 6.10446E-04-3.45020E-15
 -1      1946 2.10776E-03 6.02688E-04-3.01015E-15
 -1      1947 2.08528E-03 5.76553E-04-3.01004E-15
 -1      1948 2.52248E-03 6.21861E-04-4.41791E-15
 -1      1949 2.38401E-03 6.16792E-04-3.91968E-15
 -1      1950 2.36314E-03 5.90904E-04-3.91478E-15
 -1      1951 2.80026E-03 6.29048E-04-5.50162E-15
 -1      1952 2.66123E-03 6.25913E-04-4.94533E-15
 -1      1953 2.64163E-03 6.00165E-04-4.93553E-15
 -1      1954 3.07919E-03 6.33227E-04-6.69794E-15
 -1      1955 2.93959E-03 6.31461E-04-6.08564E-15
 -1      1956 2.92098E-03 6.05783E-04-6.06966E-15
 -1      1957 3.35922E-03 6.35306E-04-8.00255E-15
 -1      1958 3.21908E-03 6.34491E-04-7.33708E-15
 -1      1959 3.20123E-03 6.08838E-04-7.31454E-15
 -1      1960 3.64028E-03 6.35946E-04-9.41638E-15
 -1      1961 3.49963E-03 6.35779E-04-8.69613E-15
 -1      1962 3.48238E-03 6.10124E-04-8.66738E-15
 -1      1963 3.92222E-03 6.35617E-04-1.09315E-14
 -1      1964 3.78115E-03 6.35884E-04-1.01611E-14
 -1      1965 3.76433E-03 6.10212E-04-1.01251E-14
 -1      1966 4.20493E-03 6.34639E-04-1.25477E-14
 -1      1967 4.06349E-03 6.35197E-04-1.17270E-14
 -1      1968 4.04700E-03 6.09501E-04-1.16840E-14
 -1      1969 4.48828E-03 6.33215E-04-1.42624E-14
 -1      1970 4.34653E-03 6.33976E-04-1.33933E-14
 -1      1971 4.33030E-03 6.08255E-04-1.33427E-14
 -1      1972 4.77218E-03 6.31458E-04-1.60724E-14
 -1      1973 4.63017E-03 6.32375E-04-1.51556E-14
 -1      1974 4.61413E-03 6.06632E-04-1.50976E-14
 -1      1975 5.05656E-03 6.29412E-04-1.79733E-14
 -1      1976 4.91432E-03 6.30471E-04-1.70116E-14
 -1      1977 4.89842E-03 6.04710E-04-1.69460E-14
 -1      1978 5.34136E-03 6.27067E-04-1.99627E-14
 -1      1979 5.19891E-03 6.28278E-04-1.89568E-14
 -1      1980 5.18312E-03 6.02504E-04-1.88841E-14
 -1      1981 5.62659E-03 6.24376E-04-2.20362E-14
 -1      1982 5.48392E-03 6.25768E-04-2.09893E-14
 -1      1983 5.46822E-03 5.99984E-04-2.09091E-14
 -1      1984 5.91227E-03 6.21265E-04-2.41863E-14
 -1      1985 5.76937E-03 6.22876E-04-2.31021E-14
 -1      1986 5.75372E-03 5.97086E-04-2.30157E-14
 -1      1987 6.19848E-03 6.17647E-04-2.64175E-14
 -1      1988 6.05530E-03 6.19522E-04-2.52920E-14
 -1      1989 6.03967E-03 5.93724E-04-2.52014E-14
 -1      1990 6.48536E-03 6.13438E-04-2.87268E-14
 -1      1991 6.34183E-03 6.15617E-04-2.75621E-14
 -1      1992 6.32618E-03 5.89808E-04-2.74657E-14
 -1      1993 6.77310E-03 6.08576E-04-3.11194E-14
 -1      1994 6.62911E-03 6.11087E-04-2.99132E-14
 -1      1995 6.61337E-03 5.85255E-04-2.98115E-14
 -1      1996 7.06194E-03 6.03047E-04-3.35943E-14
 -1      1997 6.91736E-03 6.05888E-04-3.23457E-14
 -1      1998 6.90145E-03 5.80015E-04-3.22392E-14
 -1      1999 7.35221E-03 5.96917E-04-3.61488E-14
 -1      2000 7.20687E-03 6.00042E-04-3.48621E-14
 -1      2001 7.19067E-03 5.74097E-04-3.47493E-14
 -1      2002 7.64430E-03 5.90386E-04-3.87838E-14
 -1      2003 7.49799E-03 5.93676E-04-3.74561E-14
 -1      2004 7.48134E-03 5.67616E-04-3.73381E-14
 -1      2005 7.93865E-03 5.83843E-04-4.14917E-14
 -1      2006 7.79115E-03 5.87076E-04-4.01293E-14
 -1      2007 7.77383E-03 5.60836E-04-4.00044E-14
 -1      2008 8.23577E-03 5.77942E-04-4.42767E-14
 -1      2009 8.08682E-03 5.80754E-04-4.28741E-14
 -1      2010 8.06857E-03 5.54248E-04-4.27440E-14
 -1      2011 8.53613E-03 5.73697E-04-4.71361E-14
 -1      2012 8.38550E-03 5.75533E-04-4.56968E-14
 -1      2013 8.36600E-03 5.48647E-04-4.55614E-14
 -1      2014 8.84017E-03 5.72564E-04-5.00645E-14
 -1      2015 8.68766E-03 5.72637E-04-4.85924E-14
 -1      2016 8.66656E-03 5.45226E-04-4.84509E-14
 -1      2017 9.14814E-03 5.76518E-04-5.30538E-14
 -1      2018 8.99364E-03 5.73777E-04-5.15513E-14
 -1      2019 8.97062E-03 5.45666E-04-5.14055E-14
 -1      2020 9.45999E-03 5.88051E-04-5.60997E-14
 -1      2021 9.30359E-03 5.81193E-04-5.45703E-14
 -1      2022 9.27838E-03 5.52188E-04-5.44179E-14
 -1      2023 9.77522E-03 6.10029E-04-5.92060E-14
 -1      2024 9.61725E-03 5.97594E-04-5.76446E-14
 -1      2025 9.58977E-03 5.67507E-04-5.74891E-14
 -1      2026 1.00926E-02 6.45283E-04-6.23779E-14
 -1      2027 9.93379E-03 6.25900E-04-6.07834E-14
 -1      2028 9.90427E-03 5.94602E-04-6.06225E-14
 -1      2029 1.04102E-02 6.95800E-04-6.56114E-14
 -1      2030 1.02516E-02 6.68646E-04-6.39880E-14
 -1      2031 1.02208E-02 6.36165E-04-6.38203E-14
 -1      2032 1.07249E-02 7.61425E-04-6.88990E-14
 -1      2033 1.05682E-02 7.26930E-04-6.72485E-14
 -1      2034 1.05373E-02 6.93578E-04-6.70755E-14
 -1      2035 1.10333E-02 8.38240E-04-7.22351E-14
 -1      2036 1.08803E-02 7.98915E-04-7.05614E-14
 -1      2037 1.08511E-02 7.65418E-04-7.03786E-14
 -1      2038 1.13316E-02 9.17188E-04-7.56086E-14
 -1      2039 1.11840E-02 8.78226E-04-7.39185E-14
 -1      2040 1.11586E-02 8.45747E-04-7.37257E-14
 -1      2041 1.16173E-02 9.84020E-04-7.90176E-14
 -1      2042 1.14761E-02 9.53084E-04-7.73090E-14
 -1      2043 1.14565E-02 9.23020E-04-7.71109E-14
 -1      2044 1.18903E-02 1.02176E-03-8.24511E-14
 -1      2045 1.17552E-02 1.00742E-03-8.07316E-14
 -1      2046 1.17427E-02 9.80926E-04-8.05269E-14
 -1      2047 1.21538E-02 1.01558E-03-8.59106E-14
 -1      2048 1.20228E-02 1.02466E-03-8.41777E-14
 -1      2049 1.20182E-02 1.00211E-03-8.39698E-14
 -1      2050 1.24132E-02 9.58153E-04-8.93920E-14
 -1      2051 1.22835E-02 9.93183E-04-8.76486E-14
 -1      2052 1.22868E-02 9.73986E-04-8.74352E-14
 -1      2053 1.26743E-02 8.52140E-04-9.28921E-14
 -1      2054 1.25431E-02 9.10625E-04-9.11404E-14
 -1      2055 1.25544E-02 8.93566E-04-9.09233E-14
 -1      2056 1.29408E-02 7.08052E-04-9.64208E-14
 -1      2057 1.28066E-02 7.84045E-04-9.46538E-14
 -1      2058 1.28255E-02 7.67951E-04-9.44326E-14
 -1      2059 1.32136E-02 5.39156E-04-9.99743E-14
 -1      2060 1.30764E-02 6.26001E-04-9.81919E-14
 -1      2061 1.31022E-02 6.10194E-04-9.79675E-14
 -1      2062 1.34918E-02 3.56664E-04-1.03557E-13
 -1      2063 1.33522E-02 4.49163E-04-1.01765E-13
 -1      2064 1.33837E-02 4.33497E-04-1.01533E-13
 -1      2065 1.37732E-02 1.67861E-04-1.07159E-13
 -1      2066 1.36322E-02 2.62792E-04-1.05357E-13
 -1      2067 1.36678E-02 2.47323E-04-1.05125E-13
 -1      2068 1.40126E-02 8.22719E-06-1.10124E-13
 -1      2069 1.38707E-02 1.03497E-04-1.08317E-13
 -1      2070 1.39082E-02 8.80641E-05-1.08085E-13
 -1      2071 1.41046E-02-4.09135E-05-1.10405E-13
 -1      2072 1.46013E-02-2.62247E-04-1.09740E-13
 -1      2073 1.44970E-02-2.19638E-04-1.09786E-13
 -1      2074 1.43980E-02-1.75632E-04-1.09834E-13
 -1      2075 1.43034E-02-1.31851E-04-1.09884E-13
 -1      2076 1.43191E-02-1.17925E-04-1.08244E-13
 -1      2077 1.42476E-02-1.07793E-04-1.10123E-13
 -1      2078 1.41581E-02-6.42635E-05-1.10168E-13
 -1      2079 1.40593E-02 2.65726E-07-1.09007E-13
 -1      2080 1.41671E-02-4.77748E-05-1.08531E-13
 -1      2081 1.48227E-02-3.41580E-04-1.09647E-13
 -1      2082 1.47094E-02-3.03371E-04-1.09693E-13
 -1      2083 1.45250E-02-2.08016E-04-1.08151E-13
 -1      2084 1.50641E-02-4.09902E-04-1.09554E-13
 -1      2085 1.49421E-02-3.78146E-04-1.09600E-13
 -1      2086 1.47541E-02-2.94561E-04-1.08055E-13
 -1      2087 1.53024E-02-4.58409E-04-1.09466E-13
 -1      2088 1.51853E-02-4.37228E-04-1.09512E-13
 -1      2089 1.50013E-02-3.71398E-04-1.07961E-13
 -1      2090 1.55034E-02-4.82403E-04-1.09375E-13
 -1      2091 1.54100E-02-4.73342E-04-1.09421E-13
 -1      2092 1.52415E-02-4.29066E-04-1.07869E-13
 -1      2093 1.56272E-02-4.84549E-04-1.09284E-13
 -1      2094 1.55772E-02-4.85036E-04-1.09329E-13
 -1      2095 1.54355E-02-4.61741E-04-1.07776E-13
 -1      2096 1.56454E-02-4.77176E-04-1.09190E-13
 -1      2097 1.56502E-02-4.80168E-04-1.09237E-13
 -1      2098 1.55398E-02-4.73254E-04-1.07682E-13
 -1      2099 1.55597E-02-4.77295E-04-1.09103E-13
 -1      2100 1.56142E-02-4.74769E-04-1.09146E-13
 -1      2101 1.55291E-02-4.79146E-04-1.07589E-13
 -1      2102 1.53938E-02-4.97307E-04-1.09009E-13
 -1      2103 1.54844E-02-4.84142E-04-1.09055E-13
 -1      2104 1.54131E-02-4.97956E-04-1.07495E-13
 -1      2105 1.51868E-02-5.40616E-04-1.08917E-13
 -1      2106 1.52931E-02-5.16364E-04-1.08962E-13
 -1      2107 1.52250E-02-5.40071E-04-1.07399E-13
 -1      2108 1.49721E-02-6.02793E-04-1.08822E-13
 -1      2109 1.50790E-02-5.70108E-04-1.08869E-13
 -1      2110 1.50078E-02-6.03770E-04-1.07303E-13
 -1      2111 1.45010E-02-2.07740E-04-9.45776E-14
 -1      2112 1.46934E-02-2.85784E-04-9.51211E-14
 -1      2113 1.50616E-02-4.20375E-04-9.55769E-14
 -1      2114 1.50666E-02-4.41126E-04-9.54507E-14
 -1      2115 1.48915E-02-3.60088E-04-9.56574E-14
 -1      2116 1.50012E-02-3.91695E-04-9.57799E-14
 -1      2117 1.40441E-02 1.85054E-05-9.31260E-14
 -1      2118 1.42587E-02-9.38017E-05-9.38309E-14
 -1      2119 1.35951E-02 2.63184E-04-9.16127E-14
 -1      2120 1.38218E-02 1.38521E-04-9.23680E-14
 -1      2121 1.39042E-02 5.06128E-05-9.33862E-14
 -1      2122 3.27202E-04-8.89559E-05-1.61112E-16
 -1      2123 3.29314E-04-1.02132E-04-1.53279E-16
 -1      2124 4.46344E-04-1.45101E-04-2.22275E-16
 -1      2125 4.40031E-04-1.09929E-04-2.43309E-16
 -1      2126 1.27059E-02 7.15669E-04-8.71089E-14
 -1      2127 1.28772E-02 6.50917E-04-8.82015E-14
 -1      2128 1.23612E-02 7.55707E-04-8.49249E-14
 -1      2129 1.25262E-02 7.51603E-04-8.60131E-14
 -1      2130 1.19718E-02 6.50095E-04-8.25623E-14
 -1      2131 1.21446E-02 7.13590E-04-8.35575E-14
 -1      2132 1.16163E-02 4.76608E-04-8.05950E-14
 -1      2133 1.17939E-02 5.72902E-04-8.15785E-14
 -1      2134 1.18956E-02 6.15994E-04-8.18274E-14
 -1      2135 1.11647E-02 2.33745E-04-7.86123E-14
 -1      2136 1.13665E-02 3.39226E-04-7.93556E-14
 -1      2137 1.07727E-02 5.04875E-05-7.73502E-14
 -1      2138 1.09558E-02 1.37701E-04-7.79809E-14
 -1      2139 1.04399E-02-1.00305E-04-7.60352E-14
 -1      2140 1.05921E-02-3.76325E-05-7.65850E-14
 -1      2141 1.01995E-02-1.90892E-04-7.53669E-14
 -1      2142 1.02846E-02-1.60903E-04-7.55472E-14
 -1      2143 1.01495E-02-2.39953E-04-7.50996E-14
 -1      2144 1.01552E-02-2.19143E-04-7.52328E-14
 -1      2145 1.01691E-02-2.06507E-04-7.44924E-14
 -1      2146 1.02803E-02-3.13530E-04-7.54652E-14
 -1      2147 1.01989E-02-2.78325E-04-7.52557E-14
 -1      2148 1.05529E-02-4.29956E-04-7.61078E-14
 -1      2149 1.04081E-02-3.68120E-04-7.57445E-14
 -1      2150 1.09316E-02-6.24820E-04-7.72436E-14
 -1      2151 1.07480E-02-5.26088E-04-7.66706E-14
 -1      2152 1.13469E-02-8.63124E-04-7.85566E-14
 -1      2153 1.11388E-02-7.41128E-04-7.78974E-14
 -1      2154 1.18051E-02-1.15742E-03-8.04389E-14
 -1      2155 1.16076E-02-1.02314E-03-7.95172E-14
 -1      2156 1.21827E-02-1.38285E-03-8.25219E-14
 -1      2157 1.20149E-02-1.28844E-03-8.15722E-14
 -1      2158 1.25025E-02-1.49239E-03-8.44462E-14
 -1      2159 1.23469E-02-1.45046E-03-8.34829E-14
 -1      2160 1.22725E-02-1.42195E-03-8.27968E-14
 -1      2161 1.28668E-02-1.47916E-03-8.67670E-14
 -1      2162 1.27150E-02-1.50566E-03-8.58012E-14
 -1      2163 1.32140E-02-1.34800E-03-8.86511E-14
 -1      2164 1.30480E-02-1.42237E-03-8.77456E-14
 -1      2165 1.36066E-02-1.13998E-03-9.05404E-14
 -1      2166 1.34186E-02-1.24517E-03-8.96916E-14
 -1      2167 1.40237E-02-9.07336E-04-9.22579E-14
 -1      2168 1.38272E-02-1.01444E-03-9.15273E-14
 -1      2169 1.44471E-02-7.09350E-04-9.35262E-14
 -1      2170 1.42559E-02-7.98865E-04-9.29304E-14
 -1      2171 1.47957E-02-5.59089E-04-9.46739E-14
 -1      2172 1.46367E-02-6.24154E-04-9.41405E-14
 -1      2173 1.50288E-02-4.70015E-04-9.53032E-14
 -1      2174 1.49501E-02-4.98615E-04-9.51560E-14
 -1      2175 1.50583E-02-4.50698E-04-9.61810E-14
 -1      2176 1.31174E-02 5.30665E-04-8.96153E-14
 -1      2177 1.33284E-02 4.09562E-04-9.05854E-14
 -1      2178 6.07931E-04-2.98108E-04-2.11907E-16
 -1      2179 1.34407E-02 3.17633E-04-9.15960E-14
 -1      2180 1.28572E-02 6.47155E-04-8.86852E-14
 -1      2181 1.29743E-02 5.94390E-04-8.91504E-14
 -1      2182 1.30660E-02 5.28188E-04-9.01016E-14
 -1      2183 6.63652E-04-2.92394E-04-2.97370E-16
 -1      2184 1.48000E-02-3.44820E-04-9.61865E-14
 -1      2185 1.50455E-02-4.15191E-04-9.65288E-14
 -1      2186 1.48465E-02-6.52546E-04-1.08246E-13
 -1      2187 1.43586E-02-1.75118E-04-9.48967E-14
 -1      2188 1.48823E-02-5.10963E-04-9.55502E-14
 -1      2189 1.48063E-02-5.26986E-04-9.59449E-14
 -1      2190 1.49538E-02-4.83849E-04-9.64287E-14
 -1      2191 1.45301E-02-6.43571E-04-9.44516E-14
 -1      2192 1.41192E-02-8.31220E-04-9.31617E-14
 -1      2193 1.36923E-02-1.06368E-03-9.14964E-14
 -1      2194 1.32945E-02-1.29508E-03-8.94662E-14
 -1      2195 1.26095E-02-1.51345E-03-8.51083E-14
 -1      2196 1.19336E-02-1.22278E-03-8.07045E-14
 -1      2197 1.15017E-02-9.29530E-04-7.86152E-14
 -1      2198 1.10564E-02-6.54848E-04-7.70059E-14
 -1      2199 1.06624E-02-4.50911E-04-7.57931E-14
 -1      2200 1.01623E-02-2.46619E-04-7.45168E-14
 -1      2201 1.03559E-02-1.42791E-04-7.51078E-14
 -1      2202 1.06920E-02-1.25451E-05-7.63536E-14
 -1      2203 1.15011E-02 4.00650E-04-7.96080E-14
 -1      2204 1.16103E-02 4.61860E-04-7.98587E-14
 -1      2205 1.13862E-02 3.30374E-04-7.86239E-14
 -1      2206 1.25961E-02 7.44066E-04-8.66392E-14
 -1      2207 1.22541E-02 7.49023E-04-8.41742E-14
 -1      2208 1.23364E-02 7.67815E-04-8.47922E-14
 -1      2209 1.21587E-02 7.27898E-04-8.34257E-14
 -1      2210 1.10715E-02 1.66697E-04-7.77453E-14
 -1      2211 1.03443E-02-3.18358E-04-7.49525E-14
 -1      2212 1.29436E-02-1.45872E-03-8.74445E-14
 -1      2213 1.01666E-03 3.99781E-04-7.21631E-16
 -1      2214 8.72181E-04 3.63398E-04-5.35677E-16
 -1      2215 5.47753E-04-5.52887E-05-3.80541E-16
 -1      2216 5.48793E-04-7.20023E-05-3.75595E-16
 -1      2217 5.50215E-04-8.93232E-05-3.69347E-16
 -1      2218 5.52084E-04-1.07299E-04-3.61744E-16
 -1      2219 6.65255E-04-9.54783E-05-5.04601E-16
 -1      2220 5.46367E-04 8.85475E-06-3.89730E-16
 -1      2221 5.46347E-04-6.97961E-06-3.88686E-16
 -1      2222 5.47125E-04 4.08597E-05-3.89107E-16
 -1      2223 5.46623E-04 2.47882E-05-3.89906E-16
 -1      2224 6.61297E-04 1.99274E-05-5.27031E-16
 -1      2225 5.48958E-04 7.34759E-05-3.84756E-16
 -1      2226 5.47892E-04 5.69862E-05-3.87562E-16
 -1      2227 6.62628E-04 5.77773E-05-5.25147E-16
 -1      2228 5.52360E-04 1.08943E-04-3.75364E-16
 -1      2229 5.50431E-04 9.08710E-05-3.80745E-16
 -1      2230 6.65498E-04 9.72406E-05-5.18181E-16
 -1      2231 5.58254E-04 1.48274E-04-3.59061E-16
 -1      2232 5.54928E-04 1.28051E-04-3.68344E-16
 -1      2233 6.70602E-04 1.40006E-04-5.04384E-16
 -1      2234 5.68598E-04 1.93870E-04-3.33311E-16
 -1      2235 5.62751E-04 1.70153E-04-3.47663E-16
 -1      2236 6.79270E-04 1.87546E-04-4.81548E-16
 -1      2237 1.30214E-03 4.56725E-04-1.18365E-15
 -1      2238 1.15980E-03 4.30782E-04-9.37184E-16
 -1      2239 1.07183E-03 3.81302E-04-8.64367E-16
 -1      2240 9.15236E-04-3.46353E-04-5.90335E-16
 -1      2241 1.05934E-03-3.79669E-04-7.81425E-16
 -1      2242 1.33235E-02 3.64501E-04-9.18320E-14
 -1      2243 1.35484E-02 2.23681E-04-9.28645E-14
 -1      2244 1.20260E-03-4.08049E-04-1.00134E-15
 -1      2245 1.34542E-03-4.31925E-04-1.25048E-15
 -1      2246 1.11702E-03-3.60480E-04-9.27359E-16
 -1      2247 1.48760E-03-4.52149E-04-1.52855E-15
 -1      2248 1.62939E-03-4.68993E-04-1.83578E-15
 -1      2249 1.40335E-03-4.07249E-04-1.43379E-15
 -1      2250 1.77082E-03-4.83131E-04-2.17178E-15
 -1      2251 1.91200E-03-4.94779E-04-2.53646E-15
 -1      2252 1.68849E-03-4.40496E-04-2.05497E-15
 -1      2253 2.05304E-03-5.04431E-04-2.92966E-15
 -1      2254 2.19396E-03-5.12264E-04-3.35169E-15
 -1      2255 1.97269E-03-4.63559E-04-2.79023E-15
 -1      2256 2.33487E-03-5.18639E-04-3.80181E-15
 -1      2257 2.47576E-03-5.23697E-04-4.28067E-15
 -1      2258 2.25633E-03-4.79081E-04-3.63868E-15
 -1      2259 2.61672E-03-5.27704E-04-4.78778E-15
 -1      2260 2.75772E-03-5.30774E-04-5.32227E-15
 -1      2261 2.53975E-03-4.89101E-04-4.60012E-15
 -1      2262 2.89882E-03-5.33098E-04-5.88415E-15
 -1      2263 3.04000E-03-5.34767E-04-6.47327E-15
 -1      2264 2.82317E-03-4.95171E-04-5.67237E-15
 -1      2265 3.18130E-03-5.35918E-04-7.08919E-15
 -1      2266 3.32270E-03-5.36619E-04-7.73184E-15
 -1      2267 3.10675E-03-4.98458E-04-6.85284E-15
 -1      2268 3.46422E-03-5.36969E-04-8.40113E-15
 -1      2269 3.60584E-03-5.37018E-04-9.09583E-15
 -1      2270 3.39054E-03-4.99825E-04-8.14005E-15
 -1      2271 3.74758E-03-5.36832E-04-9.81546E-15
 -1      2272 3.88941E-03-5.36448E-04-1.05609E-14
 -1      2273 3.67460E-03-4.99899E-04-9.53099E-15
 -1      2274 4.03135E-03-5.35909E-04-1.13306E-14
 -1      2275 4.17337E-03-5.35239E-04-1.21254E-14
 -1      2276 3.95892E-03-4.99116E-04-1.10227E-14
 -1      2277 4.31550E-03-5.34464E-04-1.29455E-14
 -1      2278 4.45770E-03-5.33599E-04-1.37878E-14
 -1      2279 4.24349E-03-4.97769E-04-1.26129E-14
 -1      2280 4.59998E-03-5.32655E-04-1.46537E-14
 -1      2281 4.74234E-03-5.31641E-04-1.55446E-14
 -1      2282 4.52829E-03-4.96036E-04-1.43000E-14
 -1      2283 4.88477E-03-5.30557E-04-1.64577E-14
 -1      2284 5.02728E-03-5.29406E-04-1.73926E-14
 -1      2285 4.81332E-03-4.94011E-04-1.60797E-14
 -1      2286 5.16985E-03-5.28180E-04-1.83501E-14
 -1      2287 5.31249E-03-5.26877E-04-1.93302E-14
 -1      2288 5.09856E-03-4.91714E-04-1.79504E-14
 -1      2289 5.45521E-03-5.25482E-04-2.03327E-14
 -1      2290 5.59800E-03-5.23993E-04-2.13560E-14
 -1      2291 5.38400E-03-4.89117E-04-1.99106E-14
 -1      2292 5.74087E-03-5.22387E-04-2.24010E-14
 -1      2293 5.88382E-03-5.20659E-04-2.34678E-14
 -1      2294 5.66966E-03-4.86149E-04-2.19583E-14
 -1      2295 6.02686E-03-5.18786E-04-2.45562E-14
 -1      2296 6.17001E-03-5.16760E-04-2.56655E-14
 -1      2297 5.95557E-03-4.82709E-04-2.40927E-14
 -1      2298 6.31326E-03-5.14554E-04-2.67954E-14
 -1      2299 6.45665E-03-5.12163E-04-2.79453E-14
 -1      2300 6.24176E-03-4.78674E-04-2.63110E-14
 -1      2301 6.60017E-03-5.09559E-04-2.91171E-14
 -1      2302 6.74387E-03-5.06739E-04-3.03097E-14
 -1      2303 6.52830E-03-4.73913E-04-2.86116E-14
 -1      2304 6.88773E-03-5.03677E-04-3.15220E-14
 -1      2305 7.03182E-03-5.00375E-04-3.27558E-14
 -1      2306 6.81529E-03-4.68297E-04-3.09967E-14
 -1      2307 7.17612E-03-4.96813E-04-3.40099E-14
 -1      2308 7.32071E-03-4.93003E-04-3.52839E-14
 -1      2309 7.10283E-03-4.61723E-04-3.34631E-14
 -1      2310 7.46557E-03-4.88936E-04-3.65772E-14
 -1      2311 7.61080E-03-4.84637E-04-3.78899E-14
 -1      2312 7.39105E-03-4.54138E-04-3.60099E-14
 -1      2313 7.75637E-03-4.80121E-04-3.92208E-14
 -1      2314 7.90240E-03-4.75433E-04-4.05702E-14
 -1      2315 7.68013E-03-4.45582E-04-3.86341E-14
 -1      2316 8.04885E-03-4.70622E-04-4.19375E-14
 -1      2317 8.19587E-03-4.65766E-04-4.33240E-14
 -1      2318 7.97024E-03-4.36248E-04-4.13310E-14
 -1      2319 8.34341E-03-4.60971E-04-4.47270E-14
 -1      2320 8.49165E-03-4.56358E-04-4.61480E-14
 -1      2321 8.26160E-03-4.26570E-04-4.41018E-14
 -1      2322 8.64051E-03-4.52120E-04-4.75855E-14
 -1      2323 8.79024E-03-4.48446E-04-4.90386E-14
 -1      2324 8.55447E-03-4.17343E-04-4.69418E-14
 -1      2325 8.94073E-03-4.45655E-04-5.05070E-14
 -1      2326 9.09226E-03-4.44032E-04-5.19908E-14
 -1      2327 8.84917E-03-4.09894E-04-4.98462E-14
 -1      2328 9.24475E-03-4.44067E-04-5.34903E-14
 -1      2329 9.39852E-03-4.46200E-04-5.50017E-14
 -1      2330 9.14617E-03-4.06316E-04-5.28120E-14
 -1      2331 9.55356E-03-4.51127E-04-5.65263E-14
 -1      2332 9.71020E-03-4.59524E-04-5.80644E-14
 -1      2333 9.44625E-03-4.09770E-04-5.58347E-14
 -1      2334 9.86861E-03-4.72302E-04-5.96157E-14
 -1      2335 1.00291E-02-4.90493E-04-6.11791E-14
 -1      2336 9.75083E-03-4.24853E-04-5.89086E-14
 -1      2337 1.01921E-02-5.15149E-04-6.27519E-14
 -1      2338 1.03578E-02-5.47796E-04-6.43366E-14
 -1      2339 1.00624E-02-4.58024E-04-6.20336E-14
 -1      2340 1.05273E-02-5.89406E-04-6.59316E-14
 -1      2341 1.07000E-02-6.42040E-04-6.75351E-14
 -1      2342 1.03853E-02-5.18027E-04-6.51991E-14
 -1      2343 1.08778E-02-7.06183E-04-6.91488E-14
 -1      2344 1.10588E-02-7.83827E-04-7.07723E-14
 -1      2345 1.07254E-02-6.16048E-04-6.84071E-14
 -1      2346 1.12452E-02-8.74299E-04-7.24028E-14
 -1      2347 1.14332E-02-9.77868E-04-7.40419E-14
 -1      2348 1.10883E-02-7.64479E-04-7.16499E-14
 -1      2349 1.16251E-02-1.09169E-03-7.56916E-14
 -1      2350 1.18141E-02-1.21023E-03-7.73513E-14
 -1      2351 1.14747E-02-9.70253E-04-7.49277E-14
 -1      2352 1.20002E-02-1.32793E-03-7.90184E-14
 -1      2353 1.21809E-02-1.43209E-03-8.06980E-14
 -1      2354 1.18706E-02-1.21875E-03-7.82421E-14
 -1      2355 1.23530E-02-1.51589E-03-8.23923E-14
 -1      2356 1.25233E-02-1.56621E-03-8.41008E-14
 -1      2357 1.22502E-02-1.44643E-03-8.16006E-14
 -1      2358 1.26883E-02-1.57943E-03-8.58216E-14
 -1      2359 1.28578E-02-1.55679E-03-8.75547E-14
 -1      2360 1.26073E-02-1.55614E-03-8.50147E-14
 -1      2361 1.30288E-02-1.50132E-03-8.92994E-14
 -1      2362 1.32062E-02-1.42513E-03-9.10594E-14
 -1      2363 1.29643E-02-1.50014E-03-8.84809E-14
 -1      2364 1.33874E-02-1.33451E-03-9.28326E-14
 -1      2365 1.35696E-02-1.24110E-03-9.46070E-14
 -1      2366 1.33410E-02-1.32965E-03-9.19963E-14
 -1      2367 1.37526E-02-1.14917E-03-9.63944E-14
 -1      2368 1.39305E-02-1.06245E-03-9.81928E-14
 -1      2369 1.37276E-02-1.13375E-03-9.55512E-14
 -1      2370 1.41052E-02-9.82555E-04-9.99991E-14
 -1      2371 1.42730E-02-9.07760E-04-1.01816E-13
 -1      2372 1.40999E-02-9.63688E-04-9.91441E-14
 -1      2373 1.86534E-03 5.25242E-04-2.46859E-15
 -1      2374 1.72510E-03 5.12490E-04-2.10284E-15
 -1      2375 2.14544E-03 5.44525E-04-3.28881E-15
 -1      2376 2.00544E-03 5.35860E-04-2.86406E-15
 -1      2377 1.92465E-03 4.94624E-04-2.71765E-15
 -1      2378 2.42550E-03 5.57316E-04-4.22489E-15
 -1      2379 2.28546E-03 5.51626E-04-3.74241E-15
 -1      2380 2.20675E-03 5.11888E-04-3.57010E-15
 -1      2381 2.70592E-03 5.65420E-04-5.27594E-15
 -1      2382 2.56566E-03 5.61873E-04-4.73626E-15
 -1      2383 2.48870E-03 5.23200E-04-4.53724E-15
 -1      2384 2.98689E-03 5.70191E-04-6.43883E-15
 -1      2385 2.84634E-03 5.68160E-04-5.84350E-15
 -1      2386 2.77079E-03 5.30231E-04-5.61741E-15
 -1      2387 3.26849E-03 5.72634E-04-7.71005E-15
 -1      2388 3.12762E-03 5.71657E-04-7.06115E-15
 -1      2389 3.05320E-03 5.34233E-04-6.80837E-15
 -1      2390 3.55072E-03 5.73485E-04-9.08910E-15
 -1      2391 3.40953E-03 5.73224E-04-8.38598E-15
 -1      2392 3.33601E-03 5.36133E-04-8.10647E-15
 -1      2393 3.83356E-03 5.73266E-04-1.05705E-14
 -1      2394 3.69207E-03 5.73484E-04-9.81710E-15
 -1      2395 3.61924E-03 5.36607E-04-9.50997E-15
 -1      2396 4.11693E-03 5.72340E-04-1.21525E-14
 -1      2397 3.97518E-03 5.72875E-04-1.13489E-14
 -1      2398 3.90289E-03 5.36132E-04-1.10155E-14
 -1      2399 4.40078E-03 5.70939E-04-1.38333E-14
 -1      2400 4.25880E-03 5.71688E-04-1.29808E-14
 -1      2401 4.18691E-03 5.35032E-04-1.26206E-14
 -1      2402 4.68505E-03 5.69198E-04-1.56088E-14
 -1      2403 4.54287E-03 5.70105E-04-1.47091E-14
 -1      2404 4.47128E-03 5.33509E-04-1.43232E-14
 -1      2405 4.96969E-03 5.67173E-04-1.74763E-14
 -1      2406 4.82733E-03 5.68218E-04-1.65315E-14
 -1      2407 4.75597E-03 5.31675E-04-1.61186E-14
 -1      2408 5.25468E-03 5.64866E-04-1.94336E-14
 -1      2409 5.11215E-03 5.66055E-04-1.84445E-14
 -1      2410 5.04093E-03 5.29569E-04-1.80062E-14
 -1      2411 5.54001E-03 5.62233E-04-2.14766E-14
 -1      2412 5.39730E-03 5.63592E-04-2.04441E-14
 -1      2413 5.32617E-03 5.27178E-04-1.99827E-14
 -1      2414 5.82570E-03 5.59199E-04-2.36013E-14
 -1      2415 5.68280E-03 5.60769E-04-2.25297E-14
 -1      2416 5.61169E-03 5.24446E-04-2.20440E-14
 -1      2417 6.11180E-03 5.55673E-04-2.58064E-14
 -1      2418 5.96869E-03 5.57501E-04-2.46938E-14
 -1      2419 5.89752E-03 5.21291E-04-2.41880E-14
 -1      2420 6.39841E-03 5.51559E-04-2.80890E-14
 -1      2421 6.25503E-03 5.53692E-04-2.69376E-14
 -1      2422 6.18369E-03 5.17616E-04-2.64107E-14
 -1      2423 6.68565E-03 5.46773E-04-3.04548E-14
 -1      2424 6.54194E-03 5.49251E-04-2.92617E-14
 -1      2425 6.47030E-03 5.13323E-04-2.87133E-14
 -1      2426 6.97370E-03 5.41271E-04-3.29012E-14
 -1      2427 6.82955E-03 5.44110E-04-3.16666E-14
 -1      2428 6.75746E-03 5.08329E-04-3.10965E-14
 -1      2429 7.26278E-03 5.35075E-04-3.54279E-14
 -1      2430 7.11809E-03 5.38252E-04-3.41540E-14
 -1      2431 7.04531E-03 5.02597E-04-3.35609E-14
 -1      2432 7.55316E-03 5.28319E-04-3.80350E-14
 -1      2433 7.40778E-03 5.31751E-04-3.67222E-14
 -1      2434 7.33404E-03 4.96162E-04-3.61072E-14
 -1      2435 7.84518E-03 5.21304E-04-4.07178E-14
 -1      2436 7.69893E-03 5.24816E-04-3.93670E-14
 -1      2437 7.62389E-03 4.89180E-04-3.87322E-14
 -1      2438 8.13919E-03 5.14570E-04-4.34770E-14
 -1      2439 7.99190E-03 5.17858E-04-4.20878E-14
 -1      2440 7.91513E-03 4.81985E-04-4.14326E-14
 -1      2441 8.43560E-03 5.08983E-04-4.63097E-14
 -1      2442 8.28706E-03 5.11569E-04-4.48841E-14
 -1      2443 8.20810E-03 4.75165E-04-4.42073E-14
 -1      2444 8.73483E-03 5.05828E-04-4.92132E-14
 -1      2445 8.58483E-03 5.07011E-04-4.77530E-14
 -1      2446 8.50318E-03 4.69647E-04-4.70575E-14
 -1      2447 9.03725E-03 5.06898E-04-5.21798E-14
 -1      2448 8.88562E-03 5.05715E-04-5.06893E-14
 -1      2449 8.80081E-03 4.66792E-04-4.99757E-14
 -1      2450 9.34319E-03 5.14535E-04-5.52054E-14
 -1      2451 9.18979E-03 5.09745E-04-5.36847E-14
 -1      2452 9.10148E-03 4.68482E-04-5.29539E-14
 -1      2453 9.65279E-03 5.31575E-04-5.82903E-14
 -1      2454 9.49757E-03 5.21706E-04-5.67407E-14
 -1      2455 9.40570E-03 4.77157E-04-5.59920E-14
 -1      2456 9.96588E-03 5.61080E-04-6.14374E-14
 -1      2457 9.80900E-03 5.44596E-04-5.98560E-14
 -1      2458 9.71394E-03 4.95754E-04-5.90912E-14
 -1      2459 1.02818E-02 6.05734E-04-6.46469E-14
 -1      2460 1.01237E-02 5.81392E-04-6.30341E-14
 -1      2461 1.00265E-02 5.27423E-04-6.22512E-14
 -1      2462 1.05991E-02 6.66736E-04-6.79060E-14
 -1      2463 1.04405E-02 6.34211E-04-6.62701E-14
 -1      2464 1.03432E-02 5.74896E-04-6.54687E-14
 -1      2465 1.09152E-02 7.42158E-04-7.12153E-14
 -1      2466 1.07576E-02 7.02925E-04-6.95567E-14
 -1      2467 1.06630E-02 6.39297E-04-6.87371E-14
 -1      2468 1.12266E-02 8.25088E-04-7.45645E-14
 -1      2469 1.10719E-02 7.83339E-04-7.28852E-14
 -1      2470 1.09833E-02 7.18308E-04-7.20493E-14
 -1      2471 1.15297E-02 9.02496E-04-7.79511E-14
 -1      2472 1.13794E-02 8.65532E-04-7.62523E-14
 -1      2473 1.13002E-02 8.04026E-04-7.53994E-14
 -1      2474 1.18220E-02 9.56390E-04-8.13681E-14
 -1      2475 1.16771E-02 9.33597E-04-7.96558E-14
 -1      2476 1.16091E-02 8.81607E-04-7.87883E-14
 -1      2477 1.21047E-02 9.68543E-04-8.48123E-14
 -1      2478 1.19641E-02 9.68649E-04-8.30874E-14
 -1      2479 1.19073E-02 9.30942E-04-8.22081E-14
 -1      2480 1.23823E-02 9.27333E-04-8.82786E-14
 -1      2481 1.22434E-02 9.54889E-04-8.65424E-14
 -1      2482 1.21967E-02 9.32746E-04-8.56532E-14
 -1      2483 1.26608E-02 8.32667E-04-9.17673E-14
 -1      2484 1.25209E-02 8.86197E-04-9.00204E-14
 -1      2485 1.24829E-02 8.76910E-04-8.91194E-14
 -1      2486 1.29440E-02 6.94994E-04-9.52813E-14
 -1      2487 1.28016E-02 7.68271E-04-9.35220E-14
 -1      2488 1.27723E-02 7.67110E-04-9.26115E-14
 -1      2489 1.32323E-02 5.29363E-04-9.88191E-14
 -1      2490 1.30877E-02 6.14754E-04-9.70474E-14
 -1      2491 1.30677E-02 6.17657E-04-9.61274E-14
 -1      2492 1.35231E-02 3.48945E-04-1.02390E-13
 -1      2493 1.33776E-02 4.40406E-04-1.00600E-13
 -1      2494 1.33671E-02 4.45357E-04-9.96713E-14
 -1      2495 1.38133E-02 1.61730E-04-1.05983E-13
 -1      2496 1.36685E-02 2.55934E-04-1.04182E-13
 -1      2497 1.36663E-02 2.62698E-04-1.03245E-13
 -1      2498 1.39604E-02 6.47625E-05-1.07847E-13
 -1      2499 1.46826E-02-2.56210E-04-1.06465E-13
 -1      2500 1.45608E-02-2.08642E-04-1.06516E-13
 -1      2501 1.49372E-02-3.44318E-04-1.06371E-13
 -1      2502 1.48090E-02-3.02450E-04-1.06418E-13
 -1      2503 1.46096E-02-2.27046E-04-1.04880E-13
 -1      2504 1.42374E-02-6.33203E-05-1.06660E-13
 -1      2505 1.41408E-02-1.58110E-05-1.06706E-13
 -1      2506 1.44464E-02-1.59686E-04-1.06564E-13
 -1      2507 1.43391E-02-1.11845E-04-1.06610E-13
 -1      2508 1.41517E-02-1.25510E-05-1.05075E-13
 -1      2509 1.43656E-02-1.18544E-04-1.04977E-13
 -1      2510 1.51815E-02-4.12194E-04-1.06272E-13
 -1      2511 1.50633E-02-3.81626E-04-1.06320E-13
 -1      2512 1.48743E-02-3.27492E-04-1.04781E-13
 -1      2513 1.53697E-02-4.51834E-04-1.06178E-13
 -1      2514 1.52864E-02-4.35214E-04-1.06226E-13
 -1      2515 1.51256E-02-4.03830E-04-1.04682E-13
 -1      2516 1.54523E-02-4.69327E-04-1.06083E-13
 -1      2517 1.54268E-02-4.61399E-04-1.06131E-13
 -1      2518 1.53069E-02-4.46904E-04-1.04585E-13
 -1      2519 1.54084E-02-4.85480E-04-1.05988E-13
 -1      2520 1.54453E-02-4.74999E-04-1.06034E-13
 -1      2521 1.53619E-02-4.67891E-04-1.04487E-13
 -1      2522 1.52576E-02-5.22461E-04-1.05889E-13
 -1      2523 1.53435E-02-5.00072E-04-1.05939E-13
 -1      2524 1.52775E-02-4.95537E-04-1.04387E-13
 -1      2525 1.50469E-02-5.86852E-04-1.05793E-13
 -1      2526 1.51563E-02-5.51673E-04-1.05843E-13
 -1      2527 1.50902E-02-5.53552E-04-1.04289E-13
 -1      2528 1.48222E-02-6.70295E-04-1.05692E-13
 -1      2529 1.49341E-02-6.27409E-04-1.05741E-13
 -1      2530 1.48594E-02-6.41219E-04-1.04188E-13
 -1      2531 1.50444E-02-4.22876E-04-9.77355E-14
 -1      2532 1.50893E-02-4.32867E-04-9.75352E-14
 -1      2533 1.42259E-02-1.37631E-04-9.52608E-14
 -1      2534 1.44539E-02-2.35614E-04-9.60148E-14
 -1      2535 1.58458E-03 4.97057E-04-1.76665E-15
 -1      2536 1.44363E-03 4.78729E-04-1.46011E-15
 -1      2537 1.64190E-03 4.69202E-04-1.98168E-15
 -1      2538 1.47174E-02-7.13876E-04-1.06601E-13
 -1      2539 1.37839E-02 9.11388E-05-9.36791E-14
 -1      2540 1.39837E-02-1.93457E-05-9.44432E-14
 -1      2541 1.41094E-02-8.91203E-05-9.55561E-14
 -1      2542 1.36538E-02 1.54787E-04-9.39194E-14
 -1      2543 1.50906E-02-4.43643E-04-9.73892E-14
 -1      2544 1.50591E-02-4.52664E-04-9.72435E-14
 -1      2545 1.51167E-02-4.42089E-04-9.85999E-14
 -1      2546 1.20498E-02-1.29229E-03-8.10100E-14
 -1      2547 1.18714E-02-1.16695E-03-7.98798E-14
 -1      2548 1.02763E-02-1.66247E-04-7.38220E-14
 -1      2549 1.04176E-02-1.24586E-04-7.43018E-14
 -1      2550 1.25174E-02 7.64760E-04-8.63061E-14
 -1      2551 1.26546E-02 7.28432E-04-8.74040E-14
 -1      2552 5.46561E-04-2.28962E-05-3.86898E-16
 -1      2553 5.47020E-04-3.89339E-05-3.84187E-16
 -1      2554 6.62477E-04-5.58066E-05-5.17314E-16
 -1      2555 6.61243E-04-1.77024E-05-5.24456E-16
 -1      2556 1.09565E-02 9.95020E-05-7.66900E-14
 -1      2557 1.11344E-02 1.92211E-04-7.73148E-14
 -1      2558 1.18254E-02 5.82447E-04-8.10882E-14
 -1      2559 1.19713E-02 6.57779E-04-8.20684E-14
 -1      2560 1.04026E-02-3.19584E-04-7.43244E-14
 -1      2561 1.02819E-02-2.80630E-04-7.40461E-14
 -1      2562 1.06082E-02-5.51088E-05-7.51728E-14
 -1      2563 1.07777E-02 1.51567E-05-7.59305E-14
 -1      2564 1.08390E-02 5.23053E-05-7.55032E-14
 -1      2565 1.01385E-02-2.09048E-04-7.35019E-14
 -1      2566 1.01790E-02-1.97689E-04-7.36322E-14
 -1      2567 1.30421E-02-1.42192E-03-8.84316E-14
 -1      2568 1.29041E-02-1.48248E-03-8.74506E-14
 -1      2569 1.01844E-02-2.46347E-04-7.37625E-14
 -1      2570 1.01361E-02-2.28490E-04-7.36046E-14
 -1      2571 1.07630E-02-4.69961E-04-7.52614E-14
 -1      2572 1.05810E-02-3.88604E-04-7.47018E-14
 -1      2573 1.11591E-02-6.87765E-04-7.66771E-14
 -1      2574 1.09721E-02-5.80239E-04-7.60270E-14
 -1      2575 1.16133E-02-9.84512E-04-7.84884E-14
 -1      2576 1.13890E-02-8.30328E-04-7.75333E-14
 -1      2577 1.23491E-02-1.46027E-03-8.31128E-14
 -1      2578 1.22185E-02-1.39318E-03-8.21550E-14
 -1      2579 1.26739E-02-1.52686E-03-8.56327E-14
 -1      2580 1.25085E-02-1.51236E-03-8.42797E-14
 -1      2581 1.33699E-02-1.23969E-03-9.05163E-14
 -1      2582 1.32022E-02-1.34077E-03-8.94726E-14
 -1      2583 1.31448E-02-1.37819E-03-8.94785E-14
 -1      2584 1.37456E-02-1.01387E-03-9.24973E-14
 -1      2585 1.35527E-02-1.13147E-03-9.15065E-14
 -1      2586 1.34567E-02-1.19336E-03-9.15132E-14
 -1      2587 1.42342E-02-7.55032E-04-9.42801E-14
 -1      2588 1.40295E-02-8.58004E-04-9.36034E-14
 -1      2589 1.46005E-02-5.98834E-04-9.55159E-14
 -1      2590 1.44213E-02-6.70277E-04-9.48981E-14
 -1      2591 1.43352E-02-7.06720E-04-9.53434E-14
 -1      2592 5.88557E-04-2.37971E-04-2.80117E-16
 -1      2593 7.81354E-04-3.04822E-04-4.48412E-16
 -1      2594 8.40798E-04-2.93587E-04-5.57741E-16
 -1      2595 5.78982E-04-2.10140E-04-3.03265E-16
 -1      2596 7.57934E-04 3.34194E-04-4.03174E-16
 -1      2597 6.11510E-04 2.84835E-04-2.71999E-16
 -1      2598 5.84782E-04 2.58065E-04-2.76743E-16
 -1      2599 8.13755E-04 3.22865E-04-5.11757E-16
 -1      2600 1.46997E-02-3.26800E-04-9.67242E-14
 -1      2601 1.48884E-02-3.81250E-04-9.72680E-14
 -1      2602 1.11175E-02 1.98973E-04-7.65067E-14
 -1      2603 1.12503E-02 2.58089E-04-7.75633E-14
 -1      2604 1.13502E-02 3.25477E-04-7.78103E-14
 -1      2605 6.70189E-04-1.37955E-04-4.85221E-16
 -1      2606 5.54566E-04-1.26202E-04-3.52555E-16
 -1      2607 5.57781E-04-1.46175E-04-3.41239E-16
 -1      2608 1.35786E-03 4.32708E-04-1.36361E-15
 -1      2609 5.72275E-04 2.27867E-04-3.00690E-16
 -1      2610 1.45890E-02-2.93927E-04-9.70881E-14
 -1      2611 1.47109E-02-3.33400E-04-9.81708E-14
 -1      2612 1.44825E-02-2.54212E-04-9.74542E-14
 -1      2613 5.64280E-04-1.64938E-04-3.32701E-16
 -1      2614 5.69724E-04-1.88005E-04-3.16601E-16
 -1      2615 6.97837E-04-2.27738E-04-4.36798E-16
 -1      2616 6.80691E-04-1.81657E-04-4.62846E-16
 -1      2617 1.27515E-02 6.87171E-04-8.83516E-14
 -1      2618 1.50268E-02-4.64590E-04-9.76381E-14
 -1      2619 1.47171E-02-5.53416E-04-9.63908E-14
 -1      2620 1.46335E-02-5.86938E-04-9.68385E-14
 -1      2621 1.48212E-02-5.23917E-04-9.72689E-14
 -1      2622 1.38862E-02-9.37573E-04-9.36146E-14
 -1      2623 1.39643E-02 7.33439E-05-1.06902E-13
 -1      2624 1.40171E-02 4.83548E-05-1.06665E-13
 -1      2625 1.18443E-02-1.15162E-03-7.90906E-14
 -1      2626 1.17413E-02-1.07124E-03-7.87903E-14
 -1      2627 1.16116E-02-9.80545E-04-7.77049E-14
 -1      2628 1.49961E-02-4.11791E-04-9.82726E-14
 -1      2629 1.50794E-02-4.27549E-04-9.92829E-14
 -1      2630 1.49341E-02-3.97133E-04-9.88110E-14
 -1      2631 1.24387E-02-1.49760E-03-8.36314E-14
 -1      2632 6.89559E-04 2.51218E-04-4.28856E-16
 -1      2633 1.24163E-02 7.77389E-04-8.55526E-14
 -1      2634 1.24799E-02 7.72929E-04-8.63145E-14
 -1      2635 1.23241E-02 7.77328E-04-8.47999E-14
 -1      2636 1.30791E-02 5.09743E-04-9.08971E-14
 -1      2637 1.31925E-02 4.40316E-04-9.13641E-14
 -1      2638 1.33178E-02 3.58251E-04-9.26328E-14
 -1      2639 1.02102E-02-1.74175E-04-7.28302E-14
 -1      2640 1.21348E-02-1.34615E-03-8.13230E-14
 -1      2641 1.12767E-02-7.52862E-04-7.65500E-14
 -1      2642 1.08557E-02-5.09117E-04-7.49323E-14
 -1      2643 1.02159E-02-2.51489E-04-7.31349E-14
 -1      2644 1.04823E-02-9.06926E-05-7.38816E-14
 -1      2645 1.04837E-02-3.42405E-04-7.37940E-14
 -1      2646 1.17012E-02 5.19821E-04-8.00990E-14
 -1      2647 1.17689E-02 5.71874E-04-8.03373E-14
 -1      2648 1.15781E-02 4.58269E-04-7.91123E-14
 -1      2649 1.20684E-02 7.05354E-04-8.26819E-14
 -1      2650 1.01183E-02-2.12287E-04-7.27469E-14
 -1      2651 1.45201E-02-8.01130E-04-1.04675E-13
 -1      2652 1.47012E-02-7.20332E-04-1.05326E-13
 -1      2653 1.46187E-02-7.45975E-04-1.03769E-13
 -1      2654 1.43820E-02-8.61134E-04-1.03043E-13
 -1      2655 1.39318E-02 1.05048E-04-1.05083E-13
 -1      2656 1.43885E-02-8.46024E-04-1.02176E-13
 -1      2657 7.80159E-04 7.73264E-05-6.82505E-16
 -1      2658 7.78896E-04 5.54667E-05-6.84985E-16
 -1      2659 7.78047E-04 3.35568E-05-6.86232E-16
 -1      2660 7.77623E-04 1.18949E-05-6.85948E-16
 -1      2661 8.96453E-04 4.96771E-05-8.66711E-16
 -1      2662 7.91524E-04 1.73117E-04-6.52690E-16
 -1      2663 7.87512E-04 1.47704E-04-6.63572E-16
 -1      2664 8.03404E-04 2.28312E-04-6.22088E-16
 -1      2665 7.96772E-04 1.99922E-04-6.39232E-16
 -1      2666 9.14826E-04 2.07814E-04-8.20036E-16
 -1      2667 1.12984E-03 3.61940E-04-1.01320E-15
 -1      2668 9.86238E-04 3.32871E-04-7.89882E-16
 -1      2669 8.03107E-04 2.78219E-04-5.62443E-16
 -1      2670 1.32016E-03-3.62760E-04-1.33715E-15
 -1      2671 1.46339E-03-3.81745E-04-1.62270E-15
 -1      2672 1.60643E-03-3.97831E-04-1.93666E-15
 -1      2673 1.74937E-03-4.11248E-04-2.27901E-15
 -1      2674 1.52498E-03-3.55418E-04-1.81731E-15
 -1      2675 1.89214E-03-4.22464E-04-2.64976E-15
 -1      2676 2.03479E-03-4.31666E-04-3.04844E-15
 -1      2677 1.81166E-03-3.81334E-04-2.50830E-15
 -1      2678 2.17735E-03-4.39230E-04-3.47537E-15
 -1      2679 2.31981E-03-4.45309E-04-3.92973E-15
 -1      2680 2.09812E-03-3.99206E-04-3.31109E-15
 -1      2681 2.46223E-03-4.50192E-04-4.41188E-15
 -1      2682 2.60459E-03-4.54001E-04-4.92258E-15
 -1      2683 2.38430E-03-4.11052E-04-4.22434E-15
 -1      2684 2.74695E-03-4.56954E-04-5.46079E-15
 -1      2685 2.88928E-03-4.59146E-04-6.02532E-15
 -1      2686 2.67024E-03-4.18492E-04-5.24808E-15
 -1      2687 3.03162E-03-4.60738E-04-6.61645E-15
 -1      2688 3.17397E-03-4.61802E-04-7.23442E-15
 -1      2689 2.95601E-03-4.22781E-04-6.38079E-15
 -1      2690 3.31635E-03-4.62456E-04-7.87905E-15
 -1      2691 3.45873E-03-4.62752E-04-8.55033E-15
 -1      2692 3.24168E-03-4.24869E-04-7.61930E-15
 -1      2693 3.60116E-03-4.62773E-04-9.24684E-15
 -1      2694 3.74360E-03-4.62558E-04-9.96859E-15
 -1      2695 3.52730E-03-4.25455E-04-8.96238E-15
 -1      2696 3.88609E-03-4.62161E-04-1.07148E-14
 -1      2697 4.02859E-03-4.61610E-04-1.14858E-14
 -1      2698 3.81288E-03-4.25042E-04-1.04074E-14
 -1      2699 4.17114E-03-4.60940E-04-1.22817E-14
 -1      2700 4.31371E-03-4.60166E-04-1.31020E-14
 -1      2701 4.09847E-03-4.23971E-04-1.19515E-14
 -1      2702 4.45632E-03-4.59309E-04-1.39460E-14
 -1      2703 4.59896E-03-4.58376E-04-1.48127E-14
 -1      2704 4.38407E-03-4.22464E-04-1.35913E-14
 -1      2705 4.74163E-03-4.57377E-04-1.57023E-14
 -1      2706 4.88432E-03-4.56312E-04-1.66155E-14
 -1      2707 4.66970E-03-4.20647E-04-1.53261E-14
 -1      2708 5.02705E-03-4.55181E-04-1.75512E-14
 -1      2709 5.16981E-03-4.53981E-04-1.85091E-14
 -1      2710 4.95535E-03-4.18572E-04-1.71516E-14
 -1      2711 5.31261E-03-4.52704E-04-1.94898E-14
 -1      2712 5.45543E-03-4.51343E-04-2.04925E-14
 -1      2713 5.24105E-03-4.16233E-04-1.90694E-14
 -1      2714 5.59829E-03-4.49884E-04-2.15163E-14
 -1      2715 5.74119E-03-4.48319E-04-2.25622E-14
 -1      2716 5.52679E-03-4.13580E-04-2.10748E-14
 -1      2717 5.88413E-03-4.46629E-04-2.36290E-14
 -1      2718 6.02711E-03-4.44803E-04-2.47174E-14
 -1      2719 5.81258E-03-4.10530E-04-2.31666E-14
 -1      2720 6.17013E-03-4.42821E-04-2.58271E-14
 -1      2721 6.31321E-03-4.40673E-04-2.69570E-14
 -1      2722 6.09843E-03-4.06975E-04-2.53426E-14
 -1      2723 6.45634E-03-4.38335E-04-2.81072E-14
 -1      2724 6.59954E-03-4.35798E-04-2.92784E-14
 -1      2725 6.38435E-03-4.02794E-04-2.76032E-14
 -1      2726 6.74279E-03-4.33041E-04-3.04720E-14
 -1      2727 6.88613E-03-4.30057E-04-3.16845E-14
 -1      2728 6.67032E-03-3.97864E-04-2.99467E-14
 -1      2729 7.02953E-03-4.26831E-04-3.29171E-14
 -1      2730 7.17304E-03-4.23360E-04-3.41706E-14
 -1      2731 6.95635E-03-3.92075E-04-3.23726E-14
 -1      2732 7.31662E-03-4.19639E-04-3.54438E-14
 -1      2733 7.46033E-03-4.15675E-04-3.67365E-14
 -1      2734 7.24243E-03-3.85353E-04-3.48777E-14
 -1      2735 7.60412E-03-4.11480E-04-3.80486E-14
 -1      2736 7.74806E-03-4.07074E-04-3.93789E-14
 -1      2737 7.52853E-03-3.77695E-04-3.74635E-14
 -1      2738 7.89208E-03-4.02500E-04-4.07268E-14
 -1      2739 8.03628E-03-3.97794E-04-4.20927E-14
 -1      2740 7.81458E-03-3.69207E-04-4.01233E-14
 -1      2741 8.18056E-03-3.93047E-04-4.34791E-14
 -1      2742 8.32504E-03-3.88324E-04-4.48821E-14
 -1      2743 8.10051E-03-3.60174E-04-4.28566E-14
 -1      2744 8.46961E-03-3.83781E-04-4.63016E-14
 -1      2745 8.61443E-03-3.79524E-04-4.77380E-14
 -1      2746 8.38622E-03-3.51136E-04-4.56620E-14
 -1      2747 8.75935E-03-3.75800E-04-4.91887E-14
 -1      2748 8.90458E-03-3.72782E-04-5.06542E-14
 -1      2749 8.67159E-03-3.43002E-04-4.85317E-14
 -1      2750 9.04999E-03-3.70831E-04-5.21361E-14
 -1      2751 9.19584E-03-3.70224E-04-5.36332E-14
 -1      2752 8.95661E-03-3.37183E-04-5.14621E-14
 -1      2753 9.34205E-03-3.71456E-04-5.51442E-14
 -1      2754 9.48899E-03-3.74975E-04-5.66669E-14
 -1      2755 9.24147E-03-3.35763E-04-5.44537E-14
 -1      2756 9.63670E-03-3.81406E-04-5.82040E-14
 -1      2757 9.78571E-03-3.91491E-04-5.97536E-14
 -1      2758 9.52697E-03-3.41702E-04-5.75002E-14
 -1      2759 9.93633E-03-4.05927E-04-6.13144E-14
 -1      2760 1.00893E-02-4.25989E-04-6.28870E-14
 -1      2761 9.81505E-03-3.59115E-04-6.05966E-14
 -1      2762 1.02454E-02-4.52326E-04-6.44686E-14
 -1      2763 1.04055E-02-4.87122E-04-6.60626E-14
 -1      2764 1.01098E-02-3.93751E-04-6.37397E-14
 -1      2765 1.05713E-02-5.30706E-04-6.76661E-14
 -1      2766 1.07431E-02-5.86756E-04-6.92780E-14
 -1      2767 1.04187E-02-4.54089E-04-6.69261E-14
 -1      2768 1.09238E-02-6.55132E-04-7.08991E-14
 -1      2769 1.11117E-02-7.40332E-04-7.25266E-14
 -1      2770 1.07534E-02-5.53489E-04-7.01487E-14
 -1      2771 1.17004E-02-1.07791E-03-7.72945E-14
 -1      2772 1.19069E-02-1.21403E-03-7.89576E-14
 -1      2773 1.25003E-02-1.52979E-03-8.40503E-14
 -1      2774 1.26867E-02-1.54609E-03-8.57703E-14
 -1      2775 1.28819E-02-1.50779E-03-8.75896E-14
 -1      2776 1.30773E-02-1.43495E-03-8.93318E-14
 -1      2777 1.37047E-02-1.11182E-03-9.47091E-14
 -1      2778 1.39041E-02-1.01797E-03-9.64945E-14
 -1      2779 1.40978E-02-9.36883E-04-9.82890E-14
 -1      2780 1.42806E-02-8.65037E-04-1.00094E-13
 -1      2781 1.40990E-02-9.03215E-04-9.74394E-14
 -1      2782 2.26923E-03 4.78611E-04-3.85393E-15
 -1      2783 2.12740E-03 4.71757E-04-3.39770E-15
 -1      2784 1.38979E-02 1.27436E-04-1.03327E-13
 -1      2785 1.37787E-02 1.96826E-04-1.03286E-13
 -1      2786 1.36239E-02 2.88288E-04-1.01497E-13
 -1      2787 1.98548E-03 4.63279E-04-2.96994E-15
 -1      2788 1.84344E-03 4.53016E-04-2.57104E-15
 -1      2789 2.04764E-03 4.31351E-04-3.22546E-15
 -1      2790 2.83629E-03 4.94583E-04-5.96054E-15
 -1      2791 2.69452E-03 4.91977E-04-5.39193E-15
 -1      2792 3.11996E-03 4.97896E-04-7.17891E-15
 -1      2793 2.97811E-03 4.96530E-04-6.55637E-15
 -1      2794 2.90241E-03 4.58566E-04-6.30491E-15
 -1      2795 3.40384E-03 4.99326E-04-8.50303E-15
 -1      2796 3.26188E-03 4.98808E-04-7.82771E-15
 -1      2797 3.18719E-03 4.61255E-04-7.55019E-15
 -1      2798 3.68797E-03 4.99486E-04-9.93124E-15
 -1      2799 3.54588E-03 4.99537E-04-9.20428E-15
 -1      2800 3.47203E-03 4.62272E-04-8.89982E-15
 -1      2801 3.97236E-03 4.98808E-04-1.14610E-14
 -1      2802 3.83014E-03 4.99233E-04-1.06840E-14
 -1      2803 3.75696E-03 4.62170E-04-1.03527E-14
 -1      2804 4.25698E-03 4.97576E-04-1.30885E-14
 -1      2805 4.11464E-03 4.98249E-04-1.22620E-14
 -1      2806 4.04201E-03 4.61330E-04-1.19059E-14
 -1      2807 4.54183E-03 4.95968E-04-1.48120E-14
 -1      2808 4.39938E-03 4.96812E-04-1.39386E-14
 -1      2809 4.32717E-03 4.60004E-04-1.35558E-14
 -1      2810 4.82689E-03 4.94071E-04-1.66283E-14
 -1      2811 4.68434E-03 4.95052E-04-1.57085E-14
 -1      2812 4.61244E-03 4.58340E-04-1.53004E-14
 -1      2813 5.11214E-03 4.91909E-04-1.85363E-14
 -1      2814 4.96949E-03 4.93023E-04-1.75711E-14
 -1      2815 4.89783E-03 4.56408E-04-1.71376E-14
 -1      2816 5.39760E-03 4.89456E-04-2.05308E-14
 -1      2817 5.25485E-03 4.90721E-04-1.95228E-14
 -1      2818 5.18333E-03 4.54214E-04-1.90640E-14
 -1      2819 5.68326E-03 4.86648E-04-2.26121E-14
 -1      2820 5.54040E-03 4.88100E-04-2.15609E-14
 -1      2821 5.46895E-03 4.51723E-04-2.10792E-14
 -1      2822 5.96915E-03 4.83396E-04-2.47735E-14
 -1      2823 5.82617E-03 4.85082E-04-2.36825E-14
 -1      2824 5.75470E-03 4.48862E-04-2.31789E-14
 -1      2825 6.25532E-03 4.79599E-04-2.70157E-14
 -1      2826 6.11220E-03 4.81570E-04-2.58850E-14
 -1      2827 6.04060E-03 4.45539E-04-2.53594E-14
 -1      2828 6.54183E-03 4.75157E-04-2.93368E-14
 -1      2829 6.39853E-03 4.77463E-04-2.81656E-14
 -1      2830 6.32667E-03 4.41651E-04-2.76202E-14
 -1      2831 6.82877E-03 4.69994E-04-3.17395E-14
 -1      2832 6.68524E-03 4.72668E-04-3.05284E-14
 -1      2833 6.61296E-03 4.37099E-04-2.99605E-14
 -1      2834 7.11625E-03 4.64078E-04-3.42221E-14
 -1      2835 6.97243E-03 4.67129E-04-3.29705E-14
 -1      2836 6.89954E-03 4.31811E-04-3.23816E-14
 -1      2837 7.40443E-03 4.57457E-04-3.67874E-14
 -1      2838 7.26024E-03 4.60848E-04-3.54944E-14
 -1      2839 7.18649E-03 4.25761E-04-3.48836E-14
 -1      2840 7.69350E-03 4.50308E-04-3.94290E-14
 -1      2841 7.54883E-03 4.53932E-04-3.80983E-14
 -1      2842 7.47391E-03 4.19011E-04-3.74656E-14
 -1      2843 7.98371E-03 4.42991E-04-4.21466E-14
 -1      2844 7.83843E-03 4.46641E-04-4.07781E-14
 -1      2845 7.76197E-03 4.11751E-04-4.01262E-14
 -1      2846 8.27535E-03 4.36131E-04-4.49395E-14
 -1      2847 8.12931E-03 4.39457E-04-4.35346E-14
 -1      2848 8.05089E-03 4.04364E-04-4.28607E-14
 -1      2849 8.56884E-03 4.30698E-04-4.78038E-14
 -1      2850 8.42183E-03 4.33165E-04-4.63626E-14
 -1      2851 8.34095E-03 3.97493E-04-4.56703E-14
 -1      2852 8.86467E-03 4.28105E-04-5.07359E-14
 -1      2853 8.71642E-03 4.28944E-04-4.92631E-14
 -1      2854 8.63261E-03 3.92132E-04-4.85514E-14
 -1      2855 9.16348E-03 4.30291E-04-5.37278E-14
 -1      2856 9.01366E-03 4.28461E-04-5.22244E-14
 -1      2857 8.92646E-03 3.89716E-04-5.14971E-14
 -1      2858 9.46607E-03 4.39764E-04-5.67791E-14
 -1      2859 9.31427E-03 4.33936E-04-5.52447E-14
 -1      2860 9.22337E-03 3.92209E-04-5.45003E-14
 -1      2861 9.77331E-03 4.59545E-04-5.98897E-14
 -1      2862 9.61910E-03 4.48149E-04-5.83266E-14
 -1      2863 9.52446E-03 4.02164E-04-5.75641E-14
 -1      2864 1.00861E-02 4.92908E-04-6.30623E-14
 -1      2865 9.92905E-03 4.74299E-04-6.14692E-14
 -1      2866 9.83114E-03 4.22694E-04-6.06881E-14
 -1      2867 1.04047E-02 5.42752E-04-6.62875E-14
 -1      2868 1.02448E-02 5.15590E-04-6.46683E-14
 -1      2869 1.01449E-02 4.57279E-04-6.38701E-14
 -1      2870 1.07285E-02 6.10349E-04-6.95622E-14
 -1      2871 1.05663E-02 5.74334E-04-6.79196E-14
 -1      2872 1.04666E-02 5.09185E-04-6.71054E-14
 -1      2873 1.10548E-02 6.93216E-04-7.28778E-14
 -1      2874 1.08918E-02 6.50246E-04-7.12152E-14
 -1      2875 1.07958E-02 5.80103E-04-7.03833E-14
 -1      2876 1.13786E-02 7.82474E-04-7.62325E-14
 -1      2877 1.12175E-02 7.37982E-04-7.45505E-14
 -1      2878 1.11294E-02 6.67581E-04-7.37042E-14
 -1      2879 1.16941E-02 8.61092E-04-7.96237E-14
 -1      2880 1.15377E-02 8.24676E-04-7.79235E-14
 -1      2881 1.14609E-02 7.61586E-04-7.70623E-14
 -1      2882 1.19983E-02 9.05823E-04-8.30443E-14
 -1      2883 1.18474E-02 8.89323E-04-8.13304E-14
 -1      2884 1.17831E-02 8.41664E-04-8.04557E-14
 -1      2885 1.22938E-02 8.95870E-04-8.64912E-14
 -1      2886 1.21463E-02 9.08651E-04-8.47659E-14
 -1      2887 1.20928E-02 8.80577E-04-8.38786E-14
 -1      2888 1.25886E-02 8.23235E-04-8.99586E-14
 -1      2889 1.24404E-02 8.67098E-04-8.82220E-14
 -1      2890 1.23951E-02 8.56026E-04-8.73261E-14
 -1      2891 1.28895E-02 6.96718E-04-9.34516E-14
 -1      2892 1.27379E-02 7.65399E-04-9.17009E-14
 -1      2893 1.27000E-02 7.63896E-04-9.07961E-14
 -1      2894 1.31974E-02 5.35576E-04-9.69706E-14
 -1      2895 1.30428E-02 6.19104E-04-9.52087E-14
 -1      2896 1.30139E-02 6.20092E-04-9.42902E-14
 -1      2897 1.34875E-02 3.68598E-04-1.00117E-13
 -1      2898 1.33314E-02 4.58247E-04-9.83403E-14
 -1      2899 1.33122E-02 4.58646E-04-9.74131E-14
 -1      2900 1.35945E-02 2.98078E-04-1.00159E-13
 -1      2901 1.50910E-02-4.05693E-04-1.03320E-13
 -1      2902 1.49680E-02-3.69681E-04-1.03370E-13
 -1      2903 1.43977E-02-8.23448E-04-1.01317E-13
 -1      2904 1.45099E-02-7.83529E-04-1.02540E-13
 -1      2905 1.44103E-02-7.93169E-04-1.00458E-13
 -1      2906 1.45336E-02-2.04627E-04-1.03297E-13
 -1      2907 1.44019E-02-1.43611E-04-1.03346E-13
 -1      2908 1.52570E-02-4.47615E-04-1.03121E-13
 -1      2909 1.51876E-02-4.29878E-04-1.03172E-13
 -1      2910 1.48127E-02-3.19266E-04-1.03194E-13
 -1      2911 1.46719E-02-2.64948E-04-1.03245E-13
 -1      2912 1.44577E-02-1.88936E-04-1.01715E-13
 -1      2913 1.51485E-02-4.44717E-04-9.97869E-14
 -1      2914 1.51466E-02-4.48889E-04-9.96411E-14
 -1      2915 1.27872E-02-1.51917E-03-8.66123E-14
 -1      2916 1.52616E-02-4.66657E-04-1.02630E-13
 -1      2917 1.52670E-02-4.54181E-04-1.02680E-13
 -1      2918 1.49267E-02-5.89519E-04-1.02920E-13
 -1      2919 1.50446E-02-5.44692E-04-1.02969E-13
 -1      2920 1.40453E-02-8.56289E-04-9.49242E-14
 -1      2921 1.37956E-02-9.99089E-04-9.38126E-14
 -1      2922 1.35541E-02-1.14731E-03-9.26137E-14
 -1      2923 1.33987E-02-1.24454E-03-9.16190E-14
 -1      2924 1.05341E-02-3.57653E-04-7.30022E-14
 -1      2925 1.03772E-02-2.99320E-04-7.26282E-14
 -1      2926 1.70122E-03 4.40548E-04-2.20077E-15
 -1      2927 1.55876E-03 4.25668E-04-1.86000E-15
 -1      2928 1.76213E-03 4.11227E-04-2.42409E-15
 -1      2929 2.55275E-03 4.88538E-04-4.85107E-15
 -1      2930 2.41101E-03 4.84161E-04-4.33835E-15
 -1      2931 2.33275E-03 4.44824E-04-4.14032E-15
 -1      2932 2.61763E-03 4.53436E-04-5.16706E-15
 -1      2933 1.50829E-02-4.65330E-04-9.90933E-14
 -1      2934 1.49684E-02-4.85728E-04-9.82754E-14
 -1      2935 1.03371E-03-3.14221E-04-8.51709E-16
 -1      2936 1.17696E-03-3.40334E-04-1.08022E-15
 -1      2937 1.23842E-03-3.19073E-04-1.23954E-15
 -1      2938 1.26963E-02 7.10359E-04-8.82832E-14
 -1      2939 1.28716E-02 6.26380E-04-8.95672E-14
 -1      2940 1.01374E-02-1.78420E-04-7.17243E-14
 -1      2941 1.02190E-02-1.54225E-04-7.19098E-14
 -1      2942 1.41609E-03 4.07843E-04-1.54867E-15
 -1      2943 1.27304E-03 3.86808E-04-1.26613E-15
 -1      2944 1.18968E-03 3.41486E-04-1.16834E-15
 -1      2945 1.47612E-03 3.82195E-04-1.73796E-15
 -1      2946 1.23706E-02-1.48277E-03-8.28867E-14
 -1      2947 7.84359E-04 1.23449E-04-6.71853E-16
 -1      2948 7.81968E-04 1.00015E-04-6.78101E-16
 -1      2949 8.99573E-04 9.94429E-05-8.60165E-16
 -1      2950 9.05321E-04 1.51580E-04-8.45380E-16
 -1      2951 1.01056E-02-2.11915E-04-7.19182E-14
 -1      2952 1.00989E-02-1.99971E-04-7.18136E-14
 -1      2953 1.03893E-02-1.00183E-04-7.26225E-14
 -1      2954 1.05619E-02-4.38780E-05-7.34839E-14
 -1      2955 7.81697E-04-9.79586E-05-6.63057E-16
 -1      2956 7.84012E-04-1.21311E-04-6.53137E-16
 -1      2957 1.07419E-02 3.38962E-05-7.42360E-14
 -1      2958 1.08977E-02 1.04855E-04-7.49869E-14
 -1      2959 1.19841E-02 6.85336E-04-8.18917E-14
 -1      2960 1.21446E-02 7.45488E-04-8.32478E-14
 -1      2961 1.46364E-02-7.23703E-04-1.02905E-13
 -1      2962 1.02553E-02-2.58277E-04-7.23457E-14
 -1      2963 1.01631E-02-2.33224E-04-7.20614E-14
 -1      2964 1.02905E-02-2.72705E-04-7.15561E-14
 -1      2965 1.09448E-02-5.55282E-04-7.44403E-14
 -1      2966 1.07570E-02-4.59274E-04-7.36786E-14
 -1      2967 1.13435E-02-7.99031E-04-7.61390E-14
 -1      2968 1.11433E-02-6.69843E-04-7.52873E-14
 -1      2969 1.10151E-02-6.07857E-04-7.40294E-14
 -1      2970 1.32075E-02-1.36196E-03-9.03776E-14
 -1      2971 7.99438E-04-2.55188E-04-5.48647E-16
 -1      2972 9.30746E-04-2.90768E-04-7.08269E-16
 -1      2973 9.92839E-04-2.75449E-04-8.36516E-16
 -1      2974 7.89263E-04-2.29230E-04-5.65411E-16
 -1      2975 1.44435E-02-6.65806E-04-9.64974E-14
 -1      2976 1.42768E-02-7.40507E-04-9.58771E-14
 -1      2977 7.87064E-04-1.45456E-04-6.41265E-16
 -1      2978 7.90937E-04-1.70627E-04-6.27089E-16
 -1      2979 9.04844E-04-1.49053E-04-8.20565E-16
 -1      2980 8.95426E-04 1.01032E-06-8.66088E-16
 -1      2981 7.77593E-04-9.71993E-06-6.84457E-16
 -1      2982 7.77957E-04-3.13654E-05-6.81435E-16
 -1      2983 8.64863E-04 2.66539E-04-6.75648E-16
 -1      2984 1.25064E-02 7.70291E-04-8.67678E-14
 -1      2985 1.25977E-02 7.45765E-04-8.75253E-14
 -1      2986 1.27113E-02 7.03698E-04-8.87395E-14
 -1      2987 1.43250E-02-1.89267E-04-9.72566E-14
 -1      2988 1.44720E-02-2.42593E-04-9.83366E-14
 -1      2989 1.29983E-02 5.55128E-04-9.08306E-14
 -1      2990 1.49113E-02-5.10156E-04-9.87238E-14
 -1      2991 1.00850E-02-1.81204E-04-7.08978E-14
 -1      2992 1.41091E-02-8.95229E-05-9.64288E-14
 -1      2993 1.10670E-02-6.65782E-04-7.33215E-14
 -1      2994 1.12572E-02-7.94720E-04-7.40817E-14
 -1      2995 1.14613E-02-9.13479E-04-7.57280E-14
 -1      2996 1.33139E-02-1.32082E-03-9.14746E-14
 -1      2997 1.35158E-02-1.21609E-03-9.32457E-14
 -1      2998 1.41908E-02-5.09208E-05-1.01817E-13
 -1      2999 1.42801E-02-8.20525E-05-1.03396E-13
 -1      3000 1.41670E-02-2.28984E-05-1.03444E-13
 -1      3001 1.51424E-02-4.62762E-04-1.00282E-13
 -1      3002 1.47765E-02-3.20891E-04-1.01837E-13
 -1      3003 1.50586E-02-4.07725E-04-1.01862E-13
 -1      3004 1.06141E-02-4.00939E-04-7.25112E-14
 -1      3005 1.01094E-02-2.16177E-04-7.11302E-14
 -1      3006 1.39912E-02 7.42004E-05-1.03279E-13
 -1      3007 1.51245E-02-4.33748E-04-1.00227E-13
 -1      3008 1.51868E-02-4.42505E-04-1.01273E-13
 -1      3009 1.20325E-02-1.29295E-03-8.00504E-14
 -1      3010 1.51898E-02-4.78248E-04-1.02080E-13
 -1      3011 1.49628E-02-5.29082E-04-1.00668E-13
 -1      3012 1.51059E-02-5.04841E-04-1.02027E-13
 -1      3013 1.37180E-02-1.06336E-03-9.39205E-14
 -1      3014 1.47555E-02-6.66776E-04-1.02958E-13
 -1      3015 9.82953E-04 2.75779E-04-8.65356E-16
 -1      3016 1.45542E-02-7.25153E-04-1.01049E-13
 -1      3017 1.47887E-02-6.37173E-04-1.02325E-13
 -1      3018 1.47376E-02-6.29800E-04-1.01012E-13
 -1      3019 1.44383E-02-7.57995E-04-9.98277E-14
 -1      3020 1.41739E-02-8.06194E-04-9.60783E-14
 -1      3021 1.45734E-02-6.22236E-04-9.73745E-14
 -1      3022 1.22235E-02 7.72821E-04-8.40034E-14
 -1      3023 1.35927E-02 1.92074E-04-9.43768E-14
 -1      3024 1.37976E-02 7.13637E-05-9.51974E-14
 -1      3025 1.36986E-02-1.09195E-03-9.41811E-14
 -1      3026 1.14400E-02 3.91069E-04-7.80484E-14
 -1      3027 1.15118E-02 4.53352E-04-7.82847E-14
 -1      3028 1.13028E-02 3.30637E-04-7.69889E-14
 -1      3029 1.01699E-02-1.28893E-04-7.04130E-14
 -1      3030 1.02714E-02-1.20736E-04-7.15150E-14
 -1      3031 1.03237E-02-7.97950E-05-7.11180E-14
 -1      3032 1.14598E-02-8.87108E-04-7.64347E-14
 -1      3033 7.78737E-04-5.31479E-05-6.76854E-16
 -1      3034 7.79957E-04-7.53347E-05-6.70728E-16
 -1      3035 8.99287E-04-9.70920E-05-8.43970E-16
 -1      3036 8.96322E-04-4.75248E-05-8.58661E-16
 -1      3037 1.18656E-02 6.39886E-04-8.08979E-14
 -1      3038 1.19393E-02 6.95059E-04-8.14587E-14
 -1      3039 1.17472E-02 5.91175E-04-7.99079E-14
 -1      3040 1.06146E-02 1.06769E-05-7.29704E-14
 -1      3041 1.33498E-02 3.44610E-04-9.34348E-14
 -1      3042 1.34654E-02 2.69469E-04-9.39051E-14
 -1      3043 1.36119E-02 1.89668E-04-9.51833E-14
 -1      3044 1.09929E-02 1.66529E-04-7.52311E-14
 -1      3045 1.21739E-02-1.38615E-03-8.11892E-14
 -1      3046 1.04026E-03 2.43260E-04-1.00604E-15
 -1      3047 1.03364E-03 2.11538E-04-1.02423E-15
 -1      3048 1.29325E-02 5.97331E-04-9.08397E-14
 -1      3049 1.31189E-02 4.86620E-04-9.21742E-14
 -1      3050 7.85417E-04-1.87499E-04-6.03846E-16
 -1      3051 7.93275E-04-2.11040E-04-5.91595E-16
 -1      3052 8.94172E-04-2.33244E-04-7.23691E-16
 -1      3053 9.03397E-04-1.94918E-04-7.79135E-16
 -1      3054 1.40300E-02-4.12762E-05-9.68927E-14
 -1      3055 1.08952E-02-5.67049E-04-7.24802E-14
 -1      3056 1.73166E-03-3.40489E-04-2.36618E-15
 -1      3057 1.87533E-03-3.50705E-04-2.74254E-15
 -1      3058 2.01898E-03-3.59204E-04-3.14623E-15
 -1      3059 2.16263E-03-3.66141E-04-3.57770E-15
 -1      3060 1.94013E-03-3.19393E-04-2.98157E-15
 -1      3061 2.30622E-03-3.71793E-04-4.03644E-15
 -1      3062 2.44977E-03-3.76285E-04-4.52246E-15
 -1      3063 2.22816E-03-3.32531E-04-3.84842E-15
 -1      3064 2.59326E-03-3.79841E-04-5.03642E-15
 -1      3065 2.73669E-03-3.82558E-04-5.57791E-15
 -1      3066 2.51613E-03-3.41080E-04-4.82530E-15
 -1      3067 2.88007E-03-3.84609E-04-6.14523E-15
 -1      3068 3.02339E-03-3.86069E-04-6.73920E-15
 -1      3069 2.80389E-03-3.46273E-04-5.91005E-15
 -1      3070 3.16667E-03-3.87066E-04-7.35970E-15
 -1      3071 3.30990E-03-3.87657E-04-8.00632E-15
 -1      3072 3.09138E-03-3.49077E-04-7.10086E-15
 -1      3073 3.45310E-03-3.87935E-04-8.67909E-15
 -1      3074 3.59625E-03-3.87940E-04-9.37716E-15
 -1      3075 3.37861E-03-3.50226E-04-8.39625E-15
 -1      3076 3.73937E-03-3.87738E-04-1.01005E-14
 -1      3077 3.88245E-03-3.87356E-04-1.08483E-14
 -1      3078 3.66558E-03-3.50257E-04-9.79377E-15
 -1      3079 4.02552E-03-3.86840E-04-1.16210E-14
 -1      3080 4.16855E-03-3.86205E-04-1.24178E-14
 -1      3081 3.95232E-03-3.49548E-04-1.12917E-14
 -1      3082 4.31157E-03-3.85480E-04-1.32387E-14
 -1      3083 4.45457E-03-3.84674E-04-1.40831E-14
 -1      3084 4.23885E-03-3.48353E-04-1.28859E-14
 -1      3085 4.59755E-03-3.83800E-04-1.49495E-14
 -1      3086 4.74052E-03-3.82862E-04-1.58397E-14
 -1      3087 4.52521E-03-3.46829E-04-1.45744E-14
 -1      3088 4.88347E-03-3.81865E-04-1.67544E-14
 -1      3089 5.02641E-03-3.80807E-04-1.76902E-14
 -1      3090 4.81142E-03-3.45052E-04-1.63562E-14
 -1      3091 5.16934E-03-3.79684E-04-1.86486E-14
 -1      3092 5.31226E-03-3.78490E-04-1.96304E-14
 -1      3093 5.09750E-03-3.43045E-04-1.82295E-14
 -1      3094 5.45517E-03-3.77217E-04-2.06328E-14
 -1      3095 5.59807E-03-3.75856E-04-2.16577E-14
 -1      3096 5.38344E-03-3.40781E-04-2.01915E-14
 -1      3097 5.74095E-03-3.74393E-04-2.27049E-14
 -1      3098 5.88383E-03-3.72818E-04-2.37716E-14
 -1      3099 5.66925E-03-3.38200E-04-2.22421E-14
 -1      3100 6.02668E-03-3.71115E-04-2.48599E-14
 -1      3101 6.16953E-03-3.69272E-04-2.59695E-14
 -1      3102 5.95491E-03-3.35217E-04-2.43779E-14
 -1      3103 6.31235E-03-3.67271E-04-2.71006E-14
 -1      3104 6.45515E-03-3.65100E-04-2.82511E-14
 -1      3105 6.24039E-03-3.31729E-04-2.65974E-14
 -1      3106 6.59792E-03-3.62744E-04-2.94228E-14
 -1      3107 6.74065E-03-3.60190E-04-3.06159E-14
 -1      3108 6.52563E-03-3.27631E-04-2.89002E-14
 -1      3109 6.88334E-03-3.57428E-04-3.18278E-14
 -1      3110 7.02598E-03-3.54447E-04-3.30601E-14
 -1      3111 6.81054E-03-3.22822E-04-3.12843E-14
 -1      3112 7.16854E-03-3.51248E-04-3.43139E-14
 -1      3113 7.31104E-03-3.47822E-04-3.55871E-14
 -1      3114 7.09501E-03-3.17229E-04-3.37507E-14
 -1      3115 7.45342E-03-3.44187E-04-3.68793E-14
 -1      3116 7.59571E-03-3.40341E-04-3.81909E-14
 -1      3117 7.37888E-03-3.10830E-04-3.62965E-14
 -1      3118 7.73783E-03-3.36326E-04-3.95207E-14
 -1      3119 7.87982E-03-3.32151E-04-4.08684E-14
 -1      3120 7.66192E-03-3.03684E-04-3.89187E-14
 -1      3121 8.02158E-03-3.27895E-04-4.22350E-14
 -1      3122 8.16316E-03-3.23582E-04-4.36201E-14
 -1      3123 7.94385E-03-2.95980E-04-4.16145E-14
 -1      3124 8.30442E-03-3.19341E-04-4.50227E-14
 -1      3125 8.44544E-03-3.15219E-04-4.64413E-14
 -1      3126 8.22431E-03-2.88092E-04-4.43841E-14
 -1      3127 8.58606E-03-3.11412E-04-4.78750E-14
 -1      3128 8.72639E-03-3.07999E-04-4.93246E-14
 -1      3129 8.50285E-03-2.80641E-04-4.72193E-14
 -1      3130 8.86624E-03-3.05260E-04-5.07907E-14
 -1      3131 9.00579E-03-3.03320E-04-5.22708E-14
 -1      3132 8.77903E-03-2.74571E-04-5.01196E-14
 -1      3133 9.14485E-03-3.02549E-04-5.37650E-14
 -1      3134 9.28369E-03-3.03151E-04-5.52742E-14
 -1      3135 9.05240E-03-2.71217E-04-5.30790E-14
 -1      3136 9.42218E-03-3.05576E-04-5.67960E-14
 -1      3137 9.56078E-03-3.10179E-04-5.83313E-14
 -1      3138 9.32280E-03-2.72354E-04-5.60948E-14
 -1      3139 9.69947E-03-3.17444E-04-5.98792E-14
 -1      3140 9.83907E-03-3.28031E-04-6.14398E-14
 -1      3141 9.59069E-03-2.80267E-04-5.91620E-14
 -1      3142 9.97979E-03-3.42348E-04-6.30106E-14
 -1      3143 1.01231E-02-3.61785E-04-6.45926E-14
 -1      3144 9.85790E-03-2.97886E-04-6.22828E-14
 -1      3145 1.02696E-02-3.86503E-04-6.61863E-14
 -1      3146 1.04217E-02-4.19643E-04-6.77885E-14
 -1      3147 1.01290E-02-3.29306E-04-6.54471E-14
 -1      3148 1.05658E-02-4.54319E-04-6.93194E-14
 -1      3149 1.07331E-02-5.08862E-04-7.09379E-14
 -1      3150 1.06792E-02-4.50800E-04-7.16430E-14
 -1      3151 1.03998E-02-3.76925E-04-6.85709E-14
 -1      3152 1.00330E-02-1.81538E-04-6.98374E-14
 -1      3153 1.00550E-02-1.63003E-04-6.97467E-14
 -1      3154 2.11107E-03 3.98794E-04-3.48379E-15
 -1      3155 1.96784E-03 3.90864E-04-3.05326E-15
 -1      3156 1.82456E-03 3.81186E-04-2.65135E-15
 -1      3157 1.68121E-03 3.69587E-04-2.27761E-15
 -1      3158 1.88824E-03 3.50473E-04-2.88216E-15
 -1      3159 3.25491E-03 4.24307E-04-7.92260E-15
 -1      3160 3.11206E-03 4.23467E-04-7.27370E-15
 -1      3161 2.96917E-03 4.22171E-04-6.65102E-15
 -1      3162 2.82627E-03 4.20355E-04-6.05490E-15
 -1      3163 3.03656E-03 3.85471E-04-6.99829E-15
 -1      3164 3.82622E-03 4.24661E-04-1.07750E-14
 -1      3165 3.68341E-03 4.24918E-04-1.00235E-14
 -1      3166 4.11185E-03 4.23706E-04-1.23507E-14
 -1      3167 3.96904E-03 4.24250E-04-1.15512E-14
 -1      3168 3.89577E-03 3.87006E-04-1.11973E-14
 -1      3169 4.39748E-03 4.22324E-04-1.40228E-14
 -1      3170 4.25467E-03 4.23060E-04-1.31747E-14
 -1      3171 4.18190E-03 3.85974E-04-1.27956E-14
 -1      3172 4.68313E-03 4.20639E-04-1.57886E-14
 -1      3173 4.54030E-03 4.21516E-04-1.48939E-14
 -1      3174 4.46794E-03 3.84570E-04-1.44892E-14
 -1      3175 4.96880E-03 4.18701E-04-1.76462E-14
 -1      3176 4.82596E-03 4.19701E-04-1.67058E-14
 -1      3177 4.75390E-03 3.82893E-04-1.62762E-14
 -1      3178 5.25449E-03 4.16504E-04-1.95926E-14
 -1      3179 5.11164E-03 4.17637E-04-1.86090E-14
 -1      3180 5.03979E-03 3.80977E-04-1.81544E-14
 -1      3181 5.54023E-03 4.14003E-04-2.16276E-14
 -1      3182 5.39736E-03 4.15296E-04-2.05994E-14
 -1      3183 5.32563E-03 3.78805E-04-2.01217E-14
 -1      3184 5.82600E-03 4.11122E-04-2.37456E-14
 -1      3185 5.68311E-03 4.12615E-04-2.26764E-14
 -1      3186 5.61142E-03 3.76323E-04-2.21755E-14
 -1      3187 6.11183E-03 4.07763E-04-2.59452E-14
 -1      3188 5.96890E-03 4.09508E-04-2.48350E-14
 -1      3189 5.89716E-03 3.73453E-04-2.43128E-14
 -1      3190 6.39772E-03 4.03825E-04-2.82237E-14
 -1      3191 6.25476E-03 4.05872E-04-2.70742E-14
 -1      3192 6.18284E-03 3.70097E-04-2.65301E-14
 -1      3193 6.68369E-03 3.99211E-04-3.05842E-14
 -1      3194 6.54069E-03 4.01607E-04-2.93937E-14
 -1      3195 6.46845E-03 3.66154E-04-2.88287E-14
 -1      3196 6.96978E-03 3.93852E-04-3.30231E-14
 -1      3197 6.82671E-03 3.96627E-04-3.17941E-14
 -1      3198 6.75399E-03 3.61530E-04-3.12069E-14
 -1      3199 7.25602E-03 3.87731E-04-3.55452E-14
 -1      3200 7.11287E-03 3.90886E-04-3.42743E-14
 -1      3201 7.03946E-03 3.56160E-04-3.36666E-14
 -1      3202 7.54251E-03 3.80916E-04-3.81454E-14
 -1      3203 7.39922E-03 3.84403E-04-3.68354E-14
 -1      3204 7.32485E-03 3.50031E-04-3.62060E-14
 -1      3205 7.82935E-03 3.73607E-04-4.08234E-14
 -1      3206 7.68587E-03 3.77307E-04-3.94748E-14
 -1      3207 7.61022E-03 3.43215E-04-3.88261E-14
 -1      3208 8.11675E-03 3.66192E-04-4.35766E-14
 -1      3209 7.97295E-03 3.69883E-04-4.21904E-14
 -1      3210 7.89564E-03 3.35910E-04-4.15215E-14
 -1      3211 8.40500E-03 3.59317E-04-4.64013E-14
 -1      3212 8.26073E-03 3.62638E-04-4.49800E-14
 -1      3213 8.18130E-03 3.28497E-04-4.42899E-14
 -1      3214 8.69460E-03 3.53971E-04-4.92970E-14
 -1      3215 8.54958E-03 3.56378E-04-4.78404E-14
 -1      3216 8.46751E-03 3.21601E-04-4.71329E-14
 -1      3217 8.98628E-03 3.51578E-04-5.22553E-14
 -1      3218 8.84012E-03 3.52295E-04-5.07686E-14
 -1      3219 8.75483E-03 3.16177E-04-5.00419E-14
 -1      3220 9.28116E-03 3.54089E-04-5.52728E-14
 -1      3221 9.13324E-03 3.52064E-04-5.37566E-14
 -1      3222 9.04416E-03 3.13597E-04-5.30136E-14
 -1      3223 9.58075E-03 3.64074E-04-5.83496E-14
 -1      3224 9.43027E-03 3.57934E-04-5.68047E-14
 -1      3225 9.33687E-03 3.15766E-04-5.60456E-14
 -1      3226 9.88702E-03 3.84753E-04-6.14862E-14
 -1      3227 9.73296E-03 3.72798E-04-5.99095E-14
 -1      3228 9.63494E-03 3.25250E-04-5.91339E-14
 -1      3229 1.02021E-02 4.19902E-04-6.46769E-14
 -1      3230 1.00434E-02 4.00190E-04-6.30758E-14
 -1      3231 9.94096E-03 3.45423E-04-6.22810E-14
 -1      3232 1.05278E-02 4.73386E-04-6.79181E-14
 -1      3233 1.03637E-02 4.44037E-04-6.62919E-14
 -1      3234 1.02579E-02 3.80525E-04-6.54824E-14
 -1      3235 1.08637E-02 5.47751E-04-7.12023E-14
 -1      3236 1.06948E-02 5.07894E-04-6.95550E-14
 -1      3237 1.05882E-02 4.35440E-04-6.87280E-14
 -1      3238 1.12061E-02 6.40822E-04-7.45276E-14
 -1      3239 1.10348E-02 5.92409E-04-7.28596E-14
 -1      3240 1.09320E-02 5.13921E-04-7.20182E-14
 -1      3241 1.15467E-02 7.41281E-04-7.78898E-14
 -1      3242 1.13775E-02 6.91620E-04-7.62040E-14
 -1      3243 1.12844E-02 6.14508E-04-7.53468E-14
 -1      3244 1.18765E-02 8.24302E-04-8.12861E-14
 -1      3245 1.17134E-02 7.87425E-04-7.95853E-14
 -1      3246 1.16348E-02 7.23813E-04-7.87171E-14
 -1      3247 1.21919E-02 8.56275E-04-8.47098E-14
 -1      3248 1.20352E-02 8.48882E-04-8.29942E-14
 -1      3249 1.19718E-02 8.09712E-04-8.21141E-14
 -1      3250 1.25015E-02 8.13847E-04-8.81610E-14
 -1      3251 1.23460E-02 8.44987E-04-8.64323E-14
 -1      3252 1.22938E-02 8.31169E-04-8.55392E-14
 -1      3253 1.28179E-02 6.98569E-04-9.16296E-14
 -1      3254 1.26578E-02 7.63613E-04-8.98914E-14
 -1      3255 1.26134E-02 7.65170E-04-8.89917E-14
 -1      3256 1.31464E-02 5.36516E-04-9.51314E-14
 -1      3257 1.29808E-02 6.20955E-04-9.33780E-14
 -1      3258 1.29452E-02 6.23804E-04-9.24657E-14
 -1      3259 1.01652E-03 6.82030E-05-1.06833E-15
 -1      3260 1.01535E-03 4.12221E-05-1.06999E-15
 -1      3261 1.47837E-02-3.42792E-04-1.00270E-13
 -1      3262 1.46007E-02-2.76580E-04-1.00099E-13
 -1      3263 1.04856E-02-3.61485E-04-7.09720E-14
 -1      3264 1.43931E-02-1.80688E-04-1.00269E-13
 -1      3265 1.42434E-02-1.03821E-04-1.00322E-13
 -1      3266 1.50968E-02-4.26092E-04-1.00766E-13
 -1      3267 1.48340E-02-3.69108E-04-9.89165E-14
 -1      3268 1.49626E-02-3.97604E-04-9.99253E-14
 -1      3269 1.47235E-02-5.77698E-04-9.85438E-14
 -1      3270 1.45564E-02-6.45544E-04-9.82014E-14
 -1      3271 1.08745E-02 1.49303E-04-7.39517E-14
 -1      3272 1.10850E-02 2.30418E-04-7.54665E-14
 -1      3273 1.11645E-02 2.95139E-04-7.56998E-14
 -1      3274 1.49896E-02-3.97435E-04-1.00916E-13
 -1      3275 3.54058E-03 4.24973E-04-9.29741E-15
 -1      3276 3.39776E-03 4.24794E-04-8.59706E-15
 -1      3277 3.32313E-03 3.87115E-04-8.29603E-15
 -1      3278 3.60952E-03 3.87483E-04-9.69630E-15
 -1      3279 1.39237E-02-9.54829E-04-9.53868E-14
 -1      3280 1.40921E-02-8.81138E-04-9.67047E-14
 -1      3281 1.42872E-02-8.09237E-04-9.84971E-14
 -1      3282 1.44433E-02-7.31470E-04-9.90870E-14
 -1      3283 1.41276E-02-8.46207E-04-9.64406E-14
 -1      3284 1.01030E-02-2.17409E-04-7.01253E-14
 -1      3285 1.00492E-02-1.99202E-04-6.99821E-14
 -1      3286 9.99526E-03-1.81835E-04-6.88367E-14
 -1      3287 1.21263E-02 7.67971E-04-8.31860E-14
 -1      3288 1.22848E-02 7.91529E-04-8.47392E-14
 -1      3289 1.15848E-03-2.76938E-04-1.14138E-15
 -1      3290 1.30136E-03-2.96727E-04-1.40534E-15
 -1      3291 1.47500E-02-3.39150E-04-9.92820E-14
 -1      3292 1.14501E-03 3.10564E-04-1.12414E-15
 -1      3293 1.08236E-03 2.71637E-04-1.05296E-15
 -1      3294 1.20146E-03 2.73075E-04-1.28596E-15
 -1      3295 1.28817E-03 3.32537E-04-1.38932E-15
 -1      3296 1.38959E-02 1.19676E-04-1.01703E-13
 -1      3297 1.03037E-02-2.84478E-04-7.06191E-14
 -1      3298 1.01975E-02-2.49064E-04-7.03380E-14
 -1      3299 1.04776E-02-3.32099E-06-7.14904E-14
 -1      3300 1.06315E-02 6.36892E-05-7.22319E-14
 -1      3301 1.44457E-03-3.13753E-04-1.69764E-15
 -1      3302 1.58807E-03-3.28230E-04-2.01790E-15
 -1      3303 1.65235E-03-3.00159E-04-2.22415E-15
 -1      3304 1.39586E-02 4.06736E-06-9.72634E-14
 -1      3305 1.42411E-02-1.33765E-04-9.85094E-14
 -1      3306 1.01475E-03 1.44477E-05-1.06954E-15
 -1      3307 1.01471E-03-1.22277E-05-1.06715E-15
 -1      3308 1.13543E-03 3.01646E-05-1.29385E-15
 -1      3309 1.27351E-02 6.97512E-04-8.93162E-14
 -1      3310 1.28301E-02 6.51486E-04-9.00780E-14
 -1      3311 1.29477E-02 5.95105E-04-9.14197E-14
 -1      3312 1.32593E-02 4.07937E-04-9.34471E-14
 -1      3313 1.16171E-02 5.34707E-04-7.88410E-14
 -1      3314 1.17016E-02 6.05943E-04-7.93960E-14
 -1      3315 1.14853E-02 4.78685E-04-7.77772E-14
 -1      3316 1.41095E-02-2.65051E-05-1.00376E-13
 -1      3317 1.39883E-02 4.58255E-05-1.00425E-13
 -1      3318 1.40255E-02-4.97763E-06-9.89367E-14
 -1      3319 2.25422E-03 4.05293E-04-3.94248E-15
 -1      3320 2.17560E-03 3.65687E-04-3.74566E-15
 -1      3321 2.39731E-03 4.10497E-04-4.42914E-15
 -1      3322 1.15305E-03 2.11811E-04-1.25046E-15
 -1      3323 1.02830E-03 1.81161E-04-1.03863E-15
 -1      3324 1.02411E-03 1.51834E-04-1.04995E-15
 -1      3325 1.55631E-03 3.61509E-04-1.96903E-15
 -1      3326 1.41295E-03 3.45321E-04-1.64952E-15
 -1      3327 1.36910E-03 3.15073E-04-1.59326E-15
 -1      3328 1.61929E-03 3.33905E-04-2.17079E-15
 -1      3329 9.95844E-04-2.54013E-04-8.69950E-16
 -1      3330 1.00999E-02-2.25648E-04-6.91925E-14
 -1      3331 1.05994E-03-2.37035E-04-1.00508E-15
 -1      3332 2.74979E-03 3.81945E-04-5.80574E-15
 -1      3333 2.68333E-03 4.17878E-04-5.48540E-15
 -1      3334 2.54035E-03 4.14655E-04-4.94316E-15
 -1      3335 1.32897E-02 4.56976E-04-9.64909E-14
 -1      3336 1.32648E-02 4.55118E-04-9.55714E-14
 -1      3337 1.34353E-02 3.75740E-04-9.78568E-14
 -1      3338 1.01833E-03 9.54634E-05-1.06450E-15
 -1      3339 1.13809E-03 8.85585E-05-1.28993E-15
 -1      3340 1.02080E-03 1.23233E-04-1.05833E-15
 -1      3341 1.43368E-02-7.43033E-04-9.73962E-14
 -1      3342 1.44672E-02-2.22516E-04-9.98957E-14
 -1      3343 1.03590E-02-3.25352E-04-6.97545E-14
 -1      3344 1.38604E-02 1.26002E-04-1.00372E-13
 -1      3345 1.36955E-02 2.30853E-04-1.00211E-13
 -1      3346 1.35471E-02 3.12429E-04-9.88367E-14
 -1      3347 1.37672E-02 1.61210E-04-9.89383E-14
 -1      3348 1.45021E-02-6.84285E-04-9.85661E-14
 -1      3349 1.00722E-02-1.39522E-04-6.93569E-14
 -1      3350 1.00969E-02-1.10679E-04-6.89629E-14
 -1      3351 9.99167E-03-1.43453E-04-6.83024E-14
 -1      3352 1.46434E-02-6.45579E-04-9.98955E-14
 -1      3353 1.47953E-02-5.88799E-04-1.00488E-13
 -1      3354 1.36542E-03-2.73137E-04-1.57774E-15
 -1      3355 1.03433E-02-3.05618E-05-7.03877E-14
 -1      3356 1.07122E-02 1.15114E-04-7.24629E-14
 -1      3357 1.07890E-02 1.70643E-04-7.26921E-14
 -1      3358 1.05589E-02 9.52906E-05-7.09823E-14
 -1      3359 1.38168E-02 9.25541E-05-9.73178E-14
 -1      3360 1.01805E-03-9.29899E-05-1.04773E-15
 -1      3361 1.02044E-03-1.20703E-04-1.03680E-15
 -1      3362 1.02363E-03-1.49108E-04-1.02320E-15
 -1      3363 1.02769E-03-1.78350E-04-1.00657E-15
 -1      3364 1.14324E-03-1.45901E-04-1.24819E-15
 -1      3365 1.23739E-02 7.93107E-04-8.56624E-14
 -1      3366 1.24826E-02 7.79789E-04-8.68722E-14
 -1      3367 1.00969E-02-2.35926E-04-6.82959E-14
 -1      3368 1.00158E-02-2.07168E-04-6.80861E-14
 -1      3369 3.10457E-03 3.48463E-04-7.34738E-15
 -1      3370 2.96083E-03 3.47294E-04-6.72452E-15
 -1      3371 1.86183E-03-2.80033E-04-2.81674E-15
 -1      3372 2.00605E-03-2.87372E-04-3.22531E-15
 -1      3373 1.32243E-02 4.44988E-04-9.39243E-14
 -1      3374 1.34372E-02 3.11949E-04-9.51918E-14
 -1      3375 2.15035E-03-2.93440E-04-3.66124E-15
 -1      3376 2.29471E-03-2.98355E-04-4.12391E-15
 -1      3377 2.07293E-03-2.54662E-04-3.47397E-15
 -1      3378 2.43905E-03-3.02317E-04-4.61394E-15
 -1      3379 2.58337E-03-3.05423E-04-5.13188E-15
 -1      3380 2.36214E-03-2.63658E-04-4.40366E-15
 -1      3381 2.72763E-03-3.07835E-04-5.67513E-15
 -1      3382 2.87182E-03-3.09629E-04-6.24532E-15
 -1      3383 2.65140E-03-2.69370E-04-5.44088E-15
 -1      3384 3.01595E-03-3.10935E-04-6.84249E-15
 -1      3385 3.15998E-03-3.11806E-04-7.46503E-15
 -1      3386 2.94044E-03-2.72688E-04-6.58428E-15
 -1      3387 3.30394E-03-3.12342E-04-8.11432E-15
 -1      3388 3.44780E-03-3.12582E-04-8.78890E-15
 -1      3389 3.22914E-03-2.74314E-04-7.83293E-15
 -1      3390 3.59159E-03-3.12597E-04-9.48846E-15
 -1      3391 3.73529E-03-3.12415E-04-1.02132E-14
 -1      3392 3.51746E-03-2.74778E-04-9.18378E-15
 -1      3393 3.87892E-03-3.12086E-04-1.09622E-14
 -1      3394 4.02247E-03-3.11626E-04-1.17357E-14
 -1      3395 3.80537E-03-2.74462E-04-1.06337E-14
 -1      3396 4.16595E-03-3.11071E-04-1.25336E-14
 -1      3397 4.30936E-03-3.10427E-04-1.33556E-14
 -1      3398 4.09290E-03-2.73634E-04-1.21821E-14
 -1      3399 4.45271E-03-3.09718E-04-1.41997E-14
 -1      3400 4.59600E-03-3.08944E-04-1.50670E-14
 -1      3401 4.38008E-03-2.72464E-04-1.38257E-14
 -1      3402 4.73924E-03-3.08117E-04-1.59586E-14
 -1      3403 4.88241E-03-3.07235E-04-1.68736E-14
 -1      3404 4.66693E-03-2.71053E-04-1.55628E-14
 -1      3405 5.02554E-03-3.06301E-04-1.78104E-14
 -1      3406 5.16861E-03-3.05308E-04-1.87696E-14
 -1      3407 4.95348E-03-2.69440E-04-1.73916E-14
 -1      3408 5.31163E-03-3.04255E-04-1.97512E-14
 -1      3409 5.45459E-03-3.03132E-04-2.07548E-14
 -1      3410 5.23974E-03-2.67625E-04-1.93110E-14
 -1      3411 5.59750E-03-3.01932E-04-2.17804E-14
 -1      3412 5.74035E-03-3.00644E-04-2.28281E-14
 -1      3413 5.52571E-03-2.65571E-04-2.13196E-14
 -1      3414 5.88313E-03-2.99259E-04-2.38953E-14
 -1      3415 6.02585E-03-2.97764E-04-2.49839E-14
 -1      3416 5.81136E-03-2.63218E-04-2.34135E-14
 -1      3417 6.16848E-03-2.96147E-04-2.60947E-14
 -1      3418 6.31102E-03-2.94396E-04-2.72261E-14
 -1      3419 6.09663E-03-2.60490E-04-2.55923E-14
 -1      3420 6.45346E-03-2.92500E-04-2.83777E-14
 -1      3421 6.59579E-03-2.90446E-04-2.95499E-14
 -1      3422 6.38144E-03-2.57305E-04-2.78555E-14
 -1      3423 6.73797E-03-2.88229E-04-3.07424E-14
 -1      3424 6.88001E-03-2.85833E-04-3.19544E-14
 -1      3425 6.66566E-03-2.53583E-04-3.02008E-14
 -1      3426 7.02186E-03-2.83264E-04-3.31872E-14
 -1      3427 7.16351E-03-2.80507E-04-3.44408E-14
 -1      3428 6.94910E-03-2.49264E-04-3.26259E-14
 -1      3429 7.30491E-03-2.77581E-04-3.57145E-14
 -1      3430 7.44605E-03-2.74475E-04-3.70067E-14
 -1      3431 7.23153E-03-2.44325E-04-3.51319E-14
 -1      3432 7.58685E-03-2.71229E-04-3.83177E-14
 -1      3433 7.72732E-03-2.67835E-04-3.96474E-14
 -1      3434 7.51264E-03-2.38805E-04-3.77171E-14
 -1      3435 7.86733E-03-2.64365E-04-4.09948E-14
 -1      3436 8.00690E-03-2.60817E-04-4.23609E-14
 -1      3437 7.79201E-03-2.32842E-04-4.03767E-14
 -1      3438 8.14589E-03-2.57305E-04-4.37459E-14
 -1      3439 8.28431E-03-2.53834E-04-4.51480E-14
 -1      3440 8.06913E-03-2.26707E-04-4.31083E-14
 -1      3441 8.42199E-03-2.50573E-04-4.65652E-14
 -1      3442 8.55894E-03-2.47535E-04-4.79986E-14
 -1      3443 8.34337E-03-2.20848E-04-4.59115E-14
 -1      3444 8.69498E-03-2.44954E-04-4.94486E-14
 -1      3445 8.83013E-03-2.42852E-04-5.09143E-14
 -1      3446 8.61398E-03-2.15930E-04-4.87793E-14
 -1      3447 8.96418E-03-2.41533E-04-5.23938E-14
 -1      3448 9.09722E-03-2.41027E-04-5.38867E-14
 -1      3449 8.88007E-03-2.12857E-04-5.17090E-14
 -1      3450 9.22898E-03-2.41707E-04-5.53950E-14
 -1      3451 9.35970E-03-2.43609E-04-5.69156E-14
 -1      3452 9.14069E-03-2.12753E-04-5.46958E-14
 -1      3453 9.48906E-03-2.47148E-04-5.84501E-14
 -1      3454 9.61759E-03-2.52423E-04-5.99976E-14
 -1      3455 9.39489E-03-2.16889E-04-5.77381E-14
 -1      3456 9.74489E-03-2.59842E-04-6.15562E-14
 -1      3457 9.87209E-03-2.69685E-04-6.31271E-14
 -1      3458 9.64194E-03-2.26573E-04-6.08315E-14
 -1      3459 1.02440E-02-3.04411E-04-6.82224E-14
 -1      3460 1.06452E-03-2.15929E-04-1.03688E-15
 -1      3461 9.95556E-03-1.83081E-04-6.77254E-14
 -1      3462 9.93431E-03-1.65117E-04-6.75806E-14
 -1      3463 4.25216E-03 3.48145E-04-1.32401E-14
 -1      3464 4.10891E-03 3.48729E-04-1.24181E-14
 -1      3465 3.96561E-03 3.49213E-04-1.16200E-14
 -1      3466 3.82225E-03 3.49586E-04-1.08457E-14
 -1      3467 4.03573E-03 3.11328E-04-1.20429E-14
 -1      3468 4.82475E-03 3.45118E-04-1.67643E-14
 -1      3469 4.68166E-03 3.45966E-04-1.58487E-14
 -1      3470 5.11082E-03 3.43255E-04-1.86621E-14
 -1      3471 4.96780E-03 3.44216E-04-1.77012E-14
 -1      3472 4.89569E-03 3.07345E-04-1.72512E-14
 -1      3473 5.39675E-03 3.41139E-04-2.06498E-14
 -1      3474 5.25380E-03 3.42232E-04-1.96452E-14
 -1      3475 5.18187E-03 3.05563E-04-1.91701E-14
 -1      3476 5.68253E-03 3.38712E-04-2.27230E-14
 -1      3477 5.53966E-03 3.39969E-04-2.16757E-14
 -1      3478 5.46783E-03 3.03534E-04-2.11778E-14
 -1      3479 5.96817E-03 3.35893E-04-2.48795E-14
 -1      3480 5.82537E-03 3.37358E-04-2.37907E-14
 -1      3481 5.75356E-03 3.01198E-04-2.32709E-14
 -1      3482 6.25363E-03 3.32586E-04-2.71159E-14
 -1      3483 6.11092E-03 3.34307E-04-2.59871E-14
 -1      3484 6.03904E-03 2.98471E-04-2.54462E-14
 -1      3485 6.53889E-03 3.28690E-04-2.94328E-14
 -1      3486 6.39628E-03 3.30718E-04-2.82645E-14
 -1      3487 6.32421E-03 2.95260E-04-2.77020E-14
 -1      3488 6.82389E-03 3.24117E-04-3.18301E-14
 -1      3489 6.68142E-03 3.26495E-04-3.06218E-14
 -1      3490 6.60902E-03 2.91469E-04-3.00376E-14
 -1      3491 7.10862E-03 3.18805E-04-3.43089E-14
 -1      3492 6.96629E-03 3.21558E-04-3.30591E-14
 -1      3493 6.89340E-03 2.87011E-04-3.24542E-14
 -1      3494 7.39302E-03 3.12740E-04-3.68686E-14
 -1      3495 7.25085E-03 3.15867E-04-3.55790E-14
 -1      3496 7.17727E-03 2.81825E-04-3.49521E-14
 -1      3497 7.67711E-03 3.05990E-04-3.95061E-14
 -1      3498 7.53510E-03 3.09446E-04-3.81776E-14
 -1      3499 7.46055E-03 2.75894E-04-3.75311E-14
 -1      3500 7.96093E-03 2.98743E-04-4.22198E-14
 -1      3501 7.81904E-03 3.02416E-04-4.08530E-14
 -1      3502 7.74321E-03 2.69276E-04-4.01875E-14
 -1      3503 8.24465E-03 2.91352E-04-4.50060E-14
 -1      3504 8.10277E-03 2.95040E-04-4.36035E-14
 -1      3505 8.02526E-03 2.62131E-04-4.29175E-14
 -1      3506 8.52860E-03 2.84401E-04-4.78627E-14
 -1      3507 8.38655E-03 2.87778E-04-4.64262E-14
 -1      3508 8.30684E-03 2.54770E-04-4.57206E-14
 -1      3509 8.81340E-03 2.78775E-04-5.07875E-14
 -1      3510 8.67082E-03 2.81351E-04-4.93169E-14
 -1      3511 8.58830E-03 2.47704E-04-4.85933E-14
 -1      3512 9.10010E-03 2.75759E-04-5.37723E-14
 -1      3513 8.95641E-03 2.76831E-04-5.22719E-14
 -1      3514 8.87032E-03 2.41715E-04-5.15320E-14
 -1      3515 9.39035E-03 2.77169E-04-5.68153E-14
 -1      3516 9.24464E-03 2.75742E-04-5.52865E-14
 -1      3517 9.15408E-03 2.37957E-04-5.45292E-14
 -1      3518 9.68656E-03 2.85550E-04-5.99178E-14
 -1      3519 9.53753E-03 2.80238E-04-5.83606E-14
 -1      3520 9.44149E-03 2.38121E-04-5.75861E-14
 -1      3521 9.99204E-03 3.04444E-04-6.30751E-14
 -1      3522 9.83794E-03 2.93307E-04-6.14888E-14
 -1      3523 9.73544E-03 2.44688E-04-6.06992E-14
 -1      3524 1.03107E-02 3.38692E-04-6.62820E-14
 -1      3525 1.01496E-02 3.19136E-04-6.46727E-14
 -1      3526 1.00400E-02 2.61444E-04-6.38648E-14
 -1      3527 1.06458E-02 3.94572E-04-6.95368E-14
 -1      3528 1.04762E-02 3.63358E-04-6.79051E-14
 -1      3529 1.03600E-02 2.94194E-04-6.70817E-14
 -1      3530 1.09989E-02 4.77620E-04-7.28311E-14
 -1      3531 1.08208E-02 4.32328E-04-7.11781E-14
 -1      3532 1.07006E-02 3.50775E-04-7.03408E-14
 -1      3533 1.13636E-02 5.87498E-04-7.61658E-14
 -1      3534 1.11811E-02 5.29623E-04-7.44934E-14
 -1      3535 1.10642E-02 4.39921E-04-7.36410E-14
 -1      3536 1.17100E-02 6.77353E-04-7.93714E-14
 -1      3537 1.15253E-02 6.12695E-04-7.76826E-14
 -1      3538 1.24063E-02 8.07923E-04-8.65127E-14
 -1      3539 1.22433E-02 8.19700E-04-8.47923E-14
 -1      3540 1.28121E-02 6.74929E-04-9.06902E-14
 -1      3541 1.26423E-02 7.43646E-04-8.89606E-14
 -1      3542 1.29864E-02 5.91115E-04-9.24319E-14
 -1      3543 1.25306E-02 7.75448E-04-8.76240E-14
 -1      3544 1.48047E-02-5.66217E-04-9.96568E-14
 -1      3545 1.10747E-02 3.05644E-04-7.45866E-14
 -1      3546 1.12777E-02 3.92840E-04-7.61044E-14
 -1      3547 1.49019E-02-3.72644E-04-1.01021E-13
 -1      3548 1.19802E-02 7.29593E-04-8.18289E-14
 -1      3549 1.20480E-02 7.70180E-04-8.25586E-14
 -1      3550 4.53854E-03 3.46755E-04-1.49560E-14
 -1      3551 4.39537E-03 3.47486E-04-1.40867E-14
 -1      3552 4.32264E-03 3.10259E-04-1.36859E-14
 -1      3553 4.60928E-03 3.08912E-04-1.54231E-14
 -1      3554 1.28772E-03-2.34057E-04-1.45824E-15
 -1      3555 1.43059E-03-2.48384E-04-1.75649E-15
 -1      3556 1.01524E-03-3.89328E-05-1.06275E-15
 -1      3557 1.01633E-03-6.57721E-05-1.05630E-15
 -1      3558 1.13784E-03-8.59817E-05-1.27353E-15
 -1      3559 1.35423E-02 2.46759E-04-9.56669E-14
 -1      3560 1.36545E-02 1.77067E-04-9.61421E-14
 -1      3561 1.34905E-02 2.95821E-04-9.61500E-14
 -1      3562 1.18703E-02 6.95884E-04-8.08338E-14
 -1      3563 1.22723E-02 8.03787E-04-8.48400E-14
 -1      3564 1.01824E-02-5.29866E-05-6.88486E-14
 -1      3565 1.03063E-02 1.29545E-05-6.92129E-14
 -1      3566 1.37455E-02 1.52218E-04-9.78053E-14
 -1      3567 1.57399E-03-2.60713E-04-2.08225E-15
 -1      3568 1.71779E-03-2.71190E-04-2.43580E-15
 -1      3569 1.49668E-03-2.22359E-04-1.94126E-15
 -1      3570 1.95313E-03 3.19053E-04-3.11692E-15
 -1      3571 1.80915E-03 3.10457E-04-2.71221E-15
 -1      3572 1.36207E-02 2.37881E-04-9.77551E-14
 -1      3573 1.01302E-02-3.01032E-04-6.62828E-14
 -1      3574 1.01101E-02-2.58364E-04-6.74566E-14
 -1      3575 1.00048E-02-2.36038E-04-6.63573E-14
 -1      3576 1.00013E-02-2.84586E-04-6.46905E-14
 -1      3577 1.21611E-02 8.11838E-04-8.38714E-14
 -1      3578 1.20289E-02 7.91412E-04-8.25096E-14
 -1      3579 9.88422E-03-2.45158E-04-6.39545E-14
 -1      3580 1.13745E-02 4.73084E-04-7.66532E-14
 -1      3581 1.78421E-03-2.41311E-04-2.65283E-15
 -1      3582 3.24824E-03 3.49243E-04-7.99614E-15
 -1      3583 3.17316E-03 3.11208E-04-7.69778E-15
 -1      3584 3.39183E-03 3.49681E-04-8.67046E-15
 -1      3585 2.88497E-03 3.08988E-04-6.45195E-15
 -1      3586 2.81703E-03 3.45627E-04-6.12780E-15
 -1      3587 2.67316E-03 3.43396E-04-5.55778E-15
 -1      3588 2.46281E-03 3.75714E-04-4.72055E-15
 -1      3589 1.17497E-02 6.52345E-04-7.97633E-14
 -1      3590 1.35331E-02 3.05680E-04-9.79083E-14
 -1      3591 2.24121E-03 3.32000E-04-4.01072E-15
 -1      3592 2.09716E-03 3.26188E-04-3.54976E-15
 -1      3593 2.01906E-03 2.86948E-04-3.35548E-15
 -1      3594 1.18404E-03-2.15461E-04-1.26604E-15
 -1      3595 1.25017E-03-1.93794E-04-1.42222E-15
 -1      3596 1.27926E-03 2.42900E-04-1.48101E-15
 -1      3597 1.27312E-03 2.08701E-04-1.49896E-15
 -1      3598 1.68355E-03 3.05458E-04-2.37661E-15
 -1      3599 1.55810E-03 2.98846E-04-2.06295E-15
 -1      3600 1.74889E-03 2.76132E-04-2.58669E-15
 -1      3601 9.93142E-03-1.89560E-04-6.68350E-14
 -1      3602 1.25741E-03 4.78517E-05-1.53874E-15
 -1      3603 1.25667E-03 1.67855E-05-1.53823E-15
 -1      3604 3.74853E-03 3.11997E-04-1.04951E-14
 -1      3605 3.67884E-03 3.49808E-04-1.00953E-14
 -1      3606 3.53537E-03 3.49859E-04-9.37019E-15
 -1      3607 1.18579E-02 7.51098E-04-8.08089E-14
 -1      3608 1.14370E-03 1.48706E-04-1.27601E-15
 -1      3609 1.26108E-03 1.10487E-04-1.53194E-15
 -1      3610 1.25888E-03 7.90017E-05-1.53688E-15
 -1      3611 1.38058E-03 6.70973E-05-1.80400E-15
 -1      3612 9.91934E-03-1.46582E-04-6.71936E-14
 -1      3613 9.91522E-03-1.25829E-04-6.68054E-14
 -1      3614 9.85661E-03-1.48859E-04-6.60889E-14
 -1      3615 1.25865E-03-7.63313E-05-1.52085E-15
 -1      3616 1.26076E-03-1.07779E-04-1.50955E-15
 -1      3617 1.34056E-02 3.63899E-04-9.63015E-14
 -1      3618 1.32490E-02 4.50594E-04-9.49435E-14
 -1      3619 1.03727E-02 5.08362E-05-6.94382E-14
 -1      3620 1.04383E-02 9.27232E-05-6.96638E-14
 -1      3621 1.02014E-02 2.10913E-05-6.79059E-14
 -1      3622 1.00665E-02-7.15615E-05-6.77998E-14
 -1      3623 1.25291E-03-1.34356E-04-1.47651E-15
 -1      3624 1.25659E-03-1.66636E-04-1.45962E-15
 -1      3625 1.35982E-03-1.81945E-04-1.66787E-15
 -1      3626 1.37415E-03-1.25482E-04-1.74368E-15
 -1      3627 1.13535E-03-2.76963E-05-1.28833E-15
 -1      3628 1.07691E-02 2.68406E-04-7.16018E-14
 -1      3629 1.09360E-02 3.04114E-04-7.30898E-14
 -1      3630 1.32612E-03 2.85598E-04-1.53557E-15
 -1      3631 1.44602E-03 2.80984E-04-1.81352E-15
 -1      3632 2.28558E-03-2.25245E-04-4.19371E-15
 -1      3633 2.43045E-03-2.28436E-04-4.68729E-15
 -1      3634 2.57534E-03-2.30972E-04-5.20794E-15
 -1      3635 2.72020E-03-2.32921E-04-5.75434E-15
 -1      3636 2.49955E-03-1.92731E-04-4.97492E-15
 -1      3637 2.86500E-03-2.34398E-04-6.32711E-15
 -1      3638 3.00972E-03-2.35453E-04-6.92690E-15
 -1      3639 2.78970E-03-1.96129E-04-6.07122E-15
 -1      3640 3.15434E-03-2.36178E-04-7.55204E-15
 -1      3641 3.29886E-03-2.36609E-04-8.20318E-15
 -1      3642 3.07960E-03-1.97978E-04-7.27195E-15
 -1      3643 3.44327E-03-2.36817E-04-8.87907E-15
 -1      3644 3.58756E-03-2.36824E-04-9.58016E-15
 -1      3645 3.36908E-03-1.98743E-04-8.57535E-15
 -1      3646 3.73174E-03-2.36684E-04-1.03065E-14
 -1      3647 3.87580E-03-2.36411E-04-1.10560E-14
 -1      3648 3.65807E-03-1.98770E-04-9.97909E-15
 -1      3649 4.01976E-03-2.36042E-04-1.18310E-14
 -1      3650 4.16360E-03-2.35585E-04-1.26304E-14
 -1      3651 3.94656E-03-1.98305E-04-1.14813E-14
 -1      3652 4.30735E-03-2.35063E-04-1.34523E-14
 -1      3653 4.45099E-03-2.34480E-04-1.42981E-14
 -1      3654 4.23455E-03-1.97517E-04-1.30797E-14
 -1      3655 4.59453E-03-2.33850E-04-1.51668E-14
 -1      3656 4.73799E-03-2.33172E-04-1.60594E-14
 -1      3657 4.52208E-03-1.96508E-04-1.47722E-14
 -1      3658 4.88135E-03-2.32453E-04-1.69743E-14
 -1      3659 5.02462E-03-2.31687E-04-1.79119E-14
 -1      3660 4.80916E-03-1.95332E-04-1.65574E-14
 -1      3661 5.16781E-03-2.30878E-04-1.88722E-14
 -1      3662 5.31090E-03-2.30016E-04-1.98542E-14
 -1      3663 5.09583E-03-1.94004E-04-1.84339E-14
 -1      3664 5.45390E-03-2.29101E-04-2.08592E-14
 -1      3665 5.59680E-03-2.28123E-04-2.18854E-14
 -1      3666 5.38207E-03-1.92509E-04-2.03997E-14
 -1      3667 5.73960E-03-2.27076E-04-2.29326E-14
 -1      3668 5.88229E-03-2.25950E-04-2.40003E-14
 -1      3669 5.66786E-03-1.90814E-04-2.24520E-14
 -1      3670 6.02486E-03-2.24741E-04-2.50912E-14
 -1      3671 6.16729E-03-2.23433E-04-2.62029E-14
 -1      3672 5.95315E-03-1.88869E-04-2.45905E-14
 -1      3673 6.30956E-03-2.22024E-04-2.73340E-14
 -1      3674 6.45167E-03-2.20500E-04-2.84862E-14
 -1      3675 6.23782E-03-1.86618E-04-2.68131E-14
 -1      3676 6.59358E-03-2.18861E-04-2.96589E-14
 -1      3677 6.73528E-03-2.17092E-04-3.08522E-14
 -1      3678 6.52174E-03-1.84009E-04-2.91177E-14
 -1      3679 6.87672E-03-2.15200E-04-3.20655E-14
 -1      3680 7.01789E-03-2.13170E-04-3.32981E-14
 -1      3681 6.80470E-03-1.81000E-04-3.15044E-14
 -1      3682 7.15872E-03-2.11023E-04-3.45514E-14
 -1      3683 7.29919E-03-2.08743E-04-3.58248E-14
 -1      3684 7.08643E-03-1.77582E-04-3.39725E-14
 -1      3685 7.43923E-03-2.06368E-04-3.71177E-14
 -1      3686 7.57881E-03-2.03883E-04-3.84288E-14
 -1      3687 7.36658E-03-1.73790E-04-3.65183E-14
 -1      3688 7.71782E-03-2.01354E-04-3.97593E-14
 -1      3689 7.85624E-03-1.98767E-04-4.11073E-14
 -1      3690 7.64468E-03-1.69734E-04-3.91417E-14
 -1      3691 7.99394E-03-1.96221E-04-4.24724E-14
 -1      3692 8.13088E-03-1.93703E-04-4.38565E-14
 -1      3693 7.92019E-03-1.65625E-04-4.18381E-14
 -1      3694 8.26691E-03-1.91358E-04-4.52583E-14
 -1      3695 8.40198E-03-1.89172E-04-4.66764E-14
 -1      3696 8.19238E-03-1.61811E-04-4.46046E-14
 -1      3697 8.53589E-03-1.87344E-04-4.81107E-14
 -1      3698 8.66861E-03-1.85849E-04-4.95603E-14
 -1      3699 8.46042E-03-1.58798E-04-4.74426E-14
 -1      3700 8.79989E-03-1.84953E-04-5.10259E-14
 -1      3701 8.92968E-03-1.84602E-04-5.25047E-14
 -1      3702 8.72322E-03-1.57269E-04-5.03420E-14
 -1      3703 9.05770E-03-1.85136E-04-5.39971E-14
 -1      3704 9.18392E-03-1.86444E-04-5.55039E-14
 -1      3705 8.97949E-03-1.58057E-04-5.33003E-14
 -1      3706 9.30793E-03-1.88945E-04-5.70261E-14
 -1      3707 9.42980E-03-1.92408E-04-5.85616E-14
 -1      3708 9.22756E-03-1.62077E-04-5.63143E-14
 -1      3709 9.54894E-03-1.97333E-04-6.01091E-14
 -1      3710 9.66559E-03-2.03337E-04-6.16674E-14
 -1      3711 9.46530E-03-1.70129E-04-5.93851E-14
 -1      3712 4.10613E-03 2.73360E-04-1.24657E-14
 -1      3713 3.96241E-03 2.73764E-04-1.16689E-14
 -1      3714 9.89664E-03-1.99149E-04-6.56890E-14
 -1      3715 9.83644E-03-1.74443E-04-6.53303E-14
 -1      3716 2.52922E-03 3.40456E-04-5.01507E-15
 -1      3717 2.38523E-03 3.36720E-04-4.49932E-15
 -1      3718 2.59647E-03 3.04784E-04-5.31183E-15
 -1      3719 5.25294E-03 2.67923E-04-1.96789E-14
 -1      3720 5.10986E-03 2.68784E-04-1.86973E-14
 -1      3721 4.96670E-03 2.69591E-04-1.77387E-14
 -1      3722 4.82347E-03 2.70349E-04-1.68031E-14
 -1      3723 5.03779E-03 2.31885E-04-1.82271E-14
 -1      3724 5.82451E-03 2.63809E-04-2.38188E-14
 -1      3725 5.68174E-03 2.64955E-04-2.27522E-14
 -1      3726 6.10976E-03 2.61220E-04-2.60140E-14
 -1      3727 5.96719E-03 2.62569E-04-2.49069E-14
 -1      3728 5.89538E-03 2.26573E-04-2.43678E-14
 -1      3729 6.39459E-03 2.58160E-04-2.82880E-14
 -1      3730 6.25223E-03 2.59756E-04-2.71406E-14
 -1      3731 6.18036E-03 2.24171E-04-2.65815E-14
 -1      3732 6.67889E-03 2.54536E-04-3.06432E-14
 -1      3733 6.53681E-03 2.56426E-04-2.94552E-14
 -1      3734 6.46478E-03 2.21318E-04-2.88747E-14
 -1      3735 6.96256E-03 2.50264E-04-3.30786E-14
 -1      3736 6.82080E-03 2.52489E-04-3.18510E-14
 -1      3737 6.74850E-03 2.17926E-04-3.12494E-14
 -1      3738 7.24548E-03 2.45280E-04-3.55971E-14
 -1      3739 7.10411E-03 2.47867E-04-3.43277E-14
 -1      3740 7.03139E-03 2.13911E-04-3.37054E-14
 -1      3741 7.52754E-03 2.39560E-04-3.81943E-14
 -1      3742 7.38662E-03 2.42516E-04-3.68858E-14
 -1      3743 7.31329E-03 2.09205E-04-3.62421E-14
 -1      3744 7.80864E-03 2.33140E-04-4.08686E-14
 -1      3745 7.66820E-03 2.36438E-04-3.95220E-14
 -1      3746 7.59402E-03 2.03771E-04-3.88589E-14
 -1      3747 8.08876E-03 2.26145E-04-4.36158E-14
 -1      3748 7.94881E-03 2.29708E-04-4.22332E-14
 -1      3749 7.87345E-03 1.97614E-04-4.15502E-14
 -1      3750 8.36802E-03 2.18821E-04-4.64338E-14
 -1      3751 8.22848E-03 2.22508E-04-4.50161E-14
 -1      3752 8.15151E-03 1.90807E-04-4.43135E-14
 -1      3753 8.64676E-03 2.11582E-04-4.93239E-14
 -1      3754 8.50741E-03 2.15160E-04-4.78710E-14
 -1      3755 8.42827E-03 1.83515E-04-4.71486E-14
 -1      3756 8.92567E-03 2.05077E-04-5.22757E-14
 -1      3757 8.78611E-03 2.08182E-04-5.07918E-14
 -1      3758 8.70402E-03 1.76028E-04-5.00540E-14
 -1      3759 9.20604E-03 2.00292E-04-5.52848E-14
 -1      3760 9.06554E-03 2.02372E-04-5.37734E-14
 -1      3761 8.97947E-03 1.68822E-04-5.30175E-14
 -1      3762 9.48998E-03 1.98742E-04-5.83560E-14
 -1      3763 9.34736E-03 1.98941E-04-5.68127E-14
 -1      3764 9.25593E-03 1.62672E-04-5.60413E-14
 -1      3765 9.78079E-03 2.02841E-04-6.14779E-14
 -1      3766 9.63423E-03 1.99784E-04-5.99098E-14
 -1      3767 9.53565E-03 1.58880E-04-5.91212E-14
 -1      3768 1.00833E-02 2.16548E-04-6.46519E-14
 -1      3769 9.93019E-03 2.07924E-04-6.30594E-14
 -1      3770 9.82226E-03 1.59693E-04-6.22544E-14
 -1      3771 1.04040E-02 2.46756E-04-6.78781E-14
 -1      3772 1.02410E-02 2.28788E-04-6.62588E-14
 -1      3773 1.01214E-02 1.69312E-04-6.54386E-14
 -1      3774 1.05921E-02 2.34981E-04-6.99629E-14
 -1      3775 1.14121E-02 5.21700E-04-7.68164E-14
 -1      3776 1.30836E-02 5.34945E-04-9.31977E-14
 -1      3777 1.99607E-03-2.16403E-04-3.28733E-15
 -1      3778 2.14076E-03-2.21261E-04-3.72720E-15
 -1      3779 2.20944E-03-1.87193E-04-3.98482E-15
 -1      3780 1.51123E-03 2.54895E-04-1.99779E-15
 -1      3781 5.53889E-03 2.66016E-04-2.17058E-14
 -1      3782 5.39596E-03 2.67003E-04-2.06811E-14
 -1      3783 5.60992E-03 2.28611E-04-2.22347E-14
 -1      3784 1.25728E-03-4.51387E-05-1.52959E-15
 -1      3785 1.38039E-03-6.42780E-05-1.78986E-15
 -1      3786 1.25663E-03-1.41505E-05-1.53512E-15
 -1      3787 1.70743E-03-2.03510E-04-2.49010E-15
 -1      3788 1.85160E-03-2.10514E-04-2.87524E-15
 -1      3789 1.91987E-03-1.78806E-04-3.10243E-15
 -1      3790 1.26810E-03 1.75276E-04-1.51334E-15
 -1      3791 1.26414E-03 1.42555E-04-1.52412E-15
 -1      3792 1.38535E-03 1.33811E-04-1.79335E-15
 -1      3793 1.39379E-03 2.02621E-04-1.76930E-15
 -1      3794 9.88731E-03-2.17638E-04-6.48574E-14
 -1      3795 1.35259E-02 2.96767E-04-9.72754E-14
 -1      3796 9.77582E-03-2.07276E-04-6.32932E-14
 -1      3797 1.50265E-03-1.92254E-04-1.98669E-15
 -1      3798 1.37898E-03 1.42883E-06-1.80257E-15
 -1      3799 9.94462E-03-8.95867E-05-6.65806E-14
 -1      3800 1.00030E-02-3.88308E-05-6.64652E-14
 -1      3801 1.12167E-02 4.48954E-04-7.51465E-14
 -1      3802 3.46102E-03 3.12062E-04-9.04586E-15
 -1      3803 2.95360E-03 2.72027E-04-6.77826E-15
 -1      3804 2.80910E-03 2.70612E-04-6.18106E-15
 -1      3805 1.79219E-03 2.42920E-04-2.74017E-15
 -1      3806 1.66624E-03 2.39278E-04-2.40404E-15
 -1      3807 9.68816E-03-1.79298E-04-6.25597E-14
 -1      3808 2.30776E-03 2.97784E-04-4.27926E-15
 -1      3809 3.88900E-03 2.36048E-04-1.12970E-14
 -1      3810 3.81859E-03 2.74062E-04-1.08961E-14
 -1      3811 3.67468E-03 2.74244E-04-1.01466E-14
 -1      3812 4.24977E-03 2.72880E-04-1.32865E-14
 -1      3813 4.17680E-03 2.35352E-04-1.28892E-14
 -1      3814 4.39331E-03 2.72327E-04-1.41310E-14
 -1      3815 9.74374E-03-1.64491E-04-6.38133E-14
 -1      3816 9.79731E-03-1.55652E-04-6.49489E-14
 -1      3817 9.76873E-03-1.37274E-04-6.45662E-14
 -1      3818 5.32404E-03 2.30361E-04-2.01867E-14
 -1      3819 9.85206E-03-9.76407E-05-6.54811E-14
 -1      3820 2.08094E-03 2.56243E-04-3.58014E-15
 -1      3821 1.93646E-03 2.50199E-04-3.14638E-15
 -1      3822 1.85445E-03 2.14030E-04-2.94068E-15
 -1      3823 1.04531E-02 1.59436E-04-6.91235E-14
 -1      3824 1.10262E-02 3.90841E-04-7.34825E-14
 -1      3825 1.02744E-02 1.17839E-04-6.75919E-14
 -1      3826 1.50481E-03 8.77921E-05-2.08918E-15
 -1      3827 1.50317E-03 5.31875E-05-2.09140E-15
 -1      3828 4.68016E-03 2.71057E-04-1.58890E-14
 -1      3829 4.53678E-03 2.71720E-04-1.49986E-14
 -1      3830 4.46418E-03 2.34387E-04-1.45760E-14
 -1      3831 1.50303E-03-5.02179E-05-2.07987E-15
 -1      3832 1.50457E-03-8.48873E-05-2.06927E-15
 -1      3833 9.90002E-03-1.69426E-05-6.49376E-14
 -1      3834 1.00341E-02 9.49248E-06-6.61445E-14
 -1      3835 1.57040E-03-1.64666E-04-2.17656E-15
 -1      3836 1.57783E-03-1.34359E-04-2.21856E-15
 -1      3837 1.55441E-03 2.24432E-04-2.13282E-15
 -1      3838 3.24233E-03 2.73711E-04-8.04897E-15
 -1      3839 3.09802E-03 2.73045E-04-7.40097E-15
 -1      3840 3.02287E-03 2.34801E-04-7.10585E-15
 -1      3841 1.50232E-03 1.87033E-05-2.09055E-15
 -1      3842 1.50228E-03-1.57384E-05-2.08690E-15
 -1      3843 1.62647E-03-3.43856E-05-2.39015E-15
 -1      3844 1.62657E-03 3.74356E-05-2.39889E-15
 -1      3845 1.70067E-03-1.20754E-04-2.54263E-15
 -1      3846 1.54921E-03 1.87763E-04-2.14912E-15
 -1      3847 4.75117E-03 2.33223E-04-1.63562E-14
 -1      3848 9.64081E-03-1.59491E-04-6.21847E-14
 -1      3849 2.71468E-03-1.57964E-04-5.81574E-15
 -1      3850 2.85989E-03-1.59008E-04-6.39101E-15
 -1      3851 3.00503E-03-1.59770E-04-6.99240E-15
 -1      3852 3.15006E-03-1.60278E-04-7.61981E-15
 -1      3853 2.93069E-03-1.21608E-04-6.71410E-15
 -1      3854 3.29499E-03-1.60593E-04-8.27230E-15
 -1      3855 3.43979E-03-1.60731E-04-8.95012E-15
 -1      3856 3.22105E-03-1.22405E-04-7.97027E-15
 -1      3857 3.58445E-03-1.60741E-04-9.65294E-15
 -1      3858 3.72898E-03-1.60629E-04-1.03801E-14
 -1      3859 3.51092E-03-1.22622E-04-9.32772E-15
 -1      3860 3.87337E-03-1.60435E-04-1.11319E-14
 -1      3861 4.01762E-03-1.60160E-04-1.19081E-14
 -1      3862 3.80023E-03-1.22448E-04-1.07835E-14
 -1      3863 4.16174E-03-1.59832E-04-1.27080E-14
 -1      3864 4.30573E-03-1.59448E-04-1.35315E-14
 -1      3865 4.08895E-03-1.22015E-04-1.23368E-14
 -1      3866 4.44959E-03-1.59027E-04-1.43778E-14
 -1      3867 4.59333E-03-1.58565E-04-1.52479E-14
 -1      3868 4.37711E-03-1.21409E-04-1.39845E-14
 -1      3869 4.73695E-03-1.58075E-04-1.61414E-14
 -1      3870 4.88045E-03-1.57550E-04-1.70577E-14
 -1      3871 4.66473E-03-1.20680E-04-1.57257E-14
 -1      3872 5.02383E-03-1.56996E-04-1.79960E-14
 -1      3873 5.16710E-03-1.56407E-04-1.89571E-14
 -1      3874 4.95183E-03-1.19851E-04-1.75587E-14
 -1      3875 5.31024E-03-1.55786E-04-1.99403E-14
 -1      3876 5.45326E-03-1.55123E-04-2.09451E-14
 -1      3877 5.23842E-03-1.18922E-04-1.94815E-14
 -1      3878 5.59615E-03-1.54420E-04-2.19725E-14
 -1      3879 5.73891E-03-1.53666E-04-2.30199E-14
 -1      3880 5.52447E-03-1.17880E-04-2.14930E-14
 -1      3881 5.88151E-03-1.52862E-04-2.40890E-14
 -1      3882 6.02395E-03-1.51996E-04-2.51804E-14
 -1      3883 5.80993E-03-1.16700E-04-2.35894E-14
 -1      3884 6.16621E-03-1.51071E-04-2.62926E-14
 -1      3885 6.30828E-03-1.50072E-04-2.74243E-14
 -1      3886 6.09472E-03-1.15354E-04-2.57713E-14
 -1      3887 6.45012E-03-1.49007E-04-2.85771E-14
 -1      3888 6.59171E-03-1.47859E-04-2.97502E-14
 -1      3889 6.37868E-03-1.13816E-04-2.80365E-14
 -1      3890 6.73301E-03-1.46641E-04-3.09442E-14
 -1      3891 6.87401E-03-1.45338E-04-3.21581E-14
 -1      3892 6.66161E-03-1.12070E-04-3.03840E-14
 -1      3893 7.01463E-03-1.43971E-04-3.33918E-14
 -1      3894 7.15485E-03-1.42525E-04-3.46457E-14
 -1      3895 6.94324E-03-1.10121E-04-3.28117E-14
 -1      3896 7.29461E-03-1.41035E-04-3.59187E-14
 -1      3897 7.43385E-03-1.39486E-04-3.72119E-14
 -1      3898 7.22323E-03-1.08011E-04-3.53196E-14
 -1      3899 7.57250E-03-1.37935E-04-3.85244E-14
 -1      3900 7.71050E-03-1.36365E-04-3.98544E-14
 -1      3901 7.50114E-03-1.05837E-04-3.79062E-14
 -1      3902 7.84774E-03-1.34862E-04-4.12023E-14
 -1      3903 7.98416E-03-1.33407E-04-4.25682E-14
 -1      3904 7.77641E-03-1.03770E-04-4.05665E-14
 -1      3905 8.11963E-03-1.32125E-04-4.39531E-14
 -1      3906 8.25407E-03-1.30991E-04-4.53551E-14
 -1      3907 8.04838E-03-1.02089E-04-4.33003E-14
 -1      3908 8.38733E-03-1.30177E-04-4.67741E-14
 -1      3909 8.51929E-03-1.29646E-04-4.82087E-14
 -1      3910 8.31624E-03-1.01198E-04-4.61052E-14
 -1      3911 8.64976E-03-1.29630E-04-4.96590E-14
 -1      3912 8.77862E-03-1.30061E-04-5.11237E-14
 -1      3913 8.57897E-03-1.01646E-04-4.89750E-14
 -1      3914 8.90561E-03-1.31245E-04-5.26027E-14
 -1      3915 9.03057E-03-1.33047E-04-5.40955E-14
 -1      3916 8.83531E-03-1.04131E-04-5.19045E-14
 -1      3917 9.15315E-03-1.35865E-04-5.56035E-14
 -1      3918 9.27314E-03-1.39449E-04-5.71259E-14
 -1      3919 9.08361E-03-1.09454E-04-5.48935E-14
 -1      3920 9.39005E-03-1.44316E-04-5.86615E-14
 -1      3921 9.50357E-03-1.49979E-04-6.02103E-14
 -1      3922 9.32166E-03-1.18438E-04-5.79368E-14
 -1      3923 9.75542E-03-1.06942E-04-6.42246E-14
 -1      3924 9.76655E-03-7.29598E-05-6.40017E-14
 -1      3925 2.73333E-03 2.32236E-04-5.91255E-15
 -1      3926 2.66453E-03 2.68694E-04-5.61098E-15
 -1      3927 2.51990E-03 2.66210E-04-5.06755E-15
 -1      3928 6.25086E-03 1.87351E-04-2.71488E-14
 -1      3929 6.10860E-03 1.88482E-04-2.60226E-14
 -1      3930 5.96619E-03 1.89516E-04-2.49164E-14
 -1      3931 5.82362E-03 1.90467E-04-2.38299E-14
 -1      3932 6.03694E-03 1.52661E-04-2.54643E-14
 -1      3933 6.81793E-03 1.81674E-04-3.18567E-14
 -1      3934 6.67649E-03 1.83291E-04-3.06492E-14
 -1      3935 7.09999E-03 1.77992E-04-3.43328E-14
 -1      3936 6.95910E-03 1.79916E-04-3.30845E-14
 -1      3937 6.88719E-03 1.45808E-04-3.24657E-14
 -1      3938 7.38080E-03 1.73646E-04-3.68883E-14
 -1      3939 7.24056E-03 1.75912E-04-3.56001E-14
 -1      3940 7.16839E-03 1.42538E-04-3.49601E-14
 -1      3941 7.66014E-03 1.68576E-04-3.95226E-14
 -1      3942 7.52066E-03 1.71211E-04-3.81960E-14
 -1      3943 7.44807E-03 1.38631E-04-3.75351E-14
 -1      3944 7.93781E-03 1.62752E-04-4.22328E-14
 -1      3945 7.79919E-03 1.65767E-04-4.08691E-14
 -1      3946 7.72597E-03 1.34004E-04-4.01882E-14
 -1      3947 8.21369E-03 1.56183E-04-4.50119E-14
 -1      3948 8.07597E-03 1.59566E-04-4.36135E-14
 -1      3949 8.00182E-03 1.28581E-04-4.29146E-14
 -1      3950 8.48777E-03 1.48935E-04-4.78636E-14
 -1      3951 8.35093E-03 1.52645E-04-4.64283E-14
 -1      3952 8.27541E-03 1.22294E-04-4.57105E-14
 -1      3953 8.76029E-03 1.41157E-04-5.07817E-14
 -1      3954 8.62417E-03 1.45104E-04-4.93147E-14
 -1      3955 8.54665E-03 1.15099E-04-4.85766E-14
 -1      3956 9.03185E-03 1.33129E-04-5.37589E-14
 -1      3957 8.89609E-03 1.37147E-04-5.22630E-14
 -1      3958 8.81565E-03 1.06979E-04-5.15090E-14
 -1      3959 9.30373E-03 1.25394E-04-5.67956E-14
 -1      3960 9.16758E-03 1.29154E-04-5.52695E-14
 -1      3961 9.08287E-03 9.79909E-05-5.44996E-14
 -1      3962 9.57812E-03 1.18975E-04-5.98856E-14
 -1      3963 9.44031E-03 1.21847E-04-5.83334E-14
 -1      3964 9.34939E-03 8.84067E-05-5.75458E-14
 -1      3965 1.00940E-02 9.57929E-05-6.58316E-14
 -1      3966 9.94921E-03 9.45456E-05-6.42326E-14
 -1      3967 9.77591E-03-3.71675E-05-6.36884E-14
 -1      3968 9.78933E-03 3.47284E-06-6.33706E-14
 -1      3969 9.66388E-03-5.21784E-05-6.24452E-14
 -1      3970 1.52786E-03 1.54929E-04-2.11727E-15
 -1      3971 1.52456E-03 1.19393E-04-2.12638E-15
 -1      3972 1.64736E-03 1.05985E-04-2.43944E-15
 -1      3973 1.68853E-03 1.72693E-04-2.51475E-15
 -1      3974 3.53067E-03 2.74266E-04-9.42253E-15
 -1      3975 3.38655E-03 2.74109E-04-8.72354E-15
 -1      3976 3.31203E-03 2.36028E-04-8.40253E-15
 -1      3977 3.60075E-03 2.36343E-04-9.80067E-15
 -1      3978 5.39516E-03 1.92898E-04-2.06960E-14
 -1      3979 5.25211E-03 1.93596E-04-1.96948E-14
 -1      3980 1.00862E-02 3.89461E-05-6.63655E-14
 -1      3981 5.68093E-03 1.91341E-04-2.27643E-14
 -1      3982 5.53810E-03 1.92150E-04-2.17199E-14
 -1      3983 5.46630E-03 1.55558E-04-2.12061E-14
 -1      3984 1.84483E-03-1.25146E-04-2.93220E-15
 -1      3985 1.98942E-03-1.28813E-04-3.34902E-15
 -1      3986 1.77146E-03-7.32034E-05-2.75874E-15
 -1      3987 4.82230E-03 1.95425E-04-1.68242E-14
 -1      3988 4.67882E-03 1.95960E-04-1.59119E-14
 -1      3989 2.13433E-03-1.31868E-04-3.79273E-15
 -1      3990 2.27946E-03-1.34361E-04-4.26312E-15
 -1      3991 2.06064E-03-7.76539E-05-3.59668E-15
 -1      3992 2.37524E-03 2.63027E-04-4.55026E-15
 -1      3993 2.23059E-03 2.59059E-04-4.06013E-15
 -1      3994 2.44356E-03 2.27770E-04-4.82447E-15
 -1      3995 5.10894E-03 1.94246E-04-1.87163E-14
 -1      3996 4.96568E-03 1.94856E-04-1.77587E-14
 -1      3997 5.18016E-03 1.56699E-04-1.92049E-14
 -1      3998 6.53482E-03 1.84765E-04-2.94623E-14
 -1      3999 6.39293E-03 1.86118E-04-2.82956E-14
 -1      4000 6.32126E-03 1.50786E-04-2.77177E-14
 -1      4001 2.42442E-03-1.45575E-04-4.75179E-15
 -1      4002 2.56971E-03-1.47268E-04-5.27563E-15
 -1      4003 2.64043E-03-1.10636E-04-5.56947E-15
 -1      4004 2.35055E-03-8.98058E-05-4.53476E-15
 -1      4005 9.79955E-03 4.80437E-05-6.30106E-14
 -1      4006 9.81801E-03 1.10176E-04-6.26253E-14
 -1      4007 9.67765E-03 1.11761E-04-6.10521E-14
 -1      4008 9.67115E-03 2.33156E-05-6.17766E-14
 -1      4009 1.77025E-03-3.57703E-05-2.76950E-15
 -1      4010 3.09276E-03 1.97320E-04-7.43540E-15
 -1      4011 2.94786E-03 1.96533E-04-6.81310E-15
 -1      4012 3.95973E-03 1.97969E-04-1.16982E-14
 -1      4013 3.81555E-03 1.98189E-04-1.09264E-14
 -1      4014 1.78043E-03 1.21849E-04-2.78864E-15
 -1      4015 1.76059E-03 8.80976E-05-2.74540E-15
 -1      4016 9.67739E-03-1.16090E-04-6.30959E-14
 -1      4017 9.57404E-03-1.34281E-04-6.14478E-14
 -1      4018 4.24771E-03 1.97318E-04-1.33132E-14
 -1      4019 4.10378E-03 1.97678E-04-1.24941E-14
 -1      4020 4.03075E-03 1.59866E-04-1.21011E-14
 -1      4021 2.14872E-03 2.22818E-04-3.82558E-15
 -1      4022 4.89354E-03 1.57692E-04-1.72927E-14
 -1      4023 5.75191E-03 1.54230E-04-2.32940E-14
 -1      4024 9.57925E-03 7.50584E-05-6.02502E-14
 -1      4025 1.82747E-03 1.84841E-04-2.88596E-15
 -1      4026 1.80629E-03 1.50177E-04-2.84744E-15
 -1      4027 1.91943E-03 1.31846E-04-3.17911E-15
 -1      4028 1.97196E-03 1.90293E-04-3.30186E-15
 -1      4029 2.80285E-03 1.95421E-04-6.21658E-15
 -1      4030 2.65779E-03 1.93947E-04-5.64612E-15
 -1      4031 2.87303E-03 1.58299E-04-6.52267E-15
 -1      4032 4.53523E-03 1.96453E-04-1.50218E-14
 -1      4033 4.39153E-03 1.96910E-04-1.41561E-14
 -1      4034 4.31885E-03 1.59294E-04-1.37380E-14
 -1      4035 4.60644E-03 1.58558E-04-1.54691E-14
 -1      4036 6.60474E-03 1.48529E-04-3.00501E-14
 -1      4037 1.75899E-03 5.07127E-05-2.74771E-15
 -1      4038 1.75825E-03 1.34281E-05-2.74585E-15
 -1      4039 1.89201E-03 6.45621E-05-3.11898E-15
 -1      4040 3.23757E-03 1.97857E-04-8.08381E-15
 -1      4041 3.16321E-03 1.59638E-04-7.76698E-15
 -1      4042 3.38225E-03 1.98169E-04-8.75741E-15
 -1      4043 3.74212E-03 1.60204E-04-1.05579E-14
 -1      4044 3.67125E-03 1.98307E-04-1.01788E-14
 -1      4045 3.52682E-03 1.98316E-04-9.45548E-15
 -1      4046 9.58009E-03-5.47593E-06-6.09654E-14
 -1      4047 9.57948E-03 3.34775E-05-6.06110E-14
 -1      4048 9.48665E-03 4.31195E-05-5.94500E-14
 -1      4049 9.54369E-03-1.04179E-04-6.11127E-14
 -1      4050 3.14736E-03-8.42289E-05-7.66952E-15
 -1      4051 3.29253E-03-8.43801E-05-8.32384E-15
 -1      4052 3.43757E-03-8.44509E-05-9.00289E-15
 -1      4053 3.58246E-03-8.44365E-05-9.70754E-15
 -1      4054 3.36443E-03-4.62569E-05-8.67957E-15
 -1      4055 3.72721E-03-8.43672E-05-1.04360E-14
 -1      4056 3.87180E-03-8.42421E-05-1.11891E-14
 -1      4057 3.65435E-03-4.62117E-05-1.00893E-14
 -1      4058 4.01624E-03-8.40834E-05-1.19669E-14
 -1      4059 4.16053E-03-8.38855E-05-1.27674E-14
 -1      4060 3.94364E-03-4.60493E-05-1.15969E-14
 -1      4061 4.30468E-03-8.36653E-05-1.35919E-14
 -1      4062 4.44868E-03-8.34174E-05-1.44395E-14
 -1      4063 4.23232E-03-4.58025E-05-1.31997E-14
 -1      4064 4.59254E-03-8.31538E-05-1.53109E-14
 -1      4065 4.73626E-03-8.28683E-05-1.62058E-14
 -1      4066 4.52040E-03-4.54982E-05-1.48972E-14
 -1      4067 4.87985E-03-8.25693E-05-1.71227E-14
 -1      4068 5.02330E-03-8.22503E-05-1.80620E-14
 -1      4069 4.80790E-03-4.51511E-05-1.66866E-14
 -1      4070 5.16661E-03-8.19169E-05-1.90238E-14
 -1      4071 5.30979E-03-8.15622E-05-2.00082E-14
 -1      4072 5.09484E-03-4.47667E-05-1.85668E-14
 -1      4073 5.45282E-03-8.11902E-05-2.10138E-14
 -1      4074 5.59570E-03-8.07938E-05-2.20413E-14
 -1      4075 5.38120E-03-4.43443E-05-2.05358E-14
 -1      4076 5.73842E-03-8.03761E-05-2.30900E-14
 -1      4077 5.88097E-03-7.99298E-05-2.41597E-14
 -1      4078 5.66695E-03-4.38799E-05-2.25906E-14
 -1      4079 6.02332E-03-7.94588E-05-2.52513E-14
 -1      4080 6.16548E-03-7.89551E-05-2.63640E-14
 -1      4081 5.95201E-03-4.33692E-05-2.47321E-14
 -1      4082 6.30740E-03-7.84252E-05-2.74975E-14
 -1      4083 6.44907E-03-7.78604E-05-2.86502E-14
 -1      4084 6.23625E-03-4.28116E-05-2.69581E-14
 -1      4085 6.59045E-03-7.72717E-05-2.98245E-14
 -1      4086 6.73152E-03-7.66497E-05-3.10188E-14
 -1      4087 6.51949E-03-4.22154E-05-2.92655E-14
 -1      4088 6.87222E-03-7.60130E-05-3.22338E-14
 -1      4089 7.01253E-03-7.53514E-05-3.34682E-14
 -1      4090 6.80149E-03-4.16048E-05-3.16547E-14
 -1      4091 7.15238E-03-7.46947E-05-3.47220E-14
 -1      4092 7.29173E-03-7.40316E-05-3.59959E-14
 -1      4093 7.08194E-03-4.10299E-05-3.41255E-14
 -1      4094 7.43050E-03-7.34085E-05-3.72891E-14
 -1      4095 7.56864E-03-7.28124E-05-3.86016E-14
 -1      4096 7.36043E-03-4.05793E-05-3.66730E-14
 -1      4097 7.70606E-03-7.23124E-05-3.99314E-14
 -1      4098 7.84270E-03-7.18926E-05-4.12798E-14
 -1      4099 7.63649E-03-4.03965E-05-3.92956E-14
 -1      4100 7.97845E-03-7.16530E-05-4.26470E-14
 -1      4101 8.11322E-03-7.15719E-05-4.40328E-14
 -1      4102 7.90955E-03-4.06998E-05-4.19945E-14
 -1      4103 8.24689E-03-7.17900E-05-4.54367E-14
 -1      4104 8.37937E-03-7.22733E-05-4.68559E-14
 -1      4105 8.17891E-03-4.18038E-05-4.47661E-14
 -1      4106 8.51048E-03-7.32160E-05-4.82911E-14
 -1      4107 8.64012E-03-7.45583E-05-4.97417E-14
 -1      4108 8.44377E-03-4.41410E-05-4.76063E-14
 -1      4109 8.76807E-03-7.65659E-05-5.12071E-14
 -1      4110 8.89419E-03-7.91266E-05-5.26867E-14
 -1      4111 8.70314E-03-4.82775E-05-5.05086E-14
 -1      4112 9.01821E-03-8.26139E-05-5.41821E-14
 -1      4113 9.13987E-03-8.67826E-05-5.56919E-14
 -1      4114 8.95580E-03-5.49190E-05-5.34715E-14
 -1      4115 9.25890E-03-9.21294E-05-5.72145E-14
 -1      4116 9.37480E-03-9.83219E-05-5.87517E-14
 -1      4117 9.20016E-03-6.48268E-05-5.64919E-14
 -1      4118 4.67780E-03 1.20717E-04-1.59162E-14
 -1      4119 4.53407E-03 1.21021E-04-1.50276E-14
 -1      4120 6.39161E-03 1.14497E-04-2.82861E-14
 -1      4121 6.24974E-03 1.15303E-04-2.71399E-14
 -1      4122 7.23670E-03 1.07571E-04-3.55876E-14
 -1      4123 7.09674E-03 1.09036E-04-3.43208E-14
 -1      4124 6.95638E-03 1.10352E-04-3.30745E-14
 -1      4125 6.81565E-03 1.11553E-04-3.18465E-14
 -1      4126 7.02555E-03 7.53296E-05-3.36822E-14
 -1      4127 7.79169E-03 1.00086E-04-4.08541E-14
 -1      4128 7.65374E-03 1.02241E-04-3.95087E-14
 -1      4129 8.06569E-03 9.51399E-05-4.35952E-14
 -1      4130 7.92900E-03 9.77353E-05-4.22160E-14
 -1      4131 7.85741E-03 6.68532E-05-4.15175E-14
 -1      4132 8.33693E-03 8.92004E-05-4.64084E-14
 -1      4133 8.20165E-03 9.23117E-05-4.49932E-14
 -1      4134 8.12955E-03 6.24647E-05-4.42764E-14
 -1      4135 8.60521E-03 8.21015E-05-4.92892E-14
 -1      4136 8.47142E-03 8.58127E-05-4.78404E-14
 -1      4137 8.39842E-03 5.69422E-05-4.71051E-14
 -1      4138 8.87045E-03 7.36634E-05-5.22350E-14
 -1      4139 8.73816E-03 7.80628E-05-5.07552E-14
 -1      4140 8.66363E-03 4.99943E-05-5.00017E-14
 -1      4141 9.13285E-03 6.37018E-05-5.52375E-14
 -1      4142 9.00191E-03 6.88780E-05-5.37291E-14
 -1      4143 8.92489E-03 4.12697E-05-5.29598E-14
 -1      4144 9.37532E-03 5.07806E-05-5.81005E-14
 -1      4145 9.24545E-03 5.67099E-05-5.65668E-14
 -1      4146 9.16491E-03 2.90919E-05-5.57817E-14
 -1      4147 9.38355E-03 1.34699E-05-5.84539E-14
 -1      4148 2.27195E-03 1.94144E-04-4.25307E-15
 -1      4149 2.12185E-03 1.92691E-04-3.76304E-15
 -1      4150 2.09541E-03 1.62803E-04-3.69812E-15
 -1      4151 1.90267E-03-2.46136E-05-3.14488E-15
 -1      4152 6.67460E-03 1.12631E-04-3.06392E-14
 -1      4153 6.53324E-03 1.13614E-04-2.94521E-14
 -1      4154 6.46194E-03 7.85033E-05-2.88553E-14
 -1      4155 2.85668E-03-8.35593E-05-6.43676E-15
 -1      4156 3.00207E-03-8.39556E-05-7.04006E-15
 -1      4157 3.07396E-03-4.61083E-05-7.36951E-15
 -1      4158 2.04746E-03-2.52823E-05-3.57616E-15
 -1      4159 2.19258E-03-2.58350E-05-4.03441E-15
 -1      4160 2.03574E-03 2.68343E-05-3.54842E-15
 -1      4161 7.51525E-03 1.04187E-04-3.81830E-14
 -1      4162 7.37621E-03 1.05968E-04-3.68767E-14
 -1      4163 7.58242E-03 7.03424E-05-3.88308E-14
 -1      4164 9.49422E-03-7.63561E-05-6.03745E-14
 -1      4165 5.82289E-03 1.17296E-04-2.38243E-14
 -1      4166 5.68025E-03 1.17851E-04-2.27601E-14
 -1      4167 5.53746E-03 1.18357E-04-2.17162E-14
 -1      4168 5.39451E-03 1.18827E-04-2.06941E-14
 -1      4169 5.60863E-03 8.13148E-05-2.22273E-14
 -1      4170 2.53737E-03 1.95702E-04-5.19043E-15
 -1      4171 2.39228E-03 1.93324E-04-4.66794E-15
 -1      4172 2.36608E-03 1.62800E-04-4.59528E-15
 -1      4173 2.60721E-03 1.59423E-04-5.47284E-15
 -1      4174 5.25143E-03 1.19260E-04-1.96940E-14
 -1      4175 5.10822E-03 1.19665E-04-1.87167E-14
 -1      4176 5.32275E-03 8.19486E-05-2.01842E-14
 -1      4177 4.96487E-03 1.20039E-04-1.77601E-14
 -1      4178 4.82140E-03 1.20392E-04-1.68264E-14
 -1      4179 4.74928E-03 8.29539E-05-1.63623E-14
 -1      4180 5.03629E-03 8.24888E-05-1.82281E-14
 -1      4181 9.48329E-03-4.56259E-05-6.00691E-14
 -1      4182 6.10765E-03 1.16029E-04-2.60144E-14
 -1      4183 5.96536E-03 1.16694E-04-2.49090E-14
 -1      4184 5.89387E-03 8.05577E-05-2.43547E-14
 -1      4185 3.81334E-03 1.22049E-04-1.09385E-14
 -1      4186 3.66877E-03 1.22117E-04-1.01919E-14
 -1      4187 3.23419E-03 1.21773E-04-8.09961E-15
 -1      4188 3.08907E-03 1.21419E-04-7.45206E-15
 -1      4189 2.32518E-03 1.88753E-05-4.48517E-15
 -1      4190 2.33718E-03-3.53826E-05-4.51414E-15
 -1      4191 2.48195E-03-4.50869E-05-5.01952E-15
 -1      4192 4.46172E-03 8.33500E-05-1.45884E-14
 -1      4193 4.39020E-03 1.21295E-04-1.41627E-14
 -1      4194 4.24620E-03 1.21544E-04-1.33217E-14
 -1      4195 6.17836E-03 7.96374E-05-2.65643E-14
 -1      4196 4.10206E-03 1.21754E-04-1.25039E-14
 -1      4197 3.95777E-03 1.21930E-04-1.17092E-14
 -1      4198 4.17360E-03 8.36686E-05-1.29069E-14
 -1      4199 6.74443E-03 7.70930E-05-3.12285E-14
 -1      4200 2.94383E-03 1.20891E-04-6.82990E-15
 -1      4201 2.79851E-03 1.20172E-04-6.23392E-15
 -1      4202 3.01520E-03 8.32491E-05-7.13943E-15
 -1      4203 7.30500E-03 7.31186E-05-3.62176E-14
 -1      4204 2.59685E-03-5.92963E-05-5.43544E-15
 -1      4205 2.74173E-03-6.91841E-05-5.98587E-15
 -1      4206 2.81379E-03-3.17459E-05-6.28881E-15
 -1      4207 2.58434E-03-3.75125E-06-5.40812E-15
 -1      4208 2.06942E-03 1.33191E-04-3.63140E-15
 -1      4209 2.04385E-03 1.03830E-04-3.56303E-15
 -1      4210 2.21970E-03 1.33799E-04-4.11266E-15
 -1      4211 2.04206E-03 6.41785E-05-3.56639E-15
 -1      4212 3.88488E-03 8.38822E-05-1.13197E-14
 -1      4213 7.33199E-03 1.59884E-05-3.64528E-14
 -1      4214 7.19286E-03 1.65165E-05-3.51708E-14
 -1      4215 3.29161E-03-8.08341E-06-8.35723E-15
 -1      4216 3.43674E-03-8.05713E-06-9.03776E-15
 -1      4217 3.91391E-03 1.89010E-05-1.14643E-14
 -1      4218 3.76929E-03 1.88938E-05-1.07029E-14
 -1      4219 3.45293E-03 1.60181E-04-9.11276E-15
 -1      4220 3.62451E-03 1.88664E-05-9.96538E-15
 -1      4221 4.05837E-03 1.89129E-05-1.22505E-14
 -1      4222 4.20268E-03 1.89078E-05-1.30597E-14
 -1      4223 4.34684E-03 1.89070E-05-1.38921E-14
 -1      4224 4.49085E-03 1.88930E-05-1.47492E-14
 -1      4225 4.63471E-03 1.88827E-05-1.56289E-14
 -1      4226 4.77843E-03 1.88614E-05-1.65306E-14
 -1      4227 4.92200E-03 1.88426E-05-1.74558E-14
 -1      4228 5.06543E-03 1.88134E-05-1.84044E-14
 -1      4229 5.20872E-03 1.87849E-05-1.93742E-14
 -1      4230 5.35186E-03 1.87450E-05-2.03661E-14
 -1      4231 5.49485E-03 1.87035E-05-2.13796E-14
 -1      4232 5.63767E-03 1.86480E-05-2.24150E-14
 -1      4233 5.78033E-03 1.85877E-05-2.34716E-14
 -1      4234 5.92280E-03 1.85085E-05-2.45489E-14
 -1      4235 6.06507E-03 1.84204E-05-2.56473E-14
 -1      4236 6.20711E-03 1.83057E-05-2.67667E-14
 -1      4237 6.34892E-03 1.81763E-05-2.79065E-14
 -1      4238 6.49045E-03 1.80086E-05-2.90667E-14
 -1      4239 6.63169E-03 1.78181E-05-3.02470E-14
 -1      4240 6.77258E-03 1.75722E-05-3.14476E-14
 -1      4241 6.91311E-03 1.72911E-05-3.26690E-14
 -1      4242 7.05322E-03 1.69304E-05-3.39097E-14
 -1      4243 7.47055E-03 1.53807E-05-3.77518E-14
 -1      4244 7.60847E-03 1.46107E-05-3.90693E-14
 -1      4245 7.74570E-03 1.37231E-05-4.04062E-14
 -1      4246 7.88217E-03 1.26072E-05-4.17607E-14
 -1      4247 8.01780E-03 1.13207E-05-4.31342E-14
 -1      4248 8.15251E-03 9.71675E-06-4.45268E-14
 -1      4249 8.28622E-03 7.87058E-06-4.59368E-14
 -1      4250 8.41887E-03 5.58916E-06-4.73618E-14
 -1      4251 8.55032E-03 2.97300E-06-4.88029E-14
 -1      4252 8.68054E-03-2.30842E-07-5.02607E-14
 -1      4253 8.80934E-03-3.88143E-06-5.17332E-14
 -1      4254 8.93674E-03-8.31420E-06-5.32199E-14
 -1      4255 9.06246E-03-1.32985E-05-5.47222E-14
 -1      4256 9.17037E-03-2.03579E-05-5.60442E-14
 -1      4257 9.29253E-03-2.69552E-05-5.75720E-14
 -1      4258 3.33567E-03 9.51192E-05-8.57256E-15
 -1      4259 3.26231E-03 5.68989E-05-8.23420E-15
 -1      4260 2.34026E-03 1.32441E-04-4.52000E-15
 -1      4261 2.31483E-03 1.02237E-04-4.44288E-15
 -1      4262 2.46092E-03 1.30694E-04-4.94549E-15
 -1      4263 2.18714E-03 6.56437E-05-4.02454E-15
 -1      4264 2.30789E-03 6.33927E-05-4.42624E-15
 -1      4265 2.98010E-03-2.00115E-05-6.97829E-15
 -1      4266 3.12549E-03-2.00527E-05-7.60526E-15
 -1      4267 3.19815E-03 1.80428E-05-7.93868E-15
 -1      4268 2.86546E-03-5.92191E-06-6.50658E-15
 -1      4269 3.55239E-03 5.70638E-05-9.61349E-15
 -1      4270 3.48063E-03 9.52217E-05-9.26205E-15
 -1      4271 9.39684E-03-3.57900E-05-5.89152E-14
 -1      4272 2.45220E-03 5.51480E-05-4.93044E-15
 -1      4273 3.09597E-03 4.47384E-05-7.48953E-15
 -1      4274 2.95057E-03 4.45323E-05-6.86684E-15
 -1      4275 2.69006E-03 1.24502E-04-5.80438E-15
 -1      4276 2.56932E-03 1.26847E-04-5.34398E-15
 -1      4277 2.54410E-03 9.61672E-05-5.25918E-15
 -1      4278 2.76123E-03 8.74255E-05-6.09219E-15
 -1      4279 2.78399E-03 3.23715E-05-6.18415E-15
 -1      4280 2.56088E-03 5.06640E-05-5.32659E-15
 -1      4281 2.67525E-03 3.71885E-05-5.75877E-15
 -3
    1PSTEP                         2           1           1          
  100CL  101 1.000000000        4281                     0    1           1
 -4  STRESS      6    1
 -5  SXX         1    4    1    1
 -5  SYY         1    4    2    2
 -5  SZZ         1    4    3    3
 -5  SXY         1    4    1    2
 -5  SYZ         1    4    2    3
 -5  SZX         1    4    3    1
 -1         1 5.76141E+01 4.99536E+00 3.15800E+00 1.55883E+01-4.06356E-13-1.46128E-12
 -1         2-8.65347E-01-2.95946E+01-4.04597E+00-1.80632E-01 3.80423E-13-6.09929E-14
 -1         3 2.00252E+01 2.78622E-02 2.73767E-02 2.60614E-02-2.92356E-13-3.84229E-13
 -1         4 1.99479E+01-5.20494E-02 7.42329E-02 5.27156E-02 3.38399E-13-8.75053E-14
 -1         5 3.27688E+01 6.14288E+00 2.74239E+00 6.22427E+00-3.15928E-14 2.49616E-12
 -1         6 3.57528E+01 1.22635E+01 5.12537E+00-8.64653E+00-1.41331E-13 2.77911E-12
 -1         7 2.08199E+01 6.10001E+00-1.28556E-01-4.72510E+00-2.15938E-14 6.85629E-13
 -1         8 1.96723E+01 5.93509E+00 5.07999E-02-3.27415E+00-3.60129E-14-8.76989E-15
 -1         9 1.91373E+01 5.77204E+00 4.90166E-02-2.52630E+00-3.11418E-14-4.06493E-13
 -1        10 1.88959E+01 5.69228E+00 5.12577E-02-1.95080E+00-2.25271E-14-6.25178E-13
 -1        11 1.87735E+01 5.65126E+00 5.04079E-02-1.45563E+00-2.14412E-14-7.41086E-13
 -1        12 1.87096E+01 5.62945E+00 4.87780E-02-1.01484E+00-9.79512E-15-8.04300E-13
 -1        13 1.86759E+01 5.61796E+00 4.74112E-02-5.95165E-01-1.10270E-14-8.31494E-13
 -1        14 1.86617E+01 5.61310E+00 4.66840E-02-1.91143E-01-3.22276E-15-8.44741E-13
 -1        15 1.86622E+01 5.61326E+00 4.67248E-02 2.08133E-01 1.80270E-15-8.59025E-13
 -1        16 1.86775E+01 5.61846E+00 4.75467E-02 6.12986E-01 4.60732E-15-8.63830E-13
 -1        17 1.87124E+01 5.63022E+00 4.90641E-02 1.03464E+00 6.66177E-15-8.42927E-13
 -1        18 1.87775E+01 5.65232E+00 5.08176E-02 1.47863E+00 1.21903E-14-7.97435E-13
 -1        19 1.89011E+01 5.69380E+00 5.15351E-02 1.97971E+00 2.22877E-14-7.13113E-13
 -1        20 1.91429E+01 5.77462E+00 4.87991E-02 2.56330E+00 2.84807E-14-5.40912E-13
 -1        21 1.96682E+01 5.94982E+00 4.59568E-02 3.30835E+00 3.68594E-14-1.72489E-13
 -1        22 2.12026E+01 6.38173E+00 1.39743E-01 4.52277E+00 8.45157E-15 6.23359E-13
 -1        23 2.30310E+01-1.37930E+00-9.38315E-01-7.11132E-01-9.34704E-14 2.26873E-12
 -1        24 1.93685E+01-9.94717E-02-3.09833E-01 6.32061E-02-3.34299E-14 1.82894E-12
 -1        25 1.86806E+01-5.63204E-02-6.87773E-02 6.07557E-02-2.11007E-14 1.35453E-12
 -1        26 1.84786E+01-2.20874E-02-6.43926E-03 3.29913E-02-5.84558E-15 1.01938E-12
 -1        27 1.84903E+01-1.17966E-02 1.60211E-03 2.26132E-02-3.47053E-16 7.75732E-13
 -1        28 1.86048E+01-6.23286E-03 1.78936E-03 1.63187E-02-3.93094E-15 7.01768E-13
 -1        29 1.87649E+01-3.07409E-03 1.73491E-03 1.21743E-02 2.11964E-15 5.31223E-13
 -1        30 1.89393E+01-1.21542E-03 1.92310E-03 9.21996E-03 1.41993E-14 4.59533E-13
 -1        31 1.91103E+01-1.16110E-04 2.08988E-03 6.99807E-03-9.43924E-15 2.57625E-13
 -1        32 1.92678E+01 5.13706E-04 2.12767E-03 5.27594E-03-3.05816E-14 1.06167E-14
 -1        33 1.94071E+01 8.42991E-04 2.04344E-03 3.92250E-03 4.96912E-14-9.43804E-14
 -1        34 1.95264E+01 9.76713E-04 1.87468E-03 2.85426E-03-8.03381E-15-7.41212E-14
 -1        35 1.96257E+01 9.82838E-04 1.65626E-03 2.01182E-03 8.59402E-15-1.02192E-13
 -1        36 1.97067E+01 9.05923E-04 1.41308E-03 1.34954E-03 8.06503E-15 4.58673E-14
 -1        37 1.97716E+01 7.74529E-04 1.16022E-03 8.30992E-04-3.84842E-14-2.50631E-14
 -1        38 1.98229E+01 6.05644E-04 9.04561E-04 4.26898E-04-3.24839E-14-1.62126E-13
 -1        39 1.98638E+01 4.07504E-04 6.46179E-04 1.14290E-04-3.98407E-14-2.80069E-13
 -1        40 1.98973E+01 1.81501E-04 3.79413E-04-1.23714E-04 3.37786E-14-4.70028E-13
 -1        41 1.99269E+01-7.65193E-05 9.35389E-05-2.97735E-04 3.98019E-14-5.17972E-13
 -1        42 1.99564E+01-3.75365E-04-2.26934E-04-4.11601E-04-8.37024E-15-5.32657E-13
 -1        43 1.99901E+01-7.27885E-04-6.02353E-04-4.61372E-04-2.29943E-14-4.09681E-13
 -1        44 2.00332E+01-1.15049E-03-1.05839E-03-4.33741E-04 2.92795E-14-3.05058E-13
 -1        45 2.00917E+01-1.66264E-03-1.62688E-03-3.03524E-04-2.09671E-14-2.81960E-13
 -1        46 2.01732E+01-2.28585E-03-2.34683E-03-2.97949E-05 1.45171E-14-4.27001E-13
 -1        47 2.02872E+01-3.04169E-03-3.26537E-03 4.49921E-04 4.14470E-14-2.04687E-13
 -1        48 2.04453E+01-3.94743E-03-4.43722E-03 1.22814E-03-6.66921E-14-1.58263E-13
 -1        49 2.06619E+01-5.00698E-03-5.92036E-03 2.43920E-03 7.04457E-14-3.26944E-13
 -1        50 2.09548E+01-6.19323E-03-7.76141E-03 4.27388E-03-3.67867E-14-5.37260E-13
 -1        51 2.13448E+01-7.41508E-03-9.95757E-03 6.99343E-03 1.61890E-14-4.55934E-13
 -1        52 2.18553E+01-8.45957E-03-1.23684E-02 1.09304E-02-2.27699E-14-2.03513E-13
 -1        53 2.25094E+01-8.89933E-03-1.45311E-02 1.64436E-02 2.00481E-14-1.40864E-13
 -1        54 2.33237E+01-7.96540E-03-1.53149E-02 2.37514E-02 7.91207E-15-2.47354E-14
 -1        55 2.42952E+01-4.42878E-03-1.23920E-02 3.24937E-02-7.42595E-14-3.41820E-13
 -1        56 2.53775E+01 3.35450E-03-1.72494E-03 4.07883E-02 2.55760E-14-7.42947E-13
 -1        57 2.64428E+01 1.68571E-02 2.20542E-02 4.36175E-02 6.76488E-15-5.31287E-13
 -1        58 2.72364E+01 3.57195E-02 6.24121E-02 3.10919E-02 2.29966E-14-3.87217E-13
 -1        59 2.73545E+01 5.46739E-02 1.12409E-01-1.07383E-02 7.67008E-14-2.44676E-13
 -1        60 2.63197E+01 6.17583E-02 1.44343E-01-9.04695E-02-9.34222E-14 8.45331E-14
 -1        61 2.38521E+01 4.19300E-02 1.09282E-01-1.88869E-01 5.57449E-14 4.54879E-13
 -1        62 2.03103E+01-7.86666E-03-1.88150E-02-2.42576E-01-1.38447E-13 3.05408E-13
 -1        63 1.69172E+01-6.40289E-02-1.81845E-01-1.79041E-01 2.39361E-14-5.78773E-14
 -1        64 1.52092E+01-8.75181E-02-2.52388E-01-7.02992E-03-4.92488E-15-1.96254E-13
 -1        65 1.58552E+01-6.06800E-02-1.66693E-01 1.57222E-01 4.35693E-14 3.00419E-13
 -1        66 1.80584E+01-5.75955E-03-3.49490E-03 2.04864E-01 1.18037E-14 4.85029E-14
 -1        67 2.02851E+01 3.77890E-02 1.12377E-01 1.39478E-01 8.13637E-14-5.43593E-14
 -1        68 2.14417E+01 4.74525E-02 1.28244E-01 3.78588E-02-4.05808E-14 7.12416E-14
 -1        69 2.13670E+01 2.77657E-02 7.12656E-02-3.52353E-02 1.15859E-13 2.64774E-13
 -1        70 2.06092E+01 3.44748E-03-1.92808E-03-4.50898E-02 4.41753E-15 6.88834E-13
 -1        71 1.99871E+01 2.04647E-02-1.25407E-02-1.07866E-03-1.68130E-13 2.50951E-13
 -1        72 2.10434E+01-4.04899E-01-9.80431E-01-3.11648E-01 4.10366E-14 2.21305E-12
 -1        73 1.93332E+01-6.58831E-02-2.91124E-01-5.38395E-02 2.75912E-14 1.58160E-12
 -1        74 1.86902E+01-2.05060E-02-6.42688E-02-2.03493E-02 2.09393E-14 1.07594E-12
 -1        75 1.84877E+01-9.87845E-03-9.31059E-03-1.54511E-02-5.09575E-17 7.68522E-13
 -1        76 1.84993E+01-5.16460E-03 6.80240E-04-1.23846E-02 1.10280E-14 5.19768E-13
 -1        77 1.86130E+01-2.61194E-03 1.74528E-03-1.01158E-02-3.63099E-15 3.44043E-13
 -1        78 1.87721E+01-1.14006E-03 1.88302E-03-8.37922E-03-1.22030E-14 2.91908E-13
 -1        79 1.89455E+01-2.73956E-04 2.07905E-03-6.94929E-03 1.79613E-14 1.91280E-13
 -1        80 1.91155E+01 2.27554E-04 2.22342E-03-5.71979E-03-8.26432E-15 1.06381E-13
 -1        81 1.92722E+01 4.99426E-04 2.23841E-03-4.64844E-03 2.34763E-14 1.36891E-15
 -1        82 1.94108E+01 6.23261E-04 2.13387E-03-3.71614E-03 8.17423E-15-7.53204E-14
 -1        83 1.95294E+01 6.50845E-04 1.94667E-03-2.91044E-03 2.71920E-14-3.09942E-13
 -1        84 1.96282E+01 6.15881E-04 1.71117E-03-2.21950E-03 5.29969E-15-4.50659E-13
 -1        85 1.97088E+01 5.40173E-04 1.45188E-03-1.63031E-03-1.00320E-14-3.52025E-13
 -1        86 1.97734E+01 4.37198E-04 1.18346E-03-1.12880E-03 1.87818E-14-4.82464E-13
 -1        87 1.98247E+01 3.14349E-04 9.12313E-04-7.00540E-04-3.13241E-14-4.71352E-13
 -1        88 1.98656E+01 1.74501E-04 6.38137E-04-3.31765E-04-4.70475E-15-3.79445E-13
 -1        89 1.98994E+01 1.72114E-05 3.55254E-04-1.04510E-05 5.23889E-14-6.25756E-13
 -1        90 1.99296E+01-1.60231E-04 5.37325E-05 2.72472E-04-1.13269E-13-6.67572E-13
 -1        91 1.99599E+01-3.61755E-04-2.79510E-04 5.21707E-04 1.62846E-14-2.88197E-13
 -1        92 1.99945E+01-5.91267E-04-6.59442E-04 7.35859E-04-5.22110E-14-1.95725E-13
 -1        93 2.00382E+01-8.51020E-04-1.10118E-03 9.05237E-04 4.02214E-14-1.87678E-13
 -1        94 2.00966E+01-1.13931E-03-1.61733E-03 1.00903E-03 4.46098E-15-6.67512E-13
 -1        95 2.01760E+01-1.44719E-03-2.21364E-03 1.01182E-03-3.79823E-15-5.32427E-13
 -1        96 2.02835E+01-1.75369E-03-2.88202E-03 8.59409E-04 8.16206E-14-3.46726E-13
 -1        97 2.04269E+01-2.01942E-03-3.58942E-03 4.74745E-04-1.72027E-14-5.08605E-13
 -1        98 2.06140E+01-2.17806E-03-4.26056E-03-2.44887E-04-6.24294E-14-3.17369E-13
 -1        99 2.08517E+01-2.12682E-03-4.75255E-03-1.42589E-03-3.75011E-14-2.48538E-13
 -1       100 2.11442E+01-1.71805E-03-4.82034E-03-3.20508E-03-1.71453E-14-1.46235E-13
 -1       101 2.14901E+01-7.58688E-04-4.07697E-03-5.69307E-03 4.36038E-14-2.82333E-13
 -1       102 2.18780E+01 9.69574E-04-1.96512E-03-8.89525E-03-3.65849E-14-5.49029E-13
 -1       103 2.22811E+01 3.64728E-03 2.21628E-03-1.25664E-02 3.52242E-15-3.25906E-13
 -1       104 2.26500E+01 7.28318E-03 9.14326E-03-1.59844E-02 3.60834E-14-3.94333E-13
 -1       105 2.29072E+01 1.14945E-02 1.90289E-02-1.76806E-02 5.75542E-14-4.58334E-13
 -1       106 2.29465E+01 1.52529E-02 3.08231E-02-1.53038E-02-1.23083E-13-3.02432E-13
 -1       107 2.26460E+01 1.68000E-02 4.12522E-02-6.02358E-03 3.40847E-14-2.14217E-13
 -1       108 2.19018E+01 1.40863E-02 4.45119E-02 1.20117E-02 8.52656E-14-8.12603E-13
 -1       109 2.06864E+01 5.97707E-03 3.39826E-02 3.71167E-02-5.70518E-15-5.01835E-13
 -1       110 1.91130E+01-6.17370E-03 6.74278E-03 6.17973E-02-3.95946E-14-4.85941E-13
 -1       111 1.74642E+01-1.80577E-02-3.11380E-02 7.39291E-02-9.87901E-14-2.73441E-13
 -1       112 1.61305E+01-2.43828E-02-6.38795E-02 6.34841E-02-1.96475E-14-1.10675E-13
 -1       113 1.54531E+01-2.24443E-02-7.46638E-02 3.13830E-02 1.10931E-13-4.19617E-13
 -1       114 1.55521E+01-1.40093E-02-5.80892E-02-8.49932E-03-2.10110E-13 1.86007E-13
 -1       115 1.62683E+01-3.92041E-03-2.50384E-02-3.82648E-02 6.01166E-14-1.06257E-13
 -1       116 1.72684E+01 3.31000E-03 5.56537E-03-4.81565E-02 2.11248E-13-1.14627E-12
 -1       117 1.82342E+01 6.15528E-03 2.08441E-02-4.16361E-02-3.81823E-15-1.72590E-12
 -1       118 1.89996E+01 6.62842E-03 2.16081E-02-3.06286E-02 2.52482E-14-1.37629E-12
 -1       119 1.95539E+01 8.85117E-03 2.09717E-02-2.56227E-02-6.87278E-14-1.07474E-12
 -1       120 1.99143E+01 1.72619E-03 2.46052E-02-2.42842E-02 1.55745E-13-5.88761E-13
 -1       121 2.00005E+01-1.03852E-01 1.57859E-02-3.22243E-02-6.55497E-13-4.87307E-14
 -1       122 1.99891E+01-4.46525E-01-8.90409E-03-4.25194E-02-2.66386E-13 8.34393E-14
 -1       123 1.99699E+01-6.63798E-01-4.88185E-02-3.24028E-02 6.11234E-13 2.25393E-13
 -1       124 1.99537E+01-3.53507E-01-8.54705E-02-1.95537E-04-1.05038E-15 6.71433E-14
 -1       125 1.99493E+01 8.28969E-01-1.05391E-01 5.47727E-02-2.45578E-13-1.87858E-13
 -1       126 1.99614E+01 3.01257E+00-9.13616E-02 1.17595E-01-8.33250E-13 7.86940E-14
 -1       127 1.99974E+01 6.09024E+00-2.54453E-02 1.69283E-01-9.83442E-13 6.72045E-14
 -1       128 2.00473E+01 9.36001E+00 8.02695E-02 1.68208E-01-3.60822E-13 5.76752E-14
 -1       129 2.00890E+01 1.17702E+01 1.75445E-01 9.33399E-02 2.11289E-14-2.11124E-13
 -1       130 2.00995E+01 1.23903E+01 1.99121E-01-2.84066E-02-2.31347E-13-3.65099E-14
 -1       131 2.00716E+01 1.09936E+01 1.35111E-01-1.34334E-01-4.74953E-13 7.39400E-14
 -1       132 2.00249E+01 8.25268E+00 3.10375E-02-1.70988E-01-8.75376E-13 2.86261E-13
 -1       133 1.99818E+01 5.11071E+00-5.69669E-02-1.43917E-01-9.51343E-13-9.67496E-14
 -1       134 1.99529E+01 2.47665E+00-9.82048E-02-9.06626E-02-1.45912E-12 3.07024E-13
 -1       135 1.99601E+01 8.01158E-01-8.31258E-02-6.00158E-02-9.35401E-13-5.41340E-14
 -1       136 1.99591E+01 8.21964E-02-3.57669E-02 3.53275E-02-3.89564E-13 1.94229E-13
 -1       137-1.86633E+00-2.31312E+01-3.58764E+00-4.54708E+00 1.18600E-12 3.22103E-14
 -1       138-1.23529E+00-7.83849E+00-2.30302E+00-2.42779E+00 1.31040E-12 9.09106E-13
 -1       139 5.67074E+00 6.24366E+00-6.59345E-01 6.19326E+00 1.42908E-12 9.74998E-13
 -1       140 2.19597E+01 1.23491E+01 1.06750E+00 1.61810E+01 1.48936E-13-1.95399E-14
 -1       141 4.49917E+01 9.65755E+00 2.57299E+00 1.97843E+01-5.50365E-13-1.06415E-12
 -1       142 6.43515E+01 3.59394E+00 3.53181E+00 1.28917E+01-3.82028E-13-1.80300E-12
 -1       143 7.01472E+01 9.97921E-01 3.73840E+00-1.14831E+00 2.67841E-14-1.75579E-12
 -1       144 5.96479E+01 4.36330E+00 3.16096E+00-1.45437E+01 3.26066E-13-1.07647E-12
 -1       145 4.03365E+01 9.71757E+00 2.08107E+00-1.91666E+01 9.32227E-13-1.80300E-12
 -1       146 1.87373E+01 1.11631E+01 6.11074E-01-1.42562E+01 1.15763E-12-1.61410E-12
 -1       147 4.12719E+00 4.92833E+00-9.01258E-01-4.73546E+00 9.44189E-13-7.53564E-13
 -1       148-1.40520E+00-7.64389E+00-2.18887E+00 2.70221E+00 1.40732E-12-5.86198E-13
 -1       149-1.57688E+00-2.10507E+01-3.12150E+00 4.29813E+00 1.20770E-12-5.64000E-13
 -1       150-7.55449E-01-2.71267E+01-3.49881E+00-1.16175E-02 6.82059E-13 1.41435E-13
 -1       151-1.63890E+00-2.29649E+01-3.29541E+00-4.48785E+00 4.92467E-13-8.60180E-14
 -1       152-2.28502E+00-1.17793E+01-2.59886E+00-4.44110E+00-2.02838E-13-2.74225E-14
 -1       153 1.75791E+00 1.16089E+00-1.44430E+00 1.89817E+00-4.37428E-13-4.12004E-13
 -1       154 1.38757E+01 9.12838E+00 2.63385E-02 1.12490E+01-6.53255E-13-8.36109E-13
 -1       155 3.51700E+01 9.78164E+00 1.71157E+00 1.80290E+01-7.88480E-13-1.31228E-12
 -1       156 7.03524E+01 1.27435E+00 3.95735E+00 4.72574E+00-6.95971E-14-1.06698E-12
 -1       157 6.95814E+01 2.20497E+00 4.01232E+00-9.25027E+00 1.68346E-13-9.45494E-13
 -1       158 5.60343E+01 7.17163E+00 3.31616E+00-1.88901E+01 1.58457E-13-4.69180E-13
 -1       159 3.52780E+01 1.20581E+01 2.04397E+00-2.01170E+01-2.92044E-13 4.20775E-13
 -1       160 1.54954E+01 1.15034E+01 4.55966E-01-1.32675E+01-5.21971E-13 7.68496E-13
 -1       161 2.96908E+00 3.32965E+00-1.14673E+00-3.43323E+00-1.19371E-12 6.75071E-13
 -1       162-1.88244E+00-1.11439E+01-2.65932E+00 3.78689E+00-9.49851E-13 6.36990E-13
 -1       163-1.63886E+00-2.45660E+01-3.69384E+00 4.56523E+00-1.96509E-14-4.43742E-15
 -1       164 2.10145E+01 3.69372E+00-5.73908E-02-3.60977E+00-3.83412E-13 2.92731E-13
 -1       165 1.99906E+01 4.20845E+00-4.59465E-02-2.80804E+00-3.82474E-13-1.44450E-13
 -1       166 1.95104E+01 4.47660E+00-3.13395E-02-2.19557E+00-3.21652E-13-4.07735E-13
 -1       167 1.92675E+01 4.61527E+00-2.34997E-02-1.67438E+00-2.55886E-13-5.65594E-13
 -1       168 1.91366E+01 4.69694E+00-1.95380E-02-1.21884E+00-1.91197E-13-6.46646E-13
 -1       169 1.90626E+01 4.74790E+00-1.74373E-02-7.91896E-01-1.42280E-13-6.94605E-13
 -1       170 1.90253E+01 4.77576E+00-1.64234E-02-3.86791E-01-8.00691E-14-7.05450E-13
 -1       171 1.90144E+01 4.78429E+00-1.61313E-02 8.26632E-03-1.08863E-14-7.19868E-13
 -1       172 1.90270E+01 4.77448E+00-1.64643E-02 4.03662E-01 4.23760E-14-7.27022E-13
 -1       173 1.90664E+01 4.74495E+00-1.75180E-02 8.09826E-01 9.16914E-14-7.28917E-13
 -1       174 1.91411E+01 4.69253E+00-1.96863E-02 1.23124E+00 1.48752E-13-6.97413E-13
 -1       175 1.92770E+01 4.60540E+00-2.40060E-02 1.69787E+00 2.33815E-13-6.29281E-13
 -1       176 1.95242E+01 4.45961E+00-3.28501E-02 2.22621E+00 3.08991E-13-5.11159E-13
 -1       177 2.00140E+01 4.18387E+00-4.72106E-02 2.84646E+00 3.66342E-13-2.69406E-13
 -1       178 2.11361E+01 3.46367E+00-5.97758E-02 3.53644E+00 3.75939E-13 1.94768E-13
 -1       179 2.24205E+01 1.14333E+00-3.36467E-01 3.01462E+00 3.05574E-13 8.29989E-13
 -1       180 2.19731E+01 8.58189E-01 6.91205E-04-1.95895E+00-3.18381E-13 7.79526E-13
 -1       181 2.04486E+01 1.90351E-01-9.93657E-03-7.63959E-01-2.75266E-13 6.12710E-13
 -1       182 1.96733E+01 1.01647E-01 1.36021E-02-2.85389E-01-2.06807E-13 4.56972E-13
 -1       183 1.93338E+01 4.71816E-02 1.00149E-02-6.77216E-02-1.65447E-13 3.22568E-13
 -1       184 1.92043E+01 2.25676E-02 5.15561E-03 3.95653E-02-8.16383E-14 2.32601E-13
 -1       185 1.91911E+01 9.51810E-03 2.42941E-03 9.21812E-02-9.95961E-14 1.99320E-13
 -1       186 1.92399E+01 2.11049E-03 1.12617E-03 1.14535E-01-6.50068E-14 1.22912E-13
 -1       187 1.93191E+01-2.13520E-03 4.91422E-04 1.19406E-01-9.45411E-14 8.28327E-14
 -1       188 1.94100E+01-4.45178E-03 1.55453E-04 1.14203E-01-1.77807E-13 4.65282E-14
 -1       189 1.95015E+01-5.53923E-03-3.18670E-05 1.03528E-01-6.69340E-14 1.50883E-14
 -1       190 1.95871E+01-5.83493E-03-1.33530E-04 9.03283E-02-3.84828E-14-1.45205E-13
 -1       191 1.96635E+01-5.62598E-03-1.80874E-04 7.65119E-02-2.48468E-14-1.53288E-13
 -1       192 1.97296E+01-5.10295E-03-1.92308E-04 6.32998E-02 2.54626E-15-1.97955E-13
 -1       193 1.97855E+01-4.38912E-03-1.79528E-04 5.14633E-02-5.60798E-14-2.28891E-13
 -1       194 1.98321E+01-3.55824E-03-1.49941E-04 4.14877E-02-8.32585E-14-1.90878E-13
 -1       195 1.98711E+01-2.64609E-03-1.07913E-04 3.36955E-02-6.71190E-14-2.36311E-13
 -1       196 1.99045E+01-1.65848E-03-5.55227E-05 2.83394E-02-4.26495E-14-2.13623E-13
 -1       197 1.99347E+01-5.76618E-04 6.92356E-06 2.56779E-02-4.25337E-14-3.11374E-13
 -1       198 1.99646E+01 6.39327E-04 8.05398E-05 2.60361E-02-5.87551E-14-3.81979E-13
 -1       199 1.99974E+01 2.04826E-03 1.67595E-04 2.98598E-02 1.59585E-14-4.01588E-13
 -1       200 2.00369E+01 3.72733E-03 2.71283E-04 3.77632E-02 5.56945E-14-3.46203E-13
 -1       201 2.00875E+01 5.77194E-03 3.95442E-04 5.05751E-02-2.75576E-14-3.92113E-13
 -1       202 2.01547E+01 8.29564E-03 5.44107E-04 6.93816E-02 2.60182E-14-2.81819E-13
 -1       203 2.02450E+01 1.14284E-02 7.20669E-04 9.55652E-02 1.17213E-13-1.94970E-13
 -1       204 2.03663E+01 1.53099E-02 9.26229E-04 1.30827E-01 1.05324E-14-1.47724E-13
 -1       205 2.05279E+01 2.00697E-02 1.15649E-03 1.77171E-01-9.90522E-14-1.25303E-13
 -1       206 2.07409E+01 2.57816E-02 1.39610E-03 2.36801E-01-1.24054E-13-2.30303E-13
 -1       207 2.10177E+01 3.23623E-02 1.60919E-03 3.11818E-01 7.98401E-14-2.78017E-13
 -1       208 2.13716E+01 3.93664E-02 1.72521E-03 4.03545E-01 1.52993E-13-4.59341E-14
 -1       209 2.18148E+01 4.55973E-02 1.62228E-03 5.11121E-01-8.61865E-15-6.17930E-15
 -1       210 2.23558E+01 4.84264E-02 1.11845E-03 6.28835E-01-4.14134E-14 8.44690E-14
 -1       211 2.29930E+01 4.27539E-02-1.28497E-06 7.41496E-01-1.31297E-13-6.04410E-14
 -1       212 2.37057E+01 1.98161E-02-1.87710E-03 8.17366E-01-2.24919E-13-9.93526E-14
 -1       213 2.44404E+01-3.30302E-02-4.33775E-03 7.99747E-01 2.21192E-13-1.49253E-13
 -1       214 2.50948E+01-1.28339E-01-6.61276E-03 6.03194E-01 1.03816E-13 3.42721E-14
 -1       215 2.55068E+01-2.64506E-01-7.27280E-03 1.30295E-01 7.72776E-14 2.26015E-13
 -1       216 2.54655E+01-3.98124E-01-5.35124E-03-6.64192E-01 1.43548E-13-8.20741E-16
 -1       217 2.47754E+01-4.17750E-01-9.73107E-04-1.64773E+00 1.46593E-13 2.48784E-13
 -1       218 2.34040E+01-1.90528E-01-1.31463E-03-2.39798E+00-2.53239E-14 1.29910E-13
 -1       219 2.16797E+01 2.71505E-01-1.06014E-02-2.32768E+00-2.15790E-13 4.50735E-13
 -1       220 2.03041E+01 6.69865E-01-1.98393E-02-1.20825E+00-9.83120E-14 2.32045E-13
 -1       221 1.99044E+01 6.45933E-01-1.83046E-02 3.73554E-01 1.17864E-13 2.18141E-13
 -1       222 2.04483E+01 2.25917E-01-8.76570E-03 1.41044E+00-4.44974E-14 2.87794E-13
 -1       223 2.12954E+01-2.12013E-01 2.35508E-04 1.40775E+00 1.44039E-13 3.98253E-13
 -1       224 2.18011E+01-3.88743E-01 1.75828E-03 6.79931E-01 1.65838E-13 5.92872E-13
 -1       225 2.17308E+01-3.05086E-01-8.97861E-04-1.43697E-01 6.58132E-14 5.61450E-13
 -1       226 2.12188E+01-8.03604E-02-1.78131E-03-6.04790E-01 1.48897E-13 3.90206E-13
 -1       227 2.05539E+01 1.61106E-01-1.25606E-03-5.42305E-01-2.49633E-13 3.41491E-13
 -1       228 2.09647E+01 2.77014E-01-5.13310E-02 1.16466E+00 3.04909E-13 6.93905E-13
 -1       229 1.98702E+01 1.26844E-01 8.31044E-03 4.42969E-01 2.41034E-13 4.91760E-13
 -1       230 1.93641E+01 5.80684E-02 1.27343E-02 1.49915E-01 1.50755E-13 2.93322E-13
 -1       231 1.91547E+01 2.77219E-02 7.62816E-03 1.06340E-02 1.30858E-13 1.85151E-13
 -1       232 1.91051E+01 1.30734E-02 3.82247E-03-5.84993E-02 7.44672E-14 1.04321E-13
 -1       233 1.91411E+01 5.12446E-03 1.90483E-03-9.09244E-02 3.27467E-14 5.58226E-14
 -1       234 1.92203E+01 5.78241E-04 1.00159E-03-1.02672E-01 8.07363E-14 1.87778E-14
 -1       235 1.93181E+01-2.01235E-03 5.41218E-04-1.02454E-01 3.72314E-14-5.51254E-14
 -1       236 1.94196E+01-3.39133E-03 2.78332E-04-9.54737E-02 7.45768E-14-1.69272E-13
 -1       237 1.95166E+01-3.99368E-03 1.18468E-04-8.50076E-02 6.68473E-14-1.97044E-13
 -1       238 1.96043E+01-4.09538E-03 2.16453E-05-7.31658E-02 1.12855E-13-2.16121E-13
 -1       239 1.96807E+01-3.87866E-03-3.31088E-05-6.13082E-02 2.03819E-14-2.44611E-13
 -1       240 1.97457E+01-3.46415E-03-5.88277E-05-5.03001E-02 1.97029E-14-2.54722E-13
 -1       241 1.97998E+01-2.92869E-03-6.42001E-05-4.06838E-02 2.01832E-14-2.87920E-13
 -1       242 1.98446E+01-2.31667E-03-5.50825E-05-3.28022E-02 2.18161E-15-2.59146E-13
 -1       243 1.98821E+01-1.64785E-03-3.53574E-05-2.68904E-02-1.41082E-16-3.08309E-13
 -1       244 1.99147E+01-9.23125E-04-7.54697E-06-2.31447E-02 1.37535E-13-2.93311E-13
 -1       245 1.99449E+01-1.29127E-04 2.67123E-05-2.17749E-02-6.02439E-14-2.87425E-13
 -1       246 1.99758E+01 7.57606E-04 6.62481E-05-2.30416E-02-1.29227E-13-3.02064E-13
 -1       247 2.00108E+01 1.76628E-03 1.09925E-04-2.72802E-02-5.37566E-14-2.63770E-13
 -1       248 2.00539E+01 2.92646E-03 1.56160E-04-3.49078E-02 9.89610E-14-3.77691E-13
 -1       249 2.01093E+01 4.26054E-03 2.02341E-04-4.64101E-02 1.44805E-13-3.76468E-13
 -1       250 2.01820E+01 5.77254E-03 2.44115E-04-6.22977E-02-5.42471E-14-4.78522E-13
 -1       251 2.02773E+01 7.43103E-03 2.74574E-04-8.30182E-02-7.09630E-14-3.63317E-13
 -1       252 2.04009E+01 9.14363E-03 2.83432E-04-1.08803E-01-1.19161E-14-1.00880E-13
 -1       253 2.05581E+01 1.07197E-02 2.56545E-04-1.39420E-01-9.53385E-14-6.33499E-15
 -1       254 2.07533E+01 1.18183E-02 1.76505E-04-1.73791E-01-3.95995E-14 7.08375E-14
 -1       255 2.09883E+01 1.18825E-02 2.56961E-05-2.09447E-01-4.86890E-14 7.22981E-14
 -1       256 2.12607E+01 1.00688E-02-2.06117E-04-2.41792E-01 9.95099E-14 7.28076E-14
 -1       257 2.15606E+01 5.20490E-03-5.07361E-04-2.63228E-01 1.32128E-13-2.86674E-15
 -1       258 2.18676E+01-4.14711E-03-8.24035E-04-2.62364E-01-5.73426E-14-2.37247E-13
 -1       259 2.21469E+01-1.93740E-02-1.04046E-03-2.23834E-01 1.20281E-13-2.99772E-13
 -1       260 2.23465E+01-4.10143E-02-9.83646E-04-1.29796E-01-7.89742E-14-1.87375E-13
 -1       261 2.23989E+01-6.72729E-02-4.85969E-04 3.52677E-02-1.55454E-13 8.55518E-14
 -1       262 2.22290E+01-9.20419E-02 4.52525E-04 2.74826E-01 5.11791E-14-8.76162E-14
 -1       263 2.17746E+01-1.03721E-01 1.47182E-03 5.66153E-01 1.28006E-13 5.06119E-14
 -1       264 2.10194E+01-8.75132E-02 1.86073E-03 8.47971E-01-1.71235E-13 1.55246E-13
 -1       265 2.00289E+01-3.38238E-02 8.83498E-04 1.02354E+00 3.09707E-14 2.82326E-13
 -1       266 1.89687E+01 4.92072E-02-1.42348E-03 9.94411E-01-5.75052E-14 3.75659E-13
 -1       267 1.80732E+01 1.30162E-01-3.63934E-03 7.21510E-01 8.49681E-14 2.59814E-13
 -1       268 1.75576E+01 1.68438E-01-3.89869E-03 2.73889E-01 7.62138E-14 7.05314E-14
 -1       269 1.75125E+01 1.44071E-01-1.61883E-03-1.89135E-01-2.97793E-13 1.61964E-13
 -1       270 1.78596E+01 7.46226E-02 1.59688E-03-5.07255E-01 4.30778E-13 2.03405E-14
 -1       271 1.84061E+01 1.60120E-03 3.42804E-03-6.11164E-01 4.63299E-13-2.28137E-13
 -1       272 1.89555E+01-4.07337E-02 3.10753E-03-5.44670E-01 1.04325E-13-1.34345E-13
 -1       273 1.93914E+01-4.58842E-02 1.55830E-03-4.10727E-01-1.23346E-13-3.30799E-13
 -1       274 1.96883E+01-3.48075E-02 1.12898E-03-2.90120E-01-1.23067E-13-4.37983E-13
 -1       275 1.98856E+01-4.89643E-02 4.97603E-03-1.81524E-01-2.07968E-13-4.75058E-13
 -1       276 1.99789E+01-1.62458E-01 3.75895E-03-2.26823E-01 3.76275E-14 3.27076E-13
 -1       277 2.01011E+01-2.37091E-01 5.68059E-03-1.09245E-01 1.87685E-13 3.73437E-13
 -1       278 2.02172E+01-9.28318E-02 5.60705E-03 2.82033E-01 2.21266E-13 7.73947E-15
 -1       279 2.03047E+01 4.59558E-01 5.09391E-03 9.14884E-01 1.29391E-13-1.82241E-13
 -1       280 2.03173E+01 1.52641E+00 1.93944E-03 1.65161E+00-2.47119E-13-5.17110E-13
 -1       281 2.01930E+01 3.14175E+00-2.22319E-03 2.26547E+00-3.87175E-13-8.10498E-14
 -1       282 1.99121E+01 5.05627E+00-5.36580E-03 2.39160E+00-4.01198E-13 2.52643E-13
 -1       283 1.95692E+01 6.77568E+00-6.11515E-03 1.76053E+00-1.10421E-13 3.75929E-13
 -1       284 1.93624E+01 7.70234E+00-5.30066E-03 4.56171E-01-4.60064E-14-2.81062E-13
 -1       285 1.94359E+01 7.47320E+00-5.16662E-03-1.01391E+00-2.99897E-13 7.48186E-15
 -1       286 1.97243E+01 6.24398E+00-5.28893E-03-2.02186E+00-3.85230E-13-1.79302E-13
 -1       287 2.00500E+01 4.47319E+00-4.28772E-03-2.29719E+00-3.72943E-13 1.22720E-13
 -1       288 2.02466E+01 2.74863E+00-1.80025E-04-1.93964E+00-2.45007E-13-1.31797E-13
 -1       289 2.02946E+01 1.41907E+00 1.91517E-04-1.27086E+00-3.94863E-13 2.15471E-13
 -1       290 2.04427E+01 6.40022E-01 4.11674E-03-9.50370E-01-3.41693E-13 1.53141E-13
 -1       291-7.46621E-01-1.17505E+01-9.63890E-01 1.77867E+00-2.09693E-14 5.64021E-13
 -1       292 4.80542E+00-9.01543E+00-6.03600E-01 5.47162E+00 3.57075E-13 1.01863E-13
 -1       293 1.30841E+01-5.56215E+00-3.75791E-01 7.04538E+00 1.62037E-13-3.14609E-14
 -1       294 2.27615E+01-1.36209E-01 6.07933E-02 8.30650E+00 4.05009E-13-6.69242E-13
 -1       295 3.43759E+01 3.22739E+00 4.71126E-01 7.53697E+00 6.85285E-14-8.31446E-13
 -1       296 4.20735E+01 6.08271E+00 5.98842E-01 4.32141E+00-5.02515E-14-8.91148E-13
 -1       297 4.84612E+01 7.31290E+00 9.96842E-01 2.16216E+00-1.64285E-13-1.29620E-12
 -1       298 4.60033E+01 7.27811E+00 7.87755E-01-1.45385E+00-8.43492E-14-1.09408E-12
 -1       299 4.19367E+01 5.41364E+00 7.84977E-01-5.98226E+00 5.12635E-13-1.05585E-12
 -1       300 3.21980E+01 1.86227E+00 2.88571E-01-6.33090E+00 4.08409E-13-7.39242E-13
 -1       301 2.04396E+01-6.19811E-01-4.83619E-02-7.57022E+00 4.33875E-13-7.96196E-13
 -1       302 1.04481E+01-5.10147E+00-4.86563E-01-5.82222E+00 7.10931E-13-3.80571E-13
 -1       303 3.51671E+00-9.02258E+00-6.87605E-01-4.22349E+00 7.43156E-13-2.81553E-13
 -1       304-9.59452E-01-1.23406E+01-9.95715E-01-1.50133E+00 6.26749E-13-4.98060E-13
 -1       305-1.17969E+00-1.16651E+01-8.69127E-01 7.10657E-01 3.14915E-13-1.59955E-13
 -1       306 2.16771E+00-1.03220E+01-8.14514E-01 2.80219E+00 1.78413E-13-2.00298E-13
 -1       307 8.83288E+00-7.02379E+00-5.85516E-01 4.83197E+00 7.50511E-14-3.77802E-13
 -1       308 1.79228E+01-2.73444E+00-2.35766E-01 6.36223E+00-8.55427E-14-3.95350E-13
 -1       309 2.97754E+01 4.45319E-01 2.02931E-01 6.14004E+00-3.84692E-14-5.31131E-13
 -1       310 4.02902E+01 4.15633E+00 6.76386E-01 4.87735E+00-2.79016E-13-5.56055E-13
 -1       311 4.79478E+01 6.23934E+00 1.07045E+00 2.35362E+00-2.05405E-13-5.65714E-13
 -1       312 4.85031E+01 7.60042E+00 1.03209E+00-1.43692E+00-1.42636E-13-2.44988E-13
 -1       313 4.75531E+01 6.80446E+00 1.11945E+00-5.09951E+00-1.87919E-13-3.14304E-13
 -1       314 4.05072E+01 5.21599E+00 8.32924E-01-7.64278E+00-3.90445E-13-1.85241E-13
 -1       315 3.04529E+01 2.26733E+00 3.86211E-01-8.56048E+00-3.33705E-13 1.10301E-13
 -1       316 1.98068E+01-1.81579E+00-1.06713E-01-7.91539E+00-4.55747E-13 2.27651E-13
 -1       317 1.00103E+01-6.50634E+00-6.02624E-01-6.06030E+00-3.33455E-13 4.20150E-13
 -1       318 3.32253E+00-1.01009E+01-7.95483E-01-4.44485E+00-3.36509E-13 5.31686E-13
 -1       319-1.07381E+00-1.31927E+01-1.19306E+00-1.18899E+00-1.56722E-13 1.58040E-13
 -1       320 2.01367E+01 3.00088E+00-2.20086E-02-2.09661E+00-3.99320E-13-1.74259E-13
 -1       321 2.07574E+01 2.20823E+00-1.76837E-02-2.36393E+00-4.13739E-13 9.05977E-14
 -1       322 1.95831E+01 3.69172E+00-1.56187E-02-1.31688E+00-2.65695E-13-4.65591E-13
 -1       323 1.94597E+01 3.84868E+00-1.37129E-02-9.23409E-01-1.98656E-13-5.16644E-13
 -1       324 1.93905E+01 3.93957E+00-1.27138E-02-5.43717E-01-1.32394E-13-5.37871E-13
 -1       325 1.93599E+01 3.98090E+00-1.22919E-02-1.73201E-01-4.84504E-14-5.54083E-13
 -1       326 1.93612E+01 3.97929E+00-1.23094E-02 1.94342E-01 2.25640E-14-5.70844E-13
 -1       327 1.93947E+01 3.93438E+00-1.27555E-02 5.65220E-01 8.19363E-14-5.84206E-13
 -1       328 1.94657E+01 3.84108E+00-1.37630E-02 9.39079E-01 1.53603E-13-5.55177E-13
 -1       329 1.95929E+01 3.67881E+00-1.56513E-02 1.33303E+00 2.38752E-13-5.00706E-13
 -1       330 1.98088E+01 3.41008E+00-1.88296E-02 1.73825E+00 3.31748E-13-4.20095E-13
 -1       331 2.01797E+01 2.95525E+00-2.29392E-02 2.12681E+00 3.99330E-13-2.80866E-13
 -1       332 2.07499E+01 2.12942E+00-3.04684E-02 2.32181E+00 4.27863E-13 1.00770E-14
 -1       333 2.10966E+01 1.18770E+00-2.49211E-02 1.92162E+00 3.85390E-13 2.79837E-13
 -1       334 2.03930E+01 4.89282E-01 8.33263E-03 9.27032E-01 3.18837E-13 1.86217E-13
 -1       335 2.04595E+01 6.75336E-01 1.25817E-02-1.02450E+00-3.24754E-13 1.18999E-13
 -1       336 2.00378E+01 3.36852E-01 7.17017E-03-4.57424E-01-2.50373E-13 7.08834E-14
 -1       337 1.97837E+01 1.76510E-01 4.09912E-03-1.48433E-01-1.71699E-13 3.96970E-14
 -1       338 1.96484E+01 9.04546E-02 1.88535E-03 2.27221E-02-1.20520E-13-2.37395E-14
 -1       339 1.95931E+01 4.12988E-02 7.86239E-04 1.13819E-01-9.19797E-14-2.36553E-14
 -1       340 1.95878E+01 1.22953E-02 2.69740E-04 1.56903E-01-1.24221E-13-8.00471E-14
 -1       341 1.96117E+01-4.73377E-03 1.26659E-05 1.70855E-01-1.09759E-13-1.16233E-13
 -1       342 1.96509E+01-1.42356E-02-1.22129E-04 1.67424E-01-1.28278E-13-3.15864E-14
 -1       343 1.96965E+01-1.88698E-02-1.89619E-04 1.54195E-01-1.20626E-13-6.98665E-14
 -1       344 1.97428E+01-2.03339E-02-2.15681E-04 1.36153E-01-8.90545E-14-1.13880E-13
 -1       345 1.97866E+01-1.97471E-02-2.15109E-04 1.16588E-01-5.45166E-14-1.66665E-13
 -1       346 1.98263E+01-1.78492E-02-1.97291E-04 9.76588E-02 3.49432E-14-1.16642E-13
 -1       347 1.98615E+01-1.51122E-02-1.68202E-04 8.07815E-02-9.21662E-14-4.98338E-14
 -1       348 1.98923E+01-1.18110E-02-1.31366E-04 6.69045E-02-1.22064E-13-1.20011E-13
 -1       349 1.99199E+01-8.06900E-03-8.84401E-05 5.67144E-02-4.87293E-14-1.44860E-13
 -1       350 1.99454E+01-3.88996E-03-3.96245E-05 5.07949E-02-9.69970E-14-1.98120E-13
 -1       351 1.99705E+01 8.20231E-04 1.60721E-05 4.97520E-02-6.31814E-14-1.26654E-13
 -1       352 1.99975E+01 6.23925E-03 8.06534E-05 5.43173E-02-1.27092E-14-2.04147E-13
 -1       353 2.00286E+01 1.26191E-02 1.57016E-04 6.54342E-02 3.52063E-14-1.90345E-13
 -1       354 2.00668E+01 2.02804E-02 2.48856E-04 8.43327E-02-3.24184E-14-2.41943E-13
 -1       355 2.01154E+01 2.96067E-02 3.60537E-04 1.12593E-01 5.90702E-14-8.51155E-14
 -1       356 2.01785E+01 4.10343E-02 4.96828E-04 1.52197E-01 3.91085E-14-1.05365E-13
 -1       357 2.02606E+01 5.50264E-02 6.62292E-04 2.05548E-01 1.41310E-13-2.44615E-13
 -1       358 2.03671E+01 7.20128E-02 8.59952E-04 2.75447E-01-8.60160E-15-1.52940E-13
 -1       359 2.05037E+01 9.22547E-02 1.08853E-03 3.64951E-01-1.11592E-13-2.41530E-14
 -1       360 2.06769E+01 1.15566E-01 1.33708E-03 4.77031E-01-6.38036E-14 1.19906E-13
 -1       361 2.08933E+01 1.40763E-01 1.57540E-03 6.13819E-01 1.28516E-13-1.21178E-13
 -1       362 2.11594E+01 1.64650E-01 1.73821E-03 7.75153E-01 1.20146E-13-1.41350E-13
 -1       363 2.14807E+01 1.80251E-01 1.70342E-03 9.55900E-01-5.26543E-16-9.00493E-14
 -1       364 2.18617E+01 1.74072E-01 1.26980E-03 1.14139E+00-1.00834E-13 5.40857E-14
 -1       365 2.23053E+01 1.22592E-01 1.58445E-04 1.30024E+00-1.75839E-13 1.73080E-13
 -1       366 2.28137E+01-1.01183E-02-1.92478E-03 1.37473E+00-3.16397E-14 9.32829E-14
 -1       367 2.33870E+01-2.67507E-01-5.06990E-03 1.27107E+00 2.05974E-13 6.20383E-14
 -1       368 2.40165E+01-6.74471E-01-8.82215E-03 8.59740E-01 8.03886E-14 1.21202E-13
 -1       369 2.46563E+01-1.17130E+00-1.19757E-02 9.65031E-03 1.22520E-13 2.51253E-13
 -1       370 2.51696E+01-1.51438E+00-1.41380E-02-1.30031E+00 3.13472E-13 3.92563E-13
 -1       371 2.52940E+01-1.24666E+00-1.21279E-02-2.76452E+00 1.47053E-13 3.05731E-13
 -1       372 2.47648E+01-1.12666E-02-2.47136E-02-3.59366E+00-3.76435E-16 3.50917E-13
 -1       373 2.37896E+01 1.70313E+00-4.28189E-02-2.86721E+00-2.35229E-13 3.54166E-13
 -1       374 2.31559E+01 2.48177E+00-4.79649E-02-6.88306E-01-5.03486E-14 5.58044E-13
 -1       375 2.33006E+01 1.56280E+00-4.08928E-02 1.41065E+00 9.78436E-14 6.08370E-13
 -1       376 2.37191E+01-1.23373E-01-2.42665E-02 2.00647E+00 1.28523E-13 7.34900E-13
 -1       377 2.36795E+01-1.20024E+00-1.24243E-02 1.16279E+00-7.56773E-17 5.94505E-13
 -1       378 2.30517E+01-1.26900E+00-9.31245E-03-1.37034E-01-4.78853E-14 2.40598E-13
 -1       379 2.21074E+01-6.69029E-01-7.65148E-03-1.07123E+00-4.50757E-14 2.07870E-13
 -1       380 2.12426E+01 3.59209E-02 3.04445E-03-1.28284E+00-1.73082E-14 2.19396E-13
 -1       381 1.98915E+01 2.28488E-01 1.07956E-02 3.98375E-01 2.50723E-13 1.14577E-13
 -1       382 1.96031E+01 1.15331E-01 6.17549E-03 1.19701E-01 1.65233E-13 3.09746E-14
 -1       383 1.94686E+01 5.76276E-02 2.80770E-03-2.90901E-02 1.09031E-13 1.22991E-14
 -1       384 1.94289E+01 2.57167E-02 1.17659E-03-1.05895E-01 7.17124E-14-7.90572E-14
 -1       385 1.94447E+01 7.23656E-03 4.47049E-04-1.40999E-01 9.39652E-14-1.56172E-13
 -1       386 1.94907E+01-3.49762E-03 9.87646E-05-1.51331E-01 1.23718E-13-2.10727E-13
 -1       387 1.95509E+01-9.44331E-03-8.33054E-05-1.47101E-01 1.17792E-13-2.44541E-13
 -1       388 1.96152E+01-1.23201E-02-1.79055E-04-1.34771E-01 5.87432E-14-2.33928E-13
 -1       389 1.96776E+01-1.32083E-02-2.22315E-04-1.18535E-01 9.78433E-14-1.92964E-13
 -1       390 1.97349E+01-1.28160E-02-2.31471E-04-1.01137E-01 6.17066E-14-1.46818E-13
 -1       391 1.97856E+01-1.16119E-02-2.18214E-04-8.43625E-02 8.26595E-14-2.11645E-13
 -1       392 1.98294E+01-9.89746E-03-1.90206E-04-6.93659E-02 1.11039E-14-1.78815E-13
 -1       393 1.98670E+01-7.85202E-03-1.52249E-04-5.69010E-02 1.02548E-14-2.34678E-13
 -1       394 1.98995E+01-5.56331E-03-1.07004E-04-4.74909E-02 5.67186E-15-1.65556E-13
 -1       395 1.99286E+01-3.04990E-03-5.55734E-05-4.15543E-02 9.45469E-14-1.94564E-13
 -1       396 1.99562E+01-2.78892E-04 2.05399E-06-3.94991E-02 2.50647E-14-1.22072E-13
 -1       397 1.99848E+01 2.81821E-03 6.65888E-05-4.17898E-02-3.65701E-14-2.77074E-13
 -1       398 2.00169E+01 6.32905E-03 1.39010E-04-4.89883E-02 1.60052E-15-4.00012E-13
 -1       399 2.00557E+01 1.03406E-02 2.20041E-04-6.17668E-02 5.08788E-14-4.21192E-13
 -1       400 2.01044E+01 1.49122E-02 3.09444E-04-8.08850E-02 1.67151E-13-3.73366E-13
 -1       401 2.01670E+01 2.00364E-02 4.05050E-04-1.07118E-01 8.04147E-14-3.73978E-13
 -1       402 2.02475E+01 2.55815E-02 5.01387E-04-1.41115E-01-1.70414E-13-4.92397E-13
 -1       403 2.03502E+01 3.12069E-02 5.87846E-04-1.83152E-01-1.96616E-13-2.37374E-13
 -1       404 2.04791E+01 3.62433E-02 6.46373E-04-2.32753E-01-1.25347E-13-6.37058E-15
 -1       405 2.06374E+01 3.95315E-02 6.49008E-04-2.88105E-01-7.02387E-15 1.49781E-13
 -1       406 2.08269E+01 3.92249E-02 5.56153E-04-3.45254E-01-1.14874E-13 1.95458E-13
 -1       407 2.10464E+01 3.25937E-02 3.17575E-04-3.97035E-01 7.69323E-15 3.03190E-13
 -1       408 2.12902E+01 1.59357E-02-1.20568E-04-4.31846E-01 2.28884E-13 4.11999E-13
 -1       409 2.15461E+01-1.51668E-02-7.97420E-04-4.32567E-01 1.79180E-13 5.45133E-14
 -1       410 2.17929E+01-6.48099E-02-1.70716E-03-3.76358E-01 8.66904E-14-1.62020E-13
 -1       411 2.19988E+01-1.34311E-01-2.75242E-03-2.36773E-01-1.16242E-13-4.75350E-14
 -1       412 2.21202E+01-2.17792E-01-3.70222E-03 9.62663E-03-1.94667E-13-1.47317E-13
 -1       413 2.21039E+01-2.96319E-01-4.18359E-03 3.69835E-01-4.40648E-14 1.11328E-13
 -1       414 2.18962E+01-3.34313E-01-3.85382E-03 8.14096E-01 5.53711E-14 5.01049E-13
 -1       415 2.14620E+01-2.86040E-01-2.52758E-03 1.25633E+00-8.44593E-15 3.97372E-13
 -1       416 2.08167E+01-1.19960E-01-2.97949E-04 1.55407E+00 5.71664E-14 8.41688E-15
 -1       417 2.00561E+01 1.42408E-01 2.01577E-03 1.55202E+00-1.86870E-13 2.99500E-14
 -1       418 1.93571E+01 4.05826E-01 3.96645E-03 1.17392E+00 6.32281E-14 2.25073E-13
 -1       419 1.89123E+01 5.40152E-01 5.28253E-03 5.07335E-01-4.19638E-14 5.37107E-13
 -1       420 1.88221E+01 4.74209E-01 5.76570E-03-2.07732E-01-8.64963E-14 4.31968E-13
 -1       421 1.90312E+01 2.56594E-01 5.00080E-03-7.14223E-01 3.11137E-13 2.62124E-13
 -1       422 1.93723E+01 1.77735E-02 2.60029E-03-8.90300E-01 4.65113E-13 5.15473E-13
 -1       423 1.96788E+01-1.29259E-01 1.11265E-04-7.94631E-01 2.14250E-13 3.70668E-13
 -1       424 1.98633E+01-1.54006E-01-8.61241E-04-5.84841E-01 1.46617E-13 5.42089E-14
 -1       425 1.99363E+01-1.19592E-01-8.78512E-04-3.93485E-01-1.88392E-13 3.33495E-13
 -1       426 1.99725E+01-1.22020E-01 1.12094E-03-3.01059E-01-1.92367E-13 5.48350E-13
 -1       427 2.09804E+01-1.94399E-01 9.44135E-03 9.02641E-01 1.14708E-13-9.46422E-14
 -1       428 2.05924E+01-2.59749E-01 3.29155E-03 1.21849E-01 2.75429E-14 3.61330E-13
 -1       429 2.02407E+01-2.02385E-01 2.30153E-03-2.16683E-01-2.27524E-13 6.20155E-13
 -1       430 2.11768E+01 1.25216E-01 8.63417E-03 1.96842E+00 2.70625E-14-8.98795E-13
 -1       431 2.10011E+01 8.30935E-01 5.85545E-03 3.11256E+00 3.97692E-14-2.42920E-13
 -1       432 2.02521E+01 1.98635E+00 1.70191E-03 3.83123E+00 6.77553E-14 2.69603E-14
 -1       433 1.90309E+01 3.41633E+00-8.27181E-04 3.53252E+00-3.03470E-13 3.99463E-13
 -1       434 1.79058E+01 4.59662E+00-3.08441E-03 1.92457E+00-4.32878E-13-6.85762E-14
 -1       435 1.76230E+01 4.91249E+00-1.61553E-03-4.98623E-01-1.40358E-13-2.19390E-13
 -1       436 1.83709E+01 4.20857E+00 2.04694E-04-2.60271E+00-4.39422E-13-2.81756E-13
 -1       437 1.96199E+01 2.90783E+00 1.05010E-04-3.61200E+00-2.37958E-13 2.18152E-13
 -1       438 2.06242E+01 1.66130E+00 6.31223E-03-3.40141E+00-1.79178E-13 1.10836E-13
 -1       439 2.10343E+01 8.21734E-01 1.10312E-02-2.49544E+00-3.39702E-14-1.52819E-13
 -1       440 1.44440E+01-6.52563E+00 2.69465E-02 8.52247E+00-2.52798E-13-4.22041E-13
 -1       441 1.51271E+00-5.26120E+00-8.57870E-02-2.46115E-02-1.87955E-13 2.11636E-13
 -1       442 5.62253E+00-4.55360E+00 6.63536E-02 5.63098E+00-5.37001E-13 2.76001E-13
 -1       443 2.35444E+01-5.91191E+00 1.32274E-02 7.23810E+00-9.45771E-14-8.34902E-13
 -1       444 3.01278E+01-3.10557E+00-3.47377E-03 4.51869E+00 1.86767E-13-6.52645E-13
 -1       445 1.97905E+01 3.43336E+00-1.87153E-02-1.71953E+00-3.45133E-13-3.55839E-13
 -1       446 3.73514E+01 7.57674E+00 5.71100E-02 5.22841E-01 1.68004E-13-6.23501E-13
 -1       447 3.68048E+01 8.68902E+00-1.78391E-02 6.08665E-01-1.09524E-13-6.93213E-13
 -1       448 3.70137E+01 5.93975E+00 5.71715E-02 3.07714E-01 1.31117E-13-9.38041E-13
 -1       449 3.42864E+01 1.92725E+00 2.27604E-02-9.69679E-01 2.65489E-13-7.67775E-13
 -1       450 2.81258E+01-3.71864E+00-3.17915E-03-4.00637E+00 1.02467E-13-7.77864E-13
 -1       451 2.01262E+01-5.68823E+00-3.83948E-02-6.75782E+00 4.59216E-13-5.09710E-13
 -1       452 1.23166E+01-6.43126E+00 4.40239E-03-7.46771E+00 3.83527E-13-1.25486E-13
 -1       453 3.94899E+00-5.50966E+00-8.56519E-03-5.00679E+00 3.40214E-13-4.20691E-13
 -1       454 1.03611E+00-5.22570E+00-2.03413E-02-1.16346E+00 4.13083E-13-3.29736E-13
 -1       455 3.03012E+00-6.25455E+00-8.09170E-02 3.75939E+00 1.39111E-13-3.46473E-13
 -1       456 9.74258E+00-6.92503E+00-6.46910E-02 6.31638E+00 1.12826E-13-3.12764E-13
 -1       457 1.87801E+01-6.84307E+00-4.30051E-02 6.13426E+00 1.40388E-13-5.55625E-13
 -1       458 2.67884E+01-5.02300E+00-3.87620E-02 3.91132E+00-2.53964E-15-2.69104E-13
 -1       459 3.35065E+01-6.13003E-01-5.16113E-03-1.06715E-01 6.83516E-14 4.16472E-13
 -1       460 3.71091E+01 4.83165E+00 9.40844E-02-1.36802E+00 3.37785E-14 5.52558E-13
 -1       461 3.83865E+01 7.77156E+00 1.16487E-01-1.43563E+00-6.36158E-14 3.70225E-13
 -1       462 3.66900E+01 7.77449E+00 1.57117E-02-4.04462E-01-1.73556E-13 4.87735E-13
 -1       463 3.75367E+01 4.79106E+00 1.06639E-01-1.11319E+00-3.65805E-13-2.07723E-13
 -1       464 3.42592E+01-3.16194E-02 5.43050E-02-2.62041E+00-4.62381E-13-3.13194E-13
 -1       465 2.86889E+01-4.48876E+00 3.86351E-03-5.23970E+00-1.08580E-13-1.21292E-14
 -1       466 2.01170E+01-6.51744E+00-4.72013E-02-7.78725E+00-6.68354E-14 4.59355E-15
 -1       467 1.17495E+01-6.88800E+00-6.59792E-02-7.92999E+00-1.50296E-13 3.21618E-13
 -1       468 3.53983E+00-5.74307E+00-1.13884E-01-4.46520E+00-1.20015E-13 4.91135E-13
 -1       469 3.45145E+01 1.91887E+00-3.65341E-02 1.04747E+00 3.16060E-13-5.60205E-13
 -1       470 3.27895E+01 4.31610E+00-1.27238E-01-9.75874E-01 1.28217E-13-5.84505E-13
 -1       471 9.71629E+00-4.46596E+00 1.11732E-01-7.10950E+00 2.26069E-13 4.71095E-13
 -1       472 3.05924E+01-2.39855E+00-6.76471E-02-5.46204E-01 2.19646E-13-4.77868E-13
 -1       473 3.29083E+01 7.42546E+00-1.29263E-01 1.75039E+00 1.05582E-13-9.26592E-13
 -1       474 2.03740E+01 8.32007E-01 4.01048E-03 9.71578E-01 3.15490E-13-9.76365E-14
 -1       475 1.97321E+01 3.10419E+00-5.39841E-03-6.33728E-01-1.41502E-13-4.72703E-13
 -1       476 1.98285E+01 2.93071E+00-5.99648E-03-9.50276E-01-2.13986E-13-4.37018E-13
 -1       477 1.96643E+01 3.22681E+00-5.02365E-03 8.80333E-03-2.43348E-14-5.03554E-13
 -1       478 1.96828E+01 3.19380E+00-5.10266E-03 3.30335E-01 4.41359E-14-5.26772E-13
 -1       479 1.97367E+01 3.09698E+00-5.41220E-03 6.45663E-01 1.23466E-13-5.18008E-13
 -1       480 1.98355E+01 2.91911E+00-5.94335E-03 9.61203E-01 1.95659E-13-4.58964E-13
 -1       481 1.99912E+01 2.63402E+00-6.52608E-03 1.25632E+00 2.74891E-13-4.12625E-13
 -1       482 2.02337E+01 2.18783E+00-5.70386E-03 1.50106E+00 3.36322E-13-3.21445E-13
 -1       483 2.01124E+01 4.53590E-01 5.07484E-03 4.63678E-01 2.31369E-13-1.20669E-13
 -1       484 2.03438E+01 9.73300E-01 2.64567E-03-9.41058E-01-3.14732E-13-9.09542E-14
 -1       485 3.06648E+01-2.40109E+00-8.69271E-02 7.66878E-01 2.45463E-13-2.93217E-13
 -1       486 2.01723E+01 5.43830E-01 1.89542E-03-4.67094E-01-2.19704E-13-8.96665E-14
 -1       487 2.00250E+01 3.03588E-01 1.04553E-03-1.66007E-01-1.76079E-13-9.23763E-14
 -1       488 1.99242E+01 1.61549E-01 4.44566E-04 1.53130E-02-1.28667E-13-1.40993E-13
 -1       489 1.98653E+01 7.52229E-02 1.55431E-04 1.17815E-01-1.22548E-13-1.76519E-13
 -1       490 1.98378E+01 2.24368E-02 2.09126E-05 1.69020E-01-1.50294E-13-2.11290E-13
 -1       491 1.98315E+01-9.11988E-03-4.75412E-05 1.87498E-01-8.68263E-14-2.51430E-13
 -1       492 1.98385E+01-2.68295E-02-8.26393E-05 1.85821E-01-1.24833E-13-2.23535E-13
 -1       493 1.98531E+01-3.53878E-02-9.78410E-05 1.72530E-01-1.01015E-13-1.54484E-13
 -1       494 1.98713E+01-3.78973E-02-1.00140E-04 1.53430E-01-5.41381E-14-3.92291E-14
 -1       495 1.98908E+01-3.64369E-02-9.40161E-05 1.32446E-01 2.53443E-14 1.92812E-14
 -1       496 1.99100E+01-3.23808E-02-8.24475E-05 1.12222E-01-2.32210E-14-5.81007E-14
 -1       497 1.99283E+01-2.65928E-02-6.73215E-05 9.45492E-02-1.22304E-13 2.12702E-14
 -1       498 1.99458E+01-1.95538E-02-4.96421E-05 8.06877E-02-1.30244E-13 2.88761E-14
 -1       499 1.99626E+01-1.14483E-02-2.97218E-05 7.16100E-02-1.38967E-13 2.84339E-14
 -1       500 1.99797E+01-2.22569E-03-7.31943E-06 6.81903E-02-8.85065E-14-4.60985E-14
 -1       501 1.99978E+01 8.35782E-03 1.82719E-05 7.13531E-02-1.25256E-13-1.35279E-13
 -1       502 2.00182E+01 2.07089E-02 4.81660E-05 8.21937E-02 3.32981E-14-1.24200E-13
 -1       503 2.00423E+01 3.53756E-02 8.38489E-05 1.02073E-01-3.54767E-15-1.13075E-13
 -1       504 2.00718E+01 5.30290E-02 1.27148E-04 1.32695E-01 8.17578E-14-2.89737E-14
 -1       505 2.01085E+01 7.44389E-02 1.80177E-04 1.76156E-01 5.14831E-14-1.26029E-13
 -1       506 2.01544E+01 1.00430E-01 2.45209E-04 2.34973E-01 6.76484E-14-2.11741E-14
 -1       507 2.02115E+01 1.31790E-01 3.24354E-04 3.12051E-01 3.12906E-14-1.69941E-13
 -1       508 2.02818E+01 1.69082E-01 4.18857E-04 4.10570E-01-4.35700E-14-1.33176E-13
 -1       509 2.03673E+01 2.12270E-01 5.27623E-04 5.33724E-01-6.38300E-14-7.26081E-14
 -1       510 2.04697E+01 2.59999E-01 6.44346E-04 6.84196E-01-1.53135E-13-5.25136E-14
 -1       511 2.05905E+01 3.08288E-01 7.52305E-04 8.63203E-01 7.71511E-14-1.58163E-13
 -1       512 2.07322E+01 3.48244E-01 8.15807E-04 1.06885E+00 1.34313E-13-1.30423E-13
 -1       513 2.08997E+01 3.62406E-01 7.68903E-04 1.29342E+00 3.49450E-14-3.32326E-14
 -1       514 2.11048E+01 3.19520E-01 5.02006E-04 1.51904E+00-6.12068E-14 3.33198E-14
 -1       515 2.13737E+01 1.68828E-01-1.24501E-04 1.71109E+00-1.57386E-13 3.92186E-14
 -1       516 2.17584E+01-1.61563E-01-1.24236E-03 1.80839E+00-3.36960E-14-2.39698E-14
 -1       517 2.23462E+01-7.48781E-01-2.77420E-03 1.70886E+00 2.54637E-13 5.49779E-14
 -1       518 2.32480E+01-1.61231E+00-4.45515E-03 1.25667E+00 2.33641E-13 4.21451E-13
 -1       519 2.45292E+01-2.56485E+00-6.23549E-03 2.46311E-01 1.45876E-13 3.04519E-13
 -1       520 2.60410E+01-2.96367E+00-1.62476E-02-1.45771E+00 1.21290E-13 1.46114E-13
 -1       521 2.71359E+01-1.81143E+00-5.61526E-02-3.36266E+00 3.98891E-14 3.06144E-13
 -1       522 2.70951E+01 1.34690E+00-1.18678E-01-4.13794E+00-2.33511E-13 3.33267E-13
 -1       523 2.65881E+01 4.41430E+00-1.55224E-01-2.39403E+00-5.46022E-14 2.59317E-13
 -1       524 2.65264E+01 4.30643E+00-1.43579E-01 6.81978E-01 1.17177E-13 4.30468E-13
 -1       525 2.68164E+01 1.05694E+00-1.00933E-01 2.23909E+00-2.30232E-14 3.59903E-13
 -1       526 2.64453E+01-1.85173E+00-4.04840E-02 1.31309E+00-9.02750E-15 3.65045E-13
 -1       527 2.50765E+01-2.66990E+00-1.25679E-02-4.62140E-01-1.13141E-13 5.13780E-13
 -1       528 2.34007E+01-1.84691E+00-2.35921E-03-1.78655E+00 6.90683E-14 5.54186E-13
 -1       529 1.98102E+01 1.28886E-01 1.00184E-03-1.99723E-02 1.48773E-13-1.86778E-13
 -1       530 1.97522E+01 5.94430E-02 3.65656E-04-1.18404E-01 1.37583E-13-2.11229E-13
 -1       531 1.97333E+01 1.76595E-02 8.27940E-05-1.66439E-01 1.26200E-13-2.61339E-13
 -1       532 1.97392E+01-7.11052E-03-5.34265E-05-1.82982E-01 1.18109E-13-2.21331E-13
 -1       533 1.97594E+01-2.09652E-02-1.22818E-04-1.80379E-01 8.79022E-14-1.49505E-13
 -1       534 1.97868E+01-2.76739E-02-1.54613E-04-1.66851E-01 7.01358E-14-1.59353E-13
 -1       535 1.98167E+01-2.96872E-02-1.62629E-04-1.47910E-01 6.51267E-14-1.67258E-13
 -1       536 1.98464E+01-2.86364E-02-1.55217E-04-1.27246E-01 7.64931E-14-1.40291E-13
 -1       537 1.98742E+01-2.56012E-02-1.37885E-04-1.07317E-01 3.58013E-14-1.40458E-13
 -1       538 1.98997E+01-2.12673E-02-1.14204E-04-8.97629E-02 3.37200E-14-1.60635E-13
 -1       539 1.99230E+01-1.60309E-02-8.62062E-05-7.57091E-02 3.32892E-14-2.17739E-13
 -1       540 1.99445E+01-1.00718E-02-5.48408E-05-6.59879E-02 5.24865E-14-2.74267E-13
 -1       541 1.99654E+01-3.40851E-03-2.02565E-05-6.13049E-02 6.69357E-14-2.00991E-13
 -1       542 1.99867E+01 4.05579E-03 1.79400E-05-6.23598E-02-2.51789E-14-1.79534E-13
 -1       543 2.00101E+01 1.24889E-02 6.04446E-05-6.99266E-02-2.72392E-14-1.10323E-13
 -1       544 2.00374E+01 2.20817E-02 1.07978E-04-8.48947E-02 1.43014E-13-1.49394E-13
 -1       545 2.00706E+01 3.29872E-02 1.60929E-04-1.08263E-01 7.32839E-14-2.61076E-13
 -1       546 2.01120E+01 4.52383E-02 2.18873E-04-1.41079E-01 4.68710E-14-1.58862E-13
 -1       547 2.01640E+01 5.86285E-02 2.79874E-04-1.84294E-01-3.34292E-14-6.16547E-14
 -1       548 2.02296E+01 7.25425E-02 3.39518E-04-2.38517E-01-1.55887E-13-1.46003E-13
 -1       549 2.03114E+01 8.57173E-02 3.89610E-04-3.03613E-01-1.23565E-13-3.57039E-13
 -1       550 2.04122E+01 9.59199E-02 4.16553E-04-3.78114E-01-1.55583E-13-4.01299E-13
 -1       551 2.05346E+01 9.95441E-02 3.99635E-04-4.58366E-01-1.15299E-13-2.90701E-13
 -1       552 2.06809E+01 9.11730E-02 3.09886E-04-5.37409E-01-5.42972E-14-2.82297E-13
 -1       553 2.08525E+01 6.32611E-02 1.11026E-04-6.03589E-01 8.57143E-14-2.55921E-13
 -1       554 2.10497E+01 6.29205E-03-2.35497E-04-6.39084E-01 2.99261E-13-8.43875E-14
 -1       555 2.12710E+01-8.98769E-02-7.55151E-04-6.18814E-01 1.62588E-13 5.46315E-14
 -1       556 2.15113E+01-2.32321E-01-1.44415E-03-5.10771E-01-1.51805E-13 2.37468E-13
 -1       557 2.17586E+01-4.17523E-01-2.21649E-03-2.79713E-01-1.91828E-13 5.31825E-13
 -1       558 2.19881E+01-6.19412E-01-2.84146E-03 1.02689E-01-1.29582E-13 5.22801E-13
 -1       559 2.21546E+01-7.75831E-01-2.89616E-03 6.37432E-01-6.24098E-14 4.26967E-13
 -1       560 2.21904E+01-7.86631E-01-2.24501E-03 1.26654E+00 9.05512E-14 3.56794E-13
 -1       561 2.20229E+01-5.44857E-01-9.20990E-04 1.84363E+00 1.72234E-13 2.87450E-13
 -1       562 2.16260E+01-1.48191E-02 1.14575E-03 2.14043E+00 1.10864E-14 3.04384E-13
 -1       563 2.10881E+01 6.66959E-01 2.08209E-03 1.93837E+00-2.83042E-13 3.33223E-14
 -1       564 2.06190E+01 1.19516E+00 2.37719E-03 1.20028E+00-7.41163E-14 2.79859E-13
 -1       565 2.04251E+01 1.27473E+00 2.61697E-03 1.85589E-01 2.65881E-14 4.63145E-14
 -1       566 2.05317E+01 8.77750E-01 2.60748E-03-6.77473E-01 1.02099E-13 2.07887E-13
 -1       567 2.07617E+01 2.69143E-01 1.23526E-03-1.07975E+00 2.37955E-13 3.34635E-13
 -1       568 2.08869E+01-2.09903E-01-1.86234E-03-1.01883E+00 2.77698E-13 5.45432E-13
 -1       569 2.08062E+01-3.92028E-01-2.13286E-03-7.07063E-01 1.49865E-13 9.21488E-13
 -1       570 2.05617E+01-3.26252E-01-3.90260E-04-3.91485E-01-1.01359E-13 1.15071E-12
 -1       571 2.23502E+01-9.95269E-01 5.62539E-03 2.90949E+00 2.28112E-13-5.36823E-13
 -1       572 2.15705E+01-6.38915E-01 8.43243E-03 4.38511E+00 1.37631E-13-2.29136E-13
 -1       573 2.15383E+01-6.38715E-01 7.02639E-03 3.51872E-01-7.20771E-14 8.70053E-14
 -1       574 2.21876E+01-9.20317E-01 1.30471E-03 1.45934E+00-1.45786E-13-3.94781E-13
 -1       575 1.95182E+01 4.34449E-01 2.54718E-02 5.07628E+00-2.20848E-13-1.56274E-13
 -1       576 1.67641E+01 1.92965E+00 3.08567E-02 4.02908E+00-2.24471E-13 3.45814E-13
 -1       577 1.50198E+01 2.93863E+00 3.90098E-02 1.06085E+00-2.13864E-13 7.20951E-15
 -1       578 1.56162E+01 2.67533E+00 4.87104E-02-2.38938E+00-2.02434E-13-4.56494E-13
 -1       579 1.81191E+01 1.24448E+00 1.40873E-02-4.49380E+00-1.67641E-13-1.46580E-13
 -1       580 2.05733E+01-5.27170E-02 2.04614E-02-4.65280E+00-1.48985E-13 2.89669E-13
 -1       581 2.18644E+01-6.50586E-01-6.27325E-03-3.49336E+00-4.27230E-13-6.57399E-14
 -1       582 7.03527E+00-8.94340E-01 2.21290E-01 2.05409E+00-5.45102E-13 1.04611E-13
 -1       583 2.14964E+01-6.15544E+00 4.51873E-02 7.57768E+00-1.18815E-13-4.24886E-13
 -1       584 1.99251E+01 2.46295E-01 2.45781E-03 1.58389E-01 1.76405E-13-1.55315E-13
 -1       585 2.78188E+01-5.47989E+00 4.29343E-04 4.56706E+00-1.17475E-14-6.64101E-13
 -1       586 6.55422E+00-1.20539E+00 2.14704E-01-2.13211E+00-3.40294E-13 7.70356E-14
 -1       587 3.18882E+01 1.46378E+00-1.36671E-01-3.19481E+00-1.23894E-13 3.69788E-13
 -1       588 1.14554E+01-3.91830E+00 1.66186E-01-6.69055E+00 2.05801E-13-2.27623E-13
 -1       589 3.02128E+01 7.18239E+00-2.35704E-01-3.37433E-01 2.75877E-13-8.36661E-13
 -1       590 1.96799E+01 3.19823E+00-5.11191E-03-3.12808E-01-7.38646E-14-4.93705E-13
 -1       591 2.48576E+01-6.02012E+00 1.23541E-02-4.57654E+00 1.62557E-13-6.20642E-13
 -1       592 3.20652E+01 3.04208E+00-1.56658E-01 2.03582E+00 7.55576E-14-4.68209E-13
 -1       593 9.04481E+00-4.42139E+00 1.41956E-01 5.66179E+00 9.75886E-14-2.70381E-13
 -1       594 1.90184E+01-6.17107E+00 9.23270E-02-6.77014E+00 2.72990E-13-3.03429E-13
 -1       595 5.46960E+00-2.21044E+00 1.90318E-01-3.28710E+00 3.06304E-13-4.03011E-13
 -1       596 3.09439E+01 4.06254E+00-2.04974E-01 1.59392E+00-4.69069E-14 1.37675E-13
 -1       597 4.42744E+00-2.53871E+00 1.73435E-01 1.82504E+00 1.19096E-13-5.88599E-13
 -1       598 1.73745E+01-6.28507E+00 9.97758E-02 6.26671E+00 1.96357E-13-4.97991E-13
 -1       599 2.45903E+01-6.75487E+00 1.88661E-02 3.95520E+00 1.20737E-13-8.76903E-14
 -1       600 2.96284E+01-4.28853E+00-6.33400E-02 5.46358E-02-9.81212E-14 1.03653E-13
 -1       601 3.22292E+01 5.58553E+00-1.60077E-01-2.96745E+00-5.17641E-15 5.67581E-13
 -1       602 3.05956E+01 7.03780E+00-2.06540E-01-1.11916E+00 7.62029E-14 5.77145E-13
 -1       603 3.14991E+01 3.39821E-01-1.46387E-01 1.26259E+00-1.70509E-13-2.17278E-13
 -1       604 3.09321E+01-3.51137E+00-6.15338E-02-1.05407E+00 1.84993E-13-4.51500E-13
 -1       605 2.57028E+01-6.55235E+00 5.00342E-03-5.83280E+00 3.23075E-13-4.94191E-13
 -1       606 1.94827E+01-6.23146E+00 8.58510E-02-7.82488E+00 1.82021E-13-2.16235E-13
 -1       607 2.03909E+01 1.75704E+00-5.28095E-03-1.52357E+00-3.64703E-13-1.24133E-13
 -1       608 2.05859E+01 1.30525E+00-9.99848E-04 1.54753E+00 3.85769E-13-5.26751E-14
 -1       609 1.26741E+01-3.75137E+00 1.52348E-01 7.61874E+00-5.38854E-13-6.42125E-14
 -1       610 2.76502E+01-4.98815E+00-2.76145E-02-1.85527E+00 4.27210E-14-6.32088E-13
 -1       611 1.99781E+01 2.65349E+00-6.75134E-03-1.24359E+00-2.87971E-13-3.56935E-13
 -1       612 1.86207E+01-4.25010E+00 1.00387E-01 7.66452E+00-2.17742E-14-7.31949E-14
 -1       613 2.01631E+01 2.28262E+00-6.10350E-03-1.43526E+00-3.30564E-13-2.72454E-13
 -1       614 1.66307E+01-4.43437E+00 1.56480E-01-7.75547E+00 2.50806E-13-2.12885E-13
 -1       615 2.99617E+01-2.15795E+00-5.61363E-02-2.86166E+00-1.75436E-13 3.14797E-13
 -1       616 1.12503E+01-7.82872E-01 1.70489E-01 5.12774E+00-6.95281E-13 2.65912E-13
 -1       617 2.83822E+01 6.88440E+00-1.84140E-01 8.92325E-01-2.40016E-14-6.58508E-13
 -1       618 2.99998E+01 1.88597E-02-1.15186E-01-1.07029E+00 3.83318E-13-4.36783E-13
 -1       619 3.00567E+01-5.94554E-01-1.03312E-01 1.80336E+00-3.87086E-14-3.33983E-13
 -1       620 2.23426E+01-8.91944E-01-1.20100E-03-2.19078E+00-3.55772E-13 4.78530E-13
 -1       621 1.99595E+01 2.44933E+00-1.58903E-03 3.94048E-01 9.55842E-14-4.65174E-13
 -1       622 1.99275E+01 2.52426E+00-1.51907E-03 1.35710E-01 2.14212E-14-4.60545E-13
 -1       623 2.01199E+01 2.04602E+00-1.58108E-03 8.50134E-01 2.10067E-13-3.74652E-13
 -1       624 2.02394E+01 1.67537E+00-2.21843E-03 9.91492E-01 2.64463E-13-3.24417E-13
 -1       625 2.03194E+01 1.03684E+00 2.85994E-03 8.31174E-01 2.66372E-13-2.46415E-13
 -1       626 2.02403E+01 6.73194E-01 4.33487E-04-3.92782E-01-2.12048E-13-2.15760E-13
 -1       627 2.01675E+01 3.91491E-01 1.75429E-04-1.39677E-01-1.84695E-13-2.00402E-13
 -1       628 2.01018E+01 2.12128E-01 4.79178E-05 2.20934E-02-1.30952E-13-2.30972E-13
 -1       629 2.00515E+01 9.77663E-02 3.77813E-06 1.16942E-01-1.61370E-13-2.63636E-13
 -1       630 2.00163E+01 2.60137E-02-1.57181E-05 1.65497E-01-1.39632E-13-2.45413E-13
 -1       631 1.99938E+01-1.73120E-02-2.59514E-05 1.83395E-01-7.45345E-14-1.52397E-13
 -1       632 1.99807E+01-4.14790E-02-3.12911E-05 1.81989E-01-3.53387E-14-5.30335E-14
 -1       633 1.99744E+01-5.27209E-02-3.29374E-05 1.69366E-01-1.18552E-14-3.84216E-14
 -1       634 1.99727E+01-5.52974E-02-3.18061E-05 1.51193E-01-3.18984E-14-2.66783E-14
 -1       635 1.99741E+01-5.21020E-02-2.86566E-05 1.31398E-01-4.51910E-14-1.04279E-13
 -1       636 1.99776E+01-4.50417E-02-2.42118E-05 1.12686E-01-2.88774E-14-1.65170E-13
 -1       637 1.99824E+01-3.52881E-02-1.89251E-05 9.69506E-02-8.64019E-14-1.15286E-13
 -1       638 1.99883E+01-2.34513E-02-1.29998E-05 8.55835E-02-1.04298E-13-5.28978E-14
 -1       639 1.99951E+01-9.70239E-03-6.43929E-06 7.97177E-02-2.03763E-13-1.14431E-14
 -1       640 2.00029E+01 6.13744E-03 9.20904E-07 8.04159E-02-1.53572E-13-2.47049E-14
 -1       641 2.00119E+01 2.45318E-02 9.37768E-06 8.88174E-02-1.44400E-14 8.10673E-14
 -1       642 2.00222E+01 4.61802E-02 1.93481E-05 1.06250E-01-4.50344E-14 3.35759E-15
 -1       643 2.00340E+01 7.19773E-02 3.13646E-05 1.34312E-01-1.10623E-15-2.18979E-14
 -1       644 2.00476E+01 1.02969E-01 4.60733E-05 1.74927E-01 2.26068E-14-1.28655E-13
 -1       645 2.00629E+01 1.40294E-01 6.42287E-05 2.30357E-01 1.20137E-14-1.42658E-13
 -1       646 2.00795E+01 1.85070E-01 8.66719E-05 3.03183E-01-4.54261E-14-2.09564E-13
 -1       647 2.00967E+01 2.38202E-01 1.14264E-04 3.96220E-01 7.28737E-14-1.06534E-13
 -1       648 2.01131E+01 3.00001E-01 1.47713E-04 5.12342E-01-3.35869E-14-1.08155E-13
 -1       649 2.01266E+01 3.69490E-01 1.87157E-04 6.54204E-01-4.21155E-15-9.21266E-14
 -1       650 2.01346E+01 4.43174E-01 2.31249E-04 8.23810E-01 7.03214E-16 3.21616E-14
 -1       651 2.01349E+01 5.12910E-01 2.75338E-04 1.02192E+00 9.78167E-14 8.50345E-14
 -1       652 2.01276E+01 5.62431E-01 3.08523E-04 1.24726E+00 1.21247E-13 1.23579E-13
 -1       653 2.01199E+01 5.62041E-01 3.13836E-04 1.49556E+00 6.73850E-14 4.87505E-14
 -1       654 2.01344E+01 4.61403E-01 2.66042E-04 1.75800E+00-1.08437E-13 2.29842E-13
 -1       655 2.02241E+01 1.82112E-01 2.31050E-04 2.01786E+00-2.65516E-13 1.78286E-13
 -1       656 2.04948E+01-3.84596E-01 4.99085E-04 2.24182E+00 9.16655E-14 2.62920E-13
 -1       657 2.11371E+01-1.35710E+00 2.70051E-03 2.34765E+00 4.28055E-13 2.60450E-13
 -1       658 2.24078E+01-2.75419E+00 6.29258E-03 2.15534E+00 6.30448E-14 7.46144E-14
 -1       659 2.45587E+01-4.24399E+00 6.27637E-03 1.31538E+00 1.79602E-13 3.09615E-13
 -1       660 2.73120E+01-4.26096E+00-1.08846E-02-1.43341E+00 1.26663E-13 1.56018E-13
 -1       661 2.45268E+01-3.46579E+00 7.89918E-03-3.06872E+00-2.62544E-13 1.85117E-15
 -1       662 1.99731E+01 8.75972E-02 5.46162E-05-1.19413E-01 1.48024E-13-1.89847E-13
 -1       663 2.23970E+01-9.85947E-01-7.00148E-04-1.25534E-01-2.04937E-13-2.31962E-15
 -1       664 2.00268E+01 1.89130E-01 1.78860E-04-2.10751E-02 1.40189E-13-2.49967E-13
 -1       665 1.99253E+01-1.34785E-02-2.94261E-05-1.87316E-01 5.96336E-14-1.66156E-13
 -1       666 1.99206E+01-3.47134E-02-4.49365E-05-1.85649E-01 1.23720E-13-1.76949E-13
 -1       667 1.99230E+01-4.47440E-02-5.16522E-05-1.72533E-01 3.95071E-14-1.55210E-13
 -1       668 1.99296E+01-4.72997E-02-5.21027E-05-1.53736E-01 4.03847E-14-1.56442E-13
 -1       669 1.99386E+01-4.49085E-02-4.82780E-05-1.33216E-01 6.19753E-14-7.02155E-14
 -1       670 1.99487E+01-3.92407E-02-4.17449E-05-1.13667E-01 3.38297E-14-4.70087E-14
 -1       671 1.99593E+01-3.13414E-02-3.33745E-05-9.69467E-02 6.09224E-14-1.02213E-13
 -1       672 1.99701E+01-2.17920E-02-2.36515E-05-8.43826E-02 1.00813E-14-9.28731E-14
 -1       673 1.99813E+01-1.08246E-02-1.27327E-05-7.70107E-02 2.03403E-14-4.31982E-14
 -1       674 1.99931E+01 1.58341E-03-5.67459E-07-7.57503E-02 9.16917E-15 3.52355E-14
 -1       675 2.00062E+01 1.56265E-02 1.30604E-05-8.15282E-02 7.43064E-14-1.28032E-13
 -1       676 2.00211E+01 3.15881E-02 2.84439E-05-9.53561E-02 8.18334E-14-2.78675E-13
 -1       677 2.00388E+01 4.97453E-02 4.58497E-05-1.18359E-01 1.31287E-13-1.07262E-13
 -1       678 2.00602E+01 7.02459E-02 6.53830E-05-1.51750E-01 3.31506E-14 1.30753E-14
 -1       679 2.00867E+01 9.29404E-02 8.67966E-05-1.96729E-01-4.93308E-15 9.43228E-14
 -1       680 2.01195E+01 1.17146E-01 1.09218E-04-2.54299E-01-4.69167E-14 7.91713E-14
 -1       681 2.01603E+01 1.41318E-01 1.30763E-04-3.24952E-01 3.80732E-14 3.19294E-14
 -1       682 2.02114E+01 1.62605E-01 1.48015E-04-4.08199E-01-1.05515E-13-8.95364E-14
 -1       683 2.02754E+01 1.76273E-01 1.55370E-04-5.01898E-01-1.36295E-13-2.92326E-13
 -1       684 2.03564E+01 1.75038E-01 1.44307E-04-6.01335E-01-7.83607E-14-3.73983E-13
 -1       685 2.04599E+01 1.48412E-01 1.02772E-04-6.98021E-01-1.19449E-13-1.77116E-13
 -1       686 2.05941E+01 8.24093E-02 1.56624E-05-7.78209E-01 1.47107E-14 7.02593E-14
 -1       687 2.07702E+01-3.96818E-02-1.34900E-04-8.21215E-01 1.12832E-13 1.95318E-13
 -1       688 2.10027E+01-2.34154E-01-3.55850E-04-7.97831E-01-1.51265E-13 2.91328E-13
 -1       689 2.13068E+01-5.09197E-01-6.78018E-04-6.69640E-01-2.67712E-13 1.82720E-13
 -1       690 2.16906E+01-8.49932E-01-1.06302E-03-3.91507E-01-2.52324E-13 1.82964E-13
 -1       691 2.21407E+01-1.19567E+00-1.26994E-03 7.83808E-02 5.28246E-14 2.24908E-13
 -1       692 2.25969E+01-1.41353E+00-6.70225E-04 7.51101E-01 8.76196E-14 1.58007E-13
 -1       693 2.29367E+01-1.30410E+00-5.22578E-04 1.55355E+00 2.14128E-13 2.61627E-13
 -1       694 2.30015E+01-6.78138E-01-2.46838E-03 2.26863E+00 7.83887E-14 2.35050E-13
 -1       695 2.27226E+01 4.52602E-01-2.70095E-03 2.52657E+00-5.62614E-14 4.35322E-13
 -1       696 2.22369E+01 1.69516E+00-6.55289E-03 2.02599E+00-1.17392E-13 1.39008E-13
 -1       697 2.19207E+01 2.33110E+00-7.28380E-03 8.42817E-01 2.07976E-13 4.63855E-14
 -1       698 2.19858E+01 1.97523E+00-5.29806E-03-4.33633E-01-5.77442E-14 6.37060E-14
 -1       699 2.22774E+01 9.00838E-01-4.80821E-03-1.16219E+00 1.06576E-13-5.26054E-14
 -1       700 2.24125E+01-1.51602E-01-2.47509E-03-1.14226E+00 1.71621E-13-8.78434E-14
 -1       701 2.25621E+01-7.38435E-01-3.69338E-03-7.18647E-01-8.89550E-14 3.32493E-14
 -1       702 1.74524E+01-7.77607E-01 8.24362E-02 6.10444E+00-1.88452E-13 4.76078E-13
 -1       703 2.30436E+01-2.10753E+00 1.15490E-02-3.48338E+00-8.14852E-14-1.66067E-13
 -1       704 2.36936E+01-2.60852E+00 5.27401E-03 3.68245E+00 1.12871E-13-4.97687E-13
 -1       705 1.29370E+01 8.29975E-01 1.18270E-01 3.74627E+00-5.47860E-14-1.65014E-13
 -1       706 2.17307E+01-2.53216E+00 2.86826E-02 5.68180E+00-1.45091E-13-5.18361E-13
 -1       707 1.04038E+01 9.40508E-01 1.70388E-01-3.39487E-01-1.55371E-13-2.16271E-13
 -1       708 1.96983E+01-1.61622E+00 4.19383E-02-5.78374E+00 1.43193E-13-9.08561E-14
 -1       709 2.78338E+01-5.30087E+00-2.21661E-02-2.80759E+00 3.39341E-13-2.97266E-13
 -1       710 2.88269E+01-2.17497E+00-8.64360E-02 1.01160E+00-1.14336E-14 4.22475E-14
 -1       711 1.49252E+01-3.93097E+00 1.07356E-01 5.60494E+00 2.44985E-13-2.94337E-13
 -1       712 2.01054E+01 3.52982E-01 6.34541E-04 1.48873E-01 1.61932E-13-2.32770E-13
 -1       713 1.99411E+01 2.44898E-02-6.52067E-07-1.69205E-01 9.92628E-14-1.56971E-13
 -1       714 1.24121E+01-1.06043E+00 1.52993E-01-5.47734E+00 1.51691E-13-3.95517E-14
 -1       715 2.02924E+01 1.11601E+00-4.04693E-04-7.62765E-01-2.49519E-13-1.83767E-13
 -1       716 2.85279E+01 4.15040E+00-1.52212E-01-1.55020E+00 4.88637E-13-4.90212E-13
 -1       717 1.03453E+01-1.45943E+00 1.41109E-01-4.45483E+00 6.61433E-14-5.32976E-14
 -1       718 2.02061E+01 6.13792E-01 9.81103E-04 4.19994E-01 2.24749E-13-2.50141E-13
 -1       719 2.00235E+01 2.29482E+00-1.65196E-03 6.37693E-01 1.67469E-13-4.40345E-13
 -1       720 7.09436E+00-6.66011E-01 1.61439E-01-4.04899E-01 1.47997E-13-7.48790E-13
 -1       721 1.73821E+01-4.45836E+00 7.60146E-02-6.08569E+00-3.52010E-14-5.52926E-14
 -1       722 2.00181E+01 2.30512E+00-1.63389E-03-6.29315E-01-1.56351E-13-3.93150E-13
 -1       723 2.30796E+01-5.69750E+00 3.48898E-02-4.34046E+00-7.32053E-15-4.54661E-13
 -1       724 2.86889E+01 4.57788E+00-1.71527E-01 2.74918E+00-2.59175E-13-4.94021E-13
 -1       725 9.57983E+00-1.83630E+00 1.59335E-01 3.95872E+00 5.07129E-14-3.38236E-13
 -1       726 2.25218E+01-5.81029E+00 7.24675E-02 4.05749E+00 2.11872E-13 3.54278E-14
 -1       727 2.68794E+01-5.61927E+00-1.16453E-02 9.26840E-01 3.10436E-13 2.92441E-13
 -1       728 2.02699E+01 1.62742E+00 7.15804E-04-1.08832E+00-2.97943E-13-2.32350E-13
 -1       729 2.33542E+01-5.61926E+00 7.53462E-02-6.27494E+00 1.78919E-13-5.43073E-13
 -1       730 2.01167E+01 2.05830E+00-6.78982E-04-8.43713E-01-2.39729E-13-3.49474E-13
 -1       731 1.99266E+01 2.52588E+00-1.51429E-03-1.26560E-01-4.46027E-14-4.52028E-13
 -1       732 2.70796E+01 5.30593E+00-1.26188E-01-7.49470E-01 3.80924E-13-4.47371E-13
 -1       733 2.33067E+01-5.14823E+00 6.14927E-02 6.40191E+00 3.08191E-14-4.78434E-13
 -1       734 2.37559E+01-2.00125E+00-1.96536E-04 1.77123E+00 1.54785E-13-2.39846E-13
 -1       735 2.25463E+01-3.07292E+00 2.51185E-02-4.97368E+00-2.18642E-13-6.99892E-14
 -1       736 2.81945E+01-4.35843E+00-2.06070E-02 2.24660E+00-9.28372E-14-2.34271E-13
 -1       737 2.83852E+01-3.35852E+00-4.33124E-02 5.47912E-01 5.91931E-14-3.83641E-13
 -1       738 1.49018E+01-2.43563E+00 6.18336E-02-5.18712E+00-1.81216E-13-8.73364E-14
 -1       739 1.99563E+01 2.45506E+00-1.57246E-03-3.84280E-01-1.07793E-13-4.17008E-13
 -1       740 2.80606E+01 1.82690E+00-9.24906E-02 3.07660E+00-7.36806E-14-5.18346E-13
 -1       741 2.84525E+01-2.65343E+00-6.41359E-02 2.73642E-01 1.00831E-13-9.20050E-13
 -1       742 2.02714E+01 1.30124E+00 8.27677E-04 6.30519E-01 2.17497E-13-3.07689E-13
 -1       743 2.70314E+01 9.94008E-01-7.10178E-02-1.61814E+00 5.21892E-14-3.93982E-13
 -1       744 2.01893E+01 1.87131E+00-1.66393E-05-9.84377E-01-2.74769E-13-3.02571E-13
 -1       745 2.02617E+01 4.32664E-01 8.61065E-06-9.38093E-02-1.63742E-13-2.24296E-13
 -1       746 2.02215E+01 2.33703E-01-1.66917E-05 3.56180E-02-1.40055E-13-1.88388E-13
 -1       747 2.01801E+01 1.03163E-01-1.15715E-05 1.12578E-01-1.47143E-13-1.89337E-13
 -1       748 2.01425E+01 2.00976E-02-7.96698E-06 1.51966E-01-5.45159E-15-2.11355E-13
 -1       749 2.01106E+01-3.00416E-02-7.36525E-06 1.65855E-01-2.82538E-14-2.02747E-13
 -1       750 2.00847E+01-5.74135E-02-7.71276E-06 1.63534E-01-2.34028E-14-1.67008E-13
 -1       751 2.00641E+01-6.91831E-02-8.15872E-06 1.51868E-01 2.03292E-15-1.89121E-13
 -1       752 2.00484E+01-7.03663E-02-7.78371E-06 1.35781E-01-4.38272E-14-1.26814E-13
 -1       753 2.00365E+01-6.43906E-02-6.79480E-06 1.18750E-01-6.98968E-14-1.69484E-13
 -1       754 2.00279E+01-5.34924E-02-5.50774E-06 1.03227E-01-4.52758E-14-1.44479E-13
 -1       755 2.00219E+01-3.89985E-02-4.10180E-06 9.09788E-02-9.89202E-14-1.31673E-13
 -1       756 2.00177E+01-2.15295E-02-2.64095E-06 8.33564E-02-1.62626E-13-1.09797E-13
 -1       757 2.00149E+01-1.15043E-03-1.08610E-06 8.15119E-02-1.28297E-13-3.81791E-14
 -1       758 2.00127E+01 2.25140E-02 6.27870E-07 8.65610E-02-4.71313E-14-1.19914E-14
 -1       759 2.00105E+01 5.01919E-02 2.58743E-06 9.97043E-02-8.49011E-14-9.40382E-14
 -1       760 2.00074E+01 8.28916E-02 4.90441E-06 1.22312E-01-6.55882E-14-9.97632E-14
 -1       761 2.00024E+01 1.21833E-01 7.72205E-06 1.55974E-01 3.64618E-14-1.00419E-13
 -1       762 1.99940E+01 1.68365E-01 1.12261E-05 2.02511E-01 4.94937E-14-2.33060E-14
 -1       763 1.99801E+01 2.23852E-01 1.56658E-05 2.63945E-01-7.44037E-15-2.02657E-15
 -1       764 1.99582E+01 2.89475E-01 2.13904E-05 3.42427E-01-8.06192E-15-5.10827E-14
 -1       765 1.99245E+01 3.65908E-01 2.89042E-05 4.40115E-01-4.49782E-14-8.28702E-14
 -1       766 1.98744E+01 4.52749E-01 3.89226E-05 5.59027E-01 4.47989E-14-9.72901E-14
 -1       767 1.98021E+01 5.47556E-01 5.23354E-05 7.00906E-01 9.22480E-14-4.65329E-14
 -1       768 1.97008E+01 6.44249E-01 6.98460E-05 8.67223E-01 5.00301E-14 1.50217E-13
 -1       769 1.95645E+01 7.30528E-01 9.11187E-05 1.05953E+00 1.32694E-13 2.20575E-13
 -1       770 1.93895E+01 7.83882E-01 1.15275E-04 1.28058E+00 7.29547E-14 2.16079E-13
 -1       771 1.91806E+01 7.65661E-01 1.62305E-04 1.53664E+00 4.15072E-14 1.68246E-13
 -1       772 1.89608E+01 6.12715E-01 2.85435E-04 1.84101E+00-1.52575E-13 1.05703E-13
 -1       773 1.87902E+01 2.28139E-01 1.09949E-03 2.21633E+00 5.51387E-15 1.65324E-13
 -1       774 1.87897E+01-5.24045E-01 3.82255E-03 2.69445E+00 1.68343E-13 2.82517E-14
 -1       775 1.92677E+01-1.85201E+00 5.66192E-03 3.27259E+00 1.67738E-13-1.42136E-13
 -1       776 2.03416E+01-3.69452E+00 4.68234E-02 3.88097E+00 2.78208E-13-1.40487E-14
 -1       777 1.06058E+01 6.93966E-02 8.88139E-02-1.80697E+00-2.15266E-14-2.49287E-13
 -1       778 2.01703E+01 2.23598E-01-4.03500E-06-3.22157E-02 1.01431E-13-1.96641E-13
 -1       779 2.02192E+01 4.14282E-01-1.08506E-04 1.11181E-01 1.30117E-13-2.39437E-13
 -1       780 2.00407E+01-5.02427E-02-1.42416E-05-1.73242E-01 6.91303E-14-1.20322E-13
 -1       781 2.00612E+01-2.43065E-02-1.29620E-05-1.75370E-01 9.81498E-14-1.57441E-13
 -1       782 2.00163E+01-6.35744E-02-1.34542E-05-1.43751E-01-3.96195E-14-1.36803E-13
 -1       783 2.00101E+01-5.88502E-02-1.20962E-05-1.25348E-01 1.27410E-14-1.34466E-13
 -1       784 2.00065E+01-4.96928E-02-1.01682E-05-1.08305E-01 6.62151E-14-3.60200E-14
 -1       785 2.00050E+01-3.73923E-02-7.87001E-06-9.44461E-02 5.61922E-14-5.18462E-14
 -1       786 2.00051E+01-2.26190E-02-5.17876E-06-8.51282E-02 2.15371E-14-4.80389E-14
 -1       787 2.00064E+01-5.58465E-03-2.15990E-06-8.14665E-02-3.36661E-14-1.10492E-13
 -1       788 2.00086E+01 1.38251E-02 1.21427E-06-8.44942E-02 9.16772E-14-5.38191E-14
 -1       789 2.00115E+01 3.59281E-02 5.02832E-06-9.52750E-02 1.04831E-13-1.01128E-14
 -1       790 2.00151E+01 6.11169E-02 9.39130E-06-1.14970E-01 2.86116E-14 1.15802E-13
 -1       791 2.00191E+01 8.97047E-02 1.44082E-05-1.44853E-01-8.83054E-15 1.72079E-13
 -1       792 2.00236E+01 1.21725E-01 2.01468E-05-1.86276E-01-1.43488E-15 1.91281E-13
 -1       793 2.00288E+01 1.56661E-01 2.65924E-05-2.40561E-01-5.12405E-14 1.84427E-13
 -1       794 2.00353E+01 1.93071E-01 3.35807E-05-3.08815E-01 3.43461E-14 1.94184E-13
 -1       795 2.00439E+01 2.28083E-01 4.07031E-05-3.91633E-01 8.21162E-14 1.20413E-13
 -1       796 2.00569E+01 2.56735E-01 4.71731E-05-4.88682E-01-7.87376E-14-2.88670E-14
 -1       797 2.00780E+01 2.71155E-01 5.16324E-05-5.98112E-01-1.10502E-13 1.12066E-14
 -1       798 2.01138E+01 2.59644E-01 5.18251E-05-7.15770E-01-1.90681E-13 8.61656E-14
 -1       799 2.01750E+01 2.05869E-01 4.39540E-05-8.34120E-01-9.32388E-14-2.71928E-16
 -1       800 2.02787E+01 8.86464E-02 2.36438E-05-9.40721E-01-4.98174E-14 2.89957E-14
 -1       801 2.04499E+01-1.16649E-01-1.97396E-05-1.01603E+00-1.16550E-13 1.20115E-13
 -1       802 2.07225E+01-4.33177E-01-5.73699E-05-1.03009E+00-1.35191E-13 1.19955E-13
 -1       803 2.11364E+01-8.70646E-01-2.60517E-04-9.37747E-01-2.10825E-13-1.09538E-13
 -1       804 2.17245E+01-1.40014E+00-7.62642E-04-6.76028E-01-9.62243E-14-2.50717E-13
 -1       805 2.24900E+01-1.91828E+00-9.04788E-04-1.67401E-01-4.82793E-14-2.79968E-13
 -1       806 2.33486E+01-2.18495E+00 1.50851E-03 6.40329E-01 3.07653E-14-4.15542E-15
 -1       807 2.40803E+01-1.84607E+00-3.12135E-03 1.68270E+00 9.14405E-15 3.18814E-13
 -1       808 2.43965E+01-5.55195E-01-6.37123E-03 2.64320E+00-6.91788E-14 3.41661E-13
 -1       809 2.40833E+01 1.53802E+00-4.11778E-02 2.83720E+00-3.40335E-14 1.98701E-13
 -1       810 2.36287E+01 3.31204E+00-4.83478E-02 1.80395E+00-5.04752E-14 1.11307E-13
 -1       811 2.35496E+01 3.59122E+00-3.82366E-02 3.93923E-02 6.80705E-15 4.39109E-13
 -1       812 2.39837E+01 2.08010E+00-2.49722E-02-1.21517E+00 6.94930E-15 2.90497E-13
 -1       813 2.42049E+01 1.07977E-01-1.40191E-02-1.31896E+00 2.89753E-13 6.15582E-14
 -1       814 2.01382E+01 1.88859E+00-3.34122E-04 1.99095E-01 5.16910E-14-3.94710E-13
 -1       815 2.49352E+01-4.24274E+00 2.82900E-02 4.34325E+00-1.82971E-13-5.43095E-13
 -1       816 1.58574E+01-2.10144E+00 1.82515E-01 6.76492E+00-9.09446E-14 5.53356E-13
 -1       817 1.98470E+01-3.51780E+00 2.64086E-02-6.52997E+00 2.55644E-13-4.34937E-13
 -1       818 2.53038E+01-5.15491E+00 5.06703E-03-2.12100E+00 8.08572E-14-4.88755E-13
 -1       819 2.00262E+01-6.17729E-02-1.44559E-05-1.60941E-01 3.81851E-14-1.44869E-13
 -1       820 2.48835E+01-4.85121E+00 2.53976E-02-4.41684E+00-4.60881E-14-1.71714E-13
 -1       821 1.03583E+01-5.55017E-02 9.37432E-02 1.57339E+00 2.60431E-13-6.32643E-13
 -1       822 2.57954E+01 4.73256E+00-1.07594E-01 1.96547E+00-8.49563E-14 2.25767E-13
 -1       823 2.02817E+01 1.16293E+00-4.82876E-04-5.67437E-01-2.20465E-13-2.70413E-13
 -1       824 2.02762E+01 9.43669E-01 2.77965E-05 5.52690E-01 2.31555E-13-2.49284E-13
 -1       825 1.40458E+01-1.70123E+00 7.46214E-02 4.18256E+00 3.07707E-13-1.77143E-13
 -1       826 2.06732E+01-4.13320E+00 4.33530E-02-4.34564E+00-9.36855E-14-3.22119E-13
 -1       827 2.02890E+01 7.28914E-01-7.62902E-05-2.91083E-01-1.79991E-13-2.45787E-13
 -1       828 2.01263E+01 1.92700E+00-3.16785E-04 3.34698E-03-2.79989E-15-4.11072E-13
 -1       829 2.59269E+01 2.53665E+00-7.35678E-02-1.51158E+00 3.97076E-13-4.75280E-13
 -1       830 2.75710E+01-8.49009E-01-6.32464E-02 2.51938E+00-1.52482E-14-3.93963E-13
 -1       831 2.55260E+01-3.09634E+00-3.23546E-03 1.87459E+00-6.54015E-14-5.46476E-13
 -1       832 2.01254E+01 1.00633E-01-9.95942E-06-1.16696E-01 1.02839E-13-1.98718E-13
 -1       833 2.02187E+01 1.58214E+00-2.41248E-04 5.34064E-01 1.66136E-13-3.64635E-13
 -1       834 2.02536E+01 6.30023E-01-4.81443E-04 2.96488E-01 1.80666E-13-2.47117E-13
 -1       835 2.00890E+01 2.27505E-02-1.11567E-05-1.59915E-01 4.69209E-14-1.76135E-13
 -1       836 2.44014E+01-1.07853E+00-7.08405E-03-6.67012E-01-6.61136E-14 3.53099E-13
 -1       837 2.01706E+01 1.77543E+00-3.53152E-04 3.81206E-01 1.10016E-13-3.95501E-13
 -1       838 2.43153E+01-1.68743E+00-9.94837E-04 1.01182E-01 1.63323E-13 1.36091E-13
 -1       839 1.32333E+01-5.71727E-01 4.13810E-02-3.45158E+00-1.34300E-13-4.89036E-14
 -1       840 2.27779E+01-4.37737E+00 1.06988E-02-2.88415E+00-7.03335E-14-6.56254E-13
 -1       841 2.01669E+01 1.78231E+00-4.86354E-04-3.74960E-01-1.22103E-13-3.69305E-13
 -1       842 2.02141E+01 1.59283E+00-7.74467E-04-5.28383E-01-1.71653E-13-3.02751E-13
 -1       843 2.51287E+01 4.89405E+00-9.49906E-02 8.27887E-01-2.49044E-13 1.56504E-13
 -1       844 1.34292E+01-1.32777E-01 3.44994E-02 2.54475E+00 3.19265E-13-3.31761E-13
 -1       845 2.01570E+01-3.92833E-02-4.36594E-06-1.52320E-01 1.14765E-14-9.46754E-14
 -1       846 2.03302E+01 4.29852E-01-2.10486E-05-4.63605E-02-1.25458E-13-2.04661E-13
 -1       847 2.59488E+01-1.35853E+00-2.09026E-02-6.31236E-01-2.01459E-13-5.55068E-15
 -1       848 2.03041E+01 2.26552E-01-4.73865E-05 4.71366E-02-1.18584E-13-2.12011E-13
 -1       849 2.02678E+01 9.12977E-02-1.04471E-05 1.02698E-01-1.15500E-13-1.55908E-13
 -1       850 2.02286E+01 5.00771E-03 2.67594E-06 1.30307E-01-6.34579E-14-2.40230E-13
 -1       851 2.01906E+01-4.64185E-02 1.87610E-06 1.38823E-01-9.37755E-15-2.99461E-13
 -1       852 2.01561E+01-7.33120E-02-9.85962E-07 1.35283E-01-1.74962E-15-2.97265E-13
 -1       853 2.01259E+01-8.32216E-02-2.38195E-06 1.24979E-01 5.80562E-15-3.00628E-13
 -1       854 2.01003E+01-8.14923E-02-2.32059E-06 1.11762E-01-1.02001E-13-3.12899E-13
 -1       855 2.00789E+01-7.17635E-02-1.78310E-06 9.84041E-02-4.29099E-14-2.67126E-13
 -1       856 2.00612E+01-5.63671E-02-1.26582E-06 8.68953E-02-2.15158E-14-1.91830E-13
 -1       857 2.00464E+01-3.66115E-02-9.72737E-07 7.87068E-02-8.14843E-14-1.04860E-13
 -1       858 2.00335E+01-1.30021E-02-8.24242E-07 7.50081E-02-7.52209E-14-5.55528E-14
 -1       859 2.00214E+01 1.45830E-02-7.73392E-07 7.68331E-02-1.36089E-13 1.06409E-14
 -1       860 2.00087E+01 4.67566E-02-8.03842E-07 8.52010E-02-9.23652E-14-4.51807E-15
 -1       861 1.99940E+01 8.45107E-02-9.10137E-07 1.01197E-01-8.95721E-14 2.60526E-14
 -1       862 1.99752E+01 1.29116E-01-1.08626E-06 1.26017E-01 2.48613E-14 4.67419E-15
 -1       863 1.99500E+01 1.82014E-01-1.31676E-06 1.60968E-01 5.19732E-14 4.62244E-14
 -1       864 1.99154E+01 2.44687E-01-1.56397E-06 2.07432E-01 5.54432E-14 1.39413E-13
 -1       865 1.98676E+01 3.18472E-01-1.74695E-06 2.66789E-01-4.84432E-14 5.68713E-14
 -1       866 1.98017E+01 4.04276E-01-1.71095E-06 3.40294E-01-8.81767E-14 3.09727E-14
 -1       867 1.97116E+01 5.02142E-01-1.20159E-06 4.28959E-01-1.70064E-14-7.30932E-14
 -1       868 1.95895E+01 6.10566E-01 7.50283E-08 5.33478E-01 1.42057E-13-7.13492E-14
 -1       869 1.94262E+01 7.25452E-01 2.00629E-06 6.54357E-01 9.49145E-14-1.13514E-13
 -1       870 1.92104E+01 8.38521E-01 2.55478E-06 7.92502E-01 2.13570E-13-7.61097E-14
 -1       871 1.89300E+01 9.35001E-01-4.77063E-06 9.50752E-01 8.04384E-14-6.08489E-14
 -1       872 1.85721E+01 9.90286E-01-2.49234E-05 1.13712E+00 8.32081E-14-2.25613E-13
 -1       873 1.81259E+01 9.65013E-01 3.04716E-05 1.37089E+00-1.45473E-13-3.62495E-13
 -1       874 1.75866E+01 7.97126E-01 4.98477E-05 1.69291E+00 6.59311E-14-2.27377E-13
 -1       875 1.69716E+01 3.87180E-01 1.75089E-03 2.18128E+00 6.69677E-14-2.28879E-13
 -1       876 1.23519E+01 6.57923E-01 4.30112E-02 1.15150E-01 8.74810E-14-2.89472E-13
 -1       877 2.00611E+01-6.85031E-02-3.42231E-07-1.08107E-01-1.61998E-14-3.69204E-14
 -1       878 2.00785E+01-7.65858E-02-1.63357E-07-1.23219E-01 3.04776E-14 3.22951E-14
 -1       879 2.00360E+01-3.78028E-02-4.78455E-07-8.47397E-02 1.83886E-14 3.33201E-14
 -1       880 2.00267E+01-1.71823E-02-2.38464E-07-7.93283E-02 2.76301E-14 5.64556E-14
 -1       881 2.00186E+01 6.62861E-03 9.54320E-08-7.95945E-02 8.28081E-14-5.33864E-14
 -1       882 2.00107E+01 3.38842E-02 5.31895E-07-8.65853E-02-2.76642E-14-1.61220E-14
 -1       883 2.00021E+01 6.50413E-02 1.10820E-06-1.01411E-01 5.16731E-14 1.00206E-13
 -1       884 1.99919E+01 1.00582E-01 1.87732E-06-1.25301E-01 1.72339E-14 1.39542E-13
 -1       885 1.99790E+01 1.40799E-01 2.90741E-06-1.59620E-01 3.32527E-14 6.21641E-14
 -1       886 1.99624E+01 1.85512E-01 4.28492E-06-2.05846E-01-3.53664E-14 1.02939E-13
 -1       887 1.99416E+01 2.33696E-01 6.11918E-06-2.65495E-01 2.30739E-14 4.01734E-14
 -1       888 1.99161E+01 2.82971E-01 8.55027E-06-3.40001E-01 5.93681E-14-5.54535E-14
 -1       889 1.98866E+01 3.28943E-01 1.17647E-05-4.30538E-01-2.87810E-14 4.75573E-14
 -1       890 1.98553E+01 3.64360E-01 1.60220E-05-5.37775E-01-1.28705E-13 8.97100E-14
 -1       891 1.98272E+01 3.78095E-01 2.16583E-05-6.61558E-01-1.67329E-13 1.25764E-13
 -1       892 1.98115E+01 3.54032E-01 2.88484E-05-8.00452E-01-5.40543E-14-9.13078E-14
 -1       893 1.98243E+01 2.70051E-01 3.68671E-05-9.50973E-01-5.05626E-14 1.17951E-14
 -1       894 1.98911E+01 9.76830E-02 5.04038E-05-1.10605E+00-2.19361E-13 1.11124E-13
 -1       895 2.00510E+01-1.96341E-01 4.85649E-05-1.25219E+00-5.95529E-14-1.27649E-14
 -1       896 2.03608E+01-6.45461E-01 2.93637E-04-1.36367E+00-7.48638E-14-7.54907E-14
 -1       897 2.08948E+01-1.26705E+00 3.30167E-04-1.38723E+00-1.19232E-13-1.94050E-14
 -1       898 2.17244E+01-2.02253E+00-6.23544E-04-1.22593E+00 5.78619E-14-1.26347E-13
 -1       899 2.29158E+01-2.77448E+00-8.57103E-03-7.11282E-01-1.18783E-13-7.88018E-14
 -1       900 2.43734E+01-3.12990E+00-5.30683E-03 2.67022E-01-1.47304E-13-1.20905E-13
 -1       901 2.55256E+01-2.34191E+00-1.49922E-02 1.59714E+00-1.65529E-13-2.48894E-13
 -1       902 2.61243E+01-3.46756E+00-3.01887E-02 5.52016E-01-7.67059E-14-1.33630E-13
 -1       903 2.61704E+01 2.53611E+00-7.65611E-02 2.94753E+00-6.43444E-14 2.52064E-14
 -1       904 2.00471E+01-5.51228E-02-5.69805E-07-9.47494E-02 1.49330E-14-4.92970E-14
 -1       905 2.02938E+01 1.14876E+00 6.98173E-04-3.85863E-01-1.56109E-13-2.61289E-13
 -1       906 2.01372E+01 1.89131E+00-3.37520E-04-1.92745E-01-6.74171E-14-3.80932E-13
 -1       907 2.65210E+01-2.49576E+00-2.60770E-02 3.79274E-01 1.44069E-15-8.40387E-13
 -1       908 1.78670E+01-2.16770E+00 2.79074E-02-4.04573E+00 1.12176E-13-3.98095E-13
 -1       909 2.03346E+01 7.21318E-01-5.23765E-04-1.89994E-01-1.34108E-13-2.14324E-13
 -1       910 2.03004E+01 4.29247E-01-3.86544E-05 6.36748E-02 9.23587E-14-2.51886E-13
 -1       911 1.65872E+01-4.56657E-01 1.63105E-02 2.96471E+00 8.90429E-14-2.48688E-13
 -1       912 2.01261E+01-6.63669E-02-2.16042E-06-1.49025E-01 4.67560E-14-1.51817E-14
 -1       913 2.01922E+01 1.15201E-02-5.84458E-06-1.41763E-01 2.29646E-14-1.98203E-13
 -1       914 2.02685E+01 2.28820E-01-6.00745E-05-4.48405E-02 1.05515E-13-2.82535E-13
 -1       915 2.03020E+01 1.00160E+00-5.18056E-04 3.63978E-01 1.67638E-13-2.88299E-13
 -1       916 2.03063E+01 6.67165E-01 5.76105E-04 2.07263E-01 1.56252E-13-2.67509E-13
 -1       917 2.02746E+01 1.40561E+00-4.14913E-05 6.95829E-02 4.40963E-15-3.42393E-13
 -1       918 2.01000E+01-7.70346E-02 1.88752E-06-1.37873E-01 2.58230E-14 7.98169E-16
 -1       919 2.02844E+01 1.33706E+00-1.64436E-04 1.97042E-01 5.20885E-14-3.46287E-13
 -1       920 1.33271E+01 5.19514E-01 2.00471E-02-1.55238E+00 1.17538E-14 2.04853E-14
 -1       921 2.02865E+01 1.33876E+00 5.38472E-04-1.94840E-01-8.53617E-14-3.44541E-13
 -1       922 1.97297E+01-2.86771E+00 1.09197E-02-3.59742E+00 1.97303E-13-5.64331E-13
 -1       923 2.02917E+01 1.26721E+00 9.68455E-04-2.98490E-01-1.08321E-13-3.26732E-13
 -1       924 2.03599E+01 1.96663E-01-6.65195E-06 5.00369E-02-1.11543E-13-2.38237E-13
 -1       925 2.03241E+01 6.57566E-02 1.52169E-05 8.50995E-02-8.46847E-14-2.21232E-13
 -1       926 2.02823E+01-1.66756E-02 1.14361E-05 1.01270E-01-7.04652E-14-1.78441E-13
 -1       927 2.02398E+01-6.43549E-02 3.62704E-06 1.04846E-01-2.48186E-14-1.65313E-13
 -1       928 2.01994E+01-8.74220E-02 4.79738E-08 1.00666E-01-1.10758E-14-1.88829E-13
 -1       929 2.01629E+01-9.34033E-02-6.23868E-07 9.23422E-02-6.55891E-14-1.75462E-13
 -1       930 2.01307E+01-8.75357E-02 3.79431E-07 8.25625E-02-2.83345E-14-1.44749E-13
 -1       931 2.01029E+01-7.33915E-02 8.52272E-07 7.32840E-02 4.10402E-14-1.22298E-13
 -1       932 2.00786E+01-5.31761E-02 6.21025E-07 6.59185E-02-3.70756E-14-1.54061E-13
 -1       933 2.00570E+01-2.80149E-02-5.62740E-08 6.15387E-02-5.21884E-14-1.40824E-13
 -1       934 2.00366E+01 1.80261E-03-1.06436E-06 6.10271E-02-4.57549E-14-1.93133E-13
 -1       935 2.00159E+01 3.66325E-02-2.40979E-06 6.51804E-02-3.57522E-14-4.64501E-14
 -1       936 1.99927E+01 7.73213E-02-4.16182E-06 7.47779E-02-1.41776E-14 6.24855E-14
 -1       937 1.99649E+01 1.25069E-01-6.42250E-06 9.06148E-02 2.41123E-14 1.96854E-13
 -1       938 1.99294E+01 1.81293E-01-9.31666E-06 1.13497E-01 6.30751E-14 2.18631E-13
 -1       939 1.98828E+01 2.47475E-01-1.29891E-05 1.44195E-01 7.04901E-15 8.69062E-14
 -1       940 1.98208E+01 3.24969E-01-1.76068E-05 1.83350E-01-5.07455E-14 3.62430E-14
 -1       941 1.97381E+01 4.14743E-01-2.33743E-05 2.31344E-01-1.08057E-13 6.60921E-15
 -1       942 1.96281E+01 5.17021E-01-3.05869E-05 2.88141E-01 1.11934E-14 3.95658E-14
 -1       943 1.94827E+01 6.30791E-01-3.97864E-05 3.53153E-01-6.54847E-14 1.25388E-13
 -1       944 1.92918E+01 7.53135E-01-5.22153E-05 4.25217E-01 7.67111E-14-9.57788E-14
 -1       945 1.90426E+01 8.78344E-01-7.11162E-05 5.02898E-01 1.08644E-13-2.63986E-13
 -1       946 1.87192E+01 9.96790E-01-1.04467E-04 5.85411E-01 1.43620E-13-3.26889E-13
 -1       947 1.83004E+01 1.09361E+00-1.64539E-04 6.74708E-01 2.90862E-14-4.21969E-13
 -1       948 1.77574E+01 1.14719E+00-1.85740E-04 7.79710E-01-5.93109E-14-3.57440E-13
 -1       949 1.70472E+01 1.12682E+00 1.42902E-04 9.24556E-01-7.07258E-14-4.53728E-13
 -1       950 1.61147E+01 9.95749E-01 3.72758E-03 1.16024E+00 1.10413E-13-3.50259E-13
 -1       951 2.01182E+01-8.49709E-02 6.53051E-06-9.60136E-02 2.15266E-14-3.33104E-15
 -1       952 1.45547E+01 7.23853E-01 1.39283E-02 1.39036E+00 1.49639E-13-3.63505E-13
 -1       953 2.02305E+01 9.62783E-02-8.76477E-06-1.09365E-01 3.45620E-14-2.33538E-13
 -1       954 2.00353E+01-5.27595E-03 2.13096E-06-6.77734E-02 4.40871E-14-2.19284E-14
 -1       955 2.00525E+01-3.20141E-02 3.42143E-06-6.95521E-02 2.00605E-14-3.15417E-14
 -1       956 2.00002E+01 6.10871E-02-3.82694E-07-8.07965E-02 6.13962E-14-2.38096E-14
 -1       957 1.99793E+01 1.01749E-01-1.64570E-06-9.76504E-02 7.36439E-14-9.34198E-14
 -1       958 1.99537E+01 1.48153E-01-2.93989E-06-1.22994E-01-4.28220E-14-3.58653E-15
 -1       959 1.99217E+01 2.00533E-01-4.27840E-06-1.58255E-01-1.44734E-14 1.60480E-13
 -1       960 1.98812E+01 2.58450E-01-5.66210E-06-2.05071E-01-4.97045E-14-5.78206E-14
 -1       961 1.98308E+01 3.20335E-01-7.07352E-06-2.65294E-01 9.79562E-14-6.23571E-16
 -1       962 1.97691E+01 3.82883E-01-8.46542E-06-3.41001E-01-4.49126E-14 1.18846E-14
 -1       963 1.96963E+01 4.40283E-01-9.74316E-06-4.34506E-01-9.02308E-14-4.87617E-15
 -1       964 1.96143E+01 4.83271E-01-1.07778E-05-5.48417E-01-1.52328E-13-7.04901E-14
 -1       965 1.95282E+01 4.98006E-01-1.16402E-05-6.85722E-01-1.08646E-13-6.82165E-14
 -1       966 1.94483E+01 4.64802E-01-1.42537E-05-8.49884E-01-8.37893E-14-3.60151E-14
 -1       967 1.93933E+01 3.56742E-01-2.75079E-05-1.04475E+00-1.49640E-13 4.84730E-14
 -1       968 1.93944E+01 1.38554E-01-6.98382E-06-1.27305E+00-7.00390E-14-7.92748E-14
 -1       969 1.95002E+01-2.30789E-01 9.52951E-05-1.53319E+00-5.23303E-14-1.05981E-13
 -1       970 1.97876E+01-8.03765E-01 3.61309E-04-1.81784E+00-2.00756E-13-1.08096E-13
 -1       971 2.03801E+01-1.63070E+00-2.61652E-03-2.08477E+00 1.32660E-14-1.66697E-13
 -1       972 2.14820E+01-2.66999E+00 1.20896E-02-2.20163E+00-7.40666E-14-2.25603E-13
 -1       973 2.03808E+01 3.93203E-01-1.31233E-05-1.02973E-02-8.84036E-14-2.58615E-13
 -1       974 2.00183E+01 2.56134E-02 8.69166E-07-7.11967E-02-2.77660E-15 5.48997E-14
 -1       975 2.02739E+01 1.40745E+00 3.67053E-06-6.52593E-02-8.23198E-14-3.49066E-13
 -1       976 2.03786E+01 6.68297E-01-2.33492E-04-1.03805E-01-1.21216E-13-2.80853E-13
 -1       977 2.02989E+01 1.20127E+00-2.69586E-05 3.00862E-01 1.19572E-13-3.49004E-13
 -1       978 1.58697E+01-4.68236E-01 1.80517E-02-3.02853E+00 6.95040E-14-4.81677E-13
 -1       979 2.02600E+01-7.54898E-03-6.93670E-06-1.15813E-01-1.58860E-14-1.33958E-13
 -1       980 2.03544E+01 6.96889E-01 2.70019E-04 1.39143E-01 9.84123E-14-2.57630E-13
 -1       981 2.01478E+01-8.91352E-02 9.42528E-06-1.07518E-01-1.39105E-14-6.49754E-14
 -1       982 2.00930E+01-7.27419E-02 6.27211E-06-8.48277E-02 3.58806E-14 1.10806E-13
 -1       983 1.44211E+01 9.61286E-01 9.49600E-03 7.83590E-02 9.36009E-14-1.60030E-13
 -1       984 2.03546E+01 4.10619E-01 1.26275E-04 2.42707E-02 7.31008E-14-2.09028E-13
 -1       985 2.03678E+01 9.68108E-01 1.23903E-04 7.86318E-02-4.65757E-15-2.95078E-13
 -1       986 2.00714E+01-5.46678E-02 4.77412E-06-7.55821E-02 4.09490E-14 6.50552E-14
 -1       987 2.03665E+01 9.69986E-01-3.53927E-04-7.73119E-02-9.27897E-14-3.44921E-13
 -1       988 1.82922E+01-1.26048E+00 6.18008E-03-2.99987E+00 1.06041E-13-4.73599E-13
 -1       989 2.02196E+01-5.68232E-02-4.20517E-06-1.21219E-01-1.41705E-14-1.73591E-13
 -1       990 2.03693E+01 9.96765E-01 1.78015E-04-3.88252E-04-6.55800E-14-2.89149E-13
 -1       991 2.03529E+01 3.20604E-02 5.02134E-05 5.86565E-02-3.22450E-14-2.08861E-13
 -1       992 2.03081E+01-4.11296E-02 1.35317E-05 6.58275E-02-4.15043E-14-1.45043E-13
 -1       993 2.02623E+01-8.11803E-02 2.30129E-07 6.61448E-02-5.38232E-14-1.83743E-13
 -1       994 2.02185E+01-9.80060E-02-6.68337E-06 6.25472E-02 2.79803E-14-2.23575E-13
 -1       995 2.01784E+01-9.86376E-02 2.75102E-06 5.68992E-02-1.36374E-15-1.21175E-13
 -1       996 2.01425E+01-8.79297E-02 3.07531E-06 5.09222E-02-7.32556E-14-1.64636E-13
 -1       997 2.01107E+01-6.91926E-02 2.81178E-06 4.56793E-02 5.91416E-16-2.67651E-13
 -1       998 2.00823E+01-4.42891E-02 6.97562E-07 4.19828E-02-8.11122E-14-2.03160E-13
 -1       999 2.00557E+01-1.40430E-02-2.70081E-06 4.04733E-02-7.54369E-14-2.35595E-13
 -1      1000 2.00294E+01 2.15269E-02-7.21819E-06 4.16793E-02 3.50056E-14-1.30117E-13
 -1      1001 2.00011E+01 6.30115E-02-1.28713E-05 4.60650E-02 5.28840E-14-1.39520E-13
 -1      1002 1.99684E+01 1.11438E-01-1.97708E-05 5.40484E-02 4.58994E-14-1.49105E-13
 -1      1003 1.99282E+01 1.68103E-01-2.80807E-05 6.59865E-02 9.46340E-14-1.20476E-13
 -1      1004 1.98769E+01 2.34396E-01-3.79986E-05 8.21221E-02-4.95971E-16-3.24678E-14
 -1      1005 1.98103E+01 3.11590E-01-4.97522E-05 1.02487E-01-3.69264E-14-2.10082E-14
 -1      1006 1.97230E+01 4.00580E-01-6.36288E-05 1.26760E-01-4.45850E-14-4.23547E-14
 -1      1007 1.96091E+01 5.01553E-01-8.00759E-05 1.54071E-01-8.28111E-14 2.34915E-14
 -1      1008 1.94608E+01 6.13572E-01-9.99472E-05 1.82785E-01-9.88940E-14-7.75583E-14
 -1      1009 1.92690E+01 7.34073E-01-1.25010E-04 2.10291E-01-8.08482E-14-8.69897E-14
 -1      1010 1.90223E+01 8.58295E-01-1.58852E-04 2.32877E-01-3.84330E-14-1.53741E-13
 -1      1011 1.87057E+01 9.78721E-01-2.08718E-04 2.45854E-01 9.97447E-14-3.08034E-13
 -1      1012 1.82989E+01 1.08458E+00-2.83845E-04 2.44136E-01-2.33955E-14-3.46251E-13
 -1      1013 1.77724E+01 1.16174E+00-3.46299E-04 2.23160E-01-3.97689E-14-2.54089E-13
 -1      1014 1.70817E+01 1.19090E+00-1.28264E-04 1.82701E-01-2.03662E-14-2.80922E-13
 -1      1015 1.61376E+01 1.17366E+00 2.23072E-03 1.35742E-01 2.57703E-14-2.76968E-13
 -1      1016 1.53515E+01 6.17728E-01 2.87025E-03-1.58988E+00 1.80963E-13-5.71852E-14
 -1      1017 2.03002E+01 7.69302E-02 5.00960E-05-9.50740E-02 5.62117E-15-1.71639E-13
 -1      1018 1.99463E+01 1.43710E-01-1.58130E-05-8.19313E-02-2.04711E-14 1.57834E-14
 -1      1019 1.99797E+01 9.36676E-02-1.02370E-05-6.59109E-02 3.60253E-14-7.83092E-14
 -1      1020 1.98528E+01 2.65338E-01-2.77955E-05-1.37021E-01 7.23070E-14-9.43908E-14
 -1      1021 1.97871E+01 3.36448E-01-3.37944E-05-1.79400E-01-2.34128E-14-5.15419E-14
 -1      1022 1.97050E+01 4.12196E-01-3.93191E-05-2.34597E-01-5.78410E-14 4.13483E-14
 -1      1023 1.96043E+01 4.88580E-01-4.38347E-05-3.05582E-01-6.10768E-14 4.48419E-14
 -1      1024 1.94836E+01 5.58814E-01-4.67787E-05-3.96233E-01-7.02302E-14-2.71995E-14
 -1      1025 1.93433E+01 6.12371E-01-4.82364E-05-5.11740E-01-1.93410E-13 9.58455E-14
 -1      1026 1.91867E+01 6.33884E-01-5.15012E-05-6.59181E-01-2.21500E-13 5.92726E-14
 -1      1027 1.90213E+01 6.01905E-01-6.98557E-05-8.48325E-01-7.87673E-14 1.33986E-13
 -1      1028 1.88618E+01 4.87208E-01-2.36869E-04-1.09308E+00-6.64377E-14-4.27412E-14
 -1      1029 1.87380E+01 2.46752E-01-8.03586E-04-1.41138E+00-8.44603E-14-1.04044E-13
 -1      1030 1.86938E+01-1.63897E-01-1.58597E-03-1.82364E+00-7.87663E-14-2.76219E-13
 -1      1031 1.69664E+01-2.67661E-02-1.54452E-03-2.24668E+00-6.20538E-14-4.58959E-13
 -1      1032 2.03696E+01 8.47130E-01 4.67358E-05 1.23585E-01 2.46027E-14-2.74596E-13
 -1      1033 2.01817E+01-8.15132E-02-1.03027E-06-1.16884E-01 2.36173E-15-1.04390E-13
 -1      1034 2.00325E+01 1.23121E-02-3.35128E-07-5.09005E-02-2.21002E-15 1.10435E-13
 -1      1035 2.00076E+01 5.01210E-02-5.06453E-06-5.58932E-02 5.96547E-14-6.23193E-14
 -1      1036 2.04197E+01 6.05764E-01-1.66402E-04-3.00649E-02-9.72227E-14-3.23491E-13
 -1      1037 2.00810E+01-4.83113E-02 7.58493E-06-5.27412E-02 7.25326E-14-3.35226E-14
 -1      1038 2.04263E+01 3.42653E-01 1.35022E-04 6.56055E-03-7.16646E-14-3.21827E-13
 -1      1039 2.03352E+01 2.09517E-01 1.26868E-04-5.22434E-02 2.61164E-14-1.62454E-13
 -1      1040 2.00563E+01-2.03982E-02 3.91018E-06-5.01018E-02 4.05736E-15 3.25688E-14
 -1      1041 1.99049E+01 2.00872E-01-2.17158E-05-1.05144E-01 1.13190E-14-2.24352E-14
 -1      1042 2.03990E+01 1.54728E-01 1.13955E-04 3.46247E-02-5.75832E-14-2.92364E-13
 -1      1043 1.86154E+01-5.75234E-01 1.60272E-04-2.23900E+00-7.71206E-14-2.93414E-13
 -1      1044 2.02981E+01-3.10607E-02-3.55791E-06-8.28515E-02 1.86626E-14-1.25051E-13
 -1      1045 2.01726E+01-9.66079E-02 1.54571E-05-7.30666E-02 1.96964E-14-6.60048E-14
 -1      1046 2.04076E+01 6.15868E-01 3.07449E-04 4.11225E-02-1.83882E-14-2.48304E-13
 -1      1047 2.01381E+01-8.79855E-02 1.25516E-05-6.51940E-02-8.59260E-15-8.96890E-14
 -1      1048 2.03915E+01 5.14642E-01-1.53520E-04 3.96951E-02 2.01042E-14-2.12017E-13
 -1      1049 2.03411E+01 4.63342E-02 1.90155E-05-7.23310E-02-1.83982E-14-9.47211E-14
 -1      1050 2.01078E+01-7.11810E-02 1.05339E-05-5.80584E-02 4.15124E-16-1.36181E-13
 -1      1051 2.04202E+01 6.48244E-01-4.07473E-04 1.24364E-02-3.67328E-14-2.35338E-13
 -1      1052 2.02538E+01-7.39513E-02-1.03043E-04-8.45186E-02-3.20407E-14-9.81681E-14
 -1      1053 2.02121E+01-9.43156E-02-4.20783E-05-8.03872E-02-4.73539E-14-5.48402E-14
 -1      1054 1.75105E+01 2.75704E-01 1.44676E-02-1.77288E+00-6.88133E-14-3.71856E-13
 -1      1055 2.03087E+01-6.45675E-02-7.10498E-05 2.56910E-02-7.85435E-14-2.10806E-13
 -1      1056 2.02623E+01-9.45418E-02-7.56249E-06 2.49651E-02-4.29717E-14-1.42215E-13
 -1      1057 2.02176E+01-1.03453E-01 8.96208E-06 2.31111E-02 4.29643E-15-2.37516E-13
 -1      1058 2.01764E+01-9.80854E-02 3.41321E-05 2.11430E-02-1.19357E-14-2.96364E-13
 -1      1059 2.01394E+01-8.26485E-02 2.65697E-05 1.90610E-02-5.34381E-14-1.63016E-13
 -1      1060 2.01061E+01-5.96974E-02 2.11706E-05 1.74075E-02-2.71678E-14-2.66553E-13
 -1      1061 2.00754E+01-3.06852E-02 1.75656E-05 1.64745E-02-3.96562E-14-2.37460E-13
 -1      1062 2.00458E+01 3.90802E-03 1.57526E-05 1.64648E-02-1.97990E-14-1.73667E-13
 -1      1063 2.00151E+01 4.43345E-02 1.56408E-05 1.75161E-02 7.38217E-14-2.84939E-13
 -1      1064 1.99809E+01 9.13711E-02 1.70975E-05 1.96968E-02 7.78380E-14-2.03932E-13
 -1      1065 1.99402E+01 1.46125E-01 1.99508E-05 2.29785E-02 5.97018E-14-1.37019E-13
 -1      1066 1.98896E+01 2.09834E-01 2.39429E-05 2.71780E-02 3.16586E-14-2.27947E-13
 -1      1067 1.98251E+01 2.83635E-01 2.86439E-05 3.18635E-02-6.41202E-15-3.51375E-13
 -1      1068 1.97419E+01 3.68295E-01 3.33177E-05 3.62145E-02-2.83850E-14-3.22699E-13
 -1      1069 1.96346E+01 4.63867E-01 3.67197E-05 3.88266E-02-2.49544E-14-2.82257E-13
 -1      1070 1.94968E+01 5.69276E-01 3.67845E-05 3.74530E-02-5.59739E-14-1.47645E-13
 -1      1071 1.93212E+01 6.81841E-01 3.01331E-05 2.86795E-02-1.05195E-13-1.58788E-13
 -1      1072 1.90987E+01 7.96747E-01 1.13353E-05 7.52880E-03-1.10131E-13-2.19817E-13
 -1      1073 1.88184E+01 9.06545E-01-2.77273E-05-3.30188E-02-7.82545E-14-2.43692E-13
 -1      1074 1.84658E+01 1.00080E+00-9.80299E-05-1.02660E-01-4.62385E-15-2.46471E-13
 -1      1075 1.80198E+01 1.06580E+00-3.47690E-04-2.14561E-01 5.16373E-14-2.55892E-13
 -1      1076 1.74532E+01 1.08166E+00-8.88094E-04-3.87685E-01-3.65565E-14-1.86760E-13
 -1      1077 1.66684E+01 1.05103E+00-6.95426E-03-6.39468E-01 1.22913E-14-1.49647E-14
 -1      1078 2.01090E+01-6.41134E-02-9.75703E-06-3.00879E-02-6.21757E-14-1.64484E-13
 -1      1079 1.99073E+01 1.88319E-01-8.83303E-06-5.26283E-02-2.73848E-14-1.72029E-13
 -1      1080 1.96870E+01 4.15731E-01-3.20570E-05-1.25177E-01-3.49275E-14-8.20354E-14
 -1      1081 1.97784E+01 3.31752E-01-2.18714E-05-9.29715E-02 1.73051E-14-1.22067E-14
 -1      1082 1.94300E+01 5.96470E-01-5.74140E-05-2.28078E-01-7.49364E-14-8.57774E-14
 -1      1083 1.92565E+01 6.81815E-01-6.93763E-05-3.08230E-01-1.53951E-13 1.55560E-14
 -1      1084 1.90485E+01 7.50698E-01-7.84894E-05-4.17175E-01-1.33382E-13 2.03902E-14
 -1      1085 1.88038E+01 7.87829E-01-8.93379E-05-5.66048E-01-1.10009E-13-2.10093E-13
 -1      1086 1.85221E+01 7.72260E-01-1.14408E-04-7.70729E-01 4.49503E-14-1.67688E-13
 -1      1087 1.82048E+01 6.78744E-01 5.99169E-04-1.05405E+00 6.16662E-14-2.51754E-13
 -1      1088 1.78582E+01 5.16677E-01-9.80494E-04-1.37883E+00 1.46131E-13-3.70464E-13
 -1      1089 2.03857E+01 2.76736E-01-3.15020E-05-2.61507E-02 1.25835E-14-1.34914E-13
 -1      1090 1.98505E+01 2.55693E-01-1.41440E-05-6.94675E-02-2.46360E-15-1.02680E-13
 -1      1091 2.03554E+01-4.81886E-03 1.38514E-05 2.36511E-02 8.39934E-15-2.07670E-13
 -1      1092 2.04362E+01 3.72219E-01 2.57673E-04 9.74308E-04-6.22666E-14-1.96456E-13
 -1      1093 1.95723E+01 5.05405E-01-4.42922E-05-1.68902E-01-8.09620E-14-1.11932E-13
 -1      1094 1.99896E+01 7.83701E-02-4.32479E-06-3.34030E-02 1.09598E-13 5.18496E-15
 -1      1095 2.00213E+01 3.41636E-02-4.41973E-06-2.91094E-02 2.61273E-14-1.37594E-14
 -1      1096 2.03676E+01 1.42816E-01-2.00301E-05-5.61062E-02 1.27446E-14-1.14875E-13
 -1      1097 2.00503E+01-4.02731E-03-5.60791E-06-2.74607E-02 2.21279E-14-4.64369E-14
 -1      1098 2.00789E+01-3.67673E-02-7.52889E-06-2.79422E-02-5.40564E-15-4.50879E-14
 -1      1099 1.99526E+01 1.29449E-01-5.67561E-06-4.09706E-02 6.18226E-14-6.06458E-14
 -1      1100 2.02200E+01-1.01900E-01 4.31863E-05-4.09631E-02-4.58318E-14-1.81965E-13
 -1      1101 2.03109E+01-5.51292E-02 1.34914E-04-4.49039E-02 1.81720E-15-1.84842E-13
 -1      1102 2.04213E+01 1.79273E-01 8.33428E-05-2.17171E-03-5.32298E-14-2.16632E-13
 -1      1103 2.01419E+01-8.53935E-02-1.15899E-05-3.34098E-02 5.39846E-14-1.65766E-13
 -1      1104 2.01789E+01-9.89614E-02-4.32049E-06-3.73211E-02 4.72201E-14-1.34902E-13
 -1      1105 2.03566E+01 9.52386E-03-1.21362E-04-4.12933E-02 5.51974E-15-1.99245E-13
 -1      1106 2.03941E+01 7.07409E-02-1.21773E-04 8.69190E-03-5.10491E-15-2.37776E-13
 -1      1107 2.04185E+01 3.39240E-01-8.00097E-05-6.66967E-03-4.09771E-14-2.48741E-13
 -1      1108 2.02892E+01-8.30729E-02 5.18908E-05-1.56403E-02-4.87685E-14-1.71981E-13
 -1      1109 2.04041E+01 1.85841E-01-1.84144E-04-2.93943E-02-1.70518E-14-1.94731E-13
 -1      1110 2.03436E+01-3.01810E-02 9.39383E-05-2.20464E-03-2.06373E-14-2.28824E-13
 -1      1111 2.03838E+01 8.50081E-02-4.89295E-05-3.89356E-02-2.70709E-14-1.92275E-13
 -1      1112 2.79642E+01 9.08692E+00 2.32538E+00-6.69813E+00-3.66374E-14 1.70383E-12
 -1      1113 2.05483E+01 6.22742E+00 2.09714E-01-3.90361E+00-2.47580E-14 4.06480E-13
 -1      1114 1.94349E+01 5.85301E+00 7.51613E-02-2.88766E+00-1.87073E-14-1.92207E-13
 -1      1115 1.90263E+01 5.72599E+00 6.03612E-02-2.23496E+00-1.34961E-14-5.01266E-13
 -1      1116 1.88400E+01 5.66935E+00 5.78147E-02-1.70110E+00-1.02054E-14-6.71481E-13
 -1      1117 1.87455E+01 5.64033E+00 5.55483E-02-1.23387E+00-6.70991E-15-7.54913E-13
 -1      1118 1.86964E+01 5.62505E+00 5.37568E-02-8.04169E-01-4.43699E-15-8.07705E-13
 -1      1119 1.86722E+01 5.61743E+00 5.25088E-02-3.92759E-01-1.99038E-15-8.22679E-13
 -1      1120 1.86654E+01 5.61525E+00 5.21107E-02 8.47512E-03-1.19002E-15-8.36709E-13
 -1      1121 1.86733E+01 5.61779E+00 5.26237E-02 4.10118E-01 1.61308E-15-8.47543E-13
 -1      1122 1.86986E+01 5.62579E+00 5.40148E-02 8.22875E-01 3.09258E-15-8.42069E-13
 -1      1123 1.87495E+01 5.64172E+00 5.62270E-02 1.25523E+00 6.01429E-15-8.03012E-13
 -1      1124 1.88450E+01 5.67104E+00 5.84452E-02 1.72697E+00 8.31106E-15-7.40192E-13
 -1      1125 1.90318E+01 5.72766E+00 6.04076E-02 2.26801E+00 1.23859E-14-6.10608E-13
 -1      1126 1.94318E+01 5.85031E+00 6.92409E-02 2.92820E+00 1.85130E-14-3.40733E-13
 -1      1127 2.04545E+01 6.18238E+00 1.53332E-01 3.87833E+00 2.45359E-14 2.29903E-13
 -1      1128 2.52184E+01 7.99471E+00 1.43047E+00 5.84635E+00 5.50116E-14 1.47671E-12
 -1      1129 2.88139E+01 3.61632E+00 1.27121E+00-4.21704E+00-1.66839E-13 2.54202E-12
 -1      1130 2.02293E+01-1.77715E-01-6.16304E-01-1.09902E-01-5.20070E-14 2.16677E-12
 -1      1131 1.88354E+01-9.63891E-02-2.36366E-01 6.25376E-02-3.08538E-14 1.59617E-12
 -1      1132 1.85019E+01-4.80590E-02-5.95682E-02 4.05384E-02-1.32450E-14 1.19633E-12
 -1      1133 1.84472E+01-2.46148E-02-1.51711E-02 2.68062E-02-4.34158E-15 8.88484E-13
 -1      1134 1.85293E+01-1.30555E-02-4.97042E-03 1.90807E-02-7.11432E-15 7.49373E-13
 -1      1135 1.86766E+01-6.60368E-03-1.46962E-03 1.41414E-02-8.98554E-15 6.30060E-13
 -1      1136 1.88494E+01-2.82847E-03 5.75836E-04 1.07156E-02 6.15914E-15 4.91898E-13
 -1      1137 1.90253E+01-5.88274E-04 1.90302E-03 8.18069E-03-8.82398E-15 3.88294E-13
 -1      1138 1.91914E+01 7.13704E-04 2.65824E-03 6.22795E-03-9.49914E-15 1.21820E-13
 -1      1139 1.93407E+01 1.41871E-03 2.97660E-03 4.69264E-03-2.28382E-15-7.96039E-14
 -1      1140 1.94703E+01 1.73625E-03 2.99163E-03 3.47608E-03 2.65354E-14-4.24461E-14
 -1      1141 1.95795E+01 1.80142E-03 2.81042E-03 2.51135E-03-2.07302E-15-1.25028E-13
 -1      1142 1.96695E+01 1.70326E-03 2.50929E-03 1.74848E-03 5.22791E-15-3.61833E-14
 -1      1143 1.97419E+01 1.49985E-03 2.13841E-03 1.14794E-03-1.55095E-14 6.81866E-14
 -1      1144 1.97995E+01 1.22719E-03 1.72725E-03 6.77815E-04-3.77107E-14-1.19212E-13
 -1      1145 1.98450E+01 9.04731E-04 1.28904E-03 3.12637E-04-2.14610E-14-2.06537E-13
 -1      1146 1.98816E+01 5.39141E-04 8.23902E-04 3.29928E-05 1.52550E-15-3.89274E-13
 -1      1147 1.99124E+01 1.26836E-04 3.21104E-04-1.74381E-04 2.80100E-14-5.18640E-13
 -1      1148 1.99411E+01-3.44260E-04-2.39611E-04-3.16164E-04 1.75575E-14-5.23825E-13
 -1      1149 1.99718E+01-8.93554E-04-8.87328E-04-3.91621E-04 1.76558E-14-5.10374E-13
 -1      1150 2.00091E+01-1.54701E-03-1.65989E-03-3.91257E-04-1.61786E-14-3.49101E-13
 -1      1151 2.00585E+01-2.33651E-03-2.60429E-03-2.94716E-04 7.19314E-15-2.34505E-13
 -1      1152 2.01269E+01-3.29899E-03-3.77728E-03-6.75650E-05-2.08817E-15-3.67745E-13
 -1      1153 2.02226E+01-4.47458E-03-5.24546E-03 3.43492E-04 2.24528E-14-4.02805E-13
 -1      1154 2.03561E+01-5.90233E-03-7.08337E-03 1.01758E-03-1.72757E-14-7.00054E-14
 -1      1155 2.05403E+01-7.61093E-03-9.36620E-03 2.06932E-03 1.11357E-14-2.01891E-13
 -1      1156 2.07915E+01-9.59932E-03-1.21498E-02 3.66102E-03 9.30538E-15-4.80569E-13
 -1      1157 2.11288E+01-1.17987E-02-1.54231E-02 6.01503E-03-4.00591E-15-5.19670E-13
 -1      1158 2.15748E+01-1.40015E-02-1.90048E-02 9.41777E-03 1.63780E-14-3.15132E-13
 -1      1159 2.21535E+01-1.57373E-02-2.23349E-02 1.41925E-02-2.27956E-14-2.07221E-13
 -1      1160 2.28867E+01-1.60749E-02-2.40921E-02 2.05872E-02 5.05589E-14-6.29705E-14
 -1      1161 2.37845E+01-1.33530E-02-2.15909E-02 2.84704E-02-1.23469E-14-1.11477E-13
 -1      1162 2.48276E+01-4.93962E-03-1.00970E-02 3.66541E-02-2.58019E-14-6.47649E-13
 -1      1163 2.59360E+01 1.26293E-02 1.71975E-02 4.16677E-02 3.97057E-15-6.28837E-13
 -1      1164 2.69246E+01 4.22462E-02 6.65997E-02 3.61688E-02 3.25755E-14-4.13763E-13
 -1      1165 2.74601E+01 8.22916E-02 1.35639E-01 8.55534E-03 4.58314E-14-3.93286E-13
 -1      1166 2.70721E+01 1.19121E-01 1.99061E-01-5.22710E-02 5.80265E-15-1.02106E-13
 -1      1167 2.53187E+01 1.22697E-01 1.99970E-01-1.41323E-01 8.91474E-15 2.39114E-13
 -1      1168 2.21748E+01 5.66034E-02 7.84056E-02-2.18113E-01-3.97590E-14 5.17586E-13
 -1      1169 1.84538E+01-7.48512E-02-1.46697E-01-2.13902E-01-2.86915E-14 1.47521E-13
 -1      1170 1.56960E+01-1.87408E-01-3.31370E-01-9.47609E-02-1.44017E-14-1.11244E-13
 -1      1171 1.51767E+01-1.80948E-01-3.19788E-01 7.61736E-02 9.59371E-14-1.03112E-14
 -1      1172 1.68192E+01-6.41932E-02-1.24570E-01 1.83298E-01-2.66644E-14 2.54213E-13
 -1      1173 1.92740E+01 5.89039E-02 8.97898E-02 1.73781E-01 1.74964E-14-4.24383E-14
 -1      1174 2.10747E+01 1.09009E-01 1.86371E-01 9.00095E-02 2.13805E-14-8.36831E-15
 -1      1175 2.15774E+01 8.55489E-02 1.51750E-01 3.00497E-03 1.88963E-14 1.65631E-14
 -1      1176 2.10381E+01 2.51675E-02 4.83294E-02-4.05626E-02 6.17796E-14 7.35582E-13
 -1      1177 2.02309E+01-3.49467E-02-3.63082E-02-2.19662E-02-6.02583E-14 4.09485E-13
 -1      1178 1.99431E+01 1.96358E-02 3.47993E-02 1.99729E-02 4.79096E-14 1.01622E-13
 -1      1179 2.77934E+01 5.25750E-01 3.76956E-01 1.96666E+00-2.59584E-14 2.53064E-12
 -1      1180 2.00868E+01-6.62502E-02-5.73636E-01 1.29453E-01 2.14828E-14 1.92965E-12
 -1      1181 1.89101E+01-4.06172E-02-1.93236E-01 1.94072E-02 1.75840E-14 1.33736E-12
 -1      1182 1.85308E+01-2.14320E-02-5.05742E-02 1.45314E-03 1.44559E-14 9.30134E-13
 -1      1183 1.84599E+01-1.24205E-02-1.34282E-02-4.08656E-03 1.00688E-14 6.53894E-13
 -1      1184 1.85357E+01-7.41502E-03-4.68386E-03-5.54631E-03-7.89733E-16 4.40186E-13
 -1      1185 1.86798E+01-4.33498E-03-1.95217E-03-5.74043E-03 4.47542E-15 3.16098E-13
 -1      1186 1.88510E+01-2.35810E-03-3.60725E-04-5.46692E-03-1.21167E-14 2.76636E-13
 -1      1187 1.90260E+01-1.07835E-03 7.66322E-04-4.97744E-03 1.26756E-14 1.42624E-13
 -1      1188 1.91915E+01-2.63469E-04 1.48849E-03-4.38608E-03 1.39012E-14 5.65398E-14
 -1      1189 1.93405E+01 2.33455E-04 1.86977E-03-3.75989E-03-2.99226E-16-3.81127E-14
 -1      1190 1.94700E+01 5.10511E-04 1.99772E-03-3.14091E-03 1.71779E-14-1.92440E-13
 -1      1191 1.95793E+01 6.34766E-04 1.95154E-03-2.55435E-03 3.72627E-14-4.04246E-13
 -1      1192 1.96693E+01 6.51948E-04 1.79083E-03-2.01319E-03-2.68343E-14-3.88914E-13
 -1      1193 1.97420E+01 5.92234E-04 1.55582E-03-1.52158E-03 1.54865E-14-4.20623E-13
 -1      1194 1.97999E+01 4.74000E-04 1.27046E-03-1.07743E-03-3.22493E-15-5.16305E-13
 -1      1195 1.98459E+01 3.06408E-04 9.45469E-04-6.74577E-04-2.09109E-14-4.42017E-13
 -1      1196 1.98830E+01 9.12999E-05 5.80774E-04-3.04637E-04 1.51714E-14-4.87230E-13
 -1      1197 1.99146E+01-1.75236E-04 1.67529E-04 4.13025E-05 1.21019E-14-7.07392E-13
 -1      1198 1.99444E+01-5.01361E-04-3.10075E-04 3.70983E-04-3.98934E-14-4.63178E-13
 -1      1199 1.99762E+01-8.97765E-04-8.72864E-04 6.89094E-04 1.10391E-14-2.58771E-13
 -1      1200 2.00145E+01-1.37535E-03-1.54415E-03 9.94976E-04-3.78495E-14-1.22180E-13
 -1      1201 2.00646E+01-1.94184E-03-2.34594E-03 1.27966E-03 2.52426E-14-4.27794E-13
 -1      1202 2.01323E+01-2.59655E-03-3.29297E-03 1.52196E-03-4.79746E-15-6.31054E-13
 -1      1203 2.02243E+01-3.32243E-03-4.38295E-03 1.68336E-03 2.11128E-14-4.82620E-13
 -1      1204 2.03481E+01-4.07427E-03-5.58126E-03 1.70161E-03 3.28031E-14-4.14788E-13
 -1      1205 2.05115E+01-4.76162E-03-6.79711E-03 1.48352E-03-3.63094E-14-4.75611E-13
 -1      1206 2.07222E+01-5.22599E-03-7.84846E-03 8.98397E-04-3.53754E-14-2.72190E-13
 -1      1207 2.09860E+01-5.21343E-03-8.41371E-03-2.23896E-04-1.96880E-14-1.75274E-13
 -1      1208 2.13049E+01-4.34927E-03-7.97359E-03-2.08164E-03 2.74538E-14-2.34005E-13
 -1      1209 2.16735E+01-2.13251E-03-5.76050E-03-4.86091E-03-6.31271E-15-4.77512E-13
 -1      1210 2.20739E+01 2.01284E-03-7.63032E-04-8.64061E-03 1.33099E-14-4.99401E-13
 -1      1211 2.24695E+01 8.56650E-03 8.11499E-03-1.32115E-02-1.13306E-14-3.16738E-13
 -1      1212 2.27980E+01 1.75426E-02 2.15827E-02-1.77944E-02 4.29327E-14-4.39402E-13
 -1      1213 2.29676E+01 2.78948E-02 3.90212E-02-2.07213E-02-1.70467E-14-3.53094E-13
 -1      1214 2.28614E+01 3.68795E-02 5.71582E-02-1.93272E-02-7.56968E-14-1.65609E-13
 -1      1215 2.23597E+01 3.99928E-02 6.91151E-02-1.05410E-02 9.05899E-14-5.90045E-13
 -1      1216 2.13857E+01 3.24149E-02 6.54536E-02 7.35467E-03 2.28212E-14-6.77715E-13
 -1      1217 1.99721E+01 1.23287E-02 3.87984E-02 3.20447E-02-2.99914E-14-5.40179E-13
 -1      1218 1.83146E+01-1.54543E-02-8.85727E-03 5.54956E-02-6.02374E-14-4.48974E-13
 -1      1219 1.67627E+01-3.96263E-02-6.16555E-02 6.62789E-02-3.96952E-14-1.64799E-13
 -1      1220 1.57072E+01-4.88726E-02-9.57795E-02 5.64838E-02 6.11369E-14-2.14332E-13
 -1      1221 1.54006E+01-4.02784E-02-9.49497E-02 2.86328E-02-5.23115E-14-1.55431E-13
 -1      1222 1.58263E+01-2.13938E-02-6.28440E-02-4.64120E-03-6.05158E-14 1.07421E-13
 -1      1223 1.67213E+01-3.92623E-03-2.03202E-02-2.89501E-02 6.48407E-14-5.04929E-13
 -1      1224 1.77366E+01 4.75237E-03 1.05372E-02-3.73909E-02 1.13918E-13-1.51521E-12
 -1      1225 1.86172E+01 5.37949E-03 2.13172E-02-3.36757E-02 2.70440E-14-1.59618E-12
 -1      1226 1.92807E+01 6.05615E-03 2.18376E-02-2.79219E-02-8.52801E-15-1.24892E-12
 -1      1227 1.97551E+01 1.67686E-02 3.14993E-02-2.75600E-02 6.47489E-14-7.93490E-13
 -1      1228 1.99866E+01 6.85673E-03 2.69246E-02-4.06244E-03-1.98069E-14-5.10530E-13
 -1      1229 2.00013E+01-1.80856E-02 2.04783E-02-8.49838E-03-5.33646E-13-6.23258E-14
 -1      1230 1.99983E+01-2.71273E-01 6.21612E-03-3.25602E-02-7.12312E-13-8.17299E-14
 -1      1231 1.99641E+01-6.20250E-01-4.90344E-02-3.62435E-02 3.34635E-13 1.96209E-13
 -1      1232 1.99286E+01-6.42163E-01-1.08122E-01-1.49761E-02 4.23806E-13 1.92485E-14
 -1      1233 1.99037E+01 5.57491E-02-1.51501E-01 2.77968E-02-1.83985E-14-3.01174E-14
 -1      1234 1.99012E+01 1.74146E+00-1.55525E-01 8.69144E-02-6.75765E-13-9.02195E-14
 -1      1235 1.99440E+01 4.44922E+00-9.16868E-02 1.43624E-01-8.28795E-13-4.01259E-14
 -1      1236 2.00327E+01 7.78864E+00 4.57769E-02 1.68663E-01-7.68663E-13-1.82632E-14
 -1      1237 2.01386E+01 1.08201E+01 2.07970E-01 1.30908E-01-2.24959E-14-1.54710E-13
 -1      1238 2.02021E+01 1.24480E+01 3.04416E-01 3.24555E-02-2.50938E-13-1.81886E-14
 -1      1239 2.01788E+01 1.20209E+01 2.71180E-01-8.09431E-02-2.23599E-13-1.48999E-13
 -1      1240 2.00931E+01 9.78964E+00 1.35631E-01-1.52932E-01-6.20171E-13 2.17841E-13
 -1      1241 1.99901E+01 6.66792E+00-1.92983E-02-1.57850E-01-9.80188E-13 6.93521E-14
 -1      1242 1.99261E+01 3.65849E+00-1.20290E-01-1.15778E-01-1.16472E-12 4.43300E-14
 -1      1243 1.99084E+01 1.41309E+00-1.58441E-01-7.63640E-02-1.36668E-12 8.90676E-14
 -1      1244 1.98885E+01 2.58334E-01-1.25188E-01 5.09909E-03-5.28120E-13 9.21364E-14
 -1      1245 2.00211E+01-5.30037E-02 1.84889E-02 1.59471E-02-5.37886E-14 3.97586E-14
 -1      1246-1.43235E+00-2.86856E+01-4.45540E+00-2.76681E+00 7.77378E-13 2.28498E-14
 -1      1247-2.08017E+00-1.68424E+01-3.44067E+00-4.39263E+00 1.25966E-12 3.95517E-13
 -1      1248 1.44244E+00-8.90652E-01-1.72725E+00 1.25327E+00 1.69220E-12 1.10423E-12
 -1      1249 1.34110E+01 1.01326E+01 3.32267E-01 1.13910E+01 7.94920E-13 7.06990E-13
 -1      1250 3.42808E+01 1.20564E+01 2.34972E+00 1.89763E+01-2.56573E-13-5.89973E-13
 -1      1251 5.66868E+01 7.24533E+00 3.76354E+00 1.72869E+01-4.75231E-13-1.59939E-12
 -1      1252 7.03584E+01 2.37333E+00 4.53020E+00 6.26725E+00-1.88953E-13-1.86273E-12
 -1      1253 6.73820E+01 2.90121E+00 4.17210E+00-8.36215E+00 1.21889E-13-1.32416E-12
 -1      1254 5.16629E+01 7.61299E+00 3.26101E+00-1.78757E+01 7.00107E-13-1.33316E-12
 -1      1255 2.99017E+01 1.13074E+01 1.68369E+00-1.73551E+01 1.15241E-12-1.85052E-12
 -1      1256 1.10556E+01 8.77851E+00-2.49577E-02-9.58994E+00 1.04694E-12-1.22879E-12
 -1      1257 7.41747E-01-1.48492E+00-1.75042E+00-4.52393E-01 1.11822E-12-6.01408E-13
 -1      1258-1.87185E+00-1.53725E+01-3.02046E+00 4.20326E+00 1.58207E-12-6.50702E-13
 -1      1259-1.11119E+00-2.60519E+01-3.82867E+00 2.51624E+00 6.66800E-13-1.25039E-13
 -1      1260-1.28304E+00-2.68972E+01-3.90888E+00-2.54309E+00 7.68552E-13 1.14492E-16
 -1      1261-2.32030E+00-1.87282E+01-3.41967E+00-5.18883E+00 1.02029E-13-5.22360E-14
 -1      1262-9.07735E-01-5.70080E+00-2.29646E+00-1.93596E+00-2.89546E-13-2.64566E-13
 -1      1263 7.23763E+00 5.60054E+00-7.29752E-01 6.40711E+00-5.34461E-13-5.35794E-13
 -1      1264 2.45530E+01 1.03355E+01 1.13167E+00 1.51610E+01-7.27862E-13-1.10401E-12
 -1      1265 4.77034E+01 7.97239E+00 2.94585E+00 1.77842E+01-6.73794E-13-1.48925E-12
 -1      1266 6.64800E+01 3.37588E+00 4.32966E+00 1.07962E+01-2.36561E-13-1.16152E-12
 -1      1267 7.26003E+01 2.01855E+00 4.78393E+00-2.34064E+00 8.72358E-14-1.03728E-12
 -1      1268 6.51586E+01 5.06271E+00 4.43528E+00-1.48180E+01 2.61902E-13-7.24754E-13
 -1      1269 4.68736E+01 1.03060E+01 3.20904E+00-2.04215E+01-5.20695E-14-2.06501E-14
 -1      1270 2.55308E+01 1.26487E+01 1.53463E+00-1.72645E+01-4.68514E-13 6.46594E-13
 -1      1271 8.78909E+00 7.98353E+00-3.05400E-01-8.29146E+00-7.66720E-13 6.63691E-13
 -1      1272-1.15070E-01-4.21656E+00-2.16822E+00 8.62903E-01-1.26632E-12 7.71827E-13
 -1      1273-2.15912E+00-1.91919E+01-3.63521E+00 4.88802E+00-6.54143E-13 3.48610E-13
 -1      1274-1.28988E+00-2.93560E+01-4.51006E+00 2.54568E+00 3.76310E-13-3.11834E-14
 -1      1275 2.22681E+01 1.83825E+00-7.25836E-01-2.79048E+00-6.17562E-14 1.44967E-12
 -1      1276 2.03601E+01 4.69015E+00-4.87479E-02-3.30655E+00-2.03421E-13 1.25115E-13
 -1      1277 2.08679E+01 4.81070E+00-1.13353E-01-4.16088E+00-2.48218E-13 4.38857E-13
 -1      1278 1.95315E+01 4.99398E+00-1.97179E-02-2.65420E+00-2.14523E-13-3.28012E-13
 -1      1279 1.98299E+01 5.09040E+00 3.88163E-05-3.04506E+00-2.39406E-13-1.26697E-13
 -1      1280 2.05267E+01 3.95279E+00-2.59887E-02-3.07417E+00-3.57752E-13 1.10523E-13
 -1      1281 1.91851E+01 5.08417E+00-3.39500E-03-2.07051E+00-1.77889E-13-5.69721E-13
 -1      1282 1.93334E+01 5.13938E+00 1.05205E-02-2.36385E+00-2.01620E-13-4.55049E-13
 -1      1283 1.97552E+01 4.36719E+00-2.38599E-02-2.49019E+00-3.38108E-13-2.68841E-13
 -1      1284 1.90090E+01 5.13098E+00 3.46642E-03-1.56430E+00-1.44570E-13-7.07320E-13
 -1      1285 1.90872E+01 5.16071E+00 1.28088E-02-1.81426E+00-1.57943E-13-6.44960E-13
 -1      1286 1.93929E+01 4.55515E+00-1.94905E-02-1.93114E+00-2.73861E-13-4.82059E-13
 -1      1287 1.89150E+01 5.16060E+00 6.55940E-03-1.11684E+00-1.03246E-13-7.83453E-13
 -1      1288 1.89575E+01 5.17699E+00 1.27667E-02-1.33825E+00-1.21674E-13-7.44581E-13
 -1      1289 1.92053E+01 4.66148E+00-1.60468E-02-1.44451E+00-2.13829E-13-5.95617E-13
 -1      1290 1.88634E+01 5.18035E+00 8.18455E-03-6.93676E-01-7.94536E-14-8.20011E-13
 -1      1291 1.88865E+01 5.18923E+00 1.19954E-02-9.03845E-01-8.46597E-14-8.06454E-13
 -1      1292 1.91023E+01 4.72679E+00-1.40012E-02-1.00410E+00-1.56478E-13-6.70661E-13
 -1      1293 1.88394E+01 5.19225E+00 9.28061E-03-2.89099E-01-3.94335E-14-8.34374E-13
 -1      1294 1.88493E+01 5.19609E+00 1.10598E-02-4.91157E-01-5.27100E-14-8.23947E-13
 -1      1295 1.90464E+01 4.76572E+00-1.29275E-02-5.88668E-01-1.08632E-13-6.93050E-13
 -1      1296 1.88357E+01 5.19720E+00 1.02135E-02 1.08183E-01-2.52240E-15-8.48864E-13
 -1      1297 1.88354E+01 5.19706E+00 1.01416E-02-9.14254E-02-1.24142E-14-8.40546E-13
 -1      1298 1.90222E+01 4.78373E+00-1.24780E-02-1.89059E-01-4.07666E-14-7.08489E-13
 -1      1299 1.88511E+01 5.19573E+00 1.11532E-02 5.08503E-01 3.00246E-14-8.54993E-13
 -1      1300 1.88404E+01 5.19161E+00 9.21709E-03 3.06023E-01 1.75993E-14-8.52686E-13
 -1      1301 1.90230E+01 4.78309E+00-1.24952E-02 2.05725E-01 1.10836E-14-7.16805E-13
 -1      1302 1.88898E+01 5.18808E+00 1.20887E-02 9.22674E-01 5.86545E-14-8.41775E-13
 -1      1303 1.88660E+01 5.17903E+00 8.12581E-03 7.11544E-01 4.49421E-14-8.50972E-13
 -1      1304 1.90490E+01 4.76367E+00-1.29809E-02 6.06023E-01 6.26155E-14-7.22384E-13
 -1      1305 1.89619E+01 5.17513E+00 1.28970E-02 1.35582E+00 9.20071E-14-8.06532E-13
 -1      1306 1.89185E+01 5.15836E+00 6.44067E-03 1.13296E+00 7.84321E-14-8.30593E-13
 -1      1307 1.91066E+01 4.72325E+00-1.40028E-02 1.01926E+00 1.19244E-13-7.10744E-13
 -1      1308 1.90949E+01 5.15673E+00 1.28292E-02 1.84043E+00 1.46657E-13-7.24990E-13
 -1      1309 1.90152E+01 5.12634E+00 3.13566E-03 1.58765E+00 1.23487E-13-7.70725E-13
 -1      1310 1.92123E+01 4.65491E+00-1.61459E-02 1.46232E+00 1.77550E-13-6.55698E-13
 -1      1311 1.93439E+01 5.13353E+00 1.01788E-02 2.39752E+00 1.94830E-13-5.78215E-13
 -1      1312 1.91936E+01 5.07636E+00-4.38360E-03 2.10024E+00 1.71640E-13-6.70193E-13
 -1      1313 1.94053E+01 4.54248E+00-1.99833E-02 1.95796E+00 2.59842E-13-5.66880E-13
 -1      1314 1.98558E+01 5.09951E+00 6.06473E-03 3.08368E+00 2.32814E-13-2.71831E-13
 -1      1315 1.95437E+01 4.98447E+00-2.05447E-02 2.69627E+00 2.05155E-13-4.57894E-13
 -1      1316 1.97750E+01 4.34647E+00-2.45586E-02 2.52783E+00 3.24246E-13-3.80918E-13
 -1      1317 2.11039E+01 4.90706E+00 8.32753E-03 4.05383E+00 2.15189E-13 3.45432E-13
 -1      1318 2.03348E+01 4.73391E+00-4.79637E-02 3.41611E+00 2.06418E-13-3.38202E-14
 -1      1319 2.05651E+01 3.91597E+00-2.24053E-02 3.17822E+00 3.56049E-13-2.55906E-14
 -1      1320 2.72035E+01 3.20542E+00 9.29024E-01 4.58225E+00 1.20515E-13 1.57679E-12
 -1      1321 2.20208E+01 3.52223E+00-1.81995E-01 3.88491E+00 1.19960E-13 7.11875E-13
 -1      1322 2.21131E+01 2.56180E+00-3.25403E-02 3.45646E+00 3.60791E-13 5.34212E-13
 -1      1323 2.14277E+01 3.59571E-01-7.63534E-01 1.18378E+00 2.01707E-13 1.49358E-12
 -1      1324 2.20023E+01 1.31298E-01-4.00862E-01-1.28573E+00-1.90417E-13 1.50319E-12
 -1      1325 2.06796E+01 3.06725E-01-1.64793E-01-8.05794E-01-1.85837E-13 1.28941E-12
 -1      1326 2.00819E+01 1.53526E-01-7.35260E-02-4.02056E-01-1.45835E-13 1.18603E-12
 -1      1327 1.96122E+01 9.12238E-02-1.49006E-02-3.29876E-01-1.46376E-13 9.75772E-13
 -1      1328 2.09734E+01 3.69322E-01-1.04173E-01-1.27392E+00-3.15040E-13 7.07063E-13
 -1      1329 1.92549E+01 6.45112E-02 3.05858E-03-1.35224E-01-1.14055E-13 8.87415E-13
 -1      1330 1.91007E+01 4.12578E-02 1.32475E-02-1.17429E-01-1.01863E-13 7.36217E-13
 -1      1331 1.99227E+01 1.33917E-01-3.51141E-02-5.03780E-01-2.47895E-13 5.53502E-13
 -1      1332 1.89404E+01 3.15233E-02 1.32572E-02-2.79279E-02-8.96592E-14 6.56006E-13
 -1      1333 1.89211E+01 1.93831E-02 1.10666E-02-1.85525E-02-8.00345E-14 5.35984E-13
 -1      1334 1.94456E+01 5.54491E-02-8.49359E-03-1.69818E-01-1.92298E-13 4.00841E-13
 -1      1335 1.88651E+01 1.60115E-02 8.77686E-03 2.50875E-02-3.99238E-14 4.96211E-13
 -1      1336 1.89075E+01 9.07312E-03 6.43055E-03 2.97174E-02-4.35823E-14 4.55268E-13
 -1      1337 1.92368E+01 2.43939E-02-3.50687E-03-1.10137E-02-1.17828E-13 2.84588E-13
 -1      1338 1.89076E+01 7.85296E-03 4.66820E-03 5.08737E-02-5.22885E-14 4.37060E-13
 -1      1339 1.89780E+01 3.49607E-03 3.63899E-03 5.27624E-02-4.90352E-14 3.62483E-13
 -1      1340 1.91801E+01 1.01976E-02-2.21803E-03 6.76560E-02-9.62329E-14 2.16830E-13
 -1      1341 1.90075E+01 3.17936E-03 2.44077E-03 6.15397E-02-1.99520E-14 3.27521E-13
 -1      1342 1.90881E+01 3.17533E-04 2.20966E-03 6.18023E-02-2.52111E-14 2.84823E-13
 -1      1343 1.92063E+01 2.76704E-03-1.32034E-03 1.04454E-01-7.99915E-14 1.77919E-13
 -1      1344 1.91316E+01 4.28818E-04 1.33132E-03 6.34550E-02-3.52523E-14 2.66256E-13
 -1      1345 1.92124E+01-1.48330E-03 1.43838E-03 6.27639E-02-6.07291E-14 1.80503E-13
 -1      1346 1.92753E+01-1.32416E-03-5.53695E-04 1.17663E-01-7.48134E-14 9.74878E-14
 -1      1347 1.92608E+01-1.16204E-03 7.46818E-04 6.03335E-02-8.19404E-14 1.43204E-13
 -1      1348 1.93364E+01-2.43274E-03 9.69961E-04 5.91208E-02-9.80941E-14 3.44117E-14
 -1      1349 1.93634E+01-3.53755E-03 7.14803E-06 1.17238E-01-1.41011E-13 6.64929E-14
 -1      1350 1.93844E+01-2.01642E-03 4.10894E-04 5.44911E-02-5.56312E-14 1.55544E-14
 -1      1351 1.94517E+01-2.83827E-03 6.58958E-04 5.30406E-02-1.02474E-14-5.14571E-14
 -1      1352 1.94563E+01-4.60687E-03 3.61122E-04 1.09124E-01-1.30723E-13 2.34694E-14
 -1      1353 1.94962E+01-2.39273E-03 2.07720E-04 4.74172E-02 8.83538E-15-1.21206E-13
 -1      1354 1.95543E+01-2.89507E-03 4.44537E-04 4.59145E-02-2.40118E-14-1.24642E-13
 -1      1355 1.95458E+01-4.95479E-03 5.52520E-04 9.70670E-02-4.23333E-14-6.97507E-14
 -1      1356 1.95938E+01-2.45833E-03 8.50008E-05 4.00745E-02-2.39112E-14-1.34391E-13
 -1      1357 1.96425E+01-2.73175E-03 2.96577E-04 3.86385E-02-7.40117E-15-1.36805E-13
 -1      1358 1.96273E+01-4.84750E-03 6.29143E-04 8.34769E-02-4.19432E-14-1.78414E-13
 -1      1359 1.96764E+01-2.32431E-03 1.50274E-05 3.30782E-02 7.52076E-15-1.34856E-13
 -1      1360 1.97164E+01-2.43317E-03 1.97188E-04 3.17825E-02-1.43912E-15-8.20023E-14
 -1      1361 1.96987E+01-4.45909E-03 6.28615E-04 6.99064E-02 5.91096E-15-1.69146E-13
 -1      1362 1.97449E+01-2.06375E-03-1.90169E-05 2.68137E-02-1.24229E-14-1.19851E-13
 -1      1363 1.97771E+01-2.05333E-03 1.34544E-04 2.57027E-02-5.08120E-14-1.64501E-13
 -1      1364 1.97595E+01-3.90292E-03 5.77434E-04 5.73438E-02-3.12801E-14-1.99026E-13
 -1      1365 1.98008E+01-1.72233E-03-2.81143E-05 2.15207E-02-5.89209E-14-1.39711E-13
 -1      1366 1.98264E+01-1.62343E-03 1.00515E-04 2.06209E-02-5.97366E-14-1.85839E-13
 -1      1367 1.98105E+01-3.24903E-03 4.93046E-04 4.64111E-02-8.76145E-14-2.27538E-13
 -1      1368 1.98461E+01-1.32505E-03-1.96590E-05 1.73547E-02-4.81389E-14-1.92115E-13
 -1      1369 1.98667E+01-1.15719E-03 8.95244E-05 1.66846E-02-5.33697E-14-2.49998E-13
 -1      1370 1.98529E+01-2.53492E-03 3.85937E-04 3.75075E-02-7.76152E-14-2.06046E-13
 -1      1371 1.98835E+01-8.80757E-04 1.30405E-06 1.44355E-02-5.93569E-14-2.45059E-13
 -1      1372 1.99005E+01-6.54559E-04 9.78778E-05 1.40122E-02-1.43000E-14-3.43665E-13
 -1      1373 1.98887E+01-1.77266E-03 2.61217E-04 3.09168E-02-5.63218E-14-2.20107E-13
 -1      1374 1.99157E+01-3.85134E-04 3.12727E-05 1.28847E-02 3.88095E-15-3.71802E-13
 -1      1375 1.99309E+01-1.04245E-04 1.23311E-04 1.27305E-02-6.42354E-15-3.88470E-13
 -1      1376 1.99200E+01-9.53747E-04 1.19760E-04 2.68916E-02-3.86481E-14-2.71934E-13
 -1      1377 1.99457E+01 1.77258E-04 6.76860E-05 1.28580E-02 2.70264E-15-4.52281E-13
 -1      1378 1.99610E+01 5.14614E-04 1.64643E-04 1.30052E-02-2.92842E-14-4.46382E-13
 -1      1379 1.99494E+01-5.22493E-05-4.09901E-05 2.57210E-02-6.11778E-14-3.60129E-13
 -1      1380 1.99773E+01 8.31799E-04 1.08400E-04 1.45717E-02-1.94326E-15-4.47102E-13
 -1      1381 1.99948E+01 1.23144E-03 2.21439E-04 1.50675E-02-1.94982E-14-4.55330E-13
 -1      1382 1.99800E+01 9.73388E-04-2.26444E-04 2.77886E-02-6.28412E-15-3.50409E-13
 -1      1383 2.00144E+01 1.61324E-03 1.51141E-04 1.83280E-02 1.74700E-14-3.70321E-13
 -1      1384 2.00367E+01 2.08367E-03 2.93605E-04 1.92391E-02 5.77427E-14-3.19123E-13
 -1      1385 2.00153E+01 2.17961E-03-4.44475E-04 3.36225E-02 2.33784E-14-4.46539E-13
 -1      1386 2.00619E+01 2.56557E-03 1.92826E-04 2.45387E-02 3.26247E-14-3.46798E-13
 -1      1387 2.00920E+01 3.11642E-03 3.80789E-04 2.59558E-02-1.09083E-14-3.44908E-13
 -1      1388 2.00593E+01 3.63788E-03-7.05138E-04 4.39427E-02 2.00736E-14-3.48295E-13
 -1      1389 2.01255E+01 3.74204E-03 2.28620E-04 3.37481E-02-1.89297E-14-3.28747E-13
 -1      1390 2.01672E+01 4.38179E-03 4.81398E-04 3.57905E-02 2.20500E-15-3.63485E-13
 -1      1391 2.01170E+01 5.43520E-03-1.02044E-03 5.97052E-02-1.01739E-14-3.14545E-13
 -1      1392 2.02124E+01 5.20454E-03 2.50513E-04 4.66543E-02 6.91707E-14-3.14115E-13
 -1      1393 2.02703E+01 5.93688E-03 5.90939E-04 4.94747E-02 7.23711E-14-2.25449E-13
 -1      1394 2.01943E+01 7.67415E-03-1.40402E-03 8.21440E-02 7.10558E-14-2.32674E-13
 -1      1395 2.03313E+01 7.02107E-03 2.45171E-04 6.41239E-02 3.51505E-14-1.61350E-13
 -1      1396 2.04112E+01 7.83829E-03 6.99243E-04 6.79115E-02-3.07025E-14-1.54712E-13
 -1      1397 2.02983E+01 1.04702E-02-1.87056E-03 1.12801E-01 7.19226E-14-1.86161E-13
 -1      1398 2.04928E+01 9.25828E-03 1.90746E-04 8.71897E-02-5.21328E-14-2.09375E-13
 -1      1399 2.06018E+01 1.01291E-02 7.86046E-04 9.21700E-02-2.29049E-15-2.55256E-13
 -1      1400 2.04376E+01 1.39419E-02-2.43443E-03 1.53533E-01-5.30381E-14-8.06503E-14
 -1      1401 2.07096E+01 1.19632E-02 5.25557E-05 1.17007E-01-2.69203E-14-3.15839E-13
 -1      1402 2.08563E+01 1.28102E-02 8.14582E-04 1.23431E-01-7.62381E-14-3.80910E-13
 -1      1403 2.06225E+01 1.81852E-02-3.10685E-03 2.06452E-01-1.25654E-13-1.59834E-13
 -1      1404 2.09968E+01 1.51229E-02-2.21584E-04 1.54720E-01 7.85439E-15-3.89898E-13
 -1      1405 2.11912E+01 1.57817E-02 7.24102E-04 1.62832E-01 4.07734E-14-3.89406E-13
 -1      1406 2.08648E+01 2.32121E-02-3.88972E-03 2.73731E-01-2.42070E-14-2.58017E-13
 -1      1407 2.13714E+01 1.85813E-02-7.02865E-04 2.01142E-01 7.40413E-14-2.39232E-13
 -1      1408 2.16245E+01 1.87294E-02 4.26041E-04 2.11100E-01 6.44543E-14-1.26264E-13
 -1      1409 2.11775E+01 2.88224E-02-4.76263E-03 3.57126E-01 1.18906E-13-1.95806E-13
 -1      1410 2.18510E+01 2.18794E-02-1.46960E-03 2.56081E-01-7.53000E-15-1.18581E-13
 -1      1411 2.21733E+01 2.09204E-02-1.82406E-04 2.67782E-01-8.64087E-15-5.97647E-14
 -1      1412 2.15738E+01 3.43486E-02-5.65597E-03 4.56954E-01 7.76961E-14-4.67299E-14
 -1      1413 2.24508E+01 2.39700E-02-2.55854E-03 3.17036E-01 1.55767E-14-1.76421E-15
 -1      1414 2.28487E+01 2.08671E-02-1.15721E-03 3.29771E-01 3.21401E-15 1.68077E-14
 -1      1415 2.20651E+01 3.81908E-02-6.39743E-03 5.70085E-01-4.39609E-14 7.04423E-14
 -1      1416 2.31770E+01 2.27660E-02-3.83695E-03 3.76876E-01-7.13748E-14-5.97786E-14
 -1      1417 2.36466E+01 1.58661E-02-2.35311E-03 3.88707E-01-1.06461E-13-1.98109E-13
 -1      1418 2.26563E+01 3.70616E-02-6.61294E-03 6.86334E-01-6.89895E-14 1.00172E-14
 -1      1419 2.40152E+01 1.45696E-02-4.75082E-03 4.20197E-01-1.89256E-13-2.43163E-13
 -1      1420 2.45305E+01 1.59899E-03-3.14686E-03 4.26949E-01-9.76457E-14-4.57308E-13
 -1      1421 2.33388E+01 2.49997E-02-5.56965E-03 7.82628E-01-2.07088E-13-9.48026E-14
 -1      1422 2.49119E+01-6.23316E-03-3.98065E-03 4.18734E-01 1.09502E-13-4.10866E-13
 -1      1423 2.54074E+01-2.74914E-02-2.15190E-03 4.12774E-01 1.04640E-13-3.63612E-13
 -1      1424 2.40786E+01-7.25584E-03-2.00357E-03 8.15160E-01-1.14212E-14-1.54727E-13
 -1      1425 2.57476E+01-4.59956E-02 6.57203E-04 3.28585E-01 6.13849E-14-2.34202E-13
 -1      1426 2.60999E+01-7.53637E-02 2.60797E-03 2.98329E-01 5.66734E-14-1.80508E-13
 -1      1427 2.48006E+01-7.05438E-02 5.85243E-03 7.12843E-01 1.83303E-13-3.65021E-14
 -1      1428 2.63118E+01-1.06609E-01 1.11954E-02 9.71150E-02 5.35041E-14-6.45491E-14
 -1      1429 2.63348E+01-1.36626E-01 1.20548E-02 3.00791E-02 1.03412E-13 3.91614E-14
 -1      1430 2.53723E+01-1.69227E-01 1.94414E-02 3.82672E-01 5.72962E-14 6.58562E-14
 -1      1431 2.63038E+01-1.73968E-01 2.61338E-02-3.06252E-01 1.27455E-13-8.18772E-14
 -1      1432 2.57917E+01-1.84147E-01 2.28536E-02-4.12413E-01 2.27526E-14 4.42701E-14
 -1      1433 2.55988E+01-2.82373E-01 3.73901E-02-2.51496E-01 1.42806E-13 1.20021E-13
 -1      1434 2.54103E+01-2.03695E-01 3.65795E-02-8.25605E-01 5.32213E-15 2.39919E-13
 -1      1435 2.42620E+01-1.63981E-01 2.34528E-02-9.42426E-01 1.22269E-13 2.50105E-13
 -1      1436 2.52548E+01-3.42508E-01 5.12515E-02-1.15443E+00 1.09027E-13 1.60847E-13
 -1      1437 2.35114E+01-1.31901E-01 2.45125E-02-1.25249E+00-1.60080E-14 3.18384E-13
 -1      1438 2.19124E+01-2.92837E-02-2.61360E-04-1.31043E+00-1.43090E-13 1.79828E-13
 -1      1439 2.41931E+01-2.43620E-01 4.39022E-02-2.05255E+00 1.05360E-13 1.35014E-13
 -1      1440 2.09722E+01 5.96592E-02-1.68741E-02-1.27405E+00-1.57617E-13 3.66526E-13
 -1      1441 1.94625E+01 1.81723E-01-4.41693E-02-1.20173E+00-1.20431E-13 1.24789E-13
 -1      1442 2.25421E+01 4.99300E-02-3.59716E-03-2.42387E+00-1.13647E-13 3.31915E-13
 -1      1443 1.87183E+01 2.63866E-01-6.19718E-02-7.30330E-01-2.19512E-14 1.29480E-14
 -1      1444 1.79458E+01 3.17558E-01-7.40061E-02-5.42518E-01-5.69336E-14-2.32592E-14
 -1      1445 2.08606E+01 4.00509E-01-7.16628E-02-1.82154E+00-1.72105E-13 3.42674E-13
 -1      1446 1.77415E+01 3.10276E-01-7.05510E-02 1.18907E-01 7.03083E-14 5.82433E-14
 -1      1447 1.79836E+01 2.51591E-01-5.88795E-02 2.99674E-01 1.49131E-13 2.41224E-13
 -1      1448 1.99140E+01 5.50164E-01-1.02254E-01-4.14540E-01-6.53505E-14 2.14744E-13
 -1      1449 1.83017E+01 1.60604E-01-3.65351E-02 7.36930E-01 7.45237E-15 2.93016E-13
 -1      1450 1.92299E+01 4.32130E-02-1.18767E-02 7.95605E-01-5.15039E-15 2.22850E-13
 -1      1451 2.00525E+01 3.71816E-01-6.60734E-02 9.47507E-01 1.34767E-13 1.70725E-13
 -1      1452 1.97164E+01-4.42477E-02 6.85626E-03 8.01086E-01 5.82381E-14 2.04753E-13
 -1      1453 2.06857E+01-1.32655E-01 2.79225E-02 7.36304E-01 7.84667E-14 2.28914E-13
 -1      1454 2.08753E+01 2.02737E-02 3.13390E-04 1.46614E+00 1.55787E-14 3.36266E-13
 -1      1455 2.09853E+01-1.58323E-01 2.84467E-02 4.34768E-01 1.13229E-13 2.70596E-13
 -1      1456 2.15142E+01-1.79102E-01 3.75261E-02 3.24362E-01 6.73420E-14 3.13267E-13
 -1      1457 2.16393E+01-2.44155E-01 4.17936E-02 1.06658E+00 1.28224E-13 4.81531E-13
 -1      1458 2.14971E+01-1.50523E-01 2.46208E-02-2.20933E-02-1.54685E-14 3.05721E-13
 -1      1459 2.14937E+01-1.18097E-01 2.41849E-02-1.05629E-01 8.42486E-14 3.45803E-13
 -1      1460 2.18674E+01-2.93587E-01 4.31418E-02 2.58406E-01 8.25156E-14 5.18661E-13
 -1      1461 2.12347E+01-6.54295E-02 7.84881E-03-3.01306E-01 1.37092E-13 3.79871E-13
 -1      1462 2.09220E+01-9.15340E-03 6.08018E-03-3.22777E-01 6.61819E-14 5.28175E-13
 -1      1463 2.15332E+01-1.69615E-01 2.13366E-02-3.99410E-01 1.27526E-13 4.88114E-13
 -1      1464 2.05863E+01 4.28102E-02-7.90469E-03-2.87985E-01-1.03883E-13 4.55476E-13
 -1      1465 2.03062E+01 7.90961E-02-1.97241E-04-2.57300E-01-1.94579E-13 2.86032E-13
 -1      1466 2.08959E+01 4.24725E-02 1.82610E-03-5.97028E-01-2.86611E-14 4.14242E-13
 -1      1467 2.00072E+01 5.20917E-02-1.42820E-02-1.13999E-02-2.80890E-13 2.40020E-13
 -1      1468 2.02160E+01 1.93674E-01-1.01879E-02-2.60073E-01-3.27560E-13 2.54886E-13
 -1      1469 2.02606E+01 7.54739E-02-1.52089E-01 4.83802E-01 1.80481E-13 1.12394E-12
 -1      1470 2.15308E+01 2.16135E-01-2.29286E-01 7.20790E-01 1.50324E-13 1.39784E-12
 -1      1471 2.17293E+01 8.81747E-01-8.54751E-02 2.06474E+00 3.03604E-13 8.43395E-13
 -1      1472 1.93324E+01 3.23821E-02-2.13311E-02 1.85965E-01 1.35798E-13 7.76736E-13
 -1      1473 1.97530E+01 1.13621E-01-6.26982E-02 2.37976E-01 1.30600E-13 9.93214E-13
 -1      1474 2.03042E+01 1.87671E-01-5.51938E-02 7.86085E-01 2.69645E-13 6.06537E-13
 -1      1475 1.89508E+01 1.51064E-02 5.66710E-03 5.34581E-02 6.68918E-14 5.25784E-13
 -1      1476 1.90893E+01 5.16302E-02 9.78778E-04 7.97755E-02 8.21643E-14 6.69090E-13
 -1      1477 1.95593E+01 7.18391E-02-1.21584E-02 2.98893E-01 2.05322E-13 4.13268E-13
 -1      1478 1.88405E+01 7.12100E-03 6.97638E-03-9.04017E-03 7.68127E-14 3.46587E-13
 -1      1479 1.88550E+01 2.58632E-02 1.10896E-02 5.36302E-03 6.43561E-14 4.60347E-13
 -1      1480 1.92240E+01 3.10364E-02-2.46551E-03 8.33932E-02 1.32486E-13 2.40431E-13
 -1      1481 1.88666E+01 3.20831E-03 4.78285E-03-3.92892E-02 3.32800E-14 2.13081E-13
 -1      1482 1.88227E+01 1.38104E-02 8.52046E-03-3.11669E-02 4.22928E-14 2.89348E-13
 -1      1483 1.91075E+01 1.32611E-02-1.62089E-03-2.15830E-02 1.06463E-13 1.42203E-13
 -1      1484 1.89608E+01 1.04927E-03 3.29433E-03-5.27076E-02 2.16774E-14 1.54705E-13
 -1      1485 1.88903E+01 7.27902E-03 5.36715E-03-4.82335E-02 1.68552E-14 1.88270E-13
 -1      1486 1.91087E+01 4.53368E-03-1.63565E-03-7.30547E-02 5.25155E-14 9.44253E-14
 -1      1487 1.90851E+01-2.00810E-04 2.51223E-03-5.66342E-02 5.28190E-14 8.54421E-14
 -1      1488 1.90049E+01 3.44174E-03 3.43019E-03-5.44204E-02 2.77960E-14 1.36943E-13
 -1      1489 1.91714E+01-1.23971E-04-1.38003E-03-9.56565E-02 5.18314E-14 4.71034E-14
 -1      1490 1.92177E+01-9.09262E-04 2.04788E-03-5.51006E-02 1.48590E-14 3.07532E-14
 -1      1491 1.91375E+01 1.10689E-03 2.32774E-03-5.43089E-02 2.17289E-14 5.40019E-14
 -1      1492 1.92633E+01-2.64601E-03-1.00403E-03-1.01788E-01 5.77203E-14-2.04433E-14
 -1      1493 1.93460E+01-1.27203E-03 1.70412E-03-5.05417E-02 4.96938E-14-6.02044E-14
 -1      1494 1.92713E+01-3.02607E-04 1.64968E-03-5.06299E-02 2.99919E-14-8.16187E-15
 -1      1495 1.93652E+01-3.91801E-03-6.60753E-04-9.84481E-02 6.36087E-14-1.03281E-13
 -1      1496 1.94633E+01-1.40923E-03 1.41432E-03-4.44986E-02 3.39882E-14-1.17455E-13
 -1      1497 1.93967E+01-1.11059E-03 1.18987E-03-4.51051E-02 3.45771E-14-9.54159E-14
 -1      1498 1.94660E+01-4.41907E-03-3.96245E-04-8.99076E-02 7.17509E-14-1.99189E-13
 -1      1499 1.95662E+01-1.40000E-03 1.16050E-03-3.79635E-02 7.58296E-14-2.52848E-13
 -1      1500 1.95088E+01-1.51836E-03 8.58999E-04-3.88436E-02 6.75277E-14-1.49081E-13
 -1      1501 1.95593E+01-4.43824E-03-2.07363E-04-7.88810E-02 8.79401E-14-2.08920E-13
 -1      1502 1.96538E+01-1.29765E-03 9.38030E-04-3.15718E-02 2.09492E-14-3.52709E-13
 -1      1503 1.96056E+01-1.65852E-03 6.15476E-04-3.25596E-02 4.00497E-14-3.16847E-13
 -1      1504 1.96421E+01-4.16099E-03-7.92973E-05-6.71179E-02 7.99608E-14-2.39422E-13
 -1      1505 1.97265E+01-1.13751E-03 7.44708E-04-2.57233E-02-8.49689E-15-2.90787E-13
 -1      1506 1.96871E+01-1.62019E-03 4.36126E-04-2.67065E-02-8.58664E-15-3.26477E-13
 -1      1507 1.97132E+01-3.70883E-03 1.92809E-06-5.57410E-02 9.48785E-15-2.20625E-13
 -1      1508 1.97860E+01-9.41658E-04 5.78015E-04-2.06644E-02 1.02787E-14-3.84913E-13
 -1      1509 1.97542E+01-1.46241E-03 3.05809E-04-2.15666E-02 2.17871E-14-3.17608E-13
 -1      1510 1.97730E+01-3.15984E-03 4.68768E-05-4.54609E-02 3.82202E-14-2.67019E-13
 -1      1511 1.98341E+01-7.22140E-04 4.34620E-04-1.65481E-02-2.97176E-14-3.57728E-13
 -1      1512 1.98088E+01-1.22208E-03 2.13703E-04-1.73155E-02-5.98653E-15-3.58200E-13
 -1      1513 1.98225E+01-2.56072E-03 6.27163E-05-3.67248E-02-7.25277E-15-2.78729E-13
 -1      1514 1.98735E+01-4.83291E-04 3.10418E-04-1.34793E-02-1.14946E-14-3.44021E-13
 -1      1515 1.98531E+01-9.19293E-04 1.51749E-04-1.40700E-02-1.03312E-14-3.85003E-13
 -1      1516 1.98637E+01-1.93484E-03 5.36262E-05-2.98242E-02 1.41666E-14-3.04732E-13
 -1      1517 1.99069E+01-2.23523E-04 2.00665E-04-1.15483E-02 5.70908E-14-4.48054E-13
 -1      1518 1.98899E+01-5.60991E-04 1.13832E-04-1.19243E-02 6.69359E-14-3.38573E-13
 -1      1519 1.98985E+01-1.28803E-03 2.11359E-05-2.49758E-02 6.50781E-14-2.98482E-13
 -1      1520 1.99373E+01 6.31769E-05 1.00134E-04-1.08572E-02-1.12077E-13-4.69237E-13
 -1      1521 1.99220E+01-1.43850E-04 9.52478E-05-1.09770E-02 1.87831E-14-4.47178E-13
 -1      1522 1.99297E+01-6.13012E-04-3.56088E-05-2.23827E-02 7.90001E-14-2.87600E-13
 -1      1523 1.99682E+01 3.85811E-04 3.27072E-06-1.15383E-02-5.87282E-14-2.76209E-13
 -1      1524 1.99527E+01 3.43291E-04 9.23026E-05-1.13520E-02-1.14994E-13-4.64389E-13
 -1      1525 1.99599E+01 1.06932E-04-1.19596E-04-2.22787E-02-1.03792E-13-3.27485E-13
 -1      1526 2.00033E+01 7.54776E-04-9.56329E-05-1.37658E-02-5.87673E-14-2.35050E-13
 -1      1527 1.99857E+01 9.16959E-04 1.01943E-04-1.32106E-02-3.34218E-14-2.62358E-13
 -1      1528 1.99925E+01 8.94382E-04-2.35656E-04-2.49601E-02-1.00869E-13-2.47304E-13
 -1      1529 2.00471E+01 1.17978E-03-2.02198E-04-1.77597E-02 1.05692E-13-2.75344E-13
 -1      1530 2.00249E+01 1.59608E-03 1.21371E-04-1.67576E-02-1.22379E-15-2.68983E-13
 -1      1531 2.00309E+01 1.77385E-03-3.90018E-04-3.08008E-02-1.23490E-14-3.18104E-13
 -1      1532 2.01044E+01 1.66686E-03-3.21549E-04-2.37780E-02 8.25417E-14-4.81956E-13
 -1      1533 2.00749E+01 2.39786E-03 1.47593E-04-2.22359E-02 1.07452E-13-2.83958E-13
 -1      1534 2.00794E+01 2.76668E-03-5.89579E-04-4.02504E-02 1.57886E-13-3.49542E-13
 -1      1535 2.01810E+01 2.21390E-03-4.57569E-04-3.20945E-02-2.86163E-14-4.82563E-13
 -1      1536 2.01411E+01 3.33159E-03 1.76899E-04-2.99079E-02-2.75610E-14-5.44732E-13
 -1      1537 2.01426E+01 3.88371E-03-8.40615E-04-5.38066E-02 4.93242E-14-4.18583E-13
 -1      1538 2.02830E+01 2.80394E-03-6.11517E-04-4.29519E-02 8.63491E-15-3.25140E-13
 -1      1539 2.02293E+01 4.38909E-03 2.04283E-04-4.00151E-02-5.26751E-14-4.15847E-13
 -1      1540 2.02256E+01 5.11438E-03-1.14660E-03-7.19513E-02-8.60111E-14-4.50636E-13
 -1      1541 2.04171E+01 3.39507E-03-7.79529E-04-5.64809E-02-4.94136E-15-2.96201E-13
 -1      1542 2.03458E+01 5.53024E-03 2.22931E-04-5.27065E-02 6.12824E-14-2.28684E-13
 -1      1543 2.03339E+01 6.41024E-03-1.50456E-03-9.50323E-02-3.06199E-14-2.16827E-13
 -1      1544 2.05899E+01 3.90625E-03-9.48212E-04-7.25672E-02-8.31154E-14-1.43010E-13
 -1      1545 2.04973E+01 6.66124E-03 2.24078E-04-6.79214E-02-7.98533E-14-2.51938E-13
 -1      1546 2.04732E+01 7.66069E-03-1.89916E-03-1.23066E-01-6.46221E-14-8.37007E-14
 -1      1547 2.08067E+01 4.19790E-03-1.08718E-03-9.06483E-02-3.41762E-14-9.52268E-14
 -1      1548 2.06897E+01 7.60387E-03 1.97881E-04-8.52079E-02-3.68655E-14-1.28442E-13
 -1      1549 2.06483E+01 8.65825E-03-2.29352E-03-1.55431E-01-5.44541E-14 4.34637E-14
 -1      1550 2.10705E+01 4.04860E-03-1.13718E-03-1.09416E-01-3.03051E-14-3.52361E-14
 -1      1551 2.09273E+01 8.05483E-03 1.36541E-04-1.03457E-01-5.08123E-14-9.85141E-14
 -1      1552 2.08626E+01 9.05239E-03-2.61573E-03-1.90405E-01-7.03403E-14 6.94652E-14
 -1      1553 2.13790E+01 3.13296E-03-9.93221E-04-1.26415E-01 6.73721E-14-6.09304E-14
 -1      1554 2.12107E+01 7.53932E-03 4.14674E-05-1.20539E-01 2.44764E-14-4.35988E-14
 -1      1555 2.11162E+01 8.29518E-03-2.74068E-03-2.24536E-01 1.95889E-14 5.37227E-14
 -1      1556 2.17212E+01 1.01543E-03-4.85873E-04-1.37565E-01 1.44038E-14-2.76634E-13
 -1      1557 2.15337E+01 5.37453E-03-6.36292E-05-1.32863E-01 8.52938E-14-1.45669E-13
 -1      1558 2.14036E+01 5.59419E-03-2.46993E-03-2.51839E-01 1.39822E-13 4.08180E-14
 -1      1559 2.20730E+01-2.80754E-03 6.26414E-04-1.36715E-01-3.52655E-14-2.92103E-13
 -1      1560 2.18800E+01 6.82472E-04-1.14298E-04-1.34943E-01-4.77560E-14-4.00921E-13
 -1      1561 2.17104E+01-8.51176E-05-1.51936E-03-2.62953E-01 4.73049E-14-1.93416E-13
 -1      1562 2.23919E+01-8.75903E-03 2.62143E-03-1.15541E-01 8.19735E-14-3.57075E-13
 -1      1563 2.22176E+01-7.46838E-03 1.03118E-05-1.19219E-01 4.56566E-14-2.90509E-13
 -1      1564 2.20097E+01-9.88059E-03 4.60324E-04-2.44621E-01-3.83200E-15-2.60701E-13
 -1      1565 2.26132E+01-1.68479E-02 5.67723E-03-6.43622E-02 3.28613E-14-3.65019E-13
 -1      1566 2.24950E+01-1.96675E-02 4.76828E-04-7.66201E-02 6.28143E-15-3.29451E-13
 -1      1567 2.22589E+01-2.46045E-02 3.78672E-03-1.80265E-01 2.01644E-14-2.78646E-13
 -1      1568 2.26507E+01-2.61007E-02 9.57227E-03 2.51948E-02-1.22952E-13-9.50377E-14
 -1      1569 2.26387E+01-3.53825E-02 1.41799E-03 1.32865E-03-4.69694E-14-1.80302E-13
 -1      1570 2.23980E+01-4.38432E-02 8.51455E-03-5.30024E-02-1.19968E-13-6.51267E-14
 -1      1571 2.24081E+01-3.38995E-02 1.32470E-02 1.54793E-01 3.80460E-14-1.34162E-13
 -1      1572 2.25587E+01-5.18418E-02 2.73742E-03 1.17995E-01-7.03951E-14-1.67096E-13
 -1      1573 2.23541E+01-6.45266E-02 1.40582E-02 1.47266E-01-8.21157E-14 6.63232E-14
 -1      1574 2.18059E+01-3.58076E-02 1.45181E-02 3.11579E-01 1.21043E-13-3.68556E-13
 -1      1575 2.21653E+01-6.31555E-02 3.84361E-03 2.64681E-01 1.41554E-13-1.37078E-13
 -1      1576 2.20547E+01-7.95288E-02 1.88052E-02 4.11942E-01 1.66838E-13-3.15407E-14
 -1      1577 2.08258E+01-2.68522E-02 1.05751E-02 4.61537E-01-9.82842E-14-1.45516E-13
 -1      1578 2.14034E+01-6.10114E-02 3.56456E-03 4.13767E-01-7.86480E-14-2.93248E-13
 -1      1579 2.14546E+01-7.78210E-02 2.02146E-02 7.00153E-01-5.40453E-14 1.24969E-13
 -1      1580 1.95591E+01-4.94725E-03-2.54380E-04 5.51672E-01-5.23438E-14-6.27554E-14
 -1      1581 2.02991E+01-3.84706E-02 5.90956E-04 5.18298E-01-4.91404E-15-7.06449E-14
 -1      1582 2.05728E+01-4.85234E-02 1.58917E-02 9.33273E-01-3.66126E-14 1.85629E-13
 -1      1583 1.82266E+01 2.49449E-02-1.59449E-02 5.29178E-01-9.09611E-14 1.25663E-14
 -1      1584 1.89972E+01 3.51387E-03-5.34684E-03 5.25975E-01 6.21682E-15-3.00593E-14
 -1      1585 1.95234E+01 1.01895E-02 5.52124E-03 1.01229E+00 2.10209E-14 3.33324E-13
 -1      1586 1.71326E+01 5.04073E-02-2.96907E-02 3.74987E-01-1.54668E-14 3.60788E-14
 -1      1587 1.77551E+01 5.15706E-02-1.21942E-02 4.08506E-01-4.51774E-14 2.23294E-14
 -1      1588 1.85129E+01 8.25343E-02-7.42045E-03 8.65520E-01-2.21602E-14 2.96537E-13
 -1      1589 1.65461E+01 5.82634E-02-3.34761E-02 1.29338E-01 1.33384E-13-1.66807E-13
 -1      1590 1.68659E+01 8.42971E-02-1.59675E-02 1.89624E-01 7.78752E-14-5.55458E-15
 -1      1591 1.77786E+01 1.36700E-01-1.70551E-02 5.05411E-01 1.07532E-13 1.00140E-13
 -1      1592 1.65688E+01 4.47686E-02-2.43093E-02-1.19749E-01-2.88945E-13 9.55971E-14
 -1      1593 1.65313E+01 8.61104E-02-1.35992E-02-5.56707E-02-1.35249E-13-1.22148E-13
 -1      1594 1.74843E+01 1.43465E-01-1.91801E-02 4.66500E-02-1.10179E-13 1.73349E-13
 -1      1595 1.70862E+01 1.89386E-02-7.37504E-03-2.86214E-01 2.88253E-13-9.93684E-14
 -1      1596 1.67624E+01 5.91723E-02-5.79476E-03-2.40774E-01 1.25580E-13 1.21077E-13
 -1      1597 1.76385E+01 9.93768E-02-1.44454E-02-3.47858E-01 2.50824E-14 8.24167E-14
 -1      1598 1.78440E+01-4.53055E-03 7.77526E-03-3.35409E-01 3.42047E-13-7.35335E-13
 -1      1599 1.73842E+01 2.14875E-02 3.12585E-03-3.17691E-01 2.66923E-13-2.81920E-13
 -1      1600 1.80990E+01 3.08505E-02-7.45383E-03-5.60513E-01 4.58825E-13-1.47042E-13
 -1      1601 1.85917E+01-1.57021E-02 1.47351E-02-2.94409E-01 3.21544E-14-9.90274E-13
 -1      1602 1.81413E+01-6.85973E-03 8.67650E-03-2.97783E-01 1.53762E-13-7.56843E-13
 -1      1603 1.86616E+01-2.53202E-02-2.47771E-03-5.78184E-01 2.70912E-13-1.70034E-13
 -1      1604 1.91893E+01-1.48764E-02 1.39941E-02-2.20458E-01-8.07908E-14-8.55392E-13
 -1      1605 1.88273E+01-1.70536E-02 9.38768E-03-2.30974E-01-6.51874E-14-9.43006E-13
 -1      1606 1.91632E+01-4.83152E-02-8.85898E-04-4.75871E-01 3.63858E-15-1.64111E-13
 -1      1607 1.96146E+01-1.20954E-02 1.14026E-02-1.55195E-01-1.56211E-13-7.49772E-13
 -1      1608 1.93524E+01-1.58754E-02 7.40265E-03-1.64184E-01-7.76224E-14-8.58723E-13
 -1      1609 1.95356E+01-4.31428E-02-2.95353E-04-3.47456E-01-1.30935E-13-4.75446E-13
 -1      1610 1.98892E+01-2.14916E-02 1.25779E-02-9.77265E-02-7.94590E-14-5.24229E-13
 -1      1611 1.97213E+01-2.04657E-02 8.04710E-03-1.05355E-01-1.23468E-13-7.17440E-13
 -1      1612 1.97905E+01-3.88632E-02 5.19219E-03-2.35173E-01-1.05188E-13-4.39415E-13
 -1      1613 1.99582E+01-4.43654E-02 1.74889E-02-3.65637E-02-2.48699E-13-2.31540E-13
 -1      1614 2.00068E+01-2.84785E-01 5.21911E-03-1.27311E-01-1.10592E-13 1.62299E-13
 -1      1615 1.99842E+01-1.46855E-01 7.53546E-03-1.16738E-01-2.92436E-13 1.17213E-14
 -1      1616 2.00623E+01-3.98259E-01-1.34820E-03-5.35291E-02 3.46036E-13 3.25063E-13
 -1      1617 2.00340E+01-3.31935E-01 1.14500E-03-7.81926E-02 5.58477E-14 3.65316E-13
 -1      1618 2.00285E+01-2.31040E-01-6.99188E-03-1.81833E-01 1.41899E-13 4.32000E-13
 -1      1619 2.01123E+01-1.44928E-01-7.96344E-03 1.66245E-01 1.05656E-13-1.02900E-13
 -1      1620 2.00889E+01-3.31548E-01-7.43269E-03 1.11284E-01 3.31707E-13 9.88272E-14
 -1      1621 2.01358E+01-2.31246E-01-1.87079E-02 7.34882E-02 2.03872E-13 1.58654E-13
 -1      1622 2.01441E+01 7.25913E-01-1.41874E-02 5.11688E-01 1.46411E-14-1.19996E-13
 -1      1623 2.01350E+01 1.34682E-01-1.65329E-02 4.32014E-01-2.84581E-15 9.50125E-14
 -1      1624 2.02157E+01 8.21167E-02-3.41715E-02 5.88466E-01 1.52658E-13-1.64483E-13
 -1      1625 2.01326E+01 2.32104E+00-1.77662E-02 9.04987E-01-5.32983E-13-1.64316E-13
 -1      1626 2.01533E+01 1.28084E+00-2.30736E-02 8.21521E-01-3.11424E-13-3.66682E-13
 -1      1627 2.02550E+01 8.80117E-01-4.26847E-02 1.28234E+00-3.96211E-15-4.33747E-13
 -1      1628 2.00537E+01 4.59830E+00-1.26997E-02 1.21642E+00-6.03517E-13-9.43169E-15
 -1      1629 2.01136E+01 3.17046E+00-2.21750E-02 1.16073E+00-6.48523E-13 1.74201E-14
 -1      1630 2.02066E+01 2.24490E+00-3.80096E-02 1.97429E+00-4.00912E-13-2.03957E-13
 -1      1631 1.99122E+01 7.10007E+00 3.66126E-03 1.24749E+00-3.93893E-13 1.64284E-13
 -1      1632 1.99996E+01 5.61257E+00-8.21008E-03 1.26642E+00-7.69440E-13 2.44727E-13
 -1      1633 2.00375E+01 4.08812E+00-1.15042E-02 2.36421E+00-3.95999E-13 7.44992E-14
 -1      1634 1.97650E+01 9.09880E+00 2.46464E-02 8.68592E-01 2.13510E-14-1.40235E-14
 -1      1635 1.98405E+01 8.01502E+00 1.46985E-02 9.81892E-01-2.49675E-13 1.55579E-13
 -1      1636 1.97859E+01 6.02137E+00 3.48985E-02 2.11999E+00-2.65721E-13 2.90670E-13
 -1      1637 1.97017E+01 9.87259E+00 3.52202E-02 1.53602E-01-2.08215E-13-9.28146E-14
 -1      1638 1.97205E+01 9.59266E+00 3.27352E-02 3.24713E-01-1.99424E-14-1.72438E-13
 -1      1639 1.95692E+01 7.44669E+00 7.90465E-02 1.13502E+00-3.76019E-14 3.74700E-16
 -1      1640 1.97667E+01 9.12834E+00 2.55400E-02-6.08881E-01-3.60809E-13-6.06633E-14
 -1      1641 1.97194E+01 9.74976E+00 3.26545E-02-4.58647E-01-1.98307E-13 6.58154E-15
 -1      1642 1.95169E+01 7.82147E+00 9.06975E-02-2.88384E-01-2.02185E-13-5.87690E-14
 -1      1643 1.99128E+01 7.23895E+00 4.12022E-03-1.09873E+00-5.82465E-13 1.02664E-13
 -1      1644 1.98299E+01 8.47115E+00 1.51812E-02-1.03096E+00-4.35069E-13-6.92883E-14
 -1      1645 1.96611E+01 7.02211E+00 6.15601E-02-1.55461E+00-4.02969E-13-2.70266E-13
 -1      1646 2.00555E+01 4.85610E+00-1.57790E-02-1.19847E+00-6.51326E-13-2.12019E-14
 -1      1647 1.99809E+01 6.29670E+00-4.47856E-03-1.21681E+00-6.39253E-13 2.22706E-13
 -1      1648 1.99013E+01 5.41027E+00 1.24085E-02-2.20126E+00-3.89418E-13 1.64487E-13
 -1      1649 2.01303E+01 2.71125E+00-2.21198E-02-9.84982E-01-8.40966E-13 8.04599E-14
 -1      1650 2.00895E+01 3.94410E+00-1.54701E-02-1.05100E+00-6.40210E-13-1.44087E-13
 -1      1651 2.01161E+01 3.56365E+00-2.45557E-02-2.14271E+00-3.90923E-13-1.40794E-13
 -1      1652 2.01512E+01 1.22511E+00-4.45911E-03-6.47885E-01-7.53619E-13 1.02432E-13
 -1      1653 2.01174E+01 2.02220E+00-1.76699E-02-7.07466E-01-9.38027E-13 3.03948E-13
 -1      1654 2.02281E+01 1.98893E+00-3.61557E-02-1.61608E+00-2.95885E-13 1.52205E-14
 -1      1655 2.02048E+01 4.40896E-01 9.68793E-03-4.20502E-01-3.97955E-13 2.09133E-13
 -1      1656 2.02016E+01 8.14996E-01-7.81006E-03-5.27172E-01-5.97036E-13 9.45476E-14
 -1      1657 2.03399E+01 9.40849E-01-3.25424E-02-1.09246E+00-3.78198E-13 1.64188E-13
 -1      1658 2.04627E+01 3.27994E-01-2.79287E-02-7.46600E-01-3.07716E-13 2.53931E-13
 -1      1659-6.57735E-01-1.67425E+01-1.84099E+00-9.35888E-01 5.81757E-13 2.09166E-13
 -1      1660-6.47614E-01-1.96250E+01-2.14269E+00 4.99940E-01 1.41276E-13 2.21489E-13
 -1      1661 2.67826E+00-8.29925E+00-1.08202E+00 1.69435E+00 8.06466E-13 4.40065E-13
 -1      1662 1.39409E+00-1.48207E+01-1.78458E+00 5.92472E-01 7.68607E-13 7.46382E-14
 -1      1663 9.92077E+00 3.71308E-01-2.82617E-01 6.30318E+00 8.57758E-13 4.19886E-13
 -1      1664 5.80120E+00-5.97001E+00-1.22083E+00 2.73822E+00 7.18536E-13 5.13367E-13
 -1      1665 2.19727E+01 6.32733E+00 5.68778E-01 1.17741E+01 2.59681E-13-2.92655E-13
 -1      1666 1.39160E+01 3.02586E+00-4.52845E-01 7.65604E+00 7.13429E-13 1.68532E-13
 -1      1667 3.84544E+01 6.49818E+00 1.22921E+00 1.32962E+01-2.78499E-13-8.88178E-13
 -1      1668 2.80511E+01 6.92509E+00 4.12008E-01 1.20098E+01 7.66054E-15-5.72431E-13
 -1      1669 5.16925E+01 4.89528E+00 1.64399E+00 8.63507E+00-2.71838E-13-1.36346E-12
 -1      1670 4.32715E+01 6.80370E+00 1.11153E+00 1.16842E+01-3.38840E-13-1.12288E-12
 -1      1671 5.79793E+01 3.81901E+00 1.87163E+00 9.81050E-01-4.54636E-14-1.65216E-12
 -1      1672 5.53924E+01 4.75838E+00 1.73656E+00 7.03469E+00-1.90598E-13-1.59250E-12
 -1      1673 5.22321E+01 5.04974E+00 1.51257E+00-7.48715E+00 6.75848E-14-1.22835E-12
 -1      1674 5.68004E+01 3.92993E+00 1.80945E+00-1.77018E+00-6.69464E-14-1.45564E-12
 -1      1675 4.06961E+01 6.77861E+00 1.02891E+00-1.24409E+01 6.96054E-13-1.35203E-12
 -1      1676 4.94798E+01 5.01240E+00 1.64951E+00-1.02839E+01 4.72622E-13-1.06615E-12
 -1      1677 2.56028E+01 5.81991E+00 2.00051E-01-1.05835E+01 7.31082E-13-1.19438E-12
 -1      1678 3.54261E+01 5.91516E+00 1.02119E+00-1.22894E+01 6.87728E-13-1.23057E-12
 -1      1679 1.20040E+01 2.11130E+00-6.17497E-01-6.54657E+00 7.50511E-13-7.77822E-13
 -1      1680 1.92643E+01 5.38056E+00 2.73872E-01-1.04667E+01 7.84928E-13-1.16351E-12
 -1      1681 4.26752E+00-5.77566E+00-1.28215E+00-1.84129E+00 9.43690E-13-4.20719E-13
 -1      1682 7.72236E+00 1.81053E-02-4.86040E-01-5.01046E+00 8.20233E-13-5.56111E-13
 -1      1683 8.40537E-01-1.41200E+01-1.70194E+00-3.03683E-02 1.01052E-12-4.78249E-13
 -1      1684 1.83491E+00-8.23095E+00-1.12336E+00-8.92692E-01 1.06348E-12-4.21108E-13
 -1      1685-7.13114E-01-1.89076E+01-1.96034E+00-4.40817E-01 5.86253E-13-9.70335E-14
 -1      1686-7.31965E-01-1.61922E+01-1.72443E+00 1.08723E+00 8.96172E-13-5.37903E-13
 -1      1687-8.71731E-01-1.66792E+01-1.71212E+00-1.50392E+00 3.56659E-13-1.83131E-13
 -1      1688-7.77450E-01-1.84802E+01-1.85372E+00 3.27447E-02 5.61808E-13-6.65024E-14
 -1      1689 6.60703E-01-1.07415E+01-1.36420E+00-6.21023E-01-3.50830E-14-7.75907E-14
 -1      1690 2.00867E-01-1.56408E+01-1.79957E+00-8.38475E-01 3.28071E-13-1.73674E-13
 -1      1691 5.91078E+00-2.88590E+00-7.62825E-01 3.21101E+00-1.45439E-13-3.92575E-13
 -1      1692 3.13160E+00-8.72983E+00-1.47619E+00 5.24890E-01-5.63993E-14-2.02338E-13
 -1      1693 1.58722E+01 3.32298E+00-1.98789E-02 8.38718E+00-3.54605E-13-5.16920E-13
 -1      1694 9.61722E+00-6.48102E-01-9.12620E-01 4.53929E+00-2.99760E-13-3.59046E-13
 -1      1695 3.18016E+01 5.22480E+00 8.58656E-01 1.15985E+01-4.07119E-13-8.53539E-13
 -1      1696 2.18987E+01 4.17971E+00-1.09026E-01 9.02972E+00-3.19300E-13-6.71907E-13
 -1      1697 4.78205E+01 4.75587E+00 1.66714E+00 1.01425E+01-3.71619E-13-1.10700E-12
 -1      1698 3.75739E+01 6.06409E+00 8.16268E-01 1.13638E+01-5.01266E-13-9.50351E-13
 -1      1699 5.78070E+01 3.60137E+00 2.07981E+00 3.83992E+00-1.60816E-13-8.55427E-13
 -1      1700 5.21304E+01 4.84155E+00 1.65681E+00 8.54155E+00-2.75710E-13-1.03073E-12
 -1      1701 5.79457E+01 4.36135E+00 2.01954E+00-4.72782E+00-4.09672E-14-5.89473E-13
 -1      1702 5.82847E+01 3.96125E+00 1.99751E+00 1.13862E+00-1.04527E-13-6.79623E-13
 -1      1703 5.12103E+01 6.17176E+00 1.76919E+00-1.16342E+01-4.25077E-14-3.40394E-13
 -1      1704 5.71278E+01 4.37011E+00 2.11055E+00-7.45885E+00-3.63598E-15-5.54501E-13
 -1      1705 3.76897E+01 7.73913E+00 1.05954E+00-1.37926E+01-2.81275E-13 4.30767E-14
 -1      1706 4.71469E+01 6.29628E+00 1.80292E+00-1.31163E+01-1.05360E-13-2.58904E-13
 -1      1707 2.28518E+01 6.32759E+00 1.59546E-01-1.11824E+01-4.48530E-13 4.04787E-13
 -1      1708 3.22413E+01 7.31916E+00 1.12479E+00-1.39226E+01-3.49165E-13 1.75637E-13
 -1      1709 1.12280E+01 7.75410E-01-7.23856E-01-6.12257E+00-7.50511E-13 3.88023E-13
 -1      1710 1.76489E+01 4.90354E+00 2.50558E-01-1.01520E+01-4.68514E-13 4.90274E-13
 -1      1711 3.85645E+00-8.07831E+00-1.51651E+00-1.42911E+00-5.41345E-13 5.86198E-13
 -1      1712 6.98419E+00-1.50572E+00-6.50005E-01-4.53543E+00-8.26450E-13 5.01932E-13
 -1      1713 7.20150E-01-1.62049E+01-1.96310E+00 5.29691E-02-2.10498E-13 2.72962E-13
 -1      1714 1.46281E+00-1.04713E+01-1.39601E+00-4.84730E-01-6.01075E-13 5.28327E-13
 -1      1715-7.72685E-01-2.03889E+01-2.26145E+00-3.44155E-01 9.75331E-14 4.37428E-14
 -1      1716-8.45909E-01-1.81863E+01-2.06415E+00 1.33920E+00-5.60663E-14 5.45397E-14
 -1      1717 2.92457E+01 2.01703E+00 5.72740E-01 8.24904E+00 2.62790E-13-8.30114E-13
 -1      1718 1.77561E+01-3.05509E+00-2.38585E-01 7.52769E+00 3.33400E-13-2.67009E-13
 -1      1719 1.99624E+01-8.13452E-02 1.44300E-02-1.08437E-01-4.13197E-13-3.37473E-13
 -1      1720 1.99278E+01-1.07816E-01 3.01034E-03-2.06753E-01-1.50068E-13-7.55398E-14
 -1      1721 1.41281E+00-1.12337E+01-1.18021E+00 3.61298E+00 2.46358E-13 2.22600E-13
 -1      1722 8.57757E+00-8.07936E+00-7.84651E-01 6.11732E+00 2.57350E-13 1.73472E-13
 -1      1723-1.54480E+00-1.36287E+01-1.55766E+00 2.69421E-01-6.73767E-14 3.92630E-13
 -1      1724 3.95813E+01 5.30527E+00 1.06188E+00 6.22685E+00 1.34961E-14-9.85212E-13
 -1      1725 4.64558E+01 7.43247E+00 1.31891E+00 3.43615E+00-1.04361E-13-1.05799E-12
 -1      1726 4.87304E+01 7.98702E+00 1.47387E+00 2.77729E-01-1.63314E-13-1.21700E-12
 -1      1727 4.54825E+01 6.88376E+00 1.31611E+00-3.91659E+00 2.22378E-13-1.13765E-12
 -1      1728 3.74499E+01 4.13463E+00 7.93593E-01-6.24055E+00 5.27481E-13-8.92730E-13
 -1      1729 2.70176E+01 1.07845E+00 4.14737E-01-7.37923E+00 3.53939E-13-8.50320E-13
 -1      1730 1.53220E+01-2.89946E+00-3.00643E-01-6.69477E+00 6.52700E-13-6.44096E-13
 -1      1731 6.63615E+00-7.72562E+00-8.42521E-01-4.86490E+00 7.36411E-13-2.54657E-13
 -1      1732 7.56355E-01-1.14226E+01-1.18321E+00-2.81320E+00 7.50955E-13-5.65159E-13
 -1      1733-1.62539E+00-1.30074E+01-1.34660E+00-3.85049E-01 4.77070E-13-1.96676E-13
 -1      1734 9.57647E-03-1.19142E+01-1.21581E+00 1.67085E+00 2.46692E-13-2.49745E-13
 -1      1735 5.07549E+00-9.27379E+00-9.76852E-01 3.71989E+00 1.13909E-13-2.79558E-13
 -1      1736 1.31383E+01-5.15609E+00-5.33337E-01 5.48508E+00-4.06342E-14-4.03233E-13
 -1      1737 2.42135E+01-9.27303E-01 1.35841E-01 6.49510E+00 5.32907E-15-4.26326E-13
 -1      1738 3.56841E+01 2.73377E+00 7.48008E-01 5.57413E+00-1.67366E-13-5.16365E-13
 -1      1739 4.52673E+01 5.88644E+00 1.38282E+00 3.78613E+00-3.09697E-13-6.67022E-13
 -1      1740 4.97734E+01 7.61386E+00 1.66788E+00 4.67337E-01-1.58040E-13-3.81167E-13
 -1      1741 4.94893E+01 8.02434E+00 1.71045E+00-3.28428E+00-1.40443E-13-2.89851E-13
 -1      1742 4.52977E+01 6.66537E+00 1.51326E+00-6.60692E+00-3.13610E-13-1.94400E-13
 -1      1743 3.62138E+01 4.26876E+00 9.59124E-01-8.31131E+00-3.13083E-13-1.01141E-13
 -1      1744 2.54022E+01 4.58264E-01 2.86010E-01-8.31298E+00-3.76810E-13 3.03646E-13
 -1      1745 1.47746E+01-4.29623E+00-4.22115E-01-6.97127E+00-4.97491E-13 1.77414E-13
 -1      1746 6.20051E+00-9.19014E+00-1.03749E+00-5.02016E+00-2.99538E-13 6.03469E-13
 -1      1747 5.21154E-01-1.24175E+01-1.35829E+00-2.74918E+00-2.66120E-13 3.83027E-13
 -1      1748 2.28610E+01 1.98482E+00-2.35559E-02-2.72223E+00-2.39714E-13 1.19310E-12
 -1      1749 1.98223E+01 3.71858E+00-3.49126E-02-2.15470E+00-3.55204E-13-2.43555E-13
 -1      1750 2.00517E+01 3.56058E+00-4.29511E-02-2.44119E+00-3.99574E-13-1.15758E-13
 -1      1751 2.03658E+01 3.18232E+00-4.52071E-02-2.58470E+00-3.87829E-13 3.40283E-14
 -1      1752 2.05850E+01 2.80918E+00-1.42609E-01-2.85296E+00-4.00305E-13 2.40981E-13
 -1      1753 2.04304E+01 2.69105E+00-3.10616E-03-2.22096E+00-4.05549E-13-3.29528E-14
 -1      1754 1.93543E+01 4.18906E+00-2.02001E-02-1.27020E+00-2.29404E-13-4.99576E-13
 -1      1755 1.94278E+01 4.14935E+00-1.71886E-02-1.49460E+00-2.66463E-13-4.62890E-13
 -1      1756 1.92575E+01 4.29476E+00-1.68095E-02-8.59408E-01-1.67833E-13-5.50541E-13
 -1      1757 1.93003E+01 4.27083E+00-1.43631E-02-1.07015E+00-1.98852E-13-5.28617E-13
 -1      1758 1.95260E+01 3.78305E+00-9.31010E-03-1.11928E+00-2.31665E-13-4.96547E-13
 -1      1759 1.92058E+01 4.35519E+00-1.48067E-02-4.66633E-01-1.07215E-13-5.63364E-13
 -1      1760 1.92278E+01 4.34235E+00-1.33237E-02-6.66884E-01-1.40380E-13-5.60156E-13
 -1      1761 1.94287E+01 3.90341E+00-9.22224E-03-7.32965E-01-1.60825E-13-5.28636E-13
 -1      1762 1.91863E+01 4.38080E+00-1.36679E-02-8.35959E-02-2.50750E-14-5.77857E-13
 -1      1763 1.91928E+01 4.37688E+00-1.32171E-02-2.78985E-01-6.79198E-14-5.69900E-13
 -1      1764 1.93783E+01 3.96791E+00-9.16335E-03-3.58171E-01-9.17046E-14-5.47392E-13
 -1      1765 1.91944E+01 4.37551E+00-1.31681E-02 2.98037E-01 3.41440E-14-5.88951E-13
 -1      1766 1.91868E+01 4.37997E+00-1.37511E-02 1.02485E-01 3.76026E-15-5.83950E-13
 -1      1767 1.93635E+01 3.98731E+00-9.14654E-03 1.05572E-02-9.39445E-15-5.66278E-13
 -1      1768 1.92319E+01 4.33833E+00-1.33262E-02 6.86662E-01 8.91422E-14-6.01907E-13
 -1      1769 1.92086E+01 4.35201E+00-1.49151E-02 4.85909E-01 6.61234E-14-6.00381E-13
 -1      1770 1.93810E+01 3.96460E+00-9.18719E-03 3.79485E-01 5.25597E-14-5.80324E-13
 -1      1771 1.93057E+01 4.26493E+00-1.44074E-02 1.08422E+00 1.53462E-13-5.67050E-13
 -1      1772 1.92622E+01 4.28939E+00-1.69712E-02 8.76297E-01 1.24324E-13-5.89842E-13
 -1      1773 1.94340E+01 3.89710E+00-9.19189E-03 7.51540E-01 1.16552E-13-5.72670E-13
 -1      1774 1.94377E+01 4.13774E+00-1.74006E-02 1.51414E+00 2.39318E-13-5.10467E-13
 -1      1775 1.93610E+01 4.18031E+00-2.05016E-02 1.28464E+00 1.92295E-13-5.38592E-13
 -1      1776 1.95340E+01 3.77320E+00-9.23766E-03 1.13520E+00 1.91905E-13-5.26263E-13
 -1      1777 1.96674E+01 3.92118E+00-2.51908E-02 1.97915E+00 3.24614E-13-4.09488E-13
 -1      1778 1.95343E+01 3.99794E+00-2.69046E-02 1.72184E+00 2.78760E-13-4.69853E-13
 -1      1779 1.97078E+01 3.56611E+00-8.69436E-03 1.53482E+00 2.74840E-13-4.65347E-13
 -1      1780 2.00766E+01 3.52282E+00-4.51821E-02 2.47158E+00 3.88231E-13-2.32987E-13
 -1      1781 1.98362E+01 3.68328E+00-3.97255E-02 2.18247E+00 3.48443E-13-3.42018E-13
 -1      1782 2.00048E+01 3.22294E+00-5.27057E-03 1.93409E+00 3.66930E-13-3.44266E-13
 -1      1783 2.09224E+01 2.68181E+00-5.76455E-02 2.85734E+00 4.00566E-13 1.36162E-13
 -1      1784 2.04148E+01 3.09695E+00-5.04298E-02 2.61552E+00 3.84527E-13-8.28920E-14
 -1      1785 2.05185E+01 2.60995E+00 3.18793E-03 2.24407E+00 4.08486E-13-1.35839E-13
 -1      1786 2.17330E+01 1.21296E+00-1.22092E-01 2.32950E+00 3.49790E-13 5.97661E-13
 -1      1787 2.12763E+01 2.26304E+00 1.16806E-04 2.74005E+00 3.70285E-13 2.92877E-13
 -1      1788 2.09391E+01 1.68502E+00-2.29555E-02 2.13976E+00 4.09941E-13 1.42164E-13
 -1      1789 2.09544E+01 7.78670E-01-6.24435E-02 1.52381E+00 3.53537E-13 4.90202E-13
 -1      1790 2.17989E+01 2.45801E+00 9.08968E-02-3.04788E+00-3.32574E-13 5.85101E-13
 -1      1791 2.01038E+01 2.97951E-01-8.91227E-03 6.56658E-01 2.77226E-13 3.40131E-13
 -1      1792 2.06558E+01 4.40412E-01-1.24657E-02 1.03370E+00 2.99552E-13 4.35075E-13
 -1      1793 2.07468E+01 8.45121E-01 2.24545E-03 1.41471E+00 3.52406E-13 2.43319E-13
 -1      1794 2.15094E+01 1.74228E+00 7.95289E-02-2.33703E+00-3.59129E-13 4.32071E-13
 -1      1795 2.05228E+01 5.00833E-01 3.24924E-02-9.21196E-01-2.91843E-13 3.66669E-13
 -1      1796 2.00914E+01 3.52046E-01 7.66235E-03-6.29267E-01-2.61432E-13 2.78282E-13
 -1      1797 1.98970E+01 2.57274E-01 2.74346E-02-3.90919E-01-2.30778E-13 2.60634E-13
 -1      1798 1.97061E+01 1.78020E-01 1.04148E-02-2.53117E-01-2.08308E-13 1.92659E-13
 -1      1799 2.02008E+01 4.83350E-01-5.90443E-03-7.22169E-01-2.94097E-13 1.02533E-13
 -1      1800 1.95841E+01 1.32696E-01 1.66476E-02-1.19596E-01-1.71366E-13 1.83598E-13
 -1      1801 1.95061E+01 9.30207E-02 6.94336E-03-4.88416E-02-1.22258E-13 1.33856E-13
 -1      1802 1.98750E+01 2.43842E-01-5.80146E-03-2.95264E-01-2.19351E-13 5.49517E-14
 -1      1803 1.94412E+01 6.83204E-02 8.67349E-03 2.46217E-02-1.07742E-13 1.14302E-13
 -1      1804 1.94267E+01 4.65986E-02 4.09787E-03 6.07312E-02-1.06699E-13 8.28896E-14
 -1      1805 1.96924E+01 1.25155E-01-4.64163E-03-5.85444E-02-1.47226E-13 1.76797E-14
 -1      1806 1.94006E+01 3.22340E-02 4.22687E-03 9.93235E-02-1.01201E-13 1.03932E-13
 -1      1807 1.94204E+01 1.97642E-02 2.42022E-03 1.15995E-01-8.51622E-14 4.37634E-14
 -1      1808 1.96059E+01 6.07291E-02-3.45653E-03 7.08223E-02-1.05941E-13-2.92171E-14
 -1      1809 1.94185E+01 1.10994E-02 1.84536E-03 1.33758E-01-9.64661E-14 2.20152E-14
 -1      1810 1.94554E+01 3.88639E-03 1.43416E-03 1.39046E-01-9.83841E-14 2.46325E-15
 -1      1811 1.95815E+01 2.37613E-02-2.32996E-03 1.36916E-01-1.12028E-13-4.06835E-14
 -1      1812 1.94677E+01-1.33638E-03 5.43681E-04 1.44229E-01-1.14553E-13-8.89420E-15
 -1      1813 1.95116E+01-5.35392E-03 8.17926E-04 1.42839E-01-1.50889E-13-2.74098E-14
 -1      1814 1.95947E+01 2.14165E-03-1.42783E-03 1.64828E-01-1.24483E-13-1.05098E-13
 -1      1815 1.95313E+01-8.37334E-03-1.78661E-04 1.40566E-01-1.62708E-13 2.37633E-14
 -1      1816 1.95763E+01-1.03714E-02 4.19117E-04 1.35432E-01-1.01522E-13 7.97661E-15
 -1      1817 1.96289E+01-1.02136E-02-7.81056E-04 1.69698E-01-1.16537E-13-7.71433E-14
 -1      1818 1.95990E+01-1.19401E-02-5.65627E-04 1.29003E-01-8.92630E-14-2.42792E-14
 -1      1819 1.96414E+01-1.26441E-02 1.63863E-04 1.22018E-01-6.95846E-14-6.81226E-14
 -1      1820 1.96729E+01-1.67063E-02-3.47774E-04 1.61111E-01-1.33720E-13-6.26567E-14
 -1      1821 1.96644E+01-1.32506E-02-7.46482E-04 1.13597E-01-6.41345E-14-1.06945E-13
 -1      1822 1.97026E+01-1.31294E-02 9.83888E-06 1.05995E-01-4.13527E-14-1.31430E-13
 -1      1823 1.97198E+01-1.94129E-02-7.41226E-05 1.45305E-01-1.07406E-13-7.89680E-14
 -1      1824 1.97243E+01-1.31009E-02-7.97505E-04 9.70044E-02-3.83280E-14-1.49833E-13
 -1      1825 1.97575E+01-1.24620E-02-7.04506E-05 8.95823E-02-1.98109E-14-2.04263E-13
 -1      1826 1.97654E+01-1.96707E-02 8.50121E-05 1.26387E-01-6.59413E-14-1.51313E-13
 -1      1827 1.97771E+01-1.20180E-02-7.67117E-04 8.09533E-02-1.02790E-15-1.88838E-13
 -1      1828 1.98053E+01-1.10594E-02-9.54273E-05 7.42248E-02-2.16166E-14-1.25654E-13
 -1      1829 1.98074E+01-1.83596E-02 1.63141E-04 1.07065E-01-9.04631E-16-1.65551E-13
 -1      1830 1.98226E+01-1.03426E-02-6.86931E-04 6.65639E-02-7.18708E-14-1.00487E-13
 -1      1831 1.98463E+01-9.18364E-03-7.68685E-05 6.08587E-02-7.85148E-14-1.00654E-13
 -1      1832 1.98448E+01-1.60512E-02 1.83978E-04 8.91117E-02-3.18768E-14-6.96025E-14
 -1      1833 1.98615E+01-8.27934E-03-5.77413E-04 5.45700E-02-1.02485E-13-1.38029E-13
 -1      1834 1.98814E+01-6.97994E-03-2.12947E-05 5.01109E-02-9.53821E-14-1.70934E-13
 -1      1835 1.98777E+01-1.30961E-02 1.63730E-04 7.36999E-02-1.07643E-13-1.01743E-13
 -1      1836 1.98949E+01-5.92915E-03-4.51271E-04 4.54863E-02-3.51964E-14-1.88382E-13
 -1      1837 1.99121E+01-4.50332E-03 6.91234E-05 4.24476E-02-1.91964E-14-1.62331E-13
 -1      1838 1.99067E+01-9.67928E-03 1.12945E-04 6.16395E-02-8.29690E-14-1.40932E-13
 -1      1839 1.99246E+01-3.31200E-03-3.15701E-04 3.97366E-02-6.63633E-14-2.20372E-13
 -1      1840 1.99402E+01-1.73653E-03 1.95955E-04 3.82896E-02-7.19950E-14-2.68143E-13
 -1      1841 1.99328E+01-5.85650E-03 3.78877E-05 5.35596E-02-9.52491E-14-1.66502E-13
 -1      1842 1.99525E+01-3.82002E-04-1.73986E-04 3.77546E-02-6.00281E-14-2.67206E-13
 -1      1843 1.99681E+01 1.39767E-03 3.64116E-04 3.81055E-02-7.25785E-14-2.50055E-13
 -1      1844 1.99578E+01-1.57999E-03-5.84189E-05 5.00501E-02-7.34261E-14-1.64144E-13
 -1      1845 1.99812E+01 2.96226E-03-2.66998E-05 4.00672E-02-3.35920E-14-2.80357E-13
 -1      1846 1.99983E+01 5.02845E-03 5.81619E-04 4.24893E-02 2.43367E-14-2.61086E-13
 -1      1847 1.99833E+01 3.28492E-03-1.75342E-04 5.17758E-02-4.60465E-14-1.70560E-13
 -1      1848 2.00135E+01 6.87118E-03 1.27319E-04 4.73655E-02 4.08727E-14-2.89886E-13
 -1      1849 2.00341E+01 9.33207E-03 8.59392E-04 5.22269E-02 6.51534E-14-2.79787E-13
 -1      1850 2.00118E+01 8.94887E-03-3.13908E-04 5.95709E-02-1.42955E-14-2.06334E-13
 -1      1851 2.00527E+01 1.15401E-02 2.90091E-04 6.05663E-02 1.55995E-14-2.66546E-13
 -1      1852 2.00790E+01 1.45286E-02 1.21103E-03 6.83564E-02-3.20366E-14-2.94694E-13
 -1      1853 2.00457E+01 1.56919E-02-4.76108E-04 7.45191E-02 2.64178E-14-2.16782E-13
 -1      1854 2.01028E+01 1.72062E-02 4.63617E-04 8.08676E-02-1.68425E-14-2.29988E-13
 -1      1855 2.01376E+01 2.08786E-02 1.65224E-03 9.22207E-02 5.03438E-14-1.59957E-13
 -1      1856 2.00884E+01 2.38586E-02-6.64155E-04 9.80232E-02 2.83043E-14-1.53672E-13
 -1      1857 2.01685E+01 2.41435E-02 6.48842E-04 1.09796E-01 6.10697E-14-1.91811E-13
 -1      1858 2.02151E+01 2.86747E-02 2.19956E-03 1.25510E-01 8.79942E-14-1.82627E-13
 -1      1859 2.01433E+01 3.38515E-02-8.79628E-04 1.31862E-01 2.39929E-14-7.18654E-14
 -1      1860 2.02553E+01 3.26503E-02 8.44303E-04 1.49239E-01 1.29893E-13-2.50057E-13
 -1      1861 2.03177E+01 3.82214E-02 2.86749E-03 1.70285E-01 7.78406E-14-2.05091E-13
 -1      1862 2.02148E+01 4.61145E-02-1.12243E-03 1.78228E-01 1.11936E-13-2.05382E-13
 -1      1863 2.03698E+01 4.30188E-02 1.04427E-03 2.01443E-01-2.56998E-14-1.50776E-13
 -1      1864 2.04528E+01 4.97865E-02 3.66259E-03 2.28947E-01-8.53423E-14-1.33431E-13
 -1      1865 2.03078E+01 6.10922E-02-1.38960E-03 2.39726E-01 7.75481E-14-1.75998E-13
 -1      1866 2.05197E+01 5.54648E-02 1.23621E-03 2.68941E-01-1.17683E-13-7.30412E-14
 -1      1867 2.06287E+01 6.34944E-02 4.57197E-03 3.04115E-01-1.28510E-13-9.96633E-14
 -1      1868 2.04280E+01 7.91362E-02-1.67419E-03 3.19294E-01-6.99322E-14-1.04916E-13
 -1      1869 2.07137E+01 6.99790E-02 1.39758E-03 3.54328E-01-9.48100E-14-8.21880E-14
 -1      1870 2.08549E+01 7.91066E-02 5.54225E-03 3.98285E-01 2.61371E-14-8.68334E-14
 -1      1871 2.05815E+01 1.00303E-01-1.96489E-03 4.19967E-01-9.98594E-14 7.00356E-14
 -1      1872 2.09611E+01 8.60287E-02 1.49286E-03 4.59748E-01 1.17002E-13-1.67154E-13
 -1      1873 2.11410E+01 9.55940E-02 6.44366E-03 5.13103E-01 1.72291E-13-6.99215E-14
 -1      1874 2.07750E+01 1.23950E-01-2.24776E-03 5.44341E-01 2.74739E-14-1.36936E-14
 -1      1875 2.12718E+01 1.01991E-01 1.47334E-03 5.85830E-01 1.17737E-13-6.98760E-14
 -1      1876 2.14961E+01 1.10354E-01 7.01451E-03 6.47902E-01 4.37371E-14-5.43549E-14
 -1      1877 2.10152E+01 1.47959E-01-2.51290E-03 6.93485E-01 1.24294E-13-1.54298E-13
 -1      1878 2.16545E+01 1.14144E-01 1.28688E-03 7.29659E-01-9.46378E-15-2.81121E-14
 -1      1879 2.19266E+01 1.17877E-01 6.78785E-03 7.96992E-01-3.00411E-14 3.26753E-14
 -1      1880 2.13084E+01 1.67357E-01-2.76952E-03 8.64906E-01 6.50721E-14-8.74632E-14
 -1      1881 2.21154E+01 1.15038E-01 9.10048E-04 8.81162E-01-9.05630E-14 8.39220E-14
 -1      1882 2.24331E+01 1.07752E-01 5.02366E-03 9.45030E-01-9.96469E-14 6.16922E-14
 -1      1883 2.16598E+01 1.72069E-01-3.07155E-03 1.04896E+00-3.89651E-14-2.87740E-14
 -1      1884 2.26549E+01 9.12471E-02 4.19202E-04 1.01722E+00-1.92149E-13 6.44870E-14
 -1      1885 2.30059E+01 6.23463E-02 7.15642E-04 1.05992E+00-1.82991E-13 7.26251E-14
 -1      1886 2.20737E+01 1.43764E-01-3.54430E-03 1.22303E+00-1.59654E-13 1.14787E-13
 -1      1887 2.32635E+01 2.13538E-02 8.29865E-05 1.09328E+00-1.20878E-13 5.90144E-14
 -1      1888 2.36182E+01-4.39791E-02-7.17022E-03 1.08388E+00 9.00261E-14-4.04191E-15
 -1      1889 2.25525E+01 5.28619E-02-4.37108E-03 1.34309E+00-1.06955E-13 1.22112E-13
 -1      1890 2.39141E+01-1.22657E-01 3.67503E-04 1.03433E+00 2.49136E-13-3.02310E-14
 -1      1891 2.42186E+01-2.38693E-01-1.89464E-02 9.27017E-01 2.03511E-13 9.68583E-14
 -1      1892 2.30972E+01-1.40347E-01-5.61965E-03 1.33386E+00 9.92427E-14 1.19540E-14
 -1      1893 2.45504E+01-3.62729E-01 1.47962E-03 7.33431E-01 1.22121E-13 5.50168E-14
 -1      1894 2.47234E+01-5.27268E-01-3.26421E-02 4.76401E-01 9.57793E-14 1.77029E-13
 -1      1895 2.37040E+01-4.70079E-01-6.68758E-03 1.08343E+00 1.56895E-13 6.90927E-14
 -1      1896 2.50673E+01-6.78384E-01 2.12232E-03 7.77156E-02 3.68681E-14 1.98216E-13
 -1      1897 2.50107E+01-8.41185E-01-4.21104E-02-3.53984E-01 7.39339E-14 7.43281E-14
 -1      1898 2.43479E+01-9.18900E-01-5.58144E-03 4.58916E-01 8.59599E-14 2.53431E-13
 -1      1899 2.52880E+01-9.43262E-01-2.49639E-03-9.62951E-01 2.46282E-13 1.98813E-13
 -1      1900 2.49259E+01-9.76193E-01-3.64366E-02-1.50293E+00 2.52685E-13 3.44790E-13
 -1      1901 2.49408E+01-1.33098E+00 6.56387E-04-6.23011E-01 2.33942E-13 2.55410E-13
 -1      1902 2.49885E+01-8.87216E-01-1.52285E-02-2.17259E+00 1.39052E-13 2.49696E-13
 -1      1903 2.43347E+01-6.31698E-01-1.00705E-02-2.60011E+00 1.12170E-13 2.01526E-13
 -1      1904 2.52821E+01-1.36326E+00 1.00164E-02-2.03566E+00 1.82548E-13 3.69232E-13
 -1      1905 2.40357E+01-2.40008E-01-3.96329E-02-2.95827E+00 3.65693E-14 2.78251E-13
 -1      1906 2.32601E+01 2.98563E-01 1.35252E-02-2.94480E+00-5.91818E-14 4.50535E-13
 -1      1907 2.50939E+01-5.93685E-01 1.20674E-02-3.23921E+00 1.05052E-13 3.29397E-13
 -1      1908 2.27212E+01 8.38281E-01-4.91542E-02-2.59087E+00-2.05488E-13 4.13388E-13
 -1      1909 2.21122E+01 1.30895E+00 6.10070E-03-1.98869E+00-1.37147E-13 4.26111E-13
 -1      1910 2.43068E+01 8.61306E-01-2.52437E-02-3.33285E+00-1.29775E-13 3.08620E-13
 -1      1911 2.17705E+01 1.55560E+00-2.11820E-02-9.87979E-01-9.33142E-14 4.03993E-13
 -1      1912 2.15667E+01 1.52767E+00-2.85168E-02-1.20546E-01-1.86101E-14 4.80033E-13
 -1      1913 2.34432E+01 2.07515E+00-6.85405E-02-1.82685E+00-8.79713E-14 4.16295E-13
 -1      1914 2.16703E+01 1.23926E+00 1.45016E-02 8.43810E-01 1.17177E-13 4.17012E-13
 -1      1915 2.18577E+01 7.44155E-01-5.25634E-02 1.40039E+00 1.08576E-13 4.37296E-13
 -1      1916 2.31981E+01 1.99824E+00-6.97355E-02 4.19431E-01-3.21965E-14 6.04032E-13
 -1      1917 2.21218E+01 2.14091E-01 1.73903E-02 1.69418E+00-5.42275E-15 5.62059E-13
 -1      1918 2.24643E+01-2.94471E-01-3.90821E-02 1.67162E+00 2.02926E-13 6.80565E-13
 -1      1919 2.35370E+01 7.37324E-01-2.27067E-02 1.80761E+00 1.58994E-13 6.54336E-13
 -1      1920 2.24766E+01-6.35527E-01-7.74984E-03 1.30187E+00 8.15719E-14 6.78327E-13
 -1      1921 2.27076E+01-8.30363E-01-1.08788E-02 8.94734E-01 9.51930E-14 6.77959E-13
 -1      1922 2.37544E+01-6.32289E-01 9.13209E-03 1.63518E+00 5.79719E-14 7.79744E-13
 -1      1923 2.23883E+01-8.56258E-01-3.04686E-02 2.96796E-01 7.66852E-14 4.31545E-13
 -1      1924 2.23826E+01-7.47865E-01 8.70417E-03-1.47737E-01 4.37966E-14 4.06209E-13
 -1      1925 2.34016E+01-1.21947E+00 8.93343E-03 5.07714E-01-2.47033E-14 2.93160E-13
 -1      1926 2.18861E+01-5.67860E-01-3.52422E-02-5.91412E-01 5.95851E-14 3.01226E-13
 -1      1927 2.16737E+01-3.07436E-01 1.68759E-02-8.35333E-01 8.62426E-14 2.97798E-13
 -1      1928 2.25907E+01-9.77681E-01-2.89738E-03-6.37775E-01-9.42389E-15 1.50296E-13
 -1      1929 2.11932E+01-9.30211E-02-2.72992E-02-9.30448E-01 7.54969E-14 2.75259E-13
 -1      1930 2.09168E+01 1.73880E-01 2.51341E-02-9.03109E-01-1.04364E-13 2.80951E-13
 -1      1931 2.08554E+01 3.20775E-01 5.10673E-04-1.14924E+00-1.59849E-13 1.99101E-13
 -1      1932 2.16675E+01-2.81828E-01 5.67749E-03-1.20359E+00-4.40082E-14 2.92729E-13
 -1      1933 1.96214E+01 1.42049E-01 7.88488E-03 2.59014E-01 2.16714E-13 1.95658E-13
 -1      1934 1.98933E+01 2.04109E-01 1.64345E-02 4.32028E-01 2.39921E-13 2.97578E-13
 -1      1935 2.01047E+01 3.50565E-01-1.53368E-03 6.54517E-01 2.84524E-13 1.54758E-13
 -1      1936 1.93793E+01 7.19208E-02 6.95042E-03 5.60246E-02 1.56149E-13 9.93450E-14
 -1      1937 1.94941E+01 1.01808E-01 1.41963E-02 1.44554E-01 1.57482E-13 1.55299E-13
 -1      1938 1.97121E+01 1.65201E-01-1.94374E-03 2.55739E-01 2.06771E-13 8.85732E-14
 -1      1939 1.92891E+01 3.61541E-02 4.43263E-03-4.94433E-02 9.08579E-14 7.00971E-14
 -1      1940 1.93191E+01 5.19689E-02 8.33650E-03-2.22389E-03 1.13393E-13 1.08241E-13
 -1      1941 1.95121E+01 8.06891E-02-2.82255E-03 4.37447E-02 1.40491E-13 1.51151E-14
 -1      1942 1.92876E+01 1.62071E-02 2.86301E-03-1.01937E-01 5.18923E-14-6.23481E-15
 -1      1943 1.92722E+01 2.50731E-02 4.35121E-03-7.73057E-02 7.24778E-14 4.35294E-14
 -1      1944 1.94332E+01 3.74814E-02-2.83976E-03-6.81598E-02 9.29038E-14-2.15463E-14
 -1      1945 1.93350E+01 4.56371E-03 1.98720E-03-1.24013E-01 9.19107E-14-4.48977E-14
 -1      1946 1.92965E+01 9.60204E-03 2.14510E-03-1.12582E-01 5.47465E-14-2.68414E-14
 -1      1947 1.94268E+01 1.36386E-02-2.31044E-03-1.23697E-01 7.77520E-14-1.14984E-13
 -1      1948 1.94066E+01-2.23651E-03 1.44401E-03-1.28187E-01 7.07738E-14-1.33994E-13
 -1      1949 1.93580E+01 5.14203E-04 9.45742E-04-1.24695E-01 8.49613E-14-7.05257E-14
 -1      1950 1.94615E+01 3.99266E-05-1.69076E-03-1.46205E-01 1.12460E-13-1.79093E-13
 -1      1951 1.94871E+01-6.01664E-03 1.06239E-03-1.21998E-01 8.65082E-14-2.36876E-13
 -1      1952 1.94361E+01-4.69074E-03 2.72635E-04-1.23235E-01 8.26071E-14-1.72480E-13
 -1      1953 1.95171E+01-7.57864E-03-1.16865E-03-1.49148E-01 1.34416E-13-2.26829E-13
 -1      1954 1.95674E+01-7.84897E-03 7.77853E-04-1.10216E-01 6.02381E-14-2.16234E-13
 -1      1955 1.95185E+01-7.42254E-03-1.10070E-04-1.14123E-01 6.50655E-14-2.17300E-13
 -1      1956 1.95810E+01-1.14906E-02-7.76753E-04-1.40815E-01 8.18576E-14-2.30715E-13
 -1      1957 1.96422E+01-8.41320E-03 5.63640E-04-9.59330E-02 9.09953E-14-2.13899E-13
 -1      1958 1.95977E+01-8.54843E-03-3.17514E-04-1.01155E-01 8.84302E-14-1.96456E-13
 -1      1959 1.96455E+01-1.30398E-02-4.96625E-04-1.26507E-01 8.81569E-14-2.03541E-13
 -1      1960 1.97088E+01-8.15743E-03 4.04866E-04-8.11591E-02 4.16796E-14-1.83908E-13
 -1      1961 1.96700E+01-8.63165E-03-4.12775E-04-8.67984E-02 8.05953E-14-1.81235E-13
 -1      1962 1.97060E+01-1.30766E-02-3.02592E-04-1.09683E-01 6.69330E-14-1.84234E-13
 -1      1963 1.97664E+01-7.37858E-03 2.91360E-04-6.71919E-02 6.98128E-14-2.51868E-13
 -1      1964 1.97333E+01-8.04558E-03-4.34584E-04-7.26574E-02 3.81385E-14-2.14265E-13
 -1      1965 1.97604E+01-1.21567E-02-1.73194E-04-9.25974E-02 7.02512E-14-1.79419E-13
 -1      1966 1.98152E+01-6.26724E-03 2.15839E-04-5.48610E-02 1.37520E-14-2.36185E-13
 -1      1967 1.97876E+01-7.03440E-03-4.08097E-04-5.97626E-02 1.65276E-14-2.40880E-13
 -1      1968 1.98078E+01-1.06412E-02-9.24384E-05-7.67157E-02 3.76520E-14-1.95460E-13
 -1      1969 1.98563E+01-4.93583E-03 1.73285E-04-4.47023E-02 1.73444E-14-2.82584E-13
 -1      1970 1.98334E+01-5.74906E-03-3.49666E-04-4.87769E-02 1.61855E-14-2.54821E-13
 -1      1971 1.98486E+01-8.75417E-03-4.89337E-05-6.29872E-02 2.49938E-14-1.95713E-13
 -1      1972 1.98912E+01-3.43797E-03 1.60630E-04-3.70875E-02 1.10958E-14-2.45615E-13
 -1      1973 1.98720E+01-4.27110E-03-2.69495E-04-4.01432E-02 1.91731E-14-2.35998E-13
 -1      1974 1.98835E+01-6.61817E-03-3.47958E-05-5.20471E-02-4.16643E-15-2.45615E-13
 -1      1975 1.99220E+01-1.78268E-03 1.76465E-04-3.23205E-02 1.01743E-13-2.40176E-13
 -1      1976 1.99053E+01-2.62959E-03-1.73377E-04-3.41939E-02 3.87300E-14-2.34752E-13
 -1      1977 1.99141E+01-4.28015E-03-4.48980E-05-4.43636E-02 6.10684E-14-1.66246E-13
 -1      1978 1.99510E+01 5.41768E-05 2.20745E-04-3.07100E-02-8.23607E-15-1.93477E-13
 -1      1979 1.99354E+01-8.14063E-04-6.39700E-05-3.12334E-02 9.60444E-14-1.86156E-13
 -1      1980 1.99423E+01-1.73022E-03-7.62979E-05-4.03475E-02 5.70802E-14-1.56093E-13
 -1      1981 1.99808E+01 2.11948E-03 2.94413E-04-3.26203E-02-1.03324E-13-2.94749E-13
 -1      1982 1.99649E+01 1.21429E-03 5.81710E-05-3.15982E-02-7.35493E-14-2.83305E-13
 -1      1983 1.99700E+01 1.08236E-03-1.27743E-04-4.04328E-02 2.91732E-15-1.97953E-13
 -1      1984 2.00146E+01 4.47192E-03 3.98852E-04-3.85034E-02 5.54079E-15-3.51941E-13
 -1      1985 1.99966E+01 3.51173E-03 1.93653E-04-3.56967E-02-8.51927E-14-3.52176E-13
 -1      1986 2.00000E+01 4.23379E-03-1.99227E-04-4.51309E-02-4.19472E-14-3.34490E-13
 -1      1987 2.00556E+01 7.16850E-03 5.35025E-04-4.89084E-02 6.19700E-14-4.37268E-13
 -1      1988 2.00337E+01 6.13936E-03 3.43257E-04-4.40286E-02 2.20721E-14-3.92252E-13
 -1      1989 2.00349E+01 7.80861E-03-2.91546E-04-5.50579E-02 4.13323E-14-4.28337E-13
 -1      1990 2.01080E+01 1.02460E-02 7.02132E-04-6.44612E-02 1.50049E-13-4.14745E-13
 -1      1991 2.00798E+01 9.14658E-03 5.06783E-04-5.71777E-02 1.44920E-13-3.86847E-13
 -1      1992 2.00781E+01 1.18774E-02-4.05772E-04-7.09300E-02 1.16077E-13-3.62107E-13
 -1      1993 2.01760E+01 1.36941E-02 8.95563E-04-8.58053E-02 1.98805E-14-4.54381E-13
 -1      1994 2.01391E+01 1.25475E-02 6.81579E-04-7.57709E-02 8.13480E-14-4.36691E-13
 -1      1995 2.01331E+01 1.64652E-02-5.42614E-04-9.35174E-02 9.63947E-14-3.95242E-13
 -1      1996 2.02643E+01 1.74148E-02 1.10387E-03-1.13484E-01-1.30023E-13-4.84681E-13
 -1      1997 2.02160E+01 1.62860E-02 8.60606E-04-1.00388E-01-1.47355E-13-5.22292E-13
 -1      1998 2.02039E+01 2.15055E-02-7.01563E-04-1.23538E-01-4.61044E-14-4.25471E-13
 -1      1999 2.03779E+01 2.11648E-02 1.30451E-03-1.47736E-01-1.50524E-13-1.13951E-13
 -1      2000 2.03155E+01 2.01846E-02 1.02994E-03-1.31399E-01-1.52121E-13-3.29323E-13
 -1      2001 2.02947E+01 2.67723E-02-8.79748E-04-1.61468E-01-1.78847E-13-3.74886E-13
 -1      2002 2.05213E+01 2.44718E-02 1.45835E-03-1.88174E-01-1.06925E-13-8.98370E-16
 -1      2003 2.04422E+01 2.38708E-02 1.16566E-03-1.68701E-01-8.46097E-14-4.05064E-14
 -1      2004 2.04097E+01 3.17819E-02-1.07035E-03-2.07228E-01-1.52810E-13-1.24010E-13
 -1      2005 2.06984E+01 2.65241E-02 1.50341E-03-2.33299E-01-1.82560E-14 1.59165E-13
 -1      2006 2.06005E+01 2.66759E-02 1.23051E-03-2.11313E-01-4.09991E-14 8.09386E-14
 -1      2007 2.05528E+01 3.56583E-02-1.26036E-03-2.59710E-01-5.37824E-14 4.57984E-14
 -1      2008 2.09106E+01 2.60365E-02 1.34996E-03-2.79805E-01-6.33008E-14 1.17023E-13
 -1      2009 2.07933E+01 2.75060E-02 1.17106E-03-2.56792E-01-8.65956E-14 1.18526E-13
 -1      2010 2.07264E+01 3.69610E-02-1.42717E-03-3.16084E-01-7.83111E-14 1.42752E-13
 -1      2011 2.11560E+01 2.11225E-02 8.81380E-04-3.21675E-01 2.81003E-14 1.51508E-13
 -1      2012 2.10208E+01 2.47029E-02 9.17477E-04-3.00435E-01-5.11323E-14 1.99779E-13
 -1      2013 2.09313E+01 3.34969E-02-1.53344E-03-3.70865E-01-6.23917E-14 2.42815E-13
 -1      2014 2.14264E+01 9.24931E-03-3.04020E-05-3.49118E-01 2.01303E-13 2.45228E-13
 -1      2015 2.12787E+01 1.59465E-02 3.89224E-04-3.34317E-01 1.73111E-13 2.76495E-13
 -1      2016 2.11641E+01 2.21850E-02-1.51925E-03-4.14767E-01 9.80103E-14 3.77578E-13
 -1      2017 2.17053E+01-1.25496E-02-1.48216E-03-3.47644E-01 5.30433E-14-9.70422E-14
 -1      2018 2.15557E+01-1.67029E-03-4.88142E-04-3.46313E-01 1.27186E-13 2.49735E-14
 -1      2019 2.14165E+01-8.56736E-04-1.29129E-03-4.33526E-01 2.41005E-13 2.15227E-13
 -1      2020 2.19645E+01-4.68997E-02-3.45725E-03-2.97917E-01 8.66943E-14-1.74205E-13
 -1      2021 2.18307E+01-3.11472E-02-1.75198E-03-3.19588E-01 7.15443E-15-1.76100E-13
 -1      2022 2.16720E+01-3.96756E-02-7.12069E-04-4.07218E-01 1.15290E-13-1.26416E-13
 -1      2023 2.21623E+01-9.43111E-02-5.70343E-03-1.77671E-01-1.57945E-13-5.01136E-14
 -1      2024 2.20699E+01-7.42601E-02-3.35447E-03-2.33500E-01 1.43067E-14-1.57311E-13
 -1      2025 2.19045E+01-9.67799E-02 3.98972E-04-3.11122E-01 2.09112E-14-6.07001E-14
 -1      2026 2.22440E+01-1.50099E-01-7.61712E-03 3.23759E-02-2.02085E-13-3.08076E-14
 -1      2027 2.22255E+01-1.29000E-01-5.10895E-03-6.75034E-02-1.91677E-13-9.99942E-14
 -1      2028 2.20761E+01-1.69801E-01 2.22930E-03-1.19926E-01-1.67765E-13-8.24612E-14
 -1      2029 2.21473E+01-2.00534E-01-8.27860E-03 3.36657E-01-1.88165E-14 9.02100E-15
 -1      2030 2.22374E+01-1.85776E-01-6.64752E-03 1.90014E-01-1.40654E-13 5.93194E-14
 -1      2031 2.21374E+01-2.46543E-01 4.85277E-03 1.82417E-01-1.60865E-13-5.94613E-14
 -1      2032 2.18168E+01-2.21035E-01-6.86564E-03 7.07326E-01 8.81795E-14 2.51157E-13
 -1      2033 2.20426E+01-2.24109E-01-7.46390E-03 5.27080E-01 1.14662E-13 1.66178E-13
 -1      2034 2.20330E+01-3.00536E-01 7.93918E-03 5.85817E-01 6.26842E-14 3.82502E-13
 -1      2035 2.12282E+01-1.81693E-01-3.36917E-03 1.06856E+00-1.25860E-13 2.35789E-13
 -1      2036 2.15947E+01-2.14232E-01-6.96507E-03 8.91440E-01-3.40552E-14 1.85867E-13
 -1      2037 2.17151E+01-2.92915E-01 1.03774E-02 1.03353E+00 2.52177E-14 4.78007E-13
 -1      2038 2.04201E+01-6.47729E-02 6.82980E-04 1.29918E+00 7.64820E-14 1.46346E-13
 -1      2039 2.08958E+01-1.29448E-01-4.57564E-03 1.18375E+00-3.43514E-14 1.35508E-13
 -1      2040 2.11697E+01-1.87671E-01 1.03981E-02 1.41107E+00 2.76558E-14 2.12768E-13
 -1      2041 1.95181E+01 1.10137E-01 2.51724E-03 1.27326E+00-1.09865E-13 2.51245E-13
 -1      2042 2.00280E+01 2.97011E-02-2.35637E-04 1.27913E+00-4.52006E-14 1.79646E-13
 -1      2043 2.04507E+01 1.81695E-02 6.38518E-03 1.56644E+00-8.24459E-14-9.78558E-15
 -1      2044 1.87224E+01 2.76727E-01 7.38199E-04 9.37218E-01 6.65006E-14 2.99000E-13
 -1      2045 1.91613E+01 2.15132E-01 5.40942E-03 1.08761E+00-9.15249E-14 2.39662E-13
 -1      2046 1.96984E+01 2.67575E-01-1.00855E-03 1.37842E+00-9.93207E-14 8.99359E-14
 -1      2047 1.82367E+01 3.52131E-01-2.80487E-03 3.74394E-01-4.16958E-14 3.11258E-13
 -1      2048 1.85045E+01 3.42804E-01 1.05979E-02 6.27482E-01 1.07876E-13 3.32470E-13
 -1      2049 1.91075E+01 4.54984E-01-7.42322E-03 8.49271E-01 9.72651E-14 3.80677E-13
 -1      2050 1.81629E+01 2.97898E-01-4.22841E-03-2.13793E-01-1.24191E-13 3.92251E-13
 -1      2051 1.82099E+01 3.46334E-01 1.29108E-02 4.84899E-02-8.80806E-14 3.55899E-13
 -1      2052 1.88343E+01 4.87702E-01-8.21366E-03 1.46528E-01-1.23481E-13 5.28954E-13
 -1      2053 1.84408E+01 1.52793E-01-1.60906E-03-6.21032E-01 3.09717E-13 1.65399E-13
 -1      2054 1.82924E+01 2.30346E-01 1.09632E-02-4.40352E-01-2.46417E-15 2.24168E-13
 -1      2055 1.89017E+01 3.54499E-01-3.55451E-03-4.72905E-01 1.11783E-13 2.96521E-13
 -1      2056 1.88913E+01 2.28921E-03 3.15308E-03-7.55661E-01 4.94571E-13 1.67189E-13
 -1      2057 1.86314E+01 6.77839E-02 5.56198E-03-6.93121E-01 5.17265E-13 2.25507E-13
 -1      2058 1.91903E+01 1.37111E-01 1.63107E-03-8.14247E-01 4.26412E-13 4.12644E-13
 -1      2059 1.93282E+01-8.48738E-02 7.24538E-03-6.71153E-01 1.31416E-13 1.46963E-13
 -1      2060 1.90516E+01-5.61851E-02-2.83396E-04-7.00266E-01 2.74272E-13 2.10681E-13
 -1      2061 1.95240E+01-5.03943E-02 3.14274E-03-8.48056E-01 2.79682E-13 5.39644E-13
 -1      2062 1.96432E+01-9.60525E-02 8.48729E-03-4.98829E-01-2.33156E-14-9.18406E-14
 -1      2063 1.94143E+01-1.00431E-01-3.82201E-03-5.61555E-01 1.41081E-13 6.72383E-14
 -1      2064 1.97728E+01-1.36087E-01 1.96824E-03-6.87347E-01 2.46947E-13 8.76239E-14
 -1      2065 1.98225E+01-7.39795E-02 6.40001E-03-3.41246E-01-1.26457E-13-1.10863E-13
 -1      2066 1.96675E+01-8.73413E-02-4.17373E-03-3.97060E-01-1.08387E-13-7.49253E-14
 -1      2067 1.99000E+01-1.35500E-01-5.41813E-04-4.83845E-01-4.18593E-14 1.49616E-13
 -1      2068 1.99209E+01-8.55571E-02 4.38133E-03-2.36148E-01-1.91108E-13 5.08719E-14
 -1      2069 1.98225E+01-8.03123E-02-2.86094E-03-2.94269E-01-1.43011E-13 4.92885E-14
 -1      2070 1.99562E+01-1.26759E-01-1.80860E-03-3.48093E-01-1.88974E-13 4.05085E-13
 -1      2071 1.99865E+01-1.30215E-01 9.45079E-03-2.62056E-01-1.13463E-13 5.16268E-13
 -1      2072 2.06838E+01 1.78712E-01 3.29317E-02 9.34636E-01 2.02656E-13-2.63891E-13
 -1      2073 2.05748E+01-1.24353E-01 3.30271E-03 5.78488E-01 2.26141E-13 5.78582E-14
 -1      2074 2.04510E+01-1.36238E-01 2.64814E-02 2.19880E-01 1.94173E-13 1.67372E-13
 -1      2075 2.03181E+01-2.35101E-01 1.25207E-03 6.49092E-03 1.00144E-13 2.82910E-13
 -1      2076 2.07712E+01-2.62821E-01-7.25934E-03 4.87388E-01 7.04643E-14 1.65484E-13
 -1      2077 2.02028E+01-1.96712E-01 1.75452E-02-1.54694E-01 7.85396E-15 3.99758E-13
 -1      2078 2.00834E+01-1.75251E-01 2.64254E-03-2.23897E-01-1.10599E-13 5.31224E-13
 -1      2079 2.00944E+01-1.67087E-01-1.23855E-03-2.66332E-01-1.92831E-13 6.48382E-13
 -1      2080 2.04264E+01-2.48819E-01 3.31305E-04-5.71186E-02-9.78419E-14 4.52186E-13
 -1      2081 2.07584E+01 8.65415E-01 2.61729E-02 1.83534E+00-7.19468E-14-7.65459E-13
 -1      2082 2.07411E+01 3.25228E-01 8.82541E-03 1.42289E+00 1.37504E-14-4.78725E-13
 -1      2083 2.10538E+01-8.54487E-02-1.30838E-02 1.42421E+00 8.71341E-15-4.36292E-13
 -1      2084 2.05502E+01 1.99676E+00 4.83552E-03 2.70280E+00-1.88327E-13-1.97041E-13
 -1      2085 2.07012E+01 1.21853E+00 1.48426E-02 2.35495E+00-1.40454E-13-3.17794E-13
 -1      2086 2.10582E+01 4.16545E-01-2.08746E-02 2.54523E+00 1.21730E-13-5.40515E-13
 -1      2087 1.99683E+01 3.48269E+00-2.68580E-02 3.09848E+00-1.12570E-13 1.40993E-13
 -1      2088 2.03142E+01 2.59962E+00 2.04181E-02 3.02285E+00-1.77962E-13 2.41356E-14
 -1      2089 2.05970E+01 1.36155E+00-2.04723E-02 3.50693E+00-9.04884E-14-9.66176E-14
 -1      2090 1.91598E+01 5.01056E+00-5.01676E-02 2.59965E+00-1.90540E-13 4.77623E-13
 -1      2091 1.95852E+01 4.24469E+00 1.70524E-02 2.95449E+00-3.31282E-13 2.29681E-13
 -1      2092 1.96379E+01 2.70868E+00 2.50133E-04 3.74660E+00-4.44688E-14 4.80336E-14
 -1      2093 1.85482E+01 6.05180E+00-4.66237E-02 1.12611E+00-1.61601E-13-2.33483E-13
 -1      2094 1.88065E+01 5.64738E+00-3.70239E-03 1.87171E+00-2.77287E-13 2.78555E-13
 -1      2095 1.85134E+01 4.10157E+00 3.91957E-02 2.79302E+00-4.25878E-13 2.77525E-13
 -1      2096 1.85496E+01 6.12546E+00-1.86680E-02-8.04418E-01-2.26649E-13-2.70443E-14
 -1      2097 1.84615E+01 6.22261E+00-3.31639E-02 3.88734E-02-1.19778E-13-2.38618E-13
 -1      2098 1.78434E+01 4.90906E+00 6.69129E-02 7.31506E-01-2.37174E-13-2.78125E-13
 -1      2099 1.91447E+01 5.20967E+00 9.35203E-03-2.32271E+00-3.93909E-13-2.76904E-13
 -1      2100 1.87857E+01 5.74122E+00-5.10907E-02-1.74988E+00-4.63615E-13-5.16392E-14
 -1      2101 1.80763E+01 4.68878E+00 6.04441E-02-1.59460E+00-3.70609E-13-2.03261E-13
 -1      2102 1.99386E+01 3.71412E+00 1.92338E-02-2.93676E+00-2.94329E-13 2.59035E-13
 -1      2103 1.95365E+01 4.51119E+00-4.12218E-02-2.78646E+00-2.44969E-13 8.52981E-14
 -1      2104 1.90119E+01 3.61111E+00 1.97265E-02-3.18015E+00-2.23526E-13-8.31731E-14
 -1      2105 2.04974E+01 2.23848E+00 1.65526E-02-2.64370E+00-1.24734E-13 4.92028E-14
 -1      2106 2.02550E+01 3.05244E+00-1.03730E-02-2.85142E+00-2.72163E-13 1.16157E-13
 -1      2107 2.01000E+01 2.26487E+00-1.07709E-02-3.55651E+00-2.82983E-13 1.46976E-13
 -1      2108 2.06810E+01 1.14911E+00 7.74396E-03-1.87474E+00-1.16254E-13 5.34911E-14
 -1      2109 2.06113E+01 1.79751E+00 1.14767E-02-2.23963E+00-1.73177E-14-4.28295E-14
 -1      2110 2.08032E+01 1.18259E+00-1.73030E-02-2.96422E+00-7.56270E-14-2.56540E-14
 -1      2111 1.39241E+01-6.02620E+00-7.73770E-02 7.96466E+00-5.72875E-14-3.76532E-13
 -1      2112 9.59405E+00-7.42663E+00-2.56083E-01 6.89250E+00 7.18869E-14-1.32006E-13
 -1      2113 4.50675E-01-8.20454E+00-4.18499E-01 1.05632E+00-1.60261E-13 4.87110E-13
 -1      2114 3.63640E-01-9.04099E+00-5.55700E-01-9.07626E-01-1.51268E-13 1.74361E-13
 -1      2115 5.27964E+00-6.59746E+00-1.61758E-01 5.78338E+00-9.05387E-14 5.45120E-14
 -1      2116 2.53876E+00-7.79107E+00-3.69982E-01 3.51764E+00-3.07310E-13 4.94993E-13
 -1      2117 2.32942E+01-3.15897E+00 1.04546E-01 7.73876E+00 2.16049E-13-8.43825E-13
 -1      2118 1.83241E+01-5.64792E+00-2.35135E-01 7.17555E+00-3.55271E-15-5.03486E-13
 -1      2119 3.17370E+01 3.50332E-02 1.55779E-01 6.01646E+00 1.77969E-13-6.26721E-13
 -1      2120 2.65298E+01-1.97780E+00-1.07304E-01 6.32773E+00 3.59268E-13-7.34635E-13
 -1      2121 2.70795E+01-4.46535E+00 9.72276E-02 5.88539E+00 1.16129E-13-8.32556E-13
 -1      2122 1.95227E+01 4.01604E+00-2.56671E-02-1.70046E+00-2.97632E-13-4.14821E-13
 -1      2123 1.96512E+01 3.94252E+00-2.43499E-02-1.95560E+00-3.38682E-13-3.33587E-13
 -1      2124 1.99732E+01 3.25312E+00-8.05648E-03-1.90871E+00-3.66201E-13-2.66325E-13
 -1      2125 1.96933E+01 3.58313E+00-9.29390E-03-1.51722E+00-2.97428E-13-4.11952E-13
 -1      2126 4.27313E+01 7.45326E+00 5.11407E-01 1.71484E+00-1.97620E-14-8.41938E-13
 -1      2127 3.96896E+01 6.66662E+00 2.59828E-01 2.28787E+00 1.00142E-13-7.24143E-13
 -1      2128 4.10474E+01 7.81170E+00 2.22384E-01-9.58769E-02-1.41998E-13-7.03215E-13
 -1      2129 4.25685E+01 7.91415E+00 4.42097E-01 9.33323E-01-2.37033E-13-9.00710E-13
 -1      2130 3.96006E+01 5.40528E+00 3.52158E-01-2.45572E+00 2.06751E-13-9.94205E-13
 -1      2131 4.10153E+01 6.61351E+00 3.22789E-01-7.69027E-01 6.80567E-14-9.53404E-13
 -1      2132 3.33523E+01 1.85064E+00 1.22254E-01-3.67065E+00 3.81029E-13-7.05991E-13
 -1      2133 3.79614E+01 3.80188E+00 4.48342E-01-3.66877E+00 4.04392E-13-8.85958E-13
 -1      2134 3.61839E+01 4.19972E+00 2.32516E-01-3.57448E-01 1.52184E-13-8.92286E-13
 -1      2135 2.44856E+01-2.52620E+00-1.43055E-01-5.64677E+00 2.12386E-13-8.30280E-13
 -1      2136 2.95623E+01-1.06415E+00 8.16913E-04-5.02031E+00 2.73670E-13-7.36633E-13
 -1      2137 1.51832E+01-5.33794E+00-3.34996E-01-6.30557E+00 6.23723E-13-4.36012E-13
 -1      2138 2.02476E+01-3.16498E+00-8.53483E-03-7.11149E+00 4.52083E-13-6.20892E-13
 -1      2139 7.92596E+00-7.41375E+00-3.13510E-01-5.81649E+00 5.35849E-13-1.09537E-13
 -1      2140 1.17513E+01-5.80462E+00-1.12434E-01-6.80866E+00 5.46119E-13-2.77993E-13
 -1      2141 1.54439E+00-8.54519E+00-4.27374E-01-3.11987E+00 4.98546E-13-6.14120E-13
 -1      2142 3.87019E+00-7.03310E+00-2.12820E-01-4.82255E+00 5.73153E-13-3.61156E-13
 -1      2143 7.97877E-03-8.11311E+00-3.31973E-01-2.47608E-02 3.91007E-13-1.39166E-13
 -1      2144 2.22271E-01-8.45920E+00-3.88866E-01-1.61508E+00 4.75231E-13-4.01623E-13
 -1      2145 2.32906E+00-5.69762E+00-1.53191E-01-3.09227E+00 3.91687E-13-5.51670E-13
 -1      2146 2.83239E+00-8.16068E+00-3.45321E-01 3.49120E+00 1.45217E-13-2.83717E-13
 -1      2147 9.36784E-01-8.66514E+00-4.17704E-01 2.06625E+00 2.54130E-13-2.44693E-13
 -1      2148 9.52532E+00-6.89305E+00-2.03103E-01 5.71697E+00 1.00586E-13-3.28786E-13
 -1      2149 5.92662E+00-8.38159E+00-4.31895E-01 4.50595E+00 1.15519E-13-2.28373E-13
 -1      2150 1.85167E+01-4.83781E+00-5.57749E-02 6.25464E+00-6.88338E-15-5.50171E-13
 -1      2151 1.37376E+01-6.84054E+00-3.69307E-01 5.48877E+00 9.78106E-14-5.13090E-13
 -1      2152 2.79720E+01-2.27176E+00 5.89847E-02 5.03609E+00-1.61537E-14-4.66183E-13
 -1      2153 2.23982E+01-4.09345E+00-2.42354E-01 5.08933E+00 7.16094E-15-4.02456E-13
 -1      2154 3.64979E+01 1.77350E+00 2.88198E-01 2.44994E+00-1.03893E-13 8.64864E-14
 -1      2155 3.16345E+01-3.31956E-01-4.55533E-02 2.82036E+00 2.59515E-14-6.00631E-14
 -1      2156 4.20106E+01 5.51209E+00 4.73676E-01 6.82338E-01-1.61482E-13 7.21645E-15
 -1      2157 3.84027E+01 4.16436E+00 1.66940E-01 1.46215E+00-1.49658E-13 5.39568E-14
 -1      2158 4.28819E+01 7.50206E+00 3.66385E-01-1.13875E+00-7.91034E-14 3.23352E-14
 -1      2159 4.28413E+01 6.74953E+00 4.40721E-01 1.02578E-01-5.37348E-14-5.95635E-14
 -1      2160 3.83973E+01 6.69357E+00 3.99172E-01-1.39275E+00 2.44249E-15 3.69316E-13
 -1      2161 4.18014E+01 6.97567E+00 4.00877E-01-2.25377E+00-1.71974E-13 2.55906E-14
 -1      2162 4.19675E+01 7.53951E+00 3.26294E-01-1.26799E+00-9.07052E-14 1.44162E-13
 -1      2163 3.87908E+01 4.62677E+00 2.55877E-01-4.09794E+00-3.74312E-13-2.75446E-13
 -1      2164 4.19234E+01 5.71294E+00 4.38624E-01-3.24299E+00-2.28095E-13-3.16136E-13
 -1      2165 3.22404E+01 7.43073E-01 2.59052E-02-5.44279E+00-3.95739E-13-1.01252E-13
 -1      2166 3.69808E+01 2.68692E+00 4.11203E-01-5.19767E+00-5.02424E-13-3.53828E-13
 -1      2167 2.43539E+01-3.44889E+00-1.76680E-01-6.56454E+00-2.59737E-13 1.67866E-13
 -1      2168 2.94221E+01-1.20018E+00 2.05715E-01-6.81633E+00-2.33036E-13 1.18350E-13
 -1      2169 1.49925E+01-6.45805E+00-3.91505E-01-6.91154E+00-2.15716E-13 1.46827E-13
 -1      2170 1.99764E+01-4.14524E+00-1.44270E-02-7.84589E+00-3.15303E-13 1.40721E-13
 -1      2171 7.51762E+00-8.01766E+00-3.44184E-01-6.18514E+00-3.05533E-13 4.69513E-13
 -1      2172 1.10475E+01-6.68470E+00-2.27412E-01-7.16405E+00-2.32592E-13 4.73607E-13
 -1      2173 1.27043E+00-9.31587E+00-6.38913E-01-2.62130E+00-1.66200E-13 2.89491E-13
 -1      2174 3.49919E+00-7.90683E+00-4.14152E-01-4.55542E+00-2.59348E-13 4.91274E-13
 -1      2175 2.31141E+00-5.96406E+00-2.67642E-01-2.32667E+00-1.50963E-13 2.94487E-13
 -1      2176 3.75573E+01 3.97636E+00 1.14613E-01 2.77199E+00 1.48770E-13-6.68465E-13
 -1      2177 3.45559E+01 2.29652E+00 1.03528E-01 3.93707E+00 2.18534E-13-6.08069E-13
 -1      2178 2.07375E+01 1.10872E+00-2.05716E-02-1.61575E+00-3.43600E-13 3.43246E-13
 -1      2179 3.30584E+01-2.72609E-01 2.24804E-01 2.87255E+00 2.80574E-13-5.55944E-13
 -1      2180 3.47517E+01 5.77099E+00-1.57837E-01-3.17852E-01 1.56319E-13-6.11455E-13
 -1      2181 3.69959E+01 5.06671E+00 1.67230E-01 1.34863E+00 4.72677E-14-5.93192E-13
 -1      2182 3.39354E+01 3.38511E+00 7.86210E-02 8.13916E-02 1.36419E-13-5.79370E-13
 -1      2183 2.06273E+01 1.32945E+00-1.88400E-02-1.67710E+00-3.70771E-13 1.21706E-13
 -1      2184 9.67251E+00-5.90467E+00-6.27949E-02 7.22181E+00-2.90712E-13-4.20775E-14
 -1      2185 3.18064E+00-5.17600E+00-1.48859E-01 2.87823E+00-3.51219E-13 3.53106E-13
 -1      2186 2.07635E+01 7.76636E-01 1.49178E-02-1.67232E+00-1.34927E-13-1.75242E-14
 -1      2187 1.88909E+01-6.57094E+00-7.81280E-02 7.93683E+00-2.53519E-13-6.10026E-13
 -1      2188 6.91464E+00-7.04737E+00-2.41201E-01-5.99599E+00-1.56819E-13 4.70735E-13
 -1      2189 1.04935E+01-5.95940E+00-1.18893E-01-7.44159E+00-2.98650E-14 3.25517E-13
 -1      2190 6.71564E+00-4.96169E+00 5.11615E-02-5.87343E+00 5.91471E-14 5.28355E-13
 -1      2191 1.57514E+01-7.00149E+00-1.49697E-01-7.86882E+00-5.82312E-14 1.06443E-13
 -1      2192 2.46816E+01-5.49301E+00 4.62125E-02-6.70622E+00-1.10523E-13 6.37823E-14
 -1      2193 3.18450E+01-2.14498E+00 1.76625E-01-3.86278E+00-3.18190E-13-5.11258E-14
 -1      2194 3.65458E+01 2.73701E+00 3.45586E-01-1.93237E+00-4.06564E-13-3.50941E-13
 -1      2195 3.83025E+01 8.19306E+00 3.23426E-01-9.40655E-01-9.79772E-14 5.01259E-13
 -1      2196 3.56929E+01 2.32664E+00 1.93811E-01-7.68385E-01 7.24976E-14 5.35738E-13
 -1      2197 3.07269E+01-2.69123E+00 1.36550E-01 2.03433E+00 8.50153E-14 7.82707E-15
 -1      2198 2.29453E+01-5.94832E+00 1.14396E-02 5.05513E+00 4.39648E-14-3.77420E-13
 -1      2199 1.42155E+01-7.11997E+00-1.05674E-01 6.26396E+00 1.99007E-13-4.49994E-13
 -1      2200 1.66565E+00-6.09966E+00-1.79909E-01 1.30692E+00 3.07809E-13-2.67730E-13
 -1      2201 7.93825E+00-6.30396E+00-9.81423E-02-6.33686E+00 3.70814E-13-1.35586E-13
 -1      2202 1.61377E+01-6.36124E+00-9.21679E-02-7.05100E+00 4.44533E-13-3.69975E-13
 -1      2203 3.14206E+01-5.46943E-01 7.76599E-02-3.06898E+00 3.02786E-13-5.33240E-13
 -1      2204 3.20854E+01-5.37876E-01-1.73596E-01-6.35340E-01 2.28914E-13-5.87974E-13
 -1      2205 2.97975E+01-2.78111E+00 1.41796E-01-2.32389E+00 1.80869E-13-5.78620E-13
 -1      2206 3.78902E+01 8.56033E+00 3.19048E-01 5.47868E-01-5.60663E-15-7.02674E-13
 -1      2207 3.87595E+01 7.37181E+00 2.32958E-01 3.46339E-01 5.29021E-14-8.72469E-13
 -1      2208 3.48436E+01 8.11198E+00-3.83387E-02 1.19559E+00 3.39728E-14-7.91867E-13
 -1      2209 3.50573E+01 6.79376E+00 8.65190E-03 1.09827E+00 1.87572E-13-8.67806E-13
 -1      2210 2.45280E+01-4.51345E+00 1.10508E-01-5.52326E+00 2.66009E-13-7.20923E-13
 -1      2211 6.22824E+00-6.85485E+00-1.70863E-01 5.08369E+00 7.41074E-14-3.12000E-13
 -1      2212 3.78807E+01 6.68837E+00 3.72390E-01-7.87586E-01-3.05755E-13 1.47216E-13
 -1      2213 2.01491E+01 5.06476E-01 3.73062E-03 6.77543E-01 2.80821E-13 1.04925E-14
 -1      2214 2.04169E+01 7.00008E-01 2.07817E-02 9.69163E-01 3.16677E-13 4.47468E-14
 -1      2215 1.95591E+01 3.51628E+00-1.11288E-02-5.91363E-01-1.37481E-13-5.08427E-13
 -1      2216 1.95947E+01 3.47039E+00-1.05186E-02-7.75697E-01-1.70293E-13-5.00973E-13
 -1      2217 1.96415E+01 3.38230E+00-1.28056E-02-9.40170E-01-2.03610E-13-4.79105E-13
 -1      2218 1.97025E+01 3.30173E+00-1.28814E-02-1.12940E+00-2.44084E-13-4.55761E-13
 -1      2219 1.97861E+01 3.03350E+00 1.81201E-04-7.92064E-01-1.68882E-13-4.59045E-13
 -1      2220 1.95116E+01 3.59877E+00-9.61762E-03 9.94292E-02 4.07394E-15-5.39247E-13
 -1      2221 1.95109E+01 3.59960E+00-9.62609E-03-8.00449E-02-3.86784E-14-5.32316E-13
 -1      2222 1.95379E+01 3.55936E+00-9.71871E-03 4.45468E-01 6.47422E-14-5.56864E-13
 -1      2223 1.95204E+01 3.58193E+00-1.01372E-02 2.64639E-01 3.01917E-14-5.56376E-13
 -1      2224 1.96778E+01 3.22150E+00-9.00812E-04 1.69559E-01 1.55655E-14-5.20654E-13
 -1      2225 1.95999E+01 3.46282E+00-1.06049E-02 7.89433E-01 1.43894E-13-5.42576E-13
 -1      2226 1.95635E+01 3.50983E+00-1.12070E-02 6.07997E-01 9.93780E-14-5.54667E-13
 -1      2227 1.97147E+01 3.15797E+00-5.01708E-04 4.87993E-01 8.39869E-14-5.22955E-13
 -1      2228 1.97109E+01 3.28907E+00-1.29462E-02 1.14278E+00 2.23978E-13-4.81088E-13
 -1      2229 1.96481E+01 3.37240E+00-1.28707E-02 9.53509E-01 1.70488E-13-5.12053E-13
 -1      2230 1.97920E+01 3.02431E+00 2.73287E-04 8.03664E-01 1.56786E-13-4.96166E-13
 -1      2231 1.98905E+01 3.00348E+00-1.81644E-02 1.48977E+00 3.06725E-13-4.28321E-13
 -1      2232 1.97908E+01 3.14478E+00-1.51781E-02 1.29938E+00 2.51919E-13-4.60275E-13
 -1      2233 1.99215E+01 2.79916E+00 1.96222E-03 1.10990E+00 2.33020E-13-4.31215E-13
 -1      2234 2.01695E+01 2.54389E+00-2.83961E-02 1.79411E+00 3.70899E-13-3.06713E-13
 -1      2235 2.00180E+01 2.78327E+00-1.70944E-02 1.61963E+00 3.31594E-13-3.74837E-13
 -1      2236 2.01166E+01 2.44846E+00 5.81765E-03 1.37558E+00 3.08072E-13-3.65083E-13
 -1      2237 1.98721E+01 2.68229E-01 4.73002E-03 2.84987E-01 1.95679E-13-3.33217E-14
 -1      2238 2.00328E+01 3.68009E-01 2.01697E-02 4.42141E-01 2.35281E-13 1.46909E-14
 -1      2239 2.02115E+01 6.34624E-01-2.24679E-03 7.04373E-01 2.76910E-13-1.02586E-13
 -1      2240 2.04026E+01 8.54499E-01 1.31820E-02-1.00015E+00-3.12231E-13 1.32182E-14
 -1      2241 2.01903E+01 6.27246E-01-4.51742E-03-6.90878E-01-2.76461E-13-5.76731E-15
 -1      2242 3.21765E+01-4.08819E-01-1.63961E-01 9.27106E-01 3.00676E-13-5.75262E-13
 -1      2243 3.06116E+01-2.73599E+00-4.34595E-02 2.42947E+00 1.97231E-13-4.99267E-13
 -1      2244 2.01255E+01 4.69500E-01 1.61918E-02-4.74789E-01-2.32646E-13-6.10731E-16
 -1      2245 1.99842E+01 3.44530E-01-5.19880E-05-3.03165E-01-1.92100E-13-2.86484E-14
 -1      2246 2.02440E+01 7.45654E-01-2.21295E-03-6.92686E-01-2.76401E-13-8.23154E-14
 -1      2247 1.99209E+01 2.59446E-01 1.08283E-02-1.65706E-01-1.72740E-13-1.74254E-14
 -1      2248 1.98422E+01 1.87903E-01 6.76139E-04-6.85597E-02-1.45503E-13-5.71106E-14
 -1      2249 2.00808E+01 4.16338E-01-3.75611E-03-3.09940E-01-2.00409E-13-8.78045E-14
 -1      2250 1.97978E+01 1.38380E-01 6.37793E-03 1.33885E-02-1.24862E-13-7.84598E-14
 -1      2251 1.97627E+01 9.60092E-02 7.04470E-04 6.66004E-02-1.06071E-13-8.86142E-14
 -1      2252 1.99601E+01 2.27026E-01-3.65114E-03-7.12233E-02-1.53718E-13-1.18770E-13
 -1      2253 1.97367E+01 6.60674E-02 3.57438E-03 1.12186E-01-1.02107E-13-1.03033E-13
 -1      2254 1.97293E+01 4.04836E-02 6.07449E-04 1.38621E-01-1.17084E-13-1.33745E-13
 -1      2255 1.98842E+01 1.14531E-01-2.93276E-03 6.92319E-02-1.30868E-13-1.55236E-13
 -1      2256 1.97175E+01 2.21784E-02 1.85480E-03 1.60701E-01-1.52823E-13-1.63385E-13
 -1      2257 1.97265E+01 6.87224E-03 4.86099E-04 1.70662E-01-1.23095E-13-1.66021E-13
 -1      2258 1.98444E+01 4.62733E-02-2.11800E-03 1.45132E-01-1.41262E-13-1.95649E-13
 -1      2259 1.97244E+01-4.09357E-03 7.93551E-04 1.77843E-01-7.97597E-14-1.79050E-13
 -1      2260 1.97422E+01-1.28357E-02 3.68702E-04 1.77826E-01-8.48335E-14-1.43751E-13
 -1      2261 1.98300E+01 5.04440E-03-1.42964E-03 1.79336E-01-1.20963E-13-2.31476E-13
 -1      2262 1.97462E+01-1.90102E-02 1.43951E-04 1.75907E-01-1.15978E-13-1.23177E-13
 -1      2263 1.97681E+01-2.34689E-02 2.70608E-04 1.70142E-01-1.26189E-13-1.32677E-13
 -1      2264 1.98322E+01-1.89240E-02-9.10378E-04 1.87304E-01-9.75617E-14-2.40883E-13
 -1      2265 1.97754E+01-2.64688E-02-2.38832E-04 1.63051E-01-1.09369E-13-1.22786E-13
 -1      2266 1.97982E+01-2.81177E-02 1.97968E-04 1.54339E-01-1.00521E-13-1.19284E-13
 -1      2267 1.98442E+01-3.16062E-02-5.42055E-04 1.79526E-01-1.21087E-13-1.85515E-13
 -1      2268 1.98072E+01-2.90125E-02-4.45616E-04 1.44733E-01-8.74076E-14-9.19233E-14
 -1      2269 1.98290E+01-2.88291E-02 1.51573E-04 1.34936E-01-5.43709E-14-7.06301E-14
 -1      2270 1.98615E+01-3.68472E-02-2.93402E-04 1.63131E-01-8.46786E-14-1.08582E-13
 -1      2271 1.98385E+01-2.83376E-02-5.36715E-04 1.24607E-01-4.99763E-16-5.91173E-14
 -1      2272 1.98585E+01-2.69710E-02 1.30308E-04 1.14957E-01 5.97753E-14-3.14246E-14
 -1      2273 1.98808E+01-3.71956E-02-1.35268E-04 1.42954E-01-2.27594E-15 6.82408E-15
 -1      2274 1.98678E+01-2.55695E-02-5.53463E-04 1.05104E-01 7.43307E-15-6.16466E-14
 -1      2275 1.98857E+01-2.34366E-02 1.33244E-04 9.64189E-02-7.18454E-14-4.89015E-14
 -1      2276 1.99004E+01-3.43461E-02-4.43679E-05 1.22259E-01-3.42832E-16-2.33700E-14
 -1      2277 1.98945E+01-2.14258E-02-5.24416E-04 8.78505E-02-1.17993E-13-2.83136E-14
 -1      2278 1.99104E+01-1.87725E-02 1.60546E-04 8.06838E-02-1.06247E-13-2.34983E-14
 -1      2279 1.99193E+01-2.93948E-02-3.24745E-06 1.03248E-01-8.37711E-14-3.91441E-14
 -1      2280 1.99187E+01-1.63204E-02-4.69220E-04 7.39666E-02-1.18887E-13-3.72881E-14
 -1      2281 1.99330E+01-1.32626E-02 2.13854E-04 6.87202E-02-9.81694E-14-6.46365E-14
 -1      2282 1.99371E+01-2.29980E-02 7.28918E-07 8.74354E-02-1.14843E-13 3.43975E-14
 -1      2283 1.99409E+01-1.04342E-02-4.01235E-04 6.42919E-02-1.04477E-13-7.03223E-14
 -1      2284 1.99543E+01-6.98532E-03 2.96396E-04 6.13043E-02-1.13115E-13-7.67572E-14
 -1      2285 1.99542E+01-1.54777E-02-2.36029E-05 7.59279E-02-1.40311E-13 4.23845E-15
 -1      2286 1.99623E+01-3.76365E-03-3.29427E-04 5.95614E-02-8.19102E-14-1.11049E-13
 -1      2287 1.99756E+01 1.45591E-04 4.12999E-04 5.91761E-02-5.02905E-14-8.24716E-14
 -1      2288 1.99710E+01-6.89396E-03-7.02987E-05 6.96421E-02-1.33249E-13 1.68113E-14
 -1      2289 1.99841E+01 3.84484E-03-2.59777E-04 6.05442E-02-1.09056E-13-1.29847E-13
 -1      2290 1.99984E+01 8.35350E-03 5.70084E-04 6.31652E-02-7.03724E-14-1.78031E-13
 -1      2291 1.99883E+01 2.90403E-03-1.35461E-04 6.94717E-02-1.07345E-13-1.33371E-13
 -1      2292 2.00079E+01 1.26717E-02-1.96407E-04 6.81552E-02 4.47166E-15-2.05533E-13
 -1      2293 2.00245E+01 1.79795E-02 7.75593E-04 7.42931E-02-4.88963E-15-2.00334E-13
 -1      2294 2.00072E+01 1.42432E-02-2.16441E-04 7.64222E-02-4.17670E-14-1.55500E-13
 -1      2295 2.00358E+01 2.31078E-02-1.42507E-04 8.35470E-02 1.86833E-14-1.61526E-13
 -1      2296 2.00560E+01 2.94684E-02 1.03882E-03 9.38581E-02-1.88912E-14-2.17641E-13
 -1      2297 2.00291E+01 2.76017E-02-3.11047E-04 9.17180E-02 8.95004E-15-1.05756E-13
 -1      2298 2.00698E+01 3.56413E-02-1.01128E-04 1.08186E-01 1.80587E-15-1.26462E-13
 -1      2299 2.00955E+01 4.33563E-02 1.36998E-03 1.23504E-01 8.54233E-14-7.12344E-14
 -1      2300 2.00555E+01 4.35897E-02-4.16692E-04 1.16889E-01 5.32303E-14-4.64797E-14
 -1      2301 2.01127E+01 5.08434E-02-7.58481E-05 1.43911E-01 5.63968E-14-1.20134E-13
 -1      2302 2.01459E+01 6.02512E-02 1.77937E-03 1.65270E-01 2.90608E-14-9.52894E-14
 -1      2303 2.00882E+01 6.29294E-02-5.29448E-04 1.53833E-01 5.88228E-14-1.04457E-13
 -1      2304 2.01674E+01 6.93423E-02-7.12484E-05 1.92970E-01 5.50634E-14-8.65928E-14
 -1      2305 2.02104E+01 8.07946E-02 2.27553E-03 2.21613E-01 1.38148E-13-1.46736E-13
 -1      2306 2.01289E+01 8.64223E-02-6.43040E-04 2.04857E-01 3.25931E-14-8.15068E-14
 -1      2307 2.02372E+01 9.17672E-02-9.29825E-05 2.58023E-01 6.99291E-14-1.91482E-13
 -1      2308 2.02928E+01 1.05579E-01 2.86202E-03 2.95376E-01 4.74337E-14-1.27607E-13
 -1      2309 2.01799E+01 1.14883E-01-7.47940E-04 2.72674E-01 6.11620E-14-9.05520E-14
 -1      2310 2.03258E+01 1.18631E-01-1.46939E-04 3.42064E-01-2.13994E-14-1.35169E-13
 -1      2311 2.03969E+01 1.34976E-01 3.53146E-03 3.89660E-01-5.58546E-14-8.62277E-14
 -1      2312 2.02432E+01 1.49002E-01-8.31105E-04 3.60335E-01 8.19380E-15-1.61427E-13
 -1      2313 2.04370E+01 1.50090E-01-2.36472E-04 4.48227E-01-9.32958E-14-5.93187E-14
 -1      2314 2.05268E+01 1.68789E-01 4.25533E-03 5.07513E-01-7.42298E-14 7.04766E-14
 -1      2315 2.03207E+01 1.89064E-01-8.77557E-04 4.71041E-01-5.38986E-14-1.32581E-13
 -1      2316 2.05749E+01 1.85465E-01-3.55781E-04 5.79346E-01-1.12859E-13 1.97506E-14
 -1      2317 2.06866E+01 2.05589E-01 4.96753E-03 6.51293E-01-2.64129E-14-9.47034E-14
 -1      2318 2.04144E+01 2.34401E-01-8.76318E-04 6.07761E-01-1.13250E-13-6.56718E-14
 -1      2319 2.07437E+01 2.22356E-01-4.76026E-04 7.37101E-01 9.76370E-14-2.31467E-13
 -1      2320 2.08803E+01 2.41508E-01 5.53937E-03 8.21460E-01 1.24441E-13-2.10158E-13
 -1      2321 2.05260E+01 2.82373E-01-8.35413E-04 7.72497E-01-3.74516E-14-7.62692E-14
 -1      2322 2.09477E+01 2.55057E-01-5.18871E-04 9.20444E-01 1.43751E-13-2.05211E-13
 -1      2323 2.11116E+01 2.68152E-01 5.74533E-03 1.01442E+00 7.01546E-14-1.36797E-13
 -1      2324 2.06574E+01 3.26549E-01-8.13662E-04 9.65003E-01 1.13235E-13-1.68251E-13
 -1      2325 2.11926E+01 2.71939E-01-3.10301E-04 1.12286E+00-1.64206E-14-1.39342E-13
 -1      2326 2.13852E+01 2.69330E-01 5.22172E-03 1.21892E+00-2.74909E-14-2.40582E-14
 -1      2327 2.08120E+01 3.53695E-01-9.79112E-04 1.18062E+00 8.30051E-14-3.36630E-14
 -1      2328 2.14871E+01 2.51570E-01 4.86484E-04 1.32786E+00-8.62358E-14-2.12539E-14
 -1      2329 2.17085E+01 2.16641E-01 3.43032E-03 1.41040E+00-9.82285E-14 1.24407E-13
 -1      2330 2.09974E+01 3.39246E-01-1.69994E-03 1.40678E+00-6.61542E-15-1.76084E-14
 -1      2331 2.18468E+01 1.58166E-01 2.44881E-03 1.50200E+00-1.54592E-13 1.01056E-13
 -1      2332 2.20958E+01 6.54652E-02-3.61024E-04 1.54291E+00-1.01483E-13 6.76265E-14
 -1      2333 2.12311E+01 2.41682E-01-3.64268E-03 1.61759E+00-1.36145E-13 4.25331E-14
 -1      2334 2.22998E+01-6.06136E-02 6.36794E-03 1.58503E+00-1.50134E-14 4.55440E-14
 -1      2335 2.25734E+01-2.43067E-01-7.03953E-03 1.53957E+00 8.66562E-14 3.88578E-16
 -1      2336 2.15495E+01-1.30339E-03-7.77519E-03 1.76568E+00-7.82903E-14-3.90004E-14
 -1      2337 2.28906E+01-4.64398E-01 1.28569E-02 1.47827E+00 1.84814E-13 6.33883E-14
 -1      2338 2.31798E+01-7.59321E-01-1.72174E-02 1.28505E+00 1.72288E-13 3.12584E-14
 -1      2339 2.20193E+01-4.65992E-01-1.49850E-02 1.77032E+00 6.68430E-14 2.10463E-14
 -1      2340 2.36668E+01-1.07874E+00 2.07305E-02 1.03953E+00 8.77566E-14 2.94024E-13
 -1      2341 2.39447E+01-1.45711E+00-3.04153E-02 6.35496E-01 1.75603E-13 4.17168E-13
 -1      2342 2.27395E+01-1.20123E+00-2.44898E-02 1.50323E+00 3.13301E-13 2.23267E-13
 -1      2343 2.46255E+01-1.79435E+00 2.38273E-02 1.07326E-01 2.00138E-13 3.60880E-13
 -1      2344 2.48319E+01-2.09409E+00-4.04027E-02-5.24083E-01 2.15789E-13 3.43500E-13
 -1      2345 2.38085E+01-2.12570E+00-3.28073E-02 7.84383E-01 1.47053E-13 4.31283E-13
 -1      2346 2.55800E+01-2.19838E+00 6.70890E-03-1.35750E+00 1.42416E-13 2.92667E-13
 -1      2347 2.56191E+01-2.08548E+00-3.43572E-02-2.06949E+00 8.49563E-14 2.23462E-13
 -1      2348 2.51630E+01-2.82157E+00-4.46966E-02-5.70072E-01 1.51478E-13 1.93298E-13
 -1      2349 2.61739E+01-1.62211E+00-3.29312E-02-3.01672E+00 1.65667E-13 3.03680E-13
 -1      2350 2.59164E+01-7.42805E-01-1.97690E-02-3.46719E+00 4.36838E-14 3.52051E-13
 -1      2351 2.65716E+01-2.45143E+00-4.68830E-02-2.40944E+00 9.09307E-14 1.89942E-13
 -1      2352 2.58858E+01 4.35815E-01-1.14777E-01-3.77378E+00-1.17968E-13 3.16597E-13
 -1      2353 2.54801E+01 1.76167E+00-3.24075E-02-3.46646E+00-2.52701E-13 2.98019E-13
 -1      2354 2.72128E+01-2.16812E-01-4.86726E-02-3.83405E+00-8.96921E-14 4.13156E-13
 -1      2355 2.51392E+01 2.89599E+00-1.26514E-01-2.58395E+00-1.63494E-13 2.85836E-13
 -1      2356 2.48795E+01 3.51793E+00-7.60852E-02-1.50744E+00-3.68594E-14 3.65690E-13
 -1      2357 2.69998E+01 2.95713E+00-7.99877E-02-3.36553E+00-1.57180E-13 3.23408E-13
 -1      2358 2.48247E+01 3.45948E+00-7.10463E-02-2.91933E-02 2.97956E-14 4.35332E-13
 -1      2359 2.48380E+01 2.72478E+00-1.34927E-01 1.01484E+00 4.22301E-14 4.64514E-13
 -1      2360 2.66851E+01 4.48144E+00-1.19555E-01-8.61330E-01 6.23251E-14 2.66498E-13
 -1      2361 2.50847E+01 1.55097E+00-1.67999E-02 1.78459E+00 2.51882E-15 4.26962E-13
 -1      2362 2.51908E+01 2.50020E-01-1.12477E-01 2.03353E+00 1.17545E-13 3.73659E-13
 -1      2363 2.67961E+01 2.73562E+00-8.09609E-02 1.58909E+00-5.39846E-14 4.96832E-13
 -1      2364 2.50718E+01-8.43758E-01-1.93230E-02 1.67253E+00-6.93889E-17 3.89123E-13
 -1      2365 2.50276E+01-1.59933E+00-3.77801E-02 1.21478E+00-7.72472E-15 4.27258E-13
 -1      2366 2.66887E+01-4.25948E-01-5.31630E-02 1.84218E+00-1.48492E-15 2.72574E-13
 -1      2367 2.43626E+01-1.93558E+00-3.36785E-02 3.55617E-01-4.51470E-14 4.12455E-13
 -1      2368 2.40855E+01-1.91479E+00 1.41541E-02-2.85305E-01-1.18013E-13 3.72874E-13
 -1      2369 2.57575E+01-2.30086E+00-1.88957E-02 4.16580E-01-3.57006E-15 4.67433E-13
 -1      2370 2.32083E+01-1.63813E+00-3.62553E-02-9.73319E-01-1.61668E-14 4.04427E-13
 -1      2371 2.27818E+01-1.18618E+00 2.17443E-02-1.40627E+00-5.01294E-14 3.13974E-13
 -1      2372 2.41648E+01-2.30867E+00-2.72562E-02-1.17361E+00-3.23653E-14 5.14559E-13
 -1      2373 1.96248E+01 7.25425E-02 2.06941E-03-6.64234E-02 1.07245E-13-1.45620E-13
 -1      2374 1.96521E+01 1.04282E-01 6.91127E-03-2.02872E-02 1.36124E-13-9.36651E-14
 -1      2375 1.96012E+01 3.06620E-02 1.33417E-03-1.32055E-01 1.08884E-13-2.15366E-13
 -1      2376 1.95981E+01 4.95951E-02 3.68203E-03-1.09571E-01 1.02208E-13-1.66617E-13
 -1      2377 1.97690E+01 8.97951E-02-3.16991E-03-7.18001E-02 1.39371E-13-1.90222E-13
 -1      2378 1.96132E+01 5.59042E-03 8.65813E-04-1.60418E-01 1.32131E-13-2.51117E-13
 -1      2379 1.95932E+01 1.68578E-02 1.81430E-03-1.52217E-01 1.07543E-13-2.32725E-13
 -1      2380 1.97348E+01 3.57785E-02-2.27996E-03-1.44063E-01 1.27548E-13-2.44938E-13
 -1      2381 1.96453E+01-9.04941E-03 5.45138E-04-1.65994E-01 1.31520E-13-2.30676E-13
 -1      2382 1.96170E+01-2.60116E-03 7.15231E-04-1.66352E-01 1.45779E-13-2.39990E-13
 -1      2383 1.97314E+01 3.61248E-03-1.51049E-03-1.75736E-01 1.31312E-13-2.42770E-13
 -1      2384 1.96870E+01-1.69655E-02 3.22354E-04-1.58127E-01 6.77946E-14-2.02943E-13
 -1      2385 1.96558E+01-1.36367E-02 6.26680E-05-1.63384E-01 1.04074E-13-1.92844E-13
 -1      2386 1.97465E+01-1.49397E-02-9.33569E-04-1.82296E-01 1.05776E-13-1.81103E-13
 -1      2387 1.97316E+01-2.04763E-02 1.73366E-04-1.42980E-01 8.78801E-14-1.86988E-13
 -1      2388 1.97008E+01-1.91870E-02-3.12179E-04-1.50734E-01 7.82343E-14-2.07493E-13
 -1      2389 1.97717E+01-2.47182E-02-5.30131E-04-1.73953E-01 7.45824E-14-1.46494E-13
 -1      2390 1.97751E+01-2.11001E-02 8.20447E-05-1.24644E-01 5.76976E-14-1.69924E-13
 -1      2391 1.97465E+01-2.11388E-02-5.07336E-04-1.33311E-01 8.83598E-14-1.90031E-13
 -1      2392 1.98012E+01-2.87624E-02-2.61911E-04-1.57531E-01 8.05009E-14-1.77743E-13
 -1      2393 1.98153E+01-1.98482E-02 3.63659E-05-1.05831E-01 7.73018E-14-1.64616E-13
 -1      2394 1.97898E+01-2.07426E-02-5.85208E-04-1.14367E-01 7.16837E-14-1.43048E-13
 -1      2395 1.98316E+01-2.90611E-02-9.41065E-05-1.37603E-01 5.43358E-14-1.80136E-13
 -1      2396 1.98512E+01-1.73843E-02 2.78707E-05-8.83301E-02 2.99880E-14-1.60468E-13
 -1      2397 1.98290E+01-1.88285E-02-5.87578E-04-9.60496E-02 6.71659E-14-1.43401E-13
 -1      2398 1.98606E+01-2.69312E-02 4.78816E-07-1.17221E-01 6.43811E-14-1.23966E-13
 -1      2399 1.98829E+01-1.41212E-02 5.12610E-05-7.33262E-02 3.33309E-14-1.78506E-13
 -1      2400 1.98637E+01-1.59303E-02-5.42782E-04-7.97729E-02 4.82409E-14-1.36855E-13
 -1      2401 1.98874E+01-2.32282E-02 4.15942E-05-9.84219E-02 2.97162E-14-1.68708E-13
 -1      2402 1.99110E+01-1.02859E-02 1.04037E-04-6.16362E-02-1.85676E-15-2.18930E-13
 -1      2403 1.98943E+01-1.23649E-02-4.69761E-04-6.64884E-02 1.44622E-14-2.16178E-13
 -1      2404 1.99117E+01-1.84743E-02 4.32835E-05-8.25768E-02 5.62418E-14-1.93656E-13
 -1      2405 1.99366E+01-5.96570E-03 1.85973E-04-5.38819E-02 8.08060E-14-2.23996E-13
 -1      2406 1.99215E+01-8.28746E-03-3.80856E-04-5.68818E-02 3.68251E-14-2.00453E-13
 -1      2407 1.99340E+01-1.29451E-02 1.52544E-05-7.06567E-02 2.87908E-14-2.79170E-13
 -1      2408 1.99611E+01-1.14456E-03 2.98547E-04-5.06191E-02 3.74410E-14-2.08976E-13
 -1      2409 1.99467E+01-3.73153E-03-2.83707E-04-5.15204E-02 1.00107E-13-1.96041E-13
 -1      2410 1.99549E+01-6.73222E-03-3.61439E-05-6.34247E-02 6.15368E-14-1.96975E-13
 -1      2411 1.99864E+01 4.26617E-03 4.44270E-04-5.24307E-02 1.56104E-14-2.30910E-13
 -1      2412 1.99715E+01 1.35745E-03-1.82637E-04-5.09611E-02 1.76393E-14-1.80352E-13
 -1      2413 1.99757E+01 2.07751E-04-1.06962E-04-6.15793E-02 1.35884E-15-2.34714E-13
 -1      2414 2.00145E+01 1.03968E-02 6.25805E-04-5.99864E-02-2.57625E-14-2.22026E-13
 -1      2415 1.99977E+01 7.09182E-03-7.97223E-05-5.58252E-02-5.26890E-15-1.85010E-13
 -1      2416 1.99977E+01 8.00893E-03-1.94859E-04-6.58547E-02-2.10816E-14-1.41560E-13
 -1      2417 2.00479E+01 1.73839E-02 8.44726E-04-7.40683E-02 8.32680E-14-2.86494E-13
 -1      2418 2.00277E+01 1.36094E-02 2.43581E-05-6.68393E-02 6.00819E-14-2.62910E-13
 -1      2419 2.00227E+01 1.68513E-02-2.98387E-04-7.70820E-02 4.38764E-14-1.36597E-13
 -1      2420 2.00892E+01 2.53245E-02 1.09972E-03-9.55555E-02 1.29702E-13-3.30608E-13
 -1      2421 2.00640E+01 2.10341E-02 1.29624E-04-8.48402E-02 8.47197E-14-3.29819E-13
 -1      2422 2.00524E+01 2.69077E-02-4.16336E-04-9.62066E-02 1.13323E-13-2.11945E-13
 -1      2423 2.01416E+01 3.42117E-02 1.38398E-03-1.25355E-01 7.69861E-14-2.62350E-13
 -1      2424 2.01094E+01 2.94220E-02 2.36211E-04-1.10732E-01 9.03774E-14-2.74888E-13
 -1      2425 2.00892E+01 3.82729E-02-5.47098E-04-1.24256E-01 4.67252E-14-2.26237E-13
 -1      2426 2.02083E+01 4.38419E-02 1.68154E-03-1.64254E-01-8.95754E-14-2.69452E-13
 -1      2427 2.01671E+01 3.86854E-02 3.43896E-04-1.45381E-01 4.57558E-14-2.40157E-13
 -1      2428 2.01354E+01 5.08646E-02-6.88128E-04-1.62236E-01 2.95738E-14-1.29804E-13
 -1      2429 2.02927E+01 5.36814E-02 1.96222E-03-2.12675E-01-1.86189E-13-1.90693E-13
 -1      2430 2.02405E+01 4.84820E-02 4.51759E-04-1.89416E-01-1.85691E-13-2.48116E-13
 -1      2431 2.01936E+01 6.42807E-02-8.35561E-04-2.10943E-01-1.33270E-13-7.34997E-14
 -1      2432 2.03982E+01 6.26798E-02 2.17518E-03-2.70273E-01-1.44670E-13-1.93804E-13
 -1      2433 2.03331E+01 5.80581E-02 5.58073E-04-2.42915E-01-1.29900E-13-2.57645E-13
 -1      2434 2.02668E+01 7.75966E-02-9.84180E-04-2.70633E-01-1.08827E-13-2.18241E-13
 -1      2435 2.05277E+01 6.90205E-02 2.24139E-03-3.35346E-01-5.02382E-14-1.55482E-13
 -1      2436 2.04482E+01 6.60327E-02 6.60559E-04-3.04904E-01-9.67329E-14-2.18551E-13
 -1      2437 2.03577E+01 8.90858E-02-1.12793E-03-3.40535E-01-1.46421E-13-4.22935E-13
 -1      2438 2.06832E+01 6.98161E-02 2.04644E-03-4.04002E-01-1.16930E-13-2.94930E-14
 -1      2439 2.05887E+01 7.01194E-02 7.57131E-04-3.72654E-01-6.31227E-14-5.68245E-14
 -1      2440 2.04691E+01 9.58583E-02-1.26110E-03-4.18131E-01-1.24435E-13-3.24327E-13
 -1      2441 2.08650E+01 6.07980E-02 1.43738E-03-4.69058E-01-3.35602E-14 4.54443E-14
 -1      2442 2.07565E+01 6.68086E-02 8.47042E-04-4.40703E-01-1.14153E-13 4.08797E-14
 -1      2443 2.06035E+01 9.34391E-02-1.37981E-03-4.98170E-01-8.27108E-14-3.00099E-13
 -1      2444 2.10708E+01 3.61436E-02 2.30722E-04-5.18735E-01 1.20483E-13 9.63448E-14
 -1      2445 2.09516E+01 5.10966E-02 9.31610E-04-4.99630E-01 7.40140E-14 8.03116E-14
 -1      2446 2.07627E+01 7.53888E-02-1.48219E-03-5.71410E-01 2.97882E-15-2.71265E-13
 -1      2447 2.12947E+01-1.12362E-02-1.75533E-03-5.35399E-01 2.98155E-13 2.57575E-14
 -1      2448 2.11712E+01 1.64758E-02 1.01145E-03-5.34705E-01 2.66911E-13 9.12471E-14
 -1      2449 2.09479E+01 3.32208E-02-1.56310E-03-6.23178E-01 1.88817E-13-1.85218E-13
 -1      2450 2.15252E+01-8.83414E-02-4.62701E-03-4.94957E-01 1.28551E-13-1.05085E-13
 -1      2451 2.14085E+01-4.43640E-02 1.07523E-03-5.24808E-01 2.11680E-13 4.74489E-14
 -1      2452 2.11585E+01-4.28486E-02-1.59533E-03-6.32059E-01 2.49166E-13 3.33284E-14
 -1      2453 2.17440E+01-1.98721E-01-8.27490E-03-3.68156E-01-6.98502E-14 6.49645E-14
 -1      2454 2.16501E+01-1.37360E-01 1.06246E-03-4.42526E-01 3.43803E-14 2.90949E-14
 -1      2455 2.13913E+01-1.61362E-01-1.48722E-03-5.69455E-01-7.12581E-15 1.12106E-13
 -1      2456 2.19241E+01-3.36120E-01-1.21530E-02-1.25876E-01-1.52421E-13 1.30591E-13
 -1      2457 2.18740E+01-2.62365E-01 8.11041E-04-2.57126E-01-1.22159E-13 1.84984E-13
 -1      2458 2.16381E+01-3.23976E-01-1.01349E-03-4.01487E-01-1.63891E-13 4.09822E-13
 -1      2459 2.20276E+01-4.75260E-01-1.50039E-02 2.48921E-01-1.17625E-13 2.41491E-13
 -1      2460 2.20459E+01-4.05260E-01-3.37660E-07 5.69531E-02-1.74742E-13 1.62425E-13
 -1      2461 2.18809E+01-5.15678E-01 2.63054E-04-9.57576E-02-1.74921E-13 5.75282E-13
 -1      2462 2.20073E+01-5.63753E-01-1.48693E-02 7.40559E-01-6.18672E-14 4.09298E-13
 -1      2463 2.21166E+01-5.28234E-01-1.80456E-03 5.03133E-01-4.46167E-14 2.96995E-13
 -1      2464 2.20854E+01-6.91977E-01 2.96064E-03 3.63614E-01-1.06927E-13 4.42741E-13
 -1      2465 2.18144E+01-5.26596E-01-9.84962E-03 1.27510E+00 4.42333E-14 4.16161E-13
 -1      2466 2.20262E+01-5.65849E-01-4.99486E-03 1.03706E+00 6.82180E-16 3.98762E-13
 -1      2467 2.21945E+01-7.71471E-01 7.19941E-03 9.49868E-01 1.02516E-14 3.81591E-13
 -1      2468 2.14216E+01-2.97910E-01 3.76708E-04 1.70623E+00 1.10658E-13 1.14439E-13
 -1      2469 2.17232E+01-4.40931E-01-8.95395E-03 1.54294E+00 1.45223E-13 3.42338E-13
 -1      2470 2.21348E+01-6.51842E-01 1.13938E-02 1.56203E+00 1.65989E-13 2.72478E-13
 -1      2471 2.08606E+01 1.16648E-01 1.20436E-02 1.84216E+00-1.23755E-13 6.60249E-14
 -1      2472 2.12060E+01-1.12564E-01-1.10117E-02 1.83784E+00 3.57292E-14 9.67442E-14
 -1      2473 2.18501E+01-2.65837E-01 1.20225E-02 2.01142E+00 1.06126E-13 3.69734E-13
 -1      2474 2.02555E+01 5.84798E-01 1.79240E-02 1.54068E+00-5.75937E-14 1.51028E-13
 -1      2475 2.05697E+01 3.54106E-01-8.09919E-03 1.73819E+00-2.64058E-13 6.79396E-14
 -1      2476 2.13661E+01 3.32390E-01 5.52992E-03 2.06732E+00-2.01675E-13 1.94262E-13
 -1      2477 1.97975E+01 8.83580E-01 1.35990E-02 8.35300E-01-5.88349E-14 5.05406E-13
 -1      2478 2.00049E+01 7.68993E-01 1.63085E-03 1.18816E+00 3.87416E-14 3.35928E-13
 -1      2479 2.08375E+01 9.21282E-01-7.08444E-03 1.59256E+00-1.74658E-13 7.98045E-14
 -1      2480 1.96400E+01 8.48858E-01 2.78236E-03-2.13710E-02 9.60690E-15 1.87649E-13
 -1      2481 1.97006E+01 9.12701E-01 1.38262E-02 3.55072E-01-9.65547E-15 3.47309E-13
 -1      2482 2.04915E+01 1.21613E+00-1.41516E-02 6.96067E-01-1.24900E-14 2.85911E-13
 -1      2483 1.97783E+01 5.17947E-01-6.08868E-03-6.93666E-01 2.75714E-13 1.73478E-13
 -1      2484 1.97093E+01 7.12343E-01 1.99696E-02-4.32448E-01 5.09055E-14 2.86101E-13
 -1      2485 2.04564E+01 1.06313E+00-9.32428E-03-2.64068E-01 3.72315E-14 1.00404E-13
 -1      2486 2.00515E+01 9.95910E-02-8.37014E-03-9.76373E-01 3.38343E-13 4.20420E-13
 -1      2487 1.99151E+01 3.06107E-01 1.53769E-02-8.91828E-01 3.27063E-13 3.97514E-13
 -1      2488 2.06485E+01 5.75206E-01 2.41257E-03-9.04395E-01 1.90607E-13 2.81226E-13
 -1      2489 2.02682E+01-1.90392E-01-4.56832E-03-8.98090E-01 2.87550E-13 4.68487E-13
 -1      2490 2.01336E+01-6.85360E-02 4.07820E-03-9.53040E-01 2.82990E-13 6.39124E-13
 -1      2491 2.08487E+01 3.88320E-02 1.00268E-02-1.06678E+00 2.26386E-13 4.96805E-13
 -1      2492 2.03307E+01-2.68910E-01 3.10025E-03-6.38554E-01 1.40249E-13 5.12573E-13
 -1      2493 2.02377E+01-2.56762E-01-6.15040E-03-7.50761E-01 2.28684E-13 5.42798E-13
 -1      2494 2.08827E+01-2.93438E-01 1.20064E-02-8.68661E-01 2.35427E-13 6.55292E-13
 -1      2495 2.02403E+01-2.13706E-01 3.83626E-03-3.95819E-01-2.16635E-13 7.39305E-13
 -1      2496 2.01961E+01-2.50336E-01-1.09293E-02-4.93306E-01-1.24666E-14 5.50807E-13
 -1      2497 2.07128E+01-3.36931E-01 1.43766E-02-5.46028E-01 3.01168E-14 1.11777E-12
 -1      2498 2.00869E+01-1.65853E-01-3.37901E-03-3.04914E-01-2.47706E-13 5.74876E-13
 -1      2499 2.16605E+01-6.46118E-02 1.76878E-02 3.02069E+00 1.81738E-13-3.83529E-13
 -1      2500 2.17649E+01-4.22595E-01 5.45593E-03 2.42935E+00 2.09151E-13-8.01274E-13
 -1      2501 2.07971E+01 6.59412E-01-1.45172E-02 4.10955E+00 9.10869E-14-2.46954E-14
 -1      2502 2.13588E+01 1.40781E-01 3.03738E-02 3.71935E+00 1.08205E-13-2.68282E-13
 -1      2503 2.19414E+01-8.59876E-01-1.80646E-02 3.65524E+00 1.61327E-13-4.21248E-13
 -1      2504 2.13282E+01-3.96118E-01 3.40112E-02 6.34402E-01-6.31635E-14-2.86160E-14
 -1      2505 2.10178E+01-4.69888E-01-1.37297E-02 2.32110E-01 8.85262E-15 2.85857E-13
 -1      2506 2.17032E+01-3.59885E-01 2.81101E-02 1.72521E+00-1.11655E-13-6.96105E-13
 -1      2507 2.15355E+01-5.62766E-01-1.15947E-02 1.19490E+00-3.16769E-14-2.74700E-13
 -1      2508 2.19170E+01-7.75079E-01 1.63275E-02 8.90023E-01-7.20880E-14-2.26516E-13
 -1      2509 2.22503E+01-9.60691E-01-6.26142E-03 2.16430E+00-5.41711E-15-4.58067E-13
 -1      2510 1.90783E+01 1.85777E+00-4.62381E-02 4.27905E+00-2.34932E-13 1.06878E-13
 -1      2511 2.00463E+01 1.26991E+00 6.01705E-02 4.40807E+00-1.59183E-14-1.73229E-13
 -1      2512 2.05087E+01-1.60789E-01-1.57418E-02 4.79242E+00-5.63247E-14-1.39107E-13
 -1      2513 1.71503E+01 3.17520E+00-5.40522E-02 2.92242E+00-3.77612E-13 1.40547E-13
 -1      2514 1.80795E+01 2.71436E+00 6.16153E-02 3.75707E+00-3.06916E-13 3.77047E-13
 -1      2515 1.81460E+01 1.17210E+00 2.82460E-02 4.65417E+00-2.15765E-13 7.39651E-14
 -1      2516 1.62813E+01 3.85546E+00-1.36743E-02 2.37662E-01-2.04409E-13-1.28487E-13
 -1      2517 1.65327E+01 3.75231E+00 2.56028E-02 1.51623E+00-3.19392E-13-1.12181E-13
 -1      2518 1.59031E+01 2.53490E+00 8.22721E-02 2.61896E+00-1.62162E-13 1.32734E-13
 -1      2519 1.71365E+01 3.43393E+00 5.54367E-02-2.49492E+00-3.59836E-13-3.55205E-13
 -1      2520 1.65067E+01 3.70244E+00-2.52639E-02-1.38655E+00-1.96038E-13-3.28716E-13
 -1      2521 1.53650E+01 2.91116E+00 1.03302E-01-6.71651E-01-2.74829E-13-2.70773E-13
 -1      2522 1.90185E+01 2.15228E+00 6.73636E-02-4.01004E+00-2.45827E-13 6.40521E-14
 -1      2523 1.79947E+01 2.63243E+00-6.47474E-02-3.49655E+00-2.77434E-13-1.85733E-13
 -1      2524 1.69753E+01 1.99687E+00 7.62309E-02-3.55212E+00-1.54574E-13-2.53788E-13
 -1      2525 2.07097E+01 8.51785E-01 4.09831E-02-3.98201E+00-2.09978E-13 2.12825E-13
 -1      2526 1.99284E+01 1.39283E+00-3.42793E-02-4.10801E+00-2.89215E-13 2.98029E-13
 -1      2527 1.92878E+01 5.94200E-01 5.40515E-03-4.64503E+00-2.35643E-13 6.47919E-14
 -1      2528 2.15075E+01 1.32570E-01 2.62193E-02-2.98583E+00-3.01820E-13-1.50467E-13
 -1      2529 2.12092E+01 5.34562E-01 1.16143E-02-3.43447E+00-3.06929E-13 1.88304E-14
 -1      2530 2.12942E+01-3.71780E-01 1.31285E-02-4.08112E+00-2.05124E-13 7.91468E-14
 -1      2531 6.11619E+00-2.63384E+00 1.25941E-01 3.72542E+00-5.35932E-13 2.66343E-13
 -1      2532 4.40606E+00-2.92854E+00 1.17712E-01 9.71019E-01-2.93199E-13 2.38420E-13
 -1      2533 2.23563E+01-6.14501E+00-6.62262E-03 7.55186E+00-1.38500E-13-5.24067E-13
 -1      2534 1.81603E+01-6.13479E+00 7.70255E-02 8.02339E+00-2.04503E-13-2.87048E-13
 -1      2535 1.97058E+01 1.43327E-01 3.27124E-03 5.96437E-02 1.35505E-13-7.35986E-14
 -1      2536 1.97842E+01 1.98144E-01 1.23814E-02 1.45853E-01 1.58175E-13-5.65214E-14
 -1      2537 1.98500E+01 1.80906E-01-3.86061E-03 6.50578E-02 1.68771E-13-1.75052E-13
 -1      2538 2.11349E+01 3.17173E-01-1.92645E-02-1.86846E+00-5.31441E-14 5.06019E-14
 -1      2539 2.87050E+01-4.42349E+00-7.69310E-02 4.58815E+00 5.40679E-14-7.05241E-13
 -1      2540 2.57964E+01-5.51857E+00 3.23284E-02 5.72920E+00-4.71290E-14-7.66553E-13
 -1      2541 2.47150E+01-6.01660E+00 1.00979E-04 6.24466E+00-1.12632E-13-6.65440E-13
 -1      2542 2.96739E+01-3.89647E+00 3.86324E-02 2.62477E+00 8.97338E-14-3.54522E-13
 -1      2543 4.17751E+00-3.05879E+00 9.63873E-02-1.00177E+00-2.95711E-13 8.44325E-14
 -1      2544 5.10496E+00-3.36120E+00 1.05095E-01-3.41831E+00-2.07501E-13 2.87770E-13
 -1      2545 6.85473E+00-1.23033E+00 1.88102E-01 1.59133E-02-4.26756E-13 8.16014E-14
 -1      2546 3.43861E+01 3.03415E+00-4.30364E-02-2.09319E+00-1.80689E-14 4.44311E-13
 -1      2547 3.27051E+01 5.28017E-01-8.25779E-02-1.68122E+00-2.36200E-14 3.25628E-13
 -1      2548 7.87367E+00-4.50026E+00 1.37539E-01-5.83835E+00 2.11525E-13-1.41220E-13
 -1      2549 1.17014E+01-5.18464E+00 6.62405E-02-7.19522E+00 3.47361E-13-1.35114E-13
 -1      2550 3.31577E+01 7.84505E+00-2.21300E-01 3.09687E-01 1.27010E-13-8.68762E-13
 -1      2551 3.36893E+01 7.34453E+00-1.20842E-01-2.03151E-01 1.98064E-13-6.67688E-13
 -1      2552 1.95183E+01 3.58498E+00-1.00965E-02-2.45253E-01-6.61366E-14-5.29254E-13
 -1      2553 1.95343E+01 3.56429E+00-9.67370E-03-4.25958E-01-1.05988E-13-5.20888E-13
 -1      2554 1.97107E+01 3.16375E+00-5.93465E-04-4.73277E-01-1.06138E-13-4.77830E-13
 -1      2555 1.96763E+01 3.22362E+00-9.24623E-04-1.51999E-01-5.42103E-14-5.05061E-13
 -1      2556 2.27239E+01-5.88376E+00-9.95443E-03-5.56239E+00 2.56489E-13-5.91721E-13
 -1      2557 2.61756E+01-4.93646E+00-6.21178E-02-4.27425E+00 8.48210E-14-6.82010E-13
 -1      2558 3.32676E+01 2.46854E+00-6.82133E-02 6.26004E-01 1.53155E-13-7.69995E-13
 -1      2559 3.44779E+01 4.44909E+00-5.74536E-02 9.38870E-01 1.53294E-13-7.47513E-13
 -1      2560 9.26962E+00-5.70334E+00 5.09692E-03 6.06846E+00 4.14668E-14-3.25129E-13
 -1      2561 6.12109E+00-5.19728E+00 5.41528E-02 4.62625E+00 1.13354E-13-3.12361E-13
 -1      2562 1.57478E+01-6.14731E+00 6.65368E-02-7.03768E+00 3.29375E-13-2.63914E-13
 -1      2563 1.94709E+01-6.09452E+00-1.97120E-03-6.83709E+00 3.49276E-13-4.30996E-13
 -1      2564 2.21317E+01-6.18543E+00 8.40732E-02-5.65799E+00 2.30510E-13-4.46379E-13
 -1      2565 3.41451E+00-3.57263E+00 1.27945E-01-2.14062E+00 4.14724E-13-4.05675E-13
 -1      2566 4.65586E+00-3.80257E+00 6.84802E-02-4.21528E+00 2.51882E-13-3.70648E-13
 -1      2567 3.40900E+01 4.27122E+00-1.03153E-01 4.95078E-01-2.31981E-13 1.68754E-14
 -1      2568 3.33568E+01 5.75849E+00-2.34323E-01 5.47415E-01-8.05467E-14 3.35454E-13
 -1      2569 3.72272E+00-4.33882E+00 5.61116E-02 2.88154E+00 1.26815E-13-4.64073E-13
 -1      2570 2.65961E+00-3.81837E+00 6.48800E-02 2.91772E-01 3.10163E-13-3.38229E-13
 -1      2571 1.79157E+01-6.68199E+00-1.59000E-02 6.27547E+00 2.00284E-13-5.21062E-13
 -1      2572 1.37468E+01-6.45426E+00 5.86381E-02 6.25387E+00 2.12663E-13-4.15418E-13
 -1      2573 2.54030E+01-6.04020E+00-9.10628E-02 4.02002E+00 1.13243E-14-1.00447E-13
 -1      2574 2.17907E+01-6.69488E+00 1.52009E-03 4.93056E+00 1.16740E-13-2.84897E-13
 -1      2575 3.11988E+01-2.57561E+00-1.13065E-01-2.92328E-02-5.80647E-14 2.42528E-13
 -1      2576 2.84742E+01-4.61599E+00-2.40368E-02 1.79332E+00-7.14429E-14-2.93099E-14
 -1      2577 3.49758E+01 6.51792E+00-1.35675E-01-2.07086E+00-1.31561E-14 4.99434E-13
 -1      2578 3.45514E+01 5.16757E+00-9.73620E-02-2.30809E+00 1.51212E-13 4.99295E-13
 -1      2579 3.34228E+01 7.42276E+00-1.62721E-01-6.09451E-01-3.78586E-14 5.76109E-13
 -1      2580 3.43114E+01 7.33410E+00-9.50848E-02-1.51689E+00-2.63123E-14 5.90084E-13
 -1      2581 3.27791E+01 6.75936E-02-1.34110E-01-4.94360E-01-2.44596E-13-2.80165E-13
 -1      2582 3.40246E+01 2.35947E+00-1.43807E-01 6.08182E-02-3.24851E-13-1.53211E-13
 -1      2583 3.16092E+01 2.33473E+00-1.59186E-02 1.43460E+00-1.45772E-13-6.76126E-14
 -1      2584 2.99938E+01-3.88572E+00-8.76930E-03-2.95229E+00 5.93137E-14-3.45501E-13
 -1      2585 3.22591E+01-1.96718E+00-9.28039E-02-1.86704E+00-1.41259E-13-4.13725E-13
 -1      2586 3.14983E+01-1.50943E+00-9.31461E-03 1.03681E-01 9.03444E-15-3.79891E-13
 -1      2587 2.31260E+01-6.44652E+00 1.90520E-02-6.69831E+00 1.47771E-13-2.45054E-13
 -1      2588 2.68254E+01-5.70409E+00-1.05819E-01-5.61100E+00 1.39666E-13-2.70617E-13
 -1      2589 1.57212E+01-6.36604E+00 4.36887E-02-7.92619E+00 6.07292E-14-1.09357E-14
 -1      2590 1.96877E+01-6.43181E+00 1.02277E-02-7.91999E+00 1.18627E-13-1.18211E-13
 -1      2591 2.27372E+01-6.44198E+00 9.09515E-02-6.90351E+00 2.35340E-13-3.22013E-13
 -1      2592 2.05478E+01 1.95543E+00-1.36791E-02-1.90140E+00-3.78954E-13-2.52662E-14
 -1      2593 2.04113E+01 1.21669E+00-6.34876E-03-1.28729E+00-3.46688E-13-3.78658E-15
 -1      2594 2.03745E+01 1.37615E+00 3.97094E-03-1.23144E+00-3.38845E-13-1.02209E-13
 -1      2595 2.02876E+01 2.36500E+00-7.74137E-03-1.82583E+00-3.74568E-13-1.41165E-13
 -1      2596 2.04914E+01 8.74952E-01-7.31224E-03 1.22642E+00 3.54350E-13 6.61548E-14
 -1      2597 2.08419E+01 1.25694E+00-6.05209E-03 1.72713E+00 3.79252E-13 1.07244E-13
 -1      2598 2.06476E+01 1.71563E+00-1.57937E-02 1.92125E+00 4.07966E-13-1.94254E-14
 -1      2599 2.04498E+01 1.05806E+00-9.39848E-03 1.24114E+00 3.58450E-13-7.25936E-14
 -1      2600 1.33661E+01-5.23745E+00 4.99079E-02 8.08367E+00-3.51719E-13-2.80442E-13
 -1      2601 9.22780E+00-4.15473E+00 1.03169E-01 6.64445E+00-5.12951E-13 5.30131E-14
 -1      2602 2.64079E+01-5.36348E+00 5.96312E-02-3.25668E+00 1.04292E-13-6.70755E-13
 -1      2603 2.80314E+01-4.42713E+00 7.46348E-03-2.86250E+00 2.74780E-15-6.53644E-13
 -1      2604 2.88374E+01-3.79343E+00-1.48379E-01-1.12821E+00 1.15304E-13-5.70544E-13
 -1      2605 1.99113E+01 2.81351E+00 1.13414E-03-1.09875E+00-2.52065E-13-3.98299E-13
 -1      2606 1.97814E+01 3.16173E+00-1.47335E-02-1.28635E+00-2.71724E-13-4.17828E-13
 -1      2607 1.98779E+01 3.02587E+00-1.71553E-02-1.47589E+00-3.19352E-13-3.61994E-13
 -1      2608 1.99956E+01 3.40245E-01-3.53029E-03 3.04209E-01 2.10009E-13-1.40312E-13
 -1      2609 2.04231E+01 2.11579E+00-1.27792E-02 1.87424E+00 3.85616E-13-1.68771E-13
 -1      2610 1.68582E+01-5.31416E+00 1.08958E-01 8.05397E+00-1.35614E-13-1.66783E-13
 -1      2611 1.58134E+01-3.92632E+00 1.66283E-01 7.78739E+00-2.98150E-13-6.93889E-15
 -1      2612 1.98170E+01-5.30223E+00-5.43538E-03 7.53731E+00-4.62130E-15-3.26149E-13
 -1      2613 1.99861E+01 2.83946E+00-1.50523E-02-1.58604E+00-3.35483E-13-3.15234E-13
 -1      2614 2.01317E+01 2.61388E+00-2.20129E-02-1.75254E+00-3.63459E-13-2.34437E-13
 -1      2615 2.02799E+01 2.05033E+00 1.28412E-03-1.48522E+00-3.52943E-13-1.95416E-13
 -1      2616 2.00821E+01 2.49312E+00 2.56001E-03-1.34137E+00-3.07846E-13-3.12708E-13
 -1      2617 3.18842E+01 6.01132E+00-8.78758E-02-6.14908E-01 2.13052E-13-6.50882E-13
 -1      2618 7.77190E+00-2.98256E+00 1.11857E-01-4.58038E+00 1.24900E-14 2.72560E-13
 -1      2619 1.44509E+01-5.66729E+00 8.08615E-02-7.82882E+00-4.94049E-15 1.90958E-14
 -1      2620 1.77133E+01-5.59451E+00-3.23721E-02-7.78110E+00 1.25788E-13-2.43278E-13
 -1      2621 1.30999E+01-4.18017E+00 1.64752E-01-7.46751E+00 2.46692E-13 1.70836E-13
 -1      2622 2.86836E+01-5.12716E+00 1.15684E-02-3.52173E+00 3.17857E-13-4.52444E-13
 -1      2623 2.04033E+01-2.72080E-01-3.07339E-03-2.92192E-01-1.88489E-13 8.60492E-13
 -1      2624 2.06369E+01-2.85710E-01 1.43894E-02-1.23535E-01-1.65284E-14 7.58492E-13
 -1      2625 3.07287E+01-4.01286E-01-1.45575E-01-3.08180E+00-2.10221E-13 3.47250E-13
 -1      2626 3.15445E+01-1.58641E+00-7.65802E-02-1.64371E+00-1.13663E-13 2.60431E-13
 -1      2627 2.99206E+01-3.04275E+00 2.64169E-02-1.45838E+00-8.37455E-14 1.72889E-13
 -1      2628 8.77045E+00-2.53904E+00 1.72638E-01 5.33270E+00-6.16063E-13 2.16216E-13
 -1      2629 9.23192E+00-8.23656E-01 2.26947E-01 3.71209E+00-6.97914E-13 1.67005E-13
 -1      2630 1.17585E+01-2.30862E+00 1.27062E-01 6.26389E+00-5.85698E-13 5.39568E-14
 -1      2631 3.18051E+01 6.51021E+00-4.95241E-02-2.10388E+00-4.79616E-14 6.66613E-13
 -1      2632 2.04370E+01 1.80806E+00 1.25373E-02 1.56197E+00 3.54192E-13-1.94841E-13
 -1      2633 3.22702E+01 7.64740E+00-1.46377E-01 7.88628E-01 5.64548E-14-7.73435E-13
 -1      2634 2.94228E+01 7.15835E+00-1.21926E-01 3.05197E-01 1.58151E-13-8.28836E-13
 -1      2635 3.04384E+01 7.19065E+00-2.03191E-01 1.28419E+00 2.60902E-15-9.17717E-13
 -1      2636 3.10888E+01 1.95430E+00-2.27988E-01-1.06570E+00 2.20934E-13-5.78732E-13
 -1      2637 3.21616E+01 8.18820E-01-7.34192E-02-9.68864E-02 3.17441E-13-4.99323E-13
 -1      2638 3.04280E+01-1.04399E+00-2.66104E-02-5.24900E-02 3.50692E-13-3.97751E-13
 -1      2639 8.41838E+00-3.12070E+00 1.77931E-01-5.08875E+00 1.40471E-13-2.27901E-13
 -1      2640 3.24160E+01 3.57438E+00-4.35082E-02-3.13033E+00-3.18912E-14 4.40481E-13
 -1      2641 2.74630E+01-5.60214E+00 3.48338E-02 2.02270E+00 8.04912E-15-1.47382E-14
 -1      2642 2.11206E+01-6.60785E+00 9.95871E-02 5.11956E+00 1.56847E-13-2.94688E-13
 -1      2643 6.65297E+00-3.53559E+00 1.62217E-01 3.78044E+00 1.21195E-13-5.07622E-13
 -1      2644 1.51462E+01-5.24975E+00 1.06700E-01-6.84334E+00 2.86299E-13-2.73531E-13
 -1      2645 1.32368E+01-5.42657E+00 1.27776E-01 6.12553E+00 1.14825E-13-3.69871E-13
 -1      2646 3.20957E+01 4.39344E-01-6.64636E-02 5.97251E-01 3.58741E-14-5.53224E-13
 -1      2647 3.09847E+01 1.14114E+00-1.43694E-01 1.96692E+00-2.68674E-14-3.66762E-13
 -1      2648 3.04424E+01-1.29519E+00-1.76657E-02 5.13085E-01 8.20247E-14-4.63268E-13
 -1      2649 3.28322E+01 5.28570E+00-9.45655E-02 1.95042E+00 1.10884E-13-6.27637E-13
 -1      2650 4.80146E+00-2.40537E+00 1.78340E-01-7.85162E-01 3.46841E-13-4.34208E-13
 -1      2651 2.18114E+01-3.55998E-01 2.40650E-02-1.72853E+00-1.53320E-13 2.76439E-13
 -1      2652 2.16717E+01-5.02364E-02 9.80075E-03-2.38900E+00-2.69257E-13 9.28094E-14
 -1      2653 2.21229E+01-8.37496E-01-2.12341E-02-2.84795E+00-4.38259E-13 2.50848E-13
 -1      2654 2.22002E+01-8.45718E-01-3.26233E-02-1.62563E+00-2.30493E-13 3.43631E-13
 -1      2655 2.10161E+01-4.94083E-01-9.64559E-03-3.90341E-02-7.34948E-15 6.43012E-13
 -1      2656 2.28263E+01-1.36617E+00-1.14036E-02-1.99715E+00-1.64760E-13 5.17005E-13
 -1      2657 1.98443E+01 2.76507E+00-6.29875E-03 5.16148E-01 1.10829E-13-4.88233E-13
 -1      2658 1.98194E+01 2.81483E+00-5.69945E-03 3.65295E-01 6.79150E-14-4.93238E-13
 -1      2659 1.98025E+01 2.85236E+00-5.61620E-03 2.29810E-01 3.46701E-14-4.93267E-13
 -1      2660 1.97939E+01 2.86926E+00-5.43345E-03 7.52125E-02-5.76221E-15-4.79597E-13
 -1      2661 1.99489E+01 2.50105E+00 3.64019E-03 2.65160E-01 5.90168E-14-4.70318E-13
 -1      2662 2.00433E+01 2.32404E+00-1.07250E-02 1.04575E+00 2.41101E-13-3.95857E-13
 -1      2663 1.99791E+01 2.47300E+00-6.30473E-03 9.10198E-01 2.01012E-13-4.10650E-13
 -1      2664 2.02171E+01 1.90821E+00-1.20237E-02 1.22699E+00 3.03801E-13-3.30453E-13
 -1      2665 2.01244E+01 2.14633E+00-4.79991E-03 1.13356E+00 2.68409E-13-3.68273E-13
 -1      2666 2.01892E+01 1.88660E+00 6.44264E-03 9.26231E-01 2.37294E-13-3.49788E-13
 -1      2667 2.02132E+01 7.26941E-01-3.49470E-03 6.42386E-01 2.44920E-13-1.89339E-13
 -1      2668 2.03551E+01 9.51832E-01 9.14620E-03 9.06217E-01 2.82782E-13-1.68389E-13
 -1      2669 2.03385E+01 1.50031E+00-1.89912E-03 1.26673E+00 3.23255E-13-2.10010E-13
 -1      2670 2.02173E+01 6.27880E-01 8.59611E-03-4.36348E-01-2.12809E-13-1.53857E-13
 -1      2671 2.01328E+01 4.75345E-01-3.38514E-03-2.77947E-01-1.92303E-13-1.55711E-13
 -1      2672 2.01066E+01 3.62380E-01 6.59387E-03-1.58373E-01-1.82354E-13-1.50768E-13
 -1      2673 2.00474E+01 2.67674E-01-1.78093E-03-6.07525E-02-1.51364E-13-1.84698E-13
 -1      2674 2.01956E+01 5.28618E-01-1.63735E-03-2.61603E-01-2.05409E-13-1.96956E-13
 -1      2675 2.00212E+01 1.97443E-01 4.51783E-03 1.45356E-02-1.15982E-13-1.86218E-13
 -1      2676 1.99853E+01 1.37887E-01-8.42589E-04 7.10827E-02-1.22479E-13-2.02342E-13
 -1      2677 2.01264E+01 2.98538E-01-2.09362E-03-5.53811E-02-1.51577E-13-2.14862E-13
 -1      2678 1.99643E+01 9.37262E-02 2.89988E-03 1.14423E-01-1.43825E-13-2.04377E-13
 -1      2679 1.99462E+01 5.64262E-02-2.99033E-04 1.43814E-01-1.45922E-13-2.23049E-13
 -1      2680 2.00698E+01 1.52364E-01-1.89811E-03 7.18950E-02-1.53750E-13-2.42944E-13
 -1      2681 1.99311E+01 2.89609E-02 1.73582E-03 1.65240E-01-1.45546E-13-2.22675E-13
 -1      2682 1.99251E+01 6.20369E-03 1.46936E-06 1.77086E-01-1.27338E-13-2.52457E-13
 -1      2683 2.00287E+01 5.99513E-02-1.52038E-03 1.42810E-01-1.54844E-13-2.62724E-13
 -1      2684 1.99153E+01-1.02603E-02 9.31372E-04 1.84121E-01-7.79579E-14-2.34117E-13
 -1      2685 1.99171E+01-2.33446E-02 1.60372E-04 1.85010E-01-8.99332E-14-2.15826E-13
 -1      2686 2.00012E+01 2.95864E-03-1.14001E-03 1.75471E-01-1.03053E-13-2.11752E-13
 -1      2687 1.99112E+01-3.24452E-02 3.92709E-04 1.83075E-01-8.12946E-14-1.69982E-13
 -1      2688 1.99176E+01-3.90498E-02 2.39950E-04 1.77529E-01-6.22997E-14-1.21167E-13
 -1      2689 1.99845E+01-3.03620E-02-8.20206E-04 1.83313E-01-6.03854E-14-8.75016E-14
 -1      2690 1.99147E+01-4.32038E-02 4.58347E-05 1.70464E-01-6.36238E-14-1.05721E-13
 -1      2691 1.99234E+01-4.54796E-02 2.76875E-04 1.61579E-01-3.79023E-14-7.04392E-14
 -1      2692 1.99757E+01-4.77510E-02-5.73018E-04 1.76014E-01-2.20705E-14-3.40945E-14
 -1      2693 1.99225E+01-4.63268E-02-1.65763E-04 1.52061E-01-3.27505E-14-1.49286E-14
 -1      2694 1.99321E+01-4.57336E-02 2.93126E-04 1.41949E-01-1.18643E-14-1.07592E-15
 -1      2695 1.99723E+01-5.44360E-02-3.91762E-04 1.60419E-01-2.11897E-14-1.82909E-14
 -1      2696 1.99326E+01-4.43837E-02-2.84856E-04 1.31823E-01-3.22466E-14-4.00585E-14
 -1      2697 1.99424E+01-4.18956E-02 3.02831E-04 1.21915E-01-1.78421E-14-6.68847E-14
 -1      2698 1.99726E+01-5.39745E-02-2.64870E-04 1.41299E-01-4.56681E-14-1.00262E-13
 -1      2699 1.99437E+01-3.90776E-02-3.43369E-04 1.12446E-01-1.04368E-14-1.21503E-13
 -1      2700 1.99533E+01-3.53135E-02 3.15751E-04 1.03722E-01-7.44714E-14-1.04218E-13
 -1      2701 1.99753E+01-4.87506E-02-1.81131E-04 1.21951E-01-2.63317E-14-1.17418E-13
 -1      2702 1.99552E+01-3.14738E-02-3.64928E-04 9.57899E-02-1.18807E-13-6.84429E-14
 -1      2703 1.99644E+01-2.67852E-02 3.39367E-04 8.89416E-02-1.08031E-13-4.29791E-14
 -1      2704 1.99796E+01-4.02904E-02-1.30920E-04 1.04661E-01-6.56814E-14-1.46477E-13
 -1      2705 1.99668E+01-2.21537E-02-3.67022E-04 8.31937E-02-1.20417E-13-2.21972E-14
 -1      2706 1.99759E+01-1.66855E-02 3.79984E-04 7.87552E-02-1.15658E-13-6.97280E-15
 -1      2707 1.99850E+01-2.94747E-02-1.06344E-04 9.10581E-02-1.02323E-13-8.45275E-14
 -1      2708 1.99787E+01-1.13232E-02-3.62742E-04 7.57189E-02-1.66153E-13 2.40537E-14
 -1      2709 1.99879E+01-5.05674E-03 4.43325E-04 7.41643E-02-1.48846E-13 1.67708E-14
 -1      2710 1.99914E+01-1.66863E-02-1.01091E-04 8.23967E-02-1.41448E-13-3.60131E-14
 -1      2711 1.99911E+01 1.11097E-03-3.62141E-04 7.43408E-02-1.36913E-13-4.12125E-14
 -1      2712 2.00010E+01 8.32688E-03 5.34863E-04 7.61624E-02-1.33481E-13-5.87819E-14
 -1      2713 1.99986E+01-1.91517E-03-1.09959E-04 7.97676E-02-1.90560E-13 5.05903E-15
 -1      2714 2.00047E+01 1.54855E-02-3.73356E-04 8.00966E-02-7.39831E-14-1.59878E-14
 -1      2715 2.00159E+01 2.39120E-02 6.59952E-04 8.58659E-02 2.34322E-14 1.04541E-14
 -1      2716 2.00069E+01 1.51649E-02-1.28269E-04 8.42663E-02-8.98795E-14 1.17552E-14
 -1      2717 2.00201E+01 3.23397E-02-4.03524E-04 9.42017E-02 5.43013E-15-7.74785E-15
 -1      2718 2.00333E+01 4.23312E-02 8.23783E-04 1.04618E-01-4.69550E-14-4.51509E-14
 -1      2719 2.00164E+01 3.51405E-02-1.51222E-04 9.71225E-02-2.15061E-14 6.15864E-14
 -1      2720 2.00381E+01 5.23841E-02-4.59532E-04 1.18140E-01-1.12473E-14-4.06670E-14
 -1      2721 2.00542E+01 6.43724E-02 1.03112E-03 1.34068E-01 6.72251E-14-2.67696E-15
 -1      2722 2.00274E+01 5.88143E-02-1.73161E-04 1.19796E-01-2.22495E-14-4.03838E-14
 -1      2723 2.00597E+01 7.64689E-02-5.48568E-04 1.53729E-01 5.13247E-14-5.67197E-14
 -1      2724 2.00796E+01 9.09445E-02 1.28573E-03 1.76221E-01 4.18958E-14-1.18737E-13
 -1      2725 2.00400E+01 8.71643E-02-1.86744E-04 1.54047E-01 8.48762E-15-4.91046E-14
 -1      2726 2.00856E+01 1.05542E-01-6.78406E-04 2.03155E-01 3.55035E-14-1.47960E-13
 -1      2727 2.01105E+01 1.23022E-01 1.58950E-03 2.33457E-01 4.58193E-14-2.24118E-14
 -1      2728 2.00544E+01 1.21293E-01-1.82080E-04 2.01967E-01 1.75247E-14-2.18753E-13
 -1      2729 2.01168E+01 1.40575E-01-8.57173E-04 2.68973E-01-1.39103E-14-1.19780E-13
 -1      2730 2.01476E+01 1.61542E-01 1.94106E-03 3.08508E-01-3.05768E-14-1.84937E-13
 -1      2731 2.00704E+01 1.62343E-01-1.46026E-04 2.65981E-01-1.33455E-14-1.83170E-13
 -1      2732 2.01538E+01 1.82421E-01-1.09213E-03 3.54054E-01 4.87112E-14-1.53058E-13
 -1      2733 2.01916E+01 2.07206E-01 2.33405E-03 4.04351E-01 1.26454E-14-1.15637E-13
 -1      2734 2.00875E+01 2.11347E-01-6.21398E-05 3.48792E-01 1.04139E-14-1.35880E-13
 -1      2735 2.01969E+01 2.31541E-01-1.38657E-03 4.61436E-01-5.87773E-14-1.17703E-13
 -1      2736 2.02426E+01 2.60096E-01 2.75518E-03 5.23992E-01-1.90944E-14-8.41905E-14
 -1      2737 2.01047E+01 2.68935E-01 8.76361E-05 4.53254E-01-5.96622E-15-1.21570E-13
 -1      2738 2.02460E+01 2.87481E-01-1.73326E-03 5.94054E-01-1.25055E-14-1.00283E-13
 -1      2739 2.03005E+01 3.18962E-01 3.18297E-03 6.70070E-01-6.30677E-14-6.15447E-14
 -1      2740 2.01202E+01 3.34804E-01 3.17421E-04 5.82146E-01 9.56904E-15-1.39430E-13
 -1      2741 2.03008E+01 3.47916E-01-2.10175E-03 7.54248E-01-4.19068E-14-1.15600E-14
 -1      2742 2.03648E+01 3.79942E-01 3.58861E-03 8.44168E-01 4.42864E-14 3.30263E-15
 -1      2743 2.01318E+01 4.06736E-01 6.24030E-04 7.37822E-01-5.45043E-15-4.87755E-14
 -1      2744 2.03610E+01 4.06963E-01-2.41547E-03 9.42974E-01 8.51199E-14 1.41784E-14
 -1      2745 2.04356E+01 4.34353E-01 3.94162E-03 1.04572E+00 1.25119E-13 6.90227E-15
 -1      2746 2.01371E+01 4.78904E-01 9.59028E-04 9.21693E-01 4.42958E-14 7.85920E-14
 -1      2747 2.04283E+01 4.52364E-01-2.51161E-03 1.15854E+00 1.05138E-13 3.85682E-14
 -1      2748 2.05157E+01 4.65116E-01 4.22210E-03 1.27032E+00 1.04189E-13 8.05760E-14
 -1      2749 2.01345E+01 5.39019E-01 1.17575E-03 1.13354E+00 9.49912E-14 5.33988E-14
 -1      2750 2.05093E+01 4.61090E-01-2.07150E-03 1.39469E+00 2.45391E-14-3.62758E-15
 -1      2751 2.06151E+01 4.41465E-01 4.42971E-03 1.50714E+00 1.10996E-14 4.37673E-14
 -1      2752 2.01270E+01 5.63855E-01 9.39012E-04 1.37063E+00 8.21275E-14 7.85716E-14
 -1      2753 2.06225E+01 3.93299E-01-5.13989E-04 1.63751E+00-9.04022E-14 1.45517E-13
 -1      2754 2.07594E+01 3.12378E-01 4.57181E-03 1.73502E+00-1.52970E-13 1.76436E-13
 -1      2755 2.01275E+01 5.12843E-01-4.10929E-04 1.62649E+00 1.30220E-14 9.20622E-14
 -1      2756 2.08098E+01 1.86070E-01 3.20859E-03 1.86023E+00-2.10021E-13 1.27202E-13
 -1      2757 2.10026E+01 1.64694E-03 4.54113E-03 1.91601E+00-1.27332E-13-8.50459E-15
 -1      2758 2.01707E+01 3.20484E-01-3.99219E-03 1.88851E+00-2.31967E-13 2.44427E-13
 -1      2759 2.11532E+01-2.47875E-01 1.08210E-02 2.01362E+00-1.61377E-14 1.07800E-13
 -1      2760 2.14422E+01-5.86881E-01 3.42348E-03 1.98404E+00 1.31461E-13 1.44563E-13
 -1      2761 2.03303E+01-1.08486E-01-1.13631E-02 2.13205E+00-4.58394E-14 1.35462E-13
 -1      2762 2.17922E+01-1.00148E+00 2.46868E-02 2.00355E+00 3.80235E-13 1.81764E-13
 -1      2763 2.22274E+01-1.52334E+00 3.93342E-04 1.82023E+00 4.16708E-13 2.82635E-13
 -1      2764 2.07462E+01-8.92299E-01-2.42268E-02 2.30280E+00 2.43513E-13 3.14439E-13
 -1      2765 2.29084E+01-2.09522E+00 4.39341E-02 1.66336E+00 1.71996E-13 2.12000E-13
 -1      2766 2.35203E+01-2.72969E+00-6.91104E-03 1.23185E+00 7.38298E-14 1.31405E-13
 -1      2767 2.16370E+01-2.09692E+00-4.13820E-02 2.26943E+00 2.68490E-13 1.00140E-13
 -1      2768 2.46664E+01-3.29159E+00 6.34283E-02 7.23144E-01 1.01630E-13 2.08694E-13
 -1      2769 2.54681E+01-3.65251E+00 1.04866E-02-7.83390E-02 1.39274E-13 1.53152E-13
 -1      2770 2.32700E+01-3.59378E+00-6.27860E-02 1.78760E+00 9.31651E-14 1.91184E-13
 -1      2771 2.85057E+01-2.04830E+00-8.90387E-02-3.06324E+00-8.85993E-14 3.47944E-13
 -1      2772 2.86536E+01-1.59127E-01-7.07061E-02-3.45726E+00-2.41543E-13 3.00551E-13
 -1      2773 2.83561E+01 5.63650E+00-2.33575E-01-1.69198E+00-2.61458E-14 4.12425E-13
 -1      2774 2.84056E+01 5.61841E+00-2.18681E-01-2.61400E-01 1.52406E-13 4.23260E-13
 -1      2775 2.87222E+01 4.40681E+00-1.41337E-01 1.17673E+00-2.40918E-14 3.80349E-13
 -1      2776 2.86165E+01 2.29530E+00-2.34732E-01 1.77853E+00-1.13340E-13 2.93938E-13
 -1      2777 2.69315E+01-3.05762E+00-5.25056E-02-3.96888E-02 1.13395E-13 3.53710E-13
 -1      2778 2.62567E+01-3.39659E+00 2.31194E-02-8.86334E-01 3.26692E-14 3.66804E-13
 -1      2779 2.48413E+01-3.16502E+00-3.03724E-02-1.79460E+00-1.81091E-13 3.78809E-13
 -1      2780 2.40627E+01-2.55941E+00 4.44606E-02-2.36781E+00-4.36770E-14 3.20251E-13
 -1      2781 2.57464E+01-3.98052E+00-4.08781E-02-2.33391E+00-4.05769E-14 1.02868E-13
 -1      2782 1.98552E+01 4.91225E-02 4.24564E-05-1.43912E-01 1.35209E-13-2.06656E-13
 -1      2783 1.98692E+01 8.10332E-02 3.16349E-03-1.15655E-01 1.49141E-13-1.80239E-13
 -1      2784 2.19517E+01-8.43627E-01-4.22772E-03 1.41248E-01-1.67013E-13 2.00339E-14
 -1      2785 2.14122E+01-6.45353E-01-4.02773E-03-2.56813E-01-8.87740E-14 6.35192E-13
 -1      2786 2.15502E+01-6.63967E-01-9.71843E-03-4.29456E-01-2.76795E-14 5.15897E-13
 -1      2787 1.98922E+01 1.18646E-01-2.56977E-04-7.11973E-02 1.37665E-13-2.18439E-13
 -1      2788 1.99279E+01 1.70273E-01 5.20195E-03-1.57306E-02 1.37935E-13-1.96174E-13
 -1      2789 1.99917E+01 1.35277E-01-2.33314E-03-7.27526E-02 1.45470E-13-2.44530E-13
 -1      2790 1.98433E+01-1.84152E-02 2.39791E-04-1.84223E-01 7.76350E-14-1.48857E-13
 -1      2791 1.98349E+01-7.32694E-03 8.80516E-04-1.83819E-01 8.04420E-14-1.87857E-13
 -1      2792 1.98543E+01-3.17749E-02 2.50804E-04-1.76455E-01 8.46171E-14-1.42518E-13
 -1      2793 1.98415E+01-2.61510E-02 2.96680E-04-1.82237E-01 1.00819E-13-1.57286E-13
 -1      2794 1.99202E+01-2.50543E-02-8.51131E-04-1.87118E-01 8.84944E-14-1.73409E-13
 -1      2795 1.98702E+01-3.73852E-02 2.45297E-04-1.60320E-01 5.42632E-14-1.44451E-13
 -1      2796 1.98556E+01-3.53890E-02-6.60629E-05-1.69287E-01 6.60614E-14-1.53588E-13
 -1      2797 1.99200E+01-4.03144E-02-5.51814E-04-1.79436E-01 9.62198E-14-1.68835E-13
 -1      2798 1.98883E+01-3.78586E-02 2.37377E-04-1.40532E-01 5.30662E-14-1.39138E-13
 -1      2799 1.98734E+01-3.82524E-02-2.76861E-04-1.50661E-01 5.10175E-14-1.13798E-13
 -1      2800 1.99253E+01-4.63549E-02-3.42098E-04-1.63279E-01 3.51606E-14-1.47088E-13
 -1      2801 1.99066E+01-3.49510E-02 2.35292E-04-1.20285E-01 3.62581E-14-1.11652E-13
 -1      2802 1.98925E+01-3.69087E-02-3.85221E-04-1.30219E-01 8.22500E-14-1.05570E-13
 -1      2803 1.99336E+01-4.62754E-02-2.02574E-04-1.43484E-01 5.60296E-14-1.48676E-13
 -1      2804 1.99244E+01-2.98058E-02 2.44485E-04-1.01739E-01 8.04143E-15-1.31766E-13
 -1      2805 1.99113E+01-3.27979E-02-4.27052E-04-1.10563E-01 2.78387E-14-9.95552E-14
 -1      2806 1.99434E+01-4.21517E-02-1.16493E-04-1.23357E-01 5.30835E-14-2.82341E-14
 -1      2807 1.99414E+01-2.31181E-02 2.69227E-04-8.63800E-02 7.10175E-14-1.58365E-13
 -1      2808 1.99293E+01-2.68332E-02-4.27883E-04-9.34623E-02 4.49565E-14-1.53404E-13
 -1      2809 1.99539E+01-3.53252E-02-7.11344E-05-1.05157E-01 4.02832E-14-1.05027E-13
 -1      2810 1.99576E+01-1.52489E-02 3.13360E-04-7.52835E-02 3.42569E-14-1.92748E-13
 -1      2811 1.99463E+01-1.95384E-02-4.05813E-04-8.01567E-02 2.70710E-14-1.32708E-13
 -1      2812 1.99646E+01-2.65957E-02-5.63263E-05-9.04660E-02 3.65663E-14-9.68170E-14
 -1      2813 1.99737E+01-6.30841E-03 3.80518E-04-6.93186E-02 4.70029E-14-7.38719E-14
 -1      2814 1.99627E+01-1.11454E-02-3.73626E-04-7.15903E-02 2.93492E-14-1.34256E-13
 -1      2815 1.99755E+01-1.63613E-02-6.47587E-05-8.04578E-02 1.52511E-14-6.47356E-14
 -1      2816 1.99905E+01 3.77335E-03 4.74035E-04-6.92933E-02-3.37895E-14-6.04049E-14
 -1      2817 1.99791E+01-1.67059E-03-3.40103E-04-6.85820E-02 4.61665E-14-5.84041E-14
 -1      2818 1.99869E+01-4.72009E-03-9.11304E-05-7.61033E-02 2.29757E-14 1.76406E-14
 -1      2819 2.00089E+01 1.51836E-02 5.96652E-04-7.60572E-02 2.43078E-14-1.15408E-13
 -1      2820 1.99963E+01 9.01978E-03-3.11045E-04-7.19496E-02 1.21685E-14-1.32988E-13
 -1      2821 1.99992E+01 8.44079E-03-1.31630E-04-7.83214E-02 2.84484E-14-6.53839E-14
 -1      2822 2.00302E+01 2.81603E-02 7.49888E-04-9.05589E-02 9.90592E-14-2.18223E-13
 -1      2823 2.00156E+01 2.11454E-02-2.89885E-04-8.25884E-02 5.91476E-15-2.37673E-13
 -1      2824 2.00130E+01 2.33636E-02-1.83491E-04-8.80791E-02 9.31914E-14-2.13919E-13
 -1      2825 2.00559E+01 4.29124E-02 9.33030E-04-1.13858E-01 7.63113E-14-1.35087E-13
 -1      2826 2.00382E+01 3.49408E-02-2.77933E-04-1.01507E-01 1.47773E-13-1.48859E-13
 -1      2827 2.00291E+01 4.03311E-02-2.44653E-04-1.06445E-01 9.46279E-14-2.39670E-13
 -1      2828 2.00876E+01 5.95145E-02 1.14164E-03-1.47079E-01 3.56207E-14-9.29846E-14
 -1      2829 2.00656E+01 5.05649E-02-2.74219E-04-1.29813E-01 3.24009E-14-9.34814E-14
 -1      2830 2.00484E+01 5.95583E-02-3.13618E-04-1.34589E-01 8.98199E-14 1.22715E-14
 -1      2831 2.01271E+01 7.77599E-02 1.36545E-03-1.91290E-01-2.10709E-14 4.52969E-15
 -1      2832 2.00996E+01 6.79778E-02-2.74834E-04-1.68628E-01 2.94260E-14-5.63293E-14
 -1      2833 2.00721E+01 8.10467E-02-3.89569E-04-1.73726E-01 2.86422E-14 3.19445E-14
 -1      2834 2.01765E+01 9.69531E-02 1.58561E-03-2.47286E-01-7.04324E-14-8.92957E-14
 -1      2835 2.01422E+01 8.67674E-02-2.71644E-04-2.18930E-01-4.88960E-14 3.55313E-14
 -1      2836 2.01015E+01 1.04383E-01-4.72977E-04-2.24966E-01-4.41481E-14 1.17057E-13
 -1      2837 2.02380E+01 1.15620E-01 1.77113E-03-3.15228E-01-4.47399E-14-2.11556E-13
 -1      2838 2.01956E+01 1.05905E-01-2.50192E-04-2.81265E-01-2.07180E-14-1.27156E-13
 -1      2839 2.01380E+01 1.28455E-01-5.66927E-04-2.89074E-01-1.19004E-14 4.39815E-14
 -1      2840 2.03140E+01 1.31119E-01 1.87480E-03-3.94117E-01-1.60129E-13-2.56113E-13
 -1      2841 2.02622E+01 1.23411E-01-1.86635E-04-3.55317E-01-5.81071E-14-2.63375E-13
 -1      2842 2.01837E+01 1.51064E-01-6.79557E-04-3.66074E-01-3.46951E-15-7.48542E-15
 -1      2843 2.04072E+01 1.39147E-01 1.82879E-03-4.81033E-01-1.19807E-13-3.31446E-13
 -1      2844 2.03449E+01 1.35911E-01-4.37106E-05-4.39268E-01-1.84306E-13-3.37353E-13
 -1      2845 2.02410E+01 1.68412E-01-8.27884E-04-4.54687E-01-1.47900E-13-1.95183E-13
 -1      2846 2.05205E+01 1.33183E-01 1.54073E-03-5.70119E-01-5.94795E-14-3.41549E-13
 -1      2847 2.04470E+01 1.38107E-01 2.33680E-04-5.28913E-01-1.19220E-13-3.70255E-13
 -1      2848 2.03131E+01 1.74470E-01-1.04294E-03-5.51528E-01-1.03674E-13-3.76752E-13
 -1      2849 2.06575E+01 1.04011E-01 8.92043E-04-6.51290E-01-4.29599E-15-2.64871E-13
 -1      2850 2.05726E+01 1.22233E-01 7.21315E-04-6.16493E-01-2.96231E-14-2.93784E-13
 -1      2851 2.04048E+01 1.60315E-01-1.37482E-03-6.50055E-01-7.93988E-14-2.78492E-13
 -1      2852 2.08223E+01 3.96864E-02-2.58929E-04-7.08764E-01 1.52517E-13-4.08878E-14
 -1      2853 2.07264E+01 7.77270E-02 1.51226E-03-6.89256E-01 7.51367E-14-1.52681E-13
 -1      2854 2.05226E+01 1.13646E-01-1.89286E-03-7.39221E-01-6.25679E-14-4.99198E-14
 -1      2855 2.10198E+01-7.33472E-02-2.06123E-03-7.19678E-01 1.43763E-13 1.32820E-13
 -1      2856 2.09145E+01-8.35639E-03 2.69555E-03-7.27892E-01 1.92590E-13 6.46123E-14
 -1      2857 2.06763E+01 1.90280E-02-2.67112E-03-8.01887E-01 5.53476E-14 1.73254E-13
 -1      2858 2.12545E+01-2.46680E-01-4.63382E-03-6.53448E-01-1.77449E-13 2.51196E-13
 -1      2859 2.11433E+01-1.49238E-01 4.30415E-03-7.05229E-01 4.28388E-14 2.37907E-13
 -1      2860 2.08784E+01-1.40141E-01-3.73981E-03-8.13175E-01 2.64638E-14 2.56665E-13
 -1      2861 2.15279E+01-4.81998E-01-7.95022E-03-4.73219E-01-2.50749E-13 3.63490E-13
 -1      2862 2.14175E+01-3.53016E-01 6.16757E-03-5.86158E-01-2.45467E-13 2.76680E-13
 -1      2863 2.11440E+01-3.76094E-01-4.97409E-03-7.39291E-01-2.20482E-13 2.32589E-13
 -1      2864 2.18316E+01-7.57107E-01-1.15729E-02-1.42186E-01-1.38726E-13 4.27020E-13
 -1      2865 2.17343E+01-6.11906E-01 7.74500E-03-3.30905E-01-2.28178E-13 3.87806E-13
 -1      2866 2.14857E+01-6.85182E-01-5.90406E-03-5.38267E-01-2.97898E-13 1.36356E-13
 -1      2867 2.21366E+01-1.00676E+00-1.40397E-02 3.61327E-01 7.03864E-15 3.46214E-13
 -1      2868 2.20725E+01-8.85551E-01 7.93230E-03 9.45832E-02-1.07578E-14 4.53846E-13
 -1      2869 2.19031E+01-1.02889E+00-5.46022E-03-1.66108E-01-8.34366E-14 2.56014E-13
 -1      2870 2.23810E+01-1.10896E+00-1.27902E-02 1.01368E+00 8.91641E-14 3.01766E-13
 -1      2871 2.23774E+01-1.08174E+00 5.13052E-03 6.94768E-01 3.24359E-14 3.33268E-13
 -1      2872 2.23631E+01-1.30879E+00-1.73811E-03 4.05591E-01 7.93670E-14 1.28350E-13
 -1      2873 2.24713E+01-9.05933E-01-5.41615E-03 1.70370E+00 1.60398E-13 2.46054E-13
 -1      2874 2.25521E+01-1.05546E+00-2.86248E-03 1.40282E+00 2.30527E-13 2.81474E-13
 -1      2875 2.27770E+01-1.35538E+00 6.27160E-03 1.14888E+00 1.72633E-13 1.84787E-13
 -1      2876 2.23186E+01-2.90085E-01 8.02597E-03 2.20577E+00 9.21289E-14 3.22559E-13
 -1      2877 2.24858E+01-6.57366E-01-1.54639E-02 2.03842E+00 1.04642E-13 3.52673E-13
 -1      2878 2.29998E+01-9.77397E-01 1.37984E-02 1.92182E+00 8.05018E-14 2.76571E-13
 -1      2879 2.19248E+01 6.39722E-01 2.02060E-02 2.22540E+00-1.76285E-13 1.96361E-13
 -1      2880 2.21379E+01 1.43086E-01-2.45882E-02 2.31227E+00-1.12211E-14 3.61415E-13
 -1      2881 2.28978E+01-9.26489E-02 1.36616E-02 2.42822E+00 1.97241E-14 3.21231E-13
 -1      2882 2.14531E+01 1.49872E+00 1.69477E-02 1.59731E+00-1.05275E-13 1.58730E-14
 -1      2883 2.16381E+01 1.10237E+00-2.30909E-02 1.96975E+00-2.08396E-13 5.17379E-14
 -1      2884 2.25042E+01 1.08738E+00 3.00121E-03 2.32239E+00-7.99341E-14 3.78066E-13
 -1      2885 2.11794E+01 1.79401E+00-1.11396E-03 5.05004E-01 1.28222E-13-2.82530E-14
 -1      2886 2.12708E+01 1.73622E+00-4.94149E-03 1.02650E+00 8.97234E-14 5.12164E-14
 -1      2887 2.20797E+01 2.00636E+00-1.53664E-02 1.45733E+00-1.96926E-14 6.50143E-14
 -1      2888 2.12390E+01 1.36134E+00-1.98430E-02-5.48203E-01-4.64041E-14 6.30000E-14
 -1      2889 2.12262E+01 1.66429E+00 1.54393E-02-1.09200E-01-2.79152E-14-8.35774E-14
 -1      2890 2.19484E+01 2.14640E+00-1.61610E-02 1.89497E-01 1.04944E-13 3.71612E-14
 -1      2891 2.14872E+01 5.09124E-01-2.61127E-02-1.10046E+00 1.82557E-13 9.15544E-15
 -1      2892 2.14267E+01 9.62389E-01 2.08933E-02-9.10873E-01 9.81428E-14 3.25968E-14
 -1      2893 2.21507E+01 1.44933E+00-4.74737E-04-8.37906E-01 1.32407E-14 3.03603E-14
 -1      2894 2.16077E+01-2.31521E-01-2.38042E-02-1.05839E+00 2.36432E-13 2.23799E-13
 -1      2895 2.15952E+01 1.10552E-01 1.01453E-02-1.10819E+00 1.75329E-13 1.10305E-13
 -1      2896 2.23926E+01 3.86841E-01 1.43915E-02-1.18428E+00 1.29810E-13-9.39162E-14
 -1      2897 2.16357E+01-5.94616E-01-1.66234E-02-6.97980E-01 6.07231E-14 4.43122E-13
 -1      2898 2.17112E+01-4.44261E-01-2.91688E-03-8.71477E-01 1.38347E-13 2.46281E-13
 -1      2899 2.25545E+01-4.17692E-01 2.31210E-02-9.45102E-01 7.23902E-14-2.62720E-14
 -1      2900 2.25412E+01-8.28933E-01 2.89481E-02-4.23632E-01-1.52638E-13 2.02616E-15
 -1      2901 1.68021E+01 4.90896E-01-3.57289E-02 5.02007E+00-2.10722E-13 5.49200E-13
 -1      2902 1.87468E+01-7.29995E-02 1.41193E-01 5.53008E+00-2.45366E-13 1.02408E-13
 -1      2903 2.32530E+01-1.99591E+00-3.58106E-03-2.62362E+00-2.47328E-15 2.99740E-13
 -1      2904 2.27621E+01-1.41707E+00 3.38618E-02-2.76404E+00-2.18466E-13 2.51024E-13
 -1      2905 2.36244E+01-2.82068E+00-4.62844E-02-3.29699E+00-2.22160E-13-1.15219E-13
 -1      2906 2.25946E+01-1.61645E+00 1.59925E-02 4.04041E+00 1.40390E-13-3.90493E-13
 -1      2907 2.30138E+01-1.78917E+00 5.28892E-03 3.29344E+00 1.63792E-13-4.63550E-13
 -1      2908 1.37257E+01 1.80685E+00-9.27928E-03 2.34065E+00-6.41431E-14-8.86791E-14
 -1      2909 1.50569E+01 1.41247E+00 1.24262E-01 3.86857E+00-1.05364E-13 1.76706E-13
 -1      2910 2.03837E+01-1.10074E+00-2.60723E-02 5.37932E+00-2.27485E-13-3.60774E-13
 -1      2911 2.17527E+01-1.51119E+00 6.06988E-02 4.98577E+00 2.33303E-14-3.64550E-13
 -1      2912 2.27304E+01-2.59158E+00 2.52522E-03 4.70855E+00 4.51392E-14-4.28378E-13
 -1      2913 8.60983E+00-3.44258E-02 1.39069E-01 8.82065E-01-3.28699E-13-1.34892E-13
 -1      2914 8.61644E+00-1.29081E-01 2.12863E-01-1.26045E+00-2.52860E-13-5.66491E-14
 -1      2915 3.11336E+01 5.88058E+00-1.06388E-01 3.28950E-01 9.72555E-14 3.55174E-13
 -1      2916 1.29962E+01 1.78041E+00 6.56233E-02-1.41584E+00-1.84329E-13-3.54744E-13
 -1      2917 1.28208E+01 1.90645E+00 8.92127E-02 3.60995E-01-2.10997E-13-5.37348E-14
 -1      2918 2.02887E+01-7.15291E-01 1.17873E-01-5.14770E+00-1.02552E-13 8.17020E-14
 -1      2919 1.86493E+01-2.37400E-01-4.23262E-02-5.13326E+00-4.50785E-14-1.22177E-13
 -1      2920 2.70850E+01-5.70847E+00 9.96664E-02-4.16987E+00 3.27918E-13-4.44200E-13
 -1      2921 2.90679E+01-4.61321E+00-1.55647E-01-2.01659E+00 2.95243E-13-3.37411E-13
 -1      2922 2.99225E+01-2.64319E+00-8.65591E-03 1.60732E-01 5.60177E-14-1.68573E-13
 -1      2923 2.99331E+01-1.00644E+00-1.68180E-01 1.02009E+00-1.73653E-13-1.70960E-13
 -1      2924 1.57788E+01-5.23129E+00-1.40212E-02 5.98678E+00 1.82465E-13-3.66221E-13
 -1      2925 1.21809E+01-4.05307E+00 1.72629E-01 5.57619E+00 1.45342E-13-2.15494E-13
 -1      2926 1.99615E+01 2.31169E-01-7.72586E-04 6.23621E-02 1.49448E-13-2.10037E-13
 -1      2927 2.00271E+01 3.15027E-01 7.81798E-03 1.60144E-01 1.77231E-13-1.93136E-13
 -1      2928 2.00563E+01 2.65799E-01-2.71623E-03 6.03080E-02 1.48520E-13-2.33370E-13
 -1      2929 1.98415E+01 6.57803E-03 1.85803E-04-1.76723E-01 1.00614E-13-1.83031E-13
 -1      2930 1.98415E+01 2.59038E-02 1.78512E-03-1.65696E-01 1.21052E-13-1.97849E-13
 -1      2931 1.99511E+01 5.38517E-02-1.76974E-03-1.45959E-01 1.28354E-13-1.66245E-13
 -1      2932 1.99290E+01 4.02273E-03-1.25684E-03-1.79314E-01 8.20655E-14-1.69398E-13
 -1      2933 9.23378E+00-1.12727E+00 1.34883E-01-3.88592E+00-1.35392E-13 3.93852E-14
 -1      2934 1.11451E+01-2.68465E+00 1.97101E-01-6.31250E+00 2.19186E-13 2.77028E-13
 -1      2935 2.03216E+01 1.06058E+00 5.89183E-03-8.56119E-01-2.80175E-13-1.37187E-13
 -1      2936 2.02280E+01 8.15412E-01-5.71240E-03-6.13999E-01-2.31332E-13-1.42175E-13
 -1      2937 2.02610E+01 8.93002E-01 6.86250E-05-5.71149E-01-2.36396E-13-1.96302E-13
 -1      2938 2.93139E+01 5.66791E+00-2.19192E-01-9.54101E-01 3.82305E-13-6.83766E-13
 -1      2939 3.07242E+01 4.25755E+00-1.24346E-01-1.32687E+00 3.10973E-13-5.58997E-13
 -1      2940 8.14038E+00-1.78046E+00 2.22031E-01-3.87092E+00 1.37029E-13-2.47441E-13
 -1      2941 1.06432E+01-2.72612E+00 7.80269E-02-5.50497E+00 1.16393E-13-1.59484E-13
 -1      2942 2.00705E+01 4.15452E-01-1.54541E-03 2.87561E-01 2.10396E-13-2.06555E-13
 -1      2943 2.01717E+01 5.53745E-01 1.04319E-02 4.50249E-01 2.22681E-13-1.92045E-13
 -1      2944 2.02538E+01 8.21524E-01 6.12259E-04 6.16927E-01 2.49935E-13-2.46162E-13
 -1      2945 2.01462E+01 4.77024E-01-2.12389E-03 2.80193E-01 2.01467E-13-2.44095E-13
 -1      2946 2.92767E+01 5.08992E+00-1.53162E-01-2.79202E+00-1.15685E-13 4.48225E-13
 -1      2947 1.99230E+01 2.59598E+00-7.88520E-03 7.94320E-01 1.82898E-13-4.55149E-13
 -1      2948 1.98791E+01 2.68815E+00-6.12149E-03 6.45351E-01 1.41950E-13-4.73548E-13
 -1      2949 1.99977E+01 2.38847E+00 4.32494E-03 5.16651E-01 1.28317E-13-4.48775E-13
 -1      2950 2.00793E+01 2.19070E+00 5.59869E-03 7.45592E-01 1.92266E-13-4.12358E-13
 -1      2951 5.84966E+00-1.58379E+00 1.78243E-01 7.29886E-01 1.22843E-13-6.98858E-13
 -1      2952 6.05400E+00-1.51975E+00 8.65995E-02-1.83632E+00 2.54886E-13-5.74513E-13
 -1      2953 1.44934E+01-4.12991E+00 1.25994E-01-6.40454E+00 1.15657E-13-2.30926E-13
 -1      2954 1.80220E+01-5.38360E+00 3.43840E-02-6.48784E+00 1.49020E-13-2.46914E-13
 -1      2955 1.98741E+01 2.69687E+00-6.10446E-03-6.35152E-01-1.45269E-13-4.36597E-13
 -1      2956 1.99172E+01 2.60719E+00-7.74700E-03-7.84504E-01-1.87179E-13-4.13372E-13
 -1      2957 2.12698E+01-5.78372E+00 1.02318E-01-5.45856E+00 1.25525E-13-4.56036E-13
 -1      2958 2.38708E+01-5.99454E+00-1.80598E-02-4.53680E+00 1.24484E-13-5.62494E-13
 -1      2959 3.03809E+01 3.89676E+00-1.65357E-01 2.46032E+00-1.13465E-13-4.10574E-13
 -1      2960 3.06666E+01 5.90765E+00-1.96729E-01 2.11780E+00-1.05249E-13-7.49595E-13
 -1      2961 2.24024E+01-1.41367E+00-1.51866E-02-3.50658E+00-2.31417E-13-1.17217E-13
 -1      2962 9.21164E+00-3.16513E+00 9.99892E-02 4.82944E+00 1.21431E-13-2.59209E-13
 -1      2963 7.00252E+00-2.14765E+00 1.50845E-01 2.91886E+00 2.58751E-14-5.10869E-13
 -1      2964 1.23774E+01-2.86721E+00 1.89485E-01 4.83585E+00 1.76401E-13-2.56434E-13
 -1      2965 2.32362E+01-6.41337E+00-5.27956E-02 4.08767E+00 1.81327E-13-1.57678E-14
 -1      2966 2.01891E+01-5.92623E+00 1.48272E-01 5.06787E+00 1.72223E-13-2.18065E-13
 -1      2967 2.79398E+01-5.23587E+00-1.47460E-01 6.82174E-01 1.21896E-13 2.34229E-13
 -1      2968 2.58574E+01-6.00288E+00 6.81747E-02 2.36332E+00 1.75276E-13 6.33243E-14
 -1      2969 2.48497E+01-5.68942E+00 1.02534E-01 2.53331E+00 2.18381E-13 1.27801E-13
 -1      2970 2.91162E+01 8.24493E-01-1.13137E-01 1.83556E+00-1.42900E-13 1.40596E-13
 -1      2971 2.03158E+01 1.68893E+00-6.79841E-03-1.29473E+00-3.34119E-13-1.85370E-13
 -1      2972 2.02982E+01 1.30260E+00-3.04683E-03-1.01994E+00-3.15681E-13-1.60715E-13
 -1      2973 2.02806E+01 1.37377E+00 6.24366E-04-9.23271E-01-2.75899E-13-1.97304E-13
 -1      2974 2.02231E+01 1.95304E+00-4.23085E-04-1.26561E+00-3.06512E-13-2.49414E-13
 -1      2975 2.17313E+01-5.80193E+00 1.77353E-01-6.94496E+00 1.66034E-13-3.54741E-13
 -1      2976 2.41281E+01-6.24485E+00-8.83635E-02-6.14200E+00 2.14717E-13-5.23546E-13
 -1      2977 1.99719E+01 2.48769E+00-6.02448E-03-9.02028E-01-2.26370E-13-3.91490E-13
 -1      2978 2.00367E+01 2.34360E+00-8.97949E-03-1.03471E+00-2.68035E-13-3.48206E-13
 -1      2979 2.00734E+01 2.20482E+00 6.09019E-03-7.39486E-01-1.93553E-13-3.66560E-13
 -1      2980 1.99323E+01 2.53859E+00 3.43564E-03 4.59579E-03-1.31931E-14-4.48334E-13
 -1      2981 1.97932E+01 2.87007E+00-5.49031E-03-6.18966E-02-3.79185E-14-4.75937E-13
 -1      2982 1.98007E+01 2.85545E+00-5.55262E-03-2.16596E-01-6.24849E-14-4.77665E-13
 -1      2983 2.02908E+01 1.58795E+00-1.13295E-03 1.16565E+00 3.07032E-13-2.68746E-13
 -1      2984 2.77751E+01 6.15468E+00-1.48094E-01-3.18006E-02 2.18631E-13-5.34267E-13
 -1      2985 2.87122E+01 6.04179E+00-1.88052E-01-5.21262E-01 3.52329E-13-6.65724E-13
 -1      2986 2.78233E+01 4.84395E+00-1.06687E-01-1.05676E+00 5.08316E-13-4.72906E-13
 -1      2987 2.26601E+01-5.53244E+00 1.52981E-01 6.85906E+00-2.95874E-14-5.60400E-13
 -1      2988 2.11235E+01-4.64178E+00 1.24596E-01 7.06800E+00 3.71647E-14-3.94712E-13
 -1      2989 2.95122E+01 2.18834E+00-8.85431E-02-1.33257E+00 3.51191E-13-4.36678E-13
 -1      2990 1.42008E+01-2.86262E+00 8.44155E-02-6.56211E+00 3.13027E-13-1.51684E-14
 -1      2991 8.64789E+00-1.03737E+00 1.76208E-01-2.55508E+00 9.33420E-14-3.69954E-13
 -1      2992 2.51768E+01-5.60748E+00-7.57976E-02 5.60909E+00 3.76227E-14-6.66224E-13
 -1      2993 2.53669E+01-4.99561E+00-8.21336E-02 1.18700E+00 2.61003E-13 2.79256E-13
 -1      2994 2.65735E+01-4.16984E+00 6.32149E-03-4.43152E-01 2.56293E-13 2.53034E-13
 -1      2995 2.73635E+01-3.64196E+00-2.35409E-02-1.36919E+00 1.57293E-13 2.35284E-13
 -1      2996 2.79729E+01-4.21934E-01-5.05118E-02 1.63867E+00-5.87447E-14 1.68997E-13
 -1      2997 2.76582E+01-2.04419E+00-5.66597E-02 1.14829E+00 2.02043E-14 2.45318E-13
 -1      2998 2.37258E+01-2.29168E+00-3.84067E-03 2.71355E+00 7.89526E-14-4.14255E-13
 -1      2999 2.31037E+01-1.48294E+00 3.35500E-02 2.35145E+00 1.83374E-13-4.01215E-13
 -1      3000 2.29146E+01-1.50287E+00-2.62937E-02 1.62234E+00-4.77743E-15-2.37757E-13
 -1      3001 1.11552E+01 2.15295E-03 1.83785E-01-2.91148E+00-9.20895E-14-1.04250E-13
 -1      3002 1.96616E+01-1.74848E+00 4.44198E-02 5.99550E+00-2.34111E-13-1.72966E-13
 -1      3003 1.52004E+01 1.68675E-02 1.09928E-01 5.05643E+00-1.00045E-13 3.85844E-13
 -1      3004 1.89009E+01-4.93329E+00 1.45502E-01 4.98497E+00 2.46747E-13-1.81480E-13
 -1      3005 8.24818E+00-1.18012E+00 2.03526E-01 1.83571E+00 9.76372E-14-6.23918E-13
 -1      3006 2.24002E+01-9.82344E-01 1.74176E-02 6.52276E-01-1.90080E-13-2.60259E-13
 -1      3007 1.01825E+01 2.69383E-02 1.97733E-01 2.92549E+00-3.67720E-13-1.08275E-13
 -1      3008 1.16398E+01 9.66125E-01 1.83300E-01 1.79166E+00-1.09815E-13-2.37532E-13
 -1      3009 2.93819E+01 1.38043E+00-1.53674E-01-3.83935E+00-1.98563E-13 3.55868E-13
 -1      3010 1.38357E+01 8.33598E-01 4.25209E-02-3.79378E+00-1.89189E-14-2.47663E-13
 -1      3011 1.63174E+01-1.36879E+00 9.65265E-02-5.85610E+00 2.20893E-13-8.00748E-14
 -1      3012 1.57170E+01 1.47331E-01 1.19503E-01-4.93382E+00 6.32515E-14-1.99486E-13
 -1      3013 2.84947E+01-3.79649E+00-6.11527E-02-8.50509E-01 2.67905E-13-7.74936E-14
 -1      3014 2.18120E+01-1.18011E+00 1.46261E-02-4.15405E+00-1.46792E-14-2.77909E-14
 -1      3015 2.02805E+01 1.36659E+00 2.30772E-03 9.19634E-01 2.67549E-13-2.89903E-13
 -1      3016 2.29140E+01-2.51665E+00 6.46748E-02-4.19194E+00-1.84769E-13-1.13973E-13
 -1      3017 2.13162E+01-1.59306E+00-2.84161E-02-4.84805E+00-1.73863E-13 1.79929E-13
 -1      3018 2.11378E+01-2.40760E+00 4.21203E-02-5.42774E+00-4.43361E-14-8.54837E-14
 -1      3019 2.36058E+01-3.33412E+00 1.18303E-02-4.04527E+00-3.14993E-13-1.00682E-13
 -1      3020 2.57727E+01-5.56241E+00 4.89232E-02-4.54787E+00 2.02893E-13-4.56774E-13
 -1      3021 2.00077E+01-5.09977E+00 9.94634E-02-7.18047E+00 1.85046E-13-3.83915E-13
 -1      3022 2.87750E+01 5.88017E+00-1.29606E-01 1.91404E+00-1.82243E-13-5.63327E-13
 -1      3023 2.91375E+01-3.47914E+00-1.38586E-01 1.55510E+00 7.17100E-14-1.47299E-13
 -1      3024 2.82964E+01-4.79995E+00 7.73091E-02 3.28479E+00 2.74086E-14-3.24268E-13
 -1      3025 2.80429E+01-3.29442E+00-7.11450E-02-1.93351E-01 1.02061E-13 1.50380E-13
 -1      3026 2.94587E+01-2.91080E+00-5.58917E-02-4.42936E-02 1.70946E-13-4.47836E-13
 -1      3027 2.91230E+01-2.00369E+00-1.05218E-01 1.22174E+00 3.90729E-14-4.58494E-13
 -1      3028 2.80863E+01-3.99468E+00 9.99350E-03-6.73703E-01 7.20726E-14-4.84141E-13
 -1      3029 1.26128E+01-1.93687E+00 8.47671E-02-4.88149E+00-5.74193E-14-1.31034E-13
 -1      3030 1.34802E+01-3.10471E+00 1.58664E-01-5.81968E+00 9.39526E-15-2.50827E-13
 -1      3031 1.59131E+01-3.53306E+00-1.24385E-02-5.62804E+00-1.02356E-13 8.18096E-15
 -1      3032 2.85652E+01-4.03567E+00-2.04263E-02-9.99524E-01 1.53669E-13 4.14960E-13
 -1      3033 1.98163E+01 2.81998E+00-5.70736E-03-3.51706E-01-8.27297E-14-4.50527E-13
 -1      3034 1.98406E+01 2.77170E+00-6.20282E-03-5.05296E-01-1.25704E-13-4.40069E-13
 -1      3035 1.99935E+01 2.39614E+00 4.28056E-03-5.07580E-01-1.31519E-13-4.12488E-13
 -1      3036 1.99469E+01 2.50455E+00 3.62197E-03-2.55739E-01-7.75233E-14-4.42087E-13
 -1      3037 3.00136E+01 2.30066E+00-1.31487E-01 2.57305E+00-4.83780E-14-4.08701E-13
 -1      3038 2.84341E+01 3.15142E+00-1.13136E-01 2.96095E+00-1.88599E-13-4.96894E-13
 -1      3039 2.90897E+01 7.10360E-01-9.66209E-02 2.37657E+00-3.49443E-14-3.43434E-13
 -1      3040 2.04389E+01-5.15065E+00 9.44515E-02-5.29200E+00-4.15917E-14-2.95495E-13
 -1      3041 2.91282E+01-1.39378E+00-1.25702E-01-3.72221E-01 3.10328E-13-6.24709E-13
 -1      3042 2.95802E+01-2.59640E+00-5.39430E-02 5.54873E-01 2.46003E-13-3.77254E-13
 -1      3043 2.83942E+01-3.38164E+00 4.60815E-03 1.26168E+00 7.64666E-15-4.72240E-13
 -1      3044 2.52824E+01-5.52724E+00-1.54013E-02-3.12601E+00 8.72982E-14-5.35259E-13
 -1      3045 2.92794E+01 3.20950E+00-2.10785E-01-3.51674E+00-1.90459E-13 4.14141E-13
 -1      3046 2.02396E+01 1.47533E+00-8.00776E-03 8.00791E-01 2.30327E-13-3.17772E-13
 -1      3047 2.01999E+01 1.66988E+00-4.55690E-04 7.46017E-01 2.08340E-13-3.41066E-13
 -1      3048 2.76799E+01 2.50768E+00-1.37373E-01-1.55896E+00 3.12056E-13-4.10061E-13
 -1      3049 2.85998E+01 6.49948E-01-6.04624E-02-1.38688E+00 2.50383E-13-3.66970E-13
 -1      3050 2.00846E+01 2.25088E+00-6.07249E-03-1.11746E+00-2.70466E-13-3.16453E-13
 -1      3051 2.01630E+01 2.06777E+00-8.25698E-03-1.19982E+00-3.01065E-13-2.83202E-13
 -1      3052 2.02343E+01 1.76629E+00 5.80516E-03-1.03824E+00-2.84261E-13-2.73167E-13
 -1      3053 2.01667E+01 1.98047E+00 7.99941E-03-9.15144E-01-2.51947E-13-3.21942E-13
 -1      3054 2.59565E+01-4.98731E+00 2.05922E-02 4.42279E+00 5.26662E-14-3.05388E-13
 -1      3055 2.36675E+01-4.90028E+00 7.72684E-02 2.50701E+00 2.39028E-13 2.78002E-13
 -1      3056 2.02210E+01 4.22839E-01 4.16130E-03-1.20220E-01-1.75911E-13-2.14572E-13
 -1      3057 2.01814E+01 3.14905E-01-2.32902E-03-3.54406E-02-1.54364E-13-2.41319E-13
 -1      3058 2.01673E+01 2.31217E-01 3.18109E-03 2.59835E-02-1.47072E-13-2.17134E-13
 -1      3059 2.01369E+01 1.60529E-01-1.31813E-03 7.68085E-02-1.53822E-13-2.39208E-13
 -1      3060 2.02373E+01 3.31532E-01-8.27011E-04-2.64626E-02-1.50323E-13-2.12953E-13
 -1      3061 2.01202E+01 1.06432E-01 2.23857E-03 1.12527E-01-1.51998E-13-2.38666E-13
 -1      3062 2.00989E+01 6.11846E-02-6.32529E-04 1.39561E-01-1.34817E-13-2.28595E-13
 -1      3063 2.01966E+01 1.66807E-01-1.01233E-03 7.60018E-02-1.42573E-13-1.76804E-13
 -1      3064 2.00827E+01 2.71409E-02 1.47130E-03 1.57079E-01-6.31605E-14-2.16940E-13
 -1      3065 2.00689E+01-6.93869E-04-1.96132E-04 1.68151E-01-4.97423E-14-1.63160E-13
 -1      3066 2.01575E+01 6.02362E-02-9.67620E-04 1.33589E-01-7.61474E-14-2.06978E-13
 -1      3067 2.00545E+01-2.10278E-02 8.88451E-04 1.73445E-01-5.90306E-14-1.29320E-13
 -1      3068 2.00465E+01-3.69094E-02 7.13772E-05 1.74329E-01-3.68683E-14-1.00082E-13
 -1      3069 2.01234E+01-6.11449E-03-8.41791E-04 1.59771E-01-2.12452E-14-2.07260E-13
 -1      3070 2.00342E+01-4.78542E-02 4.68241E-04 1.71946E-01-3.99328E-14-1.01902E-13
 -1      3071 2.00303E+01-5.55636E-02 2.28902E-04 1.66797E-01-3.27926E-15-1.10054E-13
 -1      3072 2.00952E+01-4.46340E-02-6.97258E-04 1.65215E-01-3.80850E-14-1.92241E-13
 -1      3073 2.00203E+01-6.01159E-02 1.78059E-04 1.60072E-01-1.17642E-14-1.19974E-13
 -1      3074 2.00191E+01-6.22895E-02 3.16553E-04 1.51829E-01-1.96602E-14-1.09446E-13
 -1      3075 2.00725E+01-6.40052E-02-5.62599E-04 1.57977E-01-1.01029E-14-1.93525E-13
 -1      3076 2.00111E+01-6.25259E-02-1.51033E-05 1.43139E-01-4.18050E-14-1.04787E-13
 -1      3077 2.00119E+01-6.09787E-02 3.62572E-04 1.33849E-01-3.17173E-14-1.33439E-13
 -1      3078 2.00548E+01-7.03197E-02-4.46257E-04 1.43927E-01-2.17013E-14-1.60965E-13
 -1      3079 2.00057E+01-5.83090E-02-1.40147E-04 1.24866E-01-6.67734E-14-1.29525E-13
 -1      3080 2.00076E+01-5.42495E-02 3.86503E-04 1.15952E-01-6.23631E-14-1.62938E-13
 -1      3081 2.00413E+01-6.77964E-02-3.49937E-04 1.27247E-01-4.12633E-14-1.21848E-13
 -1      3082 2.00029E+01-4.95880E-02-2.20617E-04 1.07845E-01-2.94107E-14-1.26719E-13
 -1      3083 2.00057E+01-4.37685E-02 4.02321E-04 1.00309E-01-4.52825E-14-1.17011E-13
 -1      3084 2.00314E+01-5.92625E-02-2.72414E-04 1.10884E-01-5.14483E-14-1.92805E-13
 -1      3085 2.00021E+01-3.76531E-02-2.75218E-04 9.39194E-02-9.62053E-14-1.30773E-13
 -1      3086 2.00056E+01-3.04753E-02 4.20398E-04 8.84989E-02-1.01245E-13-1.23959E-13
 -1      3087 2.00242E+01-4.64935E-02-2.10525E-04 9.69348E-02-8.72328E-14-1.25215E-13
 -1      3088 2.00029E+01-2.31520E-02-3.18843E-04 8.44696E-02-1.39773E-13-8.58942E-14
 -1      3089 2.00070E+01-1.47435E-02 4.48577E-04 8.17630E-02-1.88526E-13-9.52423E-14
 -1      3090 2.00193E+01-3.04574E-02-1.60474E-04 8.69482E-02-1.17189E-13-1.47518E-13
 -1      3091 2.00048E+01-6.22829E-03-3.63490E-04 8.06464E-02-1.77128E-13-5.09391E-14
 -1      3092 2.00095E+01 3.50042E-03 4.92802E-04 8.12076E-02-1.41776E-13-4.06816E-14
 -1      3093 2.00159E+01-1.14912E-02-1.17996E-04 8.21684E-02-1.45297E-13-7.28895E-14
 -1      3094 2.00076E+01 1.33749E-02-4.19209E-04 8.35459E-02-1.00796E-13-2.48321E-14
 -1      3095 2.00129E+01 2.46879E-02 5.57465E-04 8.79581E-02-2.59098E-14-1.90224E-14
 -1      3096 2.00135E+01 1.05662E-02-7.81965E-05 8.37229E-02-9.49532E-14 6.05530E-15
 -1      3097 2.00109E+01 3.62374E-02-4.94926E-04 9.43444E-02-3.19158E-14-4.63256E-16
 -1      3098 2.00170E+01 4.95402E-02 6.45541E-04 1.03276E-01-4.95415E-14-3.06782E-14
 -1      3099 2.00114E+01 3.62734E-02-3.52644E-05 9.27657E-02-5.84003E-14-6.85750E-14
 -1      3100 2.00144E+01 6.32003E-02-5.99094E-04 1.14397E-01-5.22846E-14-4.94424E-14
 -1      3101 2.00215E+01 7.90117E-02 7.58483E-04 1.28640E-01-3.79457E-14-7.96344E-14
 -1      3102 2.00089E+01 6.65067E-02 1.79840E-05 1.10580E-01-7.82864E-14-9.19581E-14
 -1      3103 2.00177E+01 9.53112E-02-7.40182E-04 1.45306E-01-9.91693E-15-7.59799E-14
 -1      3104 2.00259E+01 1.14233E-01 8.95891E-04 1.65799E-01 2.28351E-14-1.21351E-13
 -1      3105 2.00050E+01 1.02390E-01 9.07084E-05 1.38643E-01-3.14024E-14-1.05618E-13
 -1      3106 2.00200E+01 1.33762E-01-9.26982E-04 1.88950E-01 1.53488E-14-8.36965E-14
 -1      3107 2.00293E+01 1.56439E-01 1.05503E-03 2.16784E-01 8.03815E-15-1.04525E-13
 -1      3108 1.99985E+01 1.45223E-01 1.94734E-04 1.78661E-01 4.27232E-14-3.50929E-14
 -1      3109 2.00205E+01 1.79798E-01-1.16863E-03 2.47483E-01-4.31334E-14-5.98470E-14
 -1      3110 2.00307E+01 2.06853E-01 1.23038E-03 2.83883E-01-1.97886E-14-8.39624E-14
 -1      3111 1.99878E+01 1.96378E-01 3.45190E-04 2.32559E-01 1.94618E-14-1.71133E-14
 -1      3112 2.00174E+01 2.34574E-01-1.47416E-03 3.23285E-01 1.11670E-14-2.57656E-14
 -1      3113 2.00282E+01 2.66492E-01 1.41371E-03 3.69556E-01 4.12925E-14-9.07920E-15
 -1      3114 1.99705E+01 2.57151E-01 5.60796E-04 3.02426E-01 8.80883E-15-4.78686E-14
 -1      3115 2.00087E+01 2.98884E-01-1.85127E-03 4.18855E-01 6.75128E-15-1.06658E-13
 -1      3116 2.00194E+01 3.35814E-01 1.59554E-03 4.76295E-01-3.70732E-14-8.25069E-14
 -1      3117 1.99435E+01 3.28498E-01 8.63125E-04 3.90425E-01-4.06943E-14-8.57406E-14
 -1      3118 1.99912E+01 3.72698E-01-2.30384E-03 5.36658E-01 1.18246E-15-9.94843E-14
 -1      3119 2.00006E+01 4.14093E-01 1.76987E-03 6.06410E-01 8.12467E-15-6.21202E-14
 -1      3120 1.99028E+01 4.10586E-01 1.27363E-03 4.98650E-01 9.08163E-15-8.29193E-14
 -1      3121 1.99609E+01 4.54331E-01-2.82728E-03 6.78902E-01 2.72552E-14-2.56724E-14
 -1      3122 1.99679E+01 4.98332E-01 1.94535E-03 7.61759E-01 4.03998E-14 2.89087E-14
 -1      3123 1.98432E+01 5.02024E-01 1.80613E-03 6.28987E-01 7.49472E-14-1.25550E-13
 -1      3124 1.99134E+01 5.39025E-01-3.40066E-03 8.47323E-01-1.40556E-14 8.79903E-14
 -1      3125 1.99168E+01 5.81436E-01 2.16776E-03 9.43467E-01 7.33523E-14 1.06560E-13
 -1      3126 1.97584E+01 5.98565E-01 2.45097E-03 7.83041E-01 5.27888E-14 5.72665E-14
 -1      3127 1.98445E+01 6.16597E-01-3.97234E-03 1.04303E+00 6.88278E-14 1.47221E-13
 -1      3128 1.98445E+01 6.49235E-01 2.56036E-03 1.15176E+00 1.27462E-13 1.61536E-13
 -1      3129 1.96419E+01 6.90995E-01 3.14467E-03 9.62298E-01 8.59149E-14 2.12053E-13
 -1      3130 1.97529E+01 6.67712E-01-4.42962E-03 1.26663E+00 5.30234E-14 2.30297E-13
 -1      3131 1.97536E+01 6.75894E-01 3.38886E-03 1.38612E+00 4.65353E-14 1.67597E-13
 -1      3132 1.94884E+01 7.61799E-01 3.71563E-03 1.16884E+00 1.17830E-13 1.91288E-13
 -1      3133 1.96455E+01 6.58348E-01-4.51658E-03 1.51879E+00 6.47746E-14 1.05293E-13
 -1      3134 1.96588E+01 6.17331E-01 5.12577E-03 1.64576E+00 1.08723E-14 1.40388E-13
 -1      3135 1.92974E+01 7.80103E-01 3.79560E-03 1.40702E+00 5.33403E-14 1.83294E-13
 -1      3136 1.95467E+01 5.32314E-01-3.66333E-03 1.80098E+00-1.41407E-13 1.90256E-13
 -1      3137 1.96002E+01 4.03038E-01 8.50493E-03 1.92991E+00-2.62543E-13 2.10929E-13
 -1      3138 1.90808E+01 6.94430E-01 2.67470E-03 1.68640E+00-2.67724E-14 1.22536E-13
 -1      3139 1.95162E+01 2.03572E-01-3.50828E-04 2.11472E+00-1.55136E-13 2.09999E-13
 -1      3140 1.96644E+01-7.01972E-02 1.47727E-02 2.23466E+00 7.49638E-14 1.97963E-13
 -1      3141 1.88757E+01 4.23178E-01-8.12264E-04 2.02488E+00-1.22603E-13 1.09542E-13
 -1      3142 1.96769E+01-4.46592E-01 9.10051E-03 2.45595E+00 1.27324E-13 1.89855E-13
 -1      3143 2.00134E+01-9.38839E-01 2.43906E-02 2.53974E+00 2.46559E-13 1.81130E-13
 -1      3144 1.87671E+01-1.52133E-01-7.96254E-03 2.44829E+00 9.76954E-14 6.66125E-14
 -1      3145 2.02727E+01-1.56411E+00 3.21767E-02 2.77558E+00 2.54519E-13 9.68999E-14
 -1      3146 2.09461E+01-2.30694E+00 4.52701E-02 2.74513E+00 1.30372E-13 2.32349E-14
 -1      3147 1.89339E+01-1.19622E+00-1.90285E-02 2.98142E+00 1.68315E-13-6.62751E-14
 -1      3148 2.14889E+01-3.13922E+00 6.71264E-02 2.92123E+00 1.61956E-13 1.55739E-13
 -1      3149 2.25785E+01-4.01698E+00 5.54569E-02 2.63940E+00 2.76293E-13 2.70595E-13
 -1      3150 2.10940E+01-4.90297E+00-6.24055E-02 4.01205E+00 2.42271E-13 4.13662E-14
 -1      3151 1.95964E+01-2.85938E+00-5.51460E-02 3.58341E+00 2.27998E-13-1.25403E-13
 -1      3152 8.97766E+00-2.30864E-01 1.56029E-01-1.14281E+00 7.84952E-14-5.01238E-13
 -1      3153 1.02633E+01-7.57157E-01 5.01664E-02-3.08245E+00 2.06692E-14-1.51129E-13
 -1      3154 2.00726E+01 1.50147E-01-1.14224E-03-7.65715E-02 1.17262E-13-2.10029E-13
 -1      3155 2.01052E+01 2.15584E-01 3.69617E-03-2.32323E-02 1.29372E-13-2.26358E-13
 -1      3156 2.01240E+01 2.93445E-01-1.99880E-03 4.40496E-02 1.34080E-13-2.49305E-13
 -1      3157 2.01694E+01 3.94479E-01 4.35159E-03 1.34469E-01 1.40718E-13-2.35945E-13
 -1      3158 2.01893E+01 3.15706E-01-1.48642E-03 3.61516E-02 1.23940E-13-2.21238E-13
 -1      3159 1.99826E+01-4.80469E-02 2.35828E-04-1.73199E-01 3.57515E-14-1.49348E-13
 -1      3160 1.99822E+01-4.08327E-02 4.43807E-04-1.78624E-01 1.09598E-13-1.61667E-13
 -1      3161 1.99917E+01-3.07244E-02 1.06818E-04-1.80910E-01 1.09738E-13-1.57036E-13
 -1      3162 1.99957E+01-1.61066E-02 9.13720E-04-1.80103E-01 7.12561E-14-1.46969E-13
 -1      3163 2.00484E+01-3.82030E-02-7.42781E-04-1.74871E-01 1.06355E-13-1.45116E-13
 -1      3164 1.99780E+01-5.40366E-02 3.39803E-04-1.38688E-01-6.55840E-15-1.15746E-13
 -1      3165 1.99735E+01-5.51497E-02-7.37132E-05-1.48437E-01 5.02994E-15-1.70045E-13
 -1      3166 1.99799E+01-4.86270E-02 3.57997E-04-1.19688E-01 2.30281E-14-4.80096E-14
 -1      3167 1.99746E+01-5.19685E-02-1.97470E-04-1.29121E-01 3.13374E-14-7.12909E-14
 -1      3168 2.00122E+01-6.15685E-02-3.08925E-04-1.34539E-01-2.98136E-14-1.50752E-13
 -1      3169 1.99834E+01-3.99423E-02 3.72092E-04-1.02797E-01 5.29496E-14-5.42056E-14
 -1      3170 1.99777E+01-4.48122E-02-2.69940E-04-1.10919E-01 6.56458E-14-1.36251E-14
 -1      3171 2.00076E+01-5.45318E-02-2.29864E-04-1.16726E-01 4.99338E-14-5.79029E-14
 -1      3172 1.99880E+01-2.88898E-02 3.91209E-04-8.95910E-02 1.83922E-14-7.63306E-14
 -1      3173 1.99821E+01-3.48905E-02-3.11158E-04-9.56884E-02 4.54735E-14-4.01344E-14
 -1      3174 2.00052E+01-4.37380E-02-1.73826E-04-1.01211E-01 6.11998E-14-6.13761E-14
 -1      3175 1.99937E+01-1.58994E-02 4.22286E-04-8.12644E-02 1.16151E-14-8.45972E-14
 -1      3176 1.99875E+01-2.28625E-02-3.36722E-04-8.47811E-02 6.31771E-15-8.05263E-14
 -1      3177 2.00046E+01-3.01609E-02-1.35894E-04-8.95715E-02 3.21395E-14-4.28711E-14
 -1      3178 2.00003E+01-1.05044E-03 4.70449E-04-7.88332E-02-2.67543E-14-6.63258E-14
 -1      3179 1.99937E+01-8.97484E-03-3.58123E-04-7.92810E-02-9.74693E-15-8.99908E-14
 -1      3180 2.00054E+01-1.42352E-02-1.11508E-04-8.30377E-02 2.63660E-15-6.72802E-14
 -1      3181 2.00080E+01 1.58213E-02 5.39435E-04-8.32757E-02 7.96875E-14-1.07067E-13
 -1      3182 2.00007E+01 6.82340E-03-3.83819E-04-8.01706E-02 6.49800E-14-3.90031E-14
 -1      3183 2.00072E+01 3.99555E-03-9.68192E-05-8.26773E-02 2.25704E-14-1.08349E-13
 -1      3184 2.00170E+01 3.50211E-02 6.31564E-04-9.56277E-02 1.20904E-13-1.22127E-13
 -1      3185 2.00086E+01 2.47773E-02-4.19662E-04-8.84498E-02 9.22282E-14-9.99632E-14
 -1      3186 2.00097E+01 2.47519E-02-8.86249E-05-8.95351E-02 8.47835E-14-4.41324E-14
 -1      3187 2.00278E+01 5.68823E-02 7.47475E-04-1.17030E-01 7.62081E-14-3.23517E-14
 -1      3188 2.00178E+01 4.52201E-02-4.69021E-04-1.05208E-01 8.30321E-14-6.25984E-14
 -1      3189 2.00130E+01 4.83930E-02-8.44150E-05-1.04722E-01 8.58041E-14 7.16249E-14
 -1      3190 2.00407E+01 8.16266E-02 8.85614E-04-1.48721E-01 2.30307E-14 8.98450E-14
 -1      3191 2.00287E+01 6.84494E-02-5.32465E-04-1.31646E-01 7.99626E-14 6.71608E-14
 -1      3192 2.00167E+01 7.52746E-02-8.26442E-05-1.29455E-01-2.17038E-15 1.22823E-13
 -1      3193 2.00563E+01 1.09178E-01 1.04150E-03-1.91974E-01 1.00693E-14 1.57731E-13
 -1      3194 2.00416E+01 9.45679E-02-6.06907E-04-1.69047E-01 1.72873E-14 1.19732E-13
 -1      3195 2.00210E+01 1.05572E-01-8.33493E-05-1.65051E-01 1.69156E-15 2.07854E-13
 -1      3196 2.00754E+01 1.38907E-01 1.20682E-03-2.47946E-01-8.16691E-14 1.53013E-13
 -1      3197 2.00575E+01 1.23266E-01-6.84055E-04-2.18670E-01-3.73647E-14 2.06034E-13
 -1      3198 2.00259E+01 1.39044E-01-8.93215E-05-2.12853E-01-8.07912E-15 1.70256E-13
 -1      3199 2.00992E+01 1.69275E-01 1.36839E-03-3.17429E-01 6.24478E-14 1.69290E-13
 -1      3200 2.00771E+01 1.53520E-01-7.48003E-04-2.81562E-01 2.97308E-15 1.80153E-13
 -1      3201 2.00317E+01 1.74707E-01-1.08134E-04-2.74084E-01-3.08346E-14 1.73028E-13
 -1      3202 2.01292E+01 1.97361E-01 1.50720E-03-4.00474E-01-4.74921E-14 3.32678E-14
 -1      3203 2.01019E+01 1.83186E-01-7.71709E-04-3.58255E-01 9.37738E-14 1.22317E-13
 -1      3204 2.00391E+01 2.10394E-01-1.55421E-04-3.49612E-01 6.20629E-14 1.63264E-13
 -1      3205 2.01678E+01 2.18235E-01 1.59734E-03-4.95846E-01-1.22678E-13-1.19496E-13
 -1      3206 2.01341E+01 2.08445E-01-7.12186E-04-4.48312E-01-1.36880E-13-6.79157E-14
 -1      3207 2.00498E+01 2.42164E-01-2.59856E-04-4.39588E-01 9.41358E-15-4.18641E-16
 -1      3208 2.02189E+01 2.24213E-01 1.60453E-03-6.00276E-01-8.87845E-14-1.78711E-13
 -1      3209 2.01771E+01 2.23123E-01-5.04330E-04-5.49700E-01-1.06596E-13-1.06725E-13
 -1      3210 2.00665E+01 2.63559E-01-4.70169E-04-5.42950E-01-9.39945E-14 1.19688E-14
 -1      3211 2.02887E+01 2.04069E-01 1.48237E-03-7.07475E-01-1.71581E-13-4.54042E-14
 -1      3212 2.02362E+01 2.17905E-01-5.38352E-05-6.57918E-01-8.13934E-14-1.33178E-13
 -1      3213 2.00941E+01 2.64721E-01-8.63936E-04-6.56734E-01-1.48572E-13 4.03267E-14
 -1      3214 2.03866E+01 1.42478E-01 1.16373E-03-8.06858E-01-5.94176E-14 3.85541E-14
 -1      3215 2.03200E+01 1.79613E-01 7.68729E-04-7.64855E-01-1.43265E-13-3.41061E-14
 -1      3216 2.01410E+01 2.31515E-01-1.55609E-03-7.75148E-01-1.47593E-13 7.66662E-14
 -1      3217 2.05270E+01 2.02779E-02 5.41717E-04-8.81941E-01 7.95393E-15 1.41339E-13
 -1      3218 2.04411E+01 9.09624E-02 2.12825E-03-8.57278E-01-2.76151E-14 1.26126E-13
 -1      3219 2.02208E+01 1.45010E-01-2.69931E-03-8.88277E-01-8.43774E-14-5.46595E-15
 -1      3220 2.07294E+01-1.83274E-01-5.64458E-04-9.08430E-01-1.29798E-13 2.02794E-13
 -1      3221 2.06180E+01-6.83740E-02 4.20219E-03-9.14908E-01 2.37080E-14 1.39046E-13
 -1      3222 2.03538E+01-1.79075E-02-4.46064E-03-9.80241E-01-5.88210E-14 4.26769E-14
 -1      3223 2.10181E+01-4.84152E-01-2.47875E-03-8.52147E-01-1.98460E-13 1.16306E-13
 -1      3224 2.08750E+01-3.17818E-01 7.13453E-03-9.08017E-01-1.86510E-13 1.87287E-13
 -1      3225 2.05691E+01-2.81423E-01-6.95566E-03-1.02647E+00-1.23877E-13 1.03989E-13
 -1      3226 2.14165E+01-8.79550E-01-5.57981E-03-6.67670E-01-2.65887E-13-4.06435E-14
 -1      3227 2.12393E+01-6.66439E-01 1.07104E-02-7.94951E-01-2.19887E-13 3.31113E-14
 -1      3228 2.09038E+01-6.62015E-01-1.00573E-02-9.89715E-01-1.62495E-13 5.73560E-14
 -1      3229 2.19330E+01-1.32356E+00-9.99583E-03-3.02173E-01-3.93341E-14-5.05614E-14
 -1      3230 2.17298E+01-1.09380E+00 1.41335E-02-5.22293E-01-1.83100E-13-6.39762E-14
 -1      3231 2.13963E+01-1.14967E+00-1.31377E-02-8.15848E-01-1.97822E-13-2.49426E-13
 -1      3232 2.25375E+01-1.69118E+00-1.38687E-02 2.89825E-01 4.69577E-14-2.91835E-15
 -1      3233 2.23365E+01-1.52101E+00 1.56885E-02-3.27910E-02 2.67237E-14-3.46333E-14
 -1      3234 2.20673E+01-1.67658E+00-1.44773E-02-4.35632E-01-2.68113E-14-3.18293E-13
 -1      3235 2.31311E+01-1.75406E+00-1.31479E-02 1.10032E+00 1.11747E-13 1.86223E-13
 -1      3236 2.29834E+01-1.77341E+00 1.26299E-02 7.02841E-01 1.00772E-13 8.16905E-14
 -1      3237 2.28859E+01-2.07096E+00-1.00585E-02 2.21286E-01-4.69893E-16-1.47645E-13
 -1      3238 2.35290E+01-1.23048E+00-8.10326E-03 1.98059E+00 3.44070E-14 2.32492E-13
 -1      3239 2.34933E+01-1.58273E+00-3.57084E-03 1.60956E+00 1.20085E-13 2.96990E-13
 -1      3240 2.37112E+01-2.01384E+00 4.88910E-03 1.15427E+00 1.42377E-15 1.31062E-13
 -1      3241 2.35503E+01 4.95940E-02 9.50974E-03 2.57464E+00-1.21578E-13 3.33455E-13
 -1      3242 2.36462E+01-6.81764E-01-2.92528E-02 2.42073E+00-2.71454E-14 2.33195E-13
 -1      3243 2.42654E+01-1.20814E+00 4.40540E-03 2.17892E+00-5.36342E-14 3.92060E-13
 -1      3244 2.32029E+01 1.70677E+00 1.51358E-02 2.40273E+00-3.49894E-14 1.85513E-13
 -1      3245 2.33546E+01 8.44043E-01-5.57274E-02 2.61899E+00-1.36297E-14 3.31624E-13
 -1      3246 2.42922E+01 5.39757E-01 4.30682E-03 2.80050E+00-2.51882E-14 2.53551E-13
 -1      3247 2.27905E+01 2.84607E+00-1.13219E-02 1.30376E+00 6.88269E-14 1.92854E-13
 -1      3248 2.29044E+01 2.39800E+00-4.99375E-02 1.88192E+00-8.51541E-14 1.78178E-13
 -1      3249 2.39745E+01 2.50035E+00 3.60765E-03 2.38693E+00-1.18527E-13 1.57558E-13
 -1      3250 2.27415E+01 2.69011E+00-4.36164E-02-1.70011E-01 7.16094E-15 3.33001E-13
 -1      3251 2.27485E+01 2.95079E+00-1.33128E-02 4.57787E-01 1.45521E-13 2.65832E-13
 -1      3252 2.36489E+01 3.47862E+00-3.34923E-02 9.27228E-01 2.51466E-14 2.39949E-13
 -1      3253 2.30705E+01 1.38252E+00-4.95822E-02-1.16175E+00 3.26453E-14 2.06160E-13
 -1      3254 2.29836E+01 2.14452E+00 1.34280E-02-8.25074E-01-2.38802E-14 2.49858E-13
 -1      3255 2.38022E+01 2.94305E+00-1.69360E-02-6.43895E-01 3.18912E-14 3.27002E-13
 -1      3256 2.32499E+01-8.25775E-02-4.32172E-02-1.18902E+00 2.19474E-13 1.23330E-13
 -1      3257 2.32474E+01 6.12277E-01 6.06001E-03-1.23515E+00 1.90608E-13 9.96804E-14
 -1      3258 2.41403E+01 1.06146E+00-1.32192E-02-1.29363E+00 1.20174E-13 1.75481E-13
 -1      3259 2.00442E+01 2.16055E+00-4.29941E-03 2.92583E-01 7.58185E-14-4.32528E-13
 -1      3260 2.00310E+01 2.19936E+00-3.32381E-03 1.70839E-01 3.35285E-14-4.31133E-13
 -1      3261 1.77361E+01-2.54306E+00 3.46513E-02 6.81877E+00-1.82361E-13 1.65201E-13
 -1      3262 2.04637E+01-3.22481E+00 1.31271E-01 6.54795E+00-1.24928E-13-3.75113E-13
 -1      3263 1.79134E+01-3.73009E+00 1.37962E-01 4.69226E+00 2.89081E-13-2.15127E-13
 -1      3264 2.33591E+01-3.44715E+00 5.51888E-02 5.03582E+00-1.48454E-13-4.93806E-13
 -1      3265 2.43231E+01-3.46173E+00 3.09436E-03 4.02913E+00-3.87849E-14-5.46821E-13
 -1      3266 1.20076E+01-1.01705E-01 7.24244E-02 4.42654E+00-4.07237E-13 2.78388E-14
 -1      3267 1.44331E+01-2.94716E+00 1.87235E-01 7.19433E+00-3.15498E-13 3.40783E-13
 -1      3268 1.35016E+01-1.41810E+00 1.78951E-01 5.99562E+00-3.65416E-13 4.65017E-13
 -1      3269 1.85415E+01-3.79972E+00 1.95544E-01-7.13917E+00 2.83926E-13-3.48069E-13
 -1      3270 2.12232E+01-4.66606E+00-5.32414E-02-6.50423E+00 2.00492E-13-4.28262E-13
 -1      3271 2.41477E+01-5.33367E+00 3.25869E-02-3.31310E+00 4.53734E-14-4.89915E-13
 -1      3272 2.63190E+01-5.18031E+00-4.59925E-02-2.13135E+00 6.51632E-14-5.47139E-13
 -1      3273 2.68449E+01-4.42943E+00-3.71056E-02-7.76677E-01 5.30305E-14-4.21510E-13
 -1      3274 1.45370E+01-7.47846E-01 1.40859E-01 5.67802E+00-3.47590E-13 5.29854E-13
 -1      3275 1.99785E+01-5.46382E-02 3.05045E-04-1.57587E-01 3.00267E-14-1.68903E-13
 -1      3276 1.99756E+01-5.24173E-02 1.28409E-04-1.66219E-01 2.41801E-14-1.56393E-13
 -1      3277 2.00316E+01-5.66872E-02-5.60176E-04-1.67393E-01 3.53068E-14-1.34701E-13
 -1      3278 2.00199E+01-6.31679E-02-4.17880E-04-1.52464E-01 1.68499E-14-1.42163E-13
 -1      3279 2.77194E+01-4.61389E+00 6.92415E-02-2.07354E+00 2.34236E-13-5.26384E-14
 -1      3280 2.60779E+01-4.69430E+00-3.12202E-02-2.99105E+00 1.78121E-14-2.92370E-14
 -1      3281 2.48424E+01-4.00320E+00 9.51422E-02-3.65631E+00-1.66219E-13-5.43931E-14
 -1      3282 2.35172E+01-4.06417E+00-4.78871E-02-4.72431E+00-1.08961E-13-1.64931E-13
 -1      3283 2.59941E+01-5.22506E+00-1.11644E-01-3.71052E+00 8.90954E-14-1.67113E-13
 -1      3284 9.81888E+00-9.69262E-01 7.63948E-02 2.74887E+00 1.27905E-13-5.76067E-13
 -1      3285 8.68782E+00-3.92023E-01 8.78701E-02 6.13508E-01 2.09833E-13-7.21867E-13
 -1      3286 1.04962E+01 5.99544E-02 1.34979E-01-1.72083E-01 1.33888E-13-4.56413E-13
 -1      3287 2.72382E+01 4.78091E+00-1.17526E-01 2.40216E+00-1.54612E-13-1.65451E-13
 -1      3288 2.70554E+01 5.75176E+00-1.60657E-01 1.43629E+00-1.08302E-13-1.76179E-13
 -1      3289 2.02932E+01 1.15511E+00 5.76565E-03-6.66542E-01-2.35662E-13-2.32775E-13
 -1      3290 2.02561E+01 9.09608E-01-4.83912E-03-4.80092E-01-2.15541E-13-2.50415E-13
 -1      3291 1.69960E+01-3.23539E+00 8.61128E-02 7.24296E+00-6.54754E-14 3.16941E-13
 -1      3292 2.02898E+01 9.89771E-01-7.74791E-04 6.89705E-01 2.48597E-13-2.60423E-13
 -1      3293 2.02685E+01 1.31138E+00 4.57028E-03 7.73014E-01 2.45313E-13-2.79778E-13
 -1      3294 2.02830E+01 1.13092E+00 5.35066E-03 5.97016E-01 2.23024E-13-2.80455E-13
 -1      3295 2.02321E+01 7.75766E-01-3.85394E-03 4.82557E-01 2.23867E-13-2.47451E-13
 -1      3296 2.31338E+01-1.45329E+00 8.22409E-03 7.62154E-01 3.68568E-14-9.78310E-14
 -1      3297 1.41782E+01-2.91796E+00-1.81142E-02 4.91463E+00 3.10280E-13-2.22655E-13
 -1      3298 1.19413E+01-1.72388E+00 1.47510E-01 4.00635E+00 1.88786E-13-1.16046E-13
 -1      3299 1.93382E+01-4.21586E+00 1.39813E-01-5.16233E+00-6.37893E-14-1.37959E-13
 -1      3300 2.16356E+01-4.93820E+00-2.63147E-02-4.34787E+00-8.62782E-14-3.64108E-13
 -1      3301 2.02708E+01 7.13336E-01 4.66531E-03-3.45566E-01-1.93668E-13-2.33772E-13
 -1      3302 2.02265E+01 5.50366E-01-3.69427E-03-2.15385E-01-1.78599E-13-2.23815E-13
 -1      3303 2.02719E+01 5.79408E-01-2.93068E-04-1.89105E-01-1.76260E-13-2.22419E-13
 -1      3304 2.64578E+01-4.51898E+00-4.65584E-02 3.39606E+00-8.52235E-14-3.80813E-13
 -1      3305 2.42323E+01-4.58914E+00 8.15355E-02 5.29655E+00-1.28158E-13-3.85784E-13
 -1      3306 2.00239E+01 2.21818E+00-3.68194E-03 6.59959E-02 1.10132E-14-4.31541E-13
 -1      3307 2.00235E+01 2.21905E+00-3.62691E-03-5.80443E-02-2.59716E-14-4.27554E-13
 -1      3308 2.01379E+01 1.92235E+00 4.95642E-03 1.01454E-01 2.32021E-14-4.01994E-13
 -1      3309 2.64967E+01 3.97718E+00-8.19480E-02-1.18151E+00 4.57204E-13-4.14412E-13
 -1      3310 2.72121E+01 3.17588E+00-1.30693E-01-1.51360E+00 5.05679E-13-4.86250E-13
 -1      3311 2.64909E+01 1.76543E+00-5.83628E-02-1.48330E+00 2.27915E-13-5.32104E-13
 -1      3312 2.79122E+01-7.62947E-01-5.53288E-02-7.71097E-01 1.88217E-14-6.24355E-13
 -1      3313 2.88114E+01-8.00862E-01-9.98671E-02 2.08772E+00 2.06224E-14-4.23717E-13
 -1      3314 2.77403E+01 4.56124E-01-1.18365E-01 2.78516E+00-1.33366E-14-4.82656E-13
 -1      3315 2.80441E+01-2.01804E+00-3.69135E-02 1.46974E+00 1.78330E-15-4.52541E-13
 -1      3316 2.46769E+01-2.87067E+00 2.40180E-02 2.76650E+00-4.98386E-15-4.69420E-13
 -1      3317 2.45344E+01-2.59543E+00-4.00752E-02 1.85770E+00 2.96681E-14-3.70251E-13
 -1      3318 2.52403E+01-3.66320E+00-8.15497E-03 3.13512E+00-1.30489E-13-6.23836E-13
 -1      3319 2.00542E+01 1.00611E-01 2.50497E-03-1.15529E-01 1.26425E-13-1.93139E-13
 -1      3320 2.01426E+01 1.60087E-01-1.38281E-03-7.65648E-02 9.21929E-14-2.02743E-13
 -1      3321 2.00343E+01 5.90232E-02-5.09896E-04-1.43594E-01 1.05053E-13-1.74030E-13
 -1      3322 2.02508E+01 1.46232E+00 6.35848E-03 5.86211E-01 1.99940E-13-3.29007E-13
 -1      3323 2.01583E+01 1.80107E+00-6.99159E-03 6.85439E-01 1.91320E-13-3.71756E-13
 -1      3324 2.01231E+01 1.93078E+00-2.48040E-03 5.89876E-01 1.65598E-13-4.01984E-13
 -1      3325 2.01764E+01 4.88550E-01-2.07147E-03 2.20925E-01 1.70293E-13-2.42890E-13
 -1      3326 2.02326E+01 6.34718E-01 4.13254E-03 3.62129E-01 1.95869E-13-2.50418E-13
 -1      3327 2.02562E+01 7.76740E-01-4.80704E-03 4.19342E-01 2.08542E-13-2.48071E-13
 -1      3328 2.02288E+01 5.23951E-01-1.30603E-03 1.99770E-01 1.51447E-13-2.31897E-13
 -1      3329 2.02383E+01 1.48345E+00-5.28948E-03-8.77595E-01-2.67311E-13-2.57858E-13
 -1      3330 1.21301E+01-8.00173E-01 1.27142E-01 2.93172E+00 2.59889E-13-3.35620E-13
 -1      3331 2.02324E+01 1.50349E+00-2.76629E-03-7.69759E-01-2.50335E-13-2.86324E-13
 -1      3332 2.00717E+01-2.01919E-03-9.59895E-04-1.68575E-01 7.03617E-14-1.69587E-13
 -1      3333 2.00081E+01 2.46499E-03-1.21204E-04-1.74128E-01 4.83834E-14-1.67894E-13
 -1      3334 2.00186E+01 2.79886E-02 1.58575E-03-1.62758E-01 6.64803E-14-1.63173E-13
 -1      3335 2.33870E+01-5.56267E-01-3.68537E-03-9.20728E-01 4.56657E-14 1.37296E-13
 -1      3336 2.43743E+01-4.35976E-01 1.17294E-02-1.01421E+00 1.11019E-13 2.32694E-13
 -1      3337 2.34153E+01-9.52046E-01-3.44022E-02-6.73830E-01-1.02817E-13 2.33638E-13
 -1      3338 2.00647E+01 2.10514E+00-3.05621E-03 3.91144E-01 9.83357E-14-4.18776E-13
 -1      3339 2.01604E+01 1.84746E+00 5.24648E-03 2.90998E-01 7.94441E-14-3.97324E-13
 -1      3340 2.00899E+01 2.02481E+00-5.43092E-03 5.04494E-01 1.39865E-13-4.11954E-13
 -1      3341 2.44245E+01-5.06609E+00 1.72208E-01-5.24307E+00 8.55774E-14-3.45994E-13
 -1      3342 2.22563E+01-3.83300E+00-3.28727E-02 6.04675E+00-8.01650E-14-4.40085E-13
 -1      3343 1.73287E+01-2.69536E+00 1.14795E-01 4.18780E+00 3.32318E-13-2.85362E-13
 -1      3344 2.41546E+01-1.83616E+00 3.38572E-02 8.98576E-01 1.93859E-13-1.88599E-14
 -1      3345 2.32743E+01-1.37808E+00-3.60716E-02 1.00534E-02 5.42015E-14 1.26414E-13
 -1      3346 2.33902E+01-1.16835E+00-1.29822E-02-3.09601E-01-7.67485E-15 1.26992E-13
 -1      3347 2.49620E+01-2.30949E+00 1.23390E-02 9.39310E-01 8.80927E-14-2.15906E-13
 -1      3348 2.25027E+01-4.25870E+00 5.21892E-02-5.60024E+00 9.53404E-14-3.84272E-13
 -1      3349 1.20814E+01-9.59126E-01 1.58374E-01-3.88580E+00-4.34028E-14 7.15400E-15
 -1      3350 1.37841E+01-1.55316E+00-2.75131E-02-4.28603E+00-1.94674E-13-9.45979E-14
 -1      3351 1.18798E+01-2.54545E-01 5.31842E-02-2.68020E+00-7.41664E-14-6.82718E-14
 -1      3352 2.14373E+01-3.21611E+00 9.09178E-02-5.70273E+00 6.38378E-14-3.28956E-13
 -1      3353 1.95810E+01-2.64246E+00-4.70835E-02-6.04075E+00 2.62797E-13-2.46338E-13
 -1      3354 2.02832E+01 9.45764E-01 2.96588E-04-4.24410E-01-2.00889E-13-2.53013E-13
 -1      3355 1.79343E+01-3.38494E+00 7.03157E-02-4.89550E+00-8.91509E-14-1.72161E-13
 -1      3356 2.29384E+01-4.97123E+00 3.85955E-02-3.53771E+00-7.72368E-14-5.80406E-13
 -1      3357 2.38883E+01-4.79981E+00-3.36581E-02-2.52108E+00 1.14843E-14-6.01098E-13
 -1      3358 2.16567E+01-4.27889E+00 6.67527E-03-3.61718E+00-1.53908E-13-6.10508E-13
 -1      3359 2.68051E+01-3.76209E+00-1.53391E-02 2.05443E+00-1.75379E-13-5.63664E-13
 -1      3360 2.00619E+01 2.11098E+00-3.07428E-03-3.83452E-01-1.14853E-13-3.94754E-13
 -1      3361 2.00865E+01 2.03342E+00-5.17934E-03-4.98130E-01-1.43444E-13-3.86451E-13
 -1      3362 2.01195E+01 1.93960E+00-2.65477E-03-5.83416E-01-1.61175E-13-3.44322E-13
 -1      3363 2.01570E+01 1.81132E+00-6.48423E-03-6.82744E-01-2.05663E-13-3.33932E-13
 -1      3364 2.01966E+01 1.70218E+00 4.58966E-03-4.52658E-01-1.50652E-13-3.36871E-13
 -1      3365 2.67295E+01 5.75459E+00-1.53625E-01 8.71040E-01-1.07414E-13-1.51910E-13
 -1      3366 2.61021E+01 5.13800E+00-1.14940E-01 9.24438E-02 1.96926E-14-1.12444E-13
 -1      3367 1.36088E+01-8.87243E-01 3.72646E-02 3.29249E+00 2.86677E-13-2.47469E-13
 -1      3368 1.19247E+01-1.14605E-01 5.84550E-02 2.09381E+00 3.30554E-13-4.19782E-13
 -1      3369 2.00996E+01-4.57521E-02 6.15567E-05-1.63188E-01 5.24949E-14-8.15021E-14
 -1      3370 2.01111E+01-2.94402E-02 8.02026E-04-1.62773E-01 6.41565E-14-1.22390E-13
 -1      3371 2.03000E+01 4.39123E-01 2.74947E-03-7.20660E-02-1.33378E-13-2.22898E-13
 -1      3372 2.02747E+01 3.25953E-01-2.18136E-03-5.46653E-03-1.24273E-13-2.02154E-13
 -1      3373 2.64877E+01-2.66156E-01-5.62121E-02-1.15619E+00-2.01273E-13-1.57690E-13
 -1      3374 2.72036E+01-1.92019E+00-3.45011E-02-2.29511E-01-1.64448E-13-6.66044E-13
 -1      3375 2.02665E+01 2.36231E-01 2.13866E-03 3.94522E-02-1.28651E-13-1.97667E-13
 -1      3376 2.02419E+01 1.60733E-01-1.29820E-03 8.00549E-02-1.35474E-13-1.89380E-13
 -1      3377 2.03149E+01 3.27335E-01-1.62708E-04 2.19063E-03-1.27489E-13-2.02463E-13
 -1      3378 2.02271E+01 1.01802E-01 1.62358E-03 1.06009E-01-1.29832E-13-1.69219E-13
 -1      3379 2.02055E+01 5.29642E-02-6.53203E-04 1.27666E-01-4.63017E-14-1.77335E-13
 -1      3380 2.02833E+01 1.57937E-01-4.80277E-04 7.63175E-02-1.18343E-13-1.85380E-13
 -1      3381 2.01880E+01 1.57668E-02 1.13805E-03 1.39835E-01-3.49231E-14-2.25868E-13
 -1      3382 2.01702E+01-1.41750E-02-2.18199E-04 1.48483E-01-4.85394E-14-2.33279E-13
 -1      3383 2.02455E+01 4.71437E-02-5.97519E-04 1.17474E-01-8.30812E-14-1.71741E-13
 -1      3384 2.01525E+01-3.60964E-02 7.40150E-04 1.51339E-01-2.28357E-14-2.70534E-13
 -1      3385 2.01384E+01-5.27753E-02 6.24833E-05 1.51594E-01-1.20170E-14-2.35566E-13
 -1      3386 2.02071E+01-2.16490E-02-6.23717E-04 1.35205E-01-4.79955E-14-2.83375E-13
 -1      3387 2.01218E+01-6.40489E-02 4.35205E-04 1.48659E-01-1.08363E-14-2.41130E-13
 -1      3388 2.01109E+01-7.15413E-02 2.33905E-04 1.43975E-01 1.96302E-14-2.43073E-13
 -1      3389 2.01711E+01-6.07028E-02-6.00088E-04 1.37436E-01-5.75218E-15-3.10004E-13
 -1      3390 2.00960E+01-7.54942E-02 2.11665E-04 1.37876E-01 2.13333E-14-2.21231E-13
 -1      3391 2.00879E+01-7.66998E-02 3.32037E-04 1.30751E-01-2.44887E-14-1.98902E-13
 -1      3392 2.01391E+01-7.89863E-02-5.45257E-04 1.30324E-01 1.42824E-14-2.90291E-13
 -1      3393 2.00750E+01-7.56617E-02 5.12548E-05 1.23384E-01-8.56225E-14-2.04259E-13
 -1      3394 2.00691E+01-7.25844E-02 3.83558E-04 1.15594E-01-7.41964E-14-2.22183E-13
 -1      3395 2.01115E+01-8.29571E-02-4.72800E-04 1.18427E-01-6.15168E-14-3.00329E-13
 -1      3396 2.00582E+01-6.81304E-02-6.47115E-05 1.08315E-01-5.94283E-14-2.24162E-13
 -1      3397 2.00541E+01-6.20911E-02 4.07476E-04 1.01121E-01-4.50560E-14-2.11258E-13
 -1      3398 2.00883E+01-7.71182E-02-3.95128E-04 1.05042E-01-7.11397E-14-2.84415E-13
 -1      3399 2.00448E+01-5.52225E-02-1.52572E-04 9.48970E-02-5.15873E-14-1.62737E-13
 -1      3400 2.00422E+01-4.70165E-02 4.17956E-04 8.92132E-02-8.44170E-14-1.32047E-13
 -1      3401 2.00691E+01-6.44542E-02-3.16288E-04 9.25378E-02-3.02907E-15-2.42368E-13
 -1      3402 2.00342E+01-3.82882E-02-2.26509E-04 8.47583E-02-9.93345E-14-1.23775E-13
 -1      3403 2.00327E+01-2.82994E-02 4.25393E-04 8.12823E-02-1.03596E-13-9.97977E-14
 -1      3404 2.00531E+01-4.67844E-02-2.37655E-04 8.26354E-02-8.21576E-14-1.72160E-13
 -1      3405 2.00256E+01-1.79168E-02-2.98327E-04 7.91664E-02-1.20145E-13-5.49532E-14
 -1      3406 2.00247E+01-6.20655E-03 4.37032E-04 7.84888E-02-1.02882E-13-2.49308E-15
 -1      3407 2.00394E+01-2.50131E-02-1.58187E-04 7.66468E-02-6.77302E-14-9.44140E-14
 -1      3408 2.00179E+01 5.89899E-03-3.78084E-04 7.92212E-02-1.39750E-13 8.79070E-15
 -1      3409 2.00176E+01 1.95231E-02 4.57384E-04 8.19053E-02-9.71585E-14 2.55420E-15
 -1      3410 2.00272E+01 6.72732E-04-7.46049E-05 7.56677E-02-1.05082E-13 2.15264E-14
 -1      3411 2.00104E+01 3.36369E-02-4.74776E-04 8.59970E-02-5.79894E-14-2.08459E-14
 -1      3412 2.00101E+01 4.95669E-02 4.88569E-04 9.26380E-02-7.77453E-14-7.21713E-14
 -1      3413 2.00150E+01 3.06472E-02 1.82536E-05 8.07206E-02-1.15683E-13-1.78805E-14
 -1      3414 2.00017E+01 6.61440E-02-5.96790E-04 1.00644E-01-1.00115E-13-2.87219E-14
 -1      3415 2.00011E+01 8.49265E-02 5.30369E-04 1.11909E-01-6.82878E-14-1.60459E-14
 -1      3416 2.00016E+01 6.57214E-02 1.27487E-04 9.28551E-02-8.42318E-14 2.82363E-14
 -1      3417 1.99905E+01 1.04550E-01-7.52253E-04 1.24454E-01-2.73782E-14-4.33166E-14
 -1      3418 1.99891E+01 1.26842E-01 5.80050E-04 1.41101E-01 3.56175E-14-1.61279E-14
 -1      3419 1.99851E+01 1.07037E-01 2.62420E-04 1.13210E-01-3.18287E-14-1.86848E-14
 -1      3420 1.99751E+01 1.50181E-01-9.49288E-04 1.58883E-01 3.99950E-14-4.34625E-14
 -1      3421 1.99722E+01 1.76699E-01 6.32037E-04 1.81768E-01 5.87724E-14-1.04453E-14
 -1      3422 1.99636E+01 1.55966E-01 4.35057E-04 1.43039E-01 3.39186E-14 4.38731E-14
 -1      3423 1.99532E+01 2.04448E-01-1.19621E-03 2.05546E-01 8.90759E-14 2.39934E-14
 -1      3424 1.99477E+01 2.35901E-01 6.77681E-04 2.35595E-01 3.78926E-14 7.71468E-14
 -1      3425 1.99343E+01 2.13986E-01 6.60632E-04 1.83688E-01 8.41695E-14 1.09380E-13
 -1      3426 1.99219E+01 2.68701E-01-1.50172E-03 2.66156E-01-2.19575E-14 1.40179E-15
 -1      3427 1.99125E+01 3.05682E-01 7.05568E-04 3.04326E-01-3.69316E-14-8.01884E-14
 -1      3428 1.98939E+01 2.82531E-01 9.58141E-04 2.36543E-01-3.34759E-14 1.07312E-13
 -1      3429 1.98773E+01 3.43986E-01-1.87521E-03 3.42435E-01-5.48404E-14-6.88003E-14
 -1      3430 1.98623E+01 3.86803E-01 7.03257E-04 3.89645E-01-7.22363E-14-4.31997E-14
 -1      3431 1.98382E+01 3.62751E-01 1.35064E-03 3.02928E-01-4.00048E-14 3.96604E-14
 -1      3432 1.98146E+01 4.30660E-01-2.32764E-03 4.35988E-01-4.04110E-14-1.10164E-13
 -1      3433 1.97915E+01 4.79062E-01 6.62054E-04 4.93036E-01 4.48033E-14-1.10276E-13
 -1      3434 1.97617E+01 4.55155E-01 1.86490E-03 3.83981E-01-8.42040E-14-1.43873E-14
 -1      3435 1.97275E+01 5.27755E-01-2.87347E-03 5.48195E-01 9.55389E-14-9.01505E-14
 -1      3436 1.96933E+01 5.80486E-01 5.87505E-04 6.15695E-01 1.08027E-13-8.28454E-14
 -1      3437 1.96576E+01 5.59054E-01 2.52979E-03 4.80558E-01 9.16437E-14-1.02314E-13
 -1      3438 1.96083E+01 6.31954E-01-3.53533E-03 6.80207E-01 7.68792E-14-1.15965E-13
 -1      3439 1.95599E+01 6.86052E-01 5.19708E-04 7.58600E-01 9.48057E-14 8.74244E-15
 -1      3440 1.95174E+01 6.71688E-01 3.37230E-03 5.93248E-01 1.14465E-13-1.40725E-13
 -1      3441 1.94483E+01 7.35962E-01-4.35307E-03 8.33237E-01 1.37780E-13 6.64751E-14
 -1      3442 1.93825E+01 7.85671E-01 5.69870E-04 9.23009E-01 1.87316E-13 1.24519E-13
 -1      3443 1.93311E+01 7.86910E-01 4.40973E-03 7.22722E-01 1.41145E-13-6.04230E-14
 -1      3444 1.92380E+01 8.26006E-01-5.39790E-03 1.00949E+00 1.03370E-13 4.72643E-14
 -1      3445 1.91537E+01 8.61145E-01 9.83549E-04 1.11182E+00 1.14447E-13 7.24738E-14
 -1      3446 1.90870E+01 8.93221E-01 5.63673E-03 8.70759E-01 1.47633E-13-8.03068E-14
 -1      3447 1.89696E+01 8.78088E-01-6.77882E-03 1.21433E+00 1.26374E-13-3.16404E-14
 -1      3448 1.88701E+01 8.81666E-01 2.25950E-03 1.33241E+00 6.68912E-14 3.09711E-14
 -1      3449 1.87725E+01 9.70936E-01 7.00855E-03 1.04259E+00 8.40810E-14-1.07732E-13
 -1      3450 1.86405E+01 8.52563E-01-8.55936E-03 1.46037E+00-6.62699E-14-9.22331E-14
 -1      3451 1.85392E+01 7.97270E-01 5.33504E-03 1.60156E+00-1.10645E-13-1.25245E-13
 -1      3452 1.83756E+01 9.87992E-01 8.43761E-03 1.25151E+00-4.71918E-14-3.47717E-13
 -1      3453 1.82616E+01 6.86163E-01-1.06152E-02 1.77424E+00-1.81393E-14-9.68158E-14
 -1      3454 1.81915E+01 5.29418E-01 1.17724E-02 1.95209E+00 6.66360E-14-3.92757E-14
 -1      3455 1.78878E+01 8.93865E-01 9.74295E-03 1.52681E+00-4.48878E-14-2.59074E-13
 -1      3456 1.78771E+01 2.81214E-01-1.09476E-02 2.20241E+00 4.44193E-14-2.26750E-15
 -1      3457 1.78988E+01-4.08404E-02 2.32897E-02 2.43621E+00 1.38088E-13-6.54665E-14
 -1      3458 1.73143E+01 6.07166E-01 1.10961E-02 1.92732E+00 5.73806E-14-2.39880E-13
 -1      3459 1.68866E+01-1.80672E+00 5.08207E-02 3.77615E+00 2.49627E-13-2.79998E-13
 -1      3460 2.02043E+01 1.59511E+00-2.76557E-03-7.10694E-01-2.29012E-13-3.07480E-13
 -1      3461 1.13818E+01 3.24356E-01 7.08877E-02 8.00383E-01 1.75811E-13-4.41674E-13
 -1      3462 1.13874E+01 3.09549E-01 2.24267E-02-8.02925E-01 3.59105E-14-2.54859E-13
 -1      3463 2.00344E+01-5.85864E-02 4.03624E-04-1.08481E-01-5.91989E-15-6.74934E-14
 -1      3464 2.00360E+01-6.37402E-02-9.59907E-05-1.16490E-01-2.11349E-15-1.02197E-13
 -1      3465 2.00450E+01-6.74000E-02 3.79684E-04-1.24588E-01 8.12560E-15-9.39233E-14
 -1      3466 2.00481E+01-6.97989E-02 2.54114E-05-1.33117E-01-1.21312E-14-6.34222E-14
 -1      3467 2.00686E+01-7.30033E-02-3.70785E-04-1.15628E-01 1.77810E-14 2.27135E-14
 -1      3468 2.00211E+01-2.94452E-02 4.27659E-04-8.51698E-02 2.66197E-14 6.32968E-15
 -1      3469 2.00205E+01-3.80965E-02-2.47136E-04-8.95275E-02 4.75731E-14-2.95491E-14
 -1      3470 2.00171E+01-1.05112E-02 4.46126E-04-8.06241E-02-2.88148E-15-4.15200E-15
 -1      3471 2.00158E+01-2.05572E-02-3.05428E-04-8.22209E-02 2.12446E-14 2.31768E-14
 -1      3472 2.00308E+01-2.76934E-02-1.59638E-04-8.18177E-02 8.75475E-16 5.31261E-14
 -1      3473 2.00141E+01 1.12124E-02 4.76732E-04-8.22675E-02 5.22864E-14-8.05594E-14
 -1      3474 2.00123E+01-2.82348E-04-3.66010E-04-8.05722E-02 1.60933E-14-8.22228E-14
 -1      3475 2.00223E+01-5.41177E-03-9.85895E-05-7.92015E-02 6.81381E-14 6.90215E-15
 -1      3476 2.00117E+01 3.60201E-02 5.23107E-04-9.11537E-02 5.08137E-14-2.92267E-15
 -1      3477 2.00094E+01 2.28970E-02-4.36345E-04-8.56269E-02 6.19853E-14-1.52797E-14
 -1      3478 2.00144E+01 2.01845E-02-3.80079E-05-8.27855E-02 3.47212E-14-3.46487E-14
 -1      3479 2.00092E+01 6.43400E-02 5.87427E-04-1.08416E-01 4.66747E-14 1.58373E-13
 -1      3480 2.00064E+01 4.93586E-02-5.21665E-04-9.84764E-02 8.41879E-14 9.93881E-14
 -1      3481 2.00064E+01 4.94555E-02 2.47048E-05-9.36451E-02-1.65683E-14 3.89280E-14
 -1      3482 2.00061E+01 9.65681E-02 6.70584E-04-1.35303E-01-2.84694E-14 1.54637E-13
 -1      3483 2.00029E+01 7.95361E-02-6.24781E-04-1.20319E-01-6.37747E-15 1.41793E-13
 -1      3484 1.99971E+01 8.28745E-02 9.14991E-05-1.12949E-01 4.56776E-14 1.30521E-13
 -1      3485 2.00019E+01 1.32860E-01 7.72354E-04-1.73171E-01 1.29380E-14 1.33991E-13
 -1      3486 1.99984E+01 1.13735E-01-7.45432E-04-1.52476E-01 5.29422E-15 1.25027E-13
 -1      3487 1.99858E+01 1.20831E-01 1.62798E-04-1.41994E-01 1.46413E-14 1.18025E-13
 -1      3488 1.99963E+01 1.72853E-01 8.91663E-04-2.23418E-01-2.81980E-14 1.32302E-13
 -1      3489 1.99922E+01 1.51895E-01-8.79096E-04-1.96361E-01-2.17053E-14 1.25405E-13
 -1      3490 1.99713E+01 1.63383E-01 2.36139E-04-1.82203E-01 2.04509E-14 7.77060E-14
 -1      3491 1.99891E+01 2.15294E-01 1.02713E-03-2.87354E-01 7.70835E-15 6.37092E-14
 -1      3492 1.99843E+01 1.93266E-01-1.01514E-03-2.53387E-01-1.71136E-14 1.04067E-13
 -1      3493 1.99528E+01 2.09923E-01 3.04069E-04-2.35079E-01-2.55513E-14 1.04621E-13
 -1      3494 1.99808E+01 2.57532E-01 1.17814E-03-3.66000E-01 4.89489E-14 5.19015E-14
 -1      3495 1.99746E+01 2.35975E-01-1.13410E-03-3.24813E-01 1.70662E-14 6.37123E-14
 -1      3496 1.99298E+01 2.58736E-01 3.50923E-04-3.02102E-01 3.47754E-14-1.59844E-14
 -1      3497 1.99726E+01 2.94857E-01 1.34642E-03-4.59790E-01-2.96707E-14 2.66720E-14
 -1      3498 1.99642E+01 2.76447E-01-1.20386E-03-4.11501E-01 6.37423E-14 6.87245E-14
 -1      3499 1.99024E+01 3.06414E-01 3.48036E-04-3.84585E-01 5.48861E-14-2.05362E-14
 -1      3500 1.99678E+01 3.19667E-01 1.53805E-03-5.68163E-01-1.05598E-13 2.10290E-14
 -1      3501 1.99552E+01 3.08657E-01-1.17418E-03-5.13580E-01-7.60375E-14 4.20463E-14
 -1      3502 1.98719E+01 3.47090E-01 2.46803E-04-4.83461E-01-9.82363E-14 8.54805E-14
 -1      3503 1.99720E+01 3.20504E-01 1.76392E-03-6.89019E-01-2.25019E-13 9.65958E-14
 -1      3504 1.99522E+01 3.23225E-01-9.68869E-04-6.29982E-01-1.74815E-13 6.07636E-14
 -1      3505 1.98417E+01 3.71499E-01-3.10462E-05-5.99003E-01-1.52615E-13 1.01939E-13
 -1      3506 1.99957E+01 2.81067E-01 2.03357E-03-8.17958E-01-7.66391E-14-5.72063E-14
 -1      3507 1.99633E+01 3.06424E-01-4.74134E-04-7.57810E-01-1.37664E-13-5.73784E-15
 -1      3508 1.98186E+01 3.65901E-01-6.06619E-04-7.30436E-01-9.52195E-14 1.94869E-14
 -1      3509 2.00553E+01 1.79556E-01 2.33355E-03-9.47145E-01-2.66324E-14-3.37808E-14
 -1      3510 2.00023E+01 2.39306E-01 4.77996E-04-8.91390E-01-5.52837E-14-2.75415E-14
 -1      3511 1.98146E+01 3.10992E-01-1.66067E-03-8.75340E-01-9.09811E-14-2.68134E-14
 -1      3512 2.01765E+01-1.08567E-02 2.59052E-03-1.06342E+00-2.10191E-13 1.11758E-13
 -1      3513 2.00908E+01 9.74767E-02 2.13250E-03-1.02073E+00-1.19763E-13 2.17136E-14
 -1      3514 1.98499E+01 1.81179E-01-3.44468E-03-1.02852E+00-1.03989E-13 4.04608E-14
 -1      3515 2.03959E+01-3.19076E-01 2.56528E-03-1.14524E+00-9.78495E-14 8.20666E-14
 -1      3516 2.02615E+01-1.47345E-01 4.81599E-03-1.12900E+00-1.13072E-13 1.38375E-13
 -1      3517 1.99558E+01-5.46688E-02-6.24506E-03-1.17983E+00-1.63900E-13 7.90863E-14
 -1      3518 2.07611E+01-7.68042E-01 1.52713E-03-1.15712E+00-1.38487E-13-5.53227E-14
 -1      3519 2.05603E+01-5.22309E-01 9.04605E-03-1.18775E+00-8.97548E-14 4.85305E-14
 -1      3520 2.01790E+01-4.30525E-01-1.03877E-02-1.31001E+00-6.07727E-14-9.99267E-14
 -1      3521 2.13236E+01-1.35311E+00-1.95163E-03-1.04071E+00-1.28603E-13-1.21812E-13
 -1      3522 2.10435E+01-1.04014E+00 1.47008E-02-1.14785E+00-1.75853E-13-8.59024E-14
 -1      3523 2.05846E+01-9.71630E-01-1.56192E-02-1.38020E+00-1.27745E-13-3.47362E-14
 -1      3524 2.21200E+01-2.00322E+00-8.29330E-03-7.10057E-01-1.44200E-14-2.75471E-13
 -1      3525 2.17628E+01-1.66811E+00 2.11300E-02-9.31109E-01 3.78777E-15-2.17296E-13
 -1      3526 2.12493E+01-1.67136E+00-2.25133E-02-1.31601E+00-1.52019E-14-9.80717E-14
 -1      3527 2.31277E+01-2.50863E+00-1.22210E-02-7.82132E-02-4.74265E-14-1.17155E-13
 -1      3528 2.27267E+01-2.27732E+00 2.61979E-02-4.36904E-01-1.14574E-13-2.47116E-13
 -1      3529 2.22047E+01-2.44139E+00-3.99932E-02-9.92669E-01-4.29524E-14-1.05415E-13
 -1      3530 2.42320E+01-2.49061E+00-5.78421E-03 9.50030E-01-7.84190E-14-6.83915E-15
 -1      3531 2.38770E+01-2.60441E+00 2.63688E-02 4.46864E-01-6.79127E-14-1.67852E-13
 -1      3532 2.35436E+01-3.00183E+00-4.47134E-02-2.45431E-01-1.31537E-13-1.21415E-13
 -1      3533 2.49925E+01-1.45883E+00-2.14598E-02 2.10803E+00-9.69537E-14 1.22012E-13
 -1      3534 2.48220E+01-2.12009E+00-1.22103E-02 1.64301E+00-9.53955E-14 1.25293E-13
 -1      3535 2.49497E+01-2.77631E+00 2.64119E-03 9.17774E-01-1.37307E-13-2.52654E-13
 -1      3536 2.58101E+01 5.95764E-01-4.42978E-02 2.77516E+00 1.69448E-14-2.38629E-14
 -1      3537 2.58489E+01-7.06240E-01-5.13149E-02 2.59606E+00 2.37484E-14 2.05391E-15
 -1      3538 2.43114E+01 4.26081E+00-5.95812E-02 4.36941E-01-1.55681E-13 2.60453E-13
 -1      3539 2.43683E+01 4.12614E+00-6.04029E-02 1.30686E+00-1.20418E-13 1.33990E-14
 -1      3540 2.49273E+01 2.30600E+00-5.89030E-02-1.35162E+00 1.81497E-13-9.16316E-14
 -1      3541 2.47447E+01 3.24783E+00-4.48874E-02-7.63752E-01 1.96065E-13 8.17532E-14
 -1      3542 2.50383E+01 1.22353E+00-3.84164E-02-1.42588E+00 2.69524E-13-3.24971E-13
 -1      3543 2.52091E+01 4.36912E+00-1.01789E-01-3.48568E-01 1.01759E-13 4.18398E-14
 -1      3544 1.83811E+01-2.86794E+00 1.56476E-01-6.71212E+00 3.48180E-13-1.90743E-13
 -1      3545 2.59521E+01-4.25428E+00 3.31901E-02-7.24493E-01 2.20731E-14-2.69628E-13
 -1      3546 2.72524E+01-3.49416E+00-4.52131E-02 5.12573E-01-2.03639E-14-2.61069E-13
 -1      3547 1.66737E+01-1.38827E+00 1.46553E-01 6.37118E+00-1.13624E-13 4.05925E-13
 -1      3548 2.73606E+01 3.34369E+00-1.55671E-01 2.78140E+00-1.07858E-13-1.87073E-13
 -1      3549 2.60369E+01 3.74433E+00-5.57817E-02 2.51827E+00-5.60246E-14 1.58703E-13
 -1      3550 2.00267E+01-4.56057E-02 4.15978E-04-9.48495E-02 2.91881E-14-4.47239E-14
 -1      3551 2.00270E+01-5.27181E-02-1.81314E-04-1.01388E-01 2.20727E-14-6.09852E-14
 -1      3552 2.00532E+01-6.21709E-02-2.93433E-04-1.01318E-01-5.84844E-15-8.81230E-14
 -1      3553 2.00408E+01-4.67367E-02-2.23803E-04-8.95757E-02 3.30284E-14 1.32255E-14
 -1      3554 2.02852E+01 1.16155E+00-4.01736E-05-4.76871E-01-1.86641E-13-2.76210E-13
 -1      3555 2.02869E+01 9.30001E-01-4.02809E-03-3.37643E-01-1.64141E-13-2.56989E-13
 -1      3556 2.00299E+01 2.20160E+00-3.35964E-03-1.62955E-01-5.13017E-14-4.14940E-13
 -1      3557 2.00420E+01 2.16493E+00-4.29236E-03-2.84564E-01-9.89899E-14-3.96038E-13
 -1      3558 2.01584E+01 1.85174E+00 5.13405E-03-2.84892E-01-1.01538E-13-3.68786E-13
 -1      3559 2.73205E+01-2.55317E+00-8.07636E-02 3.81180E-01 1.58554E-15-1.12433E-12
 -1      3560 2.73174E+01-3.24033E+00-1.76118E-02 1.22493E+00-1.22131E-13-6.86520E-13
 -1      3561 2.63295E+01-1.93529E+00-6.62469E-04-9.52034E-02-1.17099E-13-4.74187E-13
 -1      3562 2.72061E+01 2.21418E+00-4.94350E-02 3.03036E+00-1.35725E-14-2.62942E-13
 -1      3563 2.55153E+01 4.79873E+00-8.87592E-02 1.31760E+00-1.43607E-13 2.47854E-13
 -1      3564 1.66570E+01-2.18376E+00 1.36576E-01-4.59942E+00-3.35877E-14-2.29206E-13
 -1      3565 1.90507E+01-3.21760E+00-2.51314E-02-4.20721E+00 3.30656E-14-2.69774E-13
 -1      3566 2.60761E+01-2.78802E+00 1.25976E-02 1.08295E+00-8.30065E-16-5.90139E-13
 -1      3567 2.03163E+01 7.35414E-01 3.20466E-03-2.42841E-01-1.54719E-13-2.34665E-13
 -1      3568 2.02946E+01 5.72026E-01-3.22797E-03-1.42308E-01-1.42501E-13-2.16048E-13
 -1      3569 2.03137E+01 9.27334E-01-1.17361E-03-2.83149E-01-1.47126E-13-2.29650E-13
 -1      3570 2.02347E+01 3.20351E-01-2.04291E-03 1.56194E-02 9.69924E-14-2.19674E-13
 -1      3571 2.02643E+01 4.30092E-01 2.88481E-03 8.95757E-02 1.16622E-13-2.41691E-13
 -1      3572 2.54029E+01-2.12609E+00-1.80667E-02 2.56048E-01 8.90369E-14-2.72020E-13
 -1      3573 1.79535E+01-1.11191E+00 3.71568E-02 3.11068E+00 1.12560E-13-2.10854E-13
 -1      3574 1.54592E+01-1.10368E+00 3.20018E-02 3.50877E+00 1.71039E-13-2.83752E-13
 -1      3575 1.49775E+01-3.33246E-01-8.42447E-03 2.80100E+00 2.06408E-13-3.65076E-13
 -1      3576 1.76613E+01-5.15377E-01-6.15066E-03 2.80813E+00 1.26651E-13-6.06759E-14
 -1      3577 2.46307E+01 3.87797E+00-1.28868E-01 1.86811E+00-3.54508E-14 9.84915E-14
 -1      3578 2.48371E+01 3.09288E+00-5.65060E-02 2.36330E+00-1.13555E-13 9.05105E-14
 -1      3579 1.67712E+01-1.79283E-02 1.40188E-02 2.55694E+00 1.04996E-13-2.08381E-13
 -1      3580 2.69374E+01-2.31348E+00-3.46069E-02 1.53218E+00-1.01883E-13-3.01162E-13
 -1      3581 2.03301E+01 5.78820E-01 7.31727E-04-1.15108E-01-1.30542E-13-2.09320E-13
 -1      3582 2.00849E+01-5.68728E-02 4.50505E-04-1.60359E-01 5.19457E-14-5.08675E-14
 -1      3583 2.01392E+01-5.36910E-02-6.38044E-04-1.51116E-01 4.31063E-14-4.72209E-14
 -1      3584 2.00769E+01-6.44499E-02 2.32812E-04-1.55355E-01 3.55047E-14-6.18384E-14
 -1      3585 2.01719E+01-1.49085E-02-7.11989E-04-1.47781E-01 4.29634E-15-1.54902E-13
 -1      3586 2.01274E+01-8.24767E-03-2.16102E-04-1.58990E-01 5.32281E-14-1.96601E-13
 -1      3587 2.01434E+01 2.07089E-02 1.27310E-03-1.49397E-01 4.38579E-14-1.97485E-13
 -1      3588 2.01029E+01 6.00748E-02-1.19415E-03-1.39742E-01 7.94392E-14-1.89201E-13
 -1      3589 2.70708E+01 1.02635E+00-9.80828E-03 2.88458E+00-1.75207E-14-2.34805E-13
 -1      3590 2.43935E+01-1.38978E+00 1.09905E-02-2.60332E-01 2.56663E-14 2.38398E-13
 -1      3591 2.01971E+01 1.60209E-01-1.30172E-03-8.10988E-02 9.22988E-14-2.46890E-13
 -1      3592 2.02239E+01 2.33187E-01 2.52783E-03-3.62283E-02 1.02893E-13-2.27375E-13
 -1      3593 2.02812E+01 3.27434E-01-5.70874E-04 7.10803E-03 1.06236E-13-2.57148E-13
 -1      3594 2.02534E+01 1.39240E+00 3.15979E-03-5.54026E-01-1.93895E-13-2.92800E-13
 -1      3595 2.02549E+01 1.37402E+00 1.26119E-03-4.60773E-01-1.59417E-13-2.82115E-13
 -1      3596 2.02768E+01 1.14130E+00-5.17955E-03 4.93212E-01 1.99793E-13-2.97066E-13
 -1      3597 2.02659E+01 1.28674E+00 1.46230E-04 4.54315E-01 1.60099E-13-3.19283E-13
 -1      3598 2.02610E+01 5.34826E-01-2.29280E-03 1.58347E-01 1.52070E-13-2.51645E-13
 -1      3599 2.02803E+01 6.51725E-01-2.68301E-04 2.54139E-01 1.68650E-13-2.53162E-13
 -1      3600 2.03005E+01 5.47517E-01-7.88115E-05 1.31800E-01 1.25461E-13-2.62899E-13
 -1      3601 1.29048E+01 3.18982E-01 8.18894E-02 1.32909E+00 1.87483E-13-3.18915E-13
 -1      3602 2.02021E+01 1.63921E+00-3.38279E-03 1.30524E-01 3.22145E-14-3.68918E-13
 -1      3603 2.01980E+01 1.65927E+00-2.64989E-03 3.99470E-02 1.78374E-15-3.84211E-13
 -1      3604 2.00877E+01-7.73839E-02-4.53288E-04-1.30625E-01 2.05226E-14 1.38800E-15
 -1      3605 2.00589E+01-7.02726E-02 3.30188E-04-1.41153E-01 1.96102E-15-4.47044E-14
 -1      3606 2.00641E+01-6.86499E-02 1.99377E-04-1.48864E-01 5.27354E-14-4.97870E-14
 -1      3607 2.49782E+01 1.92797E+00-1.30448E-01 2.86902E+00-1.33137E-13 8.31184E-14
 -1      3608 2.02014E+01 1.69583E+00 5.77628E-03 4.59505E-01 1.42209E-13-3.79488E-13
 -1      3609 2.02213E+01 1.54715E+00-4.34958E-03 2.84673E-01 8.59511E-14-3.84501E-13
 -1      3610 2.02110E+01 1.60669E+00-1.93501E-03 2.01226E-01 5.38402E-14-3.71726E-13
 -1      3611 2.02850E+01 1.38613E+00 5.07594E-03 1.34004E-01 2.68127E-14-3.39805E-13
 -1      3612 1.21862E+01 3.24258E-01 9.99646E-02-1.64052E+00-5.05548E-14-1.21403E-13
 -1      3613 1.30794E+01-7.97575E-02-3.71469E-02-2.44605E+00-7.89937E-14-1.13104E-14
 -1      3614 1.28235E+01 5.85571E-01 2.90894E-02-7.65071E-01 7.31776E-14-1.20730E-13
 -1      3615 2.02090E+01 1.61054E+00-2.04553E-03-1.96274E-01-6.95726E-14-3.64784E-13
 -1      3616 2.02188E+01 1.55278E+00-4.24069E-03-2.77985E-01-1.04476E-13-3.47167E-13
 -1      3617 2.51427E+01-1.24231E+00-2.72399E-02-6.21229E-01-5.53047E-14 1.85124E-13
 -1      3618 2.50954E+01-5.65307E-01-1.32309E-02-9.69387E-01 5.40852E-14 4.00053E-14
 -1      3619 2.02418E+01-3.42551E+00 6.96140E-02-3.92688E+00 3.66911E-14-4.31367E-13
 -1      3620 2.12213E+01-3.60999E+00 3.43759E-02-3.26606E+00 4.05062E-14-7.02025E-13
 -1      3621 1.86949E+01-2.55710E+00-1.93542E-02-3.83392E+00 1.30475E-13-4.06519E-13
 -1      3622 1.56102E+01-1.43921E+00 3.40635E-02-3.88826E+00-4.19803E-16-3.31840E-13
 -1      3623 2.02287E+01 1.51956E+00-1.50831E-03-3.40012E-01-1.13889E-13-3.41931E-13
 -1      3624 2.02447E+01 1.42743E+00-3.00279E-03-4.07845E-01-1.45383E-13-3.12299E-13
 -1      3625 2.02964E+01 1.22194E+00 5.31679E-03-3.43915E-01-1.35729E-13-2.94697E-13
 -1      3626 2.02984E+01 1.31410E+00 6.37914E-03-2.47324E-01-9.92585E-14-3.28207E-13
 -1      3627 2.01374E+01 1.92385E+00 4.98968E-03-9.47541E-02-3.22548E-14-3.99311E-13
 -1      3628 2.38348E+01-3.78841E+00 1.44539E-02-1.27559E+00-4.91768E-14-1.68161E-13
 -1      3629 2.50147E+01-4.00338E+00 4.09110E-02-7.72661E-01-1.44017E-14-1.20010E-13
 -1      3630 2.02718E+01 9.56324E-01 2.01619E-03 4.62916E-01 2.07070E-13-2.73610E-13
 -1      3631 2.02858E+01 8.22789E-01 2.27530E-03 3.35637E-01 1.80725E-13-2.70424E-13
 -1      3632 2.03342E+01 2.15723E-01 1.48119E-03 4.71922E-02-9.70731E-14-2.14746E-13
 -1      3633 2.03131E+01 1.40941E-01-9.95868E-04 7.67137E-02-1.12175E-13-2.10300E-13
 -1      3634 2.02981E+01 8.17393E-02 1.13040E-03 9.25871E-02-1.03313E-13-1.91823E-13
 -1      3635 2.02765E+01 3.35137E-02-4.80063E-04 1.07973E-01-7.01081E-14-2.05444E-13
 -1      3636 2.03396E+01 1.30353E-01-2.87010E-04 6.86937E-02-9.63768E-14-2.53554E-13
 -1      3637 2.02573E+01-3.53190E-03 8.11385E-04 1.14772E-01-6.64586E-14-2.05479E-13
 -1      3638 2.02371E+01-3.26530E-02-1.33424E-04 1.20443E-01-4.44084E-14-2.24765E-13
 -1      3639 2.03008E+01 2.36721E-02-4.24829E-04 9.38693E-02-8.55302E-14-1.78823E-13
 -1      3640 2.02167E+01-5.38206E-02 5.62864E-04 1.21001E-01-1.22056E-14-2.23606E-13
 -1      3641 2.01987E+01-6.93261E-02 1.05310E-04 1.20503E-01-1.52606E-14-2.36679E-13
 -1      3642 2.02589E+01-4.13473E-02-5.02674E-04 1.03479E-01-4.92903E-14-1.72217E-13
 -1      3643 2.01790E+01-7.93842E-02 3.61431E-04 1.17303E-01-1.58820E-14-2.22897E-13
 -1      3644 2.01635E+01-8.53892E-02 2.52185E-04 1.13260E-01-2.94653E-15-2.70096E-13
 -1      3645 2.02176E+01-7.66750E-02-5.43686E-04 1.02995E-01-2.57564E-14-1.74746E-13
 -1      3646 2.01453E+01-8.77718E-02 2.04341E-04 1.08139E-01-3.19627E-14-2.66111E-13
 -1      3647 2.01324E+01-8.72224E-02 3.35119E-04 1.02465E-01-7.79878E-14-2.60422E-13
 -1      3648 2.01793E+01-9.11211E-02-5.25854E-04 9.66156E-02-3.80278E-14-1.89382E-13
 -1      3649 2.01162E+01-8.43100E-02 8.06820E-05 9.67686E-02-6.49053E-14-2.45149E-13
 -1      3650 2.01056E+01-7.92307E-02 3.74159E-04 9.08589E-02-3.93259E-14-2.06139E-13
 -1      3651 2.01452E+01-9.10865E-02-4.75692E-04 8.74665E-02-4.98794E-14-1.57755E-13
 -1      3652 2.00914E+01-7.26302E-02-1.91755E-05 8.55620E-02-4.12298E-16-2.07218E-13
 -1      3653 2.00828E+01-6.43345E-02 3.85218E-04 8.04198E-02 3.11534E-14-1.56141E-13
 -1      3654 2.01155E+01-8.09752E-02-4.02813E-04 7.78686E-02 8.40453E-15-1.34853E-13
 -1      3655 2.00702E+01-5.50290E-02-1.06697E-04 7.62245E-02-1.96037E-14-1.53895E-13
 -1      3656 2.00631E+01-4.42629E-02 3.81005E-04 7.25942E-02-6.87887E-14-7.65190E-14
 -1      3657 2.00897E+01-6.36828E-02-3.14972E-04 6.94962E-02 1.52283E-14-1.59880E-13
 -1      3658 2.00518E+01-3.27472E-02-1.91450E-04 7.00322E-02-7.65741E-14-1.00940E-13
 -1      3659 2.00458E+01-1.98122E-02 3.70232E-04 6.85041E-02-6.32779E-14-1.26507E-13
 -1      3660 2.00671E+01-4.08784E-02-2.16632E-04 6.35836E-02-7.61424E-14-1.35234E-13
 -1      3661 2.00350E+01-6.20098E-03-2.81578E-04 6.80167E-02-5.17256E-14-1.21132E-13
 -1      3662 2.00294E+01 8.94610E-03 3.57942E-04 6.91067E-02-6.94967E-14-8.93851E-14
 -1      3663 2.00464E+01-1.32670E-02-1.07468E-04 6.11034E-02-3.59839E-14-1.54918E-13
 -1      3664 2.00183E+01 2.48338E-02-3.84731E-04 7.10995E-02-9.20099E-14-4.42749E-14
 -1      3665 2.00126E+01 4.25028E-02 3.46107E-04 7.53060E-02-9.96791E-14-1.36766E-14
 -1      3666 2.00262E+01 1.91897E-02 1.57021E-05 6.28915E-02-3.94852E-14-1.40109E-13
 -1      3667 2.00002E+01 6.10754E-02-5.08111E-04 8.01870E-02-6.54368E-14 3.68097E-14
 -1      3668 1.99935E+01 8.17776E-02 3.33844E-04 8.80288E-02-4.68130E-14 3.85512E-14
 -1      3669 2.00046E+01 5.71004E-02 1.58508E-04 6.97338E-02-3.99937E-14 1.77168E-14
 -1      3670 1.99786E+01 1.03612E-01-6.58538E-04 9.62272E-02-3.65894E-14 1.07254E-13
 -1      3671 1.99700E+01 1.28000E-01 3.17339E-04 1.08261E-01 3.14931E-14 8.18495E-14
 -1      3672 1.99796E+01 1.01498E-01 3.28991E-04 8.24170E-02 7.20274E-15 1.18206E-13
 -1      3673 1.99511E+01 1.53782E-01-8.42530E-04 1.20230E-01 4.76047E-14 1.53059E-13
 -1      3674 1.99394E+01 1.82587E-01 2.89583E-04 1.37049E-01 7.38912E-14 1.57145E-13
 -1      3675 1.99485E+01 1.53706E-01 5.37744E-04 1.01743E-01 5.15681E-14 2.25311E-13
 -1      3676 1.99148E+01 2.13047E-01-1.06641E-03 1.53244E-01 5.83194E-14 1.23056E-13
 -1      3677 1.98985E+01 2.47002E-01 2.40054E-04 1.75453E-01 2.79684E-14 1.26522E-13
 -1      3678 1.99081E+01 2.15188E-01 7.98230E-04 1.28502E-01 5.04338E-14 1.34791E-13
 -1      3679 1.98660E+01 2.82828E-01-1.33659E-03 1.96295E-01 2.79013E-16 9.00279E-14
 -1      3680 1.98431E+01 3.22562E-01 1.54650E-04 2.24463E-01-2.89321E-14 8.69397E-14
 -1      3681 1.98548E+01 2.87383E-01 1.12728E-03 1.63406E-01-2.75539E-14 2.61977E-14
 -1      3682 1.98001E+01 3.64277E-01-1.66040E-03 2.50279E-01-3.91393E-14 4.53589E-14
 -1      3683 1.97682E+01 4.10173E-01 1.63945E-05 2.84874E-01-7.71171E-14 2.43539E-14
 -1      3684 1.97836E+01 3.71478E-01 1.54586E-03 2.06973E-01-6.73487E-14 1.94392E-14
 -1      3685 1.97113E+01 4.57962E-01-2.04807E-03 3.15829E-01-6.01420E-14 2.69197E-14
 -1      3686 1.96672E+01 5.09940E-01-1.92163E-04 3.57144E-01-2.99243E-14 5.93875E-14
 -1      3687 1.96888E+01 4.68102E-01 2.08014E-03 2.59384E-01-6.78025E-14-9.78333E-15
 -1      3688 1.95925E+01 5.63381E-01-2.51724E-03 3.93182E-01-3.79070E-14 7.56738E-14
 -1      3689 1.95323E+01 6.20591E-01-4.83362E-04 4.41293E-01 6.23553E-14 6.24377E-14
 -1      3690 1.95632E+01 5.76899E-01 2.76331E-03 3.20331E-01-1.39829E-14 8.93225E-14
 -1      3691 1.94346E+01 6.78270E-01-3.10219E-03 4.82145E-01 8.92089E-14-5.46929E-14
 -1      3692 1.93536E+01 7.38649E-01-8.53667E-04 5.36959E-01 7.49013E-14-9.65047E-14
 -1      3693 1.93977E+01 6.95960E-01 3.63886E-03 3.88938E-01-1.93414E-14 1.90002E-14
 -1      3694 1.92265E+01 7.97593E-01-3.87179E-03 5.82311E-01 7.32110E-14-1.53624E-13
 -1      3695 1.91193E+01 8.57246E-01-1.26563E-03 6.43848E-01 1.78568E-13-1.54343E-13
 -1      3696 1.91811E+01 8.21039E-01 4.76663E-03 4.63886E-01 8.97955E-14-2.26841E-13
 -1      3697 1.89545E+01 9.12126E-01-4.96236E-03 6.93831E-01 1.99058E-13-2.20793E-13
 -1      3698 1.88149E+01 9.64485E-01-1.61854E-03 7.62966E-01 1.32308E-13-2.14650E-13
 -1      3699 1.88994E+01 9.44572E-01 6.23463E-03 5.44009E-01 1.39362E-13-2.67853E-13
 -1      3700 1.86014E+01 1.00652E+00-6.63069E-03 8.19248E-01 7.26141E-14-2.29172E-13
 -1      3701 1.84238E+01 1.04125E+00-1.69267E-03 8.99283E-01 7.67233E-14-2.67464E-13
 -1      3702 1.85346E+01 1.05447E+00 8.18744E-03 6.29774E-01 9.03376E-14-4.02655E-13
 -1      3703 1.81460E+01 1.05667E+00-9.30839E-03 9.67259E-01-3.13544E-14-2.49881E-13
 -1      3704 1.79259E+01 1.05814E+00-9.55447E-04 1.06681E+00-1.36008E-13-2.81141E-13
 -1      3705 1.80626E+01 1.13275E+00 1.09246E-02 7.26373E-01-1.03964E-15-4.03595E-13
 -1      3706 1.75608E+01 1.02554E+00-1.36174E-02 1.15942E+00-8.05642E-14-3.57767E-13
 -1      3707 1.72974E+01 9.69657E-01 1.13159E-03 1.29741E+00-1.98299E-14-2.95150E-13
 -1      3708 1.74497E+01 1.15389E+00 1.53212E-02 8.49409E-01-6.40320E-14-3.93819E-13
 -1      3709 1.68069E+01 8.59762E-01-2.05760E-02 1.43962E+00 1.08346E-13-3.47243E-13
 -1      3710 1.65036E+01 7.04924E-01 2.92554E-03 1.65682E+00 1.22685E-13-3.08294E-13
 -1      3711 1.66479E+01 1.08472E+00 2.46607E-02 1.03468E+00-7.57901E-15-4.67948E-13
 -1      3712 2.00904E+01-7.63420E-02 3.84814E-04-1.02420E-01 1.97930E-14 2.47606E-14
 -1      3713 2.00990E+01-8.05599E-02 6.98572E-05-1.09226E-01 4.38491E-14 6.54689E-14
 -1      3714 1.40150E+01 3.31785E-01 3.65803E-02 1.94352E+00 1.77699E-13-3.54126E-13
 -1      3715 1.34116E+01 6.46962E-01-1.49863E-03 7.89339E-01 9.46361E-14-2.88738E-13
 -1      3716 2.01603E+01 5.64658E-02-6.49392E-04-1.35050E-01 4.13267E-14-2.02288E-13
 -1      3717 2.01816E+01 1.03584E-01 1.86694E-03-1.11156E-01 6.22289E-14-2.12035E-13
 -1      3718 2.02083E+01 5.26837E-02-7.50734E-04-1.26681E-01 4.27919E-14-2.07368E-13
 -1      3719 2.00274E+01 1.49734E-03 4.04371E-04-7.38869E-02 6.19259E-14-3.21887E-14
 -1      3720 2.00309E+01-1.18613E-02-2.87621E-04-7.35456E-02 4.26464E-14 1.05056E-14
 -1      3721 2.00402E+01-2.38581E-02 4.02522E-04-7.46808E-02 3.11550E-14 1.73822E-14
 -1      3722 2.00443E+01-3.53730E-02-2.06531E-04-7.70608E-02 7.29946E-15 1.92868E-14
 -1      3723 2.00434E+01-1.88274E-02-1.30396E-04-6.84646E-02 3.44068E-14-2.77812E-14
 -1      3724 2.00015E+01 6.40737E-02 4.35465E-04-9.12289E-02 3.62949E-14-4.18166E-14
 -1      3725 2.00050E+01 4.65000E-02-4.81976E-04-8.38469E-02-2.91851E-14-8.78076E-15
 -1      3726 1.99859E+01 1.02293E-01 4.70570E-04-1.11556E-01 4.86777E-14-1.30356E-14
 -1      3727 1.99901E+01 8.22019E-02-6.06220E-04-9.97776E-02 5.32382E-14-5.33021E-14
 -1      3728 1.99902E+01 8.15869E-02 1.90814E-04-8.88962E-02 6.64931E-14-8.24499E-14
 -1      3729 1.99666E+01 1.45740E-01 5.21842E-04-1.41336E-01 1.05992E-14 8.35236E-15
 -1      3730 1.99719E+01 1.22939E-01-7.52839E-04-1.24497E-01 2.92353E-14 3.60909E-14
 -1      3731 1.99673E+01 1.25263E-01 3.19953E-04-1.09940E-01 1.82061E-14-6.15094E-14
 -1      3732 1.99422E+01 1.94439E-01 5.92275E-04-1.82021E-01-2.37849E-14 1.07288E-13
 -1      3733 1.99492E+01 1.68974E-01-9.21972E-04-1.59403E-01 2.21359E-14 9.35687E-14
 -1      3734 1.99389E+01 1.74816E-01 4.60722E-04-1.40179E-01-2.92174E-14 1.14428E-13
 -1      3735 1.99115E+01 2.47657E-01 6.86889E-04-2.35188E-01-2.01097E-14-1.47046E-14
 -1      3736 1.99205E+01 2.20005E-01-1.11008E-03-2.06050E-01-5.97674E-14 4.88642E-14
 -1      3737 1.99031E+01 2.30144E-01 6.08718E-04-1.81145E-01-2.11310E-14 7.36748E-14
 -1      3738 1.98735E+01 3.03418E-01 8.14755E-04-3.02488E-01 8.53651E-14-7.81497E-14
 -1      3739 1.98845E+01 2.74746E-01-1.30843E-03-2.66118E-01 8.48325E-14 2.00534E-14
 -1      3740 1.98581E+01 2.90235E-01 7.53105E-04-2.34585E-01 2.38678E-14-3.63273E-14
 -1      3741 1.98279E+01 3.57876E-01 9.92032E-04-3.85561E-01-4.10074E-14-3.03851E-14
 -1      3742 1.98407E+01 3.30379E-01-1.50102E-03-3.41346E-01 3.92665E-14-2.27802E-14
 -1      3743 1.98025E+01 3.52635E-01 8.72939E-04-3.02460E-01 2.85865E-14 3.94792E-14
 -1      3744 1.97760E+01 4.04515E-01 1.24618E-03-4.85929E-01-1.17297E-13-2.18971E-14
 -1      3745 1.97894E+01 3.81834E-01-1.66144E-03-4.33451E-01-9.15440E-14-1.26947E-14
 -1      3746 1.97356E+01 4.12756E-01 9.31896E-04-3.86966E-01-8.43777E-14-4.20077E-14
 -1      3747 1.97214E+01 4.33163E-01 1.62102E-03-6.04872E-01-1.47996E-13-2.68729E-14
 -1      3748 1.97328E+01 4.20904E-01-1.74805E-03-5.44026E-01-1.40424E-13 1.51141E-14
 -1      3749 1.96583E+01 4.63007E-01 8.70608E-04-4.90561E-01-8.20060E-14-3.51752E-14
 -1      3750 1.96714E+01 4.28877E-01 2.18106E-03-7.43252E-01 4.26539E-16-7.56477E-14
 -1      3751 1.96761E+01 4.35185E-01-1.69506E-03-6.74411E-01-7.11564E-14 8.17078E-14
 -1      3752 1.95737E+01 4.91748E-01 5.95134E-04-6.16034E-01-1.67815E-13-5.70969E-14
 -1      3753 1.96394E+01 3.70764E-01 3.00692E-03-9.01194E-01-1.22294E-13-1.00240E-14
 -1      3754 1.96294E+01 4.06920E-01-1.39463E-03-8.25490E-01-8.63332E-14-2.73408E-14
 -1      3755 1.94894E+01 4.82074E-01-4.16570E-05-7.66605E-01-9.22916E-14-7.72149E-14
 -1      3756 1.96480E+01 2.30977E-01 4.14520E-03-1.07730E+00-1.26778E-13 8.90850E-14
 -1      3757 1.96105E+01 3.11899E-01-6.60426E-04-9.97220E-01-9.27483E-14 6.78296E-14
 -1      3758 1.94191E+01 4.10482E-01-1.27500E-03-9.45924E-01-1.09148E-13-8.10624E-15
 -1      3759 1.97327E+01-2.49411E-02 5.64583E-03-1.26628E+00-8.42656E-14-9.68915E-14
 -1      3760 1.96484E+01 1.18820E-01 8.34637E-04-1.18705E+00-1.46218E-13 7.12820E-14
 -1      3761 1.93866E+01 2.45369E-01-3.48034E-03-1.15743E+00-1.10543E-13-1.57877E-14
 -1      3762 1.99474E+01-4.34949E-01 7.78106E-03-1.45494E+00-5.62754E-14-1.19995E-13
 -1      3763 1.97880E+01-2.08846E-01 3.56076E-03-1.38712E+00-2.83040E-14-1.37323E-13
 -1      3764 1.94308E+01-5.13151E-02-6.80043E-03-1.40166E+00-3.81187E-14-1.38452E-13
 -1      3765 2.03718E+01-1.03716E+00 9.98870E-03-1.60964E+00-1.75602E-13-4.05717E-14
 -1      3766 2.00983E+01-7.13539E-01 7.88153E-03-1.57890E+00-1.69950E-13-3.11619E-14
 -1      3767 1.96119E+01-5.24819E-01-1.16303E-02-1.67446E+00-1.55380E-13-7.07854E-14
 -1      3768 2.11006E+01-1.84405E+00 7.57603E-03-1.66267E+00 6.10261E-14-6.97817E-14
 -1      3769 2.06778E+01-1.41912E+00 1.50354E-02-1.71247E+00-1.88795E-14-5.96682E-14
 -1      3770 2.00276E+01-1.21814E+00-1.55459E-02-1.95168E+00-7.43846E-14-1.67414E-13
 -1      3771 2.22903E+01-2.74425E+00 1.48975E-02-1.43345E+00-9.04806E-14-1.05695E-13
 -1      3772 2.16706E+01-2.28380E+00 3.67034E-02-1.65970E+00 2.55574E-14-1.08196E-13
 -1      3773 2.08390E+01-2.19714E+00-2.99462E-02-2.15110E+00-2.04923E-14-1.91621E-13
 -1      3774 2.30161E+01-3.48752E+00 3.28245E-02-1.70386E+00-6.55500E-14-1.88119E-13
 -1      3775 2.64758E+01-1.71225E+00-4.00443E-02 2.01425E+00-1.26815E-13-3.14537E-13
 -1      3776 2.55731E+01 4.42481E-01-4.69566E-02-1.44164E+00 1.78657E-13-3.16209E-13
 -1      3777 2.03575E+01 4.16330E-01 1.74737E-03-2.96732E-02-1.18552E-13-2.33329E-13
 -1      3778 2.03406E+01 3.05243E-01-1.77202E-03 1.87691E-02-1.03106E-13-2.35034E-13
 -1      3779 2.03686E+01 2.94308E-01 7.39030E-05 2.13928E-02-9.52339E-14-2.18973E-13
 -1      3780 2.03041E+01 8.33547E-01 1.76208E-04 2.86384E-01 1.58957E-13-2.72138E-13
 -1      3781 2.00149E+01 3.06572E-02 4.14230E-04-7.90561E-02-1.96089E-14 1.37398E-14
 -1      3782 2.00182E+01 1.53195E-02-3.77344E-04-7.54690E-02 1.05069E-13 2.95446E-14
 -1      3783 2.00094E+01 4.33918E-02 7.38516E-05-7.57170E-02-1.12931E-14 4.45994E-14
 -1      3784 2.02016E+01 1.64128E+00-3.33939E-03-1.24952E-01-6.99051E-14-3.78867E-13
 -1      3785 2.02851E+01 1.39124E+00 6.06010E-03-1.31228E-01-7.93460E-14-3.52319E-13
 -1      3786 2.01977E+01 1.66001E+00-2.67727E-03-3.44853E-02-4.23115E-14-3.84788E-13
 -1      3787 2.03612E+01 7.05827E-01 3.92570E-03-1.46730E-01-1.28220E-13-2.49366E-13
 -1      3788 2.03495E+01 5.45650E-01-2.98882E-03-7.43713E-02-1.26932E-13-2.41432E-13
 -1      3789 2.03769E+01 5.34178E-01 5.94533E-04-5.44075E-02-1.12205E-13-2.59915E-13
 -1      3790 2.02500E+01 1.38138E+00-5.30086E-03 4.12994E-01 1.42601E-13-3.69466E-13
 -1      3791 2.02368E+01 1.48298E+00-1.06452E-03 3.44817E-01 1.17130E-13-3.75336E-13
 -1      3792 2.02973E+01 1.28465E+00 5.14200E-03 2.50310E-01 9.03519E-14-3.30814E-13
 -1      3793 2.03070E+01 1.11475E+00 4.57416E-03 3.34563E-01 1.38604E-13-3.21408E-13
 -1      3794 1.54935E+01 1.79900E-01 3.21701E-02 2.21104E+00 1.48753E-13-3.73153E-13
 -1      3795 2.50540E+01-1.57589E+00-2.59991E-02-2.27896E-01 1.78512E-14 2.68778E-14
 -1      3796 1.57176E+01 5.13345E-01-1.78118E-02 1.83458E+00 1.20425E-13-3.82380E-13
 -1      3797 2.03108E+01 9.80608E-01-4.11571E-03-2.46104E-01-1.19855E-13-2.75921E-13
 -1      3798 2.02799E+01 1.42035E+00 5.03350E-03 2.03032E-03-4.09464E-14-3.42380E-13
 -1      3799 1.47604E+01-4.19670E-01 1.03572E-01-3.24631E+00-2.44232E-14-3.39838E-13
 -1      3800 1.67062E+01-1.37077E+00-2.60888E-02-3.54692E+00 1.03244E-13-4.18686E-13
 -1      3801 2.57974E+01-2.82855E+00-8.13553E-03 1.10703E+00-1.06595E-13-2.48559E-13
 -1      3802 2.01112E+01-7.24045E-02-5.40508E-04-1.43672E-01 4.18620E-14-2.06091E-14
 -1      3803 2.02091E+01-2.47642E-02-1.76258E-04-1.34465E-01-2.04442E-14-1.38451E-13
 -1      3804 2.02282E+01 4.63530E-03 9.23370E-04-1.27659E-01-4.98551E-15-1.50909E-13
 -1      3805 2.03267E+01 5.58196E-01-1.92827E-03 1.04017E-01 8.90554E-14-2.63128E-13
 -1      3806 2.03316E+01 6.92597E-01 3.15804E-03 1.73971E-01 1.22660E-13-2.66624E-13
 -1      3807 1.54478E+01 8.82017E-01 3.64345E-02 1.27636E+00 1.62961E-13-2.74139E-13
 -1      3808 2.02463E+01 1.61366E-01-6.82705E-04-7.86812E-02 6.57369E-14-2.86250E-13
 -1      3809 2.01314E+01-8.76475E-02-4.67499E-04-1.01772E-01 4.57006E-15-5.97688E-14
 -1      3810 2.01139E+01-8.26633E-02 3.41105E-04-1.15748E-01 1.19697E-14-1.89226E-14
 -1      3811 2.01248E+01-8.24383E-02 2.16703E-04-1.22159E-01-6.35006E-15-3.92597E-14
 -1      3812 2.00775E+01-7.06826E-02-3.67519E-05-9.61972E-02 3.04809E-14 4.43284E-14
 -1      3813 2.01043E+01-7.93541E-02-3.89179E-04-9.03723E-02 3.69490E-14 4.67011E-14
 -1      3814 2.00707E+01-6.33855E-02 4.01169E-04-9.01075E-02 2.73713E-14 4.88907E-15
 -1      3815 1.44809E+01 8.35223E-01 1.04098E-02 7.01095E-01 1.24011E-13-2.40153E-13
 -1      3816 1.35383E+01 8.24529E-01 5.93943E-02 1.10561E-01 9.12005E-14-2.39191E-13
 -1      3817 1.37385E+01 6.92515E-01-3.38584E-02-7.08639E-01 8.95675E-14-6.43739E-14
 -1      3818 2.00266E+01 1.00947E-02-3.24519E-05-6.92476E-02 3.70099E-14 2.79573E-14
 -1      3819 1.45853E+01 1.33912E-02 2.19572E-02-2.38346E+00 3.60770E-14-2.66949E-13
 -1      3820 2.03115E+01 3.14563E-01-1.56882E-03-9.86563E-03 9.19638E-14-2.39798E-13
 -1      3821 2.03299E+01 4.25389E-01 1.80254E-03 4.58280E-02 8.22305E-14-2.48499E-13
 -1      3822 2.03533E+01 5.52880E-01 2.83537E-04 8.14473E-02 8.04213E-14-2.36927E-13
 -1      3823 2.19615E+01-3.50434E+00-2.45187E-02-2.55380E+00-8.32971E-14-4.17898E-13
 -1      3824 2.50604E+01-3.33300E+00-7.10878E-02 3.83343E-01-9.92218E-14-7.17829E-14
 -1      3825 2.06645E+01-2.76320E+00 1.95525E-02-2.87390E+00 2.79031E-14-4.66046E-13
 -1      3826 2.03207E+01 1.14371E+00-3.77100E-03 1.35027E-01 2.63058E-14-3.21840E-13
 -1      3827 2.03202E+01 1.18067E+00-1.79057E-03 7.78453E-02-1.42434E-15-3.17656E-13
 -1      3828 2.00543E+01-4.55809E-02 4.03803E-04-8.04403E-02 2.20746E-14 5.63847E-14
 -1      3829 2.00595E+01-5.51767E-02-1.26244E-04-8.49941E-02 4.41368E-14 3.23389E-14
 -1      3830 2.00812E+01-6.40977E-02-3.08496E-04-8.00939E-02 3.19910E-14 1.02914E-13
 -1      3831 2.03203E+01 1.18106E+00-1.93185E-03-7.48926E-02-8.20508E-14-3.47264E-13
 -1      3832 2.03228E+01 1.14328E+00-3.78579E-03-1.35223E-01-9.42694E-14-3.50556E-13
 -1      3833 1.70158E+01-9.20686E-01-2.56598E-02-3.03298E+00 9.16990E-14-4.33475E-13
 -1      3834 1.81895E+01-1.62437E+00 7.03170E-02-3.43431E+00 6.93638E-14-4.77086E-13
 -1      3835 2.03343E+01 9.51917E-01-1.94851E-03-1.96011E-01-1.15803E-13-3.02432E-13
 -1      3836 2.03361E+01 9.87914E-01-1.76697E-03-1.54362E-01-1.00137E-13-3.20604E-13
 -1      3837 2.03214E+01 8.44861E-01-2.68751E-03 2.44336E-01 1.38074E-13-2.74625E-13
 -1      3838 2.01736E+01-6.22434E-02 7.96470E-05-1.35552E-01 1.61173E-14-1.10940E-13
 -1      3839 2.01899E+01-4.62315E-02 6.31203E-04-1.35868E-01 2.58379E-17-1.45944E-13
 -1      3840 2.02375E+01-3.30380E-02-5.57493E-04-1.19047E-01-1.08973E-14-1.48053E-13
 -1      3841 2.03179E+01 1.19446E+00-2.73250E-03 3.18406E-02-2.85484E-14-3.09045E-13
 -1      3842 2.03176E+01 1.19499E+00-2.78902E-03-2.86273E-02-8.51342E-14-3.02164E-13
 -1      3843 2.03730E+01 9.94287E-01 4.02626E-03-3.98957E-02-7.92352E-14-3.18025E-13
 -1      3844 2.03735E+01 9.95987E-01 4.85406E-03 3.90313E-02-2.77817E-14-2.99192E-13
 -1      3845 2.03758E+01 8.27223E-01 1.54798E-03-9.43984E-02-1.05438E-13-3.11954E-13
 -1      3846 2.03291E+01 9.42522E-01 2.20575E-04 2.21207E-01 1.04609E-13-3.02918E-13
 -1      3847 2.00612E+01-4.36286E-02-2.22081E-04-7.24094E-02 2.00924E-14-2.12252E-15
 -1      3848 1.52272E+01 9.57737E-01-1.47327E-02 6.73281E-01 6.52976E-14-1.87968E-13
 -1      3849 2.03399E+01 5.01555E-02 5.16710E-04 7.08390E-02-6.43882E-14-2.33043E-13
 -1      3850 2.03179E+01 6.46101E-03-2.20192E-04 8.03705E-02-4.92723E-14-2.13751E-13
 -1      3851 2.02966E+01-2.74536E-02 5.27749E-04 8.27469E-02-4.79078E-14-1.83448E-13
 -1      3852 2.02746E+01-5.32951E-02-5.99026E-06 8.57834E-02-3.29888E-14-1.56483E-13
 -1      3853 2.03284E+01-5.64598E-03-3.63109E-04 6.27531E-02-3.31888E-14-1.71233E-13
 -1      3854 2.02523E+01-7.17020E-02 4.06794E-04 8.48127E-02-4.33252E-14-1.66923E-13
 -1      3855 2.02317E+01-8.44047E-02 1.71447E-04 8.38920E-02-2.40844E-14-1.91161E-13
 -1      3856 2.02832E+01-6.18787E-02-4.49227E-04 6.62490E-02-5.34692E-14-1.54692E-13
 -1      3857 2.02100E+01-9.20105E-02 2.93228E-04 8.10216E-02 7.98888E-16-2.08526E-13
 -1      3858 2.01916E+01-9.55516E-02 2.78015E-04 7.78985E-02-2.83385E-14-1.53036E-13
 -1      3859 2.02384E+01-9.03474E-02-5.43164E-04 6.44501E-02-1.97785E-14-2.40656E-13
 -1      3860 2.01715E+01-9.56039E-02 1.93633E-04 7.41362E-02-4.74792E-14-1.41418E-13
 -1      3861 2.01554E+01-9.27374E-02 3.30281E-04 7.01535E-02-1.66635E-14-1.16917E-13
 -1      3862 2.01966E+01-9.90730E-02-5.43400E-04 5.97654E-02 2.38451E-14-1.45083E-13
 -1      3863 2.01373E+01-8.75528E-02 1.05810E-04 6.63609E-02-3.38116E-14-1.56977E-13
 -1      3864 2.01234E+01-8.02149E-02 3.41832E-04 6.24731E-02-8.89133E-15-1.43905E-13
 -1      3865 2.01588E+01-9.39176E-02-4.88814E-04 5.38893E-02-3.10072E-14-1.17476E-13
 -1      3866 2.01073E+01-7.13040E-02 2.21556E-05 5.92040E-02 9.95332E-15-1.80579E-13
 -1      3867 2.00953E+01-6.06839E-02 3.29306E-04 5.61074E-02-2.15856E-14-2.38047E-13
 -1      3868 2.01253E+01-7.90743E-02-4.01258E-04 4.82443E-02-3.77982E-14-2.38071E-13
 -1      3869 2.00807E+01-4.89119E-02-6.31104E-05 5.37741E-02-5.53808E-14-2.24271E-13
 -1      3870 2.00701E+01-3.56235E-02 3.02117E-04 5.20009E-02-5.33172E-14-1.87523E-13
 -1      3871 2.00955E+01-5.71224E-02-2.95640E-04 4.37454E-02-2.99249E-14-2.46599E-13
 -1      3872 2.00564E+01-2.13633E-02-1.53737E-04 5.09309E-02-5.72300E-14-2.21788E-13
 -1      3873 2.00465E+01-5.58061E-03 2.65508E-04 5.09146E-02-6.76098E-14-2.37359E-13
 -1      3874 2.00684E+01-2.94049E-02-1.74666E-04 4.11186E-02-8.94459E-14-2.08583E-13
 -1      3875 2.00328E+01 1.11762E-02-2.54832E-04 5.13845E-02-2.10864E-14-1.79887E-13
 -1      3876 2.00228E+01 2.96183E-02 2.21416E-04 5.35085E-02 2.21007E-14-1.28050E-13
 -1      3877 2.00423E+01 3.65901E-03-3.72302E-05 4.09456E-02-1.41005E-14-1.66322E-13
 -1      3878 2.00081E+01 4.91710E-02-3.71562E-04 5.57707E-02 2.17784E-14-1.17706E-13
 -1      3879 1.99969E+01 7.06909E-02 1.68718E-04 6.03991E-02 1.37018E-15-3.65950E-14
 -1      3880 2.00155E+01 4.23613E-02 1.20593E-04 4.37214E-02 4.77666E-14-1.53438E-13
 -1      3881 1.99799E+01 9.35514E-02-5.08874E-04 6.46948E-02 1.05605E-14-4.65574E-14
 -1      3882 1.99664E+01 1.18744E-01 1.03234E-04 7.21856E-02 2.87526E-14-5.98698E-15
 -1      3883 1.99855E+01 8.75194E-02 3.05315E-04 4.98871E-02 2.86529E-14-1.34765E-13
 -1      3884 1.99455E+01 1.45563E-01-6.71291E-04 7.87405E-02 5.48781E-14 4.84597E-14
 -1      3885 1.99283E+01 1.75121E-01 1.75117E-05 8.94390E-02 6.79867E-14 5.73617E-14
 -1      3886 1.99496E+01 1.40307E-01 5.25886E-04 5.98316E-02 6.45926E-14-1.55463E-13
 -1      3887 1.99017E+01 2.06609E-01-8.62746E-04 9.84409E-02-3.74648E-15 8.36773E-14
 -1      3888 1.98789E+01 2.41237E-01-9.95808E-05 1.12652E-01-2.53205E-14 2.88561E-14
 -1      3889 1.99047E+01 2.02081E-01 7.93718E-04 7.38582E-02 5.32654E-14-6.92903E-14
 -1      3890 1.98446E+01 2.78072E-01-1.08656E-03 1.24207E-01 2.07509E-15 2.26496E-14
 -1      3891 1.98141E+01 3.18376E-01-2.63333E-04 1.42145E-01-3.66709E-14 1.40770E-14
 -1      3892 1.98466E+01 2.74190E-01 1.12294E-03 9.21096E-02-2.02824E-14-3.97967E-14
 -1      3893 1.97694E+01 3.61082E-01-1.34590E-03 1.56212E-01-7.99351E-14 2.11503E-14
 -1      3894 1.97284E+01 4.07433E-01-4.93568E-04 1.77924E-01-1.05994E-13 2.81400E-14
 -1      3895 1.97709E+01 3.57738E-01 1.53102E-03 1.14448E-01-2.35384E-14-6.87056E-15
 -1      3896 1.96703E+01 4.56224E-01-1.64524E-03 1.94228E-01-1.15118E-13 6.56868E-14
 -1      3897 1.96155E+01 5.08572E-01-8.14635E-04 2.19511E-01-2.22060E-14 6.05441E-14
 -1      3898 1.96718E+01 4.53295E-01 2.04007E-03 1.40288E-01-8.43474E-14-9.13625E-15
 -1      3899 1.95402E+01 5.63140E-01-1.99404E-03 2.37442E-01-2.98814E-14-4.92010E-14
 -1      3900 1.94675E+01 6.20776E-01-1.25471E-03 2.65760E-01-7.78497E-14 1.15861E-15
 -1      3901 1.95425E+01 5.60518E-01 2.67934E-03 1.68388E-01-8.33590E-14-2.02145E-14
 -1      3902 1.93704E+01 6.80018E-01-2.41467E-03 2.84288E-01-8.98316E-14-4.47626E-14
 -1      3903 1.92745E+01 7.41275E-01-1.84414E-03 3.14739E-01 1.57563E-14-5.10083E-14
 -1      3904 1.93750E+01 6.77703E-01 3.49040E-03 1.96635E-01-8.02372E-14-1.23558E-13
 -1      3905 1.91500E+01 8.02943E-01-2.95761E-03 3.32387E-01 2.17941E-14-1.29235E-13
 -1      3906 1.90244E+01 8.64842E-01-2.61283E-03 3.63816E-01 3.16377E-14-2.13412E-13
 -1      3907 1.91590E+01 8.01258E-01 4.53724E-03 2.21871E-01-7.01513E-14-9.45014E-14
 -1      3908 1.88649E+01 9.25128E-01-3.72911E-03 3.78772E-01 1.06780E-13-2.88045E-13
 -1      3909 1.87015E+01 9.82972E-01-3.58958E-03 4.10171E-01 1.12137E-13-2.78906E-13
 -1      3910 1.88817E+01 9.25153E-01 5.92606E-03 2.39884E-01 3.07653E-14-2.50033E-13
 -1      3911 1.84966E+01 1.03604E+00-4.93572E-03 4.20676E-01 6.02411E-14-3.26700E-13
 -1      3912 1.82847E+01 1.08301E+00-4.80826E-03 4.52104E-01-1.98425E-15-3.88431E-13
 -1      3913 1.85261E+01 1.04043E+00 7.84089E-03 2.45756E-01 4.54752E-14-3.51519E-13
 -1      3914 1.80189E+01 1.12059E+00-6.93056E-03 4.57221E-01-4.43436E-14-3.71812E-13
 -1      3915 1.77441E+01 1.14764E+00-6.23091E-03 4.91609E-01-1.41724E-14-4.33318E-13
 -1      3916 1.80683E+01 1.13489E+00 1.06144E-02 2.34703E-01-3.65883E-14-2.36001E-13
 -1      3917 1.73932E+01 1.15741E+00-1.03582E-02 4.93215E-01 1.53415E-14-3.89580E-13
 -1      3918 1.70335E+01 1.15267E+00-7.86125E-03 5.38872E-01-6.33186E-14-3.82190E-13
 -1      3919 1.74726E+01 1.19328E+00 1.50796E-02 2.04424E-01-1.26471E-14-3.00138E-13
 -1      3920 1.65565E+01 1.11201E+00-1.79265E-02 5.41088E-01-2.34361E-14-3.65582E-13
 -1      3921 1.60863E+01 1.06623E+00-1.05677E-02 6.08136E-01 5.70160E-14-3.47272E-13
 -1      3922 1.66931E+01 1.19998E+00 2.73882E-02 1.59581E-01-4.30163E-14-2.51723E-13
 -1      3923 1.44889E+01 6.45338E-01 6.81452E-02-1.58798E+00 1.11743E-13-9.20644E-14
 -1      3924 1.54832E+01 3.36729E-02-3.08274E-02-2.30037E+00 1.39730E-13-3.34361E-13
 -1      3925 2.02780E+01 3.33936E-02-4.86551E-04-1.06246E-01-2.07968E-15-1.43714E-13
 -1      3926 2.02467E+01 4.17328E-02-5.33368E-04-1.18793E-01 9.59046E-15-1.63837E-13
 -1      3927 2.02676E+01 8.99862E-02 1.17071E-03-1.00881E-01 1.49020E-14-1.85821E-13
 -1      3928 1.99499E+01 1.46803E-01 2.80013E-04-1.02352E-01-5.74225E-14 6.12134E-14
 -1      3929 1.99619E+01 1.21536E-01-6.68878E-04-9.01631E-02 5.51240E-14-3.42286E-15
 -1      3930 1.99795E+01 9.85004E-02 2.79458E-04-8.17602E-02 7.03052E-14-5.31814E-14
 -1      3931 1.99893E+01 7.64269E-02-5.11805E-04-7.35947E-02 9.34828E-14-6.16602E-14
 -1      3932 1.99639E+01 1.19072E-01 3.80974E-04-7.36463E-02-1.11519E-15-5.32350E-14
 -1      3933 1.98666E+01 2.63001E-01 3.33070E-04-1.70718E-01 2.99488E-14-9.72328E-14
 -1      3934 1.98857E+01 2.31118E-01-1.07322E-03-1.48333E-01 5.97636E-14-1.56681E-14
 -1      3935 1.98083E+01 3.29673E-01 4.05018E-04-2.21897E-01 8.73006E-15-2.48521E-14
 -1      3936 1.98322E+01 2.95236E-01-1.32441E-03-1.93124E-01-3.07508E-14-1.06834E-13
 -1      3937 1.98228E+01 3.02040E-01 1.02770E-03-1.57719E-01 2.78898E-14-7.74996E-14
 -1      3938 1.97364E+01 3.99060E-01 5.31661E-04-2.87232E-01-5.97096E-14 7.17278E-14
 -1      3939 1.97655E+01 3.63591E-01-1.60750E-03-2.51043E-01 1.74431E-14 3.20052E-14
 -1      3940 1.97496E+01 3.75790E-01 1.27822E-03-2.06391E-01-4.90999E-14 2.16854E-14
 -1      3941 1.96496E+01 4.66293E-01 7.46050E-04-3.69385E-01-9.73974E-14 8.31199E-14
 -1      3942 1.96839E+01 4.32522E-01-1.91850E-03-3.24601E-01-8.88028E-14 5.82413E-14
 -1      3943 1.96591E+01 4.52198E-01 1.52540E-03-2.69329E-01-6.65833E-14 4.61273E-14
 -1      3944 1.95484E+01 5.23409E-01 1.10027E-03-4.71639E-01-1.24342E-13 2.90230E-14
 -1      3945 1.95867E+01 4.95721E-01-2.24973E-03-4.16871E-01-9.68779E-14 1.62527E-14
 -1      3946 1.95492E+01 5.25847E-01 1.74060E-03-3.49942E-01-6.72636E-14-6.31574E-14
 -1      3947 1.94358E+01 5.58317E-01 1.67351E-03-5.98144E-01-2.18781E-13 1.92446E-14
 -1      3948 1.94753E+01 5.43279E-01-2.58773E-03-5.31712E-01-2.04599E-13 5.36704E-15
 -1      3949 1.94193E+01 5.88040E-01 1.87702E-03-4.52740E-01-1.35211E-13 3.66827E-14
 -1      3950 1.93186E+01 5.53624E-01 2.58211E-03-7.54269E-01-1.06926E-13 2.60514E-14
 -1      3951 1.93539E+01 5.60587E-01-2.90803E-03-6.74088E-01-1.89391E-13-1.27575E-14
 -1      3952 1.92711E+01 6.25766E-01 1.85905E-03-5.83821E-01-2.15319E-13 1.07181E-13
 -1      3953 1.92105E+01 4.85339E-01 4.00874E-03-9.46970E-01-1.41747E-13 1.03372E-13
 -1      3954 1.92318E+01 5.27100E-01-3.15986E-03-8.50508E-01-6.22198E-14 4.31603E-14
 -1      3955 1.91097E+01 6.20505E-01 1.56147E-03-7.51562E-01-1.49050E-13 6.91864E-14
 -1      3956 1.91351E+01 3.20941E-01 6.03527E-03-1.18500E+00-7.60082E-14-1.43419E-14
 -1      3957 1.91264E+01 4.14895E-01-3.22437E-03-1.06962E+00-1.39469E-13-1.15563E-14
 -1      3958 1.89458E+01 5.46858E-01 7.48210E-04-9.67629E-01-4.78871E-14 4.74054E-14
 -1      3959 1.91334E+01 1.95633E-02 9.12509E-03-1.47470E+00-4.76871E-14-7.93035E-14
 -1      3960 1.90691E+01 1.85253E-01-3.07077E-03-1.34075E+00-6.32839E-14-6.27827E-14
 -1      3961 1.88003E+01 3.68613E-01-1.12661E-03-1.24879E+00-7.72827E-14-6.63719E-14
 -1      3962 1.92634E+01-4.70182E-01 1.20440E-02-1.82396E+00-1.69391E-13-1.94588E-13
 -1      3963 1.91076E+01-2.05698E-01-2.77688E-03-1.67150E+00-1.28511E-13-1.53269E-13
 -1      3964 1.87138E+01 4.75582E-02-1.38223E-03-1.61080E+00-6.81513E-14-2.14254E-13
 -1      3965 1.99112E+01-1.98972E+00 2.25644E-02-2.68723E+00 1.02019E-14-3.93091E-13
 -1      3966 1.94087E+01-1.47854E+00 4.27755E-03-2.55851E+00 4.67189E-14-3.65410E-13
 -1      3967 1.65816E+01-1.90375E-01 6.18302E-02-2.58484E+00 2.19551E-14-5.30801E-13
 -1      3968 1.75992E+01-6.37049E-01-3.73199E-04-2.60527E+00 3.39082E-14-4.64702E-13
 -1      3969 1.60685E+01 2.50873E-01-3.77311E-02-1.96057E+00 9.67668E-14-2.38462E-13
 -1      3970 2.03282E+01 1.01453E+00-4.00305E-03 2.07803E-01 7.59641E-14-2.95793E-13
 -1      3971 2.03291E+01 1.08581E+00-6.23122E-04 1.63113E-01 3.57771E-14-3.02173E-13
 -1      3972 2.03738E+01 9.18831E-01 4.22549E-03 1.02252E-01 8.29205E-15-2.87419E-13
 -1      3973 2.03650E+01 7.80820E-01 2.94743E-03 1.32513E-01 6.52564E-14-2.61283E-13
 -1      3974 2.01416E+01-7.94253E-02 2.50518E-04-1.27796E-01 6.55864E-15-6.78662E-14
 -1      3975 2.01552E+01-7.28292E-02 3.95755E-04-1.32272E-01 3.53237E-14-7.40948E-14
 -1      3976 2.01985E+01-7.00350E-02-5.81489E-04-1.19348E-01-6.11520E-15-1.34617E-13
 -1      3977 2.01628E+01-8.60411E-02-5.43872E-04-1.12378E-01-1.17342E-14-7.73584E-14
 -1      3978 2.00257E+01 1.96436E-02 3.06451E-04-6.11795E-02-2.43997E-14 3.43747E-14
 -1      3979 2.00337E+01 2.95719E-03-2.67589E-04-5.93577E-02 4.10965E-14 3.19328E-14
 -1      3980 1.88947E+01-2.09312E+00-2.97775E-02-3.31021E+00 1.41353E-13-5.22879E-13
 -1      3981 2.00041E+01 5.63340E-02 2.89343E-04-6.84042E-02 5.14742E-14-6.52758E-14
 -1      3982 2.00126E+01 3.71239E-02-3.79725E-04-6.36703E-02-2.00543E-14-8.18110E-15
 -1      3983 2.00201E+01 3.12398E-02 6.01687E-05-5.32033E-02 2.88802E-14 7.67084E-15
 -1      3984 2.03993E+01 6.45104E-01 4.34178E-04-6.81249E-02-1.11260E-13-3.03528E-13
 -1      3985 2.04010E+01 4.98564E-01-1.08699E-03-2.10791E-02-9.45046E-14-3.07830E-13
 -1      3986 2.03911E+01 7.87788E-01-7.99543E-05-5.28066E-02-9.24129E-14-3.31625E-13
 -1      3987 2.00673E+01-3.95669E-02 3.49101E-04-6.14048E-02 4.83011E-14-5.64031E-14
 -1      3988 2.00764E+01-5.17100E-02-7.99742E-05-6.39866E-02 7.19609E-14-1.85531E-14
 -1      3989 2.04048E+01 3.71077E-01 1.79331E-04-3.96758E-03-7.85733E-14-3.02962E-13
 -1      3990 2.03949E+01 2.68430E-01-5.23005E-04 2.74162E-02-1.01591E-13-3.04015E-13
 -1      3991 2.04214E+01 4.73089E-01 8.83946E-05-1.10377E-02-8.59018E-14-3.18063E-13
 -1      3992 2.02833E+01 1.49215E-01-9.47509E-04-8.07841E-02 3.09547E-14-2.05387E-13
 -1      3993 2.03043E+01 2.23802E-01 1.49761E-03-4.68618E-02 7.37653E-14-2.23771E-13
 -1      3994 2.03161E+01 1.41579E-01-2.37321E-04-7.44599E-02 1.51637E-14-1.75903E-13
 -1      3995 2.00463E+01-1.21981E-02 3.27677E-04-5.91342E-02 3.39097E-14-2.42280E-14
 -1      3996 2.00545E+01-2.65974E-02-1.69704E-04-5.97491E-02-2.39783E-15-2.92762E-14
 -1      3997 2.00441E+01-4.17038E-03-7.39924E-05-5.03390E-02 1.92780E-14 9.61279E-14
 -1      3998 1.99130E+01 2.01677E-01 2.95470E-04-1.31486E-01-1.80004E-14 5.99618E-14
 -1      3999 1.99281E+01 1.73034E-01-8.55072E-04-1.14592E-01-5.76528E-14-7.88735E-15
 -1      4000 1.99271E+01 1.72895E-01 5.73824E-04-9.32071E-02-2.17690E-14 1.79448E-14
 -1      4001 2.03809E+01 1.77162E-01 2.66733E-04 4.08529E-02-1.01154E-13-2.86182E-13
 -1      4002 2.03623E+01 1.08683E-01-3.90243E-04 6.00809E-02-7.34059E-14-2.81652E-13
 -1      4003 2.03740E+01 9.14296E-02-3.04913E-04 4.66243E-02-4.15137E-14-2.50644E-13
 -1      4004 2.04113E+01 2.45719E-01-2.34270E-04 1.98794E-02-6.64422E-14-3.02943E-13
 -1      4005 1.84763E+01-9.01757E-01 6.92649E-03-2.59453E+00 2.29127E-14-3.59483E-13
 -1      4006 1.95199E+01-1.07500E+00 1.83733E-02-2.17463E+00-6.21165E-14-2.64842E-13
 -1      4007 1.92114E+01-7.05748E-01-3.43052E-03-2.02461E+00-1.15458E-13-2.18980E-13
 -1      4008 1.77510E+01-3.73683E-01-3.55789E-02-2.27318E+00-5.93902E-14-4.01869E-13
 -1      4009 2.03929E+01 7.95983E-01-1.58714E-03-2.13906E-02-7.88626E-14-3.07654E-13
 -1      4010 2.02596E+01-4.46659E-02-3.47766E-05-1.02463E-01-4.54119E-15-1.42074E-13
 -1      4011 2.02807E+01-1.75310E-02 6.11004E-04-9.84695E-02-3.32889E-15-1.24516E-13
 -1      4012 2.01462E+01-9.04836E-02 3.41477E-04-8.49491E-02 9.78260E-15-6.13061E-14
 -1      4013 2.01611E+01-9.23852E-02 2.32161E-04-8.97662E-02 5.75455E-15-5.44256E-14
 -1      4014 2.03844E+01 7.25272E-01-2.83609E-03 8.10140E-02 7.18306E-15-2.66593E-13
 -1      4015 2.03888E+01 7.87462E-01-3.17822E-04 6.25800E-02-1.41796E-14-2.60584E-13
 -1      4016 1.48154E+01 7.77018E-01-6.19271E-03-8.20920E-01 1.27868E-13-1.02664E-13
 -1      4017 1.53910E+01 1.13608E+00 4.64005E-02 1.15519E-01 8.74717E-14-2.27767E-13
 -1      4018 2.01163E+01-7.99097E-02 3.66692E-04-7.53796E-02 8.62403E-15-8.06004E-15
 -1      4019 2.01288E+01-8.62841E-02 9.93798E-05-8.02261E-02 1.45440E-15-4.26908E-14
 -1      4020 2.01537E+01-9.29533E-02-4.82650E-04-6.91302E-02 1.11316E-14-6.64762E-14
 -1      4021 2.03440E+01 3.08097E-01 2.98183E-05-1.51867E-02 6.09230E-14-1.77947E-13
 -1      4022 2.00680E+01-3.46204E-02-1.94780E-04-5.12892E-02 2.23682E-14-1.38307E-15
 -1      4023 1.99941E+01 7.20857E-02 2.10693E-04-6.06719E-02 5.97480E-14-9.43264E-14
 -1      4024 1.86636E+01-3.70400E-01 2.11299E-04-2.02180E+00-6.53016E-14-2.71067E-13
 -1      4025 2.03707E+01 6.03518E-01-1.49858E-03 8.82663E-02 6.18216E-14-2.27171E-13
 -1      4026 2.03811E+01 6.80730E-01 6.04199E-04 8.34484E-02 1.76105E-14-2.44338E-13
 -1      4027 2.04000E+01 5.69275E-01 1.07975E-03 3.97639E-02-2.92729E-15-2.30008E-13
 -1      4028 2.03717E+01 4.65018E-01-8.99186E-05 3.17005E-02 4.85970E-14-2.08092E-13
 -1      4029 2.03011E+01 1.78094E-02-2.95845E-04-9.44443E-02-2.24916E-14-1.20036E-13
 -1      4030 2.03220E+01 6.35334E-02 5.61743E-04-8.27596E-02-1.12926E-14-1.30487E-13
 -1      4031 2.03179E+01 6.35377E-03-3.72919E-04-7.81621E-02 4.64391E-16-1.21966E-13
 -1      4032 2.00903E+01-6.23845E-02 3.65059E-04-6.71363E-02 2.20624E-14-1.76983E-14
 -1      4033 2.01009E+01-7.19937E-02 7.77298E-06-7.11678E-02 1.67362E-14 6.42853E-15
 -1      4034 2.01217E+01-8.01016E-02-4.00681E-04-6.15650E-02-1.51270E-14-1.43623E-13
 -1      4035 2.00934E+01-6.01415E-02-3.03903E-04-5.52996E-02 3.34642E-14-7.96726E-14
 -1      4036 1.98810E+01 2.33963E-01 7.90221E-04-1.20682E-01 6.29160E-14-4.86866E-14
 -1      4037 2.03902E+01 8.01944E-01-2.79847E-03 4.11140E-02-2.62131E-14-2.65321E-13
 -1      4038 2.03934E+01 8.17004E-01-1.70140E-03 8.11941E-03-4.84536E-14-2.69675E-13
 -1      4039 2.04184E+01 6.40994E-01 3.24957E-03 2.76250E-02-4.08080E-14-2.49720E-13
 -1      4040 2.02378E+01-6.43235E-02 4.14454E-04-1.02215E-01-6.01160E-15-1.41854E-13
 -1      4041 2.02735E+01-5.32813E-02-5.37788E-04-8.38938E-02 2.79135E-15-1.17374E-13
 -1      4042 2.02186E+01-7.84000E-02 1.12590E-04-1.01390E-01-1.37474E-14-1.05991E-13
 -1      4043 2.01895E+01-9.59585E-02-7.15988E-04-7.68723E-02-1.45982E-14-5.22012E-14
 -1      4044 2.01802E+01-9.12241E-02 2.73304E-04-9.41188E-02-3.31880E-14-3.94344E-14
 -1      4045 2.01980E+01-8.66378E-02 5.07735E-04-9.74742E-02-2.59650E-14-7.58375E-14
 -1      4046 1.72671E+01 1.57564E-01 2.31674E-02-1.99858E+00-8.61850E-14-3.55593E-13
 -1      4047 1.80373E+01-1.26444E-01 9.89489E-03-2.01997E+00-9.32363E-14-4.16892E-13
 -1      4048 1.80640E+01 2.43530E-02-1.58448E-02-1.81593E+00-3.40717E-14-4.11341E-13
 -1      4049 1.56857E+01 9.12364E-01-4.46994E-03-6.58734E-01 7.22001E-14-7.21836E-14
 -1      4050 2.03098E+01-5.18500E-02 3.69184E-04 4.52970E-02-6.21927E-14-1.63381E-13
 -1      4051 2.02865E+01-7.28632E-02 9.90556E-05 4.64637E-02-6.60185E-14-1.90443E-13
 -1      4052 2.02628E+01-8.68130E-02 2.95784E-04 4.52728E-02-6.70700E-14-1.52079E-13
 -1      4053 2.02413E+01-9.57181E-02 4.10902E-04 4.48240E-02-1.71746E-14-2.05335E-13
 -1      4054 2.02827E+01-7.97874E-02-6.03243E-04 2.53358E-02-5.90858E-14-1.68791E-13
 -1      4055 2.02184E+01-1.00218E-01 2.51517E-04 4.22554E-02 3.36161E-14-2.23874E-13
 -1      4056 2.01984E+01-1.00535E-01 3.90991E-04 4.07732E-02 2.22495E-14-2.16579E-13
 -1      4057 2.02373E+01-1.00557E-01-9.51473E-04 2.36677E-02-2.43185E-14-1.56811E-13
 -1      4058 2.01777E+01-9.79049E-02 2.44574E-04 3.84895E-02-2.02795E-14-2.17226E-13
 -1      4059 2.01598E+01-9.24498E-02 3.80860E-04 3.66404E-02-6.91455E-14-2.15014E-13
 -1      4060 2.01938E+01-1.02177E-01-1.02523E-03 2.19257E-02 7.60484E-15-2.97258E-13
 -1      4061 2.01412E+01-8.50002E-02 1.68341E-04 3.45645E-02-8.61271E-14-1.74479E-13
 -1      4062 2.01254E+01-7.53802E-02 3.41436E-04 3.28549E-02-2.48869E-14-2.08698E-13
 -1      4063 2.01552E+01-9.15782E-02-8.79480E-04 1.99105E-02-4.05851E-14-2.45311E-13
 -1      4064 2.01086E+01-6.43279E-02 8.69371E-05 3.12113E-02 2.63016E-15-2.53421E-13
 -1      4065 2.00945E+01-5.15117E-02 2.89608E-04 3.00467E-02-5.51904E-14-2.34245E-13
 -1      4066 2.01206E+01-7.20919E-02-6.77675E-04 1.80691E-02-3.27278E-14-2.11918E-13
 -1      4067 2.00789E+01-3.75511E-02-4.67647E-06 2.89833E-02-8.57907E-14-1.93952E-13
 -1      4068 2.00658E+01-2.19697E-02 2.28605E-04 2.86813E-02-5.99582E-14-1.83465E-13
 -1      4069 2.00893E+01-4.58112E-02-4.43913E-04 1.67945E-02-3.84244E-14-3.02053E-13
 -1      4070 2.00507E+01-5.32764E-03-1.08525E-04 2.83058E-02-2.41542E-14-1.60593E-13
 -1      4071 2.00377E+01 1.29990E-02 1.58690E-04 2.91205E-02 3.41798E-14-1.40751E-13
 -1      4072 2.00599E+01-1.36973E-02-1.80200E-04 1.63377E-02-2.90651E-14-1.65807E-13
 -1      4073 2.00220E+01 3.24530E-02-2.27168E-04 2.95176E-02 4.74995E-14-1.55920E-13
 -1      4074 2.00082E+01 5.38115E-02 7.69892E-05 3.16586E-02 6.94679E-14-1.51019E-13
 -1      4075 2.00306E+01 2.41487E-02 1.19818E-04 1.68733E-02 1.98179E-14-2.56734E-13
 -1      4076 1.99906E+01 7.64689E-02-3.63520E-04 3.28930E-02 4.30922E-14-1.11979E-13
 -1      4077 1.99746E+01 1.01359E-01-2.25366E-05 3.65299E-02 3.36163E-14-1.28564E-13
 -1      4078 1.99990E+01 6.82594E-02 4.68044E-04 1.85108E-02 8.81088E-14-2.38466E-13
 -1      4079 1.99538E+01 1.27783E-01-5.20331E-04 3.86363E-02 7.88130E-14-1.25244E-13
 -1      4080 1.99340E+01 1.56824E-01-1.49417E-04 4.38869E-02 9.55372E-14-1.53288E-13
 -1      4081 1.99627E+01 1.19600E-01 8.81038E-04 2.12789E-02 6.18816E-14-1.85870E-13
 -1      4082 1.99082E+01 1.87659E-01-6.99603E-04 4.68469E-02 8.30410E-14-1.76617E-13
 -1      4083 1.98829E+01 2.21495E-01-3.17335E-04 5.37459E-02 4.80115E-14-1.79918E-13
 -1      4084 1.99183E+01 1.79371E-01 1.37969E-03 2.50835E-02 6.00527E-14-1.62582E-13
 -1      4085 1.98501E+01 2.57363E-01-9.02009E-04 5.74462E-02 2.32806E-14-1.97998E-13
 -1      4086 1.98170E+01 2.96540E-01-5.45124E-04 6.58912E-02-4.62114E-14-2.51905E-13
 -1      4087 1.98624E+01 2.48796E-01 1.98932E-03 2.96333E-02 4.04265E-15-3.12955E-13
 -1      4088 1.97749E+01 3.37920E-01-1.12653E-03 7.00611E-02-4.65865E-14-1.98153E-13
 -1      4089 1.97314E+01 3.82742E-01-8.58143E-04 7.97327E-02-3.50227E-15-1.98239E-13
 -1      4090 1.97905E+01 3.28867E-01 2.74033E-03 3.43240E-02-7.78530E-15-3.99792E-13
 -1      4091 1.96775E+01 4.29810E-01-1.37064E-03 8.38557E-02-1.55353E-14-1.92520E-13
 -1      4092 1.96202E+01 4.80161E-01-1.29015E-03 9.41128E-02-4.63786E-14-1.65153E-13
 -1      4093 1.96978E+01 4.20046E-01 3.66991E-03 3.80720E-02-3.48933E-14-2.71536E-13
 -1      4094 1.95514E+01 5.32598E-01-1.63175E-03 9.73111E-02-5.26883E-14-1.12358E-13
 -1      4095 1.94765E+01 5.87715E-01-1.88606E-03 1.07065E-01-8.72719E-14-8.42655E-14
 -1      4096 1.95784E+01 5.21888E-01 4.82561E-03 3.90894E-02-2.11715E-14-2.28387E-13
 -1      4097 1.93893E+01 6.44476E-01-1.91113E-03 1.07957E-01-1.15036E-13-1.00234E-13
 -1      4098 1.92918E+01 7.02686E-01-2.70666E-03 1.15543E-01-9.65702E-14-1.24031E-13
 -1      4099 1.94256E+01 6.32605E-01 6.27250E-03 3.45941E-02-9.97475E-14-1.36491E-13
 -1      4100 1.91821E+01 7.61730E-01-2.22206E-03 1.12082E-01-1.16965E-13-1.24145E-13
 -1      4101 1.90557E+01 8.20170E-01-3.83776E-03 1.15153E-01-7.06422E-14-2.29728E-13
 -1      4102 1.92316E+01 7.48576E-01 8.10686E-03 2.04529E-02-1.04676E-13-1.49813E-13
 -1      4103 1.89184E+01 8.78187E-01-2.60468E-03 1.04453E-01-8.49920E-14-2.02482E-13
 -1      4104 1.87553E+01 9.32532E-01-5.40863E-03 9.99663E-02-2.37081E-14-2.50648E-13
 -1      4105 1.89869E+01 8.63858E-01 1.04807E-02-9.24839E-03-1.06195E-13-2.95826E-13
 -1      4106 1.85836E+01 9.84728E-01-3.14743E-03 7.81401E-02 4.90101E-14-2.51296E-13
 -1      4107 1.83726E+01 1.02897E+00-7.61314E-03 6.24981E-02 2.79269E-15-2.93503E-13
 -1      4108 1.86795E+01 9.69796E-01 1.36394E-02-6.27405E-02-3.31084E-14-2.09936E-13
 -1      4109 1.81567E+01 1.06896E+00-4.00468E-03 2.46042E-02 1.89849E-15-2.48179E-13
 -1      4110 1.78817E+01 1.09501E+00-1.08638E-02-5.88227E-03 2.14998E-14-1.90926E-13
 -1      4111 1.82928E+01 1.05477E+00 1.79062E-02-1.51328E-01 2.59927E-14-2.38386E-13
 -1      4112 1.76069E+01 1.11698E+00-4.79762E-03-6.64421E-02-3.11064E-14-1.94467E-13
 -1      4113 1.72457E+01 1.11525E+00-1.40057E-02-1.12398E-01-3.40693E-14-2.50214E-13
 -1      4114 1.78007E+01 1.10222E+00 2.27897E-02-2.91497E-01 8.31431E-15-2.45100E-13
 -1      4115 1.68790E+01 1.10184E+00-8.77500E-03-2.06620E-01 1.47439E-14-1.55404E-13
 -1      4116 1.63592E+01 1.07047E+00-2.85314E-02-2.65314E-01 1.33699E-14-1.66605E-13
 -1      4117 1.71661E+01 1.09328E+00 2.90509E-02-5.04991E-01-5.95010E-15-1.18940E-13
 -1      4118 2.00952E+01-5.55962E-02 3.32295E-04-4.16552E-02 1.35667E-14-8.38486E-14
 -1      4119 2.01085E+01-6.74924E-02 8.02414E-05-4.35941E-02-1.36712E-14-1.55710E-13
 -1      4120 1.99060E+01 1.94736E-01-1.16944E-05-7.85427E-02 8.27023E-15-9.76104E-14
 -1      4121 1.99261E+01 1.64520E-01-7.20199E-04-6.78366E-02-1.21096E-14-1.02071E-13
 -1      4122 1.96960E+01 4.14025E-01-2.61390E-05-1.78799E-01-4.60622E-14-4.90456E-14
 -1      4123 1.97357E+01 3.72719E-01-1.65949E-03-1.53723E-01-8.41853E-15-3.42515E-14
 -1      4124 1.97826E+01 3.34141E-01-6.16812E-05-1.35413E-01 1.60017E-14-2.77446E-14
 -1      4125 1.98145E+01 2.95948E-01-1.27450E-03-1.16101E-01 3.62168E-14-3.72825E-14
 -1      4126 1.97404E+01 3.77008E-01 2.88887E-03-1.08407E-01 4.21100E-15-3.19615E-14
 -1      4127 1.94578E+01 5.78098E-01 3.32624E-04-3.10136E-01-5.31638E-14-6.73865E-14
 -1      4128 1.95152E+01 5.36908E-01-2.75054E-03-2.69004E-01-4.01947E-14-1.42817E-14
 -1      4129 1.93019E+01 6.48081E-01 7.80112E-04-4.07291E-01-1.69135E-13 7.14118E-14
 -1      4130 1.93677E+01 6.13051E-01-3.52420E-03-3.54769E-01-9.37730E-14 5.63015E-14
 -1      4131 1.93598E+01 6.46848E-01 6.15865E-03-2.66058E-01-1.13874E-13-2.64366E-14
 -1      4132 1.91213E+01 6.94203E-01 1.54113E-03-5.34609E-01-1.84287E-13 3.62104E-14
 -1      4133 1.91933E+01 6.72092E-01-4.52190E-03-4.67291E-01-1.18019E-13 1.58005E-13
 -1      4134 1.91733E+01 7.26287E-01 7.77115E-03-3.59673E-01-1.45299E-13 3.22039E-14
 -1      4135 1.89191E+01 6.98284E-01 2.76775E-03-7.02471E-01-9.44479E-14 9.10047E-15
 -1      4136 1.89925E+01 6.98488E-01-5.83402E-03-6.15584E-01-1.84111E-13-1.15258E-14
 -1      4137 1.89523E+01 7.82289E-01 9.79163E-03-4.87254E-01-1.29501E-13-1.16836E-13
 -1      4138 1.87029E+01 6.35556E-01 4.58077E-03-9.25559E-01 1.13276E-14-7.69794E-14
 -1      4139 1.87691E+01 6.70768E-01-7.60731E-03-8.12281E-01 9.10182E-15-9.38765E-15
 -1      4140 1.86958E+01 7.97018E-01 1.23688E-02-6.62130E-01-5.66179E-14-2.20081E-13
 -1      4141 1.84836E+01 4.70217E-01 5.72138E-03-1.22704E+00-6.17673E-14-1.56129E-13
 -1      4142 1.85308E+01 5.61485E-01-9.87274E-03-1.07530E+00-2.15004E-14-1.13271E-13
 -1      4143 1.84054E+01 7.46704E-01 1.58075E-02-9.03002E-01 8.57502E-14-1.79756E-13
 -1      4144 1.82766E+01 1.84613E-01 2.91864E-03-1.59988E+00 6.84842E-14-3.55194E-13
 -1      4145 1.82898E+01 3.52455E-01-1.49678E-02-1.39767E+00-2.55294E-15-1.97593E-13
 -1      4146 1.80851E+01 6.26188E-01 2.06457E-02-1.20410E+00 7.65555E-14-3.33043E-13
 -1      4147 1.77358E+01 4.03303E-01 2.10799E-02-1.56449E+00 6.21955E-14-4.11741E-13
 -1      4148 2.03597E+01 2.44038E-01-1.94949E-04-3.97013E-02 1.33595E-14-1.42497E-13
 -1      4149 2.03701E+01 3.42591E-01-4.23248E-04-1.81728E-03 4.43938E-14-1.53809E-13
 -1      4150 2.03888E+01 3.94505E-01 3.47668E-04 6.69516E-03 1.82355E-14-1.73767E-13
 -1      4151 2.04235E+01 6.39557E-01 3.29708E-03-8.68104E-03-5.75719E-14-2.59314E-13
 -1      4152 1.98515E+01 2.60591E-01-5.00687E-05-1.02714E-01 5.28950E-14-6.24005E-14
 -1      4153 1.98768E+01 2.26298E-01-9.66705E-04-8.81175E-02 5.49257E-14-4.99870E-14
 -1      4154 1.98830E+01 2.23623E-01 1.54701E-03-6.07490E-02-1.37195E-14-1.30060E-13
 -1      4155 2.03558E+01 1.39389E-02 1.57922E-04 4.09289E-02-8.73921E-15-1.97283E-13
 -1      4156 2.03326E+01-2.35199E-02-7.47356E-05 4.52980E-02-1.39871E-14-1.72998E-13
 -1      4157 2.03306E+01-3.52075E-02-1.78873E-04 2.52765E-02-3.42497E-14-2.08846E-13
 -1      4158 2.04274E+01 4.86584E-01-1.38469E-03-9.76001E-03-8.14305E-14-2.39218E-13
 -1      4159 2.04326E+01 3.63862E-01 1.52698E-03 5.61919E-03-6.62497E-14-2.37489E-13
 -1      4160 2.04259E+01 5.05565E-01-1.45146E-03 4.55205E-03-3.71517E-14-2.04390E-13
 -1      4161 1.95886E+01 4.97172E-01 8.87754E-05-2.35747E-01-6.03724E-14-4.25077E-14
 -1      4162 1.96370E+01 4.54446E-01-2.14220E-03-2.03546E-01-1.02576E-13-6.59508E-14
 -1      4163 1.95141E+01 5.56812E-01 4.84998E-03-1.97049E-01-5.38180E-14-9.55718E-14
 -1      4164 1.61577E+01 8.93632E-01 4.31152E-02-1.05540E+00 1.03432E-13 1.20253E-14
 -1      4165 1.99846E+01 8.63267E-02 1.00503E-04-4.95707E-02 4.76417E-14-3.63618E-14
 -1      4166 1.99983E+01 6.34694E-02-3.61496E-04-4.47903E-02 8.55320E-14-4.26932E-15
 -1      4167 2.00145E+01 4.25383E-02 1.62512E-04-4.25075E-02 5.57967E-14-4.22850E-16
 -1      4168 2.00267E+01 2.27327E-02-2.28984E-04-3.99747E-02 6.24738E-15 5.83626E-14
 -1      4169 2.00060E+01 5.64298E-02 2.54358E-04-3.11892E-02 7.83885E-14 9.32206E-15
 -1      4170 2.03340E+01 1.09008E-01-3.19294E-04-7.59157E-02 1.74846E-14-1.57066E-13
 -1      4171 2.03521E+01 1.76791E-01 1.41211E-04-5.37260E-02 1.20547E-14-1.37365E-13
 -1      4172 2.03756E+01 2.10309E-01 1.51472E-04-4.06444E-02 1.03233E-14-1.21191E-13
 -1      4173 2.03528E+01 9.44855E-02-1.48034E-04-6.44376E-02-1.52764E-15-8.68746E-14
 -1      4174 2.00416E+01 4.62336E-03 2.23949E-04-3.92671E-02 4.43479E-15 1.01315E-13
 -1      4175 2.00532E+01-1.24823E-02-1.16171E-04-3.85930E-02 3.75440E-14 5.11668E-14
 -1      4176 2.00355E+01 1.48931E-02-6.02629E-05-2.82660E-02 1.32306E-14-6.62065E-14
 -1      4177 2.00679E+01-2.80256E-02 2.81861E-04-3.91842E-02 1.67238E-14 2.49547E-14
 -1      4178 2.00800E+01-4.25934E-02-1.54553E-05-4.00049E-02 4.62956E-14-4.11985E-15
 -1      4179 2.00922E+01-5.11961E-02-5.92881E-04-2.91030E-02-3.82500E-14-1.04412E-13
 -1      4180 2.00636E+01-2.08739E-02-3.39977E-04-2.77313E-02 1.68913E-14-5.12990E-14
 -1      4181 1.67289E+01 5.76312E-01-1.78408E-03-1.41033E+00-5.13097E-14-1.43874E-13
 -1      4182 1.99493E+01 1.36800E-01 4.09621E-05-6.12515E-02-7.44781E-15-5.78095E-14
 -1      4183 1.99656E+01 1.10459E-01-5.22087E-04-5.37764E-02 1.54057E-14-5.75115E-14
 -1      4184 1.99726E+01 1.04467E-01 6.16229E-04-3.70642E-02 8.98966E-14-1.71222E-14
 -1      4185 2.01968E+01-9.89583E-02 3.59537E-04-5.77198E-02-2.08697E-15-1.27687E-13
 -1      4186 2.02176E+01-9.74974E-02 5.96114E-04-6.03594E-02-3.64251E-14-1.28129E-13
 -1      4187 2.02836E+01-6.45048E-02 1.89066E-04-6.42807E-02-2.61685E-14-1.28957E-13
 -1      4188 2.03055E+01-4.22487E-02 3.66875E-04-6.29165E-02 2.35543E-14-1.60762E-13
 -1      4189 2.04262E+01 2.71851E-01-8.96062E-04-3.39626E-03-5.49737E-14-2.16831E-13
 -1      4190 2.04241E+01 2.57227E-01-8.29760E-04 4.40708E-03-5.31306E-14-2.55026E-13
 -1      4191 2.04115E+01 1.71403E-01 9.39315E-04 1.74819E-02-5.23393E-14-2.44431E-13
 -1      4192 2.01231E+01-7.57722E-02-8.20751E-04-3.19124E-02-1.52457E-14-1.98107E-13
 -1      4193 2.01252E+01-7.76437E-02 3.69232E-04-4.60647E-02 1.30137E-14-1.73084E-13
 -1      4194 2.01403E+01-8.63229E-02 1.76927E-04-4.86907E-02 3.24531E-14-1.22917E-13
 -1      4195 1.99326E+01 1.59916E-01 1.04099E-03-4.66038E-02 1.26653E-14-1.23216E-13
 -1      4196 2.01588E+01-9.28618E-02 3.83422E-04-5.17117E-02 3.32472E-14-1.01408E-13
 -1      4197 2.01761E+01-9.71938E-02 2.90435E-04-5.45229E-02 4.12811E-14-9.13720E-14
 -1      4198 2.01574E+01-9.34318E-02-1.00919E-03-3.56261E-02 6.83729E-14-1.48547E-13
 -1      4199 1.98201E+01 2.96071E-01 2.15512E-03-8.07708E-02 1.56645E-14-6.47542E-14
 -1      4200 2.03277E+01-1.11915E-02-7.09312E-05-6.23277E-02 1.60147E-14-1.50853E-13
 -1      4201 2.03499E+01 2.91697E-02 3.53215E-04-5.61248E-02 1.29858E-15-1.50820E-13
 -1      4202 2.03317E+01-2.33432E-02-2.13866E-04-4.32485E-02 8.63524E-15-2.01627E-13
 -1      4203 1.96397E+01 4.64989E-01 3.77573E-03-1.46055E-01-8.35537E-14-1.69170E-13
 -1      4204 2.03977E+01 1.12253E-01-6.80593E-05 2.23622E-02-2.66438E-14-2.67019E-13
 -1      4205 2.03748E+01 5.32596E-02 3.11247E-04 3.42717E-02-1.35522E-14-2.25175E-13
 -1      4206 2.03730E+01 3.12898E-02-5.77530E-04 1.57113E-02 1.81781E-14-2.33777E-13
 -1      4207 2.04052E+01 1.24347E-01-7.22051E-04 1.23051E-03-4.07212E-14-2.25040E-13
 -1      4208 2.04050E+01 4.25646E-01-5.99837E-04 1.47321E-02-1.15477E-14-2.26380E-13
 -1      4209 2.04126E+01 4.72160E-01-9.44637E-04 1.56725E-02-2.43836E-14-2.49620E-13
 -1      4210 2.04013E+01 3.11745E-01 4.58105E-04-1.75550E-02-1.36352E-14-2.00951E-13
 -1      4211 2.04206E+01 4.88354E-01-1.13110E-03 7.14694E-03-4.27416E-14-2.55720E-13
 -1      4212 2.01963E+01-1.01785E-01-1.05151E-03-3.94595E-02 3.27841E-15-1.50462E-13
 -1      4213 1.95913E+01 4.83987E-01-2.87955E-03-6.34571E-02-5.04753E-14-1.56542E-13
 -1      4214 1.96502E+01 4.38591E-01-2.64252E-03-4.50085E-02-6.26855E-14-1.60361E-13
 -1      4215 2.02992E+01-7.29031E-02 3.14521E-04 4.54300E-03-4.89570E-14-1.90475E-13
 -1      4216 2.02775E+01-8.84079E-02 6.42785E-04 5.06542E-03-1.03474E-14-1.56823E-13
 -1      4217 2.02016E+01-1.00898E-01 6.52589E-04-7.47901E-03 4.27068E-15-1.89856E-13
 -1      4218 2.02222E+01-1.01444E-01 7.20429E-04-8.16931E-03-2.94517E-14-1.80943E-13
 -1      4219 2.02313E+01-8.55974E-02-7.57087E-04-8.29502E-02-5.02198E-14-8.15966E-14
 -1      4220 2.02436E+01-9.83720E-02 2.71329E-04-8.84670E-03-4.71551E-14-1.87684E-13
 -1      4221 2.01809E+01-9.78139E-02 6.59005E-04-7.53384E-03 4.23698E-14-2.08458E-13
 -1      4222 2.01622E+01-9.14125E-02 6.48970E-04-6.52939E-03 4.06662E-14-2.05611E-13
 -1      4223 2.01434E+01-8.35125E-02 5.44007E-04-6.77531E-03 9.08406E-15-1.49008E-13
 -1      4224 2.01266E+01-7.30929E-02 5.26740E-04-5.85462E-03-5.71989E-14-1.54492E-13
 -1      4225 2.01096E+01-6.15302E-02 4.01434E-04-6.05211E-03-6.49520E-14-1.75162E-13
 -1      4226 2.00942E+01-4.80171E-02 3.66136E-04-5.49715E-03-4.21389E-14-1.60273E-13
 -1      4227 2.00785E+01-3.34313E-02 2.46974E-04-5.54377E-03-2.57964E-14-1.84006E-13
 -1      4228 2.00638E+01-1.72349E-02 1.79044E-04-5.56853E-03-7.91345E-15-1.85599E-13
 -1      4229 2.00486E+01 1.89002E-04 7.86618E-05-5.40312E-03-1.55981E-14-1.52918E-13
 -1      4230 2.00337E+01 1.90479E-02-3.40817E-05-6.20933E-03-2.56225E-14-1.11482E-13
 -1      4231 2.00179E+01 3.94667E-02-1.11112E-04-5.80487E-03 5.07835E-14-1.65440E-13
 -1      4232 2.00016E+01 6.12434E-02-2.77599E-04-7.61412E-03 1.14571E-13-1.72172E-13
 -1      4233 1.99839E+01 8.50525E-02-3.33769E-04-6.98464E-03 1.32179E-13-1.44502E-13
 -1      4234 1.99649E+01 1.10172E-01-5.58754E-04-1.00687E-02 1.12021E-13-1.73858E-13
 -1      4235 1.99439E+01 1.37904E-01-6.04423E-04-9.28732E-03 6.55658E-14-1.22522E-13
 -1      4236 1.99207E+01 1.66852E-01-8.86644E-04-1.40031E-02-6.05961E-15-1.38382E-13
 -1      4237 1.98946E+01 1.99070E-01-9.42387E-04-1.32335E-02 1.50197E-15-1.64679E-13
 -1      4238 1.98654E+01 2.32269E-01-1.27147E-03-2.00670E-02-3.09853E-14-1.43076E-13
 -1      4239 1.98321E+01 2.69434E-01-1.37218E-03-1.96124E-02-4.47927E-14-2.01074E-13
 -1      4240 1.97952E+01 3.07095E-01-1.72403E-03-2.92392E-02-4.68161E-15-1.41313E-13
 -1      4241 1.97523E+01 3.49417E-01-1.92522E-03-2.96136E-02-1.86835E-14-1.67429E-13
 -1      4242 1.97054E+01 3.91352E-01-2.25574E-03-4.29818E-02-5.04886E-14-1.39721E-13
 -1      4243 1.95205E+01 5.35213E-01-3.57932E-03-6.84003E-02-4.09287E-14-7.25520E-14
 -1      4244 1.94474E+01 5.82350E-01-3.61279E-03-9.38273E-02-7.23702E-14-9.99627E-14
 -1      4245 1.93572E+01 6.35668E-01-4.81278E-03-1.03561E-01-6.73065E-14-1.17212E-13
 -1      4246 1.92678E+01 6.81600E-01-4.48297E-03-1.38664E-01-1.11667E-13-8.87488E-14
 -1      4247 1.91535E+01 7.33829E-01-6.45533E-03-1.55887E-01-1.09221E-13-1.14274E-13
 -1      4248 1.90459E+01 7.74024E-01-5.53769E-03-2.04505E-01-1.27702E-13-1.48778E-13
 -1      4249 1.89020E+01 8.20380E-01-8.67627E-03-2.33018E-01-9.68463E-14-1.66360E-13
 -1      4250 1.87746E+01 8.48349E-01-6.85406E-03-3.00636E-01-5.70662E-14-2.63952E-13
 -1      4251 1.85936E+01 8.82129E-01-1.17281E-02-3.45748E-01-5.15973E-14-3.26424E-13
 -1      4252 1.84455E+01 8.89056E-01-8.50196E-03-4.40179E-01-1.99063E-14-2.68912E-13
 -1      4253 1.82170E+01 9.01354E-01-1.59174E-02-5.09500E-01 5.43797E-14-2.71889E-13
 -1      4254 1.80491E+01 8.76999E-01-9.82436E-03-6.40970E-01 8.82608E-14-2.84233E-13
 -1      4255 1.77608E+01 8.54227E-01-2.08476E-02-7.46320E-01 3.96434E-14-2.29594E-13
 -1      4256 1.75819E+01 8.07218E-01-1.11542E-02-8.92723E-01 6.10394E-14-2.24913E-13
 -1      4257 1.72124E+01 7.53679E-01-2.13837E-02-1.05802E+00 7.57137E-14-1.66598E-13
 -1      4258 2.02747E+01-7.65300E-02 4.96480E-04-4.96394E-02-5.84726E-14-1.34428E-13
 -1      4259 2.02997E+01-6.96146E-02-2.15322E-04-3.03969E-02-3.40543E-14-1.70083E-13
 -1      4260 2.03955E+01 2.31645E-01-1.08610E-04-2.77650E-02-2.09820E-15-1.74695E-13
 -1      4261 2.04081E+01 2.61165E-01-1.19315E-03-1.97300E-02-3.66391E-14-2.15300E-13
 -1      4262 2.03855E+01 1.66096E-01 1.35488E-04-4.35316E-02-4.53775E-15-1.63253E-13
 -1      4263 2.04307E+01 3.63648E-01 3.05593E-03-7.74510E-04-5.53842E-14-2.30113E-13
 -1      4264 2.04208E+01 2.75358E-01-4.66141E-04-1.26613E-02-4.46839E-14-2.14927E-13
 -1      4265 2.03494E+01-1.59481E-02 5.65518E-04 1.05033E-02-2.19800E-14-2.13904E-13
 -1      4266 2.03260E+01-4.83425E-02-2.66450E-04 1.17771E-02-6.93460E-14-2.18660E-13
 -1      4267 2.03143E+01-5.77671E-02-2.78322E-04-8.67714E-03-3.75621E-14-2.04185E-13
 -1      4268 2.03671E+01 1.83803E-02-2.10275E-04 3.53914E-03 3.70455E-15-2.28531E-13
 -1      4269 2.02513E+01-9.42936E-02-8.59502E-04-2.85858E-02-6.97306E-14-1.80836E-13
 -1      4270 2.02523E+01-8.92493E-02-4.07521E-05-4.91913E-02-6.97622E-14-1.33658E-13
 -1      4271 1.69765E+01 6.43716E-01-2.09655E-02-1.23291E+00-3.20141E-14-8.96872E-14
 -1      4272 2.04153E+01 1.87226E-01 1.61969E-03-1.47468E-02-3.38663E-14-2.12059E-13
 -1      4273 2.03275E+01-4.21479E-02 1.23510E-04-2.43742E-02-2.39935E-15-2.11003E-13
 -1      4274 2.03514E+01-1.04861E-02 4.68256E-06-2.14803E-02 4.50977E-15-2.28141E-13
 -1      4275 2.03624E+01 6.59640E-02 2.72587E-05-5.62437E-02-1.17533E-14-1.54092E-13
 -1      4276 2.03762E+01 1.14362E-01 1.33547E-04-4.75122E-02-1.31005E-14-1.54074E-13
 -1      4277 2.03914E+01 1.35345E-01-5.71725E-04-3.52450E-02-2.10654E-14-1.88132E-13
 -1      4278 2.03682E+01 4.74728E-02-4.36621E-04-4.07659E-02-4.07777E-15-1.96034E-13
 -1      4279 2.03773E+01 4.08466E-02 1.95532E-04-1.60839E-02-1.11771E-14-2.16618E-13
 -1      4280 2.04035E+01 1.31222E-01-6.68456E-05-1.96269E-02-4.44671E-14-2.10834E-13
 -1      4281 2.03912E+01 8.12192E-02 6.75129E-04-1.42720E-02-2.89984E-14-2.01232E-13
 -3
    1PSTEP                         3           1           1          
  100CL  101 1.000000000        4281                     0    1           1
 -4  TOSTRAIN    6    1
 -5  EXX         1    4    1    1
 -5  EYY         1    4    2    2
 -5  EZZ         1    4    3    3
 -5  EXY         1    4    1    2
 -5  EYZ         1    4    2    3
 -5  EZX         1    4    3    1
 -1         1 2.62705E-04-6.30298E-05-7.44039E-05 9.64992E-05-2.51569E-18-9.04377E-18
 -1         2 4.39372E-05-1.33910E-04 2.42476E-05-1.11820E-06 2.35495E-18-3.77671E-19
 -1         3 9.52790E-05-2.85138E-05-2.85168E-05 1.61332E-07-1.80982E-18-2.37856E-18
 -1         4 9.49584E-05-2.88509E-05-2.80692E-05 3.26335E-07 2.09489E-18-5.41701E-19
 -1         5 1.43349E-04-2.14784E-05-4.25291E-05 3.85312E-05-1.95135E-19 1.54527E-17
 -1         6 1.45410E-04 2.57584E-10-4.41883E-05-5.35261E-05-8.74879E-19 1.72040E-17
 -1         7 9.06116E-05-5.11341E-07-3.90691E-05-2.92506E-05-1.33514E-19 4.24430E-18
 -1         8 8.51265E-05 8.64554E-08-3.63401E-05-2.02685E-05-2.23114E-19-5.43193E-20
 -1         9 8.28143E-05 7.68651E-08-3.53514E-05-1.56390E-05-1.92687E-19-2.51637E-18
 -1        10 8.17756E-05 3.86803E-08-3.48820E-05-1.20764E-05-1.39483E-19-3.87015E-18
 -1        11 8.12522E-05 1.95001E-08-3.46524E-05-9.01103E-06-1.32739E-19-4.58767E-18
 -1        12 8.09815E-05 9.24442E-09-3.45378E-05-6.28237E-06-6.06356E-20-4.97899E-18
 -1        13 8.08394E-05 4.63513E-09-3.44797E-05-3.68435E-06-6.82598E-20-5.14735E-18
 -1        14 8.07799E-05 2.77908E-09-3.44560E-05-1.18327E-06-1.99516E-20-5.22935E-18
 -1        15 8.07820E-05 2.76683E-09-3.44568E-05 1.28844E-06 1.11595E-20-5.31778E-18
 -1        16 8.08460E-05 4.55297E-09-3.44820E-05 3.79467E-06 2.85228E-20-5.34751E-18
 -1        17 8.09935E-05 8.43092E-09-3.45416E-05 6.40492E-06 4.12465E-20-5.21811E-18
 -1        18 8.12694E-05 1.81873E-08-3.46578E-05 9.15345E-06 7.54554E-20-4.93650E-18
 -1        19 8.17974E-05 3.81938E-08-3.48901E-05 1.22553E-05 1.38000E-19-4.41450E-18
 -1        20 8.28375E-05 8.14956E-08-3.53641E-05 1.58681E-05 1.76223E-19-3.34852E-18
 -1        21 8.50927E-05 1.69382E-07-3.63783E-05 2.04803E-05 2.28117E-19-1.06782E-18
 -1        22 9.16483E-05-9.98300E-08-3.87407E-05 2.79981E-05 5.23043E-20 3.85889E-18
 -1        23 1.12982E-04-3.81291E-05-3.53992E-05-4.40225E-06-5.78656E-19 1.40443E-17
 -1        24 9.28159E-05-2.77004E-05-2.90026E-05 3.91276E-07-2.06941E-19 1.13219E-17
 -1        25 8.91339E-05-2.68565E-05-2.69336E-05 3.76107E-07-1.30630E-19 8.38522E-18
 -1        26 8.80342E-05-2.64940E-05-2.63971E-05 2.04232E-07-3.61883E-20 6.31040E-18
 -1        27 8.80638E-05-2.64732E-05-2.63903E-05 1.39987E-07-2.15067E-21 4.80215E-18
 -1        28 8.86007E-05-2.66105E-05-2.65609E-05 1.01021E-07-2.43352E-20 4.34428E-18
 -1        29 8.93587E-05-2.68242E-05-2.67944E-05 7.53648E-08 1.31214E-20 3.28852E-18
 -1        30 9.01863E-05-2.70647E-05-2.70453E-05 5.70759E-08 8.79004E-20 2.84474E-18
 -1        31 9.09984E-05-2.73039E-05-2.72903E-05 4.33214E-08-5.84334E-20 1.59482E-18
 -1        32 9.17478E-05-2.75261E-05-2.75161E-05 3.26606E-08-1.89314E-19 6.57195E-20
 -1        33 9.24108E-05-2.77234E-05-2.77159E-05 2.42821E-08 3.07612E-19-5.84258E-19
 -1        34 9.29786E-05-2.78928E-05-2.78873E-05 1.76692E-08-4.97331E-20-4.58841E-19
 -1        35 9.34521E-05-2.80345E-05-2.80303E-05 1.24541E-08 5.32009E-20-6.32615E-19
 -1        36 9.38383E-05-2.81502E-05-2.81470E-05 8.35428E-09 4.99265E-20 2.83941E-19
 -1        37 9.41476E-05-2.82431E-05-2.82407E-05 5.14423E-09-2.38236E-19-1.55152E-19
 -1        38 9.43928E-05-2.83169E-05-2.83150E-05 2.64270E-09-2.01091E-19-1.00364E-18
 -1        39 9.45879E-05-2.83758E-05-2.83743E-05 7.07510E-10-2.46633E-19-1.73376E-18
 -1        40 9.47481E-05-2.84243E-05-2.84231E-05-7.65846E-10 2.09106E-19-2.90970E-18
 -1        41 9.48898E-05-2.84675E-05-2.84664E-05-1.84312E-09 2.46392E-19-3.20649E-18
 -1        42 9.50312E-05-2.85106E-05-2.85096E-05-2.54801E-09-5.18159E-20-3.29740E-18
 -1        43 9.51929E-05-2.85599E-05-2.85591E-05-2.85611E-09-1.42346E-19-2.53612E-18
 -1        44 9.53992E-05-2.86228E-05-2.86222E-05-2.68506E-09 1.81254E-19-1.88845E-18
 -1        45 9.56794E-05-2.87080E-05-2.87078E-05-1.87896E-09-1.29796E-19-1.74547E-18
 -1        46 9.60696E-05-2.88264E-05-2.88268E-05-1.84445E-10 8.98673E-20-2.64334E-18
 -1        47 9.66147E-05-2.89915E-05-2.89929E-05 2.78523E-09 2.56577E-19-1.26711E-18
 -1        48 9.73704E-05-2.92200E-05-2.92230E-05 7.60280E-09-4.12856E-19-9.79726E-19
 -1        49 9.84057E-05-2.95324E-05-2.95381E-05 1.50998E-08 4.36091E-19-2.02394E-18
 -1        50 9.98047E-05-2.99538E-05-2.99635E-05 2.64574E-08-2.27726E-19-3.32590E-18
 -1        51 1.01667E-04-3.05137E-05-3.05294E-05 4.32927E-08 1.00218E-19-2.82245E-18
 -1        52 1.04102E-04-3.12444E-05-3.12686E-05 6.76644E-08-1.40957E-19-1.25985E-18
 -1        53 1.07221E-04-3.21778E-05-3.22127E-05 1.01794E-07 1.24107E-19-8.72014E-19
 -1        54 1.11098E-04-3.33356E-05-3.33811E-05 1.47033E-07 4.89790E-20-1.53134E-19
 -1        55 1.15716E-04-3.47109E-05-3.47602E-05 2.01151E-07-4.59701E-19-2.11611E-18
 -1        56 1.20843E-04-3.62351E-05-3.62666E-05 2.52499E-07 1.58328E-19-4.59920E-18
 -1        57 1.25862E-04-3.77266E-05-3.76944E-05 2.70013E-07 4.18810E-20-3.28894E-18
 -1        58 1.29557E-04-3.88282E-05-3.86630E-05 1.92474E-07 1.42363E-19-2.39706E-18
 -1        59 1.30021E-04-3.89781E-05-3.86207E-05-6.64751E-08 4.74815E-19-1.51470E-18
 -1        60 1.25037E-04-3.75116E-05-3.70004E-05-5.60049E-07-5.78312E-19 5.23281E-19
 -1        61 1.13365E-04-3.40309E-05-3.36139E-05-1.16919E-06 3.45090E-19 2.81591E-18
 -1        62 9.67537E-05-2.90253E-05-2.90930E-05-1.50166E-06-8.57054E-19 1.89052E-18
 -1        63 8.09093E-05-2.42125E-05-2.49419E-05-1.10835E-06 1.48155E-19-3.58348E-19
 -1        64 7.29105E-05-2.17837E-05-2.28043E-05-4.35185E-08-3.04932E-20-1.21490E-18
 -1        65 7.58259E-05-2.27011E-05-2.33574E-05 9.73280E-07 2.69704E-19 1.85963E-18
 -1        66 8.60054E-05-2.58201E-05-2.58061E-05 1.26821E-06 7.30659E-20 3.00432E-19
 -1        67 9.63810E-05-2.89592E-05-2.84975E-05 8.63437E-07 5.03677E-19-3.36431E-19
 -1        68 1.01852E-04-3.05883E-05-3.00881E-05 2.34364E-07-2.51228E-19 4.40973E-19
 -1        69 1.01606E-04-3.04938E-05-3.02246E-05-2.18123E-07 7.17232E-19 1.63908E-18
 -1        70 9.81367E-05-2.94225E-05-2.94558E-05-2.79127E-07 2.73471E-20 4.26418E-18
 -1        71 9.51651E-05-2.84376E-05-2.86419E-05-6.67739E-09-1.04080E-18 1.55351E-18
 -1        72 1.02186E-04-3.05894E-05-3.41522E-05-1.92925E-06 2.53951E-19 1.37000E-17
 -1        73 9.25727E-05-2.75166E-05-2.89110E-05-3.33292E-07 1.70809E-19 9.79085E-18
 -1        74 8.91219E-05-2.67061E-05-2.69770E-05-1.25972E-07 1.29628E-19 6.66058E-18
 -1        75 8.80642E-05-2.64448E-05-2.64413E-05-9.56495E-08-3.17637E-22 4.75753E-18
 -1        76 8.80985E-05-2.64532E-05-2.64170E-05-7.66663E-08 6.82697E-20 3.21760E-18
 -1        77 8.86347E-05-2.66050E-05-2.65780E-05-6.26219E-08-2.24778E-20 2.12978E-18
 -1        78 8.93901E-05-2.68255E-05-2.68068E-05-5.18714E-08-7.55418E-20 1.80705E-18
 -1        79 9.02143E-05-2.70693E-05-2.70548E-05-4.30194E-08 1.11189E-19 1.18411E-18
 -1        80 9.10228E-05-2.73100E-05-2.72976E-05-3.54082E-08-5.11600E-20 6.58543E-19
 -1        81 9.17686E-05-2.75326E-05-2.75218E-05-2.87760E-08 1.45330E-19 8.46206E-21
 -1        82 9.24283E-05-2.77297E-05-2.77204E-05-2.30047E-08 5.06024E-20-4.66275E-19
 -1        83 9.29932E-05-2.78988E-05-2.78907E-05-1.80170E-08 1.68331E-19-1.91869E-18
 -1        84 9.34643E-05-2.80398E-05-2.80330E-05-1.37398E-08 3.28077E-20-2.78979E-18
 -1        85 9.38487E-05-2.81550E-05-2.81493E-05-1.00924E-08-6.21031E-20-2.17920E-18
 -1        86 9.41568E-05-2.82473E-05-2.82427E-05-6.98782E-09 1.16268E-19-2.98668E-18
 -1        87 9.44015E-05-2.83208E-05-2.83171E-05-4.33668E-09-1.93911E-19-2.91789E-18
 -1        88 9.45971E-05-2.83795E-05-2.83767E-05-2.05379E-09-2.91246E-20-2.34895E-18
 -1        89 9.47587E-05-2.84282E-05-2.84261E-05-6.46968E-11 3.24312E-19-3.87373E-18
 -1        90 9.49030E-05-2.84717E-05-2.84704E-05 1.68673E-09-7.01187E-19-4.13259E-18
 -1        91 9.50479E-05-2.85154E-05-2.85149E-05 3.22961E-09 1.00810E-19-1.78408E-18
 -1        92 9.52135E-05-2.85654E-05-2.85658E-05 4.55532E-09-3.23211E-19-1.21163E-18
 -1        93 9.54227E-05-2.86285E-05-2.86300E-05 5.60385E-09 2.48989E-19-1.16181E-18
 -1        94 9.57019E-05-2.87125E-05-2.87155E-05 6.24641E-09 2.76160E-20-4.13222E-18
 -1        95 9.60812E-05-2.88265E-05-2.88313E-05 6.26363E-09-2.35132E-20-3.29598E-18
 -1        96 9.65945E-05-2.89806E-05-2.89876E-05 5.32015E-09 5.05270E-19-2.14640E-18
 -1        97 9.72787E-05-2.91857E-05-2.91954E-05 2.93890E-09-1.06494E-19-3.14851E-18
 -1        98 9.81709E-05-2.94528E-05-2.94657E-05-1.51597E-09-3.86467E-19-1.96466E-18
 -1        99 9.93035E-05-2.97914E-05-2.98077E-05-8.82695E-09-2.32150E-19-1.53857E-18
 -1       100 1.00696E-04-3.02073E-05-3.02265E-05-1.98410E-08-1.06138E-19-9.05283E-19
 -1       101 1.02341E-04-3.06979E-05-3.07184E-05-3.52428E-08 2.69928E-19-1.74778E-18
 -1       102 1.04182E-04-3.12469E-05-3.12651E-05-5.50658E-08-2.26478E-19-3.39874E-18
 -1       103 1.06092E-04-3.18160E-05-3.18248E-05-7.77920E-08 2.18051E-20-2.01750E-18
 -1       104 1.07834E-04-3.23355E-05-3.23240E-05-9.89509E-08 2.23374E-19-2.44111E-18
 -1       105 1.09038E-04-3.26969E-05-3.26503E-05-1.09452E-07 3.56293E-19-2.83731E-18
 -1       106 1.09203E-04-3.27521E-05-3.26557E-05-9.47378E-08-7.61937E-19-1.87220E-18
 -1       107 1.07755E-04-3.23303E-05-3.21790E-05-3.72888E-08 2.11008E-19-1.32611E-18
 -1       108 1.04211E-04-3.12848E-05-3.10965E-05 7.43580E-08 5.27840E-19-5.03037E-18
 -1       109 9.84494E-05-2.95720E-05-2.93987E-05 2.29770E-07-3.53214E-20-3.10661E-18
 -1       110 9.10133E-05-2.73433E-05-2.72633E-05 3.82555E-07-2.45110E-19-3.00816E-18
 -1       111 8.32330E-05-2.49903E-05-2.50713E-05 4.57657E-07-6.11557E-19-1.69269E-18
 -1       112 7.69380E-05-2.30684E-05-2.33129E-05 3.92997E-07-1.21623E-19-6.85170E-19
 -1       113 7.37248E-05-2.20760E-05-2.23993E-05 1.94276E-07 6.86709E-19-2.59763E-18
 -1       114 7.41606E-05-2.22010E-05-2.24739E-05-5.26148E-08-1.30068E-18 1.15149E-18
 -1       115 7.75095E-05-2.32233E-05-2.33541E-05-2.36878E-07 3.72151E-19-6.57761E-19
 -1       116 8.22180E-05-2.46614E-05-2.46474E-05-2.98111E-07 1.30773E-18-7.09591E-18
 -1       117 8.67911E-05-2.60494E-05-2.59584E-05-2.57748E-07-2.36354E-20-1.06841E-17
 -1       118 9.04338E-05-2.71415E-05-2.70488E-05-1.89606E-07 1.56296E-19-8.51988E-18
 -1       119 9.30712E-05-2.79219E-05-2.78469E-05-1.58617E-07-4.25460E-19-6.65311E-18
 -1       120 9.47926E-05-2.84760E-05-2.83344E-05-1.50331E-07 9.64136E-19-3.64473E-18
 -1       121 9.53661E-05-2.90892E-05-2.83486E-05-1.99484E-07-4.05786E-18-3.01667E-19
 -1       122 9.58370E-05-3.06695E-05-2.79604E-05-2.63216E-07-1.64907E-18 5.16529E-19
 -1       123 9.61129E-05-3.16197E-05-2.78126E-05-2.00589E-07 3.78384E-18 1.39529E-18
 -1       124 9.56449E-05-3.00666E-05-2.84073E-05-1.21047E-09-6.50164E-21 4.15645E-19
 -1       125 9.39628E-05-2.44009E-05-3.01850E-05 3.39069E-07-1.52021E-18-1.16293E-18
 -1       126 9.08810E-05-1.40402E-05-3.32550E-05 7.27972E-07-5.15835E-18 4.87155E-19
 -1       127 8.65617E-05 4.69779E-07-3.73892E-05 1.04794E-06-6.08773E-18 4.16027E-19
 -1       128 8.19770E-05 1.58179E-05-4.16281E-05 1.04129E-06-2.23341E-18 3.57028E-19
 -1       129 7.85967E-05 2.70993E-05-4.46777E-05 5.77818E-07 1.30734E-19-1.30694E-18
 -1       130 7.77271E-05 3.00033E-05-4.54658E-05-1.75850E-07-1.43220E-18-2.26019E-19
 -1       131 7.96811E-05 2.34835E-05-4.37355E-05-8.31591E-07-2.94021E-18 4.57749E-19
 -1       132 8.35227E-05 1.06472E-05-4.02487E-05-1.05850E-06-5.41900E-18 1.77209E-18
 -1       133 8.79318E-05-4.12736E-06-3.61177E-05-8.90914E-07-5.88926E-18-5.98932E-19
 -1       134 9.16161E-05-1.65703E-05-3.25099E-05-5.61245E-07-9.03273E-18 1.90062E-18
 -1       135 9.40224E-05-2.45807E-05-3.00548E-05-3.71526E-07-5.79054E-18-3.35124E-19
 -1       136 9.49772E-05-2.80705E-05-2.88008E-05 2.18694E-07-2.41158E-18 1.20237E-18
 -1       137 2.92825E-05-1.02357E-04 1.86268E-05-2.81486E-05 7.33975E-18 1.99185E-19
 -1       138 8.60554E-06-3.22714E-05 1.99577E-06-1.50292E-05 8.11034E-18 5.62705E-18
 -1       139 1.90259E-05 2.25726E-05-2.01603E-05 3.83392E-05 8.84726E-18 6.03723E-18
 -1       140 8.54036E-05 2.59092E-05-4.39293E-05 1.00168E-04 9.21572E-19-1.22396E-19
 -1       141 1.96774E-04-2.19612E-05-6.58180E-05 1.22474E-04-3.40719E-18-6.58653E-18
 -1       142 2.96256E-04-7.98622E-05-8.02468E-05 7.98055E-05-2.36489E-18-1.11620E-17
 -1       143 3.27268E-04-1.00799E-04-8.38339E-05-7.10858E-06 1.65674E-19-1.08691E-17
 -1       144 2.73288E-04-6.89493E-05-7.63923E-05-9.00325E-05 2.01853E-18-6.66276E-18
 -1       145 1.75223E-04-1.43223E-05-6.15959E-05-1.18650E-04 5.77084E-18-1.11614E-17
 -1       146 7.24049E-05 2.55171E-05-3.98049E-05-8.82529E-05 7.16548E-18-9.99075E-18
 -1       147 1.39003E-05 1.88598E-05-1.72282E-05-2.93147E-05 5.84664E-18-4.66461E-18
 -1       148 7.35538E-06-3.12651E-05 2.50409E-06 1.67279E-05 8.71004E-18-3.62911E-18
 -1       149 2.70228E-05-9.35296E-05 1.74609E-05 2.66075E-05 7.47634E-18-3.49147E-18
 -1       150 4.01533E-05-1.23097E-04 2.31707E-05-7.19181E-08 4.22241E-18 8.75461E-19
 -1       151 2.97104E-05-1.02307E-04 1.94558E-05-2.77819E-05 3.04890E-18-5.32519E-19
 -1       152 9.65913E-06-4.91148E-05 7.71634E-06-2.74925E-05-1.25742E-18-1.70465E-19
 -1       153 8.77586E-06 5.08003E-06-1.10473E-05 1.17506E-05-2.70542E-18-2.54957E-18
 -1       154 5.29966E-05 2.36084E-05-3.27375E-05 6.96367E-05-4.04416E-18-5.17283E-18
 -1       155 1.51057E-04-6.10866E-06-5.60663E-05 1.11608E-04-4.88060E-18-8.12432E-18
 -1       156 3.27538E-04-1.00088E-04-8.34794E-05 2.92546E-05-4.30875E-19-6.60537E-18
 -1       157 3.22458E-04-9.46341E-05-8.34457E-05-5.72636E-05 1.04214E-18-5.85384E-18
 -1       158 2.51847E-04-5.06357E-05-7.45029E-05-1.16938E-04 9.80970E-19-2.90278E-18
 -1       159 1.47845E-04 4.10255E-06-5.78899E-05-1.24534E-04-1.80693E-18 2.60378E-18
 -1       160 5.67028E-05 3.19907E-05-3.63985E-05-8.21321E-05-3.23101E-18 4.75651E-18
 -1       161 1.10200E-05 1.32522E-05-1.44588E-05-2.12534E-05-7.38909E-18 4.17968E-18
 -1       162 1.07549E-05-4.65779E-05 5.94558E-06 2.34426E-05-5.87714E-18 3.94315E-18
 -1       163 3.25672E-05-1.09363E-04 1.98458E-05 2.82610E-05-1.21337E-19-2.75021E-20
 -1       164 9.48743E-05-1.23496E-05-3.55707E-05-2.23462E-05-2.37347E-18 1.81223E-18
 -1       165 8.92468E-05-8.45208E-06-3.47888E-05-1.73831E-05-2.36770E-18-8.94189E-19
 -1       166 8.65563E-05-6.51011E-06-3.44164E-05-1.35916E-05-1.99118E-18-2.52407E-18
 -1       167 8.51903E-05-5.51392E-06-3.42301E-05-1.03652E-05-1.58406E-18-3.50127E-18
 -1       168 8.44447E-05-4.94372E-06-3.41410E-05-7.54520E-06-1.18360E-18-4.00304E-18
 -1       169 8.40166E-05-4.59836E-06-3.40981E-05-4.90221E-06-8.80778E-19-4.29994E-18
 -1       170 8.37977E-05-4.41387E-06-3.40797E-05-2.39442E-06-4.95667E-19-4.36708E-18
 -1       171 8.37332E-05-4.35808E-06-3.40750E-05 5.11725E-08-6.73920E-20-4.45631E-18
 -1       172 8.38078E-05-4.42234E-06-3.40806E-05 2.49886E-06 2.62328E-19-4.50062E-18
 -1       173 8.40387E-05-4.61763E-06-3.40996E-05 5.01321E-06 5.67612E-19-4.51234E-18
 -1       174 8.44727E-05-4.97093E-06-3.41418E-05 7.62196E-06 9.20844E-19-4.31731E-18
 -1       175 8.52502E-05-5.57374E-06-3.42320E-05 1.05107E-05 1.44743E-18-3.89555E-18
 -1       176 8.66483E-05-6.60851E-06-3.44190E-05 1.37813E-05 1.91280E-18-3.16433E-18
 -1       177 8.93954E-05-8.60084E-06-3.47932E-05 1.76209E-05 2.26779E-18-1.66770E-18
 -1       178 9.57852E-05-1.36153E-05-3.54271E-05 2.18923E-05 2.32720E-18 1.20567E-18
 -1       179 1.05612E-04-2.61043E-05-3.52649E-05 1.86619E-05 1.89162E-18 5.13800E-18
 -1       180 1.03407E-04-2.73045E-05-3.26128E-05-1.21268E-05-1.97091E-18 4.82563E-18
 -1       181 9.71166E-05-2.82917E-05-2.95315E-05-4.72927E-06-1.70405E-18 3.79298E-18
 -1       182 9.35179E-05-2.76402E-05-2.81852E-05-1.76669E-06-1.28024E-18 2.82888E-18
 -1       183 9.19840E-05-2.74093E-05-2.76394E-05-4.19229E-07-1.02420E-18 1.99685E-18
 -1       184 9.14095E-05-2.73346E-05-2.74424E-05 2.44928E-07-5.05379E-19 1.43991E-18
 -1       185 9.13691E-05-2.73740E-05-2.74179E-05 5.70646E-07-6.16547E-19 1.23389E-18
 -1       186 9.16138E-05-2.74771E-05-2.74832E-05 7.09027E-07-4.02423E-19 7.60886E-19
 -1       187 9.19981E-05-2.76096E-05-2.75933E-05 7.39178E-07-5.85254E-19 5.12774E-19
 -1       188 9.24348E-05-2.77500E-05-2.77215E-05 7.06973E-07-1.10071E-18 2.88032E-19
 -1       189 9.28721E-05-2.78856E-05-2.78515E-05 6.40886E-07-4.14353E-19 9.34036E-20
 -1       190 9.32802E-05-2.80091E-05-2.79738E-05 5.59175E-07-2.38227E-19-8.98885E-19
 -1       191 9.36441E-05-2.81173E-05-2.80836E-05 4.73645E-07-1.53814E-19-9.48926E-19
 -1       192 9.39581E-05-2.82092E-05-2.81788E-05 3.91856E-07 1.57623E-20-1.22543E-18
 -1       193 9.42230E-05-2.82856E-05-2.82595E-05 3.18582E-07-3.47161E-19-1.41694E-18
 -1       194 9.44437E-05-2.83483E-05-2.83272E-05 2.56829E-07-5.15410E-19-1.18162E-18
 -1       195 9.46280E-05-2.83997E-05-2.83840E-05 2.08591E-07-4.15499E-19-1.46288E-18
 -1       196 9.47857E-05-2.84428E-05-2.84329E-05 1.75435E-07-2.64020E-19-1.32243E-18
 -1       197 9.49281E-05-2.84810E-05-2.84773E-05 1.58958E-07-2.63304E-19-1.92755E-18
 -1       198 9.50687E-05-2.85180E-05-2.85214E-05 1.61176E-07-3.63722E-19-2.36463E-18
 -1       199 9.52226E-05-2.85582E-05-2.85699E-05 1.84846E-07 9.87910E-20-2.48602E-18
 -1       200 9.54079E-05-2.86067E-05-2.86281E-05 2.33772E-07 3.44776E-19-2.14316E-18
 -1       201 9.56459E-05-2.86695E-05-2.87028E-05 3.13084E-07-1.70594E-19-2.42737E-18
 -1       202 9.59620E-05-2.87537E-05-2.88017E-05 4.29505E-07 1.61065E-19-1.74460E-18
 -1       203 9.63873E-05-2.88680E-05-2.89343E-05 5.91594E-07 7.25602E-19-1.20696E-18
 -1       204 9.69590E-05-2.90231E-05-2.91121E-05 8.09881E-07 6.52004E-20-9.14479E-19
 -1       205 9.77216E-05-2.92317E-05-2.93488E-05 1.09678E-06-6.13180E-19-7.75687E-19
 -1       206 9.87275E-05-2.95091E-05-2.96601E-05 1.46591E-06-7.67954E-19-1.42569E-18
 -1       207 1.00036E-04-2.98735E-05-3.00639E-05 1.93030E-06 4.94246E-19-1.72106E-18
 -1       208 1.01711E-04-3.03458E-05-3.05788E-05 2.49814E-06 9.47098E-19-2.84355E-19
 -1       209 1.03813E-04-3.09492E-05-3.12214E-05 3.16408E-06-5.33540E-20-3.82569E-20
 -1       210 1.06385E-04-3.17078E-05-3.20007E-05 3.89279E-06-2.56367E-19 5.22903E-19
 -1       211 1.09429E-04-3.26435E-05-3.29082E-05 4.59021E-06-8.12792E-19-3.74153E-19
 -1       212 1.12859E-04-3.37682E-05-3.39025E-05 5.05988E-06-1.39235E-18-6.15040E-19
 -1       213 1.16436E-04-3.50659E-05-3.48883E-05 4.95082E-06 1.36928E-18-9.23944E-19
 -1       214 1.19692E-04-3.64514E-05-3.56978E-05 3.73406E-06 6.42673E-19 2.12172E-19
 -1       215 1.21849E-04-3.76874E-05-3.60950E-05 8.06589E-07 4.78402E-19 1.39915E-18
 -1       216 1.21841E-04-3.82674E-05-3.58360E-05-4.11167E-06 8.88617E-19-5.08385E-21
 -1       217 1.18577E-04-3.73814E-05-3.48013E-05-1.02002E-05 9.07490E-19 1.54009E-18
 -1       218 1.11722E-04-3.43397E-05-3.31684E-05-1.48446E-05-1.56764E-19 8.04231E-19
 -1       219 1.02864E-04-2.96630E-05-3.14094E-05-1.44094E-05-1.33586E-18 2.79029E-18
 -1       220 9.57577E-05-2.57877E-05-3.00573E-05-7.47967E-06-6.08527E-19 1.43648E-18
 -1       221 9.38861E-05-2.53328E-05-2.94447E-05 2.31248E-06 7.29679E-19 1.35040E-18
 -1       222 9.70628E-05-2.81236E-05-2.95764E-05 8.73130E-06-2.75478E-19 1.78159E-18
 -1       223 1.01709E-04-3.14319E-05-3.01180E-05 8.71466E-06 8.91666E-19 2.46536E-18
 -1       224 1.04368E-04-3.29981E-05-3.05807E-05 4.20909E-06 1.02661E-18 3.67017E-18
 -1       225 1.03917E-04-3.24954E-05-3.06124E-05-8.89554E-07 4.07410E-19 3.47564E-18
 -1       226 1.01159E-04-3.06927E-05-3.02063E-05-3.74394E-06 9.21734E-19 2.41556E-18
 -1       227 9.76476E-05-2.85938E-05-2.95989E-05-3.35713E-06-1.54536E-18 2.11399E-18
 -1       228 9.95097E-05-2.85572E-05-3.05898E-05 7.20983E-06 1.88751E-18 4.29558E-18
 -1       229 9.44270E-05-2.77939E-05-2.85277E-05 2.74219E-06 1.49213E-18 3.04422E-18
 -1       230 9.21088E-05-2.74047E-05-2.76853E-05 9.28042E-07 9.33255E-19 1.81581E-18
 -1       231 9.11622E-05-2.72427E-05-2.73671E-05 6.58293E-08 8.10066E-19 1.14617E-18
 -1       232 9.09525E-05-2.72362E-05-2.72935E-05-3.62139E-07 4.60987E-19 6.45796E-19
 -1       233 9.11379E-05-2.73227E-05-2.73426E-05-5.62865E-07 2.02718E-19 3.45570E-19
 -1       234 9.15231E-05-2.74563E-05-2.74537E-05-6.35587E-07 4.99795E-19 1.16242E-19
 -1       235 9.19928E-05-2.76076E-05-2.75918E-05-6.34238E-07 2.30480E-19-3.41252E-19
 -1       236 9.24789E-05-2.77589E-05-2.77362E-05-5.91028E-07 4.61666E-19-1.04787E-18
 -1       237 9.29415E-05-2.79000E-05-2.78745E-05-5.26238E-07 4.13817E-19-1.21980E-18
 -1       238 9.33595E-05-2.80256E-05-2.80001E-05-4.52931E-07 6.98627E-19-1.33789E-18
 -1       239 9.37234E-05-2.81338E-05-2.81100E-05-3.79527E-07 1.26174E-19-1.51426E-18
 -1       240 9.40321E-05-2.82245E-05-2.82034E-05-3.11381E-07 1.21970E-19-1.57685E-18
 -1       241 9.42891E-05-2.82993E-05-2.82816E-05-2.51852E-07 1.24943E-19-1.78236E-18
 -1       242 9.45017E-05-2.83604E-05-2.83464E-05-2.03061E-07 1.35050E-20-1.60424E-18
 -1       243 9.46792E-05-2.84108E-05-2.84009E-05-1.66464E-07-8.73296E-22-1.90858E-18
 -1       244 9.48330E-05-2.84539E-05-2.84482E-05-1.43277E-07 8.51406E-19-1.81574E-18
 -1       245 9.49757E-05-2.84933E-05-2.84924E-05-1.34797E-07-3.72938E-19-1.77930E-18
 -1       246 9.51217E-05-2.85333E-05-2.85376E-05-1.42639E-07-7.99979E-19-1.86992E-18
 -1       247 9.52871E-05-2.85787E-05-2.85889E-05-1.68877E-07-3.32779E-19-1.63286E-18
 -1       248 9.54903E-05-2.86347E-05-2.86518E-05-2.16096E-07 6.12616E-19-2.33809E-18
 -1       249 9.57521E-05-2.87075E-05-2.87327E-05-2.87301E-07 8.96409E-19-2.33052E-18
 -1       250 9.60960E-05-2.88042E-05-2.88385E-05-3.85652E-07-3.35816E-19-2.96228E-18
 -1       251 9.65475E-05-2.89326E-05-2.89769E-05-5.13922E-07-4.39295E-19-2.24910E-18
 -1       252 9.71336E-05-2.91010E-05-2.91558E-05-6.73543E-07-7.37667E-20-6.24498E-19
 -1       253 9.78802E-05-2.93181E-05-2.93828E-05-8.63074E-07-5.90191E-19-3.92175E-20
 -1       254 9.88082E-05-2.95916E-05-2.96636E-05-1.07585E-06-2.45139E-19 4.38519E-19
 -1       255 9.99275E-05-2.99268E-05-3.00002E-05-1.29658E-06-3.01408E-19 4.47560E-19
 -1       256 1.01227E-04-3.03242E-05-3.03878E-05-1.49681E-06 6.16014E-19 4.50713E-19
 -1       257 1.02663E-04-3.07753E-05-3.08107E-05-1.62951E-06 8.17934E-19-1.77480E-20
 -1       258 1.04139E-04-3.12580E-05-3.12374E-05-1.62416E-06-3.54978E-19-1.46867E-18
 -1       259 1.05490E-04-3.17291E-05-3.16157E-05-1.38564E-06 7.44595E-19-1.85573E-18
 -1       260 1.06472E-04-3.21175E-05-3.18697E-05-8.03499E-07-4.88885E-19-1.15994E-18
 -1       261 1.06758E-04-3.23181E-05-3.19047E-05 2.18324E-07-9.62330E-19 5.29605E-19
 -1       262 1.05983E-04-3.21946E-05-3.16220E-05 1.70130E-06 3.16827E-19-5.42389E-19
 -1       263 1.03835E-04-3.16026E-05-3.09514E-05 3.50475E-06 7.92416E-19 3.13316E-19
 -1       264 1.00215E-04-3.04471E-05-2.98938E-05 5.24935E-06-1.06003E-18 9.61068E-19
 -1       265 9.54228E-05-2.87751E-05-2.85602E-05 6.33620E-06 1.91723E-19 1.74773E-18
 -1       266 9.02588E-05-2.68618E-05-2.71752E-05 6.15588E-06-3.55984E-19 2.32549E-18
 -1       267 8.58823E-05-2.51939E-05-2.60222E-05 4.46649E-06 5.25984E-19 1.60838E-18
 -1       268 8.33727E-05-2.42747E-05-2.53415E-05 1.69550E-06 4.71807E-19 4.36627E-19
 -1       269 8.31894E-05-2.43295E-05-2.52314E-05-1.17083E-06-1.84349E-18 1.00264E-18
 -1       270 8.49368E-05-2.51606E-05-2.56127E-05-3.14015E-06 2.66672E-18 1.25923E-19
 -1       271 8.76411E-05-2.62918E-05-2.62804E-05-3.78339E-06 2.86804E-18-1.41228E-18
 -1       272 9.03179E-05-2.72776E-05-2.70062E-05-3.37177E-06 6.45819E-19-8.31654E-19
 -1       273 9.24035E-05-2.79228E-05-2.76291E-05-2.54260E-06-7.63567E-19-2.04780E-18
 -1       274 9.38021E-05-2.82936E-05-2.80711E-05-1.79598E-06-7.61847E-19-2.71133E-18
 -1       275 9.47560E-05-2.86482E-05-2.83143E-05-1.12372E-06-1.28742E-18-2.94083E-18
 -1       276 9.53645E-05-2.93203E-05-2.82914E-05-1.40414E-06 2.32927E-19 2.02476E-18
 -1       277 9.60500E-05-2.98529E-05-2.83501E-05-6.76281E-07 1.16185E-18 2.31175E-18
 -1       278 9.63970E-05-2.93318E-05-2.87224E-05 1.74592E-06 1.36973E-18 4.79004E-20
 -1       279 9.60253E-05-2.68256E-05-2.96390E-05 5.66357E-06 8.00991E-19-1.12815E-18
 -1       280 9.45655E-05-2.17588E-05-3.11960E-05 1.02242E-05-1.52978E-18-3.20113E-18
 -1       281 9.16719E-05-1.38832E-05-3.33459E-05 1.40243E-05-2.39678E-18-5.01731E-19
 -1       282 8.76039E-05-4.36071E-06-3.56947E-05 1.48051E-05-2.48361E-18 1.56398E-18
 -1       283 8.35158E-05 4.31790E-06-3.76647E-05 1.08985E-05-6.83589E-19 2.32718E-18
 -1       284 8.12061E-05 9.02481E-06-3.86891E-05 2.82391E-06-2.84803E-19-1.73992E-18
 -1       285 8.18832E-05 7.82850E-06-3.84661E-05-6.27661E-06-1.85650E-18 4.63552E-20
 -1       286 8.50129E-05 1.56323E-06-3.71227E-05-1.25163E-05-2.38472E-18-1.10996E-18
 -1       287 8.90920E-05-7.33582E-06-3.50535E-05-1.42207E-05-2.30872E-18 7.59698E-19
 -1       288 9.24862E-05-1.58348E-05-3.28512E-05-1.20073E-05-1.51671E-18-8.15885E-19
 -1       289 9.46132E-05-2.22350E-05-3.10186E-05-7.86723E-06-2.44439E-18 1.33387E-18
 -1       290 9.64260E-05-2.61620E-05-3.00986E-05-5.88324E-06-2.11524E-18 9.48018E-19
 -1       291 1.46081E-05-5.35112E-05 1.32631E-05 1.10108E-05-1.29914E-19 3.49126E-18
 -1       292 3.66244E-05-4.89332E-05 3.14002E-06 3.38720E-05 2.21012E-18 6.30722E-19
 -1       293 7.07880E-05-4.46411E-05-1.25351E-05 4.36142E-05 1.00204E-18-1.94606E-19
 -1       294 1.08496E-04-3.32519E-05-3.20324E-05 5.14212E-05 2.50616E-18-4.14284E-18
 -1       295 1.58411E-04-3.44130E-05-5.14755E-05 4.66575E-05 4.24205E-19-5.14742E-18
 -1       296 1.90805E-04-3.19952E-05-6.59430E-05 2.67516E-05-3.11020E-19-5.51630E-18
 -1       297 2.18897E-04-3.58310E-05-7.49304E-05 1.33848E-05-1.01676E-18-8.02426E-18
 -1       298 2.07541E-04-3.21867E-05-7.23651E-05-8.99999E-06-5.22937E-19-6.77298E-18
 -1       299 1.90844E-04-3.52517E-05-6.39054E-05-3.70330E-05 3.17354E-18-6.53613E-18
 -1       300 1.50251E-04-3.75414E-05-4.72834E-05-3.91913E-05 2.52818E-18-4.57673E-18
 -1       301 9.82860E-05-3.20818E-05-2.85443E-05-4.68633E-05 2.68552E-18-4.92825E-18
 -1       302 5.77355E-05-3.85234E-05-9.95494E-06-3.60423E-05 4.40034E-18-2.35570E-18
 -1       303 3.06179E-05-4.70062E-05 4.59122E-06-2.61454E-05 4.60024E-18-1.74303E-18
 -1       304 1.44830E-05-5.59716E-05 1.42585E-05-9.29392E-06 3.87962E-18-3.08309E-18
 -1       305 1.22885E-05-5.26214E-05 1.42111E-05 4.39931E-06 1.94929E-18-9.90499E-19
 -1       306 2.62317E-05-5.10854E-05 7.77030E-06 1.73469E-05 1.10411E-18-1.23984E-18
 -1       307 5.29318E-05-4.52286E-05-5.37258E-06 2.99122E-05 4.64386E-19-2.33850E-18
 -1       308 8.95899E-05-3.82883E-05-2.28204E-05 3.93852E-05-5.28972E-19-2.44665E-18
 -1       309 1.40861E-04-4.07056E-05-4.22061E-05 3.80098E-05-2.38228E-19-3.28797E-18
 -1       310 1.84954E-04-3.87317E-05-6.02742E-05 3.01931E-05-1.72720E-18-3.44298E-18
 -1       311 2.17880E-04-4.03150E-05-7.23129E-05 1.45700E-05-1.27150E-18-3.50185E-18
 -1       312 2.18635E-04-3.45721E-05-7.52332E-05-8.89523E-06-8.82608E-19-1.51658E-18
 -1       313 2.15124E-04-3.71301E-05-7.23230E-05-3.15684E-05-1.16308E-18-1.94606E-18
 -1       314 1.84250E-04-3.42193E-05-6.13526E-05-4.73125E-05-2.41696E-18-1.14667E-18
 -1       315 1.41223E-04-3.32591E-05-4.49041E-05-5.29934E-05-2.06570E-18 6.82709E-19
 -1       316 9.70644E-05-3.67896E-05-2.62096E-05-4.90000E-05-2.82231E-18 1.41031E-18
 -1       317 5.78238E-05-4.44221E-05-7.87530E-06-3.75162E-05-2.06358E-18 2.60071E-18
 -1       318 3.13878E-05-5.17094E-05 5.89533E-06-2.75157E-05-2.08307E-18 3.29136E-18
 -1       319 1.54377E-05-5.95839E-05 1.46995E-05-7.36044E-06-9.70170E-19 9.78535E-19
 -1       320 9.16337E-05-1.44454E-05-3.31585E-05-1.29790E-05-2.47198E-18-1.07875E-18
 -1       321 9.57153E-05-1.91128E-05-3.28922E-05-1.46338E-05-2.56126E-18 5.60815E-19
 -1       322 8.80011E-05-1.03739E-05-3.33241E-05-8.15209E-06-1.64478E-18-2.88222E-18
 -1       323 8.71865E-05-9.45288E-06-3.33629E-05-5.71634E-06-1.22977E-18-3.19827E-18
 -1       324 8.67259E-05-8.92268E-06-3.33892E-05-3.36587E-06-8.19581E-19-3.32967E-18
 -1       325 8.65204E-05-8.68273E-06-3.34025E-05-1.07220E-06-2.99931E-19-3.43004E-18
 -1       326 8.65291E-05-8.69231E-06-3.34022E-05 1.20307E-06 1.39682E-19-3.53380E-18
 -1       327 8.67535E-05-8.95338E-06-3.33880E-05 3.49898E-06 5.07225E-19-3.61652E-18
 -1       328 8.72263E-05-9.49762E-06-3.33610E-05 5.81334E-06 9.50878E-19-3.43680E-18
 -1       329 8.80664E-05-1.04493E-05-3.33198E-05 8.25212E-06 1.47799E-18-3.09961E-18
 -1       330 8.94829E-05-1.20329E-05-3.32595E-05 1.07606E-05 2.05367E-18-2.60058E-18
 -1       331 9.19050E-05-1.47228E-05-3.31592E-05 1.31659E-05 2.47204E-18-1.73871E-18
 -1       332 9.58104E-05-1.94590E-05-3.28298E-05 1.43731E-05 2.64868E-18 6.23893E-20
 -1       333 9.87988E-05-2.44466E-05-3.19534E-05 1.18958E-05 2.38572E-18 1.73229E-18
 -1       334 9.63987E-05-2.68149E-05-2.97922E-05 5.73877E-06 1.97373E-18 1.15277E-18
 -1       335 9.64433E-05-2.60299E-05-3.01327E-05-6.34216E-06-2.01038E-18 7.36662E-19
 -1       336 9.49268E-05-2.70317E-05-2.90725E-05-2.83167E-06-1.54993E-18 4.38805E-19
 -1       337 9.39503E-05-2.74278E-05-2.84951E-05-9.18873E-07-1.06290E-18 2.45742E-19
 -1       338 9.34320E-05-2.76411E-05-2.81894E-05 1.40661E-07-7.46077E-19-1.46959E-19
 -1       339 9.32403E-05-2.77946E-05-2.80454E-05 7.04593E-07-5.69398E-19-1.46438E-19
 -1       340 9.32572E-05-2.79244E-05-2.79988E-05 9.71306E-07-7.68985E-19-4.95529E-19
 -1       341 9.33957E-05-2.80393E-05-2.80099E-05 1.05768E-06-6.79460E-19-7.19536E-19
 -1       342 9.35964E-05-2.81404E-05-2.80530E-05 1.03643E-06-7.94102E-19-1.95535E-19
 -1       343 9.38202E-05-2.82275E-05-2.81118E-05 9.54540E-07-7.46730E-19-4.32507E-19
 -1       344 9.40428E-05-2.83006E-05-2.81760E-05 8.42855E-07-5.51290E-19-7.04973E-19
 -1       345 9.42506E-05-2.83603E-05-2.82394E-05 7.21736E-07-3.37484E-19-1.03173E-18
 -1       346 9.44369E-05-2.84080E-05-2.82988E-05 6.04555E-07 2.16315E-19-7.22072E-19
 -1       347 9.46002E-05-2.84452E-05-2.83527E-05 5.00076E-07-5.70553E-19-3.08495E-19
 -1       348 9.47424E-05-2.84737E-05-2.84014E-05 4.14171E-07-7.55635E-19-7.42924E-19
 -1       349 9.48681E-05-2.84952E-05-2.84458E-05 3.51089E-07-3.01658E-19-8.96751E-19
 -1       350 9.49835E-05-2.85118E-05-2.84880E-05 3.14445E-07-6.00458E-19-1.22646E-18
 -1       351 9.50966E-05-2.85255E-05-2.85304E-05 3.07989E-07-3.91123E-19-7.84050E-19
 -1       352 9.52170E-05-2.85382E-05-2.85763E-05 3.36250E-07-7.86759E-20-1.26377E-18
 -1       353 9.53560E-05-2.85524E-05-2.86296E-05 4.05069E-07 2.17944E-19-1.17833E-18
 -1       354 9.55268E-05-2.85706E-05-2.86946E-05 5.22059E-07-2.00686E-19-1.49774E-18
 -1       355 9.57450E-05-2.85959E-05-2.87769E-05 6.97006E-07 3.65673E-19-5.26906E-19
 -1       356 9.60289E-05-2.86318E-05-2.88827E-05 9.42171E-07 2.42100E-19-6.52261E-19
 -1       357 9.63997E-05-2.86827E-05-2.90192E-05 1.27244E-06 8.74779E-19-1.51428E-18
 -1       358 9.68819E-05-2.87541E-05-2.91946E-05 1.70515E-06-5.32475E-20-9.46773E-19
 -1       359 9.75032E-05-2.88532E-05-2.94176E-05 2.25922E-06-6.90806E-19-1.49519E-19
 -1       360 9.82944E-05-2.89900E-05-2.96972E-05 2.95305E-06-3.94974E-19 7.42277E-19
 -1       361 9.92887E-05-2.91796E-05-3.00412E-05 3.79983E-06 7.95574E-19-7.50149E-19
 -1       362 1.00521E-04-2.94461E-05-3.04546E-05 4.79857E-06 7.43762E-19-8.75024E-19
 -1       363 1.02029E-04-2.98308E-05-3.09361E-05 5.91748E-06-3.25868E-21-5.57448E-19
 -1       364 1.03853E-04-3.04038E-05-3.14736E-05 7.06572E-06-6.24209E-19 3.34816E-19
 -1       365 1.06041E-04-3.12812E-05-3.20391E-05 8.04912E-06-1.08852E-18 1.07145E-18
 -1       366 1.08654E-04-3.26364E-05-3.25857E-05 8.51021E-06-1.95865E-19 5.77467E-19
 -1       367 1.11756E-04-3.46766E-05-3.30520E-05 7.86852E-06 1.27508E-18 3.84045E-19
 -1       368 1.15340E-04-3.75084E-05-3.33877E-05 5.32220E-06 4.97648E-19 7.50294E-19
 -1       369 1.19102E-04-4.07839E-05-3.36071E-05 5.97400E-08 7.58472E-19 1.55538E-18
 -1       370 1.22039E-04-4.31478E-05-3.38606E-05-8.04951E-06 1.94053E-18 2.43015E-18
 -1       371 1.22246E-04-4.20535E-05-3.44111E-05-1.71137E-05 9.10332E-19 1.89262E-18
 -1       372 1.17979E-04-3.53967E-05-3.54799E-05-2.22465E-05-2.32934E-21 2.17234E-18
 -1       373 1.10912E-04-2.58139E-05-3.66221E-05-1.77494E-05-1.45617E-18 2.19246E-18
 -1       374 1.06789E-04-2.11934E-05-3.68537E-05-4.26094E-06-3.11735E-19 3.45456E-18
 -1       375 1.08781E-04-2.57863E-05-3.57139E-05 8.73262E-06 6.05748E-19 3.76610E-18
 -1       376 1.13159E-04-3.44373E-05-3.38237E-05 1.24210E-05 7.95632E-19 4.54938E-18
 -1       377 1.14492E-04-3.95256E-05-3.21724E-05 7.19819E-06-4.78110E-22 3.68027E-18
 -1       378 1.11596E-04-3.89606E-05-3.11625E-05-8.48307E-07-2.96422E-19 1.48941E-18
 -1       379 1.06240E-04-3.47569E-05-3.06627E-05-6.63141E-06-2.79038E-19 1.28681E-18
 -1       380 1.01099E-04-3.01798E-05-3.03833E-05-7.94140E-06-1.07140E-19 1.35817E-18
 -1       381 9.43798E-05-2.73439E-05-2.86915E-05 2.46613E-06 1.55211E-18 7.09289E-19
 -1       382 9.31745E-05-2.74640E-05-2.81398E-05 7.41004E-07 1.02287E-18 1.91750E-19
 -1       383 9.26213E-05-2.75419E-05-2.78812E-05-1.80082E-07 6.74950E-19 7.61362E-20
 -1       384 9.24801E-05-2.76348E-05-2.77867E-05-6.55539E-07 4.43933E-19-4.89401E-19
 -1       385 9.25827E-05-2.77443E-05-2.77863E-05-8.72848E-07 5.81690E-19-9.66782E-19
 -1       386 9.28176E-05-2.78606E-05-2.78384E-05-9.36810E-07 7.65875E-19-1.30450E-18
 -1       387 9.31129E-05-2.79746E-05-2.79167E-05-9.10628E-07 7.29188E-19-1.51383E-18
 -1       388 9.34234E-05-2.80801E-05-2.80049E-05-8.34296E-07 3.63649E-19-1.44813E-18
 -1       389 9.37222E-05-2.81735E-05-2.80931E-05-7.33786E-07 6.05696E-19-1.19454E-18
 -1       390 9.39945E-05-2.82534E-05-2.81755E-05-6.26085E-07 3.81993E-19-9.08871E-19
 -1       391 9.42340E-05-2.83201E-05-2.82496E-05-5.22244E-07 5.11702E-19-1.31019E-18
 -1       392 9.44402E-05-2.83746E-05-2.83145E-05-4.29408E-07 6.87385E-20-1.10695E-18
 -1       393 9.46161E-05-2.84186E-05-2.83709E-05-3.52244E-07 6.34820E-20-1.45277E-18
 -1       394 9.47675E-05-2.84542E-05-2.84204E-05-2.93991E-07 3.51115E-20-1.02487E-18
 -1       395 9.49024E-05-2.84838E-05-2.84653E-05-2.57241E-07 5.85290E-19-1.20444E-18
 -1       396 9.50301E-05-2.85102E-05-2.85085E-05-2.44518E-07 1.55163E-19-7.55683E-19
 -1       397 9.51616E-05-2.85364E-05-2.85534E-05-2.58699E-07-2.26386E-19-1.71522E-18
 -1       398 9.53095E-05-2.85657E-05-2.86040E-05-3.03261E-07 9.90802E-21-2.47626E-18
 -1       399 9.54881E-05-2.86020E-05-2.86647E-05-3.82366E-07 3.14964E-19-2.60738E-18
 -1       400 9.57136E-05-2.86500E-05-2.87404E-05-5.00717E-07 1.03474E-18-2.31131E-18
 -1       401 9.60042E-05-2.87152E-05-2.88367E-05-6.63113E-07 4.97806E-19-2.31510E-18
 -1       402 9.63795E-05-2.88039E-05-2.89592E-05-8.73568E-07-1.05495E-18-3.04817E-18
 -1       403 9.68602E-05-2.89239E-05-2.91135E-05-1.13380E-06-1.21715E-18-1.46946E-18
 -1       404 9.74666E-05-2.90841E-05-2.93045E-05-1.44085E-06-7.75956E-19-3.94369E-20
 -1       405 9.82160E-05-2.92947E-05-2.95354E-05-1.78351E-06-4.34816E-20 9.27214E-19
 -1       406 9.91191E-05-2.95668E-05-2.98062E-05-2.13729E-06-7.11126E-19 1.20998E-18
 -1       407 1.00174E-04-2.99116E-05-3.01114E-05-2.45783E-06 4.76249E-20 1.87689E-18
 -1       408 1.01359E-04-3.03385E-05-3.04379E-05-2.67334E-06 1.41690E-18 2.55047E-18
 -1       409 1.02623E-04-3.08512E-05-3.07622E-05-2.67780E-06 1.10921E-18 3.37464E-19
 -1       410 1.03871E-04-3.14389E-05-3.10483E-05-2.32983E-06 5.36655E-19-1.00298E-18
 -1       411 1.04952E-04-3.20626E-05-3.12481E-05-1.46574E-06-7.19599E-19-2.94263E-19
 -1       412 1.05651E-04-3.26321E-05-3.13068E-05 5.95934E-08-1.20508E-18-9.11961E-19
 -1       413 1.05686E-04-3.29821E-05-3.11736E-05 2.28945E-06-2.72784E-19 6.89172E-19
 -1       414 1.04750E-04-3.28667E-05-3.08210E-05 5.03964E-06 3.42779E-19 3.10173E-18
 -1       415 1.02612E-04-3.20185E-05-3.02635E-05 7.77730E-06-5.22861E-20 2.45993E-18
 -1       416 9.92987E-05-3.03089E-05-2.95681E-05 9.62042E-06 3.53886E-19 5.21058E-20
 -1       417 9.52988E-05-2.79763E-05-2.88454E-05 9.60776E-06-1.15681E-18 1.85413E-19
 -1       418 9.15911E-05-2.57261E-05-2.82138E-05 7.26713E-06 3.91422E-19 1.39330E-18
 -1       419 8.92795E-05-2.44530E-05-2.77641E-05 3.14065E-06-2.59774E-19 3.32495E-18
 -1       420 8.89436E-05-2.46389E-05-2.75388E-05-1.28596E-06-5.35451E-19 2.67409E-18
 -1       421 9.02510E-05-2.59727E-05-2.75302E-05-4.42138E-06 1.92608E-18 1.62267E-18
 -1       422 9.22199E-05-2.75938E-05-2.76877E-05-5.51138E-06 2.87927E-18 3.19102E-18
 -1       423 9.38932E-05-2.87283E-05-2.79274E-05-4.91914E-06 1.32631E-18 2.29461E-18
 -1       424 9.48082E-05-2.91082E-05-2.81602E-05-3.62044E-06 9.07630E-19 3.35578E-19
 -1       425 9.51070E-05-2.90487E-05-2.83138E-05-2.43586E-06-1.16624E-18 2.06449E-18
 -1       426 9.52796E-05-2.91147E-05-2.83524E-05-1.86370E-06-1.19084E-18 3.39455E-18
 -1       427 1.00171E-04-3.09112E-05-2.96493E-05 5.58778E-06 7.10097E-19-5.85882E-19
 -1       428 9.84255E-05-3.06593E-05-2.90310E-05 7.54302E-07 1.70498E-19 2.23681E-18
 -1       429 9.66703E-05-2.98824E-05-2.86153E-05-1.34137E-06-1.40849E-18 3.83905E-18
 -1       430 1.00651E-04-2.96687E-05-3.03903E-05 1.21855E-05 1.67531E-19-5.56396E-18
 -1       431 9.88098E-05-2.60531E-05-3.11607E-05 1.92683E-05 2.46190E-19-1.50377E-18
 -1       432 9.35983E-05-1.94751E-05-3.17610E-05 2.37171E-05 4.19443E-19 1.66898E-19
 -1       433 8.57440E-05-1.09176E-05-3.20714E-05 2.18680E-05-1.87862E-18 2.47287E-18
 -1       434 7.87036E-05-3.68666E-06-3.21610E-05 1.19140E-05-2.67972E-18-4.24496E-19
 -1       435 7.69036E-05-1.78065E-06-3.22013E-05-3.08672E-06-8.68886E-19-1.35814E-18
 -1       436 8.14681E-05-6.20366E-06-3.22555E-05-1.61120E-05-2.72024E-18-1.74415E-18
 -1       437 8.92739E-05-1.41818E-05-3.21820E-05-2.23600E-05-1.47307E-18 1.35046E-18
 -1       438 9.58284E-05-2.15613E-05-3.18064E-05-2.10563E-05-1.10919E-18 6.86130E-19
 -1       439 9.89738E-05-2.61518E-05-3.11704E-05-1.54480E-05-2.10292E-19-9.46015E-19
 -1       440 7.80646E-05-5.17471E-05-1.11836E-05 5.27582E-05-1.56489E-18-2.61265E-18
 -1       441 1.48419E-05-2.70918E-05 4.94646E-06-1.52357E-07-1.16357E-18 1.31004E-18
 -1       442 3.31843E-05-2.98108E-05-1.21107E-06 3.48585E-05-3.32402E-18 1.70857E-18
 -1       443 1.20543E-04-6.18057E-05-2.51263E-05 4.48073E-05-5.85829E-19-5.16849E-18
 -1       444 1.47907E-04-5.78232E-05-3.86197E-05 2.79728E-05 1.15615E-18-4.04003E-18
 -1       445 8.93626E-05-1.18961E-05-3.32661E-05-1.06447E-05-2.13654E-18-2.20282E-18
 -1       446 1.66958E-04-1.73610E-05-6.39111E-05 3.23663E-06 1.04005E-18-3.85988E-18
 -1       447 1.62873E-04-1.11765E-05-6.50761E-05 3.76793E-06-6.78156E-19-4.29132E-18
 -1       448 1.67689E-04-2.46739E-05-6.10899E-05 1.90489E-06 8.11563E-19-5.80715E-18
 -1       449 1.60483E-04-3.98357E-05-5.16254E-05-6.00278E-06 1.64354E-18-4.75334E-18
 -1       450 1.39249E-04-5.78830E-05-3.48825E-05-2.48014E-05 6.34269E-19-4.81528E-18
 -1       451 1.04020E-04-5.57837E-05-2.08085E-05-4.18341E-05 2.84296E-18-3.15541E-18
 -1       452 6.78316E-05-4.82264E-05-8.38664E-06-4.62287E-05 2.37413E-18-7.76756E-19
 -1       453 2.66879E-05-3.18656E-05 2.18874E-06-3.09944E-05 2.10594E-18-2.60420E-18
 -1       454 1.24282E-05-2.63354E-05 5.88826E-06-7.20234E-06 2.55721E-18-2.04124E-18
 -1       455 2.34798E-05-3.39967E-05 4.22102E-06 2.32724E-05 8.61168E-19-2.14490E-18
 -1       456 5.63786E-05-4.68019E-05-4.33313E-06 3.91014E-05 6.98696E-19-1.93621E-18
 -1       457 9.92662E-05-5.93533E-05-1.72576E-05 3.79740E-05 8.68950E-19-3.43956E-18
 -1       458 1.34795E-04-6.21328E-05-3.12780E-05 2.42129E-05-1.59877E-20-1.66548E-18
 -1       459 1.60438E-04-5.07782E-05-4.70153E-05-6.60619E-07 4.23106E-19 2.57816E-18
 -1       460 1.69673E-04-3.01396E-05-5.94674E-05-8.46871E-06 2.09111E-19 3.42011E-18
 -1       461 1.71524E-04-1.79968E-05-6.53853E-05-8.88723E-06-3.93870E-19 2.29170E-18
 -1       462 1.63586E-04-1.54154E-05-6.34459E-05-2.50381E-06-1.07425E-18 3.01930E-18
 -1       463 1.71749E-04-3.09616E-05-5.99604E-05-6.89120E-06-2.26454E-18-1.28611E-18
 -1       464 1.63107E-04-4.91699E-05-4.86380E-05-1.62216E-05-2.86235E-18-1.93843E-18
 -1       465 1.43021E-04-6.23646E-05-3.45532E-05-3.24363E-05-6.72227E-19-7.51742E-20
 -1       466 1.05173E-04-5.97065E-05-1.96527E-05-4.82068E-05-4.14411E-19 2.85344E-20
 -1       467 6.58843E-05-4.94908E-05-7.25919E-06-4.90904E-05-9.29936E-19 1.99090E-18
 -1       468 2.52234E-05-3.22421E-05 2.60517E-06-2.76417E-05-7.42954E-19 3.04032E-18
 -1       469 1.61666E-04-4.01168E-05-5.22217E-05 6.48433E-06 1.95675E-18-3.46796E-18
 -1       470 1.50156E-04-2.61075E-05-5.36139E-05-6.04113E-06 7.94146E-19-3.61805E-18
 -1       471 5.24884E-05-3.53065E-05-6.96841E-06-4.40112E-05 1.39935E-18 2.91644E-18
 -1       472 1.49201E-04-5.50284E-05-4.05990E-05-3.38126E-06 1.35973E-18-2.95821E-18
 -1       473 1.46283E-04-1.14679E-05-5.82352E-05 1.08358E-05 6.53486E-19-5.73605E-18
 -1       474 9.58249E-05-2.51495E-05-3.02752E-05 6.01453E-06 1.95304E-18-6.04414E-19
 -1       475 8.95354E-05-1.33991E-05-3.26489E-05-3.92308E-06-8.75967E-19-2.92626E-18
 -1       476 9.02432E-05-1.43621E-05-3.25417E-05-5.88266E-06-1.32468E-18-2.70535E-18
 -1       477 8.90368E-05-1.27189E-05-3.27255E-05 5.44968E-08-1.50644E-19-3.11724E-18
 -1       478 8.91724E-05-1.29025E-05-3.27052E-05 2.04493E-06 2.73222E-19-3.26097E-18
 -1       479 8.95679E-05-1.34401E-05-3.26453E-05 3.99696E-06 7.64313E-19-3.20671E-18
 -1       480 9.02931E-05-1.44274E-05-3.25349E-05 5.95030E-06 1.21122E-18-2.84121E-18
 -1       481 9.14424E-05-1.60065E-05-3.23528E-05 7.77725E-06 1.70171E-18-2.55434E-18
 -1       482 9.32338E-05-1.84789E-05-3.20580E-05 9.29228E-06 2.08199E-18-1.98990E-18
 -1       483 9.51181E-05-2.65793E-05-2.93558E-05 2.87039E-06 1.43229E-18-7.46999E-19
 -1       484 9.54812E-05-2.44317E-05-3.04405E-05-5.82560E-06-1.94834E-18-5.63049E-19
 -1       485 1.49577E-04-5.51165E-05-4.07907E-05 4.74734E-06 1.51955E-18-1.81493E-18
 -1       486 9.52792E-05-2.62307E-05-2.95855E-05-2.89153E-06-1.36007E-18-5.55077E-19
 -1       487 9.49219E-05-2.71630E-05-2.90358E-05-1.02766E-06-1.09001E-18-5.71854E-19
 -1       488 9.46455E-05-2.76944E-05-2.86917E-05 9.47946E-08-7.96510E-19-8.72816E-19
 -1       489 9.44890E-05-2.80210E-05-2.84857E-05 7.29331E-07-7.58632E-19-1.09274E-18
 -1       490 9.44336E-05-2.82329E-05-2.83717E-05 1.04632E-06-9.30393E-19-1.30799E-18
 -1       491 9.44489E-05-2.83741E-05-2.83179E-05 1.16070E-06-5.37496E-19-1.55647E-18
 -1       492 9.45077E-05-2.84684E-05-2.83028E-05 1.15032E-06-7.72776E-19-1.38379E-18
 -1       493 9.45893E-05-2.85299E-05-2.83115E-05 1.06804E-06-6.25333E-19-9.56331E-19
 -1       494 9.46797E-05-2.85679E-05-2.83340E-05 9.49803E-07-3.35141E-19-2.42847E-19
 -1       495 9.47701E-05-2.85887E-05-2.83638E-05 8.19904E-07 1.56893E-19 1.19360E-19
 -1       496 9.48557E-05-2.85969E-05-2.83969E-05 6.94708E-07-1.43749E-19-3.59671E-19
 -1       497 9.49348E-05-2.85956E-05-2.84314E-05 5.85305E-07-7.57122E-19 1.31673E-19
 -1       498 9.50078E-05-2.85870E-05-2.84662E-05 4.99495E-07-8.06271E-19 1.78757E-19
 -1       499 9.50766E-05-2.85725E-05-2.85019E-05 4.43300E-07-8.60270E-19 1.76020E-19
 -1       500 9.51445E-05-2.85530E-05-2.85392E-05 4.22130E-07-5.47897E-19-2.85372E-19
 -1       501 9.52156E-05-2.85285E-05-2.85801E-05 4.41710E-07-7.75396E-19-8.37441E-19
 -1       502 9.52951E-05-2.84989E-05-2.86268E-05 5.08818E-07 2.06131E-19-7.68859E-19
 -1       503 9.53890E-05-2.84636E-05-2.86820E-05 6.31881E-07-2.19617E-20-6.99988E-19
 -1       504 9.55042E-05-2.84217E-05-2.87492E-05 8.21443E-07 5.06120E-19-1.79361E-19
 -1       505 9.56483E-05-2.83723E-05-2.88320E-05 1.09049E-06 3.18705E-19-7.80179E-19
 -1       506 9.58295E-05-2.83141E-05-2.89343E-05 1.45460E-06 4.18776E-19-1.31078E-19
 -1       507 9.60564E-05-2.82464E-05-2.90603E-05 1.93174E-06 1.93704E-19-1.05202E-18
 -1       508 9.63379E-05-2.81695E-05-2.92136E-05 2.54162E-06-2.69719E-19-8.24424E-19
 -1       509 9.66832E-05-2.80861E-05-2.93969E-05 3.30401E-06-3.95138E-19-4.49479E-19
 -1       510 9.71022E-05-2.80052E-05-2.96107E-05 4.23550E-06-9.47981E-19-3.25084E-19
 -1       511 9.76086E-05-2.79481E-05-2.98519E-05 5.34363E-06 4.77601E-19-9.79106E-19
 -1       512 9.82262E-05-2.79603E-05-3.01111E-05 6.61670E-06 8.31459E-19-8.07382E-19
 -1       513 9.90037E-05-2.81321E-05-3.03708E-05 8.00689E-06 2.16326E-19-2.05725E-19
 -1       514 1.00042E-04-2.86289E-05-3.06038E-05 9.40358E-06-3.78900E-19 2.06266E-19
 -1       515 1.01539E-04-2.97298E-05-3.07757E-05 1.05925E-05-9.74293E-19 2.42782E-19
 -1       516 1.03844E-04-3.18511E-05-3.08586E-05 1.11948E-05-2.08593E-19-1.48386E-19
 -1       517 1.07484E-04-3.54848E-05-3.08666E-05 1.05786E-05 1.57633E-18 3.40340E-19
 -1       518 1.13014E-04-4.08827E-05-3.09293E-05 7.77939E-06 1.44635E-18 2.60898E-18
 -1       519 1.20479E-04-4.72463E-05-3.14073E-05 1.52478E-06 9.03045E-19 1.88512E-18
 -1       520 1.28262E-04-5.12910E-05-3.30450E-05-9.02392E-06 7.50852E-19 9.04505E-19
 -1       521 1.31886E-04-4.73112E-05-3.64452E-05-2.08164E-05 2.46937E-19 1.89517E-18
 -1       522 1.27270E-04-3.21239E-05-4.11966E-05-2.56158E-05-1.44559E-18 2.06310E-18
 -1       523 1.20526E-04-1.67408E-05-4.50284E-05-1.48202E-05-3.37966E-19 1.60534E-18
 -1       524 1.20369E-04-1.71829E-05-4.47306E-05 4.22177E-06 7.25272E-19 2.66481E-18
 -1       525 1.26332E-04-3.31319E-05-4.02997E-05 1.38611E-05-1.42434E-19 2.22797E-18
 -1       526 1.28633E-04-4.65389E-05-3.53264E-05 8.12862E-06-5.58976E-20 2.25980E-18
 -1       527 1.23244E-04-4.85194E-05-3.20693E-05-2.86087E-06-7.00392E-19 3.18056E-18
 -1       528 1.14074E-04-4.22210E-05-3.08023E-05-1.10596E-05 4.27566E-19 3.43068E-18
 -1       529 9.41487E-05-2.76880E-05-2.84796E-05-1.23638E-07 9.20976E-19-1.15624E-18
 -1       530 9.39728E-05-2.79349E-05-2.83006E-05-7.32976E-07 8.51704E-19-1.30761E-18
 -1       531 9.39428E-05-2.81065E-05-2.82153E-05-1.03034E-06 7.81237E-19-1.61782E-18
 -1       532 9.40063E-05-2.82326E-05-2.81889E-05-1.13274E-06 7.31152E-19-1.37014E-18
 -1       533 9.41224E-05-2.83273E-05-2.81983E-05-1.11663E-06 5.44156E-19-9.25507E-19
 -1       534 9.42624E-05-2.83984E-05-2.82280E-05-1.03289E-06 4.34174E-19-9.86471E-19
 -1       535 9.44079E-05-2.84507E-05-2.82679E-05-9.15633E-07 4.03165E-19-1.03541E-18
 -1       536 9.45476E-05-2.84881E-05-2.83118E-05-7.87714E-07 4.73528E-19-8.68466E-19
 -1       537 9.46759E-05-2.85135E-05-2.83558E-05-6.64343E-07 2.21627E-19-8.69501E-19
 -1       538 9.47912E-05-2.85293E-05-2.83984E-05-5.55675E-07 2.08743E-19-9.94409E-19
 -1       539 9.48944E-05-2.85376E-05-2.84389E-05-4.68675E-07 2.06076E-19-1.34791E-18
 -1       540 9.49885E-05-2.85401E-05-2.84781E-05-4.08497E-07 3.24917E-19-1.69784E-18
 -1       541 9.50781E-05-2.85382E-05-2.85172E-05-3.79507E-07 4.14364E-19-1.24423E-18
 -1       542 9.51691E-05-2.85332E-05-2.85582E-05-3.86037E-07-1.55869E-19-1.11140E-18
 -1       543 9.52685E-05-2.85265E-05-2.86035E-05-4.32879E-07-1.68624E-19-6.82954E-19
 -1       544 9.53846E-05-2.85199E-05-2.86559E-05-5.25539E-07 8.85323E-19-9.24822E-19
 -1       545 9.55269E-05-2.85154E-05-2.87186E-05-6.70202E-07 4.53662E-19-1.61619E-18
 -1       546 9.57063E-05-2.85163E-05-2.87949E-05-8.73347E-07 2.90154E-19-9.83430E-19
 -1       547 9.59351E-05-2.85270E-05-2.88882E-05-1.14087E-06-2.06943E-19-3.81672E-19
 -1       548 9.62272E-05-2.85544E-05-2.90014E-05-1.47653E-06-9.65015E-19-9.03826E-19
 -1       549 9.65977E-05-2.86086E-05-2.91368E-05-1.87951E-06-7.64926E-19-2.21024E-18
 -1       550 9.70632E-05-2.87041E-05-2.92953E-05-2.34070E-06-9.63136E-19-2.48423E-18
 -1       551 9.76412E-05-2.88617E-05-2.94755E-05-2.83750E-06-7.13756E-19-1.79958E-18
 -1       552 9.83498E-05-2.91104E-05-2.96729E-05-3.32682E-06-3.36126E-19-1.74755E-18
 -1       553 9.92069E-05-2.94881E-05-2.98791E-05-3.73651E-06 5.30612E-19-1.58427E-18
 -1       554 1.00228E-04-3.00406E-05-3.00811E-05-3.95623E-06 1.85257E-18-5.22398E-19
 -1       555 1.01420E-04-3.08140E-05-3.02623E-05-3.83076E-06 1.00650E-18 3.38195E-19
 -1       556 1.02769E-04-3.18346E-05-3.04054E-05-3.16192E-06-9.39747E-19 1.47004E-18
 -1       557 1.04212E-04-3.30687E-05-3.04978E-05-1.73156E-06-1.18751E-18 3.29225E-18
 -1       558 1.05594E-04-3.43571E-05-3.05402E-05 6.35692E-07-8.02176E-19 3.23639E-18
 -1       559 1.06611E-04-3.53398E-05-3.05550E-05 3.94601E-06-3.86347E-19 2.64313E-18
 -1       560 1.06795E-04-3.54432E-05-3.05875E-05 7.84046E-06 5.60554E-19 2.20873E-18
 -1       561 1.05651E-04-3.40545E-05-3.06873E-05 1.14129E-05 1.06621E-18 1.77945E-18
 -1       562 1.03000E-04-3.09665E-05-3.08677E-05 1.32503E-05 6.86295E-20 1.88428E-18
 -1       563 9.94639E-05-2.69529E-05-3.10688E-05 1.19994E-05-1.75217E-18 2.06280E-19
 -1       564 9.64752E-05-2.37680E-05-3.11518E-05 7.43028E-06-4.58816E-19 1.73246E-18
 -1       565 9.54374E-05-2.31123E-05-3.09872E-05 1.14889E-06 1.64591E-19 2.86711E-19
 -1       566 9.65123E-05-2.51550E-05-3.05725E-05-4.19388E-06 6.32048E-19 1.28692E-18
 -1       567 9.84791E-05-2.83797E-05-3.00382E-05-6.68414E-06 1.47306E-18 2.07155E-18
 -1       568 9.97638E-05-3.08353E-05-2.95474E-05-6.30701E-06 1.71908E-18 3.37649E-18
 -1       569 9.96403E-05-3.15869E-05-2.91733E-05-4.37706E-06 9.27738E-19 5.70445E-18
 -1       570 9.83796E-05-3.09269E-05-2.89097E-05-2.42348E-06-6.27464E-19 7.12346E-18
 -1       571 1.07843E-04-3.66762E-05-3.04802E-05 1.80111E-05 1.41212E-18-3.32319E-18
 -1       572 1.03617E-04-3.38694E-05-2.98621E-05 2.71459E-05 8.52004E-19-1.41846E-18
 -1       573 1.03466E-04-3.38205E-05-2.98230E-05 2.17826E-06-4.46196E-19 5.38602E-19
 -1       574 1.06968E-04-3.60809E-05-3.03756E-05 9.03399E-06-9.02485E-19-2.44388E-18
 -1       575 9.22869E-05-2.58508E-05-2.83825E-05 3.14246E-05-1.36716E-18-9.67427E-19
 -1       576 7.70283E-05-1.48040E-05-2.65584E-05 2.49420E-05-1.38959E-18 2.14074E-18
 -1       577 6.72689E-05-7.51906E-06-2.54691E-05 6.56715E-06-1.32392E-18 4.46016E-20
 -1       578 7.04713E-05-9.63877E-06-2.58988E-05-1.47914E-05-1.25316E-18-2.82593E-18
 -1       579 8.44834E-05-1.99784E-05-2.75952E-05-2.78187E-05-1.03776E-18-9.07414E-19
 -1       580 9.80142E-05-2.96707E-05-2.92177E-05-2.88030E-05-9.22290E-19 1.79319E-18
 -1       581 1.05055E-04-3.43240E-05-3.03354E-05-2.16256E-05-2.64476E-18-4.06966E-19
 -1       582 3.44628E-05-1.46253E-05-7.71900E-06 1.27158E-05-3.37443E-18 6.47557E-19
 -1       583 1.11093E-04-6.00853E-05-2.17005E-05 4.69094E-05-7.35489E-19-2.63024E-18
 -1       584 9.45259E-05-2.72951E-05-2.88045E-05 9.80502E-07 1.09203E-18-9.61474E-19
 -1       585 1.40298E-04-6.58364E-05-3.19106E-05 2.82723E-05-7.27125E-20-4.11107E-18
 -1       586 3.26258E-05-1.54098E-05-6.61879E-06-1.31988E-05-2.10660E-18 4.76456E-19
 -1       587 1.49953E-04-3.83889E-05-4.82964E-05-1.97774E-05-7.67253E-19 2.28868E-18
 -1       588 5.99098E-05-3.52609E-05-9.97595E-06-4.14177E-05 1.27410E-18-1.40925E-18
 -1       589 1.33946E-04-8.62249E-06-5.45441E-05-2.08887E-06 1.70794E-18-5.17932E-18
 -1       590 8.91522E-05-1.28772E-05-3.27074E-05-1.93643E-06-4.57257E-19-3.05627E-18
 -1       591 1.26952E-04-6.41958E-05-2.68519E-05-2.83310E-05 1.00628E-18-3.84209E-18
 -1       592 1.48570E-04-3.10976E-05-5.08993E-05 1.26027E-05 4.67615E-19-2.89849E-18
 -1       593 4.91840E-05-3.41782E-05-5.92890E-06 3.50492E-05 6.04146E-19-1.67400E-18
 -1       594 9.92475E-05-5.66870E-05-1.79136E-05-4.19104E-05 1.68994E-18-1.87836E-18
 -1       595 2.89316E-05-1.86115E-05-3.74967E-06-2.03487E-05 1.89611E-18-2.49483E-18
 -1       596 1.41841E-04-2.45673E-05-5.09853E-05 9.86713E-06-2.90321E-19 8.52327E-19
 -1       597 2.44620E-05-1.86618E-05-1.87231E-06 1.12979E-05 7.37223E-19-3.64351E-18
 -1       598 9.15720E-05-5.48922E-05-1.53669E-05 3.87939E-05 1.21565E-18-3.08286E-18
 -1       599 1.26720E-04-6.73220E-05-2.53894E-05 2.44846E-05 7.47454E-19-5.42842E-19
 -1       600 1.47304E-04-6.26573E-05-3.65014E-05 3.38222E-07-6.07323E-19 6.41469E-19
 -1       601 1.45722E-04-1.92152E-05-5.47832E-05-1.83699E-05-3.23990E-20 3.51360E-18
 -1       602 1.35935E-04-9.89965E-06-5.47456E-05-6.92810E-06 4.71586E-19 3.57281E-18
 -1       603 1.49719E-04-4.31714E-05-4.61812E-05 7.81601E-06-1.05556E-18-1.34504E-18
 -1       604 1.52400E-04-6.08216E-05-3.94655E-05-6.52521E-06 1.14518E-18-2.79510E-18
 -1       605 1.31748E-04-6.79271E-05-2.73340E-05-3.61078E-05 2.00000E-18-3.05935E-18
 -1       606 1.01554E-04-5.76287E-05-1.85215E-05-4.84397E-05 1.12671E-18-1.33854E-18
 -1       607 9.45970E-05-2.07554E-05-3.16651E-05-9.43161E-06-2.25768E-18-7.68447E-19
 -1       608 9.61651E-05-2.31916E-05-3.12779E-05 9.57992E-06 2.38807E-18-3.26085E-19
 -1       609 6.54945E-05-3.61872E-05-1.20214E-05 4.71636E-05-3.33562E-18-3.97470E-19
 -1       610 1.38833E-04-6.32139E-05-3.25058E-05-1.14850E-05 2.64499E-19-3.91295E-18
 -1       611 9.13527E-05-1.58948E-05-3.23630E-05-7.69841E-06-1.78268E-18-2.20960E-18
 -1       612 9.45983E-05-4.69830E-05-2.00514E-05 4.74471E-05-1.34784E-19-4.53136E-19
 -1       613 9.27624E-05-1.79260E-05-3.20943E-05-8.88497E-06-2.04635E-18-1.68662E-18
 -1       614 8.53052E-05-4.50978E-05-1.66782E-05-4.80100E-05 1.55272E-18-1.31782E-18
 -1       615 1.45838E-04-5.29982E-05-3.99869E-05-1.77150E-05-1.08607E-18 1.94865E-18
 -1       616 5.44475E-05-2.00433E-05-1.41416E-05 3.17432E-05-4.30414E-18 1.64600E-18
 -1       617 1.25581E-04-7.50005E-06-5.12577E-05 5.52392E-06-1.48813E-19-4.07647E-18
 -1       618 1.42994E-04-4.26025E-05-4.34323E-05-6.62560E-06 2.37291E-18-2.70394E-18
 -1       619 1.44124E-04-4.56218E-05-4.25808E-05 1.11636E-05-2.39790E-19-2.06734E-18
 -1       620 1.07669E-04-3.61637E-05-3.06496E-05-1.35620E-05-2.20240E-18 2.96233E-18
 -1       621 9.15484E-05-1.68478E-05-3.20202E-05 2.43934E-06 5.91712E-19-2.87964E-18
 -1       622 9.12891E-05-1.64454E-05-3.20812E-05 8.40110E-07 1.32607E-19-2.85099E-18
 -1       623 9.28885E-05-1.89975E-05-3.16732E-05 5.26273E-06 1.30042E-18-2.31928E-18
 -1       624 9.39879E-05-2.09323E-05-3.13174E-05 6.13781E-06 1.63715E-18-2.00829E-18
 -1       625 9.52738E-05-2.40945E-05-3.04953E-05 5.14536E-06 1.64897E-18-1.52542E-18
 -1       626 9.54198E-05-2.57096E-05-2.98743E-05-2.43151E-06-1.31268E-18-1.33566E-18
 -1       627 9.54760E-05-2.69467E-05-2.93691E-05-8.64670E-07-1.14335E-18-1.24058E-18
 -1       628 9.54198E-05-2.77068E-05-2.90197E-05 1.36769E-07-8.10653E-19-1.42983E-18
 -1       629 9.53435E-05-2.81794E-05-2.87846E-05 7.23927E-07-9.98957E-19-1.63203E-18
 -1       630 9.52788E-05-2.84709E-05-2.86320E-05 1.02450E-06-8.64388E-19-1.51922E-18
 -1       631 9.52333E-05-2.86450E-05-2.85380E-05 1.13530E-06-4.61404E-19-9.43409E-19
 -1       632 9.52056E-05-2.87414E-05-2.84848E-05 1.12660E-06-2.18763E-19-3.28303E-19
 -1       633 9.51915E-05-2.87859E-05-2.84597E-05 1.04845E-06-7.33896E-20-2.37848E-19
 -1       634 9.51872E-05-2.87957E-05-2.84536E-05 9.35959E-07-1.97466E-19-1.65152E-19
 -1       635 9.51893E-05-2.87825E-05-2.84601E-05 8.13416E-07-2.79754E-19-6.45537E-19
 -1       636 9.51956E-05-2.87538E-05-2.84751E-05 6.97580E-07-1.78765E-19-1.02248E-18
 -1       637 9.52047E-05-2.87143E-05-2.84960E-05 6.00170E-07-5.34869E-19-7.13674E-19
 -1       638 9.52159E-05-2.86664E-05-2.85213E-05 5.29803E-07-6.45654E-19-3.27462E-19
 -1       639 9.52287E-05-2.86106E-05-2.85506E-05 4.93490E-07-1.26139E-18-7.08380E-20
 -1       640 9.52432E-05-2.85464E-05-2.85844E-05 4.97812E-07-9.50681E-19-1.52935E-19
 -1       641 9.52595E-05-2.84716E-05-2.86234E-05 5.49822E-07-8.93902E-20 5.01845E-19
 -1       642 9.52776E-05-2.83832E-05-2.86690E-05 6.57738E-07-2.78784E-19 2.07851E-20
 -1       643 9.52972E-05-2.82773E-05-2.87227E-05 8.31458E-07-6.84810E-21-1.35559E-19
 -1       644 9.53177E-05-2.81492E-05-2.87863E-05 1.08288E-06 1.39947E-19-7.96438E-19
 -1       645 9.53371E-05-2.79933E-05-2.88614E-05 1.42602E-06 7.43704E-20-8.83120E-19
 -1       646 9.53523E-05-2.78039E-05-2.89490E-05 1.87685E-06-2.81209E-19-1.29730E-18
 -1       647 9.53583E-05-2.75755E-05-2.90494E-05 2.45279E-06 4.51123E-19-6.59497E-19
 -1       648 9.53480E-05-2.73047E-05-2.91609E-05 3.17164E-06-2.07919E-19-6.69530E-19
 -1       649 9.53128E-05-2.69931E-05-2.92792E-05 4.04983E-06-2.60716E-20-5.70307E-19
 -1       650 9.52456E-05-2.66537E-05-2.93957E-05 5.09978E-06 4.35341E-21 1.99096E-19
 -1       651 9.51472E-05-2.63221E-05-2.94955E-05 6.32616E-06 6.05532E-19 5.26404E-19
 -1       652 9.50419E-05-2.60759E-05-2.95557E-05 7.72115E-06 7.50575E-19 7.65013E-19
 -1       653 9.50057E-05-2.60668E-05-2.95441E-05 9.25825E-06 4.17145E-19 3.01789E-19
 -1       654 9.52186E-05-2.65667E-05-2.94213E-05 1.08829E-05-6.71274E-19 1.42283E-18
 -1       655 9.60447E-05-2.80247E-05-2.91506E-05 1.24915E-05-1.64367E-18 1.10368E-18
 -1       656 9.81432E-05-3.11105E-05-2.87266E-05 1.38780E-05 5.67454E-19 1.62760E-18
 -1       657 1.02588E-04-3.66621E-05-2.82443E-05 1.45331E-05 2.64987E-18 1.61231E-18
 -1       658 1.10629E-04-4.51353E-05-2.80466E-05 1.33426E-05 3.90277E-19 4.61894E-19
 -1       659 1.23000E-04-5.53023E-05-2.89912E-05 8.14281E-06 1.11184E-18 1.91667E-18
 -1       660 1.36160E-04-5.92919E-05-3.29819E-05-8.87351E-06 7.84107E-19 9.65829E-19
 -1       661 1.21734E-04-5.15534E-05-3.00496E-05-1.89968E-05-1.62526E-18 1.14635E-20
 -1       662 9.49846E-05-2.81159E-05-2.86578E-05-7.39223E-07 9.16339E-19-1.17524E-18
 -1       663 1.08062E-04-3.66897E-05-3.05905E-05-7.77118E-07-1.26866E-18-1.43568E-20
 -1       664 9.50954E-05-2.77094E-05-2.88791E-05-1.30465E-07 8.67839E-19-1.54741E-18
 -1       665 9.49015E-05-2.85288E-05-2.84456E-05-1.15958E-06 3.69160E-19-1.02858E-18
 -1       666 9.49095E-05-2.86232E-05-2.84086E-05-1.14926E-06 7.65885E-19-1.09540E-18
 -1       667 9.49353E-05-2.86744E-05-2.83977E-05-1.06806E-06 2.44568E-19-9.60827E-19
 -1       668 9.49707E-05-2.86961E-05-2.84036E-05-9.51700E-07 2.50000E-19-9.68448E-19
 -1       669 9.50101E-05-2.86975E-05-2.84198E-05-8.24670E-07 3.83657E-19-4.34667E-19
 -1       670 9.50501E-05-2.86850E-05-2.84423E-05-7.03654E-07 2.09422E-19-2.91007E-19
 -1       671 9.50892E-05-2.86625E-05-2.84687E-05-6.00146E-07 3.77139E-19-6.32745E-19
 -1       672 9.51271E-05-2.86325E-05-2.84978E-05-5.22369E-07 6.24081E-20-5.74929E-19
 -1       673 9.51645E-05-2.85962E-05-2.85293E-05-4.76733E-07 1.25916E-19-2.67417E-19
 -1       674 9.52031E-05-2.85541E-05-2.85639E-05-4.68931E-07 5.67615E-20 2.18124E-19
 -1       675 9.52450E-05-2.85058E-05-2.86025E-05-5.04699E-07 4.59992E-19-7.92581E-19
 -1       676 9.52933E-05-2.84512E-05-2.86465E-05-5.90299E-07 5.06587E-19-1.72513E-18
 -1       677 9.53516E-05-2.83900E-05-2.86977E-05-7.32700E-07 8.12727E-19-6.64003E-19
 -1       678 9.54245E-05-2.83231E-05-2.87575E-05-9.39402E-07 2.05218E-19 8.09426E-20
 -1       679 9.55179E-05-2.82528E-05-2.88276E-05-1.21784E-06-3.05381E-20 5.83903E-19
 -1       680 9.56395E-05-2.81844E-05-2.89089E-05-1.57423E-06-2.90437E-19 4.90108E-19
 -1       681 9.57995E-05-2.81277E-05-2.90017E-05-2.01161E-06 2.35692E-19 1.97658E-19
 -1       682 9.60122E-05-2.80993E-05-2.91050E-05-2.52695E-06-6.53188E-19-5.54273E-19
 -1       683 9.62977E-05-2.81257E-05-2.92160E-05-3.10699E-06-8.43730E-19-1.80964E-18
 -1       684 9.66850E-05-2.82473E-05-2.93300E-05-3.72255E-06-4.85090E-19-2.31513E-18
 -1       685 9.72160E-05-2.85219E-05-2.94400E-05-4.32108E-06-7.39444E-19-1.09643E-18
 -1       686 9.79493E-05-2.90277E-05-2.95378E-05-4.81748E-06 9.10662E-20 4.34938E-19
 -1       687 9.89626E-05-2.98605E-05-2.96157E-05-5.08371E-06 6.98487E-19 1.20911E-18
 -1       688 1.00348E-04-3.11184E-05-2.96711E-05-4.93896E-06-9.36401E-19 1.80346E-18
 -1       689 1.02189E-04-3.28621E-05-2.97141E-05-4.14539E-06-1.65727E-18 1.13112E-18
 -1       690 1.04505E-04-3.50324E-05-2.97775E-05-2.42362E-06-1.56201E-18 1.13263E-18
 -1       691 1.07142E-04-3.73214E-05-2.99275E-05 4.85214E-07 3.27011E-19 1.39229E-18
 -1       692 1.09624E-04-3.90113E-05-3.02651E-05 4.64968E-06 5.42407E-19 9.78136E-19
 -1       693 1.11086E-04-3.89759E-05-3.09061E-05 9.61721E-06 1.32555E-18 1.61959E-18
 -1       694 1.10503E-04-3.60850E-05-3.19023E-05 1.40439E-05 4.85265E-19 1.45507E-18
 -1       695 1.07560E-04-3.03018E-05-3.31204E-05 1.56407E-05-3.48279E-19 2.69485E-18
 -1       696 1.03478E-04-2.36854E-05-3.42198E-05 1.25418E-05-7.26713E-19 8.60527E-19
 -1       697 1.01064E-04-2.02044E-05-3.46801E-05 5.21744E-06 1.28747E-18 2.87146E-19
 -1       698 1.01880E-04-2.19949E-05-3.42553E-05-2.68439E-06-3.57456E-19 3.94369E-19
 -1       699 1.04803E-04-2.75283E-05-3.31347E-05-7.19453E-06 6.59756E-19-3.25651E-19
 -1       700 1.06946E-04-3.27363E-05-3.18131E-05-7.07115E-06 1.06241E-18-5.43790E-19
 -1       701 1.08499E-04-3.57426E-05-3.11942E-05-4.44877E-06-5.50676E-19 2.05832E-19
 -1       702 8.40999E-05-2.87527E-05-2.34286E-05 3.77894E-05-1.16660E-18 2.94717E-18
 -1       703 1.12726E-04-4.29718E-05-2.98537E-05-2.15638E-05-5.04435E-19-1.02804E-18
 -1       704 1.16546E-04-4.62771E-05-3.00965E-05 2.27961E-05 6.98710E-19-3.08092E-18
 -1       705 6.02501E-05-1.46981E-05-1.91039E-05 2.31912E-05-3.39144E-19-1.02160E-18
 -1       706 1.07056E-04-4.31428E-05-2.72899E-05 3.51731E-05-8.98186E-19-3.20890E-18
 -1       707 4.79547E-05-1.06273E-05-1.53947E-05-2.10159E-06-9.61799E-19-1.33884E-18
 -1       708 9.60502E-05-3.58966E-05-2.56318E-05-3.58041E-05 8.86420E-19-5.62430E-19
 -1       709 1.40146E-04-6.49731E-05-3.22955E-05-1.73803E-05 2.10071E-18-1.84026E-18
 -1       710 1.40501E-04-5.14147E-05-3.84857E-05 6.26230E-06-7.07273E-20 2.61601E-19
 -1       711 7.65345E-05-4.01939E-05-1.51948E-05 3.46973E-05 1.51659E-18-1.82210E-18
 -1       712 9.52347E-05-2.70420E-05-2.92232E-05 9.21593E-07 1.00244E-18-1.44096E-18
 -1       713 9.49225E-05-2.83706E-05-2.85222E-05-1.04746E-06 6.14484E-19-9.71723E-19
 -1       714 6.04014E-05-2.29997E-05-1.54881E-05-3.39073E-05 9.38989E-19-2.44898E-19
 -1       715 9.50369E-05-2.36743E-05-3.05854E-05-4.72188E-06-1.54464E-18-1.13761E-18
 -1       716 1.30135E-04-2.07728E-05-4.74080E-05-9.59646E-06 3.02497E-18-3.03463E-18
 -1       717 5.11466E-05-2.19302E-05-1.20221E-05-2.75775E-05 4.09461E-19-3.29999E-19
 -1       718 9.53411E-05-2.59444E-05-2.97380E-05 2.59996E-06 1.39130E-18-1.54849E-18
 -1       719 9.20739E-05-1.76749E-05-3.18911E-05 3.94762E-06 1.03671E-18-2.72594E-18
 -1       720 3.45035E-05-1.35369E-05-8.41459E-06-2.50652E-06 9.16182E-19-4.63533E-18
 -1       721 8.90322E-05-4.61704E-05-1.81005E-05-3.76733E-05-2.18032E-19-3.42360E-19
 -1       722 9.20337E-05-1.76182E-05-3.18981E-05-3.89576E-06-9.67886E-19-2.43379E-18
 -1       723 1.17992E-04-6.01516E-05-2.46654E-05-2.68695E-05-4.53560E-20-2.81457E-18
 -1       724 1.30319E-04-1.89397E-05-4.83408E-05 1.70188E-05-1.60444E-18-3.05821E-18
 -1       725 4.80139E-05-2.26574E-05-1.03034E-05 2.45063E-05 3.13905E-19-2.09387E-18
 -1       726 1.15444E-04-5.99456E-05-2.35285E-05 2.51178E-05 1.31168E-18 2.19307E-19
 -1       727 1.36041E-04-6.51410E-05-3.04271E-05 5.73758E-06 1.92177E-18 1.81033E-18
 -1       728 9.41975E-05-2.12084E-05-3.12785E-05-6.73725E-06-1.84441E-18-1.43836E-18
 -1       729 1.19130E-04-6.02292E-05-2.49768E-05-3.88448E-05 1.10747E-18-3.36187E-18
 -1       730 9.28545E-05-1.89358E-05-3.16818E-05-5.22299E-06-1.48404E-18-2.16341E-18
 -1       731 9.12824E-05-1.64364E-05-3.20822E-05-7.83468E-07-2.76112E-19-2.79827E-18
 -1       732 1.21551E-04-1.32385E-05-4.68659E-05-4.63958E-06 2.35814E-18-2.76947E-18
 -1       733 1.18251E-04-5.78985E-05-2.56478E-05 3.96309E-05 1.90900E-19-2.96172E-18
 -1       734 1.15982E-04-4.34664E-05-3.10790E-05 1.09647E-05 9.58185E-19-1.48476E-18
 -1       735 1.11717E-04-4.68778E-05-2.76995E-05-3.07895E-05-1.35350E-18-4.33274E-19
 -1       736 1.40516E-04-6.10029E-05-3.41497E-05 1.39075E-05-5.74715E-19-1.45028E-18
 -1       737 1.40028E-04-5.64814E-05-3.59587E-05 3.39184E-06 3.66428E-19-2.37484E-18
 -1       738 7.43519E-05-3.29748E-05-1.75143E-05-3.21107E-05-1.12178E-18-5.40711E-19
 -1       739 9.15251E-05-1.68160E-05-3.20237E-05-2.37888E-06-6.67293E-19-2.58148E-18
 -1       740 1.31144E-04-3.12550E-05-4.31369E-05 1.90456E-05-4.56101E-19-3.20885E-18
 -1       741 1.39370E-04-5.31902E-05-3.71612E-05 1.69398E-06 6.24195E-19-5.69560E-18
 -1       742 9.46703E-05-2.27639E-05-3.08141E-05 3.90321E-06 1.34641E-18-1.90474E-18
 -1       743 1.27403E-04-3.37815E-05-4.03745E-05-1.00171E-05 3.23050E-19-2.43891E-18
 -1       744 9.34665E-05-1.99309E-05-3.15153E-05-6.09376E-06-1.70095E-18-1.87306E-18
 -1       745 9.58662E-05-2.68850E-05-2.95634E-05-5.80725E-07-1.01364E-18-1.38850E-18
 -1       746 9.59592E-05-2.77750E-05-2.92219E-05 2.20493E-07-8.67008E-19-1.16621E-18
 -1       747 9.59482E-05-2.83374E-05-2.89761E-05 6.96909E-07-9.10886E-19-1.17209E-18
 -1       748 9.58878E-05-2.86792E-05-2.88037E-05 9.40740E-07-3.37479E-20-1.30839E-18
 -1       749 9.58077E-05-2.88725E-05-2.86865E-05 1.02672E-06-1.74904E-19-1.25510E-18
 -1       750 9.57232E-05-2.89657E-05-2.86104E-05 1.01235E-06-1.44875E-19-1.03386E-18
 -1       751 9.56424E-05-2.89925E-05-2.85643E-05 9.40135E-07 1.25847E-20-1.17075E-18
 -1       752 9.55689E-05-2.89756E-05-2.85400E-05 8.40549E-07-2.71312E-19-7.85039E-19
 -1       753 9.55041E-05-2.89302E-05-2.85317E-05 7.35121E-07-4.32694E-19-1.04919E-18
 -1       754 9.54476E-05-2.88661E-05-2.85350E-05 6.39027E-07-2.80279E-19-8.94397E-19
 -1       755 9.53980E-05-2.87884E-05-2.85470E-05 5.63202E-07-6.12363E-19-8.15117E-19
 -1       756 9.53533E-05-2.86993E-05-2.85660E-05 5.16016E-07-1.00673E-18-6.79696E-19
 -1       757 9.53106E-05-2.85982E-05-2.85911E-05 5.04598E-07-7.94218E-19-2.36347E-19
 -1       758 9.52665E-05-2.84824E-05-2.86218E-05 5.35854E-07-2.91765E-19-7.42326E-20
 -1       759 9.52165E-05-2.83474E-05-2.86581E-05 6.17217E-07-5.25578E-19-5.82141E-19
 -1       760 9.51551E-05-2.81874E-05-2.87005E-05 7.57171E-07-4.06022E-19-6.17582E-19
 -1       761 9.50755E-05-2.79947E-05-2.87489E-05 9.65555E-07 2.25716E-19-6.21640E-19
 -1       762 9.49688E-05-2.77611E-05-2.88033E-05 1.25364E-06 3.06389E-19-1.44275E-19
 -1       763 9.48236E-05-2.74771E-05-2.88627E-05 1.63394E-06-4.60594E-20-1.25455E-20
 -1       764 9.46253E-05-2.71333E-05-2.89251E-05 2.11978E-06-4.99071E-20-3.16226E-19
 -1       765 9.43558E-05-2.67212E-05-2.89862E-05 2.72452E-06-2.78437E-19-5.13006E-19
 -1       766 9.39932E-05-2.62361E-05-2.90386E-05 3.46064E-06 2.77327E-19-6.02272E-19
 -1       767 9.35132E-05-2.56813E-05-2.90706E-05 4.33894E-06 5.71059E-19-2.88061E-19
 -1       768 9.28931E-05-2.50763E-05-2.90641E-05 5.36852E-06 3.09710E-19 9.29913E-19
 -1       769 9.21205E-05-2.44707E-05-2.89925E-05 6.55901E-06 8.21438E-19 1.36547E-18
 -1       770 9.12111E-05-2.39667E-05-2.88186E-05 7.92743E-06 4.51625E-19 1.33763E-18
 -1       771 9.02424E-05-2.37552E-05-2.84940E-05 9.51254E-06 2.56949E-19 1.04152E-18
 -1       772 8.94139E-05-2.41696E-05-2.79608E-05 1.13968E-05-9.44513E-19 6.54349E-19
 -1       773 8.91495E-05-2.57583E-05-2.71638E-05 1.37201E-05 3.41338E-20 1.02344E-18
 -1       774 9.02178E-05-2.93433E-05-2.60756E-05 1.66799E-05 1.04213E-18 1.74883E-19
 -1       775 9.43886E-05-3.63525E-05-2.48526E-05 2.02589E-05 1.03837E-18-8.79889E-19
 -1       776 1.02076E-04-4.67192E-05-2.35586E-05 2.40251E-05 1.72223E-18-8.69797E-20
 -1       777 5.02780E-05-1.49476E-05-1.48274E-05-1.11860E-05-1.33255E-19-1.54316E-18
 -1       778 9.57294E-05-2.77499E-05-2.91341E-05-1.99431E-07 6.27905E-19-1.21730E-18
 -1       779 9.56902E-05-2.69116E-05-2.94769E-05 6.88262E-07 8.05486E-19-1.48223E-18
 -1       780 9.55038E-05-2.88688E-05-2.85579E-05-1.07245E-06 4.27949E-19-7.44848E-19
 -1       781 9.55643E-05-2.87746E-05-2.86242E-05-1.08562E-06 6.07594E-19-9.74632E-19
 -1       782 9.54068E-05-2.88975E-05-2.85040E-05-8.89888E-07-2.45263E-19-8.46874E-19
 -1       783 9.53701E-05-2.88660E-05-2.85018E-05-7.75965E-07 7.88727E-20-8.32408E-19
 -1       784 9.53401E-05-2.88174E-05-2.85098E-05-6.70462E-07 4.09903E-19-2.22981E-19
 -1       785 9.53155E-05-2.87567E-05-2.85252E-05-5.84667E-07 3.47856E-19-3.20953E-19
 -1       786 9.52948E-05-2.86864E-05-2.85464E-05-5.26984E-07 1.33325E-19-2.97384E-19
 -1       787 9.52765E-05-2.86072E-05-2.85726E-05-5.04317E-07-2.08409E-19-6.83997E-19
 -1       788 9.52593E-05-2.85179E-05-2.86035E-05-5.23059E-07 5.67526E-19-3.33166E-19
 -1       789 9.52417E-05-2.84168E-05-2.86392E-05-5.89798E-07 6.48952E-19-6.26031E-20
 -1       790 9.52225E-05-2.83019E-05-2.86802E-05-7.11717E-07 1.77119E-19 7.16872E-19
 -1       791 9.52008E-05-2.81715E-05-2.87268E-05-8.96709E-07-5.46653E-20 1.06525E-18
 -1       792 9.51766E-05-2.80255E-05-2.87790E-05-1.15314E-06-8.88254E-21 1.18412E-18
 -1       793 9.51516E-05-2.78667E-05-2.88363E-05-1.48919E-06-3.17203E-19 1.14169E-18
 -1       794 9.51301E-05-2.77025E-05-2.88975E-05-1.91171E-06 2.12619E-19 1.20209E-18
 -1       795 9.51214E-05-2.75481E-05-2.89598E-05-2.42439E-06 5.08339E-19 7.45416E-19
 -1       796 9.51423E-05-2.74303E-05-2.90193E-05-3.02517E-06-4.87423E-19-1.78701E-19
 -1       797 9.52222E-05-2.73917E-05-2.90700E-05-3.70260E-06-6.84061E-19 6.93743E-20
 -1       798 9.54089E-05-2.74977E-05-2.91047E-05-4.43096E-06-1.18041E-18 5.33406E-19
 -1       799 9.57775E-05-2.78412E-05-2.91154E-05-5.16360E-06-5.77193E-19-1.68339E-21
 -1       800 9.64387E-05-2.85475E-05-2.90961E-05-5.82351E-06-3.08394E-19 1.79498E-19
 -1       801 9.75470E-05-2.97695E-05-2.90476E-05-6.28971E-06-7.21501E-19 7.43567E-19
 -1       802 9.92973E-05-3.16662E-05-2.89850E-05-6.37677E-06-8.36895E-19 7.42581E-19
 -1       803 1.01894E-04-3.43404E-05-2.89523E-05-5.80510E-06-1.30511E-18-6.78093E-19
 -1       804 1.05451E-04-3.77012E-05-2.90384E-05-4.18494E-06-5.95674E-19-1.55206E-18
 -1       805 1.09837E-04-4.12619E-05-2.93925E-05-1.03629E-06-2.98872E-19-1.73313E-18
 -1       806 1.14303E-04-4.37619E-05-3.02266E-05 3.96394E-06 1.90453E-19-2.57204E-20
 -1       807 1.17310E-04-4.31867E-05-3.17780E-05 1.04167E-05 5.66081E-20 1.97361E-18
 -1       808 1.16976E-04-3.74868E-05-3.40893E-05 1.63627E-05-4.28245E-19 2.11504E-18
 -1       809 1.12544E-04-2.70220E-05-3.67980E-05 1.75636E-05-2.10686E-19 1.23007E-18
 -1       810 1.07855E-04-1.79146E-05-3.87170E-05 1.11673E-05-3.12463E-19 6.89049E-19
 -1       811 1.07065E-04-1.64866E-05-3.89546E-05 2.43857E-07 4.21333E-20 2.71829E-18
 -1       812 1.11272E-04-2.43216E-05-3.73530E-05-7.52247E-06 4.30068E-20 1.79831E-18
 -1       813 1.15127E-04-3.40443E-05-3.47995E-05-8.16498E-06 1.79372E-18 3.81075E-19
 -1       814 9.31985E-05-1.97750E-05-3.14684E-05 1.23249E-06 3.19992E-19-2.44344E-18
 -1       815 1.24760E-04-5.58656E-05-2.94259E-05 2.68868E-05-1.13267E-18-3.36202E-18
 -1       816 7.82527E-05-3.29210E-05-1.87822E-05 4.18781E-05-5.63039E-19 3.42543E-18
 -1       817 9.94974E-05-4.51421E-05-2.32017E-05-4.04236E-05 1.58252E-18-2.69245E-18
 -1       818 1.27851E-04-6.07027E-05-2.87600E-05-1.31300E-05 5.00537E-19-3.02562E-18
 -1       819 9.54511E-05-2.89030E-05-2.85207E-05-9.96303E-07 2.36384E-19-8.96811E-19
 -1       820 1.25387E-04-5.86851E-05-2.84966E-05-2.73423E-05-2.85318E-19-1.06298E-18
 -1       821 4.92705E-05-1.51957E-05-1.42718E-05 9.74004E-06 1.61218E-18-3.91636E-18
 -1       822 1.16228E-04-1.41609E-05-4.41237E-05 1.21672E-05-5.25928E-19 1.39758E-18
 -1       823 9.49190E-05-2.34355E-05-3.06375E-05-3.51271E-06-1.36478E-18-1.67399E-18
 -1       824 9.52050E-05-2.44723E-05-3.03139E-05 3.42141E-06 1.43344E-18-1.54319E-18
 -1       825 6.92086E-05-2.82731E-05-1.72798E-05 2.58920E-05 1.90482E-18-1.09659E-18
 -1       826 1.04287E-04-4.92771E-05-2.34222E-05-2.69016E-05-5.79933E-19-1.99405E-18
 -1       827 9.55730E-05-2.55131E-05-3.00259E-05-1.80194E-06-1.11423E-18-1.52154E-18
 -1       828 9.30872E-05-1.95752E-05-3.15063E-05 2.07194E-08-1.73329E-20-2.54473E-18
 -1       829 1.19943E-04-2.48541E-05-4.10126E-05-9.35738E-06 2.45809E-18-2.94222E-18
 -1       830 1.32594E-04-4.33397E-05-3.84754E-05 1.55962E-05-9.43648E-20-2.43885E-18
 -1       831 1.25981E-04-5.12057E-05-3.20578E-05 1.16046E-05-4.04860E-19-3.38295E-18
 -1       832 9.56915E-05-2.82714E-05-2.88944E-05-7.22401E-07 6.36625E-19-1.23016E-18
 -1       833 9.40195E-05-2.13494E-05-3.11452E-05 3.30611E-06 1.02846E-18-2.25726E-18
 -1       834 9.55463E-05-2.59329E-05-2.98360E-05 1.83540E-06 1.11841E-18-1.52977E-18
 -1       835 9.56296E-05-2.85903E-05-2.87312E-05-9.89953E-07 2.90463E-19-1.09036E-18
 -1       836 1.17748E-04-3.99849E-05-3.33521E-05-4.12912E-06-4.09284E-19 2.18585E-18
 -1       837 9.35147E-05-2.03602E-05-3.13532E-05 2.35985E-06 6.81054E-19-2.44834E-18
 -1       838 1.18199E-04-4.27702E-05-3.23303E-05 6.26362E-07 1.01105E-18 8.42470E-19
 -1       839 6.37734E-05-2.16864E-05-1.78909E-05-2.13669E-05-8.31366E-19-3.02748E-19
 -1       840 1.14704E-04-5.33998E-05-2.62355E-05-1.78543E-05-4.35410E-19-4.06251E-18
 -1       841 9.34872E-05-2.03219E-05-3.13583E-05-2.32118E-06-7.55875E-19-2.28618E-18
 -1       842 9.39832E-05-2.12912E-05-3.11564E-05-3.27094E-06-1.06262E-18-1.87417E-18
 -1       843 1.12804E-04-1.24574E-05-4.33419E-05 5.12501E-06-1.54168E-18 9.68834E-19
 -1       844 6.40889E-05-1.98661E-05-1.88306E-05 1.57532E-05 1.97641E-18-2.05374E-18
 -1       845 9.60417E-05-2.89827E-05-2.87396E-05-9.42933E-07 7.10449E-20-5.86086E-19
 -1       846 9.61962E-05-2.69961E-05-2.96573E-05-2.86994E-07-7.76645E-19-1.26695E-18
 -1       847 1.25537E-04-4.35091E-05-3.52286E-05-3.90765E-06-1.24712E-18-3.43611E-20
 -1       848 9.63626E-05-2.79270E-05-2.93297E-05 2.91798E-07-7.34093E-19-1.31245E-18
 -1       849 9.63831E-05-2.85193E-05-2.90845E-05 6.35752E-07-7.15001E-19-9.65143E-19
 -1       850 9.63195E-05-2.88742E-05-2.89051E-05 8.06665E-07-3.92835E-19-1.48714E-18
 -1       851 9.62121E-05-2.90648E-05-2.87774E-05 8.59378E-07-5.80515E-20-1.85381E-18
 -1       852 9.60860E-05-2.91435E-05-2.86897E-05 8.37465E-07-1.08310E-20-1.84021E-18
 -1       853 9.59565E-05-2.91476E-05-2.86324E-05 7.73677E-07 3.59396E-20-1.86103E-18
 -1       854 9.58320E-05-2.91027E-05-2.85983E-05 6.91860E-07-6.31434E-19-1.93699E-18
 -1       855 9.57164E-05-2.90259E-05-2.85817E-05 6.09168E-07-2.65633E-19-1.65364E-18
 -1       856 9.56103E-05-2.89273E-05-2.85784E-05 5.37923E-07-1.33193E-19-1.18752E-18
 -1       857 9.55115E-05-2.88121E-05-2.85855E-05 4.87233E-07-5.04427E-19-6.49131E-19
 -1       858 9.54163E-05-2.86812E-05-2.86008E-05 4.64336E-07-4.65653E-19-3.43898E-19
 -1       859 9.53192E-05-2.85326E-05-2.86228E-05 4.75633E-07-8.42458E-19 6.58722E-20
 -1       860 9.52129E-05-2.83613E-05-2.86507E-05 5.27435E-07-5.71785E-19-2.79690E-20
 -1       861 9.50886E-05-2.81604E-05-2.86835E-05 6.26460E-07-5.54494E-19 1.61278E-19
 -1       862 9.49354E-05-2.79211E-05-2.87204E-05 7.80105E-07 1.53904E-19 2.89354E-20
 -1       863 9.47398E-05-2.76332E-05-2.87600E-05 9.96466E-07 3.21739E-19 2.86151E-19
 -1       864 9.44856E-05-2.72854E-05-2.88001E-05 1.28410E-06 3.43220E-19 8.63030E-19
 -1       865 9.41525E-05-2.68657E-05-2.88372E-05 1.65155E-06-2.99886E-19 3.52060E-19
 -1       866 9.37162E-05-2.63630E-05-2.88657E-05 2.10658E-06-5.45856E-19 1.91735E-19
 -1       867 9.31473E-05-2.57682E-05-2.88767E-05 2.65546E-06-1.05278E-19-4.52481E-19
 -1       868 9.24112E-05-2.50776E-05-2.88573E-05 3.30248E-06 8.79401E-19-4.41685E-19
 -1       869 9.14692E-05-2.42971E-05-2.87880E-05 4.05078E-06 5.87566E-19-7.02704E-19
 -1       870 9.02804E-05-2.34505E-05-2.86414E-05 4.90597E-06 1.32210E-18-4.71155E-19
 -1       871 8.88071E-05-2.25904E-05-2.83786E-05 5.88560E-06 4.97951E-19-3.76683E-19
 -1       872 8.70238E-05-2.18159E-05-2.79464E-05 7.03934E-06 5.15098E-19-1.39665E-18
 -1       873 8.49352E-05-2.12989E-05-2.72726E-05 8.48646E-06-9.00546E-19-2.24402E-18
 -1       874 8.26068E-05-2.13279E-05-2.62622E-05 1.04799E-05 4.08144E-19-1.40757E-18
 -1       875 8.02615E-05-2.24039E-05-2.47899E-05 1.35031E-05 4.14563E-19-1.41687E-18
 -1       876 5.78170E-05-1.45740E-05-1.83806E-05 7.12833E-07 5.41551E-19-1.79196E-18
 -1       877 9.56268E-05-2.89849E-05-2.85608E-05-6.69237E-07-1.00285E-19-2.28555E-19
 -1       878 9.57213E-05-2.90482E-05-2.85741E-05-7.62783E-07 1.88671E-19 1.99922E-19
 -1       879 9.54633E-05-2.88028E-05-2.85688E-05-5.24579E-07 1.13834E-19 2.06267E-19
 -1       880 9.53898E-05-2.86914E-05-2.85850E-05-4.91080E-07 1.71043E-19 3.49487E-19
 -1       881 9.53171E-05-2.85664E-05-2.86074E-05-4.92728E-07 5.12622E-19-3.30487E-19
 -1       882 9.52406E-05-2.84254E-05-2.86351E-05-5.36005E-07-1.71255E-19-9.98031E-20
 -1       883 9.51553E-05-2.82647E-05-2.86674E-05-6.27782E-07 3.19881E-19 6.20324E-19
 -1       884 9.50557E-05-2.80809E-05-2.87035E-05-7.75671E-07 1.06686E-19 8.63831E-19
 -1       885 9.49368E-05-2.78709E-05-2.87425E-05-9.88125E-07 2.05850E-19 3.84826E-19
 -1       886 9.47942E-05-2.76344E-05-2.87828E-05-1.27428E-06-2.18935E-19 6.37240E-19
 -1       887 9.46260E-05-2.73751E-05-2.88218E-05-1.64354E-06 1.42838E-19 2.48692E-19
 -1       888 9.44342E-05-2.71041E-05-2.88557E-05-2.10477E-06 3.67517E-19-3.43284E-19
 -1       889 9.42279E-05-2.68430E-05-2.88792E-05-2.66523E-06-1.78168E-19 2.94403E-19
 -1       890 9.40283E-05-2.66296E-05-2.88851E-05-3.32908E-06-7.96743E-19 5.55348E-19
 -1       891 9.38749E-05-2.65241E-05-2.88645E-05-4.09536E-06-1.03585E-18 7.78541E-19
 -1       892 9.38347E-05-2.66163E-05-2.88078E-05-4.95518E-06-3.34622E-19-5.65239E-19
 -1       893 9.40154E-05-2.70345E-05-2.87060E-05-5.88698E-06-3.13006E-19 7.30173E-20
 -1       894 9.45799E-05-2.79508E-05-2.85552E-05-6.84698E-06-1.35795E-18 6.87912E-19
 -1       895 9.57612E-05-2.95793E-05-2.83635E-05-7.75165E-06-3.68661E-19-7.90198E-20
 -1       896 9.78779E-05-3.21609E-05-2.81634E-05-8.44175E-06-4.63443E-19-4.67323E-19
 -1       897 1.01309E-04-3.58838E-05-2.80381E-05-8.58761E-06-7.38101E-19-1.20125E-19
 -1       898 1.06340E-04-4.06650E-05-2.81485E-05-7.58909E-06 3.58194E-19-7.82143E-19
 -1       899 1.13099E-04-4.59364E-05-2.88141E-05-4.40318E-06-7.35327E-19-4.87825E-19
 -1       900 1.20543E-04-4.97158E-05-3.03731E-05 1.65299E-06-9.11881E-19-7.48460E-19
 -1       901 1.24917E-04-4.75957E-05-3.31909E-05 9.88708E-06-1.02470E-18-1.54078E-18
 -1       902 1.29398E-04-5.37895E-05-3.25105E-05 3.41724E-06-4.74854E-19-8.27239E-19
 -1       903 1.21108E-04-2.52003E-05-4.13739E-05 1.82466E-05-3.98330E-19 1.56039E-19
 -1       904 9.55413E-05-2.89013E-05-2.85600E-05-5.86544E-07 9.24426E-20-3.05172E-19
 -1       905 9.49949E-05-2.35218E-05-3.06288E-05-2.38868E-06-9.66392E-19-1.61750E-18
 -1       906 9.31899E-05-1.97607E-05-3.14709E-05-1.19318E-06-4.17344E-19-2.35815E-18
 -1       907 1.29893E-04-4.97344E-05-3.44459E-05 2.34789E-06 8.90046E-21-5.20239E-18
 -1       908 8.81378E-05-3.58866E-05-2.22947E-05-2.50450E-05 6.94416E-19-2.46441E-18
 -1       909 9.58019E-05-2.56139E-05-3.00824E-05-1.17616E-06-8.30193E-19-1.32677E-18
 -1       910 9.60553E-05-2.69564E-05-2.96139E-05 3.94177E-07 5.71744E-19-1.55929E-18
 -1       911 7.96156E-05-2.58938E-05-2.29659E-05 1.83530E-05 5.51218E-19-1.53950E-18
 -1       912 9.59335E-05-2.90676E-05-2.86568E-05-9.22535E-07 2.89442E-19-9.39822E-20
 -1       913 9.61369E-05-2.87912E-05-2.88625E-05-8.77582E-07 1.42162E-19-1.22697E-18
 -1       914 9.61897E-05-2.78652E-05-2.92821E-05-2.77584E-07 6.53191E-19-1.74903E-18
 -1       915 9.52463E-05-2.42327E-05-3.04363E-05 2.25320E-06 1.03776E-18-1.78471E-18
 -1       916 9.57426E-05-2.58328E-05-2.99593E-05 1.28306E-06 9.67272E-19-1.65601E-18
 -1       917 9.45377E-05-2.22703E-05-3.09719E-05 4.30751E-07 2.72978E-20-2.11957E-18
 -1       918 9.58243E-05-2.90811E-05-2.86042E-05-8.53500E-07 1.59856E-19 4.94107E-21
 -1       919 9.46826E-05-2.26106E-05-3.08886E-05 1.21978E-06 3.22453E-19-2.14368E-18
 -1       920 6.26915E-05-1.65935E-05-1.96854E-05-9.60999E-06 7.27563E-20 1.26810E-19
 -1       921 9.46893E-05-2.26065E-05-3.08907E-05-1.20615E-06-5.28429E-19-2.13287E-18
 -1       922 9.80322E-05-4.18567E-05-2.40366E-05-2.22697E-05 1.22140E-18-3.49346E-18
 -1       923 9.48155E-05-2.29552E-05-3.07938E-05-1.84779E-06-6.70559E-19-2.02263E-18
 -1       924 9.66712E-05-2.81491E-05-2.93666E-05 3.09753E-07-6.90507E-19-1.47480E-18
 -1       925 9.66876E-05-2.87214E-05-2.91283E-05 5.26807E-07-5.24239E-19-1.36953E-18
 -1       926 9.66062E-05-2.90541E-05-2.89508E-05 6.26908E-07-4.36213E-19-1.10464E-18
 -1       927 9.64719E-05-2.92205E-05-2.88221E-05 6.49049E-07-1.53639E-19-1.02337E-18
 -1       928 9.63127E-05-2.92726E-05-2.87315E-05 6.23169E-07-6.85647E-20-1.16894E-18
 -1       929 9.61472E-05-2.92489E-05-2.86707E-05 5.71642E-07-4.06028E-19-1.08620E-18
 -1       930 9.59857E-05-2.91750E-05-2.86332E-05 5.11101E-07-1.75404E-19-8.96063E-19
 -1       931 9.58328E-05-2.90679E-05-2.86135E-05 4.53663E-07 2.54058E-19-7.57085E-19
 -1       932 9.56885E-05-2.89370E-05-2.86078E-05 4.08067E-07-2.29516E-19-9.53712E-19
 -1       933 9.55496E-05-2.87863E-05-2.86128E-05 3.80954E-07-3.23071E-19-8.71765E-19
 -1       934 9.54100E-05-2.86152E-05-2.86263E-05 3.77787E-07-2.83244E-19-1.19558E-18
 -1       935 9.52614E-05-2.84197E-05-2.86464E-05 4.03498E-07-2.21323E-19-2.87548E-19
 -1       936 9.50931E-05-2.81929E-05-2.86715E-05 4.62911E-07-8.77658E-20 3.86815E-19
 -1       937 9.48922E-05-2.79257E-05-2.87000E-05 5.60949E-07 1.49267E-19 1.21862E-18
 -1       938 9.46429E-05-2.76073E-05-2.87296E-05 7.02602E-07 3.90465E-19 1.35343E-18
 -1       939 9.43265E-05-2.72255E-05-2.87576E-05 8.92635E-07 4.36367E-20 5.37991E-19
 -1       940 9.39206E-05-2.67679E-05-2.87798E-05 1.13502E-06-3.14139E-19 2.24362E-19
 -1       941 9.33985E-05-2.62223E-05-2.87899E-05 1.43213E-06-6.68924E-19 4.09142E-20
 -1       942 9.27287E-05-2.55781E-05-2.87789E-05 1.78373E-06 6.92928E-20 2.44931E-19
 -1       943 9.18738E-05-2.48286E-05-2.87338E-05 2.18618E-06-4.05381E-19 7.76213E-19
 -1       944 9.07898E-05-2.39733E-05-2.86358E-05 2.63230E-06 4.74878E-19-5.92916E-19
 -1       945 8.94246E-05-2.30211E-05-2.84589E-05 3.11318E-06 6.72558E-19-1.63420E-18
 -1       946 8.77152E-05-2.19950E-05-2.81662E-05 3.62397E-06 8.89079E-19-2.02360E-18
 -1       947 8.55828E-05-2.09356E-05-2.77065E-05 4.17676E-06 1.80058E-19-2.61219E-18
 -1       948 8.29205E-05-1.99046E-05-2.70075E-05 4.82678E-06-3.67163E-19-2.21272E-18
 -1       949 7.95670E-05-1.89875E-05-2.59622E-05 5.72344E-06-4.37827E-19-2.80879E-18
 -1       950 7.53089E-05-1.82847E-05-2.44258E-05 7.18246E-06 6.83509E-19-2.16827E-18
 -1       951 9.59224E-05-2.91449E-05-2.86189E-05-5.94370E-07 1.33260E-19-2.06207E-20
 -1       952 6.82542E-05-1.73654E-05-2.17602E-05 8.60700E-06 9.26335E-19-2.25027E-18
 -1       953 9.61980E-05-2.84422E-05-2.90382E-05-6.77023E-07 2.13955E-19-1.44571E-18
 -1       954 9.54136E-05-2.86469E-05-2.86143E-05-4.19550E-07 2.72920E-19-1.35747E-19
 -1       955 9.55339E-05-2.87989E-05-2.86007E-05-4.30561E-07 1.24184E-19-1.95258E-19
 -1       956 9.51518E-05-2.82808E-05-2.86590E-05-5.00169E-07 3.80072E-19-1.47393E-19
 -1       957 9.49940E-05-2.80573E-05-2.86872E-05-6.04502E-07 4.55891E-19-5.78313E-19
 -1       958 9.48060E-05-2.77998E-05-2.87170E-05-7.61391E-07-2.65089E-19-2.22023E-20
 -1       959 9.45786E-05-2.75046E-05-2.87460E-05-9.79673E-07-8.95975E-20 9.93450E-19
 -1       960 9.43033E-05-2.71710E-05-2.87710E-05-1.26948E-06-3.07695E-19-3.57937E-19
 -1       961 9.39746E-05-2.68043E-05-2.87873E-05-1.64230E-06 6.06396E-19-3.86027E-21
 -1       962 9.35918E-05-2.64184E-05-2.87887E-05-2.11096E-06-2.78030E-19 7.35712E-20
 -1       963 9.31632E-05-2.60410E-05-2.87667E-05-2.68980E-06-5.58572E-19-3.01858E-20
 -1       964 9.27111E-05-2.57191E-05-2.87109E-05-3.39496E-06-9.42983E-19-4.36367E-19
 -1       965 9.22799E-05-2.55259E-05-2.86089E-05-4.24494E-06-6.72571E-19-4.22292E-19
 -1       966 9.19471E-05-2.55700E-05-2.84474E-05-5.26119E-06-5.18696E-19-2.22950E-19
 -1       967 9.18393E-05-2.60059E-05-2.82144E-05-6.46751E-06-9.26340E-19 3.00071E-19
 -1       968 9.21565E-05-2.70465E-05-2.79043E-05-7.88077E-06-4.33575E-19-4.90749E-19
 -1       969 9.31877E-05-2.89566E-05-2.75273E-05-9.49117E-06-3.23949E-19-6.56075E-19
 -1       970 9.53744E-05-3.20960E-05-2.71181E-05-1.12533E-05-1.24277E-18-6.69163E-19
 -1       971 9.93813E-05-3.68759E-05-2.67973E-05-1.29057E-05 8.21230E-20-1.03193E-18
 -1       972 1.06092E-04-4.34200E-05-2.68167E-05-1.36292E-05-4.58503E-19-1.39658E-18
 -1       973 9.64899E-05-2.72431E-05-2.96773E-05-6.37453E-08-5.47260E-19-1.60095E-18
 -1       974 9.52888E-05-2.84757E-05-2.86342E-05-4.40742E-07-1.71885E-20 3.39856E-19
 -1       975 9.45318E-05-2.22606E-05-3.09734E-05-4.03986E-07-5.09599E-19-2.16088E-18
 -1       976 9.60865E-05-2.59296E-05-3.00681E-05-6.42600E-07-7.50383E-19-1.73862E-18
 -1       977 9.49453E-05-2.32780E-05-3.07147E-05 1.86248E-06 7.40209E-19-2.16050E-18
 -1       978 7.62131E-05-2.49265E-05-2.19161E-05-1.87481E-05 4.30270E-19-2.98180E-18
 -1       979 9.64871E-05-2.89788E-05-2.89321E-05-7.16941E-07-9.83417E-20-8.29267E-19
 -1       980 9.59296E-05-2.57595E-05-3.00719E-05 8.61363E-07 6.09219E-19-1.59486E-18
 -1       981 9.60691E-05-2.92070E-05-2.86552E-05-6.65586E-07-8.61127E-20-4.02228E-19
 -1       982 9.57848E-05-2.90507E-05-2.86003E-05-5.25124E-07 2.22118E-19 6.85939E-19
 -1       983 6.72849E-05-1.60375E-05-2.19296E-05 4.85079E-07 5.79431E-19-9.90663E-19
 -1       984 9.63400E-05-2.71229E-05-2.96640E-05 1.50247E-07 4.52529E-19-1.29398E-18
 -1       985 9.56062E-05-2.44869E-05-3.04792E-05 4.86768E-07-2.88327E-20-1.82667E-18
 -1       986 9.56561E-05-2.89337E-05-2.85953E-05-4.67889E-07 2.53494E-19 4.02723E-19
 -1       987 9.55980E-05-2.44755E-05-3.04823E-05-4.78597E-07-5.74412E-19-2.13522E-18
 -1       988 8.88977E-05-3.21429E-05-2.43016E-05-1.85706E-05 6.56443E-19-2.93181E-18
 -1       989 9.63649E-05-2.91557E-05-2.88040E-05-7.50405E-07-8.77221E-20-1.07461E-18
 -1       990 9.55726E-05-2.43528E-05-3.05222E-05-2.40346E-09-4.05971E-19-1.78997E-18
 -1       991 9.68725E-05-2.89229E-05-2.91211E-05 3.63112E-07-1.99612E-19-1.29295E-18
 -1       992 9.67639E-05-2.92074E-05-2.89527E-05 4.07504E-07-2.56932E-19-8.97887E-19
 -1       993 9.66033E-05-2.93328E-05-2.88302E-05 4.09468E-07-3.33191E-19-1.13745E-18
 -1       994 9.64186E-05-2.93502E-05-2.87436E-05 3.87197E-07 1.73211E-19-1.38404E-18
 -1       995 9.62283E-05-2.92959E-05-2.86853E-05 3.52233E-07-8.44219E-21-7.50133E-19
 -1       996 9.60422E-05-2.91937E-05-2.86493E-05 3.15233E-07-4.53487E-19-1.01918E-18
 -1       997 9.58643E-05-2.90591E-05-2.86308E-05 2.82777E-07 3.66114E-21-1.65689E-18
 -1       998 9.56931E-05-2.88998E-05-2.86257E-05 2.59894E-07-5.02123E-19-1.25766E-18
 -1       999 9.55235E-05-2.87179E-05-2.86310E-05 2.50549E-07-4.66991E-19-1.45845E-18
 -1      1000 9.53472E-05-2.85109E-05-2.86442E-05 2.58015E-07 2.16701E-19-8.05484E-19
 -1      1001 9.51534E-05-2.82729E-05-2.86631E-05 2.85164E-07 3.27377E-19-8.63695E-19
 -1      1002 9.49284E-05-2.79956E-05-2.86856E-05 3.34585E-07 2.84139E-19-9.23033E-19
 -1      1003 9.46561E-05-2.76683E-05-2.87091E-05 4.08488E-07 5.85830E-19-7.45803E-19
 -1      1004 9.43173E-05-2.72794E-05-2.87307E-05 5.08375E-07-3.07027E-21-2.00991E-19
 -1      1005 9.38895E-05-2.68165E-05-2.87457E-05 6.34446E-07-2.28592E-19-1.30051E-19
 -1      1006 9.33471E-05-2.62682E-05-2.87483E-05 7.84703E-07-2.76003E-19-2.62195E-19
 -1      1007 9.26601E-05-2.56245E-05-2.87298E-05 9.53770E-07-5.12640E-19 1.45423E-19
 -1      1008 9.17940E-05-2.48792E-05-2.86781E-05 1.13153E-06-6.12201E-19-4.80123E-19
 -1      1009 9.07088E-05-2.40314E-05-2.85765E-05 1.30180E-06-5.00489E-19-5.38508E-19
 -1      1010 8.93565E-05-2.30874E-05-2.84016E-05 1.44162E-06-2.37919E-19-9.51732E-19
 -1      1011 8.76769E-05-2.20616E-05-2.81216E-05 1.52196E-06 6.17468E-19-1.90688E-18
 -1      1012 8.55885E-05-2.09762E-05-2.76920E-05 1.51132E-06-1.44830E-19-2.14346E-18
 -1      1013 8.29712E-05-1.98565E-05-2.70504E-05 1.38147E-06-2.46190E-19-1.57293E-18
 -1      1014 7.96404E-05-1.87313E-05-2.61044E-05 1.13101E-06-1.26078E-19-1.73904E-18
 -1      1015 7.51660E-05-1.74681E-05-2.47198E-05 8.40308E-07 1.59532E-19-1.71457E-18
 -1      1016 7.22159E-05-1.89933E-05-2.27995E-05-9.84210E-06 1.12025E-18-3.54000E-19
 -1      1017 9.65576E-05-2.86340E-05-2.91099E-05-5.88553E-07 3.47977E-20-1.06253E-18
 -1      1018 9.47770E-05-2.78103E-05-2.87001E-05-5.07194E-07-1.26726E-19 9.77065E-20
 -1      1019 9.50074E-05-2.80963E-05-2.86762E-05-4.08020E-07 2.23014E-19-4.84771E-19
 -1      1020 9.41581E-05-2.70976E-05-2.87403E-05-8.48227E-07 4.47615E-19-5.84324E-19
 -1      1021 9.37436E-05-2.66651E-05-2.87480E-05-1.11057E-06-1.44936E-19-3.19069E-19
 -1      1022 9.32446E-05-2.61871E-05-2.87391E-05-1.45227E-06-3.58064E-19 2.55965E-19
 -1      1023 9.26560E-05-2.56795E-05-2.87043E-05-1.89170E-06-3.78094E-19 2.77593E-19
 -1      1024 9.19810E-05-2.51727E-05-2.86323E-05-2.45287E-06-4.34758E-19-1.68378E-19
 -1      1025 9.12364E-05-2.47172E-05-2.85084E-05-3.16792E-06-1.19730E-18 5.93329E-19
 -1      1026 9.04595E-05-2.43909E-05-2.83153E-05-4.08065E-06-1.37119E-18 3.66926E-19
 -1      1027 8.97178E-05-2.43069E-05-2.80335E-05-5.25154E-06-4.87607E-19 8.29437E-19
 -1      1028 8.91225E-05-2.46251E-05-2.76426E-05-6.76672E-06-4.11281E-19-2.64588E-19
 -1      1029 8.88771E-05-2.55924E-05-2.71249E-05-8.73709E-06-5.22849E-19-6.44080E-19
 -1      1030 8.92545E-05-2.74836E-05-2.64789E-05-1.12892E-05-4.87601E-19-1.70993E-18
 -1      1031 8.08329E-05-2.43630E-05-2.42069E-05-1.39080E-05-3.84145E-19-2.84117E-18
 -1      1032 9.57877E-05-2.50655E-05-3.03094E-05 7.65052E-07 1.52303E-19-1.69988E-18
 -1      1033 9.62197E-05-2.92191E-05-2.87145E-05-7.23571E-07 1.46203E-20-6.46223E-19
 -1      1034 9.53753E-05-2.85592E-05-2.86354E-05-3.15099E-07-1.36811E-20 6.83644E-19
 -1      1035 9.52028E-05-2.83436E-05-2.86539E-05-3.46005E-07 3.69291E-19-3.85786E-19
 -1      1036 9.63714E-05-2.62861E-05-3.00371E-05-1.86116E-07-6.01855E-19-2.00256E-18
 -1      1037 9.56926E-05-2.89172E-05-2.86180E-05-3.26493E-07 4.49011E-19-2.07521E-19
 -1      1038 9.67786E-05-2.75490E-05-2.96693E-05 4.06130E-08-4.43638E-19-1.99226E-18
 -1      1039 9.65349E-05-2.80528E-05-2.93490E-05-3.23411E-07 1.61673E-19-1.00567E-18
 -1      1040 9.55356E-05-2.87491E-05-2.86228E-05-3.10154E-07 2.51170E-20 2.01616E-19
 -1      1041 9.44984E-05-2.74790E-05-2.87227E-05-6.50893E-07 7.00703E-20-1.38885E-19
 -1      1042 9.69167E-05-2.84047E-05-2.93619E-05 2.14343E-07-3.56468E-19-1.80987E-18
 -1      1043 8.94665E-05-2.93329E-05-2.57710E-05-1.38605E-05-4.77416E-19-1.81637E-18
 -1      1044 9.67022E-05-2.91452E-05-2.89530E-05-5.12890E-07 1.15530E-19-7.74125E-19
 -1      1045 9.61978E-05-2.92780E-05-2.86798E-05-4.52317E-07 1.21930E-19-4.08601E-19
 -1      1046 9.62988E-05-2.62214E-05-3.00320E-05 2.54568E-07-1.13832E-19-1.53712E-18
 -1      1047 9.60216E-05-2.91878E-05-2.86430E-05-4.03582E-07-5.31923E-20-5.55218E-19
 -1      1048 9.63673E-05-2.66798E-05-2.98666E-05 2.45732E-07 1.24455E-19-1.31249E-18
 -1      1049 9.67961E-05-2.88381E-05-2.91248E-05-4.47763E-07-1.13894E-19-5.86368E-19
 -1      1050 9.58533E-05-2.90645E-05-2.86237E-05-3.59409E-07 2.56980E-21-8.43022E-19
 -1      1051 9.63133E-05-2.60842E-05-3.00996E-05 7.69872E-08-2.27394E-19-1.45686E-18
 -1      1052 9.65524E-05-2.92860E-05-2.88288E-05-5.23211E-07-1.98347E-19-6.07708E-19
 -1      1053 9.63827E-05-2.93234E-05-2.87398E-05-4.97635E-07-2.93143E-19-3.39487E-19
 -1      1054 8.29688E-05-2.37228E-05-2.53400E-05-1.09750E-05-4.25988E-19-2.30196E-18
 -1      1055 9.68003E-05-2.93197E-05-2.89205E-05 1.59039E-07-4.86222E-19-1.30499E-18
 -1      1056 9.66220E-05-2.93963E-05-2.88111E-05 1.54546E-07-2.66015E-19-8.80379E-19
 -1      1057 9.64219E-05-2.93749E-05-2.87344E-05 1.43069E-07 2.65969E-20-1.47034E-18
 -1      1058 9.62180E-05-2.92905E-05-2.86831E-05 1.30885E-07-7.38875E-20-1.83463E-18
 -1      1059 9.60197E-05-2.91641E-05-2.86523E-05 1.17996E-07-3.30808E-19-1.00915E-18
 -1      1060 9.58285E-05-2.90073E-05-2.86376E-05 1.07761E-07-1.68181E-19-1.65009E-18
 -1      1061 9.56411E-05-2.88253E-05-2.86353E-05 1.01985E-07-2.45491E-19-1.46999E-18
 -1      1062 9.54506E-05-2.86183E-05-2.86424E-05 1.01925E-07-1.22565E-19-1.07508E-18
 -1      1063 9.52468E-05-2.83819E-05-2.86563E-05 1.08433E-07 4.56991E-19-1.76391E-18
 -1      1064 9.50167E-05-2.81091E-05-2.86746E-05 1.21933E-07 4.81854E-19-1.26244E-18
 -1      1065 9.47447E-05-2.77903E-05-2.86947E-05 1.42248E-07 3.69582E-19-8.48215E-19
 -1      1066 9.44128E-05-2.74146E-05-2.87134E-05 1.68245E-07 1.95981E-19-1.41110E-18
 -1      1067 9.40000E-05-2.69710E-05-2.87266E-05 1.97250E-07-3.96933E-20-2.17518E-18
 -1      1068 9.34829E-05-2.64490E-05-2.87287E-05 2.24185E-07-1.75716E-19-1.99766E-18
 -1      1069 9.28354E-05-2.58406E-05-2.87119E-05 2.40355E-07-1.54479E-19-1.74731E-18
 -1      1070 9.20287E-05-2.51418E-05-2.86657E-05 2.31852E-07-3.46505E-19-9.13992E-19
 -1      1071 9.10314E-05-2.43548E-05-2.85756E-05 1.77540E-07-6.51206E-19-9.82975E-19
 -1      1072 8.98079E-05-2.34898E-05-2.84220E-05 4.66069E-08-6.81763E-19-1.36077E-18
 -1      1073 8.83164E-05-2.25665E-05-2.81786E-05-2.04402E-07-4.84433E-19-1.50857E-18
 -1      1074 8.65028E-05-2.16139E-05-2.78099E-05-6.35513E-07-2.86242E-20-1.52577E-18
 -1      1075 8.42865E-05-2.06668E-05-2.72668E-05-1.32823E-06 3.19660E-19-1.58409E-18
 -1      1076 8.15664E-05-1.97811E-05-2.64826E-05-2.39996E-06-2.26300E-19-1.15613E-18
 -1      1077 7.78816E-05-1.87971E-05-2.53465E-05-3.95861E-06 7.60889E-20-9.26401E-20
 -1      1078 9.58486E-05-2.90324E-05-2.86356E-05-1.86259E-07-3.84897E-19-1.01823E-18
 -1      1079 9.45278E-05-2.75423E-05-2.87081E-05-3.25794E-07-1.69525E-19-1.06494E-18
 -1      1080 9.31538E-05-2.61446E-05-2.87183E-05-7.74903E-07-2.16218E-19-5.07838E-19
 -1      1081 9.37088E-05-2.66750E-05-2.87289E-05-5.75538E-07 1.07127E-19-7.55654E-20
 -1      1082 9.16720E-05-2.49168E-05-2.86096E-05-1.41191E-06-4.63892E-19-5.31002E-19
 -1      1083 9.07237E-05-2.42624E-05-2.84836E-05-1.90809E-06-9.53029E-19 9.62986E-20
 -1      1084 8.96346E-05-2.36372E-05-2.82849E-05-2.58251E-06-8.25696E-19 1.26225E-19
 -1      1085 8.84164E-05-2.31108E-05-2.79884E-05-3.50411E-06-6.81009E-19-1.30058E-18
 -1      1086 8.70975E-05-2.27826E-05-2.75639E-05-4.77118E-06 2.78266E-19-1.03807E-18
 -1      1087 8.57189E-05-2.27756E-05-2.69736E-05-6.52504E-06 3.81743E-19-1.55848E-18
 -1      1088 8.43025E-05-2.30500E-05-2.62545E-05-8.53563E-06 9.04625E-19-2.29335E-18
 -1      1089 9.66795E-05-2.78046E-05-2.95179E-05-1.61885E-07 7.78977E-20-8.35182E-19
 -1      1090 9.41609E-05-2.71402E-05-2.87232E-05-4.30037E-07-1.52510E-20-6.35635E-19
 -1      1091 9.69372E-05-2.91021E-05-2.90722E-05 1.46411E-07 5.19960E-20-1.28557E-18
 -1      1092 9.67831E-05-2.74225E-05-2.97251E-05 6.03143E-09-3.85460E-19-1.21615E-18
 -1      1093 9.24793E-05-2.55536E-05-2.86826E-05-1.04558E-06-5.01193E-19-6.92912E-19
 -1      1094 9.50765E-05-2.81833E-05-2.86685E-05-2.06781E-07 6.78467E-19 3.20974E-20
 -1      1095 9.52906E-05-2.84391E-05-2.86507E-05-1.80201E-07 1.61740E-19-8.51774E-20
 -1      1096 9.67844E-05-2.84164E-05-2.93006E-05-3.47324E-07 7.88950E-20-7.11133E-19
 -1      1097 9.54835E-05-2.86625E-05-2.86376E-05-1.69995E-07 1.36982E-19-2.87467E-19
 -1      1098 9.56665E-05-2.88592E-05-2.86317E-05-1.72976E-07-3.34635E-20-2.79115E-19
 -1      1099 9.48273E-05-2.78872E-05-2.86886E-05-2.53628E-07 3.82711E-19-3.75426E-19
 -1      1100 9.64313E-05-2.93710E-05-2.87400E-05-2.53581E-07-2.83721E-19-1.12645E-18
 -1      1101 9.67974E-05-2.92783E-05-2.89362E-05-2.77976E-07 1.12493E-20-1.14426E-18
 -1      1102 9.69880E-05-2.83197E-05-2.94290E-05-1.34439E-08-3.29518E-19-1.34106E-18
 -1      1103 9.60360E-05-2.91808E-05-2.86523E-05-2.06823E-07 3.34190E-19-1.02617E-18
 -1      1104 9.62312E-05-2.92982E-05-2.86856E-05-2.31035E-07 2.92315E-19-8.35105E-19
 -1      1105 9.69229E-05-2.90354E-05-2.90951E-05-2.55625E-07 3.41699E-20-1.23342E-18
 -1      1106 9.70137E-05-2.87973E-05-2.92360E-05 5.38070E-08-3.16019E-20-1.47195E-18
 -1      1107 9.67466E-05-2.75538E-05-2.96543E-05-4.12884E-08-2.53667E-19-1.53983E-18
 -1      1108 9.67339E-05-2.93802E-05-2.88657E-05-9.68207E-08-3.01900E-19-1.06465E-18
 -1      1109 9.68973E-05-2.82636E-05-2.94151E-05-1.81964E-07-1.05559E-19-1.20548E-18
 -1      1110 9.69174E-05-2.92062E-05-2.90188E-05-1.36477E-08-1.27754E-19-1.41653E-18
 -1      1111 9.69442E-05-2.87148E-05-2.92413E-05-2.41030E-07-1.67582E-19-1.19027E-18
 -1      1112 1.16860E-04 2.57584E-10-4.18569E-05-4.14646E-05-2.27428E-19 1.05477E-17
 -1      1113 8.86532E-05 7.19290E-11-3.72524E-05-2.41652E-05-1.53313E-19 2.51627E-18
 -1      1114 8.40781E-05 4.14388E-11-3.57676E-05-1.78760E-05-1.15779E-19-1.18986E-18
 -1      1115 8.23350E-05 3.20347E-11-3.50729E-05-1.38355E-05-8.35916E-20-3.10309E-18
 -1      1116 8.15327E-05 2.73348E-11-3.47381E-05-1.05306E-05-6.31834E-20-4.15677E-18
 -1      1117 8.11275E-05 2.46015E-11-3.45725E-05-7.63827E-06-4.15311E-20-4.67327E-18
 -1      1118 8.09178E-05 2.29459E-11-3.44889E-05-4.97819E-06-2.74624E-20-5.00008E-18
 -1      1119 8.08156E-05 2.20513E-11-3.44495E-05-2.43136E-06-1.23184E-20-5.09278E-18
 -1      1120 8.07865E-05 2.17807E-11-3.44384E-05 5.24651E-08-7.36604E-21-5.17963E-18
 -1      1121 8.08200E-05 2.20955E-11-3.44510E-05 2.53882E-06 9.98572E-21-5.24670E-18
 -1      1122 8.09269E-05 2.30462E-11-3.44919E-05 5.09399E-06 1.91542E-20-5.21279E-18
 -1      1123 8.11434E-05 2.47637E-11-3.45769E-05 7.77045E-06 3.72297E-20-4.97102E-18
 -1      1124 8.15531E-05 2.76385E-11-3.47446E-05 1.06908E-05 5.14573E-20-4.58214E-18
 -1      1125 8.23588E-05 3.25001E-11-3.50830E-05 1.40401E-05 7.66565E-20-3.77994E-18
 -1      1126 8.40757E-05 4.19280E-11-3.57875E-05 1.81269E-05 1.14614E-19-2.10934E-18
 -1      1127 8.83516E-05 6.67513E-11-3.73226E-05 2.40087E-05 1.52042E-19 1.42312E-18
 -1      1128 1.06623E-04 1.63935E-10-4.06356E-05 3.61917E-05 3.40507E-19 9.14139E-18
 -1      1129 1.30227E-04-2.57582E-05-4.02756E-05-2.61055E-05-1.03296E-18 1.57366E-17
 -1      1130 9.74644E-05-2.88649E-05-3.15799E-05-6.80345E-07-3.21925E-19 1.34130E-17
 -1      1131 9.01677E-05-2.70290E-05-2.78955E-05 3.87137E-07-1.90979E-19 9.88108E-18
 -1      1132 8.82580E-05-2.65750E-05-2.66463E-05 2.50952E-07-8.19968E-20 7.40582E-18
 -1      1133 8.79007E-05-2.64487E-05-2.63902E-05 1.65943E-07-2.68834E-20 5.50016E-18
 -1      1134 8.82607E-05-2.65255E-05-2.64755E-05 1.18119E-07-4.40424E-20 4.63896E-18
 -1      1135 8.89476E-05-2.67102E-05-2.66784E-05 8.75418E-08-5.56254E-20 3.90037E-18
 -1      1136 8.97625E-05-2.69421E-05-2.69210E-05 6.63349E-08 3.81281E-20 3.04510E-18
 -1      1137 9.05949E-05-2.71846E-05-2.71691E-05 5.06424E-08-5.46247E-20 2.40373E-18
 -1      1138 9.13827E-05-2.74166E-05-2.74046E-05 3.85540E-08-5.88042E-20 7.54117E-19
 -1      1139 9.20923E-05-2.76271E-05-2.76174E-05 2.90497E-08-1.41379E-20-4.92791E-19
 -1      1140 9.27089E-05-2.78107E-05-2.78029E-05 2.15186E-08 1.64267E-19-2.62759E-19
 -1      1141 9.32293E-05-2.79662E-05-2.79600E-05 1.55464E-08-1.28327E-20-7.73983E-19
 -1      1142 9.36580E-05-2.80947E-05-2.80897E-05 1.08239E-08 3.23634E-20-2.23992E-19
 -1      1143 9.40041E-05-2.81987E-05-2.81947E-05 7.10628E-09-9.60114E-20 4.22106E-19
 -1      1144 9.42792E-05-2.82817E-05-2.82786E-05 4.19600E-09-2.33448E-19-7.37981E-19
 -1      1145 9.44970E-05-2.83476E-05-2.83452E-05 1.93537E-09-1.32854E-19-1.27856E-18
 -1      1146 9.46721E-05-2.84008E-05-2.83991E-05 2.04241E-10 9.44351E-21-2.40979E-18
 -1      1147 9.48203E-05-2.84461E-05-2.84449E-05-1.07950E-09 1.73395E-19-3.21063E-18
 -1      1148 9.49586E-05-2.84886E-05-2.84880E-05-1.95720E-09 1.08689E-19-3.24272E-18
 -1      1149 9.51064E-05-2.85342E-05-2.85341E-05-2.42432E-09 1.09297E-19-3.15946E-18
 -1      1150 9.52860E-05-2.85894E-05-2.85901E-05-2.42207E-09-1.00153E-19-2.16110E-18
 -1      1151 9.55239E-05-2.86624E-05-2.86641E-05-1.82443E-09 4.45290E-20-1.45170E-18
 -1      1152 9.58525E-05-2.87630E-05-2.87660E-05-4.18260E-10-1.29268E-20-2.27651E-18
 -1      1153 9.63119E-05-2.89032E-05-2.89080E-05 2.12638E-09 1.38994E-19-2.49355E-18
 -1      1154 9.69522E-05-2.90981E-05-2.91054E-05 6.29932E-09-1.06945E-19-4.33368E-19
 -1      1155 9.78354E-05-2.93662E-05-2.93771E-05 1.28101E-08 6.89352E-20-1.24980E-18
 -1      1156 9.90381E-05-2.97305E-05-2.97462E-05 2.26634E-08 5.76032E-20-2.97495E-18
 -1      1157 1.00652E-04-3.02181E-05-3.02406E-05 3.72359E-08-2.47972E-20-3.21700E-18
 -1      1158 1.02784E-04-3.08606E-05-3.08916E-05 5.83005E-08 1.01387E-19-1.95081E-18
 -1      1159 1.05547E-04-3.16909E-05-3.17318E-05 8.78582E-08-1.41117E-19-1.28279E-18
 -1      1160 1.09042E-04-3.27375E-05-3.27871E-05 1.27445E-07 3.12986E-19-3.89820E-19
 -1      1161 1.13310E-04-3.40106E-05-3.40616E-05 1.76245E-07-7.64331E-20-6.90147E-19
 -1      1162 1.18248E-04-3.54770E-05-3.55090E-05 2.26907E-07-1.59725E-19-4.00930E-18
 -1      1163 1.23462E-04-3.70158E-05-3.69875E-05 2.57943E-07 2.45805E-20-3.89280E-18
 -1      1164 1.28057E-04-3.83577E-05-3.82070E-05 2.23902E-07 2.01657E-19-2.56140E-18
 -1      1165 1.30451E-04-3.90306E-05-3.87004E-05 5.29616E-08 2.83716E-19-2.43466E-18
 -1      1166 1.28460E-04-3.83916E-05-3.78967E-05-3.23582E-07 3.59327E-20-6.31992E-19
 -1      1167 1.20104E-04-3.58710E-05-3.53926E-05-8.74856E-07 5.52027E-20 1.48019E-18
 -1      1168 1.05401E-04-3.15207E-05-3.13858E-05-1.35022E-06-2.46126E-19 3.20433E-18
 -1      1169 8.81916E-05-2.65094E-05-2.69542E-05-1.32416E-06-1.77592E-19 9.13102E-19
 -1      1170 7.54839E-05-2.28419E-05-2.37331E-05-5.86615E-07-8.91635E-20-6.88585E-19
 -1      1171 7.29852E-05-2.20858E-05-2.29453E-05 4.71551E-07 5.93902E-19-6.40569E-20
 -1      1172 8.03610E-05-2.41551E-05-2.45289E-05 1.13470E-06-1.65075E-19 1.57379E-18
 -1      1173 9.15686E-05-2.73821E-05-2.71909E-05 1.07578E-06 1.08308E-19-2.62792E-19
 -1      1174 9.99336E-05-2.98538E-05-2.93749E-05 5.57202E-07 1.32362E-19-5.17749E-20
 -1      1175 1.02410E-04-3.06342E-05-3.02244E-05 1.86022E-08 1.16977E-19 1.02491E-19
 -1      1176 1.00077E-04-3.00037E-05-2.98603E-05-2.51102E-07 3.82445E-19 4.55360E-18
 -1      1177 9.64395E-05-2.90158E-05-2.90243E-05-1.35982E-07-3.73030E-19 2.53489E-18
 -1      1178 9.48891E-05-2.84463E-05-2.83524E-05 1.23642E-07 2.96604E-19 6.29084E-19
 -1      1179 1.31060E-04-3.77399E-05-3.86610E-05 1.21746E-05-1.60566E-19 1.56667E-17
 -1      1180 9.65657E-05-2.81915E-05-3.13324E-05 8.01376E-07 1.32958E-19 1.19456E-17
 -1      1181 9.03822E-05-2.69318E-05-2.78766E-05 1.20140E-07 1.08870E-19 8.27890E-18
 -1      1182 8.83448E-05-2.65024E-05-2.66828E-05 8.99562E-09 8.94844E-20 5.75802E-18
 -1      1183 8.79411E-05-2.64112E-05-2.64174E-05-2.52977E-08 6.23281E-20 4.04786E-18
 -1      1184 8.82825E-05-2.65082E-05-2.64913E-05-3.43343E-08-4.88864E-21 2.72496E-18
 -1      1185 8.89607E-05-2.67034E-05-2.66886E-05-3.55360E-08 2.77052E-20 1.95680E-18
 -1      1186 8.97707E-05-2.69408E-05-2.69284E-05-3.38428E-08-7.50079E-20 1.71252E-18
 -1      1187 9.06003E-05-2.71862E-05-2.71748E-05-3.08127E-08 7.84679E-20 8.82893E-19
 -1      1188 9.13862E-05-2.74198E-05-2.74089E-05-2.71519E-08 8.60549E-20 3.50003E-19
 -1      1189 9.20948E-05-2.76309E-05-2.76208E-05-2.32755E-08-1.85226E-21-2.35945E-19
 -1      1190 9.27108E-05-2.78147E-05-2.78055E-05-1.94437E-08 1.06339E-19-1.19129E-18
 -1      1191 9.32311E-05-2.79702E-05-2.79620E-05-1.58126E-08 2.30674E-19-2.50247E-18
 -1      1192 9.36600E-05-2.80985E-05-2.80914E-05-1.24626E-08-1.66117E-19-2.40756E-18
 -1      1193 9.40066E-05-2.82023E-05-2.81963E-05-9.41930E-09 9.58690E-20-2.60386E-18
 -1      1194 9.42829E-05-2.82852E-05-2.82802E-05-6.66981E-09-1.99637E-20-3.19617E-18
 -1      1195 9.45024E-05-2.83512E-05-2.83472E-05-4.17596E-09-1.29448E-19-2.73629E-18
 -1      1196 9.46800E-05-2.84047E-05-2.84017E-05-1.88585E-09 9.39181E-20-3.01619E-18
 -1      1197 9.48316E-05-2.84506E-05-2.84484E-05 2.55682E-10 7.49162E-20-4.37909E-18
 -1      1198 9.49743E-05-2.84939E-05-2.84927E-05 2.29656E-09-2.46959E-19-2.86729E-18
 -1      1199 9.51272E-05-2.85404E-05-2.85403E-05 4.26582E-09 6.83375E-20-1.60192E-18
 -1      1200 9.53115E-05-2.85966E-05-2.85976E-05 6.15938E-09-2.34306E-19-7.56354E-19
 -1      1201 9.55519E-05-2.86696E-05-2.86721E-05 7.92172E-09 1.56264E-19-2.64825E-18
 -1      1202 9.58764E-05-2.87681E-05-2.87724E-05 9.42168E-09-2.96983E-20-3.90652E-18
 -1      1203 9.63171E-05-2.89014E-05-2.89079E-05 1.04208E-08 1.30698E-19-2.98765E-18
 -1      1204 9.69093E-05-2.90801E-05-2.90894E-05 1.05338E-08 2.03066E-19-2.56773E-18
 -1      1205 9.76903E-05-2.93151E-05-2.93277E-05 9.18372E-09-2.24773E-19-2.94426E-18
 -1      1206 9.86957E-05-2.96168E-05-2.96330E-05 5.56150E-09-2.18991E-19-1.68499E-18
 -1      1207 9.99527E-05-2.99928E-05-3.00126E-05-1.38602E-09-1.21878E-19-1.08504E-18
 -1      1208 1.01470E-04-3.04449E-05-3.04673E-05-1.28863E-08 1.69952E-19-1.44861E-18
 -1      1209 1.03218E-04-3.09641E-05-3.09865E-05-3.00913E-08-3.90787E-20-2.95603E-18
 -1      1210 1.05112E-04-3.15235E-05-3.15407E-05-5.34895E-08 8.23945E-20-3.09150E-18
 -1      1211 1.06974E-04-3.20701E-05-3.20729E-05-8.17854E-08-7.01424E-20-1.96075E-18
 -1      1212 1.08506E-04-3.25158E-05-3.24908E-05-1.10156E-07 2.65775E-19-2.72010E-18
 -1      1213 1.09274E-04-3.27337E-05-3.26648E-05-1.28275E-07-1.05518E-19-2.18582E-18
 -1      1214 1.08730E-04-3.25652E-05-3.24397E-05-1.19645E-07-4.68598E-19-1.02519E-18
 -1      1215 1.06319E-04-3.18507E-05-3.16704E-05-6.52537E-08 5.60802E-19-3.65267E-18
 -1      1216 1.01697E-04-3.04902E-05-3.02857E-05 4.55289E-08 1.41282E-19-4.19535E-18
 -1      1217 9.50321E-05-2.85283E-05-2.83644E-05 1.98372E-07-1.85664E-19-3.34382E-18
 -1      1218 8.72469E-05-2.62246E-05-2.61838E-05 3.43544E-07-3.72897E-19-2.77943E-18
 -1      1219 7.99670E-05-2.40473E-05-2.41837E-05 4.10298E-07-2.45729E-19-1.02025E-18
 -1      1220 7.50029E-05-2.25348E-05-2.28251E-05 3.49661E-07 3.78475E-19-1.32688E-18
 -1      1221 7.35292E-05-2.20570E-05-2.23954E-05 1.77251E-07-3.23831E-19-9.62176E-19
 -1      1222 7.54837E-05-2.26211E-05-2.28777E-05-2.87312E-08-3.74627E-19 6.65000E-19
 -1      1223 7.96597E-05-2.38772E-05-2.39787E-05-1.79215E-07 4.01394E-19-3.12576E-18
 -1      1224 8.44382E-05-2.53304E-05-2.52946E-05-2.31468E-07 7.05204E-19-9.37988E-18
 -1      1225 8.86150E-05-2.66008E-05-2.65021E-05-2.08468E-07 1.67416E-19-9.88101E-18
 -1      1226 9.17730E-05-2.75462E-05-2.74485E-05-1.72850E-07-5.27965E-20-7.73140E-18
 -1      1227 9.40029E-05-2.81867E-05-2.80955E-05-1.70610E-07 4.00825E-19-4.91208E-18
 -1      1228 9.51259E-05-2.85580E-05-2.84338E-05-2.51485E-08-1.22613E-19-3.16042E-18
 -1      1229 9.52407E-05-2.86886E-05-2.84499E-05-5.26090E-08-3.30353E-18-3.85826E-19
 -1      1230 9.56085E-05-2.98696E-05-2.81518E-05-2.01563E-07-4.40960E-18-5.05948E-19
 -1      1231 9.60234E-05-3.14037E-05-2.78676E-05-2.24365E-07 2.07155E-18 1.21462E-18
 -1      1232 9.59699E-05-3.13729E-05-2.80669E-05-9.27095E-08 2.62357E-18 1.19154E-19
 -1      1233 9.49164E-05-2.79520E-05-2.92350E-05 1.72076E-07-1.13847E-19-1.86433E-19
 -1      1234 9.25018E-05-1.99154E-05-3.16586E-05 5.38041E-07-4.18328E-18-5.58492E-19
 -1      1235 8.87462E-05-7.17363E-06-3.52840E-05 8.89101E-07-5.13069E-18-2.48402E-19
 -1      1236 8.42018E-05 8.40520E-06-3.95268E-05 1.04411E-06-4.75821E-18-1.13062E-19
 -1      1237 8.01435E-05 2.24580E-05-4.32364E-05 8.10383E-07-1.39019E-19-9.57716E-19
 -1      1238 7.79827E-05 2.99814E-05-4.51935E-05 2.00915E-07-1.55348E-18-1.12589E-19
 -1      1239 7.85296E-05 2.80282E-05-4.47083E-05-5.01076E-07-1.38432E-18-9.22392E-19
 -1      1240 8.15023E-05 1.77192E-05-4.20437E-05-9.46721E-07-3.83918E-18 1.34854E-18
 -1      1241 8.56927E-05 3.22234E-06-3.81747E-05-9.77168E-07-6.06793E-18 4.29323E-19
 -1      1242 8.98318E-05-1.08727E-05-3.42651E-05-7.16724E-07-7.21016E-18 2.74412E-19
 -1      1243 9.30096E-05-2.14853E-05-3.12138E-05-4.72730E-07-8.46043E-18 5.51366E-19
 -1      1244 9.45170E-05-2.70032E-05-2.93773E-05 3.15658E-08-3.26932E-18 5.70351E-19
 -1      1245 9.53880E-05-2.88804E-05-2.84378E-05 9.87199E-08-3.32963E-19 2.46123E-19
 -1      1246 4.05235E-05-1.28187E-04 2.18094E-05-1.71278E-05 4.81072E-18 1.41375E-19
 -1      1247 1.90702E-05-7.23150E-05 1.06481E-05-2.71924E-05 7.79609E-18 2.44793E-18
 -1      1248 1.06086E-05-3.83433E-06-9.01329E-06 7.75835E-06 1.04727E-17 6.83725E-18
 -1      1249 4.89123E-05 2.86170E-05-3.20515E-05 7.05156E-05 4.91957E-18 4.37577E-18
 -1      1250 1.42662E-04 5.08214E-06-5.50070E-05 1.17473E-04-1.58734E-18-3.65241E-18
 -1      1251 2.54210E-04-5.18561E-05-7.34100E-05 1.07014E-04-2.94132E-18-9.90182E-18
 -1      1252 3.25178E-04-9.56822E-05-8.23302E-05 3.87972E-05-1.16986E-18-1.15311E-17
 -1      1253 3.10762E-04-8.84049E-05-8.05374E-05-5.17657E-05 7.54600E-19-8.19716E-18
 -1      1254 2.30479E-04-4.22103E-05-6.91512E-05-1.10659E-04 4.33427E-18-8.25179E-18
 -1      1255 1.23830E-04 8.72257E-06-5.08525E-05-1.07436E-04 7.13202E-18-1.14570E-17
 -1      1256 4.01407E-05 2.60443E-05-2.84533E-05-5.93663E-05 6.48150E-18-7.60466E-18
 -1      1257 8.15406E-06-5.63010E-06-7.27367E-06-2.80053E-06 6.92534E-18-3.72440E-18
 -1      1258 1.73622E-05-6.62136E-05 1.02517E-05 2.60202E-05 9.79170E-18-4.02807E-18
 -1      1259 3.73951E-05-1.17000E-04 2.05726E-05 1.55767E-05 4.12844E-18-7.74003E-19
 -1      1260 3.78989E-05-1.20665E-04 2.16438E-05-1.57429E-05 4.75778E-18 6.08805E-22
 -1      1261 2.05907E-05-8.09818E-05 1.37851E-05-3.21214E-05 6.31040E-19-3.23567E-19
 -1      1262 7.10211E-06-2.25692E-05-1.49478E-06-1.19845E-05-1.79402E-18-1.63816E-18
 -1      1263 2.75066E-05 1.73723E-05-2.18153E-05 3.96631E-05-3.30682E-18-3.31698E-18
 -1      1264 1.00537E-04 1.25243E-05-4.44518E-05 9.38539E-05-4.50791E-18-6.83386E-18
 -1      1265 2.11561E-04-3.43923E-05-6.55090E-05 1.10092E-04-4.17037E-18-9.21741E-18
 -1      1266 3.05563E-04-8.50810E-05-7.91766E-05 6.68336E-05-1.46441E-18-7.18877E-18
 -1      1267 3.35998E-04-1.00937E-04-8.38178E-05-1.44896E-05 5.39931E-19-6.42178E-18
 -1      1268 2.96711E-04-7.53117E-05-7.91958E-05-9.17306E-05 1.62164E-18-4.48758E-18
 -1      1269 2.03900E-04-2.24705E-05-6.64039E-05-1.26419E-04-3.21025E-19-1.27055E-19
 -1      1270 1.01313E-04 2.15670E-05-4.72343E-05-1.06875E-04-2.89939E-18 3.99969E-18
 -1      1271 3.08840E-05 2.58973E-05-2.54152E-05-5.13281E-05-4.74677E-18 4.10980E-18
 -1      1272 8.57317E-06-1.68170E-05-4.13682E-06 5.34178E-06-7.83844E-18 4.77727E-18
 -1      1273 2.23286E-05-8.31122E-05 1.31909E-05 3.02592E-05-4.04882E-18 2.15782E-18
 -1      1274 4.22378E-05-1.31505E-04 2.23034E-05 1.57590E-05 2.32934E-18-1.93018E-19
 -1      1275 1.04449E-04-2.20210E-05-3.78940E-05-1.72744E-05-3.82647E-19 8.97410E-18
 -1      1276 9.03224E-05-6.68221E-06-3.60182E-05-2.04691E-05-1.25922E-18 7.74559E-19
 -1      1277 9.26603E-05-6.74123E-06-3.72234E-05-2.57578E-05-1.53652E-18 2.71675E-18
 -1      1278 8.59013E-05-4.09320E-06-3.51303E-05-1.64308E-05-1.32788E-18-2.03050E-18
 -1      1279 8.71561E-05-4.08847E-06-3.56003E-05-1.88504E-05-1.48210E-18-7.84300E-19
 -1      1280 9.21363E-05-1.04639E-05-3.50944E-05-1.90306E-05-2.21465E-18 6.84297E-19
 -1      1281 8.40996E-05-3.19215E-06-3.46866E-05-1.28175E-05-1.10125E-18-3.52685E-18
 -1      1282 8.47070E-05-3.16098E-06-3.49111E-05-1.46334E-05-1.24810E-18-2.81691E-18
 -1      1283 8.78678E-05-7.39153E-06-3.45742E-05-1.54155E-05-2.09306E-18-1.66426E-18
 -1      1284 8.31840E-05-2.72740E-06-3.44691E-05-9.68377E-06-8.94956E-19-4.37867E-18
 -1      1285 8.35007E-05-2.71093E-06-3.45789E-05-1.12311E-05-9.77741E-19-3.99260E-18
 -1      1286 8.58678E-05-5.98518E-06-3.43044E-05-1.19547E-05-1.69532E-18-2.98420E-18
 -1      1287 8.26899E-05-2.45654E-06-3.43625E-05-6.91378E-06-6.39146E-19-4.84993E-18
 -1      1288 8.28599E-05-2.44805E-06-3.44171E-05-8.28439E-06-7.53224E-19-4.60932E-18
 -1      1289 8.48175E-05-5.21573E-06-3.41718E-05-8.94223E-06-1.32370E-18-3.68716E-18
 -1      1290 8.24138E-05-2.29115E-06-3.43093E-05-4.29418E-06-4.91855E-19-5.07626E-18
 -1      1291 8.25052E-05-2.28719E-06-3.43367E-05-5.59523E-06-5.24082E-19-4.99232E-18
 -1      1292 8.42306E-05-4.76040E-06-3.41082E-05-6.21587E-06-9.68672E-19-4.15173E-18
 -1      1293 8.22808E-05-2.20172E-06-3.42868E-05-1.78966E-06-2.44113E-19-5.16517E-18
 -1      1294 8.23200E-05-2.20015E-06-3.42979E-05-3.04050E-06-3.26300E-19-5.10063E-18
 -1      1295 8.39074E-05-4.49673E-06-3.40789E-05-3.64413E-06-6.72486E-19-4.29033E-18
 -1      1296 8.22547E-05-2.17419E-06-3.42841E-05 6.69705E-07-1.56147E-20-5.25489E-18
 -1      1297 8.22533E-05-2.17424E-06-3.42837E-05-5.65967E-07-7.68517E-20-5.20338E-18
 -1      1298 8.37656E-05-4.37702E-06-3.40678E-05-1.17037E-06-2.52365E-19-4.38590E-18
 -1      1299 8.23287E-05-2.20448E-06-3.42995E-05 3.14787E-06 1.85864E-19-5.29282E-18
 -1      1300 8.22866E-05-2.20611E-06-3.42876E-05 1.89443E-06 1.08947E-19-5.27852E-18
 -1      1301 8.37706E-05-4.38124E-06-3.40682E-05 1.27353E-06 6.86122E-20-4.43734E-18
 -1      1302 8.25227E-05-2.29757E-06-3.43394E-05 5.71179E-06 3.63099E-19-5.21097E-18
 -1      1303 8.24277E-05-2.30093E-06-3.43113E-05 4.40479E-06 2.78212E-19-5.26791E-18
 -1      1304 8.39231E-05-4.51026E-06-3.40800E-05 3.75157E-06 3.87620E-19-4.47190E-18
 -1      1305 8.28833E-05-2.46338E-06-3.44201E-05 8.39316E-06 5.69563E-19-4.99281E-18
 -1      1306 8.27100E-05-2.47205E-06-3.43649E-05 7.01355E-06 4.85529E-19-5.14175E-18
 -1      1307 8.42565E-05-4.78350E-06-3.41094E-05 6.30972E-06 7.38171E-19-4.39983E-18
 -1      1308 8.35429E-05-2.74086E-06-3.45841E-05 1.13931E-05 9.07887E-19-4.48803E-18
 -1      1309 8.32208E-05-2.75794E-06-3.44730E-05 9.82828E-06 7.64447E-19-4.77116E-18
 -1      1310 8.48606E-05-5.25692E-06-3.41730E-05 9.05243E-06 1.09912E-18-4.05903E-18
 -1      1311 8.47657E-05-3.20332E-06-3.49193E-05 1.48418E-05 1.20602E-18-3.57940E-18
 -1      1312 8.41525E-05-3.24003E-06-3.46923E-05 1.30015E-05 1.06256E-18-4.14878E-18
 -1      1313 8.59455E-05-6.06244E-06-3.43063E-05 1.21207E-05 1.60856E-18-3.50923E-18
 -1      1314 8.72579E-05-4.09077E-06-3.56216E-05 1.90894E-05 1.44123E-18-1.68274E-18
 -1      1315 8.59738E-05-4.15459E-06-3.51380E-05 1.66912E-05 1.26994E-18-2.83460E-18
 -1      1316 8.79924E-05-7.51742E-06-3.45762E-05 1.56485E-05 2.00723E-18-2.35803E-18
 -1      1317 9.34729E-05-6.79337E-06-3.71189E-05 2.50951E-05 1.33238E-18 2.13839E-18
 -1      1318 9.01383E-05-6.43878E-06-3.60409E-05 2.11474E-05 1.27764E-18-2.09429E-19
 -1      1319 9.23667E-05-1.06992E-05-3.50796E-05 1.96747E-05 2.20406E-18-1.58501E-19
 -1      1320 1.23634E-04-2.49254E-05-3.90174E-05 2.83663E-05 7.46130E-19 9.76121E-18
 -1      1321 1.00089E-04-1.44257E-05-3.73566E-05 2.40495E-05 7.42530E-19 4.40690E-18
 -1      1322 1.01687E-04-1.93446E-05-3.54048E-05 2.13972E-05 2.23343E-18 3.30724E-18
 -1      1323 1.02614E-04-2.78080E-05-3.47606E-05 7.32816E-06 1.24861E-18 9.24600E-18
 -1      1324 1.05158E-04-3.02339E-05-3.35283E-05-7.95925E-06-1.17875E-18 9.30550E-18
 -1      1325 9.82716E-05-2.78463E-05-3.07652E-05-4.98825E-06-1.15038E-18 7.98201E-18
 -1      1326 9.55136E-05-2.78523E-05-2.92578E-05-2.48892E-06-9.02752E-19 7.34204E-18
 -1      1327 9.32824E-05-2.75617E-05-2.82187E-05-2.04209E-06-9.06113E-19 6.04051E-18
 -1      1328 9.94946E-05-2.80545E-05-3.09857E-05-7.88616E-06-1.95019E-18 4.37707E-18
 -1      1329 9.15934E-05-2.72041E-05-2.75846E-05-8.37101E-07-7.06068E-19 5.49354E-18
 -1      1330 9.08779E-05-2.71092E-05-2.72826E-05-7.26942E-07-6.30563E-19 4.55754E-18
 -1      1331 9.47290E-05-2.77732E-05-2.88195E-05-3.11864E-06-1.53461E-18 3.42645E-18
 -1      1332 9.01285E-05-2.69266E-05-2.70396E-05-1.72887E-07-5.55038E-19 4.06099E-18
 -1      1333 9.00569E-05-2.69536E-05-2.70051E-05-1.14849E-07-4.95455E-19 3.31800E-18
 -1      1334 9.25311E-05-2.75033E-05-2.78991E-05-1.05126E-06-1.19040E-18 2.48138E-18
 -1      1335 8.97983E-05-2.68864E-05-2.69312E-05 1.55304E-07-2.47145E-19 3.07179E-18
 -1      1336 9.00137E-05-2.69767E-05-2.69931E-05 1.83965E-07-2.69798E-19 2.81829E-18
 -1      1337 9.15740E-05-2.73600E-05-2.75327E-05-6.81797E-08-7.29411E-19 1.76174E-18
 -1      1338 9.00183E-05-2.69801E-05-2.69998E-05 3.14932E-07-3.23691E-19 2.70560E-18
 -1      1339 9.03613E-05-2.71000E-05-2.70991E-05 3.26625E-07-3.03550E-19 2.24394E-18
 -1      1340 9.13223E-05-2.73484E-05-2.74253E-05 4.18823E-07-5.95726E-19 1.34229E-18
 -1      1341 9.05038E-05-2.71419E-05-2.71465E-05 3.80960E-07-1.23513E-19 2.02751E-18
 -1      1342 9.08920E-05-2.72703E-05-2.72586E-05 3.82586E-07-1.56068E-19 1.76319E-18
 -1      1343 9.14564E-05-2.74225E-05-2.74478E-05 6.46622E-07-4.95186E-19 1.10140E-18
 -1      1344 9.11003E-05-2.73307E-05-2.73251E-05 3.92817E-07-2.18229E-19 1.64826E-18
 -1      1345 9.14877E-05-2.74554E-05-2.74373E-05 3.88539E-07-3.75942E-19 1.11740E-18
 -1      1346 9.17897E-05-2.75416E-05-2.75369E-05 7.28389E-07-4.63129E-19 6.03494E-19
 -1      1347 9.17189E-05-2.75221E-05-2.75103E-05 3.73493E-07-5.07250E-19 8.86496E-19
 -1      1348 9.20800E-05-2.76363E-05-2.76153E-05 3.65986E-07-6.07249E-19 2.13025E-19
 -1      1349 9.22116E-05-2.76788E-05-2.76569E-05 7.25757E-07-8.72924E-19 4.11624E-19
 -1      1350 9.23087E-05-2.77021E-05-2.76871E-05 3.37326E-07-3.44384E-19 9.62838E-20
 -1      1351 9.26304E-05-2.78026E-05-2.77810E-05 3.28346E-07-6.34365E-20-3.18547E-19
 -1      1352 9.26553E-05-2.78172E-05-2.77865E-05 6.75531E-07-8.09237E-19 1.45287E-19
 -1      1353 9.28423E-05-2.78634E-05-2.78473E-05 2.93535E-07 5.46950E-20-7.50326E-19
 -1      1354 9.31192E-05-2.79491E-05-2.79285E-05 2.84232E-07-1.48645E-19-7.71594E-19
 -1      1355 9.30817E-05-2.79470E-05-2.79129E-05 6.00891E-07-2.62063E-19-4.31790E-19
 -1      1356 9.33071E-05-2.80029E-05-2.79872E-05 2.48080E-07-1.48022E-19-8.31940E-19
 -1      1357 9.35392E-05-2.80741E-05-2.80554E-05 2.39190E-07-4.58167E-20-8.46885E-19
 -1      1358 9.34694E-05-2.80630E-05-2.80291E-05 5.16762E-07-2.59649E-19-1.10446E-18
 -1      1359 9.37006E-05-2.81203E-05-2.81058E-05 2.04770E-07 4.65568E-20-8.34824E-19
 -1      1360 9.38906E-05-2.81781E-05-2.81618E-05 1.96749E-07-8.90915E-21-5.07632E-19
 -1      1361 9.38088E-05-2.81631E-05-2.81316E-05 4.32754E-07 3.65912E-20-1.04710E-18
 -1      1362 9.40263E-05-2.82168E-05-2.82041E-05 1.65990E-07-7.69036E-20-7.41935E-19
 -1      1363 9.41792E-05-2.82629E-05-2.82494E-05 1.59112E-07-3.14551E-19-1.01834E-18
 -1      1364 9.40978E-05-2.82473E-05-2.82196E-05 3.54986E-07-1.93639E-19-1.23206E-18
 -1      1365 9.42918E-05-2.82950E-05-2.82845E-05 1.33223E-07-3.64748E-19-8.64877E-19
 -1      1366 9.44136E-05-2.83313E-05-2.83206E-05 1.27653E-07-3.69798E-19-1.15043E-18
 -1      1367 9.43397E-05-2.83169E-05-2.82937E-05 2.87307E-07-5.42376E-19-1.40857E-18
 -1      1368 9.45072E-05-2.83579E-05-2.83498E-05 1.07434E-07-2.98003E-19-1.18928E-18
 -1      1369 9.46048E-05-2.83866E-05-2.83789E-05 1.03285E-07-3.30384E-19-1.54761E-18
 -1      1370 9.45408E-05-2.83740E-05-2.83559E-05 2.32189E-07-4.80475E-19-1.27552E-18
 -1      1371 9.46845E-05-2.84092E-05-2.84037E-05 8.93623E-08-3.67447E-19-1.51703E-18
 -1      1372 9.47653E-05-2.84326E-05-2.84279E-05 8.67421E-08-8.85236E-20-2.12745E-18
 -1      1373 9.47101E-05-2.84212E-05-2.84086E-05 1.91390E-07-3.48658E-19-1.36257E-18
 -1      1374 9.48369E-05-2.84528E-05-2.84502E-05 7.97627E-08 2.40249E-20-2.30163E-18
 -1      1375 9.49089E-05-2.84734E-05-2.84720E-05 7.88080E-08-3.97647E-20-2.40481E-18
 -1      1376 9.48582E-05-2.84618E-05-2.84552E-05 1.66472E-07-2.39250E-19-1.68340E-18
 -1      1377 9.49794E-05-2.84932E-05-2.84939E-05 7.95972E-08 1.67307E-20-2.79984E-18
 -1      1378 9.50516E-05-2.85136E-05-2.85157E-05 8.05085E-08-1.81283E-19-2.76332E-18
 -1      1379 9.49974E-05-2.84994E-05-2.84993E-05 1.59225E-07-3.78720E-19-2.22937E-18
 -1      1380 9.51287E-05-2.85352E-05-2.85397E-05 9.02056E-08-1.20297E-20-2.76777E-18
 -1      1381 9.52113E-05-2.85585E-05-2.85647E-05 9.32753E-08-1.20703E-19-2.81871E-18
 -1      1382 9.51420E-05-2.85380E-05-2.85454E-05 1.72025E-07-3.89016E-20-2.16920E-18
 -1      1383 9.53041E-05-2.85845E-05-2.85936E-05 1.13459E-07 1.08148E-19-2.29246E-18
 -1      1384 9.54093E-05-2.86143E-05-2.86254E-05 1.19099E-07 3.57454E-19-1.97552E-18
 -1      1385 9.53085E-05-2.85823E-05-2.85985E-05 2.08140E-07 1.44724E-19-2.76429E-18
 -1      1386 9.55287E-05-2.86479E-05-2.86625E-05 1.51906E-07 2.01963E-19-2.14685E-18
 -1      1387 9.56710E-05-2.86885E-05-2.87054E-05 1.60679E-07-6.75273E-20-2.13515E-18
 -1      1388 9.55164E-05-2.86378E-05-2.86647E-05 2.72026E-07 1.24264E-19-2.15611E-18
 -1      1389 9.58301E-05-2.87332E-05-2.87550E-05 2.08917E-07-1.17184E-19-2.03510E-18
 -1      1390 9.60273E-05-2.87901E-05-2.88142E-05 2.21560E-07 1.36501E-20-2.25014E-18
 -1      1391 9.57889E-05-2.87112E-05-2.87512E-05 3.69604E-07-6.29815E-20-1.94718E-18
 -1      1392 9.62419E-05-2.88505E-05-2.88812E-05 2.88813E-07 4.28199E-19-1.94452E-18
 -1      1393 9.65161E-05-2.89302E-05-2.89633E-05 3.06272E-07 4.48011E-19-1.39564E-18
 -1      1394 9.61542E-05-2.88104E-05-2.88666E-05 5.08510E-07 4.39870E-19-1.44036E-18
 -1      1395 9.68054E-05-2.90117E-05-2.90536E-05 3.96958E-07 2.17598E-19-9.98833E-19
 -1      1396 9.71842E-05-2.91226E-05-2.91668E-05 4.20405E-07-1.90063E-19-9.57742E-19
 -1      1397 9.66462E-05-2.89450E-05-2.90214E-05 6.98293E-07 4.45235E-19-1.15243E-18
 -1      1398 9.75711E-05-2.92316E-05-2.92877E-05 5.39746E-07-3.22727E-19-1.29613E-18
 -1      1399 9.80882E-05-2.93840E-05-2.94419E-05 5.70576E-07-1.41795E-20-1.58016E-18
 -1      1400 9.73057E-05-2.91268E-05-2.92281E-05 9.50442E-07-3.28332E-19-4.99264E-19
 -1      1401 9.85998E-05-2.95282E-05-2.96019E-05 7.24331E-07-1.66650E-19-1.95519E-18
 -1      1402 9.92961E-05-2.97348E-05-2.98091E-05 7.64099E-07-4.71948E-19-2.35802E-18
 -1      1403 9.81811E-05-2.93697E-05-2.95016E-05 1.27804E-06-7.77856E-19-9.89451E-19
 -1      1404 9.99634E-05-2.99231E-05-3.00181E-05 9.57793E-07 4.86217E-20-2.41365E-18
 -1      1405 1.00887E-04-3.01990E-05-3.02923E-05 1.00801E-06 2.52408E-19-2.41061E-18
 -1      1406 9.93286E-05-2.96908E-05-2.98585E-05 1.69453E-06-1.49849E-19-1.59725E-18
 -1      1407 1.01743E-04-3.04411E-05-3.05605E-05 1.24517E-06 4.58351E-19-1.48096E-18
 -1      1408 1.02947E-04-3.08036E-05-3.09169E-05 1.30681E-06 3.99005E-19-7.81633E-19
 -1      1409 1.00811E-04-3.01095E-05-3.03174E-05 2.21078E-06 7.36085E-19-1.21213E-18
 -1      1410 1.04023E-04-3.11095E-05-3.12540E-05 1.58527E-06-4.66149E-20-7.34086E-19
 -1      1411 1.05557E-04-3.15762E-05-3.17069E-05 1.65770E-06-5.34905E-20-3.69968E-19
 -1      1412 1.02691E-04-3.06480E-05-3.08957E-05 2.82876E-06 4.80976E-19-2.89281E-19
 -1      1413 1.06878E-04-3.19548E-05-3.21190E-05 1.96260E-06 9.64278E-20-1.09254E-20
 -1      1414 1.08775E-04-3.25400E-05-3.26763E-05 2.04144E-06 1.98970E-20 1.04053E-19
 -1      1415 1.05026E-04-3.13305E-05-3.16065E-05 3.52910E-06-2.72136E-19 4.36070E-19
 -1      1416 1.10339E-04-3.29961E-05-3.31607E-05 2.33304E-06-4.41847E-19-3.70061E-19
 -1      1417 1.12583E-04-3.37019E-05-3.38147E-05 2.40628E-06-6.59043E-19-1.22646E-18
 -1      1418 1.07844E-04-3.21802E-05-3.24506E-05 4.24874E-06-4.27077E-19 6.20187E-20
 -1      1419 1.14344E-04-3.42313E-05-3.43509E-05 2.60122E-06-1.17158E-18-1.50534E-18
 -1      1420 1.16814E-04-3.50315E-05-3.50608E-05 2.64302E-06-6.04474E-19-2.83097E-18
 -1      1421 1.11110E-04-3.32142E-05-3.34034E-05 4.84484E-06-1.28198E-18-5.86868E-19
 -1      1422 1.18643E-04-3.56124E-05-3.55985E-05 2.59216E-06 6.77873E-19-2.54345E-18
 -1      1423 1.21030E-04-3.64242E-05-3.62673E-05 2.55527E-06 6.47772E-19-2.25091E-18
 -1      1424 1.14673E-04-3.44297E-05-3.43972E-05 5.04623E-06-7.07057E-20-9.57842E-19
 -1      1425 1.22672E-04-3.70022E-05-3.67134E-05 2.03410E-06 3.80007E-19-1.44983E-18
 -1      1426 1.24389E-04-3.76482E-05-3.71655E-05 1.84680E-06 3.50837E-19-1.11742E-18
 -1      1427 1.18190E-04-3.57737E-05-3.53007E-05 4.41284E-06 1.13473E-18-2.25959E-19
 -1      1428 1.25431E-04-3.81120E-05-3.73827E-05 6.01188E-07 3.31230E-19-3.99588E-19
 -1      1429 1.25582E-04-3.82890E-05-3.73686E-05 1.86204E-07 6.40198E-19 2.42423E-19
 -1      1430 1.21035E-04-3.70798E-05-3.59119E-05 2.36892E-06 3.54708E-19 4.07688E-19
 -1      1431 1.25467E-04-3.84426E-05-3.72039E-05-1.89585E-06 7.89011E-19-5.06870E-19
 -1      1432 1.23048E-04-3.77548E-05-3.64734E-05-2.55304E-06 1.40872E-19 2.74174E-19
 -1      1433 1.22249E-04-3.79678E-05-3.59883E-05-1.55688E-06 8.84051E-19 7.42989E-19
 -1      1434 1.21240E-04-3.73226E-05-3.58352E-05-5.11089E-06 3.29549E-20 1.48522E-18
 -1      1435 1.15734E-04-3.54744E-05-3.43141E-05-5.83406E-06 7.56903E-19 1.54806E-18
 -1      1436 1.20677E-04-3.77826E-05-3.53450E-05-7.14646E-06 6.74940E-19 9.95727E-19
 -1      1437 1.12112E-04-3.42508E-05-3.32825E-05-7.75349E-06-9.90896E-20 1.97094E-18
 -1      1438 1.04387E-04-3.14425E-05-3.12628E-05-8.11221E-06-8.85795E-19 1.11332E-18
 -1      1439 1.15491E-04-3.57844E-05-3.40045E-05-1.27062E-05 6.52215E-19 8.35889E-19
 -1      1440 9.98064E-05-2.96521E-05-3.01259E-05-7.88695E-06-9.75729E-19 2.26888E-18
 -1      1441 9.24822E-05-2.68752E-05-2.82736E-05-7.43925E-06-7.45521E-19 7.72494E-19
 -1      1442 1.07277E-04-3.19601E-05-3.22915E-05-1.50049E-05-7.03527E-19 2.05474E-18
 -1      1443 8.88466E-05-2.53955E-05-2.74126E-05-4.52109E-06-1.35869E-19 8.01505E-20
 -1      1444 8.51081E-05-2.40189E-05-2.64429E-05-3.35844E-06-3.52445E-19-1.43969E-19
 -1      1445 9.88663E-05-2.77913E-05-3.07142E-05-1.12762E-05-1.06538E-18 2.12129E-18
 -1      1446 8.41409E-05-2.37667E-05-2.61242E-05 7.36092E-07 4.35216E-19 3.60558E-19
 -1      1447 8.53608E-05-2.44087E-05-2.63306E-05 1.85513E-06 9.23187E-19 1.49321E-18
 -1      1448 9.41886E-05-2.56826E-05-2.97214E-05-2.56620E-06-4.04511E-19 1.32937E-18
 -1      1449 8.69737E-05-2.53283E-05-2.65487E-05 4.56195E-06 4.61104E-20 1.81397E-18
 -1      1450 9.15261E-05-2.72485E-05-2.75895E-05 4.92517E-06-3.18961E-20 1.37971E-18
 -1      1451 9.50512E-05-2.67815E-05-2.94922E-05 5.86552E-06 8.34275E-19 1.05683E-18
 -1      1452 9.39411E-05-2.83868E-05-2.80704E-05 4.95911E-06 3.60525E-19 1.26758E-18
 -1      1453 9.86531E-05-3.02226E-05-2.92286E-05 4.55807E-06 4.85740E-19 1.41709E-18
 -1      1454 9.93768E-05-2.97258E-05-2.98493E-05 9.07611E-06 9.64294E-20 2.08161E-18
 -1      1455 1.00116E-04-3.07736E-05-2.96174E-05 2.69142E-06 7.00920E-19 1.67522E-18
 -1      1456 1.02651E-04-3.16410E-05-3.02999E-05 2.00795E-06 4.16873E-19 1.93928E-18
 -1      1457 1.03333E-04-3.21357E-05-3.03655E-05 6.60267E-06 7.93749E-19 2.98087E-18
 -1      1458 1.02547E-04-3.14620E-05-3.03778E-05-1.36768E-07-9.57544E-20 1.89254E-18
 -1      1459 1.02485E-04-3.13022E-05-3.04214E-05-6.53893E-07 5.21541E-19 2.14068E-18
 -1      1460 1.04488E-04-3.26988E-05-3.06143E-05 1.59966E-06 5.10801E-19 3.21075E-18
 -1      1461 1.01200E-04-3.06581E-05-3.02045E-05-1.86523E-06 8.48664E-19 2.35159E-18
 -1      1462 9.96328E-05-2.99408E-05-2.98465E-05-1.99814E-06 4.09693E-19 3.26963E-18
 -1      1463 1.02751E-04-3.15998E-05-3.04178E-05-2.47254E-06 7.89455E-19 3.02165E-18
 -1      1464 9.79801E-05-2.91938E-05-2.95078E-05-1.78277E-06-6.43083E-19 2.81960E-18
 -1      1465 9.65833E-05-2.86319E-05-2.91227E-05-1.59281E-06-1.20454E-18 1.77067E-18
 -1      1466 9.94409E-05-2.96516E-05-2.99032E-05-3.69589E-06-1.77434E-19 2.56435E-18
 -1      1467 9.52184E-05-2.83133E-05-2.87241E-05-7.05707E-08-1.73885E-18 1.48583E-18
 -1      1468 9.60044E-05-2.79432E-05-2.92052E-05-1.60998E-06-2.02775E-18 1.57787E-18
 -1      1469 9.65884E-05-2.83670E-05-2.97757E-05 2.99497E-06 1.11726E-18 6.95774E-18
 -1      1470 1.02546E-04-2.94015E-05-3.21589E-05 4.46203E-06 9.30466E-19 8.65350E-18
 -1      1471 1.02336E-04-2.67210E-05-3.27086E-05 1.27817E-05 1.87941E-18 5.22101E-18
 -1      1472 9.20434E-05-2.74331E-05-2.77656E-05 1.15121E-06 8.40654E-19 4.80834E-18
 -1      1473 9.39892E-05-2.75880E-05-2.86795E-05 1.47319E-06 8.08493E-19 6.14843E-18
 -1      1474 9.64975E-05-2.80335E-05-2.95370E-05 4.86624E-06 1.66918E-18 3.75473E-18
 -1      1475 9.02122E-05-2.70087E-05-2.70671E-05 3.30931E-07 4.14087E-19 3.25488E-18
 -1      1476 9.08263E-05-2.70260E-05-2.73395E-05 4.93849E-07 5.08657E-19 4.14199E-18
 -1      1477 9.30540E-05-2.75823E-05-2.81023E-05 1.85029E-06 1.27107E-18 2.55833E-18
 -1      1478 8.96963E-05-2.68910E-05-2.68919E-05-5.59629E-08 4.75503E-19 2.14553E-18
 -1      1479 8.97328E-05-2.68284E-05-2.69198E-05 3.31997E-08 3.98393E-19 2.84978E-18
 -1      1480 9.15020E-05-2.73115E-05-2.75189E-05 5.16243E-07 8.20146E-19 1.48837E-18
 -1      1481 8.98295E-05-2.69438E-05-2.69341E-05-2.43219E-07 2.06019E-19 1.31907E-18
 -1      1482 8.96002E-05-2.68360E-05-2.68688E-05-1.92938E-07 2.61812E-19 1.79118E-18
 -1      1483 9.09714E-05-2.72309E-05-2.73231E-05-1.33609E-07 6.59048E-19 8.80299E-19
 -1      1484 9.02832E-05-2.70865E-05-2.70726E-05-3.26285E-07 1.34194E-19 9.57703E-19
 -1      1485 8.99355E-05-2.69591E-05-2.69709E-05-2.98589E-07 1.04341E-19 1.16548E-18
 -1      1486 9.09898E-05-2.72742E-05-2.73124E-05-4.52243E-07 3.25095E-19 5.84539E-19
 -1      1487 9.08779E-05-2.72689E-05-2.72521E-05-3.50593E-07 3.26975E-19 5.28913E-19
 -1      1488 9.04899E-05-2.71384E-05-2.71385E-05-3.36888E-07 1.72071E-19 8.47734E-19
 -1      1489 9.12946E-05-2.73864E-05-2.73941E-05-5.92159E-07 3.20860E-19 2.91598E-19
 -1      1490 9.15110E-05-2.74610E-05-2.74427E-05-3.41099E-07 9.19842E-20 1.90384E-19
 -1      1491 9.11262E-05-2.73374E-05-2.73298E-05-3.36198E-07 1.34513E-19 3.34287E-19
 -1      1492 9.17350E-05-2.75301E-05-2.75200E-05-6.30115E-07 3.57317E-19-1.26552E-19
 -1      1493 9.21233E-05-2.76457E-05-2.76272E-05-3.12877E-07 3.07628E-19-3.72701E-19
 -1      1494 9.17660E-05-2.75342E-05-2.75221E-05-3.13423E-07 1.85664E-19-5.05308E-20
 -1      1495 9.22217E-05-2.76823E-05-2.76621E-05-6.09440E-07 3.93769E-19-6.39359E-19
 -1      1496 9.26824E-05-2.78135E-05-2.77960E-05-2.75468E-07 2.10403E-19-7.27105E-19
 -1      1497 9.23649E-05-2.77165E-05-2.77023E-05-2.79222E-07 2.14049E-19-5.90673E-19
 -1      1498 9.27020E-05-2.78290E-05-2.78041E-05-5.56571E-07 4.44173E-19-1.23307E-18
 -1      1499 9.31728E-05-2.79600E-05-2.79442E-05-2.35012E-07 4.69421E-19-1.56525E-18
 -1      1500 9.28999E-05-2.78782E-05-2.78634E-05-2.40460E-07 4.18029E-19-9.22885E-19
 -1      1501 9.31463E-05-2.79627E-05-2.79365E-05-4.88311E-07 5.44391E-19-1.29332E-18
 -1      1502 9.35899E-05-2.80843E-05-2.80705E-05-1.95445E-07 1.29685E-19-2.18343E-18
 -1      1503 9.33617E-05-2.80168E-05-2.80028E-05-2.01559E-07 2.47926E-19-1.96144E-18
 -1      1504 9.35399E-05-2.80799E-05-2.80546E-05-4.15492E-07 4.94996E-19-1.48214E-18
 -1      1505 9.39365E-05-2.81873E-05-2.81756E-05-1.59240E-07-5.26000E-20-1.80011E-18
 -1      1506 9.37498E-05-2.81328E-05-2.81200E-05-1.65326E-07-5.31555E-20-2.02105E-18
 -1      1507 9.38778E-05-2.81794E-05-2.81564E-05-3.45063E-07 5.87335E-20-1.36577E-18
 -1      1508 9.42194E-05-2.82710E-05-2.82616E-05-1.27922E-07 6.36298E-20-2.38279E-18
 -1      1509 9.40692E-05-2.82277E-05-2.82167E-05-1.33508E-07 1.34872E-19-1.96615E-18
 -1      1510 9.41615E-05-2.82622E-05-2.82424E-05-2.81425E-07 2.36601E-19-1.65298E-18
 -1      1511 9.44487E-05-2.83385E-05-2.83314E-05-1.02441E-07-1.83966E-19-2.21451E-18
 -1      1512 9.43288E-05-2.83043E-05-2.82955E-05-1.07191E-07-3.70597E-20-2.21743E-18
 -1      1513 9.43966E-05-2.83302E-05-2.83140E-05-2.27344E-07-4.48981E-20-1.72547E-18
 -1      1514 9.46360E-05-2.83935E-05-2.83886E-05-8.34431E-08-7.11571E-20-2.12965E-18
 -1      1515 9.45396E-05-2.83662E-05-2.83595E-05-8.71002E-08-6.39552E-20-2.38335E-18
 -1      1516 9.45916E-05-2.83860E-05-2.83737E-05-1.84626E-07 8.76977E-20-1.88644E-18
 -1      1517 9.47947E-05-2.84397E-05-2.84371E-05-7.14895E-08 3.53419E-19-2.77367E-18
 -1      1518 9.47142E-05-2.84169E-05-2.84127E-05-7.38168E-08 4.14365E-19-2.09593E-18
 -1      1519 9.47568E-05-2.84327E-05-2.84246E-05-1.54612E-07 4.02865E-19-1.84775E-18
 -1      1520 9.49392E-05-2.84817E-05-2.84815E-05-6.72113E-08-6.93810E-19-2.90480E-18
 -1      1521 9.48667E-05-2.84608E-05-2.84593E-05-6.79529E-08 1.16276E-19-2.76825E-18
 -1      1522 9.49042E-05-2.84738E-05-2.84703E-05-1.38560E-07 4.89049E-19-1.78038E-18
 -1      1523 9.50859E-05-2.85241E-05-2.85265E-05-7.14275E-08-3.63555E-19-1.70986E-18
 -1      1524 9.50123E-05-2.85024E-05-2.85039E-05-7.02741E-08-7.11870E-19-2.87479E-18
 -1      1525 9.50472E-05-2.85135E-05-2.85149E-05-1.37916E-07-6.42519E-19-2.02729E-18
 -1      1526 9.52529E-05-2.85724E-05-2.85777E-05-8.52170E-08-3.63797E-19-1.45507E-18
 -1      1527 9.51683E-05-2.85467E-05-2.85518E-05-8.17800E-08-2.06897E-19-1.62412E-18
 -1      1528 9.52013E-05-2.85561E-05-2.85631E-05-1.54515E-07-6.24425E-19-1.53093E-18
 -1      1529 9.54609E-05-2.86328E-05-2.86413E-05-1.09941E-07 6.54281E-19-1.70451E-18
 -1      1530 9.53540E-05-2.85995E-05-2.86086E-05-1.03737E-07-7.57594E-21-1.66514E-18
 -1      1531 9.53834E-05-2.86066E-05-2.86200E-05-1.90672E-07-7.64460E-20-1.96922E-18
 -1      1532 9.57335E-05-2.87122E-05-2.87245E-05-1.47197E-07 5.10972E-19-2.98354E-18
 -1      1533 9.55912E-05-2.86673E-05-2.86812E-05-1.37651E-07 6.65177E-19-1.75783E-18
 -1      1534 9.56133E-05-2.86709E-05-2.86917E-05-2.49169E-07 9.77387E-19-2.16383E-18
 -1      1535 9.60975E-05-2.88188E-05-2.88353E-05-1.98680E-07-1.77148E-19-2.98729E-18
 -1      1536 9.59051E-05-2.87574E-05-2.87769E-05-1.85144E-07-1.70615E-19-3.37215E-18
 -1      1537 9.59129E-05-2.87555E-05-2.87847E-05-3.33089E-07 3.05339E-19-2.59123E-18
 -1      1538 9.65827E-05-2.89615E-05-2.89827E-05-2.65893E-07 5.34545E-20-2.01277E-18
 -1      1539 9.63234E-05-2.88784E-05-2.89043E-05-2.47712E-07-3.26085E-19-2.57429E-18
 -1      1540 9.63068E-05-2.88677E-05-2.89065E-05-4.45413E-07-5.32449E-19-2.78965E-18
 -1      1541 9.72207E-05-2.91500E-05-2.91759E-05-3.49643E-07-3.05896E-20-1.83363E-18
 -1      1542 9.68768E-05-2.90395E-05-2.90723E-05-3.26278E-07 3.79368E-19-1.41566E-18
 -1      1543 9.68213E-05-2.90158E-05-2.90648E-05-5.88295E-07-1.89552E-19-1.34226E-18
 -1      1544 9.80427E-05-2.93941E-05-2.94242E-05-4.49226E-07-5.14524E-19-8.85302E-19
 -1      1545 9.75964E-05-2.92505E-05-2.92903E-05-4.20466E-07-4.94331E-19-1.55962E-18
 -1      1546 9.74830E-05-2.92082E-05-2.92674E-05-7.61839E-07-4.00043E-19-5.18147E-19
 -1      1547 9.90751E-05-2.97023E-05-2.97350E-05-5.61156E-07-2.11567E-19-5.89495E-19
 -1      1548 9.85113E-05-2.95208E-05-2.95667E-05-5.27478E-07-2.28214E-19-7.95114E-19
 -1      1549 9.83160E-05-2.94530E-05-2.95208E-05-9.62189E-07-3.37096E-19 2.69062E-19
 -1      1550 1.00332E-04-3.00798E-05-3.01119E-05-6.77336E-07-1.87604E-19-2.18137E-19
 -1      1551 9.96422E-05-2.98580E-05-2.99070E-05-6.40446E-07-3.14552E-19-6.09850E-19
 -1      1552 9.93365E-05-2.97569E-05-2.98291E-05-1.17870E-06-4.35441E-19 4.30023E-19
 -1      1553 1.01802E-04-3.05251E-05-3.05506E-05-7.82568E-07 4.17066E-19-3.77194E-19
 -1      1554 1.00992E-04-3.02651E-05-3.03115E-05-7.46191E-07 1.51521E-19-2.69906E-19
 -1      1555 1.00546E-04-3.01226E-05-3.01910E-05-1.38999E-06 1.21265E-19 3.32570E-19
 -1      1556 1.03434E-04-3.10248E-05-3.10341E-05-8.51591E-07 8.91663E-20-1.71250E-18
 -1      1557 1.02534E-04-3.07368E-05-3.07705E-05-8.22482E-07 5.28009E-19-9.01759E-19
 -1      1558 1.01918E-04-3.05464E-05-3.05963E-05-1.55900E-06 8.65566E-19 2.52684E-19
 -1      1559 1.05113E-04-3.15472E-05-3.15259E-05-8.46332E-07-2.18310E-19-1.80826E-18
 -1      1560 1.04190E-04-3.12537E-05-3.12586E-05-8.35360E-07-2.95633E-19-2.48188E-18
 -1      1561 1.03385E-04-3.10131E-05-3.10219E-05-1.62781E-06 2.92841E-19-1.19733E-18
 -1      1562 1.06637E-04-3.20339E-05-3.19635E-05-7.15255E-07 5.07452E-19-2.21046E-18
 -1      1563 1.05809E-04-3.17750E-05-3.17287E-05-7.38021E-07 2.82636E-19-1.79838E-18
 -1      1564 1.04822E-04-3.14901E-05-3.14261E-05-1.51432E-06-2.37219E-20-1.61387E-18
 -1      1565 1.07698E-04-3.23929E-05-3.22534E-05-3.98433E-07 2.03427E-19-2.25964E-18
 -1      1566 1.07146E-04-3.22300E-05-3.21053E-05-4.74315E-07 3.88874E-20-2.03946E-18
 -1      1567 1.06024E-04-3.19210E-05-3.17452E-05-1.11593E-06 1.24825E-19-1.72495E-18
 -1      1568 1.07884E-04-3.24961E-05-3.22753E-05 1.55968E-07-7.61125E-19-5.88331E-19
 -1      1569 1.07852E-04-3.25116E-05-3.22838E-05 8.22499E-09-2.90754E-19-1.11616E-18
 -1      1570 1.06708E-04-3.22181E-05-3.18940E-05-3.28110E-07-7.42663E-19-4.03171E-19
 -1      1571 1.06735E-04-3.21919E-05-3.19001E-05 9.58241E-07 2.35525E-19-8.30522E-19
 -1      1572 1.07493E-04-3.24775E-05-3.21396E-05 7.30448E-07-4.35785E-19-1.03440E-18
 -1      1573 1.06520E-04-3.22618E-05-3.17753E-05 9.11644E-07-5.08326E-19 4.10571E-19
 -1      1574 1.03868E-04-3.13425E-05-3.10310E-05 1.92882E-06 7.49320E-19-2.28151E-18
 -1      1575 1.05634E-04-3.19709E-05-3.15561E-05 1.63850E-06 8.76295E-19-8.48581E-19
 -1      1576 1.05109E-04-3.19123E-05-3.13035E-05 2.55012E-06 1.03280E-18-1.95248E-19
 -1      1577 9.91939E-05-2.98942E-05-2.96625E-05 2.85714E-06-6.08424E-19-9.00820E-19
 -1      1578 1.02003E-04-3.08719E-05-3.04722E-05 2.56141E-06-4.86865E-19-1.81532E-18
 -1      1579 1.02247E-04-3.10489E-05-3.04420E-05 4.33428E-06-3.34565E-19 7.73626E-19
 -1      1580 9.31462E-05-2.79648E-05-2.79358E-05 3.41511E-06-3.24032E-19-3.88470E-19
 -1      1581 9.67166E-05-2.91828E-05-2.89410E-05 3.20851E-06-3.04237E-20-4.37360E-19
 -1      1582 9.80123E-05-2.96435E-05-2.92447E-05 5.77740E-06-2.26651E-19 1.14915E-18
 -1      1583 8.67805E-05-2.58965E-05-2.61496E-05 3.27587E-06-5.63090E-19 7.78476E-20
 -1      1584 9.04656E-05-2.71145E-05-2.71694E-05 3.25604E-06 3.84854E-20-1.86135E-19
 -1      1585 9.29462E-05-2.78500E-05-2.78789E-05 6.26658E-06 1.30129E-19 2.06344E-18
 -1      1586 8.15542E-05-2.41927E-05-2.46885E-05 2.32135E-06-9.57412E-20 2.23326E-19
 -1      1587 8.44921E-05-2.51015E-05-2.54962E-05 2.52885E-06-2.79666E-19 1.38252E-19
 -1      1588 8.80495E-05-2.60434E-05-2.66003E-05 5.35798E-06-1.37186E-19 1.83569E-18
 -1      1589 7.87555E-05-2.33120E-05-2.38799E-05 8.00666E-07 8.25712E-19-1.03260E-18
 -1      1590 8.02163E-05-2.36700E-05-2.42906E-05 1.17387E-06 4.82107E-19-3.44239E-20
 -1      1591 8.44890E-05-2.47227E-05-2.56745E-05 3.12874E-06 6.65688E-19 6.19922E-19
 -1      1592 7.88697E-05-2.34218E-05-2.38494E-05-7.41305E-07-1.78871E-18 5.91798E-19
 -1      1593 7.86168E-05-2.31866E-05-2.38039E-05-3.44628E-07-8.37272E-19-7.56156E-19
 -1      1594 8.30808E-05-2.42670E-05-2.52738E-05 2.88786E-07-6.82060E-19 1.07312E-18
 -1      1595 8.13462E-05-2.43081E-05-2.44710E-05-1.77180E-06 1.78442E-18-6.15105E-19
 -1      1596 7.97447E-05-2.36562E-05-2.40584E-05-1.49051E-06 7.77404E-19 7.49518E-19
 -1      1597 8.38714E-05-2.47040E-05-2.54086E-05-2.15340E-06 1.55265E-19 5.10205E-19
 -1      1598 8.49667E-05-2.55241E-05-2.54479E-05-2.07634E-06 2.11743E-18-4.55203E-18
 -1      1599 8.27466E-05-2.47367E-05-2.48503E-05-1.96666E-06 1.65238E-18-1.74521E-18
 -1      1600 8.61524E-05-2.56982E-05-2.59353E-05-3.46984E-06 2.84034E-18-9.10269E-19
 -1      1601 8.85332E-05-2.66554E-05-2.64669E-05-1.82253E-06 1.99053E-19-6.13030E-18
 -1      1602 8.63843E-05-2.59611E-05-2.58650E-05-1.84342E-06 9.51858E-19-4.68520E-18
 -1      1603 8.89043E-05-2.67764E-05-2.66350E-05-3.57923E-06 1.67707E-18-1.05257E-18
 -1      1604 9.13790E-05-2.75042E-05-2.73254E-05-1.36474E-06-5.00132E-19-5.29531E-18
 -1      1605 8.96648E-05-2.69908E-05-2.68271E-05-1.42984E-06-4.03545E-19-5.83762E-18
 -1      1606 9.13238E-05-2.76048E-05-2.73112E-05-2.94587E-06 2.25159E-20-1.01592E-18
 -1      1607 9.34039E-05-2.80948E-05-2.79493E-05-9.60732E-07-9.67027E-19-4.64145E-18
 -1      1608 9.21664E-05-2.77325E-05-2.75883E-05-1.01638E-06-4.80526E-19-5.31593E-18
 -1      1609 9.30886E-05-2.81130E-05-2.78478E-05-2.15092E-06-8.10548E-19-2.94323E-18
 -1      1610 9.47233E-05-2.85335E-05-2.83226E-05-6.04974E-07-4.91888E-19-3.24523E-18
 -1      1611 9.39288E-05-2.82823E-05-2.81058E-05-6.52198E-07-7.64328E-19-4.44128E-18
 -1      1612 9.42886E-05-2.84646E-05-2.81919E-05-1.45583E-06-6.51176E-19-2.72019E-18
 -1      1613 9.50774E-05-2.87479E-05-2.83650E-05-2.26347E-07-1.53956E-18-1.43336E-18
 -1      1614 9.56701E-05-2.99448E-05-2.81495E-05-7.88115E-07-6.84628E-19 1.00471E-18
 -1      1615 9.53617E-05-2.92589E-05-2.83031E-05-7.22666E-07-1.81035E-18 7.25586E-20
 -1      1616 9.61059E-05-3.05550E-05-2.80980E-05-3.31371E-07 2.14211E-18 2.01230E-18
 -1      1617 9.58727E-05-3.02023E-05-2.81404E-05-4.84050E-07 3.45735E-19 2.26149E-18
 -1      1618 9.57140E-05-2.97024E-05-2.83154E-05-1.12563E-06 8.78419E-19 2.67428E-18
 -1      1619 9.59913E-05-2.94106E-05-2.85628E-05 1.02914E-06 6.54054E-19-6.37008E-19
 -1      1620 9.61456E-05-3.02666E-05-2.82602E-05 6.88904E-07 2.05343E-18 6.11776E-19
 -1      1621 9.62420E-05-2.98399E-05-2.85242E-05 4.54927E-07 1.26206E-18 9.82135E-19
 -1      1622 9.49076E-05-2.53003E-05-2.98819E-05 3.16759E-06 9.06855E-20-7.42821E-19
 -1      1623 9.57123E-05-2.80994E-05-2.90355E-05 2.67437E-06-1.76156E-20 5.88159E-19
 -1      1624 9.61967E-05-2.84397E-05-2.91596E-05 3.64288E-06 9.45024E-19-1.01821E-18
 -1      1625 9.25791E-05-1.76829E-05-3.21612E-05 5.60230E-06-3.29946E-18-1.01718E-18
 -1      1626 9.41712E-05-2.26582E-05-3.07301E-05 5.08561E-06-1.92785E-18-2.26993E-18
 -1      1627 9.52561E-05-2.46837E-05-3.03963E-05 7.93828E-06-2.45375E-20-2.68511E-18
 -1      1628 8.89429E-05-6.73333E-06-3.52776E-05 7.53021E-06-3.73605E-18-5.83791E-20
 -1      1629 9.12813E-05-1.36046E-05-3.33685E-05 7.18550E-06-4.01462E-18 1.07831E-19
 -1      1630 9.30691E-05-1.81222E-05-3.22545E-05 1.22218E-05-2.48183E-18-1.26258E-18
 -1      1631 8.46717E-05 5.35865E-06-3.85715E-05 7.72258E-06-2.43840E-18 1.01699E-18
 -1      1632 8.72301E-05-1.83265E-06-3.66279E-05 7.83976E-06-4.76287E-18 1.51497E-18
 -1      1633 8.95929E-05-9.14129E-06-3.45199E-05 1.46356E-05-2.45139E-18 4.61187E-19
 -1      1634 8.10855E-05 1.50567E-05-4.11166E-05 5.37700E-06 1.32190E-19-8.67679E-20
 -1      1635 8.30077E-05 9.80214E-06-3.97237E-05 6.07838E-06-1.54552E-18 9.63129E-19
 -1      1636 8.55668E-05 3.57764E-07-3.67013E-05 1.31237E-05-1.64494E-18 1.79940E-18
 -1      1637 7.96635E-05 1.88167E-05-4.20813E-05 9.50872E-07-1.28895E-18-5.74527E-19
 -1      1638 8.01566E-05 1.74604E-05-4.17201E-05 2.01013E-06-1.23455E-19-1.06750E-18
 -1      1639 8.24355E-05 7.39153E-06-3.82177E-05 7.02634E-06-2.32828E-19 2.30287E-21
 -1      1640 8.10503E-05 1.51936E-05-4.11570E-05-3.76926E-06-2.23352E-18-3.75500E-19
 -1      1641 7.99270E-05 1.82102E-05-4.19433E-05-2.83924E-06-1.22764E-18 4.07899E-20
 -1      1642 8.16345E-05 9.23427E-06-3.86229E-05-1.78523E-06-1.25160E-18-3.63801E-19
 -1      1643 8.44755E-05 6.01847E-06-3.87686E-05-6.80169E-06-3.60582E-18 6.35526E-19
 -1      1644 8.23049E-05 1.19887E-05-4.03578E-05-6.38213E-06-2.69309E-18-4.28916E-19
 -1      1645 8.35049E-05 5.26335E-06-3.78258E-05-9.62380E-06-2.49456E-18-1.67308E-18
 -1      1646 8.85874E-05-5.50380E-06-3.56631E-05-7.41910E-06-4.03209E-18-1.31246E-19
 -1      1647 8.61584E-05 1.44648E-06-3.75608E-05-7.53264E-06-3.95723E-18 1.37866E-18
 -1      1648 8.70214E-05-2.68498E-06-3.61003E-05-1.36269E-05-2.41066E-18 1.01827E-18
 -1      1649 9.20171E-05-1.58153E-05-3.27362E-05-6.09751E-06-5.20597E-18 4.98088E-19
 -1      1650 9.00521E-05-9.89582E-06-3.44074E-05-6.50617E-06-3.96321E-18-8.91979E-19
 -1      1651 9.07349E-05-1.17324E-05-3.39451E-05-1.32644E-05-2.42003E-18-8.71577E-19
 -1      1652 9.42145E-05-2.29473E-05-3.05589E-05-4.01072E-06-4.66519E-18 6.34084E-19
 -1      1653 9.29334E-05-1.90843E-05-3.17121E-05-4.37955E-06-5.80689E-18 1.88158E-18
 -1      1654 9.35348E-05-1.93746E-05-3.19108E-05-1.00043E-05-1.83164E-18 9.42324E-20
 -1      1655 9.55698E-05-2.67784E-05-2.94478E-05-2.60311E-06-2.46353E-18 1.29463E-18
 -1      1656 9.50451E-05-2.49674E-05-3.00609E-05-3.26345E-06-3.69595E-18 5.85273E-19
 -1      1657 9.55590E-05-2.45303E-05-3.05560E-05-6.76282E-06-2.34123E-18 1.01641E-18
 -1      1658 9.70128E-05-2.76307E-05-2.98340E-05-4.62181E-06-1.90492E-18 1.57195E-18
 -1      1659 2.34157E-05-7.61564E-05 1.60908E-05-5.79359E-06 3.60031E-18 1.29469E-18
 -1      1660 2.80129E-05-8.94663E-05 1.87576E-05 3.09487E-06 8.74350E-19 1.37050E-18
 -1      1661 2.61554E-05-4.18006E-05 2.87750E-06 1.04888E-05 4.99157E-18 2.72406E-18
 -1      1662 3.03604E-05-7.00170E-05 1.06829E-05 3.66768E-06 4.75694E-18 4.62056E-19
 -1      1663 4.71150E-05-1.20007E-05-1.60488E-05 3.90197E-05 5.30920E-18 2.59954E-18
 -1      1664 3.78974E-05-3.49720E-05-5.57232E-06 1.69509E-05 4.44777E-18 3.17764E-18
 -1      1665 9.47802E-05-2.07193E-06-3.77201E-05 7.28870E-05 1.60597E-18-1.81265E-18
 -1      1666 6.25908E-05-4.82419E-06-2.63590E-05 4.73945E-05 4.41728E-18 1.04100E-18
 -1      1667 1.72077E-04-2.57471E-05-5.83646E-05 8.23096E-05-1.72414E-18-5.49724E-18
 -1      1668 1.23095E-04-7.68494E-06-4.80040E-05 7.43466E-05 4.74338E-20-3.54399E-18
 -1      1669 2.36813E-04-5.28842E-05-7.30112E-05 5.34552E-05-1.68290E-18-8.44153E-18
 -1      1670 1.94747E-04-3.10058E-05-6.62431E-05 7.23307E-05-2.09778E-18-6.94906E-18
 -1      1671 2.67962E-04-6.73156E-05-7.93708E-05 6.07316E-06-2.80791E-19-1.02276E-17
 -1      1672 2.54495E-04-5.89538E-05-7.76603E-05 4.35481E-05-1.17928E-18-9.85904E-18
 -1      1673 2.39350E-04-5.27318E-05-7.46285E-05-4.63490E-05 4.18223E-19-7.60297E-18
 -1      1674 2.62279E-04-6.50144E-05-7.81412E-05-1.09583E-05-4.14834E-19-9.01095E-18
 -1      1675 1.82638E-04-2.73281E-05-6.29215E-05-7.70153E-05 4.30970E-18-8.36953E-18
 -1      1676 2.26101E-04-4.91734E-05-6.99912E-05-6.36620E-05 2.92576E-18-6.60008E-18
 -1      1677 1.13318E-04-9.14733E-06-4.39369E-05-6.55167E-05 4.52570E-18-7.39460E-18
 -1      1678 1.58787E-04-2.39001E-05-5.41961E-05-7.60770E-05 4.25719E-18-7.61906E-18
 -1      1679 5.50279E-05-6.21261E-06-2.31052E-05-4.05264E-05 4.64852E-18-4.81454E-18
 -1      1680 8.36571E-05-2.28998E-06-3.39028E-05-6.47940E-05 4.86028E-18-7.20147E-18
 -1      1681 3.04041E-05-3.17679E-05-3.95101E-06-1.13984E-05 5.84368E-18-2.60463E-18
 -1      1682 3.74416E-05-1.02514E-05-1.33723E-05-3.10172E-05 5.07712E-18-3.44319E-18
 -1      1683 2.66053E-05-6.60075E-05 1.08662E-05-1.87994E-07 6.25619E-18-2.96067E-18
 -1      1684 2.21009E-05-4.02115E-05 3.78786E-06-5.52619E-06 6.58314E-18-2.60674E-18
 -1      1685 2.64155E-05-8.62168E-05 1.86946E-05-2.72887E-06 3.62911E-18-6.00546E-19
 -1      1686 2.21096E-05-7.35964E-05 1.59657E-05 6.73049E-06 5.54849E-18-3.32990E-18
 -1      1687 2.21222E-05-7.57337E-05 1.69198E-05-9.30999E-06 2.20779E-18-1.13375E-18
 -1      1688 2.53463E-05-8.42420E-05 1.86836E-05 2.02705E-07 3.47771E-18-4.12082E-19
 -1      1689 2.04400E-05-5.01450E-05 7.90496E-06-3.84443E-06-2.17687E-19-4.80585E-19
 -1      1690 2.58713E-05-7.21959E-05 1.34876E-05-5.19056E-06 2.03119E-18-1.07510E-18
 -1      1691 3.33591E-05-2.10966E-05-7.95376E-06 1.98777E-05-9.01243E-19-2.42971E-18
 -1      1692 2.94924E-05-4.39355E-05 9.67967E-07 3.24932E-06-3.49825E-19-1.25361E-18
 -1      1693 7.08632E-05-6.82248E-06-2.75163E-05 5.19206E-05-2.19551E-18-3.19755E-18
 -1      1694 4.80259E-05-1.55213E-05-1.71588E-05 2.81004E-05-1.85585E-18-2.22261E-18
 -1      1695 1.42746E-04-2.17775E-05-4.88060E-05 7.18000E-05-2.51992E-18-5.28464E-18
 -1      1696 9.84641E-05-1.12247E-05-3.77740E-05 5.58982E-05-1.97613E-18-4.15893E-18
 -1      1697 2.18541E-04-4.80496E-05-6.71703E-05 6.27870E-05-2.30044E-18-6.85250E-18
 -1      1698 1.69094E-04-2.59664E-05-5.84529E-05 7.03472E-05-3.10183E-18-5.88434E-18
 -1      1699 2.67156E-04-6.84033E-05-7.78224E-05 2.37709E-05-9.94840E-19-5.29565E-18
 -1      1700 2.38957E-04-5.37839E-05-7.34990E-05 5.28763E-05-1.70661E-18-6.37985E-18
 -1      1701 2.66816E-04-6.48963E-05-7.93932E-05-2.92675E-05-2.53263E-19-3.64944E-18
 -1      1702 2.69034E-04-6.72543E-05-7.94108E-05 7.04862E-06-6.46710E-19-4.20721E-18
 -1      1703 2.32514E-04-4.62957E-05-7.35497E-05-7.20214E-05-2.62792E-19-2.10657E-18
 -1      1704 2.62779E-04-6.38163E-05-7.78040E-05-4.61738E-05-2.24464E-20-3.43260E-18
 -1      1705 1.66905E-04-1.85031E-05-5.98529E-05-8.53826E-05-1.74065E-18 2.65121E-19
 -1      1706 2.12939E-04-3.99460E-05-6.77620E-05-8.11964E-05-6.52004E-19-1.60428E-18
 -1      1707 9.95509E-05-2.74200E-06-4.09252E-05-6.92246E-05-2.77657E-18 2.50383E-18
 -1      1708 1.41467E-04-1.28127E-05-5.11587E-05-8.61873E-05-2.16078E-18 1.08759E-18
 -1      1709 5.33932E-05-1.13135E-05-2.05947E-05-3.79016E-05-4.64513E-18 2.40303E-18
 -1      1710 7.66796E-05-2.22052E-06-3.10247E-05-6.28458E-05-2.90193E-18 3.03577E-18
 -1      1711 3.20709E-05-4.18109E-05-1.19023E-06-8.84685E-06-3.35002E-18 3.62869E-18
 -1      1712 3.63377E-05-1.62189E-05-1.09217E-05-2.80765E-05-5.11608E-18 3.10776E-18
 -1      1713 2.93836E-05-7.53907E-05 1.27730E-05 3.27904E-07-1.30274E-18 1.68962E-18
 -1      1714 2.39190E-05-4.99585E-05 6.22153E-06-3.00071E-06-3.72017E-18 3.26997E-18
 -1      1715 2.86782E-05-9.27554E-05 1.94620E-05-2.13048E-06 6.03617E-19 2.70415E-19
 -1      1716 2.49011E-05-8.24442E-05 1.73596E-05 8.29028E-06-3.46860E-19 3.38178E-19
 -1      1717 1.35566E-04-3.29929E-05-4.19337E-05 5.10655E-05 1.62588E-18-5.13810E-18
 -1      1718 8.92580E-05-3.95731E-05-2.21375E-05 4.66000E-05 2.06168E-18-1.65256E-18
 -1      1719 9.51548E-05-2.89257E-05-2.83328E-05-6.71274E-07-2.55788E-18-2.08912E-18
 -1      1720 9.50441E-05-2.89860E-05-2.82999E-05-1.27990E-06-9.28997E-19-4.67627E-19
 -1      1721 2.44618E-05-5.38260E-05 8.40977E-06 2.23661E-05 1.52466E-18 1.37770E-18
 -1      1722 5.35085E-05-4.96059E-05-4.44817E-06 3.78691E-05 1.59242E-18 1.07393E-18
 -1      1723 1.43385E-05-6.04663E-05 1.42589E-05 1.66784E-06-4.17005E-19 2.43056E-18
 -1      1724 1.79387E-04-3.27986E-05-5.90672E-05 3.85471E-05 8.36974E-20-6.09779E-18
 -1      1725 2.08716E-04-3.28569E-05-7.07028E-05 2.12714E-05-6.46286E-19-6.54926E-18
 -1      1726 2.18534E-04-3.36869E-05-7.40064E-05 1.71928E-06-1.01093E-18-7.53378E-18
 -1      1727 2.04869E-04-3.40753E-05-6.85417E-05-2.42456E-05 1.37643E-18-7.04266E-18
 -1      1728 1.71293E-04-3.49449E-05-5.56275E-05-3.86320E-05 3.26521E-18-5.52689E-18
 -1      1729 1.26522E-04-3.40536E-05-3.81623E-05-4.56810E-05 2.19127E-18-5.26346E-18
 -1      1730 7.75336E-05-3.52661E-05-1.91782E-05-4.14438E-05 4.04035E-18-3.98698E-18
 -1      1731 4.38409E-05-4.50653E-05-2.45562E-06-3.01160E-05 4.55873E-18-1.57638E-18
 -1      1732 2.16099E-05-5.37833E-05 9.60307E-06-1.74150E-05 4.64852E-18-3.49867E-18
 -1      1733 1.27657E-05-5.76942E-05 1.44916E-05-2.38364E-06 2.95286E-18-1.21761E-18
 -1      1734 1.88028E-05-5.50113E-05 1.12171E-05 1.03433E-05 1.52635E-18-1.54584E-18
 -1      1735 3.88128E-05-5.00161E-05 1.34589E-06 2.30279E-05 7.05578E-19-1.73057E-18
 -1      1736 7.06913E-05-4.25600E-05-1.39429E-05 3.39552E-05-2.52416E-19-2.49578E-18
 -1      1737 1.16433E-04-3.92005E-05-3.26191E-05 4.02078E-05 3.21873E-20-2.63935E-18
 -1      1738 1.64950E-04-3.90279E-05-5.13207E-05 3.45065E-05-1.03634E-18-3.19840E-18
 -1      1739 2.05174E-04-3.86124E-05-6.64919E-05 2.34380E-05-1.91747E-18-4.12759E-18
 -1      1740 2.23756E-04-3.72310E-05-7.40395E-05 2.89304E-06-9.78747E-19-2.35941E-18
 -1      1741 2.21757E-04-3.49314E-05-7.40174E-05-2.03313E-05-8.69056E-19-1.79444E-18
 -1      1742 2.04020E-04-3.51330E-05-6.70270E-05-4.09000E-05-1.94108E-18-1.20363E-18
 -1      1743 1.64978E-04-3.27767E-05-5.32650E-05-5.14509E-05-1.93801E-18-6.26804E-19
 -1      1744 1.19900E-04-3.45152E-05-3.55815E-05-5.14613E-05-2.33358E-18 1.88041E-18
 -1      1745 7.70955E-05-4.09617E-05-1.69791E-05-4.31555E-05-3.07981E-18 1.09775E-18
 -1      1746 4.41371E-05-5.11383E-05-6.69525E-07-3.10772E-05-1.85331E-18 3.73581E-18
 -1      1747 2.21614E-05-5.79350E-05 1.05267E-05-1.70188E-05-1.64790E-18 2.37169E-18
 -1      1748 1.06060E-04-2.31733E-05-3.56062E-05-1.68519E-05-1.48391E-18 7.38549E-18
 -1      1749 8.91296E-05-1.05602E-05-3.37961E-05-1.33386E-05-2.19889E-18-1.50772E-18
 -1      1750 9.04593E-05-1.16288E-05-3.39364E-05-1.51121E-05-2.47357E-18-7.16616E-19
 -1      1751 9.24982E-05-1.38754E-05-3.38554E-05-1.60005E-05-2.40085E-18 2.10673E-19
 -1      1752 9.42142E-05-1.58263E-05-3.40993E-05-1.76612E-05-2.47807E-18 1.49184E-18
 -1      1753 9.34478E-05-1.63673E-05-3.30455E-05-1.37488E-05-2.51055E-18-2.04003E-19
 -1      1754 8.62078E-05-7.67222E-06-3.37296E-05-7.86316E-06-1.42012E-18-3.09262E-18
 -1      1755 8.66101E-05-7.97057E-06-3.37634E-05-9.25227E-06-1.64953E-18-2.86547E-18
 -1      1756 8.55908E-05-7.03540E-06-3.37261E-05-5.32015E-06-1.03896E-18-3.40812E-18
 -1      1757 8.58253E-05-7.21400E-06-3.37414E-05-6.62477E-06-1.23098E-18-3.27239E-18
 -1      1758 8.75900E-05-9.86648E-06-3.33430E-05-6.92886E-06-1.43412E-18-3.07386E-18
 -1      1759 8.52555E-05-6.67667E-06-3.37290E-05-2.88868E-06-6.63712E-19-3.48750E-18
 -1      1760 8.53765E-05-6.77136E-06-3.37351E-05-4.12833E-06-8.69018E-19-3.46766E-18
 -1      1761 8.69546E-05-9.15447E-06-3.33756E-05-4.53740E-06-9.95583E-19-3.27252E-18
 -1      1762 8.51246E-05-6.52852E-06-3.37324E-05-5.17498E-07-1.55226E-19-3.57721E-18
 -1      1763 8.51603E-05-6.55704E-06-3.37338E-05-1.72705E-06-4.20456E-19-3.52796E-18
 -1      1764 8.66223E-05-8.77540E-06-3.33954E-05-2.21725E-06-5.67695E-19-3.38861E-18
 -1      1765 8.51702E-05-6.56605E-06-3.37341E-05 1.84499E-06 2.11368E-19-3.64591E-18
 -1      1766 8.51283E-05-6.53309E-06-3.37323E-05 6.34433E-07 2.32773E-20-3.61494E-18
 -1      1767 8.65240E-05-8.66187E-06-3.34019E-05 6.53544E-08-5.81563E-20-3.50553E-18
 -1      1768 8.54018E-05-6.79638E-06-3.37352E-05 4.25076E-06 5.51833E-19-3.72607E-18
 -1      1769 8.52735E-05-6.69564E-06-3.37290E-05 3.00801E-06 4.09336E-19-3.71666E-18
 -1      1770 8.66400E-05-8.79502E-06-3.33946E-05 2.34919E-06 3.25369E-19-3.59248E-18
 -1      1771 8.58596E-05-7.24975E-06-3.37409E-05 6.71186E-06 9.50002E-19-3.51029E-18
 -1      1772 8.56211E-05-7.06746E-06-3.37259E-05 5.42470E-06 7.69620E-19-3.65140E-18
 -1      1773 8.69888E-05-9.19214E-06-3.33740E-05 4.65239E-06 7.21516E-19-3.54510E-18
 -1      1774 8.66742E-05-8.03975E-06-3.37620E-05 9.37326E-06 1.48149E-18-3.16004E-18
 -1      1775 8.62526E-05-7.72306E-06-3.37281E-05 7.95255E-06 1.19040E-18-3.33413E-18
 -1      1776 8.76419E-05-9.92491E-06-3.33400E-05 7.02742E-06 1.18798E-18-3.25782E-18
 -1      1777 8.80885E-05-9.38799E-06-3.38179E-05 1.22519E-05 2.00952E-18-2.53493E-18
 -1      1778 8.73474E-05-8.82986E-06-3.37456E-05 1.06590E-05 1.72565E-18-2.90861E-18
 -1      1779 8.87647E-05-1.11601E-05-3.32898E-05 9.50126E-06 1.70139E-18-2.88073E-18
 -1      1780 9.06347E-05-1.18409E-05-3.39286E-05 1.53003E-05 2.40332E-18-1.44229E-18
 -1      1781 8.92532E-05-1.07413E-05-3.37885E-05 1.35105E-05 2.15702E-18-2.11726E-18
 -1      1782 9.06641E-05-1.32234E-05-3.32075E-05 1.19729E-05 2.27147E-18-2.13117E-18
 -1      1783 9.58817E-05-1.70363E-05-3.39948E-05 1.76883E-05 2.47969E-18 8.42851E-19
 -1      1784 9.28611E-05-1.43445E-05-3.38283E-05 1.61913E-05 2.38040E-18-5.13196E-19
 -1      1785 9.39740E-05-1.68883E-05-3.30254E-05 1.38919E-05 2.52872E-18-8.40945E-19
 -1      1786 1.01932E-04-2.50967E-05-3.33613E-05 1.44207E-05 2.16528E-18 3.69984E-18
 -1      1787 9.80829E-05-1.96186E-05-3.36271E-05 1.69622E-05 2.29223E-18 1.81302E-18
 -1      1788 9.73355E-05-2.18562E-05-3.24294E-05 1.32461E-05 2.53772E-18 8.80094E-19
 -1      1789 9.87598E-05-2.61377E-05-3.13446E-05 9.43312E-06 2.18852E-18 3.03457E-18
 -1      1790 1.00163E-04-1.95664E-05-3.42200E-05-1.88678E-05-2.05877E-18 3.62212E-18
 -1      1791 9.53196E-05-2.72882E-05-2.91878E-05 4.06503E-06 1.71612E-18 2.10557E-18
 -1      1792 9.77495E-05-2.73932E-05-3.01968E-05 6.39911E-06 1.85429E-18 2.69332E-18
 -1      1793 9.75837E-05-2.56171E-05-3.08349E-05 8.75774E-06 2.18153E-18 1.50625E-18
 -1      1794 9.98230E-05-2.25447E-05-3.28379E-05-1.44673E-05-2.22317E-18 2.67472E-18
 -1      1795 9.69657E-05-2.69798E-05-2.98790E-05-5.70264E-06-1.80667E-18 2.26986E-18
 -1      1796 9.51594E-05-2.70365E-05-2.91684E-05-3.89546E-06-1.61842E-18 1.72269E-18
 -1      1797 9.43407E-05-2.72383E-05-2.86611E-05-2.41997E-06-1.42863E-18 1.61343E-18
 -1      1798 9.35693E-05-2.73187E-05-2.83563E-05-1.56691E-06-1.28953E-18 1.19265E-18
 -1      1799 9.55121E-05-2.65482E-05-2.95769E-05-4.47057E-06-1.82060E-18 6.34725E-19
 -1      1800 9.30443E-05-2.73692E-05-2.80876E-05-7.40357E-07-1.06084E-18 1.13656E-18
 -1      1801 9.27432E-05-2.74328E-05-2.79656E-05-3.02353E-07-7.56837E-19 8.28636E-19
 -1      1802 9.43026E-05-2.72234E-05-2.87688E-05-1.82783E-06-1.35789E-18 3.40176E-19
 -1      1803 9.24673E-05-2.74602E-05-2.78295E-05 1.52420E-07-6.66973E-19 7.07582E-19
 -1      1804 9.24359E-05-2.75364E-05-2.77995E-05 3.75955E-07-6.60515E-19 5.13130E-19
 -1      1805 9.36013E-05-2.75294E-05-2.83329E-05-3.62418E-07-9.11399E-19 1.09446E-19
 -1      1806 9.23320E-05-2.75678E-05-2.77411E-05 6.14860E-07-6.26483E-19 6.43393E-19
 -1      1807 9.24463E-05-2.76527E-05-2.77601E-05 7.18064E-07-5.27195E-19 2.70917E-19
 -1      1808 9.32796E-05-2.77143E-05-2.81116E-05 4.38424E-07-6.55824E-19-1.80868E-19
 -1      1809 9.24507E-05-2.76905E-05-2.77478E-05 8.28025E-07-5.97171E-19 1.36284E-19
 -1      1810 9.26373E-05-2.77770E-05-2.77922E-05 8.60758E-07-6.09044E-19 1.52482E-20
 -1      1811 9.32146E-05-2.78571E-05-2.80186E-05 8.47574E-07-6.93509E-19-2.51850E-19
 -1      1812 9.27046E-05-2.78182E-05-2.78065E-05 8.92848E-07-7.09135E-19-5.50588E-20
 -1      1813 9.29191E-05-2.79004E-05-2.78622E-05 8.84239E-07-9.34073E-19-1.69679E-19
 -1      1814 9.33072E-05-2.79802E-05-2.80023E-05 1.02036E-06-7.70609E-19-6.50605E-19
 -1      1815 9.30186E-05-2.79415E-05-2.78908E-05 8.70170E-07-1.00724E-18 1.47106E-19
 -1      1816 9.32345E-05-2.80161E-05-2.79493E-05 8.38387E-07-6.28472E-19 4.93790E-20
 -1      1817 9.34865E-05-2.80887E-05-2.80304E-05 1.05051E-06-7.21420E-19-4.77554E-19
 -1      1818 9.33462E-05-2.80546E-05-2.79841E-05 7.98591E-07-5.52580E-19-1.50300E-19
 -1      1819 9.35485E-05-2.81196E-05-2.80404E-05 7.55351E-07-4.30762E-19-4.21711E-19
 -1      1820 9.37048E-05-2.81832E-05-2.80819E-05 9.97355E-07-8.27789E-19-3.87875E-19
 -1      1821 9.36600E-05-2.81540E-05-2.80766E-05 7.03222E-07-3.97023E-19-6.62038E-19
 -1      1822 9.38407E-05-2.82091E-05-2.81278E-05 6.56156E-07-2.55993E-19-8.13615E-19
 -1      1823 9.39317E-05-2.82635E-05-2.81438E-05 8.99504E-07-6.64896E-19-4.88850E-19
 -1      1824 9.39450E-05-2.82388E-05-2.81626E-05 6.00503E-07-2.37269E-19-9.27535E-19
 -1      1825 9.41012E-05-2.82842E-05-2.82075E-05 5.54557E-07-1.22639E-19-1.26448E-18
 -1      1826 9.41490E-05-2.83301E-05-2.82078E-05 7.82398E-07-4.08208E-19-9.36697E-19
 -1      1827 9.41949E-05-2.83091E-05-2.82395E-05 5.01140E-07-6.36329E-21-1.16900E-18
 -1      1828 9.43269E-05-2.83458E-05-2.82780E-05 4.59487E-07-1.33817E-19-7.77858E-19
 -1      1829 9.43469E-05-2.83839E-05-2.82693E-05 6.62783E-07-5.60022E-21-1.02484E-18
 -1      1830 9.44092E-05-2.83663E-05-2.83065E-05 4.12062E-07-4.44914E-19-6.22064E-19
 -1      1831 9.45194E-05-2.83955E-05-2.83391E-05 3.76744E-07-4.86043E-19-6.23097E-19
 -1      1832 9.45219E-05-2.84265E-05-2.83260E-05 5.51644E-07-1.97332E-19-4.30872E-19
 -1      1833 9.45911E-05-2.84121E-05-2.83645E-05 3.37814E-07-6.34431E-19-8.54468E-19
 -1      1834 9.46833E-05-2.84352E-05-2.83921E-05 3.10210E-07-5.90461E-19-1.05816E-18
 -1      1835 9.46742E-05-2.84593E-05-2.83772E-05 4.56238E-07-6.66360E-19-6.29837E-19
 -1      1836 9.47468E-05-2.84489E-05-2.84150E-05 2.81582E-07-2.17882E-19-1.16617E-18
 -1      1837 9.48257E-05-2.84674E-05-2.84391E-05 2.62771E-07-1.18835E-19-1.00491E-18
 -1      1838 9.48073E-05-2.84843E-05-2.84237E-05 3.81578E-07-5.13618E-19-8.72438E-19
 -1      1839 9.48841E-05-2.84790E-05-2.84605E-05 2.45988E-07-4.10820E-19-1.36421E-18
 -1      1840 9.49556E-05-2.84946E-05-2.84826E-05 2.37031E-07-4.45683E-19-1.65993E-18
 -1      1841 9.49266E-05-2.85034E-05-2.84669E-05 3.31559E-07-5.89637E-19-1.03072E-18
 -1      1842 9.50129E-05-2.85052E-05-2.85039E-05 2.33719E-07-3.71602E-19-1.65413E-18
 -1      1843 9.50836E-05-2.85197E-05-2.85261E-05 2.35891E-07-4.49295E-19-1.54796E-18
 -1      1844 9.50394E-05-2.85185E-05-2.85091E-05 3.09834E-07-4.54543E-19-1.01613E-18
 -1      1845 9.51446E-05-2.85305E-05-2.85490E-05 2.48035E-07-2.07950E-19-1.73555E-18
 -1      1846 9.52220E-05-2.85459E-05-2.85734E-05 2.63029E-07 1.50656E-19-1.61625E-18
 -1      1847 9.51543E-05-2.85317E-05-2.85532E-05 3.20517E-07-2.85050E-19-1.05585E-18
 -1      1848 9.52925E-05-2.85582E-05-2.86000E-05 2.93215E-07 2.53022E-19-1.79453E-18
 -1      1849 9.53857E-05-2.85769E-05-2.86293E-05 3.23309E-07 4.03331E-19-1.73202E-18
 -1      1850 9.52819E-05-2.85452E-05-2.86025E-05 3.68772E-07-8.84962E-20-1.27730E-18
 -1      1851 9.54723E-05-2.85922E-05-2.86619E-05 3.74934E-07 9.65680E-20-1.65005E-18
 -1      1852 9.55919E-05-2.86168E-05-2.86993E-05 4.23159E-07-1.98322E-19-1.82430E-18
 -1      1853 9.54342E-05-2.85614E-05-2.86615E-05 4.61309E-07 1.63539E-19-1.34199E-18
 -1      1854 9.57024E-05-2.86370E-05-2.87407E-05 5.00609E-07-1.04264E-19-1.42373E-18
 -1      1855 9.58611E-05-2.86709E-05-2.87900E-05 5.70890E-07 3.11652E-19-9.90211E-19
 -1      1856 9.56257E-05-2.85831E-05-2.87349E-05 6.06810E-07 1.75217E-19-9.51302E-19
 -1      1857 9.60049E-05-2.86981E-05-2.88435E-05 6.79690E-07 3.78052E-19-1.18740E-18
 -1      1858 9.62182E-05-2.87453E-05-2.89092E-05 7.76968E-07 5.44725E-19-1.13055E-18
 -1      1859 9.58733E-05-2.86137E-05-2.88287E-05 8.16288E-07 1.48527E-19-4.44881E-19
 -1      1860 9.64059E-05-2.87819E-05-2.89788E-05 9.23862E-07 8.04101E-19-1.54797E-18
 -1      1861 9.66923E-05-2.88474E-05-2.90662E-05 1.05415E-06 4.81871E-19-1.26961E-18
 -1      1862 9.61966E-05-2.86571E-05-2.89495E-05 1.10332E-06 6.92937E-19-1.27141E-18
 -1      1863 9.69363E-05-2.88964E-05-2.91562E-05 1.24703E-06-1.59093E-19-9.33374E-19
 -1      1864 9.73179E-05-2.89864E-05-2.92719E-05 1.41729E-06-5.28308E-19-8.26002E-19
 -1      1865 9.66186E-05-2.87183E-05-2.91051E-05 1.48402E-06 4.80059E-19-1.08951E-18
 -1      1866 9.76321E-05-2.90516E-05-2.93873E-05 1.66487E-06-7.28516E-19-4.52160E-19
 -1      1867 9.81349E-05-2.91738E-05-2.95386E-05 1.88261E-06-7.95537E-19-6.16964E-19
 -1      1868 9.71655E-05-2.88036E-05-2.93039E-05 1.97658E-06-4.32913E-19-6.49478E-19
 -1      1869 9.85347E-05-2.92598E-05-2.96843E-05 2.19346E-06-5.86921E-19-5.08783E-19
 -1      1870 9.91882E-05-2.94239E-05-2.98793E-05 2.46557E-06 1.61800E-19-5.37540E-19
 -1      1871 9.78667E-05-2.89217E-05-2.95548E-05 2.59980E-06-6.18177E-19 4.33553E-19
 -1      1872 9.96900E-05-2.95370E-05-3.00603E-05 2.84606E-06 7.24299E-19-1.03477E-18
 -1      1873 1.00526E-04-2.97554E-05-3.03073E-05 3.17635E-06 1.06656E-18-4.32847E-19
 -1      1874 9.87548E-05-2.90851E-05-2.98664E-05 3.36973E-06 1.70076E-19-8.47699E-20
 -1      1875 1.01146E-04-2.99047E-05-3.05270E-05 3.62657E-06 7.28845E-19-4.32566E-19
 -1      1876 1.02195E-04-3.01932E-05-3.08329E-05 4.01082E-06 2.70754E-19-3.36483E-19
 -1      1877 9.98646E-05-2.93135E-05-3.02450E-05 4.29300E-06 7.69438E-19-9.55176E-19
 -1      1878 1.02952E-04-3.03933E-05-3.10919E-05 4.51693E-06-5.85842E-20-1.74027E-19
 -1      1879 1.04234E-04-3.07720E-05-3.14597E-05 4.93376E-06-1.85967E-19 2.02277E-19
 -1      1880 1.01233E-04-2.96396E-05-3.06928E-05 5.35418E-06 4.02830E-19-5.41439E-19
 -1      1881 1.05146E-04-3.10469E-05-3.17534E-05 5.45481E-06-5.60630E-19 5.19517E-19
 -1      1882 1.06663E-04-3.15414E-05-3.21774E-05 5.85019E-06-6.16862E-19 3.81906E-19
 -1      1883 1.02901E-04-3.01189E-05-3.12031E-05 6.49358E-06-2.41212E-19-1.78125E-19
 -1      1884 1.07750E-04-3.19303E-05-3.24925E-05 6.29708E-06-1.18949E-18 3.99204E-19
 -1      1885 1.09462E-04-3.25698E-05-3.29513E-05 6.56141E-06-1.13280E-18 4.49583E-19
 -1      1886 1.04912E-04-3.08442E-05-3.17561E-05 7.57116E-06-9.88334E-19 7.10583E-19
 -1      1887 1.10748E-04-3.31320E-05-3.32636E-05 6.76789E-06-7.48292E-19 3.65323E-19
 -1      1888 1.12541E-04-3.39394E-05-3.37116E-05 6.70973E-06 5.57303E-19-2.50206E-20
 -1      1889 1.07323E-04-3.19598E-05-3.23141E-05 8.31439E-06-6.62103E-19 7.55931E-19
 -1      1890 1.14051E-04-3.47475E-05-3.39860E-05 6.40300E-06 1.54227E-18-1.87135E-19
 -1      1891 1.15695E-04-3.57075E-05-3.43472E-05 5.73867E-06 1.25983E-18 5.99603E-19
 -1      1892 1.10195E-04-3.36564E-05-3.28223E-05 8.25721E-06 6.14360E-19 7.39996E-20
 -1      1893 1.17423E-04-3.68014E-05-3.45468E-05 4.54029E-06 7.55990E-19 3.40580E-19
 -1      1894 1.18530E-04-3.77833E-05-3.47214E-05 2.94915E-06 5.92923E-19 1.09590E-18
 -1      1895 1.13557E-04-3.60918E-05-3.32232E-05 6.70694E-06 9.71256E-19 4.27714E-19
 -1      1896 1.20334E-04-3.90439E-05-3.48313E-05 4.81097E-07 2.28249E-19 1.22705E-18
 -1      1897 1.20360E-04-3.96750E-05-3.47284E-05-2.19133E-06 4.57649E-19 4.60125E-19
 -1      1898 1.17263E-04-3.91504E-05-3.34966E-05 2.84091E-06 5.32148E-19 1.56886E-18
 -1      1899 1.21770E-04-4.06138E-05-3.47900E-05-5.96113E-06 1.52461E-18 1.23075E-18
 -1      1900 1.20141E-04-4.02049E-05-3.43873E-05-9.30387E-06 1.56424E-18 2.13441E-18
 -1      1901 1.20666E-04-4.19686E-05-3.37251E-05-3.85674E-06 1.44821E-18 1.58111E-18
 -1      1902 1.20282E-04-3.99010E-05-3.45030E-05-1.34494E-05 8.60810E-19 1.54576E-18
 -1      1903 1.16796E-04-3.77576E-05-3.39094E-05-1.60959E-05 6.94382E-19 1.24755E-18
 -1      1904 1.22324E-04-4.26233E-05-3.41220E-05-1.26017E-05 1.13007E-18 2.28572E-18
 -1      1905 1.14855E-04-3.54229E-05-3.41825E-05-1.83131E-05 2.26389E-19 1.72251E-18
 -1      1906 1.10316E-04-3.18263E-05-3.35908E-05-1.82297E-05-3.66342E-19 2.78904E-18
 -1      1907 1.20326E-04-3.86928E-05-3.49429E-05-2.00522E-05 6.50329E-19 2.03913E-18
 -1      1908 1.07069E-04-2.83969E-05-3.38905E-05-1.60387E-05-1.27208E-18 2.55910E-18
 -1      1909 1.03417E-04-2.53644E-05-3.34297E-05-1.23109E-05-8.49045E-19 2.63783E-18
 -1      1910 1.14552E-04-3.05865E-05-3.60747E-05-2.06319E-05-8.03331E-19 1.91051E-18
 -1      1911 1.01477E-04-2.36629E-05-3.34239E-05-6.11606E-06-5.77676E-19 2.50091E-18
 -1      1912 1.00557E-04-2.34942E-05-3.31277E-05-7.46238E-07-1.15144E-19 2.97163E-18
 -1      1913 1.08768E-04-2.35107E-05-3.67812E-05-1.13091E-05-5.44642E-19 2.57706E-18
 -1      1914 1.01401E-04-2.50771E-05-3.26590E-05 5.22359E-06 7.25431E-19 2.58150E-18
 -1      1915 1.03096E-04-2.76066E-05-3.25387E-05 8.66908E-06 6.72121E-19 2.70709E-18
 -1      1916 1.07712E-04-2.35251E-05-3.63269E-05 2.59648E-06-1.99317E-19 3.73924E-18
 -1      1917 1.05011E-04-3.06079E-05-3.18256E-05 1.04878E-05-3.35637E-20 3.47944E-18
 -1      1918 1.07449E-04-3.34382E-05-3.18573E-05 1.03481E-05 1.25622E-18 4.21304E-18
 -1      1919 1.11060E-04-3.00808E-05-3.47857E-05 1.11900E-05 9.84252E-19 4.05066E-18
 -1      1920 1.07950E-04-3.51246E-05-3.12384E-05 8.05922E-06 5.04964E-19 4.19917E-18
 -1      1921 1.09333E-04-3.63780E-05-3.13050E-05 5.53883E-06 5.89283E-19 4.19688E-18
 -1      1922 1.14007E-04-3.69589E-05-3.29882E-05 1.01225E-05 3.58891E-19 4.82699E-18
 -1      1923 1.07878E-04-3.60172E-05-3.09052E-05 1.83731E-06 4.74722E-19 2.67146E-18
 -1      1924 1.07640E-04-3.55489E-05-3.08654E-05-9.14562E-07 2.71130E-19 2.51463E-18
 -1      1925 1.13166E-04-3.92506E-05-3.16462E-05 3.14299E-06-1.52929E-19 1.81480E-18
 -1      1926 1.05081E-04-3.39196E-05-3.06224E-05-3.66112E-06 3.68856E-19 1.86473E-18
 -1      1927 1.03623E-04-3.24505E-05-3.04429E-05-5.17111E-06 5.33879E-19 1.84352E-18
 -1      1928 1.08975E-04-3.69239E-05-3.08895E-05-3.94813E-06-5.83328E-20 9.30402E-19
 -1      1929 1.01092E-04-3.06800E-05-3.02731E-05-5.75991E-06 4.67360E-19 1.70399E-18
 -1      1930 9.93197E-05-2.90891E-05-3.00099E-05-5.59067E-06-6.46068E-19 1.73922E-18
 -1      1931 9.88527E-05-2.82667E-05-3.02493E-05-7.11433E-06-9.89540E-19 1.23253E-18
 -1      1932 1.03573E-04-3.23038E-05-3.05240E-05-7.45078E-06-2.72430E-19 1.81212E-18
 -1      1933 9.32209E-05-2.73654E-05-2.81959E-05 1.60342E-06 1.34157E-18 1.21120E-18
 -1      1934 9.44150E-05-2.74705E-05-2.86323E-05 2.67446E-06 1.48526E-18 1.84215E-18
 -1      1935 9.52378E-05-2.70494E-05-2.92290E-05 4.05177E-06 1.76134E-18 9.58021E-19
 -1      1936 9.21697E-05-2.73522E-05-2.77544E-05 3.46819E-07 9.66633E-19 6.14992E-19
 -1      1937 9.26635E-05-2.73843E-05-2.79266E-05 8.94856E-07 9.74902E-19 9.61363E-19
 -1      1938 9.36341E-05-2.73708E-05-2.84055E-05 1.58315E-06 1.28003E-18 5.48315E-19
 -1      1939 9.17948E-05-2.73900E-05-2.75864E-05-3.06077E-07 5.62451E-19 4.33936E-19
 -1      1940 9.19095E-05-2.73631E-05-2.76332E-05-1.37669E-08 7.01952E-19 6.70056E-19
 -1      1941 9.28035E-05-2.74861E-05-2.80031E-05 2.70801E-07 8.69706E-19 9.35707E-20
 -1      1942 9.18185E-05-2.74806E-05-2.75632E-05-6.31039E-07 3.21237E-19-3.85962E-20
 -1      1943 9.17305E-05-2.74186E-05-2.75469E-05-4.78559E-07 4.48673E-19 2.69474E-19
 -1      1944 9.24896E-05-2.75792E-05-2.78288E-05-4.21941E-07 5.75116E-19-1.33383E-19
 -1      1945 9.20620E-05-2.76025E-05-2.76185E-05-7.67700E-07 5.68970E-19-2.77939E-19
 -1      1946 9.18715E-05-2.75238E-05-2.75700E-05-6.96939E-07 3.38907E-19-1.66159E-19
 -1      1947 9.24926E-05-2.76844E-05-2.77831E-05-7.65742E-07 4.81322E-19-7.11805E-19
 -1      1948 9.24134E-05-2.77364E-05-2.77136E-05-7.93540E-07 4.38124E-19-8.29486E-19
 -1      1949 9.21789E-05-2.76532E-05-2.76505E-05-7.71922E-07 5.25951E-19-4.36586E-19
 -1      1950 9.26761E-05-2.77995E-05-2.78102E-05-9.05075E-07 6.96183E-19-1.10867E-18
 -1      1951 9.28029E-05-2.78689E-05-2.78251E-05-7.55227E-07 5.35527E-19-1.46637E-18
 -1      1952 9.25593E-05-2.77886E-05-2.77579E-05-7.62886E-07 5.11377E-19-1.06773E-18
 -1      1953 9.29509E-05-2.79160E-05-2.78763E-05-9.23300E-07 8.32102E-19-1.40418E-18
 -1      1954 9.31883E-05-2.79919E-05-2.79385E-05-6.82292E-07 3.72903E-19-1.33859E-18
 -1      1955 9.29559E-05-2.79187E-05-2.78735E-05-7.06477E-07 4.02787E-19-1.34519E-18
 -1      1956 9.32603E-05-2.80264E-05-2.79601E-05-8.71710E-07 5.06738E-19-1.42824E-18
 -1      1957 9.35455E-05-2.81012E-05-2.80456E-05-5.93871E-07 5.63304E-19-1.32414E-18
 -1      1958 9.33353E-05-2.80370E-05-2.79861E-05-6.26195E-07 5.47425E-19-1.21615E-18
 -1      1959 9.35691E-05-2.81263E-05-2.80487E-05-7.83139E-07 5.45733E-19-1.26002E-18
 -1      1960 9.38627E-05-2.81949E-05-2.81419E-05-5.02413E-07 2.58017E-19-1.13848E-18
 -1      1961 9.36794E-05-2.81405E-05-2.80896E-05-5.37323E-07 4.98923E-19-1.12193E-18
 -1      1962 9.38573E-05-2.82133E-05-2.81342E-05-6.78987E-07 4.14347E-19-1.14049E-18
 -1      1963 9.41360E-05-2.82733E-05-2.82258E-05-4.15950E-07 4.32174E-19-1.55918E-18
 -1      1964 9.39804E-05-2.82282E-05-2.81811E-05-4.49784E-07 2.36096E-19-1.32640E-18
 -1      1965 9.41148E-05-2.82868E-05-2.82126E-05-5.73222E-07 4.34888E-19-1.11069E-18
 -1      1966 9.43670E-05-2.83376E-05-2.82975E-05-3.39616E-07 8.51316E-20-1.46210E-18
 -1      1967 9.42372E-05-2.83009E-05-2.82599E-05-3.69959E-07 1.02314E-19-1.49116E-18
 -1      1968 9.43384E-05-2.83475E-05-2.82821E-05-4.74907E-07 2.33084E-19-1.20999E-18
 -1      1969 9.45607E-05-2.83899E-05-2.83583E-05-2.76728E-07 1.07370E-19-1.74933E-18
 -1      1970 9.44533E-05-2.83602E-05-2.83268E-05-3.01952E-07 1.00196E-19-1.57746E-18
 -1      1971 9.45295E-05-2.83967E-05-2.83428E-05-3.89921E-07 1.54723E-19-1.21156E-18
 -1      1972 9.47249E-05-2.84327E-05-2.84104E-05-2.29589E-07 6.86879E-20-1.52048E-18
 -1      1973 9.46350E-05-2.84085E-05-2.83838E-05-2.48506E-07 1.18691E-19-1.46094E-18
 -1      1974 9.46929E-05-2.84365E-05-2.83957E-05-3.22197E-07-2.57920E-20-1.52047E-18
 -1      1975 9.48691E-05-2.84688E-05-2.84566E-05-2.00080E-07 6.29835E-19-1.48681E-18
 -1      1976 9.47912E-05-2.84484E-05-2.84332E-05-2.11677E-07 2.39757E-19-1.45323E-18
 -1      1977 9.48354E-05-2.84691E-05-2.84429E-05-2.74632E-07 3.78042E-19-1.02914E-18
 -1      1978 9.50043E-05-2.85015E-05-2.85004E-05-1.90109E-07-5.09852E-20-1.19771E-18
 -1      1979 9.49320E-05-2.84830E-05-2.84784E-05-1.93350E-07 5.94560E-19-1.15239E-18
 -1      1980 9.49657E-05-2.84971E-05-2.84868E-05-2.49770E-07 3.53354E-19-9.66290E-19
 -1      1981 9.51433E-05-2.85344E-05-2.85457E-05-2.01935E-07-6.39624E-19-1.82464E-18
 -1      1982 9.50693E-05-2.85156E-05-2.85228E-05-1.95608E-07-4.55305E-19-1.75379E-18
 -1      1983 9.50941E-05-2.85233E-05-2.85308E-05-2.50298E-07 1.80595E-20-1.22542E-18
 -1      1984 9.53004E-05-2.85715E-05-2.85967E-05-2.38355E-07 3.43001E-20-2.17868E-18
 -1      1985 9.52166E-05-2.85501E-05-2.85706E-05-2.20980E-07-5.27383E-19-2.18013E-18
 -1      1986 9.52322E-05-2.85509E-05-2.85784E-05-2.79382E-07-2.59673E-19-2.07065E-18
 -1      1987 9.54921E-05-2.86176E-05-2.86586E-05-3.02766E-07 3.83624E-19-2.70690E-18
 -1      1988 9.53891E-05-2.85908E-05-2.86266E-05-2.72558E-07 1.36636E-19-2.42823E-18
 -1      1989 9.53936E-05-2.85837E-05-2.86338E-05-3.40835E-07 2.55867E-19-2.65161E-18
 -1      1990 9.57368E-05-2.86779E-05-2.87370E-05-3.99045E-07 9.28873E-19-2.56747E-18
 -1      1991 9.56043E-05-2.86426E-05-2.86961E-05-3.53957E-07 8.97121E-19-2.39477E-18
 -1      1992 9.55934E-05-2.86258E-05-2.87018E-05-4.39091E-07 7.18573E-19-2.24161E-18
 -1      1993 9.60553E-05-2.87589E-05-2.88381E-05-5.31175E-07 1.23070E-19-2.81283E-18
 -1      1994 9.58815E-05-2.87113E-05-2.87848E-05-4.69058E-07 5.03583E-19-2.70333E-18
 -1      1995 9.58490E-05-2.86823E-05-2.87876E-05-5.78917E-07 5.96729E-19-2.44673E-18
 -1      1996 9.64702E-05-2.88677E-05-2.89686E-05-7.02518E-07-8.04905E-19-3.00041E-18
 -1      1997 9.62424E-05-2.88037E-05-2.88992E-05-6.21449E-07-9.12200E-19-3.23323E-18
 -1      1998 9.61792E-05-2.87593E-05-2.88967E-05-7.64760E-07-2.85408E-19-2.63387E-18
 -1      1999 9.70054E-05-2.90123E-05-2.91353E-05-9.14554E-07-9.31818E-19-7.05408E-19
 -1      2000 9.67101E-05-2.89275E-05-2.90461E-05-8.13422E-07-9.41700E-19-2.03867E-18
 -1      2001 9.66043E-05-2.88637E-05-2.90348E-05-9.99562E-07-1.10715E-18-2.32072E-18
 -1      2002 9.76835E-05-2.92017E-05-2.93442E-05-1.16489E-06-6.61918E-19-5.56155E-21
 -1      2003 9.73081E-05-2.90912E-05-2.92317E-05-1.04434E-06-5.23775E-19-2.50754E-19
 -1      2004 9.71453E-05-2.90039E-05-2.92072E-05-1.28284E-06-9.45970E-19-7.67684E-19
 -1      2005 9.85236E-05-2.94449E-05-2.95998E-05-1.44423E-06-1.13014E-19 9.85308E-19
 -1      2006 9.80578E-05-2.93040E-05-2.94616E-05-1.30813E-06-2.53804E-19 5.01048E-19
 -1      2007 9.78211E-05-2.91895E-05-2.94180E-05-1.60773E-06-3.32939E-19 2.83514E-19
 -1      2008 9.95352E-05-2.97502E-05-2.99031E-05-1.73213E-06-3.91861E-19 7.24430E-19
 -1      2009 9.89748E-05-2.95754E-05-2.97384E-05-1.58966E-06-5.36067E-19 7.33736E-19
 -1      2010 9.86466E-05-2.94312E-05-2.96688E-05-1.95671E-06-4.84782E-19 8.83703E-19
 -1      2011 1.00711E-04-3.01235E-05-3.02488E-05-1.99132E-06 1.73954E-19 9.37905E-19
 -1      2012 1.00063E-04-2.99134E-05-3.00607E-05-1.85984E-06-3.16534E-19 1.23673E-18
 -1      2013 9.96270E-05-2.97401E-05-2.99570E-05-2.29583E-06-3.86235E-19 1.50314E-18
 -1      2014 1.02018E-04-3.05651E-05-3.06226E-05-2.16121E-06 1.24616E-18 1.51808E-18
 -1      2015 1.01304E-04-3.03228E-05-3.04191E-05-2.06958E-06 1.07164E-18 1.71164E-18
 -1      2016 1.00752E-04-3.01267E-05-3.02734E-05-2.56760E-06 6.06731E-19 2.33739E-18
 -1      2017 1.03379E-04-3.10653E-05-3.09968E-05-2.15208E-06 3.28364E-19-6.00732E-19
 -1      2018 1.02649E-04-3.08011E-05-3.07938E-05-2.14384E-06 7.87339E-19 1.54598E-19
 -1      2019 1.01986E-04-3.05972E-05-3.05999E-05-2.68373E-06 1.49194E-18 1.33235E-18
 -1      2020 1.04665E-04-3.15963E-05-3.13274E-05-1.84425E-06 5.36678E-19-1.07841E-18
 -1      2021 1.04003E-04-3.13325E-05-3.11505E-05-1.97840E-06 4.42889E-20-1.09014E-18
 -1      2022 1.03258E-04-3.11480E-05-3.09068E-05-2.52087E-06 7.13699E-19-7.82577E-19
 -1      2023 1.05678E-04-3.21014E-05-3.15529E-05-1.09987E-06-9.77751E-19-3.10226E-19
 -1      2024 1.05206E-04-3.18772E-05-3.14383E-05-1.44548E-06 8.85646E-20-9.73827E-19
 -1      2025 1.04445E-04-3.17536E-05-3.11520E-05-1.92599E-06 1.29449E-19-3.75760E-19
 -1      2026 1.06149E-04-3.24810E-05-3.15990E-05 2.00422E-07-1.25100E-18-1.90713E-19
 -1      2027 1.06027E-04-3.23576E-05-3.15907E-05-4.17878E-07-1.18657E-18-6.19011E-19
 -1      2028 1.05364E-04-3.23490E-05-3.12841E-05-7.42400E-07-1.03855E-18-5.10473E-19
 -1      2029 1.05762E-04-3.25822E-05-3.13920E-05 2.08407E-06-1.16487E-19 5.58463E-20
 -1      2030 1.06167E-04-3.26428E-05-3.15340E-05 1.17627E-06-8.70717E-19 3.67215E-19
 -1      2031 1.05762E-04-3.28058E-05-3.12496E-05 1.12925E-06-9.95830E-19-3.68092E-19
 -1      2032 1.04215E-04-3.22096E-05-3.08838E-05 4.37868E-06 5.45866E-19 1.55478E-18
 -1      2033 1.05295E-04-3.25459E-05-3.12047E-05 3.26288E-06 7.09814E-19 1.02872E-18
 -1      2034 1.05337E-04-3.29182E-05-3.10086E-05 3.62648E-06 3.88060E-19 2.36787E-18
 -1      2035 1.01351E-04-3.11864E-05-3.00825E-05 6.61491E-06-7.79138E-19 1.45964E-18
 -1      2036 1.03148E-04-3.18598E-05-3.05767E-05 5.51844E-06-2.10805E-19 1.15060E-18
 -1      2037 1.03809E-04-3.24312E-05-3.05536E-05 6.39806E-06 1.56112E-19 2.95909E-18
 -1      2038 9.73301E-05-2.94810E-05-2.90758E-05 8.04254E-06 4.73458E-19 9.05941E-19
 -1      2039 9.96951E-05-3.04610E-05-2.96879E-05 7.32800E-06-2.12655E-19 8.38874E-19
 -1      2040 1.01061E-04-3.11509E-05-2.99248E-05 8.73522E-06 1.71207E-19 1.31714E-18
 -1      2041 9.27826E-05-2.73622E-05-2.80284E-05 7.88209E-06-6.80110E-19 1.55532E-18
 -1      2042 9.53296E-05-2.84697E-05-2.86550E-05 7.91840E-06-2.79814E-19 1.11210E-18
 -1      2043 9.73490E-05-2.91378E-05-2.92108E-05 9.69704E-06-5.10378E-19-6.05695E-20
 -1      2044 8.87579E-05-2.54296E-05-2.71381E-05 5.80183E-06 4.11671E-19 1.85095E-18
 -1      2045 9.09294E-05-2.63566E-05-2.76549E-05 6.73284E-06-5.66572E-19 1.48362E-18
 -1      2046 9.34210E-05-2.68649E-05-2.85276E-05 8.53307E-06-6.14847E-19 5.56752E-19
 -1      2047 8.63426E-05-2.43717E-05-2.65689E-05 2.31767E-06-2.58120E-19 1.92684E-18
 -1      2048 8.76120E-05-2.48178E-05-2.68743E-05 3.88441E-06 6.67819E-19 2.05815E-18
 -1      2049 9.03487E-05-2.51192E-05-2.79817E-05 5.25739E-06 6.02121E-19 2.35657E-18
 -1      2050 8.60706E-05-2.45224E-05-2.63927E-05-1.32348E-06-7.68802E-19 2.42822E-18
 -1      2051 8.62006E-05-2.43834E-05-2.64474E-05 3.00176E-07-5.45251E-19 2.20318E-18
 -1      2052 8.90020E-05-2.45720E-05-2.76419E-05 9.07079E-07-7.64388E-19 3.27447E-18
 -1      2053 8.75974E-05-2.56141E-05-2.65699E-05-3.84448E-06 1.91730E-18 1.02390E-18
 -1      2054 8.67618E-05-2.50507E-05-2.64088E-05-2.72599E-06-1.52731E-20 1.38771E-18
 -1      2055 8.95067E-05-2.53092E-05-2.75258E-05-2.92751E-06 6.91980E-19 1.83560E-18
 -1      2056 8.99509E-05-2.69812E-05-2.69759E-05-4.67790E-06 3.06163E-18 1.03498E-18
 -1      2057 8.86162E-05-2.63015E-05-2.66867E-05-4.29075E-06 3.20212E-18 1.39600E-18
 -1      2058 9.11842E-05-2.67641E-05-2.76028E-05-5.04058E-06 2.63969E-18 2.55446E-18
 -1      2059 9.21500E-05-2.80262E-05-2.74560E-05-4.15476E-06 8.13526E-19 9.09780E-19
 -1      2060 9.08027E-05-2.74838E-05-2.71377E-05-4.33498E-06 1.69788E-18 1.30421E-18
 -1      2061 9.30388E-05-2.81359E-05-2.78044E-05-5.24987E-06 1.73136E-18 3.34065E-18
 -1      2062 9.36642E-05-2.85312E-05-2.78841E-05-3.08799E-06-1.44333E-19-5.68543E-19
 -1      2063 9.25981E-05-2.82075E-05-2.76095E-05-3.47629E-06 8.73357E-19 4.16234E-19
 -1      2064 9.43477E-05-2.88977E-05-2.80430E-05-4.25501E-06 1.52872E-18 5.42434E-19
 -1      2065 9.44896E-05-2.86793E-05-2.81818E-05-2.11247E-06-7.82834E-19-6.86296E-19
 -1      2066 9.37853E-05-2.85063E-05-2.79915E-05-2.45799E-06-6.70963E-19-4.63818E-19
 -1      2067 9.49563E-05-2.90730E-05-2.82376E-05-2.99523E-06-2.59126E-19 9.26196E-19
 -1      2068 9.49775E-05-2.88721E-05-2.83154E-05-1.46187E-06-1.18305E-18 3.14921E-19
 -1      2069 9.45115E-05-2.86962E-05-2.82167E-05-1.82166E-06-8.85312E-19 3.05117E-19
 -1      2070 9.52130E-05-2.91098E-05-2.83363E-05-2.15486E-06-1.16983E-18 2.50767E-18
 -1      2071 9.53465E-05-2.91858E-05-2.83212E-05-1.62225E-06-7.02389E-19 3.19594E-18
 -1      2072 9.81918E-05-2.87443E-05-2.96467E-05 5.78584E-06 1.25453E-18-1.63361E-18
 -1      2073 9.81480E-05-2.99894E-05-2.91991E-05 3.58112E-06 1.39991E-18 3.58169E-19
 -1      2074 9.75426E-05-2.99023E-05-2.88950E-05 1.36116E-06 1.20201E-18 1.03611E-18
 -1      2075 9.70870E-05-3.01472E-05-2.86840E-05 4.01819E-08 6.19949E-19 1.75134E-18
 -1      2076 9.92962E-05-3.09143E-05-2.93322E-05 3.01716E-06 4.36204E-19 1.02443E-18
 -1      2077 9.64596E-05-2.98229E-05-2.84965E-05-9.57628E-07 4.86250E-20 2.47469E-18
 -1      2078 9.58817E-05-2.95288E-05-2.84276E-05-1.38603E-06-6.84654E-19 3.28853E-18
 -1      2079 9.59279E-05-2.95001E-05-2.84734E-05-1.64872E-06-1.19372E-18 4.01379E-18
 -1      2080 9.76235E-05-3.03659E-05-2.88235E-05-3.53592E-07-6.05688E-19 2.79925E-18
 -1      2081 9.75759E-05-2.55712E-05-3.07666E-05 1.13616E-05-4.45387E-19-4.73854E-18
 -1      2082 9.82898E-05-2.80940E-05-3.00527E-05 8.80838E-06 8.51227E-20-2.96353E-18
 -1      2083 1.00397E-04-3.04650E-05-3.00170E-05 8.81655E-06 5.39400E-20-2.70084E-18
 -1      2084 9.49986E-05-1.98559E-05-3.21869E-05 1.67316E-05-1.16585E-18-1.21978E-18
 -1      2085 9.68154E-05-2.37919E-05-3.12433E-05 1.45783E-05-8.69473E-19-1.96728E-18
 -1      2086 9.97117E-05-2.80697E-05-3.07776E-05 1.57562E-05 7.53568E-19-3.34603E-18
 -1      2087 9.01504E-05-1.19036E-05-3.36293E-05 1.91811E-05-6.96843E-19 8.72818E-19
 -1      2088 9.29912E-05-1.66703E-05-3.26367E-05 1.87129E-05-1.10166E-18 1.49410E-19
 -1      2089 9.61651E-05-2.29114E-05-3.14668E-05 2.17096E-05-5.60167E-19-5.98101E-19
 -1      2090 8.41509E-05-3.43966E-06-3.47680E-05 1.60931E-05-1.17956E-18 2.95671E-18
 -1      2091 8.71744E-05-7.79033E-06-3.39614E-05 1.82897E-05-2.05077E-18 1.42182E-18
 -1      2092 8.96441E-05-1.51561E-05-3.19226E-05 2.31933E-05-2.75282E-19 2.97348E-19
 -1      2093 7.97459E-05 2.38729E-06-3.53649E-05 6.97114E-06-1.00039E-18-1.44536E-18
 -1      2094 8.14924E-05 3.11108E-08-3.49518E-05 1.15868E-05-1.71657E-18 1.72435E-18
 -1      2095 8.22438E-05-6.97246E-06-3.21205E-05 1.72901E-05-2.63639E-18 1.71803E-18
 -1      2096 7.96075E-05 2.69608E-06-3.53390E-05-4.97973E-06-1.40306E-18-1.67421E-19
 -1      2097 7.90697E-05 3.30534E-06-3.54209E-05 2.40645E-07-7.41481E-19-1.47723E-18
 -1      2098 7.78601E-05-2.20970E-06-3.21849E-05 4.52837E-06-1.46822E-18-1.72171E-18
 -1      2099 8.37096E-05-2.55501E-06-3.47475E-05-1.43787E-05-2.43848E-18-1.71418E-18
 -1      2100 8.13268E-05 5.75472E-07-3.52817E-05-1.08326E-05-2.87000E-18-3.19623E-19
 -1      2101 7.92931E-05-3.58212E-06-3.22338E-05-9.87136E-06-2.29426E-18-1.25824E-18
 -1      2102 8.96122E-05-1.08248E-05-3.36980E-05-1.81799E-05-1.82205E-18 1.60355E-18
 -1      2103 8.66452E-05-6.36851E-06-3.45501E-05-1.72495E-05-1.51645E-18 5.28052E-19
 -1      2104 8.53459E-05-9.99227E-06-3.22246E-05-1.96866E-05-1.38373E-18-5.14850E-19
 -1      2105 9.43853E-05-1.86463E-05-3.24010E-05-1.63658E-05-7.72170E-19 3.04591E-19
 -1      2106 9.21065E-05-1.43854E-05-3.33457E-05-1.76516E-05-1.68485E-18 7.19063E-19
 -1      2107 9.24941E-05-1.79138E-05-3.20011E-05-2.20165E-05-1.75180E-18 9.09856E-19
 -1      2108 9.68283E-05-2.40834E-05-3.11490E-05-1.16055E-05-7.19660E-19 3.31137E-19
 -1      2109 9.55646E-05-2.09015E-05-3.19579E-05-1.38644E-05-1.07203E-19-2.65128E-19
 -1      2110 9.73984E-05-2.40628E-05-3.14907E-05-1.83499E-05-4.68164E-19-1.58802E-19
 -1      2111 7.50246E-05-4.84772E-05-1.16512E-05 4.93050E-05-3.54060E-19-2.33093E-18
 -1      2112 5.66612E-05-4.87049E-05-4.31575E-06 4.26678E-05 4.44269E-19-8.16963E-19
 -1      2113 1.44647E-05-3.91152E-05 9.08409E-06 6.53913E-06-9.92299E-19 3.01501E-18
 -1      2114 1.54412E-05-4.27780E-05 9.75002E-06-5.61864E-06-9.36395E-19 1.07870E-18
 -1      2115 3.47972E-05-3.87277E-05 1.11234E-06 3.58019E-05-5.61159E-19 3.37331E-19
 -1      2116 2.37480E-05-4.01986E-05 5.74148E-06 2.17758E-05-1.90265E-18 3.06372E-18
 -1      2117 1.15288E-04-4.84695E-05-2.82668E-05 4.79066E-05 1.33619E-18-5.22365E-18
 -1      2118 9.56618E-05-5.27362E-05-1.92285E-05 4.44201E-05-2.28699E-20-3.11687E-18
 -1      2119 1.50856E-04-4.53943E-05-4.46469E-05 3.72447E-05 1.10157E-18-3.87941E-18
 -1      2120 1.29311E-04-4.71645E-05-3.55852E-05 3.91717E-05 2.22389E-18-4.54772E-18
 -1      2121 1.35190E-04-6.00875E-05-3.18430E-05 3.64333E-05 7.18707E-19-5.15420E-18
 -1      2122 8.72645E-05-8.72886E-06-3.37489E-05-1.05267E-05-1.84249E-18-2.56790E-18
 -1      2123 8.79797E-05-9.26446E-06-3.38212E-05-1.21061E-05-2.09661E-18-2.06507E-18
 -1      2124 9.04745E-05-1.30305E-05-3.32188E-05-1.18158E-05-2.26696E-18-1.64868E-18
 -1      2125 8.86720E-05-1.10575E-05-3.32963E-05-9.39229E-06-1.84122E-18-2.55019E-18
 -1      2126 1.92104E-04-2.62836E-05-6.92569E-05 1.06157E-05-1.22396E-19-5.21222E-18
 -1      2127 1.79103E-04-2.53248E-05-6.49858E-05 1.41630E-05 6.20028E-19-4.48335E-18
 -1      2128 1.83986E-04-2.17583E-05-6.87397E-05-5.93524E-07-8.79644E-19-4.35322E-18
 -1      2129 1.90770E-04-2.37573E-05-7.00129E-05 5.77771E-06-1.46706E-18-5.57581E-18
 -1      2130 1.80349E-04-3.13359E-05-6.26172E-05-1.52021E-05 1.27987E-18-6.15496E-18
 -1      2131 1.85402E-04-2.75615E-05-6.65040E-05-4.76064E-06 4.20975E-19-5.90213E-18
 -1      2132 1.56002E-04-3.90082E-05-4.97077E-05-2.27231E-05 2.35846E-18-4.37154E-18
 -1      2133 1.74697E-04-3.67669E-05-5.75269E-05-2.27114E-05 2.50346E-18-5.48496E-18
 -1      2134 1.65972E-04-3.20247E-05-5.65836E-05-2.21278E-06 9.42324E-19-5.52435E-18
 -1      2135 1.20411E-04-4.68046E-05-3.20518E-05-3.49562E-05 1.31460E-18-5.13895E-18
 -1      2136 1.42292E-04-4.73003E-05-4.07077E-05-3.10781E-05 1.69428E-18-4.55958E-18
 -1      2137 8.04052E-05-4.66305E-05-1.56599E-05-3.90345E-05 3.85993E-18-2.69907E-18
 -1      2138 1.00951E-04-4.39844E-05-2.44445E-05-4.40235E-05 2.79944E-18-3.84341E-18
 -1      2139 4.87816E-05-4.61785E-05-2.22463E-06-3.60068E-05 3.31698E-18-6.78050E-19
 -1      2140 6.44113E-05-4.42679E-05-9.03060E-06-4.21489E-05 3.37966E-18-1.72101E-18
 -1      2141 2.01722E-05-4.22871E-05 7.96602E-06-1.93135E-05 3.08616E-18-3.80191E-18
 -1      2142 2.87808E-05-3.87158E-05 3.50501E-06-2.98539E-05 3.54822E-18-2.23574E-18
 -1      2143 1.21024E-05-3.81710E-05 9.99794E-06-1.53281E-07 2.42061E-18-8.61433E-19
 -1      2144 1.36985E-05-4.00439E-05 9.91530E-06-9.99811E-06 2.94153E-18-2.48647E-18
 -1      2145 1.94490E-05-3.02399E-05 4.08275E-06-1.91426E-05 2.42474E-18-3.41608E-18
 -1      2146 2.56390E-05-4.24133E-05 5.96744E-06 2.16122E-05 8.98278E-19-1.75611E-18
 -1      2147 1.74364E-05-4.20041E-05 9.05143E-06 1.27911E-05 1.57315E-18-1.51449E-18
 -1      2148 5.54960E-05-4.61415E-05-4.72755E-06 3.53907E-05 6.23416E-19-2.03537E-18
 -1      2149 4.08127E-05-4.77620E-05 1.45046E-06 2.78940E-05 7.15743E-19-1.41370E-18
 -1      2150 9.51658E-05-4.94100E-05-1.98069E-05 3.87192E-05-4.23516E-20-3.40507E-18
 -1      2151 7.57168E-05-5.16715E-05-1.16115E-05 3.39781E-05 6.04782E-19-3.17627E-18
 -1      2152 1.36361E-04-5.08622E-05-3.64337E-05 3.11758E-05-1.01220E-19-2.88584E-18
 -1      2153 1.12852E-04-5.11438E-05-2.73036E-05 3.15054E-05 4.48927E-20-2.49070E-18
 -1      2154 1.70854E-04-4.41063E-05-5.33010E-05 1.51663E-05-6.43163E-19 5.34901E-19
 -1      2155 1.51180E-04-4.67078E-05-4.49348E-05 1.74594E-05 1.60513E-19-3.72694E-19
 -1      2156 1.91499E-04-3.44438E-05-6.56340E-05 4.22400E-06-9.99499E-19 4.44692E-20
 -1      2157 1.76682E-04-3.52692E-05-6.00151E-05 9.05143E-06-9.26442E-19 3.32884E-19
 -1      2158 1.92959E-04-2.60592E-05-7.02324E-05-7.04939E-06-4.89585E-19 2.00112E-19
 -1      2159 1.93735E-04-2.96909E-05-6.87454E-05 6.35009E-07-3.33307E-19-3.69306E-19
 -1      2160 1.72712E-04-2.35494E-05-6.25147E-05-8.62177E-06 1.52466E-20 2.28614E-18
 -1      2161 1.88516E-04-2.70715E-05-6.77726E-05-1.39519E-05-1.06472E-18 1.58395E-19
 -1      2162 1.88608E-04-2.45173E-05-6.91705E-05-7.84949E-06-5.62006E-19 8.92508E-19
 -1      2163 1.77743E-04-3.37487E-05-6.08067E-05-2.53682E-05-2.31738E-18-1.70465E-18
 -1      2164 1.90847E-04-3.33126E-05-6.59632E-05-2.00756E-05-1.41243E-18-1.95622E-18
 -1      2165 1.52427E-04-4.25562E-05-4.69958E-05-3.36934E-05-2.45004E-18-6.25957E-19
 -1      2166 1.71673E-04-4.06223E-05-5.47101E-05-3.21761E-05-3.11020E-18-2.19000E-18
 -1      2167 1.21150E-04-5.09621E-05-3.07056E-05-4.06376E-05-1.60809E-18 1.03931E-18
 -1      2168 1.41526E-04-4.80406E-05-3.93375E-05-4.21963E-05-1.44292E-18 7.33531E-19
 -1      2169 8.11781E-05-5.16113E-05-1.40564E-05-4.27857E-05-1.33577E-18 9.08866E-19
 -1      2170 1.01068E-04-4.82563E-05-2.26847E-05-4.85698E-05-1.95156E-18 8.71173E-19
 -1      2171 4.77437E-05-4.84271E-05-9.24621E-07-3.82889E-05-1.89015E-18 2.90649E-18
 -1      2172 6.24817E-05-4.72892E-05-7.31551E-06-4.43489E-05-1.43996E-18 2.93190E-18
 -1      2173 2.02708E-05-4.52634E-05 8.45104E-06-1.62271E-05-1.02872E-18 1.79190E-18
 -1      2174 2.85499E-05-4.20588E-05 4.32448E-06-2.82002E-05-1.60597E-18 3.04127E-18
 -1      2175 1.99091E-05-3.13200E-05 3.94359E-06-1.44032E-05-9.34277E-19 1.82324E-18
 -1      2176 1.73000E-04-3.48820E-05-5.87881E-05 1.71599E-05 9.21148E-19-4.13733E-18
 -1      2177 1.61123E-04-3.85777E-05-5.21534E-05 2.43723E-05 1.35303E-18-3.76337E-18
 -1      2178 9.71956E-05-2.43160E-05-3.13069E-05-1.00023E-05-2.12703E-18 2.12489E-18
 -1      2179 1.57489E-04-4.88456E-05-4.57664E-05 1.77824E-05 1.73695E-18-3.44234E-18
 -1      2180 1.57466E-04-2.19389E-05-5.86412E-05-1.96766E-06 9.67312E-19-3.78475E-18
 -1      2181 1.68694E-04-2.89629E-05-5.92930E-05 8.34865E-06 2.92862E-19-3.67189E-18
 -1      2182 1.56649E-04-3.24718E-05-5.29406E-05 5.03853E-07 8.44492E-19-3.58634E-18
 -1      2183 9.63530E-05-2.31099E-05-3.14565E-05-1.03820E-05-2.29526E-18 7.53409E-19
 -1      2184 5.45845E-05-4.18456E-05-5.68165E-06 4.47064E-05-1.79952E-18-2.60039E-19
 -1      2185 2.27528E-05-2.89787E-05 2.14166E-06 1.78176E-05-2.17402E-18 2.18577E-18
 -1      2186 9.77431E-05-2.59852E-05-3.07006E-05-1.03525E-05-8.35261E-19-1.08473E-19
 -1      2187 9.94551E-05-5.81655E-05-1.79719E-05 4.91328E-05-1.56913E-18-3.77650E-18
 -1      2188 4.33391E-05-4.30924E-05-9.58964E-07-3.71180E-05-9.70700E-19 2.91422E-18
 -1      2189 5.86523E-05-4.31990E-05-7.04342E-06-4.60670E-05-1.84865E-19 2.01509E-18
 -1      2190 3.89943E-05-3.32939E-05-2.26202E-06-3.63594E-05 3.65706E-19 3.27124E-18
 -1      2191 8.52225E-05-5.56285E-05-1.32127E-05-4.87118E-05-3.60413E-19 6.58939E-19
 -1      2192 1.25312E-04-6.14826E-05-2.71922E-05-4.15147E-05-6.84403E-19 3.94717E-19
 -1      2193 1.54455E-04-5.59593E-05-4.15875E-05-2.39125E-05-1.96956E-18-3.16790E-19
 -1      2194 1.69624E-04-3.96686E-05-5.44726E-05-1.19623E-05-2.51706E-18-2.17264E-18
 -1      2195 1.70226E-04-1.61652E-05-6.48820E-05-5.82310E-06-6.06899E-19 3.10311E-18
 -1      2196 1.66366E-04-4.01875E-05-5.33908E-05-4.75667E-06 4.48822E-19 3.31571E-18
 -1      2197 1.49968E-04-5.69060E-05-3.94007E-05 1.25935E-05 5.26113E-19 4.87044E-20
 -1      2198 1.17745E-04-6.11207E-05-2.42269E-05 3.12936E-05 2.71474E-19-2.33612E-18
 -1      2199 7.80153E-05-5.40615E-05-1.06397E-05 3.87769E-05 1.23201E-18-2.78576E-18
 -1      2200 1.69025E-05-3.11685E-05 5.47759E-06 8.09043E-06 1.90551E-18-1.65764E-18
 -1      2201 4.69471E-05-4.12190E-05-2.80205E-06-3.92282E-05 2.29546E-18-8.39410E-19
 -1      2202 8.60656E-05-5.32139E-05-1.44053E-05-4.36491E-05 2.75201E-18-2.29054E-18
 -1      2203 1.50292E-04-4.76020E-05-4.37354E-05-1.89985E-05 1.87459E-18-3.30046E-18
 -1      2204 1.53804E-04-4.81497E-05-4.58946E-05-3.93306E-06 1.41709E-18-3.63970E-18
 -1      2205 1.45663E-04-5.60138E-05-3.79197E-05-1.43860E-05 1.11967E-18-3.58168E-18
 -1      2206 1.67745E-04-1.38212E-05-6.48387E-05 3.39156E-06-3.47284E-20-4.35004E-18
 -1      2207 1.73705E-04-2.05997E-05-6.47926E-05 2.14401E-06 3.26531E-19-5.40068E-18
 -1      2208 1.54388E-04-1.10933E-05-6.15477E-05 7.40128E-06 2.10064E-19-4.90199E-18
 -1      2209 1.57222E-04-1.77430E-05-5.97461E-05 6.79882E-06 1.16086E-18-5.37209E-18
 -1      2210 1.23090E-04-5.66905E-05-2.80660E-05-3.41916E-05 1.64621E-18-4.46302E-18
 -1      2211 3.96950E-05-4.12956E-05 8.15272E-08 3.14705E-05 4.58668E-19-1.93124E-18
 -1      2212 1.70297E-04-2.27978E-05-6.18968E-05-4.87554E-06-1.89270E-18 9.11407E-19
 -1      2213 9.52193E-05-2.63780E-05-2.94902E-05 4.19432E-06 1.73844E-18 6.49535E-20
 -1      2214 9.61938E-05-2.58634E-05-3.00681E-05 5.99958E-06 1.96038E-18 2.77006E-19
 -1      2215 8.81310E-05-1.11814E-05-3.30178E-05-3.66082E-06-8.51076E-19-3.14741E-18
 -1      2216 8.83653E-05-1.14517E-05-3.30002E-05-4.80193E-06-1.05420E-18-3.10125E-18
 -1      2217 8.87173E-05-1.19347E-05-3.29521E-05-5.82010E-06-1.26044E-18-2.96587E-18
 -1      2218 8.91228E-05-1.24054E-05-3.29245E-05-6.99150E-06-1.51099E-18-2.82137E-18
 -1      2219 8.98855E-05-1.38208E-05-3.25985E-05-4.90325E-06-1.04546E-18-2.84171E-18
 -1      2220 8.77852E-05-1.07230E-05-3.30607E-05 6.15514E-07 2.52195E-20-3.33819E-18
 -1      2221 8.77807E-05-1.07181E-05-3.30609E-05-4.95516E-07-2.39438E-19-3.29528E-18
 -1      2222 8.79665E-05-1.09480E-05-3.30423E-05 2.75766E-06 4.00785E-19-3.44725E-18
 -1      2223 8.78515E-05-1.08149E-05-3.30515E-05 1.63824E-06 1.86901E-19-3.44423E-18
 -1      2224 8.91029E-05-1.27694E-05-3.27176E-05 1.04965E-06 9.63581E-20-3.22310E-18
 -1      2225 8.84012E-05-1.14951E-05-3.29973E-05 4.88697E-06 8.90774E-19-3.35880E-18
 -1      2226 8.81615E-05-1.12184E-05-3.30153E-05 3.76379E-06 6.15197E-19-3.43366E-18
 -1      2227 8.93690E-05-1.31252E-05-3.26777E-05 3.02091E-06 5.19919E-19-3.23734E-18
 -1      2228 8.91813E-05-1.24777E-05-3.29188E-05 7.07434E-06 1.38653E-18-2.97817E-18
 -1      2229 8.87630E-05-1.19912E-05-3.29477E-05 5.90267E-06 1.05540E-18-3.16986E-18
 -1      2230 8.99268E-05-1.38732E-05-3.25934E-05 4.97506E-06 9.70577E-19-3.07151E-18
 -1      2231 9.04520E-05-1.40868E-05-3.27922E-05 9.22240E-06 1.89877E-18-2.65152E-18
 -1      2232 8.97708E-05-1.32757E-05-3.28373E-05 8.04381E-06 1.55950E-18-2.84933E-18
 -1      2233 9.08628E-05-1.51328E-05-3.24488E-05 6.87078E-06 1.44250E-18-2.66943E-18
 -1      2234 9.24515E-05-1.66592E-05-3.25829E-05 1.11064E-05 2.29604E-18-1.89872E-18
 -1      2235 9.13721E-05-1.53190E-05-3.26546E-05 1.00263E-05 2.05273E-18-2.32042E-18
 -1      2236 9.22873E-05-1.70870E-05-3.22081E-05 8.51551E-06 1.90711E-18-2.26004E-18
 -1      2237 9.42392E-05-2.71182E-05-2.87494E-05 1.76420E-06 1.21135E-18-2.06274E-19
 -1      2238 9.48396E-05-2.68946E-05-2.90479E-05 2.73706E-06 1.45650E-18 9.09469E-20
 -1      2239 9.53419E-05-2.58484E-05-2.97909E-05 4.36040E-06 1.71420E-18-6.35053E-19
 -1      2240 9.59156E-05-2.50963E-05-3.03045E-05-6.19138E-06-1.93286E-18 8.18264E-20
 -1      2241 9.52548E-05-2.58500E-05-2.97609E-05-4.27686E-06-1.71143E-18-3.57011E-20
 -1      2242 1.54040E-04-4.76790E-05-4.61632E-05 5.73923E-06 1.86130E-18-3.56114E-18
 -1      2243 1.49740E-04-5.66972E-05-4.00292E-05 1.50396E-05 1.22079E-18-3.09082E-18
 -1      2244 9.51419E-05-2.65381E-05-2.93443E-05-2.93917E-06-1.44019E-18-3.77608E-21
 -1      2245 9.46706E-05-2.69081E-05-2.90412E-05-1.87674E-06-1.18919E-18-1.77347E-19
 -1      2246 9.53378E-05-2.53661E-05-2.99957E-05-4.28806E-06-1.71105E-18-5.09571E-19
 -1      2247 9.44753E-05-2.72384E-05-2.87775E-05-1.02580E-06-1.06934E-18-1.07872E-19
 -1      2248 9.42172E-05-2.74522E-05-2.86112E-05-4.24417E-07-9.00729E-19-3.53542E-19
 -1      2249 9.50335E-05-2.66989E-05-2.92995E-05-1.91868E-06-1.24063E-18-5.43553E-19
 -1      2250 9.40682E-05-2.76327E-05-2.84498E-05 8.28813E-08-7.72953E-19-4.85703E-19
 -1      2251 9.39697E-05-2.77762E-05-2.83662E-05 4.12288E-07-6.56632E-19-5.48565E-19
 -1      2252 9.47291E-05-2.74282E-05-2.88562E-05-4.40906E-07-9.51585E-19-7.35240E-19
 -1      2253 9.38848E-05-2.78858E-05-2.82726E-05 6.94485E-07-6.32092E-19-6.37826E-19
 -1      2254 9.38902E-05-2.79927E-05-2.82396E-05 8.58128E-07-7.24804E-19-8.27945E-19
 -1      2255 9.45274E-05-2.78565E-05-2.85836E-05 4.28579E-07-8.10135E-19-9.60985E-19
 -1      2256 9.38584E-05-2.80648E-05-2.81907E-05 9.94816E-07-9.46047E-19-1.01143E-18
 -1      2257 9.39250E-05-2.81486E-05-2.81882E-05 1.05648E-06-7.62015E-19-1.02775E-18
 -1      2258 9.44340E-05-2.81258E-05-2.84253E-05 8.98436E-07-8.74479E-19-1.21116E-18
 -1      2259 9.39302E-05-2.81983E-05-2.81680E-05 1.10093E-06-4.93750E-19-1.10840E-18
 -1      2260 9.40285E-05-2.82649E-05-2.81831E-05 1.10083E-06-5.25160E-19-8.89890E-19
 -1      2261 9.44235E-05-2.83025E-05-2.83426E-05 1.11017E-06-7.48819E-19-1.43295E-18
 -1      2262 9.40564E-05-2.82996E-05-2.81810E-05 1.08895E-06-7.17960E-19-7.62522E-19
 -1      2263 9.41668E-05-2.83522E-05-2.82053E-05 1.05326E-06-7.81169E-19-8.21332E-19
 -1      2264 9.44674E-05-2.84205E-05-2.83090E-05 1.15950E-06-6.03953E-19-1.49118E-18
 -1      2265 9.42068E-05-2.83763E-05-2.82139E-05 1.00936E-06-6.77044E-19-7.60107E-19
 -1      2266 9.43170E-05-2.84173E-05-2.82420E-05 9.55431E-07-6.22272E-19-7.38424E-19
 -1      2267 9.45423E-05-2.84986E-05-2.83063E-05 1.11135E-06-7.49585E-19-1.14843E-18
 -1      2268 9.43619E-05-2.84335E-05-2.82566E-05 8.95968E-07-5.41095E-19-5.69049E-19
 -1      2269 9.44650E-05-2.84647E-05-2.82853E-05 8.35316E-07-3.36582E-19-4.37234E-19
 -1      2270 9.46314E-05-2.85485E-05-2.83223E-05 1.00986E-06-5.24201E-19-6.72175E-19
 -1      2271 9.45101E-05-2.84748E-05-2.83027E-05 7.71375E-07-3.09386E-21-3.65964E-19
 -1      2272 9.46028E-05-2.84979E-05-2.83302E-05 7.11637E-07 3.70038E-19-1.94534E-19
 -1      2273 9.47237E-05-2.85780E-05-2.83486E-05 8.84954E-07-1.40892E-20 4.22443E-20
 -1      2274 9.46457E-05-2.85035E-05-2.83486E-05 6.50642E-07 4.60145E-20-3.81622E-19
 -1      2275 9.47271E-05-2.85199E-05-2.83740E-05 5.96879E-07-4.44757E-19-3.02723E-19
 -1      2276 9.48128E-05-2.85926E-05-2.83803E-05 7.56843E-07-2.12234E-21-1.44671E-19
 -1      2277 9.47669E-05-2.85219E-05-2.83926E-05 5.43837E-07-7.30432E-19-1.75274E-19
 -1      2278 9.48379E-05-2.85330E-05-2.84158E-05 4.99471E-07-6.57717E-19-1.45466E-19
 -1      2279 9.48956E-05-2.85961E-05-2.84141E-05 6.39156E-07-5.18583E-19-2.42321E-19
 -1      2280 9.48747E-05-2.85323E-05-2.84341E-05 4.57889E-07-7.35964E-19-2.30831E-19
 -1      2281 9.49375E-05-2.85391E-05-2.84557E-05 4.25411E-07-6.07715E-19-4.00130E-19
 -1      2282 9.49716E-05-2.85912E-05-2.84488E-05 5.41267E-07-7.10931E-19 2.12937E-19
 -1      2283 9.49723E-05-2.85362E-05-2.84741E-05 3.97997E-07-6.46760E-19-4.35329E-19
 -1      2284 9.50300E-05-2.85398E-05-2.84948E-05 3.79503E-07-7.00234E-19-4.75163E-19
 -1      2285 9.50421E-05-2.85797E-05-2.84840E-05 4.70030E-07-8.68591E-19 2.62380E-20
 -1      2286 9.50645E-05-2.85350E-05-2.85138E-05 3.68713E-07-5.07063E-19-6.87449E-19
 -1      2287 9.51211E-05-2.85365E-05-2.85348E-05 3.66328E-07-3.11322E-19-5.10538E-19
 -1      2288 9.51098E-05-2.85627E-05-2.85204E-05 4.31117E-07-8.24874E-19 1.04070E-19
 -1      2289 9.51573E-05-2.85300E-05-2.85555E-05 3.74797E-07-6.75106E-19-8.03812E-19
 -1      2290 9.52176E-05-2.85301E-05-2.85783E-05 3.91022E-07-4.35639E-19-1.10210E-18
 -1      2291 9.51783E-05-2.85407E-05-2.85595E-05 4.30063E-07-6.64516E-19-8.25632E-19
 -1      2292 9.52581E-05-2.85222E-05-2.86018E-05 4.21913E-07 2.76817E-20-1.27235E-18
 -1      2293 9.53277E-05-2.85219E-05-2.86284E-05 4.59910E-07-3.02691E-20-1.24016E-18
 -1      2294 9.52524E-05-2.85136E-05-2.86031E-05 4.73090E-07-2.58557E-19-9.62621E-19
 -1      2295 9.53756E-05-2.85123E-05-2.86562E-05 5.17196E-07 1.15659E-19-9.99922E-19
 -1      2296 9.54611E-05-2.85126E-05-2.86886E-05 5.81026E-07-1.16946E-19-1.34730E-18
 -1      2297 9.53378E-05-2.84812E-05-2.86540E-05 5.67778E-07 5.54051E-20-6.54680E-19
 -1      2298 9.55197E-05-2.85013E-05-2.87226E-05 6.69721E-07 1.11792E-20-7.82857E-19
 -1      2299 9.56290E-05-2.85034E-05-2.87633E-05 7.64547E-07 5.28811E-19-4.40975E-19
 -1      2300 9.54408E-05-2.84426E-05-2.87150E-05 7.23596E-07 3.29521E-19-2.87731E-19
 -1      2301 9.57022E-05-2.84902E-05-2.88054E-05 8.90876E-07 3.49123E-19-7.43686E-19
 -1      2302 9.58442E-05-2.84955E-05-2.88574E-05 1.02310E-06 1.79901E-19-5.89887E-19
 -1      2303 9.55688E-05-2.83970E-05-2.87898E-05 9.52297E-07 3.64141E-19-6.46641E-19
 -1      2304 9.59362E-05-2.84802E-05-2.89099E-05 1.19458E-06 3.40869E-19-5.36050E-19
 -1      2305 9.61215E-05-2.84906E-05-2.89766E-05 1.37189E-06 8.55201E-19-9.08369E-19
 -1      2306 9.57296E-05-2.83432E-05-2.88822E-05 1.26816E-06 2.01767E-19-5.04566E-19
 -1      2307 9.62367E-05-2.84732E-05-2.90418E-05 1.59728E-06 4.32895E-19-1.18536E-18
 -1      2308 9.64774E-05-2.84910E-05-2.91269E-05 1.82852E-06 2.93638E-19-7.89947E-19
 -1      2309 9.59318E-05-2.82803E-05-2.89961E-05 1.68798E-06 3.78622E-19-5.60560E-19
 -1      2310 9.66202E-05-2.84717E-05-2.92070E-05 2.11754E-06-1.32473E-19-8.36760E-19
 -1      2311 9.69302E-05-2.85007E-05-2.93144E-05 2.41218E-06-3.45766E-19-5.33791E-19
 -1      2312 9.61843E-05-2.82081E-05-2.91356E-05 2.23064E-06 5.07235E-20-9.99308E-19
 -1      2313 9.71050E-05-2.84807E-05-2.94113E-05 2.77474E-06-5.77546E-19-3.67211E-19
 -1      2314 9.74995E-05-2.85263E-05-2.95449E-05 3.14175E-06-4.59517E-19 4.36284E-19
 -1      2315 9.64964E-05-2.81280E-05-2.93039E-05 2.91597E-06-3.33658E-19-8.20740E-19
 -1      2316 9.77114E-05-2.85091E-05-2.96594E-05 3.58643E-06-6.98650E-19 1.22265E-19
 -1      2317 9.82070E-05-2.85804E-05-2.98224E-05 4.03182E-06-1.63509E-19-5.86259E-19
 -1      2318 9.68779E-05-2.80460E-05-2.95025E-05 3.76233E-06-7.01070E-19-4.06540E-19
 -1      2319 9.84624E-05-2.85743E-05-2.99537E-05 4.56301E-06 6.04419E-19-1.43289E-18
 -1      2320 9.90770E-05-2.86868E-05-3.01476E-05 5.08523E-06 7.70348E-19-1.30098E-18
 -1      2321 9.73408E-05-2.79771E-05-2.97303E-05 4.78212E-06-2.31844E-19-4.72143E-19
 -1      2322 9.93875E-05-2.87100E-05-3.02922E-05 5.69799E-06 8.89888E-19-1.27035E-18
 -1      2323 1.00140E-04-2.88907E-05-3.05151E-05 6.27975E-06 4.34290E-19-8.46838E-19
 -1      2324 9.79034E-05-2.79545E-05-2.99810E-05 5.97383E-06 7.00981E-19-1.04155E-18
 -1      2325 1.00529E-04-2.89798E-05-3.06652E-05 6.95105E-06-1.01652E-19-8.62592E-19
 -1      2326 1.01442E-04-2.92752E-05-3.09101E-05 7.54572E-06-1.70183E-19-1.48932E-19
 -1      2327 9.86011E-05-2.80458E-05-3.02414E-05 7.30860E-06 5.13841E-19-2.08390E-19
 -1      2328 1.01959E-04-2.94986E-05-3.10529E-05 8.22011E-06-5.33840E-19-1.31572E-19
 -1      2329 1.03059E-04-2.99854E-05-3.13053E-05 8.73102E-06-6.08080E-19 7.70137E-19
 -1      2330 9.95056E-05-2.83785E-05-3.04891E-05 8.70866E-06-4.09533E-20-1.09004E-19
 -1      2331 1.03803E-04-3.04600E-05-3.14239E-05 9.29808E-06-9.56995E-19 6.25583E-19
 -1      2332 1.05125E-04-3.12532E-05-3.16607E-05 9.55137E-06-6.28230E-19 4.18641E-19
 -1      2333 1.00760E-04-2.91741E-05-3.06927E-05 1.00137E-05-8.42801E-19 2.63300E-19
 -1      2334 1.06267E-04-3.21546E-05-3.17400E-05 9.81207E-06-9.29387E-20 2.81940E-19
 -1      2335 1.07850E-04-3.33952E-05-3.19340E-05 9.53067E-06 5.36445E-19 2.40710E-21
 -1      2336 1.02630E-04-3.07801E-05-3.08201E-05 1.09304E-05-4.84655E-19-2.41431E-19
 -1      2337 1.09648E-04-3.49307E-05-3.19763E-05 9.15118E-06 1.14409E-18 3.92405E-19
 -1      2338 1.11489E-04-3.67052E-05-3.21112E-05 7.95504E-06 1.06654E-18 1.93502E-19
 -1      2339 1.05541E-04-3.36537E-05-3.08618E-05 1.09591E-05 4.13790E-19 1.30285E-19
 -1      2340 1.14211E-04-3.89763E-05-3.21700E-05 6.43517E-06 5.43259E-19 1.82014E-18
 -1      2341 1.16147E-04-4.11018E-05-3.22699E-05 3.93403E-06 1.08709E-18 2.58246E-18
 -1      2342 1.10035E-04-3.81702E-05-3.08856E-05 9.30572E-06 1.93948E-18 1.38213E-18
 -1      2343 1.19794E-04-4.37579E-05-3.25025E-05 6.64401E-07 1.23895E-18 2.23401E-18
 -1      2344 1.21296E-04-4.53883E-05-3.26750E-05-3.24432E-06 1.33583E-18 2.12643E-18
 -1      2345 1.16458E-04-4.40877E-05-3.11317E-05 4.85570E-06 9.10339E-19 2.66984E-18
 -1      2346 1.24940E-04-4.70209E-05-3.33703E-05-8.40359E-06 8.81617E-19 1.81174E-18
 -1      2347 1.25024E-04-4.64805E-05-3.37830E-05-1.28112E-05 5.25921E-19 1.38334E-18
 -1      2348 1.23918E-04-4.93193E-05-3.21291E-05-3.52902E-06 9.37718E-19 1.19659E-18
 -1      2349 1.27002E-04-4.50685E-05-3.52307E-05-1.86749E-05 1.02556E-18 1.87992E-18
 -1      2350 1.24501E-04-4.05324E-05-3.60565E-05-2.14635E-05 2.70442E-19 2.17933E-18
 -1      2351 1.30100E-04-4.95659E-05-3.46806E-05-1.49156E-05 5.62906E-19 1.17583E-18
 -1      2352 1.22807E-04-3.47404E-05-3.81488E-05-2.33615E-05-7.30248E-19 1.95990E-18
 -1      2353 1.18863E-04-2.79649E-05-3.90711E-05-2.14590E-05-1.56431E-18 1.84492E-18
 -1      2354 1.29964E-04-3.98384E-05-3.87975E-05-2.37346E-05-5.55230E-19 2.55762E-18
 -1      2355 1.15754E-04-2.19421E-05-4.06528E-05-1.59959E-05-1.01210E-18 1.76949E-18
 -1      2356 1.13557E-04-1.86814E-05-4.09300E-05-9.33179E-06-2.28064E-19 2.26379E-18
 -1      2357 1.24460E-04-2.43753E-05-4.31765E-05-2.08343E-05-9.73029E-19 2.00207E-18
 -1      2358 1.13372E-04-1.88886E-05-4.07443E-05-1.80720E-07 1.84336E-19 2.69491E-18
 -1      2359 1.14576E-04-2.23149E-05-4.00179E-05 6.28233E-06 2.61363E-19 2.87556E-18
 -1      2360 1.20840E-04-1.66105E-05-4.50929E-05-5.33204E-06 3.85824E-19 1.64978E-18
 -1      2361 1.17259E-04-2.84257E-05-3.81309E-05 1.10475E-05 1.56172E-20 2.64309E-18
 -1      2362 1.19760E-04-3.46356E-05-3.68796E-05 1.25885E-05 7.27654E-19 2.31311E-18
 -1      2363 1.23808E-04-2.51378E-05-4.25738E-05 9.83723E-06-3.34260E-19 3.07563E-18
 -1      2364 1.20623E-04-3.98072E-05-3.47036E-05 1.03538E-05-4.23516E-22 2.40884E-18
 -1      2365 1.21518E-04-4.33156E-05-3.36488E-05 7.52005E-06-4.78276E-20 2.64495E-18
 -1      2366 1.27774E-04-4.00791E-05-3.77714E-05 1.14040E-05-9.21148E-21 1.68740E-18
 -1      2367 1.18825E-04-4.39726E-05-3.21989E-05 2.20144E-06-2.79484E-19 2.55329E-18
 -1      2368 1.17408E-04-4.35462E-05-3.16051E-05-1.76617E-06-7.30554E-19 2.30826E-18
 -1      2369 1.25968E-04-4.77258E-05-3.35994E-05 2.57883E-06-2.20890E-20 2.89366E-18
 -1      2370 1.12907E-04-4.09035E-05-3.09871E-05-6.02531E-06-1.00082E-19 2.50359E-18
 -1      2371 1.10148E-04-3.82250E-05-3.07474E-05-8.70550E-06-3.10326E-19 1.94365E-18
 -1      2372 1.18407E-04-4.54758E-05-3.13528E-05-7.26523E-06-2.00355E-19 3.18536E-18
 -1      2373 9.33447E-05-2.76929E-05-2.81292E-05-4.11192E-07 6.63898E-19-9.01457E-19
 -1      2374 9.34225E-05-2.75877E-05-2.81905E-05-1.25587E-07 8.42669E-19-5.79832E-19
 -1      2375 9.32934E-05-2.78576E-05-2.80392E-05-8.17481E-07 6.74043E-19-1.33322E-18
 -1      2376 9.32483E-05-2.77664E-05-2.80506E-05-6.78296E-07 6.32719E-19-1.03144E-18
 -1      2377 9.40144E-05-2.78093E-05-2.83848E-05-4.44477E-07 8.62769E-19-1.17757E-18
 -1      2378 9.33871E-05-2.79935E-05-2.80227E-05-9.93062E-07 8.17953E-19-1.55453E-18
 -1      2379 9.32742E-05-2.79126E-05-2.80057E-05-9.42296E-07 6.65744E-19-1.44068E-18
 -1      2380 9.39275E-05-2.80190E-05-2.82546E-05-8.91820E-07 7.89584E-19-1.51628E-18
 -1      2381 9.35610E-05-2.81085E-05-2.80491E-05-1.02758E-06 8.14170E-19-1.42799E-18
 -1      2382 9.34167E-05-2.80376E-05-2.80171E-05-1.02980E-06 9.02442E-19-1.48565E-18
 -1      2383 9.39558E-05-2.81683E-05-2.82000E-05-1.08789E-06 8.12881E-19-1.50286E-18
 -1      2384 9.37712E-05-2.82055E-05-2.80984E-05-9.78884E-07 4.19680E-19-1.25631E-18
 -1      2385 9.36183E-05-2.81447E-05-2.80599E-05-1.01142E-06 6.44267E-19-1.19380E-18
 -1      2386 9.40536E-05-2.82791E-05-2.81924E-05-1.12850E-06 6.54802E-19-1.12111E-18
 -1      2387 9.39889E-05-2.82857E-05-2.81579E-05-8.85114E-07 5.44020E-19-1.15754E-18
 -1      2388 9.38412E-05-2.82349E-05-2.81181E-05-9.33116E-07 4.84308E-19-1.28448E-18
 -1      2389 9.41870E-05-2.83622E-05-2.82125E-05-1.07685E-06 4.61701E-19-9.06865E-19
 -1      2390 9.41971E-05-2.83507E-05-2.82196E-05-7.71604E-07 3.57175E-19-1.05191E-18
 -1      2391 9.40620E-05-2.83093E-05-2.81815E-05-8.25257E-07 5.46989E-19-1.17638E-18
 -1      2392 9.43331E-05-2.84241E-05-2.82477E-05-9.75195E-07 4.98339E-19-1.10031E-18
 -1      2393 9.43867E-05-2.84021E-05-2.82790E-05-6.55145E-07 4.78535E-19-1.01905E-18
 -1      2394 9.42676E-05-2.83691E-05-2.82443E-05-7.07987E-07 4.43756E-19-8.85533E-19
 -1      2395 9.44777E-05-2.84691E-05-2.82898E-05-8.51826E-07 3.36364E-19-1.11513E-18
 -1      2396 9.45544E-05-2.84417E-05-2.83339E-05-5.46805E-07 1.85640E-19-9.93373E-19
 -1      2397 9.44517E-05-2.84160E-05-2.83031E-05-5.94593E-07 4.15789E-19-8.87720E-19
 -1      2398 9.46128E-05-2.85006E-05-2.83338E-05-7.25656E-07 3.98550E-19-7.67411E-19
 -1      2399 9.47006E-05-2.84715E-05-2.83837E-05-4.53924E-07 2.06334E-19-1.10504E-18
 -1      2400 9.46128E-05-2.84519E-05-2.83566E-05-4.93832E-07 2.98634E-19-8.47198E-19
 -1      2401 9.47350E-05-2.85212E-05-2.83772E-05-6.09279E-07 1.83957E-19-1.04439E-18
 -1      2402 9.48288E-05-2.84934E-05-2.84291E-05-3.81557E-07-1.14943E-20-1.35528E-18
 -1      2403 9.47530E-05-2.84786E-05-2.84050E-05-4.11595E-07 8.95280E-20-1.33824E-18
 -1      2404 9.48440E-05-2.85333E-05-2.84187E-05-5.11190E-07 3.48164E-19-1.19882E-18
 -1      2405 9.49442E-05-2.85095E-05-2.84714E-05-3.33555E-07 5.00227E-19-1.38664E-18
 -1      2406 9.48767E-05-2.84982E-05-2.84493E-05-3.52126E-07 2.27965E-19-1.24090E-18
 -1      2407 9.49421E-05-2.85388E-05-2.84585E-05-4.37399E-07 1.78229E-19-1.72820E-18
 -1      2408 9.50540E-05-2.85217E-05-2.85128E-05-3.13357E-07 2.31778E-19-1.29366E-18
 -1      2409 9.49900E-05-2.85126E-05-2.84913E-05-3.18936E-07 6.19708E-19-1.21358E-18
 -1      2410 9.50331E-05-2.85390E-05-2.84976E-05-3.92629E-07 3.80942E-19-1.21937E-18
 -1      2411 9.51664E-05-2.85323E-05-2.85559E-05-3.24571E-07 9.66360E-20-1.42944E-18
 -1      2412 9.51005E-05-2.85239E-05-2.85335E-05-3.15474E-07 1.09196E-19-1.11647E-18
 -1      2413 9.51223E-05-2.85356E-05-2.85375E-05-3.81205E-07 8.41185E-21-1.45299E-18
 -1      2414 9.52913E-05-2.85435E-05-2.86040E-05-3.71344E-07-1.59482E-19-1.37445E-18
 -1      2415 9.52173E-05-2.85343E-05-2.85787E-05-3.45584E-07-3.26169E-20-1.14530E-18
 -1      2416 9.52162E-05-2.85298E-05-2.85806E-05-4.07672E-07-1.30505E-19-8.76321E-19
 -1      2417 9.54400E-05-2.85582E-05-2.86606E-05-4.58518E-07 5.15468E-19-1.77353E-18
 -1      2418 9.53507E-05-2.85463E-05-2.86304E-05-4.13767E-07 3.71935E-19-1.62754E-18
 -1      2419 9.53224E-05-2.85231E-05-2.86293E-05-4.77174E-07 2.71616E-19-8.45603E-19
 -1      2420 9.56253E-05-2.85799E-05-2.87298E-05-5.91534E-07 8.02915E-19-2.04662E-18
 -1      2421 9.55128E-05-2.85629E-05-2.86923E-05-5.25201E-07 5.24455E-19-2.04174E-18
 -1      2422 9.54499E-05-2.85176E-05-2.86867E-05-5.95565E-07 7.01526E-19-1.31204E-18
 -1      2423 9.58616E-05-2.86128E-05-2.88160E-05-7.76004E-07 4.76581E-19-1.62407E-18
 -1      2424 9.57169E-05-2.85880E-05-2.87687E-05-6.85485E-07 5.59479E-19-1.70169E-18
 -1      2425 9.56089E-05-2.85158E-05-2.87561E-05-7.69202E-07 2.89252E-19-1.40051E-18
 -1      2426 9.61650E-05-2.86626E-05-2.89236E-05-1.01681E-06-5.54514E-19-1.66804E-18
 -1      2427 9.59783E-05-2.86265E-05-2.88638E-05-8.99976E-07 2.83250E-19-1.48669E-18
 -1      2428 9.58110E-05-2.85216E-05-2.88408E-05-1.00432E-06 1.83076E-19-8.03551E-19
 -1      2429 9.65525E-05-2.87368E-05-2.90569E-05-1.31656E-06-1.15260E-18-1.18048E-18
 -1      2430 9.63135E-05-2.86848E-05-2.89821E-05-1.17258E-06-1.14952E-18-1.53596E-18
 -1      2431 9.60695E-05-2.85408E-05-2.89439E-05-1.30584E-06-8.25005E-19-4.54998E-19
 -1      2432 9.70416E-05-2.88449E-05-2.92195E-05-1.67312E-06-8.95576E-19-1.19974E-18
 -1      2433 9.67404E-05-2.87716E-05-2.91275E-05-1.50376E-06-8.04141E-19-1.59494E-18
 -1      2434 9.63991E-05-2.85816E-05-2.90681E-05-1.67535E-06-6.73689E-19-1.35101E-18
 -1      2435 9.76491E-05-2.89998E-05-2.94132E-05-2.07595E-06-3.10999E-19-9.62507E-19
 -1      2436 9.72769E-05-2.88982E-05-2.93029E-05-1.88750E-06-5.98822E-19-1.35294E-18
 -1      2437 9.68157E-05-2.86566E-05-2.92150E-05-2.10808E-06-9.06418E-19-2.61817E-18
 -1      2438 9.83886E-05-2.92178E-05-2.96374E-05-2.50097E-06-7.23850E-19-1.82575E-19
 -1      2439 9.79401E-05-2.90796E-05-2.95090E-05-2.30691E-06-3.90760E-19-3.51770E-19
 -1      2440 9.73367E-05-2.87833E-05-2.93845E-05-2.58843E-06-7.70314E-19-2.00774E-18
 -1      2441 9.92681E-05-2.95196E-05-2.98871E-05-2.90369E-06-2.07754E-19 2.81322E-19
 -1      2442 9.87437E-05-2.93352E-05-2.97435E-05-2.72816E-06-7.06660E-19 2.53065E-19
 -1      2443 9.79802E-05-2.89866E-05-2.95736E-05-3.08391E-06-5.12019E-19-1.85775E-18
 -1      2444 1.00285E-04-2.99294E-05-3.01517E-05-3.21122E-06 7.45844E-19 5.96420E-19
 -1      2445 9.96951E-05-2.96888E-05-2.99994E-05-3.09295E-06 4.58182E-19 4.97167E-19
 -1      2446 9.87646E-05-2.92999E-05-2.97758E-05-3.53730E-06 1.84403E-20-1.67926E-18
 -1      2447 1.01422E-04-3.04720E-05-3.04133E-05-3.31438E-06 1.84572E-18 1.59450E-19
 -1      2448 1.00790E-04-3.01676E-05-3.02634E-05-3.31008E-06 1.65231E-18 5.64863E-19
 -1      2449 9.97067E-05-2.97652E-05-2.99805E-05-3.85777E-06 1.16887E-18-1.14659E-18
 -1      2450 1.02634E-04-3.11643E-05-3.06461E-05-3.06402E-06 7.95792E-19-6.50526E-19
 -1      2451 1.02007E-04-3.07963E-05-3.05151E-05-3.24881E-06 1.31040E-18 2.93730E-19
 -1      2452 1.00818E-04-3.04282E-05-3.01728E-05-3.91275E-06 1.54245E-18 2.06318E-19
 -1      2453 1.03839E-04-3.19974E-05-3.08184E-05-2.27906E-06-4.32407E-19 4.02163E-19
 -1      2454 1.03290E-04-3.15843E-05-3.07274E-05-2.73945E-06 2.12829E-19 1.80112E-19
 -1      2455 1.02096E-04-3.13253E-05-3.03356E-05-3.52520E-06-4.41135E-20 6.93992E-19
 -1      2456 1.04898E-04-3.29033E-05-3.08978E-05-7.79231E-07-9.43558E-19 8.08419E-19
 -1      2457 1.04536E-04-3.24991E-05-3.08699E-05-1.59173E-06-7.56222E-19 1.14514E-18
 -1      2458 1.03503E-04-3.24529E-05-3.04536E-05-2.48539E-06-1.01456E-18 2.53699E-18
 -1      2459 1.05594E-04-3.37097E-05-3.08605E-05 1.54094E-06-7.28151E-19 1.49494E-18
 -1      2460 1.05559E-04-3.34239E-05-3.09152E-05 3.52567E-07-1.08173E-18 1.00549E-18
 -1      2461 1.04931E-04-3.37144E-05-3.05205E-05-5.92785E-07-1.08284E-18 3.56127E-18
 -1      2462 1.05623E-04-3.41022E-05-3.07044E-05 4.58441E-06-3.82995E-19 2.53375E-18
 -1      2463 1.06074E-04-3.41080E-05-3.08491E-05 3.11463E-06-2.76202E-19 1.83854E-18
 -1      2464 1.06153E-04-3.48499E-05-3.05479E-05 2.25094E-06-6.61928E-19 2.74078E-18
 -1      2465 1.04644E-04-3.36569E-05-3.04580E-05 7.89345E-06 2.73823E-19 2.57624E-18
 -1      2466 1.05702E-04-3.41534E-05-3.06814E-05 6.41990E-06 4.22524E-21 2.46852E-18
 -1      2467 1.06780E-04-3.53904E-05-3.05700E-05 5.88013E-06 6.34596E-20 2.36223E-18
 -1      2468 1.02433E-04-3.20215E-05-3.01749E-05 1.05624E-05 6.85026E-19 7.08434E-19
 -1      2469 1.04087E-04-3.31201E-05-3.04459E-05 9.55151E-06 8.98996E-19 2.11924E-18
 -1      2470 1.06319E-04-3.47414E-05-3.06357E-05 9.66972E-06 1.02755E-18 1.68677E-18
 -1      2471 9.91523E-05-2.92626E-05-2.99101E-05 1.14038E-05-7.66102E-19 4.08726E-19
 -1      2472 1.01158E-04-3.08146E-05-3.01859E-05 1.13771E-05 2.21183E-19 5.98899E-19
 -1      2473 1.04411E-04-3.24975E-05-3.07774E-05 1.24516E-05 6.56968E-19 2.28883E-18
 -1      2474 9.55935E-05-2.61772E-05-2.96864E-05 9.53754E-06-3.56528E-19 9.34936E-19
 -1      2475 9.74566E-05-2.76875E-05-2.99297E-05 1.07602E-05-1.63464E-18 4.20585E-19
 -1      2476 1.01261E-04-2.89481E-05-3.09715E-05 1.27977E-05-1.24847E-18 1.20257E-18
 -1      2477 9.29923E-05-2.40941E-05-2.94797E-05 5.17090E-06-3.64224E-19 3.12871E-18
 -1      2478 9.41605E-05-2.49189E-05-2.96692E-05 7.35528E-06 2.39836E-19 2.07956E-18
 -1      2479 9.79200E-05-2.53706E-05-3.11176E-05 9.85872E-06-1.08122E-18 4.94027E-19
 -1      2480 9.23074E-05-2.40190E-05-2.92566E-05-1.32297E-07 5.94710E-20 1.16163E-18
 -1      2481 9.24890E-05-2.38173E-05-2.93818E-05 2.19806E-06-5.97621E-20 2.15001E-18
 -1      2482 9.58617E-05-2.34623E-05-3.10784E-05 4.30899E-06-7.73248E-20 1.76993E-18
 -1      2483 9.34513E-05-2.57797E-05-2.90237E-05-4.29413E-06 1.70680E-18 1.07391E-18
 -1      2484 9.28075E-05-2.47925E-05-2.90787E-05-2.67706E-06 3.15136E-19 1.77110E-18
 -1      2485 9.59058E-05-2.41475E-05-3.07865E-05-1.63471E-06 2.30482E-19 6.21552E-19
 -1      2486 9.53529E-05-2.81588E-05-2.88271E-05-6.04421E-06 2.09451E-18 2.60260E-18
 -1      2487 9.43745E-05-2.70144E-05-2.88142E-05-5.52084E-06 2.02468E-18 2.46080E-18
 -1      2488 9.75012E-05-2.67623E-05-3.03081E-05-5.59864E-06 1.17995E-18 1.74092E-18
 -1      2489 9.67940E-05-2.98547E-05-2.87044E-05-5.55960E-06 1.78007E-18 2.90016E-18
 -1      2490 9.59662E-05-2.90944E-05-2.86449E-05-5.89977E-06 1.75184E-18 3.95649E-18
 -1      2491 9.92099E-05-2.96133E-05-2.97916E-05-6.60385E-06 1.40144E-18 3.07546E-18
 -1      2492 9.71927E-05-3.03289E-05-2.86450E-05-3.95296E-06 8.68207E-19 3.17307E-18
 -1      2493 9.67457E-05-3.01249E-05-2.85735E-05-4.64757E-06 1.41566E-18 3.36018E-18
 -1      2494 9.98435E-05-3.12469E-05-2.93561E-05-5.37743E-06 1.45740E-18 4.05657E-18
 -1      2495 9.66822E-05-2.99379E-05-2.85912E-05-2.45031E-06-1.34108E-18 4.57665E-18
 -1      2496 9.65451E-05-3.00280E-05-2.85460E-05-3.05380E-06-7.71726E-20 3.40976E-18
 -1      2497 9.90930E-05-3.12146E-05-2.90399E-05-3.38017E-06 1.86439E-19 6.91953E-18
 -1      2498 9.58934E-05-2.94805E-05-2.84747E-05-1.88756E-06-1.53341E-18 3.55876E-18
 -1      2499 1.03212E-04-3.12765E-05-3.07670E-05 1.86995E-05 1.12504E-18-2.37422E-18
 -1      2500 1.04239E-04-3.31129E-05-3.04631E-05 1.50388E-05 1.29475E-18-4.96026E-18
 -1      2501 9.81126E-05-2.65494E-05-3.07213E-05 2.54401E-05 5.63872E-19-1.52877E-19
 -1      2502 1.01464E-04-2.98855E-05-3.05690E-05 2.30245E-05 6.69846E-19-1.66078E-18
 -1      2503 1.05737E-04-3.54137E-05-3.02025E-05 2.26277E-05 9.98689E-19-2.60773E-18
 -1      2504 1.02080E-04-3.24038E-05-2.97411E-05 3.92725E-06-3.91012E-19-1.77142E-19
 -1      2505 1.00776E-04-3.22434E-05-2.94196E-05 1.43687E-06 5.47999E-20 1.76959E-18
 -1      2506 1.03823E-04-3.27585E-05-3.03566E-05 1.06799E-05-6.91195E-19-4.30922E-18
 -1      2507 1.03370E-04-3.34283E-05-3.00162E-05 7.39699E-06-1.96098E-19-1.70053E-18
 -1      2508 1.05451E-04-3.50242E-05-3.01250E-05 5.50966E-06-4.46264E-19-1.40225E-18
 -1      2509 1.07335E-04-3.63520E-05-3.04436E-05 1.33980E-05-3.35322E-20-2.83566E-18
 -1      2510 8.82611E-05-1.83421E-05-3.01288E-05 2.64894E-05-1.45433E-18 6.61625E-19
 -1      2511 9.35586E-05-2.26764E-05-3.01652E-05 2.72881E-05-9.85536E-20-1.07236E-18
 -1      2512 9.79128E-05-3.00413E-05-2.91434E-05 2.96674E-05-3.48673E-19-8.61148E-19
 -1      2513 7.72092E-05-9.30316E-06-2.92938E-05 1.80912E-05-2.33761E-18 8.70115E-19
 -1      2514 8.21274E-05-1.29904E-05-2.94122E-05 2.32581E-05-1.89994E-18 2.33411E-18
 -1      2515 8.46948E-05-2.03818E-05-2.74628E-05 2.88115E-05-1.33569E-18 4.57848E-19
 -1      2516 7.20416E-05-4.88009E-06-2.88319E-05 1.47124E-06-1.26538E-18-7.95417E-19
 -1      2517 7.33300E-05-5.78651E-06-2.88566E-05 9.38619E-06-1.97720E-18-6.94488E-19
 -1      2518 7.19903E-05-1.07653E-05-2.59483E-05 1.62126E-05-1.00386E-18 8.21648E-19
 -1      2519 7.66177E-05-8.20789E-06-2.91224E-05-1.54448E-05-2.22756E-18-2.19890E-18
 -1      2520 7.33505E-05-5.91431E-06-2.89906E-05-8.58340E-06-1.21357E-18-2.03494E-18
 -1      2521 6.88603E-05-8.23491E-06-2.56169E-05-4.15784E-06-1.70131E-18-1.67617E-18
 -1      2522 8.73934E-05-1.70166E-05-2.99232E-05-2.48240E-05-1.52177E-18 3.96511E-19
 -1      2523 8.20209E-05-1.30788E-05-2.97756E-05-2.16453E-05-1.71745E-18-1.14971E-18
 -1      2524 7.78730E-05-1.48504E-05-2.67401E-05-2.19893E-05-9.56883E-19-1.57111E-18
 -1      2525 9.73422E-05-2.55877E-05-3.06069E-05-2.46506E-05-1.29987E-18 1.31749E-18
 -1      2526 9.29563E-05-2.17876E-05-3.06221E-05-2.54306E-05-1.79037E-18 1.84494E-18
 -1      2527 9.09903E-05-2.47323E-05-2.83772E-05-2.87550E-05-1.45874E-18 4.01110E-19
 -1      2528 1.02190E-04-3.01311E-05-3.07895E-05-1.84837E-05-1.86841E-18-9.31463E-19
 -1      2529 1.00216E-04-2.77700E-05-3.10073E-05-2.12610E-05-1.90003E-18 1.16566E-19
 -1      2530 1.01913E-04-3.22094E-05-2.98266E-05-2.52641E-05-1.26982E-18 4.89956E-19
 -1      2531 3.27074E-05-2.14594E-05-4.37507E-06 2.30621E-05-3.31783E-18 1.64833E-18
 -1      2532 2.49967E-05-2.04080E-05-1.55021E-06 6.01107E-06-1.81506E-18 1.47553E-18
 -1      2533 1.15247E-04-6.11901E-05-2.31906E-05 4.67496E-05-8.57833E-19-3.24435E-18
 -1      2534 9.51316E-05-5.52666E-05-1.68125E-05 4.96686E-05-1.26589E-18-1.77702E-18
 -1      2535 9.36275E-05-2.74732E-05-2.83403E-05 3.69223E-07 8.38837E-19-4.55609E-19
 -1      2536 9.39099E-05-2.73373E-05-2.84873E-05 9.02901E-07 9.79175E-19-3.49894E-19
 -1      2537 9.42707E-05-2.74901E-05-2.86339E-05 4.02739E-07 1.04477E-18-1.08365E-18
 -1      2538 1.00217E-04-2.86548E-05-3.07375E-05-1.15666E-05-3.28986E-19 3.13257E-19
 -1      2539 1.43119E-04-6.19614E-05-3.50542E-05 2.84028E-05 3.34472E-19-4.36582E-18
 -1      2540 1.30678E-04-6.31771E-05-2.88144E-05 3.54665E-05-2.91591E-19-4.74529E-18
 -1      2541 1.26286E-04-6.39578E-05-2.67116E-05 3.86574E-05-6.97320E-19-4.11944E-18
 -1      2542 1.46815E-04-6.10011E-05-3.66409E-05 1.62486E-05 5.55468E-19-2.19434E-18
 -1      2543 2.41249E-05-2.06712E-05-1.13918E-06-6.20146E-06-1.83060E-18 5.22619E-19
 -1      2544 2.89609E-05-2.34486E-05-1.99063E-06-2.11610E-05-1.28431E-18 1.78216E-18
 -1      2545 3.41305E-05-1.59199E-05-7.13913E-06 9.85108E-08-2.64181E-18 5.05043E-19
 -1      2546 1.59470E-04-3.46131E-05-5.36624E-05-1.29578E-05-1.12020E-19 2.74989E-18
 -1      2547 1.55102E-04-4.40892E-05-4.78691E-05-1.04076E-05-1.46325E-19 2.01573E-18
 -1      2548 4.37261E-05-3.28744E-05-4.16421E-06-3.61422E-05 1.30951E-18-8.74350E-19
 -1      2549 6.30327E-05-4.14996E-05-8.99416E-06-4.45419E-05 2.15040E-18-8.36445E-19
 -1      2550 1.47003E-04-9.69462E-06-5.96291E-05 1.91711E-06 7.86894E-19-5.37801E-18
 -1      2551 1.50106E-04-1.29810E-05-5.91952E-05-1.25760E-06 1.22650E-18-4.13341E-18
 -1      2552 8.78372E-05-1.07975E-05-3.30527E-05-1.51823E-06-4.09417E-19-3.27634E-18
 -1      2553 8.79426E-05-1.09196E-05-3.30441E-05-2.63688E-06-6.56114E-19-3.22454E-18
 -1      2554 8.93417E-05-1.30918E-05-3.26806E-05-2.92981E-06-6.57044E-19-2.95800E-18
 -1      2555 8.90930E-05-1.27571E-05-3.27186E-05-9.40944E-07-3.35587E-19-3.12657E-18
 -1      2556 1.16628E-04-6.04663E-05-2.41047E-05-3.44338E-05 1.58798E-18-3.66299E-18
 -1      2557 1.31787E-04-6.08120E-05-3.06375E-05-2.64596E-05 5.25266E-19-4.22204E-18
 -1      2558 1.54988E-04-3.56727E-05-5.13764E-05 3.87526E-06 9.48148E-19-4.76668E-18
 -1      2559 1.57907E-04-2.79860E-05-5.58836E-05 5.81205E-06 9.48465E-19-4.62755E-18
 -1      2560 5.22814E-05-4.04083E-05-5.07042E-06 3.75667E-05 2.56651E-19-2.01276E-18
 -1      2561 3.64954E-05-3.35707E-05-1.06186E-06 2.86387E-05 7.01979E-19-1.93356E-18
 -1      2562 8.36761E-05-5.18647E-05-1.33981E-05-4.35666E-05 2.03902E-18-1.63366E-18
 -1      2563 1.01428E-04-5.68343E-05-1.91186E-05-4.23248E-05 2.16184E-18-2.66815E-18
 -1      2564 1.14105E-04-6.11913E-05-2.23800E-05-3.50256E-05 1.42704E-18-2.76323E-18
 -1      2565 2.11806E-05-2.20732E-05 8.35147E-07-1.32514E-05 2.56741E-18-2.51145E-18
 -1      2566 2.75052E-05-2.48566E-05-8.92888E-07-2.60946E-05 1.55918E-18-2.29440E-18
 -1      2567 1.56379E-04-2.82135E-05-5.52930E-05 3.06477E-06-1.43614E-18 1.04609E-19
 -1      2568 1.50950E-04-1.98964E-05-5.69948E-05 3.38876E-06-4.98479E-19 2.07692E-18
 -1      2569 2.38454E-05-2.60594E-05 1.14733E-06 1.78381E-05 7.85094E-19-2.87314E-18
 -1      2570 1.80269E-05-2.20749E-05 1.96433E-06 1.80621E-06 1.92008E-18-2.09387E-18
 -1      2571 9.48813E-05-5.73901E-05-1.61239E-05 3.88481E-05 1.23984E-18-3.22558E-18
 -1      2572 7.45974E-05-5.04566E-05-1.01386E-05 3.87144E-05 1.31671E-18-2.57159E-18
 -1      2573 1.29726E-04-6.49228E-05-2.80948E-05 2.48859E-05 7.00920E-20-6.21722E-19
 -1      2574 1.13327E-04-6.30122E-05-2.15583E-05 3.05225E-05 7.22731E-19-1.76352E-18
 -1      2575 1.52407E-04-5.66730E-05-4.14287E-05-1.80965E-07-3.59473E-19 1.50137E-18
 -1      2576 1.42220E-04-6.26240E-05-3.41976E-05 1.11015E-05-4.42151E-19-1.81053E-19
 -1      2577 1.57434E-04-1.87339E-05-5.99228E-05-1.28196E-05-8.17387E-20 3.09135E-18
 -1      2578 1.57287E-04-2.46125E-05-5.72050E-05-1.42882E-05 9.35548E-19 3.09040E-18
 -1      2579 1.48785E-04-1.21679E-05-5.91257E-05-3.77280E-06-2.34628E-19 3.56627E-18
 -1      2580 1.53046E-04-1.39562E-05-5.99464E-05-9.39025E-06-1.63054E-19 3.65283E-18
 -1      2581 1.56186E-04-4.63138E-05-4.75624E-05-3.06033E-06-1.51418E-18-1.73472E-18
 -1      2582 1.58857E-04-3.71656E-05-5.26621E-05 3.76493E-07-2.01086E-18-9.48677E-19
 -1      2583 1.47207E-04-3.40154E-05-4.85671E-05 8.88085E-06-9.02302E-19-4.18858E-19
 -1      2584 1.48391E-04-6.13392E-05-3.73391E-05-1.82761E-05 3.67242E-19-2.13918E-18
 -1      2585 1.56557E-04-5.53193E-05-4.37161E-05-1.15579E-05-8.74456E-19-2.56143E-18
 -1      2586 1.52162E-04-5.21721E-05-4.28856E-05 6.41832E-07 5.57983E-20-2.35158E-18
 -1      2587 1.19306E-04-6.37620E-05-2.37371E-05-4.14657E-05 9.14796E-19-1.51714E-18
 -1      2588 1.36040E-04-6.53331E-05-3.06771E-05-3.47348E-05 8.64821E-19-1.67501E-18
 -1      2589 8.38948E-05-5.28357E-05-1.31565E-05-4.90669E-05 3.76506E-19-6.76038E-20
 -1      2590 1.02925E-04-5.87676E-05-1.88883E-05-4.90285E-05 7.34378E-19-7.31757E-19
 -1      2591 1.17346E-04-6.32878E-05-2.28459E-05-4.27360E-05 1.45668E-18-1.99339E-18
 -1      2592 9.50726E-05-2.00228E-05-3.22126E-05-1.17706E-05-2.34591E-18-1.56410E-19
 -1      2593 9.54678E-05-2.33562E-05-3.09274E-05-7.96896E-06-2.14616E-18-2.34415E-20
 -1      2594 9.50497E-05-2.25590E-05-3.10534E-05-7.62320E-06-2.09761E-18-6.32724E-19
 -1      2595 9.32402E-05-1.77094E-05-3.23977E-05-1.13028E-05-2.31876E-18-8.73873E-19
 -1      2596 9.63387E-05-2.50966E-05-3.05582E-05 7.59210E-06 2.19360E-18 4.09526E-19
 -1      2597 9.74600E-05-2.37801E-05-3.15985E-05 1.06917E-05 2.34774E-18 6.63889E-19
 -1      2598 9.58938E-05-2.13044E-05-3.20227E-05 1.18935E-05 2.52549E-18-1.20239E-19
 -1      2599 9.58821E-05-2.41623E-05-3.07703E-05 7.68322E-06 2.21897E-18-4.49391E-19
 -1      2600 7.10591E-05-4.41060E-05-1.13748E-05 5.00417E-05-2.17730E-18-1.73621E-18
 -1      2601 4.97298E-05-3.31144E-05-6.75596E-06 4.11323E-05-3.17531E-18 3.28437E-19
 -1      2602 1.33329E-04-6.33511E-05-2.97795E-05-2.01604E-05 6.45651E-19-4.15237E-18
 -1      2603 1.39797E-04-6.11371E-05-3.36848E-05-1.77202E-05 1.71524E-20-4.04628E-18
 -1      2604 1.42952E-04-5.90482E-05-3.64836E-05-6.98415E-06 7.13784E-19-3.53181E-18
 -1      2605 9.07946E-05-1.50486E-05-3.24586E-05-6.80177E-06-1.56040E-18-2.46565E-18
 -1      2606 8.97014E-05-1.31822E-05-3.28461E-05-7.96313E-06-1.68210E-18-2.58656E-18
 -1      2607 9.03585E-05-1.39636E-05-3.28014E-05-9.13648E-06-1.97694E-18-2.24092E-18
 -1      2608 9.47362E-05-2.69399E-05-2.90680E-05 1.88320E-06 1.30006E-18-8.68598E-19
 -1      2609 9.42485E-05-1.90824E-05-3.22593E-05 1.16024E-05 2.38715E-18-1.04476E-18
 -1      2610 8.77130E-05-4.95443E-05-1.59726E-05 4.98579E-05-8.39198E-19-1.03243E-18
 -1      2611 8.06735E-05-4.15249E-05-1.61898E-05 4.82076E-05-1.84590E-18-4.28810E-20
 -1      2612 1.01949E-04-5.35510E-05-2.07613E-05 4.66595E-05-2.86932E-20-2.01906E-18
 -1      2613 9.11370E-05-1.50088E-05-3.26796E-05-9.81836E-06-2.07680E-18-1.95145E-18
 -1      2614 9.21625E-05-1.62811E-05-3.25985E-05-1.08491E-05-2.24998E-18-1.45127E-18
 -1      2615 9.36400E-05-1.92096E-05-3.18942E-05-9.19423E-06-2.18488E-18-1.20973E-18
 -1      2616 9.20639E-05-1.68204E-05-3.22382E-05-8.30374E-06-1.90571E-18-1.93582E-18
 -1      2617 1.43368E-04-1.67980E-05-5.45549E-05-3.80657E-06 1.31925E-18-4.02923E-18
 -1      2618 4.11101E-05-2.54652E-05-6.30926E-06-2.83547E-05 7.71859E-20 1.68729E-18
 -1      2619 7.67943E-05-4.77467E-05-1.21629E-05-4.84641E-05-3.04932E-20 1.18373E-19
 -1      2620 9.23877E-05-5.18991E-05-1.74668E-05-4.81687E-05 7.78847E-19-1.50602E-18
 -1      2621 6.81167E-05-3.88550E-05-1.19579E-05-4.62274E-05 1.52720E-18 1.05752E-18
 -1      2622 1.43897E-04-6.54081E-05-3.35970E-05-2.18012E-05 1.96787E-18-2.80093E-18
 -1      2623 9.75514E-05-3.04387E-05-2.87735E-05-1.80881E-06-1.16684E-18 5.32685E-18
 -1      2624 9.86583E-05-3.08623E-05-2.90045E-05-7.64741E-07-1.02322E-19 4.69543E-18
 -1      2625 1.47108E-04-4.56011E-05-4.40181E-05-1.90778E-05-1.30147E-18 2.14956E-18
 -1      2626 1.52587E-04-5.25085E-05-4.31619E-05-1.01753E-05-7.03620E-19 1.61233E-18
 -1      2627 1.46788E-04-5.72708E-05-3.82712E-05-9.02809E-06-5.18437E-19 1.07023E-18
 -1      2628 4.51446E-05-2.48665E-05-8.07993E-06 3.30119E-05-3.81366E-18 1.33831E-18
 -1      2629 4.48140E-05-1.74348E-05-1.09311E-05 2.29796E-05-4.32040E-18 1.03338E-18
 -1      2630 5.91094E-05-2.79728E-05-1.28948E-05 3.87765E-05-3.62572E-18 3.33943E-19
 -1      2631 1.42223E-04-1.43641E-05-5.49720E-05-1.30240E-05-2.97520E-19 4.12659E-18
 -1      2632 9.47182E-05-2.06038E-05-3.17190E-05 9.66937E-06 2.19261E-18-1.20615E-18
 -1      2633 1.42952E-04-9.47500E-06-5.77222E-05 4.88198E-06 3.49189E-19-4.78793E-18
 -1      2634 1.30057E-04-7.77104E-06-5.28394E-05 1.88931E-06 9.78958E-19-5.13090E-18
 -1      2635 1.34963E-04-8.95196E-06-5.47234E-05 7.94975E-06 1.58819E-20-5.68116E-18
 -1      2636 1.45576E-04-3.47808E-05-4.82901E-05-6.59717E-06 1.36775E-18-3.58253E-18
 -1      2637 1.52086E-04-4.19411E-05-4.74645E-05-5.99773E-07 1.96533E-18-3.09082E-18
 -1      2638 1.46425E-04-4.84019E-05-4.21039E-05-3.24938E-07 2.17105E-18-2.46222E-18
 -1      2639 4.42915E-05-2.71409E-05-6.72082E-06-3.15018E-05 8.69585E-19-1.41095E-18
 -1      2640 1.49318E-04-2.92255E-05-5.16220E-05-1.93783E-05-1.97994E-19 2.72660E-18
 -1      2641 1.38730E-04-6.59595E-05-3.10639E-05 1.25214E-05 4.99749E-20-9.14796E-20
 -1      2642 1.09872E-04-6.17805E-05-2.02582E-05 3.16925E-05 9.70912E-19-1.82424E-18
 -1      2643 3.64999E-05-2.65721E-05-3.68094E-06 2.34027E-05 7.50259E-19-3.14249E-18
 -1      2644 7.94720E-05-4.67887E-05-1.36297E-05-4.23635E-05 1.77263E-18-1.69322E-18
 -1      2645 7.06020E-05-4.49330E-05-1.05490E-05 3.79199E-05 7.10661E-19-2.28974E-18
 -1      2646 1.52304E-04-4.36639E-05-4.67951E-05 3.69727E-06 2.22187E-19-3.42519E-18
 -1      2647 1.46121E-04-3.86245E-05-4.65783E-05 1.21762E-05-1.66336E-19-2.27005E-18
 -1      2648 1.46839E-04-4.96315E-05-4.17230E-05 3.17624E-06 5.07743E-19-2.86784E-18
 -1      2649 1.48928E-04-2.15981E-05-5.49045E-05 1.20740E-05 6.86308E-19-3.88534E-18
 -1      2650 2.60456E-05-1.85681E-05-2.57375E-06-4.86053E-06 2.14712E-18-2.68742E-18
 -1      2651 1.04338E-04-3.28888E-05-3.05360E-05-1.07004E-05-9.49127E-19 1.71128E-18
 -1      2652 1.03256E-04-3.12128E-05-3.08412E-05-1.47890E-05-1.66683E-18 5.74533E-19
 -1      2653 1.06574E-04-3.55619E-05-3.05088E-05-1.76302E-05-2.71303E-18 1.55286E-18
 -1      2654 1.06970E-04-3.56951E-05-3.06617E-05-1.00634E-05-1.42686E-18 2.12724E-18
 -1      2655 1.00796E-04-3.23621E-05-2.93632E-05-2.41640E-07-4.54974E-20 3.98055E-18
 -1      2656 1.10665E-04-3.90982E-05-3.07116E-05-1.23633E-05-1.01993E-18 3.20051E-18
 -1      2657 9.05557E-05-1.51730E-05-3.23291E-05 3.19520E-06 6.86085E-19-3.02239E-18
 -1      2658 9.03652E-05-1.49014E-05-3.23618E-05 2.26135E-06 4.20426E-19-3.05338E-18
 -1      2659 9.02307E-05-1.46985E-05-3.23908E-05 1.42263E-06 2.14625E-19-3.05356E-18
 -1      2660 9.01654E-05-1.46061E-05-3.24018E-05 4.65601E-07-3.56708E-20-2.96894E-18
 -1      2661 9.14167E-05-1.65939E-05-3.20540E-05 1.64147E-06 3.65342E-19-2.91149E-18
 -1      2662 9.21397E-05-1.75511E-05-3.20045E-05 6.47367E-06 1.49253E-18-2.45054E-18
 -1      2663 9.16145E-05-1.67563E-05-3.21044E-05 5.63456E-06 1.24436E-18-2.54212E-18
 -1      2664 9.35629E-05-1.97776E-05-3.16648E-05 7.59564E-06 1.88067E-18-2.04566E-18
 -1      2665 9.27709E-05-1.85216E-05-3.18381E-05 7.01729E-06 1.66158E-18-2.27978E-18
 -1      2666 9.34347E-05-1.98671E-05-3.15062E-05 5.73381E-06 1.46896E-18-2.16535E-18
 -1      2667 9.52198E-05-2.54094E-05-2.99311E-05 3.97667E-06 1.51617E-18-1.17210E-18
 -1      2668 9.55564E-05-2.45593E-05-3.03950E-05 5.60992E-06 1.75056E-18-1.04240E-18
 -1      2669 9.47094E-05-2.19080E-05-3.12073E-05 7.84164E-06 2.00110E-18-1.30006E-18
 -1      2670 9.53637E-05-2.59043E-05-2.97379E-05-2.70120E-06-1.31739E-18-9.52449E-19
 -1      2671 9.51960E-05-2.64927E-05-2.94563E-05-1.72062E-06-1.19045E-18-9.63926E-19
 -1      2672 9.52186E-05-2.70075E-05-2.92100E-05-9.80403E-07-1.12886E-18-9.33325E-19
 -1      2673 9.50838E-05-2.73619E-05-2.90300E-05-3.76087E-07-9.37016E-19-1.14337E-18
 -1      2674 9.54169E-05-2.63313E-05-2.96139E-05-1.61945E-06-1.27158E-18-1.21925E-18
 -1      2675 9.50504E-05-2.76679E-05-2.88622E-05 8.99821E-08-7.17985E-19-1.15278E-18
 -1      2676 9.49723E-05-2.78926E-05-2.87514E-05 4.40036E-07-7.58203E-19-1.25259E-18
 -1      2677 9.54167E-05-2.73275E-05-2.91885E-05-3.42836E-07-9.38336E-19-1.33010E-18
 -1      2678 9.49301E-05-2.80783E-05-2.86405E-05 7.08330E-07-8.90347E-19-1.26519E-18
 -1      2679 9.49015E-05-2.82254E-05-2.85765E-05 8.90279E-07-9.03325E-19-1.38078E-18
 -1      2680 9.53556E-05-2.79429E-05-2.88979E-05 4.45064E-07-9.51785E-19-1.50394E-18
 -1      2681 9.48663E-05-2.83376E-05-2.85061E-05 1.02291E-06-9.01001E-19-1.37846E-18
 -1      2682 9.48727E-05-2.84349E-05-2.84733E-05 1.09624E-06-7.88280E-19-1.56283E-18
 -1      2683 9.52911E-05-2.83247E-05-2.87052E-05 8.84061E-07-9.58557E-19-1.62638E-18
 -1      2684 9.48481E-05-2.85006E-05-2.84313E-05 1.13979E-06-4.82597E-19-1.44930E-18
 -1      2685 9.48763E-05-2.85644E-05-2.84189E-05 1.14530E-06-5.56729E-19-1.33607E-18
 -1      2686 9.52413E-05-2.85575E-05-2.85828E-05 1.08625E-06-6.37946E-19-1.31085E-18
 -1      2687 9.48613E-05-2.85997E-05-2.83964E-05 1.13332E-06-5.03252E-19-1.05227E-18
 -1      2688 9.49011E-05-2.86400E-05-2.83968E-05 1.09899E-06-3.85665E-19-7.50083E-19
 -1      2689 9.52090E-05-2.86927E-05-2.85099E-05 1.13480E-06-3.73814E-19-5.41677E-19
 -1      2690 9.48934E-05-2.86553E-05-2.83876E-05 1.05525E-06-3.93862E-19-6.54463E-19
 -1      2691 9.49378E-05-2.86789E-05-2.83957E-05 1.00025E-06-2.34634E-19-4.36052E-19
 -1      2692 9.51914E-05-2.87633E-05-2.84712E-05 1.08961E-06-1.36627E-19-2.11061E-19
 -1      2693 9.49352E-05-2.86810E-05-2.83953E-05 9.41330E-07-2.02742E-19-9.24154E-20
 -1      2694 9.49798E-05-2.86927E-05-2.84078E-05 8.78729E-07-7.34454E-20-6.66045E-21
 -1      2695 9.51845E-05-2.87905E-05-2.84560E-05 9.93069E-07-1.31175E-19-1.13229E-19
 -1      2696 9.49807E-05-2.86860E-05-2.84130E-05 8.16044E-07-1.99622E-19-2.47981E-19
 -1      2697 9.50231E-05-2.86890E-05-2.84278E-05 7.54711E-07-1.10451E-19-4.14048E-19
 -1      2698 9.51850E-05-2.87889E-05-2.84564E-05 8.74709E-07-2.82707E-19-6.20670E-19
 -1      2699 9.50263E-05-2.86766E-05-2.84368E-05 6.96093E-07-6.46088E-20-7.52160E-19
 -1      2700 9.50656E-05-2.86733E-05-2.84527E-05 6.42086E-07-4.61014E-19-6.45158E-19
 -1      2701 9.51903E-05-2.87680E-05-2.84673E-05 7.54937E-07-1.63006E-19-7.26873E-19
 -1      2702 9.50703E-05-2.86568E-05-2.84642E-05 5.92985E-07-7.35474E-19-4.23694E-19
 -1      2703 9.51065E-05-2.86487E-05-2.84807E-05 5.50591E-07-6.68762E-19-2.66061E-19
 -1      2704 9.51986E-05-2.87339E-05-2.84853E-05 6.47900E-07-4.06599E-19-9.06764E-19
 -1      2705 9.51123E-05-2.86290E-05-2.84941E-05 5.15008E-07-7.45437E-19-1.37411E-19
 -1      2706 9.51466E-05-2.86170E-05-2.85113E-05 4.87532E-07-7.15977E-19-4.31650E-20
 -1      2707 9.52090E-05-2.86902E-05-2.85084E-05 5.63693E-07-6.33430E-19-5.23266E-19
 -1      2708 9.51533E-05-2.85944E-05-2.85265E-05 4.68736E-07-1.02857E-18 1.48904E-19
 -1      2709 9.51871E-05-2.85789E-05-2.85448E-05 4.59113E-07-9.21427E-19 1.03819E-19
 -1      2710 9.52210E-05-2.86384E-05-2.85358E-05 5.10075E-07-8.75632E-19-2.22938E-19
 -1      2711 9.51948E-05-2.85529E-05-2.85621E-05 4.60205E-07-8.47554E-19-2.55125E-19
 -1      2712 9.52302E-05-2.85340E-05-2.85822E-05 4.71482E-07-8.26308E-19-3.63888E-19
 -1      2713 9.52346E-05-2.85785E-05-2.85673E-05 4.93799E-07-1.17966E-18 3.13178E-20
 -1      2714 9.52388E-05-2.85038E-05-2.86020E-05 4.95836E-07-4.57990E-19-9.89721E-20
 -1      2715 9.52785E-05-2.84812E-05-2.86251E-05 5.31551E-07 1.45056E-19 6.47157E-20
 -1      2716 9.52496E-05-2.85089E-05-2.86036E-05 5.21649E-07-5.56397E-19 7.27706E-20
 -1      2717 9.52881E-05-2.84455E-05-2.86482E-05 5.83153E-07 3.36151E-20-4.79628E-20
 -1      2718 9.53349E-05-2.84186E-05-2.86755E-05 6.47638E-07-2.90674E-19-2.79505E-19
 -1      2719 9.52664E-05-2.84274E-05-2.86458E-05 6.01234E-07-1.33133E-19 3.81249E-19
 -1      2720 9.53454E-05-2.83758E-05-2.87029E-05 7.31344E-07-6.96265E-20-2.51748E-19
 -1      2721 9.54028E-05-2.83438E-05-2.87359E-05 8.29946E-07 4.16156E-19-1.65717E-20
 -1      2722 9.52849E-05-2.83303E-05-2.86954E-05 7.41596E-07-1.37735E-19-2.49995E-19
 -1      2723 9.54137E-05-2.82917E-05-2.87685E-05 9.51655E-07 3.17724E-19-3.51122E-19
 -1      2724 9.54854E-05-2.82539E-05-2.88090E-05 1.09089E-06 2.59355E-19-7.35041E-19
 -1      2725 9.53046E-05-2.82133E-05-2.87541E-05 9.53623E-07 5.25425E-20-3.03981E-19
 -1      2726 9.54960E-05-2.81902E-05-2.88477E-05 1.25762E-06 2.19784E-19-9.15946E-19
 -1      2727 9.55860E-05-2.81457E-05-2.88974E-05 1.44521E-06 2.83643E-19-1.38740E-19
 -1      2728 9.53243E-05-2.80713E-05-2.88233E-05 1.25027E-06 1.08486E-19-1.35418E-18
 -1      2729 9.55946E-05-2.80676E-05-2.89432E-05 1.66507E-06-8.61114E-20-7.41498E-19
 -1      2730 9.57073E-05-2.80158E-05-2.90038E-05 1.90981E-06-1.89285E-19-1.14485E-18
 -1      2731 9.53418E-05-2.78988E-05-2.89047E-05 1.64655E-06-8.26148E-20-1.13391E-18
 -1      2732 9.57112E-05-2.79209E-05-2.90569E-05 2.19176E-06 3.01546E-19-9.47504E-19
 -1      2733 9.58509E-05-2.78617E-05-2.91300E-05 2.50312E-06 7.82807E-20-7.15849E-19
 -1      2734 9.53530E-05-2.76900E-05-2.89987E-05 2.15919E-06 6.44668E-20-8.41160E-19
 -1      2735 9.58468E-05-2.77481E-05-2.91900E-05 2.85651E-06-3.63859E-19-7.28638E-19
 -1      2736 9.60179E-05-2.76834E-05-2.92765E-05 3.24376E-06-1.18204E-19-5.21179E-19
 -1      2737 9.53522E-05-2.74404E-05-2.91047E-05 2.80586E-06-3.69338E-20-7.52578E-19
 -1      2738 9.60014E-05-2.75514E-05-2.93418E-05 3.67747E-06-7.74152E-20-6.20801E-19
 -1      2739 9.62089E-05-2.74864E-05-2.94413E-05 4.14805E-06-3.90418E-19-3.80991E-19
 -1      2740 9.53318E-05-2.71493E-05-2.92199E-05 3.60376E-06 5.92369E-20-8.63139E-19
 -1      2741 9.61764E-05-2.73414E-05-2.95081E-05 4.66915E-06-2.59423E-19-7.15623E-20
 -1      2742 9.64274E-05-2.72885E-05-2.96183E-05 5.22580E-06 2.74153E-19 2.04451E-20
 -1      2743 9.52840E-05-2.68238E-05-2.93379E-05 4.56747E-06-3.37409E-20-3.01943E-19
 -1      2744 9.63793E-05-2.71458E-05-2.96800E-05 5.83746E-06 5.26932E-19 8.77715E-20
 -1      2745 9.66861E-05-2.71310E-05-2.97954E-05 6.47352E-06 7.74546E-19 4.27285E-20
 -1      2746 9.52053E-05-2.64881E-05-2.94468E-05 5.70572E-06 2.74212E-19 4.86522E-19
 -1      2747 9.66349E-05-2.70255E-05-2.98414E-05 7.17194E-06 6.50852E-19 2.38756E-19
 -1      2748 9.70231E-05-2.70993E-05-2.99524E-05 7.86389E-06 6.44977E-19 4.98804E-19
 -1      2749 9.51070E-05-2.61985E-05-2.95280E-05 7.01715E-06 5.88040E-19 3.30564E-19
 -1      2750 9.70075E-05-2.71003E-05-2.99675E-05 8.63381E-06 1.51909E-19-2.24563E-20
 -1      2751 9.75300E-05-2.73542E-05-3.00597E-05 9.32993E-06 6.87114E-20 2.70940E-19
 -1      2752 9.50359E-05-2.60691E-05-2.95539E-05 8.48488E-06 5.08408E-19 4.86396E-19
 -1      2753 9.76413E-05-2.75872E-05-3.00250E-05 1.01369E-05-5.59633E-19 9.00821E-19
 -1      2754 9.84014E-05-2.81753E-05-3.00807E-05 1.07406E-05-9.46958E-19 1.09222E-18
 -1      2755 9.51134E-05-2.63109E-05-2.94882E-05 1.00688E-05 8.06126E-20 5.69909E-19
 -1      2756 9.88241E-05-2.88469E-05-2.99789E-05 1.15157E-05-1.30013E-18 7.87438E-19
 -1      2757 1.00004E-04-3.00024E-05-2.99845E-05 1.18610E-05-7.88243E-19-5.26490E-20
 -1      2758 9.55988E-05-2.72835E-05-2.92921E-05 1.16908E-05-1.43598E-18 1.51312E-18
 -1      2759 1.01068E-04-3.14146E-05-2.98132E-05 1.24653E-05-9.98990E-20 6.67332E-19
 -1      2760 1.02939E-04-3.34313E-05-2.97770E-05 1.22821E-05 8.13810E-19 8.94916E-19
 -1      2761 9.69822E-05-2.95437E-05-2.89424E-05 1.31984E-05-2.83767E-19 8.38572E-19
 -1      2762 1.05168E-04-3.59360E-05-2.95835E-05 1.24030E-05 2.35383E-18 1.12521E-18
 -1      2763 1.08021E-04-3.90081E-05-2.95754E-05 1.12681E-05 2.57962E-18 1.74964E-18
 -1      2764 1.00101E-04-3.38518E-05-2.84781E-05 1.42554E-05 1.50747E-18 1.94653E-18
 -1      2765 1.12018E-04-4.27663E-05-2.95239E-05 1.02970E-05 1.06474E-18 1.31238E-18
 -1      2766 1.15911E-04-4.65891E-05-2.97338E-05 7.62573E-06 4.57040E-19 8.13482E-19
 -1      2767 1.06088E-04-4.08362E-05-2.81114E-05 1.40489E-05 1.66208E-18 6.19916E-19
 -1      2768 1.22071E-04-5.10025E-05-3.02333E-05 4.47661E-06 6.29140E-19 1.29194E-18
 -1      2769 1.26479E-04-5.37908E-05-3.11151E-05-4.84956E-07 8.62200E-19 9.48055E-19
 -1      2770 1.16033E-04-5.02664E-05-2.84078E-05 1.10661E-05 5.76697E-19 1.18352E-18
 -1      2771 1.38795E-04-5.03491E-05-3.82203E-05-1.89629E-05-5.48427E-19 2.15395E-18
 -1      2772 1.36774E-04-4.15905E-05-4.10431E-05-2.14021E-05-1.49522E-18 1.86056E-18
 -1      2773 1.27311E-04-1.33346E-05-4.96731E-05-1.04742E-05-1.61783E-19 2.55313E-18
 -1      2774 1.27551E-04-1.35127E-05-4.96471E-05-1.61819E-06 9.43383E-19 2.62019E-18
 -1      2775 1.30679E-04-1.98450E-05-4.80002E-05 7.28452E-06-1.49290E-19 2.35459E-18
 -1      2776 1.33326E-04-2.96154E-05-4.52775E-05 1.10100E-05-7.01767E-19 1.81959E-18
 -1      2777 1.32688E-04-5.29586E-05-3.43555E-05-2.45693E-07 7.01979E-19 2.18963E-18
 -1      2778 1.29851E-04-5.37168E-05-3.25472E-05-5.48683E-06 2.02242E-19 2.27068E-18
 -1      2779 1.22857E-04-5.05157E-05-3.11107E-05-1.11094E-05-1.12106E-18 2.34501E-18
 -1      2780 1.18177E-04-4.66264E-05-3.05072E-05-1.46579E-05-2.70377E-19 1.98250E-18
 -1      2781 1.28347E-04-5.56771E-05-3.12888E-05-1.44480E-05-2.51172E-19 6.36810E-19
 -1      2782 9.44782E-05-2.81307E-05-2.84345E-05-8.90887E-07 8.37007E-19-1.27930E-18
 -1      2783 9.44949E-05-2.80032E-05-2.84853E-05-7.15960E-07 9.23253E-19-1.11576E-18
 -1      2784 1.05743E-04-3.53708E-05-3.01746E-05 8.74395E-07-1.03389E-18 1.24016E-19
 -1      2785 1.02891E-04-3.36562E-05-2.96861E-05-1.58979E-06-5.49552E-19 3.93214E-18
 -1      2786 1.03582E-04-3.39338E-05-2.98837E-05-2.65854E-06-1.71350E-19 3.19365E-18
 -1      2787 9.45555E-05-2.78520E-05-2.85881E-05-4.40745E-07 8.52209E-19-1.35224E-18
 -1      2788 9.46440E-05-2.76650E-05-2.86869E-05-9.73797E-08 8.53882E-19-1.21441E-18
 -1      2789 9.50084E-05-2.79120E-05-2.87639E-05-4.50373E-07 9.00528E-19-1.51376E-18
 -1      2790 9.45176E-05-2.84355E-05-2.83201E-05-1.14043E-06 4.80597E-19-9.21493E-19
 -1      2791 9.44611E-05-2.83717E-05-2.83209E-05-1.13793E-06 4.97974E-19-1.16292E-18
 -1      2792 9.45892E-05-2.85149E-05-2.83166E-05-1.09234E-06 5.23820E-19-8.82252E-19
 -1      2793 9.45203E-05-2.84700E-05-2.83062E-05-1.12813E-06 6.24120E-19-9.73678E-19
 -1      2794 9.48949E-05-2.85755E-05-2.84256E-05-1.15835E-06 5.47822E-19-1.07348E-18
 -1      2795 9.46731E-05-2.85644E-05-2.83315E-05-9.92457E-07 3.35915E-19-8.94221E-19
 -1      2796 9.46013E-05-2.85336E-05-2.83150E-05-1.04797E-06 4.08952E-19-9.50786E-19
 -1      2797 9.49157E-05-2.86484E-05-2.84022E-05-1.11079E-06 5.95646E-19-1.04517E-18
 -1      2798 9.47597E-05-2.85924E-05-2.83566E-05-8.69959E-07 3.28505E-19-8.61333E-19
 -1      2799 9.46905E-05-2.85724E-05-2.83373E-05-9.32665E-07 3.15822E-19-7.04462E-19
 -1      2800 9.49490E-05-2.86849E-05-2.84001E-05-1.01077E-06 2.17661E-19-9.10547E-19
 -1      2801 9.48430E-05-2.86048E-05-2.83870E-05-7.44622E-07 2.24455E-19-6.91177E-19
 -1      2802 9.47793E-05-2.85930E-05-2.83669E-05-8.06116E-07 5.09167E-19-6.53531E-19
 -1      2803 9.49881E-05-2.86966E-05-2.84114E-05-8.88236E-07 3.46850E-19-9.20376E-19
 -1      2804 9.49204E-05-2.86057E-05-2.84197E-05-6.29816E-07 4.97802E-20-8.15694E-19
 -1      2805 9.48631E-05-2.86003E-05-2.83999E-05-6.84439E-07 1.72335E-19-6.16294E-19
 -1      2806 9.50289E-05-2.86911E-05-2.84309E-05-7.63636E-07 3.28612E-19-1.74783E-19
 -1      2807 9.49915E-05-2.85981E-05-2.84534E-05-5.34734E-07 4.39632E-19-9.80358E-19
 -1      2808 9.49402E-05-2.85975E-05-2.84341E-05-5.78576E-07 2.78302E-19-9.49646E-19
 -1      2809 9.50689E-05-2.86736E-05-2.84554E-05-6.50970E-07 2.49372E-19-6.50165E-19
 -1      2810 9.50577E-05-2.85840E-05-2.84876E-05-4.66041E-07 2.12066E-19-1.19320E-18
 -1      2811 9.50108E-05-2.85872E-05-2.84687E-05-4.96208E-07 1.67582E-19-8.21529E-19
 -1      2812 9.51076E-05-2.86474E-05-2.84831E-05-5.60028E-07 2.26363E-19-5.99343E-19
 -1      2813 9.51216E-05-2.85645E-05-2.85231E-05-4.29115E-07 2.90971E-19-4.57302E-19
 -1      2814 9.50768E-05-2.85707E-05-2.85040E-05-4.43178E-07 1.81685E-19-8.31111E-19
 -1      2815 9.51451E-05-2.86143E-05-2.85134E-05-4.98072E-07 9.44116E-20-4.00744E-19
 -1      2816 9.51868E-05-2.85406E-05-2.85610E-05-4.28959E-07-2.09173E-19-3.73935E-19
 -1      2817 9.51413E-05-2.85490E-05-2.85408E-05-4.24555E-07 2.85793E-19-3.61550E-19
 -1      2818 9.51827E-05-2.85751E-05-2.85464E-05-4.71116E-07 1.42231E-19 1.09204E-19
 -1      2819 9.52579E-05-2.85127E-05-2.86030E-05-4.70830E-07 1.50477E-19-7.14433E-19
 -1      2820 9.52082E-05-2.85228E-05-2.85806E-05-4.45402E-07 7.53285E-20-8.23257E-19
 -1      2821 9.52224E-05-2.85299E-05-2.85830E-05-4.84847E-07 1.76109E-19-4.04757E-19
 -1      2822 9.53407E-05-2.84816E-05-2.86512E-05-5.60603E-07 6.13224E-19-1.35090E-18
 -1      2823 9.52827E-05-2.84926E-05-2.86253E-05-5.11262E-07 3.66152E-20-1.47131E-18
 -1      2824 9.52668E-05-2.84785E-05-2.86242E-05-5.45252E-07 5.76899E-19-1.32426E-18
 -1      2825 9.54416E-05-2.84483E-05-2.87081E-05-7.04836E-07 4.72404E-19-8.36253E-19
 -1      2826 9.53705E-05-2.84592E-05-2.86772E-05-6.28379E-07 9.14785E-19-9.21511E-19
 -1      2827 9.53193E-05-2.84206E-05-2.86717E-05-6.58943E-07 5.85792E-19-1.48367E-18
 -1      2828 9.55684E-05-2.84147E-05-2.87761E-05-9.10489E-07 2.20509E-19-5.75619E-19
 -1      2829 9.54788E-05-2.84240E-05-2.87387E-05-8.03603E-07 2.00577E-19-5.78694E-19
 -1      2830 9.53840E-05-2.83565E-05-2.87272E-05-8.33172E-07 5.56028E-19 7.59666E-20
 -1      2831 9.57302E-05-2.83846E-05-2.88575E-05-1.18418E-06-1.30439E-19 2.80410E-20
 -1      2832 9.56159E-05-2.83897E-05-2.88122E-05-1.04389E-06 1.82161E-19-3.48705E-19
 -1      2833 9.54662E-05-2.82879E-05-2.87921E-05-1.07544E-06 1.77309E-19 1.97752E-19
 -1      2834 9.59377E-05-2.83641E-05-2.89545E-05-1.53082E-06-4.36010E-19-5.52783E-19
 -1      2835 9.57918E-05-2.83610E-05-2.88999E-05-1.35528E-06-3.02690E-19 2.19956E-19
 -1      2836 9.55728E-05-2.82186E-05-2.88677E-05-1.39265E-06-2.73298E-19 7.24637E-19
 -1      2837 9.62036E-05-2.83633E-05-2.90681E-05-1.95141E-06-2.76962E-19-1.30963E-18
 -1      2838 9.60185E-05-2.83462E-05-2.90033E-05-1.74117E-06-1.28255E-19-7.87154E-19
 -1      2839 9.57126E-05-2.81561E-05-2.89548E-05-1.78950E-06-7.36690E-20 2.72266E-19
 -1      2840 9.65432E-05-2.83983E-05-2.91984E-05-2.43977E-06-9.91276E-19-1.58546E-18
 -1      2841 9.63106E-05-2.83581E-05-2.91232E-05-2.19958E-06-3.59711E-19-1.63042E-18
 -1      2842 9.58981E-05-2.81135E-05-2.90529E-05-2.26617E-06-2.14780E-20-4.63383E-20
 -1      2843 9.69755E-05-2.84931E-05-2.93431E-05-2.97783E-06-7.41665E-19-2.05181E-18
 -1      2844 9.66864E-05-2.84169E-05-2.92585E-05-2.71928E-06-1.14094E-18-2.08838E-18
 -1      2845 9.61461E-05-2.81125E-05-2.91602E-05-2.81473E-06-9.15570E-19-1.20828E-18
 -1      2846 9.75241E-05-2.86830E-05-2.94979E-05-3.52931E-06-3.68207E-19-2.11435E-18
 -1      2847 9.71692E-05-2.85527E-05-2.94062E-05-3.27423E-06-7.38026E-19-2.29205E-18
 -1      2848 9.64813E-05-2.81864E-05-2.92729E-05-3.41422E-06-6.41789E-19-2.33227E-18
 -1      2849 9.82191E-05-2.90167E-05-2.96550E-05-4.03180E-06-2.65943E-20-1.63968E-18
 -1      2850 9.77890E-05-2.88084E-05-2.95606E-05-3.81639E-06-1.83381E-19-1.81866E-18
 -1      2851 9.69384E-05-2.83843E-05-2.93852E-05-4.02415E-06-4.91516E-19-1.72400E-18
 -1      2852 9.90975E-05-2.95568E-05-2.98041E-05-4.38758E-06 9.44154E-19-2.53114E-19
 -1      2853 9.85840E-05-2.92412E-05-2.97130E-05-4.26682E-06 4.65132E-19-9.45168E-19
 -1      2854 9.75672E-05-2.87742E-05-2.94894E-05-4.57613E-06-3.87325E-19-3.09027E-19
 -1      2855 1.00202E-04-3.03746E-05-2.99333E-05-4.45515E-06 8.89962E-19 8.22216E-19
 -1      2856 9.96010E-05-2.99215E-05-2.98531E-05-4.50600E-06 1.19223E-18 3.99980E-19
 -1      2857 9.84351E-05-2.94431E-05-2.95775E-05-4.96406E-06 3.42628E-19 1.07252E-18
 -1      2858 1.01571E-04-3.15316E-05-3.00333E-05-4.04516E-06-1.09849E-18 1.55502E-18
 -1      2859 1.00889E-04-3.09215E-05-2.99710E-05-4.36570E-06 2.65192E-19 1.47276E-18
 -1      2860 9.96265E-05-3.04883E-05-2.96439E-05-5.03394E-06 1.63824E-19 1.58888E-18
 -1      2861 1.03214E-04-3.30380E-05-3.01034E-05-2.92945E-06-1.55225E-18 2.25018E-18
 -1      2862 1.02484E-04-3.22863E-05-3.00628E-05-3.62860E-06-1.51956E-18 1.71278E-18
 -1      2863 1.01230E-04-3.19895E-05-2.96921E-05-4.57656E-06-1.36489E-18 1.43984E-18
 -1      2864 1.05058E-04-3.47767E-05-3.01615E-05-8.80199E-07-8.58779E-19 2.64345E-18
 -1      2865 1.04360E-04-3.39739E-05-3.01380E-05-2.04846E-06-1.41253E-18 2.40070E-18
 -1      2866 1.03300E-04-3.39482E-05-2.97431E-05-3.33213E-06-1.84413E-18 8.44106E-19
 -1      2867 1.06871E-04-3.63977E-05-3.02524E-05 2.23678E-06 4.35726E-20 2.14323E-18
 -1      2868 1.06361E-04-3.57604E-05-3.02294E-05 5.85515E-07-6.65963E-20 2.80952E-18
 -1      2869 1.05778E-04-3.61818E-05-2.98462E-05-1.02829E-06-5.16511E-19 1.58485E-18
 -1      2870 1.08179E-04-3.72353E-05-3.04495E-05 6.27516E-06 5.51968E-19 1.86807E-18
 -1      2871 1.08097E-04-3.71261E-05-3.03979E-05 4.30094E-06 2.00794E-19 2.06309E-18
 -1      2872 1.08363E-04-3.81772E-05-3.00859E-05 2.51080E-06 4.91321E-19 7.94548E-19
 -1      2873 1.08308E-04-3.64081E-05-3.08335E-05 1.05467E-05 9.92938E-19 1.52320E-18
 -1      2874 1.08903E-04-3.72392E-05-3.07232E-05 8.68413E-06 1.42707E-18 1.74246E-18
 -1      2875 1.10389E-04-3.90018E-05-3.05725E-05 7.11212E-06 1.06868E-18 1.14392E-18
 -1      2876 1.06682E-04-3.32765E-05-3.14310E-05 1.36548E-05 5.70324E-19 1.99679E-18
 -1      2877 1.08036E-04-3.52308E-05-3.12571E-05 1.26188E-05 6.47777E-19 2.18322E-18
 -1      2878 1.10899E-04-3.75308E-05-3.13948E-05 1.18970E-05 4.98344E-19 1.71211E-18
 -1      2879 1.03461E-04-2.83038E-05-3.21389E-05 1.37763E-05-1.09129E-18 1.21557E-18
 -1      2880 1.05249E-04-3.09091E-05-3.19470E-05 1.43140E-05-6.94650E-20 2.23733E-18
 -1      2881 1.09150E-04-3.31719E-05-3.25138E-05 1.50318E-05 1.22104E-19 1.98857E-18
 -1      2882 9.99923E-05-2.35347E-05-3.27076E-05 9.88813E-06-6.51706E-19 9.82600E-20
 -1      2883 1.01497E-04-2.56292E-05-3.25964E-05 1.21937E-05-1.29007E-18 3.20281E-19
 -1      2884 1.05605E-04-2.69751E-05-3.36879E-05 1.43767E-05-4.94823E-19 2.34040E-18
 -1      2885 9.82931E-05-2.17118E-05-3.28245E-05 3.12622E-06 7.93749E-19-1.74901E-19
 -1      2886 9.88161E-05-2.21120E-05-3.28907E-05 6.35453E-06 5.55422E-19 3.17052E-19
 -1      2887 1.02297E-04-2.19664E-05-3.44818E-05 9.02157E-06-1.21903E-19 4.02470E-19
 -1      2888 9.92217E-05-2.38305E-05-3.23807E-05-3.39364E-06-2.87257E-19 3.89997E-19
 -1      2889 9.86773E-05-2.24200E-05-3.26271E-05-6.75997E-07-1.72815E-19-5.17382E-19
 -1      2890 1.01473E-04-2.11109E-05-3.44982E-05 1.17308E-06 6.49661E-19 2.30041E-19
 -1      2891 1.01630E-04-2.82342E-05-3.15476E-05-6.81239E-06 1.13011E-18 5.66768E-20
 -1      2892 1.00627E-04-2.60565E-05-3.18849E-05-5.63874E-06 6.07554E-19 2.01789E-19
 -1      2893 1.03410E-04-2.47416E-05-3.37166E-05-5.18704E-06 8.19769E-20 1.87952E-19
 -1      2894 1.03258E-04-3.19366E-05-3.06507E-05-6.55194E-06 1.46362E-18 1.38543E-18
 -1      2895 1.02662E-04-3.03383E-05-3.09599E-05-6.86024E-06 1.08537E-18 6.82834E-19
 -1      2896 1.06058E-04-3.01680E-05-3.24736E-05-7.33128E-06 8.03589E-19-5.81381E-19
 -1      2897 1.03900E-04-3.37158E-05-3.01378E-05-4.32083E-06 3.75905E-19 2.74314E-18
 -1      2898 1.04026E-04-3.31274E-05-3.03953E-05-5.39486E-06 8.56428E-19 1.52460E-18
 -1      2899 1.07966E-04-3.42428E-05-3.15139E-05-5.85063E-06 4.48127E-19-1.62635E-19
 -1      2900 1.08482E-04-3.61903E-05-3.08797E-05-2.62248E-06-9.44902E-19 1.25467E-20
 -1      2901 7.93596E-05-2.16143E-05-2.48744E-05 3.10766E-05-1.30450E-18 3.39983E-18
 -1      2902 8.91732E-05-2.73305E-05-2.60045E-05 3.42338E-05-1.51894E-18 6.33951E-19
 -1      2903 1.13585E-04-4.27178E-05-3.03843E-05-1.62415E-05-1.53095E-20 1.85553E-18
 -1      2904 1.10367E-04-3.93136E-05-3.03316E-05-1.71107E-05-1.35241E-18 1.55395E-18
 -1      2905 1.16593E-04-4.71149E-05-2.99400E-05-2.04099E-05-1.37526E-18-7.13255E-19
 -1      2906 1.09880E-04-3.99982E-05-2.98926E-05 2.50121E-05 8.69076E-19-2.41734E-18
 -1      2907 1.12138E-04-4.14042E-05-3.02957E-05 2.03880E-05 1.01394E-18-2.86960E-18
 -1      2908 6.27924E-05-1.09908E-05-2.22335E-05 1.44897E-05-3.97067E-19-5.48877E-19
 -1      2909 6.95041E-05-1.49613E-05-2.29359E-05 2.39483E-05-6.52268E-19 1.09384E-18
 -1      2910 9.86750E-05-3.43239E-05-2.76713E-05 3.33006E-05-1.40826E-18-2.23335E-18
 -1      2911 1.05657E-04-3.83582E-05-2.86274E-05 3.08643E-05 1.44432E-19-2.25673E-18
 -1      2912 1.11939E-04-4.48165E-05-2.87577E-05 2.91482E-05 2.79428E-19-2.65185E-18
 -1      2913 4.08497E-05-1.26624E-05-1.15884E-05 5.46040E-06-2.03480E-18-8.35174E-19
 -1      2914 4.09110E-05-1.32280E-05-1.11112E-05-7.80281E-06-1.56534E-18-3.50883E-19
 -1      2915 1.40006E-04-1.63218E-05-5.33840E-05 2.03636E-06 6.01817E-19 2.19890E-18
 -1      2916 5.92497E-05-1.01816E-05-2.07970E-05-8.76474E-06-1.14109E-18-2.19593E-18
 -1      2917 5.82004E-05-9.36453E-06-2.06141E-05 2.23473E-06-1.30617E-18-3.32619E-19
 -1      2918 9.74662E-05-3.25584E-05-2.74007E-05-3.18667E-05-6.34838E-19 5.05785E-19
 -1      2919 8.92058E-05-2.77119E-05-2.65043E-05-3.17773E-05-2.79018E-19-7.56400E-19
 -1      2920 1.36989E-04-6.60184E-05-3.00632E-05-2.58135E-05 2.02991E-18-2.74989E-18
 -1      2921 1.45231E-04-6.32708E-05-3.56764E-05-1.24837E-05 1.82775E-18-2.08889E-18
 -1      2922 1.46276E-04-5.53207E-05-3.90117E-05 9.95008E-07 3.46860E-19-1.04344E-18
 -1      2923 1.44217E-04-4.73139E-05-4.21246E-05 6.31483E-06-1.07499E-18-1.05816E-18
 -1      2924 8.26302E-05-4.74319E-05-1.51346E-05 3.70610E-05 1.12941E-18-2.26708E-18
 -1      2925 6.35478E-05-3.69483E-05-1.07892E-05 3.45193E-05 8.99655E-19-1.33387E-18
 -1      2926 9.47258E-05-2.74146E-05-2.88504E-05 3.86051E-07 9.25158E-19-1.30023E-18
 -1      2927 9.49058E-05-2.71212E-05-2.90229E-05 9.91367E-07 1.09715E-18-1.19560E-18
 -1      2928 9.51305E-05-2.73823E-05-2.90446E-05 3.73335E-07 9.19409E-19-1.44467E-18
 -1      2929 9.44738E-05-2.83140E-05-2.83535E-05-1.09400E-06 6.22851E-19-1.13305E-18
 -1      2930 9.44438E-05-2.82242E-05-2.83735E-05-1.02574E-06 7.49367E-19-1.22478E-18
 -1      2931 9.49306E-05-2.82425E-05-2.85869E-05-9.03556E-07 7.94574E-19-1.02914E-18
 -1      2932 9.48961E-05-2.84491E-05-2.84817E-05-1.11004E-06 5.08024E-19-1.04865E-18
 -1      2933 4.53881E-05-1.87518E-05-1.09384E-05-2.40557E-05-8.38192E-19 2.43734E-19
 -1      2934 5.66254E-05-2.89871E-05-1.11477E-05-3.90774E-05 1.35674E-18 1.71524E-18
 -1      2935 9.52461E-05-2.39890E-05-3.05179E-05-5.29978E-06-1.73442E-18-8.49251E-19
 -1      2936 9.51670E-05-2.50060E-05-3.00892E-05-3.80095E-06-1.43206E-18-8.80133E-19
 -1      2937 9.52052E-05-2.46920E-05-3.02197E-05-3.53568E-06-1.46341E-18-1.21521E-18
 -1      2938 1.31806E-04-1.45738E-05-5.10178E-05-5.90634E-06 2.36661E-18-4.23278E-18
 -1      2939 1.40401E-04-2.34400E-05-5.05660E-05-8.21398E-06 1.92531E-18-3.46034E-18
 -1      2940 4.09900E-05-2.04247E-05-8.02830E-06-2.39629E-05 8.48198E-19-1.53165E-18
 -1      2941 5.44650E-05-2.82976E-05-1.09386E-05-3.40784E-05 7.20560E-19-9.87429E-19
 -1      2942 9.49827E-05-2.66916E-05-2.92731E-05 1.78014E-06 1.30245E-18-1.27867E-18
 -1      2943 9.52496E-05-2.61947E-05-2.95580E-05 2.78725E-06 1.37850E-18-1.18885E-18
 -1      2944 9.52722E-05-2.50229E-05-3.01047E-05 3.81907E-06 1.54722E-18-1.52386E-18
 -1      2945 9.52557E-05-2.65057E-05-2.94718E-05 1.73453E-06 1.24717E-18-1.51107E-18
 -1      2946 1.32360E-04-1.73673E-05-4.98245E-05-1.72839E-05-7.16378E-19 2.77483E-18
 -1      2947 9.11743E-05-1.60884E-05-3.22076E-05 4.91722E-06 1.13223E-18-2.81759E-18
 -1      2948 9.08311E-05-1.55893E-05-3.22681E-05 3.99503E-06 8.78741E-19-2.93149E-18
 -1      2949 9.18090E-05-1.72007E-05-3.19597E-05 3.19832E-06 7.94342E-19-2.77813E-18
 -1      2950 9.24783E-05-1.82609E-05-3.17877E-05 4.61557E-06 1.19022E-18-2.55269E-18
 -1      2951 2.98635E-05-1.61531E-05-5.24533E-06 4.51834E-06 7.60477E-19-4.32643E-18
 -1      2952 3.08759E-05-1.60092E-05-6.06513E-06-1.13677E-05 1.57784E-18-3.55627E-18
 -1      2953 7.47363E-05-4.05511E-05-1.42051E-05-3.96471E-05 7.16060E-19-1.42958E-18
 -1      2954 9.34608E-05-5.14310E-05-1.78911E-05-4.01628E-05 9.22631E-19-1.52868E-18
 -1      2955 9.07948E-05-1.55407E-05-3.22734E-05-3.93189E-06-8.99283E-19-2.70274E-18
 -1      2956 9.11304E-05-1.60269E-05-3.22146E-05-4.85646E-06-1.15872E-18-2.55897E-18
 -1      2957 1.09401E-04-5.80732E-05-2.16357E-05-3.37911E-05 7.77047E-19-2.82310E-18
 -1      2958 1.22260E-04-6.26208E-05-2.56235E-05-2.80850E-05 7.70482E-19-3.48213E-18
 -1      2959 1.39340E-04-2.46090E-05-4.97555E-05 1.52306E-05-7.02402E-19-2.54173E-18
 -1      2960 1.37873E-04-1.53967E-05-5.31857E-05 1.31102E-05-6.51792E-19-4.64042E-18
 -1      2961 1.08719E-04-3.87135E-05-3.00562E-05-2.17074E-05-1.43259E-18-7.25623E-19
 -1      2962 4.82437E-05-2.83744E-05-8.16173E-06 2.98965E-05 7.51742E-19-1.60470E-18
 -1      2963 3.61979E-05-2.04460E-05-6.21723E-06 1.80691E-05 1.60142E-19-3.16261E-18
 -1      2964 6.27655E-05-3.16061E-05-1.26837E-05 2.99362E-05 1.09209E-18-1.58745E-18
 -1      2965 1.19886E-04-6.36591E-05-2.42841E-05 2.53046E-05 1.12264E-18-9.76073E-20
 -1      2966 1.04393E-04-5.72735E-05-1.96695E-05 3.13726E-05 1.06610E-18-1.34993E-18
 -1      2967 1.40737E-04-6.46360E-05-3.31363E-05 4.22298E-06 7.54653E-19 1.44975E-18
 -1      2968 1.31608E-04-6.56216E-05-2.80389E-05 1.46301E-05 1.08505E-18 3.91859E-19
 -1      2969 1.26313E-04-6.27385E-05-2.68835E-05 1.56824E-05 1.35202E-18 7.91129E-19
 -1      2970 1.37633E-04-3.75068E-05-4.33112E-05 1.13630E-05-8.84514E-19 8.70326E-19
 -1      2971 9.43387E-05-2.09703E-05-3.14677E-05-8.01499E-06-2.06835E-18-1.14753E-18
 -1      2972 9.48018E-05-2.27903E-05-3.08729E-05-6.31393E-06-1.95421E-18-9.94902E-19
 -1      2973 9.46107E-05-2.24314E-05-3.09318E-05-5.71549E-06-1.70794E-18-1.22140E-18
 -1      2974 9.35109E-05-1.95893E-05-3.16822E-05-7.83471E-06-1.89745E-18-1.54400E-18
 -1      2975 1.11517E-04-5.89263E-05-2.19117E-05-4.29926E-05 1.02745E-18-2.19599E-18
 -1      2976 1.23943E-04-6.40799E-05-2.59683E-05-3.80219E-05 1.32921E-18-3.24097E-18
 -1      2977 9.15591E-05-1.66765E-05-3.21138E-05-5.58398E-06-1.40134E-18-2.42351E-18
 -1      2978 9.20778E-05-1.74511E-05-3.20147E-05-6.40535E-06-1.65927E-18-2.15556E-18
 -1      2979 9.24290E-05-1.81858E-05-3.17970E-05-4.57777E-06-1.19819E-18-2.26919E-18
 -1      2980 9.12842E-05-1.63911E-05-3.20849E-05 2.84501E-08-8.16718E-20-2.77540E-18
 -1      2981 9.01613E-05-1.46012E-05-3.24023E-05-3.83170E-07-2.34733E-19-2.94627E-18
 -1      2982 9.02179E-05-1.46814E-05-3.23924E-05-1.34083E-06-3.86811E-19-2.95697E-18
 -1      2983 9.43558E-05-2.14235E-05-3.12607E-05 7.21591E-06 1.90067E-18-1.66367E-18
 -1      2984 1.23682E-04-1.01592E-05-4.91764E-05-1.96861E-07 1.35345E-18-3.30740E-18
 -1      2985 1.28362E-04-1.19783E-05-5.05440E-05-3.22686E-06 2.18090E-18-4.12119E-18
 -1      2986 1.25724E-04-1.65288E-05-4.71755E-05-6.54185E-06 3.14683E-18-2.92750E-18
 -1      2987 1.15590E-04-5.89351E-05-2.37396E-05 4.24608E-05-1.83065E-19-3.46913E-18
 -1      2988 1.07041E-04-5.24582E-05-2.29520E-05 4.37543E-05 2.30181E-19-2.44343E-18
 -1      2989 1.37535E-04-3.16131E-05-4.57081E-05-8.24922E-06 2.17423E-18-2.70331E-18
 -1      2990 7.15915E-05-3.40389E-05-1.57954E-05-4.06226E-05 1.93780E-18-9.39148E-20
 -1      2991 4.24107E-05-1.75457E-05-1.00331E-05-1.58172E-05 5.77862E-19-2.29006E-18
 -1      2992 1.28008E-04-6.25608E-05-2.83171E-05 3.47229E-05 2.32934E-19-4.12424E-18
 -1      2993 1.28049E-04-5.99097E-05-2.94929E-05 7.34808E-06 1.61577E-18 1.72871E-18
 -1      2994 1.32488E-04-5.78275E-05-3.19751E-05-2.74332E-06 1.58657E-18 1.56643E-18
 -1      2995 1.35539E-04-5.63998E-05-3.40000E-05-8.47591E-06 9.73717E-19 1.45653E-18
 -1      2996 1.33879E-04-4.18984E-05-3.95991E-05 1.01441E-05-3.63642E-19 1.04614E-18
 -1      2997 1.34707E-04-4.91650E-05-3.68613E-05 7.10848E-06 1.25070E-19 1.51873E-18
 -1      2998 1.16259E-04-4.48013E-05-3.06385E-05 1.67982E-05 4.88753E-19-2.56443E-18
 -1      2999 1.12088E-04-4.01148E-05-3.07270E-05 1.45566E-05 1.13517E-18-2.48372E-18
 -1      3000 1.11302E-04-3.98541E-05-3.07133E-05 1.00430E-05-2.95800E-20-1.47183E-18
 -1      3001 5.28545E-05-1.61883E-05-1.50639E-05-1.80235E-05-5.70080E-19-6.45439E-19
 -1      3002 9.60609E-05-3.64775E-05-2.53786E-05 3.71150E-05-1.44927E-18-1.07076E-18
 -1      3003 7.22016E-05-2.17915E-05-2.12154E-05 3.13017E-05-6.19287E-19 2.38853E-18
 -1      3004 9.68438E-05-5.07009E-05-1.92608E-05 3.08594E-05 1.52762E-18-1.12343E-18
 -1      3005 4.06722E-05-1.76935E-05-9.12805E-06 1.13639E-05 6.04411E-19-3.86236E-18
 -1      3006 1.08046E-04-3.67029E-05-3.05139E-05 4.03790E-06-1.17669E-18-1.61112E-18
 -1      3007 4.81669E-05-1.47006E-05-1.36433E-05 1.81102E-05-2.27635E-18-6.70215E-19
 -1      3008 5.37857E-05-1.22896E-05-1.71356E-05 1.10912E-05-6.79691E-19-1.47045E-18
 -1      3009 1.38161E-04-3.51811E-05-4.46780E-05-2.37674E-05-1.22926E-18 2.20292E-18
 -1      3010 6.46325E-05-1.58565E-05-2.07536E-05-2.34853E-05-1.17102E-19-1.53313E-18
 -1      3011 7.95196E-05-2.99666E-05-2.08956E-05-3.62520E-05 1.36738E-18-4.95673E-19
 -1      3012 7.44618E-05-2.19221E-05-2.20943E-05-3.05427E-05 3.91594E-19-1.23487E-18
 -1      3013 1.41200E-04-5.86978E-05-3.55743E-05-5.26506E-06 1.65851E-18-4.79738E-19
 -1      3014 1.05532E-04-3.68005E-05-2.94045E-05-2.57156E-05-9.08708E-20-1.72033E-19
 -1      3015 9.46181E-05-2.24678E-05-3.09134E-05 5.69297E-06 1.65626E-18-1.79464E-18
 -1      3016 1.12617E-04-4.48108E-05-2.88312E-05-2.59501E-05-1.14381E-18-7.05559E-19
 -1      3017 1.03822E-04-3.79971E-05-2.83112E-05-3.00117E-05-1.07631E-18 1.11382E-18
 -1      3018 1.04036E-04-4.17218E-05-2.65569E-05-3.36003E-05-2.74492E-19-5.29171E-19
 -1      3019 1.17155E-04-4.96162E-05-2.89032E-05-2.50422E-05-1.94994E-18-6.23274E-19
 -1      3020 1.30604E-04-6.33757E-05-2.86389E-05-2.81535E-05 1.25610E-18-2.82769E-18
 -1      3021 1.02418E-04-5.30092E-05-2.08234E-05-4.44505E-05 1.14551E-18-2.37656E-18
 -1      3022 1.28809E-04-1.29211E-05-5.01245E-05 1.18488E-05-1.12804E-18-3.48723E-18
 -1      3023 1.43918E-04-5.79944E-05-3.73148E-05 9.62679E-06 4.43938E-19-9.11937E-19
 -1      3024 1.41491E-04-6.33908E-05-3.31982E-05 2.03344E-05 1.69698E-19-2.00747E-18
 -1      3025 1.38346E-04-5.56474E-05-3.56938E-05-1.19693E-06 6.31794E-19 9.30995E-19
 -1      3026 1.44518E-04-5.58649E-05-3.81917E-05-2.74198E-07 1.05824E-18-2.77266E-18
 -1      3027 1.41694E-04-5.09954E-05-3.92430E-05 7.56317E-06 2.41722E-19-2.83820E-18
 -1      3028 1.39436E-04-5.91598E-05-3.43690E-05-4.17054E-06 4.46175E-19-2.99701E-18
 -1      3029 6.27067E-05-2.73625E-05-1.48477E-05-3.02187E-05-3.55542E-19-8.11193E-19
 -1      3030 6.84002E-05-3.42685E-05-1.40666E-05-3.60266E-05 5.82335E-20-1.55277E-18
 -1      3031 8.08415E-05-3.95393E-05-1.77450E-05-3.48403E-05-6.33634E-19 5.06632E-20
 -1      3032 1.41819E-04-5.99957E-05-3.51395E-05-6.18753E-06 9.51278E-19 2.56884E-18
 -1      3033 9.03431E-05-1.48724E-05-3.23648E-05-2.17723E-06-5.12137E-19-2.78898E-18
 -1      3034 9.05282E-05-1.51362E-05-3.23328E-05-3.12802E-06-7.78165E-19-2.72424E-18
 -1      3035 9.17782E-05-1.71581E-05-3.19649E-05-3.14216E-06-8.14166E-19-2.55350E-18
 -1      3036 9.14022E-05-1.65743E-05-3.20563E-05-1.58315E-06-4.79907E-19-2.73673E-18
 -1      3037 1.39823E-04-3.17333E-05-4.67894E-05 1.59284E-05-2.99532E-19-2.52988E-18
 -1      3038 1.31060E-04-2.54517E-05-4.56609E-05 1.83297E-05-1.16763E-18-3.07595E-18
 -1      3039 1.37646E-04-3.80360E-05-4.30316E-05 1.47121E-05-2.16417E-19-2.12584E-18
 -1      3040 1.04551E-04-5.38603E-05-2.13906E-05-3.27600E-05-2.57445E-19-1.82933E-18
 -1      3041 1.40876E-04-4.80691E-05-4.02191E-05-2.30422E-06 1.92107E-18-3.86734E-18
 -1      3042 1.44644E-04-5.45441E-05-3.88051E-05 3.43493E-06 1.52290E-18-2.33538E-18
 -1      3043 1.40035E-04-5.66727E-05-3.57102E-05 7.81040E-06 4.73412E-20-2.92343E-18
 -1      3044 1.28310E-04-6.24159E-05-2.82950E-05-1.93515E-05 5.40460E-19-3.31354E-18
 -1      3045 1.35142E-04-2.62433E-05-4.74165E-05-2.17703E-05-1.17907E-18 2.56376E-18
 -1      3046 9.42830E-05-2.18769E-05-3.10595E-05 4.95728E-06 1.42584E-18-1.96716E-18
 -1      3047 9.38052E-05-2.09046E-05-3.12447E-05 4.61820E-06 1.28973E-18-2.11136E-18
 -1      3048 1.28423E-04-2.74052E-05-4.37793E-05-9.65068E-06 1.93176E-18-2.53850E-18
 -1      3049 1.35347E-04-3.76754E-05-4.20732E-05-8.58542E-06 1.54996E-18-2.27174E-18
 -1      3050 9.24339E-05-1.79650E-05-3.19367E-05-6.91763E-06-1.67431E-18-1.95899E-18
 -1      3051 9.30722E-05-1.89460E-05-3.17976E-05-7.42747E-06-1.86374E-18-1.75316E-18
 -1      3052 9.38220E-05-2.05035E-05-3.14017E-05-6.42721E-06-1.75971E-18-1.69103E-18
 -1      3053 9.31913E-05-1.93902E-05-3.16007E-05-5.66518E-06-1.55967E-18-1.99298E-18
 -1      3054 1.30698E-04-6.08592E-05-2.98579E-05 2.73792E-05 3.26002E-19-1.89052E-18
 -1      3055 1.19593E-04-5.72558E-05-2.64424E-05 1.55196E-05 1.47974E-18 1.72099E-18
 -1      3056 9.56805E-05-2.68796E-05-2.94714E-05-7.44221E-07-1.08897E-18-1.32830E-18
 -1      3057 9.56554E-05-2.73277E-05-2.92915E-05-2.19394E-07-9.55584E-19-1.49388E-18
 -1      3058 9.56998E-05-2.77139E-05-2.91256E-05 1.60850E-07-9.10443E-19-1.34416E-18
 -1      3059 9.56627E-05-2.80007E-05-2.90027E-05 4.75481E-07-9.52232E-19-1.48081E-18
 -1      3060 9.58956E-05-2.73305E-05-2.93880E-05-1.63816E-07-9.30574E-19-1.31828E-18
 -1      3061 9.56550E-05-2.82395E-05-2.88845E-05 6.96596E-07-9.40940E-19-1.47746E-18
 -1      3062 9.56227E-05-2.84205E-05-2.88032E-05 8.63946E-07-8.34583E-19-1.41511E-18
 -1      3063 9.59373E-05-2.80565E-05-2.90954E-05 4.70487E-07-8.82594E-19-1.09450E-18
 -1      3064 9.55908E-05-2.85624E-05-2.87213E-05 9.72394E-07-3.90994E-19-1.34296E-18
 -1      3065 9.55677E-05-2.86730E-05-2.86699E-05 1.04093E-06-3.07929E-19-1.01004E-18
 -1      3066 9.59036E-05-2.85083E-05-2.88871E-05 8.26979E-07-4.71388E-19-1.28129E-18
 -1      3067 9.55264E-05-2.87507E-05-2.86150E-05 1.07371E-06-3.65428E-19-8.00551E-19
 -1      3068 9.55120E-05-2.88137E-05-2.85847E-05 1.07918E-06-2.28232E-19-6.19552E-19
 -1      3069 9.58359E-05-2.87757E-05-2.87431E-05 9.89059E-07-1.31518E-19-1.28304E-18
 -1      3070 9.54689E-05-2.88489E-05-2.85498E-05 1.06443E-06-2.47203E-19-6.30824E-19
 -1      3071 9.54613E-05-2.88796E-05-2.85342E-05 1.03256E-06-2.03002E-20-6.81286E-19
 -1      3072 9.57560E-05-2.89189E-05-2.86469E-05 1.02276E-06-2.35764E-19-1.19006E-18
 -1      3073 9.54203E-05-2.88869E-05-2.85137E-05 9.90922E-07-7.28258E-20-7.42697E-19
 -1      3074 9.54176E-05-2.88958E-05-2.85082E-05 9.39892E-07-1.21706E-19-6.77524E-19
 -1      3075 9.56754E-05-2.89789E-05-2.85862E-05 9.77952E-07-6.25419E-20-1.19801E-18
 -1      3076 9.53805E-05-2.88851E-05-2.84981E-05 8.86102E-07-2.58793E-19-6.48680E-19
 -1      3077 9.53811E-05-2.88792E-05-2.84995E-05 8.28592E-07-1.96345E-19-8.26050E-19
 -1      3078 9.56000E-05-2.89839E-05-2.85513E-05 8.90979E-07-1.34341E-19-9.96449E-19
 -1      3079 9.53485E-05-2.88570E-05-2.84969E-05 7.72980E-07-4.13359E-19-8.01819E-19
 -1      3080 9.53513E-05-2.88412E-05-2.85030E-05 7.17799E-07-3.86057E-19-1.00867E-18
 -1      3081 9.55322E-05-2.89528E-05-2.85353E-05 7.87719E-07-2.55440E-19-7.54300E-19
 -1      3082 9.53230E-05-2.88114E-05-2.85058E-05 6.67615E-07-1.82066E-19-7.84451E-19
 -1      3083 9.53272E-05-2.87886E-05-2.85151E-05 6.20962E-07-2.80321E-19-7.24355E-19
 -1      3084 9.54725E-05-2.88981E-05-2.85329E-05 6.86425E-07-3.18489E-19-1.19355E-18
 -1      3085 9.53025E-05-2.87534E-05-2.85220E-05 5.81406E-07-5.95557E-19-8.09545E-19
 -1      3086 9.53078E-05-2.87252E-05-2.85339E-05 5.47850E-07-6.26753E-19-7.67366E-19
 -1      3087 9.54202E-05-2.88272E-05-2.85406E-05 6.00072E-07-5.40013E-19-7.75138E-19
 -1      3088 9.52855E-05-2.86854E-05-2.85440E-05 5.22907E-07-8.65263E-19-5.31726E-19
 -1      3089 9.52917E-05-2.86522E-05-2.85582E-05 5.06152E-07-1.16707E-18-5.89595E-19
 -1      3090 9.53737E-05-2.87438E-05-2.85562E-05 5.38251E-07-7.25457E-19-9.13204E-19
 -1      3091 9.52705E-05-2.86075E-05-2.85712E-05 4.99240E-07-1.09651E-18-3.15337E-19
 -1      3092 9.52776E-05-2.85690E-05-2.85876E-05 5.02714E-07-8.77662E-19-2.51838E-19
 -1      3093 9.53304E-05-2.86487E-05-2.85783E-05 5.08661E-07-8.99460E-19-4.51221E-19
 -1      3094 9.52557E-05-2.85180E-05-2.86034E-05 5.17189E-07-6.23978E-19-1.53723E-19
 -1      3095 9.52636E-05-2.84731E-05-2.86225E-05 5.44502E-07-1.60394E-19-1.17758E-19
 -1      3096 9.52873E-05-2.85403E-05-2.86062E-05 5.18285E-07-5.87806E-19 3.74852E-20
 -1      3097 9.52388E-05-2.84137E-05-2.86411E-05 5.84037E-07-1.97574E-19-2.86782E-21
 -1      3098 9.52476E-05-2.83608E-05-2.86635E-05 6.39325E-07-3.06685E-19-1.89913E-19
 -1      3099 9.52406E-05-2.84149E-05-2.86397E-05 5.74264E-07-3.61526E-19-4.24512E-19
 -1      3100 9.52172E-05-2.82902E-05-2.86851E-05 7.08175E-07-3.23666E-19-3.06072E-19
 -1      3101 9.52266E-05-2.82270E-05-2.87114E-05 7.96341E-07-2.34902E-19-4.92975E-19
 -1      3102 9.51854E-05-2.82675E-05-2.86790E-05 6.84540E-07-4.84630E-19-5.69265E-19
 -1      3103 9.51871E-05-2.81417E-05-2.87364E-05 8.99514E-07-6.13906E-20-4.70351E-19
 -1      3104 9.51968E-05-2.80657E-05-2.87673E-05 1.02637E-06 1.41360E-19-7.51218E-19
 -1      3105 9.51155E-05-2.80911E-05-2.87244E-05 8.58266E-07-1.94396E-19-6.53827E-19
 -1      3106 9.51438E-05-2.79618E-05-2.87956E-05 1.16969E-06 9.50167E-20-5.18121E-19
 -1      3107 9.51528E-05-2.78699E-05-2.88318E-05 1.34200E-06 4.97599E-20-6.47056E-19
 -1      3108 9.50234E-05-2.78781E-05-2.87759E-05 1.10600E-06 2.64477E-19-2.17242E-19
 -1      3109 9.50804E-05-2.77428E-05-2.88631E-05 1.53204E-06-2.67016E-19-3.70482E-19
 -1      3110 9.50871E-05-2.76320E-05-2.89049E-05 1.75737E-06-1.22501E-19-5.19767E-19
 -1      3111 9.48989E-05-2.76193E-05-2.88329E-05 1.43965E-06 1.20478E-19-1.05939E-19
 -1      3112 9.49882E-05-2.74772E-05-2.89385E-05 2.00129E-06 6.91290E-20-1.59501E-19
 -1      3113 9.49898E-05-2.73448E-05-2.89857E-05 2.28773E-06 2.55620E-19-5.62047E-20
 -1      3114 9.47293E-05-2.73055E-05-2.88939E-05 1.87216E-06 5.45308E-20-2.96329E-19
 -1      3115 9.48552E-05-2.71580E-05-2.90197E-05 2.59291E-06 4.17936E-20-6.60264E-19
 -1      3116 9.48482E-05-2.70022E-05-2.90712E-05 2.94849E-06-2.29501E-19-5.10757E-19
 -1      3117 9.44985E-05-2.69277E-05-2.89559E-05 2.41691E-06-2.51917E-19-5.30775E-19
 -1      3118 9.46670E-05-2.67808E-05-2.91022E-05 3.32217E-06 7.32006E-21-6.15855E-19
 -1      3119 9.46470E-05-2.66030E-05-2.91555E-05 3.75397E-06 5.02955E-20-3.84553E-19
 -1      3120 9.41869E-05-2.64792E-05-2.90131E-05 3.08688E-06 5.62196E-20-5.13310E-19
 -1      3121 9.44070E-05-2.63481E-05-2.91781E-05 4.20273E-06 1.68722E-19-1.58925E-19
 -1      3122 9.43706E-05-2.61553E-05-2.92282E-05 4.71565E-06 2.50094E-19 1.78958E-19
 -1      3123 9.37715E-05-2.59594E-05-2.90560E-05 3.89373E-06 4.63959E-19-7.77213E-19
 -1      3124 9.40605E-05-2.58761E-05-2.92339E-05 5.24533E-06-8.70107E-20 5.44702E-19
 -1      3125 9.40082E-05-2.56869E-05-2.92729E-05 5.84051E-06 4.54086E-19 6.59655E-19
 -1      3126 9.32290E-05-2.53795E-05-2.90697E-05 4.84739E-06 3.26788E-19 3.54507E-19
 -1      3127 9.36223E-05-2.54074E-05-2.92490E-05 6.45686E-06 4.26077E-19 9.11368E-19
 -1      3128 9.35667E-05-2.52614E-05-2.92646E-05 7.12997E-06 7.89053E-19 9.99982E-19
 -1      3129 9.25411E-05-2.47739E-05-2.90320E-05 5.95708E-06 5.31855E-19 1.31271E-18
 -1      3130 9.31141E-05-2.50326E-05-2.91935E-05 7.84107E-06 3.28240E-19 1.42565E-18
 -1      3131 9.30942E-05-2.50057E-05-2.91688E-05 8.58072E-06 2.88076E-19 1.03751E-18
 -1      3132 9.17081E-05-2.42182E-05-2.89111E-05 7.23567E-06 7.29421E-19 1.18417E-18
 -1      3133 9.26160E-05-2.49236E-05-2.90270E-05 9.40201E-06 4.00986E-19 6.51814E-19
 -1      3134 9.27239E-05-2.51516E-05-2.89414E-05 1.01880E-05 6.73052E-20 8.69067E-19
 -1      3135 9.07727E-05-2.38584E-05-2.86641E-05 8.71012E-06 3.30203E-19 1.13468E-18
 -1      3136 9.23242E-05-2.53838E-05-2.87017E-05 1.11489E-05-8.75375E-19 1.17778E-18
 -1      3137 9.27464E-05-2.60932E-05-2.85356E-05 1.19471E-05-1.62527E-18 1.30575E-18
 -1      3138 8.98649E-05-2.39552E-05-2.82375E-05 1.04396E-05-1.65735E-19 7.58556E-19
 -1      3139 9.26442E-05-2.69105E-05-2.81728E-05 1.30911E-05-9.60366E-19 1.29999E-18
 -1      3140 9.37190E-05-2.84473E-05-2.79213E-05 1.38336E-05 4.64061E-19 1.22549E-18
 -1      3141 8.92808E-05-2.49489E-05-2.75737E-05 1.25350E-05-7.58969E-19 6.78119E-19
 -1      3142 9.43245E-05-3.02495E-05-2.74285E-05 1.52035E-05 7.88199E-19 1.17529E-18
 -1      3143 9.66080E-05-3.30960E-05-2.71332E-05 1.57222E-05 1.52633E-18 1.12128E-18
 -1      3144 8.95960E-05-2.75233E-05-2.66308E-05 1.51561E-05 6.04781E-19 4.12359E-19
 -1      3145 9.87253E-05-3.64552E-05-2.65734E-05 1.71822E-05 1.57559E-18 5.99845E-19
 -1      3146 1.02974E-04-4.09732E-05-2.64118E-05 1.69936E-05 8.07064E-19 1.43827E-19
 -1      3147 9.18974E-05-3.27175E-05-2.54301E-05 1.84564E-05 1.04195E-18-4.10282E-19
 -1      3148 1.06717E-04-4.57429E-05-2.58941E-05 1.80838E-05 1.00259E-18 9.64096E-19
 -1      3149 1.13176E-04-5.14627E-05-2.62524E-05 1.63391E-05 1.71037E-18 1.67513E-18
 -1      3150 1.07541E-04-5.33926E-05-2.34272E-05 2.48365E-05 1.49978E-18 2.56069E-19
 -1      3151 9.74799E-05-4.15322E-05-2.41727E-05 2.21830E-05 1.41137E-18-7.76306E-19
 -1      3152 4.28577E-05-1.41475E-05-1.17524E-05-7.07454E-06 4.85916E-19-3.10268E-18
 -1      3153 4.98830E-05-1.83391E-05-1.33414E-05-1.90818E-05 1.27981E-19-9.35548E-19
 -1      3154 9.53709E-05-2.79585E-05-2.88951E-05-4.74014E-07 7.25910E-19-1.30018E-18
 -1      3155 9.54256E-05-2.77004E-05-2.90120E-05-1.43819E-07 8.00873E-19-1.40126E-18
 -1      3156 9.54124E-05-2.73484E-05-2.91773E-05 2.72688E-07 8.30020E-19-1.54332E-18
 -1      3157 9.54749E-05-2.69411E-05-2.93562E-05 8.32428E-07 8.71109E-19-1.46061E-18
 -1      3158 9.56907E-05-2.73364E-05-2.92999E-05 2.23796E-07 7.67247E-19-1.36957E-18
 -1      3159 9.52234E-05-2.87757E-05-2.84768E-05-1.07219E-06 2.21319E-19-9.24536E-19
 -1      3160 9.52112E-05-2.87411E-05-2.84856E-05-1.10577E-06 6.78463E-19-1.00080E-18
 -1      3161 9.52424E-05-2.87061E-05-2.85152E-05-1.11992E-06 6.79331E-19-9.72126E-19
 -1      3162 9.52392E-05-2.86433E-05-2.85379E-05-1.11492E-06 4.41109E-19-9.09807E-19
 -1      3163 9.55242E-05-2.88214E-05-2.85895E-05-1.08254E-06 6.58388E-19-8.98339E-19
 -1      3164 9.52101E-05-2.87978E-05-2.84612E-05-8.58547E-07-4.05996E-20-7.16522E-19
 -1      3165 9.51909E-05-2.87961E-05-2.84552E-05-9.18897E-07 3.11377E-20-1.05266E-18
 -1      3166 9.52112E-05-2.87748E-05-2.84715E-05-7.40923E-07 1.42555E-19-2.97202E-19
 -1      3167 9.51916E-05-2.87823E-05-2.84618E-05-7.99319E-07 1.93993E-19-4.41325E-19
 -1      3168 9.53846E-05-2.88816E-05-2.85024E-05-8.32864E-07-1.84560E-19-9.33224E-19
 -1      3169 9.52154E-05-2.87384E-05-2.84888E-05-6.36363E-07 3.27783E-19-3.35559E-19
 -1      3170 9.51962E-05-2.87526E-05-2.84768E-05-6.86644E-07 4.06379E-19-8.43456E-20
 -1      3171 9.53523E-05-2.88416E-05-2.85054E-05-7.22591E-07 3.09114E-19-3.58447E-19
 -1      3172 9.52219E-05-2.86925E-05-2.85112E-05-5.54611E-07 1.13857E-19-4.72523E-19
 -1      3173 9.52032E-05-2.87116E-05-2.84975E-05-5.92357E-07 2.81503E-19-2.48451E-19
 -1      3174 9.53257E-05-2.87869E-05-2.85172E-05-6.26542E-07 3.78856E-19-3.79947E-19
 -1      3175 9.52302E-05-2.86387E-05-2.85377E-05-5.03065E-07 7.19029E-20-5.23697E-19
 -1      3176 9.52117E-05-2.86619E-05-2.85225E-05-5.24835E-07 3.91097E-20-4.98496E-19
 -1      3177 9.53034E-05-2.87215E-05-2.85356E-05-5.54490E-07 1.98959E-19-2.65393E-19
 -1      3178 9.52404E-05-2.85775E-05-2.85681E-05-4.88015E-07-1.65622E-19-4.10588E-19
 -1      3179 9.52213E-05-2.86046E-05-2.85513E-05-4.90787E-07-6.03381E-20-5.57086E-19
 -1      3180 9.52842E-05-2.86467E-05-2.85593E-05-5.14043E-07 1.63218E-20-4.16497E-19
 -1      3181 9.52529E-05-2.85083E-05-2.86029E-05-5.15516E-07 4.93304E-19-6.62797E-19
 -1      3182 9.52320E-05-2.85393E-05-2.85839E-05-4.96294E-07 4.02257E-19-2.41448E-19
 -1      3183 9.52666E-05-2.85625E-05-2.85878E-05-5.11812E-07 1.39722E-19-6.70732E-19
 -1      3184 9.52683E-05-2.84299E-05-2.86428E-05-5.91981E-07 7.48454E-19-7.56025E-19
 -1      3185 9.52444E-05-2.84652E-05-2.86211E-05-5.47546E-07 5.70937E-19-6.18820E-19
 -1      3186 9.52492E-05-2.84673E-05-2.86211E-05-5.54265E-07 5.24850E-19-2.73200E-19
 -1      3187 9.52880E-05-2.83413E-05-2.86888E-05-7.24469E-07 4.71764E-19-2.00273E-19
 -1      3188 9.52591E-05-2.83809E-05-2.86637E-05-6.51286E-07 5.14008E-19-3.87514E-19
 -1      3189 9.52308E-05-2.83594E-05-2.86595E-05-6.48276E-07 5.31168E-19 4.43392E-19
 -1      3190 9.53138E-05-2.82421E-05-2.87419E-05-9.20656E-07 1.42571E-19 5.56183E-19
 -1      3191 9.52776E-05-2.82857E-05-2.87127E-05-8.14954E-07 4.95007E-19 4.15757E-19
 -1      3192 9.52103E-05-2.82367E-05-2.87032E-05-8.01387E-07-1.34357E-20 7.60332E-19
 -1      3193 9.53486E-05-2.81334E-05-2.88028E-05-1.18841E-06 6.23339E-20 9.76428E-19
 -1      3194 9.53022E-05-2.81797E-05-2.87689E-05-1.04648E-06 1.07017E-19 7.41199E-19
 -1      3195 9.51873E-05-2.80986E-05-2.87526E-05-1.02174E-06 1.04715E-20 1.28671E-18
 -1      3196 9.53971E-05-2.80195E-05-2.88719E-05-1.53490E-06-5.05570E-19 9.47224E-19
 -1      3197 9.53366E-05-2.80656E-05-2.88329E-05-1.35367E-06-2.31305E-19 1.27545E-18
 -1      3198 9.51628E-05-2.79461E-05-2.88074E-05-1.31766E-06-5.00135E-20 1.05396E-18
 -1      3199 9.54667E-05-2.79090E-05-2.89484E-05-1.96503E-06 3.86582E-19 1.04798E-18
 -1      3200 9.53869E-05-2.79494E-05-2.89044E-05-1.74300E-06 1.84048E-20 1.11524E-18
 -1      3201 9.51395E-05-2.77846E-05-2.88668E-05-1.69671E-06-1.90881E-19 1.07112E-18
 -1      3202 9.55690E-05-2.78183E-05-2.90307E-05-2.47912E-06-2.93998E-19 2.05943E-19
 -1      3203 9.54628E-05-2.78436E-05-2.89824E-05-2.21777E-06 5.80505E-19 7.57198E-19
 -1      3204 9.51242E-05-2.76253E-05-2.89287E-05-2.16426E-06 3.84199E-19 1.01068E-18
 -1      3205 9.57229E-05-2.77742E-05-2.91153E-05-3.06952E-06-7.59433E-19-7.39736E-19
 -1      3206 9.55800E-05-2.77694E-05-2.90642E-05-2.77527E-06-8.47351E-19-4.20431E-19
 -1      3207 9.51297E-05-2.74890E-05-2.89898E-05-2.72126E-06 5.82746E-20-2.59158E-21
 -1      3208 9.59579E-05-2.78187E-05-2.91968E-05-3.71599E-06-5.49618E-19-1.10630E-18
 -1      3209 9.57634E-05-2.77612E-05-2.91456E-05-3.40291E-06-6.59883E-19-6.60678E-19
 -1      3210 9.51787E-05-2.74107E-05-2.90451E-05-3.36112E-06-5.81871E-19 7.40922E-20
 -1      3211 9.63191E-05-2.80142E-05-2.92683E-05-4.37961E-06-1.06217E-18-2.81073E-19
 -1      3212 9.60518E-05-2.78712E-05-2.92205E-05-4.07283E-06-5.03864E-19-8.24436E-19
 -1      3213 9.53091E-05-2.74440E-05-2.90881E-05-4.06549E-06-9.19729E-19 2.49641E-19
 -1      3214 9.68741E-05-2.84470E-05-2.93218E-05-4.99484E-06-3.67823E-19 2.38668E-19
 -1      3215 9.65040E-05-2.81743E-05-2.92814E-05-4.73482E-06-8.86879E-19-2.11133E-19
 -1      3216 9.55811E-05-2.76682E-05-2.91110E-05-4.79853E-06-9.13668E-19 4.74600E-19
 -1      3217 9.77179E-05-2.92285E-05-2.93507E-05-5.45963E-06 4.92388E-20 8.74956E-19
 -1      3218 9.72054E-05-2.87714E-05-2.93213E-05-5.30696E-06-1.70950E-19 7.80781E-19
 -1      3219 9.60861E-05-2.81924E-05-2.91068E-05-5.49886E-06-5.22336E-19-3.38369E-20
 -1      3220 9.89741E-05-3.04854E-05-2.93543E-05-5.62361E-06-8.03509E-19 1.25539E-18
 -1      3221 9.82726E-05-2.97859E-05-2.93366E-05-5.66372E-06 1.46764E-19 8.60760E-19
 -1      3222 9.69546E-05-2.91557E-05-2.90725E-05-6.06816E-06-3.64130E-19 2.64191E-19
 -1      3223 1.00781E-04-3.23278E-05-2.93460E-05-5.27520E-06-1.22856E-18 7.19991E-19
 -1      3224 9.98488E-05-3.13451E-05-2.93335E-05-5.62106E-06-1.15458E-18 1.15939E-18
 -1      3225 9.83598E-05-3.07145E-05-2.90154E-05-6.35435E-06-7.66856E-19 6.43739E-19
 -1      3226 1.03248E-04-3.47753E-05-2.93650E-05-4.13319E-06-1.64597E-18-2.51601E-19
 -1      3227 1.02076E-04-3.35307E-05-2.93388E-05-4.92112E-06-1.36120E-18 2.04974E-19
 -1      3228 1.00502E-04-3.30007E-05-2.89647E-05-6.12681E-06-1.00592E-18 3.55061E-19
 -1      3229 1.06348E-04-3.76213E-05-2.94897E-05-1.87059E-06-2.43497E-19-3.12997E-19
 -1      3230 1.05018E-04-3.62713E-05-2.94127E-05-3.23324E-06-1.13348E-18-3.96042E-19
 -1      3231 1.03548E-04-3.60219E-05-2.89863E-05-5.05049E-06-1.22461E-18-1.54406E-18
 -1      3232 1.09757E-04-4.02298E-05-2.98465E-05 1.79416E-06 2.90691E-19-1.80658E-20
 -1      3233 1.08515E-04-3.91747E-05-2.96617E-05-2.02992E-07 1.65434E-19-2.14393E-19
 -1      3234 1.07498E-04-3.94877E-05-2.91985E-05-2.69677E-06-1.65975E-19-1.97039E-18
 -1      3235 1.12673E-04-4.13783E-05-3.06012E-05 6.81149E-06 6.91765E-19 1.15281E-18
 -1      3236 1.11960E-04-4.12962E-05-3.02398E-05 4.35092E-06 6.23830E-19 5.05703E-19
 -1      3237 1.11953E-04-4.25414E-05-2.97835E-05 1.36987E-06-2.91002E-21-9.13995E-19
 -1      3238 1.13812E-04-3.94607E-05-3.18936E-05 1.22608E-05 2.12997E-19 1.43923E-18
 -1      3239 1.14139E-04-4.10936E-05-3.13179E-05 9.96394E-06 7.43382E-19 1.83851E-18
 -1      3240 1.15780E-04-4.34699E-05-3.09729E-05 7.14549E-06 8.81775E-21 8.11338E-19
 -1      3241 1.12060E-04-3.34207E-05-3.36689E-05 1.59383E-05-7.52615E-19 2.06424E-18
 -1      3242 1.13617E-04-3.69850E-05-3.29457E-05 1.49855E-05-1.68042E-19 1.44358E-18
 -1      3243 1.17269E-04-4.04242E-05-3.29180E-05 1.34886E-05-3.32025E-19 2.42704E-18
 -1      3244 1.08030E-04-2.50411E-05-3.55131E-05 1.48740E-05-2.16615E-19 1.14841E-18
 -1      3245 1.10086E-04-2.92649E-05-3.48349E-05 1.62128E-05-8.43691E-20 2.05291E-18
 -1      3246 1.14900E-04-3.21390E-05-3.54537E-05 1.73364E-05-1.55933E-19 1.56962E-18
 -1      3247 1.04477E-04-1.89890E-05-3.66776E-05 8.07089E-06 4.26084E-19 1.19386E-18
 -1      3248 1.05714E-04-2.12302E-05-3.63841E-05 1.16500E-05-5.27132E-19 1.10301E-18
 -1      3249 1.10587E-04-2.23480E-05-3.78040E-05 1.47762E-05-7.33742E-19 9.75385E-19
 -1      3250 1.04512E-04-1.96154E-05-3.65385E-05-1.05245E-06 4.43303E-20 2.06142E-18
 -1      3251 1.04130E-04-1.84274E-05-3.67767E-05 2.83392E-06 9.00846E-19 1.64563E-18
 -1      3252 1.07692E-04-1.71714E-05-3.89130E-05 5.73998E-06 1.55642E-19 1.48540E-18
 -1      3253 1.07955E-04-2.63036E-05-3.51690E-05-7.19178E-06 2.02090E-19 1.27625E-18
 -1      3254 1.06363E-04-2.26409E-05-3.58334E-05-5.10760E-06-1.47820E-19 1.54675E-18
 -1      3255 1.09163E-04-1.99644E-05-3.82881E-05-3.98601E-06 1.97412E-19 2.02428E-18
 -1      3256 1.10893E-04-3.35456E-05-3.33019E-05-7.36061E-06 1.35864E-18 7.63474E-19
 -1      3257 1.09818E-04-3.03036E-05-3.40564E-05-7.64618E-06 1.17995E-18 6.17073E-19
 -1      3258 1.13457E-04-2.94127E-05-3.60655E-05-8.00817E-06 7.43940E-19 1.08632E-18
 -1      3259 9.23684E-05-1.83402E-05-3.17416E-05 1.81123E-06 4.69353E-19-2.67755E-18
 -1      3260 9.22486E-05-1.81378E-05-3.17735E-05 1.05757E-06 2.07558E-19-2.66892E-18
 -1      3261 8.80413E-05-3.74967E-05-2.15394E-05 4.22114E-05-1.12888E-18 1.02263E-18
 -1      3262 1.01865E-04-4.47775E-05-2.40018E-05 4.05350E-05-7.73420E-19-2.32217E-18
 -1      3263 9.04335E-05-4.35500E-05-1.96049E-05 2.90473E-05 1.78957E-18-1.33185E-18
 -1      3264 1.16080E-04-4.98640E-05-2.81829E-05 3.11741E-05-9.18978E-19-3.05689E-18
 -1      3265 1.20765E-04-5.12361E-05-2.97872E-05 2.49422E-05-2.40094E-19-3.38509E-18
 -1      3266 5.72209E-05-1.77415E-05-1.66636E-05 2.74024E-05-2.52093E-18 1.72265E-19
 -1      3267 7.26719E-05-3.49203E-05-1.55169E-05 4.45363E-05-1.95315E-18 2.10954E-18
 -1      3268 6.60635E-05-2.62965E-05-1.64100E-05 3.71157E-05-2.26200E-18 2.87875E-18
 -1      3269 9.34418E-05-4.48611E-05-2.01286E-05-4.41949E-05 1.75781E-18-2.15464E-18
 -1      3270 1.07805E-04-5.24622E-05-2.39067E-05-4.02643E-05 1.24112E-18-2.65116E-18
 -1      3271 1.22562E-04-5.99417E-05-2.67220E-05-2.05097E-05 2.80844E-19-3.03282E-18
 -1      3272 1.32795E-04-6.22011E-05-3.04172E-05-1.31940E-05 4.03399E-19-3.38713E-18
 -1      3273 1.34214E-04-5.93894E-05-3.21988E-05-4.80800E-06 3.28278E-19-2.60928E-18
 -1      3274 7.00908E-05-2.45295E-05-1.90280E-05 3.51497E-05-2.15168E-18 3.27992E-18
 -1      3275 9.52135E-05-2.88014E-05-2.84613E-05-9.75541E-07 1.85880E-19-1.04559E-18
 -1      3276 9.51964E-05-2.87863E-05-2.84610E-05-1.02897E-06 1.49687E-19-9.68146E-19
 -1      3277 9.54702E-05-2.88857E-05-2.85382E-05-1.03625E-06 2.18566E-19-8.33863E-19
 -1      3278 9.54236E-05-2.89000E-05-2.85116E-05-9.43822E-07 1.04309E-19-8.80056E-19
 -1      3279 1.38489E-04-6.16689E-05-3.26781E-05-1.28362E-05 1.45002E-18-3.25843E-19
 -1      3280 1.30931E-04-5.95634E-05-3.06967E-05-1.85160E-05 1.10273E-19-1.81000E-19
 -1      3281 1.23880E-04-5.46879E-05-2.93172E-05-2.26343E-05-1.02900E-18-3.36709E-19
 -1      3282 1.17861E-04-5.28807E-05-2.80180E-05-2.92457E-05-6.74503E-19-1.02099E-18
 -1      3283 1.31405E-04-6.18562E-05-3.02018E-05-2.29699E-05 5.51630E-19-1.03453E-18
 -1      3284 4.80321E-05-1.87516E-05-1.22785E-05 1.70168E-05 7.91791E-19-3.56611E-18
 -1      3285 4.18051E-05-1.44035E-05-1.14327E-05 3.79790E-06 1.29896E-18-4.46852E-18
 -1      3286 4.97033E-05-1.49018E-05-1.44374E-05-1.06528E-06 8.28829E-19-2.82533E-18
 -1      3287 1.23044E-04-1.59776E-05-4.63012E-05 1.48705E-05-9.57147E-19-1.02422E-18
 -1      3288 1.20848E-04-1.10317E-05-4.76324E-05 8.89132E-06-6.70427E-19-1.09063E-18
 -1      3289 9.49757E-05-2.34980E-05-3.06129E-05-4.12621E-06-1.45886E-18-1.44099E-18
 -1      3290 9.51653E-05-2.45990E-05-3.02598E-05-2.97200E-06-1.33430E-18-1.55019E-18
 -1      3291 8.54324E-05-3.98097E-05-1.92480E-05 4.48374E-05-4.05411E-19 1.96183E-18
 -1      3292 9.52051E-05-2.42711E-05-3.04030E-05 4.26960E-06 1.53893E-18-1.61214E-18
 -1      3293 9.46369E-05-2.27169E-05-3.08067E-05 4.78532E-06 1.51860E-18-1.73196E-18
 -1      3294 9.49626E-05-2.35981E-05-3.05659E-05 3.69581E-06 1.38062E-18-1.73615E-18
 -1      3295 9.52405E-05-2.52034E-05-3.00296E-05 2.98726E-06 1.38585E-18-1.53184E-18
 -1      3296 1.12225E-04-3.99805E-05-3.09330E-05 4.71810E-06 2.28160E-19-6.05629E-19
 -1      3297 7.17097E-05-3.41238E-05-1.61724E-05 3.04239E-05 1.92086E-18-1.37823E-18
 -1      3298 5.91154E-05-2.54787E-05-1.38939E-05 2.48012E-05 1.16872E-18-7.18496E-19
 -1      3299 9.79094E-05-4.79012E-05-2.09375E-05-3.19573E-05-3.94903E-19-8.53968E-19
 -1      3300 1.10119E-04-5.43856E-05-2.39787E-05-2.69154E-05-5.34107E-19-2.25401E-18
 -1      3301 9.55017E-05-2.55680E-05-2.99551E-05-2.13922E-06-1.19890E-18-1.44716E-18
 -1      3302 9.55356E-05-2.62689E-05-2.96988E-05-1.33334E-06-1.10561E-18-1.38552E-18
 -1      3303 9.57057E-05-2.62004E-05-2.97890E-05-1.17065E-06-1.09113E-18-1.37688E-18
 -1      3304 1.32512E-04-5.92493E-05-3.15629E-05 2.10232E-05-5.27622E-19-2.35735E-18
 -1      3305 1.21831E-04-5.65871E-05-2.76734E-05 3.27882E-05-7.93352E-19-2.38822E-18
 -1      3306 9.21882E-05-1.80375E-05-3.17919E-05 4.08546E-07 6.81767E-20-2.67144E-18
 -1      3307 9.21853E-05-1.80330E-05-3.17924E-05-3.59322E-07-1.60777E-19-2.64676E-18
 -1      3308 9.31413E-05-1.96214E-05-3.14910E-05 6.28050E-07 1.43632E-19-2.48854E-18
 -1      3309 1.20610E-04-1.87964E-05-4.39244E-05-7.31409E-06 2.83036E-18-2.56542E-18
 -1      3310 1.25231E-04-2.35645E-05-4.40338E-05-9.36989E-06 3.13047E-18-3.01014E-18
 -1      3311 1.23708E-04-2.93539E-05-4.06441E-05-9.18231E-06 1.41095E-18-3.29401E-18
 -1      3312 1.34084E-04-4.34287E-05-3.90482E-05-4.77345E-06 1.16494E-19-3.86506E-18
 -1      3313 1.38484E-04-4.48301E-05-4.04906E-05 1.29240E-05 1.27584E-19-2.62305E-18
 -1      3314 1.31614E-04-3.72879E-05-4.08442E-05 1.72415E-05-8.25328E-20-2.98791E-18
 -1      3315 1.36479E-04-4.96200E-05-3.73559E-05 9.09841E-06 1.10379E-20-2.80151E-18
 -1      3316 1.21576E-04-4.89568E-05-3.10373E-05 1.71259E-05-3.08638E-20-2.90593E-18
 -1      3317 1.20596E-04-4.73511E-05-3.15323E-05 1.15001E-05 1.83654E-19-2.29202E-18
 -1      3318 1.25437E-04-5.34898E-05-3.08633E-05 1.94079E-05-8.07788E-19-3.86184E-18
 -1      3319 9.53491E-05-2.81734E-05-2.87807E-05-7.15182E-07 7.82632E-19-1.19562E-18
 -1      3320 9.56902E-05-2.80108E-05-2.90104E-05-4.73973E-07 5.70718E-19-1.25508E-18
 -1      3321 9.53177E-05-2.83386E-05-2.87071E-05-8.88915E-07 6.50328E-19-1.07733E-18
 -1      3322 9.43344E-05-2.19754E-05-3.09885E-05 3.62892E-06 1.23772E-18-2.03671E-18
 -1      3323 9.34291E-05-2.02111E-05-3.14039E-05 4.24319E-06 1.18436E-18-2.30135E-18
 -1      3324 9.30697E-05-1.95496E-05-3.15174E-05 3.65161E-06 1.02513E-18-2.48847E-18
 -1      3325 9.53830E-05-2.64940E-05-2.95312E-05 1.36763E-06 1.05419E-18-1.50361E-18
 -1      3326 9.54331E-05-2.58872E-05-2.97908E-05 2.24175E-06 1.21252E-18-1.55021E-18
 -1      3327 9.53553E-05-2.52318E-05-3.00700E-05 2.59593E-06 1.29098E-18-1.53567E-18
 -1      3328 9.55809E-05-2.64014E-05-2.96530E-05 1.23667E-06 9.37526E-19-1.43555E-18
 -1      3329 9.42612E-05-2.18403E-05-3.10563E-05-5.43273E-06-1.65478E-18-1.59626E-18
 -1      3330 5.87240E-05-2.13207E-05-1.55802E-05 1.81487E-05 1.60878E-18-2.07772E-18
 -1      3331 9.42007E-05-2.17399E-05-3.10644E-05-4.76517E-06-1.54969E-18-1.77248E-18
 -1      3332 9.55840E-05-2.86822E-05-2.86756E-05-1.04356E-06 4.35573E-19-1.04983E-18
 -1      3333 9.52734E-05-2.85711E-05-2.85871E-05-1.07794E-06 2.99516E-19-1.03934E-18
 -1      3334 9.52846E-05-2.84670E-05-2.86305E-05-1.00755E-06 4.11545E-19-1.01012E-18
 -1      3335 1.12166E-04-3.60536E-05-3.26328E-05-5.69974E-06 2.82684E-19 8.49931E-19
 -1      3336 1.16674E-04-3.69133E-05-3.41418E-05-6.27843E-06 6.87261E-19 1.44051E-18
 -1      3337 1.12910E-04-3.79348E-05-3.22541E-05-4.17133E-06-6.36491E-19 1.44634E-18
 -1      3338 9.25432E-05-1.86350E-05-3.16857E-05 2.42137E-06 6.08745E-19-2.59242E-18
 -1      3339 9.33553E-05-2.00107E-05-3.14149E-05 1.80142E-06 4.91797E-19-2.45963E-18
 -1      3340 9.27815E-05-1.90502E-05-3.16184E-05 3.12306E-06 8.65834E-19-2.55019E-18
 -1      3341 1.23299E-04-5.92624E-05-2.68349E-05-3.24571E-05 5.29713E-19-2.14185E-18
 -1      3342 1.11505E-04-5.00001E-05-2.64755E-05 3.74323E-05-4.96229E-19-2.72438E-18
 -1      3343 8.62040E-05-3.77543E-05-2.03581E-05 2.59245E-05 2.05718E-18-1.76654E-18
 -1      3344 1.17596E-04-4.32985E-05-3.17222E-05 5.56261E-06 1.20007E-18-1.16765E-19
 -1      3345 1.12850E-04-3.97597E-05-3.14520E-05 6.22355E-08 3.35531E-19 7.82559E-19
 -1      3346 1.13070E-04-3.89596E-05-3.18074E-05-1.91658E-06-4.75133E-20 7.86149E-19
 -1      3347 1.22148E-04-4.66752E-05-3.23020E-05 5.81478E-06 5.45334E-19-1.33656E-18
 -1      3348 1.13165E-04-5.25008E-05-2.58143E-05-3.46681E-05 5.90170E-19-2.37885E-18
 -1      3349 5.86743E-05-2.20526E-05-1.51348E-05-2.40550E-05-2.68721E-19 4.43634E-20
 -1      3350 6.78968E-05-2.70483E-05-1.76038E-05-2.65325E-05-1.20514E-18-5.85670E-19
 -1      3351 5.68580E-05-1.82592E-05-1.63542E-05-1.65917E-05-4.59105E-19-4.22617E-19
 -1      3352 1.06547E-04-4.60694E-05-2.55973E-05-3.53026E-05 3.95181E-19-2.03640E-18
 -1      3353 9.70852E-05-4.04888E-05-2.44222E-05-3.73951E-05 1.62682E-18-1.52492E-18
 -1      3354 9.52353E-05-2.44728E-05-3.03257E-05-2.62730E-06-1.24360E-18-1.56627E-18
 -1      3355 9.01365E-05-4.18396E-05-2.04499E-05-3.03054E-05-5.51842E-19-1.06573E-18
 -1      3356 1.16277E-04-5.64968E-05-2.54836E-05-2.19001E-05-4.78150E-19-3.59298E-18
 -1      3357 1.20659E-04-5.69342E-05-2.74295E-05-1.56067E-05 7.10846E-20-3.72108E-18
 -1      3358 1.09230E-04-5.13233E-05-2.47936E-05-2.23921E-05-9.52766E-19-3.77930E-18
 -1      3359 1.33040E-04-5.61858E-05-3.29916E-05 1.27179E-05-1.08568E-18-3.48935E-18
 -1      3360 9.25215E-05-1.86032E-05-3.16902E-05-2.37375E-06-7.10992E-19-2.44372E-18
 -1      3361 9.27523E-05-1.90046E-05-3.16245E-05-3.08366E-06-8.87988E-19-2.39232E-18
 -1      3362 9.30402E-05-1.95022E-05-3.15257E-05-3.61162E-06-9.97748E-19-2.13152E-18
 -1      3363 9.34073E-05-2.01611E-05-3.14142E-05-4.22651E-06-1.27315E-18-2.06720E-18
 -1      3364 9.37360E-05-2.07532E-05-3.12621E-05-2.80217E-06-9.32611E-19-2.08539E-18
 -1      3365 1.19282E-04-1.05627E-05-4.71374E-05 5.39215E-06-6.64815E-19-9.40392E-19
 -1      3366 1.17120E-04-1.26579E-05-4.51760E-05 5.72271E-07 1.21973E-19-6.96096E-19
 -1      3367 6.60180E-05-2.37193E-05-1.79962E-05 2.03821E-05 1.77465E-18-1.53196E-18
 -1      3368 5.68646E-05-1.76646E-05-1.65933E-05 1.29617E-05 2.04629E-18-2.59870E-18
 -1      3369 9.57777E-05-2.89317E-05-2.86481E-05-1.01021E-06 3.24969E-19-5.04537E-19
 -1      3370 9.58083E-05-2.88715E-05-2.86843E-05-1.00764E-06 3.97159E-19-7.57655E-19
 -1      3371 9.60354E-05-2.69128E-05-2.96142E-05-4.46123E-07-8.25672E-19-1.37985E-18
 -1      3372 9.60836E-05-2.74086E-05-2.94399E-05-3.38404E-08-7.69307E-19-1.25143E-18
 -1      3373 1.26592E-04-3.90267E-05-3.77270E-05-7.15737E-06-1.24599E-18-9.76205E-19
 -1      3374 1.32333E-04-4.79568E-05-3.62835E-05-1.42078E-06-1.01800E-18-4.12314E-18
 -1      3375 9.61665E-05-2.78303E-05-2.92794E-05 2.44228E-07-7.96410E-19-1.22366E-18
 -1      3376 9.61622E-05-2.81497E-05-2.91528E-05 4.95578E-07-8.38649E-19-1.17235E-18
 -1      3377 9.62701E-05-2.74623E-05-2.94896E-05 1.35611E-08-7.89219E-19-1.25334E-18
 -1      3378 9.61716E-05-2.84134E-05-2.90335E-05 6.56249E-07-8.03724E-19-1.04755E-18
 -1      3379 9.61419E-05-2.86119E-05-2.89438E-05 7.90312E-07-2.86630E-19-1.09779E-18
 -1      3380 9.63620E-05-2.82233E-05-2.92040E-05 4.72442E-07-7.32599E-19-1.14759E-18
 -1      3381 9.61093E-05-2.87666E-05-2.88571E-05 8.65644E-07-2.16190E-19-1.39823E-18
 -1      3382 9.60692E-05-2.88818E-05-2.87954E-05 9.19178E-07-3.00482E-19-1.44411E-18
 -1      3383 9.63407E-05-2.86968E-05-2.89923E-05 7.27222E-07-5.14312E-19-1.06316E-18
 -1      3384 9.60148E-05-2.89622E-05-2.87342E-05 9.36860E-07-1.41364E-19-1.67473E-18
 -1      3385 9.59724E-05-2.90205E-05-2.86934E-05 9.38437E-07-7.43910E-20-1.45827E-18
 -1      3386 9.62561E-05-2.89695E-05-2.88393E-05 8.36986E-07-2.97115E-19-1.75423E-18
 -1      3387 9.59088E-05-2.90510E-05-2.86518E-05 9.20272E-07-6.70817E-20-1.49271E-18
 -1      3388 9.58680E-05-2.90709E-05-2.86265E-05 8.91276E-07 1.21520E-19-1.50474E-18
 -1      3389 9.61405E-05-2.91041E-05-2.87320E-05 8.50796E-07-3.56087E-20-1.91907E-18
 -1      3390 9.58028E-05-2.90684E-05-2.85997E-05 8.53519E-07 1.32063E-19-1.36953E-18
 -1      3391 9.57658E-05-2.90627E-05-2.85858E-05 8.09410E-07-1.51597E-19-1.23130E-18
 -1      3392 9.60140E-05-2.91455E-05-2.86599E-05 8.06767E-07 8.84147E-20-1.79704E-18
 -1      3393 9.57032E-05-2.90389E-05-2.85702E-05 7.63807E-07-5.30044E-19-1.26446E-18
 -1      3394 9.56705E-05-2.90164E-05-2.85647E-05 7.15583E-07-4.59311E-19-1.37542E-18
 -1      3395 9.58882E-05-2.91251E-05-2.86145E-05 7.33119E-07-3.80818E-19-1.85918E-18
 -1      3396 9.56125E-05-2.89789E-05-2.85575E-05 6.70519E-07-3.67890E-19-1.38767E-18
 -1      3397 9.55839E-05-2.89450E-05-2.85581E-05 6.25990E-07-2.78918E-19-1.30779E-18
 -1      3398 9.57693E-05-2.90642E-05-2.85893E-05 6.50258E-07-4.40388E-19-1.76066E-18
 -1      3399 9.55307E-05-2.88982E-05-2.85573E-05 5.87458E-07-3.19350E-19-1.00742E-18
 -1      3400 9.55056E-05-2.88562E-05-2.85625E-05 5.52272E-07-5.22581E-19-8.17433E-19
 -1      3401 9.56595E-05-2.89766E-05-2.85795E-05 5.72853E-07-1.87514E-20-1.50037E-18
 -1      3402 9.54561E-05-2.88023E-05-2.85667E-05 5.24694E-07-6.14928E-19-7.66223E-19
 -1      3403 9.54334E-05-2.87535E-05-2.85756E-05 5.03176E-07-6.41310E-19-6.17796E-19
 -1      3404 9.55580E-05-2.88697E-05-2.85815E-05 5.11553E-07-5.08595E-19-1.06575E-18
 -1      3405 9.53858E-05-2.86928E-05-2.85838E-05 4.90078E-07-7.43755E-19-3.40186E-19
 -1      3406 9.53642E-05-2.86370E-05-2.85958E-05 4.85883E-07-6.36890E-19-1.54334E-20
 -1      3407 9.54619E-05-2.87467E-05-2.85928E-05 4.74480E-07-4.19282E-19-5.84468E-19
 -1      3408 9.53156E-05-2.85684E-05-2.86073E-05 4.90417E-07-8.65120E-19 5.44186E-20
 -1      3409 9.52932E-05-2.85042E-05-2.86222E-05 5.07033E-07-6.01458E-19 1.58117E-20
 -1      3410 9.53665E-05-2.86069E-05-2.86115E-05 4.68419E-07-6.50506E-19 1.33259E-19
 -1      3411 9.52401E-05-2.84254E-05-2.86365E-05 5.32363E-07-3.58982E-19-1.29046E-19
 -1      3412 9.52146E-05-2.83505E-05-2.86543E-05 5.73473E-07-4.81280E-19-4.46775E-19
 -1      3413 9.52657E-05-2.84469E-05-2.86366E-05 4.99699E-07-7.16133E-19-1.10689E-19
 -1      3414 9.51525E-05-2.82580E-05-2.86712E-05 6.23036E-07-6.19758E-19-1.77802E-19
 -1      3415 9.51213E-05-2.81694E-05-2.86918E-05 6.92769E-07-4.22734E-19-9.93319E-20
 -1      3416 9.51515E-05-2.82609E-05-2.86669E-05 5.74817E-07-5.21435E-19 1.74796E-19
 -1      3417 9.50447E-05-2.80590E-05-2.87108E-05 7.70428E-07-1.69484E-19-2.68150E-19
 -1      3418 9.50043E-05-2.79527E-05-2.87343E-05 8.73484E-07 2.20489E-19-9.98396E-20
 -1      3419 9.50140E-05-2.80409E-05-2.87018E-05 7.00826E-07-1.97035E-19-1.15668E-19
 -1      3420 9.49064E-05-2.78194E-05-2.87550E-05 9.83563E-07 2.47588E-19-2.69054E-19
 -1      3421 9.48523E-05-2.76912E-05-2.87811E-05 1.12523E-06 3.63829E-19-6.46613E-20
 -1      3422 9.48413E-05-2.77773E-05-2.87402E-05 8.85478E-07 2.09973E-19 2.71595E-19
 -1      3423 9.47250E-05-2.75293E-05-2.88024E-05 1.27243E-06 5.51422E-19 1.48530E-19
 -1      3424 9.46513E-05-2.73744E-05-2.88306E-05 1.45844E-06 2.34573E-19 4.77575E-19
 -1      3425 9.46187E-05-2.74596E-05-2.87801E-05 1.13712E-06 5.21050E-19 6.77114E-19
 -1      3426 9.44845E-05-2.71782E-05-2.88509E-05 1.64763E-06-1.35927E-19 8.67759E-21
 -1      3427 9.43839E-05-2.69919E-05-2.88798E-05 1.88393E-06-2.28624E-19-4.96404E-19
 -1      3428 9.43281E-05-2.70759E-05-2.88190E-05 1.46431E-06-2.07232E-19 6.64310E-19
 -1      3429 9.41653E-05-2.67555E-05-2.88965E-05 2.11984E-06-3.39488E-19-4.25906E-19
 -1      3430 9.40286E-05-2.65338E-05-2.89239E-05 2.41209E-06-4.47177E-19-2.67427E-19
 -1      3431 9.39475E-05-2.66148E-05-2.88521E-05 1.87527E-06-2.47649E-19 2.45517E-19
 -1      3432 9.37435E-05-2.62525E-05-2.89329E-05 2.69897E-06-2.50164E-19-6.81965E-19
 -1      3433 9.35597E-05-2.59932E-05-2.89547E-05 3.05213E-06 2.77354E-19-6.82664E-19
 -1      3434 9.34504E-05-2.60663E-05-2.88723E-05 2.37703E-06-5.21263E-19-8.90643E-20
 -1      3435 9.31907E-05-2.56649E-05-2.89498E-05 3.39359E-06 5.91432E-19-5.58075E-19
 -1      3436 9.29476E-05-2.53699E-05-2.89598E-05 3.81145E-06 6.68736E-19-5.12853E-19
 -1      3437 9.28053E-05-2.54237E-05-2.88689E-05 2.97488E-06 5.67318E-19-6.33375E-19
 -1      3438 9.24753E-05-2.49976E-05-2.89315E-05 4.21081E-06 4.75919E-19-7.17881E-19
 -1      3439 9.21614E-05-2.46765E-05-2.89203E-05 4.69609E-06 5.86893E-19 5.41197E-20
 -1      3440 9.19758E-05-2.46883E-05-2.88255E-05 3.67249E-06 7.08594E-19-8.71155E-19
 -1      3441 9.15657E-05-2.42725E-05-2.88554E-05 5.15814E-06 8.52926E-19 4.11512E-19
 -1      3442 9.11746E-05-2.39489E-05-2.88090E-05 5.71387E-06 1.15957E-18 7.70833E-19
 -1      3443 9.09225E-05-2.38750E-05-2.87190E-05 4.47399E-06 8.73756E-19-3.74047E-19
 -1      3444 9.04373E-05-2.35418E-05-2.86886E-05 6.24923E-06 6.39908E-19 2.92589E-19
 -1      3445 8.99767E-05-2.32632E-05-2.85880E-05 6.88269E-06 7.08484E-19 4.48647E-19
 -1      3446 8.96064E-05-2.30218E-05-2.85163E-05 5.39041E-06 9.13918E-19-4.97137E-19
 -1      3447 8.90868E-05-2.29084E-05-2.83862E-05 7.51727E-06 7.82315E-19-1.95869E-19
 -1      3448 8.85950E-05-2.27622E-05-2.82061E-05 8.24822E-06 4.14089E-19 1.91726E-19
 -1      3449 8.79958E-05-2.22044E-05-2.81715E-05 6.45416E-06 5.20500E-19-6.66914E-19
 -1      3450 8.75586E-05-2.25573E-05-2.78880E-05 9.04041E-06-4.10243E-19-5.70966E-19
 -1      3451 8.71354E-05-2.26957E-05-2.75982E-05 9.91440E-06-6.84949E-19-7.75327E-19
 -1      3452 8.60795E-05-2.15582E-05-2.76221E-05 7.74746E-06-2.92139E-19-2.15254E-18
 -1      3453 8.59950E-05-2.28054E-05-2.71188E-05 1.09834E-05-1.12291E-19-5.99337E-19
 -1      3454 8.58532E-05-2.34837E-05-2.66882E-05 1.20843E-05 4.12510E-19-2.43134E-19
 -1      3455 8.38892E-05-2.13114E-05-2.67846E-05 9.45168E-06-2.77877E-19-1.60379E-18
 -1      3456 8.47430E-05-2.41840E-05-2.59926E-05 1.36339E-05 2.74976E-19-1.40373E-20
 -1      3457 8.52576E-05-2.57975E-05-2.54005E-05 1.50813E-05 8.54827E-19-4.05269E-19
 -1      3458 8.15659E-05-2.18593E-05-2.55493E-05 1.19310E-05 3.55215E-19-1.48497E-18
 -1      3459 8.29209E-05-3.27998E-05-2.13007E-05 2.33762E-05 1.54528E-18-1.73331E-18
 -1      3460 9.39361E-05-2.12636E-05-3.11552E-05-4.39954E-06-1.41769E-18-1.90345E-18
 -1      3461 5.36342E-05-1.48164E-05-1.63855E-05 4.95475E-06 1.08835E-18-2.73422E-18
 -1      3462 5.37515E-05-1.48257E-05-1.66031E-05-4.97049E-06 2.22303E-19-1.57765E-18
 -1      3463 9.54852E-05-2.89002E-05-2.85350E-05-6.71551E-07-3.66469E-20-4.17816E-19
 -1      3464 9.55005E-05-2.89262E-05-2.85322E-05-7.21129E-07-1.30835E-20-6.32645E-19
 -1      3465 9.55479E-05-2.89571E-05-2.85376E-05-7.71256E-07 5.03013E-20-5.81430E-19
 -1      3466 9.55666E-05-2.89725E-05-2.85402E-05-8.24059E-07-7.50982E-20-3.92614E-19
 -1      3467 9.56694E-05-2.90165E-05-2.85668E-05-7.15794E-07 1.10073E-19 1.40608E-19
 -1      3468 9.53800E-05-2.87424E-05-2.85575E-05-5.27242E-07 1.64788E-19 3.91838E-20
 -1      3469 9.53906E-05-2.87818E-05-2.85475E-05-5.54218E-07 2.94500E-19-1.82923E-19
 -1      3470 9.53339E-05-2.86465E-05-2.85787E-05-4.99101E-07-1.78377E-20-2.57028E-20
 -1      3471 9.53433E-05-2.86915E-05-2.85661E-05-5.08987E-07 1.31514E-19 1.43476E-19
 -1      3472 9.54245E-05-2.87471E-05-2.85766E-05-5.06490E-07 5.41960E-21 3.28876E-19
 -1      3473 9.52887E-05-2.85389E-05-2.86054E-05-5.09275E-07 3.23678E-19-4.98701E-19
 -1      3474 9.52976E-05-2.85898E-05-2.85903E-05-4.98780E-07 9.96253E-20-5.08998E-19
 -1      3475 9.53521E-05-2.86289E-05-2.85960E-05-4.90295E-07 4.21807E-19 4.27276E-20
 -1      3476 9.52415E-05-2.84173E-05-2.86371E-05-5.64285E-07 3.14561E-19-1.80927E-20
 -1      3477 9.52506E-05-2.84751E-05-2.86196E-05-5.30071E-07 3.83719E-19-9.45884E-20
 -1      3478 9.52781E-05-2.84959E-05-2.86211E-05-5.12482E-07 2.14941E-19-2.14492E-19
 -1      3479 9.51890E-05-2.82790E-05-2.86736E-05-6.71146E-07 2.88938E-19 9.80402E-19
 -1      3480 9.51989E-05-2.83448E-05-2.86536E-05-6.09616E-07 5.21163E-19 6.15260E-19
 -1      3481 9.51978E-05-2.83451E-05-2.86511E-05-5.79708E-07-1.02566E-19 2.40983E-19
 -1      3482 9.51281E-05-2.81212E-05-2.87149E-05-8.37591E-07-1.76239E-19 9.57279E-19
 -1      3483 9.51394E-05-2.81960E-05-2.86922E-05-7.44832E-07-3.94796E-20 8.77766E-19
 -1      3484 9.51060E-05-2.81728E-05-2.86853E-05-6.99206E-07 2.82766E-19 8.07990E-19
 -1      3485 9.50564E-05-2.79426E-05-2.87603E-05-1.07201E-06 8.00924E-20 8.29466E-19
 -1      3486 9.50688E-05-2.80264E-05-2.87351E-05-9.43900E-07 3.27738E-20 7.73976E-19
 -1      3487 9.49974E-05-2.79759E-05-2.87229E-05-8.79009E-07 9.06365E-20 7.30633E-19
 -1      3488 9.49724E-05-2.77443E-05-2.88089E-05-1.38306E-06-1.74559E-19 8.19012E-19
 -1      3489 9.49853E-05-2.78357E-05-2.87815E-05-1.21557E-06-1.34366E-19 7.76316E-19
 -1      3490 9.48675E-05-2.77527E-05-2.87627E-05-1.12793E-06 1.26601E-19 4.81037E-19
 -1      3491 9.48773E-05-2.75322E-05-2.88586E-05-1.77886E-06 4.77183E-20 3.94390E-19
 -1      3492 9.48885E-05-2.76272E-05-2.88299E-05-1.56859E-06-1.05941E-19 6.44225E-19
 -1      3493 9.47130E-05-2.75048E-05-2.88024E-05-1.45525E-06-1.58175E-19 6.47656E-19
 -1      3494 9.47769E-05-2.73193E-05-2.89063E-05-2.26571E-06 3.03017E-19 3.21295E-19
 -1      3495 9.47817E-05-2.74098E-05-2.88777E-05-2.01075E-06 1.05648E-19 3.94410E-19
 -1      3496 9.45337E-05-2.72396E-05-2.88391E-05-1.87015E-06 2.15276E-19-9.89509E-20
 -1      3497 9.46846E-05-2.71302E-05-2.89471E-05-2.84632E-06-1.83676E-19 1.65113E-19
 -1      3498 9.46743E-05-2.72021E-05-2.89209E-05-2.54739E-06 3.94595E-19 4.25437E-19
 -1      3499 9.43351E-05-2.69734E-05-2.88681E-05-2.38076E-06 3.39771E-19-1.27129E-19
 -1      3500 9.46257E-05-2.70053E-05-2.89747E-05-3.51720E-06-6.53701E-19 1.30180E-19
 -1      3501 9.45855E-05-2.70359E-05-2.89539E-05-3.17930E-06-4.70709E-19 2.60286E-19
 -1      3502 9.41319E-05-2.67360E-05-2.88831E-05-2.99285E-06-6.08130E-19 5.29165E-19
 -1      3503 9.46446E-05-2.70078E-05-2.89810E-05-4.26536E-06-1.39298E-18 5.97974E-19
 -1      3504 9.45501E-05-2.69626E-05-2.89695E-05-3.89989E-06-1.08219E-18 3.76155E-19
 -1      3505 9.39536E-05-2.65762E-05-2.88761E-05-3.70811E-06-9.44760E-19 6.31051E-19
 -1      3506 9.48131E-05-2.72298E-05-2.89571E-05-5.06355E-06-4.74433E-19-3.54134E-19
 -1      3507 9.46263E-05-2.70592E-05-2.89590E-05-4.69120E-06-8.52206E-19-3.55199E-20
 -1      3508 9.38522E-05-2.65690E-05-2.88378E-05-4.52175E-06-5.89454E-19 1.20633E-19
 -1      3509 9.52417E-05-2.77988E-05-2.88959E-05-5.86328E-06-1.64867E-19-2.09119E-19
 -1      3510 9.49063E-05-2.74358E-05-2.89142E-05-5.51813E-06-3.42232E-19-1.70495E-19
 -1      3511 9.39133E-05-2.68233E-05-2.87588E-05-5.41877E-06-5.63216E-19-1.65988E-19
 -1      3512 9.60905E-05-2.88790E-05-2.87958E-05-6.58307E-06-1.30119E-18 6.91837E-19
 -1      3513 9.55283E-05-2.82400E-05-2.88303E-05-6.31882E-06-7.41393E-19 1.34417E-19
 -1      3514 9.42695E-05-2.74893E-05-2.86322E-05-6.36706E-06-6.43744E-19 2.50472E-19
 -1      3515 9.75754E-05-3.06600E-05-2.86689E-05-7.08960E-06-6.05735E-19 5.08032E-19
 -1      3516 9.66872E-05-2.96536E-05-2.87116E-05-6.98905E-06-6.99968E-19 8.56605E-19
 -1      3517 9.51148E-05-2.87597E-05-2.84600E-05-7.30372E-06-1.01462E-18 4.89582E-19
 -1      3518 9.99575E-05-3.33183E-05-2.85543E-05-7.16312E-06-8.57298E-19-3.42474E-19
 -1      3519 9.86393E-05-3.18719E-05-2.85826E-05-7.35276E-06-5.55625E-19 3.00427E-19
 -1      3520 9.67201E-05-3.08623E-05-2.82615E-05-8.10960E-06-3.76214E-19-6.18593E-19
 -1      3521 1.03477E-04-3.69029E-05-2.85386E-05-6.44247E-06-7.96114E-19-7.54076E-19
 -1      3522 1.01672E-04-3.50362E-05-2.85062E-05-7.10576E-06-1.08861E-18-5.31778E-19
 -1      3523 9.94321E-05-3.40110E-05-2.80929E-05-8.54411E-06-7.90803E-19-2.15033E-19
 -1      3524 1.08207E-04-4.11273E-05-2.87777E-05-4.39559E-06-8.92660E-20-1.70530E-18
 -1      3525 1.05985E-04-3.90632E-05-2.86060E-05-5.76401E-06 2.34473E-20-1.34516E-18
 -1      3526 1.03607E-04-3.82828E-05-2.80757E-05-8.14673E-06-9.41050E-20-6.07112E-19
 -1      3527 1.13733E-04-4.49679E-05-2.95140E-05-4.84177E-07-2.93590E-19-7.25239E-19
 -1      3528 1.11438E-04-4.33486E-05-2.90887E-05-2.70464E-06-7.09269E-19-1.52976E-18
 -1      3529 1.09281E-04-4.32895E-05-2.84237E-05-6.14509E-06-2.65897E-19-6.52566E-19
 -1      3530 1.18957E-04-4.64690E-05-3.10867E-05 5.88114E-06-4.85443E-19-4.23376E-20
 -1      3531 1.17383E-04-4.65496E-05-3.02638E-05 2.76630E-06-4.20403E-19-1.03908E-18
 -1      3532 1.16465E-04-4.78643E-05-2.95583E-05-1.51934E-06-8.14283E-19-7.51623E-19
 -1      3533 1.21126E-04-4.26197E-05-3.37217E-05 1.30497E-05-6.00192E-19 7.55315E-19
 -1      3534 1.21246E-04-4.55383E-05-3.24895E-05 1.01710E-05-5.90548E-19 7.75621E-19
 -1      3535 1.22770E-04-4.88667E-05-3.16637E-05 5.68146E-06-8.50004E-19-1.56405E-18
 -1      3536 1.22118E-04-3.39714E-05-3.79337E-05 1.71796E-05 1.04926E-19-1.47715E-19
 -1      3537 1.24172E-04-4.02167E-05-3.61624E-05 1.60709E-05 1.47040E-19 1.27187E-20
 -1      3538 1.09767E-04-1.43559E-05-4.11011E-05 2.70487E-06-9.63659E-19 1.61232E-18
 -1      3539 1.10232E-04-1.50773E-05-4.09940E-05 8.09011E-06-7.45442E-19 8.29431E-20
 -1      3540 1.15491E-04-2.45454E-05-3.91853E-05-8.36718E-06 1.12354E-18-5.67274E-19
 -1      3541 1.13256E-04-1.98196E-05-4.02031E-05-4.72799E-06 1.21385E-18 5.06089E-19
 -1      3542 1.17537E-04-2.98878E-05-3.76998E-05-8.82685E-06 1.66850E-18-2.01172E-18
 -1      3543 1.13947E-04-1.50622E-05-4.27392E-05-2.15780E-06 6.29875E-19 2.59020E-19
 -1      3544 9.14027E-05-4.01392E-05-2.14166E-05-4.15512E-05 2.15533E-18-1.18079E-18
 -1      3545 1.29612E-04-5.73804E-05-3.08389E-05-4.48496E-06 1.36640E-19-1.66913E-18
 -1      3546 1.34830E-04-5.55063E-05-3.41557E-05 3.17307E-06-1.26076E-19-1.61611E-18
 -1      3547 8.11725E-05-3.06397E-05-2.11385E-05 3.94407E-05-7.03461E-19 2.51278E-18
 -1      3548 1.25734E-04-2.29419E-05-4.46046E-05 1.72182E-05-6.67780E-19-1.15800E-18
 -1      3549 1.18716E-04-1.92857E-05-4.28103E-05 1.55893E-05-3.46913E-19 9.82426E-19
 -1      3550 9.54297E-05-2.88273E-05-2.85424E-05-5.87163E-07 1.80688E-19-2.76862E-19
 -1      3551 9.54423E-05-2.88608E-05-2.85356E-05-6.27640E-07 1.36641E-19-3.77527E-19
 -1      3552 9.55805E-05-2.89430E-05-2.85599E-05-6.27205E-07-3.62046E-20-5.45523E-19
 -1      3553 9.54996E-05-2.88520E-05-2.85640E-05-5.54516E-07 2.04462E-19 8.18723E-20
 -1      3554 9.49367E-05-2.34476E-05-3.06384E-05-2.95206E-06-1.15540E-18-1.70987E-18
 -1      3555 9.52812E-05-2.45469E-05-3.03290E-05-2.09017E-06-1.01611E-18-1.59088E-18
 -1      3556 9.22399E-05-1.81255E-05-3.17752E-05-1.00877E-06-3.17582E-19-2.56868E-18
 -1      3557 9.23514E-05-1.83161E-05-3.17446E-05-1.76159E-06-6.12795E-19-2.45167E-18
 -1      3558 9.33399E-05-1.99873E-05-3.14187E-05-1.76362E-06-6.28566E-19-2.28296E-18
 -1      3559 1.33861E-04-5.10719E-05-3.57665E-05 2.35969E-06 9.80705E-21-6.96018E-18
 -1      3560 1.34737E-04-5.44298E-05-3.44797E-05 7.58288E-06-7.56109E-19-4.24980E-18
 -1      3561 1.28144E-04-4.68282E-05-3.48520E-05-5.89354E-07-7.24901E-19-2.93541E-18
 -1      3562 1.26461E-04-2.82516E-05-4.22644E-05 1.87593E-05-8.40680E-20-1.62779E-18
 -1      3563 1.14773E-04-1.34725E-05-4.37284E-05 8.15660E-06-8.89014E-19 1.53433E-18
 -1      3564 8.22435E-05-3.43896E-05-2.00257E-05-2.84726E-05-2.07920E-19-1.41892E-18
 -1      3565 9.53501E-05-4.25013E-05-2.27384E-05-2.60447E-05 2.04711E-19-1.67003E-18
 -1      3566 1.28137E-04-5.05459E-05-3.32087E-05 6.70398E-06-5.13183E-21-3.65323E-18
 -1      3567 9.56889E-05-2.55258E-05-3.00586E-05-1.50330E-06-9.57781E-19-1.45269E-18
 -1      3568 9.58285E-05-2.62638E-05-2.98249E-05-8.80952E-07-8.82147E-19-1.33744E-18
 -1      3569 9.54088E-05-2.46020E-05-3.03499E-05-1.75283E-06-9.10780E-19-1.42164E-18
 -1      3570 9.59009E-05-2.73783E-05-2.93741E-05 9.66917E-08 6.00430E-19-1.35989E-18
 -1      3571 9.58781E-05-2.69051E-05-2.95497E-05 5.54516E-07 7.21945E-19-1.49618E-18
 -1      3572 1.24029E-04-4.63883E-05-3.33386E-05 1.58506E-06 5.51177E-19-1.68393E-18
 -1      3573 8.70283E-05-3.09958E-05-2.38825E-05 1.92566E-05 6.96797E-19-1.30529E-18
 -1      3574 7.51464E-05-2.73860E-05-2.03555E-05 2.17210E-05 1.05882E-18-1.75655E-18
 -1      3575 7.18097E-05-2.29713E-05-2.09605E-05 1.73395E-05 1.27776E-18-2.25996E-18
 -1      3576 8.48464E-05-2.76758E-05-2.45235E-05 1.73837E-05 7.84028E-19-3.75614E-19
 -1      3577 1.11933E-04-1.65361E-05-4.13404E-05 1.15645E-05-2.19487E-19 6.09705E-19
 -1      3578 1.13934E-04-2.06728E-05-4.01690E-05 1.46299E-05-7.02931E-19 5.60309E-19
 -1      3579 7.98684E-05-2.40643E-05-2.38665E-05 1.58287E-05 6.49972E-19-1.28997E-18
 -1      3580 1.31628E-04-4.94491E-05-3.53418E-05 9.48491E-06-6.30702E-19-1.86427E-18
 -1      3581 9.59819E-05-2.62877E-05-2.98664E-05-7.12575E-07-8.08120E-19-1.29579E-18
 -1      3582 9.57229E-05-2.89641E-05-2.86093E-05-9.92699E-07 3.21569E-19-3.14894E-19
 -1      3583 9.59787E-05-2.90251E-05-2.86967E-05-9.35481E-07 2.66849E-19-2.92320E-19
 -1      3584 9.56961E-05-2.89886E-05-2.85881E-05-9.61724E-07 2.19791E-19-3.82809E-19
 -1      3585 9.60788E-05-2.88869E-05-2.87990E-05-9.14833E-07 2.65964E-20-9.58915E-19
 -1      3586 9.58569E-05-2.87924E-05-2.87427E-05-9.84225E-07 3.29507E-19-1.21705E-18
 -1      3587 9.58897E-05-2.86795E-05-2.87998E-05-9.24836E-07 2.71502E-19-1.22252E-18
 -1      3588 9.56439E-05-2.84306E-05-2.88099E-05-8.65068E-07 4.91766E-19-1.17124E-18
 -1      3589 1.27456E-04-3.37712E-05-4.01855E-05 1.78569E-05-1.08473E-19-1.45351E-18
 -1      3590 1.18129E-04-4.14816E-05-3.28102E-05-1.61158E-06 1.58887E-19 1.47581E-18
 -1      3591 9.59496E-05-2.80882E-05-2.90881E-05-5.02040E-07 5.71373E-19-1.52836E-18
 -1      3592 9.59674E-05-2.77844E-05-2.92123E-05-2.24270E-07 6.36956E-19-1.40756E-18
 -1      3593 9.61100E-05-2.74131E-05-2.94436E-05 4.40021E-08 6.57649E-19-1.59187E-18
 -1      3594 9.44512E-05-2.23075E-05-3.09075E-05-3.42968E-06-1.20030E-18-1.81257E-18
 -1      3595 9.44874E-05-2.23944E-05-3.08925E-05-2.85241E-06-9.86866E-19-1.74643E-18
 -1      3596 9.49331E-05-2.35247E-05-3.06219E-05 3.05322E-06 1.23681E-18-1.83898E-18
 -1      3597 9.46657E-05-2.28241E-05-3.07887E-05 2.81243E-06 9.91089E-19-1.97651E-18
 -1      3598 9.57201E-05-2.63942E-05-2.97192E-05 9.80243E-07 9.41386E-19-1.55780E-18
 -1      3599 9.56420E-05-2.58680E-05-2.99041E-05 1.57324E-06 1.04402E-18-1.56720E-18
 -1      3600 9.58871E-05-2.63934E-05-2.97833E-05 8.15907E-07 7.76664E-19-1.62747E-18
 -1      3601 6.08788E-05-1.70335E-05-1.85012E-05 8.22771E-06 1.16061E-18-1.97425E-18
 -1      3602 9.38636E-05-2.10495E-05-3.12180E-05 8.08006E-07 1.99423E-19-2.28378E-18
 -1      3603 9.38145E-05-2.09493E-05-3.12373E-05 2.47291E-07 1.10422E-20-2.37845E-18
 -1      3604 9.57669E-05-2.90646E-05-2.85883E-05-8.08631E-07 1.27045E-19 8.59236E-21
 -1      3605 9.56185E-05-2.89907E-05-2.85536E-05-8.73805E-07 1.21397E-20-2.76742E-19
 -1      3606 9.56411E-05-2.89902E-05-2.85640E-05-9.21537E-07 3.26457E-19-3.08205E-19
 -1      3607 1.16376E-04-2.63160E-05-3.90586E-05 1.77606E-05-8.24190E-19 5.14566E-19
 -1      3608 9.37664E-05-2.07920E-05-3.12543E-05 2.84455E-06 8.80343E-19-2.34921E-18
 -1      3609 9.40878E-05-2.15140E-05-3.11185E-05 1.76226E-06 5.32079E-19-2.38024E-18
 -1      3610 9.39502E-05-2.12191E-05-3.11773E-05 1.24569E-06 3.33296E-19-2.30116E-18
 -1      3611 9.46079E-05-2.23852E-05-3.09346E-05 8.29551E-07 1.65983E-19-2.10356E-18
 -1      3612 5.74237E-05-1.60076E-05-1.73961E-05-1.01556E-05-3.12957E-19-7.51530E-19
 -1      3613 6.24498E-05-1.90116E-05-1.87478E-05-1.51422E-05-4.89016E-19-6.99861E-20
 -1      3614 6.01861E-05-1.55724E-05-1.90173E-05-4.73616E-06 4.52997E-19-7.47401E-19
 -1      3615 9.39353E-05-2.11978E-05-3.11805E-05-1.21503E-06-4.30687E-19-2.25819E-18
 -1      3616 9.40680E-05-2.14838E-05-3.11225E-05-1.72086E-06-6.46755E-19-2.14913E-18
 -1      3617 1.21541E-04-4.17950E-05-3.42731E-05-3.84570E-06-3.42334E-19 1.14600E-18
 -1      3618 1.20329E-04-3.85236E-05-3.51060E-05-6.00097E-06 3.34829E-19 2.47650E-19
 -1      3619 1.01184E-04-4.53283E-05-2.36918E-05-2.43093E-05 2.27150E-19-2.67035E-18
 -1      3620 1.06162E-04-4.75556E-05-2.49952E-05-2.02185E-05 2.50742E-19-4.34587E-18
 -1      3621 9.27039E-05-3.88560E-05-2.31461E-05-2.37338E-05 8.07701E-19-2.51656E-18
 -1      3622 7.63415E-05-2.92023E-05-2.00820E-05-2.40702E-05-2.59404E-21-2.05427E-18
 -1      3623 9.41586E-05-2.16600E-05-3.10761E-05-2.10484E-06-7.05028E-19-2.11672E-18
 -1      3624 9.43684E-05-2.21194E-05-3.09745E-05-2.52476E-06-8.99992E-19-1.93328E-18
 -1      3625 9.48964E-05-2.31837E-05-3.07152E-05-2.12900E-06-8.40229E-19-1.82432E-18
 -1      3626 9.47725E-05-2.27492E-05-3.08446E-05-1.53105E-06-6.14457E-19-2.03176E-18
 -1      3627 9.31368E-05-1.96136E-05-3.14923E-05-5.86573E-07-1.99673E-19-2.47193E-18
 -1      3628 1.18890E-04-5.21104E-05-2.85688E-05-7.89652E-06-3.04422E-19-1.04100E-18
 -1      3629 1.24778E-04-5.48574E-05-2.98213E-05-4.78314E-06-8.91502E-20-7.42914E-19
 -1      3630 9.51631E-05-2.44086E-05-3.03162E-05 2.86567E-06 1.28186E-18-1.69378E-18
 -1      3631 9.54205E-05-2.50650E-05-3.01443E-05 2.07775E-06 1.11877E-18-1.67405E-18
 -1      3632 9.65192E-05-2.80237E-05-2.93500E-05 2.92142E-07-6.00929E-19-1.32938E-18
 -1      3633 9.65291E-05-2.83461E-05-2.92248E-05 4.74894E-07-6.94418E-19-1.30186E-18
 -1      3634 9.65392E-05-2.86097E-05-2.91087E-05 5.73158E-07-6.39557E-19-1.18748E-18
 -1      3635 9.65074E-05-2.88061E-05-2.90165E-05 6.68405E-07-4.34002E-19-1.27180E-18
 -1      3636 9.66695E-05-2.84355E-05-2.92442E-05 4.25247E-07-5.96618E-19-1.56962E-18
 -1      3637 9.64673E-05-2.89570E-05-2.89301E-05 7.10490E-07-4.11410E-19-1.27201E-18
 -1      3638 9.64138E-05-2.90654E-05-2.88641E-05 7.45598E-07-2.74910E-19-1.39140E-18
 -1      3639 9.66375E-05-2.88879E-05-2.90370E-05 5.81095E-07-5.29473E-19-1.10700E-18
 -1      3640 9.63463E-05-2.91382E-05-2.88015E-05 7.49056E-07-7.55582E-20-1.38422E-18
 -1      3641 9.62832E-05-2.91856E-05-2.87558E-05 7.45972E-07-9.44706E-20-1.46515E-18
 -1      3642 9.65307E-05-2.91374E-05-2.88846E-05 6.40587E-07-3.05131E-19-1.06610E-18
 -1      3643 9.62032E-05-2.92056E-05-2.87120E-05 7.26163E-07-9.83172E-20-1.37984E-18
 -1      3644 9.61383E-05-2.92120E-05-2.86818E-05 7.01136E-07-1.82404E-20-1.67202E-18
 -1      3645 9.63844E-05-2.92466E-05-2.87753E-05 6.37586E-07-1.59445E-19-1.08176E-18
 -1      3646 9.60552E-05-2.91973E-05-2.86527E-05 6.69433E-07-1.97864E-19-1.64736E-18
 -1      3647 9.59927E-05-2.91764E-05-2.86344E-05 6.34310E-07-4.82782E-19-1.61213E-18
 -1      3648 9.62230E-05-2.92608E-05-2.86999E-05 5.98097E-07-2.35410E-19-1.17237E-18
 -1      3649 9.59117E-05-2.91390E-05-2.86166E-05 5.99044E-07-4.01794E-19-1.51759E-18
 -1      3650 9.58536E-05-2.91001E-05-2.86073E-05 5.62460E-07-2.43446E-19-1.27610E-18
 -1      3651 9.60605E-05-2.92120E-05-2.86510E-05 5.41459E-07-3.08777E-19-9.76578E-19
 -1      3652 9.57769E-05-2.90478E-05-2.85983E-05 5.29670E-07-2.55232E-21-1.28278E-18
 -1      3653 9.57235E-05-2.89966E-05-2.85959E-05 4.97837E-07 1.92854E-19-9.66590E-19
 -1      3654 9.59043E-05-2.91214E-05-2.86227E-05 4.82044E-07 5.20281E-20-8.34807E-19
 -1      3655 9.56512E-05-2.89336E-05-2.85936E-05 4.71866E-07-1.21356E-19-9.52686E-19
 -1      3656 9.56015E-05-2.88729E-05-2.85966E-05 4.49392E-07-4.25835E-19-4.73689E-19
 -1      3657 9.57568E-05-2.90024E-05-2.86101E-05 4.30215E-07 9.42706E-20-9.89735E-19
 -1      3658 9.55318E-05-2.88011E-05-2.85996E-05 4.33532E-07-4.74030E-19-6.24868E-19
 -1      3659 9.54839E-05-2.87317E-05-2.86068E-05 4.24073E-07-3.91720E-19-7.83137E-19
 -1      3660 9.56163E-05-2.88616E-05-2.86099E-05 3.93613E-07-4.71358E-19-8.37164E-19
 -1      3661 9.54139E-05-2.86505E-05-2.86139E-05 4.21056E-07-3.20206E-19-7.49864E-19
 -1      3662 9.53649E-05-2.85714E-05-2.86245E-05 4.27803E-07-4.30218E-19-5.53336E-19
 -1      3663 9.54781E-05-2.87007E-05-2.86193E-05 3.78259E-07-2.22758E-19-9.59019E-19
 -1      3664 9.52905E-05-2.84788E-05-2.86349E-05 4.40140E-07-5.69585E-19-2.74083E-19
 -1      3665 9.52369E-05-2.83875E-05-2.86485E-05 4.66180E-07-6.17061E-19-8.46647E-20
 -1      3666 9.53353E-05-2.85175E-05-2.86362E-05 3.89328E-07-2.44432E-19-8.67343E-19
 -1      3667 9.51526E-05-2.82802E-05-2.86614E-05 4.96396E-07-4.05085E-19 2.27870E-19
 -1      3668 9.50899E-05-2.81732E-05-2.86774E-05 5.44940E-07-2.89795E-19 2.38650E-19
 -1      3669 9.51783E-05-2.83063E-05-2.86588E-05 4.31685E-07-2.47580E-19 1.09675E-19
 -1      3670 9.49892E-05-2.80465E-05-2.86920E-05 5.95692E-07-2.26506E-19 6.63956E-19
 -1      3671 9.49119E-05-2.79195E-05-2.87099E-05 6.70190E-07 1.94957E-19 5.06687E-19
 -1      3672 9.49953E-05-2.80594E-05-2.86857E-05 5.10200E-07 4.45884E-20 7.31751E-19
 -1      3673 9.47869E-05-2.77681E-05-2.87253E-05 7.44279E-07 2.94696E-19 9.47509E-19
 -1      3674 9.46883E-05-2.76158E-05-2.87443E-05 8.48400E-07 4.57422E-19 9.72800E-19
 -1      3675 9.47723E-05-2.77666E-05-2.87148E-05 6.29837E-07 3.19231E-19 1.39479E-18
 -1      3676 9.45297E-05-2.74337E-05-2.87592E-05 9.48651E-07 3.61025E-19 7.61773E-19
 -1      3677 9.44015E-05-2.72506E-05-2.87781E-05 1.08614E-06 1.73138E-19 7.83233E-19
 -1      3678 9.44921E-05-2.74166E-05-2.87438E-05 7.95490E-07 3.12209E-19 8.34420E-19
 -1      3679 9.41979E-05-2.70313E-05-2.87904E-05 1.21516E-06 1.72726E-21 5.57316E-19
 -1      3680 9.40300E-05-2.68115E-05-2.88074E-05 1.38953E-06-1.79104E-19 5.38198E-19
 -1      3681 9.41344E-05-2.69971E-05-2.87691E-05 1.01156E-06-1.70572E-19 1.62176E-19
 -1      3682 9.37681E-05-2.65488E-05-2.88141E-05 1.54935E-06-2.42291E-19 2.80793E-19
 -1      3683 9.35482E-05-2.62871E-05-2.88261E-05 1.76351E-06-4.77391E-19 1.50762E-19
 -1      3684 9.36748E-05-2.64956E-05-2.87856E-05 1.28126E-06-4.16921E-19 1.20338E-19
 -1      3685 9.32121E-05-2.59753E-05-2.88230E-05 1.95513E-06-3.72308E-19 1.66646E-19
 -1      3686 9.29253E-05-2.56675E-05-2.88255E-05 2.21089E-06-1.85245E-19 3.67637E-19
 -1      3687 9.30846E-05-2.59008E-05-2.87857E-05 1.60571E-06-4.19729E-19-6.05636E-20
 -1      3688 9.24963E-05-2.53029E-05-2.88061E-05 2.43398E-06-2.34662E-19 4.68457E-19
 -1      3689 9.21253E-05-2.49475E-05-2.87922E-05 2.73181E-06 3.86009E-19 3.86519E-19
 -1      3690 9.23299E-05-2.52042E-05-2.87584E-05 1.98300E-06-8.65603E-20 5.52949E-19
 -1      3691 9.15811E-05-2.45294E-05-2.87474E-05 2.98471E-06 5.52245E-19-3.38575E-19
 -1      3692 9.11062E-05-2.41295E-05-2.87073E-05 3.32403E-06 4.63674E-19-5.97409E-19
 -1      3693 9.13703E-05-2.44020E-05-2.86878E-05 2.40771E-06-1.19732E-19 1.17621E-19
 -1      3694 9.04209E-05-2.36629E-05-2.86243E-05 3.60478E-06 4.53211E-19-9.51009E-19
 -1      3695 8.98213E-05-2.32293E-05-2.85439E-05 3.98573E-06 1.10542E-18-9.55458E-19
 -1      3696 9.01588E-05-2.34987E-05-2.85518E-05 2.87168E-06 5.55878E-19-1.40425E-18
 -1      3697 8.89634E-05-2.27273E-05-2.84045E-05 4.29514E-06 1.23226E-18-1.36681E-18
 -1      3698 8.82194E-05-2.22834E-05-2.82640E-05 4.72313E-06 8.19050E-19-1.32878E-18
 -1      3699 8.86391E-05-2.25102E-05-2.83189E-05 3.36768E-06 8.62719E-19-1.65814E-18
 -1      3700 8.71498E-05-2.17710E-05-2.80429E-05 5.07154E-06 4.49515E-19-1.41868E-18
 -1      3701 8.62472E-05-2.13589E-05-2.78152E-05 5.56699E-06 4.74955E-19-1.65573E-18
 -1      3702 8.67420E-05-2.14685E-05-2.79454E-05 3.89860E-06 5.59232E-19-2.49263E-18
 -1      3703 8.49132E-05-2.08778E-05-2.74767E-05 5.98779E-06-1.94099E-19-1.54688E-18
 -1      3704 8.38513E-05-2.05683E-05-2.71246E-05 6.60406E-06-8.41954E-19-1.74039E-18
 -1      3705 8.43785E-05-2.04252E-05-2.73699E-05 4.49659E-06-6.43464E-21-2.49845E-18
 -1      3706 8.21773E-05-2.01839E-05-2.66168E-05 7.17737E-06-4.98730E-19-2.21475E-18
 -1      3707 8.09819E-05-2.00948E-05-2.60904E-05 8.03160E-06-1.22758E-19-1.82712E-18
 -1      3708 8.14235E-05-1.94553E-05-2.65036E-05 5.25825E-06-3.96389E-19-2.43792E-18
 -1      3709 7.88339E-05-1.98863E-05-2.53360E-05 8.91193E-06 6.70717E-19-2.14960E-18
 -1      3710 7.75776E-05-2.02240E-05-2.45697E-05 1.02565E-05 7.59474E-19-1.90849E-18
 -1      3711 7.76907E-05-1.86525E-05-2.52148E-05 6.40519E-06-4.69193E-20-2.89682E-18
 -1      3712 9.57771E-05-2.90647E-05-2.85897E-05-6.34028E-07 1.22528E-19 1.53280E-19
 -1      3713 9.58246E-05-2.90966E-05-2.85975E-05-6.76158E-07 2.71447E-19 4.05284E-19
 -1      3714 6.62119E-05-1.84938E-05-2.03212E-05 1.20313E-05 1.10004E-18-2.19220E-18
 -1      3715 6.29429E-05-1.60766E-05-2.00909E-05 4.88638E-06 5.85842E-19-1.78740E-18
 -1      3716 9.59215E-05-2.85306E-05-2.88841E-05-8.36025E-07 2.55832E-19-1.25226E-18
 -1      3717 9.59520E-05-2.83402E-05-2.89699E-05-6.88111E-07 3.85227E-19-1.31260E-18
 -1      3718 9.61556E-05-2.86170E-05-2.89478E-05-7.84217E-07 2.64902E-19-1.28371E-18
 -1      3719 9.53659E-05-2.86040E-05-2.86108E-05-4.57395E-07 3.83351E-19-1.99264E-19
 -1      3720 9.54026E-05-2.86716E-05-2.86000E-05-4.55282E-07 2.64001E-19 6.50348E-20
 -1      3721 9.54628E-05-2.87430E-05-2.85928E-05-4.62310E-07 1.92864E-19 1.07604E-19
 -1      3722 9.54999E-05-2.88029E-05-2.85852E-05-4.77043E-07 4.51871E-20 1.19395E-19
 -1      3723 9.54719E-05-2.87229E-05-2.86072E-05-4.23829E-07 2.12995E-19-1.71979E-19
 -1      3724 9.51532E-05-2.82691E-05-2.86631E-05-5.64751E-07 2.24683E-19-2.58865E-19
 -1      3725 9.51963E-05-2.83565E-05-2.86473E-05-5.19053E-07-1.80670E-19-5.43570E-20
 -1      3726 9.50239E-05-2.80648E-05-2.86951E-05-6.90586E-07 3.01338E-19-8.06967E-20
 -1      3727 9.50742E-05-2.81649E-05-2.86776E-05-6.17671E-07 3.29570E-19-3.29965E-19
 -1      3728 9.50744E-05-2.81691E-05-2.86730E-05-5.50310E-07 4.11624E-19-5.10404E-19
 -1      3729 9.48699E-05-2.78304E-05-2.87294E-05-8.74940E-07 6.56142E-20 5.17051E-20
 -1      3730 9.49299E-05-2.79448E-05-2.87105E-05-7.70695E-07 1.80980E-19 2.23420E-19
 -1      3731 9.49028E-05-2.79286E-05-2.87021E-05-6.80580E-07 1.12705E-19-3.80772E-19
 -1      3732 9.46842E-05-2.75638E-05-2.87638E-05-1.12679E-06-1.47240E-19 6.64165E-19
 -1      3733 9.47561E-05-2.76929E-05-2.87446E-05-9.86778E-07 1.37032E-19 5.79235E-19
 -1      3734 9.46965E-05-2.76523E-05-2.87316E-05-8.67774E-07-1.80870E-19 7.08364E-19
 -1      3735 9.44618E-05-2.72666E-05-2.87955E-05-1.45592E-06-1.24489E-19-9.10284E-20
 -1      3736 9.45466E-05-2.74086E-05-2.87774E-05-1.27555E-06-3.69989E-19 3.02492E-19
 -1      3737 9.44468E-05-2.73379E-05-2.87588E-05-1.12138E-06-1.30811E-19 4.56082E-19
 -1      3738 9.42009E-05-2.69470E-05-2.88202E-05-1.87254E-06 5.28450E-19-4.83784E-19
 -1      3739 9.42975E-05-2.70963E-05-2.88052E-05-1.64740E-06 5.25153E-19 1.24140E-19
 -1      3740 9.41466E-05-2.69877E-05-2.87797E-05-1.45219E-06 1.47753E-19-2.24883E-19
 -1      3741 9.39060E-05-2.66229E-05-2.88321E-05-2.38680E-06-2.53855E-19-1.88098E-19
 -1      3742 9.40097E-05-2.67685E-05-2.88230E-05-2.11309E-06 2.43079E-19-1.41020E-19
 -1      3743 9.37925E-05-2.66113E-05-2.87889E-05-1.87237E-06 1.76964E-19 2.44395E-19
 -1      3744 9.35920E-05-2.63270E-05-2.88234E-05-3.00813E-06-7.26126E-19-1.35554E-19
 -1      3745 9.36921E-05-2.64499E-05-2.88240E-05-2.68327E-06-5.66701E-19-7.85863E-20
 -1      3746 9.33881E-05-2.62295E-05-2.87789E-05-2.39551E-06-5.22338E-19-2.60048E-19
 -1      3747 9.32902E-05-2.61130E-05-2.87845E-05-3.74445E-06-9.16166E-19-1.66356E-19
 -1      3748 9.33668E-05-2.61829E-05-2.87993E-05-3.36778E-06-8.69293E-19 9.35637E-20
 -1      3749 9.29481E-05-2.58797E-05-2.87405E-05-3.03680E-06-5.07656E-19-2.17751E-19
 -1      3750 9.30573E-05-2.60628E-05-2.87042E-05-4.60108E-06 2.64057E-21-4.68295E-19
 -1      3751 9.30764E-05-2.60340E-05-2.87385E-05-4.17492E-06-4.40492E-19 5.05810E-19
 -1      3752 9.25050E-05-2.56217E-05-2.86622E-05-3.81355E-06-1.03886E-18-3.53457E-19
 -1      3753 9.29870E-05-2.62950E-05-2.85716E-05-5.57882E-06-7.57058E-19-6.20533E-20
 -1      3754 9.28941E-05-2.61023E-05-2.86300E-05-5.11018E-06-5.34444E-19-1.69253E-19
 -1      3755 9.21182E-05-2.55464E-05-2.85309E-05-4.74565E-06-5.71329E-19-4.77997E-19
 -1      3756 9.32258E-05-2.69745E-05-2.83787E-05-6.66898E-06-7.84817E-19 5.51479E-19
 -1      3757 9.29385E-05-2.65288E-05-2.84636E-05-6.17327E-06-5.74156E-19 4.19898E-19
 -1      3758 9.18872E-05-2.57850E-05-2.83340E-05-5.85572E-06-6.75680E-19-5.01815E-20
 -1      3759 9.39929E-05-2.83164E-05-2.81271E-05-7.83886E-06-5.21644E-19-5.99804E-19
 -1      3760 9.33928E-05-2.75045E-05-2.82349E-05-7.34842E-06-9.05161E-19 4.41269E-19
 -1      3761 9.19715E-05-2.65217E-05-2.80622E-05-7.16505E-06-6.84312E-19-9.77324E-20
 -1      3762 9.55977E-05-3.05785E-05-2.78378E-05-9.00676E-06-3.48372E-19-7.42825E-19
 -1      3763 9.45217E-05-2.92681E-05-2.79532E-05-8.58696E-06-1.75216E-19-8.50093E-19
 -1      3764 9.26108E-05-2.79930E-05-2.77174E-05-8.67695E-06-2.35973E-19-8.57086E-19
 -1      3765 9.84760E-05-3.40557E-05-2.75734E-05-9.96444E-06-1.08706E-18-2.51157E-19
 -1      3766 9.67142E-05-3.21209E-05-2.76550E-05-9.77412E-06-1.05207E-18-1.92906E-19
 -1      3767 9.41562E-05-3.04995E-05-2.73226E-05-1.03657E-05-9.61877E-19-4.38196E-19
 -1      3768 1.03103E-04-3.89358E-05-2.74733E-05-1.02927E-05 3.77780E-19-4.31977E-19
 -1      3769 1.00472E-04-3.63190E-05-2.74409E-05-1.06010E-05-1.16872E-19-3.69373E-19
 -1      3770 9.71320E-05-3.43893E-05-2.69447E-05-1.20818E-05-4.60475E-19-1.03637E-18
 -1      3771 1.10043E-04-4.49324E-05-2.78520E-05-8.87372E-06-5.60120E-19-6.54306E-19
 -1      3772 1.06403E-04-4.18856E-05-2.75206E-05-1.02743E-05 1.58214E-19-6.69788E-19
 -1      3773 1.02415E-04-4.01898E-05-2.67739E-05-1.33163E-05-1.26856E-19-1.18623E-18
 -1      3774 1.14536E-04-4.95343E-05-2.77417E-05-1.05477E-05-4.05782E-19-1.16456E-18
 -1      3775 1.28579E-04-4.59190E-05-3.55672E-05 1.24692E-05-7.85014E-19-1.94714E-18
 -1      3776 1.21212E-04-3.43589E-05-3.73887E-05-8.92442E-06 1.10599E-18-1.95749E-18
 -1      3777 9.63433E-05-2.71021E-05-2.96686E-05-1.83692E-07-7.33892E-19-1.44442E-18
 -1      3778 9.64263E-05-2.76019E-05-2.95024E-05 1.16190E-07-6.38273E-19-1.45497E-18
 -1      3779 9.65726E-05-2.76966E-05-2.95180E-05 1.32432E-07-5.89543E-19-1.35555E-18
 -1      3780 9.54952E-05-2.50368E-05-3.01958E-05 1.77285E-06 9.84022E-19-1.68466E-18
 -1      3781 9.52648E-05-2.84474E-05-2.86346E-05-4.89395E-07-1.21388E-19 8.50559E-20
 -1      3782 9.53034E-05-2.85239E-05-2.86211E-05-4.67189E-07 6.50430E-19 1.82895E-19
 -1      3783 9.52206E-05-2.83783E-05-2.86464E-05-4.68724E-07-6.99097E-20 2.76092E-19
 -1      3784 9.38583E-05-2.10390E-05-3.12201E-05-7.73511E-07-4.32746E-19-2.34537E-18
 -1      3785 9.45994E-05-2.23624E-05-3.09373E-05-8.12365E-07-4.91190E-19-2.18102E-18
 -1      3786 9.38119E-05-2.09452E-05-3.12380E-05-2.13481E-07-2.61928E-19-2.38202E-18
 -1      3787 9.59444E-05-2.57320E-05-3.00771E-05-9.08329E-07-7.93745E-19-1.54370E-18
 -1      3788 9.61270E-05-2.64681E-05-2.98644E-05-4.60394E-07-7.85768E-19-1.49458E-18
 -1      3789 9.62691E-05-2.65671E-05-2.98702E-05-3.36808E-07-6.94603E-19-1.60900E-18
 -1      3790 9.44629E-05-2.23431E-05-3.09272E-05 2.55663E-06 8.82765E-19-2.28717E-18
 -1      3791 9.42486E-05-2.18464E-05-3.10333E-05 2.13458E-06 7.25088E-19-2.32351E-18
 -1      3792 9.48114E-05-2.28861E-05-3.08069E-05 1.54954E-06 5.59321E-19-2.04790E-18
 -1      3793 9.51008E-05-2.37081E-05-3.05807E-05 2.07110E-06 8.58022E-19-1.98967E-18
 -1      3794 7.34754E-05-2.13228E-05-2.22373E-05 1.36874E-05 9.20844E-19-2.30999E-18
 -1      3795 1.21593E-04-4.32586E-05-3.36640E-05-1.41078E-06 1.10538E-19 1.66389E-19
 -1      3796 7.41378E-05-1.99838E-05-2.32719E-05 1.13569E-05 7.45488E-19-2.36711E-18
 -1      3797 9.53231E-05-2.43400E-05-3.04359E-05-1.52350E-06-7.41961E-19-1.70809E-18
 -1      3798 9.45348E-05-2.22149E-05-3.09764E-05 1.25687E-08-2.53478E-19-2.11950E-18
 -1      3799 7.07393E-05-2.32327E-05-1.99936E-05-2.00962E-05-1.51176E-19-2.10375E-18
 -1      3800 8.15487E-05-3.03561E-05-2.20319E-05-2.19571E-05 6.39133E-19-2.59187E-18
 -1      3801 1.26897E-04-5.03110E-05-3.28513E-05 6.85302E-06-6.59878E-19-1.53871E-18
 -1      3802 9.58716E-05-2.90742E-05-2.86294E-05-8.89400E-07 2.59145E-19-1.27580E-19
 -1      3803 9.62695E-05-2.89878E-05-2.88356E-05-8.32403E-07-1.26559E-19-8.57075E-19
 -1      3804 9.63169E-05-2.88767E-05-2.88997E-05-7.90270E-07-3.08628E-20-9.34201E-19
 -1      3805 9.59993E-05-2.63773E-05-2.98448E-05 6.43914E-07 5.51295E-19-1.62889E-18
 -1      3806 9.58230E-05-2.57515E-05-3.00195E-05 1.07696E-06 7.59322E-19-1.65053E-18
 -1      3807 7.22489E-05-1.79203E-05-2.31548E-05 7.90128E-06 1.00882E-18-1.69705E-18
 -1      3808 9.61812E-05-2.81538E-05-2.91570E-05-4.87074E-07 4.06943E-19-1.77203E-18
 -1      3809 9.59896E-05-2.91758E-05-2.86361E-05-6.30017E-07 2.82908E-20-3.69997E-19
 -1      3810 9.58981E-05-2.91283E-05-2.86144E-05-7.16538E-07 7.40984E-20-1.17140E-19
 -1      3811 9.59499E-05-2.91426E-05-2.86309E-05-7.56220E-07-3.93100E-20-2.43037E-19
 -1      3812 9.57080E-05-2.90186E-05-2.85813E-05-5.95507E-07 1.88691E-19 2.74414E-19
 -1      3813 9.58487E-05-2.90977E-05-2.86089E-05-5.59448E-07 2.28732E-19 2.89102E-19
 -1      3814 9.56650E-05-2.89749E-05-2.85800E-05-5.57809E-07 1.69441E-19 3.02656E-20
 -1      3815 6.77485E-05-1.67246E-05-2.18306E-05 4.34011E-06 7.67686E-19-1.48666E-18
 -1      3816 6.32054E-05-1.54990E-05-2.02355E-05 6.84428E-07 5.64573E-19-1.48071E-18
 -1      3817 6.44803E-05-1.62803E-05-2.07769E-05-4.38681E-06 5.54461E-19-3.98529E-19
 -1      3818 9.53504E-05-2.85613E-05-2.86240E-05-4.28676E-07 2.29109E-19 1.73069E-19
 -1      3819 6.94033E-05-2.08037E-05-2.07507E-05-1.47548E-05 2.23326E-19-1.65252E-18
 -1      3820 9.62744E-05-2.75163E-05-2.94733E-05-6.10729E-08 5.69300E-19-1.48446E-18
 -1      3821 9.61987E-05-2.70196E-05-2.96418E-05 2.83697E-07 5.09046E-19-1.53833E-18
 -1      3822 9.61301E-05-2.64437E-05-2.98646E-05 5.04198E-07 4.97846E-19-1.46669E-18
 -1      3823 1.09620E-04-4.80258E-05-2.64841E-05-1.58092E-05-5.15651E-19-2.58699E-18
 -1      3824 1.24198E-04-5.15705E-05-3.13777E-05 2.37307E-06-6.14238E-19-4.44388E-19
 -1      3825 1.02322E-04-4.27068E-05-2.54802E-05-1.77908E-05 1.72737E-19-2.88503E-18
 -1      3826 9.51370E-05-2.35780E-05-3.06815E-05 8.35882E-07 1.62845E-19-1.99234E-18
 -1      3827 9.50785E-05-2.34040E-05-3.07240E-05 4.81899E-07-8.81754E-21-1.96644E-18
 -1      3828 9.55611E-05-2.88666E-05-2.85819E-05-4.97964E-07 1.36652E-19 3.49048E-19
 -1      3829 9.56005E-05-2.89190E-05-2.85782E-05-5.26154E-07 2.73228E-19 2.00193E-19
 -1      3830 9.57166E-05-2.89922E-05-2.85973E-05-4.95819E-07 1.98039E-19 6.37084E-19
 -1      3831 9.50789E-05-2.34022E-05-3.07255E-05-4.63621E-07-5.07934E-19-2.14973E-18
 -1      3832 9.51476E-05-2.35830E-05-3.06839E-05-8.37097E-07-5.83572E-19-2.17011E-18
 -1      3833 8.23796E-05-2.86559E-05-2.31152E-05-1.87756E-05 5.67661E-19-2.68341E-18
 -1      3834 8.88370E-05-3.38206E-05-2.33297E-05-2.12600E-05 4.29388E-19-2.95339E-18
 -1      3835 9.54728E-05-2.45132E-05-3.04181E-05-1.21340E-06-7.16877E-19-1.87220E-18
 -1      3836 9.54299E-05-2.43447E-05-3.04713E-05-9.55577E-07-6.19897E-19-1.98469E-18
 -1      3837 9.55654E-05-2.50036E-05-3.02503E-05 1.51256E-06 8.54745E-19-1.70006E-18
 -1      3838 9.61535E-05-2.91159E-05-2.87301E-05-8.39132E-07 9.97738E-20-6.86773E-19
 -1      3839 9.62077E-05-2.90638E-05-2.87737E-05-8.41091E-07 1.59904E-22-9.03463E-19
 -1      3840 9.64170E-05-2.90672E-05-2.88662E-05-7.36955E-07-6.74594E-20-9.16520E-19
 -1      3841 9.50493E-05-2.33337E-05-3.07449E-05 1.97109E-07-1.76728E-19-1.91314E-18
 -1      3842 9.50472E-05-2.33307E-05-3.07455E-05-1.77216E-07-5.27021E-19-1.87054E-18
 -1      3843 9.55880E-05-2.43753E-05-3.05055E-05-2.46974E-07-4.90503E-19-1.96872E-18
 -1      3844 9.55869E-05-2.43691E-05-3.05047E-05 2.41622E-07-1.71982E-19-1.85214E-18
 -1      3845 9.58439E-05-2.51714E-05-3.02827E-05-5.84371E-07-6.52710E-19-1.93114E-18
 -1      3846 9.54584E-05-2.45537E-05-3.03869E-05 1.36938E-06 6.47581E-19-1.87521E-18
 -1      3847 9.55922E-05-2.88663E-05-2.85976E-05-4.48248E-07 1.24382E-19-1.31394E-20
 -1      3848 7.11631E-05-1.71714E-05-2.31914E-05 4.16793E-06 4.04228E-19-1.16361E-18
 -1      3849 9.67843E-05-2.88189E-05-2.91262E-05 4.38527E-07-3.98593E-19-1.44265E-18
 -1      3850 9.67429E-05-2.89945E-05-2.90358E-05 4.97532E-07-3.05019E-19-1.32322E-18
 -1      3851 9.66890E-05-2.91266E-05-2.89534E-05 5.12243E-07-2.96572E-19-1.13563E-18
 -1      3852 9.66220E-05-2.92175E-05-2.88877E-05 5.31040E-07-2.04216E-19-9.68703E-19
 -1      3853 9.68106E-05-2.90670E-05-2.90343E-05 3.88471E-07-2.05454E-19-1.06001E-18
 -1      3854 9.65414E-05-2.92739E-05-2.88275E-05 5.25031E-07-2.68203E-19-1.03333E-18
 -1      3855 9.64618E-05-2.93046E-05-2.87810E-05 5.19331E-07-1.49094E-19-1.18338E-18
 -1      3856 9.66758E-05-2.92700E-05-2.88898E-05 4.10113E-07-3.31000E-19-9.57620E-19
 -1      3857 9.63693E-05-2.93100E-05-2.87386E-05 5.01562E-07 4.94551E-21-1.29087E-18
 -1      3858 9.62865E-05-2.93005E-05-2.87073E-05 4.82229E-07-1.75429E-19-9.47365E-19
 -1      3859 9.65032E-05-2.93415E-05-2.87855E-05 3.98977E-07-1.22438E-19-1.48978E-18
 -1      3860 9.61909E-05-2.92719E-05-2.86789E-05 4.58938E-07-2.93919E-19-8.75444E-19
 -1      3861 9.61100E-05-2.92355E-05-2.86593E-05 4.34284E-07-1.03155E-19-7.23770E-19
 -1      3862 9.63166E-05-2.93233E-05-2.87133E-05 3.69977E-07 1.47612E-19-8.98134E-19
 -1      3863 9.60167E-05-2.91846E-05-2.86419E-05 4.10805E-07-2.09310E-19-9.71760E-19
 -1      3864 9.59399E-05-2.91302E-05-2.86315E-05 3.86738E-07-5.50415E-20-8.90838E-19
 -1      3865 9.61292E-05-2.92448E-05-2.86665E-05 3.33600E-07-1.91949E-19-7.27230E-19
 -1      3866 9.58507E-05-2.90642E-05-2.86227E-05 3.66501E-07 6.16158E-20-1.11787E-18
 -1      3867 9.57782E-05-2.89970E-05-2.86193E-05 3.47331E-07-1.33625E-19-1.47362E-18
 -1      3868 9.59483E-05-2.91264E-05-2.86394E-05 2.98655E-07-2.33989E-19-1.47377E-18
 -1      3869 9.56924E-05-2.89195E-05-2.86172E-05 3.32887E-07-3.42834E-19-1.38835E-18
 -1      3870 9.56225E-05-2.88417E-05-2.86193E-05 3.21910E-07-3.30059E-19-1.16086E-18
 -1      3871 9.57750E-05-2.89795E-05-2.86277E-05 2.70805E-07-1.85249E-19-1.52657E-18
 -1      3872 9.55375E-05-2.87535E-05-2.86222E-05 3.15287E-07-3.54281E-19-1.37297E-18
 -1      3873 9.54673E-05-2.86649E-05-2.86287E-05 3.15186E-07-4.18537E-19-1.46937E-18
 -1      3874 9.56059E-05-2.88089E-05-2.86279E-05 2.54544E-07-5.53713E-19-1.29123E-18
 -1      3875 9.53789E-05-2.85648E-05-2.86355E-05 3.18095E-07-1.30535E-19-1.11359E-18
 -1      3876 9.53041E-05-2.84633E-05-2.86453E-05 3.31243E-07 1.36814E-19-7.92693E-19
 -1      3877 9.54344E-05-2.86144E-05-2.86373E-05 2.53473E-07-8.72891E-20-1.02961E-18
 -1      3878 9.52069E-05-2.83483E-05-2.86550E-05 3.45247E-07 1.34819E-19-7.28655E-19
 -1      3879 9.51222E-05-2.82307E-05-2.86672E-05 3.73899E-07 8.48207E-21-2.26541E-19
 -1      3880 9.52510E-05-2.83920E-05-2.86535E-05 2.70656E-07 2.95698E-19-9.49851E-19
 -1      3881 9.50094E-05-2.80965E-05-2.86788E-05 4.00492E-07 6.53746E-20-2.88213E-19
 -1      3882 9.49083E-05-2.79581E-05-2.86926E-05 4.46863E-07 1.77992E-19-3.70623E-20
 -1      3883 9.50435E-05-2.81344E-05-2.86743E-05 3.08825E-07 1.77375E-19-8.34258E-19
 -1      3884 9.47716E-05-2.77995E-05-2.87047E-05 4.87441E-07 3.39722E-19 2.99989E-19
 -1      3885 9.46463E-05-2.76351E-05-2.87190E-05 5.53670E-07 4.20870E-19 3.55096E-19
 -1      3886 9.47971E-05-2.78321E-05-2.86974E-05 3.70386E-07 3.99859E-19-9.62389E-19
 -1      3887 9.44762E-05-2.74460E-05-2.87303E-05 6.09396E-07-2.31925E-20 5.18003E-19
 -1      3888 9.43171E-05-2.72496E-05-2.87436E-05 6.97371E-07-1.56746E-19 1.78633E-19
 -1      3889 9.44943E-05-2.74741E-05-2.87201E-05 4.57217E-07 3.29738E-19-4.28940E-19
 -1      3890 9.41024E-05-2.70237E-05-2.87519E-05 7.68902E-07 1.28458E-20 1.40212E-19
 -1      3891 9.38983E-05-2.67894E-05-2.87619E-05 8.79943E-07-2.27010E-19 8.71437E-20
 -1      3892 9.41144E-05-2.70483E-05-2.87387E-05 5.70202E-07-1.25558E-19-2.46360E-19
 -1      3893 9.36260E-05-2.65206E-05-2.87642E-05 9.67025E-07-4.94836E-19 1.30930E-19
 -1      3894 9.33635E-05-2.62426E-05-2.87679E-05 1.10144E-06-6.56153E-19 1.74200E-19
 -1      3895 9.36337E-05-2.65428E-05-2.87479E-05 7.08488E-07-1.45714E-19-4.25321E-20
 -1      3896 9.30186E-05-2.59256E-05-2.87600E-05 1.20236E-06-7.12635E-19 4.06633E-19
 -1      3897 9.26818E-05-2.55992E-05-2.87526E-05 1.35888E-06-1.37466E-19 3.74796E-19
 -1      3898 9.30246E-05-2.59469E-05-2.87404E-05 8.68448E-07-5.22150E-19-5.65575E-20
 -1      3899 9.22470E-05-2.52301E-05-2.87286E-05 1.46988E-06-1.84980E-19-3.04577E-19
 -1      3900 9.18171E-05-2.48528E-05-2.87034E-05 1.64518E-06-4.81927E-19 7.17207E-21
 -1      3901 9.22552E-05-2.52526E-05-2.87059E-05 1.04240E-06-5.16032E-19-1.25138E-19
 -1      3902 9.12722E-05-2.44304E-05-2.86550E-05 1.75988E-06-5.56100E-19-2.77102E-19
 -1      3903 9.07269E-05-2.40025E-05-2.86027E-05 1.94838E-06 9.75393E-20-3.15765E-19
 -1      3904 9.12888E-05-2.44564E-05-2.86301E-05 1.21727E-06-4.96706E-19-7.64885E-19
 -1      3905 9.00477E-05-2.35294E-05-2.85183E-05 2.05763E-06 1.34916E-19-8.00026E-19
 -1      3906 8.93606E-05-2.30557E-05-2.84256E-05 2.25219E-06 1.95853E-19-1.32112E-18
 -1      3907 9.00823E-05-2.35610E-05-2.84931E-05 1.37349E-06-4.34270E-19-5.85009E-19
 -1      3908 8.85167E-05-2.25392E-05-2.82893E-05 2.34478E-06 6.61017E-19-1.78313E-18
 -1      3909 8.76556E-05-2.20305E-05-2.81378E-05 2.53915E-06 6.94182E-19-1.72656E-18
 -1      3910 8.85830E-05-2.25769E-05-2.82673E-05 1.48500E-06 1.90452E-19-1.54782E-18
 -1      3911 8.66059E-05-2.14831E-05-2.79272E-05 2.60418E-06 3.72921E-19-2.02243E-18
 -1      3912 8.55298E-05-2.09570E-05-2.76911E-05 2.79874E-06-1.22836E-20-2.40457E-18
 -1      3913 8.67221E-05-2.15227E-05-2.79149E-05 1.52134E-06 2.81514E-19-2.17607E-18
 -1      3914 8.42133E-05-2.03952E-05-2.73751E-05 2.83042E-06-2.74508E-19-2.30169E-18
 -1      3915 8.28653E-05-1.98749E-05-2.70179E-05 3.04329E-06-8.77341E-20-2.68245E-18
 -1      3916 8.44031E-05-2.04228E-05-2.73826E-05 1.45292E-06-2.26499E-19-1.46096E-18
 -1      3917 8.11860E-05-1.93211E-05-2.65502E-05 3.05323E-06 9.49686E-20-2.41168E-18
 -1      3918 7.94762E-05-1.88334E-05-2.60176E-05 3.33587E-06-3.91974E-19-2.36594E-18
 -1      3919 8.14768E-05-1.93002E-05-2.65938E-05 1.26548E-06-7.82926E-20-1.85799E-18
 -1      3920 7.72774E-05-1.83312E-05-2.53260E-05 3.34959E-06-1.45081E-19-2.26313E-18
 -1      3921 7.50932E-05-1.78880E-05-2.45539E-05 3.76465E-06 3.52956E-19-2.14978E-18
 -1      3922 7.77378E-05-1.81723E-05-2.54312E-05 9.87883E-07-2.66293E-19-1.55829E-18
 -1      3923 6.79757E-05-1.77228E-05-2.12959E-05-9.83036E-06 6.91745E-19-5.69931E-19
 -1      3924 7.37255E-05-2.19145E-05-2.23138E-05-1.42404E-05 8.64996E-19-2.06985E-18
 -1      3925 9.65148E-05-2.88088E-05-2.90186E-05-6.57715E-07-1.28742E-20-8.89659E-19
 -1      3926 9.63539E-05-2.87243E-05-2.89860E-05-7.35384E-07 5.93694E-20-1.01423E-18
 -1      3927 9.63824E-05-2.85270E-05-2.90768E-05-6.24501E-07 9.22502E-20-1.15032E-18
 -1      3928 9.47894E-05-2.78012E-05-2.87082E-05-6.33606E-07-3.55472E-19 3.78940E-19
 -1      3929 9.48840E-05-2.79373E-05-2.86938E-05-5.58153E-07 3.41244E-19-2.11892E-20
 -1      3930 9.49994E-05-2.80735E-05-2.86815E-05-5.06135E-07 4.35223E-19-3.29218E-19
 -1      3931 9.50789E-05-2.81915E-05-2.86678E-05-4.55586E-07 5.78703E-19-3.81706E-19
 -1      3932 9.48956E-05-2.79534E-05-2.86882E-05-4.55906E-07-6.90358E-21-3.29550E-19
 -1      3933 9.42266E-05-2.71289E-05-2.87550E-05-1.05683E-06 1.85397E-19-6.01917E-19
 -1      3934 9.43650E-05-2.73060E-05-2.87434E-05-9.18254E-07 3.69965E-19-9.69927E-20
 -1      3935 9.38539E-05-2.67283E-05-2.87667E-05-1.37365E-06 5.40431E-20-1.53847E-19
 -1      3936 9.40191E-05-2.69239E-05-2.87597E-05-1.19553E-06-1.90362E-19-6.61355E-19
 -1      3937 9.39611E-05-2.68814E-05-2.87448E-05-9.76358E-07 1.72651E-19-4.79759E-19
 -1      3938 9.34119E-05-2.62953E-05-2.87624E-05-1.77810E-06-3.69631E-19 4.44030E-19
 -1      3939 9.36042E-05-2.65027E-05-2.87635E-05-1.55408E-06 1.07981E-19 1.98127E-19
 -1      3940 9.35073E-05-2.64261E-05-2.87445E-05-1.27766E-06-3.03952E-19 1.34243E-19
 -1      3941 9.29024E-05-2.58515E-05-2.87335E-05-2.28667E-06-6.02936E-19 5.14552E-19
 -1      3942 9.31175E-05-2.60574E-05-2.87468E-05-2.00943E-06-5.49731E-19 3.60542E-19
 -1      3943 9.29665E-05-2.59333E-05-2.87231E-05-1.66728E-06-4.12183E-19 2.85550E-19
 -1      3944 9.23385E-05-2.54355E-05-2.86688E-05-2.91967E-06-7.69735E-19 1.79666E-19
 -1      3945 9.25652E-05-2.56172E-05-2.86999E-05-2.58063E-06-5.99720E-19 1.00612E-19
 -1      3946 9.23376E-05-2.54258E-05-2.86703E-05-2.16631E-06-4.16394E-19-3.90974E-19
 -1      3947 9.17513E-05-2.51091E-05-2.85550E-05-3.70280E-06-1.35436E-18 1.19133E-19
 -1      3948 9.19670E-05-2.52311E-05-2.86103E-05-3.29155E-06-1.26657E-18 3.32243E-20
 -1      3949 9.16303E-05-2.49444E-05-2.85730E-05-2.80268E-06-8.37023E-19 2.27083E-19
 -1      3950 9.11988E-05-2.49654E-05-2.83766E-05-4.66928E-06-6.61925E-19 1.61270E-19
 -1      3951 9.13647E-05-2.49748E-05-2.84631E-05-4.17292E-06-1.17242E-18-7.89747E-20
 -1      3952 9.08707E-05-2.45530E-05-2.84153E-05-3.61413E-06-1.33293E-18 6.63500E-19
 -1      3953 9.07797E-05-2.51382E-05-2.81179E-05-5.86220E-06-8.77485E-19 6.39921E-19
 -1      3954 9.08317E-05-2.49595E-05-2.82421E-05-5.26505E-06-3.85170E-19 2.67183E-19
 -1      3955 9.01101E-05-2.43471E-05-2.81786E-05-4.65253E-06-9.22692E-19 4.28297E-19
 -1      3956 9.06525E-05-2.58162E-05-2.77656E-05-7.33569E-06-4.70527E-19-8.87827E-20
 -1      3957 9.04899E-05-2.53431E-05-2.79315E-05-6.62147E-06-8.63378E-19-7.15384E-20
 -1      3958 8.94357E-05-2.44624E-05-2.78431E-05-5.99008E-06-2.96444E-19 2.93462E-19
 -1      3959 9.10705E-05-2.72533E-05-2.73179E-05-9.12911E-06-2.95205E-19-4.90927E-19
 -1      3960 9.05452E-05-2.63551E-05-2.75209E-05-8.29990E-06-3.91758E-19-3.88655E-19
 -1      3961 8.90004E-05-2.51007E-05-2.73896E-05-7.73062E-06-4.78416E-19-4.10873E-19
 -1      3962 9.23852E-05-2.97754E-05-2.67902E-05-1.12912E-05-1.04861E-18-1.20459E-18
 -1      3963 9.12865E-05-2.82722E-05-2.70160E-05-1.03474E-05-7.95545E-19-9.48808E-19
 -1      3964 8.90472E-05-2.65055E-05-2.68085E-05-9.97162E-06-4.21889E-19-1.32633E-18
 -1      3965 9.76256E-05-3.79517E-05-2.54947E-05-1.66353E-05 6.31569E-20-2.43342E-18
 -1      3966 9.45284E-05-3.47735E-05-2.55941E-05-1.58384E-05 2.89210E-19-2.26206E-18
 -1      3967 7.91439E-05-2.46829E-05-2.31217E-05-1.60014E-05 1.35911E-19-3.28590E-18
 -1      3968 8.47162E-05-2.81747E-05-2.42334E-05-1.61278E-05 2.09905E-19-2.87672E-18
 -1      3969 7.62120E-05-2.17064E-05-2.34930E-05-1.21368E-05 5.99031E-19-1.47618E-18
 -1      3970 9.53575E-05-2.42035E-05-3.05087E-05 1.28640E-06 4.70254E-19-1.83110E-18
 -1      3971 9.52550E-05-2.38702E-05-3.05957E-05 1.00975E-06 2.21478E-19-1.87059E-18
 -1      3972 9.56992E-05-2.47360E-05-3.03979E-05 6.32989E-07 5.13318E-20-1.77926E-18
 -1      3973 9.58564E-05-2.53788E-05-3.01942E-05 8.20318E-07 4.03968E-19-1.61747E-18
 -1      3974 9.60257E-05-2.91524E-05-2.86591E-05-7.91120E-07 4.06011E-20-4.20124E-19
 -1      3975 9.60806E-05-2.91405E-05-2.86872E-05-8.18824E-07 2.18671E-19-4.58682E-19
 -1      3976 9.62843E-05-2.91877E-05-2.87577E-05-7.38824E-07-3.78559E-20-8.33345E-19
 -1      3977 9.61371E-05-2.92130E-05-2.86837E-05-6.95675E-07-7.26406E-20-4.78885E-19
 -1      3978 9.53321E-05-2.85151E-05-2.86348E-05-3.78730E-07-1.51046E-19 2.12796E-19
 -1      3979 9.53950E-05-2.86052E-05-2.86251E-05-3.67452E-07 2.54407E-19 1.97679E-19
 -1      3980 9.30076E-05-3.69172E-05-2.41441E-05-2.04918E-05 8.75041E-19-3.23687E-18
 -1      3981 9.51768E-05-2.83095E-05-2.86564E-05-4.23455E-07 3.18650E-19-4.04088E-19
 -1      3982 9.52457E-05-2.84121E-05-2.86443E-05-3.94150E-07-1.24146E-19-5.06450E-20
 -1      3983 9.52892E-05-2.84515E-05-2.86445E-05-3.29353E-07 1.78782E-19 4.74862E-20
 -1      3984 9.62173E-05-2.60705E-05-3.00614E-05-4.21726E-07-6.88752E-19-1.87898E-18
 -1      3985 9.64370E-05-2.67686E-05-2.98617E-05-1.30490E-07-5.85028E-19-1.90562E-18
 -1      3986 9.59750E-05-2.53786E-05-3.02559E-05-3.26898E-07-5.72080E-19-2.05292E-18
 -1      3987 9.56146E-05-2.88565E-05-2.86094E-05-3.80125E-07 2.99007E-19-3.49162E-19
 -1      3988 9.56760E-05-2.89267E-05-2.86071E-05-3.96107E-07 4.45472E-19-1.14852E-19
 -1      3989 9.66355E-05-2.73830E-05-2.96790E-05-2.45612E-08-4.86406E-19-1.87548E-18
 -1      3990 9.67359E-05-2.78566E-05-2.95215E-05 1.69719E-07-6.28897E-19-1.88200E-18
 -1      3991 9.65686E-05-2.69207E-05-2.98488E-05-6.83284E-08-5.31773E-19-1.96896E-18
 -1      3992 9.63753E-05-2.82642E-05-2.91938E-05-5.00092E-07 1.91624E-19-1.27145E-18
 -1      3993 9.63651E-05-2.79425E-05-2.93187E-05-2.90097E-07 4.56642E-19-1.38525E-18
 -1      3994 9.65415E-05-2.83485E-05-2.92264E-05-4.60942E-07 9.38700E-20-1.08892E-18
 -1      3995 9.54753E-05-2.86961E-05-2.86185E-05-3.66069E-07 2.09917E-19-1.49983E-19
 -1      3996 9.55358E-05-2.87757E-05-2.86121E-05-3.69875E-07-1.48437E-20-1.81233E-19
 -1      3997 9.54541E-05-2.86542E-05-2.86288E-05-3.11623E-07 1.19340E-19 5.95078E-19
 -1      3998 9.45354E-05-2.74872E-05-2.87339E-05-8.13961E-07-1.11431E-19 3.71192E-19
 -1      3999 9.46498E-05-2.76435E-05-2.87200E-05-7.09380E-07-3.56898E-19-4.88265E-20
 -1      4000 9.46431E-05-2.76448E-05-2.87115E-05-5.76996E-07-1.34760E-19 1.11087E-19
 -1      4001 9.67985E-05-2.82723E-05-2.93674E-05 2.52899E-07-6.26193E-19-1.77160E-18
 -1      4002 9.68086E-05-2.85709E-05-2.92461E-05 3.71929E-07-4.54418E-19-1.74356E-18
 -1      4003 9.68891E-05-2.86700E-05-2.92378E-05 2.88626E-07-2.56990E-19-1.55160E-18
 -1      4004 9.68459E-05-2.79886E-05-2.95111E-05 1.23063E-07-4.11309E-19-1.87536E-18
 -1      4005 8.92606E-05-3.06986E-05-2.50735E-05-1.60614E-05 1.41842E-19-2.22537E-18
 -1      4006 9.44615E-05-3.30309E-05-2.62624E-05-1.34620E-05-3.84531E-19-1.63950E-18
 -1      4007 9.24961E-05-3.08007E-05-2.64530E-05-1.25333E-05-7.14743E-19-1.35559E-18
 -1      4008 8.51131E-05-2.70872E-05-2.49941E-05-1.40721E-05-3.67654E-19-2.48776E-18
 -1      4009 9.59744E-05-2.53401E-05-3.02774E-05-1.32418E-07-4.88197E-19-1.90452E-18
 -1      4010 9.65380E-05-2.91549E-05-2.88786E-05-6.34296E-07-2.81123E-20-8.79503E-19
 -1      4011 9.65987E-05-2.90567E-05-2.89444E-05-6.09573E-07-2.06073E-20-7.70816E-19
 -1      4012 9.60630E-05-2.92116E-05-2.86494E-05-5.25875E-07 6.05589E-20-3.79514E-19
 -1      4013 9.61369E-05-2.92418E-05-2.86685E-05-5.55696E-07 3.56233E-20-3.36920E-19
 -1      4014 9.60366E-05-2.56629E-05-3.01702E-05 5.01515E-07 4.44667E-20-1.65034E-18
 -1      4015 9.59651E-05-2.53766E-05-3.02533E-05 3.87400E-07-8.77780E-20-1.61314E-18
 -1      4016 6.94481E-05-1.74559E-05-2.23043E-05-5.08189E-06 7.91569E-19-6.35543E-19
 -1      4017 7.16012E-05-1.66435E-05-2.33891E-05 7.15116E-07 5.41493E-19-1.40999E-18
 -1      4018 9.59056E-05-2.91186E-05-2.86217E-05-4.66636E-07 5.33869E-20-4.98956E-20
 -1      4019 9.59747E-05-2.91665E-05-2.86317E-05-4.96638E-07 9.00345E-21-2.64276E-19
 -1      4020 9.61037E-05-2.92330E-05-2.86606E-05-4.27949E-07 6.89103E-20-4.11519E-19
 -1      4021 9.64361E-05-2.75958E-05-2.95029E-05-9.40130E-08 3.77142E-19-1.10158E-18
 -1      4022 9.56115E-05-2.88331E-05-2.86200E-05-3.17505E-07 1.38470E-19-8.56184E-21
 -1      4023 9.51068E-05-2.82201E-05-2.86650E-05-3.75588E-07 3.69869E-19-5.83926E-19
 -1      4024 8.94030E-05-2.84264E-05-2.61321E-05-1.25159E-05-4.04247E-19-1.67803E-18
 -1      4025 9.61432E-05-2.62249E-05-2.99703E-05 5.46411E-07 3.82705E-19-1.40630E-18
 -1      4026 9.60796E-05-2.58752E-05-3.00855E-05 5.16586E-07 1.09017E-19-1.51257E-18
 -1      4027 9.63282E-05-2.64336E-05-2.99510E-05 2.46158E-07-1.81213E-20-1.42386E-18
 -1      4028 9.63440E-05-2.68880E-05-2.97672E-05 1.96241E-07 3.00839E-19-1.28819E-18
 -1      4029 9.66468E-05-2.89163E-05-2.90284E-05-5.84655E-07-1.39234E-19-7.43077E-19
 -1      4030 9.66800E-05-2.87297E-05-2.91196E-05-5.12321E-07-6.99065E-20-8.07775E-19
 -1      4031 9.67433E-05-2.89948E-05-2.90364E-05-4.83861E-07 2.87481E-21-7.55025E-19
 -1      4032 9.57565E-05-2.89980E-05-2.86095E-05-4.15606E-07 1.36577E-19-1.09561E-19
 -1      4033 9.58212E-05-2.90583E-05-2.86126E-05-4.40563E-07 1.03605E-19 3.97957E-20
 -1      4034 9.59324E-05-2.91261E-05-2.86327E-05-3.81116E-07-9.36432E-20-8.89097E-19
 -1      4035 9.57691E-05-2.89908E-05-2.86204E-05-3.42331E-07 2.07159E-19-4.93212E-19
 -1      4036 9.43359E-05-2.72884E-05-2.87319E-05-7.47076E-07 3.89480E-19-3.01393E-19
 -1      4037 9.59547E-05-2.53061E-05-3.02879E-05 2.54515E-07-1.62271E-19-1.64246E-18
 -1      4038 9.59467E-05-2.52405E-05-3.03087E-05 5.02630E-08-2.99951E-19-1.66941E-18
 -1      4039 9.63101E-05-2.61214E-05-3.00694E-05 1.71012E-07-2.52621E-19-1.54588E-18
 -1      4040 9.64620E-05-2.92181E-05-2.88173E-05-6.32759E-07-3.72147E-20-8.78146E-19
 -1      4041 9.66173E-05-2.92151E-05-2.88886E-05-5.19343E-07 1.72798E-20-7.26599E-19
 -1      4042 9.63907E-05-2.92572E-05-2.87711E-05-6.27654E-07-8.51032E-20-6.56136E-19
 -1      4043 9.62786E-05-2.92981E-05-2.87085E-05-4.75876E-07-9.03700E-20-3.23150E-19
 -1      4044 9.62262E-05-2.92637E-05-2.86973E-05-5.82640E-07-2.05449E-19-2.44117E-19
 -1      4045 9.63042E-05-2.92676E-05-2.87282E-05-6.03412E-07-1.60735E-19-4.69470E-19
 -1      4046 8.19659E-05-2.39500E-05-2.47820E-05-1.23722E-05-5.33527E-19-2.20129E-18
 -1      4047 8.60584E-05-2.63838E-05-2.55398E-05-1.25046E-05-5.77181E-19-2.58075E-18
 -1      4048 8.60069E-05-2.56671E-05-2.59159E-05-1.12415E-05-2.10921E-19-2.54639E-18
 -1      4049 7.33968E-05-1.80571E-05-2.37328E-05-4.07788E-06 4.46949E-19-4.46853E-19
 -1      4050 9.67867E-05-2.92614E-05-2.89381E-05 2.80410E-07-3.85002E-19-1.01141E-18
 -1      4051 9.67062E-05-2.93278E-05-2.88761E-05 2.87632E-07-4.08686E-19-1.17893E-18
 -1      4052 9.66131E-05-2.93607E-05-2.88214E-05 2.80260E-07-4.15195E-19-9.41439E-19
 -1      4053 9.65233E-05-2.93725E-05-2.87774E-05 2.77482E-07-1.06319E-19-1.27112E-18
 -1      4054 9.66993E-05-2.93544E-05-2.88642E-05 1.56841E-07-3.65770E-19-1.04490E-18
 -1      4055 9.64209E-05-2.93610E-05-2.87391E-05 2.61581E-07 2.08100E-19-1.38589E-18
 -1      4056 9.63261E-05-2.93342E-05-2.87094E-05 2.52406E-07 1.37735E-19-1.34073E-18
 -1      4057 9.65132E-05-2.93879E-05-2.87713E-05 1.46514E-07-1.50543E-19-9.70735E-19
 -1      4058 9.62237E-05-2.92918E-05-2.86842E-05 2.38268E-07-1.25540E-19-1.34473E-18
 -1      4059 9.61307E-05-2.92405E-05-2.86659E-05 2.26822E-07-4.28044E-19-1.33104E-18
 -1      4060 9.63084E-05-2.93334E-05-2.87072E-05 1.35731E-07 4.70775E-20-1.84017E-18
 -1      4061 9.60314E-05-2.91781E-05-2.86508E-05 2.13970E-07-5.33168E-19-1.08011E-18
 -1      4062 9.59424E-05-2.91100E-05-2.86413E-05 2.03387E-07-1.54062E-19-1.29194E-18
 -1      4063 9.61091E-05-2.92279E-05-2.86665E-05 1.23256E-07-2.51241E-19-1.51859E-18
 -1      4064 9.58468E-05-2.90330E-05-2.86342E-05 1.93213E-07 1.62819E-20-1.56879E-18
 -1      4065 9.57611E-05-2.89521E-05-2.86314E-05 1.86004E-07-3.41655E-19-1.45009E-18
 -1      4066 9.59165E-05-2.90861E-05-2.86440E-05 1.11856E-07-2.02601E-19-1.31188E-18
 -1      4067 9.56674E-05-2.88629E-05-2.86305E-05 1.79420E-07-5.31085E-19-1.20065E-18
 -1      4068 9.55825E-05-2.87704E-05-2.86330E-05 1.77551E-07-3.71170E-19-1.13574E-18
 -1      4069 9.57295E-05-2.89166E-05-2.86357E-05 1.03966E-07-2.37865E-19-1.86985E-18
 -1      4070 9.54872E-05-2.86690E-05-2.86367E-05 1.75226E-07-1.49526E-19-9.94145E-19
 -1      4071 9.53990E-05-2.85637E-05-2.86432E-05 1.80270E-07 2.11589E-19-8.71313E-19
 -1      4072 9.55432E-05-2.87220E-05-2.86383E-05 1.01138E-07-1.79927E-19-1.02642E-18
 -1      4073 9.52969E-05-2.84480E-05-2.86503E-05 1.82728E-07 2.94045E-19-9.65216E-19
 -1      4074 9.52001E-05-2.83270E-05-2.86596E-05 1.95982E-07 4.30039E-19-9.34880E-19
 -1      4075 9.53489E-05-2.85003E-05-2.86490E-05 1.04454E-07 1.22682E-19-1.58930E-18
 -1      4076 9.50848E-05-2.81934E-05-2.86690E-05 2.03623E-07 2.66761E-19-6.93204E-19
 -1      4077 9.49724E-05-2.80525E-05-2.86801E-05 2.26137E-07 2.08101E-19-7.95872E-19
 -1      4078 9.51353E-05-2.82457E-05-2.86653E-05 1.14591E-07 5.45435E-19-1.47622E-18
 -1      4079 9.48361E-05-2.78961E-05-2.86904E-05 2.39177E-07 4.87890E-19-7.75322E-19
 -1      4080 9.47001E-05-2.77302E-05-2.87019E-05 2.71681E-07 5.91420E-19-9.48927E-19
 -1      4081 9.48882E-05-2.79498E-05-2.86848E-05 1.31726E-07 3.83077E-19-1.15062E-18
 -1      4082 9.45338E-05-2.75456E-05-2.87117E-05 2.90005E-07 5.14063E-19-1.09334E-18
 -1      4083 9.43644E-05-2.73489E-05-2.87220E-05 3.32713E-07 2.97214E-19-1.11378E-18
 -1      4084 9.45911E-05-2.76026E-05-2.87045E-05 1.55279E-07 3.71755E-19-1.00646E-18
 -1      4085 9.41578E-05-2.71304E-05-2.87292E-05 3.55620E-07 1.44118E-19-1.22570E-18
 -1      4086 9.39438E-05-2.68971E-05-2.87362E-05 4.07898E-07-2.86070E-19-1.55941E-18
 -1      4087 9.42245E-05-2.71929E-05-2.87208E-05 1.83444E-07 2.50259E-20-1.93734E-18
 -1      4088 9.36852E-05-2.66392E-05-2.87380E-05 4.33711E-07-2.88393E-19-1.22666E-18
 -1      4089 9.34136E-05-2.63639E-05-2.87386E-05 4.93583E-07-2.16806E-20-1.22719E-18
 -1      4090 9.37668E-05-2.67100E-05-2.87289E-05 2.12482E-07-4.81951E-20-2.47490E-18
 -1      4091 9.30902E-05-2.60620E-05-2.87312E-05 5.19107E-07-9.61709E-20-1.19179E-18
 -1      4092 9.27456E-05-2.57406E-05-2.87210E-05 5.82603E-07-2.87105E-19-1.02238E-18
 -1      4093 9.31936E-05-2.61447E-05-2.87223E-05 2.35684E-07-2.16005E-19-1.68094E-18
 -1      4094 9.23435E-05-2.53921E-05-2.86992E-05 6.02402E-07-3.26165E-19-6.95549E-19
 -1      4095 9.19083E-05-2.50222E-05-2.86721E-05 6.62785E-07-5.40255E-19-5.21643E-19
 -1      4096 9.24779E-05-2.54908E-05-2.86917E-05 2.41982E-07-1.31061E-19-1.41382E-18
 -1      4097 9.14120E-05-2.46273E-05-2.86288E-05 6.68308E-07-7.12128E-19-6.20498E-19
 -1      4098 9.08655E-05-2.42097E-05-2.85764E-05 7.15265E-07-5.97815E-19-7.67809E-19
 -1      4099 9.15903E-05-2.47474E-05-2.86247E-05 2.14154E-07-6.17485E-19-8.44942E-19
 -1      4100 9.02582E-05-2.37725E-05-2.85017E-05 6.93838E-07-7.24069E-19-7.68520E-19
 -1      4101 8.95754E-05-2.33114E-05-2.84124E-05 7.12850E-07-4.37309E-19-1.42213E-18
 -1      4102 9.04983E-05-2.39207E-05-2.85046E-05 1.26613E-07-6.47996E-19-9.27411E-19
 -1      4103 8.88370E-05-2.28408E-05-2.82933E-05 6.46613E-07-5.26140E-19-1.25346E-18
 -1      4104 8.79863E-05-2.23449E-05-2.81512E-05 6.18839E-07-1.46764E-19-1.55163E-18
 -1      4105 8.91650E-05-2.30256E-05-2.83084E-05-5.72519E-08-6.57401E-19-1.83130E-18
 -1      4106 8.70910E-05-2.18543E-05-2.79697E-05 4.83724E-07 3.03396E-19-1.55564E-18
 -1      4107 8.60293E-05-2.13358E-05-2.77527E-05 3.86893E-07 1.72881E-20-1.81693E-18
 -1      4108 8.75452E-05-2.20864E-05-2.80055E-05-3.88394E-07-2.04956E-19-1.29960E-18
 -1      4109 8.49391E-05-2.08421E-05-2.74843E-05 1.52312E-07 1.17523E-20-1.53635E-18
 -1      4110 8.36022E-05-2.03154E-05-2.71613E-05-3.64140E-08 1.33094E-19-1.18193E-18
 -1      4111 8.55761E-05-2.11354E-05-2.75541E-05-9.36792E-07 1.60906E-19-1.47572E-18
 -1      4112 8.22537E-05-1.98270E-05-2.67713E-05-4.11308E-07-1.92564E-19-1.20385E-18
 -1      4113 8.05490E-05-1.93060E-05-2.62966E-05-6.95795E-07-2.10905E-19-1.54894E-18
 -1      4114 8.31582E-05-2.02135E-05-2.68957E-05-1.80451E-06 5.14697E-20-1.51728E-18
 -1      4115 7.88149E-05-1.88535E-05-2.57288E-05-1.27908E-06 9.12717E-20-9.62024E-19
 -1      4116 7.64125E-05-1.82321E-05-2.50354E-05-1.64242E-06 8.27693E-20-1.03136E-18
 -1      4117 8.01401E-05-1.93585E-05-2.59465E-05-3.12613E-06-3.68310E-20-7.36295E-19
 -1      4118 9.57705E-05-2.89727E-05-2.86265E-05-2.57866E-07 8.39844E-20-5.19063E-19
 -1      4119 9.58512E-05-2.90480E-05-2.86297E-05-2.69868E-07-8.46311E-20-9.63917E-19
 -1      4120 9.45122E-05-2.75098E-05-2.87153E-05-4.86217E-07 5.11967E-20-6.04255E-19
 -1      4121 9.46524E-05-2.76815E-05-2.87044E-05-4.19941E-07-7.49644E-20-6.31865E-19
 -1      4122 9.31991E-05-2.61656E-05-2.87288E-05-1.10685E-06-2.85147E-19-3.03615E-19
 -1      4123 9.34493E-05-2.64166E-05-2.87342E-05-9.51616E-07-5.21148E-20-2.12033E-19
 -1      4124 9.37255E-05-2.66696E-05-2.87385E-05-8.38269E-07 9.90581E-20-1.71752E-19
 -1      4125 9.39337E-05-2.68953E-05-2.87353E-05-7.18718E-07 2.24199E-19-2.30796E-19
 -1      4126 9.34590E-05-2.64094E-05-2.87253E-05-6.71092E-07 2.60680E-20-1.97857E-19
 -1      4127 9.18298E-05-2.50445E-05-2.86211E-05-1.91989E-06-3.29109E-19-4.17154E-19
 -1      4128 9.21663E-05-2.53182E-05-2.86589E-05-1.66526E-06-2.48825E-19-8.84107E-20
 -1      4129 9.09870E-05-2.44892E-05-2.84963E-05-2.52132E-06-1.04703E-18 4.42073E-19
 -1      4130 9.13566E-05-2.47439E-05-2.85608E-05-2.19619E-06-5.80499E-19 3.48533E-19
 -1      4131 9.12565E-05-2.45854E-05-2.85516E-05-1.64703E-06-7.04931E-19-1.63654E-19
 -1      4132 9.00600E-05-2.40127E-05-2.83006E-05-3.30948E-06-1.14083E-18 2.24161E-19
 -1      4133 9.04431E-05-2.42121E-05-2.84007E-05-2.89275E-06-7.30596E-19 9.78124E-19
 -1      4134 9.02528E-05-2.39430E-05-2.83910E-05-2.22655E-06-8.99469E-19 1.99358E-19
 -1      4135 8.90897E-05-2.37061E-05-2.80117E-05-4.34863E-06-5.84678E-19 5.63360E-20
 -1      4136 8.94510E-05-2.37977E-05-2.81578E-05-3.81076E-06-1.13974E-18-7.13497E-20
 -1      4137 8.91174E-05-2.33635E-05-2.81456E-05-3.01633E-06-8.01674E-19-7.23272E-19
 -1      4138 8.81469E-05-2.36985E-05-2.76045E-05-5.72965E-06 7.01226E-20-4.76539E-19
 -1      4139 8.84293E-05-2.36080E-05-2.78075E-05-5.02841E-06 5.63442E-20-5.81140E-20
 -1      4140 8.78714E-05-2.29306E-05-2.77880E-05-4.09890E-06-3.50491E-19-1.36241E-18
 -1      4141 8.73372E-05-2.41742E-05-2.70496E-05-7.59594E-06-3.82369E-19-9.66511E-19
 -1      4142 8.74540E-05-2.37848E-05-2.73217E-05-6.65661E-06-1.33100E-19-7.01201E-19
 -1      4143 8.65556E-05-2.27603E-05-2.72849E-05-5.59001E-06 5.30833E-19-1.11278E-18
 -1      4144 8.67636E-05-2.52345E-05-2.63593E-05-9.90402E-06 4.23950E-19-2.19882E-18
 -1      4145 8.66122E-05-2.44286E-05-2.67031E-05-8.65226E-06-1.58035E-20-1.22319E-18
 -1      4146 8.51953E-05-2.28834E-05-2.66320E-05-7.45395E-06 4.73916E-19-2.06169E-18
 -1      4147 8.38501E-05-2.34465E-05-2.58127E-05-9.68494E-06 3.85019E-19-2.54887E-18
 -1      4148 9.66025E-05-2.79229E-05-2.94348E-05-2.45770E-07 8.27019E-20-8.82123E-19
 -1      4149 9.65115E-05-2.74681E-05-2.95915E-05-1.12499E-08 2.74819E-19-9.52149E-19
 -1      4150 9.65255E-05-2.72488E-05-2.96888E-05 4.14462E-08 1.12887E-19-1.07570E-18
 -1      4151 9.63365E-05-2.61357E-05-3.00744E-05-5.37398E-08-3.56397E-19-1.60528E-18
 -1      4152 9.41586E-05-2.71183E-05-2.87317E-05-6.35850E-07 3.27445E-19-3.86289E-19
 -1      4153 9.43297E-05-2.73165E-05-2.87234E-05-5.45489E-07 3.40016E-19-3.09443E-19
 -1      4154 9.43590E-05-2.73416E-05-2.87163E-05-3.76065E-07-8.49304E-20-8.05131E-19
 -1      4155 9.69120E-05-2.90135E-05-2.90988E-05 2.53370E-07-5.40998E-20-1.22128E-18
 -1      4156 9.68554E-05-2.91584E-05-2.90133E-05 2.80416E-07-8.65867E-20-1.07094E-18
 -1      4157 9.68631E-05-2.92112E-05-2.89943E-05 1.56474E-07-2.12022E-19-1.29286E-18
 -1      4158 9.65802E-05-2.68630E-05-2.98837E-05-6.04191E-08-5.04094E-19-1.48087E-18
 -1      4159 9.67763E-05-2.74590E-05-2.97020E-05 3.47855E-08-4.10117E-19-1.47017E-18
 -1      4160 9.65459E-05-2.67703E-05-2.99090E-05 2.81794E-08-2.29987E-19-1.26527E-18
 -1      4161 9.25688E-05-2.56164E-05-2.86936E-05-1.45938E-06-3.73734E-19-2.63143E-19
 -1      4162 9.28632E-05-2.58857E-05-2.87122E-05-1.26004E-06-6.34997E-19-4.08267E-19
 -1      4163 9.21220E-05-2.52328E-05-2.86497E-05-1.21983E-06-3.33159E-19-5.91635E-19
 -1      4164 7.56032E-05-1.88886E-05-2.41537E-05-6.53343E-06 6.40289E-19 7.44396E-20
 -1      4165 9.50413E-05-2.81385E-05-2.86723E-05-3.06866E-07 2.94925E-19-2.25097E-19
 -1      4166 9.51397E-05-2.82662E-05-2.86613E-05-2.77273E-07 5.29484E-19-2.64291E-20
 -1      4167 9.52463E-05-2.83898E-05-2.86522E-05-2.63141E-07 3.45408E-19-2.61765E-21
 -1      4168 9.53330E-05-2.85010E-05-2.86431E-05-2.47462E-07 3.86742E-20 3.61292E-19
 -1      4169 9.51857E-05-2.83117E-05-2.86594E-05-1.93076E-07 4.85262E-19 5.77080E-20
 -1      4170 9.66734E-05-2.85291E-05-2.92059E-05-4.69954E-07 1.08238E-19-9.72311E-19
 -1      4171 9.66621E-05-2.82328E-05-2.93263E-05-3.32590E-07 7.46240E-20-8.50354E-19
 -1      4172 9.67260E-05-2.81067E-05-2.94077E-05-2.51608E-07 6.39063E-20-7.50231E-19
 -1      4173 9.67832E-05-2.86252E-05-2.92111E-05-3.98900E-07-9.45695E-21-5.37795E-19
 -1      4174 9.54291E-05-2.86091E-05-2.86363E-05-2.43082E-07 2.74535E-20 6.27189E-19
 -1      4175 9.55096E-05-2.87068E-05-2.86302E-05-2.38909E-07 2.32415E-19 3.16747E-19
 -1      4176 9.53861E-05-2.85512E-05-2.86438E-05-1.74980E-07 8.19036E-20-4.09850E-19
 -1      4177 9.56008E-05-2.88022E-05-2.86270E-05-2.42569E-07 1.03528E-19 1.54482E-19
 -1      4178 9.56797E-05-2.88885E-05-2.86249E-05-2.47649E-07 2.86592E-19-2.55038E-20
 -1      4179 9.57513E-05-2.89461E-05-2.86329E-05-1.80162E-07-2.36786E-19-6.46361E-19
 -1      4180 9.55713E-05-2.87612E-05-2.86341E-05-1.71670E-07 1.04565E-19-3.17565E-19
 -1      4181 7.88405E-05-2.11515E-05-2.47302E-05-8.73059E-06-3.17631E-19-8.90655E-19
 -1      4182 9.48014E-05-2.78477E-05-2.86943E-05-3.79176E-07-4.61055E-20-3.57868E-19
 -1      4183 9.49174E-05-2.79956E-05-2.86826E-05-3.32901E-07 9.53687E-20-3.56024E-19
 -1      4184 9.49576E-05-2.80357E-05-2.86786E-05-2.29445E-07 5.56503E-19-1.05995E-19
 -1      4185 9.63163E-05-2.93244E-05-2.87095E-05-3.57313E-07-1.29194E-20-7.90441E-19
 -1      4186 9.64128E-05-2.93474E-05-2.87402E-05-3.73653E-07-2.25489E-19-7.93179E-19
 -1      4187 9.66804E-05-2.92840E-05-2.88835E-05-3.97928E-07-1.61996E-19-7.98308E-19
 -1      4188 9.67529E-05-2.92096E-05-2.89458E-05-3.89483E-07 1.45812E-19-9.95191E-19
 -1      4189 9.68804E-05-2.78844E-05-2.95729E-05-2.10244E-08-3.40313E-19-1.34229E-18
 -1      4190 9.68915E-05-2.79513E-05-2.95488E-05 2.72819E-08-3.28904E-19-1.57873E-18
 -1      4191 9.69514E-05-2.83444E-05-2.93997E-05 1.08221E-07-3.24005E-19-1.51315E-18
 -1      4192 9.59336E-05-2.91069E-05-2.86429E-05-1.97553E-07-9.43782E-20-1.22638E-18
 -1      4193 9.59446E-05-2.91205E-05-2.86376E-05-2.85163E-07 8.05613E-20-1.07147E-18
 -1      4194 9.60291E-05-2.91831E-05-2.86477E-05-3.01418E-07 2.00900E-19-7.60915E-19
 -1      4195 9.46874E-05-2.77152E-05-2.86987E-05-2.88499E-07 7.84042E-20-7.62768E-19
 -1      4196 9.61264E-05-2.92410E-05-2.86638E-05-3.20120E-07 2.05816E-19-6.27767E-19
 -1      4197 9.62152E-05-2.92863E-05-2.86828E-05-3.37523E-07 2.55550E-19-5.65636E-19
 -1      4198 9.61227E-05-2.92398E-05-2.86677E-05-2.20542E-07 4.23261E-19-9.19580E-19
 -1      4199 9.39555E-05-2.69077E-05-2.87271E-05-5.00010E-07 9.69705E-20-4.00859E-19
 -1      4200 9.68149E-05-2.90928E-05-2.90240E-05-3.85838E-07 9.91388E-20-9.33850E-19
 -1      4201 9.68619E-05-2.89328E-05-2.91112E-05-3.47439E-07 8.03890E-21-9.33650E-19
 -1      4202 9.68511E-05-2.91561E-05-2.90129E-05-2.67729E-07 5.34562E-20-1.24817E-18
 -1      4203 9.28527E-05-2.58479E-05-2.87030E-05-9.04152E-07-5.17237E-19-1.04724E-18
 -1      4204 9.69716E-05-2.86049E-05-2.93002E-05 1.38433E-07-1.64938E-19-1.65297E-18
 -1      4205 9.69465E-05-2.88538E-05-2.91815E-05 2.12158E-07-8.38942E-20-1.39394E-18
 -1      4206 9.69703E-05-2.89544E-05-2.91517E-05 9.72606E-08 1.12531E-19-1.44719E-18
 -1      4207 9.69908E-05-2.85571E-05-2.93313E-05 7.61744E-09-2.52084E-19-1.39311E-18
 -1      4208 9.65596E-05-2.71223E-05-2.97610E-05 9.11986E-08-7.14856E-20-1.40140E-18
 -1      4209 9.65295E-05-2.69111E-05-2.98398E-05 9.70204E-08-1.50946E-19-1.54527E-18
 -1      4210 9.67033E-05-2.76609E-05-2.95880E-05-1.08674E-07-8.44085E-20-1.24398E-18
 -1      4211 9.65448E-05-2.68451E-05-2.98753E-05 4.42429E-08-2.64591E-19-1.58303E-18
 -1      4212 9.63196E-05-2.93350E-05-2.87114E-05-2.44273E-07 2.02948E-20-9.31432E-19
 -1      4213 9.26048E-05-2.56788E-05-2.86927E-05-3.92830E-07-3.12465E-19-9.69068E-19
 -1      4214 9.29497E-05-2.59795E-05-2.87109E-05-2.78624E-07-3.88053E-19-9.92709E-19
 -1      4215 9.67665E-05-2.93465E-05-2.88932E-05 2.81233E-08-3.03067E-19-1.17913E-18
 -1      4216 9.66851E-05-2.93898E-05-2.88386E-05 3.13574E-08-6.40555E-20-9.70809E-19
 -1      4217 9.63412E-05-2.93408E-05-2.87122E-05-4.62986E-08 2.64376E-20-1.17530E-18
 -1      4218 9.64399E-05-2.93729E-05-2.87405E-05-5.05719E-08-1.82320E-19-1.12012E-18
 -1      4219 9.64628E-05-2.93084E-05-2.87831E-05-5.13501E-07-3.10885E-19-5.05122E-19
 -1      4220 9.65381E-05-2.93882E-05-2.87776E-05-5.47653E-08-2.91913E-19-1.16185E-18
 -1      4221 9.62381E-05-2.92965E-05-2.86869E-05-4.66380E-08 2.62289E-19-1.29045E-18
 -1      4222 9.61400E-05-2.92393E-05-2.86694E-05-4.04200E-08 2.51743E-19-1.27283E-18
 -1      4223 9.60393E-05-2.91747E-05-2.86543E-05-4.19424E-08 5.62346E-20-9.22428E-19
 -1      4224 9.59444E-05-2.91010E-05-2.86453E-05-3.62429E-08-3.54089E-19-9.56376E-19
 -1      4225 9.58472E-05-2.90215E-05-2.86381E-05-3.74654E-08-4.02084E-19-1.08434E-18
 -1      4226 9.57548E-05-2.89352E-05-2.86357E-05-3.40300E-08-2.60860E-19-9.92166E-19
 -1      4227 9.56593E-05-2.88431E-05-2.86346E-05-3.43186E-08-1.59692E-19-1.13908E-18
 -1      4228 9.55665E-05-2.87450E-05-2.86372E-05-3.44718E-08-4.89880E-20-1.14894E-18
 -1      4229 9.54692E-05-2.86401E-05-2.86408E-05-3.34479E-08-9.65598E-20-9.46633E-19
 -1      4230 9.53714E-05-2.85288E-05-2.86470E-05-3.84387E-08-1.58615E-19-6.90124E-19
 -1      4231 9.52671E-05-2.84089E-05-2.86539E-05-3.59349E-08 3.14374E-19-1.02415E-18
 -1      4232 9.51586E-05-2.82817E-05-2.86625E-05-4.71350E-08 7.09249E-19-1.06583E-18
 -1      4233 9.50406E-05-2.81430E-05-2.86716E-05-4.32382E-08 8.18249E-19-8.94538E-19
 -1      4234 9.49146E-05-2.79959E-05-2.86814E-05-6.23302E-08 6.93461E-19-1.07626E-18
 -1      4235 9.47750E-05-2.78338E-05-2.86912E-05-5.74930E-08 4.05883E-19-7.58470E-19
 -1      4236 9.46234E-05-2.76624E-05-2.87007E-05-8.66856E-08-3.75121E-20-8.56651E-19
 -1      4237 9.44531E-05-2.74716E-05-2.87097E-05-8.19214E-08 9.29782E-21-1.01944E-18
 -1      4238 9.42673E-05-2.72713E-05-2.87170E-05-1.24224E-07-1.91814E-19-8.85710E-19
 -1      4239 9.40559E-05-2.70467E-05-2.87231E-05-1.21410E-07-2.77288E-19-1.24474E-18
 -1      4240 9.38264E-05-2.68140E-05-2.87257E-05-1.81005E-07-2.89811E-20-8.74792E-19
 -1      4241 9.35622E-05-2.65509E-05-2.87259E-05-1.83322E-07-1.15660E-19-1.03647E-18
 -1      4242 9.32796E-05-2.62838E-05-2.87204E-05-2.66078E-07-3.12549E-19-8.64941E-19
 -1      4243 9.21954E-05-2.53327E-05-2.86681E-05-4.23430E-07-2.53368E-19-4.49131E-19
 -1      4244 9.17800E-05-2.50038E-05-2.86312E-05-5.80836E-07-4.48005E-19-6.18817E-19
 -1      4245 9.12758E-05-2.46192E-05-2.85841E-05-6.41094E-07-4.16660E-19-7.25595E-19
 -1      4246 9.07840E-05-2.42733E-05-2.85205E-05-8.58393E-07-6.91269E-19-5.49397E-19
 -1      4247 9.01682E-05-2.38585E-05-2.84413E-05-9.65014E-07-6.76131E-19-7.07408E-19
 -1      4248 8.95970E-05-2.35147E-05-2.83406E-05-1.26599E-06-7.90533E-19-9.21009E-19
 -1      4249 8.88500E-05-2.30839E-05-2.82162E-05-1.44249E-06-5.99525E-19-1.02985E-18
 -1      4250 8.82007E-05-2.27713E-05-2.80654E-05-1.86108E-06-3.53266E-19-1.63399E-18
 -1      4251 8.72975E-05-2.23449E-05-2.78783E-05-2.14034E-06-3.19412E-19-2.02072E-18
 -1      4252 8.65776E-05-2.21049E-05-2.76612E-05-2.72492E-06-1.23228E-19-1.66469E-18
 -1      4253 8.54827E-05-2.17094E-05-2.73877E-05-3.15405E-06 3.36637E-19-1.68312E-18
 -1      4254 8.47091E-05-2.15942E-05-2.70840E-05-3.96791E-06 5.46377E-19-1.75954E-18
 -1      4255 8.33847E-05-2.12750E-05-2.66922E-05-4.62008E-06 2.45412E-19-1.42130E-18
 -1      4256 8.25862E-05-2.12572E-05-2.63233E-05-5.52638E-06 3.77864E-19-1.39232E-18
 -1      4257 8.09177E-05-2.09697E-05-2.57677E-05-6.54966E-06 4.68700E-19-1.03132E-18
 -1      4258 9.66549E-05-2.93290E-05-2.88522E-05-3.07291E-07-3.61973E-19-8.32176E-19
 -1      4259 9.67648E-05-2.93307E-05-2.89011E-05-1.88171E-07-2.10812E-19-1.05290E-18
 -1      4260 9.67907E-05-2.80332E-05-2.94679E-05-1.71879E-07-1.29888E-20-1.08144E-18
 -1      4261 9.68101E-05-2.79091E-05-2.95332E-05-1.22138E-07-2.26813E-19-1.33281E-18
 -1      4262 9.68366E-05-2.83315E-05-2.93588E-05-2.69481E-07-2.80908E-20-1.01061E-18
 -1      4263 9.67654E-05-2.74595E-05-2.96917E-05-4.79458E-09-3.42855E-19-1.42451E-18
 -1      4264 9.68491E-05-2.78606E-05-2.95681E-05-7.83792E-08-2.76615E-19-1.33050E-18
 -1      4265 9.69238E-05-2.91473E-05-2.90451E-05 6.50204E-08-1.36067E-19-1.32417E-18
 -1      4266 9.68597E-05-2.92669E-05-2.89693E-05 7.29059E-08-4.29285E-19-1.35361E-18
 -1      4267 9.68175E-05-2.92951E-05-2.89392E-05-5.37157E-08-2.32527E-19-1.26400E-18
 -1      4268 9.69604E-05-2.90081E-05-2.91232E-05 2.19090E-08 2.29328E-20-1.41472E-18
 -1      4269 9.65706E-05-2.93782E-05-2.87998E-05-1.76959E-07-4.31665E-19-1.11946E-18
 -1      4270 9.65673E-05-2.93569E-05-2.88046E-05-3.04518E-07-4.31861E-19-8.27405E-19
 -1      4271 7.99511E-05-2.11569E-05-2.52716E-05-7.63229E-06-1.98181E-19-5.55212E-19
 -1      4272 9.69458E-05-2.82754E-05-2.94244E-05-9.12899E-08-2.09649E-19-1.31275E-18
 -1      4273 9.68577E-05-2.92402E-05-2.89785E-05-1.50888E-07-1.48532E-20-1.30621E-18
 -1      4274 9.69262E-05-2.91233E-05-2.90584E-05-1.32973E-07 2.79177E-20-1.41230E-18
 -1      4275 9.68696E-05-2.87751E-05-2.91833E-05-3.48175E-07-7.27586E-20-9.53901E-19
 -1      4276 9.68659E-05-2.85644E-05-2.92716E-05-2.94123E-07-8.10986E-20-9.53791E-19
 -1      4277 9.69095E-05-2.84853E-05-2.93267E-05-2.18183E-07-1.30405E-19-1.16463E-18
 -1      4278 9.69242E-05-2.88707E-05-2.91673E-05-2.52360E-07-2.52433E-20-1.21355E-18
 -1      4279 9.69760E-05-2.89162E-05-2.91678E-05-9.95671E-08-6.91915E-20-1.34097E-18
 -1      4280 9.69724E-05-2.85230E-05-2.93357E-05-1.21500E-07-2.75273E-19-1.30516E-18
 -1      4281 9.69841E-05-2.87445E-05-2.92432E-05-8.83507E-08-1.79514E-19-1.24572E-18
 -3
    1PSTEP                         4           1           1          
  100CL  101 1.000000000        4281                     0    1           1
 -4  ERROR       1    1
 -5  STR(%)      1    1    0    0
 -1         1 1.24507E+01
 -1         2 2.51538E+01
 -1         3 1.12493E-01
 -1         4 1.96731E-01
 -1         5 1.40390E+01
 -1         6 1.31431E+01
 -1         7 1.31431E+01
 -1         8 3.66385E+00
 -1         9 1.82699E+00
 -1        10 1.29027E+00
 -1        11 1.04382E+00
 -1        12 9.00013E-01
 -1        13 8.08865E-01
 -1        14 7.53831E-01
 -1        15 7.55808E-01
 -1        16 8.13166E-01
 -1        17 9.00876E-01
 -1        18 1.05268E+00
 -1        19 1.30787E+00
 -1        20 1.83589E+00
 -1        21 3.50549E+00
 -1        22 8.64116E+00
 -1        23 1.31431E+01
 -1        24 4.31781E+00
 -1        25 3.34081E+00
 -1        26 2.11103E+00
 -1        27 1.36220E+00
 -1        28 1.01381E+00
 -1        29 7.74866E-01
 -1        30 5.95052E-01
 -1        31 4.54792E-01
 -1        32 3.47271E-01
 -1        33 2.68412E-01
 -1        34 2.05060E-01
 -1        35 1.55167E-01
 -1        36 1.16768E-01
 -1        37 8.80808E-02
 -1        38 6.75450E-02
 -1        39 5.38329E-02
 -1        40 4.58400E-02
 -1        41 4.71144E-02
 -1        42 5.64933E-02
 -1        43 6.96169E-02
 -1        44 8.60759E-02
 -1        45 1.07024E-01
 -1        46 1.47489E-01
 -1        47 2.00885E-01
 -1        48 2.69448E-01
 -1        49 3.55100E-01
 -1        50 4.58683E-01
 -1        51 5.78613E-01
 -1        52 7.08674E-01
 -1        53 9.09529E-01
 -1        54 1.18681E+00
 -1        55 1.49486E+00
 -1        56 1.88682E+00
 -1        57 2.19592E+00
 -1        58 2.22545E+00
 -1        59 2.38704E+00
 -1        60 2.38704E+00
 -1        61 3.33160E+00
 -1        62 6.12874E+00
 -1        63 7.81949E+00
 -1        64 7.81949E+00
 -1        65 7.43400E+00
 -1        66 6.17208E+00
 -1        67 3.33510E+00
 -1        68 1.31396E+00
 -1        69 9.68638E-01
 -1        70 9.68638E-01
 -1        71 8.73146E-01
 -1        72 1.40390E+01
 -1        73 3.39462E+00
 -1        74 2.41295E+00
 -1        75 1.66571E+00
 -1        76 1.14457E+00
 -1        77 9.05887E-01
 -1        78 7.31196E-01
 -1        79 5.87707E-01
 -1        80 4.68098E-01
 -1        81 3.68534E-01
 -1        82 2.94233E-01
 -1        83 2.32397E-01
 -1        84 1.81364E-01
 -1        85 1.40359E-01
 -1        86 1.08414E-01
 -1        87 8.45383E-02
 -1        88 6.78136E-02
 -1        89 5.74436E-02
 -1        90 5.63587E-02
 -1        91 6.61513E-02
 -1        92 8.08629E-02
 -1        93 1.00036E-01
 -1        94 1.22906E-01
 -1        95 1.48142E-01
 -1        96 1.76842E-01
 -1        97 2.24963E-01
 -1        98 2.77601E-01
 -1        99 3.30240E-01
 -1       100 3.75283E-01
 -1       101 4.01220E-01
 -1       102 4.12822E-01
 -1       103 5.52801E-01
 -1       104 6.85905E-01
 -1       105 7.73917E-01
 -1       106 1.02577E+00
 -1       107 1.24530E+00
 -1       108 1.32790E+00
 -1       109 1.71960E+00
 -1       110 1.94922E+00
 -1       111 2.80850E+00
 -1       112 3.39544E+00
 -1       113 3.42343E+00
 -1       114 3.54440E+00
 -1       115 3.54440E+00
 -1       116 2.98071E+00
 -1       117 2.12843E+00
 -1       118 1.42776E+00
 -1       119 8.60520E-01
 -1       120 4.62500E-01
 -1       121 2.43766E-01
 -1       122 2.36555E-01
 -1       123 4.80873E-01
 -1       124 7.01368E-01
 -1       125 8.45515E-01
 -1       126 8.45515E-01
 -1       127 7.66949E-01
 -1       128 7.15126E-01
 -1       129 1.36881E+00
 -1       130 1.36881E+00
 -1       131 1.14897E+00
 -1       132 5.11427E-01
 -1       133 7.82252E-01
 -1       134 7.82252E-01
 -1       135 8.23798E-01
 -1       136 8.23798E-01
 -1       137 2.51538E+01
 -1       138 4.46870E+01
 -1       139 4.46870E+01
 -1       140 1.72914E+01
 -1       141 1.35551E+01
 -1       142 1.35551E+01
 -1       143 1.31149E+01
 -1       144 1.31149E+01
 -1       145 1.22233E+01
 -1       146 1.91596E+01
 -1       147 4.67891E+01
 -1       148 4.67891E+01
 -1       149 2.39063E+01
 -1       150 2.41876E+01
 -1       151 2.44502E+01
 -1       152 3.01248E+01
 -1       153 3.01248E+01
 -1       154 2.56485E+01
 -1       155 1.29640E+01
 -1       156 1.25350E+01
 -1       157 1.25350E+01
 -1       158 1.24462E+01
 -1       159 1.19894E+01
 -1       160 2.15849E+01
 -1       161 4.86881E+01
 -1       162 4.86881E+01
 -1       163 2.45920E+01
 -1       164 6.07804E+00
 -1       165 2.30096E+00
 -1       166 1.50602E+00
 -1       167 1.15836E+00
 -1       168 9.72111E-01
 -1       169 8.64407E-01
 -1       170 7.96009E-01
 -1       171 7.55808E-01
 -1       172 7.99453E-01
 -1       173 8.67253E-01
 -1       174 9.81063E-01
 -1       175 1.17259E+00
 -1       176 1.52769E+00
 -1       177 2.26092E+00
 -1       178 3.93112E+00
 -1       179 1.40390E+01
 -1       180 4.31781E+00
 -1       181 3.34081E+00
 -1       182 2.11103E+00
 -1       183 1.44694E+00
 -1       184 1.02523E+00
 -1       185 7.74866E-01
 -1       186 5.95052E-01
 -1       187 4.67621E-01
 -1       188 3.67541E-01
 -1       189 2.89591E-01
 -1       190 2.32901E-01
 -1       191 1.84854E-01
 -1       192 1.45289E-01
 -1       193 1.13585E-01
 -1       194 8.89016E-02
 -1       195 7.03219E-02
 -1       196 5.69219E-02
 -1       197 4.78042E-02
 -1       198 4.71144E-02
 -1       199 5.64933E-02
 -1       200 6.96169E-02
 -1       201 8.88366E-02
 -1       202 1.19498E-01
 -1       203 1.59788E-01
 -1       204 2.11260E-01
 -1       205 2.75245E-01
 -1       206 3.68912E-01
 -1       207 5.10270E-01
 -1       208 6.85886E-01
 -1       209 8.93146E-01
 -1       210 1.11950E+00
 -1       211 1.33588E+00
 -1       212 1.55448E+00
 -1       213 1.88682E+00
 -1       214 2.19592E+00
 -1       215 2.22545E+00
 -1       216 2.38704E+00
 -1       217 2.25919E+00
 -1       218 3.61962E+00
 -1       219 6.12874E+00
 -1       220 7.81949E+00
 -1       221 7.43400E+00
 -1       222 6.17208E+00
 -1       223 3.97063E+00
 -1       224 2.31539E+00
 -1       225 1.64618E+00
 -1       226 1.15046E+00
 -1       227 1.05798E+00
 -1       228 3.39462E+00
 -1       229 2.41295E+00
 -1       230 1.66571E+00
 -1       231 1.14457E+00
 -1       232 9.05887E-01
 -1       233 7.31196E-01
 -1       234 5.87707E-01
 -1       235 4.68098E-01
 -1       236 3.68534E-01
 -1       237 2.94233E-01
 -1       238 2.32397E-01
 -1       239 1.84232E-01
 -1       240 1.45162E-01
 -1       241 1.13880E-01
 -1       242 8.97308E-02
 -1       243 7.19992E-02
 -1       244 5.99859E-02
 -1       245 5.41756E-02
 -1       246 6.01131E-02
 -1       247 7.00303E-02
 -1       248 8.33293E-02
 -1       249 1.00036E-01
 -1       250 1.23411E-01
 -1       251 1.58005E-01
 -1       252 1.97613E-01
 -1       253 2.40089E-01
 -1       254 2.81502E-01
 -1       255 3.30240E-01
 -1       256 3.75283E-01
 -1       257 4.01220E-01
 -1       258 4.69406E-01
 -1       259 5.53863E-01
 -1       260 6.85905E-01
 -1       261 7.73917E-01
 -1       262 1.02577E+00
 -1       263 1.24530E+00
 -1       264 1.32790E+00
 -1       265 1.71960E+00
 -1       266 2.11239E+00
 -1       267 2.80850E+00
 -1       268 3.39544E+00
 -1       269 3.42343E+00
 -1       270 3.54440E+00
 -1       271 2.98071E+00
 -1       272 2.12843E+00
 -1       273 1.42776E+00
 -1       274 8.83609E-01
 -1       275 4.79804E-01
 -1       276 3.99024E-01
 -1       277 6.88126E-01
 -1       278 1.15346E+00
 -1       279 1.42395E+00
 -1       280 1.51512E+00
 -1       281 1.51512E+00
 -1       282 1.27319E+00
 -1       283 2.56487E+00
 -1       284 2.87439E+00
 -1       285 2.87439E+00
 -1       286 1.88960E+00
 -1       287 1.38800E+00
 -1       288 1.38800E+00
 -1       289 1.29286E+00
 -1       290 1.05798E+00
 -1       291 2.94816E+01
 -1       292 3.69939E+01
 -1       293 4.46870E+01
 -1       294 1.73058E+01
 -1       295 1.20760E+01
 -1       296 1.35551E+01
 -1       297 1.24854E+01
 -1       298 1.31149E+01
 -1       299 1.22233E+01
 -1       300 1.11095E+01
 -1       301 2.01806E+01
 -1       302 4.67891E+01
 -1       303 2.81159E+01
 -1       304 2.84493E+01
 -1       305 2.84493E+01
 -1       306 3.24038E+01
 -1       307 3.24038E+01
 -1       308 2.71915E+01
 -1       309 1.29640E+01
 -1       310 1.23337E+01
 -1       311 1.24507E+01
 -1       312 1.25350E+01
 -1       313 1.24462E+01
 -1       314 1.19894E+01
 -1       315 1.15680E+01
 -1       316 2.40717E+01
 -1       317 4.86881E+01
 -1       318 2.94642E+01
 -1       319 2.94816E+01
 -1       320 1.07067E+00
 -1       321 2.47951E+00
 -1       322 7.88975E-01
 -1       323 6.95142E-01
 -1       324 6.31945E-01
 -1       325 5.87627E-01
 -1       326 5.90860E-01
 -1       327 6.34555E-01
 -1       328 7.01295E-01
 -1       329 7.96505E-01
 -1       330 9.31960E-01
 -1       331 1.16030E+00
 -1       332 1.32924E+00
 -1       333 2.20057E+00
 -1       334 1.91403E+00
 -1       335 1.72930E+00
 -1       336 1.26717E+00
 -1       337 9.06636E-01
 -1       338 6.55593E-01
 -1       339 5.38196E-01
 -1       340 4.41032E-01
 -1       341 3.55424E-01
 -1       342 2.90013E-01
 -1       343 2.34784E-01
 -1       344 1.87397E-01
 -1       345 1.51988E-01
 -1       346 1.22835E-01
 -1       347 9.84687E-02
 -1       348 7.86437E-02
 -1       349 6.28608E-02
 -1       350 5.04622E-02
 -1       351 4.30973E-02
 -1       352 4.40925E-02
 -1       353 5.06779E-02
 -1       354 6.62966E-02
 -1       355 8.88366E-02
 -1       356 1.21359E-01
 -1       357 1.77264E-01
 -1       358 2.51647E-01
 -1       359 3.48726E-01
 -1       360 4.72489E-01
 -1       361 6.25602E-01
 -1       362 8.07379E-01
 -1       363 1.01044E+00
 -1       364 1.21588E+00
 -1       365 1.38779E+00
 -1       366 1.54200E+00
 -1       367 1.71388E+00
 -1       368 1.73527E+00
 -1       369 1.66847E+00
 -1       370 1.87579E+00
 -1       371 2.51713E+00
 -1       372 3.31925E+00
 -1       373 4.39596E+00
 -1       374 4.86287E+00
 -1       375 4.26612E+00
 -1       376 3.49884E+00
 -1       377 3.18207E+00
 -1       378 2.34126E+00
 -1       379 1.68169E+00
 -1       380 1.59248E+00
 -1       381 1.13027E+00
 -1       382 8.90933E-01
 -1       383 7.03414E-01
 -1       384 5.44575E-01
 -1       385 4.37319E-01
 -1       386 3.70730E-01
 -1       387 3.06892E-01
 -1       388 2.51365E-01
 -1       389 2.06016E-01
 -1       390 1.66328E-01
 -1       391 1.32791E-01
 -1       392 1.05276E-01
 -1       393 8.40929E-02
 -1       394 6.81190E-02
 -1       395 5.68962E-02
 -1       396 4.99753E-02
 -1       397 4.90835E-02
 -1       398 5.36546E-02
 -1       399 6.29684E-02
 -1       400 8.10290E-02
 -1       401 1.03787E-01
 -1       402 1.34564E-01
 -1       403 1.85923E-01
 -1       404 2.47521E-01
 -1       405 3.17566E-01
 -1       406 3.91558E-01
 -1       407 4.61150E-01
 -1       408 5.23659E-01
 -1       409 5.74434E-01
 -1       410 5.75514E-01
 -1       411 5.75514E-01
 -1       412 4.94412E-01
 -1       413 5.33838E-01
 -1       414 6.93234E-01
 -1       415 1.19287E+00
 -1       416 1.78236E+00
 -1       417 2.19601E+00
 -1       418 2.30507E+00
 -1       419 2.30507E+00
 -1       420 2.20095E+00
 -1       421 2.20095E+00
 -1       422 2.08324E+00
 -1       423 1.70676E+00
 -1       424 1.24180E+00
 -1       425 7.98528E-01
 -1       426 4.06493E-01
 -1       427 1.57697E+00
 -1       428 1.28214E+00
 -1       429 7.66184E-01
 -1       430 1.78464E+00
 -1       431 2.14425E+00
 -1       432 2.40586E+00
 -1       433 3.02550E+00
 -1       434 4.91447E+00
 -1       435 4.91447E+00
 -1       436 4.40184E+00
 -1       437 2.71811E+00
 -1       438 2.03043E+00
 -1       439 1.80926E+00
 -1       440 2.54127E+01
 -1       441 3.48507E+01
 -1       442 3.46589E+01
 -1       443 1.45645E+01
 -1       444 7.57729E+00
 -1       445 9.13018E-01
 -1       446 9.92834E+00
 -1       447 1.06290E+01
 -1       448 8.74203E+00
 -1       449 7.77972E+00
 -1       450 9.16056E+00
 -1       451 1.66810E+01
 -1       452 2.81159E+01
 -1       453 2.62547E+01
 -1       454 2.96792E+01
 -1       455 2.96792E+01
 -1       456 3.24038E+01
 -1       457 1.90731E+01
 -1       458 1.09702E+01
 -1       459 7.44274E+00
 -1       460 9.68822E+00
 -1       461 1.00104E+01
 -1       462 1.10416E+01
 -1       463 9.70972E+00
 -1       464 6.96276E+00
 -1       465 9.69353E+00
 -1       466 1.75602E+01
 -1       467 2.94642E+01
 -1       468 3.48507E+01
 -1       469 7.96922E+00
 -1       470 8.62414E+00
 -1       471 2.52714E+01
 -1       472 3.76174E+00
 -1       473 9.38950E+00
 -1       474 1.04750E+00
 -1       475 4.86686E-01
 -1       476 5.11181E-01
 -1       477 4.31641E-01
 -1       478 4.57567E-01
 -1       479 4.87153E-01
 -1       480 5.11232E-01
 -1       481 5.11232E-01
 -1       482 6.09364E-01
 -1       483 8.90933E-01
 -1       484 8.03374E-01
 -1       485 4.08374E+00
 -1       486 7.01859E-01
 -1       487 5.88449E-01
 -1       488 4.76126E-01
 -1       489 3.77441E-01
 -1       490 3.22594E-01
 -1       491 2.72537E-01
 -1       492 2.25213E-01
 -1       493 1.86695E-01
 -1       494 1.53115E-01
 -1       495 1.23908E-01
 -1       496 9.93140E-02
 -1       497 7.96485E-02
 -1       498 6.38390E-02
 -1       499 5.04622E-02
 -1       500 4.12277E-02
 -1       501 3.59555E-02
 -1       502 4.03193E-02
 -1       503 5.06779E-02
 -1       504 7.26928E-02
 -1       505 1.08820E-01
 -1       506 1.56493E-01
 -1       507 2.18891E-01
 -1       508 2.99576E-01
 -1       509 4.02319E-01
 -1       510 5.30709E-01
 -1       511 6.87378E-01
 -1       512 8.72627E-01
 -1       513 1.08218E+00
 -1       514 1.30386E+00
 -1       515 1.51364E+00
 -1       516 1.68531E+00
 -1       517 2.04437E+00
 -1       518 2.47983E+00
 -1       519 2.87750E+00
 -1       520 2.83833E+00
 -1       521 3.35345E+00
 -1       522 5.46533E+00
 -1       523 7.52128E+00
 -1       524 6.36250E+00
 -1       525 5.24198E+00
 -1       526 3.18207E+00
 -1       527 3.20286E+00
 -1       528 2.34126E+00
 -1       529 5.44575E-01
 -1       530 4.37319E-01
 -1       531 3.70730E-01
 -1       532 3.06892E-01
 -1       533 2.51365E-01
 -1       534 2.06716E-01
 -1       535 1.67576E-01
 -1       536 1.34197E-01
 -1       537 1.08670E-01
 -1       538 8.77305E-02
 -1       539 7.01801E-02
 -1       540 5.56364E-02
 -1       541 4.35188E-02
 -1       542 3.82704E-02
 -1       543 3.99586E-02
 -1       544 4.94015E-02
 -1       545 6.29684E-02
 -1       546 8.90873E-02
 -1       547 1.26027E-01
 -1       548 1.71582E-01
 -1       549 2.25944E-01
 -1       550 2.88033E-01
 -1       551 3.54773E-01
 -1       552 4.20223E-01
 -1       553 4.79679E-01
 -1       554 5.33983E-01
 -1       555 5.74434E-01
 -1       556 5.75514E-01
 -1       557 5.25064E-01
 -1       558 5.64086E-01
 -1       559 6.40953E-01
 -1       560 9.79157E-01
 -1       561 1.48748E+00
 -1       562 1.86640E+00
 -1       563 2.19601E+00
 -1       564 2.30507E+00
 -1       565 2.17668E+00
 -1       566 2.20095E+00
 -1       567 2.08324E+00
 -1       568 2.06083E+00
 -1       569 2.15714E+00
 -1       570 2.22171E+00
 -1       571 2.48265E+00
 -1       572 3.39422E+00
 -1       573 2.22171E+00
 -1       574 2.11137E+00
 -1       575 5.02959E+00
 -1       576 6.48783E+00
 -1       577 9.68442E+00
 -1       578 9.73462E+00
 -1       579 7.86789E+00
 -1       580 4.23049E+00
 -1       581 2.14655E+00
 -1       582 3.46589E+01
 -1       583 1.12182E+01
 -1       584 7.03414E-01
 -1       585 7.03714E+00
 -1       586 3.48507E+01
 -1       587 5.46533E+00
 -1       588 2.05978E+01
 -1       589 8.93872E+00
 -1       590 4.57520E-01
 -1       591 7.59257E+00
 -1       592 5.25570E+00
 -1       593 2.33578E+01
 -1       594 1.20483E+01
 -1       595 2.62547E+01
 -1       596 8.25144E+00
 -1       597 2.96792E+01
 -1       598 1.49440E+01
 -1       599 9.17363E+00
 -1       600 6.54843E+00
 -1       601 7.52128E+00
 -1       602 9.34746E+00
 -1       603 6.18049E+00
 -1       604 6.13220E+00
 -1       605 7.96912E+00
 -1       606 1.33488E+01
 -1       607 8.77516E-01
 -1       608 1.32795E+00
 -1       609 1.87295E+01
 -1       610 4.93468E+00
 -1       611 5.11181E-01
 -1       612 1.04000E+01
 -1       613 4.63123E-01
 -1       614 1.42815E+01
 -1       615 4.04494E+00
 -1       616 1.53859E+01
 -1       617 8.60827E+00
 -1       618 5.00257E+00
 -1       619 3.91176E+00
 -1       620 1.68169E+00
 -1       621 3.58538E-01
 -1       622 3.42856E-01
 -1       623 3.62058E-01
 -1       624 3.38132E-01
 -1       625 5.43864E-01
 -1       626 3.96991E-01
 -1       627 3.83856E-01
 -1       628 3.42981E-01
 -1       629 2.93394E-01
 -1       630 2.43776E-01
 -1       631 2.12541E-01
 -1       632 1.80104E-01
 -1       633 1.49172E-01
 -1       634 1.21270E-01
 -1       635 9.83373E-02
 -1       636 7.96485E-02
 -1       637 6.38390E-02
 -1       638 5.03378E-02
 -1       639 3.95841E-02
 -1       640 3.05114E-02
 -1       641 2.76962E-02
 -1       642 3.40332E-02
 -1       643 5.68480E-02
 -1       644 8.59924E-02
 -1       645 1.23527E-01
 -1       646 1.71850E-01
 -1       647 2.33747E-01
 -1       648 3.12456E-01
 -1       649 4.11776E-01
 -1       650 5.36295E-01
 -1       651 6.93969E-01
 -1       652 8.97776E-01
 -1       653 1.14820E+00
 -1       654 1.44620E+00
 -1       655 1.82407E+00
 -1       656 2.28828E+00
 -1       657 2.79471E+00
 -1       658 3.63539E+00
 -1       659 5.28649E+00
 -1       660 3.71647E+00
 -1       661 3.20286E+00
 -1       662 3.27475E-01
 -1       663 2.32589E+00
 -1       664 3.96121E-01
 -1       665 2.33201E-01
 -1       666 1.96051E-01
 -1       667 1.61958E-01
 -1       668 1.34092E-01
 -1       669 1.09336E-01
 -1       670 8.80450E-02
 -1       671 7.01801E-02
 -1       672 5.56364E-02
 -1       673 4.35188E-02
 -1       674 3.46941E-02
 -1       675 3.02212E-02
 -1       676 3.60991E-02
 -1       677 4.95962E-02
 -1       678 7.51677E-02
 -1       679 1.07054E-01
 -1       680 1.46376E-01
 -1       681 1.93898E-01
 -1       682 2.49708E-01
 -1       683 3.12761E-01
 -1       684 3.80266E-01
 -1       685 4.47142E-01
 -1       686 5.12996E-01
 -1       687 5.71722E-01
 -1       688 6.43996E-01
 -1       689 7.04122E-01
 -1       690 7.19270E-01
 -1       691 9.48366E-01
 -1       692 1.14817E+00
 -1       693 1.41081E+00
 -1       694 1.69396E+00
 -1       695 1.97740E+00
 -1       696 2.54769E+00
 -1       697 2.49525E+00
 -1       698 2.57735E+00
 -1       699 2.20818E+00
 -1       700 2.30498E+00
 -1       701 2.21648E+00
 -1       702 9.64270E+00
 -1       703 3.18905E+00
 -1       704 3.50764E+00
 -1       705 1.27159E+01
 -1       706 6.10520E+00
 -1       707 1.27159E+01
 -1       708 1.11917E+01
 -1       709 5.52832E+00
 -1       710 3.57525E+00
 -1       711 1.23860E+01
 -1       712 4.63788E-01
 -1       713 2.72940E-01
 -1       714 1.80933E+01
 -1       715 4.03369E-01
 -1       716 5.58627E+00
 -1       717 1.42458E+01
 -1       718 5.15044E-01
 -1       719 3.62058E-01
 -1       720 1.54844E+01
 -1       721 1.08121E+01
 -1       722 3.60631E-01
 -1       723 7.04342E+00
 -1       724 5.11834E+00
 -1       725 1.76725E+01
 -1       726 1.00338E+01
 -1       727 5.56710E+00
 -1       728 3.70072E-01
 -1       729 9.62484E+00
 -1       730 3.60631E-01
 -1       731 3.42361E-01
 -1       732 4.43074E+00
 -1       733 6.97377E+00
 -1       734 2.34861E+00
 -1       735 3.84227E+00
 -1       736 5.84646E+00
 -1       737 3.42883E+00
 -1       738 9.51803E+00
 -1       739 3.57722E-01
 -1       740 3.52147E+00
 -1       741 3.03856E+00
 -1       742 2.40879E-01
 -1       743 3.58554E+00
 -1       744 2.67198E-01
 -1       745 2.55030E-01
 -1       746 2.48363E-01
 -1       747 2.26641E-01
 -1       748 1.98342E-01
 -1       749 1.71708E-01
 -1       750 1.50535E-01
 -1       751 1.28259E-01
 -1       752 1.06749E-01
 -1       753 8.70045E-02
 -1       754 6.93965E-02
 -1       755 5.38746E-02
 -1       756 4.00902E-02
 -1       757 2.74725E-02
 -1       758 1.77611E-02
 -1       759 2.09703E-02
 -1       760 3.96773E-02
 -1       761 6.41197E-02
 -1       762 9.58640E-02
 -1       763 1.39194E-01
 -1       764 1.96867E-01
 -1       765 2.72238E-01
 -1       766 3.69896E-01
 -1       767 4.95189E-01
 -1       768 6.54131E-01
 -1       769 8.52992E-01
 -1       770 1.09687E+00
 -1       771 1.38628E+00
 -1       772 1.76551E+00
 -1       773 2.37128E+00
 -1       774 3.39134E+00
 -1       775 6.56453E+00
 -1       776 8.91492E+00
 -1       777 1.09584E+01
 -1       778 2.86346E-01
 -1       779 3.05465E-01
 -1       780 1.63005E-01
 -1       781 1.88653E-01
 -1       782 1.13096E-01
 -1       783 9.14388E-02
 -1       784 7.24993E-02
 -1       785 5.60940E-02
 -1       786 4.24633E-02
 -1       787 3.17357E-02
 -1       788 2.16369E-02
 -1       789 2.14550E-02
 -1       790 3.48745E-02
 -1       791 5.58693E-02
 -1       792 8.18051E-02
 -1       793 1.13961E-01
 -1       794 1.53611E-01
 -1       795 2.01924E-01
 -1       796 2.60391E-01
 -1       797 3.31097E-01
 -1       798 4.10635E-01
 -1       799 4.94940E-01
 -1       800 5.75856E-01
 -1       801 6.72558E-01
 -1       802 8.12219E-01
 -1       803 9.66920E-01
 -1       804 1.09414E+00
 -1       805 1.37297E+00
 -1       806 1.90681E+00
 -1       807 1.81407E+00
 -1       808 2.90396E+00
 -1       809 3.69962E+00
 -1       810 3.42412E+00
 -1       811 4.31034E+00
 -1       812 2.57735E+00
 -1       813 2.86843E+00
 -1       814 2.88585E-01
 -1       815 3.61261E+00
 -1       816 1.05890E+01
 -1       817 6.43098E+00
 -1       818 4.93468E+00
 -1       819 1.37236E-01
 -1       820 6.43098E+00
 -1       821 1.09584E+01
 -1       822 4.52731E+00
 -1       823 2.54973E-01
 -1       824 2.81852E-01
 -1       825 9.15963E+00
 -1       826 8.28278E+00
 -1       827 2.32852E-01
 -1       828 2.81626E-01
 -1       829 3.71221E+00
 -1       830 3.69962E+00
 -1       831 3.61261E+00
 -1       832 2.53829E-01
 -1       833 2.80206E-01
 -1       834 2.72177E-01
 -1       835 2.17124E-01
 -1       836 2.30498E+00
 -1       837 2.88585E-01
 -1       838 2.65697E+00
 -1       839 7.90415E+00
 -1       840 3.31870E+00
 -1       841 2.88907E-01
 -1       842 2.82243E-01
 -1       843 4.31034E+00
 -1       844 7.05198E+00
 -1       845 1.52078E-01
 -1       846 1.74333E-01
 -1       847 2.86843E+00
 -1       848 1.82436E-01
 -1       849 1.75219E-01
 -1       850 1.59524E-01
 -1       851 1.39876E-01
 -1       852 1.23268E-01
 -1       853 1.06810E-01
 -1       854 9.01004E-02
 -1       855 7.41807E-02
 -1       856 5.95398E-02
 -1       857 4.62817E-02
 -1       858 3.42129E-02
 -1       859 2.66778E-02
 -1       860 2.89273E-02
 -1       861 3.77159E-02
 -1       862 5.90847E-02
 -1       863 8.86800E-02
 -1       864 1.27253E-01
 -1       865 1.77441E-01
 -1       866 2.42497E-01
 -1       867 3.26517E-01
 -1       868 4.34834E-01
 -1       869 5.74718E-01
 -1       870 7.56647E-01
 -1       871 9.96626E-01
 -1       872 1.31932E+00
 -1       873 1.76551E+00
 -1       874 2.37247E+00
 -1       875 3.85829E+00
 -1       876 7.05198E+00
 -1       877 7.98599E-02
 -1       878 9.74080E-02
 -1       879 4.96215E-02
 -1       880 3.67166E-02
 -1       881 2.47130E-02
 -1       882 2.34842E-02
 -1       883 2.86778E-02
 -1       884 4.72617E-02
 -1       885 7.14490E-02
 -1       886 1.02116E-01
 -1       887 1.39840E-01
 -1       888 1.85277E-01
 -1       889 2.38402E-01
 -1       890 2.98009E-01
 -1       891 3.62553E-01
 -1       892 4.47426E-01
 -1       893 5.62923E-01
 -1       894 6.97962E-01
 -1       895 8.65518E-01
 -1       896 1.05991E+00
 -1       897 1.36789E+00
 -1       898 1.64673E+00
 -1       899 2.09606E+00
 -1       900 3.00338E+00
 -1       901 2.90396E+00
 -1       902 3.41818E+00
 -1       903 3.69962E+00
 -1       904 6.39126E-02
 -1       905 1.42689E-01
 -1       906 2.88907E-01
 -1       907 2.65697E+00
 -1       908 7.90415E+00
 -1       909 1.54504E-01
 -1       910 2.07766E-01
 -1       911 5.65451E+00
 -1       912 1.34970E-01
 -1       913 1.75769E-01
 -1       914 2.09438E-01
 -1       915 1.67237E-01
 -1       916 1.66489E-01
 -1       917 2.17577E-01
 -1       918 1.16134E-01
 -1       919 2.17577E-01
 -1       920 5.76967E+00
 -1       921 2.16961E-01
 -1       922 4.24207E+00
 -1       923 1.92600E-01
 -1       924 1.36232E-01
 -1       925 1.35441E-01
 -1       926 1.26543E-01
 -1       927 1.13252E-01
 -1       928 9.80370E-02
 -1       929 8.55647E-02
 -1       930 7.26343E-02
 -1       931 6.00912E-02
 -1       932 4.84505E-02
 -1       933 3.78597E-02
 -1       934 3.28649E-02
 -1       935 3.44356E-02
 -1       936 3.88475E-02
 -1       937 5.01546E-02
 -1       938 7.40552E-02
 -1       939 1.04934E-01
 -1       940 1.44692E-01
 -1       941 1.95642E-01
 -1       942 2.60700E-01
 -1       943 3.43766E-01
 -1       944 4.50489E-01
 -1       945 5.89818E-01
 -1       946 7.77159E-01
 -1       947 1.04091E+00
 -1       948 1.43310E+00
 -1       949 2.05670E+00
 -1       950 3.41550E+00
 -1       951 8.03622E-02
 -1       952 4.84461E+00
 -1       953 1.96462E-01
 -1       954 3.08195E-02
 -1       955 4.16183E-02
 -1       956 3.39381E-02
 -1       957 4.32528E-02
 -1       958 6.54210E-02
 -1       959 9.34423E-02
 -1       960 1.28610E-01
 -1       961 1.72198E-01
 -1       962 2.25331E-01
 -1       963 2.88770E-01
 -1       964 3.62553E-01
 -1       965 4.45391E-01
 -1       966 5.37624E-01
 -1       967 6.77385E-01
 -1       968 8.73107E-01
 -1       969 1.19892E+00
 -1       970 1.93527E+00
 -1       971 3.03622E+00
 -1       972 3.92743E+00
 -1       973 1.23443E-01
 -1       974 3.09424E-02
 -1       975 2.16961E-01
 -1       976 1.64193E-01
 -1       977 2.05398E-01
 -1       978 5.76967E+00
 -1       979 1.40630E-01
 -1       980 1.21826E-01
 -1       981 9.49877E-02
 -1       982 6.63693E-02
 -1       983 4.11984E+00
 -1       984 1.41769E-01
 -1       985 1.55321E-01
 -1       986 5.34224E-02
 -1       987 1.64193E-01
 -1       988 3.92743E+00
 -1       989 1.24714E-01
 -1       990 1.56957E-01
 -1       991 1.03681E-01
 -1       992 9.78813E-02
 -1       993 8.84501E-02
 -1       994 7.72018E-02
 -1       995 6.54516E-02
 -1       996 5.51567E-02
 -1       997 4.58520E-02
 -1       998 3.86001E-02
 -1       999 3.66991E-02
 -1      1000 3.72474E-02
 -1      1001 4.06276E-02
 -1      1002 4.73734E-02
 -1      1003 6.12870E-02
 -1      1004 8.07309E-02
 -1      1005 1.06816E-01
 -1      1006 1.42134E-01
 -1      1007 1.86621E-01
 -1      1008 2.43743E-01
 -1      1009 3.21390E-01
 -1      1010 4.23579E-01
 -1      1011 5.60574E-01
 -1      1012 7.50136E-01
 -1      1013 1.02296E+00
 -1      1014 1.41137E+00
 -1      1015 2.81865E+00
 -1      1016 4.11984E+00
 -1      1017 1.52193E-01
 -1      1018 5.41231E-02
 -1      1019 4.27399E-02
 -1      1020 1.07191E-01
 -1      1021 1.45306E-01
 -1      1022 1.93567E-01
 -1      1023 2.54171E-01
 -1      1024 3.29683E-01
 -1      1025 4.23066E-01
 -1      1026 5.37624E-01
 -1      1027 6.77385E-01
 -1      1028 8.40410E-01
 -1      1029 1.15511E+00
 -1      1030 1.62261E+00
 -1      1031 3.09943E+00
 -1      1032 1.55321E-01
 -1      1033 1.09077E-01
 -1      1034 3.52698E-02
 -1      1035 3.75388E-02
 -1      1036 9.95359E-02
 -1      1037 4.24443E-02
 -1      1038 1.07967E-01
 -1      1039 1.55428E-01
 -1      1040 3.55677E-02
 -1      1041 7.73370E-02
 -1      1042 1.13739E-01
 -1      1043 2.22981E+00
 -1      1044 1.10307E-01
 -1      1045 7.30061E-02
 -1      1046 1.00306E-01
 -1      1047 6.31305E-02
 -1      1048 8.04775E-02
 -1      1049 1.17158E-01
 -1      1050 5.23478E-02
 -1      1051 1.00306E-01
 -1      1052 1.09225E-01
 -1      1053 1.09225E-01
 -1      1054 2.08259E+00
 -1      1055 7.64170E-02
 -1      1056 9.62193E-02
 -1      1057 6.69371E-02
 -1      1058 5.91683E-02
 -1      1059 5.05383E-02
 -1      1060 4.26606E-02
 -1      1061 3.86001E-02
 -1      1062 3.72474E-02
 -1      1063 4.06276E-02
 -1      1064 4.73734E-02
 -1      1065 6.00502E-02
 -1      1066 7.76768E-02
 -1      1067 1.01174E-01
 -1      1068 1.31628E-01
 -1      1069 1.70355E-01
 -1      1070 2.19019E-01
 -1      1071 2.82662E-01
 -1      1072 3.63438E-01
 -1      1073 4.86790E-01
 -1      1074 6.94899E-01
 -1      1075 1.00560E+00
 -1      1076 1.45904E+00
 -1      1077 2.08259E+00
 -1      1078 5.05383E-02
 -1      1079 6.82305E-02
 -1      1080 1.48015E-01
 -1      1081 1.14242E-01
 -1      1082 2.65846E-01
 -1      1083 3.54044E-01
 -1      1084 4.86790E-01
 -1      1085 6.94899E-01
 -1      1086 1.00560E+00
 -1      1087 1.45904E+00
 -1      1088 2.08259E+00
 -1      1089 8.74812E-02
 -1      1090 8.83683E-02
 -1      1091 7.63161E-02
 -1      1092 6.71162E-02
 -1      1093 1.98965E-01
 -1      1094 4.27399E-02
 -1      1095 3.75388E-02
 -1      1096 1.04444E-01
 -1      1097 3.60212E-02
 -1      1098 4.26606E-02
 -1      1099 5.31404E-02
 -1      1100 9.62193E-02
 -1      1101 8.41543E-02
 -1      1102 6.83993E-02
 -1      1103 5.91683E-02
 -1      1104 6.69371E-02
 -1      1105 8.80454E-02
 -1      1106 7.38361E-02
 -1      1107 6.71162E-02
 -1      1108 1.09225E-01
 -1      1109 6.83993E-02
 -1      1110 7.64170E-02
 -1      1111 7.14519E-02
 -1      1112 1.31431E+01
 -1      1113 8.40347E+00
 -1      1114 2.74542E+00
 -1      1115 1.55863E+00
 -1      1116 1.16705E+00
 -1      1117 9.71919E-01
 -1      1118 8.54439E-01
 -1      1119 7.81348E-01
 -1      1120 7.54820E-01
 -1      1121 7.84487E-01
 -1      1122 8.57021E-01
 -1      1123 9.76777E-01
 -1      1124 1.18028E+00
 -1      1125 1.57188E+00
 -1      1126 2.67069E+00
 -1      1127 6.07333E+00
 -1      1128 1.13401E+01
 -1      1129 1.31431E+01
 -1      1130 8.73045E+00
 -1      1131 3.82931E+00
 -1      1132 2.72592E+00
 -1      1133 1.73661E+00
 -1      1134 1.18800E+00
 -1      1135 8.94336E-01
 -1      1136 6.84959E-01
 -1      1137 5.24922E-01
 -1      1138 4.01032E-01
 -1      1139 3.07842E-01
 -1      1140 2.36736E-01
 -1      1141 1.80113E-01
 -1      1142 1.35967E-01
 -1      1143 1.02424E-01
 -1      1144 7.78129E-02
 -1      1145 6.06889E-02
 -1      1146 4.98364E-02
 -1      1147 4.64772E-02
 -1      1148 5.18038E-02
 -1      1149 6.30551E-02
 -1      1150 7.78464E-02
 -1      1151 9.65500E-02
 -1      1152 1.27257E-01
 -1      1153 1.74187E-01
 -1      1154 2.35167E-01
 -1      1155 3.12274E-01
 -1      1156 4.06891E-01
 -1      1157 5.18648E-01
 -1      1158 6.43643E-01
 -1      1159 8.09101E-01
 -1      1160 1.04817E+00
 -1      1161 1.34084E+00
 -1      1162 1.69084E+00
 -1      1163 2.04137E+00
 -1      1164 2.21069E+00
 -1      1165 2.30624E+00
 -1      1166 2.38704E+00
 -1      1167 2.85932E+00
 -1      1168 4.73017E+00
 -1      1169 6.97411E+00
 -1      1170 7.81949E+00
 -1      1171 7.62674E+00
 -1      1172 6.80304E+00
 -1      1173 4.75359E+00
 -1      1174 2.32453E+00
 -1      1175 1.14130E+00
 -1      1176 9.68638E-01
 -1      1177 9.20892E-01
 -1      1178 5.34939E-01
 -1      1179 1.40390E+01
 -1      1180 8.71680E+00
 -1      1181 2.90379E+00
 -1      1182 2.03933E+00
 -1      1183 1.40514E+00
 -1      1184 1.02523E+00
 -1      1185 8.18542E-01
 -1      1186 6.59451E-01
 -1      1187 5.27902E-01
 -1      1188 4.18316E-01
 -1      1189 3.31384E-01
 -1      1190 2.63315E-01
 -1      1191 2.06881E-01
 -1      1192 1.60861E-01
 -1      1193 1.24386E-01
 -1      1194 9.64760E-02
 -1      1195 7.61759E-02
 -1      1196 6.26286E-02
 -1      1197 5.69011E-02
 -1      1198 6.12550E-02
 -1      1199 7.35071E-02
 -1      1200 9.04496E-02
 -1      1201 1.11471E-01
 -1      1202 1.35524E-01
 -1      1203 1.62492E-01
 -1      1204 2.00903E-01
 -1      1205 2.51282E-01
 -1      1206 3.03920E-01
 -1      1207 3.52761E-01
 -1      1208 3.88252E-01
 -1      1209 4.07021E-01
 -1      1210 4.82811E-01
 -1      1211 6.19353E-01
 -1      1212 7.29911E-01
 -1      1213 8.99846E-01
 -1      1214 1.13554E+00
 -1      1215 1.28660E+00
 -1      1216 1.52375E+00
 -1      1217 1.83441E+00
 -1      1218 2.37886E+00
 -1      1219 3.10197E+00
 -1      1220 3.40943E+00
 -1      1221 3.48392E+00
 -1      1222 3.54440E+00
 -1      1223 3.26255E+00
 -1      1224 2.55457E+00
 -1      1225 1.77809E+00
 -1      1226 1.14414E+00
 -1      1227 6.61510E-01
 -1      1228 2.87497E-01
 -1      1229 1.78130E-01
 -1      1230 2.40160E-01
 -1      1231 3.58714E-01
 -1      1232 5.91120E-01
 -1      1233 7.73441E-01
 -1      1234 8.45515E-01
 -1      1235 8.06232E-01
 -1      1236 7.41037E-01
 -1      1237 1.04197E+00
 -1      1238 1.36881E+00
 -1      1239 1.25889E+00
 -1      1240 8.30200E-01
 -1      1241 6.46839E-01
 -1      1242 7.82252E-01
 -1      1243 8.03025E-01
 -1      1244 8.23798E-01
 -1      1245 5.10265E-01
 -1      1246 2.51538E+01
 -1      1247 3.49204E+01
 -1      1248 4.46870E+01
 -1      1249 3.09892E+01
 -1      1250 1.54232E+01
 -1      1251 1.35551E+01
 -1      1252 1.33350E+01
 -1      1253 1.31149E+01
 -1      1254 1.26691E+01
 -1      1255 1.56914E+01
 -1      1256 3.29744E+01
 -1      1257 4.67891E+01
 -1      1258 3.53477E+01
 -1      1259 2.40469E+01
 -1      1260 2.43189E+01
 -1      1261 2.72875E+01
 -1      1262 3.01248E+01
 -1      1263 2.78867E+01
 -1      1264 1.93063E+01
 -1      1265 1.27074E+01
 -1      1266 1.24928E+01
 -1      1267 1.25350E+01
 -1      1268 1.24906E+01
 -1      1269 1.22178E+01
 -1      1270 1.67871E+01
 -1      1271 3.51365E+01
 -1      1272 4.86881E+01
 -1      1273 3.66401E+01
 -1      1274 2.48729E+01
 -1      1275 1.31431E+01
 -1      1276 4.87094E+00
 -1      1277 9.61057E+00
 -1      1278 2.06398E+00
 -1      1279 2.98241E+00
 -1      1280 4.18950E+00
 -1      1281 1.39815E+00
 -1      1282 1.66651E+00
 -1      1283 1.90349E+00
 -1      1284 1.10109E+00
 -1      1285 1.22431E+00
 -1      1286 1.33219E+00
 -1      1287 9.36062E-01
 -1      1288 1.00797E+00
 -1      1289 1.06523E+00
 -1      1290 8.36636E-01
 -1      1291 8.82210E-01
 -1      1292 9.18259E-01
 -1      1293 7.74920E-01
 -1      1294 8.02437E-01
 -1      1295 8.30208E-01
 -1      1296 7.55808E-01
 -1      1297 7.54820E-01
 -1      1298 7.75908E-01
 -1      1299 8.06309E-01
 -1      1300 7.77630E-01
 -1      1301 7.77630E-01
 -1      1302 8.84064E-01
 -1      1303 8.40209E-01
 -1      1304 8.33353E-01
 -1      1305 1.01687E+00
 -1      1306 9.40969E-01
 -1      1307 9.24158E-01
 -1      1308 1.24023E+00
 -1      1309 1.11263E+00
 -1      1310 1.07683E+00
 -1      1311 1.68179E+00
 -1      1312 1.41778E+00
 -1      1313 1.35014E+00
 -1      1314 2.88320E+00
 -1      1315 2.04840E+00
 -1      1316 1.89430E+00
 -1      1317 6.28614E+00
 -1      1318 3.71830E+00
 -1      1319 3.09602E+00
 -1      1320 1.40390E+01
 -1      1321 1.13401E+01
 -1      1322 8.98505E+00
 -1      1323 1.40390E+01
 -1      1324 8.73045E+00
 -1      1325 4.31781E+00
 -1      1326 3.82931E+00
 -1      1327 3.34081E+00
 -1      1328 3.82931E+00
 -1      1329 2.72592E+00
 -1      1330 2.11103E+00
 -1      1331 2.72592E+00
 -1      1332 1.77898E+00
 -1      1333 1.40457E+00
 -1      1334 1.77898E+00
 -1      1335 1.19371E+00
 -1      1336 1.01952E+00
 -1      1337 1.23608E+00
 -1      1338 8.94336E-01
 -1      1339 7.74866E-01
 -1      1340 9.00047E-01
 -1      1341 6.84959E-01
 -1      1342 5.95052E-01
 -1      1343 6.84959E-01
 -1      1344 5.31336E-01
 -1      1345 4.61206E-01
 -1      1346 5.31336E-01
 -1      1347 4.11166E-01
 -1      1348 3.57406E-01
 -1      1349 4.17581E-01
 -1      1350 3.18431E-01
 -1      1351 2.79001E-01
 -1      1352 3.28566E-01
 -1      1353 2.50656E-01
 -1      1354 2.18980E-01
 -1      1355 2.61246E-01
 -1      1356 1.94957E-01
 -1      1357 1.70011E-01
 -1      1358 2.08878E-01
 -1      1359 1.50228E-01
 -1      1360 1.31029E-01
 -1      1361 1.65072E-01
 -1      1362 1.15176E-01
 -1      1363 1.00833E-01
 -1      1364 1.29437E-01
 -1      1365 8.84912E-02
 -1      1366 7.82233E-02
 -1      1367 1.01243E-01
 -1      1368 6.89334E-02
 -1      1369 6.20774E-02
 -1      1370 7.96117E-02
 -1      1371 5.53774E-02
 -1      1372 5.13810E-02
 -1      1373 6.36219E-02
 -1      1374 4.68221E-02
 -1      1375 4.74593E-02
 -1      1376 5.23631E-02
 -1      1377 4.71144E-02
 -1      1378 5.18038E-02
 -1      1379 4.74593E-02
 -1      1380 5.64933E-02
 -1      1381 6.30551E-02
 -1      1382 5.18038E-02
 -1      1383 6.96169E-02
 -1      1384 7.78464E-02
 -1      1385 6.30551E-02
 -1      1386 8.74563E-02
 -1      1387 9.79303E-02
 -1      1388 7.92267E-02
 -1      1389 1.13261E-01
 -1      1390 1.33493E-01
 -1      1391 1.04167E-01
 -1      1392 1.53639E-01
 -1      1393 1.80337E-01
 -1      1394 1.39643E-01
 -1      1395 2.06073E-01
 -1      1396 2.40354E-01
 -1      1397 1.85524E-01
 -1      1398 2.72347E-01
 -1      1399 3.15172E-01
 -1      1400 2.43253E-01
 -1      1401 3.62006E-01
 -1      1402 4.13797E-01
 -1      1403 3.22078E-01
 -1      1404 4.84476E-01
 -1      1405 5.44441E-01
 -1      1406 4.39591E-01
 -1      1407 6.32250E-01
 -1      1408 6.97280E-01
 -1      1409 5.98078E-01
 -1      1410 8.00910E-01
 -1      1411 9.01337E-01
 -1      1412 7.89516E-01
 -1      1413 1.01452E+00
 -1      1414 1.15316E+00
 -1      1415 1.00632E+00
 -1      1416 1.26135E+00
 -1      1417 1.41537E+00
 -1      1418 1.22769E+00
 -1      1419 1.52467E+00
 -1      1420 1.72065E+00
 -1      1421 1.44518E+00
 -1      1422 1.88682E+00
 -1      1423 2.04137E+00
 -1      1424 1.72065E+00
 -1      1425 2.19592E+00
 -1      1426 2.21069E+00
 -1      1427 2.04137E+00
 -1      1428 2.22545E+00
 -1      1429 2.30624E+00
 -1      1430 2.21069E+00
 -1      1431 2.38704E+00
 -1      1432 2.38704E+00
 -1      1433 2.30624E+00
 -1      1434 2.32312E+00
 -1      1435 2.79539E+00
 -1      1436 2.32312E+00
 -1      1437 3.47561E+00
 -1      1438 4.87418E+00
 -1      1439 2.93940E+00
 -1      1440 6.12874E+00
 -1      1441 6.97411E+00
 -1      1442 4.87418E+00
 -1      1443 7.81949E+00
 -1      1444 7.81949E+00
 -1      1445 6.97411E+00
 -1      1446 7.62674E+00
 -1      1447 7.43400E+00
 -1      1448 7.62674E+00
 -1      1449 6.80304E+00
 -1      1450 6.17208E+00
 -1      1451 6.80304E+00
 -1      1452 5.07136E+00
 -1      1453 3.65286E+00
 -1      1454 5.07136E+00
 -1      1455 2.82524E+00
 -1      1456 1.81467E+00
 -1      1457 3.14301E+00
 -1      1458 1.48007E+00
 -1      1459 1.30741E+00
 -1      1460 1.98079E+00
 -1      1461 1.05955E+00
 -1      1462 1.05955E+00
 -1      1463 1.39832E+00
 -1      1464 1.01331E+00
 -1      1465 9.65562E-01
 -1      1466 1.10422E+00
 -1      1467 8.48472E-01
 -1      1468 9.40888E-01
 -1      1469 3.39462E+00
 -1      1470 8.71680E+00
 -1      1471 8.71680E+00
 -1      1472 2.41295E+00
 -1      1473 2.90379E+00
 -1      1474 2.90379E+00
 -1      1475 1.66571E+00
 -1      1476 2.03933E+00
 -1      1477 2.03933E+00
 -1      1478 1.14457E+00
 -1      1479 1.40514E+00
 -1      1480 1.40514E+00
 -1      1481 9.05887E-01
 -1      1482 1.02523E+00
 -1      1483 1.02523E+00
 -1      1484 7.31196E-01
 -1      1485 8.18542E-01
 -1      1486 8.18542E-01
 -1      1487 5.87707E-01
 -1      1488 6.59451E-01
 -1      1489 6.59451E-01
 -1      1490 4.68098E-01
 -1      1491 5.27902E-01
 -1      1492 5.27902E-01
 -1      1493 3.68534E-01
 -1      1494 4.18316E-01
 -1      1495 4.18316E-01
 -1      1496 2.94233E-01
 -1      1497 3.31384E-01
 -1      1498 3.31384E-01
 -1      1499 2.32397E-01
 -1      1500 2.63315E-01
 -1      1501 2.63315E-01
 -1      1502 1.82798E-01
 -1      1503 2.08314E-01
 -1      1504 2.08314E-01
 -1      1505 1.42760E-01
 -1      1506 1.63263E-01
 -1      1507 1.64697E-01
 -1      1508 1.11147E-01
 -1      1509 1.27119E-01
 -1      1510 1.29521E-01
 -1      1511 8.71345E-02
 -1      1512 9.90722E-02
 -1      1513 1.01805E-01
 -1      1514 6.99064E-02
 -1      1515 7.82687E-02
 -1      1516 8.08650E-02
 -1      1517 5.87147E-02
 -1      1518 6.38997E-02
 -1      1519 6.59925E-02
 -1      1520 5.52671E-02
 -1      1521 5.58096E-02
 -1      1522 5.70807E-02
 -1      1523 6.31322E-02
 -1      1524 5.82359E-02
 -1      1525 5.71443E-02
 -1      1526 7.54466E-02
 -1      1527 6.80908E-02
 -1      1528 6.50717E-02
 -1      1529 9.16827E-02
 -1      1530 8.20961E-02
 -1      1531 7.66798E-02
 -1      1532 1.11471E-01
 -1      1533 1.00036E-01
 -1      1534 9.16827E-02
 -1      1535 1.35776E-01
 -1      1536 1.23159E-01
 -1      1537 1.11724E-01
 -1      1538 1.67424E-01
 -1      1539 1.53074E-01
 -1      1540 1.40708E-01
 -1      1541 2.11288E-01
 -1      1542 1.87228E-01
 -1      1543 1.77809E-01
 -1      1544 2.58845E-01
 -1      1545 2.32526E-01
 -1      1546 2.18851E-01
 -1      1547 3.05871E-01
 -1      1548 2.79551E-01
 -1      1549 2.60796E-01
 -1      1550 3.52761E-01
 -1      1551 3.30240E-01
 -1      1552 3.05871E-01
 -1      1553 3.88252E-01
 -1      1554 3.75283E-01
 -1      1555 3.52761E-01
 -1      1556 4.07021E-01
 -1      1557 4.01220E-01
 -1      1558 3.88252E-01
 -1      1559 5.11104E-01
 -1      1560 4.41114E-01
 -1      1561 4.35313E-01
 -1      1562 6.19884E-01
 -1      1563 5.53332E-01
 -1      1564 5.11634E-01
 -1      1565 7.29911E-01
 -1      1566 6.85905E-01
 -1      1567 6.19884E-01
 -1      1568 8.99846E-01
 -1      1569 7.73917E-01
 -1      1570 7.29911E-01
 -1      1571 1.13554E+00
 -1      1572 1.02577E+00
 -1      1573 8.99846E-01
 -1      1574 1.28660E+00
 -1      1575 1.24530E+00
 -1      1576 1.13554E+00
 -1      1577 1.52375E+00
 -1      1578 1.32790E+00
 -1      1579 1.28660E+00
 -1      1580 1.83441E+00
 -1      1581 1.71960E+00
 -1      1582 1.52375E+00
 -1      1583 2.46044E+00
 -1      1584 2.03080E+00
 -1      1585 1.91599E+00
 -1      1586 3.10197E+00
 -1      1587 2.80850E+00
 -1      1588 2.46044E+00
 -1      1589 3.40943E+00
 -1      1590 3.39544E+00
 -1      1591 3.10197E+00
 -1      1592 3.48392E+00
 -1      1593 3.42343E+00
 -1      1594 3.40943E+00
 -1      1595 3.54440E+00
 -1      1596 3.54440E+00
 -1      1597 3.48392E+00
 -1      1598 2.98071E+00
 -1      1599 3.26255E+00
 -1      1600 3.26255E+00
 -1      1601 2.12843E+00
 -1      1602 2.55457E+00
 -1      1603 2.55457E+00
 -1      1604 1.42776E+00
 -1      1605 1.77809E+00
 -1      1606 1.77809E+00
 -1      1607 8.72064E-01
 -1      1608 1.15568E+00
 -1      1609 1.15568E+00
 -1      1610 4.71152E-01
 -1      1611 6.70162E-01
 -1      1612 6.81706E-01
 -1      1613 3.53133E-01
 -1      1614 3.17789E-01
 -1      1615 3.21395E-01
 -1      1616 5.84500E-01
 -1      1617 4.62340E-01
 -1      1618 5.43575E-01
 -1      1619 9.27415E-01
 -1      1620 8.17167E-01
 -1      1621 9.20794E-01
 -1      1622 1.13473E+00
 -1      1623 1.06266E+00
 -1      1624 1.28871E+00
 -1      1625 1.18032E+00
 -1      1626 1.18032E+00
 -1      1627 1.46953E+00
 -1      1628 1.14103E+00
 -1      1629 1.18032E+00
 -1      1630 1.51512E+00
 -1      1631 9.94157E-01
 -1      1632 1.02007E+00
 -1      1633 1.39415E+00
 -1      1634 1.96684E+00
 -1      1635 1.64000E+00
 -1      1636 1.91903E+00
 -1      1637 2.12160E+00
 -1      1638 2.12160E+00
 -1      1639 2.71963E+00
 -1      1640 2.01168E+00
 -1      1641 2.12160E+00
 -1      1642 2.87439E+00
 -1      1643 1.20051E+00
 -1      1644 1.51928E+00
 -1      1645 2.38199E+00
 -1      1646 1.08512E+00
 -1      1647 9.49712E-01
 -1      1648 1.63880E+00
 -1      1649 1.08512E+00
 -1      1650 1.08512E+00
 -1      1651 1.38800E+00
 -1      1652 1.05833E+00
 -1      1653 1.03755E+00
 -1      1654 1.34043E+00
 -1      1655 9.40888E-01
 -1      1656 9.40888E-01
 -1      1657 1.17542E+00
 -1      1658 1.05798E+00
 -1      1659 2.73177E+01
 -1      1660 2.73177E+01
 -1      1661 4.08405E+01
 -1      1662 3.10739E+01
 -1      1663 4.46870E+01
 -1      1664 4.46870E+01
 -1      1665 1.72986E+01
 -1      1666 3.09964E+01
 -1      1667 1.28155E+01
 -1      1668 1.46837E+01
 -1      1669 1.35551E+01
 -1      1670 1.35551E+01
 -1      1671 1.28002E+01
 -1      1672 1.30203E+01
 -1      1673 1.31149E+01
 -1      1674 1.31149E+01
 -1      1675 1.22233E+01
 -1      1676 1.26691E+01
 -1      1677 1.51346E+01
 -1      1678 1.16664E+01
 -1      1679 3.34849E+01
 -1      1680 1.96701E+01
 -1      1681 4.67891E+01
 -1      1682 4.67891E+01
 -1      1683 2.60111E+01
 -1      1684 3.74525E+01
 -1      1685 2.63184E+01
 -1      1686 2.61778E+01
 -1      1687 2.64497E+01
 -1      1688 2.63184E+01
 -1      1689 3.12643E+01
 -1      1690 2.84270E+01
 -1      1691 3.12643E+01
 -1      1692 3.12643E+01
 -1      1693 2.64200E+01
 -1      1694 2.86581E+01
 -1      1695 1.29640E+01
 -1      1696 1.93063E+01
 -1      1697 1.23922E+01
 -1      1698 1.26489E+01
 -1      1699 1.24928E+01
 -1      1700 1.24507E+01
 -1      1701 1.25350E+01
 -1      1702 1.25350E+01
 -1      1703 1.24462E+01
 -1      1704 1.24906E+01
 -1      1705 1.19894E+01
 -1      1706 1.22178E+01
 -1      1707 1.65765E+01
 -1      1708 1.17787E+01
 -1      1709 3.63799E+01
 -1      1710 2.28283E+01
 -1      1711 4.86881E+01
 -1      1712 4.86881E+01
 -1      1713 2.70281E+01
 -1      1714 3.90762E+01
 -1      1715 2.73177E+01
 -1      1716 2.70368E+01
 -1      1717 1.46909E+01
 -1      1718 3.09964E+01
 -1      1719 3.61785E-01
 -1      1720 4.39414E-01
 -1      1721 3.32377E+01
 -1      1722 4.08405E+01
 -1      1723 2.94816E+01
 -1      1724 1.28155E+01
 -1      1725 1.30203E+01
 -1      1726 1.28002E+01
 -1      1727 1.26691E+01
 -1      1728 1.16664E+01
 -1      1729 1.56451E+01
 -1      1730 3.34849E+01
 -1      1731 3.74525E+01
 -1      1732 2.82826E+01
 -1      1733 2.84493E+01
 -1      1734 3.04265E+01
 -1      1735 3.24038E+01
 -1      1736 2.97976E+01
 -1      1737 2.00777E+01
 -1      1738 1.26489E+01
 -1      1739 1.23922E+01
 -1      1740 1.24928E+01
 -1      1741 1.24906E+01
 -1      1742 1.22178E+01
 -1      1743 1.17787E+01
 -1      1744 1.78199E+01
 -1      1745 3.63799E+01
 -1      1746 3.90762E+01
 -1      1747 2.94729E+01
 -1      1748 9.61057E+00
 -1      1749 1.28835E+00
 -1      1750 1.68582E+00
 -1      1751 2.39023E+00
 -1      1752 4.27877E+00
 -1      1753 1.77509E+00
 -1      1754 8.80543E-01
 -1      1755 9.73665E-01
 -1      1756 7.79775E-01
 -1      1757 8.33627E-01
 -1      1758 7.42059E-01
 -1      1759 7.13977E-01
 -1      1760 7.48176E-01
 -1      1761 6.63544E-01
 -1      1762 6.71717E-01
 -1      1763 6.91818E-01
 -1      1764 6.09786E-01
 -1      1765 6.95156E-01
 -1      1766 6.73334E-01
 -1      1767 5.89243E-01
 -1      1768 7.50904E-01
 -1      1769 7.17004E-01
 -1      1770 6.12707E-01
 -1      1771 8.41179E-01
 -1      1772 7.84274E-01
 -1      1773 6.67925E-01
 -1      1774 9.84547E-01
 -1      1775 8.88784E-01
 -1      1776 7.48900E-01
 -1      1777 1.22982E+00
 -1      1778 1.05228E+00
 -1      1779 8.64233E-01
 -1      1780 1.71061E+00
 -1      1781 1.34400E+00
 -1      1782 1.04613E+00
 -1      1783 2.63018E+00
 -1      1784 1.79508E+00
 -1      1785 1.24477E+00
 -1      1786 8.11978E+00
 -1      1787 3.06584E+00
 -1      1788 1.76490E+00
 -1      1789 2.79759E+00
 -1      1790 5.19793E+00
 -1      1791 2.16349E+00
 -1      1792 2.65433E+00
 -1      1793 2.05730E+00
 -1      1794 3.39866E+00
 -1      1795 2.53506E+00
 -1      1796 1.92016E+00
 -1      1797 1.68910E+00
 -1      1798 1.35705E+00
 -1      1799 1.49824E+00
 -1      1800 1.17679E+00
 -1      1801 9.65932E-01
 -1      1802 1.08690E+00
 -1      1803 8.40411E-01
 -1      1804 7.15230E-01
 -1      1805 7.81114E-01
 -1      1806 6.56531E-01
 -1      1807 5.66624E-01
 -1      1808 5.96895E-01
 -1      1809 5.18042E-01
 -1      1810 4.54327E-01
 -1      1811 4.89614E-01
 -1      1812 4.11522E-01
 -1      1813 3.61482E-01
 -1      1814 3.98228E-01
 -1      1815 3.28777E-01
 -1      1816 2.89802E-01
 -1      1817 3.22719E-01
 -1      1818 2.62188E-01
 -1      1819 2.33843E-01
 -1      1820 2.62399E-01
 -1      1821 2.10149E-01
 -1      1822 1.86126E-01
 -1      1823 2.11091E-01
 -1      1824 1.68421E-01
 -1      1825 1.48639E-01
 -1      1826 1.69692E-01
 -1      1827 1.34062E-01
 -1      1828 1.18210E-01
 -1      1829 1.37411E-01
 -1      1830 1.06027E-01
 -1      1831 9.36852E-02
 -1      1832 1.10652E-01
 -1      1833 8.37727E-02
 -1      1834 7.44828E-02
 -1      1835 8.85562E-02
 -1      1836 6.65913E-02
 -1      1837 5.98914E-02
 -1      1838 7.07522E-02
 -1      1839 5.36921E-02
 -1      1840 4.91332E-02
 -1      1841 5.66615E-02
 -1      1842 4.54508E-02
 -1      1843 4.51059E-02
 -1      1844 4.67798E-02
 -1      1845 4.56035E-02
 -1      1846 5.02929E-02
 -1      1847 4.35949E-02
 -1      1848 5.35856E-02
 -1      1849 6.01474E-02
 -1      1850 4.73852E-02
 -1      1851 6.79567E-02
 -1      1852 7.75666E-02
 -1      1853 5.84872E-02
 -1      1854 8.88366E-02
 -1      1855 1.04167E-01
 -1      1856 7.75666E-02
 -1      1857 1.20428E-01
 -1      1858 1.40574E-01
 -1      1859 1.05098E-01
 -1      1860 1.68526E-01
 -1      1861 1.94262E-01
 -1      1862 1.49312E-01
 -1      1863 2.31454E-01
 -1      1864 2.63446E-01
 -1      1865 2.14456E-01
 -1      1866 3.11986E-01
 -1      1867 3.58819E-01
 -1      1868 3.00187E-01
 -1      1869 4.20701E-01
 -1      1870 4.91380E-01
 -1      1871 4.10608E-01
 -1      1872 5.67936E-01
 -1      1873 6.55744E-01
 -1      1874 5.49046E-01
 -1      1875 7.46633E-01
 -1      1876 8.50262E-01
 -1      1877 7.16490E-01
 -1      1878 9.51794E-01
 -1      1879 1.06497E+00
 -1      1880 9.08911E-01
 -1      1881 1.16769E+00
 -1      1882 1.27588E+00
 -1      1883 1.11316E+00
 -1      1884 1.36184E+00
 -1      1885 1.47114E+00
 -1      1886 1.30184E+00
 -1      1887 1.54824E+00
 -1      1888 1.71441E+00
 -1      1889 1.46490E+00
 -1      1890 1.80035E+00
 -1      1891 1.95490E+00
 -1      1892 1.62794E+00
 -1      1893 1.96560E+00
 -1      1894 1.98036E+00
 -1      1895 1.72457E+00
 -1      1896 1.94696E+00
 -1      1897 2.02776E+00
 -1      1898 1.70187E+00
 -1      1899 2.13141E+00
 -1      1900 2.06749E+00
 -1      1901 1.77213E+00
 -1      1902 2.38816E+00
 -1      1903 3.06837E+00
 -1      1904 2.19646E+00
 -1      1905 3.46943E+00
 -1      1906 4.72399E+00
 -1      1907 2.91819E+00
 -1      1908 5.26235E+00
 -1      1909 6.10772E+00
 -1      1910 3.85760E+00
 -1      1911 6.34118E+00
 -1      1912 6.14843E+00
 -1      1913 4.62941E+00
 -1      1914 5.85006E+00
 -1      1915 5.21910E+00
 -1      1916 4.56449E+00
 -1      1917 4.83546E+00
 -1      1918 3.73473E+00
 -1      1919 3.88248E+00
 -1      1920 3.57635E+00
 -1      1921 2.74873E+00
 -1      1922 3.34046E+00
 -1      1923 2.32832E+00
 -1      1924 1.99372E+00
 -1      1925 2.76167E+00
 -1      1926 1.66394E+00
 -1      1927 1.41607E+00
 -1      1928 2.01147E+00
 -1      1929 1.37147E+00
 -1      1930 1.32523E+00
 -1      1931 1.32523E+00
 -1      1932 1.63708E+00
 -1      1933 1.39799E+00
 -1      1934 1.77161E+00
 -1      1935 1.52215E+00
 -1      1936 1.01775E+00
 -1      1937 1.27832E+00
 -1      1938 1.01060E+00
 -1      1939 8.04651E-01
 -1      1940 9.23993E-01
 -1      1941 7.97174E-01
 -1      1942 6.37886E-01
 -1      1943 7.25231E-01
 -1      1944 6.23995E-01
 -1      1945 5.12513E-01
 -1      1946 5.84257E-01
 -1      1947 4.90947E-01
 -1      1948 4.19414E-01
 -1      1949 4.79219E-01
 -1      1950 4.04025E-01
 -1      1951 3.37713E-01
 -1      1952 3.87495E-01
 -1      1953 3.38811E-01
 -1      1954 2.72799E-01
 -1      1955 3.09950E-01
 -1      1956 2.79129E-01
 -1      1957 2.19207E-01
 -1      1958 2.50125E-01
 -1      1959 2.28691E-01
 -1      1960 1.75280E-01
 -1      1961 1.99362E-01
 -1      1962 1.86172E-01
 -1      1963 1.38976E-01
 -1      1964 1.58511E-01
 -1      1965 1.49559E-01
 -1      1966 1.09578E-01
 -1      1967 1.25219E-01
 -1      1968 1.19034E-01
 -1      1969 8.69118E-02
 -1      1970 9.89862E-02
 -1      1971 9.46846E-02
 -1      1972 7.00591E-02
 -1      1973 7.89249E-02
 -1      1974 7.61059E-02
 -1      1975 5.84410E-02
 -1      1976 6.44477E-02
 -1      1977 6.25076E-02
 -1      1978 5.20754E-02
 -1      1979 5.49806E-02
 -1      1980 5.34357E-02
 -1      1981 5.45983E-02
 -1      1982 5.16295E-02
 -1      1983 4.95294E-02
 -1      1984 6.18424E-02
 -1      1985 5.68839E-02
 -1      1986 5.13690E-02
 -1      1987 7.31489E-02
 -1      1988 6.64994E-02
 -1      1989 5.83115E-02
 -1      1990 9.05326E-02
 -1      1991 8.21792E-02
 -1      1992 7.19987E-02
 -1      1993 1.13599E-01
 -1      1994 1.01912E-01
 -1      1995 9.24081E-02
 -1      1996 1.46285E-01
 -1      1997 1.28988E-01
 -1      1998 1.19176E-01
 -1      1999 1.91768E-01
 -1      2000 1.71964E-01
 -1      2001 1.60244E-01
 -1      2002 2.43805E-01
 -1      2003 2.22567E-01
 -1      2004 2.16722E-01
 -1      2005 2.99534E-01
 -1      2006 2.78828E-01
 -1      2007 2.82544E-01
 -1      2008 3.60899E-01
 -1      2009 3.36530E-01
 -1      2010 3.54562E-01
 -1      2011 4.18217E-01
 -1      2012 3.95695E-01
 -1      2013 4.26354E-01
 -1      2014 4.62440E-01
 -1      2015 4.49471E-01
 -1      2016 4.92404E-01
 -1      2017 5.21920E-01
 -1      2018 4.87827E-01
 -1      2019 5.49046E-01
 -1      2020 5.64688E-01
 -1      2021 5.22460E-01
 -1      2022 5.74974E-01
 -1      2023 6.30709E-01
 -1      2024 5.64688E-01
 -1      2025 5.75514E-01
 -1      2026 6.34165E-01
 -1      2027 5.90158E-01
 -1      2028 5.34963E-01
 -1      2029 7.79806E-01
 -1      2030 6.53878E-01
 -1      2031 5.14125E-01
 -1      2032 9.69266E-01
 -1      2033 8.59504E-01
 -1      2034 6.13536E-01
 -1      2035 1.26039E+00
 -1      2036 1.21908E+00
 -1      2037 9.43052E-01
 -1      2038 1.75098E+00
 -1      2039 1.55513E+00
 -1      2040 1.48762E+00
 -1      2041 2.15420E+00
 -1      2042 1.95780E+00
 -1      2043 1.98918E+00
 -1      2044 2.55679E+00
 -1      2045 2.20873E+00
 -1      2046 2.25054E+00
 -1      2047 2.85026E+00
 -1      2048 2.55679E+00
 -1      2049 2.30507E+00
 -1      2050 2.81219E+00
 -1      2051 2.79820E+00
 -1      2052 2.25301E+00
 -1      2053 2.87268E+00
 -1      2054 2.81219E+00
 -1      2055 2.20095E+00
 -1      2056 2.53197E+00
 -1      2057 2.81382E+00
 -1      2058 2.14210E+00
 -1      2059 1.91759E+00
 -1      2060 2.34373E+00
 -1      2061 1.89500E+00
 -1      2062 1.33478E+00
 -1      2063 1.68511E+00
 -1      2064 1.47428E+00
 -1      2065 8.41068E-01
 -1      2066 1.11314E+00
 -1      2067 1.02016E+00
 -1      2068 4.43148E-01
 -1      2069 6.45051E-01
 -1      2070 6.02510E-01
 -1      2071 4.02758E-01
 -1      2072 1.50046E+00
 -1      2073 1.36522E+00
 -1      2074 1.21780E+00
 -1      2075 9.85132E-01
 -1      2076 1.42955E+00
 -1      2077 7.27155E-01
 -1      2078 5.82604E-01
 -1      2079 5.86339E-01
 -1      2080 1.02416E+00
 -1      2081 1.64988E+00
 -1      2082 1.60430E+00
 -1      2083 1.68080E+00
 -1      2084 1.82968E+00
 -1      2085 1.82968E+00
 -1      2086 1.96444E+00
 -1      2087 1.83952E+00
 -1      2088 1.96049E+00
 -1      2089 2.27505E+00
 -1      2090 2.79518E+00
 -1      2091 2.14934E+00
 -1      2092 2.71568E+00
 -1      2093 3.89443E+00
 -1      2094 3.73967E+00
 -1      2095 3.96999E+00
 -1      2096 3.89443E+00
 -1      2097 3.89443E+00
 -1      2098 4.91447E+00
 -1      2099 3.14572E+00
 -1      2100 3.63811E+00
 -1      2101 4.65816E+00
 -1      2102 2.05305E+00
 -1      2103 2.30385E+00
 -1      2104 3.55997E+00
 -1      2105 1.70921E+00
 -1      2106 1.70921E+00
 -1      2107 2.37427E+00
 -1      2108 1.55106E+00
 -1      2109 1.59863E+00
 -1      2110 1.91984E+00
 -1      2111 3.50499E+01
 -1      2112 3.12033E+01
 -1      2113 3.21661E+01
 -1      2114 3.21661E+01
 -1      2115 3.58264E+01
 -1      2116 3.20702E+01
 -1      2117 1.59351E+01
 -1      2118 2.96258E+01
 -1      2119 9.82664E+00
 -1      2120 1.24415E+01
 -1      2121 1.10709E+01
 -1      2122 1.03569E+00
 -1      2123 1.20952E+00
 -1      2124 9.91843E-01
 -1      2125 8.50997E-01
 -1      2126 1.12069E+01
 -1      2127 1.17417E+01
 -1      2128 1.18719E+01
 -1      2129 1.15572E+01
 -1      2130 1.04826E+01
 -1      2131 1.09285E+01
 -1      2132 9.44463E+00
 -1      2133 1.00015E+01
 -1      2134 8.26087E+00
 -1      2135 1.46706E+01
 -1      2136 1.01350E+01
 -1      2137 3.17351E+01
 -1      2138 1.84308E+01
 -1      2139 2.81159E+01
 -1      2140 3.74525E+01
 -1      2141 2.73520E+01
 -1      2142 2.71853E+01
 -1      2143 2.90642E+01
 -1      2144 2.90642E+01
 -1      2145 2.79669E+01
 -1      2146 3.10415E+01
 -1      2147 2.90642E+01
 -1      2148 3.24038E+01
 -1      2149 3.24038E+01
 -1      2150 2.31323E+01
 -1      2151 2.57385E+01
 -1      2152 1.19671E+01
 -1      2153 1.90808E+01
 -1      2154 9.88824E+00
 -1      2155 1.02034E+01
 -1      2156 1.10695E+01
 -1      2157 1.10110E+01
 -1      2158 1.12727E+01
 -1      2159 1.12305E+01
 -1      2160 9.84931E+00
 -1      2161 1.17439E+01
 -1      2162 1.17883E+01
 -1      2163 1.08496E+01
 -1      2164 1.10780E+01
 -1      2165 9.26539E+00
 -1      2166 9.47607E+00
 -1      2167 1.68826E+01
 -1      2168 1.06308E+01
 -1      2169 3.31242E+01
 -1      2170 2.08160E+01
 -1      2171 2.94642E+01
 -1      2172 3.90762E+01
 -1      2173 3.21661E+01
 -1      2174 3.21574E+01
 -1      2175 3.48507E+01
 -1      2176 1.07622E+01
 -1      2177 1.00226E+01
 -1      2178 2.91016E+00
 -1      2179 7.77325E+00
 -1      2180 9.27624E+00
 -1      2181 1.10896E+01
 -1      2182 8.29668E+00
 -1      2183 2.10440E+00
 -1      2184 3.00358E+01
 -1      2185 3.47548E+01
 -1      2186 1.43362E+00
 -1      2187 1.99886E+01
 -1      2188 2.73678E+01
 -1      2189 2.73678E+01
 -1      2190 3.00611E+01
 -1      2191 2.35122E+01
 -1      2192 1.36269E+01
 -1      2193 8.32814E+00
 -1      2194 8.33624E+00
 -1      2195 1.05260E+01
 -1      2196 8.56548E+00
 -1      2197 9.20647E+00
 -1      2198 1.50217E+01
 -1      2199 2.57385E+01
 -1      2200 2.96792E+01
 -1      2201 2.71853E+01
 -1      2202 2.23984E+01
 -1      2203 7.43563E+00
 -1      2204 5.77073E+00
 -1      2205 6.46115E+00
 -1      2206 1.02786E+01
 -1      2207 1.12522E+01
 -1      2208 1.00092E+01
 -1      2209 9.06576E+00
 -1      2210 1.29208E+01
 -1      2211 3.10415E+01
 -1      2212 1.03757E+01
 -1      2213 1.08888E+00
 -1      2214 1.48077E+00
 -1      2215 5.59315E-01
 -1      2216 5.90914E-01
 -1      2217 6.03162E-01
 -1      2218 6.50078E-01
 -1      2219 4.98933E-01
 -1      2220 5.11250E-01
 -1      2221 5.09634E-01
 -1      2222 5.46061E-01
 -1      2223 5.24213E-01
 -1      2224 4.44604E-01
 -1      2225 5.94224E-01
 -1      2226 5.60854E-01
 -1      2227 4.72360E-01
 -1      2228 6.53869E-01
 -1      2229 6.06264E-01
 -1      2230 4.99193E-01
 -1      2231 7.21596E-01
 -1      2232 6.53869E-01
 -1      2233 5.11232E-01
 -1      2234 8.84833E-01
 -1      2235 7.70662E-01
 -1      2236 5.60298E-01
 -1      2237 8.90933E-01
 -1      2238 1.01060E+00
 -1      2239 9.69216E-01
 -1      2240 1.26634E+00
 -1      2241 1.03527E+00
 -1      2242 6.02648E+00
 -1      2243 5.83051E+00
 -1      2244 9.84515E-01
 -1      2245 8.04248E-01
 -1      2246 7.52617E-01
 -1      2247 7.47542E-01
 -1      2248 6.22021E-01
 -1      2249 6.45154E-01
 -1      2250 5.65860E-01
 -1      2251 5.07161E-01
 -1      2252 5.32288E-01
 -1      2253 4.57818E-01
 -1      2254 4.09237E-01
 -1      2255 4.26784E-01
 -1      2256 3.81813E-01
 -1      2257 3.39009E-01
 -1      2258 3.50018E-01
 -1      2259 3.13981E-01
 -1      2260 2.81275E-01
 -1      2261 2.97566E-01
 -1      2262 2.57613E-01
 -1      2263 2.29999E-01
 -1      2264 2.48875E-01
 -1      2265 2.10740E-01
 -1      2266 1.87046E-01
 -1      2267 2.05954E-01
 -1      2268 1.70256E-01
 -1      2269 1.52552E-01
 -1      2270 1.69905E-01
 -1      2271 1.37948E-01
 -1      2272 1.23371E-01
 -1      2273 1.38512E-01
 -1      2274 1.11075E-01
 -1      2275 9.88914E-02
 -1      2276 1.11611E-01
 -1      2277 8.90586E-02
 -1      2278 7.91461E-02
 -1      2279 8.94813E-02
 -1      2280 7.12413E-02
 -1      2281 6.33499E-02
 -1      2282 7.17437E-02
 -1      2283 5.66615E-02
 -1      2284 5.04622E-02
 -1      2285 5.71506E-02
 -1      2286 4.58450E-02
 -1      2287 4.21625E-02
 -1      2288 4.58450E-02
 -1      2289 3.95264E-02
 -1      2290 4.00240E-02
 -1      2291 3.85916E-02
 -1      2292 4.22059E-02
 -1      2293 4.54986E-02
 -1      2294 3.81374E-02
 -1      2295 5.06779E-02
 -1      2296 5.84872E-02
 -1      2297 4.54986E-02
 -1      2298 6.94947E-02
 -1      2299 8.07647E-02
 -1      2300 6.16853E-02
 -1      2301 9.88282E-02
 -1      2302 1.15090E-01
 -1      2303 9.07563E-02
 -1      2304 1.38926E-01
 -1      2305 1.66879E-01
 -1      2306 1.32656E-01
 -1      2307 1.98078E-01
 -1      2308 2.35269E-01
 -1      2309 1.87692E-01
 -1      2310 2.75612E-01
 -1      2311 3.24151E-01
 -1      2312 2.59234E-01
 -1      2313 3.75523E-01
 -1      2314 4.37404E-01
 -1      2315 3.50947E-01
 -1      2316 5.01599E-01
 -1      2317 5.78155E-01
 -1      2318 4.66514E-01
 -1      2319 6.56490E-01
 -1      2320 7.47379E-01
 -1      2321 6.09044E-01
 -1      2322 8.40003E-01
 -1      2323 9.41534E-01
 -1      2324 7.80002E-01
 -1      2325 1.04631E+00
 -1      2326 1.14903E+00
 -1      2327 9.77405E-01
 -1      2328 1.25987E+00
 -1      2329 1.34583E+00
 -1      2330 1.19302E+00
 -1      2331 1.45072E+00
 -1      2332 1.52782E+00
 -1      2333 1.40875E+00
 -1      2334 1.61365E+00
 -1      2335 1.69959E+00
 -1      2336 1.59947E+00
 -1      2337 1.87912E+00
 -1      2338 1.88982E+00
 -1      2339 1.86484E+00
 -1      2340 2.10755E+00
 -1      2341 2.07415E+00
 -1      2342 2.26210E+00
 -1      2343 2.27299E+00
 -1      2344 2.37664E+00
 -1      2345 2.67867E+00
 -1      2346 2.35706E+00
 -1      2347 2.67773E+00
 -1      2348 2.85792E+00
 -1      2349 2.93529E+00
 -1      2350 3.33635E+00
 -1      2351 3.09589E+00
 -1      2352 4.39229E+00
 -1      2353 4.93064E+00
 -1      2354 4.40939E+00
 -1      2355 5.95862E+00
 -1      2356 6.19207E+00
 -1      2357 6.49330E+00
 -1      2358 5.61268E+00
 -1      2359 5.31431E+00
 -1      2360 6.94189E+00
 -1      2361 4.75405E+00
 -1      2362 4.37041E+00
 -1      2363 5.80224E+00
 -1      2364 3.34046E+00
 -1      2365 3.18207E+00
 -1      2366 4.21203E+00
 -1      2367 3.19247E+00
 -1      2368 2.77206E+00
 -1      2369 3.19247E+00
 -1      2370 2.34126E+00
 -1      2371 2.01147E+00
 -1      2372 2.77206E+00
 -1      2373 5.44575E-01
 -1      2374 6.23995E-01
 -1      2375 4.37319E-01
 -1      2376 4.90947E-01
 -1      2377 4.90947E-01
 -1      2378 3.70730E-01
 -1      2379 4.04025E-01
 -1      2380 4.04025E-01
 -1      2381 3.06892E-01
 -1      2382 3.38811E-01
 -1      2383 3.38811E-01
 -1      2384 2.51365E-01
 -1      2385 2.79129E-01
 -1      2386 2.79129E-01
 -1      2387 2.06366E-01
 -1      2388 2.29041E-01
 -1      2389 2.29041E-01
 -1      2390 1.66952E-01
 -1      2391 1.86796E-01
 -1      2392 1.87146E-01
 -1      2393 1.33494E-01
 -1      2394 1.50262E-01
 -1      2395 1.50887E-01
 -1      2396 1.06973E-01
 -1      2397 1.20731E-01
 -1      2398 1.21434E-01
 -1      2399 8.59117E-02
 -1      2400 9.65034E-02
 -1      2401 9.82004E-02
 -1      2402 6.91496E-02
 -1      2403 7.71365E-02
 -1      2404 7.89553E-02
 -1      2405 5.62663E-02
 -1      2406 6.18777E-02
 -1      2407 6.29083E-02
 -1      2408 4.67471E-02
 -1      2409 5.02075E-02
 -1      2410 4.95776E-02
 -1      2411 4.36770E-02
 -1      2412 4.41229E-02
 -1      2413 4.08946E-02
 -1      2414 4.68066E-02
 -1      2415 4.45211E-02
 -1      2416 3.91145E-02
 -1      2417 5.61849E-02
 -1      2418 5.15280E-02
 -1      2419 4.46800E-02
 -1      2420 7.19987E-02
 -1      2421 6.29684E-02
 -1      2422 5.61849E-02
 -1      2423 9.64373E-02
 -1      2424 8.50582E-02
 -1      2425 7.60279E-02
 -1      2426 1.30296E-01
 -1      2427 1.14907E-01
 -1      2428 1.07557E-01
 -1      2429 1.78752E-01
 -1      2430 1.53073E-01
 -1      2431 1.48804E-01
 -1      2432 2.36732E-01
 -1      2433 2.05933E-01
 -1      2434 1.98763E-01
 -1      2435 3.02800E-01
 -1      2436 2.67777E-01
 -1      2437 2.56988E-01
 -1      2438 3.73166E-01
 -1      2439 3.36170E-01
 -1      2440 3.21403E-01
 -1      2441 4.40687E-01
 -1      2442 4.05891E-01
 -1      2443 3.87498E-01
 -1      2444 5.01669E-01
 -1      2445 4.70415E-01
 -1      2446 4.49951E-01
 -1      2447 5.54209E-01
 -1      2448 5.28821E-01
 -1      2449 5.06831E-01
 -1      2450 5.74974E-01
 -1      2451 5.74434E-01
 -1      2452 5.54209E-01
 -1      2453 5.75514E-01
 -1      2454 5.75514E-01
 -1      2455 5.74974E-01
 -1      2456 5.09738E-01
 -1      2457 5.50289E-01
 -1      2458 5.50289E-01
 -1      2459 5.48962E-01
 -1      2460 5.29249E-01
 -1      2461 5.44575E-01
 -1      2462 6.67094E-01
 -1      2463 5.87396E-01
 -1      2464 6.02520E-01
 -1      2465 1.08601E+00
 -1      2466 8.36196E-01
 -1      2467 8.10055E-01
 -1      2468 1.63492E+00
 -1      2469 1.34017E+00
 -1      2470 1.23332E+00
 -1      2471 2.03120E+00
 -1      2472 1.82438E+00
 -1      2473 1.67694E+00
 -1      2474 2.25054E+00
 -1      2475 2.19601E+00
 -1      2476 2.03120E+00
 -1      2477 2.30507E+00
 -1      2478 2.30507E+00
 -1      2479 2.25054E+00
 -1      2480 2.18881E+00
 -1      2481 2.24088E+00
 -1      2482 2.24088E+00
 -1      2483 2.20095E+00
 -1      2484 2.20095E+00
 -1      2485 2.18881E+00
 -1      2486 2.08324E+00
 -1      2487 2.14210E+00
 -1      2488 2.14210E+00
 -1      2489 1.88379E+00
 -1      2490 2.07204E+00
 -1      2491 2.07204E+00
 -1      2492 1.69947E+00
 -1      2493 1.93195E+00
 -1      2494 2.10898E+00
 -1      2495 1.51012E+00
 -1      2496 1.73175E+00
 -1      2497 2.18942E+00
 -1      2498 7.82356E-01
 -1      2499 2.31345E+00
 -1      2500 2.13364E+00
 -1      2501 2.90004E+00
 -1      2502 2.76924E+00
 -1      2503 2.93844E+00
 -1      2504 1.89934E+00
 -1      2505 1.75192E+00
 -1      2506 1.94800E+00
 -1      2507 1.84417E+00
 -1      2508 2.16654E+00
 -1      2509 2.29701E+00
 -1      2510 4.02754E+00
 -1      2511 3.71772E+00
 -1      2512 4.21191E+00
 -1      2513 5.70115E+00
 -1      2514 4.75666E+00
 -1      2515 5.75871E+00
 -1      2516 7.29945E+00
 -1      2517 7.29945E+00
 -1      2518 8.08613E+00
 -1      2519 7.06823E+00
 -1      2520 7.32454E+00
 -1      2521 9.70952E+00
 -1      2522 5.29300E+00
 -1      2523 6.13487E+00
 -1      2524 8.80126E+00
 -1      2525 3.13046E+00
 -1      2526 3.47430E+00
 -1      2527 6.04919E+00
 -1      2528 1.97791E+00
 -1      2529 2.08849E+00
 -1      2530 3.18852E+00
 -1      2531 3.46589E+01
 -1      2532 3.47548E+01
 -1      2533 1.28914E+01
 -1      2534 1.83154E+01
 -1      2535 7.03414E-01
 -1      2536 7.97174E-01
 -1      2537 6.23995E-01
 -1      2538 1.70087E+00
 -1      2539 7.30721E+00
 -1      2540 1.08008E+01
 -1      2541 9.12765E+00
 -1      2542 5.56044E+00
 -1      2543 3.48507E+01
 -1      2544 3.48507E+01
 -1      2545 3.47548E+01
 -1      2546 7.57678E+00
 -1      2547 6.45404E+00
 -1      2548 2.34262E+01
 -1      2549 2.43568E+01
 -1      2550 9.78384E+00
 -1      2551 9.43353E+00
 -1      2552 5.22573E-01
 -1      2553 5.44732E-01
 -1      2554 4.72103E-01
 -1      2555 4.44580E-01
 -1      2556 1.21368E+01
 -1      2557 8.37656E+00
 -1      2558 6.51771E+00
 -1      2559 6.99886E+00
 -1      2560 2.78808E+01
 -1      2561 2.65185E+01
 -1      2562 2.00821E+01
 -1      2563 1.43647E+01
 -1      2564 9.82043E+00
 -1      2565 2.79669E+01
 -1      2566 2.62547E+01
 -1      2567 8.98058E+00
 -1      2568 9.64653E+00
 -1      2569 2.96792E+01
 -1      2570 2.96792E+01
 -1      2571 1.70086E+01
 -1      2572 2.36739E+01
 -1      2573 1.00719E+01
 -1      2574 1.41234E+01
 -1      2575 6.99558E+00
 -1      2576 8.75932E+00
 -1      2577 8.76584E+00
 -1      2578 8.60475E+00
 -1      2579 1.01945E+01
 -1      2580 9.67893E+00
 -1      2581 6.57163E+00
 -1      2582 7.94511E+00
 -1      2583 7.21597E+00
 -1      2584 7.91286E+00
 -1      2585 6.54748E+00
 -1      2586 6.15635E+00
 -1      2587 1.27647E+01
 -1      2588 8.83133E+00
 -1      2589 2.14065E+01
 -1      2590 1.54545E+01
 -1      2591 1.06589E+01
 -1      2592 1.67851E+00
 -1      2593 1.30341E+00
 -1      2594 8.40445E-01
 -1      2595 9.74092E-01
 -1      2596 1.62099E+00
 -1      2597 1.76426E+00
 -1      2598 1.32859E+00
 -1      2599 1.18772E+00
 -1      2600 2.20711E+01
 -1      2601 2.66942E+01
 -1      2602 6.26362E+00
 -1      2603 7.04762E+00
 -1      2604 4.34821E+00
 -1      2605 5.11181E-01
 -1      2606 6.50078E-01
 -1      2607 7.12099E-01
 -1      2608 7.97174E-01
 -1      2609 1.24412E+00
 -1      2610 1.79064E+01
 -1      2611 1.45647E+01
 -1      2612 1.08091E+01
 -1      2613 6.88071E-01
 -1      2614 7.66895E-01
 -1      2615 6.70320E-01
 -1      2616 4.87152E-01
 -1      2617 8.78143E+00
 -1      2618 3.00611E+01
 -1      2619 2.18729E+01
 -1      2620 1.38151E+01
 -1      2621 1.97765E+01
 -1      2622 7.05066E+00
 -1      2623 1.49395E+00
 -1      2624 1.75192E+00
 -1      2625 4.75514E+00
 -1      2626 5.74384E+00
 -1      2627 5.29669E+00
 -1      2628 2.50224E+01
 -1      2629 2.50224E+01
 -1      2630 1.70577E+01
 -1      2631 8.43437E+00
 -1      2632 9.68655E-01
 -1      2633 9.61862E+00
 -1      2634 8.77349E+00
 -1      2635 8.99889E+00
 -1      2636 6.81335E+00
 -1      2637 6.48589E+00
 -1      2638 4.54315E+00
 -1      2639 2.34262E+01
 -1      2640 6.49330E+00
 -1      2641 7.86103E+00
 -1      2642 1.20588E+01
 -1      2643 2.65185E+01
 -1      2644 1.63230E+01
 -1      2645 1.91509E+01
 -1      2646 5.84574E+00
 -1      2647 4.58373E+00
 -1      2648 3.83675E+00
 -1      2649 7.32260E+00
 -1      2650 2.79669E+01
 -1      2651 1.63708E+00
 -1      2652 1.74547E+00
 -1      2653 1.91412E+00
 -1      2654 1.68169E+00
 -1      2655 2.22171E+00
 -1      2656 2.01147E+00
 -1      2657 4.22846E-01
 -1      2658 4.08053E-01
 -1      2659 4.00211E-01
 -1      2660 3.87248E-01
 -1      2661 3.50697E-01
 -1      2662 4.36645E-01
 -1      2663 4.36645E-01
 -1      2664 4.73748E-01
 -1      2665 4.24682E-01
 -1      2666 3.50095E-01
 -1      2667 7.17398E-01
 -1      2668 7.95681E-01
 -1      2669 8.28431E-01
 -1      2670 5.49425E-01
 -1      2671 4.92720E-01
 -1      2672 4.86152E-01
 -1      2673 4.29991E-01
 -1      2674 3.90424E-01
 -1      2675 4.09554E-01
 -1      2676 3.60211E-01
 -1      2677 3.63418E-01
 -1      2678 3.35417E-01
 -1      2679 3.07994E-01
 -1      2680 3.18188E-01
 -1      2681 2.83185E-01
 -1      2682 2.58157E-01
 -1      2683 2.68585E-01
 -1      2684 2.42539E-01
 -1      2685 2.18877E-01
 -1      2686 2.28158E-01
 -1      2687 2.02659E-01
 -1      2688 1.83400E-01
 -1      2689 1.96322E-01
 -1      2690 1.67934E-01
 -1      2691 1.51144E-01
 -1      2692 1.64638E-01
 -1      2693 1.37193E-01
 -1      2694 1.22589E-01
 -1      2695 1.35221E-01
 -1      2696 1.11123E-01
 -1      2697 9.88257E-02
 -1      2698 1.09804E-01
 -1      2699 8.94813E-02
 -1      2700 7.96485E-02
 -1      2701 8.89929E-02
 -1      2702 7.17437E-02
 -1      2703 6.38390E-02
 -1      2704 7.17437E-02
 -1      2705 5.70884E-02
 -1      2706 5.04000E-02
 -1      2707 5.70884E-02
 -1      2708 4.50231E-02
 -1      2709 4.04059E-02
 -1      2710 4.49610E-02
 -1      2711 3.58695E-02
 -1      2712 3.32334E-02
 -1      2713 3.50477E-02
 -1      2714 3.18258E-02
 -1      2715 3.40078E-02
 -1      2716 2.91038E-02
 -1      2717 3.71763E-02
 -1      2718 4.23555E-02
 -1      2719 3.08647E-02
 -1      2720 5.37629E-02
 -1      2721 6.47704E-02
 -1      2722 4.54406E-02
 -1      2723 7.93426E-02
 -1      2724 9.74061E-02
 -1      2725 7.14202E-02
 -1      2726 1.16173E-01
 -1      2727 1.40010E-01
 -1      2728 1.04760E-01
 -1      2729 1.64172E-01
 -1      2730 1.95371E-01
 -1      2731 1.47688E-01
 -1      2732 2.26319E-01
 -1      2733 2.66661E-01
 -1      2734 2.02798E-01
 -1      2735 3.06016E-01
 -1      2736 3.57387E-01
 -1      2737 2.73101E-01
 -1      2738 4.07047E-01
 -1      2739 4.71242E-01
 -1      2740 3.62116E-01
 -1      2741 5.33502E-01
 -1      2742 6.11836E-01
 -1      2743 4.74035E-01
 -1      2744 6.90674E-01
 -1      2745 7.83298E-01
 -1      2746 6.15132E-01
 -1      2747 8.85202E-01
 -1      2748 9.89979E-01
 -1      2749 7.95873E-01
 -1      2750 1.11519E+00
 -1      2751 1.22603E+00
 -1      2752 1.02299E+00
 -1      2753 1.37503E+00
 -1      2754 1.47992E+00
 -1      2755 1.29720E+00
 -1      2756 1.66885E+00
 -1      2757 1.75469E+00
 -1      2758 1.63513E+00
 -1      2759 1.98679E+00
 -1      2760 2.16633E+00
 -1      2761 2.05618E+00
 -1      2762 2.41954E+00
 -1      2763 2.63727E+00
 -1      2764 2.54150E+00
 -1      2765 3.05761E+00
 -1      2766 3.25645E+00
 -1      2767 3.21505E+00
 -1      2768 4.08200E+00
 -1      2769 4.06241E+00
 -1      2770 4.46094E+00
 -1      2771 3.69920E+00
 -1      2772 4.75514E+00
 -1      2773 8.43437E+00
 -1      2774 7.85498E+00
 -1      2775 7.30697E+00
 -1      2776 6.74671E+00
 -1      2777 3.44927E+00
 -1      2778 3.45967E+00
 -1      2779 3.20286E+00
 -1      2780 2.77206E+00
 -1      2781 3.45967E+00
 -1      2782 3.49103E-01
 -1      2783 3.82397E-01
 -1      2784 2.27380E+00
 -1      2785 2.27380E+00
 -1      2786 2.24151E+00
 -1      2787 4.16720E-01
 -1      2788 4.70348E-01
 -1      2789 3.61798E-01
 -1      2790 2.42283E-01
 -1      2791 2.70046E-01
 -1      2792 2.01384E-01
 -1      2793 2.23708E-01
 -1      2794 2.14626E-01
 -1      2795 1.64767E-01
 -1      2796 1.84337E-01
 -1      2797 1.79005E-01
 -1      2798 1.34144E-01
 -1      2799 1.50834E-01
 -1      2800 1.48025E-01
 -1      2801 1.09003E-01
 -1      2802 1.21766E-01
 -1      2803 1.21714E-01
 -1      2804 8.78878E-02
 -1      2805 9.83577E-02
 -1      2806 9.86903E-02
 -1      2807 7.01801E-02
 -1      2808 7.89553E-02
 -1      2809 7.91126E-02
 -1      2810 5.56364E-02
 -1      2811 6.29083E-02
 -1      2812 6.29083E-02
 -1      2813 4.35188E-02
 -1      2814 4.95776E-02
 -1      2815 4.95776E-02
 -1      2816 3.64823E-02
 -1      2817 3.91065E-02
 -1      2818 3.91065E-02
 -1      2819 3.50899E-02
 -1      2820 3.42458E-02
 -1      2821 3.24577E-02
 -1      2822 4.27503E-02
 -1      2823 3.80289E-02
 -1      2824 3.31602E-02
 -1      2825 5.62823E-02
 -1      2826 4.94988E-02
 -1      2827 4.28477E-02
 -1      2828 8.21275E-02
 -1      2829 6.90681E-02
 -1      2830 6.23820E-02
 -1      2831 1.16541E-01
 -1      2832 9.80708E-02
 -1      2833 9.11110E-02
 -1      2834 1.58979E-01
 -1      2835 1.36202E-01
 -1      2836 1.26715E-01
 -1      2837 2.09921E-01
 -1      2838 1.82740E-01
 -1      2839 1.70137E-01
 -1      2840 2.68871E-01
 -1      2841 2.37826E-01
 -1      2842 2.21803E-01
 -1      2843 3.33767E-01
 -1      2844 3.00397E-01
 -1      2845 2.81234E-01
 -1      2846 4.00245E-01
 -1      2847 3.67520E-01
 -1      2848 3.46513E-01
 -1      2849 4.63411E-01
 -1      2850 4.33683E-01
 -1      2851 4.13704E-01
 -1      2852 5.23489E-01
 -1      2853 4.96338E-01
 -1      2854 4.80069E-01
 -1      2855 5.73078E-01
 -1      2856 5.52853E-01
 -1      2857 5.42359E-01
 -1      2858 6.09755E-01
 -1      2859 6.09215E-01
 -1      2860 6.07859E-01
 -1      2861 6.14593E-01
 -1      2862 6.39818E-01
 -1      2863 6.74059E-01
 -1      2864 6.41678E-01
 -1      2865 6.22167E-01
 -1      2866 7.11696E-01
 -1      2867 7.94660E-01
 -1      2868 7.56226E-01
 -1      2869 8.33818E-01
 -1      2870 1.06366E+00
 -1      2871 8.94563E-01
 -1      2872 1.04827E+00
 -1      2873 1.44915E+00
 -1      2874 1.19499E+00
 -1      2875 1.27949E+00
 -1      2876 1.78018E+00
 -1      2877 1.59072E+00
 -1      2878 1.55239E+00
 -1      2879 2.08670E+00
 -1      2880 1.92190E+00
 -1      2881 1.83568E+00
 -1      2882 2.42638E+00
 -1      2883 2.37185E+00
 -1      2884 2.26255E+00
 -1      2885 2.33596E+00
 -1      2886 2.40016E+00
 -1      2887 2.52147E+00
 -1      2888 2.38915E+00
 -1      2889 2.37701E+00
 -1      2890 2.53630E+00
 -1      2891 2.14571E+00
 -1      2892 2.20457E+00
 -1      2893 2.39277E+00
 -1      2894 2.18290E+00
 -1      2895 2.19411E+00
 -1      2896 2.25658E+00
 -1      2897 2.18681E+00
 -1      2898 2.13865E+00
 -1      2899 2.26073E+00
 -1      2900 2.27118E+00
 -1      2901 8.06527E+00
 -1      2902 7.33615E+00
 -1      2903 2.76515E+00
 -1      2904 2.43537E+00
 -1      2905 3.19596E+00
 -1      2906 3.45093E+00
 -1      2907 2.99515E+00
 -1      2908 1.12002E+01
 -1      2909 9.60189E+00
 -1      2910 5.56740E+00
 -1      2911 4.74971E+00
 -1      2912 4.80642E+00
 -1      2913 2.36874E+01
 -1      2914 2.37833E+01
 -1      2915 8.79945E+00
 -1      2916 1.12253E+01
 -1      2917 1.12002E+01
 -1      2918 7.71109E+00
 -1      2919 9.52979E+00
 -1      2920 6.74872E+00
 -1      2921 5.83026E+00
 -1      2922 4.85373E+00
 -1      2923 4.87787E+00
 -1      2924 1.36650E+01
 -1      2925 1.78719E+01
 -1      2926 5.04182E-01
 -1      2927 5.83601E-01
 -1      2928 4.29954E-01
 -1      2929 2.89916E-01
 -1      2930 3.21835E-01
 -1      2931 3.00207E-01
 -1      2932 2.53070E-01
 -1      2933 2.64720E+01
 -1      2934 2.16824E+01
 -1      2935 6.03372E-01
 -1      2936 5.52614E-01
 -1      2937 4.00180E-01
 -1      2938 7.26249E+00
 -1      2939 7.10521E+00
 -1      2940 2.02502E+01
 -1      2941 1.74218E+01
 -1      2942 6.09229E-01
 -1      2943 7.02989E-01
 -1      2944 5.29454E-01
 -1      2945 4.89416E-01
 -1      2946 7.52128E+00
 -1      2947 4.36645E-01
 -1      2948 4.24606E-01
 -1      2949 3.60298E-01
 -1      2950 3.62058E-01
 -1      2951 2.25818E+01
 -1      2952 2.08695E+01
 -1      2953 1.57050E+01
 -1      2954 1.14302E+01
 -1      2955 4.23658E-01
 -1      2956 4.35906E-01
 -1      2957 9.54585E+00
 -1      2958 7.31799E+00
 -1      2959 5.18702E+00
 -1      2960 7.25392E+00
 -1      2961 2.66780E+00
 -1      2962 2.05152E+01
 -1      2963 2.36759E+01
 -1      2964 1.50293E+01
 -1      2965 9.60373E+00
 -1      2966 1.24889E+01
 -1      2967 6.05776E+00
 -1      2968 7.37036E+00
 -1      2969 7.80046E+00
 -1      2970 5.71124E+00
 -1      2971 6.23794E-01
 -1      2972 5.86723E-01
 -1      2973 3.86721E-01
 -1      2974 4.16598E-01
 -1      2975 1.14868E+01
 -1      2976 8.79698E+00
 -1      2977 4.35906E-01
 -1      2978 4.35906E-01
 -1      2979 3.60631E-01
 -1      2980 3.42608E-01
 -1      2981 3.87001E-01
 -1      2982 3.99940E-01
 -1      2983 5.76614E-01
 -1      2984 6.51951E+00
 -1      2985 6.68473E+00
 -1      2986 5.00850E+00
 -1      2987 9.09597E+00
 -1      2988 8.68688E+00
 -1      2989 5.29442E+00
 -1      2990 1.61874E+01
 -1      2991 1.48651E+01
 -1      2992 7.00546E+00
 -1      2993 5.42679E+00
 -1      2994 4.20271E+00
 -1      2995 4.46027E+00
 -1      2996 4.40862E+00
 -1      2997 3.37866E+00
 -1      2998 2.92813E+00
 -1      2999 2.41563E+00
 -1      3000 2.22999E+00
 -1      3001 1.54046E+01
 -1      3002 7.87395E+00
 -1      3003 1.11793E+01
 -1      3004 1.12099E+01
 -1      3005 1.65785E+01
 -1      3006 2.21863E+00
 -1      3007 2.36874E+01
 -1      3008 1.27159E+01
 -1      3009 5.46533E+00
 -1      3010 1.39140E+01
 -1      3011 1.46425E+01
 -1      3012 1.29806E+01
 -1      3013 4.55179E+00
 -1      3014 3.70977E+00
 -1      3015 4.40998E-01
 -1      3016 3.51566E+00
 -1      3017 4.03638E+00
 -1      3018 7.51698E+00
 -1      3019 3.52257E+00
 -1      3020 7.57658E+00
 -1      3021 1.19532E+01
 -1      3022 6.86331E+00
 -1      3023 4.96510E+00
 -1      3024 6.44180E+00
 -1      3025 3.64586E+00
 -1      3026 3.59528E+00
 -1      3027 3.67030E+00
 -1      3028 4.18176E+00
 -1      3029 1.18819E+01
 -1      3030 1.50579E+01
 -1      3031 1.01651E+01
 -1      3032 4.80602E+00
 -1      3033 4.07621E-01
 -1      3034 4.22204E-01
 -1      3035 3.59176E-01
 -1      3036 3.50042E-01
 -1      3037 4.38859E+00
 -1      3038 4.31991E+00
 -1      3039 3.71662E+00
 -1      3040 8.92777E+00
 -1      3041 4.02056E+00
 -1      3042 3.56115E+00
 -1      3043 4.44251E+00
 -1      3044 5.98905E+00
 -1      3045 6.49330E+00
 -1      3046 2.89506E-01
 -1      3047 3.01469E-01
 -1      3048 4.58591E+00
 -1      3049 4.29406E+00
 -1      3050 3.89189E-01
 -1      3051 3.65160E-01
 -1      3052 3.18635E-01
 -1      3053 3.13914E-01
 -1      3054 6.41012E+00
 -1      3055 7.66016E+00
 -1      3056 3.19443E-01
 -1      3057 2.99006E-01
 -1      3058 2.95672E-01
 -1      3059 2.70878E-01
 -1      3060 2.51696E-01
 -1      3061 2.60017E-01
 -1      3062 2.35208E-01
 -1      3063 2.37502E-01
 -1      3064 2.21059E-01
 -1      3065 2.05441E-01
 -1      3066 2.12492E-01
 -1      3067 1.92124E-01
 -1      3068 1.75906E-01
 -1      3069 1.85025E-01
 -1      3070 1.65320E-01
 -1      3071 1.49853E-01
 -1      3072 1.61121E-01
 -1      3073 1.38715E-01
 -1      3074 1.24764E-01
 -1      3075 1.39397E-01
 -1      3076 1.14010E-01
 -1      3077 1.02543E-01
 -1      3078 1.17504E-01
 -1      3079 9.26709E-02
 -1      3080 8.33265E-02
 -1      3081 9.68770E-02
 -1      3082 7.45225E-02
 -1      3083 6.66178E-02
 -1      3084 7.82005E-02
 -1      3085 5.88568E-02
 -1      3086 5.21062E-02
 -1      3087 6.16356E-02
 -1      3088 4.52140E-02
 -1      3089 3.98371E-02
 -1      3090 4.69824E-02
 -1      3091 3.35283E-02
 -1      3092 2.89919E-02
 -1      3093 3.37813E-02
 -1      3094 2.41362E-02
 -1      3095 2.27287E-02
 -1      3096 2.26168E-02
 -1      3097 2.43333E-02
 -1      3098 2.75017E-02
 -1      3099 1.93657E-02
 -1      3100 3.68552E-02
 -1      3101 4.82626E-02
 -1      3102 3.03238E-02
 -1      3103 6.04838E-02
 -1      3104 7.50560E-02
 -1      3105 5.18985E-02
 -1      3106 9.09282E-02
 -1      3107 1.09695E-01
 -1      3108 7.99919E-02
 -1      3109 1.31360E-01
 -1      3110 1.55522E-01
 -1      3111 1.17529E-01
 -1      3112 1.84359E-01
 -1      3113 2.15307E-01
 -1      3114 1.68030E-01
 -1      3115 2.52993E-01
 -1      3116 2.92347E-01
 -1      3117 2.34553E-01
 -1      3118 3.41176E-01
 -1      3119 3.90836E-01
 -1      3120 3.21067E-01
 -1      3121 4.53482E-01
 -1      3122 5.15742E-01
 -1      3123 4.32542E-01
 -1      3124 5.95213E-01
 -1      3125 6.74050E-01
 -1      3126 5.74660E-01
 -1      3127 7.73481E-01
 -1      3128 8.75384E-01
 -1      3129 7.53561E-01
 -1      3130 9.97323E-01
 -1      3131 1.12253E+00
 -1      3132 9.74930E-01
 -1      3133 1.26724E+00
 -1      3134 1.41624E+00
 -1      3135 1.24158E+00
 -1      3136 1.60585E+00
 -1      3137 1.79479E+00
 -1      3138 1.57590E+00
 -1      3139 2.09768E+00
 -1      3140 2.32978E+00
 -1      3141 2.06840E+00
 -1      3142 2.83981E+00
 -1      3143 3.09303E+00
 -1      3144 2.88131E+00
 -1      3145 4.67962E+00
 -1      3146 5.09996E+00
 -1      3147 4.97794E+00
 -1      3148 6.27515E+00
 -1      3149 7.10070E+00
 -1      3150 9.47437E+00
 -1      3151 7.73972E+00
 -1      3152 1.32214E+01
 -1      3153 1.26021E+01
 -1      3154 3.06911E-01
 -1      3155 3.41234E-01
 -1      3156 3.50793E-01
 -1      3157 3.84626E-01
 -1      3158 2.95906E-01
 -1      3159 1.62481E-01
 -1      3160 1.79528E-01
 -1      3161 1.92352E-01
 -1      3162 2.10927E-01
 -1      3163 1.75829E-01
 -1      3164 1.11216E-01
 -1      3165 1.23594E-01
 -1      3166 8.97419E-02
 -1      3167 1.00387E-01
 -1      3168 1.02268E-01
 -1      3169 7.13397E-02
 -1      3170 8.02722E-02
 -1      3171 8.19691E-02
 -1      3172 5.58652E-02
 -1      3173 6.31371E-02
 -1      3174 6.42967E-02
 -1      3175 4.29911E-02
 -1      3176 4.90499E-02
 -1      3177 4.92787E-02
 -1      3178 3.32149E-02
 -1      3179 3.76272E-02
 -1      3180 3.70995E-02
 -1      3181 2.59291E-02
 -1      3182 2.81655E-02
 -1      3183 2.66863E-02
 -1      3184 2.87770E-02
 -1      3185 2.58381E-02
 -1      3186 2.15460E-02
 -1      3187 4.22353E-02
 -1      3188 3.54868E-02
 -1      3189 2.81647E-02
 -1      3190 6.55185E-02
 -1      3191 5.27327E-02
 -1      3192 4.53719E-02
 -1      3193 9.44297E-02
 -1      3194 7.84864E-02
 -1      3195 6.88372E-02
 -1      3196 1.30168E-01
 -1      3197 1.10508E-01
 -1      3198 9.78830E-02
 -1      3199 1.73755E-01
 -1      3200 1.49994E-01
 -1      3201 1.33786E-01
 -1      3202 2.25816E-01
 -1      3203 1.97911E-01
 -1      3204 1.77768E-01
 -1      3205 2.86576E-01
 -1      3206 2.55050E-01
 -1      3207 2.31158E-01
 -1      3208 3.55682E-01
 -1      3209 3.21929E-01
 -1      3210 2.95744E-01
 -1      3211 4.28889E-01
 -1      3212 3.95451E-01
 -1      3213 3.70866E-01
 -1      3214 5.03968E-01
 -1      3215 4.71041E-01
 -1      3216 4.52788E-01
 -1      3217 5.73789E-01
 -1      3218 5.44426E-01
 -1      3219 5.35398E-01
 -1      3220 6.58277E-01
 -1      3221 6.22140E-01
 -1      3222 6.24207E-01
 -1      3223 7.58170E-01
 -1      3224 7.28107E-01
 -1      3225 7.42389E-01
 -1      3226 8.43095E-01
 -1      3227 8.35521E-01
 -1      3228 8.89569E-01
 -1      3229 1.02125E+00
 -1      3230 9.06703E-01
 -1      3231 1.03053E+00
 -1      3232 1.26057E+00
 -1      3233 1.16067E+00
 -1      3234 1.23355E+00
 -1      3235 1.65881E+00
 -1      3236 1.52749E+00
 -1      3237 1.63989E+00
 -1      3238 1.75402E+00
 -1      3239 1.61244E+00
 -1      3240 1.86044E+00
 -1      3241 2.44068E+00
 -1      3242 2.29896E+00
 -1      3243 2.35901E+00
 -1      3244 3.12366E+00
 -1      3245 2.83851E+00
 -1      3246 3.30179E+00
 -1      3247 2.95968E+00
 -1      3248 2.98591E+00
 -1      3249 3.56187E+00
 -1      3250 3.44384E+00
 -1      3251 3.40280E+00
 -1      3252 3.86723E+00
 -1      3253 2.39277E+00
 -1      3254 2.57735E+00
 -1      3255 3.44384E+00
 -1      3256 2.58670E+00
 -1      3257 2.53831E+00
 -1      3258 2.72289E+00
 -1      3259 3.23561E-01
 -1      3260 3.15720E-01
 -1      3261 1.00213E+01
 -1      3262 8.25259E+00
 -1      3263 1.06505E+01
 -1      3264 4.85891E+00
 -1      3265 3.56013E+00
 -1      3266 1.40509E+01
 -1      3267 1.46593E+01
 -1      3268 1.29875E+01
 -1      3269 1.03562E+01
 -1      3270 8.02791E+00
 -1      3271 5.98905E+00
 -1      3272 4.93468E+00
 -1      3273 4.18176E+00
 -1      3274 1.25143E+01
 -1      3275 1.35664E-01
 -1      3276 1.49597E-01
 -1      3277 1.50120E-01
 -1      3278 1.25166E-01
 -1      3279 4.62239E+00
 -1      3280 5.07373E+00
 -1      3281 4.81692E+00
 -1      3282 5.13663E+00
 -1      3283 5.97965E+00
 -1      3284 1.43154E+01
 -1      3285 1.32214E+01
 -1      3286 1.09584E+01
 -1      3287 4.82283E+00
 -1      3288 6.56779E+00
 -1      3289 3.29171E-01
 -1      3290 3.25982E-01
 -1      3291 1.04945E+01
 -1      3292 4.12858E-01
 -1      3293 3.09992E-01
 -1      3294 2.61366E-01
 -1      3295 3.98448E-01
 -1      3296 2.33725E+00
 -1      3297 1.07728E+01
 -1      3298 1.34161E+01
 -1      3299 9.54745E+00
 -1      3300 7.66310E+00
 -1      3301 3.14922E-01
 -1      3302 3.08354E-01
 -1      3303 2.43941E-01
 -1      3304 4.72954E+00
 -1      3305 5.29319E+00
 -1      3306 3.12241E-01
 -1      3307 3.11993E-01
 -1      3308 2.85105E-01
 -1      3309 4.07148E+00
 -1      3310 4.64924E+00
 -1      3311 3.64888E+00
 -1      3312 3.31205E+00
 -1      3313 3.80569E+00
 -1      3314 3.61055E+00
 -1      3315 3.56423E+00
 -1      3316 3.56013E+00
 -1      3317 2.98061E+00
 -1      3318 3.61261E+00
 -1      3319 2.90652E-01
 -1      3320 2.70088E-01
 -1      3321 2.63385E-01
 -1      3322 2.60543E-01
 -1      3323 3.21132E-01
 -1      3324 3.21132E-01
 -1      3325 3.67982E-01
 -1      3326 3.93610E-01
 -1      3327 2.77014E-01
 -1      3328 2.88821E-01
 -1      3329 3.35283E-01
 -1      3330 1.00590E+01
 -1      3331 2.61085E-01
 -1      3332 2.02889E-01
 -1      3333 2.25163E-01
 -1      3334 2.45032E-01
 -1      3335 2.30498E+00
 -1      3336 2.58670E+00
 -1      3337 2.26073E+00
 -1      3338 3.23561E-01
 -1      3339 2.88585E-01
 -1      3340 3.25321E-01
 -1      3341 8.02791E+00
 -1      3342 6.53949E+00
 -1      3343 9.03727E+00
 -1      3344 2.50279E+00
 -1      3345 2.49143E+00
 -1      3346 2.43672E+00
 -1      3347 3.13479E+00
 -1      3348 6.43098E+00
 -1      3349 1.10750E+01
 -1      3350 8.71109E+00
 -1      3351 9.43127E+00
 -1      3352 5.13663E+00
 -1      3353 8.81134E+00
 -1      3354 2.43913E-01
 -1      3355 8.90041E+00
 -1      3356 5.18106E+00
 -1      3357 4.12669E+00
 -1      3358 5.80074E+00
 -1      3359 4.72954E+00
 -1      3360 3.23315E-01
 -1      3361 3.24769E-01
 -1      3362 3.21437E-01
 -1      3363 3.21437E-01
 -1      3364 2.85575E-01
 -1      3365 6.45931E+00
 -1      3366 4.37054E+00
 -1      3367 8.10580E+00
 -1      3368 9.00518E+00
 -1      3369 1.57541E-01
 -1      3370 1.70365E-01
 -1      3371 2.14682E-01
 -1      3372 2.11348E-01
 -1      3373 3.22699E+00
 -1      3374 2.95349E+00
 -1      3375 2.15399E-01
 -1      3376 2.04538E-01
 -1      3377 1.78385E-01
 -1      3378 2.00930E-01
 -1      3379 1.86781E-01
 -1      3380 1.78828E-01
 -1      3381 1.78933E-01
 -1      3382 1.65616E-01
 -1      3383 1.67372E-01
 -1      3384 1.55792E-01
 -1      3385 1.45205E-01
 -1      3386 1.49700E-01
 -1      3387 1.36902E-01
 -1      3388 1.25763E-01
 -1      3389 1.31572E-01
 -1      3390 1.17534E-01
 -1      3391 1.06780E-01
 -1      3392 1.15039E-01
 -1      3393 9.84249E-02
 -1      3394 8.85524E-02
 -1      3395 9.84552E-02
 -1      3396 8.05926E-02
 -1      3397 7.17886E-02
 -1      3398 8.21406E-02
 -1      3399 6.44681E-02
 -1      3400 5.67072E-02
 -1      3401 6.68602E-02
 -1      3402 5.00781E-02
 -1      3403 4.31859E-02
 -1      3404 5.29107E-02
 -1      3405 3.71515E-02
 -1      3406 3.08427E-02
 -1      3407 4.02473E-02
 -1      3408 2.70752E-02
 -1      3409 2.22194E-02
 -1      3410 3.04453E-02
 -1      3411 2.33442E-02
 -1      3412 2.49488E-02
 -1      3413 2.78026E-02
 -1      3414 2.93431E-02
 -1      3415 3.86966E-02
 -1      3416 3.33216E-02
 -1      3417 4.93810E-02
 -1      3418 6.16022E-02
 -1      3419 4.84003E-02
 -1      3420 7.63999E-02
 -1      3421 9.22720E-02
 -1      3422 7.38824E-02
 -1      3423 1.11559E-01
 -1      3424 1.33223E-01
 -1      3425 1.07967E-01
 -1      3426 1.58317E-01
 -1      3427 1.87154E-01
 -1      3428 1.52347E-01
 -1      3429 2.19682E-01
 -1      3430 2.57368E-01
 -1      3431 2.09969E-01
 -1      3432 2.99378E-01
 -1      3433 3.48207E-01
 -1      3434 2.84507E-01
 -1      3435 4.02365E-01
 -1      3436 4.65011E-01
 -1      3437 3.80676E-01
 -1      3438 5.34953E-01
 -1      3439 6.14425E-01
 -1      3440 5.04776E-01
 -1      3441 7.05389E-01
 -1      3442 8.04819E-01
 -1      3443 6.65683E-01
 -1      3444 9.24809E-01
 -1      3445 1.04675E+00
 -1      3446 8.76636E-01
 -1      3447 1.20809E+00
 -1      3448 1.35280E+00
 -1      3449 1.15797E+00
 -1      3450 1.57590E+00
 -1      3451 1.76551E+00
 -1      3452 1.54241E+00
 -1      3453 2.06899E+00
 -1      3454 2.37188E+00
 -1      3455 2.06899E+00
 -1      3456 3.11479E+00
 -1      3457 3.62482E+00
 -1      3458 3.11538E+00
 -1      3459 7.86208E+00
 -1      3460 3.07802E-01
 -1      3461 9.00518E+00
 -1      3462 9.00518E+00
 -1      3463 7.61796E-02
 -1      3464 8.56494E-02
 -1      3465 9.44234E-02
 -1      3466 1.05252E-01
 -1      3467 8.86340E-02
 -1      3468 4.60424E-02
 -1      3469 5.28577E-02
 -1      3470 3.42261E-02
 -1      3471 3.95900E-02
 -1      3472 4.31690E-02
 -1      3473 2.31750E-02
 -1      3474 2.82243E-02
 -1      3475 3.07148E-02
 -1      3476 2.24696E-02
 -1      3477 2.25606E-02
 -1      3478 2.40986E-02
 -1      3479 3.17761E-02
 -1      3480 2.50664E-02
 -1      3481 2.60810E-02
 -1      3482 5.15654E-02
 -1      3483 4.10681E-02
 -1      3484 3.79697E-02
 -1      3485 7.66271E-02
 -1      3486 6.36591E-02
 -1      3487 5.93553E-02
 -1      3488 1.08038E-01
 -1      3489 9.19604E-02
 -1      3490 8.67824E-02
 -1      3491 1.46726E-01
 -1      3492 1.26900E-01
 -1      3493 1.20978E-01
 -1      3494 1.93600E-01
 -1      3495 1.69444E-01
 -1      3496 1.62559E-01
 -1      3497 2.49397E-01
 -1      3498 2.20163E-01
 -1      3499 2.11839E-01
 -1      3500 3.14553E-01
 -1      3501 2.79200E-01
 -1      3502 2.68206E-01
 -1      3503 3.86594E-01
 -1      3504 3.46825E-01
 -1      3505 3.30281E-01
 -1      3506 4.71183E-01
 -1      3507 4.29031E-01
 -1      3508 4.04990E-01
 -1      3509 5.69389E-01
 -1      3510 5.28932E-01
 -1      3511 5.05175E-01
 -1      3512 6.85260E-01
 -1      3513 6.36909E-01
 -1      3514 6.30443E-01
 -1      3515 8.38869E-01
 -1      3516 7.69038E-01
 -1      3517 7.81740E-01
 -1      3518 1.01342E+00
 -1      3519 9.36065E-01
 -1      3520 9.62715E-01
 -1      3521 1.23101E+00
 -1      3522 1.16741E+00
 -1      3523 1.21390E+00
 -1      3524 1.50985E+00
 -1      3525 1.37043E+00
 -1      3526 1.50731E+00
 -1      3527 2.00144E+00
 -1      3528 1.73452E+00
 -1      3529 1.87139E+00
 -1      3530 2.40873E+00
 -1      3531 2.45510E+00
 -1      3532 2.54972E+00
 -1      3533 2.90396E+00
 -1      3534 2.35901E+00
 -1      3535 2.95367E+00
 -1      3536 3.69962E+00
 -1      3537 3.30179E+00
 -1      3538 4.31034E+00
 -1      3539 3.86723E+00
 -1      3540 3.14478E+00
 -1      3541 4.01128E+00
 -1      3542 3.29032E+00
 -1      3543 4.37054E+00
 -1      3544 1.27366E+01
 -1      3545 4.17643E+00
 -1      3546 3.42351E+00
 -1      3547 1.01159E+01
 -1      3548 4.40898E+00
 -1      3549 4.11346E+00
 -1      3550 6.00033E-02
 -1      3551 6.82060E-02
 -1      3552 7.18863E-02
 -1      3553 5.67670E-02
 -1      3554 1.98831E-01
 -1      3555 1.87770E-01
 -1      3556 3.15634E-01
 -1      3557 3.23315E-01
 -1      3558 2.88907E-01
 -1      3559 2.84776E+00
 -1      3560 4.25171E+00
 -1      3561 2.76270E+00
 -1      3562 3.61055E+00
 -1      3563 4.41883E+00
 -1      3564 8.71109E+00
 -1      3565 8.09346E+00
 -1      3566 3.13479E+00
 -1      3567 1.93678E-01
 -1      3568 2.04767E-01
 -1      3569 1.48596E-01
 -1      3570 2.47056E-01
 -1      3571 2.56615E-01
 -1      3572 2.65697E+00
 -1      3573 6.10952E+00
 -1      3574 7.40707E+00
 -1      3575 6.35325E+00
 -1      3576 4.52293E+00
 -1      3577 3.97571E+00
 -1      3578 3.56187E+00
 -1      3579 4.75640E+00
 -1      3580 3.55890E+00
 -1      3581 1.64419E-01
 -1      3582 1.48987E-01
 -1      3583 1.43524E-01
 -1      3584 1.36103E-01
 -1      3585 1.63924E-01
 -1      3586 1.82211E-01
 -1      3587 1.96447E-01
 -1      3588 2.35477E-01
 -1      3589 3.69962E+00
 -1      3590 2.48097E+00
 -1      3591 2.31634E-01
 -1      3592 2.47892E-01
 -1      3593 2.08602E-01
 -1      3594 2.68608E-01
 -1      3595 2.12466E-01
 -1      3596 2.04058E-01
 -1      3597 2.23721E-01
 -1      3598 2.35977E-01
 -1      3599 2.19333E-01
 -1      3600 1.87127E-01
 -1      3601 7.05198E+00
 -1      3602 2.53081E-01
 -1      3603 2.49601E-01
 -1      3604 1.06771E-01
 -1      3605 1.14615E-01
 -1      3606 1.26685E-01
 -1      3607 3.69962E+00
 -1      3608 2.84396E-01
 -1      3609 2.53081E-01
 -1      3610 2.53081E-01
 -1      3611 2.17577E-01
 -1      3612 8.36403E+00
 -1      3613 6.83691E+00
 -1      3614 6.41083E+00
 -1      3615 2.52934E-01
 -1      3616 2.52934E-01
 -1      3617 2.58670E+00
 -1      3618 2.86843E+00
 -1      3619 6.26243E+00
 -1      3620 3.78039E+00
 -1      3621 6.07311E+00
 -1      3622 7.90415E+00
 -1      3623 2.40754E-01
 -1      3624 2.37422E-01
 -1      3625 1.67645E-01
 -1      3626 2.04781E-01
 -1      3627 2.85266E-01
 -1      3628 3.16104E+00
 -1      3629 3.96903E+00
 -1      3630 2.56528E-01
 -1      3631 2.19707E-01
 -1      3632 1.59334E-01
 -1      3633 1.55726E-01
 -1      3634 1.55330E-01
 -1      3635 1.47482E-01
 -1      3636 1.35836E-01
 -1      3637 1.43033E-01
 -1      3638 1.33209E-01
 -1      3639 1.30992E-01
 -1      3640 1.26564E-01
 -1      3641 1.18260E-01
 -1      3642 1.19898E-01
 -1      3643 1.10653E-01
 -1      3644 1.02423E-01
 -1      3645 1.05645E-01
 -1      3646 9.61873E-02
 -1      3647 8.78325E-02
 -1      3648 9.18009E-02
 -1      3649 8.13674E-02
 -1      3650 7.34075E-02
 -1      3651 7.90995E-02
 -1      3652 6.71359E-02
 -1      3653 5.98155E-02
 -1      3654 6.63627E-02
 -1      3655 5.39951E-02
 -1      3656 4.73661E-02
 -1      3657 5.42708E-02
 -1      3658 4.20707E-02
 -1      3659 3.60363E-02
 -1      3660 4.31551E-02
 -1      3661 3.35389E-02
 -1      3662 2.97714E-02
 -1      3663 3.53623E-02
 -1      3664 3.05567E-02
 -1      3665 3.16815E-02
 -1      3666 3.36503E-02
 -1      3667 3.38874E-02
 -1      3668 3.82817E-02
 -1      3669 3.66416E-02
 -1      3670 4.39353E-02
 -1      3671 5.46197E-02
 -1      3672 4.45011E-02
 -1      3673 6.65700E-02
 -1      3674 8.13676E-02
 -1      3675 6.21049E-02
 -1      3676 9.68071E-02
 -1      3677 1.16094E-01
 -1      3678 8.94947E-02
 -1      3679 1.35973E-01
 -1      3680 1.61067E-01
 -1      3681 1.24813E-01
 -1      3682 1.86542E-01
 -1      3683 2.19070E-01
 -1      3684 1.70167E-01
 -1      3685 2.51599E-01
 -1      3686 2.93609E-01
 -1      3687 2.28171E-01
 -1      3688 3.35141E-01
 -1      3689 3.89300E-01
 -1      3690 3.02233E-01
 -1      3691 4.42662E-01
 -1      3692 5.12604E-01
 -1      3693 3.97127E-01
 -1      3694 5.82268E-01
 -1      3695 6.73233E-01
 -1      3696 5.20154E-01
 -1      3697 7.66903E-01
 -1      3698 8.86892E-01
 -1      3699 6.83488E-01
 -1      3700 1.01877E+00
 -1      3701 1.18012E+00
 -1      3702 9.09036E-01
 -1      3703 1.37621E+00
 -1      3704 1.59930E+00
 -1      3705 1.23700E+00
 -1      3706 1.91110E+00
 -1      3707 2.21459E+00
 -1      3708 1.74490E+00
 -1      3709 2.89399E+00
 -1      3710 3.63690E+00
 -1      3711 2.73610E+00
 -1      3712 8.01111E-02
 -1      3713 8.88851E-02
 -1      3714 5.94829E+00
 -1      3715 5.94829E+00
 -1      3716 2.06793E-01
 -1      3717 2.25146E-01
 -1      3718 1.86116E-01
 -1      3719 2.77662E-02
 -1      3720 3.37680E-02
 -1      3721 3.91674E-02
 -1      3722 4.56199E-02
 -1      3723 3.62189E-02
 -1      3724 3.13079E-02
 -1      3725 2.87111E-02
 -1      3726 4.52572E-02
 -1      3727 3.59653E-02
 -1      3728 3.85954E-02
 -1      3729 6.84350E-02
 -1      3730 5.63413E-02
 -1      3731 5.43369E-02
 -1      3732 9.77790E-02
 -1      3733 8.24456E-02
 -1      3734 7.94317E-02
 -1      3735 1.34225E-01
 -1      3736 1.15363E-01
 -1      3737 1.11026E-01
 -1      3738 1.78738E-01
 -1      3739 1.56019E-01
 -1      3740 1.50404E-01
 -1      3741 2.31867E-01
 -1      3742 2.05304E-01
 -1      3743 1.98765E-01
 -1      3744 2.93390E-01
 -1      3745 2.63586E-01
 -1      3746 2.57051E-01
 -1      3747 3.62553E-01
 -1      3748 3.30281E-01
 -1      3749 3.25661E-01
 -1      3750 4.46409E-01
 -1      3751 4.03972E-01
 -1      3752 4.03972E-01
 -1      3753 5.50273E-01
 -1      3754 4.92525E-01
 -1      3755 4.91508E-01
 -1      3756 6.87674E-01
 -1      3757 6.20154E-01
 -1      3758 6.07505E-01
 -1      3759 8.69312E-01
 -1      3760 7.85534E-01
 -1      3761 7.75246E-01
 -1      3762 1.12942E+00
 -1      3763 1.03222E+00
 -1      3764 1.03602E+00
 -1      3765 1.65158E+00
 -1      3766 1.49759E+00
 -1      3767 1.56710E+00
 -1      3768 2.34147E+00
 -1      3769 2.20205E+00
 -1      3770 2.48574E+00
 -1      3771 3.01174E+00
 -1      3772 2.78708E+00
 -1      3773 3.48182E+00
 -1      3774 2.70738E+00
 -1      3775 3.30179E+00
 -1      3776 3.22699E+00
 -1      3777 1.48888E-01
 -1      3778 1.52940E-01
 -1      3779 1.29838E-01
 -1      3780 1.66863E-01
 -1      3781 2.72133E-02
 -1      3782 2.78277E-02
 -1      3783 3.24403E-02
 -1      3784 2.52934E-01
 -1      3785 2.16961E-01
 -1      3786 2.49293E-01
 -1      3787 1.59348E-01
 -1      3788 1.69263E-01
 -1      3789 1.43818E-01
 -1      3790 2.42802E-01
 -1      3791 2.46991E-01
 -1      3792 2.11487E-01
 -1      3793 1.86317E-01
 -1      3794 5.24956E+00
 -1      3795 2.76270E+00
 -1      3796 4.35145E+00
 -1      3797 1.73552E-01
 -1      3798 2.17269E-01
 -1      3799 6.83691E+00
 -1      3800 6.83691E+00
 -1      3801 3.16107E+00
 -1      3802 1.25552E-01
 -1      3803 1.46354E-01
 -1      3804 1.58200E-01
 -1      3805 1.64796E-01
 -1      3806 1.44157E-01
 -1      3807 4.13005E+00
 -1      3808 2.02950E-01
 -1      3809 8.76749E-02
 -1      3810 9.61978E-02
 -1      3811 1.05561E-01
 -1      3812 7.31146E-02
 -1      3813 7.33657E-02
 -1      3814 6.51409E-02
 -1      3815 4.48222E+00
 -1      3816 5.58591E+00
 -1      3817 4.94476E+00
 -1      3818 3.08810E-02
 -1      3819 5.76967E+00
 -1      3820 1.75604E-01
 -1      3821 1.74768E-01
 -1      3822 1.31798E-01
 -1      3823 3.62307E+00
 -1      3824 3.21078E+00
 -1      3825 4.08475E+00
 -1      3826 1.86449E-01
 -1      3827 1.86449E-01
 -1      3828 5.15219E-02
 -1      3829 5.86675E-02
 -1      3830 5.98958E-02
 -1      3831 1.90577E-01
 -1      3832 1.90577E-01
 -1      3833 4.84855E+00
 -1      3834 5.91579E+00
 -1      3835 1.78397E-01
 -1      3836 1.90577E-01
 -1      3837 1.44531E-01
 -1      3838 1.29842E-01
 -1      3839 1.38396E-01
 -1      3840 1.32672E-01
 -1      3841 1.87267E-01
 -1      3842 1.86959E-01
 -1      3843 1.60575E-01
 -1      3844 1.56139E-01
 -1      3845 1.64193E-01
 -1      3846 1.63612E-01
 -1      3847 4.75203E-02
 -1      3848 3.76767E+00
 -1      3849 1.19561E-01
 -1      3850 1.15112E-01
 -1      3851 1.12212E-01
 -1      3852 1.05567E-01
 -1      3853 1.00781E-01
 -1      3854 1.00851E-01
 -1      3855 9.32436E-02
 -1      3856 9.31657E-02
 -1      3857 8.76194E-02
 -1      3858 8.13833E-02
 -1      3859 8.28260E-02
 -1      3860 7.55081E-02
 -1      3861 6.90429E-02
 -1      3862 7.13267E-02
 -1      3863 6.38955E-02
 -1      3864 5.76239E-02
 -1      3865 6.03041E-02
 -1      3866 5.29716E-02
 -1      3867 4.71512E-02
 -1      3868 5.05043E-02
 -1      3869 4.35253E-02
 -1      3870 3.82299E-02
 -1      3871 4.22260E-02
 -1      3872 3.72794E-02
 -1      3873 3.47820E-02
 -1      3874 3.76496E-02
 -1      3875 3.50562E-02
 -1      3876 3.58415E-02
 -1      3877 3.69733E-02
 -1      3878 3.75316E-02
 -1      3879 3.97376E-02
 -1      3880 3.89375E-02
 -1      3881 4.31105E-02
 -1      3882 4.87640E-02
 -1      3883 4.40005E-02
 -1      3884 5.57208E-02
 -1      3885 6.76711E-02
 -1      3886 5.43302E-02
 -1      3887 7.73930E-02
 -1      3888 9.28325E-02
 -1      3889 7.10089E-02
 -1      3890 1.05875E-01
 -1      3891 1.25754E-01
 -1      3892 9.37737E-02
 -1      3893 1.43413E-01
 -1      3894 1.68888E-01
 -1      3895 1.24475E-01
 -1      3896 1.91132E-01
 -1      3897 2.23661E-01
 -1      3898 1.64377E-01
 -1      3899 2.52222E-01
 -1      3900 2.93754E-01
 -1      3901 2.15182E-01
 -1      3902 3.32578E-01
 -1      3903 3.85939E-01
 -1      3904 2.82566E-01
 -1      3905 4.37034E-01
 -1      3906 5.06699E-01
 -1      3907 3.72484E-01
 -1      3908 5.75196E-01
 -1      3909 6.68866E-01
 -1      3910 4.92076E-01
 -1      3911 7.63648E-01
 -1      3912 8.95525E-01
 -1      3913 6.55355E-01
 -1      3914 1.03194E+00
 -1      3915 1.22803E+00
 -1      3916 8.86550E-01
 -1      3917 1.42223E+00
 -1      3918 1.73403E+00
 -1      3919 1.21717E+00
 -1      3920 2.43767E+00
 -1      3921 3.11707E+00
 -1      3922 2.11501E+00
 -1      3923 4.94476E+00
 -1      3924 4.94476E+00
 -1      3925 1.46412E-01
 -1      3926 1.63981E-01
 -1      3927 1.74328E-01
 -1      3928 5.97720E-02
 -1      3929 4.86879E-02
 -1      3930 4.29963E-02
 -1      3931 3.83390E-02
 -1      3932 4.84315E-02
 -1      3933 1.17900E-01
 -1      3934 1.00317E-01
 -1      3935 1.58752E-01
 -1      3936 1.36958E-01
 -1      3937 1.26248E-01
 -1      3938 2.09449E-01
 -1      3939 1.82882E-01
 -1      3940 1.69436E-01
 -1      3941 2.71470E-01
 -1      3942 2.39751E-01
 -1      3943 2.23869E-01
 -1      3944 3.46118E-01
 -1      3945 3.09226E-01
 -1      3946 2.91927E-01
 -1      3947 4.34229E-01
 -1      3948 3.92809E-01
 -1      3949 3.76374E-01
 -1      3950 5.37624E-01
 -1      3951 4.91508E-01
 -1      3952 4.80345E-01
 -1      3953 6.77385E-01
 -1      3954 6.07505E-01
 -1      3955 6.07505E-01
 -1      3956 8.56758E-01
 -1      3957 7.58898E-01
 -1      3958 7.58898E-01
 -1      3959 1.17702E+00
 -1      3960 1.01411E+00
 -1      3961 9.97761E-01
 -1      3962 1.77894E+00
 -1      3963 1.41077E+00
 -1      3964 1.38886E+00
 -1      3965 3.92743E+00
 -1      3966 3.48182E+00
 -1      3967 4.43455E+00
 -1      3968 3.51343E+00
 -1      3969 3.60964E+00
 -1      3970 1.80359E-01
 -1      3971 1.86449E-01
 -1      3972 1.55321E-01
 -1      3973 1.38573E-01
 -1      3974 1.12606E-01
 -1      3975 1.22024E-01
 -1      3976 1.16895E-01
 -1      3977 1.02032E-01
 -1      3978 3.31061E-02
 -1      3979 3.30446E-02
 -1      3980 4.08475E+00
 -1      3981 3.57384E-02
 -1      3982 3.42406E-02
 -1      3983 3.64043E-02
 -1      3984 1.31864E-01
 -1      3985 1.11490E-01
 -1      3986 1.31864E-01
 -1      3987 4.20313E-02
 -1      3988 4.79334E-02
 -1      3989 1.15705E-01
 -1      3990 1.22099E-01
 -1      3991 1.03751E-01
 -1      3992 1.75945E-01
 -1      3993 1.82433E-01
 -1      3994 1.53811E-01
 -1      3995 3.31936E-02
 -1      3996 3.85930E-02
 -1      3997 3.54188E-02
 -1      3998 8.53896E-02
 -1      3999 7.13790E-02
 -1      4000 6.57300E-02
 -1      4001 1.24985E-01
 -1      4002 1.24590E-01
 -1      4003 1.08710E-01
 -1      4004 1.10853E-01
 -1      4005 3.07862E+00
 -1      4006 2.63301E+00
 -1      4007 2.08254E+00
 -1      4008 2.66462E+00
 -1      4009 1.28246E-01
 -1      4010 1.17511E-01
 -1      4011 1.25469E-01
 -1      4012 7.66841E-02
 -1      4013 8.39969E-02
 -1      4014 1.27814E-01
 -1      4015 1.27814E-01
 -1      4016 4.11984E+00
 -1      4017 3.46924E+00
 -1      4018 6.47499E-02
 -1      4019 7.17463E-02
 -1      4020 6.80683E-02
 -1      4021 1.48598E-01
 -1      4022 3.90060E-02
 -1      4023 4.01393E-02
 -1      4024 1.92621E+00
 -1      4025 1.01152E-01
 -1      4026 1.17899E-01
 -1      4027 9.03920E-02
 -1      4028 1.11123E-01
 -1      4029 1.28894E-01
 -1      4030 1.34676E-01
 -1      4031 1.13733E-01
 -1      4032 5.28851E-02
 -1      4033 5.93585E-02
 -1      4034 5.77392E-02
 -1      4035 4.73961E-02
 -1      4036 9.22639E-02
 -1      4037 1.27814E-01
 -1      4038 1.28632E-01
 -1      4039 1.00306E-01
 -1      4040 1.16970E-01
 -1      4041 1.09766E-01
 -1      4042 1.09151E-01
 -1      4043 9.11157E-02
 -1      4044 1.02107E-01
 -1      4045 1.09151E-01
 -1      4046 2.59101E+00
 -1      4047 2.15620E+00
 -1      4048 1.85260E+00
 -1      4049 3.46924E+00
 -1      4050 8.71491E-02
 -1      4051 8.24335E-02
 -1      4052 9.23347E-02
 -1      4053 8.67106E-02
 -1      4054 8.63182E-02
 -1      4055 7.20695E-02
 -1      4056 6.61943E-02
 -1      4057 8.15782E-02
 -1      4058 6.23099E-02
 -1      4059 5.71625E-02
 -1      4060 6.30527E-02
 -1      4061 5.28475E-02
 -1      4062 4.81951E-02
 -1      4063 5.48533E-02
 -1      4064 4.42563E-02
 -1      4065 4.06304E-02
 -1      4066 4.65995E-02
 -1      4067 3.86001E-02
 -1      4068 3.76496E-02
 -1      4069 4.06304E-02
 -1      4070 3.69733E-02
 -1      4071 3.72474E-02
 -1      4072 3.79238E-02
 -1      4073 3.89375E-02
 -1      4074 4.06276E-02
 -1      4075 3.89375E-02
 -1      4076 4.40005E-02
 -1      4077 4.73734E-02
 -1      4078 4.40005E-02
 -1      4079 5.37118E-02
 -1      4080 6.06686E-02
 -1      4081 5.37118E-02
 -1      4082 6.94819E-02
 -1      4083 7.92038E-02
 -1      4084 6.88635E-02
 -1      4085 9.09524E-02
 -1      4086 1.03995E-01
 -1      4087 8.94253E-02
 -1      4088 1.19222E-01
 -1      4089 1.36881E-01
 -1      4090 1.16401E-01
 -1      4091 1.56244E-01
 -1      4092 1.78488E-01
 -1      4093 1.50991E-01
 -1      4094 2.02820E-01
 -1      4095 2.31381E-01
 -1      4096 1.94687E-01
 -1      4097 2.63203E-01
 -1      4098 3.02026E-01
 -1      4099 2.50841E-01
 -1      4100 3.42414E-01
 -1      4101 3.93509E-01
 -1      4102 3.23050E-01
 -1      4103 4.55184E-01
 -1      4104 5.23682E-01
 -1      4105 4.25114E-01
 -1      4106 6.27736E-01
 -1      4107 7.22518E-01
 -1      4108 5.90844E-01
 -1      4109 8.77868E-01
 -1      4110 1.01428E+00
 -1      4111 8.50249E-01
 -1      4112 1.24100E+00
 -1      4113 1.43520E+00
 -1      4114 1.23232E+00
 -1      4115 1.74698E+00
 -1      4116 2.45062E+00
 -1      4117 1.77082E+00
 -1      4118 4.64913E-02
 -1      4119 5.14431E-02
 -1      4120 7.27837E-02
 -1      4121 6.11768E-02
 -1      4122 1.70791E-01
 -1      4123 1.46660E-01
 -1      4124 1.29774E-01
 -1      4125 1.10717E-01
 -1      4126 1.31129E-01
 -1      4127 2.97764E-01
 -1      4128 2.60008E-01
 -1      4129 3.88555E-01
 -1      4130 3.41863E-01
 -1      4131 3.09945E-01
 -1      4132 5.12207E-01
 -1      4133 4.54928E-01
 -1      4134 4.20417E-01
 -1      4135 6.86142E-01
 -1      4136 6.16261E-01
 -1      4137 5.90844E-01
 -1      4138 9.23005E-01
 -1      4139 8.41492E-01
 -1      4140 8.50249E-01
 -1      4141 1.30708E+00
 -1      4142 1.14973E+00
 -1      4143 1.23232E+00
 -1      4144 1.85260E+00
 -1      4145 1.61885E+00
 -1      4146 1.77082E+00
 -1      4147 2.08259E+00
 -1      4148 1.21454E-01
 -1      4149 1.14625E-01
 -1      4150 8.39794E-02
 -1      4151 9.99212E-02
 -1      4152 9.77796E-02
 -1      4153 8.28527E-02
 -1      4154 7.82994E-02
 -1      4155 8.99984E-02
 -1      4156 8.70987E-02
 -1      4157 7.63665E-02
 -1      4158 8.33260E-02
 -1      4159 8.75416E-02
 -1      4160 8.37113E-02
 -1      4161 2.26568E-01
 -1      4162 1.96266E-01
 -1      4163 2.32405E-01
 -1      4164 3.10121E+00
 -1      4165 4.27399E-02
 -1      4166 4.01393E-02
 -1      4167 3.75388E-02
 -1      4168 3.64043E-02
 -1      4169 4.01393E-02
 -1      4170 1.28319E-01
 -1      4171 1.29936E-01
 -1      4172 9.59627E-02
 -1      4173 1.10801E-01
 -1      4174 3.56455E-02
 -1      4175 3.57944E-02
 -1      4176 3.67800E-02
 -1      4177 3.91142E-02
 -1      4178 4.25525E-02
 -1      4179 4.65995E-02
 -1      4180 3.93409E-02
 -1      4181 2.59101E+00
 -1      4182 5.36317E-02
 -1      4183 4.79401E-02
 -1      4184 4.79401E-02
 -1      4185 8.46127E-02
 -1      4186 1.02722E-01
 -1      4187 9.66898E-02
 -1      4188 9.72309E-02
 -1      4189 6.77578E-02
 -1      4190 8.81832E-02
 -1      4191 9.10690E-02
 -1      4192 5.48533E-02
 -1      4193 5.57581E-02
 -1      4194 6.11494E-02
 -1      4195 6.06854E-02
 -1      4196 6.50338E-02
 -1      4197 6.99716E-02
 -1      4198 6.30527E-02
 -1      4199 1.01305E-01
 -1      4200 9.91765E-02
 -1      4201 1.02602E-01
 -1      4202 8.60999E-02
 -1      4203 1.73490E-01
 -1      4204 9.37873E-02
 -1      4205 8.87584E-02
 -1      4206 7.50761E-02
 -1      4207 7.11177E-02
 -1      4208 7.37969E-02
 -1      4209 8.37113E-02
 -1      4210 7.72987E-02
 -1      4211 8.37113E-02
 -1      4212 8.15782E-02
 -1      4213 1.84660E-01
 -1      4214 1.59185E-01
 -1      4215 9.28212E-02
 -1      4216 1.02722E-01
 -1      4217 6.69371E-02
 -1      4218 8.15782E-02
 -1      4219 1.09225E-01
 -1      4220 9.62193E-02
 -1      4221 6.30527E-02
 -1      4222 5.91683E-02
 -1      4223 5.48533E-02
 -1      4224 5.05383E-02
 -1      4225 4.65995E-02
 -1      4226 4.26606E-02
 -1      4227 4.06304E-02
 -1      4228 3.73106E-02
 -1      4229 3.66343E-02
 -1      4230 3.73931E-02
 -1      4231 3.90832E-02
 -1      4232 4.16837E-02
 -1      4233 4.50567E-02
 -1      4234 5.02569E-02
 -1      4235 5.65953E-02
 -1      4236 6.41403E-02
 -1      4237 7.29536E-02
 -1      4238 8.30226E-02
 -1      4239 9.47711E-02
 -1      4240 1.07708E-01
 -1      4241 1.22935E-01
 -1      4242 1.39821E-01
 -1      4243 2.08992E-01
 -1      4244 2.42432E-01
 -1      4245 2.74254E-01
 -1      4246 3.18353E-01
 -1      4247 3.58741E-01
 -1      4248 4.25114E-01
 -1      4249 4.86790E-01
 -1      4250 5.90844E-01
 -1      4251 6.94899E-01
 -1      4252 8.50249E-01
 -1      4253 1.00560E+00
 -1      4254 1.23232E+00
 -1      4255 1.45904E+00
 -1      4256 1.77082E+00
 -1      4257 2.08259E+00
 -1      4258 1.09225E-01
 -1      4259 9.66898E-02
 -1      4260 7.79403E-02
 -1      4261 6.77578E-02
 -1      4262 8.64217E-02
 -1      4263 6.71162E-02
 -1      4264 6.77578E-02
 -1      4265 7.63665E-02
 -1      4266 7.64170E-02
 -1      4267 9.28212E-02
 -1      4268 7.51265E-02
 -1      4269 1.02722E-01
 -1      4270 1.09225E-01
 -1      4271 2.08259E+00
 -1      4272 6.83993E-02
 -1      4273 8.02856E-02
 -1      4274 8.22312E-02
 -1      4275 9.43050E-02
 -1      4276 8.79480E-02
 -1      4277 6.99256E-02
 -1      4278 7.97487E-02
 -1      4279 8.09407E-02
 -1      4280 6.99256E-02
 -1      4281 7.26440E-02
 -3
 9999
