    1C
    1UUSER                                                              
    1UDATE              26.october.2022                                 
    1UTIME              23:48:56                                        
    1UHOST                                                              
    1UPGM               CalculiX                                        
    1UVERSION           Version 2.17                             
    1UCOMPILETIME       Thu Jul 23 21:43:50 CEST 2020                    
    1UDIR                                                               
    1UDBN                                                               
    1UMAT    1SOLIDMATERIAL                                             
    2C                          4317                                     1
 -1         1 1.11586E+02 3.09091E+01 0.00000E+00
 -1         2 1.18156E+02 2.39223E+01 0.00000E+00
 -1         3 1.50000E+02 0.00000E+00 0.00000E+00
 -1         4 1.50000E+02 5.00000E+01 0.00000E+00
 -1         5 0.00000E+00 0.00000E+00 0.00000E+00
 -1         6 0.00000E+00 5.00000E+01 0.00000E+00
 -1         7 0.00000E+00 4.70500E+01 0.00000E+00
 -1         8 0.00000E+00 4.41000E+01 0.00000E+00
 -1         9 0.00000E+00 4.11500E+01 0.00000E+00
 -1        10 0.00000E+00 3.82000E+01 0.00000E+00
 -1        11 0.00000E+00 3.52500E+01 0.00000E+00
 -1        12 0.00000E+00 3.23500E+01 0.00000E+00
 -1        13 0.00000E+00 2.94000E+01 0.00000E+00
 -1        14 0.00000E+00 2.64500E+01 0.00000E+00
 -1        15 0.00000E+00 2.35000E+01 0.00000E+00
 -1        16 0.00000E+00 2.05500E+01 0.00000E+00
 -1        17 0.00000E+00 1.76000E+01 0.00000E+00
 -1        18 0.00000E+00 1.47000E+01 0.00000E+00
 -1        19 0.00000E+00 1.17500E+01 0.00000E+00
 -1        20 0.00000E+00 8.80000E+00 0.00000E+00
 -1        21 0.00000E+00 5.85000E+00 0.00000E+00
 -1        22 0.00000E+00 2.90000E+00 0.00000E+00
 -1        23 3.15000E+00 5.00000E+01 0.00000E+00
 -1        24 6.15000E+00 5.00000E+01 0.00000E+00
 -1        25 9.15000E+00 5.00000E+01 0.00000E+00
 -1        26 1.21500E+01 5.00000E+01 0.00000E+00
 -1        27 1.51500E+01 5.00000E+01 0.00000E+00
 -1        28 1.81500E+01 5.00000E+01 0.00000E+00
 -1        29 2.11500E+01 5.00000E+01 0.00000E+00
 -1        30 2.41500E+01 5.00000E+01 0.00000E+00
 -1        31 2.71500E+01 5.00000E+01 0.00000E+00
 -1        32 3.01500E+01 5.00000E+01 0.00000E+00
 -1        33 3.31500E+01 5.00000E+01 0.00000E+00
 -1        34 3.61500E+01 5.00000E+01 0.00000E+00
 -1        35 3.91500E+01 5.00000E+01 0.00000E+00
 -1        36 4.21500E+01 5.00000E+01 0.00000E+00
 -1        37 4.51500E+01 5.00000E+01 0.00000E+00
 -1        38 4.81500E+01 5.00000E+01 0.00000E+00
 -1        39 5.11500E+01 5.00000E+01 0.00000E+00
 -1        40 5.41500E+01 5.00000E+01 0.00000E+00
 -1        41 5.71500E+01 5.00000E+01 0.00000E+00
 -1        42 6.01500E+01 5.00000E+01 0.00000E+00
 -1        43 6.31500E+01 5.00000E+01 0.00000E+00
 -1        44 6.61500E+01 5.00000E+01 0.00000E+00
 -1        45 6.91500E+01 5.00000E+01 0.00000E+00
 -1        46 7.21500E+01 5.00000E+01 0.00000E+00
 -1        47 7.51500E+01 5.00000E+01 0.00000E+00
 -1        48 7.81500E+01 5.00000E+01 0.00000E+00
 -1        49 8.11500E+01 5.00000E+01 0.00000E+00
 -1        50 8.41500E+01 5.00000E+01 0.00000E+00
 -1        51 8.71500E+01 5.00000E+01 0.00000E+00
 -1        52 9.01500E+01 5.00000E+01 0.00000E+00
 -1        53 9.31500E+01 5.00000E+01 0.00000E+00
 -1        54 9.61500E+01 5.00000E+01 0.00000E+00
 -1        55 9.91500E+01 5.00000E+01 0.00000E+00
 -1        56 1.02150E+02 5.00000E+01 0.00000E+00
 -1        57 1.05150E+02 5.00000E+01 0.00000E+00
 -1        58 1.08150E+02 5.00000E+01 0.00000E+00
 -1        59 1.11150E+02 5.00000E+01 0.00000E+00
 -1        60 1.14150E+02 5.00000E+01 0.00000E+00
 -1        61 1.17150E+02 5.00000E+01 0.00000E+00
 -1        62 1.20150E+02 5.00000E+01 0.00000E+00
 -1        63 1.23150E+02 5.00000E+01 0.00000E+00
 -1        64 1.26150E+02 5.00000E+01 0.00000E+00
 -1        65 1.29150E+02 5.00000E+01 0.00000E+00
 -1        66 1.32150E+02 5.00000E+01 0.00000E+00
 -1        67 1.35150E+02 5.00000E+01 0.00000E+00
 -1        68 1.38150E+02 5.00000E+01 0.00000E+00
 -1        69 1.41150E+02 5.00000E+01 0.00000E+00
 -1        70 1.44150E+02 5.00000E+01 0.00000E+00
 -1        71 1.47150E+02 5.00000E+01 0.00000E+00
 -1        72 3.15000E+00 0.00000E+00 0.00000E+00
 -1        73 6.15000E+00 0.00000E+00 0.00000E+00
 -1        74 9.15000E+00 0.00000E+00 0.00000E+00
 -1        75 1.21500E+01 0.00000E+00 0.00000E+00
 -1        76 1.51500E+01 0.00000E+00 0.00000E+00
 -1        77 1.81500E+01 0.00000E+00 0.00000E+00
 -1        78 2.11500E+01 0.00000E+00 0.00000E+00
 -1        79 2.41500E+01 0.00000E+00 0.00000E+00
 -1        80 2.71500E+01 0.00000E+00 0.00000E+00
 -1        81 3.01500E+01 0.00000E+00 0.00000E+00
 -1        82 3.31500E+01 0.00000E+00 0.00000E+00
 -1        83 3.61500E+01 0.00000E+00 0.00000E+00
 -1        84 3.91500E+01 0.00000E+00 0.00000E+00
 -1        85 4.21500E+01 0.00000E+00 0.00000E+00
 -1        86 4.51500E+01 0.00000E+00 0.00000E+00
 -1        87 4.81500E+01 0.00000E+00 0.00000E+00
 -1        88 5.11500E+01 0.00000E+00 0.00000E+00
 -1        89 5.41500E+01 0.00000E+00 0.00000E+00
 -1        90 5.71500E+01 0.00000E+00 0.00000E+00
 -1        91 6.01500E+01 0.00000E+00 0.00000E+00
 -1        92 6.31500E+01 0.00000E+00 0.00000E+00
 -1        93 6.61500E+01 0.00000E+00 0.00000E+00
 -1        94 6.91500E+01 0.00000E+00 0.00000E+00
 -1        95 7.21500E+01 0.00000E+00 0.00000E+00
 -1        96 7.51500E+01 0.00000E+00 0.00000E+00
 -1        97 7.81500E+01 0.00000E+00 0.00000E+00
 -1        98 8.11500E+01 0.00000E+00 0.00000E+00
 -1        99 8.41500E+01 0.00000E+00 0.00000E+00
 -1       100 8.71500E+01 0.00000E+00 0.00000E+00
 -1       101 9.01500E+01 0.00000E+00 0.00000E+00
 -1       102 9.31500E+01 0.00000E+00 0.00000E+00
 -1       103 9.61500E+01 0.00000E+00 0.00000E+00
 -1       104 9.91500E+01 0.00000E+00 0.00000E+00
 -1       105 1.02150E+02 0.00000E+00 0.00000E+00
 -1       106 1.05150E+02 0.00000E+00 0.00000E+00
 -1       107 1.08150E+02 0.00000E+00 0.00000E+00
 -1       108 1.11150E+02 0.00000E+00 0.00000E+00
 -1       109 1.14150E+02 0.00000E+00 0.00000E+00
 -1       110 1.17150E+02 0.00000E+00 0.00000E+00
 -1       111 1.20150E+02 0.00000E+00 0.00000E+00
 -1       112 1.23150E+02 0.00000E+00 0.00000E+00
 -1       113 1.26150E+02 0.00000E+00 0.00000E+00
 -1       114 1.29150E+02 0.00000E+00 0.00000E+00
 -1       115 1.32150E+02 0.00000E+00 0.00000E+00
 -1       116 1.35150E+02 0.00000E+00 0.00000E+00
 -1       117 1.38150E+02 0.00000E+00 0.00000E+00
 -1       118 1.41150E+02 0.00000E+00 0.00000E+00
 -1       119 1.44150E+02 0.00000E+00 0.00000E+00
 -1       120 1.47150E+02 0.00000E+00 0.00000E+00
 -1       121 1.50000E+02 2.95000E+00 0.00000E+00
 -1       122 1.50000E+02 5.90000E+00 0.00000E+00
 -1       123 1.50000E+02 8.85000E+00 0.00000E+00
 -1       124 1.50000E+02 1.18000E+01 0.00000E+00
 -1       125 1.50000E+02 1.47500E+01 0.00000E+00
 -1       126 1.50000E+02 1.76500E+01 0.00000E+00
 -1       127 1.50000E+02 2.06000E+01 0.00000E+00
 -1       128 1.50000E+02 2.35500E+01 0.00000E+00
 -1       129 1.50000E+02 2.65000E+01 0.00000E+00
 -1       130 1.50000E+02 2.94500E+01 0.00000E+00
 -1       131 1.50000E+02 3.24000E+01 0.00000E+00
 -1       132 1.50000E+02 3.53000E+01 0.00000E+00
 -1       133 1.50000E+02 3.82500E+01 0.00000E+00
 -1       134 1.50000E+02 4.12000E+01 0.00000E+00
 -1       135 1.50000E+02 4.41500E+01 0.00000E+00
 -1       136 1.50000E+02 4.71000E+01 0.00000E+00
 -1       137 1.18002E+02 2.24635E+01 0.00000E+00
 -1       138 1.17522E+02 2.10118E+01 0.00000E+00
 -1       139 1.16809E+02 1.97940E+01 0.00000E+00
 -1       140 1.15852E+02 1.87315E+01 0.00000E+00
 -1       141 1.14545E+02 1.77974E+01 0.00000E+00
 -1       142 1.13120E+02 1.72036E+01 0.00000E+00
 -1       143 1.11676E+02 1.69416E+01 0.00000E+00
 -1       144 1.10186E+02 1.69897E+01 0.00000E+00
 -1       145 1.08600E+02 1.74055E+01 0.00000E+00
 -1       146 1.07298E+02 1.80812E+01 0.00000E+00
 -1       147 1.06119E+02 1.90613E+01 0.00000E+00
 -1       148 1.05202E+02 2.02408E+01 0.00000E+00
 -1       149 1.04573E+02 2.15428E+01 0.00000E+00
 -1       150 1.04223E+02 2.29553E+01 0.00000E+00
 -1       151 1.04178E+02 2.44752E+01 0.00000E+00
 -1       152 1.04448E+02 2.59254E+01 0.00000E+00
 -1       153 1.05039E+02 2.73265E+01 0.00000E+00
 -1       154 1.05909E+02 2.85561E+01 0.00000E+00
 -1       155 1.07167E+02 2.96749E+01 0.00000E+00
 -1       156 1.08516E+02 3.04056E+01 0.00000E+00
 -1       157 1.10096E+02 3.08416E+01 0.00000E+00
 -1       158 1.13049E+02 3.06613E+01 0.00000E+00
 -1       159 1.14522E+02 3.00597E+01 0.00000E+00
 -1       160 1.15736E+02 2.92154E+01 0.00000E+00
 -1       161 1.16766E+02 2.81088E+01 0.00000E+00
 -1       162 1.17529E+02 2.68179E+01 0.00000E+00
 -1       163 1.17996E+02 2.54102E+01 0.00000E+00
 -1       164 2.59800E+00 4.55750E+01 0.00000E+00
 -1       165 2.59800E+00 4.26250E+01 0.00000E+00
 -1       166 2.59800E+00 3.96750E+01 0.00000E+00
 -1       167 2.59800E+00 3.67250E+01 0.00000E+00
 -1       168 2.59800E+00 3.38250E+01 0.00000E+00
 -1       169 2.59800E+00 3.08750E+01 0.00000E+00
 -1       170 2.59800E+00 2.79250E+01 0.00000E+00
 -1       171 2.59800E+00 2.49750E+01 0.00000E+00
 -1       172 2.59800E+00 2.20250E+01 0.00000E+00
 -1       173 2.59800E+00 1.90750E+01 0.00000E+00
 -1       174 2.59800E+00 1.61750E+01 0.00000E+00
 -1       175 2.59800E+00 1.32250E+01 0.00000E+00
 -1       176 2.59800E+00 1.02750E+01 0.00000E+00
 -1       177 2.59800E+00 7.32500E+00 0.00000E+00
 -1       178 2.59800E+00 4.37500E+00 0.00000E+00
 -1       179 2.87400E+00 2.18750E+00 0.00000E+00
 -1       180 4.65000E+00 4.74020E+01 0.00000E+00
 -1       181 7.65000E+00 4.74020E+01 0.00000E+00
 -1       182 1.06500E+01 4.74020E+01 0.00000E+00
 -1       183 1.36500E+01 4.74020E+01 0.00000E+00
 -1       184 1.66500E+01 4.74020E+01 0.00000E+00
 -1       185 1.96500E+01 4.74020E+01 0.00000E+00
 -1       186 2.26500E+01 4.74020E+01 0.00000E+00
 -1       187 2.56500E+01 4.74020E+01 0.00000E+00
 -1       188 2.86500E+01 4.74020E+01 0.00000E+00
 -1       189 3.16500E+01 4.74020E+01 0.00000E+00
 -1       190 3.46500E+01 4.74020E+01 0.00000E+00
 -1       191 3.76500E+01 4.74020E+01 0.00000E+00
 -1       192 4.06500E+01 4.74020E+01 0.00000E+00
 -1       193 4.36500E+01 4.74020E+01 0.00000E+00
 -1       194 4.66500E+01 4.74020E+01 0.00000E+00
 -1       195 4.96500E+01 4.74020E+01 0.00000E+00
 -1       196 5.26500E+01 4.74020E+01 0.00000E+00
 -1       197 5.56500E+01 4.74020E+01 0.00000E+00
 -1       198 5.86500E+01 4.74020E+01 0.00000E+00
 -1       199 6.16500E+01 4.74020E+01 0.00000E+00
 -1       200 6.46500E+01 4.74020E+01 0.00000E+00
 -1       201 6.76500E+01 4.74020E+01 0.00000E+00
 -1       202 7.06500E+01 4.74020E+01 0.00000E+00
 -1       203 7.36500E+01 4.74020E+01 0.00000E+00
 -1       204 7.66500E+01 4.74020E+01 0.00000E+00
 -1       205 7.96500E+01 4.74020E+01 0.00000E+00
 -1       206 8.26500E+01 4.74020E+01 0.00000E+00
 -1       207 8.56500E+01 4.74020E+01 0.00000E+00
 -1       208 8.86500E+01 4.74020E+01 0.00000E+00
 -1       209 9.16500E+01 4.74020E+01 0.00000E+00
 -1       210 9.46500E+01 4.74020E+01 0.00000E+00
 -1       211 9.76500E+01 4.74020E+01 0.00000E+00
 -1       212 1.00650E+02 4.74020E+01 0.00000E+00
 -1       213 1.03650E+02 4.74020E+01 0.00000E+00
 -1       214 1.06650E+02 4.74020E+01 0.00000E+00
 -1       215 1.09650E+02 4.74020E+01 0.00000E+00
 -1       216 1.12650E+02 4.74020E+01 0.00000E+00
 -1       217 1.15650E+02 4.74020E+01 0.00000E+00
 -1       218 1.18650E+02 4.74020E+01 0.00000E+00
 -1       219 1.21650E+02 4.74020E+01 0.00000E+00
 -1       220 1.24650E+02 4.74020E+01 0.00000E+00
 -1       221 1.27650E+02 4.74020E+01 0.00000E+00
 -1       222 1.30650E+02 4.74020E+01 0.00000E+00
 -1       223 1.33650E+02 4.74020E+01 0.00000E+00
 -1       224 1.36650E+02 4.74020E+01 0.00000E+00
 -1       225 1.39650E+02 4.74020E+01 0.00000E+00
 -1       226 1.42650E+02 4.74020E+01 0.00000E+00
 -1       227 1.45650E+02 4.74020E+01 0.00000E+00
 -1       228 5.87400E+00 2.18750E+00 0.00000E+00
 -1       229 8.87400E+00 2.18750E+00 0.00000E+00
 -1       230 1.18740E+01 2.18750E+00 0.00000E+00
 -1       231 1.48740E+01 2.18750E+00 0.00000E+00
 -1       232 1.78740E+01 2.18750E+00 0.00000E+00
 -1       233 2.08740E+01 2.18750E+00 0.00000E+00
 -1       234 2.38740E+01 2.18750E+00 0.00000E+00
 -1       235 2.68740E+01 2.18750E+00 0.00000E+00
 -1       236 2.98740E+01 2.18750E+00 0.00000E+00
 -1       237 3.28740E+01 2.18750E+00 0.00000E+00
 -1       238 3.58740E+01 2.18750E+00 0.00000E+00
 -1       239 3.88740E+01 2.18750E+00 0.00000E+00
 -1       240 4.18740E+01 2.18750E+00 0.00000E+00
 -1       241 4.48740E+01 2.18750E+00 0.00000E+00
 -1       242 4.78740E+01 2.18750E+00 0.00000E+00
 -1       243 5.08740E+01 2.18750E+00 0.00000E+00
 -1       244 5.38740E+01 2.18750E+00 0.00000E+00
 -1       245 5.68740E+01 2.18750E+00 0.00000E+00
 -1       246 5.98740E+01 2.18750E+00 0.00000E+00
 -1       247 6.28740E+01 2.18750E+00 0.00000E+00
 -1       248 6.58740E+01 2.18750E+00 0.00000E+00
 -1       249 6.88740E+01 2.18750E+00 0.00000E+00
 -1       250 7.18740E+01 2.18750E+00 0.00000E+00
 -1       251 7.48740E+01 2.18750E+00 0.00000E+00
 -1       252 7.78740E+01 2.18750E+00 0.00000E+00
 -1       253 8.08740E+01 2.18750E+00 0.00000E+00
 -1       254 8.38740E+01 2.18750E+00 0.00000E+00
 -1       255 8.68740E+01 2.18750E+00 0.00000E+00
 -1       256 8.98740E+01 2.18750E+00 0.00000E+00
 -1       257 9.28740E+01 2.18750E+00 0.00000E+00
 -1       258 9.58740E+01 2.18750E+00 0.00000E+00
 -1       259 9.88740E+01 2.18750E+00 0.00000E+00
 -1       260 1.01874E+02 2.18750E+00 0.00000E+00
 -1       261 1.04874E+02 2.18750E+00 0.00000E+00
 -1       262 1.07874E+02 2.18750E+00 0.00000E+00
 -1       263 1.10874E+02 2.18750E+00 0.00000E+00
 -1       264 1.13874E+02 2.18750E+00 0.00000E+00
 -1       265 1.16874E+02 2.18750E+00 0.00000E+00
 -1       266 1.19874E+02 2.18750E+00 0.00000E+00
 -1       267 1.22874E+02 2.18750E+00 0.00000E+00
 -1       268 1.25874E+02 2.18750E+00 0.00000E+00
 -1       269 1.28874E+02 2.18750E+00 0.00000E+00
 -1       270 1.31874E+02 2.18750E+00 0.00000E+00
 -1       271 1.34874E+02 2.18750E+00 0.00000E+00
 -1       272 1.37874E+02 2.18750E+00 0.00000E+00
 -1       273 1.40874E+02 2.18750E+00 0.00000E+00
 -1       274 1.43874E+02 2.18750E+00 0.00000E+00
 -1       275 1.46874E+02 2.18750E+00 0.00000E+00
 -1       276 1.47402E+02 4.42500E+00 0.00000E+00
 -1       277 1.47402E+02 7.37500E+00 0.00000E+00
 -1       278 1.47402E+02 1.03250E+01 0.00000E+00
 -1       279 1.47402E+02 1.32750E+01 0.00000E+00
 -1       280 1.47402E+02 1.61750E+01 0.00000E+00
 -1       281 1.47402E+02 1.91250E+01 0.00000E+00
 -1       282 1.47402E+02 2.20750E+01 0.00000E+00
 -1       283 1.47402E+02 2.50250E+01 0.00000E+00
 -1       284 1.47402E+02 2.79750E+01 0.00000E+00
 -1       285 1.47402E+02 3.09250E+01 0.00000E+00
 -1       286 1.47402E+02 3.38250E+01 0.00000E+00
 -1       287 1.47402E+02 3.67750E+01 0.00000E+00
 -1       288 1.47402E+02 3.97250E+01 0.00000E+00
 -1       289 1.47402E+02 4.26750E+01 0.00000E+00
 -1       290 1.46526E+02 4.50385E+01 0.00000E+00
 -1       291 1.19368E+02 2.30571E+01 0.00000E+00
 -1       292 1.19072E+02 2.13044E+01 0.00000E+00
 -1       293 1.18284E+02 1.97479E+01 0.00000E+00
 -1       294 1.17294E+02 1.83954E+01 0.00000E+00
 -1       295 1.16098E+02 1.70053E+01 0.00000E+00
 -1       296 1.14299E+02 1.63814E+01 0.00000E+00
 -1       297 1.12629E+02 1.57972E+01 0.00000E+00
 -1       298 1.10889E+02 1.56702E+01 0.00000E+00
 -1       299 1.09022E+02 1.57817E+01 0.00000E+00
 -1       300 1.07390E+02 1.66673E+01 0.00000E+00
 -1       301 1.05933E+02 1.76388E+01 0.00000E+00
 -1       302 1.04703E+02 1.89070E+01 0.00000E+00
 -1       303 1.03796E+02 2.03641E+01 0.00000E+00
 -1       304 1.03139E+02 2.19376E+01 0.00000E+00
 -1       305 1.02821E+02 2.36742E+01 0.00000E+00
 -1       306 1.03039E+02 2.54383E+01 0.00000E+00
 -1       307 1.03395E+02 2.71946E+01 0.00000E+00
 -1       308 1.04484E+02 2.86414E+01 0.00000E+00
 -1       309 1.05733E+02 3.00216E+01 0.00000E+00
 -1       310 1.07264E+02 3.11063E+01 0.00000E+00
 -1       311 1.08916E+02 3.20346E+01 0.00000E+00
 -1       312 1.10782E+02 3.21702E+01 0.00000E+00
 -1       313 1.12520E+02 3.19806E+01 0.00000E+00
 -1       314 1.14308E+02 3.16380E+01 0.00000E+00
 -1       315 1.15869E+02 3.07018E+01 0.00000E+00
 -1       316 1.17139E+02 2.94879E+01 0.00000E+00
 -1       317 1.18263E+02 2.81228E+01 0.00000E+00
 -1       318 1.18992E+02 2.65222E+01 0.00000E+00
 -1       319 1.19364E+02 2.48048E+01 0.00000E+00
 -1       320 5.19600E+00 4.11500E+01 0.00000E+00
 -1       321 5.19600E+00 4.41000E+01 0.00000E+00
 -1       322 5.19600E+00 3.52750E+01 0.00000E+00
 -1       323 5.19600E+00 3.23250E+01 0.00000E+00
 -1       324 5.19600E+00 2.93750E+01 0.00000E+00
 -1       325 5.19600E+00 2.64250E+01 0.00000E+00
 -1       326 5.19600E+00 2.34750E+01 0.00000E+00
 -1       327 5.19600E+00 2.05250E+01 0.00000E+00
 -1       328 5.19600E+00 1.76250E+01 0.00000E+00
 -1       329 5.19600E+00 1.46750E+01 0.00000E+00
 -1       330 5.19600E+00 1.17250E+01 0.00000E+00
 -1       331 5.19600E+00 8.77500E+00 0.00000E+00
 -1       332 5.19600E+00 5.82500E+00 0.00000E+00
 -1       333 5.53500E+00 4.00625E+00 0.00000E+00
 -1       334 8.53500E+00 4.00625E+00 0.00000E+00
 -1       335 9.15000E+00 4.48040E+01 0.00000E+00
 -1       336 1.21500E+01 4.48040E+01 0.00000E+00
 -1       337 1.51500E+01 4.48040E+01 0.00000E+00
 -1       338 1.81500E+01 4.48040E+01 0.00000E+00
 -1       339 2.11500E+01 4.48040E+01 0.00000E+00
 -1       340 2.41500E+01 4.48040E+01 0.00000E+00
 -1       341 2.71500E+01 4.48040E+01 0.00000E+00
 -1       342 3.01500E+01 4.48040E+01 0.00000E+00
 -1       343 3.31500E+01 4.48040E+01 0.00000E+00
 -1       344 3.61500E+01 4.48040E+01 0.00000E+00
 -1       345 3.91500E+01 4.48040E+01 0.00000E+00
 -1       346 4.21500E+01 4.48040E+01 0.00000E+00
 -1       347 4.51500E+01 4.48040E+01 0.00000E+00
 -1       348 4.81500E+01 4.48040E+01 0.00000E+00
 -1       349 5.11500E+01 4.48040E+01 0.00000E+00
 -1       350 5.41500E+01 4.48040E+01 0.00000E+00
 -1       351 5.71500E+01 4.48040E+01 0.00000E+00
 -1       352 6.01500E+01 4.48040E+01 0.00000E+00
 -1       353 6.31500E+01 4.48040E+01 0.00000E+00
 -1       354 6.61500E+01 4.48040E+01 0.00000E+00
 -1       355 6.91500E+01 4.48040E+01 0.00000E+00
 -1       356 7.21500E+01 4.48040E+01 0.00000E+00
 -1       357 7.51500E+01 4.48040E+01 0.00000E+00
 -1       358 7.81500E+01 4.48040E+01 0.00000E+00
 -1       359 8.11500E+01 4.48040E+01 0.00000E+00
 -1       360 8.41500E+01 4.48040E+01 0.00000E+00
 -1       361 8.71500E+01 4.48040E+01 0.00000E+00
 -1       362 9.01500E+01 4.48040E+01 0.00000E+00
 -1       363 9.31500E+01 4.48040E+01 0.00000E+00
 -1       364 9.61500E+01 4.48040E+01 0.00000E+00
 -1       365 9.91500E+01 4.48040E+01 0.00000E+00
 -1       366 1.02150E+02 4.48040E+01 0.00000E+00
 -1       367 1.05150E+02 4.48040E+01 0.00000E+00
 -1       368 1.08150E+02 4.48040E+01 0.00000E+00
 -1       369 1.11150E+02 4.48040E+01 0.00000E+00
 -1       370 1.14150E+02 4.48040E+01 0.00000E+00
 -1       371 1.17150E+02 4.48040E+01 0.00000E+00
 -1       372 1.20150E+02 4.48040E+01 0.00000E+00
 -1       373 1.23150E+02 4.48040E+01 0.00000E+00
 -1       374 1.26150E+02 4.48040E+01 0.00000E+00
 -1       375 1.29150E+02 4.48040E+01 0.00000E+00
 -1       376 1.32150E+02 4.48040E+01 0.00000E+00
 -1       377 1.35150E+02 4.48040E+01 0.00000E+00
 -1       378 1.38150E+02 4.48040E+01 0.00000E+00
 -1       379 1.41150E+02 4.48040E+01 0.00000E+00
 -1       380 1.43838E+02 4.49212E+01 0.00000E+00
 -1       381 1.15350E+01 4.00625E+00 0.00000E+00
 -1       382 1.45350E+01 4.00625E+00 0.00000E+00
 -1       383 1.75350E+01 4.00625E+00 0.00000E+00
 -1       384 2.05350E+01 4.00625E+00 0.00000E+00
 -1       385 2.35350E+01 4.00625E+00 0.00000E+00
 -1       386 2.65350E+01 4.00625E+00 0.00000E+00
 -1       387 2.95350E+01 4.00625E+00 0.00000E+00
 -1       388 3.25350E+01 4.00625E+00 0.00000E+00
 -1       389 3.55350E+01 4.00625E+00 0.00000E+00
 -1       390 3.85350E+01 4.00625E+00 0.00000E+00
 -1       391 4.15350E+01 4.00625E+00 0.00000E+00
 -1       392 4.45350E+01 4.00625E+00 0.00000E+00
 -1       393 4.75350E+01 4.00625E+00 0.00000E+00
 -1       394 5.05350E+01 4.00625E+00 0.00000E+00
 -1       395 5.35350E+01 4.00625E+00 0.00000E+00
 -1       396 5.65350E+01 4.00625E+00 0.00000E+00
 -1       397 5.95350E+01 4.00625E+00 0.00000E+00
 -1       398 6.25350E+01 4.00625E+00 0.00000E+00
 -1       399 6.55350E+01 4.00625E+00 0.00000E+00
 -1       400 6.85350E+01 4.00625E+00 0.00000E+00
 -1       401 7.15350E+01 4.00625E+00 0.00000E+00
 -1       402 7.45350E+01 4.00625E+00 0.00000E+00
 -1       403 7.75350E+01 4.00625E+00 0.00000E+00
 -1       404 8.05350E+01 4.00625E+00 0.00000E+00
 -1       405 8.35350E+01 4.00625E+00 0.00000E+00
 -1       406 8.65350E+01 4.00625E+00 0.00000E+00
 -1       407 8.95350E+01 4.00625E+00 0.00000E+00
 -1       408 9.25350E+01 4.00625E+00 0.00000E+00
 -1       409 9.55350E+01 4.00625E+00 0.00000E+00
 -1       410 9.85350E+01 4.00625E+00 0.00000E+00
 -1       411 1.01535E+02 4.00625E+00 0.00000E+00
 -1       412 1.04535E+02 4.00625E+00 0.00000E+00
 -1       413 1.07535E+02 4.00625E+00 0.00000E+00
 -1       414 1.10535E+02 4.00625E+00 0.00000E+00
 -1       415 1.13535E+02 4.00625E+00 0.00000E+00
 -1       416 1.16535E+02 4.00625E+00 0.00000E+00
 -1       417 1.19535E+02 4.00625E+00 0.00000E+00
 -1       418 1.22535E+02 4.00625E+00 0.00000E+00
 -1       419 1.25535E+02 4.00625E+00 0.00000E+00
 -1       420 1.28535E+02 4.00625E+00 0.00000E+00
 -1       421 1.31535E+02 4.00625E+00 0.00000E+00
 -1       422 1.34535E+02 4.00625E+00 0.00000E+00
 -1       423 1.37535E+02 4.00625E+00 0.00000E+00
 -1       424 1.40535E+02 4.00625E+00 0.00000E+00
 -1       425 1.43535E+02 4.00625E+00 0.00000E+00
 -1       426 1.45469E+02 4.21562E+00 0.00000E+00
 -1       427 1.44804E+02 1.18000E+01 0.00000E+00
 -1       428 1.44804E+02 8.85000E+00 0.00000E+00
 -1       429 1.45136E+02 6.53281E+00 0.00000E+00
 -1       430 1.44804E+02 1.47000E+01 0.00000E+00
 -1       431 1.44804E+02 1.76500E+01 0.00000E+00
 -1       432 1.44804E+02 2.06000E+01 0.00000E+00
 -1       433 1.44804E+02 2.35500E+01 0.00000E+00
 -1       434 1.44804E+02 2.65000E+01 0.00000E+00
 -1       435 1.44804E+02 2.94500E+01 0.00000E+00
 -1       436 1.44804E+02 3.23500E+01 0.00000E+00
 -1       437 1.44804E+02 3.53000E+01 0.00000E+00
 -1       438 1.44804E+02 3.82500E+01 0.00000E+00
 -1       439 1.44804E+02 4.12000E+01 0.00000E+00
 -1       440 1.19834E+02 1.99405E+01 0.00000E+00
 -1       441 1.20914E+02 2.39340E+01 0.00000E+00
 -1       442 1.20829E+02 2.19093E+01 0.00000E+00
 -1       443 1.19037E+02 1.81575E+01 0.00000E+00
 -1       444 1.17842E+02 1.67674E+01 0.00000E+00
 -1       445 5.19600E+00 3.82125E+01 0.00000E+00
 -1       446 1.14030E+02 1.44704E+01 0.00000E+00
 -1       447 1.11866E+02 1.42738E+01 0.00000E+00
 -1       448 1.09858E+02 1.40975E+01 0.00000E+00
 -1       449 1.07388E+02 1.47171E+01 0.00000E+00
 -1       450 1.05931E+02 1.56887E+01 0.00000E+00
 -1       451 1.04268E+02 1.72537E+01 0.00000E+00
 -1       452 1.03078E+02 1.89061E+01 0.00000E+00
 -1       453 1.02039E+02 2.05551E+01 0.00000E+00
 -1       454 1.01623E+02 2.25568E+01 0.00000E+00
 -1       455 1.01643E+02 2.47152E+01 0.00000E+00
 -1       456 1.01947E+02 2.65741E+01 0.00000E+00
 -1       457 1.02770E+02 2.87984E+01 0.00000E+00
 -1       458 1.04085E+02 3.02572E+01 0.00000E+00
 -1       459 1.05749E+02 3.16217E+01 0.00000E+00
 -1       460 1.07373E+02 3.28466E+01 0.00000E+00
 -1       461 1.09737E+02 3.36458E+01 0.00000E+00
 -1       462 1.11801E+02 3.34472E+01 0.00000E+00
 -1       463 1.13689E+02 3.32469E+01 0.00000E+00
 -1       464 1.15884E+02 3.24972E+01 0.00000E+00
 -1       465 1.17631E+02 3.12739E+01 0.00000E+00
 -1       466 1.18831E+02 2.97359E+01 0.00000E+00
 -1       467 1.19807E+02 2.78599E+01 0.00000E+00
 -1       468 1.20527E+02 2.59556E+01 0.00000E+00
 -1       469 1.15830E+02 1.50943E+01 0.00000E+00
 -1       470 1.17573E+02 1.48564E+01 0.00000E+00
 -1       471 1.01322E+02 2.81779E+01 0.00000E+00
 -1       472 1.00350E+01 6.60425E+00 0.00000E+00
 -1       473 7.79400E+00 3.08500E+01 0.00000E+00
 -1       474 7.79400E+00 3.38000E+01 0.00000E+00
 -1       475 7.79400E+00 2.49500E+01 0.00000E+00
 -1       476 7.79400E+00 2.20000E+01 0.00000E+00
 -1       477 7.79400E+00 1.91000E+01 0.00000E+00
 -1       478 7.79400E+00 1.61500E+01 0.00000E+00
 -1       479 7.79400E+00 1.32000E+01 0.00000E+00
 -1       480 7.79400E+00 1.02500E+01 0.00000E+00
 -1       481 1.30350E+01 6.60425E+00 0.00000E+00
 -1       482 1.06500E+01 4.22060E+01 0.00000E+00
 -1       483 1.21638E+02 2.02651E+01 0.00000E+00
 -1       484 1.36500E+01 4.22060E+01 0.00000E+00
 -1       485 1.66500E+01 4.22060E+01 0.00000E+00
 -1       486 1.96500E+01 4.22060E+01 0.00000E+00
 -1       487 2.26500E+01 4.22060E+01 0.00000E+00
 -1       488 2.56500E+01 4.22060E+01 0.00000E+00
 -1       489 2.86500E+01 4.22060E+01 0.00000E+00
 -1       490 3.16500E+01 4.22060E+01 0.00000E+00
 -1       491 3.46500E+01 4.22060E+01 0.00000E+00
 -1       492 3.76500E+01 4.22060E+01 0.00000E+00
 -1       493 4.06500E+01 4.22060E+01 0.00000E+00
 -1       494 4.36500E+01 4.22060E+01 0.00000E+00
 -1       495 4.66500E+01 4.22060E+01 0.00000E+00
 -1       496 4.96500E+01 4.22060E+01 0.00000E+00
 -1       497 5.26500E+01 4.22060E+01 0.00000E+00
 -1       498 5.56500E+01 4.22060E+01 0.00000E+00
 -1       499 5.86500E+01 4.22060E+01 0.00000E+00
 -1       500 6.16500E+01 4.22060E+01 0.00000E+00
 -1       501 6.46500E+01 4.22060E+01 0.00000E+00
 -1       502 6.76500E+01 4.22060E+01 0.00000E+00
 -1       503 7.06500E+01 4.22060E+01 0.00000E+00
 -1       504 7.36500E+01 4.22060E+01 0.00000E+00
 -1       505 7.66500E+01 4.22060E+01 0.00000E+00
 -1       506 7.96500E+01 4.22060E+01 0.00000E+00
 -1       507 8.26500E+01 4.22060E+01 0.00000E+00
 -1       508 8.56500E+01 4.22060E+01 0.00000E+00
 -1       509 8.86500E+01 4.22060E+01 0.00000E+00
 -1       510 9.16500E+01 4.22060E+01 0.00000E+00
 -1       511 9.46500E+01 4.22060E+01 0.00000E+00
 -1       512 9.76500E+01 4.22060E+01 0.00000E+00
 -1       513 1.00650E+02 4.22060E+01 0.00000E+00
 -1       514 1.03650E+02 4.22060E+01 0.00000E+00
 -1       515 1.06650E+02 4.22060E+01 0.00000E+00
 -1       516 1.09650E+02 4.22060E+01 0.00000E+00
 -1       517 1.12650E+02 4.22060E+01 0.00000E+00
 -1       518 1.15650E+02 4.22060E+01 0.00000E+00
 -1       519 1.18650E+02 4.22060E+01 0.00000E+00
 -1       520 1.21650E+02 4.22060E+01 0.00000E+00
 -1       521 1.24650E+02 4.22060E+01 0.00000E+00
 -1       522 1.27650E+02 4.22060E+01 0.00000E+00
 -1       523 1.30650E+02 4.22060E+01 0.00000E+00
 -1       524 1.33650E+02 4.22060E+01 0.00000E+00
 -1       525 1.36650E+02 4.22060E+01 0.00000E+00
 -1       526 1.39650E+02 4.22060E+01 0.00000E+00
 -1       527 1.90350E+01 6.60425E+00 0.00000E+00
 -1       528 2.20350E+01 6.60425E+00 0.00000E+00
 -1       529 2.50350E+01 6.60425E+00 0.00000E+00
 -1       530 2.80350E+01 6.60425E+00 0.00000E+00
 -1       531 3.10350E+01 6.60425E+00 0.00000E+00
 -1       532 3.40350E+01 6.60425E+00 0.00000E+00
 -1       533 3.70350E+01 6.60425E+00 0.00000E+00
 -1       534 4.00350E+01 6.60425E+00 0.00000E+00
 -1       535 4.30350E+01 6.60425E+00 0.00000E+00
 -1       536 4.60350E+01 6.60425E+00 0.00000E+00
 -1       537 4.90350E+01 6.60425E+00 0.00000E+00
 -1       538 5.20350E+01 6.60425E+00 0.00000E+00
 -1       539 5.50350E+01 6.60425E+00 0.00000E+00
 -1       540 5.80350E+01 6.60425E+00 0.00000E+00
 -1       541 6.10350E+01 6.60425E+00 0.00000E+00
 -1       542 6.40350E+01 6.60425E+00 0.00000E+00
 -1       543 6.70350E+01 6.60425E+00 0.00000E+00
 -1       544 7.00350E+01 6.60425E+00 0.00000E+00
 -1       545 7.30350E+01 6.60425E+00 0.00000E+00
 -1       546 7.60350E+01 6.60425E+00 0.00000E+00
 -1       547 7.90350E+01 6.60425E+00 0.00000E+00
 -1       548 8.20350E+01 6.60425E+00 0.00000E+00
 -1       549 8.50350E+01 6.60425E+00 0.00000E+00
 -1       550 8.80350E+01 6.60425E+00 0.00000E+00
 -1       551 9.10350E+01 6.60425E+00 0.00000E+00
 -1       552 9.40350E+01 6.60425E+00 0.00000E+00
 -1       553 9.70350E+01 6.60425E+00 0.00000E+00
 -1       554 1.00035E+02 6.60425E+00 0.00000E+00
 -1       555 1.03035E+02 6.60425E+00 0.00000E+00
 -1       556 1.06035E+02 6.60425E+00 0.00000E+00
 -1       557 1.09035E+02 6.60425E+00 0.00000E+00
 -1       558 1.12035E+02 6.60425E+00 0.00000E+00
 -1       559 1.15035E+02 6.60425E+00 0.00000E+00
 -1       560 1.18035E+02 6.60425E+00 0.00000E+00
 -1       561 1.21035E+02 6.60425E+00 0.00000E+00
 -1       562 1.24035E+02 6.60425E+00 0.00000E+00
 -1       563 1.27035E+02 6.60425E+00 0.00000E+00
 -1       564 1.30035E+02 6.60425E+00 0.00000E+00
 -1       565 1.33035E+02 6.60425E+00 0.00000E+00
 -1       566 1.36035E+02 6.60425E+00 0.00000E+00
 -1       567 1.39035E+02 6.60425E+00 0.00000E+00
 -1       568 1.42035E+02 6.60425E+00 0.00000E+00
 -1       569 1.42206E+02 1.61750E+01 0.00000E+00
 -1       570 1.42206E+02 1.91250E+01 0.00000E+00
 -1       571 1.42206E+02 1.03250E+01 0.00000E+00
 -1       572 1.42206E+02 1.32500E+01 0.00000E+00
 -1       573 1.42206E+02 2.20750E+01 0.00000E+00
 -1       574 1.42206E+02 2.50250E+01 0.00000E+00
 -1       575 1.42206E+02 2.79750E+01 0.00000E+00
 -1       576 1.42206E+02 3.08750E+01 0.00000E+00
 -1       577 1.42206E+02 3.38250E+01 0.00000E+00
 -1       578 1.42206E+02 3.67750E+01 0.00000E+00
 -1       579 1.42206E+02 3.97250E+01 0.00000E+00
 -1       580 1.22752E+02 2.28426E+01 0.00000E+00
 -1       581 1.20841E+02 1.84820E+01 0.00000E+00
 -1       582 1.60350E+01 6.60425E+00 0.00000E+00
 -1       583 1.22405E+02 2.52669E+01 0.00000E+00
 -1       584 1.19613E+02 1.64533E+01 0.00000E+00
 -1       585 1.15492E+02 1.31619E+01 0.00000E+00
 -1       586 1.21772E+02 2.75142E+01 0.00000E+00
 -1       587 1.08165E+02 1.25812E+01 0.00000E+00
 -1       588 7.79400E+00 2.79000E+01 0.00000E+00
 -1       589 1.11012E+02 1.24771E+01 0.00000E+00
 -1       590 1.02349E+02 1.71267E+01 0.00000E+00
 -1       591 1.13177E+02 1.26737E+01 0.00000E+00
 -1       592 1.05615E+02 1.36365E+01 0.00000E+00
 -1       593 1.03952E+02 1.52015E+01 0.00000E+00
 -1       594 1.01249E+02 1.89058E+01 0.00000E+00
 -1       595 1.00480E+02 2.12749E+01 0.00000E+00
 -1       596 1.00086E+02 2.36508E+01 0.00000E+00
 -1       597 1.00350E+02 2.58803E+01 0.00000E+00
 -1       598 1.02154E+02 3.06760E+01 0.00000E+00
 -1       599 1.03936E+02 3.21362E+01 0.00000E+00
 -1       600 1.05529E+02 3.36035E+01 0.00000E+00
 -1       601 1.07898E+02 3.51884E+01 0.00000E+00
 -1       602 1.10917E+02 3.50869E+01 0.00000E+00
 -1       603 1.12806E+02 3.48866E+01 0.00000E+00
 -1       604 1.15341E+02 3.44951E+01 0.00000E+00
 -1       605 1.17741E+02 3.32906E+01 0.00000E+00
 -1       606 1.19583E+02 3.15597E+01 0.00000E+00
 -1       607 1.20840E+02 2.95898E+01 0.00000E+00
 -1       608 7.92300E+00 4.16780E+01 0.00000E+00
 -1       609 7.61550E+00 6.21462E+00 0.00000E+00
 -1       610 7.79400E+00 3.67375E+01 0.00000E+00
 -1       611 7.85850E+00 3.92077E+01 0.00000E+00
 -1       612 1.17236E+02 1.29240E+01 0.00000E+00
 -1       613 9.97256E+01 2.74841E+01 0.00000E+00
 -1       614 1.00705E+02 3.00555E+01 0.00000E+00
 -1       615 1.41678E+02 4.22645E+01 0.00000E+00
 -1       616 1.03920E+01 2.05500E+01 0.00000E+00
 -1       617 1.03920E+01 2.35000E+01 0.00000E+00
 -1       618 1.03920E+01 1.46750E+01 0.00000E+00
 -1       619 1.03920E+01 1.17250E+01 0.00000E+00
 -1       620 1.15350E+01 9.20225E+00 0.00000E+00
 -1       621 1.00340E+02 1.71145E+01 0.00000E+00
 -1       622 1.51500E+01 3.96080E+01 0.00000E+00
 -1       623 1.81500E+01 3.96080E+01 0.00000E+00
 -1       624 2.11500E+01 3.96080E+01 0.00000E+00
 -1       625 2.41500E+01 3.96080E+01 0.00000E+00
 -1       626 2.71500E+01 3.96080E+01 0.00000E+00
 -1       627 3.01500E+01 3.96080E+01 0.00000E+00
 -1       628 3.31500E+01 3.96080E+01 0.00000E+00
 -1       629 3.61500E+01 3.96080E+01 0.00000E+00
 -1       630 3.91500E+01 3.96080E+01 0.00000E+00
 -1       631 4.21500E+01 3.96080E+01 0.00000E+00
 -1       632 4.51500E+01 3.96080E+01 0.00000E+00
 -1       633 4.81500E+01 3.96080E+01 0.00000E+00
 -1       634 5.11500E+01 3.96080E+01 0.00000E+00
 -1       635 5.41500E+01 3.96080E+01 0.00000E+00
 -1       636 5.71500E+01 3.96080E+01 0.00000E+00
 -1       637 6.01500E+01 3.96080E+01 0.00000E+00
 -1       638 6.31500E+01 3.96080E+01 0.00000E+00
 -1       639 6.61500E+01 3.96080E+01 0.00000E+00
 -1       640 6.91500E+01 3.96080E+01 0.00000E+00
 -1       641 7.21500E+01 3.96080E+01 0.00000E+00
 -1       642 7.51500E+01 3.96080E+01 0.00000E+00
 -1       643 7.81500E+01 3.96080E+01 0.00000E+00
 -1       644 8.11500E+01 3.96080E+01 0.00000E+00
 -1       645 8.41500E+01 3.96080E+01 0.00000E+00
 -1       646 8.71500E+01 3.96080E+01 0.00000E+00
 -1       647 9.01500E+01 3.96080E+01 0.00000E+00
 -1       648 9.31500E+01 3.96080E+01 0.00000E+00
 -1       649 9.61500E+01 3.96080E+01 0.00000E+00
 -1       650 9.91500E+01 3.96080E+01 0.00000E+00
 -1       651 1.02150E+02 3.96080E+01 0.00000E+00
 -1       652 1.05150E+02 3.96080E+01 0.00000E+00
 -1       653 1.08150E+02 3.96080E+01 0.00000E+00
 -1       654 1.11150E+02 3.96080E+01 0.00000E+00
 -1       655 1.14150E+02 3.96080E+01 0.00000E+00
 -1       656 1.17150E+02 3.96080E+01 0.00000E+00
 -1       657 1.20150E+02 3.96080E+01 0.00000E+00
 -1       658 1.23150E+02 3.96080E+01 0.00000E+00
 -1       659 1.26150E+02 3.96080E+01 0.00000E+00
 -1       660 1.29150E+02 3.96080E+01 0.00000E+00
 -1       661 1.32150E+02 3.96080E+01 0.00000E+00
 -1       662 1.35150E+02 3.96080E+01 0.00000E+00
 -1       663 1.38150E+02 3.96080E+01 0.00000E+00
 -1       664 2.35350E+01 9.20225E+00 0.00000E+00
 -1       665 9.93130E+01 1.95866E+01 0.00000E+00
 -1       666 2.05350E+01 9.20225E+00 0.00000E+00
 -1       667 2.95350E+01 9.20225E+00 0.00000E+00
 -1       668 3.25350E+01 9.20225E+00 0.00000E+00
 -1       669 3.55350E+01 9.20225E+00 0.00000E+00
 -1       670 3.85350E+01 9.20225E+00 0.00000E+00
 -1       671 4.15350E+01 9.20225E+00 0.00000E+00
 -1       672 4.45350E+01 9.20225E+00 0.00000E+00
 -1       673 4.75350E+01 9.20225E+00 0.00000E+00
 -1       674 5.05350E+01 9.20225E+00 0.00000E+00
 -1       675 5.35350E+01 9.20225E+00 0.00000E+00
 -1       676 5.65350E+01 9.20225E+00 0.00000E+00
 -1       677 5.95350E+01 9.20225E+00 0.00000E+00
 -1       678 6.25350E+01 9.20225E+00 0.00000E+00
 -1       679 6.55350E+01 9.20225E+00 0.00000E+00
 -1       680 6.85350E+01 9.20225E+00 0.00000E+00
 -1       681 7.15350E+01 9.20225E+00 0.00000E+00
 -1       682 7.45350E+01 9.20225E+00 0.00000E+00
 -1       683 7.75350E+01 9.20225E+00 0.00000E+00
 -1       684 8.05350E+01 9.20225E+00 0.00000E+00
 -1       685 8.35350E+01 9.20225E+00 0.00000E+00
 -1       686 8.65350E+01 9.20225E+00 0.00000E+00
 -1       687 8.95350E+01 9.20225E+00 0.00000E+00
 -1       688 9.25350E+01 9.20225E+00 0.00000E+00
 -1       689 9.55350E+01 9.20225E+00 0.00000E+00
 -1       690 9.85350E+01 9.20225E+00 0.00000E+00
 -1       691 1.01535E+02 9.20225E+00 0.00000E+00
 -1       692 1.04535E+02 9.20225E+00 0.00000E+00
 -1       693 1.07535E+02 9.20225E+00 0.00000E+00
 -1       694 1.10535E+02 9.20225E+00 0.00000E+00
 -1       695 1.13535E+02 9.20225E+00 0.00000E+00
 -1       696 1.16535E+02 9.20225E+00 0.00000E+00
 -1       697 1.19535E+02 9.20225E+00 0.00000E+00
 -1       698 1.22535E+02 9.20225E+00 0.00000E+00
 -1       699 1.25535E+02 9.20225E+00 0.00000E+00
 -1       700 1.28535E+02 9.20225E+00 0.00000E+00
 -1       701 1.31535E+02 9.20225E+00 0.00000E+00
 -1       702 1.34535E+02 9.20225E+00 0.00000E+00
 -1       703 1.37535E+02 9.20225E+00 0.00000E+00
 -1       704 1.39870E+02 9.76363E+00 0.00000E+00
 -1       705 1.21694E+02 1.65794E+01 0.00000E+00
 -1       706 1.39608E+02 2.35500E+01 0.00000E+00
 -1       707 1.39608E+02 1.76500E+01 0.00000E+00
 -1       708 1.39608E+02 2.65000E+01 0.00000E+00
 -1       709 1.39608E+02 2.06000E+01 0.00000E+00
 -1       710 1.39608E+02 2.94000E+01 0.00000E+00
 -1       711 1.39608E+02 3.23500E+01 0.00000E+00
 -1       712 1.39608E+02 3.53000E+01 0.00000E+00
 -1       713 1.19857E+02 1.40406E+01 0.00000E+00
 -1       714 1.22958E+02 1.86053E+01 0.00000E+00
 -1       715 1.75350E+01 9.20225E+00 0.00000E+00
 -1       716 1.22871E+02 2.92540E+01 0.00000E+00
 -1       717 1.09920E+02 3.57310E+01 0.00000E+00
 -1       718 1.14361E+02 3.65515E+01 0.00000E+00
 -1       719 1.24073E+02 2.11828E+01 0.00000E+00
 -1       720 1.23900E+02 2.69014E+01 0.00000E+00
 -1       721 1.08465E+02 3.71162E+01 0.00000E+00
 -1       722 1.11531E+02 3.71311E+01 0.00000E+00
 -1       723 1.21799E+02 3.15875E+01 0.00000E+00
 -1       724 2.65350E+01 9.20225E+00 0.00000E+00
 -1       725 1.21500E+01 3.96080E+01 0.00000E+00
 -1       726 1.03920E+01 1.76125E+01 0.00000E+00
 -1       727 1.45350E+01 9.20225E+00 0.00000E+00
 -1       728 1.03920E+01 3.23250E+01 0.00000E+00
 -1       729 1.05667E+02 3.59609E+01 0.00000E+00
 -1       730 1.40178E+02 3.96665E+01 0.00000E+00
 -1       731 1.03264E+02 1.28037E+01 0.00000E+00
 -1       732 1.06106E+02 1.12144E+01 0.00000E+00
 -1       733 1.17461E+02 3.57253E+01 0.00000E+00
 -1       734 1.01661E+02 1.47289E+01 0.00000E+00
 -1       735 9.84256E+01 2.21546E+01 0.00000E+00
 -1       736 1.14723E+02 1.10757E+01 0.00000E+00
 -1       737 9.86812E+01 2.49480E+01 0.00000E+00
 -1       738 1.01745E+02 3.29921E+01 0.00000E+00
 -1       739 1.03338E+02 3.44594E+01 0.00000E+00
 -1       740 1.24774E+02 2.43691E+01 0.00000E+00
 -1       741 1.19952E+02 3.37972E+01 0.00000E+00
 -1       742 1.00042E+01 3.94079E+01 0.00000E+00
 -1       743 1.03920E+01 3.52625E+01 0.00000E+00
 -1       744 1.03920E+01 2.64500E+01 0.00000E+00
 -1       745 9.80565E+01 2.65518E+01 0.00000E+00
 -1       746 1.39870E+02 1.26886E+01 0.00000E+00
 -1       747 9.91089E+01 2.93617E+01 0.00000E+00
 -1       748 1.00297E+02 3.23716E+01 0.00000E+00
 -1       749 1.38879E+02 3.74540E+01 0.00000E+00
 -1       750 1.39739E+02 1.51693E+01 0.00000E+00
 -1       751 1.03920E+01 2.93875E+01 0.00000E+00
 -1       752 1.03391E+02 3.69333E+01 0.00000E+00
 -1       753 1.29900E+01 1.32000E+01 0.00000E+00
 -1       754 1.01981E+01 3.73352E+01 0.00000E+00
 -1       755 1.16109E+02 1.11775E+01 0.00000E+00
 -1       756 1.96500E+01 3.70100E+01 0.00000E+00
 -1       757 2.26500E+01 3.70100E+01 0.00000E+00
 -1       758 2.56500E+01 3.70100E+01 0.00000E+00
 -1       759 2.86500E+01 3.70100E+01 0.00000E+00
 -1       760 3.16500E+01 3.70100E+01 0.00000E+00
 -1       761 3.46500E+01 3.70100E+01 0.00000E+00
 -1       762 3.76500E+01 3.70100E+01 0.00000E+00
 -1       763 4.06500E+01 3.70100E+01 0.00000E+00
 -1       764 4.36500E+01 3.70100E+01 0.00000E+00
 -1       765 4.66500E+01 3.70100E+01 0.00000E+00
 -1       766 4.96500E+01 3.70100E+01 0.00000E+00
 -1       767 5.26500E+01 3.70100E+01 0.00000E+00
 -1       768 5.56500E+01 3.70100E+01 0.00000E+00
 -1       769 5.86500E+01 3.70100E+01 0.00000E+00
 -1       770 6.16500E+01 3.70100E+01 0.00000E+00
 -1       771 6.46500E+01 3.70100E+01 0.00000E+00
 -1       772 6.76500E+01 3.70100E+01 0.00000E+00
 -1       773 7.06500E+01 3.70100E+01 0.00000E+00
 -1       774 7.36500E+01 3.70100E+01 0.00000E+00
 -1       775 7.66500E+01 3.70100E+01 0.00000E+00
 -1       776 7.96500E+01 3.70100E+01 0.00000E+00
 -1       777 8.26500E+01 3.70100E+01 0.00000E+00
 -1       778 8.56500E+01 3.70100E+01 0.00000E+00
 -1       779 8.86500E+01 3.70100E+01 0.00000E+00
 -1       780 9.16500E+01 3.70100E+01 0.00000E+00
 -1       781 9.46500E+01 3.70100E+01 0.00000E+00
 -1       782 9.76500E+01 3.70100E+01 0.00000E+00
 -1       783 1.18650E+02 3.70100E+01 0.00000E+00
 -1       784 1.21650E+02 3.70100E+01 0.00000E+00
 -1       785 1.24650E+02 3.70100E+01 0.00000E+00
 -1       786 1.27650E+02 3.70100E+01 0.00000E+00
 -1       787 1.30650E+02 3.70100E+01 0.00000E+00
 -1       788 1.33650E+02 3.70100E+01 0.00000E+00
 -1       789 1.36264E+02 3.72320E+01 0.00000E+00
 -1       790 3.40350E+01 1.18003E+01 0.00000E+00
 -1       791 3.10350E+01 1.18003E+01 0.00000E+00
 -1       792 4.00350E+01 1.18003E+01 0.00000E+00
 -1       793 4.30350E+01 1.18003E+01 0.00000E+00
 -1       794 4.60350E+01 1.18003E+01 0.00000E+00
 -1       795 4.90350E+01 1.18003E+01 0.00000E+00
 -1       796 5.20350E+01 1.18003E+01 0.00000E+00
 -1       797 5.50350E+01 1.18003E+01 0.00000E+00
 -1       798 5.80350E+01 1.18003E+01 0.00000E+00
 -1       799 6.10350E+01 1.18003E+01 0.00000E+00
 -1       800 6.40350E+01 1.18003E+01 0.00000E+00
 -1       801 6.70350E+01 1.18003E+01 0.00000E+00
 -1       802 7.00350E+01 1.18003E+01 0.00000E+00
 -1       803 7.30350E+01 1.18003E+01 0.00000E+00
 -1       804 7.60350E+01 1.18003E+01 0.00000E+00
 -1       805 7.90350E+01 1.18003E+01 0.00000E+00
 -1       806 8.20350E+01 1.18003E+01 0.00000E+00
 -1       807 8.50350E+01 1.18003E+01 0.00000E+00
 -1       808 8.80350E+01 1.18003E+01 0.00000E+00
 -1       809 9.10350E+01 1.18003E+01 0.00000E+00
 -1       810 9.40350E+01 1.18003E+01 0.00000E+00
 -1       811 9.70350E+01 1.18003E+01 0.00000E+00
 -1       812 1.00035E+02 1.18003E+01 0.00000E+00
 -1       813 1.24066E+02 1.65070E+01 0.00000E+00
 -1       814 1.19109E+02 1.11775E+01 0.00000E+00
 -1       815 1.22109E+02 1.11775E+01 0.00000E+00
 -1       816 1.25109E+02 1.11775E+01 0.00000E+00
 -1       817 1.28109E+02 1.11775E+01 0.00000E+00
 -1       818 1.31109E+02 1.11775E+01 0.00000E+00
 -1       819 1.34109E+02 1.11775E+01 0.00000E+00
 -1       820 1.37535E+02 1.21272E+01 0.00000E+00
 -1       821 1.37010E+02 2.79500E+01 0.00000E+00
 -1       822 1.37010E+02 2.50000E+01 0.00000E+00
 -1       823 1.24198E+02 3.12765E+01 0.00000E+00
 -1       824 1.37625E+01 1.12011E+01 0.00000E+00
 -1       825 1.26434E+02 2.63586E+01 0.00000E+00
 -1       826 1.24755E+02 2.30804E+01 0.00000E+00
 -1       827 1.25551E+02 1.90141E+01 0.00000E+00
 -1       828 1.22705E+02 3.42224E+01 0.00000E+00
 -1       829 1.90350E+01 1.18003E+01 0.00000E+00
 -1       830 1.37010E+02 3.09000E+01 0.00000E+00
 -1       831 1.37010E+02 3.38500E+01 0.00000E+00
 -1       832 9.89137E+01 1.47663E+01 0.00000E+00
 -1       833 3.70350E+01 1.18003E+01 0.00000E+00
 -1       834 2.20350E+01 1.18003E+01 0.00000E+00
 -1       835 9.78865E+01 1.72384E+01 0.00000E+00
 -1       836 1.25228E+02 2.89238E+01 0.00000E+00
 -1       837 1.36500E+01 3.70100E+01 0.00000E+00
 -1       838 1.66500E+01 3.70100E+01 0.00000E+00
 -1       839 1.22229E+02 1.39681E+01 0.00000E+00
 -1       840 1.01153E+02 3.52336E+01 0.00000E+00
 -1       841 9.65117E+01 2.37382E+01 0.00000E+00
 -1       842 1.29900E+01 2.20250E+01 0.00000E+00
 -1       843 9.70899E+01 2.02556E+01 0.00000E+00
 -1       844 1.26028E+02 2.15515E+01 0.00000E+00
 -1       845 1.26647E+02 2.36964E+01 0.00000E+00
 -1       846 1.29900E+01 2.49750E+01 0.00000E+00
 -1       847 1.29900E+01 1.61375E+01 0.00000E+00
 -1       848 1.29900E+01 1.90812E+01 0.00000E+00
 -1       849 1.01244E+02 3.70337E+01 0.00000E+00
 -1       850 1.29900E+01 3.37938E+01 0.00000E+00
 -1       851 9.74398E+01 2.84294E+01 0.00000E+00
 -1       852 2.80350E+01 1.18003E+01 0.00000E+00
 -1       853 1.37010E+02 2.20500E+01 0.00000E+00
 -1       854 1.37010E+02 1.91000E+01 0.00000E+00
 -1       855 1.36637E+02 3.55410E+01 0.00000E+00
 -1       856 1.29900E+01 3.08563E+01 0.00000E+00
 -1       857 1.37141E+02 1.66193E+01 0.00000E+00
 -1       858 9.58869E+01 2.53420E+01 0.00000E+00
 -1       859 9.87008E+01 3.16778E+01 0.00000E+00
 -1       860 9.97042E+01 3.46131E+01 0.00000E+00
 -1       861 2.50350E+01 1.18003E+01 0.00000E+00
 -1       862 9.51760E+01 2.18392E+01 0.00000E+00
 -1       863 1.63988E+01 1.15007E+01 0.00000E+00
 -1       864 1.19961E+02 3.63825E+01 0.00000E+00
 -1       865 2.11500E+01 3.44120E+01 0.00000E+00
 -1       866 2.41500E+01 3.44120E+01 0.00000E+00
 -1       867 2.71500E+01 3.44120E+01 0.00000E+00
 -1       868 3.01500E+01 3.44120E+01 0.00000E+00
 -1       869 3.31500E+01 3.44120E+01 0.00000E+00
 -1       870 3.61500E+01 3.44120E+01 0.00000E+00
 -1       871 3.91500E+01 3.44120E+01 0.00000E+00
 -1       872 4.21500E+01 3.44120E+01 0.00000E+00
 -1       873 4.51500E+01 3.44120E+01 0.00000E+00
 -1       874 4.81500E+01 3.44120E+01 0.00000E+00
 -1       875 5.11500E+01 3.44120E+01 0.00000E+00
 -1       876 5.41500E+01 3.44120E+01 0.00000E+00
 -1       877 5.71500E+01 3.44120E+01 0.00000E+00
 -1       878 6.01500E+01 3.44120E+01 0.00000E+00
 -1       879 6.31500E+01 3.44120E+01 0.00000E+00
 -1       880 6.61500E+01 3.44120E+01 0.00000E+00
 -1       881 6.91500E+01 3.44120E+01 0.00000E+00
 -1       882 7.21500E+01 3.44120E+01 0.00000E+00
 -1       883 7.51500E+01 3.44120E+01 0.00000E+00
 -1       884 7.81500E+01 3.44120E+01 0.00000E+00
 -1       885 8.11500E+01 3.44120E+01 0.00000E+00
 -1       886 8.41500E+01 3.44120E+01 0.00000E+00
 -1       887 8.71500E+01 3.44120E+01 0.00000E+00
 -1       888 9.01500E+01 3.44120E+01 0.00000E+00
 -1       889 9.31500E+01 3.44120E+01 0.00000E+00
 -1       890 9.61500E+01 3.44120E+01 0.00000E+00
 -1       891 9.51818E+01 1.81381E+01 0.00000E+00
 -1       892 1.26143E+02 3.40641E+01 0.00000E+00
 -1       893 2.05350E+01 1.43982E+01 0.00000E+00
 -1       894 1.29143E+02 3.40641E+01 0.00000E+00
 -1       895 1.32143E+02 3.40641E+01 0.00000E+00
 -1       896 3.25350E+01 1.43982E+01 0.00000E+00
 -1       897 4.45350E+01 1.43982E+01 0.00000E+00
 -1       898 4.15350E+01 1.43982E+01 0.00000E+00
 -1       899 5.05350E+01 1.43982E+01 0.00000E+00
 -1       900 5.35350E+01 1.43982E+01 0.00000E+00
 -1       901 5.65350E+01 1.43982E+01 0.00000E+00
 -1       902 5.95350E+01 1.43982E+01 0.00000E+00
 -1       903 6.25350E+01 1.43982E+01 0.00000E+00
 -1       904 6.55350E+01 1.43982E+01 0.00000E+00
 -1       905 6.85350E+01 1.43982E+01 0.00000E+00
 -1       906 7.15350E+01 1.43982E+01 0.00000E+00
 -1       907 7.45350E+01 1.43982E+01 0.00000E+00
 -1       908 7.75350E+01 1.43982E+01 0.00000E+00
 -1       909 8.05350E+01 1.43982E+01 0.00000E+00
 -1       910 8.35350E+01 1.43982E+01 0.00000E+00
 -1       911 8.65350E+01 1.43982E+01 0.00000E+00
 -1       912 8.95350E+01 1.43982E+01 0.00000E+00
 -1       913 9.25350E+01 1.43982E+01 0.00000E+00
 -1       914 9.55350E+01 1.43982E+01 0.00000E+00
 -1       915 1.27838E+02 2.85849E+01 0.00000E+00
 -1       916 1.26808E+02 3.09376E+01 0.00000E+00
 -1       917 1.26609E+02 1.37755E+01 0.00000E+00
 -1       918 1.29609E+02 1.37755E+01 0.00000E+00
 -1       919 1.32609E+02 1.37755E+01 0.00000E+00
 -1       920 1.34412E+02 3.23750E+01 0.00000E+00
 -1       921 1.34412E+02 2.64750E+01 0.00000E+00
 -1       922 1.26861E+02 1.65446E+01 0.00000E+00
 -1       923 1.28918E+02 2.52177E+01 0.00000E+00
 -1       924 1.27804E+02 1.99045E+01 0.00000E+00
 -1       925 1.28424E+02 2.20494E+01 0.00000E+00
 -1       926 1.81500E+01 3.44120E+01 0.00000E+00
 -1       927 1.34412E+02 2.94250E+01 0.00000E+00
 -1       928 4.75350E+01 1.43982E+01 0.00000E+00
 -1       929 1.29900E+01 2.79188E+01 0.00000E+00
 -1       930 1.34875E+02 1.51974E+01 0.00000E+00
 -1       931 1.55880E+01 1.46687E+01 0.00000E+00
 -1       932 1.75351E+01 1.43983E+01 0.00000E+00
 -1       933 2.35350E+01 1.43982E+01 0.00000E+00
 -1       934 9.70317E+01 3.07455E+01 0.00000E+00
 -1       935 1.34744E+02 1.76781E+01 0.00000E+00
 -1       936 2.95350E+01 1.43982E+01 0.00000E+00
 -1       937 3.55350E+01 1.43982E+01 0.00000E+00
 -1       938 9.52702E+01 2.72196E+01 0.00000E+00
 -1       939 1.34412E+02 2.35250E+01 0.00000E+00
 -1       940 3.85350E+01 1.43982E+01 0.00000E+00
 -1       941 1.34412E+02 2.05750E+01 0.00000E+00
 -1       942 9.45513E+01 2.34430E+01 0.00000E+00
 -1       943 1.59934E+01 1.30847E+01 0.00000E+00
 -1       944 1.55880E+01 2.35000E+01 0.00000E+00
 -1       945 1.55880E+01 2.05562E+01 0.00000E+00
 -1       946 1.51500E+01 3.44120E+01 0.00000E+00
 -1       947 1.51500E+01 3.14745E+01 0.00000E+00
 -1       948 1.55880E+01 1.76125E+01 0.00000E+00
 -1       949 2.56500E+01 3.18140E+01 0.00000E+00
 -1       950 2.86500E+01 3.18140E+01 0.00000E+00
 -1       951 3.16500E+01 3.18140E+01 0.00000E+00
 -1       952 3.46500E+01 3.18140E+01 0.00000E+00
 -1       953 3.76500E+01 3.18140E+01 0.00000E+00
 -1       954 4.06500E+01 3.18140E+01 0.00000E+00
 -1       955 4.36500E+01 3.18140E+01 0.00000E+00
 -1       956 4.66500E+01 3.18140E+01 0.00000E+00
 -1       957 4.96500E+01 3.18140E+01 0.00000E+00
 -1       958 5.26500E+01 3.18140E+01 0.00000E+00
 -1       959 5.56500E+01 3.18140E+01 0.00000E+00
 -1       960 5.86500E+01 3.18140E+01 0.00000E+00
 -1       961 6.16500E+01 3.18140E+01 0.00000E+00
 -1       962 6.46500E+01 3.18140E+01 0.00000E+00
 -1       963 6.76500E+01 3.18140E+01 0.00000E+00
 -1       964 7.06500E+01 3.18140E+01 0.00000E+00
 -1       965 7.36500E+01 3.18140E+01 0.00000E+00
 -1       966 7.66500E+01 3.18140E+01 0.00000E+00
 -1       967 7.96500E+01 3.18140E+01 0.00000E+00
 -1       968 8.26500E+01 3.18140E+01 0.00000E+00
 -1       969 8.56500E+01 3.18140E+01 0.00000E+00
 -1       970 8.86500E+01 3.18140E+01 0.00000E+00
 -1       971 9.16500E+01 3.18140E+01 0.00000E+00
 -1       972 1.90351E+01 1.69963E+01 0.00000E+00
 -1       973 1.32143E+02 3.11141E+01 0.00000E+00
 -1       974 1.51500E+01 2.85370E+01 0.00000E+00
 -1       975 5.50350E+01 1.69963E+01 0.00000E+00
 -1       976 5.20350E+01 1.69963E+01 0.00000E+00
 -1       977 6.10350E+01 1.69963E+01 0.00000E+00
 -1       978 6.40350E+01 1.69963E+01 0.00000E+00
 -1       979 6.70350E+01 1.69963E+01 0.00000E+00
 -1       980 7.00350E+01 1.69963E+01 0.00000E+00
 -1       981 7.30350E+01 1.69963E+01 0.00000E+00
 -1       982 7.60350E+01 1.69963E+01 0.00000E+00
 -1       983 7.90350E+01 1.69963E+01 0.00000E+00
 -1       984 8.20350E+01 1.69963E+01 0.00000E+00
 -1       985 8.50350E+01 1.69963E+01 0.00000E+00
 -1       986 8.80350E+01 1.69963E+01 0.00000E+00
 -1       987 9.10350E+01 1.69963E+01 0.00000E+00
 -1       988 9.27935E+01 1.99849E+01 0.00000E+00
 -1       989 1.31109E+02 1.63735E+01 0.00000E+00
 -1       990 1.30862E+02 2.32916E+01 0.00000E+00
 -1       991 1.31997E+02 1.88308E+01 0.00000E+00
 -1       992 2.26500E+01 3.18140E+01 0.00000E+00
 -1       993 4.30350E+01 1.69963E+01 0.00000E+00
 -1       994 1.96500E+01 3.18140E+01 0.00000E+00
 -1       995 1.30852E+02 2.76950E+01 0.00000E+00
 -1       996 1.30084E+02 2.04083E+01 0.00000E+00
 -1       997 1.53690E+01 2.60185E+01 0.00000E+00
 -1       998 1.29629E+02 1.75795E+01 0.00000E+00
 -1       999 2.65350E+01 1.43982E+01 0.00000E+00
 -1      1000 5.80350E+01 1.69963E+01 0.00000E+00
 -1      1001 4.00350E+01 1.69963E+01 0.00000E+00
 -1      1002 2.20351E+01 1.69963E+01 0.00000E+00
 -1      1003 9.46500E+01 3.18140E+01 0.00000E+00
 -1      1004 9.48622E+01 2.95356E+01 0.00000E+00
 -1      1005 3.40350E+01 1.69963E+01 0.00000E+00
 -1      1006 4.90350E+01 1.69963E+01 0.00000E+00
 -1      1007 9.21688E+01 2.15887E+01 0.00000E+00
 -1      1008 1.80667E+01 2.49843E+01 0.00000E+00
 -1      1009 3.10350E+01 1.69963E+01 0.00000E+00
 -1      1010 9.35421E+01 2.55720E+01 0.00000E+00
 -1      1011 4.60350E+01 1.69963E+01 0.00000E+00
 -1      1012 1.80667E+01 2.20406E+01 0.00000E+00
 -1      1013 3.01500E+01 2.92160E+01 0.00000E+00
 -1      1014 3.31500E+01 2.92160E+01 0.00000E+00
 -1      1015 3.61500E+01 2.92160E+01 0.00000E+00
 -1      1016 3.91500E+01 2.92160E+01 0.00000E+00
 -1      1017 4.21500E+01 2.92160E+01 0.00000E+00
 -1      1018 4.51500E+01 2.92160E+01 0.00000E+00
 -1      1019 4.81500E+01 2.92160E+01 0.00000E+00
 -1      1020 5.11500E+01 2.92160E+01 0.00000E+00
 -1      1021 5.41500E+01 2.92160E+01 0.00000E+00
 -1      1022 5.71500E+01 2.92160E+01 0.00000E+00
 -1      1023 6.01500E+01 2.92160E+01 0.00000E+00
 -1      1024 6.31500E+01 2.92160E+01 0.00000E+00
 -1      1025 6.61500E+01 2.92160E+01 0.00000E+00
 -1      1026 6.91500E+01 2.92160E+01 0.00000E+00
 -1      1027 7.21500E+01 2.92160E+01 0.00000E+00
 -1      1028 7.51500E+01 2.92160E+01 0.00000E+00
 -1      1029 7.81500E+01 2.92160E+01 0.00000E+00
 -1      1030 8.11500E+01 2.92160E+01 0.00000E+00
 -1      1031 8.41500E+01 2.92160E+01 0.00000E+00
 -1      1032 8.71500E+01 2.92160E+01 0.00000E+00
 -1      1033 9.01500E+01 2.92160E+01 0.00000E+00
 -1      1034 6.85350E+01 1.95942E+01 0.00000E+00
 -1      1035 3.70350E+01 1.69963E+01 0.00000E+00
 -1      1036 5.35350E+01 1.95942E+01 0.00000E+00
 -1      1037 1.78477E+01 2.75028E+01 0.00000E+00
 -1      1038 9.11596E+01 2.37177E+01 0.00000E+00
 -1      1039 6.55350E+01 1.95942E+01 0.00000E+00
 -1      1040 6.25350E+01 1.95942E+01 0.00000E+00
 -1      1041 7.15350E+01 1.95942E+01 0.00000E+00
 -1      1042 7.45350E+01 1.95942E+01 0.00000E+00
 -1      1043 7.75350E+01 1.95942E+01 0.00000E+00
 -1      1044 8.05350E+01 1.95942E+01 0.00000E+00
 -1      1045 8.35350E+01 1.95942E+01 0.00000E+00
 -1      1046 8.65350E+01 1.95942E+01 0.00000E+00
 -1      1047 8.95350E+01 1.95942E+01 0.00000E+00
 -1      1048 1.85509E+01 1.95184E+01 0.00000E+00
 -1      1049 1.87489E+01 2.96584E+01 0.00000E+00
 -1      1050 2.41500E+01 2.92160E+01 0.00000E+00
 -1      1051 2.14494E+01 2.94372E+01 0.00000E+00
 -1      1052 2.80350E+01 1.69963E+01 0.00000E+00
 -1      1053 2.50350E+01 1.69963E+01 0.00000E+00
 -1      1054 5.65350E+01 1.95942E+01 0.00000E+00
 -1      1055 9.31340E+01 2.78881E+01 0.00000E+00
 -1      1056 5.95350E+01 1.95942E+01 0.00000E+00
 -1      1057 2.71500E+01 2.92160E+01 0.00000E+00
 -1      1058 4.15350E+01 1.95942E+01 0.00000E+00
 -1      1059 2.15509E+01 1.95184E+01 0.00000E+00
 -1      1060 5.05350E+01 1.95942E+01 0.00000E+00
 -1      1061 2.06647E+01 2.35124E+01 0.00000E+00
 -1      1062 3.55350E+01 1.95942E+01 0.00000E+00
 -1      1063 9.07516E+01 2.60338E+01 0.00000E+00
 -1      1064 3.25350E+01 1.95942E+01 0.00000E+00
 -1      1065 4.45350E+01 1.95942E+01 0.00000E+00
 -1      1066 2.04457E+01 2.60309E+01 0.00000E+00
 -1      1067 3.85350E+01 1.95942E+01 0.00000E+00
 -1      1068 2.11078E+01 2.15154E+01 0.00000E+00
 -1      1069 3.46500E+01 2.66180E+01 0.00000E+00
 -1      1070 3.76500E+01 2.66180E+01 0.00000E+00
 -1      1071 4.06500E+01 2.66180E+01 0.00000E+00
 -1      1072 4.36500E+01 2.66180E+01 0.00000E+00
 -1      1073 4.66500E+01 2.66180E+01 0.00000E+00
 -1      1074 4.96500E+01 2.66180E+01 0.00000E+00
 -1      1075 5.26500E+01 2.66180E+01 0.00000E+00
 -1      1076 5.56500E+01 2.66180E+01 0.00000E+00
 -1      1077 5.86500E+01 2.66180E+01 0.00000E+00
 -1      1078 6.16500E+01 2.66180E+01 0.00000E+00
 -1      1079 6.46500E+01 2.66180E+01 0.00000E+00
 -1      1080 6.76500E+01 2.66180E+01 0.00000E+00
 -1      1081 7.06500E+01 2.66180E+01 0.00000E+00
 -1      1082 7.36500E+01 2.66180E+01 0.00000E+00
 -1      1083 7.66500E+01 2.66180E+01 0.00000E+00
 -1      1084 7.96500E+01 2.66180E+01 0.00000E+00
 -1      1085 8.26500E+01 2.66180E+01 0.00000E+00
 -1      1086 8.56500E+01 2.66180E+01 0.00000E+00
 -1      1087 8.82008E+01 2.63259E+01 0.00000E+00
 -1      1088 2.86500E+01 2.66180E+01 0.00000E+00
 -1      1089 7.30350E+01 2.21922E+01 0.00000E+00
 -1      1090 4.75350E+01 1.95942E+01 0.00000E+00
 -1      1091 6.70350E+01 2.21922E+01 0.00000E+00
 -1      1092 6.40350E+01 2.21922E+01 0.00000E+00
 -1      1093 7.60350E+01 2.21922E+01 0.00000E+00
 -1      1094 7.90350E+01 2.21922E+01 0.00000E+00
 -1      1095 8.20350E+01 2.21922E+01 0.00000E+00
 -1      1096 8.50350E+01 2.21922E+01 0.00000E+00
 -1      1097 8.80350E+01 2.21922E+01 0.00000E+00
 -1      1098 7.00350E+01 2.21922E+01 0.00000E+00
 -1      1099 2.95350E+01 1.95942E+01 0.00000E+00
 -1      1100 2.09476E+01 2.77341E+01 0.00000E+00
 -1      1101 2.56500E+01 2.66180E+01 0.00000E+00
 -1      1102 5.50350E+01 2.21922E+01 0.00000E+00
 -1      1103 3.16500E+01 2.66180E+01 0.00000E+00
 -1      1104 6.10350E+01 2.21922E+01 0.00000E+00
 -1      1105 5.80350E+01 2.21922E+01 0.00000E+00
 -1      1106 5.20350E+01 2.21922E+01 0.00000E+00
 -1      1107 4.00350E+01 2.21922E+01 0.00000E+00
 -1      1108 8.81179E+01 2.42591E+01 0.00000E+00
 -1      1109 3.40350E+01 2.21922E+01 0.00000E+00
 -1      1110 4.30350E+01 2.21922E+01 0.00000E+00
 -1      1111 2.65350E+01 1.95943E+01 0.00000E+00
 -1      1112 3.70350E+01 2.21922E+01 0.00000E+00
 -1      1113 2.32988E+01 2.71760E+01 0.00000E+00
 -1      1114 2.34226E+01 2.30767E+01 0.00000E+00
 -1      1115 2.40430E+01 1.95563E+01 0.00000E+00
 -1      1116 3.10350E+01 2.21922E+01 0.00000E+00
 -1      1117 4.81500E+01 2.40200E+01 0.00000E+00
 -1      1118 2.37328E+01 2.13165E+01 0.00000E+00
 -1      1119 2.72288E+01 2.26345E+01 0.00000E+00
 -1      1120 4.55925E+01 2.31061E+01 0.00000E+00
 -1      1121 0.00000E+00 4.85250E+01 0.00000E+00
 -1      1122 0.00000E+00 4.55750E+01 0.00000E+00
 -1      1123 0.00000E+00 4.26250E+01 0.00000E+00
 -1      1124 0.00000E+00 3.96750E+01 0.00000E+00
 -1      1125 0.00000E+00 3.67250E+01 0.00000E+00
 -1      1126 0.00000E+00 3.38000E+01 0.00000E+00
 -1      1127 0.00000E+00 3.08750E+01 0.00000E+00
 -1      1128 0.00000E+00 2.79250E+01 0.00000E+00
 -1      1129 0.00000E+00 2.49750E+01 0.00000E+00
 -1      1130 0.00000E+00 2.20250E+01 0.00000E+00
 -1      1131 0.00000E+00 1.90750E+01 0.00000E+00
 -1      1132 0.00000E+00 1.61500E+01 0.00000E+00
 -1      1133 0.00000E+00 1.32250E+01 0.00000E+00
 -1      1134 0.00000E+00 1.02750E+01 0.00000E+00
 -1      1135 0.00000E+00 7.32500E+00 0.00000E+00
 -1      1136 0.00000E+00 4.37500E+00 0.00000E+00
 -1      1137 0.00000E+00 1.45000E+00 0.00000E+00
 -1      1138 1.57500E+00 5.00000E+01 0.00000E+00
 -1      1139 4.65000E+00 5.00000E+01 0.00000E+00
 -1      1140 7.65000E+00 5.00000E+01 0.00000E+00
 -1      1141 1.06500E+01 5.00000E+01 0.00000E+00
 -1      1142 1.36500E+01 5.00000E+01 0.00000E+00
 -1      1143 1.66500E+01 5.00000E+01 0.00000E+00
 -1      1144 1.96500E+01 5.00000E+01 0.00000E+00
 -1      1145 2.26500E+01 5.00000E+01 0.00000E+00
 -1      1146 2.56500E+01 5.00000E+01 0.00000E+00
 -1      1147 2.86500E+01 5.00000E+01 0.00000E+00
 -1      1148 3.16500E+01 5.00000E+01 0.00000E+00
 -1      1149 3.46500E+01 5.00000E+01 0.00000E+00
 -1      1150 3.76500E+01 5.00000E+01 0.00000E+00
 -1      1151 4.06500E+01 5.00000E+01 0.00000E+00
 -1      1152 4.36500E+01 5.00000E+01 0.00000E+00
 -1      1153 4.66500E+01 5.00000E+01 0.00000E+00
 -1      1154 4.96500E+01 5.00000E+01 0.00000E+00
 -1      1155 5.26500E+01 5.00000E+01 0.00000E+00
 -1      1156 5.56500E+01 5.00000E+01 0.00000E+00
 -1      1157 5.86500E+01 5.00000E+01 0.00000E+00
 -1      1158 6.16500E+01 5.00000E+01 0.00000E+00
 -1      1159 6.46500E+01 5.00000E+01 0.00000E+00
 -1      1160 6.76500E+01 5.00000E+01 0.00000E+00
 -1      1161 7.06500E+01 5.00000E+01 0.00000E+00
 -1      1162 7.36500E+01 5.00000E+01 0.00000E+00
 -1      1163 7.66500E+01 5.00000E+01 0.00000E+00
 -1      1164 7.96500E+01 5.00000E+01 0.00000E+00
 -1      1165 8.26500E+01 5.00000E+01 0.00000E+00
 -1      1166 8.56500E+01 5.00000E+01 0.00000E+00
 -1      1167 8.86500E+01 5.00000E+01 0.00000E+00
 -1      1168 9.16500E+01 5.00000E+01 0.00000E+00
 -1      1169 9.46500E+01 5.00000E+01 0.00000E+00
 -1      1170 9.76500E+01 5.00000E+01 0.00000E+00
 -1      1171 1.00650E+02 5.00000E+01 0.00000E+00
 -1      1172 1.03650E+02 5.00000E+01 0.00000E+00
 -1      1173 1.06650E+02 5.00000E+01 0.00000E+00
 -1      1174 1.09650E+02 5.00000E+01 0.00000E+00
 -1      1175 1.12650E+02 5.00000E+01 0.00000E+00
 -1      1176 1.15650E+02 5.00000E+01 0.00000E+00
 -1      1177 1.18650E+02 5.00000E+01 0.00000E+00
 -1      1178 1.21650E+02 5.00000E+01 0.00000E+00
 -1      1179 1.24650E+02 5.00000E+01 0.00000E+00
 -1      1180 1.27650E+02 5.00000E+01 0.00000E+00
 -1      1181 1.30650E+02 5.00000E+01 0.00000E+00
 -1      1182 1.33650E+02 5.00000E+01 0.00000E+00
 -1      1183 1.36650E+02 5.00000E+01 0.00000E+00
 -1      1184 1.39650E+02 5.00000E+01 0.00000E+00
 -1      1185 1.42650E+02 5.00000E+01 0.00000E+00
 -1      1186 1.45650E+02 5.00000E+01 0.00000E+00
 -1      1187 1.48575E+02 5.00000E+01 0.00000E+00
 -1      1188 1.57500E+00 0.00000E+00 0.00000E+00
 -1      1189 4.65000E+00 0.00000E+00 0.00000E+00
 -1      1190 7.65000E+00 0.00000E+00 0.00000E+00
 -1      1191 1.06500E+01 0.00000E+00 0.00000E+00
 -1      1192 1.36500E+01 0.00000E+00 0.00000E+00
 -1      1193 1.66500E+01 0.00000E+00 0.00000E+00
 -1      1194 1.96500E+01 0.00000E+00 0.00000E+00
 -1      1195 2.26500E+01 0.00000E+00 0.00000E+00
 -1      1196 2.56500E+01 0.00000E+00 0.00000E+00
 -1      1197 2.86500E+01 0.00000E+00 0.00000E+00
 -1      1198 3.16500E+01 0.00000E+00 0.00000E+00
 -1      1199 3.46500E+01 0.00000E+00 0.00000E+00
 -1      1200 3.76500E+01 0.00000E+00 0.00000E+00
 -1      1201 4.06500E+01 0.00000E+00 0.00000E+00
 -1      1202 4.36500E+01 0.00000E+00 0.00000E+00
 -1      1203 4.66500E+01 0.00000E+00 0.00000E+00
 -1      1204 4.96500E+01 0.00000E+00 0.00000E+00
 -1      1205 5.26500E+01 0.00000E+00 0.00000E+00
 -1      1206 5.56500E+01 0.00000E+00 0.00000E+00
 -1      1207 5.86500E+01 0.00000E+00 0.00000E+00
 -1      1208 6.16500E+01 0.00000E+00 0.00000E+00
 -1      1209 6.46500E+01 0.00000E+00 0.00000E+00
 -1      1210 6.76500E+01 0.00000E+00 0.00000E+00
 -1      1211 7.06500E+01 0.00000E+00 0.00000E+00
 -1      1212 7.36500E+01 0.00000E+00 0.00000E+00
 -1      1213 7.66500E+01 0.00000E+00 0.00000E+00
 -1      1214 7.96500E+01 0.00000E+00 0.00000E+00
 -1      1215 8.26500E+01 0.00000E+00 0.00000E+00
 -1      1216 8.56500E+01 0.00000E+00 0.00000E+00
 -1      1217 8.86500E+01 0.00000E+00 0.00000E+00
 -1      1218 9.16500E+01 0.00000E+00 0.00000E+00
 -1      1219 9.46500E+01 0.00000E+00 0.00000E+00
 -1      1220 9.76500E+01 0.00000E+00 0.00000E+00
 -1      1221 1.00650E+02 0.00000E+00 0.00000E+00
 -1      1222 1.03650E+02 0.00000E+00 0.00000E+00
 -1      1223 1.06650E+02 0.00000E+00 0.00000E+00
 -1      1224 1.09650E+02 0.00000E+00 0.00000E+00
 -1      1225 1.12650E+02 0.00000E+00 0.00000E+00
 -1      1226 1.15650E+02 0.00000E+00 0.00000E+00
 -1      1227 1.18650E+02 0.00000E+00 0.00000E+00
 -1      1228 1.21650E+02 0.00000E+00 0.00000E+00
 -1      1229 1.24650E+02 0.00000E+00 0.00000E+00
 -1      1230 1.27650E+02 0.00000E+00 0.00000E+00
 -1      1231 1.30650E+02 0.00000E+00 0.00000E+00
 -1      1232 1.33650E+02 0.00000E+00 0.00000E+00
 -1      1233 1.36650E+02 0.00000E+00 0.00000E+00
 -1      1234 1.39650E+02 0.00000E+00 0.00000E+00
 -1      1235 1.42650E+02 0.00000E+00 0.00000E+00
 -1      1236 1.45650E+02 0.00000E+00 0.00000E+00
 -1      1237 1.48575E+02 0.00000E+00 0.00000E+00
 -1      1238 1.50000E+02 1.47500E+00 0.00000E+00
 -1      1239 1.50000E+02 4.42500E+00 0.00000E+00
 -1      1240 1.50000E+02 7.37500E+00 0.00000E+00
 -1      1241 1.50000E+02 1.03250E+01 0.00000E+00
 -1      1242 1.50000E+02 1.32750E+01 0.00000E+00
 -1      1243 1.50000E+02 1.62000E+01 0.00000E+00
 -1      1244 1.50000E+02 1.91250E+01 0.00000E+00
 -1      1245 1.50000E+02 2.20750E+01 0.00000E+00
 -1      1246 1.50000E+02 2.50250E+01 0.00000E+00
 -1      1247 1.50000E+02 2.79750E+01 0.00000E+00
 -1      1248 1.50000E+02 3.09250E+01 0.00000E+00
 -1      1249 1.50000E+02 3.38500E+01 0.00000E+00
 -1      1250 1.50000E+02 3.67750E+01 0.00000E+00
 -1      1251 1.50000E+02 3.97250E+01 0.00000E+00
 -1      1252 1.50000E+02 4.26750E+01 0.00000E+00
 -1      1253 1.50000E+02 4.56250E+01 0.00000E+00
 -1      1254 1.50000E+02 4.85500E+01 0.00000E+00
 -1      1255 1.18117E+02 2.31889E+01 0.00000E+00
 -1      1256 1.17802E+02 2.17245E+01 0.00000E+00
 -1      1257 1.17196E+02 2.03849E+01 0.00000E+00
 -1      1258 1.16358E+02 1.92383E+01 0.00000E+00
 -1      1259 1.15225E+02 1.82268E+01 0.00000E+00
 -1      1260 1.13849E+02 1.74611E+01 0.00000E+00
 -1      1261 1.12405E+02 1.70346E+01 0.00000E+00
 -1      1262 1.10930E+02 1.69260E+01 0.00000E+00
 -1      1263 1.09381E+02 1.71510E+01 0.00000E+00
 -1      1264 1.07931E+02 1.77092E+01 0.00000E+00
 -1      1265 1.06681E+02 1.85389E+01 0.00000E+00
 -1      1266 1.05629E+02 1.96265E+01 0.00000E+00
 -1      1267 1.04854E+02 2.08755E+01 0.00000E+00
 -1      1268 1.04361E+02 2.22400E+01 0.00000E+00
 -1      1269 1.04159E+02 2.37140E+01 0.00000E+00
 -1      1270 1.04275E+02 2.52074E+01 0.00000E+00
 -1      1271 1.04706E+02 2.66420E+01 0.00000E+00
 -1      1272 1.05441E+02 2.79648E+01 0.00000E+00
 -1      1273 1.06504E+02 2.91535E+01 0.00000E+00
 -1      1274 1.07822E+02 3.00773E+01 0.00000E+00
 -1      1275 1.09293E+02 3.06700E+01 0.00000E+00
 -1      1276 1.10839E+02 3.09151E+01 0.00000E+00
 -1      1277 1.12324E+02 3.08241E+01 0.00000E+00
 -1      1278 1.13803E+02 3.04025E+01 0.00000E+00
 -1      1279 1.15152E+02 2.96697E+01 0.00000E+00
 -1      1280 1.16281E+02 2.86900E+01 0.00000E+00
 -1      1281 1.17182E+02 2.74838E+01 0.00000E+00
 -1      1282 1.17800E+02 2.61264E+01 0.00000E+00
 -1      1283 1.18116E+02 2.46705E+01 0.00000E+00
 -1      1284 1.57500E+00 4.85250E+01 0.00000E+00
 -1      1285 1.29900E+00 4.48375E+01 0.00000E+00
 -1      1286 1.29900E+00 4.63125E+01 0.00000E+00
 -1      1287 1.29900E+00 4.18875E+01 0.00000E+00
 -1      1288 1.29900E+00 4.33625E+01 0.00000E+00
 -1      1289 2.59800E+00 4.41000E+01 0.00000E+00
 -1      1290 1.29900E+00 3.89375E+01 0.00000E+00
 -1      1291 1.29900E+00 4.04125E+01 0.00000E+00
 -1      1292 2.59800E+00 4.11500E+01 0.00000E+00
 -1      1293 1.29900E+00 3.59875E+01 0.00000E+00
 -1      1294 1.29900E+00 3.74625E+01 0.00000E+00
 -1      1295 2.59800E+00 3.82000E+01 0.00000E+00
 -1      1296 1.29900E+00 3.30875E+01 0.00000E+00
 -1      1297 1.29900E+00 3.45375E+01 0.00000E+00
 -1      1298 2.59800E+00 3.52750E+01 0.00000E+00
 -1      1299 1.29900E+00 3.01375E+01 0.00000E+00
 -1      1300 1.29900E+00 3.16125E+01 0.00000E+00
 -1      1301 2.59800E+00 3.23500E+01 0.00000E+00
 -1      1302 1.29900E+00 2.71875E+01 0.00000E+00
 -1      1303 1.29900E+00 2.86625E+01 0.00000E+00
 -1      1304 2.59800E+00 2.94000E+01 0.00000E+00
 -1      1305 1.29900E+00 2.42375E+01 0.00000E+00
 -1      1306 1.29900E+00 2.57125E+01 0.00000E+00
 -1      1307 2.59800E+00 2.64500E+01 0.00000E+00
 -1      1308 1.29900E+00 2.12875E+01 0.00000E+00
 -1      1309 1.29900E+00 2.27625E+01 0.00000E+00
 -1      1310 2.59800E+00 2.35000E+01 0.00000E+00
 -1      1311 1.29900E+00 1.83375E+01 0.00000E+00
 -1      1312 1.29900E+00 1.98125E+01 0.00000E+00
 -1      1313 2.59800E+00 2.05500E+01 0.00000E+00
 -1      1314 1.29900E+00 1.54375E+01 0.00000E+00
 -1      1315 1.29900E+00 1.68875E+01 0.00000E+00
 -1      1316 2.59800E+00 1.76250E+01 0.00000E+00
 -1      1317 1.29900E+00 1.24875E+01 0.00000E+00
 -1      1318 1.29900E+00 1.39625E+01 0.00000E+00
 -1      1319 2.59800E+00 1.47000E+01 0.00000E+00
 -1      1320 1.29900E+00 9.53750E+00 0.00000E+00
 -1      1321 1.29900E+00 1.10125E+01 0.00000E+00
 -1      1322 2.59800E+00 1.17500E+01 0.00000E+00
 -1      1323 1.29900E+00 6.58750E+00 0.00000E+00
 -1      1324 1.29900E+00 8.06250E+00 0.00000E+00
 -1      1325 2.59800E+00 8.80000E+00 0.00000E+00
 -1      1326 1.29900E+00 3.63750E+00 0.00000E+00
 -1      1327 1.29900E+00 5.11250E+00 0.00000E+00
 -1      1328 2.59800E+00 5.85000E+00 0.00000E+00
 -1      1329 1.43700E+00 1.09375E+00 0.00000E+00
 -1      1330 1.43700E+00 2.54375E+00 0.00000E+00
 -1      1331 2.73600E+00 3.28125E+00 0.00000E+00
 -1      1332 3.01200E+00 1.09375E+00 0.00000E+00
 -1      1333 3.90000E+00 4.87010E+01 0.00000E+00
 -1      1334 5.40000E+00 4.87010E+01 0.00000E+00
 -1      1335 6.90000E+00 4.87010E+01 0.00000E+00
 -1      1336 8.40000E+00 4.87010E+01 0.00000E+00
 -1      1337 6.15000E+00 4.74020E+01 0.00000E+00
 -1      1338 9.90000E+00 4.87010E+01 0.00000E+00
 -1      1339 1.14000E+01 4.87010E+01 0.00000E+00
 -1      1340 9.15000E+00 4.74020E+01 0.00000E+00
 -1      1341 1.29000E+01 4.87010E+01 0.00000E+00
 -1      1342 1.44000E+01 4.87010E+01 0.00000E+00
 -1      1343 1.21500E+01 4.74020E+01 0.00000E+00
 -1      1344 1.59000E+01 4.87010E+01 0.00000E+00
 -1      1345 1.74000E+01 4.87010E+01 0.00000E+00
 -1      1346 1.51500E+01 4.74020E+01 0.00000E+00
 -1      1347 1.89000E+01 4.87010E+01 0.00000E+00
 -1      1348 2.04000E+01 4.87010E+01 0.00000E+00
 -1      1349 1.81500E+01 4.74020E+01 0.00000E+00
 -1      1350 2.19000E+01 4.87010E+01 0.00000E+00
 -1      1351 2.34000E+01 4.87010E+01 0.00000E+00
 -1      1352 2.11500E+01 4.74020E+01 0.00000E+00
 -1      1353 2.49000E+01 4.87010E+01 0.00000E+00
 -1      1354 2.64000E+01 4.87010E+01 0.00000E+00
 -1      1355 2.41500E+01 4.74020E+01 0.00000E+00
 -1      1356 2.79000E+01 4.87010E+01 0.00000E+00
 -1      1357 2.94000E+01 4.87010E+01 0.00000E+00
 -1      1358 2.71500E+01 4.74020E+01 0.00000E+00
 -1      1359 3.09000E+01 4.87010E+01 0.00000E+00
 -1      1360 3.24000E+01 4.87010E+01 0.00000E+00
 -1      1361 3.01500E+01 4.74020E+01 0.00000E+00
 -1      1362 3.39000E+01 4.87010E+01 0.00000E+00
 -1      1363 3.54000E+01 4.87010E+01 0.00000E+00
 -1      1364 3.31500E+01 4.74020E+01 0.00000E+00
 -1      1365 3.69000E+01 4.87010E+01 0.00000E+00
 -1      1366 3.84000E+01 4.87010E+01 0.00000E+00
 -1      1367 3.61500E+01 4.74020E+01 0.00000E+00
 -1      1368 3.99000E+01 4.87010E+01 0.00000E+00
 -1      1369 4.14000E+01 4.87010E+01 0.00000E+00
 -1      1370 3.91500E+01 4.74020E+01 0.00000E+00
 -1      1371 4.29000E+01 4.87010E+01 0.00000E+00
 -1      1372 4.44000E+01 4.87010E+01 0.00000E+00
 -1      1373 4.21500E+01 4.74020E+01 0.00000E+00
 -1      1374 4.59000E+01 4.87010E+01 0.00000E+00
 -1      1375 4.74000E+01 4.87010E+01 0.00000E+00
 -1      1376 4.51500E+01 4.74020E+01 0.00000E+00
 -1      1377 4.89000E+01 4.87010E+01 0.00000E+00
 -1      1378 5.04000E+01 4.87010E+01 0.00000E+00
 -1      1379 4.81500E+01 4.74020E+01 0.00000E+00
 -1      1380 5.19000E+01 4.87010E+01 0.00000E+00
 -1      1381 5.34000E+01 4.87010E+01 0.00000E+00
 -1      1382 5.11500E+01 4.74020E+01 0.00000E+00
 -1      1383 5.49000E+01 4.87010E+01 0.00000E+00
 -1      1384 5.64000E+01 4.87010E+01 0.00000E+00
 -1      1385 5.41500E+01 4.74020E+01 0.00000E+00
 -1      1386 5.79000E+01 4.87010E+01 0.00000E+00
 -1      1387 5.94000E+01 4.87010E+01 0.00000E+00
 -1      1388 5.71500E+01 4.74020E+01 0.00000E+00
 -1      1389 6.09000E+01 4.87010E+01 0.00000E+00
 -1      1390 6.24000E+01 4.87010E+01 0.00000E+00
 -1      1391 6.01500E+01 4.74020E+01 0.00000E+00
 -1      1392 6.39000E+01 4.87010E+01 0.00000E+00
 -1      1393 6.54000E+01 4.87010E+01 0.00000E+00
 -1      1394 6.31500E+01 4.74020E+01 0.00000E+00
 -1      1395 6.69000E+01 4.87010E+01 0.00000E+00
 -1      1396 6.84000E+01 4.87010E+01 0.00000E+00
 -1      1397 6.61500E+01 4.74020E+01 0.00000E+00
 -1      1398 6.99000E+01 4.87010E+01 0.00000E+00
 -1      1399 7.14000E+01 4.87010E+01 0.00000E+00
 -1      1400 6.91500E+01 4.74020E+01 0.00000E+00
 -1      1401 7.29000E+01 4.87010E+01 0.00000E+00
 -1      1402 7.44000E+01 4.87010E+01 0.00000E+00
 -1      1403 7.21500E+01 4.74020E+01 0.00000E+00
 -1      1404 7.59000E+01 4.87010E+01 0.00000E+00
 -1      1405 7.74000E+01 4.87010E+01 0.00000E+00
 -1      1406 7.51500E+01 4.74020E+01 0.00000E+00
 -1      1407 7.89000E+01 4.87010E+01 0.00000E+00
 -1      1408 8.04000E+01 4.87010E+01 0.00000E+00
 -1      1409 7.81500E+01 4.74020E+01 0.00000E+00
 -1      1410 8.19000E+01 4.87010E+01 0.00000E+00
 -1      1411 8.34000E+01 4.87010E+01 0.00000E+00
 -1      1412 8.11500E+01 4.74020E+01 0.00000E+00
 -1      1413 8.49000E+01 4.87010E+01 0.00000E+00
 -1      1414 8.64000E+01 4.87010E+01 0.00000E+00
 -1      1415 8.41500E+01 4.74020E+01 0.00000E+00
 -1      1416 8.79000E+01 4.87010E+01 0.00000E+00
 -1      1417 8.94000E+01 4.87010E+01 0.00000E+00
 -1      1418 8.71500E+01 4.74020E+01 0.00000E+00
 -1      1419 9.09000E+01 4.87010E+01 0.00000E+00
 -1      1420 9.24000E+01 4.87010E+01 0.00000E+00
 -1      1421 9.01500E+01 4.74020E+01 0.00000E+00
 -1      1422 9.39000E+01 4.87010E+01 0.00000E+00
 -1      1423 9.54000E+01 4.87010E+01 0.00000E+00
 -1      1424 9.31500E+01 4.74020E+01 0.00000E+00
 -1      1425 9.69000E+01 4.87010E+01 0.00000E+00
 -1      1426 9.84000E+01 4.87010E+01 0.00000E+00
 -1      1427 9.61500E+01 4.74020E+01 0.00000E+00
 -1      1428 9.99000E+01 4.87010E+01 0.00000E+00
 -1      1429 1.01400E+02 4.87010E+01 0.00000E+00
 -1      1430 9.91500E+01 4.74020E+01 0.00000E+00
 -1      1431 1.02900E+02 4.87010E+01 0.00000E+00
 -1      1432 1.04400E+02 4.87010E+01 0.00000E+00
 -1      1433 1.02150E+02 4.74020E+01 0.00000E+00
 -1      1434 1.05900E+02 4.87010E+01 0.00000E+00
 -1      1435 1.07400E+02 4.87010E+01 0.00000E+00
 -1      1436 1.05150E+02 4.74020E+01 0.00000E+00
 -1      1437 1.08900E+02 4.87010E+01 0.00000E+00
 -1      1438 1.10400E+02 4.87010E+01 0.00000E+00
 -1      1439 1.08150E+02 4.74020E+01 0.00000E+00
 -1      1440 1.11900E+02 4.87010E+01 0.00000E+00
 -1      1441 1.13400E+02 4.87010E+01 0.00000E+00
 -1      1442 1.11150E+02 4.74020E+01 0.00000E+00
 -1      1443 1.14900E+02 4.87010E+01 0.00000E+00
 -1      1444 1.16400E+02 4.87010E+01 0.00000E+00
 -1      1445 1.14150E+02 4.74020E+01 0.00000E+00
 -1      1446 1.17900E+02 4.87010E+01 0.00000E+00
 -1      1447 1.19400E+02 4.87010E+01 0.00000E+00
 -1      1448 1.17150E+02 4.74020E+01 0.00000E+00
 -1      1449 1.20900E+02 4.87010E+01 0.00000E+00
 -1      1450 1.22400E+02 4.87010E+01 0.00000E+00
 -1      1451 1.20150E+02 4.74020E+01 0.00000E+00
 -1      1452 1.23900E+02 4.87010E+01 0.00000E+00
 -1      1453 1.25400E+02 4.87010E+01 0.00000E+00
 -1      1454 1.23150E+02 4.74020E+01 0.00000E+00
 -1      1455 1.26900E+02 4.87010E+01 0.00000E+00
 -1      1456 1.28400E+02 4.87010E+01 0.00000E+00
 -1      1457 1.26150E+02 4.74020E+01 0.00000E+00
 -1      1458 1.29900E+02 4.87010E+01 0.00000E+00
 -1      1459 1.31400E+02 4.87010E+01 0.00000E+00
 -1      1460 1.29150E+02 4.74020E+01 0.00000E+00
 -1      1461 1.32900E+02 4.87010E+01 0.00000E+00
 -1      1462 1.34400E+02 4.87010E+01 0.00000E+00
 -1      1463 1.32150E+02 4.74020E+01 0.00000E+00
 -1      1464 1.35900E+02 4.87010E+01 0.00000E+00
 -1      1465 1.37400E+02 4.87010E+01 0.00000E+00
 -1      1466 1.35150E+02 4.74020E+01 0.00000E+00
 -1      1467 1.38900E+02 4.87010E+01 0.00000E+00
 -1      1468 1.40400E+02 4.87010E+01 0.00000E+00
 -1      1469 1.38150E+02 4.74020E+01 0.00000E+00
 -1      1470 1.41900E+02 4.87010E+01 0.00000E+00
 -1      1471 1.43400E+02 4.87010E+01 0.00000E+00
 -1      1472 1.41150E+02 4.74020E+01 0.00000E+00
 -1      1473 1.44900E+02 4.87010E+01 0.00000E+00
 -1      1474 1.46400E+02 4.87010E+01 0.00000E+00
 -1      1475 1.44150E+02 4.74020E+01 0.00000E+00
 -1      1476 1.48575E+02 4.85500E+01 0.00000E+00
 -1      1477 1.47825E+02 4.72510E+01 0.00000E+00
 -1      1478 6.01200E+00 1.09375E+00 0.00000E+00
 -1      1479 4.51200E+00 1.09375E+00 0.00000E+00
 -1      1480 4.37400E+00 2.18750E+00 0.00000E+00
 -1      1481 9.01200E+00 1.09375E+00 0.00000E+00
 -1      1482 7.51200E+00 1.09375E+00 0.00000E+00
 -1      1483 7.37400E+00 2.18750E+00 0.00000E+00
 -1      1484 1.20120E+01 1.09375E+00 0.00000E+00
 -1      1485 1.05120E+01 1.09375E+00 0.00000E+00
 -1      1486 1.03740E+01 2.18750E+00 0.00000E+00
 -1      1487 1.50120E+01 1.09375E+00 0.00000E+00
 -1      1488 1.35120E+01 1.09375E+00 0.00000E+00
 -1      1489 1.33740E+01 2.18750E+00 0.00000E+00
 -1      1490 1.80120E+01 1.09375E+00 0.00000E+00
 -1      1491 1.65120E+01 1.09375E+00 0.00000E+00
 -1      1492 1.63740E+01 2.18750E+00 0.00000E+00
 -1      1493 2.10120E+01 1.09375E+00 0.00000E+00
 -1      1494 1.95120E+01 1.09375E+00 0.00000E+00
 -1      1495 1.93740E+01 2.18750E+00 0.00000E+00
 -1      1496 2.40120E+01 1.09375E+00 0.00000E+00
 -1      1497 2.25120E+01 1.09375E+00 0.00000E+00
 -1      1498 2.23740E+01 2.18750E+00 0.00000E+00
 -1      1499 2.70120E+01 1.09375E+00 0.00000E+00
 -1      1500 2.55120E+01 1.09375E+00 0.00000E+00
 -1      1501 2.53740E+01 2.18750E+00 0.00000E+00
 -1      1502 3.00120E+01 1.09375E+00 0.00000E+00
 -1      1503 2.85120E+01 1.09375E+00 0.00000E+00
 -1      1504 2.83740E+01 2.18750E+00 0.00000E+00
 -1      1505 3.30120E+01 1.09375E+00 0.00000E+00
 -1      1506 3.15120E+01 1.09375E+00 0.00000E+00
 -1      1507 3.13740E+01 2.18750E+00 0.00000E+00
 -1      1508 3.60120E+01 1.09375E+00 0.00000E+00
 -1      1509 3.45120E+01 1.09375E+00 0.00000E+00
 -1      1510 3.43740E+01 2.18750E+00 0.00000E+00
 -1      1511 3.90120E+01 1.09375E+00 0.00000E+00
 -1      1512 3.75120E+01 1.09375E+00 0.00000E+00
 -1      1513 3.73740E+01 2.18750E+00 0.00000E+00
 -1      1514 4.20120E+01 1.09375E+00 0.00000E+00
 -1      1515 4.05120E+01 1.09375E+00 0.00000E+00
 -1      1516 4.03740E+01 2.18750E+00 0.00000E+00
 -1      1517 4.50120E+01 1.09375E+00 0.00000E+00
 -1      1518 4.35120E+01 1.09375E+00 0.00000E+00
 -1      1519 4.33740E+01 2.18750E+00 0.00000E+00
 -1      1520 4.80120E+01 1.09375E+00 0.00000E+00
 -1      1521 4.65120E+01 1.09375E+00 0.00000E+00
 -1      1522 4.63740E+01 2.18750E+00 0.00000E+00
 -1      1523 5.10120E+01 1.09375E+00 0.00000E+00
 -1      1524 4.95120E+01 1.09375E+00 0.00000E+00
 -1      1525 4.93740E+01 2.18750E+00 0.00000E+00
 -1      1526 5.40120E+01 1.09375E+00 0.00000E+00
 -1      1527 5.25120E+01 1.09375E+00 0.00000E+00
 -1      1528 5.23740E+01 2.18750E+00 0.00000E+00
 -1      1529 5.70120E+01 1.09375E+00 0.00000E+00
 -1      1530 5.55120E+01 1.09375E+00 0.00000E+00
 -1      1531 5.53740E+01 2.18750E+00 0.00000E+00
 -1      1532 6.00120E+01 1.09375E+00 0.00000E+00
 -1      1533 5.85120E+01 1.09375E+00 0.00000E+00
 -1      1534 5.83740E+01 2.18750E+00 0.00000E+00
 -1      1535 6.30120E+01 1.09375E+00 0.00000E+00
 -1      1536 6.15120E+01 1.09375E+00 0.00000E+00
 -1      1537 6.13740E+01 2.18750E+00 0.00000E+00
 -1      1538 6.60120E+01 1.09375E+00 0.00000E+00
 -1      1539 6.45120E+01 1.09375E+00 0.00000E+00
 -1      1540 6.43740E+01 2.18750E+00 0.00000E+00
 -1      1541 6.90120E+01 1.09375E+00 0.00000E+00
 -1      1542 6.75120E+01 1.09375E+00 0.00000E+00
 -1      1543 6.73740E+01 2.18750E+00 0.00000E+00
 -1      1544 7.20120E+01 1.09375E+00 0.00000E+00
 -1      1545 7.05120E+01 1.09375E+00 0.00000E+00
 -1      1546 7.03740E+01 2.18750E+00 0.00000E+00
 -1      1547 7.50120E+01 1.09375E+00 0.00000E+00
 -1      1548 7.35120E+01 1.09375E+00 0.00000E+00
 -1      1549 7.33740E+01 2.18750E+00 0.00000E+00
 -1      1550 7.80120E+01 1.09375E+00 0.00000E+00
 -1      1551 7.65120E+01 1.09375E+00 0.00000E+00
 -1      1552 7.63740E+01 2.18750E+00 0.00000E+00
 -1      1553 8.10120E+01 1.09375E+00 0.00000E+00
 -1      1554 7.95120E+01 1.09375E+00 0.00000E+00
 -1      1555 7.93740E+01 2.18750E+00 0.00000E+00
 -1      1556 8.40120E+01 1.09375E+00 0.00000E+00
 -1      1557 8.25120E+01 1.09375E+00 0.00000E+00
 -1      1558 8.23740E+01 2.18750E+00 0.00000E+00
 -1      1559 8.70120E+01 1.09375E+00 0.00000E+00
 -1      1560 8.55120E+01 1.09375E+00 0.00000E+00
 -1      1561 8.53740E+01 2.18750E+00 0.00000E+00
 -1      1562 9.00120E+01 1.09375E+00 0.00000E+00
 -1      1563 8.85120E+01 1.09375E+00 0.00000E+00
 -1      1564 8.83740E+01 2.18750E+00 0.00000E+00
 -1      1565 9.30120E+01 1.09375E+00 0.00000E+00
 -1      1566 9.15120E+01 1.09375E+00 0.00000E+00
 -1      1567 9.13740E+01 2.18750E+00 0.00000E+00
 -1      1568 9.60120E+01 1.09375E+00 0.00000E+00
 -1      1569 9.45120E+01 1.09375E+00 0.00000E+00
 -1      1570 9.43740E+01 2.18750E+00 0.00000E+00
 -1      1571 9.90120E+01 1.09375E+00 0.00000E+00
 -1      1572 9.75120E+01 1.09375E+00 0.00000E+00
 -1      1573 9.73740E+01 2.18750E+00 0.00000E+00
 -1      1574 1.02012E+02 1.09375E+00 0.00000E+00
 -1      1575 1.00512E+02 1.09375E+00 0.00000E+00
 -1      1576 1.00374E+02 2.18750E+00 0.00000E+00
 -1      1577 1.05012E+02 1.09375E+00 0.00000E+00
 -1      1578 1.03512E+02 1.09375E+00 0.00000E+00
 -1      1579 1.03374E+02 2.18750E+00 0.00000E+00
 -1      1580 1.08012E+02 1.09375E+00 0.00000E+00
 -1      1581 1.06512E+02 1.09375E+00 0.00000E+00
 -1      1582 1.06374E+02 2.18750E+00 0.00000E+00
 -1      1583 1.11012E+02 1.09375E+00 0.00000E+00
 -1      1584 1.09512E+02 1.09375E+00 0.00000E+00
 -1      1585 1.09374E+02 2.18750E+00 0.00000E+00
 -1      1586 1.14012E+02 1.09375E+00 0.00000E+00
 -1      1587 1.12512E+02 1.09375E+00 0.00000E+00
 -1      1588 1.12374E+02 2.18750E+00 0.00000E+00
 -1      1589 1.17012E+02 1.09375E+00 0.00000E+00
 -1      1590 1.15512E+02 1.09375E+00 0.00000E+00
 -1      1591 1.15374E+02 2.18750E+00 0.00000E+00
 -1      1592 1.20012E+02 1.09375E+00 0.00000E+00
 -1      1593 1.18512E+02 1.09375E+00 0.00000E+00
 -1      1594 1.18374E+02 2.18750E+00 0.00000E+00
 -1      1595 1.23012E+02 1.09375E+00 0.00000E+00
 -1      1596 1.21512E+02 1.09375E+00 0.00000E+00
 -1      1597 1.21374E+02 2.18750E+00 0.00000E+00
 -1      1598 1.26012E+02 1.09375E+00 0.00000E+00
 -1      1599 1.24512E+02 1.09375E+00 0.00000E+00
 -1      1600 1.24374E+02 2.18750E+00 0.00000E+00
 -1      1601 1.29012E+02 1.09375E+00 0.00000E+00
 -1      1602 1.27512E+02 1.09375E+00 0.00000E+00
 -1      1603 1.27374E+02 2.18750E+00 0.00000E+00
 -1      1604 1.32012E+02 1.09375E+00 0.00000E+00
 -1      1605 1.30512E+02 1.09375E+00 0.00000E+00
 -1      1606 1.30374E+02 2.18750E+00 0.00000E+00
 -1      1607 1.35012E+02 1.09375E+00 0.00000E+00
 -1      1608 1.33512E+02 1.09375E+00 0.00000E+00
 -1      1609 1.33374E+02 2.18750E+00 0.00000E+00
 -1      1610 1.38012E+02 1.09375E+00 0.00000E+00
 -1      1611 1.36512E+02 1.09375E+00 0.00000E+00
 -1      1612 1.36374E+02 2.18750E+00 0.00000E+00
 -1      1613 1.41012E+02 1.09375E+00 0.00000E+00
 -1      1614 1.39512E+02 1.09375E+00 0.00000E+00
 -1      1615 1.39374E+02 2.18750E+00 0.00000E+00
 -1      1616 1.44012E+02 1.09375E+00 0.00000E+00
 -1      1617 1.42512E+02 1.09375E+00 0.00000E+00
 -1      1618 1.42374E+02 2.18750E+00 0.00000E+00
 -1      1619 1.47012E+02 1.09375E+00 0.00000E+00
 -1      1620 1.45512E+02 1.09375E+00 0.00000E+00
 -1      1621 1.45374E+02 2.18750E+00 0.00000E+00
 -1      1622 1.48575E+02 1.47500E+00 0.00000E+00
 -1      1623 1.48701E+02 5.16250E+00 0.00000E+00
 -1      1624 1.48701E+02 3.68750E+00 0.00000E+00
 -1      1625 1.48701E+02 8.11250E+00 0.00000E+00
 -1      1626 1.48701E+02 6.63750E+00 0.00000E+00
 -1      1627 1.47402E+02 5.90000E+00 0.00000E+00
 -1      1628 1.48701E+02 1.10625E+01 0.00000E+00
 -1      1629 1.48701E+02 9.58750E+00 0.00000E+00
 -1      1630 1.47402E+02 8.85000E+00 0.00000E+00
 -1      1631 1.48701E+02 1.40125E+01 0.00000E+00
 -1      1632 1.48701E+02 1.25375E+01 0.00000E+00
 -1      1633 1.47402E+02 1.18000E+01 0.00000E+00
 -1      1634 1.48701E+02 1.69125E+01 0.00000E+00
 -1      1635 1.48701E+02 1.54625E+01 0.00000E+00
 -1      1636 1.47402E+02 1.47250E+01 0.00000E+00
 -1      1637 1.48701E+02 1.98625E+01 0.00000E+00
 -1      1638 1.48701E+02 1.83875E+01 0.00000E+00
 -1      1639 1.47402E+02 1.76500E+01 0.00000E+00
 -1      1640 1.48701E+02 2.28125E+01 0.00000E+00
 -1      1641 1.48701E+02 2.13375E+01 0.00000E+00
 -1      1642 1.47402E+02 2.06000E+01 0.00000E+00
 -1      1643 1.48701E+02 2.57625E+01 0.00000E+00
 -1      1644 1.48701E+02 2.42875E+01 0.00000E+00
 -1      1645 1.47402E+02 2.35500E+01 0.00000E+00
 -1      1646 1.48701E+02 2.87125E+01 0.00000E+00
 -1      1647 1.48701E+02 2.72375E+01 0.00000E+00
 -1      1648 1.47402E+02 2.65000E+01 0.00000E+00
 -1      1649 1.48701E+02 3.16625E+01 0.00000E+00
 -1      1650 1.48701E+02 3.01875E+01 0.00000E+00
 -1      1651 1.47402E+02 2.94500E+01 0.00000E+00
 -1      1652 1.48701E+02 3.45625E+01 0.00000E+00
 -1      1653 1.48701E+02 3.31125E+01 0.00000E+00
 -1      1654 1.47402E+02 3.23750E+01 0.00000E+00
 -1      1655 1.48701E+02 3.75125E+01 0.00000E+00
 -1      1656 1.48701E+02 3.60375E+01 0.00000E+00
 -1      1657 1.47402E+02 3.53000E+01 0.00000E+00
 -1      1658 1.48701E+02 4.04625E+01 0.00000E+00
 -1      1659 1.48701E+02 3.89875E+01 0.00000E+00
 -1      1660 1.47402E+02 3.82500E+01 0.00000E+00
 -1      1661 1.48701E+02 4.34125E+01 0.00000E+00
 -1      1662 1.48701E+02 4.19375E+01 0.00000E+00
 -1      1663 1.47402E+02 4.12000E+01 0.00000E+00
 -1      1664 1.48263E+02 4.60692E+01 0.00000E+00
 -1      1665 1.48263E+02 4.45942E+01 0.00000E+00
 -1      1666 1.46964E+02 4.38568E+01 0.00000E+00
 -1      1667 1.46088E+02 4.62202E+01 0.00000E+00
 -1      1668 1.18685E+02 2.27603E+01 0.00000E+00
 -1      1669 1.18762E+02 2.34897E+01 0.00000E+00
 -1      1670 1.18297E+02 2.11581E+01 0.00000E+00
 -1      1671 1.18537E+02 2.18840E+01 0.00000E+00
 -1      1672 1.17546E+02 1.97709E+01 0.00000E+00
 -1      1673 1.17903E+02 2.03799E+01 0.00000E+00
 -1      1674 1.16573E+02 1.85635E+01 0.00000E+00
 -1      1675 1.17051E+02 1.90947E+01 0.00000E+00
 -1      1676 1.15321E+02 1.74014E+01 0.00000E+00
 -1      1677 1.15975E+02 1.78684E+01 0.00000E+00
 -1      1678 1.13709E+02 1.67925E+01 0.00000E+00
 -1      1679 1.14422E+02 1.70894E+01 0.00000E+00
 -1      1680 1.12152E+02 1.63694E+01 0.00000E+00
 -1      1681 1.12874E+02 1.65004E+01 0.00000E+00
 -1      1682 1.10538E+02 1.63300E+01 0.00000E+00
 -1      1683 1.11282E+02 1.63059E+01 0.00000E+00
 -1      1684 1.08811E+02 1.65936E+01 0.00000E+00
 -1      1685 1.09604E+02 1.63857E+01 0.00000E+00
 -1      1686 1.07344E+02 1.73743E+01 0.00000E+00
 -1      1687 1.07995E+02 1.70364E+01 0.00000E+00
 -1      1688 1.06026E+02 1.83501E+01 0.00000E+00
 -1      1689 1.06616E+02 1.78600E+01 0.00000E+00
 -1      1690 1.04953E+02 1.95739E+01 0.00000E+00
 -1      1691 1.05411E+02 1.89841E+01 0.00000E+00
 -1      1692 1.04184E+02 2.09535E+01 0.00000E+00
 -1      1693 1.04499E+02 2.03025E+01 0.00000E+00
 -1      1694 1.03681E+02 2.24464E+01 0.00000E+00
 -1      1695 1.03856E+02 2.17402E+01 0.00000E+00
 -1      1696 1.03499E+02 2.40747E+01 0.00000E+00
 -1      1697 1.03522E+02 2.33148E+01 0.00000E+00
 -1      1698 1.03744E+02 2.56818E+01 0.00000E+00
 -1      1699 1.03608E+02 2.49567E+01 0.00000E+00
 -1      1700 1.04217E+02 2.72605E+01 0.00000E+00
 -1      1701 1.03922E+02 2.65600E+01 0.00000E+00
 -1      1702 1.05197E+02 2.85988E+01 0.00000E+00
 -1      1703 1.04762E+02 2.79839E+01 0.00000E+00
 -1      1704 1.06450E+02 2.98482E+01 0.00000E+00
 -1      1705 1.05821E+02 2.92888E+01 0.00000E+00
 -1      1706 1.07890E+02 3.07560E+01 0.00000E+00
 -1      1707 1.07216E+02 3.03906E+01 0.00000E+00
 -1      1708 1.09506E+02 3.14381E+01 0.00000E+00
 -1      1709 1.08716E+02 3.12201E+01 0.00000E+00
 -1      1710 1.11184E+02 3.15396E+01 0.00000E+00
 -1      1711 1.10439E+02 3.15059E+01 0.00000E+00
 -1      1712 1.12785E+02 3.13209E+01 0.00000E+00
 -1      1713 1.12053E+02 3.14448E+01 0.00000E+00
 -1      1714 1.14415E+02 3.08489E+01 0.00000E+00
 -1      1715 1.13679E+02 3.11496E+01 0.00000E+00
 -1      1716 1.15803E+02 2.99586E+01 0.00000E+00
 -1      1717 1.15196E+02 3.03808E+01 0.00000E+00
 -1      1718 1.16952E+02 2.87983E+01 0.00000E+00
 -1      1719 1.16438E+02 2.93516E+01 0.00000E+00
 -1      1720 1.17896E+02 2.74704E+01 0.00000E+00
 -1      1721 1.17514E+02 2.81158E+01 0.00000E+00
 -1      1722 1.18494E+02 2.59662E+01 0.00000E+00
 -1      1723 1.18261E+02 2.66700E+01 0.00000E+00
 -1      1724 1.18760E+02 2.43636E+01 0.00000E+00
 -1      1725 1.18680E+02 2.51075E+01 0.00000E+00
 -1      1726 1.16696E+02 1.77004E+01 0.00000E+00
 -1      1727 1.17789E+02 1.90717E+01 0.00000E+00
 -1      1728 1.48437E+02 2.56875E+00 0.00000E+00
 -1      1729 1.47138E+02 3.30625E+00 0.00000E+00
 -1      1730 1.19220E+02 2.21808E+01 0.00000E+00
 -1      1731 1.18678E+02 2.05262E+01 0.00000E+00
 -1      1732 1.19366E+02 2.39309E+01 0.00000E+00
 -1      1733 1.15198E+02 1.66934E+01 0.00000E+00
 -1      1734 1.13464E+02 1.60893E+01 0.00000E+00
 -1      1735 1.11759E+02 1.57337E+01 0.00000E+00
 -1      1736 1.09956E+02 1.57259E+01 0.00000E+00
 -1      1737 1.08206E+02 1.62245E+01 0.00000E+00
 -1      1738 1.06662E+02 1.71531E+01 0.00000E+00
 -1      1739 1.05318E+02 1.82729E+01 0.00000E+00
 -1      1740 1.04249E+02 1.96356E+01 0.00000E+00
 -1      1741 1.03468E+02 2.11508E+01 0.00000E+00
 -1      1742 1.02980E+02 2.28059E+01 0.00000E+00
 -1      1743 1.02930E+02 2.45562E+01 0.00000E+00
 -1      1744 1.03217E+02 2.63164E+01 0.00000E+00
 -1      1745 1.03940E+02 2.79180E+01 0.00000E+00
 -1      1746 1.05108E+02 2.93315E+01 0.00000E+00
 -1      1747 1.06498E+02 3.05639E+01 0.00000E+00
 -1      1748 1.08090E+02 3.15704E+01 0.00000E+00
 -1      1749 1.09849E+02 3.21024E+01 0.00000E+00
 -1      1750 1.11651E+02 3.20754E+01 0.00000E+00
 -1      1751 1.13414E+02 3.18093E+01 0.00000E+00
 -1      1752 1.15088E+02 3.11699E+01 0.00000E+00
 -1      1753 1.16504E+02 3.00948E+01 0.00000E+00
 -1      1754 1.17701E+02 2.88053E+01 0.00000E+00
 -1      1755 1.18628E+02 2.73225E+01 0.00000E+00
 -1      1756 1.19178E+02 2.56635E+01 0.00000E+00
 -1      1757 2.87400E+00 4.77875E+01 0.00000E+00
 -1      1758 3.89700E+00 4.04125E+01 0.00000E+00
 -1      1759 3.89700E+00 4.18875E+01 0.00000E+00
 -1      1760 3.89700E+00 4.33625E+01 0.00000E+00
 -1      1761 3.89700E+00 4.48375E+01 0.00000E+00
 -1      1762 5.19600E+00 4.26250E+01 0.00000E+00
 -1      1763 3.89700E+00 3.45500E+01 0.00000E+00
 -1      1764 3.89700E+00 3.60000E+01 0.00000E+00
 -1      1765 3.89700E+00 3.16000E+01 0.00000E+00
 -1      1766 3.89700E+00 3.30750E+01 0.00000E+00
 -1      1767 5.19600E+00 3.38000E+01 0.00000E+00
 -1      1768 3.89700E+00 2.86500E+01 0.00000E+00
 -1      1769 3.89700E+00 3.01250E+01 0.00000E+00
 -1      1770 5.19600E+00 3.08500E+01 0.00000E+00
 -1      1771 3.89700E+00 2.57000E+01 0.00000E+00
 -1      1772 3.89700E+00 2.71750E+01 0.00000E+00
 -1      1773 5.19600E+00 2.79000E+01 0.00000E+00
 -1      1774 3.89700E+00 2.27500E+01 0.00000E+00
 -1      1775 3.89700E+00 2.42250E+01 0.00000E+00
 -1      1776 5.19600E+00 2.49500E+01 0.00000E+00
 -1      1777 3.89700E+00 1.98000E+01 0.00000E+00
 -1      1778 3.89700E+00 2.12750E+01 0.00000E+00
 -1      1779 5.19600E+00 2.20000E+01 0.00000E+00
 -1      1780 3.89700E+00 1.69000E+01 0.00000E+00
 -1      1781 3.89700E+00 1.83500E+01 0.00000E+00
 -1      1782 5.19600E+00 1.90750E+01 0.00000E+00
 -1      1783 3.89700E+00 1.39500E+01 0.00000E+00
 -1      1784 3.89700E+00 1.54250E+01 0.00000E+00
 -1      1785 5.19600E+00 1.61500E+01 0.00000E+00
 -1      1786 3.89700E+00 1.10000E+01 0.00000E+00
 -1      1787 3.89700E+00 1.24750E+01 0.00000E+00
 -1      1788 5.19600E+00 1.32000E+01 0.00000E+00
 -1      1789 3.89700E+00 8.05000E+00 0.00000E+00
 -1      1790 3.89700E+00 9.52500E+00 0.00000E+00
 -1      1791 5.19600E+00 1.02500E+01 0.00000E+00
 -1      1792 3.89700E+00 5.10000E+00 0.00000E+00
 -1      1793 3.89700E+00 6.57500E+00 0.00000E+00
 -1      1794 5.19600E+00 7.30000E+00 0.00000E+00
 -1      1795 4.20450E+00 3.09687E+00 0.00000E+00
 -1      1796 4.06650E+00 4.19063E+00 0.00000E+00
 -1      1797 5.36550E+00 4.91563E+00 0.00000E+00
 -1      1798 5.70450E+00 3.09687E+00 0.00000E+00
 -1      1799 3.62400E+00 4.64885E+01 0.00000E+00
 -1      1800 8.70450E+00 3.09687E+00 0.00000E+00
 -1      1801 7.20450E+00 3.09687E+00 0.00000E+00
 -1      1802 7.03500E+00 4.00625E+00 0.00000E+00
 -1      1803 4.92300E+00 4.57510E+01 0.00000E+00
 -1      1804 8.40000E+00 4.61030E+01 0.00000E+00
 -1      1805 9.90000E+00 4.61030E+01 0.00000E+00
 -1      1806 1.14000E+01 4.61030E+01 0.00000E+00
 -1      1807 1.29000E+01 4.61030E+01 0.00000E+00
 -1      1808 1.06500E+01 4.48040E+01 0.00000E+00
 -1      1809 1.44000E+01 4.61030E+01 0.00000E+00
 -1      1810 1.59000E+01 4.61030E+01 0.00000E+00
 -1      1811 1.36500E+01 4.48040E+01 0.00000E+00
 -1      1812 1.74000E+01 4.61030E+01 0.00000E+00
 -1      1813 1.89000E+01 4.61030E+01 0.00000E+00
 -1      1814 1.66500E+01 4.48040E+01 0.00000E+00
 -1      1815 2.04000E+01 4.61030E+01 0.00000E+00
 -1      1816 2.19000E+01 4.61030E+01 0.00000E+00
 -1      1817 1.96500E+01 4.48040E+01 0.00000E+00
 -1      1818 2.34000E+01 4.61030E+01 0.00000E+00
 -1      1819 2.49000E+01 4.61030E+01 0.00000E+00
 -1      1820 2.26500E+01 4.48040E+01 0.00000E+00
 -1      1821 2.64000E+01 4.61030E+01 0.00000E+00
 -1      1822 2.79000E+01 4.61030E+01 0.00000E+00
 -1      1823 2.56500E+01 4.48040E+01 0.00000E+00
 -1      1824 2.94000E+01 4.61030E+01 0.00000E+00
 -1      1825 3.09000E+01 4.61030E+01 0.00000E+00
 -1      1826 2.86500E+01 4.48040E+01 0.00000E+00
 -1      1827 3.24000E+01 4.61030E+01 0.00000E+00
 -1      1828 3.39000E+01 4.61030E+01 0.00000E+00
 -1      1829 3.16500E+01 4.48040E+01 0.00000E+00
 -1      1830 3.54000E+01 4.61030E+01 0.00000E+00
 -1      1831 3.69000E+01 4.61030E+01 0.00000E+00
 -1      1832 3.46500E+01 4.48040E+01 0.00000E+00
 -1      1833 3.84000E+01 4.61030E+01 0.00000E+00
 -1      1834 3.99000E+01 4.61030E+01 0.00000E+00
 -1      1835 3.76500E+01 4.48040E+01 0.00000E+00
 -1      1836 4.14000E+01 4.61030E+01 0.00000E+00
 -1      1837 4.29000E+01 4.61030E+01 0.00000E+00
 -1      1838 4.06500E+01 4.48040E+01 0.00000E+00
 -1      1839 4.44000E+01 4.61030E+01 0.00000E+00
 -1      1840 4.59000E+01 4.61030E+01 0.00000E+00
 -1      1841 4.36500E+01 4.48040E+01 0.00000E+00
 -1      1842 4.74000E+01 4.61030E+01 0.00000E+00
 -1      1843 4.89000E+01 4.61030E+01 0.00000E+00
 -1      1844 4.66500E+01 4.48040E+01 0.00000E+00
 -1      1845 5.04000E+01 4.61030E+01 0.00000E+00
 -1      1846 5.19000E+01 4.61030E+01 0.00000E+00
 -1      1847 4.96500E+01 4.48040E+01 0.00000E+00
 -1      1848 5.34000E+01 4.61030E+01 0.00000E+00
 -1      1849 5.49000E+01 4.61030E+01 0.00000E+00
 -1      1850 5.26500E+01 4.48040E+01 0.00000E+00
 -1      1851 5.64000E+01 4.61030E+01 0.00000E+00
 -1      1852 5.79000E+01 4.61030E+01 0.00000E+00
 -1      1853 5.56500E+01 4.48040E+01 0.00000E+00
 -1      1854 5.94000E+01 4.61030E+01 0.00000E+00
 -1      1855 6.09000E+01 4.61030E+01 0.00000E+00
 -1      1856 5.86500E+01 4.48040E+01 0.00000E+00
 -1      1857 6.24000E+01 4.61030E+01 0.00000E+00
 -1      1858 6.39000E+01 4.61030E+01 0.00000E+00
 -1      1859 6.16500E+01 4.48040E+01 0.00000E+00
 -1      1860 6.54000E+01 4.61030E+01 0.00000E+00
 -1      1861 6.69000E+01 4.61030E+01 0.00000E+00
 -1      1862 6.46500E+01 4.48040E+01 0.00000E+00
 -1      1863 6.84000E+01 4.61030E+01 0.00000E+00
 -1      1864 6.99000E+01 4.61030E+01 0.00000E+00
 -1      1865 6.76500E+01 4.48040E+01 0.00000E+00
 -1      1866 7.14000E+01 4.61030E+01 0.00000E+00
 -1      1867 7.29000E+01 4.61030E+01 0.00000E+00
 -1      1868 7.06500E+01 4.48040E+01 0.00000E+00
 -1      1869 7.44000E+01 4.61030E+01 0.00000E+00
 -1      1870 7.59000E+01 4.61030E+01 0.00000E+00
 -1      1871 7.36500E+01 4.48040E+01 0.00000E+00
 -1      1872 7.74000E+01 4.61030E+01 0.00000E+00
 -1      1873 7.89000E+01 4.61030E+01 0.00000E+00
 -1      1874 7.66500E+01 4.48040E+01 0.00000E+00
 -1      1875 8.04000E+01 4.61030E+01 0.00000E+00
 -1      1876 8.19000E+01 4.61030E+01 0.00000E+00
 -1      1877 7.96500E+01 4.48040E+01 0.00000E+00
 -1      1878 8.34000E+01 4.61030E+01 0.00000E+00
 -1      1879 8.49000E+01 4.61030E+01 0.00000E+00
 -1      1880 8.26500E+01 4.48040E+01 0.00000E+00
 -1      1881 8.64000E+01 4.61030E+01 0.00000E+00
 -1      1882 8.79000E+01 4.61030E+01 0.00000E+00
 -1      1883 8.56500E+01 4.48040E+01 0.00000E+00
 -1      1884 8.94000E+01 4.61030E+01 0.00000E+00
 -1      1885 9.09000E+01 4.61030E+01 0.00000E+00
 -1      1886 8.86500E+01 4.48040E+01 0.00000E+00
 -1      1887 9.24000E+01 4.61030E+01 0.00000E+00
 -1      1888 9.39000E+01 4.61030E+01 0.00000E+00
 -1      1889 9.16500E+01 4.48040E+01 0.00000E+00
 -1      1890 9.54000E+01 4.61030E+01 0.00000E+00
 -1      1891 9.69000E+01 4.61030E+01 0.00000E+00
 -1      1892 9.46500E+01 4.48040E+01 0.00000E+00
 -1      1893 9.84000E+01 4.61030E+01 0.00000E+00
 -1      1894 9.99000E+01 4.61030E+01 0.00000E+00
 -1      1895 9.76500E+01 4.48040E+01 0.00000E+00
 -1      1896 1.01400E+02 4.61030E+01 0.00000E+00
 -1      1897 1.02900E+02 4.61030E+01 0.00000E+00
 -1      1898 1.00650E+02 4.48040E+01 0.00000E+00
 -1      1899 1.04400E+02 4.61030E+01 0.00000E+00
 -1      1900 1.05900E+02 4.61030E+01 0.00000E+00
 -1      1901 1.03650E+02 4.48040E+01 0.00000E+00
 -1      1902 1.07400E+02 4.61030E+01 0.00000E+00
 -1      1903 1.08900E+02 4.61030E+01 0.00000E+00
 -1      1904 1.06650E+02 4.48040E+01 0.00000E+00
 -1      1905 1.10400E+02 4.61030E+01 0.00000E+00
 -1      1906 1.11900E+02 4.61030E+01 0.00000E+00
 -1      1907 1.09650E+02 4.48040E+01 0.00000E+00
 -1      1908 1.13400E+02 4.61030E+01 0.00000E+00
 -1      1909 1.14900E+02 4.61030E+01 0.00000E+00
 -1      1910 1.12650E+02 4.48040E+01 0.00000E+00
 -1      1911 1.16400E+02 4.61030E+01 0.00000E+00
 -1      1912 1.17900E+02 4.61030E+01 0.00000E+00
 -1      1913 1.15650E+02 4.48040E+01 0.00000E+00
 -1      1914 1.19400E+02 4.61030E+01 0.00000E+00
 -1      1915 1.20900E+02 4.61030E+01 0.00000E+00
 -1      1916 1.18650E+02 4.48040E+01 0.00000E+00
 -1      1917 1.22400E+02 4.61030E+01 0.00000E+00
 -1      1918 1.23900E+02 4.61030E+01 0.00000E+00
 -1      1919 1.21650E+02 4.48040E+01 0.00000E+00
 -1      1920 1.25400E+02 4.61030E+01 0.00000E+00
 -1      1921 1.26900E+02 4.61030E+01 0.00000E+00
 -1      1922 1.24650E+02 4.48040E+01 0.00000E+00
 -1      1923 1.28400E+02 4.61030E+01 0.00000E+00
 -1      1924 1.29900E+02 4.61030E+01 0.00000E+00
 -1      1925 1.27650E+02 4.48040E+01 0.00000E+00
 -1      1926 1.31400E+02 4.61030E+01 0.00000E+00
 -1      1927 1.32900E+02 4.61030E+01 0.00000E+00
 -1      1928 1.30650E+02 4.48040E+01 0.00000E+00
 -1      1929 1.34400E+02 4.61030E+01 0.00000E+00
 -1      1930 1.35900E+02 4.61030E+01 0.00000E+00
 -1      1931 1.33650E+02 4.48040E+01 0.00000E+00
 -1      1932 1.37400E+02 4.61030E+01 0.00000E+00
 -1      1933 1.38900E+02 4.61030E+01 0.00000E+00
 -1      1934 1.36650E+02 4.48040E+01 0.00000E+00
 -1      1935 1.40400E+02 4.61030E+01 0.00000E+00
 -1      1936 1.41900E+02 4.61030E+01 0.00000E+00
 -1      1937 1.39650E+02 4.48040E+01 0.00000E+00
 -1      1938 1.43244E+02 4.61616E+01 0.00000E+00
 -1      1939 1.44744E+02 4.61616E+01 0.00000E+00
 -1      1940 1.45182E+02 4.49799E+01 0.00000E+00
 -1      1941 1.42494E+02 4.48626E+01 0.00000E+00
 -1      1942 1.17045E+01 3.09687E+00 0.00000E+00
 -1      1943 1.02045E+01 3.09687E+00 0.00000E+00
 -1      1944 1.00350E+01 4.00625E+00 0.00000E+00
 -1      1945 1.47045E+01 3.09687E+00 0.00000E+00
 -1      1946 1.32045E+01 3.09687E+00 0.00000E+00
 -1      1947 1.30350E+01 4.00625E+00 0.00000E+00
 -1      1948 1.77045E+01 3.09687E+00 0.00000E+00
 -1      1949 1.62045E+01 3.09687E+00 0.00000E+00
 -1      1950 1.60350E+01 4.00625E+00 0.00000E+00
 -1      1951 2.07045E+01 3.09687E+00 0.00000E+00
 -1      1952 1.92045E+01 3.09687E+00 0.00000E+00
 -1      1953 1.90350E+01 4.00625E+00 0.00000E+00
 -1      1954 2.37045E+01 3.09687E+00 0.00000E+00
 -1      1955 2.22045E+01 3.09687E+00 0.00000E+00
 -1      1956 2.20350E+01 4.00625E+00 0.00000E+00
 -1      1957 2.67045E+01 3.09687E+00 0.00000E+00
 -1      1958 2.52045E+01 3.09687E+00 0.00000E+00
 -1      1959 2.50350E+01 4.00625E+00 0.00000E+00
 -1      1960 2.97045E+01 3.09687E+00 0.00000E+00
 -1      1961 2.82045E+01 3.09687E+00 0.00000E+00
 -1      1962 2.80350E+01 4.00625E+00 0.00000E+00
 -1      1963 3.27045E+01 3.09687E+00 0.00000E+00
 -1      1964 3.12045E+01 3.09687E+00 0.00000E+00
 -1      1965 3.10350E+01 4.00625E+00 0.00000E+00
 -1      1966 3.57045E+01 3.09687E+00 0.00000E+00
 -1      1967 3.42045E+01 3.09687E+00 0.00000E+00
 -1      1968 3.40350E+01 4.00625E+00 0.00000E+00
 -1      1969 3.87045E+01 3.09687E+00 0.00000E+00
 -1      1970 3.72045E+01 3.09687E+00 0.00000E+00
 -1      1971 3.70350E+01 4.00625E+00 0.00000E+00
 -1      1972 4.17045E+01 3.09687E+00 0.00000E+00
 -1      1973 4.02045E+01 3.09687E+00 0.00000E+00
 -1      1974 4.00350E+01 4.00625E+00 0.00000E+00
 -1      1975 4.47045E+01 3.09687E+00 0.00000E+00
 -1      1976 4.32045E+01 3.09687E+00 0.00000E+00
 -1      1977 4.30350E+01 4.00625E+00 0.00000E+00
 -1      1978 4.77045E+01 3.09687E+00 0.00000E+00
 -1      1979 4.62045E+01 3.09687E+00 0.00000E+00
 -1      1980 4.60350E+01 4.00625E+00 0.00000E+00
 -1      1981 5.07045E+01 3.09687E+00 0.00000E+00
 -1      1982 4.92045E+01 3.09687E+00 0.00000E+00
 -1      1983 4.90350E+01 4.00625E+00 0.00000E+00
 -1      1984 5.37045E+01 3.09687E+00 0.00000E+00
 -1      1985 5.22045E+01 3.09687E+00 0.00000E+00
 -1      1986 5.20350E+01 4.00625E+00 0.00000E+00
 -1      1987 5.67045E+01 3.09687E+00 0.00000E+00
 -1      1988 5.52045E+01 3.09687E+00 0.00000E+00
 -1      1989 5.50350E+01 4.00625E+00 0.00000E+00
 -1      1990 5.97045E+01 3.09687E+00 0.00000E+00
 -1      1991 5.82045E+01 3.09687E+00 0.00000E+00
 -1      1992 5.80350E+01 4.00625E+00 0.00000E+00
 -1      1993 6.27045E+01 3.09687E+00 0.00000E+00
 -1      1994 6.12045E+01 3.09687E+00 0.00000E+00
 -1      1995 6.10350E+01 4.00625E+00 0.00000E+00
 -1      1996 6.57045E+01 3.09687E+00 0.00000E+00
 -1      1997 6.42045E+01 3.09687E+00 0.00000E+00
 -1      1998 6.40350E+01 4.00625E+00 0.00000E+00
 -1      1999 6.87045E+01 3.09687E+00 0.00000E+00
 -1      2000 6.72045E+01 3.09687E+00 0.00000E+00
 -1      2001 6.70350E+01 4.00625E+00 0.00000E+00
 -1      2002 7.17045E+01 3.09687E+00 0.00000E+00
 -1      2003 7.02045E+01 3.09687E+00 0.00000E+00
 -1      2004 7.00350E+01 4.00625E+00 0.00000E+00
 -1      2005 7.47045E+01 3.09687E+00 0.00000E+00
 -1      2006 7.32045E+01 3.09687E+00 0.00000E+00
 -1      2007 7.30350E+01 4.00625E+00 0.00000E+00
 -1      2008 7.77045E+01 3.09687E+00 0.00000E+00
 -1      2009 7.62045E+01 3.09687E+00 0.00000E+00
 -1      2010 7.60350E+01 4.00625E+00 0.00000E+00
 -1      2011 8.07045E+01 3.09687E+00 0.00000E+00
 -1      2012 7.92045E+01 3.09687E+00 0.00000E+00
 -1      2013 7.90350E+01 4.00625E+00 0.00000E+00
 -1      2014 8.37045E+01 3.09687E+00 0.00000E+00
 -1      2015 8.22045E+01 3.09687E+00 0.00000E+00
 -1      2016 8.20350E+01 4.00625E+00 0.00000E+00
 -1      2017 8.67045E+01 3.09687E+00 0.00000E+00
 -1      2018 8.52045E+01 3.09687E+00 0.00000E+00
 -1      2019 8.50350E+01 4.00625E+00 0.00000E+00
 -1      2020 8.97045E+01 3.09687E+00 0.00000E+00
 -1      2021 8.82045E+01 3.09687E+00 0.00000E+00
 -1      2022 8.80350E+01 4.00625E+00 0.00000E+00
 -1      2023 9.27045E+01 3.09687E+00 0.00000E+00
 -1      2024 9.12045E+01 3.09687E+00 0.00000E+00
 -1      2025 9.10350E+01 4.00625E+00 0.00000E+00
 -1      2026 9.57045E+01 3.09687E+00 0.00000E+00
 -1      2027 9.42045E+01 3.09687E+00 0.00000E+00
 -1      2028 9.40350E+01 4.00625E+00 0.00000E+00
 -1      2029 9.87045E+01 3.09687E+00 0.00000E+00
 -1      2030 9.72045E+01 3.09687E+00 0.00000E+00
 -1      2031 9.70350E+01 4.00625E+00 0.00000E+00
 -1      2032 1.01704E+02 3.09687E+00 0.00000E+00
 -1      2033 1.00204E+02 3.09687E+00 0.00000E+00
 -1      2034 1.00035E+02 4.00625E+00 0.00000E+00
 -1      2035 1.04704E+02 3.09687E+00 0.00000E+00
 -1      2036 1.03204E+02 3.09687E+00 0.00000E+00
 -1      2037 1.03035E+02 4.00625E+00 0.00000E+00
 -1      2038 1.07704E+02 3.09687E+00 0.00000E+00
 -1      2039 1.06204E+02 3.09687E+00 0.00000E+00
 -1      2040 1.06035E+02 4.00625E+00 0.00000E+00
 -1      2041 1.10704E+02 3.09687E+00 0.00000E+00
 -1      2042 1.09204E+02 3.09687E+00 0.00000E+00
 -1      2043 1.09035E+02 4.00625E+00 0.00000E+00
 -1      2044 1.13704E+02 3.09687E+00 0.00000E+00
 -1      2045 1.12204E+02 3.09687E+00 0.00000E+00
 -1      2046 1.12035E+02 4.00625E+00 0.00000E+00
 -1      2047 1.16704E+02 3.09687E+00 0.00000E+00
 -1      2048 1.15204E+02 3.09687E+00 0.00000E+00
 -1      2049 1.15035E+02 4.00625E+00 0.00000E+00
 -1      2050 1.19704E+02 3.09687E+00 0.00000E+00
 -1      2051 1.18204E+02 3.09687E+00 0.00000E+00
 -1      2052 1.18035E+02 4.00625E+00 0.00000E+00
 -1      2053 1.22704E+02 3.09687E+00 0.00000E+00
 -1      2054 1.21204E+02 3.09687E+00 0.00000E+00
 -1      2055 1.21035E+02 4.00625E+00 0.00000E+00
 -1      2056 1.25704E+02 3.09687E+00 0.00000E+00
 -1      2057 1.24204E+02 3.09687E+00 0.00000E+00
 -1      2058 1.24035E+02 4.00625E+00 0.00000E+00
 -1      2059 1.28704E+02 3.09687E+00 0.00000E+00
 -1      2060 1.27204E+02 3.09687E+00 0.00000E+00
 -1      2061 1.27035E+02 4.00625E+00 0.00000E+00
 -1      2062 1.31704E+02 3.09687E+00 0.00000E+00
 -1      2063 1.30204E+02 3.09687E+00 0.00000E+00
 -1      2064 1.30035E+02 4.00625E+00 0.00000E+00
 -1      2065 1.34704E+02 3.09687E+00 0.00000E+00
 -1      2066 1.33204E+02 3.09687E+00 0.00000E+00
 -1      2067 1.33035E+02 4.00625E+00 0.00000E+00
 -1      2068 1.37704E+02 3.09687E+00 0.00000E+00
 -1      2069 1.36204E+02 3.09687E+00 0.00000E+00
 -1      2070 1.36035E+02 4.00625E+00 0.00000E+00
 -1      2071 1.40704E+02 3.09687E+00 0.00000E+00
 -1      2072 1.39204E+02 3.09687E+00 0.00000E+00
 -1      2073 1.39035E+02 4.00625E+00 0.00000E+00
 -1      2074 1.43704E+02 3.09687E+00 0.00000E+00
 -1      2075 1.42204E+02 3.09687E+00 0.00000E+00
 -1      2076 1.42035E+02 4.00625E+00 0.00000E+00
 -1      2077 1.46171E+02 3.20156E+00 0.00000E+00
 -1      2078 1.44671E+02 3.20156E+00 0.00000E+00
 -1      2079 1.44502E+02 4.11094E+00 0.00000E+00
 -1      2080 1.46435E+02 4.32031E+00 0.00000E+00
 -1      2081 1.46103E+02 1.25375E+01 0.00000E+00
 -1      2082 1.46103E+02 1.10625E+01 0.00000E+00
 -1      2083 1.46103E+02 9.58750E+00 0.00000E+00
 -1      2084 1.46103E+02 8.11250E+00 0.00000E+00
 -1      2085 1.44804E+02 1.03250E+01 0.00000E+00
 -1      2086 1.46269E+02 6.95391E+00 0.00000E+00
 -1      2087 1.46269E+02 5.47891E+00 0.00000E+00
 -1      2088 1.45302E+02 5.37422E+00 0.00000E+00
 -1      2089 1.44970E+02 7.69141E+00 0.00000E+00
 -1      2090 1.46103E+02 1.54375E+01 0.00000E+00
 -1      2091 1.46103E+02 1.39875E+01 0.00000E+00
 -1      2092 1.44804E+02 1.32500E+01 0.00000E+00
 -1      2093 1.46103E+02 1.83875E+01 0.00000E+00
 -1      2094 1.46103E+02 1.69125E+01 0.00000E+00
 -1      2095 1.44804E+02 1.61750E+01 0.00000E+00
 -1      2096 1.46103E+02 2.13375E+01 0.00000E+00
 -1      2097 1.46103E+02 1.98625E+01 0.00000E+00
 -1      2098 1.44804E+02 1.91250E+01 0.00000E+00
 -1      2099 1.46103E+02 2.42875E+01 0.00000E+00
 -1      2100 1.46103E+02 2.28125E+01 0.00000E+00
 -1      2101 1.44804E+02 2.20750E+01 0.00000E+00
 -1      2102 1.46103E+02 2.72375E+01 0.00000E+00
 -1      2103 1.46103E+02 2.57625E+01 0.00000E+00
 -1      2104 1.44804E+02 2.50250E+01 0.00000E+00
 -1      2105 1.46103E+02 3.01875E+01 0.00000E+00
 -1      2106 1.46103E+02 2.87125E+01 0.00000E+00
 -1      2107 1.44804E+02 2.79750E+01 0.00000E+00
 -1      2108 1.46103E+02 3.30875E+01 0.00000E+00
 -1      2109 1.46103E+02 3.16375E+01 0.00000E+00
 -1      2110 1.44804E+02 3.09000E+01 0.00000E+00
 -1      2111 1.46103E+02 3.60375E+01 0.00000E+00
 -1      2112 1.46103E+02 3.45625E+01 0.00000E+00
 -1      2113 1.44804E+02 3.38250E+01 0.00000E+00
 -1      2114 1.46103E+02 3.89875E+01 0.00000E+00
 -1      2115 1.46103E+02 3.75125E+01 0.00000E+00
 -1      2116 1.44804E+02 3.67750E+01 0.00000E+00
 -1      2117 1.46103E+02 4.19375E+01 0.00000E+00
 -1      2118 1.46103E+02 4.04625E+01 0.00000E+00
 -1      2119 1.44804E+02 3.97250E+01 0.00000E+00
 -1      2120 1.19059E+02 1.98442E+01 0.00000E+00
 -1      2121 1.19453E+02 2.06225E+01 0.00000E+00
 -1      2122 1.20141E+02 2.34955E+01 0.00000E+00
 -1      2123 1.20139E+02 2.43694E+01 0.00000E+00
 -1      2124 1.19950E+02 2.16069E+01 0.00000E+00
 -1      2125 1.20098E+02 2.24832E+01 0.00000E+00
 -1      2126 1.18166E+02 1.82764E+01 0.00000E+00
 -1      2127 1.18661E+02 1.89527E+01 0.00000E+00
 -1      2128 1.16970E+02 1.68863E+01 0.00000E+00
 -1      2129 1.17568E+02 1.75814E+01 0.00000E+00
 -1      2130 1.18440E+02 1.74624E+01 0.00000E+00
 -1      2131 3.89700E+00 3.74688E+01 0.00000E+00
 -1      2132 3.89700E+00 3.89437E+01 0.00000E+00
 -1      2133 5.19600E+00 3.96813E+01 0.00000E+00
 -1      2134 5.19600E+00 3.67438E+01 0.00000E+00
 -1      2135 1.13330E+02 1.51338E+01 0.00000E+00
 -1      2136 1.14165E+02 1.54259E+01 0.00000E+00
 -1      2137 1.11377E+02 1.49720E+01 0.00000E+00
 -1      2138 1.12247E+02 1.50355E+01 0.00000E+00
 -1      2139 1.09440E+02 1.49396E+01 0.00000E+00
 -1      2140 1.10374E+02 1.48839E+01 0.00000E+00
 -1      2141 1.07389E+02 1.56922E+01 0.00000E+00
 -1      2142 1.08205E+02 1.52494E+01 0.00000E+00
 -1      2143 1.05932E+02 1.66638E+01 0.00000E+00
 -1      2144 1.06661E+02 1.61780E+01 0.00000E+00
 -1      2145 1.06660E+02 1.52029E+01 0.00000E+00
 -1      2146 1.04485E+02 1.80804E+01 0.00000E+00
 -1      2147 1.05101E+02 1.74463E+01 0.00000E+00
 -1      2148 1.03437E+02 1.96351E+01 0.00000E+00
 -1      2149 1.03891E+02 1.89065E+01 0.00000E+00
 -1      2150 1.02589E+02 2.12463E+01 0.00000E+00
 -1      2151 1.02917E+02 2.04596E+01 0.00000E+00
 -1      2152 1.02222E+02 2.31155E+01 0.00000E+00
 -1      2153 1.02381E+02 2.22472E+01 0.00000E+00
 -1      2154 1.02341E+02 2.50767E+01 0.00000E+00
 -1      2155 1.02232E+02 2.41947E+01 0.00000E+00
 -1      2156 1.02671E+02 2.68844E+01 0.00000E+00
 -1      2157 1.02493E+02 2.60062E+01 0.00000E+00
 -1      2158 1.03627E+02 2.87199E+01 0.00000E+00
 -1      2159 1.03083E+02 2.79965E+01 0.00000E+00
 -1      2160 1.04909E+02 3.01394E+01 0.00000E+00
 -1      2161 1.04285E+02 2.94493E+01 0.00000E+00
 -1      2162 1.06507E+02 3.13640E+01 0.00000E+00
 -1      2163 1.05741E+02 3.08217E+01 0.00000E+00
 -1      2164 1.08145E+02 3.24406E+01 0.00000E+00
 -1      2165 1.07319E+02 3.19764E+01 0.00000E+00
 -1      2166 1.10259E+02 3.29080E+01 0.00000E+00
 -1      2167 1.09327E+02 3.28402E+01 0.00000E+00
 -1      2168 1.12160E+02 3.27139E+01 0.00000E+00
 -1      2169 1.11291E+02 3.28087E+01 0.00000E+00
 -1      2170 1.13998E+02 3.24424E+01 0.00000E+00
 -1      2171 1.13105E+02 3.26137E+01 0.00000E+00
 -1      2172 1.15877E+02 3.15995E+01 0.00000E+00
 -1      2173 1.15096E+02 3.20676E+01 0.00000E+00
 -1      2174 1.17385E+02 3.03809E+01 0.00000E+00
 -1      2175 1.16750E+02 3.09879E+01 0.00000E+00
 -1      2176 1.18547E+02 2.89294E+01 0.00000E+00
 -1      2177 1.17985E+02 2.96119E+01 0.00000E+00
 -1      2178 1.19400E+02 2.71911E+01 0.00000E+00
 -1      2179 1.19035E+02 2.79914E+01 0.00000E+00
 -1      2180 1.19946E+02 2.53802E+01 0.00000E+00
 -1      2181 1.19760E+02 2.62389E+01 0.00000E+00
 -1      2182 1.15064E+02 1.57379E+01 0.00000E+00
 -1      2183 1.15964E+02 1.60498E+01 0.00000E+00
 -1      2184 1.14930E+02 1.47824E+01 0.00000E+00
 -1      2185 6.42300E+00 4.57510E+01 0.00000E+00
 -1      2186 1.16836E+02 1.59308E+01 0.00000E+00
 -1      2187 1.17708E+02 1.58119E+01 0.00000E+00
 -1      2188 1.16701E+02 1.49754E+01 0.00000E+00
 -1      2189 7.17300E+00 4.44520E+01 0.00000E+00
 -1      2190 1.20331E+02 2.09249E+01 0.00000E+00
 -1      2191 1.20871E+02 2.29217E+01 0.00000E+00
 -1      2192 1.45665E+02 4.31193E+01 0.00000E+00
 -1      2193 1.19436E+02 1.90490E+01 0.00000E+00
 -1      2194 1.20720E+02 2.49448E+01 0.00000E+00
 -1      2195 1.20167E+02 2.69078E+01 0.00000E+00
 -1      2196 1.19319E+02 2.87979E+01 0.00000E+00
 -1      2197 1.18231E+02 3.05049E+01 0.00000E+00
 -1      2198 1.16758E+02 3.18856E+01 0.00000E+00
 -1      2199 1.14787E+02 3.28720E+01 0.00000E+00
 -1      2200 1.12745E+02 3.33470E+01 0.00000E+00
 -1      2201 1.10769E+02 3.35465E+01 0.00000E+00
 -1      2202 1.08555E+02 3.32462E+01 0.00000E+00
 -1      2203 1.06561E+02 3.22342E+01 0.00000E+00
 -1      2204 1.04917E+02 3.09395E+01 0.00000E+00
 -1      2205 1.03428E+02 2.95278E+01 0.00000E+00
 -1      2206 1.02358E+02 2.76863E+01 0.00000E+00
 -1      2207 1.01634E+02 2.73760E+01 0.00000E+00
 -1      2208 1.02046E+02 2.84882E+01 0.00000E+00
 -1      2209 1.01795E+02 2.56446E+01 0.00000E+00
 -1      2210 1.01633E+02 2.36360E+01 0.00000E+00
 -1      2211 1.01831E+02 2.15560E+01 0.00000E+00
 -1      2212 1.02559E+02 1.97306E+01 0.00000E+00
 -1      2213 1.05099E+02 1.64712E+01 0.00000E+00
 -1      2214 1.08623E+02 1.44073E+01 0.00000E+00
 -1      2215 1.12948E+02 1.43721E+01 0.00000E+00
 -1      2216 1.10862E+02 1.41857E+01 0.00000E+00
 -1      2217 1.03673E+02 1.80799E+01 0.00000E+00
 -1      2218 1.07850E+01 5.30525E+00 0.00000E+00
 -1      2219 9.28500E+00 5.30525E+00 0.00000E+00
 -1      2220 6.49500E+00 3.01125E+01 0.00000E+00
 -1      2221 6.49500E+00 3.15875E+01 0.00000E+00
 -1      2222 6.49500E+00 3.30625E+01 0.00000E+00
 -1      2223 6.49500E+00 3.45375E+01 0.00000E+00
 -1      2224 7.79400E+00 3.23250E+01 0.00000E+00
 -1      2225 6.49500E+00 2.42125E+01 0.00000E+00
 -1      2226 6.49500E+00 2.56875E+01 0.00000E+00
 -1      2227 6.49500E+00 2.12625E+01 0.00000E+00
 -1      2228 6.49500E+00 2.27375E+01 0.00000E+00
 -1      2229 7.79400E+00 2.34750E+01 0.00000E+00
 -1      2230 6.49500E+00 1.83625E+01 0.00000E+00
 -1      2231 6.49500E+00 1.98125E+01 0.00000E+00
 -1      2232 7.79400E+00 2.05500E+01 0.00000E+00
 -1      2233 6.49500E+00 1.54125E+01 0.00000E+00
 -1      2234 6.49500E+00 1.68875E+01 0.00000E+00
 -1      2235 7.79400E+00 1.76250E+01 0.00000E+00
 -1      2236 6.49500E+00 1.24625E+01 0.00000E+00
 -1      2237 6.49500E+00 1.39375E+01 0.00000E+00
 -1      2238 7.79400E+00 1.46750E+01 0.00000E+00
 -1      2239 6.49500E+00 9.51250E+00 0.00000E+00
 -1      2240 6.49500E+00 1.09875E+01 0.00000E+00
 -1      2241 7.79400E+00 1.17250E+01 0.00000E+00
 -1      2242 1.37850E+01 5.30525E+00 0.00000E+00
 -1      2243 1.22850E+01 5.30525E+00 0.00000E+00
 -1      2244 1.15350E+01 6.60425E+00 0.00000E+00
 -1      2245 9.90000E+00 4.35050E+01 0.00000E+00
 -1      2246 1.14000E+01 4.35050E+01 0.00000E+00
 -1      2247 1.20736E+02 2.01028E+01 0.00000E+00
 -1      2248 1.21233E+02 2.10872E+01 0.00000E+00
 -1      2249 1.29000E+01 4.35050E+01 0.00000E+00
 -1      2250 1.44000E+01 4.35050E+01 0.00000E+00
 -1      2251 1.21500E+01 4.22060E+01 0.00000E+00
 -1      2252 1.59000E+01 4.35050E+01 0.00000E+00
 -1      2253 1.74000E+01 4.35050E+01 0.00000E+00
 -1      2254 1.51500E+01 4.22060E+01 0.00000E+00
 -1      2255 1.89000E+01 4.35050E+01 0.00000E+00
 -1      2256 2.04000E+01 4.35050E+01 0.00000E+00
 -1      2257 1.81500E+01 4.22060E+01 0.00000E+00
 -1      2258 2.19000E+01 4.35050E+01 0.00000E+00
 -1      2259 2.34000E+01 4.35050E+01 0.00000E+00
 -1      2260 2.11500E+01 4.22060E+01 0.00000E+00
 -1      2261 2.49000E+01 4.35050E+01 0.00000E+00
 -1      2262 2.64000E+01 4.35050E+01 0.00000E+00
 -1      2263 2.41500E+01 4.22060E+01 0.00000E+00
 -1      2264 2.79000E+01 4.35050E+01 0.00000E+00
 -1      2265 2.94000E+01 4.35050E+01 0.00000E+00
 -1      2266 2.71500E+01 4.22060E+01 0.00000E+00
 -1      2267 3.09000E+01 4.35050E+01 0.00000E+00
 -1      2268 3.24000E+01 4.35050E+01 0.00000E+00
 -1      2269 3.01500E+01 4.22060E+01 0.00000E+00
 -1      2270 3.39000E+01 4.35050E+01 0.00000E+00
 -1      2271 3.54000E+01 4.35050E+01 0.00000E+00
 -1      2272 3.31500E+01 4.22060E+01 0.00000E+00
 -1      2273 3.69000E+01 4.35050E+01 0.00000E+00
 -1      2274 3.84000E+01 4.35050E+01 0.00000E+00
 -1      2275 3.61500E+01 4.22060E+01 0.00000E+00
 -1      2276 3.99000E+01 4.35050E+01 0.00000E+00
 -1      2277 4.14000E+01 4.35050E+01 0.00000E+00
 -1      2278 3.91500E+01 4.22060E+01 0.00000E+00
 -1      2279 4.29000E+01 4.35050E+01 0.00000E+00
 -1      2280 4.44000E+01 4.35050E+01 0.00000E+00
 -1      2281 4.21500E+01 4.22060E+01 0.00000E+00
 -1      2282 4.59000E+01 4.35050E+01 0.00000E+00
 -1      2283 4.74000E+01 4.35050E+01 0.00000E+00
 -1      2284 4.51500E+01 4.22060E+01 0.00000E+00
 -1      2285 4.89000E+01 4.35050E+01 0.00000E+00
 -1      2286 5.04000E+01 4.35050E+01 0.00000E+00
 -1      2287 4.81500E+01 4.22060E+01 0.00000E+00
 -1      2288 5.19000E+01 4.35050E+01 0.00000E+00
 -1      2289 5.34000E+01 4.35050E+01 0.00000E+00
 -1      2290 5.11500E+01 4.22060E+01 0.00000E+00
 -1      2291 5.49000E+01 4.35050E+01 0.00000E+00
 -1      2292 5.64000E+01 4.35050E+01 0.00000E+00
 -1      2293 5.41500E+01 4.22060E+01 0.00000E+00
 -1      2294 5.79000E+01 4.35050E+01 0.00000E+00
 -1      2295 5.94000E+01 4.35050E+01 0.00000E+00
 -1      2296 5.71500E+01 4.22060E+01 0.00000E+00
 -1      2297 6.09000E+01 4.35050E+01 0.00000E+00
 -1      2298 6.24000E+01 4.35050E+01 0.00000E+00
 -1      2299 6.01500E+01 4.22060E+01 0.00000E+00
 -1      2300 6.39000E+01 4.35050E+01 0.00000E+00
 -1      2301 6.54000E+01 4.35050E+01 0.00000E+00
 -1      2302 6.31500E+01 4.22060E+01 0.00000E+00
 -1      2303 6.69000E+01 4.35050E+01 0.00000E+00
 -1      2304 6.84000E+01 4.35050E+01 0.00000E+00
 -1      2305 6.61500E+01 4.22060E+01 0.00000E+00
 -1      2306 6.99000E+01 4.35050E+01 0.00000E+00
 -1      2307 7.14000E+01 4.35050E+01 0.00000E+00
 -1      2308 6.91500E+01 4.22060E+01 0.00000E+00
 -1      2309 7.29000E+01 4.35050E+01 0.00000E+00
 -1      2310 7.44000E+01 4.35050E+01 0.00000E+00
 -1      2311 7.21500E+01 4.22060E+01 0.00000E+00
 -1      2312 7.59000E+01 4.35050E+01 0.00000E+00
 -1      2313 7.74000E+01 4.35050E+01 0.00000E+00
 -1      2314 7.51500E+01 4.22060E+01 0.00000E+00
 -1      2315 7.89000E+01 4.35050E+01 0.00000E+00
 -1      2316 8.04000E+01 4.35050E+01 0.00000E+00
 -1      2317 7.81500E+01 4.22060E+01 0.00000E+00
 -1      2318 8.19000E+01 4.35050E+01 0.00000E+00
 -1      2319 8.34000E+01 4.35050E+01 0.00000E+00
 -1      2320 8.11500E+01 4.22060E+01 0.00000E+00
 -1      2321 8.49000E+01 4.35050E+01 0.00000E+00
 -1      2322 8.64000E+01 4.35050E+01 0.00000E+00
 -1      2323 8.41500E+01 4.22060E+01 0.00000E+00
 -1      2324 8.79000E+01 4.35050E+01 0.00000E+00
 -1      2325 8.94000E+01 4.35050E+01 0.00000E+00
 -1      2326 8.71500E+01 4.22060E+01 0.00000E+00
 -1      2327 9.09000E+01 4.35050E+01 0.00000E+00
 -1      2328 9.24000E+01 4.35050E+01 0.00000E+00
 -1      2329 9.01500E+01 4.22060E+01 0.00000E+00
 -1      2330 9.39000E+01 4.35050E+01 0.00000E+00
 -1      2331 9.54000E+01 4.35050E+01 0.00000E+00
 -1      2332 9.31500E+01 4.22060E+01 0.00000E+00
 -1      2333 9.69000E+01 4.35050E+01 0.00000E+00
 -1      2334 9.84000E+01 4.35050E+01 0.00000E+00
 -1      2335 9.61500E+01 4.22060E+01 0.00000E+00
 -1      2336 9.99000E+01 4.35050E+01 0.00000E+00
 -1      2337 1.01400E+02 4.35050E+01 0.00000E+00
 -1      2338 9.91500E+01 4.22060E+01 0.00000E+00
 -1      2339 1.02900E+02 4.35050E+01 0.00000E+00
 -1      2340 1.04400E+02 4.35050E+01 0.00000E+00
 -1      2341 1.02150E+02 4.22060E+01 0.00000E+00
 -1      2342 1.05900E+02 4.35050E+01 0.00000E+00
 -1      2343 1.07400E+02 4.35050E+01 0.00000E+00
 -1      2344 1.05150E+02 4.22060E+01 0.00000E+00
 -1      2345 1.08900E+02 4.35050E+01 0.00000E+00
 -1      2346 1.10400E+02 4.35050E+01 0.00000E+00
 -1      2347 1.08150E+02 4.22060E+01 0.00000E+00
 -1      2348 1.11900E+02 4.35050E+01 0.00000E+00
 -1      2349 1.13400E+02 4.35050E+01 0.00000E+00
 -1      2350 1.11150E+02 4.22060E+01 0.00000E+00
 -1      2351 1.14900E+02 4.35050E+01 0.00000E+00
 -1      2352 1.16400E+02 4.35050E+01 0.00000E+00
 -1      2353 1.14150E+02 4.22060E+01 0.00000E+00
 -1      2354 1.17900E+02 4.35050E+01 0.00000E+00
 -1      2355 1.19400E+02 4.35050E+01 0.00000E+00
 -1      2356 1.17150E+02 4.22060E+01 0.00000E+00
 -1      2357 1.20900E+02 4.35050E+01 0.00000E+00
 -1      2358 1.22400E+02 4.35050E+01 0.00000E+00
 -1      2359 1.20150E+02 4.22060E+01 0.00000E+00
 -1      2360 1.23900E+02 4.35050E+01 0.00000E+00
 -1      2361 1.25400E+02 4.35050E+01 0.00000E+00
 -1      2362 1.23150E+02 4.22060E+01 0.00000E+00
 -1      2363 1.26900E+02 4.35050E+01 0.00000E+00
 -1      2364 1.28400E+02 4.35050E+01 0.00000E+00
 -1      2365 1.26150E+02 4.22060E+01 0.00000E+00
 -1      2366 1.29900E+02 4.35050E+01 0.00000E+00
 -1      2367 1.31400E+02 4.35050E+01 0.00000E+00
 -1      2368 1.29150E+02 4.22060E+01 0.00000E+00
 -1      2369 1.32900E+02 4.35050E+01 0.00000E+00
 -1      2370 1.34400E+02 4.35050E+01 0.00000E+00
 -1      2371 1.32150E+02 4.22060E+01 0.00000E+00
 -1      2372 1.35900E+02 4.35050E+01 0.00000E+00
 -1      2373 1.37400E+02 4.35050E+01 0.00000E+00
 -1      2374 1.35150E+02 4.22060E+01 0.00000E+00
 -1      2375 1.38900E+02 4.35050E+01 0.00000E+00
 -1      2376 1.40400E+02 4.35050E+01 0.00000E+00
 -1      2377 1.38150E+02 4.22060E+01 0.00000E+00
 -1      2378 1.97850E+01 5.30525E+00 0.00000E+00
 -1      2379 1.82850E+01 5.30525E+00 0.00000E+00
 -1      2380 2.27850E+01 5.30525E+00 0.00000E+00
 -1      2381 2.12850E+01 5.30525E+00 0.00000E+00
 -1      2382 2.05350E+01 6.60425E+00 0.00000E+00
 -1      2383 2.57850E+01 5.30525E+00 0.00000E+00
 -1      2384 2.42850E+01 5.30525E+00 0.00000E+00
 -1      2385 2.35350E+01 6.60425E+00 0.00000E+00
 -1      2386 2.87850E+01 5.30525E+00 0.00000E+00
 -1      2387 2.72850E+01 5.30525E+00 0.00000E+00
 -1      2388 2.65350E+01 6.60425E+00 0.00000E+00
 -1      2389 3.17850E+01 5.30525E+00 0.00000E+00
 -1      2390 3.02850E+01 5.30525E+00 0.00000E+00
 -1      2391 2.95350E+01 6.60425E+00 0.00000E+00
 -1      2392 3.47850E+01 5.30525E+00 0.00000E+00
 -1      2393 3.32850E+01 5.30525E+00 0.00000E+00
 -1      2394 3.25350E+01 6.60425E+00 0.00000E+00
 -1      2395 3.77850E+01 5.30525E+00 0.00000E+00
 -1      2396 3.62850E+01 5.30525E+00 0.00000E+00
 -1      2397 3.55350E+01 6.60425E+00 0.00000E+00
 -1      2398 4.07850E+01 5.30525E+00 0.00000E+00
 -1      2399 3.92850E+01 5.30525E+00 0.00000E+00
 -1      2400 3.85350E+01 6.60425E+00 0.00000E+00
 -1      2401 4.37850E+01 5.30525E+00 0.00000E+00
 -1      2402 4.22850E+01 5.30525E+00 0.00000E+00
 -1      2403 4.15350E+01 6.60425E+00 0.00000E+00
 -1      2404 4.67850E+01 5.30525E+00 0.00000E+00
 -1      2405 4.52850E+01 5.30525E+00 0.00000E+00
 -1      2406 4.45350E+01 6.60425E+00 0.00000E+00
 -1      2407 4.97850E+01 5.30525E+00 0.00000E+00
 -1      2408 4.82850E+01 5.30525E+00 0.00000E+00
 -1      2409 4.75350E+01 6.60425E+00 0.00000E+00
 -1      2410 5.27850E+01 5.30525E+00 0.00000E+00
 -1      2411 5.12850E+01 5.30525E+00 0.00000E+00
 -1      2412 5.05350E+01 6.60425E+00 0.00000E+00
 -1      2413 5.57850E+01 5.30525E+00 0.00000E+00
 -1      2414 5.42850E+01 5.30525E+00 0.00000E+00
 -1      2415 5.35350E+01 6.60425E+00 0.00000E+00
 -1      2416 5.87850E+01 5.30525E+00 0.00000E+00
 -1      2417 5.72850E+01 5.30525E+00 0.00000E+00
 -1      2418 5.65350E+01 6.60425E+00 0.00000E+00
 -1      2419 6.17850E+01 5.30525E+00 0.00000E+00
 -1      2420 6.02850E+01 5.30525E+00 0.00000E+00
 -1      2421 5.95350E+01 6.60425E+00 0.00000E+00
 -1      2422 6.47850E+01 5.30525E+00 0.00000E+00
 -1      2423 6.32850E+01 5.30525E+00 0.00000E+00
 -1      2424 6.25350E+01 6.60425E+00 0.00000E+00
 -1      2425 6.77850E+01 5.30525E+00 0.00000E+00
 -1      2426 6.62850E+01 5.30525E+00 0.00000E+00
 -1      2427 6.55350E+01 6.60425E+00 0.00000E+00
 -1      2428 7.07850E+01 5.30525E+00 0.00000E+00
 -1      2429 6.92850E+01 5.30525E+00 0.00000E+00
 -1      2430 6.85350E+01 6.60425E+00 0.00000E+00
 -1      2431 7.37850E+01 5.30525E+00 0.00000E+00
 -1      2432 7.22850E+01 5.30525E+00 0.00000E+00
 -1      2433 7.15350E+01 6.60425E+00 0.00000E+00
 -1      2434 7.67850E+01 5.30525E+00 0.00000E+00
 -1      2435 7.52850E+01 5.30525E+00 0.00000E+00
 -1      2436 7.45350E+01 6.60425E+00 0.00000E+00
 -1      2437 7.97850E+01 5.30525E+00 0.00000E+00
 -1      2438 7.82850E+01 5.30525E+00 0.00000E+00
 -1      2439 7.75350E+01 6.60425E+00 0.00000E+00
 -1      2440 8.27850E+01 5.30525E+00 0.00000E+00
 -1      2441 8.12850E+01 5.30525E+00 0.00000E+00
 -1      2442 8.05350E+01 6.60425E+00 0.00000E+00
 -1      2443 8.57850E+01 5.30525E+00 0.00000E+00
 -1      2444 8.42850E+01 5.30525E+00 0.00000E+00
 -1      2445 8.35350E+01 6.60425E+00 0.00000E+00
 -1      2446 8.87850E+01 5.30525E+00 0.00000E+00
 -1      2447 8.72850E+01 5.30525E+00 0.00000E+00
 -1      2448 8.65350E+01 6.60425E+00 0.00000E+00
 -1      2449 9.17850E+01 5.30525E+00 0.00000E+00
 -1      2450 9.02850E+01 5.30525E+00 0.00000E+00
 -1      2451 8.95350E+01 6.60425E+00 0.00000E+00
 -1      2452 9.47850E+01 5.30525E+00 0.00000E+00
 -1      2453 9.32850E+01 5.30525E+00 0.00000E+00
 -1      2454 9.25350E+01 6.60425E+00 0.00000E+00
 -1      2455 9.77850E+01 5.30525E+00 0.00000E+00
 -1      2456 9.62850E+01 5.30525E+00 0.00000E+00
 -1      2457 9.55350E+01 6.60425E+00 0.00000E+00
 -1      2458 1.00785E+02 5.30525E+00 0.00000E+00
 -1      2459 9.92850E+01 5.30525E+00 0.00000E+00
 -1      2460 9.85350E+01 6.60425E+00 0.00000E+00
 -1      2461 1.03785E+02 5.30525E+00 0.00000E+00
 -1      2462 1.02285E+02 5.30525E+00 0.00000E+00
 -1      2463 1.01535E+02 6.60425E+00 0.00000E+00
 -1      2464 1.06785E+02 5.30525E+00 0.00000E+00
 -1      2465 1.05285E+02 5.30525E+00 0.00000E+00
 -1      2466 1.04535E+02 6.60425E+00 0.00000E+00
 -1      2467 1.09785E+02 5.30525E+00 0.00000E+00
 -1      2468 1.08285E+02 5.30525E+00 0.00000E+00
 -1      2469 1.07535E+02 6.60425E+00 0.00000E+00
 -1      2470 1.12785E+02 5.30525E+00 0.00000E+00
 -1      2471 1.11285E+02 5.30525E+00 0.00000E+00
 -1      2472 1.10535E+02 6.60425E+00 0.00000E+00
 -1      2473 1.15785E+02 5.30525E+00 0.00000E+00
 -1      2474 1.14285E+02 5.30525E+00 0.00000E+00
 -1      2475 1.13535E+02 6.60425E+00 0.00000E+00
 -1      2476 1.18785E+02 5.30525E+00 0.00000E+00
 -1      2477 1.17285E+02 5.30525E+00 0.00000E+00
 -1      2478 1.16535E+02 6.60425E+00 0.00000E+00
 -1      2479 1.21785E+02 5.30525E+00 0.00000E+00
 -1      2480 1.20285E+02 5.30525E+00 0.00000E+00
 -1      2481 1.19535E+02 6.60425E+00 0.00000E+00
 -1      2482 1.24785E+02 5.30525E+00 0.00000E+00
 -1      2483 1.23285E+02 5.30525E+00 0.00000E+00
 -1      2484 1.22535E+02 6.60425E+00 0.00000E+00
 -1      2485 1.27785E+02 5.30525E+00 0.00000E+00
 -1      2486 1.26285E+02 5.30525E+00 0.00000E+00
 -1      2487 1.25535E+02 6.60425E+00 0.00000E+00
 -1      2488 1.30785E+02 5.30525E+00 0.00000E+00
 -1      2489 1.29285E+02 5.30525E+00 0.00000E+00
 -1      2490 1.28535E+02 6.60425E+00 0.00000E+00
 -1      2491 1.33785E+02 5.30525E+00 0.00000E+00
 -1      2492 1.32285E+02 5.30525E+00 0.00000E+00
 -1      2493 1.31535E+02 6.60425E+00 0.00000E+00
 -1      2494 1.36785E+02 5.30525E+00 0.00000E+00
 -1      2495 1.35285E+02 5.30525E+00 0.00000E+00
 -1      2496 1.34535E+02 6.60425E+00 0.00000E+00
 -1      2497 1.39785E+02 5.30525E+00 0.00000E+00
 -1      2498 1.38285E+02 5.30525E+00 0.00000E+00
 -1      2499 1.37535E+02 6.60425E+00 0.00000E+00
 -1      2500 1.42785E+02 5.30525E+00 0.00000E+00
 -1      2501 1.41285E+02 5.30525E+00 0.00000E+00
 -1      2502 1.40535E+02 6.60425E+00 0.00000E+00
 -1      2503 1.44336E+02 5.26953E+00 0.00000E+00
 -1      2504 1.43505E+02 1.69125E+01 0.00000E+00
 -1      2505 1.43505E+02 1.54375E+01 0.00000E+00
 -1      2506 1.43505E+02 1.98625E+01 0.00000E+00
 -1      2507 1.43505E+02 1.83875E+01 0.00000E+00
 -1      2508 1.42206E+02 1.76500E+01 0.00000E+00
 -1      2509 1.43505E+02 1.10625E+01 0.00000E+00
 -1      2510 1.43505E+02 9.58750E+00 0.00000E+00
 -1      2511 1.43505E+02 1.39750E+01 0.00000E+00
 -1      2512 1.43505E+02 1.25250E+01 0.00000E+00
 -1      2513 1.42206E+02 1.17875E+01 0.00000E+00
 -1      2514 1.42206E+02 1.47125E+01 0.00000E+00
 -1      2515 1.43505E+02 2.28125E+01 0.00000E+00
 -1      2516 1.43505E+02 2.13375E+01 0.00000E+00
 -1      2517 1.42206E+02 2.06000E+01 0.00000E+00
 -1      2518 1.43505E+02 2.57625E+01 0.00000E+00
 -1      2519 1.43505E+02 2.42875E+01 0.00000E+00
 -1      2520 1.42206E+02 2.35500E+01 0.00000E+00
 -1      2521 1.43505E+02 2.87125E+01 0.00000E+00
 -1      2522 1.43505E+02 2.72375E+01 0.00000E+00
 -1      2523 1.42206E+02 2.65000E+01 0.00000E+00
 -1      2524 1.43505E+02 3.16125E+01 0.00000E+00
 -1      2525 1.43505E+02 3.01625E+01 0.00000E+00
 -1      2526 1.42206E+02 2.94250E+01 0.00000E+00
 -1      2527 1.43505E+02 3.45625E+01 0.00000E+00
 -1      2528 1.43505E+02 3.30875E+01 0.00000E+00
 -1      2529 1.42206E+02 3.23500E+01 0.00000E+00
 -1      2530 1.43505E+02 3.75125E+01 0.00000E+00
 -1      2531 1.43505E+02 3.60375E+01 0.00000E+00
 -1      2532 1.42206E+02 3.53000E+01 0.00000E+00
 -1      2533 1.43505E+02 4.04625E+01 0.00000E+00
 -1      2534 1.43505E+02 3.89875E+01 0.00000E+00
 -1      2535 1.42206E+02 3.82500E+01 0.00000E+00
 -1      2536 1.21790E+02 2.23760E+01 0.00000E+00
 -1      2537 1.21833E+02 2.33883E+01 0.00000E+00
 -1      2538 1.19939E+02 1.83197E+01 0.00000E+00
 -1      2539 1.20338E+02 1.92113E+01 0.00000E+00
 -1      2540 1.21240E+02 1.93736E+01 0.00000E+00
 -1      2541 1.67850E+01 5.30525E+00 0.00000E+00
 -1      2542 1.52850E+01 5.30525E+00 0.00000E+00
 -1      2543 1.75350E+01 6.60425E+00 0.00000E+00
 -1      2544 1.44321E+02 4.30606E+01 0.00000E+00
 -1      2545 1.21659E+02 2.46004E+01 0.00000E+00
 -1      2546 1.21466E+02 2.56113E+01 0.00000E+00
 -1      2547 1.18727E+02 1.66103E+01 0.00000E+00
 -1      2548 1.19325E+02 1.73054E+01 0.00000E+00
 -1      2549 1.14761E+02 1.38162E+01 0.00000E+00
 -1      2550 1.15661E+02 1.41281E+01 0.00000E+00
 -1      2551 1.21149E+02 2.67349E+01 0.00000E+00
 -1      2552 1.20789E+02 2.76871E+01 0.00000E+00
 -1      2553 1.07777E+02 1.36492E+01 0.00000E+00
 -1      2554 1.09012E+02 1.33394E+01 0.00000E+00
 -1      2555 6.49500E+00 2.71625E+01 0.00000E+00
 -1      2556 6.49500E+00 2.86375E+01 0.00000E+00
 -1      2557 7.79400E+00 2.93750E+01 0.00000E+00
 -1      2558 7.79400E+00 2.64250E+01 0.00000E+00
 -1      2559 1.10435E+02 1.32873E+01 0.00000E+00
 -1      2560 1.11439E+02 1.33755E+01 0.00000E+00
 -1      2561 1.02713E+02 1.80164E+01 0.00000E+00
 -1      2562 1.03308E+02 1.71902E+01 0.00000E+00
 -1      2563 1.12521E+02 1.34738E+01 0.00000E+00
 -1      2564 1.13603E+02 1.35721E+01 0.00000E+00
 -1      2565 1.12094E+02 1.25754E+01 0.00000E+00
 -1      2566 1.05773E+02 1.46626E+01 0.00000E+00
 -1      2567 1.06502E+02 1.41768E+01 0.00000E+00
 -1      2568 1.04110E+02 1.62276E+01 0.00000E+00
 -1      2569 1.04941E+02 1.54451E+01 0.00000E+00
 -1      2570 1.04783E+02 1.44190E+01 0.00000E+00
 -1      2571 1.01644E+02 1.97305E+01 0.00000E+00
 -1      2572 1.02164E+02 1.89059E+01 0.00000E+00
 -1      2573 1.01051E+02 2.19159E+01 0.00000E+00
 -1      2574 1.01260E+02 2.09150E+01 0.00000E+00
 -1      2575 1.00865E+02 2.41830E+01 0.00000E+00
 -1      2576 1.00854E+02 2.31038E+01 0.00000E+00
 -1      2577 1.01148E+02 2.62272E+01 0.00000E+00
 -1      2578 1.00997E+02 2.52977E+01 0.00000E+00
 -1      2579 1.03119E+02 3.04666E+01 0.00000E+00
 -1      2580 1.02462E+02 2.97372E+01 0.00000E+00
 -1      2581 1.04843E+02 3.18790E+01 0.00000E+00
 -1      2582 1.04010E+02 3.11967E+01 0.00000E+00
 -1      2583 1.06451E+02 3.32250E+01 0.00000E+00
 -1      2584 1.05639E+02 3.26126E+01 0.00000E+00
 -1      2585 1.08818E+02 3.44171E+01 0.00000E+00
 -1      2586 1.07636E+02 3.40175E+01 0.00000E+00
 -1      2587 1.11359E+02 3.42671E+01 0.00000E+00
 -1      2588 1.10327E+02 3.43664E+01 0.00000E+00
 -1      2589 1.13247E+02 3.40667E+01 0.00000E+00
 -1      2590 1.12303E+02 3.41669E+01 0.00000E+00
 -1      2591 1.11861E+02 3.49868E+01 0.00000E+00
 -1      2592 1.15613E+02 3.34961E+01 0.00000E+00
 -1      2593 1.14515E+02 3.38710E+01 0.00000E+00
 -1      2594 1.17686E+02 3.22823E+01 0.00000E+00
 -1      2595 1.16813E+02 3.28939E+01 0.00000E+00
 -1      2596 1.19207E+02 3.06478E+01 0.00000E+00
 -1      2597 1.18607E+02 3.14168E+01 0.00000E+00
 -1      2598 1.20324E+02 2.87249E+01 0.00000E+00
 -1      2599 1.19836E+02 2.96629E+01 0.00000E+00
 -1      2600 6.55950E+00 4.28890E+01 0.00000E+00
 -1      2601 8.53650E+00 4.32410E+01 0.00000E+00
 -1      2602 9.28650E+00 4.19420E+01 0.00000E+00
 -1      2603 6.55950E+00 4.14140E+01 0.00000E+00
 -1      2604 8.07525E+00 5.11044E+00 0.00000E+00
 -1      2605 6.57525E+00 5.11044E+00 0.00000E+00
 -1      2606 6.40575E+00 6.01981E+00 0.00000E+00
 -1      2607 8.82525E+00 6.40944E+00 0.00000E+00
 -1      2608 1.06890E+02 1.31089E+01 0.00000E+00
 -1      2609 7.79400E+00 3.52687E+01 0.00000E+00
 -1      2610 6.49500E+00 3.60062E+01 0.00000E+00
 -1      2611 6.49500E+00 3.74750E+01 0.00000E+00
 -1      2612 1.45350E+01 6.60425E+00 0.00000E+00
 -1      2613 6.40575E+00 7.49481E+00 0.00000E+00
 -1      2614 6.52725E+00 3.87101E+01 0.00000E+00
 -1      2615 6.52725E+00 4.01789E+01 0.00000E+00
 -1      2616 7.89075E+00 4.04429E+01 0.00000E+00
 -1      2617 7.82625E+00 3.79726E+01 0.00000E+00
 -1      2618 1.16533E+02 1.40091E+01 0.00000E+00
 -1      2619 1.17404E+02 1.38902E+01 0.00000E+00
 -1      2620 1.16364E+02 1.30429E+01 0.00000E+00
 -1      2621 1.22195E+02 2.15538E+01 0.00000E+00
 -1      2622 1.18593E+02 1.56548E+01 0.00000E+00
 -1      2623 1.21306E+02 2.85520E+01 0.00000E+00
 -1      2624 1.22088E+02 2.63906E+01 0.00000E+00
 -1      2625 1.20212E+02 3.05748E+01 0.00000E+00
 -1      2626 1.43586E+02 6.56853E+00 0.00000E+00
 -1      2627 1.20227E+02 1.74677E+01 0.00000E+00
 -1      2628 1.43419E+02 7.72713E+00 0.00000E+00
 -1      2629 1.18662E+02 3.24251E+01 0.00000E+00
 -1      2630 1.22579E+02 2.40547E+01 0.00000E+00
 -1      2631 1.14073E+02 3.46908E+01 0.00000E+00
 -1      2632 1.42120E+02 8.46463E+00 0.00000E+00
 -1      2633 1.09589E+02 1.25292E+01 0.00000E+00
 -1      2634 1.06713E+02 3.43960E+01 0.00000E+00
 -1      2635 1.04732E+02 3.28698E+01 0.00000E+00
 -1      2636 1.03045E+02 3.14061E+01 0.00000E+00
 -1      2637 1.00836E+02 2.70291E+01 0.00000E+00
 -1      2638 1.00038E+02 2.66822E+01 0.00000E+00
 -1      2639 1.00524E+02 2.78310E+01 0.00000E+00
 -1      2640 1.00218E+02 2.47655E+01 0.00000E+00
 -1      2641 1.00283E+02 2.24628E+01 0.00000E+00
 -1      2642 1.03150E+02 1.61641E+01 0.00000E+00
 -1      2643 1.01738E+02 2.94270E+01 0.00000E+00
 -1      2644 1.01013E+02 2.91167E+01 0.00000E+00
 -1      2645 1.01429E+02 3.03658E+01 0.00000E+00
 -1      2646 1.14334E+02 1.29178E+01 0.00000E+00
 -1      2647 7.70475E+00 8.23231E+00 0.00000E+00
 -1      2648 1.01799E+02 1.80163E+01 0.00000E+00
 -1      2649 1.42758E+02 4.35929E+01 0.00000E+00
 -1      2650 1.43241E+02 4.17323E+01 0.00000E+00
 -1      2651 1.41942E+02 4.09948E+01 0.00000E+00
 -1      2652 1.41414E+02 4.35342E+01 0.00000E+00
 -1      2653 1.00865E+02 2.00903E+01 0.00000E+00
 -1      2654 1.16541E+02 3.38928E+01 0.00000E+00
 -1      2655 1.40664E+02 4.22352E+01 0.00000E+00
 -1      2656 9.09300E+00 1.98250E+01 0.00000E+00
 -1      2657 9.09300E+00 2.12750E+01 0.00000E+00
 -1      2658 9.09300E+00 2.27500E+01 0.00000E+00
 -1      2659 9.09300E+00 2.42250E+01 0.00000E+00
 -1      2660 1.03920E+01 2.20250E+01 0.00000E+00
 -1      2661 9.09300E+00 1.39375E+01 0.00000E+00
 -1      2662 9.09300E+00 1.54125E+01 0.00000E+00
 -1      2663 9.09300E+00 1.09875E+01 0.00000E+00
 -1      2664 9.09300E+00 1.24625E+01 0.00000E+00
 -1      2665 1.03920E+01 1.32000E+01 0.00000E+00
 -1      2666 1.22850E+01 7.90325E+00 0.00000E+00
 -1      2667 1.07850E+01 7.90325E+00 0.00000E+00
 -1      2668 1.00795E+02 1.80101E+01 0.00000E+00
 -1      2669 1.01345E+02 1.71206E+01 0.00000E+00
 -1      2670 8.91450E+00 8.42712E+00 0.00000E+00
 -1      2671 1.44000E+01 4.09070E+01 0.00000E+00
 -1      2672 1.59000E+01 4.09070E+01 0.00000E+00
 -1      2673 1.74000E+01 4.09070E+01 0.00000E+00
 -1      2674 1.89000E+01 4.09070E+01 0.00000E+00
 -1      2675 1.66500E+01 3.96080E+01 0.00000E+00
 -1      2676 2.04000E+01 4.09070E+01 0.00000E+00
 -1      2677 2.19000E+01 4.09070E+01 0.00000E+00
 -1      2678 1.96500E+01 3.96080E+01 0.00000E+00
 -1      2679 2.34000E+01 4.09070E+01 0.00000E+00
 -1      2680 2.49000E+01 4.09070E+01 0.00000E+00
 -1      2681 2.26500E+01 3.96080E+01 0.00000E+00
 -1      2682 2.64000E+01 4.09070E+01 0.00000E+00
 -1      2683 2.79000E+01 4.09070E+01 0.00000E+00
 -1      2684 2.56500E+01 3.96080E+01 0.00000E+00
 -1      2685 2.94000E+01 4.09070E+01 0.00000E+00
 -1      2686 3.09000E+01 4.09070E+01 0.00000E+00
 -1      2687 2.86500E+01 3.96080E+01 0.00000E+00
 -1      2688 3.24000E+01 4.09070E+01 0.00000E+00
 -1      2689 3.39000E+01 4.09070E+01 0.00000E+00
 -1      2690 3.16500E+01 3.96080E+01 0.00000E+00
 -1      2691 3.54000E+01 4.09070E+01 0.00000E+00
 -1      2692 3.69000E+01 4.09070E+01 0.00000E+00
 -1      2693 3.46500E+01 3.96080E+01 0.00000E+00
 -1      2694 3.84000E+01 4.09070E+01 0.00000E+00
 -1      2695 3.99000E+01 4.09070E+01 0.00000E+00
 -1      2696 3.76500E+01 3.96080E+01 0.00000E+00
 -1      2697 4.14000E+01 4.09070E+01 0.00000E+00
 -1      2698 4.29000E+01 4.09070E+01 0.00000E+00
 -1      2699 4.06500E+01 3.96080E+01 0.00000E+00
 -1      2700 4.44000E+01 4.09070E+01 0.00000E+00
 -1      2701 4.59000E+01 4.09070E+01 0.00000E+00
 -1      2702 4.36500E+01 3.96080E+01 0.00000E+00
 -1      2703 4.74000E+01 4.09070E+01 0.00000E+00
 -1      2704 4.89000E+01 4.09070E+01 0.00000E+00
 -1      2705 4.66500E+01 3.96080E+01 0.00000E+00
 -1      2706 5.04000E+01 4.09070E+01 0.00000E+00
 -1      2707 5.19000E+01 4.09070E+01 0.00000E+00
 -1      2708 4.96500E+01 3.96080E+01 0.00000E+00
 -1      2709 5.34000E+01 4.09070E+01 0.00000E+00
 -1      2710 5.49000E+01 4.09070E+01 0.00000E+00
 -1      2711 5.26500E+01 3.96080E+01 0.00000E+00
 -1      2712 5.64000E+01 4.09070E+01 0.00000E+00
 -1      2713 5.79000E+01 4.09070E+01 0.00000E+00
 -1      2714 5.56500E+01 3.96080E+01 0.00000E+00
 -1      2715 5.94000E+01 4.09070E+01 0.00000E+00
 -1      2716 6.09000E+01 4.09070E+01 0.00000E+00
 -1      2717 5.86500E+01 3.96080E+01 0.00000E+00
 -1      2718 6.24000E+01 4.09070E+01 0.00000E+00
 -1      2719 6.39000E+01 4.09070E+01 0.00000E+00
 -1      2720 6.16500E+01 3.96080E+01 0.00000E+00
 -1      2721 6.54000E+01 4.09070E+01 0.00000E+00
 -1      2722 6.69000E+01 4.09070E+01 0.00000E+00
 -1      2723 6.46500E+01 3.96080E+01 0.00000E+00
 -1      2724 6.84000E+01 4.09070E+01 0.00000E+00
 -1      2725 6.99000E+01 4.09070E+01 0.00000E+00
 -1      2726 6.76500E+01 3.96080E+01 0.00000E+00
 -1      2727 7.14000E+01 4.09070E+01 0.00000E+00
 -1      2728 7.29000E+01 4.09070E+01 0.00000E+00
 -1      2729 7.06500E+01 3.96080E+01 0.00000E+00
 -1      2730 7.44000E+01 4.09070E+01 0.00000E+00
 -1      2731 7.59000E+01 4.09070E+01 0.00000E+00
 -1      2732 7.36500E+01 3.96080E+01 0.00000E+00
 -1      2733 7.74000E+01 4.09070E+01 0.00000E+00
 -1      2734 7.89000E+01 4.09070E+01 0.00000E+00
 -1      2735 7.66500E+01 3.96080E+01 0.00000E+00
 -1      2736 8.04000E+01 4.09070E+01 0.00000E+00
 -1      2737 8.19000E+01 4.09070E+01 0.00000E+00
 -1      2738 7.96500E+01 3.96080E+01 0.00000E+00
 -1      2739 8.34000E+01 4.09070E+01 0.00000E+00
 -1      2740 8.49000E+01 4.09070E+01 0.00000E+00
 -1      2741 8.26500E+01 3.96080E+01 0.00000E+00
 -1      2742 8.64000E+01 4.09070E+01 0.00000E+00
 -1      2743 8.79000E+01 4.09070E+01 0.00000E+00
 -1      2744 8.56500E+01 3.96080E+01 0.00000E+00
 -1      2745 8.94000E+01 4.09070E+01 0.00000E+00
 -1      2746 9.09000E+01 4.09070E+01 0.00000E+00
 -1      2747 8.86500E+01 3.96080E+01 0.00000E+00
 -1      2748 9.24000E+01 4.09070E+01 0.00000E+00
 -1      2749 9.39000E+01 4.09070E+01 0.00000E+00
 -1      2750 9.16500E+01 3.96080E+01 0.00000E+00
 -1      2751 9.54000E+01 4.09070E+01 0.00000E+00
 -1      2752 9.69000E+01 4.09070E+01 0.00000E+00
 -1      2753 9.46500E+01 3.96080E+01 0.00000E+00
 -1      2754 9.84000E+01 4.09070E+01 0.00000E+00
 -1      2755 9.99000E+01 4.09070E+01 0.00000E+00
 -1      2756 9.76500E+01 3.96080E+01 0.00000E+00
 -1      2757 1.01400E+02 4.09070E+01 0.00000E+00
 -1      2758 1.02900E+02 4.09070E+01 0.00000E+00
 -1      2759 1.00650E+02 3.96080E+01 0.00000E+00
 -1      2760 1.04400E+02 4.09070E+01 0.00000E+00
 -1      2761 1.05900E+02 4.09070E+01 0.00000E+00
 -1      2762 1.03650E+02 3.96080E+01 0.00000E+00
 -1      2763 1.07400E+02 4.09070E+01 0.00000E+00
 -1      2764 1.08900E+02 4.09070E+01 0.00000E+00
 -1      2765 1.06650E+02 3.96080E+01 0.00000E+00
 -1      2766 1.10400E+02 4.09070E+01 0.00000E+00
 -1      2767 1.11900E+02 4.09070E+01 0.00000E+00
 -1      2768 1.09650E+02 3.96080E+01 0.00000E+00
 -1      2769 1.13400E+02 4.09070E+01 0.00000E+00
 -1      2770 1.14900E+02 4.09070E+01 0.00000E+00
 -1      2771 1.12650E+02 3.96080E+01 0.00000E+00
 -1      2772 1.16400E+02 4.09070E+01 0.00000E+00
 -1      2773 1.17900E+02 4.09070E+01 0.00000E+00
 -1      2774 1.15650E+02 3.96080E+01 0.00000E+00
 -1      2775 1.19400E+02 4.09070E+01 0.00000E+00
 -1      2776 1.20900E+02 4.09070E+01 0.00000E+00
 -1      2777 1.18650E+02 3.96080E+01 0.00000E+00
 -1      2778 1.22400E+02 4.09070E+01 0.00000E+00
 -1      2779 1.23900E+02 4.09070E+01 0.00000E+00
 -1      2780 1.21650E+02 3.96080E+01 0.00000E+00
 -1      2781 1.25400E+02 4.09070E+01 0.00000E+00
 -1      2782 1.26900E+02 4.09070E+01 0.00000E+00
 -1      2783 1.24650E+02 3.96080E+01 0.00000E+00
 -1      2784 1.28400E+02 4.09070E+01 0.00000E+00
 -1      2785 1.29900E+02 4.09070E+01 0.00000E+00
 -1      2786 1.27650E+02 3.96080E+01 0.00000E+00
 -1      2787 1.31400E+02 4.09070E+01 0.00000E+00
 -1      2788 1.32900E+02 4.09070E+01 0.00000E+00
 -1      2789 1.30650E+02 3.96080E+01 0.00000E+00
 -1      2790 1.34400E+02 4.09070E+01 0.00000E+00
 -1      2791 1.35900E+02 4.09070E+01 0.00000E+00
 -1      2792 1.33650E+02 3.96080E+01 0.00000E+00
 -1      2793 1.37400E+02 4.09070E+01 0.00000E+00
 -1      2794 1.38900E+02 4.09070E+01 0.00000E+00
 -1      2795 1.36650E+02 3.96080E+01 0.00000E+00
 -1      2796 2.42850E+01 7.90325E+00 0.00000E+00
 -1      2797 2.27850E+01 7.90325E+00 0.00000E+00
 -1      2798 9.98965E+01 2.04307E+01 0.00000E+00
 -1      2799 1.00281E+02 1.92462E+01 0.00000E+00
 -1      2800 2.12850E+01 7.90325E+00 0.00000E+00
 -1      2801 1.97850E+01 7.90325E+00 0.00000E+00
 -1      2802 2.20350E+01 9.20225E+00 0.00000E+00
 -1      2803 3.02850E+01 7.90325E+00 0.00000E+00
 -1      2804 2.87850E+01 7.90325E+00 0.00000E+00
 -1      2805 3.32850E+01 7.90325E+00 0.00000E+00
 -1      2806 3.17850E+01 7.90325E+00 0.00000E+00
 -1      2807 3.10350E+01 9.20225E+00 0.00000E+00
 -1      2808 3.62850E+01 7.90325E+00 0.00000E+00
 -1      2809 3.47850E+01 7.90325E+00 0.00000E+00
 -1      2810 3.40350E+01 9.20225E+00 0.00000E+00
 -1      2811 3.92850E+01 7.90325E+00 0.00000E+00
 -1      2812 3.77850E+01 7.90325E+00 0.00000E+00
 -1      2813 3.70350E+01 9.20225E+00 0.00000E+00
 -1      2814 4.22850E+01 7.90325E+00 0.00000E+00
 -1      2815 4.07850E+01 7.90325E+00 0.00000E+00
 -1      2816 4.00350E+01 9.20225E+00 0.00000E+00
 -1      2817 4.52850E+01 7.90325E+00 0.00000E+00
 -1      2818 4.37850E+01 7.90325E+00 0.00000E+00
 -1      2819 4.30350E+01 9.20225E+00 0.00000E+00
 -1      2820 4.82850E+01 7.90325E+00 0.00000E+00
 -1      2821 4.67850E+01 7.90325E+00 0.00000E+00
 -1      2822 4.60350E+01 9.20225E+00 0.00000E+00
 -1      2823 5.12850E+01 7.90325E+00 0.00000E+00
 -1      2824 4.97850E+01 7.90325E+00 0.00000E+00
 -1      2825 4.90350E+01 9.20225E+00 0.00000E+00
 -1      2826 5.42850E+01 7.90325E+00 0.00000E+00
 -1      2827 5.27850E+01 7.90325E+00 0.00000E+00
 -1      2828 5.20350E+01 9.20225E+00 0.00000E+00
 -1      2829 5.72850E+01 7.90325E+00 0.00000E+00
 -1      2830 5.57850E+01 7.90325E+00 0.00000E+00
 -1      2831 5.50350E+01 9.20225E+00 0.00000E+00
 -1      2832 6.02850E+01 7.90325E+00 0.00000E+00
 -1      2833 5.87850E+01 7.90325E+00 0.00000E+00
 -1      2834 5.80350E+01 9.20225E+00 0.00000E+00
 -1      2835 6.32850E+01 7.90325E+00 0.00000E+00
 -1      2836 6.17850E+01 7.90325E+00 0.00000E+00
 -1      2837 6.10350E+01 9.20225E+00 0.00000E+00
 -1      2838 6.62850E+01 7.90325E+00 0.00000E+00
 -1      2839 6.47850E+01 7.90325E+00 0.00000E+00
 -1      2840 6.40350E+01 9.20225E+00 0.00000E+00
 -1      2841 6.92850E+01 7.90325E+00 0.00000E+00
 -1      2842 6.77850E+01 7.90325E+00 0.00000E+00
 -1      2843 6.70350E+01 9.20225E+00 0.00000E+00
 -1      2844 7.22850E+01 7.90325E+00 0.00000E+00
 -1      2845 7.07850E+01 7.90325E+00 0.00000E+00
 -1      2846 7.00350E+01 9.20225E+00 0.00000E+00
 -1      2847 7.52850E+01 7.90325E+00 0.00000E+00
 -1      2848 7.37850E+01 7.90325E+00 0.00000E+00
 -1      2849 7.30350E+01 9.20225E+00 0.00000E+00
 -1      2850 7.82850E+01 7.90325E+00 0.00000E+00
 -1      2851 7.67850E+01 7.90325E+00 0.00000E+00
 -1      2852 7.60350E+01 9.20225E+00 0.00000E+00
 -1      2853 8.12850E+01 7.90325E+00 0.00000E+00
 -1      2854 7.97850E+01 7.90325E+00 0.00000E+00
 -1      2855 7.90350E+01 9.20225E+00 0.00000E+00
 -1      2856 8.42850E+01 7.90325E+00 0.00000E+00
 -1      2857 8.27850E+01 7.90325E+00 0.00000E+00
 -1      2858 8.20350E+01 9.20225E+00 0.00000E+00
 -1      2859 8.72850E+01 7.90325E+00 0.00000E+00
 -1      2860 8.57850E+01 7.90325E+00 0.00000E+00
 -1      2861 8.50350E+01 9.20225E+00 0.00000E+00
 -1      2862 9.02850E+01 7.90325E+00 0.00000E+00
 -1      2863 8.87850E+01 7.90325E+00 0.00000E+00
 -1      2864 8.80350E+01 9.20225E+00 0.00000E+00
 -1      2865 9.32850E+01 7.90325E+00 0.00000E+00
 -1      2866 9.17850E+01 7.90325E+00 0.00000E+00
 -1      2867 9.10350E+01 9.20225E+00 0.00000E+00
 -1      2868 9.62850E+01 7.90325E+00 0.00000E+00
 -1      2869 9.47850E+01 7.90325E+00 0.00000E+00
 -1      2870 9.40350E+01 9.20225E+00 0.00000E+00
 -1      2871 9.92850E+01 7.90325E+00 0.00000E+00
 -1      2872 9.77850E+01 7.90325E+00 0.00000E+00
 -1      2873 9.70350E+01 9.20225E+00 0.00000E+00
 -1      2874 1.02285E+02 7.90325E+00 0.00000E+00
 -1      2875 1.00785E+02 7.90325E+00 0.00000E+00
 -1      2876 1.00035E+02 9.20225E+00 0.00000E+00
 -1      2877 1.05285E+02 7.90325E+00 0.00000E+00
 -1      2878 1.03785E+02 7.90325E+00 0.00000E+00
 -1      2879 1.03035E+02 9.20225E+00 0.00000E+00
 -1      2880 1.08285E+02 7.90325E+00 0.00000E+00
 -1      2881 1.06785E+02 7.90325E+00 0.00000E+00
 -1      2882 1.06035E+02 9.20225E+00 0.00000E+00
 -1      2883 1.11285E+02 7.90325E+00 0.00000E+00
 -1      2884 1.09785E+02 7.90325E+00 0.00000E+00
 -1      2885 1.09035E+02 9.20225E+00 0.00000E+00
 -1      2886 1.14285E+02 7.90325E+00 0.00000E+00
 -1      2887 1.12785E+02 7.90325E+00 0.00000E+00
 -1      2888 1.12035E+02 9.20225E+00 0.00000E+00
 -1      2889 1.17285E+02 7.90325E+00 0.00000E+00
 -1      2890 1.15785E+02 7.90325E+00 0.00000E+00
 -1      2891 1.15035E+02 9.20225E+00 0.00000E+00
 -1      2892 1.20285E+02 7.90325E+00 0.00000E+00
 -1      2893 1.18785E+02 7.90325E+00 0.00000E+00
 -1      2894 1.18035E+02 9.20225E+00 0.00000E+00
 -1      2895 1.23285E+02 7.90325E+00 0.00000E+00
 -1      2896 1.21785E+02 7.90325E+00 0.00000E+00
 -1      2897 1.21035E+02 9.20225E+00 0.00000E+00
 -1      2898 1.26285E+02 7.90325E+00 0.00000E+00
 -1      2899 1.24785E+02 7.90325E+00 0.00000E+00
 -1      2900 1.24035E+02 9.20225E+00 0.00000E+00
 -1      2901 1.29285E+02 7.90325E+00 0.00000E+00
 -1      2902 1.27785E+02 7.90325E+00 0.00000E+00
 -1      2903 1.27035E+02 9.20225E+00 0.00000E+00
 -1      2904 1.32285E+02 7.90325E+00 0.00000E+00
 -1      2905 1.30785E+02 7.90325E+00 0.00000E+00
 -1      2906 1.30035E+02 9.20225E+00 0.00000E+00
 -1      2907 1.35285E+02 7.90325E+00 0.00000E+00
 -1      2908 1.33785E+02 7.90325E+00 0.00000E+00
 -1      2909 1.33035E+02 9.20225E+00 0.00000E+00
 -1      2910 1.38285E+02 7.90325E+00 0.00000E+00
 -1      2911 1.36785E+02 7.90325E+00 0.00000E+00
 -1      2912 1.36035E+02 9.20225E+00 0.00000E+00
 -1      2913 1.40953E+02 8.18394E+00 0.00000E+00
 -1      2914 1.39453E+02 8.18394E+00 0.00000E+00
 -1      2915 1.38703E+02 9.48294E+00 0.00000E+00
 -1      2916 1.41038E+02 1.00443E+01 0.00000E+00
 -1      2917 1.20654E+02 1.65164E+01 0.00000E+00
 -1      2918 1.21268E+02 1.75307E+01 0.00000E+00
 -1      2919 1.40907E+02 2.42875E+01 0.00000E+00
 -1      2920 1.40907E+02 2.28125E+01 0.00000E+00
 -1      2921 1.09350E+02 1.08917E+01 0.00000E+00
 -1      2922 1.10774E+02 1.08397E+01 0.00000E+00
 -1      2923 1.40907E+02 1.83875E+01 0.00000E+00
 -1      2924 1.40907E+02 1.69125E+01 0.00000E+00
 -1      2925 1.40907E+02 2.72375E+01 0.00000E+00
 -1      2926 1.40907E+02 2.57625E+01 0.00000E+00
 -1      2927 1.39608E+02 2.50250E+01 0.00000E+00
 -1      2928 1.40907E+02 2.13375E+01 0.00000E+00
 -1      2929 1.40907E+02 1.98625E+01 0.00000E+00
 -1      2930 1.39608E+02 1.91250E+01 0.00000E+00
 -1      2931 1.39608E+02 2.20750E+01 0.00000E+00
 -1      2932 1.40907E+02 3.01375E+01 0.00000E+00
 -1      2933 1.40907E+02 2.86875E+01 0.00000E+00
 -1      2934 1.39608E+02 2.79500E+01 0.00000E+00
 -1      2935 1.40907E+02 3.30875E+01 0.00000E+00
 -1      2936 1.40907E+02 3.16125E+01 0.00000E+00
 -1      2937 1.39608E+02 3.08750E+01 0.00000E+00
 -1      2938 1.40907E+02 3.60375E+01 0.00000E+00
 -1      2939 1.40907E+02 3.45625E+01 0.00000E+00
 -1      2940 1.39608E+02 3.38250E+01 0.00000E+00
 -1      2941 1.18715E+02 1.44485E+01 0.00000E+00
 -1      2942 1.19735E+02 1.52469E+01 0.00000E+00
 -1      2943 1.21900E+02 1.85437E+01 0.00000E+00
 -1      2944 1.22298E+02 1.94352E+01 0.00000E+00
 -1      2945 1.82850E+01 7.90325E+00 0.00000E+00
 -1      2946 1.67850E+01 7.90325E+00 0.00000E+00
 -1      2947 1.90350E+01 9.20225E+00 0.00000E+00
 -1      2948 1.22321E+02 2.83841E+01 0.00000E+00
 -1      2949 1.21856E+02 2.94219E+01 0.00000E+00
 -1      2950 1.09828E+02 3.46884E+01 0.00000E+00
 -1      2951 1.08909E+02 3.54597E+01 0.00000E+00
 -1      2952 1.14851E+02 3.55233E+01 0.00000E+00
 -1      2953 1.13583E+02 3.57190E+01 0.00000E+00
 -1      2954 1.22855E+02 2.07240E+01 0.00000E+00
 -1      2955 1.23412E+02 2.20127E+01 0.00000E+00
 -1      2956 1.23515E+02 1.98941E+01 0.00000E+00
 -1      2957 1.23153E+02 2.60841E+01 0.00000E+00
 -1      2958 1.22836E+02 2.72078E+01 0.00000E+00
 -1      2959 1.10419E+02 3.54090E+01 0.00000E+00
 -1      2960 1.09192E+02 3.64236E+01 0.00000E+00
 -1      2961 1.08181E+02 3.61523E+01 0.00000E+00
 -1      2962 1.11224E+02 3.61090E+01 0.00000E+00
 -1      2963 1.10726E+02 3.64311E+01 0.00000E+00
 -1      2964 1.21320E+02 3.05886E+01 0.00000E+00
 -1      2965 1.20691E+02 3.15736E+01 0.00000E+00
 -1      2966 2.72850E+01 7.90325E+00 0.00000E+00
 -1      2967 2.57850E+01 7.90325E+00 0.00000E+00
 -1      2968 2.50350E+01 9.20225E+00 0.00000E+00
 -1      2969 2.80350E+01 9.20225E+00 0.00000E+00
 -1      2970 1.14000E+01 4.09070E+01 0.00000E+00
 -1      2971 1.29000E+01 4.09070E+01 0.00000E+00
 -1      2972 1.36500E+01 3.96080E+01 0.00000E+00
 -1      2973 9.09300E+00 1.68813E+01 0.00000E+00
 -1      2974 9.09300E+00 1.83563E+01 0.00000E+00
 -1      2975 1.03920E+01 1.90812E+01 0.00000E+00
 -1      2976 1.03920E+01 1.61437E+01 0.00000E+00
 -1      2977 1.52850E+01 7.90325E+00 0.00000E+00
 -1      2978 1.37850E+01 7.90325E+00 0.00000E+00
 -1      2979 1.30350E+01 9.20225E+00 0.00000E+00
 -1      2980 1.60350E+01 9.20225E+00 0.00000E+00
 -1      2981 9.09300E+00 3.15875E+01 0.00000E+00
 -1      2982 9.09300E+00 3.30625E+01 0.00000E+00
 -1      2983 1.06783E+02 3.55746E+01 0.00000E+00
 -1      2984 1.05598E+02 3.47822E+01 0.00000E+00
 -1      2985 1.40928E+02 4.09655E+01 0.00000E+00
 -1      2986 1.41192E+02 3.96958E+01 0.00000E+00
 -1      2987 1.39914E+02 4.09362E+01 0.00000E+00
 -1      2988 1.03608E+02 1.40026E+01 0.00000E+00
 -1      2989 1.04439E+02 1.32201E+01 0.00000E+00
 -1      2990 1.05861E+02 1.24255E+01 0.00000E+00
 -1      2991 1.07136E+02 1.18978E+01 0.00000E+00
 -1      2992 1.17601E+02 3.45079E+01 0.00000E+00
 -1      2993 1.16401E+02 3.51102E+01 0.00000E+00
 -1      2994 1.02005E+02 1.59278E+01 0.00000E+00
 -1      2995 1.02806E+02 1.49652E+01 0.00000E+00
 -1      2996 1.02462E+02 1.37663E+01 0.00000E+00
 -1      2997 9.92556E+01 2.29027E+01 0.00000E+00
 -1      2998 9.94528E+01 2.17147E+01 0.00000E+00
 -1      2999 1.13950E+02 1.18747E+01 0.00000E+00
 -1      3000 1.15107E+02 1.21188E+01 0.00000E+00
 -1      3001 9.95158E+01 2.54141E+01 0.00000E+00
 -1      3002 9.93834E+01 2.42994E+01 0.00000E+00
 -1      3003 1.02841E+02 3.25641E+01 0.00000E+00
 -1      3004 1.01950E+02 3.18341E+01 0.00000E+00
 -1      3005 1.04433E+02 3.40315E+01 0.00000E+00
 -1      3006 1.03637E+02 3.32978E+01 0.00000E+00
 -1      3007 1.02542E+02 3.37258E+01 0.00000E+00
 -1      3008 1.12168E+02 3.60089E+01 0.00000E+00
 -1      3009 1.23763E+02 2.36059E+01 0.00000E+00
 -1      3010 1.23590E+02 2.48180E+01 0.00000E+00
 -1      3011 1.19768E+02 3.26785E+01 0.00000E+00
 -1      3012 1.18846E+02 3.35439E+01 0.00000E+00
 -1      3013 8.96362E+00 4.05429E+01 0.00000E+00
 -1      3014 1.03271E+01 4.08069E+01 0.00000E+00
 -1      3015 1.10771E+01 3.95079E+01 0.00000E+00
 -1      3016 8.93137E+00 3.93078E+01 0.00000E+00
 -1      3017 9.09300E+00 3.45313E+01 0.00000E+00
 -1      3018 9.09300E+00 3.60000E+01 0.00000E+00
 -1      3019 1.03920E+01 3.37938E+01 0.00000E+00
 -1      3020 1.03920E+01 2.49750E+01 0.00000E+00
 -1      3021 9.09300E+00 2.57000E+01 0.00000E+00
 -1      3022 9.09300E+00 2.71750E+01 0.00000E+00
 -1      3023 1.01001E+02 1.59217E+01 0.00000E+00
 -1      3024 9.66450E+00 9.72612E+00 0.00000E+00
 -1      3025 1.04502E+02 3.52102E+01 0.00000E+00
 -1      3026 1.12946E+02 3.68413E+01 0.00000E+00
 -1      3027 1.39164E+02 3.96372E+01 0.00000E+00
 -1      3028 9.98266E+01 1.83505E+01 0.00000E+00
 -1      3029 1.22335E+02 3.04207E+01 0.00000E+00
 -1      3030 9.92034E+01 2.62160E+01 0.00000E+00
 -1      3031 9.83689E+01 2.57499E+01 0.00000E+00
 -1      3032 9.88910E+01 2.70179E+01 0.00000E+00
 -1      3033 1.20776E+02 1.53100E+01 0.00000E+00
 -1      3034 1.41038E+02 1.15068E+01 0.00000E+00
 -1      3035 1.39870E+02 1.12261E+01 0.00000E+00
 -1      3036 1.41038E+02 1.29693E+01 0.00000E+00
 -1      3037 1.12274E+02 1.08397E+01 0.00000E+00
 -1      3038 1.22326E+02 1.75924E+01 0.00000E+00
 -1      3039 1.09635E+01 1.04636E+01 0.00000E+00
 -1      3040 1.18706E+02 3.47612E+01 0.00000E+00
 -1      3041 1.18546E+02 1.34823E+01 0.00000E+00
 -1      3042 1.41192E+02 3.82207E+01 0.00000E+00
 -1      3043 1.23386E+02 2.80777E+01 0.00000E+00
 -1      3044 1.24337E+02 2.56352E+01 0.00000E+00
 -1      3045 1.09998E+02 3.71237E+01 0.00000E+00
 -1      3046 1.20875E+02 3.26923E+01 0.00000E+00
 -1      3047 1.15911E+02 3.61384E+01 0.00000E+00
 -1      3048 1.00215E+02 2.87698E+01 0.00000E+00
 -1      3049 9.94172E+01 2.84229E+01 0.00000E+00
 -1      3050 9.99070E+01 2.97086E+01 0.00000E+00
 -1      3051 1.01225E+02 3.15238E+01 0.00000E+00
 -1      3052 1.00501E+02 3.12135E+01 0.00000E+00
 -1      3053 1.01021E+02 3.26818E+01 0.00000E+00
 -1      3054 1.13356E+02 1.09380E+01 0.00000E+00
 -1      3055 1.39529E+02 3.85602E+01 0.00000E+00
 -1      3056 1.40542E+02 3.71145E+01 0.00000E+00
 -1      3057 1.39243E+02 3.63770E+01 0.00000E+00
 -1      3058 1.38514E+02 3.85310E+01 0.00000E+00
 -1      3059 1.40973E+02 1.56722E+01 0.00000E+00
 -1      3060 1.40973E+02 1.42097E+01 0.00000E+00
 -1      3061 1.39805E+02 1.39290E+01 0.00000E+00
 -1      3062 1.39674E+02 1.64097E+01 0.00000E+00
 -1      3063 1.04685E+02 1.20091E+01 0.00000E+00
 -1      3064 9.88693E+01 2.08706E+01 0.00000E+00
 -1      3065 9.09300E+00 2.86437E+01 0.00000E+00
 -1      3066 9.09300E+00 3.01187E+01 0.00000E+00
 -1      3067 1.03920E+01 3.08563E+01 0.00000E+00
 -1      3068 1.03920E+01 2.79188E+01 0.00000E+00
 -1      3069 1.07066E+02 3.65385E+01 0.00000E+00
 -1      3070 9.85534E+01 2.35513E+01 0.00000E+00
 -1      3071 1.04529E+02 3.64471E+01 0.00000E+00
 -1      3072 1.03365E+02 3.56964E+01 0.00000E+00
 -1      3073 1.16910E+01 1.24625E+01 0.00000E+00
 -1      3074 1.16910E+01 1.39375E+01 0.00000E+00
 -1      3075 8.99606E+00 3.70363E+01 0.00000E+00
 -1      3076 9.02831E+00 3.82715E+01 0.00000E+00
 -1      3077 1.01012E+01 3.83715E+01 0.00000E+00
 -1      3078 1.02951E+01 3.62988E+01 0.00000E+00
 -1      3079 1.15800E+02 1.21697E+01 0.00000E+00
 -1      3080 1.16672E+02 1.20508E+01 0.00000E+00
 -1      3081 1.15416E+02 1.11266E+01 0.00000E+00
 -1      3082 1.89000E+01 3.83090E+01 0.00000E+00
 -1      3083 2.04000E+01 3.83090E+01 0.00000E+00
 -1      3084 2.19000E+01 3.83090E+01 0.00000E+00
 -1      3085 2.34000E+01 3.83090E+01 0.00000E+00
 -1      3086 2.11500E+01 3.70100E+01 0.00000E+00
 -1      3087 2.49000E+01 3.83090E+01 0.00000E+00
 -1      3088 2.64000E+01 3.83090E+01 0.00000E+00
 -1      3089 2.41500E+01 3.70100E+01 0.00000E+00
 -1      3090 2.79000E+01 3.83090E+01 0.00000E+00
 -1      3091 2.94000E+01 3.83090E+01 0.00000E+00
 -1      3092 2.71500E+01 3.70100E+01 0.00000E+00
 -1      3093 3.09000E+01 3.83090E+01 0.00000E+00
 -1      3094 3.24000E+01 3.83090E+01 0.00000E+00
 -1      3095 3.01500E+01 3.70100E+01 0.00000E+00
 -1      3096 3.39000E+01 3.83090E+01 0.00000E+00
 -1      3097 3.54000E+01 3.83090E+01 0.00000E+00
 -1      3098 3.31500E+01 3.70100E+01 0.00000E+00
 -1      3099 3.69000E+01 3.83090E+01 0.00000E+00
 -1      3100 3.84000E+01 3.83090E+01 0.00000E+00
 -1      3101 3.61500E+01 3.70100E+01 0.00000E+00
 -1      3102 3.99000E+01 3.83090E+01 0.00000E+00
 -1      3103 4.14000E+01 3.83090E+01 0.00000E+00
 -1      3104 3.91500E+01 3.70100E+01 0.00000E+00
 -1      3105 4.29000E+01 3.83090E+01 0.00000E+00
 -1      3106 4.44000E+01 3.83090E+01 0.00000E+00
 -1      3107 4.21500E+01 3.70100E+01 0.00000E+00
 -1      3108 4.59000E+01 3.83090E+01 0.00000E+00
 -1      3109 4.74000E+01 3.83090E+01 0.00000E+00
 -1      3110 4.51500E+01 3.70100E+01 0.00000E+00
 -1      3111 4.89000E+01 3.83090E+01 0.00000E+00
 -1      3112 5.04000E+01 3.83090E+01 0.00000E+00
 -1      3113 4.81500E+01 3.70100E+01 0.00000E+00
 -1      3114 5.19000E+01 3.83090E+01 0.00000E+00
 -1      3115 5.34000E+01 3.83090E+01 0.00000E+00
 -1      3116 5.11500E+01 3.70100E+01 0.00000E+00
 -1      3117 5.49000E+01 3.83090E+01 0.00000E+00
 -1      3118 5.64000E+01 3.83090E+01 0.00000E+00
 -1      3119 5.41500E+01 3.70100E+01 0.00000E+00
 -1      3120 5.79000E+01 3.83090E+01 0.00000E+00
 -1      3121 5.94000E+01 3.83090E+01 0.00000E+00
 -1      3122 5.71500E+01 3.70100E+01 0.00000E+00
 -1      3123 6.09000E+01 3.83090E+01 0.00000E+00
 -1      3124 6.24000E+01 3.83090E+01 0.00000E+00
 -1      3125 6.01500E+01 3.70100E+01 0.00000E+00
 -1      3126 6.39000E+01 3.83090E+01 0.00000E+00
 -1      3127 6.54000E+01 3.83090E+01 0.00000E+00
 -1      3128 6.31500E+01 3.70100E+01 0.00000E+00
 -1      3129 6.69000E+01 3.83090E+01 0.00000E+00
 -1      3130 6.84000E+01 3.83090E+01 0.00000E+00
 -1      3131 6.61500E+01 3.70100E+01 0.00000E+00
 -1      3132 6.99000E+01 3.83090E+01 0.00000E+00
 -1      3133 7.14000E+01 3.83090E+01 0.00000E+00
 -1      3134 6.91500E+01 3.70100E+01 0.00000E+00
 -1      3135 7.29000E+01 3.83090E+01 0.00000E+00
 -1      3136 7.44000E+01 3.83090E+01 0.00000E+00
 -1      3137 7.21500E+01 3.70100E+01 0.00000E+00
 -1      3138 7.59000E+01 3.83090E+01 0.00000E+00
 -1      3139 7.74000E+01 3.83090E+01 0.00000E+00
 -1      3140 7.51500E+01 3.70100E+01 0.00000E+00
 -1      3141 7.89000E+01 3.83090E+01 0.00000E+00
 -1      3142 8.04000E+01 3.83090E+01 0.00000E+00
 -1      3143 7.81500E+01 3.70100E+01 0.00000E+00
 -1      3144 8.19000E+01 3.83090E+01 0.00000E+00
 -1      3145 8.34000E+01 3.83090E+01 0.00000E+00
 -1      3146 8.11500E+01 3.70100E+01 0.00000E+00
 -1      3147 8.49000E+01 3.83090E+01 0.00000E+00
 -1      3148 8.64000E+01 3.83090E+01 0.00000E+00
 -1      3149 8.41500E+01 3.70100E+01 0.00000E+00
 -1      3150 8.79000E+01 3.83090E+01 0.00000E+00
 -1      3151 8.94000E+01 3.83090E+01 0.00000E+00
 -1      3152 8.71500E+01 3.70100E+01 0.00000E+00
 -1      3153 9.09000E+01 3.83090E+01 0.00000E+00
 -1      3154 9.24000E+01 3.83090E+01 0.00000E+00
 -1      3155 9.01500E+01 3.70100E+01 0.00000E+00
 -1      3156 9.39000E+01 3.83090E+01 0.00000E+00
 -1      3157 9.54000E+01 3.83090E+01 0.00000E+00
 -1      3158 9.31500E+01 3.70100E+01 0.00000E+00
 -1      3159 9.69000E+01 3.83090E+01 0.00000E+00
 -1      3160 9.84000E+01 3.83090E+01 0.00000E+00
 -1      3161 9.61500E+01 3.70100E+01 0.00000E+00
 -1      3162 1.02771E+02 3.82706E+01 0.00000E+00
 -1      3163 1.04271E+02 3.82706E+01 0.00000E+00
 -1      3164 1.06807E+02 3.83621E+01 0.00000E+00
 -1      3165 1.08307E+02 3.83621E+01 0.00000E+00
 -1      3166 1.09807E+02 3.83621E+01 0.00000E+00
 -1      3167 1.11341E+02 3.83696E+01 0.00000E+00
 -1      3168 1.12841E+02 3.83696E+01 0.00000E+00
 -1      3169 1.14255E+02 3.80797E+01 0.00000E+00
 -1      3170 1.15755E+02 3.80797E+01 0.00000E+00
 -1      3171 1.17900E+02 3.83090E+01 0.00000E+00
 -1      3172 1.19400E+02 3.83090E+01 0.00000E+00
 -1      3173 1.20900E+02 3.83090E+01 0.00000E+00
 -1      3174 1.22400E+02 3.83090E+01 0.00000E+00
 -1      3175 1.20150E+02 3.70100E+01 0.00000E+00
 -1      3176 1.23900E+02 3.83090E+01 0.00000E+00
 -1      3177 1.25400E+02 3.83090E+01 0.00000E+00
 -1      3178 1.23150E+02 3.70100E+01 0.00000E+00
 -1      3179 1.26900E+02 3.83090E+01 0.00000E+00
 -1      3180 1.28400E+02 3.83090E+01 0.00000E+00
 -1      3181 1.26150E+02 3.70100E+01 0.00000E+00
 -1      3182 1.29900E+02 3.83090E+01 0.00000E+00
 -1      3183 1.31400E+02 3.83090E+01 0.00000E+00
 -1      3184 1.29150E+02 3.70100E+01 0.00000E+00
 -1      3185 1.32900E+02 3.83090E+01 0.00000E+00
 -1      3186 1.34400E+02 3.83090E+01 0.00000E+00
 -1      3187 1.32150E+02 3.70100E+01 0.00000E+00
 -1      3188 1.35707E+02 3.84200E+01 0.00000E+00
 -1      3189 1.37207E+02 3.84200E+01 0.00000E+00
 -1      3190 1.37572E+02 3.73430E+01 0.00000E+00
 -1      3191 1.34957E+02 3.71210E+01 0.00000E+00
 -1      3192 3.47850E+01 1.05013E+01 0.00000E+00
 -1      3193 3.32850E+01 1.05013E+01 0.00000E+00
 -1      3194 3.17850E+01 1.05013E+01 0.00000E+00
 -1      3195 3.02850E+01 1.05013E+01 0.00000E+00
 -1      3196 3.25350E+01 1.18003E+01 0.00000E+00
 -1      3197 4.07850E+01 1.05013E+01 0.00000E+00
 -1      3198 3.92850E+01 1.05013E+01 0.00000E+00
 -1      3199 4.37850E+01 1.05013E+01 0.00000E+00
 -1      3200 4.22850E+01 1.05013E+01 0.00000E+00
 -1      3201 4.15350E+01 1.18003E+01 0.00000E+00
 -1      3202 4.67850E+01 1.05013E+01 0.00000E+00
 -1      3203 4.52850E+01 1.05013E+01 0.00000E+00
 -1      3204 4.45350E+01 1.18003E+01 0.00000E+00
 -1      3205 4.97850E+01 1.05013E+01 0.00000E+00
 -1      3206 4.82850E+01 1.05013E+01 0.00000E+00
 -1      3207 4.75350E+01 1.18003E+01 0.00000E+00
 -1      3208 5.27850E+01 1.05013E+01 0.00000E+00
 -1      3209 5.12850E+01 1.05013E+01 0.00000E+00
 -1      3210 5.05350E+01 1.18003E+01 0.00000E+00
 -1      3211 5.57850E+01 1.05013E+01 0.00000E+00
 -1      3212 5.42850E+01 1.05013E+01 0.00000E+00
 -1      3213 5.35350E+01 1.18003E+01 0.00000E+00
 -1      3214 5.87850E+01 1.05013E+01 0.00000E+00
 -1      3215 5.72850E+01 1.05013E+01 0.00000E+00
 -1      3216 5.65350E+01 1.18003E+01 0.00000E+00
 -1      3217 6.17850E+01 1.05013E+01 0.00000E+00
 -1      3218 6.02850E+01 1.05013E+01 0.00000E+00
 -1      3219 5.95350E+01 1.18003E+01 0.00000E+00
 -1      3220 6.47850E+01 1.05013E+01 0.00000E+00
 -1      3221 6.32850E+01 1.05013E+01 0.00000E+00
 -1      3222 6.25350E+01 1.18003E+01 0.00000E+00
 -1      3223 6.77850E+01 1.05013E+01 0.00000E+00
 -1      3224 6.62850E+01 1.05013E+01 0.00000E+00
 -1      3225 6.55350E+01 1.18003E+01 0.00000E+00
 -1      3226 7.07850E+01 1.05013E+01 0.00000E+00
 -1      3227 6.92850E+01 1.05013E+01 0.00000E+00
 -1      3228 6.85350E+01 1.18003E+01 0.00000E+00
 -1      3229 7.37850E+01 1.05013E+01 0.00000E+00
 -1      3230 7.22850E+01 1.05013E+01 0.00000E+00
 -1      3231 7.15350E+01 1.18003E+01 0.00000E+00
 -1      3232 7.67850E+01 1.05013E+01 0.00000E+00
 -1      3233 7.52850E+01 1.05013E+01 0.00000E+00
 -1      3234 7.45350E+01 1.18003E+01 0.00000E+00
 -1      3235 7.97850E+01 1.05013E+01 0.00000E+00
 -1      3236 7.82850E+01 1.05013E+01 0.00000E+00
 -1      3237 7.75350E+01 1.18003E+01 0.00000E+00
 -1      3238 8.27850E+01 1.05013E+01 0.00000E+00
 -1      3239 8.12850E+01 1.05013E+01 0.00000E+00
 -1      3240 8.05350E+01 1.18003E+01 0.00000E+00
 -1      3241 8.57850E+01 1.05013E+01 0.00000E+00
 -1      3242 8.42850E+01 1.05013E+01 0.00000E+00
 -1      3243 8.35350E+01 1.18003E+01 0.00000E+00
 -1      3244 8.87850E+01 1.05013E+01 0.00000E+00
 -1      3245 8.72850E+01 1.05013E+01 0.00000E+00
 -1      3246 8.65350E+01 1.18003E+01 0.00000E+00
 -1      3247 9.17850E+01 1.05013E+01 0.00000E+00
 -1      3248 9.02850E+01 1.05013E+01 0.00000E+00
 -1      3249 8.95350E+01 1.18003E+01 0.00000E+00
 -1      3250 9.47850E+01 1.05013E+01 0.00000E+00
 -1      3251 9.32850E+01 1.05013E+01 0.00000E+00
 -1      3252 9.25350E+01 1.18003E+01 0.00000E+00
 -1      3253 9.77850E+01 1.05013E+01 0.00000E+00
 -1      3254 9.62850E+01 1.05013E+01 0.00000E+00
 -1      3255 9.55350E+01 1.18003E+01 0.00000E+00
 -1      3256 1.00785E+02 1.05013E+01 0.00000E+00
 -1      3257 9.92850E+01 1.05013E+01 0.00000E+00
 -1      3258 9.85350E+01 1.18003E+01 0.00000E+00
 -1      3259 1.06821E+02 1.02083E+01 0.00000E+00
 -1      3260 1.05321E+02 1.02083E+01 0.00000E+00
 -1      3261 1.22880E+02 1.65432E+01 0.00000E+00
 -1      3262 1.23512E+02 1.75561E+01 0.00000E+00
 -1      3263 1.16322E+02 1.01899E+01 0.00000E+00
 -1      3264 1.14822E+02 1.01899E+01 0.00000E+00
 -1      3265 1.19322E+02 1.01899E+01 0.00000E+00
 -1      3266 1.17822E+02 1.01899E+01 0.00000E+00
 -1      3267 1.17609E+02 1.11775E+01 0.00000E+00
 -1      3268 1.22322E+02 1.01899E+01 0.00000E+00
 -1      3269 1.20822E+02 1.01899E+01 0.00000E+00
 -1      3270 1.20609E+02 1.11775E+01 0.00000E+00
 -1      3271 1.25322E+02 1.01899E+01 0.00000E+00
 -1      3272 1.23822E+02 1.01899E+01 0.00000E+00
 -1      3273 1.23609E+02 1.11775E+01 0.00000E+00
 -1      3274 1.28322E+02 1.01899E+01 0.00000E+00
 -1      3275 1.26822E+02 1.01899E+01 0.00000E+00
 -1      3276 1.26609E+02 1.11775E+01 0.00000E+00
 -1      3277 1.31322E+02 1.01899E+01 0.00000E+00
 -1      3278 1.29822E+02 1.01899E+01 0.00000E+00
 -1      3279 1.29609E+02 1.11775E+01 0.00000E+00
 -1      3280 1.34322E+02 1.01899E+01 0.00000E+00
 -1      3281 1.32822E+02 1.01899E+01 0.00000E+00
 -1      3282 1.32609E+02 1.11775E+01 0.00000E+00
 -1      3283 1.38703E+02 1.09454E+01 0.00000E+00
 -1      3284 1.37535E+02 1.06648E+01 0.00000E+00
 -1      3285 1.38703E+02 1.24079E+01 0.00000E+00
 -1      3286 1.38309E+02 2.86750E+01 0.00000E+00
 -1      3287 1.38309E+02 2.72250E+01 0.00000E+00
 -1      3288 1.03899E+02 1.10030E+01 0.00000E+00
 -1      3289 1.38309E+02 2.57500E+01 0.00000E+00
 -1      3290 1.38309E+02 2.42750E+01 0.00000E+00
 -1      3291 1.37010E+02 2.64750E+01 0.00000E+00
 -1      3292 1.23534E+02 3.02653E+01 0.00000E+00
 -1      3293 1.22999E+02 3.14320E+01 0.00000E+00
 -1      3294 1.26488E+01 1.02017E+01 0.00000E+00
 -1      3295 1.20772E+01 1.14631E+01 0.00000E+00
 -1      3296 1.33763E+01 1.22006E+01 0.00000E+00
 -1      3297 1.41488E+01 1.02017E+01 0.00000E+00
 -1      3298 1.25604E+02 2.53639E+01 0.00000E+00
 -1      3299 1.25167E+02 2.66300E+01 0.00000E+00
 -1      3300 1.24414E+02 2.21316E+01 0.00000E+00
 -1      3301 1.23753E+02 2.29615E+01 0.00000E+00
 -1      3302 1.24255E+02 1.88097E+01 0.00000E+00
 -1      3303 1.24812E+02 2.00985E+01 0.00000E+00
 -1      3304 1.22252E+02 3.29049E+01 0.00000E+00
 -1      3305 1.21328E+02 3.40098E+01 0.00000E+00
 -1      3306 1.97850E+01 1.05013E+01 0.00000E+00
 -1      3307 1.82850E+01 1.05013E+01 0.00000E+00
 -1      3308 1.38309E+02 3.16250E+01 0.00000E+00
 -1      3309 1.38309E+02 3.01500E+01 0.00000E+00
 -1      3310 1.37010E+02 2.94250E+01 0.00000E+00
 -1      3311 1.38309E+02 3.45750E+01 0.00000E+00
 -1      3312 1.38309E+02 3.31000E+01 0.00000E+00
 -1      3313 1.37010E+02 3.23750E+01 0.00000E+00
 -1      3314 1.07850E+02 1.08917E+01 0.00000E+00
 -1      3315 9.96269E+01 1.59404E+01 0.00000E+00
 -1      3316 1.00287E+02 1.47476E+01 0.00000E+00
 -1      3317 3.77850E+01 1.05013E+01 0.00000E+00
 -1      3318 3.62850E+01 1.05013E+01 0.00000E+00
 -1      3319 3.55350E+01 1.18003E+01 0.00000E+00
 -1      3320 3.85350E+01 1.18003E+01 0.00000E+00
 -1      3321 2.27850E+01 1.05013E+01 0.00000E+00
 -1      3322 2.12850E+01 1.05013E+01 0.00000E+00
 -1      3323 2.05350E+01 1.18003E+01 0.00000E+00
 -1      3324 9.85998E+01 1.84125E+01 0.00000E+00
 -1      3325 9.91134E+01 1.71764E+01 0.00000E+00
 -1      3326 9.84001E+01 1.60024E+01 0.00000E+00
 -1      3327 1.18172E+02 1.20508E+01 0.00000E+00
 -1      3328 1.24564E+02 2.79126E+01 0.00000E+00
 -1      3329 1.24049E+02 2.90889E+01 0.00000E+00
 -1      3330 1.24713E+02 3.01002E+01 0.00000E+00
 -1      3331 1.29000E+01 3.83090E+01 0.00000E+00
 -1      3332 1.44000E+01 3.83090E+01 0.00000E+00
 -1      3333 1.59000E+01 3.83090E+01 0.00000E+00
 -1      3334 1.74000E+01 3.83090E+01 0.00000E+00
 -1      3335 1.81500E+01 3.70100E+01 0.00000E+00
 -1      3336 1.00848E+02 1.32646E+01 0.00000E+00
 -1      3337 1.01649E+02 1.23020E+01 0.00000E+00
 -1      3338 1.21043E+02 1.40043E+01 0.00000E+00
 -1      3339 1.21961E+02 1.52738E+01 0.00000E+00
 -1      3340 1.23147E+02 1.52375E+01 0.00000E+00
 -1      3341 1.02245E+02 3.48465E+01 0.00000E+00
 -1      3342 1.01449E+02 3.41129E+01 0.00000E+00
 -1      3343 9.75965E+01 2.43431E+01 0.00000E+00
 -1      3344 9.74686E+01 2.29464E+01 0.00000E+00
 -1      3345 1.24764E+02 2.37248E+01 0.00000E+00
 -1      3346 1.16910E+01 2.12875E+01 0.00000E+00
 -1      3347 1.16910E+01 2.27625E+01 0.00000E+00
 -1      3348 9.77577E+01 2.12051E+01 0.00000E+00
 -1      3349 9.82015E+01 1.99211E+01 0.00000E+00
 -1      3350 1.19483E+02 1.26090E+01 0.00000E+00
 -1      3351 1.02399E+02 1.10030E+01 0.00000E+00
 -1      3352 1.25050E+02 2.13672E+01 0.00000E+00
 -1      3353 1.25391E+02 2.23160E+01 0.00000E+00
 -1      3354 1.25701E+02 2.33884E+01 0.00000E+00
 -1      3355 1.25710E+02 2.40327E+01 0.00000E+00
 -1      3356 1.16910E+01 2.42375E+01 0.00000E+00
 -1      3357 1.16910E+01 2.57125E+01 0.00000E+00
 -1      3358 1.29900E+01 2.35000E+01 0.00000E+00
 -1      3359 1.29900E+01 1.46687E+01 0.00000E+00
 -1      3360 1.16910E+01 1.54063E+01 0.00000E+00
 -1      3361 1.16910E+01 1.68750E+01 0.00000E+00
 -1      3362 1.16910E+01 1.83469E+01 0.00000E+00
 -1      3363 1.16910E+01 1.98156E+01 0.00000E+00
 -1      3364 1.29900E+01 2.05531E+01 0.00000E+00
 -1      3365 1.29900E+01 1.76094E+01 0.00000E+00
 -1      3366 1.26337E+02 2.26239E+01 0.00000E+00
 -1      3367 1.25831E+02 2.76412E+01 0.00000E+00
 -1      3368 1.05408E+02 3.77844E+01 0.00000E+00
 -1      3369 1.01697E+02 3.83209E+01 0.00000E+00
 -1      3370 1.02318E+02 3.69835E+01 0.00000E+00
 -1      3371 1.02291E+02 3.57466E+01 0.00000E+00
 -1      3372 1.00197E+02 3.83209E+01 0.00000E+00
 -1      3373 9.74882E+01 1.87470E+01 0.00000E+00
 -1      3374 1.22178E+02 3.56162E+01 0.00000E+00
 -1      3375 1.20801E+02 3.54036E+01 0.00000E+00
 -1      3376 1.23452E+02 3.27494E+01 0.00000E+00
 -1      3377 1.17305E+02 3.76666E+01 0.00000E+00
 -1      3378 1.16910E+01 3.30594E+01 0.00000E+00
 -1      3379 1.16910E+01 3.45281E+01 0.00000E+00
 -1      3380 9.85827E+01 2.79567E+01 0.00000E+00
 -1      3381 9.77481E+01 2.74906E+01 0.00000E+00
 -1      3382 9.82743E+01 2.88955E+01 0.00000E+00
 -1      3383 2.95350E+01 1.18003E+01 0.00000E+00
 -1      3384 2.87850E+01 1.05013E+01 0.00000E+00
 -1      3385 2.72850E+01 1.05013E+01 0.00000E+00
 -1      3386 1.37010E+02 2.35250E+01 0.00000E+00
 -1      3387 1.38309E+02 2.28000E+01 0.00000E+00
 -1      3388 1.38309E+02 2.13250E+01 0.00000E+00
 -1      3389 1.26540E+02 2.50275E+01 0.00000E+00
 -1      3390 1.51500E+01 3.70100E+01 0.00000E+00
 -1      3391 1.24808E+02 1.77605E+01 0.00000E+00
 -1      3392 9.94743E+01 1.32833E+01 0.00000E+00
 -1      3393 1.36035E+02 1.06648E+01 0.00000E+00
 -1      3394 1.38309E+02 1.98500E+01 0.00000E+00
 -1      3395 1.38309E+02 1.83750E+01 0.00000E+00
 -1      3396 1.37010E+02 2.05750E+01 0.00000E+00
 -1      3397 1.25789E+02 2.02828E+01 0.00000E+00
 -1      3398 1.37758E+02 3.64975E+01 0.00000E+00
 -1      3399 1.38123E+02 3.54205E+01 0.00000E+00
 -1      3400 1.36824E+02 3.46955E+01 0.00000E+00
 -1      3401 1.36451E+02 3.63865E+01 0.00000E+00
 -1      3402 9.94470E+01 3.70219E+01 0.00000E+00
 -1      3403 1.16910E+01 3.15906E+01 0.00000E+00
 -1      3404 1.29900E+01 3.23250E+01 0.00000E+00
 -1      3405 1.16910E+01 3.01219E+01 0.00000E+00
 -1      3406 1.37076E+02 1.78597E+01 0.00000E+00
 -1      3407 1.38375E+02 1.71347E+01 0.00000E+00
 -1      3408 1.38440E+02 1.58943E+01 0.00000E+00
 -1      3409 9.69717E+01 2.59469E+01 0.00000E+00
 -1      3410 9.72841E+01 2.51450E+01 0.00000E+00
 -1      3411 9.61993E+01 2.45401E+01 0.00000E+00
 -1      3412 9.97030E+01 3.08666E+01 0.00000E+00
 -1      3413 9.89048E+01 3.05197E+01 0.00000E+00
 -1      3414 9.94989E+01 3.20247E+01 0.00000E+00
 -1      3415 1.00725E+02 3.38026E+01 0.00000E+00
 -1      3416 1.00001E+02 3.34923E+01 0.00000E+00
 -1      3417 1.00428E+02 3.49234E+01 0.00000E+00
 -1      3418 2.42850E+01 1.05013E+01 0.00000E+00
 -1      3419 2.35350E+01 1.18003E+01 0.00000E+00
 -1      3420 2.57850E+01 1.05013E+01 0.00000E+00
 -1      3421 9.68008E+01 2.19969E+01 0.00000E+00
 -1      3422 9.61330E+01 2.10474E+01 0.00000E+00
 -1      3423 9.58439E+01 2.27887E+01 0.00000E+00
 -1      3424 1.69669E+01 1.03515E+01 0.00000E+00
 -1      3425 1.54669E+01 1.03515E+01 0.00000E+00
 -1      3426 1.50806E+01 1.13509E+01 0.00000E+00
 -1      3427 1.77169E+01 1.16505E+01 0.00000E+00
 -1      3428 1.20983E+02 1.26090E+01 0.00000E+00
 -1      3429 1.22169E+02 1.25728E+01 0.00000E+00
 -1      3430 1.19956E+02 3.50899E+01 0.00000E+00
 -1      3431 1.18711E+02 3.60539E+01 0.00000E+00
 -1      3432 1.11741E+01 3.84716E+01 0.00000E+00
 -1      3433 1.19241E+01 3.71726E+01 0.00000E+00
 -1      3434 1.20210E+01 3.61362E+01 0.00000E+00
 -1      3435 2.04000E+01 3.57110E+01 0.00000E+00
 -1      3436 2.19000E+01 3.57110E+01 0.00000E+00
 -1      3437 2.34000E+01 3.57110E+01 0.00000E+00
 -1      3438 2.49000E+01 3.57110E+01 0.00000E+00
 -1      3439 2.26500E+01 3.44120E+01 0.00000E+00
 -1      3440 2.64000E+01 3.57110E+01 0.00000E+00
 -1      3441 2.79000E+01 3.57110E+01 0.00000E+00
 -1      3442 2.56500E+01 3.44120E+01 0.00000E+00
 -1      3443 2.94000E+01 3.57110E+01 0.00000E+00
 -1      3444 3.09000E+01 3.57110E+01 0.00000E+00
 -1      3445 2.86500E+01 3.44120E+01 0.00000E+00
 -1      3446 3.24000E+01 3.57110E+01 0.00000E+00
 -1      3447 3.39000E+01 3.57110E+01 0.00000E+00
 -1      3448 3.16500E+01 3.44120E+01 0.00000E+00
 -1      3449 3.54000E+01 3.57110E+01 0.00000E+00
 -1      3450 3.69000E+01 3.57110E+01 0.00000E+00
 -1      3451 3.46500E+01 3.44120E+01 0.00000E+00
 -1      3452 3.84000E+01 3.57110E+01 0.00000E+00
 -1      3453 3.99000E+01 3.57110E+01 0.00000E+00
 -1      3454 3.76500E+01 3.44120E+01 0.00000E+00
 -1      3455 4.14000E+01 3.57110E+01 0.00000E+00
 -1      3456 4.29000E+01 3.57110E+01 0.00000E+00
 -1      3457 4.06500E+01 3.44120E+01 0.00000E+00
 -1      3458 4.44000E+01 3.57110E+01 0.00000E+00
 -1      3459 4.59000E+01 3.57110E+01 0.00000E+00
 -1      3460 4.36500E+01 3.44120E+01 0.00000E+00
 -1      3461 4.74000E+01 3.57110E+01 0.00000E+00
 -1      3462 4.89000E+01 3.57110E+01 0.00000E+00
 -1      3463 4.66500E+01 3.44120E+01 0.00000E+00
 -1      3464 5.04000E+01 3.57110E+01 0.00000E+00
 -1      3465 5.19000E+01 3.57110E+01 0.00000E+00
 -1      3466 4.96500E+01 3.44120E+01 0.00000E+00
 -1      3467 5.34000E+01 3.57110E+01 0.00000E+00
 -1      3468 5.49000E+01 3.57110E+01 0.00000E+00
 -1      3469 5.26500E+01 3.44120E+01 0.00000E+00
 -1      3470 5.64000E+01 3.57110E+01 0.00000E+00
 -1      3471 5.79000E+01 3.57110E+01 0.00000E+00
 -1      3472 5.56500E+01 3.44120E+01 0.00000E+00
 -1      3473 5.94000E+01 3.57110E+01 0.00000E+00
 -1      3474 6.09000E+01 3.57110E+01 0.00000E+00
 -1      3475 5.86500E+01 3.44120E+01 0.00000E+00
 -1      3476 6.24000E+01 3.57110E+01 0.00000E+00
 -1      3477 6.39000E+01 3.57110E+01 0.00000E+00
 -1      3478 6.16500E+01 3.44120E+01 0.00000E+00
 -1      3479 6.54000E+01 3.57110E+01 0.00000E+00
 -1      3480 6.69000E+01 3.57110E+01 0.00000E+00
 -1      3481 6.46500E+01 3.44120E+01 0.00000E+00
 -1      3482 6.84000E+01 3.57110E+01 0.00000E+00
 -1      3483 6.99000E+01 3.57110E+01 0.00000E+00
 -1      3484 6.76500E+01 3.44120E+01 0.00000E+00
 -1      3485 7.14000E+01 3.57110E+01 0.00000E+00
 -1      3486 7.29000E+01 3.57110E+01 0.00000E+00
 -1      3487 7.06500E+01 3.44120E+01 0.00000E+00
 -1      3488 7.44000E+01 3.57110E+01 0.00000E+00
 -1      3489 7.59000E+01 3.57110E+01 0.00000E+00
 -1      3490 7.36500E+01 3.44120E+01 0.00000E+00
 -1      3491 7.74000E+01 3.57110E+01 0.00000E+00
 -1      3492 7.89000E+01 3.57110E+01 0.00000E+00
 -1      3493 7.66500E+01 3.44120E+01 0.00000E+00
 -1      3494 8.04000E+01 3.57110E+01 0.00000E+00
 -1      3495 8.19000E+01 3.57110E+01 0.00000E+00
 -1      3496 7.96500E+01 3.44120E+01 0.00000E+00
 -1      3497 8.34000E+01 3.57110E+01 0.00000E+00
 -1      3498 8.49000E+01 3.57110E+01 0.00000E+00
 -1      3499 8.26500E+01 3.44120E+01 0.00000E+00
 -1      3500 8.64000E+01 3.57110E+01 0.00000E+00
 -1      3501 8.79000E+01 3.57110E+01 0.00000E+00
 -1      3502 8.56500E+01 3.44120E+01 0.00000E+00
 -1      3503 8.94000E+01 3.57110E+01 0.00000E+00
 -1      3504 9.09000E+01 3.57110E+01 0.00000E+00
 -1      3505 8.86500E+01 3.44120E+01 0.00000E+00
 -1      3506 9.24000E+01 3.57110E+01 0.00000E+00
 -1      3507 9.39000E+01 3.57110E+01 0.00000E+00
 -1      3508 9.16500E+01 3.44120E+01 0.00000E+00
 -1      3509 9.54000E+01 3.57110E+01 0.00000E+00
 -1      3510 9.69000E+01 3.57110E+01 0.00000E+00
 -1      3511 9.46500E+01 3.44120E+01 0.00000E+00
 -1      3512 9.61359E+01 1.91968E+01 0.00000E+00
 -1      3513 9.65342E+01 1.76882E+01 0.00000E+00
 -1      3514 1.23678E+02 3.56162E+01 0.00000E+00
 -1      3515 1.25170E+02 3.26703E+01 0.00000E+00
 -1      3516 1.24424E+02 3.41432E+01 0.00000E+00
 -1      3517 1.25396E+02 3.55371E+01 0.00000E+00
 -1      3518 2.12850E+01 1.30992E+01 0.00000E+00
 -1      3519 1.97850E+01 1.30992E+01 0.00000E+00
 -1      3520 1.26896E+02 3.55371E+01 0.00000E+00
 -1      3521 1.28396E+02 3.55371E+01 0.00000E+00
 -1      3522 1.29896E+02 3.55371E+01 0.00000E+00
 -1      3523 1.27643E+02 3.40641E+01 0.00000E+00
 -1      3524 1.31396E+02 3.55371E+01 0.00000E+00
 -1      3525 1.32896E+02 3.55371E+01 0.00000E+00
 -1      3526 1.30643E+02 3.40641E+01 0.00000E+00
 -1      3527 3.32850E+01 1.30992E+01 0.00000E+00
 -1      3528 3.17850E+01 1.30992E+01 0.00000E+00
 -1      3529 4.52850E+01 1.30992E+01 0.00000E+00
 -1      3530 4.37850E+01 1.30992E+01 0.00000E+00
 -1      3531 4.22850E+01 1.30992E+01 0.00000E+00
 -1      3532 4.07850E+01 1.30992E+01 0.00000E+00
 -1      3533 4.30350E+01 1.43982E+01 0.00000E+00
 -1      3534 5.12850E+01 1.30992E+01 0.00000E+00
 -1      3535 4.97850E+01 1.30992E+01 0.00000E+00
 -1      3536 5.42850E+01 1.30992E+01 0.00000E+00
 -1      3537 5.27850E+01 1.30992E+01 0.00000E+00
 -1      3538 5.20350E+01 1.43982E+01 0.00000E+00
 -1      3539 5.72850E+01 1.30992E+01 0.00000E+00
 -1      3540 5.57850E+01 1.30992E+01 0.00000E+00
 -1      3541 5.50350E+01 1.43982E+01 0.00000E+00
 -1      3542 6.02850E+01 1.30992E+01 0.00000E+00
 -1      3543 5.87850E+01 1.30992E+01 0.00000E+00
 -1      3544 5.80350E+01 1.43982E+01 0.00000E+00
 -1      3545 6.32850E+01 1.30992E+01 0.00000E+00
 -1      3546 6.17850E+01 1.30992E+01 0.00000E+00
 -1      3547 6.10350E+01 1.43982E+01 0.00000E+00
 -1      3548 6.62850E+01 1.30992E+01 0.00000E+00
 -1      3549 6.47850E+01 1.30992E+01 0.00000E+00
 -1      3550 6.40350E+01 1.43982E+01 0.00000E+00
 -1      3551 6.92850E+01 1.30992E+01 0.00000E+00
 -1      3552 6.77850E+01 1.30992E+01 0.00000E+00
 -1      3553 6.70350E+01 1.43982E+01 0.00000E+00
 -1      3554 7.22850E+01 1.30992E+01 0.00000E+00
 -1      3555 7.07850E+01 1.30992E+01 0.00000E+00
 -1      3556 7.00350E+01 1.43982E+01 0.00000E+00
 -1      3557 7.52850E+01 1.30992E+01 0.00000E+00
 -1      3558 7.37850E+01 1.30992E+01 0.00000E+00
 -1      3559 7.30350E+01 1.43982E+01 0.00000E+00
 -1      3560 7.82850E+01 1.30992E+01 0.00000E+00
 -1      3561 7.67850E+01 1.30992E+01 0.00000E+00
 -1      3562 7.60350E+01 1.43982E+01 0.00000E+00
 -1      3563 8.12850E+01 1.30992E+01 0.00000E+00
 -1      3564 7.97850E+01 1.30992E+01 0.00000E+00
 -1      3565 7.90350E+01 1.43982E+01 0.00000E+00
 -1      3566 8.42850E+01 1.30992E+01 0.00000E+00
 -1      3567 8.27850E+01 1.30992E+01 0.00000E+00
 -1      3568 8.20350E+01 1.43982E+01 0.00000E+00
 -1      3569 8.72850E+01 1.30992E+01 0.00000E+00
 -1      3570 8.57850E+01 1.30992E+01 0.00000E+00
 -1      3571 8.50350E+01 1.43982E+01 0.00000E+00
 -1      3572 9.02850E+01 1.30992E+01 0.00000E+00
 -1      3573 8.87850E+01 1.30992E+01 0.00000E+00
 -1      3574 8.80350E+01 1.43982E+01 0.00000E+00
 -1      3575 9.32850E+01 1.30992E+01 0.00000E+00
 -1      3576 9.17850E+01 1.30992E+01 0.00000E+00
 -1      3577 9.10350E+01 1.43982E+01 0.00000E+00
 -1      3578 9.62850E+01 1.30992E+01 0.00000E+00
 -1      3579 9.47850E+01 1.30992E+01 0.00000E+00
 -1      3580 9.40350E+01 1.43982E+01 0.00000E+00
 -1      3581 9.79743E+01 1.32833E+01 0.00000E+00
 -1      3582 1.27136E+02 2.74717E+01 0.00000E+00
 -1      3583 1.26533E+02 2.87544E+01 0.00000E+00
 -1      3584 1.26018E+02 2.99307E+01 0.00000E+00
 -1      3585 1.25503E+02 3.11070E+01 0.00000E+00
 -1      3586 1.27323E+02 2.97612E+01 0.00000E+00
 -1      3587 1.27359E+02 1.24765E+01 0.00000E+00
 -1      3588 1.25859E+02 1.24765E+01 0.00000E+00
 -1      3589 1.30359E+02 1.24765E+01 0.00000E+00
 -1      3590 1.28859E+02 1.24765E+01 0.00000E+00
 -1      3591 1.28109E+02 1.37755E+01 0.00000E+00
 -1      3592 1.33359E+02 1.24765E+01 0.00000E+00
 -1      3593 1.31859E+02 1.24765E+01 0.00000E+00
 -1      3594 1.31109E+02 1.37755E+01 0.00000E+00
 -1      3595 1.35822E+02 1.16524E+01 0.00000E+00
 -1      3596 1.38637E+02 1.36483E+01 0.00000E+00
 -1      3597 1.35711E+02 3.31125E+01 0.00000E+00
 -1      3598 1.35711E+02 3.16375E+01 0.00000E+00
 -1      3599 1.14129E+02 1.01390E+01 0.00000E+00
 -1      3600 1.35711E+02 2.72125E+01 0.00000E+00
 -1      3601 1.35711E+02 2.57375E+01 0.00000E+00
 -1      3602 1.25463E+02 1.65258E+01 0.00000E+00
 -1      3603 1.26206E+02 1.77793E+01 0.00000E+00
 -1      3604 1.27782E+02 2.44570E+01 0.00000E+00
 -1      3605 1.27676E+02 2.57882E+01 0.00000E+00
 -1      3606 1.26678E+02 1.94593E+01 0.00000E+00
 -1      3607 1.26916E+02 2.07280E+01 0.00000E+00
 -1      3608 1.27226E+02 2.18004E+01 0.00000E+00
 -1      3609 1.27535E+02 2.28729E+01 0.00000E+00
 -1      3610 1.28114E+02 2.09770E+01 0.00000E+00
 -1      3611 1.23669E+02 1.25728E+01 0.00000E+00
 -1      3612 1.74000E+01 3.57110E+01 0.00000E+00
 -1      3613 1.89000E+01 3.57110E+01 0.00000E+00
 -1      3614 1.96500E+01 3.44120E+01 0.00000E+00
 -1      3615 1.35711E+02 3.01625E+01 0.00000E+00
 -1      3616 1.35711E+02 2.86875E+01 0.00000E+00
 -1      3617 1.34412E+02 2.79500E+01 0.00000E+00
 -1      3618 1.34412E+02 3.09000E+01 0.00000E+00
 -1      3619 4.82850E+01 1.30992E+01 0.00000E+00
 -1      3620 4.67850E+01 1.30992E+01 0.00000E+00
 -1      3621 4.60350E+01 1.43982E+01 0.00000E+00
 -1      3622 4.90350E+01 1.43982E+01 0.00000E+00
 -1      3623 1.16910E+01 2.71844E+01 0.00000E+00
 -1      3624 1.16910E+01 2.86531E+01 0.00000E+00
 -1      3625 1.29900E+01 2.93875E+01 0.00000E+00
 -1      3626 9.67108E+01 1.58183E+01 0.00000E+00
 -1      3627 9.72243E+01 1.45823E+01 0.00000E+00
 -1      3628 1.33200E+01 3.54019E+01 0.00000E+00
 -1      3629 1.37338E+02 1.43733E+01 0.00000E+00
 -1      3630 1.36205E+02 1.36623E+01 0.00000E+00
 -1      3631 1.34492E+02 1.31875E+01 0.00000E+00
 -1      3632 1.33742E+02 1.44865E+01 0.00000E+00
 -1      3633 1.36008E+02 1.59084E+01 0.00000E+00
 -1      3634 1.24419E+02 1.38718E+01 0.00000E+00
 -1      3635 1.25337E+02 1.51413E+01 0.00000E+00
 -1      3636 1.01198E+02 3.61337E+01 0.00000E+00
 -1      3637 1.42890E+01 1.39344E+01 0.00000E+00
 -1      3638 1.42890E+01 1.54031E+01 0.00000E+00
 -1      3639 9.53584E+01 1.62682E+01 0.00000E+00
 -1      3640 9.79271E+01 3.45125E+01 0.00000E+00
 -1      3641 9.86771E+01 3.58115E+01 0.00000E+00
 -1      3642 9.51789E+01 1.99886E+01 0.00000E+00
 -1      3643 1.90350E+01 1.43983E+01 0.00000E+00
 -1      3644 1.82850E+01 1.30993E+01 0.00000E+00
 -1      3645 1.26475E+02 3.25009E+01 0.00000E+00
 -1      3646 2.27850E+01 1.30992E+01 0.00000E+00
 -1      3647 2.20350E+01 1.43982E+01 0.00000E+00
 -1      3648 2.42850E+01 1.30992E+01 0.00000E+00
 -1      3649 9.80703E+01 3.00536E+01 0.00000E+00
 -1      3650 9.72358E+01 2.95874E+01 0.00000E+00
 -1      3651 9.78663E+01 3.12116E+01 0.00000E+00
 -1      3652 1.35877E+02 1.83891E+01 0.00000E+00
 -1      3653 1.35943E+02 1.71487E+01 0.00000E+00
 -1      3654 1.34810E+02 1.64378E+01 0.00000E+00
 -1      3655 1.33277E+02 3.32196E+01 0.00000E+00
 -1      3656 1.34031E+02 3.46925E+01 0.00000E+00
 -1      3657 3.10350E+01 1.43982E+01 0.00000E+00
 -1      3658 3.02850E+01 1.30992E+01 0.00000E+00
 -1      3659 2.87850E+01 1.30992E+01 0.00000E+00
 -1      3660 3.47850E+01 1.30992E+01 0.00000E+00
 -1      3661 3.40350E+01 1.43982E+01 0.00000E+00
 -1      3662 3.62850E+01 1.30992E+01 0.00000E+00
 -1      3663 9.63550E+01 2.78245E+01 0.00000E+00
 -1      3664 9.66634E+01 2.68857E+01 0.00000E+00
 -1      3665 9.55786E+01 2.62808E+01 0.00000E+00
 -1      3666 1.35711E+02 2.42625E+01 0.00000E+00
 -1      3667 1.35711E+02 2.27875E+01 0.00000E+00
 -1      3668 1.34412E+02 2.50000E+01 0.00000E+00
 -1      3669 4.00350E+01 1.43982E+01 0.00000E+00
 -1      3670 3.92850E+01 1.30992E+01 0.00000E+00
 -1      3671 3.77850E+01 1.30992E+01 0.00000E+00
 -1      3672 1.28378E+02 2.69013E+01 0.00000E+00
 -1      3673 1.28671E+02 2.36336E+01 0.00000E+00
 -1      3674 1.35711E+02 2.13125E+01 0.00000E+00
 -1      3675 1.35711E+02 1.98375E+01 0.00000E+00
 -1      3676 1.34412E+02 2.20500E+01 0.00000E+00
 -1      3677 1.26735E+02 1.51600E+01 0.00000E+00
 -1      3678 1.35330E+02 3.54300E+01 0.00000E+00
 -1      3679 1.27333E+02 1.82246E+01 0.00000E+00
 -1      3680 1.34578E+02 1.91266E+01 0.00000E+00
 -1      3681 1.18055E+02 3.63676E+01 0.00000E+00
 -1      3682 9.52191E+01 2.43925E+01 0.00000E+00
 -1      3683 9.55315E+01 2.35906E+01 0.00000E+00
 -1      3684 9.48636E+01 2.26411E+01 0.00000E+00
 -1      3685 1.48779E+01 1.21429E+01 0.00000E+00
 -1      3686 1.44917E+01 1.31424E+01 0.00000E+00
 -1      3687 1.57907E+01 1.38767E+01 0.00000E+00
 -1      3688 1.61961E+01 1.22927E+01 0.00000E+00
 -1      3689 2.65350E+01 1.18003E+01 0.00000E+00
 -1      3690 1.42890E+01 2.27625E+01 0.00000E+00
 -1      3691 1.42890E+01 2.42375E+01 0.00000E+00
 -1      3692 1.69669E+01 1.29495E+01 0.00000E+00
 -1      3693 1.42890E+01 1.98188E+01 0.00000E+00
 -1      3694 1.42890E+01 2.12906E+01 0.00000E+00
 -1      3695 1.55880E+01 2.20281E+01 0.00000E+00
 -1      3696 9.94013E+01 3.61218E+01 0.00000E+00
 -1      3697 1.44000E+01 3.57110E+01 0.00000E+00
 -1      3698 1.59000E+01 3.57110E+01 0.00000E+00
 -1      3699 1.40700E+01 3.41029E+01 0.00000E+00
 -1      3700 1.19306E+02 3.66963E+01 0.00000E+00
 -1      3701 1.66500E+01 3.44120E+01 0.00000E+00
 -1      3702 1.40700E+01 3.11654E+01 0.00000E+00
 -1      3703 1.40700E+01 3.26341E+01 0.00000E+00
 -1      3704 1.51500E+01 3.29432E+01 0.00000E+00
 -1      3705 1.29900E+01 2.64469E+01 0.00000E+00
 -1      3706 9.38584E+01 1.62682E+01 0.00000E+00
 -1      3707 1.42890E+01 1.68750E+01 0.00000E+00
 -1      3708 1.42890E+01 1.83469E+01 0.00000E+00
 -1      3709 1.55880E+01 1.90844E+01 0.00000E+00
 -1      3710 2.49000E+01 3.31130E+01 0.00000E+00
 -1      3711 2.64000E+01 3.31130E+01 0.00000E+00
 -1      3712 2.79000E+01 3.31130E+01 0.00000E+00
 -1      3713 2.94000E+01 3.31130E+01 0.00000E+00
 -1      3714 2.71500E+01 3.18140E+01 0.00000E+00
 -1      3715 3.09000E+01 3.31130E+01 0.00000E+00
 -1      3716 3.24000E+01 3.31130E+01 0.00000E+00
 -1      3717 3.01500E+01 3.18140E+01 0.00000E+00
 -1      3718 3.39000E+01 3.31130E+01 0.00000E+00
 -1      3719 3.54000E+01 3.31130E+01 0.00000E+00
 -1      3720 3.31500E+01 3.18140E+01 0.00000E+00
 -1      3721 3.69000E+01 3.31130E+01 0.00000E+00
 -1      3722 3.84000E+01 3.31130E+01 0.00000E+00
 -1      3723 3.61500E+01 3.18140E+01 0.00000E+00
 -1      3724 3.99000E+01 3.31130E+01 0.00000E+00
 -1      3725 4.14000E+01 3.31130E+01 0.00000E+00
 -1      3726 3.91500E+01 3.18140E+01 0.00000E+00
 -1      3727 4.29000E+01 3.31130E+01 0.00000E+00
 -1      3728 4.44000E+01 3.31130E+01 0.00000E+00
 -1      3729 4.21500E+01 3.18140E+01 0.00000E+00
 -1      3730 4.59000E+01 3.31130E+01 0.00000E+00
 -1      3731 4.74000E+01 3.31130E+01 0.00000E+00
 -1      3732 4.51500E+01 3.18140E+01 0.00000E+00
 -1      3733 4.89000E+01 3.31130E+01 0.00000E+00
 -1      3734 5.04000E+01 3.31130E+01 0.00000E+00
 -1      3735 4.81500E+01 3.18140E+01 0.00000E+00
 -1      3736 5.19000E+01 3.31130E+01 0.00000E+00
 -1      3737 5.34000E+01 3.31130E+01 0.00000E+00
 -1      3738 5.11500E+01 3.18140E+01 0.00000E+00
 -1      3739 5.49000E+01 3.31130E+01 0.00000E+00
 -1      3740 5.64000E+01 3.31130E+01 0.00000E+00
 -1      3741 5.41500E+01 3.18140E+01 0.00000E+00
 -1      3742 5.79000E+01 3.31130E+01 0.00000E+00
 -1      3743 5.94000E+01 3.31130E+01 0.00000E+00
 -1      3744 5.71500E+01 3.18140E+01 0.00000E+00
 -1      3745 6.09000E+01 3.31130E+01 0.00000E+00
 -1      3746 6.24000E+01 3.31130E+01 0.00000E+00
 -1      3747 6.01500E+01 3.18140E+01 0.00000E+00
 -1      3748 6.39000E+01 3.31130E+01 0.00000E+00
 -1      3749 6.54000E+01 3.31130E+01 0.00000E+00
 -1      3750 6.31500E+01 3.18140E+01 0.00000E+00
 -1      3751 6.69000E+01 3.31130E+01 0.00000E+00
 -1      3752 6.84000E+01 3.31130E+01 0.00000E+00
 -1      3753 6.61500E+01 3.18140E+01 0.00000E+00
 -1      3754 6.99000E+01 3.31130E+01 0.00000E+00
 -1      3755 7.14000E+01 3.31130E+01 0.00000E+00
 -1      3756 6.91500E+01 3.18140E+01 0.00000E+00
 -1      3757 7.29000E+01 3.31130E+01 0.00000E+00
 -1      3758 7.44000E+01 3.31130E+01 0.00000E+00
 -1      3759 7.21500E+01 3.18140E+01 0.00000E+00
 -1      3760 7.59000E+01 3.31130E+01 0.00000E+00
 -1      3761 7.74000E+01 3.31130E+01 0.00000E+00
 -1      3762 7.51500E+01 3.18140E+01 0.00000E+00
 -1      3763 7.89000E+01 3.31130E+01 0.00000E+00
 -1      3764 8.04000E+01 3.31130E+01 0.00000E+00
 -1      3765 7.81500E+01 3.18140E+01 0.00000E+00
 -1      3766 8.19000E+01 3.31130E+01 0.00000E+00
 -1      3767 8.34000E+01 3.31130E+01 0.00000E+00
 -1      3768 8.11500E+01 3.18140E+01 0.00000E+00
 -1      3769 8.49000E+01 3.31130E+01 0.00000E+00
 -1      3770 8.64000E+01 3.31130E+01 0.00000E+00
 -1      3771 8.41500E+01 3.18140E+01 0.00000E+00
 -1      3772 8.79000E+01 3.31130E+01 0.00000E+00
 -1      3773 8.94000E+01 3.31130E+01 0.00000E+00
 -1      3774 8.71500E+01 3.18140E+01 0.00000E+00
 -1      3775 9.09000E+01 3.31130E+01 0.00000E+00
 -1      3776 9.24000E+01 3.31130E+01 0.00000E+00
 -1      3777 9.01500E+01 3.18140E+01 0.00000E+00
 -1      3778 1.97850E+01 1.56973E+01 0.00000E+00
 -1      3779 1.82851E+01 1.56973E+01 0.00000E+00
 -1      3780 1.27975E+02 3.25009E+01 0.00000E+00
 -1      3781 1.66500E+01 3.29432E+01 0.00000E+00
 -1      3782 1.32143E+02 3.25891E+01 0.00000E+00
 -1      3783 1.33277E+02 3.17446E+01 0.00000E+00
 -1      3784 1.33277E+02 3.02696E+01 0.00000E+00
 -1      3785 1.30643E+02 3.25891E+01 0.00000E+00
 -1      3786 1.35144E+02 3.62755E+01 0.00000E+00
 -1      3787 1.40700E+01 2.82279E+01 0.00000E+00
 -1      3788 1.40700E+01 2.96966E+01 0.00000E+00
 -1      3789 1.51500E+01 3.00058E+01 0.00000E+00
 -1      3790 5.57850E+01 1.56973E+01 0.00000E+00
 -1      3791 5.42850E+01 1.56973E+01 0.00000E+00
 -1      3792 5.27850E+01 1.56973E+01 0.00000E+00
 -1      3793 5.12850E+01 1.56973E+01 0.00000E+00
 -1      3794 5.35350E+01 1.69963E+01 0.00000E+00
 -1      3795 6.17850E+01 1.56973E+01 0.00000E+00
 -1      3796 6.02850E+01 1.56973E+01 0.00000E+00
 -1      3797 6.47850E+01 1.56973E+01 0.00000E+00
 -1      3798 6.32850E+01 1.56973E+01 0.00000E+00
 -1      3799 6.25350E+01 1.69963E+01 0.00000E+00
 -1      3800 6.77850E+01 1.56973E+01 0.00000E+00
 -1      3801 6.62850E+01 1.56973E+01 0.00000E+00
 -1      3802 6.55350E+01 1.69963E+01 0.00000E+00
 -1      3803 7.07850E+01 1.56973E+01 0.00000E+00
 -1      3804 6.92850E+01 1.56973E+01 0.00000E+00
 -1      3805 6.85350E+01 1.69963E+01 0.00000E+00
 -1      3806 7.37850E+01 1.56973E+01 0.00000E+00
 -1      3807 7.22850E+01 1.56973E+01 0.00000E+00
 -1      3808 7.15350E+01 1.69963E+01 0.00000E+00
 -1      3809 7.67850E+01 1.56973E+01 0.00000E+00
 -1      3810 7.52850E+01 1.56973E+01 0.00000E+00
 -1      3811 7.45350E+01 1.69963E+01 0.00000E+00
 -1      3812 7.97850E+01 1.56973E+01 0.00000E+00
 -1      3813 7.82850E+01 1.56973E+01 0.00000E+00
 -1      3814 7.75350E+01 1.69963E+01 0.00000E+00
 -1      3815 8.27850E+01 1.56973E+01 0.00000E+00
 -1      3816 8.12850E+01 1.56973E+01 0.00000E+00
 -1      3817 8.05350E+01 1.69963E+01 0.00000E+00
 -1      3818 8.57850E+01 1.56973E+01 0.00000E+00
 -1      3819 8.42850E+01 1.56973E+01 0.00000E+00
 -1      3820 8.35350E+01 1.69963E+01 0.00000E+00
 -1      3821 8.87850E+01 1.56973E+01 0.00000E+00
 -1      3822 8.72850E+01 1.56973E+01 0.00000E+00
 -1      3823 8.65350E+01 1.69963E+01 0.00000E+00
 -1      3824 9.17850E+01 1.56973E+01 0.00000E+00
 -1      3825 9.02850E+01 1.56973E+01 0.00000E+00
 -1      3826 8.95350E+01 1.69963E+01 0.00000E+00
 -1      3827 9.39848E+01 2.09120E+01 0.00000E+00
 -1      3828 9.39877E+01 1.90615E+01 0.00000E+00
 -1      3829 1.31859E+02 1.50745E+01 0.00000E+00
 -1      3830 1.30359E+02 1.50745E+01 0.00000E+00
 -1      3831 1.28235E+02 1.51600E+01 0.00000E+00
 -1      3832 1.55880E+01 1.61406E+01 0.00000E+00
 -1      3833 1.29643E+02 2.26705E+01 0.00000E+00
 -1      3834 1.29890E+02 2.42547E+01 0.00000E+00
 -1      3835 9.92025E+01 3.31454E+01 0.00000E+00
 -1      3836 1.33204E+02 1.97029E+01 0.00000E+00
 -1      3837 1.33370E+02 1.82545E+01 0.00000E+00
 -1      3838 2.19000E+01 3.31130E+01 0.00000E+00
 -1      3839 2.34000E+01 3.31130E+01 0.00000E+00
 -1      3840 2.41500E+01 3.18140E+01 0.00000E+00
 -1      3841 4.37850E+01 1.56973E+01 0.00000E+00
 -1      3842 4.22850E+01 1.56973E+01 0.00000E+00
 -1      3843 1.89000E+01 3.31130E+01 0.00000E+00
 -1      3844 2.04000E+01 3.31130E+01 0.00000E+00
 -1      3845 2.11500E+01 3.18140E+01 0.00000E+00
 -1      3846 1.29885E+02 2.64564E+01 0.00000E+00
 -1      3847 1.29345E+02 2.81400E+01 0.00000E+00
 -1      3848 1.28944E+02 2.01564E+01 0.00000E+00
 -1      3849 1.29254E+02 2.12288E+01 0.00000E+00
 -1      3850 1.41795E+01 2.54967E+01 0.00000E+00
 -1      3851 1.41795E+01 2.69686E+01 0.00000E+00
 -1      3852 1.52595E+01 2.72778E+01 0.00000E+00
 -1      3853 1.54785E+01 2.47593E+01 0.00000E+00
 -1      3854 1.28245E+02 1.70620E+01 0.00000E+00
 -1      3855 1.28717E+02 1.87420E+01 0.00000E+00
 -1      3856 2.72850E+01 1.30992E+01 0.00000E+00
 -1      3857 2.57850E+01 1.30992E+01 0.00000E+00
 -1      3858 2.80350E+01 1.43982E+01 0.00000E+00
 -1      3859 5.87850E+01 1.56973E+01 0.00000E+00
 -1      3860 5.72850E+01 1.56973E+01 0.00000E+00
 -1      3861 5.95350E+01 1.69963E+01 0.00000E+00
 -1      3862 9.31084E+01 1.75672E+01 0.00000E+00
 -1      3863 1.29475E+02 3.10259E+01 0.00000E+00
 -1      3864 9.74254E+01 3.30449E+01 0.00000E+00
 -1      3865 1.30857E+02 2.54933E+01 0.00000E+00
 -1      3866 4.15350E+01 1.69963E+01 0.00000E+00
 -1      3867 4.07850E+01 1.56973E+01 0.00000E+00
 -1      3868 3.92850E+01 1.56973E+01 0.00000E+00
 -1      3869 1.32632E+02 2.85600E+01 0.00000E+00
 -1      3870 1.32632E+02 2.70850E+01 0.00000E+00
 -1      3871 2.12850E+01 1.56973E+01 0.00000E+00
 -1      3872 2.05351E+01 1.69963E+01 0.00000E+00
 -1      3873 2.27850E+01 1.56973E+01 0.00000E+00
 -1      3874 9.39000E+01 3.31130E+01 0.00000E+00
 -1      3875 9.54000E+01 3.31130E+01 0.00000E+00
 -1      3876 1.32992E+02 1.57855E+01 0.00000E+00
 -1      3877 2.50350E+01 1.43982E+01 0.00000E+00
 -1      3878 5.65350E+01 1.69963E+01 0.00000E+00
 -1      3879 3.70350E+01 1.43982E+01 0.00000E+00
 -1      3880 1.74000E+01 3.16443E+01 0.00000E+00
 -1      3881 9.61510E+01 2.89825E+01 0.00000E+00
 -1      3882 9.50662E+01 2.83776E+01 0.00000E+00
 -1      3883 9.59469E+01 3.01406E+01 0.00000E+00
 -1      3884 1.32637E+02 2.48833E+01 0.00000E+00
 -1      3885 1.32637E+02 2.34083E+01 0.00000E+00
 -1      3886 3.47850E+01 1.56973E+01 0.00000E+00
 -1      3887 3.32850E+01 1.56973E+01 0.00000E+00
 -1      3888 5.05350E+01 1.69963E+01 0.00000E+00
 -1      3889 4.97850E+01 1.56973E+01 0.00000E+00
 -1      3890 4.82850E+01 1.56973E+01 0.00000E+00
 -1      3891 9.19143E+01 1.84906E+01 0.00000E+00
 -1      3892 9.36724E+01 2.17139E+01 0.00000E+00
 -1      3893 9.24812E+01 2.07868E+01 0.00000E+00
 -1      3894 9.33600E+01 2.25159E+01 0.00000E+00
 -1      3895 1.29619E+02 1.56775E+01 0.00000E+00
 -1      3896 1.68274E+01 2.42422E+01 0.00000E+00
 -1      3897 1.67179E+01 2.55014E+01 0.00000E+00
 -1      3898 1.30473E+02 2.18500E+01 0.00000E+00
 -1      3899 1.32637E+02 2.19333E+01 0.00000E+00
 -1      3900 3.17850E+01 1.56973E+01 0.00000E+00
 -1      3901 3.02850E+01 1.56973E+01 0.00000E+00
 -1      3902 3.25350E+01 1.69963E+01 0.00000E+00
 -1      3903 9.47145E+01 2.54570E+01 0.00000E+00
 -1      3904 9.40467E+01 2.45075E+01 0.00000E+00
 -1      3905 4.52850E+01 1.56973E+01 0.00000E+00
 -1      3906 4.45350E+01 1.69963E+01 0.00000E+00
 -1      3907 4.67850E+01 1.56973E+01 0.00000E+00
 -1      3908 9.66754E+01 3.17459E+01 0.00000E+00
 -1      3909 1.29856E+02 1.89939E+01 0.00000E+00
 -1      3910 9.44062E+01 2.63958E+01 0.00000E+00
 -1      3911 9.31500E+01 3.18140E+01 0.00000E+00
 -1      3912 1.68274E+01 2.12984E+01 0.00000E+00
 -1      3913 1.68274E+01 2.27703E+01 0.00000E+00
 -1      3914 1.80667E+01 2.35124E+01 0.00000E+00
 -1      3915 1.20806E+02 3.66963E+01 0.00000E+00
 -1      3916 1.31553E+02 1.76022E+01 0.00000E+00
 -1      3917 1.32927E+02 1.70258E+01 0.00000E+00
 -1      3918 1.31497E+02 2.94046E+01 0.00000E+00
 -1      3919 1.73115E+01 1.73044E+01 0.00000E+00
 -1      3920 1.65615E+01 1.60054E+01 0.00000E+00
 -1      3921 2.94000E+01 3.05150E+01 0.00000E+00
 -1      3922 3.09000E+01 3.05150E+01 0.00000E+00
 -1      3923 3.24000E+01 3.05150E+01 0.00000E+00
 -1      3924 3.39000E+01 3.05150E+01 0.00000E+00
 -1      3925 3.16500E+01 2.92160E+01 0.00000E+00
 -1      3926 3.54000E+01 3.05150E+01 0.00000E+00
 -1      3927 3.69000E+01 3.05150E+01 0.00000E+00
 -1      3928 3.46500E+01 2.92160E+01 0.00000E+00
 -1      3929 3.84000E+01 3.05150E+01 0.00000E+00
 -1      3930 3.99000E+01 3.05150E+01 0.00000E+00
 -1      3931 3.76500E+01 2.92160E+01 0.00000E+00
 -1      3932 4.14000E+01 3.05150E+01 0.00000E+00
 -1      3933 4.29000E+01 3.05150E+01 0.00000E+00
 -1      3934 4.06500E+01 2.92160E+01 0.00000E+00
 -1      3935 4.44000E+01 3.05150E+01 0.00000E+00
 -1      3936 4.59000E+01 3.05150E+01 0.00000E+00
 -1      3937 4.36500E+01 2.92160E+01 0.00000E+00
 -1      3938 4.74000E+01 3.05150E+01 0.00000E+00
 -1      3939 4.89000E+01 3.05150E+01 0.00000E+00
 -1      3940 4.66500E+01 2.92160E+01 0.00000E+00
 -1      3941 5.04000E+01 3.05150E+01 0.00000E+00
 -1      3942 5.19000E+01 3.05150E+01 0.00000E+00
 -1      3943 4.96500E+01 2.92160E+01 0.00000E+00
 -1      3944 5.34000E+01 3.05150E+01 0.00000E+00
 -1      3945 5.49000E+01 3.05150E+01 0.00000E+00
 -1      3946 5.26500E+01 2.92160E+01 0.00000E+00
 -1      3947 5.64000E+01 3.05150E+01 0.00000E+00
 -1      3948 5.79000E+01 3.05150E+01 0.00000E+00
 -1      3949 5.56500E+01 2.92160E+01 0.00000E+00
 -1      3950 5.94000E+01 3.05150E+01 0.00000E+00
 -1      3951 6.09000E+01 3.05150E+01 0.00000E+00
 -1      3952 5.86500E+01 2.92160E+01 0.00000E+00
 -1      3953 6.24000E+01 3.05150E+01 0.00000E+00
 -1      3954 6.39000E+01 3.05150E+01 0.00000E+00
 -1      3955 6.16500E+01 2.92160E+01 0.00000E+00
 -1      3956 6.54000E+01 3.05150E+01 0.00000E+00
 -1      3957 6.69000E+01 3.05150E+01 0.00000E+00
 -1      3958 6.46500E+01 2.92160E+01 0.00000E+00
 -1      3959 6.84000E+01 3.05150E+01 0.00000E+00
 -1      3960 6.99000E+01 3.05150E+01 0.00000E+00
 -1      3961 6.76500E+01 2.92160E+01 0.00000E+00
 -1      3962 7.14000E+01 3.05150E+01 0.00000E+00
 -1      3963 7.29000E+01 3.05150E+01 0.00000E+00
 -1      3964 7.06500E+01 2.92160E+01 0.00000E+00
 -1      3965 7.44000E+01 3.05150E+01 0.00000E+00
 -1      3966 7.59000E+01 3.05150E+01 0.00000E+00
 -1      3967 7.36500E+01 2.92160E+01 0.00000E+00
 -1      3968 7.74000E+01 3.05150E+01 0.00000E+00
 -1      3969 7.89000E+01 3.05150E+01 0.00000E+00
 -1      3970 7.66500E+01 2.92160E+01 0.00000E+00
 -1      3971 8.04000E+01 3.05150E+01 0.00000E+00
 -1      3972 8.19000E+01 3.05150E+01 0.00000E+00
 -1      3973 7.96500E+01 2.92160E+01 0.00000E+00
 -1      3974 8.34000E+01 3.05150E+01 0.00000E+00
 -1      3975 8.49000E+01 3.05150E+01 0.00000E+00
 -1      3976 8.26500E+01 2.92160E+01 0.00000E+00
 -1      3977 8.64000E+01 3.05150E+01 0.00000E+00
 -1      3978 8.79000E+01 3.05150E+01 0.00000E+00
 -1      3979 8.56500E+01 2.92160E+01 0.00000E+00
 -1      3980 8.94000E+01 3.05150E+01 0.00000E+00
 -1      3981 9.09000E+01 3.05150E+01 0.00000E+00
 -1      3982 8.86500E+01 2.92160E+01 0.00000E+00
 -1      3983 1.29990E+02 2.98495E+01 0.00000E+00
 -1      3984 6.92850E+01 1.82952E+01 0.00000E+00
 -1      3985 6.77850E+01 1.82952E+01 0.00000E+00
 -1      3986 3.62850E+01 1.56973E+01 0.00000E+00
 -1      3987 3.55350E+01 1.69963E+01 0.00000E+00
 -1      3988 3.77850E+01 1.56973E+01 0.00000E+00
 -1      3989 5.42850E+01 1.82952E+01 0.00000E+00
 -1      3990 5.27850E+01 1.82952E+01 0.00000E+00
 -1      3991 1.79572E+01 2.62436E+01 0.00000E+00
 -1      3992 1.66084E+01 2.67607E+01 0.00000E+00
 -1      3993 1.64989E+01 2.80199E+01 0.00000E+00
 -1      3994 9.23509E+01 2.46449E+01 0.00000E+00
 -1      3995 9.28555E+01 2.35804E+01 0.00000E+00
 -1      3996 9.16642E+01 2.26532E+01 0.00000E+00
 -1      3997 6.62850E+01 1.82952E+01 0.00000E+00
 -1      3998 6.47850E+01 1.82952E+01 0.00000E+00
 -1      3999 6.70350E+01 1.95942E+01 0.00000E+00
 -1      4000 6.32850E+01 1.82952E+01 0.00000E+00
 -1      4001 6.17850E+01 1.82952E+01 0.00000E+00
 -1      4002 6.40350E+01 1.95942E+01 0.00000E+00
 -1      4003 7.22850E+01 1.82952E+01 0.00000E+00
 -1      4004 7.07850E+01 1.82952E+01 0.00000E+00
 -1      4005 7.00350E+01 1.95942E+01 0.00000E+00
 -1      4006 7.52850E+01 1.82952E+01 0.00000E+00
 -1      4007 7.37850E+01 1.82952E+01 0.00000E+00
 -1      4008 7.30350E+01 1.95942E+01 0.00000E+00
 -1      4009 7.82850E+01 1.82952E+01 0.00000E+00
 -1      4010 7.67850E+01 1.82952E+01 0.00000E+00
 -1      4011 7.60350E+01 1.95942E+01 0.00000E+00
 -1      4012 8.12850E+01 1.82952E+01 0.00000E+00
 -1      4013 7.97850E+01 1.82952E+01 0.00000E+00
 -1      4014 7.90350E+01 1.95942E+01 0.00000E+00
 -1      4015 8.42850E+01 1.82952E+01 0.00000E+00
 -1      4016 8.27850E+01 1.82952E+01 0.00000E+00
 -1      4017 8.20350E+01 1.95942E+01 0.00000E+00
 -1      4018 8.72850E+01 1.82952E+01 0.00000E+00
 -1      4019 8.57850E+01 1.82952E+01 0.00000E+00
 -1      4020 8.50350E+01 1.95942E+01 0.00000E+00
 -1      4021 9.02850E+01 1.82952E+01 0.00000E+00
 -1      4022 8.87850E+01 1.82952E+01 0.00000E+00
 -1      4023 8.80350E+01 1.95942E+01 0.00000E+00
 -1      4024 1.70695E+01 1.85655E+01 0.00000E+00
 -1      4025 1.70695E+01 2.00373E+01 0.00000E+00
 -1      4026 1.83088E+01 2.07795E+01 0.00000E+00
 -1      4027 1.87930E+01 1.82573E+01 0.00000E+00
 -1      4028 1.30813E+02 1.82051E+01 0.00000E+00
 -1      4029 1.31040E+02 1.96195E+01 0.00000E+00
 -1      4030 1.30369E+02 1.69765E+01 0.00000E+00
 -1      4031 1.65615E+01 1.45335E+01 0.00000E+00
 -1      4032 9.11643E+01 1.97896E+01 0.00000E+00
 -1      4033 1.69494E+01 2.90977E+01 0.00000E+00
 -1      4034 1.69494E+01 3.05665E+01 0.00000E+00
 -1      4035 1.91994E+01 3.07362E+01 0.00000E+00
 -1      4036 1.82983E+01 2.85806E+01 0.00000E+00
 -1      4037 1.31430E+02 2.10612E+01 0.00000E+00
 -1      4038 2.34000E+01 3.05150E+01 0.00000E+00
 -1      4039 2.49000E+01 3.05150E+01 0.00000E+00
 -1      4040 2.05497E+01 3.06256E+01 0.00000E+00
 -1      4041 2.20497E+01 3.06256E+01 0.00000E+00
 -1      4042 2.27997E+01 2.93266E+01 0.00000E+00
 -1      4043 2.00991E+01 2.95478E+01 0.00000E+00
 -1      4044 1.67642E+01 1.37415E+01 0.00000E+00
 -1      4045 2.87850E+01 1.56973E+01 0.00000E+00
 -1      4046 2.72850E+01 1.56973E+01 0.00000E+00
 -1      4047 2.95350E+01 1.69963E+01 0.00000E+00
 -1      4048 2.57850E+01 1.56973E+01 0.00000E+00
 -1      4049 2.42850E+01 1.56973E+01 0.00000E+00
 -1      4050 2.35350E+01 1.69963E+01 0.00000E+00
 -1      4051 2.65350E+01 1.69963E+01 0.00000E+00
 -1      4052 5.72850E+01 1.82952E+01 0.00000E+00
 -1      4053 5.57850E+01 1.82952E+01 0.00000E+00
 -1      4054 5.50350E+01 1.95942E+01 0.00000E+00
 -1      4055 9.42021E+01 2.75538E+01 0.00000E+00
 -1      4056 9.33381E+01 2.67301E+01 0.00000E+00
 -1      4057 9.39981E+01 2.87119E+01 0.00000E+00
 -1      4058 6.02850E+01 1.82952E+01 0.00000E+00
 -1      4059 5.87850E+01 1.82952E+01 0.00000E+00
 -1      4060 5.80350E+01 1.95942E+01 0.00000E+00
 -1      4061 2.64000E+01 3.05150E+01 0.00000E+00
 -1      4062 2.79000E+01 3.05150E+01 0.00000E+00
 -1      4063 2.56500E+01 2.92160E+01 0.00000E+00
 -1      4064 4.22850E+01 1.82952E+01 0.00000E+00
 -1      4065 4.07850E+01 1.82952E+01 0.00000E+00
 -1      4066 2.17930E+01 1.82573E+01 0.00000E+00
 -1      4067 2.02930E+01 1.82573E+01 0.00000E+00
 -1      4068 2.00509E+01 1.95184E+01 0.00000E+00
 -1      4069 5.12850E+01 1.82952E+01 0.00000E+00
 -1      4070 4.97850E+01 1.82952E+01 0.00000E+00
 -1      4071 5.20350E+01 1.95942E+01 0.00000E+00
 -1      4072 9.16420E+01 2.85520E+01 0.00000E+00
 -1      4073 9.23920E+01 2.98510E+01 0.00000E+00
 -1      4074 3.85350E+01 1.69963E+01 0.00000E+00
 -1      4075 1.93657E+01 2.27765E+01 0.00000E+00
 -1      4076 1.93657E+01 2.42484E+01 0.00000E+00
 -1      4077 2.86500E+01 2.92160E+01 0.00000E+00
 -1      4078 3.62850E+01 1.82952E+01 0.00000E+00
 -1      4079 3.47850E+01 1.82952E+01 0.00000E+00
 -1      4080 9.19428E+01 2.69609E+01 0.00000E+00
 -1      4081 9.21468E+01 2.58029E+01 0.00000E+00
 -1      4082 9.09556E+01 2.48757E+01 0.00000E+00
 -1      4083 4.75350E+01 1.69963E+01 0.00000E+00
 -1      4084 3.32850E+01 1.82952E+01 0.00000E+00
 -1      4085 3.17850E+01 1.82952E+01 0.00000E+00
 -1      4086 3.40350E+01 1.95942E+01 0.00000E+00
 -1      4087 9.38920E+01 2.98510E+01 0.00000E+00
 -1      4088 4.52850E+01 1.82952E+01 0.00000E+00
 -1      4089 4.37850E+01 1.82952E+01 0.00000E+00
 -1      4090 4.30350E+01 1.95942E+01 0.00000E+00
 -1      4091 9.08519E+01 2.05915E+01 0.00000E+00
 -1      4092 6.10350E+01 1.95942E+01 0.00000E+00
 -1      4093 2.05552E+01 2.47717E+01 0.00000E+00
 -1      4094 1.92562E+01 2.55076E+01 0.00000E+00
 -1      4095 1.91467E+01 2.67669E+01 0.00000E+00
 -1      4096 9.04508E+01 2.76249E+01 0.00000E+00
 -1      4097 3.92850E+01 1.82952E+01 0.00000E+00
 -1      4098 3.77850E+01 1.82952E+01 0.00000E+00
 -1      4099 3.70350E+01 1.95942E+01 0.00000E+00
 -1      4100 4.00350E+01 1.95942E+01 0.00000E+00
 -1      4101 1.98294E+01 2.05169E+01 0.00000E+00
 -1      4102 1.95873E+01 2.17780E+01 0.00000E+00
 -1      4103 2.08863E+01 2.25139E+01 0.00000E+00
 -1      4104 2.13294E+01 2.05169E+01 0.00000E+00
 -1      4105 3.39000E+01 2.79170E+01 0.00000E+00
 -1      4106 3.54000E+01 2.79170E+01 0.00000E+00
 -1      4107 3.69000E+01 2.79170E+01 0.00000E+00
 -1      4108 3.84000E+01 2.79170E+01 0.00000E+00
 -1      4109 3.61500E+01 2.66180E+01 0.00000E+00
 -1      4110 3.99000E+01 2.79170E+01 0.00000E+00
 -1      4111 4.14000E+01 2.79170E+01 0.00000E+00
 -1      4112 3.91500E+01 2.66180E+01 0.00000E+00
 -1      4113 4.29000E+01 2.79170E+01 0.00000E+00
 -1      4114 4.44000E+01 2.79170E+01 0.00000E+00
 -1      4115 4.21500E+01 2.66180E+01 0.00000E+00
 -1      4116 4.59000E+01 2.79170E+01 0.00000E+00
 -1      4117 4.74000E+01 2.79170E+01 0.00000E+00
 -1      4118 4.51500E+01 2.66180E+01 0.00000E+00
 -1      4119 4.89000E+01 2.79170E+01 0.00000E+00
 -1      4120 5.04000E+01 2.79170E+01 0.00000E+00
 -1      4121 4.81500E+01 2.66180E+01 0.00000E+00
 -1      4122 5.19000E+01 2.79170E+01 0.00000E+00
 -1      4123 5.34000E+01 2.79170E+01 0.00000E+00
 -1      4124 5.11500E+01 2.66180E+01 0.00000E+00
 -1      4125 5.49000E+01 2.79170E+01 0.00000E+00
 -1      4126 5.64000E+01 2.79170E+01 0.00000E+00
 -1      4127 5.41500E+01 2.66180E+01 0.00000E+00
 -1      4128 5.79000E+01 2.79170E+01 0.00000E+00
 -1      4129 5.94000E+01 2.79170E+01 0.00000E+00
 -1      4130 5.71500E+01 2.66180E+01 0.00000E+00
 -1      4131 6.09000E+01 2.79170E+01 0.00000E+00
 -1      4132 6.24000E+01 2.79170E+01 0.00000E+00
 -1      4133 6.01500E+01 2.66180E+01 0.00000E+00
 -1      4134 6.39000E+01 2.79170E+01 0.00000E+00
 -1      4135 6.54000E+01 2.79170E+01 0.00000E+00
 -1      4136 6.31500E+01 2.66180E+01 0.00000E+00
 -1      4137 6.69000E+01 2.79170E+01 0.00000E+00
 -1      4138 6.84000E+01 2.79170E+01 0.00000E+00
 -1      4139 6.61500E+01 2.66180E+01 0.00000E+00
 -1      4140 6.99000E+01 2.79170E+01 0.00000E+00
 -1      4141 7.14000E+01 2.79170E+01 0.00000E+00
 -1      4142 6.91500E+01 2.66180E+01 0.00000E+00
 -1      4143 7.29000E+01 2.79170E+01 0.00000E+00
 -1      4144 7.44000E+01 2.79170E+01 0.00000E+00
 -1      4145 7.21500E+01 2.66180E+01 0.00000E+00
 -1      4146 7.59000E+01 2.79170E+01 0.00000E+00
 -1      4147 7.74000E+01 2.79170E+01 0.00000E+00
 -1      4148 7.51500E+01 2.66180E+01 0.00000E+00
 -1      4149 7.89000E+01 2.79170E+01 0.00000E+00
 -1      4150 8.04000E+01 2.79170E+01 0.00000E+00
 -1      4151 7.81500E+01 2.66180E+01 0.00000E+00
 -1      4152 8.19000E+01 2.79170E+01 0.00000E+00
 -1      4153 8.34000E+01 2.79170E+01 0.00000E+00
 -1      4154 8.11500E+01 2.66180E+01 0.00000E+00
 -1      4155 8.49000E+01 2.79170E+01 0.00000E+00
 -1      4156 8.64000E+01 2.79170E+01 0.00000E+00
 -1      4157 8.41500E+01 2.66180E+01 0.00000E+00
 -1      4158 8.76754E+01 2.77709E+01 0.00000E+00
 -1      4159 8.91754E+01 2.77709E+01 0.00000E+00
 -1      4160 8.94762E+01 2.61798E+01 0.00000E+00
 -1      4161 8.69254E+01 2.64719E+01 0.00000E+00
 -1      4162 2.79000E+01 2.79170E+01 0.00000E+00
 -1      4163 2.94000E+01 2.79170E+01 0.00000E+00
 -1      4164 7.37850E+01 2.08932E+01 0.00000E+00
 -1      4165 7.22850E+01 2.08932E+01 0.00000E+00
 -1      4166 9.58409E+01 3.12797E+01 0.00000E+00
 -1      4167 4.82850E+01 1.82952E+01 0.00000E+00
 -1      4168 4.67850E+01 1.82952E+01 0.00000E+00
 -1      4169 4.60350E+01 1.95942E+01 0.00000E+00
 -1      4170 4.90350E+01 1.95942E+01 0.00000E+00
 -1      4171 6.77850E+01 2.08932E+01 0.00000E+00
 -1      4172 6.62850E+01 2.08932E+01 0.00000E+00
 -1      4173 6.47850E+01 2.08932E+01 0.00000E+00
 -1      4174 6.32850E+01 2.08932E+01 0.00000E+00
 -1      4175 6.55350E+01 2.21922E+01 0.00000E+00
 -1      4176 7.67850E+01 2.08932E+01 0.00000E+00
 -1      4177 7.52850E+01 2.08932E+01 0.00000E+00
 -1      4178 7.45350E+01 2.21922E+01 0.00000E+00
 -1      4179 7.97850E+01 2.08932E+01 0.00000E+00
 -1      4180 7.82850E+01 2.08932E+01 0.00000E+00
 -1      4181 7.75350E+01 2.21922E+01 0.00000E+00
 -1      4182 8.27850E+01 2.08932E+01 0.00000E+00
 -1      4183 8.12850E+01 2.08932E+01 0.00000E+00
 -1      4184 8.05350E+01 2.21922E+01 0.00000E+00
 -1      4185 8.57850E+01 2.08932E+01 0.00000E+00
 -1      4186 8.42850E+01 2.08932E+01 0.00000E+00
 -1      4187 8.35350E+01 2.21922E+01 0.00000E+00
 -1      4188 8.87850E+01 2.08932E+01 0.00000E+00
 -1      4189 8.72850E+01 2.08932E+01 0.00000E+00
 -1      4190 8.65350E+01 2.21922E+01 0.00000E+00
 -1      4191 7.07850E+01 2.08932E+01 0.00000E+00
 -1      4192 6.92850E+01 2.08932E+01 0.00000E+00
 -1      4193 6.85350E+01 2.21922E+01 0.00000E+00
 -1      4194 3.02850E+01 1.82952E+01 0.00000E+00
 -1      4195 2.87850E+01 1.82952E+01 0.00000E+00
 -1      4196 3.10350E+01 1.95942E+01 0.00000E+00
 -1      4197 1.93977E+01 2.76184E+01 0.00000E+00
 -1      4198 1.98482E+01 2.86962E+01 0.00000E+00
 -1      4199 2.11985E+01 2.85856E+01 0.00000E+00
 -1      4200 2.06967E+01 2.68825E+01 0.00000E+00
 -1      4201 2.49000E+01 2.79170E+01 0.00000E+00
 -1      4202 2.64000E+01 2.79170E+01 0.00000E+00
 -1      4203 2.71500E+01 2.66180E+01 0.00000E+00
 -1      4204 5.57850E+01 2.08932E+01 0.00000E+00
 -1      4205 5.42850E+01 2.08932E+01 0.00000E+00
 -1      4206 8.95973E+01 2.29550E+01 0.00000E+00
 -1      4207 9.01019E+01 2.18905E+01 0.00000E+00
 -1      4208 3.09000E+01 2.79170E+01 0.00000E+00
 -1      4209 3.24000E+01 2.79170E+01 0.00000E+00
 -1      4210 3.01500E+01 2.66180E+01 0.00000E+00
 -1      4211 6.17850E+01 2.08932E+01 0.00000E+00
 -1      4212 6.02850E+01 2.08932E+01 0.00000E+00
 -1      4213 6.25350E+01 2.21922E+01 0.00000E+00
 -1      4214 5.87850E+01 2.08932E+01 0.00000E+00
 -1      4215 5.72850E+01 2.08932E+01 0.00000E+00
 -1      4216 5.95350E+01 2.21922E+01 0.00000E+00
 -1      4217 9.47561E+01 3.06748E+01 0.00000E+00
 -1      4218 5.27850E+01 2.08932E+01 0.00000E+00
 -1      4219 5.12850E+01 2.08932E+01 0.00000E+00
 -1      4220 5.35350E+01 2.21922E+01 0.00000E+00
 -1      4221 4.07850E+01 2.08932E+01 0.00000E+00
 -1      4222 3.92850E+01 2.08932E+01 0.00000E+00
 -1      4223 3.31500E+01 2.66180E+01 0.00000E+00
 -1      4224 7.15350E+01 2.21922E+01 0.00000E+00
 -1      4225 8.94347E+01 2.51464E+01 0.00000E+00
 -1      4226 8.96388E+01 2.39884E+01 0.00000E+00
 -1      4227 8.80764E+01 2.32257E+01 0.00000E+00
 -1      4228 8.81593E+01 2.52925E+01 0.00000E+00
 -1      4229 3.47850E+01 2.08932E+01 0.00000E+00
 -1      4230 3.32850E+01 2.08932E+01 0.00000E+00
 -1      4231 4.37850E+01 2.08932E+01 0.00000E+00
 -1      4232 4.22850E+01 2.08932E+01 0.00000E+00
 -1      4233 4.15350E+01 2.21922E+01 0.00000E+00
 -1      4234 5.65350E+01 2.21922E+01 0.00000E+00
 -1      4235 2.80350E+01 1.95943E+01 0.00000E+00
 -1      4236 2.72850E+01 1.82953E+01 0.00000E+00
 -1      4237 2.57850E+01 1.82953E+01 0.00000E+00
 -1      4238 3.62850E+01 2.08932E+01 0.00000E+00
 -1      4239 3.55350E+01 2.21922E+01 0.00000E+00
 -1      4240 3.77850E+01 2.08932E+01 0.00000E+00
 -1      4241 2.23741E+01 2.83066E+01 0.00000E+00
 -1      4242 2.37244E+01 2.81960E+01 0.00000E+00
 -1      4243 2.44744E+01 2.68970E+01 0.00000E+00
 -1      4244 2.21232E+01 2.74551E+01 0.00000E+00
 -1      4245 2.22652E+01 2.22961E+01 0.00000E+00
 -1      4246 2.20437E+01 2.32946E+01 0.00000E+00
 -1      4247 2.45390E+01 1.82763E+01 0.00000E+00
 -1      4248 2.30390E+01 1.82763E+01 0.00000E+00
 -1      4249 2.27969E+01 1.95374E+01 0.00000E+00
 -1      4250 2.52890E+01 1.95753E+01 0.00000E+00
 -1      4251 2.33607E+01 2.51264E+01 0.00000E+00
 -1      4252 2.19818E+01 2.53442E+01 0.00000E+00
 -1      4253 3.25350E+01 2.21922E+01 0.00000E+00
 -1      4254 3.17850E+01 2.08932E+01 0.00000E+00
 -1      4255 3.02850E+01 2.08932E+01 0.00000E+00
 -1      4256 5.68425E+01 2.44051E+01 0.00000E+00
 -1      4257 5.53425E+01 2.44051E+01 0.00000E+00
 -1      4258 3.28425E+01 2.44051E+01 0.00000E+00
 -1      4259 3.43425E+01 2.44051E+01 0.00000E+00
 -1      4260 2.98425E+01 2.44051E+01 0.00000E+00
 -1      4261 3.13425E+01 2.44051E+01 0.00000E+00
 -1      4262 3.58425E+01 2.44051E+01 0.00000E+00
 -1      4263 3.73425E+01 2.44051E+01 0.00000E+00
 -1      4264 3.88425E+01 2.44051E+01 0.00000E+00
 -1      4265 4.03425E+01 2.44051E+01 0.00000E+00
 -1      4266 4.18425E+01 2.44051E+01 0.00000E+00
 -1      4267 4.33425E+01 2.44051E+01 0.00000E+00
 -1      4268 4.74000E+01 2.53190E+01 0.00000E+00
 -1      4269 4.89000E+01 2.53190E+01 0.00000E+00
 -1      4270 5.08425E+01 2.44051E+01 0.00000E+00
 -1      4271 5.23425E+01 2.44051E+01 0.00000E+00
 -1      4272 5.38425E+01 2.44051E+01 0.00000E+00
 -1      4273 5.83425E+01 2.44051E+01 0.00000E+00
 -1      4274 5.98425E+01 2.44051E+01 0.00000E+00
 -1      4275 6.13425E+01 2.44051E+01 0.00000E+00
 -1      4276 6.28425E+01 2.44051E+01 0.00000E+00
 -1      4277 6.43425E+01 2.44051E+01 0.00000E+00
 -1      4278 6.58425E+01 2.44051E+01 0.00000E+00
 -1      4279 6.73425E+01 2.44051E+01 0.00000E+00
 -1      4280 6.88425E+01 2.44051E+01 0.00000E+00
 -1      4281 7.03425E+01 2.44051E+01 0.00000E+00
 -1      4282 7.18425E+01 2.44051E+01 0.00000E+00
 -1      4283 7.33425E+01 2.44051E+01 0.00000E+00
 -1      4284 7.48425E+01 2.44051E+01 0.00000E+00
 -1      4285 7.63425E+01 2.44051E+01 0.00000E+00
 -1      4286 7.78425E+01 2.44051E+01 0.00000E+00
 -1      4287 7.93425E+01 2.44051E+01 0.00000E+00
 -1      4288 8.08425E+01 2.44051E+01 0.00000E+00
 -1      4289 8.23425E+01 2.44051E+01 0.00000E+00
 -1      4290 8.38425E+01 2.44051E+01 0.00000E+00
 -1      4291 8.53425E+01 2.44051E+01 0.00000E+00
 -1      4292 2.26418E+01 2.04175E+01 0.00000E+00
 -1      4293 2.24203E+01 2.14160E+01 0.00000E+00
 -1      4294 2.35777E+01 2.21966E+01 0.00000E+00
 -1      4295 2.38879E+01 2.04364E+01 0.00000E+00
 -1      4296 8.68425E+01 2.44051E+01 0.00000E+00
 -1      4297 3.85350E+01 2.21922E+01 0.00000E+00
 -1      4298 2.45363E+01 2.48473E+01 0.00000E+00
 -1      4299 2.18723E+01 2.66035E+01 0.00000E+00
 -1      4300 2.64394E+01 2.46262E+01 0.00000E+00
 -1      4301 2.79394E+01 2.46262E+01 0.00000E+00
 -1      4302 2.91319E+01 2.24134E+01 0.00000E+00
 -1      4303 2.53257E+01 2.28556E+01 0.00000E+00
 -1      4304 4.43138E+01 2.26492E+01 0.00000E+00
 -1      4305 4.46213E+01 2.48621E+01 0.00000E+00
 -1      4306 4.61213E+01 2.48621E+01 0.00000E+00
 -1      4307 4.50638E+01 2.13502E+01 0.00000E+00
 -1      4308 5.00925E+01 2.31061E+01 0.00000E+00
 -1      4309 4.65638E+01 2.13502E+01 0.00000E+00
 -1      4310 4.68713E+01 2.35631E+01 0.00000E+00
 -1      4311 4.93425E+01 2.18071E+01 0.00000E+00
 -1      4312 2.83819E+01 2.11144E+01 0.00000E+00
 -1      4313 2.68819E+01 2.11144E+01 0.00000E+00
 -1      4314 4.78425E+01 2.18071E+01 0.00000E+00
 -1      4315 2.49788E+01 2.13355E+01 0.00000E+00
 -1      4316 8.68839E+01 2.54385E+01 0.00000E+00
 -1      4317 2.51339E+01 2.04554E+01 0.00000E+00
 -3
    3C                          2077                                     1
 -1       164    8    0    1
 -2         6         7        23      1121      1284      1138
 -1       165    8    0    1
 -2         7         8       164      1122      1285      1286
 -1       166    8    0    1
 -2         8         9       165      1123      1287      1288
 -1       167    8    0    1
 -2         8       165       164      1288      1289      1285
 -1       168    8    0    1
 -2         9        10       166      1124      1290      1291
 -1       169    8    0    1
 -2         9       166       165      1291      1292      1287
 -1       170    8    0    1
 -2        10        11       167      1125      1293      1294
 -1       171    8    0    1
 -2        10       167       166      1294      1295      1290
 -1       172    8    0    1
 -2        11        12       168      1126      1296      1297
 -1       173    8    0    1
 -2        11       168       167      1297      1298      1293
 -1       174    8    0    1
 -2        12        13       169      1127      1299      1300
 -1       175    8    0    1
 -2        12       169       168      1300      1301      1296
 -1       176    8    0    1
 -2        13        14       170      1128      1302      1303
 -1       177    8    0    1
 -2        13       170       169      1303      1304      1299
 -1       178    8    0    1
 -2        14        15       171      1129      1305      1306
 -1       179    8    0    1
 -2        14       171       170      1306      1307      1302
 -1       180    8    0    1
 -2        15        16       172      1130      1308      1309
 -1       181    8    0    1
 -2        15       172       171      1309      1310      1305
 -1       182    8    0    1
 -2        16        17       173      1131      1311      1312
 -1       183    8    0    1
 -2        16       173       172      1312      1313      1308
 -1       184    8    0    1
 -2        17        18       174      1132      1314      1315
 -1       185    8    0    1
 -2        17       174       173      1315      1316      1311
 -1       186    8    0    1
 -2        18        19       175      1133      1317      1318
 -1       187    8    0    1
 -2        18       175       174      1318      1319      1314
 -1       188    8    0    1
 -2        19        20       176      1134      1320      1321
 -1       189    8    0    1
 -2        19       176       175      1321      1322      1317
 -1       190    8    0    1
 -2        20        21       177      1135      1323      1324
 -1       191    8    0    1
 -2        20       177       176      1324      1325      1320
 -1       192    8    0    1
 -2        21        22       178      1136      1326      1327
 -1       193    8    0    1
 -2        21       178       177      1327      1328      1323
 -1       194    8    0    1
 -2        22         5       179      1137      1329      1330
 -1       195    8    0    1
 -2       178        22       179      1326      1330      1331
 -1       196    8    0    1
 -2         5        72       179      1188      1332      1329
 -1       197    8    0    1
 -2        24        23       180      1139      1333      1334
 -1       198    8    0    1
 -2        25        24       181      1140      1335      1336
 -1       199    8    0    1
 -2        24       180       181      1334      1337      1335
 -1       200    8    0    1
 -2        26        25       182      1141      1338      1339
 -1       201    8    0    1
 -2        25       181       182      1336      1340      1338
 -1       202    8    0    1
 -2        27        26       183      1142      1341      1342
 -1       203    8    0    1
 -2        26       182       183      1339      1343      1341
 -1       204    8    0    1
 -2        28        27       184      1143      1344      1345
 -1       205    8    0    1
 -2        27       183       184      1342      1346      1344
 -1       206    8    0    1
 -2        29        28       185      1144      1347      1348
 -1       207    8    0    1
 -2        28       184       185      1345      1349      1347
 -1       208    8    0    1
 -2        30        29       186      1145      1350      1351
 -1       209    8    0    1
 -2        29       185       186      1348      1352      1350
 -1       210    8    0    1
 -2        31        30       187      1146      1353      1354
 -1       211    8    0    1
 -2        30       186       187      1351      1355      1353
 -1       212    8    0    1
 -2        32        31       188      1147      1356      1357
 -1       213    8    0    1
 -2        31       187       188      1354      1358      1356
 -1       214    8    0    1
 -2        33        32       189      1148      1359      1360
 -1       215    8    0    1
 -2        32       188       189      1357      1361      1359
 -1       216    8    0    1
 -2        34        33       190      1149      1362      1363
 -1       217    8    0    1
 -2        33       189       190      1360      1364      1362
 -1       218    8    0    1
 -2        35        34       191      1150      1365      1366
 -1       219    8    0    1
 -2        34       190       191      1363      1367      1365
 -1       220    8    0    1
 -2        36        35       192      1151      1368      1369
 -1       221    8    0    1
 -2        35       191       192      1366      1370      1368
 -1       222    8    0    1
 -2        37        36       193      1152      1371      1372
 -1       223    8    0    1
 -2        36       192       193      1369      1373      1371
 -1       224    8    0    1
 -2        38        37       194      1153      1374      1375
 -1       225    8    0    1
 -2        37       193       194      1372      1376      1374
 -1       226    8    0    1
 -2        39        38       195      1154      1377      1378
 -1       227    8    0    1
 -2        38       194       195      1375      1379      1377
 -1       228    8    0    1
 -2        40        39       196      1155      1380      1381
 -1       229    8    0    1
 -2        39       195       196      1378      1382      1380
 -1       230    8    0    1
 -2        41        40       197      1156      1383      1384
 -1       231    8    0    1
 -2        40       196       197      1381      1385      1383
 -1       232    8    0    1
 -2        42        41       198      1157      1386      1387
 -1       233    8    0    1
 -2        41       197       198      1384      1388      1386
 -1       234    8    0    1
 -2        43        42       199      1158      1389      1390
 -1       235    8    0    1
 -2        42       198       199      1387      1391      1389
 -1       236    8    0    1
 -2        44        43       200      1159      1392      1393
 -1       237    8    0    1
 -2        43       199       200      1390      1394      1392
 -1       238    8    0    1
 -2        45        44       201      1160      1395      1396
 -1       239    8    0    1
 -2        44       200       201      1393      1397      1395
 -1       240    8    0    1
 -2        46        45       202      1161      1398      1399
 -1       241    8    0    1
 -2        45       201       202      1396      1400      1398
 -1       242    8    0    1
 -2        47        46       203      1162      1401      1402
 -1       243    8    0    1
 -2        46       202       203      1399      1403      1401
 -1       244    8    0    1
 -2        48        47       204      1163      1404      1405
 -1       245    8    0    1
 -2        47       203       204      1402      1406      1404
 -1       246    8    0    1
 -2        49        48       205      1164      1407      1408
 -1       247    8    0    1
 -2        48       204       205      1405      1409      1407
 -1       248    8    0    1
 -2        50        49       206      1165      1410      1411
 -1       249    8    0    1
 -2        49       205       206      1408      1412      1410
 -1       250    8    0    1
 -2        51        50       207      1166      1413      1414
 -1       251    8    0    1
 -2        50       206       207      1411      1415      1413
 -1       252    8    0    1
 -2        52        51       208      1167      1416      1417
 -1       253    8    0    1
 -2        51       207       208      1414      1418      1416
 -1       254    8    0    1
 -2        53        52       209      1168      1419      1420
 -1       255    8    0    1
 -2        52       208       209      1417      1421      1419
 -1       256    8    0    1
 -2        54        53       210      1169      1422      1423
 -1       257    8    0    1
 -2        53       209       210      1420      1424      1422
 -1       258    8    0    1
 -2        55        54       211      1170      1425      1426
 -1       259    8    0    1
 -2        54       210       211      1423      1427      1425
 -1       260    8    0    1
 -2        56        55       212      1171      1428      1429
 -1       261    8    0    1
 -2        55       211       212      1426      1430      1428
 -1       262    8    0    1
 -2        57        56       213      1172      1431      1432
 -1       263    8    0    1
 -2        56       212       213      1429      1433      1431
 -1       264    8    0    1
 -2        58        57       214      1173      1434      1435
 -1       265    8    0    1
 -2        57       213       214      1432      1436      1434
 -1       266    8    0    1
 -2        59        58       215      1174      1437      1438
 -1       267    8    0    1
 -2        58       214       215      1435      1439      1437
 -1       268    8    0    1
 -2        60        59       216      1175      1440      1441
 -1       269    8    0    1
 -2        59       215       216      1438      1442      1440
 -1       270    8    0    1
 -2        61        60       217      1176      1443      1444
 -1       271    8    0    1
 -2        60       216       217      1441      1445      1443
 -1       272    8    0    1
 -2        62        61       218      1177      1446      1447
 -1       273    8    0    1
 -2        61       217       218      1444      1448      1446
 -1       274    8    0    1
 -2        63        62       219      1178      1449      1450
 -1       275    8    0    1
 -2        62       218       219      1447      1451      1449
 -1       276    8    0    1
 -2        64        63       220      1179      1452      1453
 -1       277    8    0    1
 -2        63       219       220      1450      1454      1452
 -1       278    8    0    1
 -2        65        64       221      1180      1455      1456
 -1       279    8    0    1
 -2        64       220       221      1453      1457      1455
 -1       280    8    0    1
 -2        66        65       222      1181      1458      1459
 -1       281    8    0    1
 -2        65       221       222      1456      1460      1458
 -1       282    8    0    1
 -2        67        66       223      1182      1461      1462
 -1       283    8    0    1
 -2        66       222       223      1459      1463      1461
 -1       284    8    0    1
 -2        68        67       224      1183      1464      1465
 -1       285    8    0    1
 -2        67       223       224      1462      1466      1464
 -1       286    8    0    1
 -2        69        68       225      1184      1467      1468
 -1       287    8    0    1
 -2        68       224       225      1465      1469      1467
 -1       288    8    0    1
 -2        70        69       226      1185      1470      1471
 -1       289    8    0    1
 -2        69       225       226      1468      1472      1470
 -1       290    8    0    1
 -2        71        70       227      1186      1473      1474
 -1       291    8    0    1
 -2        70       226       227      1471      1475      1473
 -1       292    8    0    1
 -2         4        71       136      1187      1476      1254
 -1       293    8    0    1
 -2       136        71       227      1476      1474      1477
 -1       294    8    0    1
 -2        72        73       228      1189      1478      1479
 -1       295    8    0    1
 -2        72       228       179      1479      1480      1332
 -1       296    8    0    1
 -2        73        74       229      1190      1481      1482
 -1       297    8    0    1
 -2        73       229       228      1482      1483      1478
 -1       298    8    0    1
 -2        74        75       230      1191      1484      1485
 -1       299    8    0    1
 -2        74       230       229      1485      1486      1481
 -1       300    8    0    1
 -2        75        76       231      1192      1487      1488
 -1       301    8    0    1
 -2        75       231       230      1488      1489      1484
 -1       302    8    0    1
 -2        76        77       232      1193      1490      1491
 -1       303    8    0    1
 -2        76       232       231      1491      1492      1487
 -1       304    8    0    1
 -2        77        78       233      1194      1493      1494
 -1       305    8    0    1
 -2        77       233       232      1494      1495      1490
 -1       306    8    0    1
 -2        78        79       234      1195      1496      1497
 -1       307    8    0    1
 -2        78       234       233      1497      1498      1493
 -1       308    8    0    1
 -2        79        80       235      1196      1499      1500
 -1       309    8    0    1
 -2        79       235       234      1500      1501      1496
 -1       310    8    0    1
 -2        80        81       236      1197      1502      1503
 -1       311    8    0    1
 -2        80       236       235      1503      1504      1499
 -1       312    8    0    1
 -2        81        82       237      1198      1505      1506
 -1       313    8    0    1
 -2        81       237       236      1506      1507      1502
 -1       314    8    0    1
 -2        82        83       238      1199      1508      1509
 -1       315    8    0    1
 -2        82       238       237      1509      1510      1505
 -1       316    8    0    1
 -2        83        84       239      1200      1511      1512
 -1       317    8    0    1
 -2        83       239       238      1512      1513      1508
 -1       318    8    0    1
 -2        84        85       240      1201      1514      1515
 -1       319    8    0    1
 -2        84       240       239      1515      1516      1511
 -1       320    8    0    1
 -2        85        86       241      1202      1517      1518
 -1       321    8    0    1
 -2        85       241       240      1518      1519      1514
 -1       322    8    0    1
 -2        86        87       242      1203      1520      1521
 -1       323    8    0    1
 -2        86       242       241      1521      1522      1517
 -1       324    8    0    1
 -2        87        88       243      1204      1523      1524
 -1       325    8    0    1
 -2        87       243       242      1524      1525      1520
 -1       326    8    0    1
 -2        88        89       244      1205      1526      1527
 -1       327    8    0    1
 -2        88       244       243      1527      1528      1523
 -1       328    8    0    1
 -2        89        90       245      1206      1529      1530
 -1       329    8    0    1
 -2        89       245       244      1530      1531      1526
 -1       330    8    0    1
 -2        90        91       246      1207      1532      1533
 -1       331    8    0    1
 -2        90       246       245      1533      1534      1529
 -1       332    8    0    1
 -2        91        92       247      1208      1535      1536
 -1       333    8    0    1
 -2        91       247       246      1536      1537      1532
 -1       334    8    0    1
 -2        92        93       248      1209      1538      1539
 -1       335    8    0    1
 -2        92       248       247      1539      1540      1535
 -1       336    8    0    1
 -2        93        94       249      1210      1541      1542
 -1       337    8    0    1
 -2        93       249       248      1542      1543      1538
 -1       338    8    0    1
 -2        94        95       250      1211      1544      1545
 -1       339    8    0    1
 -2        94       250       249      1545      1546      1541
 -1       340    8    0    1
 -2        95        96       251      1212      1547      1548
 -1       341    8    0    1
 -2        95       251       250      1548      1549      1544
 -1       342    8    0    1
 -2        96        97       252      1213      1550      1551
 -1       343    8    0    1
 -2        96       252       251      1551      1552      1547
 -1       344    8    0    1
 -2        97        98       253      1214      1553      1554
 -1       345    8    0    1
 -2        97       253       252      1554      1555      1550
 -1       346    8    0    1
 -2        98        99       254      1215      1556      1557
 -1       347    8    0    1
 -2        98       254       253      1557      1558      1553
 -1       348    8    0    1
 -2        99       100       255      1216      1559      1560
 -1       349    8    0    1
 -2        99       255       254      1560      1561      1556
 -1       350    8    0    1
 -2       100       101       256      1217      1562      1563
 -1       351    8    0    1
 -2       100       256       255      1563      1564      1559
 -1       352    8    0    1
 -2       101       102       257      1218      1565      1566
 -1       353    8    0    1
 -2       101       257       256      1566      1567      1562
 -1       354    8    0    1
 -2       102       103       258      1219      1568      1569
 -1       355    8    0    1
 -2       102       258       257      1569      1570      1565
 -1       356    8    0    1
 -2       103       104       259      1220      1571      1572
 -1       357    8    0    1
 -2       103       259       258      1572      1573      1568
 -1       358    8    0    1
 -2       104       105       260      1221      1574      1575
 -1       359    8    0    1
 -2       104       260       259      1575      1576      1571
 -1       360    8    0    1
 -2       105       106       261      1222      1577      1578
 -1       361    8    0    1
 -2       105       261       260      1578      1579      1574
 -1       362    8    0    1
 -2       106       107       262      1223      1580      1581
 -1       363    8    0    1
 -2       106       262       261      1581      1582      1577
 -1       364    8    0    1
 -2       107       108       263      1224      1583      1584
 -1       365    8    0    1
 -2       107       263       262      1584      1585      1580
 -1       366    8    0    1
 -2       108       109       264      1225      1586      1587
 -1       367    8    0    1
 -2       108       264       263      1587      1588      1583
 -1       368    8    0    1
 -2       109       110       265      1226      1589      1590
 -1       369    8    0    1
 -2       109       265       264      1590      1591      1586
 -1       370    8    0    1
 -2       110       111       266      1227      1592      1593
 -1       371    8    0    1
 -2       110       266       265      1593      1594      1589
 -1       372    8    0    1
 -2       111       112       267      1228      1595      1596
 -1       373    8    0    1
 -2       111       267       266      1596      1597      1592
 -1       374    8    0    1
 -2       112       113       268      1229      1598      1599
 -1       375    8    0    1
 -2       112       268       267      1599      1600      1595
 -1       376    8    0    1
 -2       113       114       269      1230      1601      1602
 -1       377    8    0    1
 -2       113       269       268      1602      1603      1598
 -1       378    8    0    1
 -2       114       115       270      1231      1604      1605
 -1       379    8    0    1
 -2       114       270       269      1605      1606      1601
 -1       380    8    0    1
 -2       115       116       271      1232      1607      1608
 -1       381    8    0    1
 -2       115       271       270      1608      1609      1604
 -1       382    8    0    1
 -2       116       117       272      1233      1610      1611
 -1       383    8    0    1
 -2       116       272       271      1611      1612      1607
 -1       384    8    0    1
 -2       117       118       273      1234      1613      1614
 -1       385    8    0    1
 -2       117       273       272      1614      1615      1610
 -1       386    8    0    1
 -2       118       119       274      1235      1616      1617
 -1       387    8    0    1
 -2       118       274       273      1617      1618      1613
 -1       388    8    0    1
 -2       119       120       275      1236      1619      1620
 -1       389    8    0    1
 -2       119       275       274      1620      1621      1616
 -1       390    8    0    1
 -2       120         3       121      1237      1238      1622
 -1       391    8    0    1
 -2       121       122       276      1239      1623      1624
 -1       392    8    0    1
 -2       122       123       277      1240      1625      1626
 -1       393    8    0    1
 -2       122       277       276      1626      1627      1623
 -1       394    8    0    1
 -2       123       124       278      1241      1628      1629
 -1       395    8    0    1
 -2       123       278       277      1629      1630      1625
 -1       396    8    0    1
 -2       124       125       279      1242      1631      1632
 -1       397    8    0    1
 -2       124       279       278      1632      1633      1628
 -1       398    8    0    1
 -2       125       126       280      1243      1634      1635
 -1       399    8    0    1
 -2       125       280       279      1635      1636      1631
 -1       400    8    0    1
 -2       126       127       281      1244      1637      1638
 -1       401    8    0    1
 -2       126       281       280      1638      1639      1634
 -1       402    8    0    1
 -2       127       128       282      1245      1640      1641
 -1       403    8    0    1
 -2       127       282       281      1641      1642      1637
 -1       404    8    0    1
 -2       128       129       283      1246      1643      1644
 -1       405    8    0    1
 -2       128       283       282      1644      1645      1640
 -1       406    8    0    1
 -2       129       130       284      1247      1646      1647
 -1       407    8    0    1
 -2       129       284       283      1647      1648      1643
 -1       408    8    0    1
 -2       130       131       285      1248      1649      1650
 -1       409    8    0    1
 -2       130       285       284      1650      1651      1646
 -1       410    8    0    1
 -2       131       132       286      1249      1652      1653
 -1       411    8    0    1
 -2       131       286       285      1653      1654      1649
 -1       412    8    0    1
 -2       132       133       287      1250      1655      1656
 -1       413    8    0    1
 -2       132       287       286      1656      1657      1652
 -1       414    8    0    1
 -2       133       134       288      1251      1658      1659
 -1       415    8    0    1
 -2       133       288       287      1659      1660      1655
 -1       416    8    0    1
 -2       134       135       289      1252      1661      1662
 -1       417    8    0    1
 -2       134       289       288      1662      1663      1658
 -1       418    8    0    1
 -2       135       136       290      1253      1664      1665
 -1       419    8    0    1
 -2       289       135       290      1661      1665      1666
 -1       420    8    0    1
 -2       136       227       290      1477      1667      1664
 -1       421    8    0    1
 -2         2       137       291      1255      1668      1669
 -1       422    8    0    1
 -2       137       138       292      1256      1670      1671
 -1       423    8    0    1
 -2       138       139       293      1257      1672      1673
 -1       424    8    0    1
 -2       139       140       294      1258      1674      1675
 -1       425    8    0    1
 -2       140       141       295      1259      1676      1677
 -1       426    8    0    1
 -2       141       142       296      1260      1678      1679
 -1       427    8    0    1
 -2       142       143       297      1261      1680      1681
 -1       428    8    0    1
 -2       143       144       298      1262      1682      1683
 -1       429    8    0    1
 -2       144       145       299      1263      1684      1685
 -1       430    8    0    1
 -2       145       146       300      1264      1686      1687
 -1       431    8    0    1
 -2       146       147       301      1265      1688      1689
 -1       432    8    0    1
 -2       147       148       302      1266      1690      1691
 -1       433    8    0    1
 -2       148       149       303      1267      1692      1693
 -1       434    8    0    1
 -2       149       150       304      1268      1694      1695
 -1       435    8    0    1
 -2       150       151       305      1269      1696      1697
 -1       436    8    0    1
 -2       151       152       306      1270      1698      1699
 -1       437    8    0    1
 -2       152       153       307      1271      1700      1701
 -1       438    8    0    1
 -2       153       154       308      1272      1702      1703
 -1       439    8    0    1
 -2       154       155       309      1273      1704      1705
 -1       440    8    0    1
 -2       155       156       310      1274      1706      1707
 -1       441    8    0    1
 -2       156       157       311      1275      1708      1709
 -1       442    8    0    1
 -2       157         1       312      1276      1710      1711
 -1       443    8    0    1
 -2         1       158       313      1277      1712      1713
 -1       444    8    0    1
 -2       158       159       314      1278      1714      1715
 -1       445    8    0    1
 -2       159       160       315      1279      1716      1717
 -1       446    8    0    1
 -2       160       161       316      1280      1718      1719
 -1       447    8    0    1
 -2       161       162       317      1281      1720      1721
 -1       448    8    0    1
 -2       162       163       318      1282      1722      1723
 -1       449    8    0    1
 -2       163         2       319      1283      1724      1725
 -1       450    8    0    1
 -2       294       140       295      1674      1677      1726
 -1       451    8    0    1
 -2       293       139       294      1672      1675      1727
 -1       452    8    0    1
 -2       120       121       275      1622      1728      1619
 -1       453    8    0    1
 -2       121       276       275      1624      1729      1728
 -1       454    8    0    1
 -2       291       137       292      1668      1671      1730
 -1       455    8    0    1
 -2       292       138       293      1670      1673      1731
 -1       456    8    0    1
 -2         2       291       319      1669      1732      1724
 -1       457    8    0    1
 -2       141       296       295      1679      1733      1676
 -1       458    8    0    1
 -2       142       297       296      1681      1734      1678
 -1       459    8    0    1
 -2       143       298       297      1683      1735      1680
 -1       460    8    0    1
 -2       144       299       298      1685      1736      1682
 -1       461    8    0    1
 -2       145       300       299      1687      1737      1684
 -1       462    8    0    1
 -2       146       301       300      1689      1738      1686
 -1       463    8    0    1
 -2       147       302       301      1691      1739      1688
 -1       464    8    0    1
 -2       148       303       302      1693      1740      1690
 -1       465    8    0    1
 -2       149       304       303      1695      1741      1692
 -1       466    8    0    1
 -2       150       305       304      1697      1742      1694
 -1       467    8    0    1
 -2       151       306       305      1699      1743      1696
 -1       468    8    0    1
 -2       152       307       306      1701      1744      1698
 -1       469    8    0    1
 -2       153       308       307      1703      1745      1700
 -1       470    8    0    1
 -2       154       309       308      1705      1746      1702
 -1       471    8    0    1
 -2       155       310       309      1707      1747      1704
 -1       472    8    0    1
 -2       156       311       310      1709      1748      1706
 -1       473    8    0    1
 -2       157       312       311      1711      1749      1708
 -1       474    8    0    1
 -2         1       313       312      1713      1750      1710
 -1       475    8    0    1
 -2       158       314       313      1715      1751      1712
 -1       476    8    0    1
 -2       159       315       314      1717      1752      1714
 -1       477    8    0    1
 -2       160       316       315      1719      1753      1716
 -1       478    8    0    1
 -2       161       317       316      1721      1754      1718
 -1       479    8    0    1
 -2       162       318       317      1723      1755      1720
 -1       480    8    0    1
 -2       163       319       318      1725      1756      1722
 -1       481    8    0    1
 -2        23         7       164      1284      1286      1757
 -1       482    8    0    1
 -2       165       166       320      1292      1758      1759
 -1       483    8    0    1
 -2       164       165       321      1289      1760      1761
 -1       484    8    0    1
 -2       165       320       321      1759      1762      1760
 -1       485    8    0    1
 -2       167       168       322      1298      1763      1764
 -1       486    8    0    1
 -2       168       169       323      1301      1765      1766
 -1       487    8    0    1
 -2       168       323       322      1766      1767      1763
 -1       488    8    0    1
 -2       169       170       324      1304      1768      1769
 -1       489    8    0    1
 -2       169       324       323      1769      1770      1765
 -1       490    8    0    1
 -2       170       171       325      1307      1771      1772
 -1       491    8    0    1
 -2       170       325       324      1772      1773      1768
 -1       492    8    0    1
 -2       171       172       326      1310      1774      1775
 -1       493    8    0    1
 -2       171       326       325      1775      1776      1771
 -1       494    8    0    1
 -2       172       173       327      1313      1777      1778
 -1       495    8    0    1
 -2       172       327       326      1778      1779      1774
 -1       496    8    0    1
 -2       173       174       328      1316      1780      1781
 -1       497    8    0    1
 -2       173       328       327      1781      1782      1777
 -1       498    8    0    1
 -2       174       175       329      1319      1783      1784
 -1       499    8    0    1
 -2       174       329       328      1784      1785      1780
 -1       500    8    0    1
 -2       175       176       330      1322      1786      1787
 -1       501    8    0    1
 -2       175       330       329      1787      1788      1783
 -1       502    8    0    1
 -2       176       177       331      1325      1789      1790
 -1       503    8    0    1
 -2       176       331       330      1790      1791      1786
 -1       504    8    0    1
 -2       177       178       332      1328      1792      1793
 -1       505    8    0    1
 -2       177       332       331      1793      1794      1789
 -1       506    8    0    1
 -2       178       179       333      1331      1795      1796
 -1       507    8    0    1
 -2       332       178       333      1792      1796      1797
 -1       508    8    0    1
 -2       179       228       333      1480      1798      1795
 -1       509    8    0    1
 -2       180        23       164      1333      1757      1799
 -1       510    8    0    1
 -2       228       229       334      1483      1800      1801
 -1       511    8    0    1
 -2       228       334       333      1801      1802      1798
 -1       512    8    0    1
 -2       180       164       321      1799      1761      1803
 -1       513    8    0    1
 -2       182       181       335      1340      1804      1805
 -1       514    8    0    1
 -2       183       182       336      1343      1806      1807
 -1       515    8    0    1
 -2       182       335       336      1805      1808      1806
 -1       516    8    0    1
 -2       184       183       337      1346      1809      1810
 -1       517    8    0    1
 -2       183       336       337      1807      1811      1809
 -1       518    8    0    1
 -2       185       184       338      1349      1812      1813
 -1       519    8    0    1
 -2       184       337       338      1810      1814      1812
 -1       520    8    0    1
 -2       186       185       339      1352      1815      1816
 -1       521    8    0    1
 -2       185       338       339      1813      1817      1815
 -1       522    8    0    1
 -2       187       186       340      1355      1818      1819
 -1       523    8    0    1
 -2       186       339       340      1816      1820      1818
 -1       524    8    0    1
 -2       188       187       341      1358      1821      1822
 -1       525    8    0    1
 -2       187       340       341      1819      1823      1821
 -1       526    8    0    1
 -2       189       188       342      1361      1824      1825
 -1       527    8    0    1
 -2       188       341       342      1822      1826      1824
 -1       528    8    0    1
 -2       190       189       343      1364      1827      1828
 -1       529    8    0    1
 -2       189       342       343      1825      1829      1827
 -1       530    8    0    1
 -2       191       190       344      1367      1830      1831
 -1       531    8    0    1
 -2       190       343       344      1828      1832      1830
 -1       532    8    0    1
 -2       192       191       345      1370      1833      1834
 -1       533    8    0    1
 -2       191       344       345      1831      1835      1833
 -1       534    8    0    1
 -2       193       192       346      1373      1836      1837
 -1       535    8    0    1
 -2       192       345       346      1834      1838      1836
 -1       536    8    0    1
 -2       194       193       347      1376      1839      1840
 -1       537    8    0    1
 -2       193       346       347      1837      1841      1839
 -1       538    8    0    1
 -2       195       194       348      1379      1842      1843
 -1       539    8    0    1
 -2       194       347       348      1840      1844      1842
 -1       540    8    0    1
 -2       196       195       349      1382      1845      1846
 -1       541    8    0    1
 -2       195       348       349      1843      1847      1845
 -1       542    8    0    1
 -2       197       196       350      1385      1848      1849
 -1       543    8    0    1
 -2       196       349       350      1846      1850      1848
 -1       544    8    0    1
 -2       198       197       351      1388      1851      1852
 -1       545    8    0    1
 -2       197       350       351      1849      1853      1851
 -1       546    8    0    1
 -2       199       198       352      1391      1854      1855
 -1       547    8    0    1
 -2       198       351       352      1852      1856      1854
 -1       548    8    0    1
 -2       200       199       353      1394      1857      1858
 -1       549    8    0    1
 -2       199       352       353      1855      1859      1857
 -1       550    8    0    1
 -2       201       200       354      1397      1860      1861
 -1       551    8    0    1
 -2       200       353       354      1858      1862      1860
 -1       552    8    0    1
 -2       202       201       355      1400      1863      1864
 -1       553    8    0    1
 -2       201       354       355      1861      1865      1863
 -1       554    8    0    1
 -2       203       202       356      1403      1866      1867
 -1       555    8    0    1
 -2       202       355       356      1864      1868      1866
 -1       556    8    0    1
 -2       204       203       357      1406      1869      1870
 -1       557    8    0    1
 -2       203       356       357      1867      1871      1869
 -1       558    8    0    1
 -2       205       204       358      1409      1872      1873
 -1       559    8    0    1
 -2       204       357       358      1870      1874      1872
 -1       560    8    0    1
 -2       206       205       359      1412      1875      1876
 -1       561    8    0    1
 -2       205       358       359      1873      1877      1875
 -1       562    8    0    1
 -2       207       206       360      1415      1878      1879
 -1       563    8    0    1
 -2       206       359       360      1876      1880      1878
 -1       564    8    0    1
 -2       208       207       361      1418      1881      1882
 -1       565    8    0    1
 -2       207       360       361      1879      1883      1881
 -1       566    8    0    1
 -2       209       208       362      1421      1884      1885
 -1       567    8    0    1
 -2       208       361       362      1882      1886      1884
 -1       568    8    0    1
 -2       210       209       363      1424      1887      1888
 -1       569    8    0    1
 -2       209       362       363      1885      1889      1887
 -1       570    8    0    1
 -2       211       210       364      1427      1890      1891
 -1       571    8    0    1
 -2       210       363       364      1888      1892      1890
 -1       572    8    0    1
 -2       212       211       365      1430      1893      1894
 -1       573    8    0    1
 -2       211       364       365      1891      1895      1893
 -1       574    8    0    1
 -2       213       212       366      1433      1896      1897
 -1       575    8    0    1
 -2       212       365       366      1894      1898      1896
 -1       576    8    0    1
 -2       214       213       367      1436      1899      1900
 -1       577    8    0    1
 -2       213       366       367      1897      1901      1899
 -1       578    8    0    1
 -2       215       214       368      1439      1902      1903
 -1       579    8    0    1
 -2       214       367       368      1900      1904      1902
 -1       580    8    0    1
 -2       216       215       369      1442      1905      1906
 -1       581    8    0    1
 -2       215       368       369      1903      1907      1905
 -1       582    8    0    1
 -2       217       216       370      1445      1908      1909
 -1       583    8    0    1
 -2       216       369       370      1906      1910      1908
 -1       584    8    0    1
 -2       218       217       371      1448      1911      1912
 -1       585    8    0    1
 -2       217       370       371      1909      1913      1911
 -1       586    8    0    1
 -2       219       218       372      1451      1914      1915
 -1       587    8    0    1
 -2       218       371       372      1912      1916      1914
 -1       588    8    0    1
 -2       220       219       373      1454      1917      1918
 -1       589    8    0    1
 -2       219       372       373      1915      1919      1917
 -1       590    8    0    1
 -2       221       220       374      1457      1920      1921
 -1       591    8    0    1
 -2       220       373       374      1918      1922      1920
 -1       592    8    0    1
 -2       222       221       375      1460      1923      1924
 -1       593    8    0    1
 -2       221       374       375      1921      1925      1923
 -1       594    8    0    1
 -2       223       222       376      1463      1926      1927
 -1       595    8    0    1
 -2       222       375       376      1924      1928      1926
 -1       596    8    0    1
 -2       224       223       377      1466      1929      1930
 -1       597    8    0    1
 -2       223       376       377      1927      1931      1929
 -1       598    8    0    1
 -2       225       224       378      1469      1932      1933
 -1       599    8    0    1
 -2       224       377       378      1930      1934      1932
 -1       600    8    0    1
 -2       226       225       379      1472      1935      1936
 -1       601    8    0    1
 -2       225       378       379      1933      1937      1935
 -1       602    8    0    1
 -2       227       226       380      1475      1938      1939
 -1       603    8    0    1
 -2       290       227       380      1667      1939      1940
 -1       604    8    0    1
 -2       226       379       380      1936      1941      1938
 -1       605    8    0    1
 -2       229       230       381      1486      1942      1943
 -1       606    8    0    1
 -2       229       381       334      1943      1944      1800
 -1       607    8    0    1
 -2       230       231       382      1489      1945      1946
 -1       608    8    0    1
 -2       230       382       381      1946      1947      1942
 -1       609    8    0    1
 -2       231       232       383      1492      1948      1949
 -1       610    8    0    1
 -2       231       383       382      1949      1950      1945
 -1       611    8    0    1
 -2       232       233       384      1495      1951      1952
 -1       612    8    0    1
 -2       232       384       383      1952      1953      1948
 -1       613    8    0    1
 -2       233       234       385      1498      1954      1955
 -1       614    8    0    1
 -2       233       385       384      1955      1956      1951
 -1       615    8    0    1
 -2       234       235       386      1501      1957      1958
 -1       616    8    0    1
 -2       234       386       385      1958      1959      1954
 -1       617    8    0    1
 -2       235       236       387      1504      1960      1961
 -1       618    8    0    1
 -2       235       387       386      1961      1962      1957
 -1       619    8    0    1
 -2       236       237       388      1507      1963      1964
 -1       620    8    0    1
 -2       236       388       387      1964      1965      1960
 -1       621    8    0    1
 -2       237       238       389      1510      1966      1967
 -1       622    8    0    1
 -2       237       389       388      1967      1968      1963
 -1       623    8    0    1
 -2       238       239       390      1513      1969      1970
 -1       624    8    0    1
 -2       238       390       389      1970      1971      1966
 -1       625    8    0    1
 -2       239       240       391      1516      1972      1973
 -1       626    8    0    1
 -2       239       391       390      1973      1974      1969
 -1       627    8    0    1
 -2       240       241       392      1519      1975      1976
 -1       628    8    0    1
 -2       240       392       391      1976      1977      1972
 -1       629    8    0    1
 -2       241       242       393      1522      1978      1979
 -1       630    8    0    1
 -2       241       393       392      1979      1980      1975
 -1       631    8    0    1
 -2       242       243       394      1525      1981      1982
 -1       632    8    0    1
 -2       242       394       393      1982      1983      1978
 -1       633    8    0    1
 -2       243       244       395      1528      1984      1985
 -1       634    8    0    1
 -2       243       395       394      1985      1986      1981
 -1       635    8    0    1
 -2       244       245       396      1531      1987      1988
 -1       636    8    0    1
 -2       244       396       395      1988      1989      1984
 -1       637    8    0    1
 -2       245       246       397      1534      1990      1991
 -1       638    8    0    1
 -2       245       397       396      1991      1992      1987
 -1       639    8    0    1
 -2       246       247       398      1537      1993      1994
 -1       640    8    0    1
 -2       246       398       397      1994      1995      1990
 -1       641    8    0    1
 -2       247       248       399      1540      1996      1997
 -1       642    8    0    1
 -2       247       399       398      1997      1998      1993
 -1       643    8    0    1
 -2       248       249       400      1543      1999      2000
 -1       644    8    0    1
 -2       248       400       399      2000      2001      1996
 -1       645    8    0    1
 -2       249       250       401      1546      2002      2003
 -1       646    8    0    1
 -2       249       401       400      2003      2004      1999
 -1       647    8    0    1
 -2       250       251       402      1549      2005      2006
 -1       648    8    0    1
 -2       250       402       401      2006      2007      2002
 -1       649    8    0    1
 -2       251       252       403      1552      2008      2009
 -1       650    8    0    1
 -2       251       403       402      2009      2010      2005
 -1       651    8    0    1
 -2       252       253       404      1555      2011      2012
 -1       652    8    0    1
 -2       252       404       403      2012      2013      2008
 -1       653    8    0    1
 -2       253       254       405      1558      2014      2015
 -1       654    8    0    1
 -2       253       405       404      2015      2016      2011
 -1       655    8    0    1
 -2       254       255       406      1561      2017      2018
 -1       656    8    0    1
 -2       254       406       405      2018      2019      2014
 -1       657    8    0    1
 -2       255       256       407      1564      2020      2021
 -1       658    8    0    1
 -2       255       407       406      2021      2022      2017
 -1       659    8    0    1
 -2       256       257       408      1567      2023      2024
 -1       660    8    0    1
 -2       256       408       407      2024      2025      2020
 -1       661    8    0    1
 -2       257       258       409      1570      2026      2027
 -1       662    8    0    1
 -2       257       409       408      2027      2028      2023
 -1       663    8    0    1
 -2       258       259       410      1573      2029      2030
 -1       664    8    0    1
 -2       258       410       409      2030      2031      2026
 -1       665    8    0    1
 -2       259       260       411      1576      2032      2033
 -1       666    8    0    1
 -2       259       411       410      2033      2034      2029
 -1       667    8    0    1
 -2       260       261       412      1579      2035      2036
 -1       668    8    0    1
 -2       260       412       411      2036      2037      2032
 -1       669    8    0    1
 -2       261       262       413      1582      2038      2039
 -1       670    8    0    1
 -2       261       413       412      2039      2040      2035
 -1       671    8    0    1
 -2       262       263       414      1585      2041      2042
 -1       672    8    0    1
 -2       262       414       413      2042      2043      2038
 -1       673    8    0    1
 -2       263       264       415      1588      2044      2045
 -1       674    8    0    1
 -2       263       415       414      2045      2046      2041
 -1       675    8    0    1
 -2       264       265       416      1591      2047      2048
 -1       676    8    0    1
 -2       264       416       415      2048      2049      2044
 -1       677    8    0    1
 -2       265       266       417      1594      2050      2051
 -1       678    8    0    1
 -2       265       417       416      2051      2052      2047
 -1       679    8    0    1
 -2       266       267       418      1597      2053      2054
 -1       680    8    0    1
 -2       266       418       417      2054      2055      2050
 -1       681    8    0    1
 -2       267       268       419      1600      2056      2057
 -1       682    8    0    1
 -2       267       419       418      2057      2058      2053
 -1       683    8    0    1
 -2       268       269       420      1603      2059      2060
 -1       684    8    0    1
 -2       268       420       419      2060      2061      2056
 -1       685    8    0    1
 -2       269       270       421      1606      2062      2063
 -1       686    8    0    1
 -2       269       421       420      2063      2064      2059
 -1       687    8    0    1
 -2       270       271       422      1609      2065      2066
 -1       688    8    0    1
 -2       270       422       421      2066      2067      2062
 -1       689    8    0    1
 -2       271       272       423      1612      2068      2069
 -1       690    8    0    1
 -2       271       423       422      2069      2070      2065
 -1       691    8    0    1
 -2       272       273       424      1615      2071      2072
 -1       692    8    0    1
 -2       272       424       423      2072      2073      2068
 -1       693    8    0    1
 -2       273       274       425      1618      2074      2075
 -1       694    8    0    1
 -2       273       425       424      2075      2076      2071
 -1       695    8    0    1
 -2       274       275       426      1621      2077      2078
 -1       696    8    0    1
 -2       425       274       426      2074      2078      2079
 -1       697    8    0    1
 -2       275       276       426      1729      2080      2077
 -1       698    8    0    1
 -2       278       279       427      1633      2081      2082
 -1       699    8    0    1
 -2       277       278       428      1630      2083      2084
 -1       700    8    0    1
 -2       278       427       428      2082      2085      2083
 -1       701    8    0    1
 -2       276       277       429      1627      2086      2087
 -1       702    8    0    1
 -2       426       276       429      2080      2087      2088
 -1       703    8    0    1
 -2       277       428       429      2084      2089      2086
 -1       704    8    0    1
 -2       279       280       430      1636      2090      2091
 -1       705    8    0    1
 -2       279       430       427      2091      2092      2081
 -1       706    8    0    1
 -2       280       281       431      1639      2093      2094
 -1       707    8    0    1
 -2       280       431       430      2094      2095      2090
 -1       708    8    0    1
 -2       281       282       432      1642      2096      2097
 -1       709    8    0    1
 -2       281       432       431      2097      2098      2093
 -1       710    8    0    1
 -2       282       283       433      1645      2099      2100
 -1       711    8    0    1
 -2       282       433       432      2100      2101      2096
 -1       712    8    0    1
 -2       283       284       434      1648      2102      2103
 -1       713    8    0    1
 -2       283       434       433      2103      2104      2099
 -1       714    8    0    1
 -2       284       285       435      1651      2105      2106
 -1       715    8    0    1
 -2       284       435       434      2106      2107      2102
 -1       716    8    0    1
 -2       285       286       436      1654      2108      2109
 -1       717    8    0    1
 -2       285       436       435      2109      2110      2105
 -1       718    8    0    1
 -2       286       287       437      1657      2111      2112
 -1       719    8    0    1
 -2       286       437       436      2112      2113      2108
 -1       720    8    0    1
 -2       287       288       438      1660      2114      2115
 -1       721    8    0    1
 -2       287       438       437      2115      2116      2111
 -1       722    8    0    1
 -2       288       289       439      1663      2117      2118
 -1       723    8    0    1
 -2       288       439       438      2118      2119      2114
 -1       724    8    0    1
 -2       292       293       440      1731      2120      2121
 -1       725    8    0    1
 -2       319       291       441      1732      2122      2123
 -1       726    8    0    1
 -2       291       292       442      1730      2124      2125
 -1       727    8    0    1
 -2       293       294       443      1727      2126      2127
 -1       728    8    0    1
 -2       294       295       444      1726      2128      2129
 -1       729    8    0    1
 -2       294       444       443      2129      2130      2126
 -1       730    8    0    1
 -2       166       167       445      1295      2131      2132
 -1       731    8    0    1
 -2       320       166       445      1758      2132      2133
 -1       732    8    0    1
 -2       167       322       445      1764      2134      2131
 -1       733    8    0    1
 -2       296       297       446      1734      2135      2136
 -1       734    8    0    1
 -2       297       298       447      1735      2137      2138
 -1       735    8    0    1
 -2       298       299       448      1736      2139      2140
 -1       736    8    0    1
 -2       299       300       449      1737      2141      2142
 -1       737    8    0    1
 -2       300       301       450      1738      2143      2144
 -1       738    8    0    1
 -2       300       450       449      2144      2145      2141
 -1       739    8    0    1
 -2       301       302       451      1739      2146      2147
 -1       740    8    0    1
 -2       302       303       452      1740      2148      2149
 -1       741    8    0    1
 -2       303       304       453      1741      2150      2151
 -1       742    8    0    1
 -2       304       305       454      1742      2152      2153
 -1       743    8    0    1
 -2       305       306       455      1743      2154      2155
 -1       744    8    0    1
 -2       306       307       456      1744      2156      2157
 -1       745    8    0    1
 -2       307       308       457      1745      2158      2159
 -1       746    8    0    1
 -2       308       309       458      1746      2160      2161
 -1       747    8    0    1
 -2       309       310       459      1747      2162      2163
 -1       748    8    0    1
 -2       310       311       460      1748      2164      2165
 -1       749    8    0    1
 -2       311       312       461      1749      2166      2167
 -1       750    8    0    1
 -2       312       313       462      1750      2168      2169
 -1       751    8    0    1
 -2       313       314       463      1751      2170      2171
 -1       752    8    0    1
 -2       314       315       464      1752      2172      2173
 -1       753    8    0    1
 -2       315       316       465      1753      2174      2175
 -1       754    8    0    1
 -2       316       317       466      1754      2176      2177
 -1       755    8    0    1
 -2       317       318       467      1755      2178      2179
 -1       756    8    0    1
 -2       318       319       468      1756      2180      2181
 -1       757    8    0    1
 -2       295       296       469      1733      2182      2183
 -1       758    8    0    1
 -2       296       446       469      2136      2184      2182
 -1       759    8    0    1
 -2       180       321       181      1803      2185      1337
 -1       760    8    0    1
 -2       444       295       470      2128      2186      2187
 -1       761    8    0    1
 -2       295       469       470      2183      2188      2186
 -1       762    8    0    1
 -2       181       321       335      2185      2189      1804
 -1       763    8    0    1
 -2       442       292       440      2124      2121      2190
 -1       764    8    0    1
 -2       441       291       442      2122      2125      2191
 -1       765    8    0    1
 -2       439       289       290      2117      1666      2192
 -1       766    8    0    1
 -2       440       293       443      2120      2127      2193
 -1       767    8    0    1
 -2       319       441       468      2123      2194      2180
 -1       768    8    0    1
 -2       467       318       468      2178      2181      2195
 -1       769    8    0    1
 -2       466       317       467      2176      2179      2196
 -1       770    8    0    1
 -2       465       316       466      2174      2177      2197
 -1       771    8    0    1
 -2       464       315       465      2172      2175      2198
 -1       772    8    0    1
 -2       463       314       464      2170      2173      2199
 -1       773    8    0    1
 -2       462       313       463      2168      2171      2200
 -1       774    8    0    1
 -2       461       312       462      2166      2169      2201
 -1       775    8    0    1
 -2       460       311       461      2164      2167      2202
 -1       776    8    0    1
 -2       459       310       460      2162      2165      2203
 -1       777    8    0    1
 -2       458       309       459      2160      2163      2204
 -1       778    8    0    1
 -2       457       308       458      2158      2161      2205
 -1       779    8    0    1
 -2       456       307       471      2156      2206      2207
 -1       780    8    0    1
 -2       307       457       471      2159      2208      2206
 -1       781    8    0    1
 -2       455       306       456      2154      2157      2209
 -1       782    8    0    1
 -2       454       305       455      2152      2155      2210
 -1       783    8    0    1
 -2       453       304       454      2150      2153      2211
 -1       784    8    0    1
 -2       452       303       453      2148      2151      2212
 -1       785    8    0    1
 -2       450       301       451      2143      2147      2213
 -1       786    8    0    1
 -2       448       299       449      2139      2142      2214
 -1       787    8    0    1
 -2       446       297       447      2135      2138      2215
 -1       788    8    0    1
 -2       447       298       448      2137      2140      2216
 -1       789    8    0    1
 -2       451       302       452      2146      2149      2217
 -1       790    8    0    1
 -2       334       381       472      1944      2218      2219
 -1       791    8    0    1
 -2       323       324       473      1770      2220      2221
 -1       792    8    0    1
 -2       322       323       474      1767      2222      2223
 -1       793    8    0    1
 -2       323       473       474      2221      2224      2222
 -1       794    8    0    1
 -2       325       326       475      1776      2225      2226
 -1       795    8    0    1
 -2       326       327       476      1779      2227      2228
 -1       796    8    0    1
 -2       326       476       475      2228      2229      2225
 -1       797    8    0    1
 -2       327       328       477      1782      2230      2231
 -1       798    8    0    1
 -2       327       477       476      2231      2232      2227
 -1       799    8    0    1
 -2       328       329       478      1785      2233      2234
 -1       800    8    0    1
 -2       328       478       477      2234      2235      2230
 -1       801    8    0    1
 -2       329       330       479      1788      2236      2237
 -1       802    8    0    1
 -2       329       479       478      2237      2238      2233
 -1       803    8    0    1
 -2       330       331       480      1791      2239      2240
 -1       804    8    0    1
 -2       330       480       479      2240      2241      2236
 -1       805    8    0    1
 -2       381       382       481      1947      2242      2243
 -1       806    8    0    1
 -2       381       481       472      2243      2244      2218
 -1       807    8    0    1
 -2       336       335       482      1808      2245      2246
 -1       808    8    0    1
 -2       442       440       483      2190      2247      2248
 -1       809    8    0    1
 -2       337       336       484      1811      2249      2250
 -1       810    8    0    1
 -2       336       482       484      2246      2251      2249
 -1       811    8    0    1
 -2       338       337       485      1814      2252      2253
 -1       812    8    0    1
 -2       337       484       485      2250      2254      2252
 -1       813    8    0    1
 -2       339       338       486      1817      2255      2256
 -1       814    8    0    1
 -2       338       485       486      2253      2257      2255
 -1       815    8    0    1
 -2       340       339       487      1820      2258      2259
 -1       816    8    0    1
 -2       339       486       487      2256      2260      2258
 -1       817    8    0    1
 -2       341       340       488      1823      2261      2262
 -1       818    8    0    1
 -2       340       487       488      2259      2263      2261
 -1       819    8    0    1
 -2       342       341       489      1826      2264      2265
 -1       820    8    0    1
 -2       341       488       489      2262      2266      2264
 -1       821    8    0    1
 -2       343       342       490      1829      2267      2268
 -1       822    8    0    1
 -2       342       489       490      2265      2269      2267
 -1       823    8    0    1
 -2       344       343       491      1832      2270      2271
 -1       824    8    0    1
 -2       343       490       491      2268      2272      2270
 -1       825    8    0    1
 -2       345       344       492      1835      2273      2274
 -1       826    8    0    1
 -2       344       491       492      2271      2275      2273
 -1       827    8    0    1
 -2       346       345       493      1838      2276      2277
 -1       828    8    0    1
 -2       345       492       493      2274      2278      2276
 -1       829    8    0    1
 -2       347       346       494      1841      2279      2280
 -1       830    8    0    1
 -2       346       493       494      2277      2281      2279
 -1       831    8    0    1
 -2       348       347       495      1844      2282      2283
 -1       832    8    0    1
 -2       347       494       495      2280      2284      2282
 -1       833    8    0    1
 -2       349       348       496      1847      2285      2286
 -1       834    8    0    1
 -2       348       495       496      2283      2287      2285
 -1       835    8    0    1
 -2       350       349       497      1850      2288      2289
 -1       836    8    0    1
 -2       349       496       497      2286      2290      2288
 -1       837    8    0    1
 -2       351       350       498      1853      2291      2292
 -1       838    8    0    1
 -2       350       497       498      2289      2293      2291
 -1       839    8    0    1
 -2       352       351       499      1856      2294      2295
 -1       840    8    0    1
 -2       351       498       499      2292      2296      2294
 -1       841    8    0    1
 -2       353       352       500      1859      2297      2298
 -1       842    8    0    1
 -2       352       499       500      2295      2299      2297
 -1       843    8    0    1
 -2       354       353       501      1862      2300      2301
 -1       844    8    0    1
 -2       353       500       501      2298      2302      2300
 -1       845    8    0    1
 -2       355       354       502      1865      2303      2304
 -1       846    8    0    1
 -2       354       501       502      2301      2305      2303
 -1       847    8    0    1
 -2       356       355       503      1868      2306      2307
 -1       848    8    0    1
 -2       355       502       503      2304      2308      2306
 -1       849    8    0    1
 -2       357       356       504      1871      2309      2310
 -1       850    8    0    1
 -2       356       503       504      2307      2311      2309
 -1       851    8    0    1
 -2       358       357       505      1874      2312      2313
 -1       852    8    0    1
 -2       357       504       505      2310      2314      2312
 -1       853    8    0    1
 -2       359       358       506      1877      2315      2316
 -1       854    8    0    1
 -2       358       505       506      2313      2317      2315
 -1       855    8    0    1
 -2       360       359       507      1880      2318      2319
 -1       856    8    0    1
 -2       359       506       507      2316      2320      2318
 -1       857    8    0    1
 -2       361       360       508      1883      2321      2322
 -1       858    8    0    1
 -2       360       507       508      2319      2323      2321
 -1       859    8    0    1
 -2       362       361       509      1886      2324      2325
 -1       860    8    0    1
 -2       361       508       509      2322      2326      2324
 -1       861    8    0    1
 -2       363       362       510      1889      2327      2328
 -1       862    8    0    1
 -2       362       509       510      2325      2329      2327
 -1       863    8    0    1
 -2       364       363       511      1892      2330      2331
 -1       864    8    0    1
 -2       363       510       511      2328      2332      2330
 -1       865    8    0    1
 -2       365       364       512      1895      2333      2334
 -1       866    8    0    1
 -2       364       511       512      2331      2335      2333
 -1       867    8    0    1
 -2       366       365       513      1898      2336      2337
 -1       868    8    0    1
 -2       365       512       513      2334      2338      2336
 -1       869    8    0    1
 -2       367       366       514      1901      2339      2340
 -1       870    8    0    1
 -2       366       513       514      2337      2341      2339
 -1       871    8    0    1
 -2       368       367       515      1904      2342      2343
 -1       872    8    0    1
 -2       367       514       515      2340      2344      2342
 -1       873    8    0    1
 -2       369       368       516      1907      2345      2346
 -1       874    8    0    1
 -2       368       515       516      2343      2347      2345
 -1       875    8    0    1
 -2       370       369       517      1910      2348      2349
 -1       876    8    0    1
 -2       369       516       517      2346      2350      2348
 -1       877    8    0    1
 -2       371       370       518      1913      2351      2352
 -1       878    8    0    1
 -2       370       517       518      2349      2353      2351
 -1       879    8    0    1
 -2       372       371       519      1916      2354      2355
 -1       880    8    0    1
 -2       371       518       519      2352      2356      2354
 -1       881    8    0    1
 -2       373       372       520      1919      2357      2358
 -1       882    8    0    1
 -2       372       519       520      2355      2359      2357
 -1       883    8    0    1
 -2       374       373       521      1922      2360      2361
 -1       884    8    0    1
 -2       373       520       521      2358      2362      2360
 -1       885    8    0    1
 -2       375       374       522      1925      2363      2364
 -1       886    8    0    1
 -2       374       521       522      2361      2365      2363
 -1       887    8    0    1
 -2       376       375       523      1928      2366      2367
 -1       888    8    0    1
 -2       375       522       523      2364      2368      2366
 -1       889    8    0    1
 -2       377       376       524      1931      2369      2370
 -1       890    8    0    1
 -2       376       523       524      2367      2371      2369
 -1       891    8    0    1
 -2       378       377       525      1934      2372      2373
 -1       892    8    0    1
 -2       377       524       525      2370      2374      2372
 -1       893    8    0    1
 -2       379       378       526      1937      2375      2376
 -1       894    8    0    1
 -2       378       525       526      2373      2377      2375
 -1       895    8    0    1
 -2       383       384       527      1953      2378      2379
 -1       896    8    0    1
 -2       384       385       528      1956      2380      2381
 -1       897    8    0    1
 -2       384       528       527      2381      2382      2378
 -1       898    8    0    1
 -2       385       386       529      1959      2383      2384
 -1       899    8    0    1
 -2       385       529       528      2384      2385      2380
 -1       900    8    0    1
 -2       386       387       530      1962      2386      2387
 -1       901    8    0    1
 -2       386       530       529      2387      2388      2383
 -1       902    8    0    1
 -2       387       388       531      1965      2389      2390
 -1       903    8    0    1
 -2       387       531       530      2390      2391      2386
 -1       904    8    0    1
 -2       388       389       532      1968      2392      2393
 -1       905    8    0    1
 -2       388       532       531      2393      2394      2389
 -1       906    8    0    1
 -2       389       390       533      1971      2395      2396
 -1       907    8    0    1
 -2       389       533       532      2396      2397      2392
 -1       908    8    0    1
 -2       390       391       534      1974      2398      2399
 -1       909    8    0    1
 -2       390       534       533      2399      2400      2395
 -1       910    8    0    1
 -2       391       392       535      1977      2401      2402
 -1       911    8    0    1
 -2       391       535       534      2402      2403      2398
 -1       912    8    0    1
 -2       392       393       536      1980      2404      2405
 -1       913    8    0    1
 -2       392       536       535      2405      2406      2401
 -1       914    8    0    1
 -2       393       394       537      1983      2407      2408
 -1       915    8    0    1
 -2       393       537       536      2408      2409      2404
 -1       916    8    0    1
 -2       394       395       538      1986      2410      2411
 -1       917    8    0    1
 -2       394       538       537      2411      2412      2407
 -1       918    8    0    1
 -2       395       396       539      1989      2413      2414
 -1       919    8    0    1
 -2       395       539       538      2414      2415      2410
 -1       920    8    0    1
 -2       396       397       540      1992      2416      2417
 -1       921    8    0    1
 -2       396       540       539      2417      2418      2413
 -1       922    8    0    1
 -2       397       398       541      1995      2419      2420
 -1       923    8    0    1
 -2       397       541       540      2420      2421      2416
 -1       924    8    0    1
 -2       398       399       542      1998      2422      2423
 -1       925    8    0    1
 -2       398       542       541      2423      2424      2419
 -1       926    8    0    1
 -2       399       400       543      2001      2425      2426
 -1       927    8    0    1
 -2       399       543       542      2426      2427      2422
 -1       928    8    0    1
 -2       400       401       544      2004      2428      2429
 -1       929    8    0    1
 -2       400       544       543      2429      2430      2425
 -1       930    8    0    1
 -2       401       402       545      2007      2431      2432
 -1       931    8    0    1
 -2       401       545       544      2432      2433      2428
 -1       932    8    0    1
 -2       402       403       546      2010      2434      2435
 -1       933    8    0    1
 -2       402       546       545      2435      2436      2431
 -1       934    8    0    1
 -2       403       404       547      2013      2437      2438
 -1       935    8    0    1
 -2       403       547       546      2438      2439      2434
 -1       936    8    0    1
 -2       404       405       548      2016      2440      2441
 -1       937    8    0    1
 -2       404       548       547      2441      2442      2437
 -1       938    8    0    1
 -2       405       406       549      2019      2443      2444
 -1       939    8    0    1
 -2       405       549       548      2444      2445      2440
 -1       940    8    0    1
 -2       406       407       550      2022      2446      2447
 -1       941    8    0    1
 -2       406       550       549      2447      2448      2443
 -1       942    8    0    1
 -2       407       408       551      2025      2449      2450
 -1       943    8    0    1
 -2       407       551       550      2450      2451      2446
 -1       944    8    0    1
 -2       408       409       552      2028      2452      2453
 -1       945    8    0    1
 -2       408       552       551      2453      2454      2449
 -1       946    8    0    1
 -2       409       410       553      2031      2455      2456
 -1       947    8    0    1
 -2       409       553       552      2456      2457      2452
 -1       948    8    0    1
 -2       410       411       554      2034      2458      2459
 -1       949    8    0    1
 -2       410       554       553      2459      2460      2455
 -1       950    8    0    1
 -2       411       412       555      2037      2461      2462
 -1       951    8    0    1
 -2       411       555       554      2462      2463      2458
 -1       952    8    0    1
 -2       412       413       556      2040      2464      2465
 -1       953    8    0    1
 -2       412       556       555      2465      2466      2461
 -1       954    8    0    1
 -2       413       414       557      2043      2467      2468
 -1       955    8    0    1
 -2       413       557       556      2468      2469      2464
 -1       956    8    0    1
 -2       414       415       558      2046      2470      2471
 -1       957    8    0    1
 -2       414       558       557      2471      2472      2467
 -1       958    8    0    1
 -2       415       416       559      2049      2473      2474
 -1       959    8    0    1
 -2       415       559       558      2474      2475      2470
 -1       960    8    0    1
 -2       416       417       560      2052      2476      2477
 -1       961    8    0    1
 -2       416       560       559      2477      2478      2473
 -1       962    8    0    1
 -2       417       418       561      2055      2479      2480
 -1       963    8    0    1
 -2       417       561       560      2480      2481      2476
 -1       964    8    0    1
 -2       418       419       562      2058      2482      2483
 -1       965    8    0    1
 -2       418       562       561      2483      2484      2479
 -1       966    8    0    1
 -2       419       420       563      2061      2485      2486
 -1       967    8    0    1
 -2       419       563       562      2486      2487      2482
 -1       968    8    0    1
 -2       420       421       564      2064      2488      2489
 -1       969    8    0    1
 -2       420       564       563      2489      2490      2485
 -1       970    8    0    1
 -2       421       422       565      2067      2491      2492
 -1       971    8    0    1
 -2       421       565       564      2492      2493      2488
 -1       972    8    0    1
 -2       422       423       566      2070      2494      2495
 -1       973    8    0    1
 -2       422       566       565      2495      2496      2491
 -1       974    8    0    1
 -2       423       424       567      2073      2497      2498
 -1       975    8    0    1
 -2       423       567       566      2498      2499      2494
 -1       976    8    0    1
 -2       424       425       568      2076      2500      2501
 -1       977    8    0    1
 -2       424       568       567      2501      2502      2497
 -1       978    8    0    1
 -2       425       426       429      2079      2088      2503
 -1       979    8    0    1
 -2       430       431       569      2095      2504      2505
 -1       980    8    0    1
 -2       431       432       570      2098      2506      2507
 -1       981    8    0    1
 -2       431       570       569      2507      2508      2504
 -1       982    8    0    1
 -2       428       427       571      2085      2509      2510
 -1       983    8    0    1
 -2       427       430       572      2092      2511      2512
 -1       984    8    0    1
 -2       571       427       572      2509      2512      2513
 -1       985    8    0    1
 -2       430       569       572      2505      2514      2511
 -1       986    8    0    1
 -2       432       433       573      2101      2515      2516
 -1       987    8    0    1
 -2       432       573       570      2516      2517      2506
 -1       988    8    0    1
 -2       433       434       574      2104      2518      2519
 -1       989    8    0    1
 -2       433       574       573      2519      2520      2515
 -1       990    8    0    1
 -2       434       435       575      2107      2521      2522
 -1       991    8    0    1
 -2       434       575       574      2522      2523      2518
 -1       992    8    0    1
 -2       435       436       576      2110      2524      2525
 -1       993    8    0    1
 -2       435       576       575      2525      2526      2521
 -1       994    8    0    1
 -2       436       437       577      2113      2527      2528
 -1       995    8    0    1
 -2       436       577       576      2528      2529      2524
 -1       996    8    0    1
 -2       437       438       578      2116      2530      2531
 -1       997    8    0    1
 -2       437       578       577      2531      2532      2527
 -1       998    8    0    1
 -2       438       439       579      2119      2533      2534
 -1       999    8    0    1
 -2       438       579       578      2534      2535      2530
 -1      1000    8    0    1
 -2       441       442       580      2191      2536      2537
 -1      1001    8    0    1
 -2       440       443       581      2193      2538      2539
 -1      1002    8    0    1
 -2       440       581       483      2539      2540      2247
 -1      1003    8    0    1
 -2       382       383       582      1950      2541      2542
 -1      1004    8    0    1
 -2       383       527       582      2379      2543      2541
 -1      1005    8    0    1
 -2       439       290       380      2192      1940      2544
 -1      1006    8    0    1
 -2       468       441       583      2194      2545      2546
 -1      1007    8    0    1
 -2       443       444       584      2130      2547      2548
 -1      1008    8    0    1
 -2       469       446       585      2184      2549      2550
 -1      1009    8    0    1
 -2       467       468       586      2195      2551      2552
 -1      1010    8    0    1
 -2       448       449       587      2214      2553      2554
 -1      1011    8    0    1
 -2       324       325       588      1773      2555      2556
 -1      1012    8    0    1
 -2       473       324       588      2220      2556      2557
 -1      1013    8    0    1
 -2       325       475       588      2226      2558      2555
 -1      1014    8    0    1
 -2       447       448       589      2216      2559      2560
 -1      1015    8    0    1
 -2       451       452       590      2217      2561      2562
 -1      1016    8    0    1
 -2       446       447       591      2215      2563      2564
 -1      1017    8    0    1
 -2       447       589       591      2560      2565      2563
 -1      1018    8    0    1
 -2       449       450       592      2145      2566      2567
 -1      1019    8    0    1
 -2       450       451       593      2213      2568      2569
 -1      1020    8    0    1
 -2       450       593       592      2569      2570      2566
 -1      1021    8    0    1
 -2       452       453       594      2212      2571      2572
 -1      1022    8    0    1
 -2       453       454       595      2211      2573      2574
 -1      1023    8    0    1
 -2       454       455       596      2210      2575      2576
 -1      1024    8    0    1
 -2       455       456       597      2209      2577      2578
 -1      1025    8    0    1
 -2       457       458       598      2205      2579      2580
 -1      1026    8    0    1
 -2       458       459       599      2204      2581      2582
 -1      1027    8    0    1
 -2       459       460       600      2203      2583      2584
 -1      1028    8    0    1
 -2       460       461       601      2202      2585      2586
 -1      1029    8    0    1
 -2       461       462       602      2201      2587      2588
 -1      1030    8    0    1
 -2       462       463       603      2200      2589      2590
 -1      1031    8    0    1
 -2       462       603       602      2590      2591      2587
 -1      1032    8    0    1
 -2       463       464       604      2199      2592      2593
 -1      1033    8    0    1
 -2       464       465       605      2198      2594      2595
 -1      1034    8    0    1
 -2       465       466       606      2197      2596      2597
 -1      1035    8    0    1
 -2       466       467       607      2196      2598      2599
 -1      1036    8    0    1
 -2       335       321       608      2189      2600      2601
 -1      1037    8    0    1
 -2       482       335       608      2245      2601      2602
 -1      1038    8    0    1
 -2       321       320       608      1762      2603      2600
 -1      1039    8    0    1
 -2       333       334       609      1802      2604      2605
 -1      1040    8    0    1
 -2       332       333       609      1797      2605      2606
 -1      1041    8    0    1
 -2       334       472       609      2219      2607      2604
 -1      1042    8    0    1
 -2       449       592       587      2567      2608      2553
 -1      1043    8    0    1
 -2       322       474       610      2223      2609      2610
 -1      1044    8    0    1
 -2       322       610       445      2610      2611      2134
 -1      1045    8    0    1
 -2       481       382       582      2242      2542      2612
 -1      1046    8    0    1
 -2       331       332       609      1794      2606      2613
 -1      1047    8    0    1
 -2       320       445       611      2133      2614      2615
 -1      1048    8    0    1
 -2       608       320       611      2603      2615      2616
 -1      1049    8    0    1
 -2       445       610       611      2611      2617      2614
 -1      1050    8    0    1
 -2       470       469       612      2188      2618      2619
 -1      1051    8    0    1
 -2       469       585       612      2550      2620      2618
 -1      1052    8    0    1
 -2       442       483       580      2248      2621      2536
 -1      1053    8    0    1
 -2       444       470       584      2187      2622      2547
 -1      1054    8    0    1
 -2       607       467       586      2598      2552      2623
 -1      1055    8    0    1
 -2       468       583       586      2546      2624      2551
 -1      1056    8    0    1
 -2       606       466       607      2596      2599      2625
 -1      1057    8    0    1
 -2       425       429       568      2503      2626      2500
 -1      1058    8    0    1
 -2       581       443       584      2538      2548      2627
 -1      1059    8    0    1
 -2       429       428       568      2089      2628      2626
 -1      1060    8    0    1
 -2       605       465       606      2594      2597      2629
 -1      1061    8    0    1
 -2       441       580       583      2537      2630      2545
 -1      1062    8    0    1
 -2       603       463       604      2589      2593      2631
 -1      1063    8    0    1
 -2       568       428       571      2628      2510      2632
 -1      1064    8    0    1
 -2       448       587       589      2554      2633      2559
 -1      1065    8    0    1
 -2       600       460       601      2583      2586      2634
 -1      1066    8    0    1
 -2       599       459       600      2581      2584      2635
 -1      1067    8    0    1
 -2       598       458       599      2579      2582      2636
 -1      1068    8    0    1
 -2       597       456       613      2577      2637      2638
 -1      1069    8    0    1
 -2       456       471       613      2207      2639      2637
 -1      1070    8    0    1
 -2       596       455       597      2575      2578      2640
 -1      1071    8    0    1
 -2       595       454       596      2573      2576      2641
 -1      1072    8    0    1
 -2       593       451       590      2568      2562      2642
 -1      1073    8    0    1
 -2       471       457       614      2208      2643      2644
 -1      1074    8    0    1
 -2       457       598       614      2580      2645      2643
 -1      1075    8    0    1
 -2       585       446       591      2549      2564      2646
 -1      1076    8    0    1
 -2       331       609       480      2613      2647      2239
 -1      1077    8    0    1
 -2       590       452       594      2561      2572      2648
 -1      1078    8    0    1
 -2       439       380       615      2544      2649      2650
 -1      1079    8    0    1
 -2       579       439       615      2533      2650      2651
 -1      1080    8    0    1
 -2       380       379       615      1941      2652      2649
 -1      1081    8    0    1
 -2       594       453       595      2571      2574      2653
 -1      1082    8    0    1
 -2       604       464       605      2592      2595      2654
 -1      1083    8    0    1
 -2       615       379       526      2652      2376      2655
 -1      1084    8    0    1
 -2       476       477       616      2232      2656      2657
 -1      1085    8    0    1
 -2       475       476       617      2229      2658      2659
 -1      1086    8    0    1
 -2       476       616       617      2657      2660      2658
 -1      1087    8    0    1
 -2       478       479       618      2238      2661      2662
 -1      1088    8    0    1
 -2       479       480       619      2241      2663      2664
 -1      1089    8    0    1
 -2       479       619       618      2664      2665      2661
 -1      1090    8    0    1
 -2       472       481       620      2244      2666      2667
 -1      1091    8    0    1
 -2       590       594       621      2648      2668      2669
 -1      1092    8    0    1
 -2       609       472       480      2607      2670      2647
 -1      1093    8    0    1
 -2       485       484       622      2254      2671      2672
 -1      1094    8    0    1
 -2       486       485       623      2257      2673      2674
 -1      1095    8    0    1
 -2       485       622       623      2672      2675      2673
 -1      1096    8    0    1
 -2       487       486       624      2260      2676      2677
 -1      1097    8    0    1
 -2       486       623       624      2674      2678      2676
 -1      1098    8    0    1
 -2       488       487       625      2263      2679      2680
 -1      1099    8    0    1
 -2       487       624       625      2677      2681      2679
 -1      1100    8    0    1
 -2       489       488       626      2266      2682      2683
 -1      1101    8    0    1
 -2       488       625       626      2680      2684      2682
 -1      1102    8    0    1
 -2       490       489       627      2269      2685      2686
 -1      1103    8    0    1
 -2       489       626       627      2683      2687      2685
 -1      1104    8    0    1
 -2       491       490       628      2272      2688      2689
 -1      1105    8    0    1
 -2       490       627       628      2686      2690      2688
 -1      1106    8    0    1
 -2       492       491       629      2275      2691      2692
 -1      1107    8    0    1
 -2       491       628       629      2689      2693      2691
 -1      1108    8    0    1
 -2       493       492       630      2278      2694      2695
 -1      1109    8    0    1
 -2       492       629       630      2692      2696      2694
 -1      1110    8    0    1
 -2       494       493       631      2281      2697      2698
 -1      1111    8    0    1
 -2       493       630       631      2695      2699      2697
 -1      1112    8    0    1
 -2       495       494       632      2284      2700      2701
 -1      1113    8    0    1
 -2       494       631       632      2698      2702      2700
 -1      1114    8    0    1
 -2       496       495       633      2287      2703      2704
 -1      1115    8    0    1
 -2       495       632       633      2701      2705      2703
 -1      1116    8    0    1
 -2       497       496       634      2290      2706      2707
 -1      1117    8    0    1
 -2       496       633       634      2704      2708      2706
 -1      1118    8    0    1
 -2       498       497       635      2293      2709      2710
 -1      1119    8    0    1
 -2       497       634       635      2707      2711      2709
 -1      1120    8    0    1
 -2       499       498       636      2296      2712      2713
 -1      1121    8    0    1
 -2       498       635       636      2710      2714      2712
 -1      1122    8    0    1
 -2       500       499       637      2299      2715      2716
 -1      1123    8    0    1
 -2       499       636       637      2713      2717      2715
 -1      1124    8    0    1
 -2       501       500       638      2302      2718      2719
 -1      1125    8    0    1
 -2       500       637       638      2716      2720      2718
 -1      1126    8    0    1
 -2       502       501       639      2305      2721      2722
 -1      1127    8    0    1
 -2       501       638       639      2719      2723      2721
 -1      1128    8    0    1
 -2       503       502       640      2308      2724      2725
 -1      1129    8    0    1
 -2       502       639       640      2722      2726      2724
 -1      1130    8    0    1
 -2       504       503       641      2311      2727      2728
 -1      1131    8    0    1
 -2       503       640       641      2725      2729      2727
 -1      1132    8    0    1
 -2       505       504       642      2314      2730      2731
 -1      1133    8    0    1
 -2       504       641       642      2728      2732      2730
 -1      1134    8    0    1
 -2       506       505       643      2317      2733      2734
 -1      1135    8    0    1
 -2       505       642       643      2731      2735      2733
 -1      1136    8    0    1
 -2       507       506       644      2320      2736      2737
 -1      1137    8    0    1
 -2       506       643       644      2734      2738      2736
 -1      1138    8    0    1
 -2       508       507       645      2323      2739      2740
 -1      1139    8    0    1
 -2       507       644       645      2737      2741      2739
 -1      1140    8    0    1
 -2       509       508       646      2326      2742      2743
 -1      1141    8    0    1
 -2       508       645       646      2740      2744      2742
 -1      1142    8    0    1
 -2       510       509       647      2329      2745      2746
 -1      1143    8    0    1
 -2       509       646       647      2743      2747      2745
 -1      1144    8    0    1
 -2       511       510       648      2332      2748      2749
 -1      1145    8    0    1
 -2       510       647       648      2746      2750      2748
 -1      1146    8    0    1
 -2       512       511       649      2335      2751      2752
 -1      1147    8    0    1
 -2       511       648       649      2749      2753      2751
 -1      1148    8    0    1
 -2       513       512       650      2338      2754      2755
 -1      1149    8    0    1
 -2       512       649       650      2752      2756      2754
 -1      1150    8    0    1
 -2       514       513       651      2341      2757      2758
 -1      1151    8    0    1
 -2       513       650       651      2755      2759      2757
 -1      1152    8    0    1
 -2       515       514       652      2344      2760      2761
 -1      1153    8    0    1
 -2       514       651       652      2758      2762      2760
 -1      1154    8    0    1
 -2       516       515       653      2347      2763      2764
 -1      1155    8    0    1
 -2       515       652       653      2761      2765      2763
 -1      1156    8    0    1
 -2       517       516       654      2350      2766      2767
 -1      1157    8    0    1
 -2       516       653       654      2764      2768      2766
 -1      1158    8    0    1
 -2       518       517       655      2353      2769      2770
 -1      1159    8    0    1
 -2       517       654       655      2767      2771      2769
 -1      1160    8    0    1
 -2       519       518       656      2356      2772      2773
 -1      1161    8    0    1
 -2       518       655       656      2770      2774      2772
 -1      1162    8    0    1
 -2       520       519       657      2359      2775      2776
 -1      1163    8    0    1
 -2       519       656       657      2773      2777      2775
 -1      1164    8    0    1
 -2       521       520       658      2362      2778      2779
 -1      1165    8    0    1
 -2       520       657       658      2776      2780      2778
 -1      1166    8    0    1
 -2       522       521       659      2365      2781      2782
 -1      1167    8    0    1
 -2       521       658       659      2779      2783      2781
 -1      1168    8    0    1
 -2       523       522       660      2368      2784      2785
 -1      1169    8    0    1
 -2       522       659       660      2782      2786      2784
 -1      1170    8    0    1
 -2       524       523       661      2371      2787      2788
 -1      1171    8    0    1
 -2       523       660       661      2785      2789      2787
 -1      1172    8    0    1
 -2       525       524       662      2374      2790      2791
 -1      1173    8    0    1
 -2       524       661       662      2788      2792      2790
 -1      1174    8    0    1
 -2       526       525       663      2377      2793      2794
 -1      1175    8    0    1
 -2       525       662       663      2791      2795      2793
 -1      1176    8    0    1
 -2       528       529       664      2385      2796      2797
 -1      1177    8    0    1
 -2       594       595       665      2653      2798      2799
 -1      1178    8    0    1
 -2       527       528       666      2382      2800      2801
 -1      1179    8    0    1
 -2       528       664       666      2797      2802      2800
 -1      1180    8    0    1
 -2       530       531       667      2391      2803      2804
 -1      1181    8    0    1
 -2       531       532       668      2394      2805      2806
 -1      1182    8    0    1
 -2       531       668       667      2806      2807      2803
 -1      1183    8    0    1
 -2       532       533       669      2397      2808      2809
 -1      1184    8    0    1
 -2       532       669       668      2809      2810      2805
 -1      1185    8    0    1
 -2       533       534       670      2400      2811      2812
 -1      1186    8    0    1
 -2       533       670       669      2812      2813      2808
 -1      1187    8    0    1
 -2       534       535       671      2403      2814      2815
 -1      1188    8    0    1
 -2       534       671       670      2815      2816      2811
 -1      1189    8    0    1
 -2       535       536       672      2406      2817      2818
 -1      1190    8    0    1
 -2       535       672       671      2818      2819      2814
 -1      1191    8    0    1
 -2       536       537       673      2409      2820      2821
 -1      1192    8    0    1
 -2       536       673       672      2821      2822      2817
 -1      1193    8    0    1
 -2       537       538       674      2412      2823      2824
 -1      1194    8    0    1
 -2       537       674       673      2824      2825      2820
 -1      1195    8    0    1
 -2       538       539       675      2415      2826      2827
 -1      1196    8    0    1
 -2       538       675       674      2827      2828      2823
 -1      1197    8    0    1
 -2       539       540       676      2418      2829      2830
 -1      1198    8    0    1
 -2       539       676       675      2830      2831      2826
 -1      1199    8    0    1
 -2       540       541       677      2421      2832      2833
 -1      1200    8    0    1
 -2       540       677       676      2833      2834      2829
 -1      1201    8    0    1
 -2       541       542       678      2424      2835      2836
 -1      1202    8    0    1
 -2       541       678       677      2836      2837      2832
 -1      1203    8    0    1
 -2       542       543       679      2427      2838      2839
 -1      1204    8    0    1
 -2       542       679       678      2839      2840      2835
 -1      1205    8    0    1
 -2       543       544       680      2430      2841      2842
 -1      1206    8    0    1
 -2       543       680       679      2842      2843      2838
 -1      1207    8    0    1
 -2       544       545       681      2433      2844      2845
 -1      1208    8    0    1
 -2       544       681       680      2845      2846      2841
 -1      1209    8    0    1
 -2       545       546       682      2436      2847      2848
 -1      1210    8    0    1
 -2       545       682       681      2848      2849      2844
 -1      1211    8    0    1
 -2       546       547       683      2439      2850      2851
 -1      1212    8    0    1
 -2       546       683       682      2851      2852      2847
 -1      1213    8    0    1
 -2       547       548       684      2442      2853      2854
 -1      1214    8    0    1
 -2       547       684       683      2854      2855      2850
 -1      1215    8    0    1
 -2       548       549       685      2445      2856      2857
 -1      1216    8    0    1
 -2       548       685       684      2857      2858      2853
 -1      1217    8    0    1
 -2       549       550       686      2448      2859      2860
 -1      1218    8    0    1
 -2       549       686       685      2860      2861      2856
 -1      1219    8    0    1
 -2       550       551       687      2451      2862      2863
 -1      1220    8    0    1
 -2       550       687       686      2863      2864      2859
 -1      1221    8    0    1
 -2       551       552       688      2454      2865      2866
 -1      1222    8    0    1
 -2       551       688       687      2866      2867      2862
 -1      1223    8    0    1
 -2       552       553       689      2457      2868      2869
 -1      1224    8    0    1
 -2       552       689       688      2869      2870      2865
 -1      1225    8    0    1
 -2       553       554       690      2460      2871      2872
 -1      1226    8    0    1
 -2       553       690       689      2872      2873      2868
 -1      1227    8    0    1
 -2       554       555       691      2463      2874      2875
 -1      1228    8    0    1
 -2       554       691       690      2875      2876      2871
 -1      1229    8    0    1
 -2       555       556       692      2466      2877      2878
 -1      1230    8    0    1
 -2       555       692       691      2878      2879      2874
 -1      1231    8    0    1
 -2       556       557       693      2469      2880      2881
 -1      1232    8    0    1
 -2       556       693       692      2881      2882      2877
 -1      1233    8    0    1
 -2       557       558       694      2472      2883      2884
 -1      1234    8    0    1
 -2       557       694       693      2884      2885      2880
 -1      1235    8    0    1
 -2       558       559       695      2475      2886      2887
 -1      1236    8    0    1
 -2       558       695       694      2887      2888      2883
 -1      1237    8    0    1
 -2       559       560       696      2478      2889      2890
 -1      1238    8    0    1
 -2       559       696       695      2890      2891      2886
 -1      1239    8    0    1
 -2       560       561       697      2481      2892      2893
 -1      1240    8    0    1
 -2       560       697       696      2893      2894      2889
 -1      1241    8    0    1
 -2       561       562       698      2484      2895      2896
 -1      1242    8    0    1
 -2       561       698       697      2896      2897      2892
 -1      1243    8    0    1
 -2       562       563       699      2487      2898      2899
 -1      1244    8    0    1
 -2       562       699       698      2899      2900      2895
 -1      1245    8    0    1
 -2       563       564       700      2490      2901      2902
 -1      1246    8    0    1
 -2       563       700       699      2902      2903      2898
 -1      1247    8    0    1
 -2       564       565       701      2493      2904      2905
 -1      1248    8    0    1
 -2       564       701       700      2905      2906      2901
 -1      1249    8    0    1
 -2       565       566       702      2496      2907      2908
 -1      1250    8    0    1
 -2       565       702       701      2908      2909      2904
 -1      1251    8    0    1
 -2       566       567       703      2499      2910      2911
 -1      1252    8    0    1
 -2       566       703       702      2911      2912      2907
 -1      1253    8    0    1
 -2       567       568       704      2502      2913      2914
 -1      1254    8    0    1
 -2       703       567       704      2910      2914      2915
 -1      1255    8    0    1
 -2       568       571       704      2632      2916      2913
 -1      1256    8    0    1
 -2       581       584       705      2627      2917      2918
 -1      1257    8    0    1
 -2       573       574       706      2520      2919      2920
 -1      1258    8    0    1
 -2       589       587       694      2633      2921      2922
 -1      1259    8    0    1
 -2       569       570       707      2508      2923      2924
 -1      1260    8    0    1
 -2       574       575       708      2523      2925      2926
 -1      1261    8    0    1
 -2       574       708       706      2926      2927      2919
 -1      1262    8    0    1
 -2       570       573       709      2517      2928      2929
 -1      1263    8    0    1
 -2       707       570       709      2923      2929      2930
 -1      1264    8    0    1
 -2       573       706       709      2920      2931      2928
 -1      1265    8    0    1
 -2       575       576       710      2526      2932      2933
 -1      1266    8    0    1
 -2       575       710       708      2933      2934      2925
 -1      1267    8    0    1
 -2       576       577       711      2529      2935      2936
 -1      1268    8    0    1
 -2       576       711       710      2936      2937      2932
 -1      1269    8    0    1
 -2       577       578       712      2532      2938      2939
 -1      1270    8    0    1
 -2       577       712       711      2939      2940      2935
 -1      1271    8    0    1
 -2       584       470       713      2622      2941      2942
 -1      1272    8    0    1
 -2       483       581       714      2540      2943      2944
 -1      1273    8    0    1
 -2       582       527       715      2543      2945      2946
 -1      1274    8    0    1
 -2       527       666       715      2801      2947      2945
 -1      1275    8    0    1
 -2       607       586       716      2623      2948      2949
 -1      1276    8    0    1
 -2       601       461       717      2585      2950      2951
 -1      1277    8    0    1
 -2       603       604       718      2631      2952      2953
 -1      1278    8    0    1
 -2       580       483       719      2621      2954      2955
 -1      1279    8    0    1
 -2       483       714       719      2944      2956      2954
 -1      1280    8    0    1
 -2       586       583       720      2624      2957      2958
 -1      1281    8    0    1
 -2       717       461       602      2950      2588      2959
 -1      1282    8    0    1
 -2       601       717       721      2951      2960      2961
 -1      1283    8    0    1
 -2       717       602       722      2959      2962      2963
 -1      1284    8    0    1
 -2       606       607       723      2625      2964      2965
 -1      1285    8    0    1
 -2       529       530       724      2388      2966      2967
 -1      1286    8    0    1
 -2       664       529       724      2796      2967      2968
 -1      1287    8    0    1
 -2       530       667       724      2804      2969      2966
 -1      1288    8    0    1
 -2       484       482       725      2251      2970      2971
 -1      1289    8    0    1
 -2       484       725       622      2971      2972      2671
 -1      1290    8    0    1
 -2       477       478       726      2235      2973      2974
 -1      1291    8    0    1
 -2       616       477       726      2656      2974      2975
 -1      1292    8    0    1
 -2       478       618       726      2662      2976      2973
 -1      1293    8    0    1
 -2       481       582       727      2612      2977      2978
 -1      1294    8    0    1
 -2       620       481       727      2666      2978      2979
 -1      1295    8    0    1
 -2       582       715       727      2946      2980      2977
 -1      1296    8    0    1
 -2       474       473       728      2224      2981      2982
 -1      1297    8    0    1
 -2       600       601       729      2634      2983      2984
 -1      1298    8    0    1
 -2       579       615       730      2651      2985      2986
 -1      1299    8    0    1
 -2       615       526       730      2655      2987      2985
 -1      1300    8    0    1
 -2       592       593       731      2570      2988      2989
 -1      1301    8    0    1
 -2       587       592       732      2608      2990      2991
 -1      1302    8    0    1
 -2       604       605       733      2654      2992      2993
 -1      1303    8    0    1
 -2       593       590       734      2642      2994      2995
 -1      1304    8    0    1
 -2       593       734       731      2995      2996      2988
 -1      1305    8    0    1
 -2       595       596       735      2641      2997      2998
 -1      1306    8    0    1
 -2       585       591       736      2646      2999      3000
 -1      1307    8    0    1
 -2       596       597       737      2640      3001      3002
 -1      1308    8    0    1
 -2       598       599       738      2636      3003      3004
 -1      1309    8    0    1
 -2       599       600       739      2635      3005      3006
 -1      1310    8    0    1
 -2       599       739       738      3006      3007      3003
 -1      1311    8    0    1
 -2       602       603       722      2591      3008      2962
 -1      1312    8    0    1
 -2       583       580       740      2630      3009      3010
 -1      1313    8    0    1
 -2       605       606       741      2629      3011      3012
 -1      1314    8    0    1
 -2       482       608       742      2602      3013      3014
 -1      1315    8    0    1
 -2       725       482       742      2970      3014      3015
 -1      1316    8    0    1
 -2       608       611       742      2616      3016      3013
 -1      1317    8    0    1
 -2       610       474       743      2609      3017      3018
 -1      1318    8    0    1
 -2       474       728       743      2982      3019      3017
 -1      1319    8    0    1
 -2       475       617       744      2659      3020      3021
 -1      1320    8    0    1
 -2       475       744       588      3021      3022      2558
 -1      1321    8    0    1
 -2       590       621       734      2669      3023      2994
 -1      1322    8    0    1
 -2       480       472       620      2670      2667      3024
 -1      1323    8    0    1
 -2       739       600       729      3005      2984      3025
 -1      1324    8    0    1
 -2       722       603       718      3008      2953      3026
 -1      1325    8    0    1
 -2       526       663       730      2794      3027      2987
 -1      1326    8    0    1
 -2       594       665       621      2799      3028      2668
 -1      1327    8    0    1
 -2       607       716       723      2949      3029      2964
 -1      1328    8    0    1
 -2       737       597       745      3001      3030      3031
 -1      1329    8    0    1
 -2       597       613       745      2638      3032      3030
 -1      1330    8    0    1
 -2       705       584       713      2917      2942      3033
 -1      1331    8    0    1
 -2       704       571       746      2916      3034      3035
 -1      1332    8    0    1
 -2       571       572       746      2513      3036      3034
 -1      1333    8    0    1
 -2       589       694       695      2922      2888      3037
 -1      1334    8    0    1
 -2       714       581       705      2943      2918      3038
 -1      1335    8    0    1
 -2       480       620       619      3024      3039      2663
 -1      1336    8    0    1
 -2       733       605       741      2992      3012      3040
 -1      1337    8    0    1
 -2       713       470       612      2941      2619      3041
 -1      1338    8    0    1
 -2       578       579       730      2535      2986      3042
 -1      1339    8    0    1
 -2       586       720       716      2958      3043      2948
 -1      1340    8    0    1
 -2       583       740       720      3010      3044      2957
 -1      1341    8    0    1
 -2       717       722       721      2963      3045      2960
 -1      1342    8    0    1
 -2       606       723       741      2965      3046      3011
 -1      1343    8    0    1
 -2       718       604       733      2952      2993      3047
 -1      1344    8    0    1
 -2       613       471       747      2639      3048      3049
 -1      1345    8    0    1
 -2       471       614       747      2644      3050      3048
 -1      1346    8    0    1
 -2       614       598       748      2645      3051      3052
 -1      1347    8    0    1
 -2       598       738       748      3004      3053      3051
 -1      1348    8    0    1
 -2       591       589       695      2565      3037      3054
 -1      1349    8    0    1
 -2       578       730       749      3042      3055      3056
 -1      1350    8    0    1
 -2       712       578       749      2938      3056      3057
 -1      1351    8    0    1
 -2       730       663       749      3027      3058      3055
 -1      1352    8    0    1
 -2       572       569       750      2514      3059      3060
 -1      1353    8    0    1
 -2       746       572       750      3036      3060      3061
 -1      1354    8    0    1
 -2       569       707       750      2924      3062      3059
 -1      1355    8    0    1
 -2       732       592       731      2990      2989      3063
 -1      1356    8    0    1
 -2       665       595       735      2798      2998      3064
 -1      1357    8    0    1
 -2       473       588       751      2557      3065      3066
 -1      1358    8    0    1
 -2       728       473       751      2981      3066      3067
 -1      1359    8    0    1
 -2       588       744       751      3022      3068      3065
 -1      1360    8    0    1
 -2       729       601       721      2983      2961      3069
 -1      1361    8    0    1
 -2       735       596       737      2997      3002      3070
 -1      1362    8    0    1
 -2       739       729       752      3025      3071      3072
 -1      1363    8    0    1
 -2       618       619       753      2665      3073      3074
 -1      1364    8    0    1
 -2       611       610       754      2617      3075      3076
 -1      1365    8    0    1
 -2       742       611       754      3016      3076      3077
 -1      1366    8    0    1
 -2       610       743       754      3018      3078      3075
 -1      1367    8    0    1
 -2       612       585       755      2620      3079      3080
 -1      1368    8    0    1
 -2       755       585       736      3079      3000      3081
 -1      1369    8    0    1
 -2       624       623       756      2678      3082      3083
 -1      1370    8    0    1
 -2       625       624       757      2681      3084      3085
 -1      1371    8    0    1
 -2       624       756       757      3083      3086      3084
 -1      1372    8    0    1
 -2       626       625       758      2684      3087      3088
 -1      1373    8    0    1
 -2       625       757       758      3085      3089      3087
 -1      1374    8    0    1
 -2       627       626       759      2687      3090      3091
 -1      1375    8    0    1
 -2       626       758       759      3088      3092      3090
 -1      1376    8    0    1
 -2       628       627       760      2690      3093      3094
 -1      1377    8    0    1
 -2       627       759       760      3091      3095      3093
 -1      1378    8    0    1
 -2       629       628       761      2693      3096      3097
 -1      1379    8    0    1
 -2       628       760       761      3094      3098      3096
 -1      1380    8    0    1
 -2       630       629       762      2696      3099      3100
 -1      1381    8    0    1
 -2       629       761       762      3097      3101      3099
 -1      1382    8    0    1
 -2       631       630       763      2699      3102      3103
 -1      1383    8    0    1
 -2       630       762       763      3100      3104      3102
 -1      1384    8    0    1
 -2       632       631       764      2702      3105      3106
 -1      1385    8    0    1
 -2       631       763       764      3103      3107      3105
 -1      1386    8    0    1
 -2       633       632       765      2705      3108      3109
 -1      1387    8    0    1
 -2       632       764       765      3106      3110      3108
 -1      1388    8    0    1
 -2       634       633       766      2708      3111      3112
 -1      1389    8    0    1
 -2       633       765       766      3109      3113      3111
 -1      1390    8    0    1
 -2       635       634       767      2711      3114      3115
 -1      1391    8    0    1
 -2       634       766       767      3112      3116      3114
 -1      1392    8    0    1
 -2       636       635       768      2714      3117      3118
 -1      1393    8    0    1
 -2       635       767       768      3115      3119      3117
 -1      1394    8    0    1
 -2       637       636       769      2717      3120      3121
 -1      1395    8    0    1
 -2       636       768       769      3118      3122      3120
 -1      1396    8    0    1
 -2       638       637       770      2720      3123      3124
 -1      1397    8    0    1
 -2       637       769       770      3121      3125      3123
 -1      1398    8    0    1
 -2       639       638       771      2723      3126      3127
 -1      1399    8    0    1
 -2       638       770       771      3124      3128      3126
 -1      1400    8    0    1
 -2       640       639       772      2726      3129      3130
 -1      1401    8    0    1
 -2       639       771       772      3127      3131      3129
 -1      1402    8    0    1
 -2       641       640       773      2729      3132      3133
 -1      1403    8    0    1
 -2       640       772       773      3130      3134      3132
 -1      1404    8    0    1
 -2       642       641       774      2732      3135      3136
 -1      1405    8    0    1
 -2       641       773       774      3133      3137      3135
 -1      1406    8    0    1
 -2       643       642       775      2735      3138      3139
 -1      1407    8    0    1
 -2       642       774       775      3136      3140      3138
 -1      1408    8    0    1
 -2       644       643       776      2738      3141      3142
 -1      1409    8    0    1
 -2       643       775       776      3139      3143      3141
 -1      1410    8    0    1
 -2       645       644       777      2741      3144      3145
 -1      1411    8    0    1
 -2       644       776       777      3142      3146      3144
 -1      1412    8    0    1
 -2       646       645       778      2744      3147      3148
 -1      1413    8    0    1
 -2       645       777       778      3145      3149      3147
 -1      1414    8    0    1
 -2       647       646       779      2747      3150      3151
 -1      1415    8    0    1
 -2       646       778       779      3148      3152      3150
 -1      1416    8    0    1
 -2       648       647       780      2750      3153      3154
 -1      1417    8    0    1
 -2       647       779       780      3151      3155      3153
 -1      1418    8    0    1
 -2       649       648       781      2753      3156      3157
 -1      1419    8    0    1
 -2       648       780       781      3154      3158      3156
 -1      1420    8    0    1
 -2       650       649       782      2756      3159      3160
 -1      1421    8    0    1
 -2       649       781       782      3157      3161      3159
 -1      1422    8    0    1
 -2       652       651       752      2762      3162      3163
 -1      1423    8    0    1
 -2       653       652       721      2765      3164      3165
 -1      1424    8    0    1
 -2       654       653       721      2768      3165      3166
 -1      1425    8    0    1
 -2       655       654       722      2771      3167      3168
 -1      1426    8    0    1
 -2       656       655       718      2774      3169      3170
 -1      1427    8    0    1
 -2       657       656       783      2777      3171      3172
 -1      1428    8    0    1
 -2       658       657       784      2780      3173      3174
 -1      1429    8    0    1
 -2       657       783       784      3172      3175      3173
 -1      1430    8    0    1
 -2       659       658       785      2783      3176      3177
 -1      1431    8    0    1
 -2       658       784       785      3174      3178      3176
 -1      1432    8    0    1
 -2       660       659       786      2786      3179      3180
 -1      1433    8    0    1
 -2       659       785       786      3177      3181      3179
 -1      1434    8    0    1
 -2       661       660       787      2789      3182      3183
 -1      1435    8    0    1
 -2       660       786       787      3180      3184      3182
 -1      1436    8    0    1
 -2       662       661       788      2792      3185      3186
 -1      1437    8    0    1
 -2       661       787       788      3183      3187      3185
 -1      1438    8    0    1
 -2       663       662       789      2795      3188      3189
 -1      1439    8    0    1
 -2       749       663       789      3058      3189      3190
 -1      1440    8    0    1
 -2       662       788       789      3186      3191      3188
 -1      1441    8    0    1
 -2       668       669       790      2810      3192      3193
 -1      1442    8    0    1
 -2       667       668       791      2807      3194      3195
 -1      1443    8    0    1
 -2       668       790       791      3193      3196      3194
 -1      1444    8    0    1
 -2       670       671       792      2816      3197      3198
 -1      1445    8    0    1
 -2       671       672       793      2819      3199      3200
 -1      1446    8    0    1
 -2       671       793       792      3200      3201      3197
 -1      1447    8    0    1
 -2       672       673       794      2822      3202      3203
 -1      1448    8    0    1
 -2       672       794       793      3203      3204      3199
 -1      1449    8    0    1
 -2       673       674       795      2825      3205      3206
 -1      1450    8    0    1
 -2       673       795       794      3206      3207      3202
 -1      1451    8    0    1
 -2       674       675       796      2828      3208      3209
 -1      1452    8    0    1
 -2       674       796       795      3209      3210      3205
 -1      1453    8    0    1
 -2       675       676       797      2831      3211      3212
 -1      1454    8    0    1
 -2       675       797       796      3212      3213      3208
 -1      1455    8    0    1
 -2       676       677       798      2834      3214      3215
 -1      1456    8    0    1
 -2       676       798       797      3215      3216      3211
 -1      1457    8    0    1
 -2       677       678       799      2837      3217      3218
 -1      1458    8    0    1
 -2       677       799       798      3218      3219      3214
 -1      1459    8    0    1
 -2       678       679       800      2840      3220      3221
 -1      1460    8    0    1
 -2       678       800       799      3221      3222      3217
 -1      1461    8    0    1
 -2       679       680       801      2843      3223      3224
 -1      1462    8    0    1
 -2       679       801       800      3224      3225      3220
 -1      1463    8    0    1
 -2       680       681       802      2846      3226      3227
 -1      1464    8    0    1
 -2       680       802       801      3227      3228      3223
 -1      1465    8    0    1
 -2       681       682       803      2849      3229      3230
 -1      1466    8    0    1
 -2       681       803       802      3230      3231      3226
 -1      1467    8    0    1
 -2       682       683       804      2852      3232      3233
 -1      1468    8    0    1
 -2       682       804       803      3233      3234      3229
 -1      1469    8    0    1
 -2       683       684       805      2855      3235      3236
 -1      1470    8    0    1
 -2       683       805       804      3236      3237      3232
 -1      1471    8    0    1
 -2       684       685       806      2858      3238      3239
 -1      1472    8    0    1
 -2       684       806       805      3239      3240      3235
 -1      1473    8    0    1
 -2       685       686       807      2861      3241      3242
 -1      1474    8    0    1
 -2       685       807       806      3242      3243      3238
 -1      1475    8    0    1
 -2       686       687       808      2864      3244      3245
 -1      1476    8    0    1
 -2       686       808       807      3245      3246      3241
 -1      1477    8    0    1
 -2       687       688       809      2867      3247      3248
 -1      1478    8    0    1
 -2       687       809       808      3248      3249      3244
 -1      1479    8    0    1
 -2       688       689       810      2870      3250      3251
 -1      1480    8    0    1
 -2       688       810       809      3251      3252      3247
 -1      1481    8    0    1
 -2       689       690       811      2873      3253      3254
 -1      1482    8    0    1
 -2       689       811       810      3254      3255      3250
 -1      1483    8    0    1
 -2       690       691       812      2876      3256      3257
 -1      1484    8    0    1
 -2       690       812       811      3257      3258      3253
 -1      1485    8    0    1
 -2       692       693       732      2882      3259      3260
 -1      1486    8    0    1
 -2       714       705       813      3038      3261      3262
 -1      1487    8    0    1
 -2       695       696       755      2891      3263      3264
 -1      1488    8    0    1
 -2       696       697       814      2894      3265      3266
 -1      1489    8    0    1
 -2       696       814       755      3266      3267      3263
 -1      1490    8    0    1
 -2       697       698       815      2897      3268      3269
 -1      1491    8    0    1
 -2       697       815       814      3269      3270      3265
 -1      1492    8    0    1
 -2       698       699       816      2900      3271      3272
 -1      1493    8    0    1
 -2       698       816       815      3272      3273      3268
 -1      1494    8    0    1
 -2       699       700       817      2903      3274      3275
 -1      1495    8    0    1
 -2       699       817       816      3275      3276      3271
 -1      1496    8    0    1
 -2       700       701       818      2906      3277      3278
 -1      1497    8    0    1
 -2       700       818       817      3278      3279      3274
 -1      1498    8    0    1
 -2       701       702       819      2909      3280      3281
 -1      1499    8    0    1
 -2       701       819       818      3281      3282      3277
 -1      1500    8    0    1
 -2       703       704       820      2915      3283      3284
 -1      1501    8    0    1
 -2       704       746       820      3035      3285      3283
 -1      1502    8    0    1
 -2       708       710       821      2934      3286      3287
 -1      1503    8    0    1
 -2       732       731       692      3063      3288      3260
 -1      1504    8    0    1
 -2       706       708       822      2927      3289      3290
 -1      1505    8    0    1
 -2       708       821       822      3287      3291      3289
 -1      1506    8    0    1
 -2       723       716       823      3029      3292      3293
 -1      1507    8    0    1
 -2       619       620       824      3039      3294      3295
 -1      1508    8    0    1
 -2       753       619       824      3073      3295      3296
 -1      1509    8    0    1
 -2       620       727       824      2979      3297      3294
 -1      1510    8    0    1
 -2       720       740       825      3044      3298      3299
 -1      1511    8    0    1
 -2       580       719       826      2955      3300      3301
 -1      1512    8    0    1
 -2       719       714       827      2956      3302      3303
 -1      1513    8    0    1
 -2       721       722       654      3045      3167      3166
 -1      1514    8    0    1
 -2       741       723       828      3046      3304      3305
 -1      1515    8    0    1
 -2       715       666       829      2947      3306      3307
 -1      1516    8    0    1
 -2       710       711       830      2937      3308      3309
 -1      1517    8    0    1
 -2       710       830       821      3309      3310      3286
 -1      1518    8    0    1
 -2       711       712       831      2940      3311      3312
 -1      1519    8    0    1
 -2       711       831       830      3312      3313      3308
 -1      1520    8    0    1
 -2       694       587       693      2921      3314      2885
 -1      1521    8    0    1
 -2       734       621       832      3023      3315      3316
 -1      1522    8    0    1
 -2       669       670       833      2813      3317      3318
 -1      1523    8    0    1
 -2       790       669       833      3192      3318      3319
 -1      1524    8    0    1
 -2       670       792       833      3198      3320      3317
 -1      1525    8    0    1
 -2       666       664       834      2802      3321      3322
 -1      1526    8    0    1
 -2       666       834       829      3322      3323      3306
 -1      1527    8    0    1
 -2       718       655       722      3169      3168      3026
 -1      1528    8    0    1
 -2       621       665       835      3028      3324      3325
 -1      1529    8    0    1
 -2       621       835       832      3325      3326      3315
 -1      1530    8    0    1
 -2       612       755       814      3080      3267      3327
 -1      1531    8    0    1
 -2       716       720       836      3043      3328      3329
 -1      1532    8    0    1
 -2       716       836       823      3329      3330      3292
 -1      1533    8    0    1
 -2       622       725       837      2972      3331      3332
 -1      1534    8    0    1
 -2       587       732       693      2991      3259      3314
 -1      1535    8    0    1
 -2       623       622       838      2675      3333      3334
 -1      1536    8    0    1
 -2       623       838       756      3334      3335      3082
 -1      1537    8    0    1
 -2       731       734       812      2996      3336      3337
 -1      1538    8    0    1
 -2       705       713       839      3033      3338      3339
 -1      1539    8    0    1
 -2       705       839       813      3339      3340      3261
 -1      1540    8    0    1
 -2       738       739       840      3007      3341      3342
 -1      1541    8    0    1
 -2       735       737       841      3070      3343      3344
 -1      1542    8    0    1
 -2       740       580       826      3009      3301      3345
 -1      1543    8    0    1
 -2       617       616       842      2660      3346      3347
 -1      1544    8    0    1
 -2       665       735       843      3064      3348      3349
 -1      1545    8    0    1
 -2       713       612       814      3041      3327      3350
 -1      1546    8    0    1
 -2       692       731       691      3288      3351      2879
 -1      1547    8    0    1
 -2       826       719       844      3300      3352      3353
 -1      1548    8    0    1
 -2       691       731       812      3351      3337      3256
 -1      1549    8    0    1
 -2       740       826       845      3345      3354      3355
 -1      1550    8    0    1
 -2       744       617       846      3020      3356      3357
 -1      1551    8    0    1
 -2       617       842       846      3347      3358      3356
 -1      1552    8    0    1
 -2       618       753       847      3074      3359      3360
 -1      1553    8    0    1
 -2       618       847       726      3360      3361      2976
 -1      1554    8    0    1
 -2       616       726       848      2975      3362      3363
 -1      1555    8    0    1
 -2       842       616       848      3346      3363      3364
 -1      1556    8    0    1
 -2       726       847       848      3361      3365      3362
 -1      1557    8    0    1
 -2       845       826       844      3354      3353      3366
 -1      1558    8    0    1
 -2       720       825       836      3299      3367      3328
 -1      1559    8    0    1
 -2       652       752       729      3163      3071      3368
 -1      1560    8    0    1
 -2       752       651       849      3162      3369      3370
 -1      1561    8    0    1
 -2       739       752       849      3072      3370      3371
 -1      1562    8    0    1
 -2       651       650       849      2759      3372      3369
 -1      1563    8    0    1
 -2       835       665       843      3324      3349      3373
 -1      1564    8    0    1
 -2       741       828       784      3305      3374      3375
 -1      1565    8    0    1
 -2       828       723       823      3304      3293      3376
 -1      1566    8    0    1
 -2       656       718       733      3170      3047      3377
 -1      1567    8    0    1
 -2       743       728       850      3019      3378      3379
 -1      1568    8    0    1
 -2       745       613       851      3032      3380      3381
 -1      1569    8    0    1
 -2       613       747       851      3049      3382      3380
 -1      1570    8    0    1
 -2       667       791       852      3195      3383      3384
 -1      1571    8    0    1
 -2       667       852       724      3384      3385      2969
 -1      1572    8    0    1
 -2       706       822       853      3290      3386      3387
 -1      1573    8    0    1
 -2       706       853       709      3387      3388      2931
 -1      1574    8    0    1
 -2       740       845       825      3355      3389      3298
 -1      1575    8    0    1
 -2       838       622       837      3333      3332      3390
 -1      1576    8    0    1
 -2       714       813       827      3262      3391      3302
 -1      1577    8    0    1
 -2       734       832       812      3316      3392      3336
 -1      1578    8    0    1
 -2       703       820       702      3284      3393      2912
 -1      1579    8    0    1
 -2       707       709       854      2930      3394      3395
 -1      1580    8    0    1
 -2       709       853       854      3388      3396      3394
 -1      1581    8    0    1
 -2       844       719       827      3352      3303      3397
 -1      1582    8    0    1
 -2       712       749       855      3057      3398      3399
 -1      1583    8    0    1
 -2       831       712       855      3311      3399      3400
 -1      1584    8    0    1
 -2       749       789       855      3190      3401      3398
 -1      1585    8    0    1
 -2       652       729       721      3368      3069      3164
 -1      1586    8    0    1
 -2       849       650       782      3372      3160      3402
 -1      1587    8    0    1
 -2       850       728       856      3378      3403      3404
 -1      1588    8    0    1
 -2       728       751       856      3067      3405      3403
 -1      1589    8    0    1
 -2       707       854       857      3395      3406      3407
 -1      1590    8    0    1
 -2       707       857       750      3407      3408      3062
 -1      1591    8    0    1
 -2       737       745       858      3031      3409      3410
 -1      1592    8    0    1
 -2       737       858       841      3410      3411      3343
 -1      1593    8    0    1
 -2       747       614       859      3050      3412      3413
 -1      1594    8    0    1
 -2       614       748       859      3052      3414      3412
 -1      1595    8    0    1
 -2       748       738       860      3053      3415      3416
 -1      1596    8    0    1
 -2       738       840       860      3342      3417      3415
 -1      1597    8    0    1
 -2       834       664       861      3321      3418      3419
 -1      1598    8    0    1
 -2       664       724       861      2968      3420      3418
 -1      1599    8    0    1
 -2       843       735       862      3348      3421      3422
 -1      1600    8    0    1
 -2       735       841       862      3344      3423      3421
 -1      1601    8    0    1
 -2       727       715       863      2980      3424      3425
 -1      1602    8    0    1
 -2       824       727       863      3297      3425      3426
 -1      1603    8    0    1
 -2       715       829       863      3307      3427      3424
 -1      1604    8    0    1
 -2       839       713       815      3338      3428      3429
 -1      1605    8    0    1
 -2       733       741       864      3040      3430      3431
 -1      1606    8    0    1
 -2       713       814       815      3350      3270      3428
 -1      1607    8    0    1
 -2       725       742       754      3015      3077      3432
 -1      1608    8    0    1
 -2       725       754       837      3432      3433      3331
 -1      1609    8    0    1
 -2       837       754       743      3433      3078      3434
 -1      1610    8    0    1
 -2       757       756       865      3086      3435      3436
 -1      1611    8    0    1
 -2       758       757       866      3089      3437      3438
 -1      1612    8    0    1
 -2       757       865       866      3436      3439      3437
 -1      1613    8    0    1
 -2       759       758       867      3092      3440      3441
 -1      1614    8    0    1
 -2       758       866       867      3438      3442      3440
 -1      1615    8    0    1
 -2       760       759       868      3095      3443      3444
 -1      1616    8    0    1
 -2       759       867       868      3441      3445      3443
 -1      1617    8    0    1
 -2       761       760       869      3098      3446      3447
 -1      1618    8    0    1
 -2       760       868       869      3444      3448      3446
 -1      1619    8    0    1
 -2       762       761       870      3101      3449      3450
 -1      1620    8    0    1
 -2       761       869       870      3447      3451      3449
 -1      1621    8    0    1
 -2       763       762       871      3104      3452      3453
 -1      1622    8    0    1
 -2       762       870       871      3450      3454      3452
 -1      1623    8    0    1
 -2       764       763       872      3107      3455      3456
 -1      1624    8    0    1
 -2       763       871       872      3453      3457      3455
 -1      1625    8    0    1
 -2       765       764       873      3110      3458      3459
 -1      1626    8    0    1
 -2       764       872       873      3456      3460      3458
 -1      1627    8    0    1
 -2       766       765       874      3113      3461      3462
 -1      1628    8    0    1
 -2       765       873       874      3459      3463      3461
 -1      1629    8    0    1
 -2       767       766       875      3116      3464      3465
 -1      1630    8    0    1
 -2       766       874       875      3462      3466      3464
 -1      1631    8    0    1
 -2       768       767       876      3119      3467      3468
 -1      1632    8    0    1
 -2       767       875       876      3465      3469      3467
 -1      1633    8    0    1
 -2       769       768       877      3122      3470      3471
 -1      1634    8    0    1
 -2       768       876       877      3468      3472      3470
 -1      1635    8    0    1
 -2       770       769       878      3125      3473      3474
 -1      1636    8    0    1
 -2       769       877       878      3471      3475      3473
 -1      1637    8    0    1
 -2       771       770       879      3128      3476      3477
 -1      1638    8    0    1
 -2       770       878       879      3474      3478      3476
 -1      1639    8    0    1
 -2       772       771       880      3131      3479      3480
 -1      1640    8    0    1
 -2       771       879       880      3477      3481      3479
 -1      1641    8    0    1
 -2       773       772       881      3134      3482      3483
 -1      1642    8    0    1
 -2       772       880       881      3480      3484      3482
 -1      1643    8    0    1
 -2       774       773       882      3137      3485      3486
 -1      1644    8    0    1
 -2       773       881       882      3483      3487      3485
 -1      1645    8    0    1
 -2       775       774       883      3140      3488      3489
 -1      1646    8    0    1
 -2       774       882       883      3486      3490      3488
 -1      1647    8    0    1
 -2       776       775       884      3143      3491      3492
 -1      1648    8    0    1
 -2       775       883       884      3489      3493      3491
 -1      1649    8    0    1
 -2       777       776       885      3146      3494      3495
 -1      1650    8    0    1
 -2       776       884       885      3492      3496      3494
 -1      1651    8    0    1
 -2       778       777       886      3149      3497      3498
 -1      1652    8    0    1
 -2       777       885       886      3495      3499      3497
 -1      1653    8    0    1
 -2       779       778       887      3152      3500      3501
 -1      1654    8    0    1
 -2       778       886       887      3498      3502      3500
 -1      1655    8    0    1
 -2       780       779       888      3155      3503      3504
 -1      1656    8    0    1
 -2       779       887       888      3501      3505      3503
 -1      1657    8    0    1
 -2       781       780       889      3158      3506      3507
 -1      1658    8    0    1
 -2       780       888       889      3504      3508      3506
 -1      1659    8    0    1
 -2       782       781       890      3161      3509      3510
 -1      1660    8    0    1
 -2       781       889       890      3507      3511      3509
 -1      1661    8    0    1
 -2       835       843       891      3373      3512      3513
 -1      1662    8    0    1
 -2       784       828       785      3374      3514      3178
 -1      1663    8    0    1
 -2       828       823       892      3376      3515      3516
 -1      1664    8    0    1
 -2       828       892       785      3516      3517      3514
 -1      1665    8    0    1
 -2       829       834       893      3323      3518      3519
 -1      1666    8    0    1
 -2       786       785       892      3181      3517      3520
 -1      1667    8    0    1
 -2       787       786       894      3184      3521      3522
 -1      1668    8    0    1
 -2       786       892       894      3520      3523      3521
 -1      1669    8    0    1
 -2       788       787       895      3187      3524      3525
 -1      1670    8    0    1
 -2       787       894       895      3522      3526      3524
 -1      1671    8    0    1
 -2       791       790       896      3196      3527      3528
 -1      1672    8    0    1
 -2       793       794       897      3204      3529      3530
 -1      1673    8    0    1
 -2       792       793       898      3201      3531      3532
 -1      1674    8    0    1
 -2       793       897       898      3530      3533      3531
 -1      1675    8    0    1
 -2       795       796       899      3210      3534      3535
 -1      1676    8    0    1
 -2       796       797       900      3213      3536      3537
 -1      1677    8    0    1
 -2       796       900       899      3537      3538      3534
 -1      1678    8    0    1
 -2       797       798       901      3216      3539      3540
 -1      1679    8    0    1
 -2       797       901       900      3540      3541      3536
 -1      1680    8    0    1
 -2       798       799       902      3219      3542      3543
 -1      1681    8    0    1
 -2       798       902       901      3543      3544      3539
 -1      1682    8    0    1
 -2       799       800       903      3222      3545      3546
 -1      1683    8    0    1
 -2       799       903       902      3546      3547      3542
 -1      1684    8    0    1
 -2       800       801       904      3225      3548      3549
 -1      1685    8    0    1
 -2       800       904       903      3549      3550      3545
 -1      1686    8    0    1
 -2       801       802       905      3228      3551      3552
 -1      1687    8    0    1
 -2       801       905       904      3552      3553      3548
 -1      1688    8    0    1
 -2       802       803       906      3231      3554      3555
 -1      1689    8    0    1
 -2       802       906       905      3555      3556      3551
 -1      1690    8    0    1
 -2       803       804       907      3234      3557      3558
 -1      1691    8    0    1
 -2       803       907       906      3558      3559      3554
 -1      1692    8    0    1
 -2       804       805       908      3237      3560      3561
 -1      1693    8    0    1
 -2       804       908       907      3561      3562      3557
 -1      1694    8    0    1
 -2       805       806       909      3240      3563      3564
 -1      1695    8    0    1
 -2       805       909       908      3564      3565      3560
 -1      1696    8    0    1
 -2       806       807       910      3243      3566      3567
 -1      1697    8    0    1
 -2       806       910       909      3567      3568      3563
 -1      1698    8    0    1
 -2       807       808       911      3246      3569      3570
 -1      1699    8    0    1
 -2       807       911       910      3570      3571      3566
 -1      1700    8    0    1
 -2       808       809       912      3249      3572      3573
 -1      1701    8    0    1
 -2       808       912       911      3573      3574      3569
 -1      1702    8    0    1
 -2       809       810       913      3252      3575      3576
 -1      1703    8    0    1
 -2       809       913       912      3576      3577      3572
 -1      1704    8    0    1
 -2       810       811       914      3255      3578      3579
 -1      1705    8    0    1
 -2       810       914       913      3579      3580      3575
 -1      1706    8    0    1
 -2       811       812       832      3258      3392      3581
 -1      1707    8    0    1
 -2       836       825       915      3367      3582      3583
 -1      1708    8    0    1
 -2       823       836       916      3330      3584      3585
 -1      1709    8    0    1
 -2       836       915       916      3583      3586      3584
 -1      1710    8    0    1
 -2       816       817       917      3276      3587      3588
 -1      1711    8    0    1
 -2       817       818       918      3279      3589      3590
 -1      1712    8    0    1
 -2       817       918       917      3590      3591      3587
 -1      1713    8    0    1
 -2       818       819       919      3282      3592      3593
 -1      1714    8    0    1
 -2       818       919       918      3593      3594      3589
 -1      1715    8    0    1
 -2       819       702       820      3280      3393      3595
 -1      1716    8    0    1
 -2       820       746       750      3285      3061      3596
 -1      1717    8    0    1
 -2       830       831       920      3313      3597      3598
 -1      1718    8    0    1
 -2       736       591       695      2999      3054      3599
 -1      1719    8    0    1
 -2       822       821       921      3291      3600      3601
 -1      1720    8    0    1
 -2       827       813       922      3391      3602      3603
 -1      1721    8    0    1
 -2       825       845       923      3389      3604      3605
 -1      1722    8    0    1
 -2       844       827       924      3397      3606      3607
 -1      1723    8    0    1
 -2       845       844       925      3366      3608      3609
 -1      1724    8    0    1
 -2       844       924       925      3607      3610      3608
 -1      1725    8    0    1
 -2       815       816       839      3273      3611      3429
 -1      1726    8    0    1
 -2       756       838       926      3335      3612      3613
 -1      1727    8    0    1
 -2       756       926       865      3613      3614      3435
 -1      1728    8    0    1
 -2       821       830       927      3310      3615      3616
 -1      1729    8    0    1
 -2       921       821       927      3600      3616      3617
 -1      1730    8    0    1
 -2       830       920       927      3598      3618      3615
 -1      1731    8    0    1
 -2       794       795       928      3207      3619      3620
 -1      1732    8    0    1
 -2       897       794       928      3529      3620      3621
 -1      1733    8    0    1
 -2       795       899       928      3535      3622      3619
 -1      1734    8    0    1
 -2       751       744       929      3068      3623      3624
 -1      1735    8    0    1
 -2       751       929       856      3624      3625      3405
 -1      1736    8    0    1
 -2       832       835       914      3326      3626      3627
 -1      1737    8    0    1
 -2       837       743       850      3434      3379      3628
 -1      1738    8    0    1
 -2       820       750       857      3596      3408      3629
 -1      1739    8    0    1
 -2       819       820       930      3595      3630      3631
 -1      1740    8    0    1
 -2       919       819       930      3592      3631      3632
 -1      1741    8    0    1
 -2       820       857       930      3629      3633      3630
 -1      1742    8    0    1
 -2       813       839       917      3340      3634      3635
 -1      1743    8    0    1
 -2       739       849       840      3371      3636      3341
 -1      1744    8    0    1
 -2       811       832       914      3581      3627      3578
 -1      1745    8    0    1
 -2       839       816       917      3611      3588      3634
 -1      1746    8    0    1
 -2       847       753       931      3359      3637      3638
 -1      1747    8    0    1
 -2       835       891       914      3513      3639      3626
 -1      1748    8    0    1
 -2       782       890       860      3510      3640      3641
 -1      1749    8    0    1
 -2       755       736       695      3081      3599      3264
 -1      1750    8    0    1
 -2       891       843       862      3512      3422      3642
 -1      1751    8    0    1
 -2       829       893       932      3519      3643      3644
 -1      1752    8    0    1
 -2       892       823       916      3515      3585      3645
 -1      1753    8    0    1
 -2       893       834       933      3518      3646      3647
 -1      1754    8    0    1
 -2       834       861       933      3419      3648      3646
 -1      1755    8    0    1
 -2       851       747       934      3382      3649      3650
 -1      1756    8    0    1
 -2       747       859       934      3413      3651      3649
 -1      1757    8    0    1
 -2       857       854       935      3406      3652      3653
 -1      1758    8    0    1
 -2       857       935       930      3653      3654      3633
 -1      1759    8    0    1
 -2       788       895       920      3525      3655      3656
 -1      1760    8    0    1
 -2       791       896       936      3528      3657      3658
 -1      1761    8    0    1
 -2       791       936       852      3658      3659      3383
 -1      1762    8    0    1
 -2       896       790       937      3527      3660      3661
 -1      1763    8    0    1
 -2       790       833       937      3319      3662      3660
 -1      1764    8    0    1
 -2       745       851       938      3381      3663      3664
 -1      1765    8    0    1
 -2       745       938       858      3664      3665      3409
 -1      1766    8    0    1
 -2       853       822       939      3386      3666      3667
 -1      1767    8    0    1
 -2       822       921       939      3601      3668      3666
 -1      1768    8    0    1
 -2       792       898       940      3532      3669      3670
 -1      1769    8    0    1
 -2       792       940       833      3670      3671      3320
 -1      1770    8    0    1
 -2       915       825       923      3582      3605      3672
 -1      1771    8    0    1
 -2       923       845       925      3604      3609      3673
 -1      1772    8    0    1
 -2       854       853       941      3396      3674      3675
 -1      1773    8    0    1
 -2       853       939       941      3667      3676      3674
 -1      1774    8    0    1
 -2       922       813       917      3602      3635      3677
 -1      1775    8    0    1
 -2       920       831       788      3597      3678      3656
 -1      1776    8    0    1
 -2       827       922       924      3603      3679      3606
 -1      1777    8    0    1
 -2       854       941       935      3675      3680      3652
 -1      1778    8    0    1
 -2       656       733       783      3377      3681      3171
 -1      1779    8    0    1
 -2       841       858       942      3411      3682      3683
 -1      1780    8    0    1
 -2       841       942       862      3683      3684      3423
 -1      1781    8    0    1
 -2       753       824       943      3296      3685      3686
 -1      1782    8    0    1
 -2       931       753       943      3637      3686      3687
 -1      1783    8    0    1
 -2       824       863       943      3426      3688      3685
 -1      1784    8    0    1
 -2       861       724       852      3420      3385      3689
 -1      1785    8    0    1
 -2       846       842       944      3358      3690      3691
 -1      1786    8    0    1
 -2       829       932       863      3644      3692      3427
 -1      1787    8    0    1
 -2       842       848       945      3364      3693      3694
 -1      1788    8    0    1
 -2       842       945       944      3694      3695      3690
 -1      1789    8    0    1
 -2       849       782       840      3402      3696      3636
 -1      1790    8    0    1
 -2       838       837       946      3390      3697      3698
 -1      1791    8    0    1
 -2       837       850       946      3628      3699      3697
 -1      1792    8    0    1
 -2       733       864       783      3431      3700      3681
 -1      1793    8    0    1
 -2       838       946       926      3698      3701      3612
 -1      1794    8    0    1
 -2       850       856       947      3404      3702      3703
 -1      1795    8    0    1
 -2       850       947       946      3703      3704      3699
 -1      1796    8    0    1
 -2       744       846       929      3357      3705      3623
 -1      1797    8    0    1
 -2       914       891       913      3639      3706      3580
 -1      1798    8    0    1
 -2       848       847       948      3365      3707      3708
 -1      1799    8    0    1
 -2       848       948       945      3708      3709      3693
 -1      1800    8    0    1
 -2       867       866       949      3442      3710      3711
 -1      1801    8    0    1
 -2       868       867       950      3445      3712      3713
 -1      1802    8    0    1
 -2       867       949       950      3711      3714      3712
 -1      1803    8    0    1
 -2       869       868       951      3448      3715      3716
 -1      1804    8    0    1
 -2       868       950       951      3713      3717      3715
 -1      1805    8    0    1
 -2       870       869       952      3451      3718      3719
 -1      1806    8    0    1
 -2       869       951       952      3716      3720      3718
 -1      1807    8    0    1
 -2       871       870       953      3454      3721      3722
 -1      1808    8    0    1
 -2       870       952       953      3719      3723      3721
 -1      1809    8    0    1
 -2       872       871       954      3457      3724      3725
 -1      1810    8    0    1
 -2       871       953       954      3722      3726      3724
 -1      1811    8    0    1
 -2       873       872       955      3460      3727      3728
 -1      1812    8    0    1
 -2       872       954       955      3725      3729      3727
 -1      1813    8    0    1
 -2       874       873       956      3463      3730      3731
 -1      1814    8    0    1
 -2       873       955       956      3728      3732      3730
 -1      1815    8    0    1
 -2       875       874       957      3466      3733      3734
 -1      1816    8    0    1
 -2       874       956       957      3731      3735      3733
 -1      1817    8    0    1
 -2       876       875       958      3469      3736      3737
 -1      1818    8    0    1
 -2       875       957       958      3734      3738      3736
 -1      1819    8    0    1
 -2       877       876       959      3472      3739      3740
 -1      1820    8    0    1
 -2       876       958       959      3737      3741      3739
 -1      1821    8    0    1
 -2       878       877       960      3475      3742      3743
 -1      1822    8    0    1
 -2       877       959       960      3740      3744      3742
 -1      1823    8    0    1
 -2       879       878       961      3478      3745      3746
 -1      1824    8    0    1
 -2       878       960       961      3743      3747      3745
 -1      1825    8    0    1
 -2       880       879       962      3481      3748      3749
 -1      1826    8    0    1
 -2       879       961       962      3746      3750      3748
 -1      1827    8    0    1
 -2       881       880       963      3484      3751      3752
 -1      1828    8    0    1
 -2       880       962       963      3749      3753      3751
 -1      1829    8    0    1
 -2       882       881       964      3487      3754      3755
 -1      1830    8    0    1
 -2       881       963       964      3752      3756      3754
 -1      1831    8    0    1
 -2       883       882       965      3490      3757      3758
 -1      1832    8    0    1
 -2       882       964       965      3755      3759      3757
 -1      1833    8    0    1
 -2       884       883       966      3493      3760      3761
 -1      1834    8    0    1
 -2       883       965       966      3758      3762      3760
 -1      1835    8    0    1
 -2       885       884       967      3496      3763      3764
 -1      1836    8    0    1
 -2       884       966       967      3761      3765      3763
 -1      1837    8    0    1
 -2       886       885       968      3499      3766      3767
 -1      1838    8    0    1
 -2       885       967       968      3764      3768      3766
 -1      1839    8    0    1
 -2       887       886       969      3502      3769      3770
 -1      1840    8    0    1
 -2       886       968       969      3767      3771      3769
 -1      1841    8    0    1
 -2       888       887       970      3505      3772      3773
 -1      1842    8    0    1
 -2       887       969       970      3770      3774      3772
 -1      1843    8    0    1
 -2       889       888       971      3508      3775      3776
 -1      1844    8    0    1
 -2       888       970       971      3773      3777      3775
 -1      1845    8    0    1
 -2       932       893       972      3643      3778      3779
 -1      1846    8    0    1
 -2       892       916       894      3645      3780      3523
 -1      1847    8    0    1
 -2       926       946       947      3701      3704      3781
 -1      1848    8    0    1
 -2       920       895       973      3655      3782      3783
 -1      1849    8    0    1
 -2       920       973       927      3783      3784      3618
 -1      1850    8    0    1
 -2       895       894       973      3526      3785      3782
 -1      1851    8    0    1
 -2       789       788       855      3191      3786      3401
 -1      1852    8    0    1
 -2       856       929       974      3625      3787      3788
 -1      1853    8    0    1
 -2       856       974       947      3788      3789      3702
 -1      1854    8    0    1
 -2       900       901       975      3541      3790      3791
 -1      1855    8    0    1
 -2       899       900       976      3538      3792      3793
 -1      1856    8    0    1
 -2       900       975       976      3791      3794      3792
 -1      1857    8    0    1
 -2       902       903       977      3547      3795      3796
 -1      1858    8    0    1
 -2       903       904       978      3550      3797      3798
 -1      1859    8    0    1
 -2       903       978       977      3798      3799      3795
 -1      1860    8    0    1
 -2       904       905       979      3553      3800      3801
 -1      1861    8    0    1
 -2       904       979       978      3801      3802      3797
 -1      1862    8    0    1
 -2       905       906       980      3556      3803      3804
 -1      1863    8    0    1
 -2       905       980       979      3804      3805      3800
 -1      1864    8    0    1
 -2       906       907       981      3559      3806      3807
 -1      1865    8    0    1
 -2       906       981       980      3807      3808      3803
 -1      1866    8    0    1
 -2       907       908       982      3562      3809      3810
 -1      1867    8    0    1
 -2       907       982       981      3810      3811      3806
 -1      1868    8    0    1
 -2       908       909       983      3565      3812      3813
 -1      1869    8    0    1
 -2       908       983       982      3813      3814      3809
 -1      1870    8    0    1
 -2       909       910       984      3568      3815      3816
 -1      1871    8    0    1
 -2       909       984       983      3816      3817      3812
 -1      1872    8    0    1
 -2       910       911       985      3571      3818      3819
 -1      1873    8    0    1
 -2       910       985       984      3819      3820      3815
 -1      1874    8    0    1
 -2       911       912       986      3574      3821      3822
 -1      1875    8    0    1
 -2       911       986       985      3822      3823      3818
 -1      1876    8    0    1
 -2       912       913       987      3577      3824      3825
 -1      1877    8    0    1
 -2       912       987       986      3825      3826      3821
 -1      1878    8    0    1
 -2       891       862       988      3642      3827      3828
 -1      1879    8    0    1
 -2       918       919       989      3594      3829      3830
 -1      1880    8    0    1
 -2       917       918       922      3591      3831      3677
 -1      1881    8    0    1
 -2       847       931       948      3638      3832      3707
 -1      1882    8    0    1
 -2       923       925       990      3673      3833      3834
 -1      1883    8    0    1
 -2       859       748       860      3414      3416      3835
 -1      1884    8    0    1
 -2       935       941       991      3680      3836      3837
 -1      1885    8    0    1
 -2       866       865       992      3439      3838      3839
 -1      1886    8    0    1
 -2       866       992       949      3839      3840      3710
 -1      1887    8    0    1
 -2       898       897       993      3533      3841      3842
 -1      1888    8    0    1
 -2       865       926       994      3614      3843      3844
 -1      1889    8    0    1
 -2       865       994       992      3844      3845      3838
 -1      1890    8    0    1
 -2       840       782       860      3696      3641      3417
 -1      1891    8    0    1
 -2       915       923       995      3672      3846      3847
 -1      1892    8    0    1
 -2       925       924       996      3610      3848      3849
 -1      1893    8    0    1
 -2       929       846       997      3705      3850      3851
 -1      1894    8    0    1
 -2       974       929       997      3787      3851      3852
 -1      1895    8    0    1
 -2       846       944       997      3691      3853      3850
 -1      1896    8    0    1
 -2       924       922       998      3679      3854      3855
 -1      1897    8    0    1
 -2       861       852       999      3689      3856      3857
 -1      1898    8    0    1
 -2       852       936       999      3659      3858      3856
 -1      1899    8    0    1
 -2       901       902      1000      3544      3859      3860
 -1      1900    8    0    1
 -2       902       977      1000      3796      3861      3859
 -1      1901    8    0    1
 -2       913       891       987      3706      3862      3824
 -1      1902    8    0    1
 -2       894       916       973      3780      3863      3785
 -1      1903    8    0    1
 -2       859       860       890      3835      3640      3864
 -1      1904    8    0    1
 -2       923       990       995      3834      3865      3846
 -1      1905    8    0    1
 -2       898       993      1001      3842      3866      3867
 -1      1906    8    0    1
 -2       898      1001       940      3867      3868      3669
 -1      1907    8    0    1
 -2       921       927       995      3617      3869      3870
 -1      1908    8    0    1
 -2       972       893      1002      3778      3871      3872
 -1      1909    8    0    1
 -2       893       933      1002      3647      3873      3871
 -1      1910    8    0    1
 -2       890       889      1003      3511      3874      3875
 -1      1911    8    0    1
 -2       989       919       930      3829      3632      3876
 -1      1912    8    0    1
 -2       933       861       999      3648      3857      3877
 -1      1913    8    0    1
 -2       901      1000       975      3860      3878      3790
 -1      1914    8    0    1
 -2       937       833       940      3662      3671      3879
 -1      1915    8    0    1
 -2       926       947       994      3781      3880      3843
 -1      1916    8    0    1
 -2       938       851      1004      3663      3881      3882
 -1      1917    8    0    1
 -2       851       934      1004      3650      3883      3881
 -1      1918    8    0    1
 -2       939       921       990      3668      3884      3885
 -1      1919    8    0    1
 -2       896       937      1005      3661      3886      3887
 -1      1920    8    0    1
 -2       921       995       990      3870      3865      3884
 -1      1921    8    0    1
 -2       899       976      1006      3793      3888      3889
 -1      1922    8    0    1
 -2       899      1006       928      3889      3890      3622
 -1      1923    8    0    1
 -2       891       988       987      3828      3891      3862
 -1      1924    8    0    1
 -2       988       862      1007      3827      3892      3893
 -1      1925    8    0    1
 -2       862       942      1007      3684      3894      3892
 -1      1926    8    0    1
 -2       922       918       998      3831      3895      3854
 -1      1927    8    0    1
 -2       997       944      1008      3853      3896      3897
 -1      1928    8    0    1
 -2       990       925       996      3833      3849      3898
 -1      1929    8    0    1
 -2       941       939       990      3676      3885      3899
 -1      1930    8    0    1
 -2       936       896      1009      3657      3900      3901
 -1      1931    8    0    1
 -2       896      1005      1009      3887      3902      3900
 -1      1932    8    0    1
 -2       942       858      1010      3682      3903      3904
 -1      1933    8    0    1
 -2       993       897      1011      3841      3905      3906
 -1      1934    8    0    1
 -2       897       928      1011      3621      3907      3905
 -1      1935    8    0    1
 -2       859       890      1003      3864      3875      3908
 -1      1936    8    0    1
 -2       996       924       998      3848      3855      3909
 -1      1937    8    0    1
 -2       858       938      1010      3665      3910      3903
 -1      1938    8    0    1
 -2       889       971      1003      3776      3911      3874
 -1      1939    8    0    1
 -2       944       945      1012      3695      3912      3913
 -1      1940    8    0    1
 -2       944      1012      1008      3913      3914      3896
 -1      1941    8    0    1
 -2       864       741       784      3430      3375      3915
 -1      1942    8    0    1
 -2       935       991       989      3837      3916      3917
 -1      1943    8    0    1
 -2       930       935       989      3654      3917      3876
 -1      1944    8    0    1
 -2       995       927       973      3869      3784      3918
 -1      1945    8    0    1
 -2       932       972       948      3779      3919      3920
 -1      1946    8    0    1
 -2       951       950      1013      3717      3921      3922
 -1      1947    8    0    1
 -2       952       951      1014      3720      3923      3924
 -1      1948    8    0    1
 -2       951      1013      1014      3922      3925      3923
 -1      1949    8    0    1
 -2       953       952      1015      3723      3926      3927
 -1      1950    8    0    1
 -2       952      1014      1015      3924      3928      3926
 -1      1951    8    0    1
 -2       954       953      1016      3726      3929      3930
 -1      1952    8    0    1
 -2       953      1015      1016      3927      3931      3929
 -1      1953    8    0    1
 -2       955       954      1017      3729      3932      3933
 -1      1954    8    0    1
 -2       954      1016      1017      3930      3934      3932
 -1      1955    8    0    1
 -2       956       955      1018      3732      3935      3936
 -1      1956    8    0    1
 -2       955      1017      1018      3933      3937      3935
 -1      1957    8    0    1
 -2       957       956      1019      3735      3938      3939
 -1      1958    8    0    1
 -2       956      1018      1019      3936      3940      3938
 -1      1959    8    0    1
 -2       958       957      1020      3738      3941      3942
 -1      1960    8    0    1
 -2       957      1019      1020      3939      3943      3941
 -1      1961    8    0    1
 -2       959       958      1021      3741      3944      3945
 -1      1962    8    0    1
 -2       958      1020      1021      3942      3946      3944
 -1      1963    8    0    1
 -2       960       959      1022      3744      3947      3948
 -1      1964    8    0    1
 -2       959      1021      1022      3945      3949      3947
 -1      1965    8    0    1
 -2       961       960      1023      3747      3950      3951
 -1      1966    8    0    1
 -2       960      1022      1023      3948      3952      3950
 -1      1967    8    0    1
 -2       962       961      1024      3750      3953      3954
 -1      1968    8    0    1
 -2       961      1023      1024      3951      3955      3953
 -1      1969    8    0    1
 -2       963       962      1025      3753      3956      3957
 -1      1970    8    0    1
 -2       962      1024      1025      3954      3958      3956
 -1      1971    8    0    1
 -2       964       963      1026      3756      3959      3960
 -1      1972    8    0    1
 -2       963      1025      1026      3957      3961      3959
 -1      1973    8    0    1
 -2       965       964      1027      3759      3962      3963
 -1      1974    8    0    1
 -2       964      1026      1027      3960      3964      3962
 -1      1975    8    0    1
 -2       966       965      1028      3762      3965      3966
 -1      1976    8    0    1
 -2       965      1027      1028      3963      3967      3965
 -1      1977    8    0    1
 -2       967       966      1029      3765      3968      3969
 -1      1978    8    0    1
 -2       966      1028      1029      3966      3970      3968
 -1      1979    8    0    1
 -2       968       967      1030      3768      3971      3972
 -1      1980    8    0    1
 -2       967      1029      1030      3969      3973      3971
 -1      1981    8    0    1
 -2       969       968      1031      3771      3974      3975
 -1      1982    8    0    1
 -2       968      1030      1031      3972      3976      3974
 -1      1983    8    0    1
 -2       970       969      1032      3774      3977      3978
 -1      1984    8    0    1
 -2       969      1031      1032      3975      3979      3977
 -1      1985    8    0    1
 -2       971       970      1033      3777      3980      3981
 -1      1986    8    0    1
 -2       970      1032      1033      3978      3982      3980
 -1      1987    8    0    1
 -2       995       973       915      3918      3983      3847
 -1      1988    8    0    1
 -2       979       980      1034      3805      3984      3985
 -1      1989    8    0    1
 -2      1005       937      1035      3886      3986      3987
 -1      1990    8    0    1
 -2       937       940      1035      3879      3988      3986
 -1      1991    8    0    1
 -2       976       975      1036      3794      3989      3990
 -1      1992    8    0    1
 -2       997      1008      1037      3897      3991      3992
 -1      1993    8    0    1
 -2       997      1037       974      3992      3993      3852
 -1      1994    8    0    1
 -2       942      1010      1038      3904      3994      3995
 -1      1995    8    0    1
 -2       942      1038      1007      3995      3996      3894
 -1      1996    8    0    1
 -2       978       979      1039      3802      3997      3998
 -1      1997    8    0    1
 -2       979      1034      1039      3985      3999      3997
 -1      1998    8    0    1
 -2       977       978      1040      3799      4000      4001
 -1      1999    8    0    1
 -2       978      1039      1040      3998      4002      4000
 -1      2000    8    0    1
 -2       980       981      1041      3808      4003      4004
 -1      2001    8    0    1
 -2       980      1041      1034      4004      4005      3984
 -1      2002    8    0    1
 -2       981       982      1042      3811      4006      4007
 -1      2003    8    0    1
 -2       981      1042      1041      4007      4008      4003
 -1      2004    8    0    1
 -2       982       983      1043      3814      4009      4010
 -1      2005    8    0    1
 -2       982      1043      1042      4010      4011      4006
 -1      2006    8    0    1
 -2       983       984      1044      3817      4012      4013
 -1      2007    8    0    1
 -2       983      1044      1043      4013      4014      4009
 -1      2008    8    0    1
 -2       984       985      1045      3820      4015      4016
 -1      2009    8    0    1
 -2       984      1045      1044      4016      4017      4012
 -1      2010    8    0    1
 -2       985       986      1046      3823      4018      4019
 -1      2011    8    0    1
 -2       985      1046      1045      4019      4020      4015
 -1      2012    8    0    1
 -2       986       987      1047      3826      4021      4022
 -1      2013    8    0    1
 -2       986      1047      1046      4022      4023      4018
 -1      2014    8    0    1
 -2       973       916       915      3863      3586      3983
 -1      2015    8    0    1
 -2       945       948      1048      3709      4024      4025
 -1      2016    8    0    1
 -2      1012       945      1048      3912      4025      4026
 -1      2017    8    0    1
 -2       948       972      1048      3919      4027      4024
 -1      2018    8    0    1
 -2       996       998       991      3909      4028      4029
 -1      2019    8    0    1
 -2       918       989       998      3830      4030      3895
 -1      2020    8    0    1
 -2       864       784       783      3915      3175      3700
 -1      2021    8    0    1
 -2       948       931       932      3832      4031      3920
 -1      2022    8    0    1
 -2       987       988      1047      3891      4032      4021
 -1      2023    8    0    1
 -2       947       974      1049      3789      4033      4034
 -1      2024    8    0    1
 -2       994       947      1049      3880      4034      4035
 -1      2025    8    0    1
 -2       974      1037      1049      3993      4036      4033
 -1      2026    8    0    1
 -2       991       941       990      3836      3899      4037
 -1      2027    8    0    1
 -2       949       992      1050      3840      4038      4039
 -1      2028    8    0    1
 -2       992       994      1051      3845      4040      4041
 -1      2029    8    0    1
 -2      1050       992      1051      4038      4041      4042
 -1      2030    8    0    1
 -2       994      1049      1051      4035      4043      4040
 -1      2031    8    0    1
 -2       863       932       943      3692      4044      3688
 -1      2032    8    0    1
 -2       931       943       932      3687      4044      4031
 -1      2033    8    0    1
 -2       991       998       989      4028      4030      3916
 -1      2034    8    0    1
 -2       999       936      1052      3858      4045      4046
 -1      2035    8    0    1
 -2       936      1009      1052      3901      4047      4045
 -1      2036    8    0    1
 -2       933       999      1053      3877      4048      4049
 -1      2037    8    0    1
 -2      1002       933      1053      3873      4049      4050
 -1      2038    8    0    1
 -2       999      1052      1053      4046      4051      4048
 -1      2039    8    0    1
 -2       975      1000      1054      3878      4052      4053
 -1      2040    8    0    1
 -2       975      1054      1036      4053      4054      3989
 -1      2041    8    0    1
 -2      1010       938      1055      3910      4055      4056
 -1      2042    8    0    1
 -2       938      1004      1055      3882      4057      4055
 -1      2043    8    0    1
 -2      1000       977      1056      3861      4058      4059
 -1      2044    8    0    1
 -2      1000      1056      1054      4059      4060      4052
 -1      2045    8    0    1
 -2       788       831       855      3678      3400      3786
 -1      2046    8    0    1
 -2       950       949      1057      3714      4061      4062
 -1      2047    8    0    1
 -2       949      1050      1057      4039      4063      4061
 -1      2048    8    0    1
 -2      1001       993      1058      3866      4064      4065
 -1      2049    8    0    1
 -2       972      1002      1059      3872      4066      4067
 -1      2050    8    0    1
 -2       972      1059      1048      4067      4068      4027
 -1      2051    8    0    1
 -2      1006       976      1060      3888      4069      4070
 -1      2052    8    0    1
 -2       976      1036      1060      3990      4071      4069
 -1      2053    8    0    1
 -2       971      1033      1055      3981      4072      4073
 -1      2054    8    0    1
 -2      1035       940      1001      3988      3868      4074
 -1      2055    8    0    1
 -2      1008      1012      1061      3914      4075      4076
 -1      2056    8    0    1
 -2       950      1057      1013      4062      4077      3921
 -1      2057    8    0    1
 -2      1005      1035      1062      3987      4078      4079
 -1      2058    8    0    1
 -2      1010      1055      1063      4056      4080      4081
 -1      2059    8    0    1
 -2      1010      1063      1038      4081      4082      3994
 -1      2060    8    0    1
 -2       928      1006      1011      3890      4083      3907
 -1      2061    8    0    1
 -2      1009      1005      1064      3902      4084      4085
 -1      2062    8    0    1
 -2      1005      1062      1064      4079      4086      4084
 -1      2063    8    0    1
 -2      1003       971      1055      3911      4073      4087
 -1      2064    8    0    1
 -2       993      1011      1065      3906      4088      4089
 -1      2065    8    0    1
 -2       993      1065      1058      4089      4090      4064
 -1      2066    8    0    1
 -2      1047       988      1007      4032      3893      4091
 -1      2067    8    0    1
 -2       977      1040      1056      4001      4092      4058
 -1      2068    8    0    1
 -2      1008      1061      1066      4076      4093      4094
 -1      2069    8    0    1
 -2      1008      1066      1037      4094      4095      3991
 -1      2070    8    0    1
 -2       996       991       990      4029      4037      3898
 -1      2071    8    0    1
 -2      1055      1033      1063      4072      4096      4080
 -1      2072    8    0    1
 -2      1035      1001      1067      4074      4097      4098
 -1      2073    8    0    1
 -2      1062      1035      1067      4078      4098      4099
 -1      2074    8    0    1
 -2      1001      1058      1067      4065      4100      4097
 -1      2075    8    0    1
 -2      1012      1048      1068      4026      4101      4102
 -1      2076    8    0    1
 -2      1061      1012      1068      4075      4102      4103
 -1      2077    8    0    1
 -2      1048      1059      1068      4068      4104      4101
 -1      2078    8    0    1
 -2      1015      1014      1069      3928      4105      4106
 -1      2079    8    0    1
 -2      1016      1015      1070      3931      4107      4108
 -1      2080    8    0    1
 -2      1015      1069      1070      4106      4109      4107
 -1      2081    8    0    1
 -2      1017      1016      1071      3934      4110      4111
 -1      2082    8    0    1
 -2      1016      1070      1071      4108      4112      4110
 -1      2083    8    0    1
 -2      1018      1017      1072      3937      4113      4114
 -1      2084    8    0    1
 -2      1017      1071      1072      4111      4115      4113
 -1      2085    8    0    1
 -2      1019      1018      1073      3940      4116      4117
 -1      2086    8    0    1
 -2      1018      1072      1073      4114      4118      4116
 -1      2087    8    0    1
 -2      1020      1019      1074      3943      4119      4120
 -1      2088    8    0    1
 -2      1019      1073      1074      4117      4121      4119
 -1      2089    8    0    1
 -2      1021      1020      1075      3946      4122      4123
 -1      2090    8    0    1
 -2      1020      1074      1075      4120      4124      4122
 -1      2091    8    0    1
 -2      1022      1021      1076      3949      4125      4126
 -1      2092    8    0    1
 -2      1021      1075      1076      4123      4127      4125
 -1      2093    8    0    1
 -2      1023      1022      1077      3952      4128      4129
 -1      2094    8    0    1
 -2      1022      1076      1077      4126      4130      4128
 -1      2095    8    0    1
 -2      1024      1023      1078      3955      4131      4132
 -1      2096    8    0    1
 -2      1023      1077      1078      4129      4133      4131
 -1      2097    8    0    1
 -2      1025      1024      1079      3958      4134      4135
 -1      2098    8    0    1
 -2      1024      1078      1079      4132      4136      4134
 -1      2099    8    0    1
 -2      1026      1025      1080      3961      4137      4138
 -1      2100    8    0    1
 -2      1025      1079      1080      4135      4139      4137
 -1      2101    8    0    1
 -2      1027      1026      1081      3964      4140      4141
 -1      2102    8    0    1
 -2      1026      1080      1081      4138      4142      4140
 -1      2103    8    0    1
 -2      1028      1027      1082      3967      4143      4144
 -1      2104    8    0    1
 -2      1027      1081      1082      4141      4145      4143
 -1      2105    8    0    1
 -2      1029      1028      1083      3970      4146      4147
 -1      2106    8    0    1
 -2      1028      1082      1083      4144      4148      4146
 -1      2107    8    0    1
 -2      1030      1029      1084      3973      4149      4150
 -1      2108    8    0    1
 -2      1029      1083      1084      4147      4151      4149
 -1      2109    8    0    1
 -2      1031      1030      1085      3976      4152      4153
 -1      2110    8    0    1
 -2      1030      1084      1085      4150      4154      4152
 -1      2111    8    0    1
 -2      1032      1031      1086      3979      4155      4156
 -1      2112    8    0    1
 -2      1031      1085      1086      4153      4157      4155
 -1      2113    8    0    1
 -2      1033      1032      1087      3982      4158      4159
 -1      2114    8    0    1
 -2      1063      1033      1087      4096      4159      4160
 -1      2115    8    0    1
 -2      1032      1086      1087      4156      4161      4158
 -1      2116    8    0    1
 -2      1013      1057      1088      4077      4162      4163
 -1      2117    8    0    1
 -2      1041      1042      1089      4008      4164      4165
 -1      2118    8    0    1
 -2       934       859      1003      3651      3908      4166
 -1      2119    8    0    1
 -2      1011      1006      1090      4083      4167      4168
 -1      2120    8    0    1
 -2      1065      1011      1090      4088      4168      4169
 -1      2121    8    0    1
 -2      1006      1060      1090      4070      4170      4167
 -1      2122    8    0    1
 -2      1039      1034      1091      3999      4171      4172
 -1      2123    8    0    1
 -2      1040      1039      1092      4002      4173      4174
 -1      2124    8    0    1
 -2      1039      1091      1092      4172      4175      4173
 -1      2125    8    0    1
 -2      1042      1043      1093      4011      4176      4177
 -1      2126    8    0    1
 -2      1042      1093      1089      4177      4178      4164
 -1      2127    8    0    1
 -2      1043      1044      1094      4014      4179      4180
 -1      2128    8    0    1
 -2      1043      1094      1093      4180      4181      4176
 -1      2129    8    0    1
 -2      1044      1045      1095      4017      4182      4183
 -1      2130    8    0    1
 -2      1044      1095      1094      4183      4184      4179
 -1      2131    8    0    1
 -2      1045      1046      1096      4020      4185      4186
 -1      2132    8    0    1
 -2      1045      1096      1095      4186      4187      4182
 -1      2133    8    0    1
 -2      1046      1047      1097      4023      4188      4189
 -1      2134    8    0    1
 -2      1046      1097      1096      4189      4190      4185
 -1      2135    8    0    1
 -2      1034      1041      1098      4005      4191      4192
 -1      2136    8    0    1
 -2      1034      1098      1091      4192      4193      4171
 -1      2137    8    0    1
 -2      1052      1009      1099      4047      4194      4195
 -1      2138    8    0    1
 -2      1009      1064      1099      4085      4196      4194
 -1      2139    8    0    1
 -2      1049      1037      1100      4036      4197      4198
 -1      2140    8    0    1
 -2      1051      1049      1100      4043      4198      4199
 -1      2141    8    0    1
 -2      1037      1066      1100      4095      4200      4197
 -1      2142    8    0    1
 -2      1057      1050      1101      4063      4201      4202
 -1      2143    8    0    1
 -2      1057      1101      1088      4202      4203      4162
 -1      2144    8    0    1
 -2      1036      1054      1102      4054      4204      4205
 -1      2145    8    0    1
 -2      1007      1038      1097      3996      4206      4207
 -1      2146    8    0    1
 -2      1014      1013      1103      3925      4208      4209
 -1      2147    8    0    1
 -2      1013      1088      1103      4163      4210      4208
 -1      2148    8    0    1
 -2      1056      1040      1104      4092      4211      4212
 -1      2149    8    0    1
 -2      1040      1092      1104      4174      4213      4211
 -1      2150    8    0    1
 -2      1054      1056      1105      4060      4214      4215
 -1      2151    8    0    1
 -2      1056      1104      1105      4212      4216      4214
 -1      2152    8    0    1
 -2      1047      1007      1097      4091      4207      4188
 -1      2153    8    0    1
 -2       934      1003      1004      4166      4217      3883
 -1      2154    8    0    1
 -2      1060      1036      1106      4071      4218      4219
 -1      2155    8    0    1
 -2      1036      1102      1106      4205      4220      4218
 -1      2156    8    0    1
 -2      1067      1058      1107      4100      4221      4222
 -1      2157    8    0    1
 -2      1069      1014      1103      4105      4209      4223
 -1      2158    8    0    1
 -2      1041      1089      1098      4165      4224      4191
 -1      2159    8    0    1
 -2      1038      1063      1108      4082      4225      4226
 -1      2160    8    0    1
 -2      1097      1038      1108      4206      4226      4227
 -1      2161    8    0    1
 -2      1063      1087      1108      4160      4228      4225
 -1      2162    8    0    1
 -2      1064      1062      1109      4086      4229      4230
 -1      2163    8    0    1
 -2      1058      1065      1110      4090      4231      4232
 -1      2164    8    0    1
 -2      1058      1110      1107      4232      4233      4221
 -1      2165    8    0    1
 -2      1054      1105      1102      4215      4234      4204
 -1      2166    8    0    1
 -2      1052      1099      1111      4195      4235      4236
 -1      2167    8    0    1
 -2      1052      1111      1053      4236      4237      4051
 -1      2168    8    0    1
 -2      1109      1062      1112      4229      4238      4239
 -1      2169    8    0    1
 -2      1062      1067      1112      4099      4240      4238
 -1      2170    8    0    1
 -2      1050      1051      1113      4042      4241      4242
 -1      2171    8    0    1
 -2      1101      1050      1113      4201      4242      4243
 -1      2172    8    0    1
 -2      1051      1100      1113      4199      4244      4241
 -1      2173    8    0    1
 -2      1061      1068      1114      4103      4245      4246
 -1      2174    8    0    1
 -2      1002      1053      1115      4050      4247      4248
 -1      2175    8    0    1
 -2      1059      1002      1115      4066      4248      4249
 -1      2176    8    0    1
 -2      1053      1111      1115      4237      4250      4247
 -1      2177    8    0    1
 -2      1061      1114      1113      4246      4251      4252
 -1      2178    8    0    1
 -2      1064      1109      1116      4230      4253      4254
 -1      2179    8    0    1
 -2      1064      1116      1099      4254      4255      4196
 -1      2180    8    0    1
 -2      1102      1105      1076      4234      4256      4257
 -1      2181    8    0    1
 -2      1069      1103      1109      4223      4258      4259
 -1      2182    8    0    1
 -2      1103      1088      1116      4210      4260      4261
 -1      2183    8    0    1
 -2      1070      1069      1112      4109      4262      4263
 -1      2184    8    0    1
 -2      1071      1070      1107      4112      4264      4265
 -1      2185    8    0    1
 -2      1072      1071      1110      4115      4266      4267
 -1      2186    8    0    1
 -2      1074      1073      1117      4121      4268      4269
 -1      2187    8    0    1
 -2      1075      1074      1106      4124      4270      4271
 -1      2188    8    0    1
 -2      1076      1075      1102      4127      4272      4257
 -1      2189    8    0    1
 -2      1077      1076      1105      4130      4256      4273
 -1      2190    8    0    1
 -2      1078      1077      1104      4133      4274      4275
 -1      2191    8    0    1
 -2      1079      1078      1092      4136      4276      4277
 -1      2192    8    0    1
 -2      1080      1079      1091      4139      4278      4279
 -1      2193    8    0    1
 -2      1081      1080      1098      4142      4280      4281
 -1      2194    8    0    1
 -2      1082      1081      1089      4145      4282      4283
 -1      2195    8    0    1
 -2      1083      1082      1093      4148      4284      4285
 -1      2196    8    0    1
 -2      1084      1083      1094      4151      4286      4287
 -1      2197    8    0    1
 -2      1085      1084      1095      4154      4288      4289
 -1      2198    8    0    1
 -2      1086      1085      1096      4157      4290      4291
 -1      2199    8    0    1
 -2      1093      1094      1083      4181      4286      4285
 -1      2200    8    0    1
 -2      1068      1059      1118      4104      4292      4293
 -1      2201    8    0    1
 -2      1114      1068      1118      4245      4293      4294
 -1      2202    8    0    1
 -2      1059      1115      1118      4249      4295      4292
 -1      2203    8    0    1
 -2      1096      1085      1095      4290      4289      4187
 -1      2204    8    0    1
 -2      1092      1091      1079      4175      4278      4277
 -1      2205    8    0    1
 -2      1109      1103      1116      4258      4261      4253
 -1      2206    8    0    1
 -2      1094      1095      1084      4184      4288      4287
 -1      2207    8    0    1
 -2      1096      1097      1086      4190      4296      4291
 -1      2208    8    0    1
 -2      1091      1098      1080      4193      4280      4279
 -1      2209    8    0    1
 -2      1004      1003      1055      4217      4087      4057
 -1      2210    8    0    1
 -2      1077      1105      1104      4273      4216      4274
 -1      2211    8    0    1
 -2      1089      1093      1082      4178      4284      4283
 -1      2212    8    0    1
 -2      1067      1107      1112      4222      4297      4240
 -1      2213    8    0    1
 -2      1101      1113      1114      4243      4251      4298
 -1      2214    8    0    1
 -2      1061      1113      1066      4252      4299      4093
 -1      2215    8    0    1
 -2      1089      1081      1098      4282      4281      4224
 -1      2216    8    0    1
 -2      1104      1092      1078      4213      4276      4275
 -1      2217    8    0    1
 -2      1088      1101      1119      4203      4300      4301
 -1      2218    8    0    1
 -2      1116      1088      1119      4260      4301      4302
 -1      2219    8    0    1
 -2      1101      1114      1119      4298      4303      4300
 -1      2220    8    0    1
 -2      1066      1113      1100      4299      4244      4200
 -1      2221    8    0    1
 -2      1107      1070      1112      4264      4263      4297
 -1      2222    8    0    1
 -2      1069      1109      1112      4259      4239      4262
 -1      2223    8    0    1
 -2      1071      1107      1110      4265      4233      4266
 -1      2224    8    0    1
 -2      1102      1075      1106      4272      4271      4220
 -1      2225    8    0    1
 -2      1072      1110      1120      4267      4304      4305
 -1      2226    8    0    1
 -2      1073      1072      1120      4118      4305      4306
 -1      2227    8    0    1
 -2      1110      1065      1120      4231      4307      4304
 -1      2228    8    0    1
 -2      1074      1117      1106      4269      4308      4270
 -1      2229    8    0    1
 -2      1120      1065      1090      4307      4169      4309
 -1      2230    8    0    1
 -2      1073      1120      1117      4306      4310      4268
 -1      2231    8    0    1
 -2      1060      1106      1117      4219      4308      4311
 -1      2232    8    0    1
 -2      1111      1099      1119      4235      4312      4313
 -1      2233    8    0    1
 -2      1099      1116      1119      4255      4302      4312
 -1      2234    8    0    1
 -2      1060      1117      1090      4311      4314      4170
 -1      2235    8    0    1
 -2      1119      1114      1111      4303      4315      4313
 -1      2236    8    0    1
 -2      1087      1086      1108      4161      4316      4228
 -1      2237    8    0    1
 -2      1090      1117      1120      4314      4310      4309
 -1      2238    8    0    1
 -2      1118      1115      1111      4295      4250      4317
 -1      2239    8    0    1
 -2      1086      1097      1108      4296      4227      4316
 -1      2240    8    0    1
 -2      1114      1118      1111      4294      4317      4315
 -3
    1PSTEP                         1           1           1          
  100CL  101 1.000000000        4317                     0    1           1
 -4  DISP        4    1
 -5  D1          1    2    1    0
 -5  D2          1    2    2    0
 -5  D3          1    2    3    0
 -5  ALL         1    2    0    0    1ALL
 -1         1 1.11372E-02-7.64580E-04-8.04156E-14
 -1         2 1.32385E-02 1.10184E-04-8.87369E-14
 -1         3 1.50858E-02 6.72897E-04-1.30938E-13
 -1         4 1.48398E-02-2.76712E-04-1.32679E-13
 -1         5 0.00000E+00 0.00000E+00 0.00000E+00
 -1         6 0.00000E+00 0.00000E+00 0.00000E+00
 -1         7 0.00000E+00 0.00000E+00 0.00000E+00
 -1         8 0.00000E+00 0.00000E+00 0.00000E+00
 -1         9 0.00000E+00 0.00000E+00 0.00000E+00
 -1        10 0.00000E+00 0.00000E+00 0.00000E+00
 -1        11 0.00000E+00 0.00000E+00 0.00000E+00
 -1        12 0.00000E+00 0.00000E+00 0.00000E+00
 -1        13 0.00000E+00 0.00000E+00 0.00000E+00
 -1        14 0.00000E+00 0.00000E+00 0.00000E+00
 -1        15 0.00000E+00 0.00000E+00 0.00000E+00
 -1        16 0.00000E+00 0.00000E+00 0.00000E+00
 -1        17 0.00000E+00 0.00000E+00 0.00000E+00
 -1        18 0.00000E+00 0.00000E+00 0.00000E+00
 -1        19 0.00000E+00 0.00000E+00 0.00000E+00
 -1        20 0.00000E+00 0.00000E+00 0.00000E+00
 -1        21 0.00000E+00 0.00000E+00 0.00000E+00
 -1        22 0.00000E+00 0.00000E+00 0.00000E+00
 -1        23 4.11378E-04-2.60760E-04 4.55297E-17
 -1        24 7.03340E-04-4.01037E-04-6.80201E-17
 -1        25 9.73370E-04-4.98436E-04-3.37360E-16
 -1        26 1.23781E-03-5.67188E-04-7.57874E-16
 -1        27 1.50127E-03-6.16434E-04-1.32668E-15
 -1        28 1.76585E-03-6.51553E-04-2.04186E-15
 -1        29 2.03250E-03-6.76245E-04-2.90246E-15
 -1        30 2.30158E-03-6.93195E-04-3.90297E-15
 -1        31 2.57314E-03-7.04405E-04-5.04214E-15
 -1        32 2.84705E-03-7.11382E-04-6.31797E-15
 -1        33 3.12307E-03-7.15252E-04-7.72467E-15
 -1        34 3.40096E-03-7.16844E-04-9.25413E-15
 -1        35 3.68044E-03-7.16754E-04-1.09105E-14
 -1        36 3.96129E-03-7.15391E-04-1.26876E-14
 -1        37 4.24333E-03-7.13022E-04-1.45778E-14
 -1        38 4.52644E-03-7.09803E-04-1.65788E-14
 -1        39 4.81059E-03-7.05813E-04-1.86883E-14
 -1        40 5.09582E-03-7.01084E-04-2.09058E-14
 -1        41 5.38229E-03-6.95626E-04-2.32238E-14
 -1        42 5.67029E-03-6.89470E-04-2.56410E-14
 -1        43 5.96023E-03-6.82699E-04-2.81617E-14
 -1        44 6.25267E-03-6.75508E-04-3.07870E-14
 -1        45 6.54836E-03-6.68266E-04-3.35104E-14
 -1        46 6.84820E-03-6.61598E-04-3.63324E-14
 -1        47 7.15323E-03-6.56489E-04-3.92429E-14
 -1        48 7.46457E-03-6.54396E-04-4.22389E-14
 -1        49 7.78326E-03-6.57357E-04-4.53130E-14
 -1        50 8.11006E-03-6.68058E-04-4.84668E-14
 -1        51 8.44499E-03-6.89771E-04-5.16963E-14
 -1        52 8.78680E-03-7.26024E-04-5.49954E-14
 -1        53 9.13235E-03-7.79818E-04-5.83616E-14
 -1        54 9.47612E-03-8.52207E-04-6.17960E-14
 -1        55 9.81043E-03-9.40326E-04-6.53010E-14
 -1        56 1.01270E-02-1.03547E-03-6.88825E-14
 -1        57 1.04199E-02-1.12269E-03-7.25243E-14
 -1        58 1.06896E-02-1.18349E-03-7.62211E-14
 -1        59 1.09442E-02-1.20197E-03-7.99765E-14
 -1        60 1.11979E-02-1.17167E-03-8.37747E-14
 -1        61 1.14647E-02-1.09863E-03-8.76204E-14
 -1        62 1.17528E-02-9.98322E-04-9.15238E-14
 -1        63 1.20625E-02-8.88871E-04-9.54866E-14
 -1        64 1.23876E-02-7.84778E-04-9.94927E-14
 -1        65 1.27196E-02-6.94090E-04-1.03541E-13
 -1        66 1.30503E-02-6.18718E-04-1.07635E-13
 -1        67 1.33739E-02-5.56293E-04-1.11774E-13
 -1        68 1.36872E-02-5.02151E-04-1.15956E-13
 -1        69 1.39896E-02-4.50843E-04-1.20166E-13
 -1        70 1.42823E-02-3.97251E-04-1.24389E-13
 -1        71 1.45690E-02-3.37965E-04-1.28633E-13
 -1        72 4.13822E-04 2.61465E-04 5.72967E-17
 -1        73 7.03161E-04 4.03740E-04-3.71610E-17
 -1        74 9.73905E-04 5.00206E-04-2.80246E-16
 -1        75 1.23864E-03 5.68899E-04-6.72317E-16
 -1        76 1.50223E-03 6.18195E-04-1.21197E-15
 -1        77 1.76688E-03 6.53405E-04-1.89726E-15
 -1        78 2.03356E-03 6.78207E-04-2.72541E-15
 -1        79 2.30266E-03 6.95279E-04-3.69277E-15
 -1        80 2.57424E-03 7.06617E-04-4.79829E-15
 -1        81 2.84815E-03 7.13725E-04-6.04256E-15
 -1        82 3.12418E-03 7.17727E-04-7.42167E-15
 -1        83 3.40207E-03 7.19452E-04-8.92899E-15
 -1        84 3.68155E-03 7.19492E-04-1.05639E-14
 -1        85 3.96239E-03 7.18256E-04-1.23247E-14
 -1        86 4.24442E-03 7.16008E-04-1.42094E-14
 -1        87 4.52752E-03 7.12901E-04-1.62162E-14
 -1        88 4.81164E-03 7.09007E-04-1.83345E-14
 -1        89 5.09685E-03 7.04348E-04-2.05551E-14
 -1        90 5.38330E-03 6.98921E-04-2.28809E-14
 -1        91 5.67129E-03 6.92737E-04-2.53098E-14
 -1        92 5.96126E-03 6.85854E-04-2.78402E-14
 -1        93 6.25382E-03 6.78434E-04-3.04626E-14
 -1        94 6.54978E-03 6.70808E-04-3.31866E-14
 -1        95 6.85016E-03 6.63570E-04-3.60049E-14
 -1        96 7.15623E-03 6.57691E-04-3.89128E-14
 -1        97 7.46940E-03 6.54672E-04-4.18955E-14
 -1        98 7.79120E-03 6.56715E-04-4.49540E-14
 -1        99 8.12300E-03 6.66890E-04-4.80882E-14
 -1       100 8.46560E-03 6.89208E-04-5.12955E-14
 -1       101 8.81856E-03 7.28452E-04-5.45752E-14
 -1       102 9.17922E-03 7.89445E-04-5.79010E-14
 -1       103 9.54176E-03 8.75421E-04-6.12763E-14
 -1       104 9.89680E-03 9.85250E-04-6.47056E-14
 -1       105 1.02328E-02 1.11010E-03-6.82025E-14
 -1       106 1.05402E-02 1.23154E-03-7.17650E-14
 -1       107 1.08172E-02 1.32435E-03-7.53985E-14
 -1       108 1.10737E-02 1.36547E-03-7.91169E-14
 -1       109 1.13290E-02 1.34520E-03-8.28930E-14
 -1       110 1.16024E-02 1.27250E-03-8.67265E-14
 -1       111 1.19042E-02 1.16981E-03-9.06144E-14
 -1       112 1.22326E-02 1.06198E-03-9.45528E-14
 -1       113 1.25779E-02 9.67123E-04-9.85239E-14
 -1       114 1.29280E-02 8.93574E-04-1.02530E-13
 -1       115 1.32733E-02 8.41588E-04-1.06568E-13
 -1       116 1.36073E-02 8.06616E-04-1.10626E-13
 -1       117 1.39275E-02 7.82074E-04-1.14712E-13
 -1       118 1.42337E-02 7.61080E-04-1.18817E-13
 -1       119 1.45281E-02 7.37519E-04-1.22934E-13
 -1       120 1.48150E-02 7.07260E-04-1.27046E-13
 -1       121 1.51231E-02 5.87955E-04-1.31035E-13
 -1       122 1.51663E-02 5.05002E-04-1.31153E-13
 -1       123 1.52158E-02 4.29339E-04-1.31250E-13
 -1       124 1.52674E-02 3.64743E-04-1.31334E-13
 -1       125 1.53152E-02 3.12763E-04-1.31418E-13
 -1       126 1.53525E-02 2.73483E-04-1.31528E-13
 -1       127 1.53754E-02 2.43239E-04-1.31651E-13
 -1       128 1.53790E-02 2.18992E-04-1.31767E-13
 -1       129 1.53617E-02 1.96033E-04-1.31893E-13
 -1       130 1.53240E-02 1.69542E-04-1.32006E-13
 -1       131 1.52689E-02 1.35380E-04-1.32142E-13
 -1       132 1.52020E-02 9.15357E-05-1.32283E-13
 -1       133 1.51263E-02 3.52241E-05-1.32407E-13
 -1       134 1.50484E-02-3.25802E-05-1.32510E-13
 -1       135 1.49731E-02-1.10073E-04-1.32582E-13
 -1       136 1.49034E-02-1.93227E-04-1.32631E-13
 -1       137 1.31949E-02 2.86118E-04-8.85267E-14
 -1       138 1.30477E-02 4.61398E-04-8.78925E-14
 -1       139 1.28256E-02 6.10830E-04-8.69566E-14
 -1       140 1.25247E-02 7.42473E-04-8.57086E-14
 -1       141 1.21129E-02 8.60429E-04-8.40202E-14
 -1       142 1.16590E-02 9.34382E-04-8.21943E-14
 -1       143 1.11991E-02 9.64279E-04-8.03658E-14
 -1       144 1.07236E-02 9.51474E-04-7.84971E-14
 -1       145 1.02211E-02 8.87916E-04-7.65293E-14
 -1       146 9.80788E-03 7.93101E-04-7.49428E-14
 -1       147 9.43657E-03 6.62411E-04-7.35216E-14
 -1       148 9.14941E-03 5.12204E-04-7.24221E-14
 -1       149 8.95299E-03 3.52128E-04-7.16677E-14
 -1       150 8.84360E-03 1.83222E-04-7.12549E-14
 -1       151 8.82812E-03 5.03377E-06-7.12063E-14
 -1       152 8.91014E-03-1.65536E-04-7.15419E-14
 -1       153 9.09139E-03-3.29588E-04-7.22754E-14
 -1       154 9.35937E-03-4.77190E-04-7.33462E-14
 -1       155 9.75004E-03-6.13615E-04-7.48978E-14
 -1       156 1.01724E-02-7.03886E-04-7.65707E-14
 -1       157 1.06666E-02-7.58050E-04-7.85467E-14
 -1       158 1.16020E-02-7.30115E-04-8.22480E-14
 -1       159 1.20686E-02-6.49777E-04-8.40987E-14
 -1       160 1.24556E-02-5.40561E-04-8.56358E-14
 -1       161 1.27848E-02-4.00613E-04-8.69494E-14
 -1       162 1.30303E-02-2.40894E-04-8.79343E-14
 -1       163 1.31828E-02-6.94173E-05-8.85366E-14
 -1       164 2.40391E-04-1.25543E-04-2.77420E-17
 -1       165 2.25257E-04-9.46480E-05-5.05137E-17
 -1       166 2.19521E-04-7.28154E-05-6.30023E-17
 -1       167 2.16715E-04-5.51363E-05-6.98429E-17
 -1       168 2.15228E-04-3.99928E-05-7.34818E-17
 -1       169 2.14398E-04-2.59340E-05-7.53453E-17
 -1       170 2.13983E-04-1.26539E-05-7.59280E-17
 -1       171 2.13862E-04 2.72897E-07-7.59280E-17
 -1       172 2.14002E-04 1.32120E-05-7.51013E-17
 -1       173 2.14440E-04 2.65319E-05-7.34140E-17
 -1       174 2.15278E-04 4.04191E-05-7.06121E-17
 -1       175 2.16820E-04 5.59446E-05-6.56281E-17
 -1       176 2.19669E-04 7.38495E-05-5.74830E-17
 -1       177 2.25434E-04 9.60499E-05-4.35815E-17
 -1       178 2.39321E-04 1.27624E-04-1.94174E-17
 -1       179 2.97694E-04 1.85527E-04 5.89535E-18
 -1       180 4.68599E-04-2.63597E-04-7.59382E-17
 -1       181 7.66714E-04-3.82219E-04-2.99155E-16
 -1       182 1.05053E-03-4.65116E-04-6.67174E-16
 -1       183 1.32787E-03-5.23891E-04-1.17980E-15
 -1       184 1.60241E-03-5.65560E-04-1.83572E-15
 -1       185 1.87623E-03-5.94803E-04-2.63386E-15
 -1       186 2.15045E-03-6.14912E-04-3.57197E-15
 -1       187 2.42567E-03-6.28296E-04-4.64737E-15
 -1       188 2.70216E-03-6.36747E-04-5.85834E-15
 -1       189 2.97998E-03-6.41601E-04-7.20113E-15
 -1       190 3.25911E-03-6.43840E-04-8.66954E-15
 -1       191 3.53944E-03-6.44174E-04-1.02610E-14
 -1       192 3.82088E-03-6.43094E-04-1.19757E-14
 -1       193 4.10332E-03-6.40927E-04-1.38073E-14
 -1       194 4.38668E-03-6.37865E-04-1.57524E-14
 -1       195 4.67096E-03-6.34005E-04-1.78063E-14
 -1       196 4.95619E-03-6.29380E-04-1.99669E-14
 -1       197 5.24246E-03-6.23982E-04-2.22296E-14
 -1       198 5.52998E-03-6.17801E-04-2.45951E-14
 -1       199 5.81903E-03-6.10855E-04-2.70600E-14
 -1       200 6.10999E-03-6.03245E-04-2.96286E-14
 -1       201 6.40337E-03-5.95205E-04-3.22969E-14
 -1       202 6.69977E-03-5.87185E-04-3.50652E-14
 -1       203 6.99989E-03-5.79946E-04-3.79253E-14
 -1       204 7.30451E-03-5.74676E-04-4.08705E-14
 -1       205 7.61437E-03-5.73122E-04-4.38983E-14
 -1       206 7.93007E-03-5.77706E-04-4.70037E-14
 -1       207 8.25189E-03-5.91568E-04-5.01876E-14
 -1       208 8.57950E-03-6.18428E-04-5.34426E-14
 -1       209 8.91164E-03-6.62079E-04-5.67671E-14
 -1       210 9.24577E-03-7.25285E-04-6.01609E-14
 -1       211 9.57803E-03-8.07930E-04-6.36208E-14
 -1       212 9.90356E-03-9.04672E-04-6.71512E-14
 -1       213 1.02178E-02-1.00316E-03-7.07504E-14
 -1       214 1.05185E-02-1.08476E-03-7.44100E-14
 -1       215 1.08078E-02-1.12943E-03-7.81310E-14
 -1       216 1.10921E-02-1.12377E-03-8.19026E-14
 -1       217 1.13799E-02-1.06757E-03-8.57224E-14
 -1       218 1.16776E-02-9.73798E-04-8.95922E-14
 -1       219 1.19872E-02-8.62130E-04-9.35228E-14
 -1       220 1.23064E-02-7.50838E-04-9.75021E-14
 -1       221 1.26305E-02-6.51755E-04-1.01524E-13
 -1       222 1.29544E-02-5.69432E-04-1.05587E-13
 -1       223 1.32740E-02-5.02830E-04-1.09699E-13
 -1       224 1.35869E-02-4.47640E-04-1.13851E-13
 -1       225 1.38921E-02-3.98156E-04-1.18035E-13
 -1       226 1.41897E-02-3.48554E-04-1.22243E-13
 -1       227 1.44810E-02-2.93942E-04-1.26478E-13
 -1       228 6.04527E-04 3.31093E-04-1.09803E-16
 -1       229 8.93588E-04 4.32731E-04-3.64468E-16
 -1       230 1.17243E-03 5.04487E-04-7.62594E-16
 -1       231 1.44672E-03 5.55566E-04-1.30468E-15
 -1       232 1.71947E-03 5.91782E-04-1.98986E-15
 -1       233 1.99228E-03 6.17105E-04-2.81592E-15
 -1       234 2.26601E-03 6.34397E-04-3.78129E-15
 -1       235 2.54106E-03 6.45772E-04-4.88270E-15
 -1       236 2.81756E-03 6.52811E-04-6.11813E-15
 -1       237 3.09552E-03 6.56689E-04-7.48706E-15
 -1       238 3.37483E-03 6.58265E-04-8.98416E-15
 -1       239 3.65538E-03 6.58153E-04-1.06083E-14
 -1       240 3.93704E-03 6.56770E-04-1.23581E-14
 -1       241 4.21970E-03 6.54382E-04-1.42293E-14
 -1       242 4.50332E-03 6.51138E-04-1.62195E-14
 -1       243 4.78788E-03 6.47100E-04-1.83220E-14
 -1       244 5.07345E-03 6.42275E-04-2.05305E-14
 -1       245 5.36017E-03 6.36639E-04-2.28427E-14
 -1       246 5.64830E-03 6.30172E-04-2.52560E-14
 -1       247 5.93820E-03 6.22896E-04-2.77725E-14
 -1       248 6.23036E-03 6.14926E-04-3.03852E-14
 -1       249 6.52540E-03 6.06535E-04-3.30961E-14
 -1       250 6.82413E-03 5.98245E-04-3.58990E-14
 -1       251 7.12746E-03 5.90947E-04-3.87907E-14
 -1       252 7.43645E-03 5.86058E-04-4.17623E-14
 -1       253 7.75215E-03 5.85705E-04-4.48115E-14
 -1       254 8.07552E-03 5.92921E-04-4.79340E-14
 -1       255 8.40710E-03 6.11774E-04-5.11284E-14
 -1       256 8.74664E-03 6.47277E-04-5.43934E-14
 -1       257 9.09257E-03 7.04774E-04-5.77121E-14
 -1       258 9.44147E-03 7.88398E-04-6.10817E-14
 -1       259 9.78780E-03 8.98236E-04-6.45094E-14
 -1       260 1.01247E-02 1.02657E-03-6.79998E-14
 -1       261 1.04459E-02 1.15514E-03-7.15591E-14
 -1       262 1.07494E-02 1.25707E-03-7.51855E-14
 -1       263 1.10402E-02 1.30614E-03-7.88855E-14
 -1       264 1.13289E-02 1.28980E-03-8.26516E-14
 -1       265 1.16270E-02 1.21633E-03-8.64726E-14
 -1       266 1.19406E-02 1.10981E-03-9.03530E-14
 -1       267 1.22690E-02 9.97475E-04-9.42839E-14
 -1       268 1.26063E-02 8.99162E-04-9.82544E-14
 -1       269 1.29454E-02 8.23899E-04-1.02256E-13
 -1       270 1.32800E-02 7.71895E-04-1.06285E-13
 -1       271 1.36063E-02 7.38217E-04-1.10335E-13
 -1       272 1.39224E-02 7.15821E-04-1.14411E-13
 -1       273 1.42281E-02 6.97388E-04-1.18509E-13
 -1       274 1.45248E-02 6.76344E-04-1.22623E-13
 -1       275 1.48148E-02 6.47931E-04-1.26733E-13
 -1       276 1.48967E-02 5.79715E-04-1.27529E-13
 -1       277 1.49453E-02 5.02082E-04-1.27627E-13
 -1       278 1.49991E-02 4.31599E-04-1.27718E-13
 -1       279 1.50525E-02 3.69574E-04-1.27813E-13
 -1       280 1.50982E-02 3.17067E-04-1.27907E-13
 -1       281 1.51316E-02 2.71265E-04-1.28013E-13
 -1       282 1.51466E-02 2.31002E-04-1.28123E-13
 -1       283 1.51401E-02 1.93282E-04-1.28238E-13
 -1       284 1.51115E-02 1.54743E-04-1.28352E-13
 -1       285 1.50629E-02 1.12221E-04-1.28470E-13
 -1       286 1.49993E-02 6.41374E-05-1.28590E-13
 -1       287 1.49241E-02 7.39449E-06-1.28699E-13
 -1       288 1.48440E-02-5.76147E-05-1.28794E-13
 -1       289 1.47645E-02-1.30231E-04-1.28868E-13
 -1       290 1.46209E-02-2.10811E-04-1.27678E-13
 -1       291 1.32528E-02 1.60388E-04-9.03102E-14
 -1       292 1.31171E-02 2.61572E-04-8.99056E-14
 -1       293 1.28667E-02 3.97256E-04-8.88597E-14
 -1       294 1.25461E-02 5.53240E-04-8.75539E-14
 -1       295 1.21403E-02 7.28200E-04-8.59855E-14
 -1       296 1.17507E-02 9.08322E-04-8.36710E-14
 -1       297 1.13557E-02 1.01775E-03-8.15422E-14
 -1       298 1.09805E-02 1.04123E-03-7.93545E-14
 -1       299 1.05900E-02 9.72863E-04-7.70395E-14
 -1       300 1.01680E-02 8.20055E-04-7.50535E-14
 -1       301 9.77276E-03 6.39661E-04-7.33026E-14
 -1       302 9.39865E-03 4.56239E-04-7.18399E-14
 -1       303 9.09409E-03 3.02015E-04-7.07715E-14
 -1       304 8.88611E-03 1.77471E-04-7.00085E-14
 -1       305 8.79449E-03 7.97094E-05-6.96497E-14
 -1       306 8.84530E-03-1.30277E-05-6.99191E-14
 -1       307 9.03103E-03-1.14553E-04-7.03635E-14
 -1       308 9.31517E-03-2.74596E-04-7.16697E-14
 -1       309 9.69290E-03-4.54987E-04-7.31871E-14
 -1       310 1.01087E-02-6.36798E-04-7.50627E-14
 -1       311 1.05327E-02-7.82106E-04-7.71107E-14
 -1       312 1.09196E-02-8.43392E-04-7.94353E-14
 -1       313 1.12979E-02-8.12793E-04-8.16144E-14
 -1       314 1.16854E-02-7.01890E-04-8.38726E-14
 -1       315 1.20964E-02-5.30995E-04-8.58550E-14
 -1       316 1.24905E-02-3.52611E-04-8.74746E-14
 -1       317 1.28339E-02-1.77033E-04-8.89212E-14
 -1       318 1.30991E-02-4.02163E-05-8.98552E-14
 -1       319 1.32461E-02 6.66264E-05-9.03246E-14
 -1       320 4.55278E-04-1.64800E-04-2.14113E-16
 -1       321 4.74232E-04-2.13035E-04-1.76515E-16
 -1       322 4.40460E-04-9.40646E-05-2.50390E-16
 -1       323 4.37510E-04-6.49501E-05-2.58067E-16
 -1       324 4.35899E-04-3.79303E-05-2.61943E-16
 -1       325 4.35194E-04-1.20256E-05-2.63153E-16
 -1       326 4.35225E-04 1.35449E-05-2.61950E-16
 -1       327 4.35997E-04 3.95071E-05-2.58179E-16
 -1       328 4.37653E-04 6.61780E-05-2.51430E-16
 -1       329 4.40696E-04 9.54645E-05-2.40608E-16
 -1       330 4.46067E-04 1.28384E-04-2.23878E-16
 -1       331 4.55884E-04 1.67365E-04-1.97511E-16
 -1       332 4.75863E-04 2.17104E-04-1.56494E-16
 -1       333 5.31981E-04 2.70030E-04-1.40862E-16
 -1       334 8.24434E-04 3.73587E-04-4.00891E-16
 -1       335 8.63215E-04-3.57494E-04-5.58520E-16
 -1       336 1.14954E-03-4.26254E-04-1.01948E-15
 -1       337 1.43229E-03-4.75416E-04-1.62013E-15
 -1       338 1.71296E-03-5.10116E-04-2.36014E-15
 -1       339 1.99269E-03-5.34143E-04-3.23778E-15
 -1       340 2.27224E-03-5.50307E-04-4.25163E-15
 -1       341 2.55207E-03-5.60704E-04-5.39933E-15
 -1       342 2.83246E-03-5.66903E-04-6.67949E-15
 -1       343 3.11352E-03-5.70062E-04-8.08688E-15
 -1       344 3.39530E-03-5.71025E-04-9.61713E-15
 -1       345 3.67780E-03-5.70385E-04-1.12695E-14
 -1       346 3.96099E-03-5.68540E-04-1.30408E-14
 -1       347 4.24484E-03-5.65739E-04-1.49285E-14
 -1       348 4.52937E-03-5.62112E-04-1.69279E-14
 -1       349 4.81459E-03-5.57709E-04-1.90337E-14
 -1       350 5.10057E-03-5.52522E-04-2.12434E-14
 -1       351 5.38742E-03-5.46521E-04-2.35535E-14
 -1       352 5.67532E-03-5.39685E-04-2.59659E-14
 -1       353 5.96451E-03-5.32043E-04-2.84793E-14
 -1       354 6.25531E-03-5.23724E-04-3.10925E-14
 -1       355 6.54809E-03-5.15025E-04-3.38060E-14
 -1       356 6.84332E-03-5.06499E-04-3.66175E-14
 -1       357 7.14154E-03-4.99058E-04-3.95131E-14
 -1       358 7.44334E-03-4.94102E-04-4.24924E-14
 -1       359 7.74935E-03-4.93653E-04-4.55530E-14
 -1       360 8.06017E-03-5.00466E-04-4.86912E-14
 -1       361 8.37632E-03-5.18039E-04-5.19042E-14
 -1       362 8.69806E-03-5.50399E-04-5.51848E-14
 -1       363 9.02513E-03-6.01456E-04-5.85345E-14
 -1       364 9.35628E-03-6.73641E-04-6.19529E-14
 -1       365 9.68883E-03-7.65648E-04-6.54372E-14
 -1       366 1.00185E-02-8.69609E-04-6.89879E-14
 -1       367 1.03406E-02-9.69178E-04-7.26058E-14
 -1       368 1.06527E-02-1.04146E-03-7.62882E-14
 -1       369 1.09572E-02-1.06491E-03-8.00301E-14
 -1       370 1.12612E-02-1.03043E-03-8.38268E-14
 -1       371 1.15716E-02-9.46656E-04-8.76692E-14
 -1       372 1.18910E-02-8.34726E-04-9.15630E-14
 -1       373 1.22169E-02-7.17249E-04-9.55132E-14
 -1       374 1.25445E-02-6.10197E-04-9.95144E-14
 -1       375 1.28694E-02-5.20829E-04-1.03552E-13
 -1       376 1.31888E-02-4.49488E-04-1.07630E-13
 -1       377 1.35014E-02-3.92395E-04-1.11753E-13
 -1       378 1.38068E-02-3.43894E-04-1.15914E-13
 -1       379 1.41056E-02-2.97890E-04-1.20102E-13
 -1       380 1.43651E-02-2.57383E-04-1.23881E-13
 -1       381 1.10988E-03 4.47918E-04-7.99850E-16
 -1       382 1.39059E-03 5.00974E-04-1.33993E-15
 -1       383 1.66885E-03 5.38556E-04-2.02080E-15
 -1       384 1.94619E-03 5.64776E-04-2.84097E-15
 -1       385 2.22355E-03 5.82631E-04-3.79910E-15
 -1       386 2.50146E-03 5.94339E-04-4.89176E-15
 -1       387 2.78021E-03 6.01558E-04-6.11686E-15
 -1       388 3.05990E-03 6.05515E-04-7.47365E-15
 -1       389 3.34054E-03 6.07111E-04-8.95847E-15
 -1       390 3.62212E-03 6.06983E-04-1.05682E-14
 -1       391 3.90455E-03 6.05567E-04-1.23047E-14
 -1       392 4.18781E-03 6.03139E-04-1.41613E-14
 -1       393 4.47185E-03 5.99852E-04-1.61352E-14
 -1       394 4.75670E-03 5.95766E-04-1.82217E-14
 -1       395 5.04241E-03 5.90882E-04-2.04151E-14
 -1       396 5.32911E-03 5.85163E-04-2.27131E-14
 -1       397 5.61700E-03 5.78572E-04-2.51111E-14
 -1       398 5.90635E-03 5.71105E-04-2.76136E-14
 -1       399 6.19755E-03 5.62841E-04-3.02146E-14
 -1       400 6.49109E-03 5.54004E-04-3.29112E-14
 -1       401 6.78756E-03 5.45056E-04-3.56983E-14
 -1       402 7.08766E-03 5.36805E-04-3.85755E-14
 -1       403 7.39219E-03 5.30566E-04-4.15352E-14
 -1       404 7.70200E-03 5.28342E-04-4.45717E-14
 -1       405 8.01794E-03 5.33030E-04-4.76829E-14
 -1       406 8.34069E-03 5.48588E-04-5.08655E-14
 -1       407 8.67061E-03 5.80015E-04-5.41181E-14
 -1       408 9.00739E-03 6.32905E-04-5.74272E-14
 -1       409 9.34963E-03 7.12140E-04-6.07908E-14
 -1       410 9.69420E-03 8.19272E-04-6.42135E-14
 -1       411 1.00361E-02 9.48566E-04-6.76952E-14
 -1       412 1.03693E-02 1.08319E-03-7.12460E-14
 -1       413 1.06897E-02 1.19536E-03-7.48618E-14
 -1       414 1.09990E-02 1.25486E-03-7.85497E-14
 -1       415 1.13055E-02 1.24473E-03-8.23046E-14
 -1       416 1.16189E-02 1.17182E-03-8.61166E-14
 -1       417 1.19438E-02 1.06219E-03-8.99900E-14
 -1       418 1.22782E-02 9.45963E-04-9.39148E-14
 -1       419 1.26164E-02 8.44700E-04-9.78797E-14
 -1       420 1.29526E-02 7.67899E-04-1.01878E-13
 -1       421 1.32826E-02 7.15631E-04-1.05899E-13
 -1       422 1.36043E-02 6.82687E-04-1.09940E-13
 -1       423 1.39170E-02 6.61786E-04-1.14011E-13
 -1       424 1.42211E-02 6.45423E-04-1.18104E-13
 -1       425 1.45174E-02 6.26817E-04-1.22211E-13
 -1       426 1.47082E-02 6.05211E-04-1.24869E-13
 -1       427 1.47839E-02 4.19079E-04-1.24196E-13
 -1       428 1.47263E-02 4.88715E-04-1.24103E-13
 -1       429 1.47148E-02 5.45441E-04-1.24487E-13
 -1       430 1.48370E-02 3.57464E-04-1.24290E-13
 -1       431 1.48805E-02 3.01413E-04-1.24389E-13
 -1       432 1.49073E-02 2.50813E-04-1.24485E-13
 -1       433 1.49127E-02 2.03535E-04-1.24588E-13
 -1       434 1.48947E-02 1.56865E-04-1.24699E-13
 -1       435 1.48541E-02 1.08019E-04-1.24810E-13
 -1       436 1.47955E-02 5.56243E-05-1.24914E-13
 -1       437 1.47221E-02-3.59196E-06-1.25015E-13
 -1       438 1.46408E-02-6.93489E-05-1.25100E-13
 -1       439 1.45577E-02-1.41450E-04-1.25173E-13
 -1       440 1.29832E-02 2.75666E-04-9.08748E-14
 -1       441 1.32878E-02 1.17682E-04-9.23437E-14
 -1       442 1.32199E-02 1.72434E-04-9.22040E-14
 -1       443 1.26700E-02 4.08042E-04-8.98025E-14
 -1       444 1.23319E-02 5.74847E-04-8.82201E-14
 -1       445 4.45679E-04-1.26544E-04-2.36790E-16
 -1       446 1.15124E-02 9.85703E-04-8.32833E-14
 -1       447 1.11567E-02 1.07407E-03-8.05487E-14
 -1       448 1.08364E-02 1.05425E-03-7.80459E-14
 -1       449 1.04117E-02 8.87957E-04-7.50295E-14
 -1       450 1.00912E-02 7.18740E-04-7.32857E-14
 -1       451 9.64811E-03 4.83967E-04-7.13189E-14
 -1       452 9.27514E-03 3.05166E-04-6.99312E-14
 -1       453 8.99278E-03 1.77879E-04-6.87332E-14
 -1       454 8.81336E-03 1.01443E-04-6.82666E-14
 -1       455 8.78868E-03 4.34996E-05-6.83098E-14
 -1       456 8.90914E-03-1.75332E-05-6.86813E-14
 -1       457 9.21831E-03-1.42619E-04-6.96721E-14
 -1       458 9.55568E-03-3.05518E-04-7.12412E-14
 -1       459 9.96659E-03-5.17936E-04-7.32498E-14
 -1       460 1.03483E-02-7.04788E-04-7.52405E-14
 -1       461 1.07692E-02-8.57649E-04-7.81666E-14
 -1       462 1.11018E-02-8.70116E-04-8.07431E-14
 -1       463 1.14176E-02-7.91374E-04-8.31257E-14
 -1       464 1.18280E-02-5.98050E-04-8.59198E-14
 -1       465 1.22337E-02-3.80438E-04-8.81579E-14
 -1       466 1.26065E-02-1.98176E-04-8.96950E-14
 -1       467 1.29617E-02-4.44299E-05-9.09453E-14
 -1       468 1.31968E-02 5.54272E-05-9.18633E-14
 -1       469 1.18405E-02 8.31297E-04-8.55918E-14
 -1       470 1.20751E-02 7.02842E-04-8.78247E-14
 -1       471 9.04116E-03-5.86856E-05-6.79838E-14
 -1       472 9.31198E-04 3.46125E-04-6.74828E-16
 -1       473 6.65899E-04-7.51784E-05-5.52780E-16
 -1       474 6.69838E-04-1.15954E-04-5.42010E-16
 -1       475 6.63249E-04 1.10511E-06-5.57869E-16
 -1       476 6.63964E-04 3.87909E-05-5.53045E-16
 -1       477 6.66089E-04 7.68661E-05-5.43124E-16
 -1       478 6.70158E-04 1.17796E-04-5.26973E-16
 -1       479 6.77136E-04 1.62427E-04-5.02738E-16
 -1       480 6.89016E-04 2.12798E-04-4.66400E-16
 -1       481 1.21706E-03 4.06617E-04-1.16568E-15
 -1       482 9.76260E-04-3.28733E-04-8.48378E-16
 -1       483 1.31205E-02 2.09972E-04-9.32325E-14
 -1       484 1.26215E-03-3.83607E-04-1.39654E-15
 -1       485 1.54715E-03-4.23335E-04-2.08103E-15
 -1       486 1.83126E-03-4.51341E-04-2.90166E-15
 -1       487 2.11478E-03-4.70516E-04-3.85554E-15
 -1       488 2.39803E-03-4.83134E-04-4.94232E-15
 -1       489 2.68127E-03-4.90942E-04-6.16073E-15
 -1       490 2.96465E-03-4.95259E-04-7.50660E-15
 -1       491 3.24828E-03-4.97056E-04-8.97681E-15
 -1       492 3.53222E-03-4.97031E-04-1.05689E-14
 -1       493 3.81649E-03-4.95664E-04-1.22804E-14
 -1       494 4.10111E-03-4.93266E-04-1.41089E-14
 -1       495 4.38608E-03-4.90012E-04-1.60508E-14
 -1       496 4.67143E-03-4.85982E-04-1.81023E-14
 -1       497 4.95720E-03-4.81185E-04-2.02596E-14
 -1       498 5.24345E-03-4.75588E-04-2.25179E-14
 -1       499 5.53026E-03-4.69150E-04-2.48767E-14
 -1       500 5.81775E-03-4.61852E-04-2.73372E-14
 -1       501 6.10608E-03-4.53742E-04-2.98979E-14
 -1       502 6.39546E-03-4.44991E-04-3.25583E-14
 -1       503 6.68615E-03-4.35957E-04-3.53173E-14
 -1       504 6.97850E-03-4.27283E-04-3.81651E-14
 -1       505 7.27295E-03-4.19994E-04-4.10974E-14
 -1       506 7.57009E-03-4.15633E-04-4.41116E-14
 -1       507 7.87069E-03-4.16382E-04-4.72060E-14
 -1       508 8.17580E-03-4.25176E-04-5.03744E-14
 -1       509 8.48675E-03-4.45726E-04-5.36138E-14
 -1       510 8.80505E-03-4.82352E-04-5.69208E-14
 -1       511 9.13192E-03-5.39366E-04-6.02962E-14
 -1       512 9.46736E-03-6.19596E-04-6.37368E-14
 -1       513 9.80872E-03-7.21473E-04-6.72434E-14
 -1       514 1.01499E-02-8.34652E-04-7.08129E-14
 -1       515 1.04837E-02-9.36773E-04-7.44542E-14
 -1       516 1.08066E-02-9.97119E-04-7.81599E-14
 -1       517 1.11241E-02-9.91754E-04-8.19254E-14
 -1       518 1.14463E-02-9.20420E-04-8.57438E-14
 -1       519 1.17787E-02-8.06481E-04-8.96099E-14
 -1       520 1.21182E-02-6.80415E-04-9.35294E-14
 -1       521 1.24573E-02-5.64429E-04-9.75035E-14
 -1       522 1.27899E-02-4.68453E-04-1.01519E-13
 -1       523 1.31131E-02-3.93312E-04-1.05572E-13
 -1       524 1.34268E-02-3.35056E-04-1.09665E-13
 -1       525 1.37321E-02-2.87873E-04-1.13801E-13
 -1       526 1.40305E-02-2.45570E-04-1.17965E-13
 -1       527 1.78385E-03 4.81116E-04-2.56047E-15
 -1       528 2.06581E-03 5.02382E-04-3.46299E-15
 -1       529 2.34753E-03 5.16556E-04-4.49879E-15
 -1       530 2.62933E-03 5.25531E-04-5.66512E-15
 -1       531 2.91145E-03 5.30725E-04-6.96171E-15
 -1       532 3.19400E-03 5.33187E-04-8.38752E-15
 -1       533 3.47703E-03 5.33675E-04-9.93784E-15
 -1       534 3.76055E-03 5.32714E-04-1.16120E-14
 -1       535 4.04457E-03 5.30649E-04-1.34090E-14
 -1       536 4.32909E-03 5.27681E-04-1.53226E-14
 -1       537 4.61413E-03 5.23906E-04-1.73501E-14
 -1       538 4.89972E-03 5.19341E-04-1.94860E-14
 -1       539 5.18594E-03 5.13954E-04-2.17277E-14
 -1       540 5.47289E-03 5.07690E-04-2.40726E-14
 -1       541 5.76072E-03 5.00506E-04-2.65222E-14
 -1       542 6.04963E-03 4.92414E-04-2.90710E-14
 -1       543 6.33990E-03 4.83527E-04-3.17159E-14
 -1       544 6.63184E-03 4.74139E-04-3.44539E-14
 -1       545 6.92587E-03 4.64811E-04-3.72817E-14
 -1       546 7.22247E-03 4.56503E-04-4.01956E-14
 -1       547 7.52224E-03 4.50728E-04-4.31883E-14
 -1       548 7.82594E-03 4.49742E-04-4.62572E-14
 -1       549 8.13452E-03 4.56744E-04-4.94000E-14
 -1       550 8.44921E-03 4.76026E-04-5.26136E-14
 -1       551 8.77149E-03 5.12948E-04-5.58914E-14
 -1       552 9.10286E-03 5.73477E-04-5.92246E-14
 -1       553 9.44405E-03 6.62800E-04-6.26170E-14
 -1       554 9.79347E-03 7.82203E-04-6.60674E-14
 -1       555 1.01456E-02 9.23640E-04-6.95786E-14
 -1       556 1.04918E-02 1.06408E-03-7.31583E-14
 -1       557 1.08259E-02 1.16605E-03-7.68094E-14
 -1       558 1.11516E-02 1.19439E-03-8.05272E-14
 -1       559 1.14803E-02 1.14117E-03-8.43082E-14
 -1       560 1.18201E-02 1.03213E-03-8.81519E-14
 -1       561 1.21684E-02 9.06240E-04-9.20482E-14
 -1       562 1.25168E-02 7.93358E-04-9.59942E-14
 -1       563 1.28578E-02 7.06901E-04-9.99738E-14
 -1       564 1.31883E-02 6.48066E-04-1.03982E-13
 -1       565 1.35081E-02 6.11724E-04-1.08009E-13
 -1       566 1.38184E-02 5.90513E-04-1.12059E-13
 -1       567 1.41208E-02 5.76784E-04-1.16140E-13
 -1       568 1.44164E-02 5.63469E-04-1.20241E-13
 -1       569 1.46233E-02 3.31686E-04-1.20773E-13
 -1       570 1.46628E-02 2.73632E-04-1.20866E-13
 -1       571 1.45092E-02 4.65016E-04-1.20589E-13
 -1       572 1.45698E-02 3.95162E-04-1.20680E-13
 -1       573 1.46816E-02 2.20022E-04-1.20960E-13
 -1       574 1.46757E-02 1.68339E-04-1.21058E-13
 -1       575 1.46444E-02 1.15627E-04-1.21160E-13
 -1       576 1.45916E-02 6.02176E-05-1.21253E-13
 -1       577 1.45205E-02-1.53272E-06-1.21343E-13
 -1       578 1.44384E-02-6.93591E-05-1.21422E-13
 -1       579 1.43518E-02-1.42986E-04-1.21488E-13
 -1       580 1.33177E-02 1.40123E-04-9.47465E-14
 -1       581 1.28780E-02 3.03267E-04-9.21544E-14
 -1       582 1.50114E-03 4.50272E-04-1.79438E-15
 -1       583 1.32901E-02 9.85457E-05-9.43285E-14
 -1       584 1.25118E-02 4.70477E-04-9.05057E-14
 -1       585 1.16595E-02 9.30743E-04-8.51091E-14
 -1       586 1.31104E-02 3.42461E-05-9.35274E-14
 -1       587 1.06392E-02 1.00272E-03-7.59339E-14
 -1       588 6.63852E-04-3.65448E-05-5.57863E-16
 -1       589 1.10259E-02 1.09962E-03-7.94402E-14
 -1       590 9.44773E-03 3.55168E-04-6.90659E-14
 -1       591 1.13199E-02 1.06470E-03-8.21585E-14
 -1       592 1.02294E-02 7.87448E-04-7.28744E-14
 -1       593 9.86497E-03 5.75079E-04-7.09237E-14
 -1       594 9.13278E-03 2.15820E-04-6.78082E-14
 -1       595 8.86092E-03 1.15768E-04-6.69444E-14
 -1       596 8.75005E-03 6.52964E-05-6.65149E-14
 -1       597 8.80734E-03 2.53505E-05-6.68399E-14
 -1       598 9.40066E-03-2.08869E-04-6.89857E-14
 -1       599 9.78025E-03-3.98338E-04-7.11018E-14
 -1       600 1.01349E-02-5.93245E-04-7.30252E-14
 -1       601 1.05492E-02-8.05374E-04-7.59299E-14
 -1       602 1.09581E-02-8.95678E-04-7.96690E-14
 -1       603 1.12191E-02-8.63468E-04-8.20433E-14
 -1       604 1.15903E-02-7.15975E-04-8.52654E-14
 -1       605 1.20187E-02-4.80996E-04-8.83406E-14
 -1       606 1.24439E-02-2.51469E-04-9.07131E-14
 -1       607 1.28161E-02-7.88111E-05-9.23309E-14
 -1       608 7.12662E-04-2.51959E-04-4.78523E-16
 -1       609 7.03771E-04 2.90975E-04-3.68998E-16
 -1       610 6.76606E-04-1.60149E-04-5.23124E-16
 -1       611 6.91811E-04-2.02985E-04-5.06644E-16
 -1       612 1.18920E-02 8.24194E-04-8.73351E-14
 -1       613 8.88526E-03-1.04241E-05-6.61409E-14
 -1       614 9.18986E-03-1.25610E-04-6.72951E-14
 -1       615 1.42271E-02-2.18301E-04-1.20799E-13
 -1       616 8.99891E-04 7.41558E-05-9.42639E-16
 -1       617 8.97816E-04 2.51937E-05-9.53844E-16
 -1       618 9.11892E-04 1.78318E-04-8.92901E-16
 -1       619 9.24213E-04 2.36895E-04-8.49103E-16
 -1       620 1.04885E-03 3.14027E-04-9.82013E-16
 -1       621 9.24056E-03 2.72139E-04-6.67373E-14
 -1       622 1.38328E-03-3.37149E-04-1.79973E-15
 -1       623 1.66948E-03-3.68034E-04-2.56402E-15
 -1       624 1.95570E-03-3.89747E-04-3.46064E-15
 -1       625 2.24174E-03-4.04428E-04-4.48756E-15
 -1       626 2.52760E-03-4.13849E-04-5.64487E-15
 -1       627 2.81332E-03-4.19405E-04-6.93059E-15
 -1       628 3.09896E-03-4.22154E-04-8.34116E-15
 -1       629 3.38455E-03-4.22877E-04-9.87374E-15
 -1       630 3.67014E-03-4.22126E-04-1.15263E-14
 -1       631 3.95575E-03-4.20268E-04-1.32956E-14
 -1       632 4.24139E-03-4.17531E-04-1.51796E-14
 -1       633 4.52709E-03-4.14028E-04-1.71752E-14
 -1       634 4.81285E-03-4.09796E-04-1.92788E-14
 -1       635 5.09870E-03-4.04815E-04-2.14852E-14
 -1       636 5.38465E-03-3.99039E-04-2.37920E-14
 -1       637 5.67073E-03-3.92424E-04-2.62011E-14
 -1       638 5.95698E-03-3.84961E-04-2.87103E-14
 -1       639 6.24344E-03-3.76721E-04-3.13196E-14
 -1       640 6.53023E-03-3.67905E-04-3.40248E-14
 -1       641 6.81748E-03-3.58910E-04-3.68249E-14
 -1       642 7.10545E-03-3.50411E-04-3.97085E-14
 -1       643 7.39457E-03-3.43460E-04-4.26788E-14
 -1       644 7.68554E-03-3.39596E-04-4.57293E-14
 -1       645 7.97949E-03-3.40977E-04-4.88544E-14
 -1       646 8.27818E-03-3.50527E-04-5.20516E-14
 -1       647 8.58412E-03-3.72093E-04-5.53169E-14
 -1       648 8.90051E-03-4.10542E-04-5.86509E-14
 -1       649 9.23053E-03-4.71532E-04-6.20499E-14
 -1       650 9.57548E-03-5.59950E-04-6.55125E-14
 -1       651 9.93209E-03-6.75929E-04-6.90372E-14
 -1       652 1.02902E-02-8.05197E-04-7.26257E-14
 -1       653 1.06385E-02-9.12525E-04-7.62929E-14
 -1       654 1.09739E-02-9.52451E-04-8.00241E-14
 -1       655 1.13095E-02-9.02145E-04-8.38134E-14
 -1       656 1.16575E-02-7.83201E-04-8.76573E-14
 -1       657 1.20152E-02-6.41221E-04-9.15521E-14
 -1       658 1.23716E-02-5.11703E-04-9.54985E-14
 -1       659 1.27165E-02-4.08371E-04-9.94904E-14
 -1       660 1.30461E-02-3.30881E-04-1.03522E-13
 -1       661 1.33618E-02-2.73324E-04-1.07590E-13
 -1       662 1.36664E-02-2.28853E-04-1.11697E-13
 -1       663 1.39631E-02-1.90980E-04-1.15837E-13
 -1       664 2.19060E-03 4.37346E-04-4.10185E-15
 -1       665 8.93135E-03 1.48182E-04-6.55888E-14
 -1       666 1.90562E-03 4.20702E-04-3.12127E-15
 -1       667 2.76004E-03 4.54783E-04-6.45028E-15
 -1       668 3.04473E-03 4.58282E-04-7.81674E-15
 -1       669 3.32950E-03 4.59551E-04-9.30888E-15
 -1       670 3.61440E-03 4.59201E-04-1.09235E-14
 -1       671 3.89946E-03 4.57645E-04-1.26614E-14
 -1       672 4.18469E-03 4.55142E-04-1.45167E-14
 -1       673 4.47012E-03 4.51828E-04-1.64857E-14
 -1       674 4.75576E-03 4.47752E-04-1.85628E-14
 -1       675 5.04164E-03 4.42897E-04-2.07494E-14
 -1       676 5.32780E-03 4.37213E-04-2.30414E-14
 -1       677 5.61429E-03 4.30641E-04-2.54374E-14
 -1       678 5.90118E-03 4.23151E-04-2.79354E-14
 -1       679 6.18854E-03 4.14778E-04-3.05291E-14
 -1       680 6.47650E-03 4.05686E-04-3.32169E-14
 -1       681 6.76519E-03 3.96229E-04-3.59953E-14
 -1       682 7.05484E-03 3.87052E-04-3.88628E-14
 -1       683 7.34577E-03 3.79202E-04-4.18124E-14
 -1       684 7.63851E-03 3.74273E-04-4.48395E-14
 -1       685 7.93392E-03 3.74574E-04-4.79405E-14
 -1       686 8.23346E-03 3.83324E-04-5.11160E-14
 -1       687 8.53938E-03 4.04858E-04-5.43581E-14
 -1       688 8.85499E-03 4.44800E-04-5.76617E-14
 -1       689 9.18433E-03 5.10002E-04-6.10218E-14
 -1       690 9.53078E-03 6.07670E-04-6.44419E-14
 -1       691 9.89367E-03 7.41504E-04-6.79190E-14
 -1       692 1.02643E-02 9.01548E-04-7.14589E-14
 -1       693 1.06294E-02 1.05345E-03-7.50710E-14
 -1       694 1.09795E-02 1.13841E-03-7.87523E-14
 -1       695 1.13261E-02 1.11755E-03-8.25014E-14
 -1       696 1.16843E-02 1.00740E-03-8.63174E-14
 -1       697 1.20535E-02 8.64242E-04-9.01869E-14
 -1       698 1.24205E-02 7.35088E-04-9.41075E-14
 -1       699 1.27732E-02 6.38851E-04-9.80687E-14
 -1       700 1.31080E-02 5.75603E-04-1.02064E-13
 -1       701 1.34269E-02 5.38107E-04-1.06083E-13
 -1       702 1.37338E-02 5.17921E-04-1.10120E-13
 -1       703 1.40323E-02 5.07192E-04-1.14184E-13
 -1       704 1.42731E-02 4.85975E-04-1.17383E-13
 -1       705 1.27624E-02 3.75689E-04-9.32218E-14
 -1       706 1.44558E-02 1.84274E-04-1.17448E-13
 -1       707 1.44125E-02 2.97821E-04-1.17270E-13
 -1       708 1.44360E-02 1.29850E-04-1.17534E-13
 -1       709 1.44471E-02 2.39114E-04-1.17360E-13
 -1       710 1.43899E-02 7.32458E-05-1.17617E-13
 -1       711 1.43212E-02 9.94755E-06-1.17698E-13
 -1       712 1.42377E-02-6.00695E-05-1.17771E-13
 -1       713 1.23206E-02 6.01719E-04-9.07560E-14
 -1       714 1.30641E-02 2.54078E-04-9.49301E-14
 -1       715 1.62028E-03 3.96284E-04-2.27334E-15
 -1       716 1.30225E-02-1.02017E-05-9.50063E-14
 -1       717 1.08278E-02-8.90379E-04-7.84359E-14
 -1       718 1.13842E-02-8.28048E-04-8.40465E-14
 -1       719 1.33106E-02 1.71738E-04-9.64548E-14
 -1       720 1.32704E-02 7.40116E-05-9.63329E-14
 -1       721 1.06581E-02-8.71034E-04-7.66563E-14
 -1       722 1.10285E-02-9.15932E-04-8.04762E-14
 -1       723 1.26971E-02-1.49657E-04-9.36256E-14
 -1       724 2.47537E-03 4.48193E-04-5.21150E-15
 -1       725 1.09773E-03-2.94730E-04-1.16881E-15
 -1       726 9.04312E-04 1.24686E-04-9.22998E-16
 -1       727 1.33459E-03 3.61657E-04-1.55989E-15
 -1       728 9.03936E-04-1.22274E-04-9.41657E-16
 -1       729 1.02754E-02-7.02150E-04-7.32264E-14
 -1       730 1.41585E-02-1.67759E-04-1.18657E-13
 -1       731 9.95689E-03 6.61335E-04-7.00627E-14
 -1       732 1.04075E-02 9.18927E-04-7.34041E-14
 -1       733 1.18187E-02-6.19545E-04-8.80188E-14
 -1       734 9.60930E-03 4.58606E-04-6.82261E-14
 -1       735 8.73185E-03 8.16874E-05-6.46082E-14
 -1       736 1.14932E-02 1.03429E-03-8.40681E-14
 -1       737 8.71703E-03 4.34358E-05-6.49266E-14
 -1       738 9.57790E-03-3.23529E-04-6.85379E-14
 -1       739 9.89008E-03-4.90538E-04-7.04255E-14
 -1       740 1.34002E-02 1.21681E-04-9.74467E-14
 -1       741 1.22758E-02-3.62703E-04-9.12304E-14
 -1       742 8.93485E-04-2.51907E-04-8.03895E-16
 -1       743 9.11285E-04-1.75686E-04-9.20013E-16
 -1       744 8.97754E-04-2.31722E-05-9.57428E-16
 -1       745 8.74413E-03 1.59001E-05-6.42305E-14
 -1       746 1.43398E-02 4.10835E-04-1.17475E-13
 -1       747 8.99184E-03-6.78425E-05-6.54519E-14
 -1       748 9.35685E-03-2.34000E-04-6.68460E-14
 -1       749 1.41023E-02-1.22915E-04-1.16809E-13
 -1       750 1.43801E-02 3.52115E-04-1.17373E-13
 -1       751 8.99682E-04-7.18694E-05-9.53596E-16
 -1       752 1.00123E-02-6.16718E-04-7.05085E-14
 -1       753 1.16160E-03 2.43740E-04-1.34272E-15
 -1       754 9.01003E-04-2.12932E-04-8.64993E-16
 -1       755 1.16734E-02 9.62318E-04-8.58367E-14
 -1       756 1.79739E-03-3.09521E-04-3.06803E-15
 -1       757 2.08508E-03-3.25517E-04-4.03676E-15
 -1       758 2.37289E-03-3.36155E-04-5.13489E-15
 -1       759 2.66061E-03-3.42766E-04-6.36052E-15
 -1       760 2.94812E-03-3.46412E-04-7.71136E-15
 -1       761 3.23539E-03-3.47904E-04-9.18514E-15
 -1       762 3.52239E-03-3.47833E-04-1.07791E-14
 -1       763 3.80914E-03-3.46609E-04-1.24897E-14
 -1       764 4.09563E-03-3.44498E-04-1.43159E-14
 -1       765 4.38188E-03-3.41650E-04-1.62549E-14
 -1       766 4.66788E-03-3.38130E-04-1.83032E-14
 -1       767 4.95361E-03-3.33939E-04-2.04546E-14
 -1       768 5.23904E-03-3.29040E-04-2.27110E-14
 -1       769 5.52412E-03-3.23384E-04-2.50696E-14
 -1       770 5.80881E-03-3.16928E-04-2.75268E-14
 -1       771 6.09304E-03-3.09676E-04-3.00873E-14
 -1       772 6.37675E-03-3.01711E-04-3.27432E-14
 -1       773 6.65991E-03-2.93236E-04-3.54930E-14
 -1       774 6.94256E-03-2.84639E-04-3.83312E-14
 -1       775 7.22486E-03-2.76542E-04-4.12553E-14
 -1       776 7.50723E-03-2.69891E-04-4.42621E-14
 -1       777 7.79052E-03-2.66042E-04-4.73465E-14
 -1       778 8.07622E-03-2.66911E-04-5.05005E-14
 -1       779 8.36681E-03-2.75214E-04-5.37244E-14
 -1       780 8.66614E-03-2.94917E-04-5.70171E-14
 -1       781 8.97953E-03-3.31957E-04-6.03756E-14
 -1       782 9.31302E-03-3.94939E-04-6.37958E-14
 -1       783 1.19189E-02-6.04571E-04-8.95757E-14
 -1       784 1.22977E-02-4.51690E-04-9.34964E-14
 -1       785 1.26568E-02-3.38073E-04-9.74674E-14
 -1       786 1.29926E-02-2.59576E-04-1.01478E-13
 -1       787 1.33083E-02-2.05366E-04-1.05524E-13
 -1       788 1.36098E-02-1.65666E-04-1.09605E-13
 -1       789 1.38578E-02-1.43817E-04-1.13193E-13
 -1       790 3.18013E-03 3.84560E-04-8.68294E-15
 -1       791 2.89355E-03 3.82447E-04-7.24908E-15
 -1       792 3.75282E-03 3.83981E-04-1.19183E-14
 -1       793 4.03897E-03 3.82066E-04-1.37158E-14
 -1       794 4.32499E-03 3.79348E-04-1.56273E-14
 -1       795 4.61090E-03 3.75910E-04-1.76481E-14
 -1       796 4.89670E-03 3.71764E-04-1.97775E-14
 -1       797 5.18236E-03 3.66874E-04-2.20157E-14
 -1       798 5.46787E-03 3.61185E-04-2.43600E-14
 -1       799 5.75319E-03 3.54647E-04-2.68049E-14
 -1       800 6.03826E-03 3.47252E-04-2.93487E-14
 -1       801 6.32303E-03 3.39069E-04-3.19870E-14
 -1       802 6.60744E-03 3.30301E-04-3.47168E-14
 -1       803 6.89145E-03 3.21341E-04-3.75366E-14
 -1       804 7.17508E-03 3.12854E-04-4.04409E-14
 -1       805 7.45853E-03 3.05861E-04-4.34273E-14
 -1       806 7.74227E-03 3.01848E-04-4.64906E-14
 -1       807 8.02734E-03 3.02902E-04-4.96256E-14
 -1       808 8.31570E-03 3.11915E-04-5.28298E-14
 -1       809 8.61080E-03 3.32982E-04-5.60988E-14
 -1       810 8.91801E-03 3.72071E-04-5.94288E-14
 -1       811 9.24464E-03 4.38177E-04-6.28158E-14
 -1       812 9.59803E-03 5.43558E-04-6.62634E-14
 -1       813 1.29988E-02 3.29592E-04-9.63351E-14
 -1       814 1.20648E-02 7.95124E-04-8.96981E-14
 -1       815 1.24459E-02 6.55679E-04-9.36097E-14
 -1       816 1.28033E-02 5.60960E-04-9.75671E-14
 -1       817 1.31357E-02 5.04167E-04-1.01558E-13
 -1       818 1.34487E-02 4.73380E-04-1.05577E-13
 -1       819 1.37486E-02 4.58688E-04-1.09613E-13
 -1       820 1.41058E-02 4.26357E-04-1.14283E-13
 -1       821 1.41925E-02 9.06064E-05-1.14015E-13
 -1       822 1.42304E-02 1.47487E-04-1.13938E-13
 -1       823 1.29704E-02-7.37815E-05-9.67975E-14
 -1       824 1.24623E-03 3.00943E-04-1.45507E-15
 -1       825 1.34375E-02 9.34430E-05-9.96916E-14
 -1       826 1.33988E-02 1.39877E-04-9.73972E-14
 -1       827 1.32898E-02 2.27270E-04-9.83624E-14
 -1       828 1.25878E-02-2.61910E-04-9.48567E-14
 -1       829 1.74573E-03 3.39128E-04-2.77743E-15
 -1       830 1.41261E-02 2.72794E-05-1.14087E-13
 -1       831 1.40400E-02-4.44828E-05-1.14153E-13
 -1       832 9.28359E-03 3.48833E-04-6.50492E-14
 -1       833 3.46655E-03 3.84915E-04-1.02400E-14
 -1       834 2.03279E-03 3.57602E-04-3.70271E-15
 -1       835 9.00141E-03 2.13879E-04-6.39258E-14
 -1       836 1.32290E-02 2.70508E-05-9.81298E-14
 -1       837 1.22460E-03-2.55118E-04-1.51982E-15
 -1       838 1.51028E-03-2.86593E-04-2.22860E-15
 -1       839 1.26151E-02 5.02744E-04-9.38484E-14
 -1       840 9.65150E-03-4.23015E-04-6.78616E-14
 -1       841 8.61771E-03 5.45994E-05-6.24621E-14
 -1       842 1.13845E-03 5.90848E-05-1.44628E-15
 -1       843 8.74844E-03 1.13139E-04-6.30707E-14
 -1       844 1.34313E-02 1.68620E-04-9.90526E-14
 -1       845 1.34960E-02 1.36528E-04-9.99230E-14
 -1       846 1.13709E-03 1.19463E-06-1.45623E-15
 -1       847 1.14992E-03 1.79194E-04-1.39162E-15
 -1       848 1.14254E-03 1.17994E-04-1.42531E-15
 -1       849 9.74481E-03-5.19941E-04-6.79715E-14
 -1       850 1.14936E-03-1.76211E-04-1.42305E-15
 -1       851 8.80588E-03-2.84596E-05-6.35448E-14
 -1       852 2.60679E-03 3.77907E-04-5.94013E-15
 -1       853 1.42349E-02 2.02295E-04-1.13860E-13
 -1       854 1.42070E-02 2.60150E-04-1.13778E-13
 -1       855 1.39506E-02-9.23915E-05-1.13673E-13
 -1       856 1.14219E-03-1.15256E-04-1.44550E-15
 -1       857 1.41749E-02 3.14429E-04-1.13883E-13
 -1       858 8.59752E-03 3.09732E-05-6.17729E-14
 -1       859 9.13400E-03-1.61243E-04-6.50023E-14
 -1       860 9.43987E-03-3.35663E-04-6.61723E-14
 -1       861 2.31985E-03 3.70026E-04-4.75828E-15
 -1       862 8.57592E-03 7.91610E-05-6.09407E-14
 -1       863 1.49561E-03 3.24204E-04-2.06362E-15
 -1       864 1.21149E-02-5.02697E-04-9.12754E-14
 -1       865 1.92975E-03-2.47760E-04-3.59230E-15
 -1       866 2.21857E-03-2.58756E-04-4.63111E-15
 -1       867 2.50768E-03-2.65900E-04-5.79793E-15
 -1       868 2.79670E-03-2.70147E-04-7.08935E-15
 -1       869 3.08546E-03-2.72259E-04-8.50429E-15
 -1       870 3.37382E-03-2.72815E-04-1.00390E-14
 -1       871 3.66174E-03-2.72234E-04-1.16921E-14
 -1       872 3.94919E-03-2.70798E-04-1.34607E-14
 -1       873 4.23614E-03-2.68679E-04-1.53418E-14
 -1       874 4.52258E-03-2.65967E-04-1.73349E-14
 -1       875 4.80847E-03-2.62685E-04-1.94327E-14
 -1       876 5.09373E-03-2.58814E-04-2.16343E-14
 -1       877 5.37829E-03-2.54311E-04-2.39419E-14
 -1       878 5.66202E-03-2.49123E-04-2.63491E-14
 -1       879 5.94476E-03-2.43218E-04-2.88568E-14
 -1       880 6.22634E-03-2.36601E-04-3.14671E-14
 -1       881 6.50657E-03-2.29347E-04-3.41704E-14
 -1       882 6.78528E-03-2.21629E-04-3.69632E-14
 -1       883 7.06237E-03-2.13756E-04-3.98424E-14
 -1       884 7.33786E-03-2.06209E-04-4.28027E-14
 -1       885 7.61208E-03-1.99687E-04-4.58453E-14
 -1       886 7.88581E-03-1.95183E-04-4.89582E-14
 -1       887 8.16064E-03-1.94148E-04-5.21420E-14
 -1       888 8.43947E-03-1.98864E-04-5.53958E-14
 -1       889 8.72718E-03-2.13366E-04-5.87152E-14
 -1       890 9.03163E-03-2.45373E-04-6.20948E-14
 -1       891 8.72189E-03 1.60067E-04-6.08867E-14
 -1       892 1.29820E-02-1.63198E-04-9.94257E-14
 -1       893 1.87605E-03 2.78746E-04-3.30565E-15
 -1       894 1.32878E-02-1.18001E-04-1.03452E-13
 -1       895 1.35777E-02-8.73303E-05-1.07508E-13
 -1       896 3.02967E-03 3.08825E-04-8.06049E-15
 -1       897 4.17909E-03 3.06295E-04-1.47750E-14
 -1       898 3.89230E-03 3.08327E-04-1.29208E-14
 -1       899 4.75146E-03 3.00296E-04-1.88126E-14
 -1       900 5.03695E-03 2.96357E-04-2.09960E-14
 -1       901 5.32190E-03 2.91746E-04-2.32856E-14
 -1       902 5.60620E-03 2.86415E-04-2.56796E-14
 -1       903 5.88970E-03 2.80334E-04-2.81730E-14
 -1       904 6.17222E-03 2.73521E-04-3.07635E-14
 -1       905 6.45355E-03 2.66075E-04-3.34457E-14
 -1       906 6.73343E-03 2.58219E-04-3.62181E-14
 -1       907 7.01164E-03 2.50342E-04-3.90780E-14
 -1       908 7.28798E-03 2.43047E-04-4.20220E-14
 -1       909 7.56242E-03 2.37197E-04-4.50452E-14
 -1       910 7.83526E-03 2.33968E-04-4.81416E-14
 -1       911 8.10745E-03 2.34945E-04-5.13084E-14
 -1       912 8.38101E-03 2.42343E-04-5.45415E-14
 -1       913 8.65987E-03 2.59807E-04-5.78388E-14
 -1       914 8.95186E-03 2.93404E-04-6.11940E-14
 -1       915 1.34421E-02 4.83809E-05-1.01610E-13
 -1       916 1.32342E-02-2.83306E-05-1.00272E-13
 -1       917 1.30931E-02 4.17201E-04-9.96342E-14
 -1       918 1.33961E-02 3.92059E-04-1.03641E-13
 -1       919 1.36851E-02 3.83110E-04-1.07673E-13
 -1       920 1.38503E-02-2.28707E-05-1.10567E-13
 -1       921 1.40032E-02 1.10625E-04-1.10438E-13
 -1       922 1.32632E-02 3.05833E-04-1.00041E-13
 -1       923 1.36188E-02 1.18593E-04-1.02989E-13
 -1       924 1.34927E-02 2.08540E-04-1.01381E-13
 -1       925 1.35882E-02 1.68643E-04-1.02259E-13
 -1       926 1.64179E-03-2.31796E-04-2.68159E-15
 -1       927 1.39403E-02 4.92031E-05-1.10503E-13
 -1       928 4.46549E-03 3.03605E-04-1.67396E-14
 -1       929 1.13829E-03-5.65456E-05-1.45569E-15
 -1       930 1.39377E-02 3.44125E-04-1.10773E-13
 -1       931 1.40139E-03 2.37138E-04-1.94476E-15
 -1       932 1.58846E-03 2.59760E-04-2.43457E-15
 -1       933 2.16440E-03 2.91939E-04-4.30532E-15
 -1       934 8.91476E-03-1.03257E-04-6.30952E-14
 -1       935 1.39870E-02 2.83401E-04-1.10666E-13
 -1       936 2.74143E-03 3.05977E-04-6.68408E-15
 -1       937 3.31758E-03 3.09864E-04-9.56053E-15
 -1       938 8.60977E-03-2.94493E-06-6.10935E-14
 -1       939 1.40272E-02 1.65059E-04-1.10371E-13
 -1       940 3.60513E-03 3.09587E-04-1.11803E-14
 -1       941 1.40104E-02 2.20573E-04-1.10294E-13
 -1       942 8.51604E-03 5.44019E-05-6.02608E-14
 -1       943 1.44766E-03 2.79881E-04-2.00709E-15
 -1       944 1.38128E-03 3.41215E-05-2.04981E-15
 -1       945 1.38442E-03 1.00010E-04-2.03041E-15
 -1       946 1.35555E-03-2.09722E-04-1.89908E-15
 -1       947 1.34669E-03-1.42057E-04-1.92923E-15
 -1       948 1.39090E-03 1.67384E-04-1.99609E-15
 -1       949 2.35562E-03-1.89605E-04-5.24295E-15
 -1       950 2.64564E-03-1.93882E-04-6.47526E-15
 -1       951 2.93554E-03-1.96260E-04-7.83085E-15
 -1       952 3.22506E-03-1.97240E-04-9.30722E-15
 -1       953 3.51406E-03-1.97197E-04-1.09015E-14
 -1       954 3.80246E-03-1.96397E-04-1.26123E-14
 -1       955 4.09019E-03-1.95011E-04-1.44371E-14
 -1       956 4.37723E-03-1.93137E-04-1.63736E-14
 -1       957 4.66350E-03-1.90817E-04-1.84168E-14
 -1       958 4.94892E-03-1.88049E-04-2.05656E-14
 -1       959 5.23338E-03-1.84803E-04-2.28202E-14
 -1       960 5.51671E-03-1.81035E-04-2.51775E-14
 -1       961 5.79871E-03-1.76698E-04-2.76342E-14
 -1       962 6.07911E-03-1.71762E-04-3.01928E-14
 -1       963 6.35762E-03-1.66226E-04-3.28525E-14
 -1       964 6.63391E-03-1.60132E-04-3.56003E-14
 -1       965 6.90762E-03-1.53587E-04-3.84361E-14
 -1       966 7.17845E-03-1.46769E-04-4.13544E-14
 -1       967 7.44617E-03-1.39939E-04-4.43529E-14
 -1       968 7.71078E-03-1.33453E-04-4.74244E-14
 -1       969 7.97261E-03-1.27816E-04-5.05688E-14
 -1       970 8.23266E-03-1.23821E-04-5.37848E-14
 -1       971 8.49329E-03-1.22943E-04-5.70677E-14
 -1       972 1.72193E-03 2.02499E-04-2.91262E-15
 -1       973 1.36925E-02-1.49641E-06-1.07459E-13
 -1       974 1.34156E-03-7.65547E-05-1.94492E-15
 -1       975 5.17662E-03 2.21939E-04-2.22189E-14
 -1       976 4.89181E-03 2.25360E-04-1.99840E-14
 -1       977 5.74311E-03 2.13401E-04-2.70012E-14
 -1       978 6.02432E-03 2.08249E-04-2.95425E-14
 -1       979 6.30379E-03 2.02549E-04-3.21795E-14
 -1       980 6.58111E-03 1.96419E-04-3.49056E-14
 -1       981 6.85586E-03 1.90077E-04-3.77210E-14
 -1       982 7.12756E-03 1.83865E-04-4.06228E-14
 -1       983 7.39573E-03 1.78257E-04-4.36031E-14
 -1       984 7.65997E-03 1.73857E-04-4.66622E-14
 -1       985 7.92005E-03 1.71399E-04-4.97908E-14
 -1       986 8.17617E-03 1.71776E-04-5.29897E-14
 -1       987 8.42959E-03 1.76185E-04-5.62544E-14
 -1       988 8.47147E-03 1.10456E-04-5.82582E-14
 -1       989 1.36347E-02 3.07439E-04-1.05724E-13
 -1       990 1.37628E-02 1.56463E-04-1.05564E-13
 -1       991 1.37831E-02 2.47488E-04-1.06983E-13
 -1       992 2.06588E-03-1.82796E-04-4.13608E-15
 -1       993 4.03278E-03 2.32560E-04-1.39282E-14
 -1       994 1.77702E-03-1.72711E-04-3.15694E-15
 -1       995 1.37006E-02 7.61092E-05-1.05645E-13
 -1       996 1.36723E-02 2.06145E-04-1.04446E-13
 -1       997 1.36033E-03-2.16234E-05-2.00172E-15
 -1       998 1.35505E-02 2.72117E-04-1.03765E-13
 -1       999 2.45295E-03 3.00645E-04-5.43209E-15
 -1      1000 5.46045E-03 2.17963E-04-2.45582E-14
 -1      1001 3.74514E-03 2.33882E-04-1.21298E-14
 -1      1002 2.01042E-03 2.15166E-04-3.85622E-15
 -1      1003 8.75937E-03-1.29451E-04-6.04083E-14
 -1      1004 8.67289E-03-5.85900E-05-6.06440E-14
 -1      1005 3.16817E-03 2.34208E-04-8.88575E-15
 -1      1006 4.60617E-03 2.28262E-04-1.78557E-14
 -1      1007 8.39074E-03 7.99483E-05-5.75929E-14
 -1      1008 1.61645E-03 1.25526E-06-2.71590E-15
 -1      1009 2.87896E-03 2.32664E-04-7.44288E-15
 -1      1010 8.46443E-03 2.07515E-05-5.91553E-14
 -1      1011 4.31980E-03 2.30666E-04-1.58372E-14
 -1      1012 1.61818E-03 7.27133E-05-2.70076E-15
 -1      1013 2.78639E-03-1.20370E-04-7.16614E-15
 -1      1014 3.07676E-03-1.21402E-04-8.58338E-15
 -1      1015 3.36664E-03-1.21664E-04-1.01195E-14
 -1      1016 3.65588E-03-1.21359E-04-1.17716E-14
 -1      1017 3.94437E-03-1.20625E-04-1.35391E-14
 -1      1018 4.23205E-03-1.19548E-04-1.54193E-14
 -1      1019 4.51885E-03-1.18171E-04-1.74089E-14
 -1      1020 4.80467E-03-1.16502E-04-1.95040E-14
 -1      1021 5.08938E-03-1.14528E-04-2.17048E-14
 -1      1022 5.37280E-03-1.12219E-04-2.40112E-14
 -1      1023 5.65471E-03-1.09536E-04-2.64170E-14
 -1      1024 5.93481E-03-1.06439E-04-2.89242E-14
 -1      1025 6.21272E-03-1.02894E-04-3.15356E-14
 -1      1026 6.48803E-03-9.88800E-05-3.42393E-14
 -1      1027 6.76023E-03-9.43935E-05-3.70319E-14
 -1      1028 7.02877E-03-8.94481E-05-3.99091E-14
 -1      1029 7.29305E-03-8.40700E-05-4.28662E-14
 -1      1030 7.55243E-03-7.82826E-05-4.58971E-14
 -1      1031 7.80622E-03-7.20887E-05-4.90032E-14
 -1      1032 8.05379E-03-6.55124E-05-5.21817E-14
 -1      1033 8.29464E-03-5.87263E-05-5.54280E-14
 -1      1034 6.43408E-03 1.34728E-04-3.35986E-14
 -1      1035 3.45692E-03 2.34504E-04-1.04484E-14
 -1      1036 5.03209E-03 1.51438E-04-2.11604E-14
 -1      1037 1.59666E-03-5.94542E-05-2.65499E-15
 -1      1038 8.30132E-03 4.41871E-05-5.65088E-14
 -1      1039 6.15786E-03 1.38787E-04-3.09147E-14
 -1      1040 5.87915E-03 1.42531E-04-2.83254E-14
 -1      1041 6.70725E-03 1.30476E-04-3.63693E-14
 -1      1042 6.97674E-03 1.26229E-04-3.92283E-14
 -1      1043 7.24181E-03 1.22255E-04-4.21698E-14
 -1      1044 7.50160E-03 1.18881E-04-4.51868E-14
 -1      1045 7.75508E-03 1.16450E-04-4.82789E-14
 -1      1046 8.00107E-03 1.15269E-04-5.14416E-14
 -1      1047 8.23815E-03 1.15688E-04-5.46730E-14
 -1      1048 1.66866E-03 1.36390E-04-2.81280E-15
 -1      1049 1.68576E-03-1.14682E-04-2.90533E-15
 -1      1050 2.20535E-03-1.14812E-04-4.69847E-15
 -1      1051 1.94491E-03-1.15984E-04-3.75069E-15
 -1      1052 2.58942E-03 2.29409E-04-6.12301E-15
 -1      1053 2.29978E-03 2.23832E-04-4.92646E-15
 -1      1054 5.31593E-03 1.48862E-04-2.34458E-14
 -1      1055 8.48561E-03-2.23763E-05-5.87127E-14
 -1      1056 5.59838E-03 1.45896E-04-2.58354E-14
 -1      1057 2.49579E-03-1.18291E-04-5.87029E-15
 -1      1058 3.88641E-03 1.58115E-04-1.30872E-14
 -1      1059 1.95697E-03 1.45908E-04-3.74211E-15
 -1      1060 4.74707E-03 1.53642E-04-1.89796E-14
 -1      1061 1.86608E-03 3.94614E-05-3.49544E-15
 -1      1062 3.30877E-03 1.58900E-04-9.72193E-15
 -1      1063 8.28311E-03 5.35855E-06-5.60793E-14
 -1      1064 3.01902E-03 1.58250E-04-8.21627E-15
 -1      1065 4.17414E-03 1.56993E-04-1.49411E-14
 -1      1066 1.84473E-03-2.56224E-05-3.43445E-15
 -1      1067 3.59793E-03 1.58791E-04-1.13460E-14
 -1      1068 1.91072E-03 9.21222E-05-3.62254E-15
 -1      1069 3.22001E-03-4.59104E-05-9.34592E-15
 -1      1070 3.50988E-03-4.58535E-05-1.09393E-14
 -1      1071 3.79901E-03-4.56034E-05-1.26488E-14
 -1      1072 4.08730E-03-4.52020E-05-1.44709E-14
 -1      1073 4.37465E-03-4.46742E-05-1.64048E-14
 -1      1074 4.66100E-03-4.40250E-05-1.84483E-14
 -1      1075 4.94619E-03-4.32566E-05-2.05966E-14
 -1      1076 5.23007E-03-4.23451E-05-2.28498E-14
 -1      1077 5.51240E-03-4.12717E-05-2.52047E-14
 -1      1078 5.79289E-03-4.00060E-05-2.76619E-14
 -1      1079 6.07116E-03-3.85121E-05-3.02231E-14
 -1      1080 6.34673E-03-3.67477E-05-3.28807E-14
 -1      1081 6.61906E-03-3.46630E-05-3.56283E-14
 -1      1082 6.88749E-03-3.21971E-05-3.84632E-14
 -1      1083 7.15123E-03-2.92719E-05-4.13827E-14
 -1      1084 7.40935E-03-2.57830E-05-4.43754E-14
 -1      1085 7.66066E-03-2.15858E-05-4.74415E-14
 -1      1086 7.90350E-03-1.64655E-05-5.05802E-14
 -1      1087 8.09908E-03-5.94296E-06-5.33084E-14
 -1      1088 2.63869E-03-4.51514E-05-6.51205E-15
 -1      1089 6.83402E-03 6.82777E-05-3.78362E-14
 -1      1090 4.46105E-03 1.55495E-04-1.69050E-14
 -1      1091 6.29147E-03 7.21185E-05-3.22938E-14
 -1      1092 6.01515E-03 7.40160E-05-2.96547E-14
 -1      1093 7.09877E-03 6.66180E-05-4.07379E-14
 -1      1094 7.35790E-03 6.53951E-05-4.37173E-14
 -1      1095 7.61014E-03 6.48411E-05-4.67671E-14
 -1      1096 7.85376E-03 6.51687E-05-4.98948E-14
 -1      1097 8.08595E-03 6.64304E-05-5.30935E-14
 -1      1098 6.56465E-03 7.01664E-05-3.50222E-14
 -1      1099 2.72884E-03 1.56564E-04-6.83021E-15
 -1      1100 1.89422E-03-7.03003E-05-3.59406E-15
 -1      1101 2.34785E-03-4.41179E-05-5.27748E-15
 -1      1102 5.17249E-03 7.87913E-05-2.23409E-14
 -1      1103 2.92954E-03-4.57082E-05-7.86932E-15
 -1      1104 5.73626E-03 7.57835E-05-2.71143E-14
 -1      1105 5.45525E-03 7.73806E-05-2.46770E-14
 -1      1106 4.88828E-03 8.00148E-05-2.01086E-14
 -1      1107 3.74038E-03 8.30343E-05-1.22523E-14
 -1      1108 8.08403E-03 3.06518E-05-5.32057E-14
 -1      1109 3.16127E-03 8.30573E-05-9.00124E-15
 -1      1110 4.02877E-03 8.25814E-05-1.40512E-14
 -1      1111 2.43847E-03 1.53482E-04-5.56625E-15
 -1      1112 3.45118E-03 8.32209E-05-1.05691E-14
 -1      1113 2.12063E-03-5.80421E-05-4.39733E-15
 -1      1114 2.13249E-03 5.32918E-05-4.42923E-15
 -1      1115 2.19746E-03 1.50537E-04-4.61088E-15
 -1      1116 2.87081E-03 8.24177E-05-7.55225E-15
 -1      1117 4.51791E-03 2.94133E-05-1.73973E-14
 -1      1118 2.16442E-03 1.01673E-04-4.52357E-15
 -1      1119 2.50149E-03 6.81109E-05-5.89180E-15
 -1      1120 4.27362E-03 5.58208E-05-1.56856E-14
 -1      1121 0.00000E+00 0.00000E+00 0.00000E+00
 -1      1122 0.00000E+00 0.00000E+00 0.00000E+00
 -1      1123 0.00000E+00 0.00000E+00 0.00000E+00
 -1      1124 0.00000E+00 0.00000E+00 0.00000E+00
 -1      1125 0.00000E+00 0.00000E+00 0.00000E+00
 -1      1126 0.00000E+00 0.00000E+00 0.00000E+00
 -1      1127 0.00000E+00 0.00000E+00 0.00000E+00
 -1      1128 0.00000E+00 0.00000E+00 0.00000E+00
 -1      1129 0.00000E+00 0.00000E+00 0.00000E+00
 -1      1130 0.00000E+00 0.00000E+00 0.00000E+00
 -1      1131 0.00000E+00 0.00000E+00 0.00000E+00
 -1      1132 0.00000E+00 0.00000E+00 0.00000E+00
 -1      1133 0.00000E+00 0.00000E+00 0.00000E+00
 -1      1134 0.00000E+00 0.00000E+00 0.00000E+00
 -1      1135 0.00000E+00 0.00000E+00 0.00000E+00
 -1      1136 0.00000E+00 0.00000E+00 0.00000E+00
 -1      1137 0.00000E+00 0.00000E+00 0.00000E+00
 -1      1138 2.11663E-04-1.48339E-04 1.98951E-17
 -1      1139 5.51612E-04-3.37546E-04-3.22686E-17
 -1      1140 8.33395E-04-4.59061E-04-2.20473E-16
 -1      1141 1.10292E-03-5.40751E-04-5.66645E-16
 -1      1142 1.36827E-03-5.97993E-04-1.06268E-15
 -1      1143 1.63301E-03-6.38676E-04-1.70503E-15
 -1      1144 1.89898E-03-6.67442E-04-2.49295E-15
 -1      1145 2.16702E-03-6.87399E-04-3.42288E-15
 -1      1146 2.43744E-03-7.00819E-04-4.49213E-15
 -1      1147 2.71022E-03-7.09408E-04-5.69859E-15
 -1      1148 2.98520E-03-7.14449E-04-7.03968E-15
 -1      1149 3.26217E-03-7.16896E-04-8.50790E-15
 -1      1150 3.54085E-03-7.17440E-04-1.01002E-14
 -1      1151 3.82101E-03-7.16567E-04-1.18170E-14
 -1      1152 4.10246E-03-7.14602E-04-1.36497E-14
 -1      1153 4.38504E-03-7.11744E-04-1.55943E-14
 -1      1154 4.66867E-03-7.08098E-04-1.76491E-14
 -1      1155 4.95338E-03-7.03708E-04-1.98125E-14
 -1      1156 5.23927E-03-6.98580E-04-2.20791E-14
 -1      1157 5.52654E-03-6.92720E-04-2.44459E-14
 -1      1158 5.81556E-03-6.86167E-04-2.69157E-14
 -1      1159 6.10682E-03-6.79038E-04-2.94907E-14
 -1      1160 6.40096E-03-6.71588E-04-3.21637E-14
 -1      1161 6.69881E-03-6.64282E-04-3.49340E-14
 -1      1162 7.00131E-03-6.57891E-04-3.77992E-14
 -1      1163 7.30954E-03-6.53607E-04-4.07537E-14
 -1      1164 7.62456E-03-6.53164E-04-4.37893E-14
 -1      1165 7.94725E-03-6.58954E-04-4.69014E-14
 -1      1166 8.27796E-03-6.74061E-04-5.00936E-14
 -1      1167 8.61610E-03-7.02117E-04-5.33583E-14
 -1      1168 8.95951E-03-7.46781E-04-5.66888E-14
 -1      1169 9.30394E-03-8.10620E-04-6.00899E-14
 -1      1170 9.64291E-03-8.93264E-04-6.35589E-14
 -1      1171 9.96847E-03-9.89138E-04-6.71004E-14
 -1      1172 1.02735E-02-1.08589E-03-7.07114E-14
 -1      1173 1.05549E-02-1.16536E-03-7.43819E-14
 -1      1174 1.08169E-02-1.20847E-03-7.81074E-14
 -1      1175 1.10708E-02-1.20265E-03-8.18845E-14
 -1      1176 1.13309E-02-1.14769E-03-8.57078E-14
 -1      1177 1.16085E-02-1.05572E-03-8.95798E-14
 -1      1178 1.19076E-02-9.45465E-04-9.35100E-14
 -1      1179 1.22252E-02-8.34696E-04-9.74924E-14
 -1      1180 1.25537E-02-7.35242E-04-1.01524E-13
 -1      1181 1.28848E-02-6.51896E-04-1.05598E-13
 -1      1182 1.32117E-02-5.83896E-04-1.09710E-13
 -1      1183 1.35300E-02-5.27148E-04-1.13869E-13
 -1      1184 1.38378E-02-4.76106E-04-1.18065E-13
 -1      1185 1.41354E-02-4.25055E-04-1.22283E-13
 -1      1186 1.44249E-02-3.69221E-04-1.26516E-13
 -1      1187 1.47033E-02-3.08625E-04-1.30661E-13
 -1      1188 2.28421E-04 1.60718E-04 2.95581E-17
 -1      1189 5.53781E-04 3.42177E-04-7.30481E-18
 -1      1190 8.34323E-04 4.61225E-04-1.76373E-16
 -1      1191 1.10382E-03 5.42437E-04-4.95223E-16
 -1      1192 1.36917E-03 5.99674E-04-9.62284E-16
 -1      1193 1.63396E-03 6.40446E-04-1.57528E-15
 -1      1194 1.89998E-03 6.69317E-04-2.33211E-15
 -1      1195 2.16807E-03 6.89393E-04-3.22912E-15
 -1      1196 2.43851E-03 7.02941E-04-4.26421E-15
 -1      1197 2.71131E-03 7.11663E-04-5.43868E-15
 -1      1198 2.98630E-03 7.16839E-04-6.75093E-15
 -1      1199 3.26327E-03 7.19422E-04-8.19473E-15
 -1      1200 3.54195E-03 7.20101E-04-9.76506E-15
 -1      1201 3.82211E-03 7.19361E-04-1.14623E-14
 -1      1202 4.10355E-03 7.17525E-04-1.32850E-14
 -1      1203 4.38611E-03 7.14788E-04-1.52301E-14
 -1      1204 4.66973E-03 7.11251E-04-1.72926E-14
 -1      1205 4.95442E-03 7.06950E-04-1.94605E-14
 -1      1206 5.24029E-03 7.01880E-04-2.17324E-14
 -1      1207 5.52755E-03 6.96030E-04-2.41108E-14
 -1      1208 5.81659E-03 6.89416E-04-2.65922E-14
 -1      1209 6.10793E-03 6.82124E-04-2.91672E-14
 -1      1210 6.40227E-03 6.74370E-04-3.18377E-14
 -1      1211 6.70054E-03 6.66578E-04-3.46079E-14
 -1      1212 7.00387E-03 6.59483E-04-3.74718E-14
 -1      1213 7.31357E-03 6.54272E-04-4.04170E-14
 -1      1214 7.63110E-03 6.52753E-04-4.34355E-14
 -1      1215 7.95788E-03 6.57554E-04-4.65311E-14
 -1      1216 8.29496E-03 6.72284E-04-4.97017E-14
 -1      1217 8.64250E-03 7.01566E-04-5.29455E-14
 -1      1218 8.99900E-03 7.50667E-04-5.62479E-14
 -1      1219 9.36034E-03 8.24360E-04-5.95999E-14
 -1      1220 9.71907E-03 9.24597E-04-6.30025E-14
 -1      1221 1.00649E-02 1.04701E-03-6.64629E-14
 -1      1222 1.03869E-02 1.17760E-03-6.99904E-14
 -1      1223 1.06793E-02 1.29258E-03-7.35880E-14
 -1      1224 1.09457E-02 1.36474E-03-7.72647E-14
 -1      1225 1.12010E-02 1.37525E-03-8.10158E-14
 -1      1226 1.14650E-02 1.32369E-03-8.48150E-14
 -1      1227 1.17527E-02 1.22821E-03-8.86777E-14
 -1      1228 1.20681E-02 1.11563E-03-9.25912E-14
 -1      1229 1.24052E-02 1.00948E-03-9.65438E-14
 -1      1230 1.27528E-02 9.23379E-04-1.00530E-13
 -1      1231 1.31003E-02 8.60972E-04-1.04555E-13
 -1      1232 1.34397E-02 8.19169E-04-1.08598E-13
 -1      1233 1.37667E-02 7.91619E-04-1.12673E-13
 -1      1234 1.40798E-02 7.71032E-04-1.16766E-13
 -1      1235 1.43802E-02 7.50481E-04-1.20876E-13
 -1      1236 1.46707E-02 7.24400E-04-1.24989E-13
 -1      1237 1.49491E-02 6.91631E-04-1.28996E-13
 -1      1238 1.51029E-02 6.31689E-04-1.30981E-13
 -1      1239 1.51428E-02 5.47322E-04-1.31096E-13
 -1      1240 1.51901E-02 4.67871E-04-1.31210E-13
 -1      1241 1.52423E-02 3.97770E-04-1.31298E-13
 -1      1242 1.52940E-02 3.39490E-04-1.31376E-13
 -1      1243 1.53385E-02 2.93822E-04-1.31476E-13
 -1      1244 1.53702E-02 2.58833E-04-1.31596E-13
 -1      1245 1.53845E-02 2.31341E-04-1.31709E-13
 -1      1246 1.53778E-02 2.07462E-04-1.31831E-13
 -1      1247 1.53497E-02 1.82467E-04-1.31946E-13
 -1      1248 1.53021E-02 1.51912E-04-1.32066E-13
 -1      1249 1.52393E-02 1.12707E-04-1.32212E-13
 -1      1250 1.51663E-02 6.26168E-05-1.32345E-13
 -1      1251 1.50877E-02 5.87920E-07-1.32460E-13
 -1      1252 1.50097E-02-7.19924E-05-1.32545E-13
 -1      1253 1.49366E-02-1.52422E-04-1.32607E-13
 -1      1254 1.48703E-02-2.36101E-04-1.32662E-13
 -1      1255 1.32685E-02 1.85347E-04-8.86897E-14
 -1      1256 1.31577E-02 3.40041E-04-8.82671E-14
 -1      1257 1.29459E-02 4.94792E-04-8.74685E-14
 -1      1258 1.26588E-02 6.44289E-04-8.63740E-14
 -1      1259 1.22861E-02 7.92351E-04-8.49132E-14
 -1      1260 1.18514E-02 9.17840E-04-8.31470E-14
 -1      1261 1.14097E-02 9.90531E-04-8.13110E-14
 -1      1262 1.09656E-02 1.00463E-03-7.94548E-14
 -1      1263 1.04981E-02 9.53691E-04-7.75202E-14
 -1      1264 1.00506E-02 8.48874E-04-7.57314E-14
 -1      1265 9.65016E-03 7.09293E-04-7.42153E-14
 -1      1266 9.29940E-03 5.50000E-04-7.29481E-14
 -1      1267 9.03118E-03 3.92092E-04-7.20138E-14
 -1      1268 8.85596E-03 2.40496E-04-7.14231E-14
 -1      1269 8.78255E-03 9.05651E-05-7.11858E-14
 -1      1270 8.82225E-03-5.85256E-05-7.13323E-14
 -1      1271 8.97407E-03-2.09730E-04-7.18736E-14
 -1      1272 9.22634E-03-3.65238E-04-7.27893E-14
 -1      1273 9.57831E-03-5.24868E-04-7.41012E-14
 -1      1274 9.99636E-03-6.65233E-04-7.57347E-14
 -1      1275 1.04457E-02-7.63306E-04-7.75701E-14
 -1      1276 1.09074E-02-8.07278E-04-7.95073E-14
 -1      1277 1.13512E-02-7.88942E-04-8.13708E-14
 -1      1278 1.18016E-02-7.10339E-04-8.32189E-14
 -1      1279 1.22279E-02-5.87317E-04-8.49098E-14
 -1      1280 1.26030E-02-4.39977E-04-8.63384E-14
 -1      1281 1.29168E-02-2.80050E-04-8.74916E-14
 -1      1282 1.31421E-02-1.21378E-04-8.82854E-14
 -1      1283 1.32627E-02 3.34832E-05-8.86917E-14
 -1      1284 1.66691E-04-1.10350E-04-2.71051E-18
 -1      1285 1.12533E-04-5.69873E-05-2.98562E-17
 -1      1286 1.17615E-04-6.75932E-05-2.23481E-17
 -1      1287 1.08410E-04-4.35093E-05-4.24601E-17
 -1      1288 1.10271E-04-4.96198E-05-3.86518E-17
 -1      1289 2.26308E-04-1.07649E-04-9.05309E-17
 -1      1290 1.06845E-04-3.36392E-05-4.92499E-17
 -1      1291 1.07687E-04-3.83643E-05-4.72983E-17
 -1      1292 2.19089E-04-8.25049E-05-1.13001E-16
 -1      1293 1.06069E-04-2.53674E-05-5.32750E-17
 -1      1294 1.06500E-04-2.94006E-05-5.22721E-17
 -1      1295 2.15880E-04-6.33185E-05-1.26066E-16
 -1      1296 1.05664E-04-1.81068E-05-5.56467E-17
 -1      1297 1.05892E-04-2.16763E-05-5.51859E-17
 -1      1298 2.14219E-04-4.72195E-05-1.33926E-16
 -1      1299 1.05446E-04-1.12500E-05-5.70290E-17
 -1      1300 1.05568E-04-1.46377E-05-5.68393E-17
 -1      1301 2.13306E-04-3.27796E-05-1.38547E-16
 -1      1302 1.05348E-04-4.69404E-06-5.74492E-17
 -1      1303 1.05400E-04-7.95020E-06-5.74492E-17
 -1      1304 2.12814E-04-1.92072E-05-1.40851E-16
 -1      1305 1.05337E-04 1.74448E-06-5.74763E-17
 -1      1306 1.05335E-04-1.47191E-06-5.75576E-17
 -1      1307 2.12603E-04-6.16619E-06-1.41637E-16
 -1      1308 1.05409E-04 8.23251E-06-5.66902E-17
 -1      1309 1.05353E-04 4.96986E-06-5.68935E-17
 -1      1310 2.12611E-04 6.71450E-06-1.40919E-16
 -1      1311 1.05585E-04 1.49454E-05-5.54840E-17
 -1      1312 1.05458E-04 1.15429E-05-5.58771E-17
 -1      1313 2.12840E-04 1.97815E-05-1.38846E-16
 -1      1314 1.05915E-04 2.19686E-05-5.32479E-17
 -1      1315 1.05682E-04 1.83755E-05-5.39797E-17
 -1      1316 2.13347E-04 3.32936E-05-1.35119E-16
 -1      1317 1.06536E-04 2.98381E-05-4.96158E-17
 -1      1318 1.06098E-04 2.57601E-05-5.08897E-17
 -1      1319 2.14282E-04 4.78288E-05-1.28966E-16
 -1      1320 1.07723E-04 3.89376E-05-4.38424E-17
 -1      1321 1.06873E-04 3.41440E-05-4.60244E-17
 -1      1322 2.15978E-04 6.42459E-05-1.19384E-16
 -1      1323 1.10259E-04 5.03627E-05-3.42201E-17
 -1      1324 1.08422E-04 4.41801E-05-3.83130E-17
 -1      1325 2.19197E-04 8.37441E-05-1.04354E-16
 -1      1326 1.16930E-04 6.76311E-05-1.82959E-17
 -1      1327 1.12180E-04 5.77889E-05-2.59395E-17
 -1      1328 2.26303E-04 1.09476E-04-8.09492E-17
 -1      1329 1.57572E-04 1.09867E-04 6.89824E-18
 -1      1330 1.35652E-04 8.61013E-05-9.09375E-18
 -1      1331 2.56020E-04 1.52117E-04-5.27464E-17
 -1      1332 3.35066E-04 2.20757E-04-1.14383E-17
 -1      1333 4.21516E-04-2.61766E-04-5.20146E-17
 -1      1334 5.74598E-04-3.36840E-04-1.14505E-16
 -1      1335 7.21768E-04-3.97454E-04-2.18263E-16
 -1      1336 8.64916E-04-4.46757E-04-3.60104E-16
 -1      1337 6.12025E-04-3.30946E-04-2.09251E-16
 -1      1338 1.00492E-03-4.87835E-04-5.38252E-16
 -1      1339 1.14274E-03-5.21824E-04-7.53710E-16
 -1      1340 9.05222E-04-4.31661E-04-5.04561E-16
 -1      1341 1.27920E-03-5.50595E-04-1.00545E-15
 -1      1342 1.41482E-03-5.74624E-04-1.29427E-15
 -1      1343 1.18761E-03-5.01084E-04-9.44991E-16
 -1      1344 1.55003E-03-5.94976E-04-1.61889E-15
 -1      1345 1.68508E-03-6.11983E-04-1.97906E-15
 -1      1346 1.46448E-03-5.49843E-04-1.52932E-15
 -1      1347 1.82023E-03-6.26274E-04-2.37555E-15
 -1      1348 1.95557E-03-6.38138E-04-2.80742E-15
 -1      1349 1.73911E-03-5.84110E-04-2.25633E-15
 -1      1350 2.09123E-03-6.47977E-04-3.27382E-15
 -1      1351 2.22726E-03-6.56038E-04-3.77557E-15
 -1      1352 2.01334E-03-6.07855E-04-3.12405E-15
 -1      1353 2.36371E-03-6.62594E-04-4.31195E-15
 -1      1354 2.50059E-03-6.67849E-04-4.88207E-15
 -1      1355 2.28817E-03-6.23880E-04-4.13049E-15
 -1      1356 2.63791E-03-6.71994E-04-5.48628E-15
 -1      1357 2.77567E-03-6.75190E-04-6.12379E-15
 -1      1358 2.56407E-03-6.34240E-04-5.27322E-15
 -1      1359 2.91387E-03-6.77573E-04-6.79371E-15
 -1      1360 3.05247E-03-6.79268E-04-7.49672E-15
 -1      1361 2.84125E-03-6.40464E-04-6.54910E-15
 -1      1362 3.19147E-03-6.80370E-04-8.23052E-15
 -1      1363 3.33085E-03-6.80973E-04-8.99561E-15
 -1      1364 3.11973E-03-6.43687E-04-7.95405E-15
 -1      1365 3.47058E-03-6.81139E-04-9.79170E-15
 -1      1366 3.61065E-03-6.80940E-04-1.06184E-14
 -1      1367 3.39945E-03-6.44735E-04-9.48334E-15
 -1      1368 3.75103E-03-6.80414E-04-1.14764E-14
 -1      1369 3.89171E-03-6.79610E-04-1.23635E-14
 -1      1370 3.68032E-03-6.44190E-04-1.11369E-14
 -1      1371 4.03266E-03-6.78548E-04-1.32794E-14
 -1      1372 4.17389E-03-6.77264E-04-1.42234E-14
 -1      1373 3.96225E-03-6.42447E-04-1.29099E-14
 -1      1374 4.31537E-03-6.75763E-04-1.51951E-14
 -1      1375 4.45710E-03-6.74070E-04-1.61947E-14
 -1      1376 4.24515E-03-6.39752E-04-1.47967E-14
 -1      1377 4.59909E-03-6.72177E-04-1.72214E-14
 -1      1378 4.74133E-03-6.70103E-04-1.82755E-14
 -1      1379 4.52898E-03-6.36239E-04-1.67949E-14
 -1      1380 4.88383E-03-6.67835E-04-1.93562E-14
 -1      1381 5.02660E-03-6.65386E-04-2.04630E-14
 -1      1382 4.81375E-03-6.31960E-04-1.89016E-14
 -1      1383 5.16968E-03-6.62738E-04-2.15963E-14
 -1      1384 5.31307E-03-6.59908E-04-2.27538E-14
 -1      1385 5.09952E-03-6.26915E-04-2.11140E-14
 -1      1386 5.45682E-03-6.56875E-04-2.39370E-14
 -1      1387 5.60096E-03-6.53664E-04-2.51447E-14
 -1      1388 5.38646E-03-6.21082E-04-2.34283E-14
 -1      1389 5.74555E-03-6.50258E-04-2.63787E-14
 -1      1390 5.89063E-03-6.46692E-04-2.76388E-14
 -1      1391 5.67480E-03-6.14448E-04-2.58436E-14
 -1      1392 6.03627E-03-6.42960E-04-2.89241E-14
 -1      1393 6.18254E-03-6.39118E-04-3.02353E-14
 -1      1394 5.96487E-03-6.07054E-04-2.83600E-14
 -1      1395 6.32953E-03-6.35177E-04-3.15715E-14
 -1      1396 6.47732E-03-6.31222E-04-3.29304E-14
 -1      1397 6.25712E-03-5.99041E-04-3.09789E-14
 -1      1398 6.62600E-03-6.27295E-04-3.43138E-14
 -1      1399 6.77568E-03-6.23519E-04-3.57220E-14
 -1      1400 6.55210E-03-5.90726E-04-3.36960E-14
 -1      1401 6.92647E-03-6.19981E-04-3.71530E-14
 -1      1402 7.07848E-03-6.16857E-04-3.86064E-14
 -1      1403 6.85045E-03-5.82679E-04-3.65089E-14
 -1      1404 7.23181E-03-6.14301E-04-4.00811E-14
 -1      1405 7.38659E-03-6.12548E-04-4.15768E-14
 -1      1406 7.15291E-03-5.75844E-04-3.94111E-14
 -1      1407 7.54290E-03-6.11845E-04-4.30926E-14
 -1      1408 7.70084E-03-6.12493E-04-4.46270E-14
 -1      1409 7.46019E-03-5.71666E-04-4.23977E-14
 -1      1410 7.86046E-03-6.14857E-04-4.61813E-14
 -1      1411 8.02179E-03-6.19301E-04-4.77560E-14
 -1      1412 7.77296E-03-5.72231E-04-4.54644E-14
 -1      1413 8.18484E-03-6.26318E-04-4.93492E-14
 -1      1414 8.34951E-03-6.36310E-04-5.09610E-14
 -1      1415 8.09162E-03-5.80374E-04-4.86081E-14
 -1      1416 8.51567E-03-6.49873E-04-5.25913E-14
 -1      1417 8.68311E-03-6.67383E-04-5.42375E-14
 -1      1418 8.41612E-03-5.99677E-04-5.18268E-14
 -1      1419 8.85151E-03-6.89443E-04-5.59017E-14
 -1      1420 9.02044E-03-7.16275E-04-5.75829E-14
 -1      1421 8.74566E-03-6.34191E-04-5.51160E-14
 -1      1422 9.18940E-03-7.48279E-04-5.92814E-14
 -1      1423 9.35773E-03-7.85313E-04-6.09967E-14
 -1      1424 9.07840E-03-6.87662E-04-5.84755E-14
 -1      1425 9.52474E-03-8.27241E-04-6.27299E-14
 -1      1426 9.68968E-03-8.73304E-04-6.44790E-14
 -1      1427 9.41125E-03-7.61997E-04-6.19025E-14
 -1      1428 9.85179E-03-9.22458E-04-6.62478E-14
 -1      1429 1.00104E-02-9.73129E-04-6.80332E-14
 -1      1430 9.74000E-03-8.54956E-04-6.53974E-14
 -1      1431 1.01650E-02-1.02321E-03-6.98347E-14
 -1      1432 1.03152E-02-1.07039E-03-7.16526E-14
 -1      1433 1.00600E-02-9.57675E-04-6.89614E-14
 -1      1434 1.04612E-02-1.11187E-03-7.34837E-14
 -1      1435 1.06033E-02-1.14522E-03-7.53306E-14
 -1      1436 1.03678E-02-1.05371E-03-7.25891E-14
 -1      1437 1.07421E-02-1.16792E-03-7.71929E-14
 -1      1438 1.08788E-02-1.17837E-03-7.90669E-14
 -1      1439 1.06630E-02-1.12184E-03-7.62779E-14
 -1      1440 1.10146E-02-1.17552E-03-8.09528E-14
 -1      1441 1.11509E-02-1.15936E-03-8.28528E-14
 -1      1442 1.09499E-02-1.14336E-03-8.00248E-14
 -1      1443 1.12889E-02-1.13085E-03-8.47634E-14
 -1      1444 1.14296E-02-1.09156E-03-8.66855E-14
 -1      1445 1.12360E-02-1.11060E-03-8.38199E-14
 -1      1446 1.15738E-02-1.04396E-03-8.86223E-14
 -1      1447 1.17219E-02-9.90419E-04-9.05735E-14
 -1      1448 1.15289E-02-1.03079E-03-8.76656E-14
 -1      1449 1.18739E-02-9.33728E-04-9.25372E-14
 -1      1450 1.20294E-02-8.76117E-04-9.45136E-14
 -1      1451 1.18328E-02-9.22254E-04-9.15640E-14
 -1      1452 1.21879E-02-8.19666E-04-9.65047E-14
 -1      1453 1.23486E-02-7.65869E-04-9.85068E-14
 -1      1454 1.21473E-02-8.05879E-04-9.55171E-14
 -1      1455 1.25110E-02-7.15710E-04-1.00519E-13
 -1      1456 1.26740E-02-6.69838E-04-1.02546E-13
 -1      1457 1.24688E-02-6.97700E-04-9.95193E-14
 -1      1458 1.28370E-02-6.28281E-04-1.04581E-13
 -1      1459 1.29994E-02-5.91033E-04-1.06624E-13
 -1      1460 1.27924E-02-6.05956E-04-1.03563E-13
 -1      1461 1.31606E-02-5.57523E-04-1.08680E-13
 -1      1462 1.33201E-02-5.27344E-04-1.10747E-13
 -1      1463 1.31138E-02-5.31931E-04-1.07650E-13
 -1      1464 1.34777E-02-4.99660E-04-1.12824E-13
 -1      1465 1.36331E-02-4.73871E-04-1.14908E-13
 -1      1466 1.34299E-02-4.72351E-04-1.11780E-13
 -1      1467 1.37864E-02-4.49090E-04-1.17002E-13
 -1      1468 1.39375E-02-4.24670E-04-1.19105E-13
 -1      1469 1.37388E-02-4.21690E-04-1.15946E-13
 -1      1470 1.40865E-02-3.99817E-04-1.21213E-13
 -1      1471 1.42337E-02-3.73938E-04-1.23324E-13
 -1      1472 1.40402E-02-3.73774E-04-1.20143E-13
 -1      1473 1.43792E-02-3.46500E-04-1.25440E-13
 -1      1474 1.45235E-02-3.17136E-04-1.27559E-13
 -1      1475 1.43347E-02-3.22869E-04-1.24363E-13
 -1      1476 1.47345E-02-2.67279E-04-1.30637E-13
 -1      1477 1.46917E-02-2.46520E-04-1.29556E-13
 -1      1478 6.43031E-04 3.72056E-04-1.13584E-16
 -1      1479 4.92920E-04 3.03722E-04-4.37340E-17
 -1      1480 4.44850E-04 2.65928E-04-7.45118E-17
 -1      1481 9.28577E-04 4.72036E-04-3.63953E-16
 -1      1482 7.87735E-04 4.26538E-04-2.20662E-16
 -1      1483 7.44679E-04 3.90771E-04-2.57186E-16
 -1      1484 1.20342E-03 5.41460E-04-7.59551E-16
 -1      1485 1.06678E-03 5.09781E-04-5.43280E-16
 -1      1486 1.03069E-03 4.76223E-04-5.84331E-16
 -1      1487 1.47390E-03 5.90643E-04-1.30054E-15
 -1      1488 1.33888E-03 5.68194E-04-1.01182E-15
 -1      1489 1.30855E-03 5.36045E-04-1.05481E-15
 -1      1490 1.74335E-03 6.25500E-04-1.98546E-15
 -1      1491 1.60858E-03 6.09622E-04-1.62489E-15
 -1      1492 1.58271E-03 5.78310E-04-1.66845E-15
 -1      1493 2.01346E-03 6.49888E-04-2.81184E-15
 -1      1494 1.87823E-03 6.38831E-04-2.38122E-15
 -1      1495 1.85580E-03 6.07986E-04-2.42398E-15
 -1      1496 2.28502E-03 6.66544E-04-3.77690E-15
 -1      1497 2.14902E-03 6.59053E-04-3.27710E-15
 -1      1498 2.12922E-03 6.28446E-04-3.31911E-15
 -1      1499 2.55837E-03 6.77491E-04-4.87884E-15
 -1      1500 2.42146E-03 6.72632E-04-4.31080E-15
 -1      1501 2.40368E-03 6.42124E-04-4.35126E-15
 -1      1502 2.83356E-03 6.84249E-04-6.11868E-15
 -1      1503 2.69574E-03 6.81318E-04-5.48182E-15
 -1      1504 2.67949E-03 6.50826E-04-5.51902E-15
 -1      1505 3.11050E-03 6.87948E-04-7.49189E-15
 -1      1506 2.97182E-03 6.86424E-04-6.78906E-15
 -1      1507 2.95672E-03 6.55900E-04-6.82176E-15
 -1      1508 3.38903E-03 6.89418E-04-8.99439E-15
 -1      1509 3.24957E-03 6.88921E-04-8.22695E-15
 -1      1510 3.23535E-03 6.58339E-04-8.25484E-15
 -1      1511 3.66898E-03 6.89251E-04-1.06227E-14
 -1      1512 3.52884E-03 6.89510E-04-9.79273E-15
 -1      1513 3.51527E-03 6.58861E-04-9.81474E-15
 -1      1514 3.95018E-03 6.87848E-04-1.23773E-14
 -1      1515 3.80944E-03 6.88685E-04-1.14844E-14
 -1      1516 3.79637E-03 6.57964E-04-1.15015E-14
 -1      1517 4.23250E-03 6.85466E-04-1.42542E-14
 -1      1518 4.09121E-03 6.86767E-04-1.33003E-14
 -1      1519 4.07852E-03 6.55978E-04-1.33112E-14
 -1      1520 4.51586E-03 6.82246E-04-1.62500E-14
 -1      1521 4.37405E-03 6.83953E-04-1.52376E-14
 -1      1522 4.36166E-03 6.53096E-04-1.52406E-14
 -1      1523 4.80023E-03 6.78247E-04-1.83599E-14
 -1      1524 4.65791E-03 6.80340E-04-1.72917E-14
 -1      1525 4.64576E-03 6.49414E-04-1.72869E-14
 -1      1526 5.08568E-03 6.73474E-04-2.05726E-14
 -1      1527 4.94281E-03 6.75954E-04-1.94537E-14
 -1      1528 4.93084E-03 6.44953E-04-1.94422E-14
 -1      1529 5.37239E-03 6.67904E-04-2.28905E-14
 -1      1530 5.22887E-03 6.70784E-04-2.17185E-14
 -1      1531 5.21702E-03 6.39691E-04-2.17012E-14
 -1      1532 5.66061E-03 6.61518E-04-2.53148E-14
 -1      1533 5.51629E-03 6.64803E-04-2.40896E-14
 -1      1534 5.50450E-03 6.33594E-04-2.40644E-14
 -1      1535 5.95076E-03 6.54342E-04-2.78353E-14
 -1      1536 5.80542E-03 6.58011E-04-2.65629E-14
 -1      1537 5.79358E-03 6.26643E-04-2.65310E-14
 -1      1538 6.24339E-03 6.46495E-04-3.04533E-14
 -1      1539 6.09673E-03 6.50472E-04-2.91323E-14
 -1      1540 6.08469E-03 6.18884E-04-2.90943E-14
 -1      1541 6.53923E-03 6.38255E-04-3.31667E-14
 -1      1542 6.39086E-03 6.42376E-04-3.17980E-14
 -1      1543 6.37839E-03 6.10482E-04-3.17547E-14
 -1      1544 6.83918E-03 6.30151E-04-3.59779E-14
 -1      1545 6.68864E-03 6.34113E-04-3.45611E-14
 -1      1546 6.67540E-03 6.01799E-04-3.45105E-14
 -1      1547 7.14431E-03 6.23084E-04-3.88767E-14
 -1      1548 6.99103E-03 6.26381E-04-3.74168E-14
 -1      1549 6.97655E-03 5.93498E-04-3.73586E-14
 -1      1550 7.45580E-03 6.18485E-04-4.18520E-14
 -1      1551 7.29918E-03 6.20327E-04-4.03545E-14
 -1      1552 7.28283E-03 5.86685E-04-4.02901E-14
 -1      1553 7.77486E-03 6.18508E-04-4.49038E-14
 -1      1554 7.61430E-03 6.17720E-04-4.33686E-14
 -1      1555 7.59526E-03 5.83091E-04-4.32983E-14
 -1      1556 8.10252E-03 6.26236E-04-4.80320E-14
 -1      1557 7.93755E-03 6.21159E-04-4.64583E-14
 -1      1558 7.91481E-03 5.85280E-04-4.63832E-14
 -1      1559 8.43928E-03 6.45820E-04-5.12335E-14
 -1      1560 8.26974E-03 6.34257E-04-4.96235E-14
 -1      1561 8.24218E-03 5.96856E-04-4.95425E-14
 -1      1562 8.78458E-03 6.82403E-04-5.44987E-14
 -1      1563 8.61092E-03 6.61704E-04-5.28586E-14
 -1      1564 8.57748E-03 6.22544E-04-5.27704E-14
 -1      1565 9.13619E-03 7.41480E-04-5.78237E-14
 -1      1566 8.95980E-03 7.08943E-04-5.61554E-14
 -1      1567 8.91981E-03 6.67927E-04-5.60621E-14
 -1      1568 9.48957E-03 8.27274E-04-6.11980E-14
 -1      1569 9.31303E-03 7.81104E-04-5.95043E-14
 -1      1570 9.26672E-03 7.38426E-04-5.94069E-14
 -1      1571 9.83778E-03 9.39737E-04-6.46285E-14
 -1      1572 9.66486E-03 8.80695E-04-6.29055E-14
 -1      1573 9.61393E-03 8.37050E-04-6.28074E-14
 -1      1574 1.01725E-02 1.07063E-03-6.81197E-14
 -1      1575 1.00074E-02 1.00401E-03-6.63647E-14
 -1      1576 9.95541E-03 9.60745E-04-6.62642E-14
 -1      1577 1.04870E-02 1.20080E-03-7.16770E-14
 -1      1578 1.03326E-02 1.13744E-03-6.98901E-14
 -1      1579 1.02846E-02 1.09643E-03-6.97863E-14
 -1      1580 1.07796E-02 1.30257E-03-7.53120E-14
 -1      1581 1.06358E-02 1.25689E-03-7.34861E-14
 -1      1582 1.05973E-02 1.21984E-03-7.33791E-14
 -1      1583 1.10572E-02 1.34957E-03-7.90182E-14
 -1      1584 1.09195E-02 1.33381E-03-7.71545E-14
 -1      1585 1.08947E-02 1.30129E-03-7.70422E-14
 -1      1586 1.13331E-02 1.32984E-03-8.27884E-14
 -1      1587 1.11943E-02 1.34764E-03-8.08978E-14
 -1      1588 1.11844E-02 1.31850E-03-8.07765E-14
 -1      1589 1.16209E-02 1.25264E-03-8.66158E-14
 -1      1590 1.14747E-02 1.29692E-03-8.46957E-14
 -1      1591 1.14779E-02 1.26892E-03-8.45704E-14
 -1      1592 1.19282E-02 1.14296E-03-9.04993E-14
 -1      1593 1.17719E-02 1.20003E-03-8.85505E-14
 -1      1594 1.17841E-02 1.17109E-03-8.84227E-14
 -1      1595 1.22545E-02 1.02858E-03-9.44310E-14
 -1      1596 1.20893E-02 1.08496E-03-9.24593E-14
 -1      1597 1.21054E-02 1.05407E-03-9.23265E-14
 -1      1598 1.25929E-02 9.29439E-04-9.83978E-14
 -1      1599 1.24227E-02 9.76445E-04-9.64102E-14
 -1      1600 1.24381E-02 9.43622E-04-9.62750E-14
 -1      1601 1.29349E-02 8.54238E-04-1.02400E-13
 -1      1602 1.27640E-02 8.88804E-04-1.00393E-13
 -1      1603 1.27759E-02 8.54681E-04-1.00257E-13
 -1      1604 1.32731E-02 8.02735E-04-1.06432E-13
 -1      1605 1.31049E-02 8.25843E-04-1.04414E-13
 -1      1606 1.31123E-02 7.91216E-04-1.04273E-13
 -1      1607 1.36025E-02 7.69620E-04-1.10489E-13
 -1      1608 1.34392E-02 7.84341E-04-1.08458E-13
 -1      1609 1.34423E-02 7.49920E-04-1.08314E-13
 -1      1610 1.39206E-02 7.47602E-04-1.14569E-13
 -1      1611 1.37630E-02 7.57698E-04-1.12526E-13
 -1      1612 1.37633E-02 7.24016E-04-1.12379E-13
 -1      1613 1.42272E-02 7.29221E-04-1.18669E-13
 -1      1614 1.40753E-02 7.38374E-04-1.16617E-13
 -1      1615 1.40742E-02 7.05777E-04-1.16465E-13
 -1      1616 1.45238E-02 7.07838E-04-1.22777E-13
 -1      1617 1.43766E-02 7.19221E-04-1.20722E-13
 -1      1618 1.43756E-02 6.87876E-04-1.20569E-13
 -1      1619 1.48132E-02 6.78793E-04-1.26887E-13
 -1      1620 1.46691E-02 6.94379E-04-1.24833E-13
 -1      1621 1.46690E-02 6.64249E-04-1.24677E-13
 -1      1622 1.49671E-02 6.49583E-04-1.29036E-13
 -1      1623 1.50305E-02 5.45248E-04-1.29340E-13
 -1      1624 1.50084E-02 5.85602E-04-1.29284E-13
 -1      1625 1.50805E-02 4.69343E-04-1.29441E-13
 -1      1626 1.50547E-02 5.06370E-04-1.29392E-13
 -1      1627 1.49192E-02 5.41666E-04-1.27579E-13
 -1      1628 1.51347E-02 4.01939E-04-1.29530E-13
 -1      1629 1.51074E-02 4.34457E-04-1.29486E-13
 -1      1630 1.49719E-02 4.67715E-04-1.27675E-13
 -1      1631 1.51869E-02 3.44422E-04-1.29617E-13
 -1      1632 1.51614E-02 3.71912E-04-1.29573E-13
 -1      1633 1.50275E-02 4.01538E-04-1.27766E-13
 -1      1634 1.52298E-02 2.97459E-04-1.29721E-13
 -1      1635 1.52097E-02 3.19811E-04-1.29667E-13
 -1      1636 1.50791E-02 3.44267E-04-1.27859E-13
 -1      1637 1.52589E-02 2.57942E-04-1.29834E-13
 -1      1638 1.52465E-02 2.76801E-04-1.29776E-13
 -1      1639 1.51204E-02 2.94900E-04-1.27961E-13
 -1      1640 1.52687E-02 2.24008E-04-1.29943E-13
 -1      1641 1.52664E-02 2.40481E-04-1.29891E-13
 -1      1642 1.51459E-02 2.51587E-04-1.28068E-13
 -1      1643 1.52566E-02 1.92070E-04-1.30065E-13
 -1      1644 1.52654E-02 2.08024E-04-1.30003E-13
 -1      1645 1.51508E-02 2.12253E-04-1.28180E-13
 -1      1646 1.52228E-02 1.58284E-04-1.30175E-13
 -1      1647 1.52423E-02 1.75634E-04-1.30122E-13
 -1      1648 1.51331E-02 1.73768E-04-1.28294E-13
 -1      1649 1.51698E-02 1.19176E-04-1.30300E-13
 -1      1650 1.51985E-02 1.39578E-04-1.30236E-13
 -1      1651 1.50935E-02 1.32916E-04-1.28408E-13
 -1      1652 1.51032E-02 7.30367E-05-1.30430E-13
 -1      1653 1.51380E-02 9.71707E-05-1.30366E-13
 -1      1654 1.50359E-02 8.73403E-05-1.28526E-13
 -1      1655 1.50263E-02 1.68960E-05-1.30545E-13
 -1      1656 1.50655E-02 4.61631E-05-1.30490E-13
 -1      1657 1.49648E-02 3.48302E-05-1.28642E-13
 -1      1658 1.49460E-02-4.86508E-05-1.30647E-13
 -1      1659 1.49862E-02-1.47400E-05-1.30600E-13
 -1      1660 1.48852E-02-2.60472E-05-1.28744E-13
 -1      1661 1.48677E-02-1.22509E-04-1.30720E-13
 -1      1662 1.49063E-02-8.46575E-05-1.30687E-13
 -1      1663 1.48038E-02-9.47562E-05-1.28831E-13
 -1      1664 1.47608E-02-2.04103E-04-1.30154E-13
 -1      1665 1.47963E-02-1.63712E-04-1.30125E-13
 -1      1666 1.46916E-02-1.71563E-04-1.28272E-13
 -1      1667 1.45493E-02-2.53190E-04-1.27080E-13
 -1      1668 1.32649E-02 1.84957E-04-8.94246E-14
 -1      1669 1.32947E-02 1.39052E-04-8.95321E-14
 -1      1670 1.30968E-02 2.99222E-04-8.89027E-14
 -1      1671 1.31915E-02 2.42635E-04-8.92225E-14
 -1      1672 1.28290E-02 4.42606E-04-8.79111E-14
 -1      1673 1.29615E-02 3.75949E-04-8.83819E-14
 -1      1674 1.24925E-02 6.06796E-04-8.66404E-14
 -1      1675 1.26546E-02 5.28368E-04-8.72627E-14
 -1      1676 1.20706E-02 7.88498E-04-8.50166E-14
 -1      1677 1.22649E-02 6.98420E-04-8.58603E-14
 -1      1678 1.16710E-02 9.53419E-04-8.29547E-14
 -1      1679 1.18620E-02 8.87368E-04-8.38663E-14
 -1      1680 1.12747E-02 1.04266E-03-8.09791E-14
 -1      1681 1.14511E-02 1.01153E-03-8.18913E-14
 -1      1682 1.08886E-02 1.04558E-03-7.89545E-14
 -1      1683 1.10663E-02 1.05568E-03-7.98849E-14
 -1      1684 1.04758E-02 9.52719E-04-7.68120E-14
 -1      1685 1.06711E-02 1.00965E-03-7.77934E-14
 -1      1686 1.00557E-02 7.95646E-04-7.50169E-14
 -1      1687 1.02381E-02 8.71775E-04-7.58101E-14
 -1      1688 9.65400E-03 6.09602E-04-7.34301E-14
 -1      1689 9.83970E-03 6.98389E-04-7.41378E-14
 -1      1690 9.29012E-03 4.30210E-04-7.21464E-14
 -1      1691 9.45103E-03 5.10359E-04-7.26943E-14
 -1      1692 9.00548E-03 2.81834E-04-7.12323E-14
 -1      1693 9.12564E-03 3.45933E-04-7.16068E-14
 -1      1694 8.82294E-03 1.60980E-04-7.06413E-14
 -1      1695 8.89379E-03 2.11147E-04-7.08458E-14
 -1      1696 8.76349E-03 6.02127E-05-7.04356E-14
 -1      1697 8.77354E-03 1.04102E-04-7.04585E-14
 -1      1698 8.84488E-03-4.09656E-05-7.07379E-14
 -1      1699 8.79078E-03 6.02209E-06-7.05691E-14
 -1      1700 9.05990E-03-1.56453E-04-7.13320E-14
 -1      1701 8.94587E-03-9.70065E-05-7.09658E-14
 -1      1702 9.36553E-03-3.23864E-04-7.25247E-14
 -1      1703 9.21180E-03-2.49136E-04-7.19914E-14
 -1      1704 9.76845E-03-5.13557E-04-7.40615E-14
 -1      1705 9.57007E-03-4.22084E-04-7.32892E-14
 -1      1706 1.01838E-02-6.86228E-04-7.58434E-14
 -1      1707 9.99591E-03-6.11166E-04-7.50064E-14
 -1      1708 1.06155E-02-8.16177E-04-7.78538E-14
 -1      1709 1.04227E-02-7.63315E-04-7.68728E-14
 -1      1710 1.10077E-02-8.56721E-04-7.99519E-14
 -1      1711 1.08312E-02-8.48537E-04-7.90158E-14
 -1      1712 1.13970E-02-8.07835E-04-8.19610E-14
 -1      1713 1.12173E-02-8.40131E-04-8.10422E-14
 -1      1714 1.18033E-02-6.77917E-04-8.40093E-14
 -1      1715 1.16096E-02-7.48781E-04-8.30861E-14
 -1      1716 1.22137E-02-5.04626E-04-8.57615E-14
 -1      1717 1.20314E-02-5.86972E-04-8.49934E-14
 -1      1718 1.26060E-02-3.25448E-04-8.72210E-14
 -1      1719 1.24305E-02-4.09698E-04-8.65655E-14
 -1      1720 1.29360E-02-1.56043E-04-8.84334E-14
 -1      1721 1.27908E-02-2.28383E-04-8.79442E-14
 -1      1722 1.31761E-02-2.33148E-05-8.91995E-14
 -1      1723 1.30793E-02-8.01923E-05-8.89027E-14
 -1      1724 1.32914E-02 8.47323E-05-8.95386E-14
 -1      1725 1.32552E-02 3.74085E-05-8.94365E-14
 -1      1726 1.23096E-02 6.13460E-04-8.67798E-14
 -1      1727 1.26985E-02 4.31013E-04-8.82145E-14
 -1      1728 1.49679E-02 6.20225E-04-1.28883E-13
 -1      1729 1.48539E-02 6.14853E-04-1.27129E-13
 -1      1730 1.32302E-02 1.84841E-04-9.01154E-14
 -1      1731 1.30133E-02 2.84761E-04-8.93881E-14
 -1      1732 1.33034E-02 1.13608E-04-9.03276E-14
 -1      1733 1.19083E-02 8.22708E-04-8.48439E-14
 -1      1734 1.15189E-02 9.93739E-04-8.26274E-14
 -1      1735 1.11589E-02 1.07550E-03-8.04714E-14
 -1      1736 1.08001E-02 1.05005E-03-7.82200E-14
 -1      1737 1.04216E-02 9.16006E-04-7.60658E-14
 -1      1738 1.00099E-02 7.20611E-04-7.41930E-14
 -1      1739 9.60859E-03 5.13179E-04-7.25851E-14
 -1      1740 9.24265E-03 3.33438E-04-7.13187E-14
 -1      1741 8.95972E-03 1.99620E-04-7.04004E-14
 -1      1742 8.79111E-03 1.09425E-04-6.98373E-14
 -1      1743 8.76776E-03 4.47755E-05-6.97908E-14
 -1      1744 8.90057E-03-3.06632E-05-7.01494E-14
 -1      1745 9.16286E-03-1.47301E-04-7.10280E-14
 -1      1746 9.52185E-03-3.28236E-04-7.24440E-14
 -1      1747 9.93793E-03-5.34645E-04-7.41443E-14
 -1      1748 1.03633E-02-7.27209E-04-7.61104E-14
 -1      1749 1.07421E-02-8.54446E-04-7.82963E-14
 -1      1750 1.10992E-02-8.74219E-04-8.05490E-14
 -1      1751 1.14635E-02-7.89627E-04-8.27656E-14
 -1      1752 1.18483E-02-6.19502E-04-8.48812E-14
 -1      1753 1.22602E-02-4.16512E-04-8.66749E-14
 -1      1754 1.26539E-02-2.21534E-04-8.82055E-14
 -1      1755 1.29875E-02-6.47792E-05-8.93970E-14
 -1      1756 1.32175E-02 4.03724E-05-9.00996E-14
 -1      1757 2.85223E-04-1.76250E-04-4.93583E-17
 -1      1758 3.32138E-04-1.16834E-04-1.80384E-16
 -1      1759 3.36233E-04-1.33036E-04-1.67984E-16
 -1      1760 3.42181E-04-1.52037E-04-1.53022E-16
 -1      1761 3.51740E-04-1.74043E-04-1.32042E-16
 -1      1762 4.58273E-04-1.88115E-04-2.43376E-16
 -1      1763 3.24572E-04-6.54178E-05-2.07042E-16
 -1      1764 3.25713E-04-7.67144E-05-2.02570E-16
 -1      1765 3.23096E-04-4.39152E-05-2.12802E-16
 -1      1766 3.23742E-04-5.44089E-05-2.10267E-16
 -1      1767 4.36527E-04-7.93292E-05-3.08090E-16
 -1      1768 3.22321E-04-2.37865E-05-2.15472E-16
 -1      1769 3.22649E-04-3.37053E-05-2.14442E-16
 -1      1770 4.34549E-04-5.13448E-05-3.14879E-16
 -1      1771 3.22032E-04-4.34005E-06-2.16312E-16
 -1      1772 3.22127E-04-1.39984E-05-2.16136E-16
 -1      1773 4.33541E-04-2.49379E-05-3.18200E-16
 -1      1774 3.22152E-04 1.49901E-05-2.14631E-16
 -1      1775 3.22040E-04 5.32163E-06-2.15824E-16
 -1      1776 4.33247E-04 7.57642E-07-3.18403E-16
 -1      1777 3.22712E-04 3.47504E-05-2.10999E-16
 -1      1778 3.22364E-04 2.47990E-05-2.13100E-16
 -1      1779 4.33599E-04 2.64820E-05-3.15422E-16
 -1      1780 3.23830E-04 5.51967E-05-2.04575E-16
 -1      1781 3.23173E-04 4.48299E-05-2.08262E-16
 -1      1782 4.34665E-04 5.27502E-05-3.09201E-16
 -1      1783 3.25873E-04 7.78540E-05-1.94465E-16
 -1      1784 3.24683E-04 6.62705E-05-2.00171E-16
 -1      1785 4.36703E-04 8.06398E-05-2.99145E-16
 -1      1786 3.29546E-04 1.03694E-04-1.78866E-16
 -1      1787 3.27406E-04 9.03434E-05-1.87811E-16
 -1      1788 4.40331E-04 1.11616E-04-2.83587E-16
 -1      1789 3.36563E-04 1.35150E-04-1.54160E-16
 -1      1790 3.32389E-04 1.18653E-04-1.68065E-16
 -1      1791 4.46778E-04 1.47386E-04-2.59585E-16
 -1      1792 3.52276E-04 1.77638E-04-1.16226E-16
 -1      1793 3.42787E-04 1.54796E-04-1.37626E-16
 -1      1794 4.59291E-04 1.91505E-04-2.22898E-16
 -1      1795 4.07667E-04 2.33717E-04-9.08697E-17
 -1      1796 3.78060E-04 2.02695E-04-1.07892E-16
 -1      1797 4.95817E-04 2.44039E-04-1.90630E-16
 -1      1798 5.58500E-04 3.02545E-04-1.65544E-16
 -1      1799 3.39998E-04-1.90936E-04-9.25638E-17
 -1      1800 8.53490E-04 4.07172E-04-4.24370E-16
 -1      1801 7.07102E-04 3.59425E-04-2.77447E-16
 -1      1802 6.73344E-04 3.28860E-04-2.93358E-16
 -1      1803 4.58924E-04-2.36760E-04-1.70667E-16
 -1      1804 8.07163E-04-3.74177E-04-4.66004E-16
 -1      1805 9.52412E-04-4.15363E-04-6.55753E-16
 -1      1806 1.09523E-03-4.50047E-04-8.80575E-16
 -1      1807 1.23688E-03-4.78937E-04-1.14133E-15
 -1      1808 1.00385E-03-3.97983E-04-8.13125E-16
 -1      1809 1.37727E-03-5.03410E-04-1.43718E-15
 -1      1810 1.51693E-03-5.23765E-04-1.76889E-15
 -1      1811 1.28950E-03-4.55933E-04-1.34295E-15
 -1      1812 1.65607E-03-5.40921E-04-2.13565E-15
 -1      1813 1.79488E-03-5.55113E-04-2.53711E-15
 -1      1814 1.57187E-03-4.96846E-04-2.01283E-15
 -1      1815 1.93357E-03-5.66949E-04-2.97315E-15
 -1      1816 2.07220E-03-5.76631E-04-3.44347E-15
 -1      1817 1.85245E-03-5.25327E-04-2.82122E-15
 -1      1818 2.21092E-03-5.84574E-04-3.94860E-15
 -1      1819 2.34972E-03-5.90947E-04-4.48751E-15
 -1      1820 2.13230E-03-5.44700E-04-3.76641E-15
 -1      1821 2.48873E-03-5.96043E-04-5.05997E-15
 -1      1822 2.62791E-03-6.00001E-04-5.66577E-15
 -1      1823 2.41212E-03-5.57403E-04-4.84672E-15
 -1      1824 2.76734E-03-6.03028E-04-6.30465E-15
 -1      1825 2.90699E-03-6.05233E-04-6.97524E-15
 -1      1826 2.69230E-03-5.65248E-04-6.06001E-15
 -1      1827 3.04689E-03-6.06763E-04-7.67799E-15
 -1      1828 3.18702E-03-6.07702E-04-8.41177E-15
 -1      1829 2.97307E-03-5.69576E-04-7.40285E-15
 -1      1830 3.32741E-03-6.08152E-04-9.17688E-15
 -1      1831 3.46801E-03-6.08175E-04-9.97252E-15
 -1      1832 3.25452E-03-5.71371E-04-8.87100E-15
 -1      1833 3.60886E-03-6.07836E-04-1.07990E-14
 -1      1834 3.74991E-03-6.07182E-04-1.16558E-14
 -1      1835 3.53667E-03-5.71334E-04-1.04627E-14
 -1      1836 3.89119E-03-6.06252E-04-1.25413E-14
 -1      1837 4.03267E-03-6.05077E-04-1.34563E-14
 -1      1838 3.81952E-03-5.69950E-04-1.21742E-14
 -1      1839 4.17437E-03-6.03676E-04-1.43994E-14
 -1      1840 4.31626E-03-6.02070E-04-1.53706E-14
 -1      1841 4.10305E-03-5.67527E-04-1.40028E-14
 -1      1842 4.45835E-03-6.00262E-04-1.63690E-14
 -1      1843 4.60065E-03-5.98266E-04-1.73952E-14
 -1      1844 4.38725E-03-5.64244E-04-1.59445E-14
 -1      1845 4.74316E-03-5.96074E-04-1.84487E-14
 -1      1846 4.88589E-03-5.93696E-04-1.95278E-14
 -1      1847 4.67213E-03-5.60179E-04-1.79959E-14
 -1      1848 5.02885E-03-5.91115E-04-2.06323E-14
 -1      1849 5.17206E-03-5.88341E-04-2.17635E-14
 -1      1850 4.95775E-03-5.55343E-04-2.01531E-14
 -1      1851 5.31554E-03-5.85355E-04-2.29205E-14
 -1      1852 5.45932E-03-5.82169E-04-2.41018E-14
 -1      1853 5.24420E-03-5.49703E-04-2.24132E-14
 -1      1854 5.60342E-03-5.78767E-04-2.53089E-14
 -1      1855 5.74790E-03-5.75166E-04-2.65410E-14
 -1      1856 5.53162E-03-5.43220E-04-2.47758E-14
 -1      1857 5.89276E-03-5.71359E-04-2.77975E-14
 -1      1858 6.03810E-03-5.67378E-04-2.90806E-14
 -1      1859 5.82021E-03-5.35881E-04-2.72376E-14
 -1      1860 6.18392E-03-5.63232E-04-3.03899E-14
 -1      1861 6.33033E-03-5.58970E-04-3.17230E-14
 -1      1862 6.11026E-03-5.27744E-04-2.98020E-14
 -1      1863 6.47733E-03-5.54633E-04-3.30803E-14
 -1      1864 6.62506E-03-5.50296E-04-3.44615E-14
 -1      1865 6.40210E-03-5.18999E-04-3.24660E-14
 -1      1866 6.77352E-03-5.46045E-04-3.58656E-14
 -1      1867 6.92287E-03-5.41993E-04-3.72931E-14
 -1      1868 6.69616E-03-5.10042E-04-3.52265E-14
 -1      1869 7.07310E-03-5.38290E-04-3.87427E-14
 -1      1870 7.22437E-03-5.35098E-04-4.02139E-14
 -1      1871 6.99293E-03-5.01578E-04-3.80770E-14
 -1      1872 7.37669E-03-5.32657E-04-4.17051E-14
 -1      1873 7.53020E-03-5.31191E-04-4.32166E-14
 -1      1874 7.29295E-03-4.94736E-04-4.10151E-14
 -1      1875 7.68491E-03-5.31049E-04-4.47491E-14
 -1      1876 7.84093E-03-5.32529E-04-4.63000E-14
 -1      1877 7.59681E-03-4.91218E-04-4.40355E-14
 -1      1878 7.99828E-03-5.36104E-04-4.78698E-14
 -1      1879 8.15697E-03-5.42150E-04-4.94590E-14
 -1      1880 7.90512E-03-4.93433E-04-4.71342E-14
 -1      1881 8.31707E-03-5.51251E-04-5.10666E-14
 -1      1882 8.47839E-03-5.63841E-04-5.26918E-14
 -1      1883 8.21843E-03-5.04592E-04-5.03094E-14
 -1      1884 8.64112E-03-5.80543E-04-5.43347E-14
 -1      1885 8.80475E-03-6.01790E-04-5.59940E-14
 -1      1886 8.53715E-03-5.28644E-04-5.35557E-14
 -1      1887 8.96959E-03-6.28081E-04-5.76711E-14
 -1      1888 9.13477E-03-6.59696E-04-5.93658E-14
 -1      1889 8.86138E-03-5.69894E-04-5.68703E-14
 -1      1890 9.30068E-03-6.96738E-04-6.10777E-14
 -1      1891 9.46609E-03-7.39057E-04-6.28055E-14
 -1      1892 9.19050E-03-6.32019E-04-6.02553E-14
 -1      1893 9.63138E-03-7.86000E-04-6.45497E-14
 -1      1894 9.79515E-03-8.36634E-04-6.63119E-14
 -1      1895 9.52271E-03-7.16188E-04-6.37057E-14
 -1      1896 9.95759E-03-8.89262E-04-6.80914E-14
 -1      1897 1.01176E-02-9.41879E-04-6.98853E-14
 -1      1898 9.85455E-03-8.18263E-04-6.72240E-14
 -1      1899 1.02751E-02-9.91809E-04-7.16977E-14
 -1      1900 1.04300E-02-1.03621E-03-7.35241E-14
 -1      1901 1.01812E-02-9.25905E-04-7.08071E-14
 -1      1902 1.05817E-02-1.07212E-03-7.53654E-14
 -1      1903 1.07317E-02-1.09687E-03-7.72242E-14
 -1      1904 1.04984E-02-1.01806E-03-7.44571E-14
 -1      1905 1.08794E-02-1.10844E-03-7.90952E-14
 -1      1906 1.10272E-02-1.10570E-03-8.09798E-14
 -1      1907 1.08057E-02-1.07009E-03-7.81671E-14
 -1      1908 1.11745E-02-1.08859E-03-8.28754E-14
 -1      1909 1.13239E-02-1.05824E-03-8.47854E-14
 -1      1910 1.11083E-02-1.06466E-03-8.19330E-14
 -1      1911 1.14747E-02-1.01659E-03-8.67095E-14
 -1      1912 1.16282E-02-9.66252E-04-8.86441E-14
 -1      1913 1.14145E-02-1.00155E-03-8.57520E-14
 -1      1914 1.17840E-02-9.10163E-04-9.05942E-14
 -1      1915 1.19420E-02-8.51117E-04-9.25552E-14
 -1      1916 1.17295E-02-8.97656E-04-8.96221E-14
 -1      1917 1.21022E-02-7.91756E-04-9.45303E-14
 -1      1918 1.22632E-02-7.34034E-04-9.65190E-14
 -1      1919 1.20529E-02-7.77260E-04-9.35459E-14
 -1      1920 1.24255E-02-6.79585E-04-9.85186E-14
 -1      1921 1.25874E-02-6.29283E-04-1.00529E-13
 -1      1922 1.23804E-02-6.61127E-04-9.75203E-14
 -1      1923 1.27495E-02-5.83674E-04-1.02549E-13
 -1      1924 1.29104E-02-5.42798E-04-1.04580E-13
 -1      1925 1.27070E-02-5.61147E-04-1.01537E-13
 -1      1926 1.30705E-02-5.06388E-04-1.06625E-13
 -1      1927 1.32289E-02-4.74021E-04-1.08678E-13
 -1      1928 1.30292E-02-4.80696E-04-1.05597E-13
 -1      1929 1.33860E-02-4.44966E-04-1.10739E-13
 -1      1930 1.35412E-02-4.18606E-04-1.12811E-13
 -1      1931 1.33451E-02-4.17440E-04-1.09700E-13
 -1      1932 1.36948E-02-3.94028E-04-1.14891E-13
 -1      1933 1.38466E-02-3.70565E-04-1.16979E-13
 -1      1934 1.36540E-02-3.66132E-04-1.13837E-13
 -1      1935 1.39967E-02-3.47326E-04-1.19077E-13
 -1      1936 1.41452E-02-3.23653E-04-1.21181E-13
 -1      1937 1.39560E-02-3.20500E-04-1.18012E-13
 -1      1938 1.42755E-02-3.03178E-04-1.23069E-13
 -1      1939 1.44213E-02-2.76820E-04-1.25182E-13
 -1      1940 1.44925E-02-2.35924E-04-1.25779E-13
 -1      1941 1.42350E-02-2.78543E-04-1.21995E-13
 -1      1942 1.13850E-03 4.80136E-04-8.22950E-16
 -1      1943 9.96753E-04 4.46887E-04-6.05649E-16
 -1      1944 9.64381E-04 4.17435E-04-6.22874E-16
 -1      1945 1.41757E-03 5.31600E-04-1.36403E-15
 -1      1946 1.27844E-03 5.08163E-04-1.07566E-15
 -1      1947 1.24882E-03 4.80031E-04-1.09228E-15
 -1      1948 1.69389E-03 5.67852E-04-2.04632E-15
 -1      1949 1.55589E-03 5.51383E-04-1.68747E-15
 -1      1950 1.52904E-03 5.24218E-04-1.70254E-15
 -1      1951 1.96939E-03 5.93061E-04-2.86910E-15
 -1      1952 1.83165E-03 5.81667E-04-2.44031E-15
 -1      1953 1.80723E-03 5.55143E-04-2.45268E-15
 -1      1954 2.24514E-03 6.10169E-04-3.82935E-15
 -1      1955 2.10719E-03 6.02503E-04-3.33200E-15
 -1      1956 2.08479E-03 5.76388E-04-3.34123E-15
 -1      1957 2.52172E-03 6.21337E-04-4.92497E-15
 -1      1958 2.38331E-03 6.16404E-04-4.36055E-15
 -1      1959 2.36254E-03 5.90540E-04-4.36558E-15
 -1      1960 2.79937E-03 6.28170E-04-6.15488E-15
 -1      1961 2.66040E-03 6.25227E-04-5.52298E-15
 -1      1962 2.64093E-03 5.99510E-04-5.52355E-15
 -1      1963 3.07818E-03 6.31856E-04-7.51730E-15
 -1      1964 2.93863E-03 6.30356E-04-6.81993E-15
 -1      1965 2.92018E-03 6.04717E-04-6.81435E-15
 -1      1966 3.35813E-03 6.33265E-04-9.00775E-15
 -1      1967 3.21802E-03 6.32809E-04-8.24660E-15
 -1      1968 3.20036E-03 6.07204E-04-8.23519E-15
 -1      1969 3.63916E-03 6.33012E-04-1.06244E-14
 -1      1970 3.49852E-03 6.33321E-04-9.80040E-15
 -1      1971 3.48147E-03 6.07724E-04-9.78232E-15
 -1      1972 3.92118E-03 6.31514E-04-1.23660E-14
 -1      1973 3.78005E-03 6.32402E-04-1.14795E-14
 -1      1974 3.76348E-03 6.06797E-04-1.14548E-14
 -1      1975 4.20412E-03 6.29035E-04-1.42289E-14
 -1      1976 4.06254E-03 6.30388E-04-1.32827E-14
 -1      1977 4.04632E-03 6.04768E-04-1.32505E-14
 -1      1978 4.48795E-03 6.25716E-04-1.62090E-14
 -1      1979 4.34593E-03 6.27475E-04-1.52046E-14
 -1      1980 4.32998E-03 6.01838E-04-1.51655E-14
 -1      1981 4.77268E-03 6.21611E-04-1.83035E-14
 -1      1982 4.63021E-03 6.23760E-04-1.72425E-14
 -1      1983 4.61444E-03 5.98102E-04-1.71955E-14
 -1      1984 5.05838E-03 6.16715E-04-2.05022E-14
 -1      1985 4.91540E-03 6.19261E-04-1.93895E-14
 -1      1986 4.89974E-03 5.93581E-04-1.93348E-14
 -1      1987 5.34517E-03 6.10986E-04-2.28061E-14
 -1      1988 5.20163E-03 6.13953E-04-2.16418E-14
 -1      1989 5.18597E-03 5.88243E-04-2.15791E-14
 -1      1990 5.63330E-03 6.04386E-04-2.52150E-14
 -1      1991 5.48905E-03 6.07791E-04-2.39968E-14
 -1      1992 5.47331E-03 5.82037E-04-2.39279E-14
 -1      1993 5.92309E-03 5.96907E-04-2.77221E-14
 -1      1994 5.77796E-03 6.00746E-04-2.64564E-14
 -1      1995 5.76199E-03 5.74926E-04-2.63794E-14
 -1      1996 6.21497E-03 5.88630E-04-3.03288E-14
 -1      1997 6.06873E-03 5.92849E-04-2.90133E-14
 -1      1998 6.05234E-03 5.66925E-04-2.89301E-14
 -1      1999 6.50951E-03 5.79782E-04-3.30288E-14
 -1      2000 6.36186E-03 5.84244E-04-3.16670E-14
 -1      2001 6.34479E-03 5.58159E-04-3.15775E-14
 -1      2002 6.80738E-03 5.70830E-04-3.58247E-14
 -1      2003 6.65796E-03 5.75266E-04-3.44157E-14
 -1      2004 6.63989E-03 5.48937E-04-3.43188E-14
 -1      2005 7.10938E-03 5.62599E-04-3.87084E-14
 -1      2006 6.95779E-03 5.66544E-04-3.72555E-14
 -1      2007 6.93826E-03 5.39854E-04-3.71514E-14
 -1      2008 7.41641E-03 5.56434E-04-4.16714E-14
 -1      2009 7.26219E-03 5.59141E-04-4.01802E-14
 -1      2010 7.24066E-03 5.31926E-04-4.00690E-14
 -1      2011 7.72936E-03 5.54395E-04-4.47136E-14
 -1      2012 7.57206E-03 5.54735E-04-4.31833E-14
 -1      2013 7.54787E-03 5.26771E-04-4.30657E-14
 -1      2014 8.04904E-03 5.59482E-04-4.78292E-14
 -1      2015 7.88829E-03 5.55830E-04-4.62617E-14
 -1      2016 7.86071E-03 5.26822E-04-4.61394E-14
 -1      2017 8.37598E-03 5.75812E-04-5.10189E-14
 -1      2018 8.21157E-03 5.65971E-04-4.94150E-14
 -1      2019 8.17991E-03 5.35540E-04-4.92858E-14
 -1      2020 8.71014E-03 6.08609E-04-5.42717E-14
 -1      2021 8.54220E-03 5.89852E-04-5.26381E-14
 -1      2022 8.50598E-03 5.57557E-04-5.25029E-14
 -1      2023 9.05054E-03 6.63698E-04-5.75855E-14
 -1      2024 8.87973E-03 6.33102E-04-5.59208E-14
 -1      2025 8.83898E-03 5.98519E-04-5.57818E-14
 -1      2026 9.39489E-03 7.46056E-04-6.09550E-14
 -1      2027 9.22257E-03 7.01377E-04-5.92633E-14
 -1      2028 9.17818E-03 6.64290E-04-5.91181E-14
 -1      2029 9.73917E-03 8.56926E-04-6.43805E-14
 -1      2030 9.56757E-03 7.98231E-04-6.26601E-14
 -1      2031 9.52158E-03 7.58992E-04-6.25122E-14
 -1      2032 1.00779E-02 9.89641E-04-6.78656E-14
 -1      2033 9.90983E-03 9.21491E-04-6.61154E-14
 -1      2034 9.86531E-03 8.81438E-04-6.59633E-14
 -1      2035 1.04052E-02 1.12596E-03-7.14182E-14
 -1      2036 1.02434E-02 1.05895E-03-6.96346E-14
 -1      2037 1.02037E-02 1.02051E-03-6.94792E-14
 -1      2038 1.07181E-02 1.23707E-03-7.50438E-14
 -1      2039 1.05633E-02 1.18648E-03-7.32218E-14
 -1      2040 1.05310E-02 1.15240E-03-7.30637E-14
 -1      2041 1.10196E-02 1.29322E-03-7.87345E-14
 -1      2042 1.08695E-02 1.27314E-03-7.68794E-14
 -1      2043 1.08453E-02 1.24478E-03-7.67150E-14
 -1      2044 1.13187E-02 1.27894E-03-8.24930E-14
 -1      2045 1.11684E-02 1.29462E-03-8.06062E-14
 -1      2046 1.11517E-02 1.27082E-03-8.04358E-14
 -1      2047 1.16254E-02 1.20226E-03-8.63138E-14
 -1      2048 1.14703E-02 1.24688E-03-8.43965E-14
 -1      2049 1.14605E-02 1.22479E-03-8.42200E-14
 -1      2050 1.19447E-02 1.08970E-03-9.01868E-14
 -1      2051 1.17833E-02 1.14858E-03-8.82429E-14
 -1      2052 1.17797E-02 1.12564E-03-8.80640E-14
 -1      2053 1.22753E-02 9.71445E-04-9.41113E-14
 -1      2054 1.21090E-02 1.02989E-03-9.21431E-14
 -1      2055 1.21102E-02 1.00502E-03-9.19592E-14
 -1      2056 1.26116E-02 8.69105E-04-9.80764E-14
 -1      2057 1.24433E-02 9.17666E-04-9.60901E-14
 -1      2058 1.24472E-02 8.91068E-04-9.59032E-14
 -1      2059 1.29477E-02 7.92069E-04-1.02072E-13
 -1      2060 1.27802E-02 8.27422E-04-1.00069E-13
 -1      2061 1.27846E-02 7.99768E-04-9.98810E-14
 -1      2062 1.32789E-02 7.40122E-04-1.06096E-13
 -1      2063 1.31142E-02 7.63292E-04-1.04082E-13
 -1      2064 1.31175E-02 7.35239E-04-1.03890E-13
 -1      2065 1.36023E-02 7.07729E-04-1.10146E-13
 -1      2066 1.34418E-02 7.21934E-04-1.08118E-13
 -1      2067 1.34431E-02 6.94000E-04-1.07922E-13
 -1      2068 1.39166E-02 6.87302E-04-1.14219E-13
 -1      2069 1.37607E-02 6.96473E-04-1.12179E-13
 -1      2070 1.37601E-02 6.69064E-04-1.11979E-13
 -1      2071 1.42219E-02 6.71097E-04-1.18313E-13
 -1      2072 1.40703E-02 6.79075E-04-1.16264E-13
 -1      2073 1.40684E-02 6.52526E-04-1.16063E-13
 -1      2074 1.45190E-02 6.52182E-04-1.22418E-13
 -1      2075 1.43713E-02 6.62297E-04-1.20366E-13
 -1      2076 1.43687E-02 6.36884E-04-1.20162E-13
 -1      2077 1.47597E-02 6.27864E-04-1.25802E-13
 -1      2078 1.46147E-02 6.41596E-04-1.23746E-13
 -1      2079 1.46118E-02 6.17262E-04-1.23543E-13
 -1      2080 1.48015E-02 5.94216E-04-1.26200E-13
 -1      2081 1.49205E-02 3.96605E-04-1.26009E-13
 -1      2082 1.48923E-02 4.28604E-04-1.25962E-13
 -1      2083 1.48637E-02 4.62513E-04-1.25912E-13
 -1      2084 1.48354E-02 4.98170E-04-1.25866E-13
 -1      2085 1.47559E-02 4.54108E-04-1.24154E-13
 -1      2086 1.48298E-02 5.25947E-04-1.26058E-13
 -1      2087 1.48043E-02 5.64466E-04-1.26010E-13
 -1      2088 1.47098E-02 5.76011E-04-1.24680E-13
 -1      2089 1.47198E-02 5.17721E-04-1.24297E-13
 -1      2090 1.49711E-02 3.39084E-04-1.26103E-13
 -1      2091 1.49468E-02 3.66980E-04-1.26053E-13
 -1      2092 1.48131E-02 3.88520E-04-1.24250E-13
 -1      2093 1.50105E-02 2.87353E-04-1.26203E-13
 -1      2094 1.49927E-02 3.12496E-04-1.26152E-13
 -1      2095 1.48633E-02 3.29619E-04-1.24344E-13
 -1      2096 1.50320E-02 2.40883E-04-1.26305E-13
 -1      2097 1.50238E-02 2.63679E-04-1.26254E-13
 -1      2098 1.49001E-02 2.76237E-04-1.24441E-13
 -1      2099 1.50315E-02 1.97261E-04-1.26417E-13
 -1      2100 1.50346E-02 2.18988E-04-1.26361E-13
 -1      2101 1.49171E-02 2.27242E-04-1.24543E-13
 -1      2102 1.50079E-02 1.53618E-04-1.26527E-13
 -1      2103 1.50226E-02 1.75721E-04-1.26472E-13
 -1      2104 1.49110E-02 1.80211E-04-1.24649E-13
 -1      2105 1.49625E-02 1.07140E-04-1.26637E-13
 -1      2106 1.49877E-02 1.30972E-04-1.26582E-13
 -1      2107 1.48811E-02 1.32382E-04-1.24757E-13
 -1      2108 1.49003E-02 5.64747E-05-1.26750E-13
 -1      2109 1.49333E-02 8.25798E-05-1.26693E-13
 -1      2110 1.48302E-02 8.16495E-05-1.24863E-13
 -1      2111 1.48248E-02-1.53692E-06-1.26852E-13
 -1      2112 1.48638E-02 2.83544E-05-1.26803E-13
 -1      2113 1.47627E-02 2.57747E-05-1.24966E-13
 -1      2114 1.47430E-02-6.65803E-05-1.26943E-13
 -1      2115 1.47843E-02-3.31964E-05-1.26898E-13
 -1      2116 1.46835E-02-3.67757E-05-1.25058E-13
 -1      2117 1.46608E-02-1.38372E-04-1.27016E-13
 -1      2118 1.47016E-02-1.01719E-04-1.26982E-13
 -1      2119 1.45996E-02-1.05713E-04-1.25136E-13
 -1      2120 1.29256E-02 2.82509E-04-8.98704E-14
 -1      2121 1.30636E-02 2.28651E-04-9.03962E-14
 -1      2122 1.33088E-02 1.24153E-04-9.13383E-14
 -1      2123 1.33054E-02 1.07377E-04-9.13474E-14
 -1      2124 1.31942E-02 1.74915E-04-9.10612E-14
 -1      2125 1.32691E-02 1.50163E-04-9.12671E-14
 -1      2126 1.25817E-02 4.30723E-04-8.86841E-14
 -1      2127 1.27497E-02 3.52897E-04-8.93372E-14
 -1      2128 1.21978E-02 6.25221E-04-8.71144E-14
 -1      2129 1.23933E-02 5.23996E-04-8.78989E-14
 -1      2130 1.24805E-02 4.55936E-04-8.90198E-14
 -1      2131 3.27206E-04-8.90200E-05-1.96945E-16
 -1      2132 3.29307E-04-1.02198E-04-1.89451E-16
 -1      2133 4.46328E-04-1.45182E-04-2.75564E-16
 -1      2134 4.40044E-04-1.10004E-04-2.95770E-16
 -1      2135 1.14127E-02 1.03414E-03-8.24340E-14
 -1      2136 1.15718E-02 9.65240E-04-8.34984E-14
 -1      2137 1.10788E-02 1.10055E-03-7.99773E-14
 -1      2138 1.12247E-02 1.08435E-03-8.10688E-14
 -1      2139 1.07555E-02 1.04587E-03-7.75689E-14
 -1      2140 1.09093E-02 1.08917E-03-7.87238E-14
 -1      2141 1.03553E-02 8.59025E-04-7.50628E-14
 -1      2142 1.05307E-02 9.52047E-04-7.60548E-14
 -1      2143 9.99381E-03 6.56228E-04-7.33135E-14
 -1      2144 1.01775E-02 7.63574E-04-7.41855E-14
 -1      2145 1.02919E-02 8.07438E-04-7.41734E-14
 -1      2146 9.55978E-03 4.25332E-04-7.15972E-14
 -1      2147 9.74925E-03 5.25425E-04-7.23249E-14
 -1      2148 9.18965E-03 2.55774E-04-7.03672E-14
 -1      2149 9.35320E-03 3.27434E-04-7.08982E-14
 -1      2150 8.91825E-03 1.43984E-04-6.93848E-14
 -1      2151 9.03450E-03 1.86636E-04-6.97637E-14
 -1      2152 8.76661E-03 8.46998E-05-6.89696E-14
 -1      2153 8.81863E-03 1.06616E-04-6.91486E-14
 -1      2154 8.78174E-03 4.02567E-05-6.91228E-14
 -1      2155 8.75274E-03 5.92136E-05-6.89881E-14
 -1      2156 8.95085E-03-2.12031E-05-6.95324E-14
 -1      2157 8.84981E-03 1.09381E-05-6.93101E-14
 -1      2158 9.28089E-03-1.53821E-04-7.06862E-14
 -1      2159 9.12296E-03-8.46023E-05-7.00336E-14
 -1      2160 9.65990E-03-3.41235E-04-7.22300E-14
 -1      2161 9.46563E-03-2.44388E-04-7.14746E-14
 -1      2162 1.00813E-02-5.69184E-04-7.41786E-14
 -1      2163 9.88372E-03-4.60441E-04-7.32417E-14
 -1      2164 1.04708E-02-7.63654E-04-7.62010E-14
 -1      2165 1.02904E-02-6.73664E-04-7.51796E-14
 -1      2166 1.08476E-02-8.91109E-04-7.88258E-14
 -1      2167 1.06933E-02-8.50848E-04-7.76662E-14
 -1      2168 1.11701E-02-8.80577E-04-8.12016E-14
 -1      2169 1.10220E-02-8.99120E-04-8.01099E-14
 -1      2170 1.14980E-02-7.65669E-04-8.35228E-14
 -1      2171 1.13373E-02-8.35828E-04-8.23936E-14
 -1      2172 1.18997E-02-5.52737E-04-8.59067E-14
 -1      2173 1.17160E-02-6.56021E-04-8.49169E-14
 -1      2174 1.23120E-02-3.27581E-04-8.78291E-14
 -1      2175 1.21215E-02-4.30155E-04-8.70196E-14
 -1      2176 1.27014E-02-1.39167E-04-8.93173E-14
 -1      2177 1.25200E-02-2.26965E-04-8.85935E-14
 -1      2178 1.30434E-02-1.74523E-06-9.04095E-14
 -1      2179 1.28983E-02-5.70894E-05-8.99429E-14
 -1      2180 1.32555E-02 7.79184E-05-9.11042E-14
 -1      2181 1.31735E-02 4.93816E-05-9.08704E-14
 -1      2182 1.17511E-02 8.76750E-04-8.46493E-14
 -1      2183 1.19302E-02 7.70532E-04-8.58030E-14
 -1      2184 1.16417E-02 9.24541E-04-8.44523E-14
 -1      2185 6.07836E-04-2.98184E-04-2.80320E-16
 -1      2186 1.20452E-02 6.91740E-04-8.69179E-14
 -1      2187 1.21599E-02 6.19207E-04-8.80364E-14
 -1      2188 1.19258E-02 7.59052E-04-8.67204E-14
 -1      2189 6.63560E-04-2.92481E-04-3.82954E-16
 -1      2190 1.31361E-02 1.86357E-04-9.15470E-14
 -1      2191 1.33005E-02 1.33199E-04-9.22884E-14
 -1      2192 1.45872E-02-1.77001E-04-1.26423E-13
 -1      2193 1.28303E-02 2.99103E-04-9.03441E-14
 -1      2194 1.32902E-02 1.01486E-04-9.21185E-14
 -1      2195 1.31110E-02 4.19116E-05-9.14157E-14
 -1      2196 1.27887E-02-7.78857E-05-9.03280E-14
 -1      2197 1.23968E-02-2.55982E-04-8.89359E-14
 -1      2198 1.19939E-02-4.77964E-04-8.70529E-14
 -1      2199 1.15876E-02-7.13660E-04-8.45386E-14
 -1      2200 1.12417E-02-8.67942E-04-8.19517E-14
 -1      2201 1.09370E-02-9.07384E-04-7.94736E-14
 -1      2202 1.05905E-02-8.13996E-04-7.67233E-14
 -1      2203 1.02004E-02-6.13119E-04-7.42668E-14
 -1      2204 9.79065E-03-3.86130E-04-7.22617E-14
 -1      2205 9.39428E-03-1.82154E-04-7.04709E-14
 -1      2206 9.03706E-03-3.69199E-05-6.91879E-14
 -1      2207 8.96131E-03-6.51490E-06-6.83462E-14
 -1      2208 9.12396E-03-5.93173E-05-6.88421E-14
 -1      2209 8.80829E-03 3.45468E-05-6.85047E-14
 -1      2210 8.74986E-03 6.92953E-05-6.82989E-14
 -1      2211 8.86516E-03 1.11364E-04-6.85137E-14
 -1      2212 9.11867E-03 1.98048E-04-6.93458E-14
 -1      2213 9.90335E-03 5.80582E-04-7.23174E-14
 -1      2214 1.06524E-02 1.00584E-03-7.65520E-14
 -1      2215 1.13161E-02 1.06890E-03-8.19337E-14
 -1      2216 1.09976E-02 1.10746E-03-7.93166E-14
 -1      2217 9.47312E-03 3.54070E-04-7.06399E-14
 -1      2218 1.01650E-03 3.99879E-04-7.80002E-16
 -1      2219 8.72052E-04 3.63494E-04-5.74681E-16
 -1      2220 5.47838E-04-5.53338E-05-4.48494E-16
 -1      2221 5.48866E-04-7.20586E-05-4.45201E-16
 -1      2222 5.50275E-04-8.93897E-05-4.40606E-16
 -1      2223 5.52129E-04-1.07374E-04-4.34426E-16
 -1      2224 6.65339E-04-9.55444E-05-6.00214E-16
 -1      2225 5.46468E-04 8.86200E-06-4.50784E-16
 -1      2226 5.46448E-04-6.98585E-06-4.51868E-16
 -1      2227 5.47217E-04 4.08931E-05-4.45594E-16
 -1      2228 5.46721E-04 2.48088E-05-4.48724E-16
 -1      2229 6.61421E-04 1.99423E-05-6.08698E-16
 -1      2230 5.49032E-04 7.35324E-05-4.36283E-16
 -1      2231 5.47975E-04 5.70316E-05-4.41650E-16
 -1      2232 6.62738E-04 5.78196E-05-6.00851E-16
 -1      2233 5.52406E-04 1.09019E-04-4.21050E-16
 -1      2234 5.50491E-04 9.09377E-05-4.29534E-16
 -1      2235 6.65583E-04 9.73071E-05-5.87163E-16
 -1      2236 5.58263E-04 1.48362E-04-3.98119E-16
 -1      2237 5.54956E-04 1.28134E-04-4.10750E-16
 -1      2238 6.70650E-04 1.40092E-04-5.65628E-16
 -1      2239 5.68567E-04 1.93962E-04-3.63316E-16
 -1      2240 5.62740E-04 1.70244E-04-3.82547E-16
 -1      2241 6.79271E-04 1.87643E-04-5.33427E-16
 -1      2242 1.30193E-03 4.56808E-04-1.29498E-15
 -1      2243 1.15962E-03 4.30876E-04-1.01990E-15
 -1      2244 1.07169E-03 3.81403E-04-9.44557E-16
 -1      2245 9.15121E-04-3.46455E-04-7.42407E-16
 -1      2246 1.05920E-03-3.79770E-04-9.77313E-16
 -1      2247 1.30638E-02 2.02858E-04-9.20600E-14
 -1      2248 1.31912E-02 1.66341E-04-9.27310E-14
 -1      2249 1.20245E-03-4.08144E-04-1.24620E-15
 -1      2250 1.34524E-03-4.32006E-04-1.55019E-15
 -1      2251 1.11691E-03-3.60582E-04-1.14803E-15
 -1      2252 1.48740E-03-4.52208E-04-1.88857E-15
 -1      2253 1.62916E-03-4.69020E-04-2.26177E-15
 -1      2254 1.40322E-03-4.07324E-04-1.76331E-15
 -1      2255 1.77056E-03-4.83116E-04-2.66856E-15
 -1      2256 1.91172E-03-4.94709E-04-3.10938E-15
 -1      2257 1.68832E-03-4.40509E-04-2.51498E-15
 -1      2258 2.05273E-03-5.04292E-04-3.58403E-15
 -1      2259 2.19363E-03-5.12039E-04-4.09235E-15
 -1      2260 1.97249E-03-4.63463E-04-3.40147E-15
 -1      2261 2.33451E-03-5.18307E-04-4.63393E-15
 -1      2262 2.47538E-03-5.23237E-04-5.20874E-15
 -1      2263 2.25610E-03-4.78815E-04-4.42127E-15
 -1      2264 2.61631E-03-5.27089E-04-5.81618E-15
 -1      2265 2.75729E-03-5.29975E-04-6.45627E-15
 -1      2266 2.53949E-03-4.88581E-04-5.57298E-15
 -1      2267 2.89838E-03-5.32080E-04-7.12813E-15
 -1      2268 3.03955E-03-5.33492E-04-7.83138E-15
 -1      2269 2.82290E-03-4.94285E-04-6.85429E-15
 -1      2270 3.18085E-03-5.34341E-04-8.56578E-15
 -1      2271 3.32226E-03-5.34693E-04-9.33138E-15
 -1      2272 3.10647E-03-4.97062E-04-8.26184E-15
 -1      2273 3.46380E-03-5.34636E-04-1.01270E-14
 -1      2274 3.60546E-03-5.34218E-04-1.09531E-14
 -1      2275 3.39030E-03-4.97734E-04-9.79261E-15
 -1      2276 3.74726E-03-5.33495E-04-1.18082E-14
 -1      2277 3.88917E-03-5.32501E-04-1.26933E-14
 -1      2278 3.67443E-03-4.96879E-04-1.14442E-14
 -1      2279 4.03122E-03-5.31265E-04-1.36073E-14
 -1      2280 4.17339E-03-5.29811E-04-1.45497E-14
 -1      2281 3.95890E-03-4.94881E-04-1.32134E-14
 -1      2282 4.31569E-03-5.28151E-04-1.55208E-14
 -1      2283 4.45812E-03-5.26297E-04-1.65186E-14
 -1      2284 4.24371E-03-4.91971E-04-1.50973E-14
 -1      2285 4.60070E-03-5.24248E-04-1.75441E-14
 -1      2286 4.74341E-03-5.22012E-04-1.85970E-14
 -1      2287 4.52890E-03-4.88268E-04-1.70937E-14
 -1      2288 4.88628E-03-5.19578E-04-1.96742E-14
 -1      2289 5.02930E-03-5.16949E-04-2.07776E-14
 -1      2290 4.81448E-03-4.83806E-04-1.91962E-14
 -1      2291 5.17249E-03-5.14111E-04-2.19073E-14
 -1      2292 5.31588E-03-5.11067E-04-2.30631E-14
 -1      2293 5.10052E-03-4.78560E-04-2.14031E-14
 -1      2294 5.45946E-03-5.07801E-04-2.42440E-14
 -1      2295 5.60327E-03-5.04321E-04-2.54495E-14
 -1      2296 5.38707E-03-4.72483E-04-2.37124E-14
 -1      2297 5.74732E-03-5.00616E-04-2.66805E-14
 -1      2298 5.89166E-03-4.96702E-04-2.79355E-14
 -1      2299 5.67425E-03-4.65529E-04-2.61233E-14
 -1      2300 6.03629E-03-4.92582E-04-2.92165E-14
 -1      2301 6.18127E-03-4.88284E-04-3.05233E-14
 -1      2302 5.96220E-03-4.57697E-04-2.86339E-14
 -1      2303 6.32661E-03-4.83835E-04-3.18551E-14
 -1      2304 6.47240E-03-4.79283E-04-3.32102E-14
 -1      2305 6.25108E-03-4.49075E-04-3.12446E-14
 -1      2306 6.61861E-03-4.74691E-04-3.45891E-14
 -1      2307 6.76538E-03-4.70137E-04-3.59905E-14
 -1      2308 6.54114E-03-4.39905E-04-3.39530E-14
 -1      2309 6.91268E-03-4.65736E-04-3.74149E-14
 -1      2310 7.06066E-03-4.61609E-04-3.88615E-14
 -1      2311 6.83266E-03-4.30664E-04-3.67551E-14
 -1      2312 7.20929E-03-4.57939E-04-4.03281E-14
 -1      2313 7.35873E-03-4.54906E-04-4.18167E-14
 -1      2314 7.12603E-03-4.22159E-04-3.96440E-14
 -1      2315 7.50899E-03-4.52783E-04-4.33255E-14
 -1      2316 7.66020E-03-4.51827E-04-4.48543E-14
 -1      2317 7.42173E-03-4.15656E-04-4.26177E-14
 -1      2318 7.81243E-03-4.52410E-04-4.64015E-14
 -1      2319 7.96578E-03-4.54891E-04-4.79683E-14
 -1      2320 7.72045E-03-4.13013E-04-4.56708E-14
 -1      2321 8.12040E-03-4.59738E-04-4.95533E-14
 -1      2322 8.27631E-03-4.67428E-04-5.11570E-14
 -1      2323 8.02310E-03-4.16817E-04-4.88004E-14
 -1      2324 8.43377E-03-4.78491E-04-5.27791E-14
 -1      2325 8.59267E-03-4.93517E-04-5.44177E-14
 -1      2326 8.33090E-03-4.30474E-04-5.20037E-14
 -1      2327 8.75342E-03-5.13004E-04-5.60743E-14
 -1      2328 8.91565E-03-5.37593E-04-5.77457E-14
 -1      2329 8.64537E-03-4.58180E-04-5.52788E-14
 -1      2330 9.07990E-03-5.67583E-04-5.94338E-14
 -1      2331 9.24539E-03-6.03452E-04-6.11423E-14
 -1      2332 8.96809E-03-5.04601E-04-5.86188E-14
 -1      2333 9.41271E-03-6.45050E-04-6.28652E-14
 -1      2334 9.58057E-03-6.92224E-04-6.46036E-14
 -1      2335 9.29997E-03-5.73909E-04-6.20259E-14
 -1      2336 9.74932E-03-7.44054E-04-6.63609E-14
 -1      2337 9.91737E-03-7.99145E-04-6.81335E-14
 -1      2338 9.63986E-03-6.67543E-04-6.54999E-14
 -1      2339 1.00847E-02-8.55502E-04-6.99223E-14
 -1      2340 1.02498E-02-9.10008E-04-7.17277E-14
 -1      2341 9.98310E-03-7.80275E-04-6.90400E-14
 -1      2342 1.04123E-02-9.59837E-04-7.35495E-14
 -1      2343 1.05723E-02-1.00058E-03-7.53875E-14
 -1      2344 1.03218E-02-8.95452E-04-7.26447E-14
 -1      2345 1.07287E-02-1.02961E-03-7.72401E-14
 -1      2346 1.08842E-02-1.04333E-03-7.91081E-14
 -1      2347 1.06488E-02-9.84162E-04-7.63153E-14
 -1      2348 1.10378E-02-1.04057E-03-8.09915E-14
 -1      2349 1.11931E-02-1.02147E-03-8.28871E-14
 -1      2350 1.09652E-02-1.01484E-03-8.00484E-14
 -1      2351 1.13492E-02-9.87019E-04-8.47952E-14
 -1      2352 1.15085E-02-9.40657E-04-8.67171E-14
 -1      2353 1.12813E-02-9.73381E-04-8.38396E-14
 -1      2354 1.16701E-02-8.85050E-04-8.86535E-14
 -1      2355 1.18341E-02-8.24458E-04-9.06022E-14
 -1      2356 1.16074E-02-8.73576E-04-8.76831E-14
 -1      2357 1.20001E-02-7.61731E-04-9.25623E-14
 -1      2358 1.21667E-02-6.99996E-04-9.45350E-14
 -1      2359 1.19445E-02-7.46237E-04-9.15795E-14
 -1      2360 1.23339E-02-6.41151E-04-9.65227E-14
 -1      2361 1.24999E-02-5.86607E-04-9.85209E-14
 -1      2362 1.22857E-02-6.20151E-04-9.55255E-14
 -1      2363 1.26651E-02-5.37195E-04-1.00527E-13
 -1      2364 1.28282E-02-4.92965E-04-1.02545E-13
 -1      2365 1.26232E-02-5.11807E-04-9.95183E-14
 -1      2366 1.29899E-02-4.53935E-04-1.04572E-13
 -1      2367 1.31492E-02-4.19510E-04-1.06612E-13
 -1      2368 1.29518E-02-4.25907E-04-1.03551E-13
 -1      2369 1.33067E-02-3.89196E-04-1.08663E-13
 -1      2370 1.34622E-02-3.62186E-04-1.10720E-13
 -1      2371 1.32705E-02-3.60033E-04-1.07624E-13
 -1      2372 1.36158E-02-3.37740E-04-1.12787E-13
 -1      2373 1.37676E-02-3.15042E-04-1.14862E-13
 -1      2374 1.35800E-02-3.08709E-04-1.11738E-13
 -1      2375 1.39178E-02-2.93287E-04-1.16947E-13
 -1      2376 1.40664E-02-2.71705E-04-1.19042E-13
 -1      2377 1.38818E-02-2.65559E-04-1.15887E-13
 -1      2378 1.86500E-03 5.25190E-04-2.74124E-15
 -1      2379 1.72480E-03 5.12488E-04-2.32767E-15
 -1      2380 2.14502E-03 5.44330E-04-3.66978E-15
 -1      2381 2.00506E-03 5.35744E-04-3.18852E-15
 -1      2382 1.92437E-03 4.94550E-04-3.03406E-15
 -1      2383 2.42501E-03 5.56903E-04-4.73230E-15
 -1      2384 2.28500E-03 5.51333E-04-4.18441E-15
 -1      2385 2.20643E-03 5.11656E-04-4.00218E-15
 -1      2386 2.70535E-03 5.64691E-04-5.92744E-15
 -1      2387 2.56513E-03 5.61315E-04-5.31372E-15
 -1      2388 2.48832E-03 5.22731E-04-5.10261E-15
 -1      2389 2.98627E-03 5.69016E-04-7.25388E-15
 -1      2390 2.84574E-03 5.67226E-04-6.57403E-15
 -1      2391 2.77038E-03 5.29419E-04-6.33373E-15
 -1      2392 3.26784E-03 5.70845E-04-8.70804E-15
 -1      2393 3.12698E-03 5.70198E-04-7.96510E-15
 -1      2394 3.05276E-03 5.32938E-04-7.69476E-15
 -1      2395 3.55010E-03 5.70870E-04-1.02878E-14
 -1      2396 3.40889E-03 5.71051E-04-9.48223E-15
 -1      2397 3.33559E-03 5.34179E-04-9.18238E-15
 -1      2398 3.83304E-03 5.69561E-04-1.19915E-14
 -1      2399 3.69150E-03 5.70360E-04-1.11245E-14
 -1      2400 3.61888E-03 5.33768E-04-1.07941E-14
 -1      2401 4.11665E-03 5.67222E-04-1.38168E-14
 -1      2402 3.97477E-03 5.68506E-04-1.28887E-14
 -1      2403 3.90267E-03 5.32129E-04-1.25291E-14
 -1      2404 4.40092E-03 5.64020E-04-1.57594E-14
 -1      2405 4.25871E-03 5.65720E-04-1.47740E-14
 -1      2406 4.18696E-03 5.29524E-04-1.43834E-14
 -1      2407 4.68586E-03 5.60026E-04-1.78157E-14
 -1      2408 4.54331E-03 5.62118E-04-1.67734E-14
 -1      2409 4.47175E-03 5.26090E-04-1.63536E-14
 -1      2410 4.97154E-03 5.55238E-04-1.99781E-14
 -1      2411 4.82860E-03 5.57730E-04-1.88839E-14
 -1      2412 4.75709E-03 5.21873E-04-1.84341E-14
 -1      2413 5.25804E-03 5.49612E-04-2.22479E-14
 -1      2414 5.11467E-03 5.52529E-04-2.11003E-14
 -1      2415 5.04302E-03 5.16855E-04-2.06228E-14
 -1      2416 5.54552E-03 5.43087E-04-2.46214E-14
 -1      2417 5.40164E-03 5.46460E-04-2.34217E-14
 -1      2418 5.32964E-03 5.10978E-04-2.29174E-14
 -1      2419 5.83419E-03 5.35626E-04-2.70954E-14
 -1      2420 5.68968E-03 5.39469E-04-2.58452E-14
 -1      2421 5.61707E-03 5.04180E-04-2.53141E-14
 -1      2422 6.12435E-03 5.27255E-04-2.96697E-14
 -1      2423 5.97905E-03 5.31544E-04-2.83701E-14
 -1      2424 5.90549E-03 4.96427E-04-2.78123E-14
 -1      2425 6.41636E-03 5.18122E-04-3.23378E-14
 -1      2426 6.27008E-03 5.22763E-04-3.09927E-14
 -1      2427 6.19513E-03 4.87759E-04-3.04086E-14
 -1      2428 6.71066E-03 5.08578E-04-3.51011E-14
 -1      2429 6.56317E-03 5.13366E-04-3.37078E-14
 -1      2430 6.48629E-03 4.78351E-04-3.30999E-14
 -1      2431 7.00780E-03 4.99282E-04-3.79526E-14
 -1      2432 6.85881E-03 5.03841E-04-3.65156E-14
 -1      2433 6.77932E-03 4.68598E-04-3.58823E-14
 -1      2434 7.30839E-03 4.91347E-04-4.08855E-14
 -1      2435 7.15759E-03 4.95056E-04-3.94083E-14
 -1      2436 7.07466E-03 4.59224E-04-3.87512E-14
 -1      2437 7.61314E-03 4.86523E-04-4.39015E-14
 -1      2438 7.46017E-03 4.88415E-04-4.23843E-14
 -1      2439 7.37282E-03 4.51425E-04-4.17042E-14
 -1      2440 7.92280E-03 4.87408E-04-4.69893E-14
 -1      2441 7.76728E-03 4.86064E-04-4.54365E-14
 -1      2442 7.67447E-03 4.47058E-04-4.47354E-14
 -1      2443 8.23822E-03 4.97670E-04-5.01528E-14
 -1      2444 8.07974E-03 4.91110E-04-4.85619E-14
 -1      2445 7.98043E-03 4.48846E-04-4.78404E-14
 -1      2446 8.56025E-03 5.22153E-04-5.33828E-14
 -1      2447 8.39841E-03 5.07800E-04-5.17601E-14
 -1      2448 8.29180E-03 4.60589E-04-5.10180E-14
 -1      2449 8.88962E-03 5.66703E-04-5.66726E-14
 -1      2450 8.72410E-03 5.41531E-04-5.50203E-14
 -1      2451 8.60997E-03 4.87282E-04-5.42615E-14
 -1      2452 9.22662E-03 6.37303E-04-6.00244E-14
 -1      2453 9.05740E-03 5.98383E-04-5.83407E-14
 -1      2454 8.93663E-03 5.34952E-04-5.75662E-14
 -1      2455 9.57032E-03 7.37978E-04-6.34315E-14
 -1      2456 9.39809E-03 6.83750E-04-6.17207E-14
 -1      2457 9.27323E-03 6.09858E-04-6.09291E-14
 -1      2458 9.91736E-03 8.66857E-04-6.68975E-14
 -1      2459 9.74409E-03 7.99352E-04-6.51575E-14
 -1      2460 9.61974E-03 7.16321E-04-6.43512E-14
 -1      2461 1.02614E-02 1.01088E-03-7.04298E-14
 -1      2462 1.00905E-02 9.38436E-04-6.86560E-14
 -1      2463 9.97262E-03 8.52218E-04-6.78329E-14
 -1      2464 1.05952E-02 1.14245E-03-7.40296E-14
 -1      2465 1.04298E-02 1.08057E-03-7.22204E-14
 -1      2466 1.03238E-02 1.00211E-03-7.13800E-14
 -1      2467 1.09158E-02 1.22544E-03-7.76965E-14
 -1      2468 1.07563E-02 1.19239E-03-7.58544E-14
 -1      2469 1.06636E-02 1.13346E-03-7.49941E-14
 -1      2470 1.12301E-02 1.23284E-03-8.14313E-14
 -1      2471 1.10722E-02 1.23920E-03-7.95567E-14
 -1      2472 1.09897E-02 1.20433E-03-7.86778E-14
 -1      2473 1.15501E-02 1.16580E-03-8.52307E-14
 -1      2474 1.13882E-02 1.20724E-03-8.33229E-14
 -1      2475 1.13123E-02 1.18955E-03-8.24279E-14
 -1      2476 1.18820E-02 1.05179E-03-8.90849E-14
 -1      2477 1.17144E-02 1.11219E-03-8.71510E-14
 -1      2478 1.16447E-02 1.09972E-03-8.62383E-14
 -1      2479 1.22230E-02 9.26776E-04-9.29939E-14
 -1      2480 1.20521E-02 9.88636E-04-9.10325E-14
 -1      2481 1.19899E-02 9.72409E-04-9.01077E-14
 -1      2482 1.25655E-02 8.17051E-04-9.69463E-14
 -1      2483 1.23949E-02 8.69012E-04-9.49650E-14
 -1      2484 1.23406E-02 8.46162E-04-9.40273E-14
 -1      2485 1.29031E-02 7.34135E-04-1.00932E-13
 -1      2486 1.27355E-02 7.72074E-04-9.89364E-14
 -1      2487 1.26870E-02 7.43382E-04-9.79893E-14
 -1      2488 1.32326E-02 6.78408E-04-1.04942E-13
 -1      2489 1.30692E-02 7.03143E-04-1.02933E-13
 -1      2490 1.30234E-02 6.70354E-04-1.01979E-13
 -1      2491 1.35530E-02 6.44392E-04-1.08983E-13
 -1      2492 1.33940E-02 6.59131E-04-1.06962E-13
 -1      2493 1.33486E-02 6.23924E-04-1.05999E-13
 -1      2494 1.38646E-02 6.24394E-04-1.13044E-13
 -1      2495 1.37099E-02 6.33113E-04-1.11010E-13
 -1      2496 1.36635E-02 5.97009E-04-1.10042E-13
 -1      2497 1.41682E-02 6.10536E-04-1.17128E-13
 -1      2498 1.40173E-02 6.17146E-04-1.15082E-13
 -1      2499 1.39697E-02 5.81590E-04-1.14107E-13
 -1      2500 1.44646E-02 5.95614E-04-1.21228E-13
 -1      2501 1.43172E-02 6.03613E-04-1.19177E-13
 -1      2502 1.42686E-02 5.70035E-04-1.18193E-13
 -1      2503 1.46148E-02 5.86469E-04-1.23351E-13
 -1      2504 1.47558E-02 3.17030E-04-1.22585E-13
 -1      2505 1.47325E-02 3.46448E-04-1.22538E-13
 -1      2506 1.47895E-02 2.62311E-04-1.22681E-13
 -1      2507 1.47750E-02 2.89131E-04-1.22633E-13
 -1      2508 1.46485E-02 3.02085E-04-1.20830E-13
 -1      2509 1.46484E-02 4.42884E-04-1.22397E-13
 -1      2510 1.46179E-02 4.78611E-04-1.22348E-13
 -1      2511 1.47063E-02 3.77068E-04-1.22488E-13
 -1      2512 1.46781E-02 4.09032E-04-1.22443E-13
 -1      2513 1.45411E-02 4.29454E-04-1.20639E-13
 -1      2514 1.46002E-02 3.62791E-04-1.20733E-13
 -1      2515 1.48018E-02 2.11368E-04-1.22781E-13
 -1      2516 1.47986E-02 2.36602E-04-1.22730E-13
 -1      2517 1.46790E-02 2.46473E-04-1.20925E-13
 -1      2518 1.47896E-02 1.61639E-04-1.22883E-13
 -1      2519 1.47988E-02 1.86619E-04-1.22831E-13
 -1      2520 1.46860E-02 1.94138E-04-1.21020E-13
 -1      2521 1.47531E-02 1.10339E-04-1.22986E-13
 -1      2522 1.47743E-02 1.36434E-04-1.22933E-13
 -1      2523 1.46672E-02 1.42254E-04-1.21117E-13
 -1      2524 1.46966E-02 5.60518E-05-1.23083E-13
 -1      2525 1.47272E-02 8.38482E-05-1.23034E-13
 -1      2526 1.46241E-02 8.83903E-05-1.21211E-13
 -1      2527 1.46234E-02-4.62485E-06-1.23178E-13
 -1      2528 1.46616E-02 2.64911E-05-1.23132E-13
 -1      2529 1.45608E-02 2.99040E-05-1.21302E-13
 -1      2530 1.45407E-02-7.13705E-05-1.23263E-13
 -1      2531 1.45828E-02-3.72328E-05-1.23224E-13
 -1      2532 1.44824E-02-3.49356E-05-1.21391E-13
 -1      2533 1.44549E-02-1.43996E-04-1.23330E-13
 -1      2534 1.44978E-02-1.07005E-04-1.23296E-13
 -1      2535 1.43963E-02-1.05779E-04-1.21464E-13
 -1      2536 1.32975E-02 1.36299E-04-9.34831E-14
 -1      2537 1.33312E-02 1.26621E-04-9.35587E-14
 -1      2538 1.27693E-02 3.12988E-04-9.09829E-14
 -1      2539 1.29272E-02 2.51412E-04-9.15206E-14
 -1      2540 1.30139E-02 2.22963E-04-9.27036E-14
 -1      2541 1.58430E-03 4.97093E-04-1.94888E-15
 -1      2542 1.44339E-03 4.78793E-04-1.60458E-15
 -1      2543 1.64168E-03 4.69227E-04-2.20067E-15
 -1      2544 1.44601E-02-1.99055E-04-1.24531E-13
 -1      2545 1.33200E-02 1.11687E-04-9.33482E-14
 -1      2546 1.32703E-02 9.95187E-05-9.31074E-14
 -1      2547 1.23971E-02 4.89900E-04-8.93710E-14
 -1      2548 1.25656E-02 4.04755E-04-9.01611E-14
 -1      2549 1.15594E-02 9.72109E-04-8.42126E-14
 -1      2550 1.17067E-02 8.88439E-04-8.53651E-14
 -1      2551 1.31717E-02 7.07485E-05-9.27050E-14
 -1      2552 1.30483E-02 3.54925E-05-9.22434E-14
 -1      2553 1.05670E-02 9.64373E-04-7.55038E-14
 -1      2554 1.07501E-02 1.05466E-03-7.70089E-14
 -1      2555 5.46660E-04-2.29159E-05-4.51733E-16
 -1      2556 5.47113E-04-3.89666E-05-4.50527E-16
 -1      2557 6.62588E-04-5.58485E-05-6.08576E-16
 -1      2558 6.61369E-04-1.77164E-05-6.11368E-16
 -1      2559 1.09474E-02 1.10955E-03-7.87651E-14
 -1      2560 1.10807E-02 1.11959E-03-8.00171E-14
 -1      2561 9.38096E-03 2.91793E-04-6.95158E-14
 -1      2562 9.56749E-03 3.80968E-04-7.02053E-14
 -1      2563 1.12327E-02 1.10045E-03-8.13745E-14
 -1      2564 1.13839E-02 1.05133E-03-8.27400E-14
 -1      2565 1.11652E-02 1.11797E-03-8.08147E-14
 -1      2566 1.02072E-02 7.48488E-04-7.30986E-14
 -1      2567 1.03513E-02 8.40789E-04-7.39672E-14
 -1      2568 9.79818E-03 5.03589E-04-7.11392E-14
 -1      2569 1.00094E-02 6.28773E-04-7.21165E-14
 -1      2570 1.00795E-02 6.75540E-04-7.19121E-14
 -1      2571 9.05714E-03 1.62460E-04-6.82878E-14
 -1      2572 9.20583E-03 2.16832E-04-6.88836E-14
 -1      2573 8.81240E-03 9.03233E-05-6.76193E-14
 -1      2574 8.90585E-03 1.13671E-04-6.78516E-14
 -1      2575 8.73765E-03 6.11878E-05-6.74239E-14
 -1      2576 8.74962E-03 7.00362E-05-6.74038E-14
 -1      2577 8.83373E-03 3.16073E-05-6.77712E-14
 -1      2578 8.77052E-03 4.64741E-05-6.75861E-14
 -1      2579 9.49871E-03-2.17358E-04-7.01274E-14
 -1      2580 9.32595E-03-1.39295E-04-6.93464E-14
 -1      2581 9.90699E-03-4.35869E-04-7.21943E-14
 -1      2582 9.70596E-03-3.23410E-04-7.11912E-14
 -1      2583 1.02736E-02-6.50696E-04-7.41558E-14
 -1      2584 1.01015E-02-5.46602E-04-7.31638E-14
 -1      2585 1.06732E-02-8.56572E-04-7.70705E-14
 -1      2586 1.04948E-02-7.71447E-04-7.56119E-14
 -1      2587 1.10200E-02-9.16068E-04-8.02243E-14
 -1      2588 1.08811E-02-9.09735E-04-7.89390E-14
 -1      2589 1.12873E-02-8.54652E-04-8.26032E-14
 -1      2590 1.11540E-02-8.97672E-04-8.14096E-14
 -1      2591 1.10820E-02-9.13927E-04-8.08698E-14
 -1      2592 1.16620E-02-6.64322E-04-8.56121E-14
 -1      2593 1.14786E-02-7.69820E-04-8.42138E-14
 -1      2594 1.20818E-02-4.13639E-04-8.82626E-14
 -1      2595 1.18900E-02-5.30071E-04-8.71450E-14
 -1      2596 1.24959E-02-1.90448E-04-9.02152E-14
 -1      2597 1.23137E-02-2.84558E-04-8.94472E-14
 -1      2598 1.28833E-02-2.33640E-05-9.16485E-14
 -1      2599 1.27039E-02-9.47415E-05-9.10212E-14
 -1      2600 5.88493E-04-2.38059E-04-3.55551E-16
 -1      2601 7.81262E-04-3.04921E-04-5.65750E-16
 -1      2602 8.40724E-04-2.93691E-04-6.94757E-16
 -1      2603 5.78938E-04-2.10231E-04-3.79660E-16
 -1      2604 7.57821E-04 3.34285E-04-4.28558E-16
 -1      2605 6.11421E-04 2.84916E-04-2.85362E-16
 -1      2606 5.84706E-04 2.58148E-04-2.93128E-16
 -1      2607 8.13653E-04 3.22964E-04-5.52198E-16
 -1      2608 1.04632E-02 9.14050E-04-7.44160E-14
 -1      2609 6.70236E-04-1.38040E-04-5.84344E-16
 -1      2610 5.54594E-04-1.26284E-04-4.26417E-16
 -1      2611 5.57791E-04-1.46263E-04-4.15805E-16
 -1      2612 1.35769E-03 4.32789E-04-1.50395E-15
 -1      2613 5.72218E-04 2.27956E-04-3.22984E-16
 -1      2614 5.64274E-04-1.65029E-04-4.08514E-16
 -1      2615 5.69697E-04-1.88097E-04-3.92766E-16
 -1      2616 6.97800E-04-2.27838E-04-5.40922E-16
 -1      2617 6.80697E-04-1.81754E-04-5.64829E-16
 -1      2618 1.18272E-02 8.23781E-04-8.64783E-14
 -1      2619 1.19477E-02 7.60482E-04-8.75951E-14
 -1      2620 1.17527E-02 8.82083E-04-8.62342E-14
 -1      2621 1.32626E-02 1.50555E-04-9.40004E-14
 -1      2622 1.22705E-02 5.64159E-04-8.91730E-14
 -1      2623 1.29798E-02 1.22156E-05-9.29376E-14
 -1      2624 1.32363E-02 8.89625E-05-9.39371E-14
 -1      2625 1.26233E-02-1.31888E-04-9.15329E-14
 -1      2626 1.45656E-02 5.56209E-04-1.22364E-13
 -1      2627 1.26903E-02 3.52052E-04-9.13383E-14
 -1      2628 1.45720E-02 5.26489E-04-1.22173E-13
 -1      2629 1.22064E-02-3.47163E-04-8.95365E-14
 -1      2630 1.33478E-02 1.21376E-04-9.45493E-14
 -1      2631 1.13827E-02-8.18665E-04-8.36653E-14
 -1      2632 1.44620E-02 5.13145E-04-1.20420E-13
 -1      2633 1.08430E-02 1.09025E-03-7.76992E-14
 -1      2634 1.03788E-02-7.17181E-04-7.44949E-14
 -1      2635 9.99067E-03-4.86148E-04-7.20830E-14
 -1      2636 9.60605E-03-2.73947E-04-7.00575E-14
 -1      2637 8.88849E-03 1.58631E-05-6.74232E-14
 -1      2638 8.82599E-03 2.69107E-05-6.65055E-14
 -1      2639 8.94845E-03-4.18093E-06-6.70762E-14
 -1      2640 8.73681E-03 5.37765E-05-6.66915E-14
 -1      2641 8.76280E-03 7.55152E-05-6.67438E-14
 -1      2642 9.67565E-03 4.37876E-04-7.00077E-14
 -1      2643 9.21755E-03-9.39467E-05-6.84993E-14
 -1      2644 9.11719E-03-6.16356E-05-6.76560E-14
 -1      2645 9.29869E-03-1.35823E-04-6.81541E-14
 -1      2646 1.14677E-02 1.02399E-03-8.36459E-14
 -1      2647 6.89500E-04 2.51316E-04-4.66112E-16
 -1      2648 9.28907E-03 2.49828E-04-6.84529E-14
 -1      2649 1.42946E-02-2.38809E-04-1.22345E-13
 -1      2650 1.43932E-02-1.81032E-04-1.22986E-13
 -1      2651 1.42894E-02-1.80266E-04-1.21151E-13
 -1      2652 1.41651E-02-2.57680E-04-1.20460E-13
 -1      2653 8.97003E-03 1.32990E-04-6.73914E-14
 -1      2654 1.17725E-02-6.04176E-04-8.68131E-14
 -1      2655 1.41288E-02-2.31933E-04-1.19388E-13
 -1      2656 7.80288E-04 7.73770E-05-7.80395E-16
 -1      2657 7.79036E-04 5.55038E-05-7.86792E-16
 -1      2658 7.78195E-04 3.35795E-05-7.91712E-16
 -1      2659 7.77776E-04 1.19028E-05-7.95059E-16
 -1      2660 8.96625E-04 4.97069E-05-9.99106E-16
 -1      2661 7.91570E-04 1.73210E-04-7.31945E-16
 -1      2662 7.87582E-04 1.47789E-04-7.48045E-16
 -1      2663 8.03391E-04 2.28415E-04-6.89268E-16
 -1      2664 7.96790E-04 2.00022E-04-7.12673E-16
 -1      2665 9.14867E-04 2.07912E-04-9.19376E-16
 -1      2666 1.12974E-03 3.62042E-04-1.11703E-15
 -1      2667 9.86148E-04 3.32976E-04-8.66738E-16
 -1      2668 9.19265E-03 2.15801E-04-6.72893E-14
 -1      2669 9.34955E-03 2.81824E-04-6.79132E-14
 -1      2670 8.03042E-04 2.78322E-04-6.14797E-16
 -1      2671 1.32008E-03-3.62845E-04-1.63710E-15
 -1      2672 1.46330E-03-3.81810E-04-1.98240E-15
 -1      2673 1.60633E-03-3.97866E-04-2.36096E-15
 -1      2674 1.74926E-03-4.11242E-04-2.77332E-15
 -1      2675 1.52495E-03-3.55469E-04-2.20707E-15
 -1      2676 1.89203E-03-4.22405E-04-3.21873E-15
 -1      2677 2.03468E-03-4.31541E-04-3.69726E-15
 -1      2678 1.81163E-03-3.81307E-04-3.03648E-15
 -1      2679 2.17722E-03-4.39022E-04-4.20912E-15
 -1      2680 2.31968E-03-4.44999E-04-4.75363E-15
 -1      2681 2.09809E-03-3.99049E-04-3.99743E-15
 -1      2682 2.46209E-03-4.49757E-04-5.33071E-15
 -1      2683 2.60445E-03-4.53417E-04-5.94003E-15
 -1      2684 2.38427E-03-4.10696E-04-5.08929E-15
 -1      2685 2.74681E-03-4.56192E-04-6.58172E-15
 -1      2686 2.88914E-03-4.58172E-04-7.25476E-15
 -1      2687 2.67022E-03-4.17845E-04-6.31015E-15
 -1      2688 3.03150E-03-4.59514E-04-7.95890E-15
 -1      2689 3.17386E-03-4.60287E-04-8.69401E-15
 -1      2690 2.95602E-03-4.21722E-04-7.65748E-15
 -1      2691 3.31625E-03-4.60600E-04-9.45953E-15
 -1      2692 3.45866E-03-4.60502E-04-1.02560E-14
 -1      2693 3.24171E-03-4.23241E-04-9.12843E-15
 -1      2694 3.60112E-03-4.60068E-04-1.10814E-14
 -1      2695 3.74361E-03-4.59331E-04-1.19366E-14
 -1      2696 3.52736E-03-4.23061E-04-1.07202E-14
 -1      2697 3.88615E-03-4.58339E-04-1.28213E-14
 -1      2698 4.02873E-03-4.57111E-04-1.37344E-14
 -1      2699 3.81300E-03-4.21631E-04-1.24304E-14
 -1      2700 4.17136E-03-4.55672E-04-1.46760E-14
 -1      2701 4.31404E-03-4.54036E-04-1.56460E-14
 -1      2702 4.09866E-03-4.19241E-04-1.42568E-14
 -1      2703 4.45677E-03-4.52209E-04-1.66436E-14
 -1      2704 4.59956E-03-4.50197E-04-1.76685E-14
 -1      2705 4.38436E-03-4.16052E-04-1.61955E-14
 -1      2706 4.74241E-03-4.47998E-04-1.87198E-14
 -1      2707 4.88533E-03-4.45610E-04-1.97962E-14
 -1      2708 4.67012E-03-4.12130E-04-1.82439E-14
 -1      2709 5.02831E-03-4.43026E-04-2.08997E-14
 -1      2710 5.17138E-03-4.40240E-04-2.20286E-14
 -1      2711 4.95595E-03-4.07474E-04-2.03973E-14
 -1      2712 5.31452E-03-4.37244E-04-2.31832E-14
 -1      2713 5.45776E-03-4.34033E-04-2.43632E-14
 -1      2714 5.24188E-03-4.02041E-04-2.26544E-14
 -1      2715 5.60109E-03-4.30601E-04-2.55673E-14
 -1      2716 5.74454E-03-4.26946E-04-2.67973E-14
 -1      2717 5.52792E-03-3.95773E-04-2.50132E-14
 -1      2718 5.88810E-03-4.23071E-04-2.80519E-14
 -1      2719 6.03181E-03-4.18985E-04-2.93316E-14
 -1      2720 5.81410E-03-3.88632E-04-2.74714E-14
 -1      2721 6.17565E-03-4.14705E-04-3.06366E-14
 -1      2722 6.31970E-03-4.10253E-04-3.19669E-14
 -1      2723 6.10047E-03-3.80631E-04-3.00308E-14
 -1      2724 6.46391E-03-4.05676E-04-3.33199E-14
 -1      2725 6.60838E-03-4.01016E-04-3.46956E-14
 -1      2726 6.38710E-03-3.71888E-04-3.26877E-14
 -1      2727 6.75306E-03-3.96357E-04-3.60964E-14
 -1      2728 6.89808E-03-3.91774E-04-3.75185E-14
 -1      2729 6.67409E-03-3.62680E-04-3.54396E-14
 -1      2730 7.04340E-03-3.87402E-04-3.89624E-14
 -1      2731 7.18915E-03-3.83364E-04-4.04264E-14
 -1      2732 6.96164E-03-3.53523E-04-3.82818E-14
 -1      2733 7.33534E-03-3.79859E-04-4.19112E-14
 -1      2734 7.48211E-03-3.77077E-04-4.34174E-14
 -1      2735 7.25006E-03-3.45258E-04-4.12081E-14
 -1      2736 7.62952E-03-3.75289E-04-4.49436E-14
 -1      2737 7.77773E-03-3.74785E-04-4.64884E-14
 -1      2738 7.53991E-03-3.39159E-04-4.42176E-14
 -1      2739 7.92689E-03-3.75907E-04-4.80515E-14
 -1      2740 8.07718E-03-3.79083E-04-4.96325E-14
 -1      2741 7.83211E-03-3.37066E-04-4.73049E-14
 -1      2742 8.22887E-03-3.84711E-04-5.12328E-14
 -1      2743 8.38215E-03-3.93406E-04-5.28514E-14
 -1      2744 8.12812E-03-3.41524E-04-5.04650E-14
 -1      2745 8.53745E-03-4.05576E-04-5.44860E-14
 -1      2746 8.69487E-03-4.22065E-04-5.61386E-14
 -1      2747 8.43016E-03-3.55953E-04-5.36968E-14
 -1      2748 8.85507E-03-4.43214E-04-5.78069E-14
 -1      2749 9.01787E-03-4.70070E-04-5.94902E-14
 -1      2750 8.74129E-03-3.84827E-04-5.69965E-14
 -1      2751 9.18409E-03-5.02790E-04-6.11912E-14
 -1      2752 9.35294E-03-5.42320E-04-6.29090E-14
 -1      2753 9.06512E-03-4.33763E-04-6.03608E-14
 -1      2754 9.52521E-03-5.88455E-04-6.46436E-14
 -1      2755 9.69919E-03-6.41185E-04-6.63940E-14
 -1      2756 9.40439E-03-5.08996E-04-6.37914E-14
 -1      2757 9.87528E-03-6.99361E-04-6.81606E-14
 -1      2758 1.00508E-02-7.61067E-04-6.99427E-14
 -1      2759 9.75838E-03-6.14169E-04-6.72848E-14
 -1      2760 1.02255E-02-8.23988E-04-7.17431E-14
 -1      2761 1.03972E-02-8.82606E-04-7.35590E-14
 -1      2762 1.01193E-02-7.43966E-04-7.08434E-14
 -1      2763 1.05646E-02-9.34102E-04-7.53918E-14
 -1      2764 1.07291E-02-9.70363E-04-7.72411E-14
 -1      2765 1.04729E-02-8.74217E-04-7.44699E-14
 -1      2766 1.08893E-02-9.88710E-04-7.91059E-14
 -1      2767 1.10500E-02-9.86087E-04-8.09869E-14
 -1      2768 1.08103E-02-9.58154E-04-7.81650E-14
 -1      2769 1.12099E-02-9.62075E-04-8.28841E-14
 -1      2770 1.13742E-02-9.20518E-04-8.47915E-14
 -1      2771 1.11381E-02-9.52552E-04-8.19253E-14
 -1      2772 1.15412E-02-8.63773E-04-8.67114E-14
 -1      2773 1.17124E-02-7.99286E-04-8.86487E-14
 -1      2774 1.14746E-02-8.57972E-04-8.57436E-14
 -1      2775 1.18866E-02-7.30327E-04-9.05965E-14
 -1      2776 1.20617E-02-6.62174E-04-9.25557E-14
 -1      2777 1.18279E-02-7.16329E-04-8.96125E-14
 -1      2778 1.22373E-02-5.97082E-04-9.45296E-14
 -1      2779 1.24107E-02-5.37355E-04-9.65143E-14
 -1      2780 1.21887E-02-5.73328E-04-9.35335E-14
 -1      2781 1.25824E-02-4.83927E-04-9.85111E-14
 -1      2782 1.27505E-02-4.36692E-04-1.00515E-13
 -1      2783 1.25426E-02-4.53902E-04-9.75034E-14
 -1      2784 1.29159E-02-3.95765E-04-1.02529E-13
 -1      2785 1.30776E-02-3.60096E-04-1.04555E-13
 -1      2786 1.28818E-02-3.63350E-04-1.01513E-13
 -1      2787 1.32367E-02-3.29370E-04-1.06594E-13
 -1      2788 1.33928E-02-3.02424E-04-1.08639E-13
 -1      2789 1.32051E-02-2.96963E-04-1.05563E-13
 -1      2790 1.35466E-02-2.78709E-04-1.10693E-13
 -1      2791 1.36982E-02-2.57179E-04-1.12756E-13
 -1      2792 1.35154E-02-2.47521E-04-1.09651E-13
 -1      2793 1.38479E-02-2.37187E-04-1.14827E-13
 -1      2794 1.39960E-02-2.17863E-04-1.16908E-13
 -1      2795 1.38160E-02-2.08016E-04-1.13772E-13
 -1      2796 2.26900E-03 4.78338E-04-4.33833E-15
 -1      2797 2.12719E-03 4.71579E-04-3.81867E-15
 -1      2798 8.88349E-03 1.09691E-04-6.62811E-14
 -1      2799 9.02009E-03 1.50609E-04-6.67112E-14
 -1      2800 1.98529E-03 4.63179E-04-3.33193E-15
 -1      2801 1.84326E-03 4.52978E-04-2.87843E-15
 -1      2802 2.04753E-03 4.31221E-04-3.63438E-15
 -1      2803 2.83602E-03 4.93683E-04-6.74303E-15
 -1      2804 2.69426E-03 4.91277E-04-6.09360E-15
 -1      2805 3.11970E-03 4.96480E-04-8.13785E-15
 -1      2806 2.97784E-03 4.95392E-04-7.42437E-15
 -1      2807 2.90229E-03 4.57576E-04-7.15498E-15
 -1      2808 3.40362E-03 4.97206E-04-9.65860E-15
 -1      2809 3.26163E-03 4.97066E-04-8.88287E-15
 -1      2810 3.18709E-03 4.59718E-04-8.58382E-15
 -1      2811 3.68784E-03 4.96426E-04-1.13026E-14
 -1      2812 3.54570E-03 4.96980E-04-1.04655E-14
 -1      2813 3.47198E-03 4.59991E-04-1.01371E-14
 -1      2814 3.97237E-03 4.94515E-04-1.30680E-14
 -1      2815 3.83007E-03 4.95596E-04-1.21705E-14
 -1      2816 3.75700E-03 4.58900E-04-1.18125E-14
 -1      2817 4.25724E-03 4.91697E-04-1.49511E-14
 -1      2818 4.11477E-03 4.93210E-04-1.39945E-14
 -1      2819 4.04217E-03 4.56769E-04-1.36078E-14
 -1      2820 4.54248E-03 4.88080E-04-1.69473E-14
 -1      2821 4.39981E-03 4.89984E-04-1.59350E-14
 -1      2822 4.32753E-03 4.53786E-04-1.55184E-14
 -1      2823 4.82810E-03 4.83689E-04-1.90533E-14
 -1      2824 4.68523E-03 4.85981E-04-1.79874E-14
 -1      2825 4.61309E-03 4.50035E-04-1.75417E-14
 -1      2826 5.11416E-03 4.78492E-04-2.12672E-14
 -1      2827 4.97107E-03 4.81193E-04-2.01468E-14
 -1      2828 4.89888E-03 4.45521E-04-1.96730E-14
 -1      2829 5.40073E-03 4.72424E-04-2.35867E-14
 -1      2830 5.25737E-03 4.75569E-04-2.24134E-14
 -1      2831 5.18493E-03 4.40201E-04-2.19119E-14
 -1      2832 5.68791E-03 4.65422E-04-2.60076E-14
 -1      2833 5.54423E-03 4.69041E-04-2.47845E-14
 -1      2834 5.47129E-03 4.34007E-04-2.42558E-14
 -1      2835 5.97583E-03 4.57461E-04-2.85294E-14
 -1      2836 5.83176E-03 4.61559E-04-2.72557E-14
 -1      2837 5.75801E-03 4.26879E-04-2.67014E-14
 -1      2838 6.26465E-03 4.48597E-04-3.11481E-14
 -1      2839 6.12010E-03 4.53132E-04-2.98269E-14
 -1      2840 6.04517E-03 4.18802E-04-2.92467E-14
 -1      2841 6.55458E-03 4.39036E-04-3.38602E-14
 -1      2842 6.40944E-03 4.43884E-04-3.24928E-14
 -1      2843 6.33285E-03 4.09855E-04-3.18876E-14
 -1      2844 6.84589E-03 4.29213E-04-3.66636E-14
 -1      2845 6.70002E-03 4.34121E-04-3.52509E-14
 -1      2846 6.62119E-03 4.00269E-04-3.46210E-14
 -1      2847 7.13891E-03 4.19904E-04-3.95493E-14
 -1      2848 6.99214E-03 4.24435E-04-3.80963E-14
 -1      2849 6.91034E-03 3.90515E-04-3.74427E-14
 -1      2850 7.43410E-03 4.12367E-04-4.25215E-14
 -1      2851 7.28617E-03 4.15820E-04-4.10249E-14
 -1      2852 7.20057E-03 3.81404E-04-4.03492E-14
 -1      2853 7.73209E-03 4.08519E-04-4.55688E-14
 -1      2854 7.58267E-03 4.09840E-04-4.40360E-14
 -1      2855 7.49226E-03 3.74224E-04-4.33373E-14
 -1      2856 8.03386E-03 4.11139E-04-4.86902E-14
 -1      2857 7.88241E-03 4.08811E-04-4.71201E-14
 -1      2858 7.78610E-03 3.70900E-04-4.64020E-14
 -1      2859 8.34084E-03 4.24070E-04-5.18838E-14
 -1      2860 8.18659E-03 4.16017E-04-5.02790E-14
 -1      2861 8.08323E-03 3.74184E-04-4.95403E-14
 -1      2862 8.65514E-03 4.52374E-04-5.51395E-14
 -1      2863 8.49697E-03 4.35888E-04-5.35041E-14
 -1      2864 8.38555E-03 3.87872E-04-5.27474E-14
 -1      2865 8.97953E-03 5.02269E-04-5.84587E-14
 -1      2866 8.81601E-03 4.74097E-04-5.67915E-14
 -1      2867 8.69601E-03 4.17046E-04-5.60184E-14
 -1      2868 9.31685E-03 5.80522E-04-6.18347E-14
 -1      2869 9.14667E-03 5.37280E-04-6.01392E-14
 -1      2870 9.01863E-03 4.68218E-04-5.93502E-14
 -1      2871 9.66812E-03 6.92403E-04-6.52694E-14
 -1      2872 9.49121E-03 6.31965E-04-6.35444E-14
 -1      2873 9.35780E-03 5.49215E-04-6.27392E-14
 -1      2874 1.00294E-02 8.36297E-04-6.87658E-14
 -1      2875 9.84848E-03 7.61003E-04-6.70094E-14
 -1      2876 9.71549E-03 6.67187E-04-6.61879E-14
 -1      2877 1.03903E-02 9.94307E-04-7.23275E-14
 -1      2878 1.02112E-02 9.15754E-04-7.05397E-14
 -1      2879 1.00870E-02 8.21421E-04-6.96990E-14
 -1      2880 1.07371E-02 1.12720E-03-7.59572E-14
 -1      2881 1.05656E-02 1.06796E-03-7.41330E-14
 -1      2882 1.04575E-02 9.90859E-04-7.32735E-14
 -1      2883 1.10685E-02 1.18394E-03-7.96580E-14
 -1      2884 1.09029E-02 1.16787E-03-7.78007E-14
 -1      2885 1.08113E-02 1.12400E-03-7.69224E-14
 -1      2886 1.13993E-02 1.14146E-03-8.34238E-14
 -1      2887 1.12312E-02 1.17393E-03-8.15320E-14
 -1      2888 1.11499E-02 1.15930E-03-8.06388E-14
 -1      2889 1.17459E-02 1.02571E-03-8.72493E-14
 -1      2890 1.15703E-02 1.08911E-03-8.53295E-14
 -1      2891 1.14950E-02 1.08270E-03-8.44207E-14
 -1      2892 1.21052E-02 8.86265E-04-9.11294E-14
 -1      2893 1.19251E-02 9.55510E-04-8.91832E-14
 -1      2894 1.18593E-02 9.41202E-04-8.82602E-14
 -1      2895 1.24642E-02 7.62387E-04-9.50620E-14
 -1      2896 1.22862E-02 8.20899E-04-9.30910E-14
 -1      2897 1.22316E-02 7.94788E-04-9.21533E-14
 -1      2898 1.28122E-02 6.69768E-04-9.90302E-14
 -1      2899 1.26404E-02 7.12116E-04-9.70407E-14
 -1      2900 1.25953E-02 6.78408E-04-9.60948E-14
 -1      2901 1.31454E-02 6.08359E-04-1.03027E-13
 -1      2902 1.29809E-02 6.35611E-04-1.01027E-13
 -1      2903 1.29411E-02 5.98663E-04-1.00070E-13
 -1      2904 1.34652E-02 5.71839E-04-1.07052E-13
 -1      2905 1.33070E-02 5.87610E-04-1.05034E-13
 -1      2906 1.32686E-02 5.49840E-04-1.04076E-13
 -1      2907 1.37741E-02 5.51977E-04-1.11100E-13
 -1      2908 1.36209E-02 5.60383E-04-1.09074E-13
 -1      2909 1.35815E-02 5.23014E-04-1.08105E-13
 -1      2910 1.40749E-02 5.40822E-04-1.15168E-13
 -1      2911 1.39254E-02 5.45792E-04-1.13132E-13
 -1      2912 1.38840E-02 5.09656E-04-1.12158E-13
 -1      2913 1.43430E-02 5.24806E-04-1.18814E-13
 -1      2914 1.41965E-02 5.29438E-04-1.16768E-13
 -1      2915 1.41537E-02 4.95203E-04-1.15789E-13
 -1      2916 1.43923E-02 4.75364E-04-1.18991E-13
 -1      2917 1.26290E-02 3.92575E-04-9.18702E-14
 -1      2918 1.28091E-02 3.11239E-04-9.26964E-14
 -1      2919 1.45701E-02 1.75929E-04-1.19257E-13
 -1      2920 1.45729E-02 2.02487E-04-1.19212E-13
 -1      2921 1.08363E-02 1.10424E-03-7.73625E-14
 -1      2922 1.10032E-02 1.13916E-03-7.91200E-14
 -1      2923 1.45420E-02 2.85264E-04-1.19076E-13
 -1      2924 1.45205E-02 3.15246E-04-1.19028E-13
 -1      2925 1.45440E-02 1.22269E-04-1.19348E-13
 -1      2926 1.45604E-02 1.49447E-04-1.19304E-13
 -1      2927 1.44538E-02 1.57332E-04-1.17496E-13
 -1      2928 1.45689E-02 2.29183E-04-1.19166E-13
 -1      2929 1.45584E-02 2.56766E-04-1.19119E-13
 -1      2930 1.44364E-02 2.67272E-04-1.17321E-13
 -1      2931 1.44591E-02 2.11161E-04-1.17409E-13
 -1      2932 1.44939E-02 6.61038E-05-1.19438E-13
 -1      2933 1.45217E-02 9.48338E-05-1.19396E-13
 -1      2934 1.44200E-02 1.02494E-04-1.17583E-13
 -1      2935 1.44231E-02 3.42887E-06-1.19524E-13
 -1      2936 1.44606E-02 3.55858E-05-1.19482E-13
 -1      2937 1.43612E-02 4.29641E-05-1.17668E-13
 -1      2938 1.43395E-02-6.55534E-05-1.19602E-13
 -1      2939 1.43824E-02-3.02628E-05-1.19563E-13
 -1      2940 1.42833E-02-2.36250E-05-1.17746E-13
 -1      2941 1.21755E-02 6.33986E-04-8.93007E-14
 -1      2942 1.23873E-02 5.17490E-04-9.06430E-14
 -1      2943 1.29758E-02 2.46643E-04-9.35493E-14
 -1      2944 1.30970E-02 2.06568E-04-9.40935E-14
 -1      2945 1.70106E-03 4.40557E-04-2.45817E-15
 -1      2946 1.55861E-03 4.25715E-04-2.07182E-15
 -1      2947 1.76203E-03 4.11218E-04-2.72142E-15
 -1      2948 1.30721E-02 3.70128E-05-9.42743E-14
 -1      2949 1.29244E-02-1.28441E-05-9.36774E-14
 -1      2950 1.08172E-02-9.00950E-04-7.83269E-14
 -1      2951 1.07058E-02-8.76357E-04-7.72013E-14
 -1      2952 1.14575E-02-7.90075E-04-8.46747E-14
 -1      2953 1.12901E-02-8.66014E-04-8.30611E-14
 -1      2954 1.32359E-02 1.65687E-04-9.48507E-14
 -1      2955 1.33355E-02 1.44832E-04-9.56106E-14
 -1      2956 1.32142E-02 1.88402E-04-9.57029E-14
 -1      2957 1.32997E-02 9.93405E-05-9.53411E-14
 -1      2958 1.32080E-02 7.76638E-05-9.49373E-14
 -1      2959 1.08965E-02-9.19758E-04-7.90713E-14
 -1      2960 1.07507E-02-9.01861E-04-7.75662E-14
 -1      2961 1.06247E-02-8.56355E-04-7.63158E-14
 -1      2962 1.09953E-02-9.29757E-04-8.00887E-14
 -1      2963 1.09352E-02-9.30461E-04-7.94719E-14
 -1      2964 1.27435E-02-8.72808E-05-9.29905E-14
 -1      2965 1.25614E-02-1.71333E-04-9.21800E-14
 -1      2966 2.55250E-03 4.88007E-04-5.47586E-15
 -1      2967 2.41077E-03 4.83771E-04-4.89075E-15
 -1      2968 2.33263E-03 4.44506E-04-4.67873E-15
 -1      2969 2.61750E-03 4.52841E-04-5.85278E-15
 -1      2970 1.03364E-03-3.14326E-04-1.04886E-15
 -1      2971 1.17689E-03-3.40432E-04-1.32591E-15
 -1      2972 1.23838E-03-3.19165E-04-1.51101E-15
 -1      2973 7.84453E-04 1.23524E-04-7.61042E-16
 -1      2974 7.82080E-04 1.00078E-04-7.71857E-16
 -1      2975 8.99716E-04 9.95004E-05-9.83114E-16
 -1      2976 9.05420E-04 1.51661E-04-9.57256E-16
 -1      2977 1.41595E-03 4.07917E-04-1.71954E-15
 -1      2978 1.27292E-03 3.86901E-04-1.40116E-15
 -1      2979 1.18961E-03 3.41585E-04-1.29695E-15
 -1      2980 1.47603E-03 3.82258E-04-1.94158E-15
 -1      2981 7.81810E-04-9.80216E-05-7.86277E-16
 -1      2982 7.84105E-04-1.21385E-04-7.78959E-16
 -1      2983 1.04304E-02-7.64544E-04-7.45977E-14
 -1      2984 1.02413E-02-6.52120E-04-7.31520E-14
 -1      2985 1.41922E-02-1.93191E-04-1.19734E-13
 -1      2986 1.42559E-02-1.55627E-04-1.20078E-13
 -1      2987 1.40944E-02-2.05676E-04-1.18320E-13
 -1      2988 9.94453E-03 6.07751E-04-7.05101E-14
 -1      2989 1.01139E-02 7.17095E-04-7.14786E-14
 -1      2990 1.03511E-02 8.61355E-04-7.31590E-14
 -1      2991 1.05389E-02 9.72567E-04-7.46858E-14
 -1      2992 1.18828E-02-5.50069E-04-8.81916E-14
 -1      2993 1.16828E-02-6.70840E-04-8.66535E-14
 -1      2994 9.55441E-03 3.83590E-04-6.86643E-14
 -1      2995 9.75455E-03 4.93705E-04-6.95849E-14
 -1      2996 9.80241E-03 5.47869E-04-6.91577E-14
 -1      2997 8.71683E-03 6.77239E-05-6.55750E-14
 -1      2998 8.77360E-03 8.03283E-05-6.57878E-14
 -1      2999 1.13947E-02 1.06798E-03-8.31296E-14
 -1      3000 1.15480E-02 9.98383E-04-8.46035E-14
 -1      3001 8.73796E-03 4.73422E-05-6.58954E-14
 -1      3002 8.70770E-03 5.54042E-05-6.57345E-14
 -1      3003 9.70013E-03-3.36537E-04-6.98343E-14
 -1      3004 9.51351E-03-2.43630E-04-6.87785E-14
 -1      3005 1.00364E-02-5.31951E-04-7.17452E-14
 -1      3006 9.87131E-03-4.31399E-04-7.07860E-14
 -1      3007 9.75251E-03-3.93621E-04-6.94972E-14
 -1      3008 1.11086E-02-9.16950E-04-8.12742E-14
 -1      3009 1.33842E-02 1.26769E-04-9.61041E-14
 -1      3010 1.33660E-02 1.17620E-04-9.58968E-14
 -1      3011 1.23317E-02-2.89281E-04-9.09865E-14
 -1      3012 1.21269E-02-4.05721E-04-8.97964E-14
 -1      3013 7.99394E-04-2.55293E-04-6.77870E-16
 -1      3014 9.30690E-04-2.90875E-04-8.73718E-16
 -1      3015 9.92814E-04-2.75554E-04-1.02326E-15
 -1      3016 7.89245E-04-2.29333E-04-6.93781E-16
 -1      3017 7.87135E-04-1.45540E-04-7.69377E-16
 -1      3018 7.90984E-04-1.70720E-04-7.56827E-16
 -1      3019 9.04943E-04-1.49132E-04-9.80986E-16
 -1      3020 8.95608E-04 1.01023E-06-1.00678E-15
 -1      3021 7.77746E-04-9.72722E-06-7.96604E-16
 -1      3022 7.78107E-04-3.13875E-05-7.96590E-16
 -1      3023 9.43266E-03 3.40337E-04-6.74954E-14
 -1      3024 8.64822E-04 2.66644E-04-7.45470E-16
 -1      3025 1.01073E-02-5.98486E-04-7.18412E-14
 -1      3026 1.11943E-02-9.04650E-04-8.22707E-14
 -1      3027 1.40616E-02-1.78769E-04-1.17254E-13
 -1      3028 9.07274E-03 1.80610E-04-6.61764E-14
 -1      3029 1.28646E-02-5.25550E-05-9.43269E-14
 -1      3030 8.76265E-03 3.57227E-05-6.55475E-14
 -1      3031 8.70895E-03 3.90213E-05-6.45942E-14
 -1      3032 8.79582E-03 2.12819E-05-6.51997E-14
 -1      3033 1.25296E-02 4.64835E-04-9.19996E-14
 -1      3034 1.44249E-02 4.38353E-04-1.19038E-13
 -1      3035 1.43076E-02 4.46931E-04-1.17436E-13
 -1      3036 1.44568E-02 4.02934E-04-1.19080E-13
 -1      3037 1.11819E-02 1.13494E-03-8.09900E-14
 -1      3038 1.29204E-02 2.86491E-04-9.40863E-14
 -1      3039 9.82925E-04 2.75881E-04-9.60955E-16
 -1      3040 1.20229E-02-4.87108E-04-8.96318E-14
 -1      3041 1.20861E-02 7.04469E-04-8.90556E-14
 -1      3042 1.43007E-02-1.17154E-04-1.20049E-13
 -1      3043 1.31700E-02 5.59392E-05-9.56798E-14
 -1      3044 1.33685E-02 1.08749E-04-9.69007E-14
 -1      3045 1.08487E-02-9.27664E-04-7.85738E-14
 -1      3046 1.24753E-02-2.34227E-04-9.24396E-14
 -1      3047 1.15794E-02-7.41608E-04-8.60387E-14
 -1      3048 9.01869E-03-3.38128E-05-6.67340E-14
 -1      3049 8.93005E-03-1.69535E-05-6.58151E-14
 -1      3050 9.08497E-03-7.00620E-05-6.63889E-14
 -1      3051 9.39703E-03-1.95457E-04-6.79307E-14
 -1      3052 9.28515E-03-1.56917E-04-6.70873E-14
 -1      3053 9.47599E-03-2.59069E-04-6.77052E-14
 -1      3054 1.13092E-02 1.10857E-03-8.23524E-14
 -1      3055 1.41308E-02-1.44995E-04-1.17741E-13
 -1      3056 1.42726E-02-9.61304E-05-1.19120E-13
 -1      3057 1.41722E-02-9.01230E-05-1.17300E-13
 -1      3058 1.40338E-02-1.55425E-04-1.16332E-13
 -1      3059 1.45049E-02 3.41622E-04-1.19080E-13
 -1      3060 1.44767E-02 3.74169E-04-1.19030E-13
 -1      3061 1.43628E-02 3.80230E-04-1.17433E-13
 -1      3062 1.44006E-02 3.23712E-04-1.17330E-13
 -1      3063 1.02059E-02 7.95399E-04-7.17415E-14
 -1      3064 8.80006E-03 9.40771E-05-6.51122E-14
 -1      3065 7.78878E-04-5.31846E-05-7.94761E-16
 -1      3066 7.80086E-04-7.53851E-05-7.91386E-16
 -1      3067 8.99431E-04-9.71489E-05-9.98374E-16
 -1      3068 8.96495E-04-4.75545E-05-1.00646E-15
 -1      3069 1.04883E-02-8.08460E-04-7.49544E-14
 -1      3070 8.68500E-03 6.03890E-05-6.47827E-14
 -1      3071 1.01587E-02-6.58790E-04-7.18850E-14
 -1      3072 9.97642E-03-5.52552E-04-7.04902E-14
 -1      3073 1.04029E-03 2.43362E-04-1.12724E-15
 -1      3074 1.03370E-03 2.11631E-04-1.15355E-15
 -1      3075 7.85443E-04-1.87596E-04-7.32202E-16
 -1      3076 7.93278E-04-2.11141E-04-7.21889E-16
 -1      3077 8.94175E-04-2.33347E-04-8.81876E-16
 -1      3078 9.03446E-04-1.95013E-04-9.40803E-16
 -1      3079 1.16420E-02 9.54732E-04-8.54881E-14
 -1      3080 1.17566E-02 9.02117E-04-8.66009E-14
 -1      3081 1.15673E-02 1.01114E-03-8.49663E-14
 -1      3082 1.73169E-03-3.40486E-04-2.85468E-15
 -1      3083 1.87537E-03-3.50653E-04-3.30435E-15
 -1      3084 2.01903E-03-3.59091E-04-3.78663E-15
 -1      3085 2.16268E-03-3.65950E-04-4.30167E-15
 -1      3086 1.94025E-03-3.19317E-04-3.57714E-15
 -1      3087 2.30629E-03-3.71507E-04-4.84889E-15
 -1      3088 2.44984E-03-3.75884E-04-5.42819E-15
 -1      3089 2.22831E-03-3.32308E-04-4.60961E-15
 -1      3090 2.59335E-03-3.79301E-04-6.03977E-15
 -1      3091 2.73679E-03-3.81852E-04-6.68293E-15
 -1      3092 2.51630E-03-3.40638E-04-5.77107E-15
 -1      3093 2.88018E-03-3.83706E-04-7.35738E-15
 -1      3094 3.02351E-03-3.84934E-04-8.06266E-15
 -1      3095 2.80409E-03-3.45515E-04-7.05883E-15
 -1      3096 3.16680E-03-3.85659E-04-8.79850E-15
 -1      3097 3.31004E-03-3.85933E-04-9.56478E-15
 -1      3098 3.09160E-03-3.47879E-04-8.47036E-15
 -1      3099 3.45324E-03-3.85843E-04-1.03608E-14
 -1      3100 3.59640E-03-3.85424E-04-1.11863E-14
 -1      3101 3.37882E-03-3.48427E-04-1.00031E-14
 -1      3102 3.73952E-03-3.84736E-04-1.20412E-14
 -1      3103 3.88261E-03-3.83799E-04-1.29253E-14
 -1      3104 3.66577E-03-3.47654E-04-1.16543E-14
 -1      3105 4.02567E-03-3.82650E-04-1.38384E-14
 -1      3106 4.16870E-03-3.81300E-04-1.47796E-14
 -1      3107 3.95244E-03-3.45892E-04-1.34220E-14
 -1      3108 4.31171E-03-3.79768E-04-1.57491E-14
 -1      3109 4.45469E-03-3.78056E-04-1.67459E-14
 -1      3110 4.23885E-03-3.43341E-04-1.53041E-14
 -1      3111 4.59764E-03-3.76173E-04-1.77688E-14
 -1      3112 4.74057E-03-3.74113E-04-1.88188E-14
 -1      3113 4.52501E-03-3.40100E-04-1.72964E-14
 -1      3114 4.88347E-03-3.71876E-04-1.98966E-14
 -1      3115 5.02634E-03-3.69455E-04-2.09986E-14
 -1      3116 4.81090E-03-3.36197E-04-1.93960E-14
 -1      3117 5.16919E-03-3.66843E-04-2.21260E-14
 -1      3118 5.31201E-03-3.64032E-04-2.32803E-14
 -1      3119 5.09651E-03-3.31603E-04-2.16001E-14
 -1      3120 5.45480E-03-3.61017E-04-2.44595E-14
 -1      3121 5.59756E-03-3.57788E-04-2.56634E-14
 -1      3122 5.38179E-03-3.26267E-04-2.39064E-14
 -1      3123 5.74028E-03-3.54346E-04-2.68928E-14
 -1      3124 5.88297E-03-3.50686E-04-2.81470E-14
 -1      3125 5.66670E-03-3.20132E-04-2.63146E-14
 -1      3126 6.02561E-03-3.46820E-04-2.94254E-14
 -1      3127 6.16824E-03-3.42749E-04-3.07301E-14
 -1      3128 5.95116E-03-3.13167E-04-2.88225E-14
 -1      3129 6.31080E-03-3.38505E-04-3.20591E-14
 -1      3130 6.45336E-03-3.34102E-04-3.34104E-14
 -1      3131 6.23512E-03-3.05399E-04-3.14306E-14
 -1      3132 6.59587E-03-3.29599E-04-3.47861E-14
 -1      3133 6.73840E-03-3.25030E-04-3.61838E-14
 -1      3134 6.51851E-03-2.96956E-04-3.41342E-14
 -1      3135 6.88090E-03-3.20488E-04-3.76035E-14
 -1      3136 7.02348E-03-3.16040E-04-3.90447E-14
 -1      3137 6.80134E-03-2.88114E-04-3.69282E-14
 -1      3138 7.16611E-03-3.11823E-04-4.05076E-14
 -1      3139 7.30892E-03-3.07950E-04-4.19903E-14
 -1      3140 7.08367E-03-2.79358E-04-3.98088E-14
 -1      3141 7.45192E-03-3.04607E-04-4.34930E-14
 -1      3142 7.59530E-03-3.01982E-04-4.50180E-14
 -1      3143 7.36580E-03-2.71449E-04-4.27720E-14
 -1      3144 7.73912E-03-3.00305E-04-4.65598E-14
 -1      3145 7.88367E-03-2.99883E-04-4.81196E-14
 -1      3146 7.64833E-03-2.65507E-04-4.58161E-14
 -1      3147 8.02910E-03-3.00980E-04-4.96987E-14
 -1      3148 8.17579E-03-3.04089E-04-5.12954E-14
 -1      3149 7.93243E-03-2.63130E-04-4.89342E-14
 -1      3150 8.32407E-03-3.09488E-04-5.29093E-14
 -1      3151 8.47442E-03-3.17963E-04-5.45406E-14
 -1      3152 8.22015E-03-2.66575E-04-5.21248E-14
 -1      3153 8.62740E-03-3.29768E-04-5.61882E-14
 -1      3154 8.78349E-03-3.46150E-04-5.78527E-14
 -1      3155 8.51478E-03-2.79097E-04-5.53833E-14
 -1      3156 8.94359E-03-3.67299E-04-5.95330E-14
 -1      3157 9.10787E-03-3.95049E-04-6.12293E-14
 -1      3158 8.82124E-03-3.05591E-04-5.87077E-14
 -1      3159 9.27754E-03-4.29578E-04-6.29423E-14
 -1      3160 9.45177E-03-4.72857E-04-6.46707E-14
 -1      3161 9.14591E-03-3.53772E-04-6.20973E-14
 -1      3162 9.98522E-03-6.46180E-04-6.97951E-14
 -1      3163 1.01716E-02-7.19797E-04-7.15861E-14
 -1      3164 1.04812E-02-8.47471E-04-7.46567E-14
 -1      3165 1.06579E-02-9.05097E-04-7.64951E-14
 -1      3166 1.08297E-02-9.40504E-04-7.83518E-14
 -1      3167 1.09995E-02-9.51178E-04-8.02642E-14
 -1      3168 1.11689E-02-9.29896E-04-8.21555E-14
 -1      3169 1.13320E-02-8.79485E-04-8.39493E-14
 -1      3170 1.15109E-02-8.11689E-04-8.58651E-14
 -1      3171 1.17680E-02-7.03284E-04-8.86284E-14
 -1      3172 1.19545E-02-6.23249E-04-9.05759E-14
 -1      3173 1.21421E-02-5.47392E-04-9.25395E-14
 -1      3174 1.23258E-02-4.79387E-04-9.45129E-14
 -1      3175 1.20983E-02-5.22080E-04-9.15436E-14
 -1      3176 1.25065E-02-4.20722E-04-9.64961E-14
 -1      3177 1.26812E-02-3.70214E-04-9.84912E-14
 -1      3178 1.24740E-02-3.84997E-04-9.54917E-14
 -1      3179 1.28515E-02-3.28046E-04-1.00496E-13
 -1      3180 1.30163E-02-2.92250E-04-1.02508E-13
 -1      3181 1.28252E-02-2.89725E-04-9.94785E-14
 -1      3182 1.31769E-02-2.62499E-04-1.04531E-13
 -1      3183 1.33335E-02-2.36852E-04-1.06567E-13
 -1      3184 1.31523E-02-2.25602E-04-1.03506E-13
 -1      3185 1.34869E-02-2.14969E-04-1.08610E-13
 -1      3186 1.36376E-02-1.95556E-04-1.10659E-13
 -1      3187 1.34612E-02-1.80903E-04-1.07568E-13
 -1      3188 1.37633E-02-1.83541E-04-1.12456E-13
 -1      3189 1.39104E-02-1.66620E-04-1.14521E-13
 -1      3190 1.39815E-02-1.32211E-04-1.15006E-13
 -1      3191 1.37354E-02-1.52370E-04-1.11404E-13
 -1      3192 3.25496E-03 4.22657E-04-9.03222E-15
 -1      3193 3.11209E-03 4.22127E-04-8.28534E-15
 -1      3194 2.96919E-03 4.21096E-04-7.56951E-15
 -1      3195 2.82628E-03 4.19505E-04-6.88565E-15
 -1      3196 3.03670E-03 3.84318E-04-7.98760E-15
 -1      3197 3.82637E-03 4.21206E-04-1.23239E-14
 -1      3198 3.68352E-03 4.22013E-04-1.14557E-14
 -1      3199 4.11207E-03 4.18915E-04-1.41480E-14
 -1      3200 3.96922E-03 4.20169E-04-1.32213E-14
 -1      3201 3.89595E-03 3.83403E-04-1.28367E-14
 -1      3202 4.39780E-03 4.15826E-04-1.60860E-14
 -1      3203 4.25493E-03 4.17465E-04-1.51031E-14
 -1      3204 4.18207E-03 3.81007E-04-1.46892E-14
 -1      3205 4.68358E-03 4.12000E-04-1.81360E-14
 -1      3206 4.54069E-03 4.14005E-04-1.70979E-14
 -1      3207 4.46808E-03 3.77868E-04-1.66553E-14
 -1      3208 4.96942E-03 4.07427E-04-2.02939E-14
 -1      3209 4.82649E-03 4.09809E-04-1.92019E-14
 -1      3210 4.75396E-03 3.74025E-04-1.87312E-14
 -1      3211 5.25532E-03 4.02055E-04-2.25578E-14
 -1      3212 5.11236E-03 4.04845E-04-2.14120E-14
 -1      3213 5.03972E-03 3.69458E-04-2.09146E-14
 -1      3214 5.54130E-03 3.95818E-04-2.49263E-14
 -1      3215 5.39830E-03 3.99049E-04-2.37287E-14
 -1      3216 5.32533E-03 3.64110E-04-2.32037E-14
 -1      3217 5.82737E-03 3.88662E-04-2.73969E-14
 -1      3218 5.68432E-03 3.92357E-04-2.61499E-14
 -1      3219 5.61077E-03 3.57918E-04-2.55986E-14
 -1      3220 6.11353E-03 3.80586E-04-2.99649E-14
 -1      3221 5.97043E-03 3.84738E-04-2.86685E-14
 -1      3222 5.89599E-03 3.50838E-04-2.80928E-14
 -1      3223 6.39980E-03 3.71688E-04-3.26272E-14
 -1      3224 6.25664E-03 3.76232E-04-3.12840E-14
 -1      3225 6.18092E-03 3.42884E-04-3.06828E-14
 -1      3226 6.68621E-03 3.62225E-04-3.53813E-14
 -1      3227 6.54297E-03 3.67008E-04-3.39927E-14
 -1      3228 6.46550E-03 3.34172E-04-3.33666E-14
 -1      3229 6.97283E-03 3.52689E-04-3.82220E-14
 -1      3230 6.82946E-03 3.57431E-04-3.67917E-14
 -1      3231 6.74967E-03 3.24977E-04-3.61404E-14
 -1      3232 7.25983E-03 3.43906E-04-4.11487E-14
 -1      3233 7.11624E-03 3.48145E-04-3.96756E-14
 -1      3234 7.03340E-03 3.15802E-04-3.90034E-14
 -1      3235 7.54756E-03 3.37155E-04-4.41543E-14
 -1      3236 7.40354E-03 3.40185E-04-4.26409E-14
 -1      3237 7.31678E-03 3.07459E-04-4.19478E-14
 -1      3238 7.83673E-03 3.34305E-04-4.72354E-14
 -1      3239 7.69187E-03 3.35101E-04-4.56855E-14
 -1      3240 7.60010E-03 3.01169E-04-4.49706E-14
 -1      3241 8.12869E-03 3.37997E-04-5.03894E-14
 -1      3242 7.98222E-03 3.35118E-04-4.88024E-14
 -1      3243 7.88411E-03 2.98677E-04-4.80681E-14
 -1      3244 8.42577E-03 3.51883E-04-5.36107E-14
 -1      3245 8.27638E-03 3.43338E-04-5.19928E-14
 -1      3246 8.17031E-03 3.02416E-04-5.12376E-14
 -1      3247 8.73178E-03 3.80988E-04-5.68963E-14
 -1      3248 8.57738E-03 3.64020E-04-5.52461E-14
 -1      3249 8.46149E-03 3.15770E-04-5.44748E-14
 -1      3250 9.05214E-03 4.32186E-04-6.02403E-14
 -1      3251 8.88987E-03 4.03062E-04-5.85602E-14
 -1      3252 8.76234E-03 3.43693E-04-5.77726E-14
 -1      3253 9.39311E-03 5.14803E-04-6.36435E-14
 -1      3254 9.21998E-03 4.68549E-04-6.19348E-14
 -1      3255 9.07985E-03 3.93648E-04-6.11300E-14
 -1      3256 9.75886E-03 6.38759E-04-6.71048E-14
 -1      3257 9.57369E-03 5.70690E-04-6.53665E-14
 -1      3258 9.42281E-03 4.77282E-04-6.45464E-14
 -1      3259 1.05368E-02 1.00189E-03-7.42538E-14
 -1      3260 1.03494E-02 9.14351E-04-7.24500E-14
 -1      3261 1.28808E-02 3.29261E-04-9.47858E-14
 -1      3262 1.30296E-02 2.72247E-04-9.56456E-14
 -1      3263 1.16639E-02 9.93368E-04-8.60935E-14
 -1      3264 1.14788E-02 1.06495E-03-8.41824E-14
 -1      3265 1.20456E-02 8.30505E-04-8.99576E-14
 -1      3266 1.18544E-02 9.11306E-04-8.80206E-14
 -1      3267 1.18536E-02 8.82079E-04-8.77774E-14
 -1      3268 1.24245E-02 6.91980E-04-9.38746E-14
 -1      3269 1.22376E-02 7.56737E-04-9.19098E-14
 -1      3270 1.22468E-02 7.16771E-04-9.16651E-14
 -1      3271 1.27838E-02 5.95295E-04-9.78288E-14
 -1      3272 1.26074E-02 6.39017E-04-9.58470E-14
 -1      3273 1.26227E-02 5.97143E-04-9.55986E-14
 -1      3274 1.31198E-02 5.35085E-04-1.01818E-13
 -1      3275 1.29546E-02 5.61408E-04-9.98192E-14
 -1      3276 1.29709E-02 5.22623E-04-9.95683E-14
 -1      3277 1.34371E-02 5.01718E-04-1.05832E-13
 -1      3278 1.32804E-02 5.15872E-04-1.03823E-13
 -1      3279 1.32943E-02 4.81099E-04-1.03569E-13
 -1      3280 1.37412E-02 4.85329E-04-1.09876E-13
 -1      3281 1.35904E-02 4.91990E-04-1.07849E-13
 -1      3282 1.36007E-02 4.60794E-04-1.07596E-13
 -1      3283 1.41893E-02 4.55500E-04-1.15836E-13
 -1      3284 1.40697E-02 4.64477E-04-1.14240E-13
 -1      3285 1.42248E-02 4.17298E-04-1.15884E-13
 -1      3286 1.42945E-02 8.22298E-05-1.15821E-13
 -1      3287 1.43192E-02 1.10934E-04-1.15780E-13
 -1      3288 1.01411E-02 7.89589E-04-7.07801E-14
 -1      3289 1.43374E-02 1.38746E-04-1.15739E-13
 -1      3290 1.43477E-02 1.65992E-04-1.15698E-13
 -1      3291 1.42201E-02 1.20217E-04-1.13986E-13
 -1      3292 1.29933E-02-2.28093E-05-9.59111E-14
 -1      3293 1.28355E-02-8.87459E-05-9.52197E-14
 -1      3294 1.14498E-03 3.10663E-04-1.25162E-15
 -1      3295 1.08236E-03 2.71729E-04-1.17651E-15
 -1      3296 1.20146E-03 2.73139E-04-1.44379E-15
 -1      3297 1.28814E-03 3.32629E-04-1.55156E-15
 -1      3298 1.34371E-02 1.12669E-04-9.85751E-14
 -1      3299 1.33680E-02 9.48145E-05-9.80182E-14
 -1      3300 1.33813E-02 1.46093E-04-9.69343E-14
 -1      3301 1.33772E-02 1.33692E-04-9.60792E-14
 -1      3302 1.31874E-02 2.19973E-04-9.66548E-14
 -1      3303 1.33103E-02 1.85331E-04-9.74187E-14
 -1      3304 1.26258E-02-1.90459E-04-9.42557E-14
 -1      3305 1.24235E-02-2.93980E-04-9.30532E-14
 -1      3306 1.82454E-03 3.81153E-04-2.99022E-15
 -1      3307 1.68119E-03 3.69600E-04-2.56383E-15
 -1      3308 1.42261E-02 1.89791E-05-1.15898E-13
 -1      3309 1.42629E-02 5.15904E-05-1.15861E-13
 -1      3310 1.41663E-02 6.10994E-05-1.14061E-13
 -1      3311 1.41405E-02-5.19823E-05-1.15970E-13
 -1      3312 1.41848E-02-1.55024E-05-1.15936E-13
 -1      3313 1.40880E-02-6.06145E-06-1.14133E-13
 -1      3314 1.06521E-02 1.04061E-03-7.55250E-14
 -1      3315 9.27529E-03 2.91765E-04-6.59080E-14
 -1      3316 9.45014E-03 3.81161E-04-6.66455E-14
 -1      3317 3.54067E-03 4.22547E-04-1.06169E-14
 -1      3318 3.39782E-03 4.22784E-04-9.80893E-15
 -1      3319 3.32328E-03 3.85367E-04-9.48262E-15
 -1      3320 3.60969E-03 3.84935E-04-1.10994E-14
 -1      3321 2.11105E-03 3.98632E-04-3.94143E-15
 -1      3322 1.96782E-03 3.90774E-04-3.44942E-15
 -1      3323 1.88829E-03 3.50417E-04-3.26446E-15
 -1      3324 8.96617E-03 1.61016E-04-6.47731E-14
 -1      3325 9.11738E-03 2.18829E-04-6.53414E-14
 -1      3326 9.14068E-03 2.61389E-04-6.45020E-14
 -1      3327 1.19592E-02 8.05996E-04-8.85316E-14
 -1      3328 1.32596E-02 6.56279E-05-9.72387E-14
 -1      3329 1.31352E-02 2.88348E-05-9.65744E-14
 -1      3330 1.31108E-02-4.06914E-06-9.74728E-14
 -1      3331 1.15849E-03-2.77033E-04-1.38514E-15
 -1      3332 1.30137E-03-2.96810E-04-1.70285E-15
 -1      3333 1.44459E-03-3.13816E-04-2.05368E-15
 -1      3334 1.58810E-03-3.28266E-04-2.43763E-15
 -1      3335 1.65244E-03-3.00177E-04-2.67391E-15
 -1      3336 9.62503E-03 4.90304E-04-6.72603E-14
 -1      3337 9.78650E-03 5.87877E-04-6.81676E-14
 -1      3338 1.24591E-02 5.33817E-04-9.23131E-14
 -1      3339 1.26720E-02 4.21792E-04-9.35474E-14
 -1      3340 1.28068E-02 3.94396E-04-9.51043E-14
 -1      3341 9.78467E-03-4.44766E-04-6.91580E-14
 -1      3342 9.63534E-03-3.62265E-04-6.82163E-14
 -1      3343 8.64929E-03 5.16188E-05-6.37054E-14
 -1      3344 8.65280E-03 6.22110E-05-6.35469E-14
 -1      3345 1.34224E-02 1.29735E-04-9.74308E-14
 -1      3346 1.01671E-03 6.82386E-05-1.23024E-15
 -1      3347 1.01555E-03 4.12435E-05-1.23714E-15
 -1      3348 8.72468E-03 8.58009E-05-6.38549E-14
 -1      3349 8.82576E-03 1.11694E-04-6.43406E-14
 -1      3350 1.21651E-02 6.95937E-04-9.02430E-14
 -1      3351 9.94571E-03 6.98505E-04-6.90089E-14
 -1      3352 1.33855E-02 1.59944E-04-9.77618E-14
 -1      3353 1.34330E-02 1.48309E-04-9.82348E-14
 -1      3354 1.34633E-02 1.35938E-04-9.86676E-14
 -1      3355 1.34635E-02 1.29551E-04-9.86937E-14
 -1      3356 1.01496E-03 1.44545E-05-1.24174E-15
 -1      3357 1.01492E-03-1.22364E-05-1.24381E-15
 -1      3358 1.13566E-03 3.01762E-05-1.50028E-15
 -1      3359 1.15314E-03 2.11897E-04-1.41446E-15
 -1      3360 1.02840E-03 1.81245E-04-1.17526E-15
 -1      3361 1.02424E-03 1.51906E-04-1.19368E-15
 -1      3362 1.02096E-03 1.23354E-04-1.20899E-15
 -1      3363 1.01851E-03 9.55712E-05-1.22099E-15
 -1      3364 1.13831E-03 8.86606E-05-1.48456E-15
 -1      3365 1.14387E-03 1.48833E-04-1.45660E-15
 -1      3366 1.34864E-02 1.47890E-04-9.94986E-14
 -1      3367 1.33562E-02 7.42490E-05-9.89175E-14
 -1      3368 1.03043E-02-7.60519E-04-7.29539E-14
 -1      3369 9.85230E-03-5.98646E-04-6.85223E-14
 -1      3370 9.88930E-03-5.63476E-04-6.92554E-14
 -1      3371 9.83686E-03-4.96974E-04-6.92192E-14
 -1      3372 9.66857E-03-5.36312E-04-6.67597E-14
 -1      3373 8.85697E-03 1.42734E-04-6.35151E-14
 -1      3374 1.24277E-02-3.49162E-04-9.41929E-14
 -1      3375 1.22632E-02-4.00005E-04-9.23796E-14
 -1      3376 1.27767E-02-1.48082E-04-9.58392E-14
 -1      3377 1.17109E-02-7.11339E-04-8.78530E-14
 -1      3378 1.02376E-03-1.49178E-04-1.21890E-15
 -1      3379 1.02780E-03-1.78432E-04-1.20557E-15
 -1      3380 8.84014E-03-8.66997E-07-6.48569E-14
 -1      3381 8.76088E-03 7.79200E-06-6.39047E-14
 -1      3382 8.88690E-03-2.85852E-05-6.45145E-14
 -1      3383 2.74991E-03 3.81226E-04-6.61661E-15
 -1      3384 2.68332E-03 4.17219E-04-6.23319E-15
 -1      3385 2.54034E-03 4.14157E-04-5.61202E-15
 -1      3386 1.42417E-02 1.74634E-04-1.13906E-13
 -1      3387 1.43502E-02 1.92838E-04-1.15656E-13
 -1      3388 1.43448E-02 2.20321E-04-1.15615E-13
 -1      3389 1.34924E-02 1.18870E-04-9.98164E-14
 -1      3390 1.36549E-03-2.73207E-04-1.90131E-15
 -1      3391 1.31588E-02 2.57275E-04-9.73602E-14
 -1      3392 9.45219E-03 4.33040E-04-6.56701E-14
 -1      3393 1.39238E-02 4.66677E-04-1.12207E-13
 -1      3394 1.43320E-02 2.48573E-04-1.15572E-13
 -1      3395 1.43126E-02 2.78382E-04-1.15529E-13
 -1      3396 1.42291E-02 2.29598E-04-1.13826E-13
 -1      3397 1.33812E-02 1.84877E-04-9.87187E-14
 -1      3398 1.40273E-02-1.07105E-04-1.15248E-13
 -1      3399 1.40965E-02-7.52189E-05-1.15729E-13
 -1      3400 1.39979E-02-6.64324E-05-1.13925E-13
 -1      3401 1.39059E-02-1.16047E-04-1.13443E-13
 -1      3402 9.53152E-03-4.45077E-04-6.58907E-14
 -1      3403 1.02059E-03-1.20764E-04-1.22924E-15
 -1      3404 1.14340E-03-1.45961E-04-1.48271E-15
 -1      3405 1.01823E-03-9.30381E-05-1.23653E-15
 -1      3406 1.41964E-02 2.85184E-04-1.13838E-13
 -1      3407 1.42976E-02 3.04819E-04-1.15583E-13
 -1      3408 1.42794E-02 3.32560E-04-1.15636E-13
 -1      3409 8.65299E-03 3.21624E-05-6.30142E-14
 -1      3410 8.64633E-03 4.24028E-05-6.33602E-14
 -1      3411 8.58965E-03 4.46555E-05-6.21321E-14
 -1      3412 9.17120E-03-1.21246E-04-6.61636E-14
 -1      3413 9.06438E-03-9.49195E-05-6.52461E-14
 -1      3414 9.24680E-03-1.78163E-04-6.59370E-14
 -1      3415 9.52301E-03-3.14337E-04-6.73702E-14
 -1      3416 9.41189E-03-2.71379E-04-6.65267E-14
 -1      3417 9.55441E-03-3.68200E-04-6.70301E-14
 -1      3418 2.25420E-03 4.05039E-04-4.46624E-15
 -1      3419 2.17567E-03 3.65490E-04-4.25381E-15
 -1      3420 2.39730E-03 4.10132E-04-5.02314E-15
 -1      3421 8.64549E-03 7.27056E-05-6.27803E-14
 -1      3422 8.64468E-03 8.63897E-05-6.20166E-14
 -1      3423 8.58029E-03 6.30267E-05-6.17129E-14
 -1      3424 1.55628E-03 3.61547E-04-2.21157E-15
 -1      3425 1.41291E-03 3.45398E-04-1.84794E-15
 -1      3426 1.36912E-03 3.15178E-04-1.78946E-15
 -1      3427 1.61930E-03 3.33926E-04-2.44980E-15
 -1      3428 1.23639E-02 6.18493E-04-9.21952E-14
 -1      3429 1.25150E-02 5.71355E-04-9.37458E-14
 -1      3430 1.21711E-02-4.28024E-04-9.12688E-14
 -1      3431 1.19528E-02-5.56036E-04-8.96562E-14
 -1      3432 9.95846E-04-2.54115E-04-1.05891E-15
 -1      3433 1.05998E-03-2.37131E-04-1.21572E-15
 -1      3434 1.06459E-03-2.16020E-04-1.24901E-15
 -1      3435 1.86200E-03-2.79987E-04-3.36891E-15
 -1      3436 2.00624E-03-2.87272E-04-3.85451E-15
 -1      3437 2.15057E-03-2.93271E-04-4.37225E-15
 -1      3438 2.29493E-03-2.98103E-04-4.92218E-15
 -1      3439 2.07319E-03-2.54542E-04-4.13653E-15
 -1      3440 2.43930E-03-3.01964E-04-5.50369E-15
 -1      3441 2.58363E-03-3.04946E-04-6.11722E-15
 -1      3442 2.36245E-03-2.63383E-04-5.23844E-15
 -1      3443 2.72790E-03-3.07213E-04-6.76157E-15
 -1      3444 2.87211E-03-3.08834E-04-7.43730E-15
 -1      3445 2.65173E-03-2.68870E-04-6.46649E-15
 -1      3446 3.01623E-03-3.09934E-04-8.14386E-15
 -1      3447 3.16026E-03-3.10566E-04-8.88051E-15
 -1      3448 2.94079E-03-2.71871E-04-7.81890E-15
 -1      3449 3.30421E-03-3.10823E-04-9.64739E-15
 -1      3450 3.44805E-03-3.10740E-04-1.04435E-14
 -1      3451 3.22947E-03-2.73059E-04-9.29320E-15
 -1      3452 3.59181E-03-3.10382E-04-1.12695E-14
 -1      3453 3.73546E-03-3.09771E-04-1.21244E-14
 -1      3454 3.51771E-03-2.72931E-04-1.08860E-14
 -1      3455 3.87902E-03-3.08953E-04-1.30078E-14
 -1      3456 4.02248E-03-3.07936E-04-1.39202E-14
 -1      3457 3.80546E-03-2.71833E-04-1.25958E-14
 -1      3458 4.16585E-03-3.06750E-04-1.48614E-14
 -1      3459 4.30911E-03-3.05396E-04-1.58302E-14
 -1      3460 4.09272E-03-2.69986E-04-1.44203E-14
 -1      3461 4.45228E-03-3.03889E-04-1.68251E-14
 -1      3462 4.59534E-03-3.02224E-04-1.78473E-14
 -1      3463 4.37947E-03-2.67518E-04-1.63560E-14
 -1      3464 4.73829E-03-3.00407E-04-1.88971E-14
 -1      3465 4.88114E-03-2.98429E-04-1.99732E-14
 -1      3466 4.66567E-03-2.64476E-04-1.84005E-14
 -1      3467 5.02386E-03-2.96290E-04-2.10755E-14
 -1      3468 5.16646E-03-2.93978E-04-2.22025E-14
 -1      3469 4.95128E-03-2.60859E-04-2.05513E-14
 -1      3470 5.30892E-03-2.91491E-04-2.33549E-14
 -1      3471 5.45124E-03-2.88814E-04-2.45340E-14
 -1      3472 5.23621E-03-2.56627E-04-2.28055E-14
 -1      3473 5.59338E-03-2.85951E-04-2.57381E-14
 -1      3474 5.73537E-03-2.82885E-04-2.69668E-14
 -1      3475 5.52037E-03-2.51724E-04-2.51625E-14
 -1      3476 5.87715E-03-2.79627E-04-2.82210E-14
 -1      3477 6.01874E-03-2.76163E-04-2.95000E-14
 -1      3478 5.80361E-03-2.46098E-04-2.76200E-14
 -1      3479 6.16009E-03-2.72516E-04-3.08030E-14
 -1      3480 6.30123E-03-2.68678E-04-3.21320E-14
 -1      3481 6.08576E-03-2.39727E-04-3.01783E-14
 -1      3482 6.44209E-03-2.64689E-04-3.34833E-14
 -1      3483 6.58270E-03-2.60552E-04-3.48578E-14
 -1      3484 6.36662E-03-2.32636E-04-3.28338E-14
 -1      3485 6.72302E-03-2.56331E-04-3.62534E-14
 -1      3486 6.86310E-03-2.52043E-04-3.76715E-14
 -1      3487 6.64601E-03-2.24938E-04-3.55809E-14
 -1      3488 7.00287E-03-2.47782E-04-3.91111E-14
 -1      3489 7.14242E-03-2.43590E-04-4.05720E-14
 -1      3490 6.92377E-03-2.16855E-04-3.84160E-14
 -1      3491 7.28173E-03-2.39592E-04-4.20541E-14
 -1      3492 7.42092E-03-2.35869E-04-4.35547E-14
 -1      3493 7.19985E-03-2.08761E-04-4.13363E-14
 -1      3494 7.56000E-03-2.32575E-04-4.50751E-14
 -1      3495 7.69919E-03-2.29862E-04-4.66149E-14
 -1      3496 7.47439E-03-2.01216E-04-4.43367E-14
 -1      3497 7.83854E-03-2.27899E-04-4.81728E-14
 -1      3498 7.97845E-03-2.26964E-04-4.97487E-14
 -1      3499 7.74795E-03-1.95016E-04-4.74134E-14
 -1      3500 8.11904E-03-2.27223E-04-5.13427E-14
 -1      3501 8.26092E-03-2.29192E-04-5.29539E-14
 -1      3502 8.02171E-03-1.91293E-04-5.05623E-14
 -1      3503 8.40440E-03-2.33014E-04-5.45808E-14
 -1      3504 8.55035E-03-2.39645E-04-5.62254E-14
 -1      3505 8.29795E-03-1.91739E-04-5.37811E-14
 -1      3506 8.69935E-03-2.49154E-04-5.78851E-14
 -1      3507 8.85256E-03-2.63408E-04-5.95621E-14
 -1      3508 8.58075E-03-1.99180E-04-5.70669E-14
 -1      3509 9.01102E-03-2.82548E-04-6.12535E-14
 -1      3510 9.17564E-03-3.09641E-04-6.29602E-14
 -1      3511 8.87685E-03-2.19003E-04-6.04143E-14
 -1      3512 8.73082E-03 1.24872E-04-6.19922E-14
 -1      3513 8.85130E-03 1.70031E-04-6.24134E-14
 -1      3514 1.26106E-02-2.92863E-04-9.61749E-14
 -1      3515 1.29677E-02-1.07328E-04-9.81196E-14
 -1      3516 1.27868E-02-1.95312E-04-9.71471E-14
 -1      3517 1.28156E-02-2.40020E-04-9.84571E-14
 -1      3518 1.95326E-03 3.18972E-04-3.54441E-15
 -1      3519 1.80926E-03 3.10431E-04-3.07991E-15
 -1      3520 1.29814E-02-2.05955E-04-1.00461E-13
 -1      3521 1.31412E-02-1.79553E-04-1.02475E-13
 -1      3522 1.32957E-02-1.57470E-04-1.04496E-13
 -1      3523 1.31378E-02-1.30599E-04-1.01444E-13
 -1      3524 1.34461E-02-1.39638E-04-1.06525E-13
 -1      3525 1.35937E-02-1.23815E-04-1.08564E-13
 -1      3526 1.34358E-02-9.67619E-05-1.05486E-13
 -1      3527 3.10480E-03 3.47248E-04-8.40887E-15
 -1      3528 2.96106E-03 3.46319E-04-7.69057E-15
 -1      3529 4.25218E-03 3.43076E-04-1.52314E-14
 -1      3530 4.10900E-03 3.44387E-04-1.42772E-14
 -1      3531 3.96575E-03 3.45515E-04-1.33509E-14
 -1      3532 3.82244E-03 3.46455E-04-1.24532E-14
 -1      3533 4.03576E-03 3.07598E-04-1.38666E-14
 -1      3534 4.82423E-03 3.36160E-04-1.93268E-14
 -1      3535 4.68132E-03 3.38141E-04-1.82620E-14
 -1      3536 5.10979E-03 3.31676E-04-2.15360E-14
 -1      3537 4.96705E-03 3.34009E-04-2.04188E-14
 -1      3538 4.89438E-03 2.98457E-04-1.99231E-14
 -1      3539 5.39498E-03 3.26441E-04-2.38508E-14
 -1      3540 5.25243E-03 3.29157E-04-2.26800E-14
 -1      3541 5.17963E-03 2.94133E-04-2.21582E-14
 -1      3542 5.67973E-03 3.20396E-04-2.62704E-14
 -1      3543 5.53741E-03 3.23525E-04-2.50476E-14
 -1      3544 5.46428E-03 2.89100E-04-2.44988E-14
 -1      3545 5.96393E-03 3.13512E-04-2.87874E-14
 -1      3546 5.82190E-03 3.17063E-04-2.75169E-14
 -1      3547 5.74820E-03 2.83310E-04-2.69413E-14
 -1      3548 6.24743E-03 3.05815E-04-3.14006E-14
 -1      3549 6.10576E-03 3.09765E-04-3.00822E-14
 -1      3550 6.03121E-03 2.76742E-04-2.94830E-14
 -1      3551 6.53010E-03 2.97440E-04-3.41061E-14
 -1      3552 6.38887E-03 3.01706E-04-3.27421E-14
 -1      3553 6.31312E-03 2.69441E-04-3.21191E-14
 -1      3554 6.81177E-03 2.88670E-04-3.69013E-14
 -1      3555 6.67106E-03 2.93089E-04-3.54926E-14
 -1      3556 6.59368E-03 2.61552E-04-3.48460E-14
 -1      3557 7.09232E-03 2.80004E-04-3.97828E-14
 -1      3558 6.95217E-03 2.84295E-04-3.83310E-14
 -1      3559 6.87262E-03 2.53361E-04-3.76613E-14
 -1      3560 7.37173E-03 2.72213E-04-4.27462E-14
 -1      3561 7.23213E-03 2.75951E-04-4.12544E-14
 -1      3562 7.14972E-03 2.45340E-04-4.05623E-14
 -1      3563 7.65022E-03 2.66420E-04-4.57874E-14
 -1      3564 7.51102E-03 2.68992E-04-4.42577E-14
 -1      3565 7.42483E-03 2.38196E-04-4.35455E-14
 -1      3566 7.92850E-03 2.64186E-04-4.89018E-14
 -1      3567 7.78927E-03 2.64742E-04-4.73362E-14
 -1      3568 7.69807E-03 2.32906E-04-4.66042E-14
 -1      3569 8.20814E-03 2.67652E-04-5.20863E-14
 -1      3570 8.06795E-03 2.65014E-04-5.04850E-14
 -1      3571 7.97003E-03 2.30773E-04-4.97350E-14
 -1      3572 8.49220E-03 2.79858E-04-5.53364E-14
 -1      3573 8.34928E-03 2.72338E-04-5.37041E-14
 -1      3574 8.24221E-03 2.33559E-04-5.29344E-14
 -1      3575 8.78609E-03 3.05552E-04-5.86487E-14
 -1      3576 8.63739E-03 2.90378E-04-5.69859E-14
 -1      3577 8.51770E-03 2.43754E-04-5.61997E-14
 -1      3578 9.09841E-03 3.52877E-04-6.20189E-14
 -1      3579 8.93927E-03 3.25388E-04-6.03260E-14
 -1      3580 8.80262E-03 2.65839E-04-5.95255E-14
 -1      3581 9.27638E-03 3.83895E-04-6.39480E-14
 -1      3582 1.34507E-02 7.91133E-05-1.00658E-13
 -1      3583 1.33445E-02 4.87757E-05-9.98757E-14
 -1      3584 1.32336E-02 1.12054E-05-9.92091E-14
 -1      3585 1.31083E-02-3.56625E-05-9.85418E-14
 -1      3586 1.33500E-02 2.16942E-05-1.00952E-13
 -1      3587 1.31103E-02 4.54580E-04-1.00604E-13
 -1      3588 1.29467E-02 4.77895E-04-9.86106E-14
 -1      3589 1.34209E-02 4.28100E-04-1.04614E-13
 -1      3590 1.32680E-02 4.38979E-04-1.02607E-13
 -1      3591 1.32479E-02 3.94655E-04-1.01642E-13
 -1      3592 1.37169E-02 4.17637E-04-1.08649E-13
 -1      3593 1.35702E-02 4.21492E-04-1.06628E-13
 -1      3594 1.35437E-02 3.81241E-04-1.05660E-13
 -1      3595 1.39304E-02 4.38615E-04-1.11949E-13
 -1      3596 1.42481E-02 3.86148E-04-1.15834E-13
 -1      3597 1.39468E-02-3.21502E-05-1.12369E-13
 -1      3598 1.39935E-02 5.05117E-06-1.12336E-13
 -1      3599 1.13943E-02 1.09452E-03-8.33021E-14
 -1      3600 1.41016E-02 1.01548E-04-1.12233E-13
 -1      3601 1.41224E-02 1.29626E-04-1.12195E-13
 -1      3602 1.31358E-02 3.01796E-04-9.81966E-14
 -1      3603 1.32793E-02 2.54303E-04-9.92132E-14
 -1      3604 1.35700E-02 1.28671E-04-1.01464E-13
 -1      3605 1.35410E-02 1.10280E-04-1.01347E-13
 -1      3606 1.34032E-02 2.06716E-04-9.98819E-14
 -1      3607 1.34716E-02 1.80756E-04-1.00229E-13
 -1      3608 1.35211E-02 1.63423E-04-1.00665E-13
 -1      3609 1.35560E-02 1.49879E-04-1.01102E-13
 -1      3610 1.35564E-02 1.81961E-04-1.01834E-13
 -1      3611 1.26980E-02 5.22281E-04-9.57165E-14
 -1      3612 1.57412E-03-2.60745E-04-2.49464E-15
 -1      3613 1.71795E-03-2.71188E-04-2.91561E-15
 -1      3614 1.78443E-03-2.41290E-04-3.16298E-15
 -1      3615 1.40359E-02 3.96835E-05-1.12303E-13
 -1      3616 1.40724E-02 7.18522E-05-1.12269E-13
 -1      3617 1.39809E-02 8.28049E-05-1.10482E-13
 -1      3618 1.39017E-02 1.70120E-05-1.10548E-13
 -1      3619 4.53835E-03 3.39951E-04-1.72244E-14
 -1      3620 4.39530E-03 3.41598E-04-1.62136E-14
 -1      3621 4.32239E-03 3.05176E-04-1.57750E-14
 -1      3622 4.60861E-03 3.02127E-04-1.77944E-14
 -1      3623 1.01544E-03-3.89543E-05-1.24347E-15
 -1      3624 1.01652E-03-6.58093E-05-1.24110E-15
 -1      3625 1.13805E-03-8.60203E-05-1.49964E-15
 -1      3626 8.98464E-03 2.41458E-04-6.25748E-14
 -1      3627 9.11601E-03 3.04146E-04-6.31267E-14
 -1      3628 1.18414E-03-2.15541E-04-1.51916E-15
 -1      3629 1.41449E-02 3.66733E-04-1.14090E-13
 -1      3630 1.40219E-02 3.83518E-04-1.12532E-13
 -1      3631 1.38474E-02 3.95862E-04-1.10201E-13
 -1      3632 1.38159E-02 3.58935E-04-1.09226E-13
 -1      3633 1.40609E-02 3.26407E-04-1.12333E-13
 -1      3634 1.28585E-02 4.37743E-04-9.67420E-14
 -1      3635 1.30370E-02 3.61844E-04-9.79910E-14
 -1      3636 9.71223E-03-4.66146E-04-6.79326E-14
 -1      3637 1.27936E-03 2.42968E-04-1.67492E-15
 -1      3638 1.27326E-03 2.08768E-04-1.70286E-15
 -1      3639 8.83142E-03 2.11386E-04-6.10569E-14
 -1      3640 9.23368E-03-2.72963E-04-6.41384E-14
 -1      3641 9.38634E-03-3.57568E-04-6.50016E-14
 -1      3642 8.62841E-03 1.06625E-04-6.09280E-14
 -1      3643 1.73090E-03 2.71018E-04-2.89603E-15
 -1      3644 1.66540E-03 3.00148E-04-2.64784E-15
 -1      3645 1.31108E-02-8.24359E-05-9.98598E-14
 -1      3646 2.09730E-03 3.26041E-04-4.04146E-15
 -1      3647 2.01926E-03 2.86844E-04-3.82986E-15
 -1      3648 2.24136E-03 3.31770E-04-4.57066E-15
 -1      3649 8.95458E-03-6.83467E-05-6.42891E-14
 -1      3650 8.85402E-03-5.01169E-05-6.33369E-14
 -1      3651 9.01943E-03-1.15218E-04-6.40616E-14
 -1      3652 1.41026E-02 2.69394E-04-1.12225E-13
 -1      3653 1.40835E-02 2.97093E-04-1.12279E-13
 -1      3654 1.39672E-02 3.10299E-04-1.10725E-13
 -1      3655 1.37192E-02-5.03715E-05-1.09046E-13
 -1      3656 1.37349E-02-8.79600E-05-1.10098E-13
 -1      3657 2.88526E-03 3.08179E-04-7.39469E-15
 -1      3658 2.81724E-03 3.44857E-04-7.00366E-15
 -1      3659 2.67336E-03 3.42799E-04-6.34845E-15
 -1      3660 3.24847E-03 3.47747E-04-9.15700E-15
 -1      3661 3.17346E-03 3.09951E-04-8.83233E-15
 -1      3662 3.39207E-03 3.47859E-04-9.93552E-15
 -1      3663 8.69307E-03-3.32991E-06-6.23317E-14
 -1      3664 8.66967E-03 1.62117E-05-6.26729E-14
 -1      3665 8.58874E-03 2.06073E-05-6.14484E-14
 -1      3666 1.41341E-02 1.56288E-04-1.12157E-13
 -1      3667 1.41360E-02 1.83093E-04-1.12119E-13
 -1      3668 1.40263E-02 1.38561E-04-1.10412E-13
 -1      3669 3.74872E-03 3.09323E-04-1.20704E-14
 -1      3670 3.67905E-03 3.47174E-04-1.15844E-14
 -1      3671 3.53560E-03 3.47659E-04-1.07448E-14
 -1      3672 1.35539E-02 9.16245E-05-1.02311E-13
 -1      3673 1.36264E-02 1.42893E-04-1.02637E-13
 -1      3674 1.41284E-02 2.10130E-04-1.12080E-13
 -1      3675 1.41120E-02 2.38792E-04-1.12040E-13
 -1      3676 1.40295E-02 1.91223E-04-1.10337E-13
 -1      3677 1.31795E-02 3.49815E-04-9.98499E-14
 -1      3678 1.38319E-02-9.87124E-05-1.11887E-13
 -1      3679 1.33943E-02 2.42541E-04-1.00725E-13
 -1      3680 1.40065E-02 2.48722E-04-1.10485E-13
 -1      3681 1.18520E-02-6.12261E-04-8.88077E-14
 -1      3682 8.53945E-03 4.40205E-05-6.10301E-14
 -1      3683 8.55566E-03 5.32783E-05-6.13719E-14
 -1      3684 8.53051E-03 6.35097E-05-6.06121E-14
 -1      3685 1.34486E-03 2.92961E-04-1.76480E-15
 -1      3686 1.30252E-03 2.64073E-04-1.70260E-15
 -1      3687 1.42272E-03 2.59368E-04-2.02063E-15
 -1      3688 1.46992E-03 3.03157E-04-2.07957E-15
 -1      3689 2.46289E-03 3.75303E-04-5.37191E-15
 -1      3690 1.25768E-03 4.78697E-05-1.78255E-15
 -1      3691 1.25694E-03 1.67937E-05-1.78841E-15
 -1      3692 1.53994E-03 2.93429E-04-2.29126E-15
 -1      3693 1.26132E-03 1.10662E-04-1.76161E-15
 -1      3694 1.25913E-03 7.90964E-05-1.77373E-15
 -1      3695 1.38087E-03 6.71839E-05-2.08763E-15
 -1      3696 9.48852E-03-3.96627E-04-6.58381E-14
 -1      3697 1.28782E-03-2.34130E-04-1.75063E-15
 -1      3698 1.43071E-03-2.48441E-04-2.10640E-15
 -1      3699 1.25032E-03-1.93864E-04-1.69824E-15
 -1      3700 1.20025E-02-5.52165E-04-9.04375E-14
 -1      3701 1.49685E-03-2.22400E-04-2.31755E-15
 -1      3702 1.24234E-03-1.29100E-04-1.72582E-15
 -1      3703 1.24583E-03-1.61135E-04-1.71395E-15
 -1      3704 1.34897E-03-1.76254E-04-1.96146E-15
 -1      3705 1.13558E-03-2.77118E-05-1.50501E-15
 -1      3706 8.69704E-03 2.00755E-04-5.93776E-14
 -1      3707 1.26827E-03 1.75367E-04-1.72613E-15
 -1      3708 1.26435E-03 1.42709E-04-1.74586E-15
 -1      3709 1.38560E-03 1.33954E-04-2.06040E-15
 -1      3710 2.28593E-03-2.25039E-04-4.97551E-15
 -1      3711 2.43083E-03-2.28146E-04-5.55891E-15
 -1      3712 2.57573E-03-2.30583E-04-6.17357E-15
 -1      3713 2.72060E-03-2.32413E-04-6.81944E-15
 -1      3714 2.49998E-03-1.92441E-04-5.88304E-15
 -1      3715 2.86540E-03-2.33749E-04-7.49636E-15
 -1      3716 3.01011E-03-2.34637E-04-8.20404E-15
 -1      3717 2.79015E-03-1.95630E-04-7.17598E-15
 -1      3718 3.15472E-03-2.35168E-04-8.94108E-15
 -1      3719 3.29920E-03-2.35372E-04-9.70793E-15
 -1      3720 3.08002E-03-1.97192E-04-8.59118E-15
 -1      3721 3.44355E-03-2.35317E-04-1.05048E-14
 -1      3722 3.58777E-03-2.35021E-04-1.13305E-14
 -1      3723 3.36940E-03-1.97564E-04-1.01251E-14
 -1      3724 3.73184E-03-2.34534E-04-1.21856E-14
 -1      3725 3.87577E-03-2.33863E-04-1.30688E-14
 -1      3726 3.65820E-03-1.97067E-04-1.17769E-14
 -1      3727 4.01954E-03-2.33042E-04-1.39805E-14
 -1      3728 4.16317E-03-2.32071E-04-1.49215E-14
 -1      3729 3.94634E-03-1.95914E-04-1.35432E-14
 -1      3730 4.30663E-03-2.30972E-04-1.58894E-14
 -1      3731 4.44993E-03-2.29738E-04-1.68835E-14
 -1      3732 4.23379E-03-1.94239E-04-1.54233E-14
 -1      3733 4.59306E-03-2.28384E-04-1.79052E-14
 -1      3734 4.73601E-03-2.26897E-04-1.89539E-14
 -1      3735 4.52048E-03-1.92106E-04-1.74126E-14
 -1      3736 4.87877E-03-2.25284E-04-2.00298E-14
 -1      3737 5.02134E-03-2.23531E-04-2.11314E-14
 -1      3738 4.80637E-03-1.89529E-04-1.95096E-14
 -1      3739 5.16368E-03-2.21643E-04-2.22574E-14
 -1      3740 5.30580E-03-2.19601E-04-2.34092E-14
 -1      3741 5.09134E-03-1.86490E-04-2.17111E-14
 -1      3742 5.44766E-03-2.17411E-04-2.45880E-14
 -1      3743 5.58925E-03-2.15051E-04-2.57926E-14
 -1      3744 5.37525E-03-1.82944E-04-2.40161E-14
 -1      3745 5.73054E-03-2.12534E-04-2.70210E-14
 -1      3746 5.87151E-03-2.09834E-04-2.82743E-14
 -1      3747 5.65792E-03-1.78841E-04-2.64229E-14
 -1      3748 6.01210E-03-2.06973E-04-2.95543E-14
 -1      3749 6.15233E-03-2.03926E-04-3.08578E-14
 -1      3750 5.93912E-03-1.74136E-04-2.89302E-14
 -1      3751 6.29211E-03-2.00726E-04-3.21842E-14
 -1      3752 6.43146E-03-1.97349E-04-3.35360E-14
 -1      3753 6.21854E-03-1.68803E-04-3.15380E-14
 -1      3754 6.57030E-03-1.93845E-04-3.49105E-14
 -1      3755 6.70864E-03-1.90192E-04-3.63059E-14
 -1      3756 6.49586E-03-1.62853E-04-3.42395E-14
 -1      3757 6.84640E-03-1.86462E-04-3.77224E-14
 -1      3758 6.98362E-03-1.82638E-04-3.91607E-14
 -1      3759 6.77073E-03-1.56351E-04-3.70304E-14
 -1      3760 7.12021E-03-1.78811E-04-4.06207E-14
 -1      3761 7.25625E-03-1.74977E-04-4.21015E-14
 -1      3762 7.04281E-03-1.49422E-04-3.99073E-14
 -1      3763 7.39165E-03-1.71246E-04-4.36010E-14
 -1      3764 7.52655E-03-1.67634E-04-4.51182E-14
 -1      3765 7.31180E-03-1.42264E-04-4.28653E-14
 -1      3766 7.66088E-03-1.64263E-04-4.66564E-14
 -1      3767 7.79492E-03-1.61197E-04-4.82118E-14
 -1      3768 7.57756E-03-1.35142E-04-4.59009E-14
 -1      3769 7.92859E-03-1.58557E-04-4.97846E-14
 -1      3770 8.06236E-03-1.56507E-04-5.13767E-14
 -1      3771 7.84023E-03-1.28411E-04-4.90096E-14
 -1      3772 8.19622E-03-1.55135E-04-5.29840E-14
 -1      3773 8.33100E-03-1.54871E-04-5.46090E-14
 -1      3774 8.10048E-03-1.22571E-04-5.21887E-14
 -1      3775 8.46678E-03-1.55735E-04-5.62511E-14
 -1      3776 8.60497E-03-1.58819E-04-5.79083E-14
 -1      3777 8.35997E-03-1.18429E-04-5.54375E-14
 -1      3778 1.79745E-03 2.40992E-04-3.15003E-15
 -1      3779 1.65341E-03 2.32494E-04-2.71307E-15
 -1      3780 1.32566E-02-6.56440E-05-1.01870E-13
 -1      3781 1.49174E-03-1.86426E-04-2.33719E-15
 -1      3782 1.36395E-02-3.92206E-05-1.07491E-13
 -1      3783 1.37737E-02-9.46699E-06-1.09016E-13
 -1      3784 1.38237E-02 2.79959E-05-1.08987E-13
 -1      3785 1.35016E-02-4.84258E-05-1.05460E-13
 -1      3786 1.37839E-02-1.25075E-04-1.11646E-13
 -1      3787 1.23786E-03-6.65958E-05-1.73909E-15
 -1      3788 1.23970E-03-9.76332E-05-1.73410E-15
 -1      3789 1.34209E-03-1.09509E-04-1.98500E-15
 -1      3790 5.24928E-03 2.56886E-04-2.27813E-14
 -1      3791 5.10695E-03 2.59006E-04-2.16388E-14
 -1      3792 4.96444E-03 2.60963E-04-2.05209E-14
 -1      3793 4.82174E-03 2.62775E-04-1.94293E-14
 -1      3794 5.03441E-03 2.23727E-04-2.11199E-14
 -1      3795 5.81625E-03 2.46733E-04-2.76144E-14
 -1      3796 5.67490E-03 2.49537E-04-2.63684E-14
 -1      3797 6.09797E-03 2.40613E-04-3.01794E-14
 -1      3798 5.95728E-03 2.43765E-04-2.88846E-14
 -1      3799 5.88395E-03 2.10714E-04-2.82873E-14
 -1      3800 6.37815E-03 2.33853E-04-3.28376E-14
 -1      3801 6.23826E-03 2.37315E-04-3.14969E-14
 -1      3802 6.16427E-03 2.05172E-04-3.08756E-14
 -1      3803 6.65645E-03 2.26606E-04-3.55861E-14
 -1      3804 6.51754E-03 2.30288E-04-3.42002E-14
 -1      3805 6.44262E-03 1.99096E-04-3.35568E-14
 -1      3806 6.93251E-03 2.19150E-04-3.84227E-14
 -1      3807 6.79477E-03 2.22895E-04-3.69948E-14
 -1      3808 6.71856E-03 1.92642E-04-3.63279E-14
 -1      3809 7.20597E-03 2.11923E-04-4.13443E-14
 -1      3810 7.06957E-03 2.15492E-04-3.98728E-14
 -1      3811 6.99162E-03 1.86075E-04-3.91859E-14
 -1      3812 7.47655E-03 2.05543E-04-4.43444E-14
 -1      3813 7.34161E-03 2.08603E-04-4.28341E-14
 -1      3814 7.26131E-03 1.79782E-04-4.21253E-14
 -1      3815 7.74416E-03 2.00818E-04-4.74208E-14
 -1      3816 7.61068E-03 2.02936E-04-4.58736E-14
 -1      3817 7.52714E-03 1.74276E-04-4.51437E-14
 -1      3818 8.00915E-03 1.98770E-04-5.05679E-14
 -1      3819 7.87687E-03 1.99401E-04-4.89863E-14
 -1      3820 7.78875E-03 1.70171E-04-4.82376E-14
 -1      3821 8.27270E-03 2.00724E-04-5.37826E-14
 -1      3822 8.14085E-03 1.99122E-04-5.21661E-14
 -1      3823 8.04609E-03 1.68156E-04-5.14005E-14
 -1      3824 8.53757E-03 2.08663E-04-5.70624E-14
 -1      3825 8.40447E-03 2.03735E-04-5.54142E-14
 -1      3826 8.29975E-03 1.69078E-04-5.46300E-14
 -1      3827 8.51776E-03 8.85188E-05-5.96092E-14
 -1      3828 8.58316E-03 1.24646E-04-5.95817E-14
 -1      3829 1.36613E-02 3.40753E-04-1.06703E-13
 -1      3830 1.35224E-02 3.40952E-04-1.04688E-13
 -1      3831 1.33257E-02 3.41829E-04-1.01850E-13
 -1      3832 1.39397E-03 2.02707E-04-2.01728E-15
 -1      3833 1.36853E-02 1.60800E-04-1.03918E-13
 -1      3834 1.37029E-02 1.37785E-04-1.04283E-13
 -1      3835 9.29446E-03-2.31782E-04-6.56026E-14
 -1      3836 1.39049E-02 2.30574E-04-1.08642E-13
 -1      3837 1.38879E-02 2.62586E-04-1.08829E-13
 -1      3838 1.99638E-03-2.16320E-04-3.90337E-15
 -1      3839 2.14109E-03-2.21124E-04-4.42375E-15
 -1      3840 2.20983E-03-1.87050E-04-4.71486E-15
 -1      3841 4.10597E-03 2.69680E-04-1.43831E-14
 -1      3842 3.96240E-03 2.70628E-04-1.34571E-14
 -1      3843 1.70769E-03-2.03503E-04-2.95887E-15
 -1      3844 1.85188E-03-2.10479E-04-3.41516E-15
 -1      3845 1.92021E-03-1.78759E-04-3.67282E-15
 -1      3846 1.36699E-02 1.01201E-04-1.04324E-13
 -1      3847 1.35802E-02 6.78886E-05-1.03634E-13
 -1      3848 1.35910E-02 2.01597E-04-1.02925E-13
 -1      3849 1.36392E-02 1.83096E-04-1.03365E-13
 -1      3850 1.24658E-03-9.62973E-06-1.76593E-15
 -1      3851 1.24712E-03-4.04498E-05-1.76602E-15
 -1      3852 1.34906E-03-4.93282E-05-2.02082E-15
 -1      3853 1.36894E-03 6.13592E-06-2.07308E-15
 -1      3854 1.34155E-02 2.78032E-04-1.01913E-13
 -1      3855 1.35261E-02 2.32718E-04-1.02585E-13
 -1      3856 2.52941E-03 3.40004E-04-5.72394E-15
 -1      3857 2.38540E-03 3.36389E-04-5.13130E-15
 -1      3858 2.59674E-03 3.04298E-04-6.08059E-15
 -1      3859 5.53328E-03 2.52156E-04-2.51470E-14
 -1      3860 5.39139E-03 2.54609E-04-2.39509E-14
 -1      3861 5.60201E-03 2.15654E-04-2.57965E-14
 -1      3862 8.57578E-03 1.60067E-04-5.85721E-14
 -1      3863 1.34680E-02-6.22170E-06-1.03861E-13
 -1      3864 9.09379E-03-1.91854E-04-6.35644E-14
 -1      3865 1.37553E-02 1.19829E-04-1.05612E-13
 -1      3866 3.88897E-03 2.33477E-04-1.30486E-14
 -1      3867 3.81870E-03 2.71406E-04-1.25586E-14
 -1      3868 3.67488E-03 2.72008E-04-1.16891E-14
 -1      3869 1.38221E-02 6.53051E-05-1.08078E-13
 -1      3870 1.38580E-02 9.54561E-05-1.08045E-13
 -1      3871 1.94176E-03 2.48124E-04-3.61939E-15
 -1      3872 1.86491E-03 2.10048E-04-3.41024E-15
 -1      3873 2.08627E-03 2.54025E-04-4.12040E-15
 -1      3874 8.74553E-03-1.64079E-04-5.95792E-14
 -1      3875 8.89110E-03-1.73789E-04-6.12647E-14
 -1      3876 1.37873E-02 3.22286E-04-1.08251E-13
 -1      3877 2.30800E-03 2.97524E-04-4.89151E-15
 -1      3878 5.31875E-03 2.19982E-04-2.34057E-14
 -1      3879 3.46129E-03 3.10197E-04-1.03915E-14
 -1      3880 1.55967E-03-1.58926E-04-2.55145E-15
 -1      3881 8.73658E-03-3.21075E-05-6.21084E-14
 -1      3882 8.63079E-03-2.09039E-05-6.08849E-14
 -1      3883 8.78348E-03-6.66581E-05-6.18812E-14
 -1      3884 1.38918E-02 1.34762E-04-1.08006E-13
 -1      3885 1.38988E-02 1.60302E-04-1.07970E-13
 -1      3886 3.24267E-03 2.72441E-04-9.25849E-15
 -1      3887 3.09837E-03 2.72012E-04-8.50862E-15
 -1      3888 4.74915E-03 2.26927E-04-1.89379E-14
 -1      3889 4.67888E-03 2.64436E-04-1.83657E-14
 -1      3890 4.53586E-03 2.65960E-04-1.73284E-14
 -1      3891 8.44646E-03 1.36290E-04-5.72707E-14
 -1      3892 8.47748E-03 7.53956E-05-5.92740E-14
 -1      3893 8.42131E-03 9.03565E-05-5.79404E-14
 -1      3894 8.44434E-03 6.40897E-05-5.89378E-14
 -1      3895 1.34781E-02 3.22160E-04-1.03715E-13
 -1      3896 1.49699E-03 1.85352E-05-2.41692E-15
 -1      3897 1.48648E-03-1.08324E-05-2.39118E-15
 -1      3898 1.37329E-02 1.77837E-04-1.05016E-13
 -1      3899 1.38919E-02 1.86062E-04-1.07932E-13
 -1      3900 2.95396E-03 2.71197E-04-7.78907E-15
 -1      3901 2.80946E-03 2.69956E-04-7.09950E-15
 -1      3902 3.02328E-03 2.33974E-04-8.18588E-15
 -1      3903 8.52219E-03 2.89956E-05-6.04747E-14
 -1      3904 8.47515E-03 3.87948E-05-5.97209E-14
 -1      3905 4.24940E-03 2.68585E-04-1.53372E-14
 -1      3906 4.17636E-03 2.31813E-04-1.49011E-14
 -1      3907 4.39270E-03 2.67340E-04-1.63188E-14
 -1      3908 8.94113E-03-1.27477E-04-6.27097E-14
 -1      3909 1.36234E-02 2.31586E-04-1.04119E-13
 -1      3910 8.52281E-03 1.43722E-05-6.01365E-14
 -1      3911 8.62238E-03-1.18157E-04-5.87481E-14
 -1      3912 1.49944E-03 8.75874E-05-2.39918E-15
 -1      3913 1.49782E-03 5.29729E-05-2.40996E-15
 -1      3914 1.61552E-03 3.70549E-05-2.75385E-15
 -1      3915 1.21960E-02-4.71559E-04-9.24007E-14
 -1      3916 1.37176E-02 2.71369E-04-1.06359E-13
 -1      3917 1.38180E-02 2.89979E-04-1.08195E-13
 -1      3918 1.37039E-02 4.29085E-05-1.06556E-13
 -1      3919 1.55454E-03 1.86087E-04-2.47720E-15
 -1      3920 1.48728E-03 2.13254E-04-2.25712E-15
 -1      3921 2.71516E-03-1.57598E-04-6.85738E-15
 -1      3922 2.86037E-03-1.58540E-04-7.53492E-15
 -1      3923 3.00548E-03-1.59185E-04-8.24319E-15
 -1      3924 3.15049E-03-1.59554E-04-8.98079E-15
 -1      3925 2.93118E-03-1.21200E-04-7.89710E-15
 -1      3926 3.29535E-03-1.59708E-04-9.74779E-15
 -1      3927 3.44007E-03-1.59657E-04-1.05447E-14
 -1      3928 3.22145E-03-1.21781E-04-9.37324E-15
 -1      3929 3.58461E-03-1.59451E-04-1.13707E-14
 -1      3930 3.72899E-03-1.59091E-04-1.22250E-14
 -1      3931 3.51113E-03-1.21706E-04-1.09663E-14
 -1      3932 3.87318E-03-1.58612E-04-1.31082E-14
 -1      3933 4.01718E-03-1.58013E-04-1.40200E-14
 -1      3934 3.80009E-03-1.21144E-04-1.26752E-14
 -1      3935 4.16098E-03-1.57318E-04-1.49598E-14
 -1      3936 4.30459E-03-1.56519E-04-1.59274E-14
 -1      3937 4.08825E-03-1.20206E-04-1.44980E-14
 -1      3938 4.44797E-03-1.55633E-04-1.69213E-14
 -1      3939 4.59114E-03-1.54649E-04-1.79424E-14
 -1      3940 4.37555E-03-1.18953E-04-1.64319E-14
 -1      3941 4.73407E-03-1.53579E-04-1.89901E-14
 -1      3942 4.87676E-03-1.52407E-04-2.00658E-14
 -1      3943 4.66190E-03-1.17408E-04-1.84738E-14
 -1      3944 5.01918E-03-1.51143E-04-2.11668E-14
 -1      3945 5.16131E-03-1.49769E-04-2.22926E-14
 -1      3946 4.94720E-03-1.15566E-04-2.06224E-14
 -1      3947 5.30314E-03-1.48293E-04-2.34444E-14
 -1      3948 5.44463E-03-1.46693E-04-2.46227E-14
 -1      3949 5.23129E-03-1.13403E-04-2.28749E-14
 -1      3950 5.58575E-03-1.44982E-04-2.58264E-14
 -1      3951 5.72648E-03-1.43132E-04-2.70548E-14
 -1      3952 5.51397E-03-1.10880E-04-2.52309E-14
 -1      3953 5.86676E-03-1.41162E-04-2.83091E-14
 -1      3954 6.00657E-03-1.39042E-04-2.95883E-14
 -1      3955 5.79497E-03-1.07954E-04-2.76882E-14
 -1      3956 6.14584E-03-1.36799E-04-3.08918E-14
 -1      3957 6.28456E-03-1.34396E-04-3.22191E-14
 -1      3958 6.07395E-03-1.04582E-04-3.02464E-14
 -1      3959 6.42263E-03-1.31874E-04-3.35702E-14
 -1      3960 6.56004E-03-1.29191E-04-3.49440E-14
 -1      3961 6.35050E-03-1.00733E-04-3.29022E-14
 -1      3962 6.69669E-03-1.26403E-04-3.63394E-14
 -1      3963 6.83257E-03-1.23459E-04-3.77559E-14
 -1      3964 6.62415E-03-9.63861E-05-3.56479E-14
 -1      3965 6.96757E-03-1.20434E-04-3.91945E-14
 -1      3966 7.10169E-03-1.17267E-04-4.06535E-14
 -1      3967 6.89435E-03-9.15373E-05-3.84821E-14
 -1      3968 7.23481E-03-1.14051E-04-4.21315E-14
 -1      3969 7.36695E-03-1.10714E-04-4.36288E-14
 -1      3970 7.16051E-03-8.61927E-05-4.13984E-14
 -1      3971 7.49797E-03-1.07364E-04-4.51463E-14
 -1      3972 7.62796E-03-1.03914E-04-4.66812E-14
 -1      3973 7.42198E-03-8.03531E-05-4.43930E-14
 -1      3974 7.75672E-03-1.00484E-04-4.82348E-14
 -1      3975 7.88448E-03-9.69899E-05-4.98063E-14
 -1      3976 7.67805E-03-7.39812E-05-4.74616E-14
 -1      3977 8.01095E-03-9.35755E-05-5.13952E-14
 -1      3978 8.13663E-03-9.01563E-05-5.30015E-14
 -1      3979 7.92800E-03-6.69862E-05-5.06025E-14
 -1      3980 8.26095E-03-8.68593E-05-5.46246E-14
 -1      3981 8.38502E-03-8.37076E-05-5.62637E-14
 -1      3982 8.17114E-03-5.92910E-05-5.38147E-14
 -1      3983 1.35644E-02 2.82036E-05-1.04533E-13
 -1      3984 6.50677E-03 1.65219E-04-3.42763E-14
 -1      3985 6.36885E-03 1.67901E-04-3.29132E-14
 -1      3986 3.38686E-03 2.72561E-04-1.00391E-14
 -1      3987 3.31239E-03 2.34777E-04-9.68815E-15
 -1      3988 3.53093E-03 2.72398E-04-1.08495E-14
 -1      3989 5.10432E-03 1.86787E-04-2.17200E-14
 -1      3990 4.96201E-03 1.88272E-04-2.06030E-14
 -1      3991 1.60486E-03-2.92707E-05-2.73039E-15
 -1      3992 1.47656E-03-4.00008E-05-2.36288E-15
 -1      3993 1.46720E-03-6.90439E-05-2.33221E-15
 -1      3994 8.37245E-03 3.30585E-05-5.78421E-14
 -1      3995 8.40367E-03 4.84810E-05-5.83894E-14
 -1      3996 8.33459E-03 6.01009E-05-5.70659E-14
 -1      3997 6.23029E-03 1.70469E-04-3.15734E-14
 -1      3998 6.09112E-03 1.72954E-04-3.02553E-14
 -1      3999 6.29614E-03 1.36533E-04-3.22714E-14
 -1      4000 5.95141E-03 1.75303E-04-2.89610E-14
 -1      4001 5.81120E-03 1.77544E-04-2.76914E-14
 -1      4002 6.01872E-03 1.40532E-04-2.96367E-14
 -1      4003 6.78032E-03 1.59709E-04-3.70701E-14
 -1      4004 6.64393E-03 1.62500E-04-3.56620E-14
 -1      4005 6.57075E-03 1.32246E-04-3.49975E-14
 -1      4006 7.05037E-03 1.54182E-04-3.99481E-14
 -1      4007 6.91581E-03 1.56950E-04-3.84988E-14
 -1      4008 6.84194E-03 1.27821E-04-3.78123E-14
 -1      4009 7.31624E-03 1.48976E-04-4.29066E-14
 -1      4010 7.18385E-03 1.51542E-04-4.14177E-14
 -1      4011 7.10900E-03 1.23483E-04-4.07111E-14
 -1      4012 7.57724E-03 1.44499E-04-4.59434E-14
 -1      4013 7.44736E-03 1.46655E-04-4.44151E-14
 -1      4014 7.37110E-03 1.19515E-04-4.36884E-14
 -1      4015 7.83264E-03 1.41181E-04-4.90546E-14
 -1      4016 7.70563E-03 1.42713E-04-4.74907E-14
 -1      4017 7.62725E-03 1.16228E-04-4.67443E-14
 -1      4018 8.08181E-03 1.39432E-04-5.22333E-14
 -1      4019 7.95795E-03 1.40152E-04-5.06356E-14
 -1      4020 7.87630E-03 1.13888E-04-4.98711E-14
 -1      4021 8.32426E-03 1.39563E-04-5.54779E-14
 -1      4022 8.20371E-03 1.39286E-04-5.38471E-14
 -1      4023 8.11682E-03 1.12601E-04-5.30662E-14
 -1      4024 1.52783E-03 1.53906E-04-2.43229E-15
 -1      4025 1.52459E-03 1.18421E-04-2.45104E-15
 -1      4026 1.64171E-03 1.04599E-04-2.80152E-15
 -1      4027 1.69364E-03 1.69701E-04-2.90696E-15
 -1      4028 1.36748E-02 2.53743E-04-1.05381E-13
 -1      4029 1.37333E-02 2.22960E-04-1.05724E-13
 -1      4030 1.35958E-02 2.84172E-04-1.04753E-13
 -1      4031 1.49328E-03 2.49712E-04-2.22659E-15
 -1      4032 8.35165E-03 1.08340E-04-5.64709E-14
 -1      4033 1.51146E-03-9.56574E-05-2.44782E-15
 -1      4034 1.51409E-03-1.30676E-04-2.43885E-15
 -1      4035 1.72984E-03-1.43821E-04-3.07393E-15
 -1      4036 1.63956E-03-8.69747E-05-2.82343E-15
 -1      4037 1.37912E-02 1.96811E-04-1.06282E-13
 -1      4038 2.13430E-03-1.49571E-04-4.45683E-15
 -1      4039 2.27941E-03-1.52339E-04-5.00999E-15
 -1      4040 1.85945E-03-1.45395E-04-3.49159E-15
 -1      4041 2.00409E-03-1.49514E-04-3.98482E-15
 -1      4042 2.07403E-03-1.15986E-04-4.25373E-15
 -1      4043 1.81393E-03-1.16030E-04-3.35805E-15
 -1      4044 1.51642E-03 2.71393E-04-2.25959E-15
 -1      4045 2.66488E-03 2.68184E-04-6.44120E-15
 -1      4046 2.52023E-03 2.65824E-04-5.81353E-15
 -1      4047 2.73374E-03 2.31719E-04-6.80546E-15
 -1      4048 2.37556E-03 2.62742E-04-5.21757E-15
 -1      4049 2.23089E-03 2.58861E-04-4.65304E-15
 -1      4050 2.15417E-03 2.20533E-04-4.41571E-15
 -1      4051 2.44394E-03 2.27472E-04-5.54808E-15
 -1      4052 5.38810E-03 1.83466E-04-2.40311E-14
 -1      4053 5.24636E-03 1.85192E-04-2.28630E-14
 -1      4054 5.17421E-03 1.50184E-04-2.23208E-14
 -1      4055 8.54133E-03-6.51571E-06-5.99154E-14
 -1      4056 8.46274E-03 4.38543E-06-5.89490E-14
 -1      4057 8.56789E-03-3.17655E-05-5.96910E-14
 -1      4058 5.67056E-03 1.79643E-04-2.64464E-14
 -1      4059 5.52951E-03 1.81624E-04-2.52263E-14
 -1      4060 5.45738E-03 1.47374E-04-2.46581E-14
 -1      4061 2.42463E-03-1.54558E-04-5.59497E-15
 -1      4062 2.56990E-03-1.56282E-04-6.21085E-15
 -1      4063 2.34973E-03-1.17031E-04-5.30939E-15
 -1      4064 3.95951E-03 1.95562E-04-1.35399E-14
 -1      4065 3.81553E-03 1.96149E-04-1.26416E-14
 -1      4066 1.98235E-03 1.80862E-04-3.84222E-15
 -1      4067 1.83780E-03 1.75769E-04-3.35872E-15
 -1      4068 1.81139E-03 1.41984E-04-3.30389E-15
 -1      4069 4.81944E-03 1.89636E-04-1.95119E-14
 -1      4070 4.67663E-03 1.90897E-04-1.84479E-14
 -1      4071 4.88975E-03 1.52605E-04-2.00878E-14
 -1      4072 8.38785E-03-3.60979E-05-5.70796E-14
 -1      4073 8.48483E-03-6.41927E-05-5.79090E-14
 -1      4074 3.60097E-03 2.34521E-04-1.13094E-14
 -1      4075 1.74052E-03 5.69771E-05-3.12939E-15
 -1      4076 1.73964E-03 1.98495E-05-3.13756E-15
 -1      4077 2.64050E-03-1.19723E-04-6.54189E-15
 -1      4078 3.38258E-03 1.96980E-04-1.01202E-14
 -1      4079 3.23796E-03 1.96880E-04-9.33850E-15
 -1      4080 8.37357E-03-4.39482E-06-5.74066E-14
 -1      4081 8.36866E-03 1.51515E-05-5.76254E-14
 -1      4082 8.28169E-03 2.59230E-05-5.63091E-14
 -1      4083 4.46311E-03 2.29619E-04-1.68649E-14
 -1      4084 3.09319E-03 1.96524E-04-8.58666E-15
 -1      4085 2.94830E-03 1.95894E-04-7.86517E-15
 -1      4086 3.16364E-03 1.58906E-04-8.99039E-15
 -1      4087 8.60432E-03-6.09309E-05-5.95744E-14
 -1      4088 4.24694E-03 1.94026E-04-1.54204E-14
 -1      4089 4.10332E-03 1.94856E-04-1.44666E-14
 -1      4090 4.03030E-03 1.57712E-04-1.40333E-14
 -1      4091 8.31038E-03 9.37203E-05-5.61439E-14
 -1      4092 5.73899E-03 1.44157E-04-2.70968E-14
 -1      4093 1.85391E-03 6.85450E-06-3.50902E-15
 -1      4094 1.72905E-03-1.18402E-05-3.10865E-15
 -1      4095 1.71906E-03-4.33788E-05-3.07640E-15
 -1      4096 8.27916E-03-2.19626E-05-5.57710E-14
 -1      4097 3.67138E-03 1.96589E-04-1.17718E-14
 -1      4098 3.52706E-03 1.96880E-04-1.09312E-14
 -1      4099 3.45322E-03 1.59105E-04-1.05547E-14
 -1      4100 3.74213E-03 1.58655E-04-1.22362E-14
 -1      4101 1.78808E-03 1.15528E-04-3.24883E-15
 -1      4102 1.76288E-03 8.26750E-05-3.18825E-15
 -1      4103 1.88705E-03 6.58419E-05-3.60179E-15
 -1      4104 1.93255E-03 1.19220E-04-3.72471E-15
 -1      4105 3.14780E-03-8.38347E-05-9.00008E-15
 -1      4106 3.29290E-03-8.38997E-05-9.76693E-15
 -1      4107 3.43783E-03-8.38664E-05-1.05635E-14
 -1      4108 3.58258E-03-8.37347E-05-1.13891E-14
 -1      4109 3.36475E-03-4.59571E-05-1.01629E-14
 -1      4110 3.72714E-03-8.35309E-05-1.22439E-14
 -1      4111 3.87149E-03-8.32506E-05-1.31264E-14
 -1      4112 3.65436E-03-4.57876E-05-1.18138E-14
 -1      4113 4.01563E-03-8.29146E-05-1.40382E-14
 -1      4114 4.15955E-03-8.25150E-05-1.49770E-14
 -1      4115 3.94315E-03-4.54501E-05-1.35799E-14
 -1      4116 4.30323E-03-8.20681E-05-1.59433E-14
 -1      4117 4.44667E-03-8.15629E-05-1.69375E-14
 -1      4118 4.23104E-03-4.49780E-05-1.54567E-14
 -1      4119 4.58985E-03-8.10128E-05-1.79583E-14
 -1      4120 4.73277E-03-8.04028E-05-1.90062E-14
 -1      4121 4.51794E-03-4.43826E-05-1.74444E-14
 -1      4122 4.87539E-03-7.97474E-05-2.00809E-14
 -1      4123 5.01771E-03-7.90285E-05-2.11815E-14
 -1      4124 4.80375E-03-4.36655E-05-1.95403E-14
 -1      4125 5.15970E-03-7.82562E-05-2.23071E-14
 -1      4126 5.30132E-03-7.74127E-05-2.34585E-14
 -1      4127 5.08832E-03-4.28182E-05-2.17404E-14
 -1      4128 5.44256E-03-7.65090E-05-2.46370E-14
 -1      4129 5.58336E-03-7.55232E-05-2.58405E-14
 -1      4130 5.37145E-03-4.18195E-05-2.40451E-14
 -1      4131 5.72370E-03-7.44693E-05-2.70692E-14
 -1      4132 5.86353E-03-7.33209E-05-2.83237E-14
 -1      4133 5.65287E-03-4.06416E-05-2.64512E-14
 -1      4134 6.00278E-03-7.20971E-05-2.96029E-14
 -1      4135 6.14142E-03-7.07651E-05-3.09061E-14
 -1      4136 5.93223E-03-3.92501E-05-2.89595E-14
 -1      4137 6.27937E-03-6.93517E-05-3.22339E-14
 -1      4138 6.41659E-03-6.78158E-05-3.35846E-14
 -1      4139 6.20910E-03-3.76041E-05-3.15671E-14
 -1      4140 6.55297E-03-6.61941E-05-3.49585E-14
 -1      4141 6.68847E-03-6.44344E-05-3.63534E-14
 -1      4142 6.48297E-03-3.56551E-05-3.42688E-14
 -1      4143 6.82298E-03-6.25858E-05-3.77702E-14
 -1      4144 6.95644E-03-6.05807E-05-3.92086E-14
 -1      4145 6.75322E-03-3.33438E-05-3.70589E-14
 -1      4146 7.08870E-03-5.84829E-05-4.06662E-14
 -1      4147 7.21974E-03-5.62030E-05-4.21442E-14
 -1      4148 7.01909E-03-3.05949E-05-3.99351E-14
 -1      4149 7.34935E-03-5.38232E-05-4.36402E-14
 -1      4150 7.47752E-03-5.12195E-05-4.51559E-14
 -1      4151 7.27972E-03-2.73064E-05-4.28895E-14
 -1      4152 7.60396E-03-4.85011E-05-4.66899E-14
 -1      4153 7.72870E-03-4.54788E-05-4.82420E-14
 -1      4154 7.53399E-03-2.33333E-05-4.59179E-14
 -1      4155 7.85131E-03-4.23044E-05-4.98127E-14
 -1      4156 7.97191E-03-3.87167E-05-5.14005E-14
 -1      4157 7.78043E-03-1.84476E-05-4.90226E-14
 -1      4158 8.07046E-03-3.27924E-05-5.27648E-14
 -1      4159 8.18605E-03-2.84012E-05-5.43838E-14
 -1      4160 8.18726E-03 1.34807E-06-5.47046E-14
 -1      4161 7.99846E-03-1.01416E-05-5.19580E-14
 -1      4162 2.56627E-03-8.20984E-05-6.22915E-15
 -1      4163 2.71175E-03-8.27956E-05-6.87629E-15
 -1      4164 6.90381E-03 9.69586E-05-3.85559E-14
 -1      4165 6.76986E-03 9.85737E-05-3.71269E-14
 -1      4166 8.83632E-03-1.05125E-04-6.17639E-14
 -1      4167 4.53361E-03 1.92045E-04-1.74122E-14
 -1      4168 4.39037E-03 1.93092E-04-1.64026E-14
 -1      4169 4.31768E-03 1.56365E-04-1.59421E-14
 -1      4170 4.60420E-03 1.54660E-04-1.79601E-14
 -1      4171 6.36205E-03 1.03369E-04-3.29702E-14
 -1      4172 6.22440E-03 1.04930E-04-3.16297E-14
 -1      4173 6.08604E-03 1.06416E-04-3.03126E-14
 -1      4174 5.94702E-03 1.07861E-04-2.90182E-14
 -1      4175 6.15348E-03 7.29707E-05-3.09890E-14
 -1      4176 7.16804E-03 9.39421E-05-4.14738E-14
 -1      4177 7.03656E-03 9.54396E-05-4.00043E-14
 -1      4178 6.96619E-03 6.71146E-05-3.92988E-14
 -1      4179 7.42657E-03 9.13608E-05-4.44701E-14
 -1      4180 7.29807E-03 9.26195E-05-4.29629E-14
 -1      4181 7.22784E-03 6.55488E-05-4.22384E-14
 -1      4182 7.67813E-03 8.94566E-05-4.75446E-14
 -1      4183 7.55328E-03 9.03671E-05-4.59988E-14
 -1      4184 7.48311E-03 6.45055E-05-4.52536E-14
 -1      4185 7.92102E-03 8.83784E-05-5.06879E-14
 -1      4186 7.80073E-03 8.89021E-05-4.91069E-14
 -1      4187 7.73046E-03 6.41977E-05-4.83436E-14
 -1      4188 8.15300E-03 8.81442E-05-5.38981E-14
 -1      4189 8.03845E-03 8.83086E-05-5.22848E-14
 -1      4190 7.96760E-03 6.47640E-05-5.15041E-14
 -1      4191 6.63487E-03 1.00168E-04-3.57190E-14
 -1      4192 6.49889E-03 1.01795E-04-3.43334E-14
 -1      4193 6.42816E-03 7.09865E-05-3.36709E-14
 -1      4194 2.80331E-03 1.94914E-04-7.17361E-15
 -1      4195 2.65824E-03 1.93554E-04-6.51248E-15
 -1      4196 2.87351E-03 1.57828E-04-7.54538E-15
 -1      4197 1.74384E-03-6.51697E-05-3.15056E-15
 -1      4198 1.78844E-03-9.34959E-05-3.28478E-15
 -1      4199 1.91830E-03-9.32908E-05-3.71503E-15
 -1      4200 1.86816E-03-4.79768E-05-3.55717E-15
 -1      4201 2.27540E-03-7.99765E-05-5.02749E-15
 -1      4202 2.42079E-03-8.11633E-05-5.61272E-15
 -1      4203 2.49253E-03-4.47942E-05-5.91938E-15
 -1      4204 5.24412E-03 1.13942E-04-2.29232E-14
 -1      4205 5.10229E-03 1.14940E-04-2.17810E-14
 -1      4206 8.18972E-03 5.37635E-05-5.48085E-14
 -1      4207 8.23538E-03 7.10416E-05-5.53451E-14
 -1      4208 2.85720E-03-8.33054E-05-7.55354E-15
 -1      4209 3.00256E-03-8.36384E-05-8.26219E-15
 -1      4210 2.78360E-03-4.55509E-05-7.21381E-15
 -1      4211 5.80741E-03 1.09219E-04-2.77492E-14
 -1      4212 5.66727E-03 1.10520E-04-2.65048E-14
 -1      4213 5.87591E-03 7.48473E-05-2.84021E-14
 -1      4214 5.52665E-03 1.11732E-04-2.52842E-14
 -1      4215 5.38558E-03 1.12880E-04-2.40909E-14
 -1      4216 5.59597E-03 7.65620E-05-2.59132E-14
 -1      4217 8.71076E-03-8.36265E-05-6.05424E-14
 -1      4218 4.96013E-03 1.15857E-04-2.06644E-14
 -1      4219 4.81765E-03 1.16713E-04-1.95740E-14
 -1      4220 5.03057E-03 7.94252E-05-2.12420E-14
 -1      4221 3.81320E-03 1.20743E-04-1.27029E-14
 -1      4222 3.66883E-03 1.21015E-04-1.18332E-14
 -1      4223 3.07444E-03-4.59047E-05-8.62917E-15
 -1      4224 6.69932E-03 6.89883E-05-3.64414E-14
 -1      4225 8.17678E-03 1.86695E-05-5.46534E-14
 -1      4226 8.18896E-03 3.73223E-05-5.48658E-14
 -1      4227 8.07846E-03 4.79914E-05-5.31672E-14
 -1      4228 8.08449E-03 1.34066E-05-5.32759E-14
 -1      4229 3.23460E-03 1.21142E-04-9.39688E-15
 -1      4230 3.08953E-03 1.20908E-04-8.64398E-15
 -1      4231 4.10134E-03 1.19950E-04-1.45282E-14
 -1      4232 3.95737E-03 1.20391E-04-1.36010E-14
 -1      4233 3.88456E-03 8.28967E-05-1.31711E-14
 -1      4234 5.31408E-03 7.80897E-05-2.35264E-14
 -1      4235 2.58303E-03 1.55538E-04-6.22160E-15
 -1      4236 2.51312E-03 1.91723E-04-5.88284E-15
 -1      4237 2.36801E-03 1.89368E-04-5.28385E-15
 -1      4238 3.37952E-03 1.21232E-04-1.01794E-14
 -1      4239 3.30601E-03 8.32849E-05-9.80597E-15
 -1      4240 3.52426E-03 1.21176E-04-1.09917E-14
 -1      4241 2.03142E-03-8.77482E-05-4.11131E-15
 -1      4242 2.16186E-03-8.64861E-05-4.58939E-15
 -1      4243 2.23326E-03-5.13723E-05-4.86942E-15
 -1      4244 2.00623E-03-6.45801E-05-4.02803E-15
 -1      4245 2.02034E-03 7.33911E-05-4.05864E-15
 -1      4246 1.99806E-03 4.64455E-05-3.99142E-15
 -1      4247 2.24755E-03 1.87462E-04-4.80972E-15
 -1      4248 2.10258E-03 1.83905E-04-4.26840E-15
 -1      4249 2.07616E-03 1.48863E-04-4.20660E-15
 -1      4250 2.31713E-03 1.52542E-04-5.11776E-15
 -1      4251 2.12479E-03-2.42975E-06-4.45985E-15
 -1      4252 1.99149E-03-8.18132E-06-3.97975E-15
 -1      4253 3.01568E-03 8.29233E-05-8.29893E-15
 -1      4254 2.94432E-03 1.20479E-04-7.92046E-15
 -1      4255 2.79902E-03 1.19851E-04-7.22699E-15
 -1      4256 5.34232E-03 1.79866E-05-2.37922E-14
 -1      4257 5.20090E-03 1.80921E-05-2.26326E-14
 -1      4258 3.04440E-03 1.85447E-05-8.47082E-15
 -1      4259 3.18969E-03 1.86258E-05-9.21672E-15
 -1      4260 2.75349E-03 1.83102E-05-7.06873E-15
 -1      4261 2.89899E-03 1.84537E-05-7.75443E-15
 -1      4262 3.33482E-03 1.86646E-05-9.99121E-15
 -1      4263 3.47978E-03 1.86997E-05-1.07957E-14
 -1      4264 3.62455E-03 1.87009E-05-1.16299E-14
 -1      4265 3.76912E-03 1.87018E-05-1.24922E-14
 -1      4266 3.91346E-03 1.86751E-05-1.33823E-14
 -1      4267 4.05758E-03 1.86496E-05-1.43014E-14
 -1      4268 4.44618E-03-7.52693E-06-1.69323E-14
 -1      4269 4.58937E-03-7.42630E-06-1.79531E-14
 -1      4270 4.77440E-03 1.83471E-05-1.93078E-14
 -1      4271 4.91691E-03 1.82730E-05-2.03907E-14
 -1      4272 5.05908E-03 1.81775E-05-2.14991E-14
 -1      4273 5.48331E-03 1.78974E-05-2.49776E-14
 -1      4274 5.62384E-03 1.77880E-05-2.61889E-14
 -1      4275 5.76385E-03 1.77050E-05-2.74259E-14
 -1      4276 5.90329E-03 1.76028E-05-2.86871E-14
 -1      4277 6.04211E-03 1.75425E-05-2.99743E-14
 -1      4278 6.18024E-03 1.74659E-05-3.12847E-14
 -1      4279 6.31762E-03 1.74541E-05-3.26188E-14
 -1      4280 6.45415E-03 1.74318E-05-3.39758E-14
 -1      4281 6.58976E-03 1.75066E-05-3.53553E-14
 -1      4282 6.72435E-03 1.75800E-05-3.67576E-14
 -1      4283 6.85783E-03 1.77951E-05-3.81801E-14
 -1      4284 6.99006E-03 1.80208E-05-3.96231E-14
 -1      4285 7.12095E-03 1.84484E-05-4.10872E-14
 -1      4286 7.25032E-03 1.88988E-05-4.25708E-14
 -1      4287 7.37804E-03 1.96322E-05-4.40716E-14
 -1      4288 7.50388E-03 2.03933E-05-4.55924E-14
 -1      4289 7.62769E-03 2.15492E-05-4.71317E-14
 -1      4290 7.74913E-03 2.27163E-05-4.86878E-14
 -1      4291 7.86798E-03 2.44555E-05-5.02647E-14
 -1      4292 2.05944E-03 1.24643E-04-4.16633E-15
 -1      4293 2.03642E-03 9.72677E-05-4.10262E-15
 -1      4294 2.14738E-03 7.76247E-05-4.51894E-15
 -1      4295 2.17990E-03 1.26365E-04-4.60916E-15
 -1      4296 7.98380E-03 2.60964E-05-5.18567E-14
 -1      4297 3.59567E-03 8.32416E-05-1.14312E-14
 -1      4298 2.23865E-03 5.26125E-06-4.88966E-15
 -1      4299 1.98135E-03-4.16370E-05-3.94421E-15
 -1      4300 2.42321E-03 1.16187E-05-5.62622E-15
 -1      4301 2.56876E-03 1.17817E-05-6.24301E-15
 -1      4302 2.68558E-03 7.54796E-05-6.73662E-15
 -1      4303 2.31606E-03 6.08968E-05-5.17631E-15
 -1      4304 4.15119E-03 6.92073E-05-1.48916E-14
 -1      4305 4.18023E-03 5.45957E-06-1.51107E-14
 -1      4306 4.32390E-03 5.48289E-06-1.60802E-14
 -1      4307 4.22364E-03 1.06392E-04-1.53494E-14
 -1      4308 4.70328E-03 5.49761E-05-1.87632E-14
 -1      4309 4.36720E-03 1.05881E-04-1.63273E-14
 -1      4310 4.39581E-03 4.25824E-05-1.65640E-14
 -1      4311 4.63230E-03 9.18623E-05-1.82189E-14
 -1      4312 2.61426E-03 1.12331E-04-6.39513E-15
 -1      4313 2.46885E-03 1.11144E-04-5.77113E-15
 -1      4314 4.48919E-03 9.24044E-05-1.71904E-14
 -1      4315 2.28411E-03 1.02956E-04-5.02692E-15
 -1      4316 7.98890E-03 8.20091E-06-5.19092E-14
 -1      4317 2.30047E-03 1.27691E-04-5.07336E-15
 -3
    1PSTEP                         2           1           1          
  100CL  101 1.000000000        4317                     0    1           1
 -4  STRESS      6    1
 -5  SXX         1    4    1    1
 -5  SYY         1    4    2    2
 -5  SZZ         1    4    3    3
 -5  SXY         1    4    1    2
 -5  SYZ         1    4    2    3
 -5  SZX         1    4    3    1
 -1         1 6.59296E+01 1.02196E+00 3.55549E+00-3.82016E+00-8.16673E-14-1.69087E-13
 -1         2-7.53748E-01-2.53086E+01-3.46510E+00 1.12669E-03 1.29230E-12-1.05433E-13
 -1         3 1.99706E+01-3.12511E-02 5.16065E-02-3.08294E-02-5.65718E-13-6.80374E-13
 -1         4 1.99778E+01-2.26568E-02 4.80691E-02 2.28812E-02 1.36182E-13 2.00873E-13
 -1         5 3.27667E+01 6.14244E+00 2.74256E+00 6.22431E+00-4.32085E-14 3.07805E-12
 -1         6 3.57512E+01 1.22631E+01 5.12563E+00-8.64665E+00-1.84575E-13 3.06878E-12
 -1         7 2.08169E+01 6.09920E+00-1.28754E-01-4.72590E+00-2.74086E-14 6.00006E-13
 -1         8 1.96701E+01 5.93444E+00 5.07147E-02-3.27552E+00-3.70537E-14-1.75157E-13
 -1         9 1.91360E+01 5.77167E+00 4.89890E-02-2.52793E+00-3.46962E-14-6.03679E-13
 -1        10 1.88958E+01 5.69223E+00 5.12717E-02-1.95244E+00-2.31464E-14-8.08330E-13
 -1        11 1.87743E+01 5.65151E+00 5.04516E-02-1.45710E+00-1.43592E-14-9.08050E-13
 -1        12 1.87113E+01 5.62996E+00 4.88431E-02-1.01601E+00-7.17070E-15-9.54625E-13
 -1        13 1.86782E+01 5.61866E+00 4.74909E-02-5.95903E-01-4.53533E-15-9.68682E-13
 -1        14 1.86644E+01 5.61389E+00 4.67708E-02-1.91393E-01-1.86851E-15-9.66436E-13
 -1        15 1.86649E+01 5.61406E+00 4.68111E-02 2.08392E-01 3.95718E-15-9.57290E-13
 -1        16 1.86798E+01 5.61915E+00 4.76254E-02 6.13730E-01 9.25030E-15-9.36955E-13
 -1        17 1.87141E+01 5.63073E+00 4.91292E-02 1.03581E+00 1.31273E-14-9.04199E-13
 -1        18 1.87784E+01 5.65258E+00 5.08620E-02 1.48011E+00 1.68251E-14-8.32350E-13
 -1        19 1.89009E+01 5.69374E+00 5.15483E-02 1.98136E+00 2.76099E-14-7.04078E-13
 -1        20 1.91416E+01 5.77424E+00 4.87695E-02 2.56493E+00 3.39902E-14-4.71470E-13
 -1        21 1.96659E+01 5.94916E+00 4.58693E-02 3.30972E+00 4.35485E-14-9.28120E-15
 -1        22 2.11998E+01 6.38098E+00 1.39620E-01 4.52357E+00 1.03806E-14 9.24255E-13
 -1        23 2.30276E+01-1.37910E+00-9.38213E-01-7.11391E-01-1.15866E-13 2.42469E-12
 -1        24 1.93636E+01-9.94676E-02-3.09846E-01 6.31532E-02-2.92969E-14 1.85018E-12
 -1        25 1.86743E+01-5.63168E-02-6.87789E-02 6.07225E-02-1.87578E-14 1.26836E-12
 -1        26 1.84709E+01-2.20816E-02-6.42564E-03 3.29509E-02 5.15842E-15 8.69521E-13
 -1        27 1.84811E+01-1.17921E-02 1.62231E-03 2.25592E-02-5.78834E-15 6.57061E-13
 -1        28 1.85939E+01-6.23385E-03 1.80997E-03 1.62469E-02 1.33899E-15 4.49547E-13
 -1        29 1.87521E+01-3.08560E-03 1.75065E-03 1.20810E-02-6.45033E-15 3.07869E-13
 -1        30 1.89247E+01-1.24413E-03 1.92757E-03 9.10167E-03-9.63543E-15 2.03537E-13
 -1        31 1.90939E+01-1.70803E-04 2.07453E-03 6.85235E-03-1.41856E-14 4.84582E-14
 -1        32 1.92503E+01 4.21602E-04 2.08113E-03 5.10151E-03-3.64618E-14-1.23006E-13
 -1        33 1.93893E+01 6.98744E-04 1.95042E-03 3.72001E-03 5.63191E-14-2.45191E-13
 -1        34 1.95100E+01 7.61577E-04 1.71479E-03 2.62759E-03-3.45762E-14-2.34926E-13
 -1        35 1.96134E+01 6.73386E-04 1.40270E-03 1.76994E-03 1.13804E-14-4.46590E-13
 -1        36 1.97024E+01 4.73546E-04 1.03137E-03 1.10914E-03 2.72338E-14-3.85151E-13
 -1        37 1.97809E+01 1.85251E-04 6.06987E-04 6.19894E-04-4.25097E-14-2.93041E-13
 -1        38 1.98540E+01-1.79468E-04 1.26534E-04 2.88608E-04-8.32949E-15-4.69653E-13
 -1        39 1.99274E+01-6.15870E-04-4.20171E-04 1.13887E-04-1.33168E-14-5.87722E-13
 -1        40 2.00080E+01-1.12283E-03-1.04807E-03 1.07915E-04 1.86723E-14-5.22269E-13
 -1        41 2.01038E+01-1.69862E-03-1.77361E-03 2.98321E-04 1.89089E-15-5.19314E-13
 -1        42 2.02238E+01-2.33541E-03-2.60967E-03 7.30156E-04-4.19183E-14-6.05426E-13
 -1        43 2.03782E+01-3.01142E-03-3.55713E-03 1.46722E-03-3.78040E-14-7.23909E-13
 -1        44 2.05782E+01-3.67958E-03-4.59038E-03 2.59112E-03 4.20597E-14-4.77635E-13
 -1        45 2.08356E+01-4.25125E-03-5.63259E-03 4.19457E-03-7.96173E-15-5.51544E-13
 -1        46 2.11611E+01-4.57446E-03-6.51508E-03 6.36208E-03-4.14715E-15-7.37385E-13
 -1        47 2.15630E+01-4.40813E-03-6.91484E-03 9.12561E-03-1.34161E-14-7.78723E-13
 -1        48 2.20422E+01-3.40087E-03-6.27142E-03 1.23748E-02-2.65851E-14-7.74136E-13
 -1        49 2.25866E+01-1.09678E-03-3.70849E-03 1.56949E-02 5.65164E-14-6.04914E-13
 -1        50 2.31620E+01 2.98374E-03 1.95274E-03 1.81122E-02-1.65006E-14-5.46086E-13
 -1        51 2.37009E+01 9.11036E-03 1.18947E-02 1.77837E-02-2.89977E-14-3.56974E-13
 -1        52 2.40927E+01 1.68788E-02 2.64142E-02 1.18306E-02-3.86507E-14-2.90746E-13
 -1        53 2.41851E+01 2.45625E-02 4.32318E-02-3.15237E-03 6.74807E-15-2.75854E-13
 -1        54 2.38106E+01 2.86545E-02 5.55705E-02-2.90969E-02-6.67803E-15-2.39597E-13
 -1        55 2.28558E+01 2.45554E-02 5.24303E-02-6.26680E-02-3.15529E-14-3.14394E-13
 -1        56 2.13694E+01 9.27290E-03 2.39650E-02-9.15522E-02-8.76549E-14-5.27349E-13
 -1        57 1.96534E+01-1.46498E-02-2.76002E-02-9.64855E-02 1.06641E-13-6.41591E-13
 -1        58 1.82338E+01-3.74801E-02-8.04992E-02-6.37307E-02-5.50877E-14-6.54754E-13
 -1        59 1.76406E+01-4.69599E-02-1.03290E-01-1.17273E-03 1.08601E-13-2.90934E-13
 -1        60 1.81001E+01-3.73637E-02-8.05142E-02 6.14831E-02-4.53036E-14-4.60743E-15
 -1        61 1.93852E+01-1.43106E-02-2.74481E-02 9.44388E-02 3.02340E-14 7.58490E-14
 -1        62 2.09624E+01 1.00037E-02 2.49662E-02 8.94315E-02 3.70262E-14-2.05218E-14
 -1        63 2.22976E+01 2.56666E-02 5.44891E-02 5.98268E-02-1.07568E-13-1.94473E-13
 -1        64 2.30794E+01 2.98824E-02 5.82936E-02 2.49084E-02-4.90404E-14-6.78353E-13
 -1        65 2.32541E+01 2.54790E-02 4.59363E-02-2.79352E-03 1.05888E-13-5.00081E-13
 -1        66 2.29372E+01 1.69090E-02 2.82681E-02-1.96587E-02 1.22637E-14-4.44613E-13
 -1        67 2.23085E+01 7.49850E-03 1.15023E-02-2.72802E-02 1.23565E-14-5.71698E-13
 -1        68 2.15463E+01-1.19202E-03-3.02867E-03-2.83269E-02 7.39012E-14-7.81106E-13
 -1        69 2.08072E+01-8.59747E-03-1.63935E-02-2.38960E-02 7.96488E-14-8.03116E-13
 -1        70 2.02359E+01-1.16868E-02-2.55385E-02-1.00460E-02 5.41194E-14-1.80101E-13
 -1        71 1.99697E+01 3.64804E-03-8.49092E-03 1.14985E-02-2.52973E-14 9.01742E-14
 -1        72 2.10399E+01-4.04865E-01-9.80357E-01-3.11516E-01 5.55736E-14 2.76590E-12
 -1        73 1.93282E+01-6.58805E-02-2.91136E-01-5.38077E-02 2.51435E-14 2.03922E-12
 -1        74 1.86838E+01-2.05023E-02-6.42685E-02-2.03274E-02 1.26200E-14 1.54223E-12
 -1        75 1.84800E+01-9.87445E-03-9.29850E-03-1.54242E-02 1.72963E-14 1.16980E-12
 -1        76 1.84901E+01-5.16199E-03 6.98692E-04-1.23487E-02 4.74734E-15 9.06560E-13
 -1        77 1.86020E+01-2.61473E-03 1.76602E-03-1.00632E-02 5.15541E-15 7.92877E-13
 -1        78 1.87593E+01-1.15159E-03 1.89949E-03-8.30161E-03 2.21498E-15 7.14029E-13
 -1        79 1.89307E+01-2.99609E-04 2.08348E-03-6.84094E-03 9.11285E-15 6.11372E-13
 -1        80 1.90989E+01 1.81143E-04 2.20788E-03-5.57294E-03 1.52342E-14 3.07467E-13
 -1        81 1.92543E+01 4.23519E-04 2.19141E-03-4.45393E-03 1.52982E-14 9.00540E-14
 -1        82 1.93924E+01 5.06581E-04 2.04004E-03-3.46383E-03 9.50199E-15-5.48715E-14
 -1        83 1.95122E+01 4.78959E-04 1.78556E-03-2.58942E-03-2.27068E-14-5.96790E-14
 -1        84 1.96148E+01 3.70620E-04 1.45579E-03-1.81867E-03 2.44661E-14-9.53651E-14
 -1        85 1.97030E+01 1.99067E-04 1.06717E-03-1.13950E-03 1.42113E-14-2.86416E-13
 -1        86 1.97807E+01-2.70235E-05 6.24669E-04-5.40536E-04 1.62336E-14-4.00807E-13
 -1        87 1.98530E+01-3.05351E-04 1.23168E-04-1.26607E-05-2.19062E-14-4.95071E-13
 -1        88 1.99258E+01-6.37985E-04-4.51022E-04 4.48598E-04-2.67369E-14-3.09428E-13
 -1        89 2.00061E+01-1.02933E-03-1.11856E-03 8.39958E-04 4.62078E-14-4.05078E-13
 -1        90 2.01021E+01-1.48352E-03-1.90506E-03 1.14621E-03 3.67702E-15-8.11621E-13
 -1        91 2.02237E+01-2.00061E-03-2.83790E-03 1.33434E-03-4.23723E-14-7.62043E-13
 -1        92 2.03820E+01-2.57036E-03-3.94016E-03 1.34514E-03-2.43301E-14-3.58035E-13
 -1        93 2.05901E+01-3.16215E-03-5.21866E-03 1.08139E-03-1.18930E-14-2.92002E-13
 -1        94 2.08628E+01-3.70886E-03-6.64048E-03 3.92375E-04 2.61059E-14-4.85239E-13
 -1        95 2.12155E+01-4.08224E-03-8.08830E-03-9.43560E-04-1.72291E-14-6.08763E-13
 -1        96 2.16631E+01-4.05945E-03-9.27987E-03-3.23021E-03-9.83127E-15-3.45632E-13
 -1        97 2.22158E+01-3.28648E-03-9.63531E-03-6.83567E-03-4.54848E-14-1.84261E-13
 -1        98 2.28730E+01-1.26299E-03-8.09337E-03-1.20927E-02 4.65545E-14-2.55020E-13
 -1        99 2.36116E+01 2.58991E-03-2.94782E-03-1.90168E-02-2.60202E-14-5.34078E-13
 -1       100 2.43703E+01 8.66253E-03 8.04318E-03-2.66987E-02 4.17044E-14-4.46002E-13
 -1       101 2.50291E+01 1.65378E-02 2.67183E-02-3.22940E-02-5.39166E-14-5.04641E-13
 -1       102 2.53959E+01 2.40173E-02 5.19509E-02-2.99640E-02 5.41559E-15-1.47223E-13
 -1       103 2.52215E+01 2.65040E-02 7.55493E-02-1.13506E-02 6.29856E-15 2.40131E-13
 -1       104 2.42805E+01 1.84279E-02 7.99037E-02 2.94614E-02 3.64906E-14 5.39041E-13
 -1       105 2.25381E+01-1.89738E-03 4.49901E-02 8.54268E-02-8.08338E-15 5.55681E-13
 -1       106 2.03400E+01-2.67344E-02-3.14605E-02 1.28326E-01-3.71598E-14 5.90486E-13
 -1       107 1.84380E+01-4.13082E-02-1.14915E-01 1.20439E-01 9.97718E-14 2.88033E-14
 -1       108 1.76596E+01-3.64295E-02-1.49054E-01 5.11263E-02 1.61642E-14-4.59601E-13
 -1       109 1.83601E+01-1.64144E-02-1.08186E-01-4.26675E-02-5.40880E-14 1.61364E-14
 -1       110 2.01543E+01 6.10315E-03-2.31084E-02-1.06417E-01 9.28304E-14-6.31092E-13
 -1       111 2.22041E+01 2.09564E-02 5.10810E-02-1.15193E-01 1.21151E-14-6.84841E-13
 -1       112 2.37615E+01 2.52563E-02 8.31892E-02-8.39577E-02-8.64415E-14-3.05287E-13
 -1       113 2.44888E+01 2.15874E-02 7.72870E-02-4.13928E-02 4.11038E-14-2.43777E-13
 -1       114 2.44278E+01 1.42439E-02 5.32397E-02-6.43168E-03-4.23659E-14-4.63560E-13
 -1       115 2.38090E+01 6.47149E-03 2.73784E-02 1.56599E-02 9.23740E-17-6.05765E-13
 -1       116 2.28912E+01-2.71153E-04 6.76763E-03 2.71533E-02 5.71969E-14-7.53276E-13
 -1       117 2.18893E+01-5.89152E-03-8.96518E-03 3.19701E-02 6.60019E-15-9.08339E-13
 -1       118 2.09696E+01-1.04501E-02-2.28650E-02 3.23166E-02-2.07165E-14-1.20316E-12
 -1       119 2.02798E+01-1.22845E-02-3.27736E-02 2.47051E-02 5.86894E-14-1.25130E-12
 -1       120 1.99748E+01 1.17298E-02-6.90779E-03-4.02486E-03 2.67919E-13-1.46640E-12
 -1       121 1.99979E+01-5.34175E-03-8.00544E-03-1.32822E-02-1.56353E-12-7.66550E-14
 -1       122 1.99844E+01 3.06805E-01-3.06745E-02 1.46105E-02-9.26742E-13 5.38584E-14
 -1       123 1.99902E+01 9.83655E-01-1.88508E-02 2.90118E-02 1.55728E-13 2.13194E-13
 -1       124 1.99979E+01 1.84622E+00-4.09903E-03 3.38182E-02 8.36199E-13-2.14232E-14
 -1       125 2.00058E+01 2.74241E+00 9.05919E-03 3.23453E-02 8.89497E-14-2.50973E-13
 -1       126 2.00133E+01 3.52412E+00 2.00909E-02 2.64338E-02-5.91281E-13 1.42885E-13
 -1       127 2.00182E+01 4.09728E+00 2.78897E-02 1.60853E-02-4.64668E-13-7.16208E-14
 -1       128 2.00204E+01 4.36095E+00 3.11622E-02 3.16097E-03-6.13093E-13 1.12866E-13
 -1       129 2.00193E+01 4.27833E+00 2.91412E-02-9.94203E-03-2.80156E-13 1.02872E-13
 -1       130 2.00152E+01 3.87060E+00 2.25105E-02-2.07827E-02-4.33108E-13-2.05584E-13
 -1       131 2.00090E+01 3.21024E+00 1.29739E-02-2.79086E-02-1.55880E-12-1.44290E-13
 -1       132 2.00022E+01 2.41481E+00 2.64552E-03-3.02196E-02-1.48654E-12 1.34993E-13
 -1       133 1.99955E+01 1.57247E+00-8.02471E-03-2.87762E-02-1.06813E-12-8.16106E-14
 -1       134 1.99879E+01 8.07024E-01-2.00898E-02-2.48210E-02-3.39474E-13-2.66578E-14
 -1       135 1.99880E+01 2.47232E-01-2.35411E-02-1.57567E-02-2.07755E-13-2.94256E-14
 -1       136 1.99876E+01-8.29972E-05-5.17154E-03 2.63209E-02-1.29982E-13-4.53394E-14
 -1       137-1.49864E+00-2.06738E+01-3.18550E+00-3.93596E+00 6.79540E-13-6.07847E-14
 -1       138-1.54325E+00-8.91244E+00-2.32968E+00-3.05567E+00 5.68379E-13 3.90105E-13
 -1       139 2.80795E+00 2.94699E+00-1.13726E+00 3.21480E+00 9.29257E-14 1.19349E-14
 -1       140 1.48144E+01 1.00065E+01 2.86593E-01 1.20691E+01 1.09301E-13 2.20490E-13
 -1       141 3.49355E+01 1.01953E+01 1.83598E+00 1.83645E+01-1.86823E-13-3.30125E-13
 -1       142 5.52942E+01 5.07392E+00 3.06677E+00 1.54286E+01-2.33508E-13-6.51590E-13
 -1       143 6.61837E+01 1.22979E+00 3.63324E+00 4.71193E+00-1.66051E-13-1.27641E-12
 -1       144 6.36594E+01 2.16154E+00 3.50891E+00-8.67546E+00 4.73096E-13-2.25406E-12
 -1       145 4.73753E+01 7.11045E+00 2.59088E+00-1.73493E+01 8.30669E-13-2.27679E-12
 -1       146 2.68069E+01 1.09137E+01 1.24012E+00-1.68036E+01 8.95450E-13-1.71896E-12
 -1       147 9.23678E+00 8.37299E+00-2.83571E-01-8.86998E+00 1.42725E-12-1.16229E-12
 -1       148 1.23667E-01-1.29353E+00-1.66170E+00-6.19036E-02 1.91391E-12-1.19382E-12
 -1       149-1.86107E+00-1.36335E+01-2.68092E+00 4.17866E+00 2.03287E-12-7.94823E-13
 -1       150-1.08452E+00-2.27467E+01-3.25342E+00 2.76405E+00 1.25860E-12-2.47407E-13
 -1       151-8.61389E-01-2.39312E+01-3.30769E+00-1.61949E+00 4.16708E-13 4.30211E-16
 -1       152-1.74801E+00-1.61613E+01-2.79793E+00-4.19084E+00-1.28653E-12-5.33393E-13
 -1       153-4.93614E-01-3.70492E+00-1.83476E+00-9.42883E-01-1.96498E-12-1.12571E-12
 -1       154 6.87869E+00 7.30033E+00-5.09097E-01 7.27097E+00-1.47998E-12-1.32816E-12
 -1       155 2.48304E+01 1.12122E+01 1.13387E+00 1.63918E+01-1.23368E-12-1.82943E-12
 -1       156 4.60346E+01 7.44856E+00 2.50572E+00 1.75758E+01-7.95197E-13-2.17221E-12
 -1       157 6.25518E+01 2.32752E+00 3.39206E+00 9.33350E+00-3.92336E-13-1.43849E-12
 -1       158 5.54983E+01 4.89108E+00 3.04674E+00-1.50985E+01-4.70582E-13 1.68882E-12
 -1       159 3.54840E+01 1.00460E+01 1.90537E+00-1.82897E+01-9.11576E-13 1.71962E-12
 -1       160 1.62467E+01 1.07291E+01 4.87462E-01-1.30557E+01-6.74405E-13 7.92422E-13
 -1       161 3.20436E+00 3.78066E+00-1.01937E+00-3.77846E+00 2.32037E-13-3.82472E-14
 -1       162-1.56415E+00-8.64990E+00-2.28707E+00 3.04102E+00 7.65665E-13-4.87999E-13
 -1       163-1.44535E+00-2.03963E+01-3.14691E+00 3.91054E+00 1.16746E-12-4.02352E-13
 -1       164 2.10115E+01 3.69368E+00-5.74045E-02-3.61102E+00-4.46709E-13 1.75776E-13
 -1       165 1.99886E+01 4.20828E+00-4.59526E-02-2.80951E+00-4.24362E-13-2.98761E-13
 -1       166 1.95097E+01 4.47638E+00-3.13411E-02-2.19711E+00-3.48990E-13-5.75085E-13
 -1       167 1.92680E+01 4.61507E+00-2.35015E-02-1.67581E+00-2.63414E-13-7.11514E-13
 -1       168 1.91382E+01 4.69678E+00-1.95415E-02-1.22004E+00-1.81504E-13-7.76345E-13
 -1       169 1.90651E+01 4.74778E+00-1.74424E-02-7.92758E-01-1.13788E-13-8.09560E-13
 -1       170 1.90283E+01 4.77567E+00-1.64297E-02-3.87238E-01-4.20754E-14-8.13345E-13
 -1       171 1.90175E+01 4.78421E+00-1.61380E-02 8.27190E-03 2.17709E-14-8.10896E-13
 -1       172 1.90300E+01 4.77440E+00-1.64706E-02 4.04116E-01 8.86284E-14-8.04488E-13
 -1       173 1.90688E+01 4.74483E+00-1.75236E-02 8.10689E-01 1.50901E-13-7.79913E-13
 -1       174 1.91427E+01 4.69237E+00-1.96903E-02 1.23244E+00 2.15617E-13-7.17977E-13
 -1       175 1.92775E+01 4.60519E+00-2.40085E-02 1.69932E+00 3.05863E-13-6.24261E-13
 -1       176 1.95234E+01 4.45939E+00-3.28526E-02 2.22775E+00 3.90053E-13-4.61034E-13
 -1       177 2.00120E+01 4.18370E+00-4.72171E-02 2.84792E+00 4.56137E-13-1.57471E-13
 -1       178 2.11330E+01 3.46362E+00-5.97893E-02 3.53765E+00 4.55547E-13 4.01887E-13
 -1       179 2.24170E+01 1.14346E+00-3.36470E-01 3.01550E+00 3.52826E-13 1.14721E-12
 -1       180 2.19693E+01 8.58255E-01 6.87440E-04-1.95993E+00-3.78503E-13 7.38461E-13
 -1       181 2.04441E+01 1.90356E-01-9.94092E-03-7.64960E-01-3.24876E-13 5.52318E-13
 -1       182 1.96679E+01 1.01611E-01 1.35997E-02-2.86442E-01-2.42767E-13 3.91490E-13
 -1       183 1.93274E+01 4.71323E-02 1.00149E-02-6.88736E-02-1.49632E-13 2.55209E-13
 -1       184 1.91969E+01 2.25229E-02 5.15744E-03 3.83128E-02-1.29996E-13 1.79272E-13
 -1       185 1.91826E+01 9.49646E-03 2.43408E-03 9.08745E-02-1.00634E-13 1.24778E-13
 -1       186 1.92305E+01 2.13573E-03 1.13528E-03 1.13277E-01-7.40202E-14 3.61142E-14
 -1       187 1.93091E+01-2.03096E-03 5.07102E-04 1.18373E-01-1.23745E-13-1.93707E-14
 -1       188 1.93999E+01-4.22646E-03 1.80489E-04 1.13674E-01-1.08019E-13-5.33525E-14
 -1       189 1.94922E+01-5.13768E-03 6.08610E-06 1.03909E-01-9.02230E-14-6.50362E-14
 -1       190 1.95800E+01-5.18490E-03-7.81961E-05 9.21954E-02-4.26479E-14-2.35230E-13
 -1       191 1.96609E+01-4.63421E-03-1.02685E-04 8.06590E-02-9.93654E-14-2.88567E-13
 -1       192 1.97347E+01-3.65141E-03-8.47053E-05 7.07976E-02-7.48770E-15-3.00321E-13
 -1       193 1.98026E+01-2.33184E-03-3.48902E-05 6.37253E-02-3.50762E-14-3.47769E-13
 -1       194 1.98673E+01-7.19419E-04 4.02055E-05 6.03422E-02-9.47001E-14-3.57428E-13
 -1       195 1.99326E+01 1.17911E-03 1.36562E-04 6.14561E-02-2.44239E-14-3.87177E-13
 -1       196 2.00029E+01 3.38119E-03 2.51433E-04 6.78655E-02 4.75543E-14-3.66570E-13
 -1       197 2.00836E+01 5.91413E-03 3.82045E-04 8.04035E-02 1.32505E-14-3.82787E-13
 -1       198 2.01810E+01 8.79625E-03 5.24016E-04 9.99380E-02-1.17144E-13-3.56856E-13
 -1       199 2.03019E+01 1.20094E-02 6.69261E-04 1.27309E-01-2.21478E-14-3.76993E-13
 -1       200 2.04540E+01 1.54568E-02 8.03178E-04 1.63177E-01 1.01621E-13-3.92575E-13
 -1       201 2.06448E+01 1.88966E-02 9.01058E-04 2.07732E-01-6.58126E-14-3.69143E-13
 -1       202 2.08814E+01 2.18412E-02 9.24192E-04 2.60200E-01-4.19466E-14-3.16683E-13
 -1       203 2.11690E+01 2.34122E-02 8.17263E-04 3.18047E-01-6.55039E-14-2.50138E-13
 -1       204 2.15089E+01 2.21530E-02 5.10861E-04 3.75800E-01-6.65111E-14-3.32493E-13
 -1       205 2.18953E+01 1.58480E-02-6.41541E-05 4.23451E-01 1.07988E-14-2.66058E-13
 -1       206 2.23111E+01 1.49567E-03-9.41369E-04 4.44673E-01 9.33594E-15-3.90886E-13
 -1       207 2.27232E+01-2.42067E-02-2.05846E-03 4.15659E-01 1.23151E-13-3.95612E-13
 -1       208 2.30779E+01-6.32230E-02-3.18131E-03 3.06563E-01 8.40239E-14-2.87176E-13
 -1       209 2.33000E+01-1.12618E-01-3.86533E-03 8.90912E-02-6.72921E-14-1.62983E-13
 -1       210 2.33011E+01-1.59246E-01-3.58637E-03-2.45512E-01-5.82893E-14-2.46325E-13
 -1       211 2.30037E+01-1.76220E-01-2.17581E-03-6.57911E-01 1.54763E-14-2.04443E-13
 -1       212 2.23856E+01-1.29173E-01-3.04939E-05-1.03500E+00-4.71086E-14-8.91704E-14
 -1       213 2.15343E+01-1.31522E-03 1.84000E-03-1.20042E+00-4.81617E-14 1.16174E-13
 -1       214 2.06732E+01 1.72318E-01 2.49727E-03-9.97364E-01-4.79469E-14-8.78750E-14
 -1       215 2.01038E+01 3.01230E-01 2.23163E-03-4.21190E-01 6.58961E-14-4.25966E-14
 -1       216 2.00505E+01 3.01147E-01 2.09568E-03 3.14593E-01 9.51045E-14-2.91231E-13
 -1       217 2.05127E+01 1.71816E-01 2.12599E-03 8.90018E-01 1.22292E-13-2.84434E-14
 -1       218 2.12649E+01-3.57983E-03 1.56274E-03 1.08972E+00-1.29557E-13-1.64490E-13
 -1       219 2.20020E+01-1.34309E-01-1.44356E-04 9.14994E-01-1.79352E-13-4.15659E-13
 -1       220 2.24956E+01-1.83659E-01-2.25757E-03 5.22400E-01-1.83053E-13-4.46335E-13
 -1       221 2.26552E+01-1.67190E-01-3.63295E-03 9.14379E-02 5.48749E-14-4.12709E-13
 -1       222 2.25045E+01-1.18474E-01-3.67472E-03-2.59147E-01 1.72809E-14-4.49819E-13
 -1       223 2.21279E+01-6.36963E-02-2.64016E-03-4.82746E-01 1.44750E-14-3.51925E-13
 -1       224 2.16271E+01-1.45585E-02-1.14060E-03-5.78367E-01 3.59601E-14-1.95090E-13
 -1       225 2.10982E+01 2.80827E-02 1.12134E-04-5.61006E-01 6.15755E-14-3.30051E-13
 -1       226 2.06227E+01 6.89027E-02 9.62062E-04-4.44473E-01 2.92389E-13-5.44461E-13
 -1       227 2.02502E+01 1.06234E-01 9.49556E-04-2.44382E-01 2.03906E-13-2.75314E-13
 -1       228 2.09605E+01 2.77037E-01-5.13403E-02 1.16552E+00 3.33809E-13 9.56782E-13
 -1       229 1.98651E+01 1.26828E-01 8.30763E-03 4.43840E-01 2.43064E-13 7.24826E-13
 -1       230 1.93580E+01 5.80370E-02 1.27344E-02 1.50858E-01 1.90893E-13 5.18001E-13
 -1       231 1.91474E+01 2.76882E-02 7.62943E-03 1.16621E-02 1.22958E-13 3.92721E-13
 -1       232 1.90967E+01 1.30372E-02 3.82585E-03-5.73865E-02 8.59067E-14 2.99206E-13
 -1       233 1.91315E+01 5.10918E-03 1.91162E-03-8.97667E-02 4.78093E-14 2.15861E-13
 -1       234 1.92098E+01 6.02334E-04 1.01247E-03-1.01576E-01 6.48527E-14 1.81804E-13
 -1       235 1.93068E+01-1.92603E-03 5.57782E-04-1.01593E-01 1.32998E-13 1.53949E-13
 -1       236 1.94083E+01-3.21109E-03 3.02218E-04-9.51085E-02 9.49769E-14 4.52759E-14
 -1       237 1.95063E+01-3.67720E-03 1.51992E-04-8.55182E-02 2.59927E-14 2.25310E-14
 -1       238 1.95967E+01-3.58729E-03 6.76968E-05-7.50877E-02 3.19657E-14-2.58741E-14
 -1       239 1.96784E+01-3.10714E-03 2.88850E-05-6.53783E-02 4.92749E-14-6.17012E-14
 -1       240 1.97522E+01-2.33738E-03 2.30652E-05-5.75123E-02 1.14164E-13-1.18739E-13
 -1       241 1.98204E+01-1.33136E-03 4.20563E-05-5.23552E-02 4.04262E-14-1.36439E-13
 -1       242 1.98862E+01-1.06478E-04 8.03503E-05-5.06482E-02 8.51263E-15-1.14891E-13
 -1       243 1.99543E+01 1.34762E-03 1.34040E-04-5.31088E-02-6.52090E-14-2.47245E-13
 -1       244 2.00299E+01 3.06171E-03 1.99899E-04-6.05043E-02 1.55024E-13-1.95121E-13
 -1       245 2.01194E+01 5.07903E-03 2.74372E-04-7.36990E-02 1.08523E-13-3.22313E-13
 -1       246 2.02303E+01 7.44457E-03 3.52283E-04-9.36713E-02-1.16671E-13-2.99698E-13
 -1       247 2.03711E+01 1.01878E-02 4.25067E-04-1.21483E-01-2.20934E-13-2.93140E-13
 -1       248 2.05516E+01 1.32925E-02 4.78400E-04-1.58176E-01-6.38775E-14-1.99962E-13
 -1       249 2.07820E+01 1.66438E-02 4.89381E-04-2.04532E-01 1.13797E-13-1.64990E-13
 -1       250 2.10729E+01 1.99361E-02 4.24330E-04-2.60625E-01 1.34507E-14-2.90513E-13
 -1       251 2.14330E+01 2.25201E-02 2.40372E-04-3.25002E-01-6.99481E-14-2.41514E-13
 -1       252 2.18674E+01 2.31688E-02-1.02313E-04-3.93322E-01-8.02567E-14-1.48488E-13
 -1       253 2.23726E+01 1.97709E-02-6.05928E-04-4.56247E-01 7.62448E-14-3.87947E-14
 -1       254 2.29300E+01 9.06469E-03-1.16933E-03-4.96621E-01 6.47010E-14-1.90082E-14
 -1       255 2.34974E+01-1.32071E-02-1.49948E-03-4.86652E-01-1.76112E-13 3.60085E-15
 -1       256 2.39996E+01-5.08600E-02-1.07780E-03-3.87576E-01 8.43054E-15 1.87875E-13
 -1       257 2.43244E+01-1.03145E-01 6.43499E-04-1.57240E-01-1.63866E-13-2.74407E-14
 -1       258 2.43331E+01-1.57062E-01 3.57953E-03 2.25977E-01-1.92516E-13 9.48651E-14
 -1       259 2.39030E+01-1.80147E-01 6.11125E-03 7.18461E-01-9.22517E-14 2.88058E-13
 -1       260 2.30092E+01-1.27524E-01 4.95317E-03 1.16557E+00 1.18561E-13 4.40186E-13
 -1       261 2.18235E+01 2.16243E-02-2.23878E-03 1.31651E+00 1.55390E-14 4.91222E-14
 -1       262 2.07416E+01 2.12695E-01-1.24397E-02 9.65761E-01 3.14468E-13 4.31530E-14
 -1       263 2.02329E+01 3.20817E-01-1.66674E-02 1.75480E-01 1.22912E-13-7.07869E-14
 -1       264 2.05313E+01 2.63692E-01-1.03376E-02-6.79150E-01-7.15955E-14-2.78270E-13
 -1       265 2.14537E+01 8.70273E-02 7.65876E-04-1.17403E+00 3.30428E-13-2.32873E-13
 -1       266 2.25395E+01-8.60821E-02 7.49420E-03-1.14882E+00-1.27149E-13-1.79832E-13
 -1       267 2.33606E+01-1.73082E-01 7.23963E-03-7.49700E-01-1.60240E-13-2.83948E-14
 -1       268 2.37100E+01-1.73338E-01 3.36275E-03-2.35109E-01 1.55950E-13-1.54371E-13
 -1       269 2.35930E+01-1.27451E-01-2.16458E-04 2.04173E-01-1.29023E-13-3.20908E-13
 -1       270 2.31296E+01-7.21665E-02-1.90151E-03 4.91674E-01 2.59041E-13-2.60525E-13
 -1       271 2.24690E+01-2.51523E-02-1.89389E-03 6.28146E-01 2.32602E-13-6.14169E-13
 -1       272 2.17460E+01 1.09090E-02-1.36428E-03 6.42374E-01 4.89717E-14-6.39462E-13
 -1       273 2.10691E+01 4.09174E-02-1.56175E-03 5.60078E-01 1.81294E-13-3.82568E-13
 -1       274 2.05249E+01 7.31558E-02-1.28616E-03 3.92449E-01 1.06153E-13-4.87226E-13
 -1       275 2.01617E+01 9.13771E-02 1.37162E-03 1.58728E-01-1.08627E-13-4.54699E-13
 -1       276 2.01203E+01 3.17029E-01 1.91210E-03 3.04238E-01 3.06376E-14 5.29133E-13
 -1       277 2.00801E+01 7.41840E-01 1.01587E-03 5.29663E-01-8.55020E-14 2.97390E-13
 -1       278 2.00319E+01 1.28935E+00 4.13974E-04 6.61602E-01-1.08235E-13 4.11539E-13
 -1       279 1.99882E+01 1.89205E+00-5.14153E-04 6.85477E-01 1.35497E-14-4.02417E-13
 -1       280 1.99485E+01 2.45791E+00-1.81432E-03 6.07917E-01-9.17955E-14-5.83190E-13
 -1       281 1.99153E+01 2.92428E+00-2.85531E-03 4.38157E-01-1.67423E-13-1.42023E-13
 -1       282 1.98954E+01 3.20926E+00-3.49762E-03 2.01587E-01-1.87398E-13-1.72046E-13
 -1       283 1.98929E+01 3.27021E+00-3.62481E-03-6.32867E-02-1.26516E-13 2.18888E-13
 -1       284 1.99081E+01 3.10106E+00-3.24856E-03-3.12278E-01-2.80479E-13-2.63348E-13
 -1       285 1.99368E+01 2.73331E+00-2.42399E-03-5.06481E-01-4.72847E-13-4.26479E-13
 -1       286 1.99712E+01 2.23670E+00-1.23410E-03-6.19890E-01-4.69303E-13-1.36594E-14
 -1       287 2.00068E+01 1.66711E+00-6.12832E-05-6.47640E-01-2.75897E-13 3.53564E-13
 -1       288 2.00402E+01 1.10822E+00 8.98367E-04-5.89676E-01-9.44754E-14 4.62661E-13
 -1       289 2.00768E+01 6.25926E-01 1.91492E-03-4.46898E-01 1.53190E-13-2.71224E-14
 -1       290 2.01597E+01 3.37733E-01 2.54148E-03-3.88272E-01 1.61303E-13-3.39634E-14
 -1       291-8.52285E-01-1.07074E+01-9.15443E-01 1.17110E+00 5.02473E-13-2.70672E-13
 -1       292 3.03623E+00-8.54615E+00-7.00836E-01 3.83344E+00 3.84026E-13-1.02016E-13
 -1       293 9.64733E+00-5.46021E+00-4.78725E-01 5.67809E+00-2.04836E-14-4.52097E-13
 -1       294 1.85884E+01-1.80787E+00-1.27207E-01 7.08012E+00-2.92044E-13 1.28231E-13
 -1       295 2.95982E+01 6.95950E-01 2.07442E-01 6.04946E+00 5.63993E-14-4.06009E-13
 -1       296 3.90487E+01 4.98568E+00 7.31549E-01 6.23305E+00-3.75128E-14-6.46955E-13
 -1       297 4.48960E+01 6.52214E+00 9.31762E-01 3.02738E+00 1.74277E-13-8.81836E-13
 -1       298 4.64318E+01 6.87642E+00 9.74064E-01-4.11450E-01 4.67154E-13-1.17186E-12
 -1       299 4.18832E+01 5.99711E+00 7.05281E-01-3.15843E+00 4.02484E-13-1.10392E-12
 -1       300 3.53362E+01 3.88621E+00 5.67717E-01-6.82393E+00 4.46983E-13-1.34331E-12
 -1       301 2.48326E+01 1.07345E+00 1.46653E-01-7.51333E+00 7.54868E-13-1.00572E-12
 -1       302 1.42864E+01-2.76735E+00-3.15044E-01-6.41613E+00 9.73333E-13-5.82728E-13
 -1       303 6.08429E+00-6.76510E+00-6.77244E-01-4.44893E+00 9.67337E-13-5.05960E-13
 -1       304 9.98576E-01-9.46096E+00-8.25402E-01-2.56204E+00 6.20032E-13-5.57165E-13
 -1       305-1.16213E+00-1.01732E+01-8.30938E-01-2.66941E-01 3.79677E-13-4.97075E-13
 -1       306 1.41582E-01-9.88525E+00-8.40593E-01 2.12499E+00-7.01939E-14-9.79647E-13
 -1       307 5.76520E+00-7.05274E+00-5.03827E-01 5.02465E+00-3.81029E-13-6.61346E-13
 -1       308 1.24347E+01-3.40897E+00-3.78092E-01 6.17401E+00-7.92644E-13-3.88994E-13
 -1       309 2.29951E+01 9.32261E-01 8.91137E-02 7.64398E+00-6.19393E-13-9.22012E-13
 -1       310 3.43914E+01 3.97939E+00 5.63194E-01 7.23799E+00-4.58522E-13-9.26759E-13
 -1       311 4.13600E+01 5.93507E+00 6.83064E-01 3.46682E+00-5.22166E-13-3.68872E-13
 -1       312 4.61145E+01 6.83163E+00 9.54791E-01 6.67726E-01-6.76736E-13-5.86572E-13
 -1       313 4.56007E+01 6.40451E+00 1.00691E+00-3.19238E+00-8.30433E-13-3.29722E-13
 -1       314 3.84584E+01 4.90081E+00 6.29933E-01-5.39208E+00-3.55802E-13 2.55213E-13
 -1       315 2.95089E+01 2.24989E+00 3.27597E-01-7.32266E+00-7.50372E-14 8.05384E-13
 -1       316 1.88123E+01-9.10410E-01-8.59624E-02-7.28270E+00 1.15991E-13 7.60447E-13
 -1       317 9.77732E+00-5.24944E+00-4.72561E-01-5.74765E+00 1.38278E-13 3.26128E-13
 -1       318 2.87021E+00-8.71768E+00-7.63413E-01-3.63795E+00 4.22468E-13 1.30854E-13
 -1       319-8.07606E-01-1.07509E+01-9.25191E-01-1.29001E+00 7.67553E-13-1.08746E-13
 -1       320 2.01353E+01 3.00068E+00-2.20077E-02-2.09823E+00-4.43897E-13-2.94146E-13
 -1       321 2.07546E+01 2.20820E+00-1.76860E-02-2.36544E+00-4.74559E-13-2.00066E-14
 -1       322 1.95844E+01 3.69127E+00-1.56224E-02-1.31823E+00-2.70002E-13-5.79495E-13
 -1       323 1.94620E+01 3.84816E+00-1.37190E-02-9.24453E-01-1.85732E-13-6.31347E-13
 -1       324 1.93936E+01 3.93900E+00-1.27220E-02-5.44377E-01-9.25665E-14-6.44287E-13
 -1       325 1.93634E+01 3.98031E+00-1.23018E-02-1.73417E-01 2.58121E-16-6.38212E-13
 -1       326 1.93647E+01 3.97870E+00-1.23193E-02 1.94579E-01 7.27554E-14-6.39969E-13
 -1       327 1.93978E+01 3.93381E+00-1.27643E-02 5.65884E-01 1.44253E-13-6.19272E-13
 -1       328 1.94681E+01 3.84056E+00-1.37715E-02 9.40118E-01 2.24455E-13-5.90639E-13
 -1       329 1.95942E+01 3.67835E+00-1.56567E-02 1.33439E+00 3.18975E-13-4.84984E-13
 -1       330 1.98088E+01 3.40973E+00-1.88320E-02 1.73983E+00 4.05249E-13-3.71646E-13
 -1       331 2.01783E+01 2.95506E+00-2.29401E-02 2.12842E+00 4.81684E-13-1.96934E-13
 -1       332 2.07471E+01 2.12939E+00-3.04706E-02 2.32329E+00 5.02195E-13 1.47252E-13
 -1       333 2.10930E+01 1.18773E+00-2.49269E-02 1.92289E+00 4.57103E-13 4.69916E-13
 -1       334 2.03889E+01 4.89226E-01 8.33169E-03 9.28385E-01 3.53155E-13 3.42133E-13
 -1       335 2.04559E+01 6.75230E-01 1.25796E-02-1.02611E+00-3.70259E-13 3.57630E-14
 -1       336 2.00338E+01 3.36700E-01 7.16851E-03-4.59166E-01-2.74250E-13 2.47101E-15
 -1       337 1.97792E+01 1.76372E-01 4.09805E-03-1.50298E-01-1.86124E-13-5.24988E-14
 -1       338 1.96434E+01 9.04001E-02 1.88551E-03 2.08160E-02-1.51840E-13-1.13106E-13
 -1       339 1.95877E+01 4.14144E-02 7.88819E-04 1.12036E-01-1.20542E-13-1.32369E-13
 -1       340 1.95824E+01 1.27005E-02 2.76022E-04 1.55524E-01-1.12949E-13-1.38530E-13
 -1       341 1.96067E+01-3.88210E-03 2.44289E-05 1.70319E-01-9.22860E-14-1.17467E-13
 -1       342 1.96470E+01-1.27336E-02-1.02431E-04 1.68373E-01-1.12641E-13-1.40838E-13
 -1       343 1.96948E+01-1.64524E-02-1.58778E-04 1.57534E-01-1.77591E-13-1.86814E-13
 -1       344 1.97450E+01-1.66600E-02-1.69645E-04 1.43125E-01-8.10926E-14-2.17659E-13
 -1       345 1.97948E+01-1.43861E-02-1.48841E-04 1.28861E-01-5.28332E-14-2.13321E-13
 -1       346 1.98436E+01-1.02693E-02-1.04666E-04 1.17428E-01 5.00706E-15-1.13528E-13
 -1       347 1.98920E+01-4.67373E-03-4.19741E-05 1.10875E-01-1.08928E-13-4.27885E-14
 -1       348 1.99415E+01 2.23143E-03 3.67131E-05 1.10891E-01-8.80375E-14-1.49575E-13
 -1       349 1.99946E+01 1.04092E-02 1.30349E-04 1.18992E-01-1.24747E-14-1.98659E-13
 -1       350 2.00545E+01 1.98936E-02 2.38516E-04 1.36642E-01 2.96452E-14-2.36214E-13
 -1       351 2.01250E+01 3.07192E-02 3.60418E-04 1.65287E-01-3.33311E-14-2.74385E-13
 -1       352 2.02102E+01 4.28263E-02 4.93525E-04 2.06312E-01-3.75889E-14-1.81691E-13
 -1       353 2.03149E+01 5.59253E-02 6.31619E-04 2.60863E-01 3.12632E-14-2.23629E-13
 -1       354 2.04441E+01 6.92923E-02 7.61968E-04 3.29505E-01 7.28092E-14-3.15248E-13
 -1       355 2.06025E+01 8.14674E-02 8.61445E-04 4.11626E-01 1.07766E-13-1.01789E-13
 -1       356 2.07944E+01 8.98232E-02 8.91729E-04 5.04496E-01-2.48870E-14 3.23992E-14
 -1       357 2.10231E+01 9.00009E-02 7.94736E-04 6.01866E-01-1.36981E-13-8.71176E-14
 -1       358 2.12896E+01 7.53065E-02 4.91484E-04 6.92040E-01-2.15429E-14-1.77365E-13
 -1       359 2.15920E+01 3.63930E-02-1.09444E-04 7.55542E-01 1.08149E-14-1.93749E-13
 -1       360 2.19237E+01-3.79569E-02-1.08237E-03 7.62951E-01 9.59956E-14-6.06922E-14
 -1       361 2.22712E+01-1.57339E-01-2.42328E-03 6.74504E-01 3.66112E-14-2.81390E-13
 -1       362 2.26101E+01-3.21114E-01-3.92717E-03 4.44790E-01 1.08988E-13-4.04867E-13
 -1       363 2.28995E+01-5.02983E-01-5.03494E-03 3.81894E-02-1.32738E-13-3.11849E-13
 -1       364 2.30759E+01-6.33129E-01-4.97085E-03-5.38681E-01 1.66034E-13-3.49777E-14
 -1       365 2.30579E+01-5.97593E-01-3.64363E-03-1.18950E+00 6.94603E-14 1.36105E-13
 -1       366 2.27842E+01-2.86747E-01-1.17606E-03-1.69354E+00 3.49593E-14 1.32557E-13
 -1       367 2.22906E+01 2.87080E-01 1.38692E-03-1.75178E+00-1.21720E-13 2.14251E-13
 -1       368 2.17758E+01 8.89585E-01 3.20103E-03-1.16931E+00 2.90718E-14 3.12781E-13
 -1       369 2.15307E+01 1.15137E+00 3.38963E-03-9.32877E-02-9.13124E-14 3.37249E-13
 -1       370 2.16973E+01 8.88376E-01 1.80847E-03 9.81980E-01 1.38368E-13 2.32785E-13
 -1       371 2.21349E+01 2.82713E-01 7.31533E-04 1.56290E+00-7.07350E-14-2.96016E-13
 -1       372 2.25531E+01-3.00790E-01-1.10586E-03 1.49596E+00-9.66617E-14 7.33563E-14
 -1       373 2.27470E+01-6.21188E-01-3.60437E-03 9.72181E-01-2.69133E-13 1.78433E-14
 -1       374 2.26775E+01-6.61354E-01-5.30328E-03 2.94816E-01-1.64015E-13-1.19370E-13
 -1       375 2.24068E+01-5.26817E-01-5.20968E-03-3.07488E-01 1.89426E-13-2.37328E-13
 -1       376 2.20196E+01-3.29933E-01-3.84075E-03-7.28535E-01 1.47217E-13-3.59725E-14
 -1       377 2.15847E+01-1.37060E-01-1.95339E-03-9.49840E-01-1.13115E-14 1.30561E-13
 -1       378 2.11500E+01 3.01090E-02-1.33430E-04-9.92028E-01-2.54542E-13 2.06530E-13
 -1       379 2.07490E+01 1.75644E-01 1.58082E-03-8.83768E-01 1.93843E-14 6.11942E-14
 -1       380 2.04376E+01 2.73456E-01 2.83132E-03-6.69854E-01 3.09646E-13 4.01470E-14
 -1       381 1.98868E+01 2.28391E-01 1.07942E-02 3.99858E-01 2.77070E-13 2.43582E-13
 -1       382 1.95976E+01 1.15248E-01 6.17232E-03 1.21292E-01 1.93724E-13 1.59404E-13
 -1       383 1.94624E+01 5.75406E-02 2.80396E-03-2.74168E-02 1.31376E-13 5.96205E-14
 -1       384 1.94220E+01 2.57173E-02 1.17742E-03-1.04217E-01 8.40470E-14 1.66855E-14
 -1       385 1.94373E+01 7.38821E-03 4.52348E-04-1.39518E-01 8.11792E-14-9.09263E-15
 -1       386 1.94833E+01-3.11193E-03 1.10549E-04-1.50355E-01 1.58477E-13-1.83555E-14
 -1       387 1.95440E+01-8.71029E-03-6.34219E-05-1.47089E-01 1.23047E-13-3.91957E-15
 -1       388 1.96100E+01-1.10899E-02-1.47840E-04-1.36382E-01 2.82277E-14-1.34333E-14
 -1       389 1.96757E+01-1.12862E-02-1.75525E-04-1.22690E-01 8.82582E-14-3.95148E-14
 -1       390 1.97384E+01-9.95186E-03-1.63799E-04-1.09090E-01 4.11926E-14-4.74727E-14
 -1       391 1.97978E+01-7.48850E-03-1.23070E-04-9.77901E-02 1.65723E-13-1.21798E-13
 -1       392 1.98547E+01-4.11996E-03-5.95243E-05-9.04698E-02 3.68110E-14-8.59587E-14
 -1       393 1.99113E+01 6.21200E-05 2.36388E-05-8.85256E-02 6.32229E-15-5.87332E-14
 -1       394 1.99707E+01 5.06520E-03 1.25329E-04-9.32492E-02 4.57885E-14-9.38525E-14
 -1       395 2.00368E+01 1.09670E-02 2.45766E-04-1.05955E-01 1.10800E-13-2.28215E-13
 -1       396 2.01145E+01 1.78846E-02 3.85567E-04-1.28062E-01 1.55293E-13-1.04991E-13
 -1       397 2.02093E+01 2.59340E-02 5.44470E-04-1.61114E-01-6.17498E-14-1.36984E-13
 -1       398 2.03276E+01 3.51680E-02 7.19389E-04-2.06726E-01-1.64288E-13-2.01422E-13
 -1       399 2.04765E+01 4.54726E-02 9.01330E-04-2.66411E-01-1.42894E-13-2.07647E-13
 -1       400 2.06633E+01 5.63911E-02 1.07065E-03-3.41206E-01 8.81401E-14-2.53025E-13
 -1       401 2.08955E+01 6.68313E-02 1.19029E-03-4.30978E-01 5.20612E-14-1.72073E-13
 -1       402 2.11795E+01 7.45977E-02 1.19771E-03-5.33238E-01-1.15360E-13-2.02392E-13
 -1       403 2.15192E+01 7.57069E-02 9.98798E-04-6.41207E-01-1.66880E-13-1.40815E-13
 -1       404 2.19141E+01 6.35412E-02 4.72007E-04-7.40943E-01-3.75098E-14-9.22951E-14
 -1       405 2.23563E+01 2.82099E-02-5.00769E-04-8.07589E-01 9.22608E-14 1.29352E-13
 -1       406 2.28263E+01-4.27789E-02-1.96628E-03-8.01690E-01-1.65901E-13 2.84391E-13
 -1       407 2.32880E+01-1.60115E-01-3.75959E-03-6.68664E-01-3.64047E-14 3.50684E-13
 -1       408 2.36837E+01-3.20973E-01-5.37798E-03-3.48090E-01 5.37324E-14 3.59021E-13
 -1       409 2.39295E+01-4.87402E-01-5.96946E-03 1.96409E-01-1.32884E-13 1.16006E-13
 -1       410 2.39215E+01-5.64882E-01-4.89073E-03 9.17403E-01-7.02116E-14 2.32219E-14
 -1       411 2.35730E+01-4.18207E-01-2.34912E-03 1.61265E+00-6.60192E-14 1.15970E-13
 -1       412 2.29032E+01 2.62048E-02-1.00161E-03 1.92198E+00 1.53507E-13 2.59739E-13
 -1       413 2.21394E+01 6.26350E-01-1.80454E-03 1.50344E+00 2.90799E-13 3.07188E-13
 -1       414 2.16893E+01 9.96148E-01-2.71241E-03 3.81363E-01 1.82397E-13 5.03124E-13
 -1       415 2.18262E+01 8.51672E-01-6.33375E-05-9.02908E-01 3.49026E-14 2.59306E-13
 -1       416 2.24259E+01 3.06136E-01 2.55005E-03-1.67598E+00 2.22381E-13 2.26168E-13
 -1       417 2.30880E+01-2.52959E-01 3.90994E-04-1.66081E+00-1.78342E-13 4.30016E-13
 -1       418 2.34818E+01-5.47305E-01-4.04237E-03-1.07081E+00-2.35012E-14 1.71332E-13
 -1       419 2.35072E+01-5.61425E-01-6.98079E-03-2.99992E-01 8.79886E-14-3.74477E-14
 -1       420 2.32257E+01-4.20184E-01-7.13501E-03 3.62959E-01 2.54918E-14 7.82228E-14
 -1       421 2.27473E+01-2.41925E-01-5.40581E-03 8.01259E-01 1.85976E-13 2.54621E-14
 -1       422 2.21740E+01-8.66232E-02-2.81820E-03 1.01306E+00 3.02631E-13 1.68117E-13
 -1       423 2.15845E+01 3.34820E-02-4.10690E-04 1.03950E+00 8.08302E-14 1.32761E-13
 -1       424 2.10361E+01 1.30095E-01 1.25233E-03 9.21874E-01 3.04544E-14 1.08841E-13
 -1       425 2.05677E+01 2.15545E-01 1.91703E-03 6.87433E-01 1.07830E-13 4.60804E-13
 -1       426 2.03208E+01 2.78751E-01 2.06509E-03 5.10710E-01 8.55093E-14 6.39806E-13
 -1       427 2.00345E+01 1.30291E+00 5.24833E-04 1.14691E+00-1.55612E-13-1.19352E-15
 -1       428 2.01962E+01 8.62696E-01 2.45198E-03 1.03456E+00 1.79584E-14 4.86193E-13
 -1       429 2.02818E+01 5.58655E-01 3.13705E-03 8.02320E-01-2.82026E-14 3.03174E-13
 -1       430 1.98763E+01 1.73902E+00-1.18138E-03 1.09826E+00-1.49894E-13-6.57622E-13
 -1       431 1.97305E+01 2.13448E+00-2.54985E-03 8.89414E-01-5.99347E-14-2.10802E-13
 -1       432 1.96235E+01 2.42108E+00-3.44027E-03 5.43616E-01-3.20523E-15-8.87665E-14
 -1       433 1.95780E+01 2.55004E+00-3.82330E-03 1.14177E-01-3.04186E-13-1.41562E-13
 -1       434 1.96037E+01 2.49979E+00-3.65126E-03-3.26269E-01-4.90734E-13-5.42359E-14
 -1       435 1.96921E+01 2.28257E+00-2.97215E-03-7.04004E-01-3.38675E-13-5.43633E-13
 -1       436 1.98173E+01 1.94702E+00-1.85325E-03-9.60483E-01-2.76329E-13-2.74119E-13
 -1       437 1.99566E+01 1.53788E+00-5.48942E-04-1.07874E+00-1.54603E-14 7.32037E-13
 -1       438 2.00898E+01 1.11582E+00 9.59628E-04-1.05489E+00 2.52580E-13 4.07621E-13
 -1       439 2.02096E+01 7.24530E-01 2.72522E-03-9.08412E-01 1.75228E-14 2.76823E-13
 -1       440 1.04658E+01-5.92320E+00-5.24130E-02 6.89229E+00 1.21542E-13-7.42018E-13
 -1       441 1.51723E+00-4.16757E+00-1.96518E-03-1.05938E-01 3.32912E-13-2.45387E-13
 -1       442 4.12456E+00-4.46339E+00 1.49167E-02 4.42180E+00 1.11439E-13-2.82066E-13
 -1       443 1.91302E+01-5.78543E+00-2.15806E-03 6.73688E+00-4.36789E-13-2.74343E-13
 -1       444 2.58456E+01-4.11838E+00-4.40771E-02 4.62558E+00-3.02147E-13-2.33050E-13
 -1       445 1.97905E+01 3.43300E+00-1.87165E-02-1.72108E+00-3.63252E-13-4.79102E-13
 -1       446 3.41961E+01 4.89010E+00-4.03663E-02-4.90092E-01 3.14054E-13-4.68653E-13
 -1       447 3.58245E+01 7.84597E+00 3.59192E-02-7.46999E-02 2.80637E-13-6.80865E-13
 -1       448 3.46911E+01 7.33829E+00-1.42185E-02 7.37649E-01 2.98456E-13-6.36644E-13
 -1       449 3.32690E+01 2.75755E+00-4.97164E-02 4.36479E-01 8.39329E-14-6.36505E-13
 -1       450 3.10270E+01-1.02191E+00 1.58380E-02-1.90298E+00 7.02823E-14-6.97234E-13
 -1       451 2.38260E+01-4.55392E+00-1.98977E-02-5.34820E+00 4.97949E-13-4.63796E-13
 -1       452 1.51170E+01-5.81153E+00-5.45622E-02-6.89262E+00 4.34403E-13-1.82826E-13
 -1       453 7.84836E+00-5.28557E+00-2.13835E-02-6.21628E+00 2.81761E-13-4.84154E-13
 -1       454 2.25273E+00-4.63845E+00-5.48160E-02-2.89354E+00 1.78260E-13-5.79828E-13
 -1       455 1.38967E+00-4.75848E+00-8.96531E-02 1.86976E+00 8.81031E-14-8.82655E-13
 -1       456 5.41664E+00-5.05007E+00-3.77818E-02 5.38737E+00-4.81837E-14-9.52918E-13
 -1       457 1.46136E+01-5.69324E+00-7.20672E-03 7.08048E+00-2.40710E-13-2.25029E-13
 -1       458 2.21258E+01-4.64632E+00-3.22703E-02 5.93386E+00-2.25625E-13-3.73201E-13
 -1       459 2.97084E+01-1.11693E+00 3.68037E-02 3.41469E+00-1.83839E-13-2.32397E-13
 -1       460 3.36277E+01 2.92174E+00 2.25740E-02 4.20768E-01-3.07442E-13 1.41026E-13
 -1       461 3.47955E+01 7.26819E+00-3.73008E-04-5.74710E-01-4.55608E-13 2.26631E-13
 -1       462 3.63056E+01 7.91912E+00 7.92781E-02-4.40058E-02-6.44235E-13-1.23124E-13
 -1       463 3.50389E+01 5.69740E+00 5.54307E-02 2.93428E-02-5.01515E-13-6.51104E-13
 -1       464 3.20104E+01 5.70451E-01-1.11482E-02-1.35867E+00-6.89952E-14-3.94199E-13
 -1       465 2.69256E+01-3.68047E+00-1.00774E-02-4.25043E+00 1.92096E-13 5.10342E-13
 -1       466 1.95095E+01-5.52875E+00-5.86309E-03-6.75796E+00 2.28387E-13 6.95416E-13
 -1       467 1.02948E+01-5.93030E+00-6.97040E-02-6.95187E+00 7.77989E-14 4.37365E-13
 -1       468 3.75048E+00-5.15160E+00-6.39796E-02-4.49193E+00 6.31856E-14 4.31516E-13
 -1       469 3.20337E+01 5.74836E-01-5.91474E-02 5.68320E-01 1.10641E-13-3.93061E-13
 -1       470 2.94418E+01-3.13623E+00-2.78092E-02 9.35908E-01 7.55591E-15-6.60791E-13
 -1       471 1.21584E+01-4.56629E+00 1.10715E-01 6.90446E+00 1.02987E-13-3.65735E-13
 -1       472 2.03713E+01 8.31767E-01 4.02253E-03 9.73413E-01 3.52505E-13-3.90551E-15
 -1       473 1.97352E+01 3.10346E+00-5.39690E-03-6.34648E-01-1.39523E-13-5.82912E-13
 -1       474 1.98306E+01 2.93005E+00-5.99564E-03-9.51550E-01-2.12121E-13-5.51614E-13
 -1       475 1.96682E+01 3.22600E+00-5.02697E-03 8.82014E-03 1.96376E-14-5.74296E-13
 -1       476 1.96865E+01 3.19300E+00-5.10660E-03 3.30814E-01 9.67194E-14-5.76486E-13
 -1       477 1.97398E+01 3.09622E+00-5.41536E-03 6.46565E-01 1.76777E-13-5.43611E-13
 -1       478 1.98377E+01 2.91844E+00-5.95255E-03 9.62481E-01 2.74916E-13-4.71019E-13
 -1       479 1.99921E+01 2.63346E+00-6.52331E-03 1.25796E+00 3.43506E-13-3.81112E-13
 -1       480 2.02330E+01 2.18752E+00-5.70010E-03 1.50283E+00 3.97521E-13-2.50258E-13
 -1       481 2.01092E+01 4.53429E-01 5.06924E-03 4.65739E-01 2.86440E-13-4.72016E-14
 -1       482 2.03417E+01 9.73026E-01 2.64522E-03-9.42995E-01-3.40781E-13-1.84415E-13
 -1       483 1.03121E+01-3.81283E+00 1.33913E-01 6.35793E+00-1.28952E-13-5.81299E-13
 -1       484 2.01701E+01 5.43576E-01 1.89400E-03-4.69174E-01-2.52022E-13-1.65546E-13
 -1       485 2.00226E+01 3.03481E-01 1.04446E-03-1.68121E-01-2.05036E-13-1.73501E-13
 -1       486 1.99218E+01 1.61744E-01 4.45215E-04 1.33599E-02-1.44494E-13-1.47289E-13
 -1       487 1.98632E+01 7.59382E-02 1.57685E-04 1.16337E-01-1.34221E-13-1.74026E-13
 -1       488 1.98363E+01 2.39715E-02 2.47327E-05 1.68519E-01-1.30014E-13-1.93118E-13
 -1       489 1.98310E+01-6.38577E-03-4.13624E-05 1.88707E-01-1.06716E-13-2.17991E-13
 -1       490 1.98398E+01-2.24007E-02-7.26976E-05 1.89771E-01-1.47158E-13-2.69854E-13
 -1       491 1.98570E+01-2.86275E-02-8.24615E-05 1.80636E-01-1.11153E-13-1.79900E-13
 -1       492 1.98793E+01-2.80002E-02-7.73247E-05 1.67591E-01-1.94917E-14-6.75894E-14
 -1       493 1.99045E+01-2.24058E-02-6.13498E-05 1.55159E-01 4.81012E-14-3.57690E-14
 -1       494 1.99319E+01-1.30113E-02-3.70459E-05 1.46704E-01-3.48028E-14-1.18581E-13
 -1       495 1.99614E+01-4.72999E-04-5.78431E-06 1.44862E-01-1.19909E-13-2.39848E-14
 -1       496 1.99938E+01 1.49084E-02 3.18609E-05 1.51846E-01-4.99022E-14 3.59765E-14
 -1       497 2.00304E+01 3.30541E-02 7.57829E-05 1.69655E-01-6.04250E-14-8.23796E-15
 -1       498 2.00729E+01 5.39678E-02 1.25969E-04 2.00181E-01-5.85049E-14-2.43156E-13
 -1       499 2.01233E+01 7.75681E-02 1.82035E-04 2.45221E-01-2.41116E-14-2.41609E-13
 -1       500 2.01841E+01 1.03462E-01 2.42552E-04 3.06367E-01-1.78220E-14-2.07056E-13
 -1       501 2.02579E+01 1.30624E-01 3.04049E-04 3.84741E-01 6.43894E-14-1.43601E-13
 -1       502 2.03477E+01 1.56928E-01 3.59572E-04 4.80515E-01 1.72257E-13-9.36306E-14
 -1       503 2.04569E+01 1.78490E-01 3.96682E-04 5.92153E-01 8.04775E-14-1.24556E-13
 -1       504 2.05895E+01 1.88771E-01 3.94972E-04 7.15273E-01-1.07006E-13-3.59432E-14
 -1       505 2.07508E+01 1.77516E-01 3.23544E-04 8.41043E-01-1.09509E-13 3.92374E-14
 -1       506 2.09480E+01 1.29823E-01 1.40073E-04 9.54042E-01-2.75200E-14-1.30031E-14
 -1       507 2.11919E+01 2.61759E-02-2.07521E-04 1.02969E+00 4.08560E-14-2.16666E-14
 -1       508 2.14964E+01-1.54663E-01-7.67310E-04 1.03169E+00-3.73035E-14-1.79507E-13
 -1       509 2.18774E+01-4.26423E-01-1.55636E-03 9.10833E-01-1.39693E-14-9.56516E-14
 -1       510 2.23425E+01-7.74862E-01-2.39701E-03 6.08877E-01 5.04907E-14-1.08911E-13
 -1       511 2.28701E+01-1.12327E+00-2.69845E-03 7.58542E-02 7.53805E-14-7.40733E-14
 -1       512 2.33766E+01-1.29772E+00-1.99713E-03-6.83458E-01 1.36319E-13-3.66318E-13
 -1       513 2.36978E+01-1.04163E+00-3.45408E-03-1.53143E+00 7.97315E-14-1.70422E-13
 -1       514 2.36658E+01-1.72617E-01-7.89217E-03-2.11447E+00 4.59314E-14 9.89371E-14
 -1       515 2.32798E+01 1.14341E+00-9.88788E-03-1.96453E+00 2.17972E-14 8.09381E-14
 -1       516 2.28724E+01 2.18673E+00-9.50268E-03-8.82940E-01 8.47976E-15 3.00501E-14
 -1       517 2.28431E+01 2.18563E+00-1.42017E-02 6.39711E-01-2.14425E-13-1.77990E-13
 -1       518 2.32046E+01 1.14170E+00-1.32358E-02 1.72513E+00-1.99523E-13-3.25987E-13
 -1       519 2.35552E+01-1.88882E-01-6.44831E-03 1.87468E+00 1.60984E-13-1.12496E-13
 -1       520 2.35494E+01-1.08078E+00-2.37369E-03 1.27281E+00-9.85888E-14-8.37101E-14
 -1       521 2.31839E+01-1.35097E+00-2.71162E-03 3.96288E-01-3.10602E-13 1.65413E-13
 -1       522 2.26285E+01-1.17460E+00-2.98602E-03-3.95965E-01-2.23204E-13 2.17783E-13
 -1       523 2.20484E+01-8.06061E-01-2.49303E-03-9.52433E-01 3.20235E-13-2.85872E-14
 -1       524 2.15295E+01-4.14835E-01-1.45924E-03-1.25866E+00 1.31957E-13 8.08466E-14
 -1       525 2.10942E+01-7.11854E-02-3.71053E-04-1.35091E+00 5.81389E-14 1.61486E-13
 -1       526 2.07363E+01 2.17155E-01 6.54969E-04-1.27015E+00 1.35614E-14 3.89801E-13
 -1       527 1.98066E+01 1.28891E-01 9.97651E-04-1.79348E-02 1.41119E-13-8.21897E-14
 -1       528 1.97486E+01 5.97948E-02 3.63914E-04-1.16666E-01 1.02031E-13-1.12988E-13
 -1       529 1.97301E+01 1.85440E-02 8.80262E-05-1.65388E-01 1.12640E-13-1.34287E-13
 -1       530 1.97367E+01-5.43215E-03-4.40690E-05-1.83207E-01 8.98376E-14-7.26557E-14
 -1       531 1.97585E+01-1.81465E-02-1.07932E-04-1.82733E-01 9.24830E-14-3.04228E-14
 -1       532 1.97885E+01-2.32683E-02-1.31746E-04-1.72519E-01 8.53758E-14-6.34181E-14
 -1       533 1.98226E+01-2.31221E-02-1.28841E-04-1.58501E-01 1.27870E-13-5.24078E-14
 -1       534 1.98585E+01-1.91866E-02-1.06883E-04-1.44904E-01 1.26056E-13-1.64039E-13
 -1       535 1.98955E+01-1.23644E-02-7.05566E-05-1.34850E-01 3.45396E-14-7.57839E-14
 -1       536 1.99337E+01-3.14315E-03-2.24270E-05-1.30788E-01 1.29006E-15-1.16559E-14
 -1       537 1.99745E+01 8.29523E-03 3.64585E-05-1.34802E-01 5.16604E-14 4.68655E-14
 -1       538 2.00198E+01 2.19887E-02 1.06098E-04-1.48840E-01 1.75616E-13-4.29511E-14
 -1       539 2.00718E+01 3.81117E-02 1.87074E-04-1.74859E-01 1.33824E-13-9.04509E-14
 -1       540 2.01338E+01 5.68809E-02 2.79973E-04-2.14897E-01-5.68474E-14 2.83245E-14
 -1       541 2.02090E+01 7.84257E-02 3.84458E-04-2.71049E-01-1.03023E-13 7.03530E-14
 -1       542 2.03012E+01 1.02588E-01 4.97884E-04-3.45327E-01-1.02820E-13-8.56230E-14
 -1       543 2.04145E+01 1.28597E-01 6.13110E-04-4.39319E-01-7.73376E-15-2.42616E-13
 -1       544 2.05530E+01 1.54551E-01 7.15055E-04-5.53574E-01 6.74189E-15-1.10122E-13
 -1       545 2.07211E+01 1.76585E-01 7.75829E-04-6.86554E-01-6.65192E-14-5.62575E-14
 -1       546 2.09234E+01 1.87650E-01 7.48838E-04-8.32962E-01-5.37299E-14-1.78174E-13
 -1       547 2.11650E+01 1.75888E-01 5.63933E-04-9.81219E-01-9.00648E-14-2.52434E-13
 -1       548 2.14528E+01 1.22994E-01 1.27365E-04-1.10993E+00-9.61218E-14-1.90377E-13
 -1       549 2.17964E+01 3.88977E-03-6.57787E-04-1.18352E+00-1.32256E-13-8.37928E-14
 -1       550 2.22083E+01-2.08944E-01-1.87194E-03-1.14811E+00-1.80779E-13-9.40486E-14
 -1       551 2.27001E+01-5.30014E-01-3.39545E-03-9.31395E-01 4.41520E-15-5.75895E-14
 -1       552 2.32668E+01-9.26927E-01-4.81291E-03-4.54404E-01-6.41711E-14 9.10064E-14
 -1       553 2.38503E+01-1.26346E+00-5.38555E-03 3.27548E-01-2.38084E-14 1.32240E-13
 -1       554 2.42987E+01-1.26452E+00-5.48741E-03 1.32822E+00-1.93043E-13 2.26588E-13
 -1       555 2.43987E+01-6.18934E-01-6.25839E-03 2.20221E+00-2.72529E-14 3.85953E-13
 -1       556 2.40324E+01 7.06002E-01-1.49152E-02 2.36752E+00 1.97279E-13 4.32965E-13
 -1       557 2.35008E+01 2.03169E+00-2.14665E-02 1.35870E+00 1.31884E-13 4.27896E-13
 -1       558 2.33358E+01 2.33226E+00-2.74570E-02-4.13732E-01 3.47531E-13 2.83935E-13
 -1       559 2.37120E+01 1.33036E+00-1.76855E-02-1.85134E+00 1.40965E-13 3.47043E-13
 -1       560 2.41495E+01-1.24969E-01-9.62031E-03-2.16651E+00 2.62790E-14 5.69713E-13
 -1       561 2.41980E+01-1.11409E+00-6.96560E-03-1.50227E+00 1.54854E-13 1.25467E-13
 -1       562 2.38094E+01-1.36839E+00-6.05490E-03-4.68924E-01 8.60539E-14 2.14938E-13
 -1       563 2.31909E+01-1.13560E+00-5.33856E-03 4.58511E-01 2.11922E-13 2.58217E-13
 -1       564 2.25331E+01-7.28062E-01-4.33457E-03 1.09109E+00 1.23557E-13-3.55682E-14
 -1       565 2.19347E+01-3.38444E-01-2.47822E-03 1.42092E+00-9.24850E-14 2.92700E-14
 -1       566 2.14190E+01-2.71909E-02-5.08609E-04 1.50634E+00-1.43952E-14 7.53472E-13
 -1       567 2.09846E+01 2.11194E-01 1.56097E-03 1.41138E+00 1.77469E-13 8.33411E-13
 -1       568 2.06079E+01 4.06457E-01 2.34020E-03 1.17681E+00 1.39205E-13 6.58445E-13
 -1       569 1.95902E+01 1.53873E+00-1.22776E-03 1.33465E+00-8.92035E-14-2.20361E-13
 -1       570 1.93142E+01 1.84286E+00-1.43973E-03 9.66307E-01 4.50352E-14-2.08059E-14
 -1       571 2.02291E+01 8.27394E-01 8.15750E-04 1.45993E+00 1.58651E-13 1.11047E-13
 -1       572 1.99069E+01 1.18621E+00-5.68877E-04 1.49684E+00-1.91289E-13-3.75649E-13
 -1       573 1.91465E+01 2.02858E+00-1.59713E-03 4.39193E-01-2.09544E-14-5.07223E-13
 -1       574 1.91248E+01 2.05473E+00-1.62992E-03-1.56906E-01-3.01542E-13-1.05715E-13
 -1       575 1.92520E+01 1.91635E+00-1.50739E-03-7.13739E-01-3.30201E-13-1.33459E-14
 -1       576 1.94850E+01 1.65435E+00-1.15202E-03-1.13084E+00-2.91028E-14-4.13238E-13
 -1       577 1.97722E+01 1.31831E+00-6.03689E-04-1.36936E+00 1.41535E-13 2.49905E-13
 -1       578 2.00505E+01 9.71309E-01 1.82464E-04-1.41812E+00 2.28259E-13 5.74913E-13
 -1       579 2.02976E+01 6.53424E-01-1.02691E-04-1.29551E+00-2.48104E-14 2.26508E-13
 -1       580 6.03038E+00-1.26348E+00 2.02712E-01 2.09156E+00-1.68672E-13-4.61312E-13
 -1       581 1.66636E+01-5.44362E+00 8.18866E-02 6.91656E+00 3.80113E-14-8.40258E-13
 -1       582 1.99217E+01 2.46128E-01 2.44164E-03 1.60382E-01 2.14160E-13-7.17119E-14
 -1       583 5.74254E+00-1.75023E+00 1.78564E-01-2.84172E+00-5.74818E-14 4.21788E-13
 -1       584 2.40851E+01-5.76416E+00 2.15802E-02 4.71465E+00-3.62037E-13 2.76480E-14
 -1       585 3.00712E+01 1.78025E+00-1.58876E-01-1.87845E+00 8.48210E-14-4.66779E-13
 -1       586 1.03246E+01-3.64729E+00 1.45940E-01-6.36068E+00 2.63116E-13 2.66155E-13
 -1       587 2.96476E+01 4.26508E+00-1.64043E-01 2.35132E+00 1.88780E-13-4.08069E-13
 -1       588 1.96837E+01 3.19742E+00-5.11251E-03-3.13278E-01-3.67414E-14-5.73837E-13
 -1       589 2.97057E+01 6.96554E+00-1.80375E-01 2.86923E-01 3.78322E-13-1.73385E-13
 -1       590 2.16011E+01-5.81243E+00 3.53027E-02-5.53004E+00 2.49439E-13-3.95373E-13
 -1       591 3.01061E+01 5.66786E+00-1.75034E-01-1.47694E+00 3.18426E-13-1.12972E-13
 -1       592 2.97519E+01-7.90690E-01-1.11022E-01 1.34382E+00 6.23807E-14-6.84862E-13
 -1       593 2.77522E+01-4.29643E+00-3.12473E-02-1.86209E+00 2.83235E-13-5.29264E-13
 -1       594 1.47145E+01-4.88552E+00 1.08806E-01-6.79988E+00 1.66603E-13-6.48648E-14
 -1       595 7.24153E+00-2.88136E+00 1.37491E-01-4.97835E+00 1.16518E-13-6.69784E-13
 -1       596 4.19730E+00-1.60368E+00 1.62072E-01-4.61907E-01 4.44055E-14-6.53519E-13
 -1       597 5.95872E+00-2.33091E+00 1.67794E-01 3.99432E+00 1.18787E-13-1.10302E-12
 -1       598 2.12135E+01-5.65882E+00 4.02053E-02 5.65608E+00 4.89053E-14 6.09408E-14
 -1       599 2.69508E+01-4.39047E+00-2.53332E-02 2.83698E+00 1.93214E-14 2.19269E-14
 -1       600 2.98800E+01-1.05186E+00-9.59457E-02-4.19864E-01-4.42077E-14 1.56146E-13
 -1       601 2.95722E+01 3.98851E+00-1.52423E-01-2.22071E+00-3.82916E-13 1.90563E-13
 -1       602 3.02421E+01 7.26945E+00-1.92228E-01-3.11945E-01-3.11695E-13 1.25846E-13
 -1       603 3.06362E+01 6.53874E+00-1.53372E-01 1.10715E+00-2.89935E-13-2.62207E-13
 -1       604 3.03604E+01 2.23840E+00-1.30207E-01 1.62294E+00-2.30323E-13-5.34017E-13
 -1       605 2.89217E+01-2.93540E+00-6.83210E-02-7.72178E-01-5.25925E-14-3.34774E-13
 -1       606 2.43874E+01-5.63995E+00 9.53435E-03-4.53480E+00 1.79565E-13 5.78353E-13
 -1       607 1.74377E+01-5.48635E+00 8.39200E-02-6.90789E+00 2.48752E-13 5.70575E-13
 -1       608 2.03892E+01 1.75680E+00-5.28164E-03-1.52535E+00-4.16379E-13-2.24385E-13
 -1       609 2.05831E+01 1.30512E+00-1.00009E-03 1.54916E+00 4.40823E-13 5.55992E-14
 -1       610 1.99790E+01 2.65295E+00-6.75169E-03-1.24517E+00-2.95518E-13-4.54242E-13
 -1       611 2.01627E+01 2.28222E+00-6.10365E-03-1.43701E+00-3.75235E-13-3.73743E-13
 -1       612 2.88801E+01-1.29005E+00-7.09192E-02-1.37498E+00-4.52277E-14-4.90566E-13
 -1       613 1.07286E+01-2.59641E+00 1.51113E-01 5.63728E+00 2.83072E-13-4.31613E-13
 -1       614 1.81655E+01-4.83385E+00 9.04756E-02 6.17260E+00 2.03976E-13 1.07296E-13
 -1       615 2.05286E+01 3.83543E-01 1.16022E-03-1.13171E+00-1.22497E-14 5.60148E-13
 -1       616 1.99633E+01 2.44858E+00-1.58756E-03 3.94780E-01 1.35764E-13-5.06084E-13
 -1       617 1.99318E+01 2.52351E+00-1.52437E-03 1.35992E-01 5.55592E-14-5.19524E-13
 -1       618 2.01217E+01 2.04550E+00-1.60986E-03 8.51555E-01 2.89100E-13-3.68524E-13
 -1       619 2.02391E+01 1.67532E+00-2.25494E-03 9.93484E-01 3.19219E-13-2.77996E-13
 -1       620 2.03184E+01 1.03629E+00 2.89715E-03 8.33079E-01 3.30096E-13-1.68026E-13
 -1       621 1.95447E+01-4.81335E+00 7.11742E-02-5.51609E+00 1.49922E-13-4.47075E-13
 -1       622 2.02400E+01 6.72991E-01 4.29202E-04-3.94854E-01-2.10509E-13-2.32705E-13
 -1       623 2.01674E+01 3.91713E-01 1.77148E-04-1.41590E-01-1.86183E-13-2.19034E-13
 -1       624 2.01021E+01 2.13035E-01 5.15982E-05 2.06291E-02-1.44360E-13-2.27427E-13
 -1       625 2.00523E+01 9.98217E-02 6.94973E-06 1.16409E-01-1.49506E-13-2.83649E-13
 -1       626 2.00180E+01 2.97523E-02-1.39082E-05 1.66618E-01-1.14429E-13-2.58099E-13
 -1       627 1.99966E+01-1.11812E-02-2.40755E-05 1.87170E-01-1.10238E-13-1.90036E-13
 -1       628 1.99850E+01-3.20397E-02-2.81916E-05 1.89797E-01-4.03839E-14-9.83141E-14
 -1       629 1.99808E+01-3.88137E-02-2.77587E-05 1.83061E-01-1.32980E-14-6.15054E-14
 -1       630 1.99819E+01-3.54796E-02-2.37944E-05 1.73218E-01-3.77919E-14-9.09839E-14
 -1       631 1.99870E+01-2.46208E-02-1.71027E-05 1.64906E-01-2.26373E-14-9.28537E-14
 -1       632 1.99951E+01-7.82546E-03-8.21772E-06 1.61672E-01-2.70758E-14-8.71430E-14
 -1       633 2.00058E+01 1.40289E-02 2.62744E-06 1.66367E-01 6.00319E-15-6.78350E-14
 -1       634 2.00190E+01 4.05443E-02 1.54043E-05 1.81434E-01-1.02983E-13-1.13509E-14
 -1       635 2.00348E+01 7.15859E-02 3.01774E-05 2.09095E-01-2.38860E-13-9.96609E-14
 -1       636 2.00534E+01 1.07043E-01 4.70243E-05 2.51436E-01-1.36065E-13-3.96432E-14
 -1       637 2.00754E+01 1.46533E-01 6.58757E-05 3.10391E-01-5.54839E-14-7.55796E-14
 -1       638 2.01014E+01 1.89012E-01 8.62928E-05 3.87606E-01 2.16794E-14-8.94751E-14
 -1       639 2.01325E+01 2.32220E-01 1.07163E-04 4.84158E-01 1.30950E-13-1.61853E-13
 -1       640 2.01705E+01 2.71916E-01 1.26233E-04 6.00096E-01 1.56084E-13-2.93594E-13
 -1       641 2.02185E+01 3.00822E-01 1.39391E-04 7.33767E-01 2.65791E-14-1.37307E-13
 -1       642 2.02824E+01 3.07281E-01 1.39550E-04 8.80848E-01-5.94685E-14 1.20882E-14
 -1       643 2.03724E+01 2.73750E-01 1.14694E-04 1.03299E+00-3.79404E-14 5.44288E-14
 -1       644 2.05057E+01 1.75673E-01 4.58534E-05 1.17589E+00 9.09933E-14 1.63117E-13
 -1       645 2.07104E+01-1.79224E-02-1.02828E-04 1.28637E+00-4.34722E-14 1.56269E-13
 -1       646 2.10275E+01-3.39114E-01-3.82951E-04 1.32792E+00-4.13135E-14 4.75719E-14
 -1       647 2.15085E+01-8.05214E-01-8.87240E-04 1.24439E+00-1.82785E-14-5.50562E-14
 -1       648 2.22002E+01-1.38307E+00-1.35541E-03 9.54246E-01 5.65386E-14-3.66452E-14
 -1       649 2.31004E+01-1.92292E+00-3.87788E-04 3.58442E-01 2.43398E-14-6.75068E-14
 -1       650 2.40696E+01-2.10088E+00-2.28629E-03-5.79935E-01 2.66112E-13-1.37530E-13
 -1       651 2.48088E+01-1.38610E+00-1.32979E-02-1.71280E+00 2.02541E-13 3.44516E-15
 -1       652 2.49188E+01 4.36002E-01-3.56790E-02-2.46296E+00-1.16279E-13-1.60507E-13
 -1       653 2.46194E+01 2.69454E+00-4.48782E-02-1.92187E+00-7.86454E-14-1.29712E-13
 -1       654 2.42681E+01 3.89484E+00-6.67085E-02-1.35832E-01-1.99235E-13-3.86532E-13
 -1       655 2.44959E+01 2.77323E+00-5.46652E-02 1.67282E+00-2.03988E-13-1.49134E-13
 -1       656 2.49077E+01 4.63241E-01-2.46378E-02 2.21600E+00-1.61746E-14-1.92846E-13
 -1       657 2.47971E+01-1.44322E+00-8.02221E-03 1.45210E+00-1.90198E-13-5.23553E-13
 -1       658 2.40490E+01-2.16978E+00-2.18262E-03 2.91426E-01-7.74919E-14-7.63872E-13
 -1       659 2.30591E+01-2.00807E+00-1.60032E-03-6.91189E-01-1.23805E-13-3.14885E-13
 -1       660 2.21450E+01-1.44750E+00-1.61729E-03-1.31662E+00 1.33135E-13-1.11242E-13
 -1       661 2.14401E+01-8.24668E-01-1.05650E-03-1.62232E+00 3.42631E-13-1.17054E-13
 -1       662 2.09387E+01-2.67912E-01 2.23847E-04-1.69674E+00 2.49777E-13 1.22633E-13
 -1       663 2.06031E+01 1.76924E-01 3.46102E-04-1.60804E+00 1.47320E-13 3.47655E-13
 -1       664 1.99727E+01 8.89118E-02 5.73699E-05-1.18370E-01 1.32756E-13-1.54506E-13
 -1       665 1.27664E+01-2.78467E+00 1.14899E-01-5.71030E+00 1.18575E-13-1.82632E-13
 -1       666 2.00260E+01 1.89618E-01 1.66880E-04-1.93376E-02 1.49469E-13-1.48594E-13
 -1       667 1.99268E+01-9.15101E-03-2.51999E-05-1.89817E-01 4.38101E-14-1.50352E-13
 -1       668 1.99239E+01-2.78933E-02-3.89366E-05-1.91605E-01 1.00491E-13-1.73902E-13
 -1       669 1.99289E+01-3.45250E-02-4.26355E-05-1.83619E-01 8.91095E-14-8.52080E-14
 -1       670 1.99393E+01-3.25338E-02-3.88278E-05-1.72184E-01 8.79036E-14-7.07229E-15
 -1       671 1.99533E+01-2.41616E-02-2.93484E-05-1.61943E-01 6.41533E-14 1.16833E-13
 -1       672 1.99702E+01-1.07624E-02-1.53161E-05-1.56430E-01-2.42906E-14 1.12446E-13
 -1       673 1.99898E+01 6.96075E-03 2.72889E-06-1.58490E-01-6.19391E-15 4.99754E-14
 -1       674 2.00123E+01 2.87800E-02 2.45990E-05-1.70598E-01 1.45711E-13-7.86561E-15
 -1       675 2.00383E+01 5.47886E-02 5.04078E-05-1.95076E-01 1.00188E-13 8.08333E-14
 -1       676 2.00687E+01 8.52382E-02 8.05589E-05-2.34228E-01-5.99382E-15 1.00872E-13
 -1       677 2.01044E+01 1.20352E-01 1.15418E-04-2.90374E-01-5.97007E-14 3.74503E-14
 -1       678 2.01467E+01 1.60057E-01 1.54834E-04-3.65789E-01-2.95146E-14-2.86863E-14
 -1       679 2.01969E+01 2.03576E-01 1.97772E-04-4.62497E-01-2.90402E-14-3.94325E-14
 -1       680 2.02562E+01 2.48795E-01 2.41409E-04-5.81880E-01-6.28268E-14-1.96323E-14
 -1       681 2.03268E+01 2.91283E-01 2.79858E-04-7.24037E-01 6.73181E-14-6.69005E-14
 -1       682 2.04119E+01 3.22818E-01 3.02288E-04-8.86787E-01-4.79222E-14-5.28727E-15
 -1       683 2.05177E+01 3.29311E-01 2.90567E-04-1.06419E+00 3.66265E-14-1.86939E-13
 -1       684 2.06560E+01 2.88278E-01 2.16412E-04-1.24440E+00-2.22858E-13-9.23291E-14
 -1       685 2.08484E+01 1.66645E-01 3.32183E-05-1.40644E+00-1.23980E-13-1.00093E-13
 -1       686 2.11323E+01-7.86378E-02-3.05581E-04-1.51544E+00-1.41641E-13-1.29863E-14
 -1       687 2.15643E+01-4.91166E-01-9.67380E-04-1.51511E+00-5.08760E-14-1.46778E-15
 -1       688 2.22134E+01-1.08395E+00-1.79598E-03-1.32038E+00-6.58093E-14-2.08239E-14
 -1       689 2.31321E+01-1.77885E+00-2.79997E-03-8.12014E-01-1.05793E-13-2.26828E-14
 -1       690 2.42670E+01-2.28057E+00-3.95640E-03 1.23335E-01-2.25214E-13 1.32654E-13
 -1       691 2.53469E+01-2.01423E+00-9.03617E-03 1.44789E+00-2.10408E-13 4.01588E-15
 -1       692 2.58044E+01-3.73834E-01-5.57197E-02 2.56948E+00 1.86705E-13 7.47818E-14
 -1       693 2.56462E+01 2.25774E+00-5.76350E-02 2.47245E+00 1.89510E-13 9.75236E-14
 -1       694 2.50926E+01 4.15020E+00-1.15486E-01 6.64732E-01 3.55948E-13 1.02049E-13
 -1       695 2.52512E+01 3.37728E+00-9.48010E-02-1.63130E+00 1.85137E-13 3.73932E-14
 -1       696 2.57952E+01 7.03721E-01-4.86118E-02-2.46296E+00-7.81614E-14 1.35768E-13
 -1       697 2.55839E+01-1.53636E+00-1.67554E-02-1.70163E+00 1.11404E-13 3.63174E-13
 -1       698 2.46561E+01-2.34899E+00-8.45779E-04-3.35163E-01 1.76943E-13 1.55394E-13
 -1       699 2.34762E+01-2.10764E+00 2.16814E-03 8.09699E-01 2.55905E-13 8.51089E-14
 -1       700 2.24188E+01-1.43775E+00-5.64323E-04 1.51840E+00 3.28653E-13-1.07236E-14
 -1       701 2.16321E+01-7.52903E-01-7.61364E-04 1.84524E+00-8.74062E-14 5.88470E-14
 -1       702 2.10914E+01-2.01764E-01 1.07199E-03 1.91643E+00-4.79188E-13 2.09189E-13
 -1       703 2.07212E+01 2.11627E-01-1.77094E-03 1.80449E+00 7.12196E-15 6.08398E-14
 -1       704 2.04378E+01 5.24641E-01 2.46604E-04 1.67068E+00-7.83265E-14 9.25110E-14
 -1       705 2.12788E+01-5.26718E+00 4.39999E-02 5.28441E+00-1.64962E-13-3.35811E-13
 -1       706 1.85193E+01 1.72129E+00-3.35085E-04 1.62590E-01 1.80477E-13-4.97174E-13
 -1       707 1.90848E+01 1.34730E+00-7.34090E-04 1.44083E+00-3.69174E-14-6.19756E-14
 -1       708 1.86165E+01 1.64444E+00-5.00805E-04-5.80792E-01 1.44034E-13-2.52791E-13
 -1       709 1.86897E+01 1.60915E+00-6.22838E-04 8.84465E-01-2.79975E-14-1.58707E-13
 -1       710 1.89420E+01 1.40803E+00-4.00109E-04-1.18550E+00-5.25178E-14 1.15166E-13
 -1       711 1.94051E+01 1.07856E+00-7.22030E-04-1.57307E+00 1.03423E-14-4.18274E-14
 -1       712 1.98880E+01 7.46447E-01-3.70196E-04-1.69750E+00 2.08164E-13 6.85805E-13
 -1       713 2.67114E+01-4.63018E+00-1.46972E-02 1.51402E+00-2.29487E-13-5.36200E-13
 -1       714 1.56273E+01-3.59240E+00 1.05169E-01 6.09464E+00-1.24258E-13-7.11171E-13
 -1       715 2.01042E+01 3.52704E-01 5.57633E-04 1.51061E-01 1.76516E-13-1.42723E-13
 -1       716 1.56856E+01-3.73047E+00 9.98463E-02-6.22430E+00 2.54227E-13 3.99313E-13
 -1       717 2.88403E+01 6.30709E+00-1.59846E-01-1.17021E+00-3.89688E-13 2.82344E-14
 -1       718 2.75075E+01 3.67560E+00-1.34180E-01 2.09557E+00-1.43635E-14-2.35537E-13
 -1       719 1.04074E+01-1.13249E+00 1.38047E-01 4.04808E+00-2.27120E-13-5.43031E-13
 -1       720 1.06721E+01-1.40427E+00 1.32286E-01-4.47086E+00 1.11777E-13 1.02487E-13
 -1       721 2.67340E+01 4.15871E+00-1.24569E-01-2.11116E+00-2.75058E-13-4.46639E-14
 -1       722 2.65398E+01 5.69527E+00-1.60811E-01 2.00395E-01-1.72758E-13-2.51050E-13
 -1       723 2.17131E+01-5.20192E+00 3.88254E-02-5.05041E+00 2.34087E-13 7.09205E-13
 -1       724 1.99415E+01 2.70326E-02 3.11159E-06-1.69490E-01 6.77164E-14-1.52706E-13
 -1       725 2.02920E+01 1.11561E+00-4.07943E-04-7.64780E-01-2.65053E-13-2.36468E-13
 -1       726 2.00265E+01 2.29408E+00-1.65672E-03 6.38867E-01 2.04332E-13-4.31183E-13
 -1       727 2.02046E+01 6.14583E-01 1.14524E-03 4.22343E-01 2.56951E-13-1.53887E-13
 -1       728 2.00210E+01 2.30452E+00-1.64378E-03-6.30482E-01-1.58724E-13-5.10915E-13
 -1       729 2.79240E+01 2.88173E-01-1.03900E-01-2.26717E+00-5.75269E-14 1.46324E-13
 -1       730 2.04371E+01 4.31684E-01 1.03425E-03-1.47526E+00 1.80831E-13 1.28195E-13
 -1       731 2.73956E+01-3.18329E+00-4.00887E-02 6.06417E-01-3.59782E-15-4.03158E-13
 -1       732 2.75819E+01 8.82840E-01-8.92486E-02 2.67485E+00 6.53713E-14-1.54508E-13
 -1       733 2.79245E+01-9.91820E-01-8.23105E-02 1.62481E+00-4.47821E-13-2.92717E-13
 -1       734 2.50634E+01-4.99910E+00 1.08921E-02-2.59446E+00 9.54618E-14-3.36536E-13
 -1       735 8.42938E+00-5.34829E-01 1.61443E-01-2.73350E+00 7.63990E-14-7.45716E-13
 -1       736 2.73242E+01 3.05507E+00-1.26363E-01-2.26999E+00 5.46646E-14 1.16388E-13
 -1       737 7.34309E+00-4.72917E-01 1.65912E-01 1.81084E+00 2.03385E-13-8.35783E-13
 -1       738 2.48379E+01-4.93528E+00 3.21275E-03 2.82099E+00-8.95950E-14 2.64760E-13
 -1       739 2.72779E+01-3.41595E+00-5.30179E-02 1.16878E-01 2.86351E-14 1.05232E-13
 -1       740 9.06054E+00 4.94034E-02 1.36266E-01-7.69817E-01-3.62991E-16 6.10553E-14
 -1       741 2.64603E+01-4.57128E+00-9.50035E-03-1.70905E+00 1.65527E-14-6.00908E-15
 -1       742 2.02695E+01 1.62699E+00 7.14805E-04-1.09022E+00-3.28658E-13-2.99968E-13
 -1       743 2.01186E+01 2.05764E+00-6.80456E-04-8.45254E-01-2.20331E-13-4.33611E-13
 -1       744 1.99309E+01 2.52518E+00-1.52606E-03-1.26770E-01-1.22399E-14-5.26205E-13
 -1       745 1.02592E+01-8.24741E-01 1.25091E-01 3.73951E+00 3.21874E-13-6.63934E-13
 -1       746 1.99529E+01 8.20386E-01-2.01993E-03 1.78085E+00-9.78043E-14-2.73268E-13
 -1       747 1.56889E+01-3.30611E+00 9.25835E-02 5.78376E+00 2.94001E-13-1.00003E-13
 -1       748 2.24574E+01-4.73842E+00 3.61127E-02 3.96470E+00 3.02189E-15 1.25079E-13
 -1       749 2.02363E+01 4.32043E-01 6.04472E-04-1.71781E+00 1.22661E-14 2.91646E-14
 -1       750 1.95324E+01 1.08182E+00 2.07332E-03 1.69963E+00-5.32571E-14-3.42601E-13
 -1       751 1.99601E+01 2.45437E+00-1.58172E-03-3.85071E-01-9.40157E-14-4.84195E-13
 -1       752 2.63252E+01-1.72558E+00-4.21256E-02-1.52212E+00 4.10262E-15 7.66895E-14
 -1       753 2.02668E+01 1.30331E+00-2.63750E-04 6.30553E-01 2.28684E-13-2.94342E-13
 -1       754 2.01901E+01 1.87076E+00-1.64965E-05-9.86142E-01-2.66557E-13-3.56772E-13
 -1       755 2.75733E+01 1.06618E+00-9.08179E-02-2.41694E+00-1.71967E-13-5.77802E-14
 -1       756 2.02639E+01 4.33532E-01 1.85771E-05-9.51621E-02-1.73111E-13-2.63688E-13
 -1       757 2.02241E+01 2.36002E-01-9.10030E-06 3.49898E-02-1.92951E-13-2.58453E-13
 -1       758 2.01831E+01 1.07482E-01-1.04726E-05 1.13377E-01-1.25966E-13-2.64152E-13
 -1       759 2.01462E+01 2.73077E-02-9.64408E-06 1.55029E-01-5.48810E-14-2.89297E-13
 -1       760 2.01149E+01-1.87969E-02-9.21103E-06 1.72380E-01-3.84070E-14-2.72579E-13
 -1       761 2.00894E+01-4.06919E-02-8.60680E-06 1.75147E-01 3.36973E-14-1.83941E-13
 -1       762 2.00693E+01-4.51803E-02-7.46339E-06 1.70711E-01-3.74024E-14-1.34354E-13
 -1       763 2.00536E+01-3.68726E-02-5.83412E-06 1.64633E-01 1.86505E-14-9.83858E-14
 -1       764 2.00413E+01-1.87713E-02-3.78283E-06 1.61145E-01-4.70636E-15-1.38138E-13
 -1       765 2.00316E+01 7.30124E-03-1.45231E-06 1.63574E-01-3.58345E-14-1.13273E-13
 -1       766 2.00233E+01 4.03609E-02 1.22475E-06 1.74667E-01-2.59394E-14-1.70694E-13
 -1       767 2.00153E+01 7.99632E-02 4.31881E-06 1.96827E-01-1.68503E-13-1.77851E-13
 -1       768 2.00067E+01 1.25899E-01 7.96723E-06 2.32274E-01-1.11066E-13-1.31887E-13
 -1       769 1.99964E+01 1.77849E-01 1.23107E-05 2.83110E-01-7.16377E-14-9.31342E-14
 -1       770 1.99832E+01 2.34956E-01 1.74511E-05 3.51303E-01-1.07067E-13-1.06507E-13
 -1       771 1.99664E+01 2.95268E-01 2.35232E-05 4.38592E-01 4.39748E-15-1.90653E-13
 -1       772 1.99458E+01 3.54972E-01 3.07241E-05 5.46312E-01 9.83697E-14-2.69215E-13
 -1       773 1.99223E+01 4.07368E-01 3.92918E-05 6.75149E-01 2.02387E-13-2.36642E-13
 -1       774 1.98995E+01 4.41509E-01 4.94143E-05 8.24838E-01 9.94177E-14-1.93454E-13
 -1       775 1.98851E+01 4.40504E-01 6.05292E-05 9.93759E-01-8.10462E-15-4.41009E-14
 -1       776 1.98944E+01 3.79645E-01 6.87879E-05 1.17829E+00 4.78855E-14-2.20369E-14
 -1       777 1.99548E+01 2.24941E-01 6.89659E-05 1.37141E+00-2.77217E-14-6.65299E-14
 -1       778 2.01119E+01-6.65492E-02 3.38132E-05 1.55938E+00-6.75293E-14-4.04465E-14
 -1       779 2.04364E+01-5.40971E-01-5.67607E-05 1.71351E+00 1.14683E-14 1.16390E-13
 -1       780 2.10269E+01-1.22757E+00-3.72746E-04 1.77335E+00-3.24398E-14 2.73750E-13
 -1       781 2.19942E+01-2.08524E+00-2.92465E-05 1.61647E+00 4.55561E-14 3.82111E-13
 -1       782 2.33767E+01-2.90025E+00 8.34186E-03 1.06300E+00 5.75985E-14 4.82890E-13
 -1       783 2.64580E+01-1.60699E+00-4.48891E-02 1.35713E+00-2.72230E-13-3.40202E-13
 -1       784 2.51793E+01-3.14022E+00-1.36650E-02-1.11517E-01-7.11579E-14-1.95200E-13
 -1       785 2.35265E+01-3.01329E+00-1.64456E-04-1.34773E+00 6.05313E-14 1.35650E-13
 -1       786 2.21342E+01-2.19697E+00-1.63290E-03-1.96592E+00 9.42747E-14-1.14965E-14
 -1       787 2.11814E+01-1.28836E+00-4.08873E-04-2.14768E+00 3.78906E-13 1.48936E-13
 -1       788 2.06016E+01-5.17815E-01 4.06627E-03-2.12315E+00 3.81767E-13 1.62861E-13
 -1       789 2.03724E+01 1.52976E-03-8.34761E-04-1.92358E+00 1.44461E-13 1.32916E-13
 -1       790 2.00459E+01-3.71637E-02-1.23745E-05-1.83233E-01 4.76617E-14-1.61902E-13
 -1       791 2.00652E+01-1.56551E-02-1.05803E-05-1.80676E-01 9.26405E-14-1.94590E-13
 -1       792 2.00246E+01-3.67347E-02-1.01847E-05-1.69901E-01-1.86403E-14 7.56159E-15
 -1       793 2.00202E+01-2.18573E-02-7.00591E-06-1.64375E-01 1.19447E-14 3.23780E-14
 -1       794 2.00186E+01 2.31394E-04-2.58593E-06-1.64581E-01 8.88729E-14-2.47863E-14
 -1       795 2.00190E+01 2.87219E-02 3.02696E-06-1.73395E-01 1.00502E-13-1.50486E-13
 -1       796 2.00208E+01 6.34065E-02 9.43269E-06-1.93354E-01 7.12801E-14 6.04476E-14
 -1       797 2.00232E+01 1.04432E-01 1.67230E-05-2.26860E-01 3.94065E-14 6.15467E-14
 -1       798 2.00254E+01 1.52055E-01 2.54522E-05-2.76251E-01-3.00304E-14 1.44183E-14
 -1       799 2.00264E+01 2.06350E-01 3.57820E-05-3.43832E-01-2.92351E-14-8.84529E-14
 -1       800 2.00252E+01 2.66765E-01 4.79503E-05-4.31796E-01-3.68048E-14-5.83105E-14
 -1       801 2.00208E+01 3.31497E-01 6.20298E-05-5.42056E-01-6.59756E-14 1.06734E-14
 -1       802 2.00125E+01 3.96555E-01 7.79895E-05-6.75980E-01-1.31929E-14-4.25683E-14
 -1       803 2.00007E+01 4.54362E-01 9.56185E-05-8.34049E-01-4.17631E-14-1.20080E-14
 -1       804 1.99884E+01 4.91736E-01 1.14611E-04-1.01544E+00 5.30110E-14 2.03234E-14
 -1       805 1.99844E+01 4.87159E-01 1.34803E-04-1.21752E+00-7.68438E-14 1.56193E-13
 -1       806 2.00078E+01 4.07520E-01 1.55586E-04-1.43495E+00-2.21442E-13-8.15326E-14
 -1       807 2.00956E+01 2.05245E-01 1.58733E-04-1.65771E+00-1.70005E-13-1.94247E-13
 -1       808 2.03139E+01-1.81553E-01 2.23120E-04-1.86586E+00-1.72317E-13-2.11167E-13
 -1       809 2.07718E+01-8.18933E-01 1.24237E-04-2.01183E+00-2.99869E-14-9.11463E-14
 -1       810 2.16093E+01-1.72525E+00 5.04400E-04-2.00228E+00-1.02074E-13-1.44393E-13
 -1       811 2.29936E+01-2.79448E+00-3.76643E-04-1.61987E+00-1.65273E-13-2.26811E-13
 -1       812 2.48926E+01-3.48401E+00 3.99957E-05-6.14521E-01-1.16347E-13-3.43423E-13
 -1       813 1.95611E+01-3.67290E+00 3.85518E-02 4.86594E+00-1.13843E-13-4.11386E-13
 -1       814 2.67317E+01-2.24591E+00-4.78365E-02-1.29254E+00-7.62376E-14-2.71069E-13
 -1       815 2.51081E+01-3.29221E+00-1.29652E-02 3.99732E-01 2.82085E-13-3.86780E-14
 -1       816 2.33561E+01-2.83930E+00-6.44515E-03 1.57552E+00 2.88876E-13 1.40265E-13
 -1       817 2.19916E+01-1.84019E+00-2.38118E-03 2.13376E+00 2.94450E-13 1.03279E-13
 -1       818 2.11198E+01-9.27523E-01-5.31024E-04 2.27510E+00-4.64947E-14 2.65340E-13
 -1       819 2.06124E+01-2.22404E-01 1.78087E-03 2.21036E+00-3.67933E-13-5.43039E-15
 -1       820 2.01050E+01 4.35022E-01 9.73199E-04 2.02732E+00 2.17565E-14-2.53530E-13
 -1       821 1.81562E+01 1.22544E+00 2.78581E-04-1.15146E+00 1.43247E-13-3.33824E-14
 -1       822 1.77892E+01 1.44701E+00-7.09954E-04-2.88025E-01 9.02734E-14-2.31294E-13
 -1       823 1.93717E+01-3.65709E+00 3.59031E-02-4.93946E+00 2.56321E-13 7.29187E-13
 -1       824 2.02778E+01 9.42752E-01 2.46021E-04 5.54452E-01 2.39231E-13-2.04048E-13
 -1       825 1.23454E+01-2.43586E-02 6.73949E-02-2.68575E+00 2.25774E-14 2.29854E-13
 -1       826 9.31613E+00-1.25442E-01 1.27945E-01 1.23780E+00-1.61393E-13-4.19283E-13
 -1       827 1.50569E+01-1.57501E+00 6.23499E-02 4.61366E+00-1.30389E-13-6.34203E-13
 -1       828 2.38814E+01-4.30023E+00 1.98716E-02-2.68156E+00 1.51096E-13 1.75658E-13
 -1       829 2.02216E+01 4.13844E-01-7.11269E-05 1.12761E-01 1.43271E-13-1.70489E-13
 -1       830 1.88156E+01 8.51106E-01-5.95316E-04-1.73292E+00 1.23298E-13-2.53728E-13
 -1       831 1.95676E+01 4.66423E-01 3.62024E-03-1.97168E+00 3.80939E-13 3.61608E-13
 -1       832 2.22053E+01-4.04075E+00 3.06876E-02-3.38288E+00-3.47903E-14-1.55055E-13
 -1       833 2.00328E+01-4.27592E-02-1.19876E-05-1.77673E-01 1.02670E-14-4.24211E-14
 -1       834 2.01719E+01 2.25179E-01 1.13378E-05-3.11516E-02 1.28684E-13-1.79589E-13
 -1       835 1.78601E+01-2.97797E+00 5.38625E-02-4.83435E+00 5.77940E-14-3.17139E-13
 -1       836 1.51358E+01-1.87612E+00 6.22312E-02-4.86268E+00-1.65061E-13 1.71006E-13
 -1       837 2.02830E+01 1.16257E+00-4.88837E-04-5.69292E-01-2.20834E-13-3.14079E-13
 -1       838 2.02906E+01 7.29094E-01-8.54600E-05-2.92848E-01-1.80055E-13-2.88212E-13
 -1       839 2.41113E+01-4.45494E+00 1.74965E-02 2.71116E+00 5.81173E-14-3.04687E-13
 -1       840 2.52376E+01-3.79491E+00-1.97475E-02 8.78263E-01-2.17023E-14 1.39317E-13
 -1       841 1.00705E+01 5.06352E-01 9.42528E-02-1.29378E-01 2.70849E-13-6.08201E-13
 -1       842 2.01427E+01 1.88811E+00-3.43658E-04 1.99600E-01 8.45523E-14-4.73176E-13
 -1       843 1.25416E+01-8.90404E-01 6.67227E-02-3.97129E+00 6.66047E-14-2.59584E-13
 -1       844 1.19732E+01-1.12974E-01 7.69425E-02 2.69671E+00-2.78665E-13-5.14609E-13
 -1       845 1.14491E+01 5.19099E-01 6.48742E-02 2.17741E-01-2.68724E-13-2.98740E-13
 -1       846 2.01305E+01 1.92678E+00-4.71824E-04 3.93415E-03 2.55617E-14-4.60630E-13
 -1       847 2.02218E+01 1.58146E+00-1.91494E-04 5.35326E-01 1.90569E-13-3.63854E-13
 -1       848 2.01744E+01 1.77480E+00-3.36383E-04 3.82613E-01 1.50000E-13-4.11328E-13
 -1       849 2.53434E+01-2.86458E+00-3.81152E-03-4.20760E-01 7.64319E-14 1.51903E-13
 -1       850 2.02173E+01 1.59322E+00-5.61041E-04-5.29860E-01-1.64632E-13-4.23809E-13
 -1       851 1.38933E+01-1.61210E+00 7.53733E-02 4.68880E+00 2.00239E-13-2.73913E-13
 -1       852 2.00921E+01 2.81678E-02-7.34012E-06-1.62082E-01 6.65585E-14-1.94143E-13
 -1       853 1.78549E+01 1.42742E+00-3.93676E-04 6.51530E-01 1.66617E-13-1.23185E-13
 -1       854 1.83335E+01 1.17995E+00-1.42725E-04 1.45505E+00 3.48766E-14 4.16849E-15
 -1       855 1.99441E+01 2.10966E-01-6.62242E-03-1.99749E+00 1.20834E-13 3.81905E-13
 -1       856 2.01704E+01 1.78321E+00-4.29220E-04-3.75850E-01-1.15714E-13-4.68858E-13
 -1       857 1.89596E+01 8.90380E-01-1.13508E-03 1.88087E+00-3.53328E-14-3.08359E-13
 -1       858 1.12590E+01 4.37220E-01 7.30091E-02 1.59151E+00 2.63519E-13-8.60787E-13
 -1       859 2.00374E+01-3.92587E+00 2.11679E-02 4.57779E+00 1.39463E-13-7.90548E-14
 -1       860 2.39771E+01-4.02768E+00 2.79321E-02 2.05272E+00-1.00913E-13 2.36840E-13
 -1       861 2.01277E+01 1.03747E-01-3.02562E-06-1.16872E-01 1.12581E-13-1.83581E-13
 -1       862 1.23269E+01 4.34217E-01 4.46591E-02-1.95696E+00 2.09771E-14-3.95653E-13
 -1       863 2.02492E+01 6.38289E-01 1.91437E-04 2.97340E-01 1.97434E-13-1.78277E-13
 -1       864 2.60210E+01-2.78051E+00-5.87493E-02 3.59981E-01-1.68932E-13-3.57969E-13
 -1       865 2.03336E+01 4.32440E-01 2.39306E-05-4.71418E-02-1.42666E-13-2.89767E-13
 -1       866 2.03081E+01 2.31130E-01-1.38707E-05 4.75244E-02-1.32127E-13-2.52247E-13
 -1       867 2.02721E+01 9.89137E-02-7.21172E-06 1.04788E-01-1.24113E-13-2.14524E-13
 -1       868 2.02329E+01 1.69932E-02-5.71084E-06 1.35052E-01-6.18651E-14-2.48111E-13
 -1       869 2.01943E+01-2.83707E-02-4.64511E-06 1.47503E-01 7.07424E-15-2.67828E-13
 -1       870 2.01585E+01-4.71546E-02-3.46701E-06 1.49591E-01-5.68575E-15-3.09358E-13
 -1       871 2.01259E+01-4.64266E-02-2.48921E-06 1.47124E-01-1.42738E-14-2.59852E-13
 -1       872 2.00964E+01-3.10165E-02-1.67925E-06 1.44579E-01 2.62876E-14-3.29752E-13
 -1       873 2.00690E+01-4.04088E-03-1.02504E-06 1.45448E-01 1.89578E-14-2.68826E-13
 -1       874 2.00424E+01 3.26468E-02-9.28164E-07 1.52553E-01-1.65621E-14-3.12099E-13
 -1       875 2.00150E+01 7.80782E-02-1.23354E-06 1.68286E-01-6.74797E-14-2.87021E-13
 -1       876 1.99847E+01 1.31819E-01-1.44548E-06 1.94808E-01-1.13737E-13-2.15658E-13
 -1       877 1.99494E+01 1.93570E-01-1.41278E-06 2.34173E-01-1.52039E-13-1.55415E-13
 -1       878 1.99065E+01 2.62737E-01-1.21143E-06 2.88389E-01 1.97631E-15-1.36009E-13
 -1       879 1.98536E+01 3.37895E-01-8.38956E-07 3.59454E-01-1.19335E-13-2.43416E-14
 -1       880 1.97885E+01 4.16106E-01-3.24193E-08 4.49369E-01-5.12762E-15-1.44241E-13
 -1       881 1.97095E+01 4.92029E-01 1.68389E-06 5.60181E-01 1.12431E-13-2.47933E-13
 -1       882 1.96164E+01 5.56764E-01 5.16330E-06 6.94129E-01 1.60807E-13-1.95144E-13
 -1       883 1.95120E+01 5.96374E-01 1.16251E-05 8.53956E-01 9.27893E-14-3.16527E-13
 -1       884 1.94042E+01 5.90019E-01 2.14257E-05 1.04344E+00 9.21641E-14-2.38138E-13
 -1       885 1.93096E+01 5.07741E-01 3.11836E-05 1.26796E+00 5.87715E-14-1.11137E-13
 -1       886 1.92597E+01 3.08245E-01 6.78454E-05 1.53436E+00-4.20021E-14-7.23739E-14
 -1       887 1.93109E+01-6.30360E-02 1.96162E-04 1.84877E+00 3.81239E-14-2.90010E-14
 -1       888 1.95621E+01-6.73381E-01 9.29683E-04 2.20379E+00 1.68618E-13 1.16155E-13
 -1       889 2.01618E+01-1.58096E+00 1.05876E-03 2.55251E+00 1.09080E-13 5.63879E-14
 -1       890 2.13674E+01-2.79252E+00 9.18002E-03 2.71837E+00 1.40182E-13 1.92878E-13
 -1       891 1.62742E+01-1.06738E+00 3.58547E-02-3.77476E+00-5.82633E-14-2.30524E-13
 -1       892 2.14259E+01-2.93665E+00 1.63424E-02-3.20932E+00 1.64062E-13 3.42676E-13
 -1       893 2.03032E+01 4.30942E-01 1.12532E-05 6.48042E-02 1.21419E-13-2.39325E-13
 -1       894 2.02695E+01-1.66107E+00-2.05994E-03-2.97564E+00 1.37183E-13 3.72929E-13
 -1       895 1.97442E+01-6.75985E-01-4.37136E-03-2.60076E+00 4.88450E-13 1.79699E-13
 -1       896 2.01614E+01-2.45379E-02-1.60315E-06-1.60234E-01 2.75973E-15-1.20518E-13
 -1       897 2.00593E+01-1.07538E-02-8.33492E-07-1.54237E-01 8.66558E-14-4.67828E-14
 -1       898 2.00799E+01-3.39973E-02-1.40293E-06-1.55065E-01 3.12245E-14-2.83947E-14
 -1       899 2.00213E+01 6.25041E-02 1.14370E-06-1.74003E-01 3.77419E-15-1.02508E-13
 -1       900 2.00005E+01 1.11610E-01 2.78333E-06-1.99509E-01 1.39764E-14 3.68441E-14
 -1       901 1.99760E+01 1.69127E-01 3.96997E-06-2.38390E-01 1.00549E-13 1.96588E-14
 -1       902 1.99452E+01 2.35250E-01 5.48984E-06-2.92754E-01 5.83231E-14-1.37544E-13
 -1       903 1.99054E+01 3.09723E-01 7.94429E-06-3.64664E-01 1.06393E-14-1.37308E-13
 -1       904 1.98534E+01 3.91301E-01 1.14899E-05-4.56096E-01-5.90768E-14-1.17165E-13
 -1       905 1.97860E+01 4.76952E-01 1.66277E-05-5.68912E-01-3.34182E-14-1.78933E-13
 -1       906 1.97004E+01 5.60740E-01 2.43843E-05-7.04921E-01-2.91599E-14-9.16938E-14
 -1       907 1.95949E+01 6.32232E-01 3.71071E-05-8.66139E-01-4.52080E-14-4.85077E-14
 -1       908 1.94712E+01 6.74275E-01 6.06295E-05-1.05542E+00-1.27898E-13 1.71213E-14
 -1       909 1.93374E+01 6.59984E-01 1.08502E-04-1.27757E+00-1.19518E-13 5.64732E-14
 -1       910 1.92137E+01 5.48949E-01 2.03082E-04-1.54070E+00-7.45792E-14 7.10236E-14
 -1       911 1.91429E+01 2.83091E-01 3.85896E-04-1.85679E+00-9.97646E-14-1.20871E-13
 -1       912 1.92031E+01-2.15142E-01 1.01348E-03-2.24043E+00-1.72017E-13-3.73253E-13
 -1       913 1.95747E+01-1.06018E+00-3.43414E-03-2.67243E+00-1.00422E-13-2.27751E-13
 -1       914 2.05038E+01-2.30041E+00 1.44482E-02-3.08724E+00-1.87899E-13-1.46387E-13
 -1       915 1.55380E+01-5.49723E-01 3.56567E-02-3.44229E+00-5.94945E-15 1.39949E-13
 -1       916 1.81023E+01-1.95549E+00 2.56323E-02-4.16230E+00 6.25793E-14 4.03772E-13
 -1       917 2.12623E+01-2.53784E+00 1.57818E-02 3.14062E+00 3.02461E-13 3.04414E-14
 -1       918 2.02699E+01-1.31497E+00-2.99394E-03 2.93947E+00 2.14708E-13 5.03255E-14
 -1       919 1.98026E+01-3.59079E-01-2.03825E-03 2.58064E+00-4.16360E-14-5.58880E-14
 -1       920 1.90187E+01 1.47788E-01-6.10672E-05-2.28800E+00 5.21445E-13 2.02131E-13
 -1       921 1.70563E+01 1.12048E+00-6.11108E-04-1.00333E+00 1.94290E-13-1.72961E-13
 -1       922 1.85341E+01-1.94122E+00 2.67250E-02 4.08269E+00 1.61102E-13-7.98641E-14
 -1       923 1.37174E+01 7.51512E-01 1.79278E-02-1.06661E+00-3.81635E-14-1.88713E-13
 -1       924 1.48619E+01-2.49566E-01 2.81407E-02 3.17100E+00-1.43879E-13-4.21337E-13
 -1       925 1.36312E+01 5.86033E-01 2.52896E-02 1.55972E+00-1.45568E-13-3.48207E-13
 -1       926 2.03384E+01 7.22111E-01-4.52265E-04-1.91532E-01-1.51744E-13-3.62662E-13
 -1       927 1.79252E+01 6.63929E-01-3.07422E-03-1.87178E+00 1.71821E-13 6.14108E-14
 -1       928 2.00403E+01 2.16801E-02 5.69850E-07-1.59691E-01 1.18551E-13-9.41353E-14
 -1       929 2.01404E+01 1.89198E+00-5.37813E-04-1.91690E-01-6.40266E-14-4.38028E-13
 -1       930 1.92052E+01 3.14024E-01-5.26697E-03 2.30954E+00 1.03964E-13-3.91550E-13
 -1       931 2.03037E+01 1.00557E+00 5.25663E-04 3.69105E-01 1.62755E-13-3.08775E-13
 -1       932 2.03162E+01 7.24605E-01-2.97874E-04 2.31906E-01 1.49342E-13-2.65321E-13
 -1       933 2.02722E+01 2.32336E-01-9.05890E-06-4.49163E-02 1.30939E-13-2.32178E-13
 -1       934 1.78111E+01-2.55582E+00 5.29497E-02 4.46969E+00 2.17969E-13-5.66691E-14
 -1       935 1.82680E+01 6.93373E-01 1.41670E-03 2.04550E+00 9.93744E-14-1.05595E-13
 -1       936 2.01966E+01 2.11421E-02 1.10525E-06-1.45853E-01 3.44928E-14-2.52295E-13
 -1       937 2.01303E+01-4.47271E-02-1.30956E-06-1.62477E-01-3.54716E-14 2.38067E-15
 -1       938 1.32919E+01-7.51575E-02 4.40321E-02 2.95477E+00 2.00355E-13-6.56379E-13
 -1       939 1.68543E+01 1.26644E+00 7.23655E-03 2.12546E-01 1.17171E-13-4.55360E-13
 -1       940 2.01033E+01-4.63194E-02-1.15513E-06-1.59094E-01 2.66866E-14-2.93886E-14
 -1       941 1.72500E+01 1.06345E+00-2.76992E-03 1.35448E+00 2.65870E-13 1.20102E-13
 -1       942 1.21997E+01 8.05510E-01 4.42559E-02-3.73943E-01 8.57934E-14-4.73076E-13
 -1       943 2.02904E+01 8.17698E-01-1.95722E-04 3.42053E-01 1.82310E-13-2.57019E-13
 -1       944 2.02801E+01 1.40598E+00 1.11678E-04 6.97875E-02 2.67023E-14-4.19083E-13
 -1       945 2.02890E+01 1.33751E+00-1.09989E-04 1.97665E-01 8.26471E-14-3.88803E-13
 -1       946 2.02967E+01 1.14934E+00 7.31122E-04-3.88037E-01-1.80142E-13-3.78570E-13
 -1       947 2.02856E+01 1.32372E+00 2.43535E-05-2.93679E-01-1.19009E-13-4.23395E-13
 -1       948 2.03052E+01 1.20021E+00 1.10017E-04 3.03889E-01 1.22736E-13-3.49865E-13
 -1       949 2.03639E+01 2.03475E-01-1.38286E-05 5.14919E-02-1.18571E-13-2.46566E-13
 -1       950 2.03283E+01 7.74282E-02-3.53369E-06 8.80027E-02-8.06927E-14-2.56242E-13
 -1       951 2.02857E+01 1.21907E-03-3.47157E-06 1.06829E-01-4.24137E-14-2.75828E-13
 -1       952 2.02409E+01-3.80879E-02-1.59618E-06 1.14265E-01 2.03270E-14-1.82832E-13
 -1       953 2.01968E+01-5.01251E-02-4.51143E-07 1.15481E-01 1.76587E-14-1.55663E-13
 -1       954 2.01544E+01-4.17791E-02 1.53351E-07 1.14576E-01-6.25249E-14-1.52392E-13
 -1       955 2.01135E+01-1.77336E-02-1.15198E-07 1.14760E-01 3.10060E-14-2.37058E-13
 -1       956 2.00729E+01 1.90731E-02-5.23874E-07 1.18610E-01 1.63042E-14-2.64680E-13
 -1       957 2.00309E+01 6.69137E-02-3.75417E-06 1.28265E-01-7.76256E-15-2.55293E-13
 -1       958 1.99851E+01 1.24976E-01-7.08041E-06 1.45591E-01-1.89917E-14-2.05702E-13
 -1       959 1.99324E+01 1.92869E-01-1.08250E-05 1.72382E-01-5.86898E-14-2.00610E-13
 -1       960 1.98696E+01 2.70201E-01-1.46405E-05 2.10402E-01 2.29778E-14-1.74002E-13
 -1       961 1.97928E+01 3.56094E-01-1.96563E-05 2.61504E-01 5.37358E-15-9.39596E-14
 -1       962 1.96981E+01 4.48579E-01-2.60926E-05 3.27726E-01-1.05162E-13-6.45908E-14
 -1       963 1.95816E+01 5.43881E-01-3.43437E-05 4.11455E-01 4.99816E-14-3.03737E-14
 -1       964 1.94397E+01 6.35538E-01-4.51691E-05 5.15745E-01 8.71224E-14-2.41235E-13
 -1       965 1.92698E+01 7.13333E-01-6.01274E-05 6.44902E-01 1.28700E-13-2.95897E-13
 -1       966 1.90714E+01 7.61970E-01-8.33180E-05 8.05546E-01 1.55173E-13-2.61011E-13
 -1       967 1.88472E+01 7.59353E-01-1.27020E-04 1.00833E+00 1.36119E-13-2.03210E-13
 -1       968 1.86071E+01 6.74082E-01-2.05456E-04 1.27020E+00-4.07267E-14-2.09675E-13
 -1       969 1.83734E+01 4.62780E-01-1.18530E-04 1.61632E+00 3.46857E-14-1.45274E-13
 -1       970 1.81870E+01 6.63737E-02 1.74228E-04 2.08697E+00 1.66439E-13-1.28152E-13
 -1       971 1.81592E+01-6.27508E-01 1.50532E-04 2.73835E+00 6.69918E-14-1.19674E-13
 -1       972 2.03615E+01 6.94263E-01 3.31885E-04 1.35936E-01 9.13064E-14-3.14086E-13
 -1       973 1.83077E+01-1.10996E-01 2.63678E-03-2.62151E+00 2.90998E-13 4.03413E-13
 -1       974 2.02653E+01 1.44541E+00-6.55306E-06-1.69847E-01-5.79165E-14-3.97153E-13
 -1       975 1.99555E+01 1.70497E-01 2.24247E-07-1.85513E-01 2.62859E-14 2.98208E-14
 -1       976 1.99994E+01 1.06663E-01-2.02889E-07-1.58408E-01-6.86700E-14-2.90585E-15
 -1       977 1.98364E+01 3.28812E-01-6.32199E-06-2.76651E-01 8.34916E-14 2.53791E-14
 -1       978 1.97529E+01 4.22532E-01-8.75899E-06-3.44019E-01 3.84414E-14-1.02158E-13
 -1       979 1.96466E+01 5.23695E-01-1.13389E-05-4.28108E-01-4.53525E-14-1.71139E-13
 -1       980 1.95121E+01 6.28135E-01-1.43418E-05-5.30759E-01-1.34463E-13-1.10782E-13
 -1       981 1.93438E+01 7.28468E-01-1.79835E-05-6.54456E-01-1.32618E-13-6.10156E-14
 -1       982 1.91362E+01 8.12689E-01-2.11206E-05-8.03300E-01-9.88707E-14-1.51186E-14
 -1       983 1.88856E+01 8.62274E-01-1.72707E-05-9.84887E-01-8.94027E-14-1.57233E-13
 -1       984 1.85917E+01 8.49434E-01 1.20834E-05-1.21345E+00-6.28956E-14-2.14188E-13
 -1       985 1.82624E+01 7.33176E-01 7.30382E-05-1.51384E+00-1.35092E-14-2.17502E-13
 -1       986 1.79203E+01 4.52610E-01-6.57905E-04-1.92846E+00-1.58133E-13-1.01878E-13
 -1       987 1.76660E+01-8.13196E-02 3.83209E-03-2.52749E+00-1.33616E-13-9.16435E-14
 -1       988 1.51163E+01 3.38050E-01 1.53794E-02-2.28630E+00-1.23082E-13-2.24882E-13
 -1       989 1.84856E+01-3.33134E-01 1.19741E-02 2.89474E+00 2.04894E-13-1.47850E-13
 -1       990 1.49691E+01 1.00321E+00 6.49928E-04 4.25053E-01 7.28523E-14-4.30782E-13
 -1       991 1.71422E+01 4.43754E-01 7.84129E-03 2.32389E+00 2.51572E-13 1.11784E-13
 -1       992 2.03843E+01 3.96392E-01-3.38685E-05-9.68328E-03-9.85122E-14-2.50049E-13
 -1       993 2.01079E+01-2.37367E-02 4.03613E-06-1.29680E-01 6.40870E-14-1.38427E-13
 -1       994 2.03812E+01 6.73897E-01 5.71989E-04-1.01908E-01-9.80366E-14-3.01237E-13
 -1       995 1.60468E+01 4.70784E-01 7.92150E-03-2.11188E+00 1.03731E-13 2.46398E-14
 -1       996 1.56150E+01 4.42566E-01 1.71649E-02 2.17593E+00 2.90083E-14-1.86200E-13
 -1       997 2.02685E+01 1.45054E+00 9.41156E-05-4.77182E-02-2.02105E-14-4.03519E-13
 -1       998 1.74576E+01-4.69328E-01 8.13163E-03 3.21269E+00 2.77575E-13-7.95596E-14
 -1       999 2.02345E+01 1.02174E-01 1.54661E-06-1.10910E-01 9.88195E-14-2.26394E-13
 -1      1000 1.99025E+01 2.44562E-01-3.67692E-06-2.24356E-01 1.38633E-13 7.49067E-14
 -1      1001 2.01439E+01-4.41935E-02 6.49203E-06-1.30569E-01 7.91061E-15-1.68814E-13
 -1      1002 2.03624E+01 4.11073E-01 8.32729E-05 2.21161E-02 9.08396E-14-2.76482E-13
 -1      1003 1.84769E+01-1.67444E+00 2.87548E-02 3.55047E+00 1.04730E-13-3.24215E-14
 -1      1004 1.59478E+01-9.71045E-01 4.67066E-03 3.65998E+00 2.53071E-13-1.84779E-13
 -1      1005 2.02223E+01-3.43485E-02 7.46167E-06-1.30699E-01-3.75772E-14-2.05951E-13
 -1      1006 2.00377E+01 5.27970E-02-5.83942E-06-1.41390E-01 6.86807E-14-1.05774E-14
 -1      1007 1.45255E+01 8.25385E-01 1.47904E-02-1.38045E+00-1.18522E-13-2.85134E-13
 -1      1008 2.03695E+01 1.01591E+00-7.99166E-05 1.54841E-03-1.59379E-14-3.67294E-13
 -1      1009 2.02642E+01 7.55190E-03 9.78317E-06-1.21313E-01-1.56072E-14-1.58380E-13
 -1      1010 1.33128E+01 7.66058E-01 2.88087E-02 1.29687E+00 1.08071E-13-8.65974E-13
 -1      1011 2.00731E+01 9.14902E-03-2.74450E-07-1.32464E-01 1.14187E-13-5.95829E-14
 -1      1012 2.03690E+01 9.86071E-01-1.85075E-04 8.14256E-02 5.14298E-14-3.77560E-13
 -1      1013 2.03562E+01 4.78437E-02-3.31234E-05 6.15629E-02-5.80994E-14-2.58685E-13
 -1      1014 2.03094E+01-1.67573E-02-1.98992E-05 7.08167E-02 3.67982E-14-2.12907E-13
 -1      1015 2.02594E+01-4.59393E-02-1.11905E-05 7.41984E-02 3.73095E-14-2.31837E-13
 -1      1016 2.02091E+01-4.86439E-02-6.85017E-06 7.47446E-02 6.40903E-15-1.85259E-13
 -1      1017 2.01592E+01-3.12091E-02-6.62842E-06 7.48834E-02 9.57573E-15-7.87339E-14
 -1      1018 2.01094E+01 2.14581E-03-2.38939E-06 7.65051E-02-3.40416E-14-1.63829E-13
 -1      1019 2.00580E+01 4.88663E-02-8.32587E-07 8.12539E-02 1.61708E-14-1.97246E-13
 -1      1020 2.00027E+01 1.07363E-01-1.91541E-05 9.04085E-02-1.92633E-14-2.07137E-13
 -1      1021 1.99402E+01 1.77334E-01-3.44519E-05 1.05375E-01-2.80416E-14-1.75689E-13
 -1      1022 1.98666E+01 2.58284E-01-4.34061E-05 1.27370E-01-5.33197E-15-6.42191E-14
 -1      1023 1.97776E+01 3.49795E-01-5.64654E-05 1.57801E-01-9.30476E-15-8.28567E-14
 -1      1024 1.96679E+01 4.50734E-01-7.25295E-05 1.98282E-01-1.04436E-13-1.75667E-13
 -1      1025 1.95323E+01 5.58705E-01-9.23940E-05 2.50799E-01 2.24864E-14-1.29526E-13
 -1      1026 1.93646E+01 6.69397E-01-1.18136E-04 3.17997E-01-4.43250E-14-1.72609E-13
 -1      1027 1.91585E+01 7.75862E-01-1.54658E-04 4.03681E-01 5.49373E-14-1.80724E-13
 -1      1028 1.89071E+01 8.67776E-01-2.13817E-04 5.13710E-01 8.78625E-14-2.62637E-13
 -1      1029 1.86025E+01 9.30656E-01-3.25698E-04 6.57571E-01 1.37766E-13-3.38031E-13
 -1      1030 1.82357E+01 9.44840E-01-5.78232E-04 8.51214E-01 5.96844E-14-3.73955E-13
 -1      1031 1.77964E+01 8.82479E-01-1.17488E-03 1.12201E+00 7.52727E-14-3.32473E-13
 -1      1032 1.72737E+01 7.04217E-01-1.87594E-03 1.51200E+00 4.44462E-14-2.88395E-13
 -1      1033 1.66794E+01 3.56645E-01 2.48102E-03 2.08919E+00 1.44291E-13-4.82488E-13
 -1      1034 1.94264E+01 6.51840E-01-7.61216E-05-3.40483E-01-8.46541E-14-4.33221E-14
 -1      1035 2.01819E+01-4.92964E-02 8.21876E-06-1.32164E-01 9.27614E-15-2.40059E-13
 -1      1036 1.99595E+01 1.57567E-01-1.96400E-06-1.25064E-01-7.56753E-15 2.97198E-15
 -1      1037 2.03633E+01 1.02500E+00-1.97056E-04-7.14010E-02-4.18385E-14-4.05632E-13
 -1      1038 1.45615E+01 1.10347E+00 8.95357E-03-8.87873E-02-5.42883E-14-3.78072E-13
 -1      1039 1.95857E+01 5.34697E-01-5.98289E-05-2.75744E-01 2.71055E-14 2.60464E-15
 -1      1040 1.97121E+01 4.24615E-01-4.66414E-05-2.22890E-01 1.09122E-13 5.34397E-15
 -1      1041 1.92260E+01 7.71024E-01-9.84321E-05-4.18600E-01-1.80818E-14-1.16650E-13
 -1      1042 1.89751E+01 8.84229E-01-1.31862E-04-5.12677E-01-1.98406E-13-1.20361E-13
 -1      1043 1.86621E+01 9.79644E-01-1.80930E-04-6.27773E-01-1.05817E-13-1.43440E-13
 -1      1044 1.82724E+01 1.04083E+00-2.36021E-04-7.74093E-01-4.89214E-14-6.59466E-14
 -1      1045 1.77860E+01 1.04495E+00-3.05643E-04-9.72345E-01 4.95809E-14-1.76245E-13
 -1      1046 1.71827E+01 9.56104E-01 1.59489E-04-1.25883E+00-1.28296E-13-1.09560E-13
 -1      1047 1.64325E+01 7.42669E-01 1.81355E-03-1.69264E+00-1.69592E-13-2.32831E-13
 -1      1048 2.03749E+01 8.51506E-01-2.72037E-05 1.22330E-01 8.41455E-14-3.35823E-13
 -1      1049 2.03822E+01 8.49389E-01-2.33765E-04-1.00238E-01-4.42302E-14-3.33639E-13
 -1      1050 2.04174E+01 3.35517E-01 2.49828E-05 1.06281E-02-8.96997E-14-3.21627E-13
 -1      1051 2.04132E+01 5.56884E-01-6.01182E-05-3.42723E-02-7.05265E-14-3.46544E-13
 -1      1052 2.03052E+01 8.59595E-02-1.00933E-05-9.78950E-02 4.67906E-14-1.83422E-13
 -1      1053 2.03403E+01 2.14775E-01-1.98173E-05-5.26455E-02 8.72096E-14-2.08425E-13
 -1      1054 1.98932E+01 2.35263E-01-2.42817E-05-1.48553E-01 6.31740E-14 4.03664E-14
 -1      1055 1.49201E+01 1.91814E-01 1.81322E-02 2.56248E+00 2.89719E-13-3.78528E-13
 -1      1056 1.98126E+01 3.24386E-01-3.50924E-05-1.80830E-01 1.66745E-13 4.75966E-14
 -1      1057 2.03950E+01 1.59862E-01-2.10458E-05 4.27324E-02-1.07824E-13-2.82425E-13
 -1      1058 2.01586E+01-3.60710E-02 3.06119E-06-9.39983E-02 4.52865E-14-2.39058E-13
 -1      1059 2.04031E+01 5.23042E-01-5.87355E-05 3.58813E-02 6.30844E-14-3.23057E-13
 -1      1060 2.00154E+01 9.14828E-02-5.19564E-05-1.09212E-01-6.21945E-14-2.56137E-14
 -1      1061 2.04230E+01 6.79367E-01 3.24742E-04 1.81809E-02 2.25726E-14-3.55159E-13
 -1      1062 2.02531E+01-4.32127E-02 1.19523E-06-9.35827E-02-1.62068E-15-2.26467E-13
 -1      1063 1.50697E+01 9.46124E-01 8.29373E-03 1.08563E+00 1.15357E-13-4.37595E-13
 -1      1064 2.03007E+01-9.75450E-03-6.38831E-06-8.87258E-02-3.83666E-15-2.24301E-13
 -1      1065 2.01126E+01-6.31673E-03 2.08676E-05-9.52470E-02-1.27241E-14-1.90898E-13
 -1      1066 2.04191E+01 7.09096E-01 5.97398E-04-1.60079E-02-2.33770E-14-3.46482E-13
 -1      1067 2.02054E+01-4.98041E-02 5.91400E-06-9.43005E-02-6.16325E-14-2.37728E-13
 -1      1068 2.04191E+01 6.06204E-01 1.98818E-04 3.33584E-02 6.08850E-14-3.03921E-13
 -1      1069 2.03087E+01-3.25809E-02 7.30826E-05 2.83956E-02 2.06983E-14-1.75559E-13
 -1      1070 2.02550E+01-4.94680E-02 6.08518E-05 2.92236E-02-1.98893E-14-1.98478E-13
 -1      1071 2.02006E+01-4.17556E-02 4.60784E-05 2.94809E-02 3.82553E-15-2.88049E-13
 -1      1072 2.01455E+01-1.48963E-02-1.23149E-06 2.99766E-02 1.77855E-16-2.92165E-13
 -1      1073 2.00897E+01 2.70389E-02-5.24870E-06 3.14051E-02-4.79890E-14-2.46891E-13
 -1      1074 2.00307E+01 8.25641E-02 9.27127E-05 3.45607E-02-2.32250E-14-3.40705E-13
 -1      1075 1.99645E+01 1.51089E-01 5.84461E-05 4.00021E-02 5.41785E-14-2.71997E-13
 -1      1076 1.98879E+01 2.31246E-01 3.96005E-05 4.81498E-02 3.64631E-14-1.83721E-13
 -1      1077 1.97963E+01 3.23308E-01 5.04946E-05 5.99867E-02-3.93626E-14-2.95580E-13
 -1      1078 1.96840E+01 4.26682E-01 6.46505E-05 7.63677E-02-6.39182E-14-2.25247E-13
 -1      1079 1.95448E+01 5.40020E-01 8.45626E-05 9.85084E-02-5.41454E-14-1.13666E-13
 -1      1080 1.93716E+01 6.60618E-01 1.12904E-04 1.28092E-01 1.21373E-14-1.88591E-13
 -1      1081 1.91560E+01 7.83896E-01 1.53026E-04 1.67544E-01 5.14068E-14-1.12519E-13
 -1      1082 1.88879E+01 9.02960E-01 2.07320E-04 2.20489E-01-3.49936E-14-1.42739E-13
 -1      1083 1.85543E+01 1.00835E+00 2.68402E-04 2.92489E-01 8.83021E-14-1.72688E-13
 -1      1084 1.81373E+01 1.08803E+00 2.90545E-04 3.92222E-01 1.48445E-14-2.67844E-13
 -1      1085 1.76091E+01 1.12783E+00 1.62930E-04 5.33138E-01-3.21145E-14-3.56668E-13
 -1      1086 1.69335E+01 1.12000E+00 4.62911E-03 7.48926E-01 1.19132E-13-5.33622E-13
 -1      1087 1.61777E+01 1.04034E+00 7.72163E-03 9.02202E-01-2.89070E-14-4.61793E-13
 -1      1088 2.04032E+01 1.08886E-01-5.73537E-06 2.04308E-02-1.29464E-14-1.61632E-13
 -1      1089 1.89549E+01 8.90711E-01-1.65925E-04-2.26615E-01-5.42851E-14-9.46800E-14
 -1      1090 2.00657E+01 3.68035E-02 2.14397E-05-9.98127E-02 4.38083E-14-1.88032E-14
 -1      1091 1.94214E+01 6.36024E-01-8.20936E-05-1.56440E-01-2.46898E-14 1.49430E-13
 -1      1092 1.95861E+01 5.14314E-01-5.70224E-05-1.28654E-01 6.76469E-14 1.48145E-13
 -1      1093 1.86286E+01 1.00984E+00-2.36947E-04-2.70162E-01-8.35850E-14-1.58599E-13
 -1      1094 1.82164E+01 1.11022E+00-3.31013E-04-3.22092E-01-1.41910E-13-3.27602E-13
 -1      1095 1.76896E+01 1.17960E+00-3.43030E-04-3.87647E-01 2.35694E-14-2.71016E-13
 -1      1096 1.69990E+01 1.20710E+00 1.91717E-04-4.76786E-01-4.00797E-14-1.33091E-13
 -1      1097 1.60986E+01 1.15864E+00-4.70821E-03-6.12434E-01-6.30440E-14-2.11193E-13
 -1      1098 1.92146E+01 7.63392E-01-1.16892E-04-1.89012E-01-4.00437E-14 4.15951E-14
 -1      1099 2.03460E+01 5.89178E-02-1.04892E-04-7.54497E-02 3.53833E-15-2.49617E-13
 -1      1100 2.04201E+01 6.36862E-01 3.18535E-04-2.85416E-02-5.24854E-14-3.83955E-13
 -1      1101 2.04324E+01 2.58373E-01-1.45654E-04 9.72034E-03-3.90224E-14-2.77808E-13
 -1      1102 1.99086E+01 2.11273E-01-2.26204E-05-7.30620E-02 2.55617E-14-2.22610E-13
 -1      1103 2.03596E+01 1.68753E-02 8.63280E-05 2.58954E-02 1.19529E-14-1.15879E-13
 -1      1104 1.97174E+01 4.01849E-01-3.92409E-05-1.05587E-01 8.68922E-14 5.22213E-14
 -1      1105 1.98228E+01 3.00564E-01-2.72729E-05-8.71329E-02-7.57799E-15-1.30477E-13
 -1      1106 1.99802E+01 1.34107E-01-1.21094E-05-6.27065E-02 1.56960E-14-1.77517E-13
 -1      1107 2.02062E+01-4.52605E-02-1.19198E-05-5.09465E-02-2.28262E-14-2.02803E-13
 -1      1108 1.59160E+01 1.17350E+00-9.79942E-03 1.00376E-01 2.70086E-14-2.74949E-13
 -1      1109 2.03116E+01-2.66424E-02-7.31486E-06-4.86371E-02-1.39717E-14-2.64109E-13
 -1      1110 2.01534E+01-2.22691E-02-5.62101E-06-5.13014E-02 1.41430E-15-1.34095E-13
 -1      1111 2.03835E+01 1.74034E-01-7.55815E-04-4.83380E-02 5.33229E-14-2.31811E-13
 -1      1112 2.02592E+01-4.86714E-02-1.15793E-05-5.05654E-02-2.64662E-14-2.13366E-13
 -1      1113 2.04363E+01 4.22131E-01-2.97218E-04-3.87180E-03-1.65907E-14-3.07051E-13
 -1      1114 2.04383E+01 4.11924E-01-2.24086E-04 9.33464E-04 4.47329E-15-3.14606E-13
 -1      1115 2.03996E+01 3.24811E-01-1.16674E-04-1.57562E-02 1.81806E-14-2.93250E-13
 -1      1116 2.03610E+01 2.88658E-02 8.08617E-05-4.32516E-02-8.91426E-15-2.81645E-13
 -1      1117 2.00605E+01 5.42019E-02-5.10641E-05-1.96034E-02-6.26594E-14-2.25553E-13
 -1      1118 2.04242E+01 3.75540E-01 1.23302E-03-1.55462E-03-3.04754E-15-3.09305E-13
 -1      1119 2.04152E+01 1.68607E-01 2.72094E-04-2.31717E-02 7.50003E-14-2.71955E-13
 -1      1120 2.01096E+01 1.06887E-02 6.37154E-06-3.59860E-02-1.97914E-14-1.88701E-13
 -1      1121 2.79618E+01 9.08618E+00 2.32534E+00-6.69852E+00-5.12923E-14 1.80070E-12
 -1      1122 2.05457E+01 6.22660E+00 2.09571E-01-3.90474E+00-2.99205E-14 2.92662E-13
 -1      1123 1.94331E+01 5.85246E+00 7.50901E-02-2.88918E+00-2.19269E-14-3.73413E-13
 -1      1124 1.90255E+01 5.72577E+00 6.03500E-02-2.23661E+00-1.50054E-14-6.88096E-13
 -1      1125 1.88404E+01 5.66947E+00 5.78472E-02-1.70267E+00-1.03754E-14-8.40581E-13
 -1      1126 1.87468E+01 5.64074E+00 5.56125E-02-1.23520E+00-4.80865E-15-9.15148E-13
 -1      1127 1.86984E+01 5.62569E+00 5.38427E-02-8.05124E-01-3.23396E-15-9.45765E-13
 -1      1128 1.86748E+01 5.61822E+00 5.26077E-02-3.93255E-01-1.30516E-15-9.52245E-13
 -1      1129 1.86680E+01 5.61608E+00 5.22137E-02 8.47993E-03 4.16659E-16-9.45373E-13
 -1      1130 1.86758E+01 5.61857E+00 5.27220E-02 4.10622E-01 3.82225E-15-9.29435E-13
 -1      1131 1.87006E+01 5.62643E+00 5.41001E-02 8.23835E-01 5.77923E-15-9.04095E-13
 -1      1132 1.87508E+01 5.64213E+00 5.62909E-02 1.25656E+00 7.82274E-15-8.51493E-13
 -1      1133 1.88453E+01 5.67115E+00 5.84774E-02 1.72855E+00 1.07362E-14-7.50971E-13
 -1      1134 1.90310E+01 5.72743E+00 6.03951E-02 2.26967E+00 1.57652E-14-5.69567E-13
 -1      1135 1.94300E+01 5.84974E+00 6.91665E-02 2.92971E+00 2.24126E-14-2.19769E-13
 -1      1136 2.04520E+01 6.18156E+00 1.53187E-01 3.87944E+00 2.62845E-14 4.63091E-13
 -1      1137 2.52159E+01 7.99390E+00 1.43038E+00 5.84681E+00 5.88418E-14 1.90964E-12
 -1      1138 2.88115E+01 3.61642E+00 1.27147E+00-4.21728E+00-2.08056E-13 2.76629E-12
 -1      1139 2.02252E+01-1.77684E-01-6.16259E-01-1.10033E-01-6.47052E-14 2.27726E-12
 -1      1140 1.88297E+01-9.63807E-02-2.36371E-01 6.24950E-02-2.66193E-14 1.54614E-12
 -1      1141 1.84949E+01-4.80475E-02-5.95551E-02 4.05001E-02-1.11066E-14 1.07560E-12
 -1      1142 1.84388E+01-2.46024E-02-1.51463E-02 2.67577E-02-5.56998E-15 7.62761E-13
 -1      1143 1.85193E+01-1.30482E-02-4.94443E-03 1.90167E-02-9.59822E-15 5.82055E-13
 -1      1144 1.86647E+01-6.60874E-03-1.45209E-03 1.40579E-02-4.93735E-15 3.63076E-13
 -1      1145 1.88357E+01-2.85553E-03 5.73884E-04 1.06092E-02-1.41433E-14 2.61687E-13
 -1      1146 1.90097E+01-6.50294E-04 1.86711E-03 8.04869E-03-8.06760E-15 1.23770E-13
 -1      1147 1.91742E+01 5.99857E-04 2.56929E-03 6.06887E-03-1.40488E-14-4.03002E-14
 -1      1148 1.93227E+01 1.23114E-03 2.80938E-03 4.50670E-03-5.22821E-15-2.19148E-13
 -1      1149 1.94527E+01 1.44672E-03 2.71291E-03 3.26628E-03 2.03642E-14-1.95208E-13
 -1      1150 1.95645E+01 1.37409E-03 2.37697E-03 2.28511E-03-1.27033E-14-3.67348E-13
 -1      1151 1.96601E+01 1.09354E-03 1.86593E-03 1.51990E-03 3.89982E-15-4.34612E-13
 -1      1152 1.97431E+01 6.53666E-04 1.21628E-03 9.40882E-04 3.38756E-15-3.37187E-13
 -1      1153 1.98178E+01 8.08345E-05 4.42521E-04 5.29917E-04-2.34658E-14-3.80838E-13
 -1      1154 1.98898E+01-6.13986E-04-4.57242E-04 2.80508E-04-9.51503E-15-5.11139E-13
 -1      1155 1.99654E+01-1.42931E-03-1.49604E-03 1.98834E-04 1.06358E-14-5.93780E-13
 -1      1156 2.00520E+01-2.36692E-03-2.69189E-03 3.05337E-04-6.38725E-15-5.27844E-13
 -1      1157 2.01580E+01-3.42411E-03-4.05940E-03 6.36504E-04-1.30218E-14-5.40238E-13
 -1      1158 2.02931E+01-4.58298E-03-5.59723E-03 1.24621E-03-1.59378E-14-6.54678E-13
 -1      1159 2.04681E+01-5.79486E-03-7.26786E-03 2.20538E-03 2.06167E-14-6.57958E-13
 -1      1160 2.06947E+01-6.95719E-03-8.96502E-03 3.59733E-03 1.56322E-14-4.21094E-13
 -1      1161 2.09844E+01-7.88058E-03-1.04620E-02 5.50366E-03-1.86756E-14-6.86947E-13
 -1      1162 2.13473E+01-8.24452E-03-1.13340E-02 7.97119E-03 9.21138E-16-7.72988E-13
 -1      1163 2.17890E+01-7.54651E-03-1.08549E-02 1.09442E-02-2.99007E-14-8.06402E-13
 -1      1164 2.23053E+01-5.06386E-03-7.89068E-03 1.41397E-02 1.19417E-14-6.30022E-13
 -1      1165 2.28748E+01 1.20533E-04-8.76673E-04 1.68455E-02 1.95192E-14-5.92221E-13
 -1      1166 2.34485E+01 8.92060E-03 1.19198E-02 1.76515E-02-2.44323E-14-4.79094E-13
 -1      1167 2.39382E+01 2.17037E-02 3.14950E-02 1.42315E-02 1.05226E-14-3.07334E-13
 -1      1168 2.42099E+01 3.72303E-02 5.61933E-02 3.52654E-03-4.40026E-14-3.12276E-13
 -1      1169 2.40950E+01 5.12047E-02 7.90113E-02-1.70231E-02 6.31396E-15-2.24890E-13
 -1      1170 2.34370E+01 5.54134E-02 8.62262E-02-4.66683E-02-1.10060E-14-2.49752E-13
 -1      1171 2.21849E+01 3.99242E-02 6.14822E-02-7.76782E-02 7.13318E-15-4.93050E-13
 -1      1172 2.05075E+01 3.48266E-04-1.71653E-03-9.44237E-02 1.99260E-14-5.78995E-13
 -1      1173 1.88412E+01-5.24954E-02-8.49960E-02-8.04232E-02 2.89035E-14-6.40279E-13
 -1      1174 1.77635E+01-9.14954E-02-1.45766E-01-3.26133E-02 7.10057E-14-6.12975E-13
 -1      1175 1.76966E+01-9.14188E-02-1.45731E-01 3.02023E-02-1.04283E-14-1.47223E-13
 -1      1176 1.86406E+01-5.22849E-02-8.48154E-02 7.81583E-02 1.03719E-14 7.91589E-14
 -1      1177 2.01715E+01 1.16432E-03-6.94111E-04 9.22195E-02 1.00844E-14-3.46528E-14
 -1      1178 2.17055E+01 4.16499E-02 6.39928E-02 7.50695E-02-2.26633E-14-6.17006E-14
 -1      1179 2.27967E+01 5.77553E-02 8.99821E-02 4.30255E-02-2.59610E-14-4.36096E-13
 -1      1180 2.32684E+01 5.34970E-02 8.30946E-02 1.18390E-02 4.50456E-14-6.85427E-13
 -1      1181 2.31697E+01 3.86178E-02 5.93617E-02-1.05024E-02 1.51264E-14-3.94947E-13
 -1      1182 2.26637E+01 2.10542E-02 3.19990E-02-2.29288E-02 1.99554E-14-3.75512E-13
 -1      1183 2.19373E+01 4.76930E-03 7.04503E-03-2.74580E-02 2.83887E-15-7.17239E-13
 -1      1184 2.11595E+01-9.28930E-03-1.49451E-02-2.59455E-02 2.74537E-14-9.44578E-13
 -1      1185 2.04795E+01-2.08928E-02-3.36735E-02-1.76992E-02 1.12993E-13-4.41843E-13
 -1      1186 2.00478E+01-3.10061E-02-3.74164E-02 1.78248E-03-2.03210E-14-1.45947E-13
 -1      1187 1.99648E+01 1.18858E-02 2.21910E-02 1.25431E-02 7.15513E-14 1.60694E-13
 -1      1188 2.77911E+01 5.25748E-01 3.77218E-01 1.96670E+00-3.17246E-14 3.11079E-12
 -1      1189 2.00826E+01-6.62303E-02-5.73607E-01 1.29500E-01 2.24300E-14 2.44196E-12
 -1      1190 1.89045E+01-4.05981E-02-1.93229E-01 1.94280E-02 1.97880E-14 1.79881E-12
 -1      1191 1.85238E+01-2.14120E-02-5.05519E-02 1.46945E-03 1.66620E-14 1.36693E-12
 -1      1192 1.84514E+01-1.23996E-02-1.33952E-02-4.06591E-03 8.41753E-15 1.05338E-12
 -1      1193 1.85256E+01-7.39515E-03-4.64449E-03-5.51561E-03 1.04168E-14 8.48890E-13
 -1      1194 1.86680E+01-4.32394E-03-1.91454E-03-5.69121E-03 7.21889E-15 7.63809E-13
 -1      1195 1.88372E+01-2.36296E-03-3.36016E-04-5.39118E-03-1.05195E-15 6.93296E-13
 -1      1196 1.90103E+01-1.10927E-03 7.65601E-04-4.86660E-03 2.67076E-15 4.92797E-13
 -1      1197 1.91742E+01-3.34600E-04 1.44575E-03-4.22946E-03 1.12877E-14 1.93054E-13
 -1      1198 1.93224E+01 1.03236E-04 1.76195E-03-3.54443E-03 2.77319E-14 2.19408E-14
 -1      1199 1.94521E+01 2.96190E-04 1.79383E-03-2.85121E-03-8.05992E-15-6.57699E-14
 -1      1200 1.95637E+01 3.03638E-04 1.61024E-03-2.17250E-03 4.42131E-15-6.55682E-14
 -1      1201 1.96592E+01 1.61949E-04 1.25781E-03-1.51900E-03 8.51993E-15-1.85599E-13
 -1      1202 1.97419E+01-1.09827E-04 7.60857E-04-8.93258E-04 2.92960E-14-3.42525E-13
 -1      1203 1.98164E+01-5.06256E-04 1.24249E-04-2.92812E-04 1.54211E-14-4.45889E-13
 -1      1204 1.98882E+01-1.03272E-03-6.63824E-04 2.86652E-04-1.58583E-14-4.63912E-13
 -1      1205 1.99637E+01-1.70278E-03-1.62913E-03 8.47950E-04-2.52547E-15-2.88273E-13
 -1      1206 2.00505E+01-2.53492E-03-2.80834E-03 1.38832E-03 2.31050E-14-5.97119E-13
 -1      1207 2.01576E+01-3.54768E-03-4.24437E-03 1.89401E-03 5.13017E-15-8.31557E-13
 -1      1208 2.02953E+01-4.75121E-03-5.97821E-03 2.33236E-03-4.27059E-14-5.33986E-13
 -1      1209 2.04758E+01-6.13232E-03-8.03298E-03 2.64023E-03 6.93819E-15-2.91707E-13
 -1      1210 2.07129E+01-7.62837E-03-1.03834E-02 2.70673E-03 7.55711E-15-3.38915E-13
 -1      1211 2.10220E+01-9.08308E-03-1.28985E-02 2.34942E-03 5.09835E-15-5.61006E-13
 -1      1212 2.14185E+01-1.01765E-02-1.52403E-02 1.28522E-03 1.71987E-15-5.38434E-13
 -1      1213 2.19157E+01-1.03260E-02-1.66959E-02-8.93727E-04-2.93251E-14-2.60186E-13
 -1      1214 2.25199E+01-8.57438E-03-1.59383E-02-4.70795E-03-2.20482E-14-1.94776E-13
 -1      1215 2.32217E+01-3.53957E-03-1.07765E-02-1.06688E-02 4.01591E-14-4.68736E-13
 -1      1216 2.39828E+01 6.38436E-03 1.85780E-03-1.89101E-02-6.94003E-15-4.36970E-13
 -1      1217 2.47167E+01 2.22198E-02 2.50966E-02-2.83968E-02 2.02674E-14-5.28962E-13
 -1      1218 2.52695E+01 4.25740E-02 5.95289E-02-3.56850E-02-2.32045E-14-3.66039E-13
 -1      1219 2.54157E+01 6.09838E-02 9.82810E-02-3.39302E-02-1.08091E-14-8.06299E-15
 -1      1220 2.48995E+01 6.48551E-02 1.22213E-01-1.43132E-02 1.16608E-14 4.06709E-13
 -1      1221 2.35590E+01 4.07455E-02 1.03132E-01 2.73483E-02-4.12864E-15 4.73302E-13
 -1      1222 2.15222E+01-1.17331E-02 2.36382E-02 8.01227E-02-2.41142E-14 7.21673E-13
 -1      1223 1.93478E+01-6.80311E-02-9.37362E-02 1.14526E-01 1.87623E-14 3.45945E-13
 -1      1224 1.78882E+01-9.13782E-02-1.82740E-01 1.00802E-01 1.21481E-13-3.46306E-13
 -1      1225 1.78079E+01-6.82961E-02-1.83700E-01 3.83862E-02-2.83020E-14-2.01710E-13
 -1      1226 1.91090E+01-2.02714E-02-1.00128E-01-3.79502E-02 3.74050E-14-3.06005E-13
 -1      1227 2.11309E+01 2.08478E-02 7.79860E-03-8.73610E-02-3.10250E-15-6.62359E-13
 -1      1228 2.30185E+01 3.99195E-02 8.11087E-02-9.43934E-02-1.27021E-14-5.96231E-13
 -1      1229 2.42010E+01 4.01107E-02 1.01904E-01-7.11574E-02-6.67895E-14-1.32977E-13
 -1      1230 2.45370E+01 3.07234E-02 8.58048E-02-3.82346E-02 1.64205E-14-3.84848E-13
 -1      1231 2.41809E+01 1.88591E-02 5.57950E-02-9.56072E-03 1.32533E-14-6.67293E-13
 -1      1232 2.33909E+01 7.71810E-03 2.65982E-02 1.03197E-02 4.24513E-14-4.94809E-13
 -1      1233 2.24094E+01-2.37708E-03 2.54727E-03 2.23912E-02 1.92807E-14-9.80632E-13
 -1      1234 2.14265E+01-1.24878E-02-1.84456E-02 2.90475E-02-1.03381E-14-1.00137E-12
 -1      1235 2.05952E+01-2.24868E-02-3.77208E-02 3.03382E-02 4.12758E-14-1.20933E-12
 -1      1236 2.00667E+01-2.39675E-02-4.05724E-02 1.90532E-02 1.19250E-13-1.45072E-12
 -1      1237 1.99654E+01 1.21775E-02 2.54071E-02-1.25446E-02 4.83997E-14-1.14279E-12
 -1      1238 2.00124E+01-3.55518E-02 2.36517E-02-1.13125E-02-1.17933E-12-1.87504E-13
 -1      1239 1.99715E+01 7.63935E-02-4.23741E-02-2.42798E-03-1.52553E-12 5.86011E-15
 -1      1240 1.99762E+01 5.98170E-01-3.87637E-02 2.20501E-02-2.61745E-13 6.50829E-14
 -1      1241 1.99893E+01 1.39484E+00-1.74593E-02 3.14263E-02 5.95236E-13-4.58797E-14
 -1      1242 2.00041E+01 2.30181E+00 4.91377E-03 3.30274E-02 6.38017E-13-1.09979E-13
 -1      1243 2.00180E+01 3.16548E+00 2.48982E-02 2.90681E-02-4.42608E-13-7.53416E-14
 -1      1244 2.00294E+01 3.86311E+00 4.05729E-02 2.12402E-02-6.82801E-13-4.56471E-14
 -1      1245 2.00365E+01 4.29391E+00 5.01094E-02 9.61893E-03-3.11121E-13-2.40827E-14
 -1      1246 2.00374E+01 4.38601E+00 5.12437E-02-3.35012E-03-6.29196E-13 1.51524E-14
 -1      1247 2.00322E+01 4.13164E+00 4.39619E-02-1.53069E-02-8.62817E-14 6.97012E-14
 -1      1248 2.00221E+01 3.58000E+00 3.02553E-02-2.42045E-02-1.02694E-12-1.94715E-13
 -1      1249 2.00104E+01 2.83035E+00 1.35571E-02-2.89766E-02-1.69693E-12-1.39509E-14
 -1      1250 1.99977E+01 1.98982E+00-3.84048E-03-2.95301E-02-1.32715E-12-1.40753E-13
 -1      1251 1.99862E+01 1.16475E+00-2.14953E-02-2.63193E-02-7.36550E-13 3.35181E-14
 -1      1252 1.99761E+01 4.67634E-01-3.96250E-02-2.09354E-02-2.61539E-13-1.50702E-14
 -1      1253 1.99670E+01 6.26345E-02-3.50271E-02 1.06588E-02 4.00925E-14-1.24583E-13
 -1      1254 2.00127E+01-3.45777E-02 2.21553E-02 1.09877E-02-8.71178E-14 1.24267E-13
 -1      1255-1.18124E+00-2.48960E+01-3.85955E+00-2.27659E+00 9.80604E-13-1.80179E-13
 -1      1256-1.90245E+00-1.59870E+01-3.17755E+00-4.19302E+00 7.32525E-13 3.23519E-13
 -1      1257 2.30437E-02-3.25175E+00-1.97502E+00-5.15062E-01 3.79696E-13 2.08500E-13
 -1      1258 8.35472E+00 7.07887E+00-3.62693E-01 7.57468E+00 4.32987E-14 9.54792E-14
 -1      1259 2.49640E+01 1.10048E+01 1.33649E+00 1.57154E+01 2.02061E-14-3.81917E-14
 -1      1260 4.65145E+01 8.13085E+00 2.96492E+00 1.79561E+01-2.63845E-13-5.51781E-13
 -1      1261 6.29674E+01 3.45570E+00 4.05540E+00 1.06081E+01-2.04059E-13-8.69083E-13
 -1      1262 6.77305E+01 1.77611E+00 4.37560E+00-2.09928E+00 1.43885E-13-1.81830E-12
 -1      1263 5.75219E+01 5.10542E+00 3.72256E+00-1.37829E+01 7.17121E-13-2.48968E-12
 -1      1264 3.80076E+01 9.75195E+00 2.39082E+00-1.79781E+01 8.48210E-13-1.96998E-12
 -1      1265 1.78714E+01 1.03869E+01 6.46340E-01-1.31835E+01 1.08247E-12-1.37490E-12
 -1      1266 4.11827E+00 3.77989E+00-1.04922E+00-4.14157E+00 1.68154E-12-1.29785E-12
 -1      1267-1.34755E+00-8.09883E+00-2.47191E+00 2.73067E+00 2.14784E-12-1.05627E-12
 -1      1268-1.70369E+00-1.96639E+01-3.43422E+00 4.04122E+00 1.65556E-12-5.72098E-13
 -1      1269-1.03246E+00-2.52122E+01-3.79946E+00 6.53723E-01 9.56291E-13-8.85750E-14
 -1      1270-1.42372E+00-2.18118E+01-3.56553E+00-3.43722E+00-4.23328E-13-2.78555E-13
 -1      1271-1.60615E+00-1.07445E+01-2.66144E+00-3.21728E+00-1.87628E-12-9.01446E-13
 -1      1272 2.54356E+00 1.77999E+00-1.35189E+00 2.63762E+00-1.72751E-12-1.15796E-12
 -1      1273 1.55384E+01 1.00069E+01 4.35355E-01 1.21307E+01-1.42375E-12-1.60938E-12
 -1      1274 3.63355E+01 1.00595E+01 2.28231E+00 1.79067E+01-1.07625E-12-1.97442E-12
 -1      1275 5.62177E+01 5.36733E+00 3.60323E+00 1.42088E+01-6.42819E-13-1.90481E-12
 -1      1276 6.68567E+01 1.79199E+00 4.23336E+00 2.92619E+00-1.45897E-13-9.29506E-13
 -1      1277 6.30917E+01 3.05851E+00 3.98699E+00-1.00269E+01-2.94459E-13 7.75824E-13
 -1      1278 4.68003E+01 8.10065E+00 3.00488E+00-1.75820E+01-7.48346E-13 1.88538E-12
 -1      1279 2.61676E+01 1.12713E+01 1.53934E+00-1.62963E+01-8.12905E-13 1.22946E-12
 -1      1280 9.27014E+00 7.85018E+00-2.19819E-01-8.41168E+00-3.38396E-13 4.09006E-13
 -1      1281 2.41348E-01-2.65926E+00-1.86606E+00 2.14577E-01 5.93525E-13-3.99680E-13
 -1      1282-1.83555E+00-1.56942E+01-3.12130E+00 4.16653E+00 1.02873E-12-3.44558E-13
 -1      1283-1.15002E+00-2.46965E+01-3.81570E+00 2.26238E+00 1.17550E-12-2.45623E-13
 -1      1284 2.22649E+01 1.83808E+00-7.25845E-01-2.79101E+00-7.42739E-14 1.48315E-12
 -1      1285 2.03575E+01 4.68985E+00-4.87667E-02-3.30782E+00-2.28317E-13-1.95330E-14
 -1      1286 2.08649E+01 4.81035E+00-1.13425E-01-4.16195E+00-2.93210E-13 3.29292E-13
 -1      1287 1.95299E+01 4.99373E+00-1.97173E-02-2.65574E+00-2.34368E-13-5.11827E-13
 -1      1288 1.98278E+01 5.09001E+00-7.16731E-06-3.04649E+00-2.63685E-13-2.97304E-13
 -1      1289 2.05241E+01 3.95264E+00-2.60097E-02-3.07552E+00-4.04444E-13-2.23155E-14
 -1      1290 1.91847E+01 5.08405E+00-3.37933E-03-2.07210E+00-1.91978E-13-7.55805E-13
 -1      1291 1.93324E+01 5.13909E+00 1.04984E-02-2.36543E+00-2.20175E-13-6.45848E-13
 -1      1292 1.97539E+01 4.36698E+00-2.38693E-02-2.49170E+00-3.68504E-13-4.26360E-13
 -1      1293 1.90097E+01 5.13100E+00 3.49045E-03-1.56576E+00-1.40553E-13-8.74517E-13
 -1      1294 1.90873E+01 5.16057E+00 1.28036E-02-1.81580E+00-1.64051E-13-8.19365E-13
 -1      1295 1.93928E+01 4.55494E+00-1.94927E-02-1.93263E+00-2.92905E-13-6.37129E-13
 -1      1296 1.89167E+01 5.16077E+00 6.58815E-03-1.11803E+00-9.43733E-14-9.31864E-13
 -1      1297 1.89587E+01 5.17702E+00 1.27736E-02-1.33958E+00-1.13009E-13-9.03588E-13
 -1      1298 1.92064E+01 4.66131E+00-1.60456E-02-1.44584E+00-2.11318E-13-7.34079E-13
 -1      1299 1.88658E+01 5.18062E+00 8.21568E-03-6.94484E-01-5.83839E-14-9.56634E-13
 -1      1300 1.88885E+01 5.18940E+00 1.20115E-02-9.04849E-01-6.90645E-14-9.48982E-13
 -1      1301 1.91043E+01 4.72667E+00-1.39984E-02-1.00514E+00-1.37136E-13-7.92123E-13
 -1      1302 1.88422E+01 5.19258E+00 9.31119E-03-2.89456E-01-1.86006E-14-9.58617E-13
 -1      1303 1.88520E+01 5.19637E+00 1.10829E-02-4.91741E-01-3.20876E-14-9.55055E-13
 -1      1304 1.90491E+01 4.76565E+00-1.29243E-02-5.89325E-01-7.70117E-14-8.00974E-13
 -1      1305 1.88386E+01 5.19753E+00 1.02411E-02 1.08306E-01 1.75813E-14-9.49872E-13
 -1      1306 1.88382E+01 5.19740E+00 1.01697E-02-9.15382E-02 5.27226E-15-9.53985E-13
 -1      1307 1.90252E+01 4.78368E+00-1.24746E-02-1.89281E-01-7.35712E-15-8.07909E-13
 -1      1308 1.88537E+01 5.19602E+00 1.11759E-02 5.09093E-01 5.83036E-14-9.35103E-13
 -1      1309 1.88432E+01 5.19195E+00 9.24760E-03 3.06389E-01 4.34992E-14-9.46392E-13
 -1      1310 1.90261E+01 4.78305E+00-1.24916E-02 2.05956E-01 4.89699E-14-8.04055E-13
 -1      1311 1.88919E+01 5.18825E+00 1.21049E-02 9.23681E-01 9.50602E-14-9.05543E-13
 -1      1312 1.88683E+01 5.17930E+00 8.15618E-03 7.12356E-01 8.09752E-14-9.23846E-13
 -1      1313 1.90517E+01 4.76359E+00-1.29777E-02 6.06684E-01 1.14952E-13-7.85018E-13
 -1      1314 1.89631E+01 5.17516E+00 1.29040E-02 1.35715E+00 1.32096E-13-8.39150E-13
 -1      1315 1.89202E+01 5.15852E+00 6.46914E-03 1.13415E+00 1.18008E-13-8.80674E-13
 -1      1316 1.91086E+01 4.72313E+00-1.40006E-02 1.02030E+00 1.77408E-13-7.45279E-13
 -1      1317 1.90950E+01 5.15659E+00 1.28230E-02 1.84198E+00 1.88983E-13-7.23255E-13
 -1      1318 1.90159E+01 5.12636E+00 3.15989E-03 1.58911E+00 1.64868E-13-7.91362E-13
 -1      1319 1.92134E+01 4.65473E+00-1.61458E-02 1.46364E+00 2.45154E-13-6.62172E-13
 -1      1320 1.93429E+01 5.13323E+00 1.01554E-02 2.39911E+00 2.43104E-13-5.22488E-13
 -1      1321 1.91932E+01 5.07624E+00-4.36838E-03 2.10183E+00 2.17246E-13-6.45296E-13
 -1      1322 1.94052E+01 4.54227E+00-1.99860E-02 1.95946E+00 3.30885E-13-5.37941E-13
 -1      1323 1.98537E+01 5.09912E+00 6.01876E-03 3.08510E+00 2.87256E-13-1.41755E-13
 -1      1324 1.95420E+01 4.98423E+00-2.05453E-02 2.69781E+00 2.53457E-13-3.72251E-13
 -1      1325 1.97736E+01 4.34626E+00-2.45681E-02 2.52934E+00 4.03342E-13-2.94868E-13
 -1      1326 2.11010E+01 4.90673E+00 8.27453E-03 4.05485E+00 2.62068E-13 5.94094E-13
 -1      1327 2.03322E+01 4.73362E+00-4.79865E-02 3.41738E+00 2.49301E-13 1.45120E-13
 -1      1328 2.05625E+01 3.91581E+00-2.24283E-02 3.17956E+00 4.34177E-13 1.33199E-13
 -1      1329 2.72007E+01 3.20532E+00 9.29092E-01 4.58271E+00 1.36988E-13 2.01894E-12
 -1      1330 2.20177E+01 3.52204E+00-1.82013E-01 3.88571E+00 1.39055E-13 1.02215E-12
 -1      1331 2.21098E+01 2.56176E+00-3.25775E-02 3.45753E+00 4.26478E-13 8.00637E-13
 -1      1332 2.14242E+01 3.59628E-01-7.63523E-01 1.18434E+00 2.40273E-13 1.92435E-12
 -1      1333 2.19985E+01 1.31341E-01-4.00862E-01-1.28632E+00-2.29441E-13 1.55501E-12
 -1      1334 2.06752E+01 3.06758E-01-1.64816E-01-8.06310E-01-2.13940E-13 1.28586E-12
 -1      1335 2.00771E+01 1.53525E-01-7.35333E-02-4.02579E-01-1.73042E-13 1.16592E-12
 -1      1336 1.96068E+01 9.12210E-02-1.49094E-02-3.30391E-01-1.68345E-13 9.06421E-13
 -1      1337 2.09693E+01 3.69356E-01-1.04174E-01-1.27491E+00-3.77962E-13 6.62734E-13
 -1      1338 1.92490E+01 6.44948E-02 3.05797E-03-1.35762E-01-1.36124E-13 8.13669E-13
 -1      1339 1.90941E+01 4.12419E-02 1.32464E-02-1.17977E-01-1.18079E-13 6.25104E-13
 -1      1340 1.99177E+01 1.33907E-01-3.51106E-02-5.04803E-01-2.87277E-13 4.88177E-13
 -1      1341 1.89333E+01 3.14990E-02 1.32629E-02-2.85181E-02-7.16454E-14 5.51802E-13
 -1      1342 1.89133E+01 1.93649E-02 1.10702E-02-1.91562E-02-7.13609E-14 4.45290E-13
 -1      1343 1.94397E+01 5.54131E-02-8.48950E-03-1.70920E-01-2.01325E-13 3.31780E-13
 -1      1344 1.88567E+01 1.59874E-02 8.78684E-03 2.44404E-02-6.83262E-14 4.00874E-13
 -1      1345 1.88983E+01 9.06127E-03 6.43774E-03 2.90578E-02-6.39723E-14 3.15869E-13
 -1      1346 1.92299E+01 2.43508E-02-3.50319E-03-1.22180E-02-1.39122E-13 2.09332E-13
 -1      1347 1.88979E+01 7.83762E-03 4.68233E-03 5.01891E-02-5.31927E-14 2.65628E-13
 -1      1348 1.89674E+01 3.50032E-03 3.65034E-03 5.20708E-02-5.09463E-14 2.08239E-13
 -1      1349 1.91721E+01 1.01624E-02-2.21759E-03 6.63720E-02-1.25200E-13 1.59629E-13
 -1      1350 1.89964E+01 3.18350E-03 2.45982E-03 6.08648E-02-3.28955E-14 1.70575E-13
 -1      1351 1.90761E+01 3.50679E-04 2.22653E-03 6.11315E-02-4.12669E-14 1.12071E-13
 -1      1352 1.91973E+01 2.75637E-03-1.32625E-03 1.03164E-01-7.88941E-14 8.67353E-14
 -1      1353 1.91192E+01 4.66975E-04 1.35646E-03 6.28739E-02-6.94045E-14 1.03464E-13
 -1      1354 1.91993E+01-1.40429E-03 1.46262E-03 6.22061E-02-7.13771E-14 2.20587E-14
 -1      1355 1.92655E+01-1.28899E-03-5.70154E-04 1.16506E-01-1.09384E-13 1.39903E-14
 -1      1356 1.92476E+01-1.07060E-03 7.79438E-04 5.99794E-02-5.69428E-14-3.83634E-15
 -1      1357 1.93227E+01-2.28583E-03 1.00396E-03 5.88195E-02-6.72580E-14-8.50925E-14
 -1      1358 1.93531E+01-3.42796E-03-2.53404E-05 1.16440E-01-1.08104E-13-5.20433E-14
 -1      1359 1.93710E+01-1.84637E-03 4.52564E-04 5.45613E-02-7.74449E-14-1.00802E-13
 -1      1360 1.94384E+01-2.59479E-03 7.05664E-04 5.32067E-02-1.67418E-14-1.88502E-13
 -1      1361 1.94464E+01-4.38523E-03 3.05549E-04 1.09027E-01-1.11757E-13-5.69516E-14
 -1      1362 1.94839E+01-2.11079E-03 2.60014E-04 4.81927E-02 1.65424E-14-2.35808E-13
 -1      1363 1.95429E+01-2.51792E-03 5.07400E-04 4.68469E-02-3.57718E-14-2.55236E-13
 -1      1364 1.95373E+01-4.57160E-03 4.64708E-04 9.81593E-02-4.92935E-14-1.46391E-13
 -1      1365 1.95845E+01-2.02133E-03 1.49295E-04 4.19448E-02-9.05421E-14-2.47870E-13
 -1      1366 1.96355E+01-2.17373E-03 3.79463E-04 4.07500E-02-5.16464E-14-3.69826E-13
 -1      1367 1.96220E+01-4.23807E-03 4.97373E-04 8.64417E-02-8.89100E-14-2.63768E-13
 -1      1368 1.96732E+01-1.67730E-03 9.22025E-05 3.65710E-02 1.54290E-15-3.59717E-13
 -1      1369 1.97174E+01-1.63543E-03 3.04221E-04 3.56302E-02 9.31332E-15-3.46263E-13
 -1      1370 1.96992E+01-3.54031E-03 4.38154E-04 7.56738E-02-4.00776E-14-3.13364E-13
 -1      1371 1.97519E+01-1.13826E-03 7.09922E-05 3.26291E-02 1.37572E-14-3.63164E-13
 -1      1372 1.97912E+01-9.44377E-04 2.69783E-04 3.20231E-02-3.61581E-14-3.36747E-13
 -1      1373 1.97696E+01-2.57024E-03 3.10167E-04 6.71533E-02-2.09400E-14-3.24087E-13
 -1      1374 1.98239E+01-4.35225E-04 7.30980E-05 3.05679E-02-6.94355E-14-3.24979E-13
 -1      1375 1.98607E+01-1.18897E-04 2.67368E-04 3.03678E-02-5.47247E-14-4.12421E-13
 -1      1376 1.98352E+01-1.37414E-03 1.27264E-04 6.18812E-02-6.98224E-14-3.64437E-13
 -1      1377 1.98935E+01 4.21558E-04 8.85747E-05 3.07903E-02-2.03853E-14-4.28933E-13
 -1      1378 1.99307E+01 8.38637E-04 2.89752E-04 3.10662E-02-3.10218E-14-4.70719E-13
 -1      1379 1.98994E+01 3.51824E-05-1.03586E-04 6.07073E-02-5.71103E-14-3.73065E-13
 -1      1380 1.99660E+01 1.43602E-03 1.08444E-04 3.36961E-02 2.21182E-14-4.69343E-13
 -1      1381 2.00069E+01 1.93516E-03 3.29996E-04 3.45237E-02 4.48628E-14-4.43449E-13
 -1      1382 1.99661E+01 1.66831E-03-3.80195E-04 6.44321E-02 2.69793E-15-3.70029E-13
 -1      1383 2.00474E+01 2.61946E-03 1.23364E-04 3.97068E-02-1.53995E-15-4.25542E-13
 -1      1384 2.00960E+01 3.17927E-03 3.80163E-04 4.11700E-02-2.01445E-14-4.39897E-13
 -1      1385 2.00404E+01 3.54897E-03-7.03146E-04 7.38706E-02 3.17220E-14-3.90852E-13
 -1      1386 2.01450E+01 3.98197E-03 1.22415E-04 4.92681E-02-4.35612E-14-4.24164E-13
 -1      1387 2.02056E+01 4.57102E-03 4.29847E-04 5.14573E-02-7.84620E-14-5.04274E-13
 -1      1388 2.01281E+01 5.70128E-03-1.07354E-03 8.98749E-02-6.03029E-14-3.78133E-13
 -1      1389 2.02665E+01 5.52037E-03 9.20007E-05 6.28224E-02-3.61824E-14-4.64649E-13
 -1      1390 2.03442E+01 6.08717E-03 4.64517E-04 6.58265E-02-4.56792E-14-5.61853E-13
 -1      1391 2.02358E+01 8.13137E-03-1.49011E-03 1.13304E-01-7.27981E-14-3.57695E-13
 -1      1392 2.04210E+01 7.19975E-03 1.51161E-05 8.07370E-02 4.29639E-14-5.19531E-13
 -1      1393 2.05211E+01 7.65865E-03 4.63927E-04 8.46247E-02 7.93982E-14-4.43418E-13
 -1      1394 2.03707E+01 1.07992E-02-1.94526E-03 1.44918E-01 4.44944E-14-4.32991E-13
 -1      1395 2.06177E+01 8.92481E-03-1.28269E-04 1.03164E-01-9.04767E-15-4.32050E-13
 -1      1396 2.07458E+01 9.13646E-03 4.01463E-04 1.07950E-01-4.06356E-14-4.77985E-13
 -1      1397 2.05406E+01 1.35739E-02-2.41898E-03 1.85159E-01 3.68828E-14-3.99906E-13
 -1      1398 2.08660E+01 1.04959E-02-3.58029E-04 1.29798E-01-4.79925E-14-4.92396E-13
 -1      1399 2.10271E+01 1.02414E-02 2.46490E-04 1.35383E-01-4.25412E-14-5.53255E-13
 -1      1400 2.07530E+01 1.61636E-02-2.86982E-03 2.33764E-01-7.41850E-14-3.20238E-13
 -1      1401 2.11736E+01 1.15444E-02-6.84725E-04 1.59482E-01-3.19694E-14-4.79781E-13
 -1      1402 2.13712E+01 1.04955E-02-2.63747E-05 1.65558E-01-4.24604E-14-4.99152E-13
 -1      1403 2.10144E+01 1.80116E-02-3.22104E-03 2.89121E-01-4.75486E-14-2.85710E-13
 -1      1404 2.15450E+01 1.14477E-02-1.08940E-03 1.89611E-01-3.85644E-14-5.50013E-13
 -1      1405 2.17788E+01 9.14243E-03-4.15058E-04 1.95511E-01-4.76048E-14-5.47652E-13
 -1      1406 2.13286E+01 1.81531E-02-3.34058E-03 3.47290E-01-7.02802E-14-3.20759E-13
 -1      1407 2.19769E+01 9.23684E-03-1.48678E-03 2.15312E-01 4.86037E-15-5.55362E-13
 -1      1408 2.22402E+01 5.08984E-03-8.49261E-04 2.19808E-01 6.35962E-14-4.84389E-13
 -1      1409 2.16940E+01 1.50562E-02-3.01520E-03 4.00610E-01-3.82678E-14-2.69539E-13
 -1      1410 2.24540E+01 3.55516E-03-1.67193E-03 2.28481E-01 3.93031E-14-5.06314E-13
 -1      1411 2.27291E+01-3.03562E-03-1.13494E-03 2.29554E-01-1.44282E-14-4.70592E-13
 -1      1412 2.21002E+01 6.52920E-03-1.92604E-03 4.35990E-01 2.87481E-14-3.42130E-13
 -1      1413 2.29415E+01-7.19511E-03-1.27296E-03 2.17067E-01 6.04820E-14-4.63286E-13
 -1      1414 2.31946E+01-1.65322E-02-9.14629E-04 2.11763E-01 3.78838E-14-3.91154E-13
 -1      1415 2.25231E+01-1.00821E-02 3.49087E-04 4.33384E-01 6.80831E-14-4.41650E-13
 -1      1416 2.33776E+01-2.42449E-02 2.22807E-04 1.65556E-01 1.52421E-14-3.05398E-13
 -1      1417 2.35558E+01-3.56652E-02 2.75179E-04 1.50222E-01 2.46435E-14-3.13032E-13
 -1      1418 2.29199E+01-3.69729E-02 4.24780E-03 3.65798E-01 8.01859E-14-3.50688E-13
 -1      1419 2.36695E+01-4.70192E-02 3.23700E-03 5.84617E-02-7.56556E-14-2.53240E-13
 -1      1420 2.37019E+01-5.78592E-02 2.71198E-03 2.99183E-02-5.36376E-14-2.30540E-13
 -1      1421 2.32252E+01-7.36255E-02 9.94876E-03 2.03589E-01 2.65231E-14-2.42082E-13
 -1      1422 2.36992E+01-7.07608E-02 7.52132E-03-1.10845E-01 1.78087E-14-1.72743E-13
 -1      1423 2.35113E+01-7.54558E-02 5.87300E-03-1.52599E-01-2.00751E-14-2.10325E-13
 -1      1424 2.33541E+01-1.13017E-01 1.67894E-02-7.29680E-02-6.18845E-14-1.94604E-13
 -1      1425 2.33501E+01-8.44019E-02 1.13728E-02-3.25407E-01 3.13109E-14-2.32599E-13
 -1      1426 2.28967E+01-7.51477E-02 7.89443E-03-3.73186E-01-2.25514E-15-2.41890E-13
 -1      1427 2.32164E+01-1.38030E-01 2.24222E-02-4.50239E-01-3.32824E-14-2.36186E-13
 -1      1428 2.25642E+01-7.19432E-02 1.16639E-02-5.30134E-01-4.37358E-14-2.22600E-13
 -1      1429 2.18758E+01-4.28995E-02 5.91690E-03-5.66780E-01-8.83026E-14-3.33511E-13
 -1      1430 2.27519E+01-1.23317E-01 2.24749E-02-8.52984E-01 1.80758E-15-1.87564E-13
 -1      1431 2.14180E+01-2.20255E-02 5.53906E-03-6.34146E-01-8.27485E-14-1.94768E-13
 -1      1432 2.06370E+01 2.31632E-02-1.78623E-03-6.36676E-01 3.86488E-14-2.31926E-13
 -1      1433 2.19852E+01-4.90790E-02 1.23214E-02-1.13443E+00-7.67121E-14-1.30538E-14
 -1      1434 2.01737E+01 5.60307E-02-6.17426E-03-5.49993E-01 1.87524E-14-3.73687E-13
 -1      1435 1.95345E+01 9.97157E-02-1.27649E-02-5.04304E-01-5.68764E-14-3.14915E-13
 -1      1436 2.10750E+01 7.46899E-02-8.47871E-03-1.12152E+00-4.09178E-14-1.37442E-14
 -1      1437 1.92284E+01 1.25462E-01-1.71887E-02-2.62972E-01 7.92699E-14-3.17458E-13
 -1      1438 1.89611E+01 1.43898E-01-2.00076E-02-1.80787E-01 1.87024E-13-1.13199E-13
 -1      1439 2.03056E+01 1.95833E-01-3.14164E-02-7.26155E-01-1.07189E-14-1.15291E-13
 -1      1440 1.89339E+01 1.43739E-01-1.99235E-02 1.26417E-01 8.25902E-14-2.23628E-13
 -1      1441 1.91352E+01 1.25576E-01-1.74717E-02 2.08628E-01 3.85282E-14-1.27794E-13
 -1      1442 1.99711E+01 2.46840E-01-4.16433E-02-5.33361E-02 8.28504E-14-1.75124E-13
 -1      1443 1.93868E+01 9.94037E-02-1.28352E-02 4.49647E-01 2.99422E-14 4.17132E-14
 -1      1444 1.99593E+01 5.57853E-02-6.63779E-03 4.95290E-01 4.55287E-14 3.05173E-14
 -1      1445 2.01989E+01 1.95464E-01-3.16648E-02 6.19132E-01 1.13702E-13-1.59463E-13
 -1      1446 2.03672E+01 2.21577E-02-1.80374E-03 5.80517E-01-3.91190E-14-4.19803E-15
 -1      1447 2.10792E+01-2.32533E-02 5.24364E-03 5.77463E-01-9.56664E-14-1.37314E-13
 -1      1448 2.08608E+01 7.34711E-02-8.58252E-03 1.01264E+00 2.99517E-14-4.35554E-14
 -1      1449 2.14789E+01-4.51848E-02 6.20028E-03 5.06204E-01-2.04385E-14-2.31454E-13
 -1      1450 2.20920E+01-7.44339E-02 1.16916E-02 4.68227E-01-1.36526E-13-3.60302E-13
 -1      1451 2.16604E+01-5.20500E-02 1.27676E-02 1.01936E+00-1.71523E-13-3.45278E-13
 -1      1452 2.23609E+01-7.86314E-02 8.47592E-03 3.04779E-01-1.98570E-13-3.63709E-13
 -1      1453 2.27291E+01-8.76805E-02 1.16474E-02 2.55023E-01-1.29308E-13-5.69503E-13
 -1      1454 2.23086E+01-1.28447E-01 2.33607E-02 7.25404E-01-2.09719E-13-4.36916E-13
 -1      1455 2.28195E+01-7.94428E-02 6.68718E-03 7.44182E-02-5.50861E-15-5.63299E-13
 -1      1456 2.29100E+01-7.38559E-02 7.97539E-03 3.05078E-02 9.07087E-14-5.74387E-13
 -1      1457 2.26420E+01-1.44452E-01 2.34161E-02 3.05385E-01-4.79616E-14-3.83069E-13
 -1      1458 2.28354E+01-6.12196E-02 3.74504E-03-1.17017E-01 1.67366E-14-4.57796E-13
 -1      1459 2.26949E+01-4.86159E-02 3.89956E-03-1.47238E-01-2.83653E-14-4.83332E-13
 -1      1460 2.26353E+01-1.18909E-01 1.76439E-02-8.94793E-02 5.32647E-14-4.69874E-13
 -1      1461 2.25008E+01-3.69407E-02 1.47037E-03-2.41651E-01 4.04477E-14-4.73163E-13
 -1      1462 2.22100E+01-2.26778E-02 9.68732E-04-2.57380E-01-1.17098E-14-4.56447E-13
 -1      1463 2.23522E+01-7.65683E-02 1.03387E-02-3.77485E-01 5.80994E-14-4.59742E-13
 -1      1464 2.19506E+01-1.36591E-02 1.19683E-04-2.98001E-01 1.18382E-14-4.58449E-13
 -1      1465 2.15935E+01-1.38190E-04-8.84943E-04-3.01223E-01 7.05964E-14-4.76430E-13
 -1      1466 2.18929E+01-3.35869E-02 3.66323E-03-5.36562E-01-3.74748E-14-2.85601E-13
 -1      1467 2.13194E+01 6.90860E-03-1.10411E-03-2.94225E-01 4.67196E-14-5.46518E-13
 -1      1468 2.09715E+01 1.91562E-02-2.52423E-03-2.86762E-01 4.11314E-14-5.60012E-13
 -1      1469 2.13595E+01 4.59934E-03-1.95230E-03-5.74982E-01 6.03316E-14-2.30209E-13
 -1      1470 2.07257E+01 2.58457E-02-3.16254E-03-2.37948E-01 1.99730E-13-6.14966E-13
 -1      1471 2.04548E+01 3.64641E-02-3.71533E-03-2.19982E-01 1.63423E-13-3.61965E-13
 -1      1472 2.08426E+01 3.95561E-02-6.51315E-03-5.07456E-01 1.65626E-13-4.45486E-13
 -1      1473 2.02672E+01 4.63124E-02-4.20539E-03-1.33547E-01 1.37109E-13-2.40862E-13
 -1      1474 2.01282E+01 4.56273E-02-3.99060E-04-1.07614E-01 1.36122E-13-4.31634E-14
 -1      1475 2.04123E+01 7.51759E-02-8.88807E-03-3.48611E-01 2.44302E-13-5.19637E-13
 -1      1476 2.00007E+01 1.59947E-02 1.80201E-03 4.10659E-03-1.11244E-13 9.39760E-14
 -1      1477 2.00888E+01 7.75272E-02-4.24219E-03-1.03399E-01 6.06058E-14-1.11973E-13
 -1      1478 2.02560E+01 7.54810E-02-1.52109E-01 4.84260E-01 1.89935E-13 1.48147E-12
 -1      1479 2.15269E+01 2.16120E-01-2.29290E-01 7.21269E-01 1.68476E-13 1.79887E-12
 -1      1480 2.17256E+01 8.81832E-01-8.54489E-02 2.06559E+00 3.42268E-13 1.13831E-12
 -1      1481 1.93267E+01 3.23749E-02-2.13390E-02 1.86423E-01 1.33260E-13 1.12093E-12
 -1      1482 1.97479E+01 1.13605E-01-6.27109E-02 2.38426E-01 1.34965E-13 1.33577E-12
 -1      1483 2.02996E+01 1.87693E-01-5.51839E-02 7.86940E-01 2.88242E-13 8.63729E-13
 -1      1484 1.89438E+01 1.50953E-02 5.66647E-03 5.39563E-02 1.03447E-13 8.34870E-13
 -1      1485 1.90830E+01 5.16054E-02 9.72135E-04 8.02530E-02 9.81437E-14 1.00825E-12
 -1      1486 1.95537E+01 7.18278E-02-1.21479E-02 2.99793E-01 2.19364E-13 6.39778E-13
 -1      1487 1.88322E+01 7.10938E-03 6.97858E-03-8.49389E-03 6.54255E-14 6.45380E-13
 -1      1488 1.88474E+01 2.58345E-02 1.10869E-02 5.88455E-03 6.96613E-14 7.64291E-13
 -1      1489 1.92173E+01 3.10159E-02-2.45346E-03 8.43734E-02 1.53319E-13 4.63508E-13
 -1      1490 1.88569E+01 3.19752E-03 4.78708E-03-3.86930E-02 4.32521E-14 5.40104E-13
 -1      1491 1.88138E+01 1.37789E-02 8.52086E-03-3.06006E-02 3.90534E-14 5.90901E-13
 -1      1492 1.90997E+01 1.32399E-02-1.60608E-03-2.05196E-02 1.00524E-13 3.54742E-13
 -1      1493 1.89495E+01 1.04825E-03 3.29857E-03-5.20801E-02 3.51548E-14 4.57104E-13
 -1      1494 1.88799E+01 7.25351E-03 5.37017E-03-4.76350E-02 3.61963E-14 4.97460E-13
 -1      1495 1.90998E+01 4.51797E-03-1.62013E-03-7.19235E-02 7.81604E-14 2.66526E-13
 -1      1496 1.90724E+01-1.85456E-04 2.51411E-03-5.60301E-02 4.41379E-14 3.82418E-13
 -1      1497 1.89932E+01 3.43374E-03 3.43593E-03-5.38371E-02 2.69750E-14 4.26780E-13
 -1      1498 1.91614E+01-1.13872E-04-1.36507E-03-9.45316E-02 4.51691E-14 2.07529E-13
 -1      1499 1.92038E+01-8.68510E-04 2.04609E-03-5.46080E-02 7.72950E-14 2.38018E-13
 -1      1500 1.91244E+01 1.12912E-03 2.33667E-03-5.38212E-02 6.72720E-14 3.63582E-13
 -1      1501 1.92524E+01-2.59420E-03-9.92588E-04-1.00807E-01 8.99716E-14 1.78747E-13
 -1      1502 1.93315E+01-1.19361E-03 1.69635E-03-5.02941E-02 5.12124E-14 7.71661E-14
 -1      1503 1.92573E+01-2.32413E-04 1.66319E-03-5.03606E-02 6.31159E-14 1.70804E-13
 -1      1504 1.93539E+01-3.80335E-03-6.56923E-04-9.78247E-02 1.18612E-13 1.15973E-13
 -1      1505 1.94491E+01-1.27681E-03 1.39769E-03-4.46916E-02 1.81373E-14 2.04437E-15
 -1      1506 1.93825E+01-9.68322E-04 1.20959E-03-4.52342E-02 1.93285E-14 4.46023E-14
 -1      1507 1.94551E+01-4.21254E-03-4.05708E-04-8.99586E-02 5.50124E-14 9.66555E-15
 -1      1508 1.95540E+01-1.19234E-03 1.13125E-03-3.88733E-02 9.63476E-16-4.49974E-14
 -1      1509 1.94958E+01-1.27190E-03 8.87160E-04-3.96268E-02 2.02441E-14-5.02601E-14
 -1      1510 1.95502E+01-4.10191E-03-2.37837E-04-8.00591E-02 4.22239E-14 1.51916E-14
 -1      1511 1.96462E+01-9.87320E-04 8.91146E-04-3.35798E-02 3.94726E-14-9.62709E-14
 -1      1512 1.95960E+01-1.26561E-03 6.54825E-04-3.43504E-02 1.78046E-14-9.07191E-14
 -1      1513 1.96368E+01-3.64580E-03-1.41375E-04-7.00525E-02 3.76641E-14-3.89625E-14
 -1      1514 1.97273E+01-6.89674E-04 6.73610E-04-2.93452E-02 5.80400E-14-1.88919E-13
 -1      1515 1.96838E+01-1.02600E-03 4.89974E-04-2.99841E-02 6.59626E-14-1.11477E-13
 -1      1516 1.97148E+01-2.95194E-03-1.06050E-04-6.12885E-02 8.69618E-14-8.33496E-14
 -1      1517 1.98005E+01-3.12871E-04 4.74263E-04-2.65854E-02 1.81118E-14-2.77995E-13
 -1      1518 1.97619E+01-5.96917E-04 3.78073E-04-2.69686E-02 3.03097E-14-2.41633E-13
 -1      1519 1.97858E+01-2.08206E-03-1.25931E-04-5.47653E-02 7.98969E-14-1.30371E-13
 -1      1520 1.98699E+01 1.40842E-04 2.87510E-04-2.56632E-02-1.53127E-14-2.98263E-13
 -1      1521 1.98337E+01 2.58562E-06 3.08898E-04-2.56762E-02 1.20100E-14-2.79033E-13
 -1      1522 1.98526E+01-1.06407E-03-1.99582E-04-5.12878E-02 2.18509E-14-1.26476E-13
 -1      1523 1.99407E+01 6.77837E-04 1.06474E-04-2.69380E-02-5.63077E-14-2.80748E-13
 -1      1524 1.99041E+01 7.73001E-04 2.74826E-04-2.64626E-02-4.97455E-14-3.61961E-13
 -1      1525 1.99191E+01 9.96977E-05-3.29825E-04-5.15846E-02-1.96966E-14-1.94349E-13
 -1      1526 2.00192E+01 1.31059E-03-7.69580E-05-3.08028E-02 9.74028E-14-2.70355E-13
 -1      1527 1.99787E+01 1.73007E-03 2.69793E-04-2.97068E-02 4.81468E-14-2.37675E-13
 -1      1528 1.99902E+01 1.42596E-03-5.23484E-04-5.63953E-02 2.01272E-14-2.36948E-13
 -1      1529 2.01127E+01 2.05466E-03-2.72055E-04-3.77086E-02 4.74214E-14-5.70360E-13
 -1      1530 2.00643E+01 2.90043E-03 2.88379E-04-3.58368E-02 8.99847E-14-4.04069E-13
 -1      1531 2.00717E+01 2.94410E-03-7.91063E-04-6.65315E-02 1.72258E-13-2.26359E-13
 -1      1532 2.02297E+01 2.92440E-03-4.89118E-04-4.81729E-02-8.87067E-14-5.42066E-13
 -1      1533 2.01687E+01 4.31589E-03 3.24752E-04-4.53419E-02-3.67604E-14-6.01100E-13
 -1      1534 2.01707E+01 4.68866E-03-1.14614E-03-8.29102E-02 4.27132E-15-3.60000E-13
 -1      1535 2.03803E+01 3.92574E-03-7.38987E-04-6.27638E-02-1.32923E-13-3.19591E-13
 -1      1536 2.03010E+01 6.00426E-03 3.71289E-04-5.87618E-02-1.47560E-13-4.82179E-13
 -1      1537 2.02950E+01 6.68844E-03-1.60400E-03-1.06548E-01-1.89402E-13-2.35768E-13
 -1      1538 2.05757E+01 5.04366E-03-1.03146E-03-8.20455E-02-2.47218E-14-2.67529E-13
 -1      1539 2.04719E+01 7.97324E-03 4.16768E-04-7.66416E-02-1.75845E-14-2.99952E-13
 -1      1540 2.04538E+01 8.94830E-03-2.17862E-03-1.38497E-01-1.21650E-13-2.71069E-13
 -1      1541 2.08285E+01 6.22044E-03-1.37095E-03-1.06453E-01 7.99510E-14-2.96127E-13
 -1      1542 2.06931E+01 1.01814E-02 4.44344E-04-9.94257E-02 3.53381E-14-2.02588E-13
 -1      1543 2.06571E+01 1.14174E-02-2.87637E-03-1.79679E-01 5.87247E-15-1.31971E-13
 -1      1544 2.11514E+01 7.31858E-03-1.74579E-03-1.36050E-01-9.04355E-15-4.67660E-13
 -1      1545 2.09772E+01 1.24870E-02 4.30305E-04-1.27248E-01 4.16243E-14-4.19107E-13
 -1      1546 2.09153E+01 1.39338E-02-3.68322E-03-2.30553E-01 1.00634E-13-2.40518E-13
 -1      1547 2.15562E+01 8.06131E-03-2.10448E-03-1.70082E-01-7.06783E-14-2.92657E-13
 -1      1548 2.13362E+01 1.45618E-02 3.46500E-04-1.59553E-01-5.96322E-14-4.33868E-13
 -1      1549 2.12385E+01 1.61291E-02-4.54031E-03-2.90491E-01-4.07333E-14-2.98626E-13
 -1      1550 2.20500E+01 7.94564E-03-2.30833E-03-2.06236E-01-4.50133E-14-1.85053E-13
 -1      1551 2.17798E+01 1.57552E-02 1.72821E-04-1.94446E-01-2.66681E-14-2.37112E-13
 -1      1552 2.16340E+01 1.72782E-02-5.30011E-03-3.56718E-01-7.54488E-14-1.76326E-13
 -1      1553 2.26298E+01 6.13857E-03-2.05145E-03-2.39466E-01 5.92374E-14-1.54765E-13
 -1      1554 2.23108E+01 1.49096E-02-6.93981E-05-2.27677E-01 1.34799E-14-1.25192E-13
 -1      1555 2.21035E+01 1.60814E-02-5.65595E-03-4.22603E-01-1.87289E-14-8.63693E-14
 -1      1556 2.32739E+01 1.41407E-03-7.59580E-04-2.60412E-01 2.46782E-14-2.85619E-13
 -1      1557 2.29184E+01 1.01760E-02-2.52322E-04-2.51233E-01 7.81976E-14-1.63604E-13
 -1      1558 2.26374E+01 1.04268E-02-5.04978E-03-4.75215E-01 9.34619E-14-4.18554E-14
 -1      1559 2.39291E+01-7.70315E-03 2.45046E-03-2.53803E-01-6.73826E-14-2.33836E-13
 -1      1560 2.35680E+01-9.80850E-04-5.15583E-05-2.51821E-01-9.78144E-14-2.58767E-13
 -1      1561 2.32074E+01-2.69285E-03-2.60934E-03-4.92467E-01-7.52081E-14-1.32151E-14
 -1      1562 2.44971E+01-2.22509E-02 8.52537E-03-1.98250E-01-2.96321E-14-1.09851E-13
 -1      1563 2.41887E+01-2.11459E-02 1.09905E-03-2.10333E-01 2.73531E-14-1.21750E-13
 -1      1564 2.37570E+01-2.66101E-02 2.74412E-03-4.41374E-01-9.56409E-14 7.23041E-14
 -1      1565 2.48268E+01-4.11173E-02 1.75439E-02-7.05401E-02-9.28797E-14-4.70878E-14
 -1      1566 2.46617E+01-5.09367E-02 3.81597E-03-1.04782E-01-1.11255E-13-2.41054E-13
 -1      1567 2.41935E+01-6.28657E-02 1.17220E-02-2.81249E-01-2.90913E-14 4.72096E-14
 -1      1568 2.47292E+01-5.82512E-02 2.68828E-02 1.40728E-01-1.15367E-13 1.68150E-13
 -1      1569 2.48210E+01-8.50318E-02 8.03135E-03 7.91436E-02-1.06474E-13-7.88388E-15
 -1      1570 2.43887E+01-1.06472E-01 2.33442E-02 2.12474E-02-1.78833E-13 1.85919E-15
 -1      1571 2.40400E+01-6.09199E-02 2.95365E-02 4.09938E-01-4.12136E-14 4.31155E-13
 -1      1572 2.44863E+01-1.07818E-01 1.17213E-02 3.26897E-01-7.05894E-14 3.11938E-13
 -1      1573 2.42026E+01-1.39464E-01 3.31933E-02 4.58201E-01-1.64160E-13 2.03689E-13
 -1      1574 2.27394E+01-3.43078E-02 1.60123E-02 6.49508E-01 5.52605E-14 4.28740E-13
 -1      1575 2.35472E+01-9.49697E-02 1.02408E-02 5.70414E-01 7.92613E-14 5.14193E-13
 -1      1576 2.35454E+01-1.29237E-01 3.34225E-02 9.33962E-01 9.01189E-15 4.06869E-13
 -1      1577 2.10869E+01 2.37045E-02-1.70026E-02 7.20394E-01 1.54893E-14 3.66304E-13
 -1      1578 2.20919E+01-2.92232E-02-1.16006E-03 6.87343E-01 1.26722E-15 3.62835E-13
 -1      1579 2.24764E+01-4.50616E-02 1.72491E-02 1.24557E+00 4.14011E-14 2.07119E-13
 -1      1580 1.96397E+01 8.67803E-02-5.56267E-02 5.13557E-01 1.76786E-13 6.87575E-14
 -1      1581 2.05016E+01 7.30669E-02-2.09039E-02 5.60031E-01 1.28141E-13 2.34791E-13
 -1      1582 2.12828E+01 1.04788E-01-1.18660E-02 1.15751E+00 1.88122E-13 4.69451E-14
 -1      1583 1.90197E+01 1.11469E-01-7.16205E-02 7.08089E-02 7.00846E-14-2.51684E-13
 -1      1584 1.93703E+01 1.54671E-01-3.66544E-02 1.86009E-01 1.75644E-13-5.58650E-14
 -1      1585 2.04260E+01 2.44498E-01-3.69743E-02 5.87265E-01 2.92721E-13 1.99944E-14
 -1      1586 1.95076E+01 7.87885E-02-4.97971E-02-3.96286E-01-7.45601E-14-1.04139E-13
 -1      1587 1.91906E+01 1.60687E-01-3.42764E-02-2.69987E-01-6.60704E-14-2.83837E-13
 -1      1588 2.02913E+01 2.73530E-01-4.17915E-02-2.46029E-01-1.15602E-14-1.49116E-13
 -1      1589 2.08300E+01 1.40110E-02-5.43095E-03-6.56540E-01 2.39152E-13-3.74326E-13
 -1      1590 2.00169E+01 9.10691E-02-1.37963E-02-5.80512E-01 1.67379E-13-1.16983E-13
 -1      1591 2.09134E+01 1.64256E-01-2.72771E-02-9.32019E-01 1.52871E-13-3.13815E-13
 -1      1592 2.23608E+01-4.03686E-02 3.16112E-02-6.29432E-01-3.98306E-14-4.25708E-13
 -1      1593 2.14264E+01-2.15424E-03 1.02348E-02-6.24689E-01-2.56865E-14-4.27006E-13
 -1      1594 2.19535E+01-5.51978E-03-7.31949E-03-1.16976E+00 5.98532E-14-2.17937E-13
 -1      1595 2.35283E+01-6.23493E-02 4.49412E-02-4.02658E-01-1.11232E-13-2.31037E-13
 -1      1596 2.28119E+01-6.69196E-02 2.36364E-02-4.48160E-01-3.51212E-14-3.90465E-13
 -1      1597 2.29446E+01-1.31629E-01 6.63120E-03-9.54236E-01-9.64819E-14-2.79325E-14
 -1      1598 2.40621E+01-5.68686E-02 3.82814E-02-1.20550E-01 9.76493E-14-1.79648E-13
 -1      1599 2.37232E+01-8.70686E-02 2.35602E-02-1.82183E-01 4.10262E-15-2.19179E-13
 -1      1600 2.35558E+01-1.70795E-01 1.21689E-02-4.93636E-01-5.71921E-14-1.55109E-13
 -1      1601 2.39795E+01-3.89647E-02 2.35732E-02 1.14608E-01-7.81944E-14-3.93061E-13
 -1      1602 2.40061E+01-7.53866E-02 1.57536E-02 6.07936E-02-6.96058E-15-3.49186E-13
 -1      1603 2.36836E+01-1.44360E-01 1.19969E-02-1.50921E-02 6.01498E-14-2.00808E-13
 -1      1604 2.34491E+01-2.00725E-02 9.74686E-03 2.64881E-01 7.30865E-14-4.55424E-13
 -1      1605 2.37391E+01-5.08928E-02 6.91423E-03 2.28090E-01 1.16408E-13-3.47224E-13
 -1      1606 2.33935E+01-9.24517E-02 9.33821E-03 3.48358E-01 1.11302E-13-2.64944E-13
 -1      1607 2.26708E+01-4.78373E-03 1.03735E-04 3.33616E-01 1.15328E-13-6.04350E-13
 -1      1608 2.31049E+01-2.59250E-02 5.62568E-04 3.13930E-01 7.18438E-14-5.46507E-13
 -1      1609 2.28248E+01-4.22950E-02 6.15419E-03 5.60145E-01 1.95589E-13-4.63549E-13
 -1      1610 2.18183E+01 6.87640E-03-6.16000E-03 3.37743E-01-8.56986E-15-7.86884E-13
 -1      1611 2.22944E+01-4.66108E-03-2.92333E-03 3.32389E-01 5.95236E-14-7.70977E-13
 -1      1612 2.21228E+01-3.42101E-03 2.89707E-03 6.35827E-01 2.17087E-13-6.18008E-13
 -1      1613 2.10298E+01 1.69043E-02-1.10617E-02 2.91108E-01 6.30232E-14-8.16177E-13
 -1      1614 2.14670E+01 1.38957E-02-4.94054E-03 2.98373E-01 1.03420E-13-6.27966E-13
 -1      1615 2.14108E+01 2.57883E-02-1.00927E-03 6.03027E-01 3.55480E-14-4.87548E-13
 -1      1616 2.04206E+01 2.71489E-02-1.37830E-02 1.98311E-01-5.67124E-15-8.52039E-13
 -1      1617 2.07486E+01 3.26366E-02-6.50068E-03 2.19776E-01-1.36835E-14-8.39544E-13
 -1      1618 2.07862E+01 5.20833E-02-5.49998E-03 4.80604E-01 1.46858E-13-4.76996E-13
 -1      1619 2.00871E+01 3.66182E-02-1.26194E-03 7.15269E-02-5.46361E-14-9.60738E-13
 -1      1620 2.02393E+01 4.77971E-02-5.24475E-03 1.03226E-01 5.23164E-14-8.69375E-13
 -1      1621 2.03195E+01 7.67875E-02-8.08015E-03 2.79253E-01 9.40832E-14-4.78001E-13
 -1      1622 2.00098E+01 2.34811E-02 3.13704E-03 3.14484E-03-5.85052E-13-6.83184E-13
 -1      1623 2.00480E+01 3.35579E-01-6.88543E-03 1.67724E-01-4.98426E-13 3.91368E-13
 -1      1624 2.00549E+01 1.68842E-01 1.06691E-03 1.33384E-01-7.87987E-13 1.60527E-13
 -1      1625 2.00294E+01 8.75301E-01-3.55737E-03 2.83806E-01-1.11352E-14 2.83660E-13
 -1      1626 2.00416E+01 5.54357E-01-4.70790E-03 2.64213E-01-4.23074E-13 1.98795E-13
 -1      1627 2.00895E+01 5.00433E-01-9.09010E-03 4.19627E-01-2.59009E-14 4.86298E-13
 -1      1628 2.00082E+01 1.56520E+00-8.25174E-04 3.47056E-01 3.29237E-13 4.96354E-14
 -1      1629 2.00215E+01 1.15839E+00-2.96291E-03 3.38999E-01 3.19710E-15 3.39565E-13
 -1      1630 2.00457E+01 9.96434E-01-6.92991E-03 6.01142E-01-3.98089E-14 3.78897E-13
 -1      1631 1.99879E+01 2.30158E+00 6.54272E-04 3.54242E-01 1.15311E-13-2.90776E-13
 -1      1632 2.00008E+01 1.87846E+00-1.12506E-03 3.57314E-01 3.91170E-13-1.39157E-13
 -1      1633 2.00085E+01 1.58727E+00-1.41354E-03 6.79120E-01-4.01380E-14-1.28538E-13
 -1      1634 1.99700E+01 2.96469E+00 1.33523E-03 3.08982E-01-3.02173E-13-2.01896E-13
 -1      1635 1.99810E+01 2.59568E+00-2.65153E-05 3.21812E-01-4.25250E-14-4.69614E-13
 -1      1636 1.99745E+01 2.18974E+00 4.48065E-03 6.51597E-01-5.14831E-14-5.94544E-13
 -1      1637 1.99559E+01 3.47828E+00 1.78216E-03 2.16555E-01-3.99278E-13-1.52492E-13
 -1      1638 1.99642E+01 3.20773E+00 9.18214E-04 2.38151E-01-3.81629E-13 3.06135E-14
 -1      1639 1.99456E+01 2.72248E+00 9.70340E-03 5.27406E-01-1.86988E-13-2.67895E-13
 -1      1640 1.99489E+01 3.75143E+00 1.89773E-03 9.11958E-02-3.56416E-13-8.34662E-14
 -1      1641 1.99525E+01 3.62666E+00 1.49389E-03 1.17936E-01-2.64278E-13-7.76280E-14
 -1      1642 1.99247E+01 3.11031E+00 1.36793E-02 3.22489E-01-1.67278E-13-1.55235E-13
 -1      1643 1.99504E+01 3.74491E+00 1.60521E-03-4.65231E-02-2.30446E-13 7.40085E-14
 -1      1644 1.99486E+01 3.78312E+00 1.70236E-03-1.91760E-02-3.83730E-13 1.72259E-13
 -1      1645 1.99159E+01 3.28856E+00 1.53643E-02 6.94959E-02-2.06286E-13-6.83325E-14
 -1      1646 1.99599E+01 3.46519E+00 9.14362E-04-1.73634E-01-3.99855E-13-2.20292E-13
 -1      1647 1.99533E+01 3.65680E+00 1.50508E-03-1.50298E-01-2.01837E-13 1.97477E-14
 -1      1648 1.99210E+01 3.23171E+00 1.43791E-02-1.89738E-01-1.02267E-13-1.56992E-15
 -1      1649 1.99747E+01 2.96225E+00 3.12693E-05-2.70532E-01-9.19683E-13-2.88952E-13
 -1      1650 1.99652E+01 3.27387E+00 1.10520E-03-2.54668E-01-4.97841E-13-2.58289E-13
 -1      1651 1.99381E+01 2.95341E+00 1.10366E-02-4.13093E-01-4.42472E-13-4.02811E-13
 -1      1652 1.99915E+01 2.32787E+00-7.01084E-04-3.24822E-01-9.29843E-13 1.98762E-13
 -1      1653 1.99808E+01 2.70413E+00 6.10201E-04-3.17995E-01-9.67174E-13-1.21108E-13
 -1      1654 1.99634E+01 2.50639E+00 6.42295E-03-5.67569E-01-5.14998E-13-3.89368E-13
 -1      1655 2.00084E+01 1.63237E+00-1.52967E-03-3.34623E-01-7.16042E-13 5.77381E-14
 -1      1656 1.99976E+01 2.03198E+00 6.82863E-05-3.36459E-01-8.47543E-13 2.54842E-13
 -1      1657 1.99909E+01 1.95762E+00 1.35623E-03-6.38390E-01-3.97081E-13 3.32440E-13
 -1      1658 2.00239E+01 9.80343E-01-2.72748E-03-3.00672E-01-2.60970E-13 1.71868E-13
 -1      1659 2.00137E+01 1.34274E+00-9.08747E-04-3.10277E-01-5.50532E-13 2.23955E-13
 -1      1660 2.00190E+01 1.37805E+00-3.41011E-03-6.22926E-01-2.52832E-13 3.46248E-13
 -1      1661 2.00409E+01 4.66612E-01-4.29814E-04-2.25119E-01-1.22824E-13-5.39633E-14
 -1      1662 2.00272E+01 7.33021E-01-3.00949E-03-2.42354E-01-1.17475E-14-8.42252E-14
 -1      1663 2.00476E+01 8.45330E-01-6.99451E-03-5.24099E-01 6.92502E-14 1.99485E-13
 -1      1664 2.00734E+01 1.85398E-01 4.83979E-03-1.62954E-01 2.27882E-14-6.10428E-14
 -1      1665 2.00675E+01 3.23548E-01-2.30077E-03-2.05331E-01 2.79178E-14-4.49597E-15
 -1      1666 2.01065E+01 4.61200E-01-7.37935E-03-4.16655E-01 1.70182E-13 2.89309E-14
 -1      1667 2.02048E+01 2.11518E-01-1.65044E-03-3.17566E-01 1.32356E-13-1.42898E-13
 -1      1668-6.40977E-01-1.50981E+01-1.69224E+00-1.03404E+00 5.74096E-13-2.64205E-13
 -1      1669-6.20995E-01-1.71559E+01-1.88083E+00 2.90278E-01 8.60312E-13-2.17160E-13
 -1      1670 1.45660E+00-8.51876E+00-1.19729E+00 5.45844E-01 4.54858E-13 1.76636E-13
 -1      1671 6.78024E-01-1.36356E+01-1.70605E+00-2.65408E-02 6.10845E-13 1.19627E-14
 -1      1672 6.72623E+00-1.19178E+00-5.89911E-01 4.27895E+00 1.09690E-13-1.86517E-13
 -1      1673 3.89326E+00-6.56299E+00-1.30655E+00 1.63487E+00 2.70006E-13-7.99361E-14
 -1      1674 1.65531E+01 4.13108E+00 1.00986E-01 9.13153E+00-7.82707E-14 1.46105E-13
 -1      1675 1.04793E+01 6.05353E-01-7.34391E-01 5.52805E+00-9.94760E-14-1.60982E-14
 -1      1676 3.15534E+01 5.56132E+00 9.07144E-01 1.16831E+01-5.45120E-14-4.10783E-13
 -1      1677 2.23480E+01 4.76286E+00 3.57176E-02 9.42889E+00 7.01661E-14-1.56763E-13
 -1      1678 4.61139E+01 5.27373E+00 1.67615E+00 1.09308E+01-1.39777E-13-6.94445E-13
 -1      1679 3.66639E+01 6.84302E+00 9.14059E-01 1.23302E+01-1.10800E-13-4.37872E-13
 -1      1680 5.43184E+01 3.66820E+00 1.86526E+00 4.17738E+00 1.26288E-14-1.06659E-12
 -1      1681 4.95098E+01 4.97614E+00 1.54870E+00 8.73868E+00 3.20161E-14-7.14095E-13
 -1      1682 5.40392E+01 3.90131E+00 1.74001E+00-4.00111E+00 4.46754E-13-1.62520E-12
 -1      1683 5.52595E+01 3.64169E+00 1.85940E+00 1.68885E+00 1.66755E-13-1.30940E-12
 -1      1684 4.42724E+01 5.58801E+00 1.20297E+00-9.81025E+00 5.70988E-13-1.70708E-12
 -1      1685 5.13847E+01 4.02546E+00 1.69834E+00-6.10223E+00 5.04374E-13-1.66200E-12
 -1      1686 3.08083E+01 6.69952E+00 5.72519E-01-1.18931E+01 7.33524E-13-1.52678E-12
 -1      1687 4.02205E+01 5.67740E+00 1.33409E+00-1.19639E+01 6.81344E-13-1.74738E-12
 -1      1688 1.68849E+01 4.41284E+00-2.54582E-01-8.55823E+00 1.11067E-12-1.05160E-12
 -1      1689 2.53959E+01 6.18330E+00 6.77490E-01-1.17757E+01 8.28337E-13-1.36491E-12
 -1      1690 7.00552E+00-1.78119E+00-1.01761E+00-3.61361E+00 1.38045E-12-8.66085E-13
 -1      1691 1.19806E+01 2.87764E+00-1.58050E-01-7.29268E+00 1.22746E-12-8.55982E-13
 -1      1692 1.91956E+00-9.47408E+00-1.55203E+00-2.75879E-01 1.44595E-12-6.34520E-13
 -1      1693 3.69060E+00-3.91098E+00-9.16212E-01-2.17606E+00 1.44462E-12-7.55396E-13
 -1      1694-2.33836E-02-1.51588E+01-1.76747E+00 2.09681E-01 9.11216E-13-4.39038E-13
 -1      1695 2.11423E-01-1.11917E+01-1.42344E+00 5.48399E-01 1.29408E-12-6.70464E-13
 -1      1696-7.15258E-01-1.62220E+01-1.72632E+00-6.15406E-01 4.11615E-13-2.49467E-13
 -1      1697-7.37362E-01-1.57094E+01-1.68990E+00 8.83013E-01 8.23785E-13-3.09641E-13
 -1      1698-2.57059E-01-1.25476E+01-1.48774E+00-7.61439E-01-6.48814E-13-7.30305E-13
 -1      1699-3.28020E-01-1.59600E+01-1.79056E+00 6.36788E-02 1.38889E-13-4.43784E-13
 -1      1700 3.31532E+00-5.35198E+00-8.92475E-01 2.05980E+00-1.15985E-12-8.65474E-13
 -1      1701 1.88241E+00-1.06715E+01-1.43638E+00 6.22972E-01-8.27338E-13-6.18672E-13
 -1      1702 9.98192E+00 2.09177E+00-2.51356E-01 6.39491E+00-1.10889E-12-8.46545E-13
 -1      1703 5.76111E+00-3.05845E+00-1.06292E+00 2.93095E+00-1.27343E-12-7.11431E-13
 -1      1704 2.35525E+01 6.25631E+00 6.10596E-01 1.15988E+01-9.48908E-13-1.34026E-12
 -1      1705 1.47950E+01 3.91279E+00-3.67322E-01 7.85007E+00-9.91984E-13-1.12288E-12
 -1      1706 3.90870E+01 5.85016E+00 1.28065E+00 1.22340E+01-6.26332E-13-1.54410E-12
 -1      1707 2.94363E+01 6.86895E+00 5.33953E-01 1.19115E+01-8.03690E-13-1.39422E-12
 -1      1708 5.05580E+01 4.10949E+00 1.63964E+00 6.53897E+00-5.06789E-13-8.34222E-13
 -1      1709 4.33685E+01 5.75838E+00 1.16998E+00 1.00866E+01-5.47132E-13-1.19638E-12
 -1      1710 5.50016E+01 3.58939E+00 1.84535E+00-1.13633E+00-3.55244E-13-3.93449E-13
 -1      1711 5.33703E+01 3.95508E+00 1.68430E+00 4.46385E+00-5.11535E-13-9.09772E-13
 -1      1712 4.99200E+01 4.89616E+00 1.58803E+00-8.73134E+00-6.12607E-13 7.28417E-13
 -1      1713 5.46523E+01 3.55409E+00 1.90726E+00-3.84125E+00-4.92217E-13-1.47660E-13
 -1      1714 3.68159E+01 6.51575E+00 8.81012E-01-1.16525E+01-5.54612E-13 1.02651E-12
 -1      1715 4.58246E+01 5.02444E+00 1.56626E+00-1.01483E+01-4.31072E-13 9.34586E-13
 -1      1716 2.27619E+01 5.85276E+00 1.28303E-01-1.04148E+01-3.29403E-13 8.45546E-13
 -1      1717 3.17203E+01 6.26720E+00 9.70487E-01-1.24308E+01-4.89053E-13 1.20659E-12
 -1      1718 1.07630E+01 1.48852E+00-6.57684E-01-5.91887E+00 1.00586E-13 3.49054E-13
 -1      1719 1.73895E+01 5.06969E+00 2.57826E-01-9.76770E+00-3.36287E-13 7.08100E-13
 -1      1720 3.95885E+00-6.36992E+00-1.29407E+00-1.69204E+00 3.96017E-13-1.24678E-13
 -1      1721 7.02196E+00-7.26752E-01-5.31021E-01-4.56604E+00 2.34923E-13 1.73861E-13
 -1      1722 6.11325E-01-1.36366E+01-1.73642E+00 1.21568E-01 8.12572E-13-2.21271E-13
 -1      1723 1.32323E+00-8.47616E+00-1.22414E+00-4.38106E-01 6.10512E-13-1.54043E-13
 -1      1724-6.02590E-01-1.71544E+01-1.88170E+00-3.45407E-01 9.18016E-13-6.80289E-14
 -1      1725-6.11790E-01-1.50246E+01-1.69626E+00 9.75366E-01 9.42690E-13-2.29983E-13
 -1      1726 2.45929E+01-1.45357E-01 2.72693E-01 6.97326E+00-4.87388E-14-1.09246E-13
 -1      1727 1.39859E+01-3.75949E+00-3.63269E-01 6.34828E+00-1.21236E-13-1.72806E-13
 -1      1728 2.00583E+01 6.36494E-02-5.39872E-03 6.92097E-02-7.59664E-13-3.68138E-13
 -1      1729 2.01354E+01 1.95135E-01-3.86918E-03 2.28289E-01-1.23876E-13 6.47625E-14
 -1      1730 5.66050E-01-1.04355E+01-1.17088E+00 2.45298E+00 5.50782E-13-1.83464E-13
 -1      1731 5.97997E+00-7.62615E+00-8.45992E-01 4.62114E+00 1.51212E-13-3.38625E-13
 -1      1732-1.37467E+00-1.17326E+01-1.33615E+00-6.75858E-02 5.43822E-13-1.75138E-13
 -1      1733 3.45536E+01 3.22269E+00 6.57071E-01 6.12945E+00 2.39253E-14-4.52194E-13
 -1      1734 4.33239E+01 6.43779E+00 1.38349E+00 4.83997E+00 3.87190E-14-7.72382E-13
 -1      1735 4.71985E+01 7.41962E+00 1.57854E+00 1.36011E+00 2.83495E-13-1.08849E-12
 -1      1736 4.54670E+01 7.23727E+00 1.42611E+00-1.89214E+00 4.91052E-13-1.10784E-12
 -1      1737 3.99572E+01 5.53712E+00 1.16013E+00-5.20341E+00 3.66207E-13-1.31017E-12
 -1      1738 3.06895E+01 2.92107E+00 6.55175E-01-7.32525E+00 5.53557E-13-1.21803E-12
 -1      1739 1.96433E+01-7.71368E-01-2.75984E-02-7.02071E+00 9.15268E-13-7.86038E-13
 -1      1740 9.92301E+00-5.07822E+00-6.44998E-01-5.36208E+00 1.03650E-12-5.71931E-13
 -1      1741 3.10275E+00-8.83967E+00-1.06214E+00-3.38880E+00 8.15570E-13-6.31106E-13
 -1      1742-5.77136E-01-1.07293E+01-1.20480E+00-1.35941E+00 5.01293E-13-4.91385E-13
 -1      1743-1.02187E+00-1.09491E+01-1.21643E+00 8.97179E-01 1.81077E-13-7.67164E-13
 -1      1744 2.47018E+00-8.98179E+00-9.34323E-01 3.53114E+00-2.92877E-13-9.36279E-13
 -1      1745 8.66413E+00-5.94661E+00-7.22281E-01 5.33588E+00-6.31495E-13-4.52555E-13
 -1      1746 1.76663E+01-1.26980E+00-1.61807E-01 6.94558E+00-6.72795E-13-7.24087E-13
 -1      1747 2.92215E+01 2.84654E+00 5.84671E-01 7.62771E+00-6.03406E-13-9.40137E-13
 -1      1748 3.91355E+01 5.50451E+00 1.10492E+00 5.52911E+00-4.42403E-13-6.49703E-13
 -1      1749 4.49196E+01 7.15816E+00 1.36591E+00 2.16273E+00-6.62470E-13-4.78395E-13
 -1      1750 4.73302E+01 7.28817E+00 1.56982E+00-1.28631E+00-7.02605E-13-6.05044E-13
 -1      1751 4.30610E+01 6.33733E+00 1.29752E+00-4.44158E+00-6.37435E-13-1.18794E-14
 -1      1752 3.48745E+01 4.07429E+00 8.58310E-01-6.55626E+00-1.75415E-13 6.21725E-13
 -1      1753 2.45687E+01 9.89486E-01 3.23544E-01-7.48031E+00-4.28546E-14 7.95586E-13
 -1      1754 1.41503E+01-3.27356E+00-3.53312E-01-6.43298E+00 2.17826E-13 5.36571E-13
 -1      1755 5.97462E+00-7.50304E+00-8.48035E-01-4.61240E+00 2.61124E-13 2.51084E-13
 -1      1756 5.45451E-01-1.05756E+01-1.19925E+00-2.39546E+00 6.80678E-13-2.90323E-14
 -1      1757 2.28576E+01 1.98483E+00-2.35533E-02-2.72301E+00-2.87024E-13 1.20517E-12
 -1      1758 1.98213E+01 3.71838E+00-3.49018E-02-2.15627E+00-3.88216E-13-3.81375E-13
 -1      1759 2.00500E+01 3.56039E+00-4.29624E-02-2.44274E+00-4.40883E-13-2.45932E-13
 -1      1760 2.03634E+01 3.18225E+00-4.51979E-02-2.58616E+00-4.36167E-13-8.84848E-14
 -1      1761 2.05820E+01 2.80914E+00-1.42634E-01-2.85433E+00-4.59188E-13 1.27731E-13
 -1      1762 2.04283E+01 2.69093E+00-3.11303E-03-2.22252E+00-4.51577E-13-1.40964E-13
 -1      1763 1.93557E+01 4.18875E+00-2.01978E-02-1.27148E+00-2.25480E-13-6.12664E-13
 -1      1764 1.94286E+01 4.14901E+00-1.71983E-02-1.49598E+00-2.73069E-13-5.82045E-13
 -1      1765 1.92598E+01 4.29444E+00-1.68114E-02-8.60364E-01-1.48960E-13-6.54140E-13
 -1      1766 1.93022E+01 4.27047E+00-1.43738E-02-1.07127E+00-1.87127E-13-6.37603E-13
 -1      1767 1.95278E+01 3.78258E+00-9.31217E-03-1.12048E+00-2.25187E-13-6.02471E-13
 -1      1768 1.92088E+01 4.35485E+00-1.48127E-02-4.67191E-01-6.77721E-14-6.62814E-13
 -1      1769 1.92305E+01 4.34199E+00-1.33353E-02-6.67635E-01-1.06727E-13-6.59495E-13
 -1      1770 1.94315E+01 3.90289E+00-9.22417E-03-7.33821E-01-1.33972E-13-6.43773E-13
 -1      1771 1.91896E+01 4.38046E+00-1.36775E-02-8.37083E-02 1.52313E-14-6.60590E-13
 -1      1772 1.91960E+01 4.37653E+00-1.32280E-02-2.79308E-01-2.11509E-14-6.64684E-13
 -1      1773 1.93816E+01 3.96735E+00-9.16727E-03-3.58610E-01-4.63771E-14-6.42368E-13
 -1      1774 1.91976E+01 4.37516E+00-1.31796E-02 2.98374E-01 8.19996E-14-6.55581E-13
 -1      1775 1.91901E+01 4.37963E+00-1.37601E-02 1.02614E-01 4.67452E-14-6.58596E-13
 -1      1776 1.93670E+01 3.98675E+00-9.15029E-03 1.05694E-02 3.40620E-14-6.41865E-13
 -1      1777 1.92346E+01 4.33797E+00-1.33382E-02 6.87416E-01 1.50032E-13-6.31399E-13
 -1      1778 1.92116E+01 4.35168E+00-1.49215E-02 4.86473E-01 1.19084E-13-6.47331E-13
 -1      1779 1.93843E+01 3.96405E+00-9.19058E-03 3.79937E-01 1.07637E-13-6.32511E-13
 -1      1780 1.93076E+01 4.26457E+00-1.44190E-02 1.08533E+00 2.22389E-13-5.88167E-13
 -1      1781 1.92645E+01 4.28906E+00-1.69748E-02 8.77251E-01 1.86202E-13-6.23723E-13
 -1      1782 1.94367E+01 3.89657E+00-9.19590E-03 7.52394E-01 1.80207E-13-6.07275E-13
 -1      1783 1.94386E+01 4.13739E+00-1.74119E-02 1.51553E+00 3.19203E-13-4.95423E-13
 -1      1784 1.93624E+01 4.17999E+00-2.05002E-02 1.28592E+00 2.63807E-13-5.37563E-13
 -1      1785 1.95358E+01 3.77271E+00-9.24211E-03 1.13640E+00 2.63499E-13-5.38021E-13
 -1      1786 1.96670E+01 3.92089E+00-2.52018E-02 1.98070E+00 4.02714E-13-3.64687E-13
 -1      1787 1.95345E+01 3.99767E+00-2.68975E-02 1.72334E+00 3.54134E-13-4.43496E-13
 -1      1788 1.97084E+01 3.56570E+00-8.69933E-03 1.53629E+00 3.58093E-13-4.31081E-13
 -1      1789 2.00748E+01 3.52264E+00-4.51933E-02 2.47312E+00 4.74768E-13-1.30028E-13
 -1      1790 1.98352E+01 3.68310E+00-3.97165E-02 2.18404E+00 4.29155E-13-2.71411E-13
 -1      1791 2.00040E+01 3.22267E+00-5.27174E-03 1.93569E+00 4.37562E-13-2.76132E-13
 -1      1792 2.09195E+01 2.68178E+00-5.76565E-02 2.85868E+00 4.75139E-13 3.08746E-13
 -1      1793 2.04124E+01 3.09687E+00-5.04241E-02 2.61698E+00 4.69506E-13 4.39163E-14
 -1      1794 2.05164E+01 2.60983E+00 3.18668E-03 2.24563E+00 4.88614E-13-2.38420E-14
 -1      1795 2.17295E+01 1.21301E+00-1.22097E-01 2.33056E+00 4.11671E-13 8.54858E-13
 -1      1796 2.12731E+01 2.26305E+00 1.20449E-04 2.74127E+00 4.46828E-13 4.97172E-13
 -1      1797 2.09359E+01 1.68501E+00-2.29695E-02 2.14114E+00 4.74645E-13 3.09842E-13
 -1      1798 2.09505E+01 7.78687E-01-6.24627E-02 1.52489E+00 4.09200E-13 7.18432E-13
 -1      1799 2.17956E+01 2.45805E+00 9.09104E-02-3.04900E+00-3.93087E-13 5.13020E-13
 -1      1800 2.00992E+01 2.97909E-01-8.92492E-03 6.57783E-01 3.05048E-13 5.34184E-13
 -1      1801 2.06516E+01 4.40393E-01-1.24709E-02 1.03479E+00 3.36925E-13 6.46541E-13
 -1      1802 2.07430E+01 8.45117E-01 2.25503E-03 1.41601E+00 4.02570E-13 4.14502E-13
 -1      1803 2.15061E+01 1.74229E+00 7.95320E-02-2.33829E+00-4.22225E-13 3.49443E-13
 -1      1804 2.05187E+01 5.00787E-01 3.24918E-02-9.22490E-01-3.32321E-13 2.87572E-13
 -1      1805 2.00869E+01 3.51968E-01 7.64943E-03-6.30595E-01-2.94507E-13 2.11029E-13
 -1      1806 1.98922E+01 2.57182E-01 2.74374E-02-3.92314E-01-2.52817E-13 1.97006E-13
 -1      1807 1.97008E+01 1.77918E-01 1.04072E-02-2.54565E-01-2.08888E-13 1.28564E-13
 -1      1808 2.01970E+01 4.83226E-01-5.90169E-03-7.23840E-01-3.29486E-13 2.80587E-14
 -1      1809 1.95786E+01 1.32600E-01 1.66532E-02-1.21104E-01-1.72159E-13 1.02398E-13
 -1      1810 1.95001E+01 9.29372E-02 6.94049E-03-5.03980E-02-1.47812E-13 5.98410E-14
 -1      1811 1.98707E+01 2.43697E-01-5.80384E-03-2.97069E-01-2.38538E-13-2.15062E-14
 -1      1812 1.94350E+01 6.82641E-02 8.68231E-03 2.30394E-02-1.37244E-13 5.20898E-14
 -1      1813 1.94200E+01 4.65805E-02 4.10204E-03 5.91331E-02-1.13059E-13 1.74214E-14
 -1      1814 1.96876E+01 1.25052E-01-4.64882E-03-6.04349E-02-1.73518E-13-8.90833E-14
 -1      1815 1.93938E+01 3.22691E-02 4.24095E-03 9.77705E-02-1.17136E-13 9.29725E-15
 -1      1816 1.94130E+01 1.98723E-02 2.43579E-03 1.14492E-01-9.66865E-14-5.01087E-14
 -1      1817 1.96007E+01 6.07440E-02-3.46994E-03 6.89684E-02-1.39997E-13-1.24454E-13
 -1      1818 1.94112E+01 1.12963E-02 1.86716E-03 1.32423E-01-1.05957E-13-6.46467E-14
 -1      1819 1.94478E+01 4.20339E-03 1.46698E-03 1.37873E-01-1.15324E-13-9.01753E-14
 -1      1820 1.95760E+01 2.39927E-02-2.35245E-03 1.35319E-01-1.15997E-13-1.38390E-13
 -1      1821 1.94603E+01-8.84161E-04 5.76476E-04 1.43416E-01-1.14251E-13-6.08887E-14
 -1      1822 1.95042E+01-4.71982E-03 8.75815E-04 1.42360E-01-9.72950E-14-7.67596E-14
 -1      1823 1.95894E+01 2.72118E-03-1.46348E-03 1.63847E-01-1.13486E-13-1.07789E-13
 -1      1824 1.95244E+01-7.54424E-03-1.30824E-04 1.40729E-01-1.15658E-13-6.81149E-14
 -1      1825 1.95698E+01-9.27944E-03 5.12462E-04 1.36180E-01-9.75725E-14-6.47213E-14
 -1      1826 1.96242E+01-9.11291E-03-8.34526E-04 1.69872E-01-9.58257E-14-1.49075E-13
 -1      1827 1.95936E+01-1.05758E-02-4.97916E-04 1.30792E-01-1.33254E-13-9.95683E-14
 -1      1828 1.96373E+01-1.09114E-02 3.06112E-04 1.24744E-01-1.06630E-13-1.79314E-13
 -1      1829 1.96698E+01-1.48599E-02-4.25017E-04 1.63209E-01-1.49954E-13-1.60035E-13
 -1      1830 1.96621E+01-1.11466E-02-6.53124E-04 1.17912E-01-6.63640E-14-2.16243E-13
 -1      1831 1.97028E+01-1.05214E-02 2.17955E-04 1.11729E-01-6.79365E-14-2.52470E-13
 -1      1832 1.97196E+01-1.65301E-02-1.82461E-04 1.50398E-01-1.22431E-13-1.95099E-13
 -1      1833 1.97274E+01-9.99746E-03-6.71759E-04 1.05066E-01-4.74076E-14-2.66206E-13
 -1      1834 1.97646E+01-8.68387E-03 2.24454E-04 9.97100E-02-2.00461E-14-2.42707E-13
 -1      1835 1.97700E+01-1.53807E-02-6.32252E-05 1.35927E-01-6.85893E-14-2.44058E-13
 -1      1836 1.97887E+01-7.59216E-03-6.01323E-04 9.43826E-02-2.77016E-14-2.31991E-13
 -1      1837 1.98232E+01-5.74919E-03 3.11410E-04 9.05683E-02-3.65368E-14-2.16057E-13
 -1      1838 1.98193E+01-1.21992E-02-3.52981E-05 1.22979E-01-2.72781E-14-1.67312E-13
 -1      1839 1.98470E+01-4.20268E-03-4.72746E-04 8.74663E-02-7.43642E-14-2.01782E-13
 -1      1840 1.98801E+01-1.90847E-03 4.71159E-04 8.57669E-02-8.71118E-14-2.06199E-13
 -1      1841 1.98677E+01-7.45561E-03-7.63137E-05 1.13906E-01-4.79511E-14-5.76140E-14
 -1      1842 1.99044E+01 3.58618E-05-3.06306E-04 8.56269E-02-9.41532E-14-2.43019E-13
 -1      1843 1.99379E+01 2.76021E-03 7.00493E-04 8.65474E-02-3.63813E-14-2.62953E-13
 -1      1844 1.99162E+01-1.39619E-03-1.71020E-04 1.10569E-01-1.11136E-13-1.15849E-13
 -1      1845 1.99639E+01 5.08324E-03-1.15400E-04 9.00359E-02-8.18846E-15-2.91497E-13
 -1      1846 2.00001E+01 8.25300E-03 9.98558E-04 9.40640E-02 1.98438E-14-2.87208E-13
 -1      1847 1.99669E+01 5.88889E-03-3.09097E-04 1.14564E-01-3.76917E-14-1.90548E-13
 -1      1848 2.00295E+01 1.09556E-02 9.06918E-05 1.01829E-01 3.71496E-14-3.37761E-13
 -1      1849 2.00710E+01 1.46004E-02 1.36428E-03 1.09462E-01 5.19124E-14-3.29224E-13
 -1      1850 2.00227E+01 1.44065E-02-4.83298E-04 1.27376E-01-6.42918E-16-2.35408E-13
 -1      1851 2.01056E+01 1.76826E-02 3.04485E-04 1.22150E-01-1.20227E-15-3.78902E-13
 -1      1852 2.01556E+01 2.18189E-02 1.79283E-03 1.33893E-01-7.94515E-14-3.25275E-13
 -1      1853 2.00870E+01 2.41975E-02-6.87770E-04 1.50462E-01 1.30411E-15-2.51636E-13
 -1      1854 2.01974E+01 2.52519E-02 5.18160E-04 1.52129E-01-1.02984E-13-2.72642E-13
 -1      1855 2.02594E+01 2.98439E-02 2.27051E-03 1.68458E-01-3.40379E-14-2.30688E-13
 -1      1856 2.01638E+01 3.52576E-02-9.16454E-04 1.85240E-01-5.27321E-14-2.68309E-13
 -1      1857 2.03109E+01 3.35303E-02 7.21502E-04 1.92768E-01 1.45654E-14-2.72733E-13
 -1      1858 2.03884E+01 3.84315E-02 2.76725E-03 2.14041E-01 5.90732E-14-3.29834E-13
 -1      1859 2.02578E+01 4.74252E-02-1.16158E-03 2.32988E-01-7.84621E-15-1.61408E-13
 -1      1860 2.04520E+01 4.21456E-02 8.99988E-04 2.44695E-01 7.69883E-14-3.67647E-13
 -1      1861 2.05490E+01 4.70109E-02 3.22589E-03 2.70978E-01 6.72173E-15-3.29891E-13
 -1      1862 2.03738E+01 6.02162E-02-1.41240E-03 2.94581E-01 6.53199E-14-2.93473E-13
 -1      1863 2.06272E+01 5.03097E-02 1.03338E-03 3.07724E-01-9.82504E-15-1.70692E-13
 -1      1864 2.07469E+01 5.44655E-02 3.54783E-03 3.38513E-01 4.32404E-14-1.62776E-13
 -1      1865 2.05166E+01 7.25763E-02-1.65432E-03 3.70028E-01 9.17587E-14-2.11171E-13
 -1      1866 2.08418E+01 5.65622E-02 1.09567E-03 3.80146E-01 3.89543E-15-1.33626E-13
 -1      1867 2.09866E+01 5.88252E-02 3.57615E-03 4.13914E-01-1.93337E-14-1.23362E-13
 -1      1868 2.06912E+01 8.25192E-02-1.86877E-03 4.57709E-01 3.40174E-14-5.83241E-14
 -1      1869 2.11001E+01 5.84226E-02 1.05779E-03 4.57631E-01-9.44630E-14-1.65368E-13
 -1      1870 2.12700E+01 5.68788E-02 3.08104E-03 4.91172E-01-9.82601E-14-2.11096E-13
 -1      1871 2.09013E+01 8.66351E-02-2.03379E-03 5.53209E-01-6.96945E-14-1.72331E-14
 -1      1872 2.14030E+01 5.19888E-02 8.94867E-04 5.31684E-01-6.32018E-14-2.47705E-13
 -1      1873 2.15946E+01 4.37958E-02 1.76025E-03 5.59246E-01-5.70514E-14-1.79665E-13
 -1      1874 2.11495E+01 7.95095E-02-2.12401E-03 6.47657E-01-8.16278E-14-1.61170E-13
 -1      1875 2.17465E+01 3.16412E-02 5.97676E-04 5.87680E-01-1.09147E-14-2.25771E-13
 -1      1876 2.19503E+01 1.30435E-02-7.19961E-04 6.00018E-01 2.19757E-14-2.77396E-13
 -1      1877 2.14355E+01 5.32598E-02-2.10633E-03 7.25583E-01-2.44371E-14-2.03852E-13
 -1      1878 2.21186E+01-9.71385E-03 1.82182E-04 6.02886E-01 9.83469E-15-2.17832E-13
 -1      1879 2.23171E+01-4.27339E-02-4.60114E-03 5.86693E-01 9.32170E-14-2.12960E-13
 -1      1880 2.17555E+01-2.24280E-03-1.92183E-03 7.62632E-01 5.06971E-14-1.29760E-13
 -1      1881 2.24956E+01-7.89528E-02-3.24871E-04 5.45681E-01 1.05296E-13-2.74607E-13
 -1      1882 2.26614E+01-1.28643E-01-9.76918E-03 4.84447E-01 8.71078E-14-2.75156E-13
 -1      1883 2.20996E+01-9.72520E-02-1.43905E-03 7.24181E-01 8.22046E-14-1.92742E-13
 -1      1884 2.28383E+01-1.78102E-01-9.45066E-04 3.78620E-01 1.08961E-13-3.12059E-13
 -1      1885 2.29347E+01-2.40670E-01-1.53141E-02 2.56780E-01 4.76199E-14-2.23984E-13
 -1      1886 2.24491E+01-2.36115E-01-3.65800E-04 5.67287E-01 5.26541E-14-3.38308E-13
 -1      1887 2.30888E+01-2.95349E-01-1.85463E-03 6.99051E-02-8.25043E-14-2.53143E-13
 -1      1888 2.30745E+01-3.54642E-01-1.90778E-02-1.17480E-01-1.07743E-13-3.01310E-13
 -1      1889 2.27715E+01-4.05260E-01 1.84360E-03 2.50412E-01 3.60953E-15-3.86267E-13
 -1      1890 2.31714E+01-3.93177E-01-3.48852E-03-3.81631E-01 7.25808E-15-2.11955E-13
 -1      1891 2.30145E+01-4.16354E-01-1.78980E-02-6.13371E-01 5.38875E-14-8.36015E-14
 -1      1892 2.30140E+01-5.56655E-01 5.75269E-03-2.42985E-01 9.12811E-15-1.55793E-13
 -1      1893 2.30085E+01-4.03713E-01-6.41401E-03-9.09139E-01 7.73773E-15-3.57141E-14
 -1      1894 2.27073E+01-3.48536E-01-9.23409E-03-1.12350E+00 4.81368E-14 3.67848E-14
 -1      1895 2.31014E+01-5.99046E-01 1.07128E-02-8.64079E-01 1.16102E-13 8.39769E-14
 -1      1896 2.25619E+01-2.50652E-01-9.60382E-03-1.34875E+00 4.25094E-15 1.06096E-13
 -1      1897 2.21661E+01-9.56744E-02 5.68366E-03-1.44722E+00-3.67640E-14 1.77689E-13
 -1      1898 2.29554E+01-4.24116E-01 1.32997E-02-1.45558E+00 7.87959E-14 1.01148E-13
 -1      1899 2.18987E+01 8.37110E-02-9.51070E-03-1.46706E+00-1.12724E-13 1.75275E-13
 -1      1900 2.15121E+01 2.96576E-01 1.92047E-02-1.35890E+00-6.75137E-14 9.00634E-14
 -1      1901 2.25546E+01 1.10794E-02 8.36499E-03-1.75238E+00-7.45365E-14 1.75764E-13
 -1      1902 2.12315E+01 4.84631E-01-2.01225E-03-1.08986E+00-1.28881E-14 1.07400E-13
 -1      1903 2.09804E+01 6.43601E-01 2.14812E-02-7.68371E-01-2.16441E-14 9.93199E-14
 -1      1904 2.20165E+01 5.80522E-01-5.73891E-03-1.49443E+00-3.19631E-14 2.45172E-13
 -1      1905 2.08473E+01 7.25502E-01 1.14551E-02-2.80190E-01-1.09031E-13 1.19655E-13
 -1      1906 2.08207E+01 7.25312E-01 1.09735E-02 1.33494E-01-2.11393E-14-2.16389E-14
 -1      1907 2.16056E+01 9.93746E-01-1.98595E-02-6.46604E-01-2.34812E-14 3.51048E-13
 -1      1908 2.09147E+01 6.43305E-01 2.13224E-02 6.21411E-01 1.33425E-13-4.72396E-14
 -1      1909 2.11117E+01 4.83516E-01-3.30687E-03 9.42448E-01 1.54366E-13 4.48201E-14
 -1      1910 2.15663E+01 9.92247E-01-2.09570E-02 4.59479E-01 5.42604E-14 3.11762E-13
 -1      1911 2.13542E+01 2.94712E-01 1.92696E-02 1.21065E+00 9.09516E-14-1.37597E-13
 -1      1912 2.16854E+01 7.92399E-02-1.08039E-02 1.31697E+00-3.86149E-14-1.90575E-13
 -1      1913 2.18993E+01 5.77231E-01-6.99181E-03 1.30640E+00-1.46645E-14-4.98850E-14
 -1      1914 2.19158E+01-1.02875E-01 6.19744E-03 1.29314E+00-1.19509E-13-5.64054E-14
 -1      1915 2.22535E+01-2.61700E-01-1.07052E-02 1.18929E+00-1.61174E-13-1.15847E-13
 -1      1916 2.23619E+01 2.48354E-03 8.42908E-03 1.55978E+00-7.60029E-14-1.40082E-13
 -1      1917 2.23596E+01-3.62234E-01-8.74066E-03 9.55134E-01-2.88218E-13-1.29757E-13
 -1      1918 2.25978E+01-4.20301E-01-7.50747E-03 7.32033E-01-2.17746E-13-2.82049E-13
 -1      1919 2.26856E+01-4.42183E-01 1.39262E-02 1.24854E+00-1.74614E-13 1.44657E-13
 -1      1920 2.25607E+01-4.34144E-01-1.76640E-02 4.24172E-01-1.25416E-13-2.56207E-13
 -1      1921 2.26485E+01-4.11463E-01-4.51794E-03 1.82125E-01-4.98343E-14-2.50401E-13
 -1      1922 2.27479E+01-6.24413E-01 1.10678E-02 6.33661E-01-2.22006E-13-1.21415E-13
 -1      1923 2.25047E+01-3.71349E-01-1.88608E-02-9.38053E-02 8.98405E-14-2.45135E-13
 -1      1924 2.24449E+01-3.09181E-01-2.30390E-03-2.89687E-01 1.24424E-13-2.34860E-13
 -1      1925 2.25691E+01-5.82233E-01 5.87848E-03-1.38892E-02 3.79557E-15-2.45841E-13
 -1      1926 2.22416E+01-2.49712E-01-1.48580E-02-4.83520E-01 1.55314E-13-8.88343E-14
 -1      1927 2.20696E+01-1.80043E-01-4.38943E-04-6.07977E-01 1.13848E-13 1.99129E-14
 -1      1928 2.22294E+01-4.21607E-01 1.78560E-03-5.27683E-01 2.19495E-13-1.03297E-13
 -1      1929 2.18439E+01-1.21529E-01-8.99661E-03-7.10496E-01-2.87318E-14 4.36786E-14
 -1      1930 2.16078E+01-5.89709E-02 1.57277E-03-7.63042E-01 8.19874E-15 4.27796E-14
 -1      1931 2.18084E+01-2.31134E-01-6.99988E-04-8.48187E-01 2.04264E-15 7.87467E-14
 -1      1932 2.13840E+01-7.99239E-03-3.59624E-03-7.83557E-01-1.07687E-13 1.56806E-14
 -1      1933 2.11308E+01 4.52869E-02 3.65815E-03-7.72640E-01-6.01746E-14-1.44743E-13
 -1      1934 2.13653E+01-5.48030E-02-2.09900E-03-9.78572E-01-1.02313E-13 1.40205E-13
 -1      1935 2.09239E+01 8.98839E-02 1.30158E-04-7.24728E-01 3.40871E-14-2.75762E-13
 -1      1936 2.06939E+01 1.36408E-01 5.31703E-03-6.58796E-01 1.50175E-13-2.72974E-13
 -1      1937 2.09411E+01 9.75703E-02-2.66872E-03-9.44370E-01-1.17950E-13 1.33624E-13
 -1      1938 2.05321E+01 1.66568E-01 1.93628E-03-5.58635E-01 3.25464E-13-2.66052E-13
 -1      1939 2.03531E+01 2.03242E-01 7.20860E-03-4.51474E-01 2.51280E-13-1.44186E-13
 -1      1940 2.02963E+01 2.92306E-01-2.18717E-03-5.32698E-01 2.14774E-13 2.79880E-14
 -1      1941 2.05798E+01 2.23475E-01-2.54190E-03-7.79552E-01 2.00788E-13-1.92437E-14
 -1      1942 1.96159E+01 1.41983E-01 7.87593E-03 2.60236E-01 2.48980E-13 3.72083E-13
 -1      1943 1.98883E+01 2.04048E-01 1.64316E-02 4.33190E-01 2.56085E-13 4.78239E-13
 -1      1944 2.01002E+01 3.50500E-01-1.52551E-03 6.55930E-01 3.14908E-13 3.02512E-13
 -1      1945 1.93729E+01 7.18606E-02 6.94061E-03 5.73430E-02 1.62003E-13 2.65972E-13
 -1      1946 1.94883E+01 1.01744E-01 1.41945E-02 1.45812E-01 1.85469E-13 3.34008E-13
 -1      1947 1.97070E+01 1.65113E-01-1.94273E-03 2.57277E-01 2.34119E-13 2.12756E-13
 -1      1948 1.92818E+01 3.60981E-02 4.42468E-03-4.80416E-02 1.08118E-13 1.69956E-13
 -1      1949 1.93123E+01 5.19058E-02 8.33713E-03-8.87759E-04 1.15070E-13 2.33378E-13
 -1      1950 1.95062E+01 8.06076E-02-2.82443E-03 4.53697E-02 1.65620E-13 1.22236E-13
 -1      1951 1.92794E+01 1.62113E-02 2.86072E-03-1.00515E-01 6.31170E-14 1.11994E-13
 -1      1952 1.92646E+01 2.50463E-02 4.35575E-03-7.59210E-02 9.33381E-14 1.67049E-13
 -1      1953 1.94266E+01 3.74399E-02-2.84297E-03-6.64818E-02 1.15059E-13 3.90285E-14
 -1      1954 1.93260E+01 4.67184E-03 1.99138E-03-1.22727E-01 8.29574E-14 1.00584E-13
 -1      1955 1.92881E+01 9.66268E-03 2.15768E-03-1.11270E-01 4.35415E-14 1.20156E-13
 -1      1956 1.94197E+01 1.37066E-02-2.31714E-03-1.22113E-01 7.06745E-14 1.18106E-14
 -1      1957 1.93972E+01-1.96753E-03 1.45846E-03-1.27282E-01 1.43507E-13 6.37113E-14
 -1      1958 1.93490E+01 7.13599E-04 9.69042E-04-1.23658E-01 1.06899E-13 9.81757E-14
 -1      1959 1.94540E+01 2.89701E-04-1.70263E-03-1.44966E-01 1.28779E-13-1.18579E-14
 -1      1960 1.94781E+01-5.50945E-03 1.09162E-03-1.21839E-01 9.57586E-14 4.71910E-15
 -1      1961 1.94271E+01-4.28233E-03 3.10702E-04-1.22785E-01 1.22782E-13 5.89242E-14
 -1      1962 1.95098E+01-7.05553E-03-1.18952E-03-1.48636E-01 1.40425E-13-9.39971E-15
 -1      1963 1.95597E+01-7.00127E-03 8.28552E-04-1.11332E-01 1.67912E-14-1.17756E-14
 -1      1964 1.95102E+01-6.71113E-03-5.17978E-05-1.14713E-01 6.60268E-14 2.03754E-15
 -1      1965 1.95748E+01-1.05699E-02-8.11042E-04-1.41584E-01 9.02303E-14-4.55565E-15
 -1      1966 1.96375E+01-7.09219E-03 6.44776E-04-9.90624E-02 5.45685E-14-3.62768E-14
 -1      1967 1.95916E+01-7.41132E-03-2.31861E-04-1.03425E-01 6.11188E-14-8.23714E-15
 -1      1968 1.96416E+01-1.15588E-02-5.49437E-04-1.29345E-01 6.41764E-14-3.19959E-14
 -1      1969 1.97096E+01-6.19233E-03 5.28085E-04-8.73110E-02 5.78474E-14-2.46808E-14
 -1      1970 1.96680E+01-6.91038E-03-2.90804E-04-9.16319E-02 3.86898E-14-1.59743E-14
 -1      1971 1.97064E+01-1.08255E-02-3.80473E-04-1.15669E-01 4.63198E-14-3.92658E-14
 -1      1972 1.97760E+01-4.55305E-03 4.71520E-04-7.77194E-02 1.43599E-13-1.21710E-13
 -1      1973 1.97384E+01-5.53809E-03-2.65317E-04-8.12435E-02 1.09633E-13-7.14584E-14
 -1      1974 1.97677E+01-8.86751E-03-2.84450E-04-1.03191E-01 1.25501E-13-9.70817E-14
 -1      1975 1.98385E+01-2.31217E-03 4.71604E-04-7.15461E-02 4.12027E-14-8.36782E-14
 -1      1976 1.98037E+01-3.48738E-03-1.78274E-04-7.36779E-02 6.60661E-14-9.27953E-14
 -1      1977 1.98258E+01-5.97767E-03-2.47358E-04-9.38471E-02 9.77356E-14-9.11871E-14
 -1      1978 1.98998E+01 4.77416E-04 5.27700E-04-6.98532E-02 6.25056E-16-6.80756E-14
 -1      1979 1.98661E+01-8.50808E-04-4.36446E-05-7.00750E-02 1.20677E-14-6.28958E-14
 -1      1980 1.98823E+01-2.30147E-03-2.59931E-04-8.91685E-02 1.68246E-14-6.30603E-14
 -1      1981 1.99636E+01 3.82663E-03 6.41461E-04-7.36437E-02-1.46889E-14-1.75401E-13
 -1      1982 1.99288E+01 2.35465E-03 1.30633E-04-7.14543E-02 1.69896E-14-9.64983E-14
 -1      1983 1.99398E+01 2.12510E-03-3.16603E-04-9.04942E-02 2.76454E-14-9.87814E-14
 -1      1984 2.00347E+01 7.79135E-03 8.16103E-04-8.39619E-02 1.20434E-13-2.27316E-13
 -1      1985 1.99961E+01 6.16730E-03 3.40550E-04-7.88300E-02 2.92622E-14-2.12648E-13
 -1      1986 2.00019E+01 7.34609E-03-4.14637E-04-9.91225E-02 8.23365E-14-1.22857E-13
 -1      1987 2.01187E+01 1.24517E-02 1.05520E-03-1.01955E-01 1.09565E-13-1.40254E-13
 -1      1988 2.00730E+01 1.06605E-02 5.84097E-04-9.32887E-02 1.67248E-13-1.57673E-13
 -1      1989 2.00730E+01 1.34572E-02-5.53304E-04-1.16416E-01 1.37316E-13-2.12002E-13
 -1      1990 2.02221E+01 1.78843E-02 1.36050E-03-1.28890E-01-9.25025E-14-2.35803E-13
 -1      1991 2.01656E+01 1.59178E-02 8.59118E-04-1.16026E-01 8.85923E-15-2.17535E-13
 -1      1992 2.01583E+01 2.05719E-02-7.33181E-04-1.43853E-01 4.66019E-14-7.59004E-14
 -1      1993 2.03524E+01 2.41187E-02 1.72796E-03-1.66113E-01-1.62162E-13-2.81573E-13
 -1      1994 2.02808E+01 2.19966E-02 1.16055E-03-1.48331E-01-1.36154E-13-1.98285E-13
 -1      1995 2.02637E+01 2.87724E-02-9.55460E-04-1.83014E-01-1.22632E-13-1.98780E-13
 -1      1996 2.05178E+01 3.10649E-02 2.14101E-03-2.14895E-01-1.26266E-13-2.19577E-13
 -1      1997 2.04263E+01 2.88678E-02 1.47650E-03-1.91486E-01-1.73406E-13-3.06548E-13
 -1      1998 2.03960E+01 3.80298E-02-1.22117E-03-2.35470E-01-1.46031E-13-2.16394E-13
 -1      1999 2.07274E+01 3.83882E-02 2.55958E-03-2.76130E-01 9.12321E-14-2.43657E-13
 -1      2000 2.06108E+01 3.63149E-02 1.78267E-03-2.46532E-01-2.81216E-14-2.23236E-13
 -1      2001 2.05625E+01 4.80699E-02-1.53030E-03-3.02514E-01-3.84391E-14-2.27115E-13
 -1      2002 2.09898E+01 4.53037E-02 2.90355E-03-3.49738E-01 3.54549E-14-2.38299E-13
 -1      2003 2.08431E+01 4.37624E-02 2.03467E-03-3.13822E-01 1.10283E-13-2.26664E-13
 -1      2004 2.07706E+01 5.81465E-02-1.88060E-03-3.84636E-01 9.61982E-14-1.99691E-13
 -1      2005 2.13125E+01 5.02473E-02 3.03156E-03-4.33644E-01-7.61119E-14-2.50514E-13
 -1      2006 2.11316E+01 4.99992E-02 2.15897E-03-3.92214E-01-9.46261E-14-2.35825E-13
 -1      2007 2.10275E+01 6.66735E-02-2.26518E-03-4.80601E-01-5.16152E-14-2.19368E-13
 -1      2008 2.16996E+01 5.04015E-02 2.72151E-03-5.22098E-01-1.49733E-13-1.37039E-13
 -1      2009 2.14825E+01 5.27584E-02 2.04533E-03-4.77727E-01-8.08455E-14-1.96270E-13
 -1      2010 2.13386E+01 7.06666E-02-2.66657E-03-5.85901E-01-1.05455E-13-1.54563E-13
 -1      2011 2.21484E+01 4.11258E-02 1.67214E-03-6.03140E-01 1.50377E-14 4.21191E-15
 -1      2012 2.18977E+01 4.81610E-02 1.54851E-03-5.61469E-01-8.12486E-14-7.52430E-14
 -1      2013 2.17062E+01 6.50025E-02-3.04227E-03-6.90384E-01-1.34089E-13-1.41529E-13
 -1      2014 2.26448E+01 1.55838E-02-4.33342E-04-6.55277E-01 7.25863E-14 1.05647E-13
 -1      2015 2.23709E+01 3.01867E-02 5.13723E-04-6.26756E-01 8.31052E-14 5.11193E-14
 -1      2016 2.21268E+01 4.17019E-02-3.29292E-03-7.74937E-01 5.73639E-14 3.36855E-14
 -1      2017 2.31571E+01-3.46104E-02-3.73866E-03-6.44252E-01-1.90298E-13 1.84472E-13
 -1      2018 2.28823E+01-9.27729E-03-1.16220E-03-6.45907E-01-6.16370E-14 1.47478E-13
 -1      2019 2.25872E+01-1.00292E-02-3.20463E-03-8.07726E-01-3.44424E-14 1.90312E-13
 -1      2020 2.36295E+01-1.15990E-01-7.84282E-03-5.22790E-01-6.72205E-14 2.83108E-13
 -1      2021 2.33917E+01-7.84670E-02-3.41741E-03-5.78528E-01-1.55912E-13 2.09362E-13
 -1      2022 2.30607E+01-1.01287E-01-2.36963E-03-7.41881E-01-1.39692E-13 3.21686E-13
 -1      2023 2.39788E+01-2.24651E-01-1.13239E-02-2.39513E-01-2.35645E-14 1.49871E-13
 -1      2024 2.38319E+01-1.79624E-01-5.91692E-03-3.75754E-01 8.99550E-14 2.51382E-13
 -1      2025 2.35006E+01-2.35546E-01-1.48169E-04-5.19414E-01 5.10989E-14 3.61933E-13
 -1      2026 2.40990E+01-3.31427E-01-1.16622E-02 2.33149E-01-1.54938E-13 6.26877E-14
 -1      2027 2.41054E+01-2.96323E-01-8.03061E-03 1.76801E-03-1.82283E-13 3.24362E-14
 -1      2028 2.38355E+01-3.92231E-01 4.16380E-03-8.99459E-02-6.73402E-14 2.15427E-13
 -1      2029 2.38841E+01-3.69676E-01-6.71869E-03 8.45581E-01-9.37297E-14 6.11993E-14
 -1      2030 2.40939E+01-3.77459E-01-9.05203E-03 5.43598E-01-1.46270E-13 4.32146E-14
 -1      2031 2.39681E+01-5.05959E-01 1.03967E-02 5.45168E-01-9.61974E-14 5.83817E-14
 -1      2032 2.32817E+01-2.51967E-01 1.92543E-03 1.41314E+00 2.12720E-14 2.92627E-13
 -1      2033 2.36992E+01-3.37003E-01-8.30295E-03 1.13307E+00-4.05960E-14 1.84068E-13
 -1      2034 2.37959E+01-4.65803E-01 1.57266E-02 1.26570E+00-7.28150E-14 1.11709E-13
 -1      2035 2.23780E+01 5.62917E-02 6.42224E-03 1.62665E+00 2.05105E-14 1.27610E-13
 -1      2036 2.29256E+01-1.03018E-01-5.63556E-03 1.52048E+00 1.38651E-13 3.45921E-13
 -1      2037 2.32754E+01-1.74094E-01 1.40225E-02 1.78906E+00 7.63343E-14 1.65892E-13
 -1      2038 2.14637E+01 4.40532E-01-1.12489E-03 1.21914E+00 3.06205E-13 1.70216E-13
 -1      2039 2.19746E+01 2.83277E-01-4.48869E-04 1.41115E+00 1.35655E-13 1.27461E-13
 -1      2040 2.25269E+01 3.26800E-01-2.71169E-04 1.75005E+00 1.80038E-13 2.74728E-13
 -1      2041 2.09700E+01 6.49538E-01-1.51579E-02 2.50066E-01 1.51981E-13 1.63499E-13
 -1      2042 2.12373E+01 6.07659E-01 6.56756E-03 6.98232E-01 2.79877E-13 2.36549E-13
 -1      2043 2.18840E+01 7.85285E-01-1.80617E-02 9.67474E-01 2.55282E-13 3.72155E-13
 -1      2044 2.11680E+01 5.24568E-01-1.98063E-02-8.15581E-01 2.11116E-15-8.79054E-14
 -1      2045 2.10694E+01 6.35862E-01 1.19531E-02-3.34535E-01 3.70329E-14 5.41641E-14
 -1      2046 2.17162E+01 8.90704E-01-2.19793E-02-2.69130E-01 1.12192E-13 4.43391E-13
 -1      2047 2.19265E+01 1.63368E-01-9.68638E-03-1.43742E+00 2.82420E-13 2.04697E-15
 -1      2048 2.15163E+01 3.47574E-01 1.02022E-02-1.16186E+00 1.04996E-13-6.74460E-14
 -1      2049 2.21032E+01 5.68795E-01-6.91162E-03-1.32215E+00 1.16242E-13 1.41828E-13
 -1      2050 2.28143E+01-1.85050E-01 4.64612E-03-1.40588E+00-2.13291E-13 7.86142E-14
 -1      2051 2.22928E+01-4.37755E-02 1.19609E-03-1.41515E+00 3.43431E-14 9.74082E-14
 -1      2052 2.27582E+01 3.83639E-02 6.23496E-03-1.69758E+00 5.11904E-14 3.75748E-13
 -1      2053 2.34360E+01-3.57989E-01 1.23790E-02-9.04116E-01-1.21538E-13 1.42364E-13
 -1      2054 2.30153E+01-3.11528E-01-8.66310E-03-1.11261E+00-1.14745E-13 7.19563E-14
 -1      2055 2.32982E+01-3.82826E-01 7.30524E-03-1.37643E+00-1.63401E-13 3.16119E-13
 -1      2056 2.36278E+01-3.56568E-01 1.16771E-02-2.57962E-01 1.10856E-13-7.62732E-14
 -1      2057 2.34271E+01-3.84257E-01-1.38312E-02-5.28059E-01-4.27679E-14-9.69285E-14
 -1      2058 2.35096E+01-5.42442E-01 1.83191E-03-6.81196E-01 8.16135E-14-2.40376E-14
 -1      2059 2.34242E+01-2.62191E-01 6.85047E-03 2.93467E-01-1.07908E-13-8.16647E-14
 -1      2060 2.34561E+01-3.20395E-01-1.36894E-02 6.05081E-02 1.02517E-13 8.85273E-15
 -1      2061 2.33800E+01-4.85034E-01-2.38321E-03 4.11674E-02 5.83318E-14 4.95014E-14
 -1      2062 2.29461E+01-1.47937E-01 2.14045E-03 6.54594E-01 2.89816E-13-1.47047E-13
 -1      2063 2.31581E+01-2.05524E-01-1.02875E-02 4.98785E-01 1.28977E-15-1.46170E-13
 -1      2064 2.29975E+01-3.29314E-01-3.56740E-03 5.91241E-01 6.86161E-14 2.60846E-14
 -1      2065 2.23235E+01-4.93045E-02-3.95784E-04 8.25780E-01 3.06632E-13-3.89854E-13
 -1      2066 2.26416E+01-9.43178E-02-5.72212E-03 7.48373E-01 3.36444E-13-1.34659E-13
 -1      2067 2.24681E+01-1.64469E-01-2.76482E-03 9.13838E-01 3.14694E-13 1.90921E-13
 -1      2068 2.16648E+01 2.76120E-02-8.73430E-04 8.42685E-01 9.12521E-14-2.70274E-13
 -1      2069 2.20197E+01-5.11966E-03-1.37905E-03 8.30747E-01 1.75939E-13-2.74709E-13
 -1      2070 2.18817E+01-2.82433E-02-1.71822E-03 1.03091E+00 1.47528E-13 1.03982E-13
 -1      2071 2.10530E+01 9.10475E-02-3.40040E-04 7.39047E-01 6.59368E-14-1.22915E-13
 -1      2072 2.13879E+01 6.52755E-02 1.81337E-03 7.81031E-01-2.45307E-14-2.16853E-13
 -1      2073 2.13071E+01 7.83821E-02-1.35811E-03 9.84532E-01 3.42877E-14 1.28134E-13
 -1      2074 2.05517E+01 1.50743E-01 1.84479E-03 5.34758E-01 1.46617E-13 7.87863E-15
 -1      2075 2.08197E+01 1.25779E-01 3.03003E-03 6.25978E-01 1.73861E-13 8.18490E-14
 -1      2076 2.07937E+01 1.67988E-01-1.76368E-03 8.09238E-01 1.12086E-13 2.12930E-13
 -1      2077 2.02454E+01 1.93716E-01 4.81845E-03 3.27066E-01-5.92603E-15 1.47383E-13
 -1      2078 2.04320E+01 1.76056E-01 2.85187E-03 4.52133E-01 1.72251E-13 1.32198E-13
 -1      2079 2.04363E+01 2.38547E-01-2.78633E-03 5.98912E-01 8.49464E-14 5.70123E-13
 -1      2080 2.02194E+01 2.95592E-01-4.01178E-04 4.06444E-01 5.46759E-14 5.33527E-13
 -1      2081 1.99955E+01 1.59191E+00-2.69882E-03 9.13924E-01-4.28203E-14-2.50879E-13
 -1      2082 2.00498E+01 1.30265E+00 3.51859E-03 9.00585E-01-1.47202E-13 2.57142E-13
 -1      2083 2.01019E+01 1.07540E+00 2.09393E-04 8.50787E-01-3.12732E-14 4.32784E-13
 -1      2084 2.01542E+01 8.11016E-01 5.04239E-03 7.75015E-01-3.33811E-14 3.63951E-13
 -1      2085 2.01126E+01 1.07697E+00-1.16715E-03 1.10000E+00-5.10345E-14 1.79034E-13
 -1      2086 2.01752E+01 6.56424E-01 1.84941E-03 6.66086E-01-8.20038E-14 3.01701E-13
 -1      2087 2.02137E+01 4.42446E-01 5.00704E-03 5.43028E-01 7.51587E-14 4.77032E-13
 -1      2088 2.03061E+01 4.18539E-01 3.43659E-03 6.53300E-01 3.33279E-14 4.83248E-13
 -1      2089 2.02298E+01 7.07647E-01-1.07567E-03 9.19032E-01-5.75243E-14 3.93309E-13
 -1      2090 1.98947E+01 2.08628E+00-6.38738E-03 8.46967E-01-1.70690E-13-6.00746E-13
 -1      2091 1.99456E+01 1.81535E+00-2.61792E-05 8.91825E-01-7.17009E-14-4.85532E-13
 -1      2092 1.99568E+01 1.52529E+00 1.18589E-03 1.13000E+00-1.15783E-13-3.90026E-13
 -1      2093 1.98057E+01 2.51152E+00-9.42895E-03 6.54149E-01-1.08241E-13-9.85345E-14
 -1      2094 1.98489E+01 2.28938E+00-3.64624E-03 7.52962E-01-1.39742E-13-2.08849E-13
 -1      2095 1.98100E+01 1.95269E+00 4.17794E-03 1.00127E+00-1.58455E-13-4.21840E-13
 -1      2096 1.97461E+01 2.79459E+00-1.07214E-02 3.61125E-01-8.85444E-14-1.42022E-13
 -1      2097 1.97722E+01 2.65879E+00-7.19640E-03 4.99034E-01-3.22826E-14-8.66893E-14
 -1      2098 1.96892E+01 2.30464E+00 7.57740E-03 7.22053E-01 1.47901E-14-1.48538E-13
 -1      2099 1.97286E+01 2.89038E+00-1.01014E-02 1.41773E-02-2.73493E-13 8.63589E-14
 -1      2100 1.97318E+01 2.86074E+00-9.94244E-03 1.68746E-01-2.48404E-13-1.64519E-13
 -1      2101 1.96164E+01 2.51941E+00 9.79736E-03 3.31262E-01-1.51594E-13-2.49498E-13
 -1      2102 1.97564E+01 2.78465E+00-7.94769E-03-3.28399E-01-3.12420E-13-2.13049E-13
 -1      2103 1.97365E+01 2.86412E+00-1.11642E-02-1.83078E-01-2.60078E-13 1.62196E-13
 -1      2104 1.96069E+01 2.55980E+00 1.00922E-02-1.07393E-01-3.83406E-13 3.22901E-14
 -1      2105 1.98210E+01 2.49812E+00-5.03029E-03-6.10886E-01-4.06795E-13-4.51078E-13
 -1      2106 1.97841E+01 2.67260E+00-1.03969E-02-4.97751E-01-3.41384E-13-3.94153E-13
 -1      2107 1.96612E+01 2.42098E+00 8.33360E-03-5.19778E-01-4.86773E-13-4.32827E-13
 -1      2108 1.99050E+01 2.08852E+00-1.81218E-03-7.91976E-01-4.09342E-13-1.91485E-13
 -1      2109 1.98602E+01 2.32567E+00-7.85133E-03-7.26004E-01-4.18815E-13-2.58241E-13
 -1      2110 1.97640E+01 2.13468E+00 5.40147E-03-8.38593E-01-2.55304E-13-3.72083E-13
 -1      2111 1.99947E+01 1.60532E+00 1.18999E-03-8.61602E-01-8.09279E-14 5.60013E-13
 -1      2112 1.99489E+01 1.87895E+00-4.20878E-03-8.45506E-01-2.58767E-13 3.22027E-13
 -1      2113 1.98901E+01 1.75116E+00 1.88566E-03-1.02661E+00-1.85527E-13 1.53057E-13
 -1      2114 2.00788E+01 1.11921E+00 3.76453E-03-8.17728E-01 9.13527E-14 4.74122E-13
 -1      2115 2.00365E+01 1.38972E+00-4.80759E-04-8.51042E-01-5.60836E-15 3.82495E-13
 -1      2116 2.00215E+01 1.32521E+00-8.12463E-04-1.07319E+00 1.54301E-13 5.55889E-13
 -1      2117 2.01552E+01 6.76239E-01 2.94978E-03-6.74455E-01 1.07441E-13 2.27213E-13
 -1      2118 2.01135E+01 9.17981E-01 1.28229E-03-7.50736E-01-2.76485E-14 4.11810E-13
 -1      2119 2.01438E+01 9.10794E-01-2.30814E-03-9.85273E-01 8.92049E-14 3.28287E-13
 -1      2120 1.02248E+01-5.63100E+00-1.76919E-01 6.38521E+00 3.77476E-15-6.01845E-13
 -1      2121 6.67923E+00-7.00641E+00-3.73546E-01 5.27506E+00 2.04170E-13-4.19331E-13
 -1      2122 4.62096E-01-7.09576E+00-3.38711E-01 7.57229E-01 4.23370E-13-2.29206E-13
 -1      2123 4.84284E-01-7.12926E+00-3.43604E-01-9.31101E-01 5.39221E-13-2.18603E-13
 -1      2124 3.78512E+00-6.29651E+00-2.11558E-01 4.34507E+00 2.94376E-13-1.83520E-13
 -1      2125 1.69836E+00-7.19856E+00-3.73665E-01 2.67099E+00 3.22131E-13-2.34812E-13
 -1      2126 1.89286E+01-3.91595E+00-2.07910E-02 6.89342E+00-4.11449E-13-4.86278E-14
 -1      2127 1.44278E+01-5.63026E+00-3.00117E-01 6.24170E+00-2.24376E-13-3.65291E-13
 -1      2128 2.72753E+01-1.76599E+00 3.55659E-03 5.20103E+00-4.43812E-14-3.13805E-13
 -1      2129 2.23531E+01-3.26563E+00-1.88789E-01 5.71059E+00-3.59046E-13 8.38218E-15
 -1      2130 2.27761E+01-4.98039E+00 5.64010E-02 5.66700E+00-5.20417E-13-1.34837E-13
 -1      2131 1.95229E+01 4.01577E+00-2.56599E-02-1.70195E+00-3.12078E-13-5.39846E-13
 -1      2132 1.96508E+01 3.94223E+00-2.43589E-02-1.95714E+00-3.63288E-13-4.67567E-13
 -1      2133 1.99725E+01 3.25283E+00-8.06003E-03-1.91030E+00-4.02716E-13-3.90453E-13
 -1      2134 1.96939E+01 3.58273E+00-9.29637E-03-1.51867E+00-3.09312E-13-5.34734E-13
 -1      2135 3.88316E+01 5.69878E+00 2.83921E-01 1.41143E+00 2.02616E-13-6.97664E-13
 -1      2136 3.64209E+01 4.46102E+00 1.24090E-01 2.43244E+00 1.21458E-13-6.09568E-13
 -1      2137 4.05237E+01 7.17356E+00 2.94577E-01 5.04867E-02 3.65374E-13-8.99961E-13
 -1      2138 3.98262E+01 6.98227E+00 2.70900E-01 1.13173E+00 2.03948E-13-7.61308E-13
 -1      2139 3.78256E+01 6.41630E+00 1.27155E-01-8.32864E-01 3.56271E-13-8.21010E-13
 -1      2140 4.00159E+01 7.02349E+00 3.41768E-01-1.37615E-01 4.31322E-13-8.34499E-13
 -1      2141 3.42196E+01 2.85948E+00 7.97952E-02-2.78689E+00 1.78746E-13-9.79550E-13
 -1      2142 3.68432E+01 4.26801E+00 1.40554E-01-1.47471E+00 2.23987E-13-8.91343E-13
 -1      2143 2.80283E+01-3.46366E-01-7.93009E-02-4.55971E+00 3.62710E-13-8.43325E-13
 -1      2144 3.27584E+01 1.31410E+00 1.96701E-01-4.24701E+00 2.08444E-13-9.79661E-13
 -1      2145 3.26794E+01 1.16378E+00 2.25496E-01-7.48318E-01 6.02504E-14-6.51479E-13
 -1      2146 1.90454E+01-3.79231E+00-2.66942E-01-5.88618E+00 6.54921E-13-5.55445E-13
 -1      2147 2.42321E+01-1.81156E+00 7.30704E-02-6.36641E+00 6.50591E-13-7.30582E-13
 -1      2148 1.05531E+01-6.12739E+00-3.85386E-01-5.70414E+00 6.98219E-13-3.58394E-13
 -1      2149 1.48592E+01-4.25724E+00-8.66965E-02-6.70816E+00 7.10654E-13-4.26548E-13
 -1      2150 4.45147E+00-7.02017E+00-3.67114E-01-4.37526E+00 4.50862E-13-5.30104E-13
 -1      2151 7.28712E+00-5.94750E+00-2.13515E-01-5.55977E+00 6.57030E-13-4.88026E-13
 -1      2152 6.05413E-01-7.13224E+00-3.74877E-01-1.40609E+00 2.82843E-13-5.12645E-13
 -1      2153 1.80357E+00-6.85388E+00-3.39803E-01-2.94982E+00 3.99958E-13-5.07872E-13
 -1      2154 9.33543E-01-7.19612E+00-3.89642E-01 2.21160E+00 2.95597E-14-9.12270E-13
 -1      2155 1.76546E-01-7.23690E+00-3.94726E-01 6.20921E-01 2.23627E-13-6.45373E-13
 -1      2156 5.53823E+00-6.14401E+00-2.86497E-01 5.21563E+00-1.97786E-13-7.74575E-13
 -1      2157 2.73524E+00-7.40994E+00-4.62952E-01 3.57023E+00-5.26801E-14-9.93983E-13
 -1      2158 1.37845E+01-4.56155E+00-6.61849E-02 6.78404E+00-6.01630E-13-2.81331E-13
 -1      2159 1.02004E+01-5.96244E+00-1.85409E-01 6.13940E+00-3.50830E-13-4.29649E-13
 -1      2160 2.25668E+01-1.85264E+00 9.22557E-02 6.76851E+00-4.29212E-13-7.21034E-13
 -1      2161 1.72743E+01-4.03492E+00-2.74210E-01 6.10386E+00-4.65628E-13-4.34874E-13
 -1      2162 3.16129E+01 1.42495E+00 2.27819E-01 5.32217E+00-3.80945E-13-5.73208E-13
 -1      2163 2.63106E+01-3.63728E-01-7.97543E-02 5.42613E+00-4.18776E-13-6.03739E-13
 -1      2164 3.68393E+01 4.33870E+00 1.85407E-01 2.13123E+00-5.02653E-13-1.20515E-13
 -1      2165 3.40635E+01 3.05291E+00 1.70849E-01 3.48015E+00-4.11400E-13-3.80251E-13
 -1      2166 4.00161E+01 6.99079E+00 3.66533E-01 3.61099E-01-6.02018E-13-1.89238E-13
 -1      2167 3.77687E+01 6.34945E+00 1.57501E-01 1.06716E+00-5.19751E-13-1.91736E-13
 -1      2168 4.05345E+01 6.94561E+00 3.64310E-01-1.24564E+00-6.76570E-13-3.97737E-13
 -1      2169 4.06378E+01 7.19696E+00 3.10756E-01 4.06637E-02-5.97022E-13-4.19113E-13
 -1      2170 3.64459E+01 4.98444E+00 1.35375E-01-2.38995E+00-4.48863E-13-3.07365E-13
 -1      2171 3.97973E+01 6.04516E+00 4.26738E-01-1.76688E+00-6.83509E-13-5.14033E-13
 -1      2172 3.07190E+01 1.03556E+00-1.87253E-03-4.09298E+00-4.52000E-14 2.78555E-13
 -1      2173 3.47524E+01 2.72798E+00 2.28792E-01-3.43635E+00-2.51729E-13-4.72955E-14
 -1      2174 2.30000E+01-2.63636E+00-1.74106E-01-5.72002E+00 1.64535E-13 6.26721E-13
 -1      2175 2.79426E+01-8.16223E-01 1.22951E-01-5.69423E+00 1.46549E-14 5.71987E-13
 -1      2176 1.46039E+01-5.35104E+00-3.03111E-01-6.25594E+00 2.31926E-13 4.52305E-13
 -1      2177 1.92544E+01-3.32478E+00 1.95868E-03-6.99711E+00 2.22378E-13 7.59615E-13
 -1      2178 6.52285E+00-7.12159E+00-4.21885E-01-5.19769E+00 1.80633E-13 3.96100E-13
 -1      2179 1.01832E+01-5.50389E+00-1.74275E-01-6.45029E+00 4.67404E-14 4.48690E-13
 -1      2180 1.49213E+00-7.62363E+00-4.29442E-01-2.74149E+00 4.90108E-13 1.34837E-13
 -1      2181 3.51337E+00-6.77735E+00-2.96811E-01-4.27271E+00 2.38476E-13 3.46945E-13
 -1      2182 3.53282E+01 2.82626E+00 3.52237E-01 3.37719E+00 5.98618E-14-5.14200E-13
 -1      2183 3.09182E+01 5.70176E-01 1.41186E-02 3.28650E+00 2.24126E-14-3.82916E-13
 -1      2184 3.36164E+01 2.96598E+00 1.46640E-01 4.70127E-02 2.45193E-13-4.24549E-13
 -1      2185 2.07339E+01 1.10872E+00-2.05787E-02-1.61704E+00-3.99413E-13 2.52635E-13
 -1      2186 2.95925E+01-1.53324E+00 4.25979E-02 3.13292E+00-1.35725E-14-4.82114E-13
 -1      2187 2.81740E+01-3.37629E+00 1.45712E-01 2.76065E+00-5.65104E-14-3.98598E-13
 -1      2188 3.04031E+01-1.49545E+00-1.70681E-01 6.58164E-01 1.42317E-14-5.94136E-13
 -1      2189 2.06242E+01 1.32939E+00-1.88330E-02-1.67866E+00-4.31516E-13 2.60764E-14
 -1      2190 7.06739E+00-5.54411E+00-1.20070E-01 5.64957E+00 1.35114E-13-4.97685E-13
 -1      2191 2.63956E+00-4.64527E+00-1.20655E-01 2.19242E+00 2.07667E-13-2.76112E-13
 -1      2192 2.01969E+01 5.33360E-01 3.92577E-03-6.45801E-01 1.18271E-13 1.80756E-13
 -1      2193 1.48052E+01-5.95661E+00-5.87481E-02 6.94264E+00-1.03806E-13-5.34175E-13
 -1      2194 2.35201E+00-5.02956E+00-1.75488E-01-2.29092E+00 2.07806E-13 4.58522E-14
 -1      2195 6.83109E+00-5.84897E+00-1.68813E-01-5.74736E+00 6.98885E-14 4.83141E-13
 -1      2196 1.49040E+01-5.87822E+00-6.45676E-02-6.96495E+00 1.69198E-13 4.91683E-13
 -1      2197 2.34965E+01-4.58079E+00 7.05331E-02-5.58973E+00 2.01006E-13 6.66300E-13
 -1      2198 2.99143E+01-1.43702E+00 1.49309E-01-2.82789E+00 9.89764E-14 2.24099E-13
 -1      2199 3.40756E+01 3.36766E+00 2.11471E-01-6.46307E-01-2.82330E-13-6.76681E-13
 -1      2200 3.62580E+01 7.23092E+00 3.38458E-01-5.13606E-04-5.99631E-13-3.52468E-13
 -1      2201 3.61662E+01 7.99717E+00 2.90220E-01-2.80009E-01-5.76372E-13 7.45931E-14
 -1      2202 3.49328E+01 5.42066E+00 2.39113E-01-9.86932E-02-3.75866E-13 1.58651E-13
 -1      2203 3.22873E+01 1.16004E+00 2.56848E-01 1.98850E+00-2.30985E-13-1.09579E-13
 -1      2204 2.61675E+01-2.86243E+00 8.65898E-02 4.72021E+00-2.44083E-13-3.27849E-13
 -1      2205 1.82268E+01-5.44010E+00-1.00102E-01 6.50842E+00-2.37921E-13-2.65510E-13
 -1      2206 9.31181E+00-5.66165E+00-1.08844E-01 6.15243E+00-1.15297E-13-5.72889E-13
 -1      2207 8.99689E+00-4.60275E+00 1.33510E-01 6.30937E+00-1.63758E-14-6.23196E-13
 -1      2208 1.30359E+01-5.43380E+00-1.13888E-01 6.91770E+00-2.48690E-14-3.31596E-13
 -1      2209 3.20661E+00-5.19783E+00-1.62945E-01 3.65763E+00 1.74027E-14-1.05838E-12
 -1      2210 1.53911E+00-4.99648E+00-1.85601E-01-5.22585E-01 1.42469E-13-6.28220E-13
 -1      2211 4.87141E+00-5.23229E+00-1.41781E-01-4.60602E+00 2.21656E-13-5.94413E-13
 -1      2212 1.13683E+01-5.83690E+00-1.19491E-01-6.52793E+00 3.95350E-13-2.87520E-13
 -1      2213 2.78813E+01-2.71867E+00 1.21413E-01-3.71966E+00 3.44197E-13-6.45817E-13
 -1      2214 3.47304E+01 5.35372E+00 2.07178E-01 5.96054E-01 2.12885E-13-6.66467E-13
 -1      2215 3.57309E+01 6.79421E+00 2.86953E-01-2.65719E-01 2.56573E-13-5.75123E-13
 -1      2216 3.58966E+01 8.04057E+00 3.02506E-01 3.31006E-01 3.34011E-13-6.84772E-13
 -1      2217 1.95696E+01-5.25119E+00-1.60905E-02-6.21671E+00 4.44977E-13-3.46584E-13
 -1      2218 2.01453E+01 5.06314E-01 3.72912E-03 6.79217E-01 3.06812E-13 1.20484E-13
 -1      2219 2.04135E+01 6.99865E-01 2.07898E-02 9.70764E-01 3.42894E-13 1.70046E-13
 -1      2220 1.95622E+01 3.51562E+00-1.11304E-02-5.92157E-01-1.12872E-13-6.17669E-13
 -1      2221 1.95974E+01 3.46975E+00-1.05259E-02-7.76671E-01-1.63354E-13-6.16037E-13
 -1      2222 1.96437E+01 3.38171E+00-1.28060E-02-9.41333E-01-1.92772E-13-5.98025E-13
 -1      2223 1.97042E+01 3.30116E+00-1.28872E-02-1.13071E+00-2.44759E-13-5.68309E-13
 -1      2224 1.97887E+01 3.03283E+00 1.89733E-04-7.93164E-01-1.71963E-13-5.67137E-13
 -1      2225 1.95154E+01 3.59806E+00-9.62671E-03 9.95503E-02 4.80065E-14-6.15424E-13
 -1      2226 1.95147E+01 3.59888E+00-9.63402E-03-8.01368E-02 1.03129E-14-6.07330E-13
 -1      2227 1.95412E+01 3.55867E+00-9.72801E-03 4.46033E-01 1.22115E-13-6.02476E-13
 -1      2228 1.95239E+01 3.58123E+00-1.01444E-02 2.65004E-01 8.53919E-14-6.14503E-13
 -1      2229 1.96816E+01 3.22072E+00-8.99372E-04 1.69809E-01 5.96891E-14-5.79157E-13
 -1      2230 1.96026E+01 3.46217E+00-1.06152E-02 7.90399E-01 2.05276E-13-5.70202E-13
 -1      2231 1.95666E+01 3.50917E+00-1.12120E-02 6.08783E-01 1.57049E-13-5.87363E-13
 -1      2232 1.97181E+01 3.15722E+00-5.01423E-04 4.88683E-01 1.33245E-13-5.64729E-13
 -1      2233 1.97126E+01 3.28849E+00-1.29552E-02 1.14409E+00 3.00746E-13-4.80889E-13
 -1      2234 1.96503E+01 3.37180E+00-1.28760E-02 9.54671E-01 2.43973E-13-5.33450E-13
 -1      2235 1.97946E+01 3.02361E+00 2.70400E-04 8.04760E-01 2.19778E-13-5.10147E-13
 -1      2236 1.98909E+01 3.00303E+00-1.81732E-02 1.49137E+00 3.80421E-13-3.78261E-13
 -1      2237 1.97919E+01 3.14427E+00-1.51755E-02 1.30087E+00 3.30263E-13-4.36271E-13
 -1      2238 1.99231E+01 2.79856E+00 1.95878E-03 1.11134E+00 3.08099E-13-4.29162E-13
 -1      2239 2.01684E+01 2.54362E+00-2.84043E-02 1.79581E+00 4.48156E-13-2.24629E-13
 -1      2240 2.00176E+01 2.78294E+00-1.70873E-02 1.62131E+00 3.95576E-13-3.06033E-13
 -1      2241 2.01168E+01 2.44806E+00 5.84498E-03 1.37731E+00 3.68461E-13-3.12027E-13
 -1      2242 1.98678E+01 2.68112E-01 4.72345E-03 2.86797E-01 2.39731E-13 5.29952E-14
 -1      2243 2.00288E+01 3.67861E-01 2.01696E-02 4.43900E-01 2.75564E-13 1.09647E-13
 -1      2244 2.02086E+01 6.34454E-01-2.22750E-03 7.06331E-01 3.23058E-13-1.11204E-14
 -1      2245 2.03997E+01 8.54306E-01 1.31819E-02-1.00191E+00-3.49176E-13-8.33001E-14
 -1      2246 2.01872E+01 6.27035E-01-4.52342E-03-6.92714E-01-3.09808E-13-9.19223E-14
 -1      2247 1.03759E+01-4.93716E+00 2.43125E-02 6.69169E+00 3.05311E-15-6.36657E-13
 -1      2248 7.20755E+00-4.05346E+00 7.46341E-02 5.35782E+00-9.23150E-14-3.72202E-13
 -1      2249 2.01224E+01 4.69293E-01 1.61946E-02-4.76700E-01-2.63567E-13-7.54197E-14
 -1      2250 1.99808E+01 3.44347E-01-5.26002E-05-3.05131E-01-2.15908E-13-1.08180E-13
 -1      2251 2.02418E+01 7.45388E-01-2.21569E-03-6.94697E-01-3.07363E-13-1.63050E-13
 -1      2252 1.99175E+01 2.59314E-01 1.08322E-02-1.67699E-01-1.96405E-13-1.05900E-13
 -1      2253 1.98385E+01 1.87849E-01 6.82430E-04-7.05569E-02-1.88213E-13-1.41575E-13
 -1      2254 2.00785E+01 4.16149E-01-3.76497E-03-3.12043E-01-2.26926E-13-1.71109E-13
 -1      2255 1.97941E+01 1.38432E-01 6.38358E-03 1.14519E-02-1.43708E-13-1.22271E-13
 -1      2256 1.97589E+01 9.62110E-02 7.21596E-04 6.47536E-02-1.16536E-13-1.34603E-13
 -1      2257 1.99577E+01 2.27054E-01-3.66541E-03-7.32670E-02-1.76299E-13-1.59953E-13
 -1      2258 1.97330E+01 6.64521E-02 3.58150E-03 1.10544E-01-1.26774E-13-1.52357E-13
 -1      2259 1.97256E+01 4.11186E-02 6.40229E-04 1.37226E-01-1.13406E-13-1.58716E-13
 -1      2260 1.98820E+01 1.14962E-01-2.95284E-03 6.74996E-02-1.49663E-13-1.57549E-13
 -1      2261 1.97140E+01 2.31014E-02 1.86357E-03 1.59742E-01-1.22985E-13-1.58061E-13
 -1      2262 1.97233E+01 8.17682E-03 5.40374E-04 1.70194E-01-1.04567E-13-1.65033E-13
 -1      2263 1.98425E+01 4.73588E-02-2.14873E-03 1.44116E-01-1.32814E-13-1.83157E-13
 -1      2264 1.97216E+01-2.36738E-03 8.04724E-04 1.78150E-01-9.06290E-14-1.85119E-13
 -1      2265 1.97402E+01-1.05579E-02 4.52795E-04 1.78978E-01-9.71770E-14-2.05254E-13
 -1      2266 1.98288E+01 7.12222E-03-1.47359E-03 1.79652E-01-1.17498E-13-2.10318E-13
 -1      2267 1.97449E+01-1.61371E-02 1.58048E-04 1.78315E-01-1.29197E-13-2.15020E-13
 -1      2268 1.97681E+01-1.98231E-02 3.95469E-04 1.73890E-01-1.68566E-13-2.39675E-13
 -1      2269 1.98323E+01-1.54225E-02-9.71353E-04 1.89832E-01-1.18516E-13-2.42989E-13
 -1      2270 1.97766E+01-2.20046E-02-2.21199E-04 1.68714E-01-1.45873E-13-2.16930E-13
 -1      2271 1.98015E+01-2.25974E-02 3.77211E-04 1.62019E-01-9.57061E-14-2.04260E-13
 -1      2272 1.98465E+01-2.61220E-02-6.24555E-04 1.85485E-01-1.41582E-13-2.27921E-13
 -1      2273 1.98124E+01-2.23918E-02-4.23968E-04 1.55218E-01-5.62645E-14-1.50603E-13
 -1      2274 1.98375E+01-2.07962E-02 4.01775E-04 1.48342E-01-3.31986E-14-1.34276E-13
 -1      2275 1.98670E+01-2.86676E-02-4.02604E-04 1.74172E-01-6.21039E-14-1.27972E-13
 -1      2276 1.98496E+01-1.88552E-02-5.10755E-04 1.41988E-01-5.56498E-15-9.62076E-14
 -1      2277 1.98746E+01-1.56382E-02 4.71149E-04 1.36446E-01 5.40625E-14-6.10244E-14
 -1      2278 1.98912E+01-2.54287E-02-2.77033E-04 1.61271E-01 1.21293E-14-2.46939E-14
 -1      2279 1.98876E+01-1.23660E-02-5.23108E-04 1.32081E-01-5.14996E-17-8.36728E-14
 -1      2280 1.99126E+01-7.85825E-03 5.87350E-04 1.29025E-01-7.54228E-14-5.05623E-14
 -1      2281 1.99176E+01-1.79016E-02-2.24996E-04 1.50703E-01 8.76233E-15-9.21820E-14
 -1      2282 1.99266E+01-3.48312E-03-4.89861E-04 1.27861E-01-1.48375E-13-3.05967E-14
 -1      2283 1.99524E+01 2.15275E-03 7.52844E-04 1.28234E-01-1.04553E-13-7.82102E-14
 -1      2284 1.99460E+01-6.97573E-03-2.29053E-04 1.45454E-01-9.90304E-14-9.56133E-14
 -1      2285 1.99677E+01 7.52527E-03-4.30968E-04 1.31293E-01-7.84871E-14-6.23669E-14
 -1      2286 1.99954E+01 1.42398E-02 9.70054E-04 1.35932E-01-4.32619E-14-6.98849E-14
 -1      2287 1.99767E+01 6.88675E-03-2.76018E-04 1.47937E-01-7.30178E-14-1.77100E-15
 -1      2288 2.00127E+01 2.05805E-02-3.60003E-04 1.44146E-01-3.66118E-14-8.54662E-14
 -1      2289 2.00440E+01 2.83854E-02 1.24012E-03 1.53844E-01-1.90536E-14-8.75174E-14
 -1      2290 2.00109E+01 2.35082E-02-3.55763E-04 1.60251E-01-6.09564E-14-2.14136E-14
 -1      2291 2.00641E+01 3.56927E-02-2.85744E-04 1.68102E-01-1.57945E-14-2.13257E-13
 -1      2292 2.01009E+01 4.46027E-02 1.56086E-03 1.83632E-01-1.69094E-14-2.28239E-13
 -1      2293 2.00500E+01 4.28608E-02-4.60165E-04 1.84340E-01-8.15763E-14-1.02933E-13
 -1      2294 2.01248E+01 5.28427E-02-2.12987E-04 2.04792E-01-4.44512E-14-2.26292E-13
 -1      2295 2.01692E+01 6.27991E-02 1.92375E-03 2.26876E-01-2.51982E-14-2.06331E-13
 -1      2296 2.00960E+01 6.49147E-02-5.82296E-04 2.22049E-01-2.12527E-14-2.97056E-13
 -1      2297 2.01981E+01 7.18253E-02-1.42551E-04 2.55706E-01-4.28721E-15-1.85335E-13
 -1      2298 2.02524E+01 8.25895E-02 2.30945E-03 2.84931E-01 1.22090E-14-2.22819E-13
 -1      2299 2.01511E+01 8.94421E-02-7.16161E-04 2.75082E-01-4.20065E-14-2.14912E-13
 -1      2300 2.02876E+01 9.20258E-02-7.01670E-05 3.21984E-01 4.84293E-14-1.98092E-13
 -1      2301 2.03543E+01 1.03023E-01 2.68155E-03 3.58616E-01 6.35598E-14-2.07523E-13
 -1      2302 2.02178E+01 1.15745E-01-8.57431E-04 3.44810E-01 1.94863E-14-1.75250E-13
 -1      2303 2.03974E+01 1.12095E-01 1.61510E-05 4.03996E-01 1.19515E-13-1.94570E-13
 -1      2304 2.04786E+01 1.22190E-01 2.97811E-03 4.47677E-01 1.66183E-13-1.01148E-13
 -1      2305 2.02992E+01 1.42260E-01-1.00579E-03 4.31907E-01 1.15027E-13-1.33313E-13
 -1      2306 2.05315E+01 1.29479E-01 1.40785E-04 5.00670E-01 1.23246E-13-1.23214E-13
 -1      2307 2.06292E+01 1.36655E-01 3.10121E-03 5.49938E-01 3.15417E-14 4.95226E-15
 -1      2308 2.03982E+01 1.65991E-01-1.16983E-03 5.35731E-01 1.39546E-13-1.04159E-13
 -1      2309 2.06942E+01 1.39772E-01 3.47431E-04 6.08443E-01-6.73407E-14 7.82142E-15
 -1      2310 2.08096E+01 1.40724E-01 2.90564E-03 6.60032E-01-9.96371E-14-1.70734E-14
 -1      2311 2.05187E+01 1.81730E-01-1.37526E-03 6.53381E-01-3.11799E-14-9.90729E-14
 -1      2312 2.08897E+01 1.35915E-01 7.07025E-04 7.19752E-01-1.34502E-13-6.51138E-14
 -1      2313 2.10228E+01 1.25609E-01 2.19073E-03 7.67646E-01-2.39103E-14-5.89841E-14
 -1      2314 2.06652E+01 1.81064E-01-1.67594E-03 7.78334E-01-1.10240E-13 1.25189E-14
 -1      2315 2.11223E+01 1.07411E-01 1.32160E-03 8.20999E-01-6.49920E-15-3.80823E-14
 -1      2316 2.12713E+01 7.88336E-02 7.03137E-04 8.55297E-01-1.55780E-14-4.85507E-14
 -1      2317 2.08438E+01 1.51363E-01-2.16326E-03 8.98568E-01-6.25114E-14 2.59910E-14
 -1      2318 2.13966E+01 4.01138E-02 2.30857E-03 8.90092E-01 3.36501E-14-8.56270E-14
 -1      2319 2.15571E+01-1.52395E-02-1.83230E-03 8.95989E-01 1.09789E-13-2.36624E-14
 -1      2320 2.10633E+01 7.53176E-02-2.96017E-03 9.94210E-01 1.47933E-15-2.64909E-14
 -1      2321 2.17164E+01-8.21390E-02 3.73606E-03 8.94120E-01 4.47613E-14-1.45949E-13
 -1      2322 2.18804E+01-1.71943E-01-5.61877E-03 8.51728E-01-3.67504E-14-2.63630E-13
 -1      2323 2.13357E+01-6.75900E-02-4.16734E-03 1.03493E+00-7.23054E-15-1.24593E-13
 -1      2324 2.20824E+01-2.71633E-01 5.45228E-03 7.88694E-01-8.41558E-15-2.17570E-13
 -1      2325 2.22367E+01-3.96792E-01-1.05404E-02 6.75264E-01 4.67241E-14-2.89823E-13
 -1      2326 2.16760E+01-2.94922E-01-5.70020E-03 9.78011E-01-1.55874E-14-1.43446E-13
 -1      2327 2.24852E+01-5.23097E-01 6.82097E-03 5.22517E-01 9.45179E-14-3.06453E-13
 -1      2328 2.26096E+01-6.66458E-01-1.55772E-02 3.19621E-01-6.74938E-15-2.02769E-13
 -1      2329 2.20971E+01-6.06208E-01-6.93626E-03 7.69463E-01-7.11670E-16-1.00997E-13
 -1      2330 2.28909E+01-7.89894E-01 6.43092E-03 5.41892E-02 2.36920E-15-1.82144E-13
 -1      2331 2.29580E+01-9.01431E-01-1.80636E-02-2.36954E-01 1.55394E-13-4.88795E-14
 -1      2332 2.25952E+01-9.54891E-01-6.17508E-03 3.54054E-01 8.35347E-14-8.26859E-14
 -1      2333 2.32229E+01-9.57509E-01 1.88909E-03-6.08680E-01 1.48027E-13-1.75189E-13
 -1      2334 2.32028E+01-9.49433E-01-1.42282E-02-9.43320E-01 9.17964E-14-8.84049E-14
 -1      2335 2.31221E+01-1.21281E+00-9.47219E-04-2.93897E-01 8.98550E-14-1.80433E-13
 -1      2336 2.33587E+01-8.46500E-01-9.73971E-03-1.34741E+00 7.17499E-14-2.83413E-14
 -1      2337 2.32371E+01-6.23879E-01-1.86278E-03-1.61704E+00 8.32542E-14-5.35020E-14
 -1      2338 2.35567E+01-1.16159E+00 8.58045E-03-1.10862E+00 7.05527E-14-2.80897E-13
 -1      2339 2.31906E+01-2.99981E-01-2.47493E-02-1.88086E+00 6.27397E-14 6.21963E-14
 -1      2340 2.29932E+01 1.42989E-01 1.47434E-02-1.92972E+00-1.99424E-14 1.52006E-13
 -1      2341 2.37191E+01-5.89732E-01 1.20334E-02-1.84568E+00 1.08108E-13-4.74256E-14
 -1      2342 2.27529E+01 6.19289E-01-3.04215E-02-1.83844E+00-2.22496E-14 1.37841E-13
 -1      2343 2.25579E+01 1.10365E+00 2.28728E-02-1.55197E+00 4.48461E-14 2.32616E-13
 -1      2344 2.35092E+01 5.01278E-01 4.42624E-03-2.08809E+00 1.57045E-14 1.30538E-13
 -1      2345 2.23128E+01 1.47770E+00-1.63397E-02-1.02619E+00-6.59542E-15 1.75577E-13
 -1      2346 2.22219E+01 1.69258E+00 9.28856E-03-4.70141E-01-4.51444E-14 2.28347E-13
 -1      2347 2.30873E+01 1.67535E+00-9.36591E-03-1.46864E+00 1.11335E-14 8.01017E-14
 -1      2348 2.22071E+01 1.69096E+00 7.29079E-03 2.56170E-01-1.34339E-13 1.18533E-13
 -1      2349 2.22617E+01 1.47640E+00-1.88600E-02 8.11575E-01-5.42344E-14 7.55312E-14
 -1      2350 2.28505E+01 2.17818E+00-2.41643E-02-1.23422E-01-9.72573E-14-1.76283E-14
 -1      2351 2.24821E+01 1.10240E+00 2.12500E-02 1.33750E+00-6.08368E-14-8.69907E-14
 -1      2352 2.26369E+01 6.15398E-01-3.29734E-02 1.62374E+00-1.58908E-13-3.20249E-13
 -1      2353 2.30346E+01 1.66291E+00-1.69553E-02 1.22657E+00-2.31341E-13-3.59248E-13
 -1      2354 2.28608E+01 1.34671E-01 1.60492E-02 1.71488E+00 4.77491E-14-2.79362E-13
 -1      2355 2.30180E+01-3.17142E-01-2.54867E-02 1.66157E+00 7.82007E-14-5.31055E-14
 -1      2356 2.34159E+01 4.93766E-01 3.75723E-03 1.85037E+00-1.58727E-15-2.11229E-13
 -1      2357 2.30474E+01-6.48923E-01-4.82467E-04 1.38930E+00-1.48718E-13-1.51966E-14
 -1      2358 2.31281E+01-8.78937E-01-1.02677E-02 1.10920E+00-1.55497E-13 2.73457E-15
 -1      2359 2.35900E+01-6.14248E-01 1.45474E-02 1.59743E+00 4.72278E-15-3.84753E-14
 -1      2360 2.29511E+01-9.87006E-01-1.37921E-02 6.91187E-01-2.61840E-13 4.27810E-14
 -1      2361 2.29271E+01-9.98542E-01 7.42328E-04 3.42786E-01-2.47779E-13 6.77335E-14
 -1      2362 2.33859E+01-1.20870E+00 8.32575E-03 8.35703E-01-1.54286E-13-3.97169E-14
 -1      2363 2.26379E+01-9.41731E-01-1.80397E-02-4.49050E-02-2.02786E-13 5.53960E-14
 -1      2364 2.25241E+01-8.26426E-01 5.91732E-03-3.48582E-01 3.93262E-15-1.08193E-13
 -1      2365 2.29049E+01-1.26526E+00-1.32954E-03-1.00634E-02-2.97411E-13 2.51333E-13
 -1      2366 2.22162E+01-6.95563E-01-1.55572E-02-6.25958E-01 2.92262E-13-2.10907E-13
 -1      2367 2.20442E+01-5.40492E-01 7.08001E-03-8.35444E-01 2.41674E-13-2.34094E-13
 -1      2368 2.23263E+01-9.96506E-01-6.52128E-03-6.86479E-01 4.05678E-14 1.19285E-13
 -1      2369 2.17674E+01-3.98363E-01-1.06237E-02-9.90955E-01 7.75734E-14-2.23488E-13
 -1      2370 2.15677E+01-2.51130E-01 6.72805E-03-1.09896E+00 6.64223E-14 5.77056E-15
 -1      2371 2.17746E+01-6.16523E-01-7.24464E-03-1.11632E+00 2.27402E-13-3.96927E-14
 -1      2372 2.13357E+01-1.24676E-01-5.89930E-03-1.14901E+00 8.23489E-14 6.76301E-14
 -1      2373 2.11318E+01 3.92079E-04 6.22271E-03-1.16653E+00-4.82972E-14 2.22050E-13
 -1      2374 2.12989E+01-2.48371E-01-5.96411E-03-1.31337E+00 1.00098E-13 1.22882E-13
 -1      2375 2.09401E+01 1.08062E-01-2.31826E-03-1.13214E+00-1.77918E-13 3.76835E-13
 -1      2376 2.07500E+01 2.10368E-01 5.17293E-03-1.07257E+00-7.12151E-14 3.34933E-13
 -1      2377 2.09043E+01 6.84207E-02-3.80459E-03-1.31841E+00 6.82602E-14 2.79621E-13
 -1      2378 1.96196E+01 7.25774E-02 2.07546E-03-6.45811E-02 1.09165E-13-4.23036E-14
 -1      2379 1.96472E+01 1.04224E-01 6.91343E-03-1.84297E-02 1.44453E-13-1.99062E-14
 -1      2380 1.95958E+01 3.09666E-02 1.35480E-03-1.30466E-01 8.10595E-14-8.41157E-14
 -1      2381 1.95929E+01 4.97485E-02 3.68916E-03-1.07853E-01 8.53740E-14-5.96217E-14
 -1      2382 1.97654E+01 8.99526E-02-3.19215E-03-6.99003E-02 1.23483E-13-8.91179E-14
 -1      2383 1.96080E+01 6.30686E-03 9.07493E-04-1.59442E-01 1.28979E-13-7.93908E-14
 -1      2384 1.95879E+01 1.73419E-02 1.82906E-03-1.50935E-01 9.99011E-14-9.49623E-14
 -1      2385 1.97313E+01 3.63633E-02-2.30860E-03-1.42649E-01 1.15000E-13-1.30408E-13
 -1      2386 1.96408E+01-7.72438E-03 6.13829E-04-1.66162E-01 1.06229E-13-2.43337E-14
 -1      2387 1.96121E+01-1.61838E-03 7.37968E-04-1.65954E-01 1.28477E-13-3.96804E-14
 -1      2388 1.97283E+01 4.84053E-03-1.55072E-03-1.75294E-01 1.05798E-13-1.05917E-13
 -1      2389 1.96842E+01-1.47720E-02 4.28301E-04-1.60206E-01 6.08720E-14-2.98715E-14
 -1      2390 1.96520E+01-1.19294E-02 9.53249E-05-1.64522E-01 1.25746E-13-8.56522E-15
 -1      2391 1.97446E+01-1.27704E-02-9.91780E-04-1.83543E-01 9.22559E-14-4.64243E-14
 -1      2392 1.97318E+01-1.70790E-02 3.30052E-04-1.48034E-01 8.78633E-14-4.70559E-14
 -1      2393 1.96993E+01-1.64620E-02-2.66235E-04-1.54329E-01 6.08743E-14-3.23278E-14
 -1      2394 1.97718E+01-2.12194E-02-6.11730E-04-1.77907E-01 9.78808E-14-5.86337E-14
 -1      2395 1.97803E+01-1.60697E-02 3.06484E-04-1.34120E-01 5.36680E-14-5.65240E-14
 -1      2396 1.97488E+01-1.70190E-02-4.44272E-04-1.40623E-01 1.05845E-13-3.66560E-14
 -1      2397 1.98047E+01-2.34351E-02-3.73270E-04-1.65584E-01 1.06506E-13-6.67859E-14
 -1      2398 1.98281E+01-1.26422E-02 3.49636E-04-1.21658E-01 1.42336E-13-1.58215E-13
 -1      2399 1.97980E+01-1.47477E-02-5.00616E-04-1.27091E-01 9.93128E-14-1.52679E-13
 -1      2400 1.98401E+01-2.12687E-02-2.42844E-04-1.51625E-01 1.40978E-13-1.23051E-13
 -1      2401 1.98753E+01-7.32977E-03 4.55533E-04-1.13036E-01 4.42652E-14-1.19152E-13
 -1      2402 1.98462E+01-1.03571E-02-4.76387E-04-1.16424E-01 1.02514E-13-1.12905E-13
 -1      2403 1.98766E+01-1.58750E-02-1.94624E-04-1.39684E-01 6.40791E-14-1.04408E-13
 -1      2404 1.99231E+01-3.99863E-04 6.23755E-04-1.10170E-01 2.34448E-14-7.04720E-14
 -1      2405 1.98940E+01-4.24379E-03-3.99334E-04-1.10702E-01 4.01454E-14-6.55581E-14
 -1      2406 1.99140E+01-7.92395E-03-2.09736E-04-1.32531E-01 1.94036E-14-2.70571E-14
 -1      2407 1.99736E+01 8.07694E-03 8.56633E-04-1.14744E-01 4.96179E-14-3.88945E-14
 -1      2408 1.99430E+01 3.42609E-03-2.88144E-04-1.11677E-01 4.35727E-14-3.91497E-14
 -1      2409 1.99533E+01 2.26661E-03-2.74596E-04-1.32423E-01 2.76444E-14-8.59106E-15
 -1      2410 2.00298E+01 1.81692E-02 1.15801E-03-1.28389E-01 1.30397E-13-1.19139E-13
 -1      2411 1.99957E+01 1.26549E-02-1.55305E-04-1.20979E-01 1.24732E-13-2.80312E-14
 -1      2412 1.99958E+01 1.46360E-02-3.79427E-04-1.41368E-01 1.13670E-13 2.91466E-14
 -1      2413 2.00953E+01 3.00261E-02 1.53150E-03-1.52795E-01 1.38705E-13-1.56689E-13
 -1      2414 2.00553E+01 2.35566E-02-9.19827E-06-1.40248E-01 1.32209E-13-1.73222E-13
 -1      2415 2.00439E+01 2.92983E-02-5.16765E-04-1.61313E-01 1.61266E-13-8.58046E-14
 -1      2416 2.01744E+01 4.38070E-02 1.97781E-03-1.89751E-01-4.27912E-14-4.41911E-14
 -1      2417 2.01256E+01 3.62943E-02 1.44204E-04-1.71218E-01 7.30424E-14-5.77076E-14
 -1      2418 2.01002E+01 4.64557E-02-6.79977E-04-1.94254E-01 6.56937E-15-3.68144E-14
 -1      2419 2.02718E+01 5.95798E-02 2.49027E-03-2.41109E-01-1.51837E-13-9.04658E-14
 -1      2420 2.02111E+01 5.09979E-02 3.00029E-04-2.15714E-01-7.32240E-14-2.52798E-14
 -1      2421 2.01680E+01 6.62887E-02-8.62428E-04-2.42262E-01-7.27818E-14 5.76351E-14
 -1      2422 2.03930E+01 7.71583E-02 3.04788E-03-3.08616E-01-1.14435E-13-1.51362E-13
 -1      2423 2.03170E+01 6.76379E-02 4.53660E-04-2.75556E-01-1.42890E-13-1.18118E-13
 -1      2424 2.02509E+01 8.87935E-02-1.05698E-03-3.07399E-01-1.05101E-13-2.36906E-14
 -1      2425 2.05436E+01 9.58376E-02 3.60440E-03-3.93550E-01 3.94270E-14-2.49675E-13
 -1      2426 2.04487E+01 8.58207E-02 6.00528E-04-3.52301E-01-4.63322E-14-2.21457E-13
 -1      2427 2.03528E+01 1.13522E-01-1.25648E-03-3.91485E-01-3.22568E-14-1.79620E-13
 -1      2428 2.07293E+01 1.13963E-01 4.07240E-03-4.96058E-01 1.68740E-14-1.15718E-13
 -1      2429 2.06119E+01 1.04454E-01 7.37198E-04-4.46746E-01 5.85098E-14-1.71967E-13
 -1      2430 2.04779E+01 1.39161E-01-1.45660E-03-4.95623E-01-3.95647E-15-2.08826E-13
 -1      2431 2.09552E+01 1.28254E-01 4.30172E-03-6.14022E-01-1.05319E-13-1.22878E-13
 -1      2432 2.08124E+01 1.21212E-01 8.64894E-04-5.58058E-01-3.34605E-14-8.88837E-14
 -1      2433 2.06306E+01 1.62855E-01-1.66234E-03-6.19374E-01-2.39801E-14-6.79760E-14
 -1      2434 2.12254E+01 1.32819E-01 4.05503E-03-7.41235E-01-1.00638E-13-1.21398E-13
 -1      2435 2.10557E+01 1.31709E-01 9.97080E-04-6.82325E-01-8.25812E-14-1.22887E-13
 -1      2436 2.08154E+01 1.79175E-01-1.89993E-03-7.59411E-01-8.01924E-14-9.82083E-14
 -1      2437 2.15421E+01 1.17910E-01 2.98988E-03-8.64701E-01-9.57311E-14-2.31141E-13
 -1      2438 2.13464E+01 1.28381E-01 1.17223E-03-8.10320E-01-1.49479E-13-2.04079E-13
 -1      2439 2.10371E+01 1.78684E-01-2.23379E-03-9.07427E-01-5.42901E-14-2.23524E-13
 -1      2440 2.19042E+01 6.88568E-02 6.71350E-04-9.60988E-01 1.61339E-14-8.09739E-14
 -1      2441 2.16874E+01 9.92189E-02 1.46770E-03-9.24271E-01-5.55026E-14-1.99628E-13
 -1      2442 2.13016E+01 1.46278E-01-2.78226E-03-1.04712E+00-9.12726E-14-2.08419E-13
 -1      2443 2.23068E+01-3.34923E-02-3.34319E-03-9.92251E-01-1.51513E-13 6.64080E-14
 -1      2444 2.20795E+01 2.71683E-02 1.99949E-03-9.93775E-01-2.88595E-14-8.52020E-15
 -1      2445 2.16169E+01 6.01725E-02-3.70642E-03-1.15021E+00-8.65463E-14-1.59006E-13
 -1      2446 2.27383E+01-2.07698E-01-9.23583E-03-9.04008E-01-1.21522E-13 1.06323E-13
 -1      2447 2.25194E+01-1.07774E-01 2.83662E-03-9.71963E-01-1.87254E-13 1.00893E-13
 -1      2448 2.19939E+01-1.06081E-01-5.11489E-03-1.17216E+00-1.76260E-13-9.24751E-14
 -1      2449 2.31759E+01-4.56912E-01-1.64027E-02-6.30008E-01 1.00883E-14 1.71233E-13
 -1      2450 2.29944E+01-3.19497E-01 3.82022E-03-7.95379E-01 4.20501E-14 1.58863E-13
 -1      2451 2.24447E+01-3.73541E-01-6.75785E-03-1.04976E+00-9.04199E-14-4.23226E-14
 -1      2452 2.35770E+01-7.38984E-01-2.24416E-02-1.13150E-01-4.07677E-14 9.91145E-14
 -1      2453 2.34720E+01-5.94403E-01 4.09092E-03-3.95086E-01-3.71396E-14 2.19747E-13
 -1      2454 2.29743E+01-7.32983E-01-7.52489E-03-7.06669E-01-5.48422E-14 3.66710E-15
 -1      2455 2.38643E+01-9.26952E-01-2.24749E-02 6.43022E-01-4.87665E-14 8.47757E-14
 -1      2456 2.38798E+01-8.53797E-01 1.60295E-03 2.66940E-01-6.89431E-14 1.20142E-13
 -1      2457 2.35562E+01-1.09806E+00-4.79917E-03-7.81822E-02-2.85215E-14 1.24167E-13
 -1      2458 2.39253E+01-8.07032E-01-1.12538E-02 1.48936E+00-1.54455E-13 1.55926E-13
 -1      2459 2.40893E+01-9.22635E-01-6.52720E-03 1.12027E+00-8.61507E-14 1.45321E-13
 -1      2460 2.40896E+01-1.25910E+00 3.46678E-03 8.21051E-01-9.64799E-14 1.58248E-13
 -1      2461 2.36656E+01-2.01283E-01 8.94516E-03 2.06772E+00 1.14848E-13 3.29480E-13
 -1      2462 2.39543E+01-5.75687E-01-1.99556E-02 1.89263E+00-2.80986E-14 2.22681E-13
 -1      2463 2.43838E+01-9.22968E-01 1.28063E-02 1.78200E+00-1.59052E-13 2.92931E-13
 -1      2464 2.31305E+01 7.77998E-01 2.03520E-02 1.91619E+00 2.19278E-13 4.01732E-13
 -1      2465 2.34461E+01 2.61265E-01-3.24696E-02 2.12219E+00 1.74524E-13 3.72733E-13
 -1      2466 2.42613E+01 6.65156E-02 8.96341E-03 2.33956E+00 1.14114E-13 4.34178E-13
 -1      2467 2.26406E+01 1.55350E+00 7.28019E-03 8.38133E-01 1.10842E-13 5.22379E-13
 -1      2468 2.28262E+01 1.24064E+00-2.65420E-02 1.42304E+00 1.78605E-13 4.74112E-13
 -1      2469 2.37851E+01 1.38182E+00-1.47203E-02 1.92707E+00 1.33673E-13 3.89928E-13
 -1      2470 2.25956E+01 1.51805E+00-2.16984E-02-6.72183E-01 1.67887E-13 3.54078E-13
 -1      2471 2.25546E+01 1.65778E+00-3.90091E-03-5.01272E-03 2.38601E-13 4.86810E-13
 -1      2472 2.34118E+01 2.17331E+00-3.71861E-02 4.91538E-01 2.55806E-13 3.04162E-13
 -1      2473 2.30406E+01 6.97151E-01-3.37535E-02-1.74575E+00 1.47469E-13 2.92477E-13
 -1      2474 2.28135E+01 1.17410E+00 1.88381E-02-1.36391E+00 1.13715E-13 3.19687E-13
 -1      2475 2.35306E+01 1.82606E+00-2.95642E-02-1.18347E+00 2.61537E-13 2.76307E-13
 -1      2476 2.35731E+01-2.76089E-01-2.57941E-02-1.88706E+00-6.01804E-14 4.90323E-13
 -1      2477 2.33003E+01 1.87348E-01 1.54967E-02-1.91892E+00 9.41556E-14 4.19827E-13
 -1      2478 2.39678E+01 6.23177E-01 5.56244E-04-2.07220E+00 5.00138E-14 4.90912E-13
 -1      2479 2.38016E+01-8.54222E-01-1.05550E-02-1.27153E+00 7.57983E-14 1.34833E-13
 -1      2480 2.36209E+01-6.30442E-01-4.39824E-03-1.58688E+00-4.73371E-14 3.09018E-13
 -1      2481 2.42161E+01-5.99291E-01 1.17767E-02-1.86681E+00 6.34887E-14 4.16958E-13
 -1      2482 2.36362E+01-9.44896E-01 2.31429E-04-3.82500E-01 6.23269E-14 1.25909E-13
 -1      2483 2.36083E+01-9.52707E-01-1.93646E-02-7.75929E-01 8.32086E-14 1.35470E-13
 -1      2484 2.40249E+01-1.23447E+00 4.98516E-03-9.86183E-01 1.43876E-13 1.12903E-13
 -1      2485 2.32003E+01-7.42155E-01 4.32477E-03 4.06637E-01 8.19822E-14 1.57832E-13
 -1      2486 2.33150E+01-8.68757E-01-2.24936E-02 7.41629E-02 1.14363E-13 1.21617E-13
 -1      2487 2.35005E+01-1.25334E+00-3.40729E-03 7.77592E-03 1.58648E-13 2.72714E-13
 -1      2488 2.26414E+01-4.51023E-01 4.38719E-03 9.41082E-01 1.18368E-13 8.44116E-15
 -1      2489 2.28565E+01-6.00928E-01-1.80860E-02 7.23369E-01 1.61692E-13 8.67789E-14
 -1      2490 2.28522E+01-9.36865E-01-7.99457E-03 7.89894E-01 1.77369E-13 1.61636E-13
 -1      2491 2.20614E+01-1.85636E-01 3.99107E-03 1.21265E+00 8.64658E-14 3.48027E-13
 -1      2492 2.23296E+01-3.13887E-01-1.11456E-02 1.10883E+00 1.80507E-14 1.41668E-13
 -1      2493 2.22219E+01-5.38013E-01-7.97095E-03 1.26809E+00-3.61950E-15-1.74530E-13
 -1      2494 2.15125E+01 2.32129E-02 4.20790E-03 1.26885E+00 9.88668E-14 4.44875E-13
 -1      2495 2.17943E+01-7.55472E-02-4.81654E-03 1.25899E+00 1.60868E-13 5.25233E-13
 -1      2496 2.16654E+01-1.87420E-01-6.13047E-03 1.47287E+00-1.87378E-14 4.45056E-13
 -1      2497 2.10210E+01 1.86853E-01 5.03145E-03 1.16086E+00 1.24209E-13 4.21012E-13
 -1      2498 2.12865E+01 1.08149E-01-3.85276E-04 1.22456E+00 1.28821E-13 5.06367E-13
 -1      2499 2.11889E+01 8.69775E-02-4.33984E-03 1.46505E+00 2.67300E-14 8.24345E-13
 -1      2500 2.05984E+01 3.23994E-01 5.56541E-03 9.25203E-01-2.61987E-15 4.88423E-13
 -1      2501 2.08286E+01 2.56745E-01 2.02997E-03 1.04712E+00 4.34804E-14 3.43043E-13
 -1      2502 2.07827E+01 3.04275E-01-3.98365E-03 1.29794E+00 1.96093E-13 6.92658E-13
 -1      2503 2.04306E+01 3.78927E-01 3.24393E-03 7.46679E-01 3.27262E-14 3.43827E-13
 -1      2504 1.96357E+01 1.82299E+00-9.95133E-03 1.10481E+00-4.90619E-14-2.82464E-13
 -1      2505 1.97519E+01 1.64082E+00 2.37929E-03 1.21508E+00-1.20887E-13-4.75159E-13
 -1      2506 1.94496E+01 2.11557E+00-1.07500E-02 7.46013E-01-4.96752E-15 6.45536E-14
 -1      2507 1.95363E+01 1.98561E+00-6.45244E-04 9.29887E-01 2.97019E-14-1.64612E-13
 -1      2508 1.94569E+01 1.70550E+00 4.52229E-03 1.15937E+00-2.03796E-14-1.13500E-13
 -1      2509 2.01076E+01 1.05996E+00-4.16898E-03 1.29892E+00-4.51473E-15 6.91222E-14
 -1      2510 2.02300E+01 8.51285E-01 6.66329E-03 1.24563E+00 1.06673E-13 3.43391E-13
 -1      2511 1.98674E+01 1.45364E+00-6.92256E-03 1.29240E+00-2.06631E-13-5.17087E-13
 -1      2512 1.99902E+01 1.24974E+00 4.82323E-03 1.31927E+00-2.26504E-13-1.71675E-13
 -1      2513 2.00732E+01 1.00750E+00 2.14784E-03 1.48427E+00 1.43182E-14-1.78684E-13
 -1      2514 1.97508E+01 1.36848E+00 1.83336E-03 1.42381E+00-1.82136E-13-4.03626E-13
 -1      2515 1.93519E+01 2.27402E+00-9.11880E-03 2.67970E-01-1.17444E-13-3.81031E-13
 -1      2516 1.93891E+01 2.21541E+00-4.83349E-03 4.97066E-01-1.75016E-14-2.62831E-13
 -1      2517 1.92407E+01 1.95800E+00 7.95139E-03 7.08424E-01-3.86016E-14-1.52562E-13
 -1      2518 1.93650E+01 2.26625E+00-5.71238E-03-2.48201E-01-4.64749E-13 3.77771E-14
 -1      2519 1.93440E+01 2.28792E+00-8.65154E-03-1.30777E-02-3.39527E-13-4.53708E-14
 -1      2520 1.91482E+01 2.06780E+00 9.62429E-03 1.41862E-01-9.56968E-14-3.61834E-13
 -1      2521 1.94826E+01 2.09425E+00-1.85543E-03-7.12073E-01-3.35864E-13-3.72628E-13
 -1      2522 1.94109E+01 2.19159E+00-1.07619E-02-5.10999E-01-5.08326E-13-1.34008E-13
 -1      2523 1.91996E+01 2.00965E+00 8.62866E-03-4.39774E-01-3.49552E-13-7.52376E-14
 -1      2524 1.96682E+01 1.80120E+00 1.61031E-03-1.04543E+00-1.45178E-13-3.77012E-13
 -1      2525 1.95668E+01 1.95326E+00-1.05262E-02-9.09527E-01-9.62181E-14-4.32425E-13
 -1      2526 1.93767E+01 1.80182E+00 5.71621E-03-9.30004E-01-7.84460E-14-1.64487E-13
 -1      2527 1.98835E+01 1.43298E+00 3.89717E-03-1.22111E+00-2.18663E-14 5.32976E-13
 -1      2528 1.97726E+01 1.62147E+00-8.13229E-03-1.15959E+00-9.50651E-14-1.02441E-13
 -1      2529 1.96310E+01 1.49356E+00 1.76493E-03-1.25952E+00 3.72891E-14-1.97346E-13
 -1      2530 2.00891E+01 1.05040E+00 4.65520E-03-1.23098E+00 2.73943E-13 4.50477E-13
 -1      2531 1.99861E+01 1.24926E+00-4.66285E-03-1.24421E+00 8.48636E-14 7.68511E-13
 -1      2532 1.99107E+01 1.14419E+00-1.36909E-03-1.40057E+00 1.17328E-13 5.46601E-13
 -1      2533 2.02684E+01 6.98570E-01 5.86154E-03-1.09623E+00-2.15259E-14 2.41999E-13
 -1      2534 2.01811E+01 8.86633E-01-3.92874E-04-1.17401E+00 1.29611E-13 2.96061E-13
 -1      2535 2.01736E+01 8.10850E-01-2.24270E-04-1.36149E+00 1.66009E-13 2.85957E-13
 -1      2536 5.05529E+00-2.79323E+00 1.16692E-01 3.32832E+00-2.63262E-14-4.69069E-13
 -1      2537 3.89905E+00-2.58708E+00 1.34506E-01 9.29763E-01 6.62023E-14-3.21243E-13
 -1      2538 1.76113E+01-5.70512E+00-3.19875E-02 6.88603E+00-1.65923E-13-5.85081E-13
 -1      2539 1.37455E+01-5.57786E+00 4.60314E-02 6.82086E+00 2.79221E-14-8.10713E-13
 -1      2540 1.36143E+01-4.69594E+00 1.28652E-01 6.66390E+00-3.98848E-14-7.86579E-13
 -1      2541 1.97010E+01 1.43216E-01 3.26045E-03 6.14943E-02 1.76710E-13-4.64385E-15
 -1      2542 1.97798E+01 1.98039E-01 1.23841E-02 1.47664E-01 2.00920E-13 4.60274E-14
 -1      2543 1.98464E+01 1.80853E-01-3.86491E-03 6.70839E-02 1.85718E-13-7.75797E-14
 -1      2544 2.03213E+01 4.83625E-01 4.93694E-04-7.93709E-01 1.39342E-13 2.31987E-13
 -1      2545 3.59330E+00-2.87036E+00 8.20454E-02-1.43082E+00 1.05332E-13 1.57818E-13
 -1      2546 4.78274E+00-3.37332E+00 7.88554E-02-3.76392E+00-3.19189E-14 4.79505E-13
 -1      2547 2.47747E+01-5.05329E+00-6.68078E-02 4.81790E+00-3.92963E-13-1.27426E-13
 -1      2548 2.17788E+01-5.63664E+00 6.19262E-02 5.61163E+00-4.48364E-13-9.66172E-14
 -1      2549 3.19973E+01 3.20996E+00-1.30073E-01-1.03686E+00 2.38753E-13-4.54276E-13
 -1      2550 3.10921E+01 1.18949E+00-1.18893E-01-7.38541E-01 1.54571E-13-4.08784E-13
 -1      2551 7.11269E+00-4.23896E+00 6.36184E-02-5.39650E+00 1.32033E-13 3.28487E-13
 -1      2552 1.02387E+01-4.80634E+00 2.55851E-02-6.75836E+00 1.91736E-13 3.80113E-13
 -1      2553 3.15362E+01 3.53733E+00-1.13368E-01 1.51663E+00 1.57513E-13-5.11424E-13
 -1      2554 3.18894E+01 5.58389E+00-2.00669E-01 1.34662E+00 1.83631E-13-5.81923E-13
 -1      2555 1.95219E+01 3.58427E+00-1.01027E-02-2.45599E-01-2.07031E-14-6.11159E-13
 -1      2556 1.95378E+01 3.56359E+00-9.68231E-03-4.26517E-01-6.90071E-14-6.11981E-13
 -1      2557 1.97142E+01 3.16300E+00-5.87070E-04-4.73978E-01-8.30606E-14-5.77110E-13
 -1      2558 1.96802E+01 3.22284E+00-9.18909E-04-1.52222E-01-1.07439E-14-5.78714E-13
 -1      2559 3.20351E+01 7.14036E+00-1.53461E-01 6.78400E-01 2.95819E-13-4.67543E-13
 -1      2560 3.26059E+01 7.24514E+00-1.47885E-01-7.59633E-02 3.20188E-13-4.58800E-13
 -1      2561 1.85028E+01-5.70787E+00 1.23543E-02-6.14171E+00 3.13694E-13-3.51767E-13
 -1      2562 2.24130E+01-5.32701E+00-7.07793E-02-5.51641E+00 3.59685E-13-4.05953E-13
 -1      2563 3.27481E+01 6.72494E+00-1.16304E-01-5.85945E-01 3.05922E-13-4.47198E-13
 -1      2564 3.20854E+01 5.31417E+00-1.45283E-01-1.05670E+00 3.77198E-13-2.74447E-13
 -1      2565 3.01957E+01 6.58808E+00-3.40601E-02-5.80647E-01 3.26128E-13-1.56819E-13
 -1      2566 3.03887E+01-8.80357E-01-4.08886E-02-8.70517E-02 8.84154E-14-6.25278E-13
 -1      2567 3.11135E+01 7.60121E-01-2.00784E-01 7.73378E-01 1.08413E-13-6.48648E-13
 -1      2568 2.60039E+01-4.36306E+00 3.21625E-04-3.45301E+00 4.43562E-13-5.02431E-13
 -1      2569 2.89754E+01-2.82352E+00-1.18866E-01-1.95839E+00 1.98036E-13-6.29441E-13
 -1      2570 2.90231E+01-2.50799E+00 1.19292E-03-3.07201E-01 1.45634E-13-5.53724E-13
 -1      2571 1.14013E+01-4.96118E+00 7.47993E-02-6.44391E+00 2.35811E-13-2.04337E-13
 -1      2572 1.48403E+01-5.42995E+00-4.22196E-03-6.91414E+00 2.89158E-13-2.53061E-14
 -1      2573 4.85727E+00-3.67111E+00 6.40877E-02-3.84613E+00 1.12910E-13-6.27498E-13
 -1      2574 7.41575E+00-4.12250E+00 1.51878E-02-5.64101E+00 1.56264E-13-5.79259E-13
 -1      2575 2.81650E+00-3.09156E+00 4.99713E-02 7.66883E-01 3.95933E-14-7.42295E-13
 -1      2576 3.17544E+00-3.06823E+00 4.58566E-02-1.72416E+00 7.62307E-14-6.07958E-13
 -1      2577 5.61119E+00-3.74395E+00 3.94073E-02 4.74072E+00 3.66096E-14-1.04033E-12
 -1      2578 3.70800E+00-3.46501E+00 5.09412E-02 2.87508E+00 1.30798E-13-1.06370E-12
 -1      2579 2.15964E+01-5.22624E+00 1.02810E-02 5.92368E+00-9.95315E-14-6.25472E-14
 -1      2580 1.79968E+01-5.50640E+00 4.62127E-02 6.38739E+00-7.75491E-14-2.76168E-15
 -1      2581 2.80396E+01-2.91349E+00-7.18462E-02 3.18631E+00-6.97498E-14-1.08136E-13
 -1      2582 2.46225E+01-4.42972E+00-3.00629E-02 4.31460E+00-7.78544E-14-5.89806E-14
 -1      2583 3.12952E+01 7.27428E-01-1.75708E-01 5.66916E-02-1.59331E-13 1.82659E-13
 -1      2584 2.99241E+01-1.11677E+00-2.38920E-02 1.29320E+00-6.84383E-14-1.35447E-14
 -1      2585 3.17834E+01 5.49630E+00-1.73977E-01-1.29856E+00-3.96905E-13 3.26850E-13
 -1      2586 3.15922E+01 3.51741E+00-7.11795E-02-1.15415E+00-3.06644E-13 2.34313E-13
 -1      2587 3.31963E+01 7.56931E+00-6.98767E-02-2.26317E-02-4.82447E-13 3.23977E-14
 -1      2588 3.23630E+01 7.28389E+00-1.38719E-01-4.81196E-01-3.52940E-13 2.45318E-13
 -1      2589 3.27056E+01 6.12637E+00-9.27088E-02 7.10750E-01-3.97515E-13-3.62294E-13
 -1      2590 3.32211E+01 7.06405E+00-1.21209E-01 3.71931E-01-4.95493E-13-1.36668E-13
 -1      2591 3.07140E+01 7.08573E+00-5.85000E-02 3.95086E-01-3.52496E-13-1.42733E-13
 -1      2592 3.12363E+01 1.51518E+00-5.67581E-02 2.90131E-01-2.42639E-13-6.19893E-13
 -1      2593 3.24021E+01 3.77405E+00-1.31704E-01 7.09096E-01-3.53051E-13-6.19671E-13
 -1      2594 2.80510E+01-3.18342E+00-3.77346E-03-2.37655E+00 1.23568E-13 1.02279E-13
 -1      2595 3.01287E+01-1.39470E+00-1.43447E-01-1.18774E+00-4.51670E-14-3.44724E-13
 -1      2596 2.21384E+01-5.51147E+00 3.26896E-02-5.50897E+00 2.06890E-13 6.50424E-13
 -1      2597 2.53129E+01-4.80910E+00-9.70230E-02-4.48285E+00 2.05225E-13 5.08676E-13
 -1      2598 1.40538E+01-5.57800E+00 4.25483E-02-6.88621E+00 2.14939E-13 3.67456E-13
 -1      2599 1.82150E+01-5.62922E+00-2.73910E-02-6.89385E+00 2.06335E-13 5.81493E-13
 -1      2600 2.05455E+01 1.95528E+00-1.36850E-02-1.90303E+00-4.35188E-13-1.28042E-13
 -1      2601 2.04087E+01 1.21652E+00-6.35596E-03-1.28900E+00-3.99882E-13-1.02311E-13
 -1      2602 2.03726E+01 1.37590E+00 3.97719E-03-1.23330E+00-3.77469E-13-1.99936E-13
 -1      2603 2.02861E+01 2.36479E+00-7.73048E-03-1.82753E+00-4.20761E-13-2.45382E-13
 -1      2604 2.04879E+01 8.74849E-01-7.32239E-03 1.22791E+00 3.94426E-13 1.95000E-13
 -1      2605 2.08387E+01 1.25688E+00-6.05384E-03 1.72856E+00 4.36731E-13 2.50421E-13
 -1      2606 2.06448E+01 1.71556E+00-1.57923E-02 1.92280E+00 4.72732E-13 1.06491E-13
 -1      2607 2.04471E+01 1.05785E+00-9.39765E-03 1.24286E+00 4.06007E-13 3.28880E-14
 -1      2608 3.01518E+01 1.81610E+00-3.29436E-02 1.95105E+00 1.56500E-13-5.96440E-13
 -1      2609 1.99128E+01 2.81292E+00 1.13307E-03-1.10018E+00-2.51804E-13-5.01613E-13
 -1      2610 1.97825E+01 3.16123E+00-1.47311E-02-1.28782E+00-2.73436E-13-5.24504E-13
 -1      2611 1.98783E+01 3.02541E+00-1.71603E-02-1.47746E+00-3.31435E-13-4.72389E-13
 -1      2612 1.99923E+01 3.40013E-01-3.57785E-03 3.06218E-01 2.55519E-13-6.35559E-14
 -1      2613 2.04210E+01 2.11565E+00-1.27758E-02 1.87587E+00 4.57120E-13-7.27699E-14
 -1      2614 1.99859E+01 2.83909E+00-1.50461E-02-1.58769E+00-3.63287E-13-4.30930E-13
 -1      2615 2.01308E+01 2.61357E+00-2.20164E-02-1.75422E+00-4.11280E-13-3.48152E-13
 -1      2616 2.02788E+01 2.05000E+00 1.27768E-03-1.48699E+00-4.00613E-13-2.97182E-13
 -1      2617 2.00824E+01 2.49264E+00 2.55765E-03-1.34304E+00-3.39476E-13-4.09283E-13
 -1      2618 3.03857E+01-5.78714E-01-1.00068E-01-4.92624E-01-1.79995E-14-4.71928E-13
 -1      2619 2.91611E+01-1.91487E+00 1.98711E-02-1.98198E-01-4.05162E-14-5.61273E-13
 -1      2620 2.94127E+01 2.49071E-01-1.11977E-01-1.64075E+00 6.71685E-15-5.25746E-13
 -1      2621 7.90362E+00-2.61152E+00 1.51528E-01 4.31911E+00-1.80619E-13-5.54834E-13
 -1      2622 2.69466E+01-4.59446E+00 4.00040E-03 2.79428E+00-1.89515E-13-2.82496E-13
 -1      2623 1.39219E+01-4.64487E+00 1.28146E-01-6.71757E+00 2.87437E-13 4.30267E-13
 -1      2624 7.94977E+00-2.77609E+00 1.54777E-01-4.64803E+00 1.25483E-13 2.78694E-13
 -1      2625 2.10824E+01-5.61993E+00 8.87569E-02-5.82352E+00 1.80134E-13 6.37258E-13
 -1      2626 2.04402E+01 4.80547E-01 1.76013E-03 9.92248E-01 2.20982E-14 3.49133E-13
 -1      2627 2.04878E+01-5.65607E+00 8.27674E-02 5.96631E+00-6.98053E-14-2.95115E-13
 -1      2628 2.03816E+01 6.25042E-01-3.96810E-04 1.10810E+00 1.53850E-13 5.81010E-13
 -1      2629 2.69316E+01-4.33778E+00 3.09049E-02-2.69480E+00 1.03806E-13 1.35808E-13
 -1      2630 5.75168E+00-1.57569E+00 1.68809E-01-3.26704E-01-1.18973E-13-1.71252E-14
 -1      2631 3.07595E+01 4.53604E+00-6.18598E-02 1.43975E+00-1.89265E-13-4.11421E-13
 -1      2632 2.04230E+01 6.10726E-01 1.45449E-03 1.32928E+00 2.21244E-13 5.11671E-13
 -1      2633 3.00495E+01 5.95480E+00-3.47635E-02 1.46277E+00 2.74336E-13-3.37175E-13
 -1      2634 3.01249E+01 1.61095E+00-3.76008E-02-1.37394E+00-2.78028E-13 1.58401E-13
 -1      2635 2.87289E+01-2.67907E+00 2.86449E-02 1.25400E+00-1.76803E-14-1.29619E-14
 -1      2636 2.41761E+01-5.17439E+00 2.39421E-02 4.29286E+00 2.66454E-14 1.03750E-13
 -1      2637 8.36980E+00-3.71826E+00 1.17548E-01 5.59147E+00 1.16462E-13-6.99829E-13
 -1      2638 8.42166E+00-2.45182E+00 1.73083E-01 4.93074E+00 2.04087E-13-7.42795E-13
 -1      2639 1.11722E+01-3.72252E+00 3.46053E-02 6.15397E+00 1.67311E-13-3.86080E-13
 -1      2640 4.95344E+00-2.04281E+00 1.56988E-01 1.79508E+00 8.67847E-14-8.94618E-13
 -1      2641 5.65083E+00-2.28044E+00 1.61455E-01-2.74545E+00 1.02418E-13-6.42375E-13
 -1      2642 2.49876E+01-5.10000E+00 7.28184E-02-3.75561E+00 3.08725E-13-4.38732E-13
 -1      2643 1.66323E+01-5.29046E+00 7.71326E-02 6.62750E+00 4.08285E-14-1.01724E-13
 -1      2644 1.52834E+01-4.52759E+00 1.69453E-01 6.63676E+00 1.59567E-13-7.23449E-14
 -1      2645 1.94613E+01-5.35716E+00-1.43377E-02 5.87176E+00 1.39833E-13 2.91225E-14
 -1      2646 3.04388E+01 3.84198E+00-8.00293E-02-1.75855E+00 2.21462E-13-2.99372E-13
 -1      2647 2.04353E+01 1.80785E+00 1.25463E-02 1.56368E+00 4.16681E-13-9.86303E-14
 -1      2648 1.82753E+01-5.40511E+00 1.01119E-01-6.19848E+00 1.77330E-13-2.90396E-13
 -1      2649 2.04941E+01 3.41738E-01 6.54037E-03-8.97892E-01 1.67135E-13 2.72071E-13
 -1      2650 2.03556E+01 5.51175E-01-1.61050E-04-1.02636E+00 3.41849E-14 3.40544E-13
 -1      2651 2.04128E+01 5.09567E-01-1.56819E-03-1.21591E+00-5.36851E-14 4.11707E-13
 -1      2652 2.06440E+01 2.71025E-01 5.60690E-04-1.00548E+00 1.24588E-14 3.62188E-13
 -1      2653 1.09262E+01-3.94677E+00 1.26288E-01-6.01969E+00 1.32783E-13-3.99875E-13
 -1      2654 2.99531E+01-3.50774E-01-3.17950E-02 5.01584E-01-1.97550E-13-4.20497E-13
 -1      2655 2.06266E+01 2.98176E-01-1.73751E-03-1.20099E+00-4.78924E-14 4.48761E-13
 -1      2656 1.98478E+01 2.76430E+00-6.30369E-03 5.16952E-01 1.59428E-13-5.23312E-13
 -1      2657 1.98232E+01 2.81404E+00-5.70571E-03 3.65901E-01 1.09661E-13-5.42673E-13
 -1      2658 1.98065E+01 2.85157E+00-5.62029E-03 2.30173E-01 8.03433E-14-5.54393E-13
 -1      2659 1.97980E+01 2.86845E+00-5.43960E-03 7.53597E-02 3.35586E-14-5.44398E-13
 -1      2660 1.99530E+01 2.50030E+00 3.63807E-03 2.65652E-01 9.31671E-14-5.24741E-13
 -1      2661 2.00448E+01 2.32343E+00-1.07209E-02 1.04730E+00 3.18107E-13-3.84006E-13
 -1      2662 1.99811E+01 2.47233E+00-6.31825E-03 9.11602E-01 2.83460E-13-4.17198E-13
 -1      2663 2.02167E+01 1.90806E+00-1.19708E-02 1.22880E+00 3.60359E-13-2.72395E-13
 -1      2664 2.01249E+01 2.14583E+00-4.82028E-03 1.13543E+00 3.28749E-13-3.27667E-13
 -1      2665 2.01901E+01 1.88597E+00 6.34988E-03 9.27964E-01 3.04526E-13-3.18200E-13
 -1      2666 2.02111E+01 7.26545E-01-3.49382E-03 6.44480E-01 3.05571E-13-1.07140E-13
 -1      2667 2.03533E+01 9.51396E-01 9.16562E-03 9.08125E-01 3.30511E-13-8.67485E-14
 -1      2668 1.73406E+01-4.73840E+00 1.51758E-01-6.04115E+00 1.62453E-13-3.42004E-13
 -1      2669 2.02577E+01-5.45264E+00-5.69090E-02-5.58539E+00 2.04142E-13-4.09048E-13
 -1      2670 2.03367E+01 1.50001E+00-1.90492E-03 1.26850E+00 3.74428E-13-1.32181E-13
 -1      2671 2.02161E+01 6.27639E-01 8.59571E-03-4.38427E-01-2.26561E-13-1.98863E-13
 -1      2672 2.01315E+01 4.75221E-01-3.37835E-03-2.80027E-01-1.97596E-13-2.10086E-13
 -1      2673 2.01054E+01 3.62415E-01 6.59478E-03-1.60394E-01-1.85769E-13-1.94702E-13
 -1      2674 2.00462E+01 2.67926E-01-1.76371E-03-6.26656E-02-1.66042E-13-1.96398E-13
 -1      2675 2.01954E+01 5.28611E-01-1.65067E-03-2.63607E-01-1.99246E-13-2.16681E-13
 -1      2676 2.00202E+01 1.97960E-01 4.51806E-03 1.28209E-02-1.45028E-13-1.98534E-13
 -1      2677 1.99845E+01 1.38774E-01-8.11045E-04 6.96415E-02-1.32420E-13-1.98718E-13
 -1      2678 2.01265E+01 2.99089E-01-2.10409E-03-5.70816E-02-1.67288E-13-2.22956E-13
 -1      2679 1.99637E+01 9.50532E-02 2.89497E-03 1.13405E-01-1.30222E-13-2.12618E-13
 -1      2680 1.99459E+01 5.83301E-02-2.51143E-04 1.43340E-01-1.31147E-13-2.23781E-13
 -1      2681 2.00703E+01 1.53814E-01-1.91838E-03 7.08688E-02-1.50171E-13-2.53363E-13
 -1      2682 1.99312E+01 3.15152E-02 1.72491E-03 1.65534E-01-1.30498E-13-2.11285E-13
 -1      2683 1.99258E+01 9.59362E-03 7.11272E-05 1.78310E-01-1.15036E-13-2.19198E-13
 -1      2684 2.00298E+01 6.28101E-02-1.54846E-03 1.43069E-01-1.40650E-13-2.67601E-13
 -1      2685 1.99165E+01-5.94406E-03 9.11440E-04 1.86593E-01-1.16715E-13-1.99883E-13
 -1      2686 1.99192E+01-1.78529E-02 2.60374E-04 1.88952E-01-1.27660E-13-2.29547E-13
 -1      2687 2.00033E+01 7.84327E-03-1.17791E-03 1.77869E-01-1.05752E-13-2.40808E-13
 -1      2688 1.99141E+01-2.56711E-02 3.61067E-04 1.88928E-01-9.64767E-14-1.95736E-13
 -1      2689 1.99219E+01-3.06646E-02 3.80257E-04 1.85591E-01-6.46393E-14-1.44619E-13
 -1      2690 1.99879E+01-2.26422E-02-8.69186E-04 1.89037E-01-8.27639E-14-1.35261E-13
 -1      2691 1.99199E+01-3.30848E-02-1.31725E-06 1.81331E-01-4.46109E-14-1.02590E-13
 -1      2692 1.99309E+01-3.32008E-02 4.69182E-04 1.75644E-01-1.43654E-14-7.09129E-14
 -1      2693 1.99809E+01-3.61610E-02-6.34345E-04 1.86676E-01-9.98233E-15-7.92881E-14
 -1      2694 1.99311E+01-3.17520E-02-2.33538E-04 1.70111E-01-2.94684E-14-7.07522E-14
 -1      2695 1.99440E+01-2.83217E-02 5.50974E-04 1.64493E-01 1.30841E-14-4.50121E-14
 -1      2696 1.99799E+01-3.76778E-02-4.66844E-04 1.78162E-01-4.35650E-14-7.43116E-14
 -1      2697 1.99459E+01-2.39920E-02-3.79549E-04 1.59880E-01-8.95317E-15-9.19052E-14
 -1      2698 1.99603E+01-1.78518E-02 6.41410E-04 1.56129E-01-2.36375E-14-8.92701E-14
 -1      2699 1.99833E+01-3.04531E-02-3.55073E-04 1.68916E-01-2.94561E-14-1.06193E-13
 -1      2700 1.99635E+01-1.12450E-02-4.72338E-04 1.54115E-01-3.17920E-14-1.27215E-13
 -1      2701 1.99792E+01-2.87707E-03 7.51530E-04 1.53639E-01-5.25551E-14-7.99823E-14
 -1      2702 1.99901E+01-1.65557E-02-2.87184E-04 1.63011E-01-2.79857E-14-6.21276E-14
 -1      2703 1.99835E+01 5.67627E-03-5.36285E-04 1.55577E-01-6.65351E-14-3.37720E-14
 -1      2704 2.00009E+01 1.60378E-02 8.89105E-04 1.59549E-01-1.79669E-14 1.79340E-14
 -1      2705 1.99996E+01 2.79563E-03-2.52561E-04 1.63631E-01-1.58371E-14-1.03098E-13
 -1      2706 2.00063E+01 2.63911E-02-5.88986E-04 1.66608E-01-5.53215E-14 4.13469E-14
 -1      2707 2.00260E+01 3.86682E-02 1.05898E-03 1.76076E-01-7.87110E-14 1.46638E-14
 -1      2708 2.00116E+01 2.69753E-02-2.41965E-04 1.73416E-01-3.89196E-14-6.18052E-14
 -1      2709 2.00325E+01 5.07742E-02-6.42297E-04 1.89327E-01-1.49413E-13-8.84900E-14
 -1      2710 2.00553E+01 6.49508E-02 1.26266E-03 2.05269E-01-1.60204E-13-1.57256E-13
 -1      2711 2.00260E+01 5.57271E-02-2.47693E-04 1.94689E-01-1.76716E-13-6.77684E-14
 -1      2712 2.00630E+01 7.87674E-02-7.02562E-04 2.25730E-01-1.07260E-13-1.72961E-13
 -1      2713 2.00901E+01 9.47783E-02 1.49729E-03 2.49062E-01-5.95168E-14-1.88217E-13
 -1      2714 2.00431E+01 8.89370E-02-2.63546E-04 2.29605E-01-1.83932E-13-2.15613E-14
 -1      2715 2.00992E+01 1.10151E-01-7.69923E-04 2.77687E-01-1.58893E-14-1.82385E-13
 -1      2716 2.01317E+01 1.27736E-01 1.75427E-03 3.09209E-01-2.61704E-14-1.63963E-13
 -1      2717 2.00634E+01 1.26366E-01-2.85374E-04 2.80176E-01-7.99821E-14-8.41123E-14
 -1      2718 2.01427E+01 1.44236E-01-8.36333E-04 3.46817E-01-4.98793E-15-1.53613E-13
 -1      2719 2.01818E+01 1.62741E-01 2.01726E-03 3.87080E-01 5.66054E-14-1.13859E-13
 -1      2720 2.00873E+01 1.67308E-01-3.12852E-04 3.48202E-01-3.39354E-14-9.21061E-14
 -1      2721 2.01952E+01 1.79440E-01-8.81728E-04 4.34215E-01 1.12624E-13-1.42611E-13
 -1      2722 2.02424E+01 1.97526E-01 2.25993E-03 4.83287E-01 1.49239E-13-1.43890E-13
 -1      2723 2.01157E+01 2.10108E-01-3.53066E-04 4.35059E-01 8.85623E-14-1.19181E-13
 -1      2724 2.02593E+01 2.12676E-01-8.67764E-04 5.39976E-01 1.55541E-13-1.65490E-13
 -1      2725 2.03162E+01 2.27924E-01 2.44341E-03 5.97076E-01 1.18669E-13-2.17871E-13
 -1      2726 2.01501E+01 2.51509E-01-4.27057E-04 5.41335E-01 1.20585E-13-2.42760E-13
 -1      2727 2.03382E+01 2.38511E-01-7.28463E-04 6.62470E-01 4.71341E-14-1.76512E-13
 -1      2728 2.04066E+01 2.46881E-01 2.51323E-03 7.25433E-01-3.67586E-14-8.22820E-14
 -1      2729 2.01929E+01 2.85717E-01-5.80709E-04 6.66262E-01 1.22683E-13-2.86841E-13
 -1      2730 2.04372E+01 2.48068E-01-3.57708E-04 7.97276E-01-1.24212E-13-5.74045E-14
 -1      2731 2.05192E+01 2.43253E-01 2.39452E-03 8.61803E-01-1.07200E-13-1.01509E-14
 -1      2732 2.02483E+01 3.03197E-01-9.00879E-04 8.06899E-01-4.69491E-14-6.58695E-15
 -1      2733 2.05640E+01 2.27760E-01 4.04207E-04 9.35689E-01-8.95617E-14 4.75787E-14
 -1      2734 2.06629E+01 2.00574E-01 1.98208E-03 9.94370E-01-2.72036E-14-1.26919E-14
 -1      2735 2.03238E+01 2.89214E-01-1.53558E-03 9.56979E-01-3.83122E-14 1.42043E-15
 -1      2736 2.07316E+01 1.58276E-01 1.77807E-03 1.06265E+00 2.52030E-14 2.55560E-14
 -1      2737 2.08518E+01 9.65005E-02 1.11559E-03 1.10381E+00 4.99277E-14 5.13725E-14
 -1      2738 2.04328E+01 2.22494E-01-2.71040E-03 1.10527E+00 2.96576E-14 1.05750E-13
 -1      2739 2.09596E+01 1.48797E-02 4.02189E-03 1.15404E+00-1.77203E-14 2.20139E-14
 -1      2740 2.11070E+01-9.54556E-02-4.69537E-04 1.16053E+00-4.79682E-14-1.47305E-14
 -1      2741 2.05970E+01 7.49324E-02-4.72145E-03 1.23318E+00 2.10808E-14 1.89218E-13
 -1      2742 2.12757E+01-2.28635E-01 7.33250E-03 1.17318E+00-4.54240E-15-3.96595E-14
 -1      2743 2.14564E+01-3.98543E-01-3.19878E-03 1.12179E+00-1.35402E-14-6.68979E-14
 -1      2744 2.08500E+01-1.85438E-01-7.84983E-03 1.31112E+00-4.21812E-14 1.21328E-13
 -1      2745 2.17132E+01-5.87916E-01 1.15366E-02 1.06742E+00-2.49415E-14-6.37990E-14
 -1      2746 2.19287E+01-8.14046E-01-7.53275E-03 9.30163E-01-1.48785E-14-1.10388E-13
 -1      2747 2.12381E+01-5.83586E-01-1.20644E-02 1.29312E+00-3.44953E-14-9.64680E-15
 -1      2748 2.22967E+01-1.04143E+00 1.56253E-02 7.67888E-01 4.05630E-14-7.41011E-14
 -1      2749 2.25347E+01-1.28419E+00-1.30658E-02 5.18887E-01 5.05230E-14-5.92382E-14
 -1      2750 2.18127E+01-1.11140E+00-1.63261E-02 1.11078E+00 1.16955E-14-9.58983E-14
 -1      2751 2.30078E+01-1.48355E+00 1.68627E-02 2.03772E-01 1.96295E-15-9.92284E-14
 -1      2752 2.32315E+01-1.63606E+00-1.60012E-02-1.61409E-01 1.00947E-13-2.59192E-13
 -1      2753 2.26032E+01-1.67568E+00-1.70465E-02 6.73769E-01 2.47677E-14-3.84922E-14
 -1      2754 2.37295E+01-1.67802E+00 7.21099E-03-6.36422E-01 2.26461E-13-2.85552E-13
 -1      2755 2.38792E+01-1.56432E+00-1.39501E-02-1.06280E+00 1.57140E-13-1.43253E-13
 -1      2756 2.35527E+01-2.01995E+00-8.08839E-03-9.47402E-02 1.27664E-13-1.25030E-13
 -1      2757 2.42244E+01-1.25193E+00-1.93462E-02-1.60367E+00 1.61701E-13-5.30938E-14
 -1      2758 2.42313E+01-7.12619E-01-6.81076E-03-1.91584E+00 1.55966E-13 2.48282E-14
 -1      2759 2.44583E+01-1.74737E+00 5.80790E-03-1.15212E+00 2.25523E-13-4.34947E-14
 -1      2760 2.42545E+01 2.36048E-02-5.47379E-02-2.23049E+00-8.17992E-14 1.32277E-14
 -1      2761 2.41148E+01 9.23370E-01 5.84167E-04-2.18758E+00-1.02640E-13-4.71775E-14
 -1      2762 2.49295E+01-4.79508E-01-1.22302E-02-2.12054E+00 6.80775E-14-1.18933E-14
 -1      2763 2.38851E+01 1.80623E+00-6.09761E-02-1.90914E+00-6.56454E-14-7.66518E-14
 -1      2764 2.37393E+01 2.57092E+00 2.58625E-03-1.40364E+00-3.55757E-14-3.94511E-14
 -1      2765 2.48147E+01 1.54115E+00-2.90983E-02-2.19709E+00-9.89521E-14-1.85428E-13
 -1      2766 2.35327E+01 2.97569E+00-5.07627E-02-4.93620E-01-5.99555E-14-1.87941E-13
 -1      2767 2.35573E+01 2.98588E+00-3.81782E-02 2.45083E-01-2.13631E-13-2.67434E-13
 -1      2768 2.44637E+01 3.45182E+00-3.56112E-02-1.09045E+00-1.02862E-13-1.77747E-13
 -1      2769 2.36790E+01 2.56816E+00-1.50724E-02 1.13759E+00-2.43305E-13-2.32450E-13
 -1      2770 2.38225E+01 1.81537E+00-6.91628E-02 1.66056E+00-2.34656E-13-2.58935E-13
 -1      2771 2.44562E+01 3.39100E+00-3.87336E-02 7.59435E-01-2.18485E-13-3.08266E-13
 -1      2772 2.40804E+01 9.24664E-01 6.68537E-03 1.93588E+00-6.86673E-14-2.34855E-13
 -1      2773 2.41750E+01 8.38819E-03-5.79801E-02 1.97965E+00 6.00856E-14-1.83374E-13
 -1      2774 2.48030E+01 1.55241E+00-2.08617E-02 1.97141E+00-1.26742E-13-1.62186E-13
 -1      2775 2.41709E+01-7.39421E-01-3.68970E-04 1.66736E+00 1.01611E-14-2.69148E-13
 -1      2776 2.41404E+01-1.29822E+00-1.74679E-02 1.34268E+00-9.38108E-14-2.88094E-13
 -1      2777 2.48948E+01-4.98083E-01-8.03856E-03 1.87706E+00-6.91790E-14-3.77412E-13
 -1      2778 2.37870E+01-1.61880E+00-1.37259E-02 7.86650E-01-4.72313E-14-4.13933E-13
 -1      2779 2.36207E+01-1.74009E+00 7.18050E-03 3.48460E-01-1.23160E-13-3.73963E-13
 -1      2780 2.44294E+01-1.80593E+00 4.17514E-03 8.70936E-01-2.07235E-13-6.54543E-13
 -1      2781 2.31145E+01-1.70686E+00-1.71110E-02-1.48952E-01-2.23150E-13-4.65073E-14
 -1      2782 2.28678E+01-1.55054E+00 1.62404E-02-5.29501E-01-1.72767E-13 1.51584E-14
 -1      2783 2.35190E+01-2.10752E+00-1.06111E-02-2.18411E-01-2.06653E-14-6.81837E-13
 -1      2784 2.23866E+01-1.34321E+00-1.31101E-02-8.60268E-01-3.41647E-14 8.77553E-14
 -1      2785 2.21233E+01-1.08713E+00 1.56699E-02-1.11998E+00 2.20777E-13 4.05166E-14
 -1      2786 2.25538E+01-1.75126E+00-1.81145E-02-1.02147E+00-4.04587E-14-1.24037E-13
 -1      2787 2.17470E+01-8.41138E-01-7.81649E-03-1.29105E+00 3.56428E-13 1.43119E-14
 -1      2788 2.15071E+01-5.87500E-01 1.23796E-02-1.42969E+00 2.74434E-13 1.64440E-13
 -1      2789 2.17481E+01-1.15400E+00-1.71731E-02-1.48127E+00 2.71261E-13-1.93929E-13
 -1      2790 2.12379E+01-3.63518E-01-3.90222E-03-1.48095E+00 2.24811E-13 2.09558E-13
 -1      2791 2.10333E+01-1.48243E-01 8.80579E-03-1.51695E+00 1.23820E-13 1.28153E-13
 -1      2792 2.11594E+01-5.57836E-01-1.12415E-02-1.66950E+00 2.95842E-13-5.53192E-15
 -1      2793 2.08488E+01 3.81290E-02-1.53393E-03-1.48230E+00 2.90951E-14 3.54219E-13
 -1      2794 2.06803E+01 2.10972E-01 5.45950E-03-1.43510E+00 1.56582E-13 4.04931E-13
 -1      2795 2.07524E+01-4.95415E-02-5.55316E-03-1.65787E+00 1.69280E-13 2.60181E-13
 -1      2796 1.98534E+01 5.03141E-02 8.34089E-05-1.42906E-01 1.23974E-13-1.38285E-13
 -1      2797 1.98672E+01 8.18218E-02 3.16205E-03-1.14251E-01 1.25141E-13-1.24556E-13
 -1      2798 1.01261E+01-2.75153E+00 1.53859E-01-5.30922E+00 7.83817E-14-4.88526E-13
 -1      2799 1.34443E+01-3.94175E+00 1.42215E-02-6.29196E+00 1.32755E-13-2.04753E-13
 -1      2800 1.98900E+01 1.19132E-01-2.41544E-04-6.94747E-02 1.28696E-13-1.26453E-13
 -1      2801 1.99257E+01 1.70517E-01 5.20082E-03-1.38318E-02 1.44492E-13-1.04710E-13
 -1      2802 1.99910E+01 1.36159E-01-2.35978E-03-7.13304E-02 1.45248E-13-1.63606E-13
 -1      2803 1.98438E+01-1.46531E-02 3.34367E-04-1.86731E-01 4.61327E-14-8.18954E-14
 -1      2804 1.98345E+01-4.41839E-03 8.76647E-04-1.85157E-01 6.10723E-14-9.63936E-14
 -1      2805 1.98570E+01-2.59033E-02 3.86379E-04-1.82376E-01 9.45785E-14-1.20151E-13
 -1      2806 1.98428E+01-2.14616E-02 2.88037E-04-1.86355E-01 9.67542E-14-9.15931E-14
 -1      2807 1.99224E+01-1.95566E-02-9.09472E-04-1.91285E-01 7.23633E-14-1.71695E-13
 -1      2808 1.98765E+01-2.86461E-02 4.34891E-04-1.71305E-01 1.10269E-13-7.30333E-14
 -1      2809 1.98596E+01-2.82519E-02-8.12841E-05-1.77615E-01 8.47024E-14-6.98697E-14
 -1      2810 1.99244E+01-3.18967E-02-6.28878E-04-1.87875E-01 8.96131E-14-1.36538E-13
 -1      2811 1.98996E+01-2.52931E-02 4.96933E-04-1.58776E-01 8.87602E-14-3.58021E-14
 -1      2812 1.98813E+01-2.78193E-02-3.01526E-04-1.65115E-01 1.21520E-13-6.54001E-15
 -1      2813 1.99327E+01-3.39951E-02-4.41060E-04-1.77939E-01 1.09519E-13-5.05514E-14
 -1      2814 1.99251E+01-1.73663E-02 5.83618E-04-1.48661E-01 3.55431E-14 3.75125E-14
 -1      2815 1.99060E+01-2.21138E-02-4.23262E-04-1.53325E-01 8.16328E-14-5.66411E-15
 -1      2816 1.99453E+01-2.86888E-02-3.27282E-04-1.66932E-01 6.07531E-14 3.62617E-14
 -1      2817 1.99528E+01-5.75011E-03 7.03392E-04-1.43943E-01-2.74944E-14 3.77578E-14
 -1      2818 1.99328E+01-1.23297E-02-4.83330E-04-1.45600E-01 7.21192E-15 2.17096E-14
 -1      2819 1.99609E+01-1.77532E-02-2.70887E-04-1.58923E-01 3.08230E-14 1.24437E-13
 -1      2820 1.99832E+01 9.13961E-03 8.63363E-04-1.47082E-01 1.46241E-14 4.20913E-14
 -1      2821 1.99617E+01 8.89052E-04-5.08693E-04-1.44605E-01-9.90791E-15 3.68964E-14
 -1      2822 1.99792E+01-2.19929E-03-2.58027E-04-1.57087E-01-1.27911E-14 7.63261E-14
 -1      2823 2.00173E+01 2.72260E-02 1.06944E-03-1.60285E-01 1.71393E-13-2.95528E-14
 -1      2824 1.99934E+01 1.73022E-02-5.19266E-04-1.52636E-01 9.75618E-14 3.66707E-14
 -1      2825 2.00001E+01 1.75219E-02-2.77124E-04-1.64071E-01 6.10400E-14 1.01943E-14
 -1      2826 2.00567E+01 4.86513E-02 1.32563E-03-1.85684E-01 1.12389E-13-5.39256E-15
 -1      2827 2.00291E+01 3.69515E-02-5.29570E-04-1.71838E-01 1.59611E-13-3.40443E-14
 -1      2828 2.00242E+01 4.13541E-02-3.18734E-04-1.82267E-01 1.46728E-13 1.44084E-14
 -1      2829 2.01032E+01 7.36479E-02 1.63320E-03-2.25444E-01-4.66009E-14 8.32094E-14
 -1      2830 2.00704E+01 6.00379E-02-5.49832E-04-2.04347E-01 7.02702E-14 3.39068E-14
 -1      2831 2.00521E+01 6.94806E-02-3.73882E-04-2.13985E-01 3.72860E-14 1.27989E-13
 -1      2832 2.01591E+01 1.02376E-01 1.98856E-03-2.81762E-01-7.30335E-14 6.78660E-14
 -1      2833 2.01193E+01 8.67809E-02-5.86489E-04-2.52351E-01-5.78073E-14 3.05340E-14
 -1      2834 2.00849E+01 1.02150E-01-4.33835E-04-2.61537E-01-5.38926E-14 3.91427E-14
 -1      2835 2.02267E+01 1.34683E-01 2.38007E-03-3.56767E-01-9.46967E-14-7.40458E-14
 -1      2836 2.01782E+01 1.17225E-01-6.41178E-04-3.18040E-01-7.47273E-14 1.62763E-15
 -1      2837 2.01237E+01 1.39448E-01-4.91094E-04-3.27225E-01-1.51368E-14 9.85223E-15
 -1      2838 2.03087E+01 1.69729E-01 2.78397E-03-4.52244E-01-1.84292E-14-1.14228E-13
 -1      2839 2.02495E+01 1.50941E-01-7.08092E-04-4.03435E-01-5.59625E-14-8.91204E-14
 -1      2840 2.01698E+01 1.80961E-01-5.40636E-04-4.13212E-01-3.52602E-14-5.74884E-14
 -1      2841 2.04079E+01 2.05401E-01 3.15862E-03-5.69134E-01-1.41054E-14-7.43111E-14
 -1      2842 2.03359E+01 1.86564E-01-7.68654E-04-5.10019E-01-2.13967E-14-1.06521E-13
 -1      2843 2.02243E+01 2.25253E-01-5.84998E-04-5.21222E-01-2.91632E-14-4.05034E-15
 -1      2844 2.05274E+01 2.37389E-01 3.43742E-03-7.06692E-01 1.47609E-14-9.81410E-14
 -1      2845 2.04407E+01 2.21058E-01-7.81799E-04-6.38104E-01 3.76302E-14-5.68807E-14
 -1      2846 2.02892E+01 2.69050E-01-6.44218E-04-6.52030E-01-6.07705E-15-4.86356E-14
 -1      2847 2.06711E+01 2.57821E-01 3.52015E-03-8.61164E-01-5.52462E-14-1.38104E-13
 -1      2848 2.05676E+01 2.48592E-01-6.68145E-04-7.85795E-01-4.79003E-14-5.28820E-14
 -1      2849 2.03668E+01 3.05998E-01-7.73802E-04-8.04646E-01-3.15972E-15-4.32478E-14
 -1      2850 2.08447E+01 2.53399E-01 3.26279E-03-1.02381E+00-2.65989E-14-2.33296E-13
 -1      2851 2.07224E+01 2.58931E-01-2.86898E-04-9.47390E-01 4.99763E-16-2.28791E-13
 -1      2852 2.04618E+01 3.24861E-01-1.09336E-03-9.75090E-01 1.35823E-14-1.00235E-13
 -1      2853 2.10576E+01 2.03292E-01 2.46091E-03-1.17809E+00-1.67307E-13-6.87026E-14
 -1      2854 2.09138E+01 2.35396E-01 5.91941E-04-1.11101E+00-1.30387E-13-1.64281E-13
 -1      2855 2.05823E+01 3.07172E-01-1.82489E-03-1.15457E+00-1.06417E-13-1.65008E-13
 -1      2856 2.13256E+01 7.78824E-02 8.20922E-04-1.29593E+00-6.89359E-14-7.96178E-14
 -1      2857 2.11567E+01 1.52967E-01 2.30241E-03-1.25518E+00-7.19761E-14-8.32868E-14
 -1      2858 2.07444E+01 2.24816E-01-3.32982E-03-1.32684E+00-1.65468E-13-4.08721E-14
 -1      2859 2.16738E+01-1.58707E-01-2.11886E-03-1.33321E+00-1.42711E-13-1.20237E-14
 -1      2860 2.14753E+01-2.16266E-02 5.25391E-03-1.34426E+00-1.63514E-13 1.13676E-14
 -1      2861 2.09761E+01 3.91610E-02-6.09724E-03-1.46423E+00-1.61052E-13-9.98450E-14
 -1      2862 2.21356E+01-5.35485E-01-6.86022E-03-1.22571E+00-3.51180E-14-4.49545E-14
 -1      2863 2.19043E+01-3.23478E-01 9.63467E-03-1.32283E+00-7.90696E-14-3.34611E-14
 -1      2864 2.13232E+01-2.93881E-01-1.05840E-02-1.52165E+00-5.63696E-14-1.70632E-15
 -1      2865 2.27413E+01-1.04164E+00-1.37855E-02-8.91305E-01-9.10474E-14 9.86884E-15
 -1      2866 2.24828E+01-7.67466E-01 1.50384E-02-1.11233E+00-2.54992E-14-8.80598E-14
 -1      2867 2.18486E+01-8.02905E-01-1.64617E-02-1.42857E+00-6.77068E-14-1.17430E-14
 -1      2868 2.34860E+01-1.56103E+00-2.12762E-02-2.45821E-01-3.66027E-14 5.53396E-14
 -1      2869 2.32290E+01-1.30317E+00 1.89424E-02-6.16349E-01-9.72887E-14 5.14276E-14
 -1      2870 2.26177E+01-1.45501E+00-2.17954E-02-1.08429E+00-9.61838E-14 6.75111E-15
 -1      2871 2.42680E+01-1.78853E+00-2.37950E-02 7.25993E-01-1.85073E-13 2.01571E-13
 -1      2872 2.40759E+01-1.73011E+00 1.49411E-02 2.37701E-01-6.03277E-14 1.35189E-13
 -1      2873 2.36426E+01-2.05872E+00-2.13534E-02-3.68180E-01-1.40171E-13 8.58038E-16
 -1      2874 2.48539E+01-1.24844E+00-9.19447E-03 1.81498E+00-1.54433E-13 1.95033E-13
 -1      2875 2.47946E+01-1.64123E+00-7.31165E-03 1.36816E+00-2.14445E-13 2.39358E-13
 -1      2876 2.47659E+01-2.17251E+00-1.65114E-02 7.68944E-01-2.28628E-13 1.29641E-13
 -1      2877 2.49457E+01 3.02603E-01-7.03740E-04 2.45352E+00 2.41352E-13 2.74230E-13
 -1      2878 2.50552E+01-6.19049E-01-5.49866E-02 2.32849E+00 8.39502E-14 2.40590E-13
 -1      2879 2.56159E+01-1.16450E+00-5.69807E-03 2.05223E+00-3.33553E-14-4.63067E-14
 -1      2880 2.45727E+01 2.32477E+00-3.32010E-03 1.91593E+00 1.54453E-13 2.21134E-13
 -1      2881 2.47509E+01 1.32218E+00-8.70872E-02 2.37741E+00 1.78933E-13 2.74660E-13
 -1      2882 2.58206E+01 9.36469E-01-2.98385E-02 2.58742E+00 1.91774E-13 1.32335E-13
 -1      2883 2.42637E+01 3.21047E+00-5.49310E-02 1.31255E-01 3.28480E-13 1.53393E-13
 -1      2884 2.42768E+01 2.95749E+00-9.31941E-02 9.75947E-01 2.91392E-13 2.40689E-13
 -1      2885 2.54587E+01 3.36907E+00-4.64417E-02 1.67613E+00 3.10585E-13 5.24442E-14
 -1      2886 2.44907E+01 2.15790E+00-8.95539E-02-1.69284E+00 1.71904E-13 1.26827E-13
 -1      2887 2.43111E+01 2.90365E+00-4.94496E-02-1.01469E+00 3.13319E-13 1.93787E-13
 -1      2888 2.53554E+01 3.88486E+00-2.97427E-02-4.37305E-01 2.32397E-13 1.30269E-13
 -1      2889 2.49040E+01 1.43119E-01-6.30429E-02-2.26763E+00-2.90983E-14 3.48185E-13
 -1      2890 2.47342E+01 1.18003E+00-2.56018E-03-2.15234E+00-1.21188E-14 2.48201E-13
 -1      2891 2.56654E+01 2.09894E+00-3.95476E-02-2.12146E+00-1.49117E-14 1.18412E-14
 -1      2892 2.48587E+01-1.36611E+00-2.01054E-02-1.59089E+00 1.49320E-13 3.17174E-13
 -1      2893 2.48408E+01-7.26333E-01-8.53381E-03-1.93911E+00 1.10698E-13 4.41076E-13
 -1      2894 2.57252E+01-4.23511E-01-1.89168E-02-2.11538E+00 3.01391E-14 2.07511E-13
 -1      2895 2.42387E+01-1.82884E+00 9.50602E-03-4.21279E-01 8.46645E-14 2.58169E-13
 -1      2896 2.44106E+01-1.72146E+00-1.95898E-02-9.20969E-01 1.66541E-13 1.66583E-13
 -1      2897 2.51067E+01-2.00674E+00-1.83423E-02-9.99419E-01 1.61450E-13 2.49109E-13
 -1      2898 2.33606E+01-1.57004E+00 1.92147E-02 6.07901E-01 2.85409E-13 9.89315E-14
 -1      2899 2.36421E+01-1.76929E+00-1.88692E-02 1.70363E-01 2.01589E-13 1.32839E-13
 -1      2900 2.40193E+01-2.27926E+00-1.82835E-02 2.64975E-01 1.89006E-13 2.00124E-13
 -1      2901 2.25059E+01-1.03778E+00 1.58584E-02 1.28386E+00 1.53268E-13-4.87580E-14
 -1      2902 2.28144E+01-1.32621E+00-1.41695E-02 9.89128E-01 3.07843E-13 6.88964E-14
 -1      2903 2.28977E+01-1.80652E+00-1.86174E-02 1.18591E+00 3.18824E-13 1.65094E-14
 -1      2904 2.18073E+01-5.12860E-01 1.09017E-02 1.61907E+00-3.98235E-14-1.07587E-13
 -1      2905 2.20938E+01-7.71091E-01-7.80868E-03 1.46802E+00 8.34114E-14-5.26040E-14
 -1      2906 2.19882E+01-1.10958E+00-1.40246E-02 1.69455E+00 1.66754E-13 1.44470E-14
 -1      2907 2.12721E+01-8.95315E-02 7.45356E-03 1.70051E+00-3.03581E-13 4.58933E-13
 -1      2908 2.15219E+01-2.90831E-01-3.13499E-03 1.66609E+00-2.99304E-13 8.44330E-14
 -1      2909 2.13367E+01-4.84385E-01-9.80729E-03 1.88864E+00-3.56754E-13 1.52327E-13
 -1      2910 2.08703E+01 2.26913E-01 6.18491E-03 1.60036E+00 1.18726E-13 4.95988E-13
 -1      2911 2.10795E+01 7.80091E-02 2.21061E-04 1.65268E+00-4.05960E-14 4.95924E-13
 -1      2912 2.08950E+01 4.47834E-03-3.04666E-03 1.86582E+00-2.05336E-13 1.09966E-13
 -1      2913 2.05447E+01 4.81556E-01 6.36664E-03 1.41956E+00 1.29557E-13 5.49601E-13
 -1      2914 2.07167E+01 3.58459E-01 2.22852E-03 1.54443E+00 1.01127E-13 4.69931E-13
 -1      2915 2.05584E+01 3.66855E-01-6.42414E-03 1.73854E+00-2.92696E-14-8.66229E-14
 -1      2916 2.03139E+01 6.69816E-01-6.28405E-03 1.56685E+00 1.99944E-14 1.53981E-13
 -1      2917 2.23262E+01-5.70036E+00-9.57192E-02 5.09838E+00-1.92166E-13-8.94319E-14
 -1      2918 1.91581E+01-5.20547E+00 1.28078E-01 6.00928E+00-5.09315E-15-4.82551E-13
 -1      2919 1.88191E+01 1.87759E+00-5.10182E-03-3.51804E-03 6.70128E-15-3.78982E-13
 -1      2920 1.88344E+01 1.86654E+00-3.76925E-03 3.06247E-01 1.06541E-13-5.50523E-13
 -1      2921 2.71699E+01 4.50060E+00-1.46320E-01 1.53024E+00 3.33733E-13-1.17652E-13
 -1      2922 2.71230E+01 5.37662E+00-2.19619E-01 3.93622E-01 3.64653E-13 7.38645E-15
 -1      2923 1.91720E+01 1.57989E+00-1.12226E-02 1.19767E+00 3.73267E-14-1.70706E-13
 -1      2924 1.93598E+01 1.44765E+00 4.42990E-03 1.38497E+00-4.86234E-14-9.80282E-15
 -1      2925 1.89466E+01 1.77741E+00 4.47276E-04-6.49613E-01-1.56435E-13-7.53063E-14
 -1      2926 1.88565E+01 1.83544E+00-8.93297E-03-3.60685E-01-7.73817E-14-1.71607E-13
 -1      2927 1.85793E+01 1.70493E+00 1.03431E-02-2.11791E-01 1.82061E-13-3.73526E-13
 -1      2928 1.89003E+01 1.80385E+00-9.78167E-03 6.53565E-01-9.03102E-14-2.80530E-13
 -1      2929 1.90183E+01 1.72534E+00 1.67970E-03 9.26346E-01 2.31865E-14-1.50670E-13
 -1      2930 1.88901E+01 1.49120E+00 5.15226E-03 1.17421E+00-5.12923E-14-2.06869E-13
 -1      2931 1.86150E+01 1.68584E+00 9.58353E-03 5.28373E-01 6.27261E-14-2.59324E-13
 -1      2932 1.92365E+01 1.53559E+00 5.20992E-03-1.15620E+00-1.87456E-14-1.39611E-13
 -1      2933 1.90724E+01 1.64620E+00-1.14357E-02-9.41587E-01-1.47579E-13 1.57512E-13
 -1      2934 1.87876E+01 1.54120E+00 7.08365E-03-8.92126E-01 5.10646E-15-3.69630E-14
 -1      2935 1.96158E+01 1.20753E+00 7.46095E-03-1.46598E+00 1.38512E-13 1.44394E-13
 -1      2936 1.94169E+01 1.35327E+00-1.07483E-02-1.34571E+00-2.96767E-14-2.15924E-13
 -1      2937 1.91748E+01 1.24781E+00 1.55227E-03-1.39128E+00-2.81850E-14-7.99835E-14
 -1      2938 1.99894E+01 8.71915E-01 6.77354E-03-1.55073E+00 2.53644E-13 6.71701E-13
 -1      2939 1.98058E+01 1.02491E+00-6.87860E-03-1.53264E+00 2.40698E-13 5.42318E-13
 -1      2940 1.96409E+01 9.07110E-01-3.45928E-03-1.64811E+00 8.78723E-14 3.77353E-13
 -1      2941 2.76538E+01-4.04175E+00-1.40880E-01 1.41080E+00-6.49480E-14-6.43957E-13
 -1      2942 2.56843E+01-4.98591E+00 1.02719E-01 2.97904E+00-2.85758E-13-3.23935E-13
 -1      2943 1.59313E+01-4.58330E+00 1.92057E-02 6.55109E+00-3.36675E-14-8.84057E-13
 -1      2944 1.31360E+01-3.62483E+00 1.41358E-01 6.16394E+00-6.19504E-14-7.69204E-13
 -1      2945 1.99592E+01 2.31058E-01-8.05885E-04 6.44282E-02 1.52853E-13-1.16893E-13
 -1      2946 2.00250E+01 3.14821E-01 7.84292E-03 1.62121E-01 1.97971E-13-1.06755E-13
 -1      2947 2.00553E+01 2.65991E-01-2.75004E-03 6.22651E-02 1.54938E-13-1.53215E-13
 -1      2948 1.31387E+01-3.62063E+00 1.48634E-01-6.22165E+00 2.60375E-13 2.86063E-13
 -1      2949 1.62903E+01-4.70844E+00 1.20256E-03-6.61475E+00 2.60653E-13 5.68670E-13
 -1      2950 3.15491E+01 6.68959E+00-1.20656E-01-9.69509E-01-3.32789E-13 2.81344E-13
 -1      2951 2.93495E+01 5.20088E+00-1.09475E-01-1.64560E+00-3.76116E-13 1.91083E-13
 -1      2952 2.89591E+01 3.20221E+00-8.02612E-02 1.96449E+00-4.67681E-14-3.90896E-13
 -1      2953 2.89147E+01 4.97836E+00-2.09643E-01 1.50595E+00-9.03166E-14-3.02959E-13
 -1      2954 1.01869E+01-2.45458E+00 1.08263E-01 5.22199E+00-1.62440E-13-5.52364E-13
 -1      2955 8.19935E+00-1.21409E+00 1.44141E-01 3.10309E+00-1.67560E-13-4.44977E-13
 -1      2956 1.29851E+01-2.34604E+00 1.58835E-01 5.17719E+00-1.91430E-13-6.10803E-13
 -1      2957 8.20219E+00-1.57167E+00 1.25952E-01-3.64877E+00 8.24757E-14 2.17965E-13
 -1      2958 1.03792E+01-2.55324E+00 9.79257E-02-5.43564E+00 1.85491E-13 1.45828E-13
 -1      2959 2.95055E+01 6.77381E+00-1.76817E-01-8.32710E-01-3.06366E-13 1.08240E-13
 -1      2960 2.76674E+01 5.14315E+00-2.04734E-01-1.53794E+00-4.14169E-13-5.72459E-14
 -1      2961 2.82157E+01 4.07777E+00-1.06569E-01-2.20984E+00-2.93099E-13 2.96985E-15
 -1      2962 2.82675E+01 6.27702E+00-2.38491E-01-1.53822E-01-2.86188E-13-7.82187E-14
 -1      2963 2.77536E+01 6.13569E+00-1.10632E-01-5.13253E-01-3.55493E-13-2.38597E-13
 -1      2964 1.98113E+01-5.17941E+00 1.37524E-01-5.86943E+00 1.97342E-13 6.91483E-13
 -1      2965 2.26846E+01-5.58784E+00-9.75387E-02-4.88942E+00 1.66131E-13 6.53555E-13
 -1      2966 1.98406E+01 8.82327E-03 2.49930E-04-1.77036E-01 8.00126E-14-1.12529E-13
 -1      2967 1.98401E+01 2.75515E-02 1.78502E-03-1.65295E-01 1.04480E-13-1.24125E-13
 -1      2968 1.99509E+01 5.57406E-02-1.79958E-03-1.45549E-01 1.09894E-13-1.49336E-13
 -1      2969 1.99298E+01 7.40178E-03-1.29959E-03-1.80662E-01 5.78326E-14-1.50823E-13
 -1      2970 2.03204E+01 1.06023E+00 5.89240E-03-8.58096E-01-3.01442E-13-2.07572E-13
 -1      2971 2.02267E+01 8.15102E-01-5.71160E-03-6.16040E-01-2.63789E-13-2.08724E-13
 -1      2972 2.02606E+01 8.92691E-01 5.74096E-05-5.73200E-01-2.50114E-13-2.34632E-13
 -1      2973 1.99256E+01 2.59527E+00-7.89614E-03 7.95549E-01 2.44668E-13-4.51970E-13
 -1      2974 1.98822E+01 2.68740E+00-6.12234E-03 6.46393E-01 1.88929E-13-4.86665E-13
 -1      2975 2.00012E+01 2.38775E+00 4.33593E-03 5.17611E-01 1.72245E-13-4.73817E-13
 -1      2976 2.00817E+01 2.19000E+00 5.56620E-03 7.46955E-01 2.44243E-13-3.92819E-13
 -1      2977 2.00680E+01 4.15467E-01-1.59433E-03 2.89553E-01 2.39583E-13-1.17158E-13
 -1      2978 2.01694E+01 5.53827E-01 1.04850E-02 4.52477E-01 2.68957E-13-1.09054E-13
 -1      2979 2.02530E+01 8.21695E-01 8.55423E-04 6.19225E-01 3.04214E-13-1.57391E-13
 -1      2980 2.01451E+01 4.77592E-01-1.91111E-03 2.82181E-01 2.23953E-13-1.44575E-13
 -1      2981 1.98772E+01 2.69617E+00-6.10365E-03-6.36208E-01-1.43573E-13-5.44669E-13
 -1      2982 1.99197E+01 2.60653E+00-7.74405E-03-7.85704E-01-1.89885E-13-5.26904E-13
 -1      2983 2.85674E+01 2.01272E+00-2.00948E-01-2.15683E+00-2.51174E-13 1.06345E-13
 -1      2984 2.90362E+01-2.28165E-01-3.81254E-02-1.44852E+00-7.57727E-14 2.02588E-13
 -1      2985 2.04917E+01 4.18245E-01 3.75822E-03-1.29801E+00 8.97122E-14 4.47986E-13
 -1      2986 2.03659E+01 5.39748E-01-3.35717E-04-1.38714E+00 9.81465E-14 1.27516E-13
 -1      2987 2.05911E+01 3.19662E-01 6.58930E-04-1.37030E+00 1.61714E-13 3.56220E-13
 -1      2988 2.76813E+01-3.60467E+00 2.19111E-02-5.19722E-01 1.48913E-13-4.13239E-13
 -1      2989 2.82616E+01-2.23021E+00-1.88604E-01 8.47843E-01 3.94129E-15-5.09967E-13
 -1      2990 2.87973E+01 2.34249E-01-3.48808E-02 2.16305E+00 7.44682E-14-4.42438E-13
 -1      2991 2.84587E+01 2.40295E+00-1.64603E-01 2.48610E+00 1.28814E-13-2.54893E-13
 -1      2992 2.85782E+01-1.71089E+00 9.41948E-03 5.65000E-01-3.13437E-13-3.42920E-13
 -1      2993 2.88606E+01 3.28914E-01-2.27903E-01 1.48424E+00-3.21645E-13-3.66207E-13
 -1      2994 2.36005E+01-5.25321E+00 9.46226E-02-3.94782E+00 1.85962E-13-3.35419E-13
 -1      2995 2.60499E+01-4.81483E+00-1.19444E-01-2.30525E+00 1.98314E-13-4.85306E-13
 -1      2996 2.64011E+01-4.15182E+00 1.52537E-02-1.06079E+00 9.42579E-14-3.80473E-13
 -1      2997 6.33675E+00-1.01064E+00 1.68057E-01-1.60559E+00 9.36612E-14-6.97248E-13
 -1      2998 7.69625E+00-1.70282E+00 1.07974E-01-3.87755E+00 1.58082E-13-7.12402E-13
 -1      2999 2.85914E+01 4.21211E+00-1.91053E-01-1.91902E+00 1.61177E-13 7.36911E-15
 -1      3000 2.87106E+01 2.47485E+00-1.45498E-01-2.13161E+00 6.00076E-14-1.94122E-13
 -1      3001 6.59928E+00-1.43531E+00 1.47558E-01 2.91691E+00 1.54321E-13-9.95592E-13
 -1      3002 5.70776E+00-1.05090E+00 1.38993E-01 6.81255E-01 1.35541E-13-7.55757E-13
 -1      3003 2.57168E+01-4.78307E+00-5.42497E-02 2.90536E+00-3.43892E-14 1.06463E-13
 -1      3004 2.31535E+01-5.22957E+00 3.56526E-02 4.20382E+00-2.04697E-14 9.35640E-14
 -1      3005 2.82765E+01-2.43156E+00-1.70356E-01-4.89257E-02 3.33778E-14 6.40182E-14
 -1      3006 2.72290E+01-3.78627E+00-5.95910E-03 1.35317E+00 5.23054E-14 8.02136E-15
 -1      3007 2.62348E+01-4.21384E+00 1.39462E-02 1.50213E+00 3.21548E-14 1.63577E-13
 -1      3008 2.84749E+01 6.16887E+00-1.59978E-01 7.35815E-01-2.41362E-13-2.28303E-13
 -1      3009 7.51857E+00-6.01206E-01 1.44611E-01 5.78200E-01-1.35193E-13-1.30312E-13
 -1      3010 7.46592E+00-7.73708E-01 1.73770E-01-1.77961E+00-7.78058E-14 2.02477E-13
 -1      3011 2.56324E+01-4.88459E+00 9.23978E-02-2.99732E+00 8.38912E-14 2.75432E-13
 -1      3012 2.73316E+01-3.98975E+00-1.71408E-01-1.38459E+00-6.42437E-14-2.09444E-13
 -1      3013 2.03147E+01 1.68859E+00-6.80085E-03-1.29656E+00-3.69584E-13-2.68401E-13
 -1      3014 2.02970E+01 1.30225E+00-3.05041E-03-1.02186E+00-3.38571E-13-2.45783E-13
 -1      3015 2.02801E+01 1.37336E+00 6.20766E-04-9.25222E-01-2.99318E-13-2.58608E-13
 -1      3016 2.02227E+01 1.95263E+00-4.18775E-04-1.26743E+00-3.48625E-13-3.31135E-13
 -1      3017 1.99739E+01 2.48702E+00-6.02729E-03-9.03423E-01-2.16895E-13-4.90448E-13
 -1      3018 2.00381E+01 2.34299E+00-8.98119E-03-1.03626E+00-2.59996E-13-4.48720E-13
 -1      3019 2.00757E+01 2.20414E+00 6.05558E-03-7.40798E-01-1.97431E-13-4.67566E-13
 -1      3020 1.99365E+01 2.53782E+00 3.40772E-03 4.61041E-03 2.21645E-14-5.11799E-13
 -1      3021 1.97974E+01 2.86929E+00-5.49192E-03-6.20222E-02 2.51983E-15-5.45075E-13
 -1      3022 1.98048E+01 2.85466E+00-5.55202E-03-2.16925E-01-2.78800E-14-5.49699E-13
 -1      3023 2.25053E+01-4.96726E+00 7.12108E-02-4.12650E+00 9.61731E-14-3.80064E-13
 -1      3024 2.02898E+01 1.58736E+00-1.19064E-03 1.16742E+00 3.61312E-13-2.00091E-13
 -1      3025 2.78329E+01-1.60360E+00-4.58369E-02-1.09736E+00 5.41407E-15 1.79315E-13
 -1      3026 2.71401E+01 4.84403E+00-1.14480E-01 1.17269E+00-7.85483E-14-2.38039E-13
 -1      3027 2.05089E+01 3.00925E-01-4.14050E-03-1.54406E+00 1.57541E-13 1.86293E-13
 -1      3028 1.62553E+01-3.81287E+00 1.39923E-01-5.72340E+00 1.86323E-13-3.84512E-13
 -1      3029 1.88128E+01-4.48973E+00 1.04526E-01-5.74690E+00 2.55101E-13 6.63164E-13
 -1      3030 8.34104E+00-1.52320E+00 1.84849E-01 3.85322E+00 2.42584E-13-8.92980E-13
 -1      3031 8.82667E+00-6.85882E-01 1.38423E-01 2.89249E+00 2.81004E-13-7.89702E-13
 -1      3032 1.03027E+01-1.77122E+00 8.45218E-02 4.62339E+00 3.19765E-13-4.92439E-13
 -1      3033 2.42592E+01-4.99860E+00 6.36001E-02 3.47715E+00-2.26541E-13-3.48513E-13
 -1      3034 2.01161E+01 8.32916E-01 4.37291E-03 1.61349E+00 4.70916E-14-1.71332E-13
 -1      3035 2.02109E+01 6.69540E-01 2.60535E-03 1.73078E+00-1.44865E-13-1.08823E-13
 -1      3036 1.99115E+01 9.99480E-01-7.40916E-03 1.63547E+00-6.87506E-14-3.04809E-13
 -1      3037 2.71071E+01 5.12467E+00-1.81017E-01-7.27828E-01 3.21410E-13 5.44495E-14
 -1      3038 1.85508E+01-4.42967E+00 1.23267E-01 5.73560E+00-1.71169E-13-5.08010E-13
 -1      3039 2.02792E+01 1.36598E+00 2.07391E-03 9.21240E-01 3.25073E-13-2.27427E-13
 -1      3040 2.74450E+01-2.84943E+00-1.80017E-02-1.79432E-02-2.35380E-13-2.14134E-13
 -1      3041 2.78857E+01-3.07515E+00-4.42674E-02-2.30116E-03-5.42726E-14-4.77174E-13
 -1      3042 2.02328E+01 6.88733E-01-6.08266E-04-1.45331E+00 2.27670E-13 1.70983E-13
 -1      3043 1.31899E+01-2.54695E+00 1.58548E-01-5.41548E+00 1.53225E-13 1.06790E-13
 -1      3044 9.81347E+00-6.32376E-01 1.66277E-01-2.57198E+00 5.12819E-14 1.11328E-13
 -1      3045 2.67835E+01 5.13710E+00-9.67444E-02-1.03402E+00-2.64705E-13-1.31149E-13
 -1      3046 2.42771E+01-4.95908E+00 5.53038E-02-3.44436E+00 1.54529E-13 3.82402E-13
 -1      3047 2.78734E+01 1.37101E+00-7.90830E-02 1.98675E+00-2.13843E-13-2.07084E-13
 -1      3048 1.41190E+01-3.87424E+00 1.49051E-01 6.29995E+00 2.35867E-13-2.46955E-13
 -1      3049 1.32535E+01-2.91983E+00 1.40447E-01 5.80615E+00 2.85508E-13-3.19300E-13
 -1      3050 1.66855E+01-4.18454E+00 1.06898E-02 5.90865E+00 2.40266E-13 9.25093E-14
 -1      3051 2.19857E+01-5.19536E+00 6.12490E-02 4.78986E+00 6.71407E-14 5.57540E-15
 -1      3052 2.03795E+01-4.76895E+00 6.44263E-02 5.13401E+00 1.35086E-13 3.50102E-14
 -1      3053 2.35997E+01-4.84835E+00 1.25624E-02 3.34123E+00-6.48162E-14 2.31780E-13
 -1      3054 2.73218E+01 4.30735E+00-2.14788E-01-1.63543E+00 2.16729E-13 1.80064E-14
 -1      3055 2.03439E+01 4.39193E-01 4.39862E-03-1.59424E+00 7.58502E-14 2.48764E-14
 -1      3056 2.01249E+01 6.98512E-01-3.36909E-03-1.57215E+00 1.58254E-13 2.68588E-13
 -1      3057 2.00632E+01 5.80599E-01-8.65952E-04-1.71285E+00 1.19495E-13 4.11607E-13
 -1      3058 2.04278E+01 2.97106E-01 1.37528E-03-1.66112E+00 9.85431E-14 6.22072E-14
 -1      3059 1.95394E+01 1.29829E+00-8.69235E-03 1.51278E+00-9.41139E-14-2.72354E-13
 -1      3060 1.97392E+01 1.14004E+00 3.87008E-03 1.58921E+00-1.09753E-13-3.66046E-13
 -1      3061 1.97313E+01 9.52116E-01-9.68796E-04 1.74060E+00-7.31949E-14-2.92233E-13
 -1      3062 1.93166E+01 1.21990E+00 3.86434E-03 1.58380E+00-1.18484E-14-1.01178E-13
 -1      3063 2.77867E+01-1.14212E+00-1.26121E-02 1.78009E+00 2.42167E-15-2.71463E-13
 -1      3064 1.05333E+01-1.63604E+00 1.73540E-01-4.29438E+00 6.67730E-14-4.62852E-13
 -1      3065 1.98202E+01 2.81920E+00-5.70501E-03-3.52345E-01-5.66196E-14-5.17694E-13
 -1      3066 1.98441E+01 2.77097E+00-6.20316E-03-5.06129E-01-1.19005E-13-5.33642E-13
 -1      3067 1.99968E+01 2.39543E+00 4.23816E-03-5.08568E-01-1.19067E-13-5.07803E-13
 -1      3068 1.99509E+01 2.50378E+00 3.57467E-03-2.56232E-01-5.26438E-14-5.07622E-13
 -1      3069 2.74651E+01 2.23749E+00-9.62842E-02-2.23072E+00-1.58901E-13 2.00812E-14
 -1      3070 7.67868E+00-4.63219E-01 1.76585E-01-4.80641E-01 1.11895E-13-7.86260E-13
 -1      3071 2.70183E+01-8.02141E-01-9.77306E-02-1.84481E+00-3.93297E-14 1.25122E-13
 -1      3072 2.68840E+01-2.45445E+00-1.38521E-02-7.53677E-01-3.66963E-14 1.37043E-13
 -1      3073 2.02408E+01 1.47899E+00-6.69336E-03 8.04211E-01 2.73091E-13-2.87316E-13
 -1      3074 2.02022E+01 1.66910E+00-3.71036E-04 7.47741E-01 2.55285E-13-3.23772E-13
 -1      3075 2.00854E+01 2.25034E+00-6.06912E-03-1.11914E+00-2.83813E-13-4.03770E-13
 -1      3076 2.01632E+01 2.06729E+00-8.25851E-03-1.20157E+00-3.21603E-13-3.64424E-13
 -1      3077 2.02345E+01 1.76580E+00 5.80449E-03-1.04007E+00-2.93082E-13-3.31364E-13
 -1      3078 2.01680E+01 1.97986E+00 8.00029E-03-9.16805E-01-2.42726E-13-3.94018E-13
 -1      3079 2.88090E+01 1.29436E+00-1.35412E-01-2.10102E+00-8.43769E-14-2.04087E-13
 -1      3080 2.81815E+01 1.95087E-02-7.14996E-02-1.85693E+00-9.59718E-14-3.17385E-13
 -1      3081 2.75364E+01 2.09870E+00-8.42206E-02-2.32931E+00-6.81399E-14 1.69670E-13
 -1      3082 2.02221E+01 4.23388E-01 4.16681E-03-1.21851E-01-1.81628E-13-2.34875E-13
 -1      3083 2.01827E+01 3.15877E-01-2.29611E-03-3.68328E-02-1.67638E-13-2.40843E-13
 -1      3084 2.01687E+01 2.32754E-01 3.17039E-03 2.49264E-02-1.69245E-13-2.47373E-13
 -1      3085 2.01387E+01 1.62804E-01-1.27457E-03 7.62635E-02-1.78722E-13-2.88975E-13
 -1      3086 2.02395E+01 3.33076E-01-8.41811E-04-2.75040E-02-1.83139E-13-2.60572E-13
 -1      3087 2.01221E+01 1.09540E-01 2.21996E-03 1.12654E-01-1.45131E-13-2.82358E-13
 -1      3088 2.01014E+01 6.53462E-02-5.77612E-04 1.40563E-01-1.09448E-13-2.73824E-13
 -1      3089 2.01993E+01 1.70090E-01-1.02682E-03 7.60600E-02-1.68376E-13-2.47115E-13
 -1      3090 2.00853E+01 3.24977E-02 1.43576E-03 1.59166E-01-7.97313E-14-2.77059E-13
 -1      3091 2.00723E+01 6.15854E-03-1.20831E-04 1.71626E-01-7.92754E-14-2.38454E-13
 -1      3092 2.01608E+01 6.59717E-02-9.85756E-04 1.35477E-01-9.00260E-14-2.76400E-13
 -1      3093 2.00580E+01-1.25054E-02 8.33444E-04 1.78592E-01-6.77106E-14-2.06544E-13
 -1      3094 2.00509E+01-2.63242E-02 1.75279E-04 1.81567E-01-4.28130E-14-1.78921E-13
 -1      3095 2.01273E+01 3.08402E-03-8.60494E-04 1.64507E-01-4.79045E-14-2.84582E-13
 -1      3096 2.00388E+01-3.49980E-02 3.88821E-04 1.81656E-01-1.31443E-14-1.45657E-13
 -1      3097 2.00361E+01-3.99302E-02 3.69625E-04 1.79541E-01 8.85941E-15-1.48025E-13
 -1      3098 2.00996E+01-3.06833E-02-7.15573E-04 1.74206E-01-6.42991E-15-2.36979E-13
 -1      3099 2.00260E+01-4.14590E-02 6.67802E-05 1.76347E-01-3.44233E-14-1.10903E-13
 -1      3100 2.00265E+01-3.99685E-02 5.03213E-04 1.72372E-01-3.23242E-14-1.07571E-13
 -1      3101 2.00774E+01-4.36761E-02-5.77135E-04 1.73103E-01-1.55769E-14-1.75848E-13
 -1      3102 2.00183E+01-3.62589E-02-1.67805E-04 1.68591E-01-3.53192E-14-1.10770E-13
 -1      3103 2.00212E+01-2.99726E-02 6.04706E-04 1.65161E-01 2.85353E-15-1.03553E-13
 -1      3104 2.00599E+01-4.16026E-02-4.54046E-04 1.67643E-01-1.02751E-14-1.02648E-13
 -1      3105 2.00144E+01-2.22554E-02-3.45460E-04 1.62843E-01-1.81323E-14-9.61563E-14
 -1      3106 2.00191E+01-1.21898E-02 6.94367E-04 1.61796E-01-2.28171E-14-6.84167E-14
 -1      3107 2.00463E+01-2.82645E-02-3.46932E-04 1.62704E-01 1.12393E-14-1.03682E-13
 -1      3108 2.00133E+01-1.20484E-03-4.91030E-04 1.62553E-01-4.09048E-14-8.35361E-14
 -1      3109 2.00196E+01 1.20645E-02 7.86326E-04 1.65365E-01-1.95822E-15-8.63526E-14
 -1      3110 2.00356E+01-6.06732E-03-2.52915E-04 1.62050E-01-1.00141E-14-1.68885E-13
 -1      3111 2.00143E+01 2.59235E-02-6.23783E-04 1.70535E-01 1.57967E-14-1.32177E-13
 -1      3112 2.00221E+01 4.21224E-02 8.90235E-04 1.78458E-01-5.93319E-14-1.46862E-13
 -1      3113 2.00268E+01 2.35938E-02-1.67272E-04 1.68705E-01-2.40782E-14-1.07700E-13
 -1      3114 2.00168E+01 5.86818E-02-7.57975E-04 1.89223E-01-1.59293E-13-1.36249E-13
 -1      3115 2.00261E+01 7.77061E-02 1.01187E-03 2.03385E-01-2.14934E-13-1.46939E-13
 -1      3116 2.00189E+01 6.00130E-02-8.46878E-05 1.85235E-01-1.11680E-13-1.94576E-13
 -1      3117 2.00202E+01 9.68839E-02-9.02674E-04 2.20844E-01-1.74307E-13-8.22542E-14
 -1      3118 2.00312E+01 1.18656E-01 1.15350E-03 2.42292E-01-1.30910E-13-4.71020E-14
 -1      3119 2.00109E+01 1.02871E-01-6.62155E-07 2.13949E-01-1.25906E-13-1.40928E-13
 -1      3120 2.00241E+01 1.40313E-01-1.06125E-03 2.67498E-01-9.49467E-14-3.05410E-14
 -1      3121 2.00371E+01 1.64612E-01 1.31431E-03 2.97191E-01-7.14687E-14-3.05310E-14
 -1      3122 2.00016E+01 1.51911E-01 8.80270E-05 2.57005E-01-9.23279E-14-1.50961E-13
 -1      3123 2.00284E+01 1.88365E-01-1.23002E-03 3.31138E-01-9.67240E-14-2.66766E-14
 -1      3124 2.00435E+01 2.14602E-01 1.49121E-03 3.69882E-01-3.07549E-14-7.18093E-14
 -1      3125 1.99902E+01 2.06548E-01 1.80930E-04 3.16442E-01-1.01684E-13-7.27707E-14
 -1      3126 2.00328E+01 2.39570E-01-1.39542E-03 4.13452E-01 1.14226E-14-1.16243E-13
 -1      3127 2.00507E+01 2.66487E-01 1.68024E-03 4.61772E-01 8.15644E-14-1.90311E-13
 -1      3128 1.99755E+01 2.65378E-01 2.70430E-04 3.94119E-01-3.83275E-14-1.50875E-13
 -1      3129 2.00379E+01 2.90950E-01-1.52940E-03 5.15630E-01 9.35190E-14-2.30093E-13
 -1      3130 2.00594E+01 3.16199E-01 1.87951E-03 5.73558E-01 1.12381E-13-2.92454E-13
 -1      3131 1.99570E+01 3.25505E-01 3.35920E-04 4.91582E-01 3.28967E-14-2.62227E-13
 -1      3132 2.00452E+01 3.37118E-01-1.58218E-03 6.38006E-01 1.83177E-13-2.47690E-13
 -1      3133 2.00719E+01 3.56704E-01 2.09333E-03 7.04781E-01 1.39839E-13-2.46012E-13
 -1      3134 1.99352E+01 3.81639E-01 3.33873E-04 6.09855E-01 1.52818E-13-2.26265E-13
 -1      3135 2.00582E+01 3.69094E-01-1.47086E-03 7.79554E-01 6.73413E-15-1.32019E-13
 -1      3136 2.00928E+01 3.76645E-01 2.33641E-03 8.53205E-01 2.31851E-14-1.09247E-14
 -1      3137 1.99118E+01 4.24886E-01 1.82182E-04 7.49161E-01 1.58364E-13-2.44451E-13
 -1      3138 2.00839E+01 3.72809E-01-1.06184E-03 9.37182E-01-1.39788E-15 3.16457E-14
 -1      3139 2.01313E+01 3.58733E-01 2.63199E-03 1.01396E+00-2.59298E-14 1.56649E-14
 -1      3140 1.98923E+01 4.41196E-01-2.63339E-04 9.08574E-01 5.37253E-14-1.34259E-13
 -1      3141 2.01355E+01 3.27467E-01-1.45034E-04 1.10470E+00-7.05662E-15 2.97337E-14
 -1      3142 2.02042E+01 2.78195E-01 2.99216E-03 1.17825E+00 7.70570E-14 5.31287E-14
 -1      3143 1.98875E+01 4.09537E-01-1.24111E-03 1.08550E+00 1.10446E-14-2.18911E-14
 -1      3144 2.02361E+01 2.04352E-01 1.60554E-03 1.27110E+00 3.05508E-14 6.14954E-14
 -1      3145 2.03394E+01 1.02199E-01 3.34440E-03 1.33127E+00-2.44230E-14 9.63213E-14
 -1      3146 1.99177E+01 3.00181E-01-3.11766E-03 1.27470E+00 1.50845E-14-8.48873E-14
 -1      3147 2.04231E+01-3.25347E-02 4.66184E-03 1.41742E+00-5.32171E-14 4.10418E-14
 -1      3148 2.05805E+01-2.07629E-01 3.34574E-03 1.44822E+00-5.97211E-14 3.66118E-14
 -1      3149 2.00178E+01 7.40945E-02-6.41405E-03 1.46597E+00-4.50840E-14-6.66510E-14
 -1      3150 2.07536E+01-4.20801E-01 9.63538E-03 1.51039E+00-4.13522E-14 1.22248E-13
 -1      3151 2.09882E+01-6.84630E-01 2.09661E-03 1.48682E+00 1.64636E-14 1.07929E-13
 -1      3152 2.02440E+01-3.14219E-01-1.17749E-02 1.63861E+00-3.76495E-14 4.02639E-14
 -1      3153 2.13023E+01-9.81916E-01 1.68767E-02 1.49126E+00-5.85734E-14 1.37303E-13
 -1      3154 2.16327E+01-1.32906E+00-2.00775E-03 1.37594E+00-1.91058E-14 1.17040E-13
 -1      3155 2.06793E+01-9.02919E-01-1.95082E-02 1.74908E+00-4.94396E-16 1.95071E-13
 -1      3156 2.21453E+01-1.67956E+00 2.60493E-02 1.25950E+00 1.17584E-14 1.75443E-13
 -1      3157 2.25641E+01-2.04385E+00-9.19672E-03 1.00332E+00 3.00159E-14 1.75933E-13
 -1      3158 2.14305E+01-1.68890E+00-2.90071E-02 1.70849E+00 1.00279E-14 3.09975E-13
 -1      3159 2.33007E+01-2.33934E+00 3.18920E-02 6.71146E-01 5.85513E-14 2.20345E-13
 -1      3160 2.37499E+01-2.53069E+00-1.04783E-02 2.43919E-01 1.28720E-13 1.79057E-13
 -1      3161 2.25926E+01-2.53379E+00-3.43933E-02 1.36037E+00 5.36645E-14 4.25641E-13
 -1      3162 2.55791E+01-1.60782E+00-3.35710E-02-1.61057E+00 1.19415E-13 2.12105E-14
 -1      3163 2.57201E+01-6.02138E-01-3.39311E-02-2.00434E+00-5.26836E-14-6.36782E-14
 -1      3164 2.57041E+01 2.10891E+00-9.55746E-02-2.33490E+00-1.38362E-13-1.05499E-13
 -1      3165 2.55997E+01 3.34920E+00-9.34372E-02-1.99922E+00-1.35711E-13-1.17607E-13
 -1      3166 2.54498E+01 4.26029E+00-8.11041E-02-1.08141E+00-2.63803E-13-2.37247E-13
 -1      3167 2.53395E+01 4.67715E+00-1.41128E-01 6.51156E-02-1.66020E-13-3.59705E-13
 -1      3168 2.54001E+01 4.24213E+00-1.16157E-01 9.90664E-01-1.23124E-13-2.10332E-13
 -1      3169 2.59093E+01 3.25076E+00-8.46168E-02 1.90942E+00-1.10675E-13-1.81757E-13
 -1      3170 2.59871E+01 1.82486E+00-1.30231E-01 2.12125E+00-1.22603E-13-1.19250E-13
 -1      3171 2.58054E+01-4.46631E-01-1.11490E-02 1.84904E+00-1.02016E-13-2.51370E-13
 -1      3172 2.56348E+01-1.58330E+00-3.41288E-02 1.41052E+00-2.49328E-13-4.14095E-13
 -1      3173 2.50163E+01-2.26608E+00-9.23748E-03 6.58614E-01-2.25965E-13-3.78840E-13
 -1      3174 2.46265E+01-2.60517E+00 1.27067E-02 8.70018E-02-1.48876E-13-3.15175E-13
 -1      3175 2.58099E+01-2.45064E+00-2.68880E-02 6.18842E-01-1.60367E-13-3.22017E-13
 -1      3176 2.37873E+01-2.62474E+00-1.76342E-02-5.40434E-01-8.93209E-15-2.31041E-13
 -1      3177 2.33399E+01-2.43317E+00 3.28364E-02-9.87745E-01 2.17123E-14-1.39060E-13
 -1      3178 2.42321E+01-3.10351E+00-3.63874E-02-7.58894E-01-3.04288E-14 1.24559E-15
 -1      3179 2.26074E+01-2.14164E+00-1.08447E-02-1.34519E+00-5.15302E-14-1.14135E-13
 -1      3180 2.21847E+01-1.76150E+00 2.62766E-02-1.61327E+00 8.17237E-14-4.07755E-14
 -1      3181 2.27118E+01-2.66289E+00-4.30129E-02-1.68807E+00 9.34816E-14 9.75856E-14
 -1      3182 2.16792E+01-1.39084E+00-1.89403E-03-1.74435E+00 2.45792E-13-4.92046E-14
 -1      3183 2.13431E+01-1.01610E+00 1.77463E-02-1.86448E+00 3.43828E-13-1.27127E-14
 -1      3184 2.15628E+01-1.78335E+00-3.57548E-02-2.07056E+00 2.13706E-13-2.26759E-14
 -1      3185 2.10325E+01-6.90663E-01-1.23109E-03-1.86317E+00 3.31015E-13 1.99154E-16
 -1      3186 2.07988E+01-3.69629E-01 1.14900E-02-1.88374E+00 2.98818E-13 2.13187E-13
 -1      3187 2.08213E+01-9.26252E-01-2.55315E-02-2.13190E+00 4.36660E-13 1.83280E-13
 -1      3188 2.06670E+01-1.40962E-01 1.77505E-03-1.80885E+00 2.32305E-13 1.44445E-13
 -1      3189 2.05038E+01 1.04282E-01 5.51468E-03-1.75987E+00 1.83549E-13 2.38364E-13
 -1      3190 2.02918E+01 2.18995E-01-4.22076E-03-1.82031E+00 4.75548E-14 6.49214E-14
 -1      3191 2.04864E+01-2.44367E-01 4.73033E-03-2.00989E+00 2.67334E-13 2.15570E-13
 -1      3192 1.99884E+01-3.60864E-02 3.80999E-04-1.83841E-01 5.44647E-14-1.36692E-13
 -1      3193 1.99865E+01-3.10796E-02 3.87779E-04-1.86583E-01 7.50267E-14-1.68938E-13
 -1      3194 1.99956E+01-2.27539E-02 2.13413E-04-1.86620E-01 7.19214E-14-1.87714E-13
 -1      3195 1.99985E+01-9.76097E-03 8.77131E-04-1.83994E-01 5.58159E-14-1.80799E-13
 -1      3196 2.00529E+01-2.73893E-02-7.77516E-04-1.82445E-01 7.40605E-14-1.85025E-13
 -1      3197 1.99898E+01-2.97204E-02 5.96795E-04-1.66288E-01 7.03811E-15 7.01047E-14
 -1      3198 1.99825E+01-3.46926E-02-1.88641E-04-1.70719E-01 3.04780E-14-2.21976E-14
 -1      3199 1.99961E+01-1.52322E-02 6.91327E-04-1.60778E-01-4.47077E-15 1.01652E-13
 -1      3200 1.99869E+01-2.35466E-02-3.56032E-04-1.62981E-01 4.44402E-14 1.17003E-13
 -1      3201 2.00212E+01-2.97336E-02-3.57476E-04-1.66964E-01-1.05245E-14 3.31732E-14
 -1      3202 2.00052E+01 4.98680E-03 7.96841E-04-1.61941E-01 2.28141E-14 1.55167E-14
 -1      3203 1.99944E+01-6.18037E-03-4.83869E-04-1.60426E-01 3.08087E-14 9.19895E-14
 -1      3204 2.00184E+01-1.11599E-02-2.76817E-04-1.64173E-01 6.31378E-14-1.02456E-14
 -1      3205 2.00167E+01 3.04446E-02 9.23187E-04-1.72444E-01 1.23835E-13-5.43187E-14
 -1      3206 2.00043E+01 1.66059E-02-5.94984E-04-1.65928E-01 5.39651E-14-3.05294E-14
 -1      3207 2.00180E+01 1.41937E-02-2.13306E-04-1.68571E-01 8.65594E-14-1.15276E-13
 -1      3208 2.00308E+01 6.10989E-02 1.07632E-03-1.94716E-01 6.26956E-14 8.99587E-14
 -1      3209 2.00163E+01 4.45612E-02-7.07500E-04-1.82008E-01 1.05434E-13 2.99377E-14
 -1      3210 2.00193E+01 4.58316E-02-1.58061E-04-1.82855E-01 9.29446E-14-5.75612E-14
 -1      3211 2.00473E+01 9.71524E-02 1.25888E-03-2.31099E-01 7.93329E-15 7.41793E-14
 -1      3212 2.00303E+01 7.77860E-02-8.34500E-04-2.11037E-01 7.93156E-14 9.00181E-14
 -1      3213 2.00215E+01 8.37314E-02-1.04179E-04-2.09489E-01 6.43765E-14 6.90167E-14
 -1      3214 2.00664E+01 1.38840E-01 1.47074E-03-2.83914E-01-8.12020E-14 4.10134E-14
 -1      3215 2.00465E+01 1.16525E-01-9.85119E-04-2.55346E-01-1.83469E-14 5.22207E-14
 -1      3216 2.00240E+01 1.28111E-01-4.10615E-05-2.50841E-01-9.51976E-15 3.94559E-14
 -1      3217 2.00882E+01 1.86140E-01 1.70757E-03-3.55440E-01-3.05711E-14-1.47701E-14
 -1      3218 2.00647E+01 1.60929E-01-1.16375E-03-3.17254E-01-6.61917E-14 1.81177E-14
 -1      3219 2.00258E+01 1.79144E-01 3.82147E-05-3.09232E-01-4.66932E-14-6.76626E-14
 -1      3220 2.01127E+01 2.38354E-01 1.96158E-03-4.47772E-01-6.18526E-14-4.88459E-14
 -1      3221 2.00851E+01 2.10705E-01-1.36745E-03-3.99000E-01-2.35843E-14-9.17778E-15
 -1      3222 2.00260E+01 2.36604E-01 1.39128E-04-3.86918E-01-9.65249E-15-6.90327E-14
 -1      3223 2.01403E+01 2.93474E-01 2.22300E-03-5.62548E-01-6.33653E-14-1.31697E-14
 -1      3224 2.01078E+01 2.64605E-01-1.58237E-03-5.02550E-01-3.94802E-14-4.00128E-15
 -1      3225 2.00236E+01 2.99321E-01 2.59513E-04-4.85962E-01-6.17019E-14-2.99584E-14
 -1      3226 2.01714E+01 3.47224E-01 2.48360E-03-7.00499E-01 3.86261E-14-3.08890E-14
 -1      3227 2.01331E+01 3.19649E-01-1.77613E-03-6.29267E-01-5.13587E-14-3.18344E-14
 -1      3228 2.00176E+01 3.64392E-01 3.80999E-04-6.08017E-01-4.10833E-14-1.81498E-14
 -1      3229 2.02081E+01 3.91628E-01 2.74313E-03-8.60803E-01-6.51969E-14 3.59315E-14
 -1      3230 2.01625E+01 3.69950E-01-1.88534E-03-7.79400E-01 1.78388E-14-1.06309E-14
 -1      3231 2.00079E+01 4.26001E-01 4.53100E-04-7.54026E-01-5.06371E-15-3.35238E-14
 -1      3232 2.02552E+01 4.12964E-01 3.01723E-03-1.04016E+00 7.15316E-14-5.94945E-14
 -1      3233 2.01993E+01 4.04994E-01-1.79514E-03-9.51364E-01 3.93686E-14 8.91319E-15
 -1      3234 1.99959E+01 4.73684E-01 3.66173E-04-9.23836E-01-3.37158E-15-4.08841E-14
 -1      3235 2.03232E+01 3.89111E-01 3.33917E-03-1.23148E+00-1.61511E-13-3.96466E-14
 -1      3236 2.02513E+01 4.07288E-01-1.30655E-03-1.14069E+00-9.10483E-15 1.68354E-14
 -1      3237 1.99869E+01 4.89905E-01-9.07111E-05-1.11574E+00-5.57745E-15 1.27100E-13
 -1      3238 2.04331E+01 2.86750E-01 3.72702E-03-1.42193E+00-2.10838E-13-1.20297E-13
 -1      3239 2.03347E+01 3.49545E-01-8.71154E-05-1.33846E+00-2.22352E-13-1.25046E-13
 -1      3240 1.99938E+01 4.46999E-01-1.28804E-03-1.32579E+00-1.54160E-13 8.63033E-15
 -1      3241 2.06229E+01 5.99741E-02 4.08157E-03-1.58953E+00-1.64820E-13-1.80636E-13
 -1      3242 2.04801E+01 1.92336E-01 2.38912E-03-1.52863E+00-1.89303E-13-1.55591E-13
 -1      3243 2.00429E+01 3.04032E-01-3.82654E-03-1.54640E+00-2.16335E-13-9.62633E-14
 -1      3244 2.09540E+01-3.45700E-01 3.66022E-03-1.69692E+00-9.81070E-14-1.35505E-13
 -1      3245 2.07405E+01-1.15139E-01 6.97885E-03-1.68280E+00-9.23982E-14-1.64503E-13
 -1      3246 2.01831E+01 5.28049E-03-8.57080E-03-1.76285E+00-1.38404E-13-2.69016E-13
 -1      3247 2.15140E+01-9.70322E-01 1.45689E-03-1.67773E+00-5.07801E-14-1.09727E-13
 -1      3248 2.11992E+01-6.24835E-01 1.44517E-02-1.74858E+00-4.09936E-14-5.07085E-14
 -1      3249 2.04979E+01-5.14934E-01-1.67086E-02-1.94333E+00-1.16775E-13-8.61403E-14
 -1      3250 2.23971E+01-1.79187E+00-5.48406E-03-1.42519E+00-1.14779E-13-6.77212E-14
 -1      3251 2.19621E+01-1.35242E+00 2.55648E-02-1.63485E+00-7.12928E-14-3.26859E-14
 -1      3252 2.11119E+01-1.30127E+00-2.85640E-02-2.01562E+00-6.30216E-14-1.51284E-13
 -1      3253 2.36528E+01-2.58516E+00-1.34158E-02-7.76006E-01-1.91468E-13-3.19011E-14
 -1      3254 2.31224E+01-2.20292E+00 3.71409E-02-1.18377E+00-1.11970E-13-6.57252E-14
 -1      3255 2.21743E+01-2.31013E+00-4.26303E-02-1.83796E+00-1.38337E-13-1.55165E-13
 -1      3256 2.51614E+01-2.79269E+00-1.63504E-02 3.93693E-01-1.62714E-13-1.90052E-13
 -1      3257 2.46465E+01-2.80563E+00 3.68993E-02-2.20321E-01-2.11686E-13-1.28459E-13
 -1      3258 2.37950E+01-3.20739E+00-5.15780E-02-1.15089E+00-1.22346E-13-3.88969E-13
 -1      3259 2.65505E+01 1.68782E+00-5.44051E-02 2.48173E+00 1.35260E-13-4.62026E-14
 -1      3260 2.65630E+01 6.73100E-02-1.48977E-01 2.56854E+00 1.18176E-13-5.63022E-14
 -1      3261 2.01321E+01-4.61858E+00-7.03869E-02 5.14365E+00-1.30881E-13-5.05738E-13
 -1      3262 1.77187E+01-3.54886E+00 1.05308E-01 5.40632E+00-1.26385E-13-4.89747E-13
 -1      3263 2.66280E+01 8.37290E-01-9.64871E-02-2.44332E+00-8.08589E-14-3.58324E-14
 -1      3264 2.65554E+01 2.42062E+00-6.52025E-02-2.05534E+00-2.42306E-14-1.98348E-14
 -1      3265 2.61951E+01-1.85465E+00-1.46434E-02-1.50920E+00 3.08954E-15 2.75682E-14
 -1      3266 2.63498E+01-7.41791E-01-4.92028E-02-1.92460E+00-5.30062E-14 1.95885E-14
 -1      3267 2.72072E+01-6.53300E-01-4.52054E-02-1.92926E+00-1.53905E-13-2.16681E-13
 -1      3268 2.49515E+01-2.73914E+00 3.28381E-02 1.54249E-02 2.47047E-13-5.15820E-15
 -1      3269 2.54058E+01-2.48182E+00-2.61232E-02-6.49122E-01 2.07313E-13 1.34899E-13
 -1      3270 2.58667E+01-2.80551E+00-3.60908E-02-4.34399E-01 1.47566E-13-2.24906E-13
 -1      3271 2.34855E+01-2.39464E+00 3.81136E-02 1.17324E+00 2.23505E-13 1.42900E-13
 -1      3272 2.40420E+01-2.63805E+00-6.23166E-03 6.45883E-01 2.17289E-13 8.52859E-14
 -1      3273 2.41159E+01-3.07524E+00-3.88729E-02 1.00723E+00 2.49289E-13 1.05175E-13
 -1      3274 2.22475E+01-1.60092E+00 2.12337E-02 1.81101E+00 3.12134E-13 1.03104E-13
 -1      3275 2.27476E+01-2.00532E+00-2.13154E-04 1.50191E+00 2.86798E-13 1.05245E-13
 -1      3276 2.25519E+01-2.39290E+00-5.06276E-02 1.89227E+00 3.40269E-13 1.44354E-13
 -1      3277 2.13956E+01-8.21901E-01 1.01316E-02 2.05180E+00-1.58670E-13 2.43201E-13
 -1      3278 2.17737E+01-1.18989E+00 3.93126E-03 1.91630E+00 1.70768E-13 1.31367E-13
 -1      3279 2.14819E+01-1.41614E+00-3.06100E-02 2.21650E+00 1.31846E-13 1.34855E-13
 -1      3280 2.08643E+01-2.03337E-01 8.20199E-03 2.05024E+00-3.84270E-13 6.40051E-14
 -1      3281 2.11174E+01-4.88227E-01 3.49079E-03 2.02748E+00-2.93203E-13 4.45368E-14
 -1      3282 2.08147E+01-5.91949E-01-2.00039E-02 2.24479E+00-2.72648E-13 1.87097E-13
 -1      3283 2.02996E+01 4.93098E-01 6.49846E-03 1.83022E+00-1.12695E-13-1.29500E-13
 -1      3284 2.04208E+01 3.23119E-01 2.01199E-03 1.91691E+00-5.73208E-14-1.27765E-13
 -1      3285 2.00164E+01 6.31304E-01-1.24996E-03 1.89785E+00-7.67503E-14-1.54889E-13
 -1      3286 1.85787E+01 1.32375E+00 8.22171E-03-1.16516E+00 3.41599E-14 9.76956E-14
 -1      3287 1.83595E+01 1.41730E+00-1.25267E-02-8.56874E-01 1.67660E-13-1.20062E-13
 -1      3288 2.67316E+01-1.56592E+00-1.91962E-02 1.70608E+00 5.31866E-14-2.62908E-13
 -1      3289 1.82132E+01 1.54182E+00-2.04425E-04-4.39403E-01 1.84961E-13-2.78832E-13
 -1      3290 1.81491E+01 1.57326E+00-6.10705E-03-5.59830E-02 1.69904E-13-2.92000E-13
 -1      3291 1.79852E+01 1.35447E+00 1.09276E-02-7.29474E-01 7.21101E-14-2.46663E-13
 -1      3292 1.77088E+01-3.58416E+00 1.22946E-01-5.50232E+00 2.27422E-13 5.84643E-13
 -1      3293 2.02203E+01-4.56853E+00-7.59980E-02-5.05885E+00 2.27540E-13 6.86756E-13
 -1      3294 2.02905E+01 9.88505E-01-6.08657E-04 6.91868E-01 2.88929E-13-1.86599E-13
 -1      3295 2.02680E+01 1.30787E+00 3.48738E-03 7.73166E-01 2.78051E-13-2.34069E-13
 -1      3296 2.02748E+01 1.12758E+00 1.44990E-03 5.96376E-01 2.34637E-13-2.52071E-13
 -1      3297 2.02321E+01 7.75711E-01-3.66022E-03 4.86673E-01 2.51784E-13-1.74900E-13
 -1      3298 1.06345E+01-3.66277E-02 6.34670E-02-1.77431E+00 1.47434E-14 1.34961E-13
 -1      3299 1.15284E+01-7.00846E-01 9.25964E-02-3.55209E+00 5.72008E-14 2.02019E-13
 -1      3300 9.86295E+00-5.82635E-01 1.58228E-01 2.55966E+00-2.37168E-13-5.40679E-13
 -1      3301 7.84311E+00-7.01784E-01 1.65103E-01 1.60816E+00-1.51604E-13-4.41591E-13
 -1      3302 1.51620E+01-2.62954E+00 2.41988E-02 5.35980E+00-1.88335E-13-6.57280E-13
 -1      3303 1.28037E+01-1.33523E+00 1.00398E-01 4.35577E+00-1.76137E-13-6.57085E-13
 -1      3304 2.30560E+01-4.60355E+00 1.15507E-01-3.74735E+00 2.03667E-13 4.69911E-13
 -1      3305 2.48470E+01-4.56761E+00-8.81516E-02-2.26881E+00 6.02348E-14 1.42090E-13
 -1      3306 2.01242E+01 2.94063E-01-1.99809E-03 4.57652E-02 1.37608E-13-1.60466E-13
 -1      3307 2.01699E+01 3.94911E-01 4.53197E-03 1.36503E-01 1.56714E-13-1.46725E-13
 -1      3308 1.91456E+01 9.80790E-01 1.16180E-02-1.64546E+00 6.28199E-14-1.91787E-13
 -1      3309 1.88416E+01 1.11442E+00-1.38818E-02-1.45278E+00 1.05268E-14-5.26020E-14
 -1      3310 1.84869E+01 1.04218E+00 2.60235E-03-1.45916E+00 1.39872E-13-4.59941E-14
 -1      3311 1.97574E+01 6.22884E-01 1.06534E-02-1.81759E+00 2.51531E-13 4.89366E-13
 -1      3312 1.94588E+01 7.60510E-01-8.99663E-03-1.77043E+00 1.59143E-13 2.26771E-13
 -1      3313 1.91847E+01 6.46474E-01-5.16702E-03-1.87311E+00 2.38877E-13 3.50794E-15
 -1      3314 2.73742E+01 3.08885E+00-1.62944E-01 2.38187E+00 2.23682E-13-1.33032E-13
 -1      3315 2.10991E+01-4.31229E+00 1.18508E-01-4.34090E+00 1.81313E-14-2.81440E-13
 -1      3316 2.33331E+01-4.64571E+00-6.89569E-02-3.03967E+00-2.03379E-14-1.96024E-13
 -1      3317 1.99869E+01-3.73419E-02 4.99734E-04-1.75306E-01 5.74930E-14-4.67249E-14
 -1      3318 1.99818E+01-3.80631E-02 4.72097E-05-1.80111E-01 6.44327E-14-8.44919E-14
 -1      3319 2.00373E+01-4.07042E-02-6.01847E-04-1.80657E-01 3.23468E-14-1.28683E-13
 -1      3320 2.00271E+01-4.03127E-02-4.63384E-04-1.73777E-01-1.94770E-15-7.79621E-15
 -1      3321 2.00733E+01 1.51669E-01-1.10495E-03-7.55673E-02 1.31182E-13-1.63925E-13
 -1      3322 2.01056E+01 2.16568E-01 3.69942E-03-2.18292E-02 1.48449E-13-1.40382E-13
 -1      3323 2.01906E+01 3.16937E-01-1.46293E-03 3.75105E-02 1.41003E-13-1.72772E-13
 -1      3324 1.55274E+01-2.79643E+00 1.31722E-01-5.25148E+00 1.38986E-13-2.22523E-13
 -1      3325 1.83973E+01-4.00387E+00-4.32686E-02-5.19589E+00 9.43898E-14-3.77275E-13
 -1      3326 2.01907E+01-3.55673E+00 7.61851E-02-4.14450E+00 5.50948E-15-2.51346E-13
 -1      3327 2.77197E+01-1.90447E+00-9.67390E-02-1.26116E+00-4.62408E-14-3.84151E-13
 -1      3328 1.29409E+01-1.65068E+00 8.32596E-02-4.67135E+00-5.87239E-14 1.67671E-13
 -1      3329 1.52431E+01-2.85705E+00 2.06840E-02-5.54836E+00 2.13440E-14 2.70298E-13
 -1      3330 1.73258E+01-2.73549E+00 9.32330E-02-4.95694E+00 5.73291E-14 4.67050E-13
 -1      3331 2.02936E+01 1.15472E+00 5.76179E-03-6.68487E-01-2.37488E-13-2.81297E-13
 -1      3332 2.02567E+01 9.09357E-01-4.83782E-03-4.82040E-01-2.21701E-13-2.83707E-13
 -1      3333 2.02715E+01 7.13289E-01 4.66170E-03-3.47491E-01-1.95020E-13-2.59489E-13
 -1      3334 2.02273E+01 5.50600E-01-3.68223E-03-2.17207E-01-1.80547E-13-2.61113E-13
 -1      3335 2.02738E+01 5.79967E-01-2.96793E-04-1.90636E-01-1.72678E-13-2.69226E-13
 -1      3336 2.51191E+01-4.11095E+00 7.13080E-02-1.47500E+00-2.22392E-14-2.54741E-13
 -1      3337 2.58867E+01-3.43456E+00-6.54931E-02-8.35808E-02-7.98007E-14-3.38170E-13
 -1      3338 2.51883E+01-4.65660E+00-7.26878E-02 2.14279E+00-1.41576E-13-3.73149E-13
 -1      3339 2.29764E+01-4.73467E+00 1.06637E-01 3.90673E+00-9.53057E-14-3.15054E-13
 -1      3340 2.20082E+01-4.18442E+00 5.07514E-02 3.87986E+00-6.65232E-14-3.10659E-13
 -1      3341 2.61155E+01-3.64305E+00-6.21507E-02 5.29653E-01-9.75782E-16 5.81028E-14
 -1      3342 2.51351E+01-4.28411E+00 1.79904E-02 1.78337E+00-7.07307E-14 1.76560E-13
 -1      3343 8.72435E+00 5.28709E-02 1.37374E-01 7.84188E-01 2.65222E-13-6.95125E-13
 -1      3344 9.15076E+00-5.04971E-03 1.01647E-01-1.33664E+00 1.41652E-13-6.48231E-13
 -1      3345 9.22050E+00-8.08350E-02 1.27463E-01 2.68682E-01 9.91048E-15-1.58956E-13
 -1      3346 2.00485E+01 2.15992E+00-4.30007E-03 2.93190E-01 1.13300E-13-4.89894E-13
 -1      3347 2.00354E+01 2.19873E+00-3.34944E-03 1.71190E-01 6.65546E-14-4.96973E-13
 -1      3348 1.05285E+01-7.04799E-01 1.09300E-01-3.39047E+00 4.54428E-14-5.10286E-13
 -1      3349 1.24871E+01-1.88815E+00 3.16391E-02-4.83844E+00 1.03646E-13-1.27606E-13
 -1      3350 2.67697E+01-3.27137E+00-1.06606E-02 5.28598E-02-9.08666E-14-4.21663E-13
 -1      3351 2.63140E+01-2.58909E+00-2.72017E-02 1.06704E+00-1.03216E-13-3.17486E-13
 -1      3352 1.12259E+01-6.48493E-01 9.23332E-02 3.34898E+00-2.52947E-13-6.15605E-13
 -1      3353 1.05523E+01-1.47048E-01 6.78929E-02 1.96425E+00-2.53741E-13-4.65447E-13
 -1      3354 1.03961E+01 1.94118E-01 8.63190E-02 7.37530E-01-2.31329E-13-3.25739E-13
 -1      3355 1.03285E+01 2.55115E-01 9.70663E-02-2.78522E-01-8.00453E-14-8.47655E-14
 -1      3356 2.00286E+01 2.21758E+00-3.62741E-03 6.61507E-02 3.95713E-14-4.84071E-13
 -1      3357 2.00281E+01 2.21858E+00-3.57785E-03-5.84242E-02 7.64883E-15-4.90390E-13
 -1      3358 2.01422E+01 1.92161E+00 4.73304E-03 1.01947E-01 4.98393E-14-4.71543E-13
 -1      3359 2.02526E+01 1.46048E+00 5.84546E-03 5.87060E-01 2.09854E-13-3.30449E-13
 -1      3360 2.01606E+01 1.80061E+00-6.97626E-03 6.86935E-01 2.39421E-13-3.72174E-13
 -1      3361 2.01261E+01 1.93010E+00-2.48311E-03 5.91082E-01 1.92496E-13-3.89759E-13
 -1      3362 2.00934E+01 2.02409E+00-5.42166E-03 5.05753E-01 1.82706E-13-4.25217E-13
 -1      3363 2.00686E+01 2.10438E+00-3.06045E-03 3.92217E-01 1.44367E-13-4.53199E-13
 -1      3364 2.01646E+01 1.84690E+00 5.23466E-03 2.92008E-01 1.14797E-13-4.43534E-13
 -1      3365 2.02049E+01 1.69530E+00 5.84614E-03 4.60677E-01 1.72410E-13-3.89213E-13
 -1      3366 1.16823E+01 2.44254E-01 9.02383E-02 1.42819E+00-2.91158E-13-4.76119E-13
 -1      3367 1.37572E+01-8.88185E-01 1.10464E-01-3.77807E+00-5.16011E-14 1.80488E-13
 -1      3368 2.63522E+01 4.21981E-01-5.09676E-02-2.42469E+00-6.11525E-14-9.81715E-14
 -1      3369 2.50789E+01-2.09680E+00-2.10152E-02-1.05508E+00 1.06873E-13 1.31973E-14
 -1      3370 2.58473E+01-2.30449E+00-1.39052E-02-1.00627E+00 6.89310E-14 8.16049E-14
 -1      3371 2.62518E+01-3.14434E+00-2.66758E-02-1.37756E-01-1.75133E-14 1.16067E-13
 -1      3372 2.47011E+01-2.47778E+00 2.29131E-03-4.94306E-01 1.85005E-13 2.90722E-14
 -1      3373 1.52832E+01-1.91416E+00 1.13897E-01-4.53207E+00 9.25579E-14-2.50792E-13
 -1      3374 2.46248E+01-3.74222E+00 2.91412E-03-1.39111E+00 9.10036E-15-1.32705E-13
 -1      3375 2.58462E+01-3.74044E+00 1.71917E-02-8.13345E-01-2.00929E-14-1.08989E-13
 -1      3376 2.17876E+01-4.07656E+00 4.54247E-02-3.89913E+00 2.26638E-13 5.30400E-13
 -1      3377 2.63500E+01-3.43111E-02-2.53636E-02 2.01072E+00-2.02706E-13-1.58581E-13
 -1      3378 2.01224E+01 1.93898E+00-2.67126E-03-5.84407E-01-1.62372E-13-4.55653E-13
 -1      3379 2.01596E+01 1.81067E+00-6.43953E-03-6.84204E-01-1.99684E-13-4.24536E-13
 -1      3380 1.24962E+01-2.04208E+00 1.63929E-01 5.13177E+00 2.71345E-13-3.49665E-13
 -1      3381 1.20531E+01-1.24719E+00 8.99519E-02 4.30418E+00 2.54040E-13-4.28629E-13
 -1      3382 1.45949E+01-2.52769E+00 2.63809E-02 5.19013E+00 2.64171E-13-2.07501E-13
 -1      3383 2.00751E+01 4.97381E-03-9.87393E-04-1.72257E-01 7.85645E-14-1.92795E-13
 -1      3384 2.00106E+01 7.51044E-03-4.41995E-05-1.76522E-01 6.19441E-14-1.69812E-13
 -1      3385 2.00204E+01 3.18652E-02 1.56433E-03-1.63973E-01 5.71763E-14-1.79070E-13
 -1      3386 1.78312E+01 1.45690E+00 9.98388E-03 1.83883E-01 1.42408E-13-1.38017E-13
 -1      3387 1.81746E+01 1.56037E+00-8.33908E-03 3.99589E-01 1.10631E-13-3.12148E-13
 -1      3388 1.82894E+01 1.51743E+00 2.21927E-03 7.70659E-01 7.91452E-14-1.71410E-13
 -1      3389 1.18977E+01 2.92174E-01 9.97344E-02-1.22925E+00-7.07091E-14 4.61159E-14
 -1      3390 2.02847E+01 9.45602E-01 2.63658E-04-4.26235E-01-2.09561E-13-2.93260E-13
 -1      3391 1.73662E+01-2.57933E+00 1.04144E-01 4.80350E+00-1.69170E-13-5.01581E-13
 -1      3392 2.36862E+01-3.83335E+00 1.48269E-02-2.02327E+00-3.07809E-14-2.10679E-13
 -1      3393 2.05700E+01 1.04455E-01-1.28385E-04 1.98795E+00-1.58836E-13-6.75054E-14
 -1      3394 1.84806E+01 1.37749E+00-1.28429E-02 1.16097E+00-5.24949E-15-1.29106E-13
 -1      3395 1.87382E+01 1.27082E+00 7.38755E-03 1.44261E+00-2.79267E-14-7.00256E-15
 -1      3396 1.81022E+01 1.31955E+00 9.11218E-03 1.06735E+00 9.92307E-14-1.02254E-13
 -1      3397 1.35548E+01-7.90892E-01 1.11237E-01 3.69376E+00-1.48000E-13-6.32314E-13
 -1      3398 2.01109E+01 3.38437E-01 3.45600E-03-1.84889E+00 2.66924E-14 2.45888E-13
 -1      3399 1.99064E+01 4.84219E-01-5.62713E-03-1.84232E+00 1.40432E-13 5.13735E-13
 -1      3400 1.97456E+01 3.30864E-01-4.50101E-03-1.98306E+00 3.06719E-13 4.03753E-13
 -1      3401 2.01571E+01 9.90515E-02-5.28450E-03-1.96445E+00 7.55303E-14 2.29108E-13
 -1      3402 2.43189E+01-2.95799E+00-7.56196E-03 3.42170E-01 7.50064E-14 3.70468E-13
 -1      3403 2.00900E+01 2.03302E+00-5.09081E-03-4.99393E-01-1.36452E-13-4.91847E-13
 -1      3404 2.01992E+01 1.70138E+00 4.17029E-03-4.53832E-01-1.40888E-13-4.45621E-13
 -1      3405 2.00658E+01 2.11045E+00-3.03142E-03-3.84094E-01-9.90963E-14-4.83713E-13
 -1      3406 1.86475E+01 1.03679E+00 1.18453E-03 1.67084E+00-1.04761E-15-8.95821E-14
 -1      3407 1.89824E+01 1.10620E+00-1.51799E-02 1.64590E+00-2.69922E-14-1.62895E-13
 -1      3408 1.92746E+01 1.00168E+00 1.04520E-02 1.79377E+00-8.95345E-15-3.42797E-13
 -1      3409 1.06521E+01-1.94272E-01 6.96316E-02 2.59928E+00 3.07898E-13-7.71910E-13
 -1      3410 9.51279E+00 3.00978E-02 1.44367E-01 1.66103E+00 2.65454E-13-8.14321E-13
 -1      3411 1.06387E+01 4.10476E-01 6.19823E-02 7.93528E-01 2.81539E-13-7.28986E-13
 -1      3412 1.92940E+01-4.30542E+00 1.16310E-01 5.30424E+00 1.53877E-13 7.25218E-14
 -1      3413 1.79272E+01-3.57452E+00 7.62964E-02 5.24505E+00 1.76074E-13-4.82947E-14
 -1      3414 2.11040E+01-4.46642E+00-3.98823E-02 4.27504E+00 5.67671E-14 4.54289E-14
 -1      3415 2.43496E+01-4.50504E+00-4.78533E-03 2.43377E+00-1.24841E-13 2.95452E-13
 -1      3416 2.33593E+01-4.29184E+00 8.91186E-02 2.97394E+00-1.12752E-13 2.30205E-13
 -1      3417 2.46023E+01-3.96071E+00-1.03366E-02 1.42603E+00-6.51007E-14 2.12227E-13
 -1      3418 2.00552E+01 1.02760E-01 2.49773E-03-1.15088E-01 1.19165E-13-1.56865E-13
 -1      3419 2.01445E+01 1.62406E-01-1.39254E-03-7.61054E-02 1.19525E-13-1.92062E-13
 -1      3420 2.00357E+01 6.19757E-02-4.54602E-04-1.43867E-01 7.59822E-14-1.75988E-13
 -1      3421 1.06715E+01-4.41449E-02 1.25679E-01-2.26841E+00 4.22822E-14-5.92214E-13
 -1      3422 1.22537E+01-2.44084E-01 1.45670E-03-2.91497E+00 1.04916E-14-4.03698E-13
 -1      3423 1.11862E+01 4.64090E-01 6.22380E-02-1.08981E+00 1.10538E-13-4.96103E-13
 -1      3424 2.01754E+01 4.86570E-01-2.82426E-03 2.22539E-01 1.86376E-13-1.58812E-13
 -1      3425 2.02305E+01 6.35266E-01 3.79104E-03 3.62566E-01 2.15876E-13-1.59647E-13
 -1      3426 2.02609E+01 7.94299E-01 1.51187E-03 4.23745E-01 2.16142E-13-1.91894E-13
 -1      3427 2.02304E+01 5.23191E-01-1.51224E-03 2.01576E-01 1.75642E-13-1.69618E-13
 -1      3428 2.59106E+01-3.90699E+00 7.17718E-03 8.79048E-01-7.06987E-15-3.14776E-13
 -1      3429 2.46331E+01-3.85165E+00-1.07037E-02 1.56312E+00 2.01580E-13-1.88093E-13
 -1      3430 2.64125E+01-3.55673E+00 9.13661E-03-5.66263E-01-5.10486E-14-2.05731E-13
 -1      3431 2.69479E+01-2.04691E+00-8.83496E-02 9.17988E-01-3.11157E-13-3.44211E-13
 -1      3432 2.02385E+01 1.48298E+00-5.28929E-03-8.79478E-01-2.59613E-13-3.00788E-13
 -1      3433 2.02334E+01 1.50302E+00-2.77749E-03-7.71576E-01-2.44867E-13-3.25776E-13
 -1      3434 2.02059E+01 1.59461E+00-2.76592E-03-7.12404E-01-2.15707E-13-3.64814E-13
 -1      3435 2.03028E+01 4.40590E-01 2.72287E-03-7.31618E-02-1.54851E-13-2.87130E-13
 -1      3436 2.02779E+01 3.28346E-01-2.12268E-03-6.09862E-03-1.71597E-13-2.64229E-13
 -1      3437 2.02698E+01 2.39544E-01 2.12100E-03 3.93302E-02-1.69800E-13-2.52065E-13
 -1      3438 2.02456E+01 1.65231E-01-1.25092E-03 8.06984E-02-1.35821E-13-2.48563E-13
 -1      3439 2.03188E+01 3.30853E-01-8.04934E-05 2.01393E-03-1.45372E-13-2.68871E-13
 -1      3440 2.02308E+01 1.07635E-01 1.58164E-03 1.07462E-01-1.27246E-13-2.36494E-13
 -1      3441 2.02096E+01 6.04939E-02-6.03700E-04 1.30294E-01-7.95803E-14-2.54866E-13
 -1      3442 2.02875E+01 1.64018E-01-4.38013E-04 7.75330E-02-1.32816E-13-2.14920E-13
 -1      3443 2.01920E+01 2.52097E-02 1.07464E-03 1.43755E-01-5.71341E-14-2.74101E-13
 -1      3444 2.01746E+01-2.37555E-03-1.51321E-04 1.54165E-01-5.42895E-14-2.65842E-13
 -1      3445 2.02498E+01 5.69394E-02-5.84366E-04 1.20860E-01-8.54617E-14-2.32811E-13
 -1      3446 2.01564E+01-2.16544E-02 6.50271E-04 1.58964E-01-1.04732E-14-2.76605E-13
 -1      3447 2.01427E+01-3.51451E-02 1.54430E-04 1.61791E-01 3.90880E-14-2.27421E-13
 -1      3448 2.02111E+01-6.62885E-03-6.13214E-04 1.41860E-01-3.28037E-14-2.63819E-13
 -1      3449 2.01252E+01-4.28841E-02 3.11888E-04 1.61655E-01 1.22715E-14-2.39090E-13
 -1      3450 2.01148E+01-4.61466E-02 3.56777E-04 1.60607E-01-3.17943E-14-2.36743E-13
 -1      3451 2.01742E+01-3.85844E-02-5.72787E-04 1.48850E-01-7.58328E-16-2.89129E-13
 -1      3452 2.00984E+01-4.54576E-02 4.40572E-05 1.58425E-01-2.83888E-14-2.07412E-13
 -1      3453 2.00907E+01-4.11599E-02 4.90429E-04 1.56310E-01 1.93853E-14-1.84934E-13
 -1      3454 2.01404E+01-4.74740E-02-4.92824E-04 1.48446E-01-1.21493E-14-2.95375E-13
 -1      3455 2.00754E+01-3.41452E-02-1.73773E-04 1.54299E-01 2.23182E-14-2.18493E-13
 -1      3456 2.00697E+01-2.40491E-02 5.82350E-04 1.53262E-01 8.22190E-15-2.29281E-13
 -1      3457 2.01097E+01-3.92584E-02-3.89629E-04 1.45776E-01 5.37040E-15-2.88369E-13
 -1      3458 2.00553E+01-1.20533E-02-3.61794E-04 1.53150E-01-4.78801E-15-2.13614E-13
 -1      3459 2.00511E+01 2.75673E-03 6.52133E-04 1.54874E-01-8.67465E-15-2.23043E-13
 -1      3460 2.00816E+01-1.79139E-02-2.70621E-04 1.44807E-01 2.24666E-14-2.84419E-13
 -1      3461 2.00368E+01 1.89422E-02-5.37611E-04 1.58061E-01-1.83791E-14-1.94390E-13
 -1      3462 2.00336E+01 3.78679E-02 7.13594E-04 1.63931E-01-3.44724E-14-2.29414E-13
 -1      3463 2.00551E+01 1.40739E-02-1.39205E-04 1.48687E-01 2.88513E-14-2.89897E-13
 -1      3464 2.00186E+01 5.78350E-02-7.15615E-04 1.71611E-01-6.73027E-14-2.37118E-13
 -1      3465 2.00159E+01 8.05987E-02 7.76677E-04 1.82829E-01-9.43159E-14-2.16892E-13
 -1      3466 2.00285E+01 5.53005E-02 6.05457E-06 1.60012E-01-8.18986E-14-3.09913E-13
 -1      3467 1.99993E+01 1.04164E-01-9.06556E-04 1.96090E-01-1.41840E-13-1.66073E-13
 -1      3468 1.99964E+01 1.30637E-01 8.47647E-04 2.13754E-01-1.34516E-13-1.54060E-13
 -1      3469 2.00001E+01 1.05068E-01 1.66711E-04 1.81052E-01-5.61855E-14-2.52340E-13
 -1      3470 1.99770E+01 1.57664E-01-1.11691E-03 2.33642E-01-1.25687E-13-1.60107E-13
 -1      3471 1.99734E+01 1.87676E-01 9.30523E-04 2.58780E-01-1.04934E-13-1.84356E-13
 -1      3472 1.99679E+01 1.63017E-01 3.45579E-04 2.13912E-01-1.46723E-13-1.82858E-13
 -1      3473 1.99500E+01 2.17876E-01-1.34900E-03 2.86326E-01-5.43571E-14-1.68587E-13
 -1      3474 1.99453E+01 2.50988E-01 1.02910E-03 3.19892E-01-5.87381E-14-1.70610E-13
 -1      3475 1.99293E+01 2.28705E-01 5.43400E-04 2.60620E-01-7.96695E-14-1.58198E-13
 -1      3476 1.99166E+01 2.83666E-01-1.59950E-03 3.56126E-01-1.25133E-13-9.53474E-14
 -1      3477 1.99103E+01 3.18880E-01 1.15001E-03 3.98958E-01-5.62112E-14-1.15321E-13
 -1      3478 1.98821E+01 3.01125E-01 7.55888E-04 3.23179E-01-4.65862E-14-5.07411E-14
 -1      3479 1.98753E+01 3.52603E-01-1.85746E-03 4.44902E-01-1.39978E-14-1.81265E-13
 -1      3480 1.98673E+01 3.87979E-01 1.30786E-03 4.97654E-01 5.75567E-14-2.03545E-13
 -1      3481 1.98238E+01 3.78090E-01 9.70576E-04 4.03589E-01-6.32287E-14-9.86004E-14
 -1      3482 1.98251E+01 4.20136E-01-2.10157E-03 5.54329E-01 1.23575E-13-2.32914E-13
 -1      3483 1.98160E+01 4.52283E-01 1.53322E-03 6.17373E-01 1.54033E-13-2.49741E-13
 -1      3484 1.97524E+01 4.55441E-01 1.15999E-03 5.03871E-01 4.23422E-14-2.10697E-13
 -1      3485 1.97667E+01 4.78500E-01-2.29488E-03 6.85826E-01 1.55424E-13-2.25272E-13
 -1      3486 1.97583E+01 5.01916E-01 1.88385E-03 7.59156E-01 1.48507E-13-2.10850E-13
 -1      3487 1.96669E+01 5.26015E-01 1.27108E-03 6.26157E-01 1.63156E-13-2.02746E-13
 -1      3488 1.97033E+01 5.15308E-01-2.37414E-03 8.40556E-01 1.16977E-13-2.72082E-13
 -1      3489 1.96996E+01 5.21547E-01 2.45672E-03 9.23668E-01 5.94502E-14-2.07020E-13
 -1      3490 1.95683E+01 5.78310E-01 1.20788E-03 7.72920E-01 1.12641E-13-2.45641E-13
 -1      3491 1.96430E+01 5.11812E-01-2.22707E-03 1.01945E+00 3.58097E-14-1.27186E-13
 -1      3492 1.96519E+01 4.88496E-01 3.39107E-03 1.11117E+00 6.67293E-14-1.32750E-13
 -1      3493 1.94616E+01 5.94784E-01 8.01716E-04 9.47390E-01 1.00851E-13-2.74464E-13
 -1      3494 1.96025E+01 4.40954E-01-1.64555E-03 1.22313E+00 4.16081E-14-1.01642E-13
 -1      3495 1.96378E+01 3.70809E-01 4.85650E-03 1.32113E+00 1.70470E-14-1.01185E-13
 -1      3496 1.93580E+01 5.49768E-01-2.38638E-04 1.15411E+00 7.31161E-14-2.09625E-13
 -1      3497 1.96121E+01 2.65730E-01-2.07846E-04 1.45103E+00-4.57534E-14-3.64302E-14
 -1      3498 1.96968E+01 1.26041E-01 6.98225E-03 1.55052E+00-6.39686E-14-4.06444E-14
 -1      3499 1.92803E+01 4.07159E-01-2.38341E-03 1.39920E+00 9.20242E-15-5.47758E-14
 -1      3500 1.97245E+01-6.10145E-02 2.91969E-03 1.69844E+00-3.40731E-14-3.16314E-14
 -1      3501 1.98932E+01-2.97869E-01 9.46197E-03 1.78880E+00 1.26140E-14 7.12917E-16
 -1      3502 1.92699E+01 1.18468E-01-6.35689E-03 1.68920E+00 2.84253E-15-1.15420E-13
 -1      3503 2.00268E+01-5.92763E-01 9.37641E-03 1.94574E+00 6.53915E-14 7.35534E-14
 -1      3504 2.03264E+01-9.52077E-01 1.15324E-02 2.00218E+00 1.06114E-13 1.48250E-13
 -1      3505 1.94002E+01-3.79597E-01-1.33796E-02 2.02458E+00 9.89250E-14 7.89956E-14
 -1      3506 2.06476E+01-1.36845E+00 2.10835E-02 2.13695E+00 3.87008E-14 1.72240E-13
 -1      3507 2.11228E+01-1.85865E+00 7.90714E-03 2.10952E+00 7.98586E-14 2.25699E-13
 -1      3508 1.97919E+01-1.14770E+00-2.37805E-02 2.37690E+00 1.39065E-13 5.84931E-14
 -1      3509 2.17647E+01-2.35129E+00 4.55640E-02 2.11970E+00 1.09557E-13 2.73889E-13
 -1      3510 2.23974E+01-2.90779E+00-6.44026E-03 1.93313E+00 9.41504E-14 3.50209E-13
 -1      3511 2.06375E+01-2.24610E+00-4.30544E-02 2.65072E+00 9.84907E-14 8.59104E-14
 -1      3512 1.46088E+01-8.92365E-01 1.26006E-01-3.87836E+00 1.91461E-14-2.29539E-13
 -1      3513 1.67615E+01-2.10354E+00-4.92864E-02-4.31319E+00 2.18731E-14-2.51084E-13
 -1      3514 2.38170E+01-3.54768E+00 6.40546E-02-1.94081E+00 8.67062E-14 8.95334E-14
 -1      3515 2.06168E+01-3.18728E+00 9.45203E-02-4.00828E+00 2.43504E-13 5.95112E-13
 -1      3516 2.23825E+01-3.71431E+00-5.87356E-02-3.00032E+00 2.00856E-13 2.48822E-13
 -1      3517 2.25267E+01-3.04611E+00 3.15599E-03-2.32129E+00 8.54317E-14 1.73971E-13
 -1      3518 2.02370E+01 3.21644E-01-2.12168E-03 1.66329E-02 1.19827E-13-2.16500E-13
 -1      3519 2.02677E+01 4.30596E-01 3.18851E-03 9.09000E-02 1.31345E-13-2.13786E-13
 -1      3520 2.18774E+01-2.48878E+00 4.73302E-02-2.52867E+00 9.82690E-14 1.83745E-13
 -1      3521 2.12790E+01-1.94789E+00 1.61274E-02-2.50161E+00 1.24849E-13 1.25325E-13
 -1      3522 2.08003E+01-1.43289E+00 2.43536E-02-2.53650E+00 2.73863E-13 1.65290E-13
 -1      3523 2.06810E+01-2.38619E+00-6.37513E-02-3.09836E+00 9.47944E-14 4.43572E-13
 -1      3524 2.05369E+01-9.86233E-01 1.85681E-02-2.37594E+00 4.68427E-13 2.02301E-13
 -1      3525 2.02704E+01-5.69562E-01 2.83775E-02-2.34213E+00 5.05063E-13 5.53052E-14
 -1      3526 1.99488E+01-1.15743E+00-1.08177E-02-2.78648E+00 3.27147E-13 2.63294E-13
 -1      3527 2.01046E+01-3.15878E-02 1.67261E-04-1.72204E-01 2.98172E-14-1.31437E-13
 -1      3528 2.01153E+01-1.79319E-02 7.33148E-04-1.69392E-01 6.92760E-14-1.54588E-13
 -1      3529 2.00398E+01-4.11059E-03 6.86916E-04-1.59794E-01 6.69469E-14-6.37426E-14
 -1      3530 2.00399E+01-1.69341E-02-3.59316E-04-1.59140E-01 3.89587E-14-4.40479E-14
 -1      3531 2.00510E+01-2.70889E-02 6.05567E-04-1.60126E-01 1.12845E-15-8.21855E-15
 -1      3532 2.00527E+01-3.55284E-02-1.71808E-04-1.62161E-01-1.04922E-15-3.45084E-14
 -1      3533 2.00685E+01-2.27928E-02-3.06223E-04-1.54447E-01 6.95951E-14-1.08686E-14
 -1      3534 2.00219E+01 6.46258E-02 8.47449E-04-1.84021E-01 4.04094E-14-2.84380E-14
 -1      3535 2.00198E+01 4.42354E-02-6.96081E-04-1.73784E-01 5.34118E-14-1.14539E-13
 -1      3536 2.00127E+01 1.09927E-01 9.40233E-04-2.13495E-01 1.81585E-14 6.97669E-14
 -1      3537 2.00100E+01 8.57814E-02-8.78532E-04-1.96633E-01 5.55211E-14 5.40243E-14
 -1      3538 2.00109E+01 8.70658E-02 7.53749E-05-1.86238E-01-6.72191E-15-5.36880E-14
 -1      3539 2.00014E+01 1.62725E-01 1.04524E-03-2.57581E-01 2.44595E-14 2.45282E-15
 -1      3540 1.99986E+01 1.34702E-01-1.08571E-03-2.32955E-01 5.41020E-14 6.18856E-14
 -1      3541 1.99887E+01 1.40556E-01 2.39215E-04-2.18346E-01 5.59499E-14 5.22138E-14
 -1      3542 1.99865E+01 2.23145E-01 1.16206E-03-3.18477E-01 2.38195E-14-1.25640E-13
 -1      3543 1.99840E+01 1.91208E-01-1.32650E-03-2.84977E-01 4.90399E-14-7.75440E-14
 -1      3544 1.99616E+01 2.02584E-01 4.30788E-04-2.64881E-01 1.03301E-13-8.98857E-14
 -1      3545 1.99658E+01 2.90770E-01 1.29007E-03-3.98301E-01-1.60518E-14-5.19685E-14
 -1      3546 1.99642E+01 2.55214E-01-1.60301E-03-3.54893E-01 1.70166E-14-9.43976E-14
 -1      3547 1.99269E+01 2.73140E-01 6.60084E-04-3.27935E-01 1.01660E-14-1.48277E-13
 -1      3548 1.99374E+01 3.64061E-01 1.43268E-03-4.98988E-01-1.00014E-13-3.61720E-14
 -1      3549 1.99372E+01 3.25830E-01-1.91318E-03-4.44791E-01-5.35608E-14-6.66731E-14
 -1      3550 1.98818E+01 3.51481E-01 9.30064E-04-4.09529E-01-3.14556E-14-1.34058E-13
 -1      3551 1.98994E+01 4.39505E-01 1.60528E-03-6.22160E-01-3.85755E-14-6.79610E-14
 -1      3552 1.99008E+01 4.00659E-01-2.24653E-03-5.56556E-01-5.32681E-14-7.07439E-14
 -1      3553 1.98231E+01 4.35472E-01 1.23418E-03-5.11583E-01-4.37440E-14-1.70574E-13
 -1      3554 1.98505E+01 5.10371E-01 1.84901E-03-7.68987E-01-3.42143E-14-4.92723E-14
 -1      3555 1.98534E+01 4.74762E-01-2.57987E-03-6.91758E-01-2.83013E-14-8.54064E-14
 -1      3556 1.97477E+01 5.20618E-01 1.54693E-03-6.35928E-01-2.36453E-14-1.16686E-13
 -1      3557 1.97917E+01 5.64933E-01 2.25177E-03-9.40141E-01-1.93549E-14-1.87336E-14
 -1      3558 1.97944E+01 5.39166E-01-2.86863E-03-8.51599E-01-2.60761E-14-6.81783E-14
 -1      3559 1.96531E+01 5.98690E-01 1.80701E-03-7.84460E-01-2.94862E-14-6.29247E-14
 -1      3560 1.97285E+01 5.84004E-01 2.97398E-03-1.13589E+00-9.21570E-14 8.28470E-14
 -1      3561 1.97265E+01 5.78759E-01-3.02808E-03-1.03699E+00-5.40884E-14 2.43360E-14
 -1      3562 1.95392E+01 6.55793E-01 1.88885E-03-9.59573E-01-9.82502E-14-2.74765E-14
 -1      3563 1.96753E+01 5.37778E-01 4.26707E-03-1.35624E+00-1.65426E-13-5.44302E-15
 -1      3564 1.96586E+01 5.69477E-01-2.89211E-03-1.24881E+00-9.80983E-14 8.99064E-14
 -1      3565 1.94099E+01 6.69694E-01 1.55369E-03-1.16503E+00-1.00393E-13 1.65041E-14
 -1      3566 1.96618E+01 3.82349E-01 6.44009E-03-1.60074E+00-1.35067E-13-3.30591E-14
 -1      3567 1.96113E+01 4.74935E-01-2.12632E-03-1.48800E+00-1.50659E-13 5.19623E-14
 -1      3568 1.92784E+01 6.06326E-01 3.70549E-04-1.40721E+00-1.15731E-13 7.24205E-14
 -1      3569 1.97440E+01 5.72737E-02 9.91512E-03-1.86605E+00-1.87641E-13-1.64265E-13
 -1      3570 1.96261E+01 2.43301E-01-5.96060E-05-1.75479E+00-1.18794E-13-1.43003E-13
 -1      3571 1.91738E+01 4.15809E-01-2.39008E-03-1.69613E+00-6.33929E-14-5.76710E-14
 -1      3572 2.00191E+01-5.14739E-01 1.40318E-02-2.13807E+00-9.32629E-14-1.86607E-13
 -1      3573 1.97800E+01-1.93103E-01 5.15164E-03-2.04419E+00-1.81346E-13-2.16004E-13
 -1      3574 1.91535E+01 2.82244E-02-7.85879E-03-2.04402E+00-1.57566E-13-2.41201E-13
 -1      3575 2.06416E+01-1.39271E+00 2.04966E-02-2.36835E+00-8.73336E-14-1.77908E-13
 -1      3576 2.02092E+01-9.07606E-01 1.73529E-02-2.32530E+00-5.10252E-14-1.51602E-13
 -1      3577 1.93195E+01-6.50165E-01-2.01602E-02-2.45473E+00-1.42444E-13-3.70008E-13
 -1      3578 2.18002E+01-2.58365E+00 1.70549E-02-2.37799E+00-1.79884E-13-1.99783E-13
 -1      3579 2.11250E+01-1.94893E+00 4.16197E-02-2.48944E+00-1.55315E-13-1.80713E-13
 -1      3580 1.99035E+01-1.75908E+00-5.33776E-02-2.88946E+00-1.58485E-13-1.68639E-13
 -1      3581 2.27236E+01-3.31022E+00 6.21551E-02-2.41514E+00-9.98164E-14-2.11638E-13
 -1      3582 1.39121E+01-3.22714E-01 3.00990E-02-3.08470E+00 2.44006E-14 2.00222E-13
 -1      3583 1.52490E+01-1.25671E+00 9.15375E-03-4.14088E+00-8.36761E-14 3.96384E-14
 -1      3584 1.66989E+01-1.89105E+00 6.04713E-02-4.47330E+00-2.90011E-14 2.35274E-13
 -1      3585 1.85054E+01-2.87323E+00-4.29043E-02-4.56084E+00 1.84398E-13 5.22582E-13
 -1      3586 1.68929E+01-1.25884E+00 5.63487E-02-3.82061E+00-1.48215E-14 1.80612E-13
 -1      3587 2.17109E+01-2.10611E+00 4.39005E-02 2.58276E+00 2.74046E-13 1.00313E-13
 -1      3588 2.23315E+01-2.74335E+00 1.35907E-03 2.41449E+00 2.98650E-13 6.95295E-14
 -1      3589 2.07398E+01-1.07359E+00 2.03555E-02 2.56889E+00 8.62367E-14 1.00608E-13
 -1      3590 2.11694E+01-1.57484E+00 1.24776E-02 2.54388E+00 2.39172E-13 5.79406E-14
 -1      3591 2.06192E+01-1.97052E+00-5.05281E-02 3.01555E+00 2.52777E-13 9.50863E-14
 -1      3592 2.02688E+01-2.67231E-01 1.99125E-02 2.38880E+00-2.27508E-13 1.34638E-14
 -1      3593 2.05095E+01-6.50938E-01 1.28703E-02 2.43500E+00-2.19649E-14 1.53297E-13
 -1      3594 1.99725E+01-8.41533E-01-1.76234E-02 2.76142E+00 7.67364E-14 6.83555E-14
 -1      3595 2.03032E+01 9.10617E-02-1.60594E-02 2.12682E+00-1.02154E-13-2.61028E-13
 -1      3596 1.97768E+01 7.43384E-01-7.97556E-03 1.87162E+00 3.06959E-15-3.28735E-13
 -1      3597 1.93346E+01 3.36340E-01 1.91059E-02-2.12660E+00 4.85088E-13 2.53619E-13
 -1      3598 1.88578E+01 4.93468E-01-1.75560E-02-1.99746E+00 2.69695E-13-6.14909E-14
 -1      3599 2.63778E+01 3.27479E+00-7.45663E-02-1.90374E+00 1.22222E-13 4.74941E-14
 -1      3600 1.76439E+01 1.17481E+00 9.00483E-03-1.07240E+00 1.30025E-13-1.84064E-13
 -1      3601 1.73971E+01 1.27248E+00-1.05472E-02-6.30804E-01 5.83140E-14-2.14159E-13
 -1      3602 1.88484E+01-2.83288E+00-2.71363E-02 4.46089E+00 5.14519E-15-3.06793E-13
 -1      3603 1.69028E+01-1.74172E+00 6.87129E-02 4.33827E+00 3.17090E-14-2.75800E-13
 -1      3604 1.26009E+01 6.21056E-01 3.18394E-02-4.38579E-01-1.01911E-13-2.29806E-13
 -1      3605 1.30064E+01 3.48538E-01 2.18342E-02-1.83992E+00-2.85102E-14 4.22717E-14
 -1      3606 1.48154E+01-9.70470E-01-1.09432E-02 3.88144E+00-1.13146E-13-6.27033E-13
 -1      3607 1.34695E+01-1.85529E-01 5.32986E-02 2.91630E+00-2.02269E-13-5.29354E-13
 -1      3608 1.28299E+01 2.26477E-01 4.24209E-02 2.11836E+00-2.39083E-13-4.43055E-13
 -1      3609 1.24914E+01 5.09767E-01 1.36560E-02 9.05225E-01-1.99049E-13-4.55438E-13
 -1      3610 1.43063E+01 2.03593E-01 5.97374E-02 2.33827E+00-1.75620E-13-3.21354E-13
 -1      3611 2.37723E+01-3.55360E+00 3.85675E-02 2.06245E+00 2.34934E-13-1.09986E-13
 -1      3612 2.03191E+01 7.36011E-01 3.34438E-03-2.44387E-01-1.62417E-13-3.31624E-13
 -1      3613 2.02975E+01 5.72917E-01-3.15952E-03-1.43578E-01-1.51547E-13-3.24565E-13
 -1      3614 2.03335E+01 5.80531E-01 8.34783E-04-1.16360E-01-1.44770E-13-3.24808E-13
 -1      3615 1.84188E+01 7.81001E-01 1.71953E-02-1.79123E+00 1.49584E-13-9.26093E-14
 -1      3616 1.79898E+01 9.22750E-01-1.95224E-02-1.50000E+00 1.84857E-13 9.75392E-15
 -1      3617 1.75317E+01 8.98638E-01 1.36725E-02-1.45574E+00 2.00501E-13-5.66554E-14
 -1      3618 1.84487E+01 4.05055E-01-5.84722E-03-2.09210E+00 2.44968E-13 3.06738E-14
 -1      3619 2.00305E+01 2.66197E-02 7.64212E-04-1.66908E-01 1.02294E-13-1.29229E-13
 -1      3620 2.00293E+01 9.93370E-03-5.27905E-04-1.62101E-01 1.08968E-13-5.84935E-14
 -1      3621 2.00490E+01 5.18502E-03-1.88383E-04-1.56642E-01 9.62194E-14-7.44418E-14
 -1      3622 2.00304E+01 4.19522E-02-6.33338E-05-1.66427E-01 7.95921E-14-8.72844E-14
 -1      3623 2.00346E+01 2.20109E+00-3.26272E-03-1.63074E-01-3.05379E-14-4.75940E-13
 -1      3624 2.00465E+01 2.16457E+00-4.14239E-03-2.85483E-01-9.12259E-14-4.59821E-13
 -1      3625 2.01601E+01 1.85045E+00 3.93759E-03-2.84030E-01-9.82195E-14-4.67218E-13
 -1      3626 1.94084E+01-2.54612E+00 9.71144E-02-3.86562E+00-6.09278E-14-2.19626E-13
 -1      3627 2.10702E+01-3.21747E+00-5.80822E-02-3.25082E+00-7.69575E-14-1.59484E-13
 -1      3628 2.02556E+01 1.39194E+00 3.14481E-03-5.55809E-01-1.97184E-13-3.73393E-13
 -1      3629 1.95539E+01 6.53859E-01 1.31952E-03 1.98306E+00 4.30011E-14-3.64195E-13
 -1      3630 1.97254E+01 4.01718E-01 1.72664E-02 2.15920E+00 6.30652E-14-3.23357E-13
 -1      3631 1.99391E+01 2.77634E-02 4.58717E-03 2.28588E+00-1.25030E-13-1.36152E-13
 -1      3632 1.94647E+01-2.85783E-02-1.46110E-02 2.44080E+00 3.54296E-14-3.14949E-13
 -1      3633 1.90275E+01 5.89119E-01-2.05106E-02 2.09980E+00 1.07150E-14-3.27321E-13
 -1      3634 2.24055E+01-3.57560E+00-4.08653E-02 2.98836E+00 1.93982E-13-1.95712E-13
 -1      3635 2.05885E+01-2.99383E+00 8.40710E-02 3.90777E+00 1.15248E-13-1.71487E-13
 -1      3636 2.53088E+01-3.31576E+00-3.41737E-03 2.56604E-01 2.25492E-14 1.53993E-13
 -1      3637 2.02781E+01 1.14618E+00-3.60405E-03 4.93561E-01 1.93833E-13-3.06412E-13
 -1      3638 2.02685E+01 1.28709E+00 2.95913E-04 4.55949E-01 1.67807E-13-3.37090E-13
 -1      3639 1.85095E+01-1.73224E+00 4.37375E-02-3.51066E+00-1.13926E-13-1.50877E-13
 -1      3640 2.24861E+01-3.46488E+00-2.67342E-02 2.43158E+00 4.31803E-14 2.33277E-13
 -1      3641 2.36853E+01-3.34503E+00 5.81837E-02 1.49558E+00 7.33853E-15 3.23656E-13
 -1      3642 1.41869E+01-2.90634E-01 5.25561E-02-2.97568E+00-3.98050E-14-3.34351E-13
 -1      3643 2.03070E+01 5.76927E-01 1.29929E-04 1.45181E-01 1.34224E-13-2.49969E-13
 -1      3644 2.02686E+01 5.63081E-01-2.27528E-03 1.73275E-01 1.45804E-13-2.19871E-13
 -1      3645 1.99124E+01-2.46860E+00 5.51411E-02-3.74230E+00 1.42039E-13 4.26019E-13
 -1      3646 2.02265E+01 2.35659E-01 2.54844E-03-3.57349E-02 1.14652E-13-2.24688E-13
 -1      3647 2.02846E+01 3.30289E-01-4.43296E-04 7.78838E-03 1.27979E-13-2.31155E-13
 -1      3648 2.02001E+01 1.63530E-01-1.25759E-03-8.12461E-02 1.22309E-13-2.14556E-13
 -1      3649 1.68922E+01-2.89827E+00 1.06027E-01 5.10031E+00 2.34784E-13-6.08680E-14
 -1      3650 1.58506E+01-2.13835E+00 4.44620E-02 4.66701E+00 1.83679E-13-1.38861E-13
 -1      3651 1.87680E+01-3.28861E+00-4.45888E-03 4.55221E+00 1.98851E-13-1.09187E-13
 -1      3652 1.82625E+01 9.09463E-01-1.66760E-02 1.74516E+00 6.74071E-14-4.13635E-14
 -1      3653 1.86734E+01 8.10995E-01 2.13780E-02 1.94729E+00 9.36295E-15-1.41599E-13
 -1      3654 1.87136E+01 5.01585E-01-8.01033E-03 2.19080E+00 1.62996E-13-2.01296E-13
 -1      3655 1.93130E+01-2.85728E-01-2.56399E-02-2.46124E+00 5.35704E-13 2.50393E-13
 -1      3656 1.98288E+01-2.25767E-01-2.19238E-03-2.24646E+00 5.38763E-13 1.05749E-13
 -1      3657 2.01762E+01-2.73266E-03-7.08701E-04-1.53719E-01 1.10624E-14-1.94624E-13
 -1      3658 2.01317E+01 1.08259E-03-1.36724E-04-1.63742E-01 7.28600E-14-2.10354E-13
 -1      3659 2.01471E+01 2.80991E-02 1.23279E-03-1.52531E-01 4.22403E-14-2.30761E-13
 -1      3660 2.00895E+01-3.97695E-02 3.48729E-04-1.72097E-01 1.89231E-14-7.58037E-14
 -1      3661 2.01435E+01-3.55027E-02-6.28017E-04-1.61716E-01 2.30941E-15-6.55086E-14
 -1      3662 2.00825E+01-4.37986E-02 3.69862E-04-1.70526E-01-2.50864E-14-2.28830E-14
 -1      3663 1.34470E+01-8.50134E-01 2.52180E-02 3.77627E+00 1.81978E-13-4.43312E-13
 -1      3664 1.19517E+01-3.85863E-01 1.28495E-01 3.30596E+00 2.44161E-13-6.68306E-13
 -1      3665 1.22228E+01 1.45224E-01 3.84636E-02 2.34268E+00 2.17125E-13-8.28046E-13
 -1      3666 1.73097E+01 1.33916E+00-5.49914E-03-3.72279E-02 9.28986E-14-2.63304E-13
 -1      3667 1.73591E+01 1.33690E+00 8.00144E-04 4.32495E-01 1.54634E-13-2.24719E-13
 -1      3668 1.69334E+01 1.21792E+00 8.77222E-03-3.91779E-01 1.83561E-13-2.61344E-13
 -1      3669 2.00901E+01-4.07179E-02-4.18505E-04-1.57019E-01 3.12012E-14-6.02829E-14
 -1      3670 2.00649E+01-4.10764E-02 5.06685E-04-1.64926E-01 1.68582E-14-1.40860E-14
 -1      3671 2.00689E+01-4.41188E-02 5.60410E-05-1.67869E-01 9.96142E-15-1.22616E-14
 -1      3672 1.45850E+01 1.85623E-01 6.65229E-02-2.28966E+00-5.80974E-14 5.66873E-14
 -1      3673 1.36589E+01 7.23383E-01 4.93042E-02 2.34369E-01-1.33587E-14-2.48622E-13
 -1      3674 1.75158E+01 1.22690E+00-1.63303E-02 9.85029E-01 2.27542E-13-6.79881E-15
 -1      3675 1.78307E+01 1.13533E+00 1.09823E-02 1.39963E+00 1.34570E-13-1.60549E-14
 -1      3676 1.70688E+01 1.18347E+00 1.44589E-02 7.82496E-01 1.30973E-13-1.86746E-13
 -1      3677 2.00383E+01-2.28533E+00 3.31226E-02 3.61588E+00 2.08923E-13-7.34868E-14
 -1      3678 2.00198E+01-4.49744E-02-8.55850E-03-2.08299E+00 3.52619E-13 2.25248E-13
 -1      3679 1.66853E+01-1.06506E+00 5.45894E-02 3.72890E+00 3.33761E-14-2.34866E-13
 -1      3680 1.77591E+01 8.67183E-01-1.08962E-03 1.72875E+00 1.92161E-13-2.19263E-14
 -1      3681 2.70829E+01-1.25913E+00-6.59194E-02 1.46235E+00-3.62502E-13-3.27079E-13
 -1      3682 1.16181E+01 5.91596E-01 3.60422E-02 5.66273E-01 1.75015E-13-6.61117E-13
 -1      3683 1.12748E+01 7.04262E-01 1.20530E-01-2.82466E-01 1.89700E-13-5.73305E-13
 -1      3684 1.21776E+01 5.84616E-01 2.06091E-02-1.09836E+00 6.31882E-14-3.73635E-13
 -1      3685 2.02813E+01 8.79594E-01-1.10317E-03 4.46696E-01 2.05311E-13-2.40791E-13
 -1      3686 2.02818E+01 1.05857E+00 1.70640E-03 4.83922E-01 2.01950E-13-2.72288E-13
 -1      3687 2.02956E+01 9.14901E-01 6.37219E-04 3.55392E-01 1.76432E-13-2.76855E-13
 -1      3688 2.02680E+01 7.28437E-01-1.06528E-03 3.21002E-01 1.93816E-13-2.22587E-13
 -1      3689 2.01055E+01 6.43082E-02-1.21303E-03-1.40871E-01 8.87234E-14-1.89548E-13
 -1      3690 2.02072E+01 1.63946E+00-3.23699E-03 1.30712E-01 6.35467E-14-4.40632E-13
 -1      3691 2.02031E+01 1.66006E+00-2.34150E-03 4.03783E-02 2.18757E-14-4.42967E-13
 -1      3692 2.02848E+01 6.91121E-01 2.00013E-03 2.67680E-01 1.77476E-13-2.23566E-13
 -1      3693 2.02258E+01 1.54686E+00-4.24797E-03 2.85736E-01 1.19011E-13-4.03030E-13
 -1      3694 2.02158E+01 1.60655E+00-1.87621E-03 2.01856E-01 7.89822E-14-4.37364E-13
 -1      3695 2.02894E+01 1.38629E+00 4.84839E-03 1.34397E-01 5.69487E-14-4.05899E-13
 -1      3696 2.42482E+01-3.38554E+00-6.86315E-03 1.01596E+00 1.56099E-14 3.55124E-13
 -1      3697 2.02872E+01 1.16144E+00-5.40574E-05-4.78475E-01-2.02720E-13-3.55565E-13
 -1      3698 2.02890E+01 9.30063E-01-4.10511E-03-3.39162E-01-1.84584E-13-3.36790E-13
 -1      3699 2.02589E+01 1.37646E+00 2.18416E-03-4.63068E-01-1.65688E-13-4.00058E-13
 -1      3700 2.62512E+01-2.20902E+00-4.00544E-02 8.44863E-01-2.66056E-13-3.96500E-13
 -1      3701 2.03172E+01 9.28030E-01-1.11918E-03-2.85191E-01-1.68961E-13-3.62676E-13
 -1      3702 2.02256E+01 1.55648E+00-2.86312E-04-3.38276E-01-1.19469E-13-4.37597E-13
 -1      3703 2.02414E+01 1.45877E+00-3.58303E-03-4.05986E-01-1.44880E-13-4.42079E-13
 -1      3704 2.02951E+01 1.25024E+00 4.31952E-03-3.44882E-01-1.49783E-13-4.10284E-13
 -1      3705 2.01404E+01 1.92288E+00 4.25050E-03-9.36974E-02-9.69009E-15-4.46642E-13
 -1      3706 1.81023E+01-1.06767E+00 2.89349E-02-3.19828E+00-8.58450E-14-2.17825E-13
 -1      3707 2.02533E+01 1.38176E+00-5.07484E-03 4.14062E-01 1.62170E-13-3.56176E-13
 -1      3708 2.02400E+01 1.48231E+00-1.29945E-03 3.46472E-01 1.29002E-13-3.77320E-13
 -1      3709 2.03014E+01 1.28360E+00 4.77555E-03 2.51107E-01 1.05719E-13-3.63194E-13
 -1      3710 2.03383E+01 2.21336E-01 1.29136E-03 4.82325E-02-1.13850E-13-2.48350E-13
 -1      3711 2.03178E+01 1.48287E-01-1.00896E-03 7.82631E-02-1.21294E-13-2.31074E-13
 -1      3712 2.03023E+01 9.12375E-02 1.02286E-03 9.52490E-02-1.04588E-13-2.28614E-13
 -1      3713 2.02809E+01 4.53909E-02-4.74744E-04 1.11848E-01-7.08118E-14-2.41241E-13
 -1      3714 2.03444E+01 1.39824E-01-1.11678E-04 7.06564E-02-1.00403E-13-2.43059E-13
 -1      3715 2.02610E+01 1.12399E-02 7.20348E-04 1.19966E-01-4.38792E-14-2.42766E-13
 -1      3716 2.02406E+01-1.45213E-02-9.02711E-05 1.27587E-01-1.51369E-14-2.60928E-13
 -1      3717 2.03050E+01 3.85701E-02-3.42129E-04 9.80242E-02-6.55348E-14-2.69225E-13
 -1      3718 2.02190E+01-3.18921E-02 4.45193E-04 1.30099E-01 2.42551E-15-2.18528E-13
 -1      3719 2.02005E+01-4.29053E-02 1.70487E-04 1.32384E-01 7.73132E-15-2.26829E-13
 -1      3720 2.02613E+01-1.92075E-02-4.46249E-04 1.10910E-01-1.54038E-14-2.52906E-13
 -1      3721 2.01787E+01-4.79586E-02 2.04945E-04 1.31940E-01 6.93673E-15-2.14777E-13
 -1      3722 2.01622E+01-4.80753E-02 3.37635E-04 1.31749E-01 2.83980E-16-1.90282E-13
 -1      3723 2.02170E+01-4.48176E-02-4.54172E-04 1.15041E-01 1.82841E-14-1.72066E-13
 -1      3724 2.01408E+01-4.39578E-02-5.96473E-06 1.30435E-01-3.77555E-14-1.98649E-13
 -1      3725 2.01262E+01-3.58465E-02 4.38916E-04 1.29985E-01-1.09931E-14-2.43550E-13
 -1      3726 2.01741E+01-4.65479E-02-3.95514E-04 1.15044E-01-2.29586E-14-1.45273E-13
 -1      3727 2.01052E+01-2.46774E-02-1.98501E-04 1.29429E-01 2.51141E-14-2.99756E-13
 -1      3728 2.00920E+01-1.00752E-02 4.97625E-04 1.30450E-01 3.11390E-14-2.97799E-13
 -1      3729 2.01328E+01-3.02011E-02-2.89175E-04 1.14565E-01-1.90507E-14-1.85791E-13
 -1      3730 2.00709E+01 6.82130E-03-3.84670E-04 1.31958E-01 3.07427E-14-2.68723E-13
 -1      3731 2.00583E+01 2.68676E-02 5.29302E-04 1.35849E-01-1.02840E-15-2.89631E-13
 -1      3732 2.00925E+01 4.04967E-04-1.45907E-04 1.16483E-01 4.86783E-14-2.57400E-13
 -1      3733 2.00363E+01 4.87255E-02-5.76735E-04 1.40511E-01-3.73300E-14-2.86260E-13
 -1      3734 2.00234E+01 7.36621E-02 5.46337E-04 1.48446E-01-6.83351E-14-2.61108E-13
 -1      3735 2.00518E+01 4.29376E-02 2.93743E-05 1.23155E-01-1.58405E-14-2.78644E-13
 -1      3736 1.99993E+01 1.00116E-01-7.85453E-04 1.57224E-01-4.37507E-14-2.31639E-13
 -1      3737 1.99852E+01 1.29700E-01 5.58529E-04 1.70258E-01-4.72213E-14-2.05730E-13
 -1      3738 2.00085E+01 9.61321E-02 2.36965E-04 1.36569E-01-1.04220E-14-2.40956E-13
 -1      3739 1.99574E+01 1.60568E-01-1.01725E-03 1.84078E-01-7.24804E-14-2.16496E-13
 -1      3740 1.99409E+01 1.94646E-01 5.71613E-04 2.03200E-01-9.00283E-14-1.71374E-13
 -1      3741 1.99599E+01 1.59377E-01 4.72387E-04 1.58554E-01-5.07439E-14-2.02345E-13
 -1      3742 1.99078E+01 2.29723E-01-1.27854E-03 2.22993E-01-6.13429E-14-1.69475E-13
 -1      3743 1.98878E+01 2.68013E-01 5.91991E-04 2.49159E-01-2.29263E-15-1.08256E-13
 -1      3744 1.99029E+01 2.32304E-01 7.43346E-04 1.90886E-01-3.30302E-16-2.22781E-13
 -1      3745 1.98475E+01 3.06834E-01-1.57454E-03 2.75901E-01 1.69326E-14-8.26141E-14
 -1      3746 1.98227E+01 3.48661E-01 6.28257E-04 3.10056E-01-3.17626E-14-5.34113E-14
 -1      3747 1.98340E+01 3.14274E-01 1.04723E-03 2.35369E-01-2.32120E-15-1.15525E-13
 -1      3748 1.97731E+01 3.90196E-01-1.90802E-03 3.44823E-01-1.42222E-13-4.72929E-14
 -1      3749 1.97425E+01 4.34154E-01 6.96965E-04 3.87916E-01-6.13959E-14-7.90653E-14
 -1      3750 1.97493E+01 4.03869E-01 1.38102E-03 2.93943E-01-5.55498E-14-9.35740E-14
 -1      3751 1.96817E+01 4.76435E-01-2.28130E-03 4.31949E-01 2.69189E-14-6.77561E-14
 -1      3752 1.96444E+01 5.19980E-01 8.29940E-04 4.84969E-01 7.57502E-14-1.28685E-13
 -1      3753 1.96448E+01 4.98215E-01 1.73554E-03 3.68813E-01-1.51508E-14-6.04397E-14
 -1      3754 1.95706E+01 5.59620E-01-2.69770E-03 5.39820E-01 1.26146E-13-1.90124E-13
 -1      3755 1.95268E+01 5.98545E-01 1.08624E-03 6.03895E-01 1.44334E-13-1.97396E-13
 -1      3756 1.95169E+01 5.92182E-01 2.09142E-03 4.62682E-01 7.23708E-14-1.04232E-13
 -1      3757 1.94385E+01 6.30137E-01-3.16247E-03 6.71684E-01 1.09321E-13-2.34354E-13
 -1      3758 1.93898E+01 6.57925E-01 1.57004E-03 7.48283E-01 1.02483E-13-2.87183E-13
 -1      3759 1.93622E+01 6.77406E-01 2.41246E-03 5.79196E-01 9.05676E-14-2.92087E-13
 -1      3760 1.92867E+01 6.73286E-01-3.67903E-03 8.32170E-01 1.29865E-13-2.95763E-13
 -1      3761 1.92373E+01 6.80298E-01 2.45372E-03 9.23449E-01 1.42303E-13-2.59764E-13
 -1      3762 1.91792E+01 7.41081E-01 2.63254E-03 7.23758E-01 1.52733E-13-2.71788E-13
 -1      3763 1.91207E+01 6.67528E-01-4.22803E-03 1.02838E+00 1.50022E-13-2.06235E-13
 -1      3764 1.90797E+01 6.39946E-01 3.99067E-03 1.13761E+00 1.53074E-13-1.02415E-13
 -1      3765 1.89685E+01 7.64424E-01 2.62491E-03 9.04903E-01 1.42816E-13-2.58279E-13
 -1      3766 1.89544E+01 5.82257E-01-4.70385E-03 1.27122E+00 5.31527E-15-1.27078E-13
 -1      3767 1.89385E+01 5.00825E-01 6.55593E-03 1.40301E+00-3.18428E-14-1.15808E-13
 -1      3768 1.87358E+01 7.20501E-01 2.13441E-03 1.13632E+00 5.38268E-14-1.89459E-13
 -1      3769 1.88159E+01 3.75396E-01-4.67318E-03 1.57630E+00 5.13221E-16-1.25732E-13
 -1      3770 1.88547E+01 2.14519E-01 1.10159E-02 1.73565E+00 4.63894E-14-5.00402E-14
 -1      3771 1.84960E+01 5.71256E-01 7.73188E-04 1.43903E+00-2.48677E-14-1.94722E-13
 -1      3772 1.87582E+01-9.17008E-03-2.95437E-03 1.96518E+00 9.98984E-14 2.25453E-14
 -1      3773 1.89020E+01-2.85965E-01 1.77448E-02 2.15337E+00 1.96061E-13 8.21369E-14
 -1      3774 1.82790E+01 2.66274E-01-1.59116E-03 1.84436E+00 1.08635E-13-1.35430E-13
 -1      3775 1.88924E+01-6.55109E-01 3.33396E-03 2.45063E+00 1.24289E-13 2.72135E-14
 -1      3776 1.92212E+01-1.08689E+00 2.77425E-02 2.64533E+00 1.41664E-13-6.58837E-15
 -1      3777 1.81582E+01-2.75336E-01-3.36780E-03 2.40260E+00 1.24183E-13-1.28420E-13
 -1      3778 2.03308E+01 5.57194E-01-2.23583E-03 1.00688E-01 1.06108E-13-2.79755E-13
 -1      3779 2.03403E+01 7.13261E-01 1.15324E-03 1.85437E-01 1.16914E-13-2.90899E-13
 -1      3780 1.92779E+01-1.78264E+00 2.37343E-02-3.52476E+00 8.83456E-14 5.09989E-13
 -1      3781 2.03155E+01 1.01136E+00-2.48718E-03-2.49040E-01-1.38668E-13-3.86633E-13
 -1      3782 1.89778E+01-4.20310E-01-1.29616E-02-2.64092E+00 3.62257E-13 2.96018E-13
 -1      3783 1.87504E+01 5.10929E-02 3.76241E-02-2.42574E+00 4.09138E-13 3.06801E-13
 -1      3784 1.80455E+01 2.38426E-01-2.60800E-02-2.24038E+00 2.34244E-13 1.97495E-13
 -1      3785 1.92499E+01-8.71068E-01 1.54961E-02-2.84287E+00 1.87302E-13 4.49705E-13
 -1      3786 2.02460E+01-1.40487E-01 2.08978E-03-2.07345E+00 2.12040E-13 3.17198E-13
 -1      3787 2.02020E+01 1.66638E+00-1.16534E-03-1.82126E-01-5.67916E-14-4.26313E-13
 -1      3788 2.02121E+01 1.60985E+00-3.53246E-03-2.67558E-01-9.32135E-14-4.38503E-13
 -1      3789 2.02781E+01 1.40022E+00 4.27748E-03-2.32305E-01-8.90299E-14-4.11678E-13
 -1      3790 1.99660E+01 1.71375E-01 6.74123E-04-2.11972E-01 3.37941E-14 1.77982E-14
 -1      3791 1.99769E+01 1.39265E-01-1.00162E-03-1.92925E-01 1.64436E-14 1.92413E-14
 -1      3792 2.00004E+01 1.10558E-01 6.52050E-04-1.79103E-01-3.49164E-14-3.37821E-14
 -1      3793 2.00097E+01 8.31366E-02-7.79904E-04-1.66430E-01-4.97300E-14-6.69830E-14
 -1      3794 1.99783E+01 1.38926E-01 3.89427E-04-1.71514E-01-1.69108E-14-1.88178E-15
 -1      3795 1.98705E+01 3.21024E-01 7.08252E-04-3.20325E-01 2.98969E-14-1.00869E-13
 -1      3796 1.98888E+01 2.79454E-01-1.56566E-03-2.85570E-01 4.28741E-14-4.20360E-14
 -1      3797 1.98023E+01 4.08727E-01 7.26371E-04-3.99472E-01-1.25517E-14-1.37754E-13
 -1      3798 1.98264E+01 3.63113E-01-1.91348E-03-3.55500E-01 3.41778E-14-1.31945E-13
 -1      3799 1.97983E+01 3.77098E-01 1.34248E-03-3.09676E-01 6.29485E-14-5.02843E-14
 -1      3800 1.97150E+01 5.02180E-01 7.61903E-04-4.97616E-01-6.53536E-14-2.00528E-13
 -1      3801 1.97466E+01 4.54001E-01-2.31434E-03-4.43603E-01-1.77173E-14-1.48733E-13
 -1      3802 1.97047E+01 4.75057E-01 1.78088E-03-3.85340E-01 1.22257E-14-1.73062E-13
 -1      3803 1.96044E+01 5.96389E-01 8.53885E-04-6.16590E-01-8.31411E-14-1.09828E-13
 -1      3804 1.96448E+01 5.48490E-01-2.77714E-03-5.51737E-01-7.36365E-14-1.59479E-13
 -1      3805 1.95859E+01 5.78473E-01 2.28388E-03-4.78633E-01-1.05233E-13-1.13152E-13
 -1      3806 1.94671E+01 6.82581E-01 1.08666E-03-7.58683E-01-1.07206E-13-9.39498E-15
 -1      3807 1.95169E+01 6.39857E-01-3.31716E-03-6.82046E-01-6.77083E-14-3.68902E-14
 -1      3808 1.94363E+01 6.81574E-01 2.84183E-03-5.91692E-01-1.06343E-13-8.67649E-14
 -1      3809 1.93013E+01 7.46439E-01 1.62497E-03-9.27457E-01-1.37304E-13 2.18932E-15
 -1      3810 1.93595E+01 7.16760E-01-3.95874E-03-8.37573E-01-1.10325E-13-7.82173E-15
 -1      3811 1.92504E+01 7.74651E-01 3.42708E-03-7.27755E-01-1.47057E-13-5.34670E-14
 -1      3812 1.91097E+01 7.65685E-01 2.76040E-03-1.12929E+00-8.35679E-14-8.33891E-14
 -1      3813 1.91715E+01 7.61171E-01-4.72738E-03-1.02349E+00-8.17323E-14-3.85528E-14
 -1      3814 1.90234E+01 8.42406E-01 3.97888E-03-8.92558E-01-7.94538E-14-3.12325E-14
 -1      3815 1.89031E+01 7.06760E-01 4.93807E-03-1.37567E+00-8.88860E-14-9.11655E-14
 -1      3816 1.89574E+01 7.45556E-01-5.60910E-03-1.24916E+00-9.53044E-14-6.04401E-14
 -1      3817 1.87528E+01 8.61593E-01 4.36039E-03-1.09684E+00-8.82338E-14-2.38906E-13
 -1      3818 1.87081E+01 5.20960E-01 8.85168E-03-1.68556E+00-4.40854E-14-1.56638E-13
 -1      3819 1.87320E+01 6.29158E-01-6.45582E-03-1.53079E+00-2.56534E-14-9.97313E-14
 -1      3820 1.84417E+01 7.97405E-01 4.23890E-03-1.35999E+00-3.14604E-14-2.45333E-13
 -1      3821 1.85762E+01 1.37853E-01 1.43646E-02-2.08666E+00-1.54528E-13-2.36636E-13
 -1      3822 1.85304E+01 3.53007E-01-6.93819E-03-1.89466E+00-9.09565E-14-9.44256E-14
 -1      3823 1.81034E+01 5.99894E-01 3.04960E-03-1.71497E+00-8.62880E-14-1.44944E-13
 -1      3824 1.86642E+01-5.46125E-01 2.33377E-02-2.59026E+00-1.58112E-13-1.97555E-13
 -1      3825 1.84319E+01-1.64824E-01-3.02970E-03-2.37204E+00-1.60392E-13-2.35621E-13
 -1      3826 1.77906E+01 1.89367E-01 3.61715E-03-2.21842E+00-1.55554E-13-9.84762E-14
 -1      3827 1.38193E+01 4.24639E-01 6.31101E-02-2.16947E+00-3.45518E-14-2.46199E-13
 -1      3828 1.55170E+01-3.42412E-01 1.20103E-03-3.01000E+00-1.18028E-13-2.59268E-13
 -1      3829 1.91406E+01-3.55082E-01-5.18071E-03 2.73192E+00 8.48308E-14-6.62503E-14
 -1      3830 1.93353E+01-8.63904E-01-8.88393E-03 2.95849E+00 2.36006E-13 4.76652E-14
 -1      3831 1.95662E+01-1.57183E+00 5.14664E-02 3.42706E+00 1.46839E-13-4.07662E-14
 -1      3832 2.03097E+01 1.11578E+00 4.11207E-03 3.41796E-01 1.43686E-13-3.35948E-13
 -1      3833 1.43396E+01 8.09494E-01 2.71538E-02 9.84445E-01 1.71601E-14-3.84260E-13
 -1      3834 1.42993E+01 8.42998E-01-1.13133E-02-3.24120E-01 6.90034E-14-3.37806E-13
 -1      3835 2.21215E+01-4.10304E+00 8.50518E-03 3.37036E+00-7.42462E-16 1.10183E-13
 -1      3836 1.71315E+01 7.35029E-01-1.98938E-02 1.84337E+00 2.82276E-13 1.53704E-13
 -1      3837 1.77882E+01 5.90100E-01 2.80818E-02 2.15239E+00 1.31301E-13-7.48534E-14
 -1      3838 2.03607E+01 4.18967E-01 1.29350E-03-2.97456E-02-1.19570E-13-2.85099E-13
 -1      3839 2.03454E+01 3.09507E-01-1.68500E-03 1.87239E-02-1.14844E-13-2.68740E-13
 -1      3840 2.03733E+01 2.99219E-01 2.15081E-04 2.21106E-02-1.20301E-13-2.41639E-13
 -1      3841 2.00844E+01-1.63979E-02 5.45783E-04-1.42333E-01 8.11378E-14-6.42024E-14
 -1      3842 2.00943E+01-2.91412E-02-1.91943E-04-1.42103E-01 5.67217E-14-8.27166E-14
 -1      3843 2.03620E+01 7.04497E-01 2.17203E-03-1.47294E-01-1.27913E-13-3.37539E-13
 -1      3844 2.03545E+01 5.47889E-01-2.68353E-03-7.48417E-02-1.20790E-13-3.12717E-13
 -1      3845 2.03828E+01 5.35351E-01 8.71214E-04-5.46174E-02-9.59713E-14-2.68392E-13
 -1      3846 1.48853E+01 5.89471E-01 1.00457E-02-1.61518E+00-3.44817E-14-4.83693E-14
 -1      3847 1.57306E+01-4.73144E-02-7.34907E-04-2.75532E+00 5.26094E-14 1.53669E-13
 -1      3848 1.51893E+01 5.48432E-02-1.07288E-02 2.65753E+00-7.52939E-14-2.06354E-13
 -1      3849 1.45842E+01 4.82446E-01-5.32738E-03 1.84056E+00-3.65191E-14-2.33352E-13
 -1      3850 2.01970E+01 1.68249E+00-2.50700E-03-2.44928E-02 1.28055E-14-4.27600E-13
 -1      3851 2.02003E+01 1.66642E+00-2.79474E-03-1.15341E-01-3.54243E-14-4.25245E-13
 -1      3852 2.02712E+01 1.46236E+00 4.93437E-03-1.09042E-01-3.81183E-14-4.03789E-13
 -1      3853 2.02803E+01 1.44020E+00 4.92831E-03 1.12872E-02-5.08362E-16-4.19025E-13
 -1      3854 1.78455E+01-1.24496E+00-2.97263E-02 3.65468E+00 2.28641E-13-8.86721E-14
 -1      3855 1.62749E+01-3.35380E-01 4.77254E-02 3.20049E+00 6.58992E-14-2.13374E-13
 -1      3856 2.01639E+01 6.22630E-02-5.92445E-04-1.36950E-01 7.81939E-14-2.21365E-13
 -1      3857 2.01847E+01 1.07988E-01 1.84786E-03-1.12017E-01 1.11692E-13-2.08910E-13
 -1      3858 2.02124E+01 6.04726E-02-7.37043E-04-1.29471E-01 7.28580E-14-2.52068E-13
 -1      3859 1.99238E+01 2.41580E-01 6.92253E-04-2.58422E-01 1.13022E-13-3.72429E-14
 -1      3860 1.99377E+01 2.04672E-01-1.26448E-03-2.31995E-01 1.74791E-13 2.59023E-14
 -1      3861 1.98720E+01 2.87683E-01 9.68133E-04-2.49909E-01 9.72212E-14 6.10657E-14
 -1      3862 1.70353E+01-5.66222E-01 1.54556E-02-3.08611E+00-1.05981E-13-1.99468E-13
 -1      3863 1.80675E+01-9.83471E-01-1.76179E-02-3.34741E+00 1.27229E-13 4.36852E-13
 -1      3864 2.08470E+01-3.24778E+00 6.81165E-02 3.55789E+00 1.62563E-13 8.60215E-14
 -1      3865 1.54163E+01 8.21217E-01 2.86079E-02-9.06662E-01 9.24265E-14-2.41166E-13
 -1      3866 2.01246E+01-3.44497E-02-3.25833E-04-1.30029E-01 2.96319E-14-1.90194E-13
 -1      3867 2.01128E+01-3.85551E-02 4.72826E-04-1.43240E-01 2.96227E-14-8.89621E-14
 -1      3868 2.01243E+01-4.50399E-02 1.51118E-05-1.44383E-01 1.89986E-14-9.37959E-14
 -1      3869 1.70859E+01 5.78303E-01 1.67031E-02-1.96864E+00 1.66247E-13 1.02965E-13
 -1      3870 1.65086E+01 7.91580E-01-1.19866E-02-1.51934E+00 1.81305E-13-1.64723E-13
 -1      3871 2.03348E+01 4.26167E-01 1.55254E-03 4.53981E-02 1.03818E-13-2.48110E-13
 -1      3872 2.03619E+01 5.51500E-01 6.68850E-04 7.74728E-02 8.67786E-14-2.98674E-13
 -1      3873 2.03170E+01 3.16768E-01-1.60675E-03-1.12183E-02 1.19897E-13-2.38712E-13
 -1      3874 1.93817E+01-1.60082E+00 2.48705E-02 3.00065E+00 1.65145E-13 3.62093E-14
 -1      3875 1.99787E+01-2.28027E+00 2.16884E-02 3.16463E+00 1.63529E-13 1.05384E-13
 -1      3876 1.88850E+01 1.34512E-02 1.21534E-02 2.56421E+00 1.68827E-13-2.87609E-13
 -1      3877 2.02500E+01 1.65938E-01-6.78857E-04-7.94749E-02 1.15285E-13-2.32310E-13
 -1      3878 1.99306E+01 2.08167E-01 6.52496E-04-2.04406E-01 8.55047E-14 4.64343E-14
 -1      3879 2.01148E+01-4.62335E-02-5.26859E-04-1.60907E-01-2.16192E-14-8.70837E-15
 -1      3880 2.03380E+01 9.83387E-01-1.66826E-04-1.94767E-01-1.04729E-13-3.52500E-13
 -1      3881 1.50782E+01-1.20617E+00 9.21359E-02 4.13645E+00 2.09360E-13-2.33955E-13
 -1      3882 1.45974E+01-5.72992E-01 5.49674E-03 3.38581E+00 2.54850E-13-3.18336E-13
 -1      3883 1.67831E+01-1.73522E+00 2.06546E-02 4.04070E+00 2.14742E-13-1.45529E-13
 -1      3884 1.60166E+01 1.07132E+00-1.19103E-03-3.90911E-01 1.69830E-13-2.36962E-13
 -1      3885 1.59576E+01 1.10250E+00-1.11775E-02 2.91217E-01 7.85277E-14-4.73430E-13
 -1      3886 2.01771E+01-3.99589E-02 1.72032E-04-1.47048E-01-4.41388E-14-9.69455E-14
 -1      3887 2.01934E+01-2.78620E-02 5.36926E-04-1.44604E-01-1.74700E-14-1.43858E-13
 -1      3888 2.00188E+01 7.97937E-02 1.50017E-04-1.49494E-01-7.99264E-15 1.50511E-14
 -1      3889 2.00301E+01 5.89261E-02 6.25804E-04-1.57930E-01 4.13643E-14-7.19080E-14
 -1      3890 2.00387E+01 3.61818E-02-5.77330E-04-1.50597E-01 1.04511E-13-7.11088E-14
 -1      3891 1.63329E+01 9.90995E-02-2.03525E-02-2.45272E+00-1.05665E-13-2.21141E-13
 -1      3892 1.34810E+01 6.36318E-01 3.27589E-02-1.67339E+00-1.94289E-15-3.00541E-13
 -1      3893 1.48704E+01 5.73102E-01 3.07416E-02-1.80094E+00-1.37427E-13-2.43383E-13
 -1      3894 1.33227E+01 7.87647E-01 1.17672E-03-9.25183E-01 1.00033E-14-3.30444E-13
 -1      3895 1.89366E+01-9.38155E-01 7.46583E-03 3.13777E+00 2.48222E-13-1.19310E-14
 -1      3896 2.03211E+01 1.20369E+00-2.93215E-03 3.22800E-02 5.31443E-15-3.87555E-13
 -1      3897 2.03175E+01 1.22654E+00-1.85207E-03-2.09331E-02-2.62207E-14-3.78830E-13
 -1      3898 1.51805E+01 7.21551E-01-1.28562E-02 1.31690E+00 7.49550E-14-2.84689E-13
 -1      3899 1.61988E+01 1.03932E+00 1.18851E-02 9.59754E-01 1.41574E-13-1.32403E-13
 -1      3900 2.02134E+01-9.65700E-03-1.10276E-04-1.41199E-01-2.16837E-14-1.34081E-13
 -1      3901 2.02324E+01 1.68805E-02 8.81292E-04-1.32476E-01 4.40656E-15-1.85461E-13
 -1      3902 2.02410E+01-1.42206E-02-4.98303E-04-1.26458E-01-1.92634E-14-1.86117E-13
 -1      3903 1.24207E+01 6.63610E-01 1.04014E-01 1.43825E+00 1.88572E-13-8.85052E-13
 -1      3904 1.26954E+01 7.75402E-01 2.33624E-02 5.17880E-01 8.01338E-14-6.65974E-13
 -1      3905 2.00662E+01-1.49659E-03-3.83923E-04-1.43251E-01 1.19513E-13-4.20454E-14
 -1      3906 2.00897E+01-7.60704E-03-1.93439E-04-1.30862E-01 1.05503E-13-5.65632E-14
 -1      3907 2.00574E+01 1.64992E-02 5.94470E-04-1.46390E-01 9.64005E-14-9.75159E-14
 -1      3908 1.90412E+01-2.73205E+00 2.24513E-03 4.03267E+00 1.60833E-13-7.57241E-14
 -1      3909 1.66023E+01-3.24872E-04 4.05435E-02 2.72516E+00 1.00048E-13-1.46990E-13
 -1      3910 1.31848E+01 3.08782E-01 2.23877E-03 2.09146E+00 1.55259E-13-8.08867E-13
 -1      3911 1.82693E+01-1.17190E+00-8.61301E-03 3.13237E+00 8.85464E-14-5.96194E-14
 -1      3912 2.03242E+01 1.15369E+00-3.65929E-03 1.36912E-01 6.75207E-14-3.83054E-13
 -1      3913 2.03243E+01 1.19132E+00-1.39847E-03 7.89928E-02 3.74690E-14-3.95783E-13
 -1      3914 2.03733E+01 1.01387E+00 3.89326E-03 4.17793E-02 2.12334E-14-3.74829E-13
 -1      3915 2.55482E+01-3.01307E+00-6.27025E-02 1.49346E-01-9.46881E-14-2.93063E-13
 -1      3916 1.77912E+01 2.51184E-02-2.32881E-04 2.62437E+00 1.91986E-13-4.40897E-14
 -1      3917 1.83006E+01 1.90234E-01-8.56257E-03 2.45959E+00 1.10512E-13-1.35498E-13
 -1      3918 1.72703E+01 1.38143E-01 8.35616E-03-2.41547E+00 2.45578E-13 1.65176E-13
 -1      3919 2.03353E+01 9.41619E-01 5.64482E-04 2.19242E-01 1.07151E-13-3.25745E-13
 -1      3920 2.03157E+01 9.59678E-01-3.84676E-04 2.74414E-01 1.32533E-13-3.15847E-13
 -1      3921 2.03436E+01 6.45885E-02 5.70791E-04 7.39953E-02-7.65583E-14-2.78849E-13
 -1      3922 2.03213E+01 2.35923E-02-2.68743E-04 8.45200E-02-6.13967E-14-2.77396E-13
 -1      3923 2.02987E+01-6.38450E-03 4.24966E-04 8.80878E-02-1.49231E-14-2.74185E-13
 -1      3924 2.02758E+01-2.77784E-02 1.83478E-05 9.29479E-02 2.70338E-14-2.05141E-13
 -1      3925 2.03310E+01 1.48278E-02-3.33299E-04 6.64815E-02-3.52022E-15-2.39119E-13
 -1      3926 2.02512E+01-4.11430E-02 2.72965E-04 9.36092E-02 3.92375E-14-2.03815E-13
 -1      3927 2.02289E+01-4.79693E-02 2.00830E-04 9.52678E-02 2.99115E-14-2.11713E-13
 -1      3928 2.02825E+01-3.20882E-02-4.30001E-04 7.26585E-02 3.39054E-14-1.98020E-13
 -1      3929 2.02037E+01-4.89611E-02 1.16560E-04 9.46292E-02 7.35490E-15-1.79976E-13
 -1      3930 2.01825E+01-4.48553E-02 3.04704E-04 9.50580E-02-3.50643E-14-1.58553E-13
 -1      3931 2.02325E+01-4.79631E-02-4.24215E-04 7.45138E-02 1.94175E-14-2.25427E-13
 -1      3932 2.01573E+01-3.64647E-02-4.33007E-05 9.43978E-02-2.48828E-14-1.40652E-13
 -1      3933 2.01370E+01-2.39288E-02 3.49110E-04 9.51513E-02 2.74011E-14-1.38770E-13
 -1      3934 2.01828E+01-4.04604E-02-3.41854E-04 7.47641E-02 8.13485E-15-1.31473E-13
 -1      3935 2.01116E+01-8.11883E-03-2.08657E-04 9.54652E-02 1.65464E-14-1.85923E-13
 -1      3936 2.00916E+01 1.12859E-02 3.55758E-04 9.77930E-02 9.41394E-15-2.13126E-13
 -1      3937 2.01334E+01-1.48914E-02-2.01390E-04 7.55823E-02-4.25578E-15-8.79617E-14
 -1      3938 2.00653E+01 3.33010E-02-3.84049E-04 9.99457E-02 6.39403E-15-2.21769E-13
 -1      3939 2.00448E+01 5.86267E-02 3.31653E-04 1.04873E-01 1.27900E-14-1.85057E-13
 -1      3940 2.00834E+01 2.53841E-02-3.69734E-06 7.86997E-02-9.50932E-15-2.19089E-13
 -1      3941 2.00162E+01 8.61697E-02-5.89430E-04 1.09569E-01-1.14051E-15-2.24806E-13
 -1      3942 1.99939E+01 1.17004E-01 2.93937E-04 1.17969E-01-2.08156E-14-2.31456E-13
 -1      3943 2.00307E+01 7.83049E-02 2.34115E-04 8.56387E-02 6.30318E-15-2.06031E-13
 -1      3944 1.99615E+01 1.49829E-01-8.24286E-04 1.25925E-01-1.72916E-14-2.10767E-13
 -1      3945 1.99360E+01 1.85967E-01 2.43353E-04 1.38663E-01-5.04738E-14-1.92203E-13
 -1      3946 1.99726E+01 1.42820E-01 4.69248E-04 9.76006E-02-2.88395E-14-2.13013E-13
 -1      3947 1.98979E+01 2.23871E-01-1.08736E-03 1.50572E-01-3.25322E-14-1.38675E-13
 -1      3948 1.98674E+01 2.65138E-01 1.88239E-04 1.68462E-01 2.20438E-14-1.38209E-13
 -1      3949 1.99055E+01 2.18641E-01 7.84690E-04 1.16030E-01-1.98018E-14-1.58862E-13
 -1      3950 1.98213E+01 3.07862E-01-1.39450E-03 1.85087E-01 1.51227E-14-1.38152E-13
 -1      3951 1.97841E+01 3.53870E-01 1.33805E-04 2.08985E-01-1.45809E-14-9.05577E-14
 -1      3952 1.98252E+01 3.05297E-01 1.14760E-03 1.42176E-01-1.08055E-14-6.71234E-14
 -1      3953 1.97274E+01 4.00776E-01-1.75467E-03 2.31214E-01-7.04953E-14-1.35901E-13
 -1      3954 1.96814E+01 4.50632E-01 9.11835E-05 2.62054E-01-7.23627E-14-1.70789E-13
 -1      3955 1.97271E+01 4.02017E-01 1.56357E-03 1.77554E-01-7.47121E-14-1.20567E-13
 -1      3956 1.96115E+01 5.00398E-01-2.18287E-03 2.90971E-01-2.54940E-14-9.89171E-14
 -1      3957 1.95548E+01 5.52377E-01 8.05014E-05 3.29859E-01 3.01941E-14-1.16993E-13
 -1      3958 1.96060E+01 5.07050E-01 2.03826E-03 2.23954E-01-2.28620E-14-1.80067E-13
 -1      3959 1.94684E+01 6.02629E-01-2.70384E-03 3.66886E-01-1.71061E-14-1.14187E-13
 -1      3960 1.93995E+01 6.53788E-01 1.38064E-04 4.15254E-01-1.57841E-15-2.44328E-13
 -1      3961 1.94560E+01 6.17054E-01 2.57847E-03 2.83676E-01-1.70590E-14-1.32222E-13
 -1      3962 1.92933E+01 7.00667E-01-3.36151E-03 4.62402E-01 5.99002E-14-2.25793E-13
 -1      3963 1.92110E+01 7.46415E-01 3.27941E-04 5.22315E-01 1.14296E-13-2.45663E-13
 -1      3964 1.92712E+01 7.26419E-01 3.19411E-03 3.59917E-01 1.71606E-14-1.95431E-13
 -1      3965 1.90813E+01 7.84072E-01-4.23324E-03 5.82622E-01 1.08806E-13-2.76219E-13
 -1      3966 1.89857E+01 8.17681E-01 7.60921E-04 6.57309E-01 1.11629E-13-2.41395E-13
 -1      3967 1.90448E+01 8.26541E-01 3.90111E-03 4.57457E-01 7.20026E-14-2.21409E-13
 -1      3968 1.88282E+01 8.37677E-01-5.44891E-03 7.35630E-01 1.40436E-13-2.90981E-13
 -1      3969 1.87213E+01 8.49687E-01 1.62971E-03 8.30363E-01 1.26810E-13-2.99693E-13
 -1      3970 1.87698E+01 9.05068E-01 4.72215E-03 5.83879E-01 9.52039E-14-3.31095E-13
 -1      3971 1.85310E+01 8.40196E-01-7.19902E-03 9.34756E-01 5.87058E-14-2.97314E-13
 -1      3972 1.84187E+01 8.17458E-01 3.24684E-03 1.05809E+00 2.04027E-14-3.25634E-13
 -1      3973 1.84379E+01 9.45024E-01 5.66814E-03 7.51720E-01 1.19388E-13-3.08439E-13
 -1      3974 1.81897E+01 7.61748E-01-9.67935E-03 1.20197E+00 2.61270E-14-2.77417E-13
 -1      3975 1.80842E+01 6.85529E-01 5.89170E-03 1.36714E+00 5.48946E-14-1.98255E-13
 -1      3976 1.80392E+01 9.23042E-01 6.63663E-03 9.82326E-01 6.03166E-14-3.88321E-13
 -1      3977 1.78130E+01 5.60152E-01-1.26218E-02 1.56887E+00 6.24708E-14-1.95002E-13
 -1      3978 1.77338E+01 4.07350E-01 1.02027E-02 1.79508E+00 1.32840E-13-2.45533E-13
 -1      3979 1.75669E+01 8.04108E-01 8.01723E-03 1.31050E+00 4.49426E-14-2.40330E-13
 -1      3980 1.74099E+01 1.82451E-01-1.68469E-02 2.08536E+00 1.63388E-13-3.54146E-13
 -1      3981 1.73940E+01-1.12303E-01 5.36404E-03 2.41535E+00 1.11512E-13-3.26759E-13
 -1      3982 1.70213E+01 5.53359E-01 1.66670E-02 1.78416E+00 1.07036E-13-3.88498E-13
 -1      3983 1.70669E+01-2.98189E-01 3.07964E-02-2.95937E+00 1.42328E-13 2.59597E-13
 -1      3984 1.94662E+01 6.40652E-01-1.29379E-04-4.33850E-01-1.22241E-13-1.09746E-13
 -1      3985 1.95319E+01 5.84162E-01-2.59311E-03-3.86403E-01-5.37301E-14-9.09836E-14
 -1      3986 2.01572E+01-4.61892E-02 2.52859E-04-1.46675E-01-1.62344E-14-9.82376E-14
 -1      3987 2.02001E+01-4.25766E-02-4.90607E-04-1.31654E-01-2.32566E-14-2.20671E-13
 -1      3988 2.01435E+01-4.76730E-02 3.57071E-04-1.46083E-01 1.24391E-14-1.27369E-13
 -1      3989 1.99573E+01 1.65031E-01 3.49917E-04-1.55155E-01 2.53870E-14 3.50545E-14
 -1      3990 1.99784E+01 1.30790E-01-8.07690E-04-1.42132E-01-3.37987E-14 4.65915E-14
 -1      3991 2.03708E+01 1.03261E+00 4.01008E-03-3.46710E-02-3.51201E-14-3.84235E-13
 -1      3992 2.03140E+01 1.22998E+00-2.72996E-03-6.28191E-02-3.32404E-14-3.93335E-13
 -1      3993 2.03106E+01 1.22416E+00-3.77760E-03-1.20149E-01-4.90555E-14-3.89889E-13
 -1      3994 1.38649E+01 9.13994E-01-9.24407E-03 5.62339E-01 8.27441E-15-5.74867E-13
 -1      3995 1.34976E+01 9.83586E-01 4.98092E-02-2.32940E-01-3.00684E-14-4.68873E-13
 -1      3996 1.45250E+01 9.77167E-01 1.81773E-02-7.02854E-01-9.16984E-14-3.57189E-13
 -1      3997 1.96139E+01 5.29958E-01-1.86201E-05-3.50626E-01-3.51658E-15-8.96137E-14
 -1      3998 1.96657E+01 4.75606E-01-2.10577E-03-3.11511E-01 5.38535E-14-5.39721E-14
 -1      3999 1.95136E+01 5.96226E-01 2.64047E-03-3.07591E-01-3.58593E-14-1.54466E-15
 -1      4000 1.97309E+01 4.24444E-01 9.58647E-05-2.82544E-01 6.04738E-14-4.24399E-14
 -1      4001 1.97715E+01 3.74195E-01-1.70214E-03-2.51005E-01 1.23830E-13 1.56958E-14
 -1      4002 1.96546E+01 4.81883E-01 2.02219E-03-2.48843E-01 7.03450E-14-1.51847E-14
 -1      4003 1.92808E+01 7.50421E-01-1.95305E-04-5.34203E-01-7.59831E-14-1.47618E-13
 -1      4004 1.93633E+01 6.95185E-01-3.20577E-03-4.77370E-01-7.42320E-14-1.49904E-13
 -1      4005 1.93361E+01 7.15279E-01 3.38408E-03-3.78945E-01-6.13827E-14-1.03845E-13
 -1      4006 1.90505E+01 8.49453E-01-1.30133E-04-6.55035E-01-1.53990E-13-1.28363E-13
 -1      4007 1.91521E+01 8.00805E-01-4.02105E-03-5.86987E-01-1.78355E-13-1.48503E-13
 -1      4008 1.91133E+01 8.32569E-01 4.29033E-03-4.64903E-01-1.01341E-13-1.02289E-13
 -1      4009 1.87677E+01 9.22969E-01 2.41549E-04-8.02692E-01-1.03776E-13-9.10786E-14
 -1      4010 1.88899E+01 8.88805E-01-5.17539E-03-7.19895E-01-7.89924E-14-5.96420E-14
 -1      4011 1.88351E+01 9.38251E-01 5.42415E-03-5.69207E-01-1.64253E-13-1.74150E-13
 -1      4012 1.84252E+01 9.49533E-01 1.28198E-03-9.89451E-01-7.66522E-14-1.38506E-13
 -1      4013 1.85671E+01 9.41170E-01-6.88364E-03-8.85103E-01-8.62961E-14-1.02907E-13
 -1      4014 1.84888E+01 1.01832E+00 6.90778E-03-6.99336E-01-4.27676E-14-6.31889E-14
 -1      4015 1.80174E+01 8.97726E-01 3.40739E-03-1.23842E+00-2.88931E-14-1.59706E-13
 -1      4016 1.81739E+01 9.31876E-01-9.41371E-03-1.10012E+00-4.67358E-14-1.76955E-13
 -1      4017 1.80574E+01 1.05347E+00 8.92420E-03-8.70344E-01-3.62572E-14-1.75021E-13
 -1      4018 1.75442E+01 7.22179E-01 6.96556E-03-1.58920E+00-1.64181E-13-9.67598E-14
 -1      4019 1.77024E+01 8.22760E-01-1.30012E-02-1.39535E+00-6.43656E-14-1.56761E-13
 -1      4020 1.75198E+01 1.01445E+00 1.14694E-02-1.11127E+00-2.80087E-14-1.24228E-13
 -1      4021 1.70132E+01 3.53526E-01 1.10963E-02-2.12026E+00-1.65906E-13-1.72825E-13
 -1      4022 1.71394E+01 5.64318E-01-1.90228E-02-1.82145E+00-2.01959E-13-1.63354E-13
 -1      4023 1.68497E+01 8.64839E-01 1.61689E-02-1.46478E+00-1.66974E-13-1.55463E-13
 -1      4024 2.03354E+01 1.01836E+00-2.79817E-03 2.07064E-01 1.03382E-13-3.42728E-13
 -1      4025 2.03342E+01 1.08962E+00-1.85839E-04 1.62986E-01 7.87577E-14-3.50809E-13
 -1      4026 2.03764E+01 9.28201E-01 3.35726E-03 1.03028E-01 6.79337E-14-3.51843E-13
 -1      4027 2.03677E+01 7.78614E-01 1.17002E-03 1.29735E-01 9.02157E-14-3.27938E-13
 -1      4028 1.71569E+01-4.67287E-02-4.07089E-02 2.73315E+00 2.64061E-13 1.21896E-13
 -1      4029 1.64738E+01 5.05262E-01 5.64529E-02 2.27650E+00 1.44604E-13-5.52110E-14
 -1      4030 1.80321E+01-3.62645E-01 3.74046E-02 3.04707E+00 2.50713E-13-9.59935E-14
 -1      4031 2.03077E+01 8.63710E-01-6.92873E-04 2.98432E-01 1.62550E-13-2.82999E-13
 -1      4032 1.58267E+01 5.38907E-01 1.40511E-02-1.98767E+00-1.27473E-13-2.56992E-13
 -1      4033 2.03270E+01 1.13731E+00-9.13919E-04-1.38129E-01-4.23363E-14-3.60926E-13
 -1      4034 2.03321E+01 1.07567E+00-2.49489E-03-1.90175E-01-6.90180E-14-3.70745E-13
 -1      4035 2.03802E+01 7.65815E-01 6.79609E-04-1.02297E-01-7.64810E-14-3.01449E-13
 -1      4036 2.03785E+01 9.45683E-01 3.47827E-03-8.82090E-02-4.40575E-14-3.80608E-13
 -1      4037 1.60312E+01 7.41136E-01 1.26761E-02 1.48464E+00 1.24241E-13-1.96162E-13
 -1      4038 2.04017E+01 3.68512E-01 4.90255E-04-3.73445E-04-9.42202E-14-2.85671E-13
 -1      4039 2.03902E+01 2.66806E-01-1.06972E-03 3.07937E-02-1.15641E-13-2.83686E-13
 -1      4040 2.03961E+01 6.16464E-01-3.80782E-04-6.87853E-02-7.88390E-14-3.03197E-13
 -1      4041 2.03975E+01 4.74656E-01-1.30254E-03-2.24513E-02-7.37000E-14-2.90281E-13
 -1      4042 2.04157E+01 4.46251E-01 6.10731E-04-1.12263E-02-7.75557E-14-3.34748E-13
 -1      4043 2.03967E+01 7.07918E-01 1.15707E-03-6.78562E-02-5.99101E-14-3.27277E-13
 -1      4044 2.03010E+01 7.74389E-01-4.58808E-04 2.86097E-01 1.71817E-13-2.53991E-13
 -1      4045 2.02512E+01 5.14559E-02-5.20474E-04-1.22164E-01 4.46342E-14-2.10867E-13
 -1      4046 2.02723E+01 9.77580E-02 1.25690E-03-1.03021E-01 7.44357E-14-1.91273E-13
 -1      4047 2.02823E+01 4.59451E-02-4.41565E-04-1.10335E-01 2.05287E-14-1.67409E-13
 -1      4048 2.02874E+01 1.54955E-01-1.05408E-03-8.19918E-02 9.22168E-14-2.16710E-13
 -1      4049 2.03089E+01 2.28036E-01 1.49385E-03-4.72424E-02 1.16015E-13-2.08654E-13
 -1      4050 2.03503E+01 3.11174E-01 5.43297E-06-1.65881E-02 9.07538E-14-2.30335E-13
 -1      4051 2.03207E+01 1.48917E-01-4.25803E-04-7.64312E-02 6.73784E-14-2.02013E-13
 -1      4052 1.98973E+01 2.40901E-01 2.80944E-04-1.86120E-01 6.69188E-14 8.14299E-14
 -1      4053 1.99229E+01 2.01169E-01-1.06632E-03-1.67656E-01 7.56034E-14 5.71435E-14
 -1      4054 1.99281E+01 1.97122E-01 7.07611E-04-1.36448E-01 3.32560E-14 2.99125E-15
 -1      4055 1.42593E+01 1.30849E-01 9.07215E-02 2.71559E+00 2.70798E-13-4.82107E-13
 -1      4056 1.40697E+01 4.52272E-01 6.88605E-03 1.94140E+00 2.03293E-13-6.44372E-13
 -1      4057 1.53115E+01-4.08542E-01-1.56611E-02 3.11477E+00 2.98423E-13-2.42369E-13
 -1      4058 1.98235E+01 3.27548E-01 1.97143E-04-2.28148E-01 1.08329E-13 5.20208E-14
 -1      4059 1.98554E+01 2.82382E-01-1.35960E-03-2.03497E-01 1.11945E-13 6.83799E-14
 -1      4060 1.98557E+01 2.80950E-01 1.07123E-03-1.64302E-01 1.22602E-13 1.71408E-14
 -1      4061 2.03808E+01 1.84150E-01 6.69258E-04 4.63211E-02-1.12082E-13-2.73733E-13
 -1      4062 2.03615E+01 1.16972E-01-6.70913E-04 6.55334E-02-8.65336E-14-2.75647E-13
 -1      4063 2.04058E+01 2.46838E-01 2.80978E-04 2.74269E-02-1.04597E-13-2.89418E-13
 -1      4064 2.01340E+01-2.93308E-02 4.01556E-04-1.12200E-01 4.48114E-14-1.99969E-13
 -1      4065 2.01518E+01-4.00547E-02-2.23912E-05-1.11921E-01 2.33714E-14-2.08537E-13
 -1      4066 2.03818E+01 4.69000E-01-3.12357E-04 2.87368E-02 8.16424E-14-3.02418E-13
 -1      4067 2.03811E+01 6.06856E-01-1.05236E-03 8.39399E-02 8.37726E-14-3.14078E-13
 -1      4068 2.03898E+01 6.87245E-01 8.53842E-04 7.97279E-02 8.05626E-14-3.26690E-13
 -1      4069 2.00077E+01 9.99567E-02 3.94120E-04-1.33831E-01-6.06315E-14 2.10242E-14
 -1      4070 2.00259E+01 7.09678E-02-6.87975E-04-1.25467E-01-1.00941E-14 4.68398E-15
 -1      4071 1.99885E+01 1.24846E-01 4.36658E-04-1.16833E-01-3.67968E-14-7.59482E-15
 -1      4072 1.59303E+01 2.82268E-01 3.14557E-02 2.30567E+00 2.05067E-13-4.37004E-13
 -1      4073 1.65791E+01-2.67491E-01-8.92663E-04 2.72925E+00 1.25964E-13-2.94674E-13
 -1      4074 2.01612E+01-4.73770E-02-4.26903E-04-1.31408E-01 1.13925E-14-2.01627E-13
 -1      4075 2.03918E+01 8.26581E-01-2.47585E-03 4.74135E-02 4.36033E-14-3.61195E-13
 -1      4076 2.03946E+01 8.43023E-01-1.34598E-03 1.33957E-02 3.79019E-15-3.61459E-13
 -1      4077 2.03742E+01 1.03385E-01-6.51687E-05 5.26377E-02-8.44504E-14-2.69926E-13
 -1      4078 2.02183E+01-4.63058E-02 1.98156E-04-1.13306E-01 2.33161E-16-2.60112E-13
 -1      4079 2.02389E+01-3.76886E-02 3.57921E-04-1.11459E-01-7.83013E-15-2.26145E-13
 -1      4080 1.48930E+01 5.56015E-01-1.97366E-02 1.77645E+00 2.28448E-13-4.00652E-13
 -1      4081 1.43076E+01 8.90577E-01 5.23128E-02 1.17071E+00 9.99203E-14-6.46250E-13
 -1      4082 1.47867E+01 1.01475E+00 5.66816E-03 5.17487E-01 3.40309E-14-4.29426E-13
 -1      4083 2.00550E+01 3.08627E-02-3.85482E-05-1.36626E-01 8.58104E-14-5.06552E-14
 -1      4084 2.02621E+01-2.26364E-02-2.81006E-05-1.10109E-01-2.32790E-14-2.28974E-13
 -1      4085 2.02840E+01 6.80943E-04 5.95787E-04-1.04206E-01-1.76417E-14-2.14226E-13
 -1      4086 2.02749E+01-2.72455E-02-4.48111E-04-9.14037E-02 3.71730E-15-2.12772E-13
 -1      4087 1.65976E+01-7.57004E-01 1.80243E-02 3.17398E+00 1.55879E-13-2.44964E-13
 -1      4088 2.00935E+01 2.10077E-03 4.41672E-04-1.14114E-01 6.21108E-14-9.55012E-14
 -1      4089 2.01105E+01-1.53994E-02-2.05907E-04-1.12229E-01 4.41861E-14-1.30081E-13
 -1      4090 2.01345E+01-2.16168E-02-2.35005E-04-9.44831E-02 5.83835E-15-2.15523E-13
 -1      4091 1.54640E+01 7.56263E-01-9.70075E-03-1.53784E+00-1.47602E-13-2.90246E-13
 -1      4092 1.97665E+01 3.76125E-01 1.50502E-03-2.01428E-01 1.30948E-13 5.27213E-14
 -1      4093 2.04228E+01 7.01181E-01 2.29966E-03 6.25249E-04-1.08823E-14-3.45278E-13
 -1      4094 2.03928E+01 8.55811E-01-1.89389E-03-8.38274E-03-1.19356E-14-3.66993E-13
 -1      4095 2.03888E+01 8.61602E-01-1.84499E-03-4.00887E-02-2.96408E-14-3.88763E-13
 -1      4096 1.58123E+01 6.25589E-01-1.40431E-02 1.64289E+00 1.37688E-13-4.59030E-13
 -1      4097 2.01754E+01-4.66764E-02 3.31674E-04-1.12848E-01-2.54184E-14-2.08323E-13
 -1      4098 2.01945E+01-4.90033E-02 1.64426E-04-1.12706E-01-2.51810E-14-2.41741E-13
 -1      4099 2.02274E+01-4.71998E-02-4.44597E-04-9.40457E-02-4.34184E-14-2.34268E-13
 -1      4100 2.01806E+01-4.35062E-02-3.67920E-04-9.41273E-02 6.96236E-15-2.51545E-13
 -1      4101 2.03934E+01 7.24542E-01-2.31009E-03 7.58449E-02 7.92323E-14-3.25707E-13
 -1      4102 2.03948E+01 7.93082E-01 1.03871E-04 5.90004E-02 5.63478E-14-3.39030E-13
 -1      4103 2.04245E+01 6.50068E-01 3.29006E-03 2.61279E-02 5.08996E-14-3.29443E-13
 -1      4104 2.04120E+01 5.69320E-01 1.38917E-03 3.46726E-02 5.99448E-14-3.12894E-13
 -1      4105 2.03091E+01-2.39887E-02 2.34541E-04 4.86830E-02 2.39751E-14-1.86676E-13
 -1      4106 2.02844E+01-3.90106E-02 3.31219E-04 5.20289E-02 1.58038E-14-1.88114E-13
 -1      4107 2.02573E+01-4.72390E-02 1.80381E-04 5.09317E-02 4.93143E-15-2.00058E-13
 -1      4108 2.02324E+01-4.86312E-02 3.74206E-04 5.26279E-02-8.58476E-15-1.88945E-13
 -1      4109 2.02785E+01-4.28362E-02-9.75991E-04 2.83970E-02 2.98604E-15-1.82153E-13
 -1      4110 2.02049E+01-4.50079E-02 8.24918E-05 5.14732E-02 9.33386E-15-2.32542E-13
 -1      4111 2.01802E+01-3.60042E-02 3.61914E-04 5.26531E-02 2.49396E-14-2.01038E-13
 -1      4112 2.02250E+01-4.70617E-02-8.16586E-04 2.90051E-02-2.75352E-14-2.41600E-13
 -1      4113 2.01525E+01-2.32423E-02-5.68144E-05 5.19244E-02-1.04451E-14-1.65739E-13
 -1      4114 2.01278E+01-6.01161E-03 2.62194E-04 5.34419E-02-4.41118E-14-2.08959E-13
 -1      4115 2.01714E+01-2.93017E-02-4.88795E-04 2.94980E-02 2.53749E-14-3.17854E-13
 -1      4116 2.00995E+01 1.42685E-02-1.89067E-04 5.37655E-02-6.80542E-14-1.77836E-13
 -1      4117 2.00740E+01 3.83364E-02 1.74417E-04 5.63844E-02-2.95541E-14-2.16615E-13
 -1      4118 2.01167E+01 5.67278E-03-1.64091E-04 3.06006E-02-2.87634E-14-2.56864E-13
 -1      4119 2.00440E+01 6.50613E-02-3.29655E-04 5.78312E-02-4.43449E-15-2.47575E-13
 -1      4120 2.00166E+01 9.51875E-02 7.83345E-05 6.21854E-02-1.93374E-14-2.44455E-13
 -1      4121 2.00605E+01 5.47620E-02 2.52629E-04 3.28638E-02-3.17043E-14-3.18473E-13
 -1      4122 1.99829E+01 1.28041E-01-6.13937E-04 6.51857E-02 1.80466E-14-2.08418E-13
 -1      4123 1.99523E+01 1.64296E-01 4.81080E-05 7.21204E-02 9.05814E-15-1.61444E-13
 -1      4124 1.99989E+01 1.17628E-01 7.25289E-04 3.70395E-02 9.82428E-15-3.48439E-13
 -1      4125 1.99131E+01 2.02542E-01-9.14751E-04 7.69569E-02 6.37162E-15-1.25913E-13
 -1      4126 1.98772E+01 2.44630E-01-7.88502E-05 8.68211E-02 3.93523E-14-8.03170E-14
 -1      4127 1.99296E+01 1.92458E-01 1.38926E-03 4.38822E-02 4.20481E-14-2.13479E-13
 -1      4128 1.98302E+01 2.88448E-01-1.23773E-03 9.40896E-02-4.75395E-14-1.03380E-13
 -1      4129 1.97867E+01 3.36165E-01-2.16274E-04 1.07488E-01-5.58324E-14-1.15050E-13
 -1      4130 1.98475E+01 2.79438E-01 2.14321E-03 5.39288E-02 4.09709E-15-2.41933E-13
 -1      4131 1.97291E+01 3.85171E-01-1.62937E-03 1.17750E-01-4.28500E-14-8.98619E-14
 -1      4132 1.96756E+01 4.38042E-01-3.65746E-04 1.35359E-01-9.26952E-14-1.20421E-13
 -1      4133 1.97480E+01 3.78144E-01 3.03292E-03 6.80885E-02-5.23406E-14-2.64683E-13
 -1      4134 1.96043E+01 4.91430E-01-2.10550E-03 1.49360E-01-7.20717E-14-9.89356E-14
 -1      4135 1.95380E+01 5.48399E-01-5.20949E-04 1.72008E-01 6.02990E-15-1.25975E-13
 -1      4136 1.96252E+01 4.87689E-01 4.09639E-03 8.74179E-02-6.48395E-14-1.77493E-13
 -1      4137 1.94493E+01 6.04606E-01-2.69742E-03 1.90763E-01-2.49261E-14-1.75295E-13
 -1      4138 1.93674E+01 6.63748E-01-6.70525E-04 2.19562E-01-4.35283E-14-1.65153E-13
 -1      4139 1.94726E+01 6.06109E-01 5.38733E-03 1.13368E-01-1.10304E-14-1.58738E-13
 -1      4140 1.92570E+01 7.20134E-01-3.46043E-03 2.44495E-01 1.34022E-15-1.18546E-13
 -1      4141 1.91564E+01 7.78364E-01-7.95281E-04 2.81074E-01 4.62456E-14-1.52018E-13
 -1      4142 1.92826E+01 7.29858E-01 6.99111E-03 1.47992E-01 1.36236E-14-1.54265E-13
 -1      4143 1.90191E+01 8.30885E-01-4.49415E-03 3.14273E-01-1.25483E-14-1.54083E-13
 -1      4144 1.88967E+01 8.83705E-01-8.66782E-04 3.61181E-01 3.12149E-14-2.06180E-13
 -1      4145 1.90465E+01 8.53359E-01 9.05162E-03 1.94305E-01 4.19711E-14-1.07394E-13
 -1      4146 1.87255E+01 9.26608E-01-5.98043E-03 4.05816E-01 1.04302E-13-2.59525E-13
 -1      4147 1.85778E+01 9.67913E-01-8.51858E-04 4.67238E-01 1.26066E-13-2.52239E-13
 -1      4148 1.87534E+01 9.68695E-01 1.18111E-02 2.56881E-01 2.41343E-15-2.10001E-13
 -1      4149 1.83630E+01 9.93481E-01-8.25197E-03 5.28278E-01 8.21935E-14-2.76275E-13
 -1      4150 1.81862E+01 1.01541E+00-7.28567E-04 6.11312E-01 4.62453E-14-3.02652E-13
 -1      4151 1.83890E+01 1.06554E+00 1.56474E-02 3.42809E-01 7.41663E-14-1.77181E-13
 -1      4152 1.79124E+01 1.01389E+00-1.18749E-02 6.96889E-01 2.47844E-14-3.81341E-13
 -1      4153 1.77026E+01 1.00632E+00-2.96022E-04 8.13931E-01 4.01606E-14-3.75266E-13
 -1      4154 1.79319E+01 1.13120E+00 2.09782E-02 4.63111E-01-1.97860E-14-3.68466E-13
 -1      4155 1.73436E+01 9.64893E-01-1.79070E-02 9.39524E-01 6.45795E-14-4.44153E-13
 -1      4156 1.70806E+01 9.02939E-01-6.32782E-03 1.11600E+00 3.44925E-14-4.48337E-13
 -1      4157 1.73445E+01 1.14972E+00 2.69808E-02 6.35038E-01 3.60306E-14-3.99641E-13
 -1      4158 1.66613E+01 8.53990E-01-1.87247E-02 1.22610E+00-8.87728E-15-4.23156E-13
 -1      4159 1.63442E+01 7.08261E-01-6.48292E-03 1.49361E+00 6.14810E-14-5.02464E-13
 -1      4160 1.56843E+01 1.02106E+00 2.96305E-02 9.79668E-01 6.01123E-14-4.08374E-13
 -1      4161 1.66197E+01 1.08394E+00 1.91736E-02 8.25192E-01 2.09776E-14-5.10480E-13
 -1      4162 2.03990E+01 1.35818E-01 3.05741E-04 3.08565E-02-7.23035E-14-2.47066E-13
 -1      4163 2.03797E+01 7.79648E-02-5.13778E-05 4.16834E-02-3.52011E-14-2.16931E-13
 -1      4164 1.89618E+01 8.84373E-01-2.00425E-03-3.66185E-01-1.28902E-13-5.07304E-14
 -1      4165 1.90870E+01 8.24682E-01-3.69192E-03-3.27325E-01-2.98942E-14-5.32130E-14
 -1      4166 1.81584E+01-2.03584E+00 6.69981E-02 3.94031E+00 1.44826E-13-5.78947E-14
 -1      4167 2.00522E+01 4.56301E-02 4.68797E-04-1.20655E-01 6.11317E-14-1.79950E-14
 -1      4168 2.00692E+01 2.21729E-02-3.96495E-04-1.15960E-01 1.01775E-13-5.44734E-14
 -1      4169 2.00888E+01 1.49535E-02-2.14823E-05-9.73827E-02 3.13890E-14-9.92630E-14
 -1      4170 2.00407E+01 6.44782E-02 1.93546E-04-1.04382E-01-2.43560E-14-4.98527E-15
 -1      4171 1.94220E+01 6.42172E-01-1.14429E-03-2.46516E-01-6.66894E-14 7.87986E-14
 -1      4172 1.95014E+01 5.81453E-01-2.27028E-03-2.18820E-01-9.93690E-15 6.67712E-14
 -1      4173 1.95845E+01 5.23315E-01-8.07766E-04-2.00780E-01 4.15086E-14 9.72269E-14
 -1      4174 1.96474E+01 4.66312E-01-1.79095E-03-1.77799E-01 1.04013E-13 8.84651E-14
 -1      4175 1.95167E+01 5.80210E-01 4.61408E-03-1.42114E-01 1.82120E-14 1.34372E-13
 -1      4176 1.86412E+01 9.90994E-01-2.53468E-03-4.44406E-01-1.16481E-13-1.83453E-13
 -1      4177 1.87973E+01 9.38894E-01-4.85357E-03-3.97618E-01-1.11474E-13-9.09028E-14
 -1      4178 1.88214E+01 9.61822E-01 1.01662E-02-2.47226E-01-6.85701E-14-1.29427E-13
 -1      4179 1.82388E+01 1.07133E+00-3.13442E-03-5.42069E-01-9.81786E-14-1.80100E-13
 -1      4180 1.84330E+01 1.03371E+00-6.61612E-03-4.83208E-01-1.59375E-13-2.25084E-13
 -1      4181 1.84620E+01 1.07526E+00 1.34055E-02-2.94428E-01-1.24406E-13-2.82038E-13
 -1      4182 1.77297E+01 1.10843E+00-3.70295E-03-6.72004E-01 1.00907E-13-2.25945E-13
 -1      4183 1.79718E+01 1.09398E+00-9.39310E-03-5.92381E-01 2.99417E-14-1.65357E-13
 -1      4184 1.80069E+01 1.16516E+00 1.80964E-02-3.52365E-01-5.33449E-14-3.07113E-13
 -1      4185 1.70800E+01 1.08110E+00-2.38638E-03-8.60196E-01-1.01408E-13-1.18304E-13
 -1      4186 1.73777E+01 1.10179E+00-1.36437E-02-7.43014E-01 4.97375E-14-1.20193E-13
 -1      4187 1.74194E+01 1.21939E+00 2.48152E-02-4.28713E-01-2.41387E-15-2.04564E-13
 -1      4188 1.62684E+01 9.61921E-01 8.27044E-03-1.15430E+00-1.17400E-13-2.60874E-13
 -1      4189 1.66001E+01 1.02385E+00-2.12685E-02-9.77952E-01-1.04404E-13-1.02984E-13
 -1      4190 1.66173E+01 1.21910E+00 2.70999E-02-5.40672E-01-8.86851E-14-1.36223E-13
 -1      4191 1.92178E+01 7.64800E-01-1.54187E-03-3.01194E-01-6.24736E-14 5.36854E-15
 -1      4192 1.93178E+01 7.02749E-01-2.87817E-03-2.68349E-01-9.55255E-14 3.84255E-16
 -1      4193 1.93351E+01 7.06415E-01 6.02985E-03-1.72136E-01-3.59982E-14 7.77118E-14
 -1      4194 2.03051E+01 3.24081E-02-3.77301E-04-9.86708E-02-4.50244E-15-2.11255E-13
 -1      4195 2.03277E+01 7.53540E-02 9.60345E-04-8.55519E-02 2.41333E-14-2.24152E-13
 -1      4196 2.03210E+01 2.44887E-02-3.58493E-04-8.26871E-02-2.34921E-15-2.39944E-13
 -1      4197 2.03932E+01 8.29387E-01 7.85698E-04-5.15254E-02-4.29164E-14-4.11398E-13
 -1      4198 2.03977E+01 7.40915E-01-2.03682E-03-6.31395E-02-5.50433E-14-3.67882E-13
 -1      4199 2.04154E+01 5.98618E-01-7.42405E-05-3.07241E-02-6.53622E-14-3.67710E-13
 -1      4200 2.04218E+01 6.77071E-01 2.25805E-03-2.29697E-02-3.85273E-14-3.68706E-13
 -1      4201 2.04254E+01 2.98554E-01 3.88077E-04 1.00633E-02-4.98245E-14-3.04170E-13
 -1      4202 2.04130E+01 2.08164E-01-5.35631E-04 2.64390E-02-7.28960E-14-2.78772E-13
 -1      4203 2.04152E+01 1.83979E-01 3.07534E-06 1.50828E-02-3.70162E-14-2.25643E-13
 -1      4204 1.99005E+01 2.23270E-01-1.00520E-04-1.10392E-01 1.18292E-14-9.06022E-14
 -1      4205 1.99333E+01 1.82945E-01-7.67985E-04-9.95992E-02 1.76490E-14-1.16581E-13
 -1      4206 1.53405E+01 1.11576E+00-7.38372E-03-3.53035E-01-5.23097E-14-3.17138E-13
 -1      4207 1.53817E+01 1.00990E+00 1.92427E-02-9.84097E-01-1.03042E-13-3.05802E-13
 -1      4208 2.03578E+01 3.31888E-02 2.29783E-04 4.27004E-02-9.10540E-15-1.80390E-13
 -1      4209 2.03346E+01-2.39615E-05 2.16799E-04 4.90979E-02 2.98674E-14-1.70678E-13
 -1      4210 2.03784E+01 6.12351E-02-6.85863E-04 2.24609E-02 1.40080E-14-1.15255E-13
 -1      4211 1.97137E+01 4.12522E-01-5.26750E-04-1.63239E-01 8.83779E-14 6.58076E-14
 -1      4212 1.97636E+01 3.60596E-01-1.39828E-03-1.44661E-01 1.50181E-13 9.06289E-14
 -1      4213 1.96613E+01 4.61775E-01 3.46055E-03-1.16803E-01 7.10053E-14 1.48512E-13
 -1      4214 1.98170E+01 3.12158E-01-2.94178E-04-1.33313E-01 1.10589E-13-1.31628E-15
 -1      4215 1.98570E+01 2.65941E-01-1.06763E-03-1.18818E-01 3.49015E-14-6.18077E-15
 -1      4216 1.97769E+01 3.53796E-01 2.50247E-03-9.61352E-02 5.66012E-14-3.91230E-14
 -1      4217 1.72455E+01-1.36795E+00 1.84456E-02 3.64579E+00 1.12866E-13-1.73295E-13
 -1      4218 1.99698E+01 1.46102E-01 7.33680E-05-9.37277E-02 9.09144E-15-9.16372E-14
 -1      4219 1.99974E+01 1.11602E-01-5.82117E-04-8.60243E-02-1.73329E-14-1.00950E-13
 -1      4220 1.99469E+01 1.73539E-01 9.34148E-04-6.79716E-02 3.68632E-14-2.12182E-13
 -1      4221 2.01825E+01-4.01573E-02 3.09481E-04-7.29303E-02 3.40603E-14-2.33253E-13
 -1      4222 2.02061E+01-4.70318E-02 2.17635E-04-7.18944E-02-2.81332E-14-2.25034E-13
 -1      4223 2.03306E+01-9.89952E-03-9.71616E-04 2.66501E-02 1.61130E-14-1.63510E-13
 -1      4224 1.91073E+01 8.35862E-01 7.81758E-03-2.06997E-01-3.99779E-14-6.02865E-15
 -1      4225 1.54640E+01 1.05172E+00-1.33474E-02 5.62025E-01 6.50905E-14-3.70831E-13
 -1      4226 1.52693E+01 1.14342E+00 4.95441E-03-6.39734E-03-7.37257E-16-2.47719E-13
 -1      4227 1.59646E+01 1.15289E+00-1.88329E-02-2.34306E-01-1.39437E-14-2.19308E-13
 -1      4228 1.60539E+01 1.09262E+00-2.00095E-03 5.08368E-01 8.25902E-15-3.76270E-13
 -1      4229 2.02821E+01-3.49269E-02 1.15160E-04-7.19150E-02-5.63632E-15-2.43925E-13
 -1      4230 2.03068E+01-1.69225E-02 5.53235E-04-6.77762E-02 8.42848E-15-2.29055E-13
 -1      4231 2.01330E+01-1.37790E-02 2.60203E-04-7.34069E-02-8.29584E-15-2.11925E-13
 -1      4232 2.01560E+01-2.90434E-02 3.94099E-05-7.20048E-02 4.36655E-14-1.85449E-13
 -1      4233 2.01774E+01-3.48675E-02-7.25202E-04-5.14842E-02-1.09643E-15-1.55524E-13
 -1      4234 1.98702E+01 2.57585E-01 1.69216E-03-7.99530E-02-6.82169E-15-1.88139E-13
 -1      4235 2.03618E+01 1.17064E-01-6.96441E-04-6.41781E-02 3.23096E-14-2.48512E-13
 -1      4236 2.03434E+01 1.30456E-01-6.90300E-04-7.39941E-02 5.45000E-14-2.12557E-13
 -1      4237 2.03640E+01 1.99615E-01 1.14266E-03-4.91132E-02 7.55430E-14-2.25902E-13
 -1      4238 2.02566E+01-4.50543E-02 3.88808E-04-7.12230E-02-1.99166E-14-2.10802E-13
 -1      4239 2.02816E+01-3.93758E-02-1.12861E-03-5.03982E-02-2.17978E-14-2.49070E-13
 -1      4240 2.02323E+01-4.88973E-02 2.60747E-04-7.30693E-02-5.63321E-14-2.18803E-13
 -1      4241 2.04244E+01 4.89855E-01-1.91427E-04-1.78766E-02-5.61333E-14-3.52300E-13
 -1      4242 2.04247E+01 3.79855E-01-5.21333E-04 4.80468E-03-4.97240E-14-3.26398E-13
 -1      4243 2.04325E+01 3.42217E-01 4.27668E-05 5.50852E-03-2.13467E-14-2.86017E-13
 -1      4244 2.04270E+01 5.25891E-01-8.38923E-04-1.48312E-02-3.84815E-14-3.41980E-13
 -1      4245 2.04244E+01 5.03980E-01-2.50917E-03 1.55925E-02 2.50091E-14-3.12886E-13
 -1      4246 2.04283E+01 5.44849E-01-5.16395E-04 1.10782E-02 1.25789E-14-3.37187E-13
 -1      4247 2.03697E+01 2.67904E-01-1.08967E-03-3.47242E-02 5.18836E-14-2.53264E-13
 -1      4248 2.03817E+01 3.68455E-01-1.65547E-04 3.51120E-03 4.53790E-14-2.98911E-13
 -1      4249 2.04013E+01 4.24383E-01 3.87114E-04 1.11739E-02 3.13999E-14-3.09213E-13
 -1      4250 2.03905E+01 2.47068E-01-9.50403E-04-3.32542E-02 4.36639E-14-2.54360E-13
 -1      4251 2.04394E+01 4.26916E-01 1.32932E-03-3.79485E-03 2.30659E-15-2.99690E-13
 -1      4252 2.04314E+01 5.49948E-01-5.81600E-04 1.95752E-03-1.47660E-15-3.21381E-13
 -1      4253 2.03325E+01-5.08030E-04-1.03343E-03-4.69646E-02-6.97337E-15-2.89933E-13
 -1      4254 2.03303E+01 8.89274E-03-2.24496E-04-6.70495E-02-5.26398E-15-2.50417E-13
 -1      4255 2.03547E+01 4.56867E-02 8.74194E-04-5.86669E-02-6.36717E-15-2.58800E-13
 -1      4256 1.98503E+01 2.64924E-01-1.49344E-03-1.79360E-02-2.99351E-14-2.24082E-13
 -1      4257 1.98943E+01 2.21678E-01-8.69515E-04-1.28316E-02 3.07172E-14-2.46072E-13
 -1      4258 2.03400E+01-5.04500E-03 4.56103E-04-1.07240E-02-1.68740E-14-1.84783E-13
 -1      4259 2.03144E+01-2.75049E-02 8.91810E-04-9.07647E-03-6.21150E-15-1.99972E-13
 -1      4260 2.03858E+01 6.80622E-02-7.00615E-06-1.07563E-02 1.09745E-14-1.86657E-13
 -1      4261 2.03645E+01 2.58707E-02 8.95713E-04-7.25985E-03 8.43523E-16-1.92757E-13
 -1      4262 2.02881E+01-4.05659E-02 5.84661E-04-1.08346E-02 3.24991E-15-2.02465E-13
 -1      4263 2.02609E+01-4.74953E-02 7.79737E-04-9.85714E-03-1.07001E-14-2.24041E-13
 -1      4264 2.02341E+01-4.72312E-02 5.39597E-04-1.08086E-02-3.68005E-14-2.27697E-13
 -1      4265 2.02064E+01-4.23349E-02 5.84482E-04-1.01273E-02-3.29819E-14-2.31598E-13
 -1      4266 2.01794E+01-3.19505E-02 3.40448E-04-1.09621E-02-1.48962E-14-1.94780E-13
 -1      4267 2.01514E+01-1.76977E-02 3.16334E-04-1.03585E-02 9.79897E-15-2.02275E-13
 -1      4268 2.00750E+01 4.02271E-02-2.13685E-04 6.06465E-03-4.83943E-14-2.53458E-13
 -1      4269 2.00451E+01 6.79613E-02-1.96187E-04 7.89148E-03-3.69964E-14-2.94878E-13
 -1      4270 2.00044E+01 1.08401E-01-2.74860E-04-1.35259E-02 2.87305E-15-2.75366E-13
 -1      4271 1.99704E+01 1.43036E-01-4.59971E-04-1.16925E-02 3.25814E-14-2.85753E-13
 -1      4272 1.99336E+01 1.80543E-01-9.22269E-04-1.54737E-02 5.53503E-14-2.53660E-13
 -1      4273 1.98033E+01 3.12269E-01-1.33435E-03-1.41866E-02-9.96012E-15-2.74145E-13
 -1      4274 1.97493E+01 3.61166E-01-2.13848E-03-2.06780E-02 4.48393E-14-1.96683E-13
 -1      4275 1.96917E+01 4.14480E-01-1.88154E-03-1.55208E-02 5.30423E-15-1.45618E-13
 -1      4276 1.96244E+01 4.68557E-01-2.91122E-03-2.33548E-02 6.26838E-15-8.32012E-14
 -1      4277 1.95532E+01 5.27207E-01-2.54153E-03-1.63414E-02 2.66036E-17-5.11844E-14
 -1      4278 1.94688E+01 5.85425E-01-3.85427E-03-2.53864E-02-3.87251E-14 6.80822E-15
 -1      4279 1.93801E+01 6.48105E-01-3.35481E-03-1.58738E-02 4.02507E-14-5.85353E-15
 -1      4280 1.92740E+01 7.08578E-01-5.03456E-03-2.59164E-02 3.88666E-14-5.78788E-14
 -1      4281 1.91635E+01 7.73068E-01-4.38786E-03-1.29574E-02 3.43734E-14-4.45151E-14
 -1      4282 1.90302E+01 8.32803E-01-6.56660E-03-2.37659E-02 1.99107E-14-1.28158E-13
 -1      4283 1.88926E+01 8.95780E-01-5.75533E-03-5.93701E-03-1.57288E-14-1.40078E-13
 -1      4284 1.87247E+01 9.50465E-01-8.64816E-03-1.74110E-02-6.57340E-14-1.62163E-13
 -1      4285 1.85529E+01 1.00743E+00-7.65205E-03 7.45078E-03-1.62030E-14-1.53088E-13
 -1      4286 1.83403E+01 1.05135E+00-1.16005E-02-4.97375E-03-1.16012E-14-2.12978E-13
 -1      4287 1.81244E+01 1.09674E+00-1.03618E-02 3.01914E-02-3.88752E-14-2.63311E-13
 -1      4288 1.78521E+01 1.12299E+00-1.57958E-02 1.59122E-02-2.80029E-14-2.87130E-13
 -1      4289 1.75780E+01 1.15057E+00-1.39471E-02 6.61351E-02-3.77386E-14-3.09646E-13
 -1      4290 1.72234E+01 1.15239E+00-2.07227E-02 4.90584E-02-3.15661E-14-2.35681E-13
 -1      4291 1.68743E+01 1.15864E+00-1.48925E-02 1.19265E-01 8.00738E-14-2.98416E-13
 -1      4292 2.04118E+01 4.45443E-01-1.17155E-03 1.62548E-02 1.65439E-14-3.27236E-13
 -1      4293 2.04218E+01 4.88572E-01 4.68847E-04 1.65205E-02 2.29215E-14-3.08533E-13
 -1      4294 2.04332E+01 3.98177E-01 2.31779E-03 1.23919E-03 6.85826E-16-3.22029E-13
 -1      4295 2.04118E+01 3.52956E-01 1.30677E-03-8.79758E-03 1.24783E-14-2.93288E-13
 -1      4296 1.64240E+01 1.14377E+00-1.27722E-02 1.08865E-01 5.65568E-14-3.41758E-13
 -1      4297 2.02295E+01-4.84490E-02-1.01686E-03-5.13172E-02-2.98281E-14-2.08639E-13
 -1      4298 2.04381E+01 3.35736E-01-9.66148E-05 3.18193E-03-2.06645E-14-2.97737E-13
 -1      4299 2.04276E+01 5.63112E-01 2.23802E-05-1.10022E-02-2.22560E-14-3.12064E-13
 -1      4300 2.04255E+01 2.14260E-01-1.49700E-04-7.39004E-03 1.69903E-14-2.70354E-13
 -1      4301 2.04124E+01 1.40454E-01 4.76682E-04-8.74618E-04 4.32526E-14-2.00204E-13
 -1      4302 2.03856E+01 9.51354E-02-4.95649E-04-3.39218E-02 3.78662E-14-2.68085E-13
 -1      4303 2.04259E+01 2.85654E-01-3.70854E-04-1.15805E-02 4.12627E-14-2.81528E-13
 -1      4304 2.01305E+01-6.14326E-03-2.69879E-04-4.39619E-02-1.70529E-14-1.57865E-13
 -1      4305 2.01286E+01-2.17963E-03 1.09732E-04-2.72504E-03 2.39313E-14-2.27824E-13
 -1      4306 2.01002E+01 1.93040E-02 1.37931E-04-1.99519E-03 3.99408E-15-2.17906E-13
 -1      4307 2.01111E+01 2.25936E-03-1.52588E-04-6.55480E-02-3.99097E-14-2.01256E-13
 -1      4308 2.00210E+01 9.40630E-02 3.28139E-04-4.04460E-02-2.42945E-14-1.98739E-13
 -1      4309 2.00875E+01 2.39150E-02 4.01732E-05-6.81380E-02-1.62620E-14-1.14105E-13
 -1      4310 2.00851E+01 3.25997E-02 1.04716E-04-2.81812E-02-4.17023E-14-2.06439E-13
 -1      4311 2.00377E+01 7.36515E-02 1.10231E-04-6.44583E-02-4.99820E-14-1.41986E-13
 -1      4312 2.03806E+01 1.10419E-01-7.41602E-04-4.94667E-02 3.58922E-14-2.73525E-13
 -1      4313 2.04015E+01 1.76555E-01 1.48929E-03-3.41610E-02 4.95935E-14-2.71618E-13
 -1      4314 2.00632E+01 4.56577E-02-2.44212E-04-6.02989E-02-2.40384E-14-1.00812E-13
 -1      4315 2.04140E+01 2.89147E-01-4.27955E-04-2.01454E-02 1.99701E-14-2.77793E-13
 -1      4316 1.64711E+01 1.17279E+00 1.86545E-02 4.58863E-01 8.24230E-14-4.60723E-13
 -1      4317 2.04023E+01 2.69097E-01-1.34834E-03-2.53304E-02 2.52095E-14-2.56196E-13
 -3
    1PSTEP                         3           1           1          
  100CL  101 1.000000000        4317                     0    1           1
 -4  TOSTRAIN    6    1
 -5  EXX         1    4    1    1
 -5  EYY         1    4    2    2
 -5  EZZ         1    4    3    3
 -5  EXY         1    4    1    2
 -5  EYZ         1    4    2    3
 -5  EZX         1    4    3    1
 -1         1 3.07411E-04-9.43980E-05-7.87142E-05-2.36486E-05-5.05705E-19-1.04672E-18
 -1         2 3.75160E-05-1.14490E-04 2.07314E-05 6.97475E-09 7.99984E-18-6.52692E-19
 -1         3 9.50691E-05-2.87520E-05-2.82391E-05-1.90849E-07-3.50207E-18-4.21183E-18
 -1         4 9.50962E-05-2.87163E-05-2.82785E-05 1.41646E-07 8.43035E-19 1.24350E-18
 -1         5 1.43339E-04-2.14779E-05-4.25248E-05 3.85314E-05-2.67292E-19 1.90549E-17
 -1         6 1.45403E-04 2.57548E-10-4.41840E-05-5.35269E-05-1.14222E-18 1.89968E-17
 -1         7 9.05988E-05-5.10668E-07-3.90646E-05-2.92556E-05-1.70042E-19 3.71421E-18
 -1         8 8.51168E-05 8.66940E-08-3.63364E-05-2.02770E-05-2.29467E-19-1.08432E-18
 -1         9 8.28088E-05 7.69477E-08-3.53492E-05-1.56491E-05-2.14855E-19-3.73705E-18
 -1        10 8.17749E-05 3.86665E-08-3.48816E-05-1.20866E-05-1.43281E-19-5.00395E-18
 -1        11 8.12559E-05 1.94209E-08-3.46538E-05-9.02015E-06-8.88988E-20-5.62124E-18
 -1        12 8.09889E-05 9.12258E-09-3.45407E-05-6.28956E-06-4.44014E-20-5.90958E-18
 -1        13 8.08495E-05 4.48387E-09-3.44837E-05-3.68893E-06-2.80729E-20-5.99661E-18
 -1        14 8.07914E-05 2.61399E-09-3.44605E-05-1.18481E-06-1.15667E-20-5.98270E-18
 -1        15 8.07935E-05 2.60322E-09-3.44613E-05 1.29005E-06 2.44967E-20-5.92610E-18
 -1        16 8.08560E-05 4.40400E-09-3.44860E-05 3.79928E-06 5.72649E-20-5.80020E-18
 -1        17 8.10009E-05 8.31040E-09-3.45444E-05 6.41213E-06 8.12688E-20-5.59743E-18
 -1        18 8.12731E-05 1.81073E-08-3.46592E-05 9.16261E-06 1.04172E-19-5.15264E-18
 -1        19 8.17966E-05 3.81798E-08-3.48897E-05 1.22655E-05 1.70876E-19-4.35856E-18
 -1        20 8.28319E-05 8.15811E-08-3.53618E-05 1.58782E-05 2.10435E-19-2.91863E-18
 -1        21 8.50829E-05 1.69639E-07-3.63745E-05 2.04887E-05 2.69436E-19-5.74593E-20
 -1        22 9.16362E-05-9.92499E-08-3.87362E-05 2.80031E-05 6.42686E-20 5.72163E-18
 -1        23 1.12966E-04-3.81234E-05-3.53941E-05-4.40385E-06-7.17252E-19 1.50094E-17
 -1        24 9.27923E-05-2.76933E-05-2.89956E-05 3.90949E-07-1.81374E-19 1.14535E-17
 -1        25 8.91039E-05-2.68475E-05-2.69246E-05 3.75901E-07-1.16130E-19 7.85176E-18
 -1        26 8.79975E-05-2.64830E-05-2.63861E-05 2.03982E-07 3.19292E-20 5.38274E-18
 -1        27 8.80198E-05-2.64601E-05-2.63770E-05 1.39652E-07-3.58306E-20 4.06750E-18
 -1        28 8.85485E-05-2.65949E-05-2.65451E-05 1.00576E-07 8.28876E-21 2.78291E-18
 -1        29 8.92978E-05-2.68059E-05-2.67760E-05 7.47868E-08-3.99311E-20 1.90584E-18
 -1        30 9.01165E-05-2.70439E-05-2.70243E-05 5.63437E-08-5.96479E-20 1.25999E-18
 -1        31 9.09206E-05-2.72808E-05-2.72669E-05 4.24193E-08-8.78159E-20 2.99967E-19
 -1        32 9.16643E-05-2.75013E-05-2.74911E-05 3.15808E-08-2.25716E-19-7.61469E-19
 -1        33 9.23263E-05-2.76985E-05-2.76907E-05 2.30287E-08 3.48642E-19-1.51785E-18
 -1        34 9.29011E-05-2.78702E-05-2.78643E-05 1.62660E-08-2.14044E-19-1.45430E-18
 -1        35 9.33943E-05-2.80180E-05-2.80135E-05 1.09568E-08 7.04502E-20-2.76460E-18
 -1        36 9.38189E-05-2.81455E-05-2.81421E-05 6.86610E-09 1.68590E-19-2.38427E-18
 -1        37 9.41938E-05-2.82585E-05-2.82559E-05 3.83744E-09-2.63155E-19-1.81406E-18
 -1        38 9.45428E-05-2.83638E-05-2.83620E-05 1.78662E-09-5.15635E-20-2.90737E-18
 -1        39 9.48938E-05-2.84700E-05-2.84688E-05 7.05014E-10-8.24375E-20-3.63828E-18
 -1        40 9.52795E-05-2.85868E-05-2.85863E-05 6.68045E-10 1.15590E-19-3.23309E-18
 -1        41 9.57375E-05-2.87253E-05-2.87258E-05 1.84675E-09 1.17056E-20-3.21480E-18
 -1        42 9.63110E-05-2.88986E-05-2.89003E-05 4.52001E-09-2.59494E-19-3.74787E-18
 -1        43 9.70485E-05-2.91210E-05-2.91244E-05 9.08279E-09-2.34024E-19-4.48134E-18
 -1        44 9.80034E-05-2.94084E-05-2.94141E-05 1.60403E-08 2.60369E-19-2.95679E-18
 -1        45 9.92310E-05-2.97773E-05-2.97858E-05 2.59664E-08-4.92859E-20-3.41432E-18
 -1        46 1.00783E-04-3.02427E-05-3.02547E-05 3.93843E-08-2.56726E-20-4.56477E-18
 -1        47 1.02697E-04-3.08154E-05-3.08309E-05 5.64919E-08-8.30520E-20-4.82066E-18
 -1        48 1.04977E-04-3.14961E-05-3.15139E-05 7.66060E-08-1.64573E-19-4.79227E-18
 -1        49 1.07562E-04-3.22665E-05-3.22827E-05 9.71586E-08 3.49863E-19-3.74470E-18
 -1        50 1.10288E-04-3.30772E-05-3.30836E-05 1.12123E-07-1.02146E-19-3.38052E-18
 -1        51 1.12831E-04-3.38320E-05-3.38147E-05 1.10090E-07-1.79510E-19-2.20984E-18
 -1        52 1.14665E-04-3.43755E-05-3.43165E-05 7.32372E-08-2.39264E-19-1.79986E-18
 -1        53 1.15070E-04-3.44950E-05-3.43794E-05-1.95146E-08 4.17677E-20-1.70767E-18
 -1        54 1.13263E-04-3.39581E-05-3.37915E-05-1.80124E-07-4.13441E-20-1.48315E-18
 -1        55 1.08727E-04-3.26091E-05-3.24366E-05-3.87945E-07-1.95327E-19-1.94635E-18
 -1        56 1.01711E-04-3.05178E-05-3.04268E-05-5.66752E-07-5.42627E-19-3.26452E-18
 -1        57 9.36481E-05-2.81067E-05-2.81868E-05-5.97291E-07 6.60160E-19-3.97168E-18
 -1        58 8.69964E-05-2.61118E-05-2.63781E-05-3.94523E-07-3.41023E-19-4.05325E-18
 -1        59 8.42177E-05-2.52770E-05-2.56257E-05-7.25975E-09 6.72306E-19-1.80102E-18
 -1        60 8.63592E-05-2.59201E-05-2.61873E-05 3.80610E-07-2.80451E-19-2.85741E-20
 -1        61 9.23700E-05-2.77220E-05-2.78034E-05 5.84621E-07 1.87159E-19 4.69521E-19
 -1        62 9.97709E-05-2.99343E-05-2.98417E-05 5.53624E-07 2.29209E-19-1.26896E-19
 -1        63 1.06064E-04-3.18093E-05-3.16308E-05 3.70356E-07-6.65905E-19-1.20385E-18
 -1        64 1.09776E-04-3.29115E-05-3.27357E-05 1.54195E-07-3.03574E-19-4.19936E-18
 -1        65 1.10632E-04-3.31644E-05-3.30378E-05-1.72932E-08 6.55498E-19-3.09574E-18
 -1        66 1.09160E-04-3.27274E-05-3.26570E-05-1.21697E-07 7.59170E-20-2.75237E-18
 -1        67 1.06204E-04-3.18500E-05-3.18253E-05-1.68878E-07 7.64919E-20-3.53910E-18
 -1        68 1.02608E-04-3.07818E-05-3.07932E-05-1.75357E-07 4.57484E-19-4.83538E-18
 -1        69 9.91178E-05-2.97422E-05-2.97904E-05-1.47928E-07 4.93065E-19-4.97168E-18
 -1        70 9.64148E-05-2.89277E-05-2.90134E-05-6.21895E-08 3.35026E-19-1.11491E-18
 -1        71 9.51007E-05-2.84986E-05-2.85738E-05 7.11812E-08-1.56602E-19 5.58220E-19
 -1        72 1.02169E-04-3.05845E-05-3.41470E-05-1.92843E-06 3.44001E-19 1.71228E-17
 -1        73 9.25489E-05-2.75095E-05-2.89039E-05-3.33095E-07 1.55672E-19 1.26238E-17
 -1        74 8.90917E-05-2.66970E-05-2.69679E-05-1.25836E-07 7.81313E-20 9.54714E-18
 -1        75 8.80273E-05-2.64337E-05-2.64301E-05-9.54830E-08 1.07069E-19 7.24166E-18
 -1        76 8.80543E-05-2.64399E-05-2.64037E-05-7.64446E-08 2.93881E-20 5.61206E-18
 -1        77 8.85823E-05-2.65893E-05-2.65622E-05-6.22962E-08 3.19135E-20 4.90828E-18
 -1        78 8.93287E-05-2.68071E-05-2.67882E-05-5.13909E-08 1.37107E-20 4.42018E-18
 -1        79 9.01438E-05-2.70483E-05-2.70335E-05-4.23487E-08 5.64127E-20 3.78469E-18
 -1        80 9.09438E-05-2.72865E-05-2.72739E-05-3.44992E-08 9.43071E-20 1.90337E-18
 -1        81 9.16834E-05-2.75073E-05-2.74963E-05-2.75719E-08 9.47030E-20 5.57475E-19
 -1        82 9.23413E-05-2.77040E-05-2.76945E-05-2.14427E-08 5.88218E-20-3.39685E-19
 -1        83 9.29121E-05-2.78749E-05-2.78668E-05-1.60298E-08-1.40566E-19-3.69444E-19
 -1        84 9.34013E-05-2.80215E-05-2.80148E-05-1.12584E-08 1.51457E-19-5.90355E-19
 -1        85 9.38220E-05-2.81477E-05-2.81423E-05-7.05406E-09 8.79750E-20-1.77305E-18
 -1        86 9.41930E-05-2.82592E-05-2.82552E-05-3.34618E-09 1.00494E-19-2.48118E-18
 -1        87 9.45383E-05-2.83630E-05-2.83604E-05-7.83757E-11-1.35610E-19-3.06472E-18
 -1        88 9.48861E-05-2.84678E-05-2.84666E-05 2.77703E-09-1.65514E-19-1.91551E-18
 -1        89 9.52700E-05-2.85834E-05-2.85839E-05 5.19974E-09 2.86048E-19-2.50763E-18
 -1        90 9.57293E-05-2.87217E-05-2.87243E-05 7.09557E-09 2.27626E-20-5.02432E-18
 -1        91 9.63100E-05-2.88964E-05-2.89016E-05 8.26020E-09-2.62305E-19-4.71741E-18
 -1        92 9.70662E-05-2.91237E-05-2.91322E-05 8.32705E-09-1.50615E-19-2.21641E-18
 -1        93 9.80601E-05-2.94220E-05-2.94348E-05 6.69434E-09-7.36228E-20-1.80763E-18
 -1        94 9.93613E-05-2.98121E-05-2.98303E-05 2.42899E-09 1.61608E-19-3.00386E-18
 -1        95 1.01044E-04-3.03158E-05-3.03406E-05-5.84109E-09-1.06655E-19-3.76853E-18
 -1        96 1.03177E-04-3.09534E-05-3.09857E-05-1.99965E-08-6.08602E-20-2.13961E-18
 -1        97 1.05808E-04-3.17388E-05-3.17781E-05-4.23161E-08-2.81573E-19-1.14067E-18
 -1        98 1.08932E-04-3.26701E-05-3.27124E-05-7.48598E-08 2.88195E-19-1.57868E-18
 -1        99 1.12437E-04-3.37143E-05-3.37486E-05-1.17723E-07-1.61077E-19-3.30617E-18
 -1       100 1.16025E-04-3.47849E-05-3.47888E-05-1.65277E-07 2.58169E-19-2.76098E-18
 -1       101 1.19124E-04-3.57153E-05-3.56523E-05-1.99915E-07-3.33767E-19-3.12394E-18
 -1       102 1.20824E-04-3.62397E-05-3.60668E-05-1.85491E-07 3.35273E-20-9.11382E-19
 -1       103 1.19956E-04-3.60124E-05-3.57088E-05-7.02653E-08 3.90016E-20 1.48653E-18
 -1       104 1.15481E-04-3.47128E-05-3.43322E-05 1.82380E-07 2.25901E-19 3.33699E-18
 -1       105 1.07263E-04-3.22705E-05-3.19803E-05 5.28833E-07-5.00362E-20 3.43988E-18
 -1       106 9.69404E-05-2.91395E-05-2.91688E-05 7.94399E-07-2.30036E-19 3.65534E-18
 -1       107 8.80232E-05-2.63725E-05-2.68282E-05 7.45573E-07 6.17643E-19 1.78247E-19
 -1       108 8.43584E-05-2.51886E-05-2.58858E-05 3.16496E-07 1.00059E-19-2.84515E-18
 -1       109 8.76069E-05-2.61523E-05-2.67204E-05-2.64132E-07-3.34825E-19 9.97911E-20
 -1       110 9.59969E-05-2.87297E-05-2.89106E-05-6.58772E-07 5.74664E-19-3.90675E-18
 -1       111 1.05631E-04-3.16933E-05-3.15068E-05-7.13099E-07 7.50029E-20-4.23935E-18
 -1       112 1.12995E-04-3.39436E-05-3.35849E-05-5.19738E-07-5.35116E-19-1.88992E-18
 -1       113 1.16472E-04-3.49916E-05-3.46468E-05-2.56241E-07 2.54454E-19-1.50910E-18
 -1       114 1.16226E-04-3.49050E-05-3.46636E-05-3.98151E-08-2.62261E-19-2.86965E-18
 -1       115 1.13328E-04-3.40212E-05-3.38917E-05 9.69420E-08 5.73650E-22-3.74998E-18
 -1       116 1.08996E-04-3.27127E-05-3.26691E-05 1.68092E-07 3.54075E-19-4.66311E-18
 -1       117 1.04256E-04-3.12856E-05-3.13047E-05 1.97910E-07 4.08578E-20-5.62305E-18
 -1       118 9.99031E-05-2.99737E-05-3.00506E-05 2.00055E-07-1.28245E-19-7.44816E-18
 -1       119 9.66349E-05-2.89828E-05-2.91097E-05 1.52936E-07 3.63314E-19-7.74619E-18
 -1       120 9.51114E-05-2.84698E-05-2.85851E-05-2.49158E-08 1.65855E-18-9.07772E-18
 -1       121 9.52472E-05-2.85824E-05-2.85989E-05-8.22230E-08-9.67901E-18-4.74532E-19
 -1       122 9.47692E-05-2.70443E-05-2.91335E-05 9.04457E-08-5.73697E-18 3.33406E-19
 -1       123 9.38130E-05-2.38464E-05-3.00524E-05 1.79597E-07 9.64010E-19 1.31977E-18
 -1       124 9.25967E-05-1.97711E-05-3.12255E-05 2.09351E-07 5.17647E-18-1.32620E-19
 -1       125 9.13352E-05-1.55336E-05-3.24544E-05 2.00233E-07 5.50631E-19-1.55364E-18
 -1       126 9.02383E-05-1.18376E-05-3.35292E-05 1.63638E-07-3.66037E-18 8.84525E-19
 -1       127 8.94318E-05-9.12647E-06-3.43179E-05 9.95758E-08-2.87651E-18-4.43370E-19
 -1       128 8.90609E-05-7.87873E-06-3.46821E-05 1.95679E-08-3.79534E-18 6.98699E-19
 -1       129 8.91764E-05-8.26760E-06-3.45721E-05-6.15459E-08-1.73430E-18 6.36824E-19
 -1       130 8.97489E-05-1.01938E-05-3.40154E-05-1.28655E-07-2.68114E-18-1.27267E-18
 -1       131 9.06765E-05-1.33160E-05-3.31086E-05-1.72768E-07-9.64972E-18-8.93223E-19
 -1       132 9.17951E-05-1.70793E-05-3.20117E-05-1.87074E-07-9.20239E-18 8.35669E-19
 -1       133 9.29819E-05-2.10656E-05-3.08497E-05-1.78139E-07-6.61227E-18-5.05209E-19
 -1       134 9.40564E-05-2.46825E-05-2.98027E-05-1.53654E-07-2.10150E-18-1.65025E-19
 -1       135 9.48612E-05-2.73433E-05-2.90195E-05-9.75418E-08-1.28611E-18-1.82159E-19
 -1       136 9.51865E-05-2.85467E-05-2.85782E-05 1.62939E-07-8.04645E-19-2.80673E-19
 -1       137 2.69483E-05-9.17549E-05 1.65058E-05-2.43655E-05 4.20615E-18-3.76374E-19
 -1       138 8.71136E-06-3.69075E-05 3.84300E-06-1.89160E-05 3.51900E-18 2.41468E-18
 -1       139 1.07858E-05 1.16466E-05-1.36369E-05 1.99012E-05 5.75135E-19 7.41154E-20
 -1       140 5.58403E-05 2.60773E-05-3.40937E-05 7.47134E-05 6.78473E-19 1.36542E-18
 -1       141 1.49172E-04-3.98166E-06-5.57297E-05 1.13685E-04-1.15641E-18-2.04558E-18
 -1       142 2.51676E-04-5.92113E-05-7.16365E-05 9.55103E-05-1.44541E-18-4.03399E-18
 -1       143 3.08213E-04-9.38824E-05-7.90038E-05 2.91691E-05-1.02782E-18-7.90186E-18
 -1       144 2.95039E-04-8.56616E-05-7.73208E-05-5.37052E-05 2.92856E-18-1.39534E-17
 -1       145 2.11738E-04-3.75210E-05-6.54992E-05-1.07400E-04 5.14244E-18-1.40959E-17
 -1       146 1.10289E-04 1.19027E-05-4.79812E-05-1.04022E-04 5.54129E-18-1.06409E-17
 -1       147 3.24283E-05 2.70811E-05-2.65071E-05-5.49094E-05 8.83498E-18-7.19766E-18
 -1       148 4.81065E-06-3.96247E-06-6.24164E-06-3.83213E-07 1.18496E-17-7.39121E-18
 -1       149 1.44441E-05-5.84329E-05 9.36881E-06 2.58679E-05 1.25844E-17-4.92063E-18
 -1       150 3.19786E-05-1.02120E-04 1.85521E-05 1.71108E-05 7.79101E-18-1.53157E-18
 -1       151 3.48108E-05-1.08002E-04 1.96670E-05-1.00254E-05 2.57922E-18 2.69992E-21
 -1       152 1.87608E-05-7.04645E-05 1.22613E-05-2.59433E-05-7.96507E-18-3.30195E-18
 -1       153 5.56330E-06-1.43162E-05-2.73906E-06-5.83690E-06-1.21634E-17-6.96875E-18
 -1       154 2.30539E-05 2.56641E-05-2.26800E-05 4.50108E-05-9.16320E-18-8.22427E-18
 -1       155 1.00603E-04 1.62997E-05-4.60901E-05 1.01473E-04-7.63685E-18-1.13236E-17
 -1       156 2.04992E-04-3.38740E-05-6.44725E-05 1.08802E-04-4.92232E-18-1.34458E-17
 -1       157 2.89695E-04-8.31220E-05-7.65320E-05 5.77788E-05-2.42882E-18-8.90443E-18
 -1       158 2.52938E-04-6.03449E-05-7.17622E-05-9.34672E-05-2.91311E-18 1.04545E-17
 -1       159 1.51898E-04-5.57550E-06-5.59697E-05-1.13222E-04-5.64230E-18 1.06459E-17
 -1       160 6.13413E-05 2.71851E-05-3.62156E-05-8.08208E-05-4.17714E-18 4.90432E-18
 -1       161 1.13142E-05 1.48817E-05-1.48328E-05-2.33905E-05 1.43572E-18-2.35475E-19
 -1       162 8.17591E-06-3.56883E-05 3.70070E-06 1.88253E-05 4.73957E-18-3.02158E-18
 -1       163 2.67506E-05-9.05649E-05 1.62171E-05 2.42081E-05 7.22667E-18-2.49070E-18
 -1       164 9.48599E-05-1.23454E-05-3.55664E-05-2.23539E-05-2.76534E-18 1.08825E-18
 -1       165 8.92376E-05-8.45007E-06-3.47858E-05-1.73922E-05-2.62702E-18-1.84944E-18
 -1       166 8.65532E-05-6.51010E-06-3.44150E-05-1.36011E-05-2.16041E-18-3.56008E-18
 -1       167 8.51930E-05-5.51561E-06-3.42306E-05-1.03741E-05-1.63065E-18-4.40462E-18
 -1       168 8.44525E-05-4.94673E-06-3.41430E-05-7.55264E-06-1.12360E-18-4.80594E-18
 -1       169 8.40283E-05-4.60237E-06-3.41014E-05-4.90755E-06-7.04402E-19-5.01158E-18
 -1       170 8.38119E-05-4.41850E-06-3.40839E-05-2.39718E-06-2.60466E-19-5.03500E-18
 -1       171 8.37482E-05-4.36290E-06-3.40794E-05 5.12070E-08 1.34772E-19-5.01986E-18
 -1       172 8.38219E-05-4.42693E-06-3.40847E-05 2.50167E-06 5.48652E-19-4.98018E-18
 -1       173 8.40504E-05-4.62163E-06-3.41029E-05 5.01855E-06 9.34149E-19-4.82805E-18
 -1       174 8.44805E-05-4.97398E-06-3.41439E-05 7.62939E-06 1.33477E-18-4.44460E-18
 -1       175 8.52529E-05-5.57543E-06-3.42324E-05 1.05196E-05 1.89344E-18-3.86448E-18
 -1       176 8.66450E-05-6.60845E-06-3.44176E-05 1.37908E-05 2.41461E-18-2.85400E-18
 -1       177 8.93861E-05-8.59877E-06-3.47902E-05 1.76300E-05 2.82368E-18-9.74776E-19
 -1       178 9.57709E-05-1.36112E-05-3.54228E-05 2.18997E-05 2.82002E-18 2.48789E-18
 -1       179 1.05595E-04-2.60986E-05-3.52601E-05 1.86674E-05 2.18407E-18 7.10174E-18
 -1       180 1.03389E-04-2.72988E-05-3.26075E-05-1.21329E-05-2.34308E-18 4.57144E-18
 -1       181 9.70950E-05-2.82852E-05-2.95251E-05-4.73547E-06-2.01109E-18 3.41911E-18
 -1       182 9.34921E-05-2.76326E-05-2.81774E-05-1.77321E-06-1.50285E-18 2.42353E-18
 -1       183 9.19535E-05-2.74004E-05-2.76302E-05-4.26361E-07-9.26293E-19 1.57986E-18
 -1       184 9.13741E-05-2.73242E-05-2.74317E-05 2.37174E-07-8.04739E-19 1.10978E-18
 -1       185 9.13288E-05-2.73620E-05-2.74057E-05 5.62556E-07-6.22971E-19 7.72439E-19
 -1       186 9.15690E-05-2.74636E-05-2.74697E-05 7.01237E-07-4.58221E-19 2.23567E-19
 -1       187 9.19501E-05-2.75948E-05-2.75791E-05 7.32787E-07-7.66041E-19-1.19915E-19
 -1       188 9.23862E-05-2.77345E-05-2.77072E-05 7.03699E-07-6.68690E-19-3.30277E-19
 -1       189 9.28271E-05-2.78704E-05-2.78386E-05 6.43245E-07-5.58524E-19-4.02606E-19
 -1       190 9.32457E-05-2.79960E-05-2.79644E-05 5.70733E-07-2.64011E-19-1.45618E-18
 -1       191 9.36303E-05-2.81090E-05-2.80809E-05 4.99317E-07-6.15119E-19-1.78637E-18
 -1       192 9.39800E-05-2.82097E-05-2.81876E-05 4.38271E-07-4.63525E-20-1.85913E-18
 -1       193 9.43014E-05-2.83005E-05-2.82862E-05 3.94490E-07-2.17138E-19-2.15285E-18
 -1       194 9.46073E-05-2.83854E-05-2.83807E-05 3.73547E-07-5.86239E-19-2.21265E-18
 -1       195 9.49152E-05-2.84697E-05-2.84761E-05 3.80443E-07-1.51196E-19-2.39681E-18
 -1       196 9.52465E-05-2.85598E-05-2.85792E-05 4.20120E-07 2.94384E-19-2.26925E-18
 -1       197 9.56272E-05-2.86632E-05-2.86975E-05 4.97736E-07 8.20270E-20-2.36963E-18
 -1       198 9.60865E-05-2.87888E-05-2.88400E-05 6.18664E-07-7.25174E-19-2.20911E-18
 -1       199 9.66577E-05-2.89465E-05-2.90167E-05 7.88103E-07-1.37105E-19-2.33376E-18
 -1       200 9.73766E-05-2.91475E-05-2.92382E-05 1.01014E-06 6.29083E-19-2.43023E-18
 -1       201 9.82801E-05-2.94038E-05-2.95152E-05 1.28596E-06-4.07411E-19-2.28517E-18
 -1       202 9.94026E-05-2.97278E-05-2.98573E-05 1.61076E-06-2.59669E-19-1.96042E-18
 -1       203 1.00770E-04-3.01311E-05-3.02710E-05 1.96886E-06-4.05502E-19-1.54847E-18
 -1       204 1.02391E-04-3.06222E-05-3.07562E-05 2.32638E-06-4.11737E-19-2.05829E-18
 -1       205 1.04241E-04-3.12034E-05-3.13019E-05 2.62136E-06 6.68511E-20-1.64702E-18
 -1       206 1.06242E-04-3.18645E-05-3.18796E-05 2.75274E-06 5.77938E-20-2.41977E-18
 -1       207 1.08243E-04-3.25740E-05-3.24369E-05 2.57313E-06 7.62365E-19-2.44902E-18
 -1       208 1.09989E-04-3.32649E-05-3.28932E-05 1.89777E-06 5.20148E-19-1.77776E-18
 -1       209 1.11119E-04-3.38164E-05-3.31432E-05 5.51517E-07-4.16573E-19-1.00894E-18
 -1       210 1.11190E-04-3.40404E-05-3.30768E-05-1.51984E-06-3.60846E-19-1.52487E-18
 -1       211 1.09796E-04-3.36984E-05-3.26210E-05-4.07278E-06 9.57974E-20-1.26560E-18
 -1       212 1.06782E-04-3.25944E-05-3.17950E-05-6.40712E-06-2.91623E-19-5.51997E-19
 -1       213 1.02543E-04-3.07721E-05-3.07526E-05-7.43120E-06-2.98143E-19 7.19181E-19
 -1       214 9.81943E-05-2.87162E-05-2.97675E-05-6.17415E-06-2.96816E-19-5.43980E-19
 -1       215 9.52989E-05-2.72885E-05-2.91394E-05-2.60737E-06 4.07929E-19-2.63694E-19
 -1       216 9.50455E-05-2.72126E-05-2.90638E-05 1.94748E-06 5.88741E-19-1.80285E-18
 -1       217 9.74312E-05-2.84888E-05-2.95392E-05 5.50964E-06 7.57049E-19-1.76080E-19
 -1       218 1.01264E-04-3.03977E-05-3.03659E-05 6.74586E-06-8.02018E-19-1.01826E-18
 -1       219 1.04964E-04-3.20708E-05-3.12403E-05 5.66425E-06-1.11027E-18-2.57314E-18
 -1       220 1.07388E-04-3.30079E-05-3.18850E-05 3.23391E-06-1.13317E-18-2.76303E-18
 -1       221 1.08126E-04-3.31556E-05-3.21431E-05 5.66044E-07 3.39697E-19-2.55487E-18
 -1       222 1.07339E-04-3.27083E-05-3.19976E-05-1.60424E-06 1.06983E-19-2.78459E-18
 -1       223 1.05466E-04-3.19108E-05-3.15328E-05-2.98843E-06 8.96110E-20-2.17858E-18
 -1       224 1.03009E-04-3.09636E-05-3.08805E-05-3.58037E-06 2.22610E-19-1.20770E-18
 -1       225 1.00428E-04-3.00068E-05-3.01799E-05-3.47290E-06 3.81183E-19-2.04317E-18
 -1       226 9.81033E-05-2.91342E-05-2.95548E-05-2.75150E-06 1.81003E-18-3.37047E-18
 -1       227 9.62766E-05-2.84244E-05-2.90762E-05-1.51284E-06 1.26228E-18-1.70433E-18
 -1       228 9.94897E-05-2.85511E-05-3.05839E-05 7.21514E-06 2.06636E-18 5.92292E-18
 -1       229 9.44026E-05-2.77866E-05-2.85203E-05 2.74758E-06 1.50467E-18 4.48702E-18
 -1       230 9.20796E-05-2.73960E-05-2.76765E-05 9.33886E-07 1.18172E-18 3.20668E-18
 -1       231 9.11277E-05-2.72325E-05-2.73567E-05 7.21938E-08 7.61166E-19 2.43112E-18
 -1       232 9.09126E-05-2.72244E-05-2.72814E-05-3.55250E-07 5.31804E-19 1.85222E-18
 -1       233 9.10925E-05-2.73092E-05-2.73290E-05-5.55699E-07 2.95963E-19 1.33628E-18
 -1       234 9.14727E-05-2.74411E-05-2.74386E-05-6.28805E-07 4.01470E-19 1.12545E-18
 -1       235 9.19391E-05-2.75911E-05-2.75757E-05-6.28909E-07 8.23323E-19 9.53015E-19
 -1       236 9.24247E-05-2.77419E-05-2.77201E-05-5.88767E-07 5.87952E-19 2.80278E-19
 -1       237 9.28920E-05-2.78838E-05-2.78601E-05-5.29398E-07 1.60907E-19 1.39477E-19
 -1       238 9.33225E-05-2.80124E-05-2.79898E-05-4.64828E-07 1.97883E-19-1.60173E-19
 -1       239 9.37110E-05-2.81268E-05-2.81074E-05-4.04723E-07 3.05035E-19-3.81960E-19
 -1       240 9.40614E-05-2.82286E-05-2.82140E-05-3.56029E-07 7.06729E-19-7.35048E-19
 -1       241 9.43845E-05-2.83212E-05-2.83127E-05-3.24103E-07 2.50258E-19-8.44624E-19
 -1       242 9.46965E-05-2.84095E-05-2.84084E-05-3.13536E-07 5.26972E-20-7.11229E-19
 -1       243 9.50183E-05-2.84999E-05-2.85074E-05-3.28769E-07-4.03675E-19-1.53056E-18
 -1       244 9.53756E-05-2.85998E-05-2.86175E-05-3.74550E-07 9.59671E-19-1.20789E-18
 -1       245 9.57988E-05-2.87182E-05-2.87479E-05-4.56232E-07 6.71807E-19-1.99527E-18
 -1       246 9.63234E-05-2.88654E-05-2.89093E-05-5.79870E-07-7.22249E-19-1.85528E-18
 -1       247 9.69902E-05-2.90537E-05-2.91141E-05-7.52040E-07-1.36769E-18-1.81468E-18
 -1       248 9.78451E-05-2.92968E-05-2.93761E-05-9.79182E-07-3.95431E-19-1.23786E-18
 -1       249 9.89376E-05-2.96101E-05-2.97101E-05-1.26615E-06 7.04458E-19-1.02137E-18
 -1       250 1.00318E-04-3.00098E-05-3.01306E-05-1.61339E-06 8.32657E-20-1.79841E-18
 -1       251 1.02030E-04-3.05117E-05-3.06496E-05-2.01192E-06-4.33010E-19-1.49508E-18
 -1       252 1.04098E-04-3.11287E-05-3.12728E-05-2.43485E-06-4.96825E-19-9.19211E-19
 -1       253 1.06509E-04-3.18658E-05-3.19920E-05-2.82438E-06 4.71992E-19-2.40159E-19
 -1       254 1.09179E-04-3.27123E-05-3.27756E-05-3.07432E-06 4.00530E-19-1.17665E-19
 -1       255 1.11913E-04-3.36284E-05-3.35559E-05-3.01261E-06-1.09022E-18 2.22958E-20
 -1       256 1.14358E-04-3.45258E-05-3.42177E-05-2.39928E-06 5.21868E-20 1.16305E-18
 -1       257 1.15977E-04-3.52413E-05-3.45988E-05-9.73392E-07-1.01440E-18-1.69871E-19
 -1       258 1.16091E-04-3.55147E-05-3.45202E-05 1.39891E-06-1.19176E-18 5.87260E-19
 -1       259 1.14072E-04-3.50137E-05-3.38606E-05 4.44762E-06-5.71105E-19 1.78321E-18
 -1       260 1.09743E-04-3.34846E-05-3.26645E-05 7.21544E-06 7.33951E-19 2.72494E-18
 -1       261 1.03894E-04-3.10703E-05-3.12180E-05 8.14982E-06 9.61928E-20 3.04078E-19
 -1       262 9.84833E-05-2.86002E-05-2.99939E-05 5.97852E-06 1.94669E-18 2.67133E-19
 -1       263 9.59128E-05-2.73527E-05-2.94419E-05 1.08630E-06 7.60880E-19-4.38203E-19
 -1       264 9.74059E-05-2.80599E-05-2.97563E-05-4.20426E-06-4.43223E-19-1.72263E-18
 -1       265 1.02035E-04-3.02349E-05-3.07689E-05-7.26783E-06 2.04550E-18-1.44158E-18
 -1       266 1.07443E-04-3.26200E-05-3.20407E-05-7.11172E-06-7.87105E-19-1.11325E-18
 -1       267 1.11478E-04-3.42068E-05-3.30905E-05-4.64100E-06-9.91958E-19-1.75786E-19
 -1       268 1.13148E-04-3.47017E-05-3.36078E-05-1.45543E-06 9.65402E-19-9.55641E-19
 -1       269 1.12530E-04-3.43109E-05-3.35233E-05 1.26393E-06-7.98716E-19-1.98657E-18
 -1       270 1.10247E-04-3.33833E-05-3.29483E-05 3.04370E-06 1.60359E-18-1.61277E-18
 -1       271 1.07034E-04-3.22157E-05-3.20717E-05 3.88853E-06 1.43991E-18-3.80200E-18
 -1       272 1.03539E-04-3.10118E-05-3.10878E-05 3.97660E-06 3.03159E-19-3.95857E-18
 -1       273 1.00273E-04-2.99017E-05-3.01646E-05 3.46715E-06 1.12230E-18-2.36829E-18
 -1       274 9.76350E-05-2.89711E-05-2.94319E-05 2.42945E-06 6.57135E-19-3.01616E-18
 -1       275 9.58754E-05-2.83692E-05-2.89264E-05 9.82602E-07-6.72452E-19-2.81480E-18
 -1       276 9.53553E-05-2.72364E-05-2.91871E-05 1.88338E-06 1.89661E-19 3.27559E-18
 -1       277 9.45584E-05-2.51548E-05-2.97408E-05 3.27887E-06-5.29300E-19 1.84099E-18
 -1       278 9.35477E-05-2.24779E-05-3.04570E-05 4.09563E-06-6.70026E-19 2.54762E-18
 -1       279 9.24795E-05-1.95440E-05-3.12599E-05 4.24343E-06 8.38844E-20-2.49115E-18
 -1       280 9.14841E-05-1.67909E-05-3.20178E-05 3.76329E-06-5.68263E-19-3.61022E-18
 -1       281 9.06614E-05-1.45212E-05-3.26416E-05 2.71240E-06-1.03643E-18-8.79190E-19
 -1       282 9.01601E-05-1.31347E-05-3.30233E-05 1.24792E-06-1.16008E-18-1.06504E-18
 -1       283 9.00616E-05-1.28408E-05-3.31074E-05-3.91775E-07-7.83193E-19 1.35502E-18
 -1       284 9.03752E-05-1.36686E-05-3.28858E-05-1.93315E-06-1.73630E-18-1.63025E-18
 -1       285 9.10359E-05-1.54619E-05-3.23974E-05-3.13536E-06-2.92715E-18-2.64011E-18
 -1       286 9.19074E-05-1.78775E-05-3.17315E-05-3.83741E-06-2.90521E-18-8.45585E-20
 -1       287 9.28890E-05-2.06424E-05-3.09630E-05-4.00920E-06-1.70793E-18 2.18873E-18
 -1       288 9.38450E-05-2.33529E-05-3.02077E-05-3.65038E-06-5.84853E-19 2.86409E-18
 -1       289 9.47070E-05-2.57033E-05-2.95662E-05-2.76651E-06 9.48321E-19-1.67901E-19
 -1       290 9.55126E-05-2.71950E-05-2.92700E-05-2.40359E-06 9.98544E-19-2.10251E-19
 -1       291 1.25456E-05-4.84623E-05 1.21546E-05 7.24970E-06 3.11073E-18-1.67575E-18
 -1       292 2.76682E-05-4.40322E-05 4.53400E-06 2.37308E-05 2.37762E-18-6.31410E-19
 -1       293 5.44238E-05-3.90990E-05-8.26123E-06 3.51501E-05-1.26208E-19-2.79897E-18
 -1       294 9.12805E-05-3.49820E-05-2.45779E-05 4.38293E-05-1.80799E-18 7.93246E-19
 -1       295 1.39653E-04-3.92654E-05-4.22895E-05 3.74490E-05 3.49083E-19-2.51315E-18
 -1       296 1.77779E-04-3.30876E-05-5.94227E-05 3.85856E-05-2.32208E-19-4.00477E-18
 -1       297 2.03142E-04-3.44104E-05-6.90175E-05 1.87409E-05 1.07848E-18-5.45892E-18
 -1       298 2.09889E-04-3.49778E-05-7.15162E-05-2.54707E-06 2.89177E-18-7.25447E-18
 -1       299 1.89869E-04-3.22831E-05-6.50420E-05-1.95522E-05 2.49155E-18-6.83429E-18
 -1       300 1.61905E-04-3.27856E-05-5.33286E-05-4.22434E-05 2.76710E-18-8.31596E-18
 -1       301 1.16507E-04-3.05729E-05-3.63102E-05-4.65111E-05 4.67329E-18-6.22633E-18
 -1       302 7.24339E-05-3.31369E-05-1.79560E-05-3.97189E-05 6.02537E-18-3.60720E-18
 -1       303 3.96048E-05-3.99391E-05-2.25239E-06-2.75410E-05 5.98768E-18-3.13212E-18
 -1       304 1.94499E-05-4.52996E-05 8.15864E-06-1.58603E-05 3.83833E-18-3.44869E-18
 -1       305 1.01862E-05-4.55963E-05 1.22364E-05-1.65249E-06 2.35045E-18-3.07738E-18
 -1       306 1.59968E-05-4.60740E-05 9.91671E-06 1.31547E-05-4.34316E-19-6.06454E-18
 -1       307 3.82485E-05-4.11008E-05-5.59834E-07 3.11049E-05-2.35877E-18-4.09411E-18
 -1       308 6.46229E-05-3.34569E-05-1.46943E-05 3.82201E-05-4.90686E-18-2.40790E-18
 -1       309 1.08041E-04-2.85381E-05-3.37576E-05 4.73198E-05-3.83473E-18-5.70752E-18
 -1       310 1.57279E-04-3.09857E-05-5.21335E-05 4.48066E-05-2.83862E-18-5.73738E-18
 -1       311 1.87498E-04-3.17992E-05-6.43117E-05 2.14612E-05-3.23249E-18-2.28339E-18
 -1       312 2.08469E-04-3.47103E-05-7.10907E-05 4.13354E-06-4.18900E-18-3.63110E-18
 -1       313 2.06559E-04-3.60847E-05-6.94984E-05-1.97624E-05-5.14085E-18-2.04114E-18
 -1       314 1.75234E-04-3.25033E-05-5.89420E-05-3.33795E-05-2.20258E-18 1.57972E-18
 -1       315 1.36837E-04-3.19099E-05-4.38098E-05-4.53307E-05-4.64280E-19 4.98458E-18
 -1       316 9.10058E-05-3.10872E-05-2.59835E-05-4.50834E-05 7.18919E-19 4.70760E-18
 -1       317 5.47329E-05-3.82898E-05-8.71869E-06-3.55807E-05 8.55292E-19 2.01933E-18
 -1       318 2.72121E-05-4.45225E-05 4.71824E-06-2.25207E-05 2.61500E-18 8.10028E-19
 -1       319 1.28343E-05-4.87192E-05 1.21064E-05-7.98579E-06 4.75143E-18-6.73391E-19
 -1       320 9.16273E-05-1.44444E-05-3.31562E-05-1.29891E-05-2.74794E-18-1.82092E-18
 -1       321 9.57022E-05-1.91090E-05-3.28883E-05-1.46432E-05-2.93775E-18-1.23852E-19
 -1       322 8.80079E-05-1.03779E-05-3.33253E-05-8.16044E-06-1.67144E-18-3.58735E-18
 -1       323 8.71984E-05-9.45871E-06-3.33656E-05-5.72280E-06-1.14977E-18-3.90835E-18
 -1       324 8.67415E-05-8.92982E-06-3.33929E-05-3.36995E-06-5.73031E-19-3.98845E-18
 -1       325 8.65379E-05-8.69052E-06-3.34067E-05-1.07353E-06 1.59801E-21-3.95083E-18
 -1       326 8.65466E-05-8.70005E-06-3.34064E-05 1.20454E-06 4.50390E-19-3.96171E-18
 -1       327 8.67689E-05-8.96045E-06-3.33917E-05 3.50309E-06 8.92996E-19-3.83359E-18
 -1       328 8.72382E-05-9.50348E-06-3.33636E-05 5.81978E-06 1.38948E-18-3.65632E-18
 -1       329 8.80733E-05-1.04534E-05-3.33210E-05 8.26052E-06 1.97461E-18-3.00227E-18
 -1       330 8.94834E-05-1.20345E-05-3.32590E-05 1.07704E-05 2.50868E-18-2.30067E-18
 -1       331 9.18983E-05-1.47216E-05-3.31569E-05 1.31760E-05 2.98185E-18-1.21911E-18
 -1       332 9.57971E-05-1.94552E-05-3.28258E-05 1.43823E-05 3.10883E-18 9.11527E-19
 -1       333 9.87819E-05-2.44414E-05-3.19484E-05 1.19036E-05 2.82967E-18 2.90899E-18
 -1       334 9.63793E-05-2.68093E-05-2.97862E-05 5.74715E-06 2.18621E-18 2.11796E-18
 -1       335 9.64266E-05-2.60253E-05-3.01275E-05-6.35209E-06-2.29207E-18 2.21387E-19
 -1       336 9.49077E-05-2.70266E-05-2.90666E-05-2.84246E-06-1.69774E-18 1.53020E-20
 -1       337 9.39288E-05-2.74220E-05-2.84884E-05-9.30415E-07-1.15220E-18-3.24990E-19
 -1       338 9.34082E-05-2.76342E-05-2.81822E-05 1.28861E-07-9.39960E-19-7.00184E-19
 -1       339 9.32146E-05-2.77864E-05-2.80379E-05 6.93554E-07-7.46211E-19-8.19426E-19
 -1       340 9.32308E-05-2.79147E-05-2.79916E-05 9.62768E-07-6.99209E-19-8.57566E-19
 -1       341 9.33706E-05-2.80280E-05-2.80039E-05 1.05436E-06-5.71294E-19-7.27178E-19
 -1       342 9.35757E-05-2.81277E-05-2.80495E-05 1.04231E-06-6.97299E-19-8.71856E-19
 -1       343 9.38087E-05-2.82136E-05-2.81127E-05 9.75211E-07-1.09937E-18-1.15647E-18
 -1       344 9.40476E-05-2.82862E-05-2.81841E-05 8.86014E-07-5.02002E-19-1.34741E-18
 -1       345 9.42817E-05-2.83466E-05-2.82584E-05 7.97714E-07-3.27062E-19-1.32056E-18
 -1       346 9.45082E-05-2.83968E-05-2.83339E-05 7.26936E-07 3.09960E-20-7.02794E-19
 -1       347 9.47304E-05-2.84393E-05-2.84106E-05 6.86369E-07-6.74315E-19-2.64881E-19
 -1       348 9.49563E-05-2.84773E-05-2.84909E-05 6.86467E-07-5.44994E-19-9.25939E-19
 -1       349 9.51975E-05-2.85144E-05-2.85780E-05 7.36620E-07-7.72244E-20-1.22979E-18
 -1       350 9.54690E-05-2.85549E-05-2.86766E-05 8.45879E-07 1.83518E-19-1.46228E-18
 -1       351 9.57887E-05-2.86042E-05-2.87921E-05 1.02321E-06-2.06336E-19-1.69857E-18
 -1       352 9.61772E-05-2.86685E-05-2.89305E-05 1.27717E-06-2.32693E-19-1.12475E-18
 -1       353 9.66570E-05-2.87559E-05-2.90982E-05 1.61487E-06 1.93534E-19-1.38437E-18
 -1       354 9.72528E-05-2.88770E-05-2.93012E-05 2.03979E-06 4.50723E-19-1.95153E-18
 -1       355 9.79895E-05-2.90454E-05-2.95444E-05 2.54816E-06 6.67125E-19-6.30124E-19
 -1       356 9.88915E-05-2.92799E-05-2.98304E-05 3.12307E-06-1.54062E-19 2.00566E-19
 -1       357 9.99802E-05-2.96055E-05-3.01578E-05 3.72584E-06-8.47975E-19-5.39299E-19
 -1       358 1.01271E-04-3.00558E-05-3.05189E-05 4.28406E-06-1.33361E-19-1.09797E-18
 -1       359 1.02767E-04-3.06723E-05-3.08982E-05 4.67716E-06 6.69488E-20-1.19940E-18
 -1       360 1.04454E-04-3.14988E-05-3.12705E-05 4.72303E-06 5.94259E-19-3.75715E-19
 -1       361 1.06282E-04-3.25618E-05-3.16028E-05 4.17550E-06 2.26640E-19-1.74194E-18
 -1       362 1.08132E-04-3.38237E-05-3.18602E-05 2.75346E-06 6.74687E-19-2.50632E-18
 -1       363 1.09771E-04-3.51016E-05-3.20190E-05 2.36410E-07-8.21713E-19-1.93050E-18
 -1       364 1.10797E-04-3.59733E-05-3.20847E-05-3.33469E-06 1.02783E-18-2.16528E-19
 -1       365 1.10659E-04-3.57804E-05-3.21036E-05-7.36354E-06 4.29990E-19 8.42556E-19
 -1       366 1.08907E-04-3.39126E-05-3.21448E-05-1.04838E-05 2.16412E-19 8.20592E-19
 -1       367 1.05733E-04-3.04786E-05-3.22472E-05-1.08444E-05-7.53509E-19 1.32632E-18
 -1       368 1.02419E-04-2.68767E-05-3.23639E-05-7.23856E-06 1.79975E-19 1.93627E-18
 -1       369 1.00877E-04-2.52802E-05-3.23867E-05-5.77495E-07-5.65262E-19 2.08773E-18
 -1       370 1.02049E-04-2.67683E-05-3.22566E-05 6.07892E-06 8.56565E-19 1.44105E-18
 -1       371 1.04999E-04-3.02761E-05-3.20217E-05 9.67507E-06-4.37880E-19-1.83248E-18
 -1       372 1.07827E-04-3.36494E-05-3.17942E-05 9.26071E-06-5.98381E-19 4.54115E-19
 -1       373 1.09211E-04-3.54486E-05-3.16254E-05 6.01827E-06-1.66606E-18 1.10459E-19
 -1       374 1.08941E-04-3.55382E-05-3.14769E-05 1.82505E-06-1.01533E-18-7.38956E-19
 -1       375 1.07459E-04-3.45110E-05-3.12820E-05-1.90350E-06 1.17263E-18-1.46917E-18
 -1       376 1.05332E-04-3.30222E-05-3.10035E-05-4.50998E-06 9.11343E-19-2.22685E-19
 -1       377 1.02983E-04-3.14852E-05-3.06488E-05-5.87996E-06-7.00229E-20 8.08234E-19
 -1       378 1.00672E-04-3.00707E-05-3.02580E-05-6.14113E-06-1.57574E-18 1.27852E-18
 -1       379 9.85516E-05-2.88073E-05-2.98848E-05-5.47094E-06 1.19998E-19 3.78822E-19
 -1       380 9.69272E-05-2.78985E-05-2.95738E-05-4.14671E-06 1.91686E-18 2.48529E-19
 -1       381 9.43572E-05-2.73375E-05-2.86845E-05 2.47531E-06 1.71521E-18 1.50788E-18
 -1       382 9.31483E-05-2.74565E-05-2.81318E-05 7.50857E-07 1.19924E-18 9.86792E-19
 -1       383 9.25917E-05-2.75334E-05-2.78722E-05-1.69723E-07 8.13280E-19 3.69080E-19
 -1       384 9.24472E-05-2.76249E-05-2.77768E-05-6.45156E-07 5.20291E-19 1.03292E-19
 -1       385 9.25475E-05-2.77331E-05-2.77760E-05-8.63682E-07 5.02538E-19-5.62877E-20
 -1       386 9.27818E-05-2.78482E-05-2.78283E-05-9.30767E-07 9.81047E-19-1.13630E-19
 -1       387 9.30794E-05-2.79614E-05-2.79079E-05-9.10551E-07 7.61719E-19-2.42642E-20
 -1       388 9.33970E-05-2.80669E-05-2.79991E-05-8.44271E-07 1.74743E-19-8.31584E-20
 -1       389 9.37100E-05-2.81616E-05-2.80928E-05-7.59511E-07 5.46360E-19-2.44616E-19
 -1       390 9.40070E-05-2.82449E-05-2.81843E-05-6.75321E-07 2.55002E-19-2.93878E-19
 -1       391 9.42861E-05-2.83181E-05-2.82725E-05-6.05367E-07 1.02591E-18-7.53991E-19
 -1       392 9.45522E-05-2.83834E-05-2.83583E-05-5.60051E-07 2.27877E-19-5.32125E-19
 -1       393 9.48156E-05-2.84444E-05-2.84447E-05-5.48016E-07 3.91380E-20-3.63587E-19
 -1       394 9.50910E-05-2.85056E-05-2.85362E-05-5.77257E-07 2.83453E-19-5.80992E-19
 -1       395 9.53972E-05-2.85721E-05-2.86385E-05-6.55915E-07 6.85905E-19-1.41276E-18
 -1       396 9.57570E-05-2.86503E-05-2.87586E-05-7.92767E-07 9.61338E-19-6.49946E-19
 -1       397 9.61968E-05-2.87477E-05-2.89048E-05-9.97371E-07-3.82260E-19-8.47994E-19
 -1       398 9.67468E-05-2.88730E-05-2.90862E-05-1.27973E-06-1.01702E-18-1.24690E-18
 -1       399 9.74408E-05-2.90369E-05-2.93128E-05-1.64921E-06-8.84582E-19-1.28543E-18
 -1       400 9.83147E-05-2.92520E-05-2.95945E-05-2.11223E-06 5.45631E-19-1.56634E-18
 -1       401 9.94053E-05-2.95342E-05-2.99406E-05-2.66796E-06 3.22283E-19-1.06522E-18
 -1       402 1.00746E-04-2.99029E-05-3.03572E-05-3.30100E-06-7.14131E-19-1.25290E-18
 -1       403 1.02363E-04-3.03826E-05-3.08450E-05-3.96937E-06-1.03307E-18-8.71710E-19
 -1       404 1.04261E-04-3.10040E-05-3.13944E-05-4.58679E-06-2.32204E-19-5.71350E-19
 -1       405 1.06419E-04-3.18026E-05-3.19803E-05-4.99936E-06 5.71138E-19 8.00750E-19
 -1       406 1.08760E-04-3.28099E-05-3.25572E-05-4.96284E-06-1.02701E-18 1.76052E-18
 -1       407 1.11129E-04-3.40256E-05-3.30577E-05-4.13935E-06-2.25360E-19 2.17090E-18
 -1       408 1.13246E-04-3.53546E-05-3.34009E-05-2.15484E-06 3.32632E-19 2.22251E-18
 -1       409 1.14655E-04-3.64974E-05-3.35172E-05 1.21586E-06-8.22615E-19 7.18128E-19
 -1       410 1.14726E-04-3.68565E-05-3.33899E-05 5.67916E-06-4.34630E-19 1.43749E-19
 -1       411 1.12853E-04-3.56638E-05-3.30894E-05 9.98307E-06-4.08693E-19 7.17917E-19
 -1       412 1.09027E-04-3.25926E-05-3.27610E-05 1.18980E-05 9.50278E-19 1.60792E-18
 -1       413 1.04534E-04-2.86425E-05-3.25311E-05 9.30700E-06 1.80017E-18 1.90164E-18
 -1       414 1.01863E-04-2.62373E-05-3.24207E-05 2.36082E-06 1.12913E-18 3.11458E-18
 -1       415 1.02718E-04-2.71247E-05-3.23973E-05-5.58943E-06 2.16066E-19 1.60522E-18
 -1       416 1.06349E-04-3.05829E-05-3.24623E-05-1.03751E-05 1.37663E-18 1.40007E-18
 -1       417 1.10304E-04-3.41880E-05-3.26197E-05-1.02812E-05-1.10402E-18 2.66199E-18
 -1       418 1.12606E-04-3.61459E-05-3.27828E-05-6.62881E-06-1.45481E-19 1.06063E-18
 -1       419 1.12751E-04-3.62452E-05-3.28130E-05-1.85709E-06 5.44685E-19-2.31819E-19
 -1       420 1.11209E-04-3.51702E-05-3.26132E-05 2.24689E-06 1.57810E-19 4.84235E-19
 -1       421 1.08674E-04-3.36404E-05-3.21763E-05 4.96017E-06 1.15128E-18 1.57628E-19
 -1       422 1.05718E-04-3.20856E-05-3.15668E-05 6.27132E-06 1.87343E-18 1.04073E-18
 -1       423 1.02736E-04-3.06750E-05-3.08848E-05 6.43502E-06 5.00377E-19 8.21853E-19
 -1       424 9.99843E-05-2.94339E-05-3.02315E-05 5.70684E-06 1.88527E-19 6.73775E-19
 -1       425 9.76310E-05-2.83588E-05-2.96813E-05 4.25554E-06 6.67522E-19 2.85260E-18
 -1       426 9.63645E-05-2.77053E-05-2.94181E-05 3.16154E-06 5.29340E-19 3.96070E-18
 -1       427 9.35405E-05-2.24172E-05-3.04796E-05 7.09993E-06-9.63307E-19-7.38807E-21
 -1       428 9.49367E-05-2.47472E-05-3.00725E-05 6.40443E-06 1.11173E-19 3.00977E-18
 -1       429 9.57777E-05-2.63183E-05-2.97572E-05 4.96674E-06-1.74587E-19 1.87679E-18
 -1       430 9.21666E-05-2.01120E-05-3.08847E-05 6.79874E-06-9.27914E-19-4.07100E-18
 -1       431 9.09093E-05-1.80186E-05-3.12479E-05 5.50590E-06-3.71024E-19-1.30496E-18
 -1       432 8.99917E-05-1.64998E-05-3.15087E-05 3.36524E-06-1.98420E-20-5.49506E-19
 -1       433 8.95912E-05-1.58201E-05-3.16297E-05 7.06812E-07-1.88306E-18-8.76335E-19
 -1       434 8.97849E-05-1.60963E-05-3.15937E-05-2.01976E-06-3.03788E-18-3.35748E-19
 -1       435 9.05155E-05-1.72580E-05-3.14066E-05-4.35812E-06-2.09656E-18-3.36535E-18
 -1       436 9.15894E-05-1.90363E-05-3.11007E-05-5.94585E-06-1.71061E-18-1.69692E-18
 -1       437 9.28352E-05-2.11854E-05-3.07090E-05-6.67792E-06-9.57056E-20 4.53165E-18
 -1       438 9.40704E-05-2.33877E-05-3.02892E-05-6.53029E-06 1.56359E-18 2.52337E-18
 -1       439 9.51974E-05-2.54247E-05-2.98930E-05-5.62350E-06 1.08475E-19 1.71366E-18
 -1       440 5.83736E-05-4.30820E-05-6.73898E-06 4.26665E-05 7.52377E-19-4.59343E-18
 -1       441 1.31814E-05-2.20102E-05 3.77685E-06-6.55807E-07 2.06092E-18-1.51862E-18
 -1       442 2.59957E-05-2.71678E-05 5.55071E-07 2.73731E-05 6.90014E-19-1.74658E-18
 -1       443 9.93642E-05-5.48755E-05-1.90742E-05 4.17045E-05-2.70384E-18-1.69830E-18
 -1       444 1.29021E-04-5.64707E-05-3.12488E-05 2.86346E-05-1.87057E-18-1.44260E-18
 -1       445 8.93631E-05-1.18978E-05-3.32656E-05-1.06543E-05-2.24870E-18-2.96586E-18
 -1       446 1.55911E-04-2.55078E-05-5.60297E-05-3.03390E-06 1.94415E-18-2.90130E-18
 -1       447 1.59333E-04-1.38674E-05-6.22153E-05-4.62428E-07 1.73695E-18-4.21484E-18
 -1       448 1.54733E-04-1.45942E-05-6.01097E-05 4.56640E-06 1.84801E-18-3.94124E-18
 -1       449 1.54556E-04-3.43250E-05-5.17033E-05 2.70201E-06 5.19602E-19-3.94040E-18
 -1       450 1.49185E-04-4.92131E-05-4.27889E-05-1.17804E-05 4.35163E-19-4.31616E-18
 -1       451 1.19991E-04-5.56940E-05-2.76262E-05-3.31079E-05 3.08267E-18-2.87123E-18
 -1       452 8.03657E-05-4.91917E-05-1.35533E-05-4.26686E-05 2.68912E-18-1.13171E-18
 -1       453 4.49545E-05-3.63508E-05-3.76296E-06-3.84817E-05 1.74404E-18-2.99733E-18
 -1       454 1.74320E-05-2.52277E-05 3.14715E-06-1.79124E-05 1.10342E-18-3.58909E-18
 -1       455 1.35434E-05-2.45166E-05 4.38567E-06 1.15747E-05 5.45383E-19-5.46432E-18
 -1       456 3.30619E-05-3.17320E-05-7.03585E-07 3.33504E-05-2.98579E-19-5.89895E-18
 -1       457 7.77321E-05-4.79770E-05-1.27777E-05 4.38315E-05-1.49046E-18-1.39301E-18
 -1       458 1.12045E-04-5.36875E-05-2.51243E-05 3.67334E-05-1.39676E-18-2.31044E-18
 -1       459 1.43012E-04-4.78119E-05-4.06697E-05 2.11385E-05-1.13799E-18-1.43900E-18
 -1       460 1.55926E-04-3.41587E-05-5.21060E-05 2.60476E-06-1.90307E-18 8.73079E-19
 -1       461 1.55310E-04-1.50969E-05-6.00927E-05-3.55773E-06-2.82062E-18 1.40300E-18
 -1       462 1.61457E-04-1.42683E-05-6.28006E-05-2.72417E-07-3.98804E-18-7.62171E-19
 -1       463 1.58634E-04-2.30043E-05-5.79308E-05 1.81646E-07-3.10480E-18-4.03061E-18
 -1       464 1.51632E-04-4.29968E-05-4.65972E-05-8.41084E-06-4.27090E-19-2.44030E-18
 -1       465 1.33489E-04-5.59768E-05-3.32553E-05-2.63122E-05 1.18945E-18 3.15912E-18
 -1       466 1.00809E-04-5.41897E-05-2.00004E-05-4.18350E-05 1.41423E-18 4.30467E-18
 -1       467 5.75944E-05-4.28468E-05-6.56695E-06-4.30354E-05 4.81962E-19 2.70743E-18
 -1       468 2.53103E-05-2.97979E-05 1.69694E-06-2.78072E-05 3.91117E-19 2.67122E-18
 -1       469 1.51805E-04-4.29406E-05-4.68653E-05 3.51817E-06 6.84958E-19-2.43342E-18
 -1       470 1.44719E-04-5.69544E-05-3.77118E-05 5.79372E-06 4.67953E-20-4.09069E-18
 -1       471 6.42624E-05-3.92716E-05-1.03187E-05 4.27419E-05 6.37392E-19-2.26401E-18
 -1       472 9.58120E-05-2.51467E-05-3.02709E-05 6.02589E-06 2.18218E-18-2.41768E-20
 -1       473 8.95513E-05-1.34071E-05-3.26523E-05-3.92878E-06-8.63712E-19-3.60850E-18
 -1       474 9.02543E-05-1.43683E-05-3.25438E-05-5.89055E-06-1.31313E-18-3.41475E-18
 -1       475 8.90568E-05-1.27284E-05-3.27300E-05 5.46009E-08 1.21566E-19-3.55517E-18
 -1       476 8.91912E-05-1.29115E-05-3.27094E-05 2.04790E-06 5.98739E-19-3.56872E-18
 -1       477 8.95838E-05-1.34481E-05-3.26487E-05 4.00254E-06 1.09434E-18-3.36521E-18
 -1       478 9.03043E-05-1.44336E-05-3.25371E-05 5.95822E-06 1.70186E-18-2.91583E-18
 -1       479 9.14476E-05-1.60105E-05-3.23533E-05 7.78740E-06 2.12647E-18-2.35927E-18
 -1       480 9.32308E-05-1.84794E-05-3.20565E-05 9.30322E-06 2.46084E-18-1.54921E-18
 -1       481 9.51033E-05-2.65755E-05-2.93511E-05 2.88315E-06 1.77320E-18-2.92202E-19
 -1       482 9.54716E-05-2.44299E-05-3.04371E-05-5.83759E-06-2.10960E-18-1.14161E-18
 -1       483 5.43608E-05-3.30792E-05-8.64696E-06 3.93586E-05-7.98276E-19-3.59862E-18
 -1       484 9.52688E-05-2.62287E-05-2.95819E-05-2.90441E-06-1.56013E-18-1.02481E-18
 -1       485 9.49109E-05-2.71601E-05-2.90323E-05-1.04075E-06-1.26927E-18-1.07405E-18
 -1       486 9.46342E-05-2.76902E-05-2.86887E-05 8.27041E-08-8.94487E-19-9.11788E-19
 -1       487 9.44780E-05-2.80146E-05-2.84837E-05 7.20181E-07-8.30895E-19-1.07730E-18
 -1       488 9.44241E-05-2.82234E-05-2.83716E-05 1.04321E-06-8.04848E-19-1.19549E-18
 -1       489 9.44426E-05-2.83604E-05-2.83211E-05 1.16819E-06-6.60623E-19-1.34947E-18
 -1       490 9.45071E-05-2.84491E-05-2.83109E-05 1.17477E-06-9.10979E-19-1.67053E-18
 -1       491 9.45983E-05-2.85034E-05-2.83267E-05 1.11822E-06-6.88087E-19-1.11367E-18
 -1       492 9.47034E-05-2.85322E-05-2.83594E-05 1.03747E-06-1.20663E-19-4.18410E-19
 -1       493 9.48156E-05-2.85417E-05-2.84033E-05 9.60509E-07 2.97770E-19-2.21427E-19
 -1       494 9.49325E-05-2.85361E-05-2.84557E-05 9.08169E-07-2.15446E-19-7.34074E-19
 -1       495 9.50551E-05-2.85186E-05-2.85157E-05 8.96764E-07-7.42294E-19-1.48478E-19
 -1       496 9.51874E-05-2.84917E-05-2.85838E-05 9.40002E-07-3.08918E-19 2.22712E-19
 -1       497 9.53356E-05-2.84576E-05-2.86618E-05 1.05025E-06-3.74060E-19-5.09969E-20
 -1       498 9.55079E-05-2.84187E-05-2.87520E-05 1.23922E-06-3.62173E-19-1.50525E-18
 -1       499 9.57142E-05-2.83785E-05-2.88575E-05 1.51803E-06-1.49262E-19-1.49568E-18
 -1       500 9.59665E-05-2.83421E-05-2.89810E-05 1.89656E-06-1.10326E-19-1.28178E-18
 -1       501 9.62791E-05-2.83183E-05-2.91250E-05 2.38173E-06 3.98601E-19-8.88957E-19
 -1       502 9.66692E-05-2.83214E-05-2.92906E-05 2.97462E-06 1.06635E-18-5.79618E-19
 -1       503 9.71583E-05-2.83748E-05-2.94773E-05 3.66571E-06 4.98194E-19-7.71063E-19
 -1       504 9.77750E-05-2.85152E-05-2.96814E-05 4.42788E-06-6.62418E-19-2.22506E-19
 -1       505 9.85591E-05-2.87991E-05-2.98960E-05 5.20645E-06-6.77913E-19 2.42898E-19
 -1       506 9.95669E-05-2.93078E-05-3.01106E-05 5.90597E-06-1.70362E-19-8.04951E-20
 -1       507 1.00876E-04-3.01491E-05-3.03125E-05 6.37428E-06 2.52918E-19-1.34126E-19
 -1       508 1.02586E-04-3.14446E-05-3.04919E-05 6.38664E-06-2.30926E-19-1.11124E-18
 -1       509 1.04789E-04-3.32818E-05-3.06516E-05 5.63849E-06-8.64763E-20-5.92128E-19
 -1       510 1.07503E-04-3.56043E-05-3.08224E-05 3.76924E-06 3.12561E-19-6.74213E-19
 -1       511 1.10514E-04-3.80166E-05-3.10797E-05 4.69574E-07 4.66640E-19-4.58548E-19
 -1       512 1.13174E-04-3.95719E-05-3.15508E-05-4.23093E-06 8.43883E-19-2.26768E-18
 -1       513 1.14340E-04-3.88092E-05-3.23824E-05-9.48028E-06 4.93577E-19-1.05499E-18
 -1       514 1.12952E-04-3.46189E-05-3.35992E-05-1.30896E-05 2.84338E-19 6.12467E-19
 -1       515 1.09237E-04-2.77979E-05-3.49374E-05-1.21614E-05 1.34943E-19 5.01053E-19
 -1       516 1.05806E-04-2.22483E-05-3.58440E-05-5.46582E-06 5.24929E-20 1.86026E-19
 -1       517 1.05675E-04-2.22050E-05-3.58229E-05 3.96011E-06-1.32738E-18-1.10184E-18
 -1       518 1.08886E-04-2.76939E-05-3.48435E-05 1.06794E-05-1.23515E-18-2.01802E-18
 -1       519 1.12447E-04-3.45406E-05-3.34112E-05 1.16052E-05 9.96570E-19-6.96398E-19
 -1       520 1.13687E-04-3.87851E-05-3.21093E-05 7.87932E-06-6.10309E-19-5.18204E-19
 -1       521 1.12334E-04-3.95492E-05-3.12029E-05 2.45321E-06-1.92277E-18 1.02398E-18
 -1       522 1.09437E-04-3.79155E-05-3.06626E-05-2.45121E-06-1.38174E-18 1.34818E-18
 -1       523 1.06148E-04-3.53326E-05-3.03581E-05-5.89602E-06 1.98241E-18-1.76968E-19
 -1       524 1.03116E-04-3.27298E-05-3.01708E-05-7.79173E-06 8.16877E-19 5.00479E-19
 -1       525 1.00551E-04-3.04730E-05-3.00346E-05-8.36281E-06 3.59907E-19 9.99677E-19
 -1       526 9.84333E-05-2.85902E-05-2.99304E-05-7.86283E-06 8.39521E-20 2.41305E-18
 -1       527 9.41317E-05-2.76828E-05-2.84746E-05-1.11025E-07 8.73595E-19-5.08794E-19
 -1       528 9.39552E-05-2.79281E-05-2.82960E-05-7.22215E-07 6.31619E-19-6.99449E-19
 -1       529 9.39260E-05-2.80976E-05-2.82119E-05-1.02383E-06 6.97296E-19-8.31303E-19
 -1       530 9.39922E-05-2.82211E-05-2.81878E-05-1.13414E-06 5.56138E-19-4.49773E-19
 -1       531 9.41141E-05-2.83127E-05-2.82010E-05-1.13120E-06 5.72514E-19-1.88331E-19
 -1       532 9.42644E-05-2.83799E-05-2.82367E-05-1.06798E-06 5.28517E-19-3.92588E-19
 -1       533 9.44266E-05-2.84279E-05-2.82856E-05-9.81199E-07 7.91575E-19-3.24430E-19
 -1       534 9.45920E-05-2.84605E-05-2.83424E-05-8.97026E-07 7.80344E-19-1.01548E-18
 -1       535 9.47581E-05-2.84809E-05-2.84048E-05-8.34787E-07 2.13816E-19-4.69138E-19
 -1       536 9.49271E-05-2.84917E-05-2.84724E-05-8.09638E-07 7.98607E-21-7.21558E-20
 -1       537 9.51050E-05-2.84956E-05-2.85467E-05-8.34488E-07 3.19803E-19 2.90120E-19
 -1       538 9.53006E-05-2.84951E-05-2.86306E-05-9.21392E-07 1.08715E-18-2.65888E-19
 -1       539 9.55255E-05-2.84928E-05-2.87276E-05-1.08246E-06 8.28434E-19-5.59934E-19
 -1       540 9.57935E-05-2.84921E-05-2.88425E-05-1.33031E-06-3.51913E-19 1.75342E-19
 -1       541 9.61206E-05-2.84971E-05-2.89802E-05-1.67792E-06-6.37763E-19 4.35519E-19
 -1       542 9.65251E-05-2.85139E-05-2.91459E-05-2.13774E-06-6.36502E-19-5.30047E-19
 -1       543 9.70272E-05-2.85520E-05-2.93443E-05-2.71959E-06-4.78757E-20-1.50191E-18
 -1       544 9.76496E-05-2.86265E-05-2.95788E-05-3.42688E-06 4.17357E-20-6.81706E-19
 -1       545 9.84186E-05-2.87618E-05-2.98501E-05-4.25010E-06-4.11786E-19-3.48261E-19
 -1       546 9.93659E-05-2.89980E-05-3.01550E-05-5.15643E-06-3.32614E-19-1.10298E-18
 -1       547 1.00534E-04-2.93990E-05-3.04843E-05-6.07421E-06-5.57544E-19-1.56269E-18
 -1       548 1.01980E-04-3.00614E-05-3.08220E-05-6.87101E-06-5.95040E-19-1.17852E-18
 -1       549 1.03788E-04-3.11182E-05-3.11463E-05-7.32656E-06-8.18725E-19-5.18717E-19
 -1       550 1.06055E-04-3.27185E-05-3.14366E-05-7.10735E-06-1.11911E-18-5.82206E-19
 -1       551 1.08858E-04-3.49478E-05-3.16878E-05-5.76578E-06 2.73313E-20-3.56506E-19
 -1       552 1.12125E-04-3.76453E-05-3.19370E-05-2.81298E-06-3.97251E-19 5.63375E-19
 -1       553 1.15386E-04-4.00807E-05-3.22926E-05 2.02768E-06-1.47386E-19 8.18627E-19
 -1       554 1.17522E-04-4.07261E-05-3.29321E-05 8.22229E-06-1.19503E-18 1.40269E-18
 -1       555 1.17077E-04-3.77936E-05-3.40009E-05 1.36327E-05-1.68708E-19 2.38924E-18
 -1       556 1.13453E-04-3.09488E-05-3.54116E-05 1.46561E-05 1.22126E-18 2.68027E-18
 -1       557 1.09037E-04-2.38672E-05-3.65772E-05 8.41102E-06 8.16407E-19 2.64888E-18
 -1       558 1.07830E-04-2.21917E-05-3.67994E-05-2.56120E-06 2.15140E-18 1.75769E-18
 -1       559 1.11039E-04-2.75140E-05-3.58591E-05-1.14607E-05 8.72626E-19 2.14836E-18
 -1       560 1.15190E-04-3.50806E-05-3.43666E-05-1.34118E-05 1.62683E-19 3.52680E-18
 -1       561 1.16830E-04-3.98638E-05-3.30102E-05-9.29978E-06 9.58620E-19 7.76701E-19
 -1       562 1.15341E-04-4.05208E-05-3.20874E-05-2.90286E-06 5.32716E-19 1.33057E-18
 -1       563 1.12063E-04-3.85298E-05-3.15330E-05 2.83840E-06 1.31190E-18 1.59849E-18
 -1       564 1.08347E-04-3.56509E-05-3.11706E-05 6.75436E-06 7.64875E-19-2.20182E-19
 -1       565 1.04938E-04-3.29433E-05-3.08635E-05 8.79618E-06-5.72528E-19 1.81195E-19
 -1       566 1.02035E-04-3.07273E-05-3.05622E-05 9.32498E-06-8.91133E-20 4.66435E-18
 -1       567 9.96225E-05-2.89745E-05-3.02722E-05 8.73714E-06 1.09862E-18 5.15921E-18
 -1       568 9.75488E-05-2.75077E-05-3.00094E-05 7.28502E-06 8.61746E-19 4.07609E-18
 -1       569 9.10904E-05-2.06570E-05-3.01901E-05 8.26211E-06-5.52212E-19-1.36414E-18
 -1       570 8.93419E-05-1.88142E-05-3.02313E-05 5.98190E-06 2.78790E-19-1.28798E-19
 -1       571 9.51459E-05-2.49599E-05-3.00768E-05 9.03765E-06 9.82123E-19 6.87433E-19
 -1       572 9.31012E-05-2.27890E-05-3.01358E-05 9.26612E-06-1.18417E-18-2.32544E-18
 -1       573 8.82781E-05-1.76900E-05-3.02577E-05 2.71881E-06-1.29718E-19-3.13995E-18
 -1       574 8.81375E-05-1.75344E-05-3.02642E-05-9.71325E-07-1.86669E-18-6.54430E-19
 -1       575 8.89408E-05-1.83753E-05-3.02477E-05-4.41838E-06-2.04410E-18-8.26176E-20
 -1       576 9.04239E-05-1.99562E-05-3.02045E-05-7.00045E-06-1.80160E-19-2.55814E-18
 -1       577 9.22711E-05-2.19675E-05-3.01322E-05-8.47702E-06 8.76169E-19 1.54703E-18
 -1       578 9.40908E-05-2.40186E-05-3.00303E-05-8.77884E-06 1.41304E-18 3.55898E-18
 -1       579 9.57219E-05-2.58849E-05-2.99305E-05-8.01981E-06-1.53589E-19 1.40219E-18
 -1       580 3.02315E-05-1.49210E-05-5.84455E-06 1.29477E-05-1.04418E-18-2.85582E-18
 -1       581 8.70099E-05-4.98441E-05-1.56385E-05 4.28168E-05 2.35158E-19-5.20163E-18
 -1       582 9.45100E-05-2.72910E-05-2.87995E-05 9.92840E-07 1.32575E-18-4.43931E-19
 -1       583 2.95907E-05-1.67932E-05-4.85299E-06-1.75916E-05-3.55860E-19 2.61119E-18
 -1       584 1.22895E-04-6.18865E-05-2.60701E-05 2.91859E-05-2.24114E-18 1.71101E-19
 -1       585 1.40880E-04-3.42545E-05-4.62586E-05-1.16285E-05 5.25107E-19-2.88939E-18
 -1       586 5.41666E-05-3.23259E-05-8.84402E-06-3.93757E-05 1.62895E-18 1.64764E-18
 -1       587 1.35321E-04-2.18095E-05-4.92279E-05 1.45558E-05 1.16843E-18-2.52601E-18
 -1       588 8.91713E-05-1.28864E-05-3.27116E-05-1.93934E-06-2.27447E-19-3.55232E-18
 -1       589 1.31762E-04-9.00976E-06-5.32464E-05 1.77619E-06 2.34215E-18-1.07338E-18
 -1       590 1.11115E-04-5.85874E-05-2.23872E-05-3.42336E-05 1.54430E-18-2.44751E-18
 -1       591 1.35516E-04-1.57689E-05-5.19392E-05-9.14299E-06 1.97131E-18-6.99252E-19
 -1       592 1.42964E-04-4.61093E-05-4.19019E-05 8.31891E-06 3.86168E-19-4.23966E-18
 -1       593 1.38336E-04-6.00606E-05-3.36571E-05-1.15272E-05 1.75333E-18-3.27643E-18
 -1       594 7.68928E-05-4.44405E-05-1.35232E-05-4.20945E-05 1.03184E-18-4.01599E-19
 -1       595 3.84033E-05-2.42622E-05-5.57409E-06-3.08184E-05 7.21249E-19-4.14612E-18
 -1       596 2.20466E-05-1.38643E-05-2.93340E-06-2.85943E-06 2.74887E-19-4.04564E-18
 -1       597 3.14650E-05-1.98517E-05-4.38357E-06 2.47268E-05 7.35463E-19-6.82846E-18
 -1       598 1.09043E-04-5.73092E-05-2.20295E-05 3.50139E-05 3.02920E-19 3.77247E-19
 -1       599 1.34645E-04-5.93719E-05-3.23497E-05 1.75622E-05 1.19590E-19 1.35737E-19
 -1       600 1.43926E-04-4.75576E-05-4.16400E-05-2.59916E-06-2.73684E-19 9.66835E-19
 -1       601 1.35340E-04-2.30354E-05-4.86697E-05-1.37472E-05-2.37047E-18 1.17965E-18
 -1       602 1.33900E-04-8.31204E-06-5.45034E-05-1.93109E-06-1.92975E-18 7.79062E-19
 -1       603 1.36765E-04-1.24100E-05-5.38373E-05 6.85382E-06-1.79486E-18-1.62315E-18
 -1       604 1.41562E-04-3.25270E-05-4.71898E-05 1.00468E-05-1.42572E-18-3.30565E-18
 -1       605 1.42014E-04-5.51972E-05-3.74487E-05-4.78015E-06-3.25568E-19-2.07232E-18
 -1       606 1.24174E-04-6.17097E-05-2.67367E-05-2.80726E-05 1.11168E-18 3.58033E-18
 -1       607 9.07543E-05-5.11564E-05-1.66737E-05-4.27631E-05 1.53991E-18 3.53213E-18
 -1       608 9.45892E-05-2.07542E-05-3.16623E-05-9.44265E-06-2.57758E-18-1.38905E-18
 -1       609 9.61518E-05-2.31882E-05-3.12737E-05 9.59002E-06 2.72891E-18 3.44190E-19
 -1       610 9.13576E-05-1.58987E-05-3.23634E-05-7.70819E-06-1.82939E-18-2.81197E-18
 -1       611 9.27612E-05-1.79274E-05-3.20932E-05-8.89579E-06-2.32289E-18-2.31365E-18
 -1       612 1.39468E-04-4.72990E-05-3.97520E-05-8.51181E-06-2.79984E-19-3.03685E-18
 -1       613 5.45820E-05-2.79064E-05-1.08979E-05 3.48974E-05 1.75230E-18-2.67191E-18
 -1       614 9.32784E-05-4.90982E-05-1.86143E-05 3.82113E-05 1.26271E-18 6.64233E-19
 -1       615 9.72057E-05-2.75019E-05-2.98690E-05-7.00582E-06-7.58312E-20 3.46758E-18
 -1       616 9.15678E-05-1.68569E-05-3.20246E-05 2.44388E-06 8.40443E-19-3.13290E-18
 -1       617 9.13105E-05-1.64551E-05-3.20863E-05 8.41855E-07 3.43938E-19-3.21610E-18
 -1       618 9.28976E-05-1.90025E-05-3.16750E-05 5.27153E-06 1.78967E-18-2.28134E-18
 -1       619 9.39864E-05-2.09320E-05-3.13170E-05 6.15014E-06 1.97612E-18-1.72093E-18
 -1       620 9.52697E-05-2.40957E-05-3.04929E-05 5.15716E-06 2.04345E-18-1.04017E-18
 -1       621 9.98448E-05-5.09435E-05-2.07059E-05-3.41472E-05 9.28163E-19-2.76762E-18
 -1       622 9.54188E-05-2.57102E-05-2.98736E-05-2.44433E-06-1.30315E-18-1.44055E-18
 -1       623 9.54755E-05-2.69456E-05-2.93693E-05-8.76512E-07-1.15256E-18-1.35592E-18
 -1       624 9.54201E-05-2.77030E-05-2.90214E-05 1.27704E-07-8.93656E-19-1.40788E-18
 -1       625 9.53447E-05-2.81709E-05-2.87888E-05 7.20628E-07-9.25516E-19-1.75592E-18
 -1       626 9.52813E-05-2.84554E-05-2.86397E-05 1.03145E-06-7.08372E-19-1.59776E-18
 -1       627 9.52377E-05-2.86197E-05-2.85507E-05 1.15867E-06-6.82424E-19-1.17642E-18
 -1       628 9.52127E-05-2.87026E-05-2.85044E-05 1.17493E-06-2.49996E-19-6.08611E-19
 -1       629 9.52023E-05-2.87288E-05-2.84887E-05 1.13323E-06-8.23208E-20-3.80748E-19
 -1       630 9.52027E-05-2.87145E-05-2.84950E-05 1.07230E-06-2.33950E-19-5.63233E-19
 -1       631 9.52112E-05-2.86700E-05-2.85177E-05 1.02085E-06-1.40136E-19-5.74809E-19
 -1       632 9.52258E-05-2.86016E-05-2.85533E-05 1.00083E-06-1.67612E-19-5.39457E-19
 -1       633 9.52457E-05-2.85129E-05-2.85997E-05 1.02989E-06 3.71626E-20-4.19931E-19
 -1       634 9.52707E-05-2.84055E-05-2.86564E-05 1.12316E-06-6.37514E-19-7.02675E-20
 -1       635 9.53014E-05-2.82803E-05-2.87232E-05 1.29440E-06-1.47866E-18-6.16948E-19
 -1       636 9.53395E-05-2.81381E-05-2.88004E-05 1.55651E-06-8.42309E-19-2.45411E-19
 -1       637 9.53876E-05-2.79814E-05-2.88881E-05 1.92147E-06-3.43472E-19-4.67874E-19
 -1       638 9.54507E-05-2.78163E-05-2.89859E-05 2.39947E-06 1.34206E-19-5.53894E-19
 -1       639 9.55370E-05-2.76550E-05-2.90919E-05 2.99717E-06 8.10641E-19-1.00195E-18
 -1       640 9.56612E-05-2.75203E-05-2.92028E-05 3.71488E-06 9.66233E-19-1.81748E-18
 -1       641 9.58488E-05-2.74513E-05-2.93127E-05 4.54237E-06 1.64537E-19-8.49997E-19
 -1       642 9.61439E-05-2.75119E-05-2.94132E-05 5.45287E-06-3.68138E-19 7.48315E-20
 -1       643 9.66201E-05-2.78000E-05-2.94939E-05 6.39471E-06-2.34869E-19 3.36940E-19
 -1       644 9.73953E-05-2.84574E-05-2.95446E-05 7.27932E-06 5.63292E-19 1.00977E-18
 -1       645 9.86468E-05-2.96715E-05-2.95612E-05 7.96323E-06-2.69113E-19 9.67381E-19
 -1       646 1.00616E-04-3.16535E-05-2.95566E-05 8.22046E-06-2.55751E-19 2.94493E-19
 -1       647 1.03573E-04-3.45595E-05-2.95804E-05 7.70336E-06-1.13153E-19-3.40824E-19
 -1       648 1.07693E-04-3.82987E-05-2.97452E-05 5.90724E-06 3.50000E-19-2.26849E-19
 -1       649 1.12749E-04-4.21568E-05-3.02554E-05 2.21893E-06 1.50676E-19-4.17902E-19
 -1       650 1.17622E-04-4.43860E-05-3.13947E-05-3.59007E-06 1.64736E-18-8.51376E-19
 -1       651 1.20136E-04-4.20227E-05-3.35244E-05-1.06030E-05 1.25382E-18 2.13214E-20
 -1       652 1.18089E-04-3.34711E-05-3.63910E-05-1.52469E-05-7.19859E-19-9.93601E-19
 -1       653 1.13450E-04-2.22753E-05-3.92336E-05-1.18973E-05-4.86855E-19-8.02961E-19
 -1       654 1.10094E-04-1.60265E-05-4.05504E-05-8.40863E-07-1.23333E-18-2.39278E-18
 -1       655 1.12764E-04-2.17103E-05-3.92163E-05 1.03555E-05-1.26282E-18-9.23226E-19
 -1       656 1.17982E-04-3.33414E-05-3.63616E-05 1.37181E-05-1.00142E-19-1.19382E-18
 -1       657 1.20155E-04-4.22855E-05-3.34009E-05 8.98919E-06-1.17742E-18-3.24104E-18
 -1       658 1.17622E-04-4.46849E-05-3.12664E-05 1.80406E-06-4.79711E-19-4.72873E-18
 -1       659 1.12676E-04-4.25016E-05-3.00806E-05-4.27879E-06-7.66414E-19-1.94929E-18
 -1       660 1.07523E-04-3.85263E-05-2.95756E-05-8.15048E-06 8.24168E-19-6.88642E-19
 -1       661 1.03275E-04-3.45542E-05-2.94557E-05-1.00430E-05 2.12105E-18-7.24618E-19
 -1       662 1.00091E-04-3.11885E-05-2.95286E-05-1.05036E-05 1.54624E-18 7.59158E-19
 -1       663 9.78568E-05-2.85910E-05-2.96841E-05-9.95451E-06 9.11979E-19 2.15215E-18
 -1       664 9.49809E-05-2.81091E-05-2.86591E-05-7.32764E-07 8.21820E-19-9.56465E-19
 -1       665 6.46064E-05-3.16622E-05-1.37125E-05-3.53494E-05 7.34086E-19-1.13047E-18
 -1       666 9.50908E-05-2.77059E-05-2.88787E-05-1.19709E-07 9.25283E-19-9.19869E-19
 -1       667 9.49028E-05-2.85104E-05-2.84540E-05-1.17506E-06 2.71205E-19-9.30750E-19
 -1       668 9.49157E-05-2.85955E-05-2.84231E-05-1.18612E-06 6.22089E-19-1.07653E-18
 -1       669 9.49491E-05-2.86343E-05-2.84208E-05-1.13669E-06 5.51630E-19-5.27478E-19
 -1       670 9.49955E-05-2.86396E-05-2.84384E-05-1.06590E-06 5.44165E-19-4.37808E-20
 -1       671 9.50504E-05-2.86198E-05-2.84704E-05-1.00251E-06 3.97139E-19 7.23253E-19
 -1       672 9.51117E-05-2.85801E-05-2.85136E-05-9.68374E-07-1.50370E-19 6.96092E-19
 -1       673 9.51796E-05-2.85237E-05-2.85668E-05-9.81128E-07-3.83432E-20 3.09372E-19
 -1       674 9.52555E-05-2.84520E-05-2.86300E-05-1.05608E-06 9.02023E-19-4.86919E-20
 -1       675 9.53421E-05-2.83653E-05-2.87041E-05-1.20762E-06 6.20213E-19 5.00397E-19
 -1       676 9.54431E-05-2.82637E-05-2.87909E-05-1.44999E-06-3.71046E-20 6.24445E-19
 -1       677 9.55633E-05-2.81477E-05-2.88920E-05-1.79756E-06-3.69576E-19 2.31835E-19
 -1       678 9.57080E-05-2.80191E-05-2.90090E-05-2.26441E-06-1.82709E-19-1.77582E-19
 -1       679 9.58844E-05-2.78835E-05-2.91425E-05-2.86308E-06-1.79773E-19-2.44106E-19
 -1       680 9.61024E-05-2.77531E-05-2.92917E-05-3.60212E-06-3.88928E-19-1.21533E-19
 -1       681 9.63779E-05-2.76517E-05-2.94531E-05-4.48213E-06 4.16731E-19-4.14146E-19
 -1       682 9.67381E-05-2.76231E-05-2.96197E-05-5.48963E-06-2.96661E-19-3.27309E-20
 -1       683 9.72327E-05-2.77433E-05-2.97801E-05-6.58786E-06 2.26735E-19-1.15724E-18
 -1       684 9.79497E-05-2.81361E-05-2.99193E-05-7.70341E-06-1.37960E-18-5.71561E-19
 -1       685 9.90401E-05-2.89900E-05-3.00214E-05-8.70652E-06-7.67494E-19-6.19622E-19
 -1       686 1.00743E-04-3.05630E-05-3.00781E-05-9.38129E-06-8.76823E-19-8.03913E-20
 -1       687 1.03390E-04-3.31437E-05-3.01091E-05-9.37927E-06-3.14945E-19-9.08565E-21
 -1       688 1.07329E-04-3.68925E-05-3.01935E-05-8.17379E-06-4.07391E-19-1.28909E-19
 -1       689 1.12698E-04-4.15126E-05-3.05180E-05-5.02675E-06-6.54911E-19-1.40420E-19
 -1       690 1.18821E-04-4.55213E-05-3.14280E-05 7.63502E-07-1.39418E-18 8.21200E-19
 -1       691 1.23590E-04-4.57886E-05-3.33754E-05 8.96313E-06-1.30253E-18 2.48684E-20
 -1       692 1.23492E-04-3.85639E-05-3.65946E-05 1.59063E-05 1.15580E-18 4.62920E-19
 -1       693 1.18982E-04-2.58040E-05-4.01373E-05 1.53056E-05 1.17319E-18 6.03729E-19
 -1       694 1.13725E-04-1.59187E-05-4.23253E-05 4.11501E-06 2.20350E-18 6.31744E-19
 -1       695 1.15555E-04-1.98555E-05-4.13493E-05-1.00985E-05 1.14614E-18 2.31478E-19
 -1       696 1.21898E-04-3.34298E-05-3.80871E-05-1.52469E-05-4.83868E-19 8.40455E-19
 -1       697 1.24047E-04-4.38405E-05-3.44334E-05-1.05339E-05 6.89647E-19 2.24821E-18
 -1       698 1.20767E-04-4.64074E-05-3.18713E-05-2.07482E-06 1.09536E-18 9.61963E-19
 -1       699 1.14799E-04-4.35769E-05-3.05162E-05 5.01242E-06 1.58418E-18 5.26870E-19
 -1       700 1.08811E-04-3.88725E-05-2.99756E-05 9.39960E-06 2.03452E-18-6.63792E-20
 -1       701 1.04087E-04-3.44872E-05-2.98311E-05 1.14229E-05-5.41087E-19 3.64291E-19
 -1       702 1.00722E-04-3.10929E-05-2.98373E-05 1.18636E-05-2.96640E-18 1.29498E-18
 -1       703 9.83724E-05-2.85914E-05-2.99124E-05 1.11707E-05 4.40886E-20 3.76627E-19
 -1       704 9.65730E-05-2.66989E-05-2.99452E-05 1.03423E-05-4.84878E-19 5.72688E-19
 -1       705 1.08789E-04-5.55429E-05-2.26642E-05 3.27130E-05-1.02112E-18-2.07881E-18
 -1       706 8.57285E-05-1.82590E-05-2.89167E-05 1.00651E-06 1.11724E-18-3.07774E-18
 -1       707 8.89561E-05-2.08472E-05-2.91921E-05 8.91940E-06-2.28536E-19-3.83659E-19
 -1       708 8.63016E-05-1.87636E-05-2.89466E-05-3.59538E-06 8.91639E-19-1.56490E-18
 -1       709 8.67007E-05-1.90361E-05-2.90013E-05 5.47526E-06-1.73317E-19-9.82473E-19
 -1       710 8.81889E-05-2.03545E-05-2.90733E-05-7.33878E-06-3.25109E-19 7.12930E-19
 -1       711 9.08656E-05-2.25846E-05-2.92659E-05-9.73808E-06 6.40250E-20-2.58931E-19
 -1       712 9.36388E-05-2.48564E-05-2.94795E-05-1.05083E-05 1.28863E-18 4.24546E-18
 -1       713 1.33832E-04-6.01866E-05-3.16145E-05 9.37252E-06-1.42060E-18-3.31938E-18
 -1       714 7.93976E-05-3.95816E-05-1.66920E-05 3.77287E-05-7.69185E-19-4.40251E-18
 -1       715 9.52299E-05-2.70416E-05-2.92216E-05 9.35141E-07 1.09272E-18-8.83526E-19
 -1       716 7.98799E-05-4.03148E-05-1.66033E-05-3.85314E-05 1.57392E-18 2.47193E-18
 -1       717 1.28553E-04-1.09382E-05-5.09717E-05-7.24419E-06-2.41256E-18 1.74820E-19
 -1       718 1.25929E-04-2.16019E-05-4.51862E-05 1.29725E-05-8.87267E-20-1.45806E-18
 -1       719 5.09796E-05-2.04577E-05-1.25925E-05 2.50595E-05-1.40593E-18-3.36177E-18
 -1       720 5.26365E-05-2.21218E-05-1.26098E-05-2.76767E-05 6.92013E-19 6.34481E-19
 -1       721 1.21542E-04-1.82101E-05-4.47257E-05-1.30691E-05-1.70285E-18-2.76530E-19
 -1       722 1.18474E-04-1.05639E-05-4.68159E-05 1.24054E-06-1.06938E-18-1.55412E-18
 -1       723 1.10772E-04-5.58453E-05-2.34025E-05-3.12644E-05 1.44909E-18 4.39031E-18
 -1       724 9.49207E-05-2.83591E-05-2.85264E-05-1.04922E-06 4.19196E-19-9.45323E-19
 -1       725 9.50355E-05-2.36756E-05-3.05843E-05-4.73435E-06-1.64081E-18-1.46385E-18
 -1       726 9.20893E-05-1.76827E-05-3.18944E-05 3.95489E-06 1.26491E-18-2.66923E-18
 -1       727 9.53326E-05-2.59387E-05-2.97362E-05 2.61450E-06 1.59065E-18-9.52636E-19
 -1       728 9.20481E-05-1.76251E-05-3.19014E-05-3.90299E-06-9.82578E-19-3.16281E-18
 -1       729 1.32708E-04-3.83707E-05-4.07978E-05-1.40349E-05-3.56124E-19 9.05743E-19
 -1       730 9.67012E-05-2.71417E-05-2.98076E-05-9.13258E-06 1.11943E-18 7.93588E-19
 -1       731 1.35060E-04-5.42379E-05-3.47800E-05 3.75401E-06-2.22677E-20-2.49577E-18
 -1       732 1.30208E-04-3.50712E-05-4.10888E-05 1.65586E-05 4.04617E-19-9.56393E-19
 -1       733 1.34508E-04-4.44975E-05-3.88672E-05 1.00584E-05-2.77219E-18-1.81199E-18
 -1       734 1.26475E-04-5.96256E-05-2.86114E-05-1.60610E-05 5.90925E-19-2.08333E-18
 -1       735 4.06733E-05-1.48194E-05-1.05092E-05-1.69217E-05 4.72949E-19-4.61633E-18
 -1       736 1.25931E-04-2.43060E-05-4.40006E-05-1.40523E-05 3.38337E-19 7.20507E-19
 -1       737 3.54057E-05-1.29791E-05-9.02447E-06 1.12100E-05 1.25910E-18-5.17378E-18
 -1       738 1.25322E-04-5.89886E-05-2.84170E-05 1.74633E-05-5.54621E-19 1.63900E-18
 -1       739 1.34850E-04-5.51591E-05-3.43409E-05 7.23530E-07 1.77281E-19 6.51342E-19
 -1       740 4.28802E-05-1.29030E-05-1.23653E-05-4.76554E-06-2.24993E-21 3.78041E-19
 -1       741 1.32545E-04-5.95548E-05-3.13152E-05-1.05799E-05 1.02478E-19-3.71900E-20
 -1       742 9.41962E-05-2.12099E-05-3.12773E-05-6.74896E-06-2.03455E-18-1.85694E-18
 -1       743 9.28643E-05-1.89416E-05-3.16836E-05-5.23252E-06-1.36396E-18-2.68426E-18
 -1       744 9.13036E-05-1.64458E-05-3.20873E-05-7.84769E-07-7.57709E-20-3.25746E-18
 -1       745 4.98530E-05-1.87621E-05-1.28822E-05 2.31493E-05 1.99255E-18-4.11010E-18
 -1       746 9.38447E-05-2.45947E-05-2.96857E-05 1.10243E-05-6.05455E-19-1.69166E-18
 -1       747 7.92999E-05-3.82884E-05-1.72489E-05 3.58042E-05 1.82006E-18-6.19075E-19
 -1       748 1.13658E-04-5.46975E-05-2.51408E-05 2.45434E-05 1.86877E-20 7.74301E-19
 -1       749 9.57453E-05-2.68525E-05-2.95233E-05-1.06340E-05 7.59333E-20 1.80543E-19
 -1       750 9.14629E-05-2.27548E-05-2.94390E-05 1.05215E-05-3.29686E-19-2.12086E-18
 -1       751 9.15443E-05-1.68247E-05-3.20282E-05-2.38377E-06-5.82002E-19-2.99740E-18
 -1       752 1.27883E-04-4.57643E-05-3.53429E-05-9.42265E-06 2.54110E-20 4.74739E-19
 -1       753 9.46473E-05-2.27460E-05-3.08158E-05 3.90342E-06 1.41566E-18-1.82212E-18
 -1       754 9.34710E-05-1.99346E-05-3.15157E-05-6.10469E-06-1.65011E-18-2.20859E-18
 -1       755 1.29908E-04-3.41837E-05-4.13461E-05-1.49620E-05-1.06454E-18-3.57646E-19
 -1       756 9.58752E-05-2.68840E-05-2.95676E-05-5.89099E-07-1.07164E-18-1.63236E-18
 -1       757 9.59680E-05-2.77677E-05-2.92287E-05 2.16603E-07-1.19446E-18-1.59995E-18
 -1       758 9.59567E-05-2.83212E-05-2.89867E-05 7.01858E-07-7.79788E-19-1.63522E-18
 -1       759 9.58950E-05-2.86502E-05-2.88193E-05 9.59705E-07-3.39740E-19-1.79089E-18
 -1       760 9.58119E-05-2.88250E-05-2.87087E-05 1.06712E-06-2.37758E-19-1.68739E-18
 -1       761 9.57221E-05-2.88930E-05-2.86411E-05 1.08424E-06 2.08603E-19-1.13868E-18
 -1       762 9.56326E-05-2.88856E-05-2.86059E-05 1.05678E-06-2.31539E-19-8.31717E-19
 -1       763 9.55460E-05-2.88236E-05-2.85953E-05 1.01915E-06 1.15456E-19-6.09055E-19
 -1       764 9.54618E-05-2.87199E-05-2.86037E-05 9.97564E-07-2.91345E-20-8.55140E-19
 -1       765 9.53780E-05-2.85818E-05-2.86270E-05 1.01260E-06-2.21833E-19-7.01213E-19
 -1       766 9.52912E-05-2.84125E-05-2.86623E-05 1.08127E-06-1.60577E-19-1.05668E-18
 -1       767 9.51969E-05-2.82126E-05-2.87075E-05 1.21845E-06-1.04311E-18-1.10098E-18
 -1       768 9.50903E-05-2.79815E-05-2.87609E-05 1.43789E-06-6.87554E-19-8.16444E-19
 -1       769 9.49667E-05-2.77194E-05-2.88203E-05 1.75259E-06-4.43471E-19-5.76545E-19
 -1       770 9.48224E-05-2.74286E-05-2.88830E-05 2.17473E-06-6.62795E-19-6.59327E-19
 -1       771 9.46563E-05-2.71174E-05-2.89451E-05 2.71509E-06 2.72225E-20-1.18023E-18
 -1       772 9.44727E-05-2.68036E-05-2.90009E-05 3.38193E-06 6.08955E-19-1.66657E-18
 -1       773 9.42861E-05-2.65206E-05-2.90422E-05 4.17950E-06 1.25287E-18-1.46492E-18
 -1       774 9.41285E-05-2.63254E-05-2.90583E-05 5.10614E-06 6.15443E-19-1.19757E-18
 -1       775 9.40615E-05-2.63097E-05-2.90363E-05 6.15184E-06-5.01715E-20-2.73006E-19
 -1       776 9.41929E-05-2.66129E-05-2.89626E-05 7.29416E-06 2.96434E-19-1.36419E-19
 -1       777 9.47016E-05-2.74358E-05-2.88279E-05 8.48966E-06-1.71610E-19-4.11852E-19
 -1       778 9.58659E-05-2.90482E-05-2.86360E-05 9.65332E-06-4.18039E-19-2.50382E-19
 -1       779 9.80890E-05-3.17708E-05-2.84223E-05 1.06075E-05 7.09945E-20 7.20511E-19
 -1       780 1.01882E-04-3.58834E-05-2.82865E-05 1.09779E-05-2.00820E-19 1.69464E-18
 -1       781 1.07713E-04-4.13500E-05-2.84415E-05 1.00067E-05 2.82012E-19 2.36545E-18
 -1       782 1.15449E-04-4.72180E-05-2.92124E-05 6.58049E-06 3.56558E-19 2.98932E-18
 -1       783 1.28350E-04-4.53853E-05-3.57151E-05 8.40130E-06-1.68525E-18-2.10601E-18
 -1       784 1.24407E-04-5.09043E-05-3.15494E-05-6.90346E-07-4.40503E-19-1.20838E-18
 -1       785 1.16336E-04-4.79580E-05-2.93054E-05-8.34308E-06 3.74712E-19 8.39742E-19
 -1       786 1.08542E-04-4.20797E-05-2.84895E-05-1.21700E-05 5.83608E-19-7.11652E-20
 -1       787 1.02705E-04-3.63936E-05-2.84205E-05-1.32952E-05 2.34561E-18 9.21983E-19
 -1       788 9.88367E-05-3.19024E-05-2.86717E-05-1.31433E-05 2.36332E-18 1.00819E-18
 -1       789 9.70104E-05-2.90949E-05-2.91096E-05-1.19079E-05 8.94286E-19 8.22815E-19
 -1       790 9.55098E-05-2.88140E-05-2.85840E-05-1.13430E-06 2.95049E-19-1.00225E-18
 -1       791 9.55710E-05-2.87391E-05-2.86423E-05-1.11847E-06 5.73489E-19-1.20460E-18
 -1       792 9.54077E-05-2.87815E-05-2.85541E-05-1.05177E-06-1.15392E-19 4.68098E-20
 -1       793 9.53653E-05-2.87043E-05-2.85690E-05-1.01756E-06 7.39431E-20 2.00435E-19
 -1       794 9.53262E-05-2.85969E-05-2.85983E-05-1.01884E-06 5.50165E-19-1.53439E-19
 -1       795 9.52877E-05-2.84619E-05-2.86396E-05-1.07340E-06 6.22153E-19-9.31583E-19
 -1       796 9.52467E-05-2.82993E-05-2.86917E-05-1.19695E-06 4.41258E-19 3.74199E-19
 -1       797 9.51994E-05-2.81073E-05-2.87537E-05-1.40437E-06 2.43945E-19 3.81003E-19
 -1       798 9.51416E-05-2.78836E-05-2.88248E-05-1.71013E-06-1.85902E-19 8.92559E-20
 -1       799 9.50689E-05-2.76265E-05-2.89037E-05-2.12848E-06-1.80979E-19-5.47565E-19
 -1       800 9.49770E-05-2.73372E-05-2.89883E-05-2.67302E-06-2.27839E-19-3.60970E-19
 -1       801 9.48636E-05-2.70227E-05-2.90745E-05-3.35559E-06-4.08420E-19 6.60736E-20
 -1       802 9.47310E-05-2.67010E-05-2.91554E-05-4.18464E-06-8.16702E-20-2.63518E-19
 -1       803 9.45920E-05-2.64089E-05-2.92210E-05-5.16316E-06-2.58533E-19-7.43349E-20
 -1       804 9.44802E-05-2.62134E-05-2.92568E-05-6.28609E-06 3.28163E-19 1.25811E-19
 -1       805 9.44677E-05-2.62295E-05-2.92444E-05-7.53705E-06-4.75700E-19 9.66910E-19
 -1       806 9.46926E-05-2.66422E-05-2.91639E-05-8.88302E-06-1.37083E-18-5.04725E-19
 -1       807 9.53997E-05-2.77308E-05-2.90004E-05-1.02620E-05-1.05241E-18-1.20248E-18
 -1       808 9.69917E-05-2.98847E-05-2.87594E-05-1.15506E-05-1.06672E-18-1.30722E-18
 -1       809 1.00083E-04-3.35739E-05-2.85035E-05-1.24542E-05-1.85633E-19-5.64240E-19
 -1       810 1.05366E-04-3.90867E-05-2.84034E-05-1.23951E-05-6.31890E-19-8.93859E-19
 -1       811 1.13486E-04-4.61545E-05-2.88576E-05-1.00277E-05-1.02312E-18-1.40407E-18
 -1       812 1.23513E-04-5.21514E-05-3.05835E-05-3.80418E-06-7.20243E-19-2.12595E-18
 -1       813 9.83401E-05-4.54895E-05-2.25139E-05 3.01225E-05-7.04758E-19-2.54666E-18
 -1       814 1.30570E-04-4.88146E-05-3.52074E-05-8.00143E-06-4.71983E-19-1.67805E-18
 -1       815 1.24284E-04-5.15273E-05-3.12273E-05 2.47453E-06 1.74624E-18-2.39441E-19
 -1       816 1.15285E-04-4.68772E-05-2.93405E-05 9.75322E-06 1.78827E-18 8.68301E-19
 -1       817 1.07354E-04-4.01761E-05-2.87991E-05 1.32090E-05 1.82278E-18 6.39343E-19
 -1       818 1.01896E-04-3.45871E-05-2.88486E-05 1.40840E-05-2.87825E-19 1.64258E-18
 -1       819 9.84693E-05-3.05079E-05-2.91200E-05 1.36832E-05-2.27768E-18-3.36166E-20
 -1       820 9.51152E-05-2.66513E-05-2.93382E-05 1.25501E-05 1.34682E-19-1.56947E-18
 -1       821 8.47071E-05-2.01024E-05-2.76867E-05-7.12807E-06 8.86767E-19-2.06653E-19
 -1       822 8.26443E-05-1.85216E-05-2.74837E-05-1.78301E-06 5.58835E-19-1.43182E-18
 -1       823 9.74195E-05-4.51399E-05-2.22785E-05-3.05776E-05 1.58676E-18 4.51401E-18
 -1       824 9.52140E-05-2.44794E-05-3.03139E-05 3.43232E-06 1.48096E-18-1.26315E-18
 -1       825 5.87262E-05-1.78486E-05-1.72806E-05-1.66261E-05 1.39787E-19 1.42286E-18
 -1       826 4.43590E-05-1.40889E-05-1.25203E-05 7.66258E-06-9.99115E-19-2.59552E-18
 -1       827 7.38604E-05-2.90989E-05-1.89629E-05 2.85608E-05-8.07136E-19-3.92605E-18
 -1       828 1.19836E-04-5.46220E-05-2.78785E-05-1.66002E-05 9.35349E-19 1.08740E-18
 -1       829 9.57024E-05-2.69173E-05-2.94796E-05 6.98046E-07 8.86916E-19-1.05541E-18
 -1       830 8.83831E-05-2.28257E-05-2.80981E-05-1.07276E-05 7.63271E-19-1.57070E-18
 -1       831 9.25077E-05-2.57379E-05-2.86028E-05-1.22056E-05 2.35820E-18 2.23853E-18
 -1       832 1.11468E-04-5.10074E-05-2.58033E-05-2.09416E-05-2.15358E-19-9.59867E-19
 -1       833 9.54554E-05-2.88219E-05-2.85573E-05-1.09988E-06 6.35575E-20-2.62607E-19
 -1       834 9.57350E-05-2.77447E-05-2.91386E-05-1.92843E-07 7.96617E-19-1.11174E-18
 -1       835 8.92254E-05-3.97722E-05-2.10037E-05-2.99269E-05 3.57746E-19-1.96324E-18
 -1       836 7.46664E-05-3.06453E-05-1.86460E-05-3.01023E-05-1.02181E-18 1.05865E-18
 -1       837 9.49258E-05-2.34391E-05-3.06389E-05-3.52419E-06-1.36706E-18-1.94430E-18
 -1       838 9.55805E-05-2.55146E-05-3.00286E-05-1.81287E-06-1.11462E-18-1.78417E-18
 -1       839 1.21155E-04-5.56837E-05-2.79972E-05 1.67834E-05 3.59776E-19-1.88617E-18
 -1       840 1.25629E-04-5.40965E-05-3.07265E-05 5.43687E-06-1.34355E-19 8.62450E-19
 -1       841 4.70965E-05-1.21098E-05-1.46609E-05-8.00911E-07 1.67669E-18-3.76509E-18
 -1       842 9.32210E-05-1.97838E-05-3.14743E-05 1.23562E-06 5.23419E-19-2.92918E-18
 -1       843 6.08985E-05-2.22519E-05-1.63268E-05-2.45842E-05 4.12326E-19-1.60698E-18
 -1       844 5.70668E-05-1.77525E-05-1.65768E-05 1.66939E-05-1.72505E-18-3.18568E-18
 -1       845 5.36851E-05-1.39766E-05-1.67884E-05 1.34792E-06-1.66353E-18-1.84936E-18
 -1       846 9.31074E-05-1.95820E-05-3.15126E-05 2.43543E-08 1.58239E-19-2.85152E-18
 -1       847 9.40355E-05-2.13573E-05-3.11485E-05 3.31392E-06 1.17971E-18-2.25243E-18
 -1       848 9.35339E-05-2.03687E-05-3.13577E-05 2.36856E-06 9.28569E-19-2.54632E-18
 -1       849 1.24781E-04-4.98403E-05-3.21308E-05-2.60471E-06 4.73154E-19 9.40358E-19
 -1       850 9.39975E-05-2.12943E-05-3.11605E-05-3.28009E-06-1.01915E-18-2.62358E-18
 -1       851 6.83539E-05-2.76319E-05-1.71856E-05 2.90259E-05 1.23959E-18-1.69572E-18
 -1       852 9.56364E-05-2.85688E-05-2.87433E-05-1.00336E-06 4.12029E-19-1.20184E-18
 -1       853 8.29848E-05-1.87092E-05-2.75481E-05 4.03328E-06 1.03144E-18-7.62572E-19
 -1       854 8.56167E-05-2.05716E-05-2.78770E-05 9.00744E-06 2.15903E-19 2.58053E-20
 -1       855 9.46802E-05-2.74776E-05-2.88245E-05-1.23654E-05 7.48020E-19 2.36417E-18
 -1       856 9.35029E-05-2.03228E-05-3.13644E-05-2.32669E-06-7.16326E-19-2.90245E-18
 -1       857 8.90135E-05-2.28436E-05-2.83625E-05 1.16435E-05-2.18727E-19-1.90889E-18
 -1       858 5.28855E-05-1.41066E-05-1.63613E-05 9.85222E-06 1.63129E-18-5.32864E-18
 -1       859 1.00994E-04-4.73496E-05-2.29156E-05 2.83387E-05 8.63312E-19-4.89360E-19
 -1       860 1.19891E-04-5.34724E-05-2.83662E-05 1.27073E-05-6.24713E-19 1.46615E-18
 -1       861 9.56979E-05-2.82598E-05-2.89020E-05-7.23494E-07 6.96932E-19-1.13646E-18
 -1       862 5.80153E-05-1.56059E-05-1.80175E-05-1.21145E-05 1.29838E-19-2.44928E-18
 -1       863 9.55125E-05-2.58882E-05-2.98383E-05 1.84068E-06 1.22221E-18-1.10362E-18
 -1       864 1.27965E-04-5.03294E-05-3.34804E-05 2.22846E-06-1.04576E-18-2.21601E-18
 -1       865 9.62086E-05-2.69887E-05-2.96656E-05-2.91830E-07-8.83174E-19-1.79380E-18
 -1       866 9.63753E-05-2.79110E-05-2.93419E-05 2.94199E-07-8.17928E-19-1.56153E-18
 -1       867 9.63927E-05-2.84892E-05-2.91015E-05 6.48685E-07-7.68320E-19-1.32800E-18
 -1       868 9.63227E-05-2.88232E-05-2.89284E-05 8.36035E-07-3.82974E-19-1.53592E-18
 -1       869 9.62040E-05-2.89841E-05-2.88085E-05 9.13116E-07 4.37929E-20-1.65798E-18
 -1       870 9.60601E-05-2.90223E-05-2.87305E-05 9.26042E-07-3.51975E-20-1.91507E-18
 -1       871 9.59039E-05-2.89724E-05-2.86850E-05 9.10770E-07-8.83616E-20-1.60861E-18
 -1       872 9.57413E-05-2.88568E-05-2.86648E-05 8.95016E-07 1.62733E-19-2.04132E-18
 -1       873 9.55723E-05-2.86892E-05-2.86642E-05 9.00394E-07 1.17358E-19-1.66416E-18
 -1       874 9.53934E-05-2.84766E-05-2.86787E-05 9.44378E-07-1.02527E-19-1.93204E-18
 -1       875 9.51980E-05-2.82210E-05-2.87044E-05 1.04177E-06-4.17731E-19-1.77680E-18
 -1       876 9.49771E-05-2.79219E-05-2.87379E-05 1.20596E-06-7.04089E-19-1.33503E-18
 -1       877 9.47205E-05-2.75774E-05-2.87757E-05 1.44964E-06-9.41193E-19-9.62095E-19
 -1       878 9.44176E-05-2.71868E-05-2.88132E-05 1.78526E-06 1.22344E-20-8.41958E-19
 -1       879 9.40585E-05-2.67533E-05-2.88451E-05 2.22519E-06-7.38738E-19-1.50686E-19
 -1       880 9.36365E-05-2.62878E-05-2.88637E-05 2.78181E-06-3.17423E-20-8.92921E-19
 -1       881 9.31516E-05-2.58134E-05-2.88593E-05 3.46779E-06 6.96001E-19-1.53483E-18
 -1       882 9.26160E-05-2.53722E-05-2.88188E-05 4.29699E-06 9.95472E-19-1.20803E-18
 -1       883 9.20625E-05-2.50345E-05-2.87263E-05 5.28640E-06 5.74410E-19-1.95945E-18
 -1       884 9.15581E-05-2.49107E-05-2.85631E-05 6.45942E-06 5.70540E-19-1.47419E-18
 -1       885 9.12250E-05-2.51673E-05-2.83103E-05 7.84928E-06 3.63823E-19-6.87994E-19
 -1       886 9.12724E-05-2.60461E-05-2.79539E-05 9.49841E-06-2.60013E-19-4.48030E-19
 -1       887 9.20462E-05-2.78874E-05-2.74959E-05 1.14448E-05 2.36005E-19-1.79531E-19
 -1       888 9.41136E-05-3.11538E-05-2.69795E-05 1.36425E-05 1.04383E-18 7.19059E-19
 -1       889 9.82655E-05-3.63324E-05-2.65390E-05 1.58012E-05 6.75259E-19 3.49066E-19
 -1       890 1.05726E-04-4.38357E-05-2.64918E-05 1.68280E-05 8.67799E-19 1.19401E-18
 -1       891 7.89699E-05-2.83829E-05-2.15533E-05-2.33675E-05-3.60674E-19-1.42707E-18
 -1       892 1.06200E-04-4.46158E-05-2.63354E-05-1.98672E-05 1.01562E-18 2.12133E-18
 -1       893 9.60663E-05-2.69525E-05-2.96202E-05 4.01169E-07 7.51642E-19-1.48154E-18
 -1       894 9.88972E-05-3.68633E-05-2.65932E-05-1.84206E-05 8.49225E-19 2.30861E-18
 -1       895 9.49921E-05-3.14188E-05-2.72612E-05-1.61000E-05 3.02373E-18 1.11242E-18
 -1       896 9.60418E-05-2.89189E-05-2.87670E-05-9.91927E-07 1.70839E-20-7.46067E-19
 -1       897 9.55360E-05-2.87074E-05-2.86408E-05-9.54800E-07 5.36441E-19-2.89608E-19
 -1       898 9.56672E-05-2.88475E-05-2.86370E-05-9.59925E-07 1.93294E-19-1.75777E-19
 -1       899 9.52500E-05-2.83042E-05-2.86911E-05-1.07716E-06 2.33641E-20-6.34571E-19
 -1       900 9.50811E-05-2.80407E-05-2.87316E-05-1.23505E-06 8.65207E-20 2.28082E-19
 -1       901 9.48821E-05-2.77317E-05-2.87787E-05-1.47575E-06 6.22443E-19 1.21697E-19
 -1       902 9.46410E-05-2.73729E-05-2.88292E-05-1.81228E-06 3.61048E-19-8.51460E-19
 -1       903 9.43449E-05-2.69614E-05-2.88786E-05-2.25745E-06 6.58623E-20-8.50001E-19
 -1       904 9.39808E-05-2.64986E-05-2.89209E-05-2.82345E-06-3.65713E-19-7.25307E-19
 -1       905 9.35377E-05-2.59945E-05-2.89470E-05-3.52183E-06-2.06875E-19-1.10768E-18
 -1       906 9.30102E-05-2.54732E-05-2.89443E-05-4.36380E-06-1.80514E-19-5.67628E-19
 -1       907 9.24059E-05-2.49822E-05-2.88957E-05-5.36182E-06-2.79859E-19-3.00285E-19
 -1       908 9.17567E-05-2.46053E-05-2.87790E-05-6.53356E-06-7.91751E-19 1.05989E-19
 -1       909 9.11397E-05-2.44822E-05-2.85671E-05-7.90878E-06-7.39871E-19 3.49596E-19
 -1       910 9.07095E-05-2.48344E-05-2.82315E-05-9.53764E-06-4.61681E-19 4.39670E-19
 -1       911 9.07518E-05-2.59995E-05-2.77496E-05-1.14944E-05-6.17590E-19-7.48249E-19
 -1       912 9.17492E-05-2.84589E-05-2.71208E-05-1.38693E-05-1.06487E-18-2.31062E-18
 -1       913 9.47322E-05-3.30074E-05-2.64656E-05-1.65436E-05-6.21668E-19-1.40989E-18
 -1       914 1.00903E-04-4.02661E-05-2.59361E-05-1.91115E-05-1.16317E-18-9.06204E-19
 -1       915 7.47249E-05-2.48658E-05-2.12420E-05-2.13094E-05-3.68344E-20 8.66346E-19
 -1       916 8.89585E-05-3.52090E-05-2.29448E-05-2.57666E-05 3.87392E-19 2.49955E-18
 -1       917 1.04852E-04-4.24822E-05-2.66741E-05 1.94420E-05 1.87239E-18 1.88452E-19
 -1       918 9.84063E-05-3.52145E-05-2.70928E-05 1.81967E-05 1.32915E-18 3.11540E-19
 -1       919 9.48138E-05-2.99964E-05-2.77861E-05 1.59754E-05-2.57749E-19-3.45975E-19
 -1       920 9.03543E-05-2.64658E-05-2.73810E-05-1.41638E-05 3.22799E-18 1.25128E-18
 -1       921 7.96207E-05-1.90297E-05-2.59698E-05-6.21108E-06 1.20275E-18-1.07071E-18
 -1       922 9.09924E-05-3.57593E-05-2.35768E-05 2.52738E-05 9.97305E-19-4.94376E-19
 -1       923 6.42219E-05-1.60433E-05-2.05845E-05-6.60280E-06-2.36253E-19-1.16822E-18
 -1       924 7.10872E-05-2.24599E-05-2.07407E-05 1.96300E-05-8.90687E-19-2.60827E-18
 -1       925 6.40369E-05-1.67186E-05-2.01898E-05 9.65543E-06-9.01132E-19-2.15557E-18
 -1       926 9.58184E-05-2.56155E-05-3.00885E-05-1.18568E-06-9.39370E-19-2.24505E-18
 -1       927 8.44139E-05-2.24414E-05-2.65705E-05-1.15872E-05 1.06366E-18 3.80162E-19
 -1       928 9.53989E-05-2.85257E-05-2.86599E-05-9.88561E-07 7.33887E-19-5.82743E-19
 -1       929 9.32047E-05-1.97618E-05-3.14774E-05-1.18665E-06-3.96355E-19-2.71160E-18
 -1       930 9.10124E-05-2.59332E-05-2.79097E-05 1.42971E-05 6.43589E-19-2.42388E-18
 -1       931 9.52468E-05-2.42176E-05-3.04393E-05 2.28493E-06 1.00753E-18-1.91146E-18
 -1       932 9.57093E-05-2.55723E-05-3.00598E-05 1.43561E-06 9.24501E-19-1.64246E-18
 -1       933 9.62022E-05-2.78539E-05-2.92922E-05-2.78053E-07 8.10577E-19-1.43729E-18
 -1       934 8.83905E-05-3.76907E-05-2.15412E-05 2.76695E-05 1.34934E-18-3.50801E-19
 -1       935 8.59980E-05-2.27974E-05-2.70810E-05 1.26626E-05 6.15176E-19-6.53681E-19
 -1       936 9.61440E-05-2.87516E-05-2.88824E-05-9.02902E-07 2.13527E-19-1.56183E-18
 -1       937 9.59223E-05-2.89705E-05-2.86936E-05-1.00581E-06-2.19586E-19 1.47374E-20
 -1       938 6.33394E-05-1.94093E-05-1.86714E-05 1.82915E-05 1.24031E-18-4.06327E-18
 -1       939 7.84390E-05-1.80572E-05-2.58523E-05 1.31576E-06 7.25343E-19-2.81890E-18
 -1       940 9.57960E-05-2.89395E-05-2.86528E-05-9.84870E-07 1.65203E-19-1.81929E-19
 -1       941 8.06275E-05-1.95748E-05-2.61752E-05 8.38487E-06 1.64586E-18 7.43488E-19
 -1       942 5.68797E-05-1.36556E-05-1.83681E-05-2.31489E-06 5.31103E-19-2.92860E-18
 -1       943 9.54533E-05-2.50923E-05-3.01554E-05 2.11747E-06 1.12858E-18-1.59107E-18
 -1       944 9.45630E-05-2.22765E-05-3.09795E-05 4.32018E-07 1.65300E-19-2.59432E-18
 -1       945 9.47037E-05-2.26150E-05-3.08955E-05 1.22364E-06 5.11625E-19-2.40688E-18
 -1       946 9.50081E-05-2.35233E-05-3.06338E-05-2.40213E-06-1.11517E-18-2.34353E-18
 -1       947 9.47071E-05-2.26761E-05-3.08704E-05-1.81801E-06-7.36722E-19-2.62102E-18
 -1       948 9.49767E-05-2.32923E-05-3.07215E-05 1.88122E-06 7.59792E-19-2.16583E-18
 -1       949 9.66803E-05-2.81223E-05-2.93820E-05 3.18759E-07-7.34013E-19-1.52636E-18
 -1       950 9.66908E-05-2.86717E-05-2.91511E-05 5.44778E-07-4.99526E-19-1.58626E-18
 -1       951 9.65966E-05-2.89737E-05-2.89813E-05 6.61320E-07-2.62561E-19-1.70751E-18
 -1       952 9.64398E-05-2.90970E-05-2.88612E-05 7.07357E-07 1.25834E-19-1.13182E-18
 -1       953 9.62470E-05-2.90913E-05-2.87810E-05 7.14885E-07 1.09316E-19-9.63626E-19
 -1       954 9.60331E-05-2.89910E-05-2.87323E-05 7.09283E-07-3.87059E-19-9.43377E-19
 -1       955 9.58038E-05-2.88180E-05-2.87082E-05 7.10417E-07 1.91942E-19-1.46750E-18
 -1       956 9.55581E-05-2.85848E-05-2.87028E-05 7.34252E-07 1.00931E-19-1.63850E-18
 -1       957 9.52899E-05-2.82970E-05-2.87112E-05 7.94023E-07-4.80539E-20-1.58039E-18
 -1       958 9.49886E-05-2.79550E-05-2.87287E-05 9.01278E-07-1.17567E-19-1.27339E-18
 -1       959 9.46408E-05-2.75565E-05-2.87505E-05 1.06712E-06-3.63318E-19-1.24187E-18
 -1       960 9.42310E-05-2.70984E-05-2.87712E-05 1.30249E-06 1.42244E-19-1.07716E-18
 -1       961 9.37427E-05-2.65797E-05-2.87842E-05 1.61884E-06 3.32651E-20-5.81655E-19
 -1       962 9.31597E-05-2.60040E-05-2.87811E-05 2.02878E-06-6.51004E-19-3.99848E-19
 -1       963 9.24688E-05-2.53838E-05-2.87508E-05 2.54710E-06 3.09410E-19-1.88028E-19
 -1       964 9.16622E-05-2.47446E-05-2.86791E-05 3.19271E-06 5.39329E-19-1.49336E-18
 -1       965 9.07422E-05-2.41314E-05-2.85477E-05 3.99225E-06 7.96716E-19-1.83175E-18
 -1       966 8.97276E-05-2.36163E-05-2.83337E-05 4.98672E-06 9.60594E-19-1.61578E-18
 -1       967 8.86640E-05-2.33084E-05-2.80100E-05 6.24202E-06 8.42642E-19-1.25796E-18
 -1       968 8.76428E-05-2.33714E-05-2.75456E-05 7.86316E-06-2.52118E-19-1.29799E-18
 -1       969 8.68312E-05-2.40438E-05-2.69093E-05 1.00058E-05 2.14721E-19-8.99315E-19
 -1       970 8.65096E-05-2.56656E-05-2.60754E-05 1.29193E-05 1.03034E-18-7.93317E-19
 -1       971 8.73687E-05-2.89301E-05-2.50446E-05 1.69517E-05 4.14709E-19-7.40839E-19
 -1       972 9.59672E-05-2.57823E-05-3.00781E-05 8.41509E-07 5.65230E-19-1.94434E-18
 -1       973 8.73345E-05-2.66862E-05-2.59828E-05-1.62284E-05 1.80141E-18 2.49731E-18
 -1       974 9.44367E-05-2.20676E-05-3.10154E-05-1.05143E-06-3.58531E-19-2.45857E-18
 -1       975 9.47825E-05-2.76959E-05-2.87514E-05-1.14841E-06 1.62722E-19 1.84605E-19
 -1       976 9.50828E-05-2.80626E-05-2.87229E-05-9.80620E-07-4.25100E-19-1.79886E-20
 -1       977 9.39896E-05-2.67720E-05-2.88075E-05-1.71260E-06 5.16853E-19 1.57109E-19
 -1       978 9.34577E-05-2.62063E-05-2.88220E-05-2.12964E-06 2.37970E-19-6.32405E-19
 -1       979 9.28072E-05-2.55728E-05-2.88148E-05-2.65020E-06-2.80753E-19-1.05943E-18
 -1       980 9.20177E-05-2.48834E-05-2.87719E-05-3.28565E-06-8.32392E-19-6.85791E-19
 -1       981 9.10726E-05-2.41650E-05-2.86747E-05-4.05139E-06-8.20968E-19-3.77716E-19
 -1       982 8.99638E-05-2.34675E-05-2.84985E-05-4.97281E-06-6.12057E-19-9.35913E-20
 -1       983 8.86996E-05-2.28733E-05-2.82113E-05-6.09692E-06-5.53445E-19-9.73348E-19
 -1       984 8.73185E-05-2.25147E-05-2.77730E-05-7.51185E-06-3.89354E-19-1.32593E-18
 -1       985 8.59161E-05-2.25979E-05-2.71361E-05-9.37140E-06-8.36302E-20-1.34644E-18
 -1       986 8.46892E-05-2.34442E-05-2.62502E-05-1.19381E-05-9.78918E-19-6.30677E-19
 -1       987 8.42346E-05-2.56299E-05-2.51028E-05-1.56464E-05-8.27148E-19-5.67320E-19
 -1       988 7.14773E-05-2.00069E-05-2.20043E-05-1.41533E-05-7.61946E-19-1.39212E-18
 -1       989 8.84856E-05-2.80115E-05-2.58751E-05 1.79198E-05 1.26839E-18-9.15263E-19
 -1       990 6.98475E-05-1.66082E-05-2.28146E-05 2.63128E-06 4.50991E-19-2.66675E-18
 -1       991 8.09843E-05-2.23869E-05-2.50854E-05 1.43860E-05 1.55734E-18 6.91993E-19
 -1       992 9.65019E-05-2.72328E-05-2.96869E-05-5.99441E-08-6.09837E-19-1.54792E-18
 -1       993 9.57860E-05-2.88387E-05-2.86917E-05-8.02779E-07 3.96729E-19-8.56931E-19
 -1       994 9.60899E-05-2.59078E-05-3.00760E-05-6.30862E-07-6.06894E-19-1.86480E-18
 -1       995 7.57294E-05-2.06935E-05-2.35588E-05-1.30735E-05 6.42152E-19 1.52532E-19
 -1       996 7.37003E-05-2.02242E-05-2.28576E-05 1.34701E-05 1.79574E-19-1.15267E-18
 -1       997 9.44443E-05-2.20478E-05-3.10268E-05-2.95399E-07-1.25112E-19-2.49798E-18
 -1       998 8.37902E-05-2.71859E-05-2.42302E-05 1.98881E-05 1.71832E-18-4.92520E-19
 -1       999 9.62089E-05-2.84199E-05-2.90524E-05-6.86583E-07 6.11740E-19-1.40149E-18
 -1      1000 9.44243E-05-2.72675E-05-2.87815E-05-1.38887E-06 8.58202E-19 4.63708E-19
 -1      1001 9.59863E-05-2.89874E-05-2.87138E-05-8.08282E-07 4.89704E-20-1.04504E-18
 -1      1002 9.63763E-05-2.71317E-05-2.96759E-05 1.36909E-07 5.62340E-19-1.71155E-18
 -1      1003 9.03360E-05-3.44101E-05-2.38665E-05 2.19791E-05 6.48324E-19-2.00710E-19
 -1      1004 7.73226E-05-2.74133E-05-2.13732E-05 2.26570E-05 1.56663E-18-1.14387E-18
 -1      1005 9.63458E-05-2.90526E-05-2.88399E-05-8.09088E-07-2.32621E-19-1.27493E-18
 -1      1006 9.53422E-05-2.83739E-05-2.87007E-05-8.75274E-07 4.25166E-19-6.54791E-20
 -1      1007 6.79690E-05-1.68415E-05-2.18595E-05-8.54565E-06-7.33708E-19-1.76512E-18
 -1      1008 9.55467E-05-2.42616E-05-3.05510E-05 9.58542E-09-9.86629E-20-2.27372E-18
 -1      1009 9.64853E-05-2.89129E-05-2.89596E-05-7.50987E-07-9.66159E-20-9.80449E-19
 -1      1010 6.22588E-05-1.54115E-05-1.99755E-05 8.02825E-06 6.69016E-19-5.36079E-18
 -1      1011 9.55732E-05-2.86323E-05-2.86889E-05-8.20018E-07 7.06871E-19-3.68847E-19
 -1      1012 9.55866E-05-2.44027E-05-3.05081E-05 5.04063E-07 3.18375E-19-2.33728E-18
 -1      1013 9.68660E-05-2.88524E-05-2.91488E-05 3.81104E-07-3.59663E-19-1.60138E-18
 -1      1014 9.67352E-05-2.90931E-05-2.89895E-05 4.38389E-07 2.27798E-19-1.31799E-18
 -1      1015 9.65390E-05-2.91608E-05-2.88764E-05 4.59323E-07 2.30964E-19-1.43518E-18
 -1      1016 9.63031E-05-2.91017E-05-2.88006E-05 4.62705E-07 3.96749E-20-1.14684E-18
 -1      1017 9.60407E-05-2.89474E-05-2.87543E-05 4.63564E-07 5.92783E-20-4.87400E-19
 -1      1018 9.57558E-05-2.87174E-05-2.87307E-05 4.73603E-07-2.10734E-19-1.01418E-18
 -1      1019 9.54444E-05-2.84216E-05-2.87241E-05 5.03000E-07 1.00105E-19-1.22104E-18
 -1      1020 9.50977E-05-2.80640E-05-2.87288E-05 5.59671E-07-1.19249E-19-1.28227E-18
 -1      1021 9.46999E-05-2.76415E-05-2.87395E-05 6.52320E-07-1.73591E-19-1.08760E-18
 -1      1022 9.42340E-05-2.71509E-05-2.87501E-05 7.88481E-07-3.30075E-20-3.97547E-19
 -1      1023 9.36792E-05-2.65879E-05-2.87536E-05 9.76865E-07-5.76009E-20-5.12923E-19
 -1      1024 9.30131E-05-2.59506E-05-2.87413E-05 1.22746E-06-6.46508E-19-1.08746E-18
 -1      1025 9.22128E-05-2.52426E-05-2.87018E-05 1.55257E-06 1.39201E-19-8.01828E-19
 -1      1026 9.12563E-05-2.44759E-05-2.86206E-05 1.96855E-06-2.74393E-19-1.06853E-18
 -1      1027 9.01228E-05-2.36745E-05-2.84784E-05 2.49898E-06 3.40088E-19-1.11877E-18
 -1      1028 8.87942E-05-2.28775E-05-2.82508E-05 3.18011E-06 5.43911E-19-1.62585E-18
 -1      1029 8.72543E-05-2.21428E-05-2.79061E-05 4.07067E-06 8.52837E-19-2.09258E-18
 -1      1030 8.54876E-05-2.15509E-05-2.74035E-05 5.26942E-06 3.69475E-19-2.31496E-18
 -1      1031 8.34856E-05-2.12194E-05-2.66897E-05 6.94578E-06 4.65975E-19-2.05816E-18
 -1      1032 8.12523E-05-2.13206E-05-2.56916E-05 9.36002E-06 2.75143E-19-1.78530E-18
 -1      1033 7.89128E-05-2.21330E-05-2.43254E-05 1.29331E-05 8.93234E-19-2.98683E-18
 -1      1034 9.15756E-05-2.46479E-05-2.86836E-05-2.10775E-06-5.24050E-19-2.68185E-19
 -1      1035 9.61748E-05-2.90661E-05-2.87609E-05-8.18155E-07 5.74238E-20-1.48608E-18
 -1      1036 9.48200E-05-2.77632E-05-2.87386E-05-7.74204E-07-4.68465E-20 1.83980E-20
 -1      1037 9.55039E-05-2.42091E-05-3.05556E-05-4.42006E-07-2.59000E-19-2.51106E-18
 -1      1038 6.77513E-05-1.55603E-05-2.23359E-05-5.49636E-07-3.36067E-19-2.34044E-18
 -1      1039 9.25016E-05-2.54334E-05-2.87438E-05-1.70699E-06 1.67796E-19 1.61242E-20
 -1      1040 9.32606E-05-2.61381E-05-2.87670E-05-1.37980E-06 6.75515E-19 3.30817E-20
 -1      1041 9.04511E-05-2.37940E-05-2.85676E-05-2.59134E-06-1.11935E-19-7.22121E-19
 -1      1042 8.90944E-05-2.28964E-05-2.83710E-05-3.17372E-06-1.22823E-18-7.45095E-19
 -1      1043 8.74679E-05-2.19949E-05-2.80605E-05-3.88622E-06-6.55058E-19-8.87962E-19
 -1      1044 8.55249E-05-2.11467E-05-2.75914E-05-4.79200E-06-3.02847E-19-4.08240E-19
 -1      1045 8.32027E-05-2.04321E-05-2.69028E-05-6.01928E-06 3.06929E-19-1.09104E-18
 -1      1046 8.04563E-05-1.99941E-05-2.59118E-05-7.79273E-06-7.94216E-19-6.78227E-19
 -1      1047 7.71865E-05-1.99411E-05-2.45273E-05-1.04783E-05-1.04985E-18-1.44134E-18
 -1      1048 9.58069E-05-2.50522E-05-3.03235E-05 7.57284E-07 5.20901E-19-2.07891E-18
 -1      1049 9.58450E-05-2.50724E-05-3.03319E-05-6.20522E-07-2.73806E-19-2.06539E-18
 -1      1050 9.67465E-05-2.75701E-05-2.96469E-05 6.57928E-08-5.55284E-19-1.99102E-18
 -1      1051 9.64102E-05-2.65098E-05-2.99575E-05-2.12162E-07-4.36592E-19-2.14527E-18
 -1      1052 9.65685E-05-2.85980E-05-2.91302E-05-6.06017E-07 2.89656E-19-1.13547E-18
 -1      1053 9.65520E-05-2.80349E-05-2.93646E-05-3.25901E-07 5.39869E-19-1.29025E-18
 -1      1054 9.43936E-05-2.72986E-05-2.87551E-05-9.19615E-07 3.91078E-19 2.49887E-19
 -1      1055 7.07481E-05-2.04269E-05-2.15021E-05 1.58630E-05 1.79349E-18-2.34327E-18
 -1      1056 9.38822E-05-2.67589E-05-2.87672E-05-1.11942E-06 1.03223E-18 2.94646E-19
 -1      1057 9.68908E-05-2.83745E-05-2.93642E-05 2.64534E-07-6.67481E-19-1.74835E-18
 -1      1058 9.60451E-05-2.89698E-05-2.87465E-05-5.81894E-07 2.80345E-19-1.47988E-18
 -1      1059 9.64107E-05-2.66566E-05-2.98948E-05 2.22122E-07 3.90522E-19-1.99987E-18
 -1      1060 9.51808E-05-2.81577E-05-2.87244E-05-6.76074E-07-3.85014E-19-1.58561E-19
 -1      1061 9.62812E-05-2.59410E-05-3.01446E-05 1.12549E-07 1.39735E-19-2.19860E-18
 -1      1062 9.65050E-05-2.91388E-05-2.88713E-05-5.79322E-07-1.00327E-20-1.40194E-18
 -1      1063 7.03971E-05-1.70347E-05-2.28403E-05 6.72059E-06 7.14111E-19-2.70893E-18
 -1      1064 9.66841E-05-2.90475E-05-2.89872E-05-5.49255E-07-2.37508E-20-1.38853E-18
 -1      1065 9.57834E-05-2.87624E-05-2.87232E-05-5.89624E-07-7.87681E-20-1.18175E-18
 -1      1066 9.62198E-05-2.57943E-05-3.01803E-05-9.90965E-08-1.44715E-19-2.14489E-18
 -1      1067 9.62874E-05-2.91020E-05-2.87937E-05-5.83765E-07-3.81535E-19-1.47165E-18
 -1      1068 9.63675E-05-2.62837E-05-3.00352E-05 2.06505E-07 3.76907E-19-1.88142E-18
 -1      1069 9.67547E-05-2.91677E-05-2.89656E-05 1.75782E-07 1.28133E-19-1.08679E-18
 -1      1070 9.65231E-05-2.91714E-05-2.88648E-05 1.80908E-07-1.23124E-19-1.22867E-18
 -1      1071 9.62529E-05-2.90569E-05-2.87981E-05 1.82501E-07 2.36819E-20-1.78316E-18
 -1      1072 9.59525E-05-2.88503E-05-2.87581E-05 1.85569E-07 1.10098E-21-1.80864E-18
 -1      1073 9.56265E-05-2.85708E-05-2.87382E-05 1.94413E-07-2.97075E-19-1.52837E-18
 -1      1074 9.52663E-05-2.82223E-05-2.87328E-05 2.13947E-07-1.43774E-19-2.10913E-18
 -1      1075 9.48529E-05-2.78013E-05-2.87362E-05 2.47632E-07 3.35391E-19-1.68379E-18
 -1      1076 9.43741E-05-2.73102E-05-2.87415E-05 2.98070E-07 2.25724E-19-1.13732E-18
 -1      1077 9.38062E-05-2.67409E-05-2.87421E-05 3.71346E-07-2.43673E-19-1.82978E-18
 -1      1078 9.31238E-05-2.60883E-05-2.87293E-05 4.72753E-07-3.95684E-19-1.39439E-18
 -1      1079 9.22991E-05-2.53498E-05-2.86923E-05 6.09814E-07-3.35186E-19-7.03645E-19
 -1      1080 9.13018E-05-2.45281E-05-2.86169E-05 7.92950E-07 7.51360E-20-1.16747E-18
 -1      1081 9.00988E-05-2.36330E-05-2.84848E-05 1.03718E-06 3.18232E-19-6.96547E-19
 -1      1082 8.86519E-05-2.26831E-05-2.82716E-05 1.36493E-06-2.16628E-19-8.83623E-19
 -1      1083 8.69131E-05-2.17049E-05-2.79454E-05 1.81065E-06 5.46634E-19-1.06902E-18
 -1      1084 8.48133E-05-2.07297E-05-2.74633E-05 2.42804E-06 9.18956E-20-1.65808E-18
 -1      1085 8.22414E-05-1.97855E-05-2.67663E-05 3.30038E-06-1.98806E-19-2.20794E-18
 -1      1086 7.90290E-05-1.88640E-05-2.57686E-05 4.63621E-06 7.37482E-19-3.30337E-18
 -1      1087 7.55393E-05-1.81680E-05-2.45604E-05 5.58506E-06-1.78948E-19-2.85872E-18
 -1      1088 9.70026E-05-2.86289E-05-2.93030E-05 1.26476E-07-8.01443E-20-1.00058E-18
 -1      1089 8.89895E-05-2.28368E-05-2.83517E-05-1.40285E-06-3.36051E-19-5.86114E-19
 -1      1090 9.54985E-05-2.84901E-05-2.87178E-05-6.17888E-07 2.71194E-19-1.16401E-19
 -1      1091 9.15744E-05-2.47161E-05-2.86539E-05-9.68441E-07-1.52842E-19 9.25045E-19
 -1      1092 9.25323E-05-2.55309E-05-2.87151E-05-7.96428E-07 4.18766E-19 9.17086E-19
 -1      1093 8.72653E-05-2.18032E-05-2.80561E-05-1.67243E-06-5.17431E-19-9.81807E-19
 -1      1094 8.51593E-05-2.07362E-05-2.76111E-05-1.99390E-06-8.78490E-19-2.02801E-18
 -1      1095 8.25514E-05-1.96532E-05-2.69576E-05-2.39972E-06 1.45906E-19-1.67772E-18
 -1      1096 7.92227E-05-1.85364E-05-2.60077E-05-2.95153E-06-2.48111E-19-8.23892E-19
 -1      1097 7.50116E-05-1.74740E-05-2.46757E-05-3.79126E-06-3.90271E-19-1.30739E-18
 -1      1098 9.04077E-05-2.38141E-05-2.85406E-05-1.17007E-06-2.47890E-19 2.57493E-19
 -1      1099 9.68015E-05-2.87850E-05-2.91503E-05-4.67070E-07 2.19039E-20-1.54525E-18
 -1      1100 9.63282E-05-2.61393E-05-3.00798E-05-1.76686E-07-3.24910E-19-2.37686E-18
 -1      1101 9.69281E-05-2.79586E-05-2.95589E-05 6.01736E-08-2.41567E-19-1.71976E-18
 -1      1102 9.45011E-05-2.74348E-05-2.87428E-05-4.52288E-07 1.58239E-19-1.37806E-18
 -1      1103 9.69262E-05-2.90049E-05-2.91088E-05 1.60305E-07 7.39943E-20-7.17346E-19
 -1      1104 9.33183E-05-2.62541E-05-2.87420E-05-6.53633E-07 5.37904E-19 3.23274E-19
 -1      1105 9.39649E-05-2.68870E-05-2.87478E-05-5.39394E-07-4.69115E-20-8.07713E-19
 -1      1106 9.49524E-05-2.79046E-05-2.87348E-05-3.88183E-07 9.71655E-20-1.09891E-18
 -1      1107 9.62849E-05-2.90816E-05-2.88015E-05-3.15383E-07-1.41305E-19-1.25545E-18
 -1      1108 7.41279E-05-1.71350E-05-2.44602E-05 6.21377E-07 1.67200E-19-1.70207E-18
 -1      1109 9.67599E-05-2.91434E-05-2.89785E-05-3.01087E-07-8.64914E-20-1.63496E-18
 -1      1110 9.60005E-05-2.88966E-05-2.87588E-05-3.17580E-07 8.75520E-21-8.30113E-19
 -1      1111 9.68169E-05-2.82895E-05-2.93716E-05-2.99236E-07 3.30094E-19-1.43502E-18
 -1      1112 9.65420E-05-2.91735E-05-2.88723E-05-3.13024E-07-1.63838E-19-1.32084E-18
 -1      1113 9.67131E-05-2.71842E-05-2.97992E-05-2.39683E-08-1.02704E-19-1.90079E-18
 -1      1114 9.67371E-05-2.72357E-05-2.97871E-05 5.77859E-09 2.76918E-20-1.94756E-18
 -1      1115 9.66771E-05-2.75954E-05-2.96069E-05-9.75385E-08 1.12547E-19-1.81535E-18
 -1      1116 9.69159E-05-2.89498E-05-2.91280E-05-2.67748E-07-5.51835E-20-1.74351E-18
 -1      1117 9.54488E-05-2.83997E-05-2.87355E-05-1.21354E-07-3.87891E-19-1.39628E-18
 -1      1118 9.67198E-05-2.73909E-05-2.97080E-05-9.62382E-09-1.88657E-20-1.91475E-18
 -1      1119 9.69738E-05-2.83620E-05-2.94041E-05-1.43444E-07 4.64288E-19-1.68353E-18
 -1      1120 9.57447E-05-2.86771E-05-2.87432E-05-2.22770E-07-1.22518E-19-1.16815E-18
 -1      1121 1.16849E-04 2.57548E-10-4.18526E-05-4.14670E-05-3.16790E-19 1.11470E-17
 -1      1122 8.86422E-05 7.19050E-11-3.72482E-05-2.41722E-05-1.85394E-19 1.81154E-18
 -1      1123 8.40705E-05 4.14272E-11-3.57646E-05-1.78854E-05-1.35737E-19-2.31162E-18
 -1      1124 8.23319E-05 3.20343E-11-3.50716E-05-1.38457E-05-9.29089E-20-4.25963E-18
 -1      1125 8.15341E-05 2.73436E-11-3.47386E-05-1.05404E-05-6.42157E-20-5.20361E-18
 -1      1126 8.11331E-05 2.46173E-11-3.45746E-05-7.64648E-06-2.97851E-20-5.66519E-18
 -1      1127 8.09265E-05 2.29671E-11-3.44924E-05-4.98410E-06-2.00244E-20-5.85474E-18
 -1      1128 8.08263E-05 2.20756E-11-3.44538E-05-2.43444E-06-8.07659E-21-5.89486E-18
 -1      1129 8.07979E-05 2.18061E-11-3.44430E-05 5.24948E-08 2.57915E-21-5.85231E-18
 -1      1130 8.08307E-05 2.21197E-11-3.44552E-05 2.54194E-06 2.36623E-20-5.75366E-18
 -1      1131 8.09356E-05 2.30673E-11-3.44953E-05 5.09993E-06 3.57706E-20-5.59678E-18
 -1      1132 8.11489E-05 2.47797E-11-3.45790E-05 7.77868E-06 4.84265E-20-5.27117E-18
 -1      1133 8.15545E-05 2.76473E-11-3.47451E-05 1.07005E-05 6.64656E-20-4.64887E-18
 -1      1134 8.23556E-05 3.24994E-11-3.50816E-05 1.40503E-05 9.76470E-20-3.52589E-18
 -1      1135 8.40680E-05 4.19161E-11-3.57845E-05 1.81363E-05 1.38755E-19-1.36049E-18
 -1      1136 8.83406E-05 6.67262E-11-3.73184E-05 2.40156E-05 1.62630E-19 2.86681E-18
 -1      1137 1.06612E-04 1.63899E-10-4.06312E-05 3.61946E-05 3.64224E-19 1.18218E-17
 -1      1138 1.30215E-04-2.57547E-05-4.02710E-05-2.61070E-05-1.28770E-18 1.71236E-17
 -1      1139 9.74446E-05-2.88589E-05-3.15739E-05-6.81157E-07-4.00514E-19 1.40976E-17
 -1      1140 9.01408E-05-2.70209E-05-2.78875E-05 3.86874E-07-1.64801E-19 9.57135E-18
 -1      1141 8.82247E-05-2.65650E-05-2.66362E-05 2.50715E-07-6.87553E-20 6.65842E-18
 -1      1142 8.78604E-05-2.64366E-05-2.63781E-05 1.65643E-07-3.44835E-20 4.72179E-18
 -1      1143 8.82127E-05-2.65112E-05-2.64610E-05 1.17722E-07-5.94180E-20 3.60320E-18
 -1      1144 8.88911E-05-2.66933E-05-2.66613E-05 8.70249E-08-3.05652E-20 2.24759E-18
 -1      1145 8.96970E-05-2.69225E-05-2.69013E-05 6.56762E-08-8.75536E-20 1.61996E-18
 -1      1146 9.05208E-05-2.71625E-05-2.71469E-05 4.98252E-08-4.99424E-20 7.66188E-19
 -1      1147 9.13013E-05-2.73926E-05-2.73804E-05 3.75692E-08-8.69688E-20-2.49478E-19
 -1      1148 9.20072E-05-2.76020E-05-2.75923E-05 2.78986E-08-3.23649E-20-1.35663E-18
 -1      1149 9.26261E-05-2.77866E-05-2.77788E-05 2.02198E-08 1.26064E-19-1.20843E-18
 -1      1150 9.31590E-05-2.79462E-05-2.79399E-05 1.41459E-08-7.86396E-20-2.27406E-18
 -1      1151 9.36155E-05-2.80834E-05-2.80786E-05 9.40890E-09 2.41417E-20-2.69046E-18
 -1      1152 9.40119E-05-2.82030E-05-2.81995E-05 5.82451E-09 2.09705E-20-2.08734E-18
 -1      1153 9.43698E-05-2.83114E-05-2.83092E-05 3.28044E-09-1.45265E-19-2.35757E-18
 -1      1154 9.47148E-05-2.84163E-05-2.84153E-05 1.73648E-09-5.89026E-20-3.16419E-18
 -1      1155 9.50775E-05-2.85267E-05-2.85271E-05 1.23088E-09 6.58404E-20-3.67578E-18
 -1      1156 9.54928E-05-2.86531E-05-2.86551E-05 1.89018E-09-3.95401E-20-3.26761E-18
 -1      1157 9.60012E-05-2.88076E-05-2.88116E-05 3.94026E-09-8.06108E-20-3.34433E-18
 -1      1158 9.66485E-05-2.90040E-05-2.90103E-05 7.71464E-09-9.86616E-20-4.05277E-18
 -1      1159 9.74860E-05-2.92574E-05-2.92665E-05 1.36524E-08 1.27628E-19-4.07307E-18
 -1      1160 9.85688E-05-2.95841E-05-2.95966E-05 2.22692E-08 9.67719E-20-2.60678E-18
 -1      1161 9.99518E-05-3.00003E-05-3.00162E-05 3.40703E-08-1.15611E-19-4.25252E-18
 -1      1162 1.01682E-04-3.05193E-05-3.05384E-05 4.93455E-08 5.70258E-21-4.78516E-18
 -1      1163 1.03783E-04-3.11476E-05-3.11681E-05 6.77496E-08-1.85099E-19-4.99202E-18
 -1      1164 1.06234E-04-3.18775E-05-3.18950E-05 8.75313E-08 7.39251E-20-3.90012E-18
 -1      1165 1.08929E-04-3.26765E-05-3.26826E-05 1.04282E-07 1.20833E-19-3.66613E-18
 -1      1166 1.11630E-04-3.34724E-05-3.34538E-05 1.09271E-07-1.51248E-19-2.96581E-18
 -1      1167 1.13915E-04-3.41390E-05-3.40784E-05 8.81000E-08 6.51339E-20-1.90253E-18
 -1      1168 1.15152E-04-3.44885E-05-3.43711E-05 2.18310E-08-2.72387E-19-1.93313E-18
 -1      1169 1.14552E-04-3.42904E-05-3.41183E-05-1.05381E-07 3.90793E-20-1.39215E-18
 -1      1170 1.11402E-04-3.33407E-05-3.31499E-05-2.88899E-07-6.81365E-20-1.54615E-18
 -1      1171 1.05498E-04-3.15905E-05-3.14570E-05-4.80865E-07 4.41582E-20-3.05218E-18
 -1      1172 9.76569E-05-2.92924E-05-2.93052E-05-5.84528E-07 1.23351E-19-3.58433E-18
 -1      1173 8.99162E-05-2.70445E-05-2.72457E-05-4.97858E-07 1.78919E-19-3.96358E-18
 -1      1174 8.49269E-05-2.56038E-05-2.59398E-05-2.01892E-07 4.39564E-19-3.79458E-18
 -1      1175 8.46085E-05-2.55081E-05-2.58443E-05 1.86967E-07-6.45466E-20-9.11381E-19
 -1      1176 8.89606E-05-2.67572E-05-2.69586E-05 4.83837E-07 6.41991E-20 4.90009E-19
 -1      1177 9.60540E-05-2.88099E-05-2.88214E-05 5.70883E-07 6.24270E-20-2.14458E-19
 -1      1178 1.03209E-04-3.09009E-05-3.07626E-05 4.64716E-07-1.40300E-19-3.81959E-19
 -1      1179 1.08345E-04-3.24202E-05-3.22207E-05 2.66349E-07-1.60718E-19-2.69965E-18
 -1      1180 1.10607E-04-3.31046E-05-3.29214E-05 7.32891E-08 2.78859E-19-4.24312E-18
 -1      1181 1.10192E-04-3.30005E-05-3.28721E-05-6.50149E-08 9.36402E-20-2.44491E-18
 -1      1182 1.07847E-04-3.23222E-05-3.22544E-05-1.41940E-07 1.23529E-19-2.32460E-18
 -1      1183 1.04447E-04-3.13264E-05-3.13123E-05-1.69978E-07 1.75743E-20-4.44004E-18
 -1      1184 1.00794E-04-3.02508E-05-3.02858E-05-1.60615E-07 1.69953E-19-5.84736E-18
 -1      1185 9.75996E-05-2.93079E-05-2.93870E-05-1.09566E-07 6.99484E-19-2.73523E-18
 -1      1186 9.55635E-05-2.87339E-05-2.87736E-05 1.10344E-08-1.25796E-19-9.03473E-19
 -1      1187 9.50217E-05-2.84962E-05-2.84324E-05 7.76475E-08 4.42939E-19 9.94767E-19
 -1      1188 1.31048E-04-3.77368E-05-3.86563E-05 1.21748E-05-1.96168E-19 1.92577E-17
 -1      1189 9.65456E-05-2.81854E-05-3.13263E-05 8.01669E-07 1.38755E-19 1.51170E-17
 -1      1190 9.03554E-05-2.69237E-05-2.78686E-05 1.20269E-07 1.22515E-19 1.11355E-17
 -1      1191 8.83115E-05-2.64923E-05-2.66727E-05 9.09658E-09 1.03149E-19 8.46197E-18
 -1      1192 8.79007E-05-2.63991E-05-2.64052E-05-2.51699E-08 5.21074E-20 6.52088E-18
 -1      1193 8.82344E-05-2.64937E-05-2.64767E-05-3.41442E-08 6.44837E-20 5.25499E-18
 -1      1194 8.89040E-05-2.66864E-05-2.66715E-05-3.52313E-08 4.46872E-20 4.72835E-18
 -1      1195 8.97050E-05-2.69211E-05-2.69086E-05-3.33740E-08-6.51219E-21 4.29184E-18
 -1      1196 9.05257E-05-2.71639E-05-2.71523E-05-3.01266E-08 1.65333E-20 3.05066E-18
 -1      1197 9.13042E-05-2.73954E-05-2.73844E-05-2.61824E-08 6.98766E-20 1.19509E-18
 -1      1198 9.20085E-05-2.76054E-05-2.75951E-05-2.19417E-08 1.71673E-19 1.35813E-19
 -1      1199 9.26262E-05-2.77899E-05-2.77806E-05-1.76504E-08-4.98948E-20-4.07148E-19
 -1      1200 9.31578E-05-2.79490E-05-2.79409E-05-1.34488E-08 2.73699E-20-4.05899E-19
 -1      1201 9.36131E-05-2.80856E-05-2.80788E-05-9.40335E-09 5.27425E-20-1.14895E-18
 -1      1202 9.40082E-05-2.82043E-05-2.81990E-05-5.52969E-09 1.81357E-19-2.12039E-18
 -1      1203 9.43645E-05-2.83118E-05-2.83079E-05-1.81265E-09 9.54638E-20-2.76027E-18
 -1      1204 9.47082E-05-2.84157E-05-2.84134E-05 1.77451E-09-9.81704E-20-2.87183E-18
 -1      1205 9.50701E-05-2.85254E-05-2.85249E-05 5.24921E-09-1.56338E-20-1.78455E-18
 -1      1206 9.54864E-05-2.86517E-05-2.86534E-05 8.59439E-09 1.43031E-19-3.69645E-18
 -1      1207 9.59996E-05-2.88074E-05-2.88117E-05 1.17248E-08 3.17584E-20-5.14773E-18
 -1      1208 9.66595E-05-2.90073E-05-2.90149E-05 1.44384E-08-2.64369E-19-3.30563E-18
 -1      1209 9.75239E-05-2.92688E-05-2.92806E-05 1.63443E-08 4.29509E-20-1.80581E-18
 -1      1210 9.86587E-05-2.96114E-05-2.96284E-05 1.67559E-08 4.67833E-20-2.09804E-18
 -1      1211 1.00136E-04-3.00563E-05-3.00799E-05 1.45440E-08 3.15619E-20-3.47289E-18
 -1      1212 1.02029E-04-3.06245E-05-3.06559E-05 7.95612E-09 1.06458E-20-3.33315E-18
 -1      1213 1.04399E-04-3.13334E-05-3.13729E-05-5.53260E-09-1.81536E-19-1.61067E-18
 -1      1214 1.07272E-04-3.21893E-05-3.22349E-05-2.91445E-08-1.36488E-19-1.20576E-18
 -1      1215 1.10600E-04-3.31754E-05-3.32202E-05-6.60451E-08 2.48605E-19-2.90164E-18
 -1      1216 1.14192E-04-3.42334E-05-3.42615E-05-1.17062E-07-4.29617E-20-2.70505E-18
 -1      1217 1.17631E-04-3.52396E-05-3.52218E-05-1.75790E-07 1.25463E-19-3.27455E-18
 -1      1218 1.20185E-04-3.59816E-05-3.58767E-05-2.20907E-07-1.43638E-19-2.26592E-18
 -1      1219 1.20800E-04-3.61581E-05-3.59272E-05-2.10044E-07-6.69090E-20-4.99088E-20
 -1      1220 1.18302E-04-3.54364E-05-3.50814E-05-8.86056E-08 7.22029E-20 2.51775E-18
 -1      1221 1.11980E-04-3.36090E-05-3.32228E-05 1.69299E-07-2.55500E-20 2.92999E-18
 -1      1222 1.02470E-04-3.08356E-05-3.06167E-05 4.95998E-07-1.49279E-19 4.46746E-18
 -1      1223 9.23633E-05-2.78297E-05-2.79888E-05 7.08973E-07 1.16149E-19 2.14151E-18
 -1      1224 8.55735E-05-2.57286E-05-2.62942E-05 6.24012E-07 7.52020E-19-2.14379E-18
 -1      1225 8.51596E-05-2.55027E-05-2.62171E-05 2.37629E-07-1.75197E-19-1.24866E-18
 -1      1226 9.11674E-05-2.72521E-05-2.77465E-05-2.34930E-07 2.31551E-19-1.89450E-18
 -1      1227 1.00583E-04-3.00989E-05-3.01797E-05-5.40806E-07-1.92047E-20-4.10027E-18
 -1      1228 1.09439E-04-3.28094E-05-3.25544E-05-5.84340E-07-7.86252E-20-3.69073E-18
 -1      1229 1.15040E-04-3.45274E-05-3.41449E-05-4.40498E-07-4.13458E-19-8.23263E-19
 -1      1230 1.16677E-04-3.50292E-05-3.46882E-05-2.36690E-07 1.01654E-19-2.38239E-18
 -1      1231 1.15041E-04-3.45341E-05-3.43054E-05-5.91854E-08 8.20497E-20-4.13089E-18
 -1      1232 1.11336E-04-3.34168E-05-3.32999E-05 6.38841E-08 2.62794E-19-3.06303E-18
 -1      1233 1.06711E-04-3.20284E-05-3.19979E-05 1.38612E-07 1.19357E-19-6.07053E-18
 -1      1234 1.02075E-04-3.06424E-05-3.06793E-05 1.79818E-07-6.39965E-20-6.19896E-18
 -1      1235 9.81586E-05-2.94750E-05-2.95693E-05 1.87808E-07 2.55513E-19-7.48634E-18
 -1      1236 9.56481E-05-2.87229E-05-2.88257E-05 1.17948E-07 7.38217E-19-8.98066E-18
 -1      1237 9.50198E-05-2.85003E-05-2.84184E-05-7.76572E-08 2.99618E-19-7.07439E-18
 -1      1238 9.53139E-05-2.87922E-05-2.84257E-05-7.00298E-08-7.30063E-18-1.16074E-18
 -1      1239 9.50536E-05-2.81063E-05-2.88416E-05-1.50304E-08-9.44378E-18 3.62768E-20
 -1      1240 9.43256E-05-2.56336E-05-2.95765E-05 1.36500E-07-1.62036E-18 4.02897E-19
 -1      1241 9.32197E-05-2.18892E-05-3.06320E-05 1.94544E-07 3.68473E-18-2.84019E-19
 -1      1242 9.19622E-05-1.76233E-05-3.18422E-05 2.04455E-07 3.94966E-18-6.80825E-19
 -1      1243 9.07661E-05-1.35590E-05-3.30007E-05 1.79945E-07-2.73997E-18-4.66401E-19
 -1      1244 8.98015E-05-1.02757E-05-3.39390E-05 1.31487E-07-4.22685E-18-2.82575E-19
 -1      1245 8.92060E-05-8.24791E-06-3.45191E-05 5.95458E-08-1.92599E-18-1.49088E-19
 -1      1246 8.90772E-05-7.81228E-06-3.46465E-05-2.07388E-08-3.89503E-18 9.38056E-20
 -1      1247 8.94261E-05-9.00572E-06-3.43104E-05-9.47570E-08-5.34120E-19 4.31474E-19
 -1      1248 9.01857E-05-1.15986E-05-3.35732E-05-1.49838E-07-6.35727E-18-1.20538E-18
 -1      1249 9.12247E-05-1.51278E-05-3.25650E-05-1.79379E-07-1.05048E-17-8.63626E-20
 -1      1250 9.23902E-05-1.90874E-05-3.14291E-05-1.82805E-07-8.21574E-18-8.71330E-19
 -1      1251 9.35391E-05-2.29746E-05-3.03180E-05-1.62929E-07-4.55963E-18 2.07492E-19
 -1      1252 9.45128E-05-2.62538E-05-2.93940E-05-1.29600E-07-1.61904E-18-9.32944E-20
 -1      1253 9.50413E-05-2.81759E-05-2.87805E-05 6.59833E-08 2.48187E-19-7.71227E-19
 -1      1254 9.53164E-05-2.87859E-05-2.84347E-05 6.80188E-08-5.39295E-19 7.69270E-19
 -1      1255 3.54544E-05-1.11351E-04 1.88743E-05-1.40932E-05 6.07026E-18-1.11538E-18
 -1      1256 1.83187E-05-6.88714E-05 1.04251E-05-2.59568E-05 4.53417E-18 2.00281E-18
 -1      1257 7.57655E-06-1.26960E-05-4.79241E-06-3.18848E-06 2.34967E-18 1.29088E-18
 -1      1258 3.01898E-05 2.22917E-05-2.37751E-05 4.68909E-05 2.69356E-19 5.91229E-19
 -1      1259 1.01246E-04 1.48320E-05-4.50198E-05 9.72856E-05 1.25361E-19-2.38863E-19
 -1      1260 2.05646E-04-3.19665E-05-6.39461E-05 1.11157E-04-1.63393E-18-3.41524E-18
 -1      1261 2.89115E-04-7.92912E-05-7.55787E-05 6.56692E-05-1.26308E-18-5.37951E-18
 -1      1262 3.13738E-04-9.45510E-05-7.84589E-05-1.29956E-05 8.90549E-19-1.12558E-17
 -1      1263 2.61302E-04-6.31805E-05-7.17411E-05-8.53225E-05 4.43972E-18-1.54143E-17
 -1      1264 1.63642E-04-1.12742E-05-5.68432E-05-1.11293E-04 5.24991E-18-1.21956E-17
 -1      1265 6.93403E-05 2.30073E-05-3.72912E-05-8.16120E-05 6.70088E-18-8.51099E-18
 -1      1266 1.57099E-05 1.36151E-05-1.62794E-05-2.56383E-05 1.04083E-17-8.03750E-18
 -1      1267 8.68418E-06-3.31095E-05 1.72381E-06 1.69042E-05 1.32967E-17-6.54036E-18
 -1      1268 2.48845E-05-8.62976E-05 1.41717E-05 2.50171E-05 1.02491E-17-3.54123E-18
 -1      1269 3.65288E-05-1.13156E-04 1.93998E-05 4.04685E-06 5.91970E-18-5.48401E-19
 -1      1270 2.94737E-05-9.67380E-05 1.62148E-05-2.12780E-05-2.62157E-18-1.72429E-18
 -1      1271 1.15030E-05-4.50677E-05 4.97024E-06-1.99165E-05-1.16171E-17-5.58025E-18
 -1      1272 1.15006E-05 6.77373E-06-1.26141E-05 1.63281E-05-1.06929E-17-7.16929E-18
 -1      1273 5.90749E-05 2.48322E-05-3.44201E-05 7.50950E-05-8.81338E-18-9.96280E-18
 -1      1274 1.55395E-04-7.26608E-06-5.54104E-05 1.10851E-04-6.66191E-18-1.22210E-17
 -1      1275 2.54888E-04-5.98997E-05-7.08204E-05 8.79590E-05-3.97957E-18-1.17932E-17
 -1      1276 3.09758E-04-9.30239E-05-7.79107E-05 1.81145E-05-9.03202E-19-5.75432E-18
 -1      1277 2.90372E-04-8.12624E-05-7.55146E-05-6.20710E-05-1.82292E-18 4.80310E-18
 -1      1278 2.06993E-04-3.25757E-05-6.41209E-05-1.08841E-04-4.63158E-18 1.16696E-17
 -1      1279 1.06307E-04 1.40915E-05-4.61540E-05-1.00882E-04-5.03392E-18 7.61144E-18
 -1      1280 3.32430E-05 2.44528E-05-2.55044E-05-5.20723E-05-2.09387E-18 2.53432E-18
 -1      1281 7.61402E-06-1.03421E-05-5.43184E-06 1.32834E-06 3.67273E-18-2.47334E-18
 -1      1282 1.81385E-05-6.76530E-05 1.01791E-05 2.57928E-05 6.36715E-18-2.13283E-18
 -1      1283 3.52554E-05-1.10508E-04 1.87536E-05 1.40052E-05 7.27728E-18-1.52066E-18
 -1      1284 1.04435E-04-2.20174E-05-3.78893E-05-1.72777E-05-4.59727E-19 9.18057E-18
 -1      1285 9.03105E-05-6.67987E-06-3.60142E-05-2.04770E-05-1.41343E-18-1.20914E-19
 -1      1286 9.26466E-05-6.73848E-06-3.72190E-05-2.57645E-05-1.81540E-18 2.03838E-18
 -1      1287 8.58940E-05-4.09209E-06-3.51277E-05-1.64403E-05-1.45086E-18-3.16841E-18
 -1      1288 8.71465E-05-4.08723E-06-3.55968E-05-1.88592E-05-1.63239E-18-1.84044E-18
 -1      1289 9.21246E-05-1.04610E-05-3.50907E-05-1.90389E-05-2.50370E-18-1.38278E-19
 -1      1290 8.40977E-05-3.19215E-06-3.46858E-05-1.28273E-05-1.18839E-18-4.67876E-18
 -1      1291 8.47025E-05-3.16089E-06-3.49093E-05-1.46432E-05-1.36301E-18-3.99813E-18
 -1      1292 8.78616E-05-7.39059E-06-3.45720E-05-1.54248E-05-2.28122E-18-2.63938E-18
 -1      1293 8.31873E-05-2.72832E-06-3.44701E-05-9.69278E-06-8.70075E-19-5.41368E-18
 -1      1294 8.35016E-05-2.71178E-06-3.45789E-05-1.12406E-05-1.01554E-18-5.07227E-18
 -1      1295 8.58676E-05-5.98602E-06-3.43039E-05-1.19639E-05-1.81322E-18-3.94413E-18
 -1      1296 8.26975E-05-2.45816E-06-3.43650E-05-6.92113E-06-5.84218E-19-5.76866E-18
 -1      1297 8.28656E-05-2.44964E-06-3.44188E-05-8.29264E-06-6.99590E-19-5.59363E-18
 -1      1298 8.48228E-05-5.21803E-06-3.41731E-05-8.95042E-06-1.30815E-18-4.54428E-18
 -1      1299 8.24247E-05-2.29330E-06-3.43130E-05-4.29919E-06-3.61423E-19-5.92203E-18
 -1      1300 8.25147E-05-2.28932E-06-3.43398E-05-5.60145E-06-4.27543E-19-5.87466E-18
 -1      1301 8.42403E-05-4.76384E-06-3.41109E-05-6.22228E-06-8.48935E-19-4.90363E-18
 -1      1302 8.22937E-05-2.20420E-06-3.42911E-05-1.79187E-06-1.15146E-19-5.93429E-18
 -1      1303 8.23321E-05-2.20261E-06-3.43020E-05-3.04411E-06-1.98636E-19-5.91225E-18
 -1      1304 8.39203E-05-4.50095E-06-3.40826E-05-3.64820E-06-4.76741E-19-4.95840E-18
 -1      1305 8.22679E-05-2.17676E-06-3.42886E-05 6.70465E-07 1.08835E-19-5.88018E-18
 -1      1306 8.22666E-05-2.17680E-06-3.42882E-05-5.66665E-07 3.26364E-20-5.90562E-18
 -1      1307 8.37802E-05-4.38163E-06-3.40721E-05-1.17174E-06-4.55442E-20-5.00133E-18
 -1      1308 8.23408E-05-2.20692E-06-3.43035E-05 3.15153E-06 3.60930E-19-5.78874E-18
 -1      1309 8.22994E-05-2.20856E-06-3.42919E-05 1.89669E-06 2.69281E-19-5.85862E-18
 -1      1310 8.37852E-05-4.38583E-06-3.40725E-05 1.27496E-06 3.03147E-19-4.97746E-18
 -1      1311 8.25321E-05-2.29968E-06-3.43425E-05 5.71803E-06 5.88466E-19-5.60576E-18
 -1      1312 8.24386E-05-2.30307E-06-3.43149E-05 4.40982E-06 5.01275E-19-5.71906E-18
 -1      1313 8.39360E-05-4.51445E-06-3.40837E-05 3.75566E-06 7.11605E-19-4.85968E-18
 -1      1314 8.28890E-05-2.46498E-06-3.44218E-05 8.40142E-06 8.17731E-19-5.19475E-18
 -1      1315 8.27176E-05-2.47370E-06-3.43674E-05 7.02091E-06 7.30526E-19-5.45180E-18
 -1      1316 8.42662E-05-4.78695E-06-3.41121E-05 6.31613E-06 1.09824E-18-4.61363E-18
 -1      1317 8.35437E-05-2.74172E-06-3.45841E-05 1.14027E-05 1.16986E-18-4.47728E-18
 -1      1318 8.32241E-05-2.75886E-06-3.44739E-05 9.83734E-06 1.02062E-18-4.89889E-18
 -1      1319 8.48658E-05-5.25926E-06-3.41742E-05 9.06064E-06 1.51762E-18-4.09914E-18
 -1      1320 8.47611E-05-3.20320E-06-3.49175E-05 1.48516E-05 1.50494E-18-3.23445E-18
 -1      1321 8.41505E-05-3.24000E-06-3.46914E-05 1.30113E-05 1.34485E-18-3.99471E-18
 -1      1322 8.59452E-05-6.06326E-06-3.43058E-05 1.21300E-05 2.04834E-18-3.33011E-18
 -1      1323 8.72482E-05-4.08948E-06-3.56182E-05 1.90982E-05 1.77819E-18-8.77500E-19
 -1      1324 8.59664E-05-4.15345E-06-3.51354E-05 1.67007E-05 1.56902E-18-2.30441E-18
 -1      1325 8.79861E-05-7.51643E-06-3.45739E-05 1.56578E-05 2.49687E-18-1.82536E-18
 -1      1326 9.34594E-05-6.79068E-06-3.71145E-05 2.51014E-05 1.62217E-18 3.67766E-18
 -1      1327 9.01262E-05-6.43638E-06-3.60368E-05 2.11552E-05 1.54324E-18 8.98278E-19
 -1      1328 9.23549E-05-1.06963E-05-3.50759E-05 1.96830E-05 2.68771E-18 8.24587E-19
 -1      1329 1.23621E-04-2.49219E-05-3.90129E-05 2.83691E-05 8.48092E-19 1.24980E-17
 -1      1330 1.00075E-04-1.44222E-05-3.73520E-05 2.40544E-05 8.60797E-19 6.32755E-18
 -1      1331 1.01672E-04-1.93400E-05-3.54002E-05 2.14038E-05 2.64004E-18 4.95663E-18
 -1      1332 1.02597E-04-2.78028E-05-3.47556E-05 7.33160E-06 1.48739E-18 1.19129E-17
 -1      1333 1.05140E-04-3.02284E-05-3.35230E-05-7.96291E-06-1.42026E-18 9.62611E-18
 -1      1334 9.82506E-05-2.78398E-05-3.07591E-05-4.99145E-06-1.32444E-18 7.96010E-18
 -1      1335 9.54909E-05-2.78454E-05-2.92510E-05-2.49216E-06-1.07118E-18 7.21755E-18
 -1      1336 9.32565E-05-2.75540E-05-2.82110E-05-2.04528E-06-1.04214E-18 5.61117E-18
 -1      1337 9.94749E-05-2.80485E-05-3.09798E-05-7.89232E-06-2.33982E-18 4.10268E-18
 -1      1338 9.15654E-05-2.71958E-05-2.75761E-05-8.40433E-07-8.42665E-19 5.03699E-18
 -1      1339 9.08466E-05-2.70999E-05-2.72732E-05-7.30334E-07-7.30976E-19 3.86967E-18
 -1      1340 9.47053E-05-2.77661E-05-2.88124E-05-3.12497E-06-1.77840E-18 3.02204E-18
 -1      1341 9.00948E-05-2.69166E-05-2.70295E-05-1.76541E-07-4.43528E-19 3.41590E-18
 -1      1342 9.00197E-05-2.69425E-05-2.69939E-05-1.18586E-07-4.41757E-19 2.75654E-18
 -1      1343 9.25029E-05-2.74950E-05-2.78906E-05-1.05808E-06-1.24630E-18 2.05388E-18
 -1      1344 8.97585E-05-2.68746E-05-2.69192E-05 1.51298E-07-4.22972E-19 2.48162E-18
 -1      1345 8.99700E-05-2.69637E-05-2.69799E-05 1.79882E-07-3.96021E-19 1.95538E-18
 -1      1346 9.15411E-05-2.73503E-05-2.75227E-05-7.56350E-08-8.61234E-19 1.29585E-18
 -1      1347 8.99719E-05-2.69663E-05-2.69858E-05 3.10694E-07-3.29287E-19 1.64436E-18
 -1      1348 9.03108E-05-2.70848E-05-2.70839E-05 3.22343E-07-3.15382E-19 1.28910E-18
 -1      1349 9.12844E-05-2.73372E-05-2.74138E-05 4.10874E-07-7.75050E-19 9.88183E-19
 -1      1350 9.04509E-05-2.71260E-05-2.71305E-05 3.76782E-07-2.03639E-19 1.05595E-18
 -1      1351 9.08349E-05-2.72531E-05-2.72415E-05 3.78433E-07-2.55462E-19 6.93786E-19
 -1      1352 9.14137E-05-2.74097E-05-2.74350E-05 6.38636E-07-4.88392E-19 5.36935E-19
 -1      1353 9.10414E-05-2.73129E-05-2.73074E-05 3.89219E-07-4.29647E-19 6.40496E-19
 -1      1354 9.14251E-05-2.74363E-05-2.74186E-05 3.85085E-07-4.41858E-19 1.36544E-19
 -1      1355 9.17431E-05-2.75274E-05-2.75230E-05 7.21227E-07-6.77140E-19 8.66075E-20
 -1      1356 9.16558E-05-2.75028E-05-2.74914E-05 3.71301E-07-3.52503E-19-2.37566E-20
 -1      1357 9.20145E-05-2.76161E-05-2.75957E-05 3.64121E-07-4.16359E-19-5.26755E-19
 -1      1358 9.21628E-05-2.76636E-05-2.76426E-05 7.20821E-07-6.69216E-19-3.22172E-19
 -1      1359 9.22448E-05-2.76823E-05-2.76680E-05 3.37760E-07-4.79421E-19-6.24012E-19
 -1      1360 9.25665E-05-2.77825E-05-2.77621E-05 3.29375E-07-1.03639E-19-1.16692E-18
 -1      1361 9.26076E-05-2.78018E-05-2.77728E-05 6.74928E-07-6.91827E-19-3.52558E-19
 -1      1362 9.27833E-05-2.78446E-05-2.78300E-05 2.98335E-07 1.02405E-19-1.45977E-18
 -1      1363 9.30644E-05-2.79312E-05-2.79124E-05 2.90005E-07-2.21445E-19-1.58003E-18
 -1      1364 9.30406E-05-2.79328E-05-2.79017E-05 6.07653E-07-3.05150E-19-9.06231E-19
 -1      1365 9.32624E-05-2.79878E-05-2.79743E-05 2.59658E-07-5.60499E-19-1.53443E-18
 -1      1366 9.35050E-05-2.80616E-05-2.80458E-05 2.52262E-07-3.19716E-19-2.28940E-18
 -1      1367 9.34432E-05-2.80523E-05-2.80229E-05 5.35115E-07-5.50395E-19-1.63285E-18
 -1      1368 9.36840E-05-2.81127E-05-2.81017E-05 2.26392E-07 9.55125E-21-2.22682E-18
 -1      1369 9.38941E-05-2.81759E-05-2.81639E-05 2.20568E-07 5.76536E-20-2.14353E-18
 -1      1370 9.38099E-05-2.81591E-05-2.81345E-05 4.68457E-07-2.48099E-19-1.93987E-18
 -1      1371 9.40579E-05-2.82225E-05-2.82150E-05 2.01990E-07 8.51632E-20-2.24816E-18
 -1      1372 9.42446E-05-2.82780E-05-2.82704E-05 1.98238E-07-2.23836E-19-2.08463E-18
 -1      1373 9.41440E-05-2.82549E-05-2.82371E-05 4.15711E-07-1.29628E-19-2.00625E-18
 -1      1374 9.43998E-05-2.83220E-05-2.83188E-05 1.89230E-07-4.29839E-19-2.01177E-18
 -1      1375 9.45744E-05-2.83733E-05-2.83710E-05 1.87991E-07-3.38772E-19-2.55308E-18
 -1      1376 9.44553E-05-2.83428E-05-2.83335E-05 3.83074E-07-4.32234E-19-2.25604E-18
 -1      1377 9.47302E-05-2.84174E-05-2.84195E-05 1.90607E-07-1.26195E-19-2.65530E-18
 -1      1378 9.49065E-05-2.84689E-05-2.84723E-05 1.92315E-07-1.92040E-19-2.91398E-18
 -1      1379 9.47591E-05-2.84274E-05-2.84282E-05 3.75807E-07-3.53540E-19-2.30945E-18
 -1      1380 9.50739E-05-2.85161E-05-2.85244E-05 2.08595E-07 1.36922E-19-2.90546E-18
 -1      1381 9.52679E-05-2.85726E-05-2.85825E-05 2.13718E-07 2.77722E-19-2.74516E-18
 -1      1382 9.50749E-05-2.85145E-05-2.85272E-05 3.98865E-07 1.67016E-20-2.29065E-18
 -1      1383 9.54601E-05-2.86269E-05-2.86424E-05 2.45804E-07-9.53305E-21-2.63431E-18
 -1      1384 9.56903E-05-2.86940E-05-2.87114E-05 2.54862E-07-1.24705E-19-2.72317E-18
 -1      1385 9.54266E-05-2.86113E-05-2.86376E-05 4.57294E-07 1.96375E-19-2.41956E-18
 -1      1386 9.59225E-05-2.87597E-05-2.87836E-05 3.04993E-07-2.69665E-19-2.62578E-18
 -1      1387 9.62100E-05-2.88440E-05-2.88696E-05 3.18545E-07-4.85716E-19-3.12169E-18
 -1      1388 9.58416E-05-2.87258E-05-2.87677E-05 5.56369E-07-3.73303E-19-2.34082E-18
 -1      1389 9.64992E-05-2.89260E-05-2.89596E-05 3.88901E-07-2.23986E-19-2.87640E-18
 -1      1390 9.68677E-05-2.90348E-05-2.90696E-05 4.07497E-07-2.82776E-19-3.47814E-18
 -1      1391 9.63515E-05-2.88674E-05-2.89270E-05 7.01406E-07-4.50655E-19-2.21430E-18
 -1      1392 9.72323E-05-2.91385E-05-2.91830E-05 4.99800E-07 2.65967E-19-3.21614E-18
 -1      1393 9.77077E-05-2.92800E-05-2.93245E-05 5.23867E-07 4.91512E-19-2.74497E-18
 -1      1394 9.69908E-05-2.90468E-05-2.91257E-05 8.97110E-07 2.75441E-19-2.68042E-18
 -1      1395 9.81669E-05-2.94111E-05-2.94672E-05 6.38634E-07-5.60101E-20-2.67459E-18
 -1      1396 9.87757E-05-2.95939E-05-2.96479E-05 6.68262E-07-2.51552E-19-2.95895E-18
 -1      1397 9.77965E-05-2.92756E-05-2.93746E-05 1.14622E-06 2.28323E-19-2.47561E-18
 -1      1398 9.93472E-05-2.97580E-05-2.98252E-05 8.03510E-07-2.97097E-19-3.04817E-18
 -1      1399 1.00114E-04-2.99903E-05-3.00521E-05 8.38088E-07-2.63350E-19-3.42491E-18
 -1      1400 9.88049E-05-2.95661E-05-2.96839E-05 1.44711E-06-4.59239E-19-1.98242E-18
 -1      1401 1.00811E-04-3.01921E-05-3.02678E-05 9.87269E-07-1.97906E-19-2.97007E-18
 -1      1402 1.01753E-04-3.04803E-05-3.05454E-05 1.02488E-06-2.62852E-19-3.08998E-18
 -1      1403 1.00048E-04-2.99302E-05-3.00617E-05 1.78980E-06-2.94349E-19-1.76868E-18
 -1      1404 1.02580E-04-3.07224E-05-3.08000E-05 1.17379E-06-2.38733E-19-3.40484E-18
 -1      1405 1.03696E-04-3.10685E-05-3.11276E-05 1.21031E-06-2.94697E-19-3.39024E-18
 -1      1406 1.01544E-04-3.03782E-05-3.05113E-05 2.14989E-06-4.35069E-19-1.98565E-18
 -1      1407 1.04641E-04-3.13495E-05-3.14159E-05 1.33289E-06 3.00891E-20-3.43795E-18
 -1      1408 1.05900E-04-3.17463E-05-3.17831E-05 1.36072E-06 3.93691E-19-2.99858E-18
 -1      1409 1.03288E-04-3.09154E-05-3.10273E-05 2.47997E-06-2.36895E-19-1.66858E-18
 -1      1410 1.06921E-04-3.20579E-05-3.20902E-05 1.41441E-06 2.43305E-19-3.13433E-18
 -1      1411 1.08240E-04-3.24829E-05-3.24711E-05 1.42105E-06-8.93176E-20-2.91320E-18
 -1      1412 1.05233E-04-3.15379E-05-3.15903E-05 2.69899E-06 1.77965E-19-2.11794E-18
 -1      1413 1.09257E-04-3.28060E-05-3.27693E-05 1.34375E-06 3.74413E-19-2.86796E-18
 -1      1414 1.10476E-04-3.32126E-05-3.31159E-05 1.31091E-06 2.34519E-19-2.42142E-18
 -1      1415 1.07267E-04-3.22244E-05-3.21599E-05 2.68286E-06 4.21468E-19-2.73402E-18
 -1      1416 1.11356E-04-3.35123E-05-3.33608E-05 1.02487E-06 9.43548E-20-1.89056E-18
 -1      1417 1.12221E-04-3.38213E-05-3.35988E-05 9.29948E-07 1.52552E-19-1.93783E-18
 -1      1418 1.09189E-04-3.29248E-05-3.26696E-05 2.26447E-06 4.96388E-19-2.17093E-18
 -1      1419 1.12774E-04-3.40421E-05-3.37310E-05 3.61906E-07-4.68340E-19-1.56767E-18
 -1      1420 1.12945E-04-3.41392E-05-3.37642E-05 1.85209E-07-3.32047E-19-1.42715E-18
 -1      1421 1.10687E-04-3.35437E-05-3.30264E-05 1.26031E-06 1.64192E-19-1.49860E-18
 -1      1422 1.12943E-04-3.42036E-05-3.37190E-05-6.86182E-07 1.10240E-19-1.06936E-18
 -1      1423 1.12058E-04-3.39552E-05-3.34518E-05-9.44661E-07-1.24282E-19-1.30200E-18
 -1      1424 1.11348E-04-3.39252E-05-3.31216E-05-4.51707E-07-3.83104E-19-1.20469E-18
 -1      1425 1.11295E-04-3.37755E-05-3.31826E-05-2.01442E-06 1.93825E-19-1.43989E-18
 -1      1426 1.09128E-04-3.30786E-05-3.25646E-05-2.31020E-06-1.39628E-20-1.49742E-18
 -1      1427 1.10719E-04-3.38556E-05-3.28623E-05-2.78719E-06-2.06041E-19-1.46210E-18
 -1      1428 1.07535E-04-3.25938E-05-3.20762E-05-3.28178E-06-2.70746E-19-1.37802E-18
 -1      1429 1.04223E-04-3.14639E-05-3.11617E-05-3.50864E-06-5.46634E-19-2.06454E-18
 -1      1430 1.08487E-04-3.31221E-05-3.22196E-05-5.28038E-06 1.11901E-20-1.16110E-18
 -1      1431 1.02014E-04-3.07100E-05-3.05393E-05-3.92566E-06-5.12253E-19-1.20575E-18
 -1      1432 9.82408E-05-2.93686E-05-2.95230E-05-3.94133E-06 2.39256E-19-1.43567E-18
 -1      1433 1.04744E-04-3.16587E-05-3.12786E-05-7.02268E-06-4.74881E-19-8.07858E-20
 -1      1434 9.59938E-05-2.85439E-05-2.89290E-05-3.40472E-06 1.16083E-19-2.31319E-18
 -1      1435 9.28971E-05-2.74133E-05-2.81096E-05-3.12188E-06-3.52108E-19-1.94950E-18
 -1      1436 1.00263E-04-2.97394E-05-3.02543E-05-6.94275E-06-2.53303E-19-8.50871E-20
 -1      1437 9.14092E-05-2.68472E-05-2.77303E-05-1.62792E-06 4.90723E-19-1.96520E-18
 -1      1438 9.01138E-05-2.63734E-05-2.73881E-05-1.11916E-06 1.15776E-18-7.00748E-19
 -1      1439 9.64585E-05-2.80306E-05-2.94374E-05-4.49524E-06-6.63465E-20-7.13725E-19
 -1      1440 8.99845E-05-2.63355E-05-2.73486E-05 7.82582E-07 5.11277E-19-1.38436E-18
 -1      1441 9.09657E-05-2.67131E-05-2.75986E-05 1.29150E-06 2.38519E-19-7.91155E-19
 -1      1442 9.48076E-05-2.72953E-05-2.90811E-05-3.30176E-07 5.12878E-19-1.08410E-18
 -1      1443 9.21942E-05-2.72037E-05-2.78985E-05 2.78353E-06 1.85355E-19 2.58186E-19
 -1      1444 9.49739E-05-2.82381E-05-2.86245E-05 3.06608E-06 2.81844E-19 1.88888E-19
 -1      1445 9.59513E-05-2.78796E-05-2.92856E-05 3.83272E-06 7.03858E-19-9.87151E-19
 -1      1446 9.69577E-05-2.89880E-05-2.91363E-05 3.59368E-06-2.42165E-19-2.59404E-20
 -1      1447 1.00403E-04-3.02313E-05-3.00549E-05 3.57477E-06-5.92220E-19-8.49945E-19
 -1      1448 9.92445E-05-2.94391E-05-2.99470E-05 6.26871E-06 1.85417E-19-2.69621E-19
 -1      1449 1.02336E-04-3.09081E-05-3.05900E-05 3.13364E-06-1.26519E-19-1.43276E-18
 -1      1450 1.05290E-04-3.19312E-05-3.13980E-05 2.89855E-06-8.45167E-19-2.23040E-18
 -1      1451 1.03201E-04-3.12096E-05-3.08083E-05 6.31031E-06-1.06181E-18-2.13742E-18
 -1      1452 1.06581E-04-3.23307E-05-3.17914E-05 1.88672E-06-1.22924E-18-2.25152E-18
 -1      1453 1.08342E-04-3.29043E-05-3.22894E-05 1.57872E-06-8.00473E-19-3.52554E-18
 -1      1454 1.06381E-04-3.25144E-05-3.15747E-05 4.49060E-06-1.29825E-18-2.70474E-18
 -1      1455 1.08768E-04-3.29872E-05-3.24540E-05 4.60684E-07-3.40997E-20-3.48712E-18
 -1      1456 1.09189E-04-3.30916E-05-3.25850E-05 1.88858E-07 5.61517E-19-3.55573E-18
 -1      1457 1.07992E-04-3.30671E-05-3.20279E-05 1.89048E-06-2.96905E-19-2.37138E-18
 -1      1458 1.08822E-04-3.29189E-05-3.25168E-05-7.24392E-07 1.03603E-19-2.83398E-18
 -1      1459 1.08135E-04-3.26583E-05-3.23332E-05-9.11474E-07-1.75594E-19-2.99205E-18
 -1      1460 1.07932E-04-3.29275E-05-3.20822E-05-5.53920E-07 3.29734E-19-2.90874E-18
 -1      1461 1.07197E-04-3.23220E-05-3.20842E-05-1.49593E-06 2.50391E-19-2.92908E-18
 -1      1462 1.05793E-04-3.18380E-05-3.16916E-05-1.59330E-06-7.24875E-20-2.82561E-18
 -1      1463 1.06534E-04-3.23111E-05-3.17731E-05-2.33681E-06 3.59665E-19-2.84602E-18
 -1      1464 1.04546E-04-3.14232E-05-3.13379E-05-1.84477E-06 7.32841E-20-2.83802E-18
 -1      1465 1.02827E-04-3.08472E-05-3.08518E-05-1.86471E-06 4.37025E-19-2.94932E-18
 -1      1466 1.04295E-04-3.14407E-05-3.12101E-05-3.32157E-06-2.31984E-19-1.76801E-18
 -1      1467 1.01513E-04-3.04218E-05-3.04714E-05-1.82139E-06 2.89219E-19-3.38318E-18
 -1      1468 9.98405E-05-2.98644E-05-2.99987E-05-1.77519E-06 2.54623E-19-3.46675E-18
 -1      1469 1.01708E-04-3.04889E-05-3.05295E-05-3.55941E-06 3.73482E-19-1.42510E-18
 -1      1470 9.86613E-05-2.94805E-05-2.96601E-05-1.47301E-06 1.23642E-18-3.80694E-18
 -1      1471 9.73571E-05-2.90422E-05-2.92909E-05-1.36179E-06 1.01166E-18-2.24073E-18
 -1      1472 9.92031E-05-2.95774E-05-2.98626E-05-3.14139E-06 1.02530E-18-2.75777E-18
 -1      1473 9.64502E-05-2.87266E-05-2.90393E-05-8.26723E-07 8.48768E-19-1.49105E-18
 -1      1474 9.57841E-05-2.85368E-05-2.88217E-05-6.66181E-07 8.42662E-19-2.67206E-19
 -1      1475 9.71068E-05-2.87898E-05-2.93102E-05-2.15807E-06 1.51234E-18-3.21680E-18
 -1      1476 9.52162E-05-2.84989E-05-2.85867E-05 2.54218E-08-6.88648E-19 5.81756E-19
 -1      1477 9.55563E-05-2.83231E-05-2.88293E-05-6.40087E-07 3.75183E-19-6.93167E-19
 -1      1478 9.65665E-05-2.83604E-05-2.97693E-05 2.99780E-06 1.17579E-18 9.17101E-18
 -1      1479 1.02528E-04-2.93960E-05-3.21533E-05 4.46500E-06 1.04291E-18 1.11359E-17
 -1      1480 1.02318E-04-2.67153E-05-3.27032E-05 1.27870E-05 2.11875E-18 7.04657E-18
 -1      1481 9.20161E-05-2.74249E-05-2.77574E-05 1.15405E-06 8.24957E-19 6.93905E-18
 -1      1482 9.39650E-05-2.75807E-05-2.86722E-05 1.47597E-06 8.35505E-19 8.26900E-18
 -1      1483 9.64755E-05-2.80268E-05-2.95303E-05 4.87153E-06 1.78438E-18 5.34689E-18
 -1      1484 9.01791E-05-2.69988E-05-2.70572E-05 3.34015E-07 6.40383E-19 5.16828E-18
 -1      1485 9.07964E-05-2.70171E-05-2.73306E-05 4.96804E-07 6.07567E-19 6.24152E-18
 -1      1486 9.30274E-05-2.75744E-05-2.80942E-05 1.85586E-06 1.35794E-18 3.96054E-18
 -1      1487 8.96569E-05-2.68792E-05-2.68800E-05-5.25812E-08 4.05011E-19 3.99520E-18
 -1      1488 8.96970E-05-2.68177E-05-2.69090E-05 3.64282E-08 4.31232E-19 4.73130E-18
 -1      1489 9.14703E-05-2.73021E-05-2.75093E-05 5.22312E-07 9.49127E-19 2.86935E-18
 -1      1490 8.97832E-05-2.69300E-05-2.69202E-05-2.39528E-07 2.67752E-19 3.34349E-18
 -1      1491 8.95579E-05-2.68235E-05-2.68560E-05-1.89432E-07 2.41760E-19 3.65795E-18
 -1      1492 9.09344E-05-2.72200E-05-2.73119E-05-1.27026E-07 6.22293E-19 2.19603E-18
 -1      1493 9.02297E-05-2.70705E-05-2.70566E-05-3.22401E-07 2.17625E-19 2.82969E-18
 -1      1494 8.98864E-05-2.69445E-05-2.69561E-05-2.94883E-07 2.24071E-19 3.07950E-18
 -1      1495 9.09473E-05-2.72616E-05-2.72996E-05-4.45241E-07 4.83849E-19 1.64992E-18
 -1      1496 9.08175E-05-2.72507E-05-2.72340E-05-3.46853E-07 2.73235E-19 2.36735E-18
 -1      1497 9.04338E-05-2.71216E-05-2.71216E-05-3.33278E-07 1.66987E-19 2.64198E-18
 -1      1498 9.12469E-05-2.73720E-05-2.73798E-05-5.85196E-07 2.79618E-19 1.28470E-18
 -1      1499 9.14448E-05-2.74410E-05-2.74229E-05-3.38049E-07 4.78493E-19 1.47344E-18
 -1      1500 9.10638E-05-2.73186E-05-2.73111E-05-3.33179E-07 4.16446E-19 2.25075E-18
 -1      1501 9.16831E-05-2.75143E-05-2.75044E-05-6.24042E-07 5.56967E-19 1.10653E-18
 -1      1502 9.20539E-05-2.76245E-05-2.76066E-05-3.11345E-07 3.17029E-19 4.77693E-19
 -1      1503 9.16992E-05-2.75138E-05-2.75021E-05-3.11756E-07 3.90718E-19 1.05736E-18
 -1      1504 9.21677E-05-2.76656E-05-2.76461E-05-6.05581E-07 7.34262E-19 7.17930E-19
 -1      1505 9.26146E-05-2.77925E-05-2.77759E-05-2.76662E-07 1.12279E-19 1.26492E-20
 -1      1506 9.22974E-05-2.76957E-05-2.76822E-05-2.80021E-07 1.19653E-19 2.76106E-19
 -1      1507 9.26499E-05-2.78125E-05-2.77889E-05-5.56887E-07 3.40553E-19 5.98341E-20
 -1      1508 9.31145E-05-2.79416E-05-2.79272E-05-2.40644E-07 5.96449E-21-2.78558E-19
 -1      1509 9.28379E-05-2.78585E-05-2.78452E-05-2.45309E-07 1.25320E-19-3.11132E-19
 -1      1510 9.31024E-05-2.79481E-05-2.79241E-05-4.95604E-07 2.61386E-19 9.40422E-20
 -1      1511 9.35533E-05-2.80719E-05-2.80603E-05-2.07875E-07 2.44354E-19-5.95963E-19
 -1      1512 9.33151E-05-2.80012E-05-2.79893E-05-2.12645E-07 1.10219E-19-5.61594E-19
 -1      1513 9.35141E-05-2.80698E-05-2.80481E-05-4.33658E-07 2.33159E-19-2.41196E-19
 -1      1514 9.39395E-05-2.81861E-05-2.81776E-05-1.81661E-07 3.59295E-19-1.16950E-18
 -1      1515 9.37334E-05-2.81254E-05-2.81160E-05-1.85616E-07 4.08340E-19-6.90096E-19
 -1      1516 9.38845E-05-2.81780E-05-2.81603E-05-3.79405E-07 5.38335E-19-5.15974E-19
 -1      1517 9.42877E-05-2.82885E-05-2.82837E-05-1.64576E-07 1.12120E-19-1.72092E-18
 -1      1518 9.41045E-05-2.82346E-05-2.82286E-05-1.66948E-07 1.87631E-19-1.49582E-18
 -1      1519 9.42212E-05-2.82752E-05-2.82631E-05-3.39023E-07 4.94600E-19-8.07058E-19
 -1      1520 9.46178E-05-2.83853E-05-2.83844E-05-1.58867E-07-9.47931E-20-1.84639E-18
 -1      1521 9.44460E-05-2.83343E-05-2.83325E-05-1.58948E-07 7.43479E-20-1.72735E-18
 -1      1522 9.45379E-05-2.83656E-05-2.83602E-05-3.17496E-07 1.35268E-19-7.82947E-19
 -1      1523 9.49547E-05-2.84837E-05-2.84872E-05-1.66759E-07-3.48572E-19-1.73796E-18
 -1      1524 9.47801E-05-2.84312E-05-2.84343E-05-1.63816E-07-3.07948E-19-2.24071E-18
 -1      1525 9.48530E-05-2.84549E-05-2.84575E-05-3.19333E-07-1.21931E-19-1.20311E-18
 -1      1526 9.53278E-05-2.85925E-05-2.86011E-05-1.90684E-07 6.02970E-19-1.67362E-18
 -1      1527 9.51340E-05-2.85332E-05-2.85422E-05-1.83899E-07 2.98051E-19-1.47132E-18
 -1      1528 9.51900E-05-2.85498E-05-2.85619E-05-3.49114E-07 1.24597E-19-1.46682E-18
 -1      1529 9.57721E-05-2.87222E-05-2.87366E-05-2.33434E-07 2.93561E-19-3.53080E-18
 -1      1530 9.55396E-05-2.86499E-05-2.86660E-05-2.21847E-07 5.57049E-19-2.50138E-18
 -1      1531 9.55767E-05-2.86588E-05-2.86819E-05-4.11862E-07 1.06636E-18-1.40127E-18
 -1      1532 9.63284E-05-2.88849E-05-2.89061E-05-2.98213E-07-5.49137E-19-3.35564E-18
 -1      1533 9.60346E-05-2.87923E-05-2.88170E-05-2.80688E-07-2.27564E-19-3.72109E-18
 -1      1534 9.60459E-05-2.87913E-05-2.88274E-05-5.13254E-07 2.64417E-20-2.22857E-18
 -1      1535 9.70443E-05-2.90949E-05-2.91238E-05-3.88538E-07-8.22857E-19-1.97842E-18
 -1      1536 9.66625E-05-2.89734E-05-2.90083E-05-3.63763E-07-9.13465E-19-2.98492E-18
 -1      1537 9.66357E-05-2.89588E-05-2.90101E-05-6.59583E-07-1.17249E-18-1.45951E-18
 -1      1538 9.79737E-05-2.93684E-05-2.94060E-05-5.07901E-07-1.53039E-19-1.65613E-18
 -1      1539 9.74734E-05-2.92083E-05-2.92550E-05-4.74448E-07-1.08855E-19-1.85684E-18
 -1      1540 9.73895E-05-2.91740E-05-2.92429E-05-8.57362E-07-7.53073E-19-1.67805E-18
 -1      1541 9.91762E-05-2.97234E-05-2.97704E-05-6.58997E-07 4.94934E-19-1.83317E-18
 -1      1542 9.85235E-05-2.95138E-05-2.95740E-05-6.15492E-07 2.18760E-19-1.25411E-18
 -1      1543 9.83549E-05-2.94517E-05-2.95401E-05-1.11230E-06 3.63529E-20-8.16964E-19
 -1      1544 1.00713E-04-3.01790E-05-3.02351E-05-8.42212E-07-5.59828E-20-2.89503E-18
 -1      1545 9.98728E-05-2.99085E-05-2.99832E-05-7.87728E-07 2.57673E-19-2.59447E-18
 -1      1546 9.95822E-05-2.98074E-05-2.99165E-05-1.42723E-06 6.22975E-19-1.48892E-18
 -1      1547 1.02640E-04-3.07532E-05-3.08162E-05-1.05289E-06-4.37531E-19-1.81168E-18
 -1      1548 1.01580E-04-3.04115E-05-3.04995E-05-9.87712E-07-3.69151E-19-2.68585E-18
 -1      1549 1.01119E-04-3.02574E-05-3.03854E-05-1.79828E-06-2.52159E-19-1.84864E-18
 -1      1550 1.04992E-04-3.14589E-05-3.15223E-05-1.27670E-06-2.78652E-19-1.14558E-18
 -1      1551 1.03691E-04-3.10393E-05-3.11357E-05-1.20371E-06-1.65089E-19-1.46784E-18
 -1      1552 1.03002E-04-3.08159E-05-3.09556E-05-2.20825E-06-4.67063E-19-1.09154E-18
 -1      1553 1.07755E-04-3.22961E-05-3.23468E-05-1.48241E-06 3.66708E-19-9.58047E-19
 -1      1554 1.06221E-04-3.18015E-05-3.18942E-05-1.40943E-06 8.34468E-20-7.74995E-19
 -1      1555 1.05240E-04-3.14917E-05-3.16263E-05-2.61612E-06-1.15941E-19-5.34673E-19
 -1      1556 1.10827E-04-3.32406E-05-3.32541E-05-1.61207E-06 1.52770E-19-1.76809E-18
 -1      1557 1.09121E-04-3.26917E-05-3.27562E-05-1.55525E-06 4.84081E-19-1.01276E-18
 -1      1558 1.07789E-04-3.22823E-05-3.23781E-05-2.94181E-06 5.78573E-19-2.59106E-19
 -1      1559 1.13956E-04-3.42246E-05-3.41618E-05-1.57116E-06-4.17130E-19-1.44758E-18
 -1      1560 1.12230E-04-3.36732E-05-3.36674E-05-1.55889E-06-6.05518E-19-1.60190E-18
 -1      1561 1.10519E-04-3.31626E-05-3.31620E-05-3.04861E-06-4.65573E-19-8.18115E-20
 -1      1562 1.16673E-04-3.51140E-05-3.49235E-05-1.22726E-06-1.83439E-19-6.80035E-19
 -1      1563 1.15213E-04-3.46576E-05-3.45199E-05-1.30206E-06 1.69321E-19-7.53714E-19
 -1      1564 1.13163E-04-3.40693E-05-3.38875E-05-2.73231E-06-5.92066E-19 4.47604E-19
 -1      1565 1.18256E-04-3.56877E-05-3.53245E-05-4.36677E-07-5.74973E-19-2.91492E-19
 -1      1566 1.17504E-04-3.54790E-05-3.51401E-05-6.48650E-07-6.88717E-19-1.49221E-18
 -1      1567 1.15280E-04-3.48783E-05-3.44165E-05-1.74107E-06-1.80087E-19 2.92246E-19
 -1      1568 1.17803E-04-3.56432E-05-3.51162E-05 8.71172E-07-7.14168E-19 1.04092E-18
 -1      1569 1.18305E-04-3.58750E-05-3.52989E-05 4.89936E-07-6.59124E-19-4.88003E-20
 -1      1570 1.16256E-04-3.53814E-05-3.45778E-05 1.31531E-07-1.10706E-18 1.15127E-20
 -1      1571 1.14521E-04-3.46751E-05-3.41151E-05 2.53771E-06-2.55129E-19 2.66905E-18
 -1      1572 1.16739E-04-3.55106E-05-3.47706E-05 2.02365E-06-4.36970E-19 1.93102E-18
 -1      1573 1.15402E-04-3.52867E-05-3.42178E-05 2.83648E-06-1.01623E-18 1.26092E-18
 -1      1574 1.08309E-04-3.26711E-05-3.23596E-05 4.02076E-06 3.42099E-19 2.65407E-18
 -1      1575 1.12250E-04-3.41057E-05-3.34544E-05 3.53113E-06 4.90677E-19 3.18304E-18
 -1      1576 1.12258E-04-3.42994E-05-3.32925E-05 5.78167E-06 5.57718E-20 2.51871E-18
 -1      1577 1.00404E-04-2.99870E-05-3.02390E-05 4.45958E-06 9.58851E-20 2.26751E-18
 -1      1578 1.05243E-04-3.16974E-05-3.15237E-05 4.25498E-06 7.84705E-21 2.24607E-18
 -1      1579 1.07070E-04-3.23484E-05-3.19627E-05 7.71070E-06 2.56300E-19 1.28214E-18
 -1      1580 9.34780E-05-2.75640E-05-2.84456E-05 3.17916E-06 1.09441E-18 4.25634E-19
 -1      1581 9.75520E-05-2.89102E-05-2.94919E-05 3.46686E-06 7.93253E-19 1.45351E-18
 -1      1582 1.01214E-04-2.98880E-05-3.06102E-05 7.16555E-06 1.16456E-18 2.90559E-19
 -1      1583 9.05133E-05-2.65379E-05-2.76714E-05 4.38341E-07 4.33853E-19-1.55803E-18
 -1      1584 9.20711E-05-2.68830E-05-2.80674E-05 1.15148E-06 1.08735E-18-3.45801E-19
 -1      1585 9.69702E-05-2.79629E-05-2.97053E-05 3.63545E-06 1.81207E-18 1.23773E-19
 -1      1586 9.28520E-05-2.74217E-05-2.82177E-05-2.45320E-06-4.61567E-19-6.44645E-19
 -1      1587 9.12033E-05-2.66010E-05-2.78079E-05-1.67135E-06-4.08998E-19-1.75708E-18
 -1      1588 9.62941E-05-2.76253E-05-2.95773E-05-1.52304E-06-7.15743E-20-9.23094E-19
 -1      1589 9.91780E-05-2.96826E-05-2.98030E-05-4.06429E-06 1.48046E-18-2.31732E-18
 -1      1590 9.52083E-05-2.81422E-05-2.87914E-05-3.59364E-06 1.03615E-18-7.24266E-19
 -1      1591 9.93919E-05-2.90551E-05-3.02408E-05-5.76964E-06 9.46334E-19-1.94270E-18
 -1      1592 1.06493E-04-3.21814E-05-3.17358E-05-3.89648E-06-2.46569E-19-2.63538E-18
 -1      1593 1.02019E-04-3.06340E-05-3.05573E-05-3.86712E-06-1.59011E-19-2.64338E-18
 -1      1594 1.04559E-04-3.13780E-05-3.13892E-05-7.24136E-06 3.70524E-19-1.34916E-18
 -1      1595 1.12064E-04-3.39730E-05-3.33088E-05-2.49265E-06-6.88578E-19-1.43022E-18
 -1      1596 1.08690E-04-3.29408E-05-3.23802E-05-2.77433E-06-2.17429E-19-2.41711E-18
 -1      1597 1.09438E-04-3.34142E-05-3.25583E-05-5.90717E-06-5.97277E-19-1.72901E-19
 -1      1598 1.14608E-04-3.46999E-05-3.41108E-05-7.46260E-07 6.04490E-19-1.11211E-18
 -1      1599 1.13058E-04-3.43386E-05-3.36537E-05-1.12780E-06 2.54044E-20-1.35689E-18
 -1      1600 1.12397E-04-3.44818E-05-3.33492E-05-3.05584E-06-3.54020E-19-9.60204E-19
 -1      1601 1.14210E-04-3.44757E-05-3.40885E-05 7.09476E-07-4.84059E-19-2.43323E-18
 -1      1602 1.14400E-04-3.46759E-05-3.41117E-05 3.76341E-07-4.30928E-20-2.16163E-18
 -1      1603 1.12968E-04-3.45382E-05-3.35703E-05-9.34272E-08 3.72350E-19-1.24309E-18
 -1      1604 1.11677E-04-3.36082E-05-3.34236E-05 1.63974E-06 4.52441E-19-2.81928E-18
 -1      1605 1.13106E-04-3.41652E-05-3.38074E-05 1.41198E-06 7.20613E-19-2.14948E-18
 -1      1606 1.11517E-04-3.38729E-05-3.32428E-05 2.15650E-06 6.89015E-19-1.64013E-18
 -1      1607 1.07963E-04-3.24098E-05-3.23795E-05 2.06524E-06 7.13935E-19-3.74121E-18
 -1      1608 1.10060E-04-3.31313E-05-3.29673E-05 1.94338E-06 4.44745E-19-3.38313E-18
 -1      1609 1.08741E-04-3.28171E-05-3.25172E-05 3.46756E-06 1.21078E-18-2.86959E-18
 -1      1610 1.03896E-04-3.11274E-05-3.12081E-05 2.09079E-06-5.30521E-20-4.87121E-18
 -1      1611 1.06175E-04-3.18672E-05-3.18564E-05 2.05765E-06 3.68480E-19-4.77269E-18
 -1      1612 1.05348E-04-3.16245E-05-3.15854E-05 3.93607E-06 1.34388E-18-3.82576E-18
 -1      1613 1.00134E-04-2.99463E-05-3.01194E-05 1.80209E-06 3.90143E-19-5.05255E-18
 -1      1614 1.02211E-04-3.05940E-05-3.07106E-05 1.84707E-06 6.40218E-19-3.88743E-18
 -1      1615 1.01921E-04-3.04627E-05-3.06285E-05 3.73302E-06 2.20057E-19-3.01816E-18
 -1      1616 9.72218E-05-2.90233E-05-2.92767E-05 1.22764E-06-3.51105E-20-5.27454E-18
 -1      1617 9.87655E-05-2.94762E-05-2.97184E-05 1.36052E-06-8.47033E-20-5.19717E-18
 -1      1618 9.89153E-05-2.94387E-05-2.97951E-05 2.97517E-06 9.09121E-19-2.95283E-18
 -1      1619 9.56025E-05-2.85197E-05-2.87542E-05 4.42786E-07-3.38223E-19-5.94743E-18
 -1      1620 9.63167E-05-2.86781E-05-2.90065E-05 6.39017E-07 3.23861E-19-5.38185E-18
 -1      1621 9.66616E-05-2.86507E-05-2.91761E-05 1.72871E-06 5.82418E-19-2.95906E-18
 -1      1622 9.52467E-05-2.84781E-05-2.86040E-05 1.94681E-08-3.62174E-18-4.22924E-18
 -1      1623 9.49969E-05-2.70321E-05-2.91521E-05 1.03829E-06-3.08550E-18 2.42275E-18
 -1      1624 9.52569E-05-2.78474E-05-2.88860E-05 8.25713E-07-4.87801E-18 9.93738E-19
 -1      1625 9.41325E-05-2.44402E-05-2.98807E-05 1.75689E-06-6.89141E-20 1.75600E-18
 -1      1626 9.46509E-05-2.59843E-05-2.94452E-05 1.63560E-06-2.61904E-18 1.23064E-18
 -1      1627 9.49623E-05-2.63033E-05-2.94575E-05 2.59769E-06-1.60342E-19 3.01041E-18
 -1      1628 9.30424E-05-2.11286E-05-3.08231E-05 2.14844E-06 2.03812E-18 3.07269E-19
 -1      1629 9.36900E-05-2.30818E-05-3.02712E-05 2.09856E-06 1.97994E-20 2.10207E-18
 -1      1630 9.40421E-05-2.38819E-05-3.00932E-05 3.72136E-06-2.46440E-19 2.34555E-18
 -1      1631 9.18917E-05-1.75952E-05-3.18390E-05 2.19293E-06 7.13811E-19-1.80004E-18
 -1      1632 9.25599E-05-1.96259E-05-3.12614E-05 2.21194E-06 2.42156E-18-8.61447E-19
 -1      1633 9.30133E-05-2.10232E-05-3.08579E-05 4.20408E-06-2.48472E-19-7.95711E-19
 -1      1634 9.08581E-05-1.44129E-05-3.27575E-05 1.91275E-06-1.87062E-18-1.24983E-18
 -1      1635 9.14396E-05-1.61839E-05-3.22525E-05 1.99217E-06-2.63268E-19-2.90713E-18
 -1      1636 9.19820E-05-1.81140E-05-3.16419E-05 4.03370E-06-3.18709E-19-3.68051E-18
 -1      1637 9.00567E-05-1.19478E-05-3.34689E-05 1.34058E-06-2.47171E-18-9.43995E-19
 -1      1638 9.04840E-05-1.32468E-05-3.30984E-05 1.47427E-06-2.36249E-18 1.89517E-19
 -1      1639 9.10761E-05-1.55434E-05-3.23368E-05 3.26489E-06-1.15755E-18-1.65839E-18
 -1      1640 8.96329E-05-1.06372E-05-3.38486E-05 5.64546E-07-2.20639E-18-5.16697E-19
 -1      1641 8.98288E-05-1.12359E-05-3.36774E-05 7.30083E-07-1.63600E-18-4.80552E-19
 -1      1642 9.04168E-05-1.36724E-05-3.28421E-05 1.99636E-06-1.03553E-18-9.60979E-19
 -1      1643 8.96499E-05-1.06700E-05-3.38428E-05-2.88000E-07-1.42657E-18 4.58149E-19
 -1      1644 8.95866E-05-1.04856E-05-3.38944E-05-1.18709E-07-2.37547E-18 1.06636E-18
 -1      1645 9.01179E-05-1.28135E-05-3.30761E-05 4.30213E-07-1.27701E-18-4.23007E-19
 -1      1646 9.00955E-05-1.20145E-05-3.34600E-05-1.07488E-06-2.47529E-18-1.36372E-18
 -1      1647 8.97896E-05-1.10935E-05-3.37216E-05-9.30419E-07-1.24947E-18 1.22251E-19
 -1      1648 9.02246E-05-1.30900E-05-3.30068E-05-1.17457E-06-6.33086E-19-9.72103E-21
 -1      1649 9.08857E-05-1.44293E-05-3.27669E-05-1.67472E-06-5.69327E-18-1.78875E-18
 -1      1650 9.03940E-05-1.29335E-05-3.31934E-05-1.57652E-06-3.08188E-18-1.59893E-18
 -1      1651 9.07084E-05-1.44349E-05-3.26496E-05-2.55724E-06-2.73911E-18-2.49360E-18
 -1      1652 9.18730E-05-1.74732E-05-3.18881E-05-2.01080E-06-5.75616E-18 1.23043E-18
 -1      1653 9.12828E-05-1.56681E-05-3.24041E-05-1.96854E-06-5.98725E-18-7.49718E-19
 -1      1654 9.14742E-05-1.65932E-05-3.20692E-05-3.51352E-06-3.18808E-18-2.41037E-18
 -1      1655 9.29485E-05-2.08081E-05-3.09227E-05-2.07148E-06-4.43263E-18 3.57426E-19
 -1      1656 9.23235E-05-1.88919E-05-3.14704E-05-2.08284E-06-5.24668E-18 1.57759E-18
 -1      1657 9.23964E-05-1.92384E-05-3.13486E-05-3.95194E-06-2.45812E-18 2.05796E-18
 -1      1658 9.39551E-05-2.39333E-05-3.00190E-05-1.86130E-06-1.61556E-18 1.06394E-18
 -1      1659 9.33862E-05-2.21956E-05-3.05135E-05-1.92076E-06-3.40806E-18 1.38639E-18
 -1      1660 9.33648E-05-2.20316E-05-3.05834E-05-3.85621E-06-1.56516E-18 2.14344E-18
 -1      1661 9.47670E-05-2.64073E-05-2.92985E-05-1.39359E-06-7.60338E-19-3.34055E-19
 -1      1662 9.43246E-05-2.51154E-05-2.96717E-05-1.50029E-06-7.27191E-20-5.21395E-19
 -1      1663 9.42674E-05-2.46041E-05-2.98804E-05-3.24442E-06 4.28688E-19 1.23490E-18
 -1      1664 9.53157E-05-2.78003E-05-2.89180E-05-1.00877E-06 1.41071E-19-3.77884E-19
 -1      1665 9.51005E-05-2.71238E-05-2.91410E-05-1.27110E-06 1.72824E-19-2.78330E-20
 -1      1666 9.50968E-05-2.65168E-05-2.94175E-05-2.57929E-06 1.05351E-18 1.79098E-19
 -1      1667 9.59135E-05-2.78544E-05-2.91740E-05-1.96588E-06 8.19349E-19-8.84601E-19
 -1      1668 2.09339E-05-6.85625E-05 1.44261E-05-6.40120E-06 3.55373E-18-1.63562E-18
 -1      1669 2.42382E-05-7.81206E-05 1.64392E-05 1.79696E-06 5.32561E-18-1.34403E-18
 -1      1670 2.08163E-05-4.09360E-05 4.38742E-06 3.37903E-06 2.81808E-18 1.09352E-18
 -1      1671 2.51453E-05-6.34628E-05 1.03868E-05-1.64300E-07 3.78116E-18 7.39036E-20
 -1      1672 3.45750E-05-1.44413E-05-1.07155E-05 2.64887E-05 6.77626E-19-1.15451E-18
 -1      1673 2.97815E-05-3.49477E-05-2.40777E-06 1.01206E-05 1.67120E-18-4.95091E-19
 -1      1674 7.27783E-05-4.11968E-06-2.90679E-05 5.65285E-05-4.84503E-19 9.06325E-19
 -1      1675 5.00859E-05-1.10387E-05-1.93324E-05 3.42213E-05-6.14946E-19-9.99499E-20
 -1      1676 1.41014E-04-1.98897E-05-4.87013E-05 7.23242E-05-3.37119E-19-2.54533E-18
 -1      1677 9.95638E-05-9.29639E-06-3.85597E-05 5.83693E-05 4.35375E-19-9.72394E-19
 -1      1678 2.09662E-04-4.31585E-05-6.54293E-05 6.76669E-05-8.65350E-19-4.29785E-18
 -1      1679 1.63508E-04-2.10970E-05-5.78001E-05 7.63301E-05-6.86097E-19-2.71135E-18
 -1      1680 2.50754E-04-6.27947E-05-7.39558E-05 2.58600E-05 7.83505E-20-6.60305E-18
 -1      1681 2.26440E-04-4.92449E-05-7.04623E-05 5.40966E-05 1.98206E-19-4.42066E-18
 -1      1682 2.49271E-04-6.11070E-05-7.44864E-05-2.47688E-05 2.76535E-18-1.00611E-17
 -1      1683 2.55282E-04-6.42571E-05-7.52903E-05 1.04548E-05 1.03274E-18-8.10605E-18
 -1      1684 2.01119E-04-3.83552E-05-6.55007E-05-6.07301E-05 3.53488E-18-1.05693E-17
 -1      1685 2.36512E-04-5.66641E-05-7.10701E-05-3.77757E-05 3.12269E-18-1.02889E-17
 -1      1686 1.36317E-04-1.29272E-05-5.08563E-05-7.36242E-05 4.54094E-18-9.45119E-18
 -1      1687 1.81510E-04-3.23285E-05-5.92156E-05-7.40625E-05 4.21822E-18-1.08166E-17
 -1      1688 7.44640E-05-2.74409E-06-3.16376E-05-5.29795E-05 6.87452E-18-6.51114E-18
 -1      1689 1.11132E-04-7.80342E-06-4.18870E-05-7.28970E-05 5.12794E-18-8.45000E-18
 -1      1690 3.73579E-05-1.70360E-05-1.23091E-05-2.23700E-05 8.54656E-18-5.36257E-18
 -1      1691 5.31653E-05-3.18631E-06-2.19787E-05-4.51451E-05 7.59873E-18-5.30073E-18
 -1      1692 2.48923E-05-4.56397E-05 3.40156E-06-1.70782E-06 8.94975E-18-3.92854E-18
 -1      1693 2.44703E-05-2.25871E-05-4.04808E-06-1.34708E-05 8.94297E-18-4.67647E-18
 -1      1694 2.40690E-05-6.96264E-05 1.32723E-05 1.29802E-06 5.64039E-18-2.71771E-18
 -1      1695 1.90284E-05-5.15624E-05 8.90785E-06 3.39485E-06 8.01208E-18-4.15036E-18
 -1      1696 2.22344E-05-7.37595E-05 1.59754E-05-3.80966E-06 2.54788E-18-1.54435E-18
 -1      1697 2.13449E-05-7.13393E-05 1.54483E-05 5.46627E-06 5.09977E-18-1.91684E-18
 -1      1698 1.88264E-05-5.72578E-05 1.12078E-05-4.71367E-06-4.01494E-18-4.52099E-18
 -1      1699 2.37959E-05-7.29734E-05 1.47421E-05 3.94202E-07 8.59738E-19-2.74777E-18
 -1      1700 2.47079E-05-2.89468E-05-1.34037E-06 1.27511E-05-7.17945E-18-5.35770E-18
 -1      1701 2.62608E-05-5.14539E-05 5.71595E-06 3.85649E-06-5.12201E-18-3.82997E-18
 -1      1702 4.49038E-05-3.94001E-06-1.84450E-05 3.95875E-05-6.86605E-18-5.24059E-18
 -1      1703 3.33215E-05-2.12757E-05-8.92249E-06 1.81439E-05-7.88418E-18-4.40499E-18
 -1      1704 1.02345E-04-4.72677E-06-3.96764E-05 7.18021E-05-5.87333E-18-8.29415E-18
 -1      1705 6.53875E-05-1.97865E-06-2.84746E-05 4.85957E-05-6.14099E-18-6.95245E-18
 -1      1706 1.75942E-04-2.98102E-05-5.80977E-05 7.57345E-05-3.87772E-18-9.55707E-18
 -1      1707 1.29597E-04-1.01053E-05-4.93220E-05 7.37382E-05-4.97462E-18-8.62957E-18
 -1      1708 2.32539E-04-5.49991E-05-7.02886E-05 4.04793E-05-3.13730E-18-5.16436E-18
 -1      1709 1.96619E-04-3.62056E-05-6.46100E-05 6.24411E-05-3.38654E-18-7.40646E-18
 -1      1710 2.54149E-04-6.41176E-05-7.49141E-05-7.03441E-06-2.19953E-18-2.43554E-18
 -1      1711 2.46088E-04-5.98157E-05-7.38728E-05 2.76334E-05-3.16706E-18-5.63150E-18
 -1      1712 2.28451E-04-5.02679E-05-7.07468E-05-5.40512E-05-3.79238E-18 4.50960E-18
 -1      1713 2.52447E-04-6.38752E-05-7.40699E-05-2.37792E-05-3.04720E-18-9.13737E-19
 -1      1714 1.64747E-04-2.28253E-05-5.77070E-05-7.21347E-05-3.43260E-18 6.35444E-18
 -1      1715 2.08797E-04-4.37754E-05-6.51831E-05-6.28231E-05-2.66852E-18 5.78524E-18
 -1      1716 9.98459E-05-4.83006E-06-4.02672E-05-6.44724E-05-2.04135E-18 5.23382E-18
 -1      1717 1.40710E-04-1.68573E-05-4.96465E-05-7.69527E-05-3.02645E-18 7.46998E-18
 -1      1718 5.00654E-05-7.34794E-06-2.06340E-05-3.66406E-05 6.23416E-19 2.16163E-18
 -1      1719 7.51966E-05-1.06911E-06-3.08569E-05-6.04667E-05-2.08201E-18 4.38170E-18
 -1      1720 2.98002E-05-3.41398E-05-2.71788E-06-1.04745E-05 2.45047E-18-7.72494E-19
 -1      1721 3.52347E-05-1.27335E-05-1.15218E-05-2.82660E-05 1.45520E-18 1.07743E-18
 -1      1722 2.48725E-05-6.33288E-05 1.03388E-05 7.52562E-07 5.02968E-18-1.36981E-18
 -1      1723 2.01587E-05-4.05042E-05 4.38921E-06-2.71209E-06 3.77946E-18-9.53653E-19
 -1      1724 2.43250E-05-7.81388E-05 1.64067E-05-2.13824E-06 5.68285E-18-4.21399E-19
 -1      1725 2.09736E-05-6.82484E-05 1.42602E-05 6.03798E-06 5.83606E-18-1.42386E-18
 -1      1726 1.16927E-04-3.62144E-05-3.36265E-05 4.31678E-05-3.02391E-19-6.77626E-19
 -1      1727 7.24891E-05-3.73632E-05-1.63390E-05 3.92989E-05-7.51318E-19-1.07065E-18
 -1      1728 9.54327E-05-2.83440E-05-2.87714E-05 4.28441E-07-4.70268E-18-2.27895E-18
 -1      1729 9.56099E-05-2.78302E-05-2.90621E-05 1.41322E-06-7.66854E-19 4.00913E-19
 -1      1730 1.92761E-05-4.88290E-05 8.52364E-06 1.51851E-05 3.40973E-18-1.13587E-18
 -1      1731 4.05791E-05-4.36493E-05-1.67685E-06 2.86071E-05 9.35124E-19-2.09617E-18
 -1      1732 1.21235E-05-5.19968E-05 1.23620E-05-4.18388E-07 3.36664E-18-1.08420E-18
 -1      1733 1.58998E-04-3.49548E-05-5.08372E-05 3.79442E-05 1.48019E-19-2.79944E-18
 -1      1734 1.95131E-04-3.32115E-05-6.45000E-05 2.99617E-05 2.39710E-19-4.78150E-18
 -1      1735 2.11900E-04-3.43499E-05-7.05090E-05 8.41970E-06 1.75463E-18-6.73846E-18
 -1      1736 2.04133E-04-3.25270E-05-6.85008E-05-1.17132E-05 3.03958E-18-6.85843E-18
 -1      1737 1.80705E-04-3.23718E-05-5.94674E-05-3.22116E-05 2.26698E-18-8.11034E-18
 -1      1738 1.41032E-04-3.08683E-05-4.48953E-05-4.53468E-05 3.42752E-18-7.54113E-18
 -1      1739 9.46807E-05-3.16955E-05-2.70913E-05-4.34616E-05 5.66665E-18-4.86620E-18
 -1      1740 5.54284E-05-3.74363E-05-9.99254E-06-3.31938E-05 6.41458E-18-3.54039E-18
 -1      1741 2.89205E-05-4.50088E-05 3.13777E-06-2.09783E-05 5.04832E-18-3.90683E-18
 -1      1742 1.43005E-05-4.85464E-05 1.04149E-05-8.41543E-06 3.10353E-18-3.04127E-18
 -1      1743 1.25133E-05-4.89412E-05 1.13089E-05 5.55397E-06 1.12105E-18-4.74931E-18
 -1      1744 2.59287E-05-4.49645E-05 4.85314E-06 2.18594E-05-1.81265E-18-5.79603E-18
 -1      1745 5.07848E-05-3.96627E-05-7.32161E-06 3.30316E-05-3.90990E-18-2.80135E-18
 -1      1746 8.61702E-05-3.10530E-05-2.41940E-05 4.29964E-05-4.16401E-18-4.48165E-18
 -1      1747 1.34248E-04-2.90253E-05-4.30273E-05 4.72192E-05-3.73499E-18-5.81912E-18
 -1      1748 1.76918E-04-3.12744E-05-5.85100E-05 3.42278E-05-2.73867E-18-4.02341E-18
 -1      1749 2.01726E-04-3.20356E-05-6.78924E-05 1.33883E-05-4.10049E-18-2.96165E-18
 -1      1750 2.12728E-04-3.51516E-05-7.05509E-05-7.96286E-06-4.34909E-18-3.74579E-18
 -1      1751 1.94146E-04-3.31916E-05-6.43904E-05-2.74955E-05-3.94633E-18-7.36919E-20
 -1      1752 1.59023E-04-3.16455E-05-5.15540E-05-4.05864E-05-1.08568E-18 3.84807E-18
 -1      1753 1.15118E-04-3.08485E-05-3.49710E-05-4.63067E-05-2.64274E-19 4.92465E-18
 -1      1754 7.25636E-05-3.52984E-05-1.72207E-05-3.98232E-05 1.34848E-18 3.32206E-18
 -1      1755 4.03807E-05-4.30525E-05-1.85480E-06-2.85529E-05 1.61699E-18 1.55438E-18
 -1      1756 1.94187E-05-4.94262E-05 8.61813E-06-1.48290E-05 4.21357E-18-1.79783E-19
 -1      1757 1.06044E-04-2.31686E-05-3.56014E-05-1.68567E-05-1.77680E-18 7.46067E-18
 -1      1758 8.91249E-05-1.05597E-05-3.37943E-05-1.33483E-05-2.40324E-18-2.36095E-18
 -1      1759 9.04515E-05-1.16273E-05-3.39338E-05-1.51217E-05-2.72929E-18-1.52244E-18
 -1      1760 9.24872E-05-1.38725E-05-3.38519E-05-1.60096E-05-2.70009E-18-5.47792E-19
 -1      1761 9.42003E-05-1.58223E-05-3.40951E-05-1.76696E-05-2.84262E-18 7.90652E-19
 -1      1762 9.34380E-05-1.63649E-05-3.30423E-05-1.37585E-05-2.79548E-18-8.72603E-19
 -1      1763 8.62151E-05-7.67576E-06-3.37312E-05-7.87104E-06-1.39583E-18-3.79267E-18
 -1      1764 8.66148E-05-7.97343E-06-3.37643E-05-9.26083E-06-1.69043E-18-3.60311E-18
 -1      1765 8.56027E-05-7.04036E-06-3.37290E-05-5.32606E-06-9.22132E-19-4.04945E-18
 -1      1766 8.58351E-05-7.21846E-06-3.37437E-05-6.63166E-06-1.15841E-18-3.94707E-18
 -1      1767 8.75994E-05-9.87135E-06-3.33449E-05-6.93628E-06-1.39402E-18-3.72957E-18
 -1      1768 8.52705E-05-6.68260E-06-3.37329E-05-2.89214E-06-4.19541E-19-4.10316E-18
 -1      1769 8.53902E-05-6.77698E-06-3.37385E-05-4.13298E-06-6.60693E-19-4.08261E-18
 -1      1770 8.69684E-05-9.16088E-06-3.33787E-05-4.54270E-06-8.29352E-19-3.98525E-18
 -1      1771 8.51409E-05-6.53487E-06-3.37367E-05-5.18194E-07 9.42883E-20-4.08938E-18
 -1      1772 8.51761E-05-6.56330E-06-3.37380E-05-1.72905E-06-1.30934E-19-4.11471E-18
 -1      1773 8.66388E-05-8.78277E-06-3.33993E-05-2.21997E-06-2.87096E-19-3.97657E-18
 -1      1774 8.51859E-05-6.57227E-06-3.37382E-05 1.84708E-06 5.07617E-19-4.05837E-18
 -1      1775 8.51445E-05-6.53942E-06-3.37366E-05 6.35230E-07 2.89375E-19-4.07702E-18
 -1      1776 8.65415E-05-8.66954E-06-3.34061E-05 6.54296E-08 2.10860E-19-3.97346E-18
 -1      1777 8.54154E-05-6.80196E-06-3.37386E-05 4.25544E-06 9.28769E-19-3.90869E-18
 -1      1778 8.52883E-05-6.70153E-06-3.37328E-05 3.01150E-06 7.37184E-19-4.00730E-18
 -1      1779 8.66565E-05-8.80234E-06-3.33986E-05 2.35199E-06 6.66324E-19-3.91556E-18
 -1      1780 8.58694E-05-7.25424E-06-3.37432E-05 6.71873E-06 1.37669E-18-3.64101E-18
 -1      1781 8.56329E-05-7.07243E-06-3.37288E-05 5.43060E-06 1.15268E-18-3.86113E-18
 -1      1782 8.70025E-05-9.19853E-06-3.33771E-05 4.65768E-06 1.11557E-18-3.75931E-18
 -1      1783 8.66789E-05-8.04265E-06-3.37628E-05 9.38188E-06 1.97602E-18-3.06688E-18
 -1      1784 8.62600E-05-7.72664E-06-3.37297E-05 7.96046E-06 1.63309E-18-3.32774E-18
 -1      1785 8.76513E-05-9.92983E-06-3.33419E-05 7.03485E-06 1.63118E-18-3.33057E-18
 -1      1786 8.80870E-05-9.38875E-06-3.38170E-05 1.22615E-05 2.49300E-18-2.25758E-18
 -1      1787 8.73491E-05-8.83152E-06-3.37455E-05 1.06683E-05 2.19227E-18-2.74545E-18
 -1      1788 8.87683E-05-1.11630E-05-3.32902E-05 9.51039E-06 2.21677E-18-2.66860E-18
 -1      1789 9.06267E-05-1.18393E-05-3.39259E-05 1.53098E-05 2.93905E-18-8.04920E-19
 -1      1790 8.92483E-05-1.07406E-05-3.37866E-05 1.35203E-05 2.65667E-18-1.68017E-18
 -1      1791 9.06610E-05-1.32236E-05-3.32061E-05 1.19829E-05 2.70871E-18-1.70935E-18
 -1      1792 9.58678E-05-1.70322E-05-3.39906E-05 1.76966E-05 2.94134E-18 1.91128E-18
 -1      1793 9.28499E-05-1.43415E-05-3.38248E-05 1.62004E-05 2.90646E-18 2.71871E-19
 -1      1794 9.39641E-05-1.68859E-05-3.30222E-05 1.39015E-05 3.02475E-18-1.47595E-19
 -1      1795 1.01915E-04-2.50914E-05-3.33564E-05 1.44273E-05 2.54840E-18 5.29205E-18
 -1      1796 9.80674E-05-1.96139E-05-3.36225E-05 1.69698E-05 2.76605E-18 3.07775E-18
 -1      1797 9.73203E-05-2.18517E-05-3.24249E-05 1.32547E-05 2.93825E-18 1.91805E-18
 -1      1798 9.87412E-05-2.61321E-05-3.13392E-05 9.43981E-06 2.53316E-18 4.44739E-18
 -1      1799 1.00147E-04-1.95615E-05-3.42152E-05-1.88748E-05-2.43334E-18 3.17574E-18
 -1      1800 9.52976E-05-2.72818E-05-2.91812E-05 4.07199E-06 1.88845E-18 3.30683E-18
 -1      1801 9.77297E-05-2.73874E-05-3.01908E-05 6.40585E-06 2.08571E-18 4.00240E-18
 -1      1802 9.75657E-05-2.56117E-05-3.08294E-05 8.76578E-06 2.49208E-18 2.56596E-18
 -1      1803 9.98075E-05-2.25400E-05-3.28333E-05-1.44751E-05-2.61378E-18 2.16322E-18
 -1      1804 9.69464E-05-2.69742E-05-2.98732E-05-5.71065E-06-2.05723E-18 1.78020E-18
 -1      1805 9.51380E-05-2.70304E-05-2.91619E-05-3.90368E-06-1.82316E-18 1.30638E-18
 -1      1806 9.43182E-05-2.72320E-05-2.86542E-05-2.42861E-06-1.56507E-18 1.21958E-18
 -1      1807 9.35445E-05-2.73117E-05-2.83487E-05-1.57588E-06-1.29311E-18 7.95867E-19
 -1      1808 9.54943E-05-2.65433E-05-2.95713E-05-4.48091E-06-2.03967E-18 1.73701E-19
 -1      1809 9.30183E-05-2.73618E-05-2.80796E-05-7.49693E-07-1.06575E-18 6.33892E-19
 -1      1810 9.27147E-05-2.74246E-05-2.79569E-05-3.11988E-07-9.15031E-19 3.70445E-19
 -1      1811 9.42823E-05-2.72179E-05-2.87624E-05-1.83900E-06-1.47666E-18-1.33136E-19
 -1      1812 9.24377E-05-2.74516E-05-2.78205E-05 1.42625E-07-8.49603E-19 3.22463E-19
 -1      1813 9.24039E-05-2.75269E-05-2.77899E-05 3.66062E-07-6.99891E-19 1.07848E-19
 -1      1814 9.35785E-05-2.75230E-05-2.83259E-05-3.74121E-07-1.07416E-18-5.51466E-19
 -1      1815 9.22990E-05-2.75578E-05-2.77313E-05 6.05246E-07-7.25128E-19 5.75552E-20
 -1      1816 9.24112E-05-2.76418E-05-2.77497E-05 7.08763E-07-5.98537E-19-3.10197E-19
 -1      1817 9.32546E-05-2.77067E-05-2.81042E-05 4.26947E-07-8.66645E-19-7.70429E-19
 -1      1818 9.24153E-05-2.76791E-05-2.77375E-05 8.19759E-07-6.55925E-19-4.00194E-19
 -1      1819 9.26003E-05-2.77646E-05-2.77815E-05 8.53499E-07-7.13909E-19-5.58228E-19
 -1      1820 9.31883E-05-2.78481E-05-2.80112E-05 8.37691E-07-7.18074E-19-8.56698E-19
 -1      1821 9.26683E-05-2.78054E-05-2.77964E-05 8.87814E-07-7.07265E-19-3.76929E-19
 -1      1822 9.28826E-05-2.78869E-05-2.78522E-05 8.81277E-07-6.02302E-19-4.75179E-19
 -1      1823 9.32809E-05-2.79698E-05-2.79957E-05 1.01429E-06-7.02530E-19-6.67267E-19
 -1      1824 9.29843E-05-2.79278E-05-2.78819E-05 8.71180E-07-7.15975E-19-4.21664E-19
 -1      1825 9.32022E-05-2.80018E-05-2.79412E-05 8.43020E-07-6.04020E-19-4.00656E-19
 -1      1826 9.34627E-05-2.80768E-05-2.80255E-05 1.05159E-06-5.93207E-19-9.22844E-19
 -1      1827 9.33187E-05-2.80405E-05-2.79781E-05 8.09663E-07-8.24908E-19-6.16376E-19
 -1      1828 9.35263E-05-2.81057E-05-2.80363E-05 7.72225E-07-6.60090E-19-1.11004E-18
 -1      1829 9.36876E-05-2.81699E-05-2.80805E-05 1.01034E-06-9.28288E-19-9.90694E-19
 -1      1830 9.36461E-05-2.81409E-05-2.80760E-05 7.29934E-07-4.10825E-19-1.33865E-18
 -1      1831 9.38374E-05-2.81972E-05-2.81307E-05 6.91654E-07-4.20559E-19-1.56291E-18
 -1      1832 9.39268E-05-2.82493E-05-2.81481E-05 9.31034E-07-7.57907E-19-1.20776E-18
 -1      1833 9.39551E-05-2.82286E-05-2.81709E-05 6.50412E-07-2.93476E-19-1.64794E-18
 -1      1834 9.41293E-05-2.82768E-05-2.82217E-05 6.17252E-07-1.24095E-19-1.50247E-18
 -1      1835 9.41648E-05-2.83160E-05-2.82212E-05 8.41455E-07-4.24601E-19-1.51084E-18
 -1      1836 9.42434E-05-2.83048E-05-2.82615E-05 5.84273E-07-1.71486E-19-1.43613E-18
 -1      1837 9.44040E-05-2.83467E-05-2.83092E-05 5.60661E-07-2.26180E-19-1.33750E-18
 -1      1838 9.43953E-05-2.83714E-05-2.82961E-05 7.61297E-07-1.68864E-19-1.03574E-18
 -1      1839 9.45161E-05-2.83722E-05-2.83491E-05 5.41458E-07-4.60350E-19-1.24913E-18
 -1      1840 9.46691E-05-2.84099E-05-2.83951E-05 5.30938E-07-5.39263E-19-1.27647E-18
 -1      1841 9.46188E-05-2.84178E-05-2.83721E-05 7.05132E-07-2.96840E-19-3.56658E-19
 -1      1842 9.47832E-05-2.84342E-05-2.84363E-05 5.30071E-07-5.82853E-19-1.50440E-18
 -1      1843 9.49373E-05-2.84705E-05-2.84833E-05 5.35770E-07-2.25217E-19-1.62780E-18
 -1      1844 9.48412E-05-2.84581E-05-2.84505E-05 6.84474E-07-6.87984E-19-7.17159E-19
 -1      1845 9.50593E-05-2.84955E-05-2.85277E-05 5.57365E-07-5.06905E-20-1.80451E-18
 -1      1846 9.52253E-05-2.85337E-05-2.85786E-05 5.82301E-07 1.22843E-19-1.77795E-18
 -1      1847 9.50725E-05-2.84957E-05-2.85340E-05 7.09203E-07-2.33330E-19-1.17958E-18
 -1      1848 9.53627E-05-2.85615E-05-2.86287E-05 6.30369E-07 2.29974E-19-2.09090E-18
 -1      1849 9.55534E-05-2.86053E-05-2.86872E-05 6.77619E-07 3.21363E-19-2.03806E-18
 -1      1850 9.53261E-05-2.85345E-05-2.86267E-05 7.88519E-07-3.97988E-21-1.45729E-18
 -1      1851 9.57150E-05-2.86384E-05-2.87460E-05 7.56165E-07-7.44297E-21-2.34559E-18
 -1      1852 9.59451E-05-2.86923E-05-2.88163E-05 8.28859E-07-4.91842E-19-2.01361E-18
 -1      1853 9.56186E-05-2.85794E-05-2.87335E-05 9.31430E-07 8.07349E-21-1.55775E-18
 -1      1854 9.61413E-05-2.87339E-05-2.88871E-05 9.41752E-07-6.37522E-19-1.68778E-18
 -1      1855 9.64273E-05-2.88031E-05-2.89738E-05 1.04284E-06-2.10710E-19-1.42807E-18
 -1      1856 9.59692E-05-2.86363E-05-2.88602E-05 1.14673E-06-3.26437E-19-1.66096E-18
 -1      1857 9.66694E-05-2.88569E-05-2.90600E-05 1.19333E-06 9.01668E-20-1.68835E-18
 -1      1858 9.70290E-05-2.89473E-05-2.91681E-05 1.32501E-06 3.65692E-19-2.04183E-18
 -1      1859 9.63996E-05-2.87122E-05-2.90130E-05 1.44231E-06-4.85720E-20-9.99194E-19
 -1      1860 9.73292E-05-2.90178E-05-2.92731E-05 1.51478E-06 4.76593E-19-2.27591E-18
 -1      1861 9.77807E-05-2.91365E-05-2.94075E-05 1.67749E-06 4.16097E-20-2.04218E-18
 -1      1862 9.69339E-05-2.88166E-05-2.91981E-05 1.82360E-06 4.04361E-19-1.81674E-18
 -1      1863 9.81512E-05-2.92293E-05-2.95343E-05 1.90496E-06-6.08226E-20-1.05667E-18
 -1      1864 9.87118E-05-2.93841E-05-2.96993E-05 2.09556E-06 2.67679E-19-1.00766E-18
 -1      1865 9.75970E-05-2.89615E-05-2.94210E-05 2.29065E-06 5.68030E-19-1.30725E-18
 -1      1866 9.91644E-05-2.95063E-05-2.98496E-05 2.35328E-06 2.41140E-20-8.27210E-19
 -1      1867 9.98470E-05-2.97058E-05-3.00478E-05 2.56232E-06-1.19686E-19-7.63668E-19
 -1      1868 9.84142E-05-2.91632E-05-2.96856E-05 2.83344E-06 2.10584E-19-3.61054E-19
 -1      1869 1.00392E-04-2.98663E-05-3.02214E-05 2.83295E-06-5.84771E-19-1.02371E-18
 -1      1870 1.01200E-04-3.01193E-05-3.04524E-05 3.04059E-06-6.08277E-19-1.30679E-18
 -1      1871 9.94092E-05-2.94436E-05-2.99925E-05 3.42463E-06-4.31441E-19-1.06681E-19
 -1      1872 1.01844E-04-3.03295E-05-3.06458E-05 3.29138E-06-3.91249E-19-1.53341E-18
 -1      1873 1.02766E-04-3.06434E-05-3.09036E-05 3.46200E-06-3.53176E-19-1.11221E-18
 -1      1874 1.00601E-04-2.98319E-05-3.03372E-05 4.00930E-06-5.05314E-19-9.97720E-19
 -1      1875 1.03509E-04-3.09166E-05-3.11088E-05 3.63802E-06-6.75674E-20-1.39763E-18
 -1      1876 1.04508E-04-3.12945E-05-3.13797E-05 3.71440E-06 1.36040E-19-1.71722E-18
 -1      1877 1.02001E-04-3.03655E-05-3.07083E-05 4.49170E-06-1.51278E-19-1.26194E-18
 -1      1878 1.05340E-04-3.16445E-05-3.15832E-05 3.73215E-06 6.08805E-20-1.34848E-18
 -1      1879 1.06340E-04-3.20785E-05-3.18424E-05 3.63191E-06 5.77057E-19-1.31833E-18
 -1      1880 1.03603E-04-3.10872E-05-3.10852E-05 4.72105E-06 3.13839E-19-8.03275E-19
 -1      1881 1.07235E-04-3.25120E-05-3.20253E-05 3.37803E-06 6.51828E-19-1.69995E-18
 -1      1882 1.08109E-04-3.29721E-05-3.22362E-05 2.99895E-06 5.39237E-19-1.70335E-18
 -1      1883 1.05377E-04-3.20319E-05-3.14387E-05 4.48303E-06 5.08885E-19-1.19317E-18
 -1      1884 1.09010E-04-3.34729E-05-3.23763E-05 2.34384E-06 6.74519E-19-1.93179E-18
 -1      1885 1.09578E-04-3.38880E-05-3.24929E-05 1.58959E-06 2.94791E-19-1.38656E-18
 -1      1886 1.07238E-04-3.31940E-05-3.17346E-05 3.51178E-06 3.25955E-19-2.09429E-18
 -1      1887 1.10371E-04-3.43878E-05-3.25709E-05 4.32746E-07-5.10734E-19-1.56707E-18
 -1      1888 1.10412E-04-3.46251E-05-3.25478E-05-7.27254E-07-6.66986E-19-1.86525E-18
 -1      1889 1.09012E-04-3.44632E-05-3.19430E-05 1.55017E-06 2.23438E-20-2.39118E-18
 -1      1890 1.10907E-04-3.49693E-05-3.25569E-05-2.36248E-06 4.49325E-20-1.31210E-18
 -1      1891 1.10213E-04-3.48349E-05-3.23683E-05-3.79706E-06 3.33592E-19-5.17534E-19
 -1      1892 1.10377E-04-3.55361E-05-3.20545E-05-1.50419E-06 5.65130E-20-9.64430E-19
 -1      1893 1.10150E-04-3.47826E-05-3.23231E-05-5.62801E-06 4.79037E-20-2.21086E-19
 -1      1894 1.08641E-04-3.40855E-05-3.19851E-05-6.95499E-06 2.97997E-19 2.27720E-19
 -1      1895 1.10847E-04-3.58699E-05-3.20952E-05-5.34906E-06 7.18717E-19 5.19855E-19
 -1      1896 1.07809E-04-3.34112E-05-3.19190E-05-8.34943E-06 2.63110E-20 6.56795E-19
 -1      1897 1.05681E-04-3.21295E-05-3.15021E-05-8.95900E-06-2.27587E-19 1.09999E-18
 -1      1898 1.09898E-04-3.48320E-05-3.21242E-05-9.01073E-06 4.87782E-19 6.26154E-19
 -1      1899 1.04174E-04-3.08717E-05-3.14488E-05-9.08179E-06-6.97821E-19 1.08502E-18
 -1      1900 1.01987E-04-2.93467E-05-3.10637E-05-8.41225E-06-4.17945E-19 5.57540E-19
 -1      1901 1.07375E-04-3.21801E-05-3.21969E-05-1.08481E-05-4.61418E-19 1.08806E-18
 -1      1902 1.00413E-04-2.80201E-05-3.10326E-05-6.74676E-06-7.97799E-20 6.64861E-19
 -1      1903 9.89563E-05-2.69379E-05-3.07891E-05-4.75658E-06-1.33964E-19 6.14843E-19
 -1      1904 1.04019E-04-2.86795E-05-3.23087E-05-9.25121E-06-1.97868E-19 1.51773E-18
 -1      1905 9.82200E-05-2.63434E-05-3.07637E-05-1.73451E-06-6.74953E-19 7.40727E-19
 -1      1906 9.80945E-05-2.63057E-05-3.07278E-05 8.26393E-07-1.30867E-19-1.33950E-19
 -1      1907 1.01493E-04-2.61047E-05-3.23794E-05-4.00278E-06-1.45359E-19 2.17316E-18
 -1      1908 9.86442E-05-2.68452E-05-3.06956E-05 3.84683E-06 8.25950E-19-2.92435E-19
 -1      1909 9.98458E-05-2.78524E-05-3.08660E-05 5.83420E-06 9.55586E-19 2.77463E-19
 -1      1910 1.01309E-04-2.60541E-05-3.23264E-05 2.84439E-06 3.35895E-19 1.92995E-18
 -1      1911 1.01238E-04-2.91301E-05-3.08352E-05 7.49449E-06 5.63039E-19-8.51778E-19
 -1      1912 1.03166E-04-3.05864E-05-3.11438E-05 8.15269E-06-2.39044E-19-1.17974E-18
 -1      1913 1.03468E-04-2.85260E-05-3.21426E-05 8.08726E-06-9.07715E-20-3.08813E-19
 -1      1914 1.04499E-04-3.18069E-05-3.11317E-05 8.00518E-06-7.39820E-19-3.49163E-19
 -1      1915 1.06358E-04-3.30216E-05-3.14678E-05 7.36229E-06-9.97742E-19-7.17159E-19
 -1      1916 1.06470E-04-3.19458E-05-3.19090E-05 9.65576E-06-4.70496E-19-8.67173E-19
 -1      1917 1.07004E-04-3.36547E-05-3.14664E-05 5.91274E-06-1.78421E-18-8.03272E-19
 -1      1918 1.08220E-04-3.42733E-05-3.17179E-05 4.53163E-06-1.34795E-18-1.74601E-18
 -1      1919 1.08638E-04-3.45335E-05-3.17100E-05 7.72907E-06-1.08094E-18 8.95496E-19
 -1      1920 1.08077E-04-3.42717E-05-3.16935E-05 2.62583E-06-7.76385E-19-1.58605E-18
 -1      1921 1.08444E-04-3.43080E-05-3.17888E-05 1.12744E-06-3.08512E-19-1.55010E-18
 -1      1922 1.09200E-04-3.54863E-05-3.15523E-05 3.92267E-06-1.37433E-18-7.51616E-19
 -1      1923 1.07723E-04-3.38909E-05-3.17089E-05-5.80699E-07 5.56150E-19-1.51750E-18
 -1      1924 1.07325E-04-3.35331E-05-3.16334E-05-1.79330E-06 7.70237E-19-1.45389E-18
 -1      1925 1.08295E-04-3.50225E-05-3.13818E-05-8.59807E-08 2.34919E-20-1.52188E-18
 -1      1926 1.06290E-04-3.29416E-05-3.14877E-05-2.99322E-06 9.61465E-19-5.49928E-19
 -1      1927 1.05351E-04-3.23847E-05-3.12729E-05-3.76366E-06 7.04778E-19 1.23276E-19
 -1      1928 1.06454E-04-3.37665E-05-3.11455E-05-3.26661E-06 1.35878E-18-6.39459E-19
 -1      1929 1.04205E-04-3.17715E-05-3.10749E-05-4.39831E-06-1.77860E-19 2.70389E-19
 -1      1930 1.02976E-04-3.11513E-05-3.07766E-05-4.72359E-06 5.07558E-20 2.64827E-19
 -1      1931 1.04181E-04-3.22545E-05-3.08280E-05-5.25068E-06 1.26459E-20 4.87481E-19
 -1      1932 1.01845E-04-3.05815E-05-3.05543E-05-4.85059E-06-6.66632E-19 9.70746E-20
 -1      1933 1.00553E-04-2.99765E-05-3.02342E-05-4.78301E-06-3.72509E-19-8.96027E-19
 -1      1934 1.01821E-04-3.07798E-05-3.04535E-05-6.05783E-06-6.33366E-19 8.67936E-19
 -1      1935 9.95088E-05-2.94634E-05-3.00190E-05-4.48641E-06 2.11017E-19-1.70710E-18
 -1      1936 9.83400E-05-2.89208E-05-2.97323E-05-4.07826E-06 9.29653E-19-1.68984E-18
 -1      1937 9.95839E-05-2.94474E-05-3.00679E-05-5.84610E-06-7.30169E-19 8.27194E-19
 -1      1938 9.75311E-05-2.85411E-05-2.95603E-05-3.45822E-06 2.01478E-18-1.64699E-18
 -1      1939 9.66191E-05-2.81184E-05-2.93319E-05-2.79484E-06 1.55555E-18-8.92578E-19
 -1      1940 9.62346E-05-2.75997E-05-2.94227E-05-3.29765E-06 1.32956E-18 1.73258E-19
 -1      1941 9.76836E-05-2.83320E-05-2.97311E-05-4.82580E-06 1.24297E-18-1.19128E-19
 -1      1942 9.31949E-05-2.73578E-05-2.81880E-05 1.61099E-06 1.54132E-18 2.30336E-18
 -1      1943 9.43914E-05-2.74637E-05-2.86252E-05 2.68165E-06 1.58530E-18 2.96057E-18
 -1      1944 9.52169E-05-2.70434E-05-2.92226E-05 4.06052E-06 1.94946E-18 1.87268E-18
 -1      1945 9.21393E-05-2.73433E-05-2.77452E-05 3.54980E-07 1.00288E-18 1.64650E-18
 -1      1946 9.26358E-05-2.73762E-05-2.79182E-05 9.02644E-07 1.14814E-18 2.06767E-18
 -1      1947 9.36097E-05-2.73638E-05-2.83980E-05 1.59267E-06 1.44931E-18 1.31706E-18
 -1      1948 9.17600E-05-2.73798E-05-2.75759E-05-2.97401E-07 6.69308E-19 1.05211E-18
 -1      1949 9.18774E-05-2.73538E-05-2.76235E-05-5.49565E-09 7.12338E-19 1.44472E-18
 -1      1950 9.27756E-05-2.74781E-05-2.79946E-05 2.80860E-07 1.02527E-18 7.56702E-19
 -1      1951 9.17793E-05-2.74688E-05-2.75515E-05-6.22238E-07 3.90725E-19 6.93293E-19
 -1      1952 9.16940E-05-2.74078E-05-2.75359E-05-4.69987E-07 5.77809E-19 1.03412E-18
 -1      1953 9.24584E-05-2.75700E-05-2.78194E-05-4.11554E-07 7.12271E-19 2.41603E-19
 -1      1954 9.20192E-05-2.75892E-05-2.76058E-05-7.59739E-07 5.13547E-19 6.22660E-19
 -1      1955 9.18310E-05-2.75115E-05-2.75579E-05-6.88814E-07 2.69543E-19 7.43825E-19
 -1      1956 9.24584E-05-2.76738E-05-2.77730E-05-7.55938E-07 4.37509E-19 7.31137E-20
 -1      1957 9.23686E-05-2.77218E-05-2.77006E-05-7.87935E-07 8.88375E-19 3.94402E-19
 -1      1958 9.21357E-05-2.76394E-05-2.76378E-05-7.65504E-07 6.61753E-19 6.07754E-19
 -1      1959 9.26403E-05-2.77877E-05-2.78000E-05-8.97407E-07 7.97206E-19-7.34069E-20
 -1      1960 9.27590E-05-2.78536E-05-2.78128E-05-7.54244E-07 5.92791E-19 2.92131E-20
 -1      1961 9.25156E-05-2.77738E-05-2.77454E-05-7.60099E-07 7.60077E-19 3.64768E-19
 -1      1962 9.29158E-05-2.79031E-05-2.78668E-05-9.20125E-07 8.69300E-19-5.81888E-20
 -1      1963 9.31504E-05-2.79770E-05-2.79285E-05-6.89200E-07 1.03945E-19-7.28969E-20
 -1      1964 9.29155E-05-2.79036E-05-2.78624E-05-7.10129E-07 4.08737E-19 1.26128E-20
 -1      1965 9.32296E-05-2.80132E-05-2.79528E-05-8.76472E-07 5.58569E-19-2.82017E-20
 -1      1966 9.35212E-05-2.80883E-05-2.80404E-05-6.13243E-07 3.37805E-19-2.24571E-19
 -1      1967 9.33044E-05-2.80230E-05-2.79786E-05-6.40252E-07 3.78354E-19-5.09924E-20
 -1      1968 9.35488E-05-2.81137E-05-2.80455E-05-8.00705E-07 3.97282E-19-1.98070E-19
 -1      1969 9.38632E-05-2.81868E-05-2.81452E-05-5.40496E-07 3.58103E-19-1.52786E-19
 -1      1970 9.36673E-05-2.81296E-05-2.80886E-05-5.67245E-07 2.39509E-19-9.88888E-20
 -1      1971 9.38560E-05-2.82030E-05-2.81383E-05-7.16049E-07 2.86742E-19-2.43074E-19
 -1      1972 9.41774E-05-2.82738E-05-2.82427E-05-4.81120E-07 8.88947E-19-7.53445E-19
 -1      1973 9.40005E-05-2.82237E-05-2.81910E-05-5.02936E-07 6.78681E-19-4.42362E-19
 -1      1974 9.41449E-05-2.82814E-05-2.82282E-05-6.38804E-07 7.76912E-19-6.00982E-19
 -1      1975 9.44718E-05-2.83524E-05-2.83352E-05-4.42905E-07 2.55064E-19-5.18008E-19
 -1      1976 9.43085E-05-2.83073E-05-2.82868E-05-4.56101E-07 4.08981E-19-5.74447E-19
 -1      1977 9.44174E-05-2.83507E-05-2.83152E-05-5.80958E-07 6.05030E-19-5.64491E-19
 -1      1978 9.47595E-05-2.84268E-05-2.84265E-05-4.32424E-07 3.86937E-21-4.21420E-19
 -1      1979 9.46017E-05-2.83841E-05-2.83791E-05-4.33798E-07 7.47050E-20-3.89355E-19
 -1      1980 9.46812E-05-2.84138E-05-2.84012E-05-5.51996E-07 1.04152E-19-3.90373E-19
 -1      1981 9.50586E-05-2.85022E-05-2.85219E-05-4.55890E-07-9.09316E-20-1.08582E-18
 -1      1982 9.48956E-05-2.84587E-05-2.84725E-05-4.42336E-07 1.05174E-19-5.97370E-19
 -1      1983 9.49489E-05-2.84749E-05-2.84900E-05-5.60202E-07 1.71138E-19-6.11504E-19
 -1      1984 9.53912E-05-2.85851E-05-2.86283E-05-5.19764E-07 7.45545E-19-1.40720E-18
 -1      1985 9.52103E-05-2.85370E-05-2.85731E-05-4.87995E-07 1.81147E-19-1.31639E-18
 -1      1986 9.52374E-05-2.85386E-05-2.85867E-05-6.13616E-07 5.09702E-19-7.60544E-19
 -1      1987 9.57841E-05-2.86832E-05-2.87538E-05-6.31149E-07 6.78260E-19-8.68237E-19
 -1      1988 9.55698E-05-2.86258E-05-2.86882E-05-5.77502E-07 1.03535E-18-9.76072E-19
 -1      1989 9.55674E-05-2.86109E-05-2.86976E-05-7.20670E-07 8.50050E-19-1.31239E-18
 -1      1990 9.62682E-05-2.88055E-05-2.89078E-05-7.97893E-07-5.72634E-19-1.45973E-18
 -1      1991 9.60027E-05-2.87334E-05-2.88267E-05-7.18259E-07 5.48421E-20-1.34664E-18
 -1      1992 9.59635E-05-2.86986E-05-2.88304E-05-8.90517E-07 2.88488E-19-4.69859E-19
 -1      1993 9.68791E-05-2.89624E-05-2.91010E-05-1.02832E-06-1.00386E-18-1.74307E-18
 -1      1994 9.65420E-05-2.88694E-05-2.89984E-05-9.18242E-07-8.42859E-19-1.22748E-18
 -1      1995 9.64541E-05-2.88098E-05-2.89938E-05-1.13294E-06-7.59150E-19-1.23055E-18
 -1      1996 9.76566E-05-2.91663E-05-2.93454E-05-1.33030E-06-7.81644E-19-1.35928E-18
 -1      1997 9.72249E-05-2.90451E-05-2.92147E-05-1.18539E-06-1.07347E-18-1.89768E-18
 -1      1998 9.70713E-05-2.89543E-05-2.91973E-05-1.45767E-06-9.04003E-19-1.33958E-18
 -1      1999 9.86435E-05-2.94315E-05-2.96532E-05-1.70938E-06 5.64772E-19-1.50835E-18
 -1      2000 9.80924E-05-2.92737E-05-2.94874E-05-1.52615E-06-1.74088E-19-1.38193E-18
 -1      2001 9.78501E-05-2.91439E-05-2.94509E-05-1.87270E-06-2.37956E-19-1.40595E-18
 -1      2002 9.98827E-05-2.97739E-05-3.00364E-05-2.16504E-06 2.19482E-19-1.47518E-18
 -1      2003 9.91876E-05-2.95704E-05-2.98287E-05-1.94271E-06 6.82710E-19-1.40316E-18
 -1      2004 9.88273E-05-2.93927E-05-2.97643E-05-2.38108E-06 5.95514E-19-1.23618E-18
 -1      2005 1.01412E-04-3.02116E-05-3.05038E-05-2.68446E-06-4.71167E-19-1.55080E-18
 -1      2006 1.00552E-04-2.99530E-05-3.02491E-05-2.42799E-06-5.85783E-19-1.45987E-18
 -1      2007 1.00039E-04-2.97185E-05-3.01453E-05-2.97515E-06-3.19523E-19-1.35799E-18
 -1      2008 1.03256E-04-3.07634E-05-3.10585E-05-3.23203E-06-9.26917E-19-8.48333E-19
 -1      2009 1.02219E-04-3.04409E-05-3.07549E-05-2.95736E-06-5.00472E-19-1.21501E-18
 -1      2010 1.01515E-04-3.01434E-05-3.05974E-05-3.62701E-06-6.52814E-19-9.56820E-19
 -1      2011 1.05408E-04-3.14472E-05-3.16914E-05-3.73373E-06 9.30893E-20 2.60727E-20
 -1      2012 1.04204E-04-3.10553E-05-3.13438E-05-3.47576E-06-5.02966E-19-4.65787E-19
 -1      2013 1.03275E-04-3.06950E-05-3.11163E-05-4.27380E-06-8.30076E-19-8.76130E-19
 -1      2014 1.07811E-04-3.22749E-05-3.23741E-05-4.05648E-06 4.49344E-19 6.54009E-19
 -1      2015 1.06484E-04-3.18154E-05-3.19991E-05-3.87992E-06 5.14462E-19 3.16450E-19
 -1      2016 1.05311E-04-3.14064E-05-3.16849E-05-4.79723E-06 3.55111E-19 2.08527E-19
 -1      2017 1.10327E-04-3.32410E-05-3.30499E-05-3.98823E-06-1.17804E-18 1.14197E-18
 -1      2018 1.08978E-04-3.27315E-05-3.26813E-05-3.99847E-06-3.81562E-19 9.12963E-19
 -1      2019 1.07577E-04-3.23107E-05-3.22684E-05-5.00021E-06-2.13216E-19 1.17812E-18
 -1      2020 1.12698E-04-3.42975E-05-3.36280E-05-3.23632E-06-4.16128E-19 1.75257E-18
 -1      2021 1.11506E-04-3.37855E-05-3.33209E-05-3.58137E-06-9.65171E-19 1.29605E-18
 -1      2022 1.09961E-04-3.34228E-05-3.28104E-05-4.59260E-06-8.64761E-19 1.99139E-18
 -1      2023 1.14522E-04-3.53090E-05-3.39884E-05-1.48270E-06-1.45868E-19 9.27771E-19
 -1      2024 1.13750E-04-3.48925E-05-3.38171E-05-2.32610E-06 5.56865E-19 1.55618E-18
 -1      2025 1.12244E-04-3.46937E-05-3.32365E-05-3.21542E-06 3.16327E-19 2.24053E-18
 -1      2026 1.15247E-04-3.59888E-05-3.40093E-05 1.44330E-06-9.59139E-19 3.88070E-19
 -1      2027 1.15222E-04-3.58358E-05-3.40512E-05 1.09448E-08-1.12841E-18 2.00796E-19
 -1      2028 1.14057E-04-3.59244E-05-3.34705E-05-5.56808E-07-4.16859E-19 1.33360E-18
 -1      2029 1.14272E-04-3.58710E-05-3.36241E-05 5.23455E-06-5.80237E-19 3.78862E-19
 -1      2030 1.15285E-04-3.62044E-05-3.39238E-05 3.36513E-06-9.05478E-19 2.67504E-19
 -1      2031 1.14842E-04-3.66644E-05-3.34679E-05 3.37485E-06-5.95497E-19 3.61408E-19
 -1      2032 1.11222E-04-3.44621E-05-3.28904E-05 8.74799E-06 1.31690E-19 1.81153E-18
 -1      2033 1.13347E-04-3.54490E-05-3.34142E-05 7.01425E-06-2.51331E-19 1.13946E-18
 -1      2034 1.13957E-04-3.62348E-05-3.32539E-05 7.83528E-06-4.50760E-19 6.91536E-19
 -1      2035 1.06472E-04-3.17097E-05-3.20184E-05 1.00697E-05 1.26969E-19 7.89991E-19
 -1      2036 1.09325E-04-3.32333E-05-3.26305E-05 9.41252E-06 8.58316E-19 2.14143E-18
 -1      2037 1.11064E-04-3.40997E-05-3.29351E-05 1.10751E-05 4.72545E-19 1.02693E-18
 -1      2038 1.01580E-04-2.85630E-05-3.12971E-05 7.54708E-06 1.89557E-18 1.05374E-18
 -1      2039 1.04237E-04-3.00428E-05-3.17992E-05 8.73568E-06 8.39774E-19 7.89051E-19
 -1      2040 1.06804E-04-3.06247E-05-3.26494E-05 1.08336E-05 1.11453E-18 1.70070E-18
 -1      2041 9.89510E-05-2.68425E-05-3.09573E-05 1.54803E-06 9.40815E-19 1.01213E-18
 -1      2042 1.00252E-04-2.74547E-05-3.11758E-05 4.32239E-06 1.73258E-18 1.46435E-18
 -1      2043 1.03113E-04-2.74976E-05-3.24707E-05 5.98912E-06 1.58033E-18 2.30381E-18
 -1      2044 1.00079E-04-2.77137E-05-3.10836E-05-5.04884E-06 1.30628E-20-5.44152E-19
 -1      2045 9.94051E-05-2.70883E-05-3.09506E-05-2.07093E-06 2.29281E-19 3.35299E-19
 -1      2046 1.02169E-04-2.67503E-05-3.24002E-05-1.66605E-06 6.94514E-19 2.74479E-18
 -1      2047 1.04192E-04-3.05318E-05-3.16031E-05-8.89830E-06 1.74832E-18 1.26526E-20
 -1      2048 1.01947E-04-2.90970E-05-3.11855E-05-7.19248E-06 6.49952E-19-4.17534E-19
 -1      2049 1.04450E-04-2.88575E-05-3.24214E-05-8.18472E-06 7.19594E-19 8.77983E-19
 -1      2050 1.08897E-04-3.34797E-05-3.23054E-05-8.70306E-06-1.32037E-18 4.86620E-19
 -1      2051 1.06217E-04-3.20570E-05-3.17786E-05-8.76043E-06 2.12602E-19 6.03035E-19
 -1      2052 1.08309E-04-3.23379E-05-3.25368E-05-1.05088E-05 3.16893E-19 2.32606E-18
 -1      2053 1.12094E-04-3.52024E-05-3.29097E-05-5.59691E-06-7.52377E-19 8.81291E-19
 -1      2054 1.10054E-04-3.43500E-05-3.24752E-05-6.88757E-06-7.10317E-19 4.45433E-19
 -1      2055 1.11480E-04-3.51165E-05-3.27014E-05-8.52076E-06-1.01153E-18 1.95692E-18
 -1      2056 1.13006E-04-3.54687E-05-3.31891E-05-1.59691E-06 6.86236E-19-4.72167E-19
 -1      2057 1.12126E-04-3.52773E-05-3.29842E-05-3.26894E-06-2.64724E-19-6.00037E-19
 -1      2058 1.12723E-04-3.61707E-05-3.28014E-05-4.21693E-06 5.05209E-19-1.48803E-19
 -1      2059 1.11909E-04-3.47215E-05-3.30560E-05 1.81670E-06-6.67998E-19-5.05553E-19
 -1      2060 1.12173E-04-3.50149E-05-3.31162E-05 3.74574E-07 6.34639E-19 5.47974E-20
 -1      2061 1.12030E-04-3.57063E-05-3.27184E-05 2.54846E-07 3.61107E-19 3.06438E-19
 -1      2062 1.09475E-04-3.34877E-05-3.25586E-05 4.05225E-06 1.79410E-18-9.10296E-19
 -1      2063 1.10585E-04-3.40469E-05-3.28383E-05 3.08771E-06 7.98064E-21-9.04850E-19
 -1      2064 1.09988E-04-3.44167E-05-3.24001E-05 3.66006E-06 4.24767E-19 1.61479E-19
 -1      2065 1.06373E-04-3.21249E-05-3.18221E-05 5.11197E-06 1.89819E-18-2.41339E-18
 -1      2066 1.07960E-04-3.27861E-05-3.22377E-05 4.63279E-06 2.08274E-18-8.33606E-19
 -1      2067 1.07230E-04-3.28766E-05-3.18755E-05 5.65709E-06 1.94811E-18 1.18189E-18
 -1      2068 1.03128E-04-3.08170E-05-3.09934E-05 5.21662E-06 5.64894E-19-1.67313E-18
 -1      2069 1.04865E-04-3.14791E-05-3.14559E-05 5.14272E-06 1.08915E-18-1.70058E-18
 -1      2070 1.04242E-04-3.13917E-05-3.12275E-05 6.38183E-06 9.13266E-19 6.43695E-19
 -1      2071 1.00123E-04-2.96417E-05-3.02074E-05 4.57505E-06 4.08182E-19-7.60900E-19
 -1      2072 1.01752E-04-3.02460E-05-3.06388E-05 4.83495E-06-1.51862E-19-1.34242E-18
 -1      2073 1.01352E-04-3.00635E-05-3.05571E-05 6.09472E-06 2.12253E-19 7.93207E-19
 -1      2074 9.76474E-05-2.86444E-05-2.95662E-05 3.31041E-06 9.07626E-19 4.87722E-20
 -1      2075 9.89576E-05-2.91479E-05-2.99077E-05 3.87510E-06 1.07628E-18 5.06685E-19
 -1      2076 9.87802E-05-2.89028E-05-2.99537E-05 5.00957E-06 6.93862E-19 1.31814E-18
 -1      2077 9.61233E-05-2.80065E-05-2.91759E-05 2.02469E-06-3.66855E-20 9.12364E-19
 -1      2078 9.70395E-05-2.83542E-05-2.94264E-05 2.79892E-06 1.06631E-18 8.18365E-19
 -1      2079 9.69791E-05-2.80549E-05-2.95488E-05 3.70755E-06 5.25855E-19 3.52933E-18
 -1      2080 9.58613E-05-2.74767E-05-2.93091E-05 2.51608E-06 3.38469E-19 3.30279E-18
 -1      2081 9.29463E-05-2.09806E-05-3.08520E-05 5.65763E-06-2.65075E-19-1.55306E-18
 -1      2082 9.36093E-05-2.24445E-05-3.04868E-05 5.57505E-06-9.11252E-19 1.59183E-18
 -1      2083 9.41868E-05-2.35964E-05-3.02523E-05 5.26678E-06-1.93593E-19 2.67914E-18
 -1      2084 9.48064E-05-2.49369E-05-2.99262E-05 4.79771E-06-2.06643E-19 2.25303E-18
 -1      2085 9.42374E-05-2.36022E-05-3.02764E-05 6.80951E-06-3.15925E-19 1.10830E-18
 -1      2086 9.51320E-05-2.56985E-05-2.97507E-05 4.12339E-06-5.07644E-19 1.86767E-18
 -1      2087 9.56166E-05-2.67770E-05-2.94850E-05 3.36160E-06 4.65268E-19 2.95305E-18
 -1      2088 9.60927E-05-2.70205E-05-2.95902E-05 4.04424E-06 2.06317E-19 2.99154E-18
 -1      2089 9.53229E-05-2.55284E-05-2.99157E-05 5.68925E-06-3.56098E-19 2.43477E-18
 -1      2090 9.17656E-05-1.84773E-05-3.14319E-05 5.24313E-06-1.05666E-18-3.71890E-18
 -1      2091 9.23856E-05-1.98491E-05-3.10872E-05 5.52082E-06-4.43858E-19-3.00567E-18
 -1      2092 9.28515E-05-2.12480E-05-3.06830E-05 6.99526E-06-7.16749E-19-2.41445E-18
 -1      2093 9.07385E-05-1.63208E-05-3.19266E-05 4.04950E-06-6.70064E-19-6.09976E-19
 -1      2094 9.12530E-05-1.74485E-05-3.16434E-05 4.66119E-06-8.65065E-19-1.29288E-18
 -1      2095 9.15378E-05-1.90075E-05-3.10697E-05 6.19833E-06-9.80909E-19-2.61139E-18
 -1      2096 9.00521E-05-1.48858E-05-3.22520E-05 2.23553E-06-5.48132E-19-8.79177E-19
 -1      2097 9.03656E-05-1.55749E-05-3.20786E-05 3.08926E-06-1.99842E-19-5.36648E-19
 -1      2098 9.04549E-05-1.71638E-05-3.13837E-05 4.46985E-06 9.15581E-20-9.19520E-19
 -1      2099 8.98309E-05-1.44055E-05-3.23609E-05 8.77641E-08-1.69305E-18 5.34600E-19
 -1      2100 8.98885E-05-1.45515E-05-3.23224E-05 1.04462E-06-1.53774E-18-1.01845E-18
 -1      2101 8.97980E-05-1.60402E-05-3.15759E-05 2.05067E-06-9.38437E-19-1.54451E-18
 -1      2102 9.01112E-05-1.49518E-05-3.22393E-05-2.03294E-06-1.93403E-18-1.31887E-18
 -1      2103 8.99077E-05-1.45404E-05-3.23398E-05-1.13334E-06-1.61001E-18 1.00406E-18
 -1      2104 8.96949E-05-1.58348E-05-3.16186E-05-6.64812E-07-2.37347E-18 1.99890E-19
 -1      2105 9.08242E-05-1.64127E-05-3.19084E-05-3.78168E-06-2.51825E-18-2.79239E-18
 -1      2106 9.04067E-05-1.55214E-05-3.21305E-05-3.08132E-06-2.11333E-18-2.43999E-18
 -1      2107 9.01541E-05-1.65708E-05-3.15062E-05-3.21767E-06-3.01335E-18-2.67941E-18
 -1      2108 9.18046E-05-1.84878E-05-3.14279E-05-4.90271E-06-2.53402E-18-1.18538E-18
 -1      2109 9.12614E-05-1.72859E-05-3.17316E-05-4.49431E-06-2.59266E-18-1.59863E-18
 -1      2110 9.10568E-05-1.80768E-05-3.12581E-05-5.19129E-06-1.58045E-18-2.30336E-18
 -1      2111 9.29177E-05-2.09211E-05-3.08515E-05-5.33373E-06-5.00982E-19 3.46675E-18
 -1      2112 9.23167E-05-1.95450E-05-3.12027E-05-5.23409E-06-1.60189E-18 1.99350E-18
 -1      2113 9.22106E-05-2.00783E-05-3.09071E-05-6.35517E-06-1.14850E-18 9.47497E-19
 -1      2114 9.40089E-05-2.33598E-05-3.02649E-05-5.06213E-06 5.65514E-19 2.93504E-18
 -1      2115 9.34274E-05-2.20052E-05-3.06112E-05-5.26836E-06-3.47184E-20 2.36782E-18
 -1      2116 9.34484E-05-2.22904E-05-3.04991E-05-6.64353E-06 9.55196E-19 3.44121E-18
 -1      2117 9.50067E-05-2.55771E-05-2.97451E-05-4.17520E-06 6.65114E-19 1.40655E-18
 -1      2118 9.44652E-05-2.43640E-05-3.00388E-05-4.64741E-06-1.71157E-19 2.54930E-18
 -1      2119 9.46251E-05-2.44365E-05-3.00890E-05-6.09931E-06 5.52219E-19 2.03225E-18
 -1      2120 5.69866E-05-4.11684E-05-7.40505E-06 3.95275E-05 2.37169E-20-3.72570E-18
 -1      2121 4.23486E-05-4.23720E-05-1.31138E-06 3.26551E-05 1.26377E-18-2.59552E-18
 -1      2122 1.28211E-05-3.39656E-05 7.86376E-06 4.68761E-06 2.62104E-18-1.41836E-18
 -1      2123 1.29816E-05-3.41498E-05 7.85662E-06-5.76396E-06 3.33795E-18-1.35314E-18
 -1      2124 2.73216E-05-3.50885E-05 2.58028E-06 2.68981E-05 1.82197E-18-1.13672E-18
 -1      2125 1.89049E-05-3.61713E-05 6.07807E-06 1.65347E-05 1.99434E-18-1.45393E-18
 -1      2126 9.57602E-05-4.56586E-05-2.15457E-05 4.26736E-05-2.54745E-18-3.01332E-19
 -1      2127 7.71756E-05-4.69931E-05-1.39970E-05 3.86391E-05-1.38871E-18-2.26158E-18
 -1      2128 1.32400E-04-4.73792E-05-3.64249E-05 3.21968E-05-2.75074E-19-1.94225E-18
 -1      2129 1.11378E-04-4.72140E-05-2.81669E-05 3.53513E-05-2.22219E-18 5.12455E-20
 -1      2130 1.15492E-04-5.63341E-05-2.51539E-05 3.50814E-05-3.22169E-18-8.34963E-19
 -1      2131 8.72662E-05-8.73055E-06-3.37489E-05-1.05359E-05-1.93191E-18-3.34192E-18
 -1      2132 8.79783E-05-9.26528E-06-3.38203E-05-1.21156E-05-2.24893E-18-2.89450E-18
 -1      2133 9.04716E-05-1.30309E-05-3.32174E-05-1.18257E-05-2.49300E-18-2.41709E-18
 -1      2134 8.86757E-05-1.10603E-05-3.32966E-05-9.40130E-06-1.91479E-18-3.31024E-18
 -1      2135 1.76366E-04-2.87423E-05-6.22628E-05 8.73739E-06 1.25382E-18-4.31987E-18
 -1      2136 1.66883E-04-3.09642E-05-5.78119E-05 1.50579E-05 7.51953E-19-3.77438E-18
 -1      2137 1.82301E-04-2.41520E-05-6.67361E-05 3.12537E-07 2.26158E-18-5.57103E-18
 -1      2138 1.79287E-04-2.40326E-05-6.55792E-05 7.00597E-06 1.26166E-18-4.71310E-18
 -1      2139 1.70774E-04-2.36644E-05-6.25972E-05-5.15583E-06 2.20567E-18-5.08262E-18
 -1      2140 1.80030E-04-2.42086E-05-6.55716E-05-8.51904E-07 2.67027E-18-5.16584E-18
 -1      2141 1.58752E-04-3.53826E-05-5.25902E-05-1.72522E-05 1.10654E-18-6.06349E-18
 -1      2142 1.69146E-04-3.25101E-05-5.80610E-05-9.12913E-06 1.38659E-18-5.51842E-18
 -1      2143 1.34076E-04-4.15765E-05-3.99232E-05-2.82268E-05 2.24548E-18-5.22026E-18
 -1      2144 1.53834E-04-4.08211E-05-4.77384E-05-2.62910E-05 1.29045E-18-6.06518E-18
 -1      2145 1.53632E-04-4.14652E-05-4.72736E-05-4.63245E-06 3.73065E-19-4.03315E-18
 -1      2146 9.64911E-05-4.48849E-05-2.30612E-05-3.64382E-05 4.05432E-18-3.43853E-18
 -1      2147 1.17875E-04-4.33481E-05-3.16814E-05-3.94111E-05 4.02722E-18-4.52273E-18
 -1      2148 5.95568E-05-4.37033E-05-8.15761E-06-3.53114E-05 4.32199E-18-2.21859E-18
 -1      2149 7.69637E-05-4.13762E-05-1.55585E-05-4.15267E-05 4.39822E-18-2.64063E-18
 -1      2150 3.17507E-05-3.92642E-05 1.92141E-06-2.70849E-05 2.79055E-18-3.28162E-18
 -1      2151 4.35020E-05-3.84266E-05-2.93048E-06-3.44176E-05 4.06745E-18-3.02115E-18
 -1      2152 1.36074E-05-3.42924E-05 7.53892E-06-8.70437E-06 1.75082E-18-3.17383E-18
 -1      2153 1.88651E-05-3.47286E-05 5.59662E-06-1.82608E-05 2.47567E-18-3.14376E-18
 -1      2154 1.52822E-05-3.50442E-05 7.09109E-06 1.36908E-05 1.82959E-19-5.64759E-18
 -1      2155 1.17430E-05-3.41498E-05 8.20658E-06 3.84380E-06 1.38448E-18-3.99503E-18
 -1      2156 3.55590E-05-3.67597E-05-4.98873E-07 3.22872E-05-1.22439E-18-4.79484E-18
 -1      2157 2.42719E-05-3.85315E-05 4.47360E-06 2.21014E-05-3.25684E-19-6.15306E-18
 -1      2158 7.22517E-05-4.13193E-05-1.34909E-05 4.19964E-05-3.72440E-18-1.74118E-18
 -1      2159 5.73559E-05-4.26997E-05-6.93712E-06 3.80058E-05-2.17222E-18-2.65974E-18
 -1      2160 1.09976E-04-4.11922E-05-2.91524E-05 4.19003E-05-2.65757E-18-4.46302E-18
 -1      2161 8.84145E-05-4.34997E-05-2.02192E-05 3.77858E-05-2.88161E-18-2.69145E-18
 -1      2162 1.48176E-04-3.87012E-05-4.61120E-05 3.29468E-05-2.35814E-18-3.54780E-18
 -1      2163 1.25922E-04-3.92047E-05-3.74467E-05 3.35903E-05-2.59256E-18-3.73669E-18
 -1      2164 1.68962E-04-3.22319E-05-5.79428E-05 1.31933E-05-3.11200E-18-7.46236E-19
 -1      2165 1.57602E-04-3.43685E-05-5.22099E-05 2.15438E-05-2.54671E-18-2.35475E-18
 -1      2166 1.80042E-04-2.44000E-05-6.54073E-05 2.23538E-06-3.72610E-18-1.17134E-18
 -1      2167 1.70555E-04-2.39448E-05-6.22760E-05 6.60622E-06-3.21788E-18-1.18669E-18
 -1      2168 1.82579E-04-2.53525E-05-6.60939E-05-7.71111E-06-4.18815E-18-2.46254E-18
 -1      2169 1.82788E-04-2.42267E-05-6.68555E-05 2.51728E-07-3.69476E-18-2.59446E-18
 -1      2170 1.66238E-04-2.85236E-05-5.85416E-05-1.47949E-05-2.77912E-18-1.90201E-18
 -1      2171 1.80265E-04-2.86764E-05-6.34571E-05-1.09378E-05-4.23156E-18-3.18146E-18
 -1      2172 1.44804E-04-3.89504E-05-4.53726E-05-2.53375E-05-2.79733E-19 1.72329E-18
 -1      2173 1.61263E-04-3.69827E-05-5.24539E-05-2.12726E-05-1.55812E-18-2.92226E-19
 -1      2174 1.13539E-04-4.51626E-05-2.99200E-05-3.54096E-05 1.01856E-18 3.87983E-18
 -1      2175 1.34050E-04-4.39804E-05-3.81664E-05-3.52500E-05 9.04208E-20 3.54060E-18
 -1      2176 7.76195E-05-4.59108E-05-1.46617E-05-3.87272E-05 1.43572E-18 2.80050E-18
 -1      2177 9.64344E-05-4.33413E-05-2.27472E-05-4.33154E-05 1.37643E-18 4.70230E-18
 -1      2178 4.18376E-05-4.26280E-05-1.15363E-06-3.21762E-05 1.11851E-18 2.45216E-18
 -1      2179 5.66030E-05-4.05074E-05-7.51460E-06-3.99303E-05 2.89262E-19 2.77779E-18
 -1      2180 1.86098E-05-3.78211E-05 6.71434E-06-1.69711E-05 3.03407E-18 8.34751E-19
 -1      2181 2.68363E-05-3.68682E-05 3.24944E-06-2.64501E-05 1.47595E-18 2.14765E-18
 -1      2182 1.63689E-04-3.75136E-05-5.28290E-05 2.09064E-05 3.70696E-19-3.18357E-18
 -1      2183 1.46395E-04-4.14740E-05-4.49162E-05 2.03450E-05 1.38860E-19-2.37042E-18
 -1      2184 1.55632E-04-3.41092E-05-5.15623E-05 2.91031E-07 1.51809E-18-2.62834E-18
 -1      2185 9.71784E-05-2.43109E-05-3.13017E-05-1.00102E-05-2.47257E-18 1.56394E-18
 -1      2186 1.43046E-04-4.96370E-05-3.98819E-05 1.93942E-05-8.39621E-20-2.98410E-18
 -1      2187 1.38777E-04-5.65344E-05-3.47315E-05 1.70897E-05-3.49825E-19-2.46741E-18
 -1      2188 1.47157E-04-5.03103E-05-4.21094E-05 4.07435E-06 8.80914E-20-3.67803E-18
 -1      2189 9.63383E-05-2.31058E-05-3.14520E-05-1.03917E-05-2.67130E-18 1.61413E-19
 -1      2190 4.17459E-05-3.63253E-05-2.74788E-06 3.49735E-05 8.35810E-19-3.08129E-18
 -1      2191 1.93778E-05-2.57188E-05 2.29075E-06 1.35721E-05 1.28580E-18-1.70931E-18
 -1      2192 9.54080E-05-2.63185E-05-2.95959E-05-3.99782E-06 7.32152E-19 1.11897E-18
 -1      2193 7.90943E-05-4.94311E-05-1.29206E-05 4.29782E-05-6.42898E-19-3.30683E-18
 -1      2194 1.86358E-05-2.70596E-05 2.98942E-06-1.41819E-05 1.28654E-18 2.83756E-19
 -1      2195 4.11258E-05-3.73698E-05-2.20690E-06-3.55789E-05 4.31987E-19 2.99109E-18
 -1      2196 7.94611E-05-4.91907E-05-1.32014E-05-4.31164E-05 1.04736E-18 3.04371E-18
 -1      2197 1.18331E-04-5.54805E-05-2.66866E-05-3.46031E-05 1.24450E-18 4.12420E-18
 -1      2198 1.44288E-04-4.97909E-05-3.99708E-05-1.75060E-05 6.12722E-19 1.38702E-18
 -1      2199 1.57152E-04-3.29451E-05-5.24834E-05-4.00095E-06-1.74785E-18-4.18858E-18
 -1      2200 1.61844E-04-1.78477E-05-6.05154E-05-3.17947E-09-3.71212E-18-2.18196E-18
 -1      2201 1.60381E-04-1.39988E-05-6.17085E-05-1.73339E-06-3.56813E-18 4.61792E-19
 -1      2202 1.58261E-04-2.44329E-05-5.65091E-05-6.10958E-07-2.32638E-18 9.81923E-19
 -1      2203 1.51725E-04-4.09677E-05-4.65589E-05 1.23098E-05-1.42990E-18-6.78473E-19
 -1      2204 1.28572E-04-5.11364E-05-3.28806E-05 2.92204E-05-1.51153E-18-2.03034E-18
 -1      2205 9.47089E-05-5.18005E-05-1.87434E-05 4.02902E-05-1.47214E-18-1.64388E-18
 -1      2206 5.25855E-05-4.01073E-05-5.73281E-06 3.80865E-05-7.14049E-19-3.54642E-18
 -1      2207 4.92270E-05-3.49613E-05-5.64158E-06 3.90580E-05-1.02067E-19-3.85781E-18
 -1      2208 7.00010E-05-4.43353E-05-1.14025E-05 4.28239E-05-1.53736E-19-2.05278E-18
 -1      2209 2.29278E-05-2.90997E-05 2.06867E-06 2.26425E-05 1.07785E-19-6.55180E-18
 -1      2210 1.47321E-05-2.57263E-05 4.05529E-06-3.23505E-06 8.81814E-19-3.88915E-18
 -1      2211 3.08744E-05-3.16723E-05-1.59606E-07-2.85135E-05 1.37198E-18-3.67972E-18
 -1      2212 6.26439E-05-4.38645E-05-8.47102E-06-4.04110E-05 2.44750E-18-1.77993E-18
 -1      2213 1.36478E-04-5.29499E-05-3.53684E-05-2.30264E-05 2.13113E-18-3.99715E-18
 -1      2214 1.57439E-04-2.44169E-05-5.62765E-05 3.68986E-06 1.31820E-18-4.12611E-18
 -1      2215 1.60031E-04-1.91007E-05-5.93837E-05-1.64493E-06 1.58819E-18-3.56008E-18
 -1      2216 1.59017E-04-1.34246E-05-6.13268E-05 2.04908E-06 2.06803E-18-4.23906E-18
 -1      2217 1.00713E-04-5.29393E-05-2.05315E-05-3.84844E-05 2.75497E-18-2.14575E-18
 -1      2218 9.52016E-05-2.63734E-05-2.94846E-05 4.20468E-06 1.89932E-18 7.45852E-19
 -1      2219 9.61776E-05-2.58591E-05-3.00629E-05 6.00949E-06 2.12269E-18 1.05267E-18
 -1      2220 8.81468E-05-1.11890E-05-3.30213E-05-3.66573E-06-6.98729E-19-3.82367E-18
 -1      2221 8.83792E-05-1.14586E-05-3.30032E-05-4.80796E-06-1.01124E-18-3.81355E-18
 -1      2222 8.87288E-05-1.19408E-05-3.29545E-05-5.82730E-06-1.19335E-18-3.70206E-18
 -1      2223 8.91318E-05-1.24105E-05-3.29261E-05-6.99960E-06-1.51517E-18-3.51811E-18
 -1      2224 8.98990E-05-1.38278E-05-3.26013E-05-4.91006E-06-1.06453E-18-3.51085E-18
 -1      2225 8.78039E-05-1.07317E-05-3.30650E-05 6.16264E-07 2.97183E-19-3.80976E-18
 -1      2226 8.77995E-05-1.07268E-05-3.30652E-05-4.96085E-07 6.38421E-20-3.75966E-18
 -1      2227 8.79836E-05-1.09561E-05-3.30462E-05 2.76115E-06 7.55947E-19-3.72962E-18
 -1      2228 8.78696E-05-1.08234E-05-3.30557E-05 1.64050E-06 5.28616E-19-3.80408E-18
 -1      2229 8.91223E-05-1.27786E-05-3.27219E-05 1.05120E-06 3.69504E-19-3.58526E-18
 -1      2230 8.84151E-05-1.15021E-05-3.30003E-05 4.89294E-06 1.27075E-18-3.52981E-18
 -1      2231 8.81772E-05-1.12260E-05-3.30188E-05 3.76866E-06 9.72209E-19-3.63607E-18
 -1      2232 8.93863E-05-1.31337E-05-3.26815E-05 3.02518E-06 8.24852E-19-3.49594E-18
 -1      2233 8.91903E-05-1.24829E-05-3.29204E-05 7.08245E-06 1.86176E-18-2.97692E-18
 -1      2234 8.87746E-05-1.19973E-05-3.29501E-05 5.90987E-06 1.51031E-18-3.30231E-18
 -1      2235 8.99403E-05-1.38803E-05-3.25962E-05 4.98185E-06 1.36053E-18-3.15805E-18
 -1      2236 9.04547E-05-1.40895E-05-3.27922E-05 9.23231E-06 2.35499E-18-2.34162E-18
 -1      2237 8.97769E-05-1.32797E-05-3.28382E-05 8.05301E-06 2.04449E-18-2.70072E-18
 -1      2238 9.08709E-05-1.51378E-05-3.24501E-05 6.87974E-06 1.90728E-18-2.65672E-18
 -1      2239 9.24467E-05-1.66589E-05-3.25809E-05 1.11169E-05 2.77430E-18-1.39056E-18
 -1      2240 9.13709E-05-1.53201E-05-3.26536E-05 1.00367E-05 2.44880E-18-1.89450E-18
 -1      2241 9.22886E-05-1.70892E-05-3.22076E-05 8.52619E-06 2.28095E-18-1.93160E-18
 -1      2242 9.42188E-05-2.71126E-05-2.87431E-05 1.77541E-06 1.48405E-18 3.28066E-19
 -1      2243 9.48209E-05-2.68897E-05-2.90420E-05 2.74795E-06 1.70588E-18 6.78765E-19
 -1      2244 9.53281E-05-2.58450E-05-2.97863E-05 4.37253E-06 1.99987E-18-6.88380E-20
 -1      2245 9.59024E-05-2.50932E-05-3.03002E-05-6.20232E-06-2.16157E-18-5.15668E-19
 -1      2246 9.52404E-05-2.58466E-05-2.97562E-05-4.28823E-06-1.91786E-18-5.69042E-19
 -1      2247 5.64275E-05-3.83678E-05-7.65389E-06 4.14247E-05 1.88465E-20-3.94146E-18
 -1      2248 4.00057E-05-2.97053E-05-4.15044E-06 3.31675E-05-5.71747E-19-2.30393E-18
 -1      2249 9.51272E-05-2.65346E-05-2.93395E-05-2.95100E-06-1.63161E-18-4.66883E-19
 -1      2250 9.46546E-05-2.69041E-05-2.90361E-05-1.88891E-06-1.33657E-18-6.69687E-19
 -1      2251 9.53278E-05-2.53642E-05-2.99922E-05-4.30051E-06-1.90272E-18-1.00935E-18
 -1      2252 9.44591E-05-2.72342E-05-2.87724E-05-1.03814E-06-1.21584E-18-6.55569E-19
 -1      2253 9.41998E-05-2.74472E-05-2.86059E-05-4.36781E-07-1.16513E-18-8.76421E-19
 -1      2254 9.50227E-05-2.66965E-05-2.92960E-05-1.93170E-06-1.40478E-18-1.05925E-18
 -1      2255 9.40507E-05-2.76272E-05-2.84446E-05 7.08930E-08-8.89622E-19-7.56914E-19
 -1      2256 9.39513E-05-2.77698E-05-2.83609E-05 4.00856E-07-7.21410E-19-8.33255E-19
 -1      2257 9.47177E-05-2.74246E-05-2.88529E-05-4.53558E-07-1.09137E-18-9.90184E-19
 -1      2258 9.38666E-05-2.78787E-05-2.82679E-05 6.84322E-07-7.84794E-19-9.43160E-19
 -1      2259 9.38716E-05-2.79845E-05-2.82351E-05 8.49496E-07-7.02040E-19-9.82528E-19
 -1      2260 9.45160E-05-2.78511E-05-2.85811E-05 4.17855E-07-9.26482E-19-9.75300E-19
 -1      2261 9.38406E-05-2.80555E-05-2.81870E-05 9.88879E-07-7.61338E-19-9.78476E-19
 -1      2262 9.39080E-05-2.81380E-05-2.81852E-05 1.05358E-06-6.47319E-19-1.02163E-18
 -1      2263 9.44234E-05-2.81178E-05-2.84243E-05 8.92146E-07-8.22181E-19-1.13383E-18
 -1      2264 9.39148E-05-2.81862E-05-2.81666E-05 1.10284E-06-5.61036E-19-1.14597E-18
 -1      2265 9.40154E-05-2.82512E-05-2.81830E-05 1.10796E-06-6.01572E-19-1.27062E-18
 -1      2266 9.44150E-05-2.82909E-05-2.83441E-05 1.11213E-06-7.27368E-19-1.30197E-18
 -1      2267 9.40463E-05-2.82841E-05-2.81832E-05 1.10385E-06-7.99793E-19-1.33108E-18
 -1      2268 9.41613E-05-2.83350E-05-2.82099E-05 1.07646E-06-1.04351E-18-1.48370E-18
 -1      2269 9.44632E-05-2.84040E-05-2.83145E-05 1.17515E-06-7.33668E-19-1.50422E-18
 -1      2270 9.42063E-05-2.83568E-05-2.82220E-05 1.04442E-06-9.03024E-19-1.34290E-18
 -1      2271 9.43247E-05-2.83960E-05-2.82538E-05 1.00298E-06-5.92466E-19-1.26447E-18
 -1      2272 9.45455E-05-2.84757E-05-2.83178E-05 1.14824E-06-8.76458E-19-1.41094E-18
 -1      2273 9.43771E-05-2.84094E-05-2.82734E-05 9.60871E-07-3.48304E-19-9.32304E-19
 -1      2274 9.44935E-05-2.84389E-05-2.83077E-05 9.18308E-07-2.05515E-19-8.31231E-19
 -1      2275 9.46464E-05-2.85174E-05-2.83424E-05 1.07821E-06-3.84453E-19-7.92209E-19
 -1      2276 9.45498E-05-2.84457E-05-2.83321E-05 8.78975E-07-3.44499E-20-5.95571E-19
 -1      2277 9.46626E-05-2.84674E-05-2.83677E-05 8.44665E-07 3.34673E-19-3.77770E-19
 -1      2278 9.47565E-05-2.85366E-05-2.83809E-05 9.98345E-07 7.50858E-20-1.52867E-19
 -1      2279 9.47215E-05-2.84691E-05-2.83957E-05 8.17646E-07-3.18775E-22-5.17974E-19
 -1      2280 9.48323E-05-2.84848E-05-2.84326E-05 7.98728E-07-4.66903E-19-3.13005E-19
 -1      2281 9.48715E-05-2.85386E-05-2.84292E-05 9.32925E-07 5.42430E-20-5.70651E-19
 -1      2282 9.48943E-05-2.84825E-05-2.84639E-05 7.91520E-07-9.18509E-19-1.89408E-19
 -1      2283 9.50071E-05-2.84942E-05-2.85029E-05 7.93831E-07-6.47236E-19-4.84158E-19
 -1      2284 9.49911E-05-2.85271E-05-2.84854E-05 9.00428E-07-6.13045E-19-5.91892E-19
 -1      2285 9.50741E-05-2.84888E-05-2.85381E-05 8.12767E-07-4.85872E-19-3.86081E-19
 -1      2286 9.51946E-05-2.84985E-05-2.85806E-05 8.41486E-07-2.67812E-19-4.32621E-19
 -1      2287 9.51178E-05-2.85050E-05-2.85493E-05 9.15799E-07-4.52015E-19-1.09633E-20
 -1      2288 9.52697E-05-2.84911E-05-2.86207E-05 8.92329E-07-2.26645E-19-5.29077E-19
 -1      2289 9.54055E-05-2.85010E-05-2.86690E-05 9.52366E-07-1.17951E-19-5.41775E-19
 -1      2290 9.52569E-05-2.84745E-05-2.86223E-05 9.92032E-07-3.77349E-19-1.32561E-19
 -1      2291 9.54928E-05-2.84926E-05-2.87154E-05 1.04063E-06-9.77752E-20-1.32016E-18
 -1      2292 9.56526E-05-2.85054E-05-2.87719E-05 1.13677E-06-1.04677E-19-1.41291E-18
 -1      2293 9.54156E-05-2.84381E-05-2.87063E-05 1.14115E-06-5.04996E-19-6.37204E-19
 -1      2294 9.57571E-05-2.84977E-05-2.88262E-05 1.26776E-06-2.75175E-19-1.40086E-18
 -1      2295 9.59512E-05-2.85168E-05-2.88937E-05 1.40447E-06-1.55989E-19-1.27729E-18
 -1      2296 9.56032E-05-2.83986E-05-2.88040E-05 1.37459E-06-1.31564E-19-1.83892E-18
 -1      2297 9.60788E-05-2.85121E-05-2.89576E-05 1.58294E-06-2.65393E-20-1.14731E-18
 -1      2298 9.63186E-05-2.85420E-05-2.90390E-05 1.76386E-06 7.55793E-20-1.37936E-18
 -1      2299 9.58307E-05-2.83603E-05-2.89184E-05 1.70289E-06-2.60040E-19-1.33041E-18
 -1      2300 9.64763E-05-2.85440E-05-2.91141E-05 1.99323E-06 2.99800E-19-1.22629E-18
 -1      2301 9.67740E-05-2.85907E-05-2.92119E-05 2.22000E-06 3.93466E-19-1.28467E-18
 -1      2302 9.61113E-05-2.83302E-05-2.90521E-05 2.13454E-06 1.20629E-19-1.08488E-18
 -1      2303 9.69703E-05-2.86054E-05-2.92992E-05 2.50093E-06 7.39854E-19-1.20448E-18
 -1      2304 9.73385E-05-2.86776E-05-2.94156E-05 2.77133E-06 1.02875E-18-6.26153E-19
 -1      2305 9.64609E-05-2.83200E-05-2.92068E-05 2.67371E-06 7.12074E-19-8.25269E-19
 -1      2306 9.75840E-05-2.87144E-05-2.95150E-05 3.09939E-06 7.62954E-19-7.62752E-19
 -1      2307 9.80349E-05-2.88240E-05-2.96508E-05 3.40438E-06 1.95258E-19 3.06570E-20
 -1      2308 9.68990E-05-2.83482E-05-2.93830E-05 3.31643E-06 8.63859E-19-6.44792E-19
 -1      2309 9.83436E-05-2.88980E-05-2.97611E-05 3.76655E-06-4.16870E-19 4.84184E-20
 -1      2310 9.88882E-05-2.90620E-05-2.99152E-05 4.08591E-06-6.16802E-19-1.05692E-19
 -1      2311 9.74505E-05-2.84451E-05-2.95786E-05 4.04474E-06-1.93018E-19-6.13308E-19
 -1      2312 9.92795E-05-2.91962E-05-3.00332E-05 4.45561E-06-8.32633E-19-4.03085E-19
 -1      2313 9.99259E-05-2.94375E-05-3.02015E-05 4.75209E-06-1.48016E-19-3.65139E-19
 -1      2314 9.81494E-05-2.86571E-05-2.97884E-05 4.81826E-06-6.82437E-19 7.74978E-20
 -1      2315 1.00427E-04-2.96652E-05-3.03219E-05 5.08238E-06-4.02330E-20-2.35748E-19
 -1      2316 1.01178E-04-3.00132E-05-3.04969E-05 5.29470E-06-9.64356E-20-3.00552E-19
 -1      2317 9.90431E-05-2.90530E-05-3.00034E-05 5.56256E-06-3.86975E-19 1.60897E-19
 -1      2318 1.01828E-04-3.03789E-05-3.06130E-05 5.51010E-06 2.08310E-19-5.30072E-19
 -1      2319 1.02677E-04-3.08658E-05-3.07828E-05 5.54660E-06 6.79644E-19-1.46482E-19
 -1      2320 1.00198E-04-2.97275E-05-3.02121E-05 6.15463E-06 9.15782E-21-1.63991E-19
 -1      2321 1.03524E-04-3.14199E-05-3.08883E-05 5.53503E-06 2.77094E-19-9.03495E-19
 -1      2322 1.04446E-04-3.20684E-05-3.10388E-05 5.27260E-06-2.27504E-19-1.63199E-18
 -1      2323 1.01701E-04-3.07954E-05-3.04028E-05 6.40672E-06-4.47600E-20-7.71288E-19
 -1      2324 1.05535E-04-3.28476E-05-3.11323E-05 4.88239E-06-5.20950E-20-1.34686E-18
 -1      2325 1.06471E-04-3.36411E-05-3.12500E-05 4.18021E-06 2.89242E-19-1.79415E-18
 -1      2326 1.03648E-04-3.23619E-05-3.05715E-05 6.05435E-06-9.64923E-20-8.87997E-19
 -1      2327 1.07810E-04-3.46224E-05-3.13419E-05 3.23463E-06 5.85110E-19-1.89709E-18
 -1      2328 1.08639E-04-3.54508E-05-3.14216E-05 1.97861E-06-4.17792E-20-1.25524E-18
 -1      2329 1.06100E-04-3.44441E-05-3.07343E-05 4.76334E-06-4.40639E-21-6.25217E-19
 -1      2330 1.10123E-04-3.64719E-05-3.15422E-05 3.35457E-07 1.46692E-20-1.12756E-18
 -1      2331 1.10637E-04-3.70638E-05-3.15953E-05-1.46686E-06 9.61971E-19-3.02587E-19
 -1      2332 1.08969E-04-3.68171E-05-3.09441E-05 2.19176E-06 5.17120E-19-5.11865E-19
 -1      2333 1.11950E-04-3.77378E-05-3.17986E-05-3.76802E-06 9.16364E-19-1.08450E-18
 -1      2334 1.11866E-04-3.76476E-05-3.18583E-05-5.83960E-06 5.68257E-19-5.47268E-19
 -1      2335 1.11839E-04-3.88055E-05-3.13034E-05-1.81936E-06 5.56248E-19-1.11697E-18
 -1      2336 1.12455E-04-3.73866E-05-3.22066E-05-8.34112E-06 4.44163E-19-1.75444E-19
 -1      2337 1.11547E-04-3.61641E-05-3.23135E-05-1.00103E-05 5.15381E-19-3.31199E-19
 -1      2338 1.13822E-04-3.91960E-05-3.19521E-05-6.86286E-06 4.36755E-19-1.73889E-18
 -1      2339 1.10895E-04-3.45226E-05-3.28187E-05-1.16434E-05 3.88389E-19 3.85024E-19
 -1      2340 1.09266E-04-3.21876E-05-3.29815E-05-1.19459E-05-1.23455E-19 9.40994E-19
 -1      2341 1.13773E-04-3.67099E-05-3.29847E-05-1.14256E-05 6.69244E-19-2.93583E-19
 -1      2342 1.07506E-04-2.95117E-05-3.35337E-05-1.13808E-05-1.37732E-19 8.53303E-19
 -1      2343 1.05809E-04-2.70028E-05-3.36933E-05-9.60741E-06 2.77602E-19 1.44001E-18
 -1      2344 1.11226E-04-3.12039E-05-3.42797E-05-1.29262E-05 9.72103E-20 8.08096E-19
 -1      2345 1.04164E-04-2.48153E-05-3.40642E-05-6.35260E-06-4.08296E-20 1.08692E-18
 -1      2346 1.03387E-04-2.36990E-05-3.41193E-05-2.91040E-06-2.79468E-19 1.41358E-18
 -1      2347 1.07559E-04-2.49906E-05-3.54198E-05-9.09157E-06 6.89141E-20 4.95872E-19
 -1      2348 1.03322E-04-2.36826E-05-3.41053E-05 1.58581E-06-8.31601E-19 7.33775E-19
 -1      2349 1.03926E-04-2.47449E-05-3.40013E-05 5.02403E-06-3.35729E-19 4.67572E-19
 -1      2350 1.05735E-04-2.22367E-05-3.58703E-05-7.64041E-07-6.02055E-19-1.09128E-19
 -1      2351 1.05452E-04-2.68982E-05-3.35910E-05 8.27978E-06-3.76625E-19-5.38514E-19
 -1      2352 1.06963E-04-2.93609E-05-3.33746E-05 1.00517E-05-9.83723E-19-1.98250E-18
 -1      2353 1.07337E-04-2.49637E-05-3.53628E-05 7.59305E-06-1.43212E-18-2.22392E-18
 -1      2354 1.08645E-04-3.20399E-05-3.27742E-05 1.06159E-05 2.95595E-19-1.72938E-18
 -1      2355 1.10099E-04-3.43566E-05-3.25511E-05 1.02859E-05 4.84098E-19-3.28746E-19
 -1      2356 1.10794E-04-3.11055E-05-3.41388E-05 1.14547E-05-9.81367E-21-1.30760E-18
 -1      2357 1.10677E-04-3.60142E-05-3.20001E-05 8.60042E-06-9.20632E-19-9.40703E-20
 -1      2358 1.11404E-04-3.72109E-05-3.18334E-05 6.86648E-06-9.62603E-19 1.69274E-20
 -1      2359 1.13190E-04-3.66457E-05-3.27532E-05 9.88886E-06 2.92367E-20-2.38182E-19
 -1      2360 1.10721E-04-3.74677E-05-3.14430E-05 4.27877E-06-1.62091E-18 2.64834E-19
 -1      2361 1.10602E-04-3.75090E-05-3.13230E-05 2.12201E-06-1.53387E-18 4.19303E-19
 -1      2362 1.13076E-04-3.91760E-05-3.16421E-05 5.17340E-06-9.55106E-19-2.45867E-19
 -1      2363 1.09171E-04-3.67985E-05-3.10804E-05-2.77984E-07-1.25534E-18 3.42928E-19
 -1      2364 1.08430E-04-3.61211E-05-3.09685E-05-2.15789E-06 2.43456E-20-6.69767E-19
 -1      2365 1.10880E-04-3.87444E-05-3.09201E-05-6.22971E-08-1.84112E-18 1.55587E-18
 -1      2366 1.06807E-04-3.50274E-05-3.08178E-05-3.87498E-06 1.80924E-18-1.30561E-18
 -1      2367 1.05734E-04-3.40756E-05-3.06858E-05-5.17180E-06 1.49608E-18-1.44915E-18
 -1      2368 1.07749E-04-3.66307E-05-3.05023E-05-4.24963E-06 2.51132E-19 7.38429E-19
 -1      2369 1.04239E-04-3.29781E-05-3.05778E-05-6.13448E-06 4.80215E-19-1.38349E-18
 -1      2370 1.03052E-04-3.20164E-05-3.04202E-05-6.80306E-06 4.11187E-19 3.57218E-20
 -1      2371 1.04580E-04-3.40321E-05-3.02603E-05-6.91056E-06 1.40772E-18-2.45717E-19
 -1      2372 1.01785E-04-3.10649E-05-3.03296E-05-7.11289E-06 5.09780E-19 4.18663E-19
 -1      2373 1.00618E-04-3.01953E-05-3.01592E-05-7.22136E-06-2.98983E-19 1.37460E-18
 -1      2374 1.01787E-04-3.16012E-05-3.01006E-05-8.13039E-06 6.19653E-19 7.60697E-19
 -1      2375 9.95639E-05-2.93966E-05-3.00799E-05-7.00847E-06-1.10139E-18 2.33279E-18
 -1      2376 9.85016E-05-2.86485E-05-2.99187E-05-6.63971E-06-4.40856E-19 2.07340E-18
 -1      2377 9.94519E-05-2.95320E-05-2.99791E-05-8.16161E-06 4.22563E-19 1.73099E-18
 -1      2378 9.33199E-05-2.76853E-05-2.81218E-05-3.99787E-07 6.75788E-19-2.61880E-19
 -1      2379 9.33994E-05-2.75810E-05-2.81834E-05-1.14089E-07 8.94233E-19-1.23228E-19
 -1      2380 9.32673E-05-2.78485E-05-2.80318E-05-8.07646E-07 5.01797E-19-5.20716E-19
 -1      2381 9.32233E-05-2.77582E-05-2.80434E-05-6.67659E-07 5.28506E-19-3.69086E-19
 -1      2382 9.39969E-05-2.78033E-05-2.83799E-05-4.32716E-07 7.64420E-19-5.51683E-19
 -1      2383 9.33611E-05-2.79827E-05-2.80161E-05-9.87019E-07 7.98443E-19-4.91467E-19
 -1      2384 9.32485E-05-2.79028E-05-2.79988E-05-9.34360E-07 6.18435E-19-5.87862E-19
 -1      2385 9.39099E-05-2.80111E-05-2.82505E-05-8.83063E-07 7.11905E-19-8.07287E-19
 -1      2386 9.35378E-05-2.80959E-05-2.80443E-05-1.02862E-06 6.57606E-19-1.50637E-19
 -1      2387 9.33922E-05-2.80261E-05-2.80115E-05-1.02733E-06 7.95337E-19-2.45641E-19
 -1      2388 9.39398E-05-2.81581E-05-2.81977E-05-1.08515E-06 6.54938E-19-6.55679E-19
 -1      2389 9.37546E-05-2.81912E-05-2.80971E-05-9.91754E-07 3.76826E-19-1.84919E-19
 -1      2390 9.35980E-05-2.81313E-05-2.80568E-05-1.01847E-06 7.78427E-19-5.30229E-20
 -1      2391 9.40416E-05-2.82660E-05-2.81931E-05-1.13622E-06 5.71108E-19-2.87389E-19
 -1      2392 9.39849E-05-2.82701E-05-2.81623E-05-9.16402E-07 5.43916E-19-2.91298E-19
 -1      2393 9.38299E-05-2.82198E-05-2.81196E-05-9.55367E-07 3.76841E-19-2.00124E-19
 -1      2394 9.41827E-05-2.83456E-05-2.82180E-05-1.10133E-06 6.05929E-19-3.62970E-19
 -1      2395 9.42142E-05-2.83345E-05-2.82331E-05-8.30265E-07 3.32231E-19-3.49910E-19
 -1      2396 9.40667E-05-2.82929E-05-2.81903E-05-8.70522E-07 6.55231E-19-2.26918E-19
 -1      2397 9.43419E-05-2.84034E-05-2.82607E-05-1.02504E-06 6.59322E-19-4.13437E-19
 -1      2398 9.44369E-05-2.83865E-05-2.83061E-05-7.53121E-07 8.81130E-19-9.79424E-19
 -1      2399 9.42979E-05-2.83524E-05-2.82642E-05-7.86756E-07 6.14794E-19-9.45157E-19
 -1      2400 9.45072E-05-2.84439E-05-2.83137E-05-9.38631E-07 8.72723E-19-7.61744E-19
 -1      2401 9.46539E-05-2.84288E-05-2.83806E-05-6.99749E-07 2.74022E-19-7.37605E-19
 -1      2402 9.45212E-05-2.84004E-05-2.83392E-05-7.20720E-07 6.34612E-19-6.98936E-19
 -1      2403 9.46733E-05-2.84704E-05-2.83734E-05-8.64710E-07 3.96680E-19-6.46336E-19
 -1      2404 9.48715E-05-2.84643E-05-2.84580E-05-6.82003E-07 1.45135E-19-4.36255E-19
 -1      2405 9.47400E-05-2.84396E-05-2.84158E-05-6.85296E-07 2.48519E-19-4.05836E-19
 -1      2406 9.48404E-05-2.84861E-05-2.84383E-05-8.20431E-07 1.20117E-19-1.67496E-19
 -1      2407 9.50998E-05-2.84965E-05-2.85412E-05-7.10317E-07 3.07159E-19-2.40776E-19
 -1      2408 9.49622E-05-2.84733E-05-2.84963E-05-6.91337E-07 2.69736E-19-2.42355E-19
 -1      2409 9.50127E-05-2.84935E-05-2.85092E-05-8.19761E-07 1.71132E-19-5.31828E-20
 -1      2410 9.53526E-05-2.85292E-05-2.86345E-05-7.94789E-07 8.07222E-19-7.37527E-19
 -1      2411 9.51997E-05-2.85048E-05-2.85841E-05-7.48916E-07 7.72153E-19-1.73527E-19
 -1      2412 9.51977E-05-2.84952E-05-2.85882E-05-8.75132E-07 7.03672E-19 1.80432E-19
 -1      2413 9.56470E-05-2.85668E-05-2.87432E-05-9.45871E-07 8.58649E-19-9.69980E-19
 -1      2414 9.54676E-05-2.85382E-05-2.86841E-05-8.68201E-07 8.18436E-19-1.07233E-18
 -1      2415 9.54058E-05-2.84938E-05-2.86784E-05-9.98601E-07 9.98316E-19-5.31172E-19
 -1      2416 9.60030E-05-2.86148E-05-2.88737E-05-1.17465E-06-2.64898E-19-2.73564E-19
 -1      2417 9.57840E-05-2.85782E-05-2.88020E-05-1.05992E-06 4.52167E-19-3.57237E-19
 -1      2418 9.56497E-05-2.84923E-05-2.87841E-05-1.20252E-06 4.06674E-20-2.27898E-19
 -1      2419 9.64438E-05-2.86796E-05-2.90330E-05-1.49258E-06-9.39944E-19-5.60027E-19
 -1      2420 9.61703E-05-2.86306E-05-2.89445E-05-1.33537E-06-4.53291E-19-1.56494E-19
 -1      2421 9.59445E-05-2.84945E-05-2.89102E-05-1.49972E-06-4.50554E-19 3.56789E-19
 -1      2422 9.69951E-05-2.87698E-05-2.92286E-05-1.91048E-06-7.08408E-19-9.37004E-19
 -1      2423 9.66504E-05-2.87028E-05-2.91188E-05-1.70582E-06-8.84556E-19-7.31208E-19
 -1      2424 9.63073E-05-2.85055E-05-2.90617E-05-1.90295E-06-6.50626E-19-1.46656E-19
 -1      2425 9.76848E-05-2.88968E-05-2.94678E-05-2.43626E-06 2.44073E-19-1.54561E-18
 -1      2426 9.72511E-05-2.88045E-05-2.93321E-05-2.18091E-06-2.86819E-19-1.37092E-18
 -1      2427 9.67576E-05-2.85330E-05-2.92436E-05-2.42348E-06-1.99686E-19-1.11193E-18
 -1      2428 9.85424E-05-2.90765E-05-2.97567E-05-3.07084E-06 1.04456E-19-7.16348E-19
 -1      2429 9.80015E-05-2.89492E-05-2.95912E-05-2.76557E-06 3.62205E-19-1.06456E-18
 -1      2430 9.73172E-05-2.85894E-05-2.94599E-05-3.06814E-06-2.44928E-20-1.29273E-18
 -1      2431 9.95975E-05-2.93315E-05-3.00988E-05-3.80109E-06-6.51972E-19-7.60671E-19
 -1      2432 9.89324E-05-2.91561E-05-2.99011E-05-3.45464E-06-2.07138E-19-5.50232E-19
 -1      2433 9.80108E-05-2.86944E-05-2.97129E-05-3.83422E-06-1.48448E-19-4.20804E-19
 -1      2434 1.00878E-04-2.96954E-05-3.04925E-05-4.58860E-06-6.22994E-19-7.51511E-19
 -1      2435 1.00076E-04-2.94539E-05-3.02630E-05-4.22392E-06-5.11217E-19-7.60727E-19
 -1      2436 9.88676E-05-2.88803E-05-3.00013E-05-4.70112E-06-4.96430E-19-6.07956E-19
 -1      2437 1.02409E-04-3.02172E-05-3.09286E-05-5.35291E-06-5.92621E-19-1.43087E-18
 -1      2438 1.01464E-04-2.98851E-05-3.06726E-05-5.01627E-06-9.25348E-19-1.26334E-18
 -1      2439 9.99244E-05-2.91989E-05-3.03189E-05-5.61741E-06-3.36081E-19-1.38372E-18
 -1      2440 1.04206E-04-3.09648E-05-3.13869E-05-5.94897E-06 9.98771E-20-5.01267E-19
 -1      2441 1.03129E-04-3.05116E-05-3.11167E-05-5.72168E-06-3.43587E-19-1.23579E-18
 -1      2442 1.01231E-04-2.97303E-05-3.06531E-05-6.48216E-06-5.65021E-19-1.29021E-18
 -1      2443 1.06275E-04-3.20215E-05-3.18349E-05-6.14251E-06-9.37941E-19 4.11099E-19
 -1      2444 1.05099E-04-3.14157E-05-3.15715E-05-6.15194E-06-1.78653E-19-5.27435E-20
 -1      2445 1.02857E-04-3.05895E-05-3.09849E-05-7.12036E-06-5.35763E-19-9.84321E-19
 -1      2446 1.08587E-04-3.34591E-05-3.22305E-05-5.59624E-06-7.52276E-19 6.58188E-19
 -1      2447 1.07385E-04-3.26878E-05-3.20031E-05-6.01692E-06-1.15919E-18 6.24579E-19
 -1      2448 1.04891E-04-3.19176E-05-3.12926E-05-7.25624E-06-1.09113E-18-5.72465E-19
 -1      2449 1.11038E-04-3.52608E-05-3.25338E-05-3.90005E-06 6.24521E-20 1.06001E-18
 -1      2450 1.09948E-04-3.43760E-05-3.23745E-05-4.92378E-06 2.60310E-19 9.83440E-19
 -1      2451 1.07423E-04-3.38329E-05-3.15624E-05-6.49853E-06-5.59742E-19-2.61997E-19
 -1      2452 1.13359E-04-3.71683E-05-3.27325E-05-7.00450E-07-2.52376E-19 6.13565E-19
 -1      2453 1.12615E-04-3.63678E-05-3.26628E-05-2.44577E-06-2.29917E-19 1.36034E-18
 -1      2454 1.10460E-04-3.63001E-05-3.18092E-05-4.37462E-06-3.39501E-19 2.27007E-20
 -1      2455 1.14996E-04-3.84738E-05-3.28746E-05 3.98061E-06-3.01888E-19 5.24803E-19
 -1      2456 1.14931E-04-3.81819E-05-3.28866E-05 1.65248E-06-4.26779E-19 7.43733E-19
 -1      2457 1.13748E-04-3.88737E-05-3.21059E-05-4.83985E-07-1.76563E-19 7.68651E-19
 -1      2458 1.15099E-04-3.80059E-05-3.30796E-05 9.21982E-06-9.56155E-19 9.65250E-19
 -1      2459 1.16038E-04-3.87974E-05-3.31262E-05 6.93502E-06-5.33310E-19 8.99602E-19
 -1      2460 1.16506E-04-4.04144E-05-3.25985E-05 5.08270E-06-5.97256E-19 9.79628E-19
 -1      2461 1.12968E-04-3.47793E-05-3.34778E-05 1.28002E-05 7.10964E-19 2.03965E-18
 -1      2462 1.14919E-04-3.69334E-05-3.34931E-05 1.17163E-05-1.73949E-19 1.37850E-18
 -1      2463 1.17414E-04-3.92474E-05-3.34545E-05 1.10314E-05-9.84605E-19 1.81338E-18
 -1      2464 1.09005E-04-2.93678E-05-3.40580E-05 1.18621E-05 1.35746E-18 2.48690E-18
 -1      2465 1.11321E-04-3.22039E-05-3.40223E-05 1.31374E-05 1.08038E-18 2.30740E-18
 -1      2466 1.15422E-04-3.43551E-05-3.47113E-05 1.44830E-05 7.06425E-19 2.68777E-18
 -1      2467 1.05583E-04-2.49566E-05-3.45284E-05 5.18844E-06 6.86176E-19 3.23378E-18
 -1      2468 1.06962E-04-2.66631E-05-3.45075E-05 8.80932E-06 1.10562E-18 2.93499E-18
 -1      2469 1.11309E-04-2.73776E-05-3.60228E-05 1.19295E-05 8.27498E-19 2.41384E-18
 -1      2470 1.05461E-04-2.50197E-05-3.45514E-05-4.16113E-06 1.03928E-18 2.19190E-18
 -1      2471 1.05040E-04-2.43211E-05-3.46078E-05-3.10311E-08 1.47704E-18 3.01359E-18
 -1      2472 1.08433E-04-2.30433E-05-3.67273E-05 3.04286E-06 1.58358E-18 1.88290E-18
 -1      2473 1.08769E-04-2.95471E-05-3.40717E-05-1.08070E-05 9.12896E-19 1.81057E-18
 -1      2474 1.06932E-04-2.70267E-05-3.41783E-05-8.44327E-06 7.03951E-19 1.97901E-18
 -1      2475 1.09484E-04-2.48774E-05-3.63646E-05-7.32627E-06 1.61900E-18 1.71047E-18
 -1      2476 1.12684E-04-3.49537E-05-3.34043E-05-1.16818E-05-3.72544E-19 3.03532E-18
 -1      2477 1.10664E-04-3.24162E-05-3.34800E-05-1.18790E-05 5.82858E-19 2.59892E-18
 -1      2478 1.13241E-04-3.12730E-05-3.51274E-05-1.28279E-05 3.09617E-19 3.03898E-18
 -1      2479 1.14576E-04-3.80550E-05-3.28323E-05-7.87137E-06 4.69230E-19 8.34678E-19
 -1      2480 1.13387E-04-3.67400E-05-3.28645E-05-9.82357E-06-2.93040E-19 1.91296E-18
 -1      2481 1.16154E-04-3.74651E-05-3.36823E-05-1.15564E-05 3.93023E-19 2.58117E-18
 -1      2482 1.13903E-04-3.82658E-05-3.24150E-05-2.36786E-06 3.85827E-19 7.79436E-19
 -1      2483 1.13809E-04-3.82352E-05-3.24573E-05-4.80337E-06 5.15095E-19 8.38619E-19
 -1      2484 1.16161E-04-4.02069E-05-3.25340E-05-6.10494E-06 8.90665E-19 6.98921E-19
 -1      2485 1.11531E-04-3.66835E-05-3.20624E-05 2.51727E-06 5.07508E-19 9.77062E-19
 -1      2486 1.12297E-04-3.74119E-05-3.21731E-05 4.59104E-07 7.07961E-19 7.52868E-19
 -1      2487 1.13702E-04-3.95355E-05-3.17978E-05 4.81367E-08 9.82105E-19 1.68823E-18
 -1      2488 1.08454E-04-3.44989E-05-3.16797E-05 5.82575E-06 7.32753E-19 5.22547E-20
 -1      2489 1.09725E-04-3.54879E-05-3.18798E-05 4.47800E-06 1.00095E-18 5.37204E-19
 -1      2490 1.10170E-04-3.70959E-05-3.13457E-05 4.88982E-06 1.09800E-18 1.00060E-18
 -1      2491 1.05314E-04-3.24059E-05-3.12320E-05 7.50690E-06 5.35265E-19 2.15445E-18
 -1      2492 1.06796E-04-3.33782E-05-3.15041E-05 6.86421E-06 1.11742E-19 8.76993E-19
 -1      2493 1.06598E-04-3.42961E-05-3.10149E-05 7.85007E-06-2.24100E-20-1.08042E-18
 -1      2494 1.02401E-04-3.06276E-05-3.07453E-05 7.85479E-06 6.12032E-19 2.75399E-18
 -1      2495 1.03897E-04-3.14875E-05-3.10497E-05 7.79373E-06 9.95852E-19 3.25144E-18
 -1      2496 1.03445E-04-3.18342E-05-3.07120E-05 9.11777E-06-1.15996E-19 2.75511E-18
 -1      2497 9.98258E-05-2.91474E-05-3.02729E-05 7.18628E-06 7.68912E-19 2.60627E-18
 -1      2498 1.01211E-04-2.98938E-05-3.05657E-05 7.58063E-06 7.97463E-19 3.13466E-18
 -1      2499 1.00781E-04-2.98494E-05-3.04147E-05 9.06937E-06 1.65471E-19 5.10309E-18
 -1      2500 9.76166E-05-2.78913E-05-2.98626E-05 5.72745E-06-1.62194E-20 3.02357E-18
 -1      2501 9.88142E-05-2.85355E-05-3.01123E-05 6.48219E-06 2.69165E-19 2.12360E-18
 -1      2502 9.85362E-05-2.82349E-05-3.01432E-05 8.03488E-06 1.21391E-18 4.28788E-18
 -1      2503 9.67424E-05-2.73867E-05-2.97124E-05 4.62230E-06 2.02593E-19 2.12845E-18
 -1      2504 9.09134E-05-1.93559E-05-3.07027E-05 6.83930E-06-3.03716E-19-1.74859E-18
 -1      2505 9.17091E-05-2.04069E-05-3.05496E-05 7.52195E-06-7.48350E-19-2.94146E-18
 -1      2506 8.96101E-05-1.76956E-05-3.08585E-05 4.61817E-06-3.07513E-20 3.99618E-19
 -1      2507 9.01944E-05-1.84528E-05-3.07487E-05 5.75644E-06 1.83870E-19-1.01903E-18
 -1      2508 9.02089E-05-1.96806E-05-3.02104E-05 7.17703E-06-1.26159E-19-7.02622E-19
 -1      2509 9.42423E-05-2.36718E-05-3.02592E-05 8.04092E-06-2.79480E-20 4.27900E-19
 -1      2510 9.51079E-05-2.48558E-05-3.00844E-05 7.71102E-06 6.60358E-19 2.12576E-18
 -1      2511 9.25399E-05-2.14500E-05-3.04916E-05 8.00056E-06-1.27915E-18-3.20101E-18
 -1      2512 9.33994E-05-2.26133E-05-3.03199E-05 8.16694E-06-1.40216E-18-1.06275E-18
 -1      2513 9.41444E-05-2.38815E-05-3.01051E-05 9.18835E-06 8.86374E-20-1.10614E-18
 -1      2514 9.20940E-05-2.17015E-05-3.01617E-05 8.81404E-06-1.12751E-18-2.49864E-18
 -1      2515 8.89164E-05-1.68039E-05-3.09376E-05 1.65886E-06-7.27033E-19-2.35876E-18
 -1      2516 8.91709E-05-1.71422E-05-3.08865E-05 3.07708E-06-1.08343E-19-1.62705E-18
 -1      2517 8.88141E-05-1.81743E-05-3.02460E-05 4.38548E-06-2.38961E-19-9.44431E-19
 -1      2518 8.89851E-05-1.68645E-05-3.09290E-05-1.53648E-06-2.87702E-18 2.33857E-19
 -1      2519 8.88583E-05-1.67271E-05-3.09440E-05-8.09572E-08-2.10183E-18-2.80868E-19
 -1      2520 8.82143E-05-1.75217E-05-3.02628E-05 8.78193E-07-5.92409E-19-2.23992E-18
 -1      2521 8.97853E-05-1.78571E-05-3.08329E-05-4.40807E-06-2.07916E-18-2.30675E-18
 -1      2522 8.93172E-05-1.72783E-05-3.09119E-05-3.16333E-06-3.14678E-18-8.29574E-19
 -1      2523 8.85433E-05-1.78705E-05-3.02578E-05-2.72241E-06-2.16390E-18-4.65759E-19
 -1      2524 9.10825E-05-1.95225E-05-3.06629E-05-6.47169E-06-8.98723E-19-2.33389E-18
 -1      2525 9.03998E-05-1.86363E-05-3.07930E-05-5.63041E-06-5.95636E-19-2.67691E-18
 -1      2526 8.96878E-05-1.91091E-05-3.02278E-05-5.75717E-06-4.85618E-19-1.01825E-18
 -1      2527 9.26307E-05-2.15869E-05-3.04336E-05-7.55923E-06-1.35363E-19 3.29938E-18
 -1      2528 9.18504E-05-2.05136E-05-3.06017E-05-7.17842E-06-5.88500E-19-6.34156E-19
 -1      2529 9.13449E-05-2.09346E-05-3.01696E-05-7.79700E-06 2.30838E-19-1.22166E-18
 -1      2530 9.41554E-05-2.37035E-05-3.01772E-05-7.62034E-06 1.69584E-18 2.78867E-18
 -1      2531 9.33938E-05-2.25960E-05-3.03584E-05-7.70223E-06 5.25347E-19 4.75745E-18
 -1      2532 9.31801E-05-2.29934E-05-3.00849E-05-8.67018E-06 7.26313E-19 3.38372E-18
 -1      2533 9.55100E-05-2.56368E-05-2.99250E-05-6.78620E-06-1.33255E-19 1.49809E-18
 -1      2534 9.48344E-05-2.46075E-05-3.00986E-05-7.26771E-06 8.02354E-19 1.83276E-18
 -1      2535 9.49067E-05-2.49579E-05-2.99789E-05-8.42830E-06 1.02767E-18 1.77021E-18
 -1      2536 2.78964E-05-2.06896E-05-2.67584E-06 2.06039E-05-1.62948E-19-2.90342E-18
 -1      2537 2.20706E-05-1.80816E-05-1.23373E-06 5.75568E-06 4.09818E-19-1.98820E-18
 -1      2538 9.20590E-05-5.22805E-05-1.71611E-05 4.26278E-05-1.02724E-18-3.62194E-18
 -1      2539 7.33574E-05-4.62634E-05-1.14489E-05 4.22244E-05 1.72795E-19-5.01872E-18
 -1      2540 7.13549E-05-4.19945E-05-1.21280E-05 4.12527E-05-2.47122E-19-4.86959E-18
 -1      2541 9.36048E-05-2.74669E-05-2.83333E-05 3.80679E-07 1.09392E-18-2.87462E-20
 -1      2542 9.38888E-05-2.73315E-05-2.84808E-05 9.14110E-07 1.24379E-18 2.84931E-19
 -1      2543 9.42540E-05-2.74853E-05-2.86288E-05 4.15281E-07 1.14968E-18-4.80254E-19
 -1      2544 9.60764E-05-2.67281E-05-2.97189E-05-4.91343E-06 8.62593E-19 1.43611E-18
 -1      2545 2.10943E-05-1.89189E-05-6.42076E-07-8.85747E-06 6.52030E-19 9.77476E-19
 -1      2546 2.74813E-05-2.30085E-05-1.63796E-06-2.33005E-05-1.97359E-19 2.96800E-18
 -1      2547 1.25289E-04-5.93603E-05-2.84916E-05 2.98251E-05-2.43268E-18-7.88588E-19
 -1      2548 1.11672E-04-5.80421E-05-2.27653E-05 3.47387E-05-2.77530E-18-5.98217E-19
 -1      2549 1.47968E-04-3.02392E-05-5.09155E-05-6.41864E-06 1.47786E-18-2.81194E-18
 -1      2550 1.46528E-04-3.85833E-05-4.66828E-05-4.57192E-06 9.56830E-19-2.53030E-18
 -1      2551 3.98347E-05-3.04374E-05-3.80239E-06-3.34069E-05 8.17810E-19 2.03373E-18
 -1      2552 5.55852E-05-3.75506E-05-7.63861E-06-4.18375E-05 1.18712E-18 2.35306E-18
 -1      2553 1.45281E-04-2.80454E-05-5.06449E-05 9.38865E-06 9.75147E-19-3.16579E-18
 -1      2554 1.44164E-04-1.86796E-05-5.44888E-05 8.33619E-06 1.13714E-18-3.60243E-18
 -1      2555 8.78555E-05-1.08060E-05-3.30569E-05-1.52038E-06-1.28162E-19-3.78337E-18
 -1      2556 8.79600E-05-1.09278E-05-3.30481E-05-2.64034E-06-4.27187E-19-3.78847E-18
 -1      2557 8.93592E-05-1.31003E-05-3.26845E-05-2.93415E-06-5.14185E-19-3.57258E-18
 -1      2558 8.91125E-05-1.27664E-05-3.27230E-05-9.42327E-07-6.65097E-20-3.58251E-18
 -1      2559 1.42567E-04-1.15435E-05-5.66957E-05 4.19962E-06 1.83129E-18-2.89426E-18
 -1      2560 1.45127E-04-1.18680E-05-5.76343E-05-4.70249E-07 1.98206E-18-2.84021E-18
 -1      2561 9.62450E-05-5.36305E-05-1.82196E-05-3.80201E-05 1.94203E-18-2.17751E-18
 -1      2562 1.14440E-04-5.72842E-05-2.47456E-05-3.41492E-05 2.22685E-18-2.51315E-18
 -1      2563 1.46502E-04-1.45933E-05-5.69439E-05-3.62728E-06 1.89333E-18-2.76842E-18
 -1      2564 1.45404E-04-2.03232E-05-5.41198E-05-6.54148E-06 2.33548E-18-1.69851E-18
 -1      2565 1.34426E-04-1.17162E-05-5.27104E-05-3.59448E-06 2.01869E-18-9.70806E-19
 -1      2566 1.46024E-04-4.75461E-05-4.23494E-05-5.38891E-07 5.47316E-19-3.87073E-18
 -1      2567 1.47360E-04-4.05413E-05-4.64898E-05 4.78758E-06 6.71062E-19-4.01536E-18
 -1      2568 1.30061E-04-5.79254E-05-3.09140E-05-2.13758E-05 2.74566E-18-3.11073E-18
 -1      2569 1.42182E-04-5.46690E-05-3.79259E-05-1.21234E-05 1.22597E-18-3.89678E-18
 -1      2570 1.41786E-04-5.34061E-05-3.78731E-05-1.90172E-06 9.01481E-19-3.42762E-18
 -1      2571 6.12726E-05-4.00191E-05-8.84402E-06-3.98909E-05 1.45986E-18-1.26483E-18
 -1      2572 7.84314E-05-4.70514E-05-1.34635E-05-4.28018E-05 1.78957E-18-1.56542E-19
 -1      2573 2.82827E-05-2.45120E-05-1.38934E-06-2.38094E-05 6.98802E-19-3.88470E-18
 -1      2574 4.11807E-05-3.02466E-05-4.63232E-06-3.49206E-05 9.67100E-19-3.58591E-18
 -1      2575 1.77570E-05-1.88167E-05 6.30904E-07 4.74737E-06 2.44951E-19-4.59473E-18
 -1      2576 1.94388E-05-1.92125E-05 6.52133E-08-1.06733E-05 4.71797E-19-3.76337E-18
 -1      2577 3.20122E-05-2.59006E-05-2.47983E-06 2.93473E-05 2.26581E-19-6.44042E-18
 -1      2578 2.25344E-05-2.18700E-05-1.04541E-07 1.77981E-05 8.09658E-19-6.58441E-18
 -1      2579 1.10291E-04-5.57536E-05-2.33370E-05 3.66704E-05-6.16216E-19-3.87200E-19
 -1      2580 9.34993E-05-5.19967E-05-1.76233E-05 3.95410E-05-4.80268E-19-1.71326E-20
 -1      2581 1.37787E-04-5.38277E-05-3.62365E-05 1.97248E-05-4.31881E-19-6.69156E-19
 -1      2582 1.23621E-04-5.62259E-05-2.89899E-05 2.67094E-05-4.82174E-19-3.65071E-19
 -1      2583 1.48237E-04-4.09924E-05-4.65833E-05 3.50948E-07-9.86158E-19 1.13058E-18
 -1      2584 1.44125E-04-4.80325E-05-4.12671E-05 8.00554E-06-4.23715E-19-8.38563E-20
 -1      2585 1.43746E-04-1.89834E-05-5.40851E-05-8.03871E-06-2.45745E-18 2.02356E-18
 -1      2586 1.45516E-04-2.82805E-05-5.04955E-05-7.14475E-06-1.89799E-18 1.45033E-18
 -1      2587 1.47364E-04-1.12791E-05-5.85693E-05-1.40101E-07-2.98791E-18 2.00614E-19
 -1      2588 1.43902E-04-1.13495E-05-5.72991E-05-2.97883E-06-2.18535E-18 1.51878E-18
 -1      2589 1.47122E-04-1.74167E-05-5.59158E-05 4.39988E-06-2.46105E-18-2.24294E-18
 -1      2590 1.48277E-04-1.36472E-05-5.81274E-05 2.30243E-06-3.06795E-18-8.46133E-19
 -1      2591 1.36218E-04-1.00521E-05-5.42783E-05 2.44577E-06-2.18175E-18-8.83614E-19
 -1      2592 1.46661E-04-3.73271E-05-4.70581E-05 1.79605E-06-1.50190E-18-3.83748E-18
 -1      2593 1.49093E-04-2.81290E-05-5.23074E-05 4.38964E-06-2.18513E-18-3.83621E-18
 -1      2594 1.38129E-04-5.52266E-05-3.55431E-05-1.47119E-05 7.65083E-19 6.33157E-19
 -1      2595 1.45667E-04-4.94775E-05-4.17316E-05-7.35268E-06-2.79600E-19-2.13410E-18
 -1      2596 1.13248E-04-5.79181E-05-2.35971E-05-3.41031E-05 1.28071E-18 4.02627E-18
 -1      2597 1.27547E-04-5.89232E-05-2.97532E-05-2.77510E-05 1.27055E-18 3.14884E-18
 -1      2598 7.48306E-05-4.66995E-05-1.19057E-05-4.26289E-05 1.33069E-18 2.27471E-18
 -1      2599 9.48190E-05-5.27881E-05-1.81101E-05-4.26762E-05 1.27775E-18 3.59963E-18
 -1      2600 9.50621E-05-2.00203E-05-3.22092E-05-1.17807E-05-2.69401E-18-7.92624E-19
 -1      2601 9.54555E-05-2.33532E-05-3.09234E-05-7.97955E-06-2.47544E-18-6.33355E-19
 -1      2602 9.50410E-05-2.25575E-05-3.10503E-05-7.63473E-06-2.33671E-18-1.23769E-18
 -1      2603 9.32332E-05-1.77082E-05-3.23952E-05-1.13133E-05-2.60472E-18-1.51905E-18
 -1      2604 9.63223E-05-2.50921E-05-3.05531E-05 7.60137E-06 2.44168E-18 1.20714E-18
 -1      2605 9.74449E-05-2.37757E-05-3.15939E-05 1.07006E-05 2.70357E-18 1.55023E-18
 -1      2606 9.58805E-05-2.13008E-05-3.20186E-05 1.19031E-05 2.92645E-18 6.59243E-19
 -1      2607 9.58691E-05-2.41592E-05-3.07660E-05 7.69392E-06 2.51337E-18 2.03591E-19
 -1      2608 1.41033E-04-3.43788E-05-4.58253E-05 1.20779E-05 9.69006E-19-3.69200E-18
 -1      2609 9.08026E-05-1.50536E-05-3.24599E-05-6.81063E-06-1.55879E-18-3.10522E-18
 -1      2610 8.97073E-05-1.31862E-05-3.28469E-05-7.97219E-06-1.69270E-18-3.24693E-18
 -1      2611 9.03612E-05-1.39664E-05-3.28013E-05-9.14615E-06-2.05174E-18-2.92431E-18
 -1      2612 9.47207E-05-2.69362E-05-2.90632E-05 1.89563E-06 1.58178E-18-3.93443E-19
 -1      2613 9.42387E-05-1.90801E-05-3.22560E-05 1.16125E-05 2.82980E-18-4.50476E-19
 -1      2614 9.11367E-05-1.50103E-05-3.26788E-05-9.82857E-06-2.24892E-18-2.66765E-18
 -1      2615 9.21587E-05-1.62812E-05-3.25968E-05-1.08595E-05-2.54602E-18-2.15524E-18
 -1      2616 9.36355E-05-1.92097E-05-3.18922E-05-9.20518E-06-2.47999E-18-1.83970E-18
 -1      2617 9.20658E-05-1.68230E-05-3.22379E-05-8.31406E-06-2.10152E-18-2.53366E-18
 -1      2618 1.45663E-04-4.60210E-05-4.30579E-05-3.04958E-06-1.11385E-19-2.92142E-18
 -1      2619 1.41570E-04-5.08055E-05-3.88286E-05-1.22694E-06-2.50801E-19-3.47464E-18
 -1      2620 1.39865E-04-4.06722E-05-4.29072E-05-1.01570E-05 4.17164E-20-3.25451E-18
 -1      2621 4.11505E-05-2.39431E-05-6.83858E-06 2.67373E-05-1.11819E-18-3.43493E-18
 -1      2622 1.34875E-04-6.03793E-05-3.19126E-05 1.72979E-05-1.17303E-18-1.74881E-18
 -1      2623 7.27473E-05-4.21900E-05-1.26427E-05-4.15849E-05 1.77940E-18 2.66360E-18
 -1      2624 4.16008E-05-2.47974E-05-6.65393E-06-2.87735E-05 7.76941E-19 1.72498E-18
 -1      2625 1.08294E-04-5.70061E-05-2.16666E-05-3.60504E-05 1.11512E-18 3.94498E-18
 -1      2626 9.66453E-05-2.69145E-05-2.98784E-05 6.14249E-06 1.36798E-19 2.16129E-18
 -1      2627 1.05523E-04-5.63202E-05-2.07940E-05 3.69343E-05-4.32410E-19-1.82698E-18
 -1      2628 9.61628E-05-2.61396E-05-3.00113E-05 6.85969E-06 9.52409E-19 3.59673E-18
 -1      2629 1.34399E-04-5.91740E-05-3.21298E-05-1.66821E-05 6.42686E-19 8.40786E-19
 -1      2630 2.93988E-05-1.59611E-05-5.16185E-06-2.02246E-06-7.36495E-19-1.05879E-19
 -1      2631 1.40082E-04-2.22536E-05-5.07168E-05 8.91276E-06-1.17208E-18-2.54703E-18
 -1      2632 9.63779E-05-2.62696E-05-3.00413E-05 8.22885E-06 1.36961E-18 3.16749E-18
 -1      2633 1.34636E-04-1.45220E-05-5.16003E-05 9.05522E-06 1.69809E-18-2.08741E-18
 -1      2634 1.41204E-04-3.53106E-05-4.55159E-05-8.50537E-06-1.72096E-18 9.80864E-19
 -1      2635 1.40590E-04-5.38397E-05-3.70776E-05 7.76289E-06-1.09479E-19-8.02564E-20
 -1      2636 1.22482E-04-5.92114E-05-2.70313E-05 2.65748E-05 1.64960E-19 6.42157E-19
 -1      2637 4.50001E-05-2.98308E-05-6.08531E-06 3.46138E-05 7.20825E-19-4.33215E-18
 -1      2638 4.33585E-05-2.39535E-05-7.70414E-06 3.05236E-05 1.26346E-18-4.59791E-18
 -1      2639 5.84694E-05-3.37360E-05-1.04776E-05 3.80960E-05 1.03603E-18-2.39012E-18
 -1      2640 2.62818E-05-1.70283E-05-3.41047E-06 1.11124E-05 5.37231E-19-5.53832E-18
 -1      2641 2.99358E-05-1.91625E-05-4.04602E-06-1.69957E-05 6.33898E-19-3.97661E-18
 -1      2642 1.26170E-04-6.00863E-05-2.80641E-05-2.32490E-05 1.91112E-18-2.71591E-18
 -1      2643 8.66492E-05-4.90633E-05-1.58354E-05 4.10274E-05 2.52416E-19-6.29769E-19
 -1      2644 7.90041E-05-4.36355E-05-1.45586E-05 4.10847E-05 9.87852E-19-4.47975E-19
 -1      2645 1.00347E-04-5.32917E-05-2.02171E-05 3.63490E-05 8.65668E-19 1.80219E-19
 -1      2646 1.39572E-04-2.50745E-05-4.93536E-05-1.08862E-05 1.37071E-18-1.85331E-18
 -1      2647 9.47102E-05-2.06024E-05-3.17161E-05 9.67992E-06 2.57945E-18-6.10565E-19
 -1      2648 9.46025E-05-5.19907E-05-1.79045E-05-3.83715E-05 1.09797E-18-1.79767E-18
 -1      2649 9.70932E-05-2.76592E-05-2.97343E-05-5.55838E-06 1.03464E-18 1.68425E-18
 -1      2650 9.61445E-05-2.64546E-05-2.98677E-05-6.35365E-06 2.11622E-19 2.10813E-18
 -1      2651 9.64782E-05-2.67324E-05-2.98966E-05-7.52704E-06-3.32336E-19 2.54866E-18
 -1      2652 9.79170E-05-2.82017E-05-2.98760E-05-6.22443E-06 7.71271E-20 2.24212E-18
 -1      2653 5.74872E-05-3.45834E-05-9.36920E-06-3.72647E-05 8.22045E-19-2.47567E-18
 -1      2654 1.43180E-04-4.44151E-05-4.24405E-05 3.10504E-06-1.22290E-18-2.60293E-18
 -1      2655 9.77982E-05-2.80441E-05-2.99007E-05-7.43471E-06-2.96476E-19 2.77805E-18
 -1      2656 9.05734E-05-1.51816E-05-3.23330E-05 3.20018E-06 9.86933E-19-3.23955E-18
 -1      2657 9.03843E-05-1.49105E-05-3.23661E-05 2.26510E-06 6.78853E-19-3.35941E-18
 -1      2658 9.02508E-05-1.47080E-05-3.23954E-05 1.42488E-06 4.97363E-19-3.43196E-18
 -1      2659 9.01862E-05-1.46158E-05-3.24066E-05 4.66512E-07 2.07744E-19-3.37008E-18
 -1      2660 9.14372E-05-1.66033E-05-3.20588E-05 1.64451E-06 5.76749E-19-3.24839E-18
 -1      2661 9.21475E-05-1.75561E-05-3.20056E-05 6.48326E-06 1.96924E-18-2.37718E-18
 -1      2662 9.16250E-05-1.67623E-05-3.21064E-05 5.64325E-06 1.75475E-18-2.58266E-18
 -1      2663 9.35613E-05-1.97779E-05-3.16638E-05 7.60686E-06 2.23080E-18-1.68625E-18
 -1      2664 9.27741E-05-1.85247E-05-3.18382E-05 7.02888E-06 2.03511E-18-2.02842E-18
 -1      2665 9.34401E-05-1.98713E-05-3.15070E-05 5.74454E-06 1.88516E-18-1.96981E-18
 -1      2666 9.52106E-05-2.54083E-05-2.99276E-05 3.98963E-06 1.89163E-18-6.63247E-19
 -1      2667 9.55481E-05-2.45587E-05-3.03916E-05 5.62173E-06 2.04601E-18-5.37015E-19
 -1      2668 8.91267E-05-4.75529E-05-1.72805E-05-3.73976E-05 1.00585E-18-2.11726E-18
 -1      2669 1.04336E-04-5.48232E-05-2.14211E-05-3.45762E-05 1.26388E-18-2.53223E-18
 -1      2670 9.47015E-05-2.19069E-05-3.12044E-05 7.85263E-06 2.31789E-18-8.18264E-19
 -1      2671 9.53581E-05-2.59036E-05-2.97358E-05-2.71407E-06-1.40252E-18-1.23106E-18
 -1      2672 9.51901E-05-2.64915E-05-2.94542E-05-1.73350E-06-1.22321E-18-1.30053E-18
 -1      2673 9.52130E-05-2.70057E-05-2.92084E-05-9.92917E-07-1.15000E-18-1.20530E-18
 -1      2674 9.50780E-05-2.73591E-05-2.90286E-05-3.87930E-07-1.02788E-18-1.21580E-18
 -1      2675 9.54159E-05-2.63311E-05-2.96136E-05-1.63186E-06-1.23343E-18-1.34136E-18
 -1      2676 9.50450E-05-2.76641E-05-2.88616E-05 7.93673E-08-8.97790E-19-1.22902E-18
 -1      2677 9.49671E-05-2.78873E-05-2.87514E-05 4.31114E-07-8.19742E-19-1.23016E-18
 -1      2678 9.54164E-05-2.73250E-05-2.91895E-05-3.53362E-07-1.03559E-18-1.38020E-18
 -1      2679 9.49254E-05-2.80711E-05-2.86416E-05 7.02031E-07-8.06135E-19-1.31621E-18
 -1      2680 9.48975E-05-2.82160E-05-2.85787E-05 8.87345E-07-8.11864E-19-1.38531E-18
 -1      2681 9.53560E-05-2.79367E-05-2.89008E-05 4.38712E-07-9.29631E-19-1.56844E-18
 -1      2682 9.48630E-05-2.83255E-05-2.85100E-05 1.02474E-06-8.07843E-19-1.30795E-18
 -1      2683 9.48711E-05-2.84199E-05-2.84788E-05 1.10382E-06-7.12126E-19-1.35694E-18
 -1      2684 9.52925E-05-2.83127E-05-2.87111E-05 8.85666E-07-8.70693E-19-1.65658E-18
 -1      2685 9.48475E-05-2.84817E-05-2.84393E-05 1.15510E-06-7.22523E-19-1.23737E-18
 -1      2686 9.48787E-05-2.85414E-05-2.84293E-05 1.16970E-06-7.90277E-19-1.42100E-18
 -1      2687 9.52443E-05-2.85371E-05-2.85929E-05 1.10110E-06-6.54656E-19-1.49071E-18
 -1      2688 9.48650E-05-2.85714E-05-2.84103E-05 1.16955E-06-5.97236E-19-1.21170E-18
 -1      2689 9.49097E-05-2.86065E-05-2.84143E-05 1.14890E-06-4.00148E-19-8.95259E-19
 -1      2690 9.52141E-05-2.86607E-05-2.85260E-05 1.17023E-06-5.12348E-19-8.37331E-19
 -1      2691 9.49038E-05-2.86145E-05-2.84097E-05 1.12252E-06-2.76163E-19-6.35080E-19
 -1      2692 9.49557E-05-2.86314E-05-2.84230E-05 1.08732E-06-8.89287E-20-4.38985E-19
 -1      2693 9.51995E-05-2.87154E-05-2.84954E-05 1.15561E-06-6.17954E-20-4.90831E-19
 -1      2694 9.49557E-05-2.86239E-05-2.84287E-05 1.05307E-06-1.82423E-19-4.37990E-19
 -1      2695 9.50112E-05-2.86271E-05-2.84484E-05 1.01829E-06 8.09968E-20-2.78646E-19
 -1      2696 9.51967E-05-2.87214E-05-2.84910E-05 1.10291E-06-2.69688E-19-4.60024E-19
 -1      2697 9.50155E-05-2.86079E-05-2.84617E-05 9.89734E-07-5.54243E-20-5.68937E-19
 -1      2698 9.50734E-05-2.86006E-05-2.84861E-05 9.66513E-07-1.46327E-19-5.52624E-19
 -1      2699 9.52025E-05-2.86921E-05-2.85057E-05 1.04567E-06-1.82347E-19-6.57384E-19
 -1      2700 9.50810E-05-2.85722E-05-2.85055E-05 9.54045E-07-1.96808E-19-7.87522E-19
 -1      2701 9.51420E-05-2.85565E-05-2.85340E-05 9.51097E-07-3.25341E-19-4.95129E-19
 -1      2702 9.52149E-05-2.86357E-05-2.85350E-05 1.00912E-06-1.73245E-19-3.84600E-19
 -1      2703 9.51523E-05-2.85201E-05-2.85586E-05 9.63096E-07-4.11884E-19-2.09065E-19
 -1      2704 9.52182E-05-2.84976E-05-2.85914E-05 9.87687E-07-1.11224E-19 1.11020E-19
 -1      2705 9.52325E-05-2.85572E-05-2.85760E-05 1.01296E-06-9.80394E-20-6.38223E-19
 -1      2706 9.52312E-05-2.84539E-05-2.86209E-05 1.03138E-06-3.42466E-19 2.55957E-19
 -1      2707 9.53050E-05-2.84259E-05-2.86587E-05 1.08999E-06-4.87259E-19 9.07757E-20
 -1      2708 9.52550E-05-2.84592E-05-2.86276E-05 1.07352E-06-2.40931E-19-3.82604E-19
 -1      2709 9.53211E-05-2.83751E-05-2.86934E-05 1.17202E-06-9.24940E-19-5.47795E-19
 -1      2710 9.54069E-05-2.83430E-05-2.87372E-05 1.27071E-06-9.91738E-19-9.73488E-19
 -1      2711 9.52827E-05-2.83429E-05-2.86894E-05 1.20522E-06-1.09395E-18-4.19518E-19
 -1      2712 9.54267E-05-2.82854E-05-2.87773E-05 1.39737E-06-6.63992E-19-1.07071E-18
 -1      2713 9.55295E-05-2.82509E-05-2.88284E-05 1.54181E-06-3.68437E-19-1.16515E-18
 -1      2714 9.53169E-05-2.82092E-05-2.87614E-05 1.42137E-06-1.13863E-18-1.33474E-19
 -1      2715 9.55544E-05-2.81876E-05-2.88742E-05 1.71901E-06-9.83622E-20-1.12905E-18
 -1      2716 9.56802E-05-2.81538E-05-2.89337E-05 1.91415E-06-1.62007E-19-1.01501E-18
 -1      2717 9.53597E-05-2.80598E-05-2.88438E-05 1.73443E-06-4.95128E-19-5.20695E-19
 -1      2718 9.57126E-05-2.80872E-05-2.89853E-05 2.14697E-06-3.08775E-20-9.50939E-19
 -1      2719 9.58685E-05-2.80591E-05-2.90540E-05 2.39621E-06 3.50415E-19-7.04839E-19
 -1      2720 9.54150E-05-2.78989E-05-2.89366E-05 2.15554E-06-2.10076E-19-5.70181E-19
 -1      2721 9.59125E-05-2.79946E-05-2.91108E-05 2.68800E-06 6.97197E-19-8.82832E-19
 -1      2722 9.61072E-05-2.79804E-05-2.91892E-05 2.99177E-06 9.23861E-19-8.90745E-19
 -1      2723 9.54894E-05-2.77357E-05-2.90386E-05 2.69322E-06 5.48243E-19-7.37787E-19
 -1      2724 9.61701E-05-2.79278E-05-2.92498E-05 3.34271E-06 9.62876E-19-1.02446E-18
 -1      2725 9.64145E-05-2.79412E-05-2.93371E-05 3.69619E-06 7.34620E-19-1.34872E-18
 -1      2726 9.55943E-05-2.75876E-05-2.91472E-05 3.35112E-06 7.46476E-19-1.50280E-18
 -1      2727 9.65091E-05-2.79178E-05-2.93988E-05 4.10100E-06 2.91783E-19-1.09269E-18
 -1      2728 9.68178E-05-2.79802E-05-2.94929E-05 4.49077E-06-2.27553E-19-5.09365E-19
 -1      2729 9.57493E-05-2.74856E-05-2.92579E-05 4.12448E-06 7.59469E-19-1.77568E-18
 -1      2730 9.69660E-05-2.80142E-05-2.95520E-05 4.93552E-06-7.68931E-19-3.55361E-19
 -1      2731 9.73595E-05-2.81582E-05-2.96492E-05 5.33497E-06-6.63622E-19-6.28390E-20
 -1      2732 9.59884E-05-2.74810E-05-2.93635E-05 4.99509E-06-2.90638E-19-4.07764E-20
 -1      2733 9.75981E-05-2.82932E-05-2.97007E-05 5.79236E-06-5.54429E-19 2.94535E-19
 -1      2734 9.81055E-05-2.85662E-05-2.97956E-05 6.15563E-06-1.68403E-19-7.85687E-20
 -1      2735 9.63692E-05-2.76546E-05-2.94545E-05 5.92416E-06-2.37171E-19 8.79306E-21
 -1      2736 9.84934E-05-2.88654E-05-2.98342E-05 6.57833E-06 1.56018E-19 1.58204E-19
 -1      2737 9.91549E-05-2.93304E-05-2.99209E-05 6.83310E-06 3.09076E-19 3.18020E-19
 -1      2738 9.69851E-05-2.81263E-05-2.95205E-05 6.84215E-06 1.83595E-19 6.54645E-19
 -1      2739 9.97804E-05-2.98771E-05-2.99443E-05 7.14404E-06-1.09697E-19 1.36277E-19
 -1      2740 1.00646E-04-3.06067E-05-3.00187E-05 7.18426E-06-2.96946E-19-9.11892E-20
 -1      2741 9.79806E-05-2.90607E-05-2.95538E-05 7.63397E-06 1.30500E-19 1.17135E-18
 -1      2742 1.01629E-04-3.14931E-05-3.00324E-05 7.26252E-06-2.81195E-20-2.45512E-19
 -1      2743 1.02747E-04-3.25452E-05-3.00978E-05 6.94439E-06-8.38207E-20-4.14129E-19
 -1      2744 9.95620E-05-3.06576E-05-2.95582E-05 8.11643E-06-2.61121E-19 7.51077E-19
 -1      2745 1.04220E-04-3.38349E-05-3.01241E-05 6.60783E-06-1.54400E-19-3.94946E-19
 -1      2746 1.05596E-04-3.51924E-05-3.01997E-05 5.75815E-06-9.21049E-20-6.83356E-19
 -1      2747 1.01985E-04-3.31020E-05-2.95640E-05 8.00501E-06-2.13543E-19-5.97179E-20
 -1      2748 1.07640E-04-3.68339E-05-3.02902E-05 4.75359E-06 2.51104E-19-4.58722E-19
 -1      2749 1.09161E-04-3.82889E-05-3.04201E-05 3.21216E-06 3.12762E-19-3.66711E-19
 -1      2750 1.05481E-04-3.64301E-05-2.96510E-05 6.87627E-06 7.24011E-20-5.93657E-19
 -1      2751 1.11656E-04-3.99568E-05-3.06686E-05 1.26144E-06 1.21513E-20-6.14271E-19
 -1      2752 1.12986E-04-4.09558E-05-3.09268E-05-9.99199E-07 6.24912E-19-1.60452E-18
 -1      2753 1.10053E-04-4.02454E-05-2.99777E-05 4.17095E-06 1.53325E-19-2.38288E-19
 -1      2754 1.15384E-04-4.19002E-05-3.14678E-05-3.93975E-06 1.40191E-18-1.76770E-18
 -1      2755 1.15965E-04-4.15424E-05-3.19449E-05-6.57926E-06 9.72774E-19-8.86810E-19
 -1      2756 1.15053E-04-4.32540E-05-3.07996E-05-5.86487E-07 7.90302E-19-7.73997E-19
 -1      2757 1.17171E-04-4.05402E-05-3.29100E-05-9.92750E-06 1.00100E-18-3.28682E-19
 -1      2758 1.16415E-04-3.79999E-05-3.36306E-05-1.18599E-05 9.65492E-19 1.53700E-19
 -1      2759 1.18956E-04-4.32695E-05-3.24165E-05-7.13217E-06 1.39609E-18-2.69264E-19
 -1      2760 1.15542E-04-3.44587E-05-3.49437E-05-1.38078E-05-5.06367E-19 8.18776E-20
 -1      2761 1.13512E-04-3.00535E-05-3.57660E-05-1.35422E-05-6.35381E-19-2.92043E-19
 -1      2762 1.19414E-04-3.78794E-05-3.49868E-05-1.31272E-05 4.21399E-19-7.36257E-20
 -1      2763 1.11245E-04-2.54333E-05-3.69922E-05-1.18185E-05-4.06357E-19-4.74496E-19
 -1      2764 1.09368E-04-2.16745E-05-3.75738E-05-8.68922E-06-2.20215E-19-2.44197E-19
 -1      2765 1.16005E-04-2.80692E-05-3.77897E-05-1.36010E-05-6.12564E-19-1.14790E-18
 -1      2766 1.07882E-04-1.93757E-05-3.81109E-05-3.05574E-06-3.71159E-19-1.16344E-18
 -1      2767 1.07967E-04-1.93803E-05-3.81006E-05 1.51718E-06-1.32246E-18-1.65554E-18
 -1      2768 1.11613E-04-1.84600E-05-4.00489E-05-6.75040E-06-6.36810E-19-1.10031E-18
 -1      2769 1.09110E-04-2.15763E-05-3.75677E-05 7.04224E-06-1.50613E-18-1.43898E-18
 -1      2770 1.10946E-04-2.52887E-05-3.69549E-05 1.02797E-05-1.45264E-18-1.60294E-18
 -1      2771 1.11669E-04-1.87345E-05-3.99662E-05 4.70127E-06-1.35253E-18-1.90831E-18
 -1      2772 1.13338E-04-3.00069E-05-3.56897E-05 1.19840E-05-4.25131E-19-1.45387E-18
 -1      2773 1.15190E-04-3.44129E-05-3.48238E-05 1.22549E-05 3.71953E-19-1.13518E-18
 -1      2774 1.15922E-04-2.80106E-05-3.77499E-05 1.22040E-05-7.84617E-19-1.00400E-18
 -1      2775 1.16156E-04-3.80503E-05-3.34753E-05 1.03217E-05 6.29021E-20-1.66616E-18
 -1      2776 1.16834E-04-4.06433E-05-3.27148E-05 8.31182E-06-5.80730E-19-1.78344E-18
 -1      2777 1.19270E-04-3.79243E-05-3.48907E-05 1.16199E-05-4.28255E-19-2.33636E-18
 -1      2778 1.15603E-04-4.16703E-05-3.17342E-05 4.86974E-06-2.92385E-19-2.56244E-18
 -1      2779 1.14955E-04-4.20403E-05-3.12238E-05 2.15713E-06-7.62418E-19-2.31501E-18
 -1      2780 1.18904E-04-4.35048E-05-3.22994E-05 5.39151E-06-1.28289E-18-4.05194E-18
 -1      2781 1.12532E-04-4.11243E-05-3.06639E-05-9.22085E-07-1.38141E-18-2.87903E-19
 -1      2782 1.11086E-04-4.00750E-05-3.03759E-05-3.27786E-06-1.06951E-18 9.38387E-20
 -1      2783 1.15021E-04-4.36193E-05-3.06384E-05-1.35207E-06-1.27925E-19-4.22089E-18
 -1      2784 1.08541E-04-3.83584E-05-3.01245E-05-5.32547E-06-2.11495E-19 5.43248E-19
 -1      2785 1.06880E-04-3.68040E-05-2.99771E-05-6.93321E-06 1.36671E-18 2.50820E-19
 -1      2786 1.09927E-04-4.05331E-05-2.98041E-05-6.32337E-06-2.50461E-19-7.67849E-19
 -1      2787 1.04770E-04-3.50614E-05-2.99028E-05-7.99224E-06 2.20646E-18 8.85989E-20
 -1      2788 1.03236E-04-3.35397E-05-2.98262E-05-8.85044E-06 1.69888E-18 1.01796E-18
 -1      2789 1.05236E-04-3.65395E-05-2.95020E-05-9.16976E-06 1.67923E-18-1.20051E-18
 -1      2790 1.01658E-04-3.20654E-05-2.98392E-05-9.16781E-06 1.39168E-18 1.29727E-18
 -1      2791 1.00358E-04-3.07660E-05-2.97938E-05-9.39066E-06 7.66505E-19 7.93327E-19
 -1      2792 1.01572E-04-3.28681E-05-2.94844E-05-1.03350E-05 1.83140E-18-3.42461E-20
 -1      2793 9.92275E-05-2.96002E-05-2.98457E-05-9.17616E-06 1.80112E-19 2.19279E-18
 -1      2794 9.81686E-05-2.85465E-05-2.98187E-05-8.88393E-06 9.69316E-19 2.50672E-18
 -1      2795 9.88997E-05-2.98743E-05-2.96020E-05-1.02630E-05 1.04792E-18 1.61065E-18
 -1      2796 9.44682E-05-2.81226E-05-2.84335E-05-8.84653E-07 7.67459E-19-8.56052E-19
 -1      2797 9.44845E-05-2.79967E-05-2.84836E-05-7.07271E-07 7.74680E-19-7.71060E-19
 -1      2798 5.19304E-05-2.77881E-05-9.80240E-06-3.28666E-05 4.85244E-19-3.02412E-18
 -1      2799 6.96312E-05-3.79967E-05-1.35074E-05-3.89503E-05 8.22045E-19-1.26758E-18
 -1      2800 9.45445E-05-2.78467E-05-2.85856E-05-4.30081E-07 7.96692E-19-7.82806E-19
 -1      2801 9.46332E-05-2.76607E-05-2.86841E-05-8.56256E-08 8.94475E-19-6.48203E-19
 -1      2802 9.50039E-05-2.79068E-05-2.87643E-05-4.41569E-07 8.99152E-19-1.01280E-18
 -1      2803 9.45145E-05-2.84185E-05-2.83257E-05-1.15595E-06 2.85583E-19-5.06972E-19
 -1      2804 9.44551E-05-2.83573E-05-2.83245E-05-1.14621E-06 3.78067E-19-5.96722E-19
 -1      2805 9.45938E-05-2.84911E-05-2.83284E-05-1.12900E-06 5.85486E-19-7.43792E-19
 -1      2806 9.45198E-05-2.84495E-05-2.83148E-05-1.15363E-06 5.98954E-19-5.67005E-19
 -1      2807 9.48979E-05-2.85524E-05-2.84370E-05-1.18415E-06 4.47963E-19-1.06287E-18
 -1      2808 9.46901E-05-2.85320E-05-2.83520E-05-1.06046E-06 6.82620E-19-4.52111E-19
 -1      2809 9.46099E-05-2.85052E-05-2.83309E-05-1.09952E-06 5.24348E-19-4.32527E-19
 -1      2810 9.49247E-05-2.86144E-05-2.84209E-05-1.16304E-06 5.54748E-19-8.45237E-19
 -1      2811 9.47952E-05-2.85491E-05-2.83894E-05-9.82897E-07 5.49468E-19-2.21632E-19
 -1      2812 9.47132E-05-2.85339E-05-2.83636E-05-1.02214E-06 7.52268E-19-4.04857E-20
 -1      2813 9.49669E-05-2.86366E-05-2.84289E-05-1.10153E-06 6.77973E-19-3.12937E-19
 -1      2814 9.49054E-05-2.85480E-05-2.84368E-05-9.20281E-07 2.20028E-19 2.32220E-19
 -1      2815 9.48228E-05-2.85419E-05-2.84076E-05-9.49155E-07 5.05346E-19-3.50635E-20
 -1      2816 9.50189E-05-2.86294E-05-2.84538E-05-1.03339E-06 3.76090E-19 2.24477E-19
 -1      2817 9.50207E-05-2.85324E-05-2.84925E-05-8.91076E-07-1.70203E-19 2.33739E-19
 -1      2818 9.49365E-05-2.85335E-05-2.84601E-05-9.01331E-07 4.46452E-20 1.34393E-19
 -1      2819 9.50777E-05-2.85997E-05-2.84915E-05-9.83811E-07 1.90809E-19 7.70324E-19
 -1      2820 9.51439E-05-2.85052E-05-2.85564E-05-9.10511E-07 9.05304E-20 2.60565E-19
 -1      2821 9.50552E-05-2.85118E-05-2.85204E-05-8.95176E-07-6.13347E-20 2.28406E-19
 -1      2822 9.51424E-05-2.85518E-05-2.85398E-05-9.72441E-07-7.91831E-20 4.72495E-19
 -1      2823 9.52802E-05-2.84681E-05-2.86300E-05-9.92238E-07 1.06100E-18-1.82946E-19
 -1      2824 9.51826E-05-2.84788E-05-2.85892E-05-9.44891E-07 6.03954E-19 2.27009E-19
 -1      2825 9.52139E-05-2.84877E-05-2.85979E-05-1.01568E-06 3.77867E-19 6.31074E-20
 -1      2826 9.54366E-05-2.84226E-05-2.87156E-05-1.14947E-06 6.95744E-19-3.33824E-20
 -1      2827 9.53244E-05-2.84362E-05-2.86683E-05-1.06376E-06 9.88065E-19-2.10751E-19
 -1      2828 9.52945E-05-2.84086E-05-2.86665E-05-1.12832E-06 9.08316E-19 8.91946E-20
 -1      2829 9.56220E-05-2.83705E-05-2.88163E-05-1.39560E-06-2.88482E-19 5.15106E-19
 -1      2830 9.54883E-05-2.83853E-05-2.87604E-05-1.26501E-06 4.35006E-19 2.09899E-19
 -1      2831 9.53876E-05-2.83145E-05-2.87469E-05-1.32467E-06 2.30818E-19 7.92312E-19
 -1      2832 9.58464E-05-2.83140E-05-2.89354E-05-1.74424E-06-4.52112E-19 4.20123E-19
 -1      2833 9.56833E-05-2.83278E-05-2.88687E-05-1.56217E-06-3.57855E-19 1.89020E-19
 -1      2834 9.54973E-05-2.82057E-05-2.88408E-05-1.61904E-06-3.33621E-19 2.42312E-19
 -1      2835 9.61218E-05-2.82573E-05-2.90764E-05-2.20856E-06-5.86217E-19-4.58379E-19
 -1      2836 9.59202E-05-2.82669E-05-2.89965E-05-1.96882E-06-4.62598E-19 1.00759E-20
 -1      2837 9.56288E-05-2.80835E-05-2.89498E-05-2.02568E-06-9.37043E-20 6.09900E-20
 -1      2838 9.64618E-05-2.82082E-05-2.92417E-05-2.79961E-06-1.14086E-19-7.07125E-19
 -1      2839 9.62115E-05-2.82081E-05-2.91468E-05-2.49745E-06-3.46434E-19-5.51697E-19
 -1      2840 9.57887E-05-2.79514E-05-2.90750E-05-2.55798E-06-2.18277E-19-3.55881E-19
 -1      2841 9.68826E-05-2.81806E-05-2.94326E-05-3.52321E-06-8.73188E-20-4.60021E-19
 -1      2842 9.65723E-05-2.81618E-05-2.93215E-05-3.15726E-06-1.32456E-19-6.59416E-19
 -1      2843 9.59854E-05-2.78184E-05-2.92165E-05-3.22661E-06-1.80534E-19-2.50735E-20
 -1      2844 9.74055E-05-2.81994E-05-2.96476E-05-4.37476E-06 9.13762E-20-6.07540E-19
 -1      2845 9.70218E-05-2.81472E-05-2.95204E-05-3.95017E-06 2.32949E-19-3.52118E-19
 -1      2846 9.62317E-05-2.77024E-05-2.93720E-05-4.03637E-06-3.76201E-20-3.01077E-19
 -1      2847 9.80604E-05-2.83074E-05-2.98817E-05-5.33102E-06-3.42001E-19-8.54927E-19
 -1      2848 9.75868E-05-2.81976E-05-2.97406E-05-4.86444E-06-2.96526E-19-3.27365E-19
 -1      2849 9.65490E-05-2.76373E-05-2.95363E-05-4.98114E-06-1.95601E-20-2.67725E-19
 -1      2850 9.88938E-05-2.85761E-05-3.01246E-05-6.33788E-06-1.64660E-19-1.44421E-18
 -1      2851 9.83084E-05-2.83700E-05-2.99746E-05-5.86479E-06 3.09345E-21-1.41632E-18
 -1      2852 9.69744E-05-2.76826E-05-2.97004E-05-6.03627E-06 8.40809E-20-6.20505E-19
 -1      2853 9.99803E-05-2.91177E-05-3.03610E-05-7.29296E-06-1.03571E-18-4.25302E-19
 -1      2854 9.92523E-05-2.87567E-05-3.02103E-05-6.87765E-06-8.07156E-19-1.01698E-18
 -1      2855 9.75749E-05-2.79380E-05-2.98509E-05-7.14734E-06-6.58773E-19-1.02148E-18
 -1      2856 1.01438E-04-3.00955E-05-3.05726E-05-8.02239E-06-4.26746E-19-4.92872E-19
 -1      2857 1.00525E-04-2.94988E-05-3.04315E-05-7.77015E-06-4.45567E-19-5.15585E-19
 -1      2858 9.84665E-05-2.85596E-05-2.99719E-05-8.21378E-06-1.02433E-18-2.53018E-19
 -1      2859 1.03438E-04-3.17153E-05-3.07459E-05-8.25319E-06-8.83449E-19-7.44338E-20
 -1      2860 1.02287E-04-3.07895E-05-3.06231E-05-8.32160E-06-1.01223E-18 7.03707E-20
 -1      2861 9.98391E-05-2.97707E-05-3.00509E-05-9.06431E-06-9.96990E-19-6.18088E-19
 -1      2862 1.06182E-04-3.41624E-05-3.08900E-05-7.58774E-06-2.17398E-19-2.78291E-19
 -1      2863 1.04755E-04-3.28460E-05-3.07839E-05-8.18895E-06-4.89479E-19-2.07141E-19
 -1      2864 1.01974E-04-3.18460E-05-3.00922E-05-9.41975E-06-3.48954E-19-1.05627E-20
 -1      2865 1.09800E-04-3.74281E-05-3.10652E-05-5.51760E-06-5.63628E-19 6.10939E-20
 -1      2866 1.08136E-04-3.57944E-05-3.09503E-05-6.88587E-06-1.57853E-19-5.45133E-19
 -1      2867 1.05212E-04-3.50122E-05-3.01437E-05-8.84356E-06-4.19136E-19-7.26951E-20
 -1      2868 1.14098E-04-4.09545E-05-3.14227E-05-1.52175E-06-2.26588E-19 3.42575E-19
 -1      2869 1.12449E-04-3.94170E-05-3.12325E-05-3.81549E-06-6.02263E-19 3.18362E-19
 -1      2870 1.09813E-04-3.92085E-05-3.03362E-05-6.71225E-06-5.95425E-19 4.17916E-20
 -1      2871 1.18151E-04-4.31514E-05-3.22268E-05 4.49424E-06-1.14569E-18 1.24782E-18
 -1      2872 1.17098E-04-4.26542E-05-3.18515E-05 1.47148E-06-3.73457E-19 8.36878E-19
 -1      2873 1.15555E-04-4.35481E-05-3.09358E-05-2.27921E-06-8.67726E-19 5.31546E-21
 -1      2874 1.20149E-04-4.14374E-05-3.37659E-05 1.12356E-05-9.56012E-19 1.20735E-18
 -1      2875 1.20425E-04-4.32258E-05-3.31111E-05 8.46956E-06-1.32752E-18 1.48173E-18
 -1      2876 1.21060E-04-4.57016E-05-3.23549E-05 4.76013E-06-1.41531E-18 8.02531E-19
 -1      2877 1.18358E-04-3.41948E-05-3.60724E-05 1.51885E-05 1.49406E-18 1.69761E-18
 -1      2878 1.20273E-04-3.86624E-05-3.51706E-05 1.44145E-05 5.19688E-19 1.48937E-18
 -1      2879 1.23652E-04-4.21312E-05-3.49577E-05 1.27043E-05-2.06438E-19-2.86668E-19
 -1      2880 1.13697E-04-2.40288E-05-3.84408E-05 1.18605E-05 9.56088E-19 1.36891E-18
 -1      2881 1.16097E-04-2.89379E-05-3.76619E-05 1.47173E-05 1.10768E-18 1.70028E-18
 -1      2882 1.21660E-04-3.23845E-05-3.83664E-05 1.60174E-05 1.18720E-18 8.19213E-19
 -1      2883 1.11033E-04-1.92959E-05-3.95103E-05 8.12529E-07 2.03351E-18 9.49577E-19
 -1      2884 1.11512E-04-2.04647E-05-3.93499E-05 6.04158E-06 1.80384E-18 1.48997E-18
 -1      2885 1.16485E-04-2.02600E-05-4.14036E-05 1.03760E-05 1.92271E-18 3.24652E-19
 -1      2886 1.13668E-04-2.45831E-05-3.84959E-05-1.04795E-05 1.06409E-18 7.85140E-19
 -1      2887 1.11690E-04-2.08325E-05-3.91136E-05-6.28139E-06 1.93960E-18 1.19964E-18
 -1      2888 1.15233E-04-1.76802E-05-4.19135E-05-2.70713E-06 1.43869E-18 8.06418E-19
 -1      2889 1.18476E-04-3.48056E-05-3.60818E-05-1.40377E-05-1.80147E-19 2.15543E-18
 -1      2890 1.16100E-04-2.97117E-05-3.70325E-05-1.33240E-05-7.50418E-20 1.53646E-18
 -1      2891 1.19274E-04-2.66134E-05-3.98516E-05-1.31329E-05-9.23266E-20 7.33213E-20
 -1      2892 1.20355E-04-4.19890E-05-3.36566E-05-9.84836E-06 9.24358E-19 1.96348E-18
 -1      2893 1.19339E-04-3.89333E-05-3.44898E-05-1.20040E-05 6.85276E-19 2.73047E-18
 -1      2894 1.23133E-04-3.87400E-05-3.62354E-05-1.30952E-05 1.86612E-19 1.28460E-18
 -1      2895 1.18021E-04-4.33490E-05-3.19688E-05-2.60792E-06 5.24113E-19 1.59819E-18
 -1      2896 1.18728E-04-4.30417E-05-3.25063E-05-5.70124E-06 1.03096E-18 1.03123E-18
 -1      2897 1.22449E-04-4.53964E-05-3.30873E-05-6.18688E-06 9.99459E-19 1.54212E-18
 -1      2898 1.13456E-04-4.08761E-05-3.10378E-05 3.76320E-06 1.76682E-18 6.12436E-19
 -1      2899 1.15136E-04-4.21726E-05-3.13367E-05 1.05463E-06 1.24793E-18 8.22343E-19
 -1      2900 1.17660E-04-4.51407E-05-3.11442E-05 1.64032E-06 1.17004E-18 1.23886E-18
 -1      2901 1.08631E-04-3.71158E-05-3.05933E-05 7.94768E-06 9.48803E-19-3.01833E-19
 -1      2902 1.10555E-04-3.88870E-05-3.07649E-05 6.12317E-06 1.90570E-18 4.26504E-19
 -1      2903 1.11644E-04-4.12869E-05-3.02189E-05 7.34133E-06 1.97368E-18 1.02206E-19
 -1      2904 1.04561E-04-3.36111E-05-3.03688E-05 1.00228E-05-2.46527E-19-6.66014E-19
 -1      2905 1.06321E-04-3.52233E-05-3.04982E-05 9.08772E-06 5.16356E-19-3.25641E-19
 -1      2906 1.06311E-04-3.66755E-05-2.98934E-05 1.04901E-05 1.03229E-18 8.94315E-20
 -1      2907 1.01413E-04-3.08257E-05-3.02253E-05 1.05269E-05-1.87931E-18 2.84101E-18
 -1      2908 1.02905E-04-3.21260E-05-3.03451E-05 1.03139E-05-1.85283E-18 5.22680E-19
 -1      2909 1.02309E-04-3.27736E-05-2.98357E-05 1.16916E-05-2.20848E-18 9.42975E-19
 -1      2910 9.90493E-05-2.87430E-05-3.01094E-05 9.90696E-06 7.34972E-19 3.07040E-18
 -1      2911 1.00267E-04-2.97424E-05-3.02239E-05 1.02309E-05-2.51309E-19 3.07000E-18
 -1      2912 9.94981E-05-2.98244E-05-2.98710E-05 1.15503E-05-1.27113E-18 6.80742E-19
 -1      2913 9.71348E-05-2.70655E-05-3.00072E-05 8.78774E-06 8.02022E-19 3.40229E-18
 -1      2914 9.81357E-05-2.78915E-05-3.00968E-05 9.56073E-06 6.26023E-19 2.90910E-18
 -1      2915 9.73824E-05-2.76131E-05-2.99239E-05 1.07624E-05-1.81191E-19-5.36237E-19
 -1      2916 9.57848E-05-2.58212E-05-3.00066E-05 9.69953E-06 1.23774E-19 9.53216E-19
 -1      2917 1.14596E-04-5.89025E-05-2.42071E-05 3.15614E-05-1.18955E-18-5.53602E-19
 -1      2918 9.84823E-05-5.23396E-05-1.93224E-05 3.72003E-05-3.16579E-20-2.98722E-18
 -1      2919 8.69399E-05-1.79363E-05-2.95910E-05-2.17784E-08 4.14839E-20-2.34608E-18
 -1      2920 8.70268E-05-1.80127E-05-2.95908E-05 1.89582E-06 6.59539E-19-3.40800E-18
 -1      2921 1.23160E-04-1.71737E-05-4.59404E-05 9.47294E-06 2.06591E-18-7.28316E-19
 -1      2922 1.21790E-04-1.28304E-05-4.74738E-05 2.43671E-06 2.25734E-18 4.57398E-20
 -1      2923 8.90544E-05-1.98493E-05-2.96990E-05 7.41412E-06 2.31071E-19-1.05675E-18
 -1      2924 9.01152E-05-2.07696E-05-2.97039E-05 8.57365E-06-3.01002E-19-6.06840E-20
 -1      2925 8.76820E-05-1.86033E-05-2.96036E-05-4.02141E-06-9.68405E-19-4.66182E-19
 -1      2926 8.71837E-05-1.81850E-05-2.96025E-05-2.23281E-06-4.79030E-19-1.06233E-18
 -1      2927 8.60225E-05-1.84379E-05-2.89282E-05-1.31109E-06 1.12705E-18-2.31230E-18
 -1      2928 8.74386E-05-1.83967E-05-2.96240E-05 4.04588E-06-5.59063E-19-1.73662E-18
 -1      2929 8.80960E-05-1.89554E-05-2.96257E-05 5.73452E-06 1.43536E-19-9.32717E-19
 -1      2930 8.78151E-05-1.98922E-05-2.90916E-05 7.26893E-06-3.17524E-19-1.28062E-18
 -1      2931 8.62206E-05-1.85787E-05-2.89555E-05 3.27088E-06 3.88305E-19-1.60534E-18
 -1      2932 8.94013E-05-2.01759E-05-2.96496E-05-7.15746E-06-1.16045E-19-8.64259E-19
 -1      2933 8.84855E-05-1.93909E-05-2.96524E-05-5.82887E-06-9.13585E-19 9.75076E-19
 -1      2934 8.72528E-05-1.95105E-05-2.90074E-05-5.52269E-06 3.16114E-20-2.28818E-19
 -1      2935 9.16730E-05-2.22831E-05-2.97121E-05-9.07514E-06 8.57458E-19 8.93868E-19
 -1      2936 9.05433E-05-2.12789E-05-2.97228E-05-8.33058E-06-1.83713E-19-1.33667E-18
 -1      2937 8.95239E-05-2.14529E-05-2.91678E-05-8.61267E-06-1.74478E-19-4.95135E-19
 -1      2938 9.39323E-05-2.44140E-05-2.97696E-05-9.59974E-06 1.57018E-18 4.15815E-18
 -1      2939 9.28592E-05-2.34037E-05-2.97910E-05-9.48778E-06 1.49004E-18 3.35721E-18
 -1      2940 9.22374E-05-2.37340E-05-2.93708E-05-1.02026E-05 5.43971E-19 2.33599E-18
 -1      2941 1.37660E-04-5.85507E-05-3.44024E-05 8.73351E-06-4.02076E-19-3.98635E-18
 -1      2942 1.29282E-04-6.05810E-05-2.90799E-05 1.84417E-05-1.76882E-18-2.00524E-18
 -1      2943 8.23835E-05-4.46117E-05-1.61200E-05 4.05543E-05-2.08582E-19-5.47268E-18
 -1      2944 6.75289E-05-3.62288E-05-1.29143E-05 3.81577E-05-3.83388E-19-4.76181E-18
 -1      2945 9.47151E-05-2.74118E-05-2.88471E-05 3.98841E-07 9.46231E-19-7.23622E-19
 -1      2946 9.48963E-05-2.71192E-05-2.90196E-05 1.00361E-06 1.22553E-18-6.60861E-19
 -1      2947 9.51255E-05-2.73799E-05-2.90435E-05 3.85451E-07 9.59139E-19-9.48477E-19
 -1      2948 6.75251E-05-3.62230E-05-1.28894E-05-3.85150E-05 1.61190E-18 1.77072E-18
 -1      2949 8.42974E-05-4.56947E-05-1.65398E-05-4.09485E-05 1.61360E-18 3.52037E-18
 -1      2950 1.40850E-04-1.30425E-05-5.52012E-05-6.00172E-06-2.06020E-18 1.74161E-18
 -1      2951 1.32486E-04-1.70054E-05-4.98790E-05-1.01871E-05-2.32849E-18 1.18299E-18
 -1      2952 1.33441E-04-2.60069E-05-4.63269E-05 1.21611E-05-2.89579E-19-2.41987E-18
 -1      2953 1.30877E-04-1.73008E-05-4.94170E-05 9.32258E-06-5.59042E-19-1.87538E-18
 -1      2954 5.18611E-05-2.63959E-05-1.05307E-05 3.23266E-05-1.00553E-18-3.41905E-18
 -1      2955 4.05730E-05-1.77007E-05-9.29255E-06 1.92096E-05-1.03727E-18-2.75476E-18
 -1      2956 6.49586E-05-2.99487E-05-1.44424E-05 3.20493E-05-1.18495E-18-3.78116E-18
 -1      2957 4.11234E-05-1.93815E-05-8.87239E-06-2.25876E-05 5.10549E-19 1.34911E-18
 -1      2958 5.29322E-05-2.71255E-05-1.07136E-05-3.36492E-05 1.14836E-18 9.02514E-19
 -1      2959 1.31078E-04-9.64183E-06-5.26695E-05-5.15487E-06-1.89651E-18 6.70109E-19
 -1      2960 1.24695E-04-1.47412E-05-4.78472E-05-9.52058E-06-2.56397E-18-3.54351E-19
 -1      2961 1.28687E-04-2.07379E-05-4.66410E-05-1.36799E-05-1.81456E-18 1.84230E-20
 -1      2962 1.25981E-04-1.01509E-05-5.04850E-05-9.52230E-07-1.77157E-18-4.84225E-19
 -1      2963 1.23553E-04-1.02724E-05-4.89401E-05-3.17728E-06-2.20059E-18-1.47700E-18
 -1      2964 1.01542E-04-5.31622E-05-2.02478E-05-3.63346E-05 1.22174E-18 4.28065E-18
 -1      2965 1.16144E-04-5.88760E-05-2.48885E-05-3.02678E-05 1.02840E-18 4.04581E-18
 -1      2966 9.44661E-05-2.83021E-05-2.83551E-05-1.09594E-06 4.95316E-19-6.96611E-19
 -1      2967 9.44347E-05-2.82143E-05-2.83739E-05-1.02326E-06 6.46778E-19-7.68391E-19
 -1      2968 9.49274E-05-2.82333E-05-2.85895E-05-9.01019E-07 6.80294E-19-9.24458E-19
 -1      2969 9.48952E-05-2.84341E-05-2.84879E-05-1.11838E-06 3.58011E-19-9.33663E-19
 -1      2970 9.52406E-05-2.39888E-05-3.05156E-05-5.31202E-06-1.86607E-18-1.28497E-18
 -1      2971 9.51611E-05-2.50056E-05-3.00869E-05-3.81358E-06-1.63298E-18-1.29210E-18
 -1      2972 9.52039E-05-2.46929E-05-3.02188E-05-3.54838E-06-1.54833E-18-1.45248E-18
 -1      2973 9.11876E-05-1.60954E-05-3.22103E-05 4.92483E-06 1.51461E-18-2.79791E-18
 -1      2974 9.08467E-05-1.55972E-05-3.22714E-05 4.00148E-06 1.16956E-18-3.01269E-18
 -1      2975 9.18265E-05-1.72091E-05-3.19636E-05 3.20426E-06 1.06628E-18-2.93315E-18
 -1      2976 9.24907E-05-1.82675E-05-3.17902E-05 4.62401E-06 1.51198E-18-2.43174E-18
 -1      2977 9.49705E-05-2.66878E-05-2.92696E-05 1.79247E-06 1.48313E-18-7.25265E-19
 -1      2978 9.52388E-05-2.61912E-05-2.95548E-05 2.80105E-06 1.66498E-18-6.75096E-19
 -1      2979 9.52677E-05-2.50212E-05-3.01026E-05 3.83330E-06 1.88323E-18-9.74322E-19
 -1      2980 9.52493E-05-2.65017E-05-2.94700E-05 1.74683E-06 1.38637E-18-8.94985E-19
 -1      2981 9.08103E-05-1.55483E-05-3.22767E-05-3.93843E-06-8.88784E-19-3.37176E-18
 -1      2982 9.11434E-05-1.60337E-05-3.22173E-05-4.86388E-06-1.17548E-18-3.26179E-18
 -1      2983 1.33447E-04-3.09391E-05-4.46428E-05-1.33518E-05-1.55515E-18 6.58250E-19
 -1      2984 1.38648E-04-4.25124E-05-4.13359E-05-8.96704E-06-4.69097E-19 1.25414E-18
 -1      2985 9.69766E-05-2.72876E-05-2.98534E-05-8.03530E-06 5.55361E-19 2.77325E-18
 -1      2986 9.62098E-05-2.65234E-05-2.98668E-05-8.58704E-06 6.07574E-19 7.89385E-19
 -1      2987 9.75952E-05-2.78946E-05-2.98694E-05-8.48279E-06 1.00109E-18 2.20517E-18
 -1      2988 1.36934E-04-5.67412E-05-3.42909E-05-3.21732E-06 9.21843E-19-2.55815E-18
 -1      2989 1.38035E-04-5.07244E-05-3.80859E-05 5.24855E-06 2.44051E-20-3.15684E-18
 -1      2990 1.36845E-04-3.99737E-05-4.16397E-05 1.33903E-05 4.60998E-19-2.73878E-18
 -1      2991 1.32320E-04-2.89775E-05-4.48719E-05 1.53902E-05 7.97376E-19-1.57781E-18
 -1      2992 1.38517E-04-4.89865E-05-3.83370E-05 3.49762E-06-1.94023E-18-2.12277E-18
 -1      2993 1.37287E-04-3.93376E-05-4.27846E-05 9.18817E-06-1.99106E-18-2.26687E-18
 -1      2994 1.19753E-04-5.88655E-05-2.57599E-05-2.44389E-05 1.15133E-18-2.07645E-18
 -1      2995 1.31096E-04-5.99713E-05-3.09046E-05-1.42706E-05 1.22767E-18-3.00416E-18
 -1      2996 1.31629E-04-5.75082E-05-3.17120E-05-6.56676E-06 5.83447E-19-2.35528E-18
 -1      2997 3.13787E-05-1.41052E-05-6.80846E-06-9.93935E-06 5.79794E-19-4.31648E-18
 -1      2998 3.89271E-05-1.92575E-05-8.04788E-06-2.40039E-05 9.78535E-19-4.41008E-18
 -1      2999 1.30405E-04-2.05143E-05-4.77719E-05-1.18797E-05 9.98017E-19 4.56339E-20
 -1      3000 1.33390E-04-2.90223E-05-4.52435E-05-1.31957E-05 3.71530E-19-1.20194E-18
 -1      3001 3.32648E-05-1.64731E-05-6.67445E-06 1.80571E-05 9.55241E-19-6.16365E-18
 -1      3002 2.84825E-05-1.33568E-05-5.99078E-06 4.21729E-06 8.39079E-19-4.67859E-18
 -1      3003 1.29371E-04-5.94373E-05-3.01637E-05 1.79856E-05-2.12817E-19 6.58939E-19
 -1      3004 1.17675E-04-5.80301E-05-2.54359E-05 2.60236E-05-1.26631E-19 5.79185E-19
 -1      3005 1.38367E-04-5.17304E-05-3.77325E-05-3.02873E-07 2.06603E-19 3.96200E-19
 -1      3006 1.35079E-04-5.69200E-05-3.35180E-05 8.37679E-06 3.23831E-19 4.96573E-20
 -1      3007 1.30927E-04-5.75641E-05-3.13921E-05 9.29891E-06 1.99079E-19 1.01263E-18
 -1      3008 1.27011E-04-1.10743E-05-5.02529E-05 4.55505E-06-1.49374E-18-1.41333E-18
 -1      3009 3.64550E-05-1.38103E-05-9.19332E-06 3.57933E-06-8.36948E-19-8.06799E-19
 -1      3010 3.64091E-05-1.45982E-05-8.73283E-06-1.10166E-05-4.81671E-19 1.25361E-18
 -1      3011 1.28905E-04-6.00096E-05-2.91997E-05-1.85548E-05 5.19390E-19 1.70508E-18
 -1      3012 1.36095E-04-5.77991E-05-3.41617E-05-8.57125E-06-3.97682E-19-1.29649E-18
 -1      3013 9.43342E-05-2.09704E-05-3.14657E-05-8.02634E-06-2.28790E-18-1.66153E-18
 -1      3014 9.47963E-05-2.27901E-05-3.08706E-05-6.32581E-06-2.09592E-18-1.52151E-18
 -1      3015 9.46093E-05-2.24327E-05-3.09306E-05-5.72756E-06-1.85292E-18-1.60090E-18
 -1      3016 9.35097E-05-1.95908E-05-3.16810E-05-7.84598E-06-2.15816E-18-2.04989E-18
 -1      3017 9.15696E-05-1.66826E-05-3.21157E-05-5.59262E-06-1.34268E-18-3.03611E-18
 -1      3018 9.20852E-05-1.74559E-05-3.20157E-05-6.41495E-06-1.60950E-18-2.77779E-18
 -1      3019 9.24411E-05-1.81923E-05-3.17995E-05-4.58589E-06-1.22219E-18-2.89446E-18
 -1      3020 9.13055E-05-1.64008E-05-3.20900E-05 2.85406E-08 1.37209E-19-3.16828E-18
 -1      3021 9.01821E-05-1.46109E-05-3.24071E-05-3.83947E-07 1.55990E-20-3.37427E-18
 -1      3022 9.02383E-05-1.46910E-05-3.23971E-05-1.34287E-06-1.72591E-19-3.40290E-18
 -1      3023 1.14162E-04-5.59057E-05-2.47152E-05-2.55450E-05 5.95358E-19-2.35275E-18
 -1      3024 9.43520E-05-2.14248E-05-3.12587E-05 7.22688E-06 2.23669E-18-1.23866E-18
 -1      3025 1.34894E-04-4.73321E-05-3.76888E-05-6.79320E-06 3.35372E-20 1.11014E-18
 -1      3026 1.22482E-04-1.55411E-05-4.62367E-05 7.25951E-06-4.86091E-19-1.47357E-18
 -1      3027 9.72376E-05-2.78596E-05-2.97481E-05-9.55847E-06 9.75253E-19 1.15324E-18
 -1      3028 8.26534E-05-4.15783E-05-1.71086E-05-3.54306E-05 1.15345E-18-2.38022E-18
 -1      3029 9.58491E-05-4.84043E-05-1.99637E-05-3.55760E-05 1.57940E-18 4.10530E-18
 -1      3030 4.16312E-05-1.94332E-05-8.85954E-06 2.38533E-05 1.50168E-18-5.52816E-18
 -1      3031 4.28138E-05-1.60734E-05-1.09705E-05 1.79059E-05 1.73954E-18-4.88854E-18
 -1      3032 5.14701E-05-2.32733E-05-1.17854E-05 2.86210E-05 1.97936E-18-3.04847E-18
 -1      3033 1.22570E-04-5.85498E-05-2.72123E-05 2.15252E-05-1.40226E-18-2.15750E-18
 -1      3034 9.45949E-05-2.47773E-05-2.99064E-05 9.98829E-06 2.91519E-19-1.06063E-18
 -1      3035 9.52820E-05-2.56881E-05-2.98168E-05 1.07144E-05-8.96785E-19-6.73666E-19
 -1      3036 9.33996E-05-2.36750E-05-2.99082E-05 1.01243E-05-4.25600E-19-1.88691E-18
 -1      3037 1.22019E-04-1.40626E-05-4.69074E-05-4.50560E-06 1.98968E-18 3.37040E-19
 -1      3038 9.44891E-05-4.77709E-05-1.95860E-05 3.55061E-05-1.05964E-18-3.14472E-18
 -1      3039 9.46135E-05-2.24687E-05-3.09119E-05 5.70292E-06 2.01236E-18-1.40788E-18
 -1      3040 1.34787E-04-5.27502E-05-3.52223E-05-1.11077E-07-1.45708E-18-1.32539E-18
 -1      3041 1.37245E-04-5.44170E-05-3.56544E-05-1.42453E-08-3.35988E-19-2.95392E-18
 -1      3042 9.53635E-05-2.56234E-05-2.98908E-05-8.99670E-06 1.40939E-18 1.05847E-18
 -1      3043 6.62209E-05-3.11975E-05-1.44492E-05-3.35244E-05 9.48518E-19 6.61109E-19
 -1      3044 4.73967E-05-1.72681E-05-1.23241E-05-1.59218E-05 3.17452E-19 6.89273E-19
 -1      3045 1.20340E-04-1.36616E-05-4.60616E-05-6.40108E-06-1.63890E-18-8.11855E-19
 -1      3046 1.22611E-04-5.83753E-05-2.73339E-05-2.13222E-05 9.56512E-19 2.36719E-18
 -1      3047 1.30885E-04-3.31775E-05-4.21543E-05 1.22989E-05-1.32365E-18-1.28198E-18
 -1      3048 7.25551E-05-3.88317E-05-1.39256E-05 3.89997E-05 1.46028E-18-1.52868E-18
 -1      3049 6.70822E-05-3.30381E-05-1.40935E-05 3.59428E-05 1.76723E-18-1.97655E-18
 -1      3050 8.54173E-05-4.37781E-05-1.78076E-05 3.65774E-05 1.48744E-18 5.72753E-19
 -1      3051 1.12028E-04-5.62354E-05-2.36945E-05 2.96515E-05 4.15681E-19 3.45034E-20
 -1      3052 1.03766E-04-5.19148E-05-2.19939E-05 3.17820E-05 8.36127E-19 2.16735E-19
 -1      3053 1.19288E-04-5.68193E-05-2.67279E-05 2.06838E-05-4.01229E-19 1.43481E-18
 -1      3054 1.24257E-04-1.82131E-05-4.62073E-05-1.01241E-05 1.34170E-18 1.11544E-19
 -1      3055 9.62422E-05-2.69777E-05-2.96693E-05-9.86908E-06 4.69549E-19 1.53997E-19
 -1      3056 9.48398E-05-2.54188E-05-2.97638E-05-9.73234E-06 9.79668E-19 1.66269E-18
 -1      3057 9.47108E-05-2.58957E-05-2.94953E-05-1.06033E-05 7.39732E-19 2.54805E-18
 -1      3058 9.68486E-05-2.77697E-05-2.96004E-05-1.02831E-05 6.10029E-19 3.85092E-19
 -1      3059 9.12022E-05-2.17186E-05-2.98094E-05 9.36486E-06-5.82609E-19-1.68600E-18
 -1      3060 9.23622E-05-2.27757E-05-2.98091E-05 9.83797E-06-6.79422E-19-2.26600E-18
 -1      3061 9.25997E-05-2.36523E-05-2.95523E-05 1.07751E-05-4.53111E-19-1.80906E-18
 -1      3062 9.02355E-05-2.17916E-05-2.93194E-05 9.80448E-06-7.33469E-20-6.26338E-19
 -1      3063 1.33967E-04-4.51159E-05-3.81237E-05 1.10196E-05 1.50348E-20-1.68046E-18
 -1      3064 5.22479E-05-2.30862E-05-1.18840E-05-2.65842E-05 4.13405E-19-2.86541E-18
 -1      3065 9.03625E-05-1.48816E-05-3.23691E-05-2.18118E-06-3.50502E-19-3.20478E-18
 -1      3066 9.05459E-05-1.51447E-05-3.23367E-05-3.13318E-06-7.36699E-19-3.30350E-18
 -1      3067 9.17950E-05-1.71662E-05-3.19688E-05-3.14828E-06-7.37081E-19-3.14354E-18
 -1      3068 9.14224E-05-1.65836E-05-3.20611E-05-1.58620E-06-3.25890E-19-3.14242E-18
 -1      3069 1.27727E-04-2.84436E-05-4.28907E-05-1.38092E-05-9.83829E-19 1.24302E-19
 -1      3070 3.69746E-05-1.34276E-05-9.46693E-06-2.97539E-06 6.92674E-19-4.86705E-18
 -1      3071 1.29944E-04-4.22776E-05-3.79170E-05-1.14202E-05-2.43416E-19 7.74506E-19
 -1      3072 1.31545E-04-5.00737E-05-3.49653E-05-4.66562E-06-2.27137E-19 8.48277E-19
 -1      3073 9.42813E-05-2.18630E-05-3.10601E-05 4.97845E-06 1.69056E-18-1.77862E-18
 -1      3074 9.38171E-05-2.09117E-05-3.12465E-05 4.62887E-06 1.58034E-18-2.00430E-18
 -1      3075 9.24386E-05-1.79689E-05-3.19371E-05-6.92798E-06-1.75694E-18-2.49952E-18
 -1      3076 9.30739E-05-1.89486E-05-3.17972E-05-7.43832E-06-1.99088E-18-2.25596E-18
 -1      3077 9.38237E-05-2.05061E-05-3.14013E-05-6.43854E-06-1.81432E-18-2.05130E-18
 -1      3078 9.31985E-05-1.93950E-05-3.16018E-05-5.67546E-06-1.50259E-18-2.43916E-18
 -1      3079 1.35530E-04-3.47986E-05-4.36496E-05-1.30063E-05-5.22302E-19-1.26335E-18
 -1      3080 1.34272E-04-4.00642E-05-4.06276E-05-1.14953E-05-5.94088E-19-1.96485E-18
 -1      3081 1.28248E-04-2.92236E-05-4.27370E-05-1.44196E-05-4.21717E-19 1.05043E-18
 -1      3082 9.56847E-05-2.68785E-05-2.94737E-05-7.54317E-07-1.12436E-18-1.45399E-18
 -1      3083 9.56600E-05-2.73249E-05-2.92946E-05-2.28013E-07-1.03776E-18-1.49093E-18
 -1      3084 9.57045E-05-2.77086E-05-2.91299E-05 1.54306E-07-1.04771E-18-1.53136E-18
 -1      3085 9.56678E-05-2.79925E-05-2.90082E-05 4.72107E-07-1.10637E-18-1.78889E-18
 -1      3086 9.59042E-05-2.73264E-05-2.93935E-05-1.70263E-07-1.13372E-18-1.61306E-18
 -1      3087 9.56600E-05-2.82275E-05-2.88918E-05 6.97383E-07-8.98428E-19-1.74793E-18
 -1      3088 9.56284E-05-2.84043E-05-2.88124E-05 8.70152E-07-6.77536E-19-1.69510E-18
 -1      3089 9.59456E-05-2.80447E-05-2.91040E-05 4.70848E-07-1.04233E-18-1.52976E-18
 -1      3090 9.55959E-05-2.85406E-05-2.87329E-05 9.85316E-07-4.93575E-19-1.71513E-18
 -1      3091 9.55737E-05-2.86452E-05-2.86841E-05 1.06244E-06-4.90753E-19-1.47614E-18
 -1      3092 9.59112E-05-2.84856E-05-2.89001E-05 8.38667E-07-5.57304E-19-1.71105E-18
 -1      3093 9.55310E-05-2.87150E-05-2.86325E-05 1.10557E-06-4.19161E-19-1.27861E-18
 -1      3094 9.55179E-05-2.87698E-05-2.86057E-05 1.12399E-06-2.65033E-19-1.10761E-18
 -1      3095 9.58413E-05-2.87374E-05-2.87618E-05 1.01837E-06-2.96551E-19-1.76170E-18
 -1      3096 9.54722E-05-2.87940E-05-2.85750E-05 1.12454E-06-8.13693E-20-9.01684E-19
 -1      3097 9.54664E-05-2.88136E-05-2.85642E-05 1.11145E-06 5.48440E-20-9.16343E-19
 -1      3098 9.57572E-05-2.88588E-05-2.86733E-05 1.07842E-06-3.98042E-20-1.46701E-18
 -1      3099 9.54212E-05-2.88061E-05-2.85491E-05 1.09167E-06-2.13097E-19-6.86541E-19
 -1      3100 9.54208E-05-2.88004E-05-2.85498E-05 1.06707E-06-2.00102E-19-6.65915E-19
 -1      3101 9.56697E-05-2.88891E-05-2.86223E-05 1.07159E-06-9.64282E-20-1.08859E-18
 -1      3102 9.53772E-05-2.87700E-05-2.85466E-05 1.04366E-06-2.18642E-19-6.85719E-19
 -1      3103 9.53810E-05-2.87453E-05-2.85560E-05 1.02243E-06 1.76647E-20-6.41043E-19
 -1      3104 9.55833E-05-2.88544E-05-2.85997E-05 1.03779E-06-6.36079E-20-6.35443E-19
 -1      3105 9.53388E-05-2.86974E-05-2.85618E-05 1.00807E-06-1.12248E-19-5.95253E-19
 -1      3106 9.53456E-05-2.86578E-05-2.85780E-05 1.00159E-06-1.41249E-19-4.23532E-19
 -1      3107 9.54993E-05-2.87716E-05-2.85988E-05 1.00722E-06 6.95766E-20-6.41841E-19
 -1      3108 9.53038E-05-2.85955E-05-2.85910E-05 1.00628E-06-2.53220E-19-5.17128E-19
 -1      3109 9.53133E-05-2.85432E-05-2.86130E-05 1.02369E-06-1.21223E-20-5.34563E-19
 -1      3110 9.54164E-05-2.86508E-05-2.86148E-05 1.00317E-06-6.19921E-20-1.04548E-18
 -1      3111 9.52700E-05-2.84675E-05-2.86319E-05 1.05569E-06 9.77890E-20-8.18236E-19
 -1      3112 9.52820E-05-2.84037E-05-2.86590E-05 1.10474E-06-3.67293E-19-9.09145E-19
 -1      3113 9.53321E-05-2.84971E-05-2.86442E-05 1.04436E-06-1.49055E-19-6.66712E-19
 -1      3114 9.52351E-05-2.83148E-05-2.86828E-05 1.17138E-06-9.86100E-19-8.43447E-19
 -1      3115 9.52500E-05-2.82402E-05-2.87149E-05 1.25905E-06-1.33054E-18-9.09624E-19
 -1      3116 9.52424E-05-2.83125E-05-2.86845E-05 1.14669E-06-6.91354E-19-1.20452E-18
 -1      3117 9.51971E-05-2.81376E-05-2.87430E-05 1.36713E-06-1.07904E-18-5.09193E-19
 -1      3118 9.52155E-05-2.80526E-05-2.87800E-05 1.49990E-06-8.10396E-19-2.91583E-19
 -1      3119 9.51429E-05-2.80971E-05-2.87339E-05 1.32444E-06-7.79416E-19-8.72413E-19
 -1      3120 9.51541E-05-2.79362E-05-2.88114E-05 1.65594E-06-5.87765E-19-1.89063E-19
 -1      3121 9.51775E-05-2.78424E-05-2.88533E-05 1.83975E-06-4.42425E-19-1.89001E-19
 -1      3122 9.50288E-05-2.78505E-05-2.87904E-05 1.59098E-06-5.71553E-19-9.34520E-19
 -1      3123 9.51058E-05-2.77132E-05-2.88869E-05 2.04990E-06-5.98768E-19-1.65141E-19
 -1      3124 9.51366E-05-2.76138E-05-2.89331E-05 2.28975E-06-1.90387E-19-4.44534E-19
 -1      3125 9.48959E-05-2.75741E-05-2.88516E-05 1.95893E-06-6.29470E-19-4.50485E-19
 -1      3126 9.50540E-05-2.74755E-05-2.89672E-05 2.55947E-06 7.07116E-20-7.19598E-19
 -1      3127 9.50965E-05-2.73773E-05-2.90166E-05 2.85859E-06 5.04923E-19-1.17812E-18
 -1      3128 9.47418E-05-2.72731E-05-2.89142E-05 2.43978E-06-2.37266E-19-9.33989E-19
 -1      3129 9.50052E-05-2.72379E-05-2.90485E-05 3.19200E-06 5.78927E-19-1.42439E-18
 -1      3130 9.50668E-05-2.71533E-05-2.90991E-05 3.55060E-06 6.95695E-19-1.81043E-18
 -1      3131 9.45681E-05-2.69605E-05-2.89735E-05 3.04313E-06 2.03646E-19-1.62331E-18
 -1      3132 9.49742E-05-2.70285E-05-2.91252E-05 3.94956E-06 1.13395E-18-1.53332E-18
 -1      3133 9.50678E-05-2.69785E-05-2.91737E-05 4.36293E-06 8.65668E-19-1.52293E-18
 -1      3134 9.43836E-05-2.66619E-05-2.90224E-05 3.77529E-06 9.46016E-19-1.40069E-18
 -1      3135 9.49902E-05-2.68949E-05-2.91889E-05 4.82581E-06 4.16874E-20-8.17260E-19
 -1      3136 9.51384E-05-2.69137E-05-2.92309E-05 5.28174E-06 1.43526E-19-6.76293E-20
 -1      3137 9.42110E-05-2.64225E-05-2.90516E-05 4.63766E-06 9.80349E-19-1.51327E-18
 -1      3138 9.51067E-05-2.69145E-05-2.92290E-05 5.80160E-06-8.65349E-21 1.95902E-19
 -1      3139 9.53471E-05-2.70545E-05-2.92589E-05 6.27687E-06-1.60518E-19 9.69732E-20
 -1      3140 9.40955E-05-2.63163E-05-2.90491E-05 5.62451E-06 3.32585E-19-8.31126E-19
 -1      3141 9.54159E-05-2.72055E-05-2.92335E-05 6.83860E-06-4.36838E-20 1.84066E-19
 -1      3142 9.58086E-05-2.75426E-05-2.92463E-05 7.29394E-06 4.77020E-19 3.28892E-19
 -1      3143 9.41193E-05-2.64588E-05-2.90017E-05 6.71978E-06 6.83716E-20-1.35516E-19
 -1      3144 9.60680E-05-2.79378E-05-2.91929E-05 7.86871E-06 1.89124E-19 3.80686E-19
 -1      3145 9.67035E-05-2.85744E-05-2.91864E-05 8.24120E-06-1.51190E-19 5.96275E-19
 -1      3146 9.44220E-05-2.70200E-05-2.88976E-05 7.89099E-06 9.33808E-20-5.25493E-19
 -1      3147 9.72929E-05-2.93375E-05-2.91072E-05 8.77452E-06-3.29439E-19 2.54068E-19
 -1      3148 9.82941E-05-3.03942E-05-2.90882E-05 8.96514E-06-3.69702E-19 2.26644E-19
 -1      3149 9.52261E-05-2.82348E-05-2.87332E-05 9.07505E-06-2.79091E-19-4.12601E-19
 -1      3150 9.94140E-05-3.16656E-05-2.90009E-05 9.35005E-06-2.55991E-19 7.56772E-19
 -1      3151 1.00919E-04-3.32462E-05-2.89951E-05 9.20413E-06 1.01917E-19 6.68134E-19
 -1      3152 9.68656E-05-3.03994E-05-2.85271E-05 1.01438E-05-2.33069E-19 2.49253E-19
 -1      3153 1.02818E-04-3.51317E-05-2.89487E-05 9.23160E-06-3.62596E-19 8.49974E-19
 -1      3154 1.04914E-04-3.72298E-05-2.90147E-05 8.51775E-06-1.18275E-19 7.24540E-19
 -1      3155 9.97908E-05-3.38136E-05-2.83449E-05 1.08276E-05-3.05933E-21 1.20759E-18
 -1      3156 1.07816E-04-3.96712E-05-2.91127E-05 7.79690E-06 7.27886E-20 1.08607E-18
 -1      3157 1.10381E-04-4.19539E-05-2.93584E-05 6.21106E-06 1.85813E-19 1.08911E-18
 -1      3158 1.04504E-04-3.86159E-05-2.83404E-05 1.05764E-05 6.20783E-20 1.91889E-18
 -1      3159 1.14252E-04-4.44720E-05-2.97930E-05 4.15471E-06 3.62456E-19 1.36404E-18
 -1      3160 1.16725E-04-4.59645E-05-3.03631E-05 1.50998E-06 7.96840E-19 1.10845E-18
 -1      3161 1.11253E-04-4.42917E-05-2.88192E-05 8.42135E-06 3.32206E-19 2.63493E-18
 -1      3162 1.24150E-04-4.41499E-05-3.44046E-05-9.97019E-06 7.39222E-19 1.31303E-19
 -1      3163 1.23385E-04-3.95619E-05-3.60444E-05-1.24078E-05-3.26134E-19-3.94181E-19
 -1      3164 1.19524E-04-2.65412E-05-4.01880E-05-1.44541E-05-8.56562E-19-6.53089E-19
 -1      3165 1.17252E-04-2.04889E-05-4.18005E-05-1.23761E-05-8.40204E-19-7.28025E-19
 -1      3166 1.15219E-04-1.59539E-05-4.28292E-05-6.69445E-06-1.63308E-18-1.46862E-18
 -1      3167 1.14184E-04-1.37256E-05-4.35530E-05 4.03096E-07-1.02772E-18-2.22669E-18
 -1      3168 1.15058E-04-1.59192E-05-4.28991E-05 6.13268E-06-7.62118E-19-1.30206E-18
 -1      3169 1.18854E-04-2.14126E-05-4.20602E-05 1.18202E-05-6.85038E-19-1.12515E-18
 -1      3170 1.21327E-04-2.82486E-05-4.03516E-05 1.31316E-05-7.58942E-19-7.38295E-19
 -1      3171 1.23537E-04-3.89757E-05-3.62799E-05 1.14464E-05-6.31542E-19-1.55611E-18
 -1      3172 1.24381E-04-4.41119E-05-3.45218E-05 8.73178E-06-1.54346E-18-2.56344E-18
 -1      3173 1.22376E-04-4.65152E-05-3.25443E-05 4.07713E-06-1.39883E-18-2.34520E-18
 -1      3174 1.20973E-04-4.76044E-05-3.13985E-05 5.38583E-07-9.21612E-19-1.95109E-18
 -1      3175 1.26443E-04-4.85025E-05-3.34984E-05 3.83093E-06-9.92756E-19-1.99344E-18
 -1      3176 1.17048E-04-4.64555E-05-3.03163E-05-3.34555E-06-5.52921E-20-1.43025E-18
 -1      3177 1.14571E-04-4.49761E-05-2.97103E-05-6.11461E-06 1.34412E-19-8.60840E-19
 -1      3178 1.19876E-04-4.93439E-05-3.03569E-05-4.69792E-06-1.88379E-19 7.71284E-21
 -1      3179 1.10729E-04-4.24790E-05-2.92884E-05-8.32735E-06-3.18997E-19-7.06545E-19
 -1      3180 1.08121E-04-4.01181E-05-2.90509E-05-9.98689E-06 5.05910E-19-2.52421E-19
 -1      3181 1.12017E-04-4.50644E-05-2.88461E-05-1.04500E-05 5.78697E-19 6.04107E-19
 -1      3182 1.05224E-04-3.75906E-05-2.89924E-05-1.07983E-05 1.52157E-18-3.04601E-19
 -1      3183 1.03060E-04-3.53541E-05-2.89541E-05-1.15420E-05 2.12846E-18-7.86996E-20
 -1      3184 1.05279E-04-3.92451E-05-2.84266E-05-1.28177E-05 1.32294E-18-1.40374E-19
 -1      3185 1.01143E-04-3.33335E-05-2.90656E-05-1.15339E-05 2.04914E-18 1.23126E-21
 -1      3186 9.95535E-05-3.14891E-05-2.91298E-05-1.16612E-05 1.84982E-18 1.31973E-18
 -1      3187 1.00509E-04-3.41190E-05-2.85431E-05-1.31975E-05 2.70313E-18 1.13459E-18
 -1      3188 9.86131E-05-3.01980E-05-2.93144E-05-1.11977E-05 1.43808E-18 8.94181E-19
 -1      3189 9.74802E-05-2.88024E-05-2.94138E-05-1.08944E-05 1.13625E-18 1.47559E-18
 -1      3190 9.63208E-05-2.79394E-05-2.93212E-05-1.12686E-05 2.94387E-19 4.01895E-19
 -1      3191 9.78967E-05-3.04367E-05-2.88947E-05-1.24422E-05 1.65493E-18 1.33448E-18
 -1      3192 9.52336E-05-2.87272E-05-2.85014E-05-1.13806E-06 3.37162E-19-8.46189E-19
 -1      3193 9.52177E-05-2.87007E-05-2.85059E-05-1.15504E-06 4.64451E-19-1.04581E-18
 -1      3194 9.52492E-05-2.86738E-05-2.85316E-05-1.15527E-06 4.45228E-19-1.16204E-18
 -1      3195 9.52435E-05-2.86170E-05-2.85511E-05-1.13901E-06 3.45527E-19-1.11923E-18
 -1      3196 9.55300E-05-2.87763E-05-2.86115E-05-1.12942E-06 4.58470E-19-1.14540E-18
 -1      3197 9.52313E-05-2.86993E-05-2.85116E-05-1.02940E-06 4.35693E-20 4.33982E-19
 -1      3198 9.52044E-05-2.87113E-05-2.84977E-05-1.05683E-06 1.88674E-19-1.37414E-19
 -1      3199 9.52403E-05-2.86394E-05-2.85408E-05-9.95294E-07-2.76762E-20 6.29275E-19
 -1      3200 9.52101E-05-2.86644E-05-2.85208E-05-1.00893E-06 2.75106E-19 7.24303E-19
 -1      3201 9.53818E-05-2.87427E-05-2.85609E-05-1.03359E-06-6.51515E-20 2.05358E-19
 -1      3202 9.52544E-05-2.85562E-05-2.85821E-05-1.00249E-06 1.41230E-19 9.60556E-20
 -1      3203 9.52209E-05-2.85922E-05-2.85569E-05-9.93111E-07 1.90721E-19 5.69459E-19
 -1      3204 9.53421E-05-2.86505E-05-2.85831E-05-1.01631E-06 3.90853E-19-6.34250E-20
 -1      3205 9.52730E-05-2.84517E-05-2.86344E-05-1.06751E-06 7.66598E-19-3.36259E-19
 -1      3206 9.52355E-05-2.84976E-05-2.86041E-05-1.02717E-06 3.34070E-19-1.88991E-19
 -1      3207 9.53040E-05-2.85293E-05-2.86185E-05-1.04354E-06 5.35844E-19-7.13613E-19
 -1      3208 9.52957E-05-2.83260E-05-2.86975E-05-1.20538E-06 3.88116E-19 5.56887E-19
 -1      3209 9.52529E-05-2.83815E-05-2.86617E-05-1.12672E-06 6.52686E-19 1.85329E-19
 -1      3210 9.52648E-05-2.83805E-05-2.86652E-05-1.13196E-06 5.75371E-19-3.56331E-19
 -1      3211 9.53226E-05-2.81781E-05-2.87718E-05-1.43061E-06 4.91108E-20 4.59205E-19
 -1      3212 9.52726E-05-2.82432E-05-2.87299E-05-1.30642E-06 4.91001E-19 5.57255E-19
 -1      3213 9.52211E-05-2.82033E-05-2.87223E-05-1.29684E-06 3.98521E-19 4.27246E-19
 -1      3214 9.53537E-05-2.80072E-05-2.88576E-05-1.75756E-06-5.02679E-19 2.53892E-19
 -1      3215 9.52943E-05-2.80815E-05-2.88090E-05-1.58072E-06-1.13576E-19 3.23271E-19
 -1      3216 9.51692E-05-2.79955E-05-2.87889E-05-1.55282E-06-5.89317E-20 2.44251E-19
 -1      3217 9.53896E-05-2.78134E-05-2.89552E-05-2.20034E-06-1.89250E-19-9.14340E-20
 -1      3218 9.53180E-05-2.78959E-05-2.88993E-05-1.96395E-06-4.09758E-19 1.12157E-19
 -1      3219 9.51048E-05-2.77552E-05-2.88640E-05-1.91429E-06-2.89053E-19-4.18864E-19
 -1      3220 9.54316E-05-2.76003E-05-2.90636E-05-2.77192E-06-3.82897E-19-3.02379E-19
 -1      3221 9.53443E-05-2.76877E-05-2.90005E-05-2.47000E-06-1.45998E-19-5.68147E-20
 -1      3222 9.50236E-05-2.74820E-05-2.89459E-05-2.39520E-06-5.97535E-20-4.27345E-19
 -1      3223 9.54835E-05-2.73775E-05-2.91805E-05-3.48244E-06-3.92262E-19-8.15266E-20
 -1      3224 9.53756E-05-2.74631E-05-2.91109E-05-3.11102E-06-2.44401E-19-2.47699E-20
 -1      3225 9.49224E-05-2.71801E-05-2.90315E-05-3.00833E-06-3.81964E-19-1.85457E-19
 -1      3226 9.55547E-05-2.71664E-05-2.93005E-05-4.33642E-06 2.39114E-19-1.91218E-19
 -1      3227 9.54180E-05-2.72369E-05-2.92267E-05-3.89546E-06-3.17935E-19-1.97070E-19
 -1      3228 9.48010E-05-2.68620E-05-2.91154E-05-3.76392E-06-2.54325E-19-1.12356E-19
 -1      3229 9.56657E-05-2.70077E-05-2.94151E-05-5.32878E-06-4.03600E-19 2.22433E-19
 -1      3230 9.54861E-05-2.70392E-05-2.93410E-05-4.82486E-06 1.10431E-19-6.58104E-20
 -1      3231 9.46667E-05-2.65548E-05-2.91892E-05-4.66778E-06-3.13466E-20-2.07528E-19
 -1      3232 9.58590E-05-2.69738E-05-2.95116E-05-6.43907E-06 4.42815E-19-3.68299E-19
 -1      3233 9.56111E-05-2.69250E-05-2.94432E-05-5.88940E-06 2.43710E-19 5.51767E-20
 -1      3234 9.45415E-05-2.63105E-05-2.92406E-05-5.71899E-06-2.08717E-20-2.53092E-19
 -1      3235 9.62165E-05-2.71850E-05-2.95731E-05-7.62345E-06-9.99831E-19-2.45432E-19
 -1      3236 9.58549E-05-2.69891E-05-2.95185E-05-7.06143E-06-5.63632E-20 1.04219E-19
 -1      3237 9.44762E-05-2.62198E-05-2.92531E-05-6.90696E-06-3.45272E-20 7.86809E-19
 -1      3238 9.68856E-05-2.78300E-05-2.95821E-05-8.80241E-06-1.30519E-18-7.44694E-19
 -1      3239 9.63329E-05-2.73850E-05-2.95494E-05-8.28572E-06-1.37647E-18-7.74095E-19
 -1      3240 9.45720E-05-2.64322E-05-2.92073E-05-8.20725E-06-9.54325E-19 5.34259E-20
 -1      3241 9.81128E-05-2.91815E-05-2.95275E-05-9.83998E-06-1.02031E-18-1.11823E-18
 -1      3242 9.72460E-05-2.83448E-05-2.95206E-05-9.46293E-06-1.17188E-18-9.63181E-19
 -1      3243 9.50137E-05-2.71795E-05-2.90853E-05-9.57296E-06-1.33922E-18-5.95916E-19
 -1      3244 1.00270E-04-3.15857E-05-2.94230E-05-1.05048E-05-6.07328E-19-8.38839E-19
 -1      3245 9.89187E-05-3.01875E-05-2.94315E-05-1.04174E-05-5.71989E-19-1.01835E-18
 -1      3246 9.61148E-05-2.87957E-05-2.88814E-05-1.09129E-05-8.56790E-19-1.66534E-18
 -1      3247 1.03832E-04-3.53569E-05-2.93411E-05-1.03860E-05-3.14355E-19-6.79263E-19
 -1      3248 1.01820E-04-3.32806E-05-2.93231E-05-1.08246E-05-2.53767E-19-3.13908E-19
 -1      3249 9.83684E-05-3.17109E-05-2.86266E-05-1.20301E-05-7.22892E-19-5.33250E-19
 -1      3250 1.09220E-04-4.05207E-05-2.94621E-05-8.82262E-06-7.10542E-19-4.19231E-19
 -1      3251 1.06477E-04-3.78511E-05-2.93207E-05-1.01205E-05-4.41334E-19-2.02339E-19
 -1      3252 1.02433E-04-3.63156E-05-2.84369E-05-1.24776E-05-3.90134E-19-9.36524E-19
 -1      3253 1.16345E-04-4.60809E-05-3.01605E-05-4.80385E-06-1.18528E-18-1.97478E-19
 -1      3254 1.13201E-04-4.35752E-05-2.97081E-05-7.32808E-06-6.93144E-19-4.06874E-19
 -1      3255 1.08953E-04-4.26172E-05-2.85803E-05-1.13778E-05-8.56377E-19-9.60545E-19
 -1      3256 1.23829E-04-4.92200E-05-3.20331E-05 2.43715E-06-1.00728E-18-1.17650E-18
 -1      3257 1.21319E-04-4.86221E-05-3.10255E-05-1.36389E-06-1.31044E-18-7.95212E-19
 -1      3258 1.17965E-04-4.91925E-05-2.96565E-05-7.12458E-06-7.57373E-19-2.40791E-18
 -1      3259 1.24098E-04-2.98143E-05-4.05995E-05 1.53631E-05 8.37345E-19-2.85966E-19
 -1      3260 1.26607E-04-3.74138E-05-3.87528E-05 1.59005E-05 7.31519E-19-3.48554E-19
 -1      3261 1.02566E-04-5.06528E-05-2.24973E-05 3.18416E-05-8.10187E-19-3.13077E-18
 -1      3262 8.92941E-05-4.23622E-05-1.97412E-05 3.34677E-05-7.82394E-19-3.03185E-18
 -1      3263 1.25742E-04-3.39151E-05-3.96956E-05-1.51253E-05-5.00544E-19-2.21817E-19
 -1      3264 1.23090E-04-2.63165E-05-4.17049E-05-1.27235E-05-1.50031E-19-1.22793E-19
 -1      3265 1.27409E-04-4.62323E-05-3.48418E-05-9.34266E-06 1.91244E-20 1.70637E-19
 -1      3266 1.26605E-04-4.11047E-05-3.68172E-05-1.19142E-05-3.28146E-19 1.21258E-19
 -1      3267 1.30556E-04-4.19138E-05-3.81494E-05-1.19430E-05-9.52806E-19-1.34144E-18
 -1      3268 1.22683E-04-4.87355E-05-3.15756E-05 9.54877E-08 1.52934E-18-3.19358E-20
 -1      3269 1.24563E-04-4.80749E-05-3.28729E-05-4.01837E-06 1.28337E-18 8.35095E-19
 -1      3270 1.27234E-04-5.02604E-05-3.31164E-05-2.68914E-06 9.13485E-19-1.39227E-18
 -1      3271 1.15202E-04-4.50083E-05-2.99483E-05 7.26290E-06 1.38360E-18 8.84620E-19
 -1      3272 1.18263E-04-4.68989E-05-3.06067E-05 3.99832E-06 1.34511E-18 5.27953E-19
 -1      3273 1.19286E-04-4.90397E-05-3.02432E-05 6.23523E-06 1.54322E-18 6.51084E-19
 -1      3274 1.08197E-04-3.94359E-05-2.93940E-05 1.12110E-05 1.93226E-18 6.38264E-19
 -1      3275 1.11187E-04-4.20455E-05-2.96329E-05 9.29753E-06 1.77543E-18 6.51514E-19
 -1      3276 1.10881E-04-4.35394E-05-2.90396E-05 1.17141E-05 2.10643E-18 8.93620E-19
 -1      3277 1.03043E-04-3.44934E-05-2.93428E-05 1.27016E-05-9.82241E-19 1.50553E-18
 -1      3278 1.05378E-04-3.67770E-05-2.93867E-05 1.18628E-05 1.05713E-18 8.13222E-19
 -1      3279 1.04362E-04-3.73882E-05-2.88111E-05 1.37212E-05 8.16191E-19 8.34819E-19
 -1      3280 9.96326E-05-3.07861E-05-2.94766E-05 1.26919E-05-2.37882E-18 3.96222E-19
 -1      3281 1.01252E-04-3.24976E-05-2.94536E-05 1.25511E-05-1.81506E-18 2.75705E-19
 -1      3282 9.99919E-05-3.25255E-05-2.89849E-05 1.38963E-05-1.68782E-18 1.15822E-18
 -1      3283 9.59511E-05-2.66606E-05-2.96729E-05 1.13299E-05-6.97638E-19-8.01666E-19
 -1      3284 9.67776E-05-2.76368E-05-2.96246E-05 1.18666E-05-3.54843E-19-7.90927E-19
 -1      3285 9.44160E-05-2.55868E-05-2.95027E-05 1.17486E-05-4.75121E-19-9.58836E-19
 -1      3286 8.65672E-05-2.02492E-05-2.83929E-05-7.21290E-06 2.11466E-19 6.04782E-19
 -1      3287 8.54193E-05-1.94609E-05-2.83122E-05-5.30446E-06 1.03790E-18-7.43238E-19
 -1      3288 1.29558E-04-4.56173E-05-3.60424E-05 1.05615E-05 3.29258E-19-1.62760E-18
 -1      3289 8.45274E-05-1.86766E-05-2.82225E-05-2.72012E-06 1.14500E-18-1.72610E-18
 -1      3290 8.41853E-05-1.84268E-05-2.82038E-05-3.46561E-07 1.05179E-18-1.80762E-18
 -1      3291 8.36931E-05-1.92588E-05-2.75760E-05-4.51579E-06 4.46396E-19-1.52696E-18
 -1      3292 8.92722E-05-4.25413E-05-1.95926E-05-3.40620E-05 1.40787E-18 3.61924E-18
 -1      3293 1.02922E-04-5.05325E-05-2.27216E-05-3.13167E-05 1.40867E-18 4.25131E-18
 -1      3294 9.52103E-05-2.42784E-05-3.04015E-05 4.28299E-06 1.78861E-18-1.15514E-18
 -1      3295 9.46409E-05-2.27313E-05-3.08061E-05 4.78627E-06 1.72127E-18-1.44900E-18
 -1      3296 9.49337E-05-2.35966E-05-3.05679E-05 3.69185E-06 1.45251E-18-1.56044E-18
 -1      3297 9.52405E-05-2.52039E-05-3.00286E-05 3.01274E-06 1.55866E-18-1.08272E-18
 -1      3298 5.06021E-05-1.54572E-05-1.48376E-05-1.09838E-05 9.12810E-20 8.35386E-19
 -1      3299 5.57661E-05-1.99388E-05-1.50270E-05-2.19891E-05 3.54113E-19 1.25043E-18
 -1      3300 4.75727E-05-1.70904E-05-1.25041E-05 1.58455E-05-1.46819E-18-3.34716E-18
 -1      3301 3.81149E-05-1.47821E-05-9.41569E-06 9.95529E-06-9.38486E-19-2.73380E-18
 -1      3302 7.59220E-05-3.42162E-05-1.77883E-05 3.31797E-05-1.16594E-18-4.06904E-18
 -1      3303 6.27340E-05-2.47926E-05-1.59054E-05 2.69643E-05-1.09029E-18-4.06766E-18
 -1      3304 1.16202E-04-5.50238E-05-2.58105E-05-2.31979E-05 1.26080E-18 2.90896E-18
 -1      3305 1.24970E-04-5.71204E-05-2.93904E-05-1.40450E-05 3.72853E-19 8.79617E-19
 -1      3306 9.54124E-05-2.73457E-05-2.91785E-05 2.83308E-07 8.51859E-19-9.93362E-19
 -1      3307 9.54765E-05-2.69401E-05-2.93567E-05 8.45017E-07 9.70133E-19-9.08299E-19
 -1      3308 8.97519E-05-2.26970E-05-2.86967E-05-1.01862E-05 3.88886E-19-1.18725E-18
 -1      3309 8.81498E-05-2.15900E-05-2.85747E-05-8.99339E-06 6.51665E-20-3.25632E-19
 -1      3310 8.65403E-05-2.14508E-05-2.78863E-05-9.03288E-06 8.65874E-19-2.84727E-19
 -1      3311 9.31776E-05-2.52739E-05-2.90639E-05-1.12517E-05 1.55710E-18 3.02941E-18
 -1      3312 9.15874E-05-2.41640E-05-2.89276E-05-1.09598E-05 9.85172E-19 1.40382E-18
 -1      3313 9.04395E-05-2.43209E-05-2.83548E-05-1.15954E-05 1.47876E-18 2.17168E-20
 -1      3314 1.26173E-04-2.41644E-05-4.42945E-05 1.47449E-05 1.38469E-18-8.23422E-19
 -1      3315 1.06463E-04-5.08456E-05-2.34169E-05-2.68723E-05 1.12285E-19-1.74226E-18
 -1      3316 1.17845E-04-5.53570E-05-2.70247E-05-1.88170E-05-1.25943E-19-1.21349E-18
 -1      3317 9.52285E-05-2.87313E-05-2.84970E-05-1.08523E-06 3.55909E-19-2.89249E-19
 -1      3318 9.52059E-05-2.87268E-05-2.84909E-05-1.11498E-06 3.98869E-19-5.23045E-19
 -1      3319 9.54747E-05-2.88177E-05-2.85694E-05-1.11835E-06 2.00242E-19-7.96609E-19
 -1      3320 9.54255E-05-2.88015E-05-2.85548E-05-1.07576E-06-1.20572E-20-4.82623E-20
 -1      3321 9.53721E-05-2.79523E-05-2.88981E-05-4.67798E-07 8.12079E-19-1.01477E-18
 -1      3322 9.54265E-05-2.76963E-05-2.90141E-05-1.35133E-07 9.18973E-19-8.69031E-19
 -1      3323 9.56951E-05-2.73324E-05-2.93035E-05 2.32208E-07 8.72874E-19-1.06954E-18
 -1      3324 7.77465E-05-3.56865E-05-1.75598E-05-3.25092E-05 8.60374E-19-1.37749E-18
 -1      3325 9.33878E-05-4.52861E-05-2.07681E-05-3.21650E-05 5.84347E-19-2.33559E-18
 -1      3326 1.01118E-04-4.58895E-05-2.34000E-05-2.56564E-05 3.41195E-20-1.55598E-18
 -1      3327 1.34857E-04-4.85302E-05-3.73395E-05-7.80718E-06-2.86244E-19-2.37804E-18
 -1      3328 6.38624E-05-2.64663E-05-1.57324E-05-2.89179E-05-3.63483E-19 1.03804E-18
 -1      3329 7.66382E-05-3.54104E-05-1.75959E-05-3.43470E-05 1.32190E-19 1.67326E-18
 -1      3330 8.62782E-05-3.79104E-05-2.03993E-05-3.06858E-05 3.54907E-19 2.89129E-18
 -1      3331 9.49785E-05-2.35005E-05-3.06130E-05-4.13825E-06-1.47017E-18-1.74136E-18
 -1      3332 9.51682E-05-2.46009E-05-3.02602E-05-2.98406E-06-1.37244E-18-1.75628E-18
 -1      3333 9.55051E-05-2.55693E-05-2.99560E-05-2.15113E-06-1.20727E-18-1.60636E-18
 -1      3334 9.55391E-05-2.62690E-05-2.97002E-05-1.34462E-06-1.11767E-18-1.61641E-18
 -1      3335 9.57136E-05-2.62004E-05-2.97925E-05-1.18013E-06-1.06896E-18-1.66664E-18
 -1      3336 1.25386E-04-5.55623E-05-2.96721E-05-9.13098E-06-1.37683E-19-1.57699E-18
 -1      3337 1.28270E-04-5.32424E-05-3.23863E-05-5.17405E-07-4.94029E-19-2.09345E-18
 -1      3338 1.26700E-04-5.80537E-05-2.96771E-05 1.32649E-05-8.76388E-19-2.30999E-18
 -1      3339 1.16023E-04-5.55217E-05-2.55518E-05 2.41845E-05-5.89932E-19-1.95035E-18
 -1      3340 1.10706E-04-5.14386E-05-2.52209E-05 2.40182E-05-4.11817E-19-1.92311E-18
 -1      3341 1.29653E-04-5.45670E-05-3.23995E-05 3.27881E-06-6.02187E-21 3.59671E-19
 -1      3342 1.25786E-04-5.63335E-05-2.97015E-05 1.10399E-05-4.37856E-19 1.09299E-18
 -1      3343 4.12728E-05-1.24078E-05-1.18847E-05 4.85450E-06 1.64184E-18-4.30325E-18
 -1      3344 4.34371E-05-1.32418E-05-1.25813E-05-8.27445E-06 8.76891E-19-4.01303E-18
 -1      3345 4.38405E-05-1.37392E-05-1.24497E-05 1.66327E-06 6.13239E-20-9.83935E-19
 -1      3346 9.23895E-05-1.83492E-05-3.17468E-05 1.81498E-06 7.01380E-19-3.03268E-18
 -1      3347 9.22703E-05-1.81471E-05-3.17790E-05 1.05975E-06 4.12005E-19-3.07650E-18
 -1      3348 5.09865E-05-1.85531E-05-1.35134E-05-2.09886E-05 2.81374E-19-3.15901E-18
 -1      3349 6.21144E-05-2.68751E-05-1.49907E-05-2.99523E-05 6.41680E-19-7.89964E-19
 -1      3350 1.32163E-04-5.38051E-05-3.36197E-05 3.27227E-07-5.62509E-19-2.61032E-18
 -1      3351 1.29042E-04-4.98815E-05-3.40222E-05 6.60551E-06-6.38974E-19-1.96541E-18
 -1      3352 5.42510E-05-1.92569E-05-1.46708E-05 2.07318E-05-1.56582E-18-3.81080E-18
 -1      3353 5.03622E-05-1.58720E-05-1.45414E-05 1.21597E-05-1.57077E-18-2.88134E-18
 -1      3354 4.91046E-05-1.40505E-05-1.47178E-05 4.56566E-06-1.43204E-18-2.01647E-18
 -1      3355 4.86804E-05-1.36789E-05-1.46573E-05-1.72418E-06-4.95524E-19-5.24737E-19
 -1      3356 9.22115E-05-1.80472E-05-3.17975E-05 4.09504E-07 2.44965E-19-2.99663E-18
 -1      3357 9.22078E-05-1.80418E-05-3.17981E-05-3.61674E-07 4.73500E-20-3.03575E-18
 -1      3358 9.31632E-05-1.96308E-05-3.14972E-05 6.31102E-07 3.08529E-19-2.91907E-18
 -1      3359 9.43464E-05-2.19860E-05-3.09909E-05 3.63418E-06 1.29909E-18-2.04564E-18
 -1      3360 9.34407E-05-2.02166E-05-3.14064E-05 4.25245E-06 1.48213E-18-2.30393E-18
 -1      3361 9.30848E-05-1.95571E-05-3.15207E-05 3.65908E-06 1.19164E-18-2.41279E-18
 -1      3362 9.27990E-05-1.90586E-05-3.16222E-05 3.13085E-06 1.13104E-18-2.63230E-18
 -1      3363 9.25628E-05-1.86442E-05-3.16902E-05 2.42801E-06 8.93700E-19-2.80551E-18
 -1      3364 9.33762E-05-2.00194E-05-3.14201E-05 1.80767E-06 7.10651E-19-2.74569E-18
 -1      3365 9.37837E-05-2.07997E-05-3.12582E-05 2.85181E-06 1.06730E-18-2.40941E-18
 -1      3366 5.51524E-05-1.56549E-05-1.66083E-05 8.84117E-06-1.80240E-18-2.94746E-18
 -1      3367 6.66217E-05-2.40405E-05-1.78583E-05-2.33881E-05-3.19437E-19 1.11724E-18
 -1      3368 1.24957E-04-3.55637E-05-3.84915E-05-1.50100E-05-3.78624E-19-6.07852E-19
 -1      3369 1.22449E-04-4.57818E-05-3.29317E-05-6.53148E-06 6.61592E-19 8.16924E-20
 -1      3370 1.26395E-04-4.78787E-05-3.36989E-05-6.22929E-06 4.26693E-19 5.05189E-19
 -1      3371 1.29539E-04-5.24376E-05-3.31378E-05-8.52775E-07-1.08416E-19 7.18469E-19
 -1      3372 1.21161E-04-4.70895E-05-3.17366E-05-3.05999E-06 1.14527E-18 1.79975E-19
 -1      3373 7.53491E-05-3.11110E-05-1.85563E-05-2.80557E-05 5.72938E-19-1.55256E-18
 -1      3374 1.22603E-04-5.30026E-05-2.98184E-05-8.61165E-06 5.63277E-20-8.21506E-19
 -1      3375 1.28396E-04-5.47594E-05-3.14978E-05-5.03499E-06-1.24378E-19-6.74688E-19
 -1      3376 1.09509E-04-5.06023E-05-2.50852E-05-2.41375E-05 1.40300E-18 3.28342E-18
 -1      3377 1.25561E-04-3.77700E-05-3.77146E-05 1.24473E-05-1.25488E-18-9.81738E-19
 -1      3378 9.30547E-05-1.95092E-05-3.15290E-05-3.61776E-06-1.00516E-18-2.82071E-18
 -1      3379 9.34205E-05-2.01679E-05-3.14167E-05-4.23555E-06-1.23614E-18-2.62808E-18
 -1      3380 6.21888E-05-2.78101E-05-1.41538E-05 3.17681E-05 1.67961E-18-2.16459E-18
 -1      3381 5.90491E-05-2.32863E-05-1.50087E-05 2.66449E-05 1.57262E-18-2.65354E-18
 -1      3382 7.30730E-05-3.29242E-05-1.71133E-05 3.21294E-05 1.63536E-18-1.28442E-18
 -1      3383 9.55903E-05-2.86537E-05-2.86906E-05-1.06635E-06 4.86351E-19-1.19349E-18
 -1      3384 9.52777E-05-2.85507E-05-2.85974E-05-1.09276E-06 3.83463E-19-1.05122E-18
 -1      3385 9.52873E-05-2.84510E-05-2.86386E-05-1.01507E-06 3.53948E-19-1.10853E-18
 -1      3386 8.28148E-05-1.85497E-05-2.75069E-05 1.13832E-06 8.81574E-19-8.54392E-19
 -1      3387 8.43287E-05-1.85215E-05-2.82326E-05 2.47364E-06 6.84861E-19-1.93235E-18
 -1      3388 8.49213E-05-1.89050E-05-2.82849E-05 4.77075E-06 4.89947E-19-1.06111E-18
 -1      3389 5.60959E-05-1.57479E-05-1.69392E-05-7.60965E-06-4.37718E-19 2.85503E-19
 -1      3390 9.52424E-05-2.44756E-05-3.03277E-05-2.63860E-06-1.29728E-18-1.81542E-18
 -1      3391 8.62321E-05-3.72402E-05-2.06281E-05 2.97359E-05-1.04725E-18-3.10504E-18
 -1      3392 1.18247E-04-5.21127E-05-2.82906E-05-1.25250E-05-1.90569E-19-1.30419E-18
 -1      3393 9.78033E-05-2.88881E-05-2.95355E-05 1.23063E-05-9.83269E-19-4.17891E-19
 -1      3394 8.60535E-05-1.98231E-05-2.84299E-05 7.18696E-06-3.24964E-20-7.99227E-19
 -1      3395 8.74034E-05-2.07279E-05-2.85491E-05 8.93045E-06-1.72880E-19-4.33490E-20
 -1      3396 8.43030E-05-1.95898E-05-2.77020E-05 6.60740E-06 6.14285E-19-6.32998E-19
 -1      3397 6.55177E-05-2.32891E-05-1.77045E-05 2.28661E-05-9.16172E-19-3.91446E-18
 -1      3398 9.52776E-05-2.71231E-05-2.91968E-05-1.14455E-05 1.65239E-19 1.52217E-18
 -1      3399 9.41088E-05-2.61239E-05-2.91563E-05-1.14048E-05 8.69337E-19 3.18026E-18
 -1      3400 9.35606E-05-2.66261E-05-2.87021E-05-1.22761E-05 1.89874E-18 2.49942E-18
 -1      3401 9.58522E-05-2.83166E-05-2.89625E-05-1.21609E-05 4.67566E-19 1.41829E-18
 -1      3402 1.20041E-04-4.88162E-05-3.05516E-05 2.11820E-06 4.64320E-19 2.29337E-18
 -1      3403 9.27695E-05-1.90116E-05-3.16285E-05-3.09148E-06-8.44700E-19-3.04477E-18
 -1      3404 9.37502E-05-2.07602E-05-3.12667E-05-2.80944E-06-8.72161E-19-2.75861E-18
 -1      3405 9.25410E-05-1.86114E-05-3.16949E-05-2.37772E-06-6.13453E-19-2.99441E-18
 -1      3406 8.73148E-05-2.17039E-05-2.81148E-05 1.03433E-05-6.48510E-21-5.54555E-19
 -1      3407 8.88337E-05-2.18284E-05-2.87703E-05 1.01889E-05-1.67095E-19-1.00840E-18
 -1      3408 9.03377E-05-2.27801E-05-2.89163E-05 1.11043E-05-5.54261E-20-2.12208E-18
 -1      3409 5.09022E-05-1.62418E-05-1.46081E-05 1.60908E-05 1.90604E-18-4.77854E-18
 -1      3410 4.50498E-05-1.36526E-05-1.29452E-05 1.02826E-05 1.64331E-18-5.04090E-18
 -1      3411 4.99857E-05-1.33321E-05-1.54894E-05 4.91231E-06 1.74285E-18-4.51278E-18
 -1      3412 9.78608E-05-4.82311E-05-2.08584E-05 3.28358E-05 9.52489E-19 4.48980E-19
 -1      3413 9.03652E-05-4.27408E-05-2.01405E-05 3.24693E-05 1.08987E-18-2.98950E-19
 -1      3414 1.06933E-04-5.13603E-05-2.39579E-05 2.64645E-05 3.51360E-19 2.81215E-19
 -1      3415 1.22393E-04-5.62308E-05-2.83721E-05 1.50662E-05-7.72812E-19 1.82900E-18
 -1      3416 1.17239E-04-5.39351E-05-2.68148E-05 1.84101E-05-6.97982E-19 1.42507E-18
 -1      3417 1.22827E-04-5.39919E-05-2.95372E-05 8.82783E-06-4.03009E-19 1.31380E-18
 -1      3418 9.53506E-05-2.81645E-05-2.87852E-05-7.12448E-07 7.37690E-19-9.71068E-19
 -1      3419 9.56959E-05-2.80024E-05-2.90164E-05-4.71128E-07 7.39915E-19-1.18896E-18
 -1      3420 9.53202E-05-2.83266E-05-2.87131E-05-8.90605E-07 4.70366E-19-1.08945E-18
 -1      3421 5.07000E-05-1.56347E-05-1.45834E-05-1.40425E-05 2.61746E-19-3.66622E-18
 -1      3422 5.86974E-05-1.86696E-05-1.71496E-05-1.80451E-05 6.49502E-20-2.49912E-18
 -1      3423 5.25157E-05-1.38592E-05-1.63469E-05-6.74644E-06 6.84284E-19-3.07113E-18
 -1      3424 9.53825E-05-2.65010E-05-2.95306E-05 1.37762E-06 1.15376E-18-9.83123E-19
 -1      3425 9.54229E-05-2.58811E-05-2.97902E-05 2.24445E-06 1.33637E-18-9.88291E-19
 -1      3426 9.53435E-05-2.51639E-05-3.00716E-05 2.62318E-06 1.33802E-18-1.18792E-18
 -1      3427 9.55900E-05-2.64070E-05-2.96552E-05 1.24785E-06 1.08731E-18-1.05002E-18
 -1      3428 1.28955E-04-5.56301E-05-3.13995E-05 5.44173E-06-4.37678E-20-1.94865E-18
 -1      3429 1.22818E-04-5.35161E-05-2.97388E-05 9.67647E-06 1.24788E-18-1.16439E-18
 -1      3430 1.30842E-04-5.46821E-05-3.26076E-05-3.50544E-06-3.16009E-19-1.27359E-18
 -1      3431 1.31374E-04-4.81180E-05-3.59936E-05 5.68278E-06-1.92623E-18-2.13087E-18
 -1      3432 9.42628E-05-2.18428E-05-3.10559E-05-5.44439E-06-1.60713E-18-1.86202E-18
 -1      3433 9.42063E-05-2.17436E-05-3.10652E-05-4.77642E-06-1.51584E-18-2.01671E-18
 -1      3434 9.39444E-05-2.12682E-05-3.11567E-05-4.41012E-06-1.33533E-18-2.25837E-18
 -1      3435 9.60469E-05-2.69099E-05-2.96205E-05-4.52906E-07-9.58600E-19-1.77747E-18
 -1      3436 9.60952E-05-2.74018E-05-2.94475E-05-3.77534E-08-1.06226E-18-1.63570E-18
 -1      3437 9.61775E-05-2.78192E-05-2.92889E-05 2.43473E-07-1.05114E-18-1.56040E-18
 -1      3438 9.61731E-05-2.81336E-05-2.91642E-05 4.99561E-07-8.40795E-19-1.53872E-18
 -1      3439 9.62837E-05-2.74512E-05-2.94999E-05 1.24672E-08-8.99919E-19-1.66444E-18
 -1      3440 9.61809E-05-2.83908E-05-2.90473E-05 6.65242E-07-7.87713E-19-1.46401E-18
 -1      3441 9.61505E-05-2.85819E-05-2.89601E-05 8.06584E-07-4.92640E-19-1.57774E-18
 -1      3442 9.63734E-05-2.82005E-05-2.92185E-05 4.79966E-07-8.22193E-19-1.33046E-18
 -1      3443 9.61146E-05-2.87271E-05-2.88765E-05 8.89913E-07-3.53687E-19-1.69682E-18
 -1      3444 9.60731E-05-2.88319E-05-2.88182E-05 9.54353E-07-3.36078E-19-1.64569E-18
 -1      3445 9.63471E-05-2.86563E-05-2.90124E-05 7.48181E-07-5.29049E-19-1.44121E-18
 -1      3446 9.60130E-05-2.88989E-05-2.87609E-05 9.84060E-07-6.48341E-20-1.71232E-18
 -1      3447 9.59678E-05-2.89429E-05-2.87244E-05 1.00156E-06 2.41973E-19-1.40784E-18
 -1      3448 9.62536E-05-2.89037E-05-2.88664E-05 8.78180E-07-2.03070E-19-1.63316E-18
 -1      3449 9.58953E-05-2.89550E-05-2.86876E-05 1.00072E-06 7.59664E-20-1.48008E-18
 -1      3450 9.58502E-05-2.89557E-05-2.86678E-05 9.94235E-07-1.96822E-19-1.46555E-18
 -1      3451 9.61236E-05-2.90032E-05-2.87679E-05 9.21453E-07-4.69437E-21-1.78984E-18
 -1      3452 9.57717E-05-2.89286E-05-2.86469E-05 9.80726E-07-1.75740E-19-1.28398E-18
 -1      3453 9.57279E-05-2.88976E-05-2.86398E-05 9.67636E-07 1.20004E-19-1.14483E-18
 -1      3454 9.59750E-05-2.89973E-05-2.87065E-05 9.18952E-07-7.52099E-20-1.82851E-18
 -1      3455 9.56463E-05-2.88415E-05-2.86312E-05 9.55186E-07 1.38160E-19-1.35258E-18
 -1      3456 9.56037E-05-2.87864E-05-2.86339E-05 9.48763E-07 5.08976E-20-1.41936E-18
 -1      3457 9.58171E-05-2.89145E-05-2.86739E-05 9.02420E-07 3.32454E-20-1.78514E-18
 -1      3458 9.55191E-05-2.87073E-05-2.86349E-05 9.48071E-07-2.96401E-20-1.32237E-18
 -1      3459 9.54766E-05-2.86323E-05-2.86453E-05 9.58744E-07-5.37002E-20-1.38074E-18
 -1      3460 9.56528E-05-2.87730E-05-2.86637E-05 8.96425E-07 1.39079E-19-1.76069E-18
 -1      3461 9.53871E-05-2.85330E-05-2.86536E-05 9.78471E-07-1.13775E-19-1.20336E-18
 -1      3462 9.53430E-05-2.84401E-05-2.86701E-05 1.01481E-06-2.13401E-19-1.42018E-18
 -1      3463 9.54804E-05-2.85829E-05-2.86709E-05 9.20441E-07 1.78603E-19-1.79460E-18
 -1      3464 9.52453E-05-2.83216E-05-2.86841E-05 1.06235E-06-4.16636E-19-1.46787E-18
 -1      3465 9.51975E-05-2.82114E-05-2.87056E-05 1.13180E-06-5.83860E-19-1.34266E-18
 -1      3466 9.52949E-05-2.83488E-05-2.86911E-05 9.90552E-07-5.06991E-19-1.91851E-18
 -1      3467 9.50870E-05-2.80730E-05-2.87235E-05 1.21389E-06-8.78059E-19-1.02807E-18
 -1      3468 9.50330E-05-2.79454E-05-2.87488E-05 1.32324E-06-8.32715E-19-9.53702E-19
 -1      3469 9.50884E-05-2.80715E-05-2.87209E-05 1.12080E-06-3.47815E-19-1.56210E-18
 -1      3470 9.49047E-05-2.77861E-05-2.87691E-05 1.44635E-06-7.78065E-19-9.91139E-19
 -1      3471 9.48421E-05-2.76411E-05-2.87971E-05 1.60197E-06-6.49588E-19-1.14125E-18
 -1      3472 9.48516E-05-2.77497E-05-2.87567E-05 1.32421E-06-9.08287E-19-1.13198E-18
 -1      3473 9.46906E-05-2.74605E-05-2.88177E-05 1.77250E-06-3.36496E-19-1.04364E-18
 -1      3474 9.46175E-05-2.72995E-05-2.88469E-05 1.98028E-06-3.63617E-19-1.05616E-18
 -1      3475 9.45741E-05-2.73822E-05-2.87946E-05 1.61336E-06-4.93192E-19-9.79319E-19
 -1      3476 9.44380E-05-2.70992E-05-2.88651E-05 2.20459E-06-7.74631E-19-5.90246E-19
 -1      3477 9.43539E-05-2.69265E-05-2.88934E-05 2.46974E-06-3.47974E-19-7.13894E-19
 -1      3478 9.42455E-05-2.69702E-05-2.88296E-05 2.00063E-06-2.88391E-19-3.14112E-19
 -1      3479 9.41430E-05-2.67115E-05-2.89058E-05 2.75416E-06-8.66533E-20-1.12212E-18
 -1      3480 9.40502E-05-2.65362E-05-2.89299E-05 3.08072E-06 3.56303E-19-1.26004E-18
 -1      3481 9.38575E-05-2.65207E-05-2.88552E-05 2.49841E-06-3.91416E-19-6.10383E-19
 -1      3482 9.38081E-05-2.63179E-05-2.89318E-05 3.43156E-06 7.64985E-19-1.44185E-18
 -1      3483 9.37138E-05-2.61571E-05-2.89475E-05 3.82183E-06 9.53540E-19-1.54602E-18
 -1      3484 9.34067E-05-2.60506E-05-2.88628E-05 3.11920E-06 2.62119E-19-1.30432E-18
 -1      3485 9.34468E-05-2.59563E-05-2.89326E-05 4.24559E-06 9.62147E-19-1.39454E-18
 -1      3486 9.33675E-05-2.58388E-05-2.89342E-05 4.69953E-06 9.19328E-19-1.30526E-18
 -1      3487 9.28986E-05-2.55925E-05-2.88410E-05 3.87621E-06 1.01002E-18-1.25509E-18
 -1      3488 9.30924E-05-2.56903E-05-2.88950E-05 5.20344E-06 7.24143E-19-1.68432E-18
 -1      3489 9.30591E-05-2.56622E-05-2.88757E-05 5.71795E-06 3.68025E-19-1.28155E-18
 -1      3490 9.23547E-05-2.52027E-05-2.87752E-05 4.78474E-06 6.97302E-19-1.52063E-18
 -1      3491 9.28102E-05-2.56211E-05-2.88032E-05 6.31090E-06 2.21679E-19-7.87343E-19
 -1      3492 9.28778E-05-2.57528E-05-2.87558E-05 6.87868E-06 4.13086E-19-8.21785E-19
 -1      3493 9.18233E-05-2.49711E-05-2.86481E-05 5.86480E-06 6.24312E-19-1.69906E-18
 -1      3494 9.27175E-05-2.59014E-05-2.86413E-05 7.57174E-06 2.57574E-19-6.29215E-19
 -1      3495 9.29767E-05-2.62952E-05-2.85606E-05 8.17840E-06 1.05529E-19-6.26380E-19
 -1      3496 9.13958E-05-2.50360E-05-2.84408E-05 7.14450E-06 4.52624E-19-1.29768E-18
 -1      3497 9.30116E-05-2.67516E-05-2.83979E-05 8.98257E-06-2.83236E-19-2.25520E-19
 -1      3498 9.36042E-05-2.75481E-05-2.82851E-05 9.59848E-06-3.95996E-19-2.51609E-19
 -1      3499 9.12327E-05-2.56010E-05-2.81363E-05 8.66169E-06 5.69670E-20-3.39089E-19
 -1      3500 9.40091E-05-2.84726E-05-2.80768E-05 1.05142E-05-2.10929E-19-1.95813E-19
 -1      3501 9.51415E-05-2.98508E-05-2.79483E-05 1.10735E-05 7.80858E-20 4.41301E-21
 -1      3502 9.16012E-05-2.69552E-05-2.77279E-05 1.04570E-05 1.75970E-20-7.14502E-19
 -1      3503 9.61992E-05-3.14458E-05-2.77183E-05 1.20450E-05 4.04806E-19 4.55334E-19
 -1      3504 9.81362E-05-3.35879E-05-2.76227E-05 1.23944E-05 6.56896E-19 9.17738E-19
 -1      3505 9.29435E-05-2.95031E-05-2.72361E-05 1.25331E-05 6.12394E-19 4.89016E-19
 -1      3506 1.00247E-04-3.60432E-05-2.74413E-05 1.32287E-05 2.39575E-19 1.06625E-18
 -1      3507 1.03229E-04-3.90375E-05-2.74826E-05 1.30589E-05 4.94366E-19 1.39718E-18
 -1      3508 9.59205E-05-3.37053E-05-2.67478E-05 1.47141E-05 8.60883E-19 3.62100E-19
 -1      3509 1.06935E-04-4.23541E-05-2.75164E-05 1.31220E-05 6.78205E-19 1.69551E-18
 -1      3510 1.10817E-04-4.58337E-05-2.78730E-05 1.19670E-05 5.82838E-19 2.16796E-18
 -1      3511 1.01544E-04-4.01164E-05-2.64785E-05 1.64092E-05 6.09705E-19 5.31824E-19
 -1      3512 7.06604E-05-2.52991E-05-1.89949E-05-2.40089E-05 1.18532E-19-1.42095E-18
 -1      3513 8.28919E-05-3.38914E-05-2.11746E-05-2.67007E-05 1.35393E-19-1.55436E-18
 -1      3514 1.18391E-04-5.10095E-05-2.86511E-05-1.20146E-05 5.36753E-19 5.54254E-19
 -1      3515 1.02593E-04-4.47651E-05-2.44492E-05-2.48132E-05 1.50740E-18 3.68402E-18
 -1      3516 1.11973E-04-4.95783E-05-2.69485E-05-1.85734E-05 1.24338E-18 1.54033E-18
 -1      3517 1.11617E-04-4.66907E-05-2.78144E-05-1.43699E-05 5.28866E-19 1.07696E-18
 -1      3518 9.59104E-05-2.73754E-05-2.93796E-05 1.02965E-07 7.41788E-19-1.34024E-18
 -1      3519 9.58932E-05-2.69080E-05-2.95538E-05 5.62714E-07 8.13087E-19-1.32344E-18
 -1      3520 1.07666E-04-4.31724E-05-2.74726E-05-1.56537E-05 6.08332E-19 1.13748E-18
 -1      3521 1.04088E-04-3.96972E-05-2.75390E-05-1.54861E-05 7.72877E-19 7.75830E-19
 -1      3522 1.01061E-04-3.65728E-05-2.75518E-05-1.57022E-05 1.69535E-18 1.02322E-18
 -1      3523 1.01981E-04-4.08160E-05-2.64390E-05-1.91803E-05 5.86815E-19 2.74593E-18
 -1      3524 9.91772E-05-3.40613E-05-2.78411E-05-1.47082E-05 2.89978E-18 1.25233E-18
 -1      3525 9.72990E-05-3.17105E-05-2.80090E-05-1.44989E-05 3.12658E-18 3.42369E-19
 -1      3526 9.66632E-05-3.39944E-05-2.68963E-05-1.72497E-05 2.02520E-18 1.62991E-18
 -1      3527 9.57809E-05-2.88715E-05-2.86749E-05-1.06603E-06 1.84583E-19-8.13660E-19
 -1      3528 9.58118E-05-2.88226E-05-2.87071E-05-1.04862E-06 4.28852E-19-9.56973E-19
 -1      3529 9.54327E-05-2.86489E-05-2.86192E-05-9.89202E-07 4.14433E-19-3.94597E-19
 -1      3530 9.54528E-05-2.87086E-05-2.86060E-05-9.85151E-07 2.41173E-19-2.72677E-19
 -1      3531 9.55186E-05-2.87741E-05-2.86026E-05-9.91254E-07 6.98567E-21-5.08768E-20
 -1      3532 9.55403E-05-2.88157E-05-2.85968E-05-1.00385E-06-6.49515E-21-2.13623E-19
 -1      3533 9.55973E-05-2.87774E-05-2.86382E-05-9.56098E-07 4.30827E-19-6.72816E-20
 -1      3534 9.52489E-05-2.82962E-05-2.86910E-05-1.13918E-06 2.50153E-19-1.76045E-19
 -1      3535 9.52700E-05-2.83880E-05-2.86662E-05-1.07581E-06 3.30644E-19-7.09053E-19
 -1      3536 9.51401E-05-2.80674E-05-2.87421E-05-1.32163E-06 1.12410E-19 4.31890E-19
 -1      3537 9.51645E-05-2.81760E-05-2.87125E-05-1.21725E-06 3.43702E-19 3.34436E-19
 -1      3538 9.51655E-05-2.81725E-05-2.87110E-05-1.15290E-06-4.16118E-20-3.32354E-19
 -1      3539 9.50110E-05-2.78001E-05-2.88010E-05-1.59455E-06 1.51416E-19 1.51840E-20
 -1      3540 9.50407E-05-2.79265E-05-2.87671E-05-1.44210E-06 3.34917E-19 3.83101E-19
 -1      3541 9.49832E-05-2.78863E-05-2.87550E-05-1.35166E-06 3.46356E-19 3.23228E-19
 -1      3542 9.48532E-05-2.74911E-05-2.88653E-05-1.97152E-06 1.47454E-19-7.77773E-19
 -1      3543 9.48905E-05-2.76361E-05-2.88280E-05-1.76414E-06 3.03580E-19-4.80034E-19
 -1      3544 9.47652E-05-2.75525E-05-2.88039E-05-1.63974E-06 6.39483E-19-5.56435E-19
 -1      3545 9.46581E-05-2.71398E-05-2.89318E-05-2.46567E-06-9.93682E-20-3.21709E-19
 -1      3546 9.47052E-05-2.73027E-05-2.88925E-05-2.19695E-06 1.05341E-19-5.84366E-19
 -1      3547 9.44991E-05-2.71673E-05-2.88541E-05-2.03007E-06 6.29325E-20-9.17906E-19
 -1      3548 9.44180E-05-2.67505E-05-2.89953E-05-3.08898E-06-6.19134E-19-2.23922E-19
 -1      3549 9.44761E-05-2.69273E-05-2.89562E-05-2.75347E-06-3.31567E-19-4.12738E-19
 -1      3550 9.41720E-05-2.67302E-05-2.89003E-05-2.53518E-06-1.94725E-19-8.29880E-19
 -1      3551 9.41287E-05-2.63371E-05-2.90479E-05-3.85147E-06-2.38801E-19-4.20711E-19
 -1      3552 9.41965E-05-2.65186E-05-2.90128E-05-3.44535E-06-3.29755E-19-4.37939E-19
 -1      3553 9.37720E-05-2.62468E-05-2.89350E-05-3.16694E-06-2.70796E-19-1.05593E-18
 -1      3554 9.37942E-05-2.59301E-05-2.90781E-05-4.76040E-06-2.11803E-19-3.05019E-19
 -1      3555 9.38652E-05-2.60975E-05-2.90524E-05-4.28231E-06-1.75199E-19-5.28706E-19
 -1      3556 9.32906E-05-2.57340E-05-2.89473E-05-3.93670E-06-1.46376E-19-7.22343E-19
 -1      3557 9.34358E-05-2.55869E-05-2.90702E-05-5.81992E-06-1.19816E-19-1.15970E-19
 -1      3558 9.34929E-05-2.57061E-05-2.90616E-05-5.27181E-06-1.61423E-19-4.22056E-19
 -1      3559 9.27284E-05-2.52276E-05-2.89226E-05-4.85618E-06-1.82534E-19-3.89534E-19
 -1      3560 9.31069E-05-2.54069E-05-2.90038E-05-7.03167E-06-5.70496E-19 5.12863E-19
 -1      3561 9.31133E-05-2.54204E-05-2.90220E-05-6.41948E-06-3.34833E-19 1.50652E-19
 -1      3562 9.21040E-05-2.47929E-05-2.88409E-05-5.94021E-06-6.08216E-19-1.70093E-19
 -1      3563 9.29176E-05-2.55528E-05-2.88555E-05-8.39578E-06-1.02406E-18-3.36942E-20
 -1      3564 9.28029E-05-2.53678E-05-2.89110E-05-7.73070E-06-6.07275E-19 5.56564E-19
 -1      3565 9.14693E-05-2.45417E-05-2.86778E-05-7.21210E-06-6.21480E-19 1.02168E-19
 -1      3566 9.30720E-05-2.62767E-05-2.86038E-05-9.90932E-06-8.36130E-19-2.04652E-19
 -1      3567 9.27118E-05-2.57515E-05-2.87048E-05-9.21144E-06-9.32650E-19 3.21672E-19
 -1      3568 9.09353E-05-2.46539E-05-2.84050E-05-8.71129E-06-7.16429E-19 4.48318E-19
 -1      3569 9.39228E-05-2.79471E-05-2.82402E-05-1.15517E-05-1.16159E-18-1.01688E-18
 -1      3570 9.31103E-05-2.68787E-05-2.83852E-05-1.08630E-05-7.35392E-19-8.85259E-19
 -1      3571 9.07133E-05-2.54077E-05-2.79966E-05-1.04998E-05-3.92432E-19-3.57011E-19
 -1      3572 9.60444E-05-3.10699E-05-2.77966E-05-1.32357E-05-5.77342E-19-1.15519E-18
 -1      3573 9.44591E-05-2.91841E-05-2.79568E-05-1.26545E-05-1.12262E-18-1.33717E-18
 -1      3574 9.11782E-05-2.72166E-05-2.74399E-05-1.26534E-05-9.75410E-19-1.49315E-18
 -1      3575 1.00254E-04-3.61493E-05-2.74009E-05-1.46612E-05-5.40635E-19-1.10133E-18
 -1      3576 9.75061E-05-3.32170E-05-2.74911E-05-1.43947E-05-3.15869E-19-9.38488E-19
 -1      3577 9.29551E-05-3.06665E-05-2.67664E-05-1.51959E-05-8.81800E-19-2.29053E-18
 -1      3578 1.07477E-04-4.34706E-05-2.73710E-05-1.47209E-05-1.11357E-18-1.23676E-18
 -1      3579 1.03320E-04-3.95187E-05-2.71962E-05-1.54108E-05-9.61473E-19-1.11870E-18
 -1      3580 9.73677E-05-3.67338E-05-2.61748E-05-1.78871E-05-9.81099E-19-1.04396E-18
 -1      3581 1.12848E-04-4.83140E-05-2.74374E-05-1.49509E-05-6.17914E-19-1.31013E-18
 -1      3582 6.66662E-05-2.14542E-05-1.92701E-05-1.90957E-05 1.51050E-19 1.23947E-18
 -1      3583 7.43963E-05-2.77816E-05-1.99453E-05-2.56340E-05-5.18014E-19 2.45348E-19
 -1      3584 8.21335E-05-3.29469E-05-2.08661E-05-2.76919E-05-1.79518E-19 1.45645E-18
 -1      3585 9.22870E-05-4.00571E-05-2.25360E-05-2.82337E-05 1.14152E-18 3.23500E-18
 -1      3586 8.21601E-05-3.02077E-05-2.20660E-05-2.36514E-05-9.17443E-20 1.11809E-18
 -1      3587 1.06331E-04-4.11073E-05-2.77978E-05 1.59885E-05 1.69647E-18 6.20979E-19
 -1      3588 1.10258E-04-4.49677E-05-2.79766E-05 1.49468E-05 1.84878E-18 4.30423E-19
 -1      3589 1.00266E-04-3.47698E-05-2.79977E-05 1.59027E-05 5.33845E-19 6.22815E-19
 -1      3590 1.03039E-04-3.77591E-05-2.79328E-05 1.57478E-05 1.48060E-18 3.58675E-19
 -1      3591 1.01074E-04-3.87672E-05-2.68815E-05 1.86677E-05 1.56481E-18 5.88628E-19
 -1      3592 9.68713E-05-3.02564E-05-2.84788E-05 1.47878E-05-1.40839E-18 8.33467E-20
 -1      3593 9.85758E-05-3.24174E-05-2.83081E-05 1.50738E-05-1.35975E-19 9.48983E-19
 -1      3594 9.63345E-05-3.25143E-05-2.74139E-05 1.70945E-05 4.75033E-19 4.23156E-19
 -1      3595 9.65749E-05-2.85480E-05-2.92112E-05 1.31660E-05-6.32385E-19-1.61589E-18
 -1      3596 9.31247E-05-2.47013E-05-2.93525E-05 1.15862E-05 1.90020E-20-2.03503E-18
 -1      3597 9.15616E-05-2.60465E-05-2.80103E-05-1.31647E-05 3.00292E-18 1.57003E-18
 -1      3598 8.91191E-05-2.45648E-05-2.77282E-05-1.23653E-05 1.66954E-18-3.80658E-19
 -1      3599 1.21037E-04-2.19818E-05-4.27159E-05-1.17850E-05 7.56506E-19 2.94000E-19
 -1      3600 8.23275E-05-1.96241E-05-2.68410E-05-6.63866E-06 8.04919E-19-1.13944E-18
 -1      3601 8.10405E-05-1.87785E-05-2.67210E-05-3.90498E-06 3.60992E-19-1.32575E-18
 -1      3602 9.38402E-05-4.03775E-05-2.30086E-05 2.76150E-05 3.18431E-20-1.89923E-18
 -1      3603 8.28798E-05-3.25390E-05-2.13315E-05 2.68560E-05 1.96300E-19-1.70735E-18
 -1      3604 5.90714E-05-1.50893E-05-1.87368E-05-2.71502E-06-6.30877E-19-1.42262E-18
 -1      3605 6.14059E-05-1.69520E-05-1.89744E-05-1.13900E-05-1.76474E-19 2.61760E-19
 -1      3606 7.19518E-05-2.57706E-05-1.98306E-05 2.40279E-05-7.00430E-19-3.88163E-18
 -1      3607 6.43295E-05-2.02018E-05-1.87233E-05 1.80533E-05-1.25212E-18-3.27701E-18
 -1      3608 6.07108E-05-1.73106E-05-1.84500E-05 1.31136E-05-1.48003E-18-2.74272E-18
 -1      3609 5.87349E-05-1.54368E-05-1.85080E-05 5.60378E-06-1.23221E-18-2.81938E-18
 -1      3610 6.77488E-05-1.95534E-05-2.04439E-05 1.44750E-05-1.08717E-18-1.98934E-18
 -1      3611 1.18223E-04-5.09374E-05-2.87002E-05 1.27675E-05 1.45435E-18-6.80877E-19
 -1      3612 9.57014E-05-2.55273E-05-3.00628E-05-1.51287E-06-1.00544E-18-2.05291E-18
 -1      3613 9.58407E-05-2.62637E-05-2.98299E-05-8.88817E-07-9.38149E-19-2.00921E-18
 -1      3614 9.59956E-05-2.62846E-05-2.98732E-05-7.20323E-07-8.96197E-19-2.01072E-18
 -1      3615 8.65685E-05-2.26181E-05-2.73465E-05-1.10886E-05 9.25997E-19-5.73296E-19
 -1      3616 8.43756E-05-2.12778E-05-2.71109E-05-9.28574E-06 1.14436E-18 6.03805E-20
 -1      3617 8.21809E-05-2.07856E-05-2.62639E-05-9.01174E-06 1.24120E-18-3.50722E-19
 -1      3618 8.72809E-05-2.44182E-05-2.69618E-05-1.29511E-05 1.51647E-18 1.89883E-19
 -1      3619 9.53444E-05-2.84894E-05-2.86494E-05-1.03324E-06 6.33251E-19-7.99987E-19
 -1      3620 9.53642E-05-2.85652E-05-2.86300E-05-1.00348E-06 6.74567E-19-3.62102E-19
 -1      3621 9.54645E-05-2.86165E-05-2.86498E-05-9.69690E-07 5.95644E-19-4.60830E-19
 -1      3622 9.53229E-05-2.84150E-05-2.86751E-05-1.03026E-06 4.92713E-19-5.40332E-19
 -1      3623 9.22630E-05-1.81348E-05-3.17808E-05-1.00951E-06-1.89044E-19-2.94629E-18
 -1      3624 9.23733E-05-1.83245E-05-3.17499E-05-1.76727E-06-5.64732E-19-2.84651E-18
 -1      3625 9.33515E-05-1.99942E-05-3.14249E-05-1.75828E-06-6.08025E-19-2.89230E-18
 -1      3626 9.59194E-05-3.99894E-05-2.36265E-05-2.39300E-05-3.77161E-19-1.35960E-18
 -1      3627 1.05014E-04-4.53386E-05-2.57804E-05-2.01241E-05-4.76383E-19-9.87283E-19
 -1      3628 9.44621E-05-2.23127E-05-3.09100E-05-3.44072E-06-1.22066E-18-2.31148E-18
 -1      3629 9.21780E-05-2.48225E-05-2.88620E-05 1.22761E-05 2.66197E-19-2.25454E-18
 -1      3630 9.33320E-05-2.62909E-05-2.86708E-05 1.33665E-05 3.90403E-19-2.00173E-18
 -1      3631 9.49017E-05-2.83587E-05-2.85022E-05 1.41507E-05-7.74000E-19-8.42847E-19
 -1      3632 9.27506E-05-2.79219E-05-2.78354E-05 1.51097E-05 2.19325E-19-1.94968E-18
 -1      3633 8.97950E-05-2.43476E-05-2.81215E-05 1.29987E-05 6.63308E-20-2.02627E-18
 -1      3634 1.11859E-04-4.89762E-05-2.70945E-05 1.84994E-05 1.20087E-18-1.21155E-18
 -1      3635 1.02197E-04-4.37886E-05-2.47349E-05 2.41910E-05 7.13475E-19-1.06159E-18
 -1      3636 1.25260E-04-5.19398E-05-3.14349E-05 1.58850E-06 1.39578E-19 9.53289E-19
 -1      3637 9.49300E-05-2.35055E-05-3.06232E-05 3.05538E-06 1.19992E-18-1.89684E-18
 -1      3638 9.46776E-05-2.28265E-05-3.07923E-05 2.82254E-06 1.03881E-18-2.08675E-18
 -1      3639 9.05525E-05-3.47533E-05-2.37592E-05-2.17327E-05-7.05261E-19-9.33986E-19
 -1      3640 1.12065E-04-4.85842E-05-2.73004E-05 1.50526E-05 2.67302E-19 1.44409E-18
 -1      3641 1.17483E-04-4.98480E-05-2.87805E-05 9.25837E-06 4.54279E-20 2.00360E-18
 -1      3642 6.78967E-05-2.17260E-05-1.96015E-05-1.84208E-05-2.46381E-19-2.06980E-18
 -1      3643 9.58755E-05-2.62629E-05-2.98335E-05 8.98738E-07 8.30910E-19-1.54743E-18
 -1      3644 9.57158E-05-2.62705E-05-2.97703E-05 1.07266E-06 9.02598E-19-1.36110E-18
 -1      3645 9.82685E-05-4.02802E-05-2.46571E-05-2.31666E-05 8.79300E-19 2.63727E-18
 -1      3646 9.59762E-05-2.77764E-05-2.92195E-05-2.21216E-07 7.09753E-19-1.39093E-18
 -1      3647 9.61223E-05-2.74046E-05-2.94520E-05 4.82137E-08 7.92253E-19-1.43096E-18
 -1      3648 9.59590E-05-2.80767E-05-2.90968E-05-5.02952E-07 7.57150E-19-1.32820E-18
 -1      3649 8.44280E-05-3.80845E-05-1.94864E-05 3.15734E-05 1.45351E-18-3.76903E-19
 -1      3650 7.84705E-05-3.28899E-05-1.93773E-05 2.88910E-05 1.13706E-18-8.59686E-19
 -1      3651 9.40758E-05-4.24651E-05-2.21346E-05 2.81803E-05 1.23100E-18-6.75893E-19
 -1      3652 8.56887E-05-2.17346E-05-2.74679E-05 1.08034E-05 4.17282E-19-2.56060E-19
 -1      3653 8.77320E-05-2.28450E-05-2.77331E-05 1.20547E-05 5.79597E-20-8.76563E-19
 -1      3654 8.84071E-05-2.43337E-05-2.74884E-05 1.35621E-05 1.00902E-18-1.24612E-18
 -1      3655 9.24116E-05-2.89140E-05-2.73040E-05-1.52362E-05 3.31626E-18 1.55006E-18
 -1      3656 9.47483E-05-2.93987E-05-2.80147E-05-1.39066E-05 3.33520E-18 6.54639E-19
 -1      3657 9.60821E-05-2.88352E-05-2.88226E-05-9.51594E-07 6.84812E-20-1.20481E-18
 -1      3658 9.58638E-05-2.87542E-05-2.87618E-05-1.01364E-06 4.51038E-19-1.30219E-18
 -1      3659 9.58967E-05-2.86495E-05-2.88159E-05-9.44240E-07 2.61488E-19-1.42852E-18
 -1      3660 9.57205E-05-2.88891E-05-2.86408E-05-1.06536E-06 1.17143E-19-4.69261E-19
 -1      3661 9.59730E-05-2.89446E-05-2.87287E-05-1.00110E-06 1.42963E-20-4.05530E-19
 -1      3662 9.56928E-05-2.88983E-05-2.86249E-05-1.05564E-06-1.55297E-19-1.41657E-19
 -1      3663 6.52117E-05-2.32943E-05-1.78754E-05 2.33769E-05 1.12653E-18-2.74433E-18
 -1      3664 5.72804E-05-1.90948E-05-1.59107E-05 2.04654E-05 1.51150E-18-4.13723E-18
 -1      3665 5.79414E-05-1.68245E-05-1.74854E-05 1.45023E-05 1.34412E-18-5.12603E-18
 -1      3666 8.05220E-05-1.83433E-05-2.66674E-05-2.30458E-07 5.75087E-19-1.62998E-18
 -1      3667 8.07515E-05-1.84337E-05-2.67048E-05 2.67735E-06 9.57255E-19-1.39112E-18
 -1      3668 7.88830E-05-1.84035E-05-2.58887E-05-2.42530E-06 1.13633E-18-1.61784E-18
 -1      3669 9.57258E-05-2.88934E-05-2.86439E-05-9.72020E-07 1.93150E-19-3.73180E-19
 -1      3670 9.56049E-05-2.88604E-05-2.86030E-05-1.02097E-06 1.04360E-19-8.71991E-20
 -1      3671 9.56292E-05-2.88801E-05-2.86066E-05-1.03919E-06 6.16659E-20-7.59051E-20
 -1      3672 6.90919E-05-2.00468E-05-2.07840E-05-1.41741E-05-3.59655E-19 3.50936E-19
 -1      3673 6.39386E-05-1.61385E-05-2.03114E-05 1.45086E-06-8.26978E-20-1.53910E-18
 -1      3674 8.16791E-05-1.91569E-05-2.68530E-05 6.09780E-06 1.40859E-18-4.20869E-20
 -1      3675 8.32707E-05-2.00818E-05-2.70421E-05 8.66437E-06 8.33052E-19-9.93874E-20
 -1      3676 7.95688E-05-1.87691E-05-2.60059E-05 4.84403E-06 8.10786E-19-1.15604E-18
 -1      3677 9.86379E-05-3.95560E-05-2.52037E-05 2.23840E-05 1.29335E-18-4.54916E-19
 -1      3678 9.54091E-05-2.88017E-05-2.85763E-05-1.28947E-05 2.18288E-18 1.39439E-18
 -1      3679 8.08974E-05-2.89858E-05-2.20547E-05 2.30837E-05 2.06597E-19-1.45393E-18
 -1      3680 8.33301E-05-2.12392E-05-2.66142E-05 1.07018E-05 1.18957E-18-1.35734E-19
 -1      3681 1.30859E-04-4.45916E-05-3.72051E-05 9.05263E-06-2.24413E-18-2.02478E-18
 -1      3682 5.44274E-05-1.38316E-05-1.72707E-05 3.50550E-06 1.08342E-18-4.09260E-18
 -1      3683 5.25111E-05-1.29254E-05-1.65390E-05-1.74860E-06 1.17433E-18-3.54912E-18
 -1      3684 5.71241E-05-1.46422E-05-1.81337E-05-6.79937E-06 3.91157E-19-2.31298E-18
 -1      3685 9.53229E-05-2.47832E-05-3.02352E-05 2.76526E-06 1.27097E-18-1.49061E-18
 -1      3686 9.50654E-05-2.39357E-05-3.04781E-05 2.99571E-06 1.25017E-18-1.68559E-18
 -1      3687 9.53377E-05-2.46379E-05-3.02977E-05 2.20004E-06 1.09220E-18-1.71386E-18
 -1      3688 9.54751E-05-2.54840E-05-2.99999E-05 1.98716E-06 1.19982E-18-1.37792E-18
 -1      3689 9.56501E-05-2.84141E-05-2.88197E-05-8.72060E-07 5.49240E-19-1.17339E-18
 -1      3690 9.38871E-05-2.10558E-05-3.12249E-05 8.09167E-07 3.93384E-19-2.72772E-18
 -1      3691 9.38369E-05-2.09531E-05-3.12442E-05 2.49961E-07 1.35421E-19-2.74217E-18
 -1      3692 9.56043E-05-2.56901E-05-2.99561E-05 1.65707E-06 1.09866E-18-1.38398E-18
 -1      3693 9.41098E-05-2.15220E-05-3.11241E-05 1.76884E-06 7.36735E-19-2.49495E-18
 -1      3694 9.39731E-05-2.12267E-05-3.11837E-05 1.24958E-06 4.88937E-19-2.70749E-18
 -1      3695 9.46288E-05-2.23904E-05-3.09422E-05 8.31980E-07 3.52539E-19-2.51271E-18
 -1      3696 1.20314E-04-5.07520E-05-2.98364E-05 6.28930E-06 9.66279E-20 2.19839E-18
 -1      3697 9.49465E-05-2.34509E-05-3.06411E-05-2.96199E-06-1.25493E-18-2.20111E-18
 -1      3698 9.52913E-05-2.45495E-05-3.03324E-05-2.09957E-06-1.14266E-18-2.08489E-18
 -1      3699 9.45013E-05-2.23898E-05-3.08972E-05-2.86661E-06-1.02569E-18-2.47655E-18
 -1      3700 1.28219E-04-4.79636E-05-3.45367E-05 5.23011E-06-1.64703E-18-2.45451E-18
 -1      3701 9.54246E-05-2.46038E-05-3.03557E-05-1.76547E-06-1.04595E-18-2.24514E-18
 -1      3702 9.40895E-05-2.14816E-05-3.11187E-05-2.09409E-06-7.39567E-19-2.70893E-18
 -1      3703 9.43085E-05-2.19646E-05-3.10172E-05-2.51324E-06-8.96877E-19-2.73668E-18
 -1      3704 9.48513E-05-2.30457E-05-3.07585E-05-2.13498E-06-9.27229E-19-2.53985E-18
 -1      3705 9.31537E-05-1.96215E-05-3.14988E-05-5.80032E-07-5.99862E-20-2.76493E-18
 -1      3706 8.76855E-05-3.09859E-05-2.41974E-05-1.97989E-05-5.31419E-19-1.34844E-18
 -1      3707 9.44775E-05-2.23462E-05-3.09314E-05 2.56324E-06 1.00391E-18-2.20490E-18
 -1      3708 9.42651E-05-2.18538E-05-3.10380E-05 2.14482E-06 7.98582E-19-2.33579E-18
 -1      3709 9.48327E-05-2.28964E-05-3.08129E-05 1.55447E-06 6.54451E-19-2.24835E-18
 -1      3710 9.65311E-05-2.80026E-05-2.93648E-05 2.98582E-07-7.04786E-19-1.53741E-18
 -1      3711 9.65410E-05-2.83179E-05-2.92421E-05 4.84486E-07-7.50866E-19-1.43046E-18
 -1      3712 9.65460E-05-2.85703E-05-2.91288E-05 5.89637E-07-6.47452E-19-1.41523E-18
 -1      3713 9.65116E-05-2.87559E-05-2.90398E-05 6.92391E-07-4.38359E-19-1.49339E-18
 -1      3714 9.66785E-05-2.83974E-05-2.92637E-05 4.37397E-07-6.21543E-19-1.50465E-18
 -1      3715 9.64641E-05-2.88919E-05-2.89570E-05 7.42648E-07-2.71633E-19-1.50284E-18
 -1      3716 9.64049E-05-2.89842E-05-2.88949E-05 7.89826E-07-9.37047E-20-1.61527E-18
 -1      3717 9.66357E-05-2.88229E-05-2.90638E-05 6.06816E-07-4.05692E-19-1.66663E-18
 -1      3718 9.63261E-05-2.90368E-05-2.88367E-05 8.05378E-07 1.50150E-20-1.35279E-18
 -1      3719 9.62540E-05-2.90624E-05-2.87958E-05 8.19521E-07 4.78605E-20-1.40418E-18
 -1      3720 9.65103E-05-2.90355E-05-2.89193E-05 6.86587E-07-9.53569E-20-1.56561E-18
 -1      3721 9.61572E-05-2.90554E-05-2.87572E-05 8.16773E-07 4.29416E-20-1.32957E-18
 -1      3722 9.60788E-05-2.90326E-05-2.87329E-05 8.15591E-07 1.75802E-21-1.17793E-18
 -1      3723 9.63362E-05-2.90942E-05-2.88196E-05 7.12158E-07 1.13187E-19-1.06517E-18
 -1      3724 9.59715E-05-2.89819E-05-2.87098E-05 8.07457E-07-2.33724E-19-1.22973E-18
 -1      3725 9.58897E-05-2.89231E-05-2.86984E-05 8.04670E-07-6.80522E-20-1.50769E-18
 -1      3726 9.61340E-05-2.90412E-05-2.87555E-05 7.12176E-07-1.42125E-19-8.99309E-19
 -1      3727 9.57747E-05-2.88390E-05-2.86875E-05 8.01226E-07 1.55468E-19-1.85563E-18
 -1      3728 9.56897E-05-2.87515E-05-2.86860E-05 8.07545E-07 1.92765E-19-1.84352E-18
 -1      3729 9.59139E-05-2.89045E-05-2.87193E-05 7.09213E-07-1.17933E-19-1.15013E-18
 -1      3730 9.55666E-05-2.86397E-05-2.86843E-05 8.16882E-07 1.90312E-19-1.66352E-18
 -1      3731 9.54765E-05-2.85275E-05-2.86906E-05 8.40972E-07-6.36629E-21-1.79295E-18
 -1      3732 9.56782E-05-2.87014E-05-2.87048E-05 7.21083E-07 3.01342E-19-1.59343E-18
 -1      3733 9.53421E-05-2.83904E-05-2.86956E-05 8.69829E-07-2.31090E-19-1.77209E-18
 -1      3734 9.52436E-05-2.82549E-05-2.87075E-05 9.18954E-07-4.23027E-19-1.61638E-18
 -1      3735 9.54232E-05-2.84409E-05-2.87066E-05 7.62390E-07-9.80599E-20-1.72494E-18
 -1      3736 9.50927E-05-2.80925E-05-2.87171E-05 9.73291E-07-2.70838E-19-1.43396E-18
 -1      3737 9.49814E-05-2.79334E-05-2.87329E-05 1.05398E-06-2.92322E-19-1.27357E-18
 -1      3738 9.51407E-05-2.81261E-05-2.87197E-05 8.45428E-07-6.45174E-20-1.49163E-18
 -1      3739 9.48072E-05-2.77445E-05-2.87448E-05 1.13953E-06-4.48688E-19-1.34022E-18
 -1      3740 9.46780E-05-2.75610E-05-2.87624E-05 1.25791E-06-5.57318E-19-1.06089E-18
 -1      3741 9.48187E-05-2.77559E-05-2.87396E-05 9.81525E-07-3.14129E-19-1.25261E-18
 -1      3742 9.44728E-05-2.73440E-05-2.87740E-05 1.38043E-06-3.79742E-19-1.04913E-18
 -1      3743 9.43202E-05-2.71358E-05-2.87912E-05 1.54241E-06-1.41925E-20-6.70159E-19
 -1      3744 9.44429E-05-2.73276E-05-2.87611E-05 1.18168E-06-2.04466E-21-1.37912E-18
 -1      3745 9.40756E-05-2.68901E-05-2.87993E-05 1.70796E-06 1.04821E-19-5.11420E-19
 -1      3746 9.38948E-05-2.66587E-05-2.88132E-05 1.91940E-06-1.96626E-19-3.30642E-19
 -1      3747 9.39972E-05-2.68392E-05-2.87783E-05 1.45705E-06-1.43693E-20-7.15154E-19
 -1      3748 9.36029E-05-2.63865E-05-2.88138E-05 2.13462E-06-8.80419E-19-2.92765E-19
 -1      3749 9.33905E-05-2.61371E-05-2.88204E-05 2.40138E-06-3.80070E-19-4.89452E-19
 -1      3750 9.34653E-05-2.62921E-05-2.87837E-05 1.81965E-06-3.43880E-19-5.79267E-19
 -1      3751 9.30448E-05-2.58447E-05-2.88081E-05 2.67397E-06 1.66641E-19-4.19442E-19
 -1      3752 9.28008E-05-2.55885E-05-2.88023E-05 3.00219E-06 4.68930E-19-7.96620E-19
 -1      3753 9.28327E-05-2.56941E-05-2.87675E-05 2.28313E-06-9.37910E-20-3.74151E-19
 -1      3754 9.23975E-05-2.52892E-05-2.87702E-05 3.34174E-06 7.80905E-19-1.17696E-18
 -1      3755 9.21280E-05-2.50467E-05-2.87453E-05 3.73840E-06 8.93497E-19-1.22197E-18
 -1      3756 9.20885E-05-2.50643E-05-2.87173E-05 2.86422E-06 4.48010E-19-6.45248E-19
 -1      3757 9.16686E-05-2.47641E-05-2.86846E-05 4.15804E-06 6.76747E-19-1.45076E-18
 -1      3758 9.13902E-05-2.45690E-05-2.86321E-05 4.63223E-06 6.34420E-19-1.77780E-18
 -1      3759 9.12300E-05-2.44380E-05-2.86166E-05 3.58550E-06 5.60657E-19-1.80816E-18
 -1      3760 9.08847E-05-2.43410E-05-2.85318E-05 5.15153E-06 8.03927E-19-1.83091E-18
 -1      3761 9.06309E-05-2.42459E-05-2.84421E-05 5.71659E-06 8.80921E-19-1.60807E-18
 -1      3762 9.02669E-05-2.38736E-05-2.84449E-05 4.48041E-06 9.45489E-19-1.68250E-18
 -1      3763 9.01035E-05-2.41306E-05-2.82891E-05 6.36616E-06 9.28710E-19-1.27669E-18
 -1      3764 8.99359E-05-2.42151E-05-2.81520E-05 7.04237E-06 9.47603E-19-6.33996E-19
 -1      3765 8.92302E-05-2.34614E-05-2.81773E-05 5.60178E-06 8.84096E-19-1.59887E-18
 -1      3766 8.94341E-05-2.42984E-05-2.79320E-05 7.86948E-06 3.29038E-20-7.86676E-19
 -1      3767 8.94583E-05-2.46794E-05-2.77392E-05 8.68532E-06-1.97122E-19-7.16907E-19
 -1      3768 8.81857E-05-2.33375E-05-2.77845E-05 7.03438E-06 3.33214E-19-1.17284E-18
 -1      3769 8.90700E-05-2.50856E-05-2.74384E-05 9.75803E-06 3.17720E-21-7.78339E-19
 -1      3770 8.94619E-05-2.59294E-05-2.71892E-05 1.07445E-05 2.87172E-19-3.09773E-19
 -1      3771 8.72589E-05-2.37037E-05-2.72352E-05 8.90831E-06-1.53943E-19-1.20542E-18
 -1      3772 8.93421E-05-2.68369E-05-2.67984E-05 1.21654E-05 6.18419E-19 1.39565E-19
 -1      3773 9.03926E-05-2.83899E-05-2.65098E-05 1.33304E-05 1.21371E-18 5.08469E-19
 -1      3774 8.66650E-05-2.48427E-05-2.65009E-05 1.14175E-05 6.72504E-19-8.38378E-19
 -1      3775 9.08949E-05-3.01135E-05-2.60374E-05 1.51706E-05 7.69413E-19 1.68469E-19
 -1      3776 9.30424E-05-3.26741E-05-2.57740E-05 1.63759E-05 8.76965E-19-4.07846E-20
 -1      3777 8.68657E-05-2.72466E-05-2.55630E-05 1.48732E-05 7.68754E-19-7.94980E-19
 -1      3778 9.60206E-05-2.63875E-05-2.98507E-05 6.23304E-07 6.56858E-19-1.73181E-18
 -1      3779 9.58379E-05-2.56627E-05-3.00710E-05 1.14794E-06 7.23753E-19-1.80080E-18
 -1      3780 9.43123E-05-3.60625E-05-2.48802E-05-2.18200E-05 5.46895E-19 3.15707E-18
 -1      3781 9.52993E-05-2.42026E-05-3.04788E-05-1.54168E-06-8.58418E-19-2.39344E-18
 -1      3782 9.09893E-05-2.90941E-05-2.65724E-05-1.63486E-05 2.24255E-18 1.83249E-18
 -1      3783 8.91610E-05-2.65968E-05-2.66802E-05-1.50165E-05 2.53276E-18 1.89924E-18
 -1      3784 8.56276E-05-2.46067E-05-2.62441E-05-1.38690E-05 1.45008E-18 1.22259E-18
 -1      3785 9.28886E-05-3.16700E-05-2.61817E-05-1.75987E-05 1.15949E-18 2.78389E-18
 -1      3786 9.66071E-05-2.95948E-05-2.87122E-05-1.28357E-05 1.31263E-18 1.96360E-18
 -1      3787 9.38212E-05-2.09232E-05-3.12461E-05-1.12745E-06-3.51567E-19-2.63908E-18
 -1      3788 9.39535E-05-2.12035E-05-3.11911E-05-1.65631E-06-5.77036E-19-2.71454E-18
 -1      3789 9.45559E-05-2.23071E-05-3.09486E-05-1.43808E-06-5.51138E-19-2.54848E-18
 -1      3790 9.48302E-05-2.77077E-05-2.87644E-05-1.31221E-06 2.09201E-19 1.10180E-19
 -1      3791 9.49307E-05-2.78739E-05-2.87422E-05-1.19430E-06 1.01794E-19 1.19113E-19
 -1      3792 9.50811E-05-2.80465E-05-2.87268E-05-1.10874E-06-2.16149E-19-2.09127E-19
 -1      3793 9.51664E-05-2.81882E-05-2.87077E-05-1.03028E-06-3.07853E-19-4.14657E-19
 -1      3794 9.49357E-05-2.78794E-05-2.87370E-05-1.06176E-06-1.04686E-19-1.16491E-20
 -1      3795 9.41619E-05-2.68588E-05-2.88417E-05-1.98296E-06 1.85076E-19-6.24425E-19
 -1      3796 9.43114E-05-2.70795E-05-2.88192E-05-1.76781E-06 2.65411E-19-2.60223E-19
 -1      3797 9.37118E-05-2.63437E-05-2.88695E-05-2.47292E-06-7.77012E-20-8.52760E-19
 -1      3798 9.38955E-05-2.65916E-05-2.88513E-05-2.20071E-06 2.11577E-19-8.16803E-19
 -1      3799 9.37369E-05-2.64895E-05-2.88156E-05-1.91704E-06 3.89681E-19-3.11284E-19
 -1      3800 9.31625E-05-2.57741E-05-2.88781E-05-3.08048E-06-4.04570E-19-1.24136E-18
 -1      3801 9.33861E-05-2.60442E-05-2.88690E-05-2.74611E-06-1.09678E-19-9.20730E-19
 -1      3802 9.31507E-05-2.58899E-05-2.88197E-05-2.38544E-06 7.56828E-20-1.07134E-18
 -1      3803 9.25013E-05-2.51676E-05-2.88543E-05-3.81699E-06-5.14683E-19-6.79886E-19
 -1      3804 9.27673E-05-2.54482E-05-2.88608E-05-3.41551E-06-4.55845E-19-9.87248E-19
 -1      3805 9.24366E-05-2.52285E-05-2.87954E-05-2.96297E-06-6.51439E-19-7.00466E-19
 -1      3806 9.17237E-05-2.45613E-05-2.87800E-05-4.69661E-06-6.63657E-19-5.81588E-20
 -1      3807 9.20285E-05-2.48297E-05-2.88112E-05-4.22219E-06-4.19147E-19-2.28368E-19
 -1      3808 9.15761E-05-2.45246E-05-2.87263E-05-3.66286E-06-6.58317E-19-5.37116E-19
 -1      3809 9.08423E-05-2.40211E-05-2.86319E-05-5.74140E-06-8.49979E-19 1.35530E-20
 -1      3810 9.11698E-05-2.42376E-05-2.86992E-05-5.18497E-06-6.82962E-19-4.84198E-20
 -1      3811 9.05569E-05-2.38166E-05-2.85908E-05-4.50515E-06-9.10354E-19-3.30986E-19
 -1      3812 8.99007E-05-2.36574E-05-2.83802E-05-6.99081E-06-5.17325E-19-5.16218E-19
 -1      3813 9.02124E-05-2.37565E-05-2.84978E-05-6.33588E-06-5.05962E-19-2.38660E-19
 -1      3814 8.93783E-05-2.31704E-05-2.83607E-05-5.52536E-06-4.91857E-19-1.93344E-19
 -1      3815 8.89980E-05-2.36460E-05-2.79906E-05-8.51604E-06-5.50247E-19-5.64358E-19
 -1      3816 8.92161E-05-2.35237E-05-2.81737E-05-7.73291E-06-5.89980E-19-3.74153E-19
 -1      3817 8.80621E-05-2.26932E-05-2.79998E-05-6.78995E-06-5.46209E-19-1.47894E-18
 -1      3818 8.83293E-05-2.42577E-05-2.74279E-05-1.04344E-05-2.72909E-19-9.69661E-19
 -1      3819 8.83102E-05-2.37547E-05-2.76895E-05-9.47631E-06-1.58806E-19-6.17385E-19
 -1      3820 8.66724E-05-2.25542E-05-2.74642E-05-8.41896E-06-1.94755E-19-1.51873E-18
 -1      3821 8.82405E-05-2.59015E-05-2.66659E-05-1.29174E-05-9.56603E-19-1.46489E-18
 -1      3822 8.77456E-05-2.47811E-05-2.70093E-05-1.17288E-05-5.63064E-19-5.84539E-19
 -1      3823 8.53453E-05-2.30097E-05-2.67045E-05-1.06165E-05-5.34167E-19-8.97270E-19
 -1      3824 8.96241E-05-2.92971E-05-2.57719E-05-1.60349E-05-9.78793E-19-1.22296E-18
 -1      3825 8.80107E-05-2.71118E-05-2.61102E-05-1.46841E-05-9.92901E-19-1.45861E-18
 -1      3826 8.44414E-05-2.45186E-05-2.56684E-05-1.37331E-05-9.62951E-19-6.09615E-19
 -1      3827 6.51092E-05-1.78099E-05-2.00479E-05-1.34301E-05-2.13906E-19-1.52409E-18
 -1      3828 7.43779E-05-2.37994E-05-2.16723E-05-1.86334E-05-7.30664E-19-1.60502E-18
 -1      3829 9.16602E-05-2.90271E-05-2.68611E-05 1.69119E-05 5.25144E-19-4.10123E-19
 -1      3830 9.33199E-05-3.17231E-05-2.64301E-05 1.83145E-05 1.46099E-18 2.95069E-19
 -1      3831 9.53445E-05-3.55102E-05-2.54612E-05 2.12151E-05 9.09007E-19-2.52358E-19
 -1      3832 9.51131E-05-2.37065E-05-3.05883E-05 2.11588E-06 8.89484E-19-2.07968E-18
 -1      3833 6.70887E-05-1.66692E-05-2.15123E-05 6.09419E-06 1.06225E-19-2.37877E-18
 -1      3834 6.69040E-05-1.63972E-05-2.16858E-05-2.00645E-06 4.27156E-19-2.09119E-18
 -1      3835 1.11190E-04-5.11527E-05-2.57002E-05 2.08642E-05-4.60574E-21 6.82078E-19
 -1      3836 8.05571E-05-2.09451E-05-2.56184E-05 1.14113E-05 1.74742E-18 9.51506E-19
 -1      3837 8.38226E-05-2.26418E-05-2.61210E-05 1.33243E-05 8.12814E-19-4.63378E-19
 -1      3838 9.63555E-05-2.70935E-05-2.96791E-05-1.84140E-07-7.40194E-19-1.76490E-18
 -1      3839 9.64429E-05-2.75886E-05-2.95150E-05 1.15910E-07-7.10941E-19-1.66363E-18
 -1      3840 9.65879E-05-2.76801E-05-2.95311E-05 1.36875E-07-7.44720E-19-1.49586E-18
 -1      3841 9.56629E-05-2.87709E-05-2.86660E-05-8.81111E-07 5.02282E-19-3.97443E-19
 -1      3842 9.57291E-05-2.88446E-05-2.86654E-05-8.79682E-07 3.51134E-19-5.12055E-19
 -1      3843 9.59523E-05-2.57369E-05-3.00846E-05-9.11817E-07-7.91845E-19-2.08953E-18
 -1      3844 9.61476E-05-2.64651E-05-2.98734E-05-4.63306E-07-7.47750E-19-1.93587E-18
 -1      3845 9.62948E-05-2.65702E-05-2.98789E-05-3.38108E-07-5.94108E-19-1.66148E-18
 -1      3846 7.00258E-05-1.84720E-05-2.20589E-05-9.99876E-06-2.13459E-19-2.99453E-19
 -1      3847 7.49761E-05-2.26965E-05-2.24082E-05-1.70568E-05 3.25683E-19 9.51271E-19
 -1      3848 7.22669E-05-2.14225E-05-2.18284E-05 1.64514E-05-4.66113E-19-1.27743E-18
 -1      3849 6.87668E-05-1.85295E-05-2.15491E-05 1.13939E-05-2.26071E-19-1.44457E-18
 -1      3850 9.37763E-05-2.08374E-05-3.12684E-05-1.51622E-07 7.92723E-20-2.64705E-18
 -1      3851 9.38155E-05-2.09183E-05-3.12515E-05-7.14014E-07-2.19293E-19-2.63247E-18
 -1      3852 9.44333E-05-2.20023E-05-3.10244E-05-6.75020E-07-2.35970E-19-2.49965E-18
 -1      3853 9.45082E-05-2.21208E-05-3.10058E-05 6.98732E-08-3.14696E-21-2.59396E-18
 -1      3854 8.67995E-05-3.13795E-05-2.38566E-05 2.26242E-05 1.41539E-18-5.48930E-19
 -1      3855 7.79104E-05-2.49151E-05-2.25434E-05 1.98126E-05 4.07941E-19-1.32088E-18
 -1      3856 9.59304E-05-2.85082E-05-2.88973E-05-8.47785E-07 4.84058E-19-1.37035E-18
 -1      3857 9.59608E-05-2.83237E-05-2.89808E-05-6.93437E-07 6.91427E-19-1.29325E-18
 -1      3858 9.61643E-05-2.85859E-05-2.89648E-05-8.01485E-07 4.51026E-19-1.56042E-18
 -1      3859 9.45291E-05-2.73132E-05-2.88044E-05-1.59975E-06 6.99661E-19-2.30552E-19
 -1      3860 9.46508E-05-2.75060E-05-2.87808E-05-1.43616E-06 1.08204E-18 1.60347E-19
 -1      3861 9.42161E-05-2.70200E-05-2.87949E-05-1.54706E-06 6.01846E-19 3.78026E-19
 -1      3862 8.19072E-05-2.70545E-05-2.34536E-05-1.91045E-05-6.56080E-19-1.23481E-18
 -1      3863 8.74659E-05-3.04688E-05-2.44897E-05-2.07221E-05 7.87612E-19 2.70431E-18
 -1      3864 1.03814E-04-4.53443E-05-2.48173E-05 2.20250E-05 1.00636E-18 5.32536E-19
 -1      3865 7.21968E-05-1.81536E-05-2.30602E-05-5.61267E-06 5.72161E-19-1.49294E-18
 -1      3866 9.58812E-05-2.89130E-05-2.87018E-05-8.04943E-07 1.83435E-19-1.17739E-18
 -1      3867 9.58295E-05-2.89168E-05-2.86752E-05-8.86725E-07 1.83378E-19-5.50718E-19
 -1      3868 9.58943E-05-2.89635E-05-2.86846E-05-8.93800E-07 1.17611E-19-5.80641E-19
 -1      3869 8.05113E-05-2.16784E-05-2.51550E-05-1.21868E-05 1.02915E-18 6.37404E-19
 -1      3870 7.74987E-05-1.97972E-05-2.47716E-05-9.40541E-06 1.12236E-18-1.01972E-18
 -1      3871 9.62215E-05-2.70226E-05-2.96512E-05 2.81036E-07 6.42681E-19-1.53592E-18
 -1      3872 9.61725E-05-2.64632E-05-2.98731E-05 4.79593E-07 5.37200E-19-1.84893E-18
 -1      3873 9.62972E-05-2.75135E-05-2.94844E-05-6.94467E-08 7.42222E-19-1.47774E-18
 -1      3874 9.45453E-05-3.53467E-05-2.52829E-05 1.85755E-05 1.02232E-18 2.24156E-19
 -1      3875 9.83634E-05-3.94305E-05-2.51803E-05 1.95906E-05 1.01231E-18 6.52374E-19
 -1      3876 8.98918E-05-2.69318E-05-2.69399E-05 1.58737E-05 1.04512E-18-1.78044E-18
 -1      3877 9.61927E-05-2.81375E-05-2.91689E-05-4.91988E-07 7.13671E-19-1.43811E-18
 -1      3878 9.46092E-05-2.74819E-05-2.87665E-05-1.26537E-06 5.29315E-19 2.87450E-19
 -1      3879 9.58518E-05-2.89549E-05-2.86720E-05-9.96090E-07-1.33833E-19-5.39089E-20
 -1      3880 9.54432E-05-2.43713E-05-3.04600E-05-1.20570E-06-6.48323E-19-2.18214E-18
 -1      3881 7.33923E-05-2.74156E-05-1.93784E-05 2.56066E-05 1.29605E-18-1.44835E-18
 -1      3882 7.03219E-05-2.35897E-05-2.00086E-05 2.09597E-05 1.57765E-18-1.97065E-18
 -1      3883 8.23691E-05-3.22684E-05-2.13987E-05 2.50138E-05 1.32936E-18-9.00886E-19
 -1      3884 7.47409E-05-1.77776E-05-2.44170E-05-2.41992E-06 1.05133E-18-1.46691E-18
 -1      3885 7.44296E-05-1.75306E-05-2.44248E-05 1.80277E-06 4.86121E-19-2.93076E-18
 -1      3886 9.61384E-05-2.90150E-05-2.87666E-05-9.10297E-07-2.73240E-19-6.00139E-19
 -1      3887 9.61983E-05-2.89812E-05-2.88054E-05-8.95166E-07-1.08148E-19-8.90548E-19
 -1      3888 9.52132E-05-2.82185E-05-2.87115E-05-9.25441E-07-4.94783E-20 9.31738E-20
 -1      3889 9.52963E-05-2.83347E-05-2.86956E-05-9.77661E-07 2.56065E-19-4.45145E-19
 -1      3890 9.53713E-05-2.84535E-05-2.86811E-05-9.32265E-07 6.46972E-19-4.40197E-19
 -1      3891 7.76632E-05-2.28317E-05-2.35712E-05-1.51835E-05-6.54125E-19-1.36896E-18
 -1      3892 6.32394E-05-1.62753E-05-2.00116E-05-1.03591E-05-1.20239E-20-1.86049E-18
 -1      3893 6.99487E-05-1.85583E-05-2.19157E-05-1.11487E-05-8.50732E-19-1.50665E-18
 -1      3894 6.23146E-05-1.52834E-05-2.01521E-05-5.72733E-06 6.19327E-20-2.04558E-18
 -1      3895 9.15037E-05-3.15303E-05-2.56765E-05 1.94243E-05 1.53661E-18-7.38540E-20
 -1      3896 9.50518E-05-2.32941E-05-3.07637E-05 1.99828E-07 3.28990E-20-2.39915E-18
 -1      3897 9.50006E-05-2.31817E-05-3.07861E-05-1.29586E-07-1.62318E-19-2.34514E-18
 -1      3898 7.12758E-05-1.82321E-05-2.27785E-05 8.15225E-06 4.64010E-19-1.76237E-18
 -1      3899 7.56355E-05-1.82090E-05-2.45693E-05 5.94133E-06 8.76419E-19-8.19636E-19
 -1      3900 9.62685E-05-2.89222E-05-2.88631E-05-8.74090E-07-1.34232E-19-8.30025E-19
 -1      3901 9.63195E-05-2.88244E-05-2.89234E-05-8.20089E-07 2.72788E-20-1.14809E-18
 -1      3902 9.64068E-05-2.89827E-05-2.88978E-05-7.82834E-07-1.19249E-19-1.15215E-18
 -1      3903 5.80495E-05-1.47324E-05-1.81965E-05 8.90346E-06 1.16735E-18-5.47887E-18
 -1      3904 5.93132E-05-1.44773E-05-1.91328E-05 3.20592E-06 4.96077E-19-4.12272E-18
 -1      3905 9.55562E-05-2.86726E-05-2.86658E-05-8.86791E-07 7.39842E-19-2.60281E-19
 -1      3906 9.56763E-05-2.87355E-05-2.86896E-05-8.10101E-07 6.53114E-19-3.50153E-19
 -1      3907 9.54871E-05-2.85757E-05-2.86742E-05-9.06221E-07 5.96765E-19-6.03670E-19
 -1      3908 9.45723E-05-4.02147E-05-2.32881E-05 2.49641E-05 9.95621E-19-4.68727E-19
 -1      3909 7.90013E-05-2.37771E-05-2.35241E-05 1.68700E-05 6.19342E-19-9.09945E-19
 -1      3910 6.23402E-05-1.73682E-05-1.92658E-05 1.29471E-05 9.61131E-19-5.00724E-18
 -1      3911 8.86829E-05-3.16671E-05-2.44658E-05 1.93909E-05 5.48143E-19-3.69071E-19
 -1      3912 9.51388E-05-2.35355E-05-3.07001E-05 8.47548E-07 4.17986E-19-2.37128E-18
 -1      3913 9.50823E-05-2.33597E-05-3.07432E-05 4.89003E-07 2.31951E-19-2.45009E-18
 -1      3914 9.55617E-05-2.42823E-05-3.05345E-05 2.58634E-07 1.31445E-19-2.32037E-18
 -1      3915 1.26052E-04-5.07559E-05-3.24916E-05 9.24523E-07-5.86160E-19-1.81420E-18
 -1      3916 8.46844E-05-2.52960E-05-2.54530E-05 1.62461E-05 1.18848E-18-2.72938E-19
 -1      3917 8.68862E-05-2.52256E-05-2.64563E-05 1.52260E-05 6.84120E-19-8.38802E-19
 -1      3918 8.20303E-05-2.40260E-05-2.48294E-05-1.49529E-05 1.52025E-18 1.02252E-18
 -1      3919 9.54887E-05-2.45673E-05-3.03929E-05 1.35721E-06 6.63315E-19-2.01652E-18
 -1      3920 9.53712E-05-2.44521E-05-3.03953E-05 1.69875E-06 8.20445E-19-1.95524E-18
 -1      3921 9.67813E-05-2.87556E-05-2.91519E-05 4.58066E-07-4.73932E-19-1.72621E-18
 -1      3922 9.67349E-05-2.89177E-05-2.90654E-05 5.23219E-07-3.80075E-19-1.71721E-18
 -1      3923 9.66692E-05-2.90292E-05-2.89871E-05 5.45305E-07-9.23810E-20-1.69733E-18
 -1      3924 9.65911E-05-2.90977E-05-2.89257E-05 5.75392E-07 1.67352E-19-1.26992E-18
 -1      3925 9.67934E-05-2.89731E-05-2.90670E-05 4.11552E-07-2.17918E-20-1.48026E-18
 -1      3926 9.64927E-05-2.91266E-05-2.88702E-05 5.79486E-07 2.42899E-19-1.26171E-18
 -1      3927 9.63963E-05-2.91271E-05-2.88289E-05 5.89753E-07 1.85166E-19-1.31060E-18
 -1      3928 9.66298E-05-2.91272E-05-2.89312E-05 4.49791E-07 2.09891E-19-1.22584E-18
 -1      3929 9.62780E-05-2.90958E-05-2.87920E-05 5.85800E-07 4.55304E-20-1.11414E-18
 -1      3930 9.61707E-05-2.90462E-05-2.87666E-05 5.88454E-07-2.17065E-19-9.81518E-19
 -1      3931 9.64144E-05-2.91314E-05-2.88371E-05 4.61276E-07 1.20204E-19-1.39550E-18
 -1      3932 9.60392E-05-2.89697E-05-2.87442E-05 5.84367E-07-1.54037E-19-8.70706E-19
 -1      3933 9.59242E-05-2.88816E-05-2.87313E-05 5.89032E-07 1.69626E-19-8.59055E-19
 -1      3934 9.61666E-05-2.90247E-05-2.87763E-05 4.62826E-07 5.03585E-20-8.13879E-19
 -1      3935 9.57813E-05-2.87692E-05-2.87202E-05 5.90975E-07 1.02430E-19-1.15095E-18
 -1      3936 9.56578E-05-2.86491E-05-2.87168E-05 6.05385E-07 5.82767E-20-1.31935E-18
 -1      3937 9.58948E-05-2.88326E-05-2.87417E-05 4.67890E-07-2.63452E-20-5.44525E-19
 -1      3938 9.55018E-05-2.85055E-05-2.87141E-05 6.18711E-07 3.95821E-20-1.37286E-18
 -1      3939 9.53670E-05-2.83567E-05-2.87175E-05 6.49214E-07 7.91759E-20-1.14559E-18
 -1      3940 9.55989E-05-2.85697E-05-2.87268E-05 4.87188E-07-5.88672E-20-1.35626E-18
 -1      3941 9.51930E-05-2.81834E-05-2.87205E-05 6.78285E-07-7.06025E-21-1.39166E-18
 -1      3942 9.50416E-05-2.80060E-05-2.87285E-05 7.30282E-07-1.28859E-19-1.43282E-18
 -1      3943 9.52723E-05-2.82428E-05-2.87261E-05 5.30145E-07 3.90197E-20-1.27543E-18
 -1      3944 9.48421E-05-2.78018E-05-2.87345E-05 7.79536E-07-1.07043E-19-1.30475E-18
 -1      3945 9.46673E-05-2.75948E-05-2.87445E-05 8.58388E-07-3.12456E-19-1.18983E-18
 -1      3946 9.49028E-05-2.78528E-05-2.87340E-05 6.04194E-07-1.78531E-19-1.31865E-18
 -1      3947 9.44337E-05-2.73580E-05-2.87506E-05 9.32110E-07-2.01390E-19-8.58466E-19
 -1      3948 9.42278E-05-2.71197E-05-2.87599E-05 1.04286E-06 1.36462E-19-8.55581E-19
 -1      3949 9.44744E-05-2.73963E-05-2.87450E-05 7.18280E-07-1.22583E-19-9.83429E-19
 -1      3950 9.39495E-05-2.68482E-05-2.87626E-05 1.14578E-06 9.36169E-20-8.55228E-19
 -1      3951 9.37041E-05-2.65781E-05-2.87679E-05 1.29372E-06-9.02626E-20-5.60595E-19
 -1      3952 9.39680E-05-2.68696E-05-2.87524E-05 8.80138E-07-6.68910E-20-4.15526E-19
 -1      3953 9.33702E-05-2.62711E-05-2.87630E-05 1.43132E-06-4.36399E-19-8.41291E-19
 -1      3954 9.30773E-05-2.59706E-05-2.87597E-05 1.62224E-06-4.47959E-19-1.05726E-18
 -1      3955 9.33622E-05-2.62695E-05-2.87485E-05 1.09915E-06-4.62503E-19-7.46366E-19
 -1      3956 9.26762E-05-2.56304E-05-2.87416E-05 1.80125E-06-1.57820E-19-6.12344E-19
 -1      3957 9.23290E-05-2.53052E-05-2.87242E-05 2.04198E-06 1.86916E-19-7.24242E-19
 -1      3958 9.26345E-05-2.55969E-05-2.87232E-05 1.38638E-06-1.41527E-19-1.11470E-18
 -1      3959 9.18498E-05-2.49385E-05-2.86858E-05 2.27120E-06-1.05895E-19-7.06871E-19
 -1      3960 9.14444E-05-2.46005E-05-2.86469E-05 2.57062E-06-9.77117E-21-1.51251E-18
 -1      3961 9.17625E-05-2.48596E-05-2.86635E-05 1.75609E-06-1.05603E-19-8.18520E-19
 -1      3962 9.08768E-05-2.42206E-05-2.85788E-05 2.86249E-06 3.70811E-19-1.39777E-18
 -1      3963 9.04142E-05-2.38904E-05-2.85090E-05 3.23338E-06 7.07545E-19-1.52077E-18
 -1      3964 9.07251E-05-2.40756E-05-2.85528E-05 2.22806E-06 1.06232E-19-1.20981E-18
 -1      3965 8.97495E-05-2.35193E-05-2.83993E-05 3.60670E-06 6.73562E-19-1.70993E-18
 -1      3966 8.92388E-05-2.32298E-05-2.82869E-05 4.06906E-06 6.91036E-19-1.49435E-18
 -1      3967 8.95033E-05-2.32766E-05-2.83691E-05 2.83188E-06 4.45730E-19-1.37063E-18
 -1      3968 8.84694E-05-2.29008E-05-2.81201E-05 4.55390E-06 8.69362E-19-1.80131E-18
 -1      3969 8.79329E-05-2.27009E-05-2.79508E-05 5.14034E-06 7.85015E-19-1.85524E-18
 -1      3970 8.80804E-05-2.25109E-05-2.80845E-05 3.61449E-06 5.89358E-19-2.04964E-18
 -1      3971 8.70527E-05-2.24616E-05-2.77074E-05 5.78658E-06 3.63417E-19-1.84051E-18
 -1      3972 8.65355E-05-2.24244E-05-2.74647E-05 6.55011E-06 1.26303E-19-2.01583E-18
 -1      3973 8.64414E-05-2.18478E-05-2.76629E-05 4.65351E-06 7.39067E-19-1.90938E-18
 -1      3974 8.55431E-05-2.23441E-05-2.71196E-05 7.44075E-06 1.61739E-19-1.71734E-18
 -1      3975 8.51273E-05-2.25785E-05-2.67858E-05 8.46325E-06 3.39824E-19-1.22729E-18
 -1      3976 8.45731E-05-2.13844E-05-2.70574E-05 6.08106E-06 3.73389E-19-2.40389E-18
 -1      3977 8.40416E-05-2.27617E-05-2.63075E-05 9.71206E-06 3.86724E-19-1.20716E-18
 -1      3978 8.38499E-05-2.34087E-05-2.58673E-05 1.11124E-05 8.22344E-19-1.51997E-18
 -1      3979 8.24918E-05-2.12780E-05-2.62061E-05 8.11261E-06 2.78216E-19-1.48776E-18
 -1      3980 8.26676E-05-2.39784E-05-2.52121E-05 1.29094E-05 1.01145E-18-2.19233E-18
 -1      3981 8.29815E-05-2.53911E-05-2.46627E-05 1.49522E-05 6.90309E-19-2.02280E-18
 -1      3982 8.02393E-05-2.17048E-05-2.50272E-05 1.10448E-05 6.62609E-19-2.40499E-18
 -1      3983 8.16529E-05-2.58452E-05-2.38086E-05-1.83199E-05 8.81080E-19 1.60703E-18
 -1      3984 9.17810E-05-2.47579E-05-2.87246E-05-2.68574E-06-7.56731E-19-6.79382E-19
 -1      3985 9.21783E-05-2.51173E-05-2.87496E-05-2.39202E-06-3.32615E-19-5.63232E-19
 -1      3986 9.60524E-05-2.90164E-05-2.87289E-05-9.07990E-07-1.00499E-19-6.08137E-19
 -1      3987 9.62526E-05-2.90594E-05-2.87988E-05-8.15003E-07-1.43970E-19-1.36606E-18
 -1      3988 9.59889E-05-2.90039E-05-2.87066E-05-9.04322E-07 7.70038E-20-7.88472E-19
 -1      3989 9.47986E-05-2.77251E-05-2.87445E-05-9.60483E-07 1.57158E-19 2.17004E-19
 -1      3990 9.49497E-05-2.79166E-05-2.87313E-05-8.79866E-07-2.09230E-19 2.88424E-19
 -1      3991 9.55228E-05-2.41897E-05-3.05571E-05-2.14630E-07-2.17410E-19-2.37860E-18
 -1      3992 9.49800E-05-2.31590E-05-3.07901E-05-3.88880E-07-2.05774E-19-2.43493E-18
 -1      3993 9.49736E-05-2.31804E-05-3.07819E-05-7.43780E-07-3.03677E-19-2.41360E-18
 -1      3994 6.47308E-05-1.54414E-05-2.11567E-05 3.48114E-06 5.12240E-20-3.55869E-18
 -1      3995 6.27980E-05-1.46697E-05-2.04502E-05-1.44201E-06-1.86132E-19-2.90257E-18
 -1      3996 6.77447E-05-1.61228E-05-2.20594E-05-4.35100E-06-5.67651E-19-2.21117E-18
 -1      3997 9.26425E-05-2.54962E-05-2.87770E-05-2.17054E-06-2.17695E-20-5.54751E-19
 -1      3998 9.29698E-05-2.58261E-05-2.87833E-05-1.92840E-06 3.33378E-19-3.34113E-19
 -1      3999 9.20665E-05-2.50412E-05-2.87158E-05-1.90414E-06-2.21986E-19-9.56190E-21
 -1      4000 9.33503E-05-2.61660E-05-2.87929E-05-1.74908E-06 3.74362E-19-2.62723E-19
 -1      4001 9.36179E-05-2.64607E-05-2.87877E-05-1.55384E-06 7.66570E-19 9.71643E-20
 -1      4002 9.29020E-05-2.57862E-05-2.87568E-05-1.54046E-06 4.35469E-19-9.40003E-20
 -1      4003 9.07417E-05-2.39703E-05-2.86170E-05-3.30697E-06-4.70372E-19-9.13826E-19
 -1      4004 9.12175E-05-2.43468E-05-2.86702E-05-2.95515E-06-4.59532E-19-9.27979E-19
 -1      4005 9.10500E-05-2.42217E-05-2.86287E-05-2.34585E-06-3.79988E-19-6.42847E-19
 -1      4006 8.95034E-05-2.31698E-05-2.84291E-05-4.05498E-06-9.53270E-19-7.94631E-19
 -1      4007 9.00621E-05-2.35410E-05-2.85233E-05-3.63373E-06-1.10410E-18-9.19307E-19
 -1      4008 8.98204E-05-2.33463E-05-2.84737E-05-2.87797E-06-6.27349E-19-6.33216E-19
 -1      4009 8.80511E-05-2.24162E-05-2.81284E-05-4.96905E-06-6.42423E-19-5.63819E-19
 -1      4010 8.86893E-05-2.27457E-05-2.82799E-05-4.45649E-06-4.89001E-19-3.69213E-19
 -1      4011 8.83430E-05-2.24472E-05-2.82218E-05-3.52366E-06-1.01680E-18-1.07807E-18
 -1      4012 8.63806E-05-2.18019E-05-2.76721E-05-6.12517E-06-4.74514E-19-8.57419E-19
 -1      4013 8.70802E-05-2.20329E-05-2.79018E-05-5.47921E-06-5.34213E-19-6.37044E-19
 -1      4014 8.65771E-05-2.15732E-05-2.78344E-05-4.32922E-06-2.64751E-19-3.91170E-19
 -1      4015 8.45097E-05-2.14691E-05-2.70054E-05-7.66643E-06-1.78862E-19-9.88655E-19
 -1      4016 8.52246E-05-2.15118E-05-2.73388E-05-6.81027E-06-2.89317E-19-1.09544E-18
 -1      4017 8.44700E-05-2.07925E-05-2.72588E-05-5.38784E-06-2.24450E-19-1.08347E-18
 -1      4018 8.25020E-05-2.16341E-05-2.60616E-05-9.83789E-06-1.01636E-18-5.98990E-19
 -1      4019 8.31406E-05-2.13527E-05-2.65265E-05-8.63785E-06-3.98455E-19-9.70426E-19
 -1      4020 8.19620E-05-2.02140E-05-2.64229E-05-6.87932E-06-1.73387E-19-7.69033E-19
 -1      4021 8.04944E-05-2.26370E-05-2.47568E-05-1.31254E-05-1.02703E-18-1.06987E-18
 -1      4022 8.08374E-05-2.17705E-05-2.53817E-05-1.12757E-05-1.25022E-18-1.01124E-18
 -1      4023 7.89783E-05-1.99759E-05-2.52296E-05-9.06769E-06-1.03365E-18-9.62390E-19
 -1      4024 9.53846E-05-2.41973E-05-3.05187E-05 1.28182E-06 6.39982E-19-2.12165E-18
 -1      4025 9.52733E-05-2.38600E-05-3.06064E-05 1.00896E-06 4.87548E-19-2.17167E-18
 -1      4026 9.56998E-05-2.46940E-05-3.04192E-05 6.37791E-07 4.20542E-19-2.17808E-18
 -1      4027 9.58750E-05-2.53907E-05-3.02034E-05 8.03123E-07 5.58478E-19-2.03009E-18
 -1      4028 8.18244E-05-2.46742E-05-2.46370E-05 1.69195E-05 1.63466E-18 7.54587E-19
 -1      4029 7.76441E-05-2.12086E-05-2.39869E-05 1.40926E-05 8.95162E-19-3.41784E-19
 -1      4030 8.63320E-05-2.75405E-05-2.50640E-05 1.88628E-05 1.55203E-18-5.94240E-19
 -1      4031 9.54707E-05-2.48972E-05-3.02482E-05 1.84744E-06 1.00626E-18-1.75190E-18
 -1      4032 7.45755E-05-2.00635E-05-2.33126E-05-1.23046E-05-7.89112E-19-1.59089E-18
 -1      4033 9.51720E-05-2.36216E-05-3.06677E-05-8.55085E-07-2.62082E-19-2.23431E-18
 -1      4034 9.52863E-05-2.39200E-05-3.05944E-05-1.17727E-06-4.27255E-19-2.29509E-18
 -1      4035 9.59535E-05-2.54688E-05-3.02053E-05-6.33267E-07-4.73454E-19-1.86611E-18
 -1      4036 9.56847E-05-2.46139E-05-3.04466E-05-5.46056E-07-2.72737E-19-2.35614E-18
 -1      4037 7.52622E-05-1.93906E-05-2.39001E-05 9.19065E-06 7.69119E-19-1.21433E-18
 -1      4038 9.66238E-05-2.73912E-05-2.96694E-05-2.31180E-09-5.83268E-19-1.76844E-18
 -1      4039 9.67168E-05-2.78569E-05-2.95152E-05 1.90628E-07-7.15874E-19-1.75615E-18
 -1      4040 9.62441E-05-2.62012E-05-3.00198E-05-4.25814E-07-4.88051E-19-1.87693E-18
 -1      4041 9.64547E-05-2.68771E-05-2.98236E-05-1.38984E-07-4.56238E-19-1.79698E-18
 -1      4042 9.65790E-05-2.70411E-05-2.97998E-05-6.94963E-08-4.80107E-19-2.07225E-18
 -1      4043 9.61140E-05-2.57687E-05-3.01439E-05-4.20062E-07-3.70872E-19-2.02600E-18
 -1      4044 9.55656E-05-2.53131E-05-3.01098E-05 1.77108E-06 1.06363E-18-1.57232E-18
 -1      4045 9.63615E-05-2.86845E-05-2.90063E-05-7.56255E-07 2.76307E-19-1.30536E-18
 -1      4046 9.63933E-05-2.84967E-05-2.90941E-05-6.37746E-07 4.60792E-19-1.18407E-18
 -1      4047 9.65174E-05-2.87553E-05-2.90425E-05-6.83027E-07 1.27082E-19-1.03634E-18
 -1      4048 9.63870E-05-2.82427E-05-2.92084E-05-5.07568E-07 5.70866E-19-1.34154E-18
 -1      4049 9.63810E-05-2.79289E-05-2.93313E-05-2.92453E-07 7.18191E-19-1.29167E-18
 -1      4050 9.64617E-05-2.75901E-05-2.95164E-05-1.02688E-07 5.61809E-19-1.42588E-18
 -1      4051 9.65529E-05-2.83198E-05-2.92443E-05-4.73146E-07 4.17104E-19-1.25056E-18
 -1      4052 9.44046E-05-2.72780E-05-2.87676E-05-1.15217E-06 4.14259E-19 5.04090E-19
 -1      4053 9.45849E-05-2.75018E-05-2.87537E-05-1.03787E-06 4.68021E-19 3.53746E-19
 -1      4054 9.46132E-05-2.75311E-05-2.87470E-05-8.44676E-07 2.05870E-19 1.85173E-20
 -1      4055 6.75850E-05-1.98770E-05-2.01254E-05 1.68108E-05 1.67636E-18-2.98448E-18
 -1      4056 6.63426E-05-1.79557E-05-2.07129E-05 1.20182E-05 1.25848E-18-3.98898E-18
 -1      4057 7.35181E-05-2.37967E-05-2.13646E-05 1.92819E-05 1.84737E-18-1.50039E-18
 -1      4058 9.39295E-05-2.67598E-05-2.87863E-05-1.41234E-06 6.70609E-19 3.22033E-19
 -1      4059 9.41483E-05-2.70183E-05-2.87748E-05-1.25975E-06 6.92993E-19 4.23305E-19
 -1      4060 9.41482E-05-2.70290E-05-2.87616E-05-1.01711E-06 7.58966E-19 1.06110E-19
 -1      4061 9.67875E-05-2.82395E-05-2.93753E-05 2.86750E-07-6.93838E-19-1.69454E-18
 -1      4062 9.67936E-05-2.85300E-05-2.92582E-05 4.05683E-07-5.35684E-19-1.70639E-18
 -1      4063 9.68175E-05-2.79761E-05-2.95024E-05 1.69785E-07-6.47506E-19-1.79163E-18
 -1      4064 9.59177E-05-2.89032E-05-2.87191E-05-6.94572E-07 2.77404E-19-1.23790E-18
 -1      4065 9.60183E-05-2.89790E-05-2.87312E-05-6.92844E-07 1.44680E-19-1.29094E-18
 -1      4066 9.63865E-05-2.68830E-05-2.97883E-05 1.77894E-07 5.05405E-19-1.87211E-18
 -1      4067 9.61873E-05-2.62245E-05-2.99878E-05 5.19628E-07 5.18592E-19-1.94430E-18
 -1      4068 9.61113E-05-2.58569E-05-3.01060E-05 4.93553E-07 4.98721E-19-2.02237E-18
 -1      4069 9.51313E-05-2.81070E-05-2.87233E-05-8.28478E-07-3.75338E-19 1.30150E-19
 -1      4070 9.52610E-05-2.82695E-05-2.87131E-05-7.76698E-07-6.24873E-20 2.89961E-20
 -1      4071 9.50044E-05-2.79611E-05-2.87313E-05-7.23253E-07-2.27790E-19-4.70156E-20
 -1      4072 7.54104E-05-2.14584E-05-2.30110E-05 1.42732E-05 1.26946E-18-2.70526E-18
 -1      4073 7.93313E-05-2.49569E-05-2.33065E-05 1.68954E-05 7.79780E-19-1.82418E-18
 -1      4074 9.60741E-05-2.90267E-05-2.87361E-05-8.13478E-07 7.05248E-20-1.24816E-18
 -1      4075 9.59267E-05-2.51916E-05-3.03238E-05 2.93512E-07 2.69925E-19-2.23597E-18
 -1      4076 9.59149E-05-2.51189E-05-3.03459E-05 8.29255E-08 2.34631E-20-2.23760E-18
 -1      4077 9.68722E-05-2.86135E-05-2.92539E-05 3.25852E-07-5.22788E-19-1.67097E-18
 -1      4078 9.63433E-05-2.91040E-05-2.88161E-05-7.01417E-07 1.44335E-21-1.61021E-18
 -1      4079 9.64290E-05-2.90927E-05-2.88572E-05-6.89981E-07-4.84722E-20-1.39995E-18
 -1      4080 7.01531E-05-1.85999E-05-2.21641E-05 1.09970E-05 1.41420E-18-2.48024E-18
 -1      4081 6.67844E-05-1.62733E-05-2.14626E-05 7.24728E-06 6.18554E-19-4.00059E-18
 -1      4082 6.89551E-05-1.62998E-05-2.25465E-05 3.20349E-06 2.10666E-19-2.65835E-18
 -1      4083 9.54561E-05-2.85030E-05-2.86943E-05-8.45779E-07 5.31207E-19-3.13580E-19
 -1      4084 9.65187E-05-2.90536E-05-2.89137E-05-6.81628E-07-1.44108E-19-1.41746E-18
 -1      4085 9.65885E-05-2.89747E-05-2.89752E-05-6.45087E-07-1.09210E-19-1.32616E-18
 -1      4086 9.65868E-05-2.90933E-05-2.89274E-05-5.65833E-07 2.30119E-20-1.31716E-18
 -1      4087 8.00917E-05-2.73413E-05-2.25435E-05 1.96485E-05 9.64956E-19-1.51645E-18
 -1      4088 9.56797E-05-2.86956E-05-2.87059E-05-7.06423E-07 3.84495E-19-5.91198E-19
 -1      4089 9.57864E-05-2.88023E-05-2.87082E-05-6.94753E-07 2.73533E-19-8.05262E-19
 -1      4090 9.59100E-05-2.88662E-05-2.87339E-05-5.84895E-07 3.61422E-20-1.33419E-18
 -1      4091 7.25717E-05-1.84764E-05-2.32180E-05-9.51994E-06-9.13724E-19-1.79676E-18
 -1      4092 9.35865E-05-2.64489E-05-2.87679E-05-1.24694E-06 8.10631E-19 3.26370E-19
 -1      4093 9.62467E-05-2.58398E-05-3.01662E-05 3.87059E-09-6.73666E-20-2.13743E-18
 -1      4094 9.58886E-05-2.50546E-05-3.03642E-05-5.18931E-08-7.38867E-20-2.27186E-18
 -1      4095 9.58614E-05-2.50214E-05-3.03665E-05-2.48168E-07-1.83490E-19-2.40663E-18
 -1      4096 7.44232E-05-1.95900E-05-2.35496E-05 1.01703E-05 8.52360E-19-2.84162E-18
 -1      4097 9.61397E-05-2.90448E-05-2.87538E-05-6.98585E-07-1.57352E-19-1.28962E-18
 -1      4098 9.62343E-05-2.90829E-05-2.87786E-05-6.97707E-07-1.55882E-19-1.49649E-18
 -1      4099 9.63891E-05-2.91204E-05-2.88310E-05-5.82188E-07-2.68780E-19-1.45023E-18
 -1      4100 9.61605E-05-2.90360E-05-2.87690E-05-5.82693E-07 4.31003E-20-1.55718E-18
 -1      4101 9.60796E-05-2.56799E-05-3.01795E-05 4.69516E-07 4.90485E-19-2.01628E-18
 -1      4102 9.59851E-05-2.53590E-05-3.02679E-05 3.65241E-07 3.48820E-19-2.09876E-18
 -1      4103 9.63260E-05-2.60869E-05-3.00908E-05 1.61744E-07 3.15093E-19-2.03941E-18
 -1      4104 9.63849E-05-2.64510E-05-2.99668E-05 2.14640E-07 3.71087E-19-1.93696E-18
 -1      4105 9.67439E-05-2.91276E-05-2.89776E-05 3.01371E-07 1.48417E-19-1.15561E-18
 -1      4106 9.66475E-05-2.91639E-05-2.89204E-05 3.22084E-07 9.78331E-20-1.16451E-18
 -1      4107 9.65306E-05-2.91642E-05-2.88707E-05 3.15292E-07 3.05279E-20-1.23846E-18
 -1      4108 9.64136E-05-2.91355E-05-2.88322E-05 3.25792E-07-5.31438E-20-1.16966E-18
 -1      4109 9.66268E-05-2.91719E-05-2.89127E-05 1.75791E-07 1.84850E-20-1.12761E-18
 -1      4110 9.62779E-05-2.90786E-05-2.87994E-05 3.18644E-07 5.77809E-20-1.43954E-18
 -1      4111 9.61473E-05-2.90009E-05-2.87758E-05 3.25948E-07 1.54388E-19-1.24452E-18
 -1      4112 9.63778E-05-2.91158E-05-2.88295E-05 1.79556E-07-1.70456E-19-1.49562E-18
 -1      4113 9.59975E-05-2.88999E-05-2.87563E-05 3.21437E-07-6.46603E-20-1.02601E-18
 -1      4114 9.58547E-05-2.87830E-05-2.87441E-05 3.30831E-07-2.73073E-19-1.29356E-18
 -1      4115 9.60966E-05-2.89550E-05-2.87767E-05 1.82607E-07 1.57083E-19-1.96767E-18
 -1      4116 9.56917E-05-2.86453E-05-2.87348E-05 3.32834E-07-4.21288E-19-1.10089E-18
 -1      4117 9.55355E-05-2.84948E-05-2.87311E-05 3.49046E-07-1.82954E-19-1.34095E-18
 -1      4118 9.57861E-05-2.87109E-05-2.87471E-05 1.89433E-07-1.78059E-19-1.59011E-18
 -1      4119 9.53553E-05-2.83240E-05-2.87289E-05 3.58002E-07-2.74516E-20-1.53261E-18
 -1      4120 9.51812E-05-2.81420E-05-2.87308E-05 3.84957E-07-1.19708E-19-1.51330E-18
 -1      4121 9.54476E-05-2.83975E-05-2.87349E-05 2.03443E-07-1.96265E-19-1.97150E-18
 -1      4122 9.49746E-05-2.79364E-05-2.87328E-05 4.03531E-07 1.11717E-19-1.29021E-18
 -1      4123 9.47761E-05-2.77210E-05-2.87377E-05 4.46459E-07 5.60743E-20-9.99413E-19
 -1      4124 9.50638E-05-2.80108E-05-2.87344E-05 2.29292E-07 6.08168E-20-2.15700E-18
 -1      4125 9.45362E-05-2.74815E-05-2.87410E-05 4.76400E-07 3.94432E-20-7.79463E-19
 -1      4126 9.43038E-05-2.72309E-05-2.87458E-05 5.37464E-07 2.43609E-19-4.97200E-19
 -1      4127 9.46258E-05-2.75563E-05-2.87391E-05 2.71652E-07 2.60298E-19-1.32154E-18
 -1      4128 9.40191E-05-2.69535E-05-2.87468E-05 5.82459E-07-2.94292E-19-6.39972E-19
 -1      4129 9.37422E-05-2.66656E-05-2.87479E-05 6.65401E-07-3.45629E-19-7.12214E-19
 -1      4130 9.41099E-05-2.70260E-05-2.87426E-05 3.33845E-07 2.53631E-20-1.49768E-18
 -1      4131 9.34002E-05-2.63480E-05-2.87424E-05 7.28928E-07-2.65262E-19-5.56288E-19
 -1      4132 9.30679E-05-2.60215E-05-2.87355E-05 8.37935E-07-5.73828E-19-7.45461E-19
 -1      4133 9.34936E-05-2.64151E-05-2.87372E-05 4.21501E-07-3.24013E-19-1.63852E-18
 -1      4134 9.26546E-05-2.56629E-05-2.87182E-05 9.24613E-07-4.46158E-19-6.12458E-19
 -1      4135 9.22553E-05-2.52992E-05-2.86973E-05 1.06481E-06 3.73284E-20-7.79846E-19
 -1      4136 9.27509E-05-2.57195E-05-2.87132E-05 5.41159E-07-4.01387E-19-1.09877E-18
 -1      4137 9.17557E-05-2.49017E-05-2.86612E-05 1.18091E-06-1.54304E-19-1.08516E-18
 -1      4138 9.12784E-05-2.45060E-05-2.86191E-05 1.35920E-06-2.69461E-19-1.02237E-18
 -1      4139 9.18530E-05-2.49394E-05-2.86582E-05 7.01803E-07-6.82833E-20-9.82665E-19
 -1      4140 9.06760E-05-2.40758E-05-2.85552E-05 1.51354E-06 8.29657E-21-7.33858E-19
 -1      4141 9.01103E-05-2.36587E-05-2.84821E-05 1.73998E-06 2.86282E-19-9.41065E-19
 -1      4142 9.07693E-05-2.40811E-05-2.85560E-05 9.16141E-07 8.43371E-20-9.54972E-19
 -1      4143 8.93864E-05-2.32071E-05-2.83785E-05 1.94550E-06-7.76800E-20-9.53848E-19
 -1      4144 8.87230E-05-2.27859E-05-2.82618E-05 2.23588E-06 1.93234E-19-1.27635E-18
 -1      4145 8.94656E-05-2.31586E-05-2.83853E-05 1.20284E-06 2.59820E-19-6.64821E-19
 -1      4146 8.78537E-05-2.23297E-05-2.81029E-05 2.51219E-06 6.45681E-19-1.60658E-18
 -1      4147 8.70844E-05-2.19294E-05-2.79266E-05 2.89242E-06 7.80411E-19-1.56148E-18
 -1      4148 8.79014E-05-2.21947E-05-2.81182E-05 1.59022E-06 1.49389E-20-1.30000E-18
 -1      4149 8.60352E-05-2.14901E-05-2.76914E-05 3.27029E-06 5.08817E-19-1.71028E-18
 -1      4150 8.51513E-05-2.11439E-05-2.74343E-05 3.78431E-06 2.86281E-19-1.87356E-18
 -1      4151 8.60221E-05-2.12183E-05-2.77177E-05 2.12215E-06 4.59127E-19-1.09684E-18
 -1      4152 8.38657E-05-2.07441E-05-2.70941E-05 4.31408E-06 1.53427E-19-2.36068E-18
 -1      4153 8.28609E-05-2.04970E-05-2.67284E-05 5.03862E-06 2.48613E-19-2.32307E-18
 -1      4154 8.37438E-05-2.02602E-05-2.71330E-05 2.86688E-06-1.22484E-19-2.28098E-18
 -1      4155 8.12355E-05-2.01562E-05-2.62402E-05 5.81610E-06 3.99779E-19-2.74952E-18
 -1      4156 8.00552E-05-2.00921E-05-2.57209E-05 6.90856E-06 2.13525E-19-2.77542E-18
 -1      4157 8.09116E-05-1.93415E-05-2.62918E-05 3.93119E-06 2.23043E-19-2.47396E-18
 -1      4158 7.81462E-05-1.97085E-05-2.51110E-05 7.59015E-06-5.49554E-20-2.61954E-18
 -1      4159 7.68269E-05-1.99669E-05-2.43915E-05 9.24618E-06 3.80599E-19-3.11049E-18
 -1      4160 7.31864E-05-1.75863E-05-2.37238E-05 6.06461E-06 3.72125E-19-2.52802E-18
 -1      4161 7.75654E-05-1.86081E-05-2.51996E-05 5.10833E-06 1.29861E-19-3.16011E-18
 -1      4162 9.69438E-05-2.84952E-05-2.93341E-05 1.91016E-07-4.47593E-19-1.52945E-18
 -1      4163 9.69348E-05-2.87425E-05-2.92254E-05 2.58040E-07-2.17912E-19-1.34290E-18
 -1      4164 8.90335E-05-2.28741E-05-2.83611E-05-2.26686E-06-7.97963E-19-3.14046E-19
 -1      4165 8.97175E-05-2.33348E-05-2.84628E-05-2.02630E-06-1.85060E-19-3.29413E-19
 -1      4166 8.92812E-05-3.57308E-05-2.27132E-05 2.43924E-05 8.96535E-19-3.58394E-19
 -1      4167 9.54207E-05-2.84294E-05-2.87089E-05-7.46913E-07 3.78434E-19-1.11398E-19
 -1      4168 9.55366E-05-2.85642E-05-2.87039E-05-7.17848E-07 6.30036E-19-3.37216E-19
 -1      4169 9.56395E-05-2.86270E-05-2.87197E-05-6.02845E-07 1.94313E-19-6.14485E-19
 -1      4170 9.53396E-05-2.83228E-05-2.87208E-05-6.46175E-07-1.50775E-19-3.08612E-20
 -1      4171 9.15698E-05-2.46861E-05-2.86685E-05-1.52605E-06-4.12839E-19 4.87801E-19
 -1      4172 9.20364E-05-2.50871E-05-2.87006E-05-1.35460E-06-6.15140E-20 4.13346E-19
 -1      4173 9.25129E-05-2.54847E-05-2.87292E-05-1.24293E-06 2.56958E-19 6.01881E-19
 -1      4174 9.28953E-05-2.58446E-05-2.87424E-05-1.10066E-06 6.43893E-19 5.47641E-19
 -1      4175 9.21011E-05-2.51247E-05-2.86879E-05-8.79754E-07 1.12740E-19 8.31824E-19
 -1      4176 8.73553E-05-2.19076E-05-2.80580E-05-2.75108E-06-7.21070E-19-1.13566E-18
 -1      4177 8.81764E-05-2.23754E-05-2.82176E-05-2.46145E-06-6.90079E-19-5.62732E-19
 -1      4178 8.82371E-05-2.23221E-05-2.82133E-05-1.53045E-06-4.24483E-19-8.01216E-19
 -1      4179 8.53256E-05-2.09494E-05-2.76009E-05-3.35567E-06-6.07772E-19-1.11491E-18
 -1      4180 8.63090E-05-2.14010E-05-2.78411E-05-2.99129E-06-9.86609E-19-1.39338E-18
 -1      4181 8.63591E-05-2.12732E-05-2.78466E-05-1.82265E-06-7.70130E-19-1.74595E-18
 -1      4182 8.28491E-05-2.00447E-05-2.69293E-05-4.16002E-06 6.24664E-19-1.39871E-18
 -1      4183 8.40306E-05-2.04511E-05-2.72815E-05-3.66712E-06 1.85354E-19-1.02364E-18
 -1      4184 8.40566E-05-2.02016E-05-2.73024E-05-2.18131E-06-3.30230E-19-1.90118E-18
 -1      4185 7.97921E-05-1.92484E-05-2.59557E-05-5.32502E-06-6.27762E-19-7.32360E-19
 -1      4186 8.11964E-05-1.95591E-05-2.64642E-05-4.59961E-06 3.07898E-19-7.44054E-19
 -1      4187 8.11718E-05-1.91136E-05-2.65086E-05-2.65394E-06-1.49438E-20-1.26635E-18
 -1      4188 7.60827E-05-1.86718E-05-2.45754E-05-7.14565E-06-7.26761E-19-1.61493E-18
 -1      4189 7.76158E-05-1.88086E-05-2.52783E-05-6.05399E-06-6.46313E-19-6.37525E-19
 -1      4190 7.73499E-05-1.79725E-05-2.53516E-05-3.34702E-06-5.49002E-19-8.43287E-19
 -1      4191 9.04229E-05-2.38099E-05-2.85539E-05-1.86453E-06-3.86741E-19 3.32338E-20
 -1      4192 9.09895E-05-2.42463E-05-2.86144E-05-1.66121E-06-5.91348E-19 2.37856E-21
 -1      4193 9.10543E-05-2.42663E-05-2.86021E-05-1.06561E-06-2.22846E-19 4.81073E-19
 -1      4194 9.66451E-05-2.88524E-05-2.90554E-05-6.10819E-07-2.78723E-20-1.30777E-18
 -1      4195 9.66894E-05-2.86821E-05-2.91426E-05-5.29607E-07 1.49396E-19-1.38761E-18
 -1      4196 9.67321E-05-2.89129E-05-2.90667E-05-5.11872E-07-1.45428E-20-1.48537E-18
 -1      4197 9.59245E-05-2.51848E-05-3.03142E-05-3.18967E-07-2.65673E-19-2.54675E-18
 -1      4198 9.60762E-05-2.56085E-05-3.02077E-05-3.90864E-07-3.40744E-19-2.27736E-18
 -1      4199 9.63609E-05-2.63141E-05-3.00203E-05-1.90197E-07-4.04623E-19-2.27630E-18
 -1      4200 9.62763E-05-2.59531E-05-3.01305E-05-1.42194E-07-2.38502E-19-2.28247E-18
 -1      4201 9.68366E-05-2.77580E-05-2.96038E-05 6.22966E-08-3.08437E-19-1.88296E-18
 -1      4202 9.69079E-05-2.81693E-05-2.94613E-05 1.63670E-07-4.51261E-19-1.72573E-18
 -1      4203 9.69526E-05-2.82886E-05-2.94274E-05 9.33695E-08-2.29148E-19-1.39684E-18
 -1      4204 9.44455E-05-2.73660E-05-2.87487E-05-6.83379E-07 7.32282E-20-5.60871E-19
 -1      4205 9.46604E-05-2.76039E-05-2.87412E-05-6.16566E-07 1.09256E-19-7.21691E-19
 -1      4206 7.14664E-05-1.65912E-05-2.35440E-05-2.18546E-06-3.23818E-19-1.96324E-18
 -1      4207 7.17758E-05-1.71922E-05-2.33249E-05-6.09203E-06-6.37880E-19-1.89307E-18
 -1      4208 9.68940E-05-2.89248E-05-2.91288E-05 2.64336E-07-5.63667E-20-1.11670E-18
 -1      4209 9.68314E-05-2.90499E-05-2.90484E-05 3.03939E-07 1.84893E-19-1.05658E-18
 -1      4210 9.69534E-05-2.88194E-05-2.92027E-05 1.39044E-07 8.67163E-20-7.13485E-19
 -1      4211 9.32863E-05-2.61973E-05-2.87543E-05-1.01052E-06 5.47101E-19 4.07381E-19
 -1      4212 9.35994E-05-2.65147E-05-2.87556E-05-8.95522E-07 9.29691E-19 5.61036E-19
 -1      4213 9.29607E-05-2.58936E-05-2.87308E-05-7.23068E-07 4.39556E-19 9.19358E-19
 -1      4214 9.39211E-05-2.68231E-05-2.87573E-05-8.25274E-07 6.84596E-19-8.14850E-21
 -1      4215 9.41787E-05-2.70992E-05-2.87521E-05-7.35542E-07 2.16057E-19-3.82619E-20
 -1      4216 9.36668E-05-2.65716E-05-2.87463E-05-5.95123E-07 3.50388E-19-2.42190E-19
 -1      4217 8.40493E-05-3.11768E-05-2.25944E-05 2.25692E-05 6.98696E-19-1.07281E-18
 -1      4218 9.48852E-05-2.78326E-05-2.87366E-05-5.80219E-07 5.62803E-20-5.67278E-19
 -1      4219 9.50672E-05-2.80355E-05-2.87299E-05-5.32531E-07-1.07299E-19-6.24931E-19
 -1      4220 9.47361E-05-2.76706E-05-2.87391E-05-4.20777E-07 2.28201E-19-1.31351E-18
 -1      4221 9.61642E-05-2.90239E-05-2.87733E-05-4.51473E-07 2.10849E-19-1.44395E-18
 -1      4222 9.62866E-05-2.90902E-05-2.87977E-05-4.45061E-07-1.74158E-19-1.39307E-18
 -1      4223 9.68279E-05-2.90895E-05-2.90342E-05 1.64977E-07 9.97473E-20-1.01220E-18
 -1      4224 8.97817E-05-2.33270E-05-2.84529E-05-1.28141E-06-2.47483E-19-3.73203E-20
 -1      4225 7.21548E-05-1.70642E-05-2.36575E-05 3.47920E-06 4.02940E-19-2.29561E-18
 -1      4226 7.10706E-05-1.63756E-05-2.34232E-05-3.96026E-08-4.56273E-21-1.53350E-18
 -1      4227 7.44018E-05-1.72897E-05-2.45432E-05-1.45047E-06-8.63146E-20-1.35762E-18
 -1      4228 7.48890E-05-1.77283E-05-2.45045E-05 3.14704E-06 5.11289E-20-2.32929E-18
 -1      4229 9.66311E-05-2.91409E-05-2.89240E-05-4.45188E-07-3.48915E-20-1.51001E-18
 -1      4230 9.67226E-05-2.90911E-05-2.89830E-05-4.19567E-07 5.21764E-20-1.41796E-18
 -1      4231 9.58907E-05-2.88274E-05-2.87405E-05-4.54423E-07-5.13552E-20-1.31192E-18
 -1      4232 9.60226E-05-2.89327E-05-2.87527E-05-4.45744E-07 2.70310E-19-1.14802E-18
 -1      4233 9.61337E-05-2.89898E-05-2.87785E-05-3.18712E-07-6.78764E-21-9.62765E-19
 -1      4234 9.42498E-05-2.71619E-05-2.87460E-05-4.94947E-07-4.22297E-20-1.16467E-18
 -1      4235 9.67948E-05-2.85299E-05-2.92589E-05-3.97293E-07 2.00012E-19-1.53841E-18
 -1      4236 9.66878E-05-2.84398E-05-2.92516E-05-4.58059E-07 3.37381E-19-1.31583E-18
 -1      4237 9.66848E-05-2.81426E-05-2.93712E-05-3.04034E-07 4.67647E-19-1.39844E-18
 -1      4238 9.65240E-05-2.91532E-05-2.88719E-05-4.40904E-07-1.23293E-19-1.30496E-18
 -1      4239 9.66371E-05-2.91597E-05-2.89229E-05-3.11989E-07-1.34939E-19-1.54186E-18
 -1      4240 9.64138E-05-2.91365E-05-2.88322E-05-4.52334E-07-3.48722E-19-1.35449E-18
 -1      4241 9.65595E-05-2.68448E-05-2.98784E-05-1.10665E-07-3.47492E-19-2.18091E-18
 -1      4242 9.67186E-05-2.73686E-05-2.97233E-05 2.97433E-08-3.07815E-19-2.02056E-18
 -1      4243 9.68085E-05-2.75597E-05-2.96779E-05 3.41004E-08-1.32146E-19-1.77058E-18
 -1      4244 9.65212E-05-2.66759E-05-2.99366E-05-9.18121E-08-2.38219E-19-2.11702E-18
 -1      4245 9.65429E-05-2.67743E-05-2.99097E-05 9.65250E-08 1.54819E-19-1.93691E-18
 -1      4246 9.64999E-05-2.65880E-05-2.99641E-05 6.85795E-08 7.78694E-20-2.08735E-18
 -1      4247 9.66172E-05-2.78222E-05-2.94874E-05-2.14960E-07 3.21184E-19-1.56782E-18
 -1      4248 9.65295E-05-2.73619E-05-2.96439E-05 2.17360E-08 2.80918E-19-1.85040E-18
 -1      4249 9.65421E-05-2.71243E-05-2.97491E-05 6.91719E-08 1.94380E-19-1.91418E-18
 -1      4250 9.67459E-05-2.79514E-05-2.94867E-05-2.05859E-07 2.70300E-19-1.57461E-18
 -1      4251 9.67185E-05-2.71681E-05-2.98026E-05-2.34919E-08 1.42789E-20-1.85523E-18
 -1      4252 9.65075E-05-2.65681E-05-2.99761E-05 1.21180E-08-9.14081E-21-1.98950E-18
 -1      4253 9.68238E-05-2.90474E-05-2.90507E-05-2.90733E-07-4.31684E-20-1.79482E-18
 -1      4254 9.67984E-05-2.90006E-05-2.90570E-05-4.15068E-07-3.25865E-20-1.55020E-18
 -1      4255 9.68605E-05-2.88618E-05-2.91392E-05-3.63176E-07-3.94158E-20-1.60210E-18
 -1      4256 9.41488E-05-2.70939E-05-2.87431E-05-1.11033E-07-1.85313E-19-1.38717E-18
 -1      4257 9.44194E-05-2.73636E-05-2.87413E-05-7.94337E-08 1.90154E-19-1.52331E-18
 -1      4258 9.68635E-05-2.90818E-05-2.90477E-05-6.63867E-08-1.04458E-19-1.14389E-18
 -1      4259 9.67734E-05-2.91529E-05-2.89771E-05-5.61876E-08-3.84520E-20-1.23792E-18
 -1      4260 9.69781E-05-2.87985E-05-2.92198E-05-6.65868E-08 6.79374E-20-1.15550E-18
 -1      4261 9.69354E-05-2.89702E-05-2.91248E-05-4.49419E-08 5.22184E-21-1.19326E-18
 -1      4262 9.66672E-05-2.91770E-05-2.89223E-05-6.70711E-08 2.01186E-20-1.25336E-18
 -1      4263 9.65473E-05-2.91715E-05-2.88726E-05-6.10204E-08-6.62387E-20-1.38692E-18
 -1      4264 9.64196E-05-2.91315E-05-2.88358E-05-6.69103E-08-2.27813E-19-1.40955E-18
 -1      4265 9.62806E-05-2.90687E-05-2.88030E-05-6.26930E-08-2.04174E-19-1.43370E-18
 -1      4266 9.61375E-05-2.89803E-05-2.87804E-05-6.78605E-08-9.22146E-20-1.20578E-18
 -1      4267 9.59839E-05-2.88724E-05-2.87609E-05-6.41242E-08 6.06603E-20-1.25218E-18
 -1      4268 9.55383E-05-2.84868E-05-2.87371E-05 3.75431E-08-2.99584E-19-1.56902E-18
 -1      4269 9.53563E-05-2.83120E-05-2.87339E-05 4.88520E-08-2.29025E-19-1.82543E-18
 -1      4270 9.51044E-05-2.80611E-05-2.87338E-05-8.37319E-08 1.77854E-20-1.70465E-18
 -1      4271 9.48935E-05-2.78474E-05-2.87357E-05-7.23823E-08 2.01694E-19-1.76895E-18
 -1      4272 9.46654E-05-2.76155E-05-2.87389E-05-9.57899E-08 3.42645E-19-1.57028E-18
 -1      4273 9.38572E-05-2.68015E-05-2.87429E-05-8.78218E-08-6.16580E-20-1.69709E-18
 -1      4274 9.35312E-05-2.64903E-05-2.87394E-05-1.28007E-07 2.77577E-19-1.21756E-18
 -1      4275 9.31807E-05-2.61546E-05-2.87321E-05-9.60812E-08 3.28358E-20-9.01447E-19
 -1      4276 9.27845E-05-2.57995E-05-2.87181E-05-1.44577E-07 3.88046E-20-5.15055E-19
 -1      4277 9.23608E-05-2.54189E-05-2.86983E-05-1.01161E-07 1.64195E-22-3.16856E-19
 -1      4278 9.18776E-05-2.50193E-05-2.86672E-05-1.57154E-07-2.39727E-19 4.21459E-20
 -1      4279 9.13649E-05-2.45948E-05-2.86276E-05-9.82666E-08 2.49171E-19-3.62357E-20
 -1      4280 9.07760E-05-2.41530E-05-2.85706E-05-1.60435E-07 2.40603E-19-3.58297E-19
 -1      4281 9.01567E-05-2.36889E-05-2.85017E-05-8.02127E-08 2.12788E-19-2.75571E-19
 -1      4282 8.94399E-05-2.32109E-05-2.84070E-05-1.47122E-07 1.23256E-19-7.93358E-19
 -1      4283 8.86932E-05-2.27156E-05-2.82965E-05-3.67529E-08-9.73697E-20-8.67151E-19
 -1      4284 8.78200E-05-2.22112E-05-2.81486E-05-1.07782E-07-4.06926E-19-1.00386E-18
 -1      4285 8.69189E-05-2.16959E-05-2.79798E-05 4.61239E-08-1.00303E-19-9.47686E-19
 -1      4286 8.58494E-05-2.11774E-05-2.77576E-05-3.07899E-08-7.18129E-20-1.31844E-18
 -1      4287 8.47548E-05-2.06546E-05-2.75081E-05 1.86899E-07-2.40657E-19-1.63002E-18
 -1      4288 8.34282E-05-2.01328E-05-2.71825E-05 9.85044E-08-1.73350E-19-1.77747E-18
 -1      4289 8.20809E-05-1.96125E-05-2.68215E-05 4.09408E-07-2.33621E-19-1.91685E-18
 -1      4290 8.03996E-05-1.90877E-05-2.63498E-05 3.03695E-07-1.95411E-19-1.45897E-18
 -1      4291 7.87201E-05-1.85676E-05-2.58323E-05 7.38306E-07 4.95694E-19-1.84734E-18
 -1      4292 9.65643E-05-2.70369E-05-2.98016E-05 1.00625E-07 1.02415E-19-2.02575E-18
 -1      4293 9.65482E-05-2.68482E-05-2.98698E-05 1.02269E-07 1.41895E-19-1.90997E-18
 -1      4294 9.67288E-05-2.72975E-05-2.97481E-05 7.67119E-09 4.24550E-21-1.99352E-18
 -1      4295 9.66930E-05-2.74808E-05-2.96577E-05-5.44612E-08 7.72463E-20-1.81559E-18
 -1      4296 7.65939E-05-1.79981E-05-2.51577E-05 6.73926E-07 3.50112E-19-2.11564E-18
 -1      4297 9.64014E-05-2.91285E-05-2.88349E-05-3.17678E-07-1.84650E-19-1.29158E-18
 -1      4298 9.68447E-05-2.75984E-05-2.96773E-05 1.96977E-08-1.27923E-19-1.84313E-18
 -1      4299 9.64697E-05-2.65008E-05-2.99866E-05-6.81088E-08-1.37775E-19-1.93183E-18
 -1      4300 9.69584E-05-2.81588E-05-2.94861E-05-4.57479E-08 1.05178E-19-1.67362E-18
 -1      4301 9.70004E-05-2.84924E-05-2.93589E-05-5.41430E-09 2.67754E-19-1.23936E-18
 -1      4302 9.69392E-05-2.86686E-05-2.92606E-05-2.09992E-07 2.34410E-19-1.65957E-18
 -1      4303 9.68588E-05-2.78191E-05-2.95898E-05-7.16885E-08 2.55436E-19-1.74279E-18
 -1      4304 9.58688E-05-2.87868E-05-2.87504E-05-2.72145E-07-1.05565E-19-9.77260E-19
 -1      4305 9.58537E-05-2.87657E-05-2.87516E-05-1.68693E-08 1.48146E-19-1.41034E-18
 -1      4306 9.56875E-05-2.86229E-05-2.87415E-05-1.23512E-08 2.47252E-20-1.34894E-18
 -1      4307 9.57641E-05-2.87192E-05-2.87341E-05-4.05773E-07-2.47060E-19-1.24587E-18
 -1      4308 9.52030E-05-2.81539E-05-2.87342E-05-2.50380E-07-1.50395E-19-1.23029E-18
 -1      4309 9.56204E-05-2.85826E-05-2.87304E-05-4.21806E-07-1.00669E-19-7.06363E-19
 -1      4310 9.55964E-05-2.85379E-05-2.87390E-05-1.74455E-07-2.58157E-19-1.27796E-18
 -1      4311 9.53123E-05-2.82747E-05-2.87300E-05-3.99028E-07-3.09412E-19-8.78963E-19
 -1      4312 9.68937E-05-2.85883E-05-2.92764E-05-3.06223E-07 2.22190E-19-1.69325E-18
 -1      4313 9.68957E-05-2.83064E-05-2.93902E-05-2.11473E-07 3.07007E-19-1.68144E-18
 -1      4314 9.54741E-05-2.84439E-05-2.87281E-05-3.73279E-07-1.48809E-19-6.24073E-19
 -1      4315 9.67973E-05-2.77854E-05-2.95780E-05-1.24709E-07 1.23624E-19-1.71967E-18
 -1      4316 7.67319E-05-1.79721E-05-2.51168E-05 2.84058E-06 5.10236E-19-2.85209E-18
 -1      4317 9.67712E-05-2.78628E-05-2.95369E-05-1.56808E-07 1.56058E-19-1.58597E-18
 -3
    1PSTEP                         4           1           1          
  100CL  101 1.000000000        4317                     0    1           1
 -4  ERROR       1    1
 -5  STR(%)      1    1    0    0
 -1         1 1.20689E+01
 -1         2 2.45694E+01
 -1         3 1.19067E-01
 -1         4 1.22061E-01
 -1         5 1.40412E+01
 -1         6 1.31453E+01
 -1         7 1.31453E+01
 -1         8 3.66354E+00
 -1         9 1.82592E+00
 -1        10 1.28950E+00
 -1        11 1.04325E+00
 -1        12 8.99706E-01
 -1        13 8.08849E-01
 -1        14 7.54337E-01
 -1        15 7.56305E-01
 -1        16 8.13151E-01
 -1        17 9.00592E-01
 -1        18 1.05210E+00
 -1        19 1.30709E+00
 -1        20 1.83482E+00
 -1        21 3.50516E+00
 -1        22 8.64287E+00
 -1        23 1.31453E+01
 -1        24 4.31965E+00
 -1        25 3.34358E+00
 -1        26 2.11423E+00
 -1        27 1.36594E+00
 -1        28 1.01641E+00
 -1        29 7.78380E-01
 -1        30 5.99866E-01
 -1        31 4.61391E-01
 -1        32 3.55065E-01
 -1        33 2.78586E-01
 -1        34 2.18185E-01
 -1        35 1.71865E-01
 -1        36 1.37680E-01
 -1        37 1.13807E-01
 -1        38 9.85746E-02
 -1        39 1.00999E-01
 -1        40 1.18652E-01
 -1        41 1.49403E-01
 -1        42 1.90971E-01
 -1        43 2.43593E-01
 -1        44 3.06424E-01
 -1        45 3.76754E-01
 -1        46 4.48938E-01
 -1        47 5.33741E-01
 -1        48 6.83022E-01
 -1        49 8.53522E-01
 -1        50 1.04201E+00
 -1        51 1.17624E+00
 -1        52 1.17750E+00
 -1        53 1.24225E+00
 -1        54 1.24225E+00
 -1        55 1.50947E+00
 -1        56 2.10707E+00
 -1        57 3.30450E+00
 -1        58 3.76066E+00
 -1        59 3.76066E+00
 -1        60 3.70622E+00
 -1        61 3.29194E+00
 -1        62 2.11844E+00
 -1        63 1.39852E+00
 -1        64 1.02907E+00
 -1        65 1.09288E+00
 -1        66 1.09288E+00
 -1        67 1.00653E+00
 -1        68 8.01678E-01
 -1        69 8.01678E-01
 -1        70 6.88488E-01
 -1        71 5.54727E-01
 -1        72 1.40412E+01
 -1        73 3.39587E+00
 -1        74 2.41478E+00
 -1        75 1.66792E+00
 -1        76 1.14722E+00
 -1        77 9.07236E-01
 -1        78 7.33279E-01
 -1        79 5.90939E-01
 -1        80 4.73022E-01
 -1        81 3.75849E-01
 -1        82 3.03041E-01
 -1        83 2.44683E-01
 -1        84 1.98196E-01
 -1        85 1.63024E-01
 -1        86 1.38428E-01
 -1        87 1.24156E-01
 -1        88 1.34059E-01
 -1        89 1.52762E-01
 -1        90 1.79340E-01
 -1        91 2.12393E-01
 -1        92 2.55143E-01
 -1        93 3.26583E-01
 -1        94 4.10244E-01
 -1        95 5.02054E-01
 -1        96 5.93483E-01
 -1        97 6.69447E-01
 -1        98 7.06192E-01
 -1        99 8.15571E-01
 -1       100 1.06177E+00
 -1       101 1.25617E+00
 -1       102 1.39499E+00
 -1       103 1.71703E+00
 -1       104 1.71703E+00
 -1       105 2.13423E+00
 -1       106 2.89973E+00
 -1       107 3.82154E+00
 -1       108 4.24755E+00
 -1       109 4.24755E+00
 -1       110 4.01583E+00
 -1       111 2.60132E+00
 -1       112 1.52369E+00
 -1       113 1.23082E+00
 -1       114 1.51847E+00
 -1       115 1.51847E+00
 -1       116 1.46851E+00
 -1       117 1.19816E+00
 -1       118 9.85157E-01
 -1       119 8.27028E-01
 -1       120 4.66420E-01
 -1       121 2.37409E-01
 -1       122 2.37409E-01
 -1       123 1.85476E-01
 -1       124 1.02546E-01
 -1       125 9.51488E-02
 -1       126 1.75047E-01
 -1       127 2.24295E-01
 -1       128 2.30457E-01
 -1       129 2.30457E-01
 -1       130 1.94925E-01
 -1       131 1.24943E-01
 -1       132 4.71532E-02
 -1       133 1.13772E-01
 -1       134 1.68256E-01
 -1       135 2.75433E-01
 -1       136 3.13019E-01
 -1       137 2.50188E+01
 -1       138 4.80197E+01
 -1       139 4.80197E+01
 -1       140 2.18474E+01
 -1       141 1.20515E+01
 -1       142 1.24645E+01
 -1       143 1.24645E+01
 -1       144 1.32059E+01
 -1       145 1.32059E+01
 -1       146 1.37962E+01
 -1       147 3.28294E+01
 -1       148 3.28806E+01
 -1       149 2.71744E+01
 -1       150 2.51980E+01
 -1       151 2.51982E+01
 -1       152 2.51982E+01
 -1       153 4.00894E+01
 -1       154 4.00894E+01
 -1       155 1.58341E+01
 -1       156 1.31358E+01
 -1       157 1.31358E+01
 -1       158 1.25209E+01
 -1       159 1.25209E+01
 -1       160 2.07433E+01
 -1       161 4.75312E+01
 -1       162 4.75312E+01
 -1       163 2.46380E+01
 -1       164 6.07809E+00
 -1       165 2.30008E+00
 -1       166 1.50515E+00
 -1       167 1.15769E+00
 -1       168 9.71743E-01
 -1       169 8.64354E-01
 -1       170 7.96260E-01
 -1       171 7.56305E-01
 -1       172 7.99700E-01
 -1       173 8.67216E-01
 -1       174 9.80694E-01
 -1       175 1.17192E+00
 -1       176 1.52681E+00
 -1       177 2.26006E+00
 -1       178 3.93109E+00
 -1       179 1.40412E+01
 -1       180 4.31965E+00
 -1       181 3.34358E+00
 -1       182 2.11423E+00
 -1       183 1.45014E+00
 -1       184 1.02908E+00
 -1       185 7.78380E-01
 -1       186 5.99866E-01
 -1       187 4.73438E-01
 -1       188 3.75139E-01
 -1       189 2.97295E-01
 -1       190 2.42295E-01
 -1       191 1.96106E-01
 -1       192 1.58474E-01
 -1       193 1.28615E-01
 -1       194 1.05435E-01
 -1       195 9.65630E-02
 -1       196 1.00999E-01
 -1       197 1.23799E-01
 -1       198 1.54711E-01
 -1       199 1.93951E-01
 -1       200 2.43593E-01
 -1       201 3.06424E-01
 -1       202 4.01153E-01
 -1       203 5.12123E-01
 -1       204 6.26488E-01
 -1       205 7.28129E-01
 -1       206 8.58582E-01
 -1       207 1.04201E+00
 -1       208 1.17624E+00
 -1       209 1.17750E+00
 -1       210 1.24225E+00
 -1       211 1.16863E+00
 -1       212 1.50947E+00
 -1       213 2.14745E+00
 -1       214 3.30450E+00
 -1       215 3.76066E+00
 -1       216 3.70622E+00
 -1       217 3.29194E+00
 -1       218 2.15827E+00
 -1       219 1.39852E+00
 -1       220 1.00723E+00
 -1       221 1.02907E+00
 -1       222 1.09288E+00
 -1       223 1.00653E+00
 -1       224 7.96725E-01
 -1       225 8.01678E-01
 -1       226 6.88488E-01
 -1       227 5.54727E-01
 -1       228 3.39587E+00
 -1       229 2.41478E+00
 -1       230 1.66792E+00
 -1       231 1.14722E+00
 -1       232 9.07236E-01
 -1       233 7.33279E-01
 -1       234 5.90939E-01
 -1       235 4.73022E-01
 -1       236 3.75849E-01
 -1       237 3.03041E-01
 -1       238 2.44683E-01
 -1       239 1.98638E-01
 -1       240 1.64007E-01
 -1       241 1.38428E-01
 -1       242 1.23794E-01
 -1       243 1.24156E-01
 -1       244 1.34059E-01
 -1       245 1.52762E-01
 -1       246 1.80054E-01
 -1       247 2.29038E-01
 -1       248 2.88405E-01
 -1       249 3.56658E-01
 -1       250 4.30387E-01
 -1       251 5.03334E-01
 -1       252 5.93483E-01
 -1       253 6.69447E-01
 -1       254 7.30096E-01
 -1       255 8.96556E-01
 -1       256 1.06177E+00
 -1       257 1.25617E+00
 -1       258 1.39499E+00
 -1       259 1.71703E+00
 -1       260 1.65418E+00
 -1       261 2.13423E+00
 -1       262 2.89973E+00
 -1       263 3.82154E+00
 -1       264 4.24755E+00
 -1       265 4.01583E+00
 -1       266 2.60132E+00
 -1       267 1.52369E+00
 -1       268 1.07247E+00
 -1       269 1.23082E+00
 -1       270 1.51847E+00
 -1       271 1.46851E+00
 -1       272 1.19816E+00
 -1       273 9.85157E-01
 -1       274 8.27028E-01
 -1       275 5.06993E-01
 -1       276 2.94760E-01
 -1       277 2.94760E-01
 -1       278 2.91971E-01
 -1       279 1.49814E-01
 -1       280 2.94120E-01
 -1       281 4.06880E-01
 -1       282 4.40644E-01
 -1       283 4.40644E-01
 -1       284 4.27633E-01
 -1       285 3.35643E-01
 -1       286 2.07555E-01
 -1       287 1.83176E-01
 -1       288 2.73083E-01
 -1       289 2.73083E-01
 -1       290 3.27694E-01
 -1       291 3.06905E+01
 -1       292 2.87041E+01
 -1       293 4.80197E+01
 -1       294 2.34268E+01
 -1       295 1.19134E+01
 -1       296 1.20515E+01
 -1       297 1.24645E+01
 -1       298 1.21645E+01
 -1       299 1.32059E+01
 -1       300 1.16815E+01
 -1       301 1.37962E+01
 -1       302 3.28806E+01
 -1       303 3.28806E+01
 -1       304 2.51980E+01
 -1       305 2.65848E+01
 -1       306 2.65848E+01
 -1       307 3.44944E+01
 -1       308 4.00894E+01
 -1       309 1.58341E+01
 -1       310 1.16668E+01
 -1       311 1.31358E+01
 -1       312 1.20689E+01
 -1       313 1.19995E+01
 -1       314 1.25209E+01
 -1       315 1.11101E+01
 -1       316 2.18298E+01
 -1       317 4.75312E+01
 -1       318 2.89862E+01
 -1       319 3.06905E+01
 -1       320 1.06942E+00
 -1       321 2.47890E+00
 -1       322 7.88398E-01
 -1       323 6.94787E-01
 -1       324 6.31823E-01
 -1       325 5.87747E-01
 -1       326 5.90960E-01
 -1       327 6.34440E-01
 -1       328 7.00937E-01
 -1       329 7.95922E-01
 -1       330 9.31193E-01
 -1       331 1.15908E+00
 -1       332 1.32819E+00
 -1       333 2.20176E+00
 -1       334 1.91549E+00
 -1       335 1.73182E+00
 -1       336 1.27023E+00
 -1       337 9.10283E-01
 -1       338 6.59945E-01
 -1       339 5.42281E-01
 -1       340 4.46385E-01
 -1       341 3.62390E-01
 -1       342 2.97295E-01
 -1       343 2.43416E-01
 -1       344 1.97584E-01
 -1       345 1.59691E-01
 -1       346 1.30032E-01
 -1       347 1.05435E-01
 -1       348 9.00525E-02
 -1       349 8.56754E-02
 -1       350 1.00995E-01
 -1       351 1.23799E-01
 -1       352 1.54711E-01
 -1       353 2.09091E-01
 -1       354 2.83495E-01
 -1       355 3.70951E-01
 -1       356 4.68793E-01
 -1       357 5.70428E-01
 -1       358 6.63731E-01
 -1       359 7.45292E-01
 -1       360 8.36450E-01
 -1       361 9.03518E-01
 -1       362 8.70326E-01
 -1       363 6.79084E-01
 -1       364 6.86197E-01
 -1       365 8.85159E-01
 -1       366 1.49442E+00
 -1       367 1.96778E+00
 -1       368 2.32138E+00
 -1       369 2.19886E+00
 -1       370 2.28369E+00
 -1       371 1.96302E+00
 -1       372 1.52727E+00
 -1       373 1.05084E+00
 -1       374 7.27338E-01
 -1       375 6.85940E-01
 -1       376 6.73233E-01
 -1       377 6.23764E-01
 -1       378 5.75702E-01
 -1       379 5.76642E-01
 -1       380 4.75869E-01
 -1       381 1.13202E+00
 -1       382 8.93906E-01
 -1       383 7.06916E-01
 -1       384 5.48738E-01
 -1       385 4.41637E-01
 -1       386 3.76226E-01
 -1       387 3.13808E-01
 -1       388 2.58550E-01
 -1       389 2.14402E-01
 -1       390 1.76643E-01
 -1       391 1.47940E-01
 -1       392 1.25813E-01
 -1       393 1.10132E-01
 -1       394 1.05160E-01
 -1       395 1.07918E-01
 -1       396 1.20858E-01
 -1       397 1.51446E-01
 -1       398 1.94698E-01
 -1       399 2.74266E-01
 -1       400 3.73202E-01
 -1       401 4.91792E-01
 -1       402 6.26746E-01
 -1       403 7.68812E-01
 -1       404 8.99874E-01
 -1       405 1.01123E+00
 -1       406 1.08851E+00
 -1       407 1.08851E+00
 -1       408 1.04776E+00
 -1       409 8.16388E-01
 -1       410 7.50282E-01
 -1       411 1.33752E+00
 -1       412 2.03994E+00
 -1       413 2.22402E+00
 -1       414 2.27172E+00
 -1       415 2.30948E+00
 -1       416 2.42703E+00
 -1       417 1.84745E+00
 -1       418 1.05960E+00
 -1       419 7.74594E-01
 -1       420 8.68422E-01
 -1       421 9.89794E-01
 -1       422 1.04852E+00
 -1       423 9.30766E-01
 -1       424 8.00295E-01
 -1       425 7.08740E-01
 -1       426 5.06993E-01
 -1       427 3.19206E-01
 -1       428 5.33097E-01
 -1       429 5.33097E-01
 -1       430 3.67743E-01
 -1       431 5.54096E-01
 -1       432 6.42854E-01
 -1       433 6.42854E-01
 -1       434 6.39267E-01
 -1       435 5.89699E-01
 -1       436 4.34230E-01
 -1       437 2.74439E-01
 -1       438 3.24698E-01
 -1       439 4.31616E-01
 -1       440 2.87041E+01
 -1       441 3.32416E+01
 -1       442 3.32416E+01
 -1       443 1.66884E+01
 -1       444 9.34783E+00
 -1       445 9.12273E-01
 -1       446 1.03662E+01
 -1       447 1.07947E+01
 -1       448 1.11795E+01
 -1       449 8.98455E+00
 -1       450 7.38149E+00
 -1       451 1.28625E+01
 -1       452 2.21630E+01
 -1       453 2.46516E+01
 -1       454 3.53764E+01
 -1       455 3.53764E+01
 -1       456 2.19107E+01
 -1       457 2.34455E+01
 -1       458 1.44616E+01
 -1       459 8.18783E+00
 -1       460 8.36298E+00
 -1       461 1.07891E+01
 -1       462 1.02163E+01
 -1       463 1.01112E+01
 -1       464 7.24240E+00
 -1       465 9.28426E+00
 -1       466 1.67183E+01
 -1       467 2.89862E+01
 -1       468 2.94434E+01
 -1       469 7.87865E+00
 -1       470 6.07175E+00
 -1       471 2.04661E+01
 -1       472 1.05000E+00
 -1       473 4.86333E-01
 -1       474 5.10641E-01
 -1       475 4.31761E-01
 -1       476 4.57467E-01
 -1       477 4.86851E-01
 -1       478 5.10728E-01
 -1       479 5.10728E-01
 -1       480 6.07204E-01
 -1       481 8.93906E-01
 -1       482 8.04201E-01
 -1       483 2.07055E+01
 -1       484 7.04747E-01
 -1       485 5.91834E-01
 -1       486 4.80035E-01
 -1       487 3.81867E-01
 -1       488 3.27986E-01
 -1       489 2.79105E-01
 -1       490 2.33072E-01
 -1       491 1.92792E-01
 -1       492 1.59325E-01
 -1       493 1.30032E-01
 -1       494 1.04710E-01
 -1       495 8.49765E-02
 -1       496 6.87397E-02
 -1       497 7.61836E-02
 -1       498 9.10541E-02
 -1       499 1.27101E-01
 -1       500 1.81613E-01
 -1       501 2.47502E-01
 -1       502 3.25581E-01
 -1       503 4.15220E-01
 -1       504 5.13416E-01
 -1       505 6.13612E-01
 -1       506 7.04412E-01
 -1       507 7.76423E-01
 -1       508 8.75173E-01
 -1       509 9.66047E-01
 -1       510 1.00108E+00
 -1       511 1.09600E+00
 -1       512 1.27617E+00
 -1       513 1.44250E+00
 -1       514 1.57963E+00
 -1       515 2.08114E+00
 -1       516 2.54836E+00
 -1       517 2.53142E+00
 -1       518 2.20209E+00
 -1       519 1.60438E+00
 -1       520 1.58339E+00
 -1       521 1.28935E+00
 -1       522 1.10589E+00
 -1       523 8.26762E-01
 -1       524 7.07754E-01
 -1       525 5.86921E-01
 -1       526 4.73540E-01
 -1       527 5.48738E-01
 -1       528 4.41637E-01
 -1       529 3.76226E-01
 -1       530 3.13808E-01
 -1       531 2.58550E-01
 -1       532 2.14402E-01
 -1       533 1.76030E-01
 -1       534 1.43264E-01
 -1       535 1.16239E-01
 -1       536 9.44684E-02
 -1       537 8.01598E-02
 -1       538 8.15754E-02
 -1       539 9.78135E-02
 -1       540 1.21079E-01
 -1       541 1.77950E-01
 -1       542 2.49043E-01
 -1       543 3.36600E-01
 -1       544 4.41752E-01
 -1       545 5.63441E-01
 -1       546 6.96813E-01
 -1       547 8.31112E-01
 -1       548 9.47411E-01
 -1       549 1.03625E+00
 -1       550 1.15366E+00
 -1       551 1.24899E+00
 -1       552 1.25117E+00
 -1       553 1.39678E+00
 -1       554 1.47945E+00
 -1       555 1.82009E+00
 -1       556 2.22402E+00
 -1       557 3.08482E+00
 -1       558 3.17107E+00
 -1       559 2.44762E+00
 -1       560 1.90794E+00
 -1       561 1.74949E+00
 -1       562 1.47398E+00
 -1       563 1.20291E+00
 -1       564 1.02225E+00
 -1       565 9.27756E-01
 -1       566 7.77246E-01
 -1       567 6.65424E-01
 -1       568 5.88417E-01
 -1       569 6.61823E-01
 -1       570 8.66945E-01
 -1       571 4.97032E-01
 -1       572 4.90637E-01
 -1       573 8.66945E-01
 -1       574 8.82501E-01
 -1       575 8.82501E-01
 -1       576 7.29373E-01
 -1       577 4.88808E-01
 -1       578 5.13351E-01
 -1       579 4.62145E-01
 -1       580 3.32416E+01
 -1       581 1.28732E+01
 -1       582 7.06916E-01
 -1       583 2.94434E+01
 -1       584 9.66975E+00
 -1       585 4.68679E+00
 -1       586 2.12611E+01
 -1       587 6.66919E+00
 -1       588 4.57412E-01
 -1       589 8.33505E+00
 -1       590 1.03152E+01
 -1       591 7.52089E+00
 -1       592 3.76635E+00
 -1       593 7.45886E+00
 -1       594 1.57435E+01
 -1       595 2.46516E+01
 -1       596 3.53764E+01
 -1       597 2.19107E+01
 -1       598 1.06674E+01
 -1       599 6.67965E+00
 -1       600 4.04606E+00
 -1       601 6.65136E+00
 -1       602 8.14254E+00
 -1       603 7.56149E+00
 -1       604 5.37984E+00
 -1       605 5.65805E+00
 -1       606 8.94152E+00
 -1       607 1.34277E+01
 -1       608 8.78678E-01
 -1       609 1.32889E+00
 -1       610 5.10641E-01
 -1       611 4.62633E-01
 -1       612 3.16314E+00
 -1       613 1.58218E+01
 -1       614 1.14460E+01
 -1       615 4.31616E-01
 -1       616 3.58600E-01
 -1       617 3.43145E-01
 -1       618 3.61758E-01
 -1       619 3.37560E-01
 -1       620 5.44444E-01
 -1       621 1.00575E+01
 -1       622 3.99597E-01
 -1       623 3.86792E-01
 -1       624 3.46203E-01
 -1       625 2.96778E-01
 -1       626 2.47117E-01
 -1       627 2.15149E-01
 -1       628 1.82025E-01
 -1       629 1.51583E-01
 -1       630 1.24832E-01
 -1       631 1.00704E-01
 -1       632 7.88659E-02
 -1       633 5.85187E-02
 -1       634 4.89958E-02
 -1       635 5.83265E-02
 -1       636 9.67378E-02
 -1       637 1.42968E-01
 -1       638 1.98915E-01
 -1       639 2.66347E-01
 -1       640 3.46666E-01
 -1       641 4.40551E-01
 -1       642 5.47392E-01
 -1       643 6.64389E-01
 -1       644 7.85105E-01
 -1       645 8.96988E-01
 -1       646 1.06758E+00
 -1       647 1.28104E+00
 -1       648 1.47684E+00
 -1       649 1.70713E+00
 -1       650 2.35378E+00
 -1       651 1.98267E+00
 -1       652 3.46151E+00
 -1       653 2.54836E+00
 -1       654 4.18631E+00
 -1       655 4.36864E+00
 -1       656 3.45999E+00
 -1       657 2.05285E+00
 -1       658 2.10550E+00
 -1       659 1.68933E+00
 -1       660 1.26278E+00
 -1       661 1.05873E+00
 -1       662 7.18272E-01
 -1       663 5.86921E-01
 -1       664 3.31407E-01
 -1       665 1.37026E+01
 -1       666 3.99668E-01
 -1       667 2.39259E-01
 -1       668 2.02948E-01
 -1       669 1.69281E-01
 -1       670 1.39385E-01
 -1       671 1.13468E-01
 -1       672 9.11142E-02
 -1       673 7.14566E-02
 -1       674 5.83804E-02
 -1       675 6.86320E-02
 -1       676 9.59208E-02
 -1       677 1.44740E-01
 -1       678 2.04967E-01
 -1       679 2.79086E-01
 -1       680 3.69355E-01
 -1       681 4.77407E-01
 -1       682 6.03626E-01
 -1       683 7.46163E-01
 -1       684 8.99441E-01
 -1       685 1.05182E+00
 -1       686 1.18203E+00
 -1       687 1.42564E+00
 -1       688 1.70386E+00
 -1       689 1.94107E+00
 -1       690 2.36832E+00
 -1       691 2.75982E+00
 -1       692 2.11403E+00
 -1       693 3.69854E+00
 -1       694 6.66919E+00
 -1       695 6.75599E+00
 -1       696 2.44762E+00
 -1       697 2.23598E+00
 -1       698 2.10460E+00
 -1       699 1.81707E+00
 -1       700 1.45647E+00
 -1       701 1.15938E+00
 -1       702 1.19489E+00
 -1       703 1.07117E+00
 -1       704 6.65424E-01
 -1       705 7.66120E+00
 -1       706 1.22711E+00
 -1       707 1.03609E+00
 -1       708 1.21203E+00
 -1       709 1.22711E+00
 -1       710 1.11790E+00
 -1       711 7.98275E-01
 -1       712 7.16135E-01
 -1       713 6.63495E+00
 -1       714 1.02572E+01
 -1       715 4.66943E-01
 -1       716 1.07670E+01
 -1       717 6.53009E+00
 -1       718 4.45381E+00
 -1       719 1.53806E+01
 -1       720 1.49805E+01
 -1       721 4.41482E+00
 -1       722 6.32803E+00
 -1       723 8.14423E+00
 -1       724 2.76378E-01
 -1       725 4.03730E-01
 -1       726 3.61758E-01
 -1       727 5.17729E-01
 -1       728 3.60442E-01
 -1       729 3.46151E+00
 -1       730 5.13351E-01
 -1       731 3.93417E+00
 -1       732 3.28046E+00
 -1       733 3.45999E+00
 -1       734 7.01823E+00
 -1       735 1.69207E+01
 -1       736 4.27069E+00
 -1       737 1.58097E+01
 -1       738 5.90961E+00
 -1       739 3.47288E+00
 -1       740 1.19971E+01
 -1       741 5.91000E+00
 -1       742 3.68756E-01
 -1       743 3.60442E-01
 -1       744 3.42723E-01
 -1       745 1.06803E+01
 -1       746 7.76572E-01
 -1       747 1.04310E+01
 -1       748 6.59143E+00
 -1       749 5.13351E-01
 -1       750 1.14745E+00
 -1       751 3.57758E-01
 -1       752 2.56931E+00
 -1       753 2.40367E-01
 -1       754 2.67159E-01
 -1       755 2.32224E+00
 -1       756 2.57406E-01
 -1       757 2.50766E-01
 -1       758 2.28875E-01
 -1       759 2.00123E-01
 -1       760 1.73013E-01
 -1       761 1.50803E-01
 -1       762 1.26797E-01
 -1       763 1.02595E-01
 -1       764 7.88327E-02
 -1       765 5.54375E-02
 -1       766 3.64085E-02
 -1       767 3.86478E-02
 -1       768 6.87189E-02
 -1       769 1.07707E-01
 -1       770 1.57226E-01
 -1       771 2.17052E-01
 -1       772 2.88151E-01
 -1       773 3.70334E-01
 -1       774 4.61294E-01
 -1       775 5.89397E-01
 -1       776 7.42581E-01
 -1       777 9.27375E-01
 -1       778 1.15320E+00
 -1       779 1.38841E+00
 -1       780 1.78422E+00
 -1       781 2.29225E+00
 -1       782 3.17350E+00
 -1       783 2.25221E+00
 -1       784 3.01349E+00
 -1       785 3.01809E+00
 -1       786 2.35510E+00
 -1       787 1.77965E+00
 -1       788 2.20083E+00
 -1       789 8.61937E-01
 -1       790 1.63979E-01
 -1       791 1.90545E-01
 -1       792 1.09948E-01
 -1       793 8.44254E-02
 -1       794 6.28377E-02
 -1       795 4.16549E-02
 -1       796 3.79348E-02
 -1       797 6.43484E-02
 -1       798 1.03388E-01
 -1       799 1.50880E-01
 -1       800 2.09229E-01
 -1       801 2.81224E-01
 -1       802 3.72152E-01
 -1       803 4.86177E-01
 -1       804 6.28062E-01
 -1       805 8.00188E-01
 -1       806 1.00330E+00
 -1       807 1.25930E+00
 -1       808 1.56246E+00
 -1       809 1.88273E+00
 -1       810 2.42003E+00
 -1       811 3.31005E+00
 -1       812 3.99607E+00
 -1       813 6.31644E+00
 -1       814 2.56202E+00
 -1       815 3.20425E+00
 -1       816 3.26064E+00
 -1       817 2.18514E+00
 -1       818 1.60441E+00
 -1       819 1.89382E+00
 -1       820 1.65421E+00
 -1       821 1.67315E+00
 -1       822 1.67315E+00
 -1       823 6.00216E+00
 -1       824 2.82484E-01
 -1       825 8.46671E+00
 -1       826 1.08166E+01
 -1       827 9.16322E+00
 -1       828 5.73353E+00
 -1       829 3.08182E-01
 -1       830 1.26689E+00
 -1       831 1.50144E+00
 -1       832 5.79587E+00
 -1       833 1.36623E-01
 -1       834 2.89148E-01
 -1       835 8.40831E+00
 -1       836 8.67798E+00
 -1       837 2.54414E-01
 -1       838 2.35048E-01
 -1       839 5.57908E+00
 -1       840 2.49472E+00
 -1       841 9.35843E+00
 -1       842 2.88825E-01
 -1       843 1.06025E+01
 -1       844 7.50656E+00
 -1       845 7.78805E+00
 -1       846 2.81834E-01
 -1       847 2.80278E-01
 -1       848 2.88825E-01
 -1       849 2.42746E+00
 -1       850 2.81733E-01
 -1       851 8.64306E+00
 -1       852 2.19657E-01
 -1       853 1.63725E+00
 -1       854 1.63725E+00
 -1       855 1.21763E+00
 -1       856 2.88518E-01
 -1       857 1.65421E+00
 -1       858 9.35843E+00
 -1       859 6.85036E+00
 -1       860 5.11430E+00
 -1       861 2.56633E-01
 -1       862 7.87107E+00
 -1       863 2.72204E-01
 -1       864 2.25094E+00
 -1       865 1.76071E-01
 -1       866 1.84022E-01
 -1       867 1.76429E-01
 -1       868 1.60021E-01
 -1       869 1.39164E-01
 -1       870 1.22643E-01
 -1       871 1.04448E-01
 -1       872 8.51076E-02
 -1       873 6.53592E-02
 -1       874 5.29530E-02
 -1       875 5.61716E-02
 -1       876 6.62419E-02
 -1       877 1.03557E-01
 -1       878 1.49984E-01
 -1       879 2.07039E-01
 -1       880 2.76711E-01
 -1       881 3.60840E-01
 -1       882 4.60797E-01
 -1       883 5.76849E-01
 -1       884 7.06788E-01
 -1       885 8.84099E-01
 -1       886 1.12553E+00
 -1       887 1.56115E+00
 -1       888 2.09672E+00
 -1       889 2.69622E+00
 -1       890 3.87361E+00
 -1       891 7.87107E+00
 -1       892 4.47020E+00
 -1       893 2.09661E-01
 -1       894 2.76990E+00
 -1       895 2.52177E+00
 -1       896 1.52852E-01
 -1       897 7.08792E-02
 -1       898 9.24714E-02
 -1       899 4.82482E-02
 -1       900 5.64800E-02
 -1       901 9.21608E-02
 -1       902 1.39248E-01
 -1       903 1.98008E-01
 -1       904 2.71242E-01
 -1       905 3.61932E-01
 -1       906 4.73078E-01
 -1       907 6.07301E-01
 -1       908 7.65872E-01
 -1       909 9.46358E-01
 -1       910 1.19915E+00
 -1       911 1.57365E+00
 -1       912 2.22781E+00
 -1       913 3.91813E+00
 -1       914 5.92615E+00
 -1       915 5.62539E+00
 -1       916 4.78538E+00
 -1       917 3.74432E+00
 -1       918 3.78636E+00
 -1       919 2.02347E+00
 -1       920 2.20083E+00
 -1       921 3.23503E+00
 -1       922 5.56688E+00
 -1       923 5.62539E+00
 -1       924 5.56688E+00
 -1       925 5.32731E+00
 -1       926 1.44983E-01
 -1       927 2.88950E+00
 -1       928 4.91721E-02
 -1       929 2.88518E-01
 -1       930 1.89382E+00
 -1       931 1.65820E-01
 -1       932 1.82042E-01
 -1       933 2.11352E-01
 -1       934 6.57489E+00
 -1       935 1.86044E+00
 -1       936 1.76821E-01
 -1       937 1.34583E-01
 -1       938 5.43737E+00
 -1       939 3.58662E+00
 -1       940 1.13941E-01
 -1       941 3.58662E+00
 -1       942 4.97852E+00
 -1       943 1.18285E-01
 -1       944 2.17976E-01
 -1       945 2.17976E-01
 -1       946 1.43776E-01
 -1       947 1.71779E-01
 -1       948 2.04599E-01
 -1       949 1.37002E-01
 -1       950 1.35880E-01
 -1       951 1.26309E-01
 -1       952 1.11831E-01
 -1       953 9.75628E-02
 -1       954 8.38255E-02
 -1       955 6.89229E-02
 -1       956 6.37428E-02
 -1       957 6.68121E-02
 -1       958 7.37105E-02
 -1       959 9.02715E-02
 -1       960 1.29959E-01
 -1       961 1.79635E-01
 -1       962 2.41804E-01
 -1       963 3.19530E-01
 -1       964 4.16697E-01
 -1       965 5.38427E-01
 -1       966 6.91500E-01
 -1       967 8.84099E-01
 -1       968 1.12214E+00
 -1       969 1.46083E+00
 -1       970 2.18827E+00
 -1       971 4.76468E+00
 -1       972 1.14533E-01
 -1       973 3.75372E+00
 -1       974 1.96698E-01
 -1       975 8.28641E-02
 -1       976 6.71655E-02
 -1       977 1.74478E-01
 -1       978 2.38584E-01
 -1       979 3.19259E-01
 -1       980 4.20917E-01
 -1       981 5.49532E-01
 -1       982 7.13574E-01
 -1       983 9.25057E-01
 -1       984 1.19915E+00
 -1       985 1.55879E+00
 -1       986 2.09568E+00
 -1       987 3.87417E+00
 -1       988 5.28046E+00
 -1       989 2.76994E+00
 -1       990 4.49045E+00
 -1       991 4.49045E+00
 -1       992 1.24635E-01
 -1       993 7.56104E-02
 -1       994 1.39003E-01
 -1       995 4.34220E+00
 -1       996 4.49045E+00
 -1       997 2.17460E-01
 -1       998 4.26794E+00
 -1       999 1.98153E-01
 -1      1000 1.23505E-01
 -1      1001 9.25592E-02
 -1      1002 1.46403E-01
 -1      1003 5.40816E+00
 -1      1004 5.40816E+00
 -1      1005 1.23451E-01
 -1      1006 6.28406E-02
 -1      1007 4.94100E+00
 -1      1008 1.60971E-01
 -1      1009 1.40597E-01
 -1      1010 4.32705E+00
 -1      1011 5.94580E-02
 -1      1012 1.54654E-01
 -1      1013 1.03522E-01
 -1      1014 9.76370E-02
 -1      1015 8.74865E-02
 -1      1016 7.52487E-02
 -1      1017 7.02784E-02
 -1      1018 6.92283E-02
 -1      1019 7.09288E-02
 -1      1020 7.79260E-02
 -1      1021 9.01238E-02
 -1      1022 1.10802E-01
 -1      1023 1.41395E-01
 -1      1024 1.90873E-01
 -1      1025 2.54321E-01
 -1      1026 3.36242E-01
 -1      1027 4.43415E-01
 -1      1028 5.86644E-01
 -1      1029 7.83976E-01
 -1      1030 1.06570E+00
 -1      1031 1.46083E+00
 -1      1032 2.05195E+00
 -1      1033 3.80497E+00
 -1      1034 3.36400E-01
 -1      1035 1.08282E-01
 -1      1036 8.15740E-02
 -1      1037 1.96698E-01
 -1      1038 4.47224E+00
 -1      1039 2.54536E-01
 -1      1040 1.90401E-01
 -1      1041 4.42147E-01
 -1      1042 5.81692E-01
 -1      1043 7.72087E-01
 -1      1044 1.04402E+00
 -1      1045 1.44322E+00
 -1      1046 2.05491E+00
 -1      1047 3.38344E+00
 -1      1048 1.54654E-01
 -1      1049 1.96698E-01
 -1      1050 9.08335E-02
 -1      1051 7.34352E-02
 -1      1052 1.53036E-01
 -1      1053 1.56809E-01
 -1      1054 1.00466E-01
 -1      1055 5.40816E+00
 -1      1056 1.39873E-01
 -1      1057 1.02447E-01
 -1      1058 7.32220E-02
 -1      1059 8.22706E-02
 -1      1060 9.27681E-02
 -1      1061 1.04083E-01
 -1      1062 9.79259E-02
 -1      1063 3.33492E+00
 -1      1064 1.09946E-01
 -1      1065 6.05646E-02
 -1      1066 1.08021E-01
 -1      1067 8.48472E-02
 -1      1068 1.04083E-01
 -1      1069 8.62396E-02
 -1      1070 8.06408E-02
 -1      1071 7.26795E-02
 -1      1072 7.02784E-02
 -1      1073 7.09288E-02
 -1      1074 9.32305E-02
 -1      1075 9.01238E-02
 -1      1076 1.10802E-01
 -1      1077 1.38825E-01
 -1      1078 1.77685E-01
 -1      1079 2.32482E-01
 -1      1080 3.04692E-01
 -1      1081 4.01203E-01
 -1      1082 5.33454E-01
 -1      1083 7.21033E-01
 -1      1084 9.97023E-01
 -1      1085 1.40683E+00
 -1      1086 1.86258E+00
 -1      1087 2.22341E+00
 -1      1088 8.37100E-02
 -1      1089 4.31300E-01
 -1      1090 6.28406E-02
 -1      1091 2.61913E-01
 -1      1092 2.04678E-01
 -1      1093 5.58731E-01
 -1      1094 7.35164E-01
 -1      1095 9.97614E-01
 -1      1096 1.54449E+00
 -1      1097 3.02731E+00
 -1      1098 3.35536E-01
 -1      1099 1.17693E-01
 -1      1100 1.08021E-01
 -1      1101 6.66738E-02
 -1      1102 1.00466E-01
 -1      1103 8.74661E-02
 -1      1104 1.60234E-01
 -1      1105 1.26120E-01
 -1      1106 9.32305E-02
 -1      1107 8.06408E-02
 -1      1108 2.70409E+00
 -1      1109 8.74661E-02
 -1      1110 7.26795E-02
 -1      1111 1.18208E-01
 -1      1112 8.62396E-02
 -1      1113 5.55429E-02
 -1      1114 9.07230E-02
 -1      1115 1.00828E-01
 -1      1116 8.88935E-02
 -1      1117 9.32305E-02
 -1      1118 9.07230E-02
 -1      1119 1.05850E-01
 -1      1120 6.79858E-02
 -1      1121 1.31453E+01
 -1      1122 8.40444E+00
 -1      1123 2.74473E+00
 -1      1124 1.55771E+00
 -1      1125 1.16638E+00
 -1      1126 9.71479E-01
 -1      1127 8.54277E-01
 -1      1128 7.81593E-01
 -1      1129 7.55321E-01
 -1      1130 7.84728E-01
 -1      1131 8.56872E-01
 -1      1132 9.76347E-01
 -1      1133 1.17959E+00
 -1      1134 1.57096E+00
 -1      1135 2.66999E+00
 -1      1136 6.07402E+00
 -1      1137 1.13420E+01
 -1      1138 1.31453E+01
 -1      1139 8.73249E+00
 -1      1140 3.83161E+00
 -1      1141 2.72890E+00
 -1      1142 1.74008E+00
 -1      1143 1.19117E+00
 -1      1144 8.97393E-01
 -1      1145 6.89123E-01
 -1      1146 5.30629E-01
 -1      1147 4.08228E-01
 -1      1148 3.16826E-01
 -1      1149 2.48386E-01
 -1      1150 1.95025E-01
 -1      1151 1.54773E-01
 -1      1152 1.25744E-01
 -1      1153 1.06191E-01
 -1      1154 9.97867E-02
 -1      1155 1.09826E-01
 -1      1156 1.34027E-01
 -1      1157 1.70187E-01
 -1      1158 2.17282E-01
 -1      1159 2.75009E-01
 -1      1160 3.41589E-01
 -1      1161 4.12846E-01
 -1      1162 4.91340E-01
 -1      1163 6.08382E-01
 -1      1164 7.68272E-01
 -1      1165 9.47765E-01
 -1      1166 1.10912E+00
 -1      1167 1.17687E+00
 -1      1168 1.20987E+00
 -1      1169 1.24225E+00
 -1      1170 1.37586E+00
 -1      1171 1.80827E+00
 -1      1172 2.70579E+00
 -1      1173 3.53258E+00
 -1      1174 3.76066E+00
 -1      1175 3.73344E+00
 -1      1176 3.49908E+00
 -1      1177 2.70519E+00
 -1      1178 1.75848E+00
 -1      1179 1.21379E+00
 -1      1180 1.06097E+00
 -1      1181 1.09288E+00
 -1      1182 1.04970E+00
 -1      1183 9.04102E-01
 -1      1184 8.01678E-01
 -1      1185 7.45083E-01
 -1      1186 6.21608E-01
 -1      1187 3.38394E-01
 -1      1188 1.40412E+01
 -1      1189 8.71855E+00
 -1      1190 2.90532E+00
 -1      1191 2.04135E+00
 -1      1192 1.40757E+00
 -1      1193 1.02723E+00
 -1      1194 8.20258E-01
 -1      1195 6.62109E-01
 -1      1196 5.31981E-01
 -1      1197 4.24436E-01
 -1      1198 3.39445E-01
 -1      1199 2.73862E-01
 -1      1200 2.21440E-01
 -1      1201 1.80610E-01
 -1      1202 1.50726E-01
 -1      1203 1.31292E-01
 -1      1204 1.29107E-01
 -1      1205 1.43410E-01
 -1      1206 1.66051E-01
 -1      1207 1.95867E-01
 -1      1208 2.33768E-01
 -1      1209 2.90863E-01
 -1      1210 3.68414E-01
 -1      1211 4.56149E-01
 -1      1212 5.47768E-01
 -1      1213 6.31465E-01
 -1      1214 6.87819E-01
 -1      1215 7.60881E-01
 -1      1216 9.38672E-01
 -1      1217 1.15897E+00
 -1      1218 1.32558E+00
 -1      1219 1.55601E+00
 -1      1220 1.71703E+00
 -1      1221 1.92563E+00
 -1      1222 2.51698E+00
 -1      1223 3.36064E+00
 -1      1224 4.03454E+00
 -1      1225 4.24755E+00
 -1      1226 4.13169E+00
 -1      1227 3.30858E+00
 -1      1228 2.06251E+00
 -1      1229 1.37725E+00
 -1      1230 1.37464E+00
 -1      1231 1.51847E+00
 -1      1232 1.49349E+00
 -1      1233 1.33334E+00
 -1      1234 1.09166E+00
 -1      1235 9.06092E-01
 -1      1236 6.46724E-01
 -1      1237 2.92744E-01
 -1      1238 1.78238E-01
 -1      1239 2.37409E-01
 -1      1240 2.11443E-01
 -1      1241 1.44011E-01
 -1      1242 9.88475E-02
 -1      1243 1.35098E-01
 -1      1244 1.99671E-01
 -1      1245 2.27376E-01
 -1      1246 2.30457E-01
 -1      1247 2.12691E-01
 -1      1248 1.59934E-01
 -1      1249 8.60479E-02
 -1      1250 8.04624E-02
 -1      1251 1.41014E-01
 -1      1252 2.21844E-01
 -1      1253 2.94226E-01
 -1      1254 2.17540E-01
 -1      1255 2.47941E+01
 -1      1256 3.65192E+01
 -1      1257 4.80197E+01
 -1      1258 3.49335E+01
 -1      1259 1.69495E+01
 -1      1260 1.22580E+01
 -1      1261 1.24645E+01
 -1      1262 1.28352E+01
 -1      1263 1.32059E+01
 -1      1264 1.35010E+01
 -1      1265 2.33128E+01
 -1      1266 3.28550E+01
 -1      1267 3.00275E+01
 -1      1268 2.61862E+01
 -1      1269 2.51981E+01
 -1      1270 2.51982E+01
 -1      1271 3.26438E+01
 -1      1272 4.00894E+01
 -1      1273 2.79617E+01
 -1      1274 1.44850E+01
 -1      1275 1.31358E+01
 -1      1276 1.26023E+01
 -1      1277 1.22949E+01
 -1      1278 1.25209E+01
 -1      1279 1.66321E+01
 -1      1280 3.41372E+01
 -1      1281 4.75312E+01
 -1      1282 3.60846E+01
 -1      1283 2.46037E+01
 -1      1284 1.31453E+01
 -1      1285 4.87082E+00
 -1      1286 9.61171E+00
 -1      1287 2.06300E+00
 -1      1288 2.98181E+00
 -1      1289 4.18908E+00
 -1      1290 1.39733E+00
 -1      1291 1.66554E+00
 -1      1292 1.90261E+00
 -1      1293 1.10047E+00
 -1      1294 1.22359E+00
 -1      1295 1.33142E+00
 -1      1296 9.35725E-01
 -1      1297 1.00750E+00
 -1      1298 1.06472E+00
 -1      1299 8.36601E-01
 -1      1300 8.82030E-01
 -1      1301 9.18049E-01
 -1      1302 7.75298E-01
 -1      1303 8.02554E-01
 -1      1304 8.30307E-01
 -1      1305 7.56305E-01
 -1      1306 7.55321E-01
 -1      1307 7.76282E-01
 -1      1308 8.06425E-01
 -1      1309 7.78002E-01
 -1      1310 7.78002E-01
 -1      1311 8.83904E-01
 -1      1312 8.40183E-01
 -1      1313 8.33458E-01
 -1      1314 1.01640E+00
 -1      1315 9.40643E-01
 -1      1316 9.23955E-01
 -1      1317 1.23950E+00
 -1      1318 1.11201E+00
 -1      1319 1.07630E+00
 -1      1320 1.68082E+00
 -1      1321 1.41695E+00
 -1      1322 1.34936E+00
 -1      1323 2.88261E+00
 -1      1324 2.04744E+00
 -1      1325 1.89344E+00
 -1      1326 6.28698E+00
 -1      1327 3.71812E+00
 -1      1328 3.09557E+00
 -1      1329 1.40412E+01
 -1      1330 1.13420E+01
 -1      1331 8.98615E+00
 -1      1332 1.40412E+01
 -1      1333 8.73249E+00
 -1      1334 4.31965E+00
 -1      1335 3.83161E+00
 -1      1336 3.34358E+00
 -1      1337 3.83161E+00
 -1      1338 2.72890E+00
 -1      1339 2.11423E+00
 -1      1340 2.72890E+00
 -1      1341 1.78218E+00
 -1      1342 1.40804E+00
 -1      1343 1.78218E+00
 -1      1344 1.19751E+00
 -1      1345 1.02274E+00
 -1      1346 1.23961E+00
 -1      1347 8.97393E-01
 -1      1348 7.78380E-01
 -1      1349 9.03730E-01
 -1      1350 6.89123E-01
 -1      1351 5.99866E-01
 -1      1352 6.89123E-01
 -1      1353 5.36652E-01
 -1      1354 4.67414E-01
 -1      1355 5.36652E-01
 -1      1356 4.18265E-01
 -1      1357 3.65102E-01
 -1      1358 4.24288E-01
 -1      1359 3.26180E-01
 -1      1360 2.87941E-01
 -1      1361 3.36217E-01
 -1      1362 2.60440E-01
 -1      1363 2.30240E-01
 -1      1364 2.69795E-01
 -1      1365 2.07146E-01
 -1      1366 1.83986E-01
 -1      1367 2.19200E-01
 -1      1368 1.65170E-01
 -1      1369 1.48077E-01
 -1      1370 1.77290E-01
 -1      1371 1.33148E-01
 -1      1372 1.21211E-01
 -1      1373 1.43545E-01
 -1      1374 1.09621E-01
 -1      1375 1.02005E-01
 -1      1376 1.17025E-01
 -1      1377 9.75688E-02
 -1      1378 9.87809E-02
 -1      1379 1.00999E-01
 -1      1380 1.00999E-01
 -1      1381 1.09826E-01
 -1      1382 9.87809E-02
 -1      1383 1.21226E-01
 -1      1384 1.36601E-01
 -1      1385 1.12399E-01
 -1      1386 1.52057E-01
 -1      1387 1.72841E-01
 -1      1388 1.39255E-01
 -1      1389 1.92461E-01
 -1      1390 2.18772E-01
 -1      1391 1.74331E-01
 -1      1392 2.43593E-01
 -1      1393 2.75009E-01
 -1      1394 2.18772E-01
 -1      1395 3.06424E-01
 -1      1396 3.41589E-01
 -1      1397 2.75009E-01
 -1      1398 3.88954E-01
 -1      1399 4.25046E-01
 -1      1400 3.53789E-01
 -1      1401 4.80531E-01
 -1      1402 5.22932E-01
 -1      1403 4.56638E-01
 -1      1404 5.80115E-01
 -1      1405 6.54755E-01
 -1      1406 5.69306E-01
 -1      1407 7.05576E-01
 -1      1408 7.90825E-01
 -1      1409 6.77309E-01
 -1      1410 8.56052E-01
 -1      1411 9.50296E-01
 -1      1412 7.93356E-01
 -1      1413 1.04201E+00
 -1      1414 1.10912E+00
 -1      1415 9.50296E-01
 -1      1416 1.17624E+00
 -1      1417 1.17687E+00
 -1      1418 1.10912E+00
 -1      1419 1.17750E+00
 -1      1420 1.20987E+00
 -1      1421 1.17687E+00
 -1      1422 1.24225E+00
 -1      1423 1.24225E+00
 -1      1424 1.20987E+00
 -1      1425 1.20544E+00
 -1      1426 1.33905E+00
 -1      1427 1.20544E+00
 -1      1428 1.50947E+00
 -1      1429 1.80827E+00
 -1      1430 1.33905E+00
 -1      1431 2.12726E+00
 -1      1432 2.72598E+00
 -1      1433 1.82846E+00
 -1      1434 3.30450E+00
 -1      1435 3.53258E+00
 -1      1436 2.72598E+00
 -1      1437 3.76066E+00
 -1      1438 3.76066E+00
 -1      1439 3.53258E+00
 -1      1440 3.73344E+00
 -1      1441 3.70622E+00
 -1      1442 3.73344E+00
 -1      1443 3.49908E+00
 -1      1444 3.29194E+00
 -1      1445 3.49908E+00
 -1      1446 2.72511E+00
 -1      1447 2.13836E+00
 -1      1448 2.72511E+00
 -1      1449 1.75848E+00
 -1      1450 1.39852E+00
 -1      1451 1.77839E+00
 -1      1452 1.20287E+00
 -1      1453 1.01815E+00
 -1      1454 1.20287E+00
 -1      1455 1.02907E+00
 -1      1456 1.06097E+00
 -1      1457 1.01815E+00
 -1      1458 1.09288E+00
 -1      1459 1.09288E+00
 -1      1460 1.06097E+00
 -1      1461 1.04970E+00
 -1      1462 1.00653E+00
 -1      1463 1.04970E+00
 -1      1464 9.01626E-01
 -1      1465 7.99201E-01
 -1      1466 9.01626E-01
 -1      1467 8.01678E-01
 -1      1468 8.01678E-01
 -1      1469 7.99201E-01
 -1      1470 7.45083E-01
 -1      1471 6.88488E-01
 -1      1472 7.45083E-01
 -1      1473 6.21608E-01
 -1      1474 5.54727E-01
 -1      1475 6.21608E-01
 -1      1476 4.33873E-01
 -1      1477 4.33873E-01
 -1      1478 3.39587E+00
 -1      1479 8.71855E+00
 -1      1480 8.71855E+00
 -1      1481 2.41478E+00
 -1      1482 2.90532E+00
 -1      1483 2.90532E+00
 -1      1484 1.66792E+00
 -1      1485 2.04135E+00
 -1      1486 2.04135E+00
 -1      1487 1.14722E+00
 -1      1488 1.40757E+00
 -1      1489 1.40757E+00
 -1      1490 9.07236E-01
 -1      1491 1.02723E+00
 -1      1492 1.02723E+00
 -1      1493 7.33279E-01
 -1      1494 8.20258E-01
 -1      1495 8.20258E-01
 -1      1496 5.90939E-01
 -1      1497 6.62109E-01
 -1      1498 6.62109E-01
 -1      1499 4.73022E-01
 -1      1500 5.31981E-01
 -1      1501 5.31981E-01
 -1      1502 3.75849E-01
 -1      1503 4.24436E-01
 -1      1504 4.24436E-01
 -1      1505 3.03041E-01
 -1      1506 3.39445E-01
 -1      1507 3.39445E-01
 -1      1508 2.44683E-01
 -1      1509 2.73862E-01
 -1      1510 2.73862E-01
 -1      1511 1.98417E-01
 -1      1512 2.21660E-01
 -1      1513 2.21660E-01
 -1      1514 1.63516E-01
 -1      1515 1.81102E-01
 -1      1516 1.81323E-01
 -1      1517 1.38428E-01
 -1      1518 1.50726E-01
 -1      1519 1.51217E-01
 -1      1520 1.23975E-01
 -1      1521 1.31111E-01
 -1      1522 1.31111E-01
 -1      1523 1.29107E-01
 -1      1524 1.24156E-01
 -1      1525 1.23975E-01
 -1      1526 1.43410E-01
 -1      1527 1.34059E-01
 -1      1528 1.29107E-01
 -1      1529 1.66051E-01
 -1      1530 1.52762E-01
 -1      1531 1.43410E-01
 -1      1532 1.96224E-01
 -1      1533 1.79697E-01
 -1      1534 1.66408E-01
 -1      1535 2.42090E-01
 -1      1536 2.20715E-01
 -1      1537 2.04546E-01
 -1      1538 3.07494E-01
 -1      1539 2.71774E-01
 -1      1540 2.58721E-01
 -1      1541 3.83451E-01
 -1      1542 3.41621E-01
 -1      1543 3.22532E-01
 -1      1544 4.66221E-01
 -1      1545 4.20316E-01
 -1      1546 3.93523E-01
 -1      1547 5.48408E-01
 -1      1548 5.02694E-01
 -1      1549 4.66861E-01
 -1      1550 6.31465E-01
 -1      1551 5.93483E-01
 -1      1552 5.48408E-01
 -1      1553 6.87819E-01
 -1      1554 6.69447E-01
 -1      1555 6.31465E-01
 -1      1556 7.72834E-01
 -1      1557 7.18144E-01
 -1      1558 6.99772E-01
 -1      1559 9.79164E-01
 -1      1560 8.56063E-01
 -1      1561 8.13326E-01
 -1      1562 1.15897E+00
 -1      1563 1.06177E+00
 -1      1564 9.79164E-01
 -1      1565 1.32558E+00
 -1      1566 1.25617E+00
 -1      1567 1.15897E+00
 -1      1568 1.55601E+00
 -1      1569 1.39499E+00
 -1      1570 1.32558E+00
 -1      1571 1.71703E+00
 -1      1572 1.71703E+00
 -1      1573 1.55601E+00
 -1      1574 1.89421E+00
 -1      1575 1.68561E+00
 -1      1576 1.68561E+00
 -1      1577 2.51698E+00
 -1      1578 2.13423E+00
 -1      1579 1.89421E+00
 -1      1580 3.36064E+00
 -1      1581 2.89973E+00
 -1      1582 2.51698E+00
 -1      1583 4.03454E+00
 -1      1584 3.82154E+00
 -1      1585 3.36064E+00
 -1      1586 4.24755E+00
 -1      1587 4.24755E+00
 -1      1588 4.03454E+00
 -1      1589 4.01583E+00
 -1      1590 4.13169E+00
 -1      1591 4.13169E+00
 -1      1592 2.60132E+00
 -1      1593 3.30858E+00
 -1      1594 3.30858E+00
 -1      1595 1.52369E+00
 -1      1596 2.06251E+00
 -1      1597 2.06251E+00
 -1      1598 1.15164E+00
 -1      1599 1.29808E+00
 -1      1600 1.29808E+00
 -1      1601 1.37464E+00
 -1      1602 1.23082E+00
 -1      1603 1.15164E+00
 -1      1604 1.51847E+00
 -1      1605 1.51847E+00
 -1      1606 1.37464E+00
 -1      1607 1.46851E+00
 -1      1608 1.49349E+00
 -1      1609 1.49349E+00
 -1      1610 1.19816E+00
 -1      1611 1.33334E+00
 -1      1612 1.33334E+00
 -1      1613 9.85157E-01
 -1      1614 1.09166E+00
 -1      1615 1.09166E+00
 -1      1616 8.27028E-01
 -1      1617 9.06092E-01
 -1      1618 9.06092E-01
 -1      1619 4.86707E-01
 -1      1620 6.67011E-01
 -1      1621 6.67011E-01
 -1      1622 3.51915E-01
 -1      1623 2.66085E-01
 -1      1624 2.66085E-01
 -1      1625 2.40118E-01
 -1      1626 2.66085E-01
 -1      1627 2.94760E-01
 -1      1628 1.97258E-01
 -1      1629 2.38723E-01
 -1      1630 2.93365E-01
 -1      1631 1.22481E-01
 -1      1632 1.26180E-01
 -1      1633 2.20892E-01
 -1      1634 2.34584E-01
 -1      1635 1.94635E-01
 -1      1636 2.21967E-01
 -1      1637 3.15587E-01
 -1      1638 2.90964E-01
 -1      1639 3.50500E-01
 -1      1640 3.35551E-01
 -1      1641 3.32470E-01
 -1      1642 4.23762E-01
 -1      1643 3.35551E-01
 -1      1644 3.35551E-01
 -1      1645 4.40644E-01
 -1      1646 3.11279E-01
 -1      1647 3.29045E-01
 -1      1648 4.34139E-01
 -1      1649 2.30293E-01
 -1      1650 2.65284E-01
 -1      1651 3.81638E-01
 -1      1652 1.27354E-01
 -1      1653 1.66249E-01
 -1      1654 2.71599E-01
 -1      1655 1.48474E-01
 -1      1656 1.15165E-01
 -1      1657 1.95365E-01
 -1      1658 2.20669E-01
 -1      1659 1.93427E-01
 -1      1660 2.28130E-01
 -1      1661 2.74258E-01
 -1      1662 2.20669E-01
 -1      1663 2.73083E-01
 -1      1664 3.20357E-01
 -1      1665 3.01564E-01
 -1      1666 3.00389E-01
 -1      1667 4.41211E-01
 -1      1668 2.78547E+01
 -1      1669 2.76300E+01
 -1      1670 3.83619E+01
 -1      1671 2.68615E+01
 -1      1672 4.80197E+01
 -1      1673 4.80197E+01
 -1      1674 2.26371E+01
 -1      1675 3.57233E+01
 -1      1676 1.19825E+01
 -1      1677 1.68804E+01
 -1      1678 1.22580E+01
 -1      1679 1.20515E+01
 -1      1680 1.24645E+01
 -1      1681 1.24645E+01
 -1      1682 1.26852E+01
 -1      1683 1.23145E+01
 -1      1684 1.32059E+01
 -1      1685 1.32059E+01
 -1      1686 1.27388E+01
 -1      1687 1.24437E+01
 -1      1688 2.33128E+01
 -1      1689 1.37962E+01
 -1      1690 3.28806E+01
 -1      1691 3.28550E+01
 -1      1692 3.00275E+01
 -1      1693 3.28806E+01
 -1      1694 2.51980E+01
 -1      1695 2.61862E+01
 -1      1696 2.58915E+01
 -1      1697 2.58914E+01
 -1      1698 2.58915E+01
 -1      1699 2.58915E+01
 -1      1700 3.72919E+01
 -1      1701 2.98463E+01
 -1      1702 4.00894E+01
 -1      1703 4.00894E+01
 -1      1704 1.58341E+01
 -1      1705 2.79617E+01
 -1      1706 1.24013E+01
 -1      1707 1.37505E+01
 -1      1708 1.31358E+01
 -1      1709 1.31358E+01
 -1      1710 1.20689E+01
 -1      1711 1.26023E+01
 -1      1712 1.22602E+01
 -1      1713 1.20342E+01
 -1      1714 1.25209E+01
 -1      1715 1.25209E+01
 -1      1716 1.59267E+01
 -1      1717 1.18155E+01
 -1      1718 3.46805E+01
 -1      1719 2.12865E+01
 -1      1720 4.75312E+01
 -1      1721 4.75312E+01
 -1      1722 2.68121E+01
 -1      1723 3.82587E+01
 -1      1724 2.76300E+01
 -1      1725 2.76643E+01
 -1      1726 1.76701E+01
 -1      1727 3.57233E+01
 -1      1728 3.72201E-01
 -1      1729 4.00877E-01
 -1      1730 2.96973E+01
 -1      1731 3.83619E+01
 -1      1732 3.06905E+01
 -1      1733 1.19825E+01
 -1      1734 1.22580E+01
 -1      1735 1.23145E+01
 -1      1736 1.26852E+01
 -1      1737 1.24437E+01
 -1      1738 1.27388E+01
 -1      1739 2.33384E+01
 -1      1740 3.28806E+01
 -1      1741 2.90393E+01
 -1      1742 2.58914E+01
 -1      1743 2.65848E+01
 -1      1744 3.05396E+01
 -1      1745 3.72919E+01
 -1      1746 2.79617E+01
 -1      1747 1.37505E+01
 -1      1748 1.24013E+01
 -1      1749 1.26023E+01
 -1      1750 1.20342E+01
 -1      1751 1.22602E+01
 -1      1752 1.18155E+01
 -1      1753 1.64699E+01
 -1      1754 3.46805E+01
 -1      1755 3.82587E+01
 -1      1756 2.98384E+01
 -1      1757 9.61171E+00
 -1      1758 1.28729E+00
 -1      1759 1.68475E+00
 -1      1760 2.38949E+00
 -1      1761 4.27849E+00
 -1      1762 1.77416E+00
 -1      1763 8.80071E-01
 -1      1764 9.73044E-01
 -1      1765 7.79571E-01
 -1      1766 8.33265E-01
 -1      1767 7.41592E-01
 -1      1768 7.14041E-01
 -1      1769 7.48088E-01
 -1      1770 6.63305E-01
 -1      1771 6.72026E-01
 -1      1772 6.92004E-01
 -1      1773 6.09785E-01
 -1      1774 6.95330E-01
 -1      1775 6.73632E-01
 -1      1776 5.89354E-01
 -1      1777 7.50828E-01
 -1      1778 7.17070E-01
 -1      1779 6.12700E-01
 -1      1780 8.40816E-01
 -1      1781 7.84076E-01
 -1      1782 6.67689E-01
 -1      1783 9.83919E-01
 -1      1784 8.88308E-01
 -1      1785 7.48430E-01
 -1      1786 1.22900E+00
 -1      1787 1.05155E+00
 -1      1788 8.63558E-01
 -1      1789 1.70957E+00
 -1      1790 1.34294E+00
 -1      1791 1.04514E+00
 -1      1792 2.62964E+00
 -1      1793 1.79412E+00
 -1      1794 1.24363E+00
 -1      1795 8.12149E+00
 -1      1796 3.06642E+00
 -1      1797 1.76497E+00
 -1      1798 2.79882E+00
 -1      1799 5.19887E+00
 -1      1800 2.16513E+00
 -1      1801 2.65568E+00
 -1      1802 2.05863E+00
 -1      1803 3.39927E+00
 -1      1804 2.53770E+00
 -1      1805 1.92302E+00
 -1      1806 1.69223E+00
 -1      1807 1.36019E+00
 -1      1808 1.50102E+00
 -1      1809 1.18021E+00
 -1      1810 9.69681E-01
 -1      1811 1.09026E+00
 -1      1812 8.44512E-01
 -1      1813 7.19163E-01
 -1      1814 7.85114E-01
 -1      1815 6.60330E-01
 -1      1816 5.71073E-01
 -1      1817 6.01113E-01
 -1      1818 5.23126E-01
 -1      1819 4.59912E-01
 -1      1820 4.94333E-01
 -1      1821 4.17914E-01
 -1      1822 3.68765E-01
 -1      1823 4.04388E-01
 -1      1824 3.36217E-01
 -1      1825 2.97295E-01
 -1      1826 3.29843E-01
 -1      1827 2.70356E-01
 -1      1828 2.42856E-01
 -1      1829 2.70356E-01
 -1      1830 2.19939E-01
 -1      1831 1.96845E-01
 -1      1832 2.20500E-01
 -1      1833 1.77898E-01
 -1      1834 1.59082E-01
 -1      1835 1.78637E-01
 -1      1836 1.44253E-01
 -1      1837 1.29324E-01
 -1      1838 1.44861E-01
 -1      1839 1.17025E-01
 -1      1840 1.05435E-01
 -1      1841 1.17734E-01
 -1      1842 9.77440E-02
 -1      1843 9.33077E-02
 -1      1844 9.77440E-02
 -1      1845 9.11192E-02
 -1      1846 9.33371E-02
 -1      1847 8.78639E-02
 -1      1848 1.00997E-01
 -1      1849 1.12397E-01
 -1      1850 9.33354E-02
 -1      1851 1.23799E-01
 -1      1852 1.39255E-01
 -1      1853 1.12397E-01
 -1      1854 1.54711E-01
 -1      1855 1.74331E-01
 -1      1856 1.39255E-01
 -1      1857 2.01521E-01
 -1      1858 2.26342E-01
 -1      1859 1.81901E-01
 -1      1860 2.63544E-01
 -1      1861 2.94959E-01
 -1      1862 2.46293E-01
 -1      1863 3.38688E-01
 -1      1864 3.86052E-01
 -1      1865 3.27223E-01
 -1      1866 4.34973E-01
 -1      1867 4.90458E-01
 -1      1868 4.19872E-01
 -1      1869 5.41275E-01
 -1      1870 5.98458E-01
 -1      1871 5.19610E-01
 -1      1872 6.45110E-01
 -1      1873 6.95930E-01
 -1      1874 6.17079E-01
 -1      1875 7.36710E-01
 -1      1876 8.01937E-01
 -1      1877 7.04511E-01
 -1      1878 8.47516E-01
 -1      1879 9.39229E-01
 -1      1880 7.90871E-01
 -1      1881 9.72763E-01
 -1      1882 1.03988E+00
 -1      1883 8.69984E-01
 -1      1884 1.02328E+00
 -1      1885 1.02391E+00
 -1      1886 8.86922E-01
 -1      1887 9.28291E-01
 -1      1888 9.60668E-01
 -1      1889 7.74705E-01
 -1      1890 9.64225E-01
 -1      1891 9.27412E-01
 -1      1892 6.82641E-01
 -1      1893 1.02689E+00
 -1      1894 1.19731E+00
 -1      1895 7.85678E-01
 -1      1896 1.50194E+00
 -1      1897 1.82093E+00
 -1      1898 1.18979E+00
 -1      1899 2.05761E+00
 -1      1900 2.63614E+00
 -1      1901 1.73110E+00
 -1      1902 2.81294E+00
 -1      1903 3.04102E+00
 -1      1904 2.14458E+00
 -1      1905 2.97976E+00
 -1      1906 2.95254E+00
 -1      1907 2.26012E+00
 -1      1908 2.99496E+00
 -1      1909 2.78781E+00
 -1      1910 2.24128E+00
 -1      1911 2.62748E+00
 -1      1912 2.06065E+00
 -1      1913 2.12336E+00
 -1      1914 1.84277E+00
 -1      1915 1.46289E+00
 -1      1916 1.74514E+00
 -1      1917 1.22468E+00
 -1      1918 1.02903E+00
 -1      1919 1.28905E+00
 -1      1920 8.67282E-01
 -1      1921 8.78203E-01
 -1      1922 8.89087E-01
 -1      1923 8.57504E-01
 -1      1924 8.89409E-01
 -1      1925 7.06639E-01
 -1      1926 8.83055E-01
 -1      1927 8.39879E-01
 -1      1928 6.79586E-01
 -1      1929 8.15145E-01
 -1      1930 7.10244E-01
 -1      1931 6.48498E-01
 -1      1932 6.86214E-01
 -1      1933 6.88690E-01
 -1      1934 5.99733E-01
 -1      1935 6.89160E-01
 -1      1936 6.32565E-01
 -1      1937 5.76172E-01
 -1      1938 5.82179E-01
 -1      1939 5.15298E-01
 -1      1940 4.01782E-01
 -1      1941 5.26256E-01
 -1      1942 1.39997E+00
 -1      1943 1.77340E+00
 -1      1944 1.52376E+00
 -1      1945 1.02056E+00
 -1      1946 1.28091E+00
 -1      1947 1.01296E+00
 -1      1948 8.07076E-01
 -1      1949 9.27068E-01
 -1      1950 8.00411E-01
 -1      1951 6.41009E-01
 -1      1952 7.27987E-01
 -1      1953 6.27827E-01
 -1      1954 5.16288E-01
 -1      1955 5.87458E-01
 -1      1956 4.95187E-01
 -1      1957 4.24624E-01
 -1      1958 4.83582E-01
 -1      1959 4.08931E-01
 -1      1960 3.44828E-01
 -1      1961 3.93415E-01
 -1      1962 3.45017E-01
 -1      1963 2.80796E-01
 -1      1964 3.17200E-01
 -1      1965 2.86179E-01
 -1      1966 2.29542E-01
 -1      1967 2.58722E-01
 -1      1968 2.36476E-01
 -1      1969 1.87640E-01
 -1      1970 2.10663E-01
 -1      1971 1.95522E-01
 -1      1972 1.55974E-01
 -1      1973 1.73289E-01
 -1      1974 1.62292E-01
 -1      1975 1.32120E-01
 -1      1976 1.44910E-01
 -1      1977 1.36876E-01
 -1      1978 1.16963E-01
 -1      1979 1.24280E-01
 -1      1980 1.17972E-01
 -1      1981 1.14658E-01
 -1      1982 1.14477E-01
 -1      1983 1.07646E-01
 -1      1984 1.20988E-01
 -1      1985 1.16037E-01
 -1      1986 1.06539E-01
 -1      1987 1.36810E-01
 -1      1988 1.27459E-01
 -1      1989 1.14388E-01
 -1      1990 1.65750E-01
 -1      1991 1.52104E-01
 -1      1992 1.36152E-01
 -1      1993 2.11868E-01
 -1      1994 1.87376E-01
 -1      1995 1.73072E-01
 -1      1996 2.81335E-01
 -1      1997 2.51652E-01
 -1      1998 2.34482E-01
 -1      1999 3.64930E-01
 -1      2000 3.30804E-01
 -1      2001 3.23734E-01
 -1      2002 4.61090E-01
 -1      2003 4.24225E-01
 -1      2004 4.32497E-01
 -1      2005 5.65040E-01
 -1      2006 5.28567E-01
 -1      2007 5.59269E-01
 -1      2008 6.81148E-01
 -1      2009 6.36073E-01
 -1      2010 6.97779E-01
 -1      2011 7.84661E-01
 -1      2012 7.46678E-01
 -1      2013 8.34343E-01
 -1      2014 8.70665E-01
 -1      2015 8.40340E-01
 -1      2016 9.55554E-01
 -1      2017 9.92533E-01
 -1      2018 9.09304E-01
 -1      2019 1.04987E+00
 -1      2020 1.07514E+00
 -1      2021 9.92533E-01
 -1      2022 1.08851E+00
 -1      2023 1.15196E+00
 -1      2024 1.05476E+00
 -1      2025 1.06813E+00
 -1      2026 1.10569E+00
 -1      2027 1.03628E+00
 -1      2028 9.32072E-01
 -1      2029 1.23365E+00
 -1      2030 1.07264E+00
 -1      2031 7.83335E-01
 -1      2032 1.49585E+00
 -1      2033 1.52727E+00
 -1      2034 1.04390E+00
 -1      2035 2.08709E+00
 -1      2036 1.84706E+00
 -1      2037 1.68873E+00
 -1      2038 2.56188E+00
 -1      2039 2.17913E+00
 -1      2040 2.13198E+00
 -1      2041 3.04663E+00
 -1      2042 2.58573E+00
 -1      2043 2.24787E+00
 -1      2044 3.27852E+00
 -1      2045 3.06551E+00
 -1      2046 2.29060E+00
 -1      2047 3.22143E+00
 -1      2048 3.33729E+00
 -1      2049 2.36826E+00
 -1      2050 2.22439E+00
 -1      2051 2.93164E+00
 -1      2052 2.13724E+00
 -1      2053 1.29164E+00
 -1      2054 1.83046E+00
 -1      2055 1.45352E+00
 -1      2056 9.23530E-01
 -1      2057 1.14914E+00
 -1      2058 9.17095E-01
 -1      2059 1.04962E+00
 -1      2060 9.70444E-01
 -1      2061 8.21508E-01
 -1      2062 1.25413E+00
 -1      2063 1.11031E+00
 -1      2064 9.29108E-01
 -1      2065 1.25852E+00
 -1      2066 1.28349E+00
 -1      2067 1.01916E+00
 -1      2068 1.06446E+00
 -1      2069 1.19964E+00
 -1      2070 9.89644E-01
 -1      2071 8.92726E-01
 -1      2072 9.99229E-01
 -1      2073 8.65530E-01
 -1      2074 7.67884E-01
 -1      2075 8.46948E-01
 -1      2076 7.54517E-01
 -1      2077 5.06993E-01
 -1      2078 6.67011E-01
 -1      2079 6.07867E-01
 -1      2080 4.00877E-01
 -1      2081 2.34510E-01
 -1      2082 3.05588E-01
 -1      2083 4.12534E-01
 -1      2084 4.13928E-01
 -1      2085 4.26151E-01
 -1      2086 4.13928E-01
 -1      2087 4.13928E-01
 -1      2088 5.20045E-01
 -1      2089 5.33097E-01
 -1      2090 3.30932E-01
 -1      2091 2.58778E-01
 -1      2092 3.43474E-01
 -1      2093 4.80488E-01
 -1      2094 4.24108E-01
 -1      2095 4.60920E-01
 -1      2096 5.41749E-01
 -1      2097 5.24867E-01
 -1      2098 5.98475E-01
 -1      2099 5.41749E-01
 -1      2100 5.41749E-01
 -1      2101 6.42854E-01
 -1      2102 5.33450E-01
 -1      2103 5.39956E-01
 -1      2104 6.41061E-01
 -1      2105 4.62671E-01
 -1      2106 5.08666E-01
 -1      2107 6.14483E-01
 -1      2108 3.20892E-01
 -1      2109 3.84937E-01
 -1      2110 5.11965E-01
 -1      2111 2.28807E-01
 -1      2112 2.40997E-01
 -1      2113 3.54334E-01
 -1      2114 2.98890E-01
 -1      2115 2.53937E-01
 -1      2116 2.99568E-01
 -1      2117 3.52350E-01
 -1      2118 3.52350E-01
 -1      2119 3.78157E-01
 -1      2120 3.83619E+01
 -1      2121 2.87041E+01
 -1      2122 3.19661E+01
 -1      2123 3.19661E+01
 -1      2124 3.09729E+01
 -1      2125 3.19661E+01
 -1      2126 2.00576E+01
 -1      2127 3.23540E+01
 -1      2128 1.06306E+01
 -1      2129 1.63873E+01
 -1      2130 1.30181E+01
 -1      2131 1.03498E+00
 -1      2132 1.20871E+00
 -1      2133 9.90848E-01
 -1      2134 8.50335E-01
 -1      2135 1.14153E+01
 -1      2136 1.12088E+01
 -1      2137 1.14796E+01
 -1      2138 1.16296E+01
 -1      2139 1.21927E+01
 -1      2140 1.16720E+01
 -1      2141 1.03330E+01
 -1      2142 1.10952E+01
 -1      2143 1.05888E+01
 -1      2144 9.53148E+00
 -1      2145 8.18302E+00
 -1      2146 2.28716E+01
 -1      2147 1.33293E+01
 -1      2148 2.75218E+01
 -1      2149 2.75218E+01
 -1      2150 2.49248E+01
 -1      2151 2.87661E+01
 -1      2152 3.09806E+01
 -1      2153 3.02872E+01
 -1      2154 3.09806E+01
 -1      2155 3.09806E+01
 -1      2156 2.82026E+01
 -1      2157 2.42478E+01
 -1      2158 3.17675E+01
 -1      2159 2.89700E+01
 -1      2160 1.51479E+01
 -1      2161 2.72755E+01
 -1      2162 9.92733E+00
 -1      2163 1.20110E+01
 -1      2164 1.07494E+01
 -1      2165 1.00149E+01
 -1      2166 1.14290E+01
 -1      2167 1.19625E+01
 -1      2168 1.11079E+01
 -1      2169 1.11426E+01
 -1      2170 1.13161E+01
 -1      2171 1.10554E+01
 -1      2172 9.17624E+00
 -1      2173 9.88167E+00
 -1      2174 1.55570E+01
 -1      2175 1.01972E+01
 -1      2176 3.21247E+01
 -1      2177 1.92740E+01
 -1      2178 2.89862E+01
 -1      2179 3.82587E+01
 -1      2180 3.00670E+01
 -1      2181 2.92148E+01
 -1      2182 9.96508E+00
 -1      2183 9.89602E+00
 -1      2184 9.12241E+00
 -1      2185 2.91124E+00
 -1      2186 8.99257E+00
 -1      2187 7.70979E+00
 -1      2188 6.97520E+00
 -1      2189 2.10536E+00
 -1      2190 3.09729E+01
 -1      2191 3.32416E+01
 -1      2192 3.79655E-01
 -1      2193 2.26962E+01
 -1      2194 3.13425E+01
 -1      2195 2.92148E+01
 -1      2196 2.28522E+01
 -1      2197 1.30013E+01
 -1      2198 8.26333E+00
 -1      2199 8.67681E+00
 -1      2200 1.01638E+01
 -1      2201 1.05027E+01
 -1      2202 9.57606E+00
 -1      2203 8.27540E+00
 -1      2204 1.13247E+01
 -1      2205 1.89536E+01
 -1      2206 2.74803E+01
 -1      2207 2.11884E+01
 -1      2208 2.19558E+01
 -1      2209 2.86436E+01
 -1      2210 3.53764E+01
 -1      2211 3.00140E+01
 -1      2212 2.34073E+01
 -1      2213 1.01220E+01
 -1      2214 1.00820E+01
 -1      2215 1.05804E+01
 -1      2216 1.09871E+01
 -1      2217 1.75127E+01
 -1      2218 1.09101E+00
 -1      2219 1.48274E+00
 -1      2220 5.59078E-01
 -1      2221 5.90560E-01
 -1      2222 6.02714E-01
 -1      2223 6.49519E-01
 -1      2224 4.98487E-01
 -1      2225 5.11360E-01
 -1      2226 5.09754E-01
 -1      2227 5.45953E-01
 -1      2228 5.24213E-01
 -1      2229 4.44614E-01
 -1      2230 5.93894E-01
 -1      2231 5.60645E-01
 -1      2232 4.72159E-01
 -1      2233 6.53325E-01
 -1      2234 6.05833E-01
 -1      2235 4.98790E-01
 -1      2236 7.20960E-01
 -1      2237 6.53325E-01
 -1      2238 5.10728E-01
 -1      2239 8.83141E-01
 -1      2240 7.69198E-01
 -1      2241 5.58966E-01
 -1      2242 8.93906E-01
 -1      2243 1.01296E+00
 -1      2244 9.71952E-01
 -1      2245 1.26801E+00
 -1      2246 1.03722E+00
 -1      2247 2.47048E+01
 -1      2248 2.69736E+01
 -1      2249 9.87488E-01
 -1      2250 8.07515E-01
 -1      2251 7.54474E-01
 -1      2252 7.51059E-01
 -1      2253 6.25890E-01
 -1      2254 6.48290E-01
 -1      2255 5.69990E-01
 -1      2256 5.11158E-01
 -1      2257 5.35935E-01
 -1      2258 4.62074E-01
 -1      2259 4.14126E-01
 -1      2260 4.30951E-01
 -1      2261 3.87186E-01
 -1      2262 3.45188E-01
 -1      2263 3.54927E-01
 -1      2264 3.20747E-01
 -1      2265 2.88200E-01
 -1      2266 3.03545E-01
 -1      2267 2.65183E-01
 -1      2268 2.38244E-01
 -1      2269 2.56088E-01
 -1      2270 2.18104E-01
 -1      2271 1.95188E-01
 -1      2272 2.12932E-01
 -1      2273 1.78454E-01
 -1      2274 1.59508E-01
 -1      2275 1.76058E-01
 -1      2276 1.44861E-01
 -1      2277 1.30032E-01
 -1      2278 1.44679E-01
 -1      2279 1.17371E-01
 -1      2280 1.05073E-01
 -1      2281 1.17371E-01
 -1      2282 9.52060E-02
 -1      2283 8.75145E-02
 -1      2284 9.48434E-02
 -1      2285 7.93961E-02
 -1      2286 7.72076E-02
 -1      2287 7.68581E-02
 -1      2288 8.09295E-02
 -1      2289 8.85896E-02
 -1      2290 7.24617E-02
 -1      2291 9.60248E-02
 -1      2292 1.07427E-01
 -1      2293 8.36188E-02
 -1      2294 1.25450E-01
 -1      2295 1.40906E-01
 -1      2296 1.09077E-01
 -1      2297 1.68162E-01
 -1      2298 1.95352E-01
 -1      2299 1.54357E-01
 -1      2300 2.28296E-01
 -1      2301 2.65498E-01
 -1      2302 2.14557E-01
 -1      2303 3.04538E-01
 -1      2304 3.48266E-01
 -1      2305 2.86541E-01
 -1      2306 3.93085E-01
 -1      2307 4.42007E-01
 -1      2308 3.70400E-01
 -1      2309 4.91105E-01
 -1      2310 5.41922E-01
 -1      2311 4.64318E-01
 -1      2312 5.92020E-01
 -1      2313 6.38672E-01
 -1      2314 5.63514E-01
 -1      2315 6.84072E-01
 -1      2316 7.24852E-01
 -1      2317 6.59012E-01
 -1      2318 7.60858E-01
 -1      2319 8.06437E-01
 -1      2320 7.40418E-01
 -1      2321 8.55811E-01
 -1      2322 8.89346E-01
 -1      2323 8.25798E-01
 -1      2324 9.34782E-01
 -1      2325 9.18186E-01
 -1      2326 9.20610E-01
 -1      2327 9.35705E-01
 -1      2328 8.40084E-01
 -1      2329 9.83565E-01
 -1      2330 8.87544E-01
 -1      2331 8.91100E-01
 -1      2332 1.04854E+00
 -1      2333 9.81184E-01
 -1      2334 1.08066E+00
 -1      2335 1.18609E+00
 -1      2336 1.16383E+00
 -1      2337 1.46846E+00
 -1      2338 1.35934E+00
 -1      2339 1.53702E+00
 -1      2340 1.77370E+00
 -1      2341 1.51107E+00
 -1      2342 2.02446E+00
 -1      2343 2.20126E+00
 -1      2344 1.83039E+00
 -1      2345 2.43487E+00
 -1      2346 2.37361E+00
 -1      2347 2.31475E+00
 -1      2348 2.36514E+00
 -1      2349 2.40755E+00
 -1      2350 2.53989E+00
 -1      2351 2.24289E+00
 -1      2352 2.08255E+00
 -1      2353 2.36675E+00
 -1      2354 1.78370E+00
 -1      2355 1.56582E+00
 -1      2356 1.90323E+00
 -1      2357 1.55533E+00
 -1      2358 1.31711E+00
 -1      2359 1.59389E+00
 -1      2360 1.17009E+00
 -1      2361 1.00834E+00
 -1      2362 1.43637E+00
 -1      2363 9.16614E-01
 -1      2364 8.95915E-01
 -1      2365 1.19762E+00
 -1      2366 7.56351E-01
 -1      2367 7.49997E-01
 -1      2368 9.66325E-01
 -1      2369 6.90493E-01
 -1      2370 6.65759E-01
 -1      2371 7.67258E-01
 -1      2372 6.05342E-01
 -1      2373 5.81312E-01
 -1      2374 6.47337E-01
 -1      2375 5.24621E-01
 -1      2376 5.25091E-01
 -1      2377 5.30230E-01
 -1      2378 5.48738E-01
 -1      2379 6.27827E-01
 -1      2380 4.41637E-01
 -1      2381 4.95187E-01
 -1      2382 4.95187E-01
 -1      2383 3.76226E-01
 -1      2384 4.08931E-01
 -1      2385 4.08931E-01
 -1      2386 3.13808E-01
 -1      2387 3.45017E-01
 -1      2388 3.45017E-01
 -1      2389 2.58550E-01
 -1      2390 2.86179E-01
 -1      2391 2.86179E-01
 -1      2392 2.14402E-01
 -1      2393 2.36476E-01
 -1      2394 2.36476E-01
 -1      2395 1.76336E-01
 -1      2396 1.95216E-01
 -1      2397 1.95216E-01
 -1      2398 1.45602E-01
 -1      2399 1.59954E-01
 -1      2400 1.59647E-01
 -1      2401 1.21026E-01
 -1      2402 1.32090E-01
 -1      2403 1.29752E-01
 -1      2404 1.02300E-01
 -1      2405 1.10140E-01
 -1      2406 1.05354E-01
 -1      2407 9.26597E-02
 -1      2408 9.51457E-02
 -1      2409 8.73141E-02
 -1      2410 9.47465E-02
 -1      2411 9.33676E-02
 -1      2412 8.08676E-02
 -1      2413 1.09336E-01
 -1      2414 1.02866E-01
 -1      2415 8.96945E-02
 -1      2416 1.36262E-01
 -1      2417 1.20968E-01
 -1      2418 1.09446E-01
 -1      2419 1.86324E-01
 -1      2420 1.64698E-01
 -1      2421 1.49514E-01
 -1      2422 2.61655E-01
 -1      2423 2.21871E-01
 -1      2424 2.13497E-01
 -1      2425 3.54901E-01
 -1      2426 3.05433E-01
 -1      2427 2.92822E-01
 -1      2428 4.66772E-01
 -1      2429 4.07477E-01
 -1      2430 3.89176E-01
 -1      2431 5.95093E-01
 -1      2432 5.27616E-01
 -1      2433 5.02597E-01
 -1      2434 7.32812E-01
 -1      2435 6.61779E-01
 -1      2436 6.30127E-01
 -1      2437 8.65493E-01
 -1      2438 7.99962E-01
 -1      2439 7.63962E-01
 -1      2440 9.79322E-01
 -1      2441 9.23642E-01
 -1      2442 8.89261E-01
 -1      2443 1.06238E+00
 -1      2444 1.02374E+00
 -1      2445 9.91831E-01
 -1      2446 1.12108E+00
 -1      2447 1.12108E+00
 -1      2448 1.09496E+00
 -1      2449 1.14837E+00
 -1      2450 1.16875E+00
 -1      2451 1.20132E+00
 -1      2452 1.03378E+00
 -1      2453 1.14946E+00
 -1      2454 1.25008E+00
 -1      2455 1.07353E+00
 -1      2456 1.10658E+00
 -1      2457 1.32397E+00
 -1      2458 1.40849E+00
 -1      2459 1.11487E+00
 -1      2460 1.43812E+00
 -1      2461 1.93001E+00
 -1      2462 1.57880E+00
 -1      2463 1.64977E+00
 -1      2464 2.22402E+00
 -1      2465 2.13198E+00
 -1      2466 2.02206E+00
 -1      2467 2.67827E+00
 -1      2468 2.65442E+00
 -1      2469 2.65442E+00
 -1      2470 2.74028E+00
 -1      2471 2.72140E+00
 -1      2472 3.12795E+00
 -1      2473 2.43732E+00
 -1      2474 2.37855E+00
 -1      2475 2.80934E+00
 -1      2476 1.87769E+00
 -1      2477 2.16748E+00
 -1      2478 2.17778E+00
 -1      2479 1.40454E+00
 -1      2480 1.79847E+00
 -1      2481 1.82871E+00
 -1      2482 1.12429E+00
 -1      2483 1.26679E+00
 -1      2484 1.61174E+00
 -1      2485 1.03567E+00
 -1      2486 9.88751E-01
 -1      2487 1.33845E+00
 -1      2488 1.00602E+00
 -1      2489 9.45335E-01
 -1      2490 1.11258E+00
 -1      2491 9.88139E-01
 -1      2492 9.58775E-01
 -1      2493 9.75002E-01
 -1      2494 8.54006E-01
 -1      2495 9.12884E-01
 -1      2496 8.52501E-01
 -1      2497 7.32859E-01
 -1      2498 7.98095E-01
 -1      2499 7.21335E-01
 -1      2500 6.48579E-01
 -1      2501 6.94356E-01
 -1      2502 6.26920E-01
 -1      2503 6.20918E-01
 -1      2504 6.07960E-01
 -1      2505 5.14783E-01
 -1      2506 7.54900E-01
 -1      2507 7.10521E-01
 -1      2508 7.64384E-01
 -1      2509 4.08119E-01
 -1      2510 5.15064E-01
 -1      2511 4.29190E-01
 -1      2512 4.04921E-01
 -1      2513 4.93834E-01
 -1      2514 5.76230E-01
 -1      2515 7.54900E-01
 -1      2516 7.54900E-01
 -1      2517 8.66945E-01
 -1      2518 7.60884E-01
 -1      2519 7.62678E-01
 -1      2520 8.74723E-01
 -1      2521 7.36100E-01
 -1      2522 7.60884E-01
 -1      2523 8.82501E-01
 -1      2524 5.81802E-01
 -1      2525 6.59536E-01
 -1      2526 8.05937E-01
 -1      2527 3.81623E-01
 -1      2528 4.61519E-01
 -1      2529 6.09091E-01
 -1      2530 4.19024E-01
 -1      2531 3.93895E-01
 -1      2532 5.01079E-01
 -1      2533 4.46880E-01
 -1      2534 3.93421E-01
 -1      2535 4.87748E-01
 -1      2536 3.32416E+01
 -1      2537 3.32416E+01
 -1      2538 1.47808E+01
 -1      2539 2.07886E+01
 -1      2540 1.67893E+01
 -1      2541 7.06916E-01
 -1      2542 8.00411E-01
 -1      2543 6.27827E-01
 -1      2544 4.53742E-01
 -1      2545 3.13425E+01
 -1      2546 2.94434E+01
 -1      2547 9.50879E+00
 -1      2548 1.31791E+01
 -1      2549 7.52647E+00
 -1      2550 6.28272E+00
 -1      2551 2.53523E+01
 -1      2552 2.51237E+01
 -1      2553 7.82687E+00
 -1      2554 8.92433E+00
 -1      2555 5.22580E-01
 -1      2556 5.44618E-01
 -1      2557 4.71873E-01
 -1      2558 4.44587E-01
 -1      2559 9.75726E+00
 -1      2560 9.56488E+00
 -1      2561 1.62391E+01
 -1      2562 1.15889E+01
 -1      2563 9.15780E+00
 -1      2564 8.94353E+00
 -1      2565 7.92797E+00
 -1      2566 5.57392E+00
 -1      2567 6.37545E+00
 -1      2568 1.01607E+01
 -1      2569 7.42017E+00
 -1      2570 5.61260E+00
 -1      2571 2.01975E+01
 -1      2572 1.89533E+01
 -1      2573 3.00140E+01
 -1      2574 2.46516E+01
 -1      2575 3.53764E+01
 -1      2576 3.53764E+01
 -1      2577 2.19107E+01
 -1      2578 2.86436E+01
 -1      2579 1.25645E+01
 -1      2580 1.70565E+01
 -1      2581 7.43374E+00
 -1      2582 1.05706E+01
 -1      2583 6.20452E+00
 -1      2584 6.11694E+00
 -1      2585 8.72025E+00
 -1      2586 7.50717E+00
 -1      2587 9.17941E+00
 -1      2588 9.46584E+00
 -1      2589 8.83636E+00
 -1      2590 8.88888E+00
 -1      2591 7.85201E+00
 -1      2592 6.31112E+00
 -1      2593 7.74553E+00
 -1      2594 7.47115E+00
 -1      2595 6.45023E+00
 -1      2596 1.28299E+01
 -1      2597 9.11289E+00
 -1      2598 2.12070E+01
 -1      2599 1.50730E+01
 -1      2600 1.67879E+00
 -1      2601 1.30525E+00
 -1      2602 8.41440E-01
 -1      2603 9.74051E-01
 -1      2604 1.62219E+00
 -1      2605 1.76533E+00
 -1      2606 1.32854E+00
 -1      2607 1.18944E+00
 -1      2608 5.21777E+00
 -1      2609 5.10641E-01
 -1      2610 6.49519E-01
 -1      2611 7.11457E-01
 -1      2612 8.00411E-01
 -1      2613 1.24398E+00
 -1      2614 6.87453E-01
 -1      2615 7.66028E-01
 -1      2616 6.70655E-01
 -1      2617 4.86637E-01
 -1      2618 5.52090E+00
 -1      2619 4.61745E+00
 -1      2620 3.92496E+00
 -1      2621 2.69736E+01
 -1      2622 7.87075E+00
 -1      2623 1.73444E+01
 -1      2624 2.53523E+01
 -1      2625 1.11846E+01
 -1      2626 5.60757E-01
 -1      2627 1.12715E+01
 -1      2628 5.60757E-01
 -1      2629 7.29979E+00
 -1      2630 3.13425E+01
 -1      2631 6.47066E+00
 -1      2632 5.42724E-01
 -1      2633 7.50212E+00
 -1      2634 5.34871E+00
 -1      2635 5.36285E+00
 -1      2636 8.67354E+00
 -1      2637 1.88662E+01
 -1      2638 1.88662E+01
 -1      2639 1.81439E+01
 -1      2640 2.86436E+01
 -1      2641 3.00140E+01
 -1      2642 8.88705E+00
 -1      2643 1.74457E+01
 -1      2644 1.59560E+01
 -1      2645 1.10567E+01
 -1      2646 6.10384E+00
 -1      2647 9.68048E-01
 -1      2648 1.30294E+01
 -1      2649 4.53742E-01
 -1      2650 4.31616E-01
 -1      2651 4.46880E-01
 -1      2652 5.04129E-01
 -1      2653 2.01975E+01
 -1      2654 5.51894E+00
 -1      2655 4.52578E-01
 -1      2656 4.22725E-01
 -1      2657 4.08033E-01
 -1      2658 4.00306E-01
 -1      2659 3.87453E-01
 -1      2660 3.50872E-01
 -1      2661 4.36243E-01
 -1      2662 4.36243E-01
 -1      2663 4.72382E-01
 -1      2664 4.24144E-01
 -1      2665 3.49659E-01
 -1      2666 7.19175E-01
 -1      2667 7.97221E-01
 -1      2668 1.29005E+01
 -1      2669 1.01864E+01
 -1      2670 8.28601E-01
 -1      2671 5.52172E-01
 -1      2672 4.95716E-01
 -1      2673 4.89313E-01
 -1      2674 4.33414E-01
 -1      2675 3.93195E-01
 -1      2676 4.13119E-01
 -1      2677 3.64035E-01
 -1      2678 3.66498E-01
 -1      2679 3.39323E-01
 -1      2680 3.12382E-01
 -1      2681 3.21491E-01
 -1      2682 2.87551E-01
 -1      2683 2.63111E-01
 -1      2684 2.71947E-01
 -1      2685 2.47127E-01
 -1      2686 2.24110E-01
 -1      2687 2.31133E-01
 -1      2688 2.07548E-01
 -1      2689 1.87408E-01
 -1      2690 1.98587E-01
 -1      2691 1.72187E-01
 -1      2692 1.55454E-01
 -1      2693 1.66804E-01
 -1      2694 1.42078E-01
 -1      2695 1.27432E-01
 -1      2696 1.38207E-01
 -1      2697 1.15368E-01
 -1      2698 1.02707E-01
 -1      2699 1.12768E-01
 -1      2700 9.17881E-02
 -1      2701 8.19212E-02
 -1      2702 8.97847E-02
 -1      2703 7.17476E-02
 -1      2704 6.36292E-02
 -1      2705 6.86923E-02
 -1      2706 5.88677E-02
 -1      2707 6.25897E-02
 -1      2708 5.37573E-02
 -1      2709 6.72550E-02
 -1      2710 7.46903E-02
 -1      2711 5.36611E-02
 -1      2712 9.38960E-02
 -1      2713 1.11919E-01
 -1      2714 7.75322E-02
 -1      2715 1.35034E-01
 -1      2716 1.62291E-01
 -1      2717 1.19853E-01
 -1      2718 1.90264E-01
 -1      2719 2.23208E-01
 -1      2720 1.70942E-01
 -1      2721 2.56924E-01
 -1      2722 2.95964E-01
 -1      2723 2.32631E-01
 -1      2724 3.36124E-01
 -1      2725 3.80943E-01
 -1      2726 3.06507E-01
 -1      2727 4.27886E-01
 -1      2728 4.76984E-01
 -1      2729 3.93609E-01
 -1      2730 5.30404E-01
 -1      2731 5.80502E-01
 -1      2732 4.93972E-01
 -1      2733 6.39000E-01
 -1      2734 6.84400E-01
 -1      2735 6.05890E-01
 -1      2736 7.44758E-01
 -1      2737 7.80764E-01
 -1      2738 7.24747E-01
 -1      2739 8.36706E-01
 -1      2740 8.86081E-01
 -1      2741 8.41046E-01
 -1      2742 9.71376E-01
 -1      2743 1.01681E+00
 -1      2744 9.82284E-01
 -1      2745 1.12355E+00
 -1      2746 1.14106E+00
 -1      2747 1.17431E+00
 -1      2748 1.23896E+00
 -1      2749 1.28642E+00
 -1      2750 1.37894E+00
 -1      2751 1.40157E+00
 -1      2752 1.49165E+00
 -1      2753 1.59198E+00
 -1      2754 1.81497E+00
 -1      2755 1.89814E+00
 -1      2756 2.03045E+00
 -1      2757 1.71259E+00
 -1      2758 1.78115E+00
 -1      2759 2.16823E+00
 -1      2760 2.52057E+00
 -1      2761 2.77133E+00
 -1      2762 2.72209E+00
 -1      2763 2.31475E+00
 -1      2764 2.54836E+00
 -1      2765 3.00494E+00
 -1      2766 3.36733E+00
 -1      2767 3.35886E+00
 -1      2768 3.36733E+00
 -1      2769 3.45003E+00
 -1      2770 3.28536E+00
 -1      2771 4.27747E+00
 -1      2772 2.83104E+00
 -1      2773 2.53219E+00
 -1      2774 3.91431E+00
 -1      2775 1.82862E+00
 -1      2776 1.81812E+00
 -1      2777 2.75642E+00
 -1      2778 1.84444E+00
 -1      2779 1.69742E+00
 -1      2780 2.07917E+00
 -1      2781 1.48934E+00
 -1      2782 1.39761E+00
 -1      2783 1.89741E+00
 -1      2784 1.18434E+00
 -1      2785 1.04477E+00
 -1      2786 1.47606E+00
 -1      2787 9.42748E-01
 -1      2788 8.83244E-01
 -1      2789 1.16076E+00
 -1      2790 7.13013E-01
 -1      2791 6.52597E-01
 -1      2792 8.88503E-01
 -1      2793 5.86921E-01
 -1      2794 5.30230E-01
 -1      2795 6.52597E-01
 -1      2796 3.53817E-01
 -1      2797 3.86522E-01
 -1      2798 1.91771E+01
 -1      2799 1.47230E+01
 -1      2800 4.20652E-01
 -1      2801 4.74203E-01
 -1      2802 3.65537E-01
 -1      2803 2.48905E-01
 -1      2804 2.76533E-01
 -1      2805 2.08675E-01
 -1      2806 2.30749E-01
 -1      2807 2.21104E-01
 -1      2808 1.72655E-01
 -1      2809 1.91841E-01
 -1      2810 1.86115E-01
 -1      2811 1.41324E-01
 -1      2812 1.57707E-01
 -1      2813 1.54333E-01
 -1      2814 1.14854E-01
 -1      2815 1.28366E-01
 -1      2816 1.26426E-01
 -1      2817 9.27913E-02
 -1      2818 1.03677E-01
 -1      2819 1.02291E-01
 -1      2820 7.58082E-02
 -1      2821 8.29625E-02
 -1      2822 8.12854E-02
 -1      2823 6.99779E-02
 -1      2824 6.92701E-02
 -1      2825 6.49185E-02
 -1      2826 8.32227E-02
 -1      2827 7.51037E-02
 -1      2828 6.35062E-02
 -1      2829 1.08500E-01
 -1      2830 9.68671E-02
 -1      2831 8.22764E-02
 -1      2832 1.61345E-01
 -1      2833 1.32909E-01
 -1      2834 1.20330E-01
 -1      2835 2.27005E-01
 -1      2836 1.91458E-01
 -1      2837 1.74853E-01
 -1      2838 3.07843E-01
 -1      2839 2.64065E-01
 -1      2840 2.42027E-01
 -1      2841 4.05554E-01
 -1      2842 3.52977E-01
 -1      2843 3.24221E-01
 -1      2844 5.20424E-01
 -1      2845 4.59580E-01
 -1      2846 4.23381E-01
 -1      2847 6.50220E-01
 -1      2848 5.83534E-01
 -1      2849 5.40517E-01
 -1      2850 7.88637E-01
 -1      2851 7.21488E-01
 -1      2852 6.74895E-01
 -1      2853 9.23426E-01
 -1      2854 8.65277E-01
 -1      2855 8.22802E-01
 -1      2856 1.04403E+00
 -1      2857 9.99614E-01
 -1      2858 9.75629E-01
 -1      2859 1.16784E+00
 -1      2860 1.10914E+00
 -1      2861 1.11692E+00
 -1      2862 1.33731E+00
 -1      2863 1.28965E+00
 -1      2864 1.30383E+00
 -1      2865 1.47752E+00
 -1      2866 1.47643E+00
 -1      2867 1.56475E+00
 -1      2868 1.66892E+00
 -1      2869 1.59612E+00
 -1      2870 1.82246E+00
 -1      2871 1.92388E+00
 -1      2872 1.88255E+00
 -1      2873 2.15469E+00
 -1      2874 2.28995E+00
 -1      2875 2.11964E+00
 -1      2876 2.56407E+00
 -1      2877 2.16903E+00
 -1      2878 1.96706E+00
 -1      2879 2.43692E+00
 -1      2880 3.39168E+00
 -1      2881 2.96128E+00
 -1      2882 2.90628E+00
 -1      2883 4.92013E+00
 -1      2884 4.87701E+00
 -1      2885 5.18387E+00
 -1      2886 4.60180E+00
 -1      2887 4.96353E+00
 -1      2888 6.71259E+00
 -1      2889 2.17778E+00
 -1      2890 2.44762E+00
 -1      2891 4.60180E+00
 -1      2892 1.99273E+00
 -1      2893 2.07196E+00
 -1      2894 2.34180E+00
 -1      2895 1.78929E+00
 -1      2896 1.92705E+00
 -1      2897 2.17029E+00
 -1      2898 1.50999E+00
 -1      2899 1.64553E+00
 -1      2900 1.96083E+00
 -1      2901 1.23936E+00
 -1      2902 1.32969E+00
 -1      2903 1.63677E+00
 -1      2904 1.04357E+00
 -1      2905 1.09081E+00
 -1      2906 1.30792E+00
 -1      2907 9.86066E-01
 -1      2908 1.06132E+00
 -1      2909 1.17713E+00
 -1      2910 8.68299E-01
 -1      2911 9.24210E-01
 -1      2912 1.13303E+00
 -1      2913 6.26920E-01
 -1      2914 6.65424E-01
 -1      2915 8.68299E-01
 -1      2916 5.81228E-01
 -1      2917 8.66548E+00
 -1      2918 1.02672E+01
 -1      2919 1.05481E+00
 -1      2920 1.04703E+00
 -1      2921 6.66919E+00
 -1      2922 7.50212E+00
 -1      2923 9.51520E-01
 -1      2924 8.48958E-01
 -1      2925 1.04727E+00
 -1      2926 1.04727E+00
 -1      2927 1.21957E+00
 -1      2928 1.04703E+00
 -1      2929 1.04703E+00
 -1      2930 1.13160E+00
 -1      2931 1.22711E+00
 -1      2932 9.23638E-01
 -1      2933 1.00020E+00
 -1      2934 1.16497E+00
 -1      2935 6.43542E-01
 -1      2936 7.63824E-01
 -1      2937 9.58089E-01
 -1      2938 6.14743E-01
 -1      2939 6.02472E-01
 -1      2940 7.57205E-01
 -1      2941 6.35335E+00
 -1      2942 8.15235E+00
 -1      2943 1.15652E+01
 -1      2944 1.54814E+01
 -1      2945 5.07841E-01
 -1      2946 5.86930E-01
 -1      2947 4.33305E-01
 -1      2948 1.60141E+01
 -1      2949 1.20974E+01
 -1      2950 8.65961E+00
 -1      2951 6.59072E+00
 -1      2952 4.91682E+00
 -1      2953 6.00765E+00
 -1      2954 1.80431E+01
 -1      2955 2.43111E+01
 -1      2956 1.28189E+01
 -1      2957 2.22120E+01
 -1      2958 1.81208E+01
 -1      2959 7.33631E+00
 -1      2960 5.47245E+00
 -1      2961 5.53309E+00
 -1      2962 7.23528E+00
 -1      2963 6.42906E+00
 -1      2964 1.07860E+01
 -1      2965 8.54288E+00
 -1      2966 2.95093E-01
 -1      2967 3.26302E-01
 -1      2968 3.03893E-01
 -1      2969 2.57818E-01
 -1      2970 6.03965E-01
 -1      2971 5.54238E-01
 -1      2972 4.01663E-01
 -1      2973 4.36243E-01
 -1      2974 4.24305E-01
 -1      2975 3.60179E-01
 -1      2976 3.61758E-01
 -1      2977 6.12323E-01
 -1      2978 7.05817E-01
 -1      2979 5.31087E-01
 -1      2980 4.92336E-01
 -1      2981 4.23387E-01
 -1      2982 4.35541E-01
 -1      2983 5.05644E+00
 -1      2984 3.75378E+00
 -1      2985 4.72483E-01
 -1      2986 4.87748E-01
 -1      2987 4.93445E-01
 -1      2988 5.69651E+00
 -1      2989 3.85026E+00
 -1      2990 3.52340E+00
 -1      2991 4.97483E+00
 -1      2992 4.55902E+00
 -1      2993 4.41991E+00
 -1      2994 8.66674E+00
 -1      2995 7.23854E+00
 -1      2996 5.47620E+00
 -1      2997 2.61486E+01
 -1      2998 2.07861E+01
 -1      2999 5.89579E+00
 -1      3000 4.47874E+00
 -1      3001 1.88602E+01
 -1      3002 2.55931E+01
 -1      3003 6.29463E+00
 -1      3004 8.28852E+00
 -1      3005 3.75947E+00
 -1      3006 5.07626E+00
 -1      3007 4.69124E+00
 -1      3008 6.94476E+00
 -1      3009 2.26194E+01
 -1      3010 2.07203E+01
 -1      3011 7.42576E+00
 -1      3012 5.78403E+00
 -1      3013 6.23717E-01
 -1      3014 5.86479E-01
 -1      3015 3.86243E-01
 -1      3016 4.15694E-01
 -1      3017 4.35541E-01
 -1      3018 4.35541E-01
 -1      3019 3.60442E-01
 -1      3020 3.42934E-01
 -1      3021 3.87242E-01
 -1      3022 4.00068E-01
 -1      3023 8.53785E+00
 -1      3024 5.75824E-01
 -1      3025 3.46720E+00
 -1      3026 5.39092E+00
 -1      3027 5.50136E-01
 -1      3028 1.18800E+01
 -1      3029 9.45560E+00
 -1      3030 1.62955E+01
 -1      3031 1.32450E+01
 -1      3032 1.32510E+01
 -1      3033 7.14808E+00
 -1      3034 6.36802E-01
 -1      3035 7.20998E-01
 -1      3036 6.33604E-01
 -1      3037 7.54552E+00
 -1      3038 8.95921E+00
 -1      3039 4.41002E-01
 -1      3040 4.68500E+00
 -1      3041 4.89905E+00
 -1      3042 5.13351E-01
 -1      3043 1.28737E+01
 -1      3044 1.34888E+01
 -1      3045 5.37143E+00
 -1      3046 7.02711E+00
 -1      3047 3.95690E+00
 -1      3048 1.54486E+01
 -1      3049 1.31264E+01
 -1      3050 1.09385E+01
 -1      3051 8.62943E+00
 -1      3052 9.01869E+00
 -1      3053 6.25052E+00
 -1      3054 7.13844E+00
 -1      3055 5.13351E-01
 -1      3056 5.13351E-01
 -1      3057 6.14743E-01
 -1      3058 5.50136E-01
 -1      3059 9.04635E-01
 -1      3060 8.19041E-01
 -1      3061 9.62009E-01
 -1      3062 1.09177E+00
 -1      3063 3.60732E+00
 -1      3064 1.53117E+01
 -1      3065 4.07585E-01
 -1      3066 4.22045E-01
 -1      3067 3.59100E-01
 -1      3068 3.50240E-01
 -1      3069 3.93817E+00
 -1      3070 1.63652E+01
 -1      3071 3.01541E+00
 -1      3072 3.02110E+00
 -1      3073 2.88963E-01
 -1      3074 3.01063E-01
 -1      3075 3.88900E-01
 -1      3076 3.64896E-01
 -1      3077 3.17957E-01
 -1      3078 3.13800E-01
 -1      3079 3.50451E+00
 -1      3080 2.74269E+00
 -1      3081 3.29646E+00
 -1      3082 3.22099E-01
 -1      3083 3.01805E-01
 -1      3084 2.98485E-01
 -1      3085 2.73772E-01
 -1      3086 2.54086E-01
 -1      3087 2.62827E-01
 -1      3088 2.37996E-01
 -1      3089 2.39821E-01
 -1      3090 2.23620E-01
 -1      3091 2.07636E-01
 -1      3092 2.14499E-01
 -1      3093 1.94081E-01
 -1      3094 1.77519E-01
 -1      3095 1.86568E-01
 -1      3096 1.66414E-01
 -1      3097 1.51193E-01
 -1      3098 1.61908E-01
 -1      3099 1.39190E-01
 -1      3100 1.25815E-01
 -1      3101 1.38800E-01
 -1      3102 1.13713E-01
 -1      3103 1.01649E-01
 -1      3104 1.14696E-01
 -1      3105 8.97681E-02
 -1      3106 7.88493E-02
 -1      3107 9.07137E-02
 -1      3108 6.71517E-02
 -1      3109 5.69781E-02
 -1      3110 6.71351E-02
 -1      3111 4.74636E-02
 -1      3112 4.27021E-02
 -1      3113 4.59230E-02
 -1      3114 4.38218E-02
 -1      3115 4.84871E-02
 -1      3116 3.75281E-02
 -1      3117 6.35227E-02
 -1      3118 8.27284E-02
 -1      3119 5.36834E-02
 -1      3120 1.02222E-01
 -1      3121 1.25337E-01
 -1      3122 8.82129E-02
 -1      3123 1.50097E-01
 -1      3124 1.78070E-01
 -1      3125 1.32466E-01
 -1      3126 2.07983E-01
 -1      3127 2.41699E-01
 -1      3128 1.87139E-01
 -1      3129 2.77249E-01
 -1      3130 3.17408E-01
 -1      3131 2.52601E-01
 -1      3132 3.58500E-01
 -1      3133 4.05443E-01
 -1      3134 3.29242E-01
 -1      3135 4.50923E-01
 -1      3136 5.04343E-01
 -1      3137 4.15814E-01
 -1      3138 5.68394E-01
 -1      3139 6.26893E-01
 -1      3140 5.25346E-01
 -1      3141 7.03485E-01
 -1      3142 7.63843E-01
 -1      3143 6.65989E-01
 -1      3144 8.56240E-01
 -1      3145 9.12182E-01
 -1      3146 8.34978E-01
 -1      3147 1.02509E+00
 -1      3148 1.11039E+00
 -1      3149 1.04029E+00
 -1      3150 1.22800E+00
 -1      3151 1.33473E+00
 -1      3152 1.27081E+00
 -1      3153 1.53263E+00
 -1      3154 1.63053E+00
 -1      3155 1.58632E+00
 -1      3156 1.88455E+00
 -1      3157 1.99969E+00
 -1      3158 2.03823E+00
 -1      3159 2.44031E+00
 -1      3160 2.76364E+00
 -1      3161 2.73288E+00
 -1      3162 2.27599E+00
 -1      3163 3.01541E+00
 -1      3164 3.93817E+00
 -1      3165 3.48159E+00
 -1      3166 4.30056E+00
 -1      3167 5.25717E+00
 -1      3168 5.34833E+00
 -1      3169 4.41123E+00
 -1      3170 3.95690E+00
 -1      3171 2.85610E+00
 -1      3172 2.15253E+00
 -1      3173 2.53317E+00
 -1      3174 2.55949E+00
 -1      3175 2.63285E+00
 -1      3176 2.56179E+00
 -1      3177 2.35371E+00
 -1      3178 3.01579E+00
 -1      3179 2.02221E+00
 -1      3180 1.80894E+00
 -1      3181 2.68660E+00
 -1      3182 1.52122E+00
 -1      3183 1.41919E+00
 -1      3184 2.06737E+00
 -1      3185 1.62978E+00
 -1      3186 1.45955E+00
 -1      3187 1.99024E+00
 -1      3188 7.90104E-01
 -1      3189 7.24429E-01
 -1      3190 6.87644E-01
 -1      3191 1.53138E+00
 -1      3192 1.66630E-01
 -1      3193 1.83464E-01
 -1      3194 1.96746E-01
 -1      3195 2.14902E-01
 -1      3196 1.77262E-01
 -1      3197 1.11708E-01
 -1      3198 1.24667E-01
 -1      3199 8.77698E-02
 -1      3200 9.89466E-02
 -1      3201 9.71870E-02
 -1      3202 6.71472E-02
 -1      3203 7.69760E-02
 -1      3204 7.36316E-02
 -1      3205 5.00177E-02
 -1      3206 5.65558E-02
 -1      3207 5.22463E-02
 -1      3208 5.32834E-02
 -1      3209 4.81576E-02
 -1      3210 3.97948E-02
 -1      3211 8.01346E-02
 -1      3212 6.64902E-02
 -1      3213 5.11416E-02
 -1      3214 1.24064E-01
 -1      3215 9.96546E-02
 -1      3216 8.38684E-02
 -1      3217 1.77923E-01
 -1      3218 1.47810E-01
 -1      3219 1.27134E-01
 -1      3220 2.44157E-01
 -1      3221 2.07098E-01
 -1      3222 1.80054E-01
 -1      3223 3.25289E-01
 -1      3224 2.80155E-01
 -1      3225 2.45226E-01
 -1      3226 4.24779E-01
 -1      3227 3.70753E-01
 -1      3228 3.26688E-01
 -1      3229 5.44902E-01
 -1      3230 4.81792E-01
 -1      3231 4.29164E-01
 -1      3232 6.87112E-01
 -1      3233 6.15844E-01
 -1      3234 5.57119E-01
 -1      3235 8.49815E-01
 -1      3236 7.73176E-01
 -1      3237 7.14125E-01
 -1      3238 1.02756E+00
 -1      3239 9.51370E-01
 -1      3240 9.01744E-01
 -1      3241 1.22066E+00
 -1      3242 1.15556E+00
 -1      3243 1.13130E+00
 -1      3244 1.49405E+00
 -1      3245 1.37224E+00
 -1      3246 1.41088E+00
 -1      3247 1.79329E+00
 -1      3248 1.65418E+00
 -1      3249 1.72259E+00
 -1      3250 2.18055E+00
 -1      3251 2.06195E+00
 -1      3252 2.15138E+00
 -1      3253 2.83918E+00
 -1      3254 2.62556E+00
 -1      3255 2.86504E+00
 -1      3256 3.37794E+00
 -1      3257 3.18219E+00
 -1      3258 3.65306E+00
 -1      3259 3.48950E+00
 -1      3260 2.69725E+00
 -1      3261 6.98882E+00
 -1      3262 8.28683E+00
 -1      3263 2.38493E+00
 -1      3264 4.53911E+00
 -1      3265 2.39900E+00
 -1      3266 2.50482E+00
 -1      3267 2.44213E+00
 -1      3268 2.65443E+00
 -1      3269 2.72012E+00
 -1      3270 2.88314E+00
 -1      3271 2.53885E+00
 -1      3272 2.68262E+00
 -1      3273 3.23245E+00
 -1      3274 1.82080E+00
 -1      3275 2.00110E+00
 -1      3276 2.72289E+00
 -1      3277 1.38190E+00
 -1      3278 1.53044E+00
 -1      3279 1.89478E+00
 -1      3280 1.54435E+00
 -1      3281 1.52660E+00
 -1      3282 1.74912E+00
 -1      3283 1.15982E+00
 -1      3284 1.36269E+00
 -1      3285 1.21539E+00
 -1      3286 1.39553E+00
 -1      3287 1.44259E+00
 -1      3288 3.02410E+00
 -1      3289 1.44259E+00
 -1      3290 1.45013E+00
 -1      3291 1.67315E+00
 -1      3292 8.38456E+00
 -1      3293 7.07319E+00
 -1      3294 4.13464E-01
 -1      3295 3.10022E-01
 -1      3296 2.61426E-01
 -1      3297 4.00107E-01
 -1      3298 1.02319E+01
 -1      3299 1.17236E+01
 -1      3300 1.30986E+01
 -1      3301 2.20291E+01
 -1      3302 9.71022E+00
 -1      3303 1.22719E+01
 -1      3304 6.93888E+00
 -1      3305 5.82176E+00
 -1      3306 3.53925E-01
 -1      3307 3.87563E-01
 -1      3308 1.03258E+00
 -1      3309 1.19239E+00
 -1      3310 1.47002E+00
 -1      3311 1.10879E+00
 -1      3312 1.14986E+00
 -1      3313 1.38416E+00
 -1      3314 5.18387E+00
 -1      3315 7.92667E+00
 -1      3316 6.40705E+00
 -1      3317 1.38004E-01
 -1      3318 1.52952E-01
 -1      3319 1.50301E-01
 -1      3320 1.23286E-01
 -1      3321 3.10278E-01
 -1      3322 3.44408E-01
 -1      3323 2.98665E-01
 -1      3324 1.10554E+01
 -1      3325 9.23289E+00
 -1      3326 7.10209E+00
 -1      3327 2.86258E+00
 -1      3328 1.18292E+01
 -1      3329 9.72247E+00
 -1      3330 7.34007E+00
 -1      3331 3.29072E-01
 -1      3332 3.27006E-01
 -1      3333 3.17323E-01
 -1      3334 3.10920E-01
 -1      3335 2.46227E-01
 -1      3336 5.50715E+00
 -1      3337 3.96512E+00
 -1      3338 6.10702E+00
 -1      3339 6.62014E+00
 -1      3340 5.94776E+00
 -1      3341 2.98380E+00
 -1      3342 4.20216E+00
 -1      3343 1.25841E+01
 -1      3344 1.31396E+01
 -1      3345 1.14068E+01
 -1      3346 3.23712E-01
 -1      3347 3.15985E-01
 -1      3348 1.37616E+01
 -1      3349 1.21526E+01
 -1      3350 4.59849E+00
 -1      3351 3.34699E+00
 -1      3352 1.14436E+01
 -1      3353 9.16157E+00
 -1      3354 9.30231E+00
 -1      3355 9.89257E+00
 -1      3356 3.12489E-01
 -1      3357 3.12279E-01
 -1      3358 2.85330E-01
 -1      3359 2.60323E-01
 -1      3360 3.21018E-01
 -1      3361 3.21018E-01
 -1      3362 3.25291E-01
 -1      3363 3.23712E-01
 -1      3364 2.88825E-01
 -1      3365 2.84552E-01
 -1      3366 7.64730E+00
 -1      3367 8.57234E+00
 -1      3368 3.46151E+00
 -1      3369 2.20507E+00
 -1      3370 2.49839E+00
 -1      3371 2.95017E+00
 -1      3372 2.39062E+00
 -1      3373 9.50543E+00
 -1      3374 4.37351E+00
 -1      3375 4.46175E+00
 -1      3376 5.86784E+00
 -1      3377 3.45999E+00
 -1      3378 3.21087E-01
 -1      3379 3.21087E-01
 -1      3380 1.22324E+01
 -1      3381 9.66168E+00
 -1      3382 9.53705E+00
 -1      3383 2.05101E-01
 -1      3384 2.29458E-01
 -1      3385 2.48017E-01
 -1      3386 1.65520E+00
 -1      3387 1.43218E+00
 -1      3388 1.43218E+00
 -1      3389 8.12738E+00
 -1      3390 2.44731E-01
 -1      3391 7.73983E+00
 -1      3392 4.89597E+00
 -1      3393 1.42455E+00
 -1      3394 1.43218E+00
 -1      3395 1.33667E+00
 -1      3396 1.63725E+00
 -1      3397 8.33489E+00
 -1      3398 8.65489E-01
 -1      3399 9.66882E-01
 -1      3400 1.35953E+00
 -1      3401 1.03978E+00
 -1      3402 2.80048E+00
 -1      3403 3.24480E-01
 -1      3404 2.85126E-01
 -1      3405 3.23138E-01
 -1      3406 1.64573E+00
 -1      3407 1.34515E+00
 -1      3408 1.40083E+00
 -1      3409 1.00194E+01
 -1      3410 1.25841E+01
 -1      3411 9.35843E+00
 -1      3412 9.14816E+00
 -1      3413 8.64070E+00
 -1      3414 6.72090E+00
 -1      3415 5.51195E+00
 -1      3416 5.85286E+00
 -1      3417 3.80451E+00
 -1      3418 2.94020E-01
 -1      3419 2.72891E-01
 -1      3420 2.66506E-01
 -1      3421 1.23959E+01
 -1      3422 9.23681E+00
 -1      3423 8.61475E+00
 -1      3424 3.69574E-01
 -1      3425 3.94967E-01
 -1      3426 2.77344E-01
 -1      3427 2.90193E-01
 -1      3428 4.91960E+00
 -1      3429 4.39167E+00
 -1      3430 4.08047E+00
 -1      3431 2.85547E+00
 -1      3432 3.35444E-01
 -1      3433 2.60787E-01
 -1      3434 3.07428E-01
 -1      3435 2.16739E-01
 -1      3436 2.13419E-01
 -1      3437 2.17394E-01
 -1      3438 2.06449E-01
 -1      3439 1.80047E-01
 -1      3440 2.02652E-01
 -1      3441 1.88276E-01
 -1      3442 1.80225E-01
 -1      3443 1.80072E-01
 -1      3444 1.66517E-01
 -1      3445 1.68225E-01
 -1      3446 1.56088E-01
 -1      3447 1.44983E-01
 -1      3448 1.49592E-01
 -1      3449 1.36723E-01
 -1      3450 1.24720E-01
 -1      3451 1.30904E-01
 -1      3452 1.15622E-01
 -1      3453 1.03521E-01
 -1      3454 1.13545E-01
 -1      3455 9.38512E-02
 -1      3456 8.19702E-02
 -1      3457 9.47776E-02
 -1      3458 7.20959E-02
 -1      3459 6.03984E-02
 -1      3460 7.52334E-02
 -1      3461 5.41953E-02
 -1      3462 4.46808E-02
 -1      3463 5.91561E-02
 -1      3464 4.62901E-02
 -1      3465 4.74097E-02
 -1      3466 5.45623E-02
 -1      3467 5.24448E-02
 -1      3468 6.74804E-02
 -1      3469 6.12068E-02
 -1      3470 8.61380E-02
 -1      3471 1.05632E-01
 -1      3472 8.48995E-02
 -1      3473 1.28845E-01
 -1      3474 1.53605E-01
 -1      3475 1.26771E-01
 -1      3476 1.82132E-01
 -1      3477 2.12045E-01
 -1      3478 1.78511E-01
 -1      3479 2.46881E-01
 -1      3480 2.82431E-01
 -1      3481 2.41875E-01
 -1      3482 3.24495E-01
 -1      3483 3.65587E-01
 -1      3484 3.18776E-01
 -1      3485 4.15565E-01
 -1      3486 4.61046E-01
 -1      3487 4.10818E-01
 -1      3488 5.19072E-01
 -1      3489 5.83123E-01
 -1      3490 5.18823E-01
 -1      3491 6.48093E-01
 -1      3492 7.24684E-01
 -1      3493 6.41819E-01
 -1      3494 8.13340E-01
 -1      3495 9.05737E-01
 -1      3496 7.95443E-01
 -1      3497 1.02645E+00
 -1      3498 1.13937E+00
 -1      3499 1.00482E+00
 -1      3500 1.35717E+00
 -1      3501 1.47478E+00
 -1      3502 1.34334E+00
 -1      3503 1.74257E+00
 -1      3504 1.94047E+00
 -1      3505 1.82893E+00
 -1      3506 2.24022E+00
 -1      3507 2.49423E+00
 -1      3508 2.39647E+00
 -1      3509 3.08293E+00
 -1      3510 3.52355E+00
 -1      3511 3.28491E+00
 -1      3512 9.23681E+00
 -1      3513 8.13969E+00
 -1      3514 4.37581E+00
 -1      3515 5.23618E+00
 -1      3516 5.10186E+00
 -1      3517 3.74414E+00
 -1      3518 2.49404E-01
 -1      3519 2.58921E-01
 -1      3520 3.41265E+00
 -1      3521 2.56250E+00
 -1      3522 2.27477E+00
 -1      3523 3.62005E+00
 -1      3524 2.15071E+00
 -1      3525 2.36130E+00
 -1      3526 2.64584E+00
 -1      3527 1.58416E-01
 -1      3528 1.71698E-01
 -1      3529 6.68585E-02
 -1      3530 7.76523E-02
 -1      3531 8.84484E-02
 -1      3532 1.01210E-01
 -1      3533 8.16753E-02
 -1      3534 4.30915E-02
 -1      3535 4.49516E-02
 -1      3536 6.04142E-02
 -1      3537 4.72074E-02
 -1      3538 5.23641E-02
 -1      3539 9.77746E-02
 -1      3540 7.82546E-02
 -1      3541 7.43204E-02
 -1      3542 1.45064E-01
 -1      3543 1.21318E-01
 -1      3544 1.15704E-01
 -1      3545 2.03618E-01
 -1      3546 1.74444E-01
 -1      3547 1.68628E-01
 -1      3548 2.76233E-01
 -1      3549 2.40235E-01
 -1      3550 2.34625E-01
 -1      3551 3.67042E-01
 -1      3552 3.21578E-01
 -1      3553 3.16587E-01
 -1      3554 4.79627E-01
 -1      3555 4.22615E-01
 -1      3556 4.17505E-01
 -1      3557 6.17681E-01
 -1      3558 5.46739E-01
 -1      3559 5.40189E-01
 -1      3560 7.83030E-01
 -1      3561 6.96967E-01
 -1      3562 6.86587E-01
 -1      3563 9.74829E-01
 -1      3564 8.73273E-01
 -1      3565 8.56115E-01
 -1      3566 1.22922E+00
 -1      3567 1.10123E+00
 -1      3568 1.07275E+00
 -1      3569 1.56805E+00
 -1      3570 1.41647E+00
 -1      3571 1.38640E+00
 -1      3572 2.05527E+00
 -1      3573 1.89513E+00
 -1      3574 1.90073E+00
 -1      3575 3.16908E+00
 -1      3576 2.90043E+00
 -1      3577 3.07297E+00
 -1      3578 4.61810E+00
 -1      3579 4.17309E+00
 -1      3580 4.92214E+00
 -1      3581 4.55296E+00
 -1      3582 7.04605E+00
 -1      3583 7.15168E+00
 -1      3584 6.73168E+00
 -1      3585 5.39377E+00
 -1      3586 5.20539E+00
 -1      3587 2.96473E+00
 -1      3588 3.50248E+00
 -1      3589 2.69539E+00
 -1      3590 2.98575E+00
 -1      3591 3.76534E+00
 -1      3592 1.95865E+00
 -1      3593 1.81394E+00
 -1      3594 2.90492E+00
 -1      3595 1.77401E+00
 -1      3596 1.40083E+00
 -1      3597 1.85113E+00
 -1      3598 1.73386E+00
 -1      3599 5.51334E+00
 -1      3600 2.45409E+00
 -1      3601 2.45409E+00
 -1      3602 5.94166E+00
 -1      3603 7.36505E+00
 -1      3604 6.70672E+00
 -1      3605 7.04605E+00
 -1      3606 7.36505E+00
 -1      3607 6.53672E+00
 -1      3608 6.41693E+00
 -1      3609 6.55768E+00
 -1      3610 5.44710E+00
 -1      3611 4.41986E+00
 -1      3612 1.90015E-01
 -1      3613 2.01194E-01
 -1      3614 1.60527E-01
 -1      3615 2.07819E+00
 -1      3616 2.28133E+00
 -1      3617 3.06227E+00
 -1      3618 2.54517E+00
 -1      3619 4.54135E-02
 -1      3620 5.60049E-02
 -1      3621 6.00257E-02
 -1      3622 4.87102E-02
 -1      3623 3.15621E-01
 -1      3624 3.23138E-01
 -1      3625 2.88518E-01
 -1      3626 7.16723E+00
 -1      3627 5.86101E+00
 -1      3628 2.68074E-01
 -1      3629 1.65421E+00
 -1      3630 1.77401E+00
 -1      3631 1.89382E+00
 -1      3632 1.95865E+00
 -1      3633 1.77401E+00
 -1      3634 4.66170E+00
 -1      3635 5.03038E+00
 -1      3636 2.46109E+00
 -1      3637 2.03093E-01
 -1      3638 2.23049E-01
 -1      3639 6.89861E+00
 -1      3640 4.49395E+00
 -1      3641 4.14390E+00
 -1      3642 7.87107E+00
 -1      3643 1.95851E-01
 -1      3644 2.45112E-01
 -1      3645 4.62779E+00
 -1      3646 2.50250E-01
 -1      3647 2.10507E-01
 -1      3648 2.33993E-01
 -1      3649 8.50296E+00
 -1      3650 7.60898E+00
 -1      3651 6.71263E+00
 -1      3652 1.74885E+00
 -1      3653 1.75733E+00
 -1      3654 1.87713E+00
 -1      3655 2.36130E+00
 -1      3656 2.20083E+00
 -1      3657 1.64836E-01
 -1      3658 1.83683E-01
 -1      3659 1.98239E-01
 -1      3660 1.49281E-01
 -1      3661 1.43717E-01
 -1      3662 1.35603E-01
 -1      3663 7.04022E+00
 -1      3664 8.05884E+00
 -1      3665 7.39790E+00
 -1      3666 2.62988E+00
 -1      3667 2.61193E+00
 -1      3668 3.41082E+00
 -1      3669 1.03206E-01
 -1      3670 1.11945E-01
 -1      3671 1.25282E-01
 -1      3672 5.62539E+00
 -1      3673 5.47635E+00
 -1      3674 2.61193E+00
 -1      3675 2.61193E+00
 -1      3676 3.58662E+00
 -1      3677 4.65560E+00
 -1      3678 1.85113E+00
 -1      3679 5.56688E+00
 -1      3680 2.72353E+00
 -1      3681 2.85610E+00
 -1      3682 7.16847E+00
 -1      3683 7.16847E+00
 -1      3684 6.42480E+00
 -1      3685 2.00385E-01
 -1      3686 1.79326E-01
 -1      3687 1.42052E-01
 -1      3688 1.95245E-01
 -1      3689 2.38145E-01
 -1      3690 2.53400E-01
 -1      3691 2.49905E-01
 -1      3692 2.27123E-01
 -1      3693 2.53400E-01
 -1      3694 2.53400E-01
 -1      3695 2.17976E-01
 -1      3696 2.83411E+00
 -1      3697 1.99095E-01
 -1      3698 1.89412E-01
 -1      3699 2.12754E-01
 -1      3700 2.25157E+00
 -1      3701 1.44379E-01
 -1      3702 2.30148E-01
 -1      3703 2.26756E-01
 -1      3704 1.57777E-01
 -1      3705 2.85176E-01
 -1      3706 5.89460E+00
 -1      3707 2.42439E-01
 -1      3708 2.46712E-01
 -1      3709 2.11288E-01
 -1      3710 1.60512E-01
 -1      3711 1.56715E-01
 -1      3712 1.56154E-01
 -1      3713 1.47950E-01
 -1      3714 1.36441E-01
 -1      3715 1.43165E-01
 -1      3716 1.32737E-01
 -1      3717 1.31095E-01
 -1      3718 1.25498E-01
 -1      3719 1.17237E-01
 -1      3720 1.19070E-01
 -1      3721 1.10103E-01
 -1      3722 1.01005E-01
 -1      3723 1.04697E-01
 -1      3724 9.41365E-02
 -1      3725 8.44665E-02
 -1      3726 9.06941E-02
 -1      3727 7.70152E-02
 -1      3728 6.71410E-02
 -1      3729 7.63742E-02
 -1      3730 6.45510E-02
 -1      3731 5.83479E-02
 -1      3732 6.63328E-02
 -1      3733 5.98826E-02
 -1      3734 6.14919E-02
 -1      3735 6.52775E-02
 -1      3736 6.49411E-02
 -1      3737 6.99762E-02
 -1      3738 7.02613E-02
 -1      3739 7.82567E-02
 -1      3740 9.69143E-02
 -1      3741 8.19910E-02
 -1      3742 1.16758E-01
 -1      3743 1.39971E-01
 -1      3744 1.10115E-01
 -1      3745 1.64809E-01
 -1      3746 1.93337E-01
 -1      3747 1.54797E-01
 -1      3748 2.24421E-01
 -1      3749 2.59258E-01
 -1      3750 2.10719E-01
 -1      3751 2.98120E-01
 -1      3752 3.40185E-01
 -1      3753 2.80667E-01
 -1      3754 3.88769E-01
 -1      3755 4.38747E-01
 -1      3756 3.68113E-01
 -1      3757 4.99612E-01
 -1      3758 5.57638E-01
 -1      3759 4.77562E-01
 -1      3760 6.34175E-01
 -1      3761 6.99144E-01
 -1      3762 6.14963E-01
 -1      3763 7.95443E-01
 -1      3764 8.84099E-01
 -1      3765 7.87799E-01
 -1      3766 1.00312E+00
 -1      3767 1.12384E+00
 -1      3768 1.00312E+00
 -1      3769 1.29318E+00
 -1      3770 1.51099E+00
 -1      3771 1.29149E+00
 -1      3772 1.87471E+00
 -1      3773 2.14249E+00
 -1      3774 1.82455E+00
 -1      3775 3.43070E+00
 -1      3776 3.73045E+00
 -1      3777 3.47647E+00
 -1      3778 1.62097E-01
 -1      3779 1.48288E-01
 -1      3780 3.77764E+00
 -1      3781 1.58381E-01
 -1      3782 3.13775E+00
 -1      3783 2.97727E+00
 -1      3784 3.32161E+00
 -1      3785 3.26181E+00
 -1      3786 1.70923E+00
 -1      3787 2.42608E-01
 -1      3788 2.42608E-01
 -1      3789 1.84238E-01
 -1      3790 8.75124E-02
 -1      3791 6.96721E-02
 -1      3792 6.18228E-02
 -1      3793 5.77069E-02
 -1      3794 7.50148E-02
 -1      3795 1.86243E-01
 -1      3796 1.56863E-01
 -1      3797 2.54913E-01
 -1      3798 2.18296E-01
 -1      3799 2.06531E-01
 -1      3800 3.40596E-01
 -1      3801 2.95251E-01
 -1      3802 2.78921E-01
 -1      3803 4.46997E-01
 -1      3804 3.91425E-01
 -1      3805 3.70088E-01
 -1      3806 5.78416E-01
 -1      3807 5.11305E-01
 -1      3808 4.85224E-01
 -1      3809 7.39723E-01
 -1      3810 6.60438E-01
 -1      3811 6.31553E-01
 -1      3812 9.35708E-01
 -1      3813 8.45465E-01
 -1      3814 8.19316E-01
 -1      3815 1.19915E+00
 -1      3816 1.07275E+00
 -1      3817 1.06210E+00
 -1      3818 1.56622E+00
 -1      3819 1.37897E+00
 -1      3820 1.37897E+00
 -1      3821 2.16175E+00
 -1      3822 1.83467E+00
 -1      3823 1.82724E+00
 -1      3824 3.89615E+00
 -1      3825 3.05099E+00
 -1      3826 2.98493E+00
 -1      3827 6.57576E+00
 -1      3828 6.57576E+00
 -1      3829 2.39671E+00
 -1      3830 3.27815E+00
 -1      3831 4.67662E+00
 -1      3832 1.85210E-01
 -1      3833 4.90888E+00
 -1      3834 5.05792E+00
 -1      3835 5.98233E+00
 -1      3836 4.03853E+00
 -1      3837 3.17545E+00
 -1      3838 1.50353E-01
 -1      3839 1.54329E-01
 -1      3840 1.30818E-01
 -1      3841 7.32448E-02
 -1      3842 8.40409E-02
 -1      3843 1.41993E-01
 -1      3844 1.57537E-01
 -1      3845 1.31819E-01
 -1      3846 4.98380E+00
 -1      3847 4.98380E+00
 -1      3848 5.02867E+00
 -1      3849 4.90888E+00
 -1      3850 2.49647E-01
 -1      3851 2.52989E-01
 -1      3852 2.07079E-01
 -1      3853 2.17718E-01
 -1      3854 4.91741E+00
 -1      3855 4.91741E+00
 -1      3856 2.08905E-01
 -1      3857 2.27393E-01
 -1      3858 1.87487E-01
 -1      3859 1.31377E-01
 -1      3860 1.07833E-01
 -1      3861 1.48992E-01
 -1      3862 5.87262E+00
 -1      3863 4.26955E+00
 -1      3864 5.36198E+00
 -1      3865 4.41633E+00
 -1      3866 8.40848E-02
 -1      3867 9.25153E-02
 -1      3868 1.03250E-01
 -1      3869 3.61585E+00
 -1      3870 3.78862E+00
 -1      3871 1.78032E-01
 -1      3872 1.30468E-01
 -1      3873 1.78878E-01
 -1      3874 4.05219E+00
 -1      3875 4.64088E+00
 -1      3876 2.33188E+00
 -1      3877 2.04753E-01
 -1      3878 1.03185E-01
 -1      3879 1.24262E-01
 -1      3880 1.55391E-01
 -1      3881 7.02561E+00
 -1      3882 5.42277E+00
 -1      3883 5.99153E+00
 -1      3884 3.86274E+00
 -1      3885 4.03853E+00
 -1      3886 1.29017E-01
 -1      3887 1.38152E-01
 -1      3888 6.50030E-02
 -1      3889 5.55444E-02
 -1      3890 5.60064E-02
 -1      3891 4.57731E+00
 -1      3892 6.40603E+00
 -1      3893 5.11073E+00
 -1      3894 4.95976E+00
 -1      3895 4.02715E+00
 -1      3896 1.89473E-01
 -1      3897 1.89215E-01
 -1      3898 4.49045E+00
 -1      3899 4.03853E+00
 -1      3900 1.46724E-01
 -1      3901 1.58709E-01
 -1      3902 1.32024E-01
 -1      3903 6.84274E+00
 -1      3904 4.65278E+00
 -1      3905 6.51686E-02
 -1      3906 6.75342E-02
 -1      3907 5.43151E-02
 -1      3908 6.12926E+00
 -1      3909 4.37920E+00
 -1      3910 4.88221E+00
 -1      3911 5.08642E+00
 -1      3912 1.86315E-01
 -1      3913 1.86315E-01
 -1      3914 1.57813E-01
 -1      3915 2.63222E+00
 -1      3916 3.63020E+00
 -1      3917 2.31519E+00
 -1      3918 4.04796E+00
 -1      3919 1.59566E-01
 -1      3920 1.93321E-01
 -1      3921 1.19701E-01
 -1      3922 1.14916E-01
 -1      3923 1.11973E-01
 -1      3924 1.04734E-01
 -1      3925 1.00580E-01
 -1      3926 9.96590E-02
 -1      3927 9.25247E-02
 -1      3928 9.25618E-02
 -1      3929 8.64057E-02
 -1      3930 7.95371E-02
 -1      3931 8.13676E-02
 -1      3932 7.70519E-02
 -1      3933 6.96006E-02
 -1      3934 7.27635E-02
 -1      3935 6.90756E-02
 -1      3936 6.64856E-02
 -1      3937 6.97534E-02
 -1      3938 6.73358E-02
 -1      3939 6.88704E-02
 -1      3940 7.00786E-02
 -1      3941 7.23691E-02
 -1      3942 7.58182E-02
 -1      3943 7.44274E-02
 -1      3944 8.19171E-02
 -1      3945 9.01976E-02
 -1      3946 8.40249E-02
 -1      3947 1.00537E-01
 -1      3948 1.20381E-01
 -1      3949 1.00463E-01
 -1      3950 1.35677E-01
 -1      3951 1.60515E-01
 -1      3952 1.26099E-01
 -1      3953 1.85254E-01
 -1      3954 2.16339E-01
 -1      3955 1.66134E-01
 -1      3956 2.48063E-01
 -1      3957 2.86926E-01
 -1      3958 2.22597E-01
 -1      3959 3.27886E-01
 -1      3960 3.76470E-01
 -1      3961 2.95282E-01
 -1      3962 4.30056E-01
 -1      3963 4.90921E-01
 -1      3964 3.89829E-01
 -1      3965 5.62535E-01
 -1      3966 6.39072E-01
 -1      3967 5.15030E-01
 -1      3968 7.37738E-01
 -1      3969 8.34038E-01
 -1      3970 6.85310E-01
 -1      3971 9.74901E-01
 -1      3972 1.09392E+00
 -1      3973 9.24840E-01
 -1      3974 1.29149E+00
 -1      3975 1.46083E+00
 -1      3976 1.26327E+00
 -1      3977 1.75639E+00
 -1      3978 2.12011E+00
 -1      3979 1.75639E+00
 -1      3980 2.99662E+00
 -1      3981 4.28482E+00
 -1      3982 2.92846E+00
 -1      3983 4.68955E+00
 -1      3984 3.78659E-01
 -1      3985 3.27830E-01
 -1      3986 1.21433E-01
 -1      3987 1.15867E-01
 -1      3988 1.11112E-01
 -1      3989 8.22190E-02
 -1      3990 7.43697E-02
 -1      3991 1.78834E-01
 -1      3992 2.07079E-01
 -1      3993 1.96698E-01
 -1      3994 4.39964E+00
 -1      3995 4.72538E+00
 -1      3996 4.70662E+00
 -1      3997 2.86898E-01
 -1      3998 2.46560E-01
 -1      3999 2.95468E-01
 -1      4000 2.14492E-01
 -1      4001 1.82440E-01
 -1      4002 2.22469E-01
 -1      4003 4.95839E-01
 -1      4004 4.31532E-01
 -1      4005 3.89274E-01
 -1      4006 6.47633E-01
 -1      4007 5.65612E-01
 -1      4008 5.11919E-01
 -1      4009 8.48572E-01
 -1      4010 7.42831E-01
 -1      4011 6.76889E-01
 -1      4012 1.12158E+00
 -1      4013 9.84537E-01
 -1      4014 9.08052E-01
 -1      4015 1.50101E+00
 -1      4016 1.32119E+00
 -1      4017 1.24362E+00
 -1      4018 2.07529E+00
 -1      4019 1.80685E+00
 -1      4020 1.74906E+00
 -1      4021 3.62880E+00
 -1      4022 2.73956E+00
 -1      4023 2.71917E+00
 -1      4024 1.79627E-01
 -1      4025 1.86315E-01
 -1      4026 1.54654E-01
 -1      4027 1.34594E-01
 -1      4028 4.37920E+00
 -1      4029 4.49045E+00
 -1      4030 3.51894E+00
 -1      4031 1.73931E-01
 -1      4032 4.33195E+00
 -1      4033 1.96698E-01
 -1      4034 1.84238E-01
 -1      4035 1.67850E-01
 -1      4036 1.96698E-01
 -1      4037 4.49045E+00
 -1      4038 1.07734E-01
 -1      4039 1.13918E-01
 -1      4040 1.06219E-01
 -1      4041 9.90352E-02
 -1      4042 8.21343E-02
 -1      4043 1.35066E-01
 -1      4044 1.50163E-01
 -1      4045 1.64928E-01
 -1      4046 1.75594E-01
 -1      4047 1.46816E-01
 -1      4048 1.77481E-01
 -1      4049 1.84081E-01
 -1      4050 1.51606E-01
 -1      4051 1.54923E-01
 -1      4052 1.11986E-01
 -1      4053 9.16650E-02
 -1      4054 9.10200E-02
 -1      4055 5.42277E+00
 -1      4056 4.86761E+00
 -1      4057 5.40816E+00
 -1      4058 1.57176E-01
 -1      4059 1.31689E-01
 -1      4060 1.20169E-01
 -1      4061 1.19724E-01
 -1      4062 1.19164E-01
 -1      4063 9.66402E-02
 -1      4064 7.44162E-02
 -1      4065 8.28906E-02
 -1      4066 1.14337E-01
 -1      4067 9.84020E-02
 -1      4068 1.18462E-01
 -1      4069 7.99668E-02
 -1      4070 7.78044E-02
 -1      4071 8.71710E-02
 -1      4072 4.60657E+00
 -1      4073 5.08642E+00
 -1      4074 1.00421E-01
 -1      4075 1.29369E-01
 -1      4076 1.32527E-01
 -1      4077 1.02985E-01
 -1      4078 1.03104E-01
 -1      4079 1.10689E-01
 -1      4080 4.37154E+00
 -1      4081 3.83099E+00
 -1      4082 3.90358E+00
 -1      4083 6.11493E-02
 -1      4084 1.16699E-01
 -1      4085 1.25271E-01
 -1      4086 1.03936E-01
 -1      4087 5.40816E+00
 -1      4088 6.00113E-02
 -1      4089 6.80875E-02
 -1      4090 6.68933E-02
 -1      4091 4.16222E+00
 -1      4092 1.65137E-01
 -1      4093 1.06052E-01
 -1      4094 1.34496E-01
 -1      4095 1.52359E-01
 -1      4096 3.56995E+00
 -1      4097 8.87032E-02
 -1      4098 9.65647E-02
 -1      4099 9.13865E-02
 -1      4100 7.90346E-02
 -1      4101 1.29369E-01
 -1      4102 1.29369E-01
 -1      4103 1.04083E-01
 -1      4104 9.31768E-02
 -1      4105 9.19383E-02
 -1      4106 8.68630E-02
 -1      4107 8.40637E-02
 -1      4108 7.79447E-02
 -1      4109 8.34402E-02
 -1      4110 7.39641E-02
 -1      4111 7.14789E-02
 -1      4112 7.66601E-02
 -1      4113 7.02784E-02
 -1      4114 6.97534E-02
 -1      4115 7.14789E-02
 -1      4116 7.00786E-02
 -1      4117 7.09288E-02
 -1      4118 7.06036E-02
 -1      4119 8.20796E-02
 -1      4120 8.55782E-02
 -1      4121 8.20796E-02
 -1      4122 8.40249E-02
 -1      4123 9.01238E-02
 -1      4124 9.16771E-02
 -1      4125 1.00463E-01
 -1      4126 1.10802E-01
 -1      4127 1.00463E-01
 -1      4128 1.24814E-01
 -1      4129 1.40110E-01
 -1      4130 1.24814E-01
 -1      4131 1.59540E-01
 -1      4132 1.84279E-01
 -1      4133 1.58255E-01
 -1      4134 2.11678E-01
 -1      4135 2.43402E-01
 -1      4136 2.05083E-01
 -1      4137 2.79507E-01
 -1      4138 3.20467E-01
 -1      4139 2.68587E-01
 -1      4140 3.68722E-01
 -1      4141 4.22309E-01
 -1      4142 3.52947E-01
 -1      4143 4.88434E-01
 -1      4144 5.60049E-01
 -1      4145 4.67328E-01
 -1      4146 6.53839E-01
 -1      4147 7.52505E-01
 -1      4148 6.27243E-01
 -1      4149 8.90500E-01
 -1      4150 1.03136E+00
 -1      4151 8.59028E-01
 -1      4152 1.23627E+00
 -1      4153 1.43383E+00
 -1      4154 1.20193E+00
 -1      4155 1.66171E+00
 -1      4156 1.95726E+00
 -1      4157 1.63470E+00
 -1      4158 2.13768E+00
 -1      4159 3.01419E+00
 -1      4160 2.77917E+00
 -1      4161 2.04299E+00
 -1      4162 9.30784E-02
 -1      4163 9.36162E-02
 -1      4164 5.06496E-01
 -1      4165 4.36724E-01
 -1      4166 5.99153E+00
 -1      4167 6.28406E-02
 -1      4168 6.11493E-02
 -1      4169 6.17026E-02
 -1      4170 7.78044E-02
 -1      4171 2.99157E-01
 -1      4172 2.58225E-01
 -1      4173 2.29607E-01
 -1      4174 1.97539E-01
 -1      4175 2.33296E-01
 -1      4176 6.65409E-01
 -1      4177 5.70211E-01
 -1      4178 4.95015E-01
 -1      4179 8.89590E-01
 -1      4180 7.53626E-01
 -1      4181 6.46947E-01
 -1      4182 1.22042E+00
 -1      4183 1.02082E+00
 -1      4184 8.66389E-01
 -1      4185 1.79970E+00
 -1      4186 1.49385E+00
 -1      4187 1.27105E+00
 -1      4188 3.20538E+00
 -1      4189 2.54111E+00
 -1      4190 2.28590E+00
 -1      4191 3.88842E-01
 -1      4192 3.35968E-01
 -1      4193 2.98725E-01
 -1      4194 1.29145E-01
 -1      4195 1.35364E-01
 -1      4196 1.13819E-01
 -1      4197 1.52359E-01
 -1      4198 1.52359E-01
 -1      4199 9.07282E-02
 -1      4200 1.08021E-01
 -1      4201 7.87536E-02
 -1      4202 8.45603E-02
 -1      4203 7.51919E-02
 -1      4204 1.00466E-01
 -1      4205 9.10200E-02
 -1      4206 3.74977E+00
 -1      4207 3.98415E+00
 -1      4208 9.54943E-02
 -1      4209 9.25516E-02
 -1      4210 8.55880E-02
 -1      4211 1.75318E-01
 -1      4212 1.50054E-01
 -1      4213 1.82456E-01
 -1      4214 1.32997E-01
 -1      4215 1.13293E-01
 -1      4216 1.43177E-01
 -1      4217 5.40816E+00
 -1      4218 8.74022E-02
 -1      4219 9.29993E-02
 -1      4220 9.68482E-02
 -1      4221 7.69314E-02
 -1      4222 8.27440E-02
 -1      4223 8.68528E-02
 -1      4224 3.83418E-01
 -1      4225 3.01951E+00
 -1      4226 3.58817E+00
 -1      4227 2.86570E+00
 -1      4228 2.46375E+00
 -1      4229 9.26960E-02
 -1      4230 9.87060E-02
 -1      4231 6.66220E-02
 -1      4232 7.29508E-02
 -1      4233 7.66601E-02
 -1      4234 1.13293E-01
 -1      4235 1.17951E-01
 -1      4236 1.35622E-01
 -1      4237 1.37509E-01
 -1      4238 9.20827E-02
 -1      4239 8.68528E-02
 -1      4240 8.55434E-02
 -1      4241 6.44890E-02
 -1      4242 7.31882E-02
 -1      4243 6.11083E-02
 -1      4244 8.17821E-02
 -1      4245 9.74030E-02
 -1      4246 9.74030E-02
 -1      4247 1.28819E-01
 -1      4248 1.23615E-01
 -1      4249 9.15492E-02
 -1      4250 1.09518E-01
 -1      4251 7.31329E-02
 -1      4252 7.98129E-02
 -1      4253 8.81798E-02
 -1      4254 9.94197E-02
 -1      4255 1.03293E-01
 -1      4256 1.18461E-01
 -1      4257 1.05634E-01
 -1      4258 8.74661E-02
 -1      4259 8.68528E-02
 -1      4260 8.63017E-02
 -1      4261 8.81798E-02
 -1      4262 8.62396E-02
 -1      4263 8.34402E-02
 -1      4264 8.06408E-02
 -1      4265 7.66601E-02
 -1      4266 7.26795E-02
 -1      4267 7.14789E-02
 -1      4268 8.20796E-02
 -1      4269 9.32305E-02
 -1      4270 9.32305E-02
 -1      4271 9.16771E-02
 -1      4272 9.52949E-02
 -1      4273 1.32473E-01
 -1      4274 1.49530E-01
 -1      4275 1.68960E-01
 -1      4276 1.91181E-01
 -1      4277 2.18580E-01
 -1      4278 2.47198E-01
 -1      4279 2.83302E-01
 -1      4280 3.20114E-01
 -1      4281 3.68369E-01
 -1      4282 4.16251E-01
 -1      4283 4.82377E-01
 -1      4284 5.46092E-01
 -1      4285 6.39882E-01
 -1      4286 7.28099E-01
 -1      4287 8.66093E-01
 -1      4288 9.97319E-01
 -1      4289 1.20222E+00
 -1      4290 1.47566E+00
 -1      4291 1.70353E+00
 -1      4292 8.64968E-02
 -1      4293 9.74030E-02
 -1      4294 9.07230E-02
 -1      4295 9.57754E-02
 -1      4296 2.44494E+00
 -1      4297 8.34402E-02
 -1      4298 7.86984E-02
 -1      4299 8.17821E-02
 -1      4300 8.62618E-02
 -1      4301 9.47799E-02
 -1      4302 9.73716E-02
 -1      4303 9.82864E-02
 -1      4304 7.03326E-02
 -1      4305 6.91321E-02
 -1      4306 6.94573E-02
 -1      4307 6.42752E-02
 -1      4308 9.32305E-02
 -1      4309 6.54132E-02
 -1      4310 8.06081E-02
 -1      4311 9.29993E-02
 -1      4312 1.11771E-01
 -1      4313 1.12029E-01
 -1      4314 7.80355E-02
 -1      4315 1.04466E-01
 -1      4316 2.28334E+00
 -1      4317 1.04466E-01
 -3
 9999
